# vtk DataFile Version 2.0
Calculation C:\Users\NickSteudtner\Documents\GitHub\TOCHNOG\standsicherheit_phiC at time 1.100000000000e+01 
ASCII
DATASET UNSTRUCTURED_GRID
Field FieldData 1
Time 1 1 double
1.100000000000e+01

POINTS 1028 float
0.0 0.0 0.0 
5.000000000000e+01 -1.000000000000e+01 0.0 
0.0 -2.000000000000e+01 0.0 
5.000000000000e+01 -2.000000000000e+01 0.0 
0.0 -9.999999999991e-01 0.0 
0.0 -1.999999999998e+00 0.0 
0.0 -2.999999999997e+00 0.0 
0.0 -3.999999999994e+00 0.0 
0.0 -4.999999999991e+00 0.0 
0.0 -5.999999999988e+00 0.0 
0.0 -6.999999999985e+00 0.0 
0.0 -7.999999999982e+00 0.0 
0.0 -8.999999999983e+00 0.0 
0.0 -9.999999999985e+00 0.0 
0.0 -1.099999999999e+01 0.0 
0.0 -1.199999999999e+01 0.0 
0.0 -1.299999999999e+01 0.0 
0.0 -1.399999999999e+01 0.0 
0.0 -1.499999999999e+01 0.0 
0.0 -1.599999999999e+01 0.0 
0.0 -1.700000000000e+01 0.0 
0.0 -1.800000000000e+01 0.0 
0.0 -1.900000000000e+01 0.0 
4.900000000001e+01 -2.000000000000e+01 0.0 
4.800000000001e+01 -2.000000000000e+01 0.0 
4.700000000002e+01 -2.000000000000e+01 0.0 
4.600000000003e+01 -2.000000000000e+01 0.0 
4.500000000004e+01 -2.000000000000e+01 0.0 
4.400000000004e+01 -2.000000000000e+01 0.0 
4.300000000005e+01 -2.000000000000e+01 0.0 
4.200000000006e+01 -2.000000000000e+01 0.0 
4.100000000006e+01 -2.000000000000e+01 0.0 
4.000000000007e+01 -2.000000000000e+01 0.0 
3.900000000008e+01 -2.000000000000e+01 0.0 
3.800000000009e+01 -2.000000000000e+01 0.0 
3.700000000009e+01 -2.000000000000e+01 0.0 
3.600000000010e+01 -2.000000000000e+01 0.0 
3.500000000011e+01 -2.000000000000e+01 0.0 
3.400000000011e+01 -2.000000000000e+01 0.0 
3.300000000012e+01 -2.000000000000e+01 0.0 
3.200000000013e+01 -2.000000000000e+01 0.0 
3.100000000013e+01 -2.000000000000e+01 0.0 
3.000000000013e+01 -2.000000000000e+01 0.0 
2.900000000013e+01 -2.000000000000e+01 0.0 
2.800000000013e+01 -2.000000000000e+01 0.0 
2.700000000013e+01 -2.000000000000e+01 0.0 
2.600000000013e+01 -2.000000000000e+01 0.0 
2.500000000013e+01 -2.000000000000e+01 0.0 
2.400000000013e+01 -2.000000000000e+01 0.0 
2.300000000013e+01 -2.000000000000e+01 0.0 
2.200000000013e+01 -2.000000000000e+01 0.0 
2.100000000013e+01 -2.000000000000e+01 0.0 
2.000000000013e+01 -2.000000000000e+01 0.0 
1.900000000013e+01 -2.000000000000e+01 0.0 
1.800000000013e+01 -2.000000000000e+01 0.0 
1.700000000012e+01 -2.000000000000e+01 0.0 
1.600000000011e+01 -2.000000000000e+01 0.0 
1.500000000011e+01 -2.000000000000e+01 0.0 
1.400000000010e+01 -2.000000000000e+01 0.0 
1.300000000009e+01 -2.000000000000e+01 0.0 
1.200000000009e+01 -2.000000000000e+01 0.0 
1.100000000008e+01 -2.000000000000e+01 0.0 
1.000000000007e+01 -2.000000000000e+01 0.0 
9.000000000064e+00 -2.000000000000e+01 0.0 
8.000000000057e+00 -2.000000000000e+01 0.0 
7.000000000050e+00 -2.000000000000e+01 0.0 
6.000000000043e+00 -2.000000000000e+01 0.0 
5.000000000036e+00 -2.000000000000e+01 0.0 
4.000000000028e+00 -2.000000000000e+01 0.0 
3.000000000021e+00 -2.000000000000e+01 0.0 
2.000000000014e+00 -2.000000000000e+01 0.0 
1.000000000007e+00 -2.000000000000e+01 0.0 
5.000000000000e+01 -1.100000000000e+01 0.0 
5.000000000000e+01 -1.200000000000e+01 0.0 
5.000000000000e+01 -1.300000000000e+01 0.0 
5.000000000000e+01 -1.400000000000e+01 0.0 
5.000000000000e+01 -1.500000000000e+01 0.0 
5.000000000000e+01 -1.600000000000e+01 0.0 
5.000000000000e+01 -1.700000000000e+01 0.0 
5.000000000000e+01 -1.800000000000e+01 0.0 
5.000000000000e+01 -1.900000000000e+01 0.0 
2.000000000000e+01 0.0 0.0 
3.500000000000e+01 -1.000000000000e+01 0.0 
2.150000000000e+01 -1.000000000000e+00 0.0 
2.300000000000e+01 -2.000000000000e+00 0.0 
2.450000000000e+01 -3.000000000000e+00 0.0 
2.600000000000e+01 -4.000000000000e+00 0.0 
2.750000000000e+01 -5.000000000000e+00 0.0 
2.900000000000e+01 -6.000000000000e+00 0.0 
3.050000000000e+01 -7.000000000000e+00 0.0 
3.200000000000e+01 -8.000000000000e+00 0.0 
3.350000000000e+01 -9.000000000000e+00 0.0 
4.900000000000e+01 -1.000000000000e+01 0.0 
4.800000000000e+01 -1.000000000000e+01 0.0 
4.700000000000e+01 -1.000000000000e+01 0.0 
4.600000000000e+01 -1.000000000000e+01 0.0 
4.500000000000e+01 -1.000000000000e+01 0.0 
4.400000000000e+01 -1.000000000000e+01 0.0 
4.300000000000e+01 -1.000000000000e+01 0.0 
4.200000000000e+01 -1.000000000000e+01 0.0 
4.100000000000e+01 -1.000000000000e+01 0.0 
4.000000000000e+01 -1.000000000000e+01 0.0 
3.900000000000e+01 -1.000000000000e+01 0.0 
3.800000000000e+01 -1.000000000000e+01 0.0 
3.700000000000e+01 -1.000000000000e+01 0.0 
3.600000000000e+01 -1.000000000000e+01 0.0 
1.900000000000e+01 0.0 0.0 
1.800000000000e+01 0.0 0.0 
1.700000000000e+01 0.0 0.0 
1.600000000000e+01 0.0 0.0 
1.500000000000e+01 0.0 0.0 
1.400000000000e+01 0.0 0.0 
1.300000000000e+01 0.0 0.0 
1.200000000000e+01 0.0 0.0 
1.100000000000e+01 0.0 0.0 
1.000000000000e+01 0.0 0.0 
9.000000000000e+00 0.0 0.0 
8.000000000000e+00 0.0 0.0 
7.000000000000e+00 0.0 0.0 
6.000000000000e+00 0.0 0.0 
5.000000000000e+00 0.0 0.0 
4.000000000000e+00 0.0 0.0 
3.000000000000e+00 0.0 0.0 
2.000000000000e+00 0.0 0.0 
1.000000000000e+00 0.0 0.0 
2.075000000000e+01 -5.000000000006e-01 0.0 
2.225000000000e+01 -1.500000000000e+00 0.0 
2.375000000000e+01 -2.500000000000e+00 0.0 
2.525000000000e+01 -3.500000000000e+00 0.0 
2.675000000000e+01 -4.500000000000e+00 0.0 
2.825000000000e+01 -5.500000000000e+00 0.0 
2.975000000000e+01 -6.500000000000e+00 0.0 
3.125000000000e+01 -7.500000000000e+00 0.0 
3.275000000000e+01 -8.500000000000e+00 0.0 
3.425000000000e+01 -9.500000000000e+00 0.0 
2.226951693683e+01 -2.403913980114e+00 0.0 
1.650149491944e+01 -1.913490915758e+01 0.0 
1.050042386896e+01 -8.504605092970e-01 0.0 
1.553146524712e+01 -8.281255032105e-01 0.0 
1.150000000008e+01 -1.913397459621e+01 0.0 
2.530060260647e+01 -4.428336431260e+00 0.0 
8.651114563942e-01 -1.052096295641e+01 0.0 
2.050000000013e+01 -1.913397459622e+01 0.0 
2.819198729811e+01 -6.399519052838e+00 0.0 
2.445670302931e+01 -1.915649188023e+01 0.0 
3.117591465718e+01 -8.394293040695e+00 0.0 
7.465053044742e+00 -1.920411160581e+01 0.0 
6.398295709691e+00 -8.230098819370e-01 0.0 
2.849659607461e+01 -1.914296187762e+01 0.0 
3.418732642882e+01 -1.040265792588e+01 0.0 
8.386450935063e-01 -6.533605142809e+00 0.0 
9.178661865596e-01 -1.329769195597e+01 0.0 
3.149448624493e+01 -1.910466733764e+01 0.0 
3.552916747426e+01 -1.914628590759e+01 0.0 
4.449210346537e+01 -1.914359085008e+01 0.0 
4.140975975145e+01 -1.906941860733e+01 0.0 
3.847475958753e+01 -1.916622382724e+01 0.0 
3.653774794640e+01 -1.088712800241e+01 0.0 
4.047886341787e+01 -1.090139014048e+01 0.0 
4.348006339825e+01 -1.092792621489e+01 0.0 
4.919519968029e+01 -1.451526755068e+01 0.0 
4.500000000032e+00 -1.913397459621e+01 0.0 
1.856136921614e+01 -8.212235170404e-01 0.0 
3.499895312306e+00 -8.661165539723e-01 0.0 
9.076088696565e-01 -1.642306201891e+01 0.0 
4.655174095477e+01 -1.086183387525e+01 0.0 
9.430688970604e-01 -3.496112672958e+00 0.0 
3.353992337063e+01 -1.901202090820e+01 0.0 
2.249746016977e+01 -1.921262287282e+01 0.0 
2.650122741777e+01 -1.916123026018e+01 0.0 
1.863571384842e+01 -1.908325534840e+01 0.0 
1.450089971693e+01 -1.917691901860e+01 0.0 
1.350044695317e+01 -8.659695299584e-01 0.0 
3.849987469880e+01 -1.084154983397e+01 0.0 
9.454419857884e+00 -1.900818879936e+01 0.0 
4.917398660523e+01 -1.645692866081e+01 0.0 
8.500000000000e+00 -8.660254037844e-01 0.0 
8.660319230785e-01 -8.500111697188e+00 0.0 
4.649022621545e+01 -1.930506220113e+01 0.0 
2.667688107845e+01 -5.420288124331e+00 0.0 
2.379251615665e+01 -3.412225477429e+00 0.0 
2.966631491830e+01 -7.389030232731e+00 0.0 
3.267915035995e+01 -9.396934932445e+00 0.0 
2.074836922338e+01 -1.320054020319e+00 0.0 
4.915985743621e+01 -1.261973384855e+01 0.0 
2.527129768623e+00 -1.931592414663e+01 0.0 
1.538676247410e+00 -8.436956619311e-01 0.0 
4.908096641539e+01 -1.842484004551e+01 0.0 
3.478612492673e+01 -1.090889364140e+01 0.0 
3.409757055860e+01 -1.131991530427e+01 0.0 
3.501895309466e+01 -1.177687842717e+01 0.0 
3.407758073088e+01 -1.224293381580e+01 0.0 
3.484541875390e+01 -1.277051428430e+01 0.0 
3.400322025842e+01 -1.319022775640e+01 0.0 
3.321672625034e+01 -1.266779191233e+01 0.0 
3.315244139236e+01 -1.360984106532e+01 0.0 
3.236335186892e+01 -1.308463225210e+01 0.0 
3.478337442841e+01 -1.372341158982e+01 0.0 
3.230105923633e+01 -1.403023731610e+01 0.0 
3.150954055289e+01 -1.350301767700e+01 0.0 
3.144604792090e+01 -1.444931742516e+01 0.0 
3.065653897123e+01 -1.392357262981e+01 0.0 
3.071897610812e+01 -1.297447031198e+01 0.0 
2.986790411740e+01 -1.339226181535e+01 0.0 
2.993181466745e+01 -1.244703272398e+01 0.0 
2.908023061869e+01 -1.286254537734e+01 0.0 
2.901619051372e+01 -1.380881655279e+01 0.0 
2.822986160390e+01 -1.327695262116e+01 0.0 
2.829453476870e+01 -1.233265343811e+01 0.0 
2.744542905518e+01 -1.274510491105e+01 0.0 
2.751120089246e+01 -1.180368086886e+01 0.0 
2.666218649885e+01 -1.221619339205e+01 0.0 
2.672371209234e+01 -1.127125228527e+01 0.0 
2.587763216302e+01 -1.168539979114e+01 0.0 
2.581165585299e+01 -1.262994410089e+01 0.0 
2.502890882577e+01 -1.209827323619e+01 0.0 
2.509631327757e+01 -1.115492410304e+01 0.0 
2.424662989877e+01 -1.156630981079e+01 0.0 
2.431704046904e+01 -1.062389179334e+01 0.0 
2.346445438728e+01 -1.103427680694e+01 0.0 
2.339382552877e+01 -1.197964871788e+01 0.0 
2.260936050780e+01 -1.144513277642e+01 0.0 
2.268075012022e+01 -1.049911928216e+01 0.0 
2.182525737661e+01 -1.090920811464e+01 0.0 
2.189682319817e+01 -9.961716944568e+00 0.0 
2.104174127792e+01 -1.037266986667e+01 0.0 
2.111304367575e+01 -9.424179358711e+00 0.0 
2.025306185381e+01 -9.832727364719e+00 0.0 
2.018141124247e+01 -1.079140628871e+01 0.0 
1.938594498257e+01 -1.025147354112e+01 0.0 
1.946106490453e+01 -9.288010758448e+00 0.0 
1.858929958352e+01 -9.706319802516e+00 0.0 
1.851540991219e+01 -1.067205988724e+01 0.0 
1.771485303178e+01 -1.012504443115e+01 0.0 
1.764134552256e+01 -1.109360378538e+01 0.0 
1.683745148095e+01 -1.054496365337e+01 0.0 
1.691852964353e+01 -9.582555261178e+00 0.0 
1.603603813062e+01 -1.000160132379e+01 0.0 
1.595824239350e+01 -1.096750698862e+01 0.0 
1.515080624291e+01 -1.041639501931e+01 0.0 
1.523171602559e+01 -9.451711491453e+00 0.0 
1.434621060709e+01 -9.871956467464e+00 0.0 
1.426777178765e+01 -1.083749501371e+01 0.0 
1.345775282374e+01 -1.028803175500e+01 0.0 
1.354103873368e+01 -9.324918457162e+00 0.0 
1.265072018622e+01 -9.742612837270e+00 0.0 
1.257285762070e+01 -1.071557782384e+01 0.0 
1.175874815690e+01 -1.015972324288e+01 0.0 
1.184203019714e+01 -9.193604071377e+00 0.0 
1.094927709905e+01 -9.612103238656e+00 0.0 
1.086938022910e+01 -1.058685085646e+01 0.0 
1.005424098961e+01 -1.002939116380e+01 0.0 
9.977974613295e+00 -1.101324897989e+01 0.0 
1.012915646404e+01 -9.051815821181e+00 0.0 
9.237127782494e+00 -9.471239055559e+00 0.0 
9.308426593771e+00 -8.483376461131e+00 0.0 
8.418806073345e+00 -8.910712374517e+00 0.0 
2.253688464062e+01 -1.239459402279e+01 0.0 
8.495126726666e+00 -7.921646665254e+00 0.0 
9.389727383206e+00 -7.512103628377e+00 0.0 
7.601560812974e+00 -8.349460349344e+00 0.0 
7.525680547759e+00 -9.339736686940e+00 0.0 
7.677888324502e+00 -7.359727833346e+00 0.0 
6.782001206724e+00 -7.788454494773e+00 0.0 
6.858778622885e+00 -6.797338062822e+00 0.0 
2.196596590865e+01 -8.979025665442e+00 0.0 
2.816540108272e+01 -1.422634142353e+01 0.0 
5.961601194403e+00 -7.226824010712e+00 0.0 
6.038171749656e+00 -6.234825887079e+00 0.0 
6.936257279557e+00 -5.805287640737e+00 0.0 
6.115068918323e+00 -5.242109758768e+00 0.0 
3.564391741903e+01 -1.329240553876e+01 0.0 
3.558115605778e+01 -1.425902892003e+01 0.0 
3.645445282201e+01 -1.381970786460e+01 0.0 
3.639744204358e+01 -1.479198128612e+01 0.0 
3.727266909778e+01 -1.435399586226e+01 0.0 
5.216667013081e+00 -5.671788584287e+00 0.0 
3.220697293295e+01 -1.499594545107e+01 0.0 
3.551112158269e+01 -1.523479869250e+01 0.0 
2.836056961467e+01 -1.139032434851e+01 0.0 
2.516730388602e+01 -1.021382726837e+01 0.0 
1.844436907403e+01 -1.164097215196e+01 0.0 
5.885434318740e+00 -8.218694781467e+00 0.0 
5.064071066867e+00 -7.656614643901e+00 0.0 
4.988089103470e+00 -8.649722082718e+00 0.0 
1.079421050408e+01 -1.157014985435e+01 0.0 
9.902420005256e+00 -1.199903342656e+01 0.0 
1.071994252214e+01 -1.255727909771e+01 0.0 
9.826974788171e+00 -1.298659581767e+01 0.0 
1.064607883789e+01 -1.354595476388e+01 0.0 
9.751541265343e+00 -1.397556905071e+01 0.0 
8.932296185869e+00 -1.341553353988e+01 0.0 
8.856399248106e+00 -1.440570715508e+01 0.0 
8.036186803543e+00 -1.384470558472e+01 0.0 
1.057112875118e+01 -1.453516759081e+01 0.0 
1.146582585687e+01 -1.410539926903e+01 0.0 
7.959894480382e+00 -1.483563350928e+01 0.0 
7.138792279156e+00 -1.427465094140e+01 0.0 
7.062506792418e+00 -1.526615385482e+01 0.0 
6.240693558277e+00 -1.470508863040e+01 0.0 
6.316957575451e+00 -1.371212581281e+01 0.0 
5.418183007107e+00 -1.414253605022e+01 0.0 
5.494748364428e+00 -1.314886770603e+01 0.0 
1.756825565873e+01 -1.206433872514e+01 0.0 
1.837565773345e+01 -1.261356468266e+01 0.0 
1.749574831391e+01 -1.303769280014e+01 0.0 
1.830539187332e+01 -1.358828364284e+01 0.0 
1.742278925170e+01 -1.401367746928e+01 0.0 
1.823303007798e+01 -1.456432294258e+01 0.0 
1.734941694138e+01 -1.499213734361e+01 0.0 
1.653760041637e+01 -1.443920312098e+01 0.0 
3.056237977307e+01 -1.487132260174e+01 0.0 
1.866469084762e+01 -8.742953000418e+00 0.0 
1.953669694916e+01 -8.326038909849e+00 0.0 
1.874194303780e+01 -7.780688158966e+00 0.0 
1.961032016741e+01 -7.366854697285e+00 0.0 
1.881715755159e+01 -6.821102209649e+00 0.0 
1.968369797150e+01 -6.407747217358e+00 0.0 
1.889237123259e+01 -5.858375520026e+00 0.0 
1.802038875366e+01 -6.276202618170e+00 0.0 
1.809793837984e+01 -5.307629520489e+00 0.0 
1.721985207997e+01 -5.728242054488e+00 0.0 
1.729850893523e+01 -4.756990819347e+00 0.0 
1.641745664240e+01 -5.174636548624e+00 0.0 
2.495978509456e+01 -1.304406404294e+01 0.0 
1.911567814831e+01 -1.413854250293e+01 0.0 
1.904387332608e+01 -1.511463127723e+01 0.0 
1.992115934240e+01 -1.468788025898e+01 0.0 
7.013706899628e+00 -4.812582868662e+00 0.0 
5.342091874585e+00 -1.513658157269e+01 0.0 
1.139098043784e+01 -1.509488509480e+01 0.0 
1.228151810610e+01 -1.465617481983e+01 0.0 
1.646373110164e+01 -1.541993323337e+01 0.0 
5.293328636712e+00 -4.678385108584e+00 0.0 
1.975965862987e+01 -5.448124345648e+00 0.0 
2.054318374236e+01 -5.992561293251e+00 0.0 
3.721453439063e+01 -1.533216152738e+01 0.0 
3.809302733893e+01 -1.489235527381e+01 0.0 
1.220852788900e+01 -1.565304565230e+01 0.0 
4.394120899730e+00 -5.108397613210e+00 0.0 
8.779354620288e+00 -1.539524721159e+01 0.0 
1.817791047702e+01 -4.338570146253e+00 0.0 
4.518860013839e+00 -1.457343189307e+01 0.0 
4.442712140414e+00 -1.556841391069e+01 0.0 
8.115343466391e+00 -1.285760324283e+01 0.0 
1.985334703171e+01 -1.566478400426e+01 0.0 
2.071953850276e+01 -1.522074243119e+01 0.0 
1.634012953883e+01 -6.154777738301e+00 0.0 
1.553479994708e+01 -5.593730508879e+00 0.0 
1.561265946942e+01 -4.617761762647e+00 0.0 
1.470674212978e+01 -5.064576488228e+00 0.0 
1.464498299883e+01 -6.026514471420e+00 0.0 
1.383271561817e+01 -5.467796261169e+00 0.0 
1.389241253067e+01 -4.504338666645e+00 0.0 
1.301868735463e+01 -4.907185188626e+00 0.0 
1.294514184846e+01 -5.888160903592e+00 0.0 
1.212955968622e+01 -5.328262335277e+00 0.0 
1.220721122383e+01 -4.341264976687e+00 0.0 
1.131324345897e+01 -4.766773516508e+00 0.0 
5.266597955397e+00 -1.613148974258e+01 0.0 
1.737805990867e+01 -3.786677807525e+00 0.0 
3.078438094513e+01 -1.203225297748e+01 0.0 
1.131569882285e+01 -1.608511932110e+01 0.0 
1.728478341782e+01 -1.596017432313e+01 0.0 
3.803465906019e+01 -1.587509751228e+01 0.0 
3.891681276677e+01 -1.543395196905e+01 0.0 
3.897340985302e+01 -1.444710288980e+01 0.0 
3.980095968193e+01 -1.499059496613e+01 0.0 
3.974334598189e+01 -1.597921884150e+01 0.0 
4.062964983717e+01 -1.553518690417e+01 0.0 
4.068729602479e+01 -1.454434445295e+01 0.0 
4.151772679790e+01 -1.508974196007e+01 0.0 
4.157505195739e+01 -1.409694289912e+01 0.0 
4.240699932656e+01 -1.464347955968e+01 0.0 
4.234898051011e+01 -1.563721375790e+01 0.0 
4.323934606035e+01 -1.519082036405e+01 0.0 
4.329740528208e+01 -1.419587509788e+01 0.0 
4.413056841369e+01 -1.474359631875e+01 0.0 
4.418850110108e+01 -1.374786684042e+01 0.0 
4.502219770667e+01 -1.429605103525e+01 0.0 
4.496411937907e+01 -1.529215882720e+01 0.0 
4.490027319897e+00 -4.154167794594e+00 0.0 
1.565080385988e+01 -1.486411982419e+01 0.0 
1.557610691279e+01 -1.584855627870e+01 0.0 
4.195350646612e+00 -8.089117689096e+00 0.0 
4.124027797830e+00 -9.082831955007e+00 0.0 
4.917944318925e+00 -9.643530901533e+00 0.0 
4.020105689502e+00 -1.007439673661e+01 0.0 
4.587185899277e+01 -1.484039992728e+01 0.0 
4.580078661551e+01 -1.584043391042e+01 0.0 
2.061956522375e+01 -5.046701343981e+00 0.0 
2.139572955529e+01 -5.579553449826e+00 0.0 
3.715344357292e+01 -1.631485124583e+01 0.0 
3.618886196443e+00 -1.500471207167e+01 0.0 
3.695606940204e+00 -1.400939692294e+01 0.0 
2.438890661143e+01 -9.686110599723e+00 0.0 
2.523267572778e+01 -9.276766000622e+00 0.0 
2.446094171539e+01 -8.751904591412e+00 0.0 
2.529089822738e+01 -8.321495612547e+00 0.0 
2.606882688827e+01 -8.864724051119e+00 0.0 
2.452116646430e+01 -7.792756462004e+00 0.0 
1.235543269617e+01 -1.365845617339e+01 0.0 
4.318116874181e+01 -1.618567469992e+01 0.0 
7.835066111909e+00 -5.376366223896e+00 0.0 
7.905687335704e+00 -4.382539065697e+00 0.0 
3.542640009567e+00 -1.600035116542e+01 0.0 
1.572431503071e+01 -1.388358386695e+01 0.0 
2.574684696680e+01 -1.357896141127e+01 0.0 
2.488842657651e+01 -1.399674354505e+01 0.0 
2.568301775611e+01 -1.453552048595e+01 0.0 
2.481535572009e+01 -1.495542756508e+01 0.0 
2.561729699688e+01 -1.549784648532e+01 0.0 
2.474623061296e+01 -1.592058894178e+01 0.0 
2.394234041695e+01 -1.537572575827e+01 0.0 
2.065825452567e+01 -1.621899055217e+01 0.0 
2.387180528935e+01 -1.634552264687e+01 0.0 
4.585364400844e+01 -1.383912334080e+01 0.0 
1.998744432052e+01 -1.370317155541e+01 0.0 
1.205356951443e+01 -6.313580285498e+00 0.0 
5.396543905849e+00 -3.731818611283e+00 0.0 
1.139652573295e+01 -3.745819399350e+00 0.0 
3.574124306703e+00 -4.551456826011e+00 0.0 
3.494140761930e+00 -5.539787055649e+00 0.0 
1.213651452413e+01 -1.664505033022e+01 0.0 
2.555045568519e+01 -1.646529356744e+01 0.0 
2.641671114986e+01 -1.603899382371e+01 0.0 
2.612920721894e+01 -7.906435260873e+00 0.0 
2.690339829698e+01 -8.456969591431e+00 0.0 
1.978024383368e+01 -1.664410216353e+01 0.0 
3.732829979082e+01 -1.336926601859e+01 0.0 
4.074336584605e+01 -1.355133328401e+01 0.0 
4.163204691081e+01 -1.310280943992e+01 0.0 
3.773826114429e+00 -3.493444309145e+00 0.0 
1.228783001032e+01 -3.374822835872e+00 0.0 
4.057110462520e+01 -1.652588478000e+01 0.0 
2.132535497898e+01 -6.523623360525e+00 0.0 
2.216932532211e+01 -6.110044769206e+00 0.0 
1.825781152128e+01 -3.370146817147e+00 0.0 
1.745679445888e+01 -2.812942552063e+00 0.0 
4.666517057280e+01 -1.539981381543e+01 0.0 
4.660575894464e+01 -1.639014410186e+01 0.0 
4.838230979954e+00 -1.063643436446e+01 0.0 
3.938942630206e+00 -1.106778981745e+01 0.0 
1.302967218620e+01 -1.621373452436e+01 0.0 
1.049548003190e+01 -4.204825123240e+00 0.0 
4.573571907195e+01 -1.683820511148e+01 0.0 
1.483686335807e+01 -1.430849689310e+01 0.0 
1.490982658890e+01 -1.332679386284e+01 0.0 
3.190805600162e+00 -9.510968358545e+00 0.0 
2.146625721848e+01 -4.642437303115e+00 0.0 
2.069866208266e+01 -4.111852942193e+00 0.0 
1.286859345584e+01 -6.873252723348e+00 0.0 
1.041794493184e+01 -5.194814260291e+00 0.0 
2.671081808965e+00 -4.976806516331e+00 0.0 
1.295786792925e+01 -1.720506531799e+01 0.0 
3.968438206511e+01 -1.696869067241e+01 0.0 
2.308550456051e+01 -1.579963151273e+01 0.0 
2.315593682844e+01 -1.482967445235e+01 0.0 
2.299471449450e+01 -1.677069968132e+01 0.0 
1.057344714696e+01 -3.214252277840e+00 0.0 
1.124057603753e+01 -1.707713739755e+01 0.0 
2.718402535754e+00 -1.543629882103e+01 0.0 
2.638549692805e+01 -1.696744916809e+01 0.0 
2.723416349007e+01 -1.658104204545e+01 0.0 
2.210193351704e+01 -7.046769643417e+00 0.0 
2.295180925161e+01 -6.657397605239e+00 0.0 
2.301355235833e+01 -5.709111896800e+00 0.0 
2.379052718281e+01 -6.254965406962e+00 0.0 
3.243528601237e+01 -1.214181853533e+01 0.0 
2.287977995457e+01 -7.583722368300e+00 0.0 
2.999876029544e+01 -1.150837653096e+01 0.0 
3.084435366963e+01 -1.109693775882e+01 0.0 
3.006650579669e+01 -1.057778994262e+01 0.0 
2.683802665066e+01 -9.386863216633e+00 0.0 
2.768641973621e+01 -8.988883915666e+00 0.0 
2.040296980397e+01 -7.903629133404e+00 0.0 
1.925235024054e+01 -1.218872783130e+01 0.0 
5.735667000424e+00 -1.020577277283e+01 0.0 
6.396559909872e+00 -1.272326295703e+01 0.0 
1.161199420714e+01 -1.212812778229e+01 0.0 
4.229046132615e+01 -1.663084237572e+01 0.0 
4.312275399692e+01 -1.718087491556e+01 0.0 
4.335502068163e+01 -1.320039231514e+01 0.0 
4.424630298089e+01 -1.275160688731e+01 0.0 
7.090116643816e+00 -3.818998061530e+00 0.0 
7.989472176569e+00 -3.389238711200e+00 0.0 
9.085824861778e+00 -1.144036167408e+01 0.0 
1.041972423731e+01 -1.651614080893e+01 0.0 
3.797525112640e+01 -1.686052038746e+01 0.0 
3.709114253394e+01 -1.730125999865e+01 0.0 
3.626966748340e+01 -1.675477052919e+01 0.0 
1.385164591440e+01 -1.677597757552e+01 0.0 
1.787152588784e+01 -8.198993896093e+00 0.0 
1.668849729812e+01 -1.248560611628e+01 0.0 
1.659546177905e+01 -3.232482605530e+00 0.0 
2.332214717345e+01 -1.292598167641e+01 0.0 
7.168238450786e+00 -2.824711686516e+00 0.0 
2.894878403906e+01 -1.475427524446e+01 0.0 
2.646763248247e+00 -1.643270107952e+01 0.0 
3.467431944285e+00 -1.699648837348e+01 0.0 
2.059475877282e+01 -1.719473628526e+01 0.0 
3.333868355437e+01 -1.080596971682e+01 0.0 
2.246451062637e+01 -1.334557761546e+01 0.0 
2.167821896388e+01 -1.280847834858e+01 0.0 
3.089653185767e+01 -1.017198487212e+01 0.0 
3.012604365669e+01 -9.657298805968e+00 0.0 
2.929627299435e+01 -1.006100135274e+01 0.0 
2.936201435219e+01 -9.136748899251e+00 0.0 
1.198219052702e+01 -7.291887238230e+00 0.0 
1.116702076035e+01 -6.731976101053e+00 0.0 
2.551388807505e+01 -1.746927036981e+01 0.0 
2.378639090370e+01 -1.728678807149e+01 0.0 
2.718543627188e+01 -1.748668016909e+01 0.0 
2.804681050301e+01 -1.712626668293e+01 0.0 
1.970737034667e+01 -1.762317646822e+01 0.0 
1.889535776135e+01 -1.707158098231e+01 0.0 
2.593777711283e+00 -5.971157087874e+00 0.0 
2.773468281110e+01 -8.067164273938e+00 0.0 
4.051205884347e+01 -1.751819982458e+01 0.0 
3.166903145421e+01 -1.068032992414e+01 0.0 
1.033042452886e+01 -1.748285844336e+01 0.0 
9.519274604626e+00 -1.694349240233e+01 0.0 
1.668308673328e+01 -2.255861778986e+00 0.0 
1.570531902832e+01 -2.676795860126e+00 0.0 
4.655826903379e+01 -1.736656245706e+01 0.0 
2.384148070773e+01 -5.328744256413e+00 0.0 
2.460255123641e+01 -5.852182672816e+00 0.0 
2.306638135119e+01 -4.798935440613e+00 0.0 
8.467720450578e-01 -1.849576263072e+01 0.0 
4.849657322345e+01 -1.084860705506e+01 0.0 
2.565860899507e+00 -1.742859793981e+01 0.0 
2.764418872564e+01 -9.927142821799e+00 0.0 
4.565165880064e+01 -1.785336695404e+01 0.0 
2.162231831329e+01 -1.376528337468e+01 0.0 
2.360646352969e+01 -9.136041963102e+00 0.0 
1.392738739903e+01 -1.578285505772e+01 0.0 
4.756405947478e+01 -1.683706841809e+01 0.0 
4.740895034054e+01 -1.793766756892e+01 0.0 
4.080779328826e+01 -1.257387192544e+01 0.0 
4.168907939671e+01 -1.210739129181e+01 0.0 
3.991197722154e+01 -1.300815793917e+01 0.0 
1.905536506762e+01 -3.940076697685e+00 0.0 
1.923879596617e+01 -2.875000734166e+00 0.0 
4.401386745746e+01 -1.673483229438e+01 0.0 
4.247233362525e+00 -7.094581653070e+00 0.0 
3.286051630211e+00 -7.635300020553e+00 0.0 
9.609533347623e+00 -4.594311677967e+00 0.0 
9.523554636369e+00 -5.595597029530e+00 0.0 
5.660336628893e+00 -1.119290329628e+01 0.0 
6.558070063295e+00 -1.076385809362e+01 0.0 
2.809866407414e+01 -1.518037766799e+01 0.0 
2.888868674504e+01 -1.570360690070e+01 0.0 
2.654431550819e+01 -1.411217777162e+01 0.0 
1.402158265969e+01 -1.375404617952e+01 0.0 
1.409592494026e+01 -1.277071998942e+01 0.0 
1.499355196178e+01 -1.235270737023e+01 0.0 
4.221535326155e+01 -1.759335617494e+01 0.0 
4.305583287033e+01 -1.822663146802e+01 0.0 
1.280748808359e+01 -7.834332838285e+00 0.0 
1.368988389326e+01 -7.420529606172e+00 0.0 
1.110091796060e+01 -7.683966794328e+00 0.0 
3.963446145980e+01 -1.794331310122e+01 0.0 
3.423932362213e+00 -1.796415590455e+01 0.0 
4.280814572302e+00 -1.752272834860e+01 0.0 
8.050136380041e+00 -2.421582378631e+00 0.0 
8.888674091650e+00 -2.984264211327e+00 0.0 
2.152839430898e+01 -3.732609965436e+00 0.0 
2.077799585292e+01 -3.183896021866e+00 0.0 
3.618719395821e+01 -1.770276572576e+01 0.0 
3.538165138340e+01 -1.718709995539e+01 0.0 
3.702925326420e+01 -1.828844288807e+01 0.0 
1.756739438711e+00 -5.353284859169e+00 0.0 
2.233710191104e+01 -1.527265621324e+01 0.0 
1.389483555057e+01 -1.771797164730e+01 0.0 
1.475634224300e+01 -1.728357428390e+01 0.0 
1.298797563052e+01 -1.825968924755e+01 0.0 
2.145331271866e+01 -1.673705379077e+01 0.0 
2.133282821169e+01 -1.769400773673e+01 0.0 
2.292139194136e+01 -1.774915400288e+01 0.0 
1.750750053243e+01 -1.861475593469e+00 0.0 
4.830478841772e+01 -1.752611802221e+01 0.0 
4.341203507805e+01 -1.220326745522e+01 0.0 
1.685254151866e+01 -1.443085301632e+00 0.0 
4.431538535165e+01 -1.171841387375e+01 0.0 
4.511308610496e+01 -1.229557320599e+01 0.0 
4.510133242889e+01 -1.123680627466e+01 0.0 
1.846818030617e+00 -4.410877617069e+00 0.0 
3.995468694584e+01 -1.186571542989e+01 0.0 
3.901387459804e+01 -1.242507616755e+01 0.0 
8.966735877533e+00 -1.837818700423e+00 0.0 
4.049310011091e+01 -1.848269508791e+01 0.0 
7.278862053803e+00 -1.918523922691e+00 0.0 
6.429715522129e+00 -2.316676521184e+00 0.0 
9.443505505022e+00 -1.792198868094e+01 0.0 
8.620386951051e+00 -1.737590365556e+01 0.0 
8.571868171503e+00 -1.834436667826e+01 0.0 
7.758629848526e+00 -1.775677907213e+01 0.0 
7.806648388584e+00 -1.680761266021e+01 0.0 
6.908555145436e+00 -1.723746463044e+01 0.0 
4.251709122090e+01 -1.156937480156e+01 0.0 
6.931136405615e+00 -1.832465719263e+01 0.0 
6.015545461353e+00 -1.768865355295e+01 0.0 
5.960535926343e+00 -1.872011001764e+01 0.0 
3.023253444786e+01 -8.761960642196e+00 0.0 
2.454622702599e+01 -6.749421992767e+00 0.0 
2.537499741604e+01 -6.347634963783e+00 0.0 
2.544077378460e+01 -5.431358513649e+00 0.0 
2.801367161747e+01 -1.820907270221e+01 0.0 
2.884507806914e+01 -1.762032095326e+01 0.0 
1.821474531936e+00 -1.588901260460e+01 0.0 
1.821006262604e+00 -1.489370287756e+01 0.0 
4.599962488908e+01 -1.176478780598e+01 0.0 
4.705457470007e+01 -1.172182804229e+01 0.0 
4.667668314802e+01 -1.263464558483e+01 0.0 
4.759648056504e+01 -1.252380987933e+01 0.0 
4.728041618103e+01 -1.341928568376e+01 0.0 
4.825209352360e+01 -1.330491640804e+01 0.0 
4.778118233428e+01 -1.420151961695e+01 0.0 
2.388192727579e+01 -1.826934810142e+01 0.0 
2.381714684947e+01 -4.385917965223e+00 0.0 
3.172733219247e+01 -9.758744265248e+00 0.0 
1.882012070658e+01 -1.805540597212e+01 0.0 
1.805667505243e+01 -1.742221226236e+01 0.0 
2.852599958080e+01 -8.597196079481e+00 0.0 
2.856486123437e+01 -7.661382718527e+00 0.0 
1.111792842875e+01 -1.818223852980e+01 0.0 
2.203322722466e+01 -7.986646678802e+00 0.0 
3.955703676900e+01 -1.903246763601e+01 0.0 
1.944842206513e+01 -8.038750575182e-01 0.0 
1.909882767783e+01 -1.746322740933e+00 0.0 
2.281147422941e+01 -8.525912918334e+00 0.0 
2.850633001468e+01 -9.533271335986e+00 0.0 
2.532883344309e+01 -7.308951659710e+00 0.0 
2.620475466461e+01 -6.979208585400e+00 0.0 
1.396278270396e+01 -1.475095389807e+01 0.0 
9.791001166724e+00 -2.554159793552e+00 0.0 
2.229293380421e+01 -4.269762271052e+00 0.0 
4.677238984118e+01 -1.430071795514e+01 0.0 
2.228658385918e+01 -3.344747535984e+00 0.0 
8.940223674553e-01 -1.543595733415e+01 0.0 
2.118566862474e+01 -8.435876987696e+00 0.0 
2.678325936437e+01 -1.032621195706e+01 0.0 
2.223400220487e+01 -5.179046761770e+00 0.0 
2.375370625384e+01 -7.251580562134e+00 0.0 
3.156971327386e+01 -1.255534750737e+01 0.0 
3.328226391312e+01 -1.172914813316e+01 0.0 
3.250948774219e+01 -1.120157009348e+01 0.0 
2.032993445717e+01 -8.867880112202e+00 0.0 
2.697226974856e+01 -7.536633082045e+00 0.0 
2.707377810386e+01 -6.590835263295e+00 0.0 
2.914099246827e+01 -1.191678458549e+01 0.0 
3.544824072239e+01 -1.621126558525e+01 0.0 
3.456511855436e+01 -1.665054783843e+01 0.0 
3.448395810225e+01 -1.759117813016e+01 0.0 
3.368378673938e+01 -1.708037781328e+01 0.0 
3.375560452567e+01 -1.610973066913e+01 0.0 
3.288001547988e+01 -1.654324255651e+01 0.0 
3.282475929147e+01 -1.749725654692e+01 0.0 
3.199880906313e+01 -1.697294088625e+01 0.0 
3.197001272932e+01 -1.811667776864e+01 0.0 
3.111884713021e+01 -1.742166785755e+01 0.0 
3.120418962865e+01 -1.642155709385e+01 0.0 
3.034666704371e+01 -1.683123833816e+01 0.0 
3.026224379976e+01 -1.772592851714e+01 0.0 
3.046632362943e+01 -1.582232843075e+01 0.0 
1.961344017324e+01 -1.857459447985e+01 0.0 
2.274975894774e+01 -9.532738811922e+00 0.0 
1.833923246887e+01 -2.396746883672e+00 0.0 
1.988859500848e+01 -2.249244376594e+00 0.0 
2.758045562861e+01 -1.086434261689e+01 0.0 
3.247300178163e+01 -1.909930104252e+01 0.0 
3.461947482503e+01 -1.911879848019e+01 0.0 
2.047161538662e+01 -6.941478180358e+00 0.0 
2.750230940214e+01 -1.915490590764e+01 0.0 
3.165081350803e+01 -1.161860780120e+01 0.0 
1.897456727641e+01 -4.889634688522e+00 0.0 
2.549338539756e+01 -1.914858252089e+01 0.0 
3.462873135081e+01 -1.567482276144e+01 0.0 
3.384432415243e+01 -1.512280684518e+01 0.0 
3.471433767690e+01 -1.469086942990e+01 0.0 
3.651470373046e+01 -1.918207952149e+01 0.0 
3.901742690249e+01 -1.345028556517e+01 0.0 
2.153224102692e+01 -1.920169709333e+01 0.0 
1.918382939341e+01 -1.316226275662e+01 0.0 
2.005389162382e+01 -1.271962165174e+01 0.0 
2.011472087878e+01 -1.175029352900e+01 0.0 
3.210679478412e+01 -1.598038618242e+01 0.0 
1.752175226543e+01 -1.914713022656e+01 0.0 
1.696897240059e+01 -1.832772588765e+01 0.0 
1.599682523337e+01 -1.832599992024e+01 0.0 
1.644507199462e+01 -1.743697981535e+01 0.0 
1.549987712903e+01 -1.915192375101e+01 0.0 
3.050250861901e+01 -1.918943550234e+01 0.0 
2.949944061527e+01 -1.922950455235e+01 0.0 
1.375892575273e+01 -6.447160534926e+00 0.0 
1.457223670180e+01 -7.006709243857e+00 0.0 
1.450818793236e+01 -7.965943451779e+00 0.0 
1.538804712402e+01 -7.553409623699e+00 0.0 
1.545817644768e+01 -6.580929593419e+00 0.0 
1.626506893751e+01 -7.129032608911e+00 0.0 
1.619833811522e+01 -8.086588580887e+00 0.0 
1.714448609609e+01 -6.697429609777e+00 0.0 
2.887616543568e+01 -1.668015232137e+01 0.0 
1.349814589130e+01 -1.918225301544e+01 0.0 
1.153887772210e+01 -1.311384581217e+01 0.0 
1.242708159886e+01 -1.267046795531e+01 0.0 
1.249799674267e+01 -1.169005616014e+01 0.0 
6.631723893693e+00 -9.774184881867e+00 0.0 
7.451471631867e+00 -1.033148796006e+01 0.0 
7.377795355458e+00 -1.132196345268e+01 0.0 
5.810931797536e+00 -9.211654212252e+00 0.0 
2.402683899133e+01 -1.441378562320e+01 0.0 
1.249768692036e+01 -1.917388426624e+01 0.0 
1.580373499437e+01 -1.290751860664e+01 0.0 
8.344650507834e+00 -9.898403995170e+00 0.0 
3.750622115305e+01 -1.086526401533e+01 0.0 
3.699391251667e+01 -1.171695900794e+01 0.0 
3.606517829518e+01 -1.173717504500e+01 0.0 
3.650257641795e+01 -1.270047380221e+01 0.0 
3.808951488918e+01 -1.183518714175e+01 0.0 
4.760380962420e+00 -1.162484888315e+01 0.0 
3.861210370848e+00 -1.205657631736e+01 0.0 
3.038284309476e+00 -1.149851280664e+01 0.0 
2.961598794889e+00 -1.248856794980e+01 0.0 
2.138953225512e+00 -1.193212674534e+01 0.0 
2.227383593457e+00 -1.096258903918e+01 0.0 
2.043265419276e+00 -1.292158472959e+01 0.0 
1.252449446028e+00 -1.225502002753e+01 0.0 
3.949985210740e+01 -1.086594001795e+01 0.0 
1.453499444792e+01 -8.768805922472e-01 0.0 
1.403518950933e+01 -1.749965556633e+00 0.0 
1.300715031023e+01 -1.714737233040e+00 0.0 
1.350929389899e+01 -2.527443911291e+00 0.0 
1.449600910711e+01 -2.595486162864e+00 0.0 
1.395693872901e+01 -3.484211041558e+00 0.0 
1.495105865208e+01 -3.364609636216e+00 0.0 
1.508822528740e+01 -1.766586020494e+00 0.0 
1.250223858430e+01 -8.634590186802e-01 0.0 
1.200279523409e+01 -1.709044504992e+00 0.0 
1.150086239419e+01 -8.592789190668e-01 0.0 
1.101482754194e+01 -1.677730591922e+00 0.0 
1.148018564526e+01 -2.659323866909e+00 0.0 
8.800552119754e+00 -3.989875954728e+00 0.0 
3.452790439430e+00 -1.901136170646e+01 0.0 
8.658451825200e-01 -9.503462241795e+00 0.0 
1.694787786797e+00 -9.000589234502e+00 0.0 
1.703436717094e+00 -8.038819004041e+00 0.0 
2.594197971110e+00 -8.563955242845e+00 0.0 
1.630513735412e+00 -9.907244747511e+00 0.0 
8.566859292791e-01 -7.512203837972e+00 0.0 
1.685461277022e+00 -7.164280248030e+00 0.0 
2.506394468801e+00 -8.623386730818e-01 0.0 
2.007475081581e+00 -1.727729545205e+00 0.0 
9.211534699767e-01 -1.628791366312e+00 0.0 
1.500000000020e+00 -2.598063549486e+00 0.0 
2.482078929963e+00 -2.553580088725e+00 0.0 
2.999795253092e+00 -1.732169015019e+00 0.0 
3.999712607169e+00 -1.728832897453e+00 0.0 
4.499752199340e+00 -8.656478679175e-01 0.0 
4.964377774841e+00 -1.730129617941e+00 0.0 
4.425017908337e+00 -2.597541756243e+00 0.0 
5.446573195014e+00 -8.410144840023e-01 0.0 
4.915722346614e+01 -1.550640962770e+01 0.0 
4.826794919243e+01 -1.600000000000e+01 0.0 
1.053139533193e+01 -1.911782884365e+01 0.0 
4.156049861949e+01 -1.095160998589e+01 0.0 
9.494526624416e+00 -8.650570090219e-01 0.0 
4.555762166964e+01 -1.897098103585e+01 0.0 
4.250656411371e+01 -1.914387356218e+01 0.0 
4.350906466345e+01 -1.917234727395e+01 0.0 
8.759665722424e-01 -1.746422130609e+01 0.0 
1.698936011838e+00 -1.795012186674e+01 0.0 
4.742476811029e+01 -1.900090177972e+01 0.0 
7.749196752349e+00 -6.368049313489e+00 0.0 
3.361572113416e+01 -1.798765193915e+01 0.0 
4.484660149212e+01 -1.728661231383e+01 0.0 
1.984038172228e+01 -4.502575320116e+00 0.0 
1.035080352627e+01 -6.166639575753e+00 0.0 
2.753558010652e+00 -1.444909521181e+01 0.0 
7.217069543032e+00 -1.328635391078e+01 0.0 
4.364336727739e+00 -1.655585677381e+01 0.0 
4.595208426108e+00 -1.357919665443e+01 0.0 
6.164967006980e+00 -1.569873454630e+01 0.0 
1.487855768353e+01 -1.826523774028e+01 0.0 
2.791876456372e+00 -4.019632415181e+00 0.0 
4.246464893515e+01 -1.364898659620e+01 0.0 
4.503855590351e+01 -1.329552780944e+01 0.0 
4.407239109604e+01 -1.573900004093e+01 0.0 
5.141054449252e+00 -6.664290382472e+00 0.0 
3.141083947149e+00 -1.055790764912e+01 0.0 
6.196463198741e+00 -4.256497932609e+00 0.0 
2.599618716181e+01 -1.836893455464e+01 0.0 
2.923057372337e+01 -1.098461757645e+01 0.0 
1.168343877486e+01 -1.114079645041e+01 0.0 
6.706222096238e+00 -8.780364234441e+00 0.0 
8.567858614669e+00 -6.943121440850e+00 0.0 
1.123755132901e+01 -5.753525820030e+00 0.0 
2.353456234423e+01 -1.008536320953e+01 0.0 
9.162073319168e+00 -1.045593739109e+01 0.0 
9.676343469685e+00 -1.496493008366e+01 0.0 
4.490637882905e+01 -1.628778970202e+01 0.0 
7.398129387772e+00 -9.639977982323e-01 0.0 
1.049641705805e+01 -1.552503975272e+01 0.0 
9.010356286268e+00 -1.242805042052e+01 0.0 
3.985573925497e+01 -1.399863651620e+01 0.0 
1.816196318262e+01 -1.554066497931e+01 0.0 
1.306332244168e+01 -3.963646550326e+00 0.0 
4.145850903932e+01 -1.608094559275e+01 0.0 
3.794664933633e+01 -1.779020121986e+01 0.0 
3.819614412903e+01 -1.290749321016e+01 0.0 
6.270014188119e+00 -3.255093186826e+00 0.0 
4.251165370388e+01 -1.263870364997e+01 0.0 
1.207347709171e+01 -1.763942826023e+01 0.0 
3.633240829927e+01 -1.577330481104e+01 0.0 
4.319052668832e+00 -6.101812561904e+00 0.0 
1.676492415806e+01 -1.151547901392e+01 0.0 
2.594059220037e+01 -1.074225223009e+01 0.0 
3.340750911501e+01 -9.898764354137e+00 0.0 
4.397619591281e+01 -1.769773736461e+01 0.0 
2.175611595028e+01 -1.185718747128e+01 0.0 
1.641818733106e+01 -1.640685203215e+01 0.0 
1.661211421753e+01 -1.346121366338e+01 0.0 
3.428853504935e+00 -6.551993389271e+00 0.0 
8.700728832502e+00 -1.638460872825e+01 0.0 
1.931369795309e+01 -1.121629383702e+01 0.0 
4.139798872363e+01 -1.706922153459e+01 0.0 
2.647837478700e+01 -1.507353829290e+01 0.0 
1.779469616424e+01 -9.161615782908e+00 0.0 
3.885879219319e+01 -1.642026488918e+01 0.0 
1.338194936770e+01 -1.125916521471e+01 0.0 
1.897071181111e+01 -1.609204322578e+01 0.0 
2.844308548793e+01 -1.046221003096e+01 0.0 
2.659854702194e+01 -1.316109415760e+01 0.0 
2.979604503271e+01 -1.433296157755e+01 0.0 
2.417694041347e+01 -1.251231397779e+01 0.0 
1.807401327411e+00 -1.388891148480e+01 0.0 
9.599810618782e+00 -1.595439365034e+01 0.0 
1.652144692160e+01 -4.205392788472e+00 0.0 
2.367839450246e+01 -8.188385218643e+00 0.0 
3.814894930468e+01 -1.390748338767e+01 0.0 
2.466448215774e+01 -1.685878545680e+01 0.0 
4.134044524611e+01 -1.806610045954e+01 0.0 
2.600511411958e+01 -9.801774120648e+00 0.0 
7.882158050716e+00 -1.582364037353e+01 0.0 
3.881607873422e+01 -1.737970515013e+01 0.0 
8.270182347708e+00 -1.088622154920e+01 0.0 
8.672520392520e-01 -4.532984309881e+00 0.0 
1.993447205337e+01 -3.579061902667e+00 0.0 
1.794616079549e+01 -7.238038888498e+00 0.0 
2.097277068165e+01 -1.132450168636e+01 0.0 
8.194803300681e+00 -1.187214224265e+01 0.0 
3.522279404911e+01 -1.823342818178e+01 0.0 
6.984481050295e+00 -1.625271465557e+01 0.0 
1.309433007797e+01 -1.521718594215e+01 0.0 
2.150246167611e+01 -1.885399038185e+00 0.0 
3.250689370209e+01 -1.028789870535e+01 0.0 
6.085886272238e+00 -1.668342132851e+01 0.0 
1.588455661727e+01 -1.193498985921e+01 0.0 
1.809323400821e+01 -1.651110084195e+01 0.0 
1.348885082381e+00 -1.136065576512e+01 0.0 
2.497670221995e+01 -1.834631276173e+01 0.0 
2.937062818424e+01 -8.233711194470e+00 0.0 
5.185823744469e+00 -1.711566910207e+01 0.0 
1.477497877209e+01 -1.530177014512e+01 0.0 
2.125346158933e+01 -7.473003997367e+00 0.0 
4.751561118290e+01 -1.084897772632e+01 0.0 
5.056026576843e+00 -1.825750475525e+01 0.0 
1.473948554523e+01 -1.634577436309e+01 0.0 
2.410566630936e+01 -1.345970002612e+01 0.0 
1.507337507513e+01 -1.138527895328e+01 0.0 
3.189857338687e+01 -8.887781229006e+00 0.0 
7.298712468334e+00 -1.230231046246e+01 0.0 
2.738235495295e+01 -1.368931690364e+01 0.0 
3.750141041969e+01 -1.920449893070e+01 0.0 
1.557271965640e+01 -1.683317951731e+01 0.0 
3.393731848929e+01 -1.413034777044e+01 0.0 
6.482156824153e+00 -1.174575135362e+01 0.0 
2.077971718439e+01 -1.421279621836e+01 0.0 
3.455084320178e+00 -2.562590040585e+00 0.0 
3.099056096250e+01 -9.270280416035e+00 0.0 
5.580176125418e+00 -1.217387969259e+01 0.0 
1.707247630389e+01 -7.660651981710e+00 0.0 
1.418658814174e+01 -1.180390575393e+01 0.0 
2.049103025389e+01 -1.811296706038e+01 0.0 
4.680386172316e+00 -1.260396879301e+01 0.0 
1.699679896554e+01 -8.624561788199e+00 0.0 
3.779470168555e+00 -1.303424899720e+01 0.0 
3.036589870126e+01 -7.879832518349e+00 0.0 
3.306993001774e+01 -1.457671062095e+01 0.0 
2.840150110165e+00 -1.346530088269e+01 0.0 
2.732011135052e+01 -1.464591214560e+01 0.0 
5.423639259568e+00 -2.659711955016e+00 0.0 
2.324455961696e+01 -1.387269388211e+01 0.0 
1.752768355571e+00 -1.693128613594e+01 0.0 
1.020244783051e+01 -8.076834012808e+00 0.0 
1.330873875224e+01 -1.222417528206e+01 0.0 
3.297727364880e+01 -1.555480372087e+01 0.0 
2.890929955439e+01 -6.868664170731e+00 0.0 
1.323294664622e+01 -1.320754260334e+01 0.0 
2.726532861246e+01 -1.560593120806e+01 0.0 
2.240020643398e+01 -1.429299177247e+01 0.0 
2.090445823633e+01 -1.228128621332e+01 0.0 
1.315809881502e+01 -1.420739326938e+01 0.0 
2.781328038068e+01 -7.181956082300e+00 0.0 
8.614200829057e+00 -5.936933226306e+00 0.0 
8.714765730069e+00 -4.979270529687e+00 0.0 
1.611881701099e+01 -9.041973294003e+00 0.0 
2.806830314340e+01 -1.614622947108e+01 0.0 
2.084435391396e+00 -3.385085422913e+00 0.0 
3.133211811152e+01 -1.542347619750e+01 0.0 
9.693114650768e+00 -3.590281506442e+00 0.0 
1.531883592202e+01 -8.504584946143e+00 0.0 
2.151589117094e+01 -1.578915763018e+01 0.0 
4.918943882696e+01 -1.355538828056e+01 0.0 
1.443236615188e+01 -8.918701794549e+00 0.0 
8.276250966452e-01 -5.537685192197e+00 0.0 
1.362790867918e+01 -8.374718262212e+00 0.0 
2.083767477370e+01 -1.324843956035e+01 0.0 
1.273834678703e+01 -8.790890389337e+00 0.0 
1.192275845670e+01 -8.242261327467e+00 0.0 
4.477236023583e+01 -1.824312396664e+01 0.0 
1.102989384254e+01 -8.649855800911e+00 0.0 
4.849096516045e+01 -1.917293752213e+01 0.0 
1.588996752238e+00 -1.910230934687e+01 0.0 
4.904245197583e+01 -1.159839008158e+01 0.0 
2.753852929608e+01 -5.782128488093e+00 0.0 
1.756133602833e+01 -8.306130313187e-01 0.0 
2.615423700951e+01 -6.153865090092e+00 0.0 
1.028818761294e+01 -7.122020845892e+00 0.0 
2.970818901196e+01 -1.527821347593e+01 0.0 
4.801461623449e+01 -1.164472570985e+01 0.0 
9.455722100419e+00 -6.546069291118e+00 0.0 
3.089099236677e+01 -1.835339328261e+01 0.0 
2.350000000013e+01 -1.920825896750e+01 0.0 
4.830620531887e+01 -1.506626155470e+01 0.0 
1.725381944701e+01 -1.688794487850e+01 0.0 
2.156246225273e+01 -1.475893794002e+01 0.0 
4.919319648787e+01 -1.742767505896e+01 0.0 
4.437935623576e+01 -1.077662927266e+01 0.0 
1.001520521978e+01 -1.652692675208e+00 0.0 
9.067160240050e-01 -1.441937727541e+01 0.0 
2.603365149390e+01 -4.755996613848e+00 0.0 
2.458344439002e+01 -4.873645517696e+00 0.0 
2.304312390142e+01 -3.836552768096e+00 0.0 
2.546923202198e+00 -6.902480355749e+00 0.0 
1.251534969393e+01 -2.490989965776e+00 0.0 
2.454061833377e+01 -3.933354231935e+00 0.0 
1.788186558740e+01 -1.827424884923e+01 0.0 
4.090785243552e+01 -1.166553231904e+01 0.0 
2.230128851568e+01 -1.623015738726e+01 0.0 
2.302362347568e+01 -2.916239960270e+00 0.0 
3.878119254461e+01 -1.830091164002e+01 0.0 
2.210081359958e+01 -1.829238229150e+01 0.0 
8.443704882233e+00 -1.921993252862e+01 0.0 
2.218405824691e+01 -1.724557581508e+01 0.0 
2.151157503963e+01 -2.790636689331e+00 0.0 
3.741658958955e+01 -1.250400191722e+01 0.0 
2.697247663737e+01 -1.838290202309e+01 0.0 
4.743362342862e+01 -1.585850773010e+01 0.0 
6.671345075358e+00 -1.924977576322e+01 0.0 
3.900825404537e+01 -1.157220003875e+01 0.0 
4.649692961375e+01 -1.836335837481e+01 0.0 
1.578831424832e+01 -3.678284023361e+00 0.0 
4.814208768888e+01 -1.841249298770e+01 0.0 
2.964123298315e+01 -1.625739458193e+01 0.0 
4.580760351902e+01 -1.284294554687e+01 0.0 
3.561520879615e+01 -1.245548941949e+01 0.0 
2.555418095658e+00 -1.841101588290e+01 0.0 
3.288468366144e+01 -1.834258164109e+01 0.0 
2.065894391445e+01 -2.240688571739e+00 0.0 
4.739171429915e+01 -1.496536413446e+01 0.0 
3.478086729185e+00 -8.576434653209e+00 0.0 
1.606010630246e+01 -1.588421807951e+00 0.0 
1.018329200594e+01 -1.834320874317e+01 0.0 
2.957213339430e+01 -1.720496954591e+01 0.0 
4.142712790164e+00 -1.837794506222e+01 0.0 
6.698721532573e-01 -2.499999999997e+00 0.0 
8.037039123140e+00 -1.571229354954e+00 0.0 
1.203541361428e+01 -1.847784298001e+01 0.0 
2.899968332038e+01 -1.848264722179e+01 0.0 
1.469229460948e+01 -4.219485753730e+00 0.0 
4.049590781957e+01 -1.932812501995e+01 0.0 
1.996211678340e+01 -1.506329754720e+00 0.0 
4.250588298353e+01 -1.067383247529e+01 0.0 
5.831497011152e+00 -1.635396227234e+00 0.0 
5.317606125670e+00 -1.923927974868e+01 0.0 
4.208546426993e+01 -1.842830665025e+01 0.0 
2.327553405011e+00 -9.459409929662e+00 0.0 
3.568351902251e+01 -1.096637218582e+01 0.0 
1.682104374890e+00 -6.231413350963e+00 0.0 
2.451812238018e+01 -1.766524914339e+01 0.0 
1.058003429638e+01 -2.391839617098e+00 0.0 
4.399988753123e+01 -1.851998776342e+01 0.0 
1.400000000010e+01 -1.852293523028e+01 0.0 
3.604719565984e+01 -1.850662876800e+01 0.0 
1.951297136734e+01 -1.938092349694e+01 0.0 
1.821365318472e+01 -1.531276353287e+00 0.0 
2.298031859732e+01 -1.854635324722e+01 0.0 
1.552168066204e+01 -1.764280741977e+01 0.0 
4.572957713638e+01 -1.073347898229e+01 0.0 
3.429637429624e+01 -1.838861552790e+01 0.0 
2.427434426052e+00 -7.705577451869e+00 0.0 
4.662792031485e+00 -3.359424455416e+00 0.0 
4.926794919243e+01 -1.926794919243e+01 0.0 
7.320508075690e-01 -7.320508075688e-01 0.0 
4.926794919243e+01 -1.073205080757e+01 0.0 
7.320508075705e-01 -1.926794919243e+01 0.0 
2.917460242467e+00 -3.202866455310e+00 0.0 
4.838200575963e+01 -1.232674147454e+01 0.0 
2.998445708009e+01 -1.854403752148e+01 0.0 
5.949940090766e-01 -1.152762038165e+01 0.0 
4.844763495759e+01 -1.678092548787e+01 0.0 
1.301685480160e+01 -3.170056592566e+00 0.0 
1.650046335855e+01 -6.731535384067e-01 0.0 
4.854881540991e+01 -1.405224059779e+01 0.0 
2.119545114693e+01 -1.846813384545e+01 0.0 
3.797852849897e+01 -1.857978513215e+01 0.0 
4.649823708745e+01 -1.338351810816e+01 0.0 
2.012685900976e+01 -2.889659035009e+00 0.0 
2.953271913273e+01 -1.791558075192e+01 0.0 
2.408509097292e+00 -1.021949208421e+01 0.0 
2.642589566221e+01 -1.773216561448e+01 0.0 
1.730010270775e+01 -1.763165076721e+01 0.0 
2.017406551304e+01 -8.513536440582e-01 0.0 
5.254761581934e-01 -1.249999999999e+01 0.0 
6.640448215642e+00 -1.545337834885e+00 0.0 
7.843361506349e+00 -1.852719839527e+01 0.0 
1.588442191088e+00 -1.066158564320e+01 0.0 

CELLS 1919 7676 
3 179 649 925 
3 649 179 927 
3 659 152 670 
3 772 537 961 
3 539 599 765 
3 629 542 668 
3 159 581 583 
3 179 606 927 
3 581 159 599 
3 532 767 961 
3 151 726 727 
3 606 179 941 
3 771 923 967 
3 588 719 809 
3 923 185 967 
3 178 772 961 
3 587 158 728 
3 542 629 667 
3 166 586 908 
3 586 166 846 
3 767 532 920 
3 897 143 903 
3 624 897 903 
3 574 573 783 
3 273 429 718 
3 726 151 835 
3 105 82 988 
3 618 144 860 
3 271 273 718 
3 783 573 993 
3 523 733 735 
3 176 589 766 
3 659 670 968 
3 19 164 639 
3 174 593 595 
3 602 66 959 
3 66 602 985 
3 621 170 665 
3 585 96 938 
3 96 585 999 
3 861 603 887 
3 139 625 764 
3 942 140 946 
3 82 188 988 
3 580 187 937 
3 619 942 946 
3 733 523 736 
3 187 580 963 
3 729 730 736 
3 719 588 960 
3 181 624 861 
3 571 586 846 
3 349 962 980 
3 181 861 887 
3 671 153 851 
3 944 516 989 
3 571 846 915 
3 164 609 639 
3 432 760 878 
3 767 178 961 
3 138 972 1013 
3 952 578 954 
3 398 426 632 
3 962 735 980 
3 743 562 967 
3 624 181 897 
3 972 582 1013 
3 152 659 932 
3 459 420 741 
3 148 607 673 
3 835 778 889 
3 33 32 627 
3 618 860 990 
3 4 5 753 
3 750 944 989 
3 590 155 841 
3 671 851 1000 
3 638 943 950 
3 760 432 1002 
3 943 180 950 
3 420 433 741 
3 158 587 948 
3 143 649 903 
3 649 143 925 
3 599 539 811 
3 581 599 811 
3 610 835 940 
3 18 19 639 
3 664 661 909 
3 539 765 948 
3 766 589 939 
3 190 717 988 
3 763 934 958 
3 958 934 970 
3 156 33 627 
3 665 170 995 
3 587 728 960 
3 764 625 973 
3 184 616 913 
3 632 426 633 
3 765 599 983 
3 185 743 967 
3 346 912 936 
3 577 952 954 
3 467 465 643 
3 730 733 736 
3 770 771 893 
3 536 763 958 
3 138 729 736 
3 866 161 985 
3 311 664 909 
3 4 753 1004 
3 534 630 666 
3 501 817 855 
3 545 747 971 
3 605 632 633 
3 400 398 632 
3 174 595 953 
3 616 184 1008 
3 604 400 632 
3 635 565 910 
3 188 190 988 
3 763 536 1011 
3 400 604 643 
3 955 854 969 
3 620 870 879 
3 747 545 1001 
3 870 145 879 
3 155 590 981 
3 567 955 969 
3 726 835 889 
3 537 772 963 
3 474 531 631 
3 145 603 879 
3 593 174 973 
3 771 528 923 
3 610 778 835 
3 631 531 831 
3 575 703 993 
3 507 623 631 
3 557 768 769 
3 607 148 979 
3 809 719 956 
3 416 388 637 
3 623 474 631 
3 603 145 887 
3 531 669 831 
3 643 469 838 
3 159 583 938 
3 630 265 666 
3 589 176 977 
3 924 930 1008 
3 754 166 908 
3 182 620 855 
3 703 575 712 
3 604 467 643 
3 639 610 940 
3 606 140 942 
3 912 572 936 
3 165 611 612 
3 626 265 630 
3 609 164 893 
3 459 635 910 
3 771 530 893 
3 646 519 674 
3 161 866 975 
3 924 529 930 
3 465 469 643 
3 817 182 855 
3 151 727 1024 
3 140 606 941 
3 265 626 640 
3 388 439 637 
3 611 165 999 
3 469 630 838 
3 620 182 870 
3 513 702 907 
3 747 448 971 
3 144 618 933 
3 673 607 957 
3 605 633 927 
3 448 747 987 
3 690 820 874 
3 623 507 861 
3 606 605 927 
3 646 501 855 
3 630 534 838 
3 154 767 920 
3 277 686 896 
3 164 770 893 
3 619 180 943 
3 475 640 864 
3 661 686 909 
3 81 106 628 
3 507 603 861 
3 863 535 867 
3 759 891 984 
3 774 167 1000 
3 272 197 679 
3 894 253 921 
3 383 863 867 
3 717 190 966 
3 718 429 956 
3 573 575 993 
3 904 795 931 
3 641 212 669 
3 471 361 674 
3 278 272 679 
3 468 646 674 
3 519 646 855 
3 417 877 917 
3 702 551 907 
3 628 162 629 
3 633 649 927 
3 633 426 648 
3 531 641 669 
3 686 656 896 
3 542 541 847 
3 535 634 853 
3 585 611 999 
3 640 626 864 
3 331 853 902 
3 591 801 1025 
3 677 278 679 
3 801 147 1025 
3 759 760 891 
3 180 619 946 
3 904 547 905 
3 651 278 677 
3 547 546 905 
3 527 636 642 
3 353 734 806 
3 565 742 910 
3 820 383 874 
3 519 471 674 
3 562 743 975 
3 106 162 628 
3 436 466 642 
3 226 265 640 
3 624 623 861 
3 634 535 863 
3 602 866 985 
3 888 277 896 
3 335 317 672 
3 383 867 874 
3 835 151 940 
3 669 279 831 
3 678 679 875 
3 578 952 997 
3 226 640 647 
3 466 527 642 
3 196 468 644 
3 627 32 981 
3 212 641 816 
3 685 228 824 
3 612 611 613 
3 741 433 945 
3 468 645 646 
3 435 335 672 
3 541 675 776 
3 523 735 962 
3 278 651 813 
3 361 644 674 
3 400 643 838 
3 651 490 813 
3 686 277 909 
3 279 650 792 
3 146 600 959 
3 476 685 824 
3 204 470 650 
3 534 666 797 
3 476 684 685 
3 318 334 675 
3 716 157 717 
3 230 227 647 
3 347 698 699 
3 678 888 896 
3 106 107 162 
3 468 194 645 
3 317 315 672 
3 391 436 642 
3 320 318 675 
3 199 196 644 
3 589 635 939 
3 427 517 648 
3 476 683 684 
3 644 468 674 
3 716 717 718 
3 437 542 667 
3 347 699 701 
3 348 351 698 
3 633 648 649 
3 678 875 888 
3 426 427 648 
3 313 230 647 
3 640 475 647 
3 437 541 542 
3 666 222 797 
3 566 636 638 
3 37 153 671 
3 39 167 670 
3 213 212 816 
3 334 317 335 
3 390 391 449 
3 205 204 650 
3 334 335 390 
3 347 348 698 
3 279 792 831 
3 768 557 986 
3 672 475 864 
3 877 533 917 
3 566 449 636 
3 171 57 691 
3 390 335 391 
3 210 279 669 
3 437 341 541 
3 713 406 821 
3 227 226 647 
3 351 695 698 
3 470 361 471 
3 42 692 693 
3 315 313 475 
3 476 304 683 
3 450 449 566 
3 681 366 804 
3 853 634 902 
3 466 467 525 
3 540 681 804 
3 169 45 673 
3 443 535 853 
3 41 152 692 
3 809 429 839 
3 664 311 929 
3 527 525 619 
3 472 471 504 
3 204 361 470 
3 204 202 361 
3 280 816 842 
3 144 47 676 
3 271 718 966 
3 645 501 646 
3 475 313 647 
3 546 742 905 
3 504 519 620 
3 466 465 467 
3 165 612 865 
3 351 694 695 
3 315 475 672 
3 655 677 678 
3 436 465 466 
3 470 471 472 
3 304 306 683 
3 479 706 793 
3 50 168 682 
3 507 505 603 
3 319 321 701 
3 560 894 921 
3 526 605 606 
3 525 467 526 
3 661 658 686 
3 210 208 279 
3 517 623 624 
3 472 504 505 
3 54 170 687 
3 170 621 947 
3 658 656 686 
3 678 677 679 
3 706 246 793 
3 398 399 426 
3 318 317 334 
3 316 315 317 
3 212 210 669 
3 493 713 821 
3 261 707 708 
3 654 652 655 
3 321 347 701 
3 395 280 396 
3 650 470 792 
3 397 396 398 
3 152 40 670 
3 167 38 671 
3 167 774 968 
3 479 705 706 
3 490 392 813 
3 466 525 527 
3 314 313 315 
3 541 341 675 
3 427 474 517 
3 715 716 719 
3 681 809 839 
3 691 689 783 
3 662 661 664 
3 196 194 468 
3 203 202 204 
3 341 320 675 
3 738 740 741 
3 265 224 666 
3 218 216 280 
3 224 222 666 
3 135 854 955 
3 612 613 614 
3 742 546 910 
3 391 435 436 
3 57 56 691 
3 325 327 417 
3 189 501 645 
3 166 754 976 
3 816 641 842 
3 226 224 265 
3 202 199 644 
3 148 43 693 
3 504 471 519 
3 208 205 650 
3 261 708 714 
3 652 651 677 
3 479 704 705 
3 44 148 673 
3 41 40 152 
3 37 36 153 
3 39 38 167 
3 201 199 202 
3 655 652 677 
3 660 658 661 
3 398 396 399 
3 426 399 427 
3 710 707 794 
3 654 655 656 
3 46 169 676 
3 569 490 651 
3 683 417 684 
3 569 651 652 
3 410 408 711 
3 218 280 395 
3 517 474 623 
3 390 449 450 
3 156 627 951 
3 397 398 400 
3 791 510 860 
3 707 261 794 
3 352 355 694 
3 171 691 783 
3 436 464 465 
3 42 41 692 
3 167 671 1000 
3 209 208 210 
3 738 739 740 
3 44 43 148 
3 136 687 688 
3 351 352 694 
3 306 325 683 
3 142 51 682 
3 114 137 739 
3 395 396 397 
3 207 205 208 
3 211 210 212 
3 279 208 650 
3 449 391 642 
3 46 45 169 
3 312 230 313 
3 438 437 667 
3 600 146 1026 
3 739 137 740 
3 506 505 507 
3 733 734 735 
3 620 519 855 
3 136 55 687 
3 48 47 144 
3 361 202 644 
3 730 732 733 
3 579 438 667 
3 733 732 734 
3 823 521 836 
3 715 157 716 
3 191 189 645 
3 50 49 168 
3 173 715 719 
3 153 36 680 
3 413 410 711 
3 540 588 681 
3 526 604 605 
3 325 417 683 
3 541 776 847 
3 52 51 142 
3 40 39 670 
3 38 37 671 
3 479 287 704 
3 282 284 710 
3 218 395 797 
3 287 289 704 
3 54 53 170 
3 391 335 435 
3 698 697 699 
3 695 696 697 
3 430 540 804 
3 58 171 703 
3 730 731 732 
3 56 55 136 
3 694 559 695 
3 43 42 693 
3 660 661 662 
3 113 114 739 
3 395 534 797 
3 489 392 490 
3 45 44 673 
3 201 202 203 
3 456 413 457 
3 450 566 567 
3 689 688 690 
3 451 558 559 
3 695 559 696 
3 729 172 730 
3 47 46 676 
3 675 334 776 
3 443 491 535 
3 540 587 588 
3 777 509 796 
3 695 697 698 
3 203 204 205 
3 51 50 682 
3 284 386 710 
3 295 331 401 
3 215 213 216 
3 554 447 555 
3 699 697 700 
3 704 401 705 
3 216 213 816 
3 552 409 826 
3 325 326 327 
3 217 216 218 
3 254 256 714 
3 436 435 464 
3 282 710 794 
3 457 413 711 
3 281 304 476 
3 56 136 691 
3 568 490 569 
3 452 777 796 
3 55 54 687 
3 136 688 689 
3 223 222 224 
3 730 172 731 
3 59 703 712 
3 653 652 654 
3 355 451 694 
3 58 57 171 
3 289 295 704 
3 427 473 474 
3 194 191 645 
3 281 476 824 
3 285 479 793 
3 447 406 713 
3 679 197 875 
3 506 631 831 
3 327 345 346 
3 614 613 615 
3 256 261 714 
3 306 308 325 
3 451 508 558 
3 478 300 779 
3 112 113 737 
3 465 464 469 
3 451 559 694 
3 707 549 708 
3 221 219 222 
3 295 401 704 
3 430 538 540 
3 355 418 451 
3 59 58 703 
3 207 208 209 
3 477 548 549 
3 209 210 211 
3 477 549 707 
3 737 113 739 
3 193 191 194 
3 746 745 747 
3 147 119 761 
3 386 441 477 
3 295 330 331 
3 775 445 800 
3 555 713 857 
3 555 447 713 
3 189 149 501 
3 173 103 715 
3 570 680 873 
3 211 212 213 
3 119 120 761 
3 565 485 742 
3 731 737 738 
3 547 904 931 
3 463 513 907 
3 543 775 800 
3 340 823 836 
3 264 262 773 
3 302 300 478 
3 443 454 491 
3 360 341 437 
3 177 745 746 
3 150 749 750 
3 139 60 712 
3 60 59 712 
3 745 744 748 
3 477 441 548 
3 285 287 479 
3 491 573 574 
3 485 404 742 
3 338 423 443 
3 759 757 760 
3 386 477 710 
3 708 549 709 
3 163 756 757 
3 177 744 745 
3 489 490 568 
3 120 121 758 
3 104 157 715 
3 104 105 157 
3 406 310 821 
3 150 10 749 
3 451 418 508 
3 636 449 642 
3 596 594 597 
3 676 169 791 
3 480 374 807 
3 526 467 604 
3 589 565 635 
3 472 505 506 
3 100 158 765 
3 99 100 765 
3 120 758 761 
3 758 757 759 
3 752 754 755 
3 328 269 403 
3 163 751 756 
3 744 141 748 
3 138 110 729 
3 269 264 773 
3 617 615 637 
3 102 103 173 
3 513 608 702 
3 289 294 295 
3 614 615 616 
3 10 11 749 
3 752 755 756 
3 30 29 768 
3 155 30 768 
3 540 538 587 
3 158 101 728 
3 749 746 750 
3 28 154 769 
3 403 269 773 
3 103 104 715 
3 102 173 728 
3 504 620 879 
3 36 35 680 
3 768 29 769 
3 163 757 758 
3 121 163 758 
3 564 485 565 
3 708 709 845 
3 770 528 771 
3 109 110 138 
3 175 762 763 
3 111 172 729 
3 446 406 447 
3 111 112 172 
3 110 111 729 
3 553 447 554 
3 499 562 563 
3 616 615 617 
3 792 506 831 
3 751 752 756 
3 301 302 781 
3 25 24 772 
3 178 25 772 
3 101 102 728 
3 382 310 406 
3 29 28 769 
3 456 457 572 
3 752 753 754 
3 751 186 752 
3 752 186 753 
3 11 12 177 
3 185 69 743 
3 80 79 187 
3 123 186 751 
3 13 141 744 
3 70 69 185 
3 68 161 743 
3 61 139 764 
3 76 160 762 
3 78 77 175 
3 69 68 743 
3 68 67 161 
3 175 77 762 
3 123 124 186 
3 97 98 159 
3 100 101 158 
3 163 122 751 
3 65 64 146 
3 174 62 764 
3 63 62 174 
3 122 123 751 
3 121 122 163 
3 61 60 139 
3 62 61 764 
3 76 75 160 
3 94 95 165 
3 77 76 762 
3 74 73 184 
3 92 93 529 
3 118 119 147 
3 116 117 176 
3 115 116 766 
3 114 115 137 
3 13 14 141 
3 12 13 744 
3 116 176 766 
3 16 17 151 
3 137 115 766 
3 34 33 156 
3 28 27 154 
3 31 30 155 
3 6 7 166 
3 9 10 150 
3 27 26 767 
3 19 20 164 
3 26 25 178 
3 20 21 770 
3 21 22 528 
3 177 12 744 
3 154 27 767 
3 26 178 767 
3 164 20 770 
3 21 528 770 
3 393 394 778 
3 172 112 737 
3 284 385 386 
3 758 759 761 
3 596 597 598 
3 477 707 710 
3 359 343 780 
3 328 403 404 
3 891 592 984 
3 499 563 780 
3 386 387 441 
3 177 746 749 
3 343 405 780 
3 536 537 580 
3 11 177 749 
3 331 330 338 
3 293 291 344 
3 393 342 394 
3 461 393 778 
3 312 313 314 
3 506 507 631 
3 222 219 797 
3 301 300 302 
3 405 498 499 
3 609 461 610 
3 452 546 547 
3 524 445 532 
3 440 389 445 
3 585 584 611 
3 299 297 300 
3 342 301 781 
3 536 524 537 
3 440 524 536 
3 344 291 803 
3 499 530 562 
3 402 374 480 
3 609 610 639 
3 600 598 601 
3 532 445 775 
3 379 377 380 
3 295 294 330 
3 339 421 422 
3 358 444 452 
3 564 565 589 
3 731 172 737 
3 440 445 524 
3 499 498 530 
3 738 737 739 
3 657 656 658 
3 583 483 584 
3 329 343 359 
3 405 461 498 
3 508 509 560 
3 498 461 609 
3 583 584 585 
3 325 308 326 
3 600 601 602 
3 571 453 586 
3 595 594 596 
3 388 380 389 
3 422 453 516 
3 452 547 777 
3 724 722 725 
3 376 378 482 
3 263 267 282 
3 439 389 440 
3 379 388 416 
3 548 441 720 
3 610 461 778 
3 405 393 461 
3 388 389 439 
3 381 333 419 
3 441 387 442 
3 414 500 576 
3 380 787 800 
3 386 385 387 
3 293 344 779 
3 593 521 594 
3 379 380 388 
3 522 438 579 
3 496 591 592 
3 322 320 341 
3 405 499 780 
3 378 377 379 
3 726 724 727 
3 482 483 581 
3 443 423 454 
3 720 442 721 
3 343 393 405 
3 422 421 453 
3 596 598 600 
3 441 442 720 
3 516 453 571 
3 442 387 789 
3 282 283 284 
3 268 264 269 
3 723 724 726 
3 118 147 801 
3 176 117 801 
3 394 342 781 
3 339 381 421 
3 299 300 301 
3 300 297 779 
3 256 260 261 
3 355 356 418 
3 402 480 481 
3 668 542 1018 
3 284 384 385 
3 491 454 573 
3 421 381 432 
3 482 378 483 
3 581 483 583 
3 484 404 485 
3 520 487 521 
3 373 371 374 
3 339 333 381 
3 556 480 825 
3 481 480 556 
3 276 333 339 
3 605 604 632 
3 270 269 328 
3 343 342 393 
3 721 722 723 
3 569 652 653 
3 402 481 543 
3 329 301 342 
3 299 301 329 
3 328 404 484 
3 329 342 343 
3 373 374 375 
3 723 722 724 
3 376 377 378 
3 375 374 402 
3 228 229 824 
3 787 543 800 
3 387 448 789 
3 721 442 722 
3 384 283 544 
3 258 255 259 
3 376 375 377 
3 250 252 285 
3 268 270 276 
3 496 485 564 
3 373 375 376 
3 268 269 270 
3 593 594 595 
3 380 377 787 
3 329 359 782 
3 136 689 691 
3 387 385 448 
3 276 270 333 
3 484 485 496 
3 298 297 299 
3 379 416 786 
3 496 564 591 
3 282 267 283 
3 586 453 784 
3 376 482 785 
3 284 283 384 
3 297 293 779 
3 384 544 545 
3 445 389 800 
3 267 264 268 
3 292 296 340 
3 452 444 546 
3 296 293 297 
3 725 722 789 
3 298 299 782 
3 699 700 881 
3 453 421 784 
3 584 483 786 
3 446 447 553 
3 396 280 842 
3 378 379 786 
3 358 452 796 
3 370 372 430 
3 421 432 784 
3 597 594 823 
3 382 406 446 
3 327 326 345 
3 481 556 557 
3 285 286 287 
3 419 333 790 
3 290 288 291 
3 520 521 593 
3 508 418 509 
3 299 329 782 
3 377 375 787 
3 352 354 355 
3 292 291 293 
3 538 431 539 
3 422 516 822 
3 263 264 267 
3 215 216 217 
3 296 297 298 
3 427 399 473 
3 217 218 219 
3 372 371 373 
3 483 378 786 
3 430 431 538 
3 722 442 789 
3 460 362 487 
3 287 288 289 
3 482 581 811 
3 659 658 660 
3 346 345 414 
3 292 293 296 
3 375 402 787 
3 256 258 260 
3 260 262 263 
3 328 484 790 
3 289 290 294 
3 263 282 794 
3 372 373 785 
3 430 372 431 
3 232 234 281 
3 773 262 795 
3 314 315 316 
3 263 262 264 
3 260 258 262 
3 270 328 790 
3 338 362 423 
3 251 249 253 
3 402 543 787 
3 247 249 250 
3 289 288 290 
3 285 252 286 
3 221 222 223 
3 333 270 790 
3 460 487 520 
3 460 520 625 
3 407 409 552 
3 256 255 258 
3 287 286 288 
3 373 376 785 
3 261 260 794 
3 395 397 534 
3 267 268 788 
3 418 356 796 
3 254 255 256 
3 268 276 788 
3 339 422 814 
3 286 252 486 
3 290 291 292 
3 425 462 463 
3 117 118 801 
3 243 241 244 
3 247 245 248 
3 254 253 255 
3 431 372 785 
3 250 251 252 
3 283 267 788 
3 251 253 254 
3 389 380 800 
3 544 283 788 
3 496 592 810 
3 790 484 810 
3 509 418 796 
3 258 259 795 
3 243 245 246 
3 250 249 251 
3 358 420 444 
3 419 790 810 
3 681 588 809 
3 788 276 814 
3 338 330 362 
3 411 424 425 
3 195 194 196 
3 434 368 455 
3 463 512 513 
3 229 232 824 
3 409 411 826 
3 356 357 358 
3 254 714 798 
3 225 224 226 
3 348 350 351 
3 420 357 433 
3 260 263 794 
3 247 248 249 
3 246 245 247 
3 544 788 814 
3 250 285 793 
3 243 244 245 
3 239 241 242 
3 262 258 795 
3 309 307 310 
3 370 371 372 
3 239 237 240 
3 423 362 460 
3 355 354 356 
3 573 454 575 
3 246 247 793 
3 513 607 608 
3 206 205 207 
3 356 358 796 
3 198 196 199 
3 488 392 489 
3 246 706 829 
3 469 626 630 
3 200 199 201 
3 280 216 816 
3 358 357 420 
3 590 561 627 
3 444 420 459 
3 621 515 622 
3 775 543 818 
3 332 310 382 
3 785 482 811 
3 369 368 434 
3 242 241 243 
3 281 303 304 
3 518 455 561 
3 292 340 799 
3 367 369 370 
3 446 553 634 
3 356 354 357 
3 367 365 368 
3 676 791 860 
3 460 625 812 
3 251 254 798 
3 431 785 811 
3 539 431 811 
3 247 250 793 
3 294 290 799 
3 330 294 802 
3 484 496 810 
3 316 317 318 
3 235 237 238 
3 239 240 241 
3 219 218 797 
3 518 561 590 
3 654 656 657 
3 543 481 818 
3 474 473 531 
3 364 336 392 
3 290 292 799 
3 556 825 841 
3 337 365 366 
3 252 251 798 
3 235 233 236 
3 367 368 369 
3 434 455 518 
3 374 371 807 
3 370 369 371 
3 521 487 836 
3 514 428 515 
3 487 362 802 
3 291 288 803 
3 603 505 879 
3 309 332 363 
3 274 272 278 
3 276 339 814 
3 238 237 239 
3 555 857 869 
3 304 305 306 
3 321 323 347 
3 235 236 237 
3 306 307 308 
3 472 506 792 
3 486 252 798 
3 366 681 839 
3 599 159 983 
3 84 126 135 
3 288 286 803 
3 332 382 383 
3 653 654 774 
3 281 234 303 
3 286 486 803 
3 370 430 804 
3 85 127 180 
3 309 310 332 
3 305 303 493 
3 470 472 792 
3 294 799 802 
3 351 350 352 
3 362 330 802 
3 454 423 812 
3 308 307 309 
3 371 369 807 
3 415 413 456 
3 423 460 812 
3 86 128 140 
3 366 367 804 
3 576 500 577 
3 369 434 807 
3 306 305 307 
3 234 233 235 
3 876 548 880 
3 360 437 438 
3 480 807 825 
3 814 422 822 
3 87 129 179 
3 412 410 413 
3 481 557 818 
3 352 353 354 
3 214 213 215 
3 366 365 367 
3 845 709 850 
3 347 323 348 
3 469 464 626 
3 433 357 806 
3 352 350 353 
3 354 353 806 
3 304 303 305 
3 680 35 873 
3 88 130 143 
3 594 521 823 
3 231 230 312 
3 275 337 839 
3 322 341 360 
3 575 454 812 
3 357 354 806 
3 545 544 822 
3 326 308 805 
3 243 246 829 
3 414 428 500 
3 397 400 838 
3 274 278 813 
3 514 515 621 
3 367 370 804 
3 654 657 774 
3 365 364 828 
3 364 392 488 
3 334 390 776 
3 597 823 843 
3 337 364 365 
3 228 685 849 
3 89 131 181 
3 514 621 665 
3 319 318 320 
3 544 814 822 
3 414 345 428 
3 166 7 846 
3 220 219 221 
3 309 363 805 
3 488 489 808 
3 489 568 570 
3 308 309 805 
3 455 368 828 
3 229 227 230 
3 411 425 826 
3 90 132 145 
3 660 662 663 
3 91 133 182 
3 134 91 817 
3 232 281 824 
3 82 134 149 
3 502 257 503 
3 223 224 225 
3 235 238 815 
3 348 323 349 
3 232 233 234 
3 434 518 825 
3 657 658 659 
3 340 296 843 
3 500 428 514 
3 242 243 829 
3 364 488 828 
3 234 235 815 
3 598 597 852 
3 368 365 828 
3 392 336 813 
3 310 307 821 
3 229 231 232 
3 425 424 462 
3 203 205 206 
3 348 349 350 
3 319 320 321 
3 534 397 838 
3 211 213 214 
3 601 598 856 
3 337 336 364 
3 232 231 233 
3 407 552 832 
3 363 332 820 
3 807 434 825 
3 463 462 512 
3 429 275 839 
3 535 491 867 
3 303 234 815 
3 332 383 820 
3 217 219 220 
3 561 455 844 
3 513 512 607 
3 305 493 821 
3 321 320 322 
3 415 456 458 
3 220 257 495 
3 229 230 231 
3 307 305 821 
3 338 443 853 
3 321 322 323 
3 493 303 815 
3 198 199 200 
3 601 856 862 
3 200 201 311 
3 412 413 415 
3 195 196 198 
3 192 191 193 
3 206 207 266 
3 515 428 830 
3 823 340 843 
3 275 336 337 
3 489 570 808 
3 193 194 195 
3 312 314 492 
3 415 458 511 
3 825 518 841 
3 221 223 819 
3 220 221 257 
3 231 312 827 
3 336 274 813 
3 473 399 842 
3 502 503 533 
3 399 396 842 
3 345 326 830 
3 511 578 618 
3 236 233 827 
3 360 438 494 
3 568 569 851 
3 531 473 641 
3 869 242 882 
3 511 458 578 
3 275 274 336 
3 799 340 836 
3 225 226 227 
3 494 438 522 
3 862 563 866 
3 214 215 324 
3 327 346 877 
3 462 424 510 
3 522 579 582 
3 802 799 836 
3 435 672 864 
3 273 275 429 
3 344 850 871 
3 233 231 827 
3 598 852 856 
3 495 257 502 
3 312 492 827 
3 214 324 407 
3 494 522 523 
3 409 410 411 
3 326 805 830 
3 608 607 979 
3 411 412 424 
3 319 701 848 
3 296 298 843 
3 518 590 841 
3 665 142 883 
3 428 345 830 
3 228 227 229 
3 407 408 409 
3 780 563 862 
3 724 725 859 
3 411 410 412 
3 337 366 839 
3 597 843 852 
3 487 802 836 
3 94 165 865 
3 529 93 865 
3 198 200 277 
3 409 408 410 
3 478 779 871 
3 206 266 497 
3 503 257 819 
3 690 874 998 
3 225 227 228 
3 34 156 873 
3 190 189 191 
3 257 221 819 
3 344 803 850 
3 316 318 319 
3 486 798 845 
3 407 324 408 
3 209 211 832 
3 273 274 275 
3 497 266 550 
3 497 550 551 
3 755 754 908 
3 798 714 845 
3 641 473 842 
3 201 203 833 
3 311 201 833 
3 622 515 858 
3 7 8 846 
3 349 323 837 
3 215 217 834 
3 714 708 845 
3 91 182 817 
3 149 134 817 
3 273 272 274 
3 390 450 776 
3 850 709 871 
3 383 382 863 
3 323 322 837 
3 144 676 860 
3 828 488 844 
3 549 548 876 
3 843 298 852 
3 760 757 878 
3 446 634 863 
3 324 215 834 
3 756 755 878 
3 455 828 844 
3 322 360 837 
3 203 206 833 
3 211 214 832 
3 239 242 869 
3 705 401 898 
3 488 808 844 
3 401 331 902 
3 220 495 834 
3 217 220 834 
3 126 83 854 
3 360 494 837 
3 412 415 840 
3 192 193 197 
3 415 511 840 
3 464 435 864 
3 656 655 896 
3 510 424 840 
3 501 149 817 
3 424 412 840 
3 298 782 852 
3 711 408 868 
3 486 845 850 
3 803 486 850 
3 569 653 851 
3 706 705 895 
3 214 407 832 
3 685 684 901 
3 331 338 853 
3 819 223 849 
3 848 701 881 
3 713 493 857 
3 492 314 848 
3 206 497 833 
3 492 848 881 
3 266 207 872 
3 515 830 858 
3 830 805 858 
3 223 225 849 
3 271 272 273 
3 852 782 856 
3 782 359 856 
3 450 567 847 
3 266 872 890 
3 601 862 866 
3 517 624 903 
3 478 876 880 
3 135 126 854 
3 856 359 862 
3 316 319 848 
3 727 724 859 
3 877 346 936 
3 271 197 272 
3 192 197 271 
3 324 834 868 
3 90 145 870 
3 182 133 870 
3 359 780 862 
3 898 401 902 
3 555 869 882 
3 382 446 863 
3 815 238 857 
3 314 316 848 
3 133 90 870 
3 190 191 192 
3 93 94 865 
3 805 363 858 
3 225 228 849 
3 514 665 883 
3 498 609 893 
3 493 815 857 
3 602 601 866 
3 881 700 885 
3 577 500 883 
3 834 495 868 
3 457 711 892 
3 491 574 867 
3 255 253 894 
3 832 552 872 
3 857 238 869 
3 209 832 872 
3 626 464 864 
3 572 457 900 
3 238 239 869 
3 779 344 871 
3 207 209 872 
3 969 183 982 
3 684 417 917 
3 638 135 955 
3 419 810 891 
3 478 871 876 
3 425 463 899 
3 197 193 875 
3 89 181 887 
3 35 34 873 
3 83 125 183 
3 145 132 887 
3 554 555 882 
3 548 720 880 
3 505 504 879 
3 911 696 914 
3 895 705 898 
3 408 324 868 
3 417 327 877 
3 662 964 974 
3 776 450 847 
3 709 549 876 
3 880 720 884 
3 773 795 904 
3 188 149 189 
3 193 195 875 
3 18 639 940 
3 757 756 878 
3 582 579 926 
3 742 404 905 
3 720 721 884 
3 236 885 906 
3 697 696 911 
3 701 699 881 
3 302 478 880 
3 198 277 888 
3 884 721 886 
3 236 827 885 
3 872 552 890 
3 588 587 960 
3 346 414 912 
3 721 723 886 
3 302 880 884 
3 88 143 897 
3 240 237 906 
3 886 723 889 
3 160 75 913 
3 74 184 913 
3 181 131 897 
3 781 302 884 
3 559 558 916 
3 638 636 943 
3 500 514 883 
3 546 444 910 
3 916 558 918 
3 901 684 917 
3 132 89 887 
3 723 726 889 
3 9 150 915 
3 188 189 190 
3 781 884 886 
3 242 829 882 
3 871 709 876 
3 629 668 982 
3 937 175 1011 
3 244 241 914 
3 820 690 935 
3 457 892 900 
3 394 781 886 
3 394 886 889 
3 885 700 906 
3 459 741 991 
3 668 969 982 
3 778 394 889 
3 867 574 874 
3 508 560 919 
3 552 826 890 
3 649 648 903 
3 550 266 890 
3 625 139 978 
3 107 108 926 
3 24 23 922 
3 71 70 923 
3 73 72 924 
3 248 245 918 
3 711 868 892 
3 827 492 885 
3 810 592 891 
3 83 183 854 
3 775 818 920 
3 195 198 888 
3 82 149 188 
3 48 144 933 
3 846 8 915 
3 168 49 933 
3 875 195 888 
3 253 249 921 
3 868 495 892 
3 248 918 919 
3 527 619 943 
3 919 560 921 
3 277 200 909 
3 530 498 893 
3 244 914 916 
3 550 890 899 
3 926 108 1013 
3 240 906 911 
3 655 678 896 
3 259 255 894 
3 560 509 928 
3 495 502 892 
3 734 353 980 
3 87 179 925 
3 143 130 925 
3 259 928 931 
3 554 882 895 
3 819 849 901 
3 890 826 899 
3 659 660 932 
3 131 88 897 
3 762 160 934 
3 607 512 957 
3 492 881 885 
3 135 638 950 
3 648 517 903 
3 829 706 895 
3 497 551 929 
3 882 829 895 
3 542 847 1018 
3 553 554 898 
3 619 525 942 
3 849 685 901 
3 554 895 898 
3 892 502 900 
3 416 637 1017 
3 795 259 931 
3 566 638 955 
3 553 898 902 
3 526 606 942 
3 926 579 996 
3 187 79 937 
3 78 175 937 
3 740 137 939 
3 634 553 902 
3 403 904 905 
3 403 773 904 
3 899 463 907 
3 502 533 900 
3 826 425 899 
3 240 911 914 
3 96 97 938 
3 174 764 973 
3 404 403 905 
3 363 820 935 
3 503 819 901 
3 586 784 908 
3 311 833 929 
3 237 236 906 
3 738 741 945 
3 700 697 911 
3 17 18 940 
3 200 311 909 
3 444 459 910 
3 727 859 1010 
3 551 550 907 
3 414 576 912 
3 894 560 928 
3 915 150 989 
3 503 901 917 
3 75 74 913 
3 732 731 945 
3 791 169 957 
3 670 167 968 
3 184 924 1008 
3 627 561 951 
3 692 152 932 
3 241 240 914 
3 244 916 918 
3 688 687 947 
3 162 107 926 
3 8 9 915 
3 727 1010 1024 
3 259 894 928 
3 696 559 916 
3 86 140 941 
3 179 129 941 
3 587 538 948 
3 906 700 911 
3 822 516 944 
3 456 572 949 
3 146 64 953 
3 63 174 953 
3 245 244 918 
3 173 719 960 
3 582 926 1013 
3 85 180 946 
3 735 734 980 
3 140 128 946 
3 533 503 917 
3 558 508 919 
3 914 696 916 
3 736 523 972 
3 580 937 1011 
3 918 558 919 
3 532 775 920 
3 440 536 958 
3 772 24 922 
3 70 185 923 
3 184 73 924 
3 248 919 921 
3 130 87 925 
3 249 248 921 
3 66 65 959 
3 84 135 950 
3 180 127 950 
3 622 858 935 
3 765 158 948 
3 537 524 961 
3 550 899 907 
3 576 577 954 
3 662 664 964 
3 613 611 965 
3 928 777 931 
3 509 777 928 
3 934 160 1014 
3 949 576 954 
3 157 105 988 
3 529 865 930 
3 612 614 930 
3 611 584 965 
3 494 523 962 
3 777 547 931 
3 557 769 992 
3 786 416 965 
3 142 665 995 
3 660 663 932 
3 833 497 929 
3 844 808 951 
3 448 385 971 
3 384 545 971 
3 625 520 973 
3 138 736 972 
3 571 915 989 
3 49 48 933 
3 6 166 976 
3 865 612 930 
3 689 690 998 
3 564 589 977 
3 147 761 984 
3 31 155 981 
3 99 765 983 
3 841 155 986 
3 688 947 1022 
3 159 98 983 
3 162 926 996 
3 772 922 963 
3 419 891 1002 
3 557 556 986 
3 67 66 985 
3 657 659 968 
3 349 837 962 
3 719 716 956 
3 747 745 987 
3 572 912 949 
3 52 142 995 
3 763 762 934 
3 170 53 995 
3 523 522 972 
3 600 602 959 
3 350 349 980 
3 755 908 1007 
3 171 783 993 
3 680 570 994 
3 590 627 981 
3 583 585 938 
3 190 192 966 
3 636 527 943 
3 692 932 1009 
3 750 746 1001 
3 567 969 1018 
3 912 576 949 
3 95 96 999 
3 570 568 994 
3 3 80 1003 
3 23 3 1003 
3 124 0 1004 
3 0 4 1004 
3 72 1 1005 
3 1 92 1005 
3 2 71 1006 
3 22 2 1006 
3 753 186 1004 
3 109 138 1013 
3 866 563 975 
3 511 618 990 
3 432 381 1002 
3 596 600 1026 
3 16 151 1024 
3 141 14 1010 
3 637 615 1017 
3 806 734 1012 
3 572 900 936 
3 891 760 1002 
3 789 448 1020 
3 932 663 1009 
3 79 78 937 
3 859 141 1010 
3 614 616 1008 
3 510 791 1021 
3 964 702 974 
3 929 551 964 
3 97 159 938 
3 533 877 936 
3 851 653 1000 
3 516 571 989 
3 137 766 939 
3 462 510 1021 
3 858 363 935 
3 734 732 1012 
3 617 934 1014 
3 743 161 975 
3 510 840 990 
3 860 510 990 
3 151 17 940 
3 628 629 982 
3 129 86 941 
3 525 526 942 
3 716 718 956 
3 900 533 936 
3 818 557 992 
3 687 170 947 
3 731 738 945 
3 740 939 991 
3 128 85 946 
3 637 439 970 
3 545 822 944 
3 808 570 1016 
3 908 784 1007 
3 621 622 947 
3 538 539 948 
3 682 168 952 
3 458 456 949 
3 718 717 966 
3 712 575 978 
3 570 873 1016 
3 922 187 963 
3 127 84 950 
3 561 844 951 
3 169 673 957 
3 947 622 1022 
3 458 949 954 
3 64 63 953 
3 664 929 964 
3 81 628 1023 
3 567 566 955 
3 663 662 974 
3 429 809 956 
3 530 771 967 
3 578 458 954 
3 146 953 1026 
3 439 440 958 
3 142 682 1015 
3 812 625 978 
3 575 812 978 
3 944 750 1001 
3 65 146 959 
3 728 173 960 
3 524 532 961 
3 741 740 991 
3 536 580 1011 
3 617 637 970 
3 753 5 976 
3 837 494 962 
3 551 702 964 
3 155 768 986 
3 580 537 963 
3 883 142 1015 
3 584 786 965 
3 176 801 977 
3 667 629 996 
3 801 591 977 
3 635 459 991 
3 125 81 1023 
3 448 987 1020 
3 562 530 967 
3 774 657 968 
3 192 271 966 
3 385 384 971 
3 520 593 973 
3 574 783 998 
3 952 168 997 
3 791 957 1021 
3 702 608 974 
3 939 635 991 
3 522 582 972 
3 563 562 975 
3 754 753 976 
3 5 6 976 
3 854 183 969 
3 591 564 977 
3 139 712 978 
3 148 693 979 
3 920 818 992 
3 168 933 997 
3 874 574 998 
3 965 416 1017 
3 32 31 981 
3 353 350 980 
3 98 99 983 
3 732 945 1012 
3 761 759 984 
3 161 67 985 
3 717 157 988 
3 878 755 1007 
3 745 748 987 
3 979 693 1009 
3 556 841 986 
3 153 680 994 
3 150 750 989 
3 579 667 996 
3 953 595 1026 
3 922 23 1003 
3 71 923 1006 
3 924 72 1005 
3 783 689 998 
3 432 878 1007 
3 951 808 1016 
3 147 984 1025 
3 703 171 993 
3 851 153 994 
3 629 162 996 
3 840 511 990 
3 439 958 970 
3 769 154 992 
3 53 52 995 
3 160 913 1014 
3 693 692 1009 
3 568 851 994 
3 934 617 970 
3 979 1009 1019 
3 746 747 1001 
3 165 95 999 
3 618 578 997 
3 80 187 1003 
3 186 124 1004 
3 92 529 1005 
3 528 22 1006 
3 381 419 1002 
3 690 688 1022 
3 653 774 1000 
3 154 920 992 
3 784 432 1007 
3 969 668 1018 
3 14 15 1010 
3 175 763 1011 
3 108 109 1013 
3 873 156 1016 
3 616 617 1014 
3 433 806 1012 
3 615 613 1017 
3 933 618 997 
3 1010 15 1024 
3 183 125 1023 
3 545 944 1001 
3 725 789 1020 
3 15 16 1024 
3 577 883 1015 
3 748 141 1027 
3 859 725 1027 
3 592 591 1025 
3 595 596 1026 
3 512 462 1021 
3 847 567 1018 
3 187 922 1003 
3 923 528 1006 
3 529 924 1005 
3 913 616 1014 
3 1020 748 1027 
3 725 1020 1027 
3 141 859 1027 
3 622 935 1022 
3 945 433 1012 
3 957 512 1021 
3 930 614 1008 
3 156 951 1016 
3 935 690 1022 
3 613 965 1017 
3 663 974 1019 
3 952 577 1015 
3 682 952 1015 
3 982 183 1023 
3 974 608 1019 
3 608 979 1019 
3 984 592 1025 
3 987 748 1020 
3 628 982 1023 
3 1009 663 1019 

CELL_TYPES 1919
5
5
5
5
5
5
5
5
5
5
5
5
5
5
5
5
5
5
5
5
5
5
5
5
5
5
5
5
5
5
5
5
5
5
5
5
5
5
5
5
5
5
5
5
5
5
5
5
5
5
5
5
5
5
5
5
5
5
5
5
5
5
5
5
5
5
5
5
5
5
5
5
5
5
5
5
5
5
5
5
5
5
5
5
5
5
5
5
5
5
5
5
5
5
5
5
5
5
5
5
5
5
5
5
5
5
5
5
5
5
5
5
5
5
5
5
5
5
5
5
5
5
5
5
5
5
5
5
5
5
5
5
5
5
5
5
5
5
5
5
5
5
5
5
5
5
5
5
5
5
5
5
5
5
5
5
5
5
5
5
5
5
5
5
5
5
5
5
5
5
5
5
5
5
5
5
5
5
5
5
5
5
5
5
5
5
5
5
5
5
5
5
5
5
5
5
5
5
5
5
5
5
5
5
5
5
5
5
5
5
5
5
5
5
5
5
5
5
5
5
5
5
5
5
5
5
5
5
5
5
5
5
5
5
5
5
5
5
5
5
5
5
5
5
5
5
5
5
5
5
5
5
5
5
5
5
5
5
5
5
5
5
5
5
5
5
5
5
5
5
5
5
5
5
5
5
5
5
5
5
5
5
5
5
5
5
5
5
5
5
5
5
5
5
5
5
5
5
5
5
5
5
5
5
5
5
5
5
5
5
5
5
5
5
5
5
5
5
5
5
5
5
5
5
5
5
5
5
5
5
5
5
5
5
5
5
5
5
5
5
5
5
5
5
5
5
5
5
5
5
5
5
5
5
5
5
5
5
5
5
5
5
5
5
5
5
5
5
5
5
5
5
5
5
5
5
5
5
5
5
5
5
5
5
5
5
5
5
5
5
5
5
5
5
5
5
5
5
5
5
5
5
5
5
5
5
5
5
5
5
5
5
5
5
5
5
5
5
5
5
5
5
5
5
5
5
5
5
5
5
5
5
5
5
5
5
5
5
5
5
5
5
5
5
5
5
5
5
5
5
5
5
5
5
5
5
5
5
5
5
5
5
5
5
5
5
5
5
5
5
5
5
5
5
5
5
5
5
5
5
5
5
5
5
5
5
5
5
5
5
5
5
5
5
5
5
5
5
5
5
5
5
5
5
5
5
5
5
5
5
5
5
5
5
5
5
5
5
5
5
5
5
5
5
5
5
5
5
5
5
5
5
5
5
5
5
5
5
5
5
5
5
5
5
5
5
5
5
5
5
5
5
5
5
5
5
5
5
5
5
5
5
5
5
5
5
5
5
5
5
5
5
5
5
5
5
5
5
5
5
5
5
5
5
5
5
5
5
5
5
5
5
5
5
5
5
5
5
5
5
5
5
5
5
5
5
5
5
5
5
5
5
5
5
5
5
5
5
5
5
5
5
5
5
5
5
5
5
5
5
5
5
5
5
5
5
5
5
5
5
5
5
5
5
5
5
5
5
5
5
5
5
5
5
5
5
5
5
5
5
5
5
5
5
5
5
5
5
5
5
5
5
5
5
5
5
5
5
5
5
5
5
5
5
5
5
5
5
5
5
5
5
5
5
5
5
5
5
5
5
5
5
5
5
5
5
5
5
5
5
5
5
5
5
5
5
5
5
5
5
5
5
5
5
5
5
5
5
5
5
5
5
5
5
5
5
5
5
5
5
5
5
5
5
5
5
5
5
5
5
5
5
5
5
5
5
5
5
5
5
5
5
5
5
5
5
5
5
5
5
5
5
5
5
5
5
5
5
5
5
5
5
5
5
5
5
5
5
5
5
5
5
5
5
5
5
5
5
5
5
5
5
5
5
5
5
5
5
5
5
5
5
5
5
5
5
5
5
5
5
5
5
5
5
5
5
5
5
5
5
5
5
5
5
5
5
5
5
5
5
5
5
5
5
5
5
5
5
5
5
5
5
5
5
5
5
5
5
5
5
5
5
5
5
5
5
5
5
5
5
5
5
5
5
5
5
5
5
5
5
5
5
5
5
5
5
5
5
5
5
5
5
5
5
5
5
5
5
5
5
5
5
5
5
5
5
5
5
5
5
5
5
5
5
5
5
5
5
5
5
5
5
5
5
5
5
5
5
5
5
5
5
5
5
5
5
5
5
5
5
5
5
5
5
5
5
5
5
5
5
5
5
5
5
5
5
5
5
5
5
5
5
5
5
5
5
5
5
5
5
5
5
5
5
5
5
5
5
5
5
5
5
5
5
5
5
5
5
5
5
5
5
5
5
5
5
5
5
5
5
5
5
5
5
5
5
5
5
5
5
5
5
5
5
5
5
5
5
5
5
5
5
5
5
5
5
5
5
5
5
5
5
5
5
5
5
5
5
5
5
5
5
5
5
5
5
5
5
5
5
5
5
5
5
5
5
5
5
5
5
5
5
5
5
5
5
5
5
5
5
5
5
5
5
5
5
5
5
5
5
5
5
5
5
5
5
5
5
5
5
5
5
5
5
5
5
5
5
5
5
5
5
5
5
5
5
5
5
5
5
5
5
5
5
5
5
5
5
5
5
5
5
5
5
5
5
5
5
5
5
5
5
5
5
5
5
5
5
5
5
5
5
5
5
5
5
5
5
5
5
5
5
5
5
5
5
5
5
5
5
5
5
5
5
5
5
5
5
5
5
5
5
5
5
5
5
5
5
5
5
5
5
5
5
5
5
5
5
5
5
5
5
5
5
5
5
5
5
5
5
5
5
5
5
5
5
5
5
5
5
5
5
5
5
5
5
5
5
5
5
5
5
5
5
5
5
5
5
5
5
5
5
5
5
5
5
5
5
5
5
5
5
5
5
5
5
5
5
5
5
5
5
5
5
5
5
5
5
5
5
5
5
5
5
5
5
5
5
5
5
5
5
5
5
5
5
5
5
5
5
5
5
5
5
5
5
5
5
5
5
5
5
5
5
5
5
5
5
5
5
5
5
5
5
5
5
5
5
5
5
5
5
5
5
5
5
5
5
5
5
5
5
5
5
5
5
5
5
5
5
5
5
5
5
5
5
5
5
5
5
5
5
5
5
5
5
5
5
5
5
5
5
5
5
5
5
5
5
5
5
5
5
5
5
5
5
5
5
5
5
5
5
5
5
5
5
5
5
5
5
5
5
5
5
5
5
5
5
5
5
5
5
5
5
5
5
5
5
5
5
5
5
5
5
5
5
5
5
5
5
5
5
5
5
5
5
5
5
5
5
5
5
5
5
5
5
5
5
5
5
5
5
5
5
5
5
5
5
5
5
5
5
5
5
5
5
5
5
5
5
5
5
5
5
5
5
5
5
5
5
5
5
5
5
5
5
5
5
5
5
5
5
5
5
5
5
5
5
5
5
5
5
5
5
5
5
5
5
5
5
5
5
5
5
5
5
5
5
5
5
5
5
5
5
5
5
5
5
5
5
5
5
5
5
5
5
5
5
5
5
5
5
5
5
5
5
5
5
5
5
5
5
5
5
5
5
5
5
5
5
5
5
5
5
5
5
5
5
5
5
5
5
5
5
5
5
5
5
5
5
5
5
5
5
5
5
5
5
5
5
5
5
5
5
5
5
5
5
5
5
5
5
5
5
5
5
5
5
5
5
5
5
5
5
5
5
5
5
5
5
5
5
5
5
5
5
5
5
5
5
5
5
5
5
5
5
5
5
5
5
5
5
5
5
5
5
5
5
5
5
5
5
5
5
5
5
5
5
5
5
5
5
5
5
5
5
5
5
5
5
5
5
5
5
5
5
5
5
5
5
5
5
5
5
5
5
5
5
5
5
5
5
5
5
5
5
5
5
5
5
5
5
5
5
5
5
5
5
5
5
5
5
5
5
5
5
5
5
5
5
5
5
5
5
5
5
5
5
5
5
5
5
5
5
5
5
5
5
5
5
5
5
5
5
5
5
5
5
5
5
5
5
5
5
5
5
5
5
5
5
5
5
5
5
5
5
5
5
5
5
5
5
5
5
5
5
5
5
5
5
5
5
5
5
5
5
5
5
5
5
5
5
5
5
5
5
5
5
5
5
5
5
5
5
5
5
5
5
5
5
5
5
5
5
5
5
5
5
5
5
5
5
5
5
5
5
5
5
5
5
5
5
5
5
5
5
5
5
5
5
5
5
5
5
5
5
5
5
5
5
5
5
5
5
5
5
5
5
5
5
5
5
5
5
5
5
5
5
5
5
5
5
5
5
5
5
5
5
5
5
5
5
5
5
5
5
5
5
5
5
5
5
5
5
5
5
5
5
5
5
5
5
5
5
5
5
5
5
5
5
5
5
5
5
5
5
5
5
5
5
5
5
5
5
5
5
5
5
5
5
5
5
5
5
5
5
5
5
5

POINT_DATA 1028

VECTORS coord float
0.0 0.0 0.0 
5.000000000000e+01 -1.000000000000e+01 0.0 
0.0 -2.000000000000e+01 0.0 
5.000000000000e+01 -2.000000000000e+01 0.0 
0.0 -9.999999999991e-01 0.0 
0.0 -1.999999999998e+00 0.0 
0.0 -2.999999999997e+00 0.0 
0.0 -3.999999999994e+00 0.0 
0.0 -4.999999999991e+00 0.0 
0.0 -5.999999999988e+00 0.0 
0.0 -6.999999999985e+00 0.0 
0.0 -7.999999999982e+00 0.0 
0.0 -8.999999999983e+00 0.0 
0.0 -9.999999999985e+00 0.0 
0.0 -1.099999999999e+01 0.0 
0.0 -1.199999999999e+01 0.0 
0.0 -1.299999999999e+01 0.0 
0.0 -1.399999999999e+01 0.0 
0.0 -1.499999999999e+01 0.0 
0.0 -1.599999999999e+01 0.0 
0.0 -1.700000000000e+01 0.0 
0.0 -1.800000000000e+01 0.0 
0.0 -1.900000000000e+01 0.0 
4.900000000001e+01 -2.000000000000e+01 0.0 
4.800000000001e+01 -2.000000000000e+01 0.0 
4.700000000002e+01 -2.000000000000e+01 0.0 
4.600000000003e+01 -2.000000000000e+01 0.0 
4.500000000004e+01 -2.000000000000e+01 0.0 
4.400000000004e+01 -2.000000000000e+01 0.0 
4.300000000005e+01 -2.000000000000e+01 0.0 
4.200000000006e+01 -2.000000000000e+01 0.0 
4.100000000006e+01 -2.000000000000e+01 0.0 
4.000000000007e+01 -2.000000000000e+01 0.0 
3.900000000008e+01 -2.000000000000e+01 0.0 
3.800000000009e+01 -2.000000000000e+01 0.0 
3.700000000009e+01 -2.000000000000e+01 0.0 
3.600000000010e+01 -2.000000000000e+01 0.0 
3.500000000011e+01 -2.000000000000e+01 0.0 
3.400000000011e+01 -2.000000000000e+01 0.0 
3.300000000012e+01 -2.000000000000e+01 0.0 
3.200000000013e+01 -2.000000000000e+01 0.0 
3.100000000013e+01 -2.000000000000e+01 0.0 
3.000000000013e+01 -2.000000000000e+01 0.0 
2.900000000013e+01 -2.000000000000e+01 0.0 
2.800000000013e+01 -2.000000000000e+01 0.0 
2.700000000013e+01 -2.000000000000e+01 0.0 
2.600000000013e+01 -2.000000000000e+01 0.0 
2.500000000013e+01 -2.000000000000e+01 0.0 
2.400000000013e+01 -2.000000000000e+01 0.0 
2.300000000013e+01 -2.000000000000e+01 0.0 
2.200000000013e+01 -2.000000000000e+01 0.0 
2.100000000013e+01 -2.000000000000e+01 0.0 
2.000000000013e+01 -2.000000000000e+01 0.0 
1.900000000013e+01 -2.000000000000e+01 0.0 
1.800000000013e+01 -2.000000000000e+01 0.0 
1.700000000012e+01 -2.000000000000e+01 0.0 
1.600000000011e+01 -2.000000000000e+01 0.0 
1.500000000011e+01 -2.000000000000e+01 0.0 
1.400000000010e+01 -2.000000000000e+01 0.0 
1.300000000009e+01 -2.000000000000e+01 0.0 
1.200000000009e+01 -2.000000000000e+01 0.0 
1.100000000008e+01 -2.000000000000e+01 0.0 
1.000000000007e+01 -2.000000000000e+01 0.0 
9.000000000064e+00 -2.000000000000e+01 0.0 
8.000000000057e+00 -2.000000000000e+01 0.0 
7.000000000050e+00 -2.000000000000e+01 0.0 
6.000000000043e+00 -2.000000000000e+01 0.0 
5.000000000036e+00 -2.000000000000e+01 0.0 
4.000000000028e+00 -2.000000000000e+01 0.0 
3.000000000021e+00 -2.000000000000e+01 0.0 
2.000000000014e+00 -2.000000000000e+01 0.0 
1.000000000007e+00 -2.000000000000e+01 0.0 
5.000000000000e+01 -1.100000000000e+01 0.0 
5.000000000000e+01 -1.200000000000e+01 0.0 
5.000000000000e+01 -1.300000000000e+01 0.0 
5.000000000000e+01 -1.400000000000e+01 0.0 
5.000000000000e+01 -1.500000000000e+01 0.0 
5.000000000000e+01 -1.600000000000e+01 0.0 
5.000000000000e+01 -1.700000000000e+01 0.0 
5.000000000000e+01 -1.800000000000e+01 0.0 
5.000000000000e+01 -1.900000000000e+01 0.0 
2.000000000000e+01 0.0 0.0 
3.500000000000e+01 -1.000000000000e+01 0.0 
2.150000000000e+01 -1.000000000000e+00 0.0 
2.300000000000e+01 -2.000000000000e+00 0.0 
2.450000000000e+01 -3.000000000000e+00 0.0 
2.600000000000e+01 -4.000000000000e+00 0.0 
2.750000000000e+01 -5.000000000000e+00 0.0 
2.900000000000e+01 -6.000000000000e+00 0.0 
3.050000000000e+01 -7.000000000000e+00 0.0 
3.200000000000e+01 -8.000000000000e+00 0.0 
3.350000000000e+01 -9.000000000000e+00 0.0 
4.900000000000e+01 -1.000000000000e+01 0.0 
4.800000000000e+01 -1.000000000000e+01 0.0 
4.700000000000e+01 -1.000000000000e+01 0.0 
4.600000000000e+01 -1.000000000000e+01 0.0 
4.500000000000e+01 -1.000000000000e+01 0.0 
4.400000000000e+01 -1.000000000000e+01 0.0 
4.300000000000e+01 -1.000000000000e+01 0.0 
4.200000000000e+01 -1.000000000000e+01 0.0 
4.100000000000e+01 -1.000000000000e+01 0.0 
4.000000000000e+01 -1.000000000000e+01 0.0 
3.900000000000e+01 -1.000000000000e+01 0.0 
3.800000000000e+01 -1.000000000000e+01 0.0 
3.700000000000e+01 -1.000000000000e+01 0.0 
3.600000000000e+01 -1.000000000000e+01 0.0 
1.900000000000e+01 0.0 0.0 
1.800000000000e+01 0.0 0.0 
1.700000000000e+01 0.0 0.0 
1.600000000000e+01 0.0 0.0 
1.500000000000e+01 0.0 0.0 
1.400000000000e+01 0.0 0.0 
1.300000000000e+01 0.0 0.0 
1.200000000000e+01 0.0 0.0 
1.100000000000e+01 0.0 0.0 
1.000000000000e+01 0.0 0.0 
9.000000000000e+00 0.0 0.0 
8.000000000000e+00 0.0 0.0 
7.000000000000e+00 0.0 0.0 
6.000000000000e+00 0.0 0.0 
5.000000000000e+00 0.0 0.0 
4.000000000000e+00 0.0 0.0 
3.000000000000e+00 0.0 0.0 
2.000000000000e+00 0.0 0.0 
1.000000000000e+00 0.0 0.0 
2.075000000000e+01 -5.000000000006e-01 0.0 
2.225000000000e+01 -1.500000000000e+00 0.0 
2.375000000000e+01 -2.500000000000e+00 0.0 
2.525000000000e+01 -3.500000000000e+00 0.0 
2.675000000000e+01 -4.500000000000e+00 0.0 
2.825000000000e+01 -5.500000000000e+00 0.0 
2.975000000000e+01 -6.500000000000e+00 0.0 
3.125000000000e+01 -7.500000000000e+00 0.0 
3.275000000000e+01 -8.500000000000e+00 0.0 
3.425000000000e+01 -9.500000000000e+00 0.0 
2.226951693683e+01 -2.403913980114e+00 0.0 
1.650149491944e+01 -1.913490915758e+01 0.0 
1.050042386896e+01 -8.504605092970e-01 0.0 
1.553146524712e+01 -8.281255032105e-01 0.0 
1.150000000008e+01 -1.913397459621e+01 0.0 
2.530060260647e+01 -4.428336431260e+00 0.0 
8.651114563942e-01 -1.052096295641e+01 0.0 
2.050000000013e+01 -1.913397459622e+01 0.0 
2.819198729811e+01 -6.399519052838e+00 0.0 
2.445670302931e+01 -1.915649188023e+01 0.0 
3.117591465718e+01 -8.394293040695e+00 0.0 
7.465053044742e+00 -1.920411160581e+01 0.0 
6.398295709691e+00 -8.230098819370e-01 0.0 
2.849659607461e+01 -1.914296187762e+01 0.0 
3.418732642882e+01 -1.040265792588e+01 0.0 
8.386450935063e-01 -6.533605142809e+00 0.0 
9.178661865596e-01 -1.329769195597e+01 0.0 
3.149448624493e+01 -1.910466733764e+01 0.0 
3.552916747426e+01 -1.914628590759e+01 0.0 
4.449210346537e+01 -1.914359085008e+01 0.0 
4.140975975145e+01 -1.906941860733e+01 0.0 
3.847475958753e+01 -1.916622382724e+01 0.0 
3.653774794640e+01 -1.088712800241e+01 0.0 
4.047886341787e+01 -1.090139014048e+01 0.0 
4.348006339825e+01 -1.092792621489e+01 0.0 
4.919519968029e+01 -1.451526755068e+01 0.0 
4.500000000032e+00 -1.913397459621e+01 0.0 
1.856136921614e+01 -8.212235170404e-01 0.0 
3.499895312306e+00 -8.661165539723e-01 0.0 
9.076088696565e-01 -1.642306201891e+01 0.0 
4.655174095477e+01 -1.086183387525e+01 0.0 
9.430688970604e-01 -3.496112672958e+00 0.0 
3.353992337063e+01 -1.901202090820e+01 0.0 
2.249746016977e+01 -1.921262287282e+01 0.0 
2.650122741777e+01 -1.916123026018e+01 0.0 
1.863571384842e+01 -1.908325534840e+01 0.0 
1.450089971693e+01 -1.917691901860e+01 0.0 
1.350044695317e+01 -8.659695299584e-01 0.0 
3.849987469880e+01 -1.084154983397e+01 0.0 
9.454419857884e+00 -1.900818879936e+01 0.0 
4.917398660523e+01 -1.645692866081e+01 0.0 
8.500000000000e+00 -8.660254037844e-01 0.0 
8.660319230785e-01 -8.500111697188e+00 0.0 
4.649022621545e+01 -1.930506220113e+01 0.0 
2.667688107845e+01 -5.420288124331e+00 0.0 
2.379251615665e+01 -3.412225477429e+00 0.0 
2.966631491830e+01 -7.389030232731e+00 0.0 
3.267915035995e+01 -9.396934932445e+00 0.0 
2.074836922338e+01 -1.320054020319e+00 0.0 
4.915985743621e+01 -1.261973384855e+01 0.0 
2.527129768623e+00 -1.931592414663e+01 0.0 
1.538676247410e+00 -8.436956619311e-01 0.0 
4.908096641539e+01 -1.842484004551e+01 0.0 
3.478612492673e+01 -1.090889364140e+01 0.0 
3.409757055860e+01 -1.131991530427e+01 0.0 
3.501895309466e+01 -1.177687842717e+01 0.0 
3.407758073088e+01 -1.224293381580e+01 0.0 
3.484541875390e+01 -1.277051428430e+01 0.0 
3.400322025842e+01 -1.319022775640e+01 0.0 
3.321672625034e+01 -1.266779191233e+01 0.0 
3.315244139236e+01 -1.360984106532e+01 0.0 
3.236335186892e+01 -1.308463225210e+01 0.0 
3.478337442841e+01 -1.372341158982e+01 0.0 
3.230105923633e+01 -1.403023731610e+01 0.0 
3.150954055289e+01 -1.350301767700e+01 0.0 
3.144604792090e+01 -1.444931742516e+01 0.0 
3.065653897123e+01 -1.392357262981e+01 0.0 
3.071897610812e+01 -1.297447031198e+01 0.0 
2.986790411740e+01 -1.339226181535e+01 0.0 
2.993181466745e+01 -1.244703272398e+01 0.0 
2.908023061869e+01 -1.286254537734e+01 0.0 
2.901619051372e+01 -1.380881655279e+01 0.0 
2.822986160390e+01 -1.327695262116e+01 0.0 
2.829453476870e+01 -1.233265343811e+01 0.0 
2.744542905518e+01 -1.274510491105e+01 0.0 
2.751120089246e+01 -1.180368086886e+01 0.0 
2.666218649885e+01 -1.221619339205e+01 0.0 
2.672371209234e+01 -1.127125228527e+01 0.0 
2.587763216302e+01 -1.168539979114e+01 0.0 
2.581165585299e+01 -1.262994410089e+01 0.0 
2.502890882577e+01 -1.209827323619e+01 0.0 
2.509631327757e+01 -1.115492410304e+01 0.0 
2.424662989877e+01 -1.156630981079e+01 0.0 
2.431704046904e+01 -1.062389179334e+01 0.0 
2.346445438728e+01 -1.103427680694e+01 0.0 
2.339382552877e+01 -1.197964871788e+01 0.0 
2.260936050780e+01 -1.144513277642e+01 0.0 
2.268075012022e+01 -1.049911928216e+01 0.0 
2.182525737661e+01 -1.090920811464e+01 0.0 
2.189682319817e+01 -9.961716944568e+00 0.0 
2.104174127792e+01 -1.037266986667e+01 0.0 
2.111304367575e+01 -9.424179358711e+00 0.0 
2.025306185381e+01 -9.832727364719e+00 0.0 
2.018141124247e+01 -1.079140628871e+01 0.0 
1.938594498257e+01 -1.025147354112e+01 0.0 
1.946106490453e+01 -9.288010758448e+00 0.0 
1.858929958352e+01 -9.706319802516e+00 0.0 
1.851540991219e+01 -1.067205988724e+01 0.0 
1.771485303178e+01 -1.012504443115e+01 0.0 
1.764134552256e+01 -1.109360378538e+01 0.0 
1.683745148095e+01 -1.054496365337e+01 0.0 
1.691852964353e+01 -9.582555261178e+00 0.0 
1.603603813062e+01 -1.000160132379e+01 0.0 
1.595824239350e+01 -1.096750698862e+01 0.0 
1.515080624291e+01 -1.041639501931e+01 0.0 
1.523171602559e+01 -9.451711491453e+00 0.0 
1.434621060709e+01 -9.871956467464e+00 0.0 
1.426777178765e+01 -1.083749501371e+01 0.0 
1.345775282374e+01 -1.028803175500e+01 0.0 
1.354103873368e+01 -9.324918457162e+00 0.0 
1.265072018622e+01 -9.742612837270e+00 0.0 
1.257285762070e+01 -1.071557782384e+01 0.0 
1.175874815690e+01 -1.015972324288e+01 0.0 
1.184203019714e+01 -9.193604071377e+00 0.0 
1.094927709905e+01 -9.612103238656e+00 0.0 
1.086938022910e+01 -1.058685085646e+01 0.0 
1.005424098961e+01 -1.002939116380e+01 0.0 
9.977974613295e+00 -1.101324897989e+01 0.0 
1.012915646404e+01 -9.051815821181e+00 0.0 
9.237127782494e+00 -9.471239055559e+00 0.0 
9.308426593771e+00 -8.483376461131e+00 0.0 
8.418806073345e+00 -8.910712374517e+00 0.0 
2.253688464062e+01 -1.239459402279e+01 0.0 
8.495126726666e+00 -7.921646665254e+00 0.0 
9.389727383206e+00 -7.512103628377e+00 0.0 
7.601560812974e+00 -8.349460349344e+00 0.0 
7.525680547759e+00 -9.339736686940e+00 0.0 
7.677888324502e+00 -7.359727833346e+00 0.0 
6.782001206724e+00 -7.788454494773e+00 0.0 
6.858778622885e+00 -6.797338062822e+00 0.0 
2.196596590865e+01 -8.979025665442e+00 0.0 
2.816540108272e+01 -1.422634142353e+01 0.0 
5.961601194403e+00 -7.226824010712e+00 0.0 
6.038171749656e+00 -6.234825887079e+00 0.0 
6.936257279557e+00 -5.805287640737e+00 0.0 
6.115068918323e+00 -5.242109758768e+00 0.0 
3.564391741903e+01 -1.329240553876e+01 0.0 
3.558115605778e+01 -1.425902892003e+01 0.0 
3.645445282201e+01 -1.381970786460e+01 0.0 
3.639744204358e+01 -1.479198128612e+01 0.0 
3.727266909778e+01 -1.435399586226e+01 0.0 
5.216667013081e+00 -5.671788584287e+00 0.0 
3.220697293295e+01 -1.499594545107e+01 0.0 
3.551112158269e+01 -1.523479869250e+01 0.0 
2.836056961467e+01 -1.139032434851e+01 0.0 
2.516730388602e+01 -1.021382726837e+01 0.0 
1.844436907403e+01 -1.164097215196e+01 0.0 
5.885434318740e+00 -8.218694781467e+00 0.0 
5.064071066867e+00 -7.656614643901e+00 0.0 
4.988089103470e+00 -8.649722082718e+00 0.0 
1.079421050408e+01 -1.157014985435e+01 0.0 
9.902420005256e+00 -1.199903342656e+01 0.0 
1.071994252214e+01 -1.255727909771e+01 0.0 
9.826974788171e+00 -1.298659581767e+01 0.0 
1.064607883789e+01 -1.354595476388e+01 0.0 
9.751541265343e+00 -1.397556905071e+01 0.0 
8.932296185869e+00 -1.341553353988e+01 0.0 
8.856399248106e+00 -1.440570715508e+01 0.0 
8.036186803543e+00 -1.384470558472e+01 0.0 
1.057112875118e+01 -1.453516759081e+01 0.0 
1.146582585687e+01 -1.410539926903e+01 0.0 
7.959894480382e+00 -1.483563350928e+01 0.0 
7.138792279156e+00 -1.427465094140e+01 0.0 
7.062506792418e+00 -1.526615385482e+01 0.0 
6.240693558277e+00 -1.470508863040e+01 0.0 
6.316957575451e+00 -1.371212581281e+01 0.0 
5.418183007107e+00 -1.414253605022e+01 0.0 
5.494748364428e+00 -1.314886770603e+01 0.0 
1.756825565873e+01 -1.206433872514e+01 0.0 
1.837565773345e+01 -1.261356468266e+01 0.0 
1.749574831391e+01 -1.303769280014e+01 0.0 
1.830539187332e+01 -1.358828364284e+01 0.0 
1.742278925170e+01 -1.401367746928e+01 0.0 
1.823303007798e+01 -1.456432294258e+01 0.0 
1.734941694138e+01 -1.499213734361e+01 0.0 
1.653760041637e+01 -1.443920312098e+01 0.0 
3.056237977307e+01 -1.487132260174e+01 0.0 
1.866469084762e+01 -8.742953000418e+00 0.0 
1.953669694916e+01 -8.326038909849e+00 0.0 
1.874194303780e+01 -7.780688158966e+00 0.0 
1.961032016741e+01 -7.366854697285e+00 0.0 
1.881715755159e+01 -6.821102209649e+00 0.0 
1.968369797150e+01 -6.407747217358e+00 0.0 
1.889237123259e+01 -5.858375520026e+00 0.0 
1.802038875366e+01 -6.276202618170e+00 0.0 
1.809793837984e+01 -5.307629520489e+00 0.0 
1.721985207997e+01 -5.728242054488e+00 0.0 
1.729850893523e+01 -4.756990819347e+00 0.0 
1.641745664240e+01 -5.174636548624e+00 0.0 
2.495978509456e+01 -1.304406404294e+01 0.0 
1.911567814831e+01 -1.413854250293e+01 0.0 
1.904387332608e+01 -1.511463127723e+01 0.0 
1.992115934240e+01 -1.468788025898e+01 0.0 
7.013706899628e+00 -4.812582868662e+00 0.0 
5.342091874585e+00 -1.513658157269e+01 0.0 
1.139098043784e+01 -1.509488509480e+01 0.0 
1.228151810610e+01 -1.465617481983e+01 0.0 
1.646373110164e+01 -1.541993323337e+01 0.0 
5.293328636712e+00 -4.678385108584e+00 0.0 
1.975965862987e+01 -5.448124345648e+00 0.0 
2.054318374236e+01 -5.992561293251e+00 0.0 
3.721453439063e+01 -1.533216152738e+01 0.0 
3.809302733893e+01 -1.489235527381e+01 0.0 
1.220852788900e+01 -1.565304565230e+01 0.0 
4.394120899730e+00 -5.108397613210e+00 0.0 
8.779354620288e+00 -1.539524721159e+01 0.0 
1.817791047702e+01 -4.338570146253e+00 0.0 
4.518860013839e+00 -1.457343189307e+01 0.0 
4.442712140414e+00 -1.556841391069e+01 0.0 
8.115343466391e+00 -1.285760324283e+01 0.0 
1.985334703171e+01 -1.566478400426e+01 0.0 
2.071953850276e+01 -1.522074243119e+01 0.0 
1.634012953883e+01 -6.154777738301e+00 0.0 
1.553479994708e+01 -5.593730508879e+00 0.0 
1.561265946942e+01 -4.617761762647e+00 0.0 
1.470674212978e+01 -5.064576488228e+00 0.0 
1.464498299883e+01 -6.026514471420e+00 0.0 
1.383271561817e+01 -5.467796261169e+00 0.0 
1.389241253067e+01 -4.504338666645e+00 0.0 
1.301868735463e+01 -4.907185188626e+00 0.0 
1.294514184846e+01 -5.888160903592e+00 0.0 
1.212955968622e+01 -5.328262335277e+00 0.0 
1.220721122383e+01 -4.341264976687e+00 0.0 
1.131324345897e+01 -4.766773516508e+00 0.0 
5.266597955397e+00 -1.613148974258e+01 0.0 
1.737805990867e+01 -3.786677807525e+00 0.0 
3.078438094513e+01 -1.203225297748e+01 0.0 
1.131569882285e+01 -1.608511932110e+01 0.0 
1.728478341782e+01 -1.596017432313e+01 0.0 
3.803465906019e+01 -1.587509751228e+01 0.0 
3.891681276677e+01 -1.543395196905e+01 0.0 
3.897340985302e+01 -1.444710288980e+01 0.0 
3.980095968193e+01 -1.499059496613e+01 0.0 
3.974334598189e+01 -1.597921884150e+01 0.0 
4.062964983717e+01 -1.553518690417e+01 0.0 
4.068729602479e+01 -1.454434445295e+01 0.0 
4.151772679790e+01 -1.508974196007e+01 0.0 
4.157505195739e+01 -1.409694289912e+01 0.0 
4.240699932656e+01 -1.464347955968e+01 0.0 
4.234898051011e+01 -1.563721375790e+01 0.0 
4.323934606035e+01 -1.519082036405e+01 0.0 
4.329740528208e+01 -1.419587509788e+01 0.0 
4.413056841369e+01 -1.474359631875e+01 0.0 
4.418850110108e+01 -1.374786684042e+01 0.0 
4.502219770667e+01 -1.429605103525e+01 0.0 
4.496411937907e+01 -1.529215882720e+01 0.0 
4.490027319897e+00 -4.154167794594e+00 0.0 
1.565080385988e+01 -1.486411982419e+01 0.0 
1.557610691279e+01 -1.584855627870e+01 0.0 
4.195350646612e+00 -8.089117689096e+00 0.0 
4.124027797830e+00 -9.082831955007e+00 0.0 
4.917944318925e+00 -9.643530901533e+00 0.0 
4.020105689502e+00 -1.007439673661e+01 0.0 
4.587185899277e+01 -1.484039992728e+01 0.0 
4.580078661551e+01 -1.584043391042e+01 0.0 
2.061956522375e+01 -5.046701343981e+00 0.0 
2.139572955529e+01 -5.579553449826e+00 0.0 
3.715344357292e+01 -1.631485124583e+01 0.0 
3.618886196443e+00 -1.500471207167e+01 0.0 
3.695606940204e+00 -1.400939692294e+01 0.0 
2.438890661143e+01 -9.686110599723e+00 0.0 
2.523267572778e+01 -9.276766000622e+00 0.0 
2.446094171539e+01 -8.751904591412e+00 0.0 
2.529089822738e+01 -8.321495612547e+00 0.0 
2.606882688827e+01 -8.864724051119e+00 0.0 
2.452116646430e+01 -7.792756462004e+00 0.0 
1.235543269617e+01 -1.365845617339e+01 0.0 
4.318116874181e+01 -1.618567469992e+01 0.0 
7.835066111909e+00 -5.376366223896e+00 0.0 
7.905687335704e+00 -4.382539065697e+00 0.0 
3.542640009567e+00 -1.600035116542e+01 0.0 
1.572431503071e+01 -1.388358386695e+01 0.0 
2.574684696680e+01 -1.357896141127e+01 0.0 
2.488842657651e+01 -1.399674354505e+01 0.0 
2.568301775611e+01 -1.453552048595e+01 0.0 
2.481535572009e+01 -1.495542756508e+01 0.0 
2.561729699688e+01 -1.549784648532e+01 0.0 
2.474623061296e+01 -1.592058894178e+01 0.0 
2.394234041695e+01 -1.537572575827e+01 0.0 
2.065825452567e+01 -1.621899055217e+01 0.0 
2.387180528935e+01 -1.634552264687e+01 0.0 
4.585364400844e+01 -1.383912334080e+01 0.0 
1.998744432052e+01 -1.370317155541e+01 0.0 
1.205356951443e+01 -6.313580285498e+00 0.0 
5.396543905849e+00 -3.731818611283e+00 0.0 
1.139652573295e+01 -3.745819399350e+00 0.0 
3.574124306703e+00 -4.551456826011e+00 0.0 
3.494140761930e+00 -5.539787055649e+00 0.0 
1.213651452413e+01 -1.664505033022e+01 0.0 
2.555045568519e+01 -1.646529356744e+01 0.0 
2.641671114986e+01 -1.603899382371e+01 0.0 
2.612920721894e+01 -7.906435260873e+00 0.0 
2.690339829698e+01 -8.456969591431e+00 0.0 
1.978024383368e+01 -1.664410216353e+01 0.0 
3.732829979082e+01 -1.336926601859e+01 0.0 
4.074336584605e+01 -1.355133328401e+01 0.0 
4.163204691081e+01 -1.310280943992e+01 0.0 
3.773826114429e+00 -3.493444309145e+00 0.0 
1.228783001032e+01 -3.374822835872e+00 0.0 
4.057110462520e+01 -1.652588478000e+01 0.0 
2.132535497898e+01 -6.523623360525e+00 0.0 
2.216932532211e+01 -6.110044769206e+00 0.0 
1.825781152128e+01 -3.370146817147e+00 0.0 
1.745679445888e+01 -2.812942552063e+00 0.0 
4.666517057280e+01 -1.539981381543e+01 0.0 
4.660575894464e+01 -1.639014410186e+01 0.0 
4.838230979954e+00 -1.063643436446e+01 0.0 
3.938942630206e+00 -1.106778981745e+01 0.0 
1.302967218620e+01 -1.621373452436e+01 0.0 
1.049548003190e+01 -4.204825123240e+00 0.0 
4.573571907195e+01 -1.683820511148e+01 0.0 
1.483686335807e+01 -1.430849689310e+01 0.0 
1.490982658890e+01 -1.332679386284e+01 0.0 
3.190805600162e+00 -9.510968358545e+00 0.0 
2.146625721848e+01 -4.642437303115e+00 0.0 
2.069866208266e+01 -4.111852942193e+00 0.0 
1.286859345584e+01 -6.873252723348e+00 0.0 
1.041794493184e+01 -5.194814260291e+00 0.0 
2.671081808965e+00 -4.976806516331e+00 0.0 
1.295786792925e+01 -1.720506531799e+01 0.0 
3.968438206511e+01 -1.696869067241e+01 0.0 
2.308550456051e+01 -1.579963151273e+01 0.0 
2.315593682844e+01 -1.482967445235e+01 0.0 
2.299471449450e+01 -1.677069968132e+01 0.0 
1.057344714696e+01 -3.214252277840e+00 0.0 
1.124057603753e+01 -1.707713739755e+01 0.0 
2.718402535754e+00 -1.543629882103e+01 0.0 
2.638549692805e+01 -1.696744916809e+01 0.0 
2.723416349007e+01 -1.658104204545e+01 0.0 
2.210193351704e+01 -7.046769643417e+00 0.0 
2.295180925161e+01 -6.657397605239e+00 0.0 
2.301355235833e+01 -5.709111896800e+00 0.0 
2.379052718281e+01 -6.254965406962e+00 0.0 
3.243528601237e+01 -1.214181853533e+01 0.0 
2.287977995457e+01 -7.583722368300e+00 0.0 
2.999876029544e+01 -1.150837653096e+01 0.0 
3.084435366963e+01 -1.109693775882e+01 0.0 
3.006650579669e+01 -1.057778994262e+01 0.0 
2.683802665066e+01 -9.386863216633e+00 0.0 
2.768641973621e+01 -8.988883915666e+00 0.0 
2.040296980397e+01 -7.903629133404e+00 0.0 
1.925235024054e+01 -1.218872783130e+01 0.0 
5.735667000424e+00 -1.020577277283e+01 0.0 
6.396559909872e+00 -1.272326295703e+01 0.0 
1.161199420714e+01 -1.212812778229e+01 0.0 
4.229046132615e+01 -1.663084237572e+01 0.0 
4.312275399692e+01 -1.718087491556e+01 0.0 
4.335502068163e+01 -1.320039231514e+01 0.0 
4.424630298089e+01 -1.275160688731e+01 0.0 
7.090116643816e+00 -3.818998061530e+00 0.0 
7.989472176569e+00 -3.389238711200e+00 0.0 
9.085824861778e+00 -1.144036167408e+01 0.0 
1.041972423731e+01 -1.651614080893e+01 0.0 
3.797525112640e+01 -1.686052038746e+01 0.0 
3.709114253394e+01 -1.730125999865e+01 0.0 
3.626966748340e+01 -1.675477052919e+01 0.0 
1.385164591440e+01 -1.677597757552e+01 0.0 
1.787152588784e+01 -8.198993896093e+00 0.0 
1.668849729812e+01 -1.248560611628e+01 0.0 
1.659546177905e+01 -3.232482605530e+00 0.0 
2.332214717345e+01 -1.292598167641e+01 0.0 
7.168238450786e+00 -2.824711686516e+00 0.0 
2.894878403906e+01 -1.475427524446e+01 0.0 
2.646763248247e+00 -1.643270107952e+01 0.0 
3.467431944285e+00 -1.699648837348e+01 0.0 
2.059475877282e+01 -1.719473628526e+01 0.0 
3.333868355437e+01 -1.080596971682e+01 0.0 
2.246451062637e+01 -1.334557761546e+01 0.0 
2.167821896388e+01 -1.280847834858e+01 0.0 
3.089653185767e+01 -1.017198487212e+01 0.0 
3.012604365669e+01 -9.657298805968e+00 0.0 
2.929627299435e+01 -1.006100135274e+01 0.0 
2.936201435219e+01 -9.136748899251e+00 0.0 
1.198219052702e+01 -7.291887238230e+00 0.0 
1.116702076035e+01 -6.731976101053e+00 0.0 
2.551388807505e+01 -1.746927036981e+01 0.0 
2.378639090370e+01 -1.728678807149e+01 0.0 
2.718543627188e+01 -1.748668016909e+01 0.0 
2.804681050301e+01 -1.712626668293e+01 0.0 
1.970737034667e+01 -1.762317646822e+01 0.0 
1.889535776135e+01 -1.707158098231e+01 0.0 
2.593777711283e+00 -5.971157087874e+00 0.0 
2.773468281110e+01 -8.067164273938e+00 0.0 
4.051205884347e+01 -1.751819982458e+01 0.0 
3.166903145421e+01 -1.068032992414e+01 0.0 
1.033042452886e+01 -1.748285844336e+01 0.0 
9.519274604626e+00 -1.694349240233e+01 0.0 
1.668308673328e+01 -2.255861778986e+00 0.0 
1.570531902832e+01 -2.676795860126e+00 0.0 
4.655826903379e+01 -1.736656245706e+01 0.0 
2.384148070773e+01 -5.328744256413e+00 0.0 
2.460255123641e+01 -5.852182672816e+00 0.0 
2.306638135119e+01 -4.798935440613e+00 0.0 
8.467720450578e-01 -1.849576263072e+01 0.0 
4.849657322345e+01 -1.084860705506e+01 0.0 
2.565860899507e+00 -1.742859793981e+01 0.0 
2.764418872564e+01 -9.927142821799e+00 0.0 
4.565165880064e+01 -1.785336695404e+01 0.0 
2.162231831329e+01 -1.376528337468e+01 0.0 
2.360646352969e+01 -9.136041963102e+00 0.0 
1.392738739903e+01 -1.578285505772e+01 0.0 
4.756405947478e+01 -1.683706841809e+01 0.0 
4.740895034054e+01 -1.793766756892e+01 0.0 
4.080779328826e+01 -1.257387192544e+01 0.0 
4.168907939671e+01 -1.210739129181e+01 0.0 
3.991197722154e+01 -1.300815793917e+01 0.0 
1.905536506762e+01 -3.940076697685e+00 0.0 
1.923879596617e+01 -2.875000734166e+00 0.0 
4.401386745746e+01 -1.673483229438e+01 0.0 
4.247233362525e+00 -7.094581653070e+00 0.0 
3.286051630211e+00 -7.635300020553e+00 0.0 
9.609533347623e+00 -4.594311677967e+00 0.0 
9.523554636369e+00 -5.595597029530e+00 0.0 
5.660336628893e+00 -1.119290329628e+01 0.0 
6.558070063295e+00 -1.076385809362e+01 0.0 
2.809866407414e+01 -1.518037766799e+01 0.0 
2.888868674504e+01 -1.570360690070e+01 0.0 
2.654431550819e+01 -1.411217777162e+01 0.0 
1.402158265969e+01 -1.375404617952e+01 0.0 
1.409592494026e+01 -1.277071998942e+01 0.0 
1.499355196178e+01 -1.235270737023e+01 0.0 
4.221535326155e+01 -1.759335617494e+01 0.0 
4.305583287033e+01 -1.822663146802e+01 0.0 
1.280748808359e+01 -7.834332838285e+00 0.0 
1.368988389326e+01 -7.420529606172e+00 0.0 
1.110091796060e+01 -7.683966794328e+00 0.0 
3.963446145980e+01 -1.794331310122e+01 0.0 
3.423932362213e+00 -1.796415590455e+01 0.0 
4.280814572302e+00 -1.752272834860e+01 0.0 
8.050136380041e+00 -2.421582378631e+00 0.0 
8.888674091650e+00 -2.984264211327e+00 0.0 
2.152839430898e+01 -3.732609965436e+00 0.0 
2.077799585292e+01 -3.183896021866e+00 0.0 
3.618719395821e+01 -1.770276572576e+01 0.0 
3.538165138340e+01 -1.718709995539e+01 0.0 
3.702925326420e+01 -1.828844288807e+01 0.0 
1.756739438711e+00 -5.353284859169e+00 0.0 
2.233710191104e+01 -1.527265621324e+01 0.0 
1.389483555057e+01 -1.771797164730e+01 0.0 
1.475634224300e+01 -1.728357428390e+01 0.0 
1.298797563052e+01 -1.825968924755e+01 0.0 
2.145331271866e+01 -1.673705379077e+01 0.0 
2.133282821169e+01 -1.769400773673e+01 0.0 
2.292139194136e+01 -1.774915400288e+01 0.0 
1.750750053243e+01 -1.861475593469e+00 0.0 
4.830478841772e+01 -1.752611802221e+01 0.0 
4.341203507805e+01 -1.220326745522e+01 0.0 
1.685254151866e+01 -1.443085301632e+00 0.0 
4.431538535165e+01 -1.171841387375e+01 0.0 
4.511308610496e+01 -1.229557320599e+01 0.0 
4.510133242889e+01 -1.123680627466e+01 0.0 
1.846818030617e+00 -4.410877617069e+00 0.0 
3.995468694584e+01 -1.186571542989e+01 0.0 
3.901387459804e+01 -1.242507616755e+01 0.0 
8.966735877533e+00 -1.837818700423e+00 0.0 
4.049310011091e+01 -1.848269508791e+01 0.0 
7.278862053803e+00 -1.918523922691e+00 0.0 
6.429715522129e+00 -2.316676521184e+00 0.0 
9.443505505022e+00 -1.792198868094e+01 0.0 
8.620386951051e+00 -1.737590365556e+01 0.0 
8.571868171503e+00 -1.834436667826e+01 0.0 
7.758629848526e+00 -1.775677907213e+01 0.0 
7.806648388584e+00 -1.680761266021e+01 0.0 
6.908555145436e+00 -1.723746463044e+01 0.0 
4.251709122090e+01 -1.156937480156e+01 0.0 
6.931136405615e+00 -1.832465719263e+01 0.0 
6.015545461353e+00 -1.768865355295e+01 0.0 
5.960535926343e+00 -1.872011001764e+01 0.0 
3.023253444786e+01 -8.761960642196e+00 0.0 
2.454622702599e+01 -6.749421992767e+00 0.0 
2.537499741604e+01 -6.347634963783e+00 0.0 
2.544077378460e+01 -5.431358513649e+00 0.0 
2.801367161747e+01 -1.820907270221e+01 0.0 
2.884507806914e+01 -1.762032095326e+01 0.0 
1.821474531936e+00 -1.588901260460e+01 0.0 
1.821006262604e+00 -1.489370287756e+01 0.0 
4.599962488908e+01 -1.176478780598e+01 0.0 
4.705457470007e+01 -1.172182804229e+01 0.0 
4.667668314802e+01 -1.263464558483e+01 0.0 
4.759648056504e+01 -1.252380987933e+01 0.0 
4.728041618103e+01 -1.341928568376e+01 0.0 
4.825209352360e+01 -1.330491640804e+01 0.0 
4.778118233428e+01 -1.420151961695e+01 0.0 
2.388192727579e+01 -1.826934810142e+01 0.0 
2.381714684947e+01 -4.385917965223e+00 0.0 
3.172733219247e+01 -9.758744265248e+00 0.0 
1.882012070658e+01 -1.805540597212e+01 0.0 
1.805667505243e+01 -1.742221226236e+01 0.0 
2.852599958080e+01 -8.597196079481e+00 0.0 
2.856486123437e+01 -7.661382718527e+00 0.0 
1.111792842875e+01 -1.818223852980e+01 0.0 
2.203322722466e+01 -7.986646678802e+00 0.0 
3.955703676900e+01 -1.903246763601e+01 0.0 
1.944842206513e+01 -8.038750575182e-01 0.0 
1.909882767783e+01 -1.746322740933e+00 0.0 
2.281147422941e+01 -8.525912918334e+00 0.0 
2.850633001468e+01 -9.533271335986e+00 0.0 
2.532883344309e+01 -7.308951659710e+00 0.0 
2.620475466461e+01 -6.979208585400e+00 0.0 
1.396278270396e+01 -1.475095389807e+01 0.0 
9.791001166724e+00 -2.554159793552e+00 0.0 
2.229293380421e+01 -4.269762271052e+00 0.0 
4.677238984118e+01 -1.430071795514e+01 0.0 
2.228658385918e+01 -3.344747535984e+00 0.0 
8.940223674553e-01 -1.543595733415e+01 0.0 
2.118566862474e+01 -8.435876987696e+00 0.0 
2.678325936437e+01 -1.032621195706e+01 0.0 
2.223400220487e+01 -5.179046761770e+00 0.0 
2.375370625384e+01 -7.251580562134e+00 0.0 
3.156971327386e+01 -1.255534750737e+01 0.0 
3.328226391312e+01 -1.172914813316e+01 0.0 
3.250948774219e+01 -1.120157009348e+01 0.0 
2.032993445717e+01 -8.867880112202e+00 0.0 
2.697226974856e+01 -7.536633082045e+00 0.0 
2.707377810386e+01 -6.590835263295e+00 0.0 
2.914099246827e+01 -1.191678458549e+01 0.0 
3.544824072239e+01 -1.621126558525e+01 0.0 
3.456511855436e+01 -1.665054783843e+01 0.0 
3.448395810225e+01 -1.759117813016e+01 0.0 
3.368378673938e+01 -1.708037781328e+01 0.0 
3.375560452567e+01 -1.610973066913e+01 0.0 
3.288001547988e+01 -1.654324255651e+01 0.0 
3.282475929147e+01 -1.749725654692e+01 0.0 
3.199880906313e+01 -1.697294088625e+01 0.0 
3.197001272932e+01 -1.811667776864e+01 0.0 
3.111884713021e+01 -1.742166785755e+01 0.0 
3.120418962865e+01 -1.642155709385e+01 0.0 
3.034666704371e+01 -1.683123833816e+01 0.0 
3.026224379976e+01 -1.772592851714e+01 0.0 
3.046632362943e+01 -1.582232843075e+01 0.0 
1.961344017324e+01 -1.857459447985e+01 0.0 
2.274975894774e+01 -9.532738811922e+00 0.0 
1.833923246887e+01 -2.396746883672e+00 0.0 
1.988859500848e+01 -2.249244376594e+00 0.0 
2.758045562861e+01 -1.086434261689e+01 0.0 
3.247300178163e+01 -1.909930104252e+01 0.0 
3.461947482503e+01 -1.911879848019e+01 0.0 
2.047161538662e+01 -6.941478180358e+00 0.0 
2.750230940214e+01 -1.915490590764e+01 0.0 
3.165081350803e+01 -1.161860780120e+01 0.0 
1.897456727641e+01 -4.889634688522e+00 0.0 
2.549338539756e+01 -1.914858252089e+01 0.0 
3.462873135081e+01 -1.567482276144e+01 0.0 
3.384432415243e+01 -1.512280684518e+01 0.0 
3.471433767690e+01 -1.469086942990e+01 0.0 
3.651470373046e+01 -1.918207952149e+01 0.0 
3.901742690249e+01 -1.345028556517e+01 0.0 
2.153224102692e+01 -1.920169709333e+01 0.0 
1.918382939341e+01 -1.316226275662e+01 0.0 
2.005389162382e+01 -1.271962165174e+01 0.0 
2.011472087878e+01 -1.175029352900e+01 0.0 
3.210679478412e+01 -1.598038618242e+01 0.0 
1.752175226543e+01 -1.914713022656e+01 0.0 
1.696897240059e+01 -1.832772588765e+01 0.0 
1.599682523337e+01 -1.832599992024e+01 0.0 
1.644507199462e+01 -1.743697981535e+01 0.0 
1.549987712903e+01 -1.915192375101e+01 0.0 
3.050250861901e+01 -1.918943550234e+01 0.0 
2.949944061527e+01 -1.922950455235e+01 0.0 
1.375892575273e+01 -6.447160534926e+00 0.0 
1.457223670180e+01 -7.006709243857e+00 0.0 
1.450818793236e+01 -7.965943451779e+00 0.0 
1.538804712402e+01 -7.553409623699e+00 0.0 
1.545817644768e+01 -6.580929593419e+00 0.0 
1.626506893751e+01 -7.129032608911e+00 0.0 
1.619833811522e+01 -8.086588580887e+00 0.0 
1.714448609609e+01 -6.697429609777e+00 0.0 
2.887616543568e+01 -1.668015232137e+01 0.0 
1.349814589130e+01 -1.918225301544e+01 0.0 
1.153887772210e+01 -1.311384581217e+01 0.0 
1.242708159886e+01 -1.267046795531e+01 0.0 
1.249799674267e+01 -1.169005616014e+01 0.0 
6.631723893693e+00 -9.774184881867e+00 0.0 
7.451471631867e+00 -1.033148796006e+01 0.0 
7.377795355458e+00 -1.132196345268e+01 0.0 
5.810931797536e+00 -9.211654212252e+00 0.0 
2.402683899133e+01 -1.441378562320e+01 0.0 
1.249768692036e+01 -1.917388426624e+01 0.0 
1.580373499437e+01 -1.290751860664e+01 0.0 
8.344650507834e+00 -9.898403995170e+00 0.0 
3.750622115305e+01 -1.086526401533e+01 0.0 
3.699391251667e+01 -1.171695900794e+01 0.0 
3.606517829518e+01 -1.173717504500e+01 0.0 
3.650257641795e+01 -1.270047380221e+01 0.0 
3.808951488918e+01 -1.183518714175e+01 0.0 
4.760380962420e+00 -1.162484888315e+01 0.0 
3.861210370848e+00 -1.205657631736e+01 0.0 
3.038284309476e+00 -1.149851280664e+01 0.0 
2.961598794889e+00 -1.248856794980e+01 0.0 
2.138953225512e+00 -1.193212674534e+01 0.0 
2.227383593457e+00 -1.096258903918e+01 0.0 
2.043265419276e+00 -1.292158472959e+01 0.0 
1.252449446028e+00 -1.225502002753e+01 0.0 
3.949985210740e+01 -1.086594001795e+01 0.0 
1.453499444792e+01 -8.768805922472e-01 0.0 
1.403518950933e+01 -1.749965556633e+00 0.0 
1.300715031023e+01 -1.714737233040e+00 0.0 
1.350929389899e+01 -2.527443911291e+00 0.0 
1.449600910711e+01 -2.595486162864e+00 0.0 
1.395693872901e+01 -3.484211041558e+00 0.0 
1.495105865208e+01 -3.364609636216e+00 0.0 
1.508822528740e+01 -1.766586020494e+00 0.0 
1.250223858430e+01 -8.634590186802e-01 0.0 
1.200279523409e+01 -1.709044504992e+00 0.0 
1.150086239419e+01 -8.592789190668e-01 0.0 
1.101482754194e+01 -1.677730591922e+00 0.0 
1.148018564526e+01 -2.659323866909e+00 0.0 
8.800552119754e+00 -3.989875954728e+00 0.0 
3.452790439430e+00 -1.901136170646e+01 0.0 
8.658451825200e-01 -9.503462241795e+00 0.0 
1.694787786797e+00 -9.000589234502e+00 0.0 
1.703436717094e+00 -8.038819004041e+00 0.0 
2.594197971110e+00 -8.563955242845e+00 0.0 
1.630513735412e+00 -9.907244747511e+00 0.0 
8.566859292791e-01 -7.512203837972e+00 0.0 
1.685461277022e+00 -7.164280248030e+00 0.0 
2.506394468801e+00 -8.623386730818e-01 0.0 
2.007475081581e+00 -1.727729545205e+00 0.0 
9.211534699767e-01 -1.628791366312e+00 0.0 
1.500000000020e+00 -2.598063549486e+00 0.0 
2.482078929963e+00 -2.553580088725e+00 0.0 
2.999795253092e+00 -1.732169015019e+00 0.0 
3.999712607169e+00 -1.728832897453e+00 0.0 
4.499752199340e+00 -8.656478679175e-01 0.0 
4.964377774841e+00 -1.730129617941e+00 0.0 
4.425017908337e+00 -2.597541756243e+00 0.0 
5.446573195014e+00 -8.410144840023e-01 0.0 
4.915722346614e+01 -1.550640962770e+01 0.0 
4.826794919243e+01 -1.600000000000e+01 0.0 
1.053139533193e+01 -1.911782884365e+01 0.0 
4.156049861949e+01 -1.095160998589e+01 0.0 
9.494526624416e+00 -8.650570090219e-01 0.0 
4.555762166964e+01 -1.897098103585e+01 0.0 
4.250656411371e+01 -1.914387356218e+01 0.0 
4.350906466345e+01 -1.917234727395e+01 0.0 
8.759665722424e-01 -1.746422130609e+01 0.0 
1.698936011838e+00 -1.795012186674e+01 0.0 
4.742476811029e+01 -1.900090177972e+01 0.0 
7.749196752349e+00 -6.368049313489e+00 0.0 
3.361572113416e+01 -1.798765193915e+01 0.0 
4.484660149212e+01 -1.728661231383e+01 0.0 
1.984038172228e+01 -4.502575320116e+00 0.0 
1.035080352627e+01 -6.166639575753e+00 0.0 
2.753558010652e+00 -1.444909521181e+01 0.0 
7.217069543032e+00 -1.328635391078e+01 0.0 
4.364336727739e+00 -1.655585677381e+01 0.0 
4.595208426108e+00 -1.357919665443e+01 0.0 
6.164967006980e+00 -1.569873454630e+01 0.0 
1.487855768353e+01 -1.826523774028e+01 0.0 
2.791876456372e+00 -4.019632415181e+00 0.0 
4.246464893515e+01 -1.364898659620e+01 0.0 
4.503855590351e+01 -1.329552780944e+01 0.0 
4.407239109604e+01 -1.573900004093e+01 0.0 
5.141054449252e+00 -6.664290382472e+00 0.0 
3.141083947149e+00 -1.055790764912e+01 0.0 
6.196463198741e+00 -4.256497932609e+00 0.0 
2.599618716181e+01 -1.836893455464e+01 0.0 
2.923057372337e+01 -1.098461757645e+01 0.0 
1.168343877486e+01 -1.114079645041e+01 0.0 
6.706222096238e+00 -8.780364234441e+00 0.0 
8.567858614669e+00 -6.943121440850e+00 0.0 
1.123755132901e+01 -5.753525820030e+00 0.0 
2.353456234423e+01 -1.008536320953e+01 0.0 
9.162073319168e+00 -1.045593739109e+01 0.0 
9.676343469685e+00 -1.496493008366e+01 0.0 
4.490637882905e+01 -1.628778970202e+01 0.0 
7.398129387772e+00 -9.639977982323e-01 0.0 
1.049641705805e+01 -1.552503975272e+01 0.0 
9.010356286268e+00 -1.242805042052e+01 0.0 
3.985573925497e+01 -1.399863651620e+01 0.0 
1.816196318262e+01 -1.554066497931e+01 0.0 
1.306332244168e+01 -3.963646550326e+00 0.0 
4.145850903932e+01 -1.608094559275e+01 0.0 
3.794664933633e+01 -1.779020121986e+01 0.0 
3.819614412903e+01 -1.290749321016e+01 0.0 
6.270014188119e+00 -3.255093186826e+00 0.0 
4.251165370388e+01 -1.263870364997e+01 0.0 
1.207347709171e+01 -1.763942826023e+01 0.0 
3.633240829927e+01 -1.577330481104e+01 0.0 
4.319052668832e+00 -6.101812561904e+00 0.0 
1.676492415806e+01 -1.151547901392e+01 0.0 
2.594059220037e+01 -1.074225223009e+01 0.0 
3.340750911501e+01 -9.898764354137e+00 0.0 
4.397619591281e+01 -1.769773736461e+01 0.0 
2.175611595028e+01 -1.185718747128e+01 0.0 
1.641818733106e+01 -1.640685203215e+01 0.0 
1.661211421753e+01 -1.346121366338e+01 0.0 
3.428853504935e+00 -6.551993389271e+00 0.0 
8.700728832502e+00 -1.638460872825e+01 0.0 
1.931369795309e+01 -1.121629383702e+01 0.0 
4.139798872363e+01 -1.706922153459e+01 0.0 
2.647837478700e+01 -1.507353829290e+01 0.0 
1.779469616424e+01 -9.161615782908e+00 0.0 
3.885879219319e+01 -1.642026488918e+01 0.0 
1.338194936770e+01 -1.125916521471e+01 0.0 
1.897071181111e+01 -1.609204322578e+01 0.0 
2.844308548793e+01 -1.046221003096e+01 0.0 
2.659854702194e+01 -1.316109415760e+01 0.0 
2.979604503271e+01 -1.433296157755e+01 0.0 
2.417694041347e+01 -1.251231397779e+01 0.0 
1.807401327411e+00 -1.388891148480e+01 0.0 
9.599810618782e+00 -1.595439365034e+01 0.0 
1.652144692160e+01 -4.205392788472e+00 0.0 
2.367839450246e+01 -8.188385218643e+00 0.0 
3.814894930468e+01 -1.390748338767e+01 0.0 
2.466448215774e+01 -1.685878545680e+01 0.0 
4.134044524611e+01 -1.806610045954e+01 0.0 
2.600511411958e+01 -9.801774120648e+00 0.0 
7.882158050716e+00 -1.582364037353e+01 0.0 
3.881607873422e+01 -1.737970515013e+01 0.0 
8.270182347708e+00 -1.088622154920e+01 0.0 
8.672520392520e-01 -4.532984309881e+00 0.0 
1.993447205337e+01 -3.579061902667e+00 0.0 
1.794616079549e+01 -7.238038888498e+00 0.0 
2.097277068165e+01 -1.132450168636e+01 0.0 
8.194803300681e+00 -1.187214224265e+01 0.0 
3.522279404911e+01 -1.823342818178e+01 0.0 
6.984481050295e+00 -1.625271465557e+01 0.0 
1.309433007797e+01 -1.521718594215e+01 0.0 
2.150246167611e+01 -1.885399038185e+00 0.0 
3.250689370209e+01 -1.028789870535e+01 0.0 
6.085886272238e+00 -1.668342132851e+01 0.0 
1.588455661727e+01 -1.193498985921e+01 0.0 
1.809323400821e+01 -1.651110084195e+01 0.0 
1.348885082381e+00 -1.136065576512e+01 0.0 
2.497670221995e+01 -1.834631276173e+01 0.0 
2.937062818424e+01 -8.233711194470e+00 0.0 
5.185823744469e+00 -1.711566910207e+01 0.0 
1.477497877209e+01 -1.530177014512e+01 0.0 
2.125346158933e+01 -7.473003997367e+00 0.0 
4.751561118290e+01 -1.084897772632e+01 0.0 
5.056026576843e+00 -1.825750475525e+01 0.0 
1.473948554523e+01 -1.634577436309e+01 0.0 
2.410566630936e+01 -1.345970002612e+01 0.0 
1.507337507513e+01 -1.138527895328e+01 0.0 
3.189857338687e+01 -8.887781229006e+00 0.0 
7.298712468334e+00 -1.230231046246e+01 0.0 
2.738235495295e+01 -1.368931690364e+01 0.0 
3.750141041969e+01 -1.920449893070e+01 0.0 
1.557271965640e+01 -1.683317951731e+01 0.0 
3.393731848929e+01 -1.413034777044e+01 0.0 
6.482156824153e+00 -1.174575135362e+01 0.0 
2.077971718439e+01 -1.421279621836e+01 0.0 
3.455084320178e+00 -2.562590040585e+00 0.0 
3.099056096250e+01 -9.270280416035e+00 0.0 
5.580176125418e+00 -1.217387969259e+01 0.0 
1.707247630389e+01 -7.660651981710e+00 0.0 
1.418658814174e+01 -1.180390575393e+01 0.0 
2.049103025389e+01 -1.811296706038e+01 0.0 
4.680386172316e+00 -1.260396879301e+01 0.0 
1.699679896554e+01 -8.624561788199e+00 0.0 
3.779470168555e+00 -1.303424899720e+01 0.0 
3.036589870126e+01 -7.879832518349e+00 0.0 
3.306993001774e+01 -1.457671062095e+01 0.0 
2.840150110165e+00 -1.346530088269e+01 0.0 
2.732011135052e+01 -1.464591214560e+01 0.0 
5.423639259568e+00 -2.659711955016e+00 0.0 
2.324455961696e+01 -1.387269388211e+01 0.0 
1.752768355571e+00 -1.693128613594e+01 0.0 
1.020244783051e+01 -8.076834012808e+00 0.0 
1.330873875224e+01 -1.222417528206e+01 0.0 
3.297727364880e+01 -1.555480372087e+01 0.0 
2.890929955439e+01 -6.868664170731e+00 0.0 
1.323294664622e+01 -1.320754260334e+01 0.0 
2.726532861246e+01 -1.560593120806e+01 0.0 
2.240020643398e+01 -1.429299177247e+01 0.0 
2.090445823633e+01 -1.228128621332e+01 0.0 
1.315809881502e+01 -1.420739326938e+01 0.0 
2.781328038068e+01 -7.181956082300e+00 0.0 
8.614200829057e+00 -5.936933226306e+00 0.0 
8.714765730069e+00 -4.979270529687e+00 0.0 
1.611881701099e+01 -9.041973294003e+00 0.0 
2.806830314340e+01 -1.614622947108e+01 0.0 
2.084435391396e+00 -3.385085422913e+00 0.0 
3.133211811152e+01 -1.542347619750e+01 0.0 
9.693114650768e+00 -3.590281506442e+00 0.0 
1.531883592202e+01 -8.504584946143e+00 0.0 
2.151589117094e+01 -1.578915763018e+01 0.0 
4.918943882696e+01 -1.355538828056e+01 0.0 
1.443236615188e+01 -8.918701794549e+00 0.0 
8.276250966452e-01 -5.537685192197e+00 0.0 
1.362790867918e+01 -8.374718262212e+00 0.0 
2.083767477370e+01 -1.324843956035e+01 0.0 
1.273834678703e+01 -8.790890389337e+00 0.0 
1.192275845670e+01 -8.242261327467e+00 0.0 
4.477236023583e+01 -1.824312396664e+01 0.0 
1.102989384254e+01 -8.649855800911e+00 0.0 
4.849096516045e+01 -1.917293752213e+01 0.0 
1.588996752238e+00 -1.910230934687e+01 0.0 
4.904245197583e+01 -1.159839008158e+01 0.0 
2.753852929608e+01 -5.782128488093e+00 0.0 
1.756133602833e+01 -8.306130313187e-01 0.0 
2.615423700951e+01 -6.153865090092e+00 0.0 
1.028818761294e+01 -7.122020845892e+00 0.0 
2.970818901196e+01 -1.527821347593e+01 0.0 
4.801461623449e+01 -1.164472570985e+01 0.0 
9.455722100419e+00 -6.546069291118e+00 0.0 
3.089099236677e+01 -1.835339328261e+01 0.0 
2.350000000013e+01 -1.920825896750e+01 0.0 
4.830620531887e+01 -1.506626155470e+01 0.0 
1.725381944701e+01 -1.688794487850e+01 0.0 
2.156246225273e+01 -1.475893794002e+01 0.0 
4.919319648787e+01 -1.742767505896e+01 0.0 
4.437935623576e+01 -1.077662927266e+01 0.0 
1.001520521978e+01 -1.652692675208e+00 0.0 
9.067160240050e-01 -1.441937727541e+01 0.0 
2.603365149390e+01 -4.755996613848e+00 0.0 
2.458344439002e+01 -4.873645517696e+00 0.0 
2.304312390142e+01 -3.836552768096e+00 0.0 
2.546923202198e+00 -6.902480355749e+00 0.0 
1.251534969393e+01 -2.490989965776e+00 0.0 
2.454061833377e+01 -3.933354231935e+00 0.0 
1.788186558740e+01 -1.827424884923e+01 0.0 
4.090785243552e+01 -1.166553231904e+01 0.0 
2.230128851568e+01 -1.623015738726e+01 0.0 
2.302362347568e+01 -2.916239960270e+00 0.0 
3.878119254461e+01 -1.830091164002e+01 0.0 
2.210081359958e+01 -1.829238229150e+01 0.0 
8.443704882233e+00 -1.921993252862e+01 0.0 
2.218405824691e+01 -1.724557581508e+01 0.0 
2.151157503963e+01 -2.790636689331e+00 0.0 
3.741658958955e+01 -1.250400191722e+01 0.0 
2.697247663737e+01 -1.838290202309e+01 0.0 
4.743362342862e+01 -1.585850773010e+01 0.0 
6.671345075358e+00 -1.924977576322e+01 0.0 
3.900825404537e+01 -1.157220003875e+01 0.0 
4.649692961375e+01 -1.836335837481e+01 0.0 
1.578831424832e+01 -3.678284023361e+00 0.0 
4.814208768888e+01 -1.841249298770e+01 0.0 
2.964123298315e+01 -1.625739458193e+01 0.0 
4.580760351902e+01 -1.284294554687e+01 0.0 
3.561520879615e+01 -1.245548941949e+01 0.0 
2.555418095658e+00 -1.841101588290e+01 0.0 
3.288468366144e+01 -1.834258164109e+01 0.0 
2.065894391445e+01 -2.240688571739e+00 0.0 
4.739171429915e+01 -1.496536413446e+01 0.0 
3.478086729185e+00 -8.576434653209e+00 0.0 
1.606010630246e+01 -1.588421807951e+00 0.0 
1.018329200594e+01 -1.834320874317e+01 0.0 
2.957213339430e+01 -1.720496954591e+01 0.0 
4.142712790164e+00 -1.837794506222e+01 0.0 
6.698721532573e-01 -2.499999999997e+00 0.0 
8.037039123140e+00 -1.571229354954e+00 0.0 
1.203541361428e+01 -1.847784298001e+01 0.0 
2.899968332038e+01 -1.848264722179e+01 0.0 
1.469229460948e+01 -4.219485753730e+00 0.0 
4.049590781957e+01 -1.932812501995e+01 0.0 
1.996211678340e+01 -1.506329754720e+00 0.0 
4.250588298353e+01 -1.067383247529e+01 0.0 
5.831497011152e+00 -1.635396227234e+00 0.0 
5.317606125670e+00 -1.923927974868e+01 0.0 
4.208546426993e+01 -1.842830665025e+01 0.0 
2.327553405011e+00 -9.459409929662e+00 0.0 
3.568351902251e+01 -1.096637218582e+01 0.0 
1.682104374890e+00 -6.231413350963e+00 0.0 
2.451812238018e+01 -1.766524914339e+01 0.0 
1.058003429638e+01 -2.391839617098e+00 0.0 
4.399988753123e+01 -1.851998776342e+01 0.0 
1.400000000010e+01 -1.852293523028e+01 0.0 
3.604719565984e+01 -1.850662876800e+01 0.0 
1.951297136734e+01 -1.938092349694e+01 0.0 
1.821365318472e+01 -1.531276353287e+00 0.0 
2.298031859732e+01 -1.854635324722e+01 0.0 
1.552168066204e+01 -1.764280741977e+01 0.0 
4.572957713638e+01 -1.073347898229e+01 0.0 
3.429637429624e+01 -1.838861552790e+01 0.0 
2.427434426052e+00 -7.705577451869e+00 0.0 
4.662792031485e+00 -3.359424455416e+00 0.0 
4.926794919243e+01 -1.926794919243e+01 0.0 
7.320508075690e-01 -7.320508075688e-01 0.0 
4.926794919243e+01 -1.073205080757e+01 0.0 
7.320508075705e-01 -1.926794919243e+01 0.0 
2.917460242467e+00 -3.202866455310e+00 0.0 
4.838200575963e+01 -1.232674147454e+01 0.0 
2.998445708009e+01 -1.854403752148e+01 0.0 
5.949940090766e-01 -1.152762038165e+01 0.0 
4.844763495759e+01 -1.678092548787e+01 0.0 
1.301685480160e+01 -3.170056592566e+00 0.0 
1.650046335855e+01 -6.731535384067e-01 0.0 
4.854881540991e+01 -1.405224059779e+01 0.0 
2.119545114693e+01 -1.846813384545e+01 0.0 
3.797852849897e+01 -1.857978513215e+01 0.0 
4.649823708745e+01 -1.338351810816e+01 0.0 
2.012685900976e+01 -2.889659035009e+00 0.0 
2.953271913273e+01 -1.791558075192e+01 0.0 
2.408509097292e+00 -1.021949208421e+01 0.0 
2.642589566221e+01 -1.773216561448e+01 0.0 
1.730010270775e+01 -1.763165076721e+01 0.0 
2.017406551304e+01 -8.513536440582e-01 0.0 
5.254761581934e-01 -1.249999999999e+01 0.0 
6.640448215642e+00 -1.545337834885e+00 0.0 
7.843361506349e+00 -1.852719839527e+01 0.0 
1.588442191088e+00 -1.066158564320e+01 0.0 

SCALARS node_number int
LOOKUP_TABLE default
1
2
3
4
5
6
7
8
9
10
11
12
13
14
15
16
17
18
19
20
21
22
23
24
25
26
27
28
29
30
31
32
33
34
35
36
37
38
39
40
41
42
43
44
45
46
47
48
49
50
51
52
53
54
55
56
57
58
59
60
61
62
63
64
65
66
67
68
69
70
71
72
73
74
75
76
77
78
79
80
81
82
84
85
86
87
88
89
90
91
92
93
104
105
106
107
108
109
110
111
112
113
114
115
116
117
118
119
120
121
122
123
124
125
126
127
128
129
130
131
132
133
134
135
136
362
363
364
365
366
367
368
369
370
371
372
373
374
375
376
377
378
379
380
381
382
383
384
385
386
387
388
389
390
391
392
393
394
395
396
397
398
399
400
401
402
403
404
405
406
407
408
409
410
411
412
413
414
415
416
417
418
419
420
421
422
423
424
425
426
427
428
429
430
431
432
433
434
435
436
437
438
439
440
441
442
443
444
445
446
447
448
449
450
451
452
453
454
455
456
457
458
459
460
461
462
463
464
465
466
467
468
469
470
471
472
473
474
475
476
477
478
479
480
481
482
483
484
485
486
487
488
489
490
491
492
493
494
495
496
497
498
499
500
501
502
503
504
505
506
507
508
509
510
511
512
513
514
515
516
517
518
519
520
521
522
523
524
525
526
527
528
529
530
531
532
533
534
535
536
537
538
539
540
541
542
543
544
545
546
547
548
549
550
551
552
553
554
555
556
557
558
559
560
561
562
563
564
565
566
567
568
569
570
571
572
573
574
575
576
577
578
579
580
581
582
583
584
585
586
587
588
589
590
591
592
593
594
595
596
597
598
599
600
601
602
603
604
605
606
607
608
609
610
611
612
613
614
615
616
617
618
619
620
621
622
623
624
625
626
627
628
629
630
631
632
633
634
635
636
637
638
639
640
641
642
643
644
645
646
647
648
649
650
651
652
653
654
655
656
657
658
659
660
661
662
663
664
665
666
667
668
669
670
671
672
673
674
675
676
677
678
679
680
681
682
683
684
685
686
687
688
689
690
691
692
693
694
695
696
697
698
699
700
701
702
703
704
705
706
707
708
709
710
711
712
713
714
715
716
717
718
719
720
721
722
723
724
725
726
727
728
729
730
731
732
733
734
735
736
737
738
739
740
741
742
743
744
745
746
747
748
749
750
751
752
753
754
755
756
757
758
759
760
761
762
763
764
765
766
767
768
769
770
771
772
773
774
775
776
777
778
779
780
781
782
783
784
785
786
787
788
789
790
791
792
793
794
795
796
797
798
799
800
801
802
803
804
805
806
807
808
809
810
811
812
813
814
815
816
817
818
819
820
821
822
823
824
825
826
827
828
829
830
831
832
833
834
835
836
837
838
839
840
841
842
843
844
845
846
847
848
849
850
851
852
853
854
855
856
857
858
859
860
861
862
863
864
865
866
867
868
869
870
871
872
873
874
875
876
877
878
879
880
881
882
883
884
885
886
887
888
889
890
891
892
893
894
895
896
897
898
899
900
901
902
903
904
905
906
907
908
909
910
911
912
913
914
915
916
917
918
919
920
921
922
923
924
925
926
927
928
929
930
931
932
933
934
935
936
937
938
939
940
941
942
943
944
945
946
947
948
949
950
951
952
953
954
955
956
957
958
959
960
961
962
963
964
965
966
967
968
969
970
971
972
973
974
975
976
977
978
979
980
981
982
983
984
985
986
987
988
989
990
991
992
993
994
995
996
997
998
999
1000
1001
1002
1003
1004
1005
1006
1007
1008
1009
1010
1011
1012
1013
1014
1015
1016
1017
1018
1019
1020
1021
1022
1023
1024
1025
1026
1027
1028
1029
1030
1031
1032
1033
1034
1035
1036
1037
1038
1039
1040
1041
1042
1043
1044
1045
1046
1047
1048
1049
1050
1051
1052
1053
1054
1055
1056
1057
1058
1059
1060
1061
1062
1063
1064
1065
1066
1067
1068
1069
1070
1071
1072
1073
1074
1075
1076
1077
1078
1079
1080
1081
1082
1083
1084
1085
1086
1087
1088
1089
1090
1091
1092
1093
1094
1095
1096
1097
1098
1099
1100
1101
1102
1103
1104
1105
1106
1107
1108
1109
1110
1111
1112
1113
1114
1115
1116
1117
1118
1119
1120
1121
1122
1123
1124
1125
1126
1127
1128
1129
1130
1131
1132
1133
1134
1135
1136
1137
1138
1139
1140
1141
1142
1143
1144
1145
1146
1147
1148
1149
1150
1151
1152
1153
1154
1155
1156
1157
1158
1159
1160
1161
1162
1163
1164
1165
1166
1167
1168
1169
1170
1171
1172
1173
1174
1175
1176
1177
1178
1179
1180
1181
1182
1183
1184
1185
1186
1187
1188
1189
1190
1191
1192
1193
1194
1195
1196
1197
1198
1199
1200
1201
1202
1203
1204
1205
1206
1207
1208
1209
1210
1211
1212
1213
1214
1215
1216
1217
1218
1219
1220
1221
1222
1223
1224
1225
1226
1227
1228
1229
1230
1231
1232
1233
1234
1235
1236
1237
1238
1239
1240
1241
1242
1243
1244
1245
1246
1247
1248
1249
1250
1251
1252
1253
1254
1255
1256
1257
1258
1259
1260
1261
1262
1263
1264

VECTORS node_mesh_deformation float
0.0 6.357627427974e-02 0.0 
0.000000000000e+00 1.645440803118e-01 0.0 
0.0 0.000000000000e+00 0.0 
0.000000000000e+00 0.000000000000e+00 0.0 
0.0 6.455199488469e-02 0.0 
0.0 6.482703059887e-02 0.0 
0.0 6.444494225373e-02 0.0 
0.0 6.340496850493e-02 0.0 
0.0 6.173321947620e-02 0.0 
0.0 5.957640283219e-02 0.0 
0.0 5.702048594296e-02 0.0 
0.0 5.413032168587e-02 0.0 
0.0 5.096755769215e-02 0.0 
0.0 4.757033242227e-02 0.0 
0.0 4.394768954671e-02 0.0 
0.0 4.011074302528e-02 0.0 
0.0 3.604899759516e-02 0.0 
0.0 3.175445142184e-02 0.0 
0.0 2.719394806219e-02 0.0 
0.0 2.234978287068e-02 0.0 
0.0 1.721304292602e-02 0.0 
0.0 1.177098372225e-02 0.0 
0.0 6.030070367746e-03 0.0 
0.000000000000e+00 0.000000000000e+00 0.0 
0.000000000000e+00 0.000000000000e+00 0.0 
0.000000000000e+00 0.000000000000e+00 0.0 
0.000000000000e+00 0.000000000000e+00 0.0 
0.000000000000e+00 0.000000000000e+00 0.0 
0.000000000000e+00 0.000000000000e+00 0.0 
0.000000000000e+00 0.000000000000e+00 0.0 
0.000000000000e+00 0.000000000000e+00 0.0 
0.000000000000e+00 0.000000000000e+00 0.0 
0.000000000000e+00 0.000000000000e+00 0.0 
0.000000000000e+00 0.000000000000e+00 0.0 
0.000000000000e+00 0.000000000000e+00 0.0 
0.000000000000e+00 0.000000000000e+00 0.0 
0.000000000000e+00 0.000000000000e+00 0.0 
0.000000000000e+00 0.000000000000e+00 0.0 
0.000000000000e+00 0.000000000000e+00 0.0 
0.000000000000e+00 0.000000000000e+00 0.0 
0.000000000000e+00 0.000000000000e+00 0.0 
0.000000000000e+00 0.000000000000e+00 0.0 
0.000000000000e+00 0.000000000000e+00 0.0 
0.000000000000e+00 0.000000000000e+00 0.0 
0.000000000000e+00 0.000000000000e+00 0.0 
0.000000000000e+00 0.000000000000e+00 0.0 
0.000000000000e+00 0.000000000000e+00 0.0 
0.000000000000e+00 0.000000000000e+00 0.0 
0.000000000000e+00 0.000000000000e+00 0.0 
0.000000000000e+00 0.000000000000e+00 0.0 
0.000000000000e+00 0.000000000000e+00 0.0 
0.000000000000e+00 0.000000000000e+00 0.0 
0.000000000000e+00 0.000000000000e+00 0.0 
0.000000000000e+00 0.000000000000e+00 0.0 
0.000000000000e+00 0.000000000000e+00 0.0 
0.000000000000e+00 0.000000000000e+00 0.0 
0.000000000000e+00 0.000000000000e+00 0.0 
0.000000000000e+00 0.000000000000e+00 0.0 
0.000000000000e+00 0.000000000000e+00 0.0 
0.000000000000e+00 0.000000000000e+00 0.0 
0.000000000000e+00 0.000000000000e+00 0.0 
0.000000000000e+00 0.000000000000e+00 0.0 
0.000000000000e+00 0.000000000000e+00 0.0 
0.000000000000e+00 0.000000000000e+00 0.0 
0.000000000000e+00 0.000000000000e+00 0.0 
0.000000000000e+00 0.000000000000e+00 0.0 
0.000000000000e+00 0.000000000000e+00 0.0 
0.000000000000e+00 0.000000000000e+00 0.0 
0.000000000000e+00 0.000000000000e+00 0.0 
0.000000000000e+00 0.000000000000e+00 0.0 
0.000000000000e+00 0.000000000000e+00 0.0 
0.000000000000e+00 0.000000000000e+00 0.0 
0.000000000000e+00 1.495683068189e-01 0.0 
0.000000000000e+00 1.341714059744e-01 0.0 
0.000000000000e+00 1.183851705277e-01 0.0 
0.000000000000e+00 1.022452642749e-01 0.0 
0.000000000000e+00 8.578411811235e-02 0.0 
0.000000000000e+00 6.904034891922e-02 0.0 
0.000000000000e+00 5.205275569491e-02 0.0 
0.000000000000e+00 3.486045503578e-02 0.0 
0.000000000000e+00 1.750657796193e-02 0.0 
-7.641000524867e-03 -8.035596985963e-03 0.0 
3.600953918691e-02 1.447903252709e-01 0.0 
1.932801666484e-04 2.162077549747e-02 0.0 
7.887898341689e-03 4.627567415036e-02 0.0 
1.518743267739e-02 6.892103306546e-02 0.0 
2.195726909921e-02 8.958788077523e-02 0.0 
2.823553338355e-02 1.080924323167e-01 0.0 
3.370269976251e-02 1.236627302478e-01 0.0 
3.776237078828e-02 1.354129325533e-01 0.0 
3.989247219084e-02 1.429107983657e-01 0.0 
3.968869985276e-02 1.460337351801e-01 0.0 
2.091553239175e-03 1.646046112885e-01 0.0 
4.120328746552e-03 1.645603217558e-01 0.0 
6.169040964529e-03 1.645360426054e-01 0.0 
8.238863976644e-03 1.644986317661e-01 0.0 
1.033145040063e-02 1.643867436775e-01 0.0 
1.243296823144e-02 1.642045015258e-01 0.0 
1.456361405618e-02 1.638995763699e-01 0.0 
1.671202581336e-02 1.634129686035e-01 0.0 
1.889787933901e-02 1.626818224333e-01 0.0 
2.113706298383e-02 1.616403570490e-01 0.0 
2.343432661777e-02 1.601226943488e-01 0.0 
2.586125348154e-02 1.579692471650e-01 0.0 
2.853841255936e-02 1.549978743661e-01 0.0 
3.171558223150e-02 1.509045343154e-01 0.0 
-4.291792651486e-03 -2.340033016407e-02 0.0 
7.084516847549e-04 -3.171069774845e-02 0.0 
6.194639180038e-03 -3.479711993850e-02 0.0 
1.216662127834e-02 -3.227690319904e-02 0.0 
1.663422043117e-02 -2.172085710766e-02 0.0 
1.927495574525e-02 -8.194787456712e-03 0.0 
2.026880183859e-02 2.306695426354e-03 0.0 
2.052338229476e-02 1.114365210917e-02 0.0 
2.058097151721e-02 1.900329013993e-02 0.0 
2.033885177287e-02 2.629437991535e-02 0.0 
1.971237088418e-02 3.300162927703e-02 0.0 
1.876714994600e-02 3.905752367646e-02 0.0 
1.743688482743e-02 4.460579545293e-02 0.0 
1.565905663146e-02 4.956540273953e-02 0.0 
1.353952385784e-02 5.382866826521e-02 0.0 
1.117295442848e-02 5.729843921969e-02 0.0 
8.597736605893e-03 6.005399858979e-02 0.0 
5.854493030289e-03 6.206497975261e-02 0.0 
2.943417185572e-03 6.321065701310e-02 0.0 
-3.255431010817e-03 8.134027051692e-03 0.0 
4.014852393258e-03 3.414285009853e-02 0.0 
1.159015141694e-02 5.782820147577e-02 0.0 
1.863524258339e-02 7.950218249103e-02 0.0 
2.520638472761e-02 9.921060283548e-02 0.0 
3.113228073180e-02 1.163671737622e-01 0.0 
3.595316219145e-02 1.300475615393e-01 0.0 
3.907770596843e-02 1.396879977481e-01 0.0 
4.011387563033e-02 1.450058679553e-01 0.0 
3.846151313480e-02 1.459712426920e-01 0.0 
1.318478012253e-02 3.296589599891e-02 0.0 
3.456984455546e-03 4.044451834808e-03 0.0 
1.449373627746e-02 2.254707171457e-02 0.0 
8.899761799277e-03 -2.602630743352e-02 0.0 
4.563330538421e-04 4.031583257476e-03 0.0 
2.701282155687e-02 7.653359484827e-02 0.0 
-9.828640030748e-04 4.551343535253e-02 0.0 
6.329388099168e-03 5.056522697139e-03 0.0 
3.821090631245e-02 1.094003058949e-01 0.0 
8.288993916377e-03 6.647086239582e-03 0.0 
4.361092075094e-02 1.299313163905e-01 0.0 
-5.788681335854e-04 4.228519962908e-03 0.0 
1.261471972390e-02 4.809958037709e-02 0.0 
9.223679199657e-03 9.050461736592e-03 0.0 
3.986852755293e-02 1.332490794600e-01 0.0 
-6.843142890360e-04 5.798974389418e-02 0.0 
-8.333869204100e-04 3.466742556808e-02 0.0 
9.174546777931e-03 1.128486793102e-02 0.0 
7.064768576413e-03 1.279304947594e-02 0.0 
2.181145811775e-03 1.482734615865e-02 0.0 
4.018966338954e-03 1.574298701248e-02 0.0 
5.252878743427e-03 1.350956176026e-02 0.0 
3.196373713079e-02 1.398790890638e-01 0.0 
2.066446668488e-02 1.486737291192e-01 0.0 
1.368117940434e-02 1.501744127253e-01 0.0 
1.391705893219e-03 9.379629197735e-02 0.0 
-6.625024985016e-04 4.973179585498e-03 0.0 
3.911348068311e-03 -2.492710926936e-02 0.0 
7.656894655731e-03 5.949386346461e-02 0.0 
-5.186110135413e-04 2.015260828128e-02 0.0 
7.084588132415e-03 1.516329587328e-01 0.0 
4.934229652981e-04 6.369110799910e-02 0.0 
9.238323242840e-03 1.372438481665e-02 0.0 
6.892933080987e-03 5.324277981991e-03 0.0 
8.827857692086e-03 7.691456135909e-03 0.0 
5.294319575615e-03 4.729838306762e-03 0.0 
1.964934393007e-03 3.695498777027e-03 0.0 
1.196693009438e-02 -3.032302768722e-03 0.0 
2.581959856714e-02 1.465158299128e-01 0.0 
-2.970522064558e-04 4.879186475193e-03 0.0 
1.073928193371e-03 6.129395783453e-02 0.0 
1.429718858378e-02 3.621283385829e-02 0.0 
-9.753443417403e-04 5.233133318242e-02 0.0 
1.095282735001e-03 1.211743577102e-02 0.0 
3.324369064596e-02 9.316465531283e-02 0.0 
2.023817398297e-02 5.589223125374e-02 0.0 
4.187183974282e-02 1.215173735780e-01 0.0 
4.305906897665e-02 1.338998114552e-01 0.0 
5.187397105999e-03 7.723672373924e-03 0.0 
1.650861120879e-03 1.244377456167e-01 0.0 
-3.471825721499e-04 4.079970508830e-03 0.0 
3.552949791990e-03 6.354158633824e-02 0.0 
5.991641506498e-04 2.748227901958e-02 0.0 
3.832527406923e-02 1.302917577927e-01 0.0 
4.087046911041e-02 1.203266909027e-01 0.0 
3.789824250575e-02 1.192941998591e-01 0.0 
4.047110339080e-02 1.077354028092e-01 0.0 
3.762273397680e-02 1.043296961520e-01 0.0 
3.920207572824e-02 9.457092886812e-02 0.0 
4.219649156457e-02 9.741625407427e-02 0.0 
4.022370703969e-02 8.501409423283e-02 0.0 
4.328781329294e-02 8.754149642705e-02 0.0 
3.594560593338e-02 9.055978422084e-02 0.0 
4.063742665085e-02 7.577542617034e-02 0.0 
4.373889173785e-02 7.802997678358e-02 0.0 
4.044414312345e-02 6.694972786999e-02 0.0 
4.353965205215e-02 6.897448277753e-02 0.0 
4.650314546850e-02 7.928223297201e-02 0.0 
4.627682122011e-02 7.004521325211e-02 0.0 
4.883243493815e-02 7.947683328621e-02 0.0 
4.857919492062e-02 7.006128008870e-02 0.0 
4.540850234069e-02 6.140421715596e-02 0.0 
4.764658022073e-02 6.132134776155e-02 0.0 
5.032322647451e-02 6.903268923055e-02 0.0 
4.932863724465e-02 6.021958166673e-02 0.0 
5.147364771478e-02 6.695956593750e-02 0.0 
5.039497997790e-02 5.809751571404e-02 0.0 
5.200715535332e-02 6.384616208713e-02 0.0 
5.083427451992e-02 5.501532971053e-02 0.0 
4.862779030068e-02 5.007301485352e-02 0.0 
4.896060417876e-02 4.709766462607e-02 0.0 
5.061734698137e-02 5.105100511311e-02 0.0 
4.862227363185e-02 4.329333297965e-02 0.0 
4.974077938105e-02 4.630116917755e-02 0.0 
4.761152226503e-02 3.879382514927e-02 0.0 
4.596116502897e-02 3.656928554647e-02 0.0 
4.480433717187e-02 3.240211632427e-02 0.0 
4.591193286836e-02 3.368416828643e-02 0.0 
4.286623607933e-02 2.757924768256e-02 0.0 
4.347062355495e-02 2.788085436755e-02 0.0 
4.016057985210e-02 2.218192846826e-02 0.0 
4.032768249644e-02 2.160637180848e-02 0.0 
3.674449067774e-02 1.652039433893e-02 0.0 
3.624813491176e-02 1.778294720683e-02 0.0 
3.261604931724e-02 1.286231813056e-02 0.0 
3.274362148332e-02 1.093344411865e-02 0.0 
2.848414963639e-02 8.239447295379e-03 0.0 
2.815710368575e-02 1.060018977350e-02 0.0 
2.400927743988e-02 6.985582447351e-03 0.0 
2.357791752593e-02 9.589501944543e-03 0.0 
1.952509043704e-02 6.987433499482e-03 0.0 
1.968214308479e-02 4.122589884085e-03 0.0 
1.540927037166e-02 5.221806195504e-03 0.0 
1.526987128204e-02 8.001286047863e-03 0.0 
1.145854015865e-02 7.191948378766e-03 0.0 
1.140333141215e-02 4.413944856376e-03 0.0 
7.887188323091e-03 7.324577131129e-03 0.0 
8.084829436811e-03 9.525402467059e-03 0.0 
4.971936145601e-03 1.031802138451e-02 0.0 
4.668813522731e-03 8.383702749512e-03 0.0 
2.228928620074e-03 1.193923502280e-02 0.0 
2.544591078568e-03 1.337139169788e-02 0.0 
1.535095177605e-04 1.555275254289e-02 0.0 
-1.232797487560e-04 1.439928906802e-02 0.0 
-1.818668473856e-03 1.843730645548e-02 0.0 
-1.528965336339e-03 1.906131985960e-02 0.0 
-3.145206377027e-03 2.224052285141e-02 0.0 
-2.779642340602e-03 2.225443974526e-02 0.0 
-3.359850263033e-03 2.200430873280e-02 0.0 
-4.329407210559e-03 2.594111292199e-02 0.0 
-4.404380642299e-03 2.612069197594e-02 0.0 
-5.061407193372e-03 3.005332599584e-02 0.0 
4.270374901549e-02 3.087584976286e-02 0.0 
-4.910325952396e-03 3.060788897701e-02 0.0 
-4.167852628543e-03 2.613306958419e-02 0.0 
-5.329949874932e-03 3.444384055294e-02 0.0 
-5.383473348504e-03 3.338303517231e-02 0.0 
-4.912077661785e-03 3.535150107019e-02 0.0 
-5.167984062014e-03 3.898405852992e-02 0.0 
-4.464218070369e-03 4.018666105794e-02 0.0 
4.316021931966e-02 2.806963750576e-02 0.0 
4.392208013071e-02 5.341328656023e-02 0.0 
-4.628671948118e-03 4.351952060169e-02 0.0 
-3.651388670937e-03 4.494751381261e-02 0.0 
-3.210579500705e-03 4.122692229498e-02 0.0 
-2.090434122320e-03 4.616139755311e-02 0.0 
3.444408944731e-02 1.000958669733e-01 0.0 
3.246604092079e-02 8.564809060021e-02 0.0 
3.112389304981e-02 9.495128874442e-02 0.0 
2.882793219739e-02 7.999125017310e-02 0.0 
2.767631797018e-02 8.888029523533e-02 0.0 
-2.587710444472e-03 4.947531744660e-02 0.0 
3.696614189246e-02 6.359608071921e-02 0.0 
2.947658843207e-02 7.104809606483e-02 0.0 
5.184052840047e-02 7.662064944989e-02 0.0 
5.114244811915e-02 5.491701277155e-02 0.0 
2.733979491848e-02 1.277740879936e-02 0.0 
-5.121589668192e-03 4.189187873573e-02 0.0 
-4.498432816215e-03 4.609723984714e-02 0.0 
-4.795701036771e-03 4.405716355394e-02 0.0 
-1.116800322150e-03 1.939454791474e-02 0.0 
-2.270089300691e-03 2.193621574954e-02 0.0 
-5.971569130008e-04 1.933489867886e-02 0.0 
-1.685308595858e-03 2.120371210913e-02 0.0 
-7.266790245275e-05 1.879129708655e-02 0.0 
-1.153641483967e-03 1.999119693300e-02 0.0 
-2.425063377192e-03 2.262500690206e-02 0.0 
-1.902823836293e-03 2.077060259335e-02 0.0 
-2.864862684062e-03 2.356686119826e-02 0.0 
2.808052875825e-04 1.768676324361e-02 0.0 
1.718618963586e-03 1.678309012214e-02 0.0 
-2.352206990386e-03 2.111233830068e-02 0.0 
-3.045200502909e-03 2.401716336516e-02 0.0 
-2.546403750578e-03 2.100646878790e-02 0.0 
-3.004792252425e-03 2.398689936628e-02 0.0 
-3.521063558941e-03 2.710600250174e-02 0.0 
-3.255083225714e-03 2.709581508922e-02 0.0 
-3.766126896847e-03 3.032502689177e-02 0.0 
2.277004075280e-02 1.189375788826e-02 0.0 
2.603466195159e-02 1.454971846149e-02 0.0 
2.160394146911e-02 1.365171421916e-02 0.0 
2.416071365139e-02 1.553164391754e-02 0.0 
2.001335183200e-02 1.439003960734e-02 0.0 
2.185598575706e-02 1.552289302912e-02 0.0 
1.790071349232e-02 1.424433111891e-02 0.0 
1.615822350765e-02 1.367911736027e-02 0.0 
3.964999938306e-02 5.845607326964e-02 0.0 
2.834439143536e-02 5.734887158427e-03 0.0 
3.231635023017e-02 8.905620355883e-03 0.0 
2.766715299181e-02 3.042463654580e-03 0.0 
3.118778824449e-02 6.802062712540e-03 0.0 
2.640232449974e-02 2.652977288973e-04 0.0 
2.941450959195e-02 4.688212124808e-03 0.0 
2.465274827217e-02 -2.593759241148e-03 0.0 
2.155408220204e-02 -5.356122202724e-03 0.0 
1.983541182381e-02 -8.906043059008e-03 0.0 
1.681616366393e-02 -9.647509496309e-03 0.0 
1.530556194986e-02 -1.366494534874e-02 0.0 
1.244915769108e-02 -1.218992993567e-02 0.0 
4.621038382525e-02 4.293077698435e-02 0.0 
2.604291026463e-02 1.726297846334e-02 0.0 
2.303093139079e-02 1.643935219269e-02 0.0 
2.718495938746e-02 1.867962575615e-02 0.0 
-1.314958431294e-03 4.211463647305e-02 0.0 
-2.776001798744e-03 2.349700387924e-02 0.0 
1.776234384412e-03 1.569954255508e-02 0.0 
3.541994334014e-03 1.516690438463e-02 0.0 
1.424027930280e-02 1.329367671587e-02 0.0 
-7.868873391601e-04 5.075684946600e-02 0.0 
2.703431218590e-02 2.642463875905e-03 0.0 
3.157442334582e-02 1.126062732839e-02 0.0 
2.511854684013e-02 7.346369597184e-02 0.0 
2.419576712483e-02 8.204692242134e-02 0.0 
3.229308852525e-03 1.400101993073e-02 0.0 
-1.410967343793e-03 5.363146512186e-02 0.0 
-1.525233986213e-03 1.840397865585e-02 0.0 
1.758103355139e-02 -1.259431153497e-02 0.0 
-2.842912401252e-03 2.660579169957e-02 0.0 
-2.395651350196e-03 2.258059673835e-02 0.0 
-3.449057461101e-03 2.556261639965e-02 0.0 
2.349838390676e-02 1.701245895178e-02 0.0 
2.765227022243e-02 1.968713373427e-02 0.0 
1.351983374716e-02 -8.203180272591e-03 0.0 
9.423813701257e-03 -8.827301912746e-03 0.0 
8.630931780365e-03 -1.266482769220e-02 0.0 
5.930588627498e-03 -7.281834724317e-03 0.0 
6.498009528503e-03 -4.171509512560e-03 0.0 
3.587037865161e-03 -1.641081992062e-03 0.0 
3.469714605666e-03 -4.142901805974e-03 0.0 
1.623530285132e-03 2.479689824143e-03 0.0 
1.456042115564e-03 4.444371889980e-03 0.0 
-7.208039935591e-06 9.015718787527e-03 0.0 
8.221336035614e-04 7.803378195742e-03 0.0 
-3.991459504231e-04 1.444641769140e-02 0.0 
-2.313264952102e-03 1.949945252581e-02 0.0 
1.346040008941e-02 -1.779312327010e-02 0.0 
4.839614579617e-02 8.947384498156e-02 0.0 
1.585431507024e-03 1.394253921210e-02 0.0 
1.534387899104e-02 1.326974164408e-02 0.0 
2.140844965199e-02 6.624840451257e-02 0.0 
2.073425890531e-02 7.457727510974e-02 0.0 
2.288430145845e-02 9.062846703477e-02 0.0 
1.968825695314e-02 8.286634162933e-02 0.0 
1.734985285402e-02 6.658126684409e-02 0.0 
1.657636210228e-02 7.468396903939e-02 0.0 
1.836120759885e-02 9.105457841806e-02 0.0 
1.551446990374e-02 8.269619624892e-02 0.0 
1.683588208358e-02 9.907245430657e-02 0.0 
1.423675216594e-02 9.057380851216e-02 0.0 
1.278257816524e-02 7.403059052149e-02 0.0 
1.173744284159e-02 8.183814525759e-02 0.0 
1.280532642294e-02 9.831389325017e-02 0.0 
1.051094937588e-02 8.953234121093e-02 0.0 
1.126604001019e-02 1.058984014794e-01 0.0 
9.144511748254e-03 9.710438043114e-02 0.0 
8.342555123768e-03 8.058250948663e-02 0.0 
4.500926544235e-04 5.475458283176e-02 0.0 
1.264336593303e-02 1.327574203278e-02 0.0 
1.092815270592e-02 1.256881392659e-02 0.0 
-4.114440545655e-03 4.782362748998e-02 0.0 
-4.262186137836e-03 4.540273517710e-02 0.0 
-4.806060033254e-03 4.177411599022e-02 0.0 
-4.146057289360e-03 4.280853484262e-02 0.0 
7.108459094894e-03 8.824056189261e-02 0.0 
6.338239239405e-03 7.151191135876e-02 0.0 
2.843626211797e-02 1.028592927537e-02 0.0 
3.262593082305e-02 1.988503131235e-02 0.0 
2.162830645747e-02 5.795535255794e-02 0.0 
-2.321875611430e-03 2.567278147004e-02 0.0 
-2.716387103127e-03 2.972984643408e-02 0.0 
4.976660502441e-02 4.925083843483e-02 0.0 
5.049996400177e-02 5.869727637620e-02 0.0 
4.869413835664e-02 5.222581589816e-02 0.0 
4.861623353100e-02 6.252438782241e-02 0.0 
5.039362172240e-02 6.916090192135e-02 0.0 
4.637065224585e-02 5.523487730513e-02 0.0 
3.532828904168e-03 1.560494226889e-02 0.0 
1.021265610884e-02 6.513888769337e-02 0.0 
-2.509631481267e-03 3.680049364555e-02 0.0 
-2.948389417190e-04 3.744496975279e-02 0.0 
-1.931581156989e-03 2.128117559094e-02 0.0 
1.388870262662e-02 1.313071499360e-02 0.0 
4.534406718646e-02 4.490605617111e-02 0.0 
4.247970831796e-02 3.844250139668e-02 0.0 
4.114633776093e-02 3.940597826791e-02 0.0 
3.796428209035e-02 3.354612897620e-02 0.0 
3.612488135290e-02 3.350791632898e-02 0.0 
3.265585692664e-02 2.821533544573e-02 0.0 
3.440724575315e-02 2.841025332265e-02 0.0 
2.320849824516e-02 1.711241964529e-02 0.0 
2.888759262059e-02 2.353794594092e-02 0.0 
7.793866334261e-03 1.046974938109e-01 0.0 
3.038739317155e-02 1.956048300992e-02 0.0 
-3.783195247511e-04 1.043244646004e-02 0.0 
1.549765428123e-03 5.153988640567e-02 0.0 
1.513861040261e-03 1.395083889707e-02 0.0 
-3.013518152204e-04 5.724225206552e-02 0.0 
-1.702516821437e-03 5.570760516397e-02 0.0 
2.660178716834e-03 1.210913056899e-02 0.0 
3.021860814230e-02 2.717061006283e-02 0.0 
3.364721192033e-02 3.259293433953e-02 0.0 
4.766428785944e-02 7.398405212890e-02 0.0 
4.944108711767e-02 8.056677938080e-02 0.0 
1.923006270644e-02 1.455602228785e-02 0.0 
2.928672806657e-02 1.043726530967e-01 0.0 
1.948730654633e-02 1.072724331815e-01 0.0 
1.759018917175e-02 1.152247056702e-01 0.0 
1.759271114316e-03 5.804509106124e-02 0.0 
2.561877151685e-03 6.962871825434e-03 0.0 
1.410976044006e-02 5.818468594974e-02 0.0 
3.577985139096e-02 2.003690820859e-02 0.0 
3.649692181849e-02 2.928210161882e-02 0.0 
1.500139038102e-02 -1.637706086899e-02 0.0 
1.133659148636e-02 -2.222723728605e-02 0.0 
5.310333674160e-03 7.900123250232e-02 0.0 
4.579694225285e-03 6.230151173729e-02 0.0 
-4.577570554353e-03 3.927502312753e-02 0.0 
-3.874819153598e-03 3.990612502097e-02 0.0 
4.533167607773e-03 1.250981890730e-02 0.0 
2.905235907242e-04 2.038622031314e-02 0.0 
5.274602416478e-03 5.459312060232e-02 0.0 
1.059201235912e-02 1.332256059268e-02 0.0 
1.120243982681e-02 1.276695529002e-02 0.0 
-3.485548146440e-03 4.622187889809e-02 0.0 
2.857044838611e-02 2.004968162007e-02 0.0 
2.454717146071e-02 9.611795412492e-03 0.0 
1.493454048946e-03 6.551013692334e-03 0.0 
-1.512965441073e-03 2.054704355213e-02 0.0 
-7.253418685615e-04 5.886080672985e-02 0.0 
3.505113432862e-03 1.038561395958e-02 0.0 
1.425564304530e-02 5.020467293028e-02 0.0 
3.060644320431e-02 2.401404915734e-02 0.0 
3.551181173104e-02 2.790130814831e-02 0.0 
2.494402656759e-02 1.948911251450e-02 0.0 
3.024836814680e-03 2.040492744129e-02 0.0 
1.213881247143e-03 1.148753825588e-02 0.0 
-1.734737591068e-03 2.435768307608e-02 0.0 
2.742741801261e-02 2.567011186046e-02 0.0 
3.055554604094e-02 3.082879069273e-02 0.0 
3.962344965703e-02 2.868278468959e-02 0.0 
4.015935132992e-02 3.850491937667e-02 0.0 
3.604224022195e-02 4.010077295415e-02 0.0 
3.946528040747e-02 4.950879397658e-02 0.0 
4.492388152634e-02 9.931627527084e-02 0.0 
4.311004726370e-02 3.709309200754e-02 0.0 
5.022007788856e-02 8.878844376453e-02 0.0 
4.912720473772e-02 9.951596490088e-02 0.0 
5.039221281656e-02 9.798502108309e-02 0.0 
5.157435165354e-02 7.497878947176e-02 0.0 
5.060268903540e-02 8.642072296408e-02 0.0 
3.566028574341e-02 1.383718050893e-02 0.0 
3.062492893926e-02 1.624015396296e-02 0.0 
-5.098429731022e-03 3.799129941928e-02 0.0 
-4.079226793421e-03 2.982740158223e-02 0.0 
9.002736403119e-04 1.707842325559e-02 0.0 
1.078977888449e-02 5.730610558269e-02 0.0 
8.214292088191e-03 4.826448900639e-02 0.0 
1.345520368063e-02 1.145164216325e-01 0.0 
1.168593410486e-02 1.219576804613e-01 0.0 
1.344979745385e-03 4.282537448230e-02 0.0 
2.712618090422e-03 3.791993714082e-02 0.0 
-3.604109484158e-03 2.498024070592e-02 0.0 
3.426993978231e-04 1.362259205914e-02 0.0 
1.773337700769e-02 5.037621587283e-02 0.0 
1.718731924189e-02 4.238643360592e-02 0.0 
2.132165820568e-02 4.975809569576e-02 0.0 
5.559242399857e-03 1.114371783931e-02 0.0 
2.368216188200e-02 1.186259025781e-03 0.0 
1.845117151580e-02 1.178923589483e-02 0.0 
9.913338427573e-03 -2.086577715850e-02 0.0 
4.329325610113e-02 3.411432372127e-02 0.0 
4.806284290357e-03 4.333513603370e-02 0.0 
4.131699821975e-02 5.259655357871e-02 0.0 
-1.415415736481e-03 1.964292794036e-02 0.0 
-1.547313613824e-03 1.652599838349e-02 0.0 
1.823017513433e-02 1.384268365366e-02 0.0 
4.301400965032e-02 1.219355305562e-01 0.0 
3.965232091156e-02 2.903411477430e-02 0.0 
3.892920502333e-02 2.619365462685e-02 0.0 
4.865092796842e-02 1.093237712120e-01 0.0 
4.931536773506e-02 1.069730621957e-01 0.0 
5.106789918077e-02 9.537583256279e-02 0.0 
4.936302500417e-02 1.036067452653e-01 0.0 
-4.703286812529e-04 1.188412285490e-02 0.0 
-1.893801344927e-03 1.598804450408e-02 0.0 
2.315090500518e-02 2.019677099058e-02 0.0 
2.273264767460e-02 1.825258804358e-02 0.0 
2.387294610359e-02 2.315965139951e-02 0.0 
2.684410532342e-02 2.808484108949e-02 0.0 
1.438720214882e-02 1.132265918536e-02 0.0 
1.541053317102e-02 1.234654441117e-02 0.0 
-1.658323614204e-03 5.699580224745e-02 0.0 
4.770428618770e-02 9.267514159186e-02 0.0 
1.094731733960e-02 4.157364447718e-02 0.0 
4.739987119620e-02 1.106061905876e-01 0.0 
1.796452911265e-04 1.070872171639e-02 0.0 
-5.200183673395e-04 1.299346260647e-02 0.0 
8.366369132183e-03 -2.566355962138e-02 0.0 
6.867217564160e-03 -2.079594259625e-02 0.0 
3.625598655958e-03 4.563359669831e-02 0.0 
3.442448960293e-02 5.200310880228e-02 0.0 
3.763976631610e-02 6.133814536544e-02 0.0 
3.095629997736e-02 4.191850394919e-02 0.0 
-2.509623015347e-04 8.937079156038e-03 0.0 
3.082013973774e-03 1.518902975019e-01 0.0 
-1.083972386623e-03 1.459233485743e-02 0.0 
5.217073488746e-02 8.012999169907e-02 0.0 
3.919058885437e-03 3.719321800767e-02 0.0 
3.572216978505e-02 2.490354730851e-02 0.0 
4.778770810242e-02 4.297992920134e-02 0.0 
6.849885480998e-03 1.277490240429e-02 0.0 
2.941134369337e-03 5.476565234234e-02 0.0 
2.192189719018e-03 3.586727653725e-02 0.0 
1.994653277934e-02 1.230019351975e-01 0.0 
1.784817071753e-02 1.310757417393e-01 0.0 
2.214530887438e-02 1.150865222503e-01 0.0 
1.928182723109e-02 -8.399438685473e-03 0.0 
1.540644934020e-02 -1.078992646293e-02 0.0 
7.850923790379e-03 5.606177545913e-02 0.0 
-3.646540251577e-03 5.008789321310e-02 0.0 
-3.226678329393e-03 5.138157366385e-02 0.0 
-7.213850340584e-04 2.629904728332e-02 0.0 
-2.502870537956e-03 2.623906943951e-02 0.0 
-4.748007072603e-03 3.569259529582e-02 0.0 
-5.085256614861e-03 3.421986372027e-02 0.0 
3.927659576058e-02 4.526239837993e-02 0.0 
3.626520082669e-02 4.361820056878e-02 0.0 
4.388134066344e-02 4.603943026478e-02 0.0 
8.206507220525e-03 1.360244558565e-02 0.0 
8.265622947560e-03 1.276533394016e-02 0.0 
1.138095780473e-02 1.139231141181e-02 0.0 
8.348828417894e-03 4.097558770283e-02 0.0 
5.613843394897e-03 3.040452862639e-02 0.0 
1.640834475490e-03 8.514315069512e-03 0.0 
4.119280902094e-03 3.639023726346e-03 0.0 
-2.066661141495e-03 1.681934019047e-02 0.0 
1.046479999660e-02 3.404201148989e-02 0.0 
-1.138752055813e-03 1.154718475322e-02 0.0 
-1.538581662997e-03 1.357246081876e-02 0.0 
6.490382949677e-03 3.837606535250e-02 0.0 
4.094859384255e-03 3.251087566256e-02 0.0 
2.348842554396e-02 2.057466381416e-02 0.0 
1.939755611054e-02 9.393367169024e-03 0.0 
1.630422850569e-02 3.513751432384e-02 0.0 
2.048389341533e-02 4.187958203248e-02 0.0 
1.179576950954e-02 2.682143528903e-02 0.0 
-7.439524294692e-04 5.980010200444e-02 0.0 
3.161441349065e-02 2.380691470119e-02 0.0 
4.235569067207e-03 8.830811920131e-03 0.0 
6.442846778935e-03 9.914105580915e-03 0.0 
2.331575304247e-03 7.250960999166e-03 0.0 
2.234484231479e-02 1.680963386385e-02 0.0 
1.663568852216e-02 1.273178670626e-02 0.0 
1.844123837891e-02 1.438651569331e-02 0.0 
8.675901618471e-03 -2.647460437867e-02 0.0 
1.643584196458e-03 4.298231228316e-02 0.0 
1.373475551807e-02 1.304102513591e-01 0.0 
7.433729186694e-03 -2.928081249698e-02 0.0 
1.178914503295e-02 1.382300459630e-01 0.0 
9.947703856106e-03 1.293435679885e-01 0.0 
1.014023058178e-02 1.457826594335e-01 0.0 
-6.810885940567e-06 6.137106808688e-02 0.0 
2.235151241534e-02 1.332131566273e-01 0.0 
2.493418117838e-02 1.229824089013e-01 0.0 
9.052675168846e-03 3.289607903418e-02 0.0 
7.160230149147e-03 2.539634610462e-02 0.0 
8.517968980286e-03 4.328199712318e-02 0.0 
6.560355175416e-03 4.772349462225e-02 0.0 
-4.443299681611e-04 9.487953722502e-03 0.0 
-1.032233764668e-03 1.202109242813e-02 0.0 
-7.743032287699e-04 8.062739155907e-03 0.0 
-1.272308927253e-03 1.094343783813e-02 0.0 
-1.613119762444e-03 1.475264859939e-02 0.0 
-1.713984451071e-03 1.362541002757e-02 0.0 
1.588215387015e-02 1.399477000413e-01 0.0 
-1.177265647834e-03 8.696540037455e-03 0.0 
-1.603334270193e-03 1.205209643975e-02 0.0 
-1.000348075030e-03 6.968526525036e-03 0.0 
4.688765335780e-02 1.162120835245e-01 0.0 
4.233511326589e-02 5.816551814464e-02 0.0 
4.045792432782e-02 7.040559814563e-02 0.0 
3.463452132681e-02 7.473351386741e-02 0.0 
1.806303532634e-02 1.791966791290e-02 0.0 
2.300301267355e-02 2.496285882384e-02 0.0 
-1.119339017672e-03 2.260408176239e-02 0.0 
-1.319684153921e-03 2.729300832314e-02 0.0 
8.171065642159e-03 1.377482023432e-01 0.0 
5.980315476400e-03 1.384688480309e-01 0.0 
6.591599962860e-03 1.241425461387e-01 0.0 
4.758475365847e-03 1.259351123756e-01 0.0 
5.171679490672e-03 1.116210857240e-01 0.0 
3.328116286426e-03 1.134931611617e-01 0.0 
3.975398332713e-03 9.892088371974e-02 0.0 
1.555257914668e-02 1.242365065601e-02 0.0 
2.807770517905e-02 5.377146918978e-02 0.0 
4.625078362683e-02 1.211817192967e-01 0.0 
1.076119336073e-02 9.069757009811e-03 0.0 
1.225050079766e-02 1.070379977413e-02 0.0 
4.885604154725e-02 9.848643181774e-02 0.0 
4.507413991864e-02 1.056151937923e-01 0.0 
6.666462411467e-04 7.934779075111e-03 0.0 
4.183250856721e-02 2.830020758156e-02 0.0 
5.367737378805e-03 1.595872068973e-02 0.0 
2.572811374328e-03 -1.475727779527e-02 0.0 
9.496082162102e-03 -1.616626953703e-02 0.0 
4.506424375529e-02 3.590973869967e-02 0.0 
5.114890894513e-02 9.155082256108e-02 0.0 
4.516109599196e-02 6.641732039671e-02 0.0 
4.364711924600e-02 7.899189521766e-02 0.0 
7.731807285815e-03 1.362171299315e-02 0.0 
5.688913405708e-03 2.663611626194e-02 0.0 
2.731461482927e-02 3.138525693406e-02 0.0 
5.793854806257e-03 9.724195390582e-02 0.0 
2.098503806011e-02 3.205404327558e-02 0.0 
-6.146336484044e-04 2.503475058444e-02 0.0 
3.966807928658e-02 2.099641238688e-02 0.0 
5.241758598195e-02 6.947230291807e-02 0.0 
3.242315083940e-02 3.017444771161e-02 0.0 
4.361203245304e-02 4.738066740121e-02 0.0 
4.606821804218e-02 8.905782388700e-02 0.0 
4.316794391546e-02 1.098043605475e-01 0.0 
4.542083988271e-02 1.110778595909e-01 0.0 
3.657338632531e-02 1.520765559360e-02 0.0 
4.599555179158e-02 8.625068257052e-02 0.0 
4.095687067672e-02 9.267720858536e-02 0.0 
5.063423569685e-02 7.857681905131e-02 0.0 
2.547702855110e-02 5.646207146510e-02 0.0 
2.478493973243e-02 4.826636419716e-02 0.0 
1.920346977582e-02 3.466251813286e-02 0.0 
2.352084502207e-02 4.055159649254e-02 0.0 
2.902508819872e-02 5.400955129262e-02 0.0 
2.789071796715e-02 4.605292509861e-02 0.0 
2.170503595416e-02 3.341201606691e-02 0.0 
2.617804404086e-02 3.857975837424e-02 0.0 
1.773294033339e-02 2.416814995338e-02 0.0 
2.369654559897e-02 3.135958473666e-02 0.0 
3.051309722150e-02 4.330540240830e-02 0.0 
2.843194182061e-02 3.645546177636e-02 0.0 
2.177273329310e-02 2.630880228032e-02 0.0 
3.475583627488e-02 4.784512433034e-02 0.0 
9.064844838893e-03 7.422939652233e-03 0.0 
4.603487710330e-02 3.483377444971e-02 0.0 
1.179631041212e-02 -2.013848149439e-02 0.0 
1.299418199013e-02 -4.807047117533e-03 0.0 
5.244443439329e-02 7.360364793776e-02 0.0 
8.871699140656e-03 1.193952044925e-02 0.0 
7.785491487354e-03 1.276600900541e-02 0.0 
3.394920785661e-02 1.246910468122e-02 0.0 
9.051384996859e-03 8.334706587778e-03 0.0 
4.724210551068e-02 1.000677233114e-01 0.0 
2.227261799088e-02 -5.502338785023e-03 0.0 
8.707089813146e-03 7.247460518169e-03 0.0 
2.955165842221e-02 6.233720680624e-02 0.0 
3.350168900558e-02 6.772840519941e-02 0.0 
3.326986200811e-02 7.658448606810e-02 0.0 
6.280605494034e-03 1.261825979969e-02 0.0 
2.425770175719e-02 1.067100030218e-01 0.0 
6.423233861760e-03 5.012552948422e-03 0.0 
2.858715655952e-02 1.721783604550e-02 0.0 
3.314744942373e-02 1.957125755855e-02 0.0 
3.508384154081e-02 1.887972303430e-02 0.0 
3.215123814817e-02 5.115648940911e-02 0.0 
4.136402370602e-03 4.118714756288e-03 0.0 
7.019240431791e-03 7.268934866715e-03 0.0 
5.707918544420e-03 7.033753304352e-03 0.0 
9.180733216908e-03 9.872554122644e-03 0.0 
2.704747336130e-03 3.883681362396e-03 0.0 
8.554157204113e-03 9.682036130545e-03 0.0 
8.277638548734e-03 8.678243472943e-03 0.0 
3.851628366151e-03 1.022611420737e-03 0.0 
6.990402048523e-03 -1.028777407746e-03 0.0 
7.371342168161e-03 1.916866138451e-03 0.0 
1.075038787276e-02 -1.736370782864e-03 0.0 
1.019587564254e-02 -5.163292643961e-03 0.0 
1.437073072713e-02 -4.493018772033e-03 0.0 
1.497508176559e-02 -1.030281562649e-03 0.0 
1.804568648887e-02 -5.872348828747e-03 0.0 
3.003372686359e-02 3.428867852659e-02 0.0 
1.410019071185e-03 3.708237465680e-03 0.0 
1.368898458942e-03 1.721749189881e-02 0.0 
3.204700666725e-03 1.535018551493e-02 0.0 
2.845174162140e-03 1.455601632491e-02 0.0 
-5.382273486129e-03 3.602906235233e-02 0.0 
-5.162231608093e-03 3.210884064717e-02 0.0 
-4.736390120440e-03 3.057118506663e-02 0.0 
-5.247380140212e-03 4.005261947408e-02 0.0 
3.917223058809e-02 3.278855058223e-02 0.0 
8.590558276360e-04 3.772582985153e-03 0.0 
1.462446017673e-02 1.212752412984e-02 0.0 
-4.925713168236e-03 2.933958117302e-02 0.0 
2.877335689614e-02 1.436296381356e-01 0.0 
3.119769374864e-02 1.289156898064e-01 0.0 
3.433588969404e-02 1.249677549131e-01 0.0 
3.261908027030e-02 1.121295703980e-01 0.0 
2.775160889168e-02 1.303061843559e-01 0.0 
-4.205282292834e-03 3.652505874637e-02 0.0 
-3.515363659883e-03 3.675407283664e-02 0.0 
-3.048468595428e-03 3.992574107209e-02 0.0 
-2.729407451896e-03 3.642698445695e-02 0.0 
-2.152918540125e-03 3.937900919419e-02 0.0 
-2.394078768593e-03 4.283083701292e-02 0.0 
-1.875783765534e-03 3.561167173288e-02 0.0 
-1.252815396654e-03 3.875791761002e-02 0.0 
2.314411675138e-02 1.479815316462e-01 0.0 
1.006785523461e-02 -1.519588564803e-02 0.0 
6.586640298716e-03 -9.284577107803e-03 0.0 
7.630100608681e-03 1.324203902724e-03 0.0 
4.536165333283e-03 -3.798935898548e-03 0.0 
4.973240359750e-03 -1.255894171717e-02 0.0 
3.542330258794e-03 -6.596027857153e-03 0.0 
5.399089822008e-03 -1.368687723382e-02 0.0 
6.109863086955e-03 -1.950923101767e-02 0.0 
1.319057347575e-02 6.584169059848e-03 0.0 
8.522005376932e-03 1.026345936625e-02 0.0 
1.398859129145e-02 1.492978331138e-02 0.0 
9.289753709140e-03 1.823840567143e-02 0.0 
4.664356645156e-03 1.382382120986e-02 0.0 
7.647799135810e-04 3.218280173884e-02 0.0 
-6.374155402855e-04 5.776588334939e-03 0.0 
-9.994539822965e-04 4.905777004475e-02 0.0 
-1.923369720226e-03 5.005687389617e-02 0.0 
-1.827201078812e-03 5.301413938295e-02 0.0 
-2.837162703761e-03 5.017445924643e-02 0.0 
-1.850386657009e-03 4.711484735419e-02 0.0 
-8.746424416330e-04 5.531303231639e-02 0.0 
-1.598804383109e-03 5.552580646222e-02 0.0 
5.627481304799e-03 6.191859325576e-02 0.0 
3.307888622990e-03 6.320188024491e-02 0.0 
1.628306357007e-03 6.453795826624e-02 0.0 
1.631474288965e-03 6.378828720427e-02 0.0 
2.700367947626e-03 6.212580112071e-02 0.0 
4.845761221802e-03 6.111088529557e-02 0.0 
6.280071251758e-03 5.824347867429e-02 0.0 
9.544409602341e-03 5.630225899584e-02 0.0 
7.481354922788e-03 5.471906108461e-02 0.0 
4.385519754103e-03 5.651232376278e-02 0.0 
1.118645465896e-02 5.256477411496e-02 0.0 
1.294916635985e-03 7.732887101282e-02 0.0 
2.475200912976e-03 6.899971105707e-02 0.0 
4.503224365138e-05 4.208425260174e-03 0.0 
1.809054434233e-02 1.488802304851e-01 0.0 
1.451366047636e-02 2.975283878214e-02 0.0 
2.062425379449e-03 1.786677509666e-02 0.0 
3.152211036436e-03 1.463085922778e-02 0.0 
2.539703239371e-03 1.425435268151e-02 0.0 
-3.899550329619e-04 1.468558622304e-02 0.0 
-6.294381661789e-04 1.194044451869e-02 0.0 
1.122468499801e-03 1.743524989092e-02 0.0 
-4.002461242326e-03 3.615809615509e-02 0.0 
1.737687297642e-02 2.796178858313e-02 0.0 
5.735689986700e-03 4.680676997996e-02 0.0 
2.396174161398e-02 7.713645519178e-04 0.0 
-2.566093510207e-03 2.081102908841e-02 0.0 
-2.029607878484e-03 2.873075316910e-02 0.0 
-3.598856738447e-03 2.659268502602e-02 0.0 
-1.975996233081e-03 1.821557585997e-02 0.0 
-3.297434929840e-03 3.027295753627e-02 0.0 
-2.520826412522e-03 2.045767941092e-02 0.0 
4.497731921740e-03 7.123431578510e-03 0.0 
5.554823246015e-04 6.011357400968e-02 0.0 
1.518145585965e-02 1.068911990584e-01 0.0 
9.739211313224e-03 1.133951540856e-01 0.0 
9.382061686708e-03 7.290684382996e-02 0.0 
-3.794120135996e-03 4.790680235283e-02 0.0 
-3.330681151765e-03 4.297706059706e-02 0.0 
1.159123713466e-04 4.711117513352e-02 0.0 
1.605320313893e-02 1.401689434260e-02 0.0 
5.145875819188e-02 8.712642664178e-02 0.0 
4.849097090265e-04 1.648529777355e-02 0.0 
-5.436209780866e-03 3.760823393366e-02 0.0 
-4.358532265012e-03 3.105735501123e-02 0.0 
-1.386083946993e-03 1.516428983562e-02 0.0 
4.823045717798e-02 4.089657281229e-02 0.0 
-4.055914514856e-03 2.559618966978e-02 0.0 
-7.904322315575e-04 1.823865766357e-02 0.0 
7.212379115124e-03 6.382123229873e-02 0.0 
1.300821014673e-02 4.280327338998e-02 0.0 
4.016714057489e-04 1.597068943540e-02 0.0 
-3.024817559988e-03 2.400577976437e-02 0.0 
2.128502318841e-02 9.907808548686e-02 0.0 
1.904571126832e-02 1.466582679935e-02 0.0 
2.050228483851e-03 9.948374690301e-04 0.0 
1.359972946637e-02 6.616082108194e-02 0.0 
1.341208554930e-02 3.542301584519e-02 0.0 
2.714296563221e-02 1.137496631213e-01 0.0 
3.156443722210e-03 4.784170903436e-02 0.0 
1.569930628994e-02 1.231536451558e-01 0.0 
1.908240884434e-03 9.461148140840e-03 0.0 
2.556451188115e-02 6.487374871779e-02 0.0 
-2.775109359098e-03 5.201560457864e-02 0.0 
1.910706875976e-02 9.627679783868e-03 0.0 
5.189421293447e-02 5.978214249651e-02 0.0 
4.189762063263e-02 1.339933711076e-01 0.0 
5.956673152447e-03 3.962415968858e-02 0.0 
4.139745985877e-02 2.707668004374e-02 0.0 
1.192184507995e-02 1.205772420118e-02 0.0 
1.756573611979e-02 1.319741752502e-02 0.0 
-2.674695561729e-03 5.369933876131e-02 0.0 
-1.259068131214e-03 1.549841779205e-02 0.0 
3.189496075363e-02 1.467057904502e-02 0.0 
1.107839511224e-02 4.954565101677e-02 0.0 
3.921222715257e-02 3.948845894257e-02 0.0 
2.405405537606e-02 4.219446756165e-03 0.0 
1.776098167810e-02 5.846391496630e-02 0.0 
5.261180406810e-03 1.195878430962e-02 0.0 
1.949760675755e-02 1.480026058512e-02 0.0 
5.212660513249e-02 8.418534244468e-02 0.0 
4.765203984026e-02 5.217213830298e-02 0.0 
4.276073326889e-02 6.052167709393e-02 0.0 
4.642499012168e-02 4.011760943816e-02 0.0 
-1.497218619343e-03 3.174250884543e-02 0.0 
-6.013423130575e-04 1.591338947022e-02 0.0 
1.141419803271e-02 -1.642418560426e-02 0.0 
4.626611665670e-02 4.511039484387e-02 0.0 
2.610373983021e-02 9.782888910709e-02 0.0 
2.668913531335e-02 2.255270660906e-02 0.0 
7.899157266252e-03 3.270562737972e-02 0.0 
5.176099463917e-02 6.448051646354e-02 0.0 
-1.957299469225e-03 1.817816963695e-02 0.0 
1.406442876612e-02 4.276729188574e-02 0.0 
-4.570341282612e-03 2.839284681358e-02 0.0 
-7.229732889125e-05 6.227060945333e-02 0.0 
2.040862024238e-02 -7.518701550553e-04 0.0 
2.283766184257e-02 -2.013059599782e-03 0.0 
3.922215189343e-02 2.265018788385e-02 0.0 
-4.049572972370e-03 2.714996672636e-02 0.0 
1.406973342005e-02 2.615998673346e-02 0.0 
-2.127723110404e-03 1.754933979403e-02 0.0 
5.278442985228e-03 1.386353712710e-02 0.0 
9.377275734582e-03 2.065728977261e-02 0.0 
4.502559082977e-02 1.219288332239e-01 0.0 
-2.079287351902e-03 1.652700520935e-02 0.0 
1.497900998210e-02 1.033480384165e-02 0.0 
1.575467719173e-02 1.299669603356e-02 0.0 
-1.455281298946e-03 4.214688093207e-02 0.0 
1.568025330619e-02 1.306046172133e-02 0.0 
4.643829316267e-02 1.110357644862e-01 0.0 
-1.862007274576e-03 1.514314781964e-02 0.0 
9.530882635538e-03 1.303223043949e-02 0.0 
3.812287255930e-02 2.042229627110e-02 0.0 
5.092456600394e-03 1.518522544942e-01 0.0 
-1.267317679321e-03 9.586715970581e-03 0.0 
8.036676974058e-03 1.181484809118e-02 0.0 
4.321444613243e-02 3.666865342075e-02 0.0 
1.145514825699e-02 9.550046923781e-03 0.0 
4.368711679647e-02 1.322752104273e-01 0.0 
-4.188015037164e-03 2.875912225839e-02 0.0 
4.607667163919e-02 5.332102571288e-02 0.0 
5.543019072981e-03 1.261018968601e-02 0.0 
8.972121311610e-03 1.102102480602e-02 0.0 
3.690995028004e-02 8.155101513862e-02 0.0 
-4.623509927346e-03 3.216016929496e-02 0.0 
3.153423086633e-02 2.149647525512e-02 0.0 
3.663000560096e-03 5.969881423417e-02 0.0 
4.685829002582e-02 1.192478420630e-01 0.0 
-4.279107660321e-03 3.314571497776e-02 0.0 
1.894132272765e-02 -2.323479094676e-03 0.0 
8.227926905295e-03 1.131791034413e-02 0.0 
1.289694418422e-02 1.001855116404e-02 0.0 
-3.760258963727e-03 3.353520389345e-02 0.0 
1.949051850326e-02 1.055225155858e-03 0.0 
-3.117567120781e-03 3.338150001086e-02 0.0 
4.305836892564e-02 1.257184375200e-01 0.0 
3.720226130278e-02 7.219810418987e-02 0.0 
-2.367423819344e-03 3.276060546506e-02 0.0 
4.184680773901e-02 4.611871146018e-02 0.0 
4.855807848850e-03 5.241619328485e-02 0.0 
3.974805876013e-02 3.128205166551e-02 0.0 
-8.764551443019e-04 1.738451568592e-02 0.0 
-3.400645185408e-03 2.164959691613e-02 0.0 
5.481090055207e-03 1.330792798406e-02 0.0 
3.311551548953e-02 5.920228053508e-02 0.0 
4.013434646378e-02 1.158479956037e-01 0.0 
5.717917817046e-03 1.422596383016e-02 0.0 
3.671685868753e-02 3.865885369965e-02 0.0 
3.598056322344e-02 2.675243479999e-02 0.0 
3.745717312826e-02 2.280845268016e-02 0.0 
5.690714547510e-03 1.444096486289e-02 0.0 
4.355246291976e-02 9.917119232227e-02 0.0 
-3.291386836992e-03 3.163502629522e-02 0.0 
-1.662109927969e-03 3.184467273529e-02 0.0 
1.534849173456e-02 2.234483136952e-03 0.0 
3.362201651031e-02 3.689918417376e-02 0.0 
1.156487420442e-03 6.228410654344e-02 0.0 
3.609289086782e-02 5.529997716400e-02 0.0 
1.906837825787e-03 2.648225565439e-02 0.0 
1.116531942748e-02 1.446008262958e-03 0.0 
2.725775478117e-02 2.010708877865e-02 0.0 
1.514039195271e-03 1.094608666967e-01 0.0 
7.694085580260e-03 4.727679994787e-03 0.0 
-4.225671194146e-04 6.035146211814e-02 0.0 
4.392915012394e-03 6.072298370265e-03 0.0 
3.477442312914e-02 2.249226186029e-02 0.0 
1.906568188636e-03 1.033069680101e-02 0.0 
-3.730406765285e-04 1.314677256025e-02 0.0 
4.016142513073e-03 3.037359771649e-02 0.0 
-2.021904813876e-03 1.765268393738e-02 0.0 
5.582868110281e-04 1.445347313577e-02 0.0 
-2.947211260196e-04 5.393241552920e-03 0.0 
1.936039942947e-03 1.404153324984e-01 0.0 
3.470953415017e-02 1.039510274748e-01 0.0 
5.787718533430e-03 -3.102250122698e-02 0.0 
3.892457813113e-02 8.200380418618e-02 0.0 
-3.136723145879e-03 2.115388127332e-02 0.0 
3.829475869812e-02 5.078231441964e-02 0.0 
4.025008047499e-03 1.396864888746e-01 0.0 
-3.559276249963e-03 2.617330528672e-02 0.0 
1.624827197728e-02 1.993392757463e-02 0.0 
7.385596920408e-03 5.776116501437e-03 0.0 
2.769795007879e-03 8.465559016708e-02 0.0 
1.251412449751e-02 1.157348697120e-02 0.0 
3.185203269384e-02 2.289447135686e-02 0.0 
8.143784071919e-04 4.471049342740e-02 0.0 
1.169495609214e-02 1.526604205987e-01 0.0 
9.844472326895e-03 2.568972543075e-02 0.0 
-7.184129957234e-04 2.976569555790e-02 0.0 
2.872614090829e-02 8.657127342801e-02 0.0 
3.121804651675e-02 6.397953438891e-02 0.0 
2.435227394565e-02 4.305629649715e-02 0.0 
-2.234747181528e-03 5.485501016012e-02 0.0 
4.915235137274e-03 5.353589395922e-03 0.0 
2.380018044288e-02 6.633320100332e-02 0.0 
8.422812254505e-03 7.798618145650e-03 0.0 
1.981338507038e-02 1.373505627091e-01 0.0 
2.677090476825e-02 2.036079222254e-02 0.0 
1.682742562278e-02 4.453472727292e-02 0.0 
9.781558912401e-03 2.769557624039e-02 0.0 
1.368473090081e-02 1.054976522411e-02 0.0 
-4.330358441873e-04 4.004585602665e-03 0.0 
2.071817423800e-02 1.586507480567e-02 0.0 
1.712930204474e-02 2.038684226822e-02 0.0 
2.975281716611e-02 1.180749283375e-01 0.0 
1.626344463350e-02 1.499989189091e-02 0.0 
3.779211477280e-03 7.135340653875e-02 0.0 
-6.053679373190e-04 4.083652374220e-03 0.0 
2.489418642974e-02 1.362948582981e-01 0.0 
2.439869969486e-03 2.844928205507e-02 0.0 
8.254373442874e-03 -1.694262117576e-02 0.0 
1.238483479973e-03 2.767104449561e-02 0.0 
3.261572621824e-02 4.065220707654e-02 0.0 
8.320979942191e-03 1.207526228416e-01 0.0 
3.559266722628e-02 1.122862334061e-01 0.0 
-7.410068436489e-04 9.266383366512e-03 0.0 
1.519228969269e-02 2.229284653494e-02 0.0 
1.326914677172e-02 6.723139898186e-03 0.0 
4.340119200322e-03 8.629554255861e-02 0.0 
-3.651655342780e-03 4.834354568929e-02 0.0 
7.055724289103e-03 -2.681554026107e-02 0.0 
9.599159000118e-06 7.555643963052e-03 0.0 
2.607669110302e-02 3.065497501809e-02 0.0 
-1.075521758476e-03 9.161250196609e-03 0.0 
7.715657932050e-04 6.452968664375e-02 0.0 
1.036012825799e-02 3.893711142887e-02 0.0 
1.238696912280e-03 6.579952071196e-03 0.0 
1.553030936138e-02 1.636078562822e-02 0.0 
5.284891841162e-03 -9.674563340103e-03 0.0 
3.337553813033e-03 1.124570523646e-02 0.0 
7.680914180877e-03 -5.587849527885e-03 0.0 
1.582458182583e-02 1.536140832557e-01 0.0 
8.699929942463e-03 5.094438156664e-02 0.0 
-6.148992338719e-04 4.295742582922e-03 0.0 
5.871197091395e-03 2.675432181360e-02 0.0 
-2.603011482020e-03 4.778179440889e-02 0.0 
3.518993170844e-02 1.345760746451e-01 0.0 
-1.219306843003e-03 5.793570526963e-02 0.0 
2.076056391409e-02 1.716994567718e-02 0.0 
6.165023479522e-03 2.100859995184e-02 0.0 
4.010097967608e-03 2.552426954615e-02 0.0 
2.963667598165e-03 6.209907467465e-03 0.0 
1.133576640580e-02 2.275155178518e-02 0.0 
4.055209487316e-03 3.420869089950e-03 0.0 
7.932048516203e-03 -2.458702036694e-02 0.0 
1.255446408431e-02 9.782590624486e-03 0.0 
6.963210088946e-03 9.064278705480e-03 0.0 
8.816061002918e-03 1.535105334191e-01 0.0 
1.372804041868e-02 2.304616066162e-02 0.0 
-2.462083116217e-03 5.290878479594e-02 0.0 
2.428367894422e-03 5.499044084782e-02 0.0 
2.373971641632e-04 1.281630196578e-02 0.0 
1.770715634472e-03 6.408857842672e-02 0.0 
1.496434374580e-03 1.536352596367e-01 0.0 
-1.140997885190e-04 4.428153053514e-03 0.0 
1.929113293881e-03 6.067086428597e-02 0.0 
3.215310171043e-03 1.290500550388e-01 0.0 
1.480777683536e-02 1.672341117579e-02 0.0 
-6.317407970722e-04 4.185545100617e-02 0.0 
1.876110898721e-03 5.575588900244e-02 0.0 
3.222561843549e-03 7.855020519871e-04 0.0 
7.878446037978e-03 -3.222017755181e-02 0.0 
2.621767047700e-03 1.013796278427e-01 0.0 
1.145744574830e-02 8.876191866609e-03 0.0 
9.055865213604e-03 2.277641927878e-02 0.0 
6.716940451270e-03 1.121453313983e-01 0.0 
1.691396749579e-02 3.426999114620e-05 0.0 
2.041379505993e-02 2.304771812345e-02 0.0 
-2.670395580735e-03 4.517432959080e-02 0.0 
2.156620170189e-02 1.975208453740e-02 0.0 
1.004766256051e-02 9.630523575943e-03 0.0 
1.801298783125e-03 -3.191927635915e-03 0.0 
-5.281745836939e-04 3.804237267095e-02 0.0 
9.761569136373e-03 4.687944397994e-02 0.0 
-8.904013194826e-04 7.442947875319e-03 0.0 
-1.760339012742e-03 4.451230829355e-02 0.0 

VECTORS node_bounda_dof_materi_velocity_x float
1.000000000000e+00 0.0 0.0 
1.000000000000e+00 0.0 0.0 
1.000000000000e+00 0.0 0.0 
1.000000000000e+00 0.0 0.0 
1.000000000000e+00 0.0 0.0 
1.000000000000e+00 0.0 0.0 
1.000000000000e+00 0.0 0.0 
1.000000000000e+00 0.0 0.0 
1.000000000000e+00 0.0 0.0 
1.000000000000e+00 0.0 0.0 
1.000000000000e+00 0.0 0.0 
1.000000000000e+00 0.0 0.0 
1.000000000000e+00 0.0 0.0 
1.000000000000e+00 0.0 0.0 
1.000000000000e+00 0.0 0.0 
1.000000000000e+00 0.0 0.0 
1.000000000000e+00 0.0 0.0 
1.000000000000e+00 0.0 0.0 
1.000000000000e+00 0.0 0.0 
1.000000000000e+00 0.0 0.0 
1.000000000000e+00 0.0 0.0 
1.000000000000e+00 0.0 0.0 
1.000000000000e+00 0.0 0.0 
1.000000000000e+00 0.0 0.0 
1.000000000000e+00 0.0 0.0 
1.000000000000e+00 0.0 0.0 
1.000000000000e+00 0.0 0.0 
1.000000000000e+00 0.0 0.0 
1.000000000000e+00 0.0 0.0 
1.000000000000e+00 0.0 0.0 
1.000000000000e+00 0.0 0.0 
1.000000000000e+00 0.0 0.0 
1.000000000000e+00 0.0 0.0 
1.000000000000e+00 0.0 0.0 
1.000000000000e+00 0.0 0.0 
1.000000000000e+00 0.0 0.0 
1.000000000000e+00 0.0 0.0 
1.000000000000e+00 0.0 0.0 
1.000000000000e+00 0.0 0.0 
1.000000000000e+00 0.0 0.0 
1.000000000000e+00 0.0 0.0 
1.000000000000e+00 0.0 0.0 
1.000000000000e+00 0.0 0.0 
1.000000000000e+00 0.0 0.0 
1.000000000000e+00 0.0 0.0 
1.000000000000e+00 0.0 0.0 
1.000000000000e+00 0.0 0.0 
1.000000000000e+00 0.0 0.0 
1.000000000000e+00 0.0 0.0 
1.000000000000e+00 0.0 0.0 
1.000000000000e+00 0.0 0.0 
1.000000000000e+00 0.0 0.0 
1.000000000000e+00 0.0 0.0 
1.000000000000e+00 0.0 0.0 
1.000000000000e+00 0.0 0.0 
1.000000000000e+00 0.0 0.0 
1.000000000000e+00 0.0 0.0 
1.000000000000e+00 0.0 0.0 
1.000000000000e+00 0.0 0.0 
1.000000000000e+00 0.0 0.0 
1.000000000000e+00 0.0 0.0 
1.000000000000e+00 0.0 0.0 
1.000000000000e+00 0.0 0.0 
1.000000000000e+00 0.0 0.0 
1.000000000000e+00 0.0 0.0 
1.000000000000e+00 0.0 0.0 
1.000000000000e+00 0.0 0.0 
1.000000000000e+00 0.0 0.0 
1.000000000000e+00 0.0 0.0 
1.000000000000e+00 0.0 0.0 
1.000000000000e+00 0.0 0.0 
1.000000000000e+00 0.0 0.0 
1.000000000000e+00 0.0 0.0 
1.000000000000e+00 0.0 0.0 
1.000000000000e+00 0.0 0.0 
1.000000000000e+00 0.0 0.0 
1.000000000000e+00 0.0 0.0 
1.000000000000e+00 0.0 0.0 
1.000000000000e+00 0.0 0.0 
1.000000000000e+00 0.0 0.0 
1.000000000000e+00 0.0 0.0 
0.0 0.0 0.0 
0.0 0.0 0.0 
0.0 0.0 0.0 
0.0 0.0 0.0 
0.0 0.0 0.0 
0.0 0.0 0.0 
0.0 0.0 0.0 
0.0 0.0 0.0 
0.0 0.0 0.0 
0.0 0.0 0.0 
0.0 0.0 0.0 
0.0 0.0 0.0 
0.0 0.0 0.0 
0.0 0.0 0.0 
0.0 0.0 0.0 
0.0 0.0 0.0 
0.0 0.0 0.0 
0.0 0.0 0.0 
0.0 0.0 0.0 
0.0 0.0 0.0 
0.0 0.0 0.0 
0.0 0.0 0.0 
0.0 0.0 0.0 
0.0 0.0 0.0 
0.0 0.0 0.0 
0.0 0.0 0.0 
0.0 0.0 0.0 
0.0 0.0 0.0 
0.0 0.0 0.0 
0.0 0.0 0.0 
0.0 0.0 0.0 
0.0 0.0 0.0 
0.0 0.0 0.0 
0.0 0.0 0.0 
0.0 0.0 0.0 
0.0 0.0 0.0 
0.0 0.0 0.0 
0.0 0.0 0.0 
0.0 0.0 0.0 
0.0 0.0 0.0 
0.0 0.0 0.0 
0.0 0.0 0.0 
0.0 0.0 0.0 
0.0 0.0 0.0 
0.0 0.0 0.0 
0.0 0.0 0.0 
0.0 0.0 0.0 
0.0 0.0 0.0 
0.0 0.0 0.0 
0.0 0.0 0.0 
0.0 0.0 0.0 
0.0 0.0 0.0 
0.0 0.0 0.0 
0.0 0.0 0.0 
0.0 0.0 0.0 
0.0 0.0 0.0 
0.0 0.0 0.0 
0.0 0.0 0.0 
0.0 0.0 0.0 
0.0 0.0 0.0 
0.0 0.0 0.0 
0.0 0.0 0.0 
0.0 0.0 0.0 
0.0 0.0 0.0 
0.0 0.0 0.0 
0.0 0.0 0.0 
0.0 0.0 0.0 
0.0 0.0 0.0 
0.0 0.0 0.0 
0.0 0.0 0.0 
0.0 0.0 0.0 
0.0 0.0 0.0 
0.0 0.0 0.0 
0.0 0.0 0.0 
0.0 0.0 0.0 
0.0 0.0 0.0 
0.0 0.0 0.0 
0.0 0.0 0.0 
0.0 0.0 0.0 
0.0 0.0 0.0 
0.0 0.0 0.0 
0.0 0.0 0.0 
0.0 0.0 0.0 
0.0 0.0 0.0 
0.0 0.0 0.0 
0.0 0.0 0.0 
0.0 0.0 0.0 
0.0 0.0 0.0 
0.0 0.0 0.0 
0.0 0.0 0.0 
0.0 0.0 0.0 
0.0 0.0 0.0 
0.0 0.0 0.0 
0.0 0.0 0.0 
0.0 0.0 0.0 
0.0 0.0 0.0 
0.0 0.0 0.0 
0.0 0.0 0.0 
0.0 0.0 0.0 
0.0 0.0 0.0 
0.0 0.0 0.0 
0.0 0.0 0.0 
0.0 0.0 0.0 
0.0 0.0 0.0 
0.0 0.0 0.0 
0.0 0.0 0.0 
0.0 0.0 0.0 
0.0 0.0 0.0 
0.0 0.0 0.0 
0.0 0.0 0.0 
0.0 0.0 0.0 
0.0 0.0 0.0 
0.0 0.0 0.0 
0.0 0.0 0.0 
0.0 0.0 0.0 
0.0 0.0 0.0 
0.0 0.0 0.0 
0.0 0.0 0.0 
0.0 0.0 0.0 
0.0 0.0 0.0 
0.0 0.0 0.0 
0.0 0.0 0.0 
0.0 0.0 0.0 
0.0 0.0 0.0 
0.0 0.0 0.0 
0.0 0.0 0.0 
0.0 0.0 0.0 
0.0 0.0 0.0 
0.0 0.0 0.0 
0.0 0.0 0.0 
0.0 0.0 0.0 
0.0 0.0 0.0 
0.0 0.0 0.0 
0.0 0.0 0.0 
0.0 0.0 0.0 
0.0 0.0 0.0 
0.0 0.0 0.0 
0.0 0.0 0.0 
0.0 0.0 0.0 
0.0 0.0 0.0 
0.0 0.0 0.0 
0.0 0.0 0.0 
0.0 0.0 0.0 
0.0 0.0 0.0 
0.0 0.0 0.0 
0.0 0.0 0.0 
0.0 0.0 0.0 
0.0 0.0 0.0 
0.0 0.0 0.0 
0.0 0.0 0.0 
0.0 0.0 0.0 
0.0 0.0 0.0 
0.0 0.0 0.0 
0.0 0.0 0.0 
0.0 0.0 0.0 
0.0 0.0 0.0 
0.0 0.0 0.0 
0.0 0.0 0.0 
0.0 0.0 0.0 
0.0 0.0 0.0 
0.0 0.0 0.0 
0.0 0.0 0.0 
0.0 0.0 0.0 
0.0 0.0 0.0 
0.0 0.0 0.0 
0.0 0.0 0.0 
0.0 0.0 0.0 
0.0 0.0 0.0 
0.0 0.0 0.0 
0.0 0.0 0.0 
0.0 0.0 0.0 
0.0 0.0 0.0 
0.0 0.0 0.0 
0.0 0.0 0.0 
0.0 0.0 0.0 
0.0 0.0 0.0 
0.0 0.0 0.0 
0.0 0.0 0.0 
0.0 0.0 0.0 
0.0 0.0 0.0 
0.0 0.0 0.0 
0.0 0.0 0.0 
0.0 0.0 0.0 
0.0 0.0 0.0 
0.0 0.0 0.0 
0.0 0.0 0.0 
0.0 0.0 0.0 
0.0 0.0 0.0 
0.0 0.0 0.0 
0.0 0.0 0.0 
0.0 0.0 0.0 
0.0 0.0 0.0 
0.0 0.0 0.0 
0.0 0.0 0.0 
0.0 0.0 0.0 
0.0 0.0 0.0 
0.0 0.0 0.0 
0.0 0.0 0.0 
0.0 0.0 0.0 
0.0 0.0 0.0 
0.0 0.0 0.0 
0.0 0.0 0.0 
0.0 0.0 0.0 
0.0 0.0 0.0 
0.0 0.0 0.0 
0.0 0.0 0.0 
0.0 0.0 0.0 
0.0 0.0 0.0 
0.0 0.0 0.0 
0.0 0.0 0.0 
0.0 0.0 0.0 
0.0 0.0 0.0 
0.0 0.0 0.0 
0.0 0.0 0.0 
0.0 0.0 0.0 
0.0 0.0 0.0 
0.0 0.0 0.0 
0.0 0.0 0.0 
0.0 0.0 0.0 
0.0 0.0 0.0 
0.0 0.0 0.0 
0.0 0.0 0.0 
0.0 0.0 0.0 
0.0 0.0 0.0 
0.0 0.0 0.0 
0.0 0.0 0.0 
0.0 0.0 0.0 
0.0 0.0 0.0 
0.0 0.0 0.0 
0.0 0.0 0.0 
0.0 0.0 0.0 
0.0 0.0 0.0 
0.0 0.0 0.0 
0.0 0.0 0.0 
0.0 0.0 0.0 
0.0 0.0 0.0 
0.0 0.0 0.0 
0.0 0.0 0.0 
0.0 0.0 0.0 
0.0 0.0 0.0 
0.0 0.0 0.0 
0.0 0.0 0.0 
0.0 0.0 0.0 
0.0 0.0 0.0 
0.0 0.0 0.0 
0.0 0.0 0.0 
0.0 0.0 0.0 
0.0 0.0 0.0 
0.0 0.0 0.0 
0.0 0.0 0.0 
0.0 0.0 0.0 
0.0 0.0 0.0 
0.0 0.0 0.0 
0.0 0.0 0.0 
0.0 0.0 0.0 
0.0 0.0 0.0 
0.0 0.0 0.0 
0.0 0.0 0.0 
0.0 0.0 0.0 
0.0 0.0 0.0 
0.0 0.0 0.0 
0.0 0.0 0.0 
0.0 0.0 0.0 
0.0 0.0 0.0 
0.0 0.0 0.0 
0.0 0.0 0.0 
0.0 0.0 0.0 
0.0 0.0 0.0 
0.0 0.0 0.0 
0.0 0.0 0.0 
0.0 0.0 0.0 
0.0 0.0 0.0 
0.0 0.0 0.0 
0.0 0.0 0.0 
0.0 0.0 0.0 
0.0 0.0 0.0 
0.0 0.0 0.0 
0.0 0.0 0.0 
0.0 0.0 0.0 
0.0 0.0 0.0 
0.0 0.0 0.0 
0.0 0.0 0.0 
0.0 0.0 0.0 
0.0 0.0 0.0 
0.0 0.0 0.0 
0.0 0.0 0.0 
0.0 0.0 0.0 
0.0 0.0 0.0 
0.0 0.0 0.0 
0.0 0.0 0.0 
0.0 0.0 0.0 
0.0 0.0 0.0 
0.0 0.0 0.0 
0.0 0.0 0.0 
0.0 0.0 0.0 
0.0 0.0 0.0 
0.0 0.0 0.0 
0.0 0.0 0.0 
0.0 0.0 0.0 
0.0 0.0 0.0 
0.0 0.0 0.0 
0.0 0.0 0.0 
0.0 0.0 0.0 
0.0 0.0 0.0 
0.0 0.0 0.0 
0.0 0.0 0.0 
0.0 0.0 0.0 
0.0 0.0 0.0 
0.0 0.0 0.0 
0.0 0.0 0.0 
0.0 0.0 0.0 
0.0 0.0 0.0 
0.0 0.0 0.0 
0.0 0.0 0.0 
0.0 0.0 0.0 
0.0 0.0 0.0 
0.0 0.0 0.0 
0.0 0.0 0.0 
0.0 0.0 0.0 
0.0 0.0 0.0 
0.0 0.0 0.0 
0.0 0.0 0.0 
0.0 0.0 0.0 
0.0 0.0 0.0 
0.0 0.0 0.0 
0.0 0.0 0.0 
0.0 0.0 0.0 
0.0 0.0 0.0 
0.0 0.0 0.0 
0.0 0.0 0.0 
0.0 0.0 0.0 
0.0 0.0 0.0 
0.0 0.0 0.0 
0.0 0.0 0.0 
0.0 0.0 0.0 
0.0 0.0 0.0 
0.0 0.0 0.0 
0.0 0.0 0.0 
0.0 0.0 0.0 
0.0 0.0 0.0 
0.0 0.0 0.0 
0.0 0.0 0.0 
0.0 0.0 0.0 
0.0 0.0 0.0 
0.0 0.0 0.0 
0.0 0.0 0.0 
0.0 0.0 0.0 
0.0 0.0 0.0 
0.0 0.0 0.0 
0.0 0.0 0.0 
0.0 0.0 0.0 
0.0 0.0 0.0 
0.0 0.0 0.0 
0.0 0.0 0.0 
0.0 0.0 0.0 
0.0 0.0 0.0 
0.0 0.0 0.0 
0.0 0.0 0.0 
0.0 0.0 0.0 
0.0 0.0 0.0 
0.0 0.0 0.0 
0.0 0.0 0.0 
0.0 0.0 0.0 
0.0 0.0 0.0 
0.0 0.0 0.0 
0.0 0.0 0.0 
0.0 0.0 0.0 
0.0 0.0 0.0 
0.0 0.0 0.0 
0.0 0.0 0.0 
0.0 0.0 0.0 
0.0 0.0 0.0 
0.0 0.0 0.0 
0.0 0.0 0.0 
0.0 0.0 0.0 
0.0 0.0 0.0 
0.0 0.0 0.0 
0.0 0.0 0.0 
0.0 0.0 0.0 
0.0 0.0 0.0 
0.0 0.0 0.0 
0.0 0.0 0.0 
0.0 0.0 0.0 
0.0 0.0 0.0 
0.0 0.0 0.0 
0.0 0.0 0.0 
0.0 0.0 0.0 
0.0 0.0 0.0 
0.0 0.0 0.0 
0.0 0.0 0.0 
0.0 0.0 0.0 
0.0 0.0 0.0 
0.0 0.0 0.0 
0.0 0.0 0.0 
0.0 0.0 0.0 
0.0 0.0 0.0 
0.0 0.0 0.0 
0.0 0.0 0.0 
0.0 0.0 0.0 
0.0 0.0 0.0 
0.0 0.0 0.0 
0.0 0.0 0.0 
0.0 0.0 0.0 
0.0 0.0 0.0 
0.0 0.0 0.0 
0.0 0.0 0.0 
0.0 0.0 0.0 
0.0 0.0 0.0 
0.0 0.0 0.0 
0.0 0.0 0.0 
0.0 0.0 0.0 
0.0 0.0 0.0 
0.0 0.0 0.0 
0.0 0.0 0.0 
0.0 0.0 0.0 
0.0 0.0 0.0 
0.0 0.0 0.0 
0.0 0.0 0.0 
0.0 0.0 0.0 
0.0 0.0 0.0 
0.0 0.0 0.0 
0.0 0.0 0.0 
0.0 0.0 0.0 
0.0 0.0 0.0 
0.0 0.0 0.0 
0.0 0.0 0.0 
0.0 0.0 0.0 
0.0 0.0 0.0 
0.0 0.0 0.0 
0.0 0.0 0.0 
0.0 0.0 0.0 
0.0 0.0 0.0 
0.0 0.0 0.0 
0.0 0.0 0.0 
0.0 0.0 0.0 
0.0 0.0 0.0 
0.0 0.0 0.0 
0.0 0.0 0.0 
0.0 0.0 0.0 
0.0 0.0 0.0 
0.0 0.0 0.0 
0.0 0.0 0.0 
0.0 0.0 0.0 
0.0 0.0 0.0 
0.0 0.0 0.0 
0.0 0.0 0.0 
0.0 0.0 0.0 
0.0 0.0 0.0 
0.0 0.0 0.0 
0.0 0.0 0.0 
0.0 0.0 0.0 
0.0 0.0 0.0 
0.0 0.0 0.0 
0.0 0.0 0.0 
0.0 0.0 0.0 
0.0 0.0 0.0 
0.0 0.0 0.0 
0.0 0.0 0.0 
0.0 0.0 0.0 
0.0 0.0 0.0 
0.0 0.0 0.0 
0.0 0.0 0.0 
0.0 0.0 0.0 
0.0 0.0 0.0 
0.0 0.0 0.0 
0.0 0.0 0.0 
0.0 0.0 0.0 
0.0 0.0 0.0 
0.0 0.0 0.0 
0.0 0.0 0.0 
0.0 0.0 0.0 
0.0 0.0 0.0 
0.0 0.0 0.0 
0.0 0.0 0.0 
0.0 0.0 0.0 
0.0 0.0 0.0 
0.0 0.0 0.0 
0.0 0.0 0.0 
0.0 0.0 0.0 
0.0 0.0 0.0 
0.0 0.0 0.0 
0.0 0.0 0.0 
0.0 0.0 0.0 
0.0 0.0 0.0 
0.0 0.0 0.0 
0.0 0.0 0.0 
0.0 0.0 0.0 
0.0 0.0 0.0 
0.0 0.0 0.0 
0.0 0.0 0.0 
0.0 0.0 0.0 
0.0 0.0 0.0 
0.0 0.0 0.0 
0.0 0.0 0.0 
0.0 0.0 0.0 
0.0 0.0 0.0 
0.0 0.0 0.0 
0.0 0.0 0.0 
0.0 0.0 0.0 
0.0 0.0 0.0 
0.0 0.0 0.0 
0.0 0.0 0.0 
0.0 0.0 0.0 
0.0 0.0 0.0 
0.0 0.0 0.0 
0.0 0.0 0.0 
0.0 0.0 0.0 
0.0 0.0 0.0 
0.0 0.0 0.0 
0.0 0.0 0.0 
0.0 0.0 0.0 
0.0 0.0 0.0 
0.0 0.0 0.0 
0.0 0.0 0.0 
0.0 0.0 0.0 
0.0 0.0 0.0 
0.0 0.0 0.0 
0.0 0.0 0.0 
0.0 0.0 0.0 
0.0 0.0 0.0 
0.0 0.0 0.0 
0.0 0.0 0.0 
0.0 0.0 0.0 
0.0 0.0 0.0 
0.0 0.0 0.0 
0.0 0.0 0.0 
0.0 0.0 0.0 
0.0 0.0 0.0 
0.0 0.0 0.0 
0.0 0.0 0.0 
0.0 0.0 0.0 
0.0 0.0 0.0 
0.0 0.0 0.0 
0.0 0.0 0.0 
0.0 0.0 0.0 
0.0 0.0 0.0 
0.0 0.0 0.0 
0.0 0.0 0.0 
0.0 0.0 0.0 
0.0 0.0 0.0 
0.0 0.0 0.0 
0.0 0.0 0.0 
0.0 0.0 0.0 
0.0 0.0 0.0 
0.0 0.0 0.0 
0.0 0.0 0.0 
0.0 0.0 0.0 
0.0 0.0 0.0 
0.0 0.0 0.0 
0.0 0.0 0.0 
0.0 0.0 0.0 
0.0 0.0 0.0 
0.0 0.0 0.0 
0.0 0.0 0.0 
0.0 0.0 0.0 
0.0 0.0 0.0 
0.0 0.0 0.0 
0.0 0.0 0.0 
0.0 0.0 0.0 
0.0 0.0 0.0 
0.0 0.0 0.0 
0.0 0.0 0.0 
0.0 0.0 0.0 
0.0 0.0 0.0 
0.0 0.0 0.0 
0.0 0.0 0.0 
0.0 0.0 0.0 
0.0 0.0 0.0 
0.0 0.0 0.0 
0.0 0.0 0.0 
0.0 0.0 0.0 
0.0 0.0 0.0 
0.0 0.0 0.0 
0.0 0.0 0.0 
0.0 0.0 0.0 
0.0 0.0 0.0 
0.0 0.0 0.0 
0.0 0.0 0.0 
0.0 0.0 0.0 
0.0 0.0 0.0 
0.0 0.0 0.0 
0.0 0.0 0.0 
0.0 0.0 0.0 
0.0 0.0 0.0 
0.0 0.0 0.0 
0.0 0.0 0.0 
0.0 0.0 0.0 
0.0 0.0 0.0 
0.0 0.0 0.0 
0.0 0.0 0.0 
0.0 0.0 0.0 
0.0 0.0 0.0 
0.0 0.0 0.0 
0.0 0.0 0.0 
0.0 0.0 0.0 
0.0 0.0 0.0 
0.0 0.0 0.0 
0.0 0.0 0.0 
0.0 0.0 0.0 
0.0 0.0 0.0 
0.0 0.0 0.0 
0.0 0.0 0.0 
0.0 0.0 0.0 
0.0 0.0 0.0 
0.0 0.0 0.0 
0.0 0.0 0.0 
0.0 0.0 0.0 
0.0 0.0 0.0 
0.0 0.0 0.0 
0.0 0.0 0.0 
0.0 0.0 0.0 
0.0 0.0 0.0 
0.0 0.0 0.0 
0.0 0.0 0.0 
0.0 0.0 0.0 
0.0 0.0 0.0 
0.0 0.0 0.0 
0.0 0.0 0.0 
0.0 0.0 0.0 
0.0 0.0 0.0 
0.0 0.0 0.0 
0.0 0.0 0.0 
0.0 0.0 0.0 
0.0 0.0 0.0 
0.0 0.0 0.0 
0.0 0.0 0.0 
0.0 0.0 0.0 
0.0 0.0 0.0 
0.0 0.0 0.0 
0.0 0.0 0.0 
0.0 0.0 0.0 
0.0 0.0 0.0 
0.0 0.0 0.0 
0.0 0.0 0.0 
0.0 0.0 0.0 
0.0 0.0 0.0 
0.0 0.0 0.0 
0.0 0.0 0.0 
0.0 0.0 0.0 
0.0 0.0 0.0 
0.0 0.0 0.0 
0.0 0.0 0.0 
0.0 0.0 0.0 
0.0 0.0 0.0 
0.0 0.0 0.0 
0.0 0.0 0.0 
0.0 0.0 0.0 
0.0 0.0 0.0 
0.0 0.0 0.0 
0.0 0.0 0.0 
0.0 0.0 0.0 
0.0 0.0 0.0 
0.0 0.0 0.0 
0.0 0.0 0.0 
0.0 0.0 0.0 
0.0 0.0 0.0 
0.0 0.0 0.0 
0.0 0.0 0.0 
0.0 0.0 0.0 
0.0 0.0 0.0 
0.0 0.0 0.0 
0.0 0.0 0.0 
0.0 0.0 0.0 
0.0 0.0 0.0 
0.0 0.0 0.0 
0.0 0.0 0.0 
0.0 0.0 0.0 
0.0 0.0 0.0 
0.0 0.0 0.0 
0.0 0.0 0.0 
0.0 0.0 0.0 
0.0 0.0 0.0 
0.0 0.0 0.0 
0.0 0.0 0.0 
0.0 0.0 0.0 
0.0 0.0 0.0 
0.0 0.0 0.0 
0.0 0.0 0.0 
0.0 0.0 0.0 
0.0 0.0 0.0 
0.0 0.0 0.0 
0.0 0.0 0.0 
0.0 0.0 0.0 
0.0 0.0 0.0 
0.0 0.0 0.0 
0.0 0.0 0.0 
0.0 0.0 0.0 
0.0 0.0 0.0 
0.0 0.0 0.0 
0.0 0.0 0.0 
0.0 0.0 0.0 
0.0 0.0 0.0 
0.0 0.0 0.0 
0.0 0.0 0.0 
0.0 0.0 0.0 
0.0 0.0 0.0 
0.0 0.0 0.0 
0.0 0.0 0.0 
0.0 0.0 0.0 
0.0 0.0 0.0 
0.0 0.0 0.0 
0.0 0.0 0.0 
0.0 0.0 0.0 
0.0 0.0 0.0 
0.0 0.0 0.0 
0.0 0.0 0.0 
0.0 0.0 0.0 
0.0 0.0 0.0 
0.0 0.0 0.0 
0.0 0.0 0.0 
0.0 0.0 0.0 
0.0 0.0 0.0 
0.0 0.0 0.0 
0.0 0.0 0.0 
0.0 0.0 0.0 
0.0 0.0 0.0 
0.0 0.0 0.0 
0.0 0.0 0.0 
0.0 0.0 0.0 
0.0 0.0 0.0 
0.0 0.0 0.0 
0.0 0.0 0.0 
0.0 0.0 0.0 
0.0 0.0 0.0 
0.0 0.0 0.0 
0.0 0.0 0.0 
0.0 0.0 0.0 
0.0 0.0 0.0 
0.0 0.0 0.0 
0.0 0.0 0.0 
0.0 0.0 0.0 
0.0 0.0 0.0 
0.0 0.0 0.0 
0.0 0.0 0.0 
0.0 0.0 0.0 
0.0 0.0 0.0 
0.0 0.0 0.0 
0.0 0.0 0.0 
0.0 0.0 0.0 
0.0 0.0 0.0 
0.0 0.0 0.0 
0.0 0.0 0.0 
0.0 0.0 0.0 
0.0 0.0 0.0 
0.0 0.0 0.0 
0.0 0.0 0.0 
0.0 0.0 0.0 
0.0 0.0 0.0 
0.0 0.0 0.0 
0.0 0.0 0.0 
0.0 0.0 0.0 
0.0 0.0 0.0 
0.0 0.0 0.0 
0.0 0.0 0.0 
0.0 0.0 0.0 
0.0 0.0 0.0 
0.0 0.0 0.0 
0.0 0.0 0.0 
0.0 0.0 0.0 
0.0 0.0 0.0 
0.0 0.0 0.0 
0.0 0.0 0.0 
0.0 0.0 0.0 
0.0 0.0 0.0 
0.0 0.0 0.0 
0.0 0.0 0.0 
0.0 0.0 0.0 
0.0 0.0 0.0 
0.0 0.0 0.0 
0.0 0.0 0.0 
0.0 0.0 0.0 
0.0 0.0 0.0 
0.0 0.0 0.0 
0.0 0.0 0.0 
0.0 0.0 0.0 
0.0 0.0 0.0 
0.0 0.0 0.0 
0.0 0.0 0.0 
0.0 0.0 0.0 
0.0 0.0 0.0 
0.0 0.0 0.0 
0.0 0.0 0.0 
0.0 0.0 0.0 
0.0 0.0 0.0 
0.0 0.0 0.0 
0.0 0.0 0.0 
0.0 0.0 0.0 
0.0 0.0 0.0 
0.0 0.0 0.0 
0.0 0.0 0.0 
0.0 0.0 0.0 
0.0 0.0 0.0 
0.0 0.0 0.0 
0.0 0.0 0.0 
0.0 0.0 0.0 
0.0 0.0 0.0 
0.0 0.0 0.0 
0.0 0.0 0.0 
0.0 0.0 0.0 
0.0 0.0 0.0 
0.0 0.0 0.0 
0.0 0.0 0.0 
0.0 0.0 0.0 
0.0 0.0 0.0 
0.0 0.0 0.0 
0.0 0.0 0.0 
0.0 0.0 0.0 
0.0 0.0 0.0 
0.0 0.0 0.0 
0.0 0.0 0.0 
0.0 0.0 0.0 
0.0 0.0 0.0 
0.0 0.0 0.0 
0.0 0.0 0.0 
0.0 0.0 0.0 
0.0 0.0 0.0 
0.0 0.0 0.0 
0.0 0.0 0.0 
0.0 0.0 0.0 
0.0 0.0 0.0 
0.0 0.0 0.0 
0.0 0.0 0.0 
0.0 0.0 0.0 
0.0 0.0 0.0 
0.0 0.0 0.0 
0.0 0.0 0.0 
0.0 0.0 0.0 
0.0 0.0 0.0 
0.0 0.0 0.0 
0.0 0.0 0.0 
0.0 0.0 0.0 
0.0 0.0 0.0 
0.0 0.0 0.0 
0.0 0.0 0.0 
0.0 0.0 0.0 
0.0 0.0 0.0 
0.0 0.0 0.0 
0.0 0.0 0.0 
0.0 0.0 0.0 
0.0 0.0 0.0 
0.0 0.0 0.0 
0.0 0.0 0.0 
0.0 0.0 0.0 
0.0 0.0 0.0 
0.0 0.0 0.0 
0.0 0.0 0.0 
0.0 0.0 0.0 
0.0 0.0 0.0 
0.0 0.0 0.0 
0.0 0.0 0.0 
0.0 0.0 0.0 
0.0 0.0 0.0 
0.0 0.0 0.0 
0.0 0.0 0.0 
0.0 0.0 0.0 
0.0 0.0 0.0 
0.0 0.0 0.0 
0.0 0.0 0.0 
0.0 0.0 0.0 
0.0 0.0 0.0 
0.0 0.0 0.0 
0.0 0.0 0.0 
0.0 0.0 0.0 
0.0 0.0 0.0 
0.0 0.0 0.0 
0.0 0.0 0.0 
0.0 0.0 0.0 
0.0 0.0 0.0 
0.0 0.0 0.0 
0.0 0.0 0.0 
0.0 0.0 0.0 
0.0 0.0 0.0 
0.0 0.0 0.0 
0.0 0.0 0.0 
0.0 0.0 0.0 
0.0 0.0 0.0 
0.0 0.0 0.0 
0.0 0.0 0.0 
0.0 0.0 0.0 
0.0 0.0 0.0 
0.0 0.0 0.0 
0.0 0.0 0.0 
0.0 0.0 0.0 
0.0 0.0 0.0 
0.0 0.0 0.0 
0.0 0.0 0.0 
0.0 0.0 0.0 
0.0 0.0 0.0 
0.0 0.0 0.0 
0.0 0.0 0.0 
0.0 0.0 0.0 
0.0 0.0 0.0 
0.0 0.0 0.0 
0.0 0.0 0.0 
0.0 0.0 0.0 
0.0 0.0 0.0 
0.0 0.0 0.0 
0.0 0.0 0.0 
0.0 0.0 0.0 
0.0 0.0 0.0 
0.0 0.0 0.0 
0.0 0.0 0.0 
0.0 0.0 0.0 
0.0 0.0 0.0 
0.0 0.0 0.0 
0.0 0.0 0.0 
0.0 0.0 0.0 
0.0 0.0 0.0 
0.0 0.0 0.0 
0.0 0.0 0.0 
0.0 0.0 0.0 
0.0 0.0 0.0 
0.0 0.0 0.0 
0.0 0.0 0.0 
0.0 0.0 0.0 
0.0 0.0 0.0 
0.0 0.0 0.0 
0.0 0.0 0.0 
0.0 0.0 0.0 
0.0 0.0 0.0 
0.0 0.0 0.0 
0.0 0.0 0.0 
0.0 0.0 0.0 
0.0 0.0 0.0 
0.0 0.0 0.0 
0.0 0.0 0.0 
0.0 0.0 0.0 
0.0 0.0 0.0 
0.0 0.0 0.0 
0.0 0.0 0.0 
0.0 0.0 0.0 
0.0 0.0 0.0 
0.0 0.0 0.0 
0.0 0.0 0.0 
0.0 0.0 0.0 
0.0 0.0 0.0 
0.0 0.0 0.0 
0.0 0.0 0.0 
0.0 0.0 0.0 
0.0 0.0 0.0 
0.0 0.0 0.0 
0.0 0.0 0.0 
0.0 0.0 0.0 
0.0 0.0 0.0 
0.0 0.0 0.0 
0.0 0.0 0.0 
0.0 0.0 0.0 

VECTORS node_bounda_dof_materi_velocity_y float
0.0 0.0 0.0 
0.0 0.0 0.0 
0.0 1.000000000000e+00 0.0 
0.0 1.000000000000e+00 0.0 
0.0 0.0 0.0 
0.0 0.0 0.0 
0.0 0.0 0.0 
0.0 0.0 0.0 
0.0 0.0 0.0 
0.0 0.0 0.0 
0.0 0.0 0.0 
0.0 0.0 0.0 
0.0 0.0 0.0 
0.0 0.0 0.0 
0.0 0.0 0.0 
0.0 0.0 0.0 
0.0 0.0 0.0 
0.0 0.0 0.0 
0.0 0.0 0.0 
0.0 0.0 0.0 
0.0 0.0 0.0 
0.0 0.0 0.0 
0.0 0.0 0.0 
0.0 1.000000000000e+00 0.0 
0.0 1.000000000000e+00 0.0 
0.0 1.000000000000e+00 0.0 
0.0 1.000000000000e+00 0.0 
0.0 1.000000000000e+00 0.0 
0.0 1.000000000000e+00 0.0 
0.0 1.000000000000e+00 0.0 
0.0 1.000000000000e+00 0.0 
0.0 1.000000000000e+00 0.0 
0.0 1.000000000000e+00 0.0 
0.0 1.000000000000e+00 0.0 
0.0 1.000000000000e+00 0.0 
0.0 1.000000000000e+00 0.0 
0.0 1.000000000000e+00 0.0 
0.0 1.000000000000e+00 0.0 
0.0 1.000000000000e+00 0.0 
0.0 1.000000000000e+00 0.0 
0.0 1.000000000000e+00 0.0 
0.0 1.000000000000e+00 0.0 
0.0 1.000000000000e+00 0.0 
0.0 1.000000000000e+00 0.0 
0.0 1.000000000000e+00 0.0 
0.0 1.000000000000e+00 0.0 
0.0 1.000000000000e+00 0.0 
0.0 1.000000000000e+00 0.0 
0.0 1.000000000000e+00 0.0 
0.0 1.000000000000e+00 0.0 
0.0 1.000000000000e+00 0.0 
0.0 1.000000000000e+00 0.0 
0.0 1.000000000000e+00 0.0 
0.0 1.000000000000e+00 0.0 
0.0 1.000000000000e+00 0.0 
0.0 1.000000000000e+00 0.0 
0.0 1.000000000000e+00 0.0 
0.0 1.000000000000e+00 0.0 
0.0 1.000000000000e+00 0.0 
0.0 1.000000000000e+00 0.0 
0.0 1.000000000000e+00 0.0 
0.0 1.000000000000e+00 0.0 
0.0 1.000000000000e+00 0.0 
0.0 1.000000000000e+00 0.0 
0.0 1.000000000000e+00 0.0 
0.0 1.000000000000e+00 0.0 
0.0 1.000000000000e+00 0.0 
0.0 1.000000000000e+00 0.0 
0.0 1.000000000000e+00 0.0 
0.0 1.000000000000e+00 0.0 
0.0 1.000000000000e+00 0.0 
0.0 1.000000000000e+00 0.0 
0.0 0.0 0.0 
0.0 0.0 0.0 
0.0 0.0 0.0 
0.0 0.0 0.0 
0.0 0.0 0.0 
0.0 0.0 0.0 
0.0 0.0 0.0 
0.0 0.0 0.0 
0.0 0.0 0.0 
0.0 0.0 0.0 
0.0 0.0 0.0 
0.0 0.0 0.0 
0.0 0.0 0.0 
0.0 0.0 0.0 
0.0 0.0 0.0 
0.0 0.0 0.0 
0.0 0.0 0.0 
0.0 0.0 0.0 
0.0 0.0 0.0 
0.0 0.0 0.0 
0.0 0.0 0.0 
0.0 0.0 0.0 
0.0 0.0 0.0 
0.0 0.0 0.0 
0.0 0.0 0.0 
0.0 0.0 0.0 
0.0 0.0 0.0 
0.0 0.0 0.0 
0.0 0.0 0.0 
0.0 0.0 0.0 
0.0 0.0 0.0 
0.0 0.0 0.0 
0.0 0.0 0.0 
0.0 0.0 0.0 
0.0 0.0 0.0 
0.0 0.0 0.0 
0.0 0.0 0.0 
0.0 0.0 0.0 
0.0 0.0 0.0 
0.0 0.0 0.0 
0.0 0.0 0.0 
0.0 0.0 0.0 
0.0 0.0 0.0 
0.0 0.0 0.0 
0.0 0.0 0.0 
0.0 0.0 0.0 
0.0 0.0 0.0 
0.0 0.0 0.0 
0.0 0.0 0.0 
0.0 0.0 0.0 
0.0 0.0 0.0 
0.0 0.0 0.0 
0.0 0.0 0.0 
0.0 0.0 0.0 
0.0 0.0 0.0 
0.0 0.0 0.0 
0.0 0.0 0.0 
0.0 0.0 0.0 
0.0 0.0 0.0 
0.0 0.0 0.0 
0.0 0.0 0.0 
0.0 0.0 0.0 
0.0 0.0 0.0 
0.0 0.0 0.0 
0.0 0.0 0.0 
0.0 0.0 0.0 
0.0 0.0 0.0 
0.0 0.0 0.0 
0.0 0.0 0.0 
0.0 0.0 0.0 
0.0 0.0 0.0 
0.0 0.0 0.0 
0.0 0.0 0.0 
0.0 0.0 0.0 
0.0 0.0 0.0 
0.0 0.0 0.0 
0.0 0.0 0.0 
0.0 0.0 0.0 
0.0 0.0 0.0 
0.0 0.0 0.0 
0.0 0.0 0.0 
0.0 0.0 0.0 
0.0 0.0 0.0 
0.0 0.0 0.0 
0.0 0.0 0.0 
0.0 0.0 0.0 
0.0 0.0 0.0 
0.0 0.0 0.0 
0.0 0.0 0.0 
0.0 0.0 0.0 
0.0 0.0 0.0 
0.0 0.0 0.0 
0.0 0.0 0.0 
0.0 0.0 0.0 
0.0 0.0 0.0 
0.0 0.0 0.0 
0.0 0.0 0.0 
0.0 0.0 0.0 
0.0 0.0 0.0 
0.0 0.0 0.0 
0.0 0.0 0.0 
0.0 0.0 0.0 
0.0 0.0 0.0 
0.0 0.0 0.0 
0.0 0.0 0.0 
0.0 0.0 0.0 
0.0 0.0 0.0 
0.0 0.0 0.0 
0.0 0.0 0.0 
0.0 0.0 0.0 
0.0 0.0 0.0 
0.0 0.0 0.0 
0.0 0.0 0.0 
0.0 0.0 0.0 
0.0 0.0 0.0 
0.0 0.0 0.0 
0.0 0.0 0.0 
0.0 0.0 0.0 
0.0 0.0 0.0 
0.0 0.0 0.0 
0.0 0.0 0.0 
0.0 0.0 0.0 
0.0 0.0 0.0 
0.0 0.0 0.0 
0.0 0.0 0.0 
0.0 0.0 0.0 
0.0 0.0 0.0 
0.0 0.0 0.0 
0.0 0.0 0.0 
0.0 0.0 0.0 
0.0 0.0 0.0 
0.0 0.0 0.0 
0.0 0.0 0.0 
0.0 0.0 0.0 
0.0 0.0 0.0 
0.0 0.0 0.0 
0.0 0.0 0.0 
0.0 0.0 0.0 
0.0 0.0 0.0 
0.0 0.0 0.0 
0.0 0.0 0.0 
0.0 0.0 0.0 
0.0 0.0 0.0 
0.0 0.0 0.0 
0.0 0.0 0.0 
0.0 0.0 0.0 
0.0 0.0 0.0 
0.0 0.0 0.0 
0.0 0.0 0.0 
0.0 0.0 0.0 
0.0 0.0 0.0 
0.0 0.0 0.0 
0.0 0.0 0.0 
0.0 0.0 0.0 
0.0 0.0 0.0 
0.0 0.0 0.0 
0.0 0.0 0.0 
0.0 0.0 0.0 
0.0 0.0 0.0 
0.0 0.0 0.0 
0.0 0.0 0.0 
0.0 0.0 0.0 
0.0 0.0 0.0 
0.0 0.0 0.0 
0.0 0.0 0.0 
0.0 0.0 0.0 
0.0 0.0 0.0 
0.0 0.0 0.0 
0.0 0.0 0.0 
0.0 0.0 0.0 
0.0 0.0 0.0 
0.0 0.0 0.0 
0.0 0.0 0.0 
0.0 0.0 0.0 
0.0 0.0 0.0 
0.0 0.0 0.0 
0.0 0.0 0.0 
0.0 0.0 0.0 
0.0 0.0 0.0 
0.0 0.0 0.0 
0.0 0.0 0.0 
0.0 0.0 0.0 
0.0 0.0 0.0 
0.0 0.0 0.0 
0.0 0.0 0.0 
0.0 0.0 0.0 
0.0 0.0 0.0 
0.0 0.0 0.0 
0.0 0.0 0.0 
0.0 0.0 0.0 
0.0 0.0 0.0 
0.0 0.0 0.0 
0.0 0.0 0.0 
0.0 0.0 0.0 
0.0 0.0 0.0 
0.0 0.0 0.0 
0.0 0.0 0.0 
0.0 0.0 0.0 
0.0 0.0 0.0 
0.0 0.0 0.0 
0.0 0.0 0.0 
0.0 0.0 0.0 
0.0 0.0 0.0 
0.0 0.0 0.0 
0.0 0.0 0.0 
0.0 0.0 0.0 
0.0 0.0 0.0 
0.0 0.0 0.0 
0.0 0.0 0.0 
0.0 0.0 0.0 
0.0 0.0 0.0 
0.0 0.0 0.0 
0.0 0.0 0.0 
0.0 0.0 0.0 
0.0 0.0 0.0 
0.0 0.0 0.0 
0.0 0.0 0.0 
0.0 0.0 0.0 
0.0 0.0 0.0 
0.0 0.0 0.0 
0.0 0.0 0.0 
0.0 0.0 0.0 
0.0 0.0 0.0 
0.0 0.0 0.0 
0.0 0.0 0.0 
0.0 0.0 0.0 
0.0 0.0 0.0 
0.0 0.0 0.0 
0.0 0.0 0.0 
0.0 0.0 0.0 
0.0 0.0 0.0 
0.0 0.0 0.0 
0.0 0.0 0.0 
0.0 0.0 0.0 
0.0 0.0 0.0 
0.0 0.0 0.0 
0.0 0.0 0.0 
0.0 0.0 0.0 
0.0 0.0 0.0 
0.0 0.0 0.0 
0.0 0.0 0.0 
0.0 0.0 0.0 
0.0 0.0 0.0 
0.0 0.0 0.0 
0.0 0.0 0.0 
0.0 0.0 0.0 
0.0 0.0 0.0 
0.0 0.0 0.0 
0.0 0.0 0.0 
0.0 0.0 0.0 
0.0 0.0 0.0 
0.0 0.0 0.0 
0.0 0.0 0.0 
0.0 0.0 0.0 
0.0 0.0 0.0 
0.0 0.0 0.0 
0.0 0.0 0.0 
0.0 0.0 0.0 
0.0 0.0 0.0 
0.0 0.0 0.0 
0.0 0.0 0.0 
0.0 0.0 0.0 
0.0 0.0 0.0 
0.0 0.0 0.0 
0.0 0.0 0.0 
0.0 0.0 0.0 
0.0 0.0 0.0 
0.0 0.0 0.0 
0.0 0.0 0.0 
0.0 0.0 0.0 
0.0 0.0 0.0 
0.0 0.0 0.0 
0.0 0.0 0.0 
0.0 0.0 0.0 
0.0 0.0 0.0 
0.0 0.0 0.0 
0.0 0.0 0.0 
0.0 0.0 0.0 
0.0 0.0 0.0 
0.0 0.0 0.0 
0.0 0.0 0.0 
0.0 0.0 0.0 
0.0 0.0 0.0 
0.0 0.0 0.0 
0.0 0.0 0.0 
0.0 0.0 0.0 
0.0 0.0 0.0 
0.0 0.0 0.0 
0.0 0.0 0.0 
0.0 0.0 0.0 
0.0 0.0 0.0 
0.0 0.0 0.0 
0.0 0.0 0.0 
0.0 0.0 0.0 
0.0 0.0 0.0 
0.0 0.0 0.0 
0.0 0.0 0.0 
0.0 0.0 0.0 
0.0 0.0 0.0 
0.0 0.0 0.0 
0.0 0.0 0.0 
0.0 0.0 0.0 
0.0 0.0 0.0 
0.0 0.0 0.0 
0.0 0.0 0.0 
0.0 0.0 0.0 
0.0 0.0 0.0 
0.0 0.0 0.0 
0.0 0.0 0.0 
0.0 0.0 0.0 
0.0 0.0 0.0 
0.0 0.0 0.0 
0.0 0.0 0.0 
0.0 0.0 0.0 
0.0 0.0 0.0 
0.0 0.0 0.0 
0.0 0.0 0.0 
0.0 0.0 0.0 
0.0 0.0 0.0 
0.0 0.0 0.0 
0.0 0.0 0.0 
0.0 0.0 0.0 
0.0 0.0 0.0 
0.0 0.0 0.0 
0.0 0.0 0.0 
0.0 0.0 0.0 
0.0 0.0 0.0 
0.0 0.0 0.0 
0.0 0.0 0.0 
0.0 0.0 0.0 
0.0 0.0 0.0 
0.0 0.0 0.0 
0.0 0.0 0.0 
0.0 0.0 0.0 
0.0 0.0 0.0 
0.0 0.0 0.0 
0.0 0.0 0.0 
0.0 0.0 0.0 
0.0 0.0 0.0 
0.0 0.0 0.0 
0.0 0.0 0.0 
0.0 0.0 0.0 
0.0 0.0 0.0 
0.0 0.0 0.0 
0.0 0.0 0.0 
0.0 0.0 0.0 
0.0 0.0 0.0 
0.0 0.0 0.0 
0.0 0.0 0.0 
0.0 0.0 0.0 
0.0 0.0 0.0 
0.0 0.0 0.0 
0.0 0.0 0.0 
0.0 0.0 0.0 
0.0 0.0 0.0 
0.0 0.0 0.0 
0.0 0.0 0.0 
0.0 0.0 0.0 
0.0 0.0 0.0 
0.0 0.0 0.0 
0.0 0.0 0.0 
0.0 0.0 0.0 
0.0 0.0 0.0 
0.0 0.0 0.0 
0.0 0.0 0.0 
0.0 0.0 0.0 
0.0 0.0 0.0 
0.0 0.0 0.0 
0.0 0.0 0.0 
0.0 0.0 0.0 
0.0 0.0 0.0 
0.0 0.0 0.0 
0.0 0.0 0.0 
0.0 0.0 0.0 
0.0 0.0 0.0 
0.0 0.0 0.0 
0.0 0.0 0.0 
0.0 0.0 0.0 
0.0 0.0 0.0 
0.0 0.0 0.0 
0.0 0.0 0.0 
0.0 0.0 0.0 
0.0 0.0 0.0 
0.0 0.0 0.0 
0.0 0.0 0.0 
0.0 0.0 0.0 
0.0 0.0 0.0 
0.0 0.0 0.0 
0.0 0.0 0.0 
0.0 0.0 0.0 
0.0 0.0 0.0 
0.0 0.0 0.0 
0.0 0.0 0.0 
0.0 0.0 0.0 
0.0 0.0 0.0 
0.0 0.0 0.0 
0.0 0.0 0.0 
0.0 0.0 0.0 
0.0 0.0 0.0 
0.0 0.0 0.0 
0.0 0.0 0.0 
0.0 0.0 0.0 
0.0 0.0 0.0 
0.0 0.0 0.0 
0.0 0.0 0.0 
0.0 0.0 0.0 
0.0 0.0 0.0 
0.0 0.0 0.0 
0.0 0.0 0.0 
0.0 0.0 0.0 
0.0 0.0 0.0 
0.0 0.0 0.0 
0.0 0.0 0.0 
0.0 0.0 0.0 
0.0 0.0 0.0 
0.0 0.0 0.0 
0.0 0.0 0.0 
0.0 0.0 0.0 
0.0 0.0 0.0 
0.0 0.0 0.0 
0.0 0.0 0.0 
0.0 0.0 0.0 
0.0 0.0 0.0 
0.0 0.0 0.0 
0.0 0.0 0.0 
0.0 0.0 0.0 
0.0 0.0 0.0 
0.0 0.0 0.0 
0.0 0.0 0.0 
0.0 0.0 0.0 
0.0 0.0 0.0 
0.0 0.0 0.0 
0.0 0.0 0.0 
0.0 0.0 0.0 
0.0 0.0 0.0 
0.0 0.0 0.0 
0.0 0.0 0.0 
0.0 0.0 0.0 
0.0 0.0 0.0 
0.0 0.0 0.0 
0.0 0.0 0.0 
0.0 0.0 0.0 
0.0 0.0 0.0 
0.0 0.0 0.0 
0.0 0.0 0.0 
0.0 0.0 0.0 
0.0 0.0 0.0 
0.0 0.0 0.0 
0.0 0.0 0.0 
0.0 0.0 0.0 
0.0 0.0 0.0 
0.0 0.0 0.0 
0.0 0.0 0.0 
0.0 0.0 0.0 
0.0 0.0 0.0 
0.0 0.0 0.0 
0.0 0.0 0.0 
0.0 0.0 0.0 
0.0 0.0 0.0 
0.0 0.0 0.0 
0.0 0.0 0.0 
0.0 0.0 0.0 
0.0 0.0 0.0 
0.0 0.0 0.0 
0.0 0.0 0.0 
0.0 0.0 0.0 
0.0 0.0 0.0 
0.0 0.0 0.0 
0.0 0.0 0.0 
0.0 0.0 0.0 
0.0 0.0 0.0 
0.0 0.0 0.0 
0.0 0.0 0.0 
0.0 0.0 0.0 
0.0 0.0 0.0 
0.0 0.0 0.0 
0.0 0.0 0.0 
0.0 0.0 0.0 
0.0 0.0 0.0 
0.0 0.0 0.0 
0.0 0.0 0.0 
0.0 0.0 0.0 
0.0 0.0 0.0 
0.0 0.0 0.0 
0.0 0.0 0.0 
0.0 0.0 0.0 
0.0 0.0 0.0 
0.0 0.0 0.0 
0.0 0.0 0.0 
0.0 0.0 0.0 
0.0 0.0 0.0 
0.0 0.0 0.0 
0.0 0.0 0.0 
0.0 0.0 0.0 
0.0 0.0 0.0 
0.0 0.0 0.0 
0.0 0.0 0.0 
0.0 0.0 0.0 
0.0 0.0 0.0 
0.0 0.0 0.0 
0.0 0.0 0.0 
0.0 0.0 0.0 
0.0 0.0 0.0 
0.0 0.0 0.0 
0.0 0.0 0.0 
0.0 0.0 0.0 
0.0 0.0 0.0 
0.0 0.0 0.0 
0.0 0.0 0.0 
0.0 0.0 0.0 
0.0 0.0 0.0 
0.0 0.0 0.0 
0.0 0.0 0.0 
0.0 0.0 0.0 
0.0 0.0 0.0 
0.0 0.0 0.0 
0.0 0.0 0.0 
0.0 0.0 0.0 
0.0 0.0 0.0 
0.0 0.0 0.0 
0.0 0.0 0.0 
0.0 0.0 0.0 
0.0 0.0 0.0 
0.0 0.0 0.0 
0.0 0.0 0.0 
0.0 0.0 0.0 
0.0 0.0 0.0 
0.0 0.0 0.0 
0.0 0.0 0.0 
0.0 0.0 0.0 
0.0 0.0 0.0 
0.0 0.0 0.0 
0.0 0.0 0.0 
0.0 0.0 0.0 
0.0 0.0 0.0 
0.0 0.0 0.0 
0.0 0.0 0.0 
0.0 0.0 0.0 
0.0 0.0 0.0 
0.0 0.0 0.0 
0.0 0.0 0.0 
0.0 0.0 0.0 
0.0 0.0 0.0 
0.0 0.0 0.0 
0.0 0.0 0.0 
0.0 0.0 0.0 
0.0 0.0 0.0 
0.0 0.0 0.0 
0.0 0.0 0.0 
0.0 0.0 0.0 
0.0 0.0 0.0 
0.0 0.0 0.0 
0.0 0.0 0.0 
0.0 0.0 0.0 
0.0 0.0 0.0 
0.0 0.0 0.0 
0.0 0.0 0.0 
0.0 0.0 0.0 
0.0 0.0 0.0 
0.0 0.0 0.0 
0.0 0.0 0.0 
0.0 0.0 0.0 
0.0 0.0 0.0 
0.0 0.0 0.0 
0.0 0.0 0.0 
0.0 0.0 0.0 
0.0 0.0 0.0 
0.0 0.0 0.0 
0.0 0.0 0.0 
0.0 0.0 0.0 
0.0 0.0 0.0 
0.0 0.0 0.0 
0.0 0.0 0.0 
0.0 0.0 0.0 
0.0 0.0 0.0 
0.0 0.0 0.0 
0.0 0.0 0.0 
0.0 0.0 0.0 
0.0 0.0 0.0 
0.0 0.0 0.0 
0.0 0.0 0.0 
0.0 0.0 0.0 
0.0 0.0 0.0 
0.0 0.0 0.0 
0.0 0.0 0.0 
0.0 0.0 0.0 
0.0 0.0 0.0 
0.0 0.0 0.0 
0.0 0.0 0.0 
0.0 0.0 0.0 
0.0 0.0 0.0 
0.0 0.0 0.0 
0.0 0.0 0.0 
0.0 0.0 0.0 
0.0 0.0 0.0 
0.0 0.0 0.0 
0.0 0.0 0.0 
0.0 0.0 0.0 
0.0 0.0 0.0 
0.0 0.0 0.0 
0.0 0.0 0.0 
0.0 0.0 0.0 
0.0 0.0 0.0 
0.0 0.0 0.0 
0.0 0.0 0.0 
0.0 0.0 0.0 
0.0 0.0 0.0 
0.0 0.0 0.0 
0.0 0.0 0.0 
0.0 0.0 0.0 
0.0 0.0 0.0 
0.0 0.0 0.0 
0.0 0.0 0.0 
0.0 0.0 0.0 
0.0 0.0 0.0 
0.0 0.0 0.0 
0.0 0.0 0.0 
0.0 0.0 0.0 
0.0 0.0 0.0 
0.0 0.0 0.0 
0.0 0.0 0.0 
0.0 0.0 0.0 
0.0 0.0 0.0 
0.0 0.0 0.0 
0.0 0.0 0.0 
0.0 0.0 0.0 
0.0 0.0 0.0 
0.0 0.0 0.0 
0.0 0.0 0.0 
0.0 0.0 0.0 
0.0 0.0 0.0 
0.0 0.0 0.0 
0.0 0.0 0.0 
0.0 0.0 0.0 
0.0 0.0 0.0 
0.0 0.0 0.0 
0.0 0.0 0.0 
0.0 0.0 0.0 
0.0 0.0 0.0 
0.0 0.0 0.0 
0.0 0.0 0.0 
0.0 0.0 0.0 
0.0 0.0 0.0 
0.0 0.0 0.0 
0.0 0.0 0.0 
0.0 0.0 0.0 
0.0 0.0 0.0 
0.0 0.0 0.0 
0.0 0.0 0.0 
0.0 0.0 0.0 
0.0 0.0 0.0 
0.0 0.0 0.0 
0.0 0.0 0.0 
0.0 0.0 0.0 
0.0 0.0 0.0 
0.0 0.0 0.0 
0.0 0.0 0.0 
0.0 0.0 0.0 
0.0 0.0 0.0 
0.0 0.0 0.0 
0.0 0.0 0.0 
0.0 0.0 0.0 
0.0 0.0 0.0 
0.0 0.0 0.0 
0.0 0.0 0.0 
0.0 0.0 0.0 
0.0 0.0 0.0 
0.0 0.0 0.0 
0.0 0.0 0.0 
0.0 0.0 0.0 
0.0 0.0 0.0 
0.0 0.0 0.0 
0.0 0.0 0.0 
0.0 0.0 0.0 
0.0 0.0 0.0 
0.0 0.0 0.0 
0.0 0.0 0.0 
0.0 0.0 0.0 
0.0 0.0 0.0 
0.0 0.0 0.0 
0.0 0.0 0.0 
0.0 0.0 0.0 
0.0 0.0 0.0 
0.0 0.0 0.0 
0.0 0.0 0.0 
0.0 0.0 0.0 
0.0 0.0 0.0 
0.0 0.0 0.0 
0.0 0.0 0.0 
0.0 0.0 0.0 
0.0 0.0 0.0 
0.0 0.0 0.0 
0.0 0.0 0.0 
0.0 0.0 0.0 
0.0 0.0 0.0 
0.0 0.0 0.0 
0.0 0.0 0.0 
0.0 0.0 0.0 
0.0 0.0 0.0 
0.0 0.0 0.0 
0.0 0.0 0.0 
0.0 0.0 0.0 
0.0 0.0 0.0 
0.0 0.0 0.0 
0.0 0.0 0.0 
0.0 0.0 0.0 
0.0 0.0 0.0 
0.0 0.0 0.0 
0.0 0.0 0.0 
0.0 0.0 0.0 
0.0 0.0 0.0 
0.0 0.0 0.0 
0.0 0.0 0.0 
0.0 0.0 0.0 
0.0 0.0 0.0 
0.0 0.0 0.0 
0.0 0.0 0.0 
0.0 0.0 0.0 
0.0 0.0 0.0 
0.0 0.0 0.0 
0.0 0.0 0.0 
0.0 0.0 0.0 
0.0 0.0 0.0 
0.0 0.0 0.0 
0.0 0.0 0.0 
0.0 0.0 0.0 
0.0 0.0 0.0 
0.0 0.0 0.0 
0.0 0.0 0.0 
0.0 0.0 0.0 
0.0 0.0 0.0 
0.0 0.0 0.0 
0.0 0.0 0.0 
0.0 0.0 0.0 
0.0 0.0 0.0 
0.0 0.0 0.0 
0.0 0.0 0.0 
0.0 0.0 0.0 
0.0 0.0 0.0 
0.0 0.0 0.0 
0.0 0.0 0.0 
0.0 0.0 0.0 
0.0 0.0 0.0 
0.0 0.0 0.0 
0.0 0.0 0.0 
0.0 0.0 0.0 
0.0 0.0 0.0 
0.0 0.0 0.0 
0.0 0.0 0.0 
0.0 0.0 0.0 
0.0 0.0 0.0 
0.0 0.0 0.0 
0.0 0.0 0.0 
0.0 0.0 0.0 
0.0 0.0 0.0 
0.0 0.0 0.0 
0.0 0.0 0.0 
0.0 0.0 0.0 
0.0 0.0 0.0 
0.0 0.0 0.0 
0.0 0.0 0.0 
0.0 0.0 0.0 
0.0 0.0 0.0 
0.0 0.0 0.0 
0.0 0.0 0.0 
0.0 0.0 0.0 
0.0 0.0 0.0 
0.0 0.0 0.0 
0.0 0.0 0.0 
0.0 0.0 0.0 
0.0 0.0 0.0 
0.0 0.0 0.0 
0.0 0.0 0.0 
0.0 0.0 0.0 
0.0 0.0 0.0 
0.0 0.0 0.0 
0.0 0.0 0.0 
0.0 0.0 0.0 
0.0 0.0 0.0 
0.0 0.0 0.0 
0.0 0.0 0.0 
0.0 0.0 0.0 
0.0 0.0 0.0 
0.0 0.0 0.0 
0.0 0.0 0.0 
0.0 0.0 0.0 
0.0 0.0 0.0 
0.0 0.0 0.0 
0.0 0.0 0.0 
0.0 0.0 0.0 
0.0 0.0 0.0 
0.0 0.0 0.0 
0.0 0.0 0.0 
0.0 0.0 0.0 
0.0 0.0 0.0 
0.0 0.0 0.0 
0.0 0.0 0.0 
0.0 0.0 0.0 
0.0 0.0 0.0 
0.0 0.0 0.0 
0.0 0.0 0.0 
0.0 0.0 0.0 
0.0 0.0 0.0 
0.0 0.0 0.0 
0.0 0.0 0.0 
0.0 0.0 0.0 
0.0 0.0 0.0 
0.0 0.0 0.0 
0.0 0.0 0.0 
0.0 0.0 0.0 
0.0 0.0 0.0 
0.0 0.0 0.0 
0.0 0.0 0.0 
0.0 0.0 0.0 
0.0 0.0 0.0 
0.0 0.0 0.0 
0.0 0.0 0.0 
0.0 0.0 0.0 
0.0 0.0 0.0 
0.0 0.0 0.0 
0.0 0.0 0.0 
0.0 0.0 0.0 
0.0 0.0 0.0 
0.0 0.0 0.0 
0.0 0.0 0.0 
0.0 0.0 0.0 
0.0 0.0 0.0 
0.0 0.0 0.0 
0.0 0.0 0.0 
0.0 0.0 0.0 
0.0 0.0 0.0 
0.0 0.0 0.0 
0.0 0.0 0.0 
0.0 0.0 0.0 
0.0 0.0 0.0 
0.0 0.0 0.0 
0.0 0.0 0.0 
0.0 0.0 0.0 
0.0 0.0 0.0 
0.0 0.0 0.0 
0.0 0.0 0.0 
0.0 0.0 0.0 
0.0 0.0 0.0 
0.0 0.0 0.0 
0.0 0.0 0.0 
0.0 0.0 0.0 
0.0 0.0 0.0 
0.0 0.0 0.0 
0.0 0.0 0.0 
0.0 0.0 0.0 
0.0 0.0 0.0 
0.0 0.0 0.0 
0.0 0.0 0.0 
0.0 0.0 0.0 
0.0 0.0 0.0 
0.0 0.0 0.0 
0.0 0.0 0.0 
0.0 0.0 0.0 
0.0 0.0 0.0 
0.0 0.0 0.0 
0.0 0.0 0.0 
0.0 0.0 0.0 
0.0 0.0 0.0 
0.0 0.0 0.0 
0.0 0.0 0.0 
0.0 0.0 0.0 
0.0 0.0 0.0 
0.0 0.0 0.0 
0.0 0.0 0.0 
0.0 0.0 0.0 
0.0 0.0 0.0 
0.0 0.0 0.0 
0.0 0.0 0.0 
0.0 0.0 0.0 
0.0 0.0 0.0 
0.0 0.0 0.0 
0.0 0.0 0.0 
0.0 0.0 0.0 
0.0 0.0 0.0 
0.0 0.0 0.0 
0.0 0.0 0.0 
0.0 0.0 0.0 
0.0 0.0 0.0 
0.0 0.0 0.0 
0.0 0.0 0.0 
0.0 0.0 0.0 
0.0 0.0 0.0 
0.0 0.0 0.0 
0.0 0.0 0.0 
0.0 0.0 0.0 
0.0 0.0 0.0 
0.0 0.0 0.0 
0.0 0.0 0.0 
0.0 0.0 0.0 
0.0 0.0 0.0 
0.0 0.0 0.0 
0.0 0.0 0.0 
0.0 0.0 0.0 
0.0 0.0 0.0 
0.0 0.0 0.0 
0.0 0.0 0.0 
0.0 0.0 0.0 
0.0 0.0 0.0 
0.0 0.0 0.0 
0.0 0.0 0.0 
0.0 0.0 0.0 
0.0 0.0 0.0 
0.0 0.0 0.0 
0.0 0.0 0.0 
0.0 0.0 0.0 
0.0 0.0 0.0 
0.0 0.0 0.0 
0.0 0.0 0.0 
0.0 0.0 0.0 
0.0 0.0 0.0 
0.0 0.0 0.0 
0.0 0.0 0.0 
0.0 0.0 0.0 
0.0 0.0 0.0 
0.0 0.0 0.0 
0.0 0.0 0.0 
0.0 0.0 0.0 
0.0 0.0 0.0 
0.0 0.0 0.0 
0.0 0.0 0.0 
0.0 0.0 0.0 
0.0 0.0 0.0 
0.0 0.0 0.0 
0.0 0.0 0.0 
0.0 0.0 0.0 
0.0 0.0 0.0 
0.0 0.0 0.0 
0.0 0.0 0.0 
0.0 0.0 0.0 
0.0 0.0 0.0 
0.0 0.0 0.0 
0.0 0.0 0.0 
0.0 0.0 0.0 
0.0 0.0 0.0 
0.0 0.0 0.0 
0.0 0.0 0.0 
0.0 0.0 0.0 
0.0 0.0 0.0 
0.0 0.0 0.0 
0.0 0.0 0.0 
0.0 0.0 0.0 
0.0 0.0 0.0 
0.0 0.0 0.0 
0.0 0.0 0.0 
0.0 0.0 0.0 
0.0 0.0 0.0 
0.0 0.0 0.0 
0.0 0.0 0.0 
0.0 0.0 0.0 
0.0 0.0 0.0 
0.0 0.0 0.0 

SCALARS node_boundary float
LOOKUP_TABLE default
1.000000000000e+00 
1.000000000000e+00 
1.000000000000e+00 
1.000000000000e+00 
1.000000000000e+00 
1.000000000000e+00 
1.000000000000e+00 
1.000000000000e+00 
1.000000000000e+00 
1.000000000000e+00 
1.000000000000e+00 
1.000000000000e+00 
1.000000000000e+00 
1.000000000000e+00 
1.000000000000e+00 
1.000000000000e+00 
1.000000000000e+00 
1.000000000000e+00 
1.000000000000e+00 
1.000000000000e+00 
1.000000000000e+00 
1.000000000000e+00 
1.000000000000e+00 
1.000000000000e+00 
1.000000000000e+00 
1.000000000000e+00 
1.000000000000e+00 
1.000000000000e+00 
1.000000000000e+00 
1.000000000000e+00 
1.000000000000e+00 
1.000000000000e+00 
1.000000000000e+00 
1.000000000000e+00 
1.000000000000e+00 
1.000000000000e+00 
1.000000000000e+00 
1.000000000000e+00 
1.000000000000e+00 
1.000000000000e+00 
1.000000000000e+00 
1.000000000000e+00 
1.000000000000e+00 
1.000000000000e+00 
1.000000000000e+00 
1.000000000000e+00 
1.000000000000e+00 
1.000000000000e+00 
1.000000000000e+00 
1.000000000000e+00 
1.000000000000e+00 
1.000000000000e+00 
1.000000000000e+00 
1.000000000000e+00 
1.000000000000e+00 
1.000000000000e+00 
1.000000000000e+00 
1.000000000000e+00 
1.000000000000e+00 
1.000000000000e+00 
1.000000000000e+00 
1.000000000000e+00 
1.000000000000e+00 
1.000000000000e+00 
1.000000000000e+00 
1.000000000000e+00 
1.000000000000e+00 
1.000000000000e+00 
1.000000000000e+00 
1.000000000000e+00 
1.000000000000e+00 
1.000000000000e+00 
1.000000000000e+00 
1.000000000000e+00 
1.000000000000e+00 
1.000000000000e+00 
1.000000000000e+00 
1.000000000000e+00 
1.000000000000e+00 
1.000000000000e+00 
1.000000000000e+00 
1.000000000000e+00 
1.000000000000e+00 
1.000000000000e+00 
1.000000000000e+00 
1.000000000000e+00 
1.000000000000e+00 
1.000000000000e+00 
1.000000000000e+00 
1.000000000000e+00 
1.000000000000e+00 
1.000000000000e+00 
1.000000000000e+00 
1.000000000000e+00 
1.000000000000e+00 
1.000000000000e+00 
1.000000000000e+00 
1.000000000000e+00 
1.000000000000e+00 
1.000000000000e+00 
1.000000000000e+00 
1.000000000000e+00 
1.000000000000e+00 
1.000000000000e+00 
1.000000000000e+00 
1.000000000000e+00 
1.000000000000e+00 
1.000000000000e+00 
1.000000000000e+00 
1.000000000000e+00 
1.000000000000e+00 
1.000000000000e+00 
1.000000000000e+00 
1.000000000000e+00 
1.000000000000e+00 
1.000000000000e+00 
1.000000000000e+00 
1.000000000000e+00 
1.000000000000e+00 
1.000000000000e+00 
1.000000000000e+00 
1.000000000000e+00 
1.000000000000e+00 
1.000000000000e+00 
1.000000000000e+00 
1.000000000000e+00 
1.000000000000e+00 
1.000000000000e+00 
1.000000000000e+00 
1.000000000000e+00 
1.000000000000e+00 
1.000000000000e+00 
1.000000000000e+00 
1.000000000000e+00 
1.000000000000e+00 
0.0
0.0
0.0
0.0
0.0
0.0
0.0
0.0
0.0
0.0
0.0
0.0
0.0
0.0
0.0
0.0
0.0
0.0
0.0
0.0
0.0
0.0
0.0
0.0
0.0
0.0
0.0
0.0
0.0
0.0
0.0
0.0
0.0
0.0
0.0
0.0
0.0
0.0
0.0
0.0
0.0
0.0
0.0
0.0
0.0
0.0
0.0
0.0
0.0
0.0
0.0
0.0
0.0
0.0
0.0
0.0
0.0
0.0
0.0
0.0
0.0
0.0
0.0
0.0
0.0
0.0
0.0
0.0
0.0
0.0
0.0
0.0
0.0
0.0
0.0
0.0
0.0
0.0
0.0
0.0
0.0
0.0
0.0
0.0
0.0
0.0
0.0
0.0
0.0
0.0
0.0
0.0
0.0
0.0
0.0
0.0
0.0
0.0
0.0
0.0
0.0
0.0
0.0
0.0
0.0
0.0
0.0
0.0
0.0
0.0
0.0
0.0
0.0
0.0
0.0
0.0
0.0
0.0
0.0
0.0
0.0
0.0
0.0
0.0
0.0
0.0
0.0
0.0
0.0
0.0
0.0
0.0
0.0
0.0
0.0
0.0
0.0
0.0
0.0
0.0
0.0
0.0
0.0
0.0
0.0
0.0
0.0
0.0
0.0
0.0
0.0
0.0
0.0
0.0
0.0
0.0
0.0
0.0
0.0
0.0
0.0
0.0
0.0
0.0
0.0
0.0
0.0
0.0
0.0
0.0
0.0
0.0
0.0
0.0
0.0
0.0
0.0
0.0
0.0
0.0
0.0
0.0
0.0
0.0
0.0
0.0
0.0
0.0
0.0
0.0
0.0
0.0
0.0
0.0
0.0
0.0
0.0
0.0
0.0
0.0
0.0
0.0
0.0
0.0
0.0
0.0
0.0
0.0
0.0
0.0
0.0
0.0
0.0
0.0
0.0
0.0
0.0
0.0
0.0
0.0
0.0
0.0
0.0
0.0
0.0
0.0
0.0
0.0
0.0
0.0
0.0
0.0
0.0
0.0
0.0
0.0
0.0
0.0
0.0
0.0
0.0
0.0
0.0
0.0
0.0
0.0
0.0
0.0
0.0
0.0
0.0
0.0
0.0
0.0
0.0
0.0
0.0
0.0
0.0
0.0
0.0
0.0
0.0
0.0
0.0
0.0
0.0
0.0
0.0
0.0
0.0
0.0
0.0
0.0
0.0
0.0
0.0
0.0
0.0
0.0
0.0
0.0
0.0
0.0
0.0
0.0
0.0
0.0
0.0
0.0
0.0
0.0
0.0
0.0
0.0
0.0
0.0
0.0
0.0
0.0
0.0
0.0
0.0
0.0
0.0
0.0
0.0
0.0
0.0
0.0
0.0
0.0
0.0
0.0
0.0
0.0
0.0
0.0
0.0
0.0
0.0
0.0
0.0
0.0
0.0
0.0
0.0
0.0
0.0
0.0
0.0
0.0
0.0
0.0
0.0
0.0
0.0
0.0
0.0
0.0
0.0
0.0
0.0
0.0
0.0
0.0
0.0
0.0
0.0
0.0
0.0
0.0
0.0
0.0
0.0
0.0
0.0
0.0
0.0
0.0
0.0
0.0
0.0
0.0
0.0
0.0
0.0
0.0
0.0
0.0
0.0
0.0
0.0
0.0
0.0
0.0
0.0
0.0
0.0
0.0
0.0
0.0
0.0
0.0
0.0
0.0
0.0
0.0
0.0
0.0
0.0
0.0
0.0
0.0
0.0
0.0
0.0
0.0
0.0
0.0
0.0
0.0
0.0
0.0
0.0
0.0
0.0
0.0
0.0
0.0
0.0
0.0
0.0
0.0
0.0
0.0
0.0
0.0
0.0
0.0
0.0
0.0
0.0
0.0
0.0
0.0
0.0
0.0
0.0
0.0
0.0
0.0
0.0
0.0
0.0
0.0
0.0
0.0
0.0
0.0
0.0
0.0
0.0
0.0
0.0
0.0
0.0
0.0
0.0
0.0
0.0
0.0
0.0
0.0
0.0
0.0
0.0
0.0
0.0
0.0
0.0
0.0
0.0
0.0
0.0
0.0
0.0
0.0
0.0
0.0
0.0
0.0
0.0
0.0
0.0
0.0
0.0
0.0
0.0
0.0
0.0
0.0
0.0
0.0
0.0
0.0
0.0
0.0
0.0
0.0
0.0
0.0
0.0
0.0
0.0
0.0
0.0
0.0
0.0
0.0
0.0
0.0
0.0
0.0
0.0
0.0
0.0
0.0
0.0
0.0
0.0
0.0
0.0
0.0
0.0
0.0
0.0
0.0
0.0
0.0
0.0
0.0
0.0
0.0
0.0
0.0
0.0
0.0
0.0
0.0
0.0
0.0
0.0
0.0
0.0
0.0
0.0
0.0
0.0
0.0
0.0
0.0
0.0
0.0
0.0
0.0
0.0
0.0
0.0
0.0
0.0
0.0
0.0
0.0
0.0
0.0
0.0
0.0
0.0
0.0
0.0
0.0
0.0
0.0
0.0
0.0
0.0
0.0
0.0
0.0
0.0
0.0
0.0
0.0
0.0
0.0
0.0
0.0
0.0
0.0
0.0
0.0
0.0
0.0
0.0
0.0
0.0
0.0
0.0
0.0
0.0
0.0
0.0
0.0
0.0
0.0
0.0
0.0
0.0
0.0
0.0
0.0
0.0
0.0
0.0
0.0
0.0
0.0
0.0
0.0
0.0
0.0
0.0
0.0
0.0
0.0
0.0
0.0
0.0
0.0
0.0
0.0
0.0
0.0
0.0
0.0
0.0
0.0
0.0
0.0
0.0
0.0
0.0
0.0
0.0
0.0
0.0
0.0
0.0
0.0
0.0
0.0
0.0
0.0
0.0
0.0
0.0
0.0
0.0
0.0
0.0
0.0
0.0
0.0
0.0
0.0
0.0
0.0
0.0
0.0
0.0
0.0
0.0
0.0
0.0
0.0
0.0
0.0
0.0
0.0
0.0
0.0
0.0
0.0
0.0
0.0
0.0
0.0
0.0
0.0
0.0
0.0
0.0
0.0
0.0
0.0
0.0
0.0
0.0
0.0
0.0
0.0
0.0
0.0
0.0
0.0
0.0
0.0
0.0
0.0
0.0
0.0
0.0
0.0
0.0
0.0
0.0
0.0
0.0
0.0
0.0
0.0
0.0
0.0
0.0
0.0
0.0
0.0
0.0
0.0
0.0
0.0
0.0
0.0
0.0
0.0
0.0
0.0
0.0
0.0
0.0
0.0
0.0
0.0
0.0
0.0
0.0
0.0
0.0
0.0
0.0
0.0
0.0
0.0
0.0
0.0
0.0
0.0
0.0
0.0
0.0
0.0
0.0
0.0
0.0
0.0
0.0
0.0
0.0
0.0
0.0
0.0
0.0
0.0
0.0
0.0
0.0
0.0
0.0
0.0
0.0
0.0
0.0
0.0
0.0
0.0
0.0
0.0
0.0
0.0
0.0
0.0
0.0
0.0
0.0
0.0
0.0
0.0
0.0
0.0
0.0
0.0
0.0
0.0
0.0
0.0
0.0
0.0
0.0
0.0
0.0
0.0
0.0
0.0
0.0
0.0
0.0
0.0
0.0
0.0
0.0
0.0
0.0
0.0
0.0
0.0
0.0
0.0
0.0
0.0
0.0
0.0
0.0
0.0
0.0
0.0
0.0
0.0
0.0
0.0
0.0
0.0
0.0
0.0
0.0
0.0
0.0
0.0
0.0
0.0
0.0
0.0
0.0
0.0
0.0
0.0
0.0
0.0
0.0
0.0
0.0
0.0
0.0
0.0
0.0
0.0
0.0
0.0
0.0
0.0
0.0
0.0
0.0
0.0
0.0
0.0
0.0
0.0
0.0
0.0
0.0
0.0
0.0
0.0
0.0
0.0
0.0
0.0
0.0
0.0
0.0
0.0
0.0
0.0
0.0
0.0
0.0
0.0
0.0
0.0
0.0
0.0
0.0

VECTORS node_force_edge float
0.0 0.0 0.0 
0.0 0.0 0.0 
0.0 0.0 0.0 
0.0 0.0 0.0 
0.0 0.0 0.0 
0.0 0.0 0.0 
0.0 0.0 0.0 
0.0 0.0 0.0 
0.0 0.0 0.0 
0.0 0.0 0.0 
0.0 0.0 0.0 
0.0 0.0 0.0 
0.0 0.0 0.0 
0.0 0.0 0.0 
0.0 0.0 0.0 
0.0 0.0 0.0 
0.0 0.0 0.0 
0.0 0.0 0.0 
0.0 0.0 0.0 
0.0 0.0 0.0 
0.0 0.0 0.0 
0.0 0.0 0.0 
0.0 0.0 0.0 
0.0 0.0 0.0 
0.0 0.0 0.0 
0.0 0.0 0.0 
0.0 0.0 0.0 
0.0 0.0 0.0 
0.0 0.0 0.0 
0.0 0.0 0.0 
0.0 0.0 0.0 
0.0 0.0 0.0 
0.0 0.0 0.0 
0.0 0.0 0.0 
0.0 0.0 0.0 
0.0 0.0 0.0 
0.0 0.0 0.0 
0.0 0.0 0.0 
0.0 0.0 0.0 
0.0 0.0 0.0 
0.0 0.0 0.0 
0.0 0.0 0.0 
0.0 0.0 0.0 
0.0 0.0 0.0 
0.0 0.0 0.0 
0.0 0.0 0.0 
0.0 0.0 0.0 
0.0 0.0 0.0 
0.0 0.0 0.0 
0.0 0.0 0.0 
0.0 0.0 0.0 
0.0 0.0 0.0 
0.0 0.0 0.0 
0.0 0.0 0.0 
0.0 0.0 0.0 
0.0 0.0 0.0 
0.0 0.0 0.0 
0.0 0.0 0.0 
0.0 0.0 0.0 
0.0 0.0 0.0 
0.0 0.0 0.0 
0.0 0.0 0.0 
0.0 0.0 0.0 
0.0 0.0 0.0 
0.0 0.0 0.0 
0.0 0.0 0.0 
0.0 0.0 0.0 
0.0 0.0 0.0 
0.0 0.0 0.0 
0.0 0.0 0.0 
0.0 0.0 0.0 
0.0 0.0 0.0 
0.0 0.0 0.0 
0.0 0.0 0.0 
0.0 0.0 0.0 
0.0 0.0 0.0 
0.0 0.0 0.0 
0.0 0.0 0.0 
0.0 0.0 0.0 
0.0 0.0 0.0 
0.0 0.0 0.0 
0.0 -1.000000000000e+02 0.0 
0.0 0.0 0.0 
0.0 0.0 0.0 
0.0 0.0 0.0 
0.0 0.0 0.0 
0.0 0.0 0.0 
0.0 0.0 0.0 
0.0 0.0 0.0 
0.0 0.0 0.0 
0.0 0.0 0.0 
0.0 0.0 0.0 
0.0 0.0 0.0 
0.0 0.0 0.0 
0.0 0.0 0.0 
0.0 0.0 0.0 
0.0 0.0 0.0 
0.0 0.0 0.0 
0.0 0.0 0.0 
0.0 0.0 0.0 
0.0 0.0 0.0 
0.0 0.0 0.0 
0.0 0.0 0.0 
0.0 0.0 0.0 
0.0 0.0 0.0 
0.0 0.0 0.0 
0.0 -1.000000000000e+02 0.0 
0.0 -1.000000000000e+02 0.0 
0.0 -1.000000000000e+02 0.0 
0.0 -1.000000000000e+02 0.0 
0.0 -1.000000000000e+02 0.0 
0.0 0.0 0.0 
0.0 0.0 0.0 
0.0 0.0 0.0 
0.0 0.0 0.0 
0.0 0.0 0.0 
0.0 0.0 0.0 
0.0 0.0 0.0 
0.0 0.0 0.0 
0.0 0.0 0.0 
0.0 0.0 0.0 
0.0 0.0 0.0 
0.0 0.0 0.0 
0.0 0.0 0.0 
0.0 0.0 0.0 
0.0 0.0 0.0 
0.0 0.0 0.0 
0.0 0.0 0.0 
0.0 0.0 0.0 
0.0 0.0 0.0 
0.0 0.0 0.0 
0.0 0.0 0.0 
0.0 0.0 0.0 
0.0 0.0 0.0 
0.0 0.0 0.0 
0.0 0.0 0.0 
0.0 0.0 0.0 
0.0 0.0 0.0 
0.0 0.0 0.0 
0.0 0.0 0.0 
0.0 0.0 0.0 
0.0 0.0 0.0 
0.0 0.0 0.0 
0.0 0.0 0.0 
0.0 0.0 0.0 
0.0 0.0 0.0 
0.0 0.0 0.0 
0.0 0.0 0.0 
0.0 0.0 0.0 
0.0 0.0 0.0 
0.0 0.0 0.0 
0.0 0.0 0.0 
0.0 0.0 0.0 
0.0 0.0 0.0 
0.0 0.0 0.0 
0.0 0.0 0.0 
0.0 0.0 0.0 
0.0 0.0 0.0 
0.0 0.0 0.0 
0.0 0.0 0.0 
0.0 0.0 0.0 
0.0 0.0 0.0 
0.0 0.0 0.0 
0.0 0.0 0.0 
0.0 0.0 0.0 
0.0 0.0 0.0 
0.0 0.0 0.0 
0.0 0.0 0.0 
0.0 0.0 0.0 
0.0 0.0 0.0 
0.0 0.0 0.0 
0.0 0.0 0.0 
0.0 0.0 0.0 
0.0 0.0 0.0 
0.0 0.0 0.0 
0.0 0.0 0.0 
0.0 0.0 0.0 
0.0 0.0 0.0 
0.0 0.0 0.0 
0.0 0.0 0.0 
0.0 0.0 0.0 
0.0 0.0 0.0 
0.0 0.0 0.0 
0.0 0.0 0.0 
0.0 0.0 0.0 
0.0 0.0 0.0 
0.0 0.0 0.0 
0.0 0.0 0.0 
0.0 0.0 0.0 
0.0 0.0 0.0 
0.0 0.0 0.0 
0.0 0.0 0.0 
0.0 0.0 0.0 
0.0 0.0 0.0 
0.0 0.0 0.0 
0.0 0.0 0.0 
0.0 0.0 0.0 
0.0 0.0 0.0 
0.0 0.0 0.0 
0.0 0.0 0.0 
0.0 0.0 0.0 
0.0 0.0 0.0 
0.0 0.0 0.0 
0.0 0.0 0.0 
0.0 0.0 0.0 
0.0 0.0 0.0 
0.0 0.0 0.0 
0.0 0.0 0.0 
0.0 0.0 0.0 
0.0 0.0 0.0 
0.0 0.0 0.0 
0.0 0.0 0.0 
0.0 0.0 0.0 
0.0 0.0 0.0 
0.0 0.0 0.0 
0.0 0.0 0.0 
0.0 0.0 0.0 
0.0 0.0 0.0 
0.0 0.0 0.0 
0.0 0.0 0.0 
0.0 0.0 0.0 
0.0 0.0 0.0 
0.0 0.0 0.0 
0.0 0.0 0.0 
0.0 0.0 0.0 
0.0 0.0 0.0 
0.0 0.0 0.0 
0.0 0.0 0.0 
0.0 0.0 0.0 
0.0 0.0 0.0 
0.0 0.0 0.0 
0.0 0.0 0.0 
0.0 0.0 0.0 
0.0 0.0 0.0 
0.0 0.0 0.0 
0.0 0.0 0.0 
0.0 0.0 0.0 
0.0 0.0 0.0 
0.0 0.0 0.0 
0.0 0.0 0.0 
0.0 0.0 0.0 
0.0 0.0 0.0 
0.0 0.0 0.0 
0.0 0.0 0.0 
0.0 0.0 0.0 
0.0 0.0 0.0 
0.0 0.0 0.0 
0.0 0.0 0.0 
0.0 0.0 0.0 
0.0 0.0 0.0 
0.0 0.0 0.0 
0.0 0.0 0.0 
0.0 0.0 0.0 
0.0 0.0 0.0 
0.0 0.0 0.0 
0.0 0.0 0.0 
0.0 0.0 0.0 
0.0 0.0 0.0 
0.0 0.0 0.0 
0.0 0.0 0.0 
0.0 0.0 0.0 
0.0 0.0 0.0 
0.0 0.0 0.0 
0.0 0.0 0.0 
0.0 0.0 0.0 
0.0 0.0 0.0 
0.0 0.0 0.0 
0.0 0.0 0.0 
0.0 0.0 0.0 
0.0 0.0 0.0 
0.0 0.0 0.0 
0.0 0.0 0.0 
0.0 0.0 0.0 
0.0 0.0 0.0 
0.0 0.0 0.0 
0.0 0.0 0.0 
0.0 0.0 0.0 
0.0 0.0 0.0 
0.0 0.0 0.0 
0.0 0.0 0.0 
0.0 0.0 0.0 
0.0 0.0 0.0 
0.0 0.0 0.0 
0.0 0.0 0.0 
0.0 0.0 0.0 
0.0 0.0 0.0 
0.0 0.0 0.0 
0.0 0.0 0.0 
0.0 0.0 0.0 
0.0 0.0 0.0 
0.0 0.0 0.0 
0.0 0.0 0.0 
0.0 0.0 0.0 
0.0 0.0 0.0 
0.0 0.0 0.0 
0.0 0.0 0.0 
0.0 0.0 0.0 
0.0 0.0 0.0 
0.0 0.0 0.0 
0.0 0.0 0.0 
0.0 0.0 0.0 
0.0 0.0 0.0 
0.0 0.0 0.0 
0.0 0.0 0.0 
0.0 0.0 0.0 
0.0 0.0 0.0 
0.0 0.0 0.0 
0.0 0.0 0.0 
0.0 0.0 0.0 
0.0 0.0 0.0 
0.0 0.0 0.0 
0.0 0.0 0.0 
0.0 0.0 0.0 
0.0 0.0 0.0 
0.0 0.0 0.0 
0.0 0.0 0.0 
0.0 0.0 0.0 
0.0 0.0 0.0 
0.0 0.0 0.0 
0.0 0.0 0.0 
0.0 0.0 0.0 
0.0 0.0 0.0 
0.0 0.0 0.0 
0.0 0.0 0.0 
0.0 0.0 0.0 
0.0 0.0 0.0 
0.0 0.0 0.0 
0.0 0.0 0.0 
0.0 0.0 0.0 
0.0 0.0 0.0 
0.0 0.0 0.0 
0.0 0.0 0.0 
0.0 0.0 0.0 
0.0 0.0 0.0 
0.0 0.0 0.0 
0.0 0.0 0.0 
0.0 0.0 0.0 
0.0 0.0 0.0 
0.0 0.0 0.0 
0.0 0.0 0.0 
0.0 0.0 0.0 
0.0 0.0 0.0 
0.0 0.0 0.0 
0.0 0.0 0.0 
0.0 0.0 0.0 
0.0 0.0 0.0 
0.0 0.0 0.0 
0.0 0.0 0.0 
0.0 0.0 0.0 
0.0 0.0 0.0 
0.0 0.0 0.0 
0.0 0.0 0.0 
0.0 0.0 0.0 
0.0 0.0 0.0 
0.0 0.0 0.0 
0.0 0.0 0.0 
0.0 0.0 0.0 
0.0 0.0 0.0 
0.0 0.0 0.0 
0.0 0.0 0.0 
0.0 0.0 0.0 
0.0 0.0 0.0 
0.0 0.0 0.0 
0.0 0.0 0.0 
0.0 0.0 0.0 
0.0 0.0 0.0 
0.0 0.0 0.0 
0.0 0.0 0.0 
0.0 0.0 0.0 
0.0 0.0 0.0 
0.0 0.0 0.0 
0.0 0.0 0.0 
0.0 0.0 0.0 
0.0 0.0 0.0 
0.0 0.0 0.0 
0.0 0.0 0.0 
0.0 0.0 0.0 
0.0 0.0 0.0 
0.0 0.0 0.0 
0.0 0.0 0.0 
0.0 0.0 0.0 
0.0 0.0 0.0 
0.0 0.0 0.0 
0.0 0.0 0.0 
0.0 0.0 0.0 
0.0 0.0 0.0 
0.0 0.0 0.0 
0.0 0.0 0.0 
0.0 0.0 0.0 
0.0 0.0 0.0 
0.0 0.0 0.0 
0.0 0.0 0.0 
0.0 0.0 0.0 
0.0 0.0 0.0 
0.0 0.0 0.0 
0.0 0.0 0.0 
0.0 0.0 0.0 
0.0 0.0 0.0 
0.0 0.0 0.0 
0.0 0.0 0.0 
0.0 0.0 0.0 
0.0 0.0 0.0 
0.0 0.0 0.0 
0.0 0.0 0.0 
0.0 0.0 0.0 
0.0 0.0 0.0 
0.0 0.0 0.0 
0.0 0.0 0.0 
0.0 0.0 0.0 
0.0 0.0 0.0 
0.0 0.0 0.0 
0.0 0.0 0.0 
0.0 0.0 0.0 
0.0 0.0 0.0 
0.0 0.0 0.0 
0.0 0.0 0.0 
0.0 0.0 0.0 
0.0 0.0 0.0 
0.0 0.0 0.0 
0.0 0.0 0.0 
0.0 0.0 0.0 
0.0 0.0 0.0 
0.0 0.0 0.0 
0.0 0.0 0.0 
0.0 0.0 0.0 
0.0 0.0 0.0 
0.0 0.0 0.0 
0.0 0.0 0.0 
0.0 0.0 0.0 
0.0 0.0 0.0 
0.0 0.0 0.0 
0.0 0.0 0.0 
0.0 0.0 0.0 
0.0 0.0 0.0 
0.0 0.0 0.0 
0.0 0.0 0.0 
0.0 0.0 0.0 
0.0 0.0 0.0 
0.0 0.0 0.0 
0.0 0.0 0.0 
0.0 0.0 0.0 
0.0 0.0 0.0 
0.0 0.0 0.0 
0.0 0.0 0.0 
0.0 0.0 0.0 
0.0 0.0 0.0 
0.0 0.0 0.0 
0.0 0.0 0.0 
0.0 0.0 0.0 
0.0 0.0 0.0 
0.0 0.0 0.0 
0.0 0.0 0.0 
0.0 0.0 0.0 
0.0 0.0 0.0 
0.0 0.0 0.0 
0.0 0.0 0.0 
0.0 0.0 0.0 
0.0 0.0 0.0 
0.0 0.0 0.0 
0.0 0.0 0.0 
0.0 0.0 0.0 
0.0 0.0 0.0 
0.0 0.0 0.0 
0.0 0.0 0.0 
0.0 0.0 0.0 
0.0 0.0 0.0 
0.0 0.0 0.0 
0.0 0.0 0.0 
0.0 0.0 0.0 
0.0 0.0 0.0 
0.0 0.0 0.0 
0.0 0.0 0.0 
0.0 0.0 0.0 
0.0 0.0 0.0 
0.0 0.0 0.0 
0.0 0.0 0.0 
0.0 0.0 0.0 
0.0 0.0 0.0 
0.0 0.0 0.0 
0.0 0.0 0.0 
0.0 0.0 0.0 
0.0 0.0 0.0 
0.0 0.0 0.0 
0.0 0.0 0.0 
0.0 0.0 0.0 
0.0 0.0 0.0 
0.0 0.0 0.0 
0.0 0.0 0.0 
0.0 0.0 0.0 
0.0 0.0 0.0 
0.0 0.0 0.0 
0.0 0.0 0.0 
0.0 0.0 0.0 
0.0 0.0 0.0 
0.0 0.0 0.0 
0.0 0.0 0.0 
0.0 0.0 0.0 
0.0 0.0 0.0 
0.0 0.0 0.0 
0.0 0.0 0.0 
0.0 0.0 0.0 
0.0 0.0 0.0 
0.0 0.0 0.0 
0.0 0.0 0.0 
0.0 0.0 0.0 
0.0 0.0 0.0 
0.0 0.0 0.0 
0.0 0.0 0.0 
0.0 0.0 0.0 
0.0 0.0 0.0 
0.0 0.0 0.0 
0.0 0.0 0.0 
0.0 0.0 0.0 
0.0 0.0 0.0 
0.0 0.0 0.0 
0.0 0.0 0.0 
0.0 0.0 0.0 
0.0 0.0 0.0 
0.0 0.0 0.0 
0.0 0.0 0.0 
0.0 0.0 0.0 
0.0 0.0 0.0 
0.0 0.0 0.0 
0.0 0.0 0.0 
0.0 0.0 0.0 
0.0 0.0 0.0 
0.0 0.0 0.0 
0.0 0.0 0.0 
0.0 0.0 0.0 
0.0 0.0 0.0 
0.0 0.0 0.0 
0.0 0.0 0.0 
0.0 0.0 0.0 
0.0 0.0 0.0 
0.0 0.0 0.0 
0.0 0.0 0.0 
0.0 0.0 0.0 
0.0 0.0 0.0 
0.0 0.0 0.0 
0.0 0.0 0.0 
0.0 0.0 0.0 
0.0 0.0 0.0 
0.0 0.0 0.0 
0.0 0.0 0.0 
0.0 0.0 0.0 
0.0 0.0 0.0 
0.0 0.0 0.0 
0.0 0.0 0.0 
0.0 0.0 0.0 
0.0 0.0 0.0 
0.0 0.0 0.0 
0.0 0.0 0.0 
0.0 0.0 0.0 
0.0 0.0 0.0 
0.0 0.0 0.0 
0.0 0.0 0.0 
0.0 0.0 0.0 
0.0 0.0 0.0 
0.0 0.0 0.0 
0.0 0.0 0.0 
0.0 0.0 0.0 
0.0 0.0 0.0 
0.0 0.0 0.0 
0.0 0.0 0.0 
0.0 0.0 0.0 
0.0 0.0 0.0 
0.0 0.0 0.0 
0.0 0.0 0.0 
0.0 0.0 0.0 
0.0 0.0 0.0 
0.0 0.0 0.0 
0.0 0.0 0.0 
0.0 0.0 0.0 
0.0 0.0 0.0 
0.0 0.0 0.0 
0.0 0.0 0.0 
0.0 0.0 0.0 
0.0 0.0 0.0 
0.0 0.0 0.0 
0.0 0.0 0.0 
0.0 0.0 0.0 
0.0 0.0 0.0 
0.0 0.0 0.0 
0.0 0.0 0.0 
0.0 0.0 0.0 
0.0 0.0 0.0 
0.0 0.0 0.0 
0.0 0.0 0.0 
0.0 0.0 0.0 
0.0 0.0 0.0 
0.0 0.0 0.0 
0.0 0.0 0.0 
0.0 0.0 0.0 
0.0 0.0 0.0 
0.0 0.0 0.0 
0.0 0.0 0.0 
0.0 0.0 0.0 
0.0 0.0 0.0 
0.0 0.0 0.0 
0.0 0.0 0.0 
0.0 0.0 0.0 
0.0 0.0 0.0 
0.0 0.0 0.0 
0.0 0.0 0.0 
0.0 0.0 0.0 
0.0 0.0 0.0 
0.0 0.0 0.0 
0.0 0.0 0.0 
0.0 0.0 0.0 
0.0 0.0 0.0 
0.0 0.0 0.0 
0.0 0.0 0.0 
0.0 0.0 0.0 
0.0 0.0 0.0 
0.0 0.0 0.0 
0.0 0.0 0.0 
0.0 0.0 0.0 
0.0 0.0 0.0 
0.0 0.0 0.0 
0.0 0.0 0.0 
0.0 0.0 0.0 
0.0 0.0 0.0 
0.0 0.0 0.0 
0.0 0.0 0.0 
0.0 0.0 0.0 
0.0 0.0 0.0 
0.0 0.0 0.0 
0.0 0.0 0.0 
0.0 0.0 0.0 
0.0 0.0 0.0 
0.0 0.0 0.0 
0.0 0.0 0.0 
0.0 0.0 0.0 
0.0 0.0 0.0 
0.0 0.0 0.0 
0.0 0.0 0.0 
0.0 0.0 0.0 
0.0 0.0 0.0 
0.0 0.0 0.0 
0.0 0.0 0.0 
0.0 0.0 0.0 
0.0 0.0 0.0 
0.0 0.0 0.0 
0.0 0.0 0.0 
0.0 0.0 0.0 
0.0 0.0 0.0 
0.0 0.0 0.0 
0.0 0.0 0.0 
0.0 0.0 0.0 
0.0 0.0 0.0 
0.0 0.0 0.0 
0.0 0.0 0.0 
0.0 0.0 0.0 
0.0 0.0 0.0 
0.0 0.0 0.0 
0.0 0.0 0.0 
0.0 0.0 0.0 
0.0 0.0 0.0 
0.0 0.0 0.0 
0.0 0.0 0.0 
0.0 0.0 0.0 
0.0 0.0 0.0 
0.0 0.0 0.0 
0.0 0.0 0.0 
0.0 0.0 0.0 
0.0 0.0 0.0 
0.0 0.0 0.0 
0.0 0.0 0.0 
0.0 0.0 0.0 
0.0 0.0 0.0 
0.0 0.0 0.0 
0.0 0.0 0.0 
0.0 0.0 0.0 
0.0 0.0 0.0 
0.0 0.0 0.0 
0.0 0.0 0.0 
0.0 0.0 0.0 
0.0 0.0 0.0 
0.0 0.0 0.0 
0.0 0.0 0.0 
0.0 0.0 0.0 
0.0 0.0 0.0 
0.0 0.0 0.0 
0.0 0.0 0.0 
0.0 0.0 0.0 
0.0 0.0 0.0 
0.0 0.0 0.0 
0.0 0.0 0.0 
0.0 0.0 0.0 
0.0 0.0 0.0 
0.0 0.0 0.0 
0.0 0.0 0.0 
0.0 0.0 0.0 
0.0 0.0 0.0 
0.0 0.0 0.0 
0.0 0.0 0.0 
0.0 0.0 0.0 
0.0 0.0 0.0 
0.0 0.0 0.0 
0.0 0.0 0.0 
0.0 0.0 0.0 
0.0 0.0 0.0 
0.0 0.0 0.0 
0.0 0.0 0.0 
0.0 0.0 0.0 
0.0 0.0 0.0 
0.0 0.0 0.0 
0.0 0.0 0.0 
0.0 0.0 0.0 
0.0 0.0 0.0 
0.0 0.0 0.0 
0.0 0.0 0.0 
0.0 0.0 0.0 
0.0 0.0 0.0 
0.0 0.0 0.0 
0.0 0.0 0.0 
0.0 0.0 0.0 
0.0 0.0 0.0 
0.0 0.0 0.0 
0.0 0.0 0.0 
0.0 0.0 0.0 
0.0 0.0 0.0 
0.0 0.0 0.0 
0.0 0.0 0.0 
0.0 0.0 0.0 
0.0 0.0 0.0 
0.0 0.0 0.0 
0.0 0.0 0.0 
0.0 0.0 0.0 
0.0 0.0 0.0 
0.0 0.0 0.0 
0.0 0.0 0.0 
0.0 0.0 0.0 
0.0 0.0 0.0 
0.0 0.0 0.0 
0.0 0.0 0.0 
0.0 0.0 0.0 
0.0 0.0 0.0 
0.0 0.0 0.0 
0.0 0.0 0.0 
0.0 0.0 0.0 
0.0 0.0 0.0 
0.0 0.0 0.0 
0.0 0.0 0.0 
0.0 0.0 0.0 
0.0 0.0 0.0 
0.0 0.0 0.0 
0.0 0.0 0.0 
0.0 0.0 0.0 
0.0 0.0 0.0 
0.0 0.0 0.0 
0.0 0.0 0.0 
0.0 0.0 0.0 
0.0 0.0 0.0 
0.0 0.0 0.0 
0.0 0.0 0.0 
0.0 0.0 0.0 
0.0 0.0 0.0 
0.0 0.0 0.0 
0.0 0.0 0.0 
0.0 0.0 0.0 
0.0 0.0 0.0 
0.0 0.0 0.0 
0.0 0.0 0.0 
0.0 0.0 0.0 
0.0 0.0 0.0 
0.0 0.0 0.0 
0.0 0.0 0.0 
0.0 0.0 0.0 
0.0 0.0 0.0 
0.0 0.0 0.0 
0.0 0.0 0.0 
0.0 0.0 0.0 
0.0 0.0 0.0 
0.0 0.0 0.0 
0.0 0.0 0.0 
0.0 0.0 0.0 
0.0 0.0 0.0 
0.0 0.0 0.0 
0.0 0.0 0.0 
0.0 0.0 0.0 
0.0 0.0 0.0 
0.0 0.0 0.0 
0.0 0.0 0.0 
0.0 0.0 0.0 
0.0 0.0 0.0 
0.0 0.0 0.0 
0.0 0.0 0.0 
0.0 0.0 0.0 
0.0 0.0 0.0 
0.0 0.0 0.0 
0.0 0.0 0.0 
0.0 0.0 0.0 
0.0 0.0 0.0 
0.0 0.0 0.0 
0.0 0.0 0.0 
0.0 0.0 0.0 
0.0 0.0 0.0 
0.0 0.0 0.0 
0.0 0.0 0.0 
0.0 0.0 0.0 
0.0 0.0 0.0 
0.0 0.0 0.0 
0.0 0.0 0.0 
0.0 0.0 0.0 
0.0 0.0 0.0 
0.0 0.0 0.0 
0.0 0.0 0.0 
0.0 0.0 0.0 
0.0 0.0 0.0 
0.0 0.0 0.0 
0.0 0.0 0.0 
0.0 0.0 0.0 
0.0 0.0 0.0 
0.0 0.0 0.0 
0.0 0.0 0.0 
0.0 0.0 0.0 
0.0 0.0 0.0 
0.0 0.0 0.0 
0.0 0.0 0.0 
0.0 0.0 0.0 
0.0 0.0 0.0 
0.0 0.0 0.0 
0.0 0.0 0.0 
0.0 0.0 0.0 
0.0 0.0 0.0 
0.0 0.0 0.0 
0.0 0.0 0.0 
0.0 0.0 0.0 
0.0 0.0 0.0 
0.0 0.0 0.0 
0.0 0.0 0.0 
0.0 0.0 0.0 
0.0 0.0 0.0 
0.0 0.0 0.0 
0.0 0.0 0.0 
0.0 0.0 0.0 
0.0 0.0 0.0 
0.0 0.0 0.0 
0.0 0.0 0.0 
0.0 0.0 0.0 
0.0 0.0 0.0 
0.0 0.0 0.0 
0.0 0.0 0.0 
0.0 0.0 0.0 
0.0 0.0 0.0 
0.0 0.0 0.0 
0.0 0.0 0.0 
0.0 0.0 0.0 
0.0 0.0 0.0 
0.0 0.0 0.0 
0.0 0.0 0.0 
0.0 0.0 0.0 
0.0 0.0 0.0 
0.0 0.0 0.0 
0.0 0.0 0.0 
0.0 0.0 0.0 
0.0 0.0 0.0 
0.0 0.0 0.0 
0.0 0.0 0.0 
0.0 0.0 0.0 
0.0 0.0 0.0 
0.0 0.0 0.0 
0.0 0.0 0.0 
0.0 0.0 0.0 
0.0 0.0 0.0 
0.0 0.0 0.0 
0.0 0.0 0.0 
0.0 0.0 0.0 
0.0 0.0 0.0 
0.0 0.0 0.0 
0.0 0.0 0.0 
0.0 0.0 0.0 
0.0 0.0 0.0 
0.0 0.0 0.0 
0.0 0.0 0.0 
0.0 0.0 0.0 
0.0 0.0 0.0 
0.0 0.0 0.0 
0.0 0.0 0.0 
0.0 0.0 0.0 
0.0 0.0 0.0 
0.0 0.0 0.0 
0.0 0.0 0.0 
0.0 0.0 0.0 
0.0 0.0 0.0 
0.0 0.0 0.0 
0.0 0.0 0.0 
0.0 0.0 0.0 
0.0 0.0 0.0 
0.0 0.0 0.0 
0.0 0.0 0.0 
0.0 0.0 0.0 
0.0 0.0 0.0 
0.0 0.0 0.0 
0.0 0.0 0.0 
0.0 0.0 0.0 
0.0 0.0 0.0 
0.0 0.0 0.0 
0.0 0.0 0.0 
0.0 0.0 0.0 
0.0 0.0 0.0 
0.0 0.0 0.0 
0.0 0.0 0.0 
0.0 0.0 0.0 
0.0 0.0 0.0 
0.0 0.0 0.0 
0.0 0.0 0.0 
0.0 0.0 0.0 
0.0 0.0 0.0 
0.0 0.0 0.0 
0.0 0.0 0.0 
0.0 0.0 0.0 
0.0 0.0 0.0 
0.0 0.0 0.0 
0.0 0.0 0.0 
0.0 0.0 0.0 
0.0 0.0 0.0 
0.0 0.0 0.0 
0.0 0.0 0.0 
0.0 0.0 0.0 
0.0 0.0 0.0 
0.0 0.0 0.0 
0.0 0.0 0.0 
0.0 0.0 0.0 
0.0 0.0 0.0 
0.0 0.0 0.0 
0.0 0.0 0.0 
0.0 0.0 0.0 
0.0 0.0 0.0 
0.0 0.0 0.0 
0.0 0.0 0.0 
0.0 0.0 0.0 
0.0 0.0 0.0 
0.0 0.0 0.0 
0.0 0.0 0.0 
0.0 0.0 0.0 
0.0 0.0 0.0 
0.0 0.0 0.0 
0.0 0.0 0.0 
0.0 0.0 0.0 
0.0 0.0 0.0 
0.0 0.0 0.0 
0.0 0.0 0.0 
0.0 0.0 0.0 
0.0 0.0 0.0 
0.0 0.0 0.0 
0.0 0.0 0.0 
0.0 0.0 0.0 
0.0 0.0 0.0 
0.0 0.0 0.0 
0.0 0.0 0.0 
0.0 0.0 0.0 
0.0 0.0 0.0 
0.0 0.0 0.0 
0.0 0.0 0.0 
0.0 0.0 0.0 
0.0 0.0 0.0 
0.0 0.0 0.0 
0.0 0.0 0.0 
0.0 0.0 0.0 
0.0 0.0 0.0 
0.0 0.0 0.0 
0.0 0.0 0.0 
0.0 0.0 0.0 
0.0 0.0 0.0 
0.0 0.0 0.0 
0.0 0.0 0.0 
0.0 0.0 0.0 
0.0 0.0 0.0 
0.0 0.0 0.0 
0.0 0.0 0.0 
0.0 0.0 0.0 
0.0 0.0 0.0 
0.0 0.0 0.0 
0.0 0.0 0.0 
0.0 0.0 0.0 
0.0 0.0 0.0 
0.0 0.0 0.0 
0.0 0.0 0.0 
0.0 0.0 0.0 
0.0 0.0 0.0 
0.0 0.0 0.0 
0.0 0.0 0.0 
0.0 0.0 0.0 
0.0 0.0 0.0 
0.0 0.0 0.0 
0.0 0.0 0.0 
0.0 0.0 0.0 
0.0 0.0 0.0 
0.0 0.0 0.0 
0.0 0.0 0.0 
0.0 0.0 0.0 
0.0 0.0 0.0 
0.0 0.0 0.0 
0.0 0.0 0.0 
0.0 0.0 0.0 
0.0 0.0 0.0 
0.0 0.0 0.0 
0.0 0.0 0.0 
0.0 0.0 0.0 
0.0 0.0 0.0 
0.0 0.0 0.0 
0.0 0.0 0.0 
0.0 0.0 0.0 
0.0 0.0 0.0 
0.0 0.0 0.0 
0.0 0.0 0.0 
0.0 0.0 0.0 
0.0 0.0 0.0 
0.0 0.0 0.0 
0.0 0.0 0.0 
0.0 0.0 0.0 
0.0 0.0 0.0 
0.0 0.0 0.0 
0.0 0.0 0.0 
0.0 0.0 0.0 
0.0 0.0 0.0 
0.0 0.0 0.0 
0.0 0.0 0.0 
0.0 0.0 0.0 
0.0 0.0 0.0 
0.0 0.0 0.0 
0.0 0.0 0.0 
0.0 0.0 0.0 
0.0 0.0 0.0 
0.0 0.0 0.0 
0.0 0.0 0.0 

VECTORS node_force_gravity float
0.0 -1.962000000000e+01 0.0 
0.0 -1.962000000000e+01 0.0 
0.0 -1.962000000000e+01 0.0 
0.0 -1.962000000000e+01 0.0 
0.0 -1.962000000000e+01 0.0 
0.0 -1.962000000000e+01 0.0 
0.0 -1.962000000000e+01 0.0 
0.0 -1.962000000000e+01 0.0 
0.0 -1.962000000000e+01 0.0 
0.0 -1.962000000000e+01 0.0 
0.0 -1.962000000000e+01 0.0 
0.0 -1.962000000000e+01 0.0 
0.0 -1.962000000000e+01 0.0 
0.0 -1.962000000000e+01 0.0 
0.0 -1.962000000000e+01 0.0 
0.0 -1.962000000000e+01 0.0 
0.0 -1.962000000000e+01 0.0 
0.0 -1.962000000000e+01 0.0 
0.0 -1.962000000000e+01 0.0 
0.0 -1.962000000000e+01 0.0 
0.0 -1.962000000000e+01 0.0 
0.0 -1.962000000000e+01 0.0 
0.0 -1.962000000000e+01 0.0 
0.0 -1.962000000000e+01 0.0 
0.0 -1.962000000000e+01 0.0 
0.0 -1.962000000000e+01 0.0 
0.0 -1.962000000000e+01 0.0 
0.0 -1.962000000000e+01 0.0 
0.0 -1.962000000000e+01 0.0 
0.0 -1.962000000000e+01 0.0 
0.0 -1.962000000000e+01 0.0 
0.0 -1.962000000000e+01 0.0 
0.0 -1.962000000000e+01 0.0 
0.0 -1.962000000000e+01 0.0 
0.0 -1.962000000000e+01 0.0 
0.0 -1.962000000000e+01 0.0 
0.0 -1.962000000000e+01 0.0 
0.0 -1.962000000000e+01 0.0 
0.0 -1.962000000000e+01 0.0 
0.0 -1.962000000000e+01 0.0 
0.0 -1.962000000000e+01 0.0 
0.0 -1.962000000000e+01 0.0 
0.0 -1.962000000000e+01 0.0 
0.0 -1.962000000000e+01 0.0 
0.0 -1.962000000000e+01 0.0 
0.0 -1.962000000000e+01 0.0 
0.0 -1.962000000000e+01 0.0 
0.0 -1.962000000000e+01 0.0 
0.0 -1.962000000000e+01 0.0 
0.0 -1.962000000000e+01 0.0 
0.0 -1.962000000000e+01 0.0 
0.0 -1.962000000000e+01 0.0 
0.0 -1.962000000000e+01 0.0 
0.0 -1.962000000000e+01 0.0 
0.0 -1.962000000000e+01 0.0 
0.0 -1.962000000000e+01 0.0 
0.0 -1.962000000000e+01 0.0 
0.0 -1.962000000000e+01 0.0 
0.0 -1.962000000000e+01 0.0 
0.0 -1.962000000000e+01 0.0 
0.0 -1.962000000000e+01 0.0 
0.0 -1.962000000000e+01 0.0 
0.0 -1.962000000000e+01 0.0 
0.0 -1.962000000000e+01 0.0 
0.0 -1.962000000000e+01 0.0 
0.0 -1.962000000000e+01 0.0 
0.0 -1.962000000000e+01 0.0 
0.0 -1.962000000000e+01 0.0 
0.0 -1.962000000000e+01 0.0 
0.0 -1.962000000000e+01 0.0 
0.0 -1.962000000000e+01 0.0 
0.0 -1.962000000000e+01 0.0 
0.0 -1.962000000000e+01 0.0 
0.0 -1.962000000000e+01 0.0 
0.0 -1.962000000000e+01 0.0 
0.0 -1.962000000000e+01 0.0 
0.0 -1.962000000000e+01 0.0 
0.0 -1.962000000000e+01 0.0 
0.0 -1.962000000000e+01 0.0 
0.0 -1.962000000000e+01 0.0 
0.0 -1.962000000000e+01 0.0 
0.0 -1.962000000000e+01 0.0 
0.0 -1.962000000000e+01 0.0 
0.0 -1.962000000000e+01 0.0 
0.0 -1.962000000000e+01 0.0 
0.0 -1.962000000000e+01 0.0 
0.0 -1.962000000000e+01 0.0 
0.0 -1.962000000000e+01 0.0 
0.0 -1.962000000000e+01 0.0 
0.0 -1.962000000000e+01 0.0 
0.0 -1.962000000000e+01 0.0 
0.0 -1.962000000000e+01 0.0 
0.0 -1.962000000000e+01 0.0 
0.0 -1.962000000000e+01 0.0 
0.0 -1.962000000000e+01 0.0 
0.0 -1.962000000000e+01 0.0 
0.0 -1.962000000000e+01 0.0 
0.0 -1.962000000000e+01 0.0 
0.0 -1.962000000000e+01 0.0 
0.0 -1.962000000000e+01 0.0 
0.0 -1.962000000000e+01 0.0 
0.0 -1.962000000000e+01 0.0 
0.0 -1.962000000000e+01 0.0 
0.0 -1.962000000000e+01 0.0 
0.0 -1.962000000000e+01 0.0 
0.0 -1.962000000000e+01 0.0 
0.0 -1.962000000000e+01 0.0 
0.0 -1.962000000000e+01 0.0 
0.0 -1.962000000000e+01 0.0 
0.0 -1.962000000000e+01 0.0 
0.0 -1.962000000000e+01 0.0 
0.0 -1.962000000000e+01 0.0 
0.0 -1.962000000000e+01 0.0 
0.0 -1.962000000000e+01 0.0 
0.0 -1.962000000000e+01 0.0 
0.0 -1.962000000000e+01 0.0 
0.0 -1.962000000000e+01 0.0 
0.0 -1.962000000000e+01 0.0 
0.0 -1.962000000000e+01 0.0 
0.0 -1.962000000000e+01 0.0 
0.0 -1.962000000000e+01 0.0 
0.0 -1.962000000000e+01 0.0 
0.0 -1.962000000000e+01 0.0 
0.0 -1.962000000000e+01 0.0 
0.0 -1.962000000000e+01 0.0 
0.0 -1.962000000000e+01 0.0 
0.0 -1.962000000000e+01 0.0 
0.0 -1.962000000000e+01 0.0 
0.0 -1.962000000000e+01 0.0 
0.0 -1.962000000000e+01 0.0 
0.0 -1.962000000000e+01 0.0 
0.0 -1.962000000000e+01 0.0 
0.0 -1.962000000000e+01 0.0 
0.0 -1.962000000000e+01 0.0 
0.0 -1.962000000000e+01 0.0 
0.0 -1.962000000000e+01 0.0 
0.0 -1.962000000000e+01 0.0 
0.0 -1.962000000000e+01 0.0 
0.0 -1.962000000000e+01 0.0 
0.0 -1.962000000000e+01 0.0 
0.0 -1.962000000000e+01 0.0 
0.0 -1.962000000000e+01 0.0 
0.0 -1.962000000000e+01 0.0 
0.0 -1.962000000000e+01 0.0 
0.0 -1.962000000000e+01 0.0 
0.0 -1.962000000000e+01 0.0 
0.0 -1.962000000000e+01 0.0 
0.0 -1.962000000000e+01 0.0 
0.0 -1.962000000000e+01 0.0 
0.0 -1.962000000000e+01 0.0 
0.0 -1.962000000000e+01 0.0 
0.0 -1.962000000000e+01 0.0 
0.0 -1.962000000000e+01 0.0 
0.0 -1.962000000000e+01 0.0 
0.0 -1.962000000000e+01 0.0 
0.0 -1.962000000000e+01 0.0 
0.0 -1.962000000000e+01 0.0 
0.0 -1.962000000000e+01 0.0 
0.0 -1.962000000000e+01 0.0 
0.0 -1.962000000000e+01 0.0 
0.0 -1.962000000000e+01 0.0 
0.0 -1.962000000000e+01 0.0 
0.0 -1.962000000000e+01 0.0 
0.0 -1.962000000000e+01 0.0 
0.0 -1.962000000000e+01 0.0 
0.0 -1.962000000000e+01 0.0 
0.0 -1.962000000000e+01 0.0 
0.0 -1.962000000000e+01 0.0 
0.0 -1.962000000000e+01 0.0 
0.0 -1.962000000000e+01 0.0 
0.0 -1.962000000000e+01 0.0 
0.0 -1.962000000000e+01 0.0 
0.0 -1.962000000000e+01 0.0 
0.0 -1.962000000000e+01 0.0 
0.0 -1.962000000000e+01 0.0 
0.0 -1.962000000000e+01 0.0 
0.0 -1.962000000000e+01 0.0 
0.0 -1.962000000000e+01 0.0 
0.0 -1.962000000000e+01 0.0 
0.0 -1.962000000000e+01 0.0 
0.0 -1.962000000000e+01 0.0 
0.0 -1.962000000000e+01 0.0 
0.0 -1.962000000000e+01 0.0 
0.0 -1.962000000000e+01 0.0 
0.0 -1.962000000000e+01 0.0 
0.0 -1.962000000000e+01 0.0 
0.0 -1.962000000000e+01 0.0 
0.0 -1.962000000000e+01 0.0 
0.0 -1.962000000000e+01 0.0 
0.0 -1.962000000000e+01 0.0 
0.0 -1.962000000000e+01 0.0 
0.0 -1.962000000000e+01 0.0 
0.0 -1.962000000000e+01 0.0 
0.0 -1.962000000000e+01 0.0 
0.0 -1.962000000000e+01 0.0 
0.0 -1.962000000000e+01 0.0 
0.0 -1.962000000000e+01 0.0 
0.0 -1.962000000000e+01 0.0 
0.0 -1.962000000000e+01 0.0 
0.0 -1.962000000000e+01 0.0 
0.0 -1.962000000000e+01 0.0 
0.0 -1.962000000000e+01 0.0 
0.0 -1.962000000000e+01 0.0 
0.0 -1.962000000000e+01 0.0 
0.0 -1.962000000000e+01 0.0 
0.0 -1.962000000000e+01 0.0 
0.0 -1.962000000000e+01 0.0 
0.0 -1.962000000000e+01 0.0 
0.0 -1.962000000000e+01 0.0 
0.0 -1.962000000000e+01 0.0 
0.0 -1.962000000000e+01 0.0 
0.0 -1.962000000000e+01 0.0 
0.0 -1.962000000000e+01 0.0 
0.0 -1.962000000000e+01 0.0 
0.0 -1.962000000000e+01 0.0 
0.0 -1.962000000000e+01 0.0 
0.0 -1.962000000000e+01 0.0 
0.0 -1.962000000000e+01 0.0 
0.0 -1.962000000000e+01 0.0 
0.0 -1.962000000000e+01 0.0 
0.0 -1.962000000000e+01 0.0 
0.0 -1.962000000000e+01 0.0 
0.0 -1.962000000000e+01 0.0 
0.0 -1.962000000000e+01 0.0 
0.0 -1.962000000000e+01 0.0 
0.0 -1.962000000000e+01 0.0 
0.0 -1.962000000000e+01 0.0 
0.0 -1.962000000000e+01 0.0 
0.0 -1.962000000000e+01 0.0 
0.0 -1.962000000000e+01 0.0 
0.0 -1.962000000000e+01 0.0 
0.0 -1.962000000000e+01 0.0 
0.0 -1.962000000000e+01 0.0 
0.0 -1.962000000000e+01 0.0 
0.0 -1.962000000000e+01 0.0 
0.0 -1.962000000000e+01 0.0 
0.0 -1.962000000000e+01 0.0 
0.0 -1.962000000000e+01 0.0 
0.0 -1.962000000000e+01 0.0 
0.0 -1.962000000000e+01 0.0 
0.0 -1.962000000000e+01 0.0 
0.0 -1.962000000000e+01 0.0 
0.0 -1.962000000000e+01 0.0 
0.0 -1.962000000000e+01 0.0 
0.0 -1.962000000000e+01 0.0 
0.0 -1.962000000000e+01 0.0 
0.0 -1.962000000000e+01 0.0 
0.0 -1.962000000000e+01 0.0 
0.0 -1.962000000000e+01 0.0 
0.0 -1.962000000000e+01 0.0 
0.0 -1.962000000000e+01 0.0 
0.0 -1.962000000000e+01 0.0 
0.0 -1.962000000000e+01 0.0 
0.0 -1.962000000000e+01 0.0 
0.0 -1.962000000000e+01 0.0 
0.0 -1.962000000000e+01 0.0 
0.0 -1.962000000000e+01 0.0 
0.0 -1.962000000000e+01 0.0 
0.0 -1.962000000000e+01 0.0 
0.0 -1.962000000000e+01 0.0 
0.0 -1.962000000000e+01 0.0 
0.0 -1.962000000000e+01 0.0 
0.0 -1.962000000000e+01 0.0 
0.0 -1.962000000000e+01 0.0 
0.0 -1.962000000000e+01 0.0 
0.0 -1.962000000000e+01 0.0 
0.0 -1.962000000000e+01 0.0 
0.0 -1.962000000000e+01 0.0 
0.0 -1.962000000000e+01 0.0 
0.0 -1.962000000000e+01 0.0 
0.0 -1.962000000000e+01 0.0 
0.0 -1.962000000000e+01 0.0 
0.0 -1.962000000000e+01 0.0 
0.0 -1.962000000000e+01 0.0 
0.0 -1.962000000000e+01 0.0 
0.0 -1.962000000000e+01 0.0 
0.0 -1.962000000000e+01 0.0 
0.0 -1.962000000000e+01 0.0 
0.0 -1.962000000000e+01 0.0 
0.0 -1.962000000000e+01 0.0 
0.0 -1.962000000000e+01 0.0 
0.0 -1.962000000000e+01 0.0 
0.0 -1.962000000000e+01 0.0 
0.0 -1.962000000000e+01 0.0 
0.0 -1.962000000000e+01 0.0 
0.0 -1.962000000000e+01 0.0 
0.0 -1.962000000000e+01 0.0 
0.0 -1.962000000000e+01 0.0 
0.0 -1.962000000000e+01 0.0 
0.0 -1.962000000000e+01 0.0 
0.0 -1.962000000000e+01 0.0 
0.0 -1.962000000000e+01 0.0 
0.0 -1.962000000000e+01 0.0 
0.0 -1.962000000000e+01 0.0 
0.0 -1.962000000000e+01 0.0 
0.0 -1.962000000000e+01 0.0 
0.0 -1.962000000000e+01 0.0 
0.0 -1.962000000000e+01 0.0 
0.0 -1.962000000000e+01 0.0 
0.0 -1.962000000000e+01 0.0 
0.0 -1.962000000000e+01 0.0 
0.0 -1.962000000000e+01 0.0 
0.0 -1.962000000000e+01 0.0 
0.0 -1.962000000000e+01 0.0 
0.0 -1.962000000000e+01 0.0 
0.0 -1.962000000000e+01 0.0 
0.0 -1.962000000000e+01 0.0 
0.0 -1.962000000000e+01 0.0 
0.0 -1.962000000000e+01 0.0 
0.0 -1.962000000000e+01 0.0 
0.0 -1.962000000000e+01 0.0 
0.0 -1.962000000000e+01 0.0 
0.0 -1.962000000000e+01 0.0 
0.0 -1.962000000000e+01 0.0 
0.0 -1.962000000000e+01 0.0 
0.0 -1.962000000000e+01 0.0 
0.0 -1.962000000000e+01 0.0 
0.0 -1.962000000000e+01 0.0 
0.0 -1.962000000000e+01 0.0 
0.0 -1.962000000000e+01 0.0 
0.0 -1.962000000000e+01 0.0 
0.0 -1.962000000000e+01 0.0 
0.0 -1.962000000000e+01 0.0 
0.0 -1.962000000000e+01 0.0 
0.0 -1.962000000000e+01 0.0 
0.0 -1.962000000000e+01 0.0 
0.0 -1.962000000000e+01 0.0 
0.0 -1.962000000000e+01 0.0 
0.0 -1.962000000000e+01 0.0 
0.0 -1.962000000000e+01 0.0 
0.0 -1.962000000000e+01 0.0 
0.0 -1.962000000000e+01 0.0 
0.0 -1.962000000000e+01 0.0 
0.0 -1.962000000000e+01 0.0 
0.0 -1.962000000000e+01 0.0 
0.0 -1.962000000000e+01 0.0 
0.0 -1.962000000000e+01 0.0 
0.0 -1.962000000000e+01 0.0 
0.0 -1.962000000000e+01 0.0 
0.0 -1.962000000000e+01 0.0 
0.0 -1.962000000000e+01 0.0 
0.0 -1.962000000000e+01 0.0 
0.0 -1.962000000000e+01 0.0 
0.0 -1.962000000000e+01 0.0 
0.0 -1.962000000000e+01 0.0 
0.0 -1.962000000000e+01 0.0 
0.0 -1.962000000000e+01 0.0 
0.0 -1.962000000000e+01 0.0 
0.0 -1.962000000000e+01 0.0 
0.0 -1.962000000000e+01 0.0 
0.0 -1.962000000000e+01 0.0 
0.0 -1.962000000000e+01 0.0 
0.0 -1.962000000000e+01 0.0 
0.0 -1.962000000000e+01 0.0 
0.0 -1.962000000000e+01 0.0 
0.0 -1.962000000000e+01 0.0 
0.0 -1.962000000000e+01 0.0 
0.0 -1.962000000000e+01 0.0 
0.0 -1.962000000000e+01 0.0 
0.0 -1.962000000000e+01 0.0 
0.0 -1.962000000000e+01 0.0 
0.0 -1.962000000000e+01 0.0 
0.0 -1.962000000000e+01 0.0 
0.0 -1.962000000000e+01 0.0 
0.0 -1.962000000000e+01 0.0 
0.0 -1.962000000000e+01 0.0 
0.0 -1.962000000000e+01 0.0 
0.0 -1.962000000000e+01 0.0 
0.0 -1.962000000000e+01 0.0 
0.0 -1.962000000000e+01 0.0 
0.0 -1.962000000000e+01 0.0 
0.0 -1.962000000000e+01 0.0 
0.0 -1.962000000000e+01 0.0 
0.0 -1.962000000000e+01 0.0 
0.0 -1.962000000000e+01 0.0 
0.0 -1.962000000000e+01 0.0 
0.0 -1.962000000000e+01 0.0 
0.0 -1.962000000000e+01 0.0 
0.0 -1.962000000000e+01 0.0 
0.0 -1.962000000000e+01 0.0 
0.0 -1.962000000000e+01 0.0 
0.0 -1.962000000000e+01 0.0 
0.0 -1.962000000000e+01 0.0 
0.0 -1.962000000000e+01 0.0 
0.0 -1.962000000000e+01 0.0 
0.0 -1.962000000000e+01 0.0 
0.0 -1.962000000000e+01 0.0 
0.0 -1.962000000000e+01 0.0 
0.0 -1.962000000000e+01 0.0 
0.0 -1.962000000000e+01 0.0 
0.0 -1.962000000000e+01 0.0 
0.0 -1.962000000000e+01 0.0 
0.0 -1.962000000000e+01 0.0 
0.0 -1.962000000000e+01 0.0 
0.0 -1.962000000000e+01 0.0 
0.0 -1.962000000000e+01 0.0 
0.0 -1.962000000000e+01 0.0 
0.0 -1.962000000000e+01 0.0 
0.0 -1.962000000000e+01 0.0 
0.0 -1.962000000000e+01 0.0 
0.0 -1.962000000000e+01 0.0 
0.0 -1.962000000000e+01 0.0 
0.0 -1.962000000000e+01 0.0 
0.0 -1.962000000000e+01 0.0 
0.0 -1.962000000000e+01 0.0 
0.0 -1.962000000000e+01 0.0 
0.0 -1.962000000000e+01 0.0 
0.0 -1.962000000000e+01 0.0 
0.0 -1.962000000000e+01 0.0 
0.0 -1.962000000000e+01 0.0 
0.0 -1.962000000000e+01 0.0 
0.0 -1.962000000000e+01 0.0 
0.0 -1.962000000000e+01 0.0 
0.0 -1.962000000000e+01 0.0 
0.0 -1.962000000000e+01 0.0 
0.0 -1.962000000000e+01 0.0 
0.0 -1.962000000000e+01 0.0 
0.0 -1.962000000000e+01 0.0 
0.0 -1.962000000000e+01 0.0 
0.0 -1.962000000000e+01 0.0 
0.0 -1.962000000000e+01 0.0 
0.0 -1.962000000000e+01 0.0 
0.0 -1.962000000000e+01 0.0 
0.0 -1.962000000000e+01 0.0 
0.0 -1.962000000000e+01 0.0 
0.0 -1.962000000000e+01 0.0 
0.0 -1.962000000000e+01 0.0 
0.0 -1.962000000000e+01 0.0 
0.0 -1.962000000000e+01 0.0 
0.0 -1.962000000000e+01 0.0 
0.0 -1.962000000000e+01 0.0 
0.0 -1.962000000000e+01 0.0 
0.0 -1.962000000000e+01 0.0 
0.0 -1.962000000000e+01 0.0 
0.0 -1.962000000000e+01 0.0 
0.0 -1.962000000000e+01 0.0 
0.0 -1.962000000000e+01 0.0 
0.0 -1.962000000000e+01 0.0 
0.0 -1.962000000000e+01 0.0 
0.0 -1.962000000000e+01 0.0 
0.0 -1.962000000000e+01 0.0 
0.0 -1.962000000000e+01 0.0 
0.0 -1.962000000000e+01 0.0 
0.0 -1.962000000000e+01 0.0 
0.0 -1.962000000000e+01 0.0 
0.0 -1.962000000000e+01 0.0 
0.0 -1.962000000000e+01 0.0 
0.0 -1.962000000000e+01 0.0 
0.0 -1.962000000000e+01 0.0 
0.0 -1.962000000000e+01 0.0 
0.0 -1.962000000000e+01 0.0 
0.0 -1.962000000000e+01 0.0 
0.0 -1.962000000000e+01 0.0 
0.0 -1.962000000000e+01 0.0 
0.0 -1.962000000000e+01 0.0 
0.0 -1.962000000000e+01 0.0 
0.0 -1.962000000000e+01 0.0 
0.0 -1.962000000000e+01 0.0 
0.0 -1.962000000000e+01 0.0 
0.0 -1.962000000000e+01 0.0 
0.0 -1.962000000000e+01 0.0 
0.0 -1.962000000000e+01 0.0 
0.0 -1.962000000000e+01 0.0 
0.0 -1.962000000000e+01 0.0 
0.0 -1.962000000000e+01 0.0 
0.0 -1.962000000000e+01 0.0 
0.0 -1.962000000000e+01 0.0 
0.0 -1.962000000000e+01 0.0 
0.0 -1.962000000000e+01 0.0 
0.0 -1.962000000000e+01 0.0 
0.0 -1.962000000000e+01 0.0 
0.0 -1.962000000000e+01 0.0 
0.0 -1.962000000000e+01 0.0 
0.0 -1.962000000000e+01 0.0 
0.0 -1.962000000000e+01 0.0 
0.0 -1.962000000000e+01 0.0 
0.0 -1.962000000000e+01 0.0 
0.0 -1.962000000000e+01 0.0 
0.0 -1.962000000000e+01 0.0 
0.0 -1.962000000000e+01 0.0 
0.0 -1.962000000000e+01 0.0 
0.0 -1.962000000000e+01 0.0 
0.0 -1.962000000000e+01 0.0 
0.0 -1.962000000000e+01 0.0 
0.0 -1.962000000000e+01 0.0 
0.0 -1.962000000000e+01 0.0 
0.0 -1.962000000000e+01 0.0 
0.0 -1.962000000000e+01 0.0 
0.0 -1.962000000000e+01 0.0 
0.0 -1.962000000000e+01 0.0 
0.0 -1.962000000000e+01 0.0 
0.0 -1.962000000000e+01 0.0 
0.0 -1.962000000000e+01 0.0 
0.0 -1.962000000000e+01 0.0 
0.0 -1.962000000000e+01 0.0 
0.0 -1.962000000000e+01 0.0 
0.0 -1.962000000000e+01 0.0 
0.0 -1.962000000000e+01 0.0 
0.0 -1.962000000000e+01 0.0 
0.0 -1.962000000000e+01 0.0 
0.0 -1.962000000000e+01 0.0 
0.0 -1.962000000000e+01 0.0 
0.0 -1.962000000000e+01 0.0 
0.0 -1.962000000000e+01 0.0 
0.0 -1.962000000000e+01 0.0 
0.0 -1.962000000000e+01 0.0 
0.0 -1.962000000000e+01 0.0 
0.0 -1.962000000000e+01 0.0 
0.0 -1.962000000000e+01 0.0 
0.0 -1.962000000000e+01 0.0 
0.0 -1.962000000000e+01 0.0 
0.0 -1.962000000000e+01 0.0 
0.0 -1.962000000000e+01 0.0 
0.0 -1.962000000000e+01 0.0 
0.0 -1.962000000000e+01 0.0 
0.0 -1.962000000000e+01 0.0 
0.0 -1.962000000000e+01 0.0 
0.0 -1.962000000000e+01 0.0 
0.0 -1.962000000000e+01 0.0 
0.0 -1.962000000000e+01 0.0 
0.0 -1.962000000000e+01 0.0 
0.0 -1.962000000000e+01 0.0 
0.0 -1.962000000000e+01 0.0 
0.0 -1.962000000000e+01 0.0 
0.0 -1.962000000000e+01 0.0 
0.0 -1.962000000000e+01 0.0 
0.0 -1.962000000000e+01 0.0 
0.0 -1.962000000000e+01 0.0 
0.0 -1.962000000000e+01 0.0 
0.0 -1.962000000000e+01 0.0 
0.0 -1.962000000000e+01 0.0 
0.0 -1.962000000000e+01 0.0 
0.0 -1.962000000000e+01 0.0 
0.0 -1.962000000000e+01 0.0 
0.0 -1.962000000000e+01 0.0 
0.0 -1.962000000000e+01 0.0 
0.0 -1.962000000000e+01 0.0 
0.0 -1.962000000000e+01 0.0 
0.0 -1.962000000000e+01 0.0 
0.0 -1.962000000000e+01 0.0 
0.0 -1.962000000000e+01 0.0 
0.0 -1.962000000000e+01 0.0 
0.0 -1.962000000000e+01 0.0 
0.0 -1.962000000000e+01 0.0 
0.0 -1.962000000000e+01 0.0 
0.0 -1.962000000000e+01 0.0 
0.0 -1.962000000000e+01 0.0 
0.0 -1.962000000000e+01 0.0 
0.0 -1.962000000000e+01 0.0 
0.0 -1.962000000000e+01 0.0 
0.0 -1.962000000000e+01 0.0 
0.0 -1.962000000000e+01 0.0 
0.0 -1.962000000000e+01 0.0 
0.0 -1.962000000000e+01 0.0 
0.0 -1.962000000000e+01 0.0 
0.0 -1.962000000000e+01 0.0 
0.0 -1.962000000000e+01 0.0 
0.0 -1.962000000000e+01 0.0 
0.0 -1.962000000000e+01 0.0 
0.0 -1.962000000000e+01 0.0 
0.0 -1.962000000000e+01 0.0 
0.0 -1.962000000000e+01 0.0 
0.0 -1.962000000000e+01 0.0 
0.0 -1.962000000000e+01 0.0 
0.0 -1.962000000000e+01 0.0 
0.0 -1.962000000000e+01 0.0 
0.0 -1.962000000000e+01 0.0 
0.0 -1.962000000000e+01 0.0 
0.0 -1.962000000000e+01 0.0 
0.0 -1.962000000000e+01 0.0 
0.0 -1.962000000000e+01 0.0 
0.0 -1.962000000000e+01 0.0 
0.0 -1.962000000000e+01 0.0 
0.0 -1.962000000000e+01 0.0 
0.0 -1.962000000000e+01 0.0 
0.0 -1.962000000000e+01 0.0 
0.0 -1.962000000000e+01 0.0 
0.0 -1.962000000000e+01 0.0 
0.0 -1.962000000000e+01 0.0 
0.0 -1.962000000000e+01 0.0 
0.0 -1.962000000000e+01 0.0 
0.0 -1.962000000000e+01 0.0 
0.0 -1.962000000000e+01 0.0 
0.0 -1.962000000000e+01 0.0 
0.0 -1.962000000000e+01 0.0 
0.0 -1.962000000000e+01 0.0 
0.0 -1.962000000000e+01 0.0 
0.0 -1.962000000000e+01 0.0 
0.0 -1.962000000000e+01 0.0 
0.0 -1.962000000000e+01 0.0 
0.0 -1.962000000000e+01 0.0 
0.0 -1.962000000000e+01 0.0 
0.0 -1.962000000000e+01 0.0 
0.0 -1.962000000000e+01 0.0 
0.0 -1.962000000000e+01 0.0 
0.0 -1.962000000000e+01 0.0 
0.0 -1.962000000000e+01 0.0 
0.0 -1.962000000000e+01 0.0 
0.0 -1.962000000000e+01 0.0 
0.0 -1.962000000000e+01 0.0 
0.0 -1.962000000000e+01 0.0 
0.0 -1.962000000000e+01 0.0 
0.0 -1.962000000000e+01 0.0 
0.0 -1.962000000000e+01 0.0 
0.0 -1.962000000000e+01 0.0 
0.0 -1.962000000000e+01 0.0 
0.0 -1.962000000000e+01 0.0 
0.0 -1.962000000000e+01 0.0 
0.0 -1.962000000000e+01 0.0 
0.0 -1.962000000000e+01 0.0 
0.0 -1.962000000000e+01 0.0 
0.0 -1.962000000000e+01 0.0 
0.0 -1.962000000000e+01 0.0 
0.0 -1.962000000000e+01 0.0 
0.0 -1.962000000000e+01 0.0 
0.0 -1.962000000000e+01 0.0 
0.0 -1.962000000000e+01 0.0 
0.0 -1.962000000000e+01 0.0 
0.0 -1.962000000000e+01 0.0 
0.0 -1.962000000000e+01 0.0 
0.0 -1.962000000000e+01 0.0 
0.0 -1.962000000000e+01 0.0 
0.0 -1.962000000000e+01 0.0 
0.0 -1.962000000000e+01 0.0 
0.0 -1.962000000000e+01 0.0 
0.0 -1.962000000000e+01 0.0 
0.0 -1.962000000000e+01 0.0 
0.0 -1.962000000000e+01 0.0 
0.0 -1.962000000000e+01 0.0 
0.0 -1.962000000000e+01 0.0 
0.0 -1.962000000000e+01 0.0 
0.0 -1.962000000000e+01 0.0 
0.0 -1.962000000000e+01 0.0 
0.0 -1.962000000000e+01 0.0 
0.0 -1.962000000000e+01 0.0 
0.0 -1.962000000000e+01 0.0 
0.0 -1.962000000000e+01 0.0 
0.0 -1.962000000000e+01 0.0 
0.0 -1.962000000000e+01 0.0 
0.0 -1.962000000000e+01 0.0 
0.0 -1.962000000000e+01 0.0 
0.0 -1.962000000000e+01 0.0 
0.0 -1.962000000000e+01 0.0 
0.0 -1.962000000000e+01 0.0 
0.0 -1.962000000000e+01 0.0 
0.0 -1.962000000000e+01 0.0 
0.0 -1.962000000000e+01 0.0 
0.0 -1.962000000000e+01 0.0 
0.0 -1.962000000000e+01 0.0 
0.0 -1.962000000000e+01 0.0 
0.0 -1.962000000000e+01 0.0 
0.0 -1.962000000000e+01 0.0 
0.0 -1.962000000000e+01 0.0 
0.0 -1.962000000000e+01 0.0 
0.0 -1.962000000000e+01 0.0 
0.0 -1.962000000000e+01 0.0 
0.0 -1.962000000000e+01 0.0 
0.0 -1.962000000000e+01 0.0 
0.0 -1.962000000000e+01 0.0 
0.0 -1.962000000000e+01 0.0 
0.0 -1.962000000000e+01 0.0 
0.0 -1.962000000000e+01 0.0 
0.0 -1.962000000000e+01 0.0 
0.0 -1.962000000000e+01 0.0 
0.0 -1.962000000000e+01 0.0 
0.0 -1.962000000000e+01 0.0 
0.0 -1.962000000000e+01 0.0 
0.0 -1.962000000000e+01 0.0 
0.0 -1.962000000000e+01 0.0 
0.0 -1.962000000000e+01 0.0 
0.0 -1.962000000000e+01 0.0 
0.0 -1.962000000000e+01 0.0 
0.0 -1.962000000000e+01 0.0 
0.0 -1.962000000000e+01 0.0 
0.0 -1.962000000000e+01 0.0 
0.0 -1.962000000000e+01 0.0 
0.0 -1.962000000000e+01 0.0 
0.0 -1.962000000000e+01 0.0 
0.0 -1.962000000000e+01 0.0 
0.0 -1.962000000000e+01 0.0 
0.0 -1.962000000000e+01 0.0 
0.0 -1.962000000000e+01 0.0 
0.0 -1.962000000000e+01 0.0 
0.0 -1.962000000000e+01 0.0 
0.0 -1.962000000000e+01 0.0 
0.0 -1.962000000000e+01 0.0 
0.0 -1.962000000000e+01 0.0 
0.0 -1.962000000000e+01 0.0 
0.0 -1.962000000000e+01 0.0 
0.0 -1.962000000000e+01 0.0 
0.0 -1.962000000000e+01 0.0 
0.0 -1.962000000000e+01 0.0 
0.0 -1.962000000000e+01 0.0 
0.0 -1.962000000000e+01 0.0 
0.0 -1.962000000000e+01 0.0 
0.0 -1.962000000000e+01 0.0 
0.0 -1.962000000000e+01 0.0 
0.0 -1.962000000000e+01 0.0 
0.0 -1.962000000000e+01 0.0 
0.0 -1.962000000000e+01 0.0 
0.0 -1.962000000000e+01 0.0 
0.0 -1.962000000000e+01 0.0 
0.0 -1.962000000000e+01 0.0 
0.0 -1.962000000000e+01 0.0 
0.0 -1.962000000000e+01 0.0 
0.0 -1.962000000000e+01 0.0 
0.0 -1.962000000000e+01 0.0 
0.0 -1.962000000000e+01 0.0 
0.0 -1.962000000000e+01 0.0 
0.0 -1.962000000000e+01 0.0 
0.0 -1.962000000000e+01 0.0 
0.0 -1.962000000000e+01 0.0 
0.0 -1.962000000000e+01 0.0 
0.0 -1.962000000000e+01 0.0 
0.0 -1.962000000000e+01 0.0 
0.0 -1.962000000000e+01 0.0 
0.0 -1.962000000000e+01 0.0 
0.0 -1.962000000000e+01 0.0 
0.0 -1.962000000000e+01 0.0 
0.0 -1.962000000000e+01 0.0 
0.0 -1.962000000000e+01 0.0 
0.0 -1.962000000000e+01 0.0 
0.0 -1.962000000000e+01 0.0 
0.0 -1.962000000000e+01 0.0 
0.0 -1.962000000000e+01 0.0 
0.0 -1.962000000000e+01 0.0 
0.0 -1.962000000000e+01 0.0 
0.0 -1.962000000000e+01 0.0 
0.0 -1.962000000000e+01 0.0 
0.0 -1.962000000000e+01 0.0 
0.0 -1.962000000000e+01 0.0 
0.0 -1.962000000000e+01 0.0 
0.0 -1.962000000000e+01 0.0 
0.0 -1.962000000000e+01 0.0 
0.0 -1.962000000000e+01 0.0 
0.0 -1.962000000000e+01 0.0 
0.0 -1.962000000000e+01 0.0 
0.0 -1.962000000000e+01 0.0 
0.0 -1.962000000000e+01 0.0 
0.0 -1.962000000000e+01 0.0 
0.0 -1.962000000000e+01 0.0 
0.0 -1.962000000000e+01 0.0 
0.0 -1.962000000000e+01 0.0 
0.0 -1.962000000000e+01 0.0 
0.0 -1.962000000000e+01 0.0 
0.0 -1.962000000000e+01 0.0 
0.0 -1.962000000000e+01 0.0 
0.0 -1.962000000000e+01 0.0 
0.0 -1.962000000000e+01 0.0 
0.0 -1.962000000000e+01 0.0 
0.0 -1.962000000000e+01 0.0 
0.0 -1.962000000000e+01 0.0 
0.0 -1.962000000000e+01 0.0 
0.0 -1.962000000000e+01 0.0 
0.0 -1.962000000000e+01 0.0 
0.0 -1.962000000000e+01 0.0 
0.0 -1.962000000000e+01 0.0 
0.0 -1.962000000000e+01 0.0 
0.0 -1.962000000000e+01 0.0 
0.0 -1.962000000000e+01 0.0 
0.0 -1.962000000000e+01 0.0 
0.0 -1.962000000000e+01 0.0 
0.0 -1.962000000000e+01 0.0 
0.0 -1.962000000000e+01 0.0 
0.0 -1.962000000000e+01 0.0 
0.0 -1.962000000000e+01 0.0 
0.0 -1.962000000000e+01 0.0 
0.0 -1.962000000000e+01 0.0 
0.0 -1.962000000000e+01 0.0 
0.0 -1.962000000000e+01 0.0 
0.0 -1.962000000000e+01 0.0 
0.0 -1.962000000000e+01 0.0 
0.0 -1.962000000000e+01 0.0 
0.0 -1.962000000000e+01 0.0 
0.0 -1.962000000000e+01 0.0 
0.0 -1.962000000000e+01 0.0 
0.0 -1.962000000000e+01 0.0 
0.0 -1.962000000000e+01 0.0 
0.0 -1.962000000000e+01 0.0 
0.0 -1.962000000000e+01 0.0 
0.0 -1.962000000000e+01 0.0 
0.0 -1.962000000000e+01 0.0 
0.0 -1.962000000000e+01 0.0 
0.0 -1.962000000000e+01 0.0 
0.0 -1.962000000000e+01 0.0 
0.0 -1.962000000000e+01 0.0 
0.0 -1.962000000000e+01 0.0 
0.0 -1.962000000000e+01 0.0 
0.0 -1.962000000000e+01 0.0 
0.0 -1.962000000000e+01 0.0 
0.0 -1.962000000000e+01 0.0 
0.0 -1.962000000000e+01 0.0 
0.0 -1.962000000000e+01 0.0 
0.0 -1.962000000000e+01 0.0 
0.0 -1.962000000000e+01 0.0 
0.0 -1.962000000000e+01 0.0 
0.0 -1.962000000000e+01 0.0 
0.0 -1.962000000000e+01 0.0 
0.0 -1.962000000000e+01 0.0 
0.0 -1.962000000000e+01 0.0 
0.0 -1.962000000000e+01 0.0 
0.0 -1.962000000000e+01 0.0 
0.0 -1.962000000000e+01 0.0 
0.0 -1.962000000000e+01 0.0 
0.0 -1.962000000000e+01 0.0 
0.0 -1.962000000000e+01 0.0 
0.0 -1.962000000000e+01 0.0 
0.0 -1.962000000000e+01 0.0 
0.0 -1.962000000000e+01 0.0 
0.0 -1.962000000000e+01 0.0 
0.0 -1.962000000000e+01 0.0 
0.0 -1.962000000000e+01 0.0 
0.0 -1.962000000000e+01 0.0 
0.0 -1.962000000000e+01 0.0 
0.0 -1.962000000000e+01 0.0 
0.0 -1.962000000000e+01 0.0 
0.0 -1.962000000000e+01 0.0 
0.0 -1.962000000000e+01 0.0 
0.0 -1.962000000000e+01 0.0 
0.0 -1.962000000000e+01 0.0 
0.0 -1.962000000000e+01 0.0 
0.0 -1.962000000000e+01 0.0 
0.0 -1.962000000000e+01 0.0 
0.0 -1.962000000000e+01 0.0 
0.0 -1.962000000000e+01 0.0 
0.0 -1.962000000000e+01 0.0 
0.0 -1.962000000000e+01 0.0 
0.0 -1.962000000000e+01 0.0 
0.0 -1.962000000000e+01 0.0 
0.0 -1.962000000000e+01 0.0 
0.0 -1.962000000000e+01 0.0 
0.0 -1.962000000000e+01 0.0 
0.0 -1.962000000000e+01 0.0 
0.0 -1.962000000000e+01 0.0 
0.0 -1.962000000000e+01 0.0 
0.0 -1.962000000000e+01 0.0 
0.0 -1.962000000000e+01 0.0 
0.0 -1.962000000000e+01 0.0 
0.0 -1.962000000000e+01 0.0 
0.0 -1.962000000000e+01 0.0 
0.0 -1.962000000000e+01 0.0 
0.0 -1.962000000000e+01 0.0 
0.0 -1.962000000000e+01 0.0 
0.0 -1.962000000000e+01 0.0 
0.0 -1.962000000000e+01 0.0 
0.0 -1.962000000000e+01 0.0 
0.0 -1.962000000000e+01 0.0 
0.0 -1.962000000000e+01 0.0 
0.0 -1.962000000000e+01 0.0 
0.0 -1.962000000000e+01 0.0 
0.0 -1.962000000000e+01 0.0 
0.0 -1.962000000000e+01 0.0 
0.0 -1.962000000000e+01 0.0 
0.0 -1.962000000000e+01 0.0 
0.0 -1.962000000000e+01 0.0 
0.0 -1.962000000000e+01 0.0 
0.0 -1.962000000000e+01 0.0 
0.0 -1.962000000000e+01 0.0 
0.0 -1.962000000000e+01 0.0 
0.0 -1.962000000000e+01 0.0 
0.0 -1.962000000000e+01 0.0 
0.0 -1.962000000000e+01 0.0 
0.0 -1.962000000000e+01 0.0 
0.0 -1.962000000000e+01 0.0 
0.0 -1.962000000000e+01 0.0 
0.0 -1.962000000000e+01 0.0 
0.0 -1.962000000000e+01 0.0 
0.0 -1.962000000000e+01 0.0 
0.0 -1.962000000000e+01 0.0 
0.0 -1.962000000000e+01 0.0 
0.0 -1.962000000000e+01 0.0 
0.0 -1.962000000000e+01 0.0 
0.0 -1.962000000000e+01 0.0 
0.0 -1.962000000000e+01 0.0 
0.0 -1.962000000000e+01 0.0 
0.0 -1.962000000000e+01 0.0 
0.0 -1.962000000000e+01 0.0 
0.0 -1.962000000000e+01 0.0 
0.0 -1.962000000000e+01 0.0 
0.0 -1.962000000000e+01 0.0 
0.0 -1.962000000000e+01 0.0 
0.0 -1.962000000000e+01 0.0 
0.0 -1.962000000000e+01 0.0 
0.0 -1.962000000000e+01 0.0 
0.0 -1.962000000000e+01 0.0 
0.0 -1.962000000000e+01 0.0 
0.0 -1.962000000000e+01 0.0 
0.0 -1.962000000000e+01 0.0 
0.0 -1.962000000000e+01 0.0 
0.0 -1.962000000000e+01 0.0 
0.0 -1.962000000000e+01 0.0 
0.0 -1.962000000000e+01 0.0 
0.0 -1.962000000000e+01 0.0 
0.0 -1.962000000000e+01 0.0 
0.0 -1.962000000000e+01 0.0 
0.0 -1.962000000000e+01 0.0 
0.0 -1.962000000000e+01 0.0 
0.0 -1.962000000000e+01 0.0 
0.0 -1.962000000000e+01 0.0 
0.0 -1.962000000000e+01 0.0 
0.0 -1.962000000000e+01 0.0 
0.0 -1.962000000000e+01 0.0 
0.0 -1.962000000000e+01 0.0 
0.0 -1.962000000000e+01 0.0 
0.0 -1.962000000000e+01 0.0 
0.0 -1.962000000000e+01 0.0 
0.0 -1.962000000000e+01 0.0 
0.0 -1.962000000000e+01 0.0 
0.0 -1.962000000000e+01 0.0 
0.0 -1.962000000000e+01 0.0 
0.0 -1.962000000000e+01 0.0 
0.0 -1.962000000000e+01 0.0 
0.0 -1.962000000000e+01 0.0 
0.0 -1.962000000000e+01 0.0 
0.0 -1.962000000000e+01 0.0 
0.0 -1.962000000000e+01 0.0 
0.0 -1.962000000000e+01 0.0 
0.0 -1.962000000000e+01 0.0 
0.0 -1.962000000000e+01 0.0 
0.0 -1.962000000000e+01 0.0 
0.0 -1.962000000000e+01 0.0 
0.0 -1.962000000000e+01 0.0 
0.0 -1.962000000000e+01 0.0 
0.0 -1.962000000000e+01 0.0 
0.0 -1.962000000000e+01 0.0 
0.0 -1.962000000000e+01 0.0 
0.0 -1.962000000000e+01 0.0 
0.0 -1.962000000000e+01 0.0 
0.0 -1.962000000000e+01 0.0 
0.0 -1.962000000000e+01 0.0 
0.0 -1.962000000000e+01 0.0 
0.0 -1.962000000000e+01 0.0 
0.0 -1.962000000000e+01 0.0 
0.0 -1.962000000000e+01 0.0 
0.0 -1.962000000000e+01 0.0 
0.0 -1.962000000000e+01 0.0 
0.0 -1.962000000000e+01 0.0 
0.0 -1.962000000000e+01 0.0 
0.0 -1.962000000000e+01 0.0 
0.0 -1.962000000000e+01 0.0 
0.0 -1.962000000000e+01 0.0 
0.0 -1.962000000000e+01 0.0 
0.0 -1.962000000000e+01 0.0 
0.0 -1.962000000000e+01 0.0 
0.0 -1.962000000000e+01 0.0 
0.0 -1.962000000000e+01 0.0 
0.0 -1.962000000000e+01 0.0 
0.0 -1.962000000000e+01 0.0 
0.0 -1.962000000000e+01 0.0 
0.0 -1.962000000000e+01 0.0 
0.0 -1.962000000000e+01 0.0 
0.0 -1.962000000000e+01 0.0 
0.0 -1.962000000000e+01 0.0 
0.0 -1.962000000000e+01 0.0 
0.0 -1.962000000000e+01 0.0 
0.0 -1.962000000000e+01 0.0 
0.0 -1.962000000000e+01 0.0 
0.0 -1.962000000000e+01 0.0 
0.0 -1.962000000000e+01 0.0 
0.0 -1.962000000000e+01 0.0 
0.0 -1.962000000000e+01 0.0 
0.0 -1.962000000000e+01 0.0 
0.0 -1.962000000000e+01 0.0 
0.0 -1.962000000000e+01 0.0 
0.0 -1.962000000000e+01 0.0 
0.0 -1.962000000000e+01 0.0 
0.0 -1.962000000000e+01 0.0 
0.0 -1.962000000000e+01 0.0 
0.0 -1.962000000000e+01 0.0 
0.0 -1.962000000000e+01 0.0 
0.0 -1.962000000000e+01 0.0 
0.0 -1.962000000000e+01 0.0 
0.0 -1.962000000000e+01 0.0 
0.0 -1.962000000000e+01 0.0 
0.0 -1.962000000000e+01 0.0 
0.0 -1.962000000000e+01 0.0 
0.0 -1.962000000000e+01 0.0 
0.0 -1.962000000000e+01 0.0 
0.0 -1.962000000000e+01 0.0 
0.0 -1.962000000000e+01 0.0 
0.0 -1.962000000000e+01 0.0 
0.0 -1.962000000000e+01 0.0 
0.0 -1.962000000000e+01 0.0 
0.0 -1.962000000000e+01 0.0 
0.0 -1.962000000000e+01 0.0 
0.0 -1.962000000000e+01 0.0 
0.0 -1.962000000000e+01 0.0 
0.0 -1.962000000000e+01 0.0 
0.0 -1.962000000000e+01 0.0 
0.0 -1.962000000000e+01 0.0 
0.0 -1.962000000000e+01 0.0 
0.0 -1.962000000000e+01 0.0 
0.0 -1.962000000000e+01 0.0 
0.0 -1.962000000000e+01 0.0 
0.0 -1.962000000000e+01 0.0 
0.0 -1.962000000000e+01 0.0 
0.0 -1.962000000000e+01 0.0 
0.0 -1.962000000000e+01 0.0 
0.0 -1.962000000000e+01 0.0 
0.0 -1.962000000000e+01 0.0 
0.0 -1.962000000000e+01 0.0 
0.0 -1.962000000000e+01 0.0 
0.0 -1.962000000000e+01 0.0 
0.0 -1.962000000000e+01 0.0 
0.0 -1.962000000000e+01 0.0 
0.0 -1.962000000000e+01 0.0 
0.0 -1.962000000000e+01 0.0 
0.0 -1.962000000000e+01 0.0 
0.0 -1.962000000000e+01 0.0 
0.0 -1.962000000000e+01 0.0 
0.0 -1.962000000000e+01 0.0 
0.0 -1.962000000000e+01 0.0 
0.0 -1.962000000000e+01 0.0 
0.0 -1.962000000000e+01 0.0 
0.0 -1.962000000000e+01 0.0 
0.0 -1.962000000000e+01 0.0 
0.0 -1.962000000000e+01 0.0 
0.0 -1.962000000000e+01 0.0 
0.0 -1.962000000000e+01 0.0 
0.0 -1.962000000000e+01 0.0 
0.0 -1.962000000000e+01 0.0 
0.0 -1.962000000000e+01 0.0 
0.0 -1.962000000000e+01 0.0 
0.0 -1.962000000000e+01 0.0 
0.0 -1.962000000000e+01 0.0 
0.0 -1.962000000000e+01 0.0 
0.0 -1.962000000000e+01 0.0 
0.0 -1.962000000000e+01 0.0 

VECTORS node_rhside_materi_fixed float
-4.387673208524e+00 0.0 0.0 
1.264508688799e+01 0.0 0.0 
-8.381736081498e+01 -2.002821841102e+02 0.0 
4.241842948600e+01 -1.023281175977e+02 0.0 
-7.127374396995e+00 0.0 0.0 
-1.018200570668e+01 0.0 0.0 
-1.271940858843e+01 0.0 0.0 
-2.364964997305e+01 0.0 0.0 
-3.916416030764e+01 0.0 0.0 
-5.282694574932e+01 0.0 0.0 
-6.492902890522e+01 0.0 0.0 
-7.558793363836e+01 0.0 0.0 
-8.476363983255e+01 0.0 0.0 
-9.290181011172e+01 0.0 0.0 
-1.003244322521e+02 0.0 0.0 
-1.069108126869e+02 0.0 0.0 
-1.127955283709e+02 0.0 0.0 
-1.187410089829e+02 0.0 0.0 
-1.242672053858e+02 0.0 0.0 
-1.315231854746e+02 0.0 0.0 
-1.410629690688e+02 0.0 0.0 
-1.508650248937e+02 0.0 0.0 
-1.611633874990e+02 0.0 0.0 
1.524723256408e+00 -2.033130131050e+02 0.0 
2.692756409864e+00 -2.050065749142e+02 0.0 
6.766998223228e+00 -2.043488250993e+02 0.0 
5.794386399302e+00 -2.049353958534e+02 0.0 
9.849994668133e+00 -2.067722812185e+02 0.0 
1.159731914335e+01 -2.069430466980e+02 0.0 
1.365004607003e+01 -2.092766825369e+02 0.0 
1.625701520669e+01 -2.117200328122e+02 0.0 
2.068677468399e+01 -2.133978766761e+02 0.0 
2.057901870214e+01 -2.166184908594e+02 0.0 
2.595522380349e+01 -2.219134183238e+02 0.0 
2.863910970426e+01 -2.254486789705e+02 0.0 
3.135612200184e+01 -2.320759938042e+02 0.0 
3.409158965733e+01 -2.379062191143e+02 0.0 
3.696661571444e+01 -2.450700399521e+02 0.0 
3.912116780526e+01 -2.533993171001e+02 0.0 
4.220783219106e+01 -2.616653623252e+02 0.0 
4.340363603537e+01 -2.705383461415e+02 0.0 
4.456484757802e+01 -2.796532416690e+02 0.0 
4.512557315292e+01 -2.885254213955e+02 0.0 
4.507353295000e+01 -2.976081472612e+02 0.0 
4.523518090850e+01 -3.070856771138e+02 0.0 
4.443636668581e+01 -3.158036537453e+02 0.0 
4.350591792657e+01 -3.242620428629e+02 0.0 
4.222234254967e+01 -3.325055641478e+02 0.0 
4.037995531494e+01 -3.401114896105e+02 0.0 
3.853758566463e+01 -3.471725085282e+02 0.0 
3.649173518199e+01 -3.537542219653e+02 0.0 
3.450543320565e+01 -3.600172768843e+02 0.0 
3.192282923961e+01 -3.655160421963e+02 0.0 
3.006965906068e+01 -3.704442881007e+02 0.0 
2.751304017336e+01 -3.755540541511e+02 0.0 
2.522881644350e+01 -3.795584906985e+02 0.0 
2.293238884002e+01 -3.834758573220e+02 0.0 
2.052822597484e+01 -3.867847641489e+02 0.0 
1.832198716512e+01 -3.897077411285e+02 0.0 
1.621065893628e+01 -3.920850389594e+02 0.0 
1.408939946393e+01 -3.941715463079e+02 0.0 
1.221781114916e+01 -3.956831988701e+02 0.0 
1.054101687624e+01 -3.972738052308e+02 0.0 
8.785435523921e+00 -3.980583819459e+02 0.0 
7.477722183167e+00 -3.986328649116e+02 0.0 
6.173366266335e+00 -3.989786675735e+02 0.0 
5.095817509953e+00 -4.000791837805e+02 0.0 
3.913140612097e+00 -3.995192381225e+02 0.0 
2.988040180807e+00 -4.003344822678e+02 0.0 
2.444488199928e+00 -3.999355019478e+02 0.0 
1.449475032541e+00 -4.001684727350e+02 0.0 
6.693791483135e-01 -4.000792372046e+02 0.0 
2.963398850153e+01 0.0 0.0 
3.795801265759e+01 0.0 0.0 
4.564354997300e+01 0.0 0.0 
5.280830934886e+01 0.0 0.0 
5.967526233732e+01 0.0 0.0 
6.648212362778e+01 0.0 0.0 
7.228567837740e+01 0.0 0.0 
7.713970768785e+01 0.0 0.0 
8.322889818825e+01 0.0 0.0 
0.0 0.0 0.0 
0.0 0.0 0.0 
0.0 0.0 0.0 
0.0 0.0 0.0 
0.0 0.0 0.0 
0.0 0.0 0.0 
0.0 0.0 0.0 
0.0 0.0 0.0 
0.0 0.0 0.0 
0.0 0.0 0.0 
0.0 0.0 0.0 
0.0 0.0 0.0 
0.0 0.0 0.0 
0.0 0.0 0.0 
0.0 0.0 0.0 
0.0 0.0 0.0 
0.0 0.0 0.0 
0.0 0.0 0.0 
0.0 0.0 0.0 
0.0 0.0 0.0 
0.0 0.0 0.0 
0.0 0.0 0.0 
0.0 0.0 0.0 
0.0 0.0 0.0 
0.0 0.0 0.0 
0.0 0.0 0.0 
0.0 0.0 0.0 
0.0 0.0 0.0 
0.0 0.0 0.0 
0.0 0.0 0.0 
0.0 0.0 0.0 
0.0 0.0 0.0 
0.0 0.0 0.0 
0.0 0.0 0.0 
0.0 0.0 0.0 
0.0 0.0 0.0 
0.0 0.0 0.0 
0.0 0.0 0.0 
0.0 0.0 0.0 
0.0 0.0 0.0 
0.0 0.0 0.0 
0.0 0.0 0.0 
0.0 0.0 0.0 
0.0 0.0 0.0 
0.0 0.0 0.0 
0.0 0.0 0.0 
0.0 0.0 0.0 
0.0 0.0 0.0 
0.0 0.0 0.0 
0.0 0.0 0.0 
0.0 0.0 0.0 
0.0 0.0 0.0 
0.0 0.0 0.0 
0.0 0.0 0.0 
0.0 0.0 0.0 
0.0 0.0 0.0 
0.0 0.0 0.0 
0.0 0.0 0.0 
0.0 0.0 0.0 
0.0 0.0 0.0 
0.0 0.0 0.0 
0.0 0.0 0.0 
0.0 0.0 0.0 
0.0 0.0 0.0 
0.0 0.0 0.0 
0.0 0.0 0.0 
0.0 0.0 0.0 
0.0 0.0 0.0 
0.0 0.0 0.0 
0.0 0.0 0.0 
0.0 0.0 0.0 
0.0 0.0 0.0 
0.0 0.0 0.0 
0.0 0.0 0.0 
0.0 0.0 0.0 
0.0 0.0 0.0 
0.0 0.0 0.0 
0.0 0.0 0.0 
0.0 0.0 0.0 
0.0 0.0 0.0 
0.0 0.0 0.0 
0.0 0.0 0.0 
0.0 0.0 0.0 
0.0 0.0 0.0 
0.0 0.0 0.0 
0.0 0.0 0.0 
0.0 0.0 0.0 
0.0 0.0 0.0 
0.0 0.0 0.0 
0.0 0.0 0.0 
0.0 0.0 0.0 
0.0 0.0 0.0 
0.0 0.0 0.0 
0.0 0.0 0.0 
0.0 0.0 0.0 
0.0 0.0 0.0 
0.0 0.0 0.0 
0.0 0.0 0.0 
0.0 0.0 0.0 
0.0 0.0 0.0 
0.0 0.0 0.0 
0.0 0.0 0.0 
0.0 0.0 0.0 
0.0 0.0 0.0 
0.0 0.0 0.0 
0.0 0.0 0.0 
0.0 0.0 0.0 
0.0 0.0 0.0 
0.0 0.0 0.0 
0.0 0.0 0.0 
0.0 0.0 0.0 
0.0 0.0 0.0 
0.0 0.0 0.0 
0.0 0.0 0.0 
0.0 0.0 0.0 
0.0 0.0 0.0 
0.0 0.0 0.0 
0.0 0.0 0.0 
0.0 0.0 0.0 
0.0 0.0 0.0 
0.0 0.0 0.0 
0.0 0.0 0.0 
0.0 0.0 0.0 
0.0 0.0 0.0 
0.0 0.0 0.0 
0.0 0.0 0.0 
0.0 0.0 0.0 
0.0 0.0 0.0 
0.0 0.0 0.0 
0.0 0.0 0.0 
0.0 0.0 0.0 
0.0 0.0 0.0 
0.0 0.0 0.0 
0.0 0.0 0.0 
0.0 0.0 0.0 
0.0 0.0 0.0 
0.0 0.0 0.0 
0.0 0.0 0.0 
0.0 0.0 0.0 
0.0 0.0 0.0 
0.0 0.0 0.0 
0.0 0.0 0.0 
0.0 0.0 0.0 
0.0 0.0 0.0 
0.0 0.0 0.0 
0.0 0.0 0.0 
0.0 0.0 0.0 
0.0 0.0 0.0 
0.0 0.0 0.0 
0.0 0.0 0.0 
0.0 0.0 0.0 
0.0 0.0 0.0 
0.0 0.0 0.0 
0.0 0.0 0.0 
0.0 0.0 0.0 
0.0 0.0 0.0 
0.0 0.0 0.0 
0.0 0.0 0.0 
0.0 0.0 0.0 
0.0 0.0 0.0 
0.0 0.0 0.0 
0.0 0.0 0.0 
0.0 0.0 0.0 
0.0 0.0 0.0 
0.0 0.0 0.0 
0.0 0.0 0.0 
0.0 0.0 0.0 
0.0 0.0 0.0 
0.0 0.0 0.0 
0.0 0.0 0.0 
0.0 0.0 0.0 
0.0 0.0 0.0 
0.0 0.0 0.0 
0.0 0.0 0.0 
0.0 0.0 0.0 
0.0 0.0 0.0 
0.0 0.0 0.0 
0.0 0.0 0.0 
0.0 0.0 0.0 
0.0 0.0 0.0 
0.0 0.0 0.0 
0.0 0.0 0.0 
0.0 0.0 0.0 
0.0 0.0 0.0 
0.0 0.0 0.0 
0.0 0.0 0.0 
0.0 0.0 0.0 
0.0 0.0 0.0 
0.0 0.0 0.0 
0.0 0.0 0.0 
0.0 0.0 0.0 
0.0 0.0 0.0 
0.0 0.0 0.0 
0.0 0.0 0.0 
0.0 0.0 0.0 
0.0 0.0 0.0 
0.0 0.0 0.0 
0.0 0.0 0.0 
0.0 0.0 0.0 
0.0 0.0 0.0 
0.0 0.0 0.0 
0.0 0.0 0.0 
0.0 0.0 0.0 
0.0 0.0 0.0 
0.0 0.0 0.0 
0.0 0.0 0.0 
0.0 0.0 0.0 
0.0 0.0 0.0 
0.0 0.0 0.0 
0.0 0.0 0.0 
0.0 0.0 0.0 
0.0 0.0 0.0 
0.0 0.0 0.0 
0.0 0.0 0.0 
0.0 0.0 0.0 
0.0 0.0 0.0 
0.0 0.0 0.0 
0.0 0.0 0.0 
0.0 0.0 0.0 
0.0 0.0 0.0 
0.0 0.0 0.0 
0.0 0.0 0.0 
0.0 0.0 0.0 
0.0 0.0 0.0 
0.0 0.0 0.0 
0.0 0.0 0.0 
0.0 0.0 0.0 
0.0 0.0 0.0 
0.0 0.0 0.0 
0.0 0.0 0.0 
0.0 0.0 0.0 
0.0 0.0 0.0 
0.0 0.0 0.0 
0.0 0.0 0.0 
0.0 0.0 0.0 
0.0 0.0 0.0 
0.0 0.0 0.0 
0.0 0.0 0.0 
0.0 0.0 0.0 
0.0 0.0 0.0 
0.0 0.0 0.0 
0.0 0.0 0.0 
0.0 0.0 0.0 
0.0 0.0 0.0 
0.0 0.0 0.0 
0.0 0.0 0.0 
0.0 0.0 0.0 
0.0 0.0 0.0 
0.0 0.0 0.0 
0.0 0.0 0.0 
0.0 0.0 0.0 
0.0 0.0 0.0 
0.0 0.0 0.0 
0.0 0.0 0.0 
0.0 0.0 0.0 
0.0 0.0 0.0 
0.0 0.0 0.0 
0.0 0.0 0.0 
0.0 0.0 0.0 
0.0 0.0 0.0 
0.0 0.0 0.0 
0.0 0.0 0.0 
0.0 0.0 0.0 
0.0 0.0 0.0 
0.0 0.0 0.0 
0.0 0.0 0.0 
0.0 0.0 0.0 
0.0 0.0 0.0 
0.0 0.0 0.0 
0.0 0.0 0.0 
0.0 0.0 0.0 
0.0 0.0 0.0 
0.0 0.0 0.0 
0.0 0.0 0.0 
0.0 0.0 0.0 
0.0 0.0 0.0 
0.0 0.0 0.0 
0.0 0.0 0.0 
0.0 0.0 0.0 
0.0 0.0 0.0 
0.0 0.0 0.0 
0.0 0.0 0.0 
0.0 0.0 0.0 
0.0 0.0 0.0 
0.0 0.0 0.0 
0.0 0.0 0.0 
0.0 0.0 0.0 
0.0 0.0 0.0 
0.0 0.0 0.0 
0.0 0.0 0.0 
0.0 0.0 0.0 
0.0 0.0 0.0 
0.0 0.0 0.0 
0.0 0.0 0.0 
0.0 0.0 0.0 
0.0 0.0 0.0 
0.0 0.0 0.0 
0.0 0.0 0.0 
0.0 0.0 0.0 
0.0 0.0 0.0 
0.0 0.0 0.0 
0.0 0.0 0.0 
0.0 0.0 0.0 
0.0 0.0 0.0 
0.0 0.0 0.0 
0.0 0.0 0.0 
0.0 0.0 0.0 
0.0 0.0 0.0 
0.0 0.0 0.0 
0.0 0.0 0.0 
0.0 0.0 0.0 
0.0 0.0 0.0 
0.0 0.0 0.0 
0.0 0.0 0.0 
0.0 0.0 0.0 
0.0 0.0 0.0 
0.0 0.0 0.0 
0.0 0.0 0.0 
0.0 0.0 0.0 
0.0 0.0 0.0 
0.0 0.0 0.0 
0.0 0.0 0.0 
0.0 0.0 0.0 
0.0 0.0 0.0 
0.0 0.0 0.0 
0.0 0.0 0.0 
0.0 0.0 0.0 
0.0 0.0 0.0 
0.0 0.0 0.0 
0.0 0.0 0.0 
0.0 0.0 0.0 
0.0 0.0 0.0 
0.0 0.0 0.0 
0.0 0.0 0.0 
0.0 0.0 0.0 
0.0 0.0 0.0 
0.0 0.0 0.0 
0.0 0.0 0.0 
0.0 0.0 0.0 
0.0 0.0 0.0 
0.0 0.0 0.0 
0.0 0.0 0.0 
0.0 0.0 0.0 
0.0 0.0 0.0 
0.0 0.0 0.0 
0.0 0.0 0.0 
0.0 0.0 0.0 
0.0 0.0 0.0 
0.0 0.0 0.0 
0.0 0.0 0.0 
0.0 0.0 0.0 
0.0 0.0 0.0 
0.0 0.0 0.0 
0.0 0.0 0.0 
0.0 0.0 0.0 
0.0 0.0 0.0 
0.0 0.0 0.0 
0.0 0.0 0.0 
0.0 0.0 0.0 
0.0 0.0 0.0 
0.0 0.0 0.0 
0.0 0.0 0.0 
0.0 0.0 0.0 
0.0 0.0 0.0 
0.0 0.0 0.0 
0.0 0.0 0.0 
0.0 0.0 0.0 
0.0 0.0 0.0 
0.0 0.0 0.0 
0.0 0.0 0.0 
0.0 0.0 0.0 
0.0 0.0 0.0 
0.0 0.0 0.0 
0.0 0.0 0.0 
0.0 0.0 0.0 
0.0 0.0 0.0 
0.0 0.0 0.0 
0.0 0.0 0.0 
0.0 0.0 0.0 
0.0 0.0 0.0 
0.0 0.0 0.0 
0.0 0.0 0.0 
0.0 0.0 0.0 
0.0 0.0 0.0 
0.0 0.0 0.0 
0.0 0.0 0.0 
0.0 0.0 0.0 
0.0 0.0 0.0 
0.0 0.0 0.0 
0.0 0.0 0.0 
0.0 0.0 0.0 
0.0 0.0 0.0 
0.0 0.0 0.0 
0.0 0.0 0.0 
0.0 0.0 0.0 
0.0 0.0 0.0 
0.0 0.0 0.0 
0.0 0.0 0.0 
0.0 0.0 0.0 
0.0 0.0 0.0 
0.0 0.0 0.0 
0.0 0.0 0.0 
0.0 0.0 0.0 
0.0 0.0 0.0 
0.0 0.0 0.0 
0.0 0.0 0.0 
0.0 0.0 0.0 
0.0 0.0 0.0 
0.0 0.0 0.0 
0.0 0.0 0.0 
0.0 0.0 0.0 
0.0 0.0 0.0 
0.0 0.0 0.0 
0.0 0.0 0.0 
0.0 0.0 0.0 
0.0 0.0 0.0 
0.0 0.0 0.0 
0.0 0.0 0.0 
0.0 0.0 0.0 
0.0 0.0 0.0 
0.0 0.0 0.0 
0.0 0.0 0.0 
0.0 0.0 0.0 
0.0 0.0 0.0 
0.0 0.0 0.0 
0.0 0.0 0.0 
0.0 0.0 0.0 
0.0 0.0 0.0 
0.0 0.0 0.0 
0.0 0.0 0.0 
0.0 0.0 0.0 
0.0 0.0 0.0 
0.0 0.0 0.0 
0.0 0.0 0.0 
0.0 0.0 0.0 
0.0 0.0 0.0 
0.0 0.0 0.0 
0.0 0.0 0.0 
0.0 0.0 0.0 
0.0 0.0 0.0 
0.0 0.0 0.0 
0.0 0.0 0.0 
0.0 0.0 0.0 
0.0 0.0 0.0 
0.0 0.0 0.0 
0.0 0.0 0.0 
0.0 0.0 0.0 
0.0 0.0 0.0 
0.0 0.0 0.0 
0.0 0.0 0.0 
0.0 0.0 0.0 
0.0 0.0 0.0 
0.0 0.0 0.0 
0.0 0.0 0.0 
0.0 0.0 0.0 
0.0 0.0 0.0 
0.0 0.0 0.0 
0.0 0.0 0.0 
0.0 0.0 0.0 
0.0 0.0 0.0 
0.0 0.0 0.0 
0.0 0.0 0.0 
0.0 0.0 0.0 
0.0 0.0 0.0 
0.0 0.0 0.0 
0.0 0.0 0.0 
0.0 0.0 0.0 
0.0 0.0 0.0 
0.0 0.0 0.0 
0.0 0.0 0.0 
0.0 0.0 0.0 
0.0 0.0 0.0 
0.0 0.0 0.0 
0.0 0.0 0.0 
0.0 0.0 0.0 
0.0 0.0 0.0 
0.0 0.0 0.0 
0.0 0.0 0.0 
0.0 0.0 0.0 
0.0 0.0 0.0 
0.0 0.0 0.0 
0.0 0.0 0.0 
0.0 0.0 0.0 
0.0 0.0 0.0 
0.0 0.0 0.0 
0.0 0.0 0.0 
0.0 0.0 0.0 
0.0 0.0 0.0 
0.0 0.0 0.0 
0.0 0.0 0.0 
0.0 0.0 0.0 
0.0 0.0 0.0 
0.0 0.0 0.0 
0.0 0.0 0.0 
0.0 0.0 0.0 
0.0 0.0 0.0 
0.0 0.0 0.0 
0.0 0.0 0.0 
0.0 0.0 0.0 
0.0 0.0 0.0 
0.0 0.0 0.0 
0.0 0.0 0.0 
0.0 0.0 0.0 
0.0 0.0 0.0 
0.0 0.0 0.0 
0.0 0.0 0.0 
0.0 0.0 0.0 
0.0 0.0 0.0 
0.0 0.0 0.0 
0.0 0.0 0.0 
0.0 0.0 0.0 
0.0 0.0 0.0 
0.0 0.0 0.0 
0.0 0.0 0.0 
0.0 0.0 0.0 
0.0 0.0 0.0 
0.0 0.0 0.0 
0.0 0.0 0.0 
0.0 0.0 0.0 
0.0 0.0 0.0 
0.0 0.0 0.0 
0.0 0.0 0.0 
0.0 0.0 0.0 
0.0 0.0 0.0 
0.0 0.0 0.0 
0.0 0.0 0.0 
0.0 0.0 0.0 
0.0 0.0 0.0 
0.0 0.0 0.0 
0.0 0.0 0.0 
0.0 0.0 0.0 
0.0 0.0 0.0 
0.0 0.0 0.0 
0.0 0.0 0.0 
0.0 0.0 0.0 
0.0 0.0 0.0 
0.0 0.0 0.0 
0.0 0.0 0.0 
0.0 0.0 0.0 
0.0 0.0 0.0 
0.0 0.0 0.0 
0.0 0.0 0.0 
0.0 0.0 0.0 
0.0 0.0 0.0 
0.0 0.0 0.0 
0.0 0.0 0.0 
0.0 0.0 0.0 
0.0 0.0 0.0 
0.0 0.0 0.0 
0.0 0.0 0.0 
0.0 0.0 0.0 
0.0 0.0 0.0 
0.0 0.0 0.0 
0.0 0.0 0.0 
0.0 0.0 0.0 
0.0 0.0 0.0 
0.0 0.0 0.0 
0.0 0.0 0.0 
0.0 0.0 0.0 
0.0 0.0 0.0 
0.0 0.0 0.0 
0.0 0.0 0.0 
0.0 0.0 0.0 
0.0 0.0 0.0 
0.0 0.0 0.0 
0.0 0.0 0.0 
0.0 0.0 0.0 
0.0 0.0 0.0 
0.0 0.0 0.0 
0.0 0.0 0.0 
0.0 0.0 0.0 
0.0 0.0 0.0 
0.0 0.0 0.0 
0.0 0.0 0.0 
0.0 0.0 0.0 
0.0 0.0 0.0 
0.0 0.0 0.0 
0.0 0.0 0.0 
0.0 0.0 0.0 
0.0 0.0 0.0 
0.0 0.0 0.0 
0.0 0.0 0.0 
0.0 0.0 0.0 
0.0 0.0 0.0 
0.0 0.0 0.0 
0.0 0.0 0.0 
0.0 0.0 0.0 
0.0 0.0 0.0 
0.0 0.0 0.0 
0.0 0.0 0.0 
0.0 0.0 0.0 
0.0 0.0 0.0 
0.0 0.0 0.0 
0.0 0.0 0.0 
0.0 0.0 0.0 
0.0 0.0 0.0 
0.0 0.0 0.0 
0.0 0.0 0.0 
0.0 0.0 0.0 
0.0 0.0 0.0 
0.0 0.0 0.0 
0.0 0.0 0.0 
0.0 0.0 0.0 
0.0 0.0 0.0 
0.0 0.0 0.0 
0.0 0.0 0.0 
0.0 0.0 0.0 
0.0 0.0 0.0 
0.0 0.0 0.0 
0.0 0.0 0.0 
0.0 0.0 0.0 
0.0 0.0 0.0 
0.0 0.0 0.0 
0.0 0.0 0.0 
0.0 0.0 0.0 
0.0 0.0 0.0 
0.0 0.0 0.0 
0.0 0.0 0.0 
0.0 0.0 0.0 
0.0 0.0 0.0 
0.0 0.0 0.0 
0.0 0.0 0.0 
0.0 0.0 0.0 
0.0 0.0 0.0 
0.0 0.0 0.0 
0.0 0.0 0.0 
0.0 0.0 0.0 
0.0 0.0 0.0 
0.0 0.0 0.0 
0.0 0.0 0.0 
0.0 0.0 0.0 
0.0 0.0 0.0 
0.0 0.0 0.0 
0.0 0.0 0.0 
0.0 0.0 0.0 
0.0 0.0 0.0 
0.0 0.0 0.0 
0.0 0.0 0.0 
0.0 0.0 0.0 
0.0 0.0 0.0 
0.0 0.0 0.0 
0.0 0.0 0.0 
0.0 0.0 0.0 
0.0 0.0 0.0 
0.0 0.0 0.0 
0.0 0.0 0.0 
0.0 0.0 0.0 
0.0 0.0 0.0 
0.0 0.0 0.0 
0.0 0.0 0.0 
0.0 0.0 0.0 
0.0 0.0 0.0 
0.0 0.0 0.0 
0.0 0.0 0.0 
0.0 0.0 0.0 
0.0 0.0 0.0 
0.0 0.0 0.0 
0.0 0.0 0.0 
0.0 0.0 0.0 
0.0 0.0 0.0 
0.0 0.0 0.0 
0.0 0.0 0.0 
0.0 0.0 0.0 
0.0 0.0 0.0 
0.0 0.0 0.0 
0.0 0.0 0.0 
0.0 0.0 0.0 
0.0 0.0 0.0 
0.0 0.0 0.0 
0.0 0.0 0.0 
0.0 0.0 0.0 
0.0 0.0 0.0 
0.0 0.0 0.0 
0.0 0.0 0.0 
0.0 0.0 0.0 
0.0 0.0 0.0 
0.0 0.0 0.0 
0.0 0.0 0.0 
0.0 0.0 0.0 
0.0 0.0 0.0 
0.0 0.0 0.0 
0.0 0.0 0.0 
0.0 0.0 0.0 
0.0 0.0 0.0 
0.0 0.0 0.0 
0.0 0.0 0.0 
0.0 0.0 0.0 
0.0 0.0 0.0 
0.0 0.0 0.0 
0.0 0.0 0.0 
0.0 0.0 0.0 
0.0 0.0 0.0 
0.0 0.0 0.0 
0.0 0.0 0.0 
0.0 0.0 0.0 
0.0 0.0 0.0 
0.0 0.0 0.0 
0.0 0.0 0.0 
0.0 0.0 0.0 
0.0 0.0 0.0 
0.0 0.0 0.0 
0.0 0.0 0.0 
0.0 0.0 0.0 
0.0 0.0 0.0 
0.0 0.0 0.0 
0.0 0.0 0.0 
0.0 0.0 0.0 
0.0 0.0 0.0 
0.0 0.0 0.0 
0.0 0.0 0.0 
0.0 0.0 0.0 
0.0 0.0 0.0 
0.0 0.0 0.0 
0.0 0.0 0.0 
0.0 0.0 0.0 
0.0 0.0 0.0 
0.0 0.0 0.0 
0.0 0.0 0.0 
0.0 0.0 0.0 
0.0 0.0 0.0 
0.0 0.0 0.0 
0.0 0.0 0.0 
0.0 0.0 0.0 
0.0 0.0 0.0 
0.0 0.0 0.0 
0.0 0.0 0.0 
0.0 0.0 0.0 
0.0 0.0 0.0 
0.0 0.0 0.0 
0.0 0.0 0.0 
0.0 0.0 0.0 
0.0 0.0 0.0 
0.0 0.0 0.0 
0.0 0.0 0.0 
0.0 0.0 0.0 
0.0 0.0 0.0 
0.0 0.0 0.0 
0.0 0.0 0.0 
0.0 0.0 0.0 
0.0 0.0 0.0 
0.0 0.0 0.0 
0.0 0.0 0.0 
0.0 0.0 0.0 
0.0 0.0 0.0 
0.0 0.0 0.0 
0.0 0.0 0.0 
0.0 0.0 0.0 
0.0 0.0 0.0 
0.0 0.0 0.0 
0.0 0.0 0.0 
0.0 0.0 0.0 
0.0 0.0 0.0 
0.0 0.0 0.0 
0.0 0.0 0.0 
0.0 0.0 0.0 
0.0 0.0 0.0 
0.0 0.0 0.0 
0.0 0.0 0.0 
0.0 0.0 0.0 
0.0 0.0 0.0 
0.0 0.0 0.0 
0.0 0.0 0.0 
0.0 0.0 0.0 
0.0 0.0 0.0 
0.0 0.0 0.0 
0.0 0.0 0.0 
0.0 0.0 0.0 
0.0 0.0 0.0 
0.0 0.0 0.0 
0.0 0.0 0.0 
0.0 0.0 0.0 
0.0 0.0 0.0 
0.0 0.0 0.0 
0.0 0.0 0.0 
0.0 0.0 0.0 
0.0 0.0 0.0 
0.0 0.0 0.0 
0.0 0.0 0.0 
0.0 0.0 0.0 
0.0 0.0 0.0 
0.0 0.0 0.0 
0.0 0.0 0.0 
0.0 0.0 0.0 
0.0 0.0 0.0 
0.0 0.0 0.0 
0.0 0.0 0.0 
0.0 0.0 0.0 
0.0 0.0 0.0 
0.0 0.0 0.0 
0.0 0.0 0.0 
0.0 0.0 0.0 
0.0 0.0 0.0 
0.0 0.0 0.0 
0.0 0.0 0.0 
0.0 0.0 0.0 
0.0 0.0 0.0 
0.0 0.0 0.0 
0.0 0.0 0.0 
0.0 0.0 0.0 
0.0 0.0 0.0 
0.0 0.0 0.0 
0.0 0.0 0.0 
0.0 0.0 0.0 
0.0 0.0 0.0 
0.0 0.0 0.0 
0.0 0.0 0.0 
0.0 0.0 0.0 
0.0 0.0 0.0 
0.0 0.0 0.0 
0.0 0.0 0.0 
0.0 0.0 0.0 
0.0 0.0 0.0 
0.0 0.0 0.0 
0.0 0.0 0.0 
0.0 0.0 0.0 
0.0 0.0 0.0 
0.0 0.0 0.0 
0.0 0.0 0.0 
0.0 0.0 0.0 
0.0 0.0 0.0 
0.0 0.0 0.0 
0.0 0.0 0.0 
0.0 0.0 0.0 
0.0 0.0 0.0 
0.0 0.0 0.0 
0.0 0.0 0.0 
0.0 0.0 0.0 
0.0 0.0 0.0 
0.0 0.0 0.0 
0.0 0.0 0.0 
0.0 0.0 0.0 
0.0 0.0 0.0 
0.0 0.0 0.0 
0.0 0.0 0.0 
0.0 0.0 0.0 
0.0 0.0 0.0 
0.0 0.0 0.0 
0.0 0.0 0.0 
0.0 0.0 0.0 
0.0 0.0 0.0 
0.0 0.0 0.0 
0.0 0.0 0.0 
0.0 0.0 0.0 
0.0 0.0 0.0 
0.0 0.0 0.0 
0.0 0.0 0.0 
0.0 0.0 0.0 
0.0 0.0 0.0 
0.0 0.0 0.0 
0.0 0.0 0.0 
0.0 0.0 0.0 
0.0 0.0 0.0 
0.0 0.0 0.0 
0.0 0.0 0.0 
0.0 0.0 0.0 
0.0 0.0 0.0 
0.0 0.0 0.0 
0.0 0.0 0.0 
0.0 0.0 0.0 
0.0 0.0 0.0 
0.0 0.0 0.0 
0.0 0.0 0.0 
0.0 0.0 0.0 
0.0 0.0 0.0 
0.0 0.0 0.0 
0.0 0.0 0.0 
0.0 0.0 0.0 
0.0 0.0 0.0 
0.0 0.0 0.0 
0.0 0.0 0.0 
0.0 0.0 0.0 
0.0 0.0 0.0 
0.0 0.0 0.0 
0.0 0.0 0.0 
0.0 0.0 0.0 
0.0 0.0 0.0 
0.0 0.0 0.0 
0.0 0.0 0.0 
0.0 0.0 0.0 
0.0 0.0 0.0 
0.0 0.0 0.0 
0.0 0.0 0.0 
0.0 0.0 0.0 
0.0 0.0 0.0 
0.0 0.0 0.0 
0.0 0.0 0.0 
0.0 0.0 0.0 
0.0 0.0 0.0 
0.0 0.0 0.0 
0.0 0.0 0.0 
0.0 0.0 0.0 
0.0 0.0 0.0 
0.0 0.0 0.0 
0.0 0.0 0.0 
0.0 0.0 0.0 
0.0 0.0 0.0 
0.0 0.0 0.0 
0.0 0.0 0.0 
0.0 0.0 0.0 
0.0 0.0 0.0 
0.0 0.0 0.0 
0.0 0.0 0.0 
0.0 0.0 0.0 
0.0 0.0 0.0 
0.0 0.0 0.0 
0.0 0.0 0.0 
0.0 0.0 0.0 
0.0 0.0 0.0 
0.0 0.0 0.0 
0.0 0.0 0.0 
0.0 0.0 0.0 
0.0 0.0 0.0 
0.0 0.0 0.0 
0.0 0.0 0.0 
0.0 0.0 0.0 
0.0 0.0 0.0 
0.0 0.0 0.0 
0.0 0.0 0.0 
0.0 0.0 0.0 
0.0 0.0 0.0 
0.0 0.0 0.0 
0.0 0.0 0.0 
0.0 0.0 0.0 
0.0 0.0 0.0 
0.0 0.0 0.0 
0.0 0.0 0.0 
0.0 0.0 0.0 
0.0 0.0 0.0 
0.0 0.0 0.0 
0.0 0.0 0.0 
0.0 0.0 0.0 
0.0 0.0 0.0 
0.0 0.0 0.0 
0.0 0.0 0.0 
0.0 0.0 0.0 
0.0 0.0 0.0 
0.0 0.0 0.0 
0.0 0.0 0.0 
0.0 0.0 0.0 
0.0 0.0 0.0 
0.0 0.0 0.0 
0.0 0.0 0.0 
0.0 0.0 0.0 
0.0 0.0 0.0 
0.0 0.0 0.0 
0.0 0.0 0.0 
0.0 0.0 0.0 

VECTORS node_materi_velocity float
0.0 -2.196733588537e-04 0.0 
0.0 1.009122693248e-02 0.0 
0.0 0.0 0.0 
0.0 0.0 0.0 
0.0 -2.051533130363e-04 0.0 
0.0 -1.908854786110e-04 0.0 
0.0 -1.766719930129e-04 0.0 
0.0 -1.624236577380e-04 0.0 
0.0 -1.480370457216e-04 0.0 
0.0 -1.334415171658e-04 0.0 
0.0 -1.186403834301e-04 0.0 
0.0 -1.036961096282e-04 0.0 
0.0 -8.874799321603e-05 0.0 
0.0 -7.399675981400e-05 0.0 
0.0 -5.973041918049e-05 0.0 
0.0 -4.626107762100e-05 0.0 
0.0 -3.382173152366e-05 0.0 
0.0 -2.243233710487e-05 0.0 
0.0 -1.283669519494e-05 0.0 
0.0 -5.247698609537e-06 0.0 
0.0 1.117671396226e-07 0.0 
0.0 2.840955720390e-06 0.0 
0.0 2.654174929101e-06 0.0 
0.0 0.0 0.0 
0.0 0.0 0.0 
0.0 0.0 0.0 
0.0 0.0 0.0 
0.0 0.0 0.0 
0.0 0.0 0.0 
0.0 0.0 0.0 
0.0 0.0 0.0 
0.0 0.0 0.0 
0.0 0.0 0.0 
0.0 0.0 0.0 
0.0 0.0 0.0 
0.0 0.0 0.0 
0.0 0.0 0.0 
0.0 0.0 0.0 
0.0 0.0 0.0 
0.0 0.0 0.0 
0.0 0.0 0.0 
0.0 0.0 0.0 
0.0 0.0 0.0 
0.0 0.0 0.0 
0.0 0.0 0.0 
0.0 0.0 0.0 
0.0 0.0 0.0 
0.0 0.0 0.0 
0.0 0.0 0.0 
0.0 0.0 0.0 
0.0 0.0 0.0 
0.0 0.0 0.0 
0.0 0.0 0.0 
0.0 0.0 0.0 
0.0 0.0 0.0 
0.0 0.0 0.0 
0.0 0.0 0.0 
0.0 0.0 0.0 
0.0 0.0 0.0 
0.0 0.0 0.0 
0.0 0.0 0.0 
0.0 0.0 0.0 
0.0 0.0 0.0 
0.0 0.0 0.0 
0.0 0.0 0.0 
0.0 0.0 0.0 
0.0 0.0 0.0 
0.0 0.0 0.0 
0.0 0.0 0.0 
0.0 0.0 0.0 
0.0 0.0 0.0 
0.0 0.0 0.0 
0.0 9.085612221718e-03 0.0 
0.0 8.065065527306e-03 0.0 
0.0 7.039222321376e-03 0.0 
0.0 6.010228636316e-03 0.0 
0.0 4.981645101782e-03 0.0 
0.0 3.957209172724e-03 0.0 
0.0 2.941608495640e-03 0.0 
0.0 1.940471303615e-03 0.0 
0.0 9.591998539727e-04 0.0 
4.243450827522e-04 -2.851619480623e-04 0.0 
1.965700491091e-03 5.440560417724e-03 0.0 
4.428747073840e-04 -2.459661533851e-04 0.0 
4.700294629567e-04 -1.885028809731e-04 0.0 
5.055975037738e-04 -1.026813033080e-04 0.0 
5.540210275517e-04 2.717698143419e-05 0.0 
6.227921290514e-04 2.230712356213e-04 0.0 
7.337034982975e-04 5.218621906695e-04 0.0 
9.429907551226e-04 9.866275148162e-04 0.0 
1.422676841276e-03 1.708831170507e-03 0.0 
3.038807062744e-03 2.849038253508e-03 0.0 
1.290398551321e-04 1.013833300479e-02 0.0 
2.060046377576e-04 1.009111303897e-02 0.0 
2.931333869978e-04 1.008822191713e-02 0.0 
3.820232527586e-04 1.010131192422e-02 0.0 
4.696324559072e-04 1.008237653981e-02 0.0 
5.400997745386e-04 1.007652007070e-02 0.0 
5.923695357238e-04 1.003629459821e-02 0.0 
6.249236155391e-04 9.975716319313e-03 0.0 
6.234430429956e-04 9.850828074200e-03 0.0 
5.960918489837e-04 9.683823772143e-03 0.0 
5.351813793178e-04 9.401149906232e-03 0.0 
4.725064011944e-04 8.958369362883e-03 0.0 
4.998309170241e-04 8.309896727311e-03 0.0 
8.203087627123e-04 7.357250954800e-03 0.0 
4.258068766247e-04 -3.037415750729e-04 0.0 
4.260663291597e-04 -3.166022764809e-04 0.0 
4.236824326360e-04 -3.238206467641e-04 0.0 
4.185067243164e-04 -3.259740694788e-04 0.0 
4.095283265703e-04 -3.246070519118e-04 0.0 
3.971148214700e-04 -3.198956423699e-04 0.0 
3.814152642676e-04 -3.126385739994e-04 0.0 
3.626560425076e-04 -3.038330157879e-04 0.0 
3.411645340257e-04 -2.940068823695e-04 0.0 
3.171937466723e-04 -2.836335887438e-04 0.0 
2.910115332465e-04 -2.733179644051e-04 0.0 
2.630135274053e-04 -2.632328837851e-04 0.0 
2.333756581691e-04 -2.538174513354e-04 0.0 
2.023641980036e-04 -2.452181917582e-04 0.0 
1.702541963611e-04 -2.377571536314e-04 0.0 
1.372632070959e-04 -2.314594349080e-04 0.0 
1.035544897802e-04 -2.264186131121e-04 0.0 
6.933279502264e-05 -2.227602133189e-04 0.0 
3.477051972366e-05 -2.205802525856e-04 0.0 
4.331482408663e-04 -2.672321664660e-04 0.0 
4.555440389782e-04 -2.201178119231e-04 0.0 
4.866926806528e-04 -1.498521434756e-04 0.0 
5.277196037057e-04 -4.492741354926e-05 0.0 
5.838242847688e-04 1.145495424398e-04 0.0 
6.708364651771e-04 3.584507587093e-04 0.0 
8.199355047821e-04 7.282488375549e-04 0.0 
1.128747006742e-03 1.309705250317e-03 0.0 
1.947635430190e-03 2.201892685537e-03 0.0 
3.049539915962e-03 4.122254555541e-03 0.0 
4.883503403493e-04 -2.203076769526e-04 0.0 
1.070396980237e-04 9.173978447616e-06 0.0 
3.227526061775e-04 -2.799933466647e-04 0.0 
4.162805002772e-04 -3.222244713668e-04 0.0 
5.561130347584e-05 3.675616761580e-06 0.0 
5.954333053869e-04 -4.269874922198e-05 0.0 
2.385988264423e-05 -6.686594243056e-05 0.0 
1.778599332865e-04 2.320481875571e-05 0.0 
8.232879166703e-04 3.424891684577e-04 0.0 
2.797817985570e-04 5.482013495088e-05 0.0 
1.531607123900e-03 1.307095662156e-03 0.0 
2.805891804624e-05 2.730090102538e-06 0.0 
2.089461487472e-04 -2.376042595457e-04 0.0 
4.382317627347e-04 1.328268346540e-04 0.0 
2.377345898223e-03 3.788766386003e-03 0.0 
2.556528178756e-05 -1.261034076780e-04 0.0 
2.085318799435e-05 -3.033300467757e-05 0.0 
5.785705005868e-04 2.520448911525e-04 0.0 
6.114641733826e-04 4.651902725234e-04 0.0 
1.995674013087e-04 7.986604716565e-04 0.0 
3.896142188996e-04 8.103017701184e-04 0.0 
5.067912686762e-04 6.199658094940e-04 0.0 
1.560204088182e-03 6.886971389720e-03 0.0 
8.644606325755e-04 8.881346987512e-03 0.0 
6.415777258077e-04 9.131153977193e-03 0.0 
9.429904540899e-05 5.480211149069e-03 0.0 
1.643615889844e-05 2.695587807751e-06 0.0 
4.385171461708e-04 -3.097890763856e-04 0.0 
1.166782673739e-04 -2.164069437189e-04 0.0 
1.256447946551e-05 -2.763189576591e-06 0.0 
3.538965441535e-04 9.224895722739e-03 0.0 
2.980976878340e-05 -1.702946856486e-04 0.0 
6.954012002687e-04 3.982976670279e-04 0.0 
2.076036494985e-04 3.320040100218e-05 0.0 
3.491090482471e-04 8.428671702837e-05 0.0 
1.483448032358e-04 1.599099630635e-05 0.0 
7.846423084172e-05 5.563287435589e-06 0.0 
3.863142485007e-04 -3.102932245600e-04 0.0 
1.037266234567e-03 8.353108038656e-03 0.0 
4.750218637053e-05 3.278707646982e-06 0.0 
8.259026098153e-05 3.490859584960e-03 0.0 
2.701285612571e-04 -2.578599249856e-04 0.0 
2.556855475303e-05 -9.672256216395e-05 0.0 
9.726031421779e-05 6.572720462110e-04 0.0 
6.847024511640e-04 1.004742837970e-04 0.0 
5.331793657619e-04 -1.488724550917e-04 0.0 
1.065527662487e-03 7.038581627201e-04 0.0 
2.446168493187e-03 2.421130264697e-03 0.0 
4.527508425230e-04 -2.680037106535e-04 0.0 
9.711552935362e-05 7.431645502788e-03 0.0 
7.292698890283e-06 2.134038747946e-06 0.0 
5.170469834504e-05 -2.092329723666e-04 0.0 
5.008575052253e-05 1.517872168474e-03 0.0 
2.345145404555e-03 4.471803866181e-03 0.0 
2.482062942477e-03 3.463284840983e-03 0.0 
2.476556368967e-03 4.258203730861e-03 0.0 
2.564072775410e-03 3.142334094120e-03 0.0 
2.570753294674e-03 3.592215049837e-03 0.0 
2.571028846493e-03 2.766048641404e-03 0.0 
2.530347343126e-03 2.393872546130e-03 0.0 
2.495484641376e-03 2.121834461092e-03 0.0 
2.441902355370e-03 1.827454444202e-03 0.0 
2.541836522466e-03 3.077241206433e-03 0.0 
2.373815942684e-03 1.618816657104e-03 0.0 
2.317661310892e-03 1.383522118165e-03 0.0 
2.219269993908e-03 1.224592903360e-03 0.0 
2.167182595066e-03 1.039011881938e-03 0.0 
2.223572364168e-03 1.142927273910e-03 0.0 
2.080927013879e-03 8.483208189053e-04 0.0 
2.099879935901e-03 9.076217579820e-04 0.0 
1.967511363763e-03 6.614511850320e-04 0.0 
1.924652745263e-03 6.235051656086e-04 0.0 
1.825702417435e-03 4.765274550181e-04 0.0 
1.833789976479e-03 4.866580901701e-04 0.0 
1.709218695514e-03 3.390713901422e-04 0.0 
1.687727312024e-03 3.302291262632e-04 0.0 
1.582669179108e-03 2.158893659560e-04 0.0 
1.537750619231e-03 1.953589761106e-04 0.0 
1.453001918653e-03 1.093738567942e-04 0.0 
1.471064381121e-03 1.333048462995e-04 0.0 
1.360179874519e-03 4.839565125440e-05 0.0 
1.327088402747e-03 2.073025464396e-05 0.0 
1.251004400218e-03 -2.318474869368e-05 0.0 
1.208828061133e-03 -5.140173582899e-05 0.0 
1.146942596937e-03 -8.204019427159e-05 0.0 
1.167792115039e-03 -5.116193350312e-05 0.0 
1.077259950316e-03 -9.967379560867e-05 0.0 
1.049678440116e-03 -1.296597254879e-04 0.0 
9.915692135025e-04 -1.393290178594e-04 0.0 
9.602180671605e-04 -1.677366673237e-04 0.0 
9.117199449276e-04 -1.712352418005e-04 0.0 
8.788006808903e-04 -1.977513373392e-04 0.0 
8.376364297675e-04 -1.966381557816e-04 0.0 
8.569821490860e-04 -1.676114287070e-04 0.0 
7.902344681118e-04 -1.893864014630e-04 0.0 
7.694945558903e-04 -2.165779960421e-04 0.0 
7.281934967011e-04 -2.065543735520e-04 0.0 
7.380616510989e-04 -1.777383793542e-04 0.0 
6.822371810247e-04 -1.928041714216e-04 0.0 
6.825699323672e-04 -1.630942158640e-04 0.0 
6.329780549904e-04 -1.765423089719e-04 0.0 
6.303858504981e-04 -2.043400521334e-04 0.0 
5.861702108136e-04 -1.868905950001e-04 0.0 
5.817376081561e-04 -1.587829527734e-04 0.0 
5.398902673953e-04 -1.684112950493e-04 0.0 
5.418980757345e-04 -1.948571702266e-04 0.0 
5.000355318505e-04 -1.756472038901e-04 0.0 
4.928178159114e-04 -1.494414731368e-04 0.0 
4.570410876903e-04 -1.563223273556e-04 0.0 
4.621372721639e-04 -1.810068586194e-04 0.0 
4.226623144810e-04 -1.614563531841e-04 0.0 
4.139308171427e-04 -1.371458450102e-04 0.0 
3.828053912315e-04 -1.423878560531e-04 0.0 
3.895698805036e-04 -1.652385867643e-04 0.0 
3.525996827196e-04 -1.462483287848e-04 0.0 
3.432601789297e-04 -1.239904830740e-04 0.0 
3.156945015554e-04 -1.281682662474e-04 0.0 
3.043966162464e-04 -1.067353390450e-04 0.0 
3.228920332730e-04 -1.492523627075e-04 0.0 
2.884269078095e-04 -1.315054652553e-04 0.0 
2.940520629763e-04 -1.516289807273e-04 0.0 
2.615568294369e-04 -1.342591173416e-04 0.0 
1.079414780963e-03 -6.691421112622e-05 0.0 
2.663313316436e-04 -1.533929110495e-04 0.0 
2.973793604260e-04 -1.708796412956e-04 0.0 
2.351953754153e-04 -1.366350489702e-04 0.0 
2.292192387928e-04 -1.180276631737e-04 0.0 
2.392630538347e-04 -1.548240477891e-04 0.0 
2.091944785980e-04 -1.388096661705e-04 0.0 
2.128304498213e-04 -1.561698645886e-04 0.0 
9.096520502498e-04 -1.920937593177e-04 0.0 
1.759298513374e-03 4.549513107402e-04 0.0 
1.835526962998e-04 -1.410292170970e-04 0.0 
1.869454324604e-04 -1.576469385914e-04 0.0 
2.155915309182e-04 -1.729253418207e-04 0.0 
1.898704066468e-04 -1.737047368589e-04 0.0 
2.504024846559e-03 3.926746353305e-03 0.0 
2.441046141227e-03 3.286266395130e-03 0.0 
2.369085922426e-03 4.127821578717e-03 0.0 
2.280203791338e-03 3.384766171450e-03 0.0 
2.189012851574e-03 4.168208574056e-03 0.0 
1.614922782109e-04 -1.594786515155e-04 0.0 
2.220696239610e-03 1.378730371426e-03 0.0 
2.279573604466e-03 2.670352682197e-03 0.0 
1.785652075243e-03 4.852832968944e-04 0.0 
1.260851946173e-03 -4.222046636519e-06 0.0 
7.344340549366e-04 -1.462874300498e-04 0.0 
1.792568595103e-04 -1.239864403288e-04 0.0 
1.543838158147e-04 -1.271157534634e-04 0.0 
1.497002515292e-04 -1.104652780991e-04 0.0 
3.291502692983e-04 -1.015198563281e-04 0.0 
2.886116927903e-04 -8.556759134767e-05 0.0 
3.096228111202e-04 -7.949653509947e-05 0.0 
2.679974654992e-04 -6.524346724407e-05 0.0 
2.843863998599e-04 -5.863628526016e-05 0.0 
2.424278808164e-04 -4.640877225928e-05 0.0 
2.288954439525e-04 -5.256270762131e-05 0.0 
2.036800035297e-04 -3.575515302573e-05 0.0 
1.925314416709e-04 -4.143642757370e-05 0.0 
2.534073390975e-04 -3.967316765675e-05 0.0 
2.985466201265e-04 -5.121947842220e-05 0.0 
1.682684816827e-04 -2.662665787275e-05 0.0 
1.590502940616e-04 -3.183125573479e-05 0.0 
1.362517560773e-04 -1.898040411000e-05 0.0 
1.285702469627e-04 -2.367967821195e-05 0.0 
1.472541498527e-04 -3.691825507109e-05 0.0 
1.181209908905e-04 -2.843168925853e-05 0.0 
1.332310118438e-04 -4.194369720792e-05 0.0 
6.697284789051e-04 -1.316399917841e-04 0.0 
7.150928366787e-04 -1.134190121206e-04 0.0 
6.420463632001e-04 -9.968151977682e-05 0.0 
6.780457190225e-04 -8.072544164036e-05 0.0 
5.982976773860e-04 -6.870459798188e-05 0.0 
6.223085680880e-04 -4.999797331252e-05 0.0 
5.378581286556e-04 -4.030441948954e-05 0.0 
5.220295457835e-04 -5.661996400020e-05 0.0 
2.036952564583e-03 9.114961584880e-04 0.0 
7.072760663068e-04 -2.318250190457e-04 0.0 
7.379737949749e-04 -2.394167473656e-04 0.0 
6.780016635757e-04 -2.529854161410e-04 0.0 
6.987951354963e-04 -2.574722548195e-04 0.0 
6.430299460264e-04 -2.697573624942e-04 0.0 
6.551263299250e-04 -2.707242335106e-04 0.0 
6.049608639688e-04 -2.823002130551e-04 0.0 
5.933878976456e-04 -2.787194549809e-04 0.0 
5.606385781887e-04 -2.908517623146e-04 0.0 
5.489795696258e-04 -2.849582032901e-04 0.0 
5.213888103366e-04 -2.967767548981e-04 0.0 
5.091947568668e-04 -2.889182569534e-04 0.0 
1.354555799321e-03 7.547743059682e-05 0.0 
7.112777663839e-04 -5.896052929900e-05 0.0 
6.408333657326e-04 -2.944696949752e-05 0.0 
7.395285974780e-04 -3.457190192769e-05 0.0 
2.179971960307e-04 -1.889520498337e-04 0.0 
1.011201843870e-04 -1.685801236198e-05 0.0 
2.611874765552e-04 -3.238225808412e-05 0.0 
3.099945161289e-04 -4.312461299700e-05 0.0 
4.588191030780e-04 -3.104358551719e-05 0.0 
1.646419552111e-04 -1.749667238917e-04 0.0 
6.100694986376e-04 -2.794979469465e-04 0.0 
6.594172193511e-04 -2.646272362874e-04 0.0 
2.070731531972e-03 3.346511973300e-03 0.0 
1.975155681076e-03 4.060528042861e-03 0.0 
2.649950602775e-04 -2.461384521314e-05 0.0 
1.363089100493e-04 -1.618481064530e-04 0.0 
1.744321512020e-04 -2.131050184188e-05 0.0 
5.282645815192e-04 -2.995575709455e-04 0.0 
9.166986090189e-05 -2.125204236884e-05 0.0 
7.670533831000e-05 -1.123211303546e-05 0.0 
2.133121850395e-04 -5.815843029493e-05 0.0 
6.515784132231e-04 -7.298532577717e-06 0.0 
7.619739344172e-04 -8.435079431572e-06 0.0 
5.321132197985e-04 -2.743503488408e-04 0.0 
4.923734151034e-04 -2.770825670929e-04 0.0 
4.735812201908e-04 -2.909267727384e-04 0.0 
4.565356297774e-04 -2.776019632861e-04 0.0 
4.713759621488e-04 -2.619748737443e-04 0.0 
4.358593057687e-04 -2.621345604686e-04 0.0 
4.241094098321e-04 -2.768401940618e-04 0.0 
4.035155045943e-04 -2.611249228718e-04 0.0 
4.120395803969e-04 -2.446508099474e-04 0.0 
3.800496809150e-04 -2.434781665974e-04 0.0 
3.740821787784e-04 -2.591788319865e-04 0.0 
3.505469164467e-04 -2.415728916291e-04 0.0 
8.243299059733e-05 -7.622297810131e-06 0.0 
4.948465003935e-04 -3.055743440531e-04 0.0 
2.219508136667e-03 1.230806591109e-03 0.0 
2.176188525800e-04 -1.672574534227e-05 0.0 
4.622565376740e-04 -1.643913532672e-05 0.0 
1.826470826294e-03 3.185518762877e-03 0.0 
1.739022559337e-03 3.831301761029e-03 0.0 
1.807112633314e-03 4.790405546320e-03 0.0 
1.594073028705e-03 4.481189304382e-03 0.0 
1.490002517293e-03 3.508007949857e-03 0.0 
1.372448638339e-03 4.096631112290e-03 0.0 
1.411931067179e-03 5.112698762336e-03 0.0 
1.223743735973e-03 4.670944516324e-03 0.0 
1.215932753037e-03 5.709164135956e-03 0.0 
1.061352997954e-03 5.221032042252e-03 0.0 
1.030733167529e-03 4.188088553272e-03 0.0 
8.989381094864e-04 4.706094741417e-03 0.0 
8.990164539902e-04 5.745391401006e-03 0.0 
7.629118452434e-04 5.206969568376e-03 0.0 
7.455483649768e-04 6.245354740475e-03 0.0 
6.296711050633e-04 5.692078885395e-03 0.0 
6.229266405427e-04 4.658061706552e-03 0.0 
1.402426155291e-04 -1.764484208179e-04 0.0 
4.502149617409e-04 -4.511665469890e-05 0.0 
3.857398983140e-04 -2.251402629691e-05 0.0 
1.264482652204e-04 -1.146518098220e-04 0.0 
1.217320597469e-04 -9.841665452727e-05 0.0 
1.439742128085e-04 -9.379470818714e-05 0.0 
1.150298537750e-04 -8.225200572841e-05 0.0 
5.060053111839e-04 5.138118878763e-03 0.0 
4.850514755837e-04 4.105324657066e-03 0.0 
6.083808823866e-04 -2.692057996343e-04 0.0 
6.555495865547e-04 -2.501288722851e-04 0.0 
1.843698944269e-03 2.570497257356e-03 0.0 
6.792554041787e-05 -1.530159328527e-05 0.0 
7.962726377390e-05 -2.594956359828e-05 0.0 
1.140392761318e-03 -7.500700798898e-05 0.0 
1.167612662090e-03 -2.430675658670e-05 0.0 
1.052250215689e-03 -9.214632883118e-05 0.0 
1.053041406389e-03 -3.798270364058e-05 0.0 
1.179019507238e-03 4.578100227346e-05 0.0 
9.482208033850e-04 -1.027274021844e-04 0.0 
3.476142876703e-04 -6.469982303136e-05 0.0 
8.389289777992e-04 3.679029922707e-03 0.0 
2.439104275861e-04 -1.891738991828e-04 0.0 
2.454417441962e-04 -2.049757765996e-04 0.0 
5.530764119058e-05 -6.783529892982e-06 0.0 
5.017351062575e-04 -7.139743143407e-05 0.0 
1.444238462068e-03 1.538604263686e-04 0.0 
1.306429355250e-03 9.936288439294e-05 0.0 
1.369320099397e-03 1.685472085425e-04 0.0 
1.213267929364e-03 1.174426169359e-04 0.0 
1.243520030931e-03 1.745215284677e-04 0.0 
1.074056357024e-03 1.272457943810e-04 0.0 
1.060449219551e-03 8.212399798803e-05 0.0 
6.512397327676e-04 1.557403304618e-05 0.0 
9.115777221919e-04 9.335492827299e-05 0.0 
5.109189441604e-04 6.174165976642e-03 0.0 
8.036972545712e-04 -6.676176854001e-05 0.0 
3.856658594435e-04 -2.259638980124e-04 0.0 
1.688275274794e-04 -1.894800376490e-04 0.0 
3.470467189710e-04 -2.570448583611e-04 0.0 
1.113370050373e-04 -1.648518234858e-04 0.0 
1.079596564223e-04 -1.498856571413e-04 0.0 
2.133170580716e-04 -1.001945918336e-05 0.0 
1.066212013410e-03 1.688646221344e-04 0.0 
1.251924499691e-03 2.298325195863e-04 0.0 
1.039431846230e-03 3.710560586382e-05 0.0 
1.173600405069e-03 1.401358765158e-04 0.0 
5.392350979687e-04 1.307205145329e-05 0.0 
2.181308238197e-03 5.058408640640e-03 0.0 
1.355813552814e-03 6.157814136566e-03 0.0 
1.131055673680e-03 6.760874446808e-03 0.0 
1.188201866765e-04 -1.811695794290e-04 0.0 
3.691150244074e-04 -2.728280596789e-04 0.0 
1.236625948475e-03 3.115278090492e-03 0.0 
7.152546198967e-04 -2.454502029967e-04 0.0 
7.100795113811e-04 -2.260419106171e-04 0.0 
4.981962759127e-04 -3.054571751060e-04 0.0 
4.709497864390e-04 -3.118907206498e-04 0.0 
3.901447747409e-04 4.566071661484e-03 0.0 
3.581650322956e-04 3.549508296999e-03 0.0 
1.365851698470e-04 -7.733808471841e-05 0.0 
1.079318258982e-04 -6.661201997883e-05 0.0 
2.638807606597e-04 -1.652149128594e-05 0.0 
3.231755365116e-04 -2.392432159612e-04 0.0 
4.283640313017e-04 3.085142755861e-03 0.0 
4.364446799455e-04 -5.810232649211e-05 0.0 
4.782420800401e-04 -8.445214993893e-05 0.0 
9.243754937283e-05 -8.744670574439e-05 0.0 
5.991205534017e-04 -2.506913311815e-04 0.0 
5.610278885410e-04 -2.702392196279e-04 0.0 
4.193609791386e-04 -2.260199900436e-04 0.0 
3.250623074472e-04 -2.234380355358e-04 0.0 
8.289324455193e-05 -1.541405317740e-04 0.0 
2.028181008725e-04 -3.722434895343e-06 0.0 
1.283060841401e-03 2.576982537360e-03 0.0 
9.151945586235e-04 5.910164866986e-05 0.0 
1.032602393805e-03 3.813736467953e-05 0.0 
7.588229380143e-04 6.972549638607e-05 0.0 
3.221960410853e-04 -2.536496917421e-04 0.0 
1.683756149422e-04 -5.016831448758e-06 0.0 
4.691713829386e-05 -1.042181903245e-05 0.0 
1.043010850548e-03 2.075754687287e-04 0.0 
1.234342529642e-03 2.793620133624e-04 0.0 
7.787948649668e-04 -2.209884521714e-04 0.0 
7.753823069086e-04 -1.949360527539e-04 0.0 
6.962234131394e-04 -1.952893214317e-04 0.0 
7.595491448917e-04 -1.561744005324e-04 0.0 
2.442309209603e-03 2.023332941451e-03 0.0 
8.535245480444e-04 -1.892152323378e-04 0.0 
2.063128812382e-03 9.500450301689e-04 0.0 
2.167292290874e-03 1.295363879639e-03 0.0 
1.966487612144e-03 9.670708370999e-04 0.0 
1.322324266751e-03 1.521774907820e-04 0.0 
1.332439769896e-03 2.750146526274e-04 0.0 
7.611892028866e-04 -2.411776385971e-04 0.0 
7.884788506225e-04 -1.255930954559e-04 0.0 
1.664728980991e-04 -8.946443825266e-05 0.0 
1.635437960551e-04 -5.191656569372e-05 0.0 
3.534612416016e-04 -9.524306825632e-05 0.0 
9.259602142214e-04 3.175950751127e-03 0.0 
7.141908482816e-04 2.672360601051e-03 0.0 
8.494309373239e-04 6.787715900707e-03 0.0 
6.941873304860e-04 7.281271822186e-03 0.0 
2.206385957172e-04 -2.042101906320e-04 0.0 
2.479460964212e-04 -2.200011280292e-04 0.0 
2.666917826005e-04 -9.081490857770e-05 0.0 
1.752377105641e-04 -1.022998635008e-05 0.0 
1.569176677065e-03 2.356928528601e-03 0.0 
1.510016659330e-03 1.833460767643e-03 0.0 
1.786746939219e-03 2.008686180338e-03 0.0 
2.565847486473e-04 -8.301009803741e-06 0.0 
6.509739703683e-04 -2.432265537030e-04 0.0 
6.047811885190e-04 -1.159385413542e-04 0.0 
4.659481151177e-04 -3.094545332654e-04 0.0 
1.158053365327e-03 -1.907774331395e-05 0.0 
2.242479240384e-04 -2.187415663046e-04 0.0 
1.818811898568e-03 5.718743188595e-04 0.0 
3.699190404831e-05 -3.293832042552e-06 0.0 
4.197987159841e-05 -7.337781177680e-07 0.0 
5.156272639953e-04 3.007366242055e-05 0.0 
2.425591382705e-03 2.857227964821e-03 0.0 
1.052731982311e-03 -3.365053463999e-05 0.0 
9.880863871111e-04 -7.362325771513e-05 0.0 
2.056402143978e-03 1.313172832148e-03 0.0 
1.789599324977e-03 9.484792208715e-04 0.0 
1.743048391687e-03 6.873137863378e-04 0.0 
1.543184749575e-03 6.667695041745e-04 0.0 
3.898746284374e-04 -2.068369990014e-04 0.0 
3.575020494309e-04 -2.070572692946e-04 0.0 
8.324235612847e-04 1.493910246849e-04 0.0 
7.271512368568e-04 9.171132505241e-05 0.0 
9.810428306067e-04 2.328007205108e-04 0.0 
1.180493212638e-03 3.153310071959e-04 0.0 
4.049218568865e-04 2.408018019241e-05 0.0 
4.366129733503e-04 1.171322732511e-05 0.0 
7.973857973529e-05 -1.391505478730e-04 0.0 
1.151485692808e-03 2.639318711074e-04 0.0 
1.004963528363e-03 2.170500221827e-03 0.0 
2.267928878984e-03 1.733742880687e-03 0.0 
1.301366855812e-04 -1.265323677498e-06 0.0 
1.379475501769e-04 -5.433701645970e-06 0.0 
4.478666790835e-04 -3.163463765223e-04 0.0 
4.388437175927e-04 -3.110992241396e-04 0.0 
2.979892009637e-04 2.559861978751e-03 0.0 
6.745243700270e-04 -1.527479321690e-04 0.0 
7.319402018465e-04 -1.049232912621e-04 0.0 
6.256846051488e-04 -1.920777316910e-04 0.0 
5.165612347042e-06 3.339360622049e-06 0.0 
1.674225111874e-04 9.251608590945e-03 0.0 
2.662562532664e-05 1.318262297856e-06 0.0 
1.494613277976e-03 2.959835745174e-04 0.0 
3.350471762093e-04 2.064674957867e-03 0.0 
9.490269999814e-04 -3.972643585518e-05 0.0 
1.030870698489e-03 -1.313658066137e-04 0.0 
3.203120565388e-04 -2.423876608932e-05 0.0 
2.328019732237e-04 3.100195916166e-03 0.0 
1.825788540856e-04 1.995007300902e-03 0.0 
1.210101321922e-03 7.202625609922e-03 0.0 
9.891712909838e-04 7.809590961683e-03 0.0 
1.473850549997e-03 6.548056128682e-03 0.0 
5.302394843556e-04 -2.959973604926e-04 0.0 
4.945604265146e-04 -2.977859800717e-04 0.0 
6.548076285467e-04 3.153463312692e-03 0.0 
1.297071420593e-04 -1.306011321285e-04 0.0 
9.926042184784e-05 -1.169409660872e-04 0.0 
2.978450748293e-04 -2.222571583930e-04 0.0 
2.980432085491e-04 -2.056835715856e-04 0.0 
1.574539579709e-04 -7.269892654255e-05 0.0 
1.885873332094e-04 -8.525357435018e-05 0.0 
1.630795318233e-03 4.209708168604e-04 0.0 
1.647069143839e-03 5.082326326819e-04 0.0 
1.526081877967e-03 2.411840549698e-04 0.0 
4.187805369050e-04 -6.966587545173e-05 0.0 
4.526383544228e-04 -9.568980596135e-05 0.0 
5.093047387234e-04 -1.123397814231e-04 0.0 
7.522975395204e-04 2.221427851925e-03 0.0 
5.128703842256e-04 1.644579990021e-03 0.0 
4.247123822428e-04 -2.060998498375e-04 0.0 
4.558588553527e-04 -2.252091504098e-04 0.0 
3.589815646249e-04 -1.881610719934e-04 0.0 
9.802346134592e-04 1.702657692109e-03 0.0 
2.888739678662e-05 2.479498600260e-06 0.0 
4.404290925176e-05 1.251648276771e-06 0.0 
2.510439204563e-04 -2.335678492909e-04 0.0 
2.744056510105e-04 -2.358394298355e-04 0.0 
5.493726414975e-04 -2.487452865690e-04 0.0 
5.187512447829e-04 -2.688454073352e-04 0.0 
1.400938273578e-03 1.387132267466e-03 0.0 
1.663073090141e-03 1.521724797690e-03 0.0 
1.067415470077e-03 1.132072400310e-03 0.0 
5.429332223590e-05 -1.453770445466e-04 0.0 
9.036115526073e-04 2.541844646594e-05 0.0 
1.909055256933e-04 2.009580425031e-06 0.0 
2.485836550801e-04 -1.156840138413e-06 0.0 
1.326000948368e-04 4.110649850273e-06 0.0 
6.409227903519e-04 3.718005323011e-05 0.0 
4.789859764512e-04 4.335349659040e-05 0.0 
5.654016063876e-04 6.896933657945e-05 0.0 
4.504408407394e-04 -3.159728737753e-04 0.0 
1.328372472288e-04 2.408405591746e-03 0.0 
7.649895031885e-04 7.824961180081e-03 0.0 
4.368665778437e-04 -3.199341212460e-04 0.0 
6.208838236380e-04 8.345390542611e-03 0.0 
5.610538117689e-04 7.761834240434e-03 0.0 
5.113086045808e-04 8.841296148455e-03 0.0 
5.765369261292e-05 -1.593331640834e-04 0.0 
1.212546127875e-03 7.773896567496e-03 0.0 
1.560373327659e-03 6.881255108846e-03 0.0 
2.783847475827e-04 -2.512776859039e-04 0.0 
6.831739231769e-04 1.293023104042e-03 0.0 
2.299423580345e-04 -2.318228557399e-04 0.0 
2.033426778776e-04 -2.182653024449e-04 0.0 
9.629573544042e-05 8.752134370511e-07 0.0 
1.054373589294e-04 -1.740117346680e-06 0.0 
6.792680929480e-05 2.535801715530e-06 0.0 
7.956390348721e-05 8.644722268670e-07 0.0 
1.106552666185e-04 -4.994599391120e-06 0.0 
8.364439723879e-05 -1.543337442629e-06 0.0 
8.047667470807e-04 8.435587919235e-03 0.0 
5.266796190516e-05 2.644664537145e-06 0.0 
6.022702917322e-05 9.723449255735e-07 0.0 
3.382529370842e-05 2.733080537546e-06 0.0 
1.545809545339e-03 9.355125663941e-04 0.0 
8.293557881304e-04 -1.083987174761e-04 0.0 
7.991659529230e-04 -4.328888991185e-05 0.0 
6.918228237147e-04 -3.600643331426e-05 0.0 
8.094375943000e-04 2.241910607073e-04 0.0 
1.099274109997e-03 3.390588370157e-04 0.0 
2.858317159681e-05 -6.417872680399e-06 0.0 
3.415162058887e-05 -1.438196871465e-05 0.0 
4.389795980221e-04 8.308185183822e-03 0.0 
3.244331792090e-04 8.351322950703e-03 0.0 
3.868764179362e-04 7.418871872550e-03 0.0 
2.782823866273e-04 7.532593753470e-03 0.0 
3.246090768120e-04 6.611636249238e-03 0.0 
2.068292776936e-04 6.727999483503e-03 0.0 
2.653078637871e-04 5.804675958120e-03 0.0 
5.053895772798e-04 7.923035367178e-05 0.0 
5.978055937878e-04 -1.509512575797e-04 0.0 
2.175181128570e-03 1.756614905157e-03 0.0 
3.046514656153e-04 1.964164094668e-05 0.0 
3.547283876700e-04 1.132212289790e-05 0.0 
1.323193462158e-03 4.329844504851e-04 0.0 
1.102121001141e-03 4.231434046559e-04 0.0 
1.074937464616e-04 2.610883066450e-06 0.0 
8.458743441863e-04 -2.101853248608e-04 0.0 
5.237858484466e-04 7.714265028603e-04 0.0 
4.402455903578e-04 -2.961888389088e-04 0.0 
4.604510951447e-04 -3.016300044897e-04 0.0 
9.289146758471e-04 -1.767225841319e-04 0.0 
1.527730264154e-03 4.589689961277e-04 0.0 
9.215037553312e-04 -4.530559661669e-05 0.0 
9.012738802885e-04 3.976068712406e-05 0.0 
3.751680854320e-04 -4.560056830714e-05 0.0 
2.999790387511e-04 -2.521732346463e-04 0.0 
5.847134714698e-04 -2.235898685054e-04 0.0 
3.917499947034e-04 5.701543766177e-03 0.0 
5.320604850711e-04 -2.217429631213e-04 0.0 
1.524790733954e-05 -9.390217489673e-06 0.0 
8.307582528505e-04 -2.199415754815e-04 0.0 
1.448441445093e-03 1.728159568279e-04 0.0 
6.439049126810e-04 -2.263384092465e-04 0.0 
8.579129478562e-04 -1.534843629397e-04 0.0 
2.346212082780e-03 1.524910148676e-03 0.0 
2.496184439675e-03 2.646185045547e-03 0.0 
2.395528612887e-03 2.203852372249e-03 0.0 
8.045730130213e-04 -2.214748258769e-04 0.0 
1.015191047075e-03 1.382472269256e-04 0.0 
8.543745153303e-04 1.494304418053e-04 0.0 
1.950783565497e-03 6.842739624059e-04 0.0 
2.020188780886e-03 2.085493073634e-03 0.0 
1.886405181858e-03 1.582027653573e-03 0.0 
1.491666197960e-03 1.123817225796e-03 0.0 
1.700925592826e-03 1.174200947990e-03 0.0 
2.054579028444e-03 1.566824238434e-03 0.0 
1.864102373850e-03 1.169394086949e-03 0.0 
1.481484830047e-03 8.580849689853e-04 0.0 
1.641607100661e-03 8.581790682290e-04 0.0 
1.143720525518e-03 5.557296549705e-04 0.0 
1.389503996828e-03 6.160289234796e-04 0.0 
1.754254379599e-03 8.247333321766e-04 0.0 
1.528732972005e-03 6.090446580105e-04 0.0 
1.188597332828e-03 4.551358966292e-04 0.0 
1.832100500255e-03 7.719986827289e-04 0.0 
2.536403140214e-04 2.467498456509e-05 0.0 
9.994167018299e-04 -1.557076350742e-04 0.0 
4.715876059403e-04 -3.086885987320e-04 0.0 
4.794638270800e-04 -2.878094542990e-04 0.0 
1.615352142236e-03 3.151330255035e-04 0.0 
6.141047935871e-04 3.032527142895e-04 0.0 
6.342591674065e-04 4.208630117154e-04 0.0 
7.112325304581e-04 -2.555387016189e-04 0.0 
3.906797669207e-04 1.057982285364e-04 0.0 
2.322498249279e-03 1.657588438412e-03 0.0 
5.663870884025e-04 -2.909079418561e-04 0.0 
3.172676580076e-04 6.922755560903e-05 0.0 
2.198165064689e-03 2.062836134608e-03 0.0 
2.319243074522e-03 1.973853614338e-03 0.0 
2.417635032754e-03 2.569484757053e-03 0.0 
5.712173039377e-04 5.025791085652e-04 0.0 
1.751964001414e-03 5.807984843170e-03 0.0 
1.853828722803e-04 2.659137081588e-05 0.0 
7.601909025546e-04 -9.176369360208e-05 0.0 
8.433747697056e-04 -1.012077302213e-04 0.0 
8.598073102808e-04 -1.354253702623e-04 0.0 
1.977629632042e-03 1.123626328371e-03 0.0 
1.201584700563e-04 1.082756798727e-05 0.0 
2.121775234775e-04 1.201559026014e-05 0.0 
1.872911481050e-04 8.790351102616e-06 0.0 
2.909902856459e-04 4.935906307663e-06 0.0 
9.240106403332e-05 7.445004156367e-06 0.0 
4.915088664924e-04 1.881311963856e-04 0.0 
4.325296188399e-04 1.470640701376e-04 0.0 
4.467955254230e-04 -2.447308444042e-04 0.0 
4.847194662219e-04 -2.434358179139e-04 0.0 
4.951460691020e-04 -2.229485660929e-04 0.0 
5.260021593687e-04 -2.407108172251e-04 0.0 
5.104672037552e-04 -2.601866723501e-04 0.0 
5.531350472614e-04 -2.566996906486e-04 0.0 
5.705533977329e-04 -2.362925574788e-04 0.0 
5.758037251778e-04 -2.698477726991e-04 0.0 
1.405267632629e-03 4.328772648450e-04 0.0 
6.895018124980e-05 5.037599518341e-06 0.0 
3.293882460339e-04 -7.250653005772e-05 0.0 
3.771462357733e-04 -8.811002107664e-05 0.0 
3.990010431620e-04 -1.125040137328e-04 0.0 
1.974347233496e-04 -1.030259719886e-04 0.0 
2.209301784869e-04 -9.930175262577e-05 0.0 
2.099598818573e-04 -8.087226367115e-05 0.0 
1.736957119942e-04 -1.067206926542e-04 0.0 
1.168672591208e-03 6.239321305777e-05 0.0 
6.039522255525e-05 4.041015629360e-06 0.0 
5.406599396217e-04 -9.996302719475e-05 0.0 
2.543250657524e-04 -1.147881831235e-04 0.0 
1.236709268496e-03 7.760431284551e-03 0.0 
1.893035342767e-03 6.429469881632e-03 0.0 
2.217535222984e-03 5.456195387654e-03 0.0 
2.325661553537e-03 5.050053420056e-03 0.0 
1.615484965208e-03 7.081999383121e-03 0.0 
1.277476045435e-04 -6.153733382837e-05 0.0 
9.971008514886e-05 -5.177649220027e-05 0.0 
8.062766162074e-05 -5.722937183344e-05 0.0 
7.341385273422e-05 -4.332534192354e-05 0.0 
5.485456423049e-05 -4.909212068596e-05 0.0 
6.050933930732e-05 -6.286874022664e-05 0.0 
4.846824209888e-05 -3.600394300955e-05 0.0 
3.122543340118e-05 -4.344941044015e-05 0.0 
9.399216758164e-04 8.698604433065e-03 0.0 
4.031310387964e-04 -3.177086812923e-04 0.0 
3.980665033719e-04 -3.077241472875e-04 0.0 
3.776336578099e-04 -2.985739821597e-04 0.0 
3.924231795103e-04 -2.958651209214e-04 0.0 
4.142702245526e-04 -3.039812215454e-04 0.0 
4.124474617782e-04 -2.902762461083e-04 0.0 
4.342315007370e-04 -2.999773232291e-04 0.0 
4.167351824020e-04 -3.148586918774e-04 0.0 
3.674859620443e-04 -3.011662952430e-04 0.0 
3.557457613022e-04 -2.879545589477e-04 0.0 
3.461726973261e-04 -2.909022114146e-04 0.0 
3.323007440036e-04 -2.770304402530e-04 0.0 
3.446732126951e-04 -2.716827228965e-04 0.0 
2.722642385999e-04 -2.210723977855e-04 0.0 
1.438033355241e-05 2.955562965767e-06 0.0 
2.486815784839e-05 -8.175714090830e-05 0.0 
4.949464313730e-05 -9.063043620022e-05 0.0 
5.085827577229e-05 -1.051532807644e-04 0.0 
7.678924169743e-05 -9.977448312567e-05 0.0 
4.622894130240e-05 -7.700677310673e-05 0.0 
2.577370530590e-05 -1.115339997604e-04 0.0 
5.101763570219e-05 -1.182917286712e-04 0.0 
8.392808717451e-05 -2.119532013846e-04 0.0 
6.560274349423e-05 -1.979006150229e-04 0.0 
3.025645118309e-05 -1.967370634918e-04 0.0 
4.811933697447e-05 -1.842134447343e-04 0.0 
7.955455807414e-05 -1.879419307195e-04 0.0 
9.775502913498e-05 -2.017338000765e-04 0.0 
1.298069588582e-04 -2.071949609315e-04 0.0 
1.491352414062e-04 -2.223538065218e-04 0.0 
1.602675248580e-04 -2.137501145154e-04 0.0 
1.408509938392e-04 -1.979059307896e-04 0.0 
1.793557063240e-04 -2.294815932278e-04 0.0 
9.389065003405e-05 4.461620709614e-03 0.0 
1.857838839266e-04 3.954609013351e-03 0.0 
4.899963262258e-05 3.201454764578e-06 0.0 
8.018060435081e-04 8.986335663459e-03 0.0 
2.971196918103e-04 -2.686046342107e-04 0.0 
1.844609338078e-04 9.690009883423e-04 0.0 
3.014181995688e-04 7.688721805755e-04 0.0 
2.374628921101e-04 7.598810267694e-04 0.0 
8.840376298189e-06 1.685162002493e-06 0.0 
1.409100772351e-05 2.706481640490e-06 0.0 
9.767038552966e-05 9.513010916128e-04 0.0 
2.417544214497e-04 -1.723391615803e-04 0.0 
1.278509413892e-03 8.090064108339e-04 0.0 
4.843855946941e-04 2.617185865621e-03 0.0 
5.669449131843e-04 -2.842660030590e-04 0.0 
3.270675582319e-04 -2.066362813854e-04 0.0 
5.548233309702e-05 -1.960995958878e-05 0.0 
1.790038779463e-04 -4.676524062365e-05 0.0 
6.064748820869e-05 -3.635079814917e-06 0.0 
1.052389922390e-04 -3.329906982505e-05 0.0 
1.076380096959e-04 -1.268433793561e-05 0.0 
1.688034113944e-04 6.504134233068e-06 0.0 
8.748392863137e-05 -1.684952664248e-04 0.0 
1.024453492470e-03 6.266273452250e-03 0.0 
6.100720450683e-04 6.730029948911e-03 0.0 
7.351690326946e-04 4.173775114004e-03 0.0 
1.582252849336e-04 -1.435089612205e-04 0.0 
8.752928963679e-05 -7.135839228925e-05 0.0 
1.929338140137e-04 -1.890581786267e-04 0.0 
6.072156677898e-04 1.289893876392e-04 0.0 
1.880682371346e-03 6.981848789559e-04 0.0 
3.710744574560e-04 -1.188139277626e-04 0.0 
2.042004106793e-04 -1.210171674892e-04 0.0 
2.689924934451e-04 -1.716298191425e-04 0.0 
3.543530240210e-04 -2.250218421360e-04 0.0 
1.099430570540e-03 -1.095026012702e-04 0.0 
2.794204777466e-04 -1.110983116575e-04 0.0 
2.120214111323e-04 -2.972932502381e-05 0.0 
5.761893931699e-04 3.631850060789e-03 0.0 
2.379172715444e-04 -2.451894718670e-04 0.0 
2.169152084040e-04 -2.331672295600e-05 0.0 
2.499320916584e-04 -7.110235582043e-05 0.0 
1.589736606014e-03 5.498614507162e-03 0.0 
5.478385351867e-04 -2.310445225350e-05 0.0 
3.947233967501e-04 -2.747583623666e-04 0.0 
1.148158406412e-03 3.657212872529e-03 0.0 
1.225279048346e-03 1.619589612042e-03 0.0 
1.884939759165e-03 6.009276492792e-03 0.0 
1.963759726862e-04 -2.039480492677e-04 0.0 
9.339038777344e-04 7.326967116680e-03 0.0 
1.553636176257e-04 -1.467729151333e-08 0.0 
2.084703002515e-03 2.677815586628e-03 0.0 
1.330849750599e-04 -1.463991881308e-04 0.0 
6.252287477388e-04 -1.466702560203e-04 0.0 
1.393569529075e-03 8.434557233319e-05 0.0 
2.603887016191e-03 3.033125843787e-03 0.0 
5.214542664013e-04 2.187624131066e-03 0.0 
1.002346978219e-03 -1.073030480468e-04 0.0 
3.823723417209e-04 -1.019016929912e-05 0.0 
5.705862084230e-04 -8.542217895127e-05 0.0 
1.050132759775e-04 -1.343079736077e-04 0.0 
1.415203761941e-04 -9.801251042166e-06 0.0 
7.972673067118e-04 -1.587314561518e-04 0.0 
9.870285515500e-04 2.676897333433e-03 0.0 
1.416883069512e-03 2.408875018503e-04 0.0 
6.711441799808e-04 -2.197176491944e-04 0.0 
1.559800146733e-03 2.921915028740e-03 0.0 
4.455777172432e-04 -1.306852594189e-04 0.0 
5.489970629316e-04 -5.180379308504e-06 0.0 
1.684418414460e-03 4.772259871155e-04 0.0 
1.579202744092e-03 2.313974505665e-04 0.0 
1.998592831273e-03 7.725027963120e-04 0.0 
1.261178100041e-03 7.090529250397e-06 0.0 
3.876168276060e-05 -2.438365434973e-05 0.0 
1.770238321353e-04 -1.585272154753e-05 0.0 
4.872300379575e-04 -3.005597141101e-04 0.0 
9.478182738023e-04 -1.462303091070e-04 0.0 
2.005590048270e-03 4.994672889206e-03 0.0 
8.934421779453e-04 1.251700348441e-04 0.0 
7.356301316027e-04 1.724272400731e-03 0.0 
1.299362717973e-03 6.205650849073e-05 0.0 
1.407964759411e-04 -1.432799938853e-05 0.0 
1.283089869025e-03 2.083812502703e-03 0.0 
2.440858687880e-04 -9.530891310180e-05 0.0 
2.703477300157e-05 -1.553906434115e-04 0.0 
5.282813907909e-04 -2.858459885105e-04 0.0 
6.242464527861e-04 -2.629119326021e-04 0.0 
9.279806864999e-04 -1.405497424080e-04 0.0 
2.305181365511e-04 -7.628637682296e-05 0.0 
1.166004780341e-03 9.248383260106e-04 0.0 
1.109736097207e-04 -8.762378561106e-06 0.0 
3.172587160231e-04 -3.404646727698e-05 0.0 
4.700085665983e-04 -2.467091281902e-04 0.0 
2.389326805489e-03 2.309737659052e-03 0.0 
8.490188996857e-05 -4.419328302499e-06 0.0 
5.672221869565e-04 -1.295173726616e-04 0.0 
4.556427994770e-04 -1.988675342292e-06 0.0 
3.570780538418e-05 -5.563158338458e-05 0.0 
5.474095598006e-04 1.010948424506e-04 0.0 
1.296591946765e-03 6.353171225665e-04 0.0 
6.247283640402e-05 -1.149854676968e-06 0.0 
3.833205396221e-04 -3.444453033893e-05 0.0 
7.747517012880e-04 -2.356925950840e-04 0.0 
2.611778593520e-04 9.236004444233e-03 0.0 
3.774896129510e-05 2.804986182061e-06 0.0 
3.166457255263e-04 -1.415074763146e-05 0.0 
1.234997720093e-03 3.654362930795e-05 0.0 
5.294911812411e-04 -1.405902855270e-04 0.0 
1.906209375583e-03 1.744678535257e-03 0.0 
1.960272868036e-04 -6.327964578973e-05 0.0 
1.677623642260e-03 3.398286612560e-04 0.0 
5.241189153030e-04 5.422903820094e-04 0.0 
3.121847437967e-04 -5.012362279629e-06 0.0 
2.492869956026e-03 2.388183326395e-03 0.0 
1.773997091215e-04 -6.811570792897e-05 0.0 
8.447262134707e-04 -3.929954678112e-05 0.0 
1.104257066385e-04 -1.924210332808e-04 0.0 
1.842909301900e-03 1.293138668350e-03 0.0 
1.463784968925e-04 -5.673533921552e-05 0.0 
5.997791734705e-04 -2.513470243895e-04 0.0 
4.774096997058e-04 -1.225208182758e-04 0.0 
3.651036436016e-04 3.245192551046e-05 0.0 
1.173212494585e-04 -4.676979949969e-05 0.0 
6.187096110786e-04 -2.293627339337e-04 0.0 
9.025363130796e-05 -3.814923699063e-05 0.0 
1.252379191180e-03 9.456843784018e-04 0.0 
2.376035768152e-03 1.817356461389e-03 0.0 
6.437535492202e-05 -3.070335568141e-05 0.0 
1.589351977103e-03 3.309334195167e-04 0.0 
1.716654303756e-04 -2.046228027719e-04 0.0 
1.114110856916e-03 1.148324032993e-05 0.0 
2.123237673868e-05 -4.420166038630e-07 0.0 
3.266249805308e-04 -1.696467697980e-04 0.0 
4.268188251909e-04 -1.051054125392e-04 0.0 
2.166865655845e-03 1.497533487299e-03 0.0 
9.202577655261e-04 4.976314532618e-04 0.0 
3.994040042379e-04 -7.975310403646e-05 0.0 
1.442555369760e-03 3.113834614383e-04 0.0 
9.959159269600e-04 -2.288207385882e-06 0.0 
9.240150957210e-04 -1.071170500885e-04 0.0 
3.628157943494e-04 -5.565227941311e-05 0.0 
9.742866078296e-04 2.698835543699e-04 0.0 
2.694325127753e-04 -1.891387278210e-04 0.0 
2.710582147917e-04 -2.054828500470e-04 0.0 
5.820258290223e-04 -2.129171018232e-04 0.0 
1.440512806417e-03 3.772329622593e-04 0.0 
6.592550521992e-05 -1.747443682424e-04 0.0 
2.032597680958e-03 1.032875316453e-03 0.0 
2.979973452293e-04 -2.375338381520e-04 0.0 
5.371622382674e-04 -2.190008937879e-04 0.0 
7.711381640799e-04 1.995431240578e-05 0.0 
9.598793009246e-05 6.468710107441e-03 0.0 
5.006821107022e-04 -2.002694187561e-04 0.0 
2.550900834138e-05 -1.407636789276e-04 0.0 
4.617503371317e-04 -2.040868907965e-04 0.0 
8.967002996739e-04 -7.256792881408e-05 0.0 
4.263092013496e-04 -1.844875972132e-04 0.0 
3.918285430086e-04 -1.868216040830e-04 0.0 
3.549129948899e-04 1.666762267418e-03 0.0 
3.577048972281e-04 -1.676977064857e-04 0.0 
4.858016719851e-05 7.877309163147e-04 0.0 
5.852958505295e-06 2.930372517872e-06 0.0 
1.062939704277e-04 8.480514323166e-03 0.0 
7.271892475226e-04 2.283684879314e-04 0.0 
4.340343387376e-04 -3.190510881411e-04 0.0 
7.836842896420e-04 3.630290748935e-05 0.0 
3.281703919631e-04 -1.888580901982e-04 0.0 
1.845971512030e-03 6.799869214906e-04 0.0 
2.219619929337e-04 8.433370758673e-03 0.0 
2.982385162084e-04 -1.889537364255e-04 0.0 
9.541998825137e-04 3.929725539009e-04 0.0 
2.339901446285e-04 4.084835203903e-05 0.0 
1.957575993880e-04 4.912719905922e-03 0.0 
3.764591309565e-04 9.056448680543e-07 0.0 
8.774740452836e-04 -7.561636229005e-06 0.0 
6.544546043173e-05 2.510319724380e-03 0.0 
5.531497103501e-04 9.300016603180e-03 0.0 
3.071279196765e-04 -2.655820715671e-04 0.0 
1.814830564952e-05 -1.837403658622e-05 0.0 
6.193508309716e-04 2.960795135789e-05 0.0 
6.373779570588e-04 -1.026762519758e-04 0.0 
5.605086931634e-04 -1.903677306208e-04 0.0 
7.749394567875e-05 -1.249560243093e-04 0.0 
3.695651827862e-04 -2.855813931129e-04 0.0 
5.627061559081e-04 -1.016968709413e-04 0.0 
2.438081102344e-04 1.565154712623e-05 0.0 
1.016044105773e-03 8.168979911058e-03 0.0 
7.830317196569e-04 4.560134281053e-05 0.0 
5.095682559025e-04 -1.885762564002e-04 0.0 
9.226752369107e-04 1.317576033771e-03 0.0 
4.054358819483e-04 5.031629778893e-05 0.0 
3.226919798165e-05 2.576244306330e-06 0.0 
6.124890722275e-04 5.482028966776e-05 0.0 
5.048025519235e-04 -2.478782717330e-04 0.0 
2.007630444728e-03 5.947083690903e-03 0.0 
6.667269640373e-04 1.602383147141e-04 0.0 
2.831023053383e-04 4.098176983147e-03 0.0 
2.270390262895e-05 2.480772778682e-06 0.0 
1.289420323442e-03 7.789219797398e-03 0.0 
2.093277479000e-04 1.568002164546e-03 0.0 
4.585240015556e-04 -3.025926324918e-04 0.0 
1.042619970275e-04 1.528369096525e-03 0.0 
1.615822475305e-03 5.753196807156e-04 0.0 
4.965918902863e-04 7.202602623012e-03 0.0 
2.470666942406e-03 4.452283084986e-03 0.0 
1.672130221787e-05 3.243480290750e-06 0.0 
1.062775886429e-03 5.875547962377e-04 0.0 
4.818315613096e-04 -2.712584683637e-04 0.0 
3.067697416848e-04 5.017011180522e-03 0.0 
1.034005342920e-04 -1.032631259534e-04 0.0 
4.293735428026e-04 -3.192577993392e-04 0.0 
8.652718355175e-05 2.591319099196e-06 0.0 
1.318573925589e-03 4.577616376178e-04 0.0 
2.834700696919e-05 2.965008900039e-06 0.0 
2.153959925628e-05 -1.841543235389e-04 0.0 
2.533722231464e-04 -2.441470260420e-04 0.0 
1.028757651100e-04 3.562257212693e-06 0.0 
7.653195891749e-04 2.436428093824e-04 0.0 
4.416654556982e-04 -2.886347164192e-04 0.0 
3.273397053117e-04 5.612511156002e-04 0.0 
4.576066038603e-04 -2.867795731373e-04 0.0 
6.900748848559e-04 9.339254691911e-03 0.0 
1.875341164228e-04 -2.219630195273e-04 0.0 
1.771331371100e-05 2.502695338737e-06 0.0 
5.484045277423e-04 1.420114301162e-03 0.0 
6.722764488602e-05 -8.541567581339e-05 0.0 
2.058501339928e-03 5.637390410813e-03 0.0 
5.150256228236e-05 -1.322192627747e-04 0.0 
6.983201427330e-04 1.090369528981e-04 0.0 
3.211301147796e-04 -2.636767574349e-04 0.0 
3.631452317022e-04 1.386857907377e-03 0.0 
1.295500791096e-04 5.636815210564e-06 0.0 
9.871420011275e-04 8.776875090504e-04 0.0 
1.129173276455e-04 1.375198707963e-05 0.0 
4.501834729342e-04 -3.120408216170e-04 0.0 
3.882134512375e-04 5.688614396055e-05 0.0 
2.412703147864e-04 4.080461658413e-06 0.0 
4.322643619063e-04 9.355037945926e-03 0.0 
1.073203237153e-03 7.310178821028e-04 0.0 
7.304278949839e-05 -1.123435391614e-04 0.0 
1.467506619909e-04 -1.890039264645e-04 0.0 
2.047583515946e-05 6.986319465631e-04 0.0 
2.470940450360e-05 -2.094761883111e-04 0.0 
7.814601707648e-05 9.368025000426e-03 0.0 
2.263313319110e-06 2.316547072168e-06 0.0 
9.241942716475e-05 -1.807205355281e-04 0.0 
1.857389691927e-04 7.733514835217e-03 0.0 
8.007485946945e-04 2.900929977150e-04 0.0 
1.552748169101e-05 -5.263374117032e-05 0.0 
1.467057612556e-04 3.160732940625e-03 0.0 
3.862149206952e-04 -2.836801311709e-04 0.0 
4.250705028358e-04 -3.234884660665e-04 0.0 
1.726030711144e-04 5.957556523327e-03 0.0 
3.293037226693e-04 3.747388862470e-05 0.0 
8.474387089581e-04 1.026960490622e-03 0.0 
4.210631447283e-04 6.647925185207e-03 0.0 
5.029214218762e-04 -2.827324903593e-04 0.0 
1.045375657637e-03 3.587930481346e-04 0.0 
6.765929786221e-05 -7.421110474271e-05 0.0 
8.363015290338e-04 1.784645374142e-04 0.0 
3.007451096045e-04 9.375650374665e-06 0.0 
4.414965368232e-04 -2.815976650373e-04 0.0 
1.287158336521e-05 -3.992043379392e-05 0.0 
2.125128705188e-04 -2.304611622651e-04 0.0 
5.418907882302e-05 2.673988001896e-06 0.0 
4.360051041233e-05 -6.598320528495e-05 0.0 

VECTORS node_materi_displacement float
0.0 6.357627427974e-02 0.0 
0.0 1.645440803118e-01 0.0 
0.0 0.0 0.0 
0.0 0.0 0.0 
0.0 6.455199488469e-02 0.0 
0.0 6.482703059887e-02 0.0 
0.0 6.444494225373e-02 0.0 
0.0 6.340496850493e-02 0.0 
0.0 6.173321947620e-02 0.0 
0.0 5.957640283219e-02 0.0 
0.0 5.702048594296e-02 0.0 
0.0 5.413032168587e-02 0.0 
0.0 5.096755769215e-02 0.0 
0.0 4.757033242228e-02 0.0 
0.0 4.394768954671e-02 0.0 
0.0 4.011074302528e-02 0.0 
0.0 3.604899759516e-02 0.0 
0.0 3.175445142184e-02 0.0 
0.0 2.719394806220e-02 0.0 
0.0 2.234978287068e-02 0.0 
0.0 1.721304292602e-02 0.0 
0.0 1.177098372225e-02 0.0 
0.0 6.030070367745e-03 0.0 
0.0 0.0 0.0 
0.0 0.0 0.0 
0.0 0.0 0.0 
0.0 0.0 0.0 
0.0 0.0 0.0 
0.0 0.0 0.0 
0.0 0.0 0.0 
0.0 0.0 0.0 
0.0 0.0 0.0 
0.0 0.0 0.0 
0.0 0.0 0.0 
0.0 0.0 0.0 
0.0 0.0 0.0 
0.0 0.0 0.0 
0.0 0.0 0.0 
0.0 0.0 0.0 
0.0 0.0 0.0 
0.0 0.0 0.0 
0.0 0.0 0.0 
0.0 0.0 0.0 
0.0 0.0 0.0 
0.0 0.0 0.0 
0.0 0.0 0.0 
0.0 0.0 0.0 
0.0 0.0 0.0 
0.0 0.0 0.0 
0.0 0.0 0.0 
0.0 0.0 0.0 
0.0 0.0 0.0 
0.0 0.0 0.0 
0.0 0.0 0.0 
0.0 0.0 0.0 
0.0 0.0 0.0 
0.0 0.0 0.0 
0.0 0.0 0.0 
0.0 0.0 0.0 
0.0 0.0 0.0 
0.0 0.0 0.0 
0.0 0.0 0.0 
0.0 0.0 0.0 
0.0 0.0 0.0 
0.0 0.0 0.0 
0.0 0.0 0.0 
0.0 0.0 0.0 
0.0 0.0 0.0 
0.0 0.0 0.0 
0.0 0.0 0.0 
0.0 0.0 0.0 
0.0 0.0 0.0 
0.0 1.495683068189e-01 0.0 
0.0 1.341714059744e-01 0.0 
0.0 1.183851705277e-01 0.0 
0.0 1.022452642749e-01 0.0 
0.0 8.578411811235e-02 0.0 
0.0 6.904034891922e-02 0.0 
0.0 5.205275569491e-02 0.0 
0.0 3.486045503578e-02 0.0 
0.0 1.750657796193e-02 0.0 
-7.641000524866e-03 -8.035596985963e-03 0.0 
3.600953918691e-02 1.447903252709e-01 0.0 
1.932801666470e-04 2.162077549747e-02 0.0 
7.887898341690e-03 4.627567415036e-02 0.0 
1.518743267739e-02 6.892103306546e-02 0.0 
2.195726909921e-02 8.958788077523e-02 0.0 
2.823553338355e-02 1.080924323167e-01 0.0 
3.370269976251e-02 1.236627302478e-01 0.0 
3.776237078828e-02 1.354129325533e-01 0.0 
3.989247219084e-02 1.429107983657e-01 0.0 
3.968869985276e-02 1.460337351801e-01 0.0 
2.091553239178e-03 1.646046112885e-01 0.0 
4.120328746555e-03 1.645603217558e-01 0.0 
6.169040964531e-03 1.645360426054e-01 0.0 
8.238863976641e-03 1.644986317661e-01 0.0 
1.033145040062e-02 1.643867436775e-01 0.0 
1.243296823144e-02 1.642045015258e-01 0.0 
1.456361405618e-02 1.638995763699e-01 0.0 
1.671202581336e-02 1.634129686035e-01 0.0 
1.889787933902e-02 1.626818224333e-01 0.0 
2.113706298383e-02 1.616403570490e-01 0.0 
2.343432661777e-02 1.601226943488e-01 0.0 
2.586125348153e-02 1.579692471650e-01 0.0 
2.853841255936e-02 1.549978743661e-01 0.0 
3.171558223150e-02 1.509045343154e-01 0.0 
-4.291792651485e-03 -2.340033016407e-02 0.0 
7.084516847559e-04 -3.171069774845e-02 0.0 
6.194639180039e-03 -3.479711993850e-02 0.0 
1.216662127834e-02 -3.227690319904e-02 0.0 
1.663422043117e-02 -2.172085710766e-02 0.0 
1.927495574525e-02 -8.194787456712e-03 0.0 
2.026880183859e-02 2.306695426354e-03 0.0 
2.052338229476e-02 1.114365210917e-02 0.0 
2.058097151721e-02 1.900329013993e-02 0.0 
2.033885177287e-02 2.629437991535e-02 0.0 
1.971237088418e-02 3.300162927703e-02 0.0 
1.876714994601e-02 3.905752367646e-02 0.0 
1.743688482743e-02 4.460579545293e-02 0.0 
1.565905663146e-02 4.956540273953e-02 0.0 
1.353952385784e-02 5.382866826521e-02 0.0 
1.117295442848e-02 5.729843921969e-02 0.0 
8.597736605893e-03 6.005399858979e-02 0.0 
5.854493030289e-03 6.206497975261e-02 0.0 
2.943417185572e-03 6.321065701310e-02 0.0 
-3.255431010818e-03 8.134027051692e-03 0.0 
4.014852393259e-03 3.414285009853e-02 0.0 
1.159015141694e-02 5.782820147577e-02 0.0 
1.863524258339e-02 7.950218249103e-02 0.0 
2.520638472761e-02 9.921060283548e-02 0.0 
3.113228073180e-02 1.163671737622e-01 0.0 
3.595316219145e-02 1.300475615393e-01 0.0 
3.907770596843e-02 1.396879977481e-01 0.0 
4.011387563033e-02 1.450058679553e-01 0.0 
3.846151313480e-02 1.459712426920e-01 0.0 
1.318478012253e-02 3.296589599891e-02 0.0 
3.456984455545e-03 4.044451834810e-03 0.0 
1.449373627746e-02 2.254707171457e-02 0.0 
8.899761799277e-03 -2.602630743352e-02 0.0 
4.563330538422e-04 4.031583257476e-03 0.0 
2.701282155687e-02 7.653359484827e-02 0.0 
-9.828640030748e-04 4.551343535253e-02 0.0 
6.329388099167e-03 5.056522697138e-03 0.0 
3.821090631245e-02 1.094003058949e-01 0.0 
8.288993916376e-03 6.647086239582e-03 0.0 
4.361092075094e-02 1.299313163905e-01 0.0 
-5.788681335853e-04 4.228519962906e-03 0.0 
1.261471972390e-02 4.809958037709e-02 0.0 
9.223679199655e-03 9.050461736591e-03 0.0 
3.986852755293e-02 1.332490794600e-01 0.0 
-6.843142890360e-04 5.798974389418e-02 0.0 
-8.333869204100e-04 3.466742556808e-02 0.0 
9.174546777932e-03 1.128486793102e-02 0.0 
7.064768576413e-03 1.279304947594e-02 0.0 
2.181145811776e-03 1.482734615865e-02 0.0 
4.018966338951e-03 1.574298701248e-02 0.0 
5.252878743428e-03 1.350956176025e-02 0.0 
3.196373713079e-02 1.398790890638e-01 0.0 
2.066446668488e-02 1.486737291192e-01 0.0 
1.368117940434e-02 1.501744127253e-01 0.0 
1.391705893221e-03 9.379629197735e-02 0.0 
-6.625024985013e-04 4.973179585497e-03 0.0 
3.911348068312e-03 -2.492710926936e-02 0.0 
7.656894655731e-03 5.949386346461e-02 0.0 
-5.186110135413e-04 2.015260828128e-02 0.0 
7.084588132418e-03 1.516329587328e-01 0.0 
4.934229652981e-04 6.369110799910e-02 0.0 
9.238323242841e-03 1.372438481665e-02 0.0 
6.892933080986e-03 5.324277981990e-03 0.0 
8.827857692085e-03 7.691456135909e-03 0.0 
5.294319575615e-03 4.729838306762e-03 0.0 
1.964934393006e-03 3.695498777029e-03 0.0 
1.196693009438e-02 -3.032302768722e-03 0.0 
2.581959856714e-02 1.465158299128e-01 0.0 
-2.970522064561e-04 4.879186475194e-03 0.0 
1.073928193374e-03 6.129395783453e-02 0.0 
1.429718858378e-02 3.621283385829e-02 0.0 
-9.753443417403e-04 5.233133318242e-02 0.0 
1.095282735002e-03 1.211743577102e-02 0.0 
3.324369064596e-02 9.316465531283e-02 0.0 
2.023817398297e-02 5.589223125374e-02 0.0 
4.187183974282e-02 1.215173735780e-01 0.0 
4.305906897664e-02 1.338998114552e-01 0.0 
5.187397105999e-03 7.723672373924e-03 0.0 
1.650861120879e-03 1.244377456167e-01 0.0 
-3.471825721499e-04 4.079970508830e-03 0.0 
3.552949791990e-03 6.354158633824e-02 0.0 
5.991641506466e-04 2.748227901958e-02 0.0 
3.832527406923e-02 1.302917577927e-01 0.0 
4.087046911041e-02 1.203266909027e-01 0.0 
3.789824250575e-02 1.192941998591e-01 0.0 
4.047110339080e-02 1.077354028092e-01 0.0 
3.762273397680e-02 1.043296961520e-01 0.0 
3.920207572824e-02 9.457092886812e-02 0.0 
4.219649156457e-02 9.741625407427e-02 0.0 
4.022370703969e-02 8.501409423283e-02 0.0 
4.328781329294e-02 8.754149642705e-02 0.0 
3.594560593338e-02 9.055978422084e-02 0.0 
4.063742665085e-02 7.577542617034e-02 0.0 
4.373889173785e-02 7.802997678358e-02 0.0 
4.044414312345e-02 6.694972786999e-02 0.0 
4.353965205215e-02 6.897448277753e-02 0.0 
4.650314546850e-02 7.928223297201e-02 0.0 
4.627682122011e-02 7.004521325212e-02 0.0 
4.883243493815e-02 7.947683328621e-02 0.0 
4.857919492062e-02 7.006128008870e-02 0.0 
4.540850234069e-02 6.140421715596e-02 0.0 
4.764658022072e-02 6.132134776155e-02 0.0 
5.032322647451e-02 6.903268923055e-02 0.0 
4.932863724465e-02 6.021958166673e-02 0.0 
5.147364771478e-02 6.695956593750e-02 0.0 
5.039497997790e-02 5.809751571404e-02 0.0 
5.200715535331e-02 6.384616208713e-02 0.0 
5.083427451992e-02 5.501532971053e-02 0.0 
4.862779030068e-02 5.007301485352e-02 0.0 
4.896060417876e-02 4.709766462607e-02 0.0 
5.061734698136e-02 5.105100511311e-02 0.0 
4.862227363185e-02 4.329333297965e-02 0.0 
4.974077938105e-02 4.630116917755e-02 0.0 
4.761152226503e-02 3.879382514927e-02 0.0 
4.596116502897e-02 3.656928554647e-02 0.0 
4.480433717187e-02 3.240211632427e-02 0.0 
4.591193286836e-02 3.368416828643e-02 0.0 
4.286623607933e-02 2.757924768256e-02 0.0 
4.347062355495e-02 2.788085436755e-02 0.0 
4.016057985209e-02 2.218192846826e-02 0.0 
4.032768249644e-02 2.160637180848e-02 0.0 
3.674449067774e-02 1.652039433893e-02 0.0 
3.624813491176e-02 1.778294720683e-02 0.0 
3.261604931724e-02 1.286231813056e-02 0.0 
3.274362148332e-02 1.093344411865e-02 0.0 
2.848414963639e-02 8.239447295380e-03 0.0 
2.815710368575e-02 1.060018977350e-02 0.0 
2.400927743988e-02 6.985582447351e-03 0.0 
2.357791752593e-02 9.589501944543e-03 0.0 
1.952509043704e-02 6.987433499482e-03 0.0 
1.968214308479e-02 4.122589884085e-03 0.0 
1.540927037166e-02 5.221806195504e-03 0.0 
1.526987128204e-02 8.001286047864e-03 0.0 
1.145854015866e-02 7.191948378766e-03 0.0 
1.140333141215e-02 4.413944856376e-03 0.0 
7.887188323091e-03 7.324577131130e-03 0.0 
8.084829436811e-03 9.525402467058e-03 0.0 
4.971936145602e-03 1.031802138451e-02 0.0 
4.668813522731e-03 8.383702749512e-03 0.0 
2.228928620074e-03 1.193923502280e-02 0.0 
2.544591078568e-03 1.337139169788e-02 0.0 
1.535095177613e-04 1.555275254289e-02 0.0 
-1.232797487553e-04 1.439928906802e-02 0.0 
-1.818668473855e-03 1.843730645548e-02 0.0 
-1.528965336340e-03 1.906131985960e-02 0.0 
-3.145206377027e-03 2.224052285141e-02 0.0 
-2.779642340603e-03 2.225443974526e-02 0.0 
-3.359850263033e-03 2.200430873280e-02 0.0 
-4.329407210558e-03 2.594111292199e-02 0.0 
-4.404380642299e-03 2.612069197594e-02 0.0 
-5.061407193372e-03 3.005332599584e-02 0.0 
4.270374901549e-02 3.087584976286e-02 0.0 
-4.910325952396e-03 3.060788897701e-02 0.0 
-4.167852628542e-03 2.613306958419e-02 0.0 
-5.329949874932e-03 3.444384055294e-02 0.0 
-5.383473348504e-03 3.338303517231e-02 0.0 
-4.912077661784e-03 3.535150107019e-02 0.0 
-5.167984062014e-03 3.898405852992e-02 0.0 
-4.464218070370e-03 4.018666105794e-02 0.0 
4.316021931965e-02 2.806963750576e-02 0.0 
4.392208013071e-02 5.341328656023e-02 0.0 
-4.628671948118e-03 4.351952060169e-02 0.0 
-3.651388670937e-03 4.494751381261e-02 0.0 
-3.210579500705e-03 4.122692229498e-02 0.0 
-2.090434122320e-03 4.616139755311e-02 0.0 
3.444408944731e-02 1.000958669733e-01 0.0 
3.246604092079e-02 8.564809060021e-02 0.0 
3.112389304981e-02 9.495128874442e-02 0.0 
2.882793219739e-02 7.999125017310e-02 0.0 
2.767631797018e-02 8.888029523534e-02 0.0 
-2.587710444472e-03 4.947531744660e-02 0.0 
3.696614189246e-02 6.359608071922e-02 0.0 
2.947658843207e-02 7.104809606483e-02 0.0 
5.184052840047e-02 7.662064944989e-02 0.0 
5.114244811915e-02 5.491701277155e-02 0.0 
2.733979491847e-02 1.277740879936e-02 0.0 
-5.121589668193e-03 4.189187873573e-02 0.0 
-4.498432816215e-03 4.609723984714e-02 0.0 
-4.795701036772e-03 4.405716355394e-02 0.0 
-1.116800322150e-03 1.939454791474e-02 0.0 
-2.270089300691e-03 2.193621574954e-02 0.0 
-5.971569130002e-04 1.933489867886e-02 0.0 
-1.685308595858e-03 2.120371210913e-02 0.0 
-7.266790245309e-05 1.879129708655e-02 0.0 
-1.153641483967e-03 1.999119693300e-02 0.0 
-2.425063377193e-03 2.262500690206e-02 0.0 
-1.902823836292e-03 2.077060259335e-02 0.0 
-2.864862684061e-03 2.356686119826e-02 0.0 
2.808052875823e-04 1.768676324361e-02 0.0 
1.718618963586e-03 1.678309012214e-02 0.0 
-2.352206990385e-03 2.111233830067e-02 0.0 
-3.045200502909e-03 2.401716336516e-02 0.0 
-2.546403750577e-03 2.100646878790e-02 0.0 
-3.004792252425e-03 2.398689936628e-02 0.0 
-3.521063558941e-03 2.710600250174e-02 0.0 
-3.255083225713e-03 2.709581508922e-02 0.0 
-3.766126896847e-03 3.032502689177e-02 0.0 
2.277004075280e-02 1.189375788827e-02 0.0 
2.603466195159e-02 1.454971846149e-02 0.0 
2.160394146911e-02 1.365171421916e-02 0.0 
2.416071365139e-02 1.553164391754e-02 0.0 
2.001335183200e-02 1.439003960734e-02 0.0 
2.185598575706e-02 1.552289302912e-02 0.0 
1.790071349232e-02 1.424433111891e-02 0.0 
1.615822350765e-02 1.367911736027e-02 0.0 
3.964999938306e-02 5.845607326964e-02 0.0 
2.834439143536e-02 5.734887158426e-03 0.0 
3.231635023017e-02 8.905620355882e-03 0.0 
2.766715299181e-02 3.042463654580e-03 0.0 
3.118778824450e-02 6.802062712539e-03 0.0 
2.640232449974e-02 2.652977288974e-04 0.0 
2.941450959195e-02 4.688212124808e-03 0.0 
2.465274827218e-02 -2.593759241148e-03 0.0 
2.155408220204e-02 -5.356122202724e-03 0.0 
1.983541182381e-02 -8.906043059008e-03 0.0 
1.681616366393e-02 -9.647509496309e-03 0.0 
1.530556194986e-02 -1.366494534874e-02 0.0 
1.244915769108e-02 -1.218992993567e-02 0.0 
4.621038382525e-02 4.293077698435e-02 0.0 
2.604291026463e-02 1.726297846334e-02 0.0 
2.303093139079e-02 1.643935219269e-02 0.0 
2.718495938746e-02 1.867962575615e-02 0.0 
-1.314958431294e-03 4.211463647305e-02 0.0 
-2.776001798744e-03 2.349700387925e-02 0.0 
1.776234384412e-03 1.569954255508e-02 0.0 
3.541994334015e-03 1.516690438463e-02 0.0 
1.424027930280e-02 1.329367671587e-02 0.0 
-7.868873391599e-04 5.075684946600e-02 0.0 
2.703431218590e-02 2.642463875905e-03 0.0 
3.157442334582e-02 1.126062732839e-02 0.0 
2.511854684013e-02 7.346369597184e-02 0.0 
2.419576712483e-02 8.204692242134e-02 0.0 
3.229308852525e-03 1.400101993074e-02 0.0 
-1.410967343793e-03 5.363146512186e-02 0.0 
-1.525233986213e-03 1.840397865585e-02 0.0 
1.758103355139e-02 -1.259431153497e-02 0.0 
-2.842912401252e-03 2.660579169957e-02 0.0 
-2.395651350196e-03 2.258059673835e-02 0.0 
-3.449057461101e-03 2.556261639965e-02 0.0 
2.349838390676e-02 1.701245895178e-02 0.0 
2.765227022243e-02 1.968713373427e-02 0.0 
1.351983374717e-02 -8.203180272591e-03 0.0 
9.423813701257e-03 -8.827301912746e-03 0.0 
8.630931780365e-03 -1.266482769220e-02 0.0 
5.930588627498e-03 -7.281834724317e-03 0.0 
6.498009528502e-03 -4.171509512560e-03 0.0 
3.587037865161e-03 -1.641081992062e-03 0.0 
3.469714605667e-03 -4.142901805974e-03 0.0 
1.623530285132e-03 2.479689824142e-03 0.0 
1.456042115563e-03 4.444371889979e-03 0.0 
-7.208039935174e-06 9.015718787527e-03 0.0 
8.221336035614e-04 7.803378195742e-03 0.0 
-3.991459504225e-04 1.444641769140e-02 0.0 
-2.313264952102e-03 1.949945252581e-02 0.0 
1.346040008941e-02 -1.779312327010e-02 0.0 
4.839614579617e-02 8.947384498156e-02 0.0 
1.585431507024e-03 1.394253921210e-02 0.0 
1.534387899104e-02 1.326974164408e-02 0.0 
2.140844965199e-02 6.624840451257e-02 0.0 
2.073425890531e-02 7.457727510974e-02 0.0 
2.288430145845e-02 9.062846703477e-02 0.0 
1.968825695314e-02 8.286634162933e-02 0.0 
1.734985285402e-02 6.658126684409e-02 0.0 
1.657636210228e-02 7.468396903939e-02 0.0 
1.836120759885e-02 9.105457841806e-02 0.0 
1.551446990374e-02 8.269619624892e-02 0.0 
1.683588208357e-02 9.907245430657e-02 0.0 
1.423675216593e-02 9.057380851216e-02 0.0 
1.278257816523e-02 7.403059052149e-02 0.0 
1.173744284159e-02 8.183814525759e-02 0.0 
1.280532642294e-02 9.831389325017e-02 0.0 
1.051094937587e-02 8.953234121093e-02 0.0 
1.126604001019e-02 1.058984014794e-01 0.0 
9.144511748252e-03 9.710438043114e-02 0.0 
8.342555123769e-03 8.058250948663e-02 0.0 
4.500926544234e-04 5.475458283176e-02 0.0 
1.264336593303e-02 1.327574203278e-02 0.0 
1.092815270592e-02 1.256881392659e-02 0.0 
-4.114440545655e-03 4.782362748998e-02 0.0 
-4.262186137836e-03 4.540273517710e-02 0.0 
-4.806060033254e-03 4.177411599022e-02 0.0 
-4.146057289361e-03 4.280853484262e-02 0.0 
7.108459094891e-03 8.824056189261e-02 0.0 
6.338239239404e-03 7.151191135876e-02 0.0 
2.843626211797e-02 1.028592927537e-02 0.0 
3.262593082305e-02 1.988503131235e-02 0.0 
2.162830645746e-02 5.795535255794e-02 0.0 
-2.321875611430e-03 2.567278147004e-02 0.0 
-2.716387103127e-03 2.972984643408e-02 0.0 
4.976660502441e-02 4.925083843483e-02 0.0 
5.049996400177e-02 5.869727637620e-02 0.0 
4.869413835664e-02 5.222581589816e-02 0.0 
4.861623353100e-02 6.252438782241e-02 0.0 
5.039362172240e-02 6.916090192135e-02 0.0 
4.637065224585e-02 5.523487730513e-02 0.0 
3.532828904168e-03 1.560494226889e-02 0.0 
1.021265610884e-02 6.513888769337e-02 0.0 
-2.509631481267e-03 3.680049364555e-02 0.0 
-2.948389417191e-04 3.744496975279e-02 0.0 
-1.931581156989e-03 2.128117559094e-02 0.0 
1.388870262662e-02 1.313071499360e-02 0.0 
4.534406718646e-02 4.490605617111e-02 0.0 
4.247970831796e-02 3.844250139668e-02 0.0 
4.114633776093e-02 3.940597826791e-02 0.0 
3.796428209035e-02 3.354612897620e-02 0.0 
3.612488135291e-02 3.350791632898e-02 0.0 
3.265585692664e-02 2.821533544574e-02 0.0 
3.440724575315e-02 2.841025332265e-02 0.0 
2.320849824516e-02 1.711241964529e-02 0.0 
2.888759262059e-02 2.353794594092e-02 0.0 
7.793866334263e-03 1.046974938109e-01 0.0 
3.038739317155e-02 1.956048300992e-02 0.0 
-3.783195247505e-04 1.043244646004e-02 0.0 
1.549765428123e-03 5.153988640567e-02 0.0 
1.513861040260e-03 1.395083889707e-02 0.0 
-3.013518152206e-04 5.724225206552e-02 0.0 
-1.702516821437e-03 5.570760516397e-02 0.0 
2.660178716835e-03 1.210913056899e-02 0.0 
3.021860814230e-02 2.717061006282e-02 0.0 
3.364721192033e-02 3.259293433953e-02 0.0 
4.766428785944e-02 7.398405212890e-02 0.0 
4.944108711767e-02 8.056677938080e-02 0.0 
1.923006270644e-02 1.455602228785e-02 0.0 
2.928672806657e-02 1.043726530967e-01 0.0 
1.948730654633e-02 1.072724331815e-01 0.0 
1.759018917175e-02 1.152247056702e-01 0.0 
1.759271114316e-03 5.804509106124e-02 0.0 
2.561877151684e-03 6.962871825434e-03 0.0 
1.410976044007e-02 5.818468594974e-02 0.0 
3.577985139096e-02 2.003690820859e-02 0.0 
3.649692181849e-02 2.928210161882e-02 0.0 
1.500139038102e-02 -1.637706086899e-02 0.0 
1.133659148636e-02 -2.222723728605e-02 0.0 
5.310333674163e-03 7.900123250232e-02 0.0 
4.579694225286e-03 6.230151173729e-02 0.0 
-4.577570554353e-03 3.927502312753e-02 0.0 
-3.874819153599e-03 3.990612502097e-02 0.0 
4.533167607774e-03 1.250981890730e-02 0.0 
2.905235907240e-04 2.038622031314e-02 0.0 
5.274602416480e-03 5.459312060232e-02 0.0 
1.059201235912e-02 1.332256059268e-02 0.0 
1.120243982681e-02 1.276695529002e-02 0.0 
-3.485548146440e-03 4.622187889809e-02 0.0 
2.857044838611e-02 2.004968162007e-02 0.0 
2.454717146071e-02 9.611795412492e-03 0.0 
1.493454048946e-03 6.551013692334e-03 0.0 
-1.512965441074e-03 2.054704355213e-02 0.0 
-7.253418685614e-04 5.886080672985e-02 0.0 
3.505113432863e-03 1.038561395958e-02 0.0 
1.425564304530e-02 5.020467293028e-02 0.0 
3.060644320431e-02 2.401404915734e-02 0.0 
3.551181173105e-02 2.790130814831e-02 0.0 
2.494402656759e-02 1.948911251450e-02 0.0 
3.024836814681e-03 2.040492744129e-02 0.0 
1.213881247143e-03 1.148753825588e-02 0.0 
-1.734737591068e-03 2.435768307608e-02 0.0 
2.742741801261e-02 2.567011186046e-02 0.0 
3.055554604094e-02 3.082879069273e-02 0.0 
3.962344965702e-02 2.868278468959e-02 0.0 
4.015935132992e-02 3.850491937667e-02 0.0 
3.604224022195e-02 4.010077295415e-02 0.0 
3.946528040747e-02 4.950879397658e-02 0.0 
4.492388152634e-02 9.931627527084e-02 0.0 
4.311004726370e-02 3.709309200754e-02 0.0 
5.022007788856e-02 8.878844376453e-02 0.0 
4.912720473772e-02 9.951596490088e-02 0.0 
5.039221281656e-02 9.798502108309e-02 0.0 
5.157435165354e-02 7.497878947175e-02 0.0 
5.060268903540e-02 8.642072296408e-02 0.0 
3.566028574341e-02 1.383718050893e-02 0.0 
3.062492893926e-02 1.624015396296e-02 0.0 
-5.098429731022e-03 3.799129941928e-02 0.0 
-4.079226793422e-03 2.982740158223e-02 0.0 
9.002736403124e-04 1.707842325559e-02 0.0 
1.078977888449e-02 5.730610558269e-02 0.0 
8.214292088190e-03 4.826448900639e-02 0.0 
1.345520368063e-02 1.145164216325e-01 0.0 
1.168593410486e-02 1.219576804613e-01 0.0 
1.344979745385e-03 4.282537448230e-02 0.0 
2.712618090422e-03 3.791993714082e-02 0.0 
-3.604109484159e-03 2.498024070592e-02 0.0 
3.426993978230e-04 1.362259205913e-02 0.0 
1.773337700769e-02 5.037621587283e-02 0.0 
1.718731924189e-02 4.238643360592e-02 0.0 
2.132165820568e-02 4.975809569577e-02 0.0 
5.559242399856e-03 1.114371783931e-02 0.0 
2.368216188200e-02 1.186259025780e-03 0.0 
1.845117151580e-02 1.178923589483e-02 0.0 
9.913338427572e-03 -2.086577715850e-02 0.0 
4.329325610113e-02 3.411432372127e-02 0.0 
4.806284290357e-03 4.333513603370e-02 0.0 
4.131699821975e-02 5.259655357871e-02 0.0 
-1.415415736480e-03 1.964292794036e-02 0.0 
-1.547313613824e-03 1.652599838349e-02 0.0 
1.823017513433e-02 1.384268365366e-02 0.0 
4.301400965032e-02 1.219355305562e-01 0.0 
3.965232091157e-02 2.903411477430e-02 0.0 
3.892920502332e-02 2.619365462685e-02 0.0 
4.865092796842e-02 1.093237712120e-01 0.0 
4.931536773506e-02 1.069730621957e-01 0.0 
5.106789918077e-02 9.537583256279e-02 0.0 
4.936302500417e-02 1.036067452653e-01 0.0 
-4.703286812534e-04 1.188412285490e-02 0.0 
-1.893801344928e-03 1.598804450408e-02 0.0 
2.315090500518e-02 2.019677099058e-02 0.0 
2.273264767460e-02 1.825258804358e-02 0.0 
2.387294610359e-02 2.315965139951e-02 0.0 
2.684410532342e-02 2.808484108949e-02 0.0 
1.438720214882e-02 1.132265918536e-02 0.0 
1.541053317102e-02 1.234654441117e-02 0.0 
-1.658323614204e-03 5.699580224745e-02 0.0 
4.770428618770e-02 9.267514159186e-02 0.0 
1.094731733960e-02 4.157364447718e-02 0.0 
4.739987119620e-02 1.106061905876e-01 0.0 
1.796452911269e-04 1.070872171639e-02 0.0 
-5.200183673391e-04 1.299346260647e-02 0.0 
8.366369132185e-03 -2.566355962138e-02 0.0 
6.867217564160e-03 -2.079594259625e-02 0.0 
3.625598655959e-03 4.563359669831e-02 0.0 
3.442448960293e-02 5.200310880228e-02 0.0 
3.763976631610e-02 6.133814536544e-02 0.0 
3.095629997736e-02 4.191850394919e-02 0.0 
-2.509623015347e-04 8.937079156037e-03 0.0 
3.082013973772e-03 1.518902975019e-01 0.0 
-1.083972386623e-03 1.459233485742e-02 0.0 
5.217073488746e-02 8.012999169907e-02 0.0 
3.919058885435e-03 3.719321800767e-02 0.0 
3.572216978504e-02 2.490354730851e-02 0.0 
4.778770810242e-02 4.297992920134e-02 0.0 
6.849885480998e-03 1.277490240429e-02 0.0 
2.941134369340e-03 5.476565234234e-02 0.0 
2.192189719016e-03 3.586727653725e-02 0.0 
1.994653277934e-02 1.230019351975e-01 0.0 
1.784817071753e-02 1.310757417393e-01 0.0 
2.214530887438e-02 1.150865222503e-01 0.0 
1.928182723109e-02 -8.399438685473e-03 0.0 
1.540644934020e-02 -1.078992646293e-02 0.0 
7.850923790377e-03 5.606177545914e-02 0.0 
-3.646540251577e-03 5.008789321310e-02 0.0 
-3.226678329393e-03 5.138157366385e-02 0.0 
-7.213850340586e-04 2.629904728332e-02 0.0 
-2.502870537957e-03 2.623906943951e-02 0.0 
-4.748007072603e-03 3.569259529582e-02 0.0 
-5.085256614861e-03 3.421986372027e-02 0.0 
3.927659576058e-02 4.526239837993e-02 0.0 
3.626520082669e-02 4.361820056878e-02 0.0 
4.388134066344e-02 4.603943026478e-02 0.0 
8.206507220525e-03 1.360244558565e-02 0.0 
8.265622947560e-03 1.276533394016e-02 0.0 
1.138095780473e-02 1.139231141181e-02 0.0 
8.348828417896e-03 4.097558770283e-02 0.0 
5.613843394898e-03 3.040452862639e-02 0.0 
1.640834475490e-03 8.514315069512e-03 0.0 
4.119280902094e-03 3.639023726346e-03 0.0 
-2.066661141495e-03 1.681934019047e-02 0.0 
1.046479999660e-02 3.404201148989e-02 0.0 
-1.138752055813e-03 1.154718475321e-02 0.0 
-1.538581662997e-03 1.357246081876e-02 0.0 
6.490382949676e-03 3.837606535250e-02 0.0 
4.094859384255e-03 3.251087566256e-02 0.0 
2.348842554396e-02 2.057466381416e-02 0.0 
1.939755611054e-02 9.393367169024e-03 0.0 
1.630422850569e-02 3.513751432384e-02 0.0 
2.048389341533e-02 4.187958203248e-02 0.0 
1.179576950954e-02 2.682143528903e-02 0.0 
-7.439524294691e-04 5.980010200444e-02 0.0 
3.161441349065e-02 2.380691470119e-02 0.0 
4.235569067207e-03 8.830811920132e-03 0.0 
6.442846778935e-03 9.914105580913e-03 0.0 
2.331575304246e-03 7.250960999166e-03 0.0 
2.234484231479e-02 1.680963386385e-02 0.0 
1.663568852216e-02 1.273178670626e-02 0.0 
1.844123837891e-02 1.438651569331e-02 0.0 
8.675901618470e-03 -2.647460437867e-02 0.0 
1.643584196458e-03 4.298231228316e-02 0.0 
1.373475551806e-02 1.304102513591e-01 0.0 
7.433729186693e-03 -2.928081249698e-02 0.0 
1.178914503295e-02 1.382300459630e-01 0.0 
9.947703856108e-03 1.293435679885e-01 0.0 
1.014023058178e-02 1.457826594335e-01 0.0 
-6.810885940609e-06 6.137106808688e-02 0.0 
2.235151241534e-02 1.332131566273e-01 0.0 
2.493418117838e-02 1.229824089013e-01 0.0 
9.052675168845e-03 3.289607903418e-02 0.0 
7.160230149144e-03 2.539634610462e-02 0.0 
8.517968980286e-03 4.328199712318e-02 0.0 
6.560355175416e-03 4.772349462225e-02 0.0 
-4.443299681616e-04 9.487953722503e-03 0.0 
-1.032233764669e-03 1.202109242813e-02 0.0 
-7.743032287707e-04 8.062739155906e-03 0.0 
-1.272308927253e-03 1.094343783813e-02 0.0 
-1.613119762444e-03 1.475264859939e-02 0.0 
-1.713984451070e-03 1.362541002756e-02 0.0 
1.588215387015e-02 1.399477000413e-01 0.0 
-1.177265647834e-03 8.696540037454e-03 0.0 
-1.603334270193e-03 1.205209643975e-02 0.0 
-1.000348075030e-03 6.968526525036e-03 0.0 
4.688765335780e-02 1.162120835245e-01 0.0 
4.233511326589e-02 5.816551814464e-02 0.0 
4.045792432783e-02 7.040559814563e-02 0.0 
3.463452132681e-02 7.473351386741e-02 0.0 
1.806303532633e-02 1.791966791290e-02 0.0 
2.300301267355e-02 2.496285882385e-02 0.0 
-1.119339017672e-03 2.260408176239e-02 0.0 
-1.319684153921e-03 2.729300832314e-02 0.0 
8.171065642156e-03 1.377482023432e-01 0.0 
5.980315476402e-03 1.384688480309e-01 0.0 
6.591599962858e-03 1.241425461387e-01 0.0 
4.758475365847e-03 1.259351123756e-01 0.0 
5.171679490669e-03 1.116210857240e-01 0.0 
3.328116286428e-03 1.134931611617e-01 0.0 
3.975398332715e-03 9.892088371974e-02 0.0 
1.555257914667e-02 1.242365065601e-02 0.0 
2.807770517905e-02 5.377146918978e-02 0.0 
4.625078362683e-02 1.211817192967e-01 0.0 
1.076119336073e-02 9.069757009811e-03 0.0 
1.225050079765e-02 1.070379977413e-02 0.0 
4.885604154725e-02 9.848643181774e-02 0.0 
4.507413991864e-02 1.056151937923e-01 0.0 
6.666462411465e-04 7.934779075111e-03 0.0 
4.183250856721e-02 2.830020758155e-02 0.0 
5.367737378803e-03 1.595872068974e-02 0.0 
2.572811374328e-03 -1.475727779527e-02 0.0 
9.496082162103e-03 -1.616626953703e-02 0.0 
4.506424375529e-02 3.590973869967e-02 0.0 
5.114890894513e-02 9.155082256108e-02 0.0 
4.516109599197e-02 6.641732039671e-02 0.0 
4.364711924600e-02 7.899189521766e-02 0.0 
7.731807285815e-03 1.362171299315e-02 0.0 
5.688913405707e-03 2.663611626194e-02 0.0 
2.731461482927e-02 3.138525693406e-02 0.0 
5.793854806257e-03 9.724195390582e-02 0.0 
2.098503806012e-02 3.205404327558e-02 0.0 
-6.146336484044e-04 2.503475058444e-02 0.0 
3.966807928658e-02 2.099641238688e-02 0.0 
5.241758598195e-02 6.947230291807e-02 0.0 
3.242315083940e-02 3.017444771161e-02 0.0 
4.361203245304e-02 4.738066740121e-02 0.0 
4.606821804218e-02 8.905782388700e-02 0.0 
4.316794391546e-02 1.098043605475e-01 0.0 
4.542083988271e-02 1.110778595909e-01 0.0 
3.657338632531e-02 1.520765559360e-02 0.0 
4.599555179158e-02 8.625068257051e-02 0.0 
4.095687067672e-02 9.267720858536e-02 0.0 
5.063423569686e-02 7.857681905131e-02 0.0 
2.547702855110e-02 5.646207146510e-02 0.0 
2.478493973244e-02 4.826636419716e-02 0.0 
1.920346977582e-02 3.466251813286e-02 0.0 
2.352084502207e-02 4.055159649254e-02 0.0 
2.902508819872e-02 5.400955129261e-02 0.0 
2.789071796715e-02 4.605292509861e-02 0.0 
2.170503595417e-02 3.341201606691e-02 0.0 
2.617804404086e-02 3.857975837424e-02 0.0 
1.773294033339e-02 2.416814995338e-02 0.0 
2.369654559897e-02 3.135958473666e-02 0.0 
3.051309722150e-02 4.330540240830e-02 0.0 
2.843194182061e-02 3.645546177636e-02 0.0 
2.177273329310e-02 2.630880228032e-02 0.0 
3.475583627488e-02 4.784512433034e-02 0.0 
9.064844838893e-03 7.422939652232e-03 0.0 
4.603487710330e-02 3.483377444971e-02 0.0 
1.179631041212e-02 -2.013848149439e-02 0.0 
1.299418199013e-02 -4.807047117533e-03 0.0 
5.244443439329e-02 7.360364793776e-02 0.0 
8.871699140653e-03 1.193952044925e-02 0.0 
7.785491487351e-03 1.276600900541e-02 0.0 
3.394920785661e-02 1.246910468122e-02 0.0 
9.051384996858e-03 8.334706587779e-03 0.0 
4.724210551068e-02 1.000677233114e-01 0.0 
2.227261799088e-02 -5.502338785023e-03 0.0 
8.707089813146e-03 7.247460518167e-03 0.0 
2.955165842221e-02 6.233720680624e-02 0.0 
3.350168900558e-02 6.772840519941e-02 0.0 
3.326986200811e-02 7.658448606810e-02 0.0 
6.280605494036e-03 1.261825979970e-02 0.0 
2.425770175719e-02 1.067100030218e-01 0.0 
6.423233861758e-03 5.012552948423e-03 0.0 
2.858715655952e-02 1.721783604550e-02 0.0 
3.314744942373e-02 1.957125755855e-02 0.0 
3.508384154081e-02 1.887972303430e-02 0.0 
3.215123814818e-02 5.115648940911e-02 0.0 
4.136402370602e-03 4.118714756290e-03 0.0 
7.019240431792e-03 7.268934866714e-03 0.0 
5.707918544421e-03 7.033753304352e-03 0.0 
9.180733216909e-03 9.872554122645e-03 0.0 
2.704747336131e-03 3.883681362395e-03 0.0 
8.554157204114e-03 9.682036130544e-03 0.0 
8.277638548734e-03 8.678243472943e-03 0.0 
3.851628366151e-03 1.022611420737e-03 0.0 
6.990402048523e-03 -1.028777407746e-03 0.0 
7.371342168162e-03 1.916866138451e-03 0.0 
1.075038787276e-02 -1.736370782864e-03 0.0 
1.019587564254e-02 -5.163292643961e-03 0.0 
1.437073072713e-02 -4.493018772033e-03 0.0 
1.497508176560e-02 -1.030281562650e-03 0.0 
1.804568648887e-02 -5.872348828748e-03 0.0 
3.003372686359e-02 3.428867852659e-02 0.0 
1.410019071186e-03 3.708237465682e-03 0.0 
1.368898458942e-03 1.721749189881e-02 0.0 
3.204700666725e-03 1.535018551493e-02 0.0 
2.845174162140e-03 1.455601632491e-02 0.0 
-5.382273486128e-03 3.602906235233e-02 0.0 
-5.162231608093e-03 3.210884064717e-02 0.0 
-4.736390120441e-03 3.057118506663e-02 0.0 
-5.247380140212e-03 4.005261947408e-02 0.0 
3.917223058809e-02 3.278855058223e-02 0.0 
8.590558276358e-04 3.772582985154e-03 0.0 
1.462446017673e-02 1.212752412984e-02 0.0 
-4.925713168235e-03 2.933958117302e-02 0.0 
2.877335689614e-02 1.436296381356e-01 0.0 
3.119769374864e-02 1.289156898064e-01 0.0 
3.433588969404e-02 1.249677549131e-01 0.0 
3.261908027030e-02 1.121295703980e-01 0.0 
2.775160889169e-02 1.303061843559e-01 0.0 
-4.205282292834e-03 3.652505874637e-02 0.0 
-3.515363659883e-03 3.675407283664e-02 0.0 
-3.048468595429e-03 3.992574107209e-02 0.0 
-2.729407451896e-03 3.642698445695e-02 0.0 
-2.152918540125e-03 3.937900919419e-02 0.0 
-2.394078768593e-03 4.283083701292e-02 0.0 
-1.875783765534e-03 3.561167173288e-02 0.0 
-1.252815396654e-03 3.875791761002e-02 0.0 
2.314411675137e-02 1.479815316462e-01 0.0 
1.006785523461e-02 -1.519588564803e-02 0.0 
6.586640298715e-03 -9.284577107803e-03 0.0 
7.630100608682e-03 1.324203902724e-03 0.0 
4.536165333283e-03 -3.798935898548e-03 0.0 
4.973240359749e-03 -1.255894171717e-02 0.0 
3.542330258793e-03 -6.596027857153e-03 0.0 
5.399089822008e-03 -1.368687723382e-02 0.0 
6.109863086956e-03 -1.950923101767e-02 0.0 
1.319057347575e-02 6.584169059848e-03 0.0 
8.522005376932e-03 1.026345936625e-02 0.0 
1.398859129145e-02 1.492978331138e-02 0.0 
9.289753709141e-03 1.823840567143e-02 0.0 
4.664356645156e-03 1.382382120986e-02 0.0 
7.647799135802e-04 3.218280173884e-02 0.0 
-6.374155402854e-04 5.776588334938e-03 0.0 
-9.994539822965e-04 4.905777004475e-02 0.0 
-1.923369720226e-03 5.005687389617e-02 0.0 
-1.827201078812e-03 5.301413938295e-02 0.0 
-2.837162703761e-03 5.017445924643e-02 0.0 
-1.850386657009e-03 4.711484735419e-02 0.0 
-8.746424416331e-04 5.531303231639e-02 0.0 
-1.598804383109e-03 5.552580646222e-02 0.0 
5.627481304799e-03 6.191859325576e-02 0.0 
3.307888622990e-03 6.320188024491e-02 0.0 
1.628306357007e-03 6.453795826624e-02 0.0 
1.631474288965e-03 6.378828720427e-02 0.0 
2.700367947626e-03 6.212580112071e-02 0.0 
4.845761221801e-03 6.111088529557e-02 0.0 
6.280071251758e-03 5.824347867429e-02 0.0 
9.544409602341e-03 5.630225899584e-02 0.0 
7.481354922788e-03 5.471906108461e-02 0.0 
4.385519754103e-03 5.651232376278e-02 0.0 
1.118645465896e-02 5.256477411496e-02 0.0 
1.294916635984e-03 7.732887101282e-02 0.0 
2.475200912979e-03 6.899971105707e-02 0.0 
4.503224365121e-05 4.208425260172e-03 0.0 
1.809054434233e-02 1.488802304851e-01 0.0 
1.451366047636e-02 2.975283878214e-02 0.0 
2.062425379451e-03 1.786677509666e-02 0.0 
3.152211036434e-03 1.463085922778e-02 0.0 
2.539703239369e-03 1.425435268151e-02 0.0 
-3.899550329619e-04 1.468558622304e-02 0.0 
-6.294381661790e-04 1.194044451869e-02 0.0 
1.122468499804e-03 1.743524989092e-02 0.0 
-4.002461242326e-03 3.615809615509e-02 0.0 
1.737687297642e-02 2.796178858313e-02 0.0 
5.735689986698e-03 4.680676997996e-02 0.0 
2.396174161398e-02 7.713645519174e-04 0.0 
-2.566093510208e-03 2.081102908841e-02 0.0 
-2.029607878484e-03 2.873075316910e-02 0.0 
-3.598856738447e-03 2.659268502602e-02 0.0 
-1.975996233081e-03 1.821557585997e-02 0.0 
-3.297434929841e-03 3.027295753627e-02 0.0 
-2.520826412522e-03 2.045767941092e-02 0.0 
4.497731921739e-03 7.123431578509e-03 0.0 
5.554823246013e-04 6.011357400968e-02 0.0 
1.518145585964e-02 1.068911990584e-01 0.0 
9.739211313227e-03 1.133951540856e-01 0.0 
9.382061686708e-03 7.290684382996e-02 0.0 
-3.794120135996e-03 4.790680235283e-02 0.0 
-3.330681151765e-03 4.297706059706e-02 0.0 
1.159123713467e-04 4.711117513352e-02 0.0 
1.605320313893e-02 1.401689434260e-02 0.0 
5.145875819188e-02 8.712642664178e-02 0.0 
4.849097090265e-04 1.648529777355e-02 0.0 
-5.436209780866e-03 3.760823393365e-02 0.0 
-4.358532265012e-03 3.105735501123e-02 0.0 
-1.386083946993e-03 1.516428983562e-02 0.0 
4.823045717798e-02 4.089657281229e-02 0.0 
-4.055914514857e-03 2.559618966978e-02 0.0 
-7.904322315570e-04 1.823865766357e-02 0.0 
7.212379115125e-03 6.382123229872e-02 0.0 
1.300821014673e-02 4.280327338998e-02 0.0 
4.016714057492e-04 1.597068943540e-02 0.0 
-3.024817559987e-03 2.400577976437e-02 0.0 
2.128502318841e-02 9.907808548686e-02 0.0 
1.904571126832e-02 1.466582679935e-02 0.0 
2.050228483852e-03 9.948374690302e-04 0.0 
1.359972946637e-02 6.616082108194e-02 0.0 
1.341208554930e-02 3.542301584519e-02 0.0 
2.714296563221e-02 1.137496631213e-01 0.0 
3.156443722209e-03 4.784170903436e-02 0.0 
1.569930628994e-02 1.231536451558e-01 0.0 
1.908240884435e-03 9.461148140842e-03 0.0 
2.556451188115e-02 6.487374871779e-02 0.0 
-2.775109359098e-03 5.201560457864e-02 0.0 
1.910706875976e-02 9.627679783869e-03 0.0 
5.189421293447e-02 5.978214249651e-02 0.0 
4.189762063263e-02 1.339933711076e-01 0.0 
5.956673152449e-03 3.962415968858e-02 0.0 
4.139745985877e-02 2.707668004374e-02 0.0 
1.192184507995e-02 1.205772420119e-02 0.0 
1.756573611979e-02 1.319741752502e-02 0.0 
-2.674695561729e-03 5.369933876131e-02 0.0 
-1.259068131214e-03 1.549841779205e-02 0.0 
3.189496075363e-02 1.467057904502e-02 0.0 
1.107839511224e-02 4.954565101677e-02 0.0 
3.921222715258e-02 3.948845894257e-02 0.0 
2.405405537606e-02 4.219446756165e-03 0.0 
1.776098167810e-02 5.846391496630e-02 0.0 
5.261180406811e-03 1.195878430962e-02 0.0 
1.949760675755e-02 1.480026058512e-02 0.0 
5.212660513248e-02 8.418534244468e-02 0.0 
4.765203984026e-02 5.217213830298e-02 0.0 
4.276073326889e-02 6.052167709393e-02 0.0 
4.642499012167e-02 4.011760943816e-02 0.0 
-1.497218619343e-03 3.174250884543e-02 0.0 
-6.013423130573e-04 1.591338947022e-02 0.0 
1.141419803271e-02 -1.642418560426e-02 0.0 
4.626611665670e-02 4.511039484387e-02 0.0 
2.610373983020e-02 9.782888910709e-02 0.0 
2.668913531335e-02 2.255270660906e-02 0.0 
7.899157266254e-03 3.270562737972e-02 0.0 
5.176099463917e-02 6.448051646354e-02 0.0 
-1.957299469225e-03 1.817816963695e-02 0.0 
1.406442876612e-02 4.276729188574e-02 0.0 
-4.570341282613e-03 2.839284681358e-02 0.0 
-7.229732889126e-05 6.227060945333e-02 0.0 
2.040862024238e-02 -7.518701550553e-04 0.0 
2.283766184257e-02 -2.013059599782e-03 0.0 
3.922215189343e-02 2.265018788385e-02 0.0 
-4.049572972371e-03 2.714996672636e-02 0.0 
1.406973342005e-02 2.615998673346e-02 0.0 
-2.127723110404e-03 1.754933979403e-02 0.0 
5.278442985227e-03 1.386353712710e-02 0.0 
9.377275734582e-03 2.065728977261e-02 0.0 
4.502559082977e-02 1.219288332239e-01 0.0 
-2.079287351902e-03 1.652700520936e-02 0.0 
1.497900998210e-02 1.033480384165e-02 0.0 
1.575467719173e-02 1.299669603356e-02 0.0 
-1.455281298946e-03 4.214688093207e-02 0.0 
1.568025330619e-02 1.306046172133e-02 0.0 
4.643829316266e-02 1.110357644862e-01 0.0 
-1.862007274576e-03 1.514314781964e-02 0.0 
9.530882635539e-03 1.303223043949e-02 0.0 
3.812287255930e-02 2.042229627110e-02 0.0 
5.092456600393e-03 1.518522544942e-01 0.0 
-1.267317679320e-03 9.586715970582e-03 0.0 
8.036676974058e-03 1.181484809118e-02 0.0 
4.321444613243e-02 3.666865342075e-02 0.0 
1.145514825699e-02 9.550046923781e-03 0.0 
4.368711679647e-02 1.322752104273e-01 0.0 
-4.188015037164e-03 2.875912225839e-02 0.0 
4.607667163919e-02 5.332102571288e-02 0.0 
5.543019072980e-03 1.261018968601e-02 0.0 
8.972121311609e-03 1.102102480602e-02 0.0 
3.690995028004e-02 8.155101513862e-02 0.0 
-4.623509927346e-03 3.216016929496e-02 0.0 
3.153423086633e-02 2.149647525512e-02 0.0 
3.663000560096e-03 5.969881423417e-02 0.0 
4.685829002582e-02 1.192478420630e-01 0.0 
-4.279107660321e-03 3.314571497776e-02 0.0 
1.894132272765e-02 -2.323479094676e-03 0.0 
8.227926905295e-03 1.131791034413e-02 0.0 
1.289694418422e-02 1.001855116405e-02 0.0 
-3.760258963727e-03 3.353520389345e-02 0.0 
1.949051850326e-02 1.055225155857e-03 0.0 
-3.117567120781e-03 3.338150001086e-02 0.0 
4.305836892564e-02 1.257184375200e-01 0.0 
3.720226130278e-02 7.219810418987e-02 0.0 
-2.367423819344e-03 3.276060546506e-02 0.0 
4.184680773901e-02 4.611871146018e-02 0.0 
4.855807848850e-03 5.241619328485e-02 0.0 
3.974805876013e-02 3.128205166551e-02 0.0 
-8.764551443018e-04 1.738451568592e-02 0.0 
-3.400645185408e-03 2.164959691613e-02 0.0 
5.481090055207e-03 1.330792798406e-02 0.0 
3.311551548953e-02 5.920228053508e-02 0.0 
4.013434646378e-02 1.158479956037e-01 0.0 
5.717917817046e-03 1.422596383016e-02 0.0 
3.671685868753e-02 3.865885369965e-02 0.0 
3.598056322344e-02 2.675243479999e-02 0.0 
3.745717312826e-02 2.280845268016e-02 0.0 
5.690714547511e-03 1.444096486289e-02 0.0 
4.355246291976e-02 9.917119232227e-02 0.0 
-3.291386836991e-03 3.163502629522e-02 0.0 
-1.662109927969e-03 3.184467273529e-02 0.0 
1.534849173456e-02 2.234483136953e-03 0.0 
3.362201651031e-02 3.689918417376e-02 0.0 
1.156487420442e-03 6.228410654344e-02 0.0 
3.609289086782e-02 5.529997716400e-02 0.0 
1.906837825787e-03 2.648225565439e-02 0.0 
1.116531942748e-02 1.446008262959e-03 0.0 
2.725775478118e-02 2.010708877865e-02 0.0 
1.514039195268e-03 1.094608666967e-01 0.0 
7.694085580261e-03 4.727679994786e-03 0.0 
-4.225671194146e-04 6.035146211814e-02 0.0 
4.392915012393e-03 6.072298370264e-03 0.0 
3.477442312914e-02 2.249226186029e-02 0.0 
1.906568188636e-03 1.033069680101e-02 0.0 
-3.730406765277e-04 1.314677256025e-02 0.0 
4.016142513071e-03 3.037359771649e-02 0.0 
-2.021904813876e-03 1.765268393738e-02 0.0 
5.582868110297e-04 1.445347313576e-02 0.0 
-2.947211260197e-04 5.393241552921e-03 0.0 
1.936039942948e-03 1.404153324984e-01 0.0 
3.470953415017e-02 1.039510274748e-01 0.0 
5.787718533429e-03 -3.102250122698e-02 0.0 
3.892457813113e-02 8.200380418618e-02 0.0 
-3.136723145879e-03 2.115388127332e-02 0.0 
3.829475869812e-02 5.078231441963e-02 0.0 
4.025008047496e-03 1.396864888746e-01 0.0 
-3.559276249962e-03 2.617330528673e-02 0.0 
1.624827197728e-02 1.993392757463e-02 0.0 
7.385596920406e-03 5.776116501438e-03 0.0 
2.769795007882e-03 8.465559016708e-02 0.0 
1.251412449751e-02 1.157348697120e-02 0.0 
3.185203269384e-02 2.289447135686e-02 0.0 
8.143784071915e-04 4.471049342740e-02 0.0 
1.169495609214e-02 1.526604205987e-01 0.0 
9.844472326895e-03 2.568972543075e-02 0.0 
-7.184129957234e-04 2.976569555790e-02 0.0 
2.872614090829e-02 8.657127342801e-02 0.0 
3.121804651675e-02 6.397953438891e-02 0.0 
2.435227394565e-02 4.305629649715e-02 0.0 
-2.234747181528e-03 5.485501016012e-02 0.0 
4.915235137273e-03 5.353589395922e-03 0.0 
2.380018044288e-02 6.633320100332e-02 0.0 
8.422812254504e-03 7.798618145651e-03 0.0 
1.981338507038e-02 1.373505627091e-01 0.0 
2.677090476825e-02 2.036079222254e-02 0.0 
1.682742562278e-02 4.453472727292e-02 0.0 
9.781558912399e-03 2.769557624039e-02 0.0 
1.368473090081e-02 1.054976522411e-02 0.0 
-4.330358441871e-04 4.004585602665e-03 0.0 
2.071817423800e-02 1.586507480567e-02 0.0 
1.712930204474e-02 2.038684226822e-02 0.0 
2.975281716611e-02 1.180749283375e-01 0.0 
1.626344463350e-02 1.499989189091e-02 0.0 
3.779211477282e-03 7.135340653875e-02 0.0 
-6.053679373191e-04 4.083652374220e-03 0.0 
2.489418642974e-02 1.362948582981e-01 0.0 
2.439869969487e-03 2.844928205507e-02 0.0 
8.254373442874e-03 -1.694262117576e-02 0.0 
1.238483479971e-03 2.767104449561e-02 0.0 
3.261572621823e-02 4.065220707654e-02 0.0 
8.320979942194e-03 1.207526228416e-01 0.0 
3.559266722628e-02 1.122862334061e-01 0.0 
-7.410068436490e-04 9.266383366511e-03 0.0 
1.519228969270e-02 2.229284653494e-02 0.0 
1.326914677172e-02 6.723139898185e-03 0.0 
4.340119200318e-03 8.629554255861e-02 0.0 
-3.651655342780e-03 4.834354568929e-02 0.0 
7.055724289104e-03 -2.681554026107e-02 0.0 
9.599159000419e-06 7.555643963052e-03 0.0 
2.607669110302e-02 3.065497501809e-02 0.0 
-1.075521758475e-03 9.161250196611e-03 0.0 
7.715657932050e-04 6.452968664375e-02 0.0 
1.036012825799e-02 3.893711142887e-02 0.0 
1.238696912280e-03 6.579952071197e-03 0.0 
1.553030936139e-02 1.636078562821e-02 0.0 
5.284891841163e-03 -9.674563340103e-03 0.0 
3.337553813034e-03 1.124570523646e-02 0.0 
7.680914180879e-03 -5.587849527885e-03 0.0 
1.582458182582e-02 1.536140832557e-01 0.0 
8.699929942462e-03 5.094438156664e-02 0.0 
-6.148992338719e-04 4.295742582922e-03 0.0 
5.871197091396e-03 2.675432181360e-02 0.0 
-2.603011482020e-03 4.778179440889e-02 0.0 
3.518993170843e-02 1.345760746451e-01 0.0 
-1.219306843003e-03 5.793570526963e-02 0.0 
2.076056391409e-02 1.716994567718e-02 0.0 
6.165023479521e-03 2.100859995184e-02 0.0 
4.010097967605e-03 2.552426954615e-02 0.0 
2.963667598165e-03 6.209907467466e-03 0.0 
1.133576640580e-02 2.275155178518e-02 0.0 
4.055209487317e-03 3.420869089949e-03 0.0 
7.932048516202e-03 -2.458702036694e-02 0.0 
1.255446408431e-02 9.782590624487e-03 0.0 
6.963210088947e-03 9.064278705481e-03 0.0 
8.816061002921e-03 1.535105334191e-01 0.0 
1.372804041868e-02 2.304616066162e-02 0.0 
-2.462083116217e-03 5.290878479594e-02 0.0 
2.428367894421e-03 5.499044084782e-02 0.0 
2.373971641619e-04 1.281630196578e-02 0.0 
1.770715634472e-03 6.408857842672e-02 0.0 
1.496434374581e-03 1.536352596367e-01 0.0 
-1.140997885190e-04 4.428153053515e-03 0.0 
1.929113293881e-03 6.067086428597e-02 0.0 
3.215310171042e-03 1.290500550388e-01 0.0 
1.480777683536e-02 1.672341117579e-02 0.0 
-6.317407970722e-04 4.185545100617e-02 0.0 
1.876110898723e-03 5.575588900244e-02 0.0 
3.222561843548e-03 7.855020519871e-04 0.0 
7.878446037976e-03 -3.222017755181e-02 0.0 
2.621767047702e-03 1.013796278427e-01 0.0 
1.145744574830e-02 8.876191866607e-03 0.0 
9.055865213601e-03 2.277641927878e-02 0.0 
6.716940451268e-03 1.121453313983e-01 0.0 
1.691396749579e-02 3.426999114615e-05 0.0 
2.041379505993e-02 2.304771812345e-02 0.0 
-2.670395580735e-03 4.517432959080e-02 0.0 
2.156620170189e-02 1.975208453740e-02 0.0 
1.004766256051e-02 9.630523575944e-03 0.0 
1.801298783125e-03 -3.191927635915e-03 0.0 
-5.281745836940e-04 3.804237267095e-02 0.0 
9.761569136373e-03 4.687944397994e-02 0.0 
-8.904013194825e-04 7.442947875319e-03 0.0 
-1.760339012742e-03 4.451230829355e-02 0.0 

TENSORS node_materi_stress float
-7.865744052297e+00 2.576695364240e-02 0.0 
2.576695364240e-02 -8.504822902165e+00 0.0 
0.0 0.0 -3.676901663642e+00 
-2.580181071386e+01 1.251310325149e-01 0.0 
1.251310325149e-01 -8.837364711864e+00 0.0 
0.0 0.0 -9.991752627717e+00 
-1.666729219493e+02 -7.722706696716e-02 0.0 
-7.722706696716e-02 -3.918681716141e+02 0.0 
0.0 0.0 -1.671623280690e+02 
-8.450189638270e+01 1.123339664091e+00 0.0 
1.123339664091e+00 -1.942119813999e+02 0.0 
0.0 0.0 -8.321416333478e+01 
-7.506430958836e+00 -1.650230113667e-01 0.0 
-1.650230113667e-01 -2.077218737646e+01 0.0 
0.0 0.0 -6.262693233576e+00 
-1.017698502772e+01 -5.542443285641e-01 0.0 
-5.542443285641e-01 -4.035071056231e+01 0.0 
0.0 0.0 -1.248055066625e+01 
-1.332356257973e+01 -6.413098529590e-01 0.0 
-6.413098529590e-01 -5.859039241889e+01 0.0 
0.0 0.0 -2.038178414568e+01 
-2.385417018518e+01 -7.934004673242e-01 0.0 
-7.934004673242e-01 -7.975944009612e+01 0.0 
0.0 0.0 -2.993073576473e+01 
-3.942413246329e+01 -7.663010669311e-01 0.0 
-7.663010669311e-01 -1.004443175915e+02 0.0 
0.0 0.0 -3.913100557389e+01 
-5.307225382034e+01 -7.750411734767e-01 0.0 
-7.750411734767e-01 -1.210702359761e+02 0.0 
0.0 0.0 -4.823982931649e+01 
-6.505317136465e+01 -8.113955317046e-01 0.0 
-8.113955317046e-01 -1.418178180010e+02 0.0 
0.0 0.0 -5.728383056833e+01 
-7.556117032742e+01 -7.775849482980e-01 0.0 
-7.775849482980e-01 -1.625932123970e+02 0.0 
0.0 0.0 -6.625218709784e+01 
-8.471557311576e+01 -7.376552471868e-01 0.0 
-7.376552471868e-01 -1.833573724270e+02 0.0 
0.0 0.0 -7.517639041373e+01 
-9.289930821659e+01 -7.272238279223e-01 0.0 
-7.272238279223e-01 -2.042059612648e+02 0.0 
0.0 0.0 -8.407632867657e+01 
-1.001915595089e+02 -7.775007466944e-01 0.0 
-7.775007466944e-01 -2.254250261844e+02 0.0 
0.0 0.0 -9.308786656768e+01 
-1.068364168506e+02 -6.660933793100e-01 0.0 
-6.660933793100e-01 -2.457652927658e+02 0.0 
0.0 0.0 -1.018938012814e+02 
-1.126321279108e+02 -7.847682234007e-01 0.0 
-7.847682234007e-01 -2.640834254911e+02 0.0 
0.0 0.0 -1.098888961265e+02 
-1.183091823260e+02 -3.289256833526e-01 0.0 
-3.289256833526e-01 -2.840441222716e+02 0.0 
0.0 0.0 -1.185382862155e+02 
-1.240332484808e+02 -2.210635064388e-01 0.0 
-2.210635064388e-01 -3.042527822181e+02 0.0 
0.0 0.0 -1.274395816677e+02 
-1.312505615399e+02 -1.602669692033e-01 0.0 
-1.602669692033e-01 -3.236408491742e+02 0.0 
0.0 0.0 -1.360612677611e+02 
-1.408255863661e+02 -7.882416386813e-02 0.0 
-7.882416386813e-02 -3.429815274102e+02 0.0 
0.0 0.0 -1.447421341329e+02 
-1.507840195588e+02 -8.375291570453e-02 0.0 
-8.375291570453e-02 -3.623541958500e+02 0.0 
0.0 0.0 -1.535414646227e+02 
-1.604584235464e+02 -1.450061176712e-01 0.0 
-1.450061176712e-01 -3.807508669267e+02 0.0 
0.0 0.0 -1.619627871419e+02 
-8.466814242056e+01 1.935549284008e+00 0.0 
1.935549284008e+00 -1.955331226898e+02 0.0 
0.0 0.0 -8.366037953312e+01 
-8.421032268915e+01 3.504919988850e+00 0.0 
3.504919988850e+00 -1.946158440193e+02 0.0 
0.0 0.0 -8.324785001254e+01 
-8.451071212692e+01 5.477245994390e+00 0.0 
5.477245994390e+00 -1.951758380005e+02 0.0 
0.0 0.0 -8.350596503821e+01 
-8.463473991986e+01 6.928970954581e+00 0.0 
6.928970954581e+00 -1.956807862946e+02 0.0 
0.0 0.0 -8.369465786434e+01 
-8.507273986219e+01 8.941636255954e+00 0.0 
8.941636255954e+00 -1.957762755668e+02 0.0 
0.0 0.0 -8.385470462870e+01 
-8.574605861202e+01 1.108262501738e+01 0.0 
1.108262501738e+01 -1.974152138853e+02 0.0 
0.0 0.0 -8.454838174919e+01 
-8.699019729145e+01 1.344244135018e+01 0.0 
1.344244135018e+01 -1.993115679229e+02 0.0 
0.0 0.0 -8.549052956430e+01 
-8.752655664045e+01 1.608134438225e+01 0.0 
1.608134438225e+01 -2.009436565426e+02 0.0 
0.0 0.0 -8.614106395491e+01 
-8.916004478707e+01 1.883109251478e+01 0.0 
1.883109251478e+01 -2.042979144331e+02 0.0 
0.0 0.0 -8.763738776604e+01 
-9.019737256166e+01 2.129842022408e+01 0.0 
2.129842022408e+01 -2.073868900190e+02 0.0 
0.0 0.0 -8.887527877421e+01 
-9.210343433737e+01 2.418982519793e+01 0.0 
2.418982519793e+01 -2.105770761193e+02 0.0 
0.0 0.0 -9.040415313699e+01 
-9.413692120569e+01 2.720444146967e+01 0.0 
2.720444146967e+01 -2.159260389251e+02 0.0 
0.0 0.0 -9.261888803923e+01 
-9.710954628439e+01 3.013288773558e+01 0.0 
3.013288773558e+01 -2.223260233217e+02 0.0 
0.0 0.0 -9.543067088182e+01 
-9.912634023811e+01 3.286116749667e+01 0.0 
3.286116749667e+01 -2.282199201535e+02 0.0 
0.0 0.0 -9.780387811747e+01 
-1.022627843349e+02 3.538626352814e+01 0.0 
3.538626352814e+01 -2.351011276885e+02 0.0 
0.0 0.0 -1.008091736070e+02 
-1.047645033341e+02 3.742241051202e+01 0.0 
3.742241051202e+01 -2.422454827873e+02 0.0 
0.0 0.0 -1.037029958364e+02 
-1.083819123508e+02 3.939319250809e+01 0.0 
3.939319250809e+01 -2.508019925158e+02 0.0 
0.0 0.0 -1.073551714600e+02 
-1.125641983036e+02 4.104827258383e+01 0.0 
4.104827258383e+01 -2.608880455162e+02 0.0 
0.0 0.0 -1.116356731459e+02 
-1.162453922048e+02 4.224730105838e+01 0.0 
4.224730105838e+01 -2.705972972835e+02 0.0 
0.0 0.0 -1.156528068465e+02 
-1.200211295770e+02 4.300514221825e+01 0.0 
4.300514221825e+01 -2.803979297999e+02 0.0 
0.0 0.0 -1.197257178131e+02 
-1.235188729767e+02 4.316155805549e+01 0.0 
4.316155805549e+01 -2.897486704927e+02 0.0 
0.0 0.0 -1.235802630408e+02 
-1.273219206511e+02 4.307968870433e+01 0.0 
4.307968870433e+01 -2.989130942607e+02 0.0 
0.0 0.0 -1.274705044735e+02 
-1.308228110938e+02 4.248781119457e+01 0.0 
4.248781119457e+01 -3.080073140951e+02 0.0 
0.0 0.0 -1.312490375567e+02 
-1.342714973034e+02 4.154745889930e+01 0.0 
4.154745889930e+01 -3.166696983906e+02 0.0 
0.0 0.0 -1.348823587082e+02 
-1.377011495085e+02 4.029692330542e+01 0.0 
4.029692330542e+01 -3.251191806352e+02 0.0 
0.0 0.0 -1.384460990431e+02 
-1.410198810013e+02 3.885095610211e+01 0.0 
3.885095610211e+01 -3.331469007261e+02 0.0 
0.0 0.0 -1.418500345182e+02 
-1.439986230475e+02 3.709808996275e+01 0.0 
3.709808996275e+01 -3.404982475498e+02 0.0 
0.0 0.0 -1.449490611792e+02 
-1.466946139208e+02 3.518837067738e+01 0.0 
3.518837067738e+01 -3.471231233873e+02 0.0 
0.0 0.0 -1.477453211924e+02 
-1.491321488857e+02 3.310248875760e+01 0.0 
3.310248875760e+01 -3.530572369464e+02 0.0 
0.0 0.0 -1.502568157496e+02 
-1.520342953327e+02 3.122262653860e+01 0.0 
3.122262653860e+01 -3.591761364864e+02 0.0 
0.0 0.0 -1.529631295457e+02 
-1.537697382383e+02 2.872869765441e+01 0.0 
2.872869765441e+01 -3.641707182559e+02 0.0 
0.0 0.0 -1.549821369483e+02 
-1.552961518727e+02 2.664218148463e+01 0.0 
2.664218148463e+01 -3.679960412560e+02 0.0 
0.0 0.0 -1.565876579386e+02 
-1.572911165724e+02 2.429284745756e+01 0.0 
2.429284745756e+01 -3.724933261994e+02 0.0 
0.0 0.0 -1.585353328316e+02 
-1.590210085047e+02 2.212233468817e+01 0.0 
2.212233468817e+01 -3.764322458333e+02 0.0 
0.0 0.0 -1.602359763014e+02 
-1.605384840181e+02 1.991644114864e+01 0.0 
1.991644114864e+01 -3.799364446284e+02 0.0 
0.0 0.0 -1.617424785940e+02 
-1.619543695689e+02 1.777604542978e+01 0.0 
1.777604542978e+01 -3.828960283298e+02 0.0 
0.0 0.0 -1.630551193696e+02 
-1.629580675591e+02 1.571655552319e+01 0.0 
1.571655552319e+01 -3.852776210935e+02 0.0 
0.0 0.0 -1.640707065958e+02 
-1.638201548968e+02 1.370513122266e+01 0.0 
1.370513122266e+01 -3.870488099886e+02 0.0 
0.0 0.0 -1.648606894656e+02 
-1.643693968265e+02 1.192662080300e+01 0.0 
1.192662080300e+01 -3.882799124038e+02 0.0 
0.0 0.0 -1.653947927691e+02 
-1.647815252894e+02 1.015585257473e+01 0.0 
1.015585257473e+01 -3.891023365808e+02 0.0 
0.0 0.0 -1.657651585610e+02 
-1.655127851671e+02 8.762014353364e+00 0.0 
8.762014353364e+00 -3.902793788550e+02 0.0 
0.0 0.0 -1.663376492066e+02 
-1.663559964123e+02 7.286417795713e+00 0.0 
7.286417795713e+00 -3.916948992345e+02 0.0 
0.0 0.0 -1.670152686940e+02 
-1.667384588252e+02 6.185716711143e+00 0.0 
6.185716711143e+00 -3.923348841970e+02 0.0 
0.0 0.0 -1.673220029067e+02 
-1.655198859046e+02 4.937312389413e+00 0.0 
4.937312389413e+00 -3.902973623703e+02 0.0 
0.0 0.0 -1.663451744825e+02 
-1.669107382896e+02 3.838975246643e+00 0.0 
3.838975246643e+00 -3.924022616360e+02 0.0 
0.0 0.0 -1.673938999777e+02 
-1.665481817376e+02 2.985518178305e+00 0.0 
2.985518178305e+00 -3.917375840111e+02 0.0 
0.0 0.0 -1.670857297246e+02 
-1.669454097970e+02 2.399301108509e+00 0.0 
2.399301108509e+00 -3.923140664340e+02 0.0 
0.0 0.0 -1.673778428693e+02 
-1.672674817928e+02 1.398422417361e+00 0.0 
1.398422417361e+00 -3.929439435821e+02 0.0 
0.0 0.0 -1.676634276124e+02 
-1.672077149524e+02 8.156943443912e-01 0.0 
8.156943443912e-01 -3.928535982834e+02 0.0 
0.0 0.0 -1.676183939707e+02 
-3.040661742352e+01 2.340277789220e-01 0.0 
2.340277789220e-01 -2.051793240783e+01 0.0 
0.0 0.0 -1.487736494940e+01 
-3.817054278785e+01 3.703442355416e-01 0.0 
3.703442355416e-01 -4.020367687764e+01 0.0 
0.0 0.0 -2.311226589965e+01 
-4.583952198154e+01 4.276497924927e-01 0.0 
4.276497924927e-01 -5.989818150760e+01 0.0 
0.0 0.0 -3.132131104674e+01 
-5.292870328681e+01 5.359836757357e-01 0.0 
5.359836757357e-01 -7.935604124192e+01 0.0 
0.0 0.0 -3.928542335862e+01 
-5.976024575170e+01 5.682245899212e-01 0.0 
5.682245899212e-01 -9.946494756368e+01 0.0 
0.0 0.0 -4.736755799461e+01 
-6.643569555397e+01 6.984391835908e-01 0.0 
6.984391835908e-01 -1.199142761049e+02 0.0 
0.0 0.0 -5.550499149766e+01 
-7.223264750485e+01 7.235985615906e-01 0.0 
7.235985615906e-01 -1.403220020603e+02 0.0 
0.0 0.0 -6.336639486955e+01 
-7.735450709094e+01 9.019554913953e-01 0.0 
9.019554913953e-01 -1.606952707208e+02 0.0 
0.0 0.0 -7.101493334354e+01 
-8.280352770719e+01 9.946666299310e-01 0.0 
9.946666299310e-01 -1.821182237198e+02 0.0 
0.0 0.0 -7.907652542811e+01 
-6.881330913296e+01 3.224680339366e+01 0.0 
3.224680339366e+01 -6.966812853879e+01 0.0 
0.0 0.0 -4.196781545743e+01 
-6.080094415653e+01 2.143347353782e+01 0.0 
2.143347353782e+01 -2.670247853710e+01 0.0 
0.0 0.0 -2.550649027318e+01 
-4.919007333709e+01 3.421984131231e+01 0.0 
3.421984131231e+01 -3.209142160057e+01 0.0 
0.0 0.0 -2.298077796767e+01 
-4.613028870693e+01 3.126683974436e+01 0.0 
3.126683974436e+01 -3.070659929590e+01 0.0 
0.0 0.0 -1.918007501589e+01 
-4.501920154764e+01 3.033300232771e+01 0.0 
3.033300232771e+01 -2.904606482734e+01 0.0 
0.0 0.0 -1.861718725286e+01 
-4.324868681944e+01 2.967590762821e+01 0.0 
2.967590762821e+01 -2.784477056460e+01 0.0 
0.0 0.0 -1.828364031841e+01 
-4.156241135677e+01 2.886102296663e+01 0.0 
2.886102296663e+01 -2.800985929005e+01 0.0 
0.0 0.0 -1.747748756869e+01 
-4.011127095112e+01 2.753221836658e+01 0.0 
2.753221836658e+01 -2.776614204744e+01 0.0 
0.0 0.0 -1.559602158026e+01 
-4.000392948729e+01 2.678925206171e+01 0.0 
2.678925206171e+01 -2.747403864148e+01 0.0 
0.0 0.0 -1.524978238316e+01 
-4.137597410784e+01 2.694587767535e+01 0.0 
2.694587767535e+01 -2.723945594272e+01 0.0 
0.0 0.0 -1.724249964714e+01 
-4.693713228746e+01 2.815152770683e+01 0.0 
2.815152770683e+01 -2.763352096653e+01 0.0 
0.0 0.0 -2.039104053130e+01 
-2.513534786434e+01 -2.827674853791e-02 0.0 
-2.827674853791e-02 -7.376784949979e+00 0.0 
0.0 0.0 -9.353639844295e+00 
-2.524100204373e+01 8.631638880960e-02 0.0 
8.631638880960e-02 -8.129978555525e+00 0.0 
0.0 0.0 -9.611294179777e+00 
-2.529363622377e+01 -5.116118149618e-02 0.0 
-5.116118149618e-02 -8.170708638336e+00 0.0 
0.0 0.0 -9.639303458633e+00 
-2.523763828179e+01 6.578704523925e-03 0.0 
6.578704523925e-03 -7.521998143320e+00 0.0 
0.0 0.0 -9.427890927533e+00 
-2.661520179474e+01 1.746907140686e-02 0.0 
1.746907140686e-02 -1.011475721620e+01 0.0 
0.0 0.0 -1.061898770328e+01 
-2.576335133893e+01 -6.034173031910e-02 0.0 
-6.034173031910e-02 -8.123712991050e+00 0.0 
0.0 0.0 -9.766119298993e+00 
-2.591585953904e+01 1.002081259813e-01 0.0 
1.002081259813e-01 -7.765000171621e+00 0.0 
0.0 0.0 -9.704257913199e+00 
-2.611869839495e+01 -5.860760746301e-02 0.0 
-5.860760746301e-02 -8.073161480076e+00 0.0 
0.0 0.0 -9.857557962509e+00 
-2.697065681665e+01 2.030542062837e-01 0.0 
2.030542062837e-01 -9.039320903560e+00 0.0 
0.0 0.0 -1.040299331606e+01 
-2.766838224888e+01 2.755269529435e-01 0.0 
2.755269529435e-01 -8.744619494133e+00 0.0 
0.0 0.0 -1.052390052290e+01 
-2.909874756694e+01 7.726025479966e-01 0.0 
7.726025479966e-01 -8.671690762443e+00 0.0 
0.0 0.0 -1.093113149881e+01 
-3.192470602121e+01 1.708246153300e+00 0.0 
1.708246153300e+00 -9.055736796249e+00 0.0 
0.0 0.0 -1.189413284524e+01 
-3.791136765344e+01 3.883692535687e+00 0.0 
3.883692535687e+00 -1.028301423048e+01 0.0 
0.0 0.0 -1.405831456518e+01 
-4.975244911015e+01 1.000984502261e+01 0.0 
1.000984502261e+01 -1.402009614857e+01 0.0 
0.0 0.0 -1.871119713636e+01 
-9.490758908331e+01 1.580454073112e+01 0.0 
1.580454073112e+01 -9.618403227357e+01 0.0 
0.0 0.0 -5.768861942363e+01 
-1.128228472148e+02 3.547225037303e+00 0.0 
3.547225037303e+00 -1.041529525820e+02 0.0 
0.0 0.0 -6.545981472757e+01 
-1.195275972589e+02 -2.215124779569e+00 0.0 
-2.215124779569e+00 -1.038372760912e+02 0.0 
0.0 0.0 -6.734363235388e+01 
-1.087330339652e+02 -1.034826880181e+01 0.0 
-1.034826880181e+01 -9.500728059209e+01 0.0 
0.0 0.0 -6.145571193199e+01 
-7.255181561916e+01 -2.149887121059e+01 0.0 
-2.149887121059e+01 -5.664080160521e+01 0.0 
0.0 0.0 -3.913667541075e+01 
-3.941772117238e+01 -1.532212318354e+01 0.0 
-1.532212318354e+01 -1.985273295223e+01 0.0 
0.0 0.0 -1.750699529687e+01 
-2.212420551520e+01 -4.182498179327e+00 0.0 
-4.182498179327e+00 -1.082872795013e+01 0.0 
0.0 0.0 -9.317698715174e+00 
-1.545197643100e+01 -1.056435071599e+00 0.0 
-1.056435071599e+00 -9.234667238191e+00 0.0 
0.0 0.0 -6.779412800320e+00 
-1.246908054394e+01 -2.075164377180e-02 0.0 
-2.075164377180e-02 -8.566287198863e+00 0.0 
0.0 0.0 -5.939912274433e+00 
-1.136414226141e+01 3.101872472162e-01 0.0 
3.101872472162e-01 -7.909832667852e+00 0.0 
0.0 0.0 -5.349898231558e+00 
-1.058427180548e+01 1.133853923192e-01 0.0 
1.133853923192e-01 -7.981038757727e+00 0.0 
0.0 0.0 -4.915572929656e+00 
-1.035574125891e+01 -1.698586650801e-01 0.0 
-1.698586650801e-01 -8.752527526681e+00 0.0 
0.0 0.0 -4.870686643392e+00 
-9.795382805724e+00 -3.044454765343e-01 0.0 
-3.044454765343e-01 -8.552946281797e+00 0.0 
0.0 0.0 -4.183455251013e+00 
-9.035448881947e+00 -2.110585352769e-01 0.0 
-2.110585352769e-01 -7.884633502002e+00 0.0 
0.0 0.0 -3.761758201288e+00 
-8.316466035363e+00 -1.525080289593e-01 0.0 
-1.525080289593e-01 -7.955150578415e+00 0.0 
0.0 0.0 -3.557850565071e+00 
-7.942887497031e+00 -1.115733458722e-01 0.0 
-1.115733458722e-01 -8.218189919905e+00 0.0 
0.0 0.0 -3.505869695495e+00 
-7.672134969930e+00 -2.950407894262e-02 0.0 
-2.950407894262e-02 -8.265029237890e+00 0.0 
0.0 0.0 -3.412494111366e+00 
-7.573923279175e+00 -5.338124167079e-02 0.0 
-5.338124167079e-02 -7.804986381058e+00 0.0 
0.0 0.0 -3.284440906990e+00 
-7.822896856883e+00 -1.389390091649e-01 0.0 
-1.389390091649e-01 -7.133007511756e+00 0.0 
0.0 0.0 -3.239489065068e+00 
-5.164060441649e+01 3.789726901625e+01 0.0 
3.789726901625e+01 -4.013522821571e+01 0.0 
0.0 0.0 -2.812115777109e+01 
-4.716468410886e+01 3.266425542102e+01 0.0 
3.266425542102e+01 -3.170906323375e+01 0.0 
0.0 0.0 -2.041008497874e+01 
-4.536065428055e+01 3.057614864232e+01 0.0 
3.057614864232e+01 -2.952487148912e+01 0.0 
0.0 0.0 -1.861353407749e+01 
-4.451619678969e+01 3.008449675774e+01 0.0 
3.008449675774e+01 -2.880315027866e+01 0.0 
0.0 0.0 -1.875149205792e+01 
-4.335176639746e+01 2.998620500236e+01 0.0 
2.998620500236e+01 -2.825433805852e+01 0.0 
0.0 0.0 -1.836488350389e+01 
-4.094761513989e+01 2.865714387125e+01 0.0 
2.865714387125e+01 -2.801180865539e+01 0.0 
0.0 0.0 -1.654666118551e+01 
-3.979549907955e+01 2.698716914613e+01 0.0 
2.698716914613e+01 -2.775875728549e+01 0.0 
0.0 0.0 -1.476245386700e+01 
-4.025470424479e+01 2.662843430587e+01 0.0 
2.662843430587e+01 -2.728283194331e+01 0.0 
0.0 0.0 -1.617062693448e+01 
-4.316284210132e+01 2.734675834911e+01 0.0 
2.734675834911e+01 -2.729273252677e+01 0.0 
0.0 0.0 -1.851370518249e+01 
-5.590396119503e+01 2.854213445725e+01 0.0 
2.854213445725e+01 -2.826856800259e+01 0.0 
0.0 0.0 -2.392917534439e+01 
-4.714899943261e+01 3.297653798012e+01 0.0 
3.297653798012e+01 -4.186307057919e+01 0.0 
0.0 0.0 -2.306240590249e+01 
-1.514187958751e+02 2.266465914245e+01 0.0 
2.266465914245e+01 -3.667550288473e+02 0.0 
0.0 0.0 -1.550521474167e+02 
-1.482646557221e+01 -1.353914659117e+00 0.0 
-1.353914659117e+00 -1.722396777221e+01 0.0 
0.0 0.0 -8.733859730708e+00 
-6.564264164666e+01 -2.140496057299e+01 0.0 
-2.140496057299e+01 -8.558677507242e+01 0.0 
0.0 0.0 -4.618987151225e+01 
-1.578933484146e+02 1.240290774905e+01 0.0 
1.240290774905e+01 -3.798077459620e+02 0.0 
0.0 0.0 -1.609103283130e+02 
-4.451641273499e+01 3.031452284366e+01 0.0 
3.031452284366e+01 -3.781884227397e+01 0.0 
0.0 0.0 -2.150515182874e+01 
-9.689616742289e+01 -8.069436326477e-01 0.0 
-8.069436326477e-01 -2.156829406806e+02 0.0 
0.0 0.0 -8.892078386769e+01 
-1.431153807918e+02 3.111386829021e+01 0.0 
3.111386829021e+01 -3.473179610137e+02 0.0 
0.0 0.0 -1.467300025417e+02 
-4.246449562788e+01 2.922880641722e+01 0.0 
2.922880641722e+01 -3.785149231051e+01 0.0 
0.0 0.0 -1.971545863589e+01 
-1.336578641229e+02 3.867187594977e+01 0.0 
3.867187594977e+01 -3.214037583306e+02 0.0 
0.0 0.0 -1.361184867361e+02 
-4.476857944759e+01 2.872217901791e+01 0.0 
2.872217901791e+01 -3.809304783648e+01 0.0 
0.0 0.0 -2.103645199936e+01 
-1.615482028842e+02 6.411941170012e+00 0.0 
6.411941170012e+00 -3.845449916375e+02 0.0 
0.0 0.0 -1.634279583565e+02 
-9.467935055587e+00 -4.805704473308e-01 0.0 
-4.805704473308e-01 -1.624146325690e+01 0.0 
0.0 0.0 -5.951465141410e+00 
-1.217327373115e+02 4.228570079767e+01 0.0 
4.228570079767e+01 -2.862930222398e+02 0.0 
0.0 0.0 -1.220077278654e+02 
-5.991650199152e+01 2.683680441340e+01 0.0 
2.683680441340e+01 -3.964769831401e+01 0.0 
0.0 0.0 -2.888070063163e+01 
-5.984830990504e+01 -1.089246388669e+00 0.0 
-1.089246388669e+00 -1.325102005757e+02 0.0 
0.0 0.0 -5.318215355639e+01 
-1.144297581372e+02 -3.371756097120e-01 0.0 
-3.371756097120e-01 -2.710810925657e+02 0.0 
0.0 0.0 -1.128342482618e+02 
-1.125517074765e+02 4.086735082915e+01 0.0 
4.086735082915e+01 -2.570807463442e+02 0.0 
0.0 0.0 -1.104897361462e+02 
-1.007382643044e+02 3.322665819319e+01 0.0 
3.322665819319e+01 -2.230269758735e+02 0.0 
0.0 0.0 -9.672957205338e+01 
-8.523452240547e+01 9.849707445863e+00 0.0 
9.849707445863e+00 -1.886296890936e+02 0.0 
0.0 0.0 -8.175926344971e+01 
-8.856591753236e+01 1.673964666331e+01 0.0 
1.673964666331e+01 -1.921799543638e+02 0.0 
0.0 0.0 -8.382376156885e+01 
-9.396820967664e+01 2.528879683060e+01 0.0 
2.528879683060e+01 -2.054589104137e+02 0.0 
0.0 0.0 -8.942813602711e+01 
-4.877109513514e+01 9.251427002909e+00 0.0 
9.251427002909e+00 -2.226748273164e+01 0.0 
0.0 0.0 -2.090129013941e+01 
-3.340955540740e+01 9.373586669531e-01 0.0 
9.373586669531e-01 -1.777600778310e+01 0.0 
0.0 0.0 -1.495566895715e+01 
-3.141050735985e+01 4.295348716244e-01 0.0 
4.295348716244e-01 -1.883378343392e+01 0.0 
0.0 0.0 -1.467328723813e+01 
-5.654314145497e+01 6.740511733610e-01 0.0 
6.740511733610e-01 -8.947651177679e+01 0.0 
0.0 0.0 -4.340589596953e+01 
-1.618914155160e+02 3.460967770871e+00 0.0 
3.460967770871e+00 -3.841022384735e+02 0.0 
0.0 0.0 -1.633980961969e+02 
-7.670835340638e+01 1.235989852882e+01 0.0 
1.235989852882e+01 -1.056590827025e+02 0.0 
0.0 0.0 -5.552975946980e+01 
-7.859966793287e+00 -2.459054342191e-01 0.0 
-2.459054342191e-01 -1.728315587430e+01 0.0 
0.0 0.0 -5.451029875664e+00 
-1.355992824793e+02 3.782123608524e-01 0.0 
3.782123608524e-01 -3.326653424593e+02 0.0 
0.0 0.0 -1.400793874816e+02 
-2.895660644225e+01 -1.163498153069e-02 0.0 
-1.163498153069e-02 -1.648688974976e+01 0.0 
0.0 0.0 -1.323304885760e+01 
-1.833797203210e+01 -6.749328716068e-01 0.0 
-6.749328716068e-01 -6.910991503032e+01 0.0 
0.0 0.0 -2.507161446514e+01 
-1.053477749177e+02 3.721745102581e+01 0.0 
3.721745102581e+01 -2.352114441906e+02 0.0 
0.0 0.0 -1.017677657325e+02 
-1.394055191906e+02 3.535051509902e+01 0.0 
3.535051509902e+01 -3.365356763873e+02 0.0 
0.0 0.0 -1.423823586734e+02 
-1.278568014424e+02 4.117558872560e+01 0.0 
4.117558872560e+01 -3.045776947571e+02 0.0 
0.0 0.0 -1.293303488599e+02 
-1.463731285133e+02 2.712670402992e+01 0.0 
2.712670402992e+01 -3.562341789417e+02 0.0 
0.0 0.0 -1.503821922365e+02 
-1.549485959305e+02 1.842505809323e+01 0.0 
1.842505809323e+01 -3.739776191904e+02 0.0 
0.0 0.0 -1.582778645363e+02 
-3.434085269572e+01 -1.348624161678e+01 0.0 
-1.348624161678e+01 -2.555581337617e+01 0.0 
0.0 0.0 -1.583214616934e+01 
-3.758274142921e+01 2.722395258990e+00 0.0 
2.722395258990e+00 -1.790069260775e+01 0.0 
0.0 0.0 -1.624503021109e+01 
-1.578591331370e+02 8.950525435678e+00 0.0 
8.950525435678e+00 -3.794228214926e+02 0.0 
0.0 0.0 -1.607845863889e+02 
-6.918182158157e+01 1.071270115184e+00 0.0 
1.071270115184e+00 -1.296170766805e+02 0.0 
0.0 0.0 -5.923966947861e+01 
-1.102181994976e+01 -4.644756148615e-01 0.0 
-4.644756148615e-01 -1.681332047471e+01 0.0 
0.0 0.0 -7.463801613691e+00 
-8.029080022472e+01 -1.057572849675e+00 0.0 
-1.057572849675e+00 -1.731986207314e+02 0.0 
0.0 0.0 -7.073809466862e+01 
-8.467991594675e+01 6.026240618902e+00 0.0 
6.026240618902e+00 -1.901546189256e+02 0.0 
0.0 0.0 -8.205036046171e+01 
-4.344790299127e+01 2.998697833170e+01 0.0 
2.998697833170e+01 -3.998952807175e+01 0.0 
0.0 0.0 -2.156701506999e+01 
-4.566353044900e+01 3.111121334009e+01 0.0 
3.111121334009e+01 -3.907733039519e+01 0.0 
0.0 0.0 -2.164173707330e+01 
-4.307855472016e+01 2.856136081149e+01 0.0 
2.856136081149e+01 -3.859556881417e+01 0.0 
0.0 0.0 -1.891428097846e+01 
-4.900379859040e+01 2.924623447224e+01 0.0 
2.924623447224e+01 -3.775961272321e+01 0.0 
0.0 0.0 -2.372024102711e+01 
-5.063005567510e+01 3.776317583458e+01 0.0 
3.776317583458e+01 -4.825754971691e+01 0.0 
0.0 0.0 -2.944229848110e+01 
-4.280842063574e+01 2.326133938162e-01 0.0 
2.326133938162e-01 -5.156676370456e+01 0.0 
0.0 0.0 -2.791255530209e+01 
-1.638320790042e+02 1.858353416434e+00 0.0 
1.858353416434e+00 -3.872739369337e+02 0.0 
0.0 0.0 -1.649318047814e+02 
-7.365861148476e+00 -1.427539403143e-01 0.0 
-1.427539403143e-01 -1.639100069870e+01 0.0 
0.0 0.0 -5.080058967224e+00 
-7.966711291496e+01 1.448952714288e+00 0.0 
1.448952714288e+00 -1.701261117218e+02 0.0 
0.0 0.0 -7.453796739101e+01 
-5.927167677284e+01 2.222861244464e+01 0.0 
2.222861244464e+01 -4.038677751440e+01 0.0 
0.0 0.0 -2.931278417623e+01 
-6.138722232840e+01 2.604569605939e+01 0.0 
2.604569605939e+01 -5.979013860620e+01 0.0 
0.0 0.0 -3.576590534190e+01 
-6.311078840148e+01 2.270805372635e+01 0.0 
2.270805372635e+01 -5.983385204146e+01 0.0 
0.0 0.0 -3.648323956891e+01 
-6.671876533570e+01 2.739600862746e+01 0.0 
2.739600862746e+01 -8.213764416492e+01 0.0 
0.0 0.0 -4.425692285019e+01 
-6.908669426765e+01 2.496327522486e+01 0.0 
2.496327522486e+01 -8.510206220715e+01 0.0 
0.0 0.0 -4.585662694244e+01 
-7.263604187088e+01 2.833991097093e+01 0.0 
2.833991097093e+01 -1.043057326710e+02 0.0 
0.0 0.0 -5.268253236258e+01 
-6.995535760940e+01 3.006876510394e+01 0.0 
3.006876510394e+01 -1.017576646580e+02 0.0 
0.0 0.0 -5.111390668021e+01 
-7.599900481474e+01 3.078738228713e+01 0.0 
3.078738228713e+01 -1.232847238497e+02 0.0 
0.0 0.0 -5.938511859934e+01 
-7.294068807943e+01 3.212963654949e+01 0.0 
3.212963654949e+01 -1.209785796362e+02 0.0 
0.0 0.0 -5.777578031469e+01 
-7.559545053223e+01 2.643474649976e+01 0.0 
2.643474649976e+01 -1.081546158476e+02 0.0 
0.0 0.0 -5.472501991395e+01 
-7.917045815524e+01 3.266410849920e+01 0.0 
3.266410849920e+01 -1.421095843699e+02 0.0 
0.0 0.0 -6.598401275753e+01 
-7.590696242512e+01 3.363473538679e+01 0.0 
3.363473538679e+01 -1.400458428944e+02 0.0 
0.0 0.0 -6.438584159587e+01 
-8.232934384272e+01 3.406110052915e+01 0.0 
3.406110052915e+01 -1.608424989910e+02 0.0 
0.0 0.0 -7.255155285010e+01 
-7.892622491880e+01 3.469077770922e+01 0.0 
3.469077770922e+01 -1.589065876103e+02 0.0 
0.0 0.0 -7.094984375874e+01 
-7.279451547601e+01 3.440297917374e+01 0.0 
3.440297917374e+01 -1.386633700037e+02 0.0 
0.0 0.0 -6.286358485120e+01 
-7.555438876178e+01 3.511404504549e+01 0.0 
3.511404504549e+01 -1.575359265451e+02 0.0 
0.0 0.0 -6.942613938196e+01 
-7.019403216437e+01 3.474970645131e+01 0.0 
3.474970645131e+01 -1.377692773988e+02 0.0 
0.0 0.0 -6.133035710307e+01 
-7.270684473293e+01 3.516832281175e+01 0.0 
3.516832281175e+01 -1.566024025978e+02 0.0 
0.0 0.0 -6.788188371754e+01 
-7.849022293437e+01 3.538899173691e+01 0.0 
3.538899173691e+01 -1.759821060920e+02 0.0 
0.0 0.0 -7.590162247136e+01 
-7.527866882290e+01 3.516097721017e+01 0.0 
3.516097721017e+01 -1.749421864727e+02 0.0 
0.0 0.0 -7.432871682071e+01 
-7.022770133036e+01 3.481347820569e+01 0.0 
3.481347820569e+01 -1.559247997069e+02 0.0 
0.0 0.0 -6.624535060972e+01 
-7.254903683428e+01 3.454740087228e+01 0.0 
3.454740087228e+01 -1.740476785785e+02 0.0 
0.0 0.0 -7.267337315646e+01 
-6.801493304735e+01 3.424929724440e+01 0.0 
3.424929724440e+01 -1.553720662486e+02 0.0 
0.0 0.0 -6.454157158213e+01 
-7.017192091127e+01 3.368235146595e+01 0.0 
3.368235146595e+01 -1.731932442366e+02 0.0 
0.0 0.0 -7.091366105747e+01 
-6.576018256577e+01 3.352172186196e+01 0.0 
3.352172186196e+01 -1.547710552692e+02 0.0 
0.0 0.0 -6.296756428540e+01 
-6.786959040786e+01 3.273027944764e+01 0.0 
3.273027944764e+01 -1.722420593941e+02 0.0 
0.0 0.0 -6.952935108340e+01 
-7.235841650360e+01 3.280558913792e+01 0.0 
3.280558913792e+01 -1.903413713439e+02 0.0 
0.0 0.0 -7.719314450580e+01 
-6.983537618585e+01 3.158471000839e+01 0.0 
3.158471000839e+01 -1.889314487827e+02 0.0 
0.0 0.0 -7.593899630348e+01 
-6.530857612027e+01 3.178122637332e+01 0.0 
3.178122637332e+01 -1.710560843014e+02 0.0 
0.0 0.0 -6.869380650702e+01 
-6.719638370868e+01 3.038484298369e+01 0.0 
3.038484298369e+01 -1.872455619281e+02 0.0 
0.0 0.0 -7.509186246728e+01 
-6.245023219908e+01 3.083706661462e+01 0.0 
3.083706661462e+01 -1.696083840994e+02 0.0 
0.0 0.0 -6.822775179675e+01 
-6.399624974630e+01 2.921278912082e+01 0.0 
2.921278912082e+01 -1.851696500406e+02 0.0 
0.0 0.0 -7.444693805528e+01 
-6.898254776571e+01 2.866076346824e+01 0.0 
2.866076346824e+01 -2.024077097741e+02 0.0 
0.0 0.0 -8.124675331471e+01 
-6.577061863167e+01 2.723949351752e+01 0.0 
2.723949351752e+01 -1.994049625321e+02 0.0 
0.0 0.0 -8.037643532323e+01 
-6.072437745876e+01 2.778529245609e+01 0.0 
2.778529245609e+01 -1.822234892310e+02 0.0 
0.0 0.0 -7.333495879530e+01 
-6.264785334825e+01 2.552531189419e+01 0.0 
2.552531189419e+01 -1.959772136524e+02 0.0 
0.0 0.0 -7.909077160137e+01 
-5.773570136064e+01 2.610352972416e+01 0.0 
2.610352972416e+01 -1.793573927044e+02 0.0 
0.0 0.0 -7.177042107477e+01 
-5.961072993122e+01 2.337356527048e+01 0.0 
2.337356527048e+01 -1.929378548957e+02 0.0 
0.0 0.0 -7.714593978581e+01 
-5.500656707357e+01 2.373452739791e+01 0.0 
2.373452739791e+01 -1.769441048313e+02 0.0 
0.0 0.0 -6.926368114349e+01 
-5.695570855080e+01 2.046912726265e+01 0.0 
2.046912726265e+01 -1.901157870263e+02 0.0 
0.0 0.0 -7.431380989087e+01 
-6.178813165422e+01 2.036984563469e+01 0.0 
2.036984563469e+01 -2.056456707833e+02 0.0 
0.0 0.0 -8.251021738728e+01 
-5.930185990639e+01 1.709150224181e+01 0.0 
1.709150224181e+01 -2.022726238480e+02 0.0 
0.0 0.0 -7.954225281250e+01 
-5.466165124982e+01 1.693868078273e+01 0.0 
1.693868078273e+01 -1.870918799739e+02 0.0 
0.0 0.0 -7.144100180903e+01 
-5.723114681762e+01 1.317267700080e+01 0.0 
1.317267700080e+01 -1.983584988994e+02 0.0 
0.0 0.0 -7.641503997436e+01 
-6.206008137936e+01 1.376691019047e+01 0.0 
1.376691019047e+01 -2.134006933166e+02 0.0 
0.0 0.0 -8.490589747887e+01 
-6.024425100869e+01 9.605649521603e+00 0.0 
9.605649521603e+00 -2.084592602003e+02 0.0 
0.0 0.0 -8.160867397357e+01 
-6.531710468752e+01 1.062571471900e+01 0.0 
1.062571471900e+01 -2.234958544547e+02 0.0 
0.0 0.0 -9.024453187321e+01 
-6.374848234431e+01 6.376513306485e+00 0.0 
6.376513306485e+00 -2.176766269066e+02 0.0 
0.0 0.0 -8.700139667903e+01 
-5.886095037016e+01 5.018646236043e+00 0.0 
5.018646236043e+00 -2.028787257786e+02 0.0 
0.0 0.0 -7.855816647171e+01 
-6.261554645339e+01 1.879925767846e+00 0.0 
1.879925767846e+00 -2.109428551506e+02 0.0 
0.0 0.0 -8.377393812168e+01 
-6.787163113660e+01 3.796389922549e+00 0.0 
3.796389922549e+00 -2.260677957750e+02 0.0 
0.0 0.0 -9.202086210847e+01 
-6.700580104343e+01 -4.892025785710e-01 0.0 
-4.892025785710e-01 -2.186140923149e+02 0.0 
0.0 0.0 -8.865278178469e+01 
-6.178837305701e+01 -2.700165137229e+00 0.0 
-2.700165137229e+00 -2.032559983083e+02 0.0 
0.0 0.0 -8.057542285361e+01 
-6.633830439088e+01 -4.647550345769e+00 0.0 
-4.647550345769e+00 -2.103209021942e+02 0.0 
0.0 0.0 -8.504648160277e+01 
-7.218991034026e+01 -1.849435579846e+00 0.0 
-1.849435579846e+00 -2.271135497411e+02 0.0 
0.0 0.0 -9.287474649696e+01 
-7.159587080739e+01 -5.543263650188e+00 0.0 
-5.543263650188e+00 -2.180515284987e+02 0.0 
0.0 0.0 -8.890300422426e+01 
-6.560904598112e+01 -8.576401157689e+00 0.0 
-8.576401157689e+00 -2.011234306593e+02 0.0 
0.0 0.0 -8.117396100451e+01 
-7.101317721266e+01 -8.685402137370e+00 0.0 
-8.685402137370e+00 -2.077828956517e+02 0.0 
0.0 0.0 -8.452491730652e+01 
-7.787778111115e+01 -5.076858770494e+00 0.0 
-5.076858770494e+00 -2.256561536625e+02 0.0 
0.0 0.0 -9.259582199378e+01 
-7.718692690094e+01 -7.633467570301e+00 0.0 
-7.633467570301e+00 -2.149515279371e+02 0.0 
0.0 0.0 -8.799050229982e+01 
-7.040149793499e+01 -1.105401295139e+01 0.0 
-1.105401295139e+01 -1.963295398976e+02 0.0 
0.0 0.0 -7.983890532352e+01 
-7.619469723882e+01 -9.562590469587e+00 0.0 
-9.562590469587e+00 -2.035434963755e+02 0.0 
0.0 0.0 -8.310857986457e+01 
-8.313054870070e+01 -6.367665254858e+00 0.0 
-6.367665254858e+00 -2.226895580061e+02 0.0 
0.0 0.0 -9.126240350679e+01 
-8.181215126901e+01 -7.980378155084e+00 0.0 
-7.980378155084e+00 -2.111614238160e+02 0.0 
0.0 0.0 -8.624367664569e+01 
-8.860056444242e+01 -5.178650108019e+00 0.0 
-5.178650108019e+00 -2.304825279891e+02 0.0 
0.0 0.0 -9.414620484146e+01 
-7.472660314997e+01 -1.084787973529e+01 0.0 
-1.084787973529e+01 -1.914563277935e+02 0.0 
0.0 0.0 -7.796923708100e+01 
-8.002562644824e+01 -9.021759166197e+00 0.0 
-9.021759166197e+00 -1.991102502249e+02 0.0 
0.0 0.0 -8.101544351071e+01 
-7.263261999125e+01 -1.142717162641e+01 0.0 
-1.142717162641e+01 -1.788882035575e+02 0.0 
0.0 0.0 -7.259460973870e+01 
-7.768681698360e+01 -9.492121297242e+00 0.0 
-9.492121297242e+00 -1.867338905836e+02 0.0 
0.0 0.0 -7.564562155374e+01 
-7.102525899327e+01 2.684959385305e+01 0.0 
2.684959385305e+01 -2.165103668137e+02 0.0 
0.0 0.0 -8.712780444243e+01 
-6.981204745855e+01 -1.138569726415e+01 0.0 
-1.138569726415e+01 -1.661520434877e+02 0.0 
0.0 0.0 -6.712526048770e+01 
-6.508225559110e+01 -1.353422628756e+01 0.0 
-1.353422628756e+01 -1.585251944773e+02 0.0 
0.0 0.0 -6.418510864413e+01 
-7.467942328594e+01 -9.422411992348e+00 0.0 
-9.422411992348e+00 -1.742557145775e+02 0.0 
0.0 0.0 -7.018715789965e+01 
-8.253301976906e+01 -7.776325730513e+00 0.0 
-7.776325730513e+00 -1.948266464150e+02 0.0 
0.0 0.0 -7.859336319619e+01 
-6.618198991960e+01 -1.082432099345e+01 0.0 
-1.082432099345e+01 -1.533920167691e+02 0.0 
0.0 0.0 -6.157263601543e+01 
-7.092298010287e+01 -8.936612398317e+00 0.0 
-8.936612398317e+00 -1.617556954259e+02 0.0 
0.0 0.0 -6.466317981853e+01 
-6.170819797580e+01 -9.855663986188e+00 0.0 
-9.855663986188e+00 -1.407206923863e+02 0.0 
0.0 0.0 -5.593178629736e+01 
-5.327175285786e+01 2.664674759122e+01 0.0 
2.664674759122e+01 -1.624289308108e+02 0.0 
0.0 0.0 -6.408824202978e+01 
-8.168549779009e+01 3.530003084345e+01 0.0 
3.530003084345e+01 -1.939614677386e+02 0.0 
0.0 0.0 -8.229264062139e+01 
-6.637289515185e+01 -8.122231712979e+00 0.0 
-8.122231712979e+00 -1.492815044921e+02 0.0 
0.0 0.0 -5.908243927426e+01 
-5.636394681898e+01 -8.588803224960e+00 0.0 
-8.588803224960e+00 -1.281697353895e+02 0.0 
0.0 0.0 -5.024643383433e+01 
-5.206213007144e+01 -1.011383749971e+01 0.0 
-1.011383749971e+01 -1.195019255862e+02 0.0 
0.0 0.0 -4.706193637319e+01 
-4.575287049974e+01 -8.380440098574e+00 0.0 
-8.380440098574e+00 -1.070211199949e+02 0.0 
0.0 0.0 -4.129412494182e+01 
-7.208235846418e+01 2.297472669912e+01 0.0 
2.297472669912e+01 -9.034623139990e+01 0.0 
0.0 0.0 -4.832857695922e+01 
-7.783653763726e+01 2.441268185445e+01 0.0 
2.441268185445e+01 -1.131338479046e+02 0.0 
0.0 0.0 -5.689111566256e+01 
-7.351674783960e+01 2.051445802282e+01 0.0 
2.051445802282e+01 -9.533113229129e+01 0.0 
0.0 0.0 -5.025436403927e+01 
-7.968605657111e+01 2.259133099881e+01 0.0 
2.259133099881e+01 -1.188592194104e+02 0.0 
0.0 0.0 -5.916358279444e+01 
-7.535262405127e+01 1.866482804961e+01 0.0 
1.866482804961e+01 -1.027499597117e+02 0.0 
0.0 0.0 -5.303077512888e+01 
-5.009416371278e+01 -7.094444199029e+00 0.0 
-7.094444199029e+00 -1.157751779772e+02 0.0 
0.0 0.0 -4.454796073196e+01 
-8.551008113106e+01 3.330210275362e+01 0.0 
3.330210275362e+01 -1.635376921721e+02 0.0 
0.0 0.0 -7.431433199094e+01 
-8.360689430298e+01 2.600719392463e+01 0.0 
2.600719392463e+01 -1.358173910082e+02 0.0 
0.0 0.0 -6.542728559335e+01 
-6.568373707270e+01 3.444202366017e+01 0.0 
3.444202366017e+01 -1.368688118420e+02 0.0 
0.0 0.0 -5.804464363916e+01 
-6.061723090549e+01 3.206091172283e+01 0.0 
3.206091172283e+01 -1.529489377343e+02 0.0 
0.0 0.0 -6.164873562328e+01 
-6.755207010978e+01 1.436971271772e+01 0.0 
1.436971271772e+01 -2.288384349445e+02 0.0 
0.0 0.0 -9.335593319963e+01 
-7.557382647391e+01 -7.294772772754e+00 0.0 
-7.294772772754e+00 -1.701237232622e+02 0.0 
0.0 0.0 -6.773064684034e+01 
-7.101273285952e+01 -6.598341501642e+00 0.0 
-6.598341501642e+00 -1.578467990807e+02 0.0 
0.0 0.0 -6.224000470429e+01 
-8.001191920066e+01 -5.863154046633e+00 0.0 
-5.863154046633e+00 -1.785536306136e+02 0.0 
0.0 0.0 -7.114551654869e+01 
-8.969714378339e+01 -3.275249413494e+00 0.0 
-3.275249413494e+00 -2.415867180628e+02 0.0 
0.0 0.0 -9.897293101809e+01 
-9.466357813262e+01 -2.527225625827e+00 0.0 
-2.527225625827e+00 -2.494635543495e+02 0.0 
0.0 0.0 -1.016047589270e+02 
-9.536671128109e+01 -3.892265235742e-01 0.0 
-3.892265235742e-01 -2.601714243194e+02 0.0 
0.0 0.0 -1.061377316002e+02 
-1.000850109219e+02 7.250098262589e-03 0.0 
7.250098262589e-03 -2.681679588444e+02 0.0 
0.0 0.0 -1.091400180184e+02 
-1.011322727057e+02 2.226358647022e+00 0.0 
2.226358647022e+00 -2.785395019805e+02 0.0 
0.0 0.0 -1.134019971700e+02 
-1.061648906048e+02 2.360079126688e+00 0.0 
2.360079126688e+00 -2.866723262640e+02 0.0 
0.0 0.0 -1.170831455674e+02 
-1.046469065540e+02 4.061523394447e-01 0.0 
4.061523394447e-01 -2.761338507411e+02 0.0 
0.0 0.0 -1.126909480517e+02 
-1.111497717678e+02 2.488543180724e+00 0.0 
2.488543180724e+00 -2.947723457200e+02 0.0 
0.0 0.0 -1.211263037930e+02 
-1.091274530437e+02 7.792909684441e-01 0.0 
7.792909684441e-01 -2.841103242891e+02 0.0 
0.0 0.0 -1.166560744682e+02 
-1.090560588589e+02 4.297141057962e+00 0.0 
4.297141057962e+00 -2.968566416369e+02 0.0 
0.0 0.0 -1.213032630168e+02 
-1.034638461367e+02 4.410572489407e+00 0.0 
4.410572489407e+00 -2.884588548597e+02 0.0 
0.0 0.0 -1.173374991072e+02 
-1.160840732044e+02 2.574917243815e+00 0.0 
2.574917243815e+00 -3.028448622999e+02 0.0 
0.0 0.0 -1.251168704406e+02 
-1.134800423832e+02 1.101493727226e+00 0.0 
1.101493727226e+00 -2.920877230128e+02 0.0 
0.0 0.0 -1.205656643511e+02 
-1.209810046700e+02 2.590920367923e+00 0.0 
2.590920367923e+00 -3.108910275103e+02 0.0 
0.0 0.0 -1.290582320587e+02 
-1.177297084458e+02 1.342639224394e+00 0.0 
1.342639224394e+00 -3.000968699137e+02 0.0 
0.0 0.0 -1.244693225386e+02 
-1.116272175424e+02 -1.696921819877e-01 0.0 
-1.696921819877e-01 -2.810246325332e+02 0.0 
0.0 0.0 -1.159458231268e+02 
-1.154947345616e+02 2.413855214755e-01 0.0 
2.413855214755e-01 -2.890357850167e+02 0.0 
0.0 0.0 -1.198071148654e+02 
-1.097603568263e+02 -1.164997961732e+00 0.0 
-1.164997961732e+00 -2.698135965911e+02 0.0 
0.0 0.0 -1.112636469113e+02 
-7.134968898288e+01 1.173245482754e+01 0.0 
1.173245482754e+01 -2.391484445657e+02 0.0 
0.0 0.0 -9.848292695138e+01 
-7.415264166552e+01 1.513929903101e+01 0.0 
1.513929903101e+01 -2.451302974516e+02 0.0 
0.0 0.0 -1.008157446777e+02 
-7.876247778169e+01 1.325005892035e+01 0.0 
1.325005892035e+01 -2.557922937614e+02 0.0 
0.0 0.0 -1.051991280686e+02 
-8.233378027305e+01 1.645104368032e+01 0.0 
1.645104368032e+01 -2.616897528860e+02 0.0 
0.0 0.0 -1.066056945811e+02 
-8.850805515285e+01 1.511231030515e+01 0.0 
1.511231030515e+01 -2.728866527642e+02 0.0 
0.0 0.0 -1.109370137127e+02 
-9.302305670419e+01 1.804512149836e+01 0.0 
1.804512149836e+01 -2.788538407334e+02 0.0 
0.0 0.0 -1.126590367221e+02 
-9.951619929974e+01 1.697120448881e+01 0.0 
1.697120448881e+01 -2.902398437998e+02 0.0 
0.0 0.0 -1.173651875417e+02 
-9.515011708816e+01 1.410125013209e+01 0.0 
1.410125013209e+01 -2.838191596554e+02 0.0 
0.0 0.0 -1.151602572687e+02 
-8.557110248017e+01 3.509906169960e+01 0.0 
3.509906169960e+01 -1.793307966074e+02 0.0 
0.0 0.0 -7.907056972626e+01 
-5.263042606485e+01 1.278732886068e+01 0.0 
1.278732886068e+01 -1.837448996317e+02 0.0 
0.0 0.0 -6.894978938277e+01 
-5.026053671509e+01 1.700013047301e+01 0.0 
1.700013047301e+01 -1.722470091657e+02 0.0 
0.0 0.0 -6.427488050760e+01 
-4.826088612446e+01 1.252103962376e+01 0.0 
1.252103962376e+01 -1.696898401082e+02 0.0 
0.0 0.0 -6.220521353127e+01 
-4.633248368858e+01 1.726377077778e+01 0.0 
1.726377077778e+01 -1.578393754900e+02 0.0 
0.0 0.0 -5.760881825091e+01 
-4.426564161957e+01 1.267452709899e+01 0.0 
1.267452709899e+01 -1.561025403325e+02 0.0 
0.0 0.0 -5.612033163924e+01 
-4.302328516562e+01 1.806095012125e+01 0.0 
1.806095012125e+01 -1.437176042149e+02 0.0 
0.0 0.0 -5.161666432461e+01 
-4.083316774458e+01 1.338524130439e+01 0.0 
1.338524130439e+01 -1.430727255625e+02 0.0 
0.0 0.0 -5.110251336902e+01 
-4.251640625235e+01 7.112349454625e+00 0.0 
7.112349454625e+00 -1.536307511385e+02 0.0 
0.0 0.0 -5.510941840586e+01 
-3.899388858983e+01 7.290784096464e+00 0.0 
7.290784096464e+00 -1.417960481812e+02 0.0 
0.0 0.0 -5.129221315674e+01 
-4.132572764845e+01 5.714319659355e-01 0.0 
5.714319659355e-01 -1.496084643609e+02 0.0 
0.0 0.0 -5.410137771708e+01 
-3.749907067976e+01 -2.089337418207e-02 0.0 
-2.089337418207e-02 -1.386285067839e+02 0.0 
0.0 0.0 -5.112496782669e+01 
-4.066076313628e+01 -6.479066186118e+00 0.0 
-6.479066186118e+00 -1.427706155278e+02 0.0 
0.0 0.0 -5.197697524426e+01 
-7.480371997570e+01 3.166691455339e+01 0.0 
3.166691455339e+01 -2.067461654552e+02 0.0 
0.0 0.0 -8.340186955085e+01 
-8.667125094311e+01 1.941868865642e+01 0.0 
1.941868865642e+01 -2.671869870898e+02 0.0 
0.0 0.0 -1.078467122924e+02 
-9.785804983752e+01 2.075541053796e+01 0.0 
2.075541053796e+01 -2.845370518314e+02 0.0 
0.0 0.0 -1.148422397621e+02 
-9.164164853191e+01 2.199746192427e+01 0.0 
2.199746192427e+01 -2.723395678365e+02 0.0 
0.0 0.0 -1.095897703046e+02 
-4.200695626670e+01 -9.413685809465e+00 0.0 
-9.413685809465e+00 -9.832205957850e+01 0.0 
0.0 0.0 -3.812485685057e+01 
-1.219376416880e+02 1.466938107944e+00 0.0 
1.466938107944e+00 -3.081571280461e+02 0.0 
0.0 0.0 -1.283827052208e+02 
-1.127471303157e+02 6.350473280824e+00 0.0 
6.350473280824e+00 -3.066489656536e+02 0.0 
0.0 0.0 -1.254188287908e+02 
-1.067272817177e+02 6.721082498191e+00 0.0 
6.721082498191e+00 -2.978358379527e+02 0.0 
0.0 0.0 -1.210657008561e+02 
-1.060211305192e+02 1.599156693840e+01 0.0 
1.599156693840e+01 -3.012784826897e+02 0.0 
0.0 0.0 -1.220653495559e+02 
-3.854893969783e+01 -6.438725595391e+00 0.0 
-6.438725595391e+00 -9.487205140308e+01 0.0 
0.0 0.0 -3.575913788258e+01 
-4.036374531924e+01 1.952684318310e+01 0.0 
1.952684318310e+01 -1.298812303776e+02 0.0 
0.0 0.0 -4.650810096337e+01 
-4.273190637486e+01 2.302877857840e+01 0.0 
2.302877857840e+01 -1.293689907277e+02 0.0 
0.0 0.0 -4.698338763452e+01 
-8.126566390828e+01 2.094078268527e+01 0.0 
2.094078268527e+01 -1.256149532325e+02 0.0 
0.0 0.0 -6.166418514223e+01 
-7.680722916271e+01 1.715008696236e+01 0.0 
1.715008696236e+01 -1.105791858419e+02 0.0 
0.0 0.0 -5.581592450140e+01 
-1.168967589989e+02 8.548503245655e+00 0.0 
8.548503245655e+00 -3.159789266472e+02 0.0 
0.0 0.0 -1.294627056938e+02 
-4.277616170164e+01 -5.391369831945e+00 0.0 
-5.391369831945e+00 -1.036943022708e+02 0.0 
0.0 0.0 -3.935445045533e+01 
-1.199242507829e+02 4.082381953350e+00 0.0 
4.082381953350e+00 -3.133250533763e+02 0.0 
0.0 0.0 -1.295678031870e+02 
-3.577146246412e+01 8.270786771852e+00 0.0 
8.270786771852e+00 -1.312455846325e+02 0.0 
0.0 0.0 -4.877617090906e+01 
-1.191701769322e+02 5.237570958556e-01 0.0 
5.237570958556e-01 -2.971062528171e+02 0.0 
0.0 0.0 -1.236529413819e+02 
-1.261974214862e+02 1.473317931975e+00 0.0 
1.473317931975e+00 -3.162295305358e+02 0.0 
0.0 0.0 -1.322317985997e+02 
-1.034611164472e+02 -1.243886362761e+00 0.0 
-1.243886362761e+00 -2.652168627656e+02 0.0 
0.0 0.0 -1.081415788333e+02 
-1.027443587245e+02 2.328976717201e+01 0.0 
2.328976717201e+01 -2.899701201445e+02 0.0 
0.0 0.0 -1.174359480899e+02 
-9.653500964649e+01 2.437840955053e+01 0.0 
2.437840955053e+01 -2.772841223436e+02 0.0 
0.0 0.0 -1.118585655537e+02 
-4.454717679971e+01 -4.868845378166e+00 0.0 
-4.868845378166e+00 -1.551643185881e+02 0.0 
0.0 0.0 -5.644929976458e+01 
-4.444570836318e+01 -1.105438397471e+01 0.0 
-1.105438397471e+01 -1.455705508248e+02 0.0 
0.0 0.0 -5.296309637557e+01 
-4.074587709436e+01 -1.326936966236e+01 0.0 
-1.326936966236e+01 -1.321384063356e+02 0.0 
0.0 0.0 -4.772445618022e+01 
-4.529145452633e+01 -1.625433856499e+01 0.0 
-1.625433856499e+01 -1.334626346600e+02 0.0 
0.0 0.0 -4.877389971346e+01 
-4.851873452310e+01 -1.367101958878e+01 0.0 
-1.367101958878e+01 -1.486300407081e+02 0.0 
0.0 0.0 -5.508882619257e+01 
-4.887565050658e+01 -1.732839400593e+01 0.0 
-1.732839400593e+01 -1.355181031697e+02 0.0 
0.0 0.0 -5.066564937389e+01 
-4.616492701028e+01 -1.977951766656e+01 0.0 
-1.977951766656e+01 -1.186092704243e+02 0.0 
0.0 0.0 -4.378059828620e+01 
-4.901790881106e+01 -1.933600662283e+01 0.0 
-1.933600662283e+01 -1.199530264055e+02 0.0 
0.0 0.0 -4.512168475093e+01 
-5.204697731450e+01 -1.757942949341e+01 0.0 
-1.757942949341e+01 -1.382123844946e+02 0.0 
0.0 0.0 -5.307367946104e+01 
-5.127544111288e+01 -1.838431742477e+01 0.0 
-1.838431742477e+01 -1.228291236790e+02 0.0 
0.0 0.0 -4.774575862633e+01 
-4.846605281532e+01 -1.893825984075e+01 0.0 
-1.893825984075e+01 -1.027630541306e+02 0.0 
0.0 0.0 -3.988144127376e+01 
-4.917648556769e+01 -1.724057087038e+01 0.0 
-1.724057087038e+01 -1.064209120676e+02 0.0 
0.0 0.0 -4.224480662928e+01 
-1.307125943343e+02 2.374769919346e+00 0.0 
2.374769919346e+00 -3.270242472326e+02 0.0 
0.0 0.0 -1.369210524701e+02 
-3.370256529889e+01 -1.934576261652e-01 0.0 
-1.934576261652e-01 -1.292505427261e+02 0.0 
0.0 0.0 -4.927334736910e+01 
-6.769924011459e+01 3.391954975559e+01 0.0 
3.391954975559e+01 -1.184523899533e+02 0.0 
0.0 0.0 -5.466228120074e+01 
-1.229683259380e+02 7.989860089991e+00 0.0 
7.989860089991e+00 -3.248031199675e+02 0.0 
0.0 0.0 -1.339314337716e+02 
-1.106329665517e+02 1.866654134343e+01 0.0 
1.866654134343e+01 -3.075511323149e+02 0.0 
0.0 0.0 -1.250883394738e+02 
-8.254240199316e+01 1.953170094700e+01 0.0 
1.953170094700e+01 -1.332129616877e+02 0.0 
0.0 0.0 -6.432660910426e+01 
-7.809684195824e+01 1.594391044603e+01 0.0 
1.594391044603e+01 -1.192019196870e+02 0.0 
0.0 0.0 -5.878962849356e+01 
-7.168436946282e+01 1.325305061716e+01 0.0 
1.325305061716e+01 -9.671699137639e+01 0.0 
0.0 0.0 -5.012040825176e+01 
-7.318669556996e+01 1.243233307250e+01 0.0 
1.243233307250e+01 -1.063364109496e+02 0.0 
0.0 0.0 -5.345693195586e+01 
-7.921770124564e+01 1.499384852157e+01 0.0 
1.499384852157e+01 -1.284697540457e+02 0.0 
0.0 0.0 -6.190623658739e+01 
-7.459614301779e+01 1.178644398474e+01 0.0 
1.178644398474e+01 -1.162293514227e+02 0.0 
0.0 0.0 -5.684764833215e+01 
-6.790044826823e+01 9.279149571381e+00 0.0 
9.279149571381e+00 -9.449621352417e+01 0.0 
0.0 0.0 -4.831899853772e+01 
-6.973296279271e+01 8.931037203109e+00 0.0 
8.931037203109e+00 -1.048163873331e+02 0.0 
0.0 0.0 -5.196480503775e+01 
-6.247741557481e+01 6.610850574419e+00 0.0 
6.610850574419e+00 -8.352919174646e+01 0.0 
0.0 0.0 -4.340198219638e+01 
-6.475321885244e+01 6.520226525149e+00 0.0 
6.520226525149e+00 -9.415601563303e+01 0.0 
0.0 0.0 -4.727277034564e+01 
-7.149748256676e+01 8.610326177102e+00 0.0 
8.610326177102e+00 -1.152823440910e+02 0.0 
0.0 0.0 -5.563394799732e+01 
-6.694849126551e+01 6.412134614826e+00 0.0 
6.412134614826e+00 -1.049231823421e+02 0.0 
0.0 0.0 -5.116150208229e+01 
-5.977904325423e+01 4.574494410503e+00 0.0 
4.574494410503e+00 -8.416239356455e+01 0.0 
0.0 0.0 -4.278243104563e+01 
-6.240735370154e+01 4.612926946323e+00 0.0 
4.612926946323e+00 -9.502307934486e+01 0.0 
0.0 0.0 -4.682912991392e+01 
-5.493391216580e+01 3.098449376089e+00 0.0 
3.098449376089e+00 -7.454590608283e+01 0.0 
0.0 0.0 -3.844394547459e+01 
-5.798771739130e+01 3.216724575453e+00 0.0 
3.216724575453e+00 -8.538000448438e+01 0.0 
0.0 0.0 -4.261031656270e+01 
-6.496978216870e+01 4.482438156658e+00 0.0 
4.482438156658e+00 -1.059869707896e+02 0.0 
0.0 0.0 -5.088702588749e+01 
-3.007635795931e+01 -4.432450403576e+00 0.0 
-4.432450403576e+00 -8.349194871691e+01 0.0 
0.0 0.0 -3.098539890815e+01 
-1.016627874388e+02 1.320215683437e+01 0.0 
1.320215683437e+01 -2.944312374262e+02 0.0 
0.0 0.0 -1.192031441908e+02 
-1.126195617717e+02 1.504158877705e+01 0.0 
1.504158877705e+01 -3.120584862655e+02 0.0 
0.0 0.0 -1.270034144112e+02 
-7.569842791269e+01 -5.194302210206e+00 0.0 
-5.194302210206e+00 -1.669703698355e+02 0.0 
0.0 0.0 -6.638267838251e+01 
-8.421551786956e+01 -4.579661564040e+00 0.0 
-4.579661564040e+00 -1.867313018618e+02 0.0 
0.0 0.0 -7.520810639995e+01 
-8.797061601013e+01 -5.022597978958e+00 0.0 
-5.022597978958e+00 -1.989182024443e+02 0.0 
0.0 0.0 -8.008819892055e+01 
-9.198246011278e+01 -3.873549417598e+00 0.0 
-3.873549417598e+00 -2.073584006580e+02 0.0 
0.0 0.0 -8.438437319533e+01 
-6.089233568179e+01 3.123533791675e+00 0.0 
3.123533791675e+00 -9.627447025894e+01 0.0 
0.0 0.0 -4.675004178222e+01 
-6.740075733359e+01 4.176287009583e+00 0.0 
4.176287009583e+00 -1.170320819131e+02 0.0 
0.0 0.0 -5.492985177400e+01 
-4.121098537865e+01 2.499655057744e+01 0.0 
2.499655057744e+01 -1.146496880442e+02 0.0 
0.0 0.0 -4.177147192834e+01 
-4.320611679060e+01 2.721746927579e+01 0.0 
2.721746927579e+01 -1.133270416081e+02 0.0 
0.0 0.0 -4.234525942153e+01 
-8.655517250512e+01 2.303506415784e+01 0.0 
2.303506415784e+01 -1.482465455950e+02 0.0 
0.0 0.0 -7.004051543003e+01 
-1.227356275961e+02 6.941602424025e-01 0.0 
6.941602424025e-01 -3.052866800032e+02 0.0 
0.0 0.0 -1.274960860595e+02 
-1.168700781813e+02 -1.959063434702e-01 0.0 
-1.959063434702e-01 -2.859869827405e+02 0.0 
0.0 0.0 -1.189319768949e+02 
-5.773674379120e+01 3.134077792979e+01 0.0 
3.134077792979e+01 -1.517847514142e+02 0.0 
0.0 0.0 -6.125677627633e+01 
-5.606212218374e+01 3.231527801256e+01 0.0 
3.231527801256e+01 -1.345736521697e+02 0.0 
0.0 0.0 -5.466701404419e+01 
-5.337519168079e+01 3.178601008627e+01 0.0 
3.178601008627e+01 -1.336075060886e+02 0.0 
0.0 0.0 -5.423426881066e+01 
-5.181496781665e+01 3.240349875749e+01 0.0 
3.240349875749e+01 -1.156084175226e+02 0.0 
0.0 0.0 -4.758869574954e+01 
-5.415534158346e+01 3.270351912583e+01 0.0 
3.270351912583e+01 -1.166717157900e+02 0.0 
0.0 0.0 -4.782070166064e+01 
-4.951541501869e+01 3.217867600951e+01 0.0 
3.217867600951e+01 -1.148261992810e+02 0.0 
0.0 0.0 -4.729275354753e+01 
-9.770308968289e+01 4.559958708826e+00 0.0 
4.559958708826e+00 -2.797338541817e+02 0.0 
0.0 0.0 -1.138941912905e+02 
-7.322405809707e+01 8.264295817230e+00 0.0 
8.264295817230e+00 -1.260017841021e+02 0.0 
0.0 0.0 -5.936775265974e+01 
-4.844602898224e+01 -1.150905329669e+01 0.0 
-1.150905329669e+01 -1.109082635682e+02 0.0 
0.0 0.0 -4.394890602077e+01 
-3.941750096860e+01 -1.016859828283e+01 0.0 
-1.016859828283e+01 -8.975194061666e+01 0.0 
0.0 0.0 -3.512095548717e+01 
-1.305469032105e+02 1.377910194829e+00 0.0 
1.377910194829e+00 -3.243970692711e+02 0.0 
0.0 0.0 -1.360639542183e+02 
-9.126989387134e+01 1.108275042576e+01 0.0 
1.108275042576e+01 -2.769370167476e+02 0.0 
0.0 0.0 -1.130476548285e+02 
-7.788536565013e+01 3.299803647200e+01 0.0 
3.299803647200e+01 -2.083598378131e+02 0.0 
0.0 0.0 -8.515286956386e+01 
-8.121773034610e+01 3.176344312868e+01 0.0 
3.176344312868e+01 -2.244034581560e+02 0.0 
0.0 0.0 -9.116125195252e+01 
-8.514454799965e+01 3.316463711392e+01 0.0 
3.316463711392e+01 -2.263618512091e+02 0.0 
0.0 0.0 -9.305191976261e+01 
-8.945265764635e+01 3.211175278886e+01 0.0 
3.211175278886e+01 -2.422264941963e+02 0.0 
0.0 0.0 -9.910374555281e+01 
-9.374148058752e+01 3.374029989396e+01 0.0 
3.374029989396e+01 -2.445736394857e+02 0.0 
0.0 0.0 -1.010945360220e+02 
-9.859143196283e+01 3.290324824411e+01 0.0 
3.290324824411e+01 -2.602002616998e+02 0.0 
0.0 0.0 -1.072375080988e+02 
-9.421133913958e+01 3.099817686752e+01 0.0 
3.099817686752e+01 -2.573407743617e+02 0.0 
0.0 0.0 -1.050656340504e+02 
-1.075890206180e+02 2.577318238320e+01 0.0 
2.577318238320e+01 -2.950906215925e+02 0.0 
0.0 0.0 -1.204038926631e+02 
-1.039106143934e+02 3.206059634981e+01 0.0 
3.206059634981e+01 -2.751091257474e+02 0.0 
0.0 0.0 -1.133059220422e+02 
-5.372602383844e+01 2.064228516039e+00 0.0 
2.064228516039e+00 -7.565539922408e+01 0.0 
0.0 0.0 -3.841442691875e+01 
-8.116603198530e+01 2.104608264362e+01 0.0 
2.104608264362e+01 -2.550444544823e+02 0.0 
0.0 0.0 -1.030079216898e+02 
-5.459729327137e+01 -1.737407597868e+01 0.0 
-1.737407597868e+01 -1.416722493528e+02 0.0 
0.0 0.0 -5.606931311558e+01 
-2.632761342766e+01 -4.955164113348e+00 0.0 
-4.955164113348e+00 -7.438206076395e+01 0.0 
0.0 0.0 -2.717649926581e+01 
-4.420005590268e+01 -1.557709815471e+01 0.0 
-1.557709815471e+01 -8.436017950454e+01 0.0 
0.0 0.0 -3.339436152214e+01 
-3.440982523032e+01 -3.769159380086e+00 0.0 
-3.769159380086e+00 -9.140785846630e+01 0.0 
0.0 0.0 -3.446119548725e+01 
-4.770988619702e+01 -4.382341354102e+00 0.0 
-4.382341354102e+00 -1.123024556976e+02 0.0 
0.0 0.0 -4.331216728726e+01 
-1.276650605999e+02 1.017837491005e+01 0.0 
1.017837491005e+01 -3.340133367344e+02 0.0 
0.0 0.0 -1.381035192003e+02 
-1.027957670847e+02 3.470557371386e+01 0.0 
3.470557371386e+01 -2.627781450958e+02 0.0 
0.0 0.0 -1.092721736542e+02 
-9.780750543596e+01 3.517578065351e+01 0.0 
3.517578065351e+01 -2.466428542275e+02 0.0 
0.0 0.0 -1.029351078990e+02 
-4.998133121119e+01 3.240291411332e+01 0.0 
3.240291411332e+01 -9.739062629153e+01 0.0 
0.0 0.0 -4.076410845825e+01 
-5.195420749391e+01 3.260628958784e+01 0.0 
3.260628958784e+01 -9.831721224838e+01 0.0 
0.0 0.0 -4.086029297289e+01 
-1.141329395137e+02 2.482267540389e+01 0.0 
2.482267540389e+01 -3.076536091697e+02 0.0 
0.0 0.0 -1.261359646050e+02 
-6.878054009035e+01 1.600517029690e+01 0.0 
1.600517029690e+01 -7.945029456200e+01 0.0 
0.0 0.0 -4.406925039570e+01 
-6.013336068881e+01 6.692350279899e+00 0.0 
6.692350279899e+00 -7.305504586658e+01 0.0 
0.0 0.0 -3.955652196662e+01 
-5.406552242753e+01 4.335262870680e+00 0.0 
4.335262870680e+00 -6.253647981141e+01 0.0 
0.0 0.0 -3.458060067168e+01 
-2.037314648677e+01 -2.540362232697e+00 0.0 
-2.540362232697e+00 -6.916620192116e+01 0.0 
0.0 0.0 -2.511259090219e+01 
-4.477624722946e+01 -1.803488237624e+01 0.0 
-1.803488237624e+01 -8.119315989870e+01 0.0 
0.0 0.0 -3.167137264446e+01 
-8.026637172710e+01 1.415677136773e+01 0.0 
1.415677136773e+01 -1.381393398197e+02 0.0 
0.0 0.0 -6.512171346405e+01 
-4.473299449373e+01 2.575580646793e+01 0.0 
2.575580646793e+01 -1.291110934874e+02 0.0 
0.0 0.0 -4.824559140149e+01 
-4.488677410948e+01 2.893287712477e+01 0.0 
2.893287712477e+01 -1.129576974106e+02 0.0 
0.0 0.0 -4.360738840853e+01 
-3.298920477674e+01 1.077754368617e+01 0.0 
1.077754368617e+01 -1.220835628542e+02 0.0 
0.0 0.0 -4.767747986312e+01 
-3.034014041345e+01 9.191117881688e-02 0.0 
9.191117881688e-02 -1.225977684942e+02 0.0 
0.0 0.0 -4.816391756281e+01 
-6.375044387820e+01 2.771916271185e+00 0.0 
2.771916271185e+00 -1.070217048480e+02 0.0 
0.0 0.0 -5.083164461785e+01 
-6.992893011358e+01 3.668453168399e+00 0.0 
3.668453168399e+00 -1.277096137060e+02 0.0 
0.0 0.0 -5.889156314588e+01 
-9.521506493633e+01 -4.022796566722e+00 0.0 
-4.022796566722e+00 -2.191559927273e+02 0.0 
0.0 0.0 -8.917833930255e+01 
-9.897453876379e+01 -3.006118884389e+00 0.0 
-3.006118884389e+00 -2.274678938335e+02 0.0 
0.0 0.0 -9.324223174178e+01 
-1.213885750988e+02 1.091198144964e+01 0.0 
1.091198144964e+01 -3.248037045372e+02 0.0 
0.0 0.0 -1.334576838908e+02 
-4.456157452412e+01 -1.434289537614e+01 0.0 
-1.434289537614e+01 -9.022658828501e+01 0.0 
0.0 0.0 -3.612860938276e+01 
-7.341744704862e+01 5.309737116719e+00 0.0 
5.309737116719e+00 -1.379782823395e+02 0.0 
0.0 0.0 -6.301871881644e+01 
-9.770371514676e+01 1.033635893000e+01 0.0 
1.033635893000e+01 -2.870595056451e+02 0.0 
0.0 0.0 -1.165766695270e+02 
-8.808527975615e+01 8.071746064634e+00 0.0 
8.071746064634e+00 -2.695286446944e+02 0.0 
0.0 0.0 -1.107896782150e+02 
-8.815180456748e+01 -3.471188351466e+00 0.0 
-3.471188351466e+00 -1.950641330335e+02 0.0 
0.0 0.0 -7.944465639048e+01 
-4.306301903456e+01 2.931614539696e+01 0.0 
2.931614539696e+01 -9.736465374796e+01 0.0 
0.0 0.0 -3.738556999253e+01 
-4.133555093318e+01 2.788813823451e+01 0.0 
2.788813823451e+01 -9.993129045647e+01 0.0 
0.0 0.0 -3.792264849827e+01 
-5.556628794689e+01 -1.582550940701e+01 0.0 
-1.582550940701e+01 -1.558467071763e+02 0.0 
0.0 0.0 -6.130358398810e+01 
-4.996527826154e+01 -1.616092695312e+01 0.0 
-1.616092695312e+01 -1.113951276625e+02 0.0 
0.0 0.0 -4.481776938085e+01 
-3.955449450270e+01 -2.927530887589e+00 0.0 
-2.927530887589e+00 -1.000320437871e+02 0.0 
0.0 0.0 -3.850702218131e+01 
-1.325930961962e+02 1.250195052582e+01 0.0 
1.250195052582e+01 -3.426405794799e+02 0.0 
0.0 0.0 -1.421701027028e+02 
-8.430324676607e+01 1.730254547188e+01 0.0 
1.730254547188e+01 -1.505551327752e+02 0.0 
0.0 0.0 -7.005751386238e+01 
-9.952535759170e+01 2.994679119685e+01 0.0 
2.994679119685e+01 -2.717197711756e+02 0.0 
0.0 0.0 -1.109735386302e+02 
-8.969238111599e+01 2.899353847798e+01 0.0 
2.899353847798e+01 -2.540534754578e+02 0.0 
0.0 0.0 -1.027237569721e+02 
-1.099698300664e+02 3.122588025495e+01 0.0 
3.122588025495e+01 -2.895812483884e+02 0.0 
0.0 0.0 -1.194653235364e+02 
-3.837503481548e+01 -1.142516787267e+01 0.0 
-1.142516787267e+01 -6.862465066047e+01 0.0 
0.0 0.0 -2.746241936384e+01 
-1.339072633821e+02 9.455381021274e+00 0.0 
9.455381021274e+00 -3.431304578300e+02 0.0 
0.0 0.0 -1.427113163636e+02 
-1.263420781571e+02 7.243141437843e-01 0.0 
7.243141437843e-01 -3.136154332012e+02 0.0 
0.0 0.0 -1.313685118907e+02 
-1.063856940464e+02 3.626919209456e+01 0.0 
3.626919209456e+01 -2.643149321700e+02 0.0 
0.0 0.0 -1.108101878649e+02 
-1.016353761922e+02 3.642124646677e+01 0.0 
3.642124646677e+01 -2.486898113857e+02 0.0 
0.0 0.0 -1.046975562734e+02 
-4.650251191197e+01 2.792815070114e+01 0.0 
2.792815070114e+01 -1.293453527756e+02 0.0 
0.0 0.0 -4.988058020481e+01 
-4.624368896499e+01 3.041330299605e+01 0.0 
3.041330299605e+01 -1.132093730673e+02 0.0 
0.0 0.0 -4.525967425163e+01 
-4.534487087245e+01 3.109471797678e+01 0.0 
3.109471797678e+01 -9.573223299638e+01 0.0 
0.0 0.0 -3.897282720955e+01 
-4.602895972714e+01 3.180665388156e+01 0.0 
3.180665388156e+01 -9.577519072672e+01 0.0 
0.0 0.0 -3.988477200991e+01 
-6.720187798030e+01 3.152477700075e+01 0.0 
3.152477700075e+01 -9.975890303988e+01 0.0 
0.0 0.0 -4.945056097409e+01 
-4.837670595924e+01 2.970520385244e+01 0.0 
2.970520385244e+01 -1.302527575332e+02 0.0 
0.0 0.0 -5.187667489964e+01 
-6.539695379530e+01 3.423347316563e+01 0.0 
3.423347316563e+01 -1.179252930310e+02 0.0 
0.0 0.0 -5.302987752994e+01 
-6.266510705671e+01 3.330519962388e+01 0.0 
3.330519962388e+01 -9.822779360329e+01 0.0 
0.0 0.0 -4.626132441975e+01 
-6.035182722074e+01 3.353960878563e+01 0.0 
3.353960878563e+01 -9.828103097593e+01 0.0 
0.0 0.0 -4.473722029609e+01 
-5.646171368971e+01 3.305654831464e+01 0.0 
3.305654831464e+01 -1.173376037193e+02 0.0 
0.0 0.0 -4.784100532581e+01 
-5.398108743236e+01 3.287747487457e+01 0.0 
3.287747487457e+01 -9.861878851229e+01 0.0 
0.0 0.0 -4.081138551052e+01 
-4.846794201017e+01 2.108880044969e+01 0.0 
2.108880044969e+01 -1.592307604820e+02 0.0 
0.0 0.0 -5.953971796598e+01 
-7.037834721441e+01 1.759033036539e+01 0.0 
1.759033036539e+01 -2.338114564129e+02 0.0 
0.0 0.0 -9.576394009129e+01 
-9.124736234976e+01 -5.113981693633e+00 0.0 
-5.113981693633e+00 -2.110097175396e+02 0.0 
0.0 0.0 -8.505786928401e+01 
-1.059742363062e+02 -1.806030423987e+00 0.0 
-1.806030423987e+00 -2.618577644605e+02 0.0 
0.0 0.0 -1.074000499046e+02 
-9.031527799062e+01 -8.303147035426e-01 0.0 
-8.303147035426e-01 -2.520520790021e+02 0.0 
0.0 0.0 -1.034832602488e+02 
-7.722722538451e+01 1.065511327358e+01 0.0 
1.065511327358e+01 -1.365477561918e+02 0.0 
0.0 0.0 -6.373249447290e+01 
-7.858412331818e+01 1.006045131638e+01 0.0 
1.006045131638e+01 -1.473473538100e+02 0.0 
0.0 0.0 -6.737944313846e+01 
-5.178185327884e+01 2.880874400114e+00 0.0 
2.880874400114e+00 -6.370955546824e+01 0.0 
0.0 0.0 -3.424742262412e+01 
-4.688091312282e+01 1.776406496787e+00 0.0 
1.776406496787e+00 -5.427898491036e+01 0.0 
0.0 0.0 -2.994796940995e+01 
-3.200078493120e+01 -7.516536025056e+00 0.0 
-7.516536025056e+00 -7.727505200292e+01 0.0 
0.0 0.0 -2.933938934633e+01 
-3.055910991853e+01 -7.564978589142e+00 0.0 
-7.564978589142e+00 -6.881035886557e+01 0.0 
0.0 0.0 -2.645599199788e+01 
-9.348049162603e+01 -4.169752626917e+00 0.0 
-4.169752626917e+00 -2.382768554080e+02 0.0 
0.0 0.0 -9.681314148511e+01 
-1.288878310179e+02 7.442811176551e+00 0.0 
7.442811176551e+00 -3.333902750118e+02 0.0 
0.0 0.0 -1.382834318089e+02 
-8.730628676401e+01 2.167522458686e+01 0.0 
2.167522458686e+01 -1.554010379468e+02 0.0 
0.0 0.0 -7.241219741325e+01 
-9.101598492366e+01 2.510567601726e+01 0.0 
2.510567601726e+01 -1.704642914932e+02 0.0 
0.0 0.0 -7.804408292506e+01 
-9.024117161753e+01 2.636525011632e+01 0.0 
2.636525011632e+01 -1.639396989279e+02 0.0 
0.0 0.0 -7.585426116363e+01 
-1.260653440745e+02 1.338415046163e+01 0.0 
1.338415046163e+01 -3.328797708226e+02 0.0 
0.0 0.0 -1.372835344691e+02 
-5.094755100174e+01 7.939027720448e+00 0.0 
7.939027720448e+00 -1.798701329153e+02 0.0 
0.0 0.0 -6.674431500003e+01 
-7.604300604218e+01 9.825625057790e+00 0.0 
9.825625057790e+00 -2.492398469304e+02 0.0 
0.0 0.0 -1.030745986195e+02 
-3.353948056524e+01 -1.044816234198e+01 0.0 
-1.044816234198e+01 -1.223934291289e+02 0.0 
0.0 0.0 -4.769428202027e+01 
-7.435091119381e+01 2.851946003394e+01 0.0 
2.851946003394e+01 -2.196733237379e+02 0.0 
0.0 0.0 -8.819550081158e+01 
-2.231106655593e+01 -4.571984493022e+00 0.0 
-4.571984493022e+00 -5.676629025808e+01 0.0 
0.0 0.0 -2.098613714079e+01 
-8.541102063484e+01 3.562427634357e+01 0.0 
3.562427634357e+01 -1.953699128150e+02 0.0 
0.0 0.0 -8.383428003494e+01 
-1.351924234864e+02 1.162477960514e+00 0.0 
1.162477960514e+00 -3.327409623719e+02 0.0 
0.0 0.0 -1.399800157575e+02 
-1.402143514634e+02 1.841962470633e+00 0.0 
1.841962470633e+00 -3.432613060225e+02 0.0 
0.0 0.0 -1.446426972458e+02 
-1.189271295106e+02 2.736462665695e+01 0.0 
2.736462665695e+01 -3.126709825361e+02 0.0 
0.0 0.0 -1.290794336140e+02 
-6.023816838713e+01 2.854984091044e+01 0.0 
2.854984091044e+01 -5.921306608127e+01 0.0 
0.0 0.0 -3.470158023624e+01 
-7.713799720563e+01 2.672739145152e+01 0.0 
2.672739145152e+01 -2.334330880291e+02 0.0 
0.0 0.0 -9.375524800010e+01 
-7.353177926496e+01 2.487514322820e+01 0.0 
2.487514322820e+01 -2.296565566262e+02 0.0 
0.0 0.0 -9.269418563918e+01 
-5.714514418435e+01 3.243026624156e+01 0.0 
3.243026624156e+01 -7.848154665940e+01 0.0 
0.0 0.0 -3.792256589166e+01 
-5.489735476122e+01 3.250155041911e+01 0.0 
3.250155041911e+01 -7.870545154106e+01 0.0 
0.0 0.0 -3.642818746755e+01 
-5.812645612601e+01 3.342424232031e+01 0.0 
3.342424232031e+01 -9.839057335683e+01 0.0 
0.0 0.0 -4.314708762608e+01 
-5.302682883752e+01 3.239702302772e+01 0.0 
3.239702302772e+01 -7.908042495794e+01 0.0 
0.0 0.0 -3.491999385304e+01 
-5.864707078233e+01 -1.610842102152e+01 0.0 
-1.610842102152e+01 -1.600764383509e+02 0.0 
0.0 0.0 -6.414791431343e+01 
-5.724823915892e+01 -1.699036873553e+01 0.0 
-1.699036873553e+01 -1.461440899714e+02 0.0 
0.0 0.0 -5.874754258995e+01 
-1.130027909845e+02 3.633112331750e+01 0.0 
3.633112331750e+01 -2.821336795598e+02 0.0 
0.0 0.0 -1.181409411633e+02 
-1.139300303010e+02 3.349390248180e+01 0.0 
3.349390248180e+01 -2.926788885862e+02 0.0 
0.0 0.0 -1.215826756662e+02 
-1.099947851133e+02 3.790950311992e+01 0.0 
3.790950311992e+01 -2.669296510946e+02 0.0 
0.0 0.0 -1.126773308624e+02 
-1.054409705887e+02 3.769191811943e+01 0.0 
3.769191811943e+01 -2.512399145213e+02 0.0 
0.0 0.0 -1.066042655330e+02 
-1.258366935740e+02 2.648636258592e+01 0.0 
2.648636258592e+01 -3.252187238107e+02 0.0 
0.0 0.0 -1.349166252154e+02 
-1.206446374435e+02 2.386759028506e+01 0.0 
2.386759028506e+01 -3.196012234274e+02 0.0 
0.0 0.0 -1.316737582613e+02 
-5.242273165410e+01 -3.276628151817e+00 0.0 
-3.276628151817e+00 -1.202395336243e+02 0.0 
0.0 0.0 -4.721738586707e+01 
-4.957111655532e+01 3.206671215001e+01 0.0 
3.206671215001e+01 -7.955158517558e+01 0.0 
0.0 0.0 -3.385498747286e+01 
-8.509754755402e+01 1.635577173735e+01 0.0 
1.635577173735e+01 -1.599916558545e+02 0.0 
0.0 0.0 -7.312676102256e+01 
-5.968814197649e+01 3.194196541650e+01 0.0 
3.194196541650e+01 -7.824411711302e+01 0.0 
0.0 0.0 -3.941508752816e+01 
-1.397531140763e+02 8.685433817371e+00 0.0 
8.685433817371e+00 -3.513157439222e+02 0.0 
0.0 0.0 -1.469206573996e+02 
-1.346928706654e+02 6.919101224781e+00 0.0 
6.919101224781e+00 -3.418303350951e+02 0.0 
0.0 0.0 -1.425569617281e+02 
-3.364361199458e+01 -1.188616466935e+01 0.0 
-1.188616466935e+01 -1.181744539454e+02 0.0 
0.0 0.0 -4.765811612370e+01 
-3.653788950955e+01 -2.112710900457e+01 0.0 
-2.112710900457e+01 -1.071288593252e+02 0.0 
0.0 0.0 -4.260087952439e+01 
-7.566097896041e+01 4.583219424323e+00 0.0 
4.583219424323e+00 -1.490246535055e+02 0.0 
0.0 0.0 -6.700568973978e+01 
-4.544192703600e+01 3.177245025694e+01 0.0 
3.177245025694e+01 -7.711284159871e+01 0.0 
0.0 0.0 -3.353429462762e+01 
-4.534668860719e+01 3.174954073754e+01 0.0 
3.174954073754e+01 -7.646504009487e+01 0.0 
0.0 0.0 -3.367994365254e+01 
-4.511824860022e+01 3.171769948562e+01 0.0 
3.171769948562e+01 -7.780699122130e+01 0.0 
0.0 0.0 -3.309599670246e+01 
-1.555642701192e+02 5.342075949186e-01 0.0 
5.342075949186e-01 -3.712704522653e+02 0.0 
0.0 0.0 -1.576504167154e+02 
-2.856845254205e+01 1.600906691327e-01 0.0 
1.600906691327e-01 -1.586520969343e+01 0.0 
0.0 0.0 -1.293009867064e+01 
-1.450539183716e+02 1.460690708488e+00 0.0 
1.460690708488e+00 -3.517397176173e+02 0.0 
0.0 0.0 -1.486380907967e+02 
-5.876701496664e+01 3.349316006347e+01 0.0 
3.349316006347e+01 -1.176431103919e+02 0.0 
0.0 0.0 -4.836275702045e+01 
-7.893568615570e+01 6.381001851188e+00 0.0 
6.381001851188e+00 -1.595472656018e+02 0.0 
0.0 0.0 -7.114488552726e+01 
-8.084802048111e+01 2.497758137907e+01 0.0 
2.497758137907e+01 -2.465058002979e+02 0.0 
0.0 0.0 -9.900330311869e+01 
-5.444334140722e+01 3.051503839216e+01 0.0 
3.051503839216e+01 -1.501196889362e+02 0.0 
0.0 0.0 -6.032176294839e+01 
-1.149591238388e+02 1.167776334176e+01 0.0 
1.167776334176e+01 -3.151943349897e+02 0.0 
0.0 0.0 -1.286460376485e+02 
-7.218830881801e+01 2.968376501307e+00 0.0 
2.968376501307e+00 -1.376355413999e+02 0.0 
0.0 0.0 -6.254715506537e+01 
-7.790553572421e+01 3.604088896452e+00 0.0 
3.604088896452e+00 -1.606397464639e+02 0.0 
0.0 0.0 -7.116358465643e+01 
-5.100375277547e+01 4.151185337412e+00 0.0 
4.151185337412e+00 -5.191971851456e+01 0.0 
0.0 0.0 -3.047704138701e+01 
-4.450740746241e+01 2.414440615498e+00 0.0 
2.414440615498e+00 -4.147602698382e+01 0.0 
0.0 0.0 -2.539503033387e+01 
-5.736788536719e+01 6.776559759834e+00 0.0 
6.776559759834e+00 -6.207080551589e+01 0.0 
0.0 0.0 -3.543160726492e+01 
-3.577381213755e+01 1.731196096255e+01 0.0 
1.731196096255e+01 -1.189351672769e+02 0.0 
0.0 0.0 -4.418008119942e+01 
-3.531865618620e+01 2.286339526675e+01 0.0 
2.286339526675e+01 -1.055500837985e+02 0.0 
0.0 0.0 -4.240130696760e+01 
-7.485632941904e+01 7.760451159293e+00 0.0 
7.760451159293e+00 -1.367517564046e+02 0.0 
0.0 0.0 -6.308242574710e+01 
-6.587714580999e+01 -5.644500960425e+00 0.0 
-5.644500960425e+00 -1.456750534713e+02 0.0 
0.0 0.0 -5.719791238999e+01 
-7.141182188186e+01 -4.345147054185e+00 0.0 
-4.345147054185e+00 -1.562076173422e+02 0.0 
0.0 0.0 -6.232484814525e+01 
-4.487597839938e+01 -1.355900919322e+01 0.0 
-1.355900919322e+01 -9.624619623923e+01 0.0 
0.0 0.0 -3.855961551947e+01 
-5.137648938838e+01 -1.494631016918e+01 0.0 
-1.494631016918e+01 -1.172862123499e+02 0.0 
0.0 0.0 -4.722694554622e+01 
-9.795101185556e+01 -3.866514904895e+00 0.0 
-3.866514904895e+00 -2.309412338734e+02 0.0 
0.0 0.0 -9.397631523363e+01 
-9.396181047882e+01 -4.877567218167e+00 0.0 
-4.877567218167e+00 -2.229397485853e+02 0.0 
0.0 0.0 -9.007910295241e+01 
-8.917448794523e+01 3.565995598320e+01 0.0 
3.565995598320e+01 -2.130312824612e+02 0.0 
0.0 0.0 -9.026173112194e+01 
-9.278959072066e+01 3.621207250767e+01 0.0 
3.621207250767e+01 -2.148015396761e+02 0.0 
0.0 0.0 -9.187733911904e+01 
-8.140613126647e+01 3.410501011328e+01 0.0 
3.410501011328e+01 -2.098231731075e+02 0.0 
0.0 0.0 -8.689886385632e+01 
-9.429002596723e+01 7.517414203180e+00 0.0 
7.517414203180e+00 -2.791258782794e+02 0.0 
0.0 0.0 -1.139357295952e+02 
-8.599267692048e+01 5.104015847282e+00 0.0 
5.104015847282e+00 -2.614248578872e+02 0.0 
0.0 0.0 -1.080170446297e+02 
-7.971297168677e+01 5.349317557634e+00 0.0 
5.349317557634e+00 -2.520480163997e+02 0.0 
0.0 0.0 -1.042859052975e+02 
-8.176675013872e+01 1.253887111712e+01 0.0 
1.253887111712e+01 -1.576561660844e+02 0.0 
0.0 0.0 -7.142687486694e+01 
-8.352543545685e+01 1.174190446476e+01 0.0 
1.174190446476e+01 -1.709752855527e+02 0.0 
0.0 0.0 -7.595021630286e+01 
-5.966833932107e+01 -1.405091817814e+01 0.0 
-1.405091817814e+01 -1.731273378048e+02 0.0 
0.0 0.0 -6.917873783070e+01 
-5.599490847153e+01 -1.302140141224e+01 0.0 
-1.302140141224e+01 -1.685223040786e+02 0.0 
0.0 0.0 -6.593416407592e+01 
-6.271730574194e+01 -1.526053472716e+01 0.0 
-1.526053472716e+01 -1.651877709529e+02 0.0 
0.0 0.0 -6.680826746500e+01 
-8.858741179347e+01 1.949961903932e+01 0.0 
1.949961903932e+01 -1.726626095462e+02 0.0 
0.0 0.0 -7.797500640189e+01 
-1.499717390294e+02 2.123021664998e+00 0.0 
2.123021664998e+00 -3.618318149438e+02 0.0 
0.0 0.0 -1.531410661920e+02 
-1.452802465124e+02 2.657196443301e+00 0.0 
2.657196443301e+00 -3.536427637809e+02 0.0 
0.0 0.0 -1.492769030880e+02 
-2.155034232196e+01 -4.103430565781e+00 0.0 
-4.103430565781e+00 -4.866636757852e+01 0.0 
0.0 0.0 -1.831018766002e+01 
-2.961906383367e+01 -7.248619058738e+00 0.0 
-7.248619058738e+00 -6.041006371528e+01 0.0 
0.0 0.0 -2.336400348871e+01 
-4.366470293004e+01 3.150774105261e+01 0.0 
3.150774105261e+01 -8.071463470762e+01 0.0 
0.0 0.0 -3.241379143707e+01 
-4.220081354496e+01 3.115562757069e+01 0.0 
3.115562757069e+01 -8.482361448144e+01 0.0 
0.0 0.0 -3.388515922213e+01 
-9.423790777264e+01 2.830181534253e+01 0.0 
2.830181534253e+01 -1.857253514342e+02 0.0 
0.0 0.0 -8.358897776204e+01 
-9.393118918947e+01 2.953571991349e+01 0.0 
2.953571991349e+01 -1.806531137300e+02 0.0 
0.0 0.0 -8.197529087583e+01 
-9.517352876092e+01 2.742076249781e+01 0.0 
2.742076249781e+01 -1.942786848353e+02 0.0 
0.0 0.0 -8.643566407888e+01 
-4.335815890235e+01 -2.037671820961e+00 0.0 
-2.037671820961e+00 -1.067529500000e+02 0.0 
0.0 0.0 -4.170491442503e+01 
-9.498314655224e+01 2.773661673417e+01 0.0 
2.773661673417e+01 -2.678997532387e+02 0.0 
0.0 0.0 -1.084648699373e+02 
-1.373040768483e+02 1.496286855140e+01 0.0 
1.496286855140e+01 -3.496982386272e+02 0.0 
0.0 0.0 -1.457006946426e+02 
-1.303973320169e+02 1.595491650452e+01 0.0 
1.595491650452e+01 -3.396785811878e+02 0.0 
0.0 0.0 -1.406227739614e+02 
-1.453026356138e+02 1.411213748301e+01 0.0 
1.411213748301e+01 -3.616173541512e+02 0.0 
0.0 0.0 -1.516759969295e+02 
-1.121457140653e+02 2.822986609734e+01 0.0 
2.822986609734e+01 -2.996189772226e+02 0.0 
0.0 0.0 -1.231294073864e+02 
-1.234268738108e+02 2.974345464193e+01 0.0 
2.974345464193e+01 -3.169262255784e+02 0.0 
0.0 0.0 -1.317059298168e+02 
-1.208869461294e+02 3.277706649511e+01 0.0 
3.277706649511e+01 -3.070848174462e+02 0.0 
0.0 0.0 -1.279915290727e+02 
-3.927848337128e+01 9.671624230337e-01 0.0 
9.671624230337e-01 -1.204874735529e+02 0.0 
0.0 0.0 -4.980255959739e+01 
-7.560708734386e+01 2.346824183015e+00 0.0 
2.346824183015e+00 -1.530083201924e+02 0.0 
0.0 0.0 -6.818462226089e+01 
-4.264147621512e+01 1.464686032936e+00 0.0 
1.464686032936e+00 -4.258278991417e+01 0.0 
0.0 0.0 -2.516727983879e+01 
-5.102205642266e+01 -7.377760006363e+00 0.0 
-7.377760006363e+00 -1.155134373162e+02 0.0 
0.0 0.0 -5.140294665555e+01 
-3.775663344035e+01 7.554867678392e-01 0.0 
7.554867678392e-01 -3.357911003492e+01 0.0 
0.0 0.0 -2.100072304258e+01 
-4.206831015313e+01 1.028783179710e+00 0.0 
1.028783179710e+00 -4.495602523069e+01 0.0 
0.0 0.0 -2.570730061515e+01 
-3.272715131648e+01 3.639191334687e-01 0.0 
3.639191334687e-01 -2.352369378503e+01 0.0 
0.0 0.0 -1.647525353045e+01 
-2.943417479018e+01 -1.747891621165e+00 0.0 
-1.747891621165e+00 -8.661956228630e+01 0.0 
0.0 0.0 -3.283914943469e+01 
-4.586407838782e+01 3.722164985128e+00 0.0 
3.722164985128e+00 -3.757870489556e+01 0.0 
0.0 0.0 -2.463283498501e+01 
-5.490448785607e+01 7.301359346380e+00 0.0 
7.301359346380e+00 -5.173199156236e+01 0.0 
0.0 0.0 -3.159094382553e+01 
-1.919391533980e+01 -3.378960507992e+00 0.0 
-3.378960507992e+00 -3.678059094967e+01 0.0 
0.0 0.0 -1.456497810116e+01 
-8.831539712386e+01 1.815807089449e+01 0.0 
1.815807089449e+01 -1.814388528060e+02 0.0 
0.0 0.0 -8.052627497894e+01 
-1.448796928360e+01 -1.635693835469e+00 0.0 
-1.635693835469e+00 -3.781959864033e+01 0.0 
0.0 0.0 -1.396281365172e+01 
-1.572924727820e+01 -1.932140211099e+00 0.0 
-1.932140211099e+00 -4.566220853496e+01 0.0 
0.0 0.0 -1.641797501388e+01 
-1.455094720894e+02 7.948424402837e+00 0.0 
7.948424402837e+00 -3.599210331528e+02 0.0 
0.0 0.0 -1.512291515727e+02 
-1.402409994034e+02 6.349245715757e+00 0.0 
6.349245715757e+00 -3.500394496972e+02 0.0 
0.0 0.0 -1.466841347302e+02 
-1.507319138393e+02 7.222583001753e+00 0.0 
7.222583001753e+00 -3.676506285855e+02 0.0 
0.0 0.0 -1.551147627274e+02 
-1.453755199984e+02 5.743556972806e+00 0.0 
5.743556972806e+00 -3.575924673591e+02 0.0 
0.0 0.0 -1.504903962072e+02 
-1.352491632947e+02 4.942605241590e+00 0.0 
4.942605241590e+00 -3.398383960296e+02 0.0 
0.0 0.0 -1.421262677973e+02 
-1.406599972332e+02 4.525715676752e+00 0.0 
4.525715676752e+00 -3.482469562451e+02 0.0 
0.0 0.0 -1.462720860435e+02 
-3.827098796007e+01 1.211597098422e+00 0.0 
1.211597098422e+00 -3.140801771765e+01 0.0 
0.0 0.0 -2.050370170332e+01 
-1.522353366399e+02 5.339282440488e+00 0.0 
5.339282440488e+00 -3.685336338612e+02 0.0 
0.0 0.0 -1.558306911503e+02 
-1.461558767441e+02 4.047996563222e+00 0.0 
4.047996563222e+00 -3.568659936014e+02 0.0 
0.0 0.0 -1.505065611036e+02 
-1.573618857483e+02 4.615194274495e+00 0.0 
4.615194274495e+00 -3.772331233376e+02 0.0 
0.0 0.0 -1.599785027258e+02 
-4.938166048310e+01 3.093696948221e+01 0.0 
3.093696948221e+01 -5.901316042044e+01 0.0 
0.0 0.0 -2.819654047545e+01 
-4.679328816257e+01 3.220181832133e+01 0.0 
3.220181832133e+01 -9.554353525983e+01 0.0 
0.0 0.0 -4.028511740098e+01 
-4.555420823000e+01 3.181208483612e+01 0.0 
3.181208483612e+01 -7.662446551829e+01 0.0 
0.0 0.0 -3.387506287888e+01 
-4.435968117869e+01 3.108580899509e+01 0.0 
3.108580899509e+01 -5.568574557430e+01 0.0 
0.0 0.0 -2.697136472514e+01 
-1.146946116891e+02 3.970363953881e+01 0.0 
3.970363953881e+01 -2.723296912274e+02 0.0 
0.0 0.0 -1.157072908749e+02 
-1.079775112110e+02 3.857269403340e+01 0.0 
3.857269403340e+01 -2.524870635171e+02 0.0 
0.0 0.0 -1.077393724184e+02 
-1.304865568713e+02 6.071106084576e-01 0.0 
6.071106084576e-01 -3.225399050880e+02 0.0 
0.0 0.0 -1.354685676236e+02 
-1.232413845798e+02 2.294350277957e-01 0.0 
2.294350277957e-01 -3.031219488370e+02 0.0 
0.0 0.0 -1.268129576838e+02 
-3.703163387347e+01 4.725916320636e-01 0.0 
4.725916320636e-01 -3.468821426750e+01 0.0 
0.0 0.0 -2.111595444229e+01 
-3.612666100572e+01 3.689092151785e-01 0.0 
3.689092151785e-01 -3.362592385271e+01 0.0 
0.0 0.0 -2.052577545753e+01 
-4.360781411715e+01 6.697101716880e-01 0.0 
6.697101716880e-01 -5.155700705364e+01 0.0 
0.0 0.0 -2.814944635124e+01 
-4.216413589578e+01 5.617452900994e-01 0.0 
5.617452900994e-01 -4.907209680558e+01 0.0 
0.0 0.0 -2.697086981041e+01 
-4.931247526836e+01 9.180646609208e-01 0.0 
9.180646609208e-01 -6.722486762455e+01 0.0 
0.0 0.0 -3.456120286787e+01 
-4.795394710061e+01 6.954500588399e-01 0.0 
6.954500588399e-01 -6.445301464145e+01 0.0 
0.0 0.0 -3.332208852262e+01 
-5.498084301669e+01 1.341009374905e+00 0.0 
1.341009374905e+00 -8.310387335527e+01 0.0 
0.0 0.0 -4.102541491159e+01 
-1.248924689991e+02 3.552939542282e+01 0.0 
3.552939542282e+01 -3.101101437642e+02 0.0 
0.0 0.0 -1.301007838290e+02 
-4.532075901464e+01 3.159079645893e+01 0.0 
3.159079645893e+01 -5.827035618734e+01 0.0 
0.0 0.0 -2.741912355608e+01 
-5.348748731786e+01 3.094389932469e+01 0.0 
3.094389932469e+01 -5.827568707509e+01 0.0 
0.0 0.0 -3.094673132641e+01 
-1.325726815829e+02 2.550002528979e+01 0.0 
2.550002528979e+01 -3.370694478127e+02 0.0 
0.0 0.0 -1.404926388187e+02 
-1.264413463069e+02 2.277056741353e+01 0.0 
2.277056741353e+01 -3.298711142890e+02 0.0 
0.0 0.0 -1.364937381788e+02 
-5.114934132280e+01 3.214404034147e+01 0.0 
3.214404034147e+01 -7.931458760684e+01 0.0 
0.0 0.0 -3.378835774407e+01 
-4.666274931226e+01 3.076056767323e+01 0.0 
3.076056767323e+01 -5.968471882055e+01 0.0 
0.0 0.0 -2.643109826187e+01 
-1.466010041018e+02 1.070213522493e+01 0.0 
1.070213522493e+01 -3.630947913020e+02 0.0 
0.0 0.0 -1.525087386211e+02 
-4.936699240521e+01 2.722367281767e+01 0.0 
2.722367281767e+01 -1.456705401707e+02 0.0 
0.0 0.0 -5.666026464509e+01 
-9.170067625910e+01 2.180348739076e+01 0.0 
2.180348739076e+01 -1.975819802601e+02 0.0 
0.0 0.0 -8.638479695575e+01 
-6.423176791176e+01 2.835657748381e+01 0.0 
2.835657748381e+01 -8.594635901023e+01 0.0 
0.0 0.0 -4.586864416874e+01 
-4.315569685749e+01 2.600200554898e+01 0.0 
2.600200554898e+01 -1.002852520033e+02 0.0 
0.0 0.0 -4.455961618733e+01 
-5.173934563414e+01 2.906081768397e+01 0.0 
2.906081768397e+01 -1.473391466047e+02 0.0 
0.0 0.0 -5.879933209535e+01 
-5.611661914366e+01 3.319054488340e+01 0.0 
3.319054488340e+01 -9.858885039809e+01 0.0 
0.0 0.0 -4.160389128906e+01 
-4.803588221499e+01 3.231213411578e+01 0.0 
3.231213411578e+01 -9.589718125631e+01 0.0 
0.0 0.0 -4.047658612622e+01 
-4.670124760126e+01 3.202218244456e+01 0.0 
3.202218244456e+01 -7.805977031972e+01 0.0 
0.0 0.0 -3.409659956518e+01 
-1.041515767032e+02 9.689961163382e+00 0.0 
9.689961163382e+00 -2.970441729609e+02 0.0 
0.0 0.0 -1.204770174277e+02 
-2.950822420732e+01 -7.315671349009e+00 0.0 
-7.315671349009e+00 -5.336846893165e+01 0.0 
0.0 0.0 -2.101522136262e+01 
-4.479589961641e+01 3.166285504777e+01 0.0 
3.166285504777e+01 -7.902128282975e+01 0.0 
0.0 0.0 -3.276813260487e+01 
-5.652892057942e+01 1.794276372662e+00 0.0 
1.794276372662e+00 -8.546907936237e+01 0.0 
0.0 0.0 -4.219939998254e+01 
-4.607565470159e+01 3.280255084527e+01 0.0 
3.280255084527e+01 -6.101533244545e+01 0.0 
0.0 0.0 -2.771797793401e+01 
-1.269552699734e+02 1.993597273289e-01 0.0 
1.993597273289e-01 -3.132154754747e+02 0.0 
0.0 0.0 -1.313811162316e+02 
-5.080257004260e+01 2.418173541765e+01 0.0 
2.418173541765e+01 -1.606972287729e+02 0.0 
0.0 0.0 -6.165248645884e+01 
-6.114849723561e+01 3.333034564880e+01 0.0 
3.333034564880e+01 -1.361401551439e+02 0.0 
0.0 0.0 -5.523708863154e+01 
-4.439404791722e+01 3.030059093890e+01 0.0 
3.030059093890e+01 -9.623545939237e+01 0.0 
0.0 0.0 -3.801072821495e+01 
-4.767262027922e+01 3.172410034478e+01 0.0 
3.172410034478e+01 -1.142779945284e+02 0.0 
0.0 0.0 -4.669543772725e+01 
-7.004585528102e+01 3.323255537394e+01 0.0 
3.323255537394e+01 -1.193853641659e+02 0.0 
0.0 0.0 -5.620679418749e+01 
-6.427252348078e+01 2.924226114137e+01 0.0 
2.924226114137e+01 -8.000574296960e+01 0.0 
0.0 0.0 -4.265418477974e+01 
-6.241732009786e+01 3.080777389280e+01 0.0 
3.080777389280e+01 -7.884647425702e+01 0.0 
0.0 0.0 -4.115575681677e+01 
-5.254228623331e+01 2.068599197426e+01 0.0 
2.068599197426e+01 -1.745310111418e+02 0.0 
0.0 0.0 -6.656278026398e+01 
-4.788384206945e+01 3.192947718140e+01 0.0 
3.192947718140e+01 -7.894529048083e+01 0.0 
0.0 0.0 -3.395814213354e+01 
-4.443968726193e+01 3.097324752822e+01 0.0 
3.097324752822e+01 -5.692293779860e+01 0.0 
0.0 0.0 -2.670120048759e+01 
-6.788309034304e+01 3.472472760968e+01 0.0 
3.472472760968e+01 -1.371777210897e+02 0.0 
0.0 0.0 -5.968234015561e+01 
-8.898194389988e+01 2.763006059200e+01 0.0 
2.763006059200e+01 -1.582803964085e+02 0.0 
0.0 0.0 -7.377870209251e+01 
-9.245557916910e+01 3.046058680854e+01 0.0 
3.046058680854e+01 -1.753419218950e+02 0.0 
0.0 0.0 -7.993925031922e+01 
-9.720984881685e+01 3.225229913874e+01 0.0 
3.225229913874e+01 -1.968010902661e+02 0.0 
0.0 0.0 -8.780328172489e+01 
-9.612953345270e+01 3.300619128490e+01 0.0 
3.300619128490e+01 -1.927776690595e+02 0.0 
0.0 0.0 -8.627216075365e+01 
-9.072321087712e+01 3.150569215322e+01 0.0 
3.150569215322e+01 -1.710974581724e+02 0.0 
0.0 0.0 -7.814620071485e+01 
-9.432328548933e+01 3.371016769413e+01 0.0 
3.371016769413e+01 -1.888944907163e+02 0.0 
0.0 0.0 -8.456533286168e+01 
-9.972540234600e+01 3.517633786906e+01 0.0 
3.517633786906e+01 -2.099822795298e+02 0.0 
0.0 0.0 -9.251230456273e+01 
-9.835567889906e+01 3.562641851809e+01 0.0 
3.562641851809e+01 -2.073874062424e+02 0.0 
0.0 0.0 -9.132292554244e+01 
-1.052283105641e+02 3.779886026620e+01 0.0 
3.779886026620e+01 -2.315127491708e+02 0.0 
0.0 0.0 -1.006223179205e+02 
-1.023904022291e+02 3.734049152888e+01 0.0 
3.734049152888e+01 -2.252676786166e+02 0.0 
0.0 0.0 -9.789742425372e+01 
-9.554010581316e+01 3.574617975614e+01 0.0 
3.574617975614e+01 -2.036317428787e+02 0.0 
0.0 0.0 -8.935155460757e+01 
-9.928818075298e+01 3.690975776330e+01 0.0 
3.690975776330e+01 -2.208167146260e+02 0.0 
0.0 0.0 -9.563146861368e+01 
-1.061380108714e+02 3.861644407368e+01 0.0 
3.861644407368e+01 -2.407312677338e+02 0.0 
0.0 0.0 -1.036607835816e+02 
-9.242949415324e+01 3.584933876965e+01 0.0 
3.584933876965e+01 -2.001323277808e+02 0.0 
0.0 0.0 -8.736854658021e+01 
-1.380437470231e+02 2.814053467780e+01 0.0 
2.814053467780e+01 -3.424137287196e+02 0.0 
0.0 0.0 -1.437372427228e+02 
-5.595821145052e+01 2.838673457223e+01 0.0 
2.838673457223e+01 -1.648341002651e+02 0.0 
0.0 0.0 -6.612232801484e+01 
-3.338348009785e+01 1.327209450108e+01 0.0 
1.327209450108e+01 -1.166332474504e+02 0.0 
0.0 0.0 -4.731975160218e+01 
-4.084826493377e+01 3.245164850515e+01 0.0 
3.245164850515e+01 -8.854310179442e+01 0.0 
0.0 0.0 -3.910139029655e+01 
-6.345022130011e+01 3.393228650252e+01 0.0 
3.393228650252e+01 -1.365692661250e+02 0.0 
0.0 0.0 -5.633229189785e+01 
-1.091192775890e+02 3.950809292773e+01 0.0 
3.950809292773e+01 -2.474801788314e+02 0.0 
0.0 0.0 -1.065798369261e+02 
-1.034371685949e+02 3.545975280286e+01 0.0 
3.545975280286e+01 -2.295895237898e+02 0.0 
0.0 0.0 -9.950800771540e+01 
-4.517833958174e+01 2.180005784425e+01 0.0 
2.180005784425e+01 -1.442318649757e+02 0.0 
0.0 0.0 -5.296829068246e+01 
-1.247726801036e+02 4.194844845997e+01 0.0 
4.194844845997e+01 -2.952646010947e+02 0.0 
0.0 0.0 -1.256111843595e+02 
-6.510451747972e+01 3.261121325795e+01 0.0 
3.261121325795e+01 -9.872027061932e+01 0.0 
0.0 0.0 -4.790630550801e+01 
-3.797838166924e+01 1.472690512007e+01 0.0 
1.472690512007e+01 -1.306978166838e+02 0.0 
0.0 0.0 -4.718062453155e+01 
-1.308278655652e+02 4.011507373894e+01 0.0 
4.011507373894e+01 -3.131370344213e+02 0.0 
0.0 0.0 -1.327894699960e+02 
-8.722768207975e+01 2.894747047089e+01 0.0 
2.894747047089e+01 -1.532734385643e+02 0.0 
0.0 0.0 -7.175033619321e+01 
-8.494765336461e+01 3.027633824807e+01 0.0 
3.027633824807e+01 -1.488139464592e+02 0.0 
0.0 0.0 -6.972847994713e+01 
-8.151207447169e+01 2.762170661579e+01 0.0 
2.762170661579e+01 -1.307475584806e+02 0.0 
0.0 0.0 -6.327788988570e+01 
-9.874866221502e+01 3.081908007985e+01 0.0 
3.081908007985e+01 -2.168188579512e+02 0.0 
0.0 0.0 -9.427025604988e+01 
-6.389557103574e+01 1.026374911196e+01 0.0 
1.026374911196e+01 -7.408837752867e+01 0.0 
0.0 0.0 -4.099518456932e+01 
-1.417118061266e+02 3.358312195263e+01 0.0 
3.358312195263e+01 -3.423232950022e+02 0.0 
0.0 0.0 -1.448105303386e+02 
-7.732401753934e+01 1.834656502435e+01 0.0 
1.834656502435e+01 -2.503083266192e+02 0.0 
0.0 0.0 -1.021467107684e+02 
-7.344106205386e+01 2.043663422053e+01 0.0 
2.043663422053e+01 -2.382145903175e+02 0.0 
0.0 0.0 -9.719616201474e+01 
-6.726882828129e+01 2.026706829714e+01 0.0 
2.026706829714e+01 -2.216776201279e+02 0.0 
0.0 0.0 -9.027470750247e+01 
-9.186577125820e+01 3.423044578473e+01 0.0 
3.423044578473e+01 -1.853140867099e+02 0.0 
0.0 0.0 -8.275395739042e+01 
-1.495043249895e+02 2.478829975937e+01 0.0 
2.478829975937e+01 -3.625783069671e+02 0.0 
0.0 0.0 -1.532247895870e+02 
-1.397964352443e+02 2.219550572518e+01 0.0 
2.219550572518e+01 -3.506488924098e+02 0.0 
0.0 0.0 -1.467335982962e+02 
-1.415667649356e+02 2.027881387336e+01 0.0 
2.027881387336e+01 -3.542597001534e+02 0.0 
0.0 0.0 -1.483479395267e+02 
-1.296098659723e+02 1.963856840413e+01 0.0 
1.963856840413e+01 -3.369934632071e+02 0.0 
0.0 0.0 -1.395809987538e+02 
-1.530468486587e+02 2.044164079203e+01 0.0 
2.044164079203e+01 -3.704220540540e+02 0.0 
0.0 0.0 -1.566406708138e+02 
-1.159066774879e+02 4.187936344780e+01 0.0 
4.187936344780e+01 -2.679754281044e+02 0.0 
0.0 0.0 -1.147646316777e+02 
-1.191114065616e+02 4.240542605882e+01 0.0 
4.240542605882e+01 -2.778814255754e+02 0.0 
0.0 0.0 -1.186978496411e+02 
-5.224444160104e+01 -1.514138588417e+01 0.0 
-1.514138588417e+01 -1.522251696913e+02 0.0 
0.0 0.0 -5.814804168664e+01 
-5.225842724147e+01 -1.132817581481e+01 0.0 
-1.132817581481e+01 -1.641108385550e+02 0.0 
0.0 0.0 -6.228081777097e+01 
-5.640357087295e+01 -9.203307101304e+00 0.0 
-9.203307101304e+00 -1.793383191274e+02 0.0 
0.0 0.0 -6.976801265702e+01 
-5.249232264379e+01 -6.595159918180e+00 0.0 
-6.595159918180e+00 -1.741589535794e+02 0.0 
0.0 0.0 -6.580851919334e+01 
-4.836493907298e+01 -8.737133638574e+00 0.0 
-8.737133638574e+00 -1.597351615359e+02 0.0 
0.0 0.0 -5.901493905997e+01 
-4.866947494068e+01 -3.099454922510e+00 0.0 
-3.099454922510e+00 -1.684436452620e+02 0.0 
0.0 0.0 -6.210705246314e+01 
-5.317542869736e+01 -1.444296856342e+00 0.0 
-1.444296856342e+00 -1.822054677618e+02 0.0 
0.0 0.0 -6.869374442950e+01 
-4.519809571621e+01 1.463823147280e+00 0.0 
1.463823147280e+00 -1.618096701641e+02 0.0 
0.0 0.0 -5.861644829752e+01 
-1.004883537244e+02 3.719370987908e+01 0.0 
3.719370987908e+01 -2.340841702873e+02 0.0 
0.0 0.0 -9.997175720353e+01 
-1.561801757918e+02 1.626050671002e+01 0.0 
1.626050671002e+01 -3.766387557276e+02 0.0 
0.0 0.0 -1.594456794558e+02 
-9.604144905590e+01 2.090984976440e+00 0.0 
2.090984976440e+00 -2.702803609801e+02 0.0 
0.0 0.0 -1.102731460467e+02 
-9.078283030101e+01 1.921294377083e+00 0.0 
1.921294377083e+00 -2.617765165697e+02 0.0 
0.0 0.0 -1.075190969442e+02 
-8.463933504380e+01 -1.385136162302e+00 0.0 
-1.385136162302e+00 -2.437627053618e+02 0.0 
0.0 0.0 -1.004535161986e+02 
-8.705245562074e+01 -6.328716720208e+00 0.0 
-6.328716720208e+00 -2.029323866184e+02 0.0 
0.0 0.0 -8.157123794559e+01 
-8.969681603710e+01 -6.028816702943e+00 0.0 
-6.028816702943e+00 -2.149675382696e+02 0.0 
0.0 0.0 -8.676319493307e+01 
-9.617253766085e+01 -4.282170024273e+00 0.0 
-4.282170024273e+00 -2.346779813138e+02 0.0 
0.0 0.0 -9.503843543070e+01 
-8.382879963763e+01 -6.250051470093e+00 0.0 
-6.250051470093e+00 -1.907604234832e+02 0.0 
0.0 0.0 -7.631384984253e+01 
-8.508273909666e+01 3.034050890002e+01 0.0 
3.034050890002e+01 -2.396097380059e+02 0.0 
0.0 0.0 -9.699884966088e+01 
-1.572722913472e+02 1.439973574023e+01 0.0 
1.439973574023e+01 -3.785877841896e+02 0.0 
0.0 0.0 -1.603580226610e+02 
-8.173188252259e+01 8.693886923047e+00 0.0 
8.693886923047e+00 -2.596055539073e+02 0.0 
0.0 0.0 -1.071847886846e+02 
-8.505219519165e+01 -7.399768818410e+00 0.0 
-7.399768818410e+00 -2.069818002992e+02 0.0 
0.0 0.0 -8.390449375912e+01 
-4.239590376109e+01 5.076469887668e+00 0.0 
5.076469887668e+00 -1.952793322468e+01 0.0 
0.0 0.0 -1.817715109573e+01 
-5.541481877314e+01 1.164680903815e+01 0.0 
1.164680903815e+01 -4.134633841268e+01 0.0 
0.0 0.0 -2.862834715575e+01 
-6.059308330755e+01 1.731895497718e+01 0.0 
1.731895497718e+01 -4.819622242760e+01 0.0 
0.0 0.0 -3.223679172055e+01 
-6.597894315121e+01 1.782564349938e+01 0.0 
1.782564349938e+01 -6.807649082444e+01 0.0 
0.0 0.0 -3.981663019269e+01 
-5.194341949156e+01 7.986269346010e+00 0.0 
7.986269346010e+00 -4.004221999070e+01 0.0 
0.0 0.0 -2.719569184468e+01 
-1.017166590214e+02 -2.945848895341e+00 0.0 
-2.945848895341e+00 -2.390462853026e+02 0.0 
0.0 0.0 -9.799233095033e+01 
-1.052758977819e+02 -2.107043861474e+00 0.0 
-2.107043861474e+00 -2.472374346839e+02 0.0 
0.0 0.0 -1.019050088642e+02 
-1.025028047275e+02 -2.127584620420e+00 0.0 
-2.127584620420e+00 -2.358795392984e+02 0.0 
0.0 0.0 -9.721593098246e+01 
-1.086515613316e+02 -1.366720732609e+00 0.0 
-1.366720732609e+00 -2.555097799362e+02 0.0 
0.0 0.0 -1.057671188065e+02 
-1.056657642414e+02 -1.289151327460e+00 0.0 
-1.289151327460e+00 -2.438473141372e+02 0.0 
0.0 0.0 -1.009032456939e+02 
-9.971557967461e+01 -1.829664784376e+00 0.0 
-1.829664784376e+00 -2.254954530305e+02 0.0 
0.0 0.0 -9.296508001408e+01 
-1.117444309125e+02 -7.275623450242e-01 0.0 
-7.275623450242e-01 -2.634933650677e+02 0.0 
0.0 0.0 -1.094447050994e+02 
-1.081557973601e+02 -7.242009432884e-01 0.0 
-7.242009432884e-01 -2.506469336212e+02 0.0 
0.0 0.0 -1.039676982055e+02 
-3.524864593185e+01 1.741274514346e+00 0.0 
1.741274514346e+00 -1.755654288717e+01 0.0 
0.0 0.0 -1.544155664571e+01 
-4.799478254557e+01 -2.437740355798e+01 0.0 
-2.437740355798e+01 -4.724826553487e+01 0.0 
0.0 0.0 -2.853541651369e+01 
-4.338611364660e+01 -2.487667202793e+01 0.0 
-2.487667202793e+01 -5.891752916012e+01 0.0 
0.0 0.0 -2.688958256270e+01 
-3.795149755727e+01 -1.604218504812e+01 0.0 
-1.604218504812e+01 -4.468122954507e+01 0.0 
0.0 0.0 -1.948995870290e+01 
-4.431119125308e+01 -2.257191079869e+01 0.0 
-2.257191079869e+01 -7.230112530324e+01 0.0 
0.0 0.0 -2.847951586904e+01 
-4.219429326647e+01 -2.509666456319e+01 0.0 
-2.509666456319e+01 -8.847674910261e+01 0.0 
0.0 0.0 -3.550098644457e+01 
-4.444496581360e+01 -2.229804622766e+01 0.0 
-2.229804622766e+01 -9.916710469127e+01 0.0 
0.0 0.0 -3.744066052588e+01 
-4.056934995147e+01 -2.152557612157e+01 0.0 
-2.152557612157e+01 -1.080725289386e+02 0.0 
0.0 0.0 -4.020638787979e+01 
-4.258993603979e+01 -2.862644540741e+01 0.0 
-2.862644540741e+01 -8.215420548060e+01 0.0 
0.0 0.0 -3.746284984215e+01 
-2.493730926835e+01 -6.418039449777e+00 0.0 
-6.418039449777e+00 -2.018092220341e+01 0.0 
0.0 0.0 -1.181356350880e+01 
-3.139802474402e+01 -9.996863588288e+00 0.0 
-9.996863588288e+00 -3.908184941875e+01 0.0 
0.0 0.0 -1.711247492106e+01 
-1.859323479359e+01 -3.118135670894e+00 0.0 
-3.118135670894e+00 -1.837568466743e+01 0.0 
0.0 0.0 -9.666944865079e+00 
-2.571366597748e+01 -6.369159573552e+00 0.0 
-6.369159573552e+00 -3.607093884400e+01 0.0 
0.0 0.0 -1.520990777774e+01 
-3.727169267339e+01 -1.219883467877e+01 0.0 
-1.219883467877e+01 -5.919770391713e+01 0.0 
0.0 0.0 -2.378254760135e+01 
-3.817707041650e+01 -1.054293808696e+01 0.0 
-1.054293808696e+01 -8.187106874091e+01 0.0 
0.0 0.0 -3.227842158239e+01 
-1.607598489717e+02 2.418520649630e+00 0.0 
2.418520649630e+00 -3.817906963846e+02 0.0 
0.0 0.0 -1.623651636069e+02 
-8.878711534497e+01 -9.920393262350e-01 0.0 
-9.920393262350e-01 -1.937236433843e+02 0.0 
0.0 0.0 -7.953695886661e+01 
-8.451574712809e+01 -2.089933251069e+00 0.0 
-2.089933251069e+00 -1.839847662931e+02 0.0 
0.0 0.0 -7.515674720556e+01 
-7.598491164120e+01 -2.237617692392e+00 0.0 
-2.237617692392e+00 -1.640578138235e+02 0.0 
0.0 0.0 -6.660977431735e+01 
-8.043683428462e+01 -3.163249948607e+00 0.0 
-3.163249948607e+00 -1.752992804613e+02 0.0 
0.0 0.0 -7.107906445843e+01 
-9.177772444737e+01 -1.824036187102e+00 0.0 
-1.824036187102e+00 -2.020831949866e+02 0.0 
0.0 0.0 -8.296216805731e+01 
-7.072593906650e+01 -1.152614429281e+00 0.0 
-1.152614429281e+00 -1.527599815608e+02 0.0 
0.0 0.0 -6.193625803083e+01 
-6.659024170292e+01 -2.265860799723e+00 0.0 
-2.265860799723e+00 -1.455770950905e+02 0.0 
0.0 0.0 -5.862028329232e+01 
-7.566673548783e+00 -7.484729094455e-02 0.0 
-7.484729094455e-02 -1.723919449425e+01 0.0 
0.0 0.0 -5.372573619774e+00 
-9.470608450356e+00 -2.401351017305e-01 0.0 
-2.401351017305e-01 -3.370387006133e+01 0.0 
0.0 0.0 -1.026466924613e+01 
-9.144780176508e+00 -2.577465488103e-01 0.0 
-2.577465488103e-01 -3.200767188192e+01 0.0 
0.0 0.0 -9.689636057042e+00 
-1.214347876784e+01 -5.252099405699e-01 0.0 
-5.252099405699e-01 -5.048692385435e+01 0.0 
0.0 0.0 -1.673351381862e+01 
-1.260406322494e+01 -7.050520031588e-01 0.0 
-7.050520031588e-01 -5.024655830756e+01 0.0 
0.0 0.0 -1.676705089406e+01 
-1.010753195946e+01 -4.801053477922e-01 0.0 
-4.801053477922e-01 -3.414666496084e+01 0.0 
0.0 0.0 -1.056365578300e+01 
-1.048143758927e+01 -7.825429784287e-01 0.0 
-7.825429784287e-01 -3.416617664982e+01 0.0 
0.0 0.0 -1.075889365517e+01 
-8.189135942967e+00 -3.590939405097e-01 0.0 
-3.590939405097e-01 -1.706724300992e+01 0.0 
0.0 0.0 -5.501912208387e+00 
-1.104084295235e+01 -9.345286103927e-01 0.0 
-9.345286103927e-01 -3.391257239394e+01 0.0 
0.0 0.0 -1.101484160128e+01 
-1.432899469434e+01 -1.581520322144e+00 0.0 
-1.581520322144e+00 -5.116305471898e+01 0.0 
0.0 0.0 -1.757928998174e+01 
-8.577975215515e+00 -4.419473471997e-01 0.0 
-4.419473471997e-01 -1.646210994642e+01 0.0 
0.0 0.0 -5.515802088518e+00 
-6.329538590311e+01 8.714590569245e-01 0.0 
8.714590569245e-01 -1.098501133322e+02 0.0 
0.0 0.0 -5.154364977059e+01 
-6.671076561404e+01 1.812100591383e+00 0.0 
1.812100591383e+00 -1.209589670693e+02 0.0 
0.0 0.0 -5.590091980500e+01 
-1.583913994986e+02 1.084076415467e+01 0.0 
1.084076415467e+01 -3.805593760531e+02 0.0 
0.0 0.0 -1.612852326655e+02 
-3.311569846918e+01 9.009077301877e-01 0.0 
9.009077301877e-01 -1.936557747576e+01 0.0 
0.0 0.0 -1.534438278348e+01 
-1.260108999725e+01 -7.416613818916e-01 0.0 
-7.416613818916e-01 -1.693196175948e+01 0.0 
0.0 0.0 -8.175786873588e+00 
-8.387743104835e+01 7.504909518426e+00 0.0 
7.504909518426e+00 -1.842377153663e+02 0.0 
0.0 0.0 -8.003454392438e+01 
-8.755948325245e+01 1.418716004400e+01 0.0 
1.418716004400e+01 -1.916457733686e+02 0.0 
0.0 0.0 -8.336157698631e+01 
-8.637062829358e+01 1.186644600544e+01 0.0 
1.186644600544e+01 -1.902916812927e+02 0.0 
0.0 0.0 -8.259869287589e+01 
-1.455401283882e+02 4.511552377038e-01 0.0 
4.511552377038e-01 -3.522091955298e+02 0.0 
0.0 0.0 -1.489247971754e+02 
-1.504093434984e+02 1.019759799336e+00 0.0 
1.019759799336e+00 -3.617091935433e+02 0.0 
0.0 0.0 -1.532355611125e+02 
-8.285858393149e+01 4.146879576909e+00 0.0 
4.146879576909e+00 -1.837436612589e+02 0.0 
0.0 0.0 -7.958067355711e+01 
-5.734575266402e+01 -1.164019078602e+01 0.0 
-1.164019078602e+01 -1.321735153589e+02 0.0 
0.0 0.0 -5.278012889728e+01 
-1.014611286649e+02 3.494428981509e+01 0.0 
3.494428981509e+01 -2.138657092030e+02 0.0 
0.0 0.0 -9.419805136037e+01 
-7.654952624472e+01 7.128945477416e+00 0.0 
7.128945477416e+00 -1.477152740292e+02 0.0 
0.0 0.0 -6.687944008217e+01 
-3.876669970740e+01 2.195031183844e+01 0.0 
2.195031183844e+01 -1.164256055996e+02 0.0 
0.0 0.0 -4.209961798931e+01 
-5.507946962171e+01 -1.652104146471e+01 0.0 
-1.652104146471e+01 -1.318085615649e+02 0.0 
0.0 0.0 -5.313892417047e+01 
-1.201659106566e+02 1.054970875510e-01 0.0 
1.054970875510e-01 -2.943388981265e+02 0.0 
0.0 0.0 -1.228079217141e+02 
-1.076114999607e+02 -6.719147027515e-01 0.0 
-6.719147027515e-01 -2.731149290439e+02 0.0 
0.0 0.0 -1.120800495810e+02 
-1.354535024251e+02 2.142217980975e+00 0.0 
2.142217980975e+00 -3.350618717225e+02 0.0 
0.0 0.0 -1.407546122443e+02 
-1.133978397691e+02 -6.159840706161e-01 0.0 
-6.159840706161e-01 -2.778750266113e+02 0.0 
0.0 0.0 -1.151065425374e+02 
-1.258568472085e+02 2.525283526927e+00 0.0 
2.525283526927e+00 -3.189475142036e+02 0.0 
0.0 0.0 -1.329965579130e+02 
-1.423965206077e+02 1.776235228796e+01 0.0 
1.776235228796e+01 -3.567471656919e+02 0.0 
0.0 0.0 -1.493431058899e+02 
-2.543757246202e+01 -2.371261253690e+00 0.0 
-2.371261253690e+00 -8.006626387164e+01 0.0 
0.0 0.0 -2.986662977416e+01 
-5.701322980277e+01 4.464633499996e+00 0.0 
4.464633499996e+00 -7.326555477249e+01 0.0 
0.0 0.0 -3.868363537258e+01 
-5.036383474116e+01 1.974427300757e+00 0.0 
1.974427300757e+00 -6.510623001222e+01 0.0 
0.0 0.0 -3.424101942602e+01 
-6.908077244460e+01 6.195422049695e+00 0.0 
6.195422049695e+00 -1.157960636518e+02 0.0 
0.0 0.0 -5.506305082892e+01 
-6.101772366554e+01 -7.049628761905e+00 0.0 
-7.049628761905e+00 -1.368865666633e+02 0.0 
0.0 0.0 -5.345365672073e+01 
-9.599560972386e+01 -2.772436284165e+00 0.0 
-2.772436284165e+00 -2.165790904942e+02 0.0 
0.0 0.0 -8.880821338397e+01 
-3.455135728242e+01 -7.187615385730e+00 0.0 
-7.187615385730e+00 -8.606569682355e+01 0.0 
0.0 0.0 -3.241516812352e+01 
-1.210885286221e+02 3.858780267645e+01 0.0 
3.858780267645e+01 -2.943843711818e+02 0.0 
0.0 0.0 -1.242418699412e+02 
-6.313896952241e+01 3.419458108954e+01 0.0 
3.419458108954e+01 -1.177429601615e+02 0.0 
0.0 0.0 -5.142688762369e+01 
-8.406416765122e+01 -4.161997259371e+00 0.0 
-4.161997259371e+00 -2.336275980646e+02 0.0 
0.0 0.0 -9.602593064641e+01 
-7.939162292575e+01 -7.713881090551e+00 0.0 
-7.713881090551e+00 -1.824990611134e+02 0.0 
0.0 0.0 -7.318829910729e+01 
-6.167913854662e+01 -1.285314975628e+01 0.0 
-1.285314975628e+01 -1.452521795315e+02 0.0 
0.0 0.0 -5.852094803117e+01 
-5.289621539075e+01 -1.761032936017e+01 0.0 
-1.761032936017e+01 -1.266661272040e+02 0.0 
0.0 0.0 -5.054291383738e+01 
-5.904844343535e+01 2.982211918051e+01 0.0 
2.982211918051e+01 -1.677175604259e+02 0.0 
0.0 0.0 -6.740821055247e+01 
-8.705227617923e+01 -6.546309578398e+00 0.0 
-6.546309578398e+00 -2.188953054264e+02 0.0 
0.0 0.0 -8.910061852707e+01 
-1.145357570921e+02 4.196361551646e+00 0.0 
4.196361551646e+00 -3.051226971505e+02 0.0 
0.0 0.0 -1.254581941532e+02 
-7.115307121745e+01 5.849928928861e+00 0.0 
5.849928928861e+00 -1.267816289458e+02 0.0 
0.0 0.0 -5.898041004897e+01 
-1.073765503610e+01 -6.203019522692e-01 0.0 
-6.203019522692e-01 -1.890709155063e+01 0.0 
0.0 0.0 -7.561702477628e+00 
-1.185946863854e+02 5.998239403634e+00 0.0 
5.998239403634e+00 -3.151794908307e+02 0.0 
0.0 0.0 -1.297322531648e+02 
-9.917846356170e+01 -1.865918812764e+00 0.0 
-1.865918812764e+00 -2.573226560882e+02 0.0 
0.0 0.0 -1.046058271258e+02 
-6.598976437132e+01 9.686481382152e+00 0.0 
9.686481382152e+00 -8.430708904047e+01 0.0 
0.0 0.0 -4.468905602354e+01 
-1.041986648725e+02 1.966408070307e+01 0.0 
1.966408070307e+01 -2.962839772484e+02 0.0 
0.0 0.0 -1.199648621421e+02 
-4.740607134231e+01 -2.087252848828e+01 0.0 
-2.087252848828e+01 -1.012255687083e+02 0.0 
0.0 0.0 -3.848563472901e+01 
-7.597348911370e+01 1.118746164467e+01 0.0 
1.118746164467e+01 -1.263507310751e+02 0.0 
0.0 0.0 -6.029726605665e+01 
-9.096771093606e+01 2.364152685886e+01 0.0 
2.364152685886e+01 -1.766184083440e+02 0.0 
0.0 0.0 -7.987583578402e+01 
-6.189297813620e+01 1.139525598758e+01 0.0 
1.139525598758e+01 -6.414746281083e+01 0.0 
0.0 0.0 -3.741213228411e+01 
-2.362271731382e+01 -4.760197605052e+00 0.0 
-4.760197605052e+00 -6.540269254829e+01 0.0 
0.0 0.0 -2.387431772078e+01 
-4.818147066459e+01 2.601382242515e+00 0.0 
2.601382242515e+00 -5.248056885016e+01 0.0 
0.0 0.0 -2.979861185443e+01 
-1.391070723749e+02 1.156103290698e+01 0.0 
1.156103290698e+01 -3.518515064990e+02 0.0 
0.0 0.0 -1.468875736622e+02 
-8.525844765481e+01 2.445892721557e+01 0.0 
2.445892721557e+01 -1.415735761193e+02 0.0 
0.0 0.0 -6.764960713223e+01 
-5.486988424527e+01 -5.757295912607e+00 0.0 
-5.757295912607e+00 -1.246138110774e+02 0.0 
0.0 0.0 -4.821742484719e+01 
-6.924902885770e+01 7.932676904170e+00 0.0 
7.932676904170e+00 -2.329264320786e+02 0.0 
0.0 0.0 -9.531479098279e+01 
-6.331089628266e+01 3.275773473810e+01 0.0 
3.275773473810e+01 -1.539864204298e+02 0.0 
0.0 0.0 -6.205742878277e+01 
-5.331245519026e+01 2.902891698953e+01 0.0 
2.902891698953e+01 -3.752194815043e+01 0.0 
0.0 0.0 -2.566389562264e+01 
-7.953106740475e+01 9.076725520951e+00 0.0 
9.076725520951e+00 -1.574485665547e+02 0.0 
0.0 0.0 -7.069389018784e+01 
-6.786260050267e+01 2.502457839581e+01 0.0 
2.502457839581e+01 -2.127181147187e+02 0.0 
0.0 0.0 -8.613110962330e+01 
-1.172500238058e+02 1.773465610278e+01 0.0 
1.773465610278e+01 -3.187352248847e+02 0.0 
0.0 0.0 -1.303955746072e+02 
-8.470717001156e+01 1.196405413051e+01 0.0 
1.196405413051e+01 -2.664831120880e+02 0.0 
0.0 0.0 -1.092379791644e+02 
-5.981454882397e+01 -4.541297170030e+00 0.0 
-4.541297170030e+00 -1.333516022016e+02 0.0 
0.0 0.0 -5.235561346594e+01 
-1.298810178848e+02 5.324825428373e+00 0.0 
5.324825428373e+00 -3.318247399703e+02 0.0 
0.0 0.0 -1.381117273565e+02 
-6.441565292136e+01 1.730193997833e+01 0.0 
1.730193997833e+01 -2.176973627609e+02 0.0 
0.0 0.0 -8.796731967540e+01 
-8.129479897511e+01 1.335092960007e+01 0.0 
1.335092960007e+01 -1.480708570695e+02 0.0 
0.0 0.0 -6.840969681338e+01 
-8.929552331743e+01 3.443949978900e+01 0.0 
3.443949978900e+01 -2.282408006813e+02 0.0 
0.0 0.0 -9.486089719961e+01 
-5.551191565296e+01 8.704270365976e+00 0.0 
8.704270365976e+00 -1.938402136746e+02 0.0 
0.0 0.0 -7.365397407177e+01 
-8.343435929183e+01 1.833591976563e+01 0.0 
1.833591976563e+01 -1.414470027411e+02 0.0 
0.0 0.0 -6.706440860986e+01 
-7.820941325183e+01 -1.992265334856e+00 0.0 
-1.992265334856e+00 -2.354534657906e+02 0.0 
0.0 0.0 -9.681664326682e+01 
-1.091052888245e+02 2.225225174234e+01 0.0 
2.225225174234e+01 -3.020962089319e+02 0.0 
0.0 0.0 -1.229604493269e+02 
-6.095056446224e+01 3.390727532288e+01 0.0 
3.390727532288e+01 -1.177303504230e+02 0.0 
0.0 0.0 -4.975554476311e+01 
-7.506184815670e+01 3.395235093131e+01 0.0 
3.395235093131e+01 -1.915450555095e+02 0.0 
0.0 0.0 -7.898101598837e+01 
-8.203914187019e+01 3.533211465234e+01 0.0 
3.533211465234e+01 -1.773521287679e+02 0.0 
0.0 0.0 -7.741738119144e+01 
-7.191379352304e+01 3.015336703934e+01 0.0 
3.015336703934e+01 -2.047796698049e+02 0.0 
0.0 0.0 -8.218958431798e+01 
-1.176226089419e+02 -2.849462063138e-01 0.0 
-2.849462063138e-01 -2.834166693133e+02 0.0 
0.0 0.0 -1.181359716573e+02 
-1.243034723827e+02 5.674356137583e+00 0.0 
5.674356137583e+00 -3.235631794830e+02 0.0 
0.0 0.0 -1.339599955597e+02 
-3.693247206577e+01 -8.214069965651e+00 0.0 
-8.214069965651e+00 -1.320204412330e+02 0.0 
0.0 0.0 -4.925431867321e+01 
-5.056539672634e+01 3.119561049857e+01 0.0 
3.119561049857e+01 -1.323496453863e+02 0.0 
0.0 0.0 -5.344735061067e+01 
-7.005128318786e+01 1.440996917054e+01 0.0 
1.440996917054e+01 -8.759565156852e+01 0.0 
0.0 0.0 -4.689408042691e+01 
-1.080296672695e+02 3.405201244543e+01 0.0 
3.405201244543e+01 -2.778299420835e+02 0.0 
0.0 0.0 -1.153578828059e+02 
-8.571974559709e+01 1.522895588946e+01 0.0 
1.522895588946e+01 -1.697035045875e+02 0.0 
0.0 0.0 -7.622697505539e+01 
-5.864439791525e+01 3.279229350687e+01 0.0 
3.279229350687e+01 -1.354975040171e+02 0.0 
0.0 0.0 -5.482690781736e+01 
-1.252468601161e+02 3.915882447846e+00 0.0 
3.915882447846e+00 -3.214432909714e+02 0.0 
0.0 0.0 -1.336070453263e+02 
-8.767800822446e+01 2.047381281195e+01 0.0 
2.047381281195e+01 -1.631546203666e+02 0.0 
0.0 0.0 -7.484978857731e+01 
-9.182862820017e+01 -5.322299028706e+00 0.0 
-5.322299028706e+00 -2.267571605416e+02 0.0 
0.0 0.0 -9.185544982941e+01 
-3.326582071439e+01 -8.883837233661e-01 0.0 
-8.883837233661e-01 -9.171995894901e+01 0.0 
0.0 0.0 -3.523641781764e+01 
-3.905631728185e+01 2.589018497290e+01 0.0 
2.589018497290e+01 -1.034184057742e+02 0.0 
0.0 0.0 -3.968128066768e+01 
-4.648697897646e+01 7.351008745725e+00 0.0 
7.351008745725e+00 -1.663792621096e+02 0.0 
0.0 0.0 -6.034980131601e+01 
-6.474381724157e+01 2.298386249683e+01 0.0 
2.298386249683e+01 -2.091123026413e+02 0.0 
0.0 0.0 -8.470420645061e+01 
-9.790688301864e+01 -3.295039756456e+00 0.0 
-3.295039756456e+00 -2.461364209444e+02 0.0 
0.0 0.0 -9.988596805320e+01 
-9.865203205895e+01 3.193237798432e+01 0.0 
3.193237798432e+01 -2.053483834683e+02 0.0 
0.0 0.0 -9.080012465819e+01 
-1.304823309720e+02 3.688970470942e+00 0.0 
3.688970470942e+00 -3.295229768792e+02 0.0 
0.0 0.0 -1.376015923553e+02 
-1.106455697491e+02 9.130371226418e+00 0.0 
9.130371226418e+00 -3.067722422628e+02 0.0 
0.0 0.0 -1.248253436036e+02 
-4.831542003775e+01 3.506996356786e+01 0.0 
3.506996356786e+01 -4.391057576169e+01 0.0 
0.0 0.0 -2.517135011649e+01 
-5.649887445310e+01 3.035671411829e+01 0.0 
3.035671411829e+01 -5.801302374660e+01 0.0 
0.0 0.0 -3.253771293060e+01 
-1.356336251842e+02 3.401491500583e+00 0.0 
3.401491500583e+00 -3.376776332360e+02 0.0 
0.0 0.0 -1.415933775261e+02 
-7.404215377373e+01 6.137162506936e+00 0.0 
6.137162506936e+00 -2.422769538916e+02 0.0 
0.0 0.0 -9.994734877212e+01 
-1.153985666728e+02 2.122620831071e+01 0.0 
2.122620831071e+01 -3.135107597630e+02 0.0 
0.0 0.0 -1.282727979307e+02 
-1.021082824770e+02 -1.092932703737e+00 0.0 
-1.092932703737e+00 -2.316414640940e+02 0.0 
0.0 0.0 -9.579015977396e+01 
-1.232976157532e+02 3.741449194825e+01 0.0 
3.741449194825e+01 -3.024143571705e+02 0.0 
0.0 0.0 -1.273135918771e+02 
-4.779851895682e+01 3.077351431146e+01 0.0 
3.077351431146e+01 -5.944264773262e+01 0.0 
0.0 0.0 -2.686596247844e+01 
-1.407109625353e+02 3.027499739938e+00 0.0 
3.027499739938e+00 -3.461390389253e+02 0.0 
0.0 0.0 -1.456550004382e+02 
-1.082262129943e+02 1.239627978952e+01 0.0 
1.239627978952e+01 -3.049074040004e+02 0.0 
0.0 0.0 -1.237080095092e+02 
-4.722826998376e+01 2.479185095714e+01 0.0 
2.479185095714e+01 -1.448144483695e+02 0.0 
0.0 0.0 -5.470361056363e+01 
-2.890565279697e+01 1.003110282298e-01 0.0 
1.003110282298e-01 -1.666855847349e+01 0.0 
0.0 0.0 -1.327226338114e+01 
-1.523557218310e+02 3.505661974420e+00 0.0 
3.505661974420e+00 -3.673879298066e+02 0.0 
0.0 0.0 -1.555230954913e+02 
-1.194288379583e+02 1.424020862380e+01 0.0 
1.424020862380e+01 -3.227533354920e+02 0.0 
0.0 0.0 -1.322546520351e+02 
-7.759956489700e+01 3.019910903888e+01 0.0 
3.019910903888e+01 -2.222310572526e+02 0.0 
0.0 0.0 -8.942687462241e+01 
-7.285014500883e+01 2.129329502256e+00 0.0 
2.129329502256e+00 -2.350532100936e+02 0.0 
0.0 0.0 -9.648415146233e+01 
-4.645970528551e+01 2.896447962117e+01 0.0 
2.896447962117e+01 -3.779475157632e+01 0.0 
0.0 0.0 -2.227015095046e+01 
-1.020388806351e+02 -2.512882640878e+00 0.0 
-2.512882640878e+00 -2.540134127769e+02 0.0 
0.0 0.0 -1.034799025735e+02 
-7.814899570373e+01 3.480663440189e+01 0.0 
3.480663440189e+01 -1.926753401275e+02 0.0 
0.0 0.0 -8.064701852360e+01 
-9.630184984484e+01 2.808488461089e+01 0.0 
2.808488461089e+01 -2.111578002919e+02 0.0 
0.0 0.0 -9.183789504104e+01 
-1.239060892576e+02 1.676916086160e+01 0.0 
1.676916086160e+01 -3.292036983970e+02 0.0 
0.0 0.0 -1.355329362964e+02 
-7.892632280488e+01 2.927916990442e+01 0.0 
2.927916990442e+01 -1.264049604395e+02 0.0 
0.0 0.0 -6.119938497332e+01 
-1.002048508533e+02 -3.375881079127e+00 0.0 
-3.375881079127e+00 -2.425532935660e+02 0.0 
0.0 0.0 -9.873993630571e+01 
-8.569537023024e+01 2.338774561926e+01 0.0 
2.338774561926e+01 -2.595022012501e+02 0.0 
0.0 0.0 -1.042538646816e+02 
-1.323400589302e+01 -1.016258367331e+00 0.0 
-1.016258367331e+00 -5.046893312375e+01 0.0 
0.0 0.0 -1.702506624484e+01 
-5.105074467826e+01 3.102007838896e+01 0.0 
3.102007838896e+01 -5.844978122345e+01 0.0 
0.0 0.0 -2.947651908929e+01 
-1.040261151199e+02 -2.550835537133e+00 0.0 
-2.550835537133e+00 -2.505080385226e+02 0.0 
0.0 0.0 -1.027060197354e+02 
-4.958133892415e+01 2.583221659113e+00 0.0 
2.583221659113e+00 -1.749397263916e+02 0.0 
0.0 0.0 -6.448190343146e+01 
-7.875141012349e+01 1.612430658122e+00 0.0 
1.612430658122e+00 -2.441552647820e+02 0.0 
0.0 0.0 -1.007130153747e+02 
-1.303056414727e+02 2.906979535571e+01 0.0 
2.906979535571e+01 -3.297627541951e+02 0.0 
0.0 0.0 -1.376205187004e+02 
-1.076779648322e+02 -1.803532430797e+00 0.0 
-1.803532430797e+00 -2.585828352310e+02 0.0 
0.0 0.0 -1.065991966539e+02 
-5.417669513603e+01 3.751257064628e+00 0.0 
3.751257064628e+00 -1.887166921939e+02 0.0 
0.0 0.0 -7.123978176541e+01 
-1.111555401739e+02 -1.153185944203e+00 0.0 
-1.153185944203e+00 -2.667195120157e+02 0.0 
0.0 0.0 -1.104387945704e+02 
-4.373524792312e+01 2.850272062789e+01 0.0 
2.850272062789e+01 -3.836258284550e+01 0.0 
0.0 0.0 -1.993294479171e+01 
-8.225030968473e+01 3.155901415522e+01 0.0 
3.155901415522e+01 -1.450535566164e+02 0.0 
0.0 0.0 -6.779115989035e+01 
-1.144627738009e+02 -6.113516104270e-01 0.0 
-6.113516104270e-01 -2.748928372661e+02 0.0 
0.0 0.0 -1.142518935828e+02 
-8.526599888572e+01 3.496121168022e+01 0.0 
3.496121168022e+01 -2.113583913761e+02 0.0 
0.0 0.0 -8.858731707854e+01 
-1.625923929029e+01 -2.096166532973e+00 0.0 
-2.096166532973e+00 -5.289354949359e+01 0.0 
0.0 0.0 -1.861992157454e+01 
-8.102027069637e+01 2.855341488814e+01 0.0 
2.855341488814e+01 -2.367193486867e+02 0.0 
0.0 0.0 -9.514367349588e+01 
-1.401930923003e+02 8.401708890100e-01 0.0 
8.401708890100e-01 -3.419915963200e+02 0.0 
0.0 0.0 -1.442554065861e+02 
-6.754120701884e+01 -1.347586479121e+01 0.0 
-1.347586479121e+01 -1.715455994352e+02 0.0 
0.0 0.0 -6.963522428650e+01 
-8.507291712283e+01 1.763786935731e+00 0.0 
1.763786935731e+00 -2.530258377242e+02 0.0 
0.0 0.0 -1.044651203866e+02 
-8.835958479345e+01 3.248959090806e+01 0.0 
3.248959090806e+01 -1.670946527530e+02 0.0 
0.0 0.0 -7.623627126394e+01 
-4.261421247800e+01 2.864758436745e+01 0.0 
2.864758436745e+01 -3.850520442946e+01 0.0 
0.0 0.0 -1.907705097686e+01 
-9.188621276092e+01 4.805326993058e+00 0.0 
4.805326993058e+00 -2.706733918704e+02 0.0 
0.0 0.0 -1.110117876187e+02 
-9.330123697611e+01 3.549692416010e+01 0.0 
3.549692416010e+01 -2.301395950599e+02 0.0 
0.0 0.0 -9.663224961080e+01 
-8.520927124036e+01 2.693192688239e+01 0.0 
2.693192688239e+01 -2.504057307099e+02 0.0 
0.0 0.0 -1.006042946625e+02 
-7.037270421993e+01 2.277849029548e+01 0.0 
2.277849029548e+01 -2.256959011868e+02 0.0 
0.0 0.0 -9.176190482756e+01 
-1.005044676440e+02 7.087171045636e+00 0.0 
7.087171045636e+00 -2.885952684044e+02 0.0 
0.0 0.0 -1.171986211040e+02 
-4.565990034237e+01 3.096822063652e+01 0.0 
3.096822063652e+01 -5.955255194385e+01 0.0 
0.0 0.0 -2.693463711946e+01 
-5.376931899871e+01 -1.339170254047e+01 0.0 
-1.339170254047e+01 -1.240986204626e+02 0.0 
0.0 0.0 -4.980039414092e+01 
-4.594590448456e+01 -1.267753650492e+01 0.0 
-1.267753650492e+01 -1.030192498985e+02 0.0 
0.0 0.0 -4.109818618644e+01 
-5.777598633187e+01 1.487088838802e-01 0.0 
1.487088838802e-01 -1.963254904267e+02 0.0 
0.0 0.0 -7.576610122685e+01 
-9.709790213728e+01 3.640210015459e+01 0.0 
3.640210015459e+01 -2.320501657293e+02 0.0 
0.0 0.0 -9.834442035999e+01 
-1.726830335313e+01 -1.191273508601e+00 0.0 
-1.191273508601e+00 -6.710989939372e+01 0.0 
0.0 0.0 -2.416741680328e+01 
-8.893642057196e+01 3.475294385986e+01 0.0 
3.475294385986e+01 -1.820847984224e+02 0.0 
0.0 0.0 -8.090636569830e+01 
-3.778545755140e+01 -1.069111288075e+01 0.0 
-1.069111288075e+01 -7.479490410757e+01 0.0 
0.0 0.0 -2.961735796442e+01 
-5.701975629923e+01 -4.753691943495e+00 0.0 
-4.753691943495e+00 -1.886212409428e+02 0.0 
0.0 0.0 -7.295959626210e+01 
-1.011823171850e+02 2.673310921186e+01 0.0 
2.673310921186e+01 -2.818708998124e+02 0.0 
0.0 0.0 -1.145159650992e+02 
-5.009753159182e+01 5.536199353487e-01 0.0 
5.536199353487e-01 -7.080730241863e+01 0.0 
0.0 0.0 -3.587145020313e+01 
-6.116682034962e+01 -7.078020255297e+00 0.0 
-7.078020255297e+00 -1.945204607341e+02 0.0 
0.0 0.0 -7.733974411715e+01 
-4.742522138632e+01 -1.023618255855e+00 0.0 
-1.023618255855e+00 -1.121685587976e+02 0.0 
0.0 0.0 -4.428361053137e+01 
-6.052410398008e+01 -1.091339359206e+01 0.0 
-1.091339359206e+01 -1.845168910964e+02 0.0 
0.0 0.0 -7.362637906870e+01 
-7.681091386137e+01 2.290890150078e+01 0.0 
2.290890150078e+01 -2.424370263652e+02 0.0 
0.0 0.0 -9.801636577431e+01 
-6.492978570623e+01 -1.177293762152e+01 0.0 
-1.177293762152e+01 -1.903669952047e+02 0.0 
0.0 0.0 -7.681957355381e+01 
-6.400100479327e+01 -1.405663329539e+01 0.0 
-1.405663329539e+01 -1.782269672319e+02 0.0 
0.0 0.0 -7.197879721828e+01 
-8.135640904995e+01 8.377122590704e+00 0.0 
8.377122590704e+00 -1.688907964493e+02 0.0 
0.0 0.0 -7.467416164978e+01 
-6.933347291160e+01 -1.265757702769e+01 0.0 
-1.265757702769e+01 -1.842583458424e+02 0.0 
0.0 0.0 -7.489838759791e+01 
-8.383670180282e+01 2.480046027388e+00 0.0 
2.480046027388e+00 -1.871767099262e+02 0.0 
0.0 0.0 -8.090402351869e+01 
-1.616240326684e+02 1.127363085855e+00 0.0 
1.127363085855e+00 -3.829355227182e+02 0.0 
0.0 0.0 -1.629678666160e+02 
-3.497862327915e+01 2.200590624416e-01 0.0 
2.200590624416e-01 -3.155395599752e+01 0.0 
0.0 0.0 -1.955977378300e+01 
-4.219920575345e+01 2.944117398706e+01 0.0 
2.944117398706e+01 -3.527776558642e+01 0.0 
0.0 0.0 -1.931502284730e+01 
-7.929918376610e+01 2.217857069748e+00 0.0 
2.217857069748e+00 -1.111585033059e+02 0.0 
0.0 0.0 -5.801705468477e+01 
-4.488005920538e+01 3.131706534244e+01 0.0 
3.131706534244e+01 -6.144276951472e+01 0.0 
0.0 0.0 -2.883377953990e+01 
-6.087585960462e+01 -1.550381821162e+01 0.0 
-1.550381821162e+01 -1.517421868950e+02 0.0 
0.0 0.0 -6.141758311795e+01 
-8.898807836198e+01 3.580256679877e+01 0.0 
3.580256679877e+01 -1.973106821408e+02 0.0 
0.0 0.0 -8.548962815083e+01 
-3.539692780448e+01 2.112488995887e-01 0.0 
2.112488995887e-01 -3.227367169971e+01 0.0 
0.0 0.0 -1.990117985126e+01 
-5.801338982373e+01 -1.486019830591e+01 0.0 
-1.486019830591e+01 -1.379922226545e+02 0.0 
0.0 0.0 -5.574381186493e+01 
-1.091368347590e+02 3.940933263700e+01 0.0 
3.940933263700e+01 -2.470920186947e+02 0.0 
0.0 0.0 -1.064686560361e+02 
-1.368938939276e+02 3.724342183866e+01 0.0 
3.724342183866e+01 -3.294424502664e+02 0.0 
0.0 0.0 -1.395009032582e+02 
-6.029364008906e+01 1.351229460420e+00 0.0 
1.351229460420e+00 -9.987755641111e+01 0.0 
0.0 0.0 -4.765135895005e+01 
-1.216841743889e+02 2.020950161436e+01 0.0 
2.020950161436e+01 -3.240186064150e+02 0.0 
0.0 0.0 -1.333108342411e+02 
-9.052459901625e+01 2.558569601857e+01 0.0 
2.558569601857e+01 -2.640211521023e+02 0.0 
0.0 0.0 -1.061910674965e+02 
-7.411650057252e+01 1.211271655162e+00 0.0 
1.211271655162e+00 -1.484392624152e+02 0.0 
0.0 0.0 -6.636672889631e+01 
-2.923710177911e+01 3.891355846307e-01 0.0 
3.891355846307e-01 -1.525292941543e+01 0.0 
0.0 0.0 -1.294700935836e+01 
-2.169640276746e+01 -4.310956312696e+00 0.0 
-4.310956312696e+00 -3.433995350927e+01 0.0 
0.0 0.0 -1.452819453409e+01 
-1.208380560010e+02 -3.691934134752e-02 0.0 
-3.691934134752e-02 -2.933235675146e+02 0.0 
0.0 0.0 -1.225833518124e+02 
-4.349121043793e+01 3.005912187697e+01 0.0 
3.005912187697e+01 -3.485885582161e+01 0.0 
0.0 0.0 -2.034127040435e+01 
-4.495486602699e+01 3.122123765164e+01 0.0 
3.122123765164e+01 -5.737028113667e+01 0.0 
0.0 0.0 -2.749421876074e+01 
-4.569930497253e+01 3.216332394807e+01 0.0 
3.216332394807e+01 -5.928317165407e+01 0.0 
0.0 0.0 -2.740627164715e+01 
-6.361728769892e+01 -3.344516037891e+00 0.0 
-3.344516037891e+00 -1.401207034667e+02 0.0 
0.0 0.0 -5.582488748036e+01 
-4.113160163218e+01 -1.663824618687e+01 0.0 
-1.663824618687e+01 -6.118236971818e+01 0.0 
0.0 0.0 -2.425427006164e+01 
-4.505539616883e+01 3.060426634812e+01 0.0 
3.060426634812e+01 -3.855147562668e+01 0.0 
0.0 0.0 -2.166006995601e+01 
-1.375550315456e+02 2.404106450532e+01 0.0 
2.404106450532e+01 -3.457221964653e+02 0.0 
0.0 0.0 -1.445831684033e+02 
-4.187485196399e+01 2.433508364839e+00 0.0 
2.433508364839e+00 -3.349341734099e+01 0.0 
0.0 0.0 -2.221048079150e+01 
-1.054605885491e+02 2.901656635783e+01 0.0 
2.901656635783e+01 -2.856023302414e+02 0.0 
0.0 0.0 -1.169188756372e+02 
-4.626210594915e+01 3.175520802333e+01 0.0 
3.175520802333e+01 -4.004529380153e+01 0.0 
0.0 0.0 -2.191293575241e+01 
-9.124960718574e+01 2.270127505320e+01 0.0 
2.270127505320e+01 -1.847870822145e+02 0.0 
0.0 0.0 -8.241100682007e+01 
-1.292059411535e+02 3.251526206183e+01 0.0 
3.251526206183e+01 -3.231620739481e+02 0.0 
0.0 0.0 -1.353104045305e+02 
-1.607597006593e+02 7.704832827050e+00 0.0 
7.704832827050e+00 -3.837532719677e+02 0.0 
0.0 0.0 -1.629538917881e+02 
-1.166023489853e+02 3.051946865620e+01 0.0 
3.051946865620e+01 -3.037356108950e+02 0.0 
0.0 0.0 -1.257013879641e+02 
-4.608550113913e+01 3.403051012092e+01 0.0 
3.403051012092e+01 -6.331267400279e+01 0.0 
0.0 0.0 -2.841583754781e+01 
-6.141782837585e+01 1.322509176712e+01 0.0 
1.322509176712e+01 -5.780049057360e+01 0.0 
0.0 0.0 -3.536549568484e+01 
-1.185987851355e+02 3.950041742347e+01 0.0 
3.950041742347e+01 -2.854233991564e+02 0.0 
0.0 0.0 -1.208066552876e+02 
-6.613116802882e+01 2.384986042700e+00 0.0 
2.384986042700e+00 -1.161270163205e+02 0.0 
0.0 0.0 -5.427745530481e+01 
-1.623420908826e+02 5.395404271172e+00 0.0 
5.395404271172e+00 -3.855486076084e+02 0.0 
0.0 0.0 -1.639672095473e+02 
-4.547763936857e+01 4.383002942688e+00 0.0 
4.383002942688e+00 -3.202555718925e+01 0.0 
0.0 0.0 -2.285095896735e+01 
-8.038290157100e+01 5.327280535750e+00 0.0 
5.327280535750e+00 -1.704377868502e+02 0.0 
0.0 0.0 -7.484620652636e+01 
-3.760286395872e+01 -1.611785093462e+01 0.0 
-1.611785093462e+01 -1.206666496320e+02 0.0 
0.0 0.0 -4.443383215372e+01 
-7.966260958957e+01 2.654568783321e+00 0.0 
2.654568783321e+00 -1.701150758899e+02 0.0 
0.0 0.0 -7.453330564386e+01 
-9.624502697581e+01 3.666317099787e+01 0.0 
3.666317099787e+01 -2.174382750093e+02 0.0 
0.0 0.0 -9.370499059554e+01 
-4.631184358691e+01 1.127290966146e+00 0.0 
1.127290966146e+00 -5.650218240167e+01 0.0 
0.0 0.0 -3.044420779657e+01 
-6.643920057057e+01 2.128692118201e+01 0.0 
2.128692118201e+01 -6.995475302863e+01 0.0 
0.0 0.0 -4.051818607976e+01 
-1.550673626982e+02 1.652890841452e+00 0.0 
1.652890841452e+00 -3.706437734615e+02 0.0 
0.0 0.0 -1.573133408479e+02 
-1.042327239357e+02 3.701599578719e+01 0.0 
3.701599578719e+01 -2.275517099190e+02 0.0 
0.0 0.0 -9.913533015639e+01 
-4.545258237452e+01 3.554004598708e+01 0.0 
3.554004598708e+01 -7.053802534080e+01 0.0 
0.0 0.0 -3.248211658946e+01 
-6.071427584624e+01 1.766864265155e+00 0.0 
1.766864265155e+00 -9.886946575622e+01 0.0 
0.0 0.0 -4.747512248074e+01 
-8.022578759372e+01 -4.163223255349e+00 0.0 
-4.163223255349e+00 -1.760567389678e+02 0.0 
0.0 0.0 -7.089654273876e+01 
-4.251993768129e+01 -2.057150166614e+01 0.0 
-2.057150166614e+01 -1.047756158368e+02 0.0 
0.0 0.0 -4.552558128558e+01 
-1.495134322984e+02 9.342883379967e+00 0.0 
9.342883379967e+00 -3.668993902301e+02 0.0 
0.0 0.0 -1.545238467585e+02 
-1.031382352033e+02 3.777289732105e+01 0.0 
3.777289732105e+01 -2.363618577940e+02 0.0 
0.0 0.0 -1.014500278992e+02 
-1.538667637435e+02 2.734646345923e+00 0.0 
2.734646345923e+00 -3.694854353061e+02 0.0 
0.0 0.0 -1.566056597149e+02 
-1.161807684753e+01 -3.195052423771e-01 0.0 
-3.195052423771e-01 -4.975066573518e+01 0.0 
0.0 0.0 -1.633068126989e+01 
-1.438507454237e+01 -1.581175328777e+00 0.0 
-1.581175328777e+00 -3.126121982476e+01 0.0 
0.0 0.0 -1.219832918632e+01 
-1.490495436987e+02 1.264547247792e+01 0.0 
1.264547247792e+01 -3.671385383758e+02 0.0 
0.0 0.0 -1.544564246224e+02 
-1.144606989333e+02 4.040102671992e+01 0.0 
4.040102671992e+01 -2.672665711538e+02 0.0 
0.0 0.0 -1.141181810261e+02 
-4.266469531187e+01 -1.896820917371e+01 0.0 
-1.896820917371e+01 -1.185820404033e+02 0.0 
0.0 0.0 -4.283425891569e+01 
-9.099189154525e+01 1.974710009132e+01 0.0 
1.974710009132e+01 -2.009217112541e+02 0.0 
0.0 0.0 -8.717408083981e+01 
-4.743095356750e+01 3.804726616919e+01 0.0 
3.804726616919e+01 -7.670571246606e+01 0.0 
0.0 0.0 -3.817163243526e+01 
-2.927056911137e+01 2.299657599420e-01 0.0 
2.299657599420e-01 -1.319550948182e+01 0.0 
0.0 0.0 -1.233982357796e+01 
-1.171612320810e+01 -9.332258275209e-01 0.0 
-9.332258275209e-01 -3.228682499810e+01 0.0 
0.0 0.0 -1.097054701080e+01 
-1.625722631840e+02 4.312794340440e+00 0.0 
4.312794340440e+00 -3.854452740967e+02 0.0 
0.0 0.0 -1.640052611842e+02 
-8.533210800024e+01 1.394252864846e+01 0.0 
1.394252864846e+01 -1.763250690982e+02 0.0 
0.0 0.0 -7.809715312952e+01 
-8.812199912352e+01 -2.712493859189e+00 0.0 
-2.712493859189e+00 -1.932777708672e+02 0.0 
0.0 0.0 -7.901003178609e+01 
-5.727491893303e+01 1.623780453335e+01 0.0 
1.623780453335e+01 -3.089275579295e+01 0.0 
0.0 0.0 -2.598825756273e+01 
-5.578055347100e+01 -2.204213498727e+00 0.0 
-2.204213498727e+00 -1.263603259734e+02 0.0 
0.0 0.0 -5.025581366873e+01 
-1.165550299289e+02 3.522844658201e+01 0.0 
3.522844658201e+01 -2.935744093038e+02 0.0 
0.0 0.0 -1.226388317698e+02 
-3.120891531148e+01 -8.403308306228e+00 0.0 
-8.403308306228e+00 -4.981111952859e+01 0.0 
0.0 0.0 -2.018043106654e+01 
-8.346929476619e+01 1.022471557711e+01 0.0 
1.022471557711e+01 -1.756809210774e+02 0.0 
0.0 0.0 -7.734506475309e+01 
-1.470155629338e+02 1.642028517084e+01 0.0 
1.642028517084e+01 -3.638760350331e+02 0.0 
0.0 0.0 -1.528674793901e+02 
-9.782383772662e+01 3.035764790724e+01 0.0 
3.035764790724e+01 -2.051245797650e+02 0.0 
0.0 0.0 -9.048452524750e+01 
-1.483695328300e+02 2.974774258850e+01 0.0 
2.974774258850e+01 -3.569062301024e+02 0.0 
0.0 0.0 -1.511827288797e+02 
-4.995798112288e+01 1.222947771657e+01 0.0 
1.222947771657e+01 -1.149801088692e+02 0.0 
0.0 0.0 -5.101270335092e+01 
-1.302303263287e+02 3.479093688396e+01 0.0 
3.479093688396e+01 -3.216627401613e+02 0.0 
0.0 0.0 -1.351679199470e+02 
-1.335391311424e+02 1.803268398899e+01 0.0 
1.803268398899e+01 -3.436759310207e+02 0.0 
0.0 0.0 -1.427645186489e+02 
-2.865940083104e+01 -5.979128459207e-02 0.0 
-5.979128459207e-02 -1.501376433525e+01 0.0 
0.0 0.0 -1.270194954989e+01 
-1.010516181350e+02 3.400656226954e+01 0.0 
3.400656226954e+01 -2.158845566983e+02 0.0 
0.0 0.0 -9.468085244998e+01 
-7.202262522832e+01 -3.215374971937e+00 0.0 
-3.215374971937e+00 -1.566103687713e+02 0.0 
0.0 0.0 -6.308108888570e+01 
-2.011292604572e+01 -2.886063057880e+00 0.0 
-2.886063057880e+00 -6.639254809782e+01 0.0 
0.0 0.0 -2.395694457489e+01 
-8.397961483312e+01 1.326536441905e+00 0.0 
1.326536441905e+00 -1.891135837670e+02 0.0 
0.0 0.0 -8.152795958002e+01 
-7.672147384500e+00 -8.207414920299e-02 0.0 
-8.207414920299e-02 -1.413742345116e+01 0.0 
0.0 0.0 -4.706670271752e+00 
-2.784088698891e+01 5.245303918354e-02 0.0 
5.245303918354e-02 -1.386856435222e+01 0.0 
0.0 0.0 -1.211283540234e+01 
-1.639080102903e+02 3.443018524520e-01 0.0 
3.443018524520e-01 -3.870515087936e+02 0.0 
0.0 0.0 -1.648878557252e+02 
-1.590823350459e+01 -1.590672271512e+00 0.0 
-1.590672271512e+00 -6.321441117610e+01 0.0 
0.0 0.0 -2.251673883983e+01 
-4.088855659481e+01 4.291398766365e-01 0.0 
4.291398766365e-01 -4.596298586708e+01 0.0 
0.0 0.0 -2.565546273857e+01 
-1.125217941543e+02 4.034013997910e+01 0.0 
4.034013997910e+01 -2.591333579997e+02 0.0 
0.0 0.0 -1.110965456462e+02 
-1.039902043358e+02 -5.088435992068e-01 0.0 
-5.088435992068e-01 -2.367398781529e+02 0.0 
0.0 0.0 -9.801215059798e+01 
-7.109381656775e+01 2.109092640661e+00 0.0 
2.109092640661e+00 -1.366040473187e+02 0.0 
0.0 0.0 -6.190935916593e+01 
-4.549483668241e+01 -2.107352393569e+01 0.0 
-2.107352393569e+01 -8.227686313730e+01 0.0 
0.0 0.0 -3.175883935399e+01 
-8.253154582308e+01 -7.058554164993e+00 0.0 
-7.058554164993e+00 -1.073213360226e+02 0.0 
0.0 0.0 -5.770138747139e+01 
-5.400250365523e+01 9.864605098886e-01 0.0 
9.864605098886e-01 -8.125273445748e+01 0.0 
0.0 0.0 -4.017657143381e+01 
-1.333421085797e+02 3.108574665884e+01 0.0 
3.108574665884e+01 -3.321325009124e+02 0.0 
0.0 0.0 -1.392423828476e+02 
-9.391376764354e+01 2.551576165339e+01 0.0 
2.551576165339e+01 -1.947328421480e+02 0.0 
0.0 0.0 -8.619398293746e+01 
-5.011872792043e+01 1.210253084243e+00 0.0 
1.210253084243e+00 -6.742613464702e+01 0.0 
0.0 0.0 -3.486345877024e+01 
-4.060454160868e+01 3.029399663408e+01 0.0 
3.029399663408e+01 -9.047062620549e+01 0.0 
0.0 0.0 -3.709643834024e+01 
-1.090750203946e+02 3.917786299376e+01 0.0 
3.917786299376e+01 -2.519118209727e+02 0.0 
0.0 0.0 -1.078960524102e+02 
-9.398509722392e+01 -2.327218182568e+00 0.0 
-2.327218182568e+00 -2.089069192061e+02 0.0 
0.0 0.0 -8.579857396223e+01 
-1.137848768162e+02 3.788308538190e+01 0.0 
3.788308538190e+01 -2.786240116524e+02 0.0 
0.0 0.0 -1.173226665406e+02 
-1.308037653597e+02 2.178456120438e+01 0.0 
2.178456120438e+01 -3.373600794633e+02 0.0 
0.0 0.0 -1.400491534469e+02 
-5.567689335718e+01 3.827770742617e+01 0.0 
3.827770742617e+01 -6.039197259075e+01 0.0 
0.0 0.0 -3.565514551007e+01 
-1.095070985646e+02 -3.605801395048e-01 0.0 
-3.605801395048e-01 -2.542549298595e+02 0.0 
0.0 0.0 -1.055545528541e+02 
-1.212287552545e+01 -7.846491488620e-01 0.0 
-7.846491488620e-01 -3.023437931674e+01 0.0 
0.0 0.0 -1.087970396254e+01 
-1.539682494818e+02 6.564030365355e+00 0.0 
6.564030365355e+00 -3.723446757548e+02 0.0 
0.0 0.0 -1.574938775710e+02 
-9.727963869262e+01 -1.504854912213e+00 0.0 
-1.504854912213e+00 -2.174246026012e+02 0.0 
0.0 0.0 -8.959735890414e+01 

TENSORS node_materi_strain_total float
2.681129862570e-03 -2.923568658385e-05 0.0 
-2.923568658385e-05 -1.020579175418e-03 0.0 
0.0 0.0 0.0 
-2.067860304976e-03 -2.179810840679e-05 0.0 
-2.179810840679e-05 1.496901531860e-02 0.0 
0.0 0.0 0.0 
-7.793160484149e-05 -3.424100361819e-05 0.0 
-3.424100361819e-05 6.039519965341e-03 0.0 
0.0 0.0 0.0 
-1.621452785159e-04 8.086861278834e-05 0.0 
8.086861278834e-05 1.750698601487e-02 0.0 
0.0 0.0 0.0 
2.126026854219e-03 -4.588657864803e-05 0.0 
-4.588657864803e-05 -6.133005897161e-04 0.0 
0.0 0.0 0.0 
1.490415728529e-03 -3.087701464108e-05 0.0 
-3.087701464108e-05 7.340440672621e-05 0.0 
0.0 0.0 0.0 
8.193681527984e-04 -5.558634739669e-05 0.0 
-5.558634739669e-05 7.165536576622e-04 0.0 
0.0 0.0 0.0 
2.269856867294e-04 -7.514532504222e-05 0.0 
-7.514532504222e-05 1.371439935392e-03 0.0 
0.0 0.0 0.0 
-2.903087372689e-04 -1.012017634699e-04 0.0 
-1.012017634699e-04 1.918404785475e-03 0.0 
0.0 0.0 0.0 
-6.599685249449e-04 -1.107011980400e-04 0.0 
-1.107011980400e-04 2.359952743804e-03 0.0 
0.0 0.0 0.0 
-9.172319244250e-04 -1.191404245602e-04 0.0 
-1.191404245602e-04 2.724887515482e-03 0.0 
0.0 0.0 0.0 
-1.073467762937e-03 -1.267254465372e-04 0.0 
-1.267254465372e-04 3.022647806626e-03 0.0 
0.0 0.0 0.0 
-1.140249032118e-03 -1.275780577603e-04 0.0 
-1.275780577603e-04 3.274226077684e-03 0.0 
0.0 0.0 0.0 
-1.145285510443e-03 -1.202836657138e-04 0.0 
-1.202836657138e-04 3.501147701517e-03 0.0 
0.0 0.0 0.0 
-1.101801262146e-03 -9.986390834003e-05 0.0 
-9.986390834003e-05 3.719041731334e-03 0.0 
0.0 0.0 0.0 
-1.034299666024e-03 -6.826503314808e-05 0.0 
-6.826503314808e-05 3.944599026173e-03 0.0 
0.0 0.0 0.0 
-9.485866819779e-04 -6.968500238002e-05 0.0 
-6.968500238002e-05 4.169781043890e-03 0.0 
0.0 0.0 0.0 
-8.453918156993e-04 -7.698715989460e-05 0.0 
-7.698715989460e-05 4.408907299497e-03 0.0 
0.0 0.0 0.0 
-7.375427350272e-04 -6.247236114227e-05 0.0 
-6.247236114227e-05 4.686754330696e-03 0.0 
0.0 0.0 0.0 
-6.265419316139e-04 -5.023198478761e-05 0.0 
-5.023198478761e-05 4.975075986399e-03 0.0 
0.0 0.0 0.0 
-5.063792999161e-04 -3.950523360437e-05 0.0 
-3.950523360437e-05 5.277588935105e-03 0.0 
0.0 0.0 0.0 
-3.702310870901e-04 -3.230183031905e-05 0.0 
-3.230183031905e-05 5.586015826347e-03 0.0 
0.0 0.0 0.0 
-2.205305541631e-04 -2.685788948494e-05 0.0 
-2.685788948494e-05 5.872444426538e-03 0.0 
0.0 0.0 0.0 
-1.191148464142e-04 2.477868989211e-04 0.0 
2.477868989211e-04 1.749287703140e-02 0.0 
0.0 0.0 0.0 
-1.278339222264e-04 4.537159500103e-04 0.0 
4.537159500103e-04 1.746326686241e-02 0.0 
0.0 0.0 0.0 
-1.302045403483e-04 6.669055792042e-04 0.0 
6.669055792042e-04 1.744448626731e-02 0.0 
0.0 0.0 0.0 
-1.257129923219e-04 9.145806562111e-04 0.0 
9.145806562111e-04 1.739683560333e-02 0.0 
0.0 0.0 0.0 
-1.593569386261e-04 1.143013933298e-03 0.0 
1.143013933298e-03 1.733852796762e-02 0.0 
0.0 0.0 0.0 
-1.489184446967e-04 1.416116326485e-03 0.0 
1.416116326485e-03 1.726824825202e-02 0.0 
0.0 0.0 0.0 
-1.716102333934e-04 1.707896101481e-03 0.0 
1.707896101481e-03 1.715539272446e-02 0.0 
0.0 0.0 0.0 
-1.731491456342e-04 2.021750455281e-03 0.0 
2.021750455281e-03 1.700448097510e-02 0.0 
0.0 0.0 0.0 
-1.816313843120e-04 2.332636176880e-03 0.0 
2.332636176880e-03 1.683537207700e-02 0.0 
0.0 0.0 0.0 
-1.617554500980e-04 2.674120985624e-03 0.0 
2.674120985624e-03 1.660650962942e-02 0.0 
0.0 0.0 0.0 
-2.079715083205e-04 2.999452753391e-03 0.0 
2.999452753391e-03 1.635074102732e-02 0.0 
0.0 0.0 0.0 
-1.861085521619e-04 3.363251432438e-03 0.0 
3.363251432438e-03 1.603017802219e-02 0.0 
0.0 0.0 0.0 
-1.936274061622e-04 3.721305068353e-03 0.0 
3.721305068353e-03 1.563742523983e-02 0.0 
0.0 0.0 0.0 
-1.684134662864e-04 4.054193097027e-03 0.0 
4.054193097027e-03 1.520135396522e-02 0.0 
0.0 0.0 0.0 
-1.774177393074e-04 4.364885592134e-03 0.0 
4.364885592134e-03 1.472126613204e-02 0.0 
0.0 0.0 0.0 
-1.470743457155e-04 4.640130435809e-03 0.0 
4.640130435809e-03 1.416904986721e-02 0.0 
0.0 0.0 0.0 
-1.470101471004e-04 4.892315982302e-03 0.0 
4.892315982302e-03 1.357721914518e-02 0.0 
0.0 0.0 0.0 
-1.215214635667e-04 5.122695378055e-03 0.0 
5.122695378055e-03 1.293390584553e-02 0.0 
0.0 0.0 0.0 
-8.754656248185e-05 5.292993661306e-03 0.0 
5.292993661306e-03 1.228024861428e-02 0.0 
0.0 0.0 0.0 
-4.986686588922e-05 5.413257170020e-03 0.0 
5.413257170020e-03 1.160666111519e-02 0.0 
0.0 0.0 0.0 
-5.127621546290e-06 5.471295254894e-03 0.0 
5.471295254894e-03 1.090591193932e-02 0.0 
0.0 0.0 0.0 
1.476969423468e-05 5.467758102400e-03 0.0 
5.467758102400e-03 1.021225510711e-02 0.0 
0.0 0.0 0.0 
5.206949253493e-05 5.405894746843e-03 0.0 
5.405894746843e-03 9.516218483187e-03 0.0 
0.0 0.0 0.0 
8.334397466688e-05 5.279697962910e-03 0.0 
5.279697962910e-03 8.840842949170e-03 0.0 
0.0 0.0 0.0 
1.089075737220e-04 5.101185019826e-03 0.0 
5.101185019826e-03 8.201819176924e-03 0.0 
0.0 0.0 0.0 
1.416684454741e-04 4.875066532274e-03 0.0 
4.875066532274e-03 7.595360623892e-03 0.0 
0.0 0.0 0.0 
1.506845660152e-04 4.590917701918e-03 0.0 
4.590917701918e-03 7.029223329622e-03 0.0 
0.0 0.0 0.0 
1.938531530588e-04 4.263990458128e-03 0.0 
4.263990458128e-03 6.517495803533e-03 0.0 
0.0 0.0 0.0 
1.976216942273e-04 3.893228492192e-03 0.0 
3.893228492192e-03 6.053619705396e-03 0.0 
0.0 0.0 0.0 
1.852642943529e-04 3.512682524388e-03 0.0 
3.512682524388e-03 5.690272102196e-03 0.0 
0.0 0.0 0.0 
2.107944815795e-04 3.108468674641e-03 0.0 
3.108468674641e-03 5.321094193323e-03 0.0 
0.0 0.0 0.0 
2.458805504701e-04 2.691992621677e-03 0.0 
2.691992621677e-03 4.988491885769e-03 0.0 
0.0 0.0 0.0 
2.395853640676e-04 2.231005760867e-03 0.0 
2.231005760867e-03 4.751441446920e-03 0.0 
0.0 0.0 0.0 
2.299780418968e-04 1.810567570809e-03 0.0 
1.810567570809e-03 4.627425188693e-03 0.0 
0.0 0.0 0.0 
2.235542544808e-04 1.407572217556e-03 0.0 
1.407572217556e-03 4.534830339744e-03 0.0 
0.0 0.0 0.0 
1.808161817459e-04 1.022005791269e-03 0.0 
1.022005791269e-03 4.512236802053e-03 0.0 
0.0 0.0 0.0 
1.874229173487e-04 6.866088500528e-04 0.0 
6.866088500528e-04 4.550681010641e-03 0.0 
0.0 0.0 0.0 
1.449253388197e-04 3.782721844499e-04 0.0 
3.782721844499e-04 4.611275755784e-03 0.0 
0.0 0.0 0.0 
1.430947666089e-04 1.255135788520e-04 0.0 
1.255135788520e-04 4.713701243284e-03 0.0 
0.0 0.0 0.0 
1.013926204017e-04 -8.497925258858e-05 0.0 
-8.497925258858e-05 4.846127493704e-03 0.0 
0.0 0.0 0.0 
7.274521273204e-05 -2.394951658784e-04 0.0 
-2.394951658784e-04 5.018785640138e-03 0.0 
0.0 0.0 0.0 
4.625443106709e-05 -3.435007379575e-04 0.0 
-3.435007379575e-04 5.220809335119e-03 0.0 
0.0 0.0 0.0 
2.594976999326e-05 -4.057473291484e-04 0.0 
-4.057473291484e-04 5.381205202918e-03 0.0 
0.0 0.0 0.0 
8.726491253774e-07 -4.266698345570e-04 0.0 
-4.266698345570e-04 5.493048618781e-03 0.0 
0.0 0.0 0.0 
-1.451461330419e-05 -4.099203233404e-04 0.0 
-4.099203233404e-04 5.692177426371e-03 0.0 
0.0 0.0 0.0 
-3.544568320816e-05 -3.670251022432e-04 0.0 
-3.670251022432e-04 5.793106907705e-03 0.0 
0.0 0.0 0.0 
-3.980002718447e-05 -3.079678400603e-04 0.0 
-3.079678400603e-04 5.899490055662e-03 0.0 
0.0 0.0 0.0 
-4.862903728605e-05 -2.110847018983e-04 0.0 
-2.110847018983e-04 5.987911270360e-03 0.0 
0.0 0.0 0.0 
-5.623674414986e-05 -1.236603632407e-04 0.0 
-1.236603632407e-04 6.030380422341e-03 0.0 
0.0 0.0 0.0 
-2.033990691190e-03 -1.456395212492e-05 0.0 
-1.456395212492e-05 1.520837193326e-02 0.0 
0.0 0.0 0.0 
-1.996032948676e-03 -5.070734212385e-06 0.0 
-5.070734212385e-06 1.561057116798e-02 0.0 
0.0 0.0 0.0 
-1.919741179132e-03 3.136884724190e-06 0.0 
3.136884724190e-06 1.597809980473e-02 0.0 
0.0 0.0 0.0 
-1.800355842281e-03 1.275844680995e-05 0.0 
1.275844680995e-05 1.630688946342e-02 0.0 
0.0 0.0 0.0 
-1.632834535864e-03 2.353833311902e-05 0.0 
2.353833311902e-05 1.660585928487e-02 0.0 
0.0 0.0 0.0 
-1.417187306806e-03 3.430555815183e-05 0.0 
3.430555815183e-05 1.686726957265e-02 0.0 
0.0 0.0 0.0 
-1.149563939454e-03 4.287185467062e-05 0.0 
4.287185467062e-05 1.708799412366e-02 0.0 
0.0 0.0 0.0 
-8.181052321757e-04 5.698778468240e-05 0.0 
5.698778468240e-05 1.727281572287e-02 0.0 
0.0 0.0 0.0 
-4.738159203086e-04 6.209312876181e-05 0.0 
6.209312876181e-05 1.742125585801e-02 0.0 
0.0 0.0 0.0 
-2.317646759134e-03 3.064284367087e-03 0.0 
3.064284367087e-03 -2.042723558010e-03 0.0 
0.0 0.0 0.0 
-3.990185201587e-03 2.455922410266e-03 0.0 
2.455922410266e-03 1.433799343515e-02 0.0 
0.0 0.0 0.0 
-2.103451642620e-03 3.783755448818e-03 0.0 
3.783755448818e-03 9.129990727380e-04 0.0 
0.0 0.0 0.0 
-1.682738035896e-03 3.567117783992e-03 0.0 
3.567117783992e-03 2.116487416282e-03 0.0 
0.0 0.0 0.0 
-1.630848049695e-03 3.564943270476e-03 0.0 
3.564943270476e-03 3.291726880164e-03 0.0 
0.0 0.0 0.0 
-1.677419733640e-03 3.458337333731e-03 0.0 
3.458337333731e-03 4.490990770158e-03 0.0 
0.0 0.0 0.0 
-1.739402053666e-03 3.364941186598e-03 0.0 
3.364941186598e-03 5.806327756080e-03 0.0 
0.0 0.0 0.0 
-1.858796277634e-03 3.266701433022e-03 0.0 
3.266701433022e-03 7.315579599350e-03 0.0 
0.0 0.0 0.0 
-2.079968684698e-03 3.190852129940e-03 0.0 
3.190852129940e-03 8.911874394528e-03 0.0 
0.0 0.0 0.0 
-2.385443813862e-03 3.118519052280e-03 0.0 
3.118519052280e-03 1.053545096824e-02 0.0 
0.0 0.0 0.0 
-2.917622235297e-03 3.133571860694e-03 0.0 
3.133571860694e-03 1.223391368950e-02 0.0 
0.0 0.0 0.0 
-2.061507699348e-03 2.050168816015e-05 0.0 
2.050168816015e-05 1.496742043861e-02 0.0 
0.0 0.0 0.0 
-2.042319021876e-03 3.103579122867e-05 0.0 
3.103579122867e-05 1.495362598300e-02 0.0 
0.0 0.0 0.0 
-2.061836692207e-03 2.342440452399e-05 0.0 
2.342440452399e-05 1.495470224951e-02 0.0 
0.0 0.0 0.0 
-2.089983893699e-03 3.171348099925e-05 0.0 
3.171348099925e-05 1.495111305751e-02 0.0 
0.0 0.0 0.0 
-2.114086957558e-03 5.766754191717e-05 0.0 
5.766754191717e-05 1.500036498415e-02 0.0 
0.0 0.0 0.0 
-2.140275161895e-03 6.406810772901e-05 0.0 
6.406810772901e-05 1.496188928482e-02 0.0 
0.0 0.0 0.0 
-2.178581331362e-03 8.432241590027e-05 0.0 
8.432241590027e-05 1.494772837090e-02 0.0 
0.0 0.0 0.0 
-2.204998979128e-03 1.148782752005e-04 0.0 
1.148782752005e-04 1.494506922386e-02 0.0 
0.0 0.0 0.0 
-2.277034695678e-03 1.646800908277e-04 0.0 
1.646800908277e-04 1.496642706028e-02 0.0 
0.0 0.0 0.0 
-2.366526284293e-03 2.195961486029e-04 0.0 
2.195961486029e-04 1.496184604528e-02 0.0 
0.0 0.0 0.0 
-2.476549744054e-03 3.158467676852e-04 0.0 
3.158467676852e-04 1.495501660833e-02 0.0 
0.0 0.0 0.0 
-2.678774571688e-03 4.577449285554e-04 0.0 
4.577449285554e-04 1.496226037074e-02 0.0 
0.0 0.0 0.0 
-3.033190974226e-03 7.300922264281e-04 0.0 
7.300922264281e-04 1.499656264159e-02 0.0 
0.0 0.0 0.0 
-3.674074617012e-03 1.361089064856e-03 0.0 
1.361089064856e-03 1.504436325810e-02 0.0 
0.0 0.0 0.0 
-3.225644037172e-03 1.369726863364e-03 0.0 
1.369726863364e-03 -3.023287165969e-03 0.0 
0.0 0.0 0.0 
-4.104796148892e-03 3.074261698996e-04 0.0 
3.074261698996e-04 -3.035273797333e-03 0.0 
0.0 0.0 0.0 
-4.522610291773e-03 -1.919774808960e-04 0.0 
-1.919774808960e-04 -2.873168154919e-03 0.0 
0.0 0.0 0.0 
-4.097367909544e-03 -8.968499628236e-04 0.0 
-8.968499628236e-04 -2.618667394379e-03 0.0 
0.0 0.0 0.0 
-2.895978818063e-03 -1.863235504918e-03 0.0 
-1.863235504918e-03 -1.188652725877e-03 0.0 
0.0 0.0 0.0 
-1.790223814720e-03 -1.405762473925e-03 0.0 
-1.405762473925e-03 2.147399451298e-04 0.0 
0.0 0.0 0.0 
-8.173014700819e-04 -4.537721173394e-04 0.0 
-4.537721173394e-04 2.785772009943e-04 0.0 
0.0 0.0 0.0 
-3.584980085104e-04 -1.663082172727e-04 0.0 
-1.663082172727e-04 2.445442387569e-04 0.0 
0.0 0.0 0.0 
-8.500877588347e-05 -1.154074406409e-04 0.0 
-1.154074406409e-04 1.931519195165e-04 0.0 
0.0 0.0 0.0 
2.500244639416e-04 -1.630512147367e-04 0.0 
-1.630512147367e-04 7.558037564959e-05 0.0 
0.0 0.0 0.0 
5.944651558998e-04 -1.755059902933e-04 0.0 
-1.755059902933e-04 -8.270223926576e-05 0.0 
0.0 0.0 0.0 
9.838848292201e-04 -1.947576446769e-04 0.0 
-1.947576446769e-04 -2.644716266644e-04 0.0 
0.0 0.0 0.0 
1.404620891123e-03 -1.831726415217e-04 0.0 
-1.831726415217e-04 -4.594281320666e-04 0.0 
0.0 0.0 0.0 
1.771706299017e-03 -1.729134751767e-04 0.0 
-1.729134751767e-04 -6.217175162321e-04 0.0 
0.0 0.0 0.0 
2.041647069441e-03 -1.376997821976e-04 0.0 
-1.376997821976e-04 -7.328161579740e-04 0.0 
0.0 0.0 0.0 
2.276060002010e-03 -1.044250368664e-04 0.0 
-1.044250368664e-04 -8.293043333613e-04 0.0 
0.0 0.0 0.0 
2.456594429558e-03 -8.216876559062e-05 0.0 
-8.216876559062e-05 -9.061505757126e-04 0.0 
0.0 0.0 0.0 
2.609237887438e-03 -4.996182422697e-05 0.0 
-4.996182422697e-05 -9.864411488824e-04 0.0 
0.0 0.0 0.0 
2.722827073132e-03 1.683593159175e-05 0.0 
1.683593159175e-05 -1.031450836062e-03 0.0 
0.0 0.0 0.0 
-2.185065525345e-03 4.367875545293e-03 0.0 
4.367875545293e-03 -1.859067872268e-04 0.0 
0.0 0.0 0.0 
-1.789130718470e-03 3.530291916161e-03 0.0 
3.530291916161e-03 1.495048192293e-03 0.0 
0.0 0.0 0.0 
-1.633201151050e-03 3.569160465253e-03 0.0 
3.569160465253e-03 2.712329572517e-03 0.0 
0.0 0.0 0.0 
-1.652979354764e-03 3.524423745088e-03 0.0 
3.524423745088e-03 3.880253430471e-03 0.0 
0.0 0.0 0.0 
-1.741839490978e-03 3.483211255136e-03 0.0 
3.483211255136e-03 5.121733478111e-03 0.0 
0.0 0.0 0.0 
-1.804565497610e-03 3.371716582633e-03 0.0 
3.371716582633e-03 6.551497845202e-03 0.0 
0.0 0.0 0.0 
-1.952774823640e-03 3.232721227165e-03 0.0 
3.232721227165e-03 8.108071081028e-03 0.0 
0.0 0.0 0.0 
-2.211407423603e-03 3.144322094390e-03 0.0 
3.144322094390e-03 9.723480812243e-03 0.0 
0.0 0.0 0.0 
-2.597904921727e-03 3.113149889763e-03 0.0 
3.113149889763e-03 1.137155202447e-02 0.0 
0.0 0.0 0.0 
-3.545532423419e-03 3.137289639267e-03 0.0 
3.137289639267e-03 1.322398362686e-02 0.0 
0.0 0.0 0.0 
-1.330413557883e-03 3.713142911403e-03 0.0 
3.713142911403e-03 1.445018970962e-03 0.0 
0.0 0.0 0.0 
6.957059122338e-04 1.960377931258e-03 0.0 
1.960377931258e-03 4.264100999657e-03 0.0 
0.0 0.0 0.0 
-2.127323525097e-04 -4.287815143580e-04 0.0 
-4.287815143580e-04 3.479070363472e-04 0.0 
0.0 0.0 0.0 
-1.679555467970e-03 -1.906806228727e-03 0.0 
-1.906806228727e-03 -2.709175955238e-03 0.0 
0.0 0.0 0.0 
4.217076636727e-04 2.318026448403e-04 0.0 
2.318026448403e-04 4.338876640143e-03 0.0 
0.0 0.0 0.0 
-1.363140404947e-03 3.616114584462e-03 0.0 
3.616114584462e-03 3.985574556310e-03 0.0 
0.0 0.0 0.0 
-1.108984066542e-03 -2.507303024319e-04 0.0 
-2.507303024319e-04 3.592453162441e-03 0.0 
0.0 0.0 0.0 
6.662760034014e-04 3.615899710998e-03 0.0 
3.615899710998e-03 5.377011683869e-03 0.0 
0.0 0.0 0.0 
-1.623442478544e-03 3.506024184776e-03 0.0 
3.506024184776e-03 6.679412543514e-03 0.0 
0.0 0.0 0.0 
3.827668438174e-04 4.890994940285e-03 0.0 
4.890994940285e-03 7.560453460166e-03 0.0 
0.0 0.0 0.0 
-2.236184122435e-03 3.380776081537e-03 0.0 
3.380776081537e-03 9.972675605199e-03 0.0 
0.0 0.0 0.0 
1.026421932109e-04 -3.908099246586e-04 0.0 
-3.908099246586e-04 5.112136525790e-03 0.0 
0.0 0.0 0.0 
1.261450126978e-03 -3.063109898801e-04 0.0 
-3.063109898801e-04 -2.932863037360e-04 0.0 
0.0 0.0 0.0 
7.245492030572e-06 5.369227269769e-03 0.0 
5.369227269769e-03 1.037729787691e-02 0.0 
0.0 0.0 0.0 
-3.555466133064e-03 3.028827104494e-03 0.0 
3.028827104494e-03 1.350098663473e-02 0.0 
0.0 0.0 0.0 
-8.061282673302e-04 -2.106047131780e-04 0.0 
-2.106047131780e-04 2.551942557148e-03 0.0 
0.0 0.0 0.0 
-8.863104490709e-04 -2.091074006693e-04 0.0 
-2.091074006693e-04 4.208910273904e-03 0.0 
0.0 0.0 0.0 
-2.898616553906e-04 5.106976066569e-03 0.0 
5.106976066569e-03 1.250741446681e-02 0.0 
0.0 0.0 0.0 
-5.018470318294e-04 4.113734245296e-03 0.0 
4.113734245296e-03 1.497479783004e-02 0.0 
0.0 0.0 0.0 
-4.405767891560e-04 1.252743813011e-03 0.0 
1.252743813011e-03 1.726949396570e-02 0.0 
0.0 0.0 0.0 
-5.741838204075e-04 2.116051410604e-03 0.0 
2.116051410604e-03 1.691281749747e-02 0.0 
0.0 0.0 0.0 
-5.542385845958e-04 3.121894574967e-03 0.0 
3.121894574967e-03 1.619487868553e-02 0.0 
0.0 0.0 0.0 
-3.386000598053e-03 1.279051228397e-03 0.0 
1.279051228397e-03 1.513596328319e-02 0.0 
0.0 0.0 0.0 
-2.455985416999e-03 2.866901320640e-04 0.0 
2.866901320640e-04 1.518692550216e-02 0.0 
0.0 0.0 0.0 
-2.221746941829e-03 1.323424570386e-04 0.0 
1.323424570386e-04 1.520773004685e-02 0.0 
0.0 0.0 0.0 
-1.724859210344e-03 7.415195724927e-05 0.0 
7.415195724927e-05 1.646727540038e-02 0.0 
0.0 0.0 0.0 
-6.685912064872e-05 -4.022969850678e-04 0.0 
-4.022969850678e-04 5.579592590780e-03 0.0 
0.0 0.0 0.0 
-1.835478141170e-03 1.071191205831e-03 0.0 
1.071191205831e-03 -3.634283194656e-03 0.0 
0.0 0.0 0.0 
1.979388922280e-03 -1.588117911302e-04 0.0 
-1.588117911302e-04 -5.779024200240e-04 0.0 
0.0 0.0 0.0 
-5.535388096221e-04 -1.203888043839e-04 0.0 
-1.203888043839e-04 5.092853312381e-03 0.0 
0.0 0.0 0.0 
-2.080919832562e-03 4.526937051615e-05 0.0 
4.526937051615e-05 1.514079088735e-02 0.0 
0.0 0.0 0.0 
5.170579927563e-04 -1.121004434599e-04 0.0 
-1.121004434599e-04 1.052696284605e-03 0.0 
0.0 0.0 0.0 
-4.795480742160e-04 4.619631625429e-03 0.0 
4.619631625429e-03 1.384790086298e-02 0.0 
0.0 0.0 0.0 
5.048051653015e-04 4.356726667659e-03 0.0 
4.356726667659e-03 6.431822421088e-03 0.0 
0.0 0.0 0.0 
1.924933172725e-04 5.248328497701e-03 0.0 
5.248328497701e-03 8.933005931763e-03 0.0 
0.0 0.0 0.0 
7.602235095291e-04 2.859628280185e-03 0.0 
2.859628280185e-03 4.672270042844e-03 0.0 
0.0 0.0 0.0 
5.823803818217e-04 1.170541250628e-03 0.0 
1.170541250628e-03 4.144504827025e-03 0.0 
0.0 0.0 0.0 
-1.291830230661e-03 -1.650777259145e-03 0.0 
-1.650777259145e-03 4.641981585123e-04 0.0 
0.0 0.0 0.0 
-2.767701218815e-03 5.514382274459e-04 0.0 
5.514382274459e-04 1.517814016411e-02 0.0 
0.0 0.0 0.0 
2.935758927965e-04 -1.887293122658e-04 0.0 
-1.887293122658e-04 4.590966157889e-03 0.0 
0.0 0.0 0.0 
-1.303552642932e-03 1.250342493492e-04 0.0 
1.250342493492e-04 1.697778422082e-02 0.0 
0.0 0.0 0.0 
4.873804693586e-04 -3.270685338468e-04 0.0 
-3.270685338468e-04 6.164900988768e-05 0.0 
0.0 0.0 0.0 
-1.102409337893e-03 -2.544567292586e-04 0.0 
-2.544567292586e-04 3.132703235718e-03 0.0 
0.0 0.0 0.0 
-3.457194592338e-04 7.741163079333e-04 0.0 
7.741163079333e-04 1.739168198224e-02 0.0 
0.0 0.0 0.0 
-1.401372440914e-03 3.605836523207e-03 0.0 
3.605836523207e-03 5.202580868836e-03 0.0 
0.0 0.0 0.0 
-1.275505053731e-03 3.703329225780e-03 0.0 
3.703329225780e-03 2.730372351449e-03 0.0 
0.0 0.0 0.0 
-1.877557795595e-03 3.454243429750e-03 0.0 
3.454243429750e-03 8.272083773114e-03 0.0 
0.0 0.0 0.0 
-2.728023767184e-03 3.319607980932e-03 0.0 
3.319607980932e-03 1.170851911131e-02 0.0 
0.0 0.0 0.0 
-1.698950668346e-03 4.163565570921e-03 0.0 
4.163565570921e-03 -1.697284657118e-04 0.0 
0.0 0.0 0.0 
-1.959021149008e-03 3.620482698134e-05 0.0 
3.620482698134e-05 1.583075997656e-02 0.0 
0.0 0.0 0.0 
-1.182658366222e-04 -2.641559421830e-04 0.0 
-2.641559421830e-04 5.862915363013e-03 0.0 
0.0 0.0 0.0 
2.253231615982e-03 -5.824748686145e-05 0.0 
-5.824748686145e-05 -7.181192302492e-04 0.0 
0.0 0.0 0.0 
-6.538021856025e-04 1.904141796915e-04 0.0 
1.904141796915e-04 1.733802145431e-02 0.0 
0.0 0.0 0.0 
-3.548882335448e-03 2.593778939742e-03 0.0 
2.593778939742e-03 1.416061548503e-02 0.0 
0.0 0.0 0.0 
-3.147320712270e-03 3.050386698049e-03 0.0 
3.050386698049e-03 1.348413960735e-02 0.0 
0.0 0.0 0.0 
-3.264168014590e-03 2.698830182406e-03 0.0 
2.698830182406e-03 1.426750888925e-02 0.0 
0.0 0.0 0.0 
-2.868968206403e-03 3.249065185076e-03 0.0 
3.249065185076e-03 1.349398639295e-02 0.0 
0.0 0.0 0.0 
-2.910818074069e-03 2.979959286174e-03 0.0 
2.979959286174e-03 1.416518352918e-02 0.0 
0.0 0.0 0.0 
-2.576330612556e-03 3.402563981204e-03 0.0 
3.402563981204e-03 1.351159280075e-02 0.0 
0.0 0.0 0.0 
-2.491203360382e-03 3.623324401259e-03 0.0 
3.623324401259e-03 1.278929450930e-02 0.0 
0.0 0.0 0.0 
-2.211250056496e-03 3.745307453344e-03 0.0 
3.745307453344e-03 1.284291509135e-02 0.0 
0.0 0.0 0.0 
-2.084795020891e-03 3.941466541595e-03 0.0 
3.941466541595e-03 1.206383231040e-02 0.0 
0.0 0.0 0.0 
-2.627280067966e-03 3.180368163768e-03 0.0 
3.180368163768e-03 1.416480069759e-02 0.0 
0.0 0.0 0.0 
-1.819656350241e-03 4.031328858288e-03 0.0 
4.031328858288e-03 1.214862139108e-02 0.0 
0.0 0.0 0.0 
-1.657602124089e-03 4.200644994456e-03 0.0 
4.200644994456e-03 1.131771100676e-02 0.0 
0.0 0.0 0.0 
-1.410335674758e-03 4.266641746793e-03 0.0 
4.266641746793e-03 1.143063396580e-02 0.0 
0.0 0.0 0.0 
-1.218663913397e-03 4.406893746725e-03 0.0 
4.406893746725e-03 1.056017238348e-02 0.0 
0.0 0.0 0.0 
-1.438287431615e-03 4.359853138426e-03 0.0 
4.359853138426e-03 1.042250412452e-02 0.0 
0.0 0.0 0.0 
-9.749983624269e-04 4.540467356474e-03 0.0 
4.540467356474e-03 9.630444617542e-03 0.0 
0.0 0.0 0.0 
-1.164471804614e-03 4.478022674429e-03 0.0 
4.478022674429e-03 9.470282801548e-03 0.0 
0.0 0.0 0.0 
-6.760944180817e-04 4.633890930082e-03 0.0 
4.633890930082e-03 8.644959440420e-03 0.0 
0.0 0.0 0.0 
-5.123012490485e-04 4.657695728604e-03 0.0 
4.657695728604e-03 8.848026684432e-03 0.0 
0.0 0.0 0.0 
-1.869313633642e-04 4.724537193187e-03 0.0 
4.724537193187e-03 7.830244257882e-03 0.0 
0.0 0.0 0.0 
-3.276674571653e-04 4.678386448420e-03 0.0 
4.678386448420e-03 7.612341891047e-03 0.0 
0.0 0.0 0.0 
1.794174984308e-04 4.744181824720e-03 0.0 
4.744181824720e-03 6.774881882058e-03 0.0 
0.0 0.0 0.0 
4.575358145279e-05 4.688793551117e-03 0.0 
4.688793551117e-03 6.555744825386e-03 0.0 
0.0 0.0 0.0 
5.716382263554e-04 4.717549450869e-03 0.0 
4.717549450869e-03 5.700458733157e-03 0.0 
0.0 0.0 0.0 
4.405205665057e-04 4.659307225192e-03 0.0 
4.659307225192e-03 5.486762325914e-03 0.0 
0.0 0.0 0.0 
9.857705883936e-04 4.646310599210e-03 0.0 
4.646310599210e-03 4.620822450365e-03 0.0 
0.0 0.0 0.0 
1.081807538463e-03 4.681186842854e-03 0.0 
4.681186842854e-03 4.884187141518e-03 0.0 
0.0 0.0 0.0 
1.512587634100e-03 4.567782714877e-03 0.0 
4.567782714877e-03 3.798958383710e-03 0.0 
0.0 0.0 0.0 
1.417916217260e-03 4.528818678803e-03 0.0 
4.528818678803e-03 3.559339074149e-03 0.0 
0.0 0.0 0.0 
1.955593414596e-03 4.392562697947e-03 0.0 
4.392562697947e-03 2.743670905314e-03 0.0 
0.0 0.0 0.0 
1.847142649692e-03 4.355227595863e-03 0.0 
4.355227595863e-03 2.544932780406e-03 0.0 
0.0 0.0 0.0 
2.411336340844e-03 4.162047216674e-03 0.0 
4.162047216674e-03 1.735830798863e-03 0.0 
0.0 0.0 0.0 
2.452305678613e-03 4.191338299930e-03 0.0 
4.191338299930e-03 2.004090584850e-03 0.0 
0.0 0.0 0.0 
2.950571563751e-03 3.924208871645e-03 0.0 
3.924208871645e-03 9.873872747929e-04 0.0 
0.0 0.0 0.0 
2.933388441287e-03 3.939713476752e-03 0.0 
3.939713476752e-03 7.212911708758e-04 0.0 
0.0 0.0 0.0 
3.522111112252e-03 3.655963398425e-03 0.0 
3.655963398425e-03 -5.464095825984e-05 0.0 
0.0 0.0 0.0 
3.492627036508e-03 3.715204678125e-03 0.0 
3.715204678125e-03 -2.816317914968e-04 0.0 
0.0 0.0 0.0 
4.078088645805e-03 3.319248159222e-03 0.0 
3.319248159222e-03 -1.005543004756e-03 0.0 
0.0 0.0 0.0 
4.020080513297e-03 3.376342723128e-03 0.0 
3.376342723128e-03 -1.145941393813e-03 0.0 
0.0 0.0 0.0 
4.557406499687e-03 2.860878501756e-03 0.0 
2.860878501756e-03 -1.782612914136e-03 0.0 
0.0 0.0 0.0 
4.521927390689e-03 2.824099707428e-03 0.0 
2.824099707428e-03 -1.586433271655e-03 0.0 
0.0 0.0 0.0 
4.914541694577e-03 2.269925092586e-03 0.0 
2.269925092586e-03 -2.260203488157e-03 0.0 
0.0 0.0 0.0 
4.912026054687e-03 2.303613195801e-03 0.0 
2.303613195801e-03 -2.434704534543e-03 0.0 
0.0 0.0 0.0 
5.159004281368e-03 1.626415800592e-03 0.0 
1.626415800592e-03 -2.772579088135e-03 0.0 
0.0 0.0 0.0 
5.077266828214e-03 1.649882180197e-03 0.0 
1.649882180197e-03 -2.556283783884e-03 0.0 
0.0 0.0 0.0 
5.194026624914e-03 9.617995672556e-04 0.0 
9.617995672556e-04 -2.922917651407e-03 0.0 
0.0 0.0 0.0 
5.042670984649e-03 1.037481457717e-03 0.0 
1.037481457717e-03 -2.651493928557e-03 0.0 
0.0 0.0 0.0 
5.022280086796e-03 3.413526938891e-04 0.0 
3.413526938891e-04 -2.888428019741e-03 0.0 
0.0 0.0 0.0 
5.126898286708e-03 2.245842689352e-04 0.0 
2.245842689352e-04 -3.130987264275e-03 0.0 
0.0 0.0 0.0 
4.818129706823e-03 -3.648786979179e-04 0.0 
-3.648786979179e-04 -2.941845758111e-03 0.0 
0.0 0.0 0.0 
4.642606044817e-03 -1.884615149832e-04 0.0 
-1.884615149832e-04 -2.603377525464e-03 0.0 
0.0 0.0 0.0 
4.321584283003e-03 -8.242057451105e-04 0.0 
-8.242057451105e-04 -2.526976757371e-03 0.0 
0.0 0.0 0.0 
4.454765397641e-03 -1.057160210081e-03 0.0 
-1.057160210081e-03 -2.837954851787e-03 0.0 
0.0 0.0 0.0 
3.868200032757e-03 -1.398542424700e-03 0.0 
-1.398542424700e-03 -2.287491258593e-03 0.0 
0.0 0.0 0.0 
3.711829106229e-03 -1.124023708648e-03 0.0 
-1.124023708648e-03 -1.920724882542e-03 0.0 
0.0 0.0 0.0 
3.261458871439e-03 -1.588618156018e-03 0.0 
-1.588618156018e-03 -1.643280850649e-03 0.0 
0.0 0.0 0.0 
3.331945589787e-03 -1.876657038992e-03 0.0 
-1.876657038992e-03 -1.931784348776e-03 0.0 
0.0 0.0 0.0 
2.786178892537e-03 -1.984877586581e-03 0.0 
-1.984877586581e-03 -1.293180741604e-03 0.0 
0.0 0.0 0.0 
2.785994155861e-03 -1.743197244389e-03 0.0 
-1.743197244389e-03 -1.105189895241e-03 0.0 
0.0 0.0 0.0 
2.346676806722e-03 -2.070790578534e-03 0.0 
-2.070790578534e-03 -7.700800839697e-04 0.0 
0.0 0.0 0.0 
2.301139206635e-03 -2.299478143812e-03 0.0 
-2.299478143812e-03 -8.986485856635e-04 0.0 
0.0 0.0 0.0 
1.880974524184e-03 -2.310034778689e-03 0.0 
-2.310034778689e-03 -3.774903332904e-04 0.0 
0.0 0.0 0.0 
1.887003677759e-03 -2.086454794789e-03 0.0 
-2.086454794789e-03 -1.986339941806e-04 0.0 
0.0 0.0 0.0 
1.441046586815e-03 -2.248182321936e-03 0.0 
-2.248182321936e-03 1.844425795111e-04 0.0 
0.0 0.0 0.0 
1.425926945272e-03 -2.034358475523e-03 0.0 
-2.034358475523e-03 4.216634777713e-04 0.0 
0.0 0.0 0.0 
1.403211941373e-03 -2.445272236673e-03 0.0 
-2.445272236673e-03 4.841412979314e-05 0.0 
0.0 0.0 0.0 
9.982296960976e-04 -2.317623131251e-03 0.0 
-2.317623131251e-03 5.848114671723e-04 0.0 
0.0 0.0 0.0 
9.394870245803e-04 -2.467060112673e-03 0.0 
-2.467060112673e-03 4.804766128654e-04 0.0 
0.0 0.0 0.0 
5.760913178293e-04 -2.289073377876e-03 0.0 
-2.289073377876e-03 9.794072718163e-04 0.0 
0.0 0.0 0.0 
2.901829203195e-03 3.945040650807e-03 0.0 
3.945040650807e-03 1.351997372518e-03 0.0 
0.0 0.0 0.0 
5.150215037183e-04 -2.373890288133e-03 0.0 
-2.373890288133e-03 8.858594777843e-04 0.0 
0.0 0.0 0.0 
8.332065555214e-04 -2.547698734713e-03 0.0 
-2.547698734713e-03 4.331259253877e-04 0.0 
0.0 0.0 0.0 
2.013253575071e-04 -2.167057493073e-03 0.0 
-2.167057493073e-03 1.336922108755e-03 0.0 
0.0 0.0 0.0 
2.350526288371e-04 -2.077507264181e-03 0.0 
-2.077507264181e-03 1.476427477192e-03 0.0 
0.0 0.0 0.0 
1.596017431173e-04 -2.184442204875e-03 0.0 
-2.184442204875e-03 1.231158339498e-03 0.0 
0.0 0.0 0.0 
-1.056230177767e-04 -1.968059308280e-03 0.0 
-1.968059308280e-03 1.633641209946e-03 0.0 
0.0 0.0 0.0 
-1.085570102879e-04 -1.924272200128e-03 0.0 
-1.924272200128e-03 1.499919816340e-03 0.0 
0.0 0.0 0.0 
3.340601682185e-03 3.775735537630e-03 0.0 
3.775735537630e-03 -3.715004347355e-04 0.0 
0.0 0.0 0.0 
-6.105719600619e-05 4.710024653638e-03 0.0 
4.710024653638e-03 8.087051575836e-03 0.0 
0.0 0.0 0.0 
-3.315418704437e-04 -1.709115097573e-03 0.0 
-1.709115097573e-03 1.855141220485e-03 0.0 
0.0 0.0 0.0 
-2.763455441136e-04 -1.614354597338e-03 0.0 
-1.614354597338e-03 1.674609578205e-03 0.0 
0.0 0.0 0.0 
-1.012482682982e-04 -1.802452294104e-03 0.0 
-1.802452294104e-03 1.371254193372e-03 0.0 
0.0 0.0 0.0 
-1.863505669285e-04 -1.445190565545e-03 0.0 
-1.445190565545e-03 1.472995535404e-03 0.0 
0.0 0.0 0.0 
-2.920866451324e-03 2.754709384108e-03 0.0 
2.754709384108e-03 1.470706326654e-02 0.0 
0.0 0.0 0.0 
-2.600817557387e-03 2.962809947713e-03 0.0 
2.962809947713e-03 1.472725339015e-02 0.0 
0.0 0.0 0.0 
-2.843500359698e-03 2.499204390376e-03 0.0 
2.499204390376e-03 1.519675362173e-02 0.0 
0.0 0.0 0.0 
-2.525055689878e-03 2.764276918152e-03 0.0 
2.764276918152e-03 1.522425803682e-02 0.0 
0.0 0.0 0.0 
-2.718971758253e-03 2.305789889616e-03 0.0 
2.305789889616e-03 1.559871544751e-02 0.0 
0.0 0.0 0.0 
-3.339324392332e-04 -1.282480369190e-03 0.0 
-1.282480369190e-03 1.745298145283e-03 0.0 
0.0 0.0 0.0 
-1.547300602129e-03 4.132917432244e-03 0.0 
4.132917432244e-03 1.224043612393e-02 0.0 
0.0 0.0 0.0 
-2.269514569596e-03 3.178979157168e-03 0.0 
3.178979157168e-03 1.475997932783e-02 0.0 
0.0 0.0 0.0 
-4.849582281999e-04 4.596703750416e-03 0.0 
4.596703750416e-03 7.439114168768e-03 0.0 
0.0 0.0 0.0 
1.268389969692e-03 4.477608350875e-03 0.0 
4.477608350875e-03 3.410754738366e-03 0.0 
0.0 0.0 0.0 
4.872869559893e-03 1.692773100083e-03 0.0 
1.692773100083e-03 -2.208522407059e-03 0.0 
0.0 0.0 0.0 
-3.559593175179e-04 -1.731215018988e-03 0.0 
-1.731215018988e-03 2.026653305366e-03 0.0 
0.0 0.0 0.0 
-5.438136741052e-04 -1.481417710061e-03 0.0 
-1.481417710061e-03 2.201773030164e-03 0.0 
0.0 0.0 0.0 
-5.768032874172e-04 -1.481044630885e-03 0.0 
-1.481044630885e-03 2.397526910082e-03 0.0 
0.0 0.0 0.0 
1.838577630694e-03 -1.857358807768e-03 0.0 
-1.857358807768e-03 9.507103223155e-05 0.0 
0.0 0.0 0.0 
1.387866598569e-03 -1.802365737069e-03 0.0 
-1.802365737069e-03 7.539371776982e-04 0.0 
0.0 0.0 0.0 
1.769593800316e-03 -1.605463396600e-03 0.0 
-1.605463396600e-03 4.948619746193e-04 0.0 
0.0 0.0 0.0 
1.345543046095e-03 -1.532618620580e-03 0.0 
-1.532618620580e-03 1.163928756074e-03 0.0 
0.0 0.0 0.0 
1.686984929453e-03 -1.298398628811e-03 0.0 
-1.298398628811e-03 9.849662013726e-04 0.0 
0.0 0.0 0.0 
1.281611148072e-03 -1.219962784528e-03 0.0 
-1.219962784528e-03 1.641584115485e-03 0.0 
0.0 0.0 0.0 
9.654074924359e-04 -1.410273349644e-03 0.0 
-1.410273349644e-03 1.801720847002e-03 0.0 
0.0 0.0 0.0 
9.142617579837e-04 -1.114359398535e-03 0.0 
-1.114359398535e-03 2.260959231902e-03 0.0 
0.0 0.0 0.0 
6.293271253155e-04 -1.260117238453e-03 0.0 
-1.260117238453e-03 2.396747509308e-03 0.0 
0.0 0.0 0.0 
1.559779193166e-03 -9.538758038755e-04 0.0 
-9.538758038755e-04 1.545828750844e-03 0.0 
0.0 0.0 0.0 
1.984657733281e-03 -9.762090278271e-04 0.0 
-9.762090278271e-04 8.902319724360e-04 0.0 
0.0 0.0 0.0 
5.921705810121e-04 -9.937134269131e-04 0.0 
-9.937134269131e-04 2.835809033151e-03 0.0 
0.0 0.0 0.0 
3.383864341199e-04 -1.096793451469e-03 0.0 
-1.096793451469e-03 2.944759996171e-03 0.0 
0.0 0.0 0.0 
3.180573540309e-04 -8.658152727178e-04 0.0 
-8.658152727178e-04 3.364354788388e-03 0.0 
0.0 0.0 0.0 
8.923557752966e-05 -9.316388253422e-04 0.0 
-9.316388253422e-04 3.444417333409e-03 0.0 
0.0 0.0 0.0 
6.682560723548e-05 -1.141671535065e-03 0.0 
-1.141671535065e-03 3.077035697839e-03 0.0 
0.0 0.0 0.0 
-1.490576410531e-04 -9.459958580617e-04 0.0 
-9.459958580617e-04 3.536527012007e-03 0.0 
0.0 0.0 0.0 
-1.950649414866e-04 -1.134006265042e-03 0.0 
-1.134006265042e-03 3.210483311068e-03 0.0 
0.0 0.0 0.0 
4.747817797354e-03 1.124456798849e-03 0.0 
1.124456798849e-03 -2.186939712380e-03 0.0 
0.0 0.0 0.0 
4.497289834510e-03 1.772426177549e-03 0.0 
1.772426177549e-03 -1.571320227616e-03 0.0 
0.0 0.0 0.0 
4.277030493775e-03 1.249167369446e-03 0.0 
1.249167369446e-03 -1.367528106642e-03 0.0 
0.0 0.0 0.0 
3.985051396216e-03 1.852119119959e-03 0.0 
1.852119119959e-03 -6.018686162048e-04 0.0 
0.0 0.0 0.0 
3.747717688175e-03 1.410309064175e-03 0.0 
1.410309064175e-03 -3.734218211205e-04 0.0 
0.0 0.0 0.0 
3.467275536320e-03 1.943264605914e-03 0.0 
1.943264605914e-03 3.488050592249e-04 0.0 
0.0 0.0 0.0 
3.252023282132e-03 1.578500088861e-03 0.0 
1.578500088861e-03 5.258496056755e-04 0.0 
0.0 0.0 0.0 
3.459894826687e-03 1.045778792211e-03 0.0 
1.045778792211e-03 -8.207199325461e-05 0.0 
0.0 0.0 0.0 
-9.985012695486e-04 4.457803057931e-03 0.0 
4.457803057931e-03 1.070235325086e-02 0.0 
0.0 0.0 0.0 
5.136958587049e-03 1.637418791820e-03 0.0 
1.637418791820e-03 -3.001014821597e-03 0.0 
0.0 0.0 0.0 
4.788256355231e-03 2.356386525950e-03 0.0 
2.356386525950e-03 -2.595173671433e-03 0.0 
0.0 0.0 0.0 
4.992835461562e-03 1.656441902690e-03 0.0 
1.656441902690e-03 -3.188711010134e-03 0.0 
0.0 0.0 0.0 
4.549721882543e-03 2.434518365916e-03 0.0 
2.434518365916e-03 -2.696555964685e-03 0.0 
0.0 0.0 0.0 
4.719244990107e-03 1.733786724900e-03 0.0 
1.733786724900e-03 -3.321932414293e-03 0.0 
0.0 0.0 0.0 
4.184733600397e-03 2.593642945199e-03 0.0 
2.593642945199e-03 -2.747127476151e-03 0.0 
0.0 0.0 0.0 
4.324795470812e-03 1.866035481834e-03 0.0 
1.866035481834e-03 -3.460272343293e-03 0.0 
0.0 0.0 0.0 
4.694931059350e-03 8.693885671675e-04 0.0 
8.693885671675e-04 -3.811451175912e-03 0.0 
0.0 0.0 0.0 
4.233964182341e-03 9.245528216699e-04 0.0 
9.245528216699e-04 -4.027516149021e-03 0.0 
0.0 0.0 0.0 
4.454085190452e-03 -1.279750468060e-04 0.0 
-1.279750468060e-04 -4.086727265056e-03 0.0 
0.0 0.0 0.0 
3.895956201629e-03 -1.362562567206e-04 0.0 
-1.362562567206e-04 -4.306865301498e-03 0.0 
0.0 0.0 0.0 
4.054303715542e-03 -1.167765226800e-03 0.0 
-1.167765226800e-03 -4.079786591826e-03 0.0 
0.0 0.0 0.0 
1.561571460483e-03 4.577094452853e-03 0.0 
4.577094452853e-03 4.124833758953e-03 0.0 
0.0 0.0 0.0 
3.610961609063e-03 2.363840479056e-03 0.0 
2.363840479056e-03 2.632488149408e-04 0.0 
0.0 0.0 0.0 
3.122661397849e-03 2.413352595500e-03 0.0 
2.413352595500e-03 1.145787081018e-03 0.0 
0.0 0.0 0.0 
3.204174526817e-03 2.792482778911e-03 0.0 
2.792482778911e-03 1.151002071969e-03 0.0 
0.0 0.0 0.0 
-6.958197186502e-05 -1.588363231370e-03 0.0 
-1.588363231370e-03 1.226058906267e-03 0.0 
0.0 0.0 0.0 
-1.184995050806e-04 -7.716643421231e-04 0.0 
-7.716643421231e-04 3.894781226466e-03 0.0 
0.0 0.0 0.0 
1.775247422084e-03 -6.282134129333e-04 0.0 
-6.282134129333e-04 1.530662435128e-03 0.0 
0.0 0.0 0.0 
2.203098043278e-03 -5.841550783922e-04 0.0 
-5.841550783922e-04 8.985397120691e-04 0.0 
0.0 0.0 0.0 
2.976961852989e-03 1.258888555179e-03 0.0 
1.258888555179e-03 8.004279632187e-04 0.0 
0.0 0.0 0.0 
-1.498384579931e-04 -1.084952365739e-03 0.0 
-1.084952365739e-03 1.461331198984e-03 0.0 
0.0 0.0 0.0 
3.687058640287e-03 2.788724788592e-03 0.0 
2.788724788592e-03 -2.764581522350e-03 0.0 
0.0 0.0 0.0 
3.406390235891e-03 3.313252454880e-03 0.0 
3.313252454880e-03 -1.911889319517e-03 0.0 
0.0 0.0 0.0 
-2.394543908226e-03 2.585041897097e-03 0.0 
2.585041897097e-03 1.564162749475e-02 0.0 
0.0 0.0 0.0 
-2.550561191124e-03 2.146193138427e-03 0.0 
2.146193138427e-03 1.593574573982e-02 0.0 
0.0 0.0 0.0 
1.911190318192e-03 -2.615880341318e-04 0.0 
-2.615880341318e-04 1.608107747567e-03 0.0 
0.0 0.0 0.0 
-2.732686321764e-04 -9.495163974632e-04 0.0 
-9.495163974632e-04 1.712237334642e-03 0.0 
0.0 0.0 0.0 
8.208237973910e-04 -8.333203004460e-04 0.0 
-8.333203004460e-04 2.763620825220e-03 0.0 
0.0 0.0 0.0 
3.573050770179e-03 1.039367981161e-03 0.0 
1.039367981161e-03 -4.193415524479e-03 0.0 
0.0 0.0 0.0 
-3.207152262358e-04 -7.582733852875e-04 0.0 
-7.582733852875e-04 3.944541551476e-03 0.0 
0.0 0.0 0.0 
-2.740135351331e-04 -6.169654291211e-04 0.0 
-6.169654291211e-04 4.290191005999e-03 0.0 
0.0 0.0 0.0 
6.335842676152e-04 -1.524163607381e-03 0.0 
-1.524163607381e-03 2.003944676914e-03 0.0 
0.0 0.0 0.0 
2.745912210251e-03 2.827262430983e-03 0.0 
2.827262430983e-03 1.987976097524e-03 0.0 
0.0 0.0 0.0 
2.789880621267e-03 3.157578706982e-03 0.0 
3.157578706982e-03 2.054543497693e-03 0.0 
0.0 0.0 0.0 
4.421558060443e-03 -1.039453381795e-03 0.0 
-1.039453381795e-03 -3.835567575886e-03 0.0 
0.0 0.0 0.0 
3.899021994026e-03 -1.987765772422e-03 0.0 
-1.987765772422e-03 -3.548041074653e-03 0.0 
0.0 0.0 0.0 
3.548305454817e-03 -2.209116627391e-03 0.0 
-2.209116627391e-03 -3.697580014012e-03 0.0 
0.0 0.0 0.0 
3.154574490685e-03 -2.773088746496e-03 0.0 
-2.773088746496e-03 -2.932855844642e-03 0.0 
0.0 0.0 0.0 
3.520339164857e-03 -2.473878985458e-03 0.0 
-2.473878985458e-03 -2.921953662354e-03 0.0 
0.0 0.0 0.0 
2.725505925179e-03 -3.005558546864e-03 0.0 
-3.005558546864e-03 -2.257860218455e-03 0.0 
0.0 0.0 0.0 
2.251417616188e-03 -3.295198829767e-03 0.0 
-3.295198829767e-03 -2.095112186678e-03 0.0 
0.0 0.0 0.0 
1.859370623958e-03 -3.295420827259e-03 0.0 
-3.295420827259e-03 -1.396441075429e-03 0.0 
0.0 0.0 0.0 
2.286747082618e-03 -3.064588424201e-03 0.0 
-3.064588424201e-03 -1.614546481917e-03 0.0 
0.0 0.0 0.0 
1.465115368704e-03 -3.112884156914e-03 0.0 
-3.112884156914e-03 -8.251821921116e-04 0.0 
0.0 0.0 0.0 
8.928509496457e-04 -3.119624835389e-03 0.0 
-3.119624835389e-03 -4.798030590253e-04 0.0 
0.0 0.0 0.0 
7.016801644291e-04 -2.851901021154e-03 0.0 
-2.851901021154e-03 -7.915587332139e-05 0.0 
0.0 0.0 0.0 
-9.954587106512e-05 -6.158408712955e-04 0.0 
-6.158408712955e-04 4.278879746980e-03 0.0 
0.0 0.0 0.0 
3.201908383034e-03 -1.009358097663e-04 0.0 
-1.009358097663e-04 -4.520455496619e-03 0.0 
0.0 0.0 0.0 
-1.644933675295e-03 4.263545330054e-03 0.0 
4.263545330054e-03 1.030033195492e-02 0.0 
0.0 0.0 0.0 
1.514214891877e-03 -3.356127223469e-04 0.0 
-3.356127223469e-04 2.193420507980e-03 0.0 
0.0 0.0 0.0 
2.741383506994e-03 1.742492474891e-03 0.0 
1.742492474891e-03 1.398052126480e-03 0.0 
0.0 0.0 0.0 
-2.213744353772e-03 2.432346526818e-03 0.0 
2.432346526818e-03 1.599367828738e-02 0.0 
0.0 0.0 0.0 
-2.344953799765e-03 2.016388006120e-03 0.0 
2.016388006120e-03 1.621639165339e-02 0.0 
0.0 0.0 0.0 
-2.625061973589e-03 1.707194972684e-03 0.0 
1.707194972684e-03 1.611548649792e-02 0.0 
0.0 0.0 0.0 
-2.410022908870e-03 1.613970710946e-03 0.0 
1.613970710946e-03 1.634021933046e-02 0.0 
0.0 0.0 0.0 
-2.106200017243e-03 1.907765569361e-03 0.0 
1.907765569361e-03 1.645074448211e-02 0.0 
0.0 0.0 0.0 
-2.175615342981e-03 1.535160740806e-03 0.0 
1.535160740806e-03 1.653774278805e-02 0.0 
0.0 0.0 0.0 
-2.417148855267e-03 1.248095773936e-03 0.0 
1.248095773936e-03 1.637366578451e-02 0.0 
0.0 0.0 0.0 
-2.199438330069e-03 1.199446737653e-03 0.0 
1.199446737653e-03 1.654991183005e-02 0.0 
0.0 0.0 0.0 
-2.382409425316e-03 9.321562408870e-04 0.0 
9.321562408870e-04 1.633160556705e-02 0.0 
0.0 0.0 0.0 
-2.189569298601e-03 9.106453135985e-04 0.0 
9.106453135985e-04 1.649910013526e-02 0.0 
0.0 0.0 0.0 
-1.969325804957e-03 1.151131548478e-03 0.0 
1.151131548478e-03 1.671107222379e-02 0.0 
0.0 0.0 0.0 
-1.984343738298e-03 8.824118353920e-04 0.0 
8.824118353920e-04 1.665303735645e-02 0.0 
0.0 0.0 0.0 
-2.159598008491e-03 6.710498779675e-04 0.0 
6.710498779675e-04 1.639845519635e-02 0.0 
0.0 0.0 0.0 
-1.983479356739e-03 6.560490555749e-04 0.0 
6.560490555749e-04 1.655575641063e-02 0.0 
0.0 0.0 0.0 
-2.123225456507e-03 4.787924958137e-04 0.0 
4.787924958137e-04 1.626501444182e-02 0.0 
0.0 0.0 0.0 
-1.976522752824e-03 4.716246494539e-04 0.0 
4.716246494539e-04 1.642838435938e-02 0.0 
0.0 0.0 0.0 
-1.796430632436e-03 6.263279836455e-04 0.0 
6.263279836455e-04 1.670141240430e-02 0.0 
0.0 0.0 0.0 
3.532165931521e-05 -7.714534365450e-04 0.0 
-7.714534365450e-04 1.336810898498e-03 0.0 
0.0 0.0 0.0 
3.124669968005e-03 7.406135741091e-04 0.0 
7.406135741091e-04 2.893626098380e-04 0.0 
0.0 0.0 0.0 
2.646002494782e-03 9.836404392896e-04 0.0 
9.836404392896e-04 1.158215662229e-03 0.0 
0.0 0.0 0.0 
-7.282999713564e-04 -1.244904885141e-03 0.0 
-1.244904885141e-03 2.519892727212e-03 0.0 
0.0 0.0 0.0 
-7.590602665470e-04 -1.222198098153e-03 0.0 
-1.222198098153e-03 2.739754265554e-03 0.0 
0.0 0.0 0.0 
-5.755856518973e-04 -1.429572674581e-03 0.0 
-1.429572674581e-03 2.608644486208e-03 0.0 
0.0 0.0 0.0 
-7.570478702521e-04 -1.164588724118e-03 0.0 
-1.164588724118e-03 2.968171162334e-03 0.0 
0.0 0.0 0.0 
-1.820327961543e-03 4.462351851828e-04 0.0 
4.462351851828e-04 1.658010845769e-02 0.0 
0.0 0.0 0.0 
-1.601642408639e-03 5.781298046506e-04 0.0 
5.781298046506e-04 1.683620352524e-02 0.0 
0.0 0.0 0.0 
2.793306989556e-03 3.533404613851e-03 0.0 
3.533404613851e-03 -1.788887321826e-03 0.0 
0.0 0.0 0.0 
2.434938876612e-03 3.807162798591e-03 0.0 
3.807162798591e-03 -8.784900654979e-04 0.0 
0.0 0.0 0.0 
-2.019512435227e-03 2.846237622543e-03 0.0 
2.846237622543e-03 1.567679346565e-02 0.0 
0.0 0.0 0.0 
-4.475198132051e-04 -5.794146101494e-04 0.0 
-5.794146101494e-04 4.298512999228e-03 0.0 
0.0 0.0 0.0 
-5.180368921230e-04 -7.013774405251e-04 0.0 
-7.013774405251e-04 3.989813604708e-03 0.0 
0.0 0.0 0.0 
1.666388114394e-03 4.316817989091e-03 0.0 
4.316817989091e-03 2.444183378930e-03 0.0 
0.0 0.0 0.0 
1.046883742816e-03 4.411226841128e-03 0.0 
4.411226841128e-03 3.353192117696e-03 0.0 
0.0 0.0 0.0 
1.403458959524e-03 4.272266842928e-03 0.0 
4.272266842928e-03 2.428674967554e-03 0.0 
0.0 0.0 0.0 
7.396932803630e-04 4.310567855817e-03 0.0 
4.310567855817e-03 3.373596427828e-03 0.0 
0.0 0.0 0.0 
4.206570997610e-04 4.409057271925e-03 0.0 
4.409057271925e-03 4.292192065671e-03 0.0 
0.0 0.0 0.0 
1.042493292504e-03 4.191689166127e-03 0.0 
4.191689166127e-03 2.473802023997e-03 0.0 
0.0 0.0 0.0 
2.438818181350e-03 -9.541658517714e-04 0.0 
-9.541658517714e-04 2.123657940940e-04 0.0 
0.0 0.0 0.0 
-1.727342463059e-03 1.095608448016e-03 0.0 
1.095608448016e-03 1.685296313401e-02 0.0 
0.0 0.0 0.0 
3.926578271644e-05 -1.970942551913e-03 0.0 
-1.970942551913e-03 1.098281838701e-03 0.0 
0.0 0.0 0.0 
-1.432554571074e-05 -1.710674977274e-03 0.0 
-1.710674977274e-03 1.029300013942e-03 0.0 
0.0 0.0 0.0 
-3.811192487738e-04 -4.710843057455e-04 0.0 
-4.710843057455e-04 4.631649653247e-03 0.0 
0.0 0.0 0.0 
3.563414678335e-03 4.643529132806e-04 0.0 
4.643529132806e-04 -5.826965850744e-04 0.0 
0.0 0.0 0.0 
1.134796255285e-03 4.666726910183e-03 0.0 
4.666726910183e-03 5.224028873031e-03 0.0 
0.0 0.0 0.0 
1.551897928740e-03 4.516973862205e-03 0.0 
4.516973862205e-03 4.545147216578e-03 0.0 
0.0 0.0 0.0 
1.130313033000e-03 4.597355778064e-03 0.0 
4.597355778064e-03 5.637318953969e-03 0.0 
0.0 0.0 0.0 
1.473870964342e-03 4.436711110821e-03 0.0 
4.436711110821e-03 5.030327396853e-03 0.0 
0.0 0.0 0.0 
1.067106084389e-03 4.553694788347e-03 0.0 
4.553694788347e-03 6.096247266440e-03 0.0 
0.0 0.0 0.0 
1.328609444409e-03 4.411030098286e-03 0.0 
4.411030098286e-03 5.554273412990e-03 0.0 
0.0 0.0 0.0 
1.741041029352e-03 4.236643173544e-03 0.0 
4.236643173544e-03 4.522191234417e-03 0.0 
0.0 0.0 0.0 
2.357992499457e-03 3.203513267940e-03 0.0 
3.203513267940e-03 2.857724137965e-03 0.0 
0.0 0.0 0.0 
1.511506497716e-03 4.239969412404e-03 0.0 
4.239969412404e-03 5.119908653243e-03 0.0 
0.0 0.0 0.0 
-1.974096039219e-03 3.282235889728e-04 0.0 
3.282235889728e-04 1.627765350011e-02 0.0 
0.0 0.0 0.0 
3.650644404773e-03 2.824505569439e-03 0.0 
2.824505569439e-03 2.746401900601e-04 0.0 
0.0 0.0 0.0 
1.835397622286e-03 -2.947541916083e-03 0.0 
-2.947541916083e-03 -1.020676493772e-03 0.0 
0.0 0.0 0.0 
1.125619767411e-04 -8.421959915441e-04 0.0 
-8.421959915441e-04 1.124650063899e-03 0.0 
0.0 0.0 0.0 
2.180793784657e-04 -2.622821237053e-03 0.0 
-2.622821237053e-03 2.626054662490e-04 0.0 
0.0 0.0 0.0 
-9.958311986365e-05 -6.490610193610e-04 0.0 
-6.490610193610e-04 1.565711453221e-03 0.0 
0.0 0.0 0.0 
-4.308287146599e-04 -8.012496509665e-04 0.0 
-8.012496509665e-04 1.971104754447e-03 0.0 
0.0 0.0 0.0 
1.569666662430e-03 2.036396122724e-06 0.0 
2.036396122724e-06 2.332805170982e-03 0.0 
0.0 0.0 0.0 
9.438691956166e-04 4.576227039125e-03 0.0 
4.576227039125e-03 6.596605571428e-03 0.0 
0.0 0.0 0.0 
6.953644242996e-04 4.657673405841e-03 0.0 
4.657673405841e-03 7.137317749106e-03 0.0 
0.0 0.0 0.0 
9.581576494128e-05 4.262237112389e-03 0.0 
4.262237112389e-03 4.333761319323e-03 0.0 
0.0 0.0 0.0 
-1.932272104223e-04 4.310168341633e-03 0.0 
4.310168341633e-03 5.245232501154e-03 0.0 
0.0 0.0 0.0 
2.259438100132e-03 2.906979535006e-03 0.0 
2.906979535006e-03 2.815144464082e-03 0.0 
0.0 0.0 0.0 
-2.989097937447e-03 1.998318587610e-03 0.0 
1.998318587610e-03 1.555063195811e-02 0.0 
0.0 0.0 0.0 
-2.563693467353e-03 9.520235935529e-04 0.0 
9.520235935529e-04 1.615317121773e-02 0.0 
0.0 0.0 0.0 
-2.465068749771e-03 6.693527258156e-04 0.0 
6.693527258156e-04 1.604859204914e-02 0.0 
0.0 0.0 0.0 
3.798357750403e-04 -4.918671817479e-04 0.0 
-4.918671817479e-04 1.030370719267e-03 0.0 
0.0 0.0 0.0 
2.549634022501e-04 -2.956982473245e-03 0.0 
-2.956982473245e-03 7.141111308765e-07 0.0 
0.0 0.0 0.0 
-1.846293459360e-03 1.808068610233e-03 0.0 
1.808068610233e-03 1.665203006010e-02 0.0 
0.0 0.0 0.0 
3.037089630513e-03 3.652722244771e-03 0.0 
3.652722244771e-03 -1.073511961402e-03 0.0 
0.0 0.0 0.0 
2.077763146105e-03 3.961542324494e-03 0.0 
3.961542324494e-03 -5.181907748567e-05 0.0 
0.0 0.0 0.0 
2.681681484531e-03 1.238888988318e-03 0.0 
1.238888988318e-03 -4.305786134921e-03 0.0 
0.0 0.0 0.0 
2.343388518650e-03 -2.807650746711e-05 0.0 
-2.807650746711e-05 -4.655180979215e-03 0.0 
0.0 0.0 0.0 
-1.657744012131e-03 4.046754771297e-04 0.0 
4.046754771297e-04 1.672321109187e-02 0.0 
0.0 0.0 0.0 
-1.411100838853e-03 5.075335735288e-04 0.0 
5.075335735288e-04 1.695878820408e-02 0.0 
0.0 0.0 0.0 
-5.507274321850e-04 -1.339697641382e-03 0.0 
-1.339697641382e-03 2.833071525467e-03 0.0 
0.0 0.0 0.0 
-7.201264630960e-04 -1.074254250520e-03 0.0 
-1.074254250520e-03 3.199701067191e-03 0.0 
0.0 0.0 0.0 
1.956558297649e-03 1.335424283007e-04 0.0 
1.335424283007e-04 1.793865218048e-03 0.0 
0.0 0.0 0.0 
1.993962486058e-04 -2.423587011656e-03 0.0 
-2.423587011656e-03 4.688974237622e-04 0.0 
0.0 0.0 0.0 
-1.321329113788e-03 7.093269127653e-04 0.0 
7.093269127653e-04 1.704149833420e-02 0.0 
0.0 0.0 0.0 
3.169186870940e-03 1.942223668030e-04 0.0 
1.942223668030e-04 -1.021169799581e-04 0.0 
0.0 0.0 0.0 
3.539890470463e-03 -1.387686993754e-04 0.0 
-1.387686993754e-04 -9.403085118337e-04 0.0 
0.0 0.0 0.0 
-9.246949087424e-04 -9.416797324520e-04 0.0 
-9.416797324520e-04 3.067645747857e-03 0.0 
0.0 0.0 0.0 
1.638263874267e-03 3.942441827845e-03 0.0 
3.942441827845e-03 -5.854467537315e-04 0.0 
0.0 0.0 0.0 
1.925935500514e-03 3.752953564352e-03 0.0 
3.752953564352e-03 -1.554558300918e-03 0.0 
0.0 0.0 0.0 
2.563280304615e-03 -2.789311608979e-03 0.0 
-2.789311608979e-03 -1.710456681534e-03 0.0 
0.0 0.0 0.0 
5.587369127644e-04 -2.645516685494e-03 0.0 
-2.645516685494e-03 2.540196309870e-04 0.0 
0.0 0.0 0.0 
-2.573069138427e-04 -5.281389302219e-04 0.0 
-5.281389302219e-04 1.812762783845e-03 0.0 
0.0 0.0 0.0 
1.540133574281e-03 3.691901497146e-04 0.0 
3.691901497146e-04 2.565953267586e-03 0.0 
0.0 0.0 0.0 
-1.723718779621e-03 2.178644007522e-03 0.0 
2.178644007522e-03 1.652061786471e-02 0.0 
0.0 0.0 0.0 
1.913495375445e-03 4.006217331172e-03 0.0 
4.006217331172e-03 4.127818734239e-03 0.0 
0.0 0.0 0.0 
2.169532060004e-03 4.043075259820e-03 0.0 
4.043075259820e-03 3.486170514884e-03 0.0 
0.0 0.0 0.0 
1.601829237681e-03 4.040165823238e-03 0.0 
4.040165823238e-03 4.783285787450e-03 0.0 
0.0 0.0 0.0 
-1.560376432563e-04 -2.059114094281e-03 0.0 
-2.059114094281e-03 6.789687372274e-04 0.0 
0.0 0.0 0.0 
1.197664022993e-03 -1.089979107187e-04 0.0 
-1.089979107187e-04 2.890220410559e-03 0.0 
0.0 0.0 0.0 
-5.323699769304e-04 -4.133133456266e-04 0.0 
-4.133133456266e-04 4.601259762106e-03 0.0 
0.0 0.0 0.0 
5.922721998050e-04 4.732931130520e-03 0.0 
4.732931130520e-03 7.602284955584e-03 0.0 
0.0 0.0 0.0 
3.684189413553e-04 4.751357370938e-03 0.0 
4.751357370938e-03 8.142580941333e-03 0.0 
0.0 0.0 0.0 
2.648024238734e-03 3.876808293055e-03 0.0 
3.876808293055e-03 -2.621582453545e-04 0.0 
0.0 0.0 0.0 
1.716330095016e-03 4.050649496390e-03 0.0 
4.050649496390e-03 7.481721101090e-04 0.0 
0.0 0.0 0.0 
1.076932155676e-03 4.055346116093e-03 0.0 
4.055346116093e-03 1.026297777619e-03 0.0 
0.0 0.0 0.0 
8.198844972719e-04 4.071105494130e-03 0.0 
4.071105494130e-03 1.801562664957e-03 0.0 
0.0 0.0 0.0 
-2.334913181612e-03 3.826209529469e-03 0.0 
3.826209529469e-03 1.199741109760e-02 0.0 
0.0 0.0 0.0 
2.212563018265e-03 4.033505246014e-03 0.0 
4.033505246014e-03 5.760303662605e-04 0.0 
0.0 0.0 0.0 
-1.337805161021e-03 4.367658480229e-03 0.0 
4.367658480229e-03 9.334809144197e-03 0.0 
0.0 0.0 0.0 
-1.817761043555e-03 4.130204872947e-03 0.0 
4.130204872947e-03 1.018708008023e-02 0.0 
0.0 0.0 0.0 
-1.504136819430e-03 4.225898186247e-03 0.0 
4.225898186247e-03 9.213150939152e-03 0.0 
0.0 0.0 0.0 
7.022275677019e-05 4.461333761611e-03 0.0 
4.461333761611e-03 5.256241884819e-03 0.0 
0.0 0.0 0.0 
-5.128432727394e-04 4.327047647616e-03 0.0 
4.327047647616e-03 6.205987734949e-03 0.0 
0.0 0.0 0.0 
4.228011600532e-03 3.000297827497e-03 0.0 
3.000297827497e-03 -1.976440602975e-03 0.0 
0.0 0.0 0.0 
4.524372189760e-03 2.306721046012e-03 0.0 
2.306721046012e-03 -1.509444799443e-03 0.0 
0.0 0.0 0.0 
-3.330777927322e-04 -1.597361597048e-03 0.0 
-1.597361597048e-03 2.417909645914e-03 0.0 
0.0 0.0 0.0 
3.137798422605e-05 -1.355832521181e-03 0.0 
-1.355832521181e-03 2.743713421611e-03 0.0 
0.0 0.0 0.0 
2.234834040759e-03 -1.604834668303e-03 0.0 
-1.604834668303e-03 -1.815345060438e-04 0.0 
0.0 0.0 0.0 
-1.663798805365e-03 1.386327908435e-03 0.0 
1.386327908435e-03 1.686865330372e-02 0.0 
0.0 0.0 0.0 
-1.390004724392e-03 1.301898494545e-03 0.0 
1.301898494545e-03 1.700090138541e-02 0.0 
0.0 0.0 0.0 
-2.256493137655e-03 4.721721089420e-04 0.0 
4.721721089420e-04 1.608858131288e-02 0.0 
0.0 0.0 0.0 
-2.193572867099e-03 3.149144657712e-04 0.0 
3.149144657712e-04 1.592322080275e-02 0.0 
0.0 0.0 0.0 
-1.612395641115e-05 -1.284364038097e-03 0.0 
-1.284364038097e-03 1.051269748212e-03 0.0 
0.0 0.0 0.0 
-4.542014459002e-05 -1.360548671741e-03 0.0 
-1.360548671741e-03 9.295059285497e-04 0.0 
0.0 0.0 0.0 
1.000630267334e-03 -1.922817610273e-03 0.0 
-1.922817610273e-03 1.050757300964e-03 0.0 
0.0 0.0 0.0 
1.142956959243e-03 -3.840863493684e-04 0.0 
-3.840863493684e-04 2.764206721813e-03 0.0 
0.0 0.0 0.0 
-1.810390772869e-03 2.696281842430e-03 0.0 
2.696281842430e-03 1.603171703537e-02 0.0 
0.0 0.0 0.0 
-1.587926762780e-03 3.104649738697e-03 0.0 
3.104649738697e-03 1.569721286319e-02 0.0 
0.0 0.0 0.0 
-1.777418225277e-03 3.247863592792e-03 0.0 
3.247863592792e-03 1.528482802960e-02 0.0 
0.0 0.0 0.0 
1.915069176968e-03 5.505771536610e-04 0.0 
5.505771536610e-04 2.067160551807e-03 0.0 
0.0 0.0 0.0 
5.192834060419e-03 8.616960393914e-04 0.0 
8.616960393914e-04 -3.429249850480e-03 0.0 
0.0 0.0 0.0 
4.410049475020e-03 6.049011663843e-04 0.0 
6.049011663843e-04 -1.892105184882e-03 0.0 
0.0 0.0 0.0 
2.776811752687e-03 -1.383572852930e-03 0.0 
-1.383572852930e-03 -4.550133880930e-03 0.0 
0.0 0.0 0.0 
2.438268453913e-03 4.204990190549e-03 0.0 
4.204990190549e-03 2.379280638893e-03 0.0 
0.0 0.0 0.0 
1.185026444043e-04 -9.701603561324e-04 0.0 
-9.701603561324e-04 8.068401095306e-04 0.0 
0.0 0.0 0.0 
-3.574299133908e-04 4.655032628800e-03 0.0 
4.655032628800e-03 9.076052571900e-03 0.0 
0.0 0.0 0.0 
-4.470464903567e-04 -3.359249079758e-04 0.0 
-3.359249079758e-04 4.926565985839e-03 0.0 
0.0 0.0 0.0 
-3.189227085187e-04 -3.881254240251e-04 0.0 
-3.881254240251e-04 4.979933919833e-03 0.0 
0.0 0.0 0.0 
1.879292880161e-03 3.286365328893e-03 0.0 
3.286365328893e-03 3.650541753625e-03 0.0 
0.0 0.0 0.0 
-3.007257587218e-03 3.327808608368e-03 0.0 
3.327808608368e-03 1.269803134025e-02 0.0 
0.0 0.0 0.0 
2.798172839908e-03 3.923596755653e-03 0.0 
3.923596755653e-03 1.848549560708e-03 0.0 
0.0 0.0 0.0 
3.284264078987e-03 3.640467791710e-03 0.0 
3.640467791710e-03 8.106442762607e-04 0.0 
0.0 0.0 0.0 
-1.959453796161e-03 3.961240032182e-03 0.0 
3.961240032182e-03 1.006037652868e-02 0.0 
0.0 0.0 0.0 
-1.660194205755e-03 4.036802183589e-03 0.0 
4.036802183589e-03 9.113695185375e-03 0.0 
0.0 0.0 0.0 
-1.180393374767e-03 4.285481156537e-03 0.0 
4.285481156537e-03 8.225806978905e-03 0.0 
0.0 0.0 0.0 
-1.365058606304e-03 4.090795709959e-03 0.0 
4.090795709959e-03 8.141958779355e-03 0.0 
0.0 0.0 0.0 
2.069987932381e-03 -2.715876890219e-03 0.0 
-2.715876890219e-03 -1.065693456001e-03 0.0 
0.0 0.0 0.0 
1.452140725776e-03 -2.789845941848e-03 0.0 
-2.789845941848e-03 -4.693072747625e-04 0.0 
0.0 0.0 0.0 
7.451917589734e-04 4.704252996586e-03 0.0 
4.704252996586e-03 7.188884611176e-03 0.0 
0.0 0.0 0.0 
1.231892710857e-03 4.338185194905e-03 0.0 
4.338185194905e-03 5.737301480789e-03 0.0 
0.0 0.0 0.0 
3.254735613735e-04 4.885662030670e-03 0.0 
4.885662030670e-03 8.560426531255e-03 0.0 
0.0 0.0 0.0 
1.083163935713e-04 4.855002421587e-03 0.0 
4.855002421587e-03 9.121732944056e-03 0.0 
0.0 0.0 0.0 
1.735693381695e-03 3.014484567458e-03 0.0 
3.014484567458e-03 3.636770126461e-03 0.0 
0.0 0.0 0.0 
2.108273255756e-03 2.610489596850e-03 0.0 
2.610489596850e-03 2.849127126510e-03 0.0 
0.0 0.0 0.0 
-5.835364855280e-04 -6.289670182297e-04 0.0 
-6.289670182297e-04 2.214952513788e-03 0.0 
0.0 0.0 0.0 
-7.834620822095e-04 4.125397826448e-03 0.0 
4.125397826448e-03 6.195959191878e-03 0.0 
0.0 0.0 0.0 
-1.439540771160e-03 2.063160576072e-03 0.0 
2.063160576072e-03 1.672649105529e-02 0.0 
0.0 0.0 0.0 
-2.266920070276e-03 3.846949536127e-03 0.0 
3.846949536127e-03 1.100996268516e-02 0.0 
0.0 0.0 0.0 
8.517723756033e-04 -2.033571489103e-04 0.0 
-2.033571489103e-04 3.415713231544e-03 0.0 
0.0 0.0 0.0 
8.111803330850e-04 -4.146152608859e-04 0.0 
-4.146152608859e-04 3.322803234932e-03 0.0 
0.0 0.0 0.0 
1.672548417014e-03 -1.217713550687e-03 0.0 
-1.217713550687e-03 -4.562659043155e-03 0.0 
0.0 0.0 0.0 
1.979689177157e-03 -2.789672447082e-03 0.0 
-2.789672447082e-03 -3.837426975354e-03 0.0 
0.0 0.0 0.0 
-1.103227206790e-03 6.083555216761e-04 0.0 
6.083555216761e-04 1.714980121766e-02 0.0 
0.0 0.0 0.0 
1.738595699123e-04 3.993827840929e-03 0.0 
3.993827840929e-03 2.096181363998e-03 0.0 
0.0 0.0 0.0 
1.893657459789e-05 3.981044869983e-03 0.0 
3.981044869983e-03 2.835333074505e-03 0.0 
0.0 0.0 0.0 
3.491772471636e-04 4.005246482280e-03 0.0 
4.005246482280e-03 1.360986582138e-03 0.0 
0.0 0.0 0.0 
-2.826655154407e-04 -9.121508343655e-05 0.0 
-9.121508343655e-05 5.711646968940e-03 0.0 
0.0 0.0 0.0 
-2.047717350193e-03 2.765649140200e-05 0.0 
2.765649140200e-05 1.513136035730e-02 0.0 
0.0 0.0 0.0 
-3.518879862878e-04 -2.826971363304e-04 0.0 
-2.826971363304e-04 5.258493810773e-03 0.0 
0.0 0.0 0.0 
-2.983177020700e-04 4.484957552816e-03 0.0 
4.484957552816e-03 6.275457446105e-03 0.0 
0.0 0.0 0.0 
-9.765119592309e-04 8.375164212626e-04 0.0 
8.375164212626e-04 1.720606546303e-02 0.0 
0.0 0.0 0.0 
3.058681473471e-03 3.575099985223e-03 0.0 
3.575099985223e-03 1.470820391740e-03 0.0 
0.0 0.0 0.0 
2.091878945967e-03 4.158059625609e-03 0.0 
4.158059625609e-03 1.488925099556e-03 0.0 
0.0 0.0 0.0 
2.351117746149e-03 2.975189674619e-04 0.0 
2.975189674619e-04 1.260000685329e-03 0.0 
0.0 0.0 0.0 
-1.237358771390e-03 3.879270432116e-04 0.0 
3.879270432116e-04 1.705904575297e-02 0.0 
0.0 0.0 0.0 
-8.753355776868e-04 4.834597064887e-04 0.0 
4.834597064887e-04 1.725124856904e-02 0.0 
0.0 0.0 0.0 
-2.591770167640e-03 6.652866308553e-04 0.0 
6.652866308553e-04 1.585757580424e-02 0.0 
0.0 0.0 0.0 
-2.465623289682e-03 4.262809382317e-04 0.0 
4.262809382317e-04 1.568959597220e-02 0.0 
0.0 0.0 0.0 
-2.727792789403e-03 9.727099740560e-04 0.0 
9.727099740560e-04 1.595241679987e-02 0.0 
0.0 0.0 0.0 
3.117350645393e-03 2.299681744220e-03 0.0 
2.299681744220e-03 -3.680600955597e-03 0.0 
0.0 0.0 0.0 
1.904932210319e-03 2.710631618457e-03 0.0 
2.710631618457e-03 -3.477325410785e-03 0.0 
0.0 0.0 0.0 
-1.477848673408e-03 1.023303989345e-03 0.0 
1.023303989345e-03 1.698229086827e-02 0.0 
0.0 0.0 0.0 
-6.519269113089e-04 -1.197535858638e-03 0.0 
-1.197535858638e-03 2.301239745995e-03 0.0 
0.0 0.0 0.0 
-8.335364920465e-04 -9.564108775668e-04 0.0 
-9.564108775668e-04 2.627962311016e-03 0.0 
0.0 0.0 0.0 
1.784913500777e-04 -2.274011814899e-03 0.0 
-2.274011814899e-03 6.732744880844e-04 0.0 
0.0 0.0 0.0 
4.363952862483e-04 -2.481811977828e-03 0.0 
-2.481811977828e-03 5.523209859044e-04 0.0 
0.0 0.0 0.0 
-2.975162918746e-04 -1.470582940382e-03 0.0 
-1.470582940382e-03 2.654862883210e-03 0.0 
0.0 0.0 0.0 
-4.353987372892e-05 -1.713622549968e-03 0.0 
-1.713622549968e-03 2.185487499300e-03 0.0 
0.0 0.0 0.0 
3.709185697047e-05 4.698564279482e-03 0.0 
4.698564279482e-03 8.381493550253e-03 0.0 
0.0 0.0 0.0 
-2.392344450299e-04 4.692107932789e-03 0.0 
4.692107932789e-03 9.348618167731e-03 0.0 
0.0 0.0 0.0 
7.301717838345e-04 4.705499310719e-03 0.0 
4.705499310719e-03 6.313623396595e-03 0.0 
0.0 0.0 0.0 
3.097825916485e-03 -3.636250426942e-04 0.0 
-3.636250426942e-04 -3.640533589820e-04 0.0 
0.0 0.0 0.0 
3.362892760323e-03 -6.869159902031e-04 0.0 
-6.869159902031e-04 -1.081827268024e-03 0.0 
0.0 0.0 0.0 
3.835059263695e-03 -3.948104707078e-04 0.0 
-3.948104707078e-04 -1.609970999132e-03 0.0 
0.0 0.0 0.0 
-1.274416320024e-03 1.601656838518e-03 0.0 
1.601656838518e-03 1.696649212580e-02 0.0 
0.0 0.0 0.0 
-9.388575675669e-04 1.503469030252e-03 0.0 
1.503469030252e-03 1.708978296708e-02 0.0 
0.0 0.0 0.0 
2.711780270798e-03 -2.501922004325e-03 0.0 
-2.501922004325e-03 -1.654360397397e-03 0.0 
0.0 0.0 0.0 
3.259935701469e-03 -2.420204733246e-03 0.0 
-2.420204733246e-03 -2.306864524582e-03 0.0 
0.0 0.0 0.0 
1.663216619063e-03 -2.651029036548e-03 0.0 
-2.651029036548e-03 -5.026157807324e-04 0.0 
0.0 0.0 0.0 
-1.271171002624e-03 2.439622602374e-03 0.0 
2.439622602374e-03 1.655821169040e-02 0.0 
0.0 0.0 0.0 
-2.428931956100e-04 -3.419877861186e-04 0.0 
-3.419877861186e-04 5.327029929393e-03 0.0 
0.0 0.0 0.0 
-1.930374048511e-04 -4.217104052395e-04 0.0 
-4.217104052395e-04 5.027905758982e-03 0.0 
0.0 0.0 0.0 
3.746056800539e-05 -9.845942756459e-04 0.0 
-9.845942756459e-04 7.154554968289e-04 0.0 
0.0 0.0 0.0 
-1.041154921954e-04 -1.417782533763e-03 0.0 
-1.417782533763e-03 8.442472089201e-04 0.0 
0.0 0.0 0.0 
7.551419228894e-04 4.046353076898e-03 0.0 
4.046353076898e-03 -1.942159499079e-04 0.0 
0.0 0.0 0.0 
9.906424825885e-04 3.972169358285e-03 0.0 
3.972169358285e-03 -1.196131861979e-03 0.0 
0.0 0.0 0.0 
-1.319601748367e-03 3.495249747084e-03 0.0 
3.495249747084e-03 1.528226667130e-02 0.0 
0.0 0.0 0.0 
-1.501325234651e-03 3.641088651686e-03 0.0 
3.641088651686e-03 1.482239652065e-02 0.0 
0.0 0.0 0.0 
-1.065887619275e-03 3.391294305328e-03 0.0 
3.391294305328e-03 1.567693324436e-02 0.0 
0.0 0.0 0.0 
-3.757615166159e-04 -3.637825476338e-04 0.0 
-3.637825476338e-04 2.009828795139e-03 0.0 
0.0 0.0 0.0 
2.331120231895e-03 3.766766378885e-03 0.0 
3.766766378885e-03 3.161807326294e-03 0.0 
0.0 0.0 0.0 
1.431528212233e-03 7.613336468744e-04 0.0 
7.613336468744e-04 2.864697508870e-03 0.0 
0.0 0.0 0.0 
1.812174527700e-03 9.844776727249e-04 0.0 
9.844776727249e-04 2.436665660896e-03 0.0 
0.0 0.0 0.0 
1.025873462706e-03 5.585310620263e-04 0.0 
5.585310620263e-04 3.450508619634e-03 0.0 
0.0 0.0 0.0 
1.971664928121e-03 3.539964791940e-03 0.0 
3.539964791940e-03 3.722840985394e-03 0.0 
0.0 0.0 0.0 
1.479350223392e-03 3.623564867078e-03 0.0 
3.623564867078e-03 4.474074453252e-03 0.0 
0.0 0.0 0.0 
1.195512045275e-03 4.149551790265e-03 0.0 
4.149551790265e-03 5.483532661446e-03 0.0 
0.0 0.0 0.0 
1.001223627962e-03 8.114243829082e-05 0.0 
8.114243829082e-05 -4.592093380374e-03 0.0 
0.0 0.0 0.0 
-9.598394326549e-04 2.999680267173e-04 0.0 
2.999680267173e-04 1.720766975767e-02 0.0 
0.0 0.0 0.0 
-2.277876441803e-03 2.868047592012e-04 0.0 
2.868047592012e-04 1.570621985525e-02 0.0 
0.0 0.0 0.0 
3.301048685020e-05 -6.394058672181e-04 0.0 
-6.394058672181e-04 -4.306250461213e-03 0.0 
0.0 0.0 0.0 
-2.192231713858e-03 1.782551629051e-04 0.0 
1.782551629051e-04 1.551522716945e-02 0.0 
0.0 0.0 0.0 
-2.139151396402e-03 2.024729436683e-04 0.0 
2.024729436683e-04 1.573647625966e-02 0.0 
0.0 0.0 0.0 
-2.139541920199e-03 1.028178711342e-04 0.0 
1.028178711342e-04 1.529459626021e-02 0.0 
0.0 0.0 0.0 
5.288162029687e-05 -3.022668697959e-04 0.0 
-3.022668697959e-04 1.525004795472e-03 0.0 
0.0 0.0 0.0 
-2.698028582474e-03 6.160175371266e-04 0.0 
6.160175371266e-04 1.559854070067e-02 0.0 
0.0 0.0 0.0 
-2.891603750576e-03 1.029016983059e-03 0.0 
1.029016983059e-03 1.574245268194e-02 0.0 
0.0 0.0 0.0 
-4.425700134062e-05 -8.568477506663e-04 0.0 
-8.568477506663e-04 5.738681263814e-04 0.0 
0.0 0.0 0.0 
-9.287601336918e-04 2.284011038442e-03 0.0 
2.284011038442e-03 1.675201585610e-02 0.0 
0.0 0.0 0.0 
3.736050696728e-04 -6.831267170729e-04 0.0 
-6.831267170729e-04 4.412909332507e-04 0.0 
0.0 0.0 0.0 
4.617445446189e-04 -7.008251232784e-04 0.0 
-7.008251232784e-04 5.456913277078e-04 0.0 
0.0 0.0 0.0 
5.942479011880e-04 -2.717573163243e-04 0.0 
-2.717573163243e-04 3.930045344587e-03 0.0 
0.0 0.0 0.0 
5.392001955142e-04 -4.381134314456e-04 0.0 
-4.381134314456e-04 3.838592187782e-03 0.0 
0.0 0.0 0.0 
3.556378085061e-04 -3.402893059571e-04 0.0 
-3.402893059571e-04 4.384231115362e-03 0.0 
0.0 0.0 0.0 
3.083724118783e-04 -4.418151318124e-04 0.0 
-4.418151318124e-04 4.290712961833e-03 0.0 
0.0 0.0 0.0 
4.235925056915e-04 -5.701143737381e-04 0.0 
-5.701143737381e-04 3.801079934801e-03 0.0 
0.0 0.0 0.0 
2.057186602008e-04 -5.244090332749e-04 0.0 
-5.244090332749e-04 4.277715026936e-03 0.0 
0.0 0.0 0.0 
-2.339934401236e-03 2.606279050171e-04 0.0 
2.606279050171e-04 1.548286475265e-02 0.0 
0.0 0.0 0.0 
1.355984220673e-04 -4.342559787331e-04 0.0 
-4.342559787331e-04 4.783030339584e-03 0.0 
0.0 0.0 0.0 
3.970730838937e-05 -4.764997229783e-04 0.0 
-4.764997229783e-04 4.716391464451e-03 0.0 
0.0 0.0 0.0 
1.395350387456e-05 -4.441090191955e-04 0.0 
-4.441090191955e-04 5.197225293620e-03 0.0 
0.0 0.0 0.0 
-1.833903188949e-03 3.775728854647e-03 0.0 
3.775728854647e-03 9.063919948414e-03 0.0 
0.0 0.0 0.0 
5.803867482805e-04 4.106049476673e-03 0.0 
4.106049476673e-03 2.603776378462e-03 0.0 
0.0 0.0 0.0 
-1.391848618820e-04 3.995429472772e-03 0.0 
3.995429472772e-03 3.609746625756e-03 0.0 
0.0 0.0 0.0 
-7.704130332686e-04 3.807850291476e-03 0.0 
3.807850291476e-03 3.909316959216e-03 0.0 
0.0 0.0 0.0 
9.840426471150e-05 5.072822299945e-03 0.0 
5.072822299945e-03 9.580553184433e-03 0.0 
0.0 0.0 0.0 
-9.641018078477e-05 4.936612328653e-03 0.0 
4.936612328653e-03 1.001619297761e-02 0.0 
0.0 0.0 0.0 
-5.666435326963e-04 -2.597021071104e-04 0.0 
-2.597021071104e-04 4.863264920264e-03 0.0 
0.0 0.0 0.0 
-6.649851563459e-04 -3.109838256171e-04 0.0 
-3.109838256171e-04 4.562140769465e-03 0.0 
0.0 0.0 0.0 
-2.101010524935e-03 1.172248369790e-04 0.0 
1.172248369790e-04 1.552137283056e-02 0.0 
0.0 0.0 0.0 
-2.055653633480e-03 7.825022217734e-05 0.0 
7.825022217734e-05 1.549286140583e-02 0.0 
0.0 0.0 0.0 
-2.032360962831e-03 1.536034522727e-04 0.0 
1.536034522727e-04 1.584557177488e-02 0.0 
0.0 0.0 0.0 
-2.000361120874e-03 1.002338755574e-04 0.0 
1.002338755574e-04 1.579651041629e-02 0.0 
0.0 0.0 0.0 
-1.938921934922e-03 1.768470075293e-04 0.0 
1.768470075293e-04 1.612381806796e-02 0.0 
0.0 0.0 0.0 
-1.916603570489e-03 1.047097602705e-04 0.0 
1.047097602705e-04 1.606761384839e-02 0.0 
0.0 0.0 0.0 
-1.820042459300e-03 1.829334259692e-04 0.0 
1.829334259692e-04 1.637756066154e-02 0.0 
0.0 0.0 0.0 
8.294980905872e-04 4.523763721850e-03 0.0 
4.523763721850e-03 6.508311554060e-03 0.0 
0.0 0.0 0.0 
-5.179723900591e-04 3.884379437353e-03 0.0 
3.884379437353e-03 2.400757624982e-03 0.0 
0.0 0.0 0.0 
-2.374905863326e-03 3.652620812594e-03 0.0 
3.652620812594e-03 1.089176620502e-02 0.0 
0.0 0.0 0.0 
1.526706953226e-03 2.723808387743e-03 0.0 
2.723808387743e-03 3.690085116633e-03 0.0 
0.0 0.0 0.0 
1.911053858003e-03 2.308975957326e-03 0.0 
2.308975957326e-03 2.918274447902e-03 0.0 
0.0 0.0 0.0 
-1.062180769943e-03 4.112771541298e-03 0.0 
4.112771541298e-03 7.151029683825e-03 0.0 
0.0 0.0 0.0 
-1.342365589060e-03 3.843211792742e-03 0.0 
3.843211792742e-03 7.190641726521e-03 0.0 
0.0 0.0 0.0 
7.851520862215e-04 5.229138097064e-05 0.0 
5.229138097064e-05 3.706611806751e-03 0.0 
0.0 0.0 0.0 
3.061878080565e-03 3.818699233547e-03 0.0 
3.818699233547e-03 -3.642961084860e-04 0.0 
0.0 0.0 0.0 
-6.400043188843e-04 2.715998037617e-03 0.0 
2.715998037617e-03 1.651832672722e-02 0.0 
0.0 0.0 0.0 
-1.591470724395e-03 2.457570048597e-03 0.0 
2.457570048597e-03 -2.766890006403e-03 0.0 
0.0 0.0 0.0 
2.858542735808e-04 2.404609845458e-03 0.0 
2.404609845458e-03 -3.421456554585e-03 0.0 
0.0 0.0 0.0 
2.570759811372e-03 4.023906943456e-03 0.0 
4.023906943456e-03 5.190545834944e-04 0.0 
0.0 0.0 0.0 
-8.517996882798e-04 4.320586350761e-03 0.0 
4.320586350761e-03 7.215235308121e-03 0.0 
0.0 0.0 0.0 
3.464899873191e-04 4.172145122094e-03 0.0 
4.172145122094e-03 3.453346501153e-03 0.0 
0.0 0.0 0.0 
-3.131417294036e-04 4.077571146079e-03 0.0 
4.077571146079e-03 4.433986559778e-03 0.0 
0.0 0.0 0.0 
2.755418230360e-03 -6.249404309469e-06 0.0 
-6.249404309469e-06 4.410065957075e-04 0.0 
0.0 0.0 0.0 
-1.975618183531e-04 -1.484094084419e-03 0.0 
-1.484094084419e-03 7.808028723533e-04 0.0 
0.0 0.0 0.0 
5.194897712171e-04 4.017348627250e-03 0.0 
4.017348627250e-03 6.171014798371e-04 0.0 
0.0 0.0 0.0 
-1.855192602098e-03 2.920772871093e-04 0.0 
2.920772871093e-04 1.641925871048e-02 0.0 
0.0 0.0 0.0 
-3.838179280507e-04 3.968411236053e-03 0.0 
3.968411236053e-03 1.030643758385e-03 0.0 
0.0 0.0 0.0 
-6.642382546918e-04 -1.439250946426e-04 0.0 
-1.439250946426e-04 4.792570588840e-03 0.0 
0.0 0.0 0.0 
3.824063172477e-03 3.441099772347e-03 0.0 
3.441099772347e-03 -1.197773244094e-03 0.0 
0.0 0.0 0.0 
2.758233304359e-04 4.574788321408e-03 0.0 
4.574788321408e-03 5.338801317022e-03 0.0 
0.0 0.0 0.0 
1.346828432917e-03 4.013908940856e-03 0.0 
4.013908940856e-03 2.500633230549e-04 0.0 
0.0 0.0 0.0 
1.357656874856e-03 4.113010345306e-03 0.0 
4.113010345306e-03 1.589715551962e-03 0.0 
0.0 0.0 0.0 
-1.894985794464e-03 4.122445207159e-03 0.0 
4.122445207159e-03 1.121378676082e-02 0.0 
0.0 0.0 0.0 
-2.748996563780e-03 3.475805553964e-03 0.0 
3.475805553964e-03 1.275420225129e-02 0.0 
0.0 0.0 0.0 
-2.558013170370e-03 3.680594493414e-03 0.0 
3.680594493414e-03 1.192377910770e-02 0.0 
0.0 0.0 0.0 
4.457895576740e-03 2.927109252755e-03 0.0 
2.927109252755e-03 -1.901857967316e-03 0.0 
0.0 0.0 0.0 
-5.299571274425e-04 4.107541856839e-03 0.0 
4.107541856839e-03 5.310123300099e-03 0.0 
0.0 0.0 0.0 
-9.952983802195e-04 3.820522694688e-03 0.0 
3.820522694688e-03 5.450819213156e-03 0.0 
0.0 0.0 0.0 
-8.360368864994e-04 4.552280709004e-03 0.0 
4.552280709004e-03 8.470366730802e-03 0.0 
0.0 0.0 0.0 
-1.904451731597e-03 3.396558312362e-03 0.0 
3.396558312362e-03 1.479547975376e-02 0.0 
0.0 0.0 0.0 
-1.602748065069e-03 3.757117852627e-03 0.0 
3.757117852627e-03 1.428348119347e-02 0.0 
0.0 0.0 0.0 
-1.207040849415e-03 3.985175436683e-03 0.0 
3.985175436683e-03 1.430784533702e-02 0.0 
0.0 0.0 0.0 
-1.296258536637e-03 4.086019208972e-03 0.0 
4.086019208972e-03 1.372945789945e-02 0.0 
0.0 0.0 0.0 
-1.644209389029e-03 3.883770752477e-03 0.0 
3.883770752477e-03 1.366577660784e-02 0.0 
0.0 0.0 0.0 
-1.312102935362e-03 4.178266662276e-03 0.0 
4.178266662276e-03 1.307222978807e-02 0.0 
0.0 0.0 0.0 
-9.779307432017e-04 4.380712599934e-03 0.0 
4.380712599934e-03 1.317778449741e-02 0.0 
0.0 0.0 0.0 
-9.749590563825e-04 4.450180168721e-03 0.0 
4.450180168721e-03 1.246465814862e-02 0.0 
0.0 0.0 0.0 
-6.483524523886e-04 4.715581307047e-03 0.0 
4.715581307047e-03 1.265147161258e-02 0.0 
0.0 0.0 0.0 
-6.614175886894e-04 4.684483089547e-03 0.0 
4.684483089547e-03 1.183423758997e-02 0.0 
0.0 0.0 0.0 
-9.027167858095e-04 4.496909080267e-03 0.0 
4.496909080267e-03 1.167897104848e-02 0.0 
0.0 0.0 0.0 
-5.855040046915e-04 4.674919334350e-03 0.0 
4.674919334350e-03 1.105215353394e-02 0.0 
0.0 0.0 0.0 
-4.086276966379e-04 4.875960200055e-03 0.0 
4.875960200055e-03 1.121156703972e-02 0.0 
0.0 0.0 0.0 
-7.855760821629e-04 4.548231244248e-03 0.0 
4.548231244248e-03 1.086222517781e-02 0.0 
0.0 0.0 0.0 
1.092266598113e-03 3.144339832231e-03 0.0 
3.144339832231e-03 4.480605879125e-03 0.0 
0.0 0.0 0.0 
2.809063377609e-03 3.983410199371e-03 0.0 
3.983410199371e-03 5.645555426092e-04 0.0 
0.0 0.0 0.0 
1.534088373123e-03 1.255259221861e-03 0.0 
1.255259221861e-03 -4.256111316318e-03 0.0 
0.0 0.0 0.0 
7.074551117754e-04 3.643608683612e-03 0.0 
3.643608683612e-03 -2.624896323944e-03 0.0 
0.0 0.0 0.0 
-1.117258319005e-04 4.604709098467e-03 0.0 
4.604709098467e-03 6.389992382154e-03 0.0 
0.0 0.0 0.0 
-3.581857862173e-04 4.922384963733e-03 0.0 
4.922384963733e-03 1.315745990225e-02 0.0 
0.0 0.0 0.0 
-5.051692894222e-04 4.383999561857e-03 0.0 
4.383999561857e-03 1.448580447172e-02 0.0 
0.0 0.0 0.0 
3.882498660328e-03 3.127198823109e-03 0.0 
3.127198823109e-03 -1.979633434266e-03 0.0 
0.0 0.0 0.0 
9.577875180663e-05 5.337542161306e-03 0.0 
5.337542161306e-03 9.651582567093e-03 0.0 
0.0 0.0 0.0 
-2.112207177906e-03 3.994212862378e-03 0.0 
3.994212862378e-03 1.112249738971e-02 0.0 
0.0 0.0 0.0 
3.795548368574e-03 2.028438201331e-03 0.0 
2.028438201331e-03 -3.589898827971e-03 0.0 
0.0 0.0 0.0 
2.858405513712e-04 5.093583883534e-03 0.0 
5.093583883534e-03 8.240300572792e-03 0.0 
0.0 0.0 0.0 
-1.970579917273e-03 3.551164847518e-03 0.0 
3.551164847518e-03 1.423639271923e-02 0.0 
0.0 0.0 0.0 
-1.978124546792e-03 3.706950604920e-03 0.0 
3.706950604920e-03 1.360587204942e-02 0.0 
0.0 0.0 0.0 
-2.309723224414e-03 3.361329893210e-03 0.0 
3.361329893210e-03 1.419471302742e-02 0.0 
0.0 0.0 0.0 
-5.430190507372e-04 3.796330537203e-03 0.0 
3.796330537203e-03 1.544953160832e-02 0.0 
0.0 0.0 0.0 
-2.811397289892e-03 1.368927380148e-03 0.0 
1.368927380148e-03 1.596588390336e-02 0.0 
0.0 0.0 0.0 
5.568253701565e-04 4.031562190991e-03 0.0 
4.031562190991e-03 5.950862417751e-03 0.0 
0.0 0.0 0.0 
4.104905922247e-03 2.357729597111e-03 0.0 
2.357729597111e-03 -7.015816181760e-04 0.0 
0.0 0.0 0.0 
4.052144194739e-03 2.848180556253e-03 0.0 
2.848180556253e-03 -5.833589340632e-04 0.0 
0.0 0.0 0.0 
4.353423121404e-03 2.814205938000e-03 0.0 
2.814205938000e-03 -1.204472430421e-03 0.0 
0.0 0.0 0.0 
-1.263659614290e-03 4.264631701766e-03 0.0 
4.264631701766e-03 1.233854580979e-02 0.0 
0.0 0.0 0.0 
7.045447200063e-04 2.388736246497e-03 0.0 
2.388736246497e-03 4.440400890110e-03 0.0 
0.0 0.0 0.0 
1.305427781145e-03 2.019870102342e-03 0.0 
2.019870102342e-03 3.551350452018e-03 0.0 
0.0 0.0 0.0 
1.266436317616e-03 1.639366252626e-03 0.0 
1.639366252626e-03 3.424342550660e-03 0.0 
0.0 0.0 0.0 
1.850155549391e-03 1.665368709093e-03 0.0 
1.665368709093e-03 2.663214358392e-03 0.0 
0.0 0.0 0.0 
6.623851765246e-04 1.554674326224e-03 0.0 
1.554674326224e-03 4.159780184711e-03 0.0 
0.0 0.0 0.0 
-1.786252006047e-04 5.263738394616e-03 0.0 
5.263738394616e-03 1.182538276187e-02 0.0 
0.0 0.0 0.0 
-8.643625533331e-05 5.354813008149e-03 0.0 
5.354813008149e-03 1.112728883944e-02 0.0 
0.0 0.0 0.0 
3.057164825184e-03 -2.720887840641e-03 0.0 
-2.720887840641e-03 -2.326441913059e-03 0.0 
0.0 0.0 0.0 
3.764120294486e-03 -2.167115062703e-03 0.0 
-2.167115062703e-03 -2.870249408081e-03 0.0 
0.0 0.0 0.0 
3.905013896384e-03 -1.905586129371e-03 0.0 
-1.905586129371e-03 -2.764188792893e-03 0.0 
0.0 0.0 0.0 
4.371574896969e-03 -1.471748267281e-03 0.0 
-1.471748267281e-03 -3.253722548454e-03 0.0 
0.0 0.0 0.0 
4.178510696195e-03 -1.726878695302e-03 0.0 
-1.726878695302e-03 -3.396133099379e-03 0.0 
0.0 0.0 0.0 
4.686603203826e-03 -8.598638949285e-04 0.0 
-8.598638949285e-04 -3.630613173306e-03 0.0 
0.0 0.0 0.0 
4.853404974302e-03 -6.999477819316e-04 0.0 
-6.999477819316e-04 -3.447529122607e-03 0.0 
0.0 0.0 0.0 
4.808026930863e-03 -7.253476544409e-05 0.0 
-7.253476544409e-05 -3.841927115838e-03 0.0 
0.0 0.0 0.0 
-1.549098068369e-04 4.779061633678e-03 0.0 
4.779061633678e-03 9.669807943760e-03 0.0 
0.0 0.0 0.0 
5.404074095483e-04 8.185679673879e-04 0.0 
8.185679673879e-04 4.176677069138e-03 0.0 
0.0 0.0 0.0 
2.130329713982e-03 -1.327440290280e-03 0.0 
-1.327440290280e-03 3.011130313142e-04 0.0 
0.0 0.0 0.0 
2.604004474718e-03 -1.279153095358e-03 0.0 
-1.279153095358e-03 -3.870813578330e-04 0.0 
0.0 0.0 0.0 
2.722672736111e-03 -1.515660540469e-03 0.0 
-1.515660540469e-03 -8.223854538021e-04 0.0 
0.0 0.0 0.0 
-7.096492964988e-05 -1.844319117783e-03 0.0 
-1.844319117783e-03 1.961872610036e-03 0.0 
0.0 0.0 0.0 
2.587871463911e-04 -1.940398764579e-03 0.0 
-1.940398764579e-03 1.674215660929e-03 0.0 
0.0 0.0 0.0 
2.804919484836e-04 -1.770766264608e-03 0.0 
-1.770766264608e-03 1.926547174369e-03 0.0 
0.0 0.0 0.0 
-3.537048492063e-04 -1.686796372655e-03 0.0 
-1.686796372655e-03 2.208623807316e-03 0.0 
0.0 0.0 0.0 
1.904174114698e-03 4.300557990951e-03 0.0 
4.300557990951e-03 3.958886741465e-03 0.0 
0.0 0.0 0.0 
4.805350730793e-04 5.045517640147e-04 0.0 
5.045517640147e-04 4.237445587270e-03 0.0 
0.0 0.0 0.0 
3.972878574326e-03 1.796623717992e-04 0.0 
1.796623717992e-04 -1.443349392553e-03 0.0 
0.0 0.0 0.0 
6.094697626060e-04 -2.144266161187e-03 0.0 
-2.144266161187e-03 1.133686129301e-03 0.0 
0.0 0.0 0.0 
-3.054421998229e-03 8.217243168217e-04 0.0 
8.217243168217e-04 1.518732011392e-02 0.0 
0.0 0.0 0.0 
-3.258920751129e-03 1.521194669559e-03 0.0 
1.521194669559e-03 1.532606565193e-02 0.0 
0.0 0.0 0.0 
-3.420739177049e-03 2.093107248168e-03 0.0 
2.093107248168e-03 1.499182415851e-02 0.0 
0.0 0.0 0.0 
-3.162438908896e-03 2.170425915465e-03 0.0 
2.170425915465e-03 1.519482911395e-02 0.0 
0.0 0.0 0.0 
-3.057201657575e-03 1.102668137535e-03 0.0 
1.102668137535e-03 1.550380980395e-02 0.0 
0.0 0.0 0.0 
-5.022632785159e-04 -1.216968223387e-03 0.0 
-1.216968223387e-03 3.074190521339e-03 0.0 
0.0 0.0 0.0 
-6.590200410492e-04 -9.602480164711e-04 0.0 
-9.602480164711e-04 3.438216167102e-03 0.0 
0.0 0.0 0.0 
-8.438015265166e-04 -8.072244450403e-04 0.0 
-8.072244450403e-04 3.509908459974e-03 0.0 
0.0 0.0 0.0 
-7.717133005058e-04 -7.090737961942e-04 0.0 
-7.090737961942e-04 3.748138201743e-03 0.0 
0.0 0.0 0.0 
-9.232623895995e-04 -5.521126491454e-04 0.0 
-5.521126491454e-04 3.761505331472e-03 0.0 
0.0 0.0 0.0 
-9.821967118372e-04 -6.280667293136e-04 0.0 
-6.280667293136e-04 3.547008401571e-03 0.0 
0.0 0.0 0.0 
-8.491454266674e-04 -4.633814749060e-04 0.0 
-4.633814749060e-04 4.007988109036e-03 0.0 
0.0 0.0 0.0 
-9.704402017911e-04 -3.169073813071e-04 0.0 
-3.169073813071e-04 3.944078551294e-03 0.0 
0.0 0.0 0.0 
-2.607308856332e-03 3.934187992028e-04 0.0 
3.934187992028e-04 1.518562597739e-02 0.0 
0.0 0.0 0.0 
-1.579077580105e-03 -2.403535000288e-03 0.0 
-2.403535000288e-03 -7.115656216601e-04 0.0 
0.0 0.0 0.0 
-6.209505113492e-04 -3.234652886382e-03 0.0 
-3.234652886382e-03 -4.837123471818e-04 0.0 
0.0 0.0 0.0 
-8.174597185239e-04 -2.404010253625e-03 0.0 
-2.404010253625e-03 5.362901145724e-04 0.0 
0.0 0.0 0.0 
8.238318690305e-05 -3.388665131175e-03 0.0 
-3.388665131175e-03 -4.475112653795e-04 0.0 
0.0 0.0 0.0 
9.471423295140e-04 -3.512978225630e-03 0.0 
-3.512978225630e-03 -2.050674425391e-03 0.0 
0.0 0.0 0.0 
1.415547889737e-03 -3.451296225931e-03 0.0 
-3.451296225931e-03 -1.720712243007e-03 0.0 
0.0 0.0 0.0 
2.282330627253e-03 -3.269330544478e-03 0.0 
-3.269330544478e-03 -3.066414203070e-03 0.0 
0.0 0.0 0.0 
1.484986937454e-04 -3.224726370001e-03 0.0 
-3.224726370001e-03 -2.472594566086e-03 0.0 
0.0 0.0 0.0 
-8.430761135314e-04 -8.801024818518e-04 0.0 
-8.801024818518e-04 5.185985958640e-04 0.0 
0.0 0.0 0.0 
-6.952058563615e-04 -1.640292493150e-03 0.0 
-1.640292493150e-03 6.941049561977e-04 0.0 
0.0 0.0 0.0 
-5.114217777731e-04 -5.513568180216e-04 0.0 
-5.513568180216e-04 4.468258756916e-04 0.0 
0.0 0.0 0.0 
-4.710606563224e-04 -1.213889691072e-03 0.0 
-1.213889691072e-03 6.594052813972e-04 0.0 
0.0 0.0 0.0 
-3.048563674187e-04 -2.146274929386e-03 0.0 
-2.146274929386e-03 6.284622992105e-04 0.0 
0.0 0.0 0.0 
-1.565329405628e-05 -1.827936380962e-03 0.0 
-1.827936380962e-03 8.937412333208e-04 0.0 
0.0 0.0 0.0 
-1.271810967478e-04 -3.325686387256e-04 0.0 
-3.325686387256e-04 5.678934629598e-03 0.0 
0.0 0.0 0.0 
-1.133976820730e-03 -2.562947575592e-04 0.0 
-2.562947575592e-04 3.365267363617e-03 0.0 
0.0 0.0 0.0 
-1.084359546106e-03 -5.068227342176e-04 0.0 
-5.068227342176e-04 3.190141949754e-03 0.0 
0.0 0.0 0.0 
-1.027840954575e-03 -4.941400420663e-04 0.0 
-4.941400420663e-04 2.962148997278e-03 0.0 
0.0 0.0 0.0 
-9.810544068975e-04 -7.732611284058e-04 0.0 
-7.732611284058e-04 2.960090875312e-03 0.0 
0.0 0.0 0.0 
-1.089946731237e-03 -4.835595219285e-04 0.0 
-4.835595219285e-04 3.403377756029e-03 0.0 
0.0 0.0 0.0 
-9.999778110342e-04 -2.376616138487e-04 0.0 
-2.376616138487e-04 2.869262593050e-03 0.0 
0.0 0.0 0.0 
-9.023435042682e-04 -4.615211825221e-04 0.0 
-4.615211825221e-04 2.705114033277e-03 0.0 
0.0 0.0 0.0 
2.124582465822e-03 -1.190359849217e-04 0.0 
-1.190359849217e-04 -6.389468977568e-04 0.0 
0.0 0.0 0.0 
1.600038483493e-03 -1.497889797813e-04 0.0 
-1.497889797813e-04 -1.006681652331e-04 0.0 
0.0 0.0 0.0 
1.744212349525e-03 -3.613775735537e-05 0.0 
-3.613775735537e-05 -1.995124273010e-04 0.0 
0.0 0.0 0.0 
1.065893728464e-03 -1.488431847486e-04 0.0 
-1.488431847486e-04 4.666224454895e-04 0.0 
0.0 0.0 0.0 
1.034733617434e-03 -2.409617767358e-04 0.0 
-2.409617767358e-04 4.624997551044e-04 0.0 
0.0 0.0 0.0 
1.504400640075e-03 -2.336138111117e-04 0.0 
-2.336138111117e-04 -6.349278157821e-05 0.0 
0.0 0.0 0.0 
1.346111190407e-03 -3.121227473234e-04 0.0 
-3.121227473234e-04 -3.388314008516e-06 0.0 
0.0 0.0 0.0 
1.779474273903e-03 -2.061290378871e-04 0.0 
-2.061290378871e-04 -4.912902814722e-04 0.0 
0.0 0.0 0.0 
1.144219832056e-03 -4.014429191731e-04 0.0 
-4.014429191731e-04 8.245272930511e-05 0.0 
0.0 0.0 0.0 
7.626350425991e-04 -4.641855661997e-04 0.0 
-4.641855661997e-04 5.559334368184e-04 0.0 
0.0 0.0 0.0 
1.543923743033e-03 -2.633309830696e-04 0.0 
-2.633309830696e-04 -4.024705851422e-04 0.0 
0.0 0.0 0.0 
-1.535592206347e-03 1.024884252050e-04 0.0 
1.024884252050e-04 1.674602322228e-02 0.0 
0.0 0.0 0.0 
-1.412832963595e-03 2.342772380987e-04 0.0 
2.342772380987e-04 1.688317144487e-02 0.0 
0.0 0.0 0.0 
3.587424415050e-04 7.527033359662e-06 0.0 
7.527033359662e-06 4.467341602483e-03 0.0 
0.0 0.0 0.0 
-2.361635521507e-03 2.270672469602e-04 0.0 
2.270672469602e-04 1.521569413010e-02 0.0 
0.0 0.0 0.0 
9.434712192656e-05 -3.825246511172e-04 0.0 
-3.825246511172e-04 2.359830087893e-04 0.0 
0.0 0.0 0.0 
-4.907882881086e-04 9.695698666651e-04 0.0 
9.695698666651e-04 1.732173143557e-02 0.0 
0.0 0.0 0.0 
-5.090866912684e-04 1.791194151065e-03 0.0 
1.791194151065e-03 1.707914446107e-02 0.0 
0.0 0.0 0.0 
-4.561611611809e-04 1.520396383748e-03 0.0 
1.520396383748e-03 1.719101387014e-02 0.0 
0.0 0.0 0.0 
-4.318561164719e-04 -1.005313676995e-04 0.0 
-1.005313676995e-04 5.408699677177e-03 0.0 
0.0 0.0 0.0 
-3.400310585329e-04 -1.839839007720e-04 0.0 
-1.839839007720e-04 5.514046435532e-03 0.0 
0.0 0.0 0.0 
-4.311368911198e-04 5.442916836328e-04 0.0 
5.442916836328e-04 1.739438328158e-02 0.0 
0.0 0.0 0.0 
1.039537663298e-04 -2.123528694513e-03 0.0 
-2.123528694513e-03 1.156989272597e-03 0.0 
0.0 0.0 0.0 
-9.461728625152e-04 4.338379773141e-03 0.0 
4.338379773141e-03 1.378473530235e-02 0.0 
0.0 0.0 0.0 
-1.223070106969e-03 9.392637512044e-04 0.0 
9.392637512044e-04 1.709677804561e-02 0.0 
0.0 0.0 0.0 
3.087685942320e-03 3.073217423490e-03 0.0 
3.073217423490e-03 -2.749554762284e-03 0.0 
0.0 0.0 0.0 
8.906785215645e-04 -2.712692609674e-03 0.0 
-2.712692609674e-03 8.754937159842e-05 0.0 
0.0 0.0 0.0 
-6.175736659931e-04 -4.972822754341e-04 0.0 
-4.972822754341e-04 4.300383628453e-03 0.0 
0.0 0.0 0.0 
3.274321194984e-04 -1.337996551455e-03 0.0 
-1.337996551455e-03 2.565828264540e-03 0.0 
0.0 0.0 0.0 
-2.326396808648e-04 -4.978970319093e-04 0.0 
-4.978970319093e-04 4.654817097444e-03 0.0 
0.0 0.0 0.0 
-3.767744849945e-04 -9.139008781685e-04 0.0 
-9.139008781685e-04 3.624730912575e-03 0.0 
0.0 0.0 0.0 
8.669605550632e-05 -7.389493752139e-04 0.0 
-7.389493752139e-04 3.846934269260e-03 0.0 
0.0 0.0 0.0 
1.231672470327e-03 1.207414065008e-03 0.0 
1.207414065008e-03 3.320335336569e-03 0.0 
0.0 0.0 0.0 
1.911444536586e-04 -4.283934995299e-04 0.0 
-4.283934995299e-04 1.318811872590e-03 0.0 
0.0 0.0 0.0 
-2.321873605794e-03 6.740453271697e-04 0.0 
6.740453271697e-04 1.622848485191e-02 0.0 
0.0 0.0 0.0 
-2.090251330972e-03 3.300650425206e-04 0.0 
3.300650425206e-04 1.610975940154e-02 0.0 
0.0 0.0 0.0 
-1.768867225528e-03 8.416029601530e-04 0.0 
8.416029601530e-04 1.679504587940e-02 0.0 
0.0 0.0 0.0 
-4.650063215571e-04 -1.415025442021e-03 0.0 
-1.415025442021e-03 1.989187622459e-03 0.0 
0.0 0.0 0.0 
-8.917516913504e-04 -8.928346659788e-04 0.0 
-8.928346659788e-04 3.291211152623e-03 0.0 
0.0 0.0 0.0 
-4.722627092622e-05 -1.190759872885e-03 0.0 
-1.190759872885e-03 1.234578518921e-03 0.0 
0.0 0.0 0.0 
4.449908007514e-04 4.941444725087e-03 0.0 
4.941444725087e-03 8.087260245495e-03 0.0 
0.0 0.0 0.0 
-1.008100518736e-03 4.438314425048e-03 0.0 
4.438314425048e-03 8.336387684155e-03 0.0 
0.0 0.0 0.0 
2.318508836247e-03 -1.839081854164e-03 0.0 
-1.839081854164e-03 -5.402966153822e-04 0.0 
0.0 0.0 0.0 
-9.199226668546e-05 -1.935719594673e-03 0.0 
-1.935719594673e-03 1.780876374086e-03 0.0 
0.0 0.0 0.0 
4.225593084894e-04 -2.382400087650e-03 0.0 
-2.382400087650e-03 8.363595426816e-04 0.0 
0.0 0.0 0.0 
1.136540926773e-03 -2.888843112111e-03 0.0 
-2.888843112111e-03 -3.309901707159e-04 0.0 
0.0 0.0 0.0 
2.297847703735e-03 4.151524379212e-03 0.0 
4.151524379212e-03 1.566956563438e-03 0.0 
0.0 0.0 0.0 
1.011485617700e-03 -2.130162238107e-03 0.0 
-2.130162238107e-03 7.752757148025e-04 0.0 
0.0 0.0 0.0 
1.170709062898e-03 -9.016977340869e-04 0.0 
-9.016977340869e-04 2.171925337044e-03 0.0 
0.0 0.0 0.0 
-1.545717084347e-03 7.862026256009e-04 0.0 
7.862026256009e-04 1.692472982467e-02 0.0 
0.0 0.0 0.0 
8.377078728042e-04 -3.638779293963e-04 0.0 
-3.638779293963e-04 -7.522845543584e-05 0.0 
0.0 0.0 0.0 
1.376158209362e-03 -6.387912504584e-04 0.0 
-6.387912504584e-04 2.142993653022e-03 0.0 
0.0 0.0 0.0 
9.857507558651e-04 -1.685168473819e-03 0.0 
-1.685168473819e-03 1.396965229936e-03 0.0 
0.0 0.0 0.0 
-2.621764069627e-03 1.303249253342e-03 0.0 
1.303249253342e-03 1.618034391907e-02 0.0 
0.0 0.0 0.0 
2.966106719591e-03 2.057760046480e-03 0.0 
2.057760046480e-03 1.227649104009e-03 0.0 
0.0 0.0 0.0 
1.149325242754e-03 -3.383666280595e-03 0.0 
-3.383666280595e-03 -1.016340353286e-03 0.0 
0.0 0.0 0.0 
-1.926893521334e-03 1.459878994379e-03 0.0 
1.459878994379e-03 1.671216983227e-02 0.0 
0.0 0.0 0.0 
-1.352697399027e-03 2.940060747759e-03 0.0 
2.940060747759e-03 1.604001267332e-02 0.0 
0.0 0.0 0.0 
-2.988097800499e-03 1.477487094866e-03 0.0 
1.477487094866e-03 1.573985561699e-02 0.0 
0.0 0.0 0.0 
1.669650826946e-04 -9.100046193980e-04 0.0 
-9.100046193980e-04 9.311903647200e-04 0.0 
0.0 0.0 0.0 
-2.372644177063e-03 4.492150404670e-04 0.0 
4.492150404670e-04 1.589328467268e-02 0.0 
0.0 0.0 0.0 
1.156699684928e-03 1.993632894696e-04 0.0 
1.993632894696e-04 3.079598558039e-03 0.0 
0.0 0.0 0.0 
-2.173349550895e-03 3.005220139058e-03 0.0 
3.005220139058e-03 1.525641853864e-02 0.0 
0.0 0.0 0.0 
-5.009813937768e-04 -1.103951193784e-03 0.0 
-1.103951193784e-03 2.028568682289e-03 0.0 
0.0 0.0 0.0 
4.796444122737e-03 4.685242425063e-04 0.0 
4.685242425063e-04 -2.504061449077e-03 0.0 
0.0 0.0 0.0 
8.530322380531e-04 4.589950005871e-03 0.0 
4.589950005871e-03 4.430252368040e-03 0.0 
0.0 0.0 0.0 
-3.102947413594e-03 3.252481619708e-03 0.0 
3.252481619708e-03 1.264314147298e-02 0.0 
0.0 0.0 0.0 
-1.111894084570e-03 1.184099356519e-03 0.0 
1.184099356519e-03 1.711075230856e-02 0.0 
0.0 0.0 0.0 
3.440733539672e-03 3.634645273701e-03 0.0 
3.634645273701e-03 3.105547950918e-04 0.0 
0.0 0.0 0.0 
2.460804474209e-03 1.460245838595e-03 0.0 
1.460245838595e-03 1.684319041247e-03 0.0 
0.0 0.0 0.0 
3.932383735321e-03 8.095447820336e-04 0.0 
8.095447820336e-04 -1.000258872196e-03 0.0 
0.0 0.0 0.0 
-6.672568182210e-04 -9.120104011707e-04 0.0 
-9.120104011707e-04 2.305425156224e-03 0.0 
0.0 0.0 0.0 
6.908374468764e-04 -6.048273137529e-04 0.0 
-6.048273137529e-04 3.293622638061e-03 0.0 
0.0 0.0 0.0 
4.792827130700e-03 2.268904637642e-03 0.0 
2.268904637642e-03 -1.997252301831e-03 0.0 
0.0 0.0 0.0 
-1.573867475507e-03 1.709751261469e-03 0.0 
1.709751261469e-03 1.682451252761e-02 0.0 
0.0 0.0 0.0 
7.411892077869e-04 4.654689996324e-03 0.0 
4.654689996324e-03 6.704048124096e-03 0.0 
0.0 0.0 0.0 
5.245446381158e-03 9.059343229601e-04 0.0 
9.059343229601e-04 -3.168438131993e-03 0.0 
0.0 0.0 0.0 
-1.984507015832e-03 2.299695550852e-03 0.0 
2.299695550852e-03 1.628379024271e-02 0.0 
0.0 0.0 0.0 
3.193536045005e-03 -1.345109736054e-03 0.0 
-1.345109736054e-03 -1.370100386687e-03 0.0 
0.0 0.0 0.0 
2.627591966869e-03 2.499711962105e-03 0.0 
2.499711962105e-03 2.000894043809e-03 0.0 
0.0 0.0 0.0 
-6.595829478326e-04 4.477569615158e-03 0.0 
4.477569615158e-03 7.312541216170e-03 0.0 
0.0 0.0 0.0 
6.716878504882e-04 4.743321278114e-03 0.0 
4.743321278114e-03 5.973398618333e-03 0.0 
0.0 0.0 0.0 
-7.801772264852e-04 4.559479909994e-03 0.0 
4.559479909994e-03 9.804728469832e-03 0.0 
0.0 0.0 0.0 
2.003557467943e-03 4.420150752120e-03 0.0 
4.420150752120e-03 3.043078854793e-03 0.0 
0.0 0.0 0.0 
-7.647170402388e-04 -3.733425674328e-04 0.0 
-3.733425674328e-04 4.280998587509e-03 0.0 
0.0 0.0 0.0 
1.011413776126e-03 -6.260470923231e-04 0.0 
-6.260470923231e-04 2.734158053287e-03 0.0 
0.0 0.0 0.0 
3.496462630082e-03 -1.263652180788e-03 0.0 
-1.263652180788e-03 -4.326649033586e-03 0.0 
0.0 0.0 0.0 
1.781625723572e-03 4.149096494738e-03 0.0 
4.149096494738e-03 1.493020860437e-03 0.0 
0.0 0.0 0.0 
-2.812251876099e-03 1.829201732475e-03 0.0 
1.829201732475e-03 1.585534445144e-02 0.0 
0.0 0.0 0.0 
1.121730517627e-03 4.453069014050e-03 0.0 
4.453069014050e-03 6.099410901020e-03 0.0 
0.0 0.0 0.0 
-1.147578649192e-03 1.935642326608e-03 0.0 
1.935642326608e-03 1.689102934984e-02 0.0 
0.0 0.0 0.0 
6.712957966137e-04 4.514359710879e-03 0.0 
4.514359710879e-03 4.319644950573e-03 0.0 
0.0 0.0 0.0 
5.197215719999e-04 -7.549095003776e-04 0.0 
-7.549095003776e-04 3.310344238644e-03 0.0 
0.0 0.0 0.0 
-1.555586955027e-03 2.559941109220e-03 0.0 
2.559941109220e-03 1.631873845025e-02 0.0 
0.0 0.0 0.0 
6.201475616274e-04 -1.967589570922e-03 0.0 
-1.967589570922e-03 1.364128617930e-03 0.0 
0.0 0.0 0.0 
-9.496659937290e-05 -1.483274288675e-04 0.0 
-1.483274288675e-04 1.696013582049e-03 0.0 
0.0 0.0 0.0 
2.157482347374e-03 3.391172345372e-03 0.0 
3.391172345372e-03 -2.603386345836e-03 0.0 
0.0 0.0 0.0 
5.001761105701e-03 8.414190465072e-04 0.0 
8.414190465072e-04 -3.610682276853e-03 0.0 
0.0 0.0 0.0 
4.011033803339e-03 3.273294108278e-03 0.0 
3.273294108278e-03 -7.110533630149e-04 0.0 
0.0 0.0 0.0 
6.271547892249e-04 -1.763050740890e-03 0.0 
-1.763050740890e-03 1.657488888630e-03 0.0 
0.0 0.0 0.0 
-9.939371521918e-04 3.949825299622e-03 0.0 
3.949825299622e-03 1.478074288701e-02 0.0 
0.0 0.0 0.0 
2.679666591924e-04 -6.692841051706e-04 0.0 
-6.692841051706e-04 3.812534627084e-03 0.0 
0.0 0.0 0.0 
2.327869160111e-03 -1.529747324745e-04 0.0 
-1.529747324745e-04 1.020296140541e-03 0.0 
0.0 0.0 0.0 
-1.459772283756e-03 3.774358870465e-03 0.0 
3.774358870465e-03 7.224347877153e-04 0.0 
0.0 0.0 0.0 
-2.690435160701e-03 3.542661378449e-03 0.0 
3.542661378449e-03 1.182998535537e-02 0.0 
0.0 0.0 0.0 
6.465247790916e-05 -5.824956776951e-04 0.0 
-5.824956776951e-04 4.270847371699e-03 0.0 
0.0 0.0 0.0 
4.348115828301e-03 -1.092751869705e-05 0.0 
-1.092751869705e-05 -2.105509551642e-03 0.0 
0.0 0.0 0.0 
2.447740996101e-03 2.185216817447e-03 0.0 
2.185216817447e-03 2.083541435419e-03 0.0 
0.0 0.0 0.0 
-1.038906419150e-03 -3.881165539802e-04 0.0 
-3.881165539802e-04 3.734061960751e-03 0.0 
0.0 0.0 0.0 
6.118275445246e-04 4.770931402462e-03 0.0 
4.770931402462e-03 7.350475826441e-03 0.0 
0.0 0.0 0.0 
-1.572352328904e-03 3.818850293148e-03 0.0 
3.818850293148e-03 8.121127403480e-03 0.0 
0.0 0.0 0.0 
-8.922789236350e-05 -5.009207775161e-04 0.0 
-5.009207775161e-04 4.686635992943e-03 0.0 
0.0 0.0 0.0 
2.752277201503e-03 4.980661636304e-04 0.0 
4.980661636304e-04 7.492933801565e-04 0.0 
0.0 0.0 0.0 
3.498301590429e-03 3.520131381081e-03 0.0 
3.520131381081e-03 -1.184136414157e-03 0.0 
0.0 0.0 0.0 
-2.054007731880e-03 3.611937548047e-05 0.0 
3.611937548047e-05 1.513403619426e-02 0.0 
0.0 0.0 0.0 
-7.564118322916e-05 -4.307435796991e-04 0.0 
-4.307435796991e-04 5.155281006906e-03 0.0 
0.0 0.0 0.0 
2.278203047458e-03 7.545063480074e-04 0.0 
7.545063480074e-04 1.601479354751e-03 0.0 
0.0 0.0 0.0 
1.991838947495e-03 4.392948225004e-03 0.0 
4.392948225004e-03 3.450654104304e-03 0.0 
0.0 0.0 0.0 
4.091316151053e-03 -5.898061160978e-04 0.0 
-5.898061160978e-04 -2.084103241091e-03 0.0 
0.0 0.0 0.0 
-2.462653741080e-03 3.346448219726e-03 0.0 
3.346448219726e-03 1.083644972668e-02 0.0 
0.0 0.0 0.0 
3.051245510700e-04 -1.569508373520e-03 0.0 
-1.569508373520e-03 2.225063272919e-03 0.0 
0.0 0.0 0.0 
2.883347247108e-04 4.748923713039e-03 0.0 
4.748923713039e-03 7.046372546863e-03 0.0 
0.0 0.0 0.0 
-5.356811680686e-04 3.473809020957e-03 0.0 
3.473809020957e-03 1.584722453548e-02 0.0 
0.0 0.0 0.0 
2.116070290561e-03 1.191516361945e-03 0.0 
1.191516361945e-03 2.018262537279e-03 0.0 
0.0 0.0 0.0 
-2.292231303052e-03 3.551530835201e-03 0.0 
3.551530835201e-03 1.355692135266e-02 0.0 
0.0 0.0 0.0 
-8.517780143861e-06 -1.549483182831e-03 0.0 
-1.549483182831e-03 2.446662337666e-03 0.0 
0.0 0.0 0.0 
3.193299724095e-03 3.186861359975e-03 0.0 
3.186861359975e-03 1.246664005607e-03 0.0 
0.0 0.0 0.0 
9.448678505490e-04 -3.303755867681e-04 0.0 
-3.303755867681e-04 4.845966909917e-04 0.0 
0.0 0.0 0.0 
-2.093039587931e-03 3.723066409814e-03 0.0 
3.723066409814e-03 9.992027241073e-03 0.0 
0.0 0.0 0.0 
-2.482027551679e-04 -1.313274471780e-03 0.0 
-1.313274471780e-03 2.917747389524e-03 0.0 
0.0 0.0 0.0 
5.045479987374e-03 1.399238327436e-05 0.0 
1.399238327436e-05 -3.643035078936e-03 0.0 
0.0 0.0 0.0 
3.551521014288e-03 -8.955356802030e-04 0.0 
-8.955356802030e-04 -1.548616439244e-03 0.0 
0.0 0.0 0.0 
1.360510652232e-03 3.420032474801e-03 0.0 
3.420032474801e-03 4.445724546607e-03 0.0 
0.0 0.0 0.0 
-4.400288813589e-04 -1.071713857995e-03 0.0 
-1.071713857995e-03 3.335440556892e-03 0.0 
0.0 0.0 0.0 
5.144081426669e-03 1.090964657473e-04 0.0 
1.090964657473e-04 -3.411998587729e-03 0.0 
0.0 0.0 0.0 
-5.875065305918e-04 -8.328732362543e-04 0.0 
-8.328732362543e-04 3.699979071563e-03 0.0 
0.0 0.0 0.0 
-2.046362897606e-03 3.412685766732e-03 0.0 
3.412685766732e-03 9.119613293097e-03 0.0 
0.0 0.0 0.0 
-1.928903674357e-03 3.868930111357e-03 0.0 
3.868930111357e-03 1.291152416228e-02 0.0 
0.0 0.0 0.0 
-6.970472139080e-04 -5.993390961594e-04 0.0 
-5.993390961594e-04 4.019103027095e-03 0.0 
0.0 0.0 0.0 
3.629072088848e-04 4.706083061139e-03 0.0 
4.706083061139e-03 7.367323242740e-03 0.0 
0.0 0.0 0.0 
5.483213065869e-04 -6.220240844399e-04 0.0 
-6.220240844399e-04 6.519551770511e-04 0.0 
0.0 0.0 0.0 
2.347552372576e-03 4.136038639833e-03 0.0 
4.136038639833e-03 2.889770928401e-03 0.0 
0.0 0.0 0.0 
-4.617884966756e-04 -2.120526615899e-04 0.0 
-2.120526615899e-04 5.184472038296e-03 0.0 
0.0 0.0 0.0 
1.305730964130e-03 -2.588729585488e-03 0.0 
-2.588729585488e-03 -1.382761676137e-05 0.0 
0.0 0.0 0.0 
3.082446122559e-03 -1.132800571695e-03 0.0 
-1.132800571695e-03 -1.020963877860e-03 0.0 
0.0 0.0 0.0 
-1.624860776044e-03 4.010067168184e-03 0.0 
4.010067168184e-03 1.298415378125e-02 0.0 
0.0 0.0 0.0 
-1.731266207965e-03 3.469112265305e-03 0.0 
3.469112265305e-03 7.453645974409e-03 0.0 
0.0 0.0 0.0 
2.901230328652e-03 -8.682387694040e-04 0.0 
-8.682387694040e-04 -4.620736725568e-04 0.0 
0.0 0.0 0.0 
3.918195909513e-04 4.697752547466e-03 0.0 
4.697752547466e-03 7.732640487093e-03 0.0 
0.0 0.0 0.0 
2.608558391021e-03 3.830740276784e-03 0.0 
3.830740276784e-03 2.473935128663e-03 0.0 
0.0 0.0 0.0 
3.822995645613e-03 3.279160938137e-03 0.0 
3.279160938137e-03 -2.322137685555e-04 0.0 
0.0 0.0 0.0 
2.651475188098e-03 -5.009818403947e-04 0.0 
-5.009818403947e-04 2.608172685951e-04 0.0 
0.0 0.0 0.0 
-1.142250195215e-03 3.864652043922e-03 0.0 
3.864652043922e-03 6.333120459016e-03 0.0 
0.0 0.0 0.0 
2.859355056962e-04 -2.309103477530e-03 0.0 
-2.309103477530e-03 8.438022142900e-04 0.0 
0.0 0.0 0.0 
1.339852243475e-04 -2.123930687069e-03 0.0 
-2.123930687069e-03 8.707147617469e-04 0.0 
0.0 0.0 0.0 
4.887394891821e-03 -5.415110639952e-04 0.0 
-5.415110639952e-04 -3.194116687344e-03 0.0 
0.0 0.0 0.0 
8.556005102456e-05 4.737888173562e-03 0.0 
4.737888173562e-03 8.734822042107e-03 0.0 
0.0 0.0 0.0 
5.492013582513e-04 -2.434947234796e-04 0.0 
-2.434947234796e-04 9.876052366331e-04 0.0 
0.0 0.0 0.0 
-1.161719545552e-03 4.362132194617e-03 0.0 
4.362132194617e-03 1.154755116689e-02 0.0 
0.0 0.0 0.0 
-4.796938003284e-05 -1.933064002193e-03 0.0 
-1.933064002193e-03 7.742888671444e-04 0.0 
0.0 0.0 0.0 
4.467410581036e-03 -1.274714199685e-03 0.0 
-1.274714199685e-03 -3.071955729621e-03 0.0 
0.0 0.0 0.0 
2.387724694409e-03 3.488844998475e-03 0.0 
3.488844998475e-03 2.969903923585e-03 0.0 
0.0 0.0 0.0 
-1.868766180604e-03 5.086800702120e-05 0.0 
5.086800702120e-05 1.616918732731e-02 0.0 
0.0 0.0 0.0 
3.947910405100e-03 -1.675954226799e-03 0.0 
-1.675954226799e-03 -2.581251700829e-03 0.0 
0.0 0.0 0.0 
-5.076626600352e-04 -1.815738450365e-04 0.0 
-1.815738450365e-04 2.161936962230e-03 0.0 
0.0 0.0 0.0 
3.351230922318e-03 -2.157709915020e-03 0.0 
-2.157709915020e-03 -2.180816185457e-03 0.0 
0.0 0.0 0.0 
3.540681024874e-03 3.267587865803e-03 0.0 
3.267587865803e-03 4.422913109442e-04 0.0 
0.0 0.0 0.0 
2.767479497267e-03 -2.244674497500e-03 0.0 
-2.244674497500e-03 -1.490269265924e-03 0.0 
0.0 0.0 0.0 
2.207561785960e-03 -2.499650399860e-03 0.0 
-2.499650399860e-03 -1.001880333719e-03 0.0 
0.0 0.0 0.0 
-8.457521383510e-04 1.081783074674e-03 0.0 
1.081783074674e-03 1.720903903316e-02 0.0 
0.0 0.0 0.0 
1.801758079580e-03 -2.505333917803e-03 0.0 
-2.505333917803e-03 -4.662435136977e-04 0.0 
0.0 0.0 0.0 
-3.667081529637e-04 3.149475531601e-04 0.0 
3.149475531601e-04 1.743557216791e-02 0.0 
0.0 0.0 0.0 
-1.711099921617e-04 -1.718214286329e-04 0.0 
-1.718214286329e-04 5.855707194329e-03 0.0 
0.0 0.0 0.0 
-2.026033542599e-03 1.678481013318e-05 0.0 
1.678481013318e-05 1.544645073298e-02 0.0 
0.0 0.0 0.0 
-1.596504391457e-03 3.512512795903e-03 0.0 
3.512512795903e-03 6.046116893120e-03 0.0 
0.0 0.0 0.0 
-1.844451187048e-03 1.922142793782e-04 0.0 
1.922142793782e-04 -3.843143459066e-03 0.0 
0.0 0.0 0.0 
-7.232118979308e-04 3.862404989883e-03 0.0 
3.862404989883e-03 4.502441477427e-03 0.0 
0.0 0.0 0.0 
1.138406400668e-03 -2.678282662880e-03 0.0 
-2.678282662880e-03 -7.524891981932e-06 0.0 
0.0 0.0 0.0 
-6.018074454902e-04 4.601892734095e-03 0.0 
4.601892734095e-03 9.998967353005e-03 0.0 
0.0 0.0 0.0 
-2.033830918369e-03 5.526947201863e-05 0.0 
5.526947201863e-05 1.546600503525e-02 0.0 
0.0 0.0 0.0 
6.625430605869e-04 -2.563472288345e-03 0.0 
-2.563472288345e-03 4.602965269795e-04 0.0 
0.0 0.0 0.0 
-4.006730759107e-04 4.953134824109e-03 0.0 
4.953134824109e-03 1.188978222035e-02 0.0 
0.0 0.0 0.0 
4.272175353697e-04 4.647791561129e-03 0.0 
4.647791561129e-03 6.985195935207e-03 0.0 
0.0 0.0 0.0 
-1.650247613073e-03 1.865555052039e-04 0.0 
1.865555052039e-04 1.662310025788e-02 0.0 
0.0 0.0 0.0 
2.191587055383e-03 1.905029004765e-03 0.0 
1.905029004765e-03 2.255091501670e-03 0.0 
0.0 0.0 0.0 
2.757033404655e-03 3.498709566718e-03 0.0 
3.498709566718e-03 2.207807946442e-03 0.0 
0.0 0.0 0.0 
-1.018800171765e-03 1.481145442502e-04 0.0 
1.481145442502e-04 1.717299475908e-02 0.0 
0.0 0.0 0.0 
-2.160123300503e-03 7.860768068834e-05 0.0 
7.860768068834e-05 1.512006550565e-02 0.0 
0.0 0.0 0.0 
-2.721870315247e-04 -9.733106877140e-04 0.0 
-9.733106877140e-04 6.090683569303e-04 0.0 
0.0 0.0 0.0 
-7.717836326919e-04 -1.701271957445e-04 0.0 
-1.701271957445e-04 4.506940665543e-03 0.0 
0.0 0.0 0.0 
-1.483073455070e-03 3.560636477997e-03 0.0 
3.560636477997e-03 4.628344962125e-03 0.0 
0.0 0.0 0.0 
-6.188777256404e-04 3.835555703463e-03 0.0 
3.835555703463e-03 3.088689465061e-03 0.0 
0.0 0.0 0.0 
-4.477360134360e-04 3.929926614577e-03 0.0 
3.929926614577e-03 1.728071343228e-03 0.0 
0.0 0.0 0.0 
-8.028427750121e-04 -6.882306243616e-04 0.0 
-6.882306243616e-04 2.532679930147e-03 0.0 
0.0 0.0 0.0 
-3.162597403900e-04 -2.734024232421e-03 0.0 
-2.734024232421e-03 4.189187549559e-04 0.0 
0.0 0.0 0.0 
-1.297110272603e-03 3.655189005908e-03 0.0 
3.655189005908e-03 3.339378190144e-03 0.0 
0.0 0.0 0.0 
1.328043785666e-03 2.384672906714e-03 0.0 
2.384672906714e-03 3.685953992799e-03 0.0 
0.0 0.0 0.0 
-2.535963998165e-03 4.254074364414e-04 0.0 
4.254074364414e-04 1.552591808979e-02 0.0 
0.0 0.0 0.0 
1.991269192133e-03 3.772650590550e-03 0.0 
3.772650590550e-03 3.871297372616e-03 0.0 
0.0 0.0 0.0 
-1.282654445680e-03 3.725312672932e-03 0.0 
3.725312672932e-03 2.120370268381e-03 0.0 
0.0 0.0 0.0 
-1.073353248673e-03 2.816163892626e-03 0.0 
2.816163892626e-03 1.630073043159e-02 0.0 
0.0 0.0 0.0 
1.054072343712e-03 4.006726886028e-03 0.0 
4.006726886028e-03 5.447529167934e-03 0.0 
0.0 0.0 0.0 
1.645557085700e-04 -3.241658772071e-04 0.0 
-3.241658772071e-04 4.919802009153e-03 0.0 
0.0 0.0 0.0 
1.585115108706e-03 3.844462885109e-03 0.0 
3.844462885109e-03 4.594080419225e-03 0.0 
0.0 0.0 0.0 
-2.932976090522e-04 4.062963976650e-03 0.0 
4.062963976650e-03 2.405158613756e-04 0.0 
0.0 0.0 0.0 
-3.150653088396e-03 1.661665587685e-03 0.0 
1.661665587685e-03 1.552264329607e-02 0.0 
0.0 0.0 0.0 
2.734664437282e-04 5.048006604934e-03 0.0 
5.048006604934e-03 8.825814047933e-03 0.0 
0.0 0.0 0.0 
-1.527654907980e-03 3.297313713494e-04 0.0 
3.297313713494e-04 1.683359283234e-02 0.0 
0.0 0.0 0.0 
3.983182246270e-05 -4.158944889677e-04 0.0 
-4.158944889677e-04 5.271443701209e-03 0.0 
0.0 0.0 0.0 
-2.845089273382e-03 7.125943901477e-04 0.0 
7.125943901477e-04 1.548613177466e-02 0.0 
0.0 0.0 0.0 
-7.091643758127e-04 7.029753081170e-04 0.0 
7.029753081170e-04 1.729619937066e-02 0.0 
0.0 0.0 0.0 
3.095324065907e-03 -2.472056315916e-03 0.0 
-2.472056315916e-03 -3.947747670846e-03 0.0 
0.0 0.0 0.0 
-6.631556420204e-04 3.606318741643e-04 0.0 
3.606318741643e-04 1.733157273160e-02 0.0 
0.0 0.0 0.0 
-4.504570465182e-04 4.686365698707e-03 0.0 
4.686365698707e-03 1.023408176707e-02 0.0 
0.0 0.0 0.0 
-2.066214198090e-03 2.243981752795e-04 0.0 
2.243981752795e-04 1.594672145299e-02 0.0 
0.0 0.0 0.0 
-3.161206711082e-03 2.558256625537e-03 0.0 
2.558256625537e-03 1.468775846250e-02 0.0 
0.0 0.0 0.0 
-2.339187723681e-04 -2.569810143755e-04 0.0 
-2.569810143755e-04 5.584490564642e-03 0.0 
0.0 0.0 0.0 
-7.009388049912e-04 4.588488389908e-03 0.0 
4.588488389908e-03 1.334405630121e-02 0.0 
0.0 0.0 0.0 
-1.311196361157e-04 4.110473013561e-03 0.0 
4.110473013561e-03 -1.017677953418e-03 0.0 
0.0 0.0 0.0 
-1.708405896830e-03 2.827936713592e-04 0.0 
2.827936713592e-04 1.661393512679e-02 0.0 
0.0 0.0 0.0 
-8.664495550735e-04 -1.041530127870e-03 0.0 
-1.041530127870e-03 2.797214614600e-03 0.0 
0.0 0.0 0.0 
4.877541850276e-04 -2.008990550569e-03 0.0 
-2.008990550569e-03 -3.898459829414e-03 0.0 
0.0 0.0 0.0 
5.756456981095e-04 -1.027692067616e-04 0.0 
-1.027692067616e-04 4.021450832362e-03 0.0 
0.0 0.0 0.0 
-3.210108833995e-04 4.806524811475e-03 0.0 
4.806524811475e-03 1.048929681543e-02 0.0 
0.0 0.0 0.0 
-1.519821227135e-04 -3.772400390911e-04 0.0 
-3.772400390911e-04 5.362299362245e-03 0.0 
0.0 0.0 0.0 
1.141076636157e-03 -3.434528062351e-05 0.0 
-3.434528062351e-05 4.196061472153e-04 0.0 
0.0 0.0 0.0 
2.822807388210e-04 -6.188354334121e-04 0.0 
-6.188354334121e-04 3.527039251330e-04 0.0 
0.0 0.0 0.0 
7.930083536618e-04 3.108040047991e-04 0.0 
3.108040047991e-04 3.759204337222e-03 0.0 
0.0 0.0 0.0 
-9.759936603028e-05 5.131848572689e-03 0.0 
5.131848572689e-03 1.050938415608e-02 0.0 
0.0 0.0 0.0 
2.730624928778e-03 -3.087652166143e-03 0.0 
-3.087652166143e-03 -2.881950596685e-03 0.0 
0.0 0.0 0.0 
-4.606610691159e-04 2.467924409507e-03 0.0 
2.467924409507e-03 1.673065673789e-02 0.0 
0.0 0.0 0.0 
-6.022048524555e-04 3.667466410533e-03 0.0 
3.667466410533e-03 -2.045807391627e-03 0.0 
0.0 0.0 0.0 
-2.255867335348e-03 1.345282371004e-04 0.0 
1.345282371004e-04 1.508421935419e-02 0.0 
0.0 0.0 0.0 
9.461511764050e-04 -4.873423716388e-04 0.0 
-4.873423716388e-04 1.317630264951e-04 0.0 
0.0 0.0 0.0 
-1.856040293404e-05 -4.358514597608e-04 0.0 
-4.358514597608e-04 5.494008745835e-03 0.0 
0.0 0.0 0.0 
-8.932657850779e-04 1.788545315453e-03 0.0 
1.788545315453e-03 1.700090093474e-02 0.0 
0.0 0.0 0.0 
-1.044729234534e-03 -6.902706179710e-04 0.0 
-6.902706179710e-04 3.225138533221e-03 0.0 
0.0 0.0 0.0 
-3.677199104942e-03 1.992611814524e-03 0.0 
1.992611814524e-03 1.479239698144e-02 0.0 
0.0 0.0 0.0 
-6.910582095883e-04 -4.158253063917e-04 0.0 
-4.158253063917e-04 2.396699555040e-03 0.0 
0.0 0.0 0.0 
9.278330248308e-04 4.564167196167e-03 0.0 
4.564167196167e-03 6.534386648145e-03 0.0 
0.0 0.0 0.0 
-3.652891031136e-04 -1.595235793324e-03 0.0 
-1.595235793324e-03 7.662568581062e-04 0.0 
0.0 0.0 0.0 
-7.733547132259e-04 1.305408083166e-03 0.0 
1.305408083166e-03 1.718156475675e-02 0.0 
0.0 0.0 0.0 
9.886848015852e-04 9.067731535803e-04 0.0 
9.067731535803e-04 3.585599976451e-03 0.0 
0.0 0.0 0.0 
-9.165361259971e-04 3.755237072547e-03 0.0 
3.755237072547e-03 1.523833934308e-02 0.0 
0.0 0.0 0.0 
5.258742441582e-04 3.295197654169e-03 0.0 
3.295197654169e-03 5.272090630509e-03 0.0 
0.0 0.0 0.0 
9.140925976294e-05 1.059888068769e-03 0.0 
1.059888068769e-03 -4.216735638738e-03 0.0 
0.0 0.0 0.0 
8.134356457882e-04 4.337105398719e-03 0.0 
4.337105398719e-03 6.172897437409e-03 0.0 
0.0 0.0 0.0 
1.665847290998e-03 1.352566239101e-03 0.0 
1.352566239101e-03 2.762851507464e-03 0.0 
0.0 0.0 0.0 
-2.108925754834e-03 6.467097853815e-05 0.0 
6.467097853815e-05 1.511400766399e-02 0.0 
0.0 0.0 0.0 
-8.225389202797e-04 4.234528177709e-03 0.0 
4.234528177709e-03 1.425249922964e-02 0.0 
0.0 0.0 0.0 
-9.354580304269e-04 -6.951309141187e-04 0.0 
-6.951309141187e-04 2.783256441025e-03 0.0 
0.0 0.0 0.0 
3.609702994611e-04 -6.155114879681e-04 0.0 
-6.155114879681e-04 9.613297052194e-04 0.0 
0.0 0.0 0.0 
-2.994831763253e-04 1.545708937182e-04 0.0 
1.545708937182e-04 1.746250541627e-02 0.0 
0.0 0.0 0.0 
2.433273617889e-03 -8.826525334615e-06 0.0 
-8.826525334615e-06 -8.397980980794e-04 0.0 
0.0 0.0 0.0 
-2.059141820903e-03 1.347642261704e-07 0.0 
1.347642261704e-07 1.508910416868e-02 0.0 
0.0 0.0 0.0 
-1.431319537503e-04 -7.420131896822e-05 0.0 
-7.420131896822e-05 5.959839611219e-03 0.0 
0.0 0.0 0.0 
6.165147574408e-04 -3.346737975632e-04 0.0 
-3.346737975632e-04 8.652832866639e-04 0.0 
0.0 0.0 0.0 
-1.996175596200e-03 5.956959593144e-05 0.0 
5.956959593144e-05 1.573246644527e-02 0.0 
0.0 0.0 0.0 
-2.354886344191e-04 5.087998363478e-03 0.0 
5.087998363478e-03 1.123808480980e-02 0.0 
0.0 0.0 0.0 
-1.056156777324e-03 -1.739837871611e-04 0.0 
-1.739837871611e-04 3.834670173717e-03 0.0 
0.0 0.0 0.0 
-1.198033326079e-03 2.422544781618e-04 0.0 
2.422544781618e-04 1.705826474679e-02 0.0 
0.0 0.0 0.0 
4.042334376729e-04 -3.296115353463e-03 0.0 
-3.296115353463e-03 -4.123799085511e-04 0.0 
0.0 0.0 0.0 
-2.151947057146e-03 -6.117413609660e-04 0.0 
-6.117413609660e-04 -3.654275679091e-03 0.0 
0.0 0.0 0.0 
-1.808623977878e-03 1.199237312172e-04 0.0 
1.199237312172e-04 1.634783256694e-02 0.0 
0.0 0.0 0.0 
1.044318157839e-03 3.748106803411e-03 0.0 
3.748106803411e-03 5.109400652091e-03 0.0 
0.0 0.0 0.0 
-9.449312112315e-04 3.151998296842e-03 0.0 
3.151998296842e-03 1.603432278054e-02 0.0 
0.0 0.0 0.0 
-1.986530240963e-03 2.318480027935e-04 0.0 
2.318480027935e-04 1.613429110377e-02 0.0 
0.0 0.0 0.0 
1.184054807816e-03 3.755665335961e-03 0.0 
3.755665335961e-03 -2.180958680860e-03 0.0 
0.0 0.0 0.0 
-2.332162873942e-04 4.976496128765e-03 0.0 
4.976496128765e-03 1.069646724234e-02 0.0 
0.0 0.0 0.0 
-1.020901133419e-03 -6.894911796882e-04 0.0 
-6.894911796882e-04 3.357265504936e-03 0.0 
0.0 0.0 0.0 
4.634593242359e-04 4.874360137233e-03 0.0 
4.874360137233e-03 8.088935195447e-03 0.0 
0.0 0.0 0.0 
1.730121186306e-03 2.054662019558e-03 0.0 
2.054662019558e-03 2.996490667891e-03 0.0 
0.0 0.0 0.0 
-1.770740118404e-03 3.869669797235e-03 0.0 
3.869669797235e-03 -1.385115413069e-03 0.0 
0.0 0.0 0.0 
-9.848160311242e-04 -1.382767255758e-04 0.0 
-1.382767255758e-04 4.028119555477e-03 0.0 
0.0 0.0 0.0 
7.750923463385e-04 -5.252245398850e-04 0.0 
-5.252245398850e-04 1.546977686629e-04 0.0 
0.0 0.0 0.0 
2.163633614034e-04 -3.887172723499e-04 0.0 
-3.887172723499e-04 4.687597070505e-03 0.0 
0.0 0.0 0.0 
-1.065830318010e-03 -4.774736537911e-04 0.0 
-4.774736537911e-04 3.542221439571e-03 0.0 
0.0 0.0 0.0 

TENSORS node_materi_strain_plasti float
2.934499401238e-03 -6.293764513238e-05 0.0 
-6.293764513238e-05 -1.067748591947e-03 0.0 
0.0 0.0 -1.096634683480e-04 
-1.418367511012e-03 -6.528559578284e-05 0.0 
-6.528559578284e-05 5.125663670203e-03 0.0 
0.0 0.0 -7.207122401682e-04 
-1.452967895051e-03 -5.509598229541e-05 0.0 
-5.509598229541e-05 7.203997768270e-03 0.0 
0.0 0.0 -1.332621093165e-03 
-1.383162840862e-03 -3.297498286580e-05 0.0 
-3.297498286580e-05 8.816768276200e-03 0.0 
0.0 0.0 -1.332621093165e-03 
2.013745495957e-03 -6.316916865917e-05 0.0 
-6.316916865917e-05 -5.120452549012e-04 0.0 
0.0 0.0 -2.200719611176e-04 
9.770148188976e-04 3.431498766894e-05 0.0 
3.431498766894e-05 4.169221136190e-04 0.0 
0.0 0.0 -3.137585542919e-04 
-7.178028314759e-05 -1.232028049957e-08 0.0 
-1.232028049957e-08 1.149279144839e-03 0.0 
0.0 0.0 -2.794359002296e-04 
-6.436375512209e-04 -1.276790241492e-05 0.0 
-1.276790241492e-05 1.873669559697e-03 0.0 
0.0 0.0 -3.439875543896e-04 
-7.879199919424e-04 -6.957800867177e-05 0.0 
-6.957800867177e-05 2.362265819291e-03 0.0 
0.0 0.0 -5.230155850880e-04 
-9.090757292185e-04 -8.706192601079e-05 0.0 
-8.706192601079e-05 2.790274002592e-03 0.0 
0.0 0.0 -6.679173279409e-04 
-1.029732123068e-03 -9.763895695819e-05 0.0 
-9.763895695819e-05 3.189834221624e-03 0.0 
0.0 0.0 -7.858430676574e-04 
-1.146480183378e-03 -1.186695020361e-04 0.0 
-1.186695020361e-04 3.556707151380e-03 0.0 
0.0 0.0 -8.797909670055e-04 
-1.263272361791e-03 -1.272958726748e-04 0.0 
-1.272958726748e-04 3.899470374148e-03 0.0 
0.0 0.0 -9.497524971825e-04 
-1.384672616284e-03 -1.145152012545e-04 0.0 
-1.145152012545e-04 4.236966414279e-03 0.0 
0.0 0.0 -1.004045332643e-03 
-1.526674903082e-03 -6.496102058636e-05 0.0 
-6.496102058636e-05 4.605045077914e-03 0.0 
0.0 0.0 -1.040527029177e-03 
-1.665462947768e-03 -2.107388054909e-05 0.0 
-2.107388054909e-05 4.948618842847e-03 0.0 
0.0 0.0 -1.059523297737e-03 
-1.782894097401e-03 -3.343512703910e-06 0.0 
-3.343512703910e-06 5.233549116132e-03 0.0 
0.0 0.0 -1.072054170059e-03 
-1.938902930101e-03 -9.696053467476e-05 0.0 
-9.696053467476e-05 5.600248017308e-03 0.0 
0.0 0.0 -1.073655443973e-03 
-2.100363589718e-03 -8.662704783515e-05 0.0 
-8.662704783515e-05 5.970821215845e-03 0.0 
0.0 0.0 -1.067605311830e-03 
-2.135124898814e-03 -7.268436157999e-05 0.0 
-7.268436157999e-05 6.300803109141e-03 0.0 
0.0 0.0 -1.091655094700e-03 
-2.004143563035e-03 -6.534761213825e-05 0.0 
-6.534761213825e-05 6.588381292475e-03 0.0 
0.0 0.0 -1.158330123333e-03 
-1.835283495390e-03 -5.008648858264e-05 0.0 
-5.008648858264e-05 6.864752160643e-03 0.0 
0.0 0.0 -1.226073836101e-03 
-1.640741500190e-03 -2.858138524020e-05 0.0 
-2.858138524020e-05 7.123085926045e-03 0.0 
0.0 0.0 -1.289832767750e-03 
-1.368677421570e-03 1.600785886141e-04 0.0 
1.600785886141e-04 8.818553082708e-03 0.0 
0.0 0.0 -1.336902025401e-03 
-1.377365391022e-03 2.999124352866e-04 0.0 
2.999124352866e-04 8.800585598907e-03 0.0 
0.0 0.0 -1.332945767435e-03 
-1.378029629414e-03 3.844218527142e-04 0.0 
3.844218527142e-04 8.780564209488e-03 0.0 
0.0 0.0 -1.334903170087e-03 
-1.378699113984e-03 6.281396802948e-04 0.0 
6.281396802948e-04 8.766528136653e-03 0.0 
0.0 0.0 -1.334459899807e-03 
-1.385861616700e-03 7.361442488981e-04 0.0 
7.361442488981e-04 8.736115872586e-03 0.0 
0.0 0.0 -1.332067731643e-03 
-1.380170718422e-03 9.112443166240e-04 0.0 
9.112443166240e-04 8.705993944759e-03 0.0 
0.0 0.0 -1.335050935171e-03 
-1.376694153872e-03 1.085769035599e-03 0.0 
1.085769035599e-03 8.675777653225e-03 0.0 
0.0 0.0 -1.335055123498e-03 
-1.386603367251e-03 1.256067884305e-03 0.0 
1.256067884305e-03 8.631282104952e-03 0.0 
0.0 0.0 -1.333530254363e-03 
-1.385927681412e-03 1.401216317866e-03 0.0 
1.401216317866e-03 8.584979043230e-03 0.0 
0.0 0.0 -1.336259905589e-03 
-1.382886472311e-03 1.656515799073e-03 0.0 
1.656515799073e-03 8.524207830888e-03 0.0 
0.0 0.0 -1.335712483792e-03 
-1.394014418558e-03 1.806002472474e-03 0.0 
1.806002472474e-03 8.445999086005e-03 0.0 
0.0 0.0 -1.333313947604e-03 
-1.390408237112e-03 2.011066343467e-03 0.0 
2.011066343467e-03 8.361388601017e-03 0.0 
0.0 0.0 -1.335862559377e-03 
-1.384222329824e-03 2.219576262539e-03 0.0 
2.219576262539e-03 8.276324698237e-03 0.0 
0.0 0.0 -1.336097458551e-03 
-1.389035125892e-03 2.412450494632e-03 0.0 
2.412450494632e-03 8.157453667495e-03 0.0 
0.0 0.0 -1.335235043394e-03 
-1.385735689378e-03 2.596152172723e-03 0.0 
2.596152172723e-03 8.026403168300e-03 0.0 
0.0 0.0 -1.334297546486e-03 
-1.387385464636e-03 2.793709716201e-03 0.0 
2.793709716201e-03 7.870413974245e-03 0.0 
0.0 0.0 -1.332308435384e-03 
-1.390045521020e-03 2.956478596536e-03 0.0 
2.956478596536e-03 7.707669454312e-03 0.0 
0.0 0.0 -1.332019584455e-03 
-1.374441407390e-03 3.130356841580e-03 0.0 
3.130356841580e-03 7.548288379511e-03 0.0 
0.0 0.0 -1.333392124151e-03 
-1.370916614240e-03 3.263121805825e-03 0.0 
3.263121805825e-03 7.369253492750e-03 0.0 
0.0 0.0 -1.334727449481e-03 
-1.360841402714e-03 3.372289688876e-03 0.0 
3.372289688876e-03 7.166176364928e-03 0.0 
0.0 0.0 -1.336576889699e-03 
-1.346336485325e-03 3.461253780169e-03 0.0 
3.461253780169e-03 6.951403103378e-03 0.0 
0.0 0.0 -1.335888391555e-03 
-1.332890796825e-03 3.468370162717e-03 0.0 
3.468370162717e-03 6.730314385053e-03 0.0 
0.0 0.0 -1.334783226448e-03 
-1.319924003398e-03 3.447235553293e-03 0.0 
3.447235553293e-03 6.491181615044e-03 0.0 
0.0 0.0 -1.335053869153e-03 
-1.304557536433e-03 3.357836383275e-03 0.0 
3.357836383275e-03 6.252969737423e-03 0.0 
0.0 0.0 -1.334960189349e-03 
-1.290544710403e-03 3.217570000044e-03 0.0 
3.217570000044e-03 6.038359705784e-03 0.0 
0.0 0.0 -1.334889991128e-03 
-1.266052279295e-03 3.015967340183e-03 0.0 
3.015967340183e-03 5.820251815716e-03 0.0 
0.0 0.0 -1.335774086633e-03 
-1.268292395628e-03 2.751499810292e-03 0.0 
2.751499810292e-03 5.611006951901e-03 0.0 
0.0 0.0 -1.336605656894e-03 
-1.233716587758e-03 2.428663332176e-03 0.0 
2.428663332176e-03 5.432453778555e-03 0.0 
0.0 0.0 -1.336508443943e-03 
-1.235192718271e-03 2.048692266400e-03 0.0 
2.048692266400e-03 5.281516895731e-03 0.0 
0.0 0.0 -1.335343284290e-03 
-1.233233161047e-03 1.613443115418e-03 0.0 
1.613443115418e-03 5.176753839955e-03 0.0 
0.0 0.0 -1.337998490269e-03 
-1.231527167288e-03 1.237296422517e-03 0.0 
1.237296422517e-03 5.075978590578e-03 0.0 
0.0 0.0 -1.337247094005e-03 
-1.199833465241e-03 7.660071193524e-04 0.0 
7.660071193524e-04 4.984249579952e-03 0.0 
0.0 0.0 -1.333783489999e-03 
-1.202795443341e-03 2.512512957567e-04 0.0 
2.512512957567e-04 4.957451962835e-03 0.0 
0.0 0.0 -1.334548731617e-03 
-1.209938913942e-03 -2.134028709971e-04 0.0 
-2.134028709971e-04 5.026425426342e-03 0.0 
0.0 0.0 -1.334619746794e-03 
-1.216034057197e-03 -6.370386973179e-04 0.0 
-6.370386973179e-04 5.098251117921e-03 0.0 
0.0 0.0 -1.335242115105e-03 
-1.250273571860e-03 -1.037169625291e-03 0.0 
-1.037169625291e-03 5.212102119693e-03 0.0 
0.0 0.0 -1.335691437541e-03 
-1.244652277412e-03 -1.350985257247e-03 0.0 
-1.350985257247e-03 5.369562904984e-03 0.0 
0.0 0.0 -1.335646478247e-03 
-1.280185566221e-03 -1.619011709695e-03 0.0 
-1.619011709695e-03 5.525208807417e-03 0.0 
0.0 0.0 -1.334931242407e-03 
-1.279873673449e-03 -1.816253781483e-03 0.0 
-1.816253781483e-03 5.699667194469e-03 0.0 
0.0 0.0 -1.334100791702e-03 
-1.316092894892e-03 -1.930306284798e-03 0.0 
-1.930306284798e-03 5.897360744271e-03 0.0 
0.0 0.0 -1.332237298415e-03 
-1.332492949627e-03 -1.997739486340e-03 0.0 
-1.997739486340e-03 6.101236304603e-03 0.0 
0.0 0.0 -1.333749945600e-03 
-1.347535005711e-03 -1.949980560505e-03 0.0 
-1.949980560505e-03 6.326575568891e-03 0.0 
0.0 0.0 -1.336652505695e-03 
-1.361718678089e-03 -1.883685554895e-03 0.0 
-1.883685554895e-03 6.509663460433e-03 0.0 
0.0 0.0 -1.337094627689e-03 
-1.399643089063e-03 -1.709140483279e-03 0.0 
-1.709140483279e-03 6.643034708910e-03 0.0 
0.0 0.0 -1.328990728106e-03 
-1.392288690639e-03 -1.485263022766e-03 0.0 
-1.485263022766e-03 6.836967868930e-03 0.0 
0.0 0.0 -1.335900064369e-03 
-1.414556676199e-03 -1.251540022059e-03 0.0 
-1.251540022059e-03 6.954271934946e-03 0.0 
0.0 0.0 -1.332523500780e-03 
-1.412496609790e-03 -1.031814538929e-03 0.0 
-1.031814538929e-03 7.047562735813e-03 0.0 
0.0 0.0 -1.335219049675e-03 
-1.419510763784e-03 -6.645626228058e-04 0.0 
-6.645626228058e-04 7.146959411296e-03 0.0 
0.0 0.0 -1.336566422126e-03 
-1.427684607805e-03 -3.887077461759e-04 0.0 
-3.887077461759e-04 7.195451913880e-03 0.0 
0.0 0.0 -1.335855682064e-03 
-1.453017564014e-03 -6.969271926299e-05 0.0 
-6.969271926299e-05 5.335351891541e-03 0.0 
0.0 0.0 -7.648954205800e-04 
-1.520880417330e-03 -7.433446925198e-05 0.0 
-7.433446925198e-05 5.819919600560e-03 0.0 
0.0 0.0 -8.298981322982e-04 
-1.557423966696e-03 -6.785219458369e-05 0.0 
-6.785219458369e-05 6.258440284560e-03 0.0 
0.0 0.0 -8.959277352460e-04 
-1.578985001560e-03 -6.738694350763e-05 0.0 
-6.738694350763e-05 6.671688470532e-03 0.0 
0.0 0.0 -9.610467530554e-04 
-1.585789406967e-03 -5.141559601497e-05 0.0 
-5.141559601497e-05 7.089803706817e-03 0.0 
0.0 0.0 -1.026987810050e-03 
-1.562649818793e-03 -5.245167551875e-05 0.0 
-5.245167551875e-05 7.497011482479e-03 0.0 
0.0 0.0 -1.092790196867e-03 
-1.539445803207e-03 -3.968004133447e-05 0.0 
-3.968004133447e-05 7.888080790164e-03 0.0 
0.0 0.0 -1.158290425478e-03 
-1.493157212652e-03 -4.236338247705e-05 0.0 
-4.236338247705e-05 8.249034422054e-03 0.0 
0.0 0.0 -1.224481705251e-03 
-1.439591118906e-03 -4.822262499776e-05 0.0 
-4.822262499776e-05 8.655254164316e-03 0.0 
0.0 0.0 -1.288782062784e-03 
8.962692744681e-06 5.391228126054e-04 0.0 
5.391228126054e-04 -8.962692744677e-06 0.0 
0.0 0.0 0.0 
-1.670167453503e-03 1.196709407309e-03 0.0 
1.196709407309e-03 4.743221842991e-03 0.0 
0.0 0.0 -7.388349218061e-04 
-1.008264200870e-05 1.636071736836e-03 0.0 
1.636071736836e-03 4.256569263986e-04 0.0 
0.0 0.0 -1.781032647385e-04 
2.419898888436e-04 1.714650012296e-03 0.0 
1.714650012296e-03 7.169103887313e-04 0.0 
0.0 0.0 -4.109572618178e-04 
1.972324976643e-04 1.872166137481e-03 0.0 
1.872166137481e-03 8.763202269977e-04 0.0 
0.0 0.0 -4.600940248552e-04 
-9.545047460204e-07 1.772850678572e-03 0.0 
1.772850678572e-03 1.137689485315e-03 0.0 
0.0 0.0 -4.871721345294e-04 
-2.294684798328e-04 1.727305058981e-03 0.0 
1.727305058981e-03 1.576796951367e-03 0.0 
0.0 0.0 -5.774264878005e-04 
-4.707427197219e-04 1.761151682502e-03 0.0 
1.761151682502e-03 2.189479290700e-03 0.0 
0.0 0.0 -7.366013875622e-04 
-7.529811060546e-04 1.738233902516e-03 0.0 
1.738233902516e-03 2.841897866327e-03 0.0 
0.0 0.0 -8.183718370474e-04 
-1.069011678021e-03 1.566419307500e-03 0.0 
1.566419307500e-03 3.446466855606e-03 0.0 
0.0 0.0 -7.751356507531e-04 
-1.368166857743e-03 1.387545585537e-03 0.0 
1.387545585537e-03 4.060847334416e-03 0.0 
0.0 0.0 -7.512059079798e-04 
-1.410510157798e-03 4.590467940020e-05 0.0 
4.590467940020e-05 5.108252865152e-03 0.0 
0.0 0.0 -7.167504868538e-04 
-1.406227077835e-03 4.711007506367e-05 0.0 
4.711007506367e-05 5.113153637208e-03 0.0 
0.0 0.0 -7.184827375020e-04 
-1.423806542956e-03 5.571674717398e-05 0.0 
5.571674717398e-05 5.112589032906e-03 0.0 
0.0 0.0 -7.186786903937e-04 
-1.436773387553e-03 6.228665321435e-05 0.0 
6.228665321435e-05 5.095055979088e-03 0.0 
0.0 0.0 -7.169675978895e-04 
-1.451603008850e-03 1.123071114571e-04 0.0 
1.123071114571e-04 5.169367192885e-03 0.0 
0.0 0.0 -7.238546058846e-04 
-1.472434392324e-03 1.385954487133e-04 0.0 
1.385954487133e-04 5.106009970347e-03 0.0 
0.0 0.0 -7.185860072230e-04 
-1.490638948828e-03 1.512754232971e-04 0.0 
1.512754232971e-04 5.087442749402e-03 0.0 
0.0 0.0 -7.170630917064e-04 
-1.513114104037e-03 2.399152023612e-04 0.0 
2.399152023612e-04 5.093292721956e-03 0.0 
0.0 0.0 -7.174139623878e-04 
-1.561955712685e-03 2.941641192329e-04 0.0 
2.941641192329e-04 5.103916165730e-03 0.0 
0.0 0.0 -7.207851870574e-04 
-1.600187203723e-03 3.914342920289e-04 0.0 
3.914342920289e-04 5.081084323258e-03 0.0 
0.0 0.0 -7.195160023472e-04 
-1.620652497438e-03 4.977757603843e-04 0.0 
4.977757603843e-04 5.045052367820e-03 0.0 
0.0 0.0 -7.186294792877e-04 
-1.661411027538e-03 6.193938572055e-04 0.0 
6.193938572055e-04 5.002260211086e-03 0.0 
0.0 0.0 -7.186194644340e-04 
-1.685221069802e-03 7.870110800037e-04 0.0 
7.870110800037e-04 4.945910860756e-03 0.0 
0.0 0.0 -7.192946965590e-04 
-1.705996470749e-03 9.871383257930e-04 0.0 
9.871383257930e-04 4.892000407740e-03 0.0 
0.0 0.0 -7.221636914649e-04 
0.0 0.0 0.0 
0.0 0.0 0.0 
0.0 0.0 0.0 
0.0 0.0 0.0 
0.0 0.0 0.0 
0.0 0.0 0.0 
0.0 0.0 0.0 
0.0 0.0 0.0 
0.0 0.0 0.0 
0.0 0.0 0.0 
0.0 0.0 0.0 
0.0 0.0 0.0 
0.0 0.0 0.0 
0.0 0.0 0.0 
0.0 0.0 0.0 
6.460969664659e-05 -1.556902627030e-04 0.0 
-1.556902627030e-04 3.828112054754e-05 0.0 
0.0 0.0 -4.409606451177e-05 
2.290958672754e-04 -1.825778835954e-04 0.0 
-1.825778835954e-04 1.295802149226e-05 0.0 
0.0 0.0 -6.349991864517e-05 
3.258301092639e-04 -1.495010221350e-04 0.0 
-1.495010221350e-04 5.825232736603e-05 0.0 
0.0 0.0 -6.729406355132e-05 
4.308097979006e-04 -2.272179296947e-04 0.0 
-2.272179296947e-04 4.144525422736e-05 0.0 
0.0 0.0 -5.004267624003e-05 
7.170242557017e-04 -3.798682189908e-04 0.0 
-3.798682189908e-04 -8.718929718944e-05 0.0 
0.0 0.0 -5.423469082675e-05 
1.016505377143e-03 -3.706654485886e-04 0.0 
-3.706654485886e-04 -2.196691987021e-04 0.0 
0.0 0.0 -6.924701466199e-05 
1.374691841568e-03 -3.600731207399e-04 0.0 
-3.600731207399e-04 -3.650587174241e-04 0.0 
0.0 0.0 -8.456438766380e-05 
1.776444192994e-03 -3.135747337774e-04 0.0 
-3.135747337774e-04 -5.394471043759e-04 0.0 
0.0 0.0 -1.145437528706e-04 
2.116489510919e-03 -3.092434709054e-04 0.0 
-3.092434709054e-04 -6.971504040322e-04 0.0 
0.0 0.0 -1.122699804219e-04 
2.340534228900e-03 -2.489648393755e-04 0.0 
-2.489648393755e-04 -7.939335318199e-04 0.0 
0.0 0.0 -1.135261812993e-04 
2.545448873624e-03 -1.895106937816e-04 0.0 
-1.895106937816e-04 -8.695809182027e-04 0.0 
0.0 0.0 -1.151526711856e-04 
2.708912883130e-03 -1.592234908312e-04 0.0 
-1.592234908312e-04 -9.353356256089e-04 0.0 
0.0 0.0 -1.168504208365e-04 
2.867102977547e-03 -9.067089989766e-05 0.0 
-9.067089989766e-05 -1.037120165575e-03 0.0 
0.0 0.0 -1.138900488129e-04 
3.013559206580e-03 5.775462477208e-05 0.0 
5.775462477208e-05 -1.103986210354e-03 0.0 
0.0 0.0 -1.064965418423e-04 
-1.581738049358e-04 2.166891127768e-03 0.0 
2.166891127768e-03 1.849145567164e-04 0.0 
0.0 0.0 -1.146032219169e-05 
1.936976575994e-04 1.398779559345e-03 0.0 
1.398779559345e-03 5.900772889955e-04 0.0 
0.0 0.0 -3.359035485407e-04 
2.417267202073e-04 1.838455165837e-03 0.0 
1.838455165837e-03 7.923036657008e-04 0.0 
0.0 0.0 -4.431558796749e-04 
1.101677228067e-04 1.834201385501e-03 0.0 
1.834201385501e-03 9.860182752854e-04 0.0 
0.0 0.0 -4.697939991823e-04 
-1.015326029610e-04 1.768813643197e-03 0.0 
1.768813643197e-03 1.327052849400e-03 0.0 
0.0 0.0 -5.252229627595e-04 
-3.500664412641e-04 1.776194894250e-03 0.0 
1.776194894250e-03 1.890650442787e-03 0.0 
0.0 0.0 -6.602502863668e-04 
-6.021316177337e-04 1.787666469000e-03 0.0 
1.787666469000e-03 2.539974038930e-03 0.0 
0.0 0.0 -8.188873791818e-04 
-9.157055857138e-04 1.673048909096e-03 0.0 
1.673048909096e-03 3.149566572632e-03 0.0 
0.0 0.0 -7.915848623382e-04 
-1.222210367846e-03 1.486194999013e-03 0.0 
1.486194999013e-03 3.757743598944e-03 0.0 
0.0 0.0 -7.605639790837e-04 
-1.515170207430e-03 1.327275972611e-03 0.0 
1.327275972611e-03 4.375300808542e-03 0.0 
0.0 0.0 -7.407858910677e-04 
3.539823178863e-04 1.710352572919e-03 0.0 
1.710352572919e-03 5.866051080763e-04 0.0 
0.0 0.0 -4.031088968411e-04 
-9.225734973571e-04 -7.785055507500e-06 0.0 
-7.785055507500e-06 4.710905526494e-03 0.0 
0.0 0.0 -1.303388942653e-03 
2.002003524453e-04 -6.228844878024e-04 0.0 
-6.228844878024e-04 2.361800845582e-04 0.0 
0.0 0.0 -1.150931346421e-04 
6.351277012354e-06 -1.034192914689e-04 0.0 
-1.034192914689e-04 -6.351277012356e-06 0.0 
0.0 0.0 0.0 
-1.143124804619e-03 -1.686232053488e-03 0.0 
-1.686232053488e-03 5.409600557008e-03 0.0 
0.0 0.0 -1.303360877099e-03 
1.234786051762e-04 1.977711876023e-03 0.0 
1.977711876023e-03 1.061132021132e-03 0.0 
0.0 0.0 -5.076902684178e-04 
-1.444704152341e-03 -3.615903752048e-04 0.0 
-3.615903752048e-04 4.407515592965e-03 0.0 
0.0 0.0 -1.026919993916e-03 
-9.479894819801e-04 1.838728918359e-03 0.0 
1.838728918359e-03 4.893992345869e-03 0.0 
0.0 0.0 -1.300998267065e-03 
-3.669420938573e-04 1.945721923899e-03 0.0 
1.945721923899e-03 2.035468676857e-03 0.0 
0.0 0.0 -7.150828212858e-04 
-1.134501767780e-03 3.078864715943e-03 0.0 
3.078864715943e-03 5.708971873236e-03 0.0 
0.0 0.0 -1.304014651794e-03 
-9.933335184060e-04 1.783041133304e-03 0.0 
1.783041133304e-03 3.368272424712e-03 0.0 
0.0 0.0 -8.139337748180e-04 
-1.367928456590e-03 -1.893022985453e-03 0.0 
-1.893022985453e-03 6.315060285992e-03 0.0 
0.0 0.0 -1.307658508868e-03 
1.393566666495e-03 -5.293231022229e-04 0.0 
-5.293231022229e-04 -2.919979710108e-04 0.0 
0.0 0.0 -1.726441863791e-04 
-1.321068622768e-03 3.408933067941e-03 0.0 
3.408933067941e-03 6.699280987615e-03 0.0 
0.0 0.0 -1.304481600125e-03 
-1.625241511018e-03 1.405941443998e-03 0.0 
1.405941443998e-03 4.657250357868e-03 0.0 
0.0 0.0 -7.595448291451e-04 
-9.674687493222e-04 -2.324067189866e-04 0.0 
-2.324067189866e-04 3.002016490702e-03 0.0 
0.0 0.0 -7.390740322083e-04 
-1.821851265128e-03 -3.597710289885e-04 0.0 
-3.597710289885e-04 5.333319395799e-03 0.0 
0.0 0.0 -1.073818338595e-03 
-1.412437544610e-03 3.130277989420e-03 0.0 
3.130277989420e-03 7.340714354146e-03 0.0 
0.0 0.0 -1.301280071178e-03 
-1.458721797288e-03 2.468181070438e-03 0.0 
2.468181070438e-03 8.007112846752e-03 0.0 
0.0 0.0 -1.304294760550e-03 
-1.442626291436e-03 7.982050020717e-04 0.0 
7.982050020717e-04 8.632923623264e-03 0.0 
0.0 0.0 -1.303238611779e-03 
-1.460924372811e-03 1.330564066234e-03 0.0 
1.330564066234e-03 8.482170570322e-03 0.0 
0.0 0.0 -1.297727402575e-03 
-1.466071718827e-03 1.860397699296e-03 0.0 
1.860397699296e-03 8.323259225048e-03 0.0 
0.0 0.0 -1.305306183856e-03 
-1.723504189141e-03 9.545217762893e-04 0.0 
9.545217762893e-04 5.069531762335e-03 0.0 
0.0 0.0 -7.528866907182e-04 
-1.609633540750e-03 4.109047618561e-04 0.0 
4.109047618561e-04 5.236232241604e-03 0.0 
0.0 0.0 -7.529849494387e-04 
-1.529214909887e-03 1.902322029956e-04 0.0 
1.902322029956e-04 5.302594416650e-03 0.0 
0.0 0.0 -7.580270452736e-04 
-1.581306103182e-03 3.146837778263e-05 0.0 
3.146837778263e-05 6.876614414943e-03 0.0 
0.0 0.0 -9.950081682429e-04 
-1.500312298629e-03 -1.404495050420e-03 0.0 
-1.404495050420e-03 6.813712989149e-03 0.0 
0.0 0.0 -1.302874185639e-03 
0.0 0.0 0.0 
0.0 0.0 0.0 
0.0 0.0 0.0 
1.991019007460e-03 -2.749999736625e-04 0.0 
-2.749999736625e-04 -4.994877663417e-04 0.0 
0.0 0.0 -1.971444476807e-04 
-2.064700972320e-03 -3.063344179821e-04 0.0 
-3.063344179821e-04 6.409893202118e-03 0.0 
0.0 0.0 -1.122886395833e-03 
-1.468245391393e-03 9.255547116428e-05 0.0 
9.255547116428e-05 5.268982738319e-03 0.0 
0.0 0.0 -7.500338828344e-04 
-3.768246537726e-04 -1.072125225081e-04 0.0 
-1.072125225081e-04 1.532862867376e-03 0.0 
0.0 0.0 -3.103003023327e-04 
-1.462480749969e-03 2.788238406384e-03 0.0 
2.788238406384e-03 7.654884390723e-03 0.0 
0.0 0.0 -1.293200138473e-03 
-1.060495443339e-03 2.586030718155e-03 0.0 
2.586030718155e-03 5.302800007763e-03 0.0 
0.0 0.0 -1.307307853467e-03 
-1.239947575843e-03 3.359554949631e-03 0.0 
3.359554949631e-03 6.201507605709e-03 0.0 
0.0 0.0 -1.304733450272e-03 
-8.851569131084e-04 1.017294528516e-03 0.0 
1.017294528516e-03 4.688446957818e-03 0.0 
0.0 0.0 -1.297928233296e-03 
-1.011734799512e-03 -8.525942349034e-04 0.0 
-8.525942349034e-04 4.907050266684e-03 0.0 
0.0 0.0 -1.305578568836e-03 
1.120011211769e-04 -9.639393047147e-04 0.0 
-9.639393047147e-04 3.552641554252e-04 0.0 
0.0 0.0 -2.002565471152e-04 
-1.668530992619e-03 6.309946100002e-04 0.0 
6.309946100002e-04 5.166924460567e-03 0.0 
0.0 0.0 -7.500980793755e-04 
-1.253144254253e-03 -1.928883033382e-03 0.0 
-1.928883033382e-03 5.781747753778e-03 0.0 
0.0 0.0 -1.293180865221e-03 
-1.565497950727e-03 6.438167873332e-05 0.0 
6.438167873332e-05 7.693447317596e-03 0.0 
0.0 0.0 -1.123598490052e-03 
6.785802533228e-04 -5.736279611176e-04 0.0 
-5.736279611176e-04 1.838174080766e-07 0.0 
0.0 0.0 -1.171618051616e-04 
-1.195500737651e-03 -3.256008312402e-04 0.0 
-3.256008312402e-04 3.719620558921e-03 0.0 
0.0 0.0 -9.209925479532e-04 
-1.429805954471e-03 5.036842419237e-04 0.0 
5.036842419237e-04 8.739646127293e-03 0.0 
0.0 0.0 -1.311981303940e-03 
-9.905702435701e-05 2.013930135586e-03 0.0 
2.013930135586e-03 1.485122832027e-03 0.0 
0.0 0.0 -5.940282032871e-04 
3.261360612195e-04 2.014048139277e-03 0.0 
2.014048139277e-03 7.944417754282e-04 0.0 
0.0 0.0 -4.802476442776e-04 
-6.470413752911e-04 1.957850985508e-03 0.0 
1.957850985508e-03 2.728601734132e-03 0.0 
0.0 0.0 -8.637206373099e-04 
-1.316804590616e-03 1.569868653343e-03 0.0 
1.569868653343e-03 4.005894671503e-03 0.0 
0.0 0.0 -7.800224789174e-04 
3.391583440696e-05 1.781513997182e-03 0.0 
1.781513997182e-03 2.073643361784e-04 0.0 
0.0 0.0 -1.034057873937e-04 
-1.536524951872e-03 3.208999903453e-05 0.0 
3.208999903453e-05 6.068754859848e-03 0.0 
0.0 0.0 -8.684787984471e-04 
-1.527482046669e-03 -8.504264765478e-04 0.0 
-8.504264765478e-04 7.084540485198e-03 0.0 
0.0 0.0 -1.313906642692e-03 
2.259445629762e-03 -9.175095740177e-05 0.0 
-9.175095740177e-05 -6.502150918460e-04 0.0 
0.0 0.0 -1.918888419282e-04 
-1.463207116020e-03 1.296765555730e-04 0.0 
1.296765555730e-04 8.413961701398e-03 0.0 
0.0 0.0 -1.253930875827e-03 
-1.717988966153e-03 1.334598389081e-03 0.0 
1.334598389081e-03 4.909530889206e-03 0.0 
0.0 0.0 -7.655439890770e-04 
-1.720228455065e-03 1.586186079137e-03 0.0 
1.586186079137e-03 4.967329360851e-03 0.0 
0.0 0.0 -7.934218816250e-04 
-1.768015179977e-03 1.461597718910e-03 0.0 
1.461597718910e-03 5.276074626724e-03 0.0 
0.0 0.0 -8.115680642089e-04 
-1.765114281844e-03 1.749488874724e-03 0.0 
1.749488874724e-03 5.323901634960e-03 0.0 
0.0 0.0 -8.428390908522e-04 
-1.776011419960e-03 1.632950866705e-03 0.0 
1.632950866705e-03 5.614599388379e-03 0.0 
0.0 0.0 -8.784658474099e-04 
-1.753067371520e-03 1.892876727445e-03 0.0 
1.892876727445e-03 5.647697331923e-03 0.0 
0.0 0.0 -9.060409163497e-04 
-1.729403370927e-03 2.034729517834e-03 0.0 
2.034729517834e-03 5.329326258993e-03 0.0 
0.0 0.0 -8.711257577414e-04 
-1.705524146156e-03 2.154135310252e-03 0.0 
2.154135310252e-03 5.649528349792e-03 0.0 
0.0 0.0 -9.341442283280e-04 
-1.669480427723e-03 2.313796081278e-03 0.0 
2.313796081278e-03 5.302391134739e-03 0.0 
0.0 0.0 -8.989774131092e-04 
-1.760017773414e-03 1.778713600910e-03 0.0 
1.778713600910e-03 5.960915318729e-03 0.0 
0.0 0.0 -9.415083590319e-04 
-1.639128685698e-03 2.400878910049e-03 0.0 
2.400878910049e-03 5.620671151866e-03 0.0 
0.0 0.0 -9.622976032585e-04 
-1.585968914987e-03 2.571269188534e-03 0.0 
2.571269188534e-03 5.245482773901e-03 0.0 
0.0 0.0 -9.268639294333e-04 
-1.553264337981e-03 2.629359401866e-03 0.0 
2.629359401866e-03 5.564461608518e-03 0.0 
0.0 0.0 -9.903372159162e-04 
-1.482148429882e-03 2.800719357184e-03 0.0 
2.800719357184e-03 5.162964478957e-03 0.0 
0.0 0.0 -9.547708836903e-04 
-1.480872876733e-03 2.756523220070e-03 0.0 
2.756523220070e-03 4.843370134984e-03 0.0 
0.0 0.0 -9.032660992691e-04 
-1.370066982921e-03 2.994500238396e-03 0.0 
2.994500238396e-03 4.734217419357e-03 0.0 
0.0 0.0 -9.261835667445e-04 
-1.296697830142e-03 2.932762897298e-03 0.0 
2.932762897298e-03 4.406716792506e-03 0.0 
0.0 0.0 -9.004111975071e-04 
-1.176154479742e-03 3.171939239460e-03 0.0 
3.171939239460e-03 4.268382598936e-03 0.0 
0.0 0.0 -9.182233496599e-04 
-1.237826052231e-03 3.181299556145e-03 0.0 
3.181299556145e-03 4.604885530242e-03 0.0 
0.0 0.0 -9.498701766430e-04 
-1.038924370446e-03 3.354505003279e-03 0.0 
3.354505003279e-03 4.108768898160e-03 0.0 
0.0 0.0 -9.343221806050e-04 
-9.113966935237e-04 3.322436674522e-03 0.0 
3.322436674522e-03 3.767445704006e-03 0.0 
0.0 0.0 -9.288662988139e-04 
-7.681433481646e-04 3.500147498246e-03 0.0 
3.500147498246e-03 3.577220508926e-03 0.0 
0.0 0.0 -9.367850320061e-04 
-6.050859616232e-04 3.441042246538e-03 0.0 
3.441042246538e-03 3.246213294712e-03 0.0 
0.0 0.0 -9.518642033955e-04 
-4.467796431526e-04 3.596824647640e-03 0.0 
3.596824647640e-03 3.023253834938e-03 0.0 
0.0 0.0 -9.541337235040e-04 
-2.817347476968e-04 3.508182660979e-03 0.0 
3.508182660979e-03 2.709346421897e-03 0.0 
0.0 0.0 -9.642822318347e-04 
-1.040481770833e-04 3.619372760828e-03 0.0 
3.619372760828e-03 2.449228749823e-03 0.0 
0.0 0.0 -9.459728402633e-04 
-2.870166289118e-04 3.676071568470e-03 0.0 
3.676071568470e-03 2.794184702227e-03 0.0 
0.0 0.0 -9.498144071847e-04 
6.429436302438e-05 3.660882361634e-03 0.0 
3.660882361634e-03 2.186835241716e-03 0.0 
0.0 0.0 -9.193128608805e-04 
2.331588354861e-04 3.548891452897e-03 0.0 
3.548891452897e-03 1.871725410986e-03 0.0 
0.0 0.0 -8.913707482552e-04 
4.174760030635e-04 3.518419278721e-03 0.0 
3.518419278721e-03 1.585153718146e-03 0.0 
0.0 0.0 -8.538425857873e-04 
5.455280992742e-04 3.365363645192e-03 0.0 
3.365363645192e-03 1.323229666393e-03 0.0 
0.0 0.0 -8.008961852862e-04 
7.498486656370e-04 3.260544319073e-03 0.0 
3.260544319073e-03 1.013594496255e-03 0.0 
0.0 0.0 -7.557613550964e-04 
5.794043773309e-04 3.414810932032e-03 0.0 
3.414810932032e-03 1.312272080423e-03 0.0 
0.0 0.0 -8.100034870355e-04 
9.766186802750e-04 3.126905533587e-03 0.0 
3.126905533587e-03 6.756506724320e-04 0.0 
0.0 0.0 -7.081154368744e-04 
1.170764685342e-03 3.063309594450e-03 0.0 
3.063309594450e-03 3.918842971428e-04 0.0 
0.0 0.0 -6.697067067790e-04 
1.469956798013e-03 2.887539401857e-03 0.0 
2.887539401857e-03 -6.720200421087e-06 0.0 
0.0 0.0 -6.271013989681e-04 
1.655398318796e-03 2.905797537394e-03 0.0 
2.905797537394e-03 -2.066635196578e-04 0.0 
0.0 0.0 -6.208863424878e-04 
1.958892900495e-03 2.587078338226e-03 0.0 
2.587078338226e-03 -5.601119320347e-04 0.0 
0.0 0.0 -5.994775579116e-04 
2.135455672651e-03 2.638700697284e-03 0.0 
2.638700697284e-03 -6.211030008372e-04 0.0 
0.0 0.0 -6.490082879202e-04 
2.410352153471e-03 2.173774944653e-03 0.0 
2.173774944653e-03 -9.107525055140e-04 0.0 
0.0 0.0 -6.426855634101e-04 
2.158594858366e-03 2.117426171510e-03 0.0 
2.117426171510e-03 -8.346185089651e-04 0.0 
0.0 0.0 -5.674184354577e-04 
2.548284906519e-03 1.577323129924e-03 0.0 
1.577323129924e-03 -1.120076299841e-03 0.0 
0.0 0.0 -6.120894028618e-04 
2.766282761562e-03 1.671188389262e-03 0.0 
1.671188389262e-03 -1.152705968468e-03 0.0 
0.0 0.0 -6.915329113260e-04 
2.831831315373e-03 9.695675877105e-04 0.0 
9.695675877105e-04 -1.281170566415e-03 0.0 
0.0 0.0 -6.645688924106e-04 
2.536993124922e-03 9.134999273791e-04 0.0 
9.134999273791e-04 -1.229619517363e-03 0.0 
0.0 0.0 -5.603029746683e-04 
2.733867997822e-03 2.586198841001e-04 0.0 
2.586198841001e-04 -1.313858956396e-03 0.0 
0.0 0.0 -6.085753034686e-04 
2.382754168972e-03 2.331723641419e-04 0.0 
2.331723641419e-04 -1.217161318829e-03 0.0 
0.0 0.0 -4.995397929185e-04 
2.475502276821e-03 -4.225569186791e-04 0.0 
-4.225569186791e-04 -1.235276730126e-03 0.0 
0.0 0.0 -5.315252342980e-04 
2.783353977069e-03 -4.207301430438e-04 0.0 
-4.207301430438e-04 -1.298298732893e-03 0.0 
0.0 0.0 -6.364522475042e-04 
2.431423533239e-03 -1.055611195596e-03 0.0 
-1.055611195596e-03 -1.141139443354e-03 0.0 
0.0 0.0 -5.529788956651e-04 
2.074488083004e-03 -1.034963949875e-03 0.0 
-1.034963949875e-03 -9.657239908617e-04 0.0 
0.0 0.0 -4.751846109182e-04 
1.948746609120e-03 -1.563616376602e-03 0.0 
-1.563616376602e-03 -7.896259199600e-04 0.0 
0.0 0.0 -4.967660096401e-04 
2.266914827687e-03 -1.646291796375e-03 0.0 
-1.646291796375e-03 -9.610891233280e-04 0.0 
0.0 0.0 -5.596395875825e-04 
1.725234701887e-03 -1.991509456133e-03 0.0 
-1.991509456133e-03 -5.081914327056e-04 0.0 
0.0 0.0 -5.215899725061e-04 
1.402225958191e-03 -1.927478583456e-03 0.0 
-1.927478583456e-03 -1.960854800127e-04 0.0 
0.0 0.0 -5.169173477906e-04 
1.209383151701e-03 -2.216403946003e-03 0.0 
-2.216403946003e-03 7.890654783242e-05 0.0 
0.0 0.0 -5.521241569428e-04 
1.437995882087e-03 -2.266737877318e-03 0.0 
-2.266737877318e-03 -1.663516021812e-04 0.0 
0.0 0.0 -5.449904056737e-04 
1.024600490131e-03 -2.464285469351e-03 0.0 
-2.464285469351e-03 3.533750076132e-04 0.0 
0.0 0.0 -5.905609276045e-04 
8.985317602796e-04 -2.606405635227e-03 0.0 
-2.606405635227e-03 5.292322287010e-04 0.0 
0.0 0.0 -6.118988524203e-04 
7.560704768117e-04 -2.818446778216e-03 0.0 
-2.818446778216e-03 7.706212678723e-04 0.0 
0.0 0.0 -6.542964620075e-04 
8.580312086144e-04 -2.682927376050e-03 0.0 
-2.682927376050e-03 6.007672926437e-04 0.0 
0.0 0.0 -6.251993576820e-04 
5.867828103229e-04 -2.962553875983e-03 0.0 
-2.962553875983e-03 1.034857146591e-03 0.0 
0.0 0.0 -6.949885529632e-04 
4.441790608849e-04 -3.069180945402e-03 0.0 
-3.069180945402e-03 1.277969962145e-03 0.0 
0.0 0.0 -7.380638670128e-04 
2.783519300776e-04 -3.113099096991e-03 0.0 
-3.113099096991e-03 1.538449359472e-03 0.0 
0.0 0.0 -7.786291240925e-04 
1.058234640362e-04 -3.171084265656e-03 0.0 
-3.171084265656e-03 1.852966267041e-03 0.0 
0.0 0.0 -8.394813133188e-04 
3.929316153892e-04 -3.010245319228e-03 0.0 
-3.010245319228e-03 1.308656505855e-03 0.0 
0.0 0.0 -7.292520519616e-04 
9.932532998196e-05 -3.071474673695e-03 0.0 
-3.071474673695e-03 1.797955184989e-03 0.0 
0.0 0.0 -8.131202207017e-04 
1.861203807317e-04 -2.953410476768e-03 0.0 
-2.953410476768e-03 1.579421639320e-03 0.0 
0.0 0.0 -7.566608657364e-04 
-8.642223961803e-05 -2.932845730897e-03 0.0 
-2.932845730897e-03 2.045062282812e-03 0.0 
0.0 0.0 -8.394171613687e-04 
7.378179429990e-04 3.236151700417e-03 0.0 
3.236151700417e-03 1.055249139964e-03 0.0 
0.0 0.0 -7.684573212697e-04 
-2.470987176264e-05 -2.774259717146e-03 0.0 
-2.774259717146e-03 1.827411113102e-03 0.0 
0.0 0.0 -7.725862462883e-04 
2.168591650758e-04 -2.749464912916e-03 0.0 
-2.749464912916e-03 1.402707795240e-03 0.0 
0.0 0.0 -6.941001258497e-04 
-2.655633051019e-04 -2.700896907473e-03 0.0 
-2.700896907473e-03 2.263406073752e-03 0.0 
0.0 0.0 -8.562183294215e-04 
-3.538412369767e-04 -2.807118068406e-03 0.0 
-2.807118068406e-03 2.524613030834e-03 0.0 
0.0 0.0 -9.303307687962e-04 
-2.182790499822e-04 -2.492668770886e-03 0.0 
-2.492668770886e-03 2.032114690057e-03 0.0 
0.0 0.0 -7.773581314605e-04 
-4.250446102995e-04 -2.387105800852e-03 0.0 
-2.387105800852e-03 2.436232383686e-03 0.0 
0.0 0.0 -8.619376171656e-04 
-3.808762253420e-04 -2.140229309317e-03 0.0 
-2.140229309317e-03 2.184406533220e-03 0.0 
0.0 0.0 -7.729415605190e-04 
1.763159166294e-03 2.932701492782e-03 0.0 
2.932701492782e-03 -2.697944395366e-04 0.0 
0.0 0.0 -6.400134543247e-04 
-1.088844513542e-03 3.301377294412e-03 0.0 
3.301377294412e-03 4.460583281383e-03 0.0 
0.0 0.0 -9.751682721562e-04 
-5.557439599788e-04 -2.010376698230e-03 0.0 
-2.010376698230e-03 2.553174357475e-03 0.0 
0.0 0.0 -8.560415989269e-04 
-5.027177784437e-04 -1.739983302349e-03 0.0 
-1.739983302349e-03 2.268016728775e-03 0.0 
0.0 0.0 -7.565566929991e-04 
-3.487326511453e-04 -1.851839421592e-03 0.0 
-1.851839421592e-03 1.937346492323e-03 0.0 
0.0 0.0 -6.808345033620e-04 
-4.519877827048e-04 -1.437771514004e-03 0.0 
-1.437771514004e-03 1.973465387895e-03 0.0 
0.0 0.0 -6.520618307959e-04 
-1.774841257907e-03 1.527132807035e-03 0.0 
1.527132807035e-03 5.918357799879e-03 0.0 
0.0 0.0 -9.126358703463e-04 
-1.762808846704e-03 1.694088373988e-03 0.0 
1.694088373988e-03 6.266633471383e-03 0.0 
0.0 0.0 -9.772611937912e-04 
-1.774288393461e-03 1.442569390130e-03 0.0 
1.442569390130e-03 6.194015386497e-03 0.0 
0.0 0.0 -9.468612964576e-04 
-1.759396418391e-03 1.612723129842e-03 0.0 
1.612723129842e-03 6.563174828670e-03 0.0 
0.0 0.0 -1.012955122490e-03 
-1.767929614200e-03 1.376342917300e-03 0.0 
1.376342917300e-03 6.485124768915e-03 0.0 
0.0 0.0 -9.835180958883e-04 
-5.788967960072e-04 -1.335257077215e-03 0.0 
-1.335257077215e-03 2.277225899990e-03 0.0 
0.0 0.0 -7.256352817785e-04 
-1.603689512328e-03 2.493470387195e-03 0.0 
2.493470387195e-03 5.946173640174e-03 0.0 
0.0 0.0 -1.026687169009e-03 
-1.736212695290e-03 1.850044700733e-03 0.0 
1.850044700733e-03 6.615422803056e-03 0.0 
0.0 0.0 -1.042264213861e-03 
-7.638319934371e-04 3.223456733069e-03 0.0 
3.223456733069e-03 3.455847564200e-03 0.0 
0.0 0.0 -9.409285294772e-04 
3.366430025168e-04 3.397992003127e-03 0.0 
3.397992003127e-03 1.628840077963e-03 0.0 
0.0 0.0 -8.423498916340e-04 
2.156368313925e-03 8.947959957603e-04 0.0 
8.947959957603e-04 -1.035979942615e-03 0.0 
0.0 0.0 -4.801664448473e-04 
-6.227154585167e-04 -2.198002757365e-03 0.0 
-2.198002757365e-03 2.831211668969e-03 0.0 
0.0 0.0 -9.464983759082e-04 
-7.218347779198e-04 -1.819122893170e-03 0.0 
-1.819122893170e-03 2.913297155100e-03 0.0 
0.0 0.0 -9.383242106009e-04 
-8.133368797394e-04 -1.945809227020e-03 0.0 
-1.945809227020e-03 3.204453228297e-03 0.0 
0.0 0.0 -1.004955155493e-03 
2.358180408842e-04 -3.147007717197e-03 0.0 
-3.147007717197e-03 1.628184027877e-03 0.0 
0.0 0.0 -7.988580294692e-04 
-1.225410220003e-04 -3.166679032327e-03 0.0 
-3.166679032327e-03 2.260222165472e-03 0.0 
0.0 0.0 -9.088386183890e-04 
-3.596074933626e-05 -3.143460862446e-03 0.0 
-3.143460862446e-03 2.089404171616e-03 0.0 
0.0 0.0 -8.720661220001e-04 
-3.940691537939e-04 -3.066493924859e-03 0.0 
-3.066493924859e-03 2.736277962959e-03 0.0 
0.0 0.0 -9.548449181928e-04 
-3.127433245065e-04 -2.982699423106e-03 0.0 
-2.982699423106e-03 2.620883950583e-03 0.0 
0.0 0.0 -9.363521337227e-04 
-6.475470341843e-04 -2.849005951016e-03 0.0 
-2.849005951016e-03 3.244198139691e-03 0.0 
0.0 0.0 -9.829094188347e-04 
-7.290342086422e-04 -2.890946438125e-03 0.0 
-2.890946438125e-03 3.342200867435e-03 0.0 
0.0 0.0 -9.972914379494e-04 
-9.540874880885e-04 -2.660066281729e-03 0.0 
-2.660066281729e-03 3.821872870679e-03 0.0 
0.0 0.0 -1.003716470558e-03 
-1.033871380646e-03 -2.655311578103e-03 0.0 
-2.655311578103e-03 3.899288306138e-03 0.0 
0.0 0.0 -1.010717982506e-03 
-5.020318707035e-04 -2.652589391131e-03 0.0 
-2.652589391131e-03 3.162848563043e-03 0.0 
0.0 0.0 -1.000386703517e-03 
-1.738328040713e-04 -2.716917287151e-03 0.0 
-2.716917287151e-03 2.542650585114e-03 0.0 
0.0 0.0 -9.561072799058e-04 
-1.217140716833e-03 -2.433745842754e-03 0.0 
-2.433745842754e-03 4.355239653684e-03 0.0 
0.0 0.0 -1.026468870702e-03 
-1.301004518180e-03 -2.384512482324e-03 0.0 
-2.384512482324e-03 4.413129634354e-03 0.0 
0.0 0.0 -1.025303715086e-03 
-1.433223260983e-03 -2.180723409209e-03 0.0 
-2.180723409209e-03 4.841898264917e-03 0.0 
0.0 0.0 -1.051254241329e-03 
-1.533782143048e-03 -2.096001782913e-03 0.0 
-2.096001782913e-03 4.882119290392e-03 0.0 
0.0 0.0 -1.038917832539e-03 
-1.344970022650e-03 -2.253929758585e-03 0.0 
-2.253929758585e-03 4.461736113479e-03 0.0 
0.0 0.0 -1.037516479237e-03 
-1.569102967331e-03 -1.933831873179e-03 0.0 
-1.933831873179e-03 4.899834166201e-03 0.0 
0.0 0.0 -1.046305699947e-03 
-1.376153231101e-03 -2.066079550050e-03 0.0 
-2.066079550050e-03 4.500968763913e-03 0.0 
0.0 0.0 -1.050803148915e-03 
1.947540486422e-03 2.152880942579e-04 0.0 
2.152880942579e-04 -9.005037723215e-04 0.0 
0.0 0.0 -4.487300203286e-04 
1.680967532914e-03 9.207071897223e-04 0.0 
9.207071897223e-04 -5.014207716637e-04 0.0 
0.0 0.0 -5.055200405360e-04 
1.438850481880e-03 2.016578593639e-04 0.0 
2.016578593639e-04 -1.625086232559e-04 0.0 
0.0 0.0 -5.470036536960e-04 
1.202172879279e-03 8.527240019949e-04 0.0 
8.527240019949e-04 3.828898779410e-04 0.0 
0.0 0.0 -6.793126102372e-04 
1.037530362003e-03 2.011510087903e-04 0.0 
2.011510087903e-04 7.506062236289e-04 0.0 
0.0 0.0 -7.663442509849e-04 
8.675854264309e-04 7.587081521114e-04 0.0 
7.587081521114e-04 1.231843798103e-03 0.0 
0.0 0.0 -8.979051750036e-04 
7.349701041776e-04 2.153247329944e-04 0.0 
2.153247329944e-04 1.546423059999e-03 0.0 
0.0 0.0 -9.701408636527e-04 
8.610381847209e-04 -3.526591051395e-04 0.0 
-3.526591051395e-04 1.156465632251e-03 0.0 
0.0 0.0 -8.646444929881e-04 
-1.453224264520e-03 2.831768754596e-03 0.0 
2.831768754596e-03 5.484804576212e-03 0.0 
0.0 0.0 -1.018102500310e-03 
3.008867090267e-03 1.058367247789e-03 0.0 
1.058367247789e-03 -1.343458179845e-03 0.0 
0.0 0.0 -7.137466758949e-04 
2.853497805066e-03 1.766083769912e-03 0.0 
1.766083769912e-03 -1.173072932721e-03 0.0 
0.0 0.0 -7.201820881480e-04 
3.053541270561e-03 1.142570270594e-03 0.0 
1.142570270594e-03 -1.348374367158e-03 0.0 
0.0 0.0 -7.307858157443e-04 
2.838618046953e-03 1.876649797015e-03 0.0 
1.876649797015e-03 -1.126367864291e-03 0.0 
0.0 0.0 -7.338215068551e-04 
2.971080593981e-03 1.270655419308e-03 0.0 
1.270655419308e-03 -1.289312095888e-03 0.0 
0.0 0.0 -7.207579277541e-04 
2.719217330289e-03 2.056721202716e-03 0.0 
2.056721202716e-03 -1.037451596634e-03 0.0 
0.0 0.0 -7.207567429950e-04 
2.772942118414e-03 1.411962470906e-03 0.0 
1.411962470906e-03 -1.228640855760e-03 0.0 
0.0 0.0 -6.618433982802e-04 
2.936188635973e-03 5.059698955333e-04 0.0 
5.059698955333e-04 -1.379043216914e-03 0.0 
0.0 0.0 -6.673480367399e-04 
2.617932977065e-03 5.853697332861e-04 0.0 
5.853697332861e-04 -1.334188021617e-03 0.0 
0.0 0.0 -5.501764094776e-04 
2.753067280877e-03 -3.549983010408e-04 0.0 
-3.549983010408e-04 -1.367545839080e-03 0.0 
0.0 0.0 -5.937949036274e-04 
2.283697930113e-03 -2.688909952497e-04 0.0 
-2.688909952497e-04 -1.277221164065e-03 0.0 
0.0 0.0 -4.313471854492e-04 
2.525026440165e-03 -1.212492314672e-03 0.0 
-1.212492314672e-03 -1.245102357231e-03 0.0 
0.0 0.0 -5.485388926860e-04 
-1.241644147846e-04 3.665257049786e-03 0.0 
3.665257049786e-03 2.568141902724e-03 0.0 
0.0 0.0 -9.405629120884e-04 
9.458807958305e-04 1.361774924333e-03 0.0 
1.361774924333e-03 9.904922510770e-04 0.0 
0.0 0.0 -8.298741629604e-04 
6.513001348098e-04 1.229100697752e-03 0.0 
1.229100697752e-03 1.753882193068e-03 0.0 
0.0 0.0 -9.993981362447e-04 
6.963768604448e-04 1.772072157614e-03 0.0 
1.772072157614e-03 1.581186938205e-03 0.0 
0.0 0.0 -9.522937794042e-04 
-3.189420848090e-04 -1.545020922433e-03 0.0 
-1.545020922433e-03 1.685829119162e-03 0.0 
0.0 0.0 -5.858087290083e-04 
-1.729227017080e-03 -1.797597956290e-03 0.0 
-1.797597956290e-03 5.304685395965e-03 0.0 
0.0 0.0 -1.052155339158e-03 
-3.558894212413e-04 -2.357175527876e-03 0.0 
-2.357175527876e-03 3.123019306479e-03 0.0 
0.0 0.0 -1.032922975483e-03 
-3.685387661376e-05 -2.333297789804e-03 0.0 
-2.333297789804e-03 2.519376975604e-03 0.0 
0.0 0.0 -9.972889278909e-04 
5.502284084495e-04 -2.540944922989e-04 0.0 
-2.540944922989e-04 1.932880194956e-03 0.0 
0.0 0.0 -1.036234461364e-03 
-5.051250462252e-04 -1.053858961610e-03 0.0 
-1.053858961610e-03 1.923683454344e-03 0.0 
0.0 0.0 -5.970694122200e-04 
2.486914527932e-03 2.192796758779e-03 0.0 
2.192796758779e-03 -9.291035182538e-04 0.0 
0.0 0.0 -6.676332898623e-04 
2.328692636026e-03 2.634849956172e-03 0.0 
2.634849956172e-03 -6.738088910714e-04 0.0 
0.0 0.0 -7.092358906949e-04 
-1.744623678677e-03 1.540348128746e-03 0.0 
1.540348128746e-03 6.846449706807e-03 0.0 
0.0 0.0 -1.048874596840e-03 
-1.750773001735e-03 1.319704536713e-03 0.0 
1.319704536713e-03 6.756146718387e-03 0.0 
0.0 0.0 -1.019458214591e-03 
-2.480160767706e-04 -2.004916630844e-03 0.0 
-2.004916630844e-03 3.137306023889e-03 0.0 
0.0 0.0 -1.070157681403e-03 
-6.234076530390e-04 -9.645286907226e-04 0.0 
-9.645286907226e-04 2.209865459266e-03 0.0 
0.0 0.0 -6.466873288763e-04 
-1.068414060457e-03 -2.374253472806e-03 0.0 
-2.374253472806e-03 4.293485734694e-03 0.0 
0.0 0.0 -1.053463316161e-03 
2.067995625182e-03 6.451329218673e-04 0.0 
6.451329218673e-04 -1.186041327943e-03 0.0 
0.0 0.0 -3.779804131024e-04 
-1.762784595192e-03 -1.607331333857e-03 0.0 
-1.607331333857e-03 5.293267446583e-03 0.0 
0.0 0.0 -1.053563116650e-03 
-1.867913240625e-03 -1.489305966451e-03 0.0 
-1.489305966451e-03 5.673891533939e-03 0.0 
0.0 0.0 -1.070920355653e-03 
-7.933761041048e-04 -2.832720245216e-03 0.0 
-2.832720245216e-03 3.452224715287e-03 0.0 
0.0 0.0 -1.021320298254e-03 
4.031722277788e-04 1.617631885485e-03 0.0 
1.617631885485e-03 2.296315845658e-03 0.0 
0.0 0.0 -1.069468904140e-03 
4.279180701410e-04 2.089566425205e-03 0.0 
2.089566425205e-03 2.165414708705e-03 0.0 
0.0 0.0 -1.033921039166e-03 
2.748961671600e-03 -1.234973564708e-03 0.0 
-1.234973564708e-03 -1.253110519415e-03 0.0 
0.0 0.0 -6.410790652217e-04 
2.518060065866e-03 -2.059438322562e-03 0.0 
-2.059438322562e-03 -1.018220698221e-03 0.0 
0.0 0.0 -6.427883004194e-04 
2.357888963389e-03 -2.118209179973e-03 0.0 
-2.118209179973e-03 -9.914742540871e-04 0.0 
0.0 0.0 -5.856063039867e-04 
2.191323313200e-03 -2.728758808394e-03 0.0 
-2.728758808394e-03 -6.479650369089e-04 0.0 
0.0 0.0 -6.614392612675e-04 
2.278763046571e-03 -2.578114575528e-03 0.0 
-2.578114575528e-03 -7.103706415061e-04 0.0 
0.0 0.0 -6.721681735992e-04 
1.895457018917e-03 -3.007528799367e-03 0.0 
-3.007528799367e-03 -3.206537863592e-04 0.0 
0.0 0.0 -6.749156710960e-04 
1.780393766489e-03 -3.161947930664e-03 0.0 
-3.161947930664e-03 -1.991738640969e-04 0.0 
0.0 0.0 -6.776656724536e-04 
1.498218282607e-03 -3.239267173229e-03 0.0 
-3.239267173229e-03 1.323736015907e-04 0.0 
0.0 0.0 -6.988250932278e-04 
1.538218957511e-03 -3.082075736210e-03 0.0 
-3.082075736210e-03 7.246781046861e-07 0.0 
0.0 0.0 -6.595472724067e-04 
1.116756184221e-03 -3.039153293536e-03 0.0 
-3.039153293536e-03 4.098621490744e-04 0.0 
0.0 0.0 -6.542649999838e-04 
9.813252680918e-04 -2.956617965048e-03 0.0 
-2.956617965048e-03 5.482338783846e-04 0.0 
0.0 0.0 -6.555253484899e-04 
6.892512545273e-04 -2.715436424775e-03 0.0 
-2.715436424775e-03 7.414890539001e-04 0.0 
0.0 0.0 -6.131744178975e-04 
-1.739487401810e-03 -1.643308528611e-03 0.0 
-1.643308528611e-03 5.674904400731e-03 0.0 
0.0 0.0 -1.101875158976e-03 
1.625849311047e-03 -1.683389643306e-04 0.0 
-1.683389643306e-04 -1.097136295050e-03 0.0 
0.0 0.0 -2.265912925700e-04 
-1.396148361601e-03 2.647702035806e-03 0.0 
2.647702035806e-03 4.519072400057e-03 0.0 
0.0 0.0 -8.810844588398e-04 
-5.349333944456e-04 -2.056134526959e-03 0.0 
-2.056134526959e-03 3.696128141265e-03 0.0 
0.0 0.0 -1.099012274073e-03 
4.001314244547e-04 2.494511169208e-04 0.0 
2.494511169208e-04 2.291122324032e-03 0.0 
0.0 0.0 -1.088453095952e-03 
-1.720074879915e-03 1.479198222822e-03 0.0 
1.479198222822e-03 7.120039440071e-03 0.0 
0.0 0.0 -1.085032576515e-03 
-1.727265597861e-03 1.269164868262e-03 0.0 
1.269164868262e-03 7.020339379643e-03 0.0 
0.0 0.0 -1.055603631703e-03 
-1.745923234167e-03 1.117194505061e-03 0.0 
1.117194505061e-03 6.644193117880e-03 0.0 
0.0 0.0 -9.897378988699e-04 
-1.726111739886e-03 1.073003689324e-03 0.0 
1.073003689324e-03 6.905750690588e-03 0.0 
0.0 0.0 -1.026001677571e-03 
-1.697815529865e-03 1.216597394983e-03 0.0 
1.216597394983e-03 7.279055033116e-03 0.0 
0.0 0.0 -1.091942449670e-03 
-1.699755368788e-03 1.027337857590e-03 0.0 
1.027337857590e-03 7.158023142695e-03 0.0 
0.0 0.0 -1.062342898562e-03 
-1.716352618538e-03 8.878056221667e-04 0.0 
8.878056221667e-04 6.774679391188e-03 0.0 
0.0 0.0 -9.962627399151e-04 
-1.692178280540e-03 8.508470267666e-04 0.0 
8.508470267666e-04 7.019991579685e-03 0.0 
0.0 0.0 -1.032646955902e-03 
-1.695660932446e-03 7.184317155414e-04 0.0 
7.184317155414e-04 6.625583462411e-03 0.0 
0.0 0.0 -9.664557332607e-04 
-1.677486126932e-03 6.911180295046e-04 0.0 
6.911180295046e-04 6.868534941944e-03 0.0 
0.0 0.0 -1.002889032254e-03 
-1.663620555798e-03 8.098065595925e-04 0.0 
8.098065595925e-04 7.259384762552e-03 0.0 
0.0 0.0 -1.069134413525e-03 
-1.655525420696e-03 6.533870042141e-04 0.0 
6.533870042141e-04 7.107625883104e-03 0.0 
0.0 0.0 -1.039387411609e-03 
-1.659615819212e-03 5.491873914478e-04 0.0 
5.491873914478e-04 6.708579784798e-03 0.0 
0.0 0.0 -9.730575354659e-04 
-1.642941155605e-03 5.125241071205e-04 0.0 
5.125241071205e-04 6.945188648216e-03 0.0 
0.0 0.0 -1.009574527126e-03 
-1.637255380195e-03 4.205204331053e-04 0.0 
4.205204331053e-04 6.536272510904e-03 0.0 
0.0 0.0 -9.431603702596e-04 
-1.623420800787e-03 3.856837058294e-04 0.0 
3.856837058294e-04 6.767271635738e-03 0.0 
0.0 0.0 -9.796061197752e-04 
-1.622026920778e-03 4.757000201370e-04 0.0 
4.757000201370e-04 7.177981971167e-03 0.0 
0.0 0.0 -1.046101832713e-03 
-5.260638759536e-04 -7.746154698035e-04 0.0 
-7.746154698035e-04 1.804698088172e-03 0.0 
0.0 0.0 -4.826019863697e-04 
6.384355500235e-04 -8.071467030727e-04 0.0 
-8.071467030727e-04 1.625869863801e-03 0.0 
0.0 0.0 -9.660701661439e-04 
3.155700960172e-04 -6.399278427758e-04 0.0 
-6.399278427758e-04 2.369342842803e-03 0.0 
0.0 0.0 -1.083831836676e-03 
-8.892645420983e-04 -1.589464053846e-03 0.0 
-1.589464053846e-03 3.243112049151e-03 0.0 
0.0 0.0 -9.683295300233e-04 
-9.893521759344e-04 -1.650588191873e-03 0.0 
-1.650588191873e-03 3.517832807879e-03 0.0 
0.0 0.0 -1.010934236754e-03 
-9.339052402119e-04 -1.988561699477e-03 0.0 
-1.988561699477e-03 3.508091553521e-03 0.0 
0.0 0.0 -1.041462402745e-03 
-1.131758993546e-03 -1.657762215853e-03 0.0 
-1.657762215853e-03 3.856452720899e-03 0.0 
0.0 0.0 -1.033211989474e-03 
-1.610140258144e-03 3.510578464752e-04 0.0 
3.510578464752e-04 7.002203508451e-03 0.0 
0.0 0.0 -1.015477767897e-03 
-1.603569950634e-03 4.323698609735e-04 0.0 
4.323698609735e-04 7.406712470395e-03 0.0 
0.0 0.0 -1.082739357160e-03 
2.075859047304e-03 2.734073794279e-03 0.0 
2.734073794279e-03 -5.151566843200e-04 0.0 
0.0 0.0 -6.688724412789e-04 
1.829803788864e-03 2.896630922712e-03 0.0 
2.896630922712e-03 -2.437374272620e-04 0.0 
0.0 0.0 -6.797427264007e-04 
-1.702624885041e-03 1.699730791061e-03 0.0 
1.699730791061e-03 7.199957864770e-03 0.0 
0.0 0.0 -1.114382729655e-03 
-1.921178658721e-03 -1.279150328982e-03 0.0 
-1.279150328982e-03 5.641022297000e-03 0.0 
0.0 0.0 -1.061085778683e-03 
-1.759404772593e-03 -1.368797781515e-03 0.0 
-1.368797781515e-03 5.258990087990e-03 0.0 
0.0 0.0 -1.062669991958e-03 
6.091469494368e-04 3.201234470351e-03 0.0 
3.201234470351e-03 1.145920310691e-03 0.0 
0.0 0.0 -7.521716829121e-04 
3.812479400786e-04 3.221138826746e-03 0.0 
3.221138826746e-03 1.454024134529e-03 0.0 
0.0 0.0 -7.865451748317e-04 
6.223231318809e-04 3.034958604236e-03 0.0 
3.034958604236e-03 1.026602646357e-03 0.0 
0.0 0.0 -7.066824763876e-04 
3.755190555598e-04 3.004529260336e-03 0.0 
3.004529260336e-03 1.328866931440e-03 0.0 
0.0 0.0 -7.304511372856e-04 
1.504650344152e-04 3.149504562038e-03 0.0 
3.149504562038e-03 1.760988080228e-03 0.0 
0.0 0.0 -8.191941919899e-04 
5.829936888595e-04 2.805741157272e-03 0.0 
2.805741157272e-03 9.386435949221e-04 0.0 
0.0 0.0 -6.521302644778e-04 
1.691581229929e-04 -2.698724546406e-03 0.0 
-2.698724546406e-03 1.880405331260e-03 0.0 
0.0 0.0 -8.664312523603e-04 
-1.632170864774e-03 7.587389543785e-04 0.0 
7.587389543785e-04 7.494664304375e-03 0.0 
0.0 0.0 -1.105708206284e-03 
-1.867627977739e-04 -1.946982532398e-03 0.0 
-1.946982532398e-03 1.623581017794e-03 0.0 
0.0 0.0 -6.157792371515e-04 
-1.766459924498e-04 -1.658792918857e-03 0.0 
-1.658792918857e-03 1.424250676640e-03 0.0 
0.0 0.0 -5.346877217957e-04 
-1.953846352874e-03 -1.181006378595e-03 0.0 
-1.181006378595e-03 5.993034579258e-03 0.0 
0.0 0.0 -1.094582683422e-03 
9.227653006670e-04 -9.923042472365e-04 0.0 
-9.923042472365e-04 8.348026981178e-04 0.0 
0.0 0.0 -7.532434280506e-04 
-4.484070588213e-04 3.613794165219e-03 0.0 
3.613794165219e-03 3.179623750880e-03 0.0 
0.0 0.0 -9.533529749162e-04 
-2.780489895403e-04 3.528284248772e-03 0.0 
3.528284248772e-03 2.993445099109e-03 0.0 
0.0 0.0 -9.681750457242e-04 
-5.507055311170e-04 3.446174456380e-03 0.0 
3.446174456380e-03 3.597530854088e-03 0.0 
0.0 0.0 -9.957130113267e-04 
-3.863084581791e-04 3.307385071573e-03 0.0 
3.307385071573e-03 3.448440357162e-03 0.0 
0.0 0.0 -1.023751803962e-03 
-6.300320690614e-04 3.259070928407e-03 0.0 
3.259070928407e-03 4.039542678780e-03 0.0 
0.0 0.0 -1.059873349132e-03 
-5.085717340789e-04 3.118830500926e-03 0.0 
3.118830500926e-03 3.927747937877e-03 0.0 
0.0 0.0 -1.087854580038e-03 
-2.514557000785e-04 3.100269023384e-03 0.0 
3.100269023384e-03 3.340960341130e-03 0.0 
0.0 0.0 -1.051791170495e-03 
1.399069373120e-04 1.939674922792e-03 0.0 
1.939674922792e-03 2.839420856551e-03 0.0 
0.0 0.0 -1.107463318235e-03 
-4.186704419438e-04 2.922768790841e-03 0.0 
2.922768790841e-03 3.866682433006e-03 0.0 
0.0 0.0 -1.115916943430e-03 
-1.595806012880e-03 2.986475684988e-04 0.0 
2.986475684988e-04 6.569860539438e-03 0.0 
0.0 0.0 -9.487150400336e-04 
9.874874757951e-04 2.001023480651e-03 0.0 
2.001023480651e-03 8.096298849095e-04 0.0 
0.0 0.0 -7.701931545877e-04 
1.099587361542e-03 -2.883577329194e-03 0.0 
-2.883577329194e-03 3.196281228081e-04 0.0 
0.0 0.0 -6.082352075787e-04 
-4.120182269500e-04 -8.254968701079e-04 0.0 
-8.254968701079e-04 1.533206618467e-03 0.0 
0.0 0.0 -4.510100977180e-04 
5.592980566656e-04 -2.545612127290e-03 0.0 
-2.545612127290e-03 8.296765578219e-04 0.0 
0.0 0.0 -5.952748347803e-04 
-6.262840441887e-04 -6.448010795071e-04 0.0 
-6.448010795071e-04 2.035833554771e-03 0.0 
0.0 0.0 -5.222488353909e-04 
-7.319508735308e-04 -8.428934672220e-04 0.0 
-8.428934672220e-04 2.464651158961e-03 0.0 
0.0 0.0 -6.822577977165e-04 
-4.713603530403e-04 -1.760178858830e-03 0.0 
-1.760178858830e-03 3.749274242464e-03 0.0 
0.0 0.0 -1.136360603439e-03 
-7.414846696447e-04 3.136821301181e-03 0.0 
3.136821301181e-03 4.510208953631e-03 0.0 
0.0 0.0 -1.124065295910e-03 
-8.446432131550e-04 3.218211498406e-03 0.0 
3.218211498406e-03 4.600039828402e-03 0.0 
0.0 0.0 -1.095615423988e-03 
1.374965702112e-04 2.907969111804e-03 0.0 
2.907969111804e-03 1.629175485309e-03 0.0 
0.0 0.0 -7.571451666514e-04 
-7.702727876907e-05 2.968579821374e-03 0.0 
2.968579821374e-03 2.049330152496e-03 0.0 
0.0 0.0 -8.452726601685e-04 
8.289727363508e-05 1.511362000005e-03 0.0 
1.511362000005e-03 2.985439199539e-03 0.0 
0.0 0.0 -1.136278651916e-03 
-1.765237675762e-03 1.222407657091e-03 0.0 
1.222407657091e-03 6.114667953270e-03 0.0 
0.0 0.0 -9.177848451843e-04 
-1.710580504207e-03 7.440398052567e-04 0.0 
7.440398052567e-04 6.380060456859e-03 0.0 
0.0 0.0 -9.302130594432e-04 
-1.676565589941e-03 5.872598873801e-04 0.0 
5.872598873801e-04 6.215440748447e-03 0.0 
0.0 0.0 -9.001900590098e-04 
-3.803857748505e-04 -5.434049098283e-04 0.0 
-5.434049098283e-04 1.471759670645e-03 0.0 
0.0 0.0 -3.494697005546e-04 
7.568627899495e-04 -2.787918667943e-03 0.0 
-2.787918667943e-03 7.221354992753e-04 0.0 
0.0 0.0 -6.338564096678e-04 
-1.662120244785e-03 1.162296850059e-03 0.0 
1.162296850059e-03 7.529797322482e-03 0.0 
0.0 0.0 -1.128363834889e-03 
2.037234962576e-03 2.841104701767e-03 0.0 
2.841104701767e-03 -4.145658898484e-04 0.0 
0.0 0.0 -6.954296025976e-04 
1.531315725723e-03 2.908052614029e-03 0.0 
2.908052614029e-03 2.448474694818e-06 0.0 
0.0 0.0 -6.573275144647e-04 
1.261589428094e-03 6.096704043663e-04 0.0 
6.096704043663e-04 -9.183369249884e-04 0.0 
0.0 0.0 -1.471082156167e-04 
7.631106832774e-04 -7.208428592914e-05 0.0 
-7.208428592914e-05 -6.801595576129e-04 0.0 
0.0 0.0 -3.555048242768e-05 
-1.589929625905e-03 3.288854672539e-04 0.0 
3.288854672539e-04 7.214274616426e-03 0.0 
0.0 0.0 -1.051814883004e-03 
-1.572388470156e-03 3.792019312018e-04 0.0 
3.792019312018e-04 7.619653826889e-03 0.0 
0.0 0.0 -1.117859435171e-03 
-1.078769339999e-03 -1.982110544533e-03 0.0 
-1.982110544533e-03 3.829235274235e-03 0.0 
0.0 0.0 -1.051224796075e-03 
-1.274189695606e-03 -1.627447894412e-03 0.0 
-1.627447894412e-03 4.185605639052e-03 0.0 
0.0 0.0 -1.050863174419e-03 
-1.969895269108e-04 -1.624325261337e-03 0.0 
-1.624325261337e-03 3.218036131210e-03 0.0 
0.0 0.0 -1.107558395918e-03 
3.636511301315e-04 -2.361072158115e-03 0.0 
-2.361072158115e-03 9.584204304499e-04 0.0 
0.0 0.0 -5.666020973920e-04 
-1.569287665322e-03 4.982993919659e-04 0.0 
4.982993919659e-04 7.796117196338e-03 0.0 
0.0 0.0 -1.149181664990e-03 
6.559202405712e-04 -1.403190814261e-03 0.0 
-1.403190814261e-03 1.391837788957e-03 0.0 
0.0 0.0 -8.776105840836e-04 
9.173022590222e-04 -1.676640049954e-03 0.0 
-1.676640049954e-03 6.107363237665e-04 0.0 
0.0 0.0 -6.548736783380e-04 
-1.171879392758e-03 -1.281686817317e-03 0.0 
-1.281686817317e-03 3.846852730435e-03 0.0 
0.0 0.0 -1.001803992689e-03 
1.504150752549e-03 2.803418453549e-03 0.0 
2.803418453549e-03 -4.311377337536e-05 0.0 
0.0 0.0 -6.261587053603e-04 
1.650316852641e-03 2.671963168056e-03 0.0 
2.671963168056e-03 -3.170419596538e-04 0.0 
0.0 0.0 -5.714035255658e-04 
1.466801754994e-03 -2.835534920743e-03 0.0 
-2.835534920743e-03 -6.856056088169e-05 0.0 
0.0 0.0 -5.992462260482e-04 
4.198225928608e-04 -2.489806032447e-03 0.0 
-2.489806032447e-03 9.452515050113e-04 0.0 
0.0 0.0 -5.850317562309e-04 
-7.228005656972e-04 -5.488391732617e-04 0.0 
-5.488391732617e-04 2.276834511977e-03 0.0 
0.0 0.0 -5.562745863746e-04 
-4.637036380639e-04 -1.428624458379e-03 0.0 
-1.428624458379e-03 3.853108176796e-03 0.0 
0.0 0.0 -1.173829981771e-03 
-1.646663843551e-03 1.358180133252e-03 0.0 
1.358180133252e-03 7.637691352308e-03 0.0 
0.0 0.0 -1.157575248917e-03 
-1.588531343900e-04 2.821657521555e-03 0.0 
2.821657521555e-03 3.283406077172e-03 0.0 
0.0 0.0 -1.080172819833e-03 
2.446831455112e-05 3.060603850123e-03 0.0 
3.060603850123e-03 2.728589719442e-03 0.0 
0.0 0.0 -1.015677837919e-03 
-3.660685555016e-04 2.667845735617e-03 0.0 
2.667845735617e-03 3.843962247037e-03 0.0 
0.0 0.0 -1.144955025780e-03 
2.673047132891e-04 -2.137865757300e-03 0.0 
-2.137865757300e-03 9.516698016607e-04 0.0 
0.0 0.0 -5.224176492642e-04 
-7.311483308604e-04 -1.856928531792e-03 0.0 
-1.856928531792e-03 4.285424001286e-03 0.0 
0.0 0.0 -1.165794428787e-03 
-2.038713827362e-03 -9.521744761757e-04 0.0 
-9.521744761757e-04 5.942161280998e-03 0.0 
0.0 0.0 -1.070719593515e-03 
-9.487823984943e-04 3.179202297983e-03 0.0 
3.179202297983e-03 5.046317585578e-03 0.0 
0.0 0.0 -1.157598467365e-03 
-1.028189826122e-03 3.189698687636e-03 0.0 
3.189698687636e-03 5.131498804919e-03 0.0 
0.0 0.0 -1.131219827106e-03 
1.693489723556e-03 2.912737131245e-03 0.0 
2.912737131245e-03 -1.493629984725e-04 0.0 
0.0 0.0 -6.617685964645e-04 
1.185947765099e-03 2.829659806798e-03 0.0 
2.829659806798e-03 2.506006467406e-04 0.0 
0.0 0.0 -6.156636050741e-04 
1.024663306531e-03 2.720941116212e-03 0.0 
2.720941116212e-03 3.858661710823e-04 0.0 
0.0 0.0 -6.045126332627e-04 
7.581467413336e-04 2.629057648791e-03 0.0 
2.629057648791e-03 6.283993164515e-04 0.0 
0.0 0.0 -5.942340247651e-04 
-1.648477658061e-03 2.188124378807e-03 0.0 
2.188124378807e-03 4.981950326516e-03 0.0 
0.0 0.0 -8.520119503206e-04 
1.288363213325e-03 2.918108490938e-03 0.0 
2.918108490938e-03 1.603315013667e-04 0.0 
0.0 0.0 -6.208691634391e-04 
-1.164374950017e-03 2.801514945082e-03 0.0 
2.801514945082e-03 4.086272555253e-03 0.0 
0.0 0.0 -8.983830653277e-04 
-1.269722602642e-03 2.487508477755e-03 0.0 
2.487508477755e-03 4.199128990551e-03 0.0 
0.0 0.0 -8.736227209573e-04 
-1.046332524412e-03 2.638264182984e-03 0.0 
2.638264182984e-03 3.789437134256e-03 0.0 
0.0 0.0 -8.954616384525e-04 
-9.535589006009e-05 3.192865815352e-03 0.0 
3.192865815352e-03 2.227004452414e-03 0.0 
0.0 0.0 -9.127067050351e-04 
-3.022280285659e-04 2.955332983640e-03 0.0 
2.955332983640e-03 2.491438051520e-03 0.0 
0.0 0.0 -9.307589223859e-04 
2.556968385694e-03 2.345203577048e-03 0.0 
2.345203577048e-03 -8.968266888023e-04 0.0 
0.0 0.0 -7.114892986678e-04 
1.812389688023e-03 1.564451495357e-03 0.0 
1.564451495357e-03 -6.179615212951e-04 0.0 
0.0 0.0 -5.118977857407e-04 
-8.515674767651e-04 -2.308299700533e-03 0.0 
-2.308299700533e-03 3.434983390257e-03 0.0 
0.0 0.0 -1.054912416397e-03 
-1.137266829401e-03 -2.398619768870e-03 0.0 
-2.398619768870e-03 4.055285407119e-03 0.0 
0.0 0.0 -1.045074301760e-03 
3.367977982503e-04 -3.065748121326e-03 0.0 
-3.065748121326e-03 1.429094799845e-03 0.0 
0.0 0.0 -7.568111134693e-04 
-1.629365191565e-03 9.257695161170e-04 0.0 
9.257695161170e-04 7.634439739813e-03 0.0 
0.0 0.0 -1.135109731873e-03 
-1.590870954180e-03 8.599854275843e-04 0.0 
8.599854275843e-04 7.870981141839e-03 0.0 
0.0 0.0 -1.171938512032e-03 
-1.643416432560e-03 4.449926551975e-04 0.0 
4.449926551975e-04 6.296597502974e-03 0.0 
0.0 0.0 -9.065739516476e-04 
-1.602464872442e-03 3.219184720994e-04 0.0 
3.219184720994e-04 6.108782366366e-03 0.0 
0.0 0.0 -8.764137937918e-04 
-2.696764371388e-04 -1.265861831851e-03 0.0 
-1.265861831851e-03 1.411045974668e-03 0.0 
0.0 0.0 -4.842067647502e-04 
-1.400634450087e-04 -1.409834388031e-03 0.0 
-1.409834388031e-03 1.204297259864e-03 0.0 
0.0 0.0 -4.502468535423e-04 
-2.319199994023e-04 -3.122878098546e-03 0.0 
-3.122878098546e-03 2.451044877422e-03 0.0 
0.0 0.0 -9.437206122825e-04 
-7.988578011231e-04 -2.058259969339e-03 0.0 
-2.058259969339e-03 4.234722114073e-03 0.0 
0.0 0.0 -1.127529358476e-03 
-1.669665556383e-03 1.635524756470e-03 0.0 
1.635524756470e-03 7.469407833496e-03 0.0 
0.0 0.0 -1.150095860580e-03 
-1.643068085807e-03 1.857648967737e-03 0.0 
1.857648967737e-03 7.542411325100e-03 0.0 
0.0 0.0 -1.179372829571e-03 
-1.673921977860e-03 1.925750498755e-03 0.0 
1.925750498755e-03 7.258395415596e-03 0.0 
0.0 0.0 -1.143369325255e-03 
-2.014473825755e-04 -1.218765106027e-03 0.0 
-1.218765106027e-03 3.345673547677e-03 0.0 
0.0 0.0 -1.144273392007e-03 
3.110341159347e-03 3.472939405717e-04 0.0 
3.472939405717e-04 -1.445647776500e-03 0.0 
0.0 0.0 -7.134400212203e-04 
1.600864292633e-03 -4.933060105816e-04 0.0 
-4.933060105816e-04 -5.124875882505e-04 0.0 
0.0 0.0 -4.664471590211e-04 
1.395368066446e-03 -9.561308999161e-04 0.0 
-9.561308999161e-04 -1.034414870566e-03 0.0 
0.0 0.0 -1.546942268056e-04 
3.758232775366e-04 3.466607308548e-03 0.0 
3.466607308548e-03 1.708095271688e-03 0.0 
0.0 0.0 -8.625807428358e-04 
-1.387284875597e-04 -1.147843400141e-03 0.0 
-1.147843400141e-03 1.071097091449e-03 0.0 
0.0 0.0 -3.720583479433e-04 
-1.231098641636e-03 3.135190691380e-03 0.0 
3.135190691380e-03 4.944666622865e-03 0.0 
0.0 0.0 -1.010319580236e-03 
-1.984786992954e-03 -8.733459957740e-04 0.0 
-8.733459957740e-04 6.259759611652e-03 0.0 
0.0 0.0 -1.122815839103e-03 
-1.861926426933e-03 -1.095524342960e-03 0.0 
-1.095524342960e-03 6.311220838631e-03 0.0 
0.0 0.0 -1.159213750608e-03 
-1.725327838232e-04 1.829528703914e-03 0.0 
1.829528703914e-03 3.501045676607e-03 0.0 
0.0 0.0 -1.171959308352e-03 
-1.590101240846e-03 1.706978125594e-03 0.0 
1.706978125594e-03 4.660773429978e-03 0.0 
0.0 0.0 -7.960146267056e-04 
5.073336669335e-04 3.214445659709e-03 0.0 
3.214445659709e-03 1.538412133141e-03 0.0 
0.0 0.0 -8.506774374544e-04 
8.851619009454e-04 2.969244090533e-03 0.0 
2.969244090533e-03 8.376787810317e-04 0.0 
0.0 0.0 -7.383602922759e-04 
-1.156062255108e-03 2.301233915827e-03 0.0 
2.301233915827e-03 3.896290621430e-03 0.0 
0.0 0.0 -8.625652443140e-04 
-9.471297243856e-04 2.440002294532e-03 0.0 
2.440002294532e-03 3.517004994648e-03 0.0 
0.0 0.0 -8.875966840820e-04 
-8.066787093543e-04 2.777426977554e-03 0.0 
2.777426977554e-03 3.370899001042e-03 0.0 
0.0 0.0 -9.244972712473e-04 
-7.192390311965e-04 2.566107428446e-03 0.0 
2.566107428446e-03 3.124935059627e-03 0.0 
0.0 0.0 -9.234394568817e-04 
1.009712769882e-03 -2.639627470040e-03 0.0 
-2.639627470040e-03 3.518698063256e-04 0.0 
0.0 0.0 -5.835353898034e-04 
7.225051380104e-04 -2.634694636205e-03 0.0 
-2.634694636205e-03 6.767854285005e-04 0.0 
0.0 0.0 -5.996959570761e-04 
-8.921567267479e-04 3.111111284804e-03 0.0 
3.111111284804e-03 5.059665355678e-03 0.0 
0.0 0.0 -1.192042136895e-03 
-6.099967263224e-04 2.870760626298e-03 0.0 
2.870760626298e-03 4.411064189710e-03 0.0 
0.0 0.0 -1.178660172201e-03 
-1.100042912757e-03 3.200343520554e-03 0.0 
3.200343520554e-03 5.573219155758e-03 0.0 
0.0 0.0 -1.193029175878e-03 
-1.160667669830e-03 3.176739035806e-03 0.0 
3.176739035806e-03 5.649176834465e-03 0.0 
0.0 0.0 -1.168165168231e-03 
-2.521445186915e-04 1.437999620024e-03 0.0 
1.437999620024e-03 3.663538457504e-03 0.0 
0.0 0.0 -1.200910491468e-03 
-1.175265126893e-05 1.083930210957e-03 0.0 
1.083930210957e-03 3.184478001405e-03 0.0 
0.0 0.0 -1.164168769488e-03 
-8.338945190871e-04 -6.899851568111e-04 0.0 
-6.899851568111e-04 2.693161182237e-03 0.0 
0.0 0.0 -7.014880017679e-04 
-2.848117966112e-04 2.692565546894e-03 0.0 
2.692565546894e-03 2.299445011333e-03 0.0 
0.0 0.0 -8.634142348809e-04 
-1.596224494799e-03 1.291320717670e-03 0.0 
1.291320717670e-03 7.883322151599e-03 0.0 
0.0 0.0 -1.194151889699e-03 
-1.353314944435e-03 2.157291733394e-03 0.0 
2.157291733394e-03 4.270289119183e-03 0.0 
0.0 0.0 -8.433929263471e-04 
-9.622501338421e-04 -1.912189492832e-03 0.0 
-1.912189492832e-03 4.776924830183e-03 0.0 
0.0 0.0 -1.192835421428e-03 
-1.026421419571e-03 -2.028541400734e-03 0.0 
-2.028541400734e-03 4.755168212354e-03 0.0 
0.0 0.0 -1.156047193884e-03 
4.478208592864e-04 -3.751585586859e-04 0.0 
-3.751585586859e-04 -4.241673929217e-04 0.0 
0.0 0.0 -1.013719987055e-05 
1.244125017972e-03 -1.917312666705e-03 0.0 
-1.917312666705e-03 -7.538799606522e-04 0.0 
0.0 0.0 -2.101050245656e-04 
-1.537691014338e-03 4.222863431362e-04 0.0 
4.222863431362e-04 8.020533850651e-03 0.0 
0.0 0.0 -1.184588873336e-03 
6.358527835684e-04 2.480430970654e-03 0.0 
2.480430970654e-03 6.941509382628e-04 0.0 
0.0 0.0 -5.700015950705e-04 
4.499471129459e-04 2.458836012126e-03 0.0 
2.458836012126e-03 9.036367217386e-04 0.0 
0.0 0.0 -5.801073577219e-04 
8.196974528425e-04 2.512758387053e-03 0.0 
2.512758387053e-03 5.135885621210e-04 0.0 
0.0 0.0 -5.714082921272e-04 
-1.721775180469e-03 -2.750261499923e-04 0.0 
-2.750261499923e-04 6.955705942823e-03 0.0 
0.0 0.0 -1.258310293365e-03 
-1.440319018305e-03 2.756393348766e-05 0.0 
2.756393348766e-05 5.261443928406e-03 0.0 
0.0 0.0 -7.479256703001e-04 
-1.851935248777e-03 -8.185806621322e-04 0.0 
-8.185806621322e-04 6.555435669483e-03 0.0 
0.0 0.0 -1.189418985649e-03 
-3.624356194934e-04 3.164434027964e-03 0.0 
3.164434027964e-03 2.710514095153e-03 0.0 
0.0 0.0 -9.658202727595e-04 
-1.517819935298e-03 5.689925216528e-04 0.0 
5.689925216528e-04 8.183121975380e-03 0.0 
0.0 0.0 -1.216510697198e-03 
6.201224625516e-04 2.820752531408e-03 0.0 
2.820752531408e-03 1.452084294343e-03 0.0 
0.0 0.0 -8.651011823288e-04 
9.038760669871e-04 3.026845929911e-03 0.0 
3.026845929911e-03 6.793831834175e-04 0.0 
0.0 0.0 -6.785396787449e-04 
8.674105580953e-05 -1.429107710981e-03 0.0 
-1.429107710981e-03 2.679701546003e-03 0.0 
0.0 0.0 -1.078177493492e-03 
-1.550932841916e-03 2.613354928632e-04 0.0 
2.613354928632e-04 7.825402361396e-03 0.0 
0.0 0.0 -1.149140729088e-03 
-1.512659112896e-03 3.422106709257e-04 0.0 
3.422106709257e-04 8.249752470507e-03 0.0 
0.0 0.0 -1.221625961084e-03 
-1.676659295308e-03 6.110344698925e-04 0.0 
6.110344698925e-04 5.968416883272e-03 0.0 
0.0 0.0 -8.638707813346e-04 
-1.641988205188e-03 4.340588364437e-04 0.0 
4.340588364437e-04 5.771155948817e-03 0.0 
0.0 0.0 -8.327709333130e-04 
-1.719162707249e-03 7.708162564075e-04 0.0 
7.708162564075e-04 6.112617701018e-03 0.0 
0.0 0.0 -8.925140200429e-04 
1.977927820577e-03 1.598623588264e-03 0.0 
1.598623588264e-03 -1.019208972965e-03 0.0 
0.0 0.0 -4.108795061196e-04 
1.108521086627e-03 1.458274724011e-03 0.0 
1.458274724011e-03 -6.824978449185e-04 0.0 
0.0 0.0 -1.825813893037e-04 
-1.599533954581e-03 7.014631110784e-04 0.0 
7.014631110784e-04 7.724369133548e-03 0.0 
0.0 0.0 -1.142090266074e-03 
-7.915237200633e-04 -1.416691550801e-03 0.0 
-1.416691550801e-03 2.916147842675e-03 0.0 
0.0 0.0 -8.917970384883e-04 
-9.526528541598e-04 -1.159662932408e-03 0.0 
-1.159662932408e-03 3.237497577102e-03 0.0 
0.0 0.0 -9.066540859529e-04 
1.679025679155e-04 -2.197795369639e-03 0.0 
-2.197795369639e-03 1.134113528401e-03 0.0 
0.0 0.0 -5.580068984213e-04 
1.993437938488e-04 -2.372930192997e-03 0.0 
-2.372930192997e-03 1.192906332053e-03 0.0 
0.0 0.0 -5.966786253865e-04 
-1.011942446972e-03 -2.270969963916e-03 0.0 
-2.270969963916e-03 3.766401779748e-03 0.0 
0.0 0.0 -1.058899862332e-03 
-7.573046355122e-04 -2.581800115454e-03 0.0 
-2.581800115454e-03 3.322201121737e-03 0.0 
0.0 0.0 -1.050266080739e-03 
-1.095827954621e-03 3.216069521876e-03 0.0 
3.216069521876e-03 4.826499025112e-03 0.0 
0.0 0.0 -1.038692069610e-03 
-1.234301998555e-03 3.107456630916e-03 0.0 
3.107456630916e-03 5.310904523361e-03 0.0 
0.0 0.0 -1.074129358999e-03 
-7.180889207275e-04 3.499463535137e-03 0.0 
3.499463535137e-03 3.763199671929e-03 0.0 
0.0 0.0 -9.722238801078e-04 
6.053063119579e-04 -2.030268547273e-03 0.0 
-2.030268547273e-03 1.237774920504e-03 0.0 
0.0 0.0 -7.898919567692e-04 
8.551862749054e-04 -2.258528060602e-03 0.0 
-2.258528060602e-03 5.423122765455e-04 0.0 
0.0 0.0 -5.989279506218e-04 
1.198969096751e-03 -1.716835984739e-03 0.0 
-1.716835984739e-03 -1.728528183355e-05 0.0 
0.0 0.0 -5.064359206787e-04 
-1.578160803348e-03 1.029909350069e-03 0.0 
1.029909350069e-03 7.988225935028e-03 0.0 
0.0 0.0 -1.199867006878e-03 
-1.525066789097e-03 9.716746199443e-04 0.0 
9.716746199443e-04 8.273760627129e-03 0.0 
0.0 0.0 -1.242728214876e-03 
1.321351467926e-03 -2.568351524438e-03 0.0 
-2.568351524438e-03 -2.315153931391e-07 0.0 
0.0 0.0 -5.661942653711e-04 
1.809254267051e-03 -2.583366555036e-03 0.0 
-2.583366555036e-03 -4.342692756295e-04 0.0 
0.0 0.0 -5.892792820380e-04 
6.921033763950e-04 -2.656898720389e-03 0.0 
-2.656898720389e-03 7.465441525006e-04 0.0 
0.0 0.0 -6.165632266696e-04 
-1.574485567314e-03 1.499311237931e-03 0.0 
1.499311237931e-03 7.988348182121e-03 0.0 
0.0 0.0 -1.223056365294e-03 
-1.741572698048e-03 -1.051965994170e-03 0.0 
-1.051965994170e-03 6.624165410999e-03 0.0 
0.0 0.0 -1.224004481682e-03 
-1.735235085971e-03 -1.304001527318e-03 0.0 
-1.304001527318e-03 6.344789461694e-03 0.0 
0.0 0.0 -1.195820777905e-03 
-2.679240954609e-05 -1.257927253223e-03 0.0 
-1.257927253223e-03 9.029103496679e-04 0.0 
0.0 0.0 -3.450663815859e-04 
-3.035170911774e-06 -1.579137764012e-03 0.0 
-1.579137764012e-03 1.039327180488e-03 0.0 
0.0 0.0 -4.410249086127e-04 
1.155100538592e-03 2.631364371344e-03 0.0 
2.631364371344e-03 1.868470155697e-04 0.0 
0.0 0.0 -5.751203803551e-04 
1.215808673203e-03 2.544029937651e-03 0.0 
2.544029937651e-03 -5.958635491021e-05 0.0 
0.0 0.0 -4.955238506970e-04 
-1.603953202991e-03 2.084851501461e-03 0.0 
2.084851501461e-03 7.579130278610e-03 0.0 
0.0 0.0 -1.207258722210e-03 
-1.637778905667e-03 2.162652518366e-03 0.0 
2.162652518366e-03 7.304299819900e-03 0.0 
0.0 0.0 -1.172631524865e-03 
-1.556077565275e-03 2.029656444368e-03 0.0 
2.029656444368e-03 7.905393318382e-03 0.0 
0.0 0.0 -1.247471551777e-03 
-8.078621275666e-04 -3.743686463011e-04 0.0 
-3.743686463011e-04 2.476609172107e-03 0.0 
0.0 0.0 -5.753817989848e-04 
1.173818397494e-04 2.725852523849e-03 0.0 
2.725852523849e-03 2.691650762888e-03 0.0 
0.0 0.0 -1.045322365442e-03 
-5.040778805935e-04 -1.070896588493e-03 0.0 
-1.070896588493e-03 3.980562278462e-03 0.0 
0.0 0.0 -1.207899217314e-03 
-2.520428194526e-04 -7.965635153337e-04 0.0 
-7.965635153337e-04 3.542662319704e-03 0.0 
0.0 0.0 -1.178012378629e-03 
-7.711086010594e-04 -1.329041706335e-03 0.0 
-1.329041706335e-03 4.567355749165e-03 0.0 
0.0 0.0 -1.244624083072e-03 
-1.223572839919e-04 2.186752793674e-03 0.0 
2.186752793674e-03 3.375840631155e-03 0.0 
0.0 0.0 -1.142102124289e-03 
-4.435966474857e-04 2.091597596222e-03 0.0 
2.091597596222e-03 3.997165180884e-03 0.0 
0.0 0.0 -1.205428683694e-03 
-6.295415077105e-04 2.617745388046e-03 0.0 
2.617745388046e-03 4.421095216534e-03 0.0 
0.0 0.0 -1.209323031234e-03 
8.913702169857e-05 -5.356610077544e-06 0.0 
-5.356610077544e-06 -8.913702169857e-05 0.0 
0.0 0.0 0.0 
-1.516551893121e-03 1.931531950452e-04 0.0 
1.931531950452e-04 8.105824831205e-03 0.0 
0.0 0.0 -1.199992767657e-03 
-1.600603275175e-03 3.197306060267e-04 0.0 
3.197306060267e-04 5.842030124630e-03 0.0 
0.0 0.0 -8.371571859873e-04 
0.0 0.0 0.0 
0.0 0.0 0.0 
0.0 0.0 0.0 
-1.547068004807e-03 2.255592860515e-04 0.0 
2.255592860515e-04 5.653808019545e-03 0.0 
0.0 0.0 -8.070151920887e-04 
-1.566358775821e-03 2.266234695203e-04 0.0 
2.266234695203e-04 5.919104175052e-03 0.0 
0.0 0.0 -8.451615393777e-04 
-1.505853756260e-03 1.425564258005e-04 0.0 
1.425564258005e-04 5.404792730384e-03 0.0 
0.0 0.0 -7.748096441827e-04 
-6.628775469822e-04 -3.015658585898e-04 0.0 
-3.015658585898e-04 2.010090265861e-03 0.0 
0.0 0.0 -4.206613647546e-04 
-1.675398106948e-03 5.868598101642e-04 0.0 
5.868598101642e-04 5.623434088204e-03 0.0 
0.0 0.0 -8.174106193842e-04 
-1.726757844430e-03 7.924650127462e-04 0.0 
7.924650127462e-04 5.855419414792e-03 0.0 
0.0 0.0 -8.556612431672e-04 
8.558548932515e-05 -1.128009013281e-03 0.0 
-1.128009013281e-03 6.309628739441e-04 0.0 
0.0 0.0 -2.713320700168e-04 
-1.513004436039e-03 1.420623121839e-03 0.0 
1.420623121839e-03 8.214217499082e-03 0.0 
0.0 0.0 -1.259301554906e-03 
1.749391661274e-04 -1.082733169331e-03 0.0 
-1.082733169331e-03 5.892299780132e-04 0.0 
0.0 0.0 -2.441793916413e-04 
1.147662153238e-04 -1.066745943300e-03 0.0 
-1.066745943300e-03 7.910181080930e-04 0.0 
0.0 0.0 -2.872885922025e-04 
-1.122672355991e-03 -1.921241529141e-03 0.0 
-1.921241529141e-03 5.266335920734e-03 0.0 
0.0 0.0 -1.221214701962e-03 
-1.203549749022e-03 -1.976762786956e-03 0.0 
-1.976762786956e-03 5.228557791274e-03 0.0 
0.0 0.0 -1.184344882880e-03 
-1.271935696370e-03 -1.932492998885e-03 0.0 
-1.932492998885e-03 5.682500405781e-03 0.0 
0.0 0.0 -1.247726601234e-03 
-1.345935677545e-03 -1.879180138911e-03 0.0 
-1.879180138911e-03 5.631962343118e-03 0.0 
0.0 0.0 -1.211018817991e-03 
-1.319489507466e-03 -1.996946989352e-03 0.0 
-1.996946989352e-03 5.223869660522e-03 0.0 
0.0 0.0 -1.147066289601e-03 
-1.457152980048e-03 -1.833275450520e-03 0.0 
-1.833275450520e-03 5.658001904065e-03 0.0 
0.0 0.0 -1.176490610025e-03 
-1.598701855115e-03 3.112456463076e-04 0.0 
3.112456463076e-04 5.594187128056e-03 0.0 
0.0 0.0 -7.985989294648e-04 
-1.425017338431e-03 -1.793987580484e-03 0.0 
-1.793987580484e-03 6.077694866820e-03 0.0 
0.0 0.0 -1.249018369598e-03 
-1.544794874514e-03 -1.654652183582e-03 0.0 
-1.654652183582e-03 6.043342076509e-03 0.0 
0.0 0.0 -1.207442871744e-03 
-1.490747382805e-03 -1.688185045970e-03 0.0 
-1.688185045970e-03 6.481641932430e-03 0.0 
0.0 0.0 -1.277927415301e-03 
-8.701201880038e-04 2.189049665711e-03 0.0 
2.189049665711e-03 3.268695103799e-03 0.0 
0.0 0.0 -8.722607330507e-04 
5.310970710450e-04 2.630450444314e-03 0.0 
2.630450444314e-03 9.000089298474e-04 0.0 
0.0 0.0 -6.133311432396e-04 
2.617133158352e-04 2.476764240616e-03 0.0 
2.476764240616e-03 1.164640329384e-03 0.0 
0.0 0.0 -6.112944193795e-04 
1.728571300418e-04 2.227493690469e-03 0.0 
2.227493690469e-03 1.142483149507e-03 0.0 
0.0 0.0 -5.637172626637e-04 
-1.229541831672e-03 3.263680413163e-03 0.0 
3.263680413163e-03 6.138633277811e-03 0.0 
0.0 0.0 -1.240180566941e-03 
-1.276361500880e-03 3.187291024850e-03 0.0 
3.187291024850e-03 6.099399323178e-03 0.0 
0.0 0.0 -1.200590015451e-03 
-2.088598425736e-03 -6.246367196868e-04 0.0 
-6.246367196868e-04 6.194373546362e-03 0.0 
0.0 0.0 -1.090180627845e-03 
-2.041663287848e-03 -6.617363893855e-04 0.0 
-6.617363893855e-04 5.852171557009e-03 0.0 
0.0 0.0 -1.067141795818e-03 
-1.532469855713e-03 1.525337910669e-04 0.0 
1.525337910669e-04 5.692847008020e-03 0.0 
0.0 0.0 -8.108182148135e-04 
-1.511312180107e-03 9.255618039040e-05 0.0 
9.255618039040e-05 5.666580148835e-03 0.0 
0.0 0.0 -8.077352941366e-04 
-1.560488436606e-03 1.911238081195e-04 0.0 
1.911238081195e-04 6.070956180256e-03 0.0 
0.0 0.0 -8.678526801547e-04 
-1.544526745633e-03 1.030985674976e-04 0.0 
1.030985674976e-04 6.005801825662e-03 0.0 
0.0 0.0 -8.609153521579e-04 
-1.580530064686e-03 1.945628071657e-04 0.0 
1.945628071657e-04 6.420611350931e-03 0.0 
0.0 0.0 -9.200517378055e-04 
-1.559403933791e-03 8.887484367551e-05 0.0 
8.887484367551e-05 6.359767284502e-03 0.0 
0.0 0.0 -9.108947733944e-04 
-1.583263469338e-03 1.334252269549e-04 0.0 
1.334252269549e-04 6.753346818615e-03 0.0 
0.0 0.0 -9.726914458129e-04 
-8.669769815257e-04 2.889098903744e-03 0.0 
2.889098903744e-03 5.024560399167e-03 0.0 
0.0 0.0 -1.245087786853e-03 
4.982055672495e-04 2.293020821825e-03 0.0 
2.293020821825e-03 7.508210362061e-04 0.0 
0.0 0.0 -5.352971157667e-04 
-1.245162061090e-03 1.941632408908e-03 0.0 
1.941632408908e-03 3.965163190857e-03 0.0 
0.0 0.0 -8.237883836899e-04 
-3.879507205886e-04 1.027612391922e-03 0.0 
1.027612391922e-03 3.877749242080e-03 0.0 
0.0 0.0 -1.228261380050e-03 
-1.475502455479e-04 6.710535629733e-04 0.0 
6.710535629733e-04 3.400758398957e-03 0.0 
0.0 0.0 -1.187396807988e-03 
-4.877113708210e-04 2.653909423409e-03 0.0 
2.653909423409e-03 2.711925927626e-03 0.0 
0.0 0.0 -9.301491777014e-04 
-4.673273112926e-04 2.354591855457e-03 0.0 
2.354591855457e-03 2.518811343451e-03 0.0 
0.0 0.0 -8.783714799336e-04 
-9.656459474725e-04 -1.750454010380e-03 0.0 
-1.750454010380e-03 4.960948450779e-03 0.0 
0.0 0.0 -1.238794375355e-03 
1.773029984471e-03 2.918628512030e-03 0.0 
2.918628512030e-03 -2.405794798709e-04 0.0 
0.0 0.0 -6.567645019713e-04 
-1.474754496101e-03 1.652724927503e-03 0.0 
1.652724927503e-03 8.365646577830e-03 0.0 
0.0 0.0 -1.295459716840e-03 
0.0 0.0 0.0 
0.0 0.0 0.0 
0.0 0.0 0.0 
1.498393906149e-04 3.022053957605e-04 0.0 
3.022053957605e-04 -1.163750170629e-04 0.0 
0.0 0.0 -1.434187437943e-05 
1.327025876230e-03 3.010605488358e-03 0.0 
3.010605488358e-03 1.473338213913e-04 0.0 
0.0 0.0 -6.318684418375e-04 
-5.499021132442e-04 2.888144921732e-03 0.0 
2.888144921732e-03 2.938437648155e-03 0.0 
0.0 0.0 -9.558721723632e-04 
3.323415439528e-04 2.743520330787e-03 0.0 
2.743520330787e-03 1.229329144075e-03 0.0 
0.0 0.0 -6.692874377263e-04 
9.209566797494e-05 2.604630668434e-03 0.0 
2.604630668434e-03 1.511290340994e-03 0.0 
0.0 0.0 -6.871654324154e-04 
3.645468755337e-04 -1.692092076938e-03 0.0 
-1.692092076938e-03 1.976975662064e-03 0.0 
0.0 0.0 -9.759998253719e-04 
1.091376312940e-04 -1.700138468344e-03 0.0 
-1.700138468344e-03 9.084482070208e-04 0.0 
0.0 0.0 -4.293607968937e-04 
9.860679807434e-04 2.546469046220e-03 0.0 
2.546469046220e-03 3.575313038065e-04 0.0 
0.0 0.0 -5.758282648071e-04 
-1.592993118431e-03 2.731466696240e-04 0.0 
2.731466696240e-04 6.800272037187e-03 0.0 
0.0 0.0 -9.796923013958e-04 
6.911227834126e-04 2.251046992259e-03 0.0 
2.251046992259e-03 5.130124139505e-04 0.0 
0.0 0.0 -5.160579417270e-04 
-2.121618955622e-03 -3.224058753556e-04 0.0 
-3.224058753556e-04 6.099005119318e-03 0.0 
0.0 0.0 -1.073807358551e-03 
2.201373567652e-03 2.690698738968e-03 0.0 
2.690698738968e-03 -6.091920316776e-04 0.0 
0.0 0.0 -6.823635154174e-04 
-1.638384935320e-04 3.372316730358e-03 0.0 
3.372316730358e-03 2.445531910937e-03 0.0 
0.0 0.0 -9.519839029876e-04 
1.275974649949e-03 2.775715452302e-03 0.0 
2.775715452302e-03 1.801999389927e-04 0.0 
0.0 0.0 -6.240748238320e-04 
8.350192799097e-04 2.727176630851e-03 0.0 
2.727176630851e-03 5.820764688072e-04 0.0 
0.0 0.0 -6.073267494501e-04 
-1.574296698924e-03 2.484580816168e-03 0.0 
2.484580816168e-03 4.927078130058e-03 0.0 
0.0 0.0 -8.786961992330e-04 
-1.699341285066e-03 1.882952510091e-03 0.0 
1.882952510091e-03 5.001649373791e-03 0.0 
0.0 0.0 -8.239340753773e-04 
-1.544077067517e-03 2.021174845409e-03 0.0 
2.021174845409e-03 4.648313902463e-03 0.0 
0.0 0.0 -8.287327148421e-04 
2.547623254183e-03 2.268646563305e-03 0.0 
2.268646563305e-03 -9.255766277510e-04 0.0 
0.0 0.0 -6.951628398994e-04 
-9.793607364304e-05 2.680641002234e-03 0.0 
2.680641002234e-03 1.905972935152e-03 0.0 
0.0 0.0 -7.748729406467e-04 
-1.401926105552e-04 2.272349151151e-03 0.0 
2.272349151151e-03 1.732062029039e-03 0.0 
0.0 0.0 -6.822297507788e-04 
-1.042335079289e-03 3.085608632330e-03 0.0 
3.085608632330e-03 3.939330989580e-03 0.0 
0.0 0.0 -9.170298757010e-04 
-1.694312562690e-03 2.003906122110e-03 0.0 
2.003906122110e-03 6.960974899569e-03 0.0 
0.0 0.0 -1.107475121065e-03 
-1.654341182746e-03 2.234400658440e-03 0.0 
2.234400658440e-03 6.989596744706e-03 0.0 
0.0 0.0 -1.136341617999e-03 
-1.591073595122e-03 2.379952355984e-03 0.0 
2.379952355984e-03 7.311228899108e-03 0.0 
0.0 0.0 -1.199268560344e-03 
-1.606550985090e-03 2.450965261895e-03 0.0 
2.450965261895e-03 7.002228799418e-03 0.0 
0.0 0.0 -1.164598082371e-03 
-1.654615127137e-03 2.306554865062e-03 0.0 
2.306554865062e-03 6.662432923767e-03 0.0 
0.0 0.0 -1.100413285504e-03 
-1.595489437176e-03 2.513437590904e-03 0.0 
2.513437590904e-03 6.653696588520e-03 0.0 
0.0 0.0 -1.129075729544e-03 
-1.546389988990e-03 2.664193302564e-03 0.0 
2.664193302564e-03 6.994860909819e-03 0.0 
0.0 0.0 -1.193594387005e-03 
-1.524710140769e-03 2.725114460972e-03 0.0 
2.725114460972e-03 6.640657221836e-03 0.0 
0.0 0.0 -1.159256375294e-03 
-1.483453285402e-03 2.879360167952e-03 0.0 
2.879360167952e-03 7.061959584516e-03 0.0 
0.0 0.0 -1.234286862126e-03 
-1.459335345335e-03 2.896614314087e-03 0.0 
2.896614314087e-03 6.597331098230e-03 0.0 
0.0 0.0 -1.187309181180e-03 
-1.487240193726e-03 2.797813669470e-03 0.0 
2.797813669470e-03 6.237817525026e-03 0.0 
0.0 0.0 -1.120864512401e-03 
-1.416348664038e-03 2.952147323061e-03 0.0 
2.952147323061e-03 6.179572228468e-03 0.0 
0.0 0.0 -1.147759711419e-03 
-1.401702611885e-03 3.058403427338e-03 0.0 
3.058403427338e-03 6.528924407833e-03 0.0 
0.0 0.0 -1.207767947030e-03 
-1.429554607918e-03 2.882577101757e-03 0.0 
2.882577101757e-03 5.825437132677e-03 0.0 
0.0 0.0 -1.082593982084e-03 
-6.657140394303e-04 1.410986986977e-03 0.0 
1.410986986977e-03 4.342280522210e-03 0.0 
0.0 0.0 -1.264544343569e-03 
1.285034861164e-03 3.046453072889e-03 0.0 
3.046453072889e-03 2.156214386420e-04 0.0 
0.0 0.0 -6.431384142027e-04 
3.221685064304e-04 2.100220635338e-04 0.0 
2.100220635338e-04 -3.125792772457e-04 0.0 
0.0 0.0 -4.109669650583e-06 
7.277286052914e-04 1.662264959666e-03 0.0 
1.662264959666e-03 -4.217765524128e-04 0.0 
0.0 0.0 -1.311223083766e-04 
-4.639929809661e-04 3.327821869830e-03 0.0 
3.327821869830e-03 2.959449472573e-03 0.0 
0.0 0.0 -9.691543639280e-04 
-1.437907230863e-03 2.996700486661e-03 0.0 
2.996700486661e-03 7.518201304671e-03 0.0 
0.0 0.0 -1.299806302097e-03 
-1.466395687024e-03 2.621641971218e-03 0.0 
2.621641971218e-03 7.881651097987e-03 0.0 
0.0 0.0 -1.301753673823e-03 
2.487482228611e-03 2.475720953215e-03 0.0 
2.475720953215e-03 -8.077451105291e-04 0.0 
0.0 0.0 -7.198873363210e-04 
-1.280305576935e-03 3.404019922885e-03 0.0 
3.404019922885e-03 6.453749912264e-03 0.0 
0.0 0.0 -1.303413959896e-03 
-1.478986277362e-03 2.335815426712e-03 0.0 
2.335815426712e-03 4.599949913439e-03 0.0 
0.0 0.0 -8.572908036711e-04 
2.443469762099e-03 1.504212848516e-03 0.0 
1.504212848516e-03 -1.149517681368e-03 0.0 
0.0 0.0 -5.545508917418e-04 
-1.188451958700e-03 3.233888318984e-03 0.0 
3.233888318984e-03 5.957074391346e-03 0.0 
0.0 0.0 -1.304286792737e-03 
-1.700650587437e-03 2.084768146748e-03 0.0 
2.084768146748e-03 6.648225866754e-03 0.0 
0.0 0.0 -1.071440646998e-03 
-1.693986595116e-03 2.166002580174e-03 0.0 
2.166002580174e-03 6.318613390721e-03 0.0 
0.0 0.0 -1.034857077839e-03 
-1.735485188954e-03 1.934897306350e-03 0.0 
1.934897306350e-03 6.303939504401e-03 0.0 
0.0 0.0 -1.006057961993e-03 
-1.460757887231e-03 2.250687193900e-03 0.0 
2.250687193900e-03 8.134933915156e-03 0.0 
0.0 0.0 -1.305867370806e-03 
-1.749991994699e-03 9.588049142227e-04 0.0 
9.588049142227e-04 6.254499179949e-03 0.0 
0.0 0.0 -9.232948652302e-04 
-1.017747060708e-03 2.242049910193e-03 0.0 
2.242049910193e-03 5.131073367086e-03 0.0 
0.0 0.0 -1.306016332489e-03 
1.333415972402e-03 1.535387923333e-03 0.0 
1.535387923333e-03 1.136937242501e-04 0.0 
0.0 0.0 -6.201898699939e-04 
1.391903311676e-03 2.154011180947e-03 0.0 
2.154011180947e-03 1.151631227135e-05 0.0 
0.0 0.0 -6.014655531204e-04 
1.815463505361e-03 2.115453371163e-03 0.0 
2.115453371163e-03 -5.458577548768e-04 0.0 
0.0 0.0 -5.441167502075e-04 
-1.566214445404e-03 2.595986134179e-03 0.0 
2.595986134179e-03 6.282321888988e-03 0.0 
0.0 0.0 -1.092245366321e-03 
-9.205735445318e-04 4.808338680360e-04 0.0 
4.808338680360e-04 4.693547071086e-03 0.0 
0.0 0.0 -1.302677999426e-03 
-5.441937307524e-04 1.925192123183e-04 0.0 
1.925192123183e-04 4.093065944914e-03 0.0 
0.0 0.0 -1.248400714067e-03 
-5.696920249624e-04 -2.362618994637e-04 0.0 
-2.362618994637e-04 4.138723512730e-03 0.0 
0.0 0.0 -1.248426544684e-03 
-2.031241474020e-04 -7.328110519664e-05 0.0 
-7.328110519664e-05 3.471353297543e-03 0.0 
0.0 0.0 -1.189114855724e-03 
-9.524782035086e-04 -4.338690848369e-04 0.0 
-4.338690848369e-04 4.786583626593e-03 0.0 
0.0 0.0 -1.303398793257e-03 
-1.386313891139e-03 3.268387124946e-03 0.0 
3.268387124946e-03 7.156994535034e-03 0.0 
0.0 0.0 -1.306665994082e-03 
-1.359095365040e-03 3.359352166101e-03 0.0 
3.359352166101e-03 6.950855487648e-03 0.0 
0.0 0.0 -1.308500709484e-03 
1.902852668699e-03 -2.817268794694e-03 0.0 
-2.817268794694e-03 -4.032967653229e-04 0.0 
0.0 0.0 -6.426668157327e-04 
2.253407391376e-03 -2.370679650838e-03 0.0 
-2.370679650838e-03 -7.551607023086e-04 0.0 
0.0 0.0 -6.421057238860e-04 
2.152188401618e-03 -2.215932361183e-03 0.0 
-2.215932361183e-03 -7.648493634962e-04 0.0 
0.0 0.0 -5.945738734806e-04 
2.568498674833e-03 -1.800335482077e-03 0.0 
-1.800335482077e-03 -1.054151680982e-03 0.0 
0.0 0.0 -6.490058545078e-04 
2.589267859695e-03 -1.939320893250e-03 0.0 
-1.939320893250e-03 -1.034701238564e-03 0.0 
0.0 0.0 -6.662428376277e-04 
2.845251393852e-03 -1.182488936622e-03 0.0 
-1.182488936622e-03 -1.266140625123e-03 0.0 
0.0 0.0 -6.767617580267e-04 
2.841382791890e-03 -1.149550775431e-03 0.0 
-1.149550775431e-03 -1.284812658761e-03 0.0 
0.0 0.0 -6.671014856266e-04 
2.966198092938e-03 -3.987988764167e-04 0.0 
-3.987988764167e-04 -1.382086548665e-03 0.0 
0.0 0.0 -6.789049475453e-04 
-1.248651035025e-03 3.111213554981e-03 0.0 
3.111213554981e-03 5.700369437698e-03 0.0 
0.0 0.0 -1.138512926666e-03 
-1.048382069547e-03 -1.181351894960e-03 0.0 
-1.181351894960e-03 5.065835417687e-03 0.0 
0.0 0.0 -1.305779161548e-03 
4.789526992595e-05 -3.017317976477e-03 0.0 
-3.017317976477e-03 1.955725826502e-03 0.0 
0.0 0.0 -8.490207048509e-04 
4.255875009583e-04 -2.891330549410e-03 0.0 
-2.891330549410e-03 1.272940405536e-03 0.0 
0.0 0.0 -7.279405313547e-04 
7.016485745697e-04 -2.791230812805e-03 0.0 
-2.791230812805e-03 8.160956132733e-04 0.0 
0.0 0.0 -6.504617947899e-04 
-6.090620729236e-04 -2.591660670729e-03 0.0 
-2.591660670729e-03 2.996920806010e-03 0.0 
0.0 0.0 -1.013136008453e-03 
-4.847718747428e-04 -2.835802633982e-03 0.0 
-2.835802633982e-03 2.833935359093e-03 0.0 
0.0 0.0 -9.978061834832e-04 
-6.569091499038e-04 -2.799289725008e-03 0.0 
-2.799289725008e-03 3.183472627718e-03 0.0 
0.0 0.0 -1.035689958333e-03 
-7.207313198164e-04 -2.290250490495e-03 0.0 
-2.290250490495e-03 3.125345330795e-03 0.0 
0.0 0.0 -1.018322119518e-03 
-1.167877884792e-04 3.342094439232e-03 0.0 
3.342094439232e-03 2.837618912037e-03 0.0 
0.0 0.0 -9.882323209451e-04 
-1.091898030697e-03 -1.486850666943e-03 0.0 
-1.486850666943e-03 5.227315460995e-03 0.0 
0.0 0.0 -1.305003056577e-03 
1.225364256890e-03 -1.147615656396e-03 0.0 
-1.147615656396e-03 3.835923769498e-05 0.0 
0.0 0.0 -5.415957833937e-04 
-1.980397502487e-04 -3.005905727183e-03 0.0 
-3.005905727183e-03 2.314319347710e-03 0.0 
0.0 0.0 -9.069769703405e-04 
-1.707142071172e-03 7.635271864477e-04 0.0 
7.635271864477e-04 5.127553643252e-03 0.0 
0.0 0.0 -7.516786372745e-04 
-1.746908817975e-03 1.023609105839e-03 0.0 
1.023609105839e-03 5.442206395915e-03 0.0 
0.0 0.0 -8.094822736869e-04 
-1.772933357879e-03 1.184262300292e-03 0.0 
1.184262300292e-03 5.385289162601e-03 0.0 
0.0 0.0 -8.097394517040e-04 
-1.768350599280e-03 1.251073624371e-03 0.0 
1.251073624371e-03 5.764313646979e-03 0.0 
0.0 0.0 -8.733121467894e-04 
-1.727990335715e-03 8.210495884293e-04 0.0 
8.210495884293e-04 5.545557871090e-03 0.0 
0.0 0.0 -8.155917408702e-04 
-1.236784994223e-03 -1.923322638249e-03 0.0 
-1.923322638249e-03 4.168389852977e-03 0.0 
0.0 0.0 -1.057296815204e-03 
-1.427088068768e-03 -1.555275096953e-03 0.0 
-1.555275096953e-03 4.526520888732e-03 0.0 
0.0 0.0 -1.060211733922e-03 
-1.439309846138e-03 -1.245667555875e-03 0.0 
-1.245667555875e-03 4.501167157264e-03 0.0 
0.0 0.0 -1.053704044192e-03 
-1.586214255689e-03 -1.181249332069e-03 0.0 
-1.181249332069e-03 4.840144294026e-03 0.0 
0.0 0.0 -1.064485974018e-03 
-1.568580492753e-03 -8.807724015312e-04 0.0 
-8.807724015312e-04 4.760936091880e-03 0.0 
0.0 0.0 -1.058069710598e-03 
-1.437909822652e-03 -9.389915626686e-04 0.0 
-9.389915626686e-04 4.447516747931e-03 0.0 
0.0 0.0 -1.040756414728e-03 
-1.718221607956e-03 -8.006521433412e-04 0.0 
-8.006521433412e-04 5.111220650433e-03 0.0 
0.0 0.0 -1.068385751750e-03 
-1.669418493281e-03 -5.082865991109e-04 0.0 
-5.082865991109e-04 4.972394175886e-03 0.0 
0.0 0.0 -1.061946884890e-03 
-1.641647603362e-03 4.850166825857e-04 0.0 
4.850166825857e-04 5.202247326036e-03 0.0 
0.0 0.0 -7.509531518293e-04 
4.681733094658e-05 -5.816533838581e-04 0.0 
-5.816533838581e-04 9.454411860111e-05 0.0 
0.0 0.0 -6.058347837758e-05 
4.397814964137e-04 -2.157349287924e-03 0.0 
-2.157349287924e-03 4.211423268834e-04 0.0 
0.0 0.0 -3.689673528416e-04 
3.155046189534e-04 -2.027375098909e-03 0.0 
-2.027375098909e-03 7.742453397045e-04 0.0 
0.0 0.0 -4.670356965677e-04 
8.520514226530e-04 -2.864865723911e-03 0.0 
-2.864865723911e-03 5.535726049248e-04 0.0 
0.0 0.0 -6.024102975334e-04 
1.107532573262e-03 -2.675867926973e-03 0.0 
-2.675867926973e-03 -1.282410957994e-04 0.0 
0.0 0.0 -4.196963474839e-04 
1.414391538560e-03 -3.037597772400e-03 0.0 
-3.037597772400e-03 4.732794591137e-06 0.0 
0.0 0.0 -6.081961427792e-04 
1.798568626031e-03 -2.807561227883e-03 0.0 
-2.807561227883e-03 -5.963916264621e-04 0.0 
0.0 0.0 -5.152187141009e-04 
4.798167785024e-04 -1.487535536050e-03 0.0 
-1.487535536050e-03 -2.160815451901e-04 0.0 
0.0 0.0 -1.130293857052e-04 
1.221925142391e-04 -6.477447924089e-04 0.0 
-6.477447924089e-04 3.263707583015e-04 0.0 
0.0 0.0 -1.721226713898e-04 
1.600896537738e-04 -1.547795297662e-03 0.0 
-1.547795297662e-03 7.330764534416e-04 0.0 
0.0 0.0 -3.827854745209e-04 
1.103966075786e-04 -5.622367864216e-04 0.0 
-5.622367864216e-04 3.103757836854e-04 0.0 
0.0 0.0 -1.517934084529e-04 
1.053013884946e-04 -1.323791722729e-03 0.0 
-1.323791722729e-03 6.739471651028e-04 0.0 
0.0 0.0 -3.339636658274e-04 
3.430982234410e-04 -2.178085181117e-03 0.0 
-2.178085181117e-03 8.728126235658e-04 0.0 
0.0 0.0 -5.211046487172e-04 
-1.935346954464e-05 -1.828430160185e-03 0.0 
-1.828430160185e-03 1.220825087692e-03 0.0 
0.0 0.0 -5.149164077774e-04 
-1.561183168720e-03 -1.084347523387e-03 0.0 
-1.084347523387e-03 6.914233553436e-03 0.0 
0.0 0.0 -1.294874803588e-03 
-1.312931512090e-03 -3.406360319044e-04 0.0 
-3.406360319044e-04 4.053324067572e-03 0.0 
0.0 0.0 -9.806349194848e-04 
-1.232619789514e-03 -6.513903715833e-04 0.0 
-6.513903715833e-04 3.864959534980e-03 0.0 
0.0 0.0 -9.593735700280e-04 
-1.113036939270e-03 -6.004263507847e-04 0.0 
-6.004263507847e-04 3.522372894904e-03 0.0 
0.0 0.0 -8.977078860960e-04 
-1.116965318077e-03 -9.982255990531e-04 0.0 
-9.982255990531e-04 3.625196753216e-03 0.0 
0.0 0.0 -9.469176294500e-04 
-1.332244483269e-03 -6.509527714259e-04 0.0 
-6.509527714259e-04 4.142116544653e-03 0.0 
0.0 0.0 -1.006312639172e-03 
-1.080865388107e-03 -2.755367266220e-04 0.0 
-2.755367266220e-04 3.371661966390e-03 0.0 
0.0 0.0 -8.426599334973e-04 
-1.024104142748e-03 -5.302931597588e-04 0.0 
-5.302931597588e-04 3.225767958481e-03 0.0 
0.0 0.0 -8.124903673991e-04 
2.119334771273e-03 -2.250984394130e-04 0.0 
-2.250984394130e-04 -5.528535054759e-04 0.0 
0.0 0.0 -1.954030217304e-04 
1.237953986699e-03 -2.579545419294e-04 0.0 
-2.579545419294e-04 1.543244489082e-04 0.0 
0.0 0.0 -2.932658944931e-04 
1.411332111426e-03 -2.759944625030e-05 0.0 
-2.759944625030e-05 3.743876493098e-05 0.0 
0.0 0.0 -2.856593951198e-04 
3.600465984566e-04 -2.066499797985e-04 0.0 
-2.066499797985e-04 8.608267290585e-04 0.0 
0.0 0.0 -3.080440922735e-04 
3.653305054747e-04 -3.597145395908e-04 0.0 
-3.597145395908e-04 8.532226922973e-04 0.0 
0.0 0.0 -3.086108473030e-04 
1.169231949576e-03 -3.840093619394e-04 0.0 
-3.840093619394e-04 1.923594400946e-04 0.0 
0.0 0.0 -2.956379591255e-04 
1.031256041784e-03 -4.886047117192e-04 0.0 
-4.886047117192e-04 2.379226924498e-04 0.0 
0.0 0.0 -2.908089562448e-04 
1.816529586793e-03 -3.500151260859e-04 0.0 
-3.500151260859e-04 -4.323507490206e-04 0.0 
0.0 0.0 -1.958374107737e-04 
8.667756449627e-04 -6.409008792115e-04 0.0 
-6.409008792115e-04 2.928477416533e-04 0.0 
0.0 0.0 -2.796976375194e-04 
1.702636575089e-04 -6.542409432277e-04 0.0 
-6.542409432277e-04 9.095668014512e-04 0.0 
0.0 0.0 -3.106791268491e-04 
1.620102908946e-03 -4.500577592913e-04 0.0 
-4.500577592913e-04 -3.726586433767e-04 0.0 
0.0 0.0 -1.892091717599e-04 
-1.577535716708e-03 5.392394720966e-05 0.0 
5.392394720966e-05 7.299934411769e-03 0.0 
0.0 0.0 -1.060427308513e-03 
-1.573061893325e-03 1.544570403577e-04 0.0 
1.544570403577e-04 7.509050943264e-03 0.0 
0.0 0.0 -1.097082233180e-03 
-1.192953449252e-03 -1.864011720090e-03 0.0 
-1.864011720090e-03 5.605209134645e-03 0.0 
0.0 0.0 -1.300897016293e-03 
-1.579855819088e-03 2.979771540211e-04 0.0 
2.979771540211e-04 5.293250471981e-03 0.0 
0.0 0.0 -7.584009903415e-04 
3.744709763724e-04 -6.364946627065e-04 0.0 
-6.364946627065e-04 1.401291707387e-04 0.0 
0.0 0.0 -1.034024162715e-04 
-1.449845600680e-03 6.382887501364e-04 0.0 
6.382887501364e-04 8.609834207447e-03 0.0 
0.0 0.0 -1.292107529982e-03 
-1.448440923656e-03 1.123280561170e-03 0.0 
1.123280561170e-03 8.566022624529e-03 0.0 
0.0 0.0 -1.303172775453e-03 
-1.434083243244e-03 9.839421265548e-04 0.0 
9.839421265548e-04 8.603548743914e-03 0.0 
0.0 0.0 -1.304823151597e-03 
-1.916252571144e-03 -2.792629766010e-04 0.0 
-2.792629766010e-04 6.698528630947e-03 0.0 
0.0 0.0 -1.191058493115e-03 
-1.809292576517e-03 -5.447261667623e-04 0.0 
-5.447261667623e-04 6.787910699568e-03 0.0 
0.0 0.0 -1.224322658093e-03 
-1.441620689681e-03 3.697909072679e-04 0.0 
3.697909072679e-04 8.644537781625e-03 0.0 
0.0 0.0 -1.294569364341e-03 
-1.966831809583e-04 -2.229424319449e-03 0.0 
-2.229424319449e-03 1.821439975238e-03 0.0 
0.0 0.0 -6.963243404055e-04 
-1.542446802675e-03 2.619749311667e-03 0.0 
2.619749311667e-03 7.342230023592e-03 0.0 
0.0 0.0 -1.225740639889e-03 
-1.563624804990e-03 6.428436196565e-04 0.0 
6.428436196565e-04 7.948413338163e-03 0.0 
0.0 0.0 -1.178628832109e-03 
2.201456429693e-03 2.341714128316e-03 0.0 
2.341714128316e-03 -8.075777083502e-04 0.0 
0.0 0.0 -5.973765948613e-04 
4.529977292289e-04 -2.561738032130e-03 0.0 
-2.561738032130e-03 9.606788663604e-04 0.0 
0.0 0.0 -6.058613981097e-04 
-1.912750157524e-03 -1.012850712710e-03 0.0 
-1.012850712710e-03 5.577288917285e-03 0.0 
0.0 0.0 -1.066202199875e-03 
-1.088098720313e-03 -2.559527887766e-03 0.0 
-2.559527887766e-03 3.979421504262e-03 0.0 
0.0 0.0 -1.028256539386e-03 
-1.822459650115e-03 -1.367111847188e-03 0.0 
-1.367111847188e-03 6.015979930005e-03 0.0 
0.0 0.0 -1.130390451587e-03 
-1.582105737625e-03 -1.721031184097e-03 0.0 
-1.721031184097e-03 4.901863080820e-03 0.0 
0.0 0.0 -1.057243679378e-03 
-1.608185598285e-03 -1.915614561762e-03 0.0 
-1.915614561762e-03 5.282640092044e-03 0.0 
0.0 0.0 -1.076106726067e-03 
-6.144948469041e-04 -6.639795998970e-04 0.0 
-6.639795998970e-04 4.224201553889e-03 0.0 
0.0 0.0 -1.244129926109e-03 
-5.789303246957e-04 -4.457683817534e-04 0.0 
-4.457683817534e-04 1.808907778624e-03 0.0 
0.0 0.0 -3.862231446352e-04 
-1.669791442216e-03 5.742208476735e-04 0.0 
5.742208476735e-04 6.461493581352e-03 0.0 
0.0 0.0 -9.364826870394e-04 
-1.605975857622e-03 3.178960195767e-04 0.0 
3.178960195767e-04 6.348918363535e-03 0.0 
0.0 0.0 -9.130351872960e-04 
-1.629937813867e-03 6.093327650254e-04 0.0 
6.093327650254e-04 7.342083193620e-03 0.0 
0.0 0.0 -1.075939795031e-03 
-6.482537929307e-04 -1.608115231979e-03 0.0 
-1.608115231979e-03 2.605453652753e-03 0.0 
0.0 0.0 -8.387999399238e-04 
-1.303549504287e-03 -1.305113709369e-03 0.0 
-1.305113709369e-03 4.181114019267e-03 0.0 
0.0 0.0 -1.034705495726e-03 
-3.971862798800e-04 -1.135666412244e-03 0.0 
-1.135666412244e-03 1.660229728604e-03 0.0 
0.0 0.0 -5.350964027253e-04 
-1.079760018860e-03 3.194336986256e-03 0.0 
3.194336986256e-03 5.659153012299e-03 0.0 
0.0 0.0 -1.251461238623e-03 
-9.146057249504e-04 2.949568127909e-03 0.0 
2.949568127909e-03 3.641380823932e-03 0.0 
0.0 0.0 -9.215523041033e-04 
5.869540678773e-04 -2.956750850037e-03 0.0 
-2.956750850037e-03 1.034406097070e-03 0.0 
0.0 0.0 -6.948686421203e-04 
-4.983222250127e-04 -2.534366466985e-03 0.0 
-2.534366466985e-03 2.700875388843e-03 0.0 
0.0 0.0 -9.439513559275e-04 
-3.730260252317e-06 -2.536920884211e-03 0.0 
-2.536920884211e-03 1.637062224885e-03 0.0 
0.0 0.0 -6.999994134141e-04 
7.353476243331e-04 -2.725229135126e-03 0.0 
-2.725229135126e-03 6.766599510438e-04 0.0 
0.0 0.0 -6.051461037329e-04 
8.595376325540e-04 3.133881433802e-03 0.0 
3.133881433802e-03 8.059885165152e-04 0.0 
0.0 0.0 -7.137969210297e-04 
-4.203429083409e-05 -3.125630815959e-03 0.0 
-3.125630815959e-03 2.086027069296e-03 0.0 
0.0 0.0 -8.759969050552e-04 
-8.028650656472e-04 -2.530764803792e-03 0.0 
-2.530764803792e-03 3.746131268308e-03 0.0 
0.0 0.0 -1.026962916580e-03 
-1.603305794962e-03 5.584175701992e-04 0.0 
5.584175701992e-04 7.571764629350e-03 0.0 
0.0 0.0 -1.112552678551e-03 
9.600606219979e-04 -6.202368537327e-04 0.0 
-6.202368537327e-04 -7.835338607429e-05 0.0 
0.0 0.0 -1.528964725408e-04 
-6.507698434307e-04 -2.317277330880e-03 0.0 
-2.317277330880e-03 3.698342537328e-03 0.0 
0.0 0.0 -1.061672265243e-03 
-4.694800132291e-04 -3.046911020093e-03 0.0 
-3.046911020093e-03 2.876301697078e-03 0.0 
0.0 0.0 -9.848592602066e-04 
-1.735611780566e-03 9.275084004437e-04 0.0 
9.275084004437e-04 6.521846032081e-03 0.0 
0.0 0.0 -9.599091010803e-04 
5.517342203791e-04 7.070794377615e-04 0.0 
7.070794377615e-04 1.993016539601e-03 0.0 
0.0 0.0 -1.047968735850e-03 
1.251262826807e-03 -3.149427623220e-03 0.0 
-3.149427623220e-03 3.147933255355e-04 0.0 
0.0 0.0 -6.711669224326e-04 
-1.667035138543e-03 9.805979703494e-04 0.0 
9.805979703494e-04 7.401003517057e-03 0.0 
0.0 0.0 -1.098747615487e-03 
-1.603855099599e-03 1.782256839983e-03 0.0 
1.782256839983e-03 7.796685969376e-03 0.0 
0.0 0.0 -1.212453547082e-03 
-1.753933973529e-03 9.797964852189e-04 0.0 
9.797964852189e-04 5.978451539688e-03 0.0 
0.0 0.0 -8.875094802107e-04 
-2.613102227183e-04 -9.949083205869e-04 0.0 
-9.949083205869e-04 1.295268273910e-03 0.0 
0.0 0.0 -4.064699368096e-04 
-1.648709990180e-03 4.475238255647e-04 0.0 
4.475238255647e-04 6.036264205668e-03 0.0 
0.0 0.0 -8.692469099983e-04 
-7.203164161434e-04 -1.605185791603e-03 0.0 
-1.605185791603e-03 4.351922217429e-03 0.0 
0.0 0.0 -1.202705989510e-03 
-1.725470359675e-03 1.770892894084e-03 0.0 
1.770892894084e-03 6.914744693878e-03 0.0 
0.0 0.0 -1.078220320736e-03 
-7.065492097226e-04 -1.209971096051e-03 0.0 
-1.209971096051e-03 2.577314578998e-03 0.0 
0.0 0.0 -7.821142971127e-04 
2.080536798912e-03 -4.379488450435e-04 0.0 
-4.379488450435e-04 -1.014496050842e-03 0.0 
0.0 0.0 -4.568746063161e-04 
3.673244141799e-05 3.501892657137e-03 0.0 
3.501892657137e-03 2.162557991526e-03 0.0 
0.0 0.0 -9.249336466263e-04 
-1.472424715948e-03 1.473284294565e-03 0.0 
1.473284294565e-03 4.326140179341e-03 0.0 
0.0 0.0 -7.656857982150e-04 
-1.552562983666e-03 7.948996227407e-04 0.0 
7.948996227407e-04 8.084351316505e-03 0.0 
0.0 0.0 -1.206557591227e-03 
1.197294541337e-03 2.931696958795e-03 0.0 
2.931696958795e-03 3.430979437177e-04 0.0 
0.0 0.0 -6.601682078804e-04 
2.014691518502e-04 -1.535153806246e-04 0.0 
-1.535153806246e-04 2.672995857900e-03 0.0 
0.0 0.0 -1.120054252910e-03 
1.167692333485e-03 -4.546798185550e-04 0.0 
-4.546798185550e-04 3.225795309945e-04 0.0 
0.0 0.0 -6.386879419198e-04 
-8.300689796229e-04 -1.036862626203e-03 0.0 
-1.036862626203e-03 2.843866615447e-03 0.0 
0.0 0.0 -8.092532257643e-04 
-1.141410086144e-03 -2.132624368424e-03 0.0 
-2.132624368424e-03 4.763879094691e-03 0.0 
0.0 0.0 -1.118919378802e-03 
2.226178382358e-03 1.538806345707e-03 0.0 
1.538806345707e-03 -1.000001690931e-03 0.0 
0.0 0.0 -5.255042963258e-04 
-1.621773390463e-03 1.105341392258e-03 0.0 
1.105341392258e-03 7.770539650855e-03 0.0 
0.0 0.0 -1.164614768973e-03 
-7.726765049569e-04 3.339866695887e-03 0.0 
3.339866695887e-03 4.168840091130e-03 0.0 
0.0 0.0 -1.031533309622e-03 
2.985503110291e-03 3.031284491510e-04 0.0 
3.031284491510e-04 -1.381029514076e-03 0.0 
0.0 0.0 -6.876315412354e-04 
-1.686948173027e-03 1.421165008995e-03 0.0 
1.421165008995e-03 7.380565372555e-03 0.0 
0.0 0.0 -1.121170216299e-03 
1.011452247809e-03 -2.344893480733e-03 0.0 
-2.344893480733e-03 3.172812092828e-04 0.0 
0.0 0.0 -5.694571958966e-04 
3.273818053523e-04 1.142366955538e-03 0.0 
1.142366955538e-03 2.480645691333e-03 0.0 
0.0 0.0 -1.099429584637e-03 
-6.433175181119e-04 3.077878174349e-03 0.0 
3.077878174349e-03 3.183682229986e-03 0.0 
0.0 0.0 -9.539696108702e-04 
-6.121546724542e-04 3.601568394799e-03 0.0 
3.601568394799e-03 3.377991454684e-03 0.0 
0.0 0.0 -9.441813108648e-04 
-1.362049427310e-03 2.994726613582e-03 0.0 
2.994726613582e-03 5.058459491364e-03 0.0 
0.0 0.0 -9.824247929831e-04 
2.242703281786e-04 3.613717884088e-03 0.0 
3.613717884088e-03 1.934819861174e-03 0.0 
0.0 0.0 -8.887186042024e-04 
-1.881029170096e-03 -6.972944591045e-04 0.0 
-6.972944591045e-04 5.485539571048e-03 0.0 
0.0 0.0 -1.071820694527e-03 
-9.158007506096e-04 -2.235649248494e-03 0.0 
-2.235649248494e-03 4.248678740424e-03 0.0 
0.0 0.0 -1.090315851396e-03 
2.052665481287e-03 -1.103532234197e-03 0.0 
-1.103532234197e-03 -1.175556670273e-03 0.0 
0.0 0.0 -3.759037761492e-04 
8.914746630086e-04 2.890953836391e-03 0.0 
2.890953836391e-03 6.027493594732e-04 0.0 
0.0 0.0 -6.403817239208e-04 
-1.758945777430e-03 1.160675475390e-03 0.0 
1.160675475390e-03 6.378359981790e-03 0.0 
0.0 0.0 -9.536514739466e-04 
-6.639671926482e-04 3.003789204226e-03 0.0 
3.003789204226e-03 4.418789612070e-03 0.0 
0.0 0.0 -1.150585697120e-03 
-1.554201493046e-03 1.231598965710e-03 0.0 
1.231598965710e-03 8.128380504732e-03 0.0 
0.0 0.0 -1.229329624135e-03 
1.209824795641e-04 3.344721880567e-03 0.0 
3.344721880567e-03 1.935063257791e-03 0.0 
0.0 0.0 -8.811624588665e-04 
-1.286404788732e-03 -2.188571958382e-03 0.0 
-2.188571958382e-03 4.794074532598e-03 0.0 
0.0 0.0 -1.081576975854e-03 
-1.629163603093e-03 1.571087997701e-03 0.0 
1.571087997701e-03 7.723510960528e-03 0.0 
0.0 0.0 -1.185355684152e-03 
-3.559661832873e-04 -3.012647310201e-03 0.0 
-3.012647310201e-03 2.646809915025e-03 0.0 
0.0 0.0 -9.737892037141e-04 
-7.230165557545e-04 -1.426683456850e-04 0.0 
-1.426683456850e-04 2.147619513236e-03 0.0 
0.0 0.0 -4.572648740992e-04 
1.660426463556e-03 2.294712628775e-03 0.0 
2.294712628775e-03 -6.270108860030e-04 0.0 
0.0 0.0 -4.428923903797e-04 
3.083725212360e-03 4.086632437554e-04 0.0 
4.086632437554e-04 -1.411678867675e-03 0.0 
0.0 0.0 -7.165912905795e-04 
1.695879907660e-03 2.562718717107e-03 0.0 
2.562718717107e-03 -3.302884133479e-04 0.0 
0.0 0.0 -5.852534975623e-04 
-5.576706971117e-04 -2.954961257328e-03 0.0 
-2.954961257328e-03 3.029681223364e-03 0.0 
0.0 0.0 -1.013304783341e-03 
-1.555713883054e-03 2.364705081961e-03 0.0 
2.364705081961e-03 7.663070105557e-03 0.0 
0.0 0.0 -1.242275372262e-03 
-1.459222448555e-03 -1.977989758638e-03 0.0 
-1.977989758638e-03 5.249777589170e-03 0.0 
0.0 0.0 -1.110186454522e-03 
5.809827755289e-05 -1.888547144195e-03 0.0 
-1.888547144195e-03 2.563693945277e-03 0.0 
0.0 0.0 -1.040857148505e-03 
2.543469021149e-04 1.469924055833e-03 0.0 
1.469924055833e-03 4.262869149301e-04 0.0 
0.0 0.0 -2.917002073050e-04 
-1.420828704055e-03 1.823492309729e-03 0.0 
1.823492309729e-03 4.313202363895e-03 0.0 
0.0 0.0 -8.070275419711e-04 
-1.590933393314e-03 -1.754583215491e-03 0.0 
-1.754583215491e-03 5.664446844218e-03 0.0 
0.0 0.0 -1.139074001596e-03 
1.644076570115e-03 -1.085629871930e-03 0.0 
-1.085629871930e-03 -5.732577340253e-04 0.0 
0.0 0.0 -4.589223583244e-04 
2.052489302078e-04 6.912241943710e-04 0.0 
6.912241943710e-04 2.710009798059e-03 0.0 
0.0 0.0 -1.126725356868e-03 
-1.535445043143e-03 -5.867914393128e-04 0.0 
-5.867914393128e-04 4.647107690583e-03 0.0 
0.0 0.0 -1.044109258258e-03 
-9.859779036616e-04 3.056684200562e-03 0.0 
3.056684200562e-03 5.375983574251e-03 0.0 
0.0 0.0 -1.249754184115e-03 
-6.610476002560e-04 2.303624772309e-03 0.0 
2.303624772309e-03 2.903406990762e-03 0.0 
0.0 0.0 -9.028501661438e-04 
-1.686501264746e-03 -1.526608176621e-03 0.0 
-1.526608176621e-03 6.045524770636e-03 0.0 
0.0 0.0 -1.168790087466e-03 
3.742641179637e-04 -1.152556169589e-03 0.0 
-1.152556169589e-03 2.146769681943e-03 0.0 
0.0 0.0 -1.036257385577e-03 
2.158291477526e-03 2.743008596258e-03 0.0 
2.743008596258e-03 -5.432811980168e-04 0.0 
0.0 0.0 -6.921472626470e-04 
-1.448920855555e-03 5.485150606776e-05 0.0 
5.485150606776e-05 5.277752212934e-03 0.0 
0.0 0.0 -7.498068730476e-04 
-1.593954056461e-03 -1.469135234964e-03 0.0 
-1.469135234964e-03 6.450266463409e-03 0.0 
0.0 0.0 -1.243807156011e-03 
5.209000563453e-05 -9.592901321100e-04 0.0 
-9.592901321100e-04 2.854437082012e-03 0.0 
0.0 0.0 -1.114542488500e-03 
3.461661553033e-05 3.551384216602e-03 0.0 
3.551384216602e-03 2.362376837699e-03 0.0 
0.0 0.0 -9.321888224300e-04 
1.558216832635e-03 -1.548696012587e-03 0.0 
-1.548696012587e-03 -4.269730613690e-04 0.0 
0.0 0.0 -4.848187591141e-04 
-1.159109189925e-03 1.672386638450e-03 0.0 
1.672386638450e-03 3.686907530899e-03 0.0 
0.0 0.0 -7.928834912169e-04 
-8.622534806161e-04 -2.703450422620e-03 0.0 
-2.703450422620e-03 3.567462389003e-03 0.0 
0.0 0.0 -1.042489463686e-03 
-8.810352068874e-04 3.464697463085e-03 0.0 
3.464697463085e-03 3.935493660585e-03 0.0 
0.0 0.0 -9.528746205426e-04 
-1.455694182561e-03 2.079571376027e-03 0.0 
2.079571376027e-03 8.238502292373e-03 0.0 
0.0 0.0 -1.306889097489e-03 
-4.021262128288e-05 -5.236218254538e-04 0.0 
-5.236218254538e-04 3.069008893941e-03 0.0 
0.0 0.0 -1.148622835147e-03 
-1.725562695568e-03 2.028005553636e-03 0.0 
2.028005553636e-03 5.979413828880e-03 0.0 
0.0 0.0 -9.696660045843e-04 
-9.371362615476e-04 -2.513813645279e-03 0.0 
-2.513813645279e-03 3.674904326905e-03 0.0 
0.0 0.0 -1.055577742195e-03 
6.828857261752e-04 2.319846812613e-03 0.0 
2.319846812613e-03 1.471382999158e-03 0.0 
0.0 0.0 -9.020111454724e-04 
3.069126660921e-04 -4.845997231989e-04 0.0 
-4.845997231989e-04 8.592191971431e-04 0.0 
0.0 0.0 -3.093966206321e-04 
-1.066278201586e-03 2.069319232208e-03 0.0 
2.069319232208e-03 3.624795843977e-03 0.0 
0.0 0.0 -8.430048313659e-04 
-1.188974335056e-03 -2.184404117123e-03 0.0 
-2.184404117123e-03 4.121734009211e-03 0.0 
0.0 0.0 -1.055179846540e-03 
3.051680346467e-03 -4.197736543643e-04 0.0 
-4.197736543643e-04 -1.412706451387e-03 0.0 
0.0 0.0 -7.024173836058e-04 
1.117277129867e-03 -2.070559341147e-03 0.0 
-2.070559341147e-03 1.215006496444e-04 0.0 
0.0 0.0 -5.309047626477e-04 
-5.077233341081e-04 1.801300421280e-03 0.0 
1.801300421280e-03 4.164826850224e-03 0.0 
0.0 0.0 -1.234277959947e-03 
-1.405357231203e-03 -1.830815427985e-03 0.0 
-1.830815427985e-03 4.525691195773e-03 0.0 
0.0 0.0 -1.058821591963e-03 
2.981871888689e-03 -4.320249597075e-04 0.0 
-4.320249597075e-04 -1.387251596233e-03 0.0 
0.0 0.0 -6.834086967669e-04 
-1.589234832291e-03 -1.465860908847e-03 0.0 
-1.465860908847e-03 4.884351969089e-03 0.0 
0.0 0.0 -1.063846254002e-03 
-8.219124233661e-04 1.884899957964e-03 0.0 
1.884899957964e-03 3.049244611375e-03 0.0 
0.0 0.0 -8.384157971481e-04 
-1.674104129450e-03 2.267631102477e-03 0.0 
2.267631102477e-03 5.977690423385e-03 0.0 
0.0 0.0 -9.983267706061e-04 
-1.746776969671e-03 -1.092710579845e-03 0.0 
-1.092710579845e-03 5.203384673320e-03 0.0 
0.0 0.0 -1.068006041337e-03 
-9.280916248974e-04 3.352222764373e-03 0.0 
3.352222764373e-03 4.310032082870e-03 0.0 
0.0 0.0 -1.003151257071e-03 
2.463563334715e-05 -8.807126364979e-04 0.0 
-8.807126364979e-04 9.974910621111e-04 0.0 
0.0 0.0 -3.190932086048e-04 
1.865633619246e-04 3.322818699054e-03 0.0 
3.322818699054e-03 2.196662702388e-03 0.0 
0.0 0.0 -9.369607680273e-04 
-1.969274810505e-03 -5.697349439415e-04 0.0 
-5.697349439415e-04 6.492408088354e-03 0.0 
0.0 0.0 -1.155419075730e-03 
4.460939102830e-04 -2.841642607167e-03 0.0 
-2.841642607167e-03 1.136269056788e-03 0.0 
0.0 0.0 -6.781555573162e-04 
7.887889646567e-04 -2.571324212251e-03 0.0 
-2.571324212251e-03 6.415432993246e-04 0.0 
0.0 0.0 -6.129995417062e-04 
-1.637827184878e-03 2.388605245637e-03 0.0 
2.388605245637e-03 6.314063370822e-03 0.0 
0.0 0.0 -1.063653581392e-03 
-4.992814516217e-04 1.972643240252e-03 0.0 
1.972643240252e-03 2.384387457051e-03 0.0 
0.0 0.0 -8.079025737556e-04 
5.124750958276e-04 -2.569400884271e-03 0.0 
-2.569400884271e-03 1.193670865080e-03 0.0 
0.0 0.0 -7.312054118175e-04 
-9.641562230990e-04 3.242704907183e-03 0.0 
3.242704907183e-03 4.707911026065e-03 0.0 
0.0 0.0 -1.067288052377e-03 
3.154663455590e-04 2.993279893955e-03 0.0 
2.993279893955e-03 2.102244501383e-03 0.0 
0.0 0.0 -9.588566822092e-04 
1.346446614896e-03 2.610050225058e-03 0.0 
2.610050225058e-03 1.067961116776e-04 0.0 
0.0 0.0 -6.228183113887e-04 
2.887356895726e-04 -2.230406662033e-03 0.0 
-2.230406662033e-03 1.886206335840e-03 0.0 
0.0 0.0 -9.159128653295e-04 
-3.070381522363e-04 2.361479177514e-03 0.0 
2.361479177514e-03 2.144874392585e-03 0.0 
0.0 0.0 -7.876441030066e-04 
-4.603323552835e-06 -2.296978514711e-03 0.0 
-2.296978514711e-03 1.485132063043e-03 0.0 
0.0 0.0 -6.345123169243e-04 
-1.725456702673e-05 -2.050421713285e-03 0.0 
-2.050421713285e-03 1.350463780520e-03 0.0 
0.0 0.0 -5.713753772113e-04 
2.694499012180e-03 -1.108798334530e-03 0.0 
-1.108798334530e-03 -1.215742971782e-03 0.0 
0.0 0.0 -6.337525887422e-04 
-1.125553493016e-03 3.166078986994e-03 0.0 
3.166078986994e-03 5.226172467772e-03 0.0 
0.0 0.0 -1.103081964739e-03 
-3.505794759798e-04 -2.805020388018e-04 0.0 
-2.805020388018e-04 1.476517852756e-03 0.0 
0.0 0.0 -3.018576685516e-04 
-1.520679869667e-03 2.700420786858e-03 0.0 
2.700420786858e-03 5.894437551981e-03 0.0 
0.0 0.0 -1.054898413167e-03 
1.434637815246e-04 -2.013001771722e-03 0.0 
-2.013001771722e-03 1.061630091320e-03 0.0 
0.0 0.0 -5.164688026476e-04 
2.470206604480e-03 -1.725455129164e-03 0.0 
-1.725455129164e-03 -1.033453851675e-03 0.0 
0.0 0.0 -6.157511797736e-04 
1.550603106911e-04 2.343951066894e-03 0.0 
2.343951066894e-03 2.741523029304e-03 0.0 
0.0 0.0 -1.077081564483e-03 
-1.567382262079e-03 5.775225248615e-06 0.0 
5.775225248615e-06 6.502023960398e-03 0.0 
0.0 0.0 -9.315431351609e-04 
1.994050342792e-03 -2.125051609346e-03 0.0 
-2.125051609346e-03 -7.055681148420e-04 0.0 
0.0 0.0 -5.522066691216e-04 
-8.473530892992e-04 -1.857205257249e-04 0.0 
-1.857205257249e-04 2.593065685554e-03 0.0 
0.0 0.0 -6.119633700263e-04 
1.664939330105e-03 -2.423764940749e-03 0.0 
-2.423764940749e-03 -3.798301328600e-04 0.0 
0.0 0.0 -5.507610845334e-04 
9.691114688175e-04 2.564299471471e-03 0.0 
2.564299471471e-03 7.430038862534e-04 0.0 
0.0 0.0 -7.337637236018e-04 
1.166584806499e-03 -2.448706473937e-03 0.0 
-2.448706473937e-03 1.644568183363e-04 0.0 
0.0 0.0 -5.704464106438e-04 
9.207629563978e-04 -2.562817695187e-03 0.0 
-2.562817695187e-03 4.684807333005e-04 0.0 
0.0 0.0 -5.953901527278e-04 
-1.509599202053e-03 7.115315669588e-04 0.0 
7.115315669588e-04 8.319494978419e-03 0.0 
0.0 0.0 -1.242975171717e-03 
6.644834369663e-04 -2.816687817472e-03 0.0 
-2.816687817472e-03 8.638079814567e-04 0.0 
0.0 0.0 -6.549820364670e-04 
-1.417913046649e-03 2.000204615730e-04 0.0 
2.000204615730e-04 8.717353493565e-03 0.0 
0.0 0.0 -1.305370344976e-03 
-1.585981038622e-03 -5.390524588140e-04 0.0 
-5.390524588140e-04 7.088561262435e-03 0.0 
0.0 0.0 -1.298405437673e-03 
-1.489518803289e-03 -4.573950556845e-06 0.0 
-4.573950556845e-06 5.635615486584e-03 0.0 
0.0 0.0 -7.997855503562e-04 
-2.605550091072e-04 1.921888767382e-03 0.0 
1.921888767382e-03 1.771030104647e-03 0.0 
0.0 0.0 -6.473464695169e-04 
0.0 0.0 0.0 
0.0 0.0 0.0 
0.0 0.0 0.0 
5.300339532941e-05 2.296518653744e-03 0.0 
2.296518653744e-03 1.380741919417e-03 0.0 
0.0 0.0 -6.144622777483e-04 
4.589079226346e-04 -2.669236835745e-03 0.0 
-2.669236835745e-03 1.017039993413e-03 0.0 
0.0 0.0 -6.325491068774e-04 
-1.344360499523e-03 2.998007223071e-03 0.0 
2.998007223071e-03 5.396263019476e-03 0.0 
0.0 0.0 -1.045752072333e-03 
-1.493847809746e-03 7.392246810856e-05 0.0 
7.392246810856e-05 5.643210332918e-03 0.0 
0.0 0.0 -8.029817139903e-04 
2.189770723719e-04 -2.551176870332e-03 0.0 
-2.551176870332e-03 1.274969331798e-03 0.0 
0.0 0.0 -6.402627446442e-04 
-1.419524211431e-03 3.075318657805e-03 0.0 
3.075318657805e-03 6.922500903080e-03 0.0 
0.0 0.0 -1.250093291501e-03 
-1.105460999237e-03 2.840056670224e-03 0.0 
2.840056670224e-03 5.499135179184e-03 0.0 
0.0 0.0 -1.306737725957e-03 
-1.583352928322e-03 1.388979039351e-04 0.0 
1.388979039351e-04 7.093261842357e-03 0.0 
0.0 0.0 -1.028769680629e-03 
3.110761131384e-05 3.070777297068e-04 0.0 
3.070777297068e-04 2.990066827201e-03 0.0 
0.0 0.0 -1.152835590205e-03 
4.038330844269e-04 2.562565156884e-03 0.0 
2.562565156884e-03 2.099896012322e-03 0.0 
0.0 0.0 -9.954397186036e-04 
-1.532870607185e-03 8.627533493903e-05 0.0 
8.627533493903e-05 8.032571934377e-03 0.0 
0.0 0.0 -1.185717314024e-03 
-1.493423908883e-03 8.976519337403e-05 0.0 
8.976519337403e-05 5.235057922781e-03 0.0 
0.0 0.0 -7.451086181774e-04 
8.476467916489e-05 -1.199388947894e-03 0.0 
-1.199388947894e-03 6.043361303539e-04 0.0 
0.0 0.0 -2.642930028689e-04 
-1.995343437528e-03 -3.338550389889e-04 0.0 
-3.338550389889e-04 5.735331553200e-03 0.0 
0.0 0.0 -1.072300834510e-03 
-4.728391316330e-06 1.911025163986e-03 0.0 
1.911025163986e-03 1.236688893795e-03 0.0 
0.0 0.0 -5.279830724910e-04 
3.550394143264e-04 2.259430213976e-03 0.0 
2.259430213976e-03 9.034181507030e-04 0.0 
0.0 0.0 -5.393389564412e-04 
6.085214745978e-04 2.284877078157e-03 0.0 
2.284877078157e-03 6.261355702317e-04 0.0 
0.0 0.0 -5.291387334984e-04 
-9.396181000691e-04 -7.967451354887e-04 0.0 
-7.967451354887e-04 3.058992386408e-03 0.0 
0.0 0.0 -8.121166773320e-04 
5.494964702923e-04 -2.584085792452e-03 0.0 
-2.584085792452e-03 8.433772001581e-04 0.0 
0.0 0.0 -5.969458587645e-04 
2.401282782028e-04 2.005638511475e-03 0.0 
2.005638511475e-03 9.040366262875e-04 0.0 
0.0 0.0 -4.903563876387e-04 
-5.261734606055e-04 6.022279658391e-04 0.0 
6.022279658391e-04 4.033101031005e-03 0.0 
0.0 0.0 -1.245112051941e-03 
-1.636730137181e-03 4.290067563108e-04 0.0 
4.290067563108e-04 5.580276288558e-03 0.0 
0.0 0.0 -8.050116406322e-04 
-1.121915910908e-04 2.515763012409e-03 0.0 
2.515763012409e-03 3.291467473346e-03 0.0 
0.0 0.0 -1.110409235593e-03 
3.679053624996e-04 1.946389288486e-03 0.0 
1.946389288486e-03 7.047317248665e-04 0.0 
0.0 0.0 -4.597016088712e-04 
-1.554707372438e-03 1.697440109364e-03 0.0 
1.697440109364e-03 8.056864122716e-03 0.0 
0.0 0.0 -1.247366155457e-03 
-7.215899275846e-04 2.377475014672e-03 0.0 
2.377475014672e-03 4.622150950018e-03 0.0 
0.0 0.0 -1.246608778627e-03 
-1.331856878630e-03 -1.983836111103e-03 0.0 
-1.983836111103e-03 6.114923973583e-03 0.0 
0.0 0.0 -1.306249356034e-03 
-3.798399904625e-04 2.398884536475e-03 0.0 
2.398884536475e-03 3.901175645834e-03 0.0 
0.0 0.0 -1.176371721005e-03 
7.581050863864e-04 2.227306199006e-03 0.0 
2.227306199006e-03 3.618205949459e-04 0.0 
0.0 0.0 -4.799681491424e-04 
-1.753134334940e-03 1.030981935736e-03 0.0 
1.030981935736e-03 5.768775069705e-03 0.0 
0.0 0.0 -8.603500797662e-04 
-1.168709675212e-03 3.249274189801e-03 0.0 
3.249274189801e-03 5.927681969270e-03 0.0 
0.0 0.0 -1.250827372426e-03 
-1.580586288305e-03 2.460651619642e-04 0.0 
2.460651619642e-04 7.417010690682e-03 0.0 
0.0 0.0 -1.080253149739e-03 
-1.410996846028e-03 -1.766992384939e-03 0.0 
-1.766992384939e-03 6.482040820837e-03 0.0 
0.0 0.0 -1.309985050881e-03 
-1.682012249170e-03 6.654682702296e-04 0.0 
6.654682702296e-04 5.457303072723e-03 0.0 
0.0 0.0 -7.979019438933e-04 
-1.482092413582e-03 4.825553233706e-04 0.0 
4.825553233706e-04 8.388620482460e-03 0.0 
0.0 0.0 -1.252774941638e-03 
2.053124764649e-03 -2.150351803165e-03 0.0 
-2.150351803165e-03 -1.002699963371e-03 0.0 
0.0 0.0 -4.501820576904e-04 
-1.472782165905e-03 2.611384925530e-04 0.0 
2.611384925530e-04 8.403666031078e-03 0.0 
0.0 0.0 -1.254166199180e-03 
-1.340636802885e-03 3.017781757784e-03 0.0 
3.017781757784e-03 5.759872352408e-03 0.0 
0.0 0.0 -1.110316242656e-03 
-1.575034003637e-03 2.533992497604e-04 0.0 
2.533992497604e-04 6.175537215493e-03 0.0 
0.0 0.0 -8.840149073763e-04 
-1.771751416511e-03 1.426780246192e-03 0.0 
1.426780246192e-03 5.587137473215e-03 0.0 
0.0 0.0 -8.570326279659e-04 
-1.684907386527e-03 -8.004631079360e-04 0.0 
-8.004631079360e-04 6.831074281255e-03 0.0 
0.0 0.0 -1.256337174517e-03 
-1.508670120193e-03 2.760870843371e-03 0.0 
2.760870843371e-03 7.327066348949e-03 0.0 
0.0 0.0 -1.249505442739e-03 
6.883790236625e-04 2.060671389361e-03 0.0 
2.060671389361e-03 2.237385116846e-05 0.0 
0.0 0.0 -3.046083749275e-04 
-1.585370214117e-03 2.593308700915e-04 0.0 
2.593308700915e-04 7.073771685170e-03 0.0 
0.0 0.0 -1.024357608964e-03 
-1.028891659838e-03 -1.361434891480e-03 0.0 
-1.361434891480e-03 3.507211596145e-03 0.0 
0.0 0.0 -9.709766588611e-04 
2.096603589134e-04 -4.522541456736e-04 0.0 
-4.522541456736e-04 -1.685826935135e-04 0.0 
0.0 0.0 -1.760471374282e-05 
-1.108111334259e-03 -1.824971532717e-03 0.0 
-1.824971532717e-03 5.280702358381e-03 0.0 
0.0 0.0 -1.249521112489e-03 
-1.346888651128e-03 3.065747420634e-03 0.0 
3.065747420634e-03 6.117675129117e-03 0.0 
0.0 0.0 -1.172189067419e-03 
-1.641216111045e-03 -1.228485444809e-03 0.0 
-1.228485444809e-03 6.632464522082e-03 0.0 
0.0 0.0 -1.251863004148e-03 
4.253395517685e-04 -1.330965256832e-05 0.0 
-1.330965256832e-05 8.162616228349e-04 0.0 
0.0 0.0 -3.073113677837e-04 
2.659967583917e-04 -9.636004765028e-04 0.0 
-9.636004765028e-04 4.197455964224e-04 0.0 
0.0 0.0 -2.058019112872e-04 
-9.341108583894e-04 -1.570273886574e-03 0.0 
-1.570273886574e-03 4.919000747850e-03 0.0 
0.0 0.0 -1.258522865334e-03 
-1.325021295734e-03 3.260852513925e-03 0.0 
3.260852513925e-03 6.529415890564e-03 0.0 
0.0 0.0 -1.257106814994e-03 
2.069780564081e-03 -2.887481408844e-03 0.0 
-2.887481408844e-03 -5.620999085580e-04 0.0 
0.0 0.0 -6.461488523668e-04 
-1.444494309143e-03 1.513018136519e-03 0.0 
1.513018136519e-03 8.529509024149e-03 0.0 
0.0 0.0 -1.314710167832e-03 
1.606042082751e-04 7.400733517384e-04 0.0 
7.400733517384e-04 -6.805152101560e-05 0.0 
0.0 0.0 -3.966543739693e-05 
-1.527500430813e-03 2.291957424775e-04 0.0 
2.291957424775e-04 5.159544215479e-03 0.0 
0.0 0.0 -7.389643750272e-04 
7.522855132365e-04 -8.129255998406e-04 0.0 
-8.129255998406e-04 2.933811725579e-04 0.0 
0.0 0.0 -2.584822669346e-04 
-1.451285018422e-03 -1.619253938531e-03 0.0 
-1.619253938531e-03 6.712702821616e-03 0.0 
0.0 0.0 -1.308531455474e-03 
-1.521082113150e-03 1.160385665173e-03 0.0 
1.160385665173e-03 8.292813149207e-03 0.0 
0.0 0.0 -1.254845750201e-03 
-1.245470008181e-03 -9.103756336826e-04 0.0 
-9.103756336826e-04 3.950697369425e-03 0.0 
0.0 0.0 -9.904446095582e-04 
-1.723966937065e-03 1.170670843267e-03 0.0 
1.170670843267e-03 5.001993590100e-03 0.0 
0.0 0.0 -7.582784842146e-04 
-9.206532372436e-04 -4.495869396707e-04 0.0 
-4.495869396707e-04 2.876332750162e-03 0.0 
0.0 0.0 -7.084058105195e-04 
-8.029287135569e-04 3.022070318119e-03 0.0 
3.022070318119e-03 4.846485263972e-03 0.0 
0.0 0.0 -1.203498912175e-03 
1.578052768763e-04 -1.733898146901e-03 0.0 
-1.733898146901e-03 8.518457615679e-04 0.0 
0.0 0.0 -4.327075879046e-04 
-1.502885003929e-03 8.385321329672e-04 0.0 
8.385321329672e-04 8.406515819115e-03 0.0 
0.0 0.0 -1.260296891839e-03 
-7.798982579111e-04 -1.032636455785e-03 0.0 
-1.032636455785e-03 4.559837266151e-03 0.0 
0.0 0.0 -1.261416966621e-03 
-1.541080814648e-03 2.248481841172e-03 0.0 
2.248481841172e-03 7.871819285488e-03 0.0 
0.0 0.0 -1.260618436842e-03 
-1.035661708301e-03 1.434119926330e-03 0.0 
1.434119926330e-03 4.999968609048e-03 0.0 
0.0 0.0 -1.317725628150e-03 
0.0 0.0 0.0 
0.0 0.0 0.0 
0.0 0.0 0.0 
-8.775793509473e-04 2.643781737553e-03 0.0 
2.643781737553e-03 4.999185491909e-03 0.0 
0.0 0.0 -1.263090216482e-03 
-3.359262024726e-04 -4.205327465571e-04 0.0 
-4.205327465571e-04 3.690481845722e-03 0.0 
0.0 0.0 -1.202239909569e-03 
-1.469921091904e-03 1.397057797389e-04 0.0 
1.397057797389e-04 5.245389338611e-03 0.0 
0.0 0.0 -7.439744481034e-04 
-1.522980262771e-03 2.574585562032e-03 0.0 
2.574585562032e-03 7.567445771786e-03 0.0 
0.0 0.0 -1.252574368527e-03 
-1.039501310576e-03 -8.329301664350e-04 0.0 
-8.329301664350e-04 3.357758752277e-03 0.0 
0.0 0.0 -8.789764298429e-04 
-3.276933337434e-04 -7.307720459036e-04 0.0 
-7.307720459036e-04 1.390604940151e-03 0.0 
0.0 0.0 -3.555153606766e-04 
-1.400496614823e-03 7.920880417302e-05 0.0 
7.920880417302e-05 8.744396333073e-03 0.0 
0.0 0.0 -1.313490227100e-03 
2.520733888645e-03 -3.426864807379e-06 0.0 
-3.426864807379e-06 -8.047604136628e-04 0.0 
0.0 0.0 -1.695477456824e-04 
-1.436285120339e-03 -8.822331672806e-06 0.0 
-8.822331672806e-06 5.224558560537e-03 0.0 
0.0 0.0 -7.402411036050e-04 
-1.541544735514e-03 -2.080816256948e-04 0.0 
-2.080816256948e-04 7.171789726740e-03 0.0 
0.0 0.0 -1.313492844077e-03 
-2.510837729256e-04 -3.936310680644e-04 0.0 
-3.936310680644e-04 1.321735893226e-03 0.0 
0.0 0.0 -2.948614013126e-04 
-1.524937947447e-03 4.475494657923e-05 0.0 
4.475494657923e-05 5.953624986698e-03 0.0 
0.0 0.0 -8.489638187885e-04 
-1.372178966628e-03 3.183705797245e-03 0.0 
3.183705797245e-03 6.771642373061e-03 0.0 
0.0 0.0 -1.260211869575e-03 
-1.590513358799e-03 -2.597680171264e-04 0.0 
-2.597680171264e-04 4.769333481416e-03 0.0 
0.0 0.0 -1.052454572086e-03 
-1.550492385742e-03 1.189328986090e-04 0.0 
1.189328986090e-04 7.800235903878e-03 0.0 
0.0 0.0 -1.148445367820e-03 
9.452528930191e-04 -2.939486558072e-03 0.0 
-2.939486558072e-03 5.700922820308e-04 0.0 
0.0 0.0 -6.494336464500e-04 
0.0 0.0 0.0 
0.0 0.0 0.0 
0.0 0.0 0.0 
-1.577256117848e-03 6.886097405366e-05 0.0 
6.886097405366e-05 6.718118974100e-03 0.0 
0.0 0.0 -9.668795991591e-04 
-7.257532866393e-04 2.108017519290e-03 0.0 
2.108017519290e-03 4.551210106726e-03 0.0 
0.0 0.0 -1.258714341260e-03 
-1.539880904137e-03 1.881264573762e-03 0.0 
1.881264573762e-03 8.091722768049e-03 0.0 
0.0 0.0 -1.263997700767e-03 
-1.584367033562e-03 2.539188043181e-04 0.0 
2.539188043181e-04 6.423614681133e-03 0.0 
0.0 0.0 -9.199601189493e-04 
1.149887053528e-03 2.260371255349e-03 0.0 
2.260371255349e-03 -3.607458547944e-04 0.0 
0.0 0.0 -3.382033708860e-04 
-1.352077778871e-03 3.162162671945e-03 0.0 
3.162162671945e-03 6.429958482634e-03 0.0 
0.0 0.0 -1.221038716794e-03 
-1.328731786449e-03 -9.755978743980e-04 0.0 
-9.755978743980e-04 4.177204897338e-03 0.0 
0.0 0.0 -1.017329335709e-03 
-1.052088232510e-03 3.182318808270e-03 0.0 
3.182318808270e-03 5.489904176315e-03 0.0 
0.0 0.0 -1.208939113964e-03 
-2.749523466846e-04 3.333334303576e-04 0.0 
3.333334303576e-04 3.590145673266e-03 0.0 
0.0 0.0 -1.203806565432e-03 
-3.552197165492e-05 1.104536973933e-03 0.0 
1.104536973933e-03 3.552197165492e-05 0.0 
0.0 0.0 0.0 
-1.710135402111e-03 -2.140528936374e-04 0.0 
-2.140528936374e-04 5.062773823412e-03 0.0 
0.0 0.0 -1.067873332563e-03 
6.585939474405e-04 -9.144432273007e-04 0.0 
-9.144432273007e-04 2.765533765623e-04 0.0 
0.0 0.0 -2.242399343496e-04 
-1.352905233575e-03 -1.915199808028e-03 0.0 
-1.915199808028e-03 5.962667998270e-03 0.0 
0.0 0.0 -1.263714160583e-03 
-1.428737268169e-03 -6.941057894653e-04 0.0 
-6.941057894653e-04 4.390777467220e-03 0.0 
0.0 0.0 -1.028704531826e-03 

SCALARS node_materi_plasti_kappa_shear float
LOOKUP_TABLE default
2.115083374134e-03
3.595696227230e-03
4.967886194113e-03
5.876066285134e-03
1.429593561868e-03
9.260891180627e-04
9.750663137551e-04
1.375519170543e-03
1.749514182145e-03
2.072909783402e-03
2.372334959694e-03
2.646556194044e-03
2.900020015941e-03
3.146970300908e-03
3.414657029732e-03
3.664527045737e-03
3.866039465253e-03
4.132559423194e-03
4.398804352871e-03
4.605615939913e-03
4.743184926544e-03
4.864835234233e-03
4.967891461667e-03
5.874817732443e-03
5.871659258458e-03
5.865996944230e-03
5.879052454380e-03
5.875406408010e-03
5.881746665879e-03
5.893121739855e-03
5.904403498293e-03
5.911667380715e-03
5.942687471040e-03
5.945547502064e-03
5.964504727329e-03
5.990682248078e-03
6.003086871528e-03
6.009687630856e-03
6.018022142948e-03
6.013722829185e-03
6.018405848819e-03
6.000999157977e-03
5.961878918865e-03
5.908140669358e-03
5.805875616932e-03
5.680054112450e-03
5.512945864727e-03
5.326235031303e-03
5.099814575695e-03
4.848871496600e-03
4.578436030419e-03
4.312126051031e-03
4.068983510438e-03
3.878948019144e-03
3.696536407386e-03
3.610414615740e-03
3.648906839705e-03
3.740049181565e-03
3.899047133921e-03
4.078094335185e-03
4.265058537564e-03
4.435125269456e-03
4.594665148187e-03
4.735181100800e-03
4.838272090162e-03
4.913247143246e-03
4.935696440884e-03
4.963163630605e-03
4.970148499816e-03
4.972729571996e-03
4.968771048834e-03
4.969260551934e-03
3.740141790492e-03
4.058111443788e-03
4.339280484927e-03
4.600412294281e-03
4.861219744616e-03
5.105119180278e-03
5.341101545075e-03
5.553418984263e-03
5.788796962491e-03
5.392082075008e-04
3.668688199267e-03
1.684354500625e-03
1.806164222754e-03
1.988465623784e-03
1.960646228179e-03
2.080219020031e-03
2.392787930825e-03
2.723536012173e-03
2.974459739541e-03
3.282303677024e-03
3.580540291520e-03
3.582316363975e-03
3.588119260490e-03
3.582117635180e-03
3.639873989655e-03
3.602925509225e-03
3.598783225131e-03
3.614758951482e-03
3.642515191705e-03
3.651301196399e-03
3.650732464659e-03
3.659385240253e-03
3.668613303123e-03
3.694797373601e-03
0.0
0.0
0.0
0.0
0.0
1.744449562148e-04
3.008916063011e-04
4.050478665291e-04
5.046139784359e-04
6.936516565607e-04
8.134086808571e-04
1.035447660179e-03
1.317664285716e-03
1.556461179225e-03
1.698703308833e-03
1.829256340020e-03
1.936274606327e-03
2.057713747761e-03
2.160946537055e-03
2.179105117924e-03
1.474374331820e-03
1.940173948538e-03
1.976172725544e-03
2.018544812754e-03
2.257702925448e-03
2.595112877480e-03
2.855195681536e-03
3.128649835258e-03
3.466632038258e-03
1.792071878644e-03
3.375143360345e-03
7.233637867985e-04
1.036141330497e-04
4.185730067683e-03
2.132887875458e-03
3.290669112102e-03
3.943090107724e-03
2.459850990970e-03
5.049081016827e-03
3.049657566422e-03
4.807738799368e-03
1.182564866658e-03
5.746835578076e-03
3.688122146157e-03
2.243660734344e-03
3.956138881533e-03
5.918594875086e-03
5.957497874511e-03
5.833020523938e-03
5.849817635203e-03
5.907569221224e-03
3.796891756948e-03
3.753148626160e-03
3.750719424971e-03
4.728883318265e-03
4.949356106529e-03
0.0
1.446675358332e-03
4.662329876841e-03
3.701848086155e-03
1.172285973879e-03
5.916122430582e-03
4.554740200655e-03
5.468890302383e-03
3.503959695460e-03
3.612570973627e-03
1.012610592318e-03
3.764133124860e-03
4.509011244357e-03
5.226961181745e-03
8.281022762432e-04
2.786147332295e-03
5.862108365073e-03
2.293034409321e-03
2.118172696952e-03
2.814022264942e-03
3.328976841209e-03
1.808393844557e-03
4.215679675405e-03
4.988678889666e-03
1.603073179023e-03
5.647207016452e-03
3.826980774528e-03
3.959485929510e-03
4.093805969592e-03
4.237157459642e-03
4.355175514086e-03
4.475551541186e-03
4.360600218784e-03
4.584917723766e-03
4.472803770017e-03
4.603457862675e-03
4.678779703983e-03
4.566901197709e-03
4.755547519284e-03
4.640471696753e-03
4.457539912409e-03
4.538567241607e-03
4.334573614265e-03
4.420847848507e-03
4.584491396975e-03
4.467742894371e-03
4.290813753397e-03
4.341561214995e-03
4.161369484108e-03
4.203844918485e-03
4.020961676830e-03
4.033609205765e-03
4.190038035743e-03
3.995998885876e-03
3.816070395907e-03
3.728966813226e-03
3.537030536043e-03
3.407128807490e-03
3.586398617854e-03
3.288807272957e-03
3.252863900070e-03
3.170185754012e-03
3.233111113295e-03
3.074120756272e-03
3.162643393988e-03
2.933378461356e-03
2.797468942969e-03
2.619962109437e-03
2.778421306725e-03
2.482787310082e-03
2.288870685995e-03
2.245276885126e-03
2.009188259652e-03
2.106063465321e-03
2.298880449605e-03
2.277186157407e-03
2.045146607384e-03
2.269833337432e-03
2.492081268530e-03
2.449252250951e-03
2.235847836527e-03
2.412279828812e-03
2.543747264894e-03
2.600115002725e-03
2.727482019444e-03
2.938942653524e-03
2.800953391655e-03
3.099410076939e-03
3.236731448007e-03
3.326718393122e-03
3.458435113975e-03
3.182252973246e-03
3.349632840797e-03
3.182734544931e-03
3.297058188961e-03
3.395874895856e-03
3.084763359842e-03
2.947638229530e-03
3.173599872694e-03
3.367971322397e-03
2.907366739478e-03
2.989778207621e-03
2.681037591212e-03
3.273090083598e-03
4.583977419968e-03
2.763122244056e-03
2.422279070482e-03
2.341976270933e-03
2.055104190934e-03
4.487857016271e-03
4.743988105410e-03
4.617567667593e-03
4.883368050274e-03
4.763228887328e-03
2.160659489003e-03
4.890919826071e-03
4.994559216403e-03
4.077898647515e-03
3.620014606063e-03
2.026865546520e-03
3.041451028518e-03
2.832922892333e-03
3.077663964186e-03
3.380542676541e-03
3.577929148800e-03
3.502531489785e-03
3.663458989421e-03
3.546277218969e-03
3.702657791091e-03
3.786178392521e-03
3.850978684801e-03
3.897450996605e-03
3.504687425170e-03
3.291824593051e-03
3.999992240266e-03
4.016767369501e-03
4.146857594668e-03
4.147424783067e-03
3.977096144328e-03
4.088166746606e-03
3.903561376438e-03
1.647610095171e-03
1.670364952503e-03
1.200482357020e-03
1.361632881091e-03
1.080278838398e-03
1.418148903541e-03
1.352867822665e-03
1.212666352797e-03
4.813044669928e-03
2.629702736151e-03
2.873791510621e-03
2.692884768804e-03
2.922961960319e-03
2.693279210870e-03
2.967619989366e-03
2.640231682294e-03
2.442231823403e-03
2.256451765602e-03
2.304389301660e-03
1.970174595809e-03
2.413972446824e-03
4.105974986965e-03
1.752978929951e-03
1.881015725757e-03
2.212471553438e-03
1.986920103444e-03
4.283844059938e-03
3.257008008793e-03
2.972866264147e-03
1.546774196166e-03
1.779410363677e-03
2.938187575973e-03
3.188246772319e-03
5.018824155785e-03
4.900262887059e-03
3.011629305590e-03
1.908912131209e-03
3.906913380700e-03
1.895281348439e-03
4.211749337744e-03
4.409990212532e-03
3.799088406628e-03
2.355436507833e-03
2.649299599465e-03
2.548634680735e-03
2.876527123570e-03
2.844168383616e-03
3.212913817799e-03
3.129285464298e-03
3.337589162415e-03
3.439166685576e-03
3.438974933722e-03
3.303340296455e-03
3.181680302338e-03
3.085186834318e-03
2.829834518630e-03
4.432489689449e-03
1.483659745450e-03
4.217722169449e-03
3.341461549787e-03
1.739764648709e-03
5.152372939051e-03
5.035369681437e-03
4.778294671962e-03
4.917428704147e-03
5.167012334313e-03
5.050565403691e-03
4.795745429522e-03
4.929418857156e-03
4.668419815856e-03
4.805864584515e-03
5.058823087727e-03
4.939281816885e-03
4.682797093272e-03
4.818002280012e-03
4.556116505805e-03
4.690388347301e-03
4.950293242362e-03
1.552403935002e-03
1.574322739071e-03
1.877343647282e-03
2.891197733424e-03
3.092514519054e-03
3.276732472821e-03
3.305456961863e-03
4.827759947093e-03
5.081593595751e-03
3.163419766099e-03
3.211991907021e-03
5.265451275810e-03
4.339993450944e-03
4.108622684801e-03
3.351327486416e-03
3.414147971325e-03
3.173366515349e-03
3.179934844101e-03
3.412464276917e-03
2.933374923412e-03
3.048978120526e-03
5.184623155998e-03
2.285735175407e-03
1.964820094476e-03
4.525309975274e-03
1.417417973454e-03
4.266164728390e-03
4.121971091758e-03
4.284403972733e-03
4.105296115865e-03
4.321717176209e-03
4.160575813868e-03
3.892235684062e-03
2.811745021311e-03
3.984494120429e-03
4.554222149543e-03
2.269911801835e-03
3.028107761873e-03
1.410044382037e-03
2.660796390280e-03
1.642549087339e-03
2.019881341573e-03
3.191265930906e-03
4.449437667659e-03
4.556738233615e-03
3.151991049237e-03
3.330144195961e-03
2.615443417616e-03
4.499456307731e-03
4.528967056282e-03
4.393751219098e-03
1.261306655149e-03
2.904934706402e-03
5.293699107592e-03
3.240583809678e-03
3.137492166912e-03
1.326987575174e-03
7.734678318549e-04
4.951662652887e-03
5.199111337285e-03
3.458302994746e-03
3.498814191065e-03
2.813032372855e-03
2.488302007795e-03
5.318301846902e-03
1.850643022250e-03
1.900800904807e-03
3.131639576739e-03
3.027700141336e-03
2.957799237182e-03
3.061527549215e-03
2.613926403272e-03
1.775348210848e-03
3.082947151770e-03
5.403046930315e-03
3.649594930354e-03
3.629629087466e-03
3.791790756931e-03
2.266631384107e-03
3.561658471125e-03
4.464949176004e-03
4.749074667133e-03
4.803902692703e-03
3.195369272568e-03
2.992485238832e-03
2.855378574955e-03
2.741778446605e-03
4.234794425954e-03
3.108532495677e-03
4.079034698662e-03
3.940552543924e-03
3.815579800974e-03
3.588995439569e-03
3.476421980838e-03
3.087431809056e-03
2.199698414150e-03
3.435465997500e-03
3.826462726601e-03
3.261674752205e-03
5.297684949133e-03
5.419151855637e-03
4.414057560104e-03
4.275097580202e-03
1.647451024479e-03
1.675335589964e-03
3.606226530559e-03
3.650868628108e-03
5.391618930748e-03
5.502109459713e-03
5.372609048885e-03
2.675369016162e-03
2.527778908692e-03
1.410070067518e-03
1.620197969852e-03
3.704561518482e-03
1.421863687494e-03
4.706685273956e-03
4.622442071867e-03
4.666940698600e-03
3.076866095470e-03
3.811195532018e-03
3.440349836705e-03
3.147617514472e-03
3.657267983904e-03
3.541815125300e-03
3.706500821150e-03
3.438152628286e-03
2.775184890772e-03
2.746720812631e-03
4.705097558488e-03
4.212391869045e-03
5.032584068110e-03
5.060540397521e-03
2.962566848859e-03
2.515241370603e-03
2.118397082965e-03
3.180431248684e-03
5.518846616804e-03
3.789817242396e-03
3.891070071717e-03
3.945571653991e-03
5.986403847301e-04
2.213189616717e-03
5.440739059520e-03
2.585939956196e-03
2.577091143894e-03
2.623503978078e-03
4.897871729883e-03
3.686454329978e-03
4.752961752010e-03
3.733356492718e-03
5.550112872523e-03
3.071330919958e-03
3.165660564610e-03
2.415063932661e-03
5.310812901883e-03
5.569340241546e-03
4.247537830652e-03
4.096212274891e-03
4.376310335557e-03
2.295285634796e-03
1.760148970824e-03
5.307204263575e-03
2.597022010623e-03
2.677083653507e-03
2.361042937549e-03
2.540509620076e-03
3.590752619766e-03
3.561980325172e-03
4.687546968051e-03
4.862462070621e-03
4.404636295064e-03
2.304172143242e-03
2.399216396593e-03
1.964677543140e-03
5.518361070662e-03
5.664420780412e-03
2.775557848670e-03
2.950132041529e-03
2.770175388850e-03
5.630497223971e-03
4.810959073252e-03
4.708255592783e-03
1.439105625328e-03
1.764440458605e-03
2.782344288704e-03
2.711314613078e-03
5.598196232206e-03
5.483018715217e-03
5.749000539319e-03
1.876891076347e-03
3.340823531716e-03
3.019076182411e-03
2.638636300015e-03
3.496239648933e-03
3.233921457243e-03
3.509435497577e-03
4.060457021751e-03
9.830298147042e-05
5.472024458089e-03
4.113394862956e-03
0.0
3.974022231900e-03
4.142147385999e-03
3.808811843470e-03
1.512139063608e-03
4.035840610883e-03
4.228908811524e-03
1.229665042051e-03
5.727754258707e-03
1.213722886229e-03
1.289130077108e-03
4.190343840825e-03
4.208177283858e-03
4.453725484854e-03
4.415818037714e-03
4.236650972425e-03
4.433395698974e-03
3.960847876624e-03
4.646929544122e-03
4.602784854752e-03
4.854292446809e-03
3.246379902709e-03
2.751258169961e-03
2.634703286177e-03
2.390161293581e-03
5.366413333148e-03
5.305369359066e-03
4.571502884887e-03
4.361148070354e-03
3.986570332512e-03
3.958169901241e-03
4.225562744729e-03
4.178369498049e-03
4.446132963819e-03
4.399693690965e-03
4.649688467265e-03
4.553994310107e-03
2.395247212063e-03
3.489844342941e-03
2.935834930029e-03
2.507685734422e-03
3.320342588166e-03
3.002197588997e-03
3.920773109245e-03
3.240450602112e-03
5.870937815019e-03
0.0
3.323452107102e-04
3.218749665587e-03
3.600131537244e-03
2.907036869022e-03
2.836905823125e-03
2.270773315379e-03
1.834790987996e-03
2.673096930044e-03
4.690114924130e-03
2.348836148975e-03
4.492676789655e-03
3.205482778443e-03
3.817317219374e-03
2.948492527327e-03
2.849084286571e-03
4.354187352303e-03
4.105094102283e-03
3.949385469094e-03
3.043885708512e-03
3.025811206364e-03
2.606730506197e-03
4.199509327046e-03
5.239720060421e-03
5.342311723545e-03
5.568723597318e-03
5.436074129988e-03
5.195127512815e-03
5.275945829576e-03
5.522846822361e-03
5.362101483362e-03
5.654790167380e-03
5.418798555265e-03
5.183358795615e-03
5.228039527145e-03
5.462723589554e-03
5.010149217662e-03
3.394314338742e-03
3.254416177728e-03
3.998143781564e-04
1.780285334436e-03
3.960367887196e-03
5.943039136803e-03
5.959345631699e-03
3.141346465330e-03
5.620347987340e-03
4.084459886071e-03
2.498622170437e-03
5.268940025094e-03
5.099701809653e-03
4.951938385870e-03
4.853275658762e-03
5.939990338712e-03
4.510478805277e-03
4.274617599746e-03
1.914060081792e-03
2.484209945367e-03
2.639018446471e-03
5.114013007791e-03
3.400229055209e-03
2.914794698409e-03
2.950236209629e-03
2.471629201444e-03
3.451405133462e-03
5.898428211788e-03
5.845499826008e-03
3.178797580669e-03
2.960279401288e-03
2.804058035340e-03
2.729987471253e-03
2.829725808593e-03
2.578048860295e-03
2.561856093753e-03
2.441038645177e-03
5.056780879738e-03
3.797514540817e-03
3.350528560522e-03
3.070190277767e-03
2.914035417259e-03
3.410817836896e-03
3.523130452731e-03
3.651707279838e-03
3.259955241283e-03
3.906281668705e-03
3.999951674760e-03
1.514180247365e-03
3.455226154399e-03
3.780489020667e-03
4.041242521720e-03
4.062468817485e-03
4.304541709678e-03
4.049230948442e-03
3.629888373411e-03
3.687995609435e-03
3.556481715217e-03
3.766062809759e-03
3.630392003192e-03
3.425625743275e-03
3.859887208052e-03
3.712754465682e-03
3.753295504860e-03
5.944650398121e-04
2.225590346816e-03
2.127823725117e-03
2.979469021594e-03
2.824219377905e-03
3.230470095965e-03
3.141720754719e-03
1.550829825203e-03
7.467435189644e-04
1.647650571366e-03
6.781160949691e-04
1.418844655901e-03
2.293180220520e-03
2.042650195457e-03
4.943618431220e-03
3.031335723016e-03
2.945155604069e-03
2.688743593994e-03
2.875725181900e-03
3.142994710358e-03
2.523324995075e-03
2.457510238830e-03
1.510421340239e-03
1.007815092101e-03
1.077602730068e-03
9.323160320548e-04
9.716390507349e-04
1.014619391924e-03
1.008787792094e-03
1.356424777816e-03
1.016122513265e-03
1.104929402575e-03
1.269761046994e-03
4.987755442147e-03
5.116267723268e-03
4.373987183766e-03
3.768398534654e-03
7.723067608076e-04
5.801414033109e-03
5.849888523554e-03
5.842497446698e-03
4.794097655679e-03
4.842845514710e-03
5.795857190058e-03
2.602280117318e-03
5.684608119029e-03
5.426766964233e-03
2.915293754372e-03
2.687040126660e-03
4.231633519162e-03
3.882386612765e-03
4.556515040672e-03
3.998756045770e-03
4.293387971553e-03
3.074535552154e-03
1.408470089399e-03
4.539066931421e-03
4.423048734156e-03
5.069081138623e-03
2.521812465648e-03
3.361884437641e-03
1.678049688451e-03
5.074061553586e-03
3.958676471230e-03
3.095099427902e-03
3.226856089265e-03
2.810734054587e-03
2.838974017310e-03
3.275246495708e-03
3.484344474013e-03
3.705978157807e-03
5.196157012198e-03
1.018518931270e-03
3.521375643282e-03
3.706077620756e-03
4.658000838490e-03
1.709680317594e-03
3.305261692782e-03
5.177694957922e-03
5.612493104205e-03
4.353675085413e-03
1.412398444283e-03
4.259060800004e-03
3.477784717748e-03
5.132413977016e-03
2.272689532028e-03
1.816489196477e-03
3.846604393139e-03
3.494167407997e-03
5.528278511332e-03
3.146089818610e-03
1.957139825606e-03
1.112448474458e-03
2.360079505855e-03
4.023485214536e-03
2.432815649017e-03
5.414327495685e-03
4.449676466395e-03
2.421354826549e-03
5.279237453520e-03
2.481134471885e-03
2.154599998102e-03
3.850201562972e-03
4.337013816297e-03
4.689567346140e-03
3.889632788579e-03
4.106706360112e-03
3.777078850776e-03
2.080073589128e-03
3.024091218619e-03
4.636084587167e-03
4.310138882828e-03
5.639613987774e-03
3.640972516568e-03
4.095996415080e-03
5.509310551577e-03
3.587895264237e-03
1.596224348258e-03
2.654907617398e-03
2.518196502036e-03
2.963465931010e-03
3.699806971781e-03
5.746687556824e-03
4.270512341207e-03
2.658558888212e-03
1.531489976852e-03
3.642720607827e-03
4.434127154033e-03
1.755325851135e-03
2.085706409627e-03
3.490851329931e-03
4.839928513279e-03
3.143753996542e-03
4.591157827228e-03
1.995758212990e-03
3.213796841356e-03
3.698867822439e-03
4.783484472751e-03
2.274372036269e-03
3.942041855717e-03
2.018129477521e-03
3.179171001688e-03
3.766024258519e-03
4.461967294443e-03
5.932012927013e-03
2.263421662546e-03
4.710985723029e-03
3.694491554536e-03
2.635139483983e-03
1.025903351167e-03
3.364049018946e-03
3.741140459926e-03
2.496086040746e-03
2.247981960544e-03
3.447314890980e-03
3.806063609485e-03
2.443637327429e-03
3.889607978100e-03
2.932212877137e-03
4.809565923031e-03
3.991122142150e-03
4.535682597544e-03
1.253579093275e-03
3.692076032167e-03
4.710605835282e-03
2.989317964917e-03
2.692080032987e-03
5.041460301469e-03
2.649271473601e-03
2.763935828314e-03
4.635607043239e-03
3.377136231024e-03
2.886852932384e-03
2.656221383019e-03
2.841982051278e-03
2.546121946090e-03
2.280710634061e-03
2.448224017802e-03
4.844932991548e-03
1.159538546380e-03
4.958406181658e-03
2.170695742773e-03
2.635116820678e-03
3.060192089563e-03
4.490482294088e-03
2.676098572190e-03
1.933023820066e-03
2.768539009112e-03
2.773761821372e-03
2.620450107336e-03
2.685714993396e-03
5.648300186419e-03
2.938653539912e-03
5.823614188445e-03
4.963188208300e-03
3.932121989893e-03
2.324149862710e-03
0.0
2.514548860694e-03
2.801591293186e-03
4.851561224056e-03
3.937231005468e-03
2.729494295403e-03
5.675085357911e-03
4.803426685540e-03
4.862248751244e-03
2.171293786245e-03
3.009255413908e-03
5.428982077181e-03
3.693412385959e-03
1.283308417236e-03
4.241990484630e-03
2.118254558368e-03
2.377043969348e-03
2.382468483149e-03
2.413239708947e-03
2.697664909012e-03
2.126804265286e-03
2.932528478253e-03
3.975655703172e-03
3.423996743188e-03
2.040734890307e-03
5.723862858496e-03
4.029709976472e-03
4.729446121623e-03
3.643538952677e-03
2.324384274866e-03
4.240145590125e-03
5.248251932663e-03
5.065638731077e-03
4.865415511008e-03
3.950525462167e-03
5.659251463191e-03
2.734727135404e-03
5.648629554702e-03
5.043134290996e-03
4.301884988432e-03
4.260018092810e-03
4.871863521837e-03
5.738997361023e-03
2.142169266280e-03
4.855264715639e-03
2.941329875457e-03
4.982839675412e-04
4.155649936064e-03
5.251942821196e-03
4.831609780295e-03
9.013000089023e-04
1.077083856090e-03
3.817677234665e-03
5.571067232883e-03
3.300048357497e-03
5.920327576545e-03
7.577862853330e-04
3.663422898644e-03
1.060195543772e-03
4.951255767582e-03
5.712619248511e-03
3.070814862917e-03
3.822820158157e-03
2.186156026243e-03
4.538463984820e-03
1.851321241038e-03
5.716697476405e-03
3.395600169627e-03
5.810236312995e-03
3.850312672382e-03
0.0
4.395921499424e-03
2.651166453379e-03
3.693193394849e-03
5.779881690989e-03
2.632058365002e-03
1.305216945228e-03
5.834411797515e-03
1.794472957361e-03
3.663155821034e-03
4.974463401011e-03
1.126337765141e-03
4.139350774126e-03
5.652422135997e-03
3.542221846802e-03
5.289169342971e-03
3.063748398770e-03
0.0
4.627165150353e-03
3.844266386451e-03
5.798941796910e-03
4.453871606854e-03
2.441774290393e-03
5.465528199287e-03
3.248665564557e-03
4.976193501889e-03
2.571640358639e-03
1.110096203170e-03
3.751244995352e-03
1.075195837059e-03
4.615840899057e-03
3.326084611542e-03

SCALARS node_materi_plasti_phimob float
LOOKUP_TABLE default
-5.359005057124e+01
-1.911660061925e+01
2.066746506275e+01
1.727143981926e+01
-2.958722881078e+01
-9.109899777183e-01
1.246364400053e+01
1.531384357852e+01
1.371604983886e+01
1.497328063087e+01
1.623099457417e+01
1.718703275251e+01
1.792994224586e+01
1.853644549841e+01
1.904789837865e+01
1.941451807117e+01
1.967801825563e+01
2.007412837110e+01
2.080677943048e+01
2.119060907610e+01
2.110218446623e+01
2.096241605131e+01
2.080877693161e+01
1.736066456830e+01
1.736473023689e+01
1.742866990535e+01
1.751339163463e+01
1.757835254067e+01
1.775687716011e+01
1.794898787198e+01
1.822652944357e+01
1.854552320536e+01
1.889832382001e+01
1.924263808615e+01
1.984314859436e+01
2.031981412024e+01
2.092217177945e+01
2.131599699652e+01
2.177157907122e+01
2.207547480781e+01
2.231564734376e+01
2.253755162409e+01
2.266747420155e+01
2.272515586168e+01
2.267965948382e+01
2.262859339772e+01
2.252585291325e+01
2.239281377074e+01
2.224683443533e+01
2.210107013427e+01
2.195727333452e+01
2.181222804346e+01
2.163789140373e+01
2.154972203157e+01
2.145487874901e+01
2.133199057032e+01
2.123619011727e+01
2.115436466339e+01
2.106368429575e+01
2.100992669091e+01
2.094450362576e+01
2.090304374450e+01
2.085990104722e+01
2.080640713792e+01
2.075610144694e+01
2.072927787658e+01
2.075492146107e+01
2.068449033654e+01
2.068571078744e+01
2.066396944938e+01
2.065693127701e+01
2.065812548605e+01
-1.699757368467e+01
-1.014476080421e+01
-1.229969778432e+00
4.747093288013e+00
8.699892287626e+00
1.145339082128e+01
1.352968488982e+01
1.516531066119e+01
1.650251760432e+01
1.882227798096e+01
1.753857499434e+01
3.424869986759e+01
3.002452557379e+01
2.968802076437e+01
2.979272870850e+01
2.822181295246e+01
2.565511792267e+01
2.412139514896e+01
2.435696062214e+01
2.587476716743e+01
-1.902349680031e+01
-1.953500635044e+01
-1.947702279851e+01
-1.897239975602e+01
-1.847613081885e+01
-1.858427384526e+01
-1.797513006186e+01
-1.789050397273e+01
-1.738854079148e+01
-1.595796017826e+01
-1.351168979107e+01
-9.303220349278e+00
-1.732493376086e+00
9.870962647400e+00
1.013369034933e+01
8.737135026453e+00
9.411304001292e+00
1.032980495241e+01
1.145688656189e+01
2.559253410939e+00
-2.418125693471e+01
-3.964386155004e+01
-4.724082657759e+01
-4.989400224738e+01
-5.038665960352e+01
-5.092524346381e+01
-5.255040610098e+01
-5.412109172539e+01
-5.523911119180e+01
-5.617876162494e+01
-5.670534598570e+01
-5.671040196746e+01
-5.675091833013e+01
3.499586537224e+01
3.190103751426e+01
2.971407155951e+01
2.949553983264e+01
3.013959066970e+01
2.785852245276e+01
2.443995214643e+01
2.384684191435e+01
2.490095789125e+01
2.619080514362e+01
2.764250464983e+01
2.178231668512e+01
-3.510803537590e+01
1.329603481262e+01
2.130975462015e+01
2.527950363871e+01
1.883375549075e+01
2.226357520805e+01
2.390997953759e+01
2.267602271236e+01
2.224759871414e+01
2.096365505630e+01
-3.863286227851e+01
2.267955993179e+01
1.841730524288e+01
1.574028044625e+01
1.980806363452e+01
2.194717880782e+01
2.003234228560e+01
1.697545570265e+01
1.726423924036e+01
1.839612531033e+01
4.233858822299e+00
-1.238487972533e+01
-1.497584835714e+01
6.930478151871e+00
2.084645546358e+01
1.062284534399e+01
-3.740375588834e+01
2.117045015819e+01
-1.731411436251e+01
1.432546704104e+01
2.090909695090e+01
2.245239500964e+01
2.276392720161e+01
2.209855625338e+01
2.154902755981e+01
-1.360422010926e+00
-7.192335714080e+00
2.120963107094e+01
1.252762179632e+01
-3.768545265463e+01
1.761650633058e+01
1.702289224726e+01
2.420955737023e+01
2.594861335265e+01
2.227407843338e+01
2.267318351183e+01
3.203988198966e+01
-4.967662375744e+00
2.077014060080e+01
-3.847250019854e+01
1.580107419235e+01
1.200601921144e+01
1.135603015650e+01
9.012956218668e+00
1.166013300891e+01
1.079745778144e+01
1.297893728228e+01
1.353125607545e+01
1.464875105072e+01
1.540815296993e+01
1.264186042856e+01
1.631439896699e+01
1.735155553818e+01
1.807996293753e+01
1.903781919386e+01
1.844020511765e+01
2.002767016303e+01
1.929151486688e+01
2.081386295259e+01
2.133607750231e+01
2.211978564719e+01
2.140147186983e+01
2.268933478508e+01
2.186640332737e+01
2.310647084984e+01
2.230482934513e+01
2.348620292116e+01
2.418728894047e+01
2.455234153059e+01
2.395455899798e+01
2.495702923307e+01
2.453345901271e+01
2.555465633960e+01
2.582468521553e+01
2.628290968933e+01
2.604234976534e+01
2.664003056846e+01
2.642380371097e+01
2.697758734947e+01
2.665523813222e+01
2.711925658342e+01
2.735401754327e+01
2.740177851797e+01
2.706711258652e+01
2.722230587816e+01
2.751025298400e+01
2.719552140693e+01
2.741992963307e+01
2.699952556716e+01
2.670344452091e+01
2.638103259117e+01
2.659578057403e+01
2.588175502965e+01
2.561448917545e+01
2.505792238482e+01
2.529962236458e+01
2.439708224352e+01
2.418707508023e+01
2.333426333802e+01
2.342721648189e+01
2.231703969623e+01
2.205208252115e+01
2.113615726817e+01
2.154231485424e+01
2.042935725032e+01
2.098670575014e+01
1.989357981666e+01
1.927645382018e+01
1.863911400749e+01
1.850546263843e+01
2.648561691243e+01
1.780991101401e+01
1.792590627073e+01
1.814665132025e+01
1.881261021838e+01
1.733605982846e+01
1.776314471044e+01
1.680522672917e+01
2.599277053931e+01
2.237671231536e+01
1.732501628820e+01
1.619189395065e+01
1.549798314516e+01
1.460707043329e+01
1.050612009943e+01
1.244913738175e+01
1.012760404307e+01
1.245151302218e+01
1.028994621911e+01
1.546582069874e+01
1.729204786927e+01
1.418871049557e+01
2.053051224499e+01
2.342281397442e+01
2.758845618118e+01
1.818402953897e+01
1.781504287792e+01
1.848204370539e+01
2.202975426222e+01
2.166071173372e+01
2.269176039685e+01
2.240625031799e+01
2.325993214537e+01
2.291596894543e+01
2.217503971953e+01
2.260318616093e+01
2.197907397422e+01
2.328817471248e+01
2.374053861741e+01
2.231965004865e+01
2.182372906012e+01
2.205950135019e+01
2.170280755274e+01
2.110682198894e+01
2.108498462767e+01
2.040224282246e+01
2.738885079426e+01
2.742506236848e+01
2.709176538502e+01
2.690827062643e+01
2.628860562172e+01
2.589827893037e+01
2.532221946969e+01
2.561107959573e+01
1.960729140738e+01
2.688040904192e+01
2.666995508387e+01
2.648563162061e+01
2.610823869679e+01
2.598872726335e+01
2.534782855236e+01
2.534306069784e+01
2.572803445160e+01
2.518346625621e+01
2.522383867010e+01
2.494154049128e+01
2.443556717686e+01
2.504428162771e+01
2.650564187143e+01
2.543737198627e+01
2.591996049042e+01
1.357943399231e+01
2.160290125999e+01
2.344254603534e+01
2.394962463371e+01
2.477992668197e+01
1.354548229270e+01
2.446214816786e+01
2.432081665067e+01
1.266340532970e+01
1.072731357571e+01
2.346403548933e+01
1.450571776964e+01
2.251407255591e+01
2.482101805018e+01
2.111026599608e+01
2.150014775902e+01
2.128299795693e+01
2.497845602520e+01
2.537591077050e+01
2.487347082916e+01
2.364705746148e+01
2.310016247435e+01
2.176185447850e+01
2.274356815434e+01
2.075412290621e+01
1.928812430389e+01
1.819568959063e+01
1.993611545573e+01
1.745516576670e+01
1.552700684081e+01
1.504476974103e+01
2.159950695353e+01
2.502959443473e+01
1.760325538145e+01
2.299298439579e+01
2.446890068446e+01
1.307248890320e+01
1.141210770500e+01
8.453984459918e+00
9.562424863913e+00
1.225206769242e+01
1.073633275646e+01
7.530476988809e+00
9.103468881912e+00
5.275278206376e+00
7.337327533077e+00
1.054900769257e+01
9.141965750539e+00
5.397877107266e+00
7.593906301997e+00
3.150929649771e+00
5.805360874009e+00
9.423619149105e+00
1.302571583592e+01
2.501214501058e+01
2.425125674016e+01
1.802954488681e+01
1.851614606020e+01
1.894546733169e+01
1.893251671364e+01
7.952407525399e+00
1.097685331195e+01
2.322910104806e+01
2.306018681479e+01
1.453586246312e+01
2.116714015090e+01
2.050400353623e+01
2.413292652411e+01
2.286347975977e+01
2.361990552617e+01
2.218525070858e+01
2.150531745196e+01
2.297210528869e+01
2.423808057510e+01
1.186278627467e+01
1.471517844561e+01
1.232348030560e+01
2.139415434578e+01
2.576699595090e+01
2.455628532946e+01
2.507509181038e+01
2.441534769776e+01
2.468689173563e+01
2.405454252497e+01
2.422064040102e+01
2.477952046116e+01
2.454210393756e+01
2.422514031721e+01
3.577480524459e+00
2.692341212140e+01
1.947655927057e+01
1.142820386105e+01
1.251156408288e+01
1.348073296572e+01
1.493179784865e+01
2.291815408717e+01
2.370506552890e+01
2.346379719342e+01
2.083195548744e+01
2.025346834866e+01
2.414129949515e+01
7.260811793071e+00
3.008293575514e+00
-3.434882725733e-01
1.263268245629e+01
1.317497045257e+01
1.313413034051e+01
2.431356206111e+01
2.307235364765e+01
2.490945964408e+01
2.567979682733e+01
9.677720899115e+00
1.222802777729e+01
1.926323383000e+01
1.928749723551e+01
2.338813600332e+01
1.271145237359e+01
1.321301923576e+01
2.513113068492e+01
2.572265202119e+01
1.852243865355e+01
2.190636646670e+01
2.226095764912e+01
2.143508723914e+01
1.504944847111e+01
1.390197905957e+01
2.277124510379e+01
1.430294645442e+01
2.470066660062e+01
2.536538553613e+01
2.405225532759e+01
8.613620838438e+00
2.248241457543e+01
2.122848523342e+01
2.323842580411e+01
2.293362290232e+01
2.440018410404e+01
2.327898088405e+01
2.180174302568e+01
2.197216645437e+01
1.464390250335e+01
2.443999693188e+01
1.844661446187e+01
1.703356297018e+01
1.791165302250e+01
2.086959765798e+01
1.968659774738e+01
2.618049747729e+01
2.752821256838e+01
1.928128378618e+01
2.040898993249e+01
2.307564356624e+01
1.294564557704e+01
1.396205674179e+01
-1.965465125126e-01
-3.854773500344e+00
1.035120502113e+01
8.168762553020e+00
2.064514500145e+01
2.256526359053e+01
1.490065368577e+01
1.606055559719e+01
1.579833082497e+01
2.323385203343e+01
2.653897575277e+01
2.699173145297e+01
2.457457789527e+01
2.606142333476e+01
4.558657784434e+00
2.155505949736e+01
2.125356003126e+01
2.123868750547e+01
2.376945494433e+01
1.408882872263e+01
2.645639262075e+01
2.688717469005e+01
1.719728495964e+01
1.792347902849e+01
1.856906109649e+01
1.843338979346e+01
2.101461974340e+01
1.918206554361e+01
2.334522496235e+01
2.370786444456e+01
2.290166162494e+01
2.248872928435e+01
2.336005201408e+01
2.373919533699e+01
1.526628237724e+01
1.937006942075e+01
1.499243675882e+01
1.609487496519e+01
2.207235774542e+01
2.217626318382e+01
2.417192234820e+01
2.279605061908e+01
1.420859592513e+01
2.067411183881e+01
2.064466972021e+01
2.083189056572e+01
2.087206336309e+01
-1.760678321428e+01
2.108696645872e+01
2.027950808653e+01
1.498985435750e+01
2.653773908072e+01
2.496099255034e+01
2.389618852001e+01
1.322786195095e+01
1.513112731725e+01
-3.163475936233e+00
-7.038734630218e+00
7.071410254150e-01
2.404528710894e+01
2.414940844904e+01
1.302470930836e+01
1.721087957499e+01
1.739534127014e+01
1.323229409304e+01
1.532484806585e+01
1.955474476538e+01
1.954006943654e+01
2.241274422773e+01
2.176421343272e+01
2.390940400542e+01
2.509104551027e+01
2.533351001667e+01
2.606526233427e+01
1.482572950670e+01
1.577944291135e+01
2.253637177992e+01
2.306415901913e+01
2.023567823747e+01
1.594420874954e+01
2.106166577302e+01
2.120810091656e+01
2.835477687261e-01
5.545577600947e+00
2.160746380017e+01
2.242012919205e+01
1.707273624920e+01
1.689876633117e+01
1.748690889782e+01
1.444742681212e+01
2.520486338833e+01
2.256330090602e+01
2.306567470619e+01
2.206496042238e+01
2.415612188492e+01
2.341531218774e+01
2.339654656697e+01
2.032038711932e+01
1.459366193116e+01
-8.077067507248e+00
1.586686335348e+01
-1.164880195392e+01
-7.825158578408e+00
-1.503234519631e+01
1.436978387699e+01
-5.641086155830e+00
-4.665227354253e-01
-9.443251671476e+00
1.652296016965e+01
-7.157870417710e+00
-1.354681501450e-01
2.173683605789e+01
2.183812719993e+01
2.144408251736e+01
2.153947111400e+01
2.187708633220e+01
2.159315790518e+01
-1.112538005601e+01
2.123758383953e+01
2.132879767128e+01
2.106005282861e+01
1.877558893195e+01
2.189625470561e+01
2.058205381267e+01
2.107795527113e+01
2.261251046970e+01
2.217121064753e+01
2.123801370227e+01
2.085798377146e+01
-1.185156829922e+01
-1.275339609662e+01
-5.148045205126e+00
-6.408455864659e+00
1.239393626595e+00
3.591984716512e-01
5.514401327948e+00
2.312685309897e+01
2.106585220218e+01
1.790680414127e+01
2.296292788729e+01
2.336989719696e+01
1.884265678932e+01
1.934436304832e+01
2.185976434160e+01
2.536724558835e+01
1.768368950808e+01
1.623635883147e+01
2.158332848544e+01
2.520218323005e+01
1.912086381584e+01
2.145822498438e+01
2.040552957275e+01
2.454388104846e+01
2.838421052612e+00
2.104519908800e+01
5.910131750348e+00
2.214272576707e+01
2.107009638337e+01
2.613431533965e+01
2.155226312592e+01
2.176377181045e+01
2.349015485204e+01
1.662193039331e+01
1.283860874714e+01
1.446719294466e+01
2.670302127871e+01
1.986281782407e+01
2.072818524739e+01
1.995747157025e+01
1.564688646617e+01
1.678354912273e+01
1.801277908015e+01
1.795255686453e+01
1.676675797993e+01
1.804052940024e+01
1.931244447083e+01
1.947175818692e+01
2.069889383727e+01
2.067809764095e+01
1.980322286117e+01
2.089378745921e+01
2.152341868203e+01
2.024743332359e+01
2.256591543358e+01
2.570731467204e+01
2.438185834622e+01
2.467041860673e+01
2.104201098321e+01
2.161955570096e+01
2.047711551199e+01
2.537521083119e+01
2.273809191363e+01
1.588446964876e+01
2.461383255469e+01
2.273121347830e+01
1.560051038938e+01
1.564825043786e+01
1.421989990010e+01
1.941487097375e+01
4.403382504409e+00
2.232675624744e+01
2.729135883851e+01
2.734168008448e+01
2.740991423022e+01
1.837026763328e+01
2.190233286450e+01
2.252001552338e+01
2.238908948836e+01
2.316855804121e+01
2.168156008474e+01
2.232524888670e+01
2.255394358045e+01
2.203730539441e+01
2.362774149229e+01
2.430663818175e+01
2.485004418696e+01
2.426091598804e+01
2.534655362368e+01
2.571321434761e+01
2.569562917364e+01
2.195750953784e+01
2.146705728100e+01
2.363089374689e+01
2.404876898483e+01
2.364916147642e+01
1.912619422256e+01
1.936939480338e+01
1.986512479644e+01
1.884396727861e+01
2.534075313208e+01
2.137486884021e+01
2.643048243974e+01
1.915495437626e+01
-2.296058962940e+00
2.213813658488e+00
5.846913011649e+00
7.041639499174e+00
-7.906603996350e-01
1.955430094745e+01
1.959129373827e+01
1.934838596323e+01
1.964849639038e+01
1.942191064553e+01
1.909469642118e+01
1.971217775036e+01
1.950049193727e+01
-1.002233041018e+01
1.413338858499e+01
1.401594382621e+01
5.128111394038e+00
1.384415033457e+01
1.827884859679e+01
1.752489100564e+01
2.057565915654e+01
2.063434638420e+01
-1.762028984813e+01
-2.573444939989e+00
-2.855280414794e+01
-7.878820507392e+00
6.593400244142e+00
1.101858057649e+01
2.084608291162e+01
1.826913513429e+01
1.805031352440e+01
1.735440973029e+01
1.788959054474e+01
1.854848828683e+01
1.679848505204e+01
1.655516498233e+01
-3.742988755595e+01
-8.687563771932e+00
-1.068981196618e+01
7.119834587790e+00
6.612178161138e+00
-8.704449846779e+00
-8.977014024537e+00
-3.756826848311e+01
-9.900106308153e+00
5.662126996425e+00
-3.830865566732e+01
1.020736856942e+01
1.159967653065e+01
2.124760494520e+01
-1.329996731931e+01
-3.733768623349e+01
1.667302039974e+01
1.718809799073e+01
1.707929669649e+01
2.103875232268e+01
2.097534644245e+01
1.665142314896e+01
1.625730519235e+01
1.925050735881e+01
1.406227329541e+01
2.353234901934e+01
1.704619057681e+01
2.063252702119e+01
2.117544465449e+01
2.140872105485e+01
2.043572710256e+01
2.182004375757e+01
2.232575633715e+01
1.435158805733e+01
2.725239403985e+00
3.766923403736e-01
1.069777725369e+01
1.682727285898e+01
1.899954335089e+01
1.237843069246e+01
2.296562070231e+01
1.914496153469e+01
2.261543584835e+01
1.852032646601e+01
1.693119385972e+01
1.717158286541e+01
2.529014453829e+01
1.993328773803e+01
2.288072317575e+01
1.204855122492e+01
-3.437655626917e+01
2.298450708215e+01
2.143304482070e+01
5.898765606942e+00
2.495498268347e+01
1.627265150121e+01
1.187531764291e+01
1.636102298066e+01
3.609996972073e+00
8.542160375210e+00
-4.254468262659e+00
2.230232907313e+01
1.428722527253e+01
1.605852988754e+01
2.712723673473e+01
2.280534696903e+01
2.241781931544e+01
1.483845922482e+01
2.679410886028e+01
2.399019647354e+01
2.648006253095e+01
1.636468532443e+01
2.220523235415e+01
2.756795004125e+01
1.399864846408e+01
2.370548229449e+01
2.687198221306e+01
1.363623250415e+01
2.450194461026e+01
2.455196034215e+01
1.973410708058e+01
2.375290797603e+01
2.043969124026e+01
2.543081312244e+01
2.012464215693e+01
2.257405792057e+01
2.433005173019e+01
2.440970038481e+01
7.606949132609e+00
2.377393903945e+01
1.567417476238e+01
2.217573044276e+01
2.217620314419e+01
1.537319410342e+01
1.979338778375e+01
1.397818877878e+01
2.294932401931e+01
2.619880246849e+01
2.711392909140e+01
2.050794826136e+01
1.849502148357e+01
2.187218268442e+01
2.397872349133e+01
3.011571702157e+01
1.674474864301e+01
2.160772468243e+01
2.665607320733e+01
2.412630172833e+01
1.916597730464e+01
2.303033363582e+01
1.899921844227e+01
2.139651440848e+01
2.445305566112e+01
2.540708322059e+01
-1.757335874121e+01
2.111045722542e+01
2.372735961941e+01
2.563537819037e+01
2.607848965251e+01
2.246899158242e+01
2.046287050562e+01
2.315167626119e+01
1.890261900137e+01
2.348728522254e+01
1.437813751170e+01
1.989336857400e+01
2.634912920780e+01
6.138047210612e+00
1.851764345522e+01
1.987005517991e+01
2.605441428828e+01
2.537901639062e+01
2.306427827650e+01
1.988343405326e+01
2.638486219684e+01
1.992028130510e+01
2.205162969943e+01
1.578405976484e+01
1.998143857235e+01
2.315715521778e+01
5.166213658906e+00
2.592556072239e+01
2.113317404421e+01
1.934022168802e+01
2.460346092935e+01
1.689660363127e+01
2.257180207111e+01
2.475976580460e+01
2.304058346822e+01
2.594978152971e+01
2.716592043446e+01
2.450610270111e+01
1.999359924833e+01
1.571880162374e+01
1.392056320918e+01
2.606890501832e+01
2.243918336155e+01
1.415596927710e+01
1.891198723219e+01
9.718275349393e+00
2.527853398155e+01
2.490469451437e+01
2.473540370099e+00
2.471874865512e+01
1.434427459913e+01
2.370199360811e+01
2.704733134917e+01
2.308410936638e+01
2.177448202673e+01
1.567446365722e+01
2.071318338335e+01
1.681054751037e+01
2.079095999054e+01
-1.365023832735e+01
2.539585352279e+01
1.001851781802e+01
2.041723087827e+01
1.852937992195e+01
2.083499389151e+01
-1.363734667545e+01
1.685719821217e+01
2.157051146447e+01
2.254658543833e+01
8.701113531174e+00
2.367038164603e+01
2.573611682718e+01
1.425429574956e+01
-1.665075996394e+01
-1.103450437982e+01
2.039900166644e+01
2.655534717977e+01
2.077809006172e+01
2.160235894293e+01
1.647239113816e+01
9.824609168063e+00
2.542607221559e+01
2.264136501692e+01
-8.303864655868e+00
2.447818363807e+01
2.651971871068e+01
1.681081436715e+01
2.304056755429e+01
2.104785706015e+01
2.377691552802e+01
2.357272014683e+01
4.032246757090e+00
2.286200212411e+01
1.092683548717e+01
2.090159245632e+01
-4.959782542829e+00
1.581475051961e+01
2.299512539817e+01
1.582268996720e+01
2.125302132145e+01
-2.880544164149e+00
8.575320571297e+00
2.090693550915e+01
2.040270310522e+01
2.549626604702e+01
8.496361475479e+00
1.810323959858e+01
1.973246371694e+01
2.162796692512e+01
2.165406825580e+01
2.101709244249e+01
7.303787090121e+00
-1.435116030881e+01
2.180504659604e+01
2.233659079030e+01
2.073358712915e+01
1.786597759473e+01
2.749654429400e+01
-1.555665280802e+01
-1.228822901581e+01
2.084784974160e+01
1.617057957360e+01
1.837201792380e+01
1.015390001720e+01
1.548333543346e+01
2.342510490722e+01
1.865009162661e+00
1.612271684843e+01
2.202271133087e+01
1.832103914226e+01
2.197743227940e+01
1.682467414144e+01
2.293655454251e+01
2.289148022113e+01
-1.722577682936e+01
1.937074847324e+01
1.718686199060e+01
1.141784492695e+01
1.693737825395e+01
-4.265510968615e+01
-1.794869624688e+01
2.073851711500e+01
1.313278103663e+01
-7.997470595456e+00
2.204943406558e+01
1.925247401718e+01
1.323811183118e+01
1.451393314876e+01
1.027673416523e+01
5.186421807984e+00
2.284356742047e+01
1.750487207178e+01
1.301989503994e+00
2.315421765918e+01
2.197699456377e+01
1.874619158626e+01
2.308155533917e+01
2.308244497953e+01
2.820923024855e+01
1.955236466475e+01
-1.460068664889e+01
2.125889036386e+01
1.889843403261e+01

SCALARS node_materi_stress_average_a_sig float
LOOKUP_TABLE default
-6.682489539368e+00
-1.487697601781e+01
-2.419011405441e+02
-1.206426803725e+02
-1.151377052296e+01
-2.100274875209e+01
-3.076524638143e+01
-4.451478201534e+01
-5.966648520955e+01
-7.412743970432e+01
-8.805160664466e+01
-1.014688566074e+02
-1.144164453188e+02
-1.270605327193e+02
-1.395681507537e+02
-1.514985036326e+02
-1.622014831761e+02
-1.736305302710e+02
-1.852418707889e+02
-1.969842261584e+02
-2.095164159697e+02
-2.222265600105e+02
-2.343906925383e+02
-1.212872148812e+02
-1.206913389070e+02
-1.210641717219e+02
-1.213367280263e+02
-1.215679066859e+02
-1.225698847488e+02
-1.239307649262e+02
-1.248704257126e+02
-1.270317823287e+02
-1.288198471183e+02
-1.310282211979e+02
-1.342272827233e+02
-1.382887468293e+02
-1.417167128364e+02
-1.460576952101e+02
-1.502376606526e+02
-1.555130254422e+02
-1.616959723219e+02
-1.674984987783e+02
-1.733815923967e+02
-1.789492688368e+02
-1.845685064618e+02
-1.900263875819e+02
-1.952745181340e+02
-2.004221430623e+02
-2.053389387485e+02
-2.098153105922e+02
-2.138543528335e+02
-2.174820671939e+02
-2.213911871216e+02
-2.243075311475e+02
-2.266266170225e+02
-2.294399252011e+02
-2.318964102132e+02
-2.340724690802e+02
-2.359685057561e+02
-2.374354650828e+02
-2.385765514503e+02
-2.393480339998e+02
-2.398830068104e+02
-2.407099377429e+02
-2.416887214469e+02
-2.421317819763e+02
-2.407208075858e+02
-2.422356333011e+02
-2.417904984911e+02
-2.422124397001e+02
-2.426249509958e+02
-2.425599024022e+02
-2.193397159358e+01
-3.382882852171e+01
-4.568633817863e+01
-5.719005596245e+01
-6.886425043666e+01
-8.061832105218e+01
-9.197368147823e+01
-1.030215703851e+02
-1.146660922851e+02
-6.014975104306e+01
-3.766997098894e+01
-3.475409096844e+01
-3.200565433957e+01
-3.089415120928e+01
-2.979236590082e+01
-2.901658607184e+01
-2.782447819294e+01
-2.757591683731e+01
-2.861930989923e+01
-3.165389792843e+01
-1.395525755287e+01
-1.432742492634e+01
-1.436788277358e+01
-1.406250911755e+01
-1.578298223807e+01
-1.455106120966e+01
-1.446170587462e+01
-1.468313927918e+01
-1.547099034542e+01
-1.564563408864e+01
-1.623385660940e+01
-1.762485855423e+01
-2.075089881637e+01
-2.749458079836e+01
-8.292674692684e+01
-9.414520484147e+01
-9.690283523468e+01
-8.839867549642e+01
-5.610976421171e+01
-2.559248314049e+01
-1.409021072683e+01
-1.048868548984e+01
-8.991760005746e+00
-8.207957720272e+00
-7.826961164288e+00
-7.992985142996e+00
-7.510594779511e+00
-6.893946861745e+00
-6.609822392950e+00
-6.555649037477e+00
-6.449886106396e+00
-6.221116855741e+00
-6.065131144569e+00
-3.996566346776e+01
-3.309461077378e+01
-3.116635328238e+01
-3.069027970876e+01
-2.999032931996e+01
-2.850202832693e+01
-2.743890341068e+01
-2.790272104086e+01
-2.965642660353e+01
-3.603390151401e+01
-3.735815863810e+01
-2.244086573797e+02
-1.359476435838e+01
-6.580642941044e+01
-2.328704742298e+02
-3.461346894590e+01
-1.338332973237e+02
-2.123877814491e+02
-3.334381552476e+01
-1.970600363965e+02
-3.463269309448e+01
-2.365070509594e+02
-1.055362115130e+01
-1.766778291389e+02
-4.281496697905e+01
-8.184688801239e+01
-1.661150329882e+02
-1.600407299890e+02
-1.401649374104e+02
-1.185411583163e+02
-1.215232111550e+02
-1.296184187058e+02
-3.064662266873e+01
-2.204707738255e+01
-2.163919267730e+01
-6.314184973376e+01
-2.364639167288e+02
-7.929906519290e+01
-1.019805084775e+01
-2.027813374734e+02
-1.955884834987e+01
-3.750650050919e+01
-1.474423282803e+02
-2.061078514171e+02
-1.872549483531e+02
-2.176631665638e+02
-2.290680265524e+02
-2.524293741374e+01
-2.390948808268e+01
-2.326888470062e+02
-8.601285591354e+01
-1.176631401272e+01
-1.080758385416e+02
-1.189616317780e+02
-3.500148204434e+01
-3.546086597250e+01
-3.352946817093e+01
-3.682788411357e+01
-4.277663462437e+01
-4.076257988080e+01
-2.386792735731e+02
-9.612306938133e+00
-1.081103973426e+02
-4.299041282116e+01
-5.231442209217e+01
-5.314262667062e+01
-6.437111078360e+01
-6.668179447241e+01
-7.654143563483e+01
-7.427564298252e+01
-8.622294908794e+01
-8.389834934345e+01
-7.949169543126e+01
-9.575468509421e+01
-9.344621563848e+01
-1.052411318946e+02
-1.029275520960e+02
-9.144049011030e+01
-1.008388182296e+02
-8.976455555541e+01
-9.906371034943e+01
-1.101246504993e+02
-1.081831907054e+02
-9.746595054900e+01
-1.064233628564e+02
-9.597619029269e+01
-1.047596087351e+02
-9.449960070679e+01
-1.032136669618e+02
-1.132976441178e+02
-1.115686070907e+02
-1.016861556429e+02
-1.098446027014e+02
-1.000954560317e+02
-1.078709459474e+02
-1.175456702848e+02
-1.151840054957e+02
-1.054276084950e+02
-1.125719462007e+02
-1.029545050466e+02
-1.098981748709e+02
-1.004047843495e+02
-1.071284351560e+02
-1.166480066083e+02
-1.137055788556e+02
-1.043981776776e+02
-1.106682285638e+02
-1.201222240583e+02
-1.167707283942e+02
-1.263524970051e+02
-1.228088353100e+02
-1.134326142068e+02
-1.191107799085e+02
-1.286534296734e+02
-1.247575583810e+02
-1.152065980730e+02
-1.205685627293e+02
-1.307260688594e+02
-1.261834678435e+02
-1.159688125483e+02
-1.211069967236e+02
-1.320432522558e+02
-1.267096523793e+02
-1.155233143854e+02
-1.209489244930e+02
-1.323608367379e+02
-1.264057505769e+02
-1.377430990910e+02
-1.147173893415e+02
-1.200504400613e+02
-1.080384777625e+02
-1.133554430403e+02
-1.248878100831e+02
-1.010297838113e+02
-9.593085290418e+01
-1.063740985877e+02
-1.186510097934e+02
-9.371554756805e+01
-9.911395178243e+01
-8.612022555315e+01
-9.326297523283e+01
-1.193132020500e+02
-9.157894630608e+01
-7.826003868093e+01
-7.287533067695e+01
-6.468937181216e+01
-7.025238894110e+01
-8.262050040147e+01
-7.303408139005e+01
-8.590295292531e+01
-7.704445296393e+01
-7.013910080731e+01
-1.077873684314e+02
-9.495052363484e+01
-8.686573085128e+01
-9.173830142104e+01
-1.299154794180e+02
-1.044760655255e+02
-9.703317888149e+01
-1.099036887876e+02
-1.434189309548e+02
-1.485772971364e+02
-1.538919557336e+02
-1.591309959282e+02
-1.643579239521e+02
-1.699734541454e+02
-1.644905684489e+02
-1.756828070936e+02
-1.699646172670e+02
-1.757386545042e+02
-1.697534000346e+02
-1.813486019816e+02
-1.753778099157e+02
-1.869767547463e+02
-1.807653002994e+02
-1.695325577341e+02
-1.747792114812e+02
-1.636125334429e+02
-1.363270201666e+02
-1.400328945983e+02
-1.465846332039e+02
-1.502097425801e+02
-1.574439072099e+02
-1.615119780532e+02
-1.690404102137e+02
-1.647098446708e+02
-1.146574896046e+02
-1.017750383598e+02
-9.559414212946e+01
-9.338531325464e+01
-8.726022580983e+01
-8.549617119712e+01
-7.945251790172e+01
-7.833613555870e+01
-8.375219193222e+01
-7.736071664260e+01
-8.167852324214e+01
-7.575084843012e+01
-7.846945130277e+01
-1.216505849939e+02
-1.539016501084e+02
-1.657457804770e+02
-1.578569955577e+02
-5.948462423192e+01
-1.861591583183e+02
-1.816049749200e+02
-1.752096068422e+02
-1.764549875883e+02
-5.639337632783e+01
-7.225102555342e+01
-7.302809491238e+01
-8.951493409434e+01
-8.106744650202e+01
-1.874461304467e+02
-6.194163814259e+01
-1.876057024487e+02
-7.193107266857e+01
-1.799764570437e+02
-1.915529168739e+02
-1.589398526820e+02
-1.700501423196e+02
-1.618925658480e+02
-8.538693171747e+01
-8.099311852117e+01
-7.353624653673e+01
-7.584266296659e+01
-8.407920047460e+01
-7.835313435006e+01
-6.951826524027e+01
-7.136420665581e+01
-8.111101375672e+01
-7.395010780606e+01
-6.370351607322e+01
-6.594740142152e+01
-1.982192980123e+02
-7.074215179802e+01
-8.027130375620e+01
-1.939009598924e+02
-1.810908127801e+02
-9.336065759504e+01
-8.536279671292e+01
-7.284058969699e+01
-7.766001282513e+01
-8.986456395957e+01
-8.255771425755e+01
-7.023855344337e+01
-7.550471838786e+01
-6.313619650588e+01
-6.872733494371e+01
-8.080459155168e+01
-7.434439189664e+01
-6.224128928814e+01
-6.808652098677e+01
-5.597458790774e+01
-6.199267947946e+01
-7.394792628194e+01
-4.818456852812e+01
-1.717657230186e+02
-1.838938208161e+02
-1.030171587102e+02
-1.153849753771e+02
-1.223256724583e+02
-1.279084113220e+02
-6.797228257432e+01
-7.978756367356e+01
-6.587738178372e+01
-6.629280594009e+01
-1.016140778434e+02
-1.851727978863e+02
-1.739296792722e+02
-9.025942382725e+01
-8.176759613255e+01
-8.040565552669e+01
-7.167069369627e+01
-7.288258634469e+01
-7.054478928240e+01
-1.637770450517e+02
-8.619786495296e+01
-6.776773285706e+01
-5.476346569081e+01
-1.970026422333e+02
-1.604181884825e+02
-1.237993576757e+02
-1.322608134849e+02
-1.348527729904e+02
-1.435942991318e+02
-1.464698853651e+02
-1.553430672538e+02
-1.522059158505e+02
-1.743611782912e+02
-1.641085540610e+02
-5.593194999376e+01
-1.464061360525e+02
-8.411295191326e+01
-4.262872448581e+01
-5.398486564312e+01
-5.342629306129e+01
-6.777483639397e+01
-1.999273055115e+02
-1.582820286116e+02
-1.491284891875e+02
-6.271202198699e+01
-6.371057090506e+01
-1.826408377628e+02
-6.410002834935e+01
-5.758164284067e+01
-5.039420097021e+01
-3.821731310337e+01
-5.254692659087e+01
-9.450914167030e+01
-7.402989312755e+01
-6.715061997622e+01
-6.758341583135e+01
-6.703394215681e+01
-7.386793111467e+01
-8.551003565515e+01
-1.345164656554e+02
-1.398948881130e+02
-1.932166545089e+02
-5.697225739730e+01
-9.147148273486e+01
-1.671132967730e+02
-1.561345342218e+02
-1.208868646638e+02
-5.927108092502e+01
-5.972982996264e+01
-9.090552637044e+01
-6.872605843496e+01
-5.936452015704e+01
-2.058012594596e+02
-1.016386311345e+02
-1.607395557991e+02
-1.488232045153e+02
-1.730054673304e+02
-4.482070161326e+01
-2.065830125252e+02
-1.904420077497e+02
-1.605036046938e+02
-1.516742479504e+02
-7.524281496412e+01
-6.823757876131e+01
-6.001664369279e+01
-6.056297415459e+01
-7.213711399809e+01
-7.683537946403e+01
-7.878404145207e+01
-6.905140835991e+01
-6.779002616425e+01
-7.388010757828e+01
-6.447042048506e+01
-8.907947348607e+01
-1.333179145729e+02
-1.291049830578e+02
-1.584106835571e+02
-1.486168724138e+02
-9.250249201640e+01
-9.777030675555e+01
-4.991294379040e+01
-4.370262248104e+01
-4.620507542681e+01
-4.194182026066e+01
-1.428568295064e+02
-2.001871792795e+02
-1.050398407080e+02
-1.131747864473e+02
-1.100117105697e+02
-1.987428831220e+02
-9.918733297237e+01
-1.427858171973e+02
-6.787573057146e+01
-1.274065785811e+02
-3.335449798493e+01
-1.215384044949e+02
-2.026378005386e+02
-2.093727849106e+02
-1.868925152202e+02
-5.138427156821e+01
-1.347754444116e+02
-1.319608405101e+02
-5.784975224514e+01
-5.667699792328e+01
-6.655470570297e+01
-5.567574921617e+01
-9.429047448222e+01
-8.737995724010e+01
-1.710924705692e+02
-1.760638648511e+02
-1.632005890234e+02
-1.544283835477e+02
-1.953240142000e+02
-1.906398730441e+02
-7.329321704848e+01
-5.432589640125e+01
-1.060719881437e+02
-5.911578220589e+01
-2.126631717994e+02
-2.063600558295e+02
-6.649206068791e+01
-6.208920945303e+01
-9.723044073524e+01
-5.202968775411e+01
-5.183055745153e+01
-5.200707884132e+01
-2.281617130333e+02
-1.912125363537e+01
-2.151439089285e+02
-7.492429412632e+01
-1.032092790949e+02
-1.421190412992e+02
-8.829493109726e+01
-1.862664988257e+02
-9.079033509442e+01
-1.032362889482e+02
-4.446683755901e+01
-3.712615492670e+01
-5.162343271600e+01
-6.629635353796e+01
-6.109001565077e+01
-9.156350385692e+01
-8.958337055708e+01
-9.664809578976e+01
-5.989393005269e+01
-7.196321576151e+01
-1.409561869875e+02
-1.356602206722e+02
-1.308225005095e+02
-1.331561565053e+02
-1.260427227434e+02
-1.624505446140e+02
-1.518115264791e+02
-1.453489644613e+02
-1.036165970300e+02
-1.101503124375e+02
-1.006581383188e+02
-9.681712554203e+01
-9.823778138661e+01
-1.130750092472e+02
-2.216482067217e+02
-2.160666377938e+02
-2.950896585350e+01
-3.779771034589e+01
-5.226437635824e+01
-5.363652908284e+01
-1.211840789896e+02
-1.188531979318e+02
-1.252959592250e+02
-6.393867444247e+01
-1.571159232427e+02
-2.109010033727e+02
-2.035662290554e+02
-2.195319955648e+02
-1.782980328914e+02
-1.906863430686e+02
-1.853210975494e+02
-6.985617217384e+01
-9.893334326573e+01
-3.679718198936e+01
-7.264614679813e+01
-3.077882217262e+01
-3.757721199966e+01
-2.424203287732e+01
-4.963096217039e+01
-3.602520608946e+01
-4.607580774799e+01
-2.351316146354e+01
-1.167601749696e+02
-2.209012719189e+01
-2.593647694235e+01
-2.188865522716e+02
-2.123215279436e+02
-2.244991017174e+02
-2.178194611882e+02
-2.057379423739e+02
-2.117263465073e+02
-3.006090246034e+01
-2.255332205505e+02
-2.178428104830e+02
-2.315245039372e+02
-4.553045379300e+01
-6.087398027446e+01
-5.201791220906e+01
-4.233893049271e+01
-1.675771979305e+02
-1.560679823822e+02
-1.961650098610e+02
-1.843920970335e+02
-3.094526752775e+01
-3.009278677199e+01
-4.110475584068e+01
-3.940236750392e+01
-5.036618192026e+01
-4.857635008822e+01
-5.970337709451e+01
-1.883677988641e+02
-4.367007958602e+01
-4.756996857312e+01
-2.033782560714e+02
-1.976020662582e+02
-5.475076222457e+01
-4.425952213156e+01
-2.207348446750e+02
-8.389926574033e+01
-1.252224844916e+02
-6.534892369691e+01
-6.266685501604e+01
-8.595927477808e+01
-6.543645361027e+01
-6.146988319917e+01
-5.295253916205e+01
-1.738909223639e+02
-3.463063816720e+01
-5.219510501701e+01
-6.139913330811e+01
-4.493632169369e+01
-1.905172872266e+02
-9.105076175812e+01
-8.417524700368e+01
-5.954674517485e+01
-6.954868417830e+01
-8.187933787813e+01
-6.231081707671e+01
-6.080651705722e+01
-9.787869254636e+01
-5.359575822794e+01
-4.268794184937e+01
-8.824771719610e+01
-1.070136808003e+02
-1.159122504611e+02
-1.272714069359e+02
-1.250597877553e+02
-1.133222899215e+02
-1.225943696891e+02
-1.340733288128e+02
-1.323553368946e+02
-1.457877925518e+02
-1.418518350332e+02
-1.295078010998e+02
-1.385787879975e+02
-1.501766873956e+02
-1.266434561714e+02
-2.080649061551e+02
-9.563821324347e+01
-6.577882638349e+01
-5.616425234158e+01
-8.545059310766e+01
-1.543930977822e+02
-1.441782333667e+02
-8.079283174664e+01
-1.818828218526e+02
-7.057703120235e+01
-7.195227429488e+01
-1.922514566608e+02
-1.040838189458e+02
-1.011633599236e+02
-9.184584094601e+01
-1.366125920720e+02
-5.965971104458e+01
-2.096152104892e+02
-1.432596849756e+02
-1.362839381287e+02
-1.264070519705e+02
-1.199779384528e+02
-2.217691405145e+02
-2.123929753168e+02
-2.147248015386e+02
-2.020614426444e+02
-2.267031911755e+02
-1.662155790900e+02
-1.718968939260e+02
-8.753921765967e+01
-9.288336118913e+01
-1.018366342191e+02
-9.748659847217e+01
-8.903834655630e+01
-9.307339088862e+01
-1.013582136296e+02
-8.854140472595e+01
-1.448480937384e+02
-2.307548703251e+02
-1.588649853609e+02
-1.533594812716e+02
-1.429518522014e+02
-1.238520267283e+02
-1.304758497466e+02
-1.419629848018e+02
-1.169676909878e+02
-1.405637755878e+02
-2.320726993993e+02
-1.495074083715e+02
-1.253128297500e+02
-2.670032936050e+01
-4.179650144719e+01
-4.700869915190e+01
-5.795735472278e+01
-3.972711044231e+01
-1.462517584248e+02
-1.514727804433e+02
-1.451994250028e+02
-1.566428200248e+02
-1.501387746908e+02
-1.393920375731e+02
-1.615608336932e+02
-1.542568097289e+02
-2.274891515491e+01
-4.125948819804e+01
-4.306440845647e+01
-3.404089526841e+01
-4.836394414179e+01
-5.539067627121e+01
-6.035091034358e+01
-6.294942225660e+01
-5.406899712085e+01
-1.897726499352e+01
-2.919744969461e+01
-1.554528810870e+01
-2.566483753307e+01
-4.008398139729e+01
-5.077552024660e+01
-2.349719029877e+02
-1.206825725320e+02
-1.145524202089e+02
-1.022174999273e+02
-1.089383930681e+02
-1.256076958304e+02
-9.514072621937e+01
-9.026254002859e+01
-1.005948055427e+01
-1.781304925260e+01
-1.694736270516e+01
-2.645463881360e+01
-2.653922414219e+01
-1.827261756777e+01
-1.846883596475e+01
-1.025276372043e+01
-1.865608564919e+01
-2.769044646502e+01
-1.018529575015e+01
-7.489638300196e+01
-8.119021749612e+01
-2.334120027391e+02
-2.260855290947e+01
-1.256961287677e+01
-1.160498967797e+02
-1.208556112025e+02
-1.197536674874e+02
-2.155580403645e+02
-2.217846993847e+02
-1.153943062492e+02
-8.076646564006e+01
-1.365082964094e+02
-9.704808011869e+01
-6.576397443212e+01
-8.000898511903e+01
-1.791042434991e+02
-1.642688261952e+02
-2.037566621306e+02
-1.687931363060e+02
-1.926003064417e+02
-2.161622640631e+02
-4.512348870261e+01
-5.632080664928e+01
-4.990369472647e+01
-7.997996230844e+01
-8.378598234986e+01
-1.337943045340e+02
-5.101074074316e+01
-1.799049232484e+02
-7.743627243586e+01
-1.379058987874e+02
-1.116929943822e+02
-8.848408870310e+01
-7.670175214405e+01
-9.805807147125e+01
-1.316827333776e+02
-1.817055494652e+02
-8.563837007073e+01
-1.240214968812e+01
-1.878354767936e+02
-1.537023155919e+02
-6.499530314511e+01
-1.734825014210e+02
-6.237242492653e+01
-8.754049541516e+01
-1.158206516880e+02
-5.448419107705e+01
-3.763324252763e+01
-4.348688378973e+01
-2.126153841787e+02
-9.816054363544e+01
-7.590037338996e+01
-1.324967506397e+02
-9.311824849841e+01
-3.883276632111e+01
-1.025578413824e+02
-1.222372749482e+02
-1.887936077659e+02
-1.534760870880e+02
-8.184058816384e+01
-1.999391617372e+02
-1.233601117859e+02
-9.925845095266e+01
-1.374657403994e+02
-1.076687011331e+02
-9.731525688092e+01
-1.368265074364e+02
-1.780539823611e+02
-7.614548654946e+01
-1.151959732182e+02
-1.122695506099e+02
-1.196276825486e+02
-1.730584166375e+02
-1.939422158085e+02
-7.273574399065e+01
-7.878746424111e+01
-6.818033839443e+01
-1.670724973863e+02
-1.105500750800e+02
-8.298960324991e+01
-1.934323988046e+02
-1.085608057228e+02
-1.368137461904e+02
-5.340739916035e+01
-6.071866790791e+01
-9.107201413404e+01
-1.195201087778e+02
-1.479764240054e+02
-1.316001800618e+02
-1.992023000688e+02
-1.807477185385e+02
-3.913244863864e+01
-4.901653704344e+01
-2.049682119821e+02
-1.387554854791e+02
-1.857273747888e+02
-1.431799687817e+02
-1.843418549336e+02
-4.470237638929e+01
-2.108350006329e+02
-1.789472088346e+02
-8.224877630562e+01
-1.961549155053e+01
-2.250889157096e+02
-1.914789418285e+02
-1.297524989240e+02
-1.347958355216e+02
-3.550820260410e+01
-1.531773986618e+02
-1.171571181183e+02
-1.330991817259e+02
-1.962142413170e+02
-8.884355607257e+01
-1.471660269083e+02
-1.498171453873e+02
-2.690933508720e+01
-4.632568166367e+01
-1.524133911260e+02
-9.633432291573e+01
-1.412065634267e+02
-1.992296381227e+02
-1.576199989057e+02
-1.047110563651e+02
-1.627712822533e+02
-3.401025852011e+01
-9.836500873051e+01
-1.678691682166e+02
-1.284039024468e+02
-2.925757011947e+01
-1.376277642930e+02
-2.088133650688e+02
-1.029073435802e+02
-1.475212917446e+02
-1.105635029368e+02
-3.339882262811e+01
-1.578571307500e+02
-1.400243605489e+02
-1.454064322042e+02
-1.292768367448e+02
-1.687661190508e+02
-4.404902980189e+01
-7.588944453408e+01
-6.335444685651e+01
-1.099558593285e+02
-1.424974960755e+02
-3.618187318338e+01
-1.173091948975e+02
-4.739923987446e+01
-1.062001978347e+02
-1.658563940322e+02
-5.225876140453e+01
-1.110090084003e+02
-6.795913023841e+01
-1.062224580484e+02
-1.390881020003e+02
-1.107054514882e+02
-1.047355897478e+02
-1.083071223830e+02
-1.094967354506e+02
-1.173058117492e+02
-2.358424740009e+02
-2.869745101989e+01
-3.226399806239e+01
-8.282491391891e+01
-4.505220275333e+01
-9.134520987252e+01
-1.239294628845e+02
-2.919059311848e+01
-8.391647478106e+01
-1.542325031633e+02
-2.019457491507e+02
-6.927418515008e+01
-1.930045383483e+02
-1.535789395384e+02
-9.630749729468e+01
-1.914568018430e+01
-2.352151693694e+01
-1.789149917760e+02
-3.289711222130e+01
-4.327312197480e+01
-4.412958275792e+01
-8.652095954867e+01
-4.218941380400e+01
-3.508898058384e+01
-2.092867988047e+02
-3.252625003216e+01
-1.693272648092e+02
-3.607344516769e+01
-1.194825654068e+02
-1.958928065441e+02
-2.358222881384e+02
-1.820131159481e+02
-4.593800422991e+01
-5.152793821143e+01
-1.749429465265e+02
-7.884521321806e+01
-2.372859693461e+02
-3.345138517506e+01
-1.085556316492e+02
-6.756778191481e+01
-1.081036637078e+02
-1.357960975269e+02
-4.441941126172e+01
-5.897071322632e+01
-2.276748256692e+02
-1.436399213370e+02
-4.949090810160e+01
-6.901962136107e+01
-1.090596897668e+02
-6.427371160122e+01
-2.236455564290e+02
-1.469833736321e+02
-2.266526195882e+02
-2.589980795087e+01
-1.928154118448e+01
-2.235481688990e+02
-1.652818170378e+02
-6.802699821028e+01
-1.263625612131e+02
-5.410276615628e+01
-1.826863405705e+01
-1.832449840567e+01
-2.373409328216e+02
-1.132514434093e+02
-1.201366005923e+02
-3.805197742957e+01
-7.746556437105e+01
-1.775894236675e+02
-3.373348863554e+01
-1.121650935322e+02
-2.212530257857e+02
-1.311443142464e+02
-2.188194972707e+02
-7.198359778100e+01
-1.956869954790e+02
-2.066598602707e+02
-1.879170490539e+01
-1.372056757611e+02
-9.723802762845e+01
-3.682080623948e+01
-1.182070527267e+02
-8.838747035806e+00
-1.794076224782e+01
-2.386157916031e+02
-3.387979450684e+01
-3.750233506682e+01
-1.609172326001e+02
-1.462474110289e+02
-8.986907435079e+01
-5.317684639123e+01
-8.251808977234e+01
-5.847726984884e+01
-2.015723307799e+02
-1.249468642430e+02
-5.080277377923e+01
-5.605720205147e+01
-1.562942979258e+02
-1.295635301307e+02
-1.699105183364e+02
-2.027376660900e+02
-5.057467048600e+01
-1.564388604261e+02
-1.774565293491e+01
-2.279356009359e+02
-1.347672000660e+02

SCALARS node_materi_stress_size_dev_sd_sig float
LOOKUP_TABLE default
3.708891543041e+00
1.340617920903e+01
1.836717106664e+02
9.012222807224e+01
1.137564639495e+01
2.376516400514e+01
3.445417145283e+01
4.339354995930e+01
4.995462758331e+01
5.760483246794e+01
6.608862442996e+01
7.515862004540e+01
8.471046818212e+01
9.469480403468e+01
1.052784157822e+02
1.155094947844e+02
1.247993975844e+02
1.352293776374e+02
1.457782386019e+02
1.551595084061e+02
1.634842073640e+02
1.716317198821e+02
1.792571465212e+02
9.097627566886e+01
9.067679300259e+01
9.110056983141e+01
9.158068384667e+01
9.176584626499e+01
9.300054467475e+01
9.426516403840e+01
9.591081139595e+01
9.831308197972e+01
1.008329793238e+02
1.032655293090e+02
1.072070223030e+02
1.114037114205e+02
1.156926723079e+02
1.199938793703e+02
1.244973735350e+02
1.293219053344e+02
1.346438023847e+02
1.396921180739e+02
1.444910822691e+02
1.487971880880e+02
1.527211751351e+02
1.564920687003e+02
1.598679265584e+02
1.630091663063e+02
1.658959037313e+02
1.684340620003e+02
1.706395108471e+02
1.725199175220e+02
1.744338688146e+02
1.760510657603e+02
1.771959842228e+02
1.785426341746e+02
1.797649719081e+02
1.808549228018e+02
1.816978996626e+02
1.824296956602e+02
1.828721409426e+02
1.831831621449e+02
1.833204271649e+02
1.836039557397e+02
1.840086442268e+02
1.841688201607e+02
1.833270663860e+02
1.839962406755e+02
1.836958458987e+02
1.838677631153e+02
1.841132500808e+02
1.840752769266e+02
1.112187617574e+01
1.321393955140e+01
2.021681798094e+01
2.882083370958e+01
3.849726107505e+01
4.875421936026e+01
5.955411457082e+01
7.078916379427e+01
8.266564612370e+01
5.075383915319e+01
4.149777884751e+01
5.192391908363e+01
4.817591576924e+01
4.683842839752e+01
4.559205470152e+01
4.424340988802e+01
4.262100335383e+01
4.173400915594e+01
4.178790420175e+01
4.429006281994e+01
1.376398219428e+01
1.340788190853e+01
1.342168964727e+01
1.375287489827e+01
1.327151857606e+01
1.378148055919e+01
1.409598871607e+01
1.406260728109e+01
1.412004804063e+01
1.478358754431e+01
1.587464943358e+01
1.779305797985e+01
2.188641400034e+01
3.089524658697e+01
3.815529175428e+01
3.601425490526e+01
3.799376734642e+01
3.737989320036e+01
3.851118961163e+01
2.754980889651e+01
1.153021227488e+01
6.495970500879e+00
4.646226541110e+00
4.290840908526e+00
4.016017408325e+00
3.995744354780e+00
4.190702150893e+00
3.932834618572e+00
3.752810931123e+00
3.743597733091e+00
3.743811959092e+00
3.601179339385e+00
3.500423044857e+00
5.611623037357e+01
4.994688243228e+01
4.723925957177e+01
4.634010985657e+01
4.598953835109e+01
4.405141926938e+01
4.207249378278e+01
4.133696663822e+01
4.251894794516e+01
4.723294348931e+01
4.995425362916e+01
1.772786179289e+02
6.479411154324e+00
4.113931111448e+01
1.808260436476e+02
4.602294299568e+01
1.004099191512e+02
1.710318928772e+02
4.469769922703e+01
1.618211886231e+02
4.415308770736e+01
1.815401898748e+02
7.427785535791e+00
1.469674611322e+02
4.401233930918e+01
6.224747862732e+01
1.285624777900e+02
1.321648733658e+02
1.118715002292e+02
8.699813449568e+01
8.977883160148e+01
9.958425025272e+01
2.578479779945e+01
1.412066919042e+01
1.233862839409e+01
3.357787868258e+01
1.808886472683e+02
3.964941851417e+01
8.849886855638e+00
1.591072087819e+02
1.173758053288e+01
3.900955976504e+01
1.197155466768e+02
1.673943694151e+02
1.550447810165e+02
1.740190812703e+02
1.793953527937e+02
2.313418188707e+01
1.722295754207e+01
1.801687871203e+02
5.388608852545e+01
6.705940185724e+00
8.005828597087e+01
8.762848031044e+01
4.555376243299e+01
4.737042000932e+01
4.429398140980e+01
4.507344873028e+01
5.587160344092e+01
1.691588608816e+01
1.820111881784e+02
8.460451337260e+00
7.606757679708e+01
3.804153546390e+01
4.205724687369e+01
3.811801846815e+01
4.718923949311e+01
4.500119586189e+01
5.442110494470e+01
5.584490737180e+01
6.398514785884e+01
6.513086458207e+01
5.336406648954e+01
7.378342747184e+01
7.474119916253e+01
8.369819455245e+01
8.449372799224e+01
7.590416471928e+01
8.547872937846e+01
7.688333072644e+01
8.632099189460e+01
9.494165884491e+01
9.569840706580e+01
8.693699819690e+01
9.615937634540e+01
8.742920544222e+01
9.640549980008e+01
8.775125859047e+01
9.639138048016e+01
1.052031582803e+02
1.048395384094e+02
9.614625887213e+01
1.042305588229e+02
9.574241470712e+01
1.035568299111e+02
1.118947394360e+02
1.105911359965e+02
1.023228678331e+02
1.089629562419e+02
1.010810420926e+02
1.076558014561e+02
1.000784172644e+02
1.063906623653e+02
1.136901050393e+02
1.120502469354e+02
1.047472372673e+02
1.098427284091e+02
1.170099591051e+02
1.141180817703e+02
1.212095201891e+02
1.176924622907e+02
1.106583665798e+02
1.134927401892e+02
1.206430931120e+02
1.159670124175e+02
1.087203004332e+02
1.109117714892e+02
1.189814765138e+02
1.134497017633e+02
1.055708581093e+02
1.072903684552e+02
1.153469649290e+02
1.088799392815e+02
1.004160537766e+02
1.021742732597e+02
1.111443866411e+02
1.044628082089e+02
1.138855408124e+02
9.525705926084e+01
9.766757148859e+01
8.826486669673e+01
9.087837376753e+01
1.190104479358e+02
8.138943834757e+01
7.901791185667e+01
8.425867672676e+01
9.398294713801e+01
7.474541046849e+01
7.788004046067e+01
6.843075448038e+01
9.302951493968e+01
1.041677206325e+02
7.178366458515e+01
6.247170401504e+01
5.897575277773e+01
5.327634667260e+01
4.408447525864e+01
5.298971584442e+01
4.310444228053e+01
5.348360205245e+01
4.401185860238e+01
5.692117154381e+01
8.332394848314e+01
6.342829519585e+01
7.843561706712e+01
8.761534750720e+01
1.241955057863e+02
8.125027755318e+01
7.531932821914e+01
8.471883773870e+01
1.204983247618e+02
1.237090096793e+02
1.303890279060e+02
1.336958698123e+02
1.401475492346e+02
1.431736156676e+02
1.368539986362e+02
1.460672057832e+02
1.399050331706e+02
1.487154264292e+02
1.458479445540e+02
1.489834488041e+02
1.430361329137e+02
1.519149993574e+02
1.462407324214e+02
1.365836991828e+02
1.399687884494e+02
1.300839848012e+02
1.284592358184e+02
1.318410156635e+02
1.363453191300e+02
1.395619061032e+02
1.438708941663e+02
1.466209663769e+02
1.508949661407e+02
1.479136124222e+02
9.358937805883e+01
1.026585583561e+02
9.741510573558e+01
9.562607503946e+01
9.017637150541e+01
8.870988195139e+01
8.297180785977e+01
8.183702235119e+01
8.663130243848e+01
8.006124770948e+01
8.368976662004e+01
7.760949226531e+01
7.968653905497e+01
1.135977014019e+02
1.422277131308e+02
1.489055227716e+02
1.441812513234e+02
4.947009081684e+01
1.495002681046e+02
1.536715406989e+02
1.508274837891e+02
1.549565303643e+02
4.803871901903e+01
7.591661560330e+01
7.636184678224e+01
5.499053388098e+01
4.598893931835e+01
1.581332503693e+02
5.175823831972e+01
1.542331466734e+02
7.415315261540e+01
1.434910443840e+02
1.527708584002e+02
1.302161747983e+02
1.508772664491e+02
1.458726717141e+02
8.614851800184e+01
8.084577233093e+01
7.434932632608e+01
7.426010007758e+01
8.152050703809e+01
7.418826737329e+01
6.633393803286e+01
6.554893357022e+01
7.422566639309e+01
6.531410929221e+01
5.516007994131e+01
5.545859942653e+01
1.578500046120e+02
7.249929097812e+01
6.762208126704e+01
1.609062890744e+02
1.574473787012e+02
5.754295309847e+01
4.911649592535e+01
3.793300342198e+01
4.168046678568e+01
5.324486307297e+01
4.621702910712e+01
3.530683969436e+01
4.007669485603e+01
2.988568473777e+01
3.475250279156e+01
4.535608480139e+01
4.011781514535e+01
3.011804493247e+01
3.538737038098e+01
2.593262551212e+01
3.097381665922e+01
4.097678703049e+01
4.369923402735e+01
1.518969011698e+02
1.587300179515e+02
7.894537963303e+01
8.785192533496e+01
9.423981486073e+01
9.760801934679e+01
3.634605764963e+01
4.683348905914e+01
6.941123065521e+01
6.928405871900e+01
6.677930730077e+01
1.471506429312e+02
1.372496315573e+02
8.745703481631e+01
7.919751814747e+01
7.916265051138e+01
7.074383021726e+01
7.096010107284e+01
7.081433046107e+01
1.426241028294e+02
5.107958242135e+01
5.537767382341e+01
4.530254959787e+01
1.560865985898e+02
1.443874861633e+02
1.137095481047e+02
1.216662233335e+02
1.216220237808e+02
1.292337646983e+02
1.293845788524e+02
1.367302879648e+02
1.362376214871e+02
1.525582578978e+02
1.434628521659e+02
2.663205311574e+01
1.372145604850e+02
7.466196847152e+01
3.952061681645e+01
4.390515946486e+01
4.682214657872e+01
5.497402221567e+01
1.650159840568e+02
1.371462108666e+02
1.294271776962e+02
6.281946098523e+01
6.312136839986e+01
1.573106997516e+02
3.422135124232e+01
2.569859047187e+01
2.117953019823e+01
3.822157278048e+01
4.435417520013e+01
5.805945206346e+01
7.670593361516e+01
6.944403275980e+01
6.925014546259e+01
6.920887664986e+01
4.180399258362e+01
5.252650201176e+01
1.039055394436e+02
1.074153162718e+02
1.621224906499e+02
4.588867540324e+01
5.792043685196e+01
1.482309494323e+02
1.402689825248e+02
9.118884924161e+01
6.254334426068e+01
6.313126482690e+01
8.272476790907e+01
5.715394778072e+01
4.998460453609e+01
1.686592906309e+02
6.549399065360e+01
1.425975572652e+02
1.355591155520e+02
1.495996740887e+02
3.421335258636e+01
1.678849944571e+02
1.509013614458e+02
1.371345479145e+02
1.295211650072e+02
7.717704174381e+01
6.988644765180e+01
6.218898151027e+01
6.246640919341e+01
5.735523169185e+01
7.778847975632e+01
6.869053807029e+01
6.024870845236e+01
6.136994990490e+01
7.110175831565e+01
6.322771378909e+01
9.128292129972e+01
1.268443200735e+02
1.006679632531e+02
1.267260343621e+02
1.270288930375e+02
5.681632426826e+01
6.286511896357e+01
2.135056777921e+01
1.781748284213e+01
3.955443473899e+01
3.472395629229e+01
1.170375963786e+02
1.636139560139e+02
6.967727715376e+01
7.916979310258e+01
7.652506985388e+01
1.655604174554e+02
1.000769529345e+02
1.325033206519e+02
6.911422848269e+01
1.203839022662e+02
2.940836325856e+01
1.035183974793e+02
1.593876165467e+02
1.640298597908e+02
1.589953284973e+02
4.525682859534e+01
1.271486114192e+02
1.254504835839e+02
5.409902500263e+01
5.487381691425e+01
6.218387567218e+01
5.554035657575e+01
8.381993592568e+01
7.588349068425e+01
1.454246419208e+02
1.505707811581e+02
1.379037213301e+02
1.300028722944e+02
1.635641487693e+02
1.616993794795e+02
5.780099788518e+01
5.598704737795e+01
7.048168735498e+01
5.286696957599e+01
1.703330971781e+02
1.662978193906e+02
6.623722249103e+01
6.288039825452e+01
6.405801691490e+01
5.507830748702e+01
5.472120014826e+01
5.552247661883e+01
1.752795299690e+02
1.175725508680e+01
1.673269637796e+02
7.095811249234e+01
6.980498364690e+01
1.332571178898e+02
8.725287432984e+01
1.590596948478e+02
5.792934033501e+01
7.065013282212e+01
1.812334879182e+01
1.492255363848e+01
2.227476308464e+01
6.921710577793e+01
6.352635789061e+01
5.703269992471e+01
6.943198590550e+01
7.348504652660e+01
4.868133693691e+01
5.946978024197e+01
1.103800796169e+02
1.071526622251e+02
1.126111971133e+02
1.123476630009e+02
1.134466142294e+02
1.439642320059e+02
1.353412796437e+02
1.320461148864e+02
6.890802292533e+01
7.651112759092e+01
9.120174205793e+01
9.000531725355e+01
8.483859663275e+01
7.837604878751e+01
1.717300287677e+02
1.685612460805e+02
2.427827521085e+01
2.986010103517e+01
5.712173664559e+01
5.860778749914e+01
8.892158979513e+01
8.686215310973e+01
9.316596063188e+01
5.252869795482e+01
1.415595412937e+02
1.714060536772e+02
1.683783155794e+02
1.752169752131e+02
1.540530062652e+02
1.603383281576e+02
1.562482478305e+02
6.247032828079e+01
6.651854144434e+01
1.439354954273e+01
5.352889050454e+01
1.238079986550e+01
1.475223485647e+01
1.153693987470e+01
4.543282936605e+01
1.602223175399e+01
2.064870425123e+01
1.725066102974e+01
8.345515765430e+01
1.940652701894e+01
2.431789947412e+01
1.731438692643e+02
1.689695883789e+02
1.756487277484e+02
1.714170287742e+02
1.644594280737e+02
1.673724209658e+02
1.278656501165e+01
1.753201542080e+02
1.703919157298e+02
1.785847866699e+02
4.910470327125e+01
6.243444092852e+01
5.477629414215e+01
4.848750380806e+01
1.400460567910e+02
1.300795626353e+02
1.548194709900e+02
1.454360681262e+02
1.217027473085e+01
1.186130639553e+01
1.685977234572e+01
1.600950592190e+01
2.316913096501e+01
2.204803075776e+01
3.037018993947e+01
1.573849959894e+02
4.975885080182e+01
4.838399801723e+01
1.677553801362e+02
1.653184030055e+02
5.587712242479e+01
4.953776275340e+01
1.750601429960e+02
8.504344860410e+01
9.390824432910e+01
4.912407395790e+01
5.895684665683e+01
8.582084217441e+01
6.290593210001e+01
6.240655236578e+01
5.546024249577e+01
1.518918542945e+02
2.587978160398e+01
5.618604892013e+01
3.127538793131e+01
5.204150951114e+01
1.503068250121e+02
9.221886222571e+01
7.930840923263e+01
6.225526189895e+01
7.081229649461e+01
6.644259395287e+01
4.912801197840e+01
5.111188692168e+01
9.883053462080e+01
5.567624056695e+01
4.878487210112e+01
7.769464259836e+01
7.473167983687e+01
8.504030051386e+01
9.683092815668e+01
9.542519791453e+01
8.409080192300e+01
9.441355148496e+01
1.055652266610e+02
1.049186844592e+02
1.178612215275e+02
1.150479138528e+02
1.040012785238e+02
1.134722920908e+02
1.236354555282e+02
1.033638145157e+02
1.693351603100e+02
9.404984956485e+01
6.579259099393e+01
6.066572017818e+01
7.904309388332e+01
1.269756282930e+02
1.160393902427e+02
8.377107566853e+01
1.510060859610e+02
5.884670419951e+01
7.518418870706e+01
1.585570767701e+02
7.365537474276e+01
7.317781447234e+01
6.294581429460e+01
1.075138460118e+02
2.802110930327e+01
1.693446389725e+02
1.347976018427e+02
1.292371897213e+02
1.212471240468e+02
9.374528157098e+01
1.760019107110e+02
1.722828806969e+02
1.733506118992e+02
1.677230864911e+02
1.783951974018e+02
1.379891829350e+02
1.429881367685e+02
8.217273249280e+01
8.897701719205e+01
9.627290699227e+01
9.483473978714e+01
8.778636415013e+01
9.290054011114e+01
9.964436160409e+01
9.025890388150e+01
1.212909460013e+02
1.801591017524e+02
1.368579333562e+02
1.333372204937e+02
1.239884008267e+02
9.734311565176e+01
1.038521279141e+02
1.137164144770e+02
9.096380915328e+01
1.289466704227e+02
1.806086120713e+02
1.365924413405e+02
1.005728735409e+02
2.054215136901e+01
2.510692777967e+01
3.168670630694e+01
3.363533581176e+01
2.083110532395e+01
1.137564402086e+02
1.173493255901e+02
1.111636336336e+02
1.211194018259e+02
1.148329228118e+02
1.055943994700e+02
1.248561752256e+02
1.180948898014e+02
1.557772645521e+01
3.783711475025e+01
4.184193524848e+01
2.923940288293e+01
4.476367109471e+01
5.407511114743e+01
5.726238986350e+01
6.309444397418e+01
5.324714689711e+01
1.306414934685e+01
2.117699381257e+01
8.444026473647e+00
1.728372854005e+01
3.060397417453e+01
4.111087228809e+01
1.798516726182e+02
8.970645477540e+01
8.534522309945e+01
7.609400173438e+01
8.166668410034e+01
9.390561319767e+01
7.086080838904e+01
6.805570050635e+01
8.929763707573e+00
1.947326051205e+01
1.845266022235e+01
2.962114090083e+01
2.920130082143e+01
1.945618404820e+01
1.925806311224e+01
8.574623874933e+00
1.873199421235e+01
2.892627923104e+01
8.011034997235e+00
4.362585734214e+01
4.936926132967e+01
1.808805011048e+02
1.324040915427e+01
6.279881268034e+00
8.422825612513e+01
8.904062453735e+01
8.804632824483e+01
1.673811291201e+02
1.713895261426e+02
8.394770434044e+01
6.515702329335e+01
1.069805444859e+02
6.323879994577e+01
6.941965039222e+01
6.762075613627e+01
1.411454951854e+02
1.333495334248e+02
1.608875886368e+02
1.336057891493e+02
1.548666110306e+02
1.740726908222e+02
4.304126321304e+01
2.526934217594e+01
2.201010976454e+01
4.581707587300e+01
6.601143967055e+01
1.015932247676e+02
4.414612327968e+01
1.504703452852e+02
6.959934479645e+01
1.176866683109e+02
8.751284000128e+01
7.189797080193e+01
6.608838458570e+01
9.535369442293e+01
1.072233895959e+02
1.514680072832e+02
5.178495730611e+01
8.323718478105e+00
1.563928620985e+02
1.269939128089e+02
3.120790833899e+01
1.533556074163e+02
5.635123919012e+01
5.130830506597e+01
8.199944666417e+01
2.644669839060e+01
3.467079672485e+01
1.743068227609e+01
1.713990364678e+02
6.464171221056e+01
6.039800524411e+01
1.248789336686e+02
8.777428719241e+01
4.549895419311e+01
6.872633634827e+01
1.170448709208e+02
1.613774290174e+02
1.405099250243e+02
6.363286469356e+01
1.618063300360e+02
1.192699884286e+02
6.335206435155e+01
1.214405712207e+02
1.070251846416e+02
6.105584361029e+01
1.215399856757e+02
1.554542347781e+02
7.039902149711e+01
1.051521647702e+02
9.413293768418e+01
1.129049973490e+02
1.351617921596e+02
1.591018924807e+02
7.404639649153e+01
7.908126156935e+01
3.533912875722e+01
1.440373139448e+02
7.587879067960e+01
7.933205598417e+01
1.569898002708e+02
7.342589820913e+01
1.104145858631e+02
4.696060512910e+01
6.384120978062e+01
9.333239511154e+01
1.153077024363e+02
1.203193686044e+02
1.011354340027e+02
1.597741441975e+02
1.552112470817e+02
5.255353864174e+01
4.745033165715e+01
1.626609521279e+02
1.283974716442e+02
1.596147454558e+02
1.084458508675e+02
1.540111233785e+02
4.938641235631e+01
1.658050886797e+02
1.556474691931e+02
8.443285549687e+01
1.162962504809e+01
1.743648748434e+02
1.622876073034e+02
1.213356527446e+02
1.239583113506e+02
4.447799330251e+01
1.235537131954e+02
1.047884842858e+02
1.035722300238e+02
1.648007731769e+02
6.315022082346e+01
1.169271657660e+02
1.389690590308e+02
2.901436921423e+01
4.876171466018e+01
1.201986881027e+02
9.691529117224e+01
1.270590751736e+02
1.651520551063e+02
1.236823706399e+02
1.037262676389e+02
1.273215152434e+02
4.400567093129e+01
7.325439925925e+01
1.310796259609e+02
1.130144197519e+02
2.914727294538e+01
1.282928033966e+02
1.631389741653e+02
8.621024050617e+01
1.299656281329e+02
8.353616432139e+01
4.424341610452e+01
1.389976233668e+02
1.212713664007e+02
1.345601715750e+02
1.233345943903e+02
1.475748654716e+02
4.953703582550e+01
6.207043210491e+01
5.189542321398e+01
1.065431185469e+02
1.211632108288e+02
3.822893349605e+01
9.349648828965e+01
3.725241391976e+01
1.017942873827e+02
1.473338374806e+02
2.485711661742e+01
1.034032034292e+02
5.421015410731e+01
9.756570347769e+01
1.315141489819e+02
9.933191817810e+01
9.234973910061e+01
7.528778736299e+01
9.338019186479e+01
8.567097043709e+01
1.801610177350e+02
1.145455118742e+01
4.482223284428e+01
3.795379718030e+01
4.993230143920e+01
7.715293734290e+01
1.031841662514e+02
1.159337805892e+01
6.950184343993e+01
1.266652478928e+02
1.648049039998e+02
3.857997896733e+01
1.631915027436e+02
1.404571047433e+02
6.410573484824e+01
1.247864861944e+01
1.544079493105e+01
1.401267606798e+02
4.561616089434e+01
4.899044097710e+01
5.080081922123e+01
6.604643175646e+01
3.517361503112e+01
4.652844495143e+01
1.705947523259e+02
1.437326656099e+01
1.484230597979e+02
4.834139934052e+01
8.641050908037e+01
1.625709580731e+02
1.815117078875e+02
1.553345449455e+02
5.408399456836e+01
2.735297960961e+01
1.463963760430e+02
4.654600770612e+01
1.817477816552e+02
1.724686176521e+01
7.626394318618e+01
6.908064801384e+01
7.612733550816e+01
1.126488784842e+02
1.863927413455e+01
3.772518016528e+01
1.751232890122e+02
1.153912561438e+02
5.722567557478e+01
3.782064284492e+01
8.252932304947e+01
5.754560520489e+01
1.759818809261e+02
1.218104211987e+02
1.749872201782e+02
2.940414278621e+01
1.492180314014e+01
1.768098539075e+02
1.373531204140e+02
6.747828340382e+01
9.552896966675e+01
6.086375122056e+01
1.349206174362e+01
1.715924265910e+01
1.814953745649e+02
7.988982339775e+01
8.989257702411e+01
3.307025647980e+01
6.009180524386e+01
1.505967083278e+02
2.428539141232e+01
7.924161303898e+01
1.762621858014e+02
1.003978379053e+02
1.742863508437e+02
5.543217854791e+01
1.619809892126e+02
1.698617518357e+02
1.219575861182e+01
1.077902376878e+02
7.313183402378e+01
3.654830822322e+01
8.687996846712e+01
6.820883902917e+00
1.218874478972e+01
1.817978557159e+02
3.629981061427e+01
1.495880390372e+01
1.331363225664e+02
1.109131025449e+02
5.768284164187e+01
4.746306032454e+01
3.647898425817e+01
2.959065886018e+01
1.658884894935e+02
9.293562175879e+01
2.310400903068e+01
6.015007482463e+01
1.295552814465e+02
9.740329335003e+01
1.435425015026e+02
1.678590601900e+02
5.723084916334e+01
1.198334114676e+02
1.536087615669e+01
1.771252645759e+02
1.014022049996e+02

SCALARS node_materi_strain_total_average_a_ept float
LOOKUP_TABLE default
5.535168957171e-04
4.300385004541e-03
1.987196120166e-03
5.781613578784e-03
5.042420881675e-04
5.212733784185e-04
5.119739368202e-04
5.328085407071e-04
5.426986827355e-04
5.666614062864e-04
6.025518636858e-04
6.497266812297e-04
7.113256818554e-04
7.852873970249e-04
8.724134897294e-04
9.700997867166e-04
1.073731453971e-03
1.187838494599e-03
1.316403865223e-03
1.449511351595e-03
1.590403211730e-03
1.738594913086e-03
1.883971290792e-03
5.791254061663e-03
5.778477646727e-03
5.771427242320e-03
5.757040870336e-03
5.726390342999e-03
5.706443269109e-03
5.661260830355e-03
5.610443943157e-03
5.551246897564e-03
5.481584726442e-03
5.380923173002e-03
5.281356490008e-03
5.147932611222e-03
5.010980166311e-03
4.847949464244e-03
4.673991840497e-03
4.476736332693e-03
4.270794793986e-03
4.064234017267e-03
3.852264749767e-03
3.633594772590e-03
3.409008267115e-03
3.189429325241e-03
2.974728974612e-03
2.770242250215e-03
2.579009689789e-03
2.393302631879e-03
2.237116318864e-03
2.083747133208e-03
1.958512132183e-03
1.843962891634e-03
1.744790812080e-03
1.663675603663e-03
1.619134410197e-03
1.586128198075e-03
1.564350994600e-03
1.579367975996e-03
1.585400364868e-03
1.618932003298e-03
1.649173371369e-03
1.697176950957e-03
1.755687922062e-03
1.802384990970e-03
1.831307089302e-03
1.892554271022e-03
1.919220408166e-03
1.953230009493e-03
1.979760744358e-03
1.991381226064e-03
4.391460414025e-03
4.538179406433e-03
4.686119541866e-03
4.835511207047e-03
4.991008249667e-03
5.150027421949e-03
5.312810061401e-03
5.484903496899e-03
5.649146645901e-03
-1.453456772382e-03
3.449269411187e-03
-3.968175232942e-04
1.445831267954e-04
5.536262768231e-04
9.378570121727e-04
1.355641900804e-03
1.818927773905e-03
2.277301903277e-03
2.716669051459e-03
3.105430484734e-03
4.301970913088e-03
4.303768987043e-03
4.297621852434e-03
4.287043054602e-03
4.295426008864e-03
4.273871374310e-03
4.256382346511e-03
4.246690081578e-03
4.229797454868e-03
4.198439920329e-03
4.159488954760e-03
4.094495266351e-03
3.987790555788e-03
3.790096213697e-03
-2.082977067713e-03
-2.380023315408e-03
-2.465259482230e-03
-2.238678434641e-03
-1.361543847980e-03
-5.251612898633e-04
-1.795747563626e-04
-3.798458991783e-05
3.604771454434e-05
1.085349465304e-04
1.705876388780e-04
2.398044008519e-04
3.150642530188e-04
3.833295942617e-04
4.362769704889e-04
4.822518895495e-04
5.168146179485e-04
5.409322461851e-04
5.637920790234e-04
-7.903241041907e-04
-9.802750872585e-05
3.597094738225e-04
7.424246919024e-04
1.126631329044e-03
1.582310782531e-03
2.051765419129e-03
2.504024462880e-03
2.924549034247e-03
3.226150401149e-03
3.820180435983e-05
1.653268970630e-03
4.505822794583e-05
-1.462910474403e-03
1.586861434605e-03
8.741447171210e-04
8.278230319664e-04
2.014429229090e-03
1.685323354990e-03
2.647740101328e-03
2.578830494255e-03
1.738259573000e-03
3.227212744142e-04
3.461514456313e-03
3.315173500555e-03
5.819380966059e-04
1.107533274944e-03
4.072517603808e-03
4.824316932736e-03
5.609639058846e-03
5.446211225688e-03
5.213546700310e-03
3.916654228378e-03
4.243646695055e-03
4.328661035006e-03
4.914138730012e-03
1.837577823377e-03
-1.823253778609e-03
4.671621674188e-04
1.513104834253e-03
4.353290351595e-03
5.232514257872e-04
4.456117596256e-03
2.312209195463e-03
3.041833083012e-03
1.810831184124e-03
1.575628402949e-03
-2.758773573829e-04
4.136812981766e-03
1.628180683562e-03
5.224743859297e-03
1.830098264154e-04
6.767646326084e-04
5.681987507669e-03
1.267069475974e-03
4.849557659061e-04
2.131508659173e-03
2.993498448041e-03
-6.228930446858e-04
4.623912942517e-03
1.914883175463e-03
5.117041285776e-04
5.561406422902e-03
3.537244383195e-03
3.445606298359e-03
3.667780291554e-03
3.541672728848e-03
3.751455151702e-03
3.645087396065e-03
3.432697049640e-03
3.543888344952e-03
3.326345763170e-03
3.845840209875e-03
3.442988346947e-03
3.220036294223e-03
3.340099430349e-03
3.113836156695e-03
2.994738897635e-03
2.885148751705e-03
2.768603665645e-03
2.656288340779e-03
2.778575145128e-03
2.547770964839e-03
2.428224811294e-03
2.318099793496e-03
2.200499468946e-03
2.090698986504e-03
1.975760964140e-03
1.868864346253e-03
1.988664893327e-03
1.770515339270e-03
1.659085097136e-03
1.566421439970e-03
1.464025143366e-03
1.382389046569e-03
1.485465421154e-03
1.312652946181e-03
1.218226537388e-03
1.155823384664e-03
1.070331748337e-03
1.024181880349e-03
9.580463731613e-04
9.249311951837e-04
9.784980396779e-04
8.847794021400e-04
8.257738400479e-04
7.954750644110e-04
8.403276814433e-04
7.570363245026e-04
7.970590186974e-04
7.112840223514e-04
6.653036741444e-04
6.254279829041e-04
6.797428397842e-04
5.982025085441e-04
5.389368486181e-04
5.269029247212e-04
5.970347412289e-04
5.393926735968e-04
4.667204136704e-04
4.976660503109e-04
5.602680868734e-04
5.255322409175e-04
4.674968736573e-04
5.011613969647e-04
5.627898945261e-04
5.418297221088e-04
6.158634743477e-04
4.838753570555e-04
5.276803877566e-04
4.733212124819e-04
5.184995298819e-04
1.417942191905e-03
4.669603271676e-04
4.221108269697e-04
5.127491554208e-04
5.704933686763e-04
4.635866942052e-04
5.093393973896e-04
4.637876020173e-04
9.897004158165e-04
2.675331459943e-03
5.078664500137e-04
4.660880113638e-04
4.233353083578e-04
4.288816561584e-04
3.928732271737e-03
4.042145277588e-03
4.117751087343e-03
4.233067448979e-03
4.293247896420e-03
4.704552353500e-04
3.564378507268e-03
4.163488252744e-03
2.318051980189e-03
1.559714902686e-03
8.881157176113e-04
5.568979959494e-04
5.526531186861e-04
6.069078742217e-04
6.445495543085e-04
7.139345920890e-04
7.548185916452e-04
8.364906007228e-04
8.906503769420e-04
9.743984211858e-04
9.223761131460e-04
1.058406996629e-03
1.008691544874e-03
1.035202648003e-03
9.582965685723e-04
1.142659871388e-03
1.094382143430e-03
1.227470714140e-03
1.177884303646e-03
1.047953768358e-03
1.129156456985e-03
1.005139456527e-03
8.536260283247e-04
9.753232022980e-04
9.698341290442e-04
1.127727593337e-03
1.124765289018e-03
1.272026865182e-03
1.259290962602e-03
1.125940944477e-03
3.234617327105e-03
7.119812551507e-04
7.310275612662e-04
6.013748171428e-04
6.177219726191e-04
4.657708586046e-04
4.792020414151e-04
2.881743758398e-04
2.944932944794e-04
6.881601110667e-05
1.224526417989e-04
-1.369696999561e-04
-8.494292094639e-06
1.895468406479e-03
1.291403474668e-03
1.422816159623e-03
1.451725532929e-03
3.854923114674e-04
1.258760573795e-03
1.101969952404e-03
1.033879251782e-03
1.259129938736e-03
4.371642469969e-04
3.074923726455e-04
4.981669721249e-04
4.415694528841e-03
4.461728182899e-03
1.173099355253e-03
4.796562341552e-04
1.194814874204e-03
-2.067882514333e-04
1.207942108413e-03
1.338725823622e-03
8.791763148430e-04
1.577962769258e-03
1.614808039653e-03
1.953301615192e-04
1.169936397908e-04
-4.975818639823e-05
7.390621534756e-05
1.994618341680e-04
1.558819022413e-04
5.210180983670e-05
1.543098495096e-04
2.240668669002e-04
2.133110588642e-04
1.376826302068e-04
2.075080970359e-04
1.393111291972e-03
-4.395157045281e-04
2.885132759875e-03
1.235878466619e-03
1.379811877825e-03
4.593311311204e-03
4.623812617873e-03
4.496808174778e-03
4.643398807197e-03
4.781514821623e-03
4.787375815023e-03
4.652172309747e-03
4.783491166660e-03
4.649732047246e-03
4.769843612219e-03
4.913915472943e-03
4.889564539382e-03
4.746285729286e-03
4.857425684631e-03
4.713929661772e-03
4.817287202185e-03
4.968327257288e-03
4.573775192711e-04
1.138010859281e-03
1.268072719004e-03
5.971975852852e-04
6.602313330023e-04
6.776862781034e-04
7.370410973605e-04
4.919926832050e-03
5.078187038868e-03
3.348065559099e-04
5.188162703713e-04
4.552427010141e-03
1.283664395341e-03
1.157258904195e-03
1.370190497774e-03
1.466691953504e-03
1.277377975693e-03
1.371096569397e-03
1.570949721811e-03
1.172098438834e-03
8.837279918145e-04
5.041873556984e-03
3.791825404723e-04
3.383248227437e-04
1.416843468158e-03
9.935726977537e-04
2.119608376105e-03
2.032348381773e-03
2.255877328990e-03
2.168066120398e-03
2.387784450276e-03
2.294294285799e-03
2.087744087923e-03
1.738572212474e-03
2.210471716986e-03
4.767852486965e-03
1.308428198278e-03
2.715737095047e-04
4.124040135468e-04
1.602282815716e-04
4.887094444523e-04
5.134253465956e-04
1.300823944471e-03
2.513491589015e-03
2.610894057802e-03
1.476525694755e-03
1.684001763577e-03
1.691527521405e-03
4.187178006886e-03
4.529825916793e-03
4.527841099790e-03
4.700688314358e-04
8.522583779365e-05
4.935245533580e-03
6.545258897038e-04
6.753146895398e-04
-5.413682167968e-04
-7.705974868550e-04
5.021822359914e-03
5.182562455075e-03
7.607813644274e-04
8.265248680315e-04
1.250141171899e-03
2.227645574560e-04
5.240056406805e-03
1.022356630327e-03
8.665273195429e-04
7.143169463714e-04
3.509390401786e-04
1.237923998655e-04
2.842745410269e-04
2.709188479171e-04
5.184852900009e-04
1.368695613956e-03
4.932299695029e-03
2.013771369895e-03
1.885234191629e-03
2.128371675044e-03
1.743103646570e-04
1.362628144517e-03
1.356296595059e-03
2.731519051796e-03
2.836999960896e-03
7.952886644598e-04
8.215007350415e-04
7.010766444314e-04
8.738157207431e-04
3.220832638664e-03
9.295311281753e-04
2.665667994392e-03
2.789773012225e-03
2.569671373241e-03
1.775488213863e-03
1.897714820737e-03
7.505236658523e-04
1.004975796772e-03
6.949439510605e-04
9.250304686124e-04
6.844331782385e-04
5.068284832786e-03
5.203632220341e-03
4.610696058410e-03
4.576549311884e-03
3.450485972671e-04
2.946952613199e-04
6.837958560992e-04
1.302387893685e-03
4.740442087501e-03
4.703095366803e-03
4.502469934776e-03
1.327409909592e-03
5.878614033129e-04
8.393147633792e-04
-5.911073760809e-04
1.605849697602e-03
3.084475846449e-04
2.906207552837e-03
1.493173165161e-03
1.553670403771e-03
1.843278211262e-03
3.230257917676e-03
1.548907466872e-03
1.364969451749e-03
2.700307577508e-03
2.484500326540e-03
2.348471201379e-03
2.258966724351e-03
3.347648254602e-04
3.276111503379e-04
2.644692123383e-03
2.323064730549e-03
2.961966697543e-03
3.076683112542e-03
1.790821169385e-03
1.652466794089e-03
5.438053427533e-04
1.804165703223e-03
5.095650094709e-03
2.914347538293e-03
1.422495202383e-03
1.377994522672e-03
-9.633702087137e-04
-6.192459327321e-04
5.348858003623e-03
7.566803113033e-04
9.514232163676e-04
5.700546097671e-04
1.809660484500e-03
4.361214335702e-03
1.635535274829e-03
1.992379914678e-03
5.409851167933e-03
1.509833955070e-03
1.193601348508e-03
1.203706143826e-03
5.273895660526e-03
5.458637663784e-03
4.421935212198e-03
4.407990894173e-03
4.408208003488e-03
-1.877501034014e-04
-5.241310668220e-04
5.168147398287e-03
5.497709448955e-04
5.981419396564e-04
2.839219460540e-04
3.295720907176e-04
7.857821971117e-04
7.139825418569e-04
2.806195135741e-03
3.036461240900e-03
2.347931726810e-03
9.112575191677e-04
7.603551640998e-04
7.416960881875e-04
5.230691935260e-03
5.383641799837e-03
3.524732911337e-04
3.176903922956e-04
3.868669461101e-04
5.095680229260e-03
1.694712244594e-03
1.611622784710e-03
2.509720216114e-04
2.467105722416e-04
1.869753243272e-04
-6.849645979667e-05
4.654221640977e-03
4.440357095332e-03
4.870348541696e-03
5.446890928410e-04
1.830975852730e-03
1.432075240367e-03
1.416280062865e-03
1.492127360780e-03
1.898168637838e-03
1.984474892215e-03
2.226348235574e-03
-1.196956584137e-03
5.415943441671e-03
4.476114471150e-03
-1.424413324788e-03
4.440998485198e-03
4.532441621085e-03
4.385018113338e-03
5.259621385896e-04
4.300170706065e-03
4.283616310455e-03
1.765370416803e-04
5.274418574135e-03
2.716320009745e-04
3.358119574422e-04
1.508097748592e-03
1.459264127765e-03
1.579956307956e-03
1.533028457904e-03
1.408224146831e-03
1.494477895712e-03
4.380976783806e-03
1.639542920550e-03
1.585366257613e-03
1.737059599165e-03
2.410005586488e-03
1.061387708914e-03
1.156853921291e-03
1.046301308649e-03
3.226319149715e-03
3.306594265608e-03
1.432207129189e-03
1.299051871040e-03
4.473454101874e-03
4.479069257450e-03
4.604403604016e-03
4.598716431805e-03
4.728298711013e-03
4.717003425968e-03
4.852506067415e-03
2.445936548216e-03
6.275950783077e-04
2.838953447230e-03
1.738930689953e-03
1.609776101969e-03
2.029616304627e-03
1.949425379154e-03
1.497254630991e-03
8.991939906930e-04
5.292774136112e-03
-1.452786910266e-03
-1.045200760335e-03
1.029938131622e-03
2.121145206614e-03
1.266612162824e-03
1.373614943458e-03
1.065474942023e-03
1.944136846667e-04
3.788637503514e-04
4.854688702792e-03
2.156086101113e-04
1.376110778049e-03
8.754299761276e-04
1.871541549153e-03
5.322972519905e-04
9.824574756059e-04
3.106266988785e-03
3.335068562503e-03
3.121921979109e-03
8.520125364745e-04
1.593388724219e-03
1.485173610979e-03
2.544776614767e-03
4.297009340720e-03
4.226911042799e-03
4.366934829200e-03
4.144399787603e-03
4.007189072938e-03
3.920042284235e-03
4.066617918070e-03
3.829899697411e-03
4.001039720065e-03
3.724273333759e-03
3.592084754223e-03
3.488883176417e-03
3.600979781028e-03
3.358883031881e-03
1.857624159079e-03
1.124539640073e-03
-9.073409810650e-04
-6.391470707227e-04
2.092755516751e-03
4.266424705343e-03
4.660211727433e-03
6.342884086870e-04
3.249120439633e-03
3.003430070600e-03
6.854984686754e-05
2.842047041388e-03
4.088604267319e-03
3.875915834211e-03
3.961663267667e-03
4.968837519196e-03
4.384828871157e-03
2.169229262636e-03
1.134441434690e-03
1.156261753559e-03
1.049650230328e-03
3.691628731834e-03
1.714981870039e-03
1.618926077721e-03
1.563592956092e-03
1.504456635928e-03
1.607388453745e-03
3.882252520422e-03
3.680284194704e-03
2.435743040417e-04
2.979569621350e-04
3.802750344970e-04
3.726174495048e-04
2.607925322720e-04
3.519966768398e-04
4.686252838983e-04
3.220332716751e-04
3.171632712308e-03
1.572361492895e-03
8.104809150988e-04
7.389743722951e-04
6.334290941028e-04
6.303025601286e-04
6.443342691066e-04
7.356797076176e-04
6.183063193700e-04
1.954353618721e-03
1.572660220116e-03
8.431763939241e-04
5.810519639691e-04
4.044299371897e-03
4.022381633601e-03
3.857028327154e-03
4.010796735017e-03
4.148869382125e-03
8.573090809410e-04
9.263987086841e-04
8.887023111526e-04
9.921416337457e-04
9.460809806241e-04
8.549372299113e-04
1.052947560789e-03
9.912127831677e-04
4.192772373684e-03
-7.635477339218e-04
-3.682209528437e-04
-9.372320131716e-05
-1.217093594922e-04
-3.678440319590e-04
-1.017214510900e-04
-2.613611919390e-04
-7.746986241136e-04
-1.081591725558e-04
-3.669667212634e-07
-2.153196736050e-05
6.278154169160e-05
1.078686439306e-04
2.926959797548e-04
1.850584510950e-03
7.437635142958e-04
7.019274678829e-04
6.447693475677e-04
6.596788228048e-04
7.711436749310e-04
6.230949273385e-04
6.009235096695e-04
4.952118560218e-04
4.997901060865e-04
5.148999740748e-04
5.108387246513e-04
4.990777908463e-04
4.803026194988e-04
4.475742921327e-04
4.293946641436e-04
4.088908537871e-04
4.395228264725e-04
3.804843859636e-04
5.070143671979e-03
5.156779493760e-03
1.608694681329e-03
4.284686202864e-03
1.101100435719e-04
5.610314382486e-03
5.523352589933e-03
5.578284236321e-03
1.658947853568e-03
1.724671792333e-03
5.654415463486e-03
4.203143463089e-04
4.279520813277e-03
5.291235979547e-03
1.127103933454e-04
3.260759643876e-04
1.227603320820e-03
9.644201280129e-04
1.474059138860e-03
1.082652142527e-03
1.311210108256e-03
1.517335935632e-03
5.033187754162e-04
4.635537082039e-03
4.673169356856e-03
5.008726217957e-03
5.080604336339e-04
7.998198204241e-04
3.957840826649e-04
2.844083682082e-03
2.442762388473e-03
5.927374069549e-04
5.629613691335e-04
4.196396170570e-04
2.685169186859e-04
1.288268089058e-03
5.955871108342e-04
1.114211466647e-03
5.126337580107e-03
2.541598057894e-04
1.173050620795e-03
7.942386619337e-04
4.519526616482e-03
1.397918607867e-03
4.432829648933e-05
4.928425436978e-03
4.895771758099e-03
4.250585938830e-03
3.660518158049e-04
4.506880165206e-03
1.412099414322e-03
4.361022995915e-03
5.091957628374e-04
7.641275578867e-04
1.761094868698e-03
3.180064686463e-03
5.332952741329e-03
1.250429444921e-03
1.381707838485e-03
9.773749543750e-04
5.460561126677e-04
1.328153361646e-03
9.318582762896e-04
5.083548350700e-03
2.481745777294e-03
6.923360830548e-04
4.766427742291e-03
6.078118861059e-04
1.542828670226e-03
2.217652756113e-03
2.215028822941e-03
3.008183747782e-03
1.682212107579e-03
1.172093849090e-03
1.248523943138e-03
-2.767288011679e-04
1.091548861336e-03
4.347697525112e-03
2.407047139549e-03
5.247816900215e-03
1.663646915729e-03
1.276688603548e-03
4.921050498409e-03
6.614253931859e-04
5.336823275587e-04
-1.486346661542e-04
4.636929429493e-04
1.099993480108e-03
7.615478926184e-04
4.595601911605e-03
1.360167095426e-03
1.116055100217e-03
-2.457791653470e-04
3.046516731556e-03
1.445166616536e-03
7.475354255531e-04
1.510427477173e-03
8.983851805339e-04
2.654101123655e-03
2.182925024858e-03
1.532469366860e-03
1.167190193887e-03
7.713883920905e-04
4.360009487461e-03
1.693213274559e-03
1.293227467403e-03
1.814164350600e-03
6.690709699873e-04
2.791265328533e-03
8.433959413297e-04
2.444902423858e-03
5.103847789136e-03
1.378110942613e-03
3.754896683201e-03
8.127148525074e-04
1.479987909901e-03
4.764881805136e-04
2.632995884381e-03
8.898482114521e-04
4.674816361459e-04
6.676348583480e-04
1.935411732947e-03
9.651372251778e-04
5.773609463131e-04
1.037490846991e-03
2.357750131830e-03
3.660873495973e-03
1.107351937729e-03
2.576743483875e-03
4.000921612127e-04
1.745774433659e-03
1.574227847207e-03
4.306344491229e-04
6.871607482331e-04
3.786431001736e-03
1.907459922148e-03
8.130522186985e-04
2.708153359348e-03
1.694164506561e-03
1.196927292353e-03
9.707641522310e-04
1.730290087934e-03
3.765792399954e-04
3.348999953648e-04
5.644260681591e-04
2.940127364377e-03
5.122688649615e-04
3.461943873781e-03
2.421064957038e-04
4.651516171383e-04
1.785876205998e-03
4.766807048902e-03
4.555529014238e-04
5.514247673983e-04
3.901382456203e-04
1.327657445273e-03
4.257367437812e-04
4.018938174137e-04
5.454428964936e-03
4.451715219608e-04
5.689621338316e-03
1.894865734056e-03
4.473472396794e-03
1.483204167221e-03
-1.895864882038e-03
1.259743193165e-03
3.769605028952e-04
3.132386635838e-03
4.477391372294e-03
3.742798625221e-04
3.829703048146e-03
2.470804490192e-03
4.990950881601e-03
1.482226185684e-03
1.654947117032e-03
5.384731529105e-03
4.319980735049e-03
1.122937751352e-04
1.245052344284e-03
1.048423835685e-03
8.232705798067e-04
4.267784432641e-04
5.766123850451e-04
3.421967152195e-05
6.807559725139e-04
1.671332592822e-03
4.329984697207e-03
1.954188854916e-03
2.792386075671e-04
5.075792394307e-03
2.167200503882e-03
1.694785905908e-03
2.059731842644e-03
-1.759391589218e-05
4.123996735892e-03
3.033093497220e-03
5.101979308119e-03
1.770425174557e-03
4.213680833761e-03
5.529011664950e-03
-2.841412016465e-04
5.556139029860e-03
3.261208240184e-03
4.626835751632e-03
3.842183917140e-03
1.783523930758e-03
4.214372498739e-03
-3.829325298445e-04
4.968509743322e-03
6.435883531757e-04
-1.136901881462e-03
1.532365510157e-03
3.389428644010e-03
1.736772413177e-03
5.202275944573e-04
2.116615546513e-04
1.517404230295e-03
3.470594930018e-03
-5.044188930236e-05
5.423331889593e-03
-8.826707480276e-04
4.276117339614e-03
3.593047343000e-04
1.825149447634e-03
5.369211716555e-03
7.268030995624e-04
3.705065958831e-03
5.685471151505e-04
2.487406557659e-03
1.336559183309e-04
5.469403347840e-03
1.524761592679e-03
4.773934405696e-03
1.932654958223e-03
-1.375108792992e-03
2.328777694399e-03
1.476232932821e-03
4.335027303053e-03
4.476653436453e-03
6.159328035326e-04
4.407666682268e-04
5.721007413314e-03
5.311585066032e-04
4.343320782594e-03
1.938902552490e-03
4.939326813682e-04
4.578763616355e-03
3.667532058461e-03
9.261711321309e-04
5.286743806903e-03
-2.715490292745e-06
-1.935407578746e-03
4.846402863022e-03
2.051239603310e-03
5.029797189769e-03
4.715920287602e-03
-3.323012910147e-04
3.487750318315e-03
7.787881238387e-04
2.850798173228e-03
1.575537284732e-03
-1.051951843824e-03
1.014434508118e-03
3.099300383338e-04
1.634653477303e-03
8.254637071870e-04

SCALARS node_materi_strain_total_size_dev_sd_ept float
LOOKUP_TABLE default
2.704183015712e-03
1.314794594614e-02
4.963604978181e-03
1.436150281684e-02
2.034098990700e-03
1.188888651513e-03
6.361140323980e-04
1.044992255937e-03
1.703371391388e-03
2.250806404220e-03
2.684307920387e-03
3.009055864829e-03
3.245816369987e-03
3.427626228305e-03
3.575173720236e-03
3.716944540528e-03
3.852000122090e-03
3.991506491969e-03
4.161572253966e-03
4.341167226899e-03
4.530379582624e-03
4.719596791158e-03
4.887497978206e-03
1.433603365847e-02
1.432554835267e-02
1.432789109449e-02
1.431460965486e-02
1.431391872760e-02
1.430156847854e-02
1.428359706872e-02
1.424521182532e-02
1.420901473168e-02
1.414075173567e-02
1.408972729862e-02
1.399807076308e-02
1.388377297488e-02
1.373509090345e-02
1.357732536348e-02
1.335315044288e-02
1.311901286163e-02
1.284778732867e-02
1.254152063289e-02
1.219852221451e-02
1.179830717259e-02
1.136745872011e-02
1.088536371545e-02
1.036198986739e-02
9.813416811128e-03
9.235163637075e-03
8.625661985287e-03
7.991526235685e-03
7.346687397117e-03
6.751598860592e-03
6.122339037733e-03
5.505113273681e-03
4.927973299193e-03
4.489707665181e-03
4.126714653092e-03
3.891064767033e-03
3.768750300257e-03
3.745739471720e-03
3.795805625453e-03
3.917953122353e-03
4.082522287510e-03
4.271727386081e-03
4.420580239027e-03
4.525110078138e-03
4.689549963906e-03
4.772896182252e-03
4.852827313031e-03
4.918150247097e-03
4.949993617962e-03
1.332581500344e-02
1.363410848469e-02
1.389625669606e-02
1.410708137024e-02
1.427204712968e-02
1.438565984240e-02
1.444461367318e-02
1.444899495714e-02
1.442198997466e-02
4.688952295746e-03
1.406664014777e-02
5.780942334274e-03
5.718135361183e-03
6.163867786953e-03
6.653134747046e-03
7.339708781975e-03
8.269825284801e-03
9.410235794466e-03
1.067686841947e-02
1.220199218963e-02
1.314357135667e-02
1.312313380965e-02
1.313342021572e-02
1.314418545852e-02
1.319601874126e-02
1.317760177773e-02
1.318501606249e-02
1.319622592612e-02
1.324988699926e-02
1.329184093269e-02
1.334471032497e-02
1.345992031880e-02
1.369144942352e-02
1.415776568145e-02
3.206394814902e-03
3.042651344297e-03
3.248122051255e-03
3.196791988697e-03
3.343871522810e-03
2.525067855702e-03
1.029885401146e-03
4.891943027737e-04
2.593715434065e-04
2.933539144988e-04
5.783880700726e-04
9.702150415224e-04
1.397620133987e-03
1.773259508998e-03
2.042609104220e-03
2.278662619127e-03
2.463366887271e-03
2.628375501392e-03
2.743111457719e-03
6.410297159487e-03
5.507563133934e-03
5.925682901280e-03
6.401425593756e-03
7.051509446509e-03
7.836096211796e-03
8.821898618016e-03
1.001995555048e-02
1.139235483729e-02
1.326293996284e-02
5.606118308498e-03
4.260614093130e-03
7.265747051320e-04
3.318439353958e-03
3.399524252947e-03
6.450049513299e-03
3.493626172980e-03
6.582694314953e-03
7.956983356991e-03
9.171643640009e-03
1.036161048431e-02
4.169568448075e-03
1.245985176869e-03
1.137538217724e-02
1.342737654108e-02
2.496999488176e-03
3.861092313143e-03
1.260657156458e-02
1.373025628942e-02
1.439319675224e-02
1.436470604512e-02
1.416087991380e-02
1.406462895407e-02
1.352084839139e-02
1.341768693312e-02
1.420250038055e-02
4.618433996344e-03
2.983141384671e-03
1.909888114712e-03
4.405007183344e-03
1.329377538624e-02
7.611013668217e-04
1.323273838934e-02
7.971597602360e-03
1.035216437171e-02
5.378258659378e-03
3.578911317240e-03
2.665729064419e-03
1.368592752345e-02
3.644376155031e-03
1.442504171512e-02
5.956594532985e-04
3.128034728329e-03
1.438518995774e-02
7.086494994586e-03
5.983777631565e-03
9.065660542772e-03
1.181896902750e-02
6.035048501620e-03
1.379534828037e-02
4.850462592220e-03
2.194085262235e-03
1.443326838126e-02
1.374906111860e-02
1.321819799903e-02
1.372683993634e-02
1.318336676807e-02
1.358916309801e-02
1.313375484605e-02
1.267591734582e-02
1.265730290748e-02
1.215561635135e-02
1.354260690977e-02
1.215898307395e-02
1.161994676256e-02
1.164423078407e-02
1.107952529039e-02
1.103668965514e-02
1.048596791004e-02
1.039962144975e-02
9.847370940732e-03
9.938654248305e-03
9.301438662083e-03
9.172834204740e-03
8.650143210882e-03
8.510162148707e-03
8.013705691909e-03
7.874389669415e-03
7.417694136679e-03
7.549056094984e-03
7.003221423951e-03
6.887821732323e-03
6.525355267560e-03
6.433857690951e-03
6.143283092157e-03
6.208461415700e-03
5.942260802799e-03
5.976243432900e-03
5.927276438045e-03
6.037087172499e-03
6.043996595824e-03
6.125361280782e-03
6.144137145375e-03
6.003607326109e-03
6.100643896849e-03
6.214768405940e-03
6.139595666952e-03
5.969840517895e-03
5.970943393009e-03
5.718896486644e-03
5.681688317511e-03
5.904333708601e-03
5.564316919378e-03
5.197715837559e-03
5.034559935511e-03
5.409504517787e-03
4.824370373706e-03
4.350214539165e-03
4.184742267628e-03
4.606935167100e-03
4.070819674979e-03
3.757523176140e-03
3.721251160899e-03
4.002792827006e-03
3.687763174669e-03
3.369959668716e-03
3.367275381159e-03
3.057847788641e-03
3.636984220445e-03
3.353487909694e-03
3.551642709141e-03
3.311239704658e-03
5.945041708356e-03
3.415632960728e-03
3.650867878517e-03
3.229773040303e-03
3.144959880200e-03
3.231108354276e-03
3.106151129828e-03
3.003646826933e-03
6.072188166803e-03
9.396839914859e-03
2.935955176796e-03
2.727865745972e-03
2.801895692171e-03
2.414492803391e-03
1.391765808407e-02
1.386347411804e-02
1.416514165312e-02
1.413081075828e-02
1.435444643880e-02
2.404808495330e-03
1.217661883413e-02
1.382807288854e-02
9.039628304785e-03
6.785416888827e-03
5.655717631153e-03
3.049235216598e-03
2.935380425615e-03
3.059871273585e-03
3.007097820651e-03
2.731763470418e-03
2.611919353427e-03
2.400813681882e-03
2.192710716626e-03
2.113193574833e-03
2.367196315496e-03
2.251827887985e-03
2.502771716562e-03
1.851302835710e-03
1.970368106479e-03
2.539763153157e-03
2.756630504192e-03
2.898148155863e-03
3.073376198650e-03
2.963919842652e-03
3.239455957549e-03
3.144245197046e-03
5.259967028291e-03
5.111153116099e-03
4.523519259088e-03
4.391840429292e-03
3.790446434603e-03
3.852539712199e-03
3.328371540395e-03
3.218957215767e-03
1.113072946126e-02
6.263861601365e-03
6.258133614879e-03
6.284817292036e-03
6.219356986117e-03
6.218336882036e-03
6.150103116322e-03
6.114931232677e-03
6.149880631230e-03
5.986879649528e-03
6.043838672525e-03
5.805894667416e-03
5.984076540583e-03
7.111536035625e-03
4.390974663829e-03
4.079113417007e-03
4.567815587361e-03
2.471445859286e-03
3.408938266106e-03
1.625029770897e-03
1.771092880649e-03
2.813603202179e-03
1.984652607361e-03
6.042154386139e-03
6.039005536713e-03
1.432704295786e-02
1.448946477667e-02
1.499009428740e-03
2.029626789507e-03
2.327541507121e-03
5.690668943539e-03
3.526308402494e-03
3.723648006238e-03
2.597021316564e-03
4.473143082279e-03
4.911453393001e-03
6.025630204461e-03
5.970957291264e-03
6.001294400060e-03
5.823799415211e-03
5.749034739857e-03
5.524507414167e-03
5.582732594070e-03
5.201487197224e-03
5.144779791118e-03
4.697986741044e-03
4.520469278836e-03
4.078740092645e-03
3.640736740225e-03
5.488860455692e-03
1.096295168348e-02
1.657415249614e-03
3.135386878252e-03
1.446497501112e-02
1.457610642064e-02
1.455214875876e-02
1.460607146540e-02
1.462031324888e-02
1.463512125203e-02
1.456457703932e-02
1.459346059982e-02
1.446634097652e-02
1.450582105590e-02
1.460646058608e-02
1.452911044789e-02
1.438374525603e-02
1.442582089755e-02
1.424267766509e-02
1.430470364974e-02
1.445323789313e-02
1.533300108286e-03
2.656897422504e-03
2.335351041748e-03
2.984949192770e-03
3.124459323931e-03
3.137818491775e-03
3.235120798649e-03
1.435251901024e-02
1.446815554538e-02
5.969614043539e-03
5.906110252168e-03
1.427825780691e-02
3.795464099297e-03
3.626719031860e-03
6.355190857789e-03
6.693590335351e-03
6.283120532435e-03
6.591704793013e-03
7.076424810103e-03
6.182682314234e-03
2.338989697926e-03
1.459949749923e-02
2.923295347342e-03
2.563023690614e-03
4.002366174985e-03
3.241472908882e-03
7.658766304801e-03
7.175063505684e-03
7.749928081679e-03
7.262490495248e-03
7.916481215592e-03
7.465800054142e-03
6.804682362640e-03
5.018347375180e-03
7.056503533029e-03
1.417311779667e-02
4.921619873328e-03
4.643836215014e-03
1.478467087904e-03
3.714550231541e-03
1.608545555129e-03
2.136364337173e-03
1.682085873907e-03
8.205905315474e-03
8.623362227231e-03
6.970194678509e-03
7.496486990134e-03
4.620320643512e-03
1.435778660335e-02
1.441361141144e-02
1.424871579368e-02
1.013366451597e-03
4.186968737681e-03
1.463445193470e-02
5.981294887318e-03
5.859971868183e-03
5.284095290249e-03
5.038084439436e-03
1.439045966858e-02
1.447515190879e-02
3.191051497586e-03
3.318928043710e-03
1.546990983782e-03
3.443588175135e-03
1.451861880485e-02
2.644613150793e-03
3.346775964657e-03
3.241648723412e-03
5.808861930301e-03
5.852283853391e-03
4.981380374893e-03
3.762185390248e-03
1.761731032194e-03
1.899670308336e-03
1.457436995692e-02
6.374486745858e-03
6.236252517298e-03
6.670956575203e-03
2.978942041917e-03
2.059433864433e-03
4.034605764230e-03
8.975700980206e-03
9.351066479331e-03
5.936547162894e-03
5.856319903624e-03
5.799155874332e-03
5.897031182880e-03
1.214694046575e-02
5.930724313029e-03
1.028415811033e-02
1.085585279830e-02
1.015142235654e-02
7.614652497625e-03
8.088263723178e-03
6.172205144004e-03
5.510023795409e-03
3.100244301650e-03
2.939126990319e-03
2.961938599191e-03
1.463218942765e-02
1.459860526136e-02
1.416349351373e-02
1.399016276123e-02
2.011823656974e-03
2.075498433139e-03
2.845536266458e-03
2.038036158238e-03
1.440201249290e-02
1.420719483179e-02
1.403800957174e-02
1.805785673756e-03
6.258879864334e-03
4.652640264289e-03
5.585223874904e-03
6.263685389874e-03
1.504006760251e-03
1.002511929908e-02
4.243571109513e-03
4.238049204386e-03
5.316537151374e-03
1.269364091730e-02
5.902439046660e-03
5.688595727901e-03
1.070320032625e-02
9.994448601793e-03
9.446797103164e-03
9.290603040677e-03
4.453798904634e-03
4.192070558402e-03
8.689774216846e-03
7.475560198149e-03
9.736862032501e-03
1.009761875127e-02
4.979140638776e-03
4.242606964801e-03
2.269483583527e-03
7.954652471387e-03
1.457614812345e-02
1.142260835706e-02
2.530779231306e-03
2.519174425567e-03
4.878184278733e-03
5.749709834220e-03
1.449972893291e-02
5.882841985489e-03
6.084512333865e-03
5.751810255909e-03
4.784855072710e-03
1.326997252921e-02
4.462117294401e-03
8.233548137779e-03
1.451225905429e-02
5.499338966999e-03
6.074349565133e-03
1.716294267669e-03
1.447069960985e-02
1.447235574143e-02
1.415643537508e-02
1.393969152043e-02
1.433582544676e-02
5.808271721096e-03
5.439803870980e-03
1.457900200130e-02
2.771669723493e-03
2.890863397883e-03
3.253549162469e-03
3.533896916291e-03
3.099948428244e-03
3.020255387792e-03
9.527834438951e-03
1.018947289457e-02
8.254700998402e-03
2.739039211414e-03
3.418871916838e-03
3.995134231532e-03
1.457862088483e-02
1.450903775434e-02
4.715631000209e-03
5.230755687094e-03
4.077477645338e-03
1.448433277682e-02
4.478170104953e-03
4.228568917738e-03
1.504383850775e-03
2.135698876763e-03
5.766196865268e-03
5.827030760717e-03
1.395482811524e-02
1.375943878987e-02
1.409763177782e-02
1.885530525737e-03
5.809542778096e-03
2.294014865089e-03
2.267633345277e-03
2.627357571360e-03
5.656905206439e-03
6.054076493987e-03
7.146052072411e-03
4.219576206791e-03
1.446401817509e-02
1.385394438017e-02
3.643583743172e-03
1.365372847161e-02
1.380817016146e-02
1.344761338891e-02
1.296633371251e-03
1.399565579494e-02
1.425678205314e-02
1.306201922764e-03
1.443840606129e-02
1.022883584359e-03
1.074704491557e-03
3.020432849544e-03
3.003507650868e-03
3.477178244223e-03
3.441683269625e-03
3.054245297411e-03
3.491530201054e-03
1.370223978115e-02
3.899823035292e-03
3.893567846583e-03
4.284119856122e-03
9.828820973271e-03
6.120143234474e-03
6.400126833595e-03
6.449147519525e-03
1.058472149493e-02
1.078299598175e-02
4.237177027691e-03
4.047980761714e-03
1.361320565815e-02
1.356762795615e-02
1.384406827313e-02
1.378791866617e-02
1.402601336749e-02
1.396829081647e-02
1.417616068088e-02
8.125715106719e-03
5.918370810493e-03
1.125944299239e-02
4.659848358254e-03
3.880342156187e-03
8.587037090684e-03
8.464458024880e-03
2.763257022323e-03
6.020555390393e-03
1.428207407586e-02
3.991990861931e-03
4.480517910931e-03
6.006626356174e-03
8.753419053527e-03
6.484314003418e-03
6.881207264644e-03
2.093127802007e-03
2.222693019291e-03
5.700723692704e-03
1.423026378085e-02
5.706720338092e-03
4.215487107483e-03
6.118931462972e-03
7.741333933698e-03
5.766228175400e-03
5.942092884924e-03
1.159234272412e-02
1.268940734324e-02
1.210678738179e-02
6.200649786043e-03
7.389546762227e-03
7.299151616262e-03
9.719306841529e-03
1.379179127081e-02
1.346172999989e-02
1.344337282511e-02
1.311644988403e-02
1.309395022624e-02
1.270513423056e-02
1.278199885348e-02
1.232566671280e-02
1.252711269482e-02
1.194842167825e-02
1.178763870563e-02
1.138796455854e-02
1.159806111708e-02
1.123083233028e-02
5.539884364977e-03
6.012562302940e-03
4.598854110952e-03
5.719861448600e-03
8.373308791023e-03
1.292670322627e-02
1.354178391081e-02
6.111016608048e-03
1.088441920235e-02
1.153330237007e-02
5.958908192108e-03
9.779660410851e-03
1.347700084777e-02
1.309379722849e-02
1.350323846590e-02
1.391901967902e-02
1.445272137673e-02
7.356163308810e-03
4.959775700313e-03
5.382715063490e-03
5.739099233720e-03
1.221991601213e-02
4.775162467848e-03
3.822723799875e-03
3.372025722665e-03
3.045081746354e-03
3.850383994453e-03
1.225029853938e-02
1.185489762022e-02
5.420983739241e-03
5.615458448967e-03
5.451473461462e-03
5.797666093834e-03
5.895239900871e-03
6.021015567027e-03
5.980135593825e-03
6.130002710564e-03
1.044175659212e-02
3.414647353623e-03
2.486469636896e-03
2.926582853079e-03
3.388217991612e-03
3.076550377252e-03
3.025683996481e-03
2.904791245404e-03
3.089786745794e-03
6.695503502865e-03
3.358008862833e-03
3.974762820243e-03
3.136811791744e-03
1.386598627805e-02
1.419853010899e-02
1.416292489115e-02
1.421428428078e-02
1.416004954107e-02
3.234192711499e-03
3.394870635259e-03
3.459090289274e-03
3.563231346714e-03
3.595244760477e-03
3.484560461986e-03
3.726709771777e-03
3.708215478655e-03
1.360047175534e-02
3.578373542156e-03
4.597690262815e-03
3.533840115521e-03
4.809232429406e-03
5.420188974867e-03
5.362506500582e-03
5.981976642970e-03
5.013284571858e-03
1.579173003233e-03
2.519168790516e-03
1.033345732401e-03
1.895242798515e-03
3.109017124152e-03
2.687881774511e-03
4.713139957718e-03
3.329076353659e-03
3.223115471426e-03
3.011967784959e-03
3.100797129293e-03
3.384469817786e-03
2.860218115879e-03
2.733960889102e-03
2.052982848592e-03
1.365928349018e-03
1.513052495451e-03
7.844143844274e-04
8.083742414673e-04
1.297818024902e-03
1.185706454174e-03
1.714565210159e-03
1.066196567438e-03
8.614346923232e-04
1.500021468383e-03
1.434187136940e-02
1.440035494100e-02
3.510306925592e-03
1.349526515839e-02
5.664511560509e-04
1.441306706122e-02
1.438230948967e-02
1.438785898431e-02
4.604825846048e-03
4.654519415756e-03
1.440228151849e-02
3.136588329083e-03
1.317627995224e-02
1.454539852470e-02
5.995421222481e-03
3.898640648578e-03
3.853342207468e-03
2.735111966529e-03
3.962157910277e-03
3.381516796675e-03
3.277300107151e-03
2.924109479056e-03
1.175947944965e-03
1.432476456069e-02
1.409240394515e-02
1.453812345038e-02
2.720903538697e-03
3.361913766933e-03
1.972890638004e-03
9.495847042852e-03
9.592060878037e-03
3.373104636410e-03
3.118209009336e-03
3.420734100231e-03
4.227978809935e-03
6.101381997203e-03
3.104056360686e-03
1.997382139135e-03
1.453388933232e-02
8.822904708950e-04
1.781628036536e-03
2.590435642960e-03
1.451880611130e-02
3.593206772466e-03
5.024579209308e-03
1.464253737021e-02
1.430013873683e-02
1.438176891310e-02
1.466024506369e-03
1.406035632238e-02
2.217949191117e-03
1.408860838949e-02
2.454719690212e-03
5.288057972522e-03
7.292853813619e-03
1.266081151033e-02
1.454294264475e-02
5.802211881074e-03
2.725761445628e-03
3.861230342409e-03
2.555232068043e-03
2.600935324595e-03
5.886508781111e-03
1.462396621552e-02
8.387414041666e-03
6.144685034500e-03
1.454375438977e-02
3.819186049111e-03
4.032861935260e-03
8.902337714351e-03
8.149342983176e-03
1.054379355782e-02
6.622727841465e-03
3.881893665465e-03
2.146162132911e-03
5.823146912385e-03
6.021533708602e-03
1.446669433336e-02
7.793530149131e-03
1.454298748647e-02
7.180925745566e-03
2.734678194405e-03
1.446296851701e-02
2.945470534804e-03
1.440497239690e-03
5.862266925431e-03
6.231017513256e-03
5.864549490483e-03
2.759967897863e-03
1.368582625783e-02
3.154828879288e-03
1.664345101950e-03
5.564458169012e-03
1.201848998668e-02
3.557723990934e-03
4.654362782630e-03
3.610921279148e-03
3.592008685348e-03
8.876634631974e-03
9.126705445025e-03
3.927973359982e-03
2.132043931080e-03
6.052918534948e-03
1.327522355059e-02
4.284018012595e-03
1.968804982768e-03
6.678087112526e-03
4.520523065744e-03
1.106875110837e-02
2.799423241974e-03
8.769630109681e-03
1.405020965167e-02
2.385998808695e-03
1.311386427225e-02
2.967576304061e-03
5.049001117630e-03
8.153418338823e-04
1.054257407398e-02
3.106242842234e-03
6.170360380280e-03
3.908743249130e-03
5.811303167832e-03
3.289598869400e-03
6.093199092230e-03
3.491876706882e-03
9.693855732205e-03
1.265540918859e-02
3.698485328241e-03
8.876078414304e-03
1.009608101689e-03
6.239569240047e-03
4.443799235941e-03
3.814685858747e-03
3.419611955632e-03
1.266406412455e-02
8.468080700456e-03
2.855724932336e-03
9.059951745771e-03
5.802024983631e-03
5.645981493731e-03
2.184756922803e-03
7.893193886689e-03
3.321482087586e-03
3.076001518681e-03
5.806870787832e-03
9.760458932022e-03
7.799406554529e-04
1.169601464883e-02
2.810596114451e-03
5.656444449059e-03
5.412723520459e-03
1.402757044706e-02
5.219570548656e-03
2.021242960446e-03
4.984125653725e-03
5.366403056905e-03
4.406043250717e-03
4.229543895451e-03
1.448980484220e-02
3.927159051896e-03
1.439502214983e-02
4.858609073749e-03
1.351526358482e-02
7.561756689750e-03
2.731800419856e-03
6.772776430721e-03
3.900785067062e-03
1.064240648026e-02
1.353509471271e-02
3.656960527492e-03
1.210762871176e-02
8.594462483536e-03
1.429655948728e-02
3.248965854489e-03
5.361066732165e-03
1.445709437267e-02
1.331571144363e-02
1.517197336334e-03
4.039255456623e-03
6.758681128796e-03
6.108409286949e-03
5.790416649779e-03
2.647432984386e-03
3.901509604733e-03
6.177739797983e-03
4.282899598429e-03
1.384199719948e-02
5.996775721792e-03
5.801996115511e-03
1.433305454709e-02
6.985992352388e-03
3.978039670716e-03
6.360068298793e-03
5.758323999266e-03
1.433106023985e-02
1.006655603386e-02
1.441632561147e-02
4.328097252244e-03
1.398803321912e-02
1.445475234571e-02
6.094723860550e-03
1.443853374468e-02
1.081466368096e-02
1.394435541988e-02
1.394724699315e-02
4.672307621228e-03
1.293757313071e-02
5.865571208249e-03
1.431932849048e-02
3.082547086601e-03
4.430614132025e-03
3.078981262758e-03
1.103943284764e-02
4.473571041643e-03
8.176638397661e-04
9.141089762462e-04
2.836570281593e-03
1.126913186619e-02
5.900975376071e-03
1.428533510037e-02
5.395486573467e-03
1.333428918791e-02
1.000134511894e-03
4.535515192261e-03
1.448243907893e-02
3.295632950956e-03
1.411011212297e-02
2.365970014730e-03
8.164603678643e-03
2.399280821525e-03
1.447305450089e-02
2.916128630324e-03
1.388809872580e-02
6.211495225340e-03
3.789877037414e-03
7.753559837392e-03
2.743988975142e-03
1.328577340703e-02
1.339968224890e-02
2.906869873820e-03
1.108754876162e-03
1.438355979717e-02
2.404131669177e-03
1.324114131889e-02
4.926779606900e-03
7.879785737583e-04
1.373342949785e-02
1.173767803201e-02
3.647920544351e-03
1.444604008879e-02
4.697040832919e-03
2.737819273325e-03
1.414526958388e-02
6.532260935340e-03
1.421147456249e-02
1.405878537908e-02
5.834152752798e-03
1.129188300921e-02
3.383006672043e-03
9.422488522828e-03
3.601193477800e-03
5.628760601458e-03
3.761199085434e-03
9.424708449559e-04
3.782367732339e-03
3.477803642851e-03


CELL_DATA 1919

SCALARS element_number int
LOOKUP_TABLE default
407
408
409
410
411
412
413
414
415
416
417
418
419
420
421
422
423
424
425
426
427
428
429
430
431
432
433
434
435
436
437
438
439
440
441
442
443
444
445
446
447
448
449
450
451
452
453
454
455
456
457
458
459
460
461
462
463
464
465
466
467
468
469
470
471
472
473
474
475
476
477
478
479
480
481
482
483
484
485
486
487
488
489
490
491
492
493
494
495
496
497
498
499
500
501
502
503
504
505
506
507
508
509
510
511
512
513
514
515
516
517
518
519
520
521
522
523
524
525
526
527
528
529
530
531
532
533
534
535
536
537
538
539
540
541
542
543
544
545
546
547
548
549
550
551
552
553
554
555
556
557
558
559
560
561
562
563
564
565
566
567
568
569
570
571
572
573
574
575
576
577
578
579
580
581
582
583
584
585
586
587
588
589
590
591
592
593
594
595
596
597
598
599
600
601
602
603
604
605
606
607
608
609
610
611
612
613
614
615
616
617
618
619
620
621
622
623
624
625
626
627
628
629
630
631
632
633
634
635
636
637
638
639
640
641
642
643
644
645
646
647
648
649
650
651
652
653
654
655
656
657
658
659
660
661
662
663
664
665
666
667
668
669
670
671
672
673
674
675
676
677
678
679
680
681
682
683
684
685
686
687
688
689
690
691
692
693
694
695
696
697
698
699
700
701
702
703
704
705
706
707
708
709
710
711
712
713
714
715
716
717
718
719
720
721
722
723
724
725
726
727
728
729
730
731
732
733
734
735
736
737
738
739
740
741
742
743
744
745
746
747
748
749
750
751
752
753
754
755
756
757
758
759
760
761
762
763
764
765
766
767
768
769
770
771
772
773
774
775
776
777
778
779
780
781
782
783
784
785
786
787
788
789
790
791
792
793
794
795
796
797
798
799
800
801
802
803
804
805
806
807
808
809
810
811
812
813
814
815
816
817
818
819
820
821
822
823
824
825
826
827
828
829
830
831
832
833
834
835
836
837
838
839
840
841
842
843
844
845
846
847
848
849
850
851
852
853
854
855
856
857
858
859
860
861
862
863
864
865
866
867
868
869
870
871
872
873
874
875
876
877
878
879
880
881
882
883
884
885
886
887
888
889
890
891
892
893
894
895
896
897
898
899
900
901
902
903
904
905
906
907
908
909
910
911
912
913
914
915
916
917
918
919
920
921
922
923
924
925
926
927
928
929
930
931
932
933
934
935
936
937
938
939
940
941
942
943
944
945
946
947
948
949
950
951
952
953
954
955
956
957
958
959
960
961
962
963
964
965
966
967
968
969
970
971
972
973
974
975
976
977
978
979
980
981
982
983
984
985
986
987
988
989
990
991
992
993
994
995
996
997
998
999
1000
1001
1002
1003
1004
1005
1006
1007
1008
1009
1010
1011
1012
1013
1014
1015
1016
1017
1018
1019
1020
1021
1022
1023
1024
1025
1026
1027
1028
1029
1030
1031
1032
1033
1034
1035
1036
1037
1038
1039
1040
1041
1042
1043
1044
1045
1046
1047
1048
1049
1050
1051
1052
1053
1054
1055
1056
1057
1058
1059
1060
1061
1062
1063
1064
1065
1066
1067
1068
1069
1070
1071
1072
1073
1074
1075
1076
1077
1078
1079
1080
1081
1082
1083
1084
1085
1086
1087
1088
1089
1090
1091
1092
1093
1094
1095
1096
1097
1098
1099
1100
1101
1102
1103
1104
1105
1106
1107
1108
1109
1110
1111
1112
1113
1114
1115
1116
1117
1118
1119
1120
1121
1122
1123
1124
1125
1126
1127
1128
1129
1130
1131
1132
1133
1134
1135
1136
1137
1138
1139
1140
1141
1142
1143
1144
1145
1146
1147
1148
1149
1150
1151
1152
1153
1154
1155
1156
1157
1158
1159
1160
1161
1162
1163
1164
1165
1166
1167
1168
1169
1170
1171
1172
1173
1174
1175
1176
1177
1178
1179
1180
1181
1182
1183
1184
1185
1186
1187
1188
1189
1190
1191
1192
1193
1194
1195
1196
1197
1198
1199
1200
1201
1202
1203
1204
1205
1206
1207
1208
1209
1210
1211
1212
1213
1214
1215
1216
1217
1218
1219
1220
1221
1222
1223
1224
1225
1226
1227
1228
1229
1230
1231
1232
1233
1234
1235
1236
1237
1238
1239
1240
1241
1242
1243
1244
1245
1246
1247
1248
1249
1250
1251
1252
1253
1254
1255
1256
1257
1258
1259
1260
1261
1262
1263
1264
1265
1266
1267
1268
1269
1270
1271
1272
1273
1274
1275
1276
1277
1278
1279
1280
1281
1282
1283
1284
1285
1286
1287
1288
1289
1290
1291
1292
1293
1294
1295
1296
1297
1298
1299
1300
1301
1302
1303
1304
1305
1306
1307
1308
1309
1310
1311
1312
1313
1314
1315
1316
1317
1318
1319
1320
1321
1322
1323
1324
1325
1326
1327
1328
1329
1330
1331
1332
1333
1334
1335
1336
1337
1338
1339
1340
1341
1342
1343
1344
1345
1346
1347
1348
1349
1350
1351
1352
1353
1354
1355
1356
1357
1358
1359
1360
1361
1362
1363
1364
1365
1366
1367
1368
1369
1370
1371
1372
1373
1374
1375
1376
1377
1378
1379
1380
1381
1382
1383
1384
1385
1386
1387
1388
1389
1390
1391
1392
1393
1394
1395
1396
1397
1398
1399
1400
1401
1402
1403
1404
1405
1406
1407
1408
1409
1410
1411
1412
1413
1414
1415
1416
1417
1418
1419
1420
1421
1422
1423
1424
1425
1426
1427
1428
1429
1430
1431
1432
1433
1434
1435
1436
1437
1438
1439
1440
1441
1442
1443
1444
1445
1446
1447
1448
1449
1450
1451
1452
1453
1454
1455
1456
1457
1458
1459
1460
1461
1462
1463
1464
1465
1466
1467
1468
1469
1470
1471
1472
1473
1474
1475
1476
1477
1478
1479
1480
1481
1482
1483
1484
1485
1486
1487
1488
1489
1490
1491
1492
1493
1494
1495
1496
1497
1498
1499
1500
1501
1502
1503
1504
1505
1506
1507
1508
1509
1510
1511
1512
1513
1514
1515
1516
1517
1518
1519
1520
1521
1522
1523
1524
1525
1526
1527
1528
1529
1530
1531
1532
1533
1534
1535
1536
1537
1538
1539
1540
1541
1542
1543
1544
1545
1546
1547
1548
1549
1550
1551
1552
1553
1554
1555
1556
1557
1558
1559
1560
1561
1562
1563
1564
1565
1566
1567
1568
1569
1570
1571
1572
1573
1574
1575
1576
1577
1578
1579
1580
1581
1582
1583
1584
1585
1586
1587
1588
1589
1590
1591
1592
1593
1594
1595
1596
1597
1598
1599
1600
1601
1602
1603
1604
1605
1606
1607
1608
1609
1610
1611
1612
1613
1614
1615
1616
1617
1618
1619
1620
1621
1622
1623
1624
1625
1626
1627
1628
1629
1630
1631
1632
1633
1634
1635
1636
1637
1638
1639
1640
1641
1642
1643
1644
1645
1646
1647
1648
1649
1650
1651
1652
1653
1654
1655
1656
1657
1658
1659
1660
1661
1662
1663
1664
1665
1666
1667
1668
1669
1670
1671
1672
1673
1674
1675
1676
1677
1678
1679
1680
1681
1682
1683
1684
1685
1686
1687
1688
1689
1690
1691
1692
1693
1694
1695
1696
1697
1698
1699
1700
1701
1702
1703
1704
1705
1706
1707
1708
1709
1710
1711
1712
1713
1714
1715
1716
1717
1718
1719
1720
1721
1722
1723
1724
1725
1726
1727
1728
1729
1730
1731
1732
1733
1734
1735
1736
1737
1738
1739
1740
1741
1742
1743
1744
1745
1746
1747
1748
1749
1750
1751
1752
1753
1754
1755
1756
1757
1758
1759
1760
1761
1762
1763
1764
1765
1766
1767
1768
1769
1770
1771
1772
1773
1774
1775
1776
1777
1778
1779
1780
1781
1782
1783
1784
1785
1786
1787
1788
1789
1790
1791
1792
1793
1794
1795
1796
1797
1798
1799
1800
1801
1802
1803
1804
1805
1806
1807
1808
1809
1810
1811
1812
1813
1814
1815
1816
1817
1818
1819
1820
1821
1822
1823
1824
1825
1826
1827
1828
1829
1830
1831
1832
1833
1834
1835
1836
1837
1838
1839
1840
1841
1842
1843
1844
1845
1846
1847
1848
1849
1850
1851
1852
1853
1854
1855
1856
1857
1858
1859
1860
1861
1862
1863
1864
1865
1866
1867
1868
1869
1870
1871
1872
1873
1874
1875
1876
1877
1878
1879
1880
1881
1882
1883
1884
1885
1886
1887
1888
1889
1890
1891
1892
1893
1894
1895
1896
1897
1898
1899
1900
1901
1902
1903
1904
1905
1906
1907
1908
1909
1910
1911
1912
1913
1914
1915
1916
1917
1918
1919
1920
1921
1922
1923
1924
1925
1926
1927
1928
1929
1930
1931
1932
1933
1934
1935
1936
1937
1938
1939
1940
1941
1942
1943
1944
1945
1946
1947
1948
1949
1950
1951
1952
1953
1954
1955
1956
1957
1958
1959
1960
1961
1962
1963
1964
1965
1966
1967
1968
1969
1970
1971
1972
1973
1974
1975
1976
1977
1978
1979
1980
1981
1982
1983
1984
1985
1986
1987
1988
1989
1990
1991
1992
1993
1994
1995
1996
1997
1998
1999
2000
2001
2002
2003
2004
2005
2006
2007
2008
2009
2010
2011
2012
2013
2014
2015
2016
2017
2018
2019
2020
2021
2022
2023
2024
2025
2026
2027
2028
2029
2030
2031
2032
2033
2034
2035
2036
2037
2038
2039
2040
2041
2042
2043
2044
2045
2046
2047
2048
2049
2050
2051
2052
2053
2054
2055
2056
2057
2058
2059
2060
2061
2062
2063
2064
2065
2066
2067
2068
2069
2070
2071
2072
2073
2074
2075
2076
2077
2078
2079
2080
2081
2082
2083
2084
2085
2086
2087
2088
2089
2090
2091
2092
2093
2094
2095
2096
2097
2098
2099
2100
2101
2102
2103
2104
2105
2106
2107
2108
2109
2110
2111
2112
2113
2114
2115
2116
2117
2118
2119
2120
2121
2122
2123
2124
2125
2126
2127
2128
2129
2130
2131
2132
2133
2134
2135
2136
2137
2138
2139
2140
2141
2142
2143
2144
2145
2146
2147
2148
2149
2150
2151
2152
2153
2154
2155
2156
2157
2158
2159
2160
2161
2162
2163
2164
2165
2166
2167
2168
2169
2170
2171
2172
2173
2174
2175
2176
2177
2178
2179
2180
2181
2182
2183
2184
2185
2186
2187
2188
2189
2190
2191
2192
2193
2194
2195
2196
2197
2198
2199
2200
2201
2202
2203
2204
2205
2206
2207
2208
2209
2210
2211
2212
2213
2214
2215
2216
2217
2218
2219
2220
2221
2222
2223
2224
2225
2226
2227
2228
2229
2230
2231
2232
2233
2234
2235
2236
2237
2238
2239
2240
2241
2242
2243
2244
2245
2246
2247
2248
2249
2250
2251
2252
2253
2254
2255
2256
2257
2258
2259
2260
2261
2262
2263
2264
2265
2266
2267
2268
2269
2270
2271
2272
2273
2274
2275
2276
2277
2278
2279
2280
2281
2282
2283
2284
2285
2286
2287
2288
2289
2290
2291
2292
2293
2294
2295
2296
2297
2298
2299
2300
2301
2302
2303
2304
2305
2306
2307
2308
2309
2310
2311
2312
2313
2314
2315
2316
2317
2318
2319
2320
2321
2322
2323
2324
2325

SCALARS element_group int
LOOKUP_TABLE default
0
0
0
0
0
0
0
0
0
0
0
0
0
0
0
0
0
0
0
0
0
0
0
0
0
0
0
0
0
0
0
0
0
0
0
0
0
0
0
0
0
0
0
0
0
0
0
0
0
0
0
0
0
0
0
0
0
0
0
0
0
0
0
0
0
0
0
0
0
0
0
0
0
0
0
0
0
0
0
0
0
0
0
0
0
0
0
0
0
0
0
0
0
0
0
0
0
0
0
0
0
0
0
0
0
0
0
0
0
0
0
0
0
0
0
0
0
0
0
0
0
0
0
0
0
0
0
0
0
0
0
0
0
0
0
0
0
0
0
0
0
0
0
0
0
0
0
0
0
0
0
0
0
0
0
0
0
0
0
0
0
0
0
0
0
0
0
0
0
0
0
0
0
0
0
0
0
0
0
0
0
0
0
0
0
0
0
0
0
0
0
0
0
0
0
0
0
0
0
0
0
0
0
0
0
0
0
0
0
0
0
0
0
0
0
0
0
0
0
0
0
0
0
0
0
0
0
0
0
0
0
0
0
0
0
0
0
0
0
0
0
0
0
0
0
0
0
0
0
0
0
0
0
0
0
0
0
0
0
0
0
0
0
0
0
0
0
0
0
0
0
0
0
0
0
0
0
0
0
0
0
0
0
0
0
0
0
0
0
0
0
0
0
0
0
0
0
0
0
0
0
0
0
0
0
0
0
0
0
0
0
0
0
0
0
0
0
0
0
0
0
0
0
0
0
0
0
0
0
0
0
0
0
0
0
0
0
0
0
0
0
0
0
0
0
0
0
0
0
0
0
0
0
0
0
0
0
0
0
0
0
0
0
0
0
0
0
0
0
0
0
0
0
0
0
0
0
0
0
0
0
0
0
0
0
0
0
0
0
0
0
0
0
0
0
0
0
0
0
0
0
0
0
0
0
0
0
0
0
0
0
0
0
0
0
0
0
0
0
0
0
0
0
0
0
0
0
0
0
0
0
0
0
0
0
0
0
0
0
0
0
0
0
0
0
0
0
0
0
0
0
0
0
0
0
0
0
0
0
0
0
0
0
0
0
0
0
0
0
0
0
0
0
0
0
0
0
0
0
0
0
0
0
0
0
0
0
0
0
0
0
0
0
0
0
0
0
0
0
0
0
0
0
0
0
0
0
0
0
0
0
0
0
0
0
0
0
0
0
0
0
0
0
0
0
0
0
0
0
0
0
0
0
0
0
0
0
0
0
0
0
0
0
0
0
0
0
0
0
0
0
0
0
0
0
0
0
0
0
0
0
0
0
0
0
0
0
0
0
0
0
0
0
0
0
0
0
0
0
0
0
0
0
0
0
0
0
0
0
0
0
0
0
0
0
0
0
0
0
0
0
0
0
0
0
0
0
0
0
0
0
0
0
0
0
0
0
0
0
0
0
0
0
0
0
0
0
0
0
0
0
0
0
0
0
0
0
0
0
0
0
0
0
0
0
0
0
0
0
0
0
0
0
0
0
0
0
0
0
0
0
0
0
0
0
0
0
0
0
0
0
0
0
0
0
0
0
0
0
0
0
0
0
0
0
0
0
0
0
0
0
0
0
0
0
0
0
0
0
0
0
0
0
0
0
0
0
0
0
0
0
0
0
0
0
0
0
0
0
0
0
0
0
0
0
0
0
0
0
0
0
0
0
0
0
0
0
0
0
0
0
0
0
0
0
0
0
0
0
0
0
0
0
0
0
0
0
0
0
0
0
0
0
0
0
0
0
0
0
0
0
0
0
0
0
0
0
0
0
0
0
0
0
0
0
0
0
0
0
0
0
0
0
0
0
0
0
0
0
0
0
0
0
0
0
0
0
0
0
0
0
0
0
0
0
0
0
0
0
0
0
0
0
0
0
0
0
0
0
0
0
0
0
0
0
0
0
0
0
0
0
0
0
0
0
0
0
0
0
0
0
0
0
0
0
0
0
0
0
0
0
0
0
0
0
0
0
0
0
0
0
0
0
0
0
0
0
0
0
0
0
0
0
0
0
0
0
0
0
0
0
0
0
0
0
0
0
0
0
0
0
0
0
0
0
0
0
0
0
0
0
0
0
0
0
0
0
0
0
0
0
0
0
0
0
0
0
0
0
0
0
0
0
0
0
0
0
0
0
0
0
0
0
0
0
0
0
0
0
0
0
0
0
0
0
0
0
0
0
0
0
0
0
0
0
0
0
0
0
0
0
0
0
0
0
0
0
0
0
0
0
0
0
0
0
0
0
0
0
0
0
0
0
0
0
0
0
0
0
0
0
0
0
0
0
0
0
0
0
0
0
0
0
0
0
0
0
0
0
0
0
0
0
0
0
0
0
0
0
0
0
0
0
0
0
0
0
0
0
0
0
0
0
0
0
0
0
0
0
0
0
0
0
0
0
0
0
0
0
0
0
0
0
0
0
0
0
0
0
0
0
0
0
0
0
0
0
0
0
0
0
0
0
0
0
0
0
0
0
0
0
0
0
0
0
0
0
0
0
0
0
0
0
0
0
0
0
0
0
0
0
0
0
0
0
0
0
0
0
0
0
0
0
0
0
0
0
0
0
0
0
0
0
0
0
0
0
0
0
0
0
0
0
0
0
0
0
0
0
0
0
0
0
0
0
0
0
0
0
0
0
0
0
0
0
0
0
0
0
0
0
0
0
0
0
0
0
0
0
0
0
0
0
0
0
0
0
0
0
0
0
0
0
0
0
0
0
0
0
0
0
0
0
0
0
0
0
0
0
0
0
0
0
0
0
0
0
0
0
0
0
0
0
0
0
0
0
0
0
0
0
0
0
0
0
0
0
0
0
0
0
0
0
0
0
0
0
0
0
0
0
0
0
0
0
0
0
0
0
0
0
0
0
0
0
0
0
0
0
0
0
0
0
0
0
0
0
0
0
0
0
0
0
0
0
0
0
0
0
0
0
0
0
0
0
0
0
0
0
0
0
0
0
0
0
0
0
0
0
0
0
0
0
0
0
0
0
0
0
0
0
0
0
0
0
0
0
0
0
0
0
0
0
0
0
0
0
0
0
0
0
0
0
0
0
0
0
0
0
0
0
0
0
0
0
0
0
0
0
0
0
0
0
0
0
0
0
0
0
0
0
0
0
0
0
0
0
0
0
0
0
0
0
0
0
0
0
0
0
0
0
0
0
0
0
0
0
0
0
0
0
0
0
0
0
0
0
0
0
0
0
0
0
0
0
0
0
0
0
0
0
0
0
0
0
0
0
0
0
0
0
0
0
0
0
0
0
0
0
0
0
0
0
0
0
0
0
0
0
0
0
0
0
0
0
0
0
0
0
0
0
0
0
0
0
0
0
0
0
0
0
0
0
0
0
0
0
0
0
0
0
0
0
0
0
0
0
0
0
0
0
0
0
0
0
0
0
0
0
0
0
0
0
0
0
0
0
0
0
0
0
0
0
0
0
0
0
0
0
0
0
0
0
0
0
0
0
0
0
0
0
0
0
0
0
0
0
0
0
0
0
0
0
0
0
0
0
0
0
0
0
0
0
0
0
0
0
0
0
0
0
0
0
0
0
0
0
0
0
0
0
0
0
0
0
0
0
0
0
0
0
0
0
0
0
0
0
0
0
0
0
0
0
0
0
0
0
0
0
0
0
0
0
0
0
0
0
0
0
0
0
0
0
0
0
0
0
0
0
0
0
0
0
0
0
0
0
0
0
0
0
0
0
0
0
0
0
0
0
0
0
0
0
0
0
0
0
0
0
0
0
0
0
0
0
0
0
0
0
0
0
0
0
0
0
0
0
0
0
0
0
0
0
0
0
0
0
0
0
0
0
0
0
0
0
0
0
0
0
0
0
0
0
0
0
0
0
0
0
0
0
0
0
0
0
0
0
0
0
0
0
0
0
0
0
0
0
0
0
0
0
0
0
0
0
0
0
0
0
0
0
0
0
0
0
0
0
0
0
0
0
0
0
0
0
0
0
0
0
0
0
0
0
0
0
0
0
0
0
0
0
0
0
0
0
0
0
0
0
0
0
0
0
0
0
0
0
0
0
0
0
0
0
0
0
0
0
0
0
0
0
0
0
0
0
0
0
0
0
0
0
0
0
0
0
0
0
0
0
0
0
0
0
0
0
0
0
0
0
0
0
0
0
0
0
0
0
0
0
0
0
0
0
0
0
0
0
0
0
0
0
0
0
0
0
0
0
0
0
0
0
0
0
0
0
0
0
0
0
0
0
0
0
0
0
0
0
0
0
0
0
0
0
0
0
0
0
0
0
0
0
0
0
0
0
0
0
0
0
0
0
0
0
0
0
0
0
0
0
0
0
0
0
0
0
0
0
0
0
0
0
0
0
0
0
0
0
0
0


VECTORS element_materi_velocity float
7.554220713390e-04 1.594244045112e-04 0.0 
7.742537520454e-04 9.540254436387e-05 0.0 
7.787986065640e-04 3.703424201375e-04 0.0 
1.631923291718e-04 1.504770185687e-03 0.0 
8.652480271909e-04 8.410504848126e-03 0.0 
4.781584495798e-04 -2.957418129535e-04 0.0 
6.758170175447e-04 8.433835233295e-03 0.0 
7.200698548402e-04 3.359025265735e-05 0.0 
7.371113253590e-04 8.463901025503e-03 0.0 
2.429452859724e-04 1.533892703585e-03 0.0 
3.351562116480e-05 -3.659545270909e-05 0.0 
6.652920352834e-04 3.135860061353e-05 0.0 
1.222175614889e-05 2.960111483037e-06 0.0 
1.686932684011e-03 6.657510328253e-03 0.0 
9.955653204481e-06 2.769297185523e-06 0.0 
1.347528158825e-04 1.058858434123e-03 0.0 
1.005642812089e-03 8.451282662691e-03 0.0 
4.755330425332e-04 -3.027015277644e-04 0.0 
5.112965553874e-05 -1.681240726581e-04 0.0 
3.816607813263e-05 -1.616728310478e-04 0.0 
2.914737016357e-04 1.566812737876e-03 0.0 
9.059440966753e-04 3.700013920298e-04 0.0 
9.988884581654e-04 3.968861374292e-04 0.0 
2.027641973892e-04 2.452291506562e-06 0.0 
2.292018571387e-03 4.745427879805e-03 0.0 
3.602770428461e-05 -3.024020067895e-05 0.0 
1.614836864577e-03 6.145067261112e-03 0.0 
4.441936452125e-04 7.838177702444e-05 0.0 
2.399590774174e-03 4.368207117360e-03 0.0 
1.630863387324e-04 4.716843289554e-06 0.0 
4.291151476274e-04 -3.050192563047e-04 0.0 
2.818776668834e-04 -2.592474150334e-04 0.0 
9.402004018449e-04 4.821790551659e-04 0.0 
9.270795601682e-06 -5.800368558600e-06 0.0 
7.057491036858e-05 2.229907599855e-06 0.0 
1.884306544579e-05 1.737951105409e-06 0.0 
1.717953580647e-05 1.745258625428e-06 0.0 
2.355455276242e-04 2.010254060604e-05 0.0 
5.113635902794e-04 9.407896430483e-03 0.0 
4.710684741314e-04 9.426236878065e-03 0.0 
1.364926894428e-03 8.388380224541e-04 0.0 
7.070156085334e-05 3.162651530869e-06 0.0 
5.985058061179e-04 -8.235729071302e-05 0.0 
2.123115745191e-03 5.183251564906e-03 0.0 
8.278948606103e-05 2.145532494867e-03 0.0 
5.992965689183e-04 -1.184414601656e-04 0.0 
4.232830415158e-04 -3.099797125208e-04 0.0 
9.572833159294e-05 1.818215618915e-03 0.0 
4.059775748568e-04 -3.134305068191e-04 0.0 
1.488426205437e-03 7.250824763122e-03 0.0 
1.154746870131e-03 5.874395633142e-04 0.0 
4.632726261680e-05 -1.533669506805e-04 0.0 
4.579235591482e-04 -2.940513738832e-04 0.0 
1.204832933477e-03 7.616198878961e-04 0.0 
8.039093737101e-04 6.036305367498e-04 0.0 
6.957836256547e-05 -1.321086116523e-04 0.0 
3.561236785961e-05 -1.471771222952e-04 0.0 
1.879851946729e-05 -6.190426582221e-06 0.0 
1.233656290514e-04 -1.904988478331e-04 0.0 
1.636829986419e-04 1.064758399700e-03 0.0 
4.235748486385e-04 -3.216569122575e-04 0.0 
5.277755201878e-04 5.803530801205e-05 0.0 
1.004659002650e-03 -1.539423146448e-05 0.0 
4.448069859969e-04 -2.970682240467e-04 0.0 
1.999634418563e-05 2.892847285593e-06 0.0 
1.029302143051e-03 5.415443402126e-04 0.0 
4.304368744940e-04 -3.208934622172e-04 0.0 
8.921636362062e-04 4.002490333413e-04 0.0 
3.379719909171e-04 -2.607924243332e-04 0.0 
5.461163746518e-04 1.542720412992e-04 0.0 
5.287312359322e-05 -2.489898987331e-05 0.0 
1.745952828155e-04 2.571421676201e-04 0.0 
5.837064266045e-04 9.645404967349e-05 0.0 
1.008548372770e-05 -1.975919517130e-04 0.0 
6.000471455443e-05 -1.251556719184e-04 0.0 
6.028060912264e-04 1.275865758297e-03 0.0 
9.578223949669e-04 6.922397399429e-04 0.0 
5.340458113790e-04 -2.002289833808e-04 0.0 
1.354739475022e-04 -1.893598122277e-04 0.0 
5.344187716093e-04 -1.759388140376e-04 0.0 
3.536116520245e-04 -2.671852136455e-04 0.0 
1.031016955408e-03 8.274741155355e-03 0.0 
8.839830132767e-04 2.539343882109e-04 0.0 
8.016172265077e-04 2.400960327315e-04 0.0 
9.092806385996e-04 7.857381999200e-03 0.0 
8.345533760012e-04 7.862505405332e-03 0.0 
3.035386966633e-05 -1.904655321687e-05 0.0 
5.082635779846e-06 -9.158203764717e-06 0.0 
1.872984186938e-03 8.765357771195e-04 0.0 
9.356738134215e-04 8.321635512067e-03 0.0 
2.942107863565e-04 -2.618214638939e-04 0.0 
2.250864310626e-03 5.117263176442e-03 0.0 
2.215479295510e-04 4.321835300807e-03 0.0 
2.618765488037e-04 4.675969356530e-03 0.0 
3.435257057076e-04 4.637974374514e-04 0.0 
1.716341483009e-04 1.813932265035e-05 0.0 
1.147296042378e-03 8.087240265986e-03 0.0 
8.100685421198e-05 2.801218976741e-06 0.0 
1.333109123799e-04 6.876118364577e-03 0.0 
9.540698272832e-04 1.052023212373e-05 0.0 
7.655492251483e-04 8.920392758202e-03 0.0 
1.279811155352e-05 2.777694001488e-06 0.0 
8.035287145936e-04 1.319198915067e-06 0.0 
4.989703102090e-04 4.949669468237e-05 0.0 
7.976147998855e-04 -1.681982720753e-04 0.0 
4.096906367755e-04 -3.088546869034e-04 0.0 
1.472125358679e-05 1.316542346373e-06 0.0 
2.338960541629e-04 3.717660637555e-03 0.0 
4.120489071585e-04 -3.182639481788e-04 0.0 
2.396614463485e-05 2.667756442849e-06 0.0 
1.967216915266e-03 9.054567192233e-04 0.0 
1.832195189557e-05 -2.037888549464e-04 0.0 
9.864006920553e-04 -1.545986752733e-04 0.0 
2.472935068128e-03 2.733363822553e-03 0.0 
9.315006594577e-05 -1.066595250554e-04 0.0 
8.739811961809e-04 -1.627793313483e-05 0.0 
9.742553217019e-04 -6.200523414724e-05 0.0 
4.923273121566e-05 2.796917889614e-06 0.0 
1.632279254133e-04 7.297719940503e-03 0.0 
8.996934489489e-04 -8.547723875909e-05 0.0 
2.907940116636e-04 -2.418488342113e-04 0.0 
2.293401037817e-03 4.789132669285e-03 0.0 
1.884305394686e-04 3.405179290047e-03 0.0 
8.784965131239e-04 -1.215368275334e-04 0.0 
4.855475599438e-04 -2.552819560956e-04 0.0 
1.974766602018e-03 1.598144036255e-03 0.0 
8.303081768122e-05 -1.096863294581e-04 0.0 
1.760241933795e-03 1.448304288588e-03 0.0 
4.667092824627e-04 8.881919965869e-04 0.0 
5.017951193387e-04 -2.626607158107e-04 0.0 
5.053509326050e-05 -3.036365101356e-05 0.0 
1.281704122142e-04 1.491559163013e-03 0.0 
1.451594437342e-03 3.433224077575e-04 0.0 
1.640108657047e-03 1.178582298967e-03 0.0 
7.677503512090e-05 2.248413394410e-06 0.0 
8.369859525283e-06 2.992071593470e-06 0.0 
4.279854548217e-05 -1.945852755105e-05 0.0 
1.568920652197e-03 4.107261859202e-04 0.0 
1.103667850654e-04 4.928354859726e-06 0.0 
1.464702825296e-03 5.195743169291e-04 0.0 
3.505838253015e-04 1.057777732455e-03 0.0 
6.709963154032e-04 2.002202349145e-04 0.0 
1.836018389700e-03 6.346119855605e-03 0.0 
4.695580833492e-04 5.671276207194e-03 0.0 
1.394454498736e-03 3.889893664134e-04 0.0 
1.443265286806e-03 1.062764202317e-03 0.0 
1.598127944891e-03 3.627808623788e-04 0.0 
8.864185899010e-04 -1.629766347948e-04 0.0 
6.052037532653e-04 8.925520374328e-03 0.0 
9.459944759756e-04 -1.748413261746e-04 0.0 
2.672951773287e-04 -2.510948789772e-04 0.0 
1.713316441847e-04 8.215799972352e-03 0.0 
4.795153699260e-05 -1.764174995418e-04 0.0 
2.336892142416e-03 2.162494276302e-03 0.0 
8.731516621393e-05 4.396421665991e-06 0.0 
8.156059602928e-04 -1.393524936494e-04 0.0 
2.251594452598e-05 -1.404874093018e-05 0.0 
6.415446953868e-04 -6.046047817068e-05 0.0 
8.507412539903e-04 1.260370754757e-05 0.0 
3.724364404615e-04 8.628134619088e-03 0.0 
8.948136900944e-04 -1.930005561034e-04 0.0 
2.079334260033e-05 -3.207692953617e-06 0.0 
3.067241416886e-04 -2.477855881801e-04 0.0 
2.064966992961e-05 1.194242444828e-06 0.0 
2.328651913717e-03 1.865061230449e-03 0.0 
2.751070905424e-05 2.821860963284e-06 0.0 
1.652261581829e-04 8.721831224262e-03 0.0 
8.289399342698e-04 -1.792118826771e-04 0.0 
2.479794104956e-03 2.587997922512e-03 0.0 
2.165006825358e-05 -3.790094963721e-05 0.0 
6.355356533577e-04 -1.636574372612e-05 0.0 
8.620948824289e-04 -2.074068865533e-04 0.0 
4.293000268760e-04 5.135244768808e-03 0.0 
4.083801680273e-04 8.962706284162e-03 0.0 
9.100858325646e-04 -1.707227085256e-04 0.0 
2.175852999114e-03 1.974141235037e-03 0.0 
1.342091217228e-03 3.751470781001e-04 0.0 
9.087577512077e-05 -9.682810494116e-05 0.0 
3.397205068218e-04 5.829961355390e-05 0.0 
6.222814417527e-04 1.634092013192e-04 0.0 
8.280413742845e-04 1.092490156719e-05 0.0 
7.881814531876e-05 -9.087895489448e-05 0.0 
3.285157903879e-04 -3.422208423695e-06 0.0 
1.387656719499e-03 5.783570257420e-04 0.0 
7.582243554266e-04 -1.433080524559e-05 0.0 
2.403482267027e-03 2.456939332041e-03 0.0 
9.692012160461e-04 -1.514395666175e-04 0.0 
2.463137766688e-04 1.144807909139e-03 0.0 
2.121730509166e-03 1.333296729032e-03 0.0 
1.421241083413e-05 -5.066813926536e-07 0.0 
5.638312175710e-04 -1.633971477641e-04 0.0 
7.888997190084e-04 -2.322706030542e-04 0.0 
1.921493897533e-03 9.937449923334e-04 0.0 
4.301325165782e-04 -2.950307873480e-04 0.0 
1.461862080560e-03 7.458663977117e-04 0.0 
3.400927738958e-04 -2.427801468657e-05 0.0 
1.731556905521e-04 -2.134453122715e-04 0.0 
1.015704617105e-03 6.461073199882e-04 0.0 
2.466839232149e-03 2.977664119538e-03 0.0 
3.357406370107e-04 -1.621989463304e-04 0.0 
3.619020544875e-04 -2.370310142243e-05 0.0 
2.388252844786e-03 4.722227401167e-03 0.0 
2.171533412154e-03 5.351848583867e-03 0.0 
1.510185665465e-04 3.919015161956e-06 0.0 
2.788878408096e-04 -1.832407611297e-04 0.0 
1.533848068853e-03 2.277693194807e-04 0.0 
2.236432892273e-03 1.394586303053e-03 0.0 
2.379418259482e-03 2.842034611460e-03 0.0 
2.386778690590e-03 1.961591250704e-03 0.0 
2.350928099120e-03 2.082444303996e-03 0.0 
8.483745892386e-04 -5.954308137841e-05 0.0 
1.497616527629e-03 4.394476199287e-04 0.0 
4.464046105578e-04 -3.025359732614e-04 0.0 
8.464442284203e-04 7.516467880623e-05 0.0 
9.852989245312e-04 7.170450663784e-05 0.0 
1.519468955102e-03 2.613108522829e-04 0.0 
2.002865887246e-03 1.263517967540e-03 0.0 
5.176937672204e-04 -2.932097763582e-04 0.0 
3.375796193313e-04 -3.462860055781e-05 0.0 
4.608508548364e-04 8.834839759401e-03 0.0 
8.171280994416e-04 -2.219398318088e-04 0.0 
3.300230088338e-04 -4.427445322903e-05 0.0 
2.267908333659e-04 -2.358244966240e-04 0.0 
2.298457900636e-03 2.434224524619e-03 0.0 
2.197920969368e-04 -2.377516312259e-04 0.0 
1.575946496909e-04 -2.054262826923e-04 0.0 
5.645637051526e-04 -1.338401945376e-04 0.0 
2.795113120387e-04 -2.001017164846e-04 0.0 
2.165975816680e-03 2.272893963480e-03 0.0 
2.889821660567e-04 -2.111411933419e-04 0.0 
6.181009964332e-04 -2.140020031476e-04 0.0 
4.104267561201e-04 -2.806249341789e-04 0.0 
2.815557449465e-04 -2.314818885910e-04 0.0 
3.600989946106e-04 -1.257218595855e-05 0.0 
2.252573139712e-03 1.562231732913e-03 0.0 
2.387157910274e-05 2.800023488689e-06 0.0 
4.348565377178e-04 -3.032398301224e-04 0.0 
6.834026124005e-04 -2.158898804318e-04 0.0 
8.730703279969e-04 -2.032622240461e-04 0.0 
1.240635470021e-03 4.971483259025e-04 0.0 
3.596002271977e-04 -3.476128824513e-05 0.0 
2.976252290484e-05 2.680254019448e-06 0.0 
2.254532554536e-03 1.564540106705e-03 0.0 
6.752586932447e-04 -2.636300571390e-04 0.0 
3.381901225457e-04 -1.389237873600e-05 0.0 
2.592105880149e-05 -2.436356520451e-05 0.0 
1.695140877313e-03 4.258807698378e-04 0.0 
2.409916021101e-03 2.310507232595e-03 0.0 
4.530169798578e-04 5.872392610964e-05 0.0 
8.380439822540e-04 -2.130559128992e-04 0.0 
6.552709769897e-04 -2.045684874564e-04 0.0 
2.410141215917e-03 1.791899178110e-03 0.0 
2.837085179194e-04 4.442258728202e-04 0.0 
1.459920531133e-03 1.508401684239e-04 0.0 
8.380189220262e-04 -1.539227517070e-04 0.0 
3.834297317224e-04 8.026126669025e-03 0.0 
3.611178066296e-04 -2.766973918961e-04 0.0 
2.444674087388e-03 2.291123453082e-03 0.0 
6.953014565687e-04 -2.552053803010e-04 0.0 
5.545238286474e-04 -2.903904351359e-04 0.0 
4.438664066284e-04 -3.045563932868e-04 0.0 
2.128155129289e-03 2.477887114153e-03 0.0 
2.296072822909e-03 1.471101726066e-03 0.0 
9.179840083479e-04 -1.341473580770e-04 0.0 
1.963879574207e-03 2.257331613533e-03 0.0 
2.076974517537e-03 1.178410672083e-03 0.0 
1.872372670695e-03 6.225807127521e-04 0.0 
3.447692752678e-05 2.618509139455e-06 0.0 
8.151844892051e-04 -1.399166406233e-04 0.0 
2.037930771260e-03 8.473135835190e-04 0.0 
1.043239323620e-03 -1.321920143194e-04 0.0 
8.305536435363e-04 -1.207420653132e-04 0.0 
5.938058170030e-04 -2.842353672859e-04 0.0 
1.890258217978e-03 6.257545553002e-03 0.0 
8.039013328930e-04 -2.115636592335e-04 0.0 
5.319051569384e-04 -2.637455706132e-04 0.0 
2.287381499506e-03 1.762914521009e-03 0.0 
4.301301173184e-04 -3.100443093131e-04 0.0 
2.489613664135e-03 2.354463511043e-03 0.0 
6.883846652931e-04 -2.612450633163e-04 0.0 
6.698446702056e-04 -2.341697307162e-04 0.0 
5.773288435200e-04 -2.880199724086e-04 0.0 
2.368591916347e-03 1.578628903681e-03 0.0 
2.951639020034e-04 -2.563443307058e-04 0.0 
1.113425714984e-03 1.807716581830e-04 0.0 
7.973481742942e-04 -1.061881730931e-04 0.0 
2.370339847220e-03 1.735277176180e-03 0.0 
2.145410706429e-03 5.645239563114e-03 0.0 
4.881147694559e-04 -3.039772513032e-04 0.0 
5.536839974126e-04 -2.669659373962e-04 0.0 
4.914055270025e-04 -2.664147043958e-04 0.0 
9.236131475646e-04 1.091461186183e-04 0.0 
2.396049599567e-03 2.059797800707e-03 0.0 
1.076074432791e-03 1.051629031018e-04 0.0 
7.706804546288e-04 -2.258231897615e-04 0.0 
7.988401562528e-04 -2.275313466518e-04 0.0 
5.076653955943e-04 -2.997468385567e-04 0.0 
1.049508570829e-03 -1.316233206108e-04 0.0 
5.553821993461e-04 -2.313593727319e-04 0.0 
4.152411135964e-04 2.953510947463e-04 0.0 
4.365019979519e-04 2.338501271058e-04 0.0 
1.461440688986e-03 1.296928017460e-04 0.0 
6.415376826379e-04 -2.716164722482e-04 0.0 
6.210170074476e-04 -2.566753343670e-04 0.0 
2.006058288387e-03 7.511156351400e-04 0.0 
6.259558667918e-04 -2.711103276227e-04 0.0 
5.116512795524e-04 -2.705398627613e-04 0.0 
1.783584287016e-03 5.535647209886e-04 0.0 
4.542310371789e-04 1.277855490586e-03 0.0 
7.490578115442e-04 -2.441363117667e-04 0.0 
8.968178377086e-04 -5.053130381680e-05 0.0 
5.777355554563e-04 -2.410088287520e-04 0.0 
5.695509829168e-05 4.336097197319e-06 0.0 
6.411158960975e-04 -2.613206360690e-04 0.0 
1.696243843168e-03 3.768818162204e-04 0.0 
5.189001139292e-04 -3.003373688480e-04 0.0 
5.376604181007e-04 -8.559421252670e-05 0.0 
8.403367078930e-04 -2.052881063326e-04 0.0 
4.888542107087e-04 -2.551991213361e-04 0.0 
2.149976413308e-03 1.158738500305e-03 0.0 
3.080128284441e-04 1.117317555077e-04 0.0 
7.326527111193e-04 -2.460222135941e-04 0.0 
7.545875299519e-04 -1.102586003929e-04 0.0 
5.698403611467e-04 -2.565586124595e-04 0.0 
1.716271080247e-03 5.365668298884e-03 0.0 
3.517475319349e-04 -4.509977166574e-05 0.0 
7.100989760194e-04 -1.680705513777e-04 0.0 
1.605183719142e-03 5.951551826338e-03 0.0 
2.465962717226e-04 6.336164852157e-05 0.0 
3.004838444072e-04 -2.493557488408e-05 0.0 
3.566931223597e-04 1.467253625127e-04 0.0 
2.023946015211e-03 5.354119340879e-03 0.0 
1.905008192289e-03 7.878272542358e-04 0.0 
6.326715229879e-04 -1.652589738132e-04 0.0 
2.063394015665e-03 1.191869182962e-03 0.0 
2.127505628317e-03 1.029491126420e-03 0.0 
2.180986812245e-03 1.093785207667e-03 0.0 
1.317928064407e-03 4.739334472913e-05 0.0 
1.990164855215e-04 4.134923018664e-05 0.0 
2.433451114168e-03 4.476360952783e-03 0.0 
2.439101478422e-03 2.569088460872e-03 0.0 
7.679120036276e-04 -2.340230706132e-04 0.0 
2.803891760736e-04 -2.162708020752e-04 0.0 
2.166504050511e-03 1.601176872664e-03 0.0 
7.437182883133e-04 -1.821332582394e-04 0.0 
3.131691942381e-04 8.937407705891e-03 0.0 
4.676303179312e-04 -2.500471786875e-04 0.0 
7.237389562804e-04 -2.513961983452e-04 0.0 
2.190662389218e-03 1.867837995794e-03 0.0 
7.272284104764e-04 -2.054224282676e-04 0.0 
2.065636238467e-03 1.070826582303e-03 0.0 
7.177764860853e-04 -9.530271578768e-05 0.0 
3.745122474065e-04 -1.088536699173e-04 0.0 
1.309955072596e-04 1.993059060602e-05 0.0 
1.626197873297e-03 8.502537638134e-04 0.0 
5.727237308164e-04 -2.778418103234e-04 0.0 
3.477704807946e-04 -1.751685160924e-04 0.0 
7.409763261614e-04 -6.140620482940e-05 0.0 
7.220045722551e-04 -1.379485413212e-04 0.0 
1.791163704101e-03 9.355129095921e-04 0.0 
1.769056454582e-03 4.340568377759e-04 0.0 
1.192266718702e-03 3.733532420828e-04 0.0 
1.937496360367e-03 1.076240963373e-03 0.0 
8.950109109737e-05 8.939521431203e-06 0.0 
2.322681263618e-04 1.709472812642e-05 0.0 
1.827779702184e-03 1.050399827849e-03 0.0 
2.311681057322e-03 2.202058168666e-03 0.0 
3.946687725869e-04 -1.228212621685e-04 0.0 
1.090497586619e-03 1.496796816557e-05 0.0 
6.233855641771e-04 -2.775074645041e-04 0.0 
6.656504704826e-04 -2.659846169414e-04 0.0 
1.613610024497e-03 2.802403759591e-04 0.0 
5.720091121879e-04 -1.004412491668e-04 0.0 
2.158613802098e-04 -1.067851292627e-04 0.0 
1.880636601043e-03 1.441017613332e-03 0.0 
5.522988382007e-04 -2.763854416100e-04 0.0 
1.189619123194e-03 -3.451193707073e-05 0.0 
1.964864916408e-03 7.775012905103e-04 0.0 
1.090968094723e-03 -5.147859635282e-05 0.0 
3.975584313913e-04 1.850992018140e-04 0.0 
4.432201225584e-04 2.730535595811e-04 0.0 
1.012228833530e-03 5.982862913665e-04 0.0 
3.765361735123e-04 -9.861903435526e-05 0.0 
1.905049628668e-03 2.418999674774e-03 0.0 
6.654774627718e-04 -1.800383284306e-04 0.0 
7.049235313490e-04 -2.499581394420e-04 0.0 
5.416303847591e-04 -2.954876244314e-04 0.0 
1.219175289258e-03 2.263608000835e-04 0.0 
1.581743192157e-03 7.090633516435e-03 0.0 
1.880831269616e-03 5.603978075056e-03 0.0 
1.494985411776e-04 7.579829830684e-06 0.0 
1.705029283953e-03 7.352588909720e-04 0.0 
2.471519636033e-03 2.081553310594e-03 0.0 
2.134793104649e-03 9.662899502656e-04 0.0 
5.517634160368e-04 -2.937724250387e-04 0.0 
3.442399060003e-04 -2.788892406991e-04 0.0 
9.564289397467e-04 -1.718460205718e-04 0.0 
1.265589470018e-03 -1.163117594052e-05 0.0 
1.003104403035e-03 -1.510346759619e-04 0.0 
4.877204862904e-04 -2.382983589586e-04 0.0 
3.298639945908e-04 7.767596192241e-03 0.0 
2.893688862195e-04 -2.269544647768e-04 0.0 
6.936279059441e-04 -2.405403286330e-04 0.0 
3.080035467777e-05 2.481668052122e-06 0.0 
7.515012061444e-04 -5.343139992223e-05 0.0 
2.467946254952e-03 2.988899283784e-03 0.0 
3.315623500472e-05 -1.795541513073e-04 0.0 
1.380457897380e-03 1.064060125506e-04 0.0 
9.162235994335e-04 -1.858605879935e-04 0.0 
2.295815252613e-03 1.350453180250e-03 0.0 
2.902537938582e-04 9.329696826387e-05 0.0 
2.163874437945e-03 1.447426530825e-03 0.0 
1.917361635246e-03 6.107944125360e-04 0.0 
2.348248276774e-04 -1.107058663077e-04 0.0 
2.034919675811e-03 1.910118953938e-03 0.0 
3.533319078029e-04 -8.528653979689e-05 0.0 
2.763038432185e-04 7.954168773012e-05 0.0 
1.928568335289e-04 8.401496371750e-05 0.0 
2.038213911275e-04 1.550634241745e-04 0.0 
2.318004000896e-04 1.327658890093e-04 0.0 
2.236138756709e-03 1.188487091338e-03 0.0 
2.046383091664e-03 1.737229342205e-03 0.0 
1.595121825696e-03 7.663137746284e-04 0.0 
1.133224525239e-03 -5.502819317940e-06 0.0 
1.130683919512e-03 7.434082821769e-05 0.0 
1.917769486744e-04 -1.102546107107e-04 0.0 
1.873202331707e-03 1.303473091124e-03 0.0 
2.221255687516e-04 5.117142421246e-05 0.0 
1.823336270082e-03 1.871968017220e-03 0.0 
8.024209756104e-04 -8.657773078778e-05 0.0 
1.856555684295e-03 1.729748508299e-03 0.0 
1.229456625274e-03 9.306623812888e-05 0.0 
1.203357589541e-03 -4.354359681816e-05 0.0 
1.269039641620e-03 3.239769914066e-04 0.0 
5.895097747764e-04 -2.633787834812e-04 0.0 
6.510841180111e-04 9.029894487085e-04 0.0 
1.017837475155e-03 -7.761881155207e-05 0.0 
6.623495962917e-04 1.264917515916e-04 0.0 
2.102847909406e-04 -1.140236008838e-04 0.0 
4.315648038629e-04 -2.505054049401e-04 0.0 
1.132229020898e-04 6.504141941675e-06 0.0 
7.547522277522e-04 -2.139888051808e-04 0.0 
1.638362888308e-04 6.271039879521e-05 0.0 
8.009545349427e-04 5.167261869487e-04 0.0 
1.743578661339e-03 3.853195355251e-04 0.0 
3.447397342106e-04 -2.852957368718e-04 0.0 
1.460772542449e-04 4.427561155133e-05 0.0 
1.464585638525e-04 1.067237889834e-05 0.0 
4.513435977802e-04 -2.562800928724e-04 0.0 
7.165047959870e-04 -7.714988818048e-05 0.0 
1.210809351889e-04 1.659872985720e-05 0.0 
3.366966125098e-04 -2.883008134829e-04 0.0 
1.120085213033e-03 -6.382003113562e-05 0.0 
1.875667919226e-03 5.415455767401e-04 0.0 
1.602715703454e-03 2.471591561099e-04 0.0 
1.856741872406e-03 5.520717831568e-04 0.0 
6.328583508791e-04 -2.423862042377e-04 0.0 
1.163696827490e-04 2.809557234279e-05 0.0 
7.382481390574e-04 -2.292732541511e-04 0.0 
4.802445560973e-04 -3.086788314959e-04 0.0 
4.497198625814e-05 2.682914213860e-06 0.0 
3.337420158357e-04 -2.826419994441e-04 0.0 
1.691944155413e-03 7.675208371279e-04 0.0 
4.203163956893e-04 -2.980782636276e-04 0.0 
2.277478937681e-03 1.933365148299e-03 0.0 
7.573272269333e-05 6.667182144960e-06 0.0 
9.326059951901e-05 1.827337831696e-05 0.0 
2.263097527872e-03 1.299548004565e-03 0.0 
4.015866358116e-04 -3.025234965848e-04 0.0 
4.643260777062e-04 -3.121840643857e-04 0.0 
4.063802886137e-04 -2.967075295250e-04 0.0 
1.521639195021e-04 -1.036255807856e-05 0.0 
1.563316233148e-03 7.025624185301e-03 0.0 
2.514106719187e-03 3.083934660217e-03 0.0 
6.920121649949e-05 1.106680033406e-05 0.0 
1.296486822757e-03 7.731846235443e-03 0.0 
3.942271591068e-04 3.225897936962e-04 0.0 
1.147463246708e-03 8.731994266058e-05 0.0 
1.595395959690e-03 6.412432026899e-03 0.0 
7.868206476333e-04 -8.553696621669e-05 0.0 
7.583886411699e-04 -7.249533048036e-05 0.0 
5.418219294436e-04 -2.887031173540e-04 0.0 
5.928664442884e-05 7.734939585238e-06 0.0 
2.047015978624e-04 1.010842380965e-04 0.0 
2.114197224688e-04 1.402876705718e-04 0.0 
3.308240995852e-04 -8.241537780450e-05 0.0 
1.675509410112e-04 -1.137241370274e-04 0.0 
1.149550464330e-03 -7.863711502941e-05 0.0 
3.077991523380e-04 -7.021311680578e-05 0.0 
4.944826774528e-05 5.330332102115e-06 0.0 
6.767404752675e-04 -2.534021038564e-04 0.0 
5.298681367951e-04 -2.525323934079e-04 0.0 
5.019558982309e-04 -2.356984004106e-04 0.0 
1.473133569608e-03 6.068161590803e-03 0.0 
4.913813736384e-05 3.533628984643e-06 0.0 
3.893744468974e-04 -3.007210834562e-04 0.0 
3.567989934123e-05 3.057992815872e-06 0.0 
4.624579489992e-04 -2.377919375760e-04 0.0 
1.441765396133e-04 4.902135671254e-05 0.0 
1.557497116144e-03 6.832689712222e-04 0.0 
3.499977579531e-04 -2.962473698573e-04 0.0 
1.090231343449e-03 -1.052918052910e-04 0.0 
1.713487514273e-03 2.137548068446e-03 0.0 
1.302265889736e-04 3.526607617879e-05 0.0 
2.157227324371e-03 1.010086658251e-03 0.0 
1.002748723993e-03 5.978767044581e-05 0.0 
5.430505916071e-04 -2.626099711774e-04 0.0 
2.301529857428e-04 8.580615890141e-06 0.0 
4.333107389114e-04 -2.191096634303e-04 0.0 
4.785747968922e-04 -2.305311781389e-04 0.0 
3.958372635563e-04 -3.119086843800e-04 0.0 
1.057558860025e-04 2.307585186968e-05 0.0 
5.811338334081e-04 -2.848906306205e-04 0.0 
2.802591886153e-04 -1.635375572633e-05 0.0 
1.415590001844e-03 7.067735935008e-03 0.0 
3.463075438946e-04 -2.129051309386e-04 0.0 
5.070629431153e-04 -2.481111024964e-04 0.0 
2.049439437848e-03 8.057979206398e-04 0.0 
6.179429076010e-05 8.863790271959e-06 0.0 
1.557900587773e-04 -1.036602263135e-04 0.0 
3.187184746419e-04 -5.301463815019e-05 0.0 
1.380090065306e-03 5.949992089753e-05 0.0 
4.800617243954e-04 -9.749391244113e-05 0.0 
5.498968681210e-04 -2.445676884508e-04 0.0 
3.513829231592e-04 -7.510545805524e-05 0.0 
1.391219950158e-03 7.148322792380e-05 0.0 
1.437428348959e-03 2.168729217875e-04 0.0 
6.972132431982e-04 -4.099313357474e-05 0.0 
1.262306954699e-03 -1.795207662624e-05 0.0 
2.681029343330e-04 -1.268509219068e-04 0.0 
7.347096654149e-04 -2.308268552617e-04 0.0 
1.857176607279e-04 -1.172414334907e-04 0.0 
1.087241401521e-03 6.088485857511e-05 0.0 
7.460019140793e-04 -1.284331792088e-04 0.0 
6.648025401901e-05 5.539660867994e-06 0.0 
1.616919434313e-03 1.639181081831e-03 0.0 
3.354942965667e-04 -2.183653863524e-04 0.0 
4.005282335209e-05 3.609189329088e-06 0.0 
1.688361232021e-04 9.993306603459e-06 0.0 
1.000488573593e-03 -1.455751368903e-04 0.0 
3.873381365608e-04 -3.055304513358e-04 0.0 
4.311513460168e-05 3.026205049234e-06 0.0 
1.692998990881e-03 1.293348609119e-03 0.0 
4.260653616528e-04 -2.384672147984e-04 0.0 
2.615474361391e-05 1.854429145196e-06 0.0 
3.041070886734e-04 -6.078743124670e-05 0.0 
1.276121480572e-03 1.891093399751e-04 0.0 
2.530201519404e-03 2.727463895266e-03 0.0 
7.733934040903e-04 -1.435373272192e-04 0.0 
3.512286561186e-04 -1.051922841157e-04 0.0 
5.068790419731e-04 -8.527086952258e-05 0.0 
2.484113837082e-03 2.678303096627e-03 0.0 
1.651732356767e-03 5.411695898603e-04 0.0 
7.176936483728e-04 -1.676850464566e-05 0.0 
3.299226271252e-04 7.187700625086e-03 0.0 
2.483670446607e-04 -1.223583212129e-04 0.0 
6.705440178315e-04 -6.322798141729e-05 0.0 
4.113159966063e-04 -2.129856129608e-04 0.0 
1.632672746180e-04 -4.520002046282e-05 0.0 
3.705190896065e-04 -3.058792950101e-04 0.0 
8.025672399733e-04 -2.017132457544e-04 0.0 
4.406717866381e-04 -2.319866616192e-04 0.0 
2.023174116820e-04 -9.586043298819e-05 0.0 
1.091293662456e-03 -1.037912384561e-04 0.0 
3.251830512769e-04 -6.280861050376e-05 0.0 
1.346588474911e-03 6.636165291723e-03 0.0 
4.056888063264e-04 -2.322115660011e-04 0.0 
2.298339374993e-05 1.679199839447e-06 0.0 
1.789570363142e-03 4.340856451101e-04 0.0 
1.708380630931e-04 -8.247231304846e-05 0.0 
1.659871728882e-03 2.950632941205e-04 0.0 
1.841649848860e-04 -9.258132819715e-05 0.0 
3.587715672927e-04 -2.986338408151e-04 0.0 
2.555149655010e-03 2.767418427218e-03 0.0 
5.904738686901e-05 -9.851940003009e-05 0.0 
1.968886843583e-04 -2.374346815105e-04 0.0 
1.490107602516e-04 -8.686574371940e-05 0.0 
2.899095376035e-04 -4.224211650111e-05 0.0 
4.963130063885e-04 3.111392894090e-03 0.0 
5.390622884339e-04 -1.139400604265e-04 0.0 
5.094022527951e-04 -9.891831951893e-05 0.0 
2.428333407802e-03 3.369759730603e-03 0.0 
9.154939680857e-04 8.357302895363e-03 0.0 
7.209172297727e-04 7.256472969616e-04 0.0 
1.524473905664e-03 1.735407329536e-04 0.0 
1.839913668962e-04 -2.374856462058e-04 0.0 
2.648719953439e-04 -2.256376518834e-04 0.0 
3.669551270521e-04 -2.958982787835e-04 0.0 
2.885714125109e-04 -1.945920119441e-04 0.0 
1.285116182899e-03 3.239753276059e-04 0.0 
5.717942054702e-04 3.134166413034e-03 0.0 
1.643254531771e-04 -1.565482481052e-05 0.0 
2.312826417019e-04 -1.611110246527e-04 0.0 
1.480096525839e-04 -4.359283932424e-05 0.0 
2.410945367265e-04 -9.514978661675e-06 0.0 
5.071024526085e-04 -3.035296967015e-04 0.0 
4.197382455421e-05 -9.750209304285e-05 0.0 
3.411887426522e-05 -1.186430453698e-04 0.0 
3.866884201036e-05 2.572210796980e-06 0.0 
2.013174085175e-05 1.347005209787e-06 0.0 
4.019724742936e-05 -8.313145007175e-05 0.0 
1.535040086390e-04 -7.983381650454e-05 0.0 
3.307447740067e-04 -9.208648656129e-05 0.0 
2.320246431402e-04 -2.482756505708e-06 0.0 
2.552173597391e-04 -2.153497674714e-04 0.0 
2.473976263363e-04 -1.705159856081e-05 0.0 
1.436418258518e-04 -2.062836687455e-04 0.0 
1.613809409673e-04 -9.665994636467e-05 0.0 
2.064924645179e-04 -8.847586354903e-05 0.0 
1.147467517890e-04 -2.084452349090e-04 0.0 
3.331045191291e-05 -8.970337975749e-05 0.0 
1.565900624042e-03 1.743093071815e-03 0.0 
1.522175482877e-04 -2.305234650204e-04 0.0 
1.098914757901e-03 7.652433133861e-03 0.0 
9.601145893060e-04 7.518039690610e-03 0.0 
5.314502868213e-04 -7.114652479518e-05 0.0 
1.711299569782e-05 -1.187592636228e-04 0.0 
3.983004890065e-04 -2.196069623525e-04 0.0 
6.092463125175e-04 -2.335398696445e-04 0.0 
9.855217634501e-05 -1.956748170311e-06 0.0 
4.245307913481e-04 9.416788675888e-05 0.0 
1.034950596054e-03 3.673750725642e-03 0.0 
7.736150449562e-04 -1.231654697569e-04 0.0 
2.842564791148e-04 -2.464301167952e-04 0.0 
1.833045109603e-03 8.676212814364e-04 0.0 
7.632365730264e-04 9.239503575057e-03 0.0 
6.833909006810e-04 9.604293352324e-03 0.0 
1.662483813638e-04 -2.298641844603e-04 0.0 
1.464032417075e-04 -2.144329606562e-04 0.0 
6.442554618095e-05 -1.900186634922e-04 0.0 
2.258330515117e-04 -1.836837636124e-04 0.0 
9.945379456113e-05 -2.100313150600e-04 0.0 
3.165232726501e-05 -7.520995214853e-05 0.0 
4.096466218813e-04 -3.215134015236e-04 0.0 
2.233921340631e-04 -1.671447893298e-04 0.0 
3.272223117675e-04 6.039285324511e-03 0.0 
6.816513383596e-04 8.904209102590e-03 0.0 
1.228344985088e-03 3.624223696856e-04 0.0 
2.787801196946e-04 -4.984297711304e-05 0.0 
2.699069137110e-04 6.957409828737e-03 0.0 
8.591235101966e-06 -1.112901642729e-04 0.0 
8.097077690112e-05 -1.958587819396e-04 0.0 
1.004727331896e-04 2.562907268585e-04 0.0 
2.303441394895e-04 5.263913168980e-04 0.0 
1.298832666598e-03 7.174859435366e-03 0.0 
8.001580524585e-04 9.087925064240e-03 0.0 
4.254987226012e-05 -1.116596697320e-04 0.0 
1.456767644730e-04 5.195138328087e-04 0.0 
2.337521266513e-04 -1.781461341946e-04 0.0 
7.363488622382e-04 8.342899124915e-03 0.0 
8.374564299002e-04 8.817620792651e-03 0.0 
2.024830858149e-03 1.454308801885e-03 0.0 
1.904057679792e-04 1.675263695217e-04 0.0 
1.796270305596e-04 5.095844024483e-04 0.0 
1.318734892128e-04 -2.153185703907e-04 0.0 
1.343589052920e-04 -2.234067283829e-04 0.0 
2.577985559627e-04 -2.298028023852e-04 0.0 
2.249919763774e-04 -9.182764313290e-05 0.0 
9.365665456248e-06 2.577001421677e-06 0.0 
4.147718503880e-04 -3.242685309191e-04 0.0 
1.207549316474e-04 3.969029769308e-03 0.0 
3.955200362557e-04 -3.159658494074e-04 0.0 
4.721406220810e-04 -7.131730262170e-05 0.0 
3.882814447461e-04 -3.142758136431e-04 0.0 
4.032580622789e-04 -3.207371251913e-04 0.0 
4.498869904560e-04 -8.326927711734e-05 0.0 
3.830339254560e-05 9.991229197543e-07 0.0 
2.655820727642e-04 6.381437230287e-03 0.0 
1.769383059164e-03 6.209082174697e-04 0.0 
8.242861993457e-05 -2.038625388280e-04 0.0 
1.188636649911e-04 -3.455815209717e-05 0.0 
3.255679517655e-05 3.171003638709e-04 0.0 
6.497689991582e-05 5.361910459413e-04 0.0 
6.903983013726e-04 9.261192703814e-03 0.0 
4.913265379273e-04 -5.771135004439e-05 0.0 
7.915429737004e-05 2.532936755898e-04 0.0 
9.504695016787e-04 4.088581993844e-05 0.0 
4.799284388393e-05 -1.929503744164e-04 0.0 
6.707850967126e-05 -2.063622629247e-04 0.0 
4.918796434079e-05 -2.012902169604e-04 0.0 
8.522851584345e-06 -9.638888833605e-05 0.0 
7.224344147563e-06 1.696533904571e-06 0.0 
1.669525017418e-05 1.472514442020e-03 0.0 
6.832186018073e-05 -2.146487956900e-04 0.0 
1.624268016421e-05 -7.420661438429e-05 0.0 
2.430899630094e-06 7.113462493155e-07 0.0 
1.027216415028e-05 1.883716924506e-06 0.0 
3.487031203280e-05 2.292357175386e-06 0.0 
6.272989848101e-05 4.974492320155e-03 0.0 
2.753008699384e-05 3.463225751108e-03 0.0 
4.793444517469e-06 9.851876552558e-07 0.0 
5.478719632814e-06 8.985292692503e-07 0.0 
5.882697033853e-05 3.969896489099e-03 0.0 
5.193600436378e-05 -2.175244794237e-04 0.0 
5.913490120234e-04 9.747989548698e-03 0.0 
6.946651748516e-04 9.471999611285e-03 0.0 
1.013869481095e-04 -2.182595860719e-04 0.0 
9.352972682079e-06 9.100300341795e-07 0.0 
3.216727299770e-05 2.160054137187e-06 0.0 
1.583406212351e-05 1.092902548994e-06 0.0 
8.560512399245e-05 -2.203773426052e-04 0.0 
1.191653214167e-04 -2.247616639130e-04 0.0 
1.853710115861e-05 1.225205587193e-06 0.0 
1.633321087419e-05 1.067151588193e-06 0.0 
3.143301513633e-05 5.490694962389e-03 0.0 
3.430177279700e-04 9.804809854694e-03 0.0 
3.129688334468e-05 4.466824994707e-03 0.0 
3.237184311787e-05 7.511977783823e-03 0.0 
1.674890013591e-04 9.827018211569e-03 0.0 
2.148953349733e-04 -2.455466342131e-04 0.0 
2.747178739697e-04 -2.648035910586e-04 0.0 
3.017749905763e-04 -2.751853957865e-04 0.0 
3.270369622918e-04 -2.858779392593e-04 0.0 
7.953294214744e-06 -6.686437380835e-05 0.0 
8.289385949464e-06 -8.150063131278e-05 0.0 
2.860865954380e-04 -2.665941745338e-04 0.0 
6.951062664783e-06 -2.886235776870e-05 0.0 
3.123553482200e-04 -2.774105232064e-04 0.0 
1.689304228921e-04 2.066552698313e-04 0.0 
6.652246710291e-05 2.662201572188e-04 0.0 
1.298714062999e-04 2.701005900395e-04 0.0 
9.936589594466e-06 -1.697967787999e-04 0.0 
8.521760595855e-06 -1.260617694246e-04 0.0 
6.148697793593e-05 3.230003294474e-04 0.0 
4.188159821835e-06 -2.633040348835e-06 0.0 
3.242010473926e-05 2.190906820703e-04 0.0 
2.946792099396e-06 1.545961620835e-06 0.0 
1.721870782347e-06 2.944830423846e-06 0.0 
1.681223753381e-05 -8.907589876276e-05 0.0 
1.280094450388e-04 5.892204866663e-04 0.0 
9.390708267520e-05 5.420910115178e-04 0.0 
7.134951921232e-06 -3.220868114917e-07 0.0 
4.668662881744e-06 2.621826114977e-06 0.0 
6.767837909627e-05 -2.028703882411e-05 0.0 
3.784051582709e-04 -3.080326979341e-04 0.0 
1.384688413615e-04 -1.008922136045e-04 0.0 
1.629194908627e-04 -2.218618380883e-04 0.0 
9.128785578149e-05 -1.891154868961e-06 0.0 
1.792011111477e-04 -9.973703429850e-05 0.0 
7.326193903868e-05 -7.496496886836e-06 0.0 
2.357831226043e-04 -1.943672418720e-04 0.0 
1.875140748920e-04 -2.149503749147e-04 0.0 
4.889008968629e-05 -1.039069885305e-06 0.0 
1.318630788102e-04 -8.446159954465e-05 0.0 
3.406684527707e-05 -1.044699475629e-04 0.0 
6.422015590309e-05 -7.216907581120e-06 0.0 
1.827393581794e-04 2.501202936271e-03 0.0 
1.711408668631e-05 -1.039842238508e-04 0.0 
2.787256843205e-04 -3.337357209809e-05 0.0 
2.115796902210e-04 -5.071918849665e-05 0.0 
7.974088836455e-05 -2.083439975080e-05 0.0 
5.677500393625e-05 -1.511112396884e-05 0.0 
7.077505082858e-04 -2.414090608508e-04 0.0 
1.604654468472e-03 6.043507622133e-04 0.0 
1.098683869198e-03 -1.070675070099e-04 0.0 
1.328687175290e-04 -3.576454717918e-05 0.0 
4.475980561243e-05 -3.603713351101e-06 0.0 
3.655064349318e-05 -1.040722014250e-05 0.0 
3.069835302752e-04 -2.171262551715e-04 0.0 
3.538001361582e-04 2.569893230826e-03 0.0 
4.238601797270e-04 3.579991903309e-03 0.0 
5.037806714573e-04 8.303771857571e-03 0.0 
1.449582302923e-04 -3.080972967261e-05 0.0 
1.050099480105e-04 -2.766093381747e-05 0.0 
2.377900094243e-04 2.551688398606e-03 0.0 
2.963187354943e-04 3.069855397305e-03 0.0 
2.307132402168e-04 -6.060783124556e-05 0.0 
3.249763123722e-05 1.021327593450e-06 0.0 
9.318741198497e-04 3.681023075702e-03 0.0 
2.599423317507e-05 -1.006335296157e-05 0.0 
6.551312943905e-05 6.912240066965e-07 0.0 
4.159322674017e-04 2.589001193116e-03 0.0 
6.718365302831e-04 5.185703386774e-03 0.0 
2.710471452597e-04 -4.109163472102e-05 0.0 
1.185351905030e-04 -1.588618623600e-04 0.0 
3.329282534685e-04 -2.347513810420e-04 0.0 
2.679447730165e-04 -2.402283216768e-04 0.0 
3.771446227850e-04 -3.033445006542e-04 0.0 
3.615060881870e-04 3.064837677204e-03 0.0 
3.519913365779e-05 -9.031159541547e-07 0.0 
3.564681402242e-04 -2.933410218684e-04 0.0 
1.662398101520e-03 9.618860413877e-04 0.0 
6.253749886310e-04 7.796165535077e-03 0.0 
8.675283776477e-05 -1.190414106919e-05 0.0 
4.640556117758e-05 -6.833060322662e-06 0.0 
3.687860808311e-04 -2.006851134298e-04 0.0 
3.749740464633e-05 -6.711174585134e-06 0.0 
5.644154133292e-04 8.316173643833e-03 0.0 
6.581399000682e-04 -4.613515736968e-05 0.0 
4.890676159560e-05 2.116696666755e-06 0.0 
6.494675313358e-05 -1.529502468013e-04 0.0 
8.430935723712e-05 5.533855319057e-07 0.0 
5.379944757701e-04 4.633835080793e-03 0.0 
9.019716023652e-05 -1.477255789295e-04 0.0 
3.167243580761e-04 -2.119192961689e-04 0.0 
6.533052171952e-05 -5.639674424868e-05 0.0 
8.313319187636e-04 6.259487347396e-03 0.0 
1.906680114694e-04 -1.346084411988e-04 0.0 
4.111204275401e-04 4.073634871849e-03 0.0 
5.488651201359e-04 5.668121246933e-03 0.0 
1.405955774538e-04 -7.052478169645e-05 0.0 
4.551703065992e-05 -1.480458244529e-05 0.0 
5.671677330077e-05 -1.083564740357e-05 0.0 
4.604005205028e-04 4.603171732437e-03 0.0 
1.579040327398e-04 -1.802983941195e-04 0.0 
1.198489498401e-04 -7.540070347522e-05 0.0 
6.025965957049e-04 2.760924956561e-05 0.0 
6.447616888024e-04 4.154562293782e-03 0.0 
1.269120421101e-04 -9.148778948094e-05 0.0 
1.949491682189e-04 -4.878669949743e-05 0.0 
1.132268815156e-04 -2.099535185200e-06 0.0 
5.862010189300e-04 5.162753156903e-03 0.0 
4.564191020873e-04 -3.147366569825e-04 0.0 
2.191776533168e-04 -2.229432414964e-04 0.0 
5.367639900148e-04 -2.957286960527e-04 0.0 
5.264500033256e-05 -3.717462608556e-06 0.0 
7.127104384278e-04 5.714801064748e-03 0.0 
4.484941324352e-05 -4.284849137855e-05 0.0 
7.695359236661e-04 7.297982967658e-03 0.0 
2.266719732013e-04 -1.008779512155e-05 0.0 
1.117965051969e-04 -5.997528200249e-05 0.0 
6.664617330615e-05 -1.110574540457e-05 0.0 
1.007299686705e-04 -1.562926708004e-04 0.0 
7.195875421039e-05 6.552664404610e-07 0.0 
1.240882000963e-04 -6.849581284187e-05 0.0 
7.230838217437e-05 -1.462227080645e-04 0.0 
1.034969897700e-04 -7.340747266550e-05 0.0 
1.611136422847e-04 -1.205224906304e-04 0.0 
2.051224710666e-04 -1.622473816669e-04 0.0 
5.891221968786e-05 -4.280713520635e-05 0.0 
2.267463594869e-04 -2.455370609160e-04 0.0 
2.570197867356e-04 -2.554274268792e-04 0.0 
9.217870563828e-05 -2.683355859739e-05 0.0 
1.292961768719e-04 -1.677161169189e-04 0.0 
1.313151292353e-04 -2.967654084719e-05 0.0 
1.617694406202e-04 -3.850491714318e-05 0.0 
2.419904812150e-04 -1.296406098285e-04 0.0 
3.925850402518e-04 -2.380309581858e-04 0.0 
8.263600134341e-04 3.175780424961e-03 0.0 
4.923152251570e-04 -2.894426415767e-04 0.0 
1.326268588322e-04 -1.078445808161e-04 0.0 
2.167694584043e-04 -3.337954758018e-06 0.0 
1.234666024143e-04 -1.741566079109e-04 0.0 
7.630555442622e-04 6.771447487789e-03 0.0 
6.933535524375e-04 7.817207848292e-03 0.0 
2.380088121115e-04 -2.097290317536e-04 0.0 
1.477739821074e-04 -5.643003891182e-06 0.0 
1.105276633818e-03 4.693355037283e-03 0.0 
1.470644935965e-04 -1.710877503875e-04 0.0 
8.884287684306e-04 2.691425312162e-03 0.0 
7.974828673412e-04 2.689913068034e-03 0.0 
1.541477144904e-04 -1.654311606200e-04 0.0 
8.500084987949e-04 -6.566440133489e-05 0.0 
2.078197111986e-04 -1.785273761711e-04 0.0 
7.876691320992e-05 -1.592858289652e-05 0.0 
8.458386650127e-05 -5.077706865242e-05 0.0 
1.680381489986e-03 1.409189892353e-03 0.0 
7.359758182092e-04 3.168284612150e-03 0.0 
1.036370120598e-04 -2.218058132978e-05 0.0 
1.159371407467e-04 -2.298979327749e-05 0.0 
2.280258453147e-04 -1.993793390218e-04 0.0 
8.983179453296e-05 -1.644738925543e-05 0.0 
9.970080916562e-04 4.705071778980e-03 0.0 
6.963202619515e-05 -4.988227814765e-05 0.0 
8.024922214035e-04 5.732571903286e-03 0.0 
9.228667516047e-04 4.191071072465e-03 0.0 
8.148279746366e-04 -1.719097621073e-04 0.0 
6.553886848037e-04 3.653029495828e-03 0.0 
9.833223092820e-05 -8.035236792068e-05 0.0 
9.608985755593e-05 -5.853929467085e-05 0.0 
1.368464076982e-04 -1.241228984713e-04 0.0 
2.859209183486e-04 -1.586338443575e-04 0.0 
8.536221362400e-04 5.219485236933e-03 0.0 
3.256023548248e-04 -1.107485594824e-04 0.0 
1.794360391060e-04 -1.636101089886e-04 0.0 
2.410793136386e-04 -2.241035145416e-04 0.0 
9.531025204767e-04 5.224172728225e-03 0.0 
1.974691233418e-04 -1.680923390903e-04 0.0 
8.988663455486e-05 5.569659353004e-07 0.0 
7.070025061602e-04 4.679602129644e-03 0.0 
9.706372822674e-05 -1.238821603590e-05 0.0 
1.289106367207e-04 8.469777902200e-06 0.0 
1.097331542982e-04 -8.937178866669e-05 0.0 
1.720015466896e-04 -1.693833707554e-04 0.0 
2.309442053923e-04 -2.143176283219e-04 0.0 
1.412907657005e-04 -2.483044601891e-05 0.0 
5.835540314307e-04 6.198758270316e-03 0.0 
2.350780675097e-04 -2.280440904451e-04 0.0 
1.723977905416e-04 -1.307104702964e-04 0.0 
7.601028859874e-05 -1.606563207608e-04 0.0 
9.243002945947e-04 6.266460251321e-03 0.0 
1.435107775215e-04 -1.174109471282e-04 0.0 
1.768618712262e-04 -4.001097464405e-05 0.0 
1.184719430425e-04 -1.207313026792e-04 0.0 
4.965349666851e-04 3.607439157905e-03 0.0 
1.944428595272e-04 -1.516153400923e-04 0.0 
1.821268788048e-04 -2.789743758012e-05 0.0 
3.153609729294e-04 -2.283128032967e-04 0.0 
1.732834058050e-04 -3.329811372708e-05 0.0 
7.622209685495e-05 -6.381883478311e-05 0.0 
1.241533375786e-04 -1.844814008585e-05 0.0 
5.744892061549e-04 -2.481130908390e-04 0.0 
9.390472607353e-05 -1.624958738949e-04 0.0 
6.217710624411e-04 7.257712003844e-03 0.0 
4.444890989635e-04 -7.074011729426e-05 0.0 
1.242609108746e-03 1.117590175583e-05 0.0 
6.617638383695e-04 6.222487858260e-03 0.0 
3.433207493050e-04 -2.300109231003e-04 0.0 
1.327892457677e-03 5.659892344953e-03 0.0 
1.058803734484e-04 -1.715055564465e-04 0.0 
1.192043339140e-04 -5.511989259989e-06 0.0 
4.627982493146e-04 -5.820547087503e-05 0.0 
6.773134588112e-04 -2.377246800097e-05 0.0 
6.597862573426e-04 2.179456147665e-03 0.0 
3.091282577363e-04 -8.886132759174e-05 0.0 
1.754677655681e-04 -1.845016467224e-04 0.0 
2.464402634227e-04 -5.473831570822e-05 0.0 
1.214599903995e-04 -1.941270628805e-06 0.0 
3.776808457706e-04 -2.132860554361e-04 0.0 
1.124428136819e-04 -1.774067616985e-05 0.0 
7.990063291415e-04 4.695613141266e-03 0.0 
4.171381302533e-04 -2.559700977626e-04 0.0 
2.083689630511e-04 -4.325142940691e-05 0.0 
1.110109428862e-03 7.257697006138e-03 0.0 
9.757050404504e-05 -1.411147262074e-04 0.0 
2.018592082397e-04 -1.453362492854e-04 0.0 
1.312757559161e-03 1.531371906822e-05 0.0 
1.545235106072e-04 -2.581277257251e-05 0.0 
1.224981393019e-03 1.126981231904e-04 0.0 
1.202258352762e-03 -5.220889293142e-05 0.0 
1.167009828988e-03 5.200380231511e-03 0.0 
6.832692468437e-04 6.752218837190e-03 0.0 
1.232323516139e-03 6.707104731099e-03 0.0 
9.202959238525e-05 -6.506659470051e-05 0.0 
1.870773926954e-04 -1.065752104703e-05 0.0 
2.873355588264e-04 -6.779209586790e-05 0.0 
8.494414394156e-04 7.313214732490e-03 0.0 
1.391610541003e-03 6.766458822264e-04 0.0 
6.882640268026e-04 -5.319298770251e-08 0.0 
1.881599756278e-04 -3.460607949073e-05 0.0 
8.243453733268e-04 4.186299926043e-03 0.0 
2.543611788320e-04 -1.414290257871e-04 0.0 
2.278843026160e-04 -1.434229209766e-04 0.0 
2.105232019205e-04 -1.940734730308e-04 0.0 
2.600738732579e-04 -4.823940839206e-05 0.0 
1.975505829292e-04 -1.279377579961e-04 0.0 
1.100579747820e-03 5.732156543486e-03 0.0 
1.234267326510e-03 6.209284239777e-03 0.0 
7.183552128009e-04 -1.623733417560e-04 0.0 
2.500033229098e-04 -1.662643428373e-04 0.0 
6.732755816995e-04 -2.600716778182e-04 0.0 
2.204293274180e-04 -1.499345261827e-04 0.0 
2.469299202979e-04 -1.482840026030e-04 0.0 
2.002671388971e-04 -1.839049884398e-04 0.0 
2.319769903097e-04 -1.711968324626e-05 0.0 
3.303954058493e-04 -1.412229859132e-04 0.0 
7.429685463468e-04 3.668756116468e-03 0.0 
3.595550842936e-04 -1.375422226373e-04 0.0 
2.649372487252e-04 -5.676284158784e-05 0.0 
3.073861927783e-04 -9.794092890693e-05 0.0 
1.039502534645e-03 -1.228875129853e-04 0.0 
1.824820586239e-04 -1.792432131257e-04 0.0 
1.579166703625e-04 -5.504047158779e-06 0.0 
1.353353489950e-04 -1.223757353268e-06 0.0 
1.446546813144e-03 1.878638966269e-04 0.0 
2.739800746856e-04 -1.464270030395e-04 0.0 
2.887439898032e-04 -7.676919789707e-05 0.0 
9.949409814713e-04 5.744232298503e-03 0.0 
2.228716749625e-04 -1.252266265444e-04 0.0 
1.074504558499e-03 -9.950638114462e-05 0.0 
1.762411378979e-04 -1.473950389696e-04 0.0 
3.733561881265e-04 -2.314879689153e-04 0.0 
2.813452667409e-04 -1.391311877747e-04 0.0 
1.688876652016e-04 -1.535448504424e-04 0.0 
1.257845138438e-04 -1.527109839084e-04 0.0 
2.865666972124e-04 -9.437261299013e-05 0.0 
2.250011094329e-04 -4.490887763544e-05 0.0 
1.176425959960e-03 2.389233338925e-04 0.0 
2.447688190396e-04 -2.540799356625e-04 0.0 
4.730712972349e-04 -1.709921299550e-04 0.0 
3.983458620720e-04 -1.563609320005e-04 0.0 
3.017903346863e-04 -1.441289362300e-04 0.0 
1.123813973062e-03 6.245437345005e-03 0.0 
3.211170989105e-04 -1.196313627888e-04 0.0 
1.653872656827e-04 -1.372179772603e-04 0.0 
3.090044808793e-04 -1.363086980701e-04 0.0 
5.613891697654e-04 4.131745474802e-03 0.0 
1.474387476025e-04 -1.337419489374e-04 0.0 
2.079888582007e-04 -2.136516393391e-04 0.0 
2.033161274724e-04 -1.990721395088e-04 0.0 
3.658403109651e-04 -2.193476698143e-04 0.0 
2.775677285049e-04 -1.653007904959e-04 0.0 
4.312114064380e-04 -1.516415085166e-04 0.0 
3.371847877349e-04 -1.328023593687e-04 0.0 
3.402563906431e-04 -2.459536553171e-04 0.0 
1.860457713931e-04 -1.941620885144e-04 0.0 
1.732425696079e-03 6.232838814936e-03 0.0 
1.509341794015e-04 -1.497956002889e-04 0.0 
2.479337964709e-04 -2.457394954651e-05 0.0 
1.187218848011e-03 1.910728900628e-04 0.0 
2.489244779957e-03 2.114387150475e-03 0.0 
1.336563102390e-03 3.066756192570e-03 0.0 
1.131959524295e-03 2.758312470231e-04 0.0 
7.751878086408e-04 -1.752854123230e-04 0.0 
1.343241066613e-03 1.946520796202e-04 0.0 
3.682262587134e-04 -2.480766300710e-04 0.0 
2.740574837695e-04 -1.191306533455e-04 0.0 
9.169128976594e-04 -1.789077488212e-04 0.0 
4.734283356766e-04 -2.722198013745e-04 0.0 
3.634146407190e-04 -2.630172500088e-04 0.0 
2.161967548975e-04 -1.321539608766e-04 0.0 
3.749916514849e-04 -1.512915905340e-04 0.0 
4.064661742850e-04 -1.469966847491e-04 0.0 
1.403391340176e-04 -1.401697604933e-04 0.0 
3.478283018946e-04 -1.147747557216e-04 0.0 
4.472802247784e-04 -1.662618463864e-04 0.0 
5.109145383857e-04 -1.644999906921e-04 0.0 
2.581956263078e-04 -1.599489259937e-04 0.0 
5.527284506083e-04 -5.520966049054e-05 0.0 
1.283869185396e-03 5.164269138205e-03 0.0 
5.559861846478e-04 -1.833863534253e-04 0.0 
1.997705085313e-04 -1.058734532480e-05 0.0 
3.985349219687e-04 -2.497512998056e-04 0.0 
1.754412404675e-04 7.992651266535e-07 0.0 
3.892702219434e-04 -1.327825429420e-04 0.0 
1.029734972312e-03 2.928603016396e-04 0.0 
1.905955508820e-03 5.871612685529e-04 0.0 
3.616498737942e-04 -2.366909667875e-04 0.0 
2.377793202982e-03 1.609931073157e-03 0.0 
1.640964093555e-03 2.253628851200e-03 0.0 
4.195031925160e-04 -1.267783727206e-04 0.0 
8.761045226926e-04 -1.920410471102e-04 0.0 
2.234704633289e-03 1.215708967821e-03 0.0 
1.327169959332e-03 3.361792678021e-05 0.0 
3.572252713987e-04 -2.525988606589e-04 0.0 
7.290647950276e-04 1.255702433004e-03 0.0 
3.308060988560e-04 -2.499792553548e-04 0.0 
3.653309422119e-04 1.422566372323e-05 0.0 
5.535491632140e-04 2.652757769793e-03 0.0 
4.770212035341e-04 -4.426006807210e-05 0.0 
9.359294358428e-04 6.793652156546e-03 0.0 
1.366359034702e-03 3.573305717546e-03 0.0 
4.832981451507e-04 -1.604703347941e-04 0.0 
7.064184568402e-04 -1.304488113182e-04 0.0 
1.089419661075e-03 2.150046817099e-03 0.0 
1.967111886213e-04 -2.893165996380e-05 0.0 
1.459484244741e-03 4.563506393003e-03 0.0 
4.101311007608e-04 -5.778959008366e-05 0.0 
3.858824547626e-04 -2.545939738186e-04 0.0 
1.607699368445e-03 3.940166338423e-03 0.0 
4.906309618660e-04 9.977059523297e-05 0.0 
1.437443263432e-04 -8.068752246070e-07 0.0 
2.945139623705e-04 -1.235906810534e-04 0.0 
1.029804347961e-03 6.784705005246e-03 0.0 
1.018043614133e-03 7.299144175057e-03 0.0 
3.657133425390e-04 -1.283974222966e-04 0.0 
2.359522103487e-04 -3.860375497995e-05 0.0 
2.438366746856e-04 -3.179071623229e-05 0.0 
2.137541641473e-04 -2.089666020681e-04 0.0 
6.343723799734e-04 -2.742606030200e-04 0.0 
6.002952913200e-04 -1.740719522485e-04 0.0 
5.272746249934e-04 -1.796385563887e-04 0.0 
1.151733742870e-03 -8.098151045694e-05 0.0 
8.894573549998e-04 1.722060339326e-03 0.0 
1.682170932241e-03 1.067226667974e-03 0.0 
6.301509144099e-04 2.671149348270e-03 0.0 
1.383125771541e-03 2.410585726423e-04 0.0 
1.913633767512e-03 3.034175997844e-03 0.0 
2.193764318261e-04 -3.729775010294e-05 0.0 
8.249854075577e-04 2.207532528696e-03 0.0 
1.840430291243e-03 4.227411783403e-03 0.0 
2.998371985161e-04 -1.153339723167e-04 0.0 
6.485336955044e-04 -1.912288441756e-04 0.0 
1.485508061446e-03 4.028609455510e-03 0.0 
1.174883439413e-03 2.620920283226e-03 0.0 
1.134211769971e-03 4.172081980708e-03 0.0 
1.336041147164e-03 4.626758130317e-03 0.0 
1.634030309588e-04 -1.050546984786e-05 0.0 
4.602566427352e-04 1.628848632360e-05 0.0 
2.032572571827e-04 -1.675748488278e-05 0.0 
2.489416670367e-04 -6.296951022860e-05 0.0 
1.726106057406e-03 1.059043485205e-03 0.0 
4.863112564692e-04 -2.926238011115e-05 0.0 
2.333607845677e-03 3.113795082926e-03 0.0 
1.436287211067e-04 -1.559086486998e-04 0.0 
5.692660287883e-04 -1.713616142743e-04 0.0 
5.353393689737e-04 -1.274824798706e-04 0.0 
6.783949729671e-04 -9.794199117926e-05 0.0 
5.300958487637e-04 -2.827422696948e-04 0.0 
6.165113721007e-04 -1.892576520351e-04 0.0 
6.328839881655e-04 -6.647600431159e-05 0.0 
1.863406125059e-03 7.841898341312e-04 0.0 
2.835029588645e-04 -1.028828530934e-04 0.0 
1.854888894333e-03 5.197687759565e-03 0.0 
7.121397859148e-04 8.968665529446e-03 0.0 
4.713079474281e-04 -2.096427899496e-04 0.0 
2.688470833160e-04 -7.397113813739e-05 0.0 
4.315913210443e-04 -3.289142217100e-05 0.0 
1.490367068226e-03 1.035674861540e-03 0.0 
6.955774887363e-04 -1.470072125659e-04 0.0 
2.684118556831e-04 -8.249495191527e-05 0.0 
1.452493742002e-03 5.589709135355e-03 0.0 
5.084898500629e-04 -1.338019672918e-04 0.0 
5.062355925057e-04 -4.265598966898e-05 0.0 
6.388520102081e-04 -1.157533509717e-04 0.0 
1.970099598624e-03 8.717669154083e-04 0.0 
2.274479862113e-04 -3.090640521218e-05 0.0 
4.545902992317e-04 -2.672371324997e-04 0.0 
2.319071791797e-04 -2.414157546080e-05 0.0 
1.904995921899e-04 -4.585523790073e-06 0.0 
5.861547913765e-04 -5.300233026131e-05 0.0 
1.248116926908e-03 4.141596167048e-03 0.0 
9.624071667888e-04 7.819352497696e-05 0.0 
1.790187635465e-04 -5.016989307878e-06 0.0 
5.590579788814e-04 -2.014972711235e-05 0.0 
1.663640756011e-03 4.923403119288e-03 0.0 
5.451786769328e-04 3.686907074702e-05 0.0 
1.252410997742e-03 3.623040691770e-03 0.0 
6.394632532029e-04 -8.303718646635e-05 0.0 
6.659283894607e-04 -1.774802320858e-04 0.0 
1.604107213283e-04 -6.584999122901e-05 0.0 
4.879975209151e-04 -3.076407466030e-04 0.0 
1.020382390728e-03 3.170020319030e-03 0.0 
1.153526358199e-04 -1.435309396266e-04 0.0 
6.304396216614e-04 1.460316872860e-04 0.0 
1.115924501980e-03 1.089374697683e-04 0.0 
5.828384996362e-04 2.168188240713e-03 0.0 
4.211614067317e-04 -2.666998924674e-04 0.0 
1.428082058098e-03 9.702478478270e-05 0.0 
1.713402740452e-03 4.367632203910e-03 0.0 
2.281879623988e-04 -8.415585119863e-05 0.0 
5.112271305896e-04 -2.801170576291e-04 0.0 
8.260645857325e-04 -2.067963364567e-04 0.0 
3.793068666453e-04 -2.689217513440e-04 0.0 
4.388347817928e-04 -2.721922392722e-04 0.0 
4.074494370588e-04 -2.709078264334e-04 0.0 
6.756225595946e-04 -1.149135078938e-04 0.0 
3.651120730802e-04 3.482898301915e-04 0.0 
7.426092933816e-04 4.076007059455e-04 0.0 
1.283017617668e-04 -5.658356678272e-06 0.0 
7.349880396327e-04 -2.183191295466e-04 0.0 
2.056586193640e-03 4.407803168707e-03 0.0 
5.148332974164e-04 -3.006362232989e-04 0.0 
1.635939377783e-04 1.245125544721e-07 0.0 
3.907736933743e-04 -2.650207057417e-04 0.0 
1.113269466282e-04 -1.272833572745e-04 0.0 
6.036601563358e-04 -3.418313168784e-05 0.0 
4.388498740254e-04 -1.413844772616e-04 0.0 
5.687006982439e-04 1.957324897334e-05 0.0 
9.827630976255e-04 -1.137013467075e-04 0.0 
2.214826799440e-03 2.910978146758e-03 0.0 
3.820620986174e-04 1.847834948807e-05 0.0 
1.531913567299e-03 5.030834191293e-03 0.0 
1.486973278922e-03 9.470974426029e-04 0.0 
1.708431177455e-03 3.312911850882e-03 0.0 
1.746448815876e-03 2.704314849611e-03 0.0 
5.951317647362e-04 -2.776565832133e-04 0.0 
1.309907062512e-04 -9.707949940604e-06 0.0 
1.846883022236e-03 3.692449522256e-03 0.0 
8.815900486222e-04 -1.478621804591e-04 0.0 
9.428179741307e-04 8.062448383637e-04 0.0 
3.210712121744e-04 2.279893523473e-05 0.0 
5.863291132677e-04 -2.839571434502e-04 0.0 
1.226017976989e-04 -1.371027646223e-04 0.0 
6.140177479865e-04 7.115850640584e-06 0.0 
1.894818059499e-05 -1.627029955994e-04 0.0 
1.130664887431e-03 -7.762530779446e-05 0.0 
5.159844005054e-04 -2.661600235659e-05 0.0 
1.434824128247e-03 1.936659636095e-03 0.0 
1.326123467662e-03 1.450888478473e-03 0.0 
5.693350773101e-04 -3.780228168518e-05 0.0 
1.444287835142e-03 3.002301838652e-03 0.0 
7.991218179232e-04 -2.008675177622e-04 0.0 
1.304109200045e-03 2.150805166348e-04 0.0 
1.361010323973e-03 1.441877360993e-03 0.0 
1.368944767220e-03 5.600698260398e-04 0.0 
2.477536995374e-03 2.490687067914e-03 0.0 
2.897411331632e-03 3.334806217612e-03 0.0 
7.565876709158e-04 -1.609190885186e-04 0.0 
2.464195435092e-03 4.450527119756e-03 0.0 
1.040077716795e-03 -5.806266782711e-05 0.0 
9.545024085302e-04 -1.594336423279e-04 0.0 
6.133148036284e-04 -1.606651725885e-04 0.0 
4.917164640537e-04 -2.856425322616e-04 0.0 
7.009562548302e-04 -1.778789222132e-04 0.0 
1.076206009463e-03 2.654225215251e-03 0.0 
1.422270818742e-03 7.573312307283e-04 0.0 
1.611657029419e-04 -2.075505303439e-05 0.0 
4.865947396168e-04 2.240863135541e-05 0.0 
4.651455402816e-04 -1.454830199704e-04 0.0 
1.651815883364e-03 2.821454106739e-03 0.0 
6.469255783655e-04 -1.621022602854e-04 0.0 
1.017577578593e-04 -5.100105131619e-06 0.0 
1.596275074454e-03 3.420408246542e-03 0.0 
1.999711159585e-03 2.864941605761e-03 0.0 
5.636378105308e-04 -7.024891364445e-05 0.0 
7.521632053039e-04 -1.912263847897e-04 0.0 
1.120382454550e-03 2.020908701498e-04 0.0 
1.991030374302e-03 7.110923898486e-04 0.0 
4.741634216906e-04 -2.818704343725e-04 0.0 
5.676686818200e-04 -2.848431401952e-04 0.0 
1.010313062660e-03 -1.232474815173e-04 0.0 
1.502245159627e-03 1.528560230166e-04 0.0 
7.625777212686e-05 -1.663440273185e-06 0.0 
1.957452679781e-03 3.530852926346e-03 0.0 
7.161641096082e-04 -1.923656414426e-04 0.0 
1.516507694709e-03 2.088139773016e-04 0.0 
4.344826608243e-04 -1.922429671434e-05 0.0 
1.123937635479e-03 3.149796098818e-03 0.0 
1.086132070265e-03 2.399127342006e-04 0.0 
2.125303712680e-03 4.740430034634e-03 0.0 
2.978475102375e-04 -1.556350784151e-05 0.0 
6.591757196704e-04 -1.471348212228e-04 0.0 
4.089771143710e-04 -2.124926037107e-05 0.0 
1.188579704065e-03 -5.212895882280e-05 0.0 
1.182128441295e-03 2.121150910724e-03 0.0 
9.903245458483e-04 2.574409294713e-04 0.0 
6.058045867140e-04 -1.003474133608e-04 0.0 
5.436689860504e-04 -2.908622401676e-04 0.0 
8.618650729432e-04 7.406069110964e-05 0.0 
1.135086753776e-03 -4.571796264776e-05 0.0 
7.626408402344e-04 -2.041729236857e-04 0.0 
6.036434163363e-04 -8.460276556999e-05 0.0 
2.820448456534e-04 -2.506060125869e-05 0.0 
5.265210456097e-04 -2.902177383805e-04 0.0 
6.332461383876e-04 -1.314162630529e-04 0.0 
2.303582415828e-03 1.408977226210e-03 0.0 
6.920058518193e-05 -1.532279351298e-06 0.0 
2.141135051186e-03 1.058366981262e-03 0.0 
1.015361099589e-03 1.009082402140e-04 0.0 
2.437067646476e-03 1.856035187466e-03 0.0 
2.568618305526e-03 3.166865928454e-03 0.0 
1.836551225357e-03 5.183279771223e-04 0.0 
5.082817114169e-04 6.534966489964e-06 0.0 
1.522496677791e-04 -1.514658409086e-05 0.0 
2.078300021541e-03 3.858416196739e-03 0.0 
1.267570392584e-03 1.528374259998e-03 0.0 
2.532286943665e-03 2.427251882875e-03 0.0 
6.787505667503e-04 -2.426789962966e-04 0.0 
7.991839656876e-04 8.493058323716e-05 0.0 
9.092074038387e-04 2.190556651997e-03 0.0 
1.023725380679e-03 -1.154352871716e-04 0.0 
1.108155615439e-03 -7.258331341267e-05 0.0 
7.022045809962e-04 -2.193656805974e-04 0.0 
2.145212775275e-03 3.136364577126e-03 0.0 
1.266902163988e-03 8.667166718207e-05 0.0 
9.966151231345e-04 -4.900007607010e-05 0.0 
1.215331629101e-03 2.784358472583e-05 0.0 
6.138029472958e-04 -1.397529379458e-05 0.0 
5.993141401747e-04 7.997033843455e-05 0.0 
6.612557371678e-04 -2.056206242498e-04 0.0 
4.772481339834e-04 -3.089731993228e-04 0.0 
1.410005381353e-03 1.277898463722e-03 0.0 
1.421792996607e-03 2.069923407091e-04 0.0 
4.999062322861e-04 -1.375175256465e-04 0.0 
6.837919270862e-04 7.680205267264e-05 0.0 
2.179982724961e-03 3.633162239602e-03 0.0 
1.878257981565e-04 -2.229751613774e-05 0.0 
8.760523518618e-04 -1.885415783071e-04 0.0 
4.615881935467e-04 -3.125638768125e-04 0.0 
4.808823565029e-05 9.689265939544e-07 0.0 
1.395266684987e-03 8.572597605022e-05 0.0 
7.820762484553e-04 -2.743550938013e-05 0.0 
9.805488084140e-04 1.752770385160e-04 0.0 
4.450580325555e-04 -3.174177905146e-04 0.0 
2.019868172239e-04 -2.296625650911e-05 0.0 
7.337462838809e-04 -2.455604998999e-04 0.0 
2.246469004066e-03 4.451479597804e-03 0.0 
2.132858694647e-04 -6.590815096921e-05 0.0 
6.938582859022e-04 -2.063587313893e-04 0.0 
9.317329897602e-05 -4.908348102078e-06 0.0 
1.096733376200e-03 -3.988082969339e-05 0.0 
6.764647388853e-04 -2.315897406477e-04 0.0 
1.423286214170e-03 1.208809010883e-04 0.0 
4.508861705980e-04 -3.123000446425e-04 0.0 
1.275369353231e-03 1.535037846487e-04 0.0 
5.792229879503e-04 -1.924393368651e-05 0.0 
8.913437644907e-04 2.689642357018e-04 0.0 
1.127929467122e-03 1.568773149944e-04 0.0 
5.978126918698e-04 -2.704930534274e-04 0.0 
1.484389045670e-04 -1.997835379043e-05 0.0 
8.079225277143e-04 1.729265242200e-03 0.0 
2.655346303032e-04 2.677724294376e-05 0.0 
5.799368580411e-04 1.977131890224e-07 0.0 
8.282843489885e-04 -1.845453286505e-04 0.0 
1.373329305572e-03 1.405901731013e-04 0.0 
5.572107795482e-05 -1.177762071705e-06 0.0 
5.035723630733e-05 -5.586414809906e-05 0.0 
1.176948105773e-03 1.397366465949e-04 0.0 
1.929286120887e-03 4.615202159462e-03 0.0 
1.208084507601e-04 -9.361659113584e-06 0.0 
1.897255837011e-04 -1.646647695120e-05 0.0 
3.027359301678e-04 9.516374028033e-03 0.0 
2.115350027657e-04 9.526242024717e-03 0.0 
2.271260725400e-03 1.407379977297e-03 0.0 
1.296339128004e-03 1.284509032905e-04 0.0 
1.795249869350e-04 -5.398715070237e-05 0.0 
1.834254385735e-03 5.501102650694e-04 0.0 
1.023282715431e-03 -8.261350562940e-05 0.0 
2.814817814097e-04 1.334668562149e-06 0.0 
8.687795079270e-04 -1.784949420964e-04 0.0 
3.436367279931e-04 3.874187305011e-04 0.0 
2.507564028951e-03 3.621274221988e-03 0.0 
1.053007236499e-03 -9.129701826058e-05 0.0 
2.312541377496e-04 -6.851572097944e-05 0.0 
6.137929025469e-04 -2.769256768434e-04 0.0 
2.633993763784e-04 -9.907404444568e-05 0.0 
1.368407872213e-03 1.095669137861e-04 0.0 
1.623696872904e-03 2.621194022216e-04 0.0 
2.279434188446e-03 3.893598774741e-03 0.0 
1.736301910059e-03 4.825988154867e-04 0.0 
1.698892120214e-03 5.003592561339e-04 0.0 
6.453313342284e-05 -1.822999145654e-04 0.0 
2.592771374290e-04 -1.070651359610e-04 0.0 
1.356709476606e-03 1.290166520335e-04 0.0 
2.082234146739e-03 8.866118323852e-04 0.0 
2.067575996974e-03 9.076702789128e-04 0.0 
4.156613868325e-04 7.015558293573e-06 0.0 
9.011591000524e-06 -1.552837822904e-04 0.0 
4.900020050050e-04 -2.934682479340e-04 0.0 
1.290787458259e-03 1.076714393704e-05 0.0 
2.397803710091e-04 -1.031329496170e-04 0.0 
2.696287524040e-03 2.767764787331e-03 0.0 
2.676924276792e-03 3.648048928444e-03 0.0 
2.363445284997e-03 3.599618048432e-03 0.0 
5.787845613706e-04 -2.745703407737e-04 0.0 
2.121684350707e-04 -7.347942876128e-05 0.0 
4.064251332257e-04 -3.402507044491e-05 0.0 
5.059378683870e-04 -2.954182419872e-04 0.0 
3.814863387884e-04 7.504751100352e-05 0.0 
1.470688897607e-03 2.454218686681e-03 0.0 
1.744803334339e-04 -7.535606960723e-05 0.0 
1.293406139130e-04 -1.402359401988e-05 0.0 
1.270278864453e-04 -1.991739750006e-04 0.0 
3.983111016666e-04 -4.604914171272e-05 0.0 
1.325304591294e-03 4.365453703387e-05 0.0 
9.591176461588e-05 -1.940322546923e-04 0.0 
1.375316952386e-03 2.527570022934e-03 0.0 
5.011551162292e-04 -3.009702710204e-04 0.0 
2.001390863472e-03 7.481095936086e-04 0.0 
1.544312101440e-03 1.935305542740e-04 0.0 
5.207330881826e-04 -1.528143512377e-04 0.0 
3.747215092272e-04 -7.752098271482e-05 0.0 
1.359181864812e-03 2.020110214449e-03 0.0 
3.401415327162e-04 -5.449223848049e-05 0.0 
1.195674526802e-03 -2.104971585556e-05 0.0 
1.226658205099e-03 -2.241871764880e-05 0.0 
4.561424376535e-04 -2.375976978328e-04 0.0 
4.826748844896e-04 -3.051961971429e-04 0.0 
9.596920857205e-04 1.152569191660e-04 0.0 
2.561206221211e-03 3.145168299224e-03 0.0 
8.440570456647e-04 1.034120960565e-04 0.0 
7.562670620505e-04 -2.340437500840e-04 0.0 
2.028515686046e-03 1.411250604227e-03 0.0 
9.306925842133e-04 1.478085605544e-04 0.0 
2.468941432373e-03 3.226373398204e-03 0.0 
1.011236849460e-03 1.404268171198e-04 0.0 
1.182877918313e-04 -1.347570686890e-05 0.0 
1.236699888850e-03 6.609990891955e-05 0.0 
2.470985959799e-04 -8.747006616748e-05 0.0 
2.490473369367e-04 -7.940121374036e-05 0.0 
1.440248022814e-03 1.190126783165e-03 0.0 
4.009887013754e-04 -1.019064824496e-04 0.0 
1.498168529094e-03 1.728542410782e-04 0.0 
8.757323919024e-04 -1.145833835240e-04 0.0 
2.974160974765e-04 -3.392830849571e-05 0.0 
9.739656260738e-04 -1.290606027714e-04 0.0 
5.999431171448e-04 -2.613689098969e-04 0.0 
5.708877716991e-04 -1.151396470702e-04 0.0 
6.510740289100e-04 -2.530413008154e-04 0.0 
1.914019158368e-03 6.559607602600e-04 0.0 
6.249998655416e-04 -2.524951702315e-04 0.0 
1.754208191023e-03 4.237691423381e-04 0.0 
4.804176119197e-04 1.514724224771e-06 0.0 
5.174927991985e-04 -1.009116896810e-05 0.0 
9.437566149767e-04 -1.503713340227e-04 0.0 
2.438052303404e-03 3.780278109051e-03 0.0 
1.011711697951e-04 -8.622014933070e-06 0.0 
9.165763008727e-05 -8.241988016078e-06 0.0 
5.360201747049e-04 -2.749768718245e-04 0.0 
1.675424710912e-03 3.752377971710e-04 0.0 
5.348294229078e-05 8.758254768887e-07 0.0 
1.075964433926e-03 3.189862767111e-04 0.0 
1.624406673564e-04 -5.892253761274e-05 0.0 
4.713009819753e-04 -2.290448723553e-04 0.0 
7.660257232331e-05 -4.397160263199e-06 0.0 
6.202214321527e-04 -2.704629166924e-04 0.0 
4.059593433862e-05 -4.939103817023e-05 0.0 
8.280580643905e-04 -1.843208748057e-05 0.0 
2.495635836751e-03 3.430084651623e-03 0.0 
2.538871554566e-03 3.532067536525e-03 0.0 
1.283577206485e-03 3.970386305172e-05 0.0 
1.620164446920e-03 1.586868455973e-03 0.0 
2.100004432987e-03 2.122567161830e-03 0.0 
6.851777173668e-05 -4.135744100672e-06 0.0 
3.699446954192e-04 -6.670173549364e-05 0.0 
5.054018732234e-04 -1.251502950753e-04 0.0 
4.233267271028e-04 -4.588783717665e-05 0.0 
5.913961809505e-04 -1.449901938184e-04 0.0 
6.484260207961e-04 -2.618849037458e-04 0.0 
1.758840549016e-03 1.885134130433e-03 0.0 
2.537127479684e-03 3.664250958273e-03 0.0 
2.534386280358e-04 9.805113133444e-03 0.0 
4.885792907792e-04 -1.384408764084e-05 0.0 
8.988942601712e-04 -1.597988043052e-04 0.0 
3.412219381698e-04 2.706903008932e-05 0.0 
2.893581746127e-05 -3.384573775605e-06 0.0 
5.990773744048e-04 -1.307087233454e-04 0.0 
4.393376139225e-05 2.170137215060e-06 0.0 
5.963473940940e-04 -2.390007719340e-04 0.0 
4.532389613494e-04 3.529302817381e-05 0.0 
1.218076395154e-03 8.185471748129e-06 0.0 
1.105128613976e-03 3.733793935574e-05 0.0 
2.739380430846e-04 -7.869532524539e-06 0.0 
3.145230255934e-04 -1.568427044109e-04 0.0 
1.594302754773e-03 2.708033889308e-04 0.0 
5.594836587846e-04 -1.429635369873e-04 0.0 
1.655348360622e-03 3.034325006549e-04 0.0 
7.998069701470e-04 -2.222887907054e-04 0.0 
9.773766244575e-04 2.042253458653e-05 0.0 
5.503730189308e-04 -1.559281777832e-04 0.0 
1.961144499298e-04 -5.606777223611e-05 0.0 
1.737514918403e-03 3.851425021388e-04 0.0 
4.640630025643e-04 -2.753472507181e-04 0.0 
8.479241079835e-04 -8.017914252512e-05 0.0 
5.084044591146e-04 -2.299763039357e-04 0.0 
1.789563101804e-04 -1.993502965628e-04 0.0 
1.789902639934e-04 -6.110397313747e-05 0.0 
1.309607466364e-03 2.735259981290e-04 0.0 
2.535245108328e-03 2.743824391410e-03 0.0 
1.086965869597e-03 8.787233519794e-04 0.0 
1.747063051010e-04 1.807634606698e-04 0.0 
4.429245969244e-04 -2.604006768349e-04 0.0 
1.304244440607e-03 1.187495096958e-03 0.0 
4.797842642840e-04 -1.101834685534e-04 0.0 
1.438600198023e-04 -6.365719986215e-05 0.0 
1.896303590285e-03 1.184930240457e-03 0.0 
5.109968060239e-04 -2.140729595456e-04 0.0 
4.011230217340e-04 -9.098951255077e-05 0.0 
1.298660958222e-03 7.046131476590e-05 0.0 
7.959840218400e-04 -4.687773908294e-05 0.0 
1.487709790966e-03 5.473753254480e-04 0.0 
5.520847308387e-04 -2.801170703991e-04 0.0 
1.919823080627e-04 -7.808051531677e-05 0.0 
1.304824502982e-04 -5.501415751453e-05 0.0 
2.600598092234e-04 -1.777025695146e-04 0.0 
2.401518081752e-03 3.907951697722e-03 0.0 
2.519794481298e-03 2.425355476297e-03 0.0 
1.113207099635e-05 -1.353364975695e-05 0.0 
1.126625648772e-04 -2.004499314296e-04 0.0 
4.404472524402e-04 -3.183193610541e-04 0.0 
2.629213991959e-04 -2.105103414774e-04 0.0 
1.149263130503e-04 -5.336120850944e-05 0.0 
6.103737635330e-04 -2.155399626301e-04 0.0 
5.194368222460e-04 -2.275534257020e-04 0.0 
5.762393153032e-04 -2.592981625791e-04 0.0 
1.477177682638e-04 -5.019853403905e-05 0.0 
2.323515983482e-03 1.604967829973e-03 0.0 
1.024283219718e-04 -4.556517623019e-05 0.0 
6.400798805192e-04 -2.178068117538e-04 0.0 
1.597685832443e-03 3.039820452475e-04 0.0 
1.354113259659e-03 7.481457157913e-03 0.0 
7.281172770882e-04 9.031088673462e-06 0.0 
8.779252306368e-05 -4.441702370481e-05 0.0 
1.323102527316e-04 -4.848294530771e-05 0.0 
8.257497268313e-04 4.539942707963e-04 0.0 
5.700313718568e-04 -1.982216223500e-04 0.0 
7.601427965473e-05 -3.739264486519e-05 0.0 
6.342899183382e-05 5.986383297609e-03 0.0 
6.436781981536e-05 6.979859310535e-03 0.0 
9.352403109319e-04 6.432461511790e-04 0.0 
1.185970845138e-04 -4.067085551088e-05 0.0 
4.474405249090e-04 -2.117986303479e-04 0.0 
5.590942165681e-04 -2.119001874159e-04 0.0 
4.285509214945e-04 2.886858937447e-05 0.0 
3.063393188567e-04 -2.330114041688e-04 0.0 
4.375906402414e-04 -1.982247792824e-04 0.0 
8.880300550335e-04 -9.363090304129e-05 0.0 
1.108038984348e-03 1.080672381178e-03 0.0 
6.208581658504e-05 -3.667754687150e-05 0.0 
1.702476337631e-05 -1.334362012572e-04 0.0 
2.434588238667e-03 4.064430812675e-03 0.0 
1.042712910018e-04 -3.940603543845e-05 0.0 
4.719350776202e-04 -1.342158502772e-04 0.0 
1.944622925941e-04 -7.075587246328e-05 0.0 
4.658405086950e-04 -2.920730106420e-04 0.0 
9.824716088963e-05 3.053970749988e-03 0.0 
4.876183049055e-04 -1.856411604219e-04 0.0 
3.499405861078e-04 -1.449539374467e-06 0.0 
1.047543059227e-03 1.577746587453e-05 0.0 
9.170662910697e-05 -3.246595680465e-05 0.0 
7.808541666796e-05 -3.160071875677e-05 0.0 
5.904296126113e-04 -2.261907977452e-04 0.0 
3.293331228533e-04 -2.630030573578e-04 0.0 
4.729673307500e-04 -2.819491652667e-04 0.0 
6.649498393098e-05 -2.542095962282e-05 0.0 
2.924713748010e-04 -6.773316683169e-06 0.0 
3.802282453570e-04 -1.939398916926e-04 0.0 
1.510772308194e-03 2.710016587789e-04 0.0 
9.479507234116e-04 1.858537410336e-04 0.0 
1.659815269570e-03 4.022851823724e-04 0.0 
8.866027168250e-05 3.282919013574e-06 0.0 
4.279277001778e-04 -3.198246704620e-04 0.0 
1.619338906617e-05 2.625769721049e-04 0.0 
1.950986168432e-06 9.767908392906e-07 0.0 
3.543132347590e-05 8.543730690730e-03 0.0 
4.128471321114e-04 -1.703941790538e-04 0.0 
1.172593722739e-03 3.680669423188e-05 0.0 
6.469425871426e-04 -2.307689789437e-04 0.0 
1.904613603132e-04 -2.089453848282e-04 0.0 
4.552113721684e-04 -2.535596640763e-04 0.0 
4.535842853284e-04 2.157190754702e-03 0.0 
2.415112117404e-03 1.852669193195e-03 0.0 
2.229397264623e-03 4.567043556636e-03 0.0 
1.712573143952e-04 3.188949566330e-05 0.0 
1.751459378098e-05 -1.480637893536e-04 0.0 
1.471979313756e-04 2.468291768040e-05 0.0 
2.454796788518e-03 2.109124749625e-03 0.0 
3.443988710736e-04 -1.543994659926e-04 0.0 
1.169053980779e-03 9.649708774639e-06 0.0 
4.025692082873e-04 -1.788492626868e-04 0.0 
5.946662973667e-04 -1.777989066305e-04 0.0 
3.695050016205e-04 -1.808934608540e-04 0.0 
2.157521304825e-03 1.212066197080e-03 0.0 
2.828330203788e-05 -8.058621161864e-07 0.0 
4.748565733326e-04 -1.951210560574e-04 0.0 
1.554234221699e-03 3.544292326051e-04 0.0 
4.275957580698e-04 -3.221200669905e-04 0.0 
5.536953810081e-04 -2.089250552792e-04 0.0 
2.180229252937e-03 1.679403780024e-03 0.0 
3.060188013110e-04 -1.640517972736e-04 0.0 
3.482180020063e-04 -1.946921438287e-04 0.0 
1.108298734851e-03 -1.374834587467e-05 0.0 
4.260741091029e-04 -2.852503855297e-04 0.0 
6.782279425793e-04 1.839713357832e-04 0.0 
7.404378764567e-04 3.097694716995e-04 0.0 
3.079294228658e-04 -1.828971559731e-04 0.0 
4.522889597732e-04 -1.077720122588e-04 0.0 
9.514475868133e-04 -1.183232801811e-04 0.0 
1.482930138792e-03 2.944014609351e-04 0.0 
1.162474801620e-03 5.215770441170e-04 0.0 
8.246322562019e-04 5.825808271621e-04 0.0 
1.279824316103e-04 4.951517254868e-03 0.0 
8.190691296480e-04 2.057433653107e-04 0.0 
6.231542516392e-04 -2.413121040087e-04 0.0 
5.099930271076e-04 -2.102089654914e-04 0.0 
1.046987782571e-03 2.240208841343e-04 0.0 
4.237991951987e-04 -1.160982285637e-04 0.0 
1.770617518146e-03 5.866979576773e-04 0.0 
4.499354140466e-04 -1.194371634113e-04 0.0 
5.085877463939e-04 -2.887881529805e-04 0.0 
4.236076318552e-04 -8.170292848318e-05 0.0 
6.365693069579e-04 -1.354584805748e-04 0.0 
9.039343641672e-04 -1.276973875863e-04 0.0 
4.262870612839e-04 -9.351610751234e-05 0.0 
1.054252922062e-03 -8.151833898648e-06 0.0 
4.412440278640e-04 6.174544976009e-03 0.0 
2.882034566932e-04 -1.771543989546e-04 0.0 
5.287452261640e-04 -2.394555071411e-04 0.0 
3.936667784974e-04 -6.835708630043e-05 0.0 
6.870469942067e-04 -8.120199218405e-05 0.0 
4.448862174704e-04 -3.156882611778e-04 0.0 
3.851040365142e-05 1.989554398823e-03 0.0 
4.934524047109e-05 2.980929268327e-03 0.0 
3.207270899525e-04 -2.742019528283e-04 0.0 
3.855881388955e-04 -5.697290772399e-05 0.0 
2.614670517177e-04 -1.945984923503e-04 0.0 
2.516991206037e-04 -1.835505961947e-04 0.0 
1.372470235273e-03 3.226594790200e-04 0.0 
9.992249697508e-04 -2.522172596035e-05 0.0 
1.370454312988e-03 2.607011609583e-04 0.0 
5.265808082347e-04 -2.047091609235e-04 0.0 
5.209606469320e-04 9.819637737897e-03 0.0 
6.100966751495e-05 3.023827170252e-06 0.0 
2.534701288580e-04 -1.998775086098e-04 0.0 
4.070293367838e-04 -8.574553252594e-06 0.0 
9.714828203503e-04 -9.601445195017e-05 0.0 
7.035437548807e-05 -1.675242662502e-04 0.0 
1.960505635962e-03 7.879952920969e-04 0.0 
5.995272967780e-04 -2.013825829856e-04 0.0 
3.566613855945e-04 -2.817395583190e-04 0.0 
5.445725984563e-04 -2.320014228306e-04 0.0 
6.049435216507e-06 -1.788102296201e-05 0.0 
2.096273413150e-03 1.056321459434e-03 0.0 
3.144563076087e-04 -2.434755819518e-04 0.0 
2.748690682546e-05 -5.057157833169e-05 0.0 
1.572792422830e-03 4.354788039338e-04 0.0 
6.877668957331e-04 2.423613289402e-05 0.0 
3.379256457063e-04 -1.822219773299e-04 0.0 
3.419228413710e-05 -1.330287831268e-04 0.0 
9.362672608353e-04 -8.443607887258e-05 0.0 
3.199597669749e-05 6.506053688378e-03 0.0 
3.798740067021e-04 -2.933401653980e-04 0.0 
5.410172266914e-04 1.245048064606e-04 0.0 
7.907606267617e-04 4.297017258517e-04 0.0 
1.297161563247e-04 7.881891553724e-03 0.0 
8.088985662721e-04 1.263886742913e-03 0.0 
6.747597498643e-04 2.777162138130e-04 0.0 
5.142052394291e-04 -1.902579309576e-04 0.0 
4.500656035484e-04 -1.898604488764e-04 0.0 
1.920480345894e-04 1.283156845788e-05 0.0 
4.328726046893e-04 -3.151474803359e-04 0.0 
8.503002780458e-06 -1.407474139383e-04 0.0 
1.987483281913e-05 -4.533452846813e-05 0.0 
3.173915776400e-04 -1.764615004306e-04 0.0 
4.709184205288e-04 -2.174148690997e-04 0.0 
5.896017213034e-04 4.695394523367e-06 0.0 
6.292925223015e-04 8.154392586488e-05 0.0 
1.146230518523e-03 7.715167362825e-03 0.0 
5.632471550075e-04 -2.227368510299e-04 0.0 
8.741526713051e-05 -1.328048485967e-04 0.0 
8.672792769626e-04 4.337381264878e-05 0.0 
2.010937200930e-05 1.768778136290e-06 0.0 
2.659046145073e-05 1.951650651104e-06 0.0 
4.370362626648e-04 -1.756502696722e-04 0.0 
1.314057174406e-03 7.741442406391e-03 0.0 
4.319904731390e-04 -3.208245584845e-04 0.0 
5.338276751480e-04 -1.177502097803e-04 0.0 
4.294481394045e-04 -2.929627619188e-04 0.0 
5.619530216669e-04 -6.310767790418e-05 0.0 
9.446045622555e-04 -6.197254079480e-05 0.0 
4.021385178963e-04 -1.999194843073e-04 0.0 
4.858595056453e-04 -2.091016252152e-04 0.0 
4.283174809324e-04 -3.150719051187e-04 0.0 
1.149961563054e-04 2.693152752250e-03 0.0 
4.142833755337e-04 -1.924696837112e-04 0.0 
3.914485885978e-04 2.116207696969e-03 0.0 
2.913564369525e-04 3.582627065437e-03 0.0 
4.875018424272e-05 5.796773359758e-04 0.0 
4.381885798526e-06 1.688137088606e-06 0.0 
6.780316659377e-05 7.992408451087e-03 0.0 
3.797011069134e-04 -1.732526324443e-04 0.0 
6.736059472504e-04 2.699634940873e-04 0.0 
3.666248201504e-04 -1.597282073449e-04 0.0 
7.567967542985e-06 8.269242595606e-07 0.0 
4.893160197362e-04 -1.991289381086e-04 0.0 
5.098134341058e-04 -1.624336183225e-04 0.0 
3.956101060345e-04 3.413030807889e-06 0.0 
8.941035939521e-04 8.678887520676e-03 0.0 
2.299652676498e-04 2.040957148066e-03 0.0 
1.504621164804e-03 3.698624135193e-04 0.0 
5.774659463435e-04 4.511794649609e-05 0.0 
1.658885315855e-03 6.521210071517e-04 0.0 
4.408159687482e-04 7.643219893128e-03 0.0 
3.178254888011e-04 -1.948160360030e-04 0.0 
3.375799998753e-04 -2.008505469594e-04 0.0 
1.542199053038e-04 5.450162526106e-03 0.0 
6.788145274121e-04 4.586722856947e-05 0.0 
1.479671396941e-03 6.627204251778e-03 0.0 
2.168541211577e-04 8.973661264617e-03 0.0 
2.748925195900e-04 8.105762487615e-03 0.0 
4.988751000258e-04 7.757540682423e-03 0.0 
4.544386114220e-04 -3.077154632990e-04 0.0 
3.077830943298e-04 -2.004245297988e-04 0.0 
3.711595026793e-04 1.263772974723e-03 0.0 
5.391942931717e-04 6.702266182855e-03 0.0 
1.814725249845e-04 2.054393013348e-05 0.0 
1.177433737390e-03 4.880457913366e-04 0.0 
1.887792080624e-03 6.747880122207e-04 0.0 
1.143681384760e-03 1.673659382839e-03 0.0 
1.058567144706e-04 -9.637549540837e-05 0.0 
1.097030737868e-04 -1.116186339542e-04 0.0 
1.080525385315e-04 1.312292829383e-06 0.0 
4.207964084939e-04 -3.187803208611e-04 0.0 
4.376829761988e-05 -1.394533287497e-04 0.0 
7.799671487616e-05 1.361611734634e-05 0.0 
1.711645601323e-05 -1.770403340668e-04 0.0 
2.691910104982e-04 8.673566051203e-03 0.0 
2.398505828458e-04 5.935573022898e-06 0.0 
2.609336303951e-04 -2.429975204123e-04 0.0 
1.919453238313e-04 -2.296829574336e-04 0.0 
2.389846414038e-04 4.571842952395e-04 0.0 
7.056015146344e-04 9.433768891561e-03 0.0 
5.578829594149e-04 1.318229490671e-03 0.0 
2.522435811055e-04 1.234759592035e-05 0.0 
6.413407154625e-04 9.502234422436e-03 0.0 
4.409116526142e-04 -3.136269953812e-04 0.0 
8.350418325188e-05 1.089133701484e-03 0.0 
1.624145399487e-04 -1.943689222951e-04 0.0 
6.045241504961e-04 1.762040714369e-03 0.0 
5.904437903667e-06 8.342317795789e-07 0.0 
1.229327080665e-03 6.671231400645e-04 0.0 
4.731117532347e-04 -2.980263731135e-04 0.0 
1.838716917568e-03 6.486184318552e-03 0.0 
6.450384324025e-05 -9.194019837976e-05 0.0 
8.192604787814e-04 3.032470056075e-05 0.0 
9.692575364402e-05 1.231893527845e-05 0.0 
1.584773777829e-04 4.442983209629e-03 0.0 
8.708737696045e-05 9.914327795324e-06 0.0 
4.386946464929e-04 -3.155678000004e-04 0.0 
3.639905274751e-05 2.619505951125e-06 0.0 
4.572607685555e-04 -2.857211508146e-04 0.0 
7.929983015294e-05 -1.811356114966e-04 0.0 
1.256059071152e-04 5.901412293074e-06 0.0 
8.752582583808e-04 8.374463393086e-04 0.0 
5.114331589784e-04 8.752335741675e-04 0.0 
5.617807128563e-04 8.828901098082e-03 0.0 
2.505992202016e-03 4.100900621894e-03 0.0 
5.903022565940e-04 -2.020117769391e-04 0.0 
7.488191145669e-04 2.903989160005e-04 0.0 
5.830623365762e-05 -1.119295161990e-04 0.0 
5.011680759896e-04 -2.742787886861e-04 0.0 
7.316975580296e-04 3.424523614881e-05 0.0 
4.279733568574e-04 9.846242136653e-03 0.0 
1.151831914927e-03 1.132297392275e-03 0.0 
6.825278386487e-06 5.526106001786e-04 0.0 
6.825278386487e-06 2.328773155210e-04 0.0 
1.982664140909e-05 -2.165765999168e-04 0.0 
8.236468167868e-06 -2.114342867337e-04 0.0 
2.604867235883e-05 9.514954718208e-03 0.0 
6.906195740287e-05 9.865861645899e-03 0.0 
7.544377730366e-07 7.721823573894e-07 0.0 
7.544377730366e-07 1.656907333756e-06 0.0 
3.555685134391e-05 -2.051487413899e-04 0.0 
4.199525758098e-04 -3.238956689707e-04 0.0 
3.671295917202e-05 2.340547786290e-06 0.0 
6.436203189565e-04 9.332621054075e-05 0.0 
1.352711547322e-04 -1.822073089038e-04 0.0 
6.214031473846e-05 2.061041588636e-06 0.0 
1.124159045318e-05 -3.469172333172e-05 0.0 
1.312912144508e-05 -5.974336759379e-05 0.0 
3.791407387479e-04 6.320368400207e-03 0.0 
3.977952597412e-04 -2.829049132153e-04 0.0 
9.256671749503e-04 5.189534283685e-06 0.0 
1.530890287353e-04 -1.971775533420e-04 0.0 
8.254204562394e-05 -7.767206759211e-05 0.0 
9.811819366788e-04 3.794004827484e-04 0.0 
2.181515347724e-05 2.464133174545e-03 0.0 
2.503172323981e-05 -5.837708899515e-05 0.0 
2.236168778378e-04 7.331369357397e-03 0.0 
7.586469193694e-04 1.522816499128e-04 0.0 
1.446554677841e-03 4.886528610595e-04 0.0 
1.702954377058e-03 5.878464116293e-04 0.0 
5.782757368988e-04 9.502563550357e-03 0.0 
8.904090862452e-04 -2.886253962177e-05 0.0 
1.243624738485e-03 9.265578113030e-04 0.0 
6.184482141785e-05 -1.389156183981e-04 0.0 
3.090000725548e-04 -2.713933508142e-04 0.0 
9.039119802887e-04 1.784770102759e-04 0.0 
4.314528227025e-04 -5.840721933652e-06 0.0 
3.970285206612e-04 -2.899404994002e-04 0.0 
2.112228447632e-04 5.558317462456e-03 0.0 
1.972116647335e-05 2.872053224519e-06 0.0 
8.080619606543e-04 1.278660041423e-04 0.0 
6.927177546061e-04 1.198409400112e-04 0.0 
1.300049788129e-05 -2.371312612289e-05 0.0 
4.527677631209e-04 -2.948661388452e-04 0.0 
5.857320477640e-04 5.711149174396e-05 0.0 
6.812808429774e-04 -1.201158251356e-04 0.0 
2.075442447011e-03 5.808868997531e-03 0.0 
9.408056574083e-04 -1.652542649002e-05 0.0 
4.658232941097e-04 1.739687342821e-03 0.0 
1.707704611755e-04 1.415670380661e-05 0.0 
3.676482006328e-04 -2.907033114068e-04 0.0 
3.201862594866e-04 -2.687630897517e-04 0.0 
5.320077544626e-04 -8.310186259953e-05 0.0 
3.628881703763e-04 5.094875536061e-03 0.0 
9.392254783469e-05 -1.254016546681e-04 0.0 
1.046711075794e-03 1.259540834325e-03 0.0 
8.194295367201e-05 -1.746533900651e-04 0.0 
3.010626545066e-04 1.553843699027e-05 0.0 
1.071772239560e-03 7.727065494221e-03 0.0 
2.661408012424e-04 3.670268986900e-05 0.0 
8.190164054316e-04 5.814282928882e-05 0.0 
2.337954572976e-03 4.986177297565e-03 0.0 
9.862369416735e-05 3.904640897442e-06 0.0 
8.129910314461e-04 9.004410909805e-04 0.0 
6.764263824950e-05 1.277990727105e-03 0.0 
4.887634665040e-04 -1.756437602829e-04 0.0 
1.061999906465e-03 1.701348742861e-03 0.0 
4.688385930684e-04 1.167744200929e-04 0.0 
2.997605358363e-04 1.211644013293e-05 0.0 
7.181145766329e-04 5.671570962146e-05 0.0 
1.075639932722e-05 8.587481021101e-07 0.0 
1.764631495863e-03 6.757684283117e-04 0.0 
4.353624033111e-04 -2.876494840028e-04 0.0 
5.243088127346e-04 -2.551563218791e-04 0.0 
1.345301410141e-03 5.073140640859e-04 0.0 
2.024626147363e-03 5.671589608112e-03 0.0 
1.914597842267e-05 2.422741409699e-06 0.0 
6.455712055431e-04 6.450504087776e-05 0.0 
3.817239828364e-05 2.660107470255e-06 0.0 
3.438040374583e-04 4.071252313877e-03 0.0 
2.308488427454e-04 2.909002606543e-05 0.0 
1.219110430658e-04 2.052820995877e-06 0.0 
1.302798258575e-04 2.552743257151e-06 0.0 
6.718479029311e-05 -1.185304307140e-04 0.0 
1.692094022506e-05 1.736954293740e-06 0.0 
1.088869411275e-03 8.280310756373e-03 0.0 
2.807880416910e-04 2.064179700388e-03 0.0 
3.327013571594e-04 -2.707966401948e-04 0.0 
1.707816605694e-04 2.889778149512e-03 0.0 
3.212758667251e-04 5.507743634940e-03 0.0 
1.726535014646e-05 -1.905922885473e-04 0.0 
4.705673848770e-04 -3.042022932891e-04 0.0 
1.556053083924e-03 5.054765260808e-04 0.0 
4.131456487369e-04 9.997627506186e-04 0.0 
1.398926994473e-04 1.977260663058e-03 0.0 
2.907557665191e-04 3.104354429696e-05 0.0 
5.559059157079e-04 7.231488937452e-03 0.0 
2.538060186493e-04 -2.490654742982e-04 0.0 
4.607407246731e-04 -3.074531416129e-04 0.0 
2.404106175751e-04 -2.403864512163e-04 0.0 
3.144350648720e-04 -2.564998946078e-04 0.0 
4.329966201472e-04 -2.779972598552e-04 0.0 
7.577483070702e-05 -8.235782876683e-05 0.0 
2.407810811037e-05 2.347080396289e-06 0.0 
1.274256710123e-03 7.515487253523e-04 0.0 
2.515148361213e-03 3.990414829376e-03 0.0 
1.171936197531e-04 -1.054438634342e-04 0.0 
1.043198681911e-04 7.337362862499e-07 0.0 
2.195524604203e-04 3.142585251023e-06 0.0 
3.337509942281e-04 4.680094758389e-05 0.0 
7.034147202870e-04 1.558974132559e-04 0.0 
1.274371889405e-03 4.098992464928e-04 0.0 
3.094123577357e-04 -2.604773545494e-04 0.0 
4.380355999099e-04 -3.185127657025e-04 0.0 
3.375910433586e-05 2.232051925690e-06 0.0 
3.330512913795e-05 -1.883682772550e-04 0.0 
7.179866418760e-06 -1.839039317209e-04 0.0 
4.681969901436e-04 -2.619904357358e-04 0.0 
2.447861672124e-04 -2.365125770243e-04 0.0 
7.296076371371e-05 3.759629867877e-06 0.0 
5.453603235832e-04 1.745112380580e-04 0.0 
4.131708309978e-04 1.747081435287e-03 0.0 
2.766024151215e-04 4.364496566725e-05 0.0 
2.673462378878e-04 -6.962469198763e-07 0.0 
4.761913263917e-04 6.674897928287e-03 0.0 
1.091132351039e-04 1.870837052001e-04 0.0 
4.407701651026e-04 -2.810256245890e-04 0.0 
6.357893453729e-04 9.783755203143e-03 0.0 
3.827344276639e-04 -2.883755484017e-04 0.0 
1.757191158683e-04 -2.217315757568e-04 0.0 
1.138315753648e-05 1.732761048829e-06 0.0 
1.945413550364e-03 5.993519062729e-03 0.0 
9.413323062580e-05 -1.870278331761e-04 0.0 
5.431707644191e-05 -8.435096170678e-05 0.0 
6.661992675698e-04 2.269332924116e-04 0.0 
6.787773996218e-04 1.788604851273e-03 0.0 
7.232744928159e-04 6.151522967130e-04 0.0 
4.269515992404e-05 -1.255381330413e-04 0.0 
4.574039732046e-04 -3.122340980414e-04 0.0 
5.146169536649e-05 2.595344674586e-06 0.0 
2.301866745266e-05 4.954542876259e-04 0.0 
2.705423941468e-06 1.748973196680e-06 0.0 
6.147999583472e-05 8.978050515103e-03 0.0 
1.991216247619e-04 6.458315664699e-06 0.0 
1.072217734932e-04 -1.847703827459e-04 0.0 
9.984643314049e-04 1.321375378812e-03 0.0 
2.029977118962e-04 -2.300094804460e-04 0.0 
9.232149706703e-05 5.412567388165e-06 0.0 
9.215369849505e-04 7.559053691948e-04 0.0 
4.497172380832e-04 -3.078199674974e-04 0.0 
7.729711858450e-04 1.086394375982e-04 0.0 
3.266722739213e-04 4.560419941718e-03 0.0 
2.667251750404e-04 9.817998019344e-04 0.0 
3.763910921517e-05 4.583995693209e-06 0.0 
1.209633488719e-04 5.968825926612e-03 0.0 
5.749290266756e-04 2.084294214127e-04 0.0 
1.184695018349e-03 1.063219367509e-03 0.0 
2.559450682866e-04 5.244802348188e-03 0.0 
8.704812805021e-04 2.975096184106e-04 0.0 
6.689676898937e-05 -1.057571010172e-04 0.0 
3.893947196061e-04 9.560415197627e-03 0.0 
4.863348783016e-04 6.836194473726e-05 0.0 
2.352052856066e-05 1.058567989670e-03 0.0 
3.706154085744e-05 -2.130964710878e-04 0.0 
1.248694611320e-04 9.585988865387e-03 0.0 
2.476308555384e-06 2.770027541106e-06 0.0 
1.519402683331e-04 -1.849774616438e-04 0.0 
2.679709729093e-04 8.775715647491e-06 0.0 
1.281126283002e-03 8.879471729107e-04 0.0 
3.058752093003e-04 1.284093548817e-03 0.0 
9.957451415753e-05 -1.767951271273e-04 0.0 
4.880722700886e-04 -2.806001376740e-04 0.0 
5.175827230336e-06 -5.287507932394e-05 0.0 
1.383599687212e-04 3.535400512979e-03 0.0 
4.224198865961e-04 -3.244277274365e-04 0.0 
6.261162976458e-04 7.297388940418e-04 0.0 
2.149134041984e-04 6.163410654983e-03 0.0 
3.833511139509e-04 -2.770888510721e-04 0.0 
3.775162131588e-04 6.892811102332e-03 0.0 
3.758643910486e-04 5.898828322379e-05 0.0 
9.466355018738e-06 -4.627175086175e-05 0.0 
4.424652067375e-04 -2.722778473856e-04 0.0 
8.326571900832e-05 -1.180801765193e-04 0.0 
7.189930893544e-05 -6.947941241953e-05 0.0 
4.290527788402e-06 -4.000108097953e-05 0.0 
3.911311142407e-04 3.775977024186e-05 0.0 
3.789644478632e-05 -6.995197360741e-05 0.0 
4.660588503461e-05 -6.149450963206e-05 0.0 
2.152659688103e-04 -2.268497734833e-04 0.0 
6.722659720167e-05 2.024753981431e-06 0.0 
9.534517367294e-04 2.062802422179e-04 0.0 
5.166513524834e-04 -2.791412954017e-04 0.0 
3.971391762683e-05 1.001411677117e-03 0.0 
4.427294723816e-06 2.862093404029e-06 0.0 
1.172874995639e-04 9.033382638179e-03 0.0 
1.584734263001e-04 6.384755371424e-03 0.0 
5.249624985898e-05 -7.240036104480e-05 0.0 
5.725638252729e-05 -6.768768341810e-05 0.0 
3.438939948024e-05 -6.282691036670e-05 0.0 
3.439775427437e-04 7.201139380208e-06 0.0 
3.749650426296e-04 -2.806965279876e-04 0.0 
8.280237745593e-04 1.905011908797e-04 0.0 
2.286611162512e-04 7.899826449120e-03 0.0 
7.589684048483e-04 9.881674446290e-04 0.0 
3.227315087356e-04 5.072400516794e-06 0.0 
4.348438176503e-04 7.089799893590e-03 0.0 
1.184182305352e-03 4.238968607939e-04 0.0 
4.045751936896e-04 4.371456100134e-05 0.0 
3.067074922993e-04 3.812718574317e-05 0.0 
4.506179944022e-04 -2.787936496093e-04 0.0 
1.154407897741e-03 3.852045075894e-04 0.0 
9.699897856030e-04 3.138315648442e-04 0.0 
2.011298882731e-04 -2.235631614124e-04 0.0 
6.037196135021e-05 -7.887785122094e-05 0.0 
4.464495770138e-04 -2.881886923611e-04 0.0 
1.011573861720e-03 3.680073141596e-04 0.0 

VECTORS element_materi_displacement float
0.0 0.0 0.0 
0.0 0.0 0.0 
0.0 0.0 0.0 
0.0 0.0 0.0 
0.0 0.0 0.0 
0.0 0.0 0.0 
0.0 0.0 0.0 
0.0 0.0 0.0 
0.0 0.0 0.0 
0.0 0.0 0.0 
0.0 0.0 0.0 
0.0 0.0 0.0 
0.0 0.0 0.0 
0.0 0.0 0.0 
0.0 0.0 0.0 
0.0 0.0 0.0 
0.0 0.0 0.0 
0.0 0.0 0.0 
0.0 0.0 0.0 
0.0 0.0 0.0 
0.0 0.0 0.0 
0.0 0.0 0.0 
0.0 0.0 0.0 
0.0 0.0 0.0 
0.0 0.0 0.0 
0.0 0.0 0.0 
0.0 0.0 0.0 
0.0 0.0 0.0 
0.0 0.0 0.0 
0.0 0.0 0.0 
0.0 0.0 0.0 
0.0 0.0 0.0 
0.0 0.0 0.0 
0.0 0.0 0.0 
0.0 0.0 0.0 
0.0 0.0 0.0 
0.0 0.0 0.0 
0.0 0.0 0.0 
0.0 0.0 0.0 
0.0 0.0 0.0 
0.0 0.0 0.0 
0.0 0.0 0.0 
0.0 0.0 0.0 
0.0 0.0 0.0 
0.0 0.0 0.0 
0.0 0.0 0.0 
0.0 0.0 0.0 
0.0 0.0 0.0 
0.0 0.0 0.0 
0.0 0.0 0.0 
0.0 0.0 0.0 
0.0 0.0 0.0 
0.0 0.0 0.0 
0.0 0.0 0.0 
0.0 0.0 0.0 
0.0 0.0 0.0 
0.0 0.0 0.0 
0.0 0.0 0.0 
0.0 0.0 0.0 
0.0 0.0 0.0 
0.0 0.0 0.0 
0.0 0.0 0.0 
0.0 0.0 0.0 
0.0 0.0 0.0 
0.0 0.0 0.0 
0.0 0.0 0.0 
0.0 0.0 0.0 
0.0 0.0 0.0 
0.0 0.0 0.0 
0.0 0.0 0.0 
0.0 0.0 0.0 
0.0 0.0 0.0 
0.0 0.0 0.0 
0.0 0.0 0.0 
0.0 0.0 0.0 
0.0 0.0 0.0 
0.0 0.0 0.0 
0.0 0.0 0.0 
0.0 0.0 0.0 
0.0 0.0 0.0 
0.0 0.0 0.0 
0.0 0.0 0.0 
0.0 0.0 0.0 
0.0 0.0 0.0 
0.0 0.0 0.0 
0.0 0.0 0.0 
0.0 0.0 0.0 
0.0 0.0 0.0 
0.0 0.0 0.0 
0.0 0.0 0.0 
0.0 0.0 0.0 
0.0 0.0 0.0 
0.0 0.0 0.0 
0.0 0.0 0.0 
0.0 0.0 0.0 
0.0 0.0 0.0 
0.0 0.0 0.0 
0.0 0.0 0.0 
0.0 0.0 0.0 
0.0 0.0 0.0 
0.0 0.0 0.0 
0.0 0.0 0.0 
0.0 0.0 0.0 
0.0 0.0 0.0 
0.0 0.0 0.0 
0.0 0.0 0.0 
0.0 0.0 0.0 
0.0 0.0 0.0 
0.0 0.0 0.0 
0.0 0.0 0.0 
0.0 0.0 0.0 
0.0 0.0 0.0 
0.0 0.0 0.0 
0.0 0.0 0.0 
0.0 0.0 0.0 
0.0 0.0 0.0 
0.0 0.0 0.0 
0.0 0.0 0.0 
0.0 0.0 0.0 
0.0 0.0 0.0 
0.0 0.0 0.0 
0.0 0.0 0.0 
0.0 0.0 0.0 
0.0 0.0 0.0 
0.0 0.0 0.0 
0.0 0.0 0.0 
0.0 0.0 0.0 
0.0 0.0 0.0 
0.0 0.0 0.0 
0.0 0.0 0.0 
0.0 0.0 0.0 
0.0 0.0 0.0 
0.0 0.0 0.0 
0.0 0.0 0.0 
0.0 0.0 0.0 
0.0 0.0 0.0 
0.0 0.0 0.0 
0.0 0.0 0.0 
0.0 0.0 0.0 
0.0 0.0 0.0 
0.0 0.0 0.0 
0.0 0.0 0.0 
0.0 0.0 0.0 
0.0 0.0 0.0 
0.0 0.0 0.0 
0.0 0.0 0.0 
0.0 0.0 0.0 
0.0 0.0 0.0 
0.0 0.0 0.0 
0.0 0.0 0.0 
0.0 0.0 0.0 
0.0 0.0 0.0 
0.0 0.0 0.0 
0.0 0.0 0.0 
0.0 0.0 0.0 
0.0 0.0 0.0 
0.0 0.0 0.0 
0.0 0.0 0.0 
0.0 0.0 0.0 
0.0 0.0 0.0 
0.0 0.0 0.0 
0.0 0.0 0.0 
0.0 0.0 0.0 
0.0 0.0 0.0 
0.0 0.0 0.0 
0.0 0.0 0.0 
0.0 0.0 0.0 
0.0 0.0 0.0 
0.0 0.0 0.0 
0.0 0.0 0.0 
0.0 0.0 0.0 
0.0 0.0 0.0 
0.0 0.0 0.0 
0.0 0.0 0.0 
0.0 0.0 0.0 
0.0 0.0 0.0 
0.0 0.0 0.0 
0.0 0.0 0.0 
0.0 0.0 0.0 
0.0 0.0 0.0 
0.0 0.0 0.0 
0.0 0.0 0.0 
0.0 0.0 0.0 
0.0 0.0 0.0 
0.0 0.0 0.0 
0.0 0.0 0.0 
0.0 0.0 0.0 
0.0 0.0 0.0 
0.0 0.0 0.0 
0.0 0.0 0.0 
0.0 0.0 0.0 
0.0 0.0 0.0 
0.0 0.0 0.0 
0.0 0.0 0.0 
0.0 0.0 0.0 
0.0 0.0 0.0 
0.0 0.0 0.0 
0.0 0.0 0.0 
0.0 0.0 0.0 
0.0 0.0 0.0 
0.0 0.0 0.0 
0.0 0.0 0.0 
0.0 0.0 0.0 
0.0 0.0 0.0 
0.0 0.0 0.0 
0.0 0.0 0.0 
0.0 0.0 0.0 
0.0 0.0 0.0 
0.0 0.0 0.0 
0.0 0.0 0.0 
0.0 0.0 0.0 
0.0 0.0 0.0 
0.0 0.0 0.0 
0.0 0.0 0.0 
0.0 0.0 0.0 
0.0 0.0 0.0 
0.0 0.0 0.0 
0.0 0.0 0.0 
0.0 0.0 0.0 
0.0 0.0 0.0 
0.0 0.0 0.0 
0.0 0.0 0.0 
0.0 0.0 0.0 
0.0 0.0 0.0 
0.0 0.0 0.0 
0.0 0.0 0.0 
0.0 0.0 0.0 
0.0 0.0 0.0 
0.0 0.0 0.0 
0.0 0.0 0.0 
0.0 0.0 0.0 
0.0 0.0 0.0 
0.0 0.0 0.0 
0.0 0.0 0.0 
0.0 0.0 0.0 
0.0 0.0 0.0 
0.0 0.0 0.0 
0.0 0.0 0.0 
0.0 0.0 0.0 
0.0 0.0 0.0 
0.0 0.0 0.0 
0.0 0.0 0.0 
0.0 0.0 0.0 
0.0 0.0 0.0 
0.0 0.0 0.0 
0.0 0.0 0.0 
0.0 0.0 0.0 
0.0 0.0 0.0 
0.0 0.0 0.0 
0.0 0.0 0.0 
0.0 0.0 0.0 
0.0 0.0 0.0 
0.0 0.0 0.0 
0.0 0.0 0.0 
0.0 0.0 0.0 
0.0 0.0 0.0 
0.0 0.0 0.0 
0.0 0.0 0.0 
0.0 0.0 0.0 
0.0 0.0 0.0 
0.0 0.0 0.0 
0.0 0.0 0.0 
0.0 0.0 0.0 
0.0 0.0 0.0 
0.0 0.0 0.0 
0.0 0.0 0.0 
0.0 0.0 0.0 
0.0 0.0 0.0 
0.0 0.0 0.0 
0.0 0.0 0.0 
0.0 0.0 0.0 
0.0 0.0 0.0 
0.0 0.0 0.0 
0.0 0.0 0.0 
0.0 0.0 0.0 
0.0 0.0 0.0 
0.0 0.0 0.0 
0.0 0.0 0.0 
0.0 0.0 0.0 
0.0 0.0 0.0 
0.0 0.0 0.0 
0.0 0.0 0.0 
0.0 0.0 0.0 
0.0 0.0 0.0 
0.0 0.0 0.0 
0.0 0.0 0.0 
0.0 0.0 0.0 
0.0 0.0 0.0 
0.0 0.0 0.0 
0.0 0.0 0.0 
0.0 0.0 0.0 
0.0 0.0 0.0 
0.0 0.0 0.0 
0.0 0.0 0.0 
0.0 0.0 0.0 
0.0 0.0 0.0 
0.0 0.0 0.0 
0.0 0.0 0.0 
0.0 0.0 0.0 
0.0 0.0 0.0 
0.0 0.0 0.0 
0.0 0.0 0.0 
0.0 0.0 0.0 
0.0 0.0 0.0 
0.0 0.0 0.0 
0.0 0.0 0.0 
0.0 0.0 0.0 
0.0 0.0 0.0 
0.0 0.0 0.0 
0.0 0.0 0.0 
0.0 0.0 0.0 
0.0 0.0 0.0 
0.0 0.0 0.0 
0.0 0.0 0.0 
0.0 0.0 0.0 
0.0 0.0 0.0 
0.0 0.0 0.0 
0.0 0.0 0.0 
0.0 0.0 0.0 
0.0 0.0 0.0 
0.0 0.0 0.0 
0.0 0.0 0.0 
0.0 0.0 0.0 
0.0 0.0 0.0 
0.0 0.0 0.0 
0.0 0.0 0.0 
0.0 0.0 0.0 
0.0 0.0 0.0 
0.0 0.0 0.0 
0.0 0.0 0.0 
0.0 0.0 0.0 
0.0 0.0 0.0 
0.0 0.0 0.0 
0.0 0.0 0.0 
0.0 0.0 0.0 
0.0 0.0 0.0 
0.0 0.0 0.0 
0.0 0.0 0.0 
0.0 0.0 0.0 
0.0 0.0 0.0 
0.0 0.0 0.0 
0.0 0.0 0.0 
0.0 0.0 0.0 
0.0 0.0 0.0 
0.0 0.0 0.0 
0.0 0.0 0.0 
0.0 0.0 0.0 
0.0 0.0 0.0 
0.0 0.0 0.0 
0.0 0.0 0.0 
0.0 0.0 0.0 
0.0 0.0 0.0 
0.0 0.0 0.0 
0.0 0.0 0.0 
0.0 0.0 0.0 
0.0 0.0 0.0 
0.0 0.0 0.0 
0.0 0.0 0.0 
0.0 0.0 0.0 
0.0 0.0 0.0 
0.0 0.0 0.0 
0.0 0.0 0.0 
0.0 0.0 0.0 
0.0 0.0 0.0 
0.0 0.0 0.0 
0.0 0.0 0.0 
0.0 0.0 0.0 
0.0 0.0 0.0 
0.0 0.0 0.0 
0.0 0.0 0.0 
0.0 0.0 0.0 
0.0 0.0 0.0 
0.0 0.0 0.0 
0.0 0.0 0.0 
0.0 0.0 0.0 
0.0 0.0 0.0 
0.0 0.0 0.0 
0.0 0.0 0.0 
0.0 0.0 0.0 
0.0 0.0 0.0 
0.0 0.0 0.0 
0.0 0.0 0.0 
0.0 0.0 0.0 
0.0 0.0 0.0 
0.0 0.0 0.0 
0.0 0.0 0.0 
0.0 0.0 0.0 
0.0 0.0 0.0 
0.0 0.0 0.0 
0.0 0.0 0.0 
0.0 0.0 0.0 
0.0 0.0 0.0 
0.0 0.0 0.0 
0.0 0.0 0.0 
0.0 0.0 0.0 
0.0 0.0 0.0 
0.0 0.0 0.0 
0.0 0.0 0.0 
0.0 0.0 0.0 
0.0 0.0 0.0 
0.0 0.0 0.0 
0.0 0.0 0.0 
0.0 0.0 0.0 
0.0 0.0 0.0 
0.0 0.0 0.0 
0.0 0.0 0.0 
0.0 0.0 0.0 
0.0 0.0 0.0 
0.0 0.0 0.0 
0.0 0.0 0.0 
0.0 0.0 0.0 
0.0 0.0 0.0 
0.0 0.0 0.0 
0.0 0.0 0.0 
0.0 0.0 0.0 
0.0 0.0 0.0 
0.0 0.0 0.0 
0.0 0.0 0.0 
0.0 0.0 0.0 
0.0 0.0 0.0 
0.0 0.0 0.0 
0.0 0.0 0.0 
0.0 0.0 0.0 
0.0 0.0 0.0 
0.0 0.0 0.0 
0.0 0.0 0.0 
0.0 0.0 0.0 
0.0 0.0 0.0 
0.0 0.0 0.0 
0.0 0.0 0.0 
0.0 0.0 0.0 
0.0 0.0 0.0 
0.0 0.0 0.0 
0.0 0.0 0.0 
0.0 0.0 0.0 
0.0 0.0 0.0 
0.0 0.0 0.0 
0.0 0.0 0.0 
0.0 0.0 0.0 
0.0 0.0 0.0 
0.0 0.0 0.0 
0.0 0.0 0.0 
0.0 0.0 0.0 
0.0 0.0 0.0 
0.0 0.0 0.0 
0.0 0.0 0.0 
0.0 0.0 0.0 
0.0 0.0 0.0 
0.0 0.0 0.0 
0.0 0.0 0.0 
0.0 0.0 0.0 
0.0 0.0 0.0 
0.0 0.0 0.0 
0.0 0.0 0.0 
0.0 0.0 0.0 
0.0 0.0 0.0 
0.0 0.0 0.0 
0.0 0.0 0.0 
0.0 0.0 0.0 
0.0 0.0 0.0 
0.0 0.0 0.0 
0.0 0.0 0.0 
0.0 0.0 0.0 
0.0 0.0 0.0 
0.0 0.0 0.0 
0.0 0.0 0.0 
0.0 0.0 0.0 
0.0 0.0 0.0 
0.0 0.0 0.0 
0.0 0.0 0.0 
0.0 0.0 0.0 
0.0 0.0 0.0 
0.0 0.0 0.0 
0.0 0.0 0.0 
0.0 0.0 0.0 
0.0 0.0 0.0 
0.0 0.0 0.0 
0.0 0.0 0.0 
0.0 0.0 0.0 
0.0 0.0 0.0 
0.0 0.0 0.0 
0.0 0.0 0.0 
0.0 0.0 0.0 
0.0 0.0 0.0 
0.0 0.0 0.0 
0.0 0.0 0.0 
0.0 0.0 0.0 
0.0 0.0 0.0 
0.0 0.0 0.0 
0.0 0.0 0.0 
0.0 0.0 0.0 
0.0 0.0 0.0 
0.0 0.0 0.0 
0.0 0.0 0.0 
0.0 0.0 0.0 
0.0 0.0 0.0 
0.0 0.0 0.0 
0.0 0.0 0.0 
0.0 0.0 0.0 
0.0 0.0 0.0 
0.0 0.0 0.0 
0.0 0.0 0.0 
0.0 0.0 0.0 
0.0 0.0 0.0 
0.0 0.0 0.0 
0.0 0.0 0.0 
0.0 0.0 0.0 
0.0 0.0 0.0 
0.0 0.0 0.0 
0.0 0.0 0.0 
0.0 0.0 0.0 
0.0 0.0 0.0 
0.0 0.0 0.0 
0.0 0.0 0.0 
0.0 0.0 0.0 
0.0 0.0 0.0 
0.0 0.0 0.0 
0.0 0.0 0.0 
0.0 0.0 0.0 
0.0 0.0 0.0 
0.0 0.0 0.0 
0.0 0.0 0.0 
0.0 0.0 0.0 
0.0 0.0 0.0 
0.0 0.0 0.0 
0.0 0.0 0.0 
0.0 0.0 0.0 
0.0 0.0 0.0 
0.0 0.0 0.0 
0.0 0.0 0.0 
0.0 0.0 0.0 
0.0 0.0 0.0 
0.0 0.0 0.0 
0.0 0.0 0.0 
0.0 0.0 0.0 
0.0 0.0 0.0 
0.0 0.0 0.0 
0.0 0.0 0.0 
0.0 0.0 0.0 
0.0 0.0 0.0 
0.0 0.0 0.0 
0.0 0.0 0.0 
0.0 0.0 0.0 
0.0 0.0 0.0 
0.0 0.0 0.0 
0.0 0.0 0.0 
0.0 0.0 0.0 
0.0 0.0 0.0 
0.0 0.0 0.0 
0.0 0.0 0.0 
0.0 0.0 0.0 
0.0 0.0 0.0 
0.0 0.0 0.0 
0.0 0.0 0.0 
0.0 0.0 0.0 
0.0 0.0 0.0 
0.0 0.0 0.0 
0.0 0.0 0.0 
0.0 0.0 0.0 
0.0 0.0 0.0 
0.0 0.0 0.0 
0.0 0.0 0.0 
0.0 0.0 0.0 
0.0 0.0 0.0 
0.0 0.0 0.0 
0.0 0.0 0.0 
0.0 0.0 0.0 
0.0 0.0 0.0 
0.0 0.0 0.0 
0.0 0.0 0.0 
0.0 0.0 0.0 
0.0 0.0 0.0 
0.0 0.0 0.0 
0.0 0.0 0.0 
0.0 0.0 0.0 
0.0 0.0 0.0 
0.0 0.0 0.0 
0.0 0.0 0.0 
0.0 0.0 0.0 
0.0 0.0 0.0 
0.0 0.0 0.0 
0.0 0.0 0.0 
0.0 0.0 0.0 
0.0 0.0 0.0 
0.0 0.0 0.0 
0.0 0.0 0.0 
0.0 0.0 0.0 
0.0 0.0 0.0 
0.0 0.0 0.0 
0.0 0.0 0.0 
0.0 0.0 0.0 
0.0 0.0 0.0 
0.0 0.0 0.0 
0.0 0.0 0.0 
0.0 0.0 0.0 
0.0 0.0 0.0 
0.0 0.0 0.0 
0.0 0.0 0.0 
0.0 0.0 0.0 
0.0 0.0 0.0 
0.0 0.0 0.0 
0.0 0.0 0.0 
0.0 0.0 0.0 
0.0 0.0 0.0 
0.0 0.0 0.0 
0.0 0.0 0.0 
0.0 0.0 0.0 
0.0 0.0 0.0 
0.0 0.0 0.0 
0.0 0.0 0.0 
0.0 0.0 0.0 
0.0 0.0 0.0 
0.0 0.0 0.0 
0.0 0.0 0.0 
0.0 0.0 0.0 
0.0 0.0 0.0 
0.0 0.0 0.0 
0.0 0.0 0.0 
0.0 0.0 0.0 
0.0 0.0 0.0 
0.0 0.0 0.0 
0.0 0.0 0.0 
0.0 0.0 0.0 
0.0 0.0 0.0 
0.0 0.0 0.0 
0.0 0.0 0.0 
0.0 0.0 0.0 
0.0 0.0 0.0 
0.0 0.0 0.0 
0.0 0.0 0.0 
0.0 0.0 0.0 
0.0 0.0 0.0 
0.0 0.0 0.0 
0.0 0.0 0.0 
0.0 0.0 0.0 
0.0 0.0 0.0 
0.0 0.0 0.0 
0.0 0.0 0.0 
0.0 0.0 0.0 
0.0 0.0 0.0 
0.0 0.0 0.0 
0.0 0.0 0.0 
0.0 0.0 0.0 
0.0 0.0 0.0 
0.0 0.0 0.0 
0.0 0.0 0.0 
0.0 0.0 0.0 
0.0 0.0 0.0 
0.0 0.0 0.0 
0.0 0.0 0.0 
0.0 0.0 0.0 
0.0 0.0 0.0 
0.0 0.0 0.0 
0.0 0.0 0.0 
0.0 0.0 0.0 
0.0 0.0 0.0 
0.0 0.0 0.0 
0.0 0.0 0.0 
0.0 0.0 0.0 
0.0 0.0 0.0 
0.0 0.0 0.0 
0.0 0.0 0.0 
0.0 0.0 0.0 
0.0 0.0 0.0 
0.0 0.0 0.0 
0.0 0.0 0.0 
0.0 0.0 0.0 
0.0 0.0 0.0 
0.0 0.0 0.0 
0.0 0.0 0.0 
0.0 0.0 0.0 
0.0 0.0 0.0 
0.0 0.0 0.0 
0.0 0.0 0.0 
0.0 0.0 0.0 
0.0 0.0 0.0 
0.0 0.0 0.0 
0.0 0.0 0.0 
0.0 0.0 0.0 
0.0 0.0 0.0 
0.0 0.0 0.0 
0.0 0.0 0.0 
0.0 0.0 0.0 
0.0 0.0 0.0 
0.0 0.0 0.0 
0.0 0.0 0.0 
0.0 0.0 0.0 
0.0 0.0 0.0 
0.0 0.0 0.0 
0.0 0.0 0.0 
0.0 0.0 0.0 
0.0 0.0 0.0 
0.0 0.0 0.0 
0.0 0.0 0.0 
0.0 0.0 0.0 
0.0 0.0 0.0 
0.0 0.0 0.0 
0.0 0.0 0.0 
0.0 0.0 0.0 
0.0 0.0 0.0 
0.0 0.0 0.0 
0.0 0.0 0.0 
0.0 0.0 0.0 
0.0 0.0 0.0 
0.0 0.0 0.0 
0.0 0.0 0.0 
0.0 0.0 0.0 
0.0 0.0 0.0 
0.0 0.0 0.0 
0.0 0.0 0.0 
0.0 0.0 0.0 
0.0 0.0 0.0 
0.0 0.0 0.0 
0.0 0.0 0.0 
0.0 0.0 0.0 
0.0 0.0 0.0 
0.0 0.0 0.0 
0.0 0.0 0.0 
0.0 0.0 0.0 
0.0 0.0 0.0 
0.0 0.0 0.0 
0.0 0.0 0.0 
0.0 0.0 0.0 
0.0 0.0 0.0 
0.0 0.0 0.0 
0.0 0.0 0.0 
0.0 0.0 0.0 
0.0 0.0 0.0 
0.0 0.0 0.0 
0.0 0.0 0.0 
0.0 0.0 0.0 
0.0 0.0 0.0 
0.0 0.0 0.0 
0.0 0.0 0.0 
0.0 0.0 0.0 
0.0 0.0 0.0 
0.0 0.0 0.0 
0.0 0.0 0.0 
0.0 0.0 0.0 
0.0 0.0 0.0 
0.0 0.0 0.0 
0.0 0.0 0.0 
0.0 0.0 0.0 
0.0 0.0 0.0 
0.0 0.0 0.0 
0.0 0.0 0.0 
0.0 0.0 0.0 
0.0 0.0 0.0 
0.0 0.0 0.0 
0.0 0.0 0.0 
0.0 0.0 0.0 
0.0 0.0 0.0 
0.0 0.0 0.0 
0.0 0.0 0.0 
0.0 0.0 0.0 
0.0 0.0 0.0 
0.0 0.0 0.0 
0.0 0.0 0.0 
0.0 0.0 0.0 
0.0 0.0 0.0 
0.0 0.0 0.0 
0.0 0.0 0.0 
0.0 0.0 0.0 
0.0 0.0 0.0 
0.0 0.0 0.0 
0.0 0.0 0.0 
0.0 0.0 0.0 
0.0 0.0 0.0 
0.0 0.0 0.0 
0.0 0.0 0.0 
0.0 0.0 0.0 
0.0 0.0 0.0 
0.0 0.0 0.0 
0.0 0.0 0.0 
0.0 0.0 0.0 
0.0 0.0 0.0 
0.0 0.0 0.0 
0.0 0.0 0.0 
0.0 0.0 0.0 
0.0 0.0 0.0 
0.0 0.0 0.0 
0.0 0.0 0.0 
0.0 0.0 0.0 
0.0 0.0 0.0 
0.0 0.0 0.0 
0.0 0.0 0.0 
0.0 0.0 0.0 
0.0 0.0 0.0 
0.0 0.0 0.0 
0.0 0.0 0.0 
0.0 0.0 0.0 
0.0 0.0 0.0 
0.0 0.0 0.0 
0.0 0.0 0.0 
0.0 0.0 0.0 
0.0 0.0 0.0 
0.0 0.0 0.0 
0.0 0.0 0.0 
0.0 0.0 0.0 
0.0 0.0 0.0 
0.0 0.0 0.0 
0.0 0.0 0.0 
0.0 0.0 0.0 
0.0 0.0 0.0 
0.0 0.0 0.0 
0.0 0.0 0.0 
0.0 0.0 0.0 
0.0 0.0 0.0 
0.0 0.0 0.0 
0.0 0.0 0.0 
0.0 0.0 0.0 
0.0 0.0 0.0 
0.0 0.0 0.0 
0.0 0.0 0.0 
0.0 0.0 0.0 
0.0 0.0 0.0 
0.0 0.0 0.0 
0.0 0.0 0.0 
0.0 0.0 0.0 
0.0 0.0 0.0 
0.0 0.0 0.0 
0.0 0.0 0.0 
0.0 0.0 0.0 
0.0 0.0 0.0 
0.0 0.0 0.0 
0.0 0.0 0.0 
0.0 0.0 0.0 
0.0 0.0 0.0 
0.0 0.0 0.0 
0.0 0.0 0.0 
0.0 0.0 0.0 
0.0 0.0 0.0 
0.0 0.0 0.0 
0.0 0.0 0.0 
0.0 0.0 0.0 
0.0 0.0 0.0 
0.0 0.0 0.0 
0.0 0.0 0.0 
0.0 0.0 0.0 
0.0 0.0 0.0 
0.0 0.0 0.0 
0.0 0.0 0.0 
0.0 0.0 0.0 
0.0 0.0 0.0 
0.0 0.0 0.0 
0.0 0.0 0.0 
0.0 0.0 0.0 
0.0 0.0 0.0 
0.0 0.0 0.0 
0.0 0.0 0.0 
0.0 0.0 0.0 
0.0 0.0 0.0 
0.0 0.0 0.0 
0.0 0.0 0.0 
0.0 0.0 0.0 
0.0 0.0 0.0 
0.0 0.0 0.0 
0.0 0.0 0.0 
0.0 0.0 0.0 
0.0 0.0 0.0 
0.0 0.0 0.0 
0.0 0.0 0.0 
0.0 0.0 0.0 
0.0 0.0 0.0 
0.0 0.0 0.0 
0.0 0.0 0.0 
0.0 0.0 0.0 
0.0 0.0 0.0 
0.0 0.0 0.0 
0.0 0.0 0.0 
0.0 0.0 0.0 
0.0 0.0 0.0 
0.0 0.0 0.0 
0.0 0.0 0.0 
0.0 0.0 0.0 
0.0 0.0 0.0 
0.0 0.0 0.0 
0.0 0.0 0.0 
0.0 0.0 0.0 
0.0 0.0 0.0 
0.0 0.0 0.0 
0.0 0.0 0.0 
0.0 0.0 0.0 
0.0 0.0 0.0 
0.0 0.0 0.0 
0.0 0.0 0.0 
0.0 0.0 0.0 
0.0 0.0 0.0 
0.0 0.0 0.0 
0.0 0.0 0.0 
0.0 0.0 0.0 
0.0 0.0 0.0 
0.0 0.0 0.0 
0.0 0.0 0.0 
0.0 0.0 0.0 
0.0 0.0 0.0 
0.0 0.0 0.0 
0.0 0.0 0.0 
0.0 0.0 0.0 
0.0 0.0 0.0 
0.0 0.0 0.0 
0.0 0.0 0.0 
0.0 0.0 0.0 
0.0 0.0 0.0 
0.0 0.0 0.0 
0.0 0.0 0.0 
0.0 0.0 0.0 
0.0 0.0 0.0 
0.0 0.0 0.0 
0.0 0.0 0.0 
0.0 0.0 0.0 
0.0 0.0 0.0 
0.0 0.0 0.0 
0.0 0.0 0.0 
0.0 0.0 0.0 
0.0 0.0 0.0 
0.0 0.0 0.0 
0.0 0.0 0.0 
0.0 0.0 0.0 
0.0 0.0 0.0 
0.0 0.0 0.0 
0.0 0.0 0.0 
0.0 0.0 0.0 
0.0 0.0 0.0 
0.0 0.0 0.0 
0.0 0.0 0.0 
0.0 0.0 0.0 
0.0 0.0 0.0 
0.0 0.0 0.0 
0.0 0.0 0.0 
0.0 0.0 0.0 
0.0 0.0 0.0 
0.0 0.0 0.0 
0.0 0.0 0.0 
0.0 0.0 0.0 
0.0 0.0 0.0 
0.0 0.0 0.0 
0.0 0.0 0.0 
0.0 0.0 0.0 
0.0 0.0 0.0 
0.0 0.0 0.0 
0.0 0.0 0.0 
0.0 0.0 0.0 
0.0 0.0 0.0 
0.0 0.0 0.0 
0.0 0.0 0.0 
0.0 0.0 0.0 
0.0 0.0 0.0 
0.0 0.0 0.0 
0.0 0.0 0.0 
0.0 0.0 0.0 
0.0 0.0 0.0 
0.0 0.0 0.0 
0.0 0.0 0.0 
0.0 0.0 0.0 
0.0 0.0 0.0 
0.0 0.0 0.0 
0.0 0.0 0.0 
0.0 0.0 0.0 
0.0 0.0 0.0 
0.0 0.0 0.0 
0.0 0.0 0.0 
0.0 0.0 0.0 
0.0 0.0 0.0 
0.0 0.0 0.0 
0.0 0.0 0.0 
0.0 0.0 0.0 
0.0 0.0 0.0 
0.0 0.0 0.0 
0.0 0.0 0.0 
0.0 0.0 0.0 
0.0 0.0 0.0 
0.0 0.0 0.0 
0.0 0.0 0.0 
0.0 0.0 0.0 
0.0 0.0 0.0 
0.0 0.0 0.0 
0.0 0.0 0.0 
0.0 0.0 0.0 
0.0 0.0 0.0 
0.0 0.0 0.0 
0.0 0.0 0.0 
0.0 0.0 0.0 
0.0 0.0 0.0 
0.0 0.0 0.0 
0.0 0.0 0.0 
0.0 0.0 0.0 
0.0 0.0 0.0 
0.0 0.0 0.0 
0.0 0.0 0.0 
0.0 0.0 0.0 
0.0 0.0 0.0 
0.0 0.0 0.0 
0.0 0.0 0.0 
0.0 0.0 0.0 
0.0 0.0 0.0 
0.0 0.0 0.0 
0.0 0.0 0.0 
0.0 0.0 0.0 
0.0 0.0 0.0 
0.0 0.0 0.0 
0.0 0.0 0.0 
0.0 0.0 0.0 
0.0 0.0 0.0 
0.0 0.0 0.0 
0.0 0.0 0.0 
0.0 0.0 0.0 
0.0 0.0 0.0 
0.0 0.0 0.0 
0.0 0.0 0.0 
0.0 0.0 0.0 
0.0 0.0 0.0 
0.0 0.0 0.0 
0.0 0.0 0.0 
0.0 0.0 0.0 
0.0 0.0 0.0 
0.0 0.0 0.0 
0.0 0.0 0.0 
0.0 0.0 0.0 
0.0 0.0 0.0 
0.0 0.0 0.0 
0.0 0.0 0.0 
0.0 0.0 0.0 
0.0 0.0 0.0 
0.0 0.0 0.0 
0.0 0.0 0.0 
0.0 0.0 0.0 
0.0 0.0 0.0 
0.0 0.0 0.0 
0.0 0.0 0.0 
0.0 0.0 0.0 
0.0 0.0 0.0 
0.0 0.0 0.0 
0.0 0.0 0.0 
0.0 0.0 0.0 
0.0 0.0 0.0 
0.0 0.0 0.0 
0.0 0.0 0.0 
0.0 0.0 0.0 
0.0 0.0 0.0 
0.0 0.0 0.0 
0.0 0.0 0.0 
0.0 0.0 0.0 
0.0 0.0 0.0 
0.0 0.0 0.0 
0.0 0.0 0.0 
0.0 0.0 0.0 
0.0 0.0 0.0 
0.0 0.0 0.0 
0.0 0.0 0.0 
0.0 0.0 0.0 
0.0 0.0 0.0 
0.0 0.0 0.0 
0.0 0.0 0.0 
0.0 0.0 0.0 
0.0 0.0 0.0 
0.0 0.0 0.0 
0.0 0.0 0.0 
0.0 0.0 0.0 
0.0 0.0 0.0 
0.0 0.0 0.0 
0.0 0.0 0.0 
0.0 0.0 0.0 
0.0 0.0 0.0 
0.0 0.0 0.0 
0.0 0.0 0.0 
0.0 0.0 0.0 
0.0 0.0 0.0 
0.0 0.0 0.0 
0.0 0.0 0.0 
0.0 0.0 0.0 
0.0 0.0 0.0 
0.0 0.0 0.0 
0.0 0.0 0.0 
0.0 0.0 0.0 
0.0 0.0 0.0 
0.0 0.0 0.0 
0.0 0.0 0.0 
0.0 0.0 0.0 
0.0 0.0 0.0 
0.0 0.0 0.0 
0.0 0.0 0.0 
0.0 0.0 0.0 
0.0 0.0 0.0 
0.0 0.0 0.0 
0.0 0.0 0.0 
0.0 0.0 0.0 
0.0 0.0 0.0 
0.0 0.0 0.0 
0.0 0.0 0.0 
0.0 0.0 0.0 
0.0 0.0 0.0 
0.0 0.0 0.0 
0.0 0.0 0.0 
0.0 0.0 0.0 
0.0 0.0 0.0 
0.0 0.0 0.0 
0.0 0.0 0.0 
0.0 0.0 0.0 
0.0 0.0 0.0 
0.0 0.0 0.0 
0.0 0.0 0.0 
0.0 0.0 0.0 
0.0 0.0 0.0 
0.0 0.0 0.0 
0.0 0.0 0.0 
0.0 0.0 0.0 
0.0 0.0 0.0 
0.0 0.0 0.0 
0.0 0.0 0.0 
0.0 0.0 0.0 
0.0 0.0 0.0 
0.0 0.0 0.0 
0.0 0.0 0.0 
0.0 0.0 0.0 
0.0 0.0 0.0 
0.0 0.0 0.0 
0.0 0.0 0.0 
0.0 0.0 0.0 
0.0 0.0 0.0 
0.0 0.0 0.0 
0.0 0.0 0.0 
0.0 0.0 0.0 
0.0 0.0 0.0 
0.0 0.0 0.0 
0.0 0.0 0.0 
0.0 0.0 0.0 
0.0 0.0 0.0 
0.0 0.0 0.0 
0.0 0.0 0.0 
0.0 0.0 0.0 
0.0 0.0 0.0 
0.0 0.0 0.0 
0.0 0.0 0.0 
0.0 0.0 0.0 
0.0 0.0 0.0 
0.0 0.0 0.0 
0.0 0.0 0.0 
0.0 0.0 0.0 
0.0 0.0 0.0 
0.0 0.0 0.0 
0.0 0.0 0.0 
0.0 0.0 0.0 
0.0 0.0 0.0 
0.0 0.0 0.0 
0.0 0.0 0.0 
0.0 0.0 0.0 
0.0 0.0 0.0 
0.0 0.0 0.0 
0.0 0.0 0.0 
0.0 0.0 0.0 
0.0 0.0 0.0 
0.0 0.0 0.0 
0.0 0.0 0.0 
0.0 0.0 0.0 
0.0 0.0 0.0 
0.0 0.0 0.0 
0.0 0.0 0.0 
0.0 0.0 0.0 
0.0 0.0 0.0 
0.0 0.0 0.0 
0.0 0.0 0.0 
0.0 0.0 0.0 
0.0 0.0 0.0 
0.0 0.0 0.0 
0.0 0.0 0.0 
0.0 0.0 0.0 
0.0 0.0 0.0 
0.0 0.0 0.0 
0.0 0.0 0.0 
0.0 0.0 0.0 
0.0 0.0 0.0 
0.0 0.0 0.0 
0.0 0.0 0.0 
0.0 0.0 0.0 
0.0 0.0 0.0 
0.0 0.0 0.0 
0.0 0.0 0.0 
0.0 0.0 0.0 
0.0 0.0 0.0 
0.0 0.0 0.0 
0.0 0.0 0.0 
0.0 0.0 0.0 
0.0 0.0 0.0 
0.0 0.0 0.0 
0.0 0.0 0.0 
0.0 0.0 0.0 
0.0 0.0 0.0 
0.0 0.0 0.0 
0.0 0.0 0.0 
0.0 0.0 0.0 
0.0 0.0 0.0 
0.0 0.0 0.0 
0.0 0.0 0.0 
0.0 0.0 0.0 
0.0 0.0 0.0 
0.0 0.0 0.0 
0.0 0.0 0.0 
0.0 0.0 0.0 
0.0 0.0 0.0 
0.0 0.0 0.0 
0.0 0.0 0.0 
0.0 0.0 0.0 
0.0 0.0 0.0 
0.0 0.0 0.0 
0.0 0.0 0.0 
0.0 0.0 0.0 
0.0 0.0 0.0 
0.0 0.0 0.0 
0.0 0.0 0.0 
0.0 0.0 0.0 
0.0 0.0 0.0 
0.0 0.0 0.0 
0.0 0.0 0.0 
0.0 0.0 0.0 
0.0 0.0 0.0 
0.0 0.0 0.0 
0.0 0.0 0.0 
0.0 0.0 0.0 
0.0 0.0 0.0 
0.0 0.0 0.0 
0.0 0.0 0.0 
0.0 0.0 0.0 
0.0 0.0 0.0 
0.0 0.0 0.0 
0.0 0.0 0.0 
0.0 0.0 0.0 
0.0 0.0 0.0 
0.0 0.0 0.0 
0.0 0.0 0.0 
0.0 0.0 0.0 
0.0 0.0 0.0 
0.0 0.0 0.0 
0.0 0.0 0.0 
0.0 0.0 0.0 
0.0 0.0 0.0 
0.0 0.0 0.0 
0.0 0.0 0.0 
0.0 0.0 0.0 
0.0 0.0 0.0 
0.0 0.0 0.0 
0.0 0.0 0.0 
0.0 0.0 0.0 
0.0 0.0 0.0 
0.0 0.0 0.0 
0.0 0.0 0.0 
0.0 0.0 0.0 
0.0 0.0 0.0 
0.0 0.0 0.0 
0.0 0.0 0.0 
0.0 0.0 0.0 
0.0 0.0 0.0 
0.0 0.0 0.0 
0.0 0.0 0.0 
0.0 0.0 0.0 
0.0 0.0 0.0 
0.0 0.0 0.0 
0.0 0.0 0.0 
0.0 0.0 0.0 
0.0 0.0 0.0 
0.0 0.0 0.0 
0.0 0.0 0.0 
0.0 0.0 0.0 
0.0 0.0 0.0 
0.0 0.0 0.0 
0.0 0.0 0.0 
0.0 0.0 0.0 
0.0 0.0 0.0 
0.0 0.0 0.0 
0.0 0.0 0.0 
0.0 0.0 0.0 
0.0 0.0 0.0 
0.0 0.0 0.0 
0.0 0.0 0.0 
0.0 0.0 0.0 
0.0 0.0 0.0 
0.0 0.0 0.0 
0.0 0.0 0.0 
0.0 0.0 0.0 
0.0 0.0 0.0 
0.0 0.0 0.0 
0.0 0.0 0.0 
0.0 0.0 0.0 
0.0 0.0 0.0 
0.0 0.0 0.0 
0.0 0.0 0.0 
0.0 0.0 0.0 
0.0 0.0 0.0 
0.0 0.0 0.0 
0.0 0.0 0.0 
0.0 0.0 0.0 
0.0 0.0 0.0 
0.0 0.0 0.0 
0.0 0.0 0.0 
0.0 0.0 0.0 
0.0 0.0 0.0 
0.0 0.0 0.0 
0.0 0.0 0.0 
0.0 0.0 0.0 
0.0 0.0 0.0 
0.0 0.0 0.0 
0.0 0.0 0.0 
0.0 0.0 0.0 
0.0 0.0 0.0 
0.0 0.0 0.0 
0.0 0.0 0.0 
0.0 0.0 0.0 
0.0 0.0 0.0 
0.0 0.0 0.0 
0.0 0.0 0.0 
0.0 0.0 0.0 
0.0 0.0 0.0 
0.0 0.0 0.0 
0.0 0.0 0.0 
0.0 0.0 0.0 
0.0 0.0 0.0 
0.0 0.0 0.0 
0.0 0.0 0.0 
0.0 0.0 0.0 
0.0 0.0 0.0 
0.0 0.0 0.0 
0.0 0.0 0.0 
0.0 0.0 0.0 
0.0 0.0 0.0 
0.0 0.0 0.0 
0.0 0.0 0.0 
0.0 0.0 0.0 
0.0 0.0 0.0 
0.0 0.0 0.0 
0.0 0.0 0.0 
0.0 0.0 0.0 
0.0 0.0 0.0 
0.0 0.0 0.0 
0.0 0.0 0.0 
0.0 0.0 0.0 
0.0 0.0 0.0 
0.0 0.0 0.0 
0.0 0.0 0.0 
0.0 0.0 0.0 
0.0 0.0 0.0 
0.0 0.0 0.0 
0.0 0.0 0.0 
0.0 0.0 0.0 
0.0 0.0 0.0 
0.0 0.0 0.0 
0.0 0.0 0.0 
0.0 0.0 0.0 
0.0 0.0 0.0 
0.0 0.0 0.0 
0.0 0.0 0.0 
0.0 0.0 0.0 
0.0 0.0 0.0 
0.0 0.0 0.0 
0.0 0.0 0.0 
0.0 0.0 0.0 
0.0 0.0 0.0 
0.0 0.0 0.0 
0.0 0.0 0.0 
0.0 0.0 0.0 
0.0 0.0 0.0 
0.0 0.0 0.0 
0.0 0.0 0.0 
0.0 0.0 0.0 
0.0 0.0 0.0 
0.0 0.0 0.0 
0.0 0.0 0.0 
0.0 0.0 0.0 
0.0 0.0 0.0 
0.0 0.0 0.0 
0.0 0.0 0.0 
0.0 0.0 0.0 
0.0 0.0 0.0 
0.0 0.0 0.0 
0.0 0.0 0.0 
0.0 0.0 0.0 
0.0 0.0 0.0 
0.0 0.0 0.0 
0.0 0.0 0.0 
0.0 0.0 0.0 
0.0 0.0 0.0 
0.0 0.0 0.0 
0.0 0.0 0.0 
0.0 0.0 0.0 
0.0 0.0 0.0 
0.0 0.0 0.0 
0.0 0.0 0.0 
0.0 0.0 0.0 
0.0 0.0 0.0 
0.0 0.0 0.0 
0.0 0.0 0.0 
0.0 0.0 0.0 
0.0 0.0 0.0 
0.0 0.0 0.0 
0.0 0.0 0.0 
0.0 0.0 0.0 
0.0 0.0 0.0 
0.0 0.0 0.0 
0.0 0.0 0.0 
0.0 0.0 0.0 
0.0 0.0 0.0 
0.0 0.0 0.0 
0.0 0.0 0.0 
0.0 0.0 0.0 
0.0 0.0 0.0 
0.0 0.0 0.0 
0.0 0.0 0.0 
0.0 0.0 0.0 
0.0 0.0 0.0 
0.0 0.0 0.0 
0.0 0.0 0.0 
0.0 0.0 0.0 
0.0 0.0 0.0 
0.0 0.0 0.0 
0.0 0.0 0.0 
0.0 0.0 0.0 
0.0 0.0 0.0 
0.0 0.0 0.0 
0.0 0.0 0.0 
0.0 0.0 0.0 
0.0 0.0 0.0 
0.0 0.0 0.0 
0.0 0.0 0.0 
0.0 0.0 0.0 
0.0 0.0 0.0 
0.0 0.0 0.0 
0.0 0.0 0.0 
0.0 0.0 0.0 
0.0 0.0 0.0 
0.0 0.0 0.0 
0.0 0.0 0.0 
0.0 0.0 0.0 
0.0 0.0 0.0 
0.0 0.0 0.0 
0.0 0.0 0.0 
0.0 0.0 0.0 
0.0 0.0 0.0 
0.0 0.0 0.0 
0.0 0.0 0.0 
0.0 0.0 0.0 
0.0 0.0 0.0 
0.0 0.0 0.0 
0.0 0.0 0.0 
0.0 0.0 0.0 
0.0 0.0 0.0 
0.0 0.0 0.0 
0.0 0.0 0.0 
0.0 0.0 0.0 
0.0 0.0 0.0 
0.0 0.0 0.0 
0.0 0.0 0.0 
0.0 0.0 0.0 
0.0 0.0 0.0 
0.0 0.0 0.0 
0.0 0.0 0.0 
0.0 0.0 0.0 
0.0 0.0 0.0 
0.0 0.0 0.0 
0.0 0.0 0.0 
0.0 0.0 0.0 
0.0 0.0 0.0 
0.0 0.0 0.0 
0.0 0.0 0.0 
0.0 0.0 0.0 
0.0 0.0 0.0 
0.0 0.0 0.0 
0.0 0.0 0.0 
0.0 0.0 0.0 
0.0 0.0 0.0 
0.0 0.0 0.0 
0.0 0.0 0.0 
0.0 0.0 0.0 
0.0 0.0 0.0 
0.0 0.0 0.0 
0.0 0.0 0.0 
0.0 0.0 0.0 
0.0 0.0 0.0 
0.0 0.0 0.0 
0.0 0.0 0.0 
0.0 0.0 0.0 
0.0 0.0 0.0 
0.0 0.0 0.0 
0.0 0.0 0.0 
0.0 0.0 0.0 
0.0 0.0 0.0 
0.0 0.0 0.0 
0.0 0.0 0.0 
0.0 0.0 0.0 
0.0 0.0 0.0 
0.0 0.0 0.0 
0.0 0.0 0.0 
0.0 0.0 0.0 
0.0 0.0 0.0 
0.0 0.0 0.0 
0.0 0.0 0.0 
0.0 0.0 0.0 
0.0 0.0 0.0 
0.0 0.0 0.0 
0.0 0.0 0.0 
0.0 0.0 0.0 
0.0 0.0 0.0 
0.0 0.0 0.0 
0.0 0.0 0.0 
0.0 0.0 0.0 
0.0 0.0 0.0 
0.0 0.0 0.0 
0.0 0.0 0.0 
0.0 0.0 0.0 
0.0 0.0 0.0 
0.0 0.0 0.0 
0.0 0.0 0.0 
0.0 0.0 0.0 
0.0 0.0 0.0 
0.0 0.0 0.0 
0.0 0.0 0.0 
0.0 0.0 0.0 
0.0 0.0 0.0 
0.0 0.0 0.0 
0.0 0.0 0.0 
0.0 0.0 0.0 
0.0 0.0 0.0 
0.0 0.0 0.0 
0.0 0.0 0.0 
0.0 0.0 0.0 
0.0 0.0 0.0 
0.0 0.0 0.0 
0.0 0.0 0.0 
0.0 0.0 0.0 
0.0 0.0 0.0 
0.0 0.0 0.0 
0.0 0.0 0.0 
0.0 0.0 0.0 
0.0 0.0 0.0 
0.0 0.0 0.0 
0.0 0.0 0.0 
0.0 0.0 0.0 
0.0 0.0 0.0 
0.0 0.0 0.0 
0.0 0.0 0.0 
0.0 0.0 0.0 
0.0 0.0 0.0 
0.0 0.0 0.0 
0.0 0.0 0.0 
0.0 0.0 0.0 
0.0 0.0 0.0 
0.0 0.0 0.0 
0.0 0.0 0.0 
0.0 0.0 0.0 
0.0 0.0 0.0 
0.0 0.0 0.0 
0.0 0.0 0.0 
0.0 0.0 0.0 
0.0 0.0 0.0 
0.0 0.0 0.0 
0.0 0.0 0.0 
0.0 0.0 0.0 
0.0 0.0 0.0 
0.0 0.0 0.0 
0.0 0.0 0.0 
0.0 0.0 0.0 
0.0 0.0 0.0 
0.0 0.0 0.0 
0.0 0.0 0.0 
0.0 0.0 0.0 
0.0 0.0 0.0 
0.0 0.0 0.0 
0.0 0.0 0.0 
0.0 0.0 0.0 
0.0 0.0 0.0 
0.0 0.0 0.0 
0.0 0.0 0.0 
0.0 0.0 0.0 
0.0 0.0 0.0 
0.0 0.0 0.0 
0.0 0.0 0.0 
0.0 0.0 0.0 
0.0 0.0 0.0 
0.0 0.0 0.0 
0.0 0.0 0.0 
0.0 0.0 0.0 
0.0 0.0 0.0 
0.0 0.0 0.0 
0.0 0.0 0.0 
0.0 0.0 0.0 
0.0 0.0 0.0 
0.0 0.0 0.0 
0.0 0.0 0.0 
0.0 0.0 0.0 
0.0 0.0 0.0 
0.0 0.0 0.0 
0.0 0.0 0.0 
0.0 0.0 0.0 
0.0 0.0 0.0 
0.0 0.0 0.0 
0.0 0.0 0.0 
0.0 0.0 0.0 
0.0 0.0 0.0 
0.0 0.0 0.0 
0.0 0.0 0.0 
0.0 0.0 0.0 
0.0 0.0 0.0 
0.0 0.0 0.0 
0.0 0.0 0.0 
0.0 0.0 0.0 
0.0 0.0 0.0 
0.0 0.0 0.0 
0.0 0.0 0.0 
0.0 0.0 0.0 
0.0 0.0 0.0 
0.0 0.0 0.0 
0.0 0.0 0.0 
0.0 0.0 0.0 
0.0 0.0 0.0 
0.0 0.0 0.0 
0.0 0.0 0.0 
0.0 0.0 0.0 
0.0 0.0 0.0 
0.0 0.0 0.0 
0.0 0.0 0.0 
0.0 0.0 0.0 
0.0 0.0 0.0 
0.0 0.0 0.0 
0.0 0.0 0.0 
0.0 0.0 0.0 
0.0 0.0 0.0 
0.0 0.0 0.0 
0.0 0.0 0.0 
0.0 0.0 0.0 
0.0 0.0 0.0 
0.0 0.0 0.0 
0.0 0.0 0.0 
0.0 0.0 0.0 
0.0 0.0 0.0 
0.0 0.0 0.0 
0.0 0.0 0.0 
0.0 0.0 0.0 
0.0 0.0 0.0 
0.0 0.0 0.0 
0.0 0.0 0.0 
0.0 0.0 0.0 
0.0 0.0 0.0 
0.0 0.0 0.0 
0.0 0.0 0.0 
0.0 0.0 0.0 
0.0 0.0 0.0 
0.0 0.0 0.0 
0.0 0.0 0.0 
0.0 0.0 0.0 
0.0 0.0 0.0 
0.0 0.0 0.0 
0.0 0.0 0.0 
0.0 0.0 0.0 
0.0 0.0 0.0 
0.0 0.0 0.0 
0.0 0.0 0.0 
0.0 0.0 0.0 
0.0 0.0 0.0 
0.0 0.0 0.0 
0.0 0.0 0.0 
0.0 0.0 0.0 
0.0 0.0 0.0 
0.0 0.0 0.0 
0.0 0.0 0.0 
0.0 0.0 0.0 
0.0 0.0 0.0 
0.0 0.0 0.0 
0.0 0.0 0.0 
0.0 0.0 0.0 
0.0 0.0 0.0 
0.0 0.0 0.0 
0.0 0.0 0.0 
0.0 0.0 0.0 
0.0 0.0 0.0 
0.0 0.0 0.0 
0.0 0.0 0.0 
0.0 0.0 0.0 
0.0 0.0 0.0 
0.0 0.0 0.0 
0.0 0.0 0.0 
0.0 0.0 0.0 
0.0 0.0 0.0 
0.0 0.0 0.0 
0.0 0.0 0.0 
0.0 0.0 0.0 
0.0 0.0 0.0 
0.0 0.0 0.0 
0.0 0.0 0.0 
0.0 0.0 0.0 
0.0 0.0 0.0 
0.0 0.0 0.0 
0.0 0.0 0.0 
0.0 0.0 0.0 
0.0 0.0 0.0 
0.0 0.0 0.0 
0.0 0.0 0.0 
0.0 0.0 0.0 
0.0 0.0 0.0 
0.0 0.0 0.0 
0.0 0.0 0.0 
0.0 0.0 0.0 
0.0 0.0 0.0 
0.0 0.0 0.0 
0.0 0.0 0.0 
0.0 0.0 0.0 
0.0 0.0 0.0 
0.0 0.0 0.0 
0.0 0.0 0.0 
0.0 0.0 0.0 
0.0 0.0 0.0 
0.0 0.0 0.0 
0.0 0.0 0.0 
0.0 0.0 0.0 
0.0 0.0 0.0 
0.0 0.0 0.0 
0.0 0.0 0.0 
0.0 0.0 0.0 
0.0 0.0 0.0 
0.0 0.0 0.0 
0.0 0.0 0.0 
0.0 0.0 0.0 
0.0 0.0 0.0 
0.0 0.0 0.0 
0.0 0.0 0.0 
0.0 0.0 0.0 
0.0 0.0 0.0 
0.0 0.0 0.0 
0.0 0.0 0.0 
0.0 0.0 0.0 
0.0 0.0 0.0 
0.0 0.0 0.0 
0.0 0.0 0.0 
0.0 0.0 0.0 
0.0 0.0 0.0 
0.0 0.0 0.0 
0.0 0.0 0.0 
0.0 0.0 0.0 
0.0 0.0 0.0 
0.0 0.0 0.0 
0.0 0.0 0.0 
0.0 0.0 0.0 
0.0 0.0 0.0 
0.0 0.0 0.0 
0.0 0.0 0.0 
0.0 0.0 0.0 
0.0 0.0 0.0 
0.0 0.0 0.0 
0.0 0.0 0.0 
0.0 0.0 0.0 
0.0 0.0 0.0 
0.0 0.0 0.0 
0.0 0.0 0.0 
0.0 0.0 0.0 
0.0 0.0 0.0 
0.0 0.0 0.0 
0.0 0.0 0.0 
0.0 0.0 0.0 
0.0 0.0 0.0 
0.0 0.0 0.0 
0.0 0.0 0.0 
0.0 0.0 0.0 
0.0 0.0 0.0 
0.0 0.0 0.0 
0.0 0.0 0.0 
0.0 0.0 0.0 
0.0 0.0 0.0 
0.0 0.0 0.0 
0.0 0.0 0.0 
0.0 0.0 0.0 
0.0 0.0 0.0 
0.0 0.0 0.0 
0.0 0.0 0.0 
0.0 0.0 0.0 
0.0 0.0 0.0 
0.0 0.0 0.0 
0.0 0.0 0.0 
0.0 0.0 0.0 
0.0 0.0 0.0 
0.0 0.0 0.0 
0.0 0.0 0.0 
0.0 0.0 0.0 
0.0 0.0 0.0 
0.0 0.0 0.0 
0.0 0.0 0.0 
0.0 0.0 0.0 
0.0 0.0 0.0 
0.0 0.0 0.0 
0.0 0.0 0.0 
0.0 0.0 0.0 
0.0 0.0 0.0 
0.0 0.0 0.0 
0.0 0.0 0.0 
0.0 0.0 0.0 
0.0 0.0 0.0 
0.0 0.0 0.0 
0.0 0.0 0.0 
0.0 0.0 0.0 
0.0 0.0 0.0 
0.0 0.0 0.0 
0.0 0.0 0.0 
0.0 0.0 0.0 
0.0 0.0 0.0 
0.0 0.0 0.0 
0.0 0.0 0.0 
0.0 0.0 0.0 
0.0 0.0 0.0 
0.0 0.0 0.0 
0.0 0.0 0.0 
0.0 0.0 0.0 
0.0 0.0 0.0 
0.0 0.0 0.0 
0.0 0.0 0.0 
0.0 0.0 0.0 
0.0 0.0 0.0 
0.0 0.0 0.0 
0.0 0.0 0.0 
0.0 0.0 0.0 
0.0 0.0 0.0 
0.0 0.0 0.0 
0.0 0.0 0.0 
0.0 0.0 0.0 
0.0 0.0 0.0 
0.0 0.0 0.0 
0.0 0.0 0.0 
0.0 0.0 0.0 
0.0 0.0 0.0 
0.0 0.0 0.0 
0.0 0.0 0.0 
0.0 0.0 0.0 
0.0 0.0 0.0 
0.0 0.0 0.0 
0.0 0.0 0.0 
0.0 0.0 0.0 
0.0 0.0 0.0 
0.0 0.0 0.0 
0.0 0.0 0.0 
0.0 0.0 0.0 
0.0 0.0 0.0 
0.0 0.0 0.0 
0.0 0.0 0.0 
0.0 0.0 0.0 
0.0 0.0 0.0 
0.0 0.0 0.0 
0.0 0.0 0.0 
0.0 0.0 0.0 
0.0 0.0 0.0 
0.0 0.0 0.0 
0.0 0.0 0.0 
0.0 0.0 0.0 
0.0 0.0 0.0 
0.0 0.0 0.0 
0.0 0.0 0.0 
0.0 0.0 0.0 
0.0 0.0 0.0 
0.0 0.0 0.0 
0.0 0.0 0.0 
0.0 0.0 0.0 
0.0 0.0 0.0 
0.0 0.0 0.0 
0.0 0.0 0.0 
0.0 0.0 0.0 
0.0 0.0 0.0 
0.0 0.0 0.0 
0.0 0.0 0.0 
0.0 0.0 0.0 
0.0 0.0 0.0 
0.0 0.0 0.0 
0.0 0.0 0.0 
0.0 0.0 0.0 
0.0 0.0 0.0 
0.0 0.0 0.0 
0.0 0.0 0.0 
0.0 0.0 0.0 
0.0 0.0 0.0 
0.0 0.0 0.0 
0.0 0.0 0.0 
0.0 0.0 0.0 
0.0 0.0 0.0 
0.0 0.0 0.0 
0.0 0.0 0.0 
0.0 0.0 0.0 
0.0 0.0 0.0 
0.0 0.0 0.0 
0.0 0.0 0.0 
0.0 0.0 0.0 
0.0 0.0 0.0 
0.0 0.0 0.0 
0.0 0.0 0.0 
0.0 0.0 0.0 
0.0 0.0 0.0 
0.0 0.0 0.0 
0.0 0.0 0.0 
0.0 0.0 0.0 
0.0 0.0 0.0 
0.0 0.0 0.0 
0.0 0.0 0.0 
0.0 0.0 0.0 
0.0 0.0 0.0 
0.0 0.0 0.0 
0.0 0.0 0.0 
0.0 0.0 0.0 
0.0 0.0 0.0 
0.0 0.0 0.0 
0.0 0.0 0.0 
0.0 0.0 0.0 
0.0 0.0 0.0 
0.0 0.0 0.0 
0.0 0.0 0.0 
0.0 0.0 0.0 
0.0 0.0 0.0 
0.0 0.0 0.0 
0.0 0.0 0.0 
0.0 0.0 0.0 
0.0 0.0 0.0 
0.0 0.0 0.0 
0.0 0.0 0.0 
0.0 0.0 0.0 
0.0 0.0 0.0 
0.0 0.0 0.0 
0.0 0.0 0.0 
0.0 0.0 0.0 

TENSORS element_materi_stress float
-4.380093122498e+01 3.157336261628e+01 0.0 
3.157336261628e+01 -4.744658057080e+01 0.0 
0.0 0.0 -2.303429360360e+01 
-4.341523724189e+01 2.934593127445e+01 0.0 
2.934593127445e+01 -5.025246761674e+01 0.0 
0.0 0.0 -2.515636183301e+01 
-1.069701532909e+02 3.787192443470e+01 0.0 
3.787192443470e+01 -2.418240190431e+02 0.0 
0.0 0.0 -1.042382517002e+02 
-8.125927981650e+01 4.863706150465e+00 0.0 
4.863706150465e+00 -1.720193442802e+02 0.0 
0.0 0.0 -7.558358722902e+01 
-3.796656694174e+01 1.171199918377e-01 0.0 
1.171199918377e-01 -3.041081947250e+01 0.0 
0.0 0.0 -2.011321592427e+01 
-3.931203007114e+01 2.990727624537e+01 0.0 
2.990727624537e+01 -9.345314519871e+01 0.0 
0.0 0.0 -4.061384505501e+01 
-3.665011396067e+01 -4.616462215611e-01 0.0 
-4.616462215611e-01 -3.060337101569e+01 0.0 
0.0 0.0 -1.977604549291e+01 
-4.617806606221e+01 3.170534267095e+01 0.0 
3.170534267095e+01 -5.289848870126e+01 0.0 
0.0 0.0 -2.589509166678e+01 
-3.829434202702e+01 2.229808924208e+00 0.0 
2.229808924208e+00 -3.171490481846e+01 0.0 
0.0 0.0 -2.060277405364e+01 
-8.049529560494e+01 5.782193720719e+00 0.0 
5.782193720719e+00 -1.703566294938e+02 0.0 
0.0 0.0 -7.485557752961e+01 
-1.108227536693e+02 -1.154281096805e+00 0.0 
-1.154281096805e+00 -2.603186427250e+02 0.0 
0.0 0.0 -1.081625040961e+02 
-4.086133371995e+01 2.933214204355e+01 0.0 
2.933214204355e+01 -4.340941230433e+01 0.0 
0.0 0.0 -2.244201616133e+01 
-1.554844923218e+02 2.625847396009e-01 0.0 
2.625847396009e-01 -3.716501656834e+02 0.0 
0.0 0.0 -1.577403974016e+02 
-5.467322831994e+01 7.409929402367e+00 0.0 
7.409929402367e+00 -5.148588893930e+01 0.0 
0.0 0.0 -3.144773517777e+01 
-1.602103495439e+02 2.393132370794e+00 0.0 
2.393132370794e+00 -3.796497850460e+02 0.0 
0.0 0.0 -1.615580403770e+02 
-8.139273479078e+01 4.623223825257e+00 0.0 
4.623223825257e+00 -1.804114814374e+02 0.0 
0.0 0.0 -7.814126486845e+01 
-3.829413078988e+01 2.092815379727e+00 0.0 
2.092815379727e+00 -2.693642056199e+01 0.0 
0.0 0.0 -1.916916540556e+01 
-2.986151830157e+01 1.889761190232e+01 0.0 
1.889761190232e+01 -1.096633183795e+02 0.0 
0.0 0.0 -4.419680779057e+01 
-1.915046288844e+01 -5.628411631266e-01 0.0 
-5.628411631266e-01 -7.751253110034e+01 0.0 
0.0 0.0 -2.859889819663e+01 
-2.899813810058e+01 -1.942647393597e+00 0.0 
-1.942647393597e+00 -8.011798287586e+01 0.0 
0.0 0.0 -3.015472632833e+01 
-8.338464244055e+01 8.221497261493e+00 0.0 
8.221497261493e+00 -1.721663716422e+02 0.0 
0.0 0.0 -7.626530422481e+01 
-4.260925556371e+01 2.897030668874e+01 0.0 
2.897030668874e+01 -4.838537356675e+01 0.0 
0.0 0.0 -2.255456763491e+01 
-4.544872005326e+01 3.096096971094e+01 0.0 
3.096096971094e+01 -4.973060147672e+01 0.0 
0.0 0.0 -2.336556964944e+01 
-1.372911145360e+02 1.715511267394e+01 0.0 
1.715511267394e+01 -3.485863053987e+02 0.0 
0.0 0.0 -1.453632259804e+02 
-6.774966312375e+01 1.665491185795e+01 0.0 
1.665491185795e+01 -8.105199583088e+01 0.0 
0.0 0.0 -4.424049768639e+01 
-1.156487399437e+02 1.476052183832e-01 0.0 
1.476052183832e-01 -2.740769185931e+02 0.0 
0.0 0.0 -1.140864122654e+02 
-6.268461514523e+01 1.624447076963e+01 0.0 
1.624447076963e+01 -2.174019606783e+01 0.0 
0.0 0.0 -2.492744336392e+01 
-1.267313738460e+02 3.832962194518e+01 0.0 
3.832962194518e+01 -3.129826911957e+02 0.0 
0.0 0.0 -1.315142195125e+02 
-7.197052412189e+01 2.204388118798e+01 0.0 
2.204388118798e+01 -8.351711181448e+01 0.0 
0.0 0.0 -4.624629078091e+01 
-1.416883442388e+02 1.538953593954e+01 0.0 
1.538953593954e+01 -3.570481233223e+02 0.0 
0.0 0.0 -1.492209402683e+02 
-4.022612054049e+01 -2.330400133042e+01 0.0 
-2.330400133042e+01 -9.873638355106e+01 0.0 
0.0 0.0 -3.811240064976e+01 
-1.428203988131e+01 -3.105899876834e-01 0.0 
-3.105899876834e-01 -2.499571859142e+01 0.0 
0.0 0.0 -1.138332754182e+01 
-1.081792560216e+02 3.934226423973e+01 0.0 
3.934226423973e+01 -2.396284234982e+02 0.0 
0.0 0.0 -1.039423038559e+02 
-1.309551335399e+02 1.031846957257e+00 0.0 
1.031846957257e+00 -3.228695150039e+02 0.0 
0.0 0.0 -1.357473945631e+02 
-1.520200850381e+02 9.145974524849e+00 0.0 
9.145974524849e+00 -3.697412135938e+02 0.0 
0.0 0.0 -1.561283895896e+02 
-1.628209756154e+02 3.577316964402e+00 0.0 
3.577316964402e+00 -3.875542127915e+02 0.0 
0.0 0.0 -1.647125565221e+02 
-1.635413621547e+02 6.232028465650e+00 0.0 
6.232028465650e+00 -3.876284230438e+02 0.0 
0.0 0.0 -1.649509355595e+02 
-1.383670109313e+02 2.572047063616e+01 0.0 
2.572047063616e+01 -3.460976004612e+02 0.0 
0.0 0.0 -1.449393834178e+02 
-2.805907196191e+01 1.388621909917e+00 0.0 
1.388621909917e+00 -1.221341699964e+01 0.0 
0.0 0.0 -1.168174668847e+01 
-2.766574014200e+01 -1.339071080450e+00 0.0 
-1.339071080450e+00 -1.268736957996e+01 0.0 
0.0 0.0 -1.170593291659e+01 
-4.731155656819e+01 3.107682530267e+01 0.0 
3.107682530267e+01 -4.942849191461e+01 0.0 
0.0 0.0 -2.415215197649e+01 
-1.550199376802e+02 1.115991483332e+01 0.0 
1.115991483332e+01 -3.731882136227e+02 0.0 
0.0 0.0 -1.580624453909e+02 
-4.461899111011e+01 3.150802393525e+01 0.0 
3.150802393525e+01 -4.758354455395e+01 0.0 
0.0 0.0 -2.446529661235e+01 
-5.318699292841e+01 1.644526502302e+01 0.0 
1.644526502302e+01 -2.243236370299e+01 0.0 
0.0 0.0 -2.197523718284e+01 
-7.845699939449e+01 1.842716043341e+00 0.0 
1.842716043341e+00 -1.599806460128e+02 0.0 
0.0 0.0 -7.113129362220e+01 
-4.503499032594e+01 3.020770285883e+01 0.0 
3.020770285883e+01 -4.819476255815e+01 0.0 
0.0 0.0 -2.448676863400e+01 
-3.694278862936e+01 -2.556138605129e+01 0.0 
-2.556138605129e+01 -9.523768473390e+01 0.0 
0.0 0.0 -3.882269431106e+01 
-7.590860431022e+01 1.980703065905e+00 0.0 
1.980703065905e+00 -1.606687614471e+02 0.0 
0.0 0.0 -7.057320972721e+01 
-3.591078042443e+01 -2.719684197459e+01 0.0 
-2.719684197459e+01 -5.757460442057e+01 0.0 
0.0 0.0 -2.838439620399e+01 
-5.341770658285e+01 7.871713817740e+00 0.0 
7.871713817740e+00 -4.236872998309e+01 0.0 
0.0 0.0 -2.833593096978e+01 
-4.646642823936e+01 3.128194979131e+01 0.0 
3.128194979131e+01 -5.052513803799e+01 0.0 
0.0 0.0 -2.291396729499e+01 
-3.295599007217e+01 -7.979982225607e-01 0.0 
-7.979982225607e-01 -9.777715973178e+01 0.0 
0.0 0.0 -3.775928379771e+01 
-4.176850703547e+01 -1.768691157504e+01 0.0 
-1.768691157504e+01 -1.252645459373e+02 0.0 
0.0 0.0 -4.559175334011e+01 
-4.401796184956e+01 2.827914476705e+01 0.0 
2.827914476705e+01 -4.837234693865e+01 0.0 
0.0 0.0 -2.256678085095e+01 
-9.807470084524e+01 3.220083867269e+01 0.0 
3.220083867269e+01 -2.146653654616e+02 0.0 
0.0 0.0 -9.342201989204e+01 
-5.687760581276e+01 -2.122156950671e+00 0.0 
-2.122156950671e+00 -1.308986376854e+02 0.0 
0.0 0.0 -5.200815716769e+01 
-4.304910462354e+01 -2.209524152767e+00 0.0 
-2.209524152767e+00 -1.009983036889e+02 0.0 
0.0 0.0 -3.942890463192e+01 
-1.303458860669e+02 -4.474605576896e-01 0.0 
-4.474605576896e-01 -3.226666826922e+02 0.0 
0.0 0.0 -1.355037706277e+02 
-1.621193729199e+01 -1.095590008408e+00 0.0 
-1.095590008408e+00 -5.955340445099e+01 0.0 
0.0 0.0 -2.093104466291e+01 
-8.283365197969e+01 6.761842583035e+00 0.0 
6.761842583035e+00 -1.810724543855e+02 0.0 
0.0 0.0 -7.877183190956e+01 
-6.302877705598e+01 -2.526104264468e+01 0.0 
-2.526104264468e+01 -9.372663260785e+01 0.0 
0.0 0.0 -4.805652318234e+01 
-1.209175087112e+02 3.078771182762e+01 0.0 
3.078771182762e+01 -3.123725442890e+02 0.0 
0.0 0.0 -1.295870159001e+02 
-4.945296781258e+01 3.323735147134e+01 0.0 
3.323735147134e+01 -1.055274856731e+02 0.0 
0.0 0.0 -4.418740480023e+01 
-3.749118826451e+01 -1.793241077036e+01 0.0 
-1.793241077036e+01 -1.123777791835e+02 0.0 
0.0 0.0 -3.797702110307e+01 
-1.552144550950e+02 2.996287837334e+00 0.0 
2.996287837334e+00 -3.713952075689e+02 0.0 
0.0 0.0 -1.575828987992e+02 
-4.346216636522e+01 2.835470634868e+01 0.0 
2.835470634868e+01 -4.838220606321e+01 0.0 
0.0 0.0 -2.197915858368e+01 
-4.727550554141e+01 -8.596803079466e+00 0.0 
-8.596803079466e+00 -1.193611975606e+02 0.0 
0.0 0.0 -5.122589781327e+01 
-1.113054050089e+02 4.092162537745e+01 0.0 
4.092162537745e+01 -2.474278918319e+02 0.0 
0.0 0.0 -1.072199890523e+02 
-3.973334452050e+01 -1.234049919191e+01 0.0 
-1.234049919191e+01 -7.143012669913e+01 0.0 
0.0 0.0 -2.774636318573e+01 
-1.195881094752e+02 3.971006717359e+01 0.0 
3.971006717359e+01 -2.822503046630e+02 0.0 
0.0 0.0 -1.201515242414e+02 
-1.185071983879e+02 4.397979152478e-01 0.0 
4.397979152478e-01 -2.849822930428e+02 0.0 
0.0 0.0 -1.187804852486e+02 
-8.811738804506e+01 2.229742534559e+01 0.0 
2.229742534559e+01 -2.069405721051e+02 0.0 
0.0 0.0 -8.811738804506e+01 
-1.220043120535e+02 3.504004879189e+01 0.0 
3.504004879189e+01 -3.002880942987e+02 0.0 
0.0 0.0 -1.262877219057e+02 
-8.103850314373e+00 -6.463974947189e-01 0.0 
-6.463974947189e-01 -2.992972348287e+01 0.0 
0.0 0.0 -8.634883940978e+00 
-6.297431007721e+01 -3.411941836078e+00 0.0 
-3.411941836078e+00 -1.358220764463e+02 0.0 
0.0 0.0 -5.422994234577e+01 
-8.890120958632e+01 1.716552137030e+01 0.0 
1.716552137030e+01 -1.810331415137e+02 0.0 
0.0 0.0 -8.058030532999e+01 
-1.045075231051e+02 3.510906885814e+01 0.0 
3.510906885814e+01 -2.214469705434e+02 0.0 
0.0 0.0 -9.738634809457e+01 
-4.571483644006e+01 3.158747770657e+01 0.0 
3.158747770657e+01 -4.929534238132e+01 0.0 
0.0 0.0 -2.444344391947e+01 
-1.703222441718e+01 -3.209847090803e+00 0.0 
-3.209847090803e+00 -5.886694942549e+01 0.0 
0.0 0.0 -2.085763461741e+01 
-4.613330420001e+01 3.239456423172e+01 0.0 
3.239456423172e+01 -4.955105812933e+01 0.0 
0.0 0.0 -2.439856364138e+01 
-4.122650966781e+01 -1.522480373697e+01 0.0 
-1.522480373697e+01 -7.239621388839e+01 0.0 
0.0 0.0 -2.852626808979e+01 
-3.964397233398e+01 1.586137781205e+00 0.0 
1.586137781205e+00 -2.624115444726e+01 0.0 
0.0 0.0 -1.936553803437e+01 
-4.579774802468e+01 3.154293517595e+01 0.0 
3.154293517595e+01 -5.025638679640e+01 0.0 
0.0 0.0 -2.433693895273e+01 
-4.099905731310e+01 2.911617347882e+01 0.0 
2.911617347882e+01 -4.377180939718e+01 0.0 
0.0 0.0 -2.215002894780e+01 
-4.480199839951e+01 3.091567326029e+00 0.0 
3.091567326029e+00 -4.243269693799e+01 0.0 
0.0 0.0 -2.577040860125e+01 
-4.195925640826e+01 4.663471316413e-01 0.0 
4.663471316413e-01 -4.117629796608e+01 0.0 
0.0 0.0 -2.454066631230e+01 
-1.211721663793e+02 7.725401336047e-01 0.0 
7.725401336047e-01 -2.932398801125e+02 0.0 
0.0 0.0 -1.225162701712e+02 
-1.267503263849e+02 -7.875575839454e-01 0.0 
-7.875575839454e-01 -3.144065074591e+02 0.0 
0.0 0.0 -1.319285837937e+02 
-9.334033155759e+01 3.676431296899e+01 0.0 
3.676431296899e+01 -1.938920697213e+02 0.0 
0.0 0.0 -8.576972038368e+01 
-4.069785377297e+01 3.040800468151e+00 0.0 
3.040800468151e+00 -3.061935962659e+01 0.0 
0.0 0.0 -2.099516401987e+01 
-1.679757371954e+01 -3.620903002649e+00 0.0 
-3.620903002649e+00 -2.664946612321e+01 0.0 
0.0 0.0 -1.201198366897e+01 
-5.653551100324e+01 1.770473586322e+01 0.0 
1.770473586322e+01 -4.023101922490e+01 0.0 
0.0 0.0 -2.862995906844e+01 
-6.318364375640e+01 1.961286653519e+00 0.0 
1.961286653519e+00 -1.106872281124e+02 0.0 
0.0 0.0 -5.176126156063e+01 
-6.359728926011e+01 1.552852053230e+00 0.0 
1.552852053230e+00 -1.073342150034e+02 0.0 
0.0 0.0 -5.087945127905e+01 
-9.802010502216e+01 2.490143303431e+01 0.0 
2.490143303431e+01 -2.130540997146e+02 0.0 
0.0 0.0 -9.292226142102e+01 
-1.454088694059e+02 2.937086088557e+01 0.0 
2.937086088557e+01 -3.511573318363e+02 0.0 
0.0 0.0 -1.485698603727e+02 
-4.288267542128e+01 3.427876438369e+00 0.0 
3.427876438369e+00 -2.614798559486e+01 0.0 
0.0 0.0 -2.030919830484e+01 
-1.510144203894e+02 1.066960972158e+01 0.0 
1.066960972158e+01 -3.719608513330e+02 0.0 
0.0 0.0 -1.564925815167e+02 
-4.659249880608e+01 9.071574023073e-01 0.0 
9.071574023073e-01 -6.120942961389e+01 0.0 
0.0 0.0 -3.194057852599e+01 
-4.856893888161e+01 3.157464365788e+01 0.0 
3.157464365788e+01 -8.807465473780e+01 0.0 
0.0 0.0 -3.707726346964e+01 
-3.421449971785e+01 1.732840899647e+00 0.0 
1.732840899647e+00 -2.171013260042e+01 0.0 
0.0 0.0 -1.637738969548e+01 
-1.595917186001e+02 1.067291455074e+00 0.0 
1.067291455074e+00 -3.792666813236e+02 0.0 
0.0 0.0 -1.612575199771e+02 
-9.686451763402e+01 2.658600973107e+01 0.0 
2.658600973107e+01 -2.737204249012e+02 0.0 
0.0 0.0 -1.107754827606e+02 
-1.238385227267e+02 3.206410692629e+01 0.0 
3.206410692629e+01 -3.139000814163e+02 0.0 
0.0 0.0 -1.309215812429e+02 
-4.569373576190e+01 3.091416330435e+01 0.0 
3.091416330435e+01 -1.049618892533e+02 0.0 
0.0 0.0 -4.237297377735e+01 
-5.103251168168e+01 -3.034318685409e+01 0.0 
-3.034318685409e+01 -7.796476375184e+01 0.0 
0.0 0.0 -3.645174175181e+01 
-1.453928142578e+02 1.709063424097e+00 0.0 
1.709063424097e+00 -3.518672268441e+02 0.0 
0.0 0.0 -1.487780123306e+02 
-6.974586720469e+01 2.246342660417e+00 0.0 
2.246342660417e+00 -1.272436957130e+02 0.0 
0.0 0.0 -5.869686887530e+01 
-5.529147599566e+01 -3.777484300330e+01 0.0 
-3.777484300330e+01 -7.181137517226e+01 0.0 
0.0 0.0 -3.928805272236e+01 
-1.592126011912e+02 4.115829615250e+00 0.0 
4.115829615250e+00 -3.774958050980e+02 0.0 
0.0 0.0 -1.606125218867e+02 
-8.834650267112e+01 3.412881459971e+01 0.0 
3.412881459971e+01 -1.889429781669e+02 0.0 
0.0 0.0 -8.278684425141e+01 
-8.368501366094e+00 3.996372706804e-02 0.0 
3.996372706804e-02 -2.154554299845e+01 0.0 
0.0 0.0 -6.808728472507e+00 
-5.507123103302e+01 3.017038503995e+01 0.0 
3.017038503995e+01 -1.570582939874e+02 0.0 
0.0 0.0 -6.412288314306e+01 
-5.605709259491e+01 3.079697094870e+01 0.0 
3.079697094870e+01 -4.743257828380e+01 0.0 
0.0 0.0 -2.950657525158e+01 
-7.761892289052e+01 -3.629071889351e+00 0.0 
-3.629071889351e+00 -1.670978816775e+02 0.0 
0.0 0.0 -6.729161703071e+01 
-4.586016969376e+01 3.295383225925e+01 0.0 
3.295383225925e+01 -8.513151850580e+01 0.0 
0.0 0.0 -3.729913276108e+01 
-4.987895647886e+01 3.131498575248e+01 0.0 
3.131498575248e+01 -1.056677694579e+02 0.0 
0.0 0.0 -4.379658156350e+01 
-1.564457523312e+02 7.159994104911e+00 0.0 
7.159994104911e+00 -3.764139001434e+02 0.0 
0.0 0.0 -1.594578957424e+02 
-4.435033992021e+01 -3.183148324547e-01 0.0 
-3.183148324547e-01 -5.449248687412e+01 0.0 
0.0 0.0 -2.925284803830e+01 
-4.756188465391e+01 3.359530340283e+01 0.0 
3.359530340283e+01 -1.051073024177e+02 0.0 
0.0 0.0 -4.390018905579e+01 
-3.106243524883e+01 -6.622602020392e+00 0.0 
-6.622602020392e+00 -6.311043514711e+01 0.0 
0.0 0.0 -2.326766060287e+01 
-6.332274006732e+01 2.167404872686e+01 0.0 
2.167404872686e+01 -5.096975901660e+01 0.0 
0.0 0.0 -3.388774972517e+01 
-6.839140290842e+01 2.396871961920e+00 0.0 
2.396871961920e+00 -1.283039229562e+02 0.0 
0.0 0.0 -5.860859775938e+01 
-4.777129152013e+01 3.091189925690e+01 0.0 
3.091189925690e+01 -1.049995729695e+02 0.0 
0.0 0.0 -4.345665262053e+01 
-4.768047403041e+01 3.562623520720e+01 0.0 
3.562623520720e+01 -5.392408028183e+01 0.0 
0.0 0.0 -2.772494582701e+01 
-5.094655712662e+01 3.174378316937e+01 0.0 
3.174378316937e+01 -4.887432290002e+01 0.0 
0.0 0.0 -2.690233324053e+01 
-7.460157902890e+01 -3.931853571447e+00 0.0 
-3.931853571447e+00 -1.648893148479e+02 0.0 
0.0 0.0 -6.634320743705e+01 
-4.650806988159e+01 2.849001146209e+01 0.0 
2.849001146209e+01 -4.709735794783e+01 0.0 
0.0 0.0 -2.476270071076e+01 
-8.757648843807e+01 1.786537071067e+01 0.0 
1.786537071067e+01 -1.909734979997e+02 0.0 
0.0 0.0 -8.316499593135e+01 
-4.623309761127e+01 3.503933195108e+01 0.0 
3.503933195108e+01 -7.641683707729e+01 0.0 
0.0 0.0 -3.182861570531e+01 
-1.136218921817e+02 -1.188234004301e+00 0.0 
-1.188234004301e+00 -2.727431244548e+02 0.0 
0.0 0.0 -1.134287310632e+02 
-7.997697635880e+01 2.805573869394e+00 0.0 
2.805573869394e+00 -1.715575082286e+02 0.0 
0.0 0.0 -7.506034537623e+01 
-5.698106371313e+01 3.306044640800e+01 0.0 
3.306044640800e+01 -1.082046998363e+02 0.0 
0.0 0.0 -4.458577712310e+01 
-4.906494517879e+01 3.157663573847e+01 0.0 
3.157663573847e+01 -4.915028957737e+01 0.0 
0.0 0.0 -2.558767668546e+01 
-1.502756736386e+02 7.771773866588e+00 0.0 
7.771773866588e+00 -3.690332063102e+02 0.0 
0.0 0.0 -1.553926639846e+02 
-1.559946249030e+02 2.031682625884e+00 0.0 
2.031682625884e+00 -3.723491726864e+02 0.0 
0.0 0.0 -1.581031392768e+02 
-1.195846312509e+02 -6.835968654439e-01 0.0 
-6.835968654439e-01 -2.930436853504e+02 0.0 
0.0 0.0 -1.222830728874e+02 
-5.798239834690e+01 3.392716052821e+01 0.0 
3.392716052821e+01 -1.082921864431e+02 0.0 
0.0 0.0 -4.569384286941e+01 
-1.483216966798e+02 1.560986293422e+01 0.0 
1.560986293422e+01 -3.684885731400e+02 0.0 
0.0 0.0 -1.546430809459e+02 
-5.385644454305e+01 3.221699846435e+01 0.0 
3.221699846435e+01 -8.900543538116e+01 0.0 
0.0 0.0 -3.736830335601e+01 
-8.323261270689e+01 1.223251380872e+01 0.0 
1.223251380872e+01 -1.802371571887e+02 0.0 
0.0 0.0 -7.864093096866e+01 
-1.172392293276e+02 4.181796882445e+01 0.0 
4.181796882445e+01 -2.783052958818e+02 0.0 
0.0 0.0 -1.182633575628e+02 
-5.951950463153e+01 1.220072655081e+01 0.0 
1.220072655081e+01 -5.215666365072e+01 0.0 
0.0 0.0 -3.310285048467e+01 
-5.669451679169e+01 1.686819903595e+00 0.0 
1.686819903595e+00 -8.573246019208e+01 0.0 
0.0 0.0 -4.232809309513e+01 
-5.338581647364e+01 3.318377587420e+01 0.0 
3.318377587420e+01 -8.897567822625e+01 0.0 
0.0 0.0 -3.727999448991e+01 
-4.550261572117e+01 2.848454333731e+01 0.0 
2.848454333731e+01 -4.839904853631e+01 0.0 
0.0 0.0 -2.391834330980e+01 
-6.194409589630e+01 3.363226978154e+01 0.0 
3.363226978154e+01 -1.271635171057e+02 0.0 
0.0 0.0 -5.200368308649e+01 
-4.768055975823e+01 3.040479638362e+01 0.0 
3.040479638362e+01 -1.231789972297e+02 0.0 
0.0 0.0 -4.882128430665e+01 
-3.364783928512e+01 1.310456881941e+00 0.0 
1.310456881941e+00 -2.430438065902e+01 0.0 
0.0 0.0 -1.698566598324e+01 
-5.222598943939e+01 2.719751256756e+01 0.0 
2.719751256756e+01 -1.542790813534e+02 0.0 
0.0 0.0 -6.087660995975e+01 
-1.139603525756e+01 -1.188660788730e+00 0.0 
-1.188660788730e+00 -2.565499603461e+01 0.0 
0.0 0.0 -9.900619184658e+00 
-3.831610048488e+01 2.871798357821e-01 0.0 
2.871798357821e-01 -3.919120531791e+01 0.0 
0.0 0.0 -2.285219174084e+01 
-1.377222713648e+01 -1.108628073894e+00 0.0 
-1.108628073894e+00 -5.993682761893e+01 0.0 
0.0 0.0 -2.106821057069e+01 
-5.305397808638e+01 3.185965235721e+01 0.0 
3.185965235721e+01 -4.861944846508e+01 0.0 
0.0 0.0 -2.823666581886e+01 
-1.537669606734e+02 1.456141146775e+01 0.0 
1.456141146775e+01 -3.711642977314e+02 0.0 
0.0 0.0 -1.570793775214e+02 
-4.696478543325e+01 3.343963050663e+01 0.0 
3.343963050663e+01 -1.056091258475e+02 0.0 
0.0 0.0 -4.396865233783e+01 
-1.231397959083e+02 -6.978811612093e-01 0.0 
-6.978811612093e-01 -3.032120066561e+02 0.0 
0.0 0.0 -1.268856785195e+02 
-4.480570213117e+01 2.985443839730e+01 0.0 
2.985443839730e+01 -4.754544597605e+01 0.0 
0.0 0.0 -2.446133748667e+01 
-9.481019227982e+01 2.568389228759e+01 0.0 
2.568389228759e+01 -2.727268126457e+02 0.0 
0.0 0.0 -1.098611014777e+02 
-3.285330318067e+01 1.646258573406e-01 0.0 
1.646258573406e-01 -2.570425496377e+01 0.0 
0.0 0.0 -1.716726744333e+01 
-5.271273717863e+01 2.887372684324e+01 0.0 
2.887372684324e+01 -1.554280474246e+02 0.0 
0.0 0.0 -6.186831508056e+01 
-1.353481248285e+02 1.607233723205e+00 0.0 
1.607233723205e+00 -3.323082477639e+02 0.0 
0.0 0.0 -1.398969117777e+02 
-3.608750642192e+01 -1.084216159437e+01 0.0 
-1.084216159437e+01 -6.427220858788e+01 0.0 
0.0 0.0 -2.658312886757e+01 
-1.449681925241e+02 1.465531212479e-01 0.0 
1.465531212479e-01 -3.514500508589e+02 0.0 
0.0 0.0 -1.485254730149e+02 
-6.312543125133e+01 3.090816275297e+01 0.0 
3.090816275297e+01 -8.848201206731e+01 0.0 
0.0 0.0 -4.390493002167e+01 
-1.561280367719e+02 3.311228646193e+00 0.0 
3.311228646193e+00 -3.756361028612e+02 0.0 
0.0 0.0 -1.591292418899e+02 
-3.199836093734e+01 2.587176681792e-02 0.0 
2.587176681792e-02 -2.447138450420e+01 0.0 
0.0 0.0 -1.654092363246e+01 
-4.849824557792e+01 3.152288072879e+01 0.0 
3.152288072879e+01 -1.225361080913e+02 0.0 
0.0 0.0 -5.029590432385e+01 
-5.320585218856e+01 2.822985693670e+01 0.0 
2.822985693670e+01 -4.727603844959e+01 0.0 
0.0 0.0 -2.830299459939e+01 
-1.114321608027e+02 1.942994007156e-02 0.0 
1.942994007156e-02 -2.614921180571e+02 0.0 
0.0 0.0 -1.085309802491e+02 
-4.536561813269e+01 3.207295495853e+01 0.0 
3.207295495853e+01 -4.634612061935e+01 0.0 
0.0 0.0 -2.426762803140e+01 
-4.969744216203e+01 2.504316609541e+01 0.0 
2.504316609541e+01 -1.522572941380e+02 0.0 
0.0 0.0 -5.854070995652e+01 
-6.126001784143e+01 3.476144013610e+00 0.0 
3.476144013610e+00 -9.724180723852e+01 0.0 
0.0 0.0 -4.715054752398e+01 
-3.240770392669e+01 -4.379859105184e-01 0.0 
-4.379859105184e-01 -2.442158495650e+01 0.0 
0.0 0.0 -1.664878666496e+01 
-5.134911910619e+01 3.070893507776e+01 0.0 
3.070893507776e+01 -1.394641216621e+02 0.0 
0.0 0.0 -5.712342901672e+01 
-4.947076716300e+01 2.853881410053e+01 0.0 
2.853881410053e+01 -4.708563175592e+01 0.0 
0.0 0.0 -2.633805013256e+01 
-1.004510210175e+02 3.606973202520e+01 0.0 
3.606973202520e+01 -2.412086070711e+02 0.0 
0.0 0.0 -1.020978884266e+02 
-8.337903163684e+01 -3.470113794411e+00 0.0 
-3.470113794411e+00 -1.848036186789e+02 0.0 
0.0 0.0 -7.488607876348e+01 
-1.319536167592e+02 3.565515667317e+01 0.0 
3.565515667317e+01 -3.190755519571e+02 0.0 
0.0 0.0 -1.349087506149e+02 
-1.201601907882e+02 4.200576629352e+01 0.0 
4.200576629352e+01 -2.863934637658e+02 0.0 
0.0 0.0 -1.215660963662e+02 
-4.602804386554e+01 3.088473605285e+01 0.0 
3.088473605285e+01 -6.959584119808e+01 0.0 
0.0 0.0 -3.070804973144e+01 
-8.566176559433e+01 -3.344021717355e+00 0.0 
-3.344021717355e+00 -1.854873896738e+02 0.0 
0.0 0.0 -7.562260938762e+01 
-1.242837648757e+02 1.904853379958e+01 0.0 
1.904853379958e+01 -3.281748378126e+02 0.0 
0.0 0.0 -1.353375808065e+02 
-5.049098758081e+01 3.250252939191e+01 0.0 
3.250252939191e+01 -6.935835786114e+01 0.0 
0.0 0.0 -3.074212618906e+01 
-4.354518576109e+01 3.196034015301e+01 0.0 
3.196034015301e+01 -6.600464083427e+01 0.0 
0.0 0.0 -3.098538746664e+01 
-6.088992438077e+01 2.891776536100e+01 0.0 
2.891776536100e+01 -6.876768889027e+01 0.0 
0.0 0.0 -3.745579907393e+01 
-5.100105736911e+01 2.970095250797e+01 0.0 
2.970095250797e+01 -1.408031557665e+02 0.0 
0.0 0.0 -5.536647344240e+01 
-8.057932346414e+01 8.050398500285e+00 0.0 
8.050398500285e+00 -1.773351492845e+02 0.0 
0.0 0.0 -7.697434182460e+01 
-8.773314308394e+01 3.224164979618e+01 0.0 
3.224164979618e+01 -1.734633506545e+02 0.0 
0.0 0.0 -7.795894812152e+01 
-1.402799105266e+02 -4.365544705907e-01 0.0 
-4.365544705907e-01 -3.421049170885e+02 0.0 
0.0 0.0 -1.443154482845e+02 
-4.573149852781e+01 3.108260486820e+01 0.0 
3.108260486820e+01 -4.870347813607e+01 0.0 
0.0 0.0 -2.444634050911e+01 
-4.748875949320e+01 2.242712682634e+01 0.0 
2.242712682634e+01 -1.510290742367e+02 0.0 
0.0 0.0 -5.634269117647e+01 
-9.132303511355e+01 3.381181769135e+01 0.0 
3.381181769135e+01 -1.919658519819e+02 0.0 
0.0 0.0 -8.458666612865e+01 
-8.918094808944e+01 2.859846712610e+01 0.0 
2.859846712610e+01 -7.837999692926e+01 0.0 
0.0 0.0 -5.053624185811e+01 
-5.034238109890e+01 3.087117846486e+01 0.0 
3.087117846486e+01 -6.943400530808e+01 0.0 
0.0 0.0 -3.096726520630e+01 
-1.154580851898e+02 1.385185269986e+01 0.0 
1.385185269986e+01 -3.148185186854e+02 0.0 
0.0 0.0 -1.286829811626e+02 
-1.497637134587e+01 -6.795953222545e-01 0.0 
-6.795953222545e-01 -4.245369661132e+01 0.0 
0.0 0.0 -1.473116657541e+01 
-1.025016181820e+02 3.474696662383e+01 0.0 
3.474696662383e+01 -2.234683371798e+02 0.0 
0.0 0.0 -9.739098660853e+01 
-7.739892450572e+01 2.503816674083e+01 0.0 
2.503816674083e+01 -1.184322925868e+02 0.0 
0.0 0.0 -5.834936512775e+01 
-6.853995896327e+01 -1.116088861158e+01 0.0 
-1.116088861158e+01 -1.805451748266e+02 0.0 
0.0 0.0 -7.246641758468e+01 
-1.121346361474e+02 1.289056581436e+01 0.0 
1.289056581436e+01 -3.133038999134e+02 0.0 
0.0 0.0 -1.272315608182e+02 
-6.735776914083e+01 2.222334563637e+01 0.0 
2.222334563637e+01 -6.440541979652e+01 0.0 
0.0 0.0 -3.912895668121e+01 
-6.930352992926e+01 1.721436949367e+01 0.0 
1.721436949367e+01 -7.044863148021e+01 0.0 
0.0 0.0 -4.152564842284e+01 
-1.441343449759e+02 1.592047830291e+01 0.0 
1.592047830291e+01 -3.578624317495e+02 0.0 
0.0 0.0 -1.501990330176e+02 
-5.660894049537e+01 -1.362546193938e+01 0.0 
-1.362546193938e+01 -1.343676467609e+02 0.0 
0.0 0.0 -5.367904966255e+01 
-6.453695852659e+01 3.373812445961e+01 0.0 
3.373812445961e+01 -1.456003479204e+02 0.0 
0.0 0.0 -5.878618131536e+01 
-6.577989650383e+01 3.241093941893e+01 0.0 
3.241093941893e+01 -1.081582643711e+02 0.0 
0.0 0.0 -5.053876638189e+01 
-8.221595594685e+01 2.717894064703e+01 0.0 
2.717894064703e+01 -1.254036072493e+02 0.0 
0.0 0.0 -6.188586895886e+01 
-6.484964385442e+01 3.277623307249e+01 0.0 
3.277623307249e+01 -8.952912602736e+01 0.0 
0.0 0.0 -4.539794105987e+01 
-5.901355456035e+01 3.232826236390e+01 0.0 
3.232826236390e+01 -6.768296120400e+01 0.0 
0.0 0.0 -3.638222264770e+01 
-8.050988192400e+01 2.330505118979e+01 0.0 
2.330505118979e+01 -2.508615972718e+02 0.0 
0.0 0.0 -9.976739042878e+01 
-9.724023762535e+01 3.752390721652e+01 0.0 
3.752390721652e+01 -2.246550444579e+02 0.0 
0.0 0.0 -9.616858462498e+01 
-6.304748898869e+01 2.701826649206e+01 0.0 
2.701826649206e+01 -9.046947484019e+01 0.0 
0.0 0.0 -4.717889625383e+01 
-4.523376309616e+01 3.268897656093e+01 0.0 
3.268897656093e+01 -6.846240922324e+01 0.0 
0.0 0.0 -3.142400700162e+01 
-4.769409425941e+01 3.265023267156e+01 0.0 
3.265023267156e+01 -8.746533806248e+01 0.0 
0.0 0.0 -3.761833936624e+01 
-6.023303475771e+01 3.364546340838e+01 0.0 
3.364546340838e+01 -1.271608896978e+02 0.0 
0.0 0.0 -5.222714991291e+01 
-9.258855086943e+01 3.460862240075e+01 0.0 
3.460862240075e+01 -1.790117209745e+02 0.0 
0.0 0.0 -8.108008155319e+01 
-3.710060617451e+01 2.242373923431e+01 0.0 
2.242373923431e+01 -1.149185383535e+02 0.0 
0.0 0.0 -4.364919722003e+01 
-1.111368276657e+02 1.115691369080e+01 0.0 
1.115691369080e+01 -3.070011996301e+02 0.0 
0.0 0.0 -1.250414081888e+02 
-3.272101391470e+01 1.245212703324e+00 0.0 
1.245212703324e+00 -2.324039838316e+01 0.0 
0.0 0.0 -1.638842368936e+01 
-5.031790578389e+01 2.658620201733e+01 0.0 
2.658620201733e+01 -1.545646565543e+02 0.0 
0.0 0.0 -5.986338417394e+01 
-1.072457169946e+02 8.552734710295e+00 0.0 
8.552734710295e+00 -2.986459394783e+02 0.0 
0.0 0.0 -1.213674969419e+02 
-1.178517738087e+01 -3.279042035490e-01 0.0 
-3.279042035490e-01 -2.816641906720e+01 0.0 
0.0 0.0 -1.011965782024e+01 
-8.316813998929e+01 2.648875994232e+01 0.0 
2.648875994232e+01 -1.410026540451e+02 0.0 
0.0 0.0 -6.685123821030e+01 
-1.251153221031e+01 -5.295669308633e-01 0.0 
-5.295669308633e-01 -2.421097358105e+01 0.0 
0.0 0.0 -9.386853994547e+00 
-1.094374835368e+01 -1.681833678303e+00 0.0 
-1.681833678303e+00 -4.279912187082e+01 0.0 
0.0 0.0 -1.411698485423e+01 
-4.505906712530e+01 3.167446845340e+01 0.0 
3.167446845340e+01 -4.835032031624e+01 0.0 
0.0 0.0 -2.427115184129e+01 
-4.970918002725e+01 -1.364420136802e+01 0.0 
-1.364420136802e+01 -1.135895764978e+02 0.0 
0.0 0.0 -4.539485295321e+01 
-8.780177443249e+01 2.852184637178e+01 0.0 
2.852184637178e+01 -1.479127573707e+02 0.0 
0.0 0.0 -7.031435954097e+01 
-4.772441889548e+01 -1.410026639191e+01 0.0 
-1.410026639191e+01 -1.062847093881e+02 0.0 
0.0 0.0 -4.267447081502e+01 
-4.619128403106e+01 3.230911780839e+01 0.0 
3.230911780839e+01 -8.882068539297e+01 0.0 
0.0 0.0 -3.660803907420e+01 
-4.854772929637e+01 -2.255688794807e+01 0.0 
-2.255688794807e+01 -1.107365704459e+02 0.0 
0.0 0.0 -4.195358179276e+01 
-3.636503346903e+01 -1.072231390991e+01 0.0 
-1.072231390991e+01 -7.159719502742e+01 0.0 
0.0 0.0 -2.906367392689e+01 
-1.169087268477e+02 1.544306643647e+01 0.0 
1.544306643647e+01 -3.202753106755e+02 0.0 
0.0 0.0 -1.307552112570e+02 
-6.220544695136e+01 3.375175690711e+01 0.0 
3.375175690711e+01 -8.816376540113e+01 0.0 
0.0 0.0 -4.348099196560e+01 
-1.546692775173e+02 1.468036479359e+00 0.0 
1.468036479359e+00 -3.712822640106e+02 0.0 
0.0 0.0 -1.573854624584e+02 
-6.951472918223e+01 1.309112314653e+01 0.0 
1.309112314653e+01 -1.093384503721e+02 0.0 
0.0 0.0 -5.419765339115e+01 
-4.640387814066e+01 3.135429447976e+01 0.0 
3.135429447976e+01 -1.060621125011e+02 0.0 
0.0 0.0 -4.227303289776e+01 
-5.407629676430e+01 2.609755749287e+01 0.0 
2.609755749287e+01 -1.707729375528e+02 0.0 
0.0 0.0 -6.700861215082e+01 
-4.816179840408e+01 3.062945815095e+01 0.0 
3.062945815095e+01 -6.953754633524e+01 0.0 
0.0 0.0 -2.985348335286e+01 
-1.076098249091e+02 1.029792860759e+01 0.0 
1.029792860759e+01 -3.054087906594e+02 0.0 
0.0 0.0 -1.235055846705e+02 
-1.570210949609e+02 3.205124556131e+00 0.0 
3.205124556131e+00 -3.774025910294e+02 0.0 
0.0 0.0 -1.599271057971e+02 
-8.619757602103e+01 3.359957638520e+01 0.0 
3.359957638520e+01 -1.568392573671e+02 0.0 
0.0 0.0 -7.251105001644e+01 
-4.234849122593e+01 1.986835944595e+01 0.0 
1.986835944595e+01 -1.349518440585e+02 0.0 
0.0 0.0 -4.766291993659e+01 
-1.197486149787e+02 1.633196785845e+01 0.0 
1.633196785845e+01 -3.215011152213e+02 0.0 
0.0 0.0 -1.319749190600e+02 
-1.172010255080e+02 -1.197789635374e+00 0.0 
-1.197789635374e+00 -2.824141143263e+02 0.0 
0.0 0.0 -1.177208583078e+02 
-6.251574657761e+01 3.451587770090e+01 0.0 
3.451587770090e+01 -1.274031131829e+02 0.0 
0.0 0.0 -5.402732321191e+01 
-8.087633184136e+01 2.787490871318e+01 0.0 
2.787490871318e+01 -1.364402033410e+02 0.0 
0.0 0.0 -6.479496055470e+01 
-1.279870670173e+02 3.384107691945e+01 0.0 
3.384107691945e+01 -3.158373840558e+02 0.0 
0.0 0.0 -1.327473353219e+02 
-5.174521155635e+01 2.194932895599e+01 0.0 
2.194932895599e+01 -1.669286076570e+02 0.0 
0.0 0.0 -6.357766985936e+01 
-4.362185759360e+01 3.038411367326e+01 0.0 
3.038411367326e+01 -8.597147610732e+01 0.0 
0.0 0.0 -3.479860372780e+01 
-6.986571021359e+01 3.354737751547e+01 0.0 
3.354737751547e+01 -1.106628561182e+02 0.0 
0.0 0.0 -5.375856989955e+01 
-9.486430340276e+01 2.167209392898e+01 0.0 
2.167209392898e+01 -2.094624367319e+02 0.0 
0.0 0.0 -9.089802204041e+01 
-6.245555075247e+01 3.288732039557e+01 0.0 
3.288732039557e+01 -1.454684168619e+02 0.0 
0.0 0.0 -5.875045718691e+01 
-6.389444937834e+01 1.880002105031e+01 0.0 
1.880002105031e+01 -2.111866157077e+02 0.0 
0.0 0.0 -8.538986438755e+01 
-4.034885135364e+01 8.074740063646e-01 0.0 
8.074740063646e-01 -4.307412672143e+01 0.0 
0.0 0.0 -2.462689342252e+01 
-4.373587376716e+01 -1.648996704640e+01 0.0 
-1.648996704640e+01 -6.952502039805e+01 0.0 
0.0 0.0 -2.755966870129e+01 
-6.412727295940e+01 2.937553974483e+01 0.0 
2.937553974483e+01 -8.856635632721e+01 0.0 
0.0 0.0 -4.496940863780e+01 
-4.540967838029e+01 2.483574901968e+01 0.0 
2.483574901968e+01 -1.388996523605e+02 0.0 
0.0 0.0 -5.203594569345e+01 
-3.885764517813e+01 1.968557002973e+01 0.0 
1.968557002973e+01 -1.271670381770e+02 0.0 
0.0 0.0 -4.721719282807e+01 
-3.970974416326e+01 -2.112356984741e+01 0.0 
-2.112356984741e+01 -1.172080625785e+02 0.0 
0.0 0.0 -4.381725683238e+01 
-8.489768462909e+01 2.509756181889e+01 0.0 
2.509756181889e+01 -1.460468419953e+02 0.0 
0.0 0.0 -6.888335798732e+01 
-6.728609884553e+01 3.432265507275e+01 0.0 
3.432265507275e+01 -1.093664239748e+02 0.0 
0.0 0.0 -5.218608775409e+01 
-4.942710362389e+01 3.315123188839e+01 0.0 
3.315123188839e+01 -1.243822737794e+02 0.0 
0.0 0.0 -5.125715899729e+01 
-8.960803154935e+01 2.708138804800e+01 0.0 
2.708138804800e+01 -1.537287831406e+02 0.0 
0.0 0.0 -7.260104440698e+01 
-8.957446184574e+01 3.519908265548e+01 0.0 
3.519908265548e+01 -1.751005506264e+02 0.0 
0.0 0.0 -7.900250374163e+01 
-6.479699215281e+01 3.514931025957e+01 0.0 
3.514931025957e+01 -1.276418445849e+02 0.0 
0.0 0.0 -5.564842032365e+01 
-1.587471641852e+02 5.419979396843e+00 0.0 
5.419979396843e+00 -3.778060243793e+02 0.0 
0.0 0.0 -1.605659565693e+02 
-6.735478150800e+01 1.877045773819e+01 0.0 
1.877045773819e+01 -2.279809461274e+02 0.0 
0.0 0.0 -9.305040503427e+01 
-6.713420521467e+01 3.542124877711e+01 0.0 
3.542124877711e+01 -1.280017030742e+02 0.0 
0.0 0.0 -5.722751207867e+01 
-5.512393475232e+01 2.841813975379e+01 0.0 
2.841813975379e+01 -1.580777785917e+02 0.0 
0.0 0.0 -6.233802068049e+01 
-6.998557823086e+01 1.895609185632e+01 0.0 
1.895609185632e+01 -2.276129128976e+02 0.0 
0.0 0.0 -9.314887064592e+01 
-4.065924011458e+01 1.732552717107e+01 0.0 
1.732552717107e+01 -1.388291245001e+02 0.0 
0.0 0.0 -5.043955967697e+01 
-5.160752516332e+01 1.134187400310e+01 0.0 
1.134187400310e+01 -2.973358182224e+01 0.0 
0.0 0.0 -2.400233209567e+01 
-5.395737240729e+01 1.848419942234e+01 0.0 
1.848419942234e+01 -1.803552892330e+02 0.0 
0.0 0.0 -6.862473206022e+01 
-4.853562553807e+01 -6.853549968688e+00 0.0 
-6.853549968688e+00 -1.624897039473e+02 0.0 
0.0 0.0 -6.038930105646e+01 
-8.441104096487e+01 3.036880662213e+01 0.0 
3.036880662213e+01 -1.552089155451e+02 0.0 
0.0 0.0 -7.148598695301e+01 
-1.260270899783e+02 5.724031920724e+00 0.0 
5.724031920724e+00 -1.008336495194e+02 0.0 
0.0 0.0 -6.833196302163e+01 
-6.716908761605e+01 3.165011138672e+01 0.0 
3.165011138672e+01 -9.123926799003e+01 0.0 
0.0 0.0 -4.712250668183e+01 
-4.560816081059e+01 2.016234776430e+01 0.0 
2.016234776430e+01 -1.527126748768e+02 0.0 
0.0 0.0 -5.635554475403e+01 
-4.233648926131e+01 2.779864634455e+01 0.0 
2.779864634455e+01 -1.029825386553e+02 0.0 
0.0 0.0 -3.873448052528e+01 
-3.809436769880e+01 1.033584683563e+01 0.0 
1.033584683563e+01 -1.355552701418e+02 0.0 
0.0 0.0 -4.792860337015e+01 
-7.287083832073e+01 3.211090391380e+01 0.0 
3.211090391380e+01 -1.294838112359e+02 0.0 
0.0 0.0 -6.030639486698e+01 
-2.248239393655e+01 -3.443746272732e+00 0.0 
-3.443746272732e+00 -4.206586585137e+01 0.0 
0.0 0.0 -1.552780157027e+01 
-4.966891811065e+01 3.231087175275e+01 0.0 
3.231087175275e+01 -8.864930772824e+01 0.0 
0.0 0.0 -3.758285790294e+01 
-7.341090862913e+01 1.863552874523e+01 0.0 
1.863552874523e+01 -2.433135598305e+02 0.0 
0.0 0.0 -1.001396284298e+02 
-6.738058747188e+01 3.149753232344e+01 0.0 
3.149753232344e+01 -1.086220318742e+02 0.0 
0.0 0.0 -5.192911586491e+01 
-6.376427195221e+01 1.719174745717e+01 0.0 
1.719174745717e+01 -5.727510697534e+01 0.0 
0.0 0.0 -3.591181367826e+01 
-3.559589565053e+01 2.016991174476e+01 0.0 
2.016991174476e+01 -1.202950195819e+02 0.0 
0.0 0.0 -4.927803577949e+01 
-4.480959033096e+01 -1.117337728476e+00 0.0 
-1.117337728476e+00 -1.617960733577e+02 0.0 
0.0 0.0 -5.832854160342e+01 
-4.917323959409e+01 -1.242216828597e+01 0.0 
-1.242216828597e+01 -1.536108318080e+02 0.0 
0.0 0.0 -5.740533953727e+01 
-4.682247581106e+01 3.138067346491e+01 0.0 
3.138067346491e+01 -6.962886019095e+01 0.0 
0.0 0.0 -3.045280506104e+01 
-8.284528135686e+01 3.155841668914e+01 0.0 
3.155841668914e+01 -1.382597357523e+02 0.0 
0.0 0.0 -6.593150513274e+01 
-5.004768036902e+01 3.211367009448e+01 0.0 
3.211367009448e+01 -8.904267106724e+01 0.0 
0.0 0.0 -3.716707058228e+01 
-5.299940153476e+01 1.912613210102e+01 0.0 
1.912613210102e+01 -1.813251016198e+02 0.0 
0.0 0.0 -6.913198151563e+01 
-5.148980449579e+01 2.298703111793e+01 0.0 
2.298703111793e+01 -1.686308024988e+02 0.0 
0.0 0.0 -6.458185143595e+01 
-3.206196909159e+01 1.473443033104e+01 0.0 
1.473443033104e+01 -1.118487947198e+02 0.0 
0.0 0.0 -4.319956780603e+01 
-5.983857341958e+01 2.969611430618e+01 0.0 
2.969611430618e+01 -1.749952703083e+02 0.0 
0.0 0.0 -7.134518659904e+01 
-4.339053319356e+01 3.129455637560e+01 0.0 
3.129455637560e+01 -6.930891944914e+01 0.0 
0.0 0.0 -2.897935476097e+01 
-1.075346431121e+02 3.682933576684e+01 0.0 
3.682933576684e+01 -2.377113933163e+02 0.0 
0.0 0.0 -1.031738109285e+02 
-1.119257243756e+02 4.109263918276e+01 0.0 
4.109263918276e+01 -2.522259479684e+02 0.0 
0.0 0.0 -1.088455017032e+02 
-6.686562799696e+01 3.345232257032e+01 0.0 
3.345232257032e+01 -1.633837027924e+02 0.0 
0.0 0.0 -6.586724655279e+01 
-4.315390256558e+01 2.138334085226e+01 0.0 
2.138334085226e+01 -1.387778425096e+02 0.0 
0.0 0.0 -5.073024081022e+01 
-4.036852292941e+01 2.613188718570e+01 0.0 
2.613188718570e+01 -1.033095561913e+02 0.0 
0.0 0.0 -3.713854143659e+01 
-7.105674165634e+01 3.424242109362e+01 0.0 
3.424242109362e+01 -1.467948445163e+02 0.0 
0.0 0.0 -6.376382090194e+01 
-3.971651002818e+01 2.144593676882e+01 0.0 
2.144593676882e+01 -1.201427957702e+02 0.0 
0.0 0.0 -4.209024040719e+01 
-4.385501525043e+01 -7.406764097095e+00 0.0 
-7.406764097095e+00 -1.523495014447e+02 0.0 
0.0 0.0 -5.477958723461e+01 
-6.412517079632e+01 3.378777628752e+01 0.0 
3.378777628752e+01 -1.272222572383e+02 0.0 
0.0 0.0 -5.387062401797e+01 
-8.888457270940e+01 1.380484097604e+01 0.0 
1.380484097604e+01 -1.838831430043e+02 0.0 
0.0 0.0 -8.143031471410e+01 
-4.788249070820e+01 2.371055835062e+01 0.0 
2.371055835062e+01 -1.535675712595e+02 0.0 
0.0 0.0 -5.803885009759e+01 
-8.038576947830e+01 2.284711918742e+01 0.0 
2.284711918742e+01 -2.507300176981e+02 0.0 
0.0 0.0 -1.018855565973e+02 
-4.531412942367e+01 3.184668780311e+01 0.0 
3.184668780311e+01 -9.027433237587e+01 0.0 
0.0 0.0 -3.643951270835e+01 
-1.563181249852e+02 2.042818961982e+01 0.0 
2.042818961982e+01 -3.781155707239e+02 0.0 
0.0 0.0 -1.599301087127e+02 
-4.385433640481e+01 2.634919543466e+01 0.0 
2.634919543466e+01 -1.241764610497e+02 0.0 
0.0 0.0 -4.645068986378e+01 
-6.677241789079e+01 3.403229989069e+01 0.0 
3.403229989069e+01 -1.460180201219e+02 0.0 
0.0 0.0 -6.031078332405e+01 
-3.646996153091e+01 1.512198183222e+01 0.0 
1.512198183222e+01 -1.289681091926e+02 0.0 
0.0 0.0 -4.919083428416e+01 
-8.415031666691e+01 9.678161542633e+00 0.0 
9.678161542633e+00 -2.673759111630e+02 0.0 
0.0 0.0 -1.094250329701e+02 
-5.561895062661e+01 2.271254390552e+01 0.0 
2.271254390552e+01 -1.845848154048e+02 0.0 
0.0 0.0 -7.199141585675e+01 
-4.770204423116e+01 -1.054220230629e+01 0.0 
-1.054220230629e+01 -1.553606188041e+02 0.0 
0.0 0.0 -5.640921699584e+01 
-6.480748152438e+01 3.487181830405e+01 0.0 
3.487181830405e+01 -1.083496920103e+02 0.0 
0.0 0.0 -5.042727813673e+01 
-1.210213391910e+02 4.451456040558e+01 0.0 
4.451456040558e+01 -2.807623404730e+02 0.0 
0.0 0.0 -1.201351038992e+02 
-4.895406635992e+01 1.941774839120e+01 0.0 
1.941774839120e+01 -1.666883427690e+02 0.0 
0.0 0.0 -6.243800374488e+01 
-7.398544172031e+01 1.738766240986e+01 0.0 
1.738766240986e+01 -2.414780588624e+02 0.0 
0.0 0.0 -9.893924529923e+01 
-4.126108469538e+01 2.896750769317e+01 0.0 
2.896750769317e+01 -8.728740344428e+01 0.0 
0.0 0.0 -3.312189877169e+01 
-6.525710159437e+01 9.810114472433e+00 0.0 
9.810114472433e+00 -8.377149112451e+01 0.0 
0.0 0.0 -4.430857781566e+01 
-1.035422372942e+02 7.739374624367e+00 0.0 
7.739374624367e+00 -2.969238057321e+02 0.0 
0.0 0.0 -1.197398129079e+02 
-4.538900608337e+01 3.058003487705e+01 0.0 
3.058003487705e+01 -8.630670407093e+01 0.0 
0.0 0.0 -3.590453054718e+01 
-6.474773877187e+01 1.002926830403e+01 0.0 
1.002926830403e+01 -7.474850022998e+01 0.0 
0.0 0.0 -4.144887170055e+01 
-1.293307361268e+02 4.390852755104e+01 0.0 
4.390852755104e+01 -3.073673155911e+02 0.0 
0.0 0.0 -1.306094155154e+02 
-1.144822146727e+02 9.635536894055e+00 0.0 
9.635536894055e+00 -3.152230516630e+02 0.0 
0.0 0.0 -1.285115799007e+02 
-1.182451743095e+02 4.384010109674e+01 0.0 
4.384010109674e+01 -2.713128864720e+02 0.0 
0.0 0.0 -1.164674182344e+02 
-6.928816311031e+01 1.525167810444e+01 0.0 
1.525167810444e+01 -7.734173384976e+01 0.0 
0.0 0.0 -4.358896908802e+01 
-8.938394471584e+01 3.660842029092e+01 0.0 
3.660842029092e+01 -1.900976380114e+02 0.0 
0.0 0.0 -8.344447481819e+01 
-4.511626221561e+01 3.061410329868e+01 0.0 
3.061410329868e+01 -6.780059886296e+01 0.0 
0.0 0.0 -3.001514847915e+01 
-5.994872073451e+01 3.416576101804e+01 0.0 
3.416576101804e+01 -8.853420121768e+01 0.0 
0.0 0.0 -4.213790087919e+01 
-6.846973370438e+01 3.354281411137e+01 0.0 
3.354281411137e+01 -1.277484075114e+02 0.0 
0.0 0.0 -5.720713703499e+01 
-6.957403241956e+01 3.534349763983e+01 0.0 
3.534349763983e+01 -1.287857191353e+02 0.0 
0.0 0.0 -5.889329962331e+01 
-6.005699601858e+01 3.175600604494e+01 0.0 
3.175600604494e+01 -1.446637371462e+02 0.0 
0.0 0.0 -5.756183626711e+01 
-1.350294858676e+02 4.164885435499e+01 0.0 
4.164885435499e+01 -3.238516290369e+02 0.0 
0.0 0.0 -1.372643344713e+02 
-6.875938976203e+01 2.065152233715e+01 0.0 
2.065152233715e+01 -7.954563097360e+01 0.0 
0.0 0.0 -4.409150622069e+01 
-6.249809358089e+01 3.054068006164e+01 0.0 
3.054068006164e+01 -7.005070102599e+01 0.0 
0.0 0.0 -3.882423945966e+01 
-4.944297677905e+01 1.885671634273e+01 0.0 
1.885671634273e+01 -1.653614504374e+02 0.0 
0.0 0.0 -6.146903085595e+01 
-4.325718286705e+01 -1.283346555256e+01 0.0 
-1.283346555256e+01 -9.278568640869e+01 0.0 
0.0 0.0 -3.734434267318e+01 
-5.699029358919e+01 3.297760373797e+01 0.0 
3.297760373797e+01 -6.858938913543e+01 0.0 
0.0 0.0 -3.525474798137e+01 
-4.683073820918e+01 3.222456433479e+01 0.0 
3.222456433479e+01 -1.052688042228e+02 0.0 
0.0 0.0 -4.345267297515e+01 
-3.270646874208e+01 3.237206370828e-01 0.0 
3.237206370828e-01 -2.537793682208e+01 0.0 
0.0 0.0 -1.702532166925e+01 
-5.319242503551e+01 -1.447495547820e+01 0.0 
-1.447495547820e+01 -1.578376735941e+02 0.0 
0.0 0.0 -6.086227063298e+01 
-4.554955422485e+01 1.913362166931e+01 0.0 
1.913362166931e+01 -1.501073216908e+02 0.0 
0.0 0.0 -5.436788048505e+01 
-8.672979036231e+01 2.917767727830e+01 0.0 
2.917767727830e+01 -1.590578512470e+02 0.0 
0.0 0.0 -7.333629248280e+01 
-4.391067700849e+01 2.915760716250e+01 0.0 
2.915760716250e+01 -1.034905807779e+02 0.0 
0.0 0.0 -4.040825128268e+01 
-6.322781602712e+01 3.295269210031e+01 0.0 
3.295269210031e+01 -1.079136909361e+02 0.0 
0.0 0.0 -4.885739679460e+01 
-7.717319542090e+01 1.572421621908e+01 0.0 
1.572421621908e+01 -2.529554971682e+02 0.0 
0.0 0.0 -1.046628468565e+02 
-8.441411373770e+01 -9.802375038011e-01 0.0 
-9.802375038011e-01 -2.412249141574e+02 0.0 
0.0 0.0 -9.850445884671e+01 
-1.430510836939e+02 3.615137055236e+01 0.0 
3.615137055236e+01 -3.456262680020e+02 0.0 
0.0 0.0 -1.462032055088e+02 
-5.258344182616e+01 3.301553242123e+01 0.0 
3.301553242123e+01 -6.927335535141e+01 0.0 
0.0 0.0 -3.242029447976e+01 
-4.232964740074e+01 4.355842279448e+00 0.0 
4.355842279448e+00 -1.564791351127e+02 0.0 
0.0 0.0 -5.627548125478e+01 
-6.856426235739e+01 -1.530162054372e+01 0.0 
-1.530162054372e+01 -1.755354799590e+02 0.0 
0.0 0.0 -7.209192705365e+01 
-4.527090758343e+01 3.014917371987e+01 0.0 
3.014917371987e+01 -6.736756766958e+01 0.0 
0.0 0.0 -3.020760652384e+01 
-4.545466798321e+01 3.334188033665e+01 0.0 
3.334188033665e+01 -8.660663554353e+01 0.0 
0.0 0.0 -3.727479282053e+01 
-9.609524918993e+01 3.618457230360e+01 0.0 
3.618457230360e+01 -1.970802673224e+02 0.0 
0.0 0.0 -8.755265495370e+01 
-6.700088575752e+01 3.492213055644e+01 0.0 
3.492213055644e+01 -1.465518511155e+02 0.0 
0.0 0.0 -6.232521621181e+01 
-4.940358826566e+01 3.212262489869e+01 0.0 
3.212262489869e+01 -6.987543702300e+01 0.0 
0.0 0.0 -3.005144409923e+01 
-5.761069680620e+01 3.204706436339e+01 0.0 
3.204706436339e+01 -8.833559683928e+01 0.0 
0.0 0.0 -4.054424142485e+01 
-1.508517933749e+02 2.731926705878e+01 0.0 
2.731926705878e+01 -3.662359118671e+02 0.0 
0.0 0.0 -1.547263115726e+02 
-1.386510429629e+02 2.693460815519e+01 0.0 
2.693460815519e+01 -3.468428347023e+02 0.0 
0.0 0.0 -1.452481632995e+02 
-9.388018744663e+01 3.333692986100e+01 0.0 
3.333692986100e+01 -1.952627786995e+02 0.0 
0.0 0.0 -8.634288984385e+01 
-8.573746931284e+01 3.009931632447e+01 0.0 
3.009931632447e+01 -1.429882945145e+02 0.0 
0.0 0.0 -6.821772914820e+01 
-8.429003332638e+01 -4.925174698241e+00 0.0 
-4.925174698241e+00 -2.367118774533e+02 0.0 
0.0 0.0 -9.819718908475e+01 
-5.212667401474e+01 3.165278429954e+01 0.0 
3.165278429954e+01 -1.073216014612e+02 0.0 
0.0 0.0 -4.392499666637e+01 
-4.006311733815e+01 1.597955449407e+01 0.0 
1.597955449407e+01 -1.351720259684e+02 0.0 
0.0 0.0 -4.727416145794e+01 
-4.370157562748e+01 1.498511294450e+01 0.0 
1.498511294450e+01 -1.493634986080e+02 0.0 
0.0 0.0 -5.281251128812e+01 
-6.469907415168e+01 3.402968377401e+01 0.0 
3.402968377401e+01 -1.460697087213e+02 0.0 
0.0 0.0 -6.063863053642e+01 
-8.147110253461e+01 1.093780920595e+01 0.0 
1.093780920595e+01 -2.593766942695e+02 0.0 
0.0 0.0 -1.072306029458e+02 
-8.856232898099e+01 -6.730252657368e+00 0.0 
-6.730252657368e+00 -2.055224562406e+02 0.0 
0.0 0.0 -8.366288304702e+01 
-9.220844980714e+01 3.070180403398e+01 0.0 
3.070180403398e+01 -1.812508184699e+02 0.0 
0.0 0.0 -8.163778048310e+01 
-4.445147971027e+01 -2.456428420272e+00 0.0 
-2.456428420272e+00 -1.556621739388e+02 0.0 
0.0 0.0 -5.658774294761e+01 
-5.757537731381e+01 3.059742083031e+01 0.0 
3.059742083031e+01 -1.435101493122e+02 0.0 
0.0 0.0 -5.735304245294e+01 
-6.615380016812e+01 3.372911732764e+01 0.0 
3.372911732764e+01 -1.272665835183e+02 0.0 
0.0 0.0 -5.549891493324e+01 
-5.365940376838e+01 3.076665716619e+01 0.0 
3.076665716619e+01 -1.251386728421e+02 0.0 
0.0 0.0 -5.049096756745e+01 
-1.157617313917e+02 4.279729801171e+01 0.0 
4.279729801171e+01 -2.621587883376e+02 0.0 
0.0 0.0 -1.129761559188e+02 
-1.086996849103e+02 3.878388795100e+01 0.0 
3.878388795100e+01 -2.443508564809e+02 0.0 
0.0 0.0 -1.055151624173e+02 
-1.061720436799e+02 3.767288680858e+01 0.0 
3.767288680858e+01 -2.256449657683e+02 0.0 
0.0 0.0 -9.914510283448e+01 
-9.110474293549e+01 -1.128279650555e+00 0.0 
-1.128279650555e+00 -2.546478997924e+02 0.0 
0.0 0.0 -1.057223673654e+02 
-8.604484835710e+01 2.372581293465e+01 0.0 
2.372581293465e+01 -1.515996588036e+02 0.0 
0.0 0.0 -7.089335214823e+01 
-4.591306819939e+01 3.286769333330e+01 0.0 
3.286769333330e+01 -8.729372029830e+01 0.0 
0.0 0.0 -3.699987182675e+01 
-4.759337125814e+01 1.478519234419e+01 0.0 
1.478519234419e+01 -1.637960038581e+02 0.0 
0.0 0.0 -5.947561041803e+01 
-3.497955595356e+01 1.144604341291e+01 0.0 
1.144604341291e+01 -1.236673790133e+02 0.0 
0.0 0.0 -4.469588831499e+01 
-5.166169999506e+01 3.258748886262e+01 0.0 
3.258748886262e+01 -8.934879645969e+01 0.0 
0.0 0.0 -3.706404939126e+01 
-4.946293776558e+01 7.197441218568e+00 0.0 
7.197441218568e+00 -2.776979232055e+01 0.0 
0.0 0.0 -2.276981902584e+01 
-6.320509299261e+01 1.051699608948e+01 0.0 
1.051699608948e+01 -7.410672312040e+01 0.0 
0.0 0.0 -4.079354483390e+01 
-1.446354310553e+02 2.011372320508e+01 0.0 
2.011372320508e+01 -3.616956147970e+02 0.0 
0.0 0.0 -1.514993137557e+02 
-9.453777044424e+01 3.484096817994e+01 0.0 
3.484096817994e+01 -2.094961298489e+02 0.0 
0.0 0.0 -9.081017008796e+01 
-6.981896576646e+01 3.030186796157e+01 0.0 
3.030186796157e+01 -1.099337799022e+02 0.0 
0.0 0.0 -5.352582370059e+01 
-7.305399891388e+01 3.402790371802e+01 0.0 
3.402790371802e+01 -1.474666071939e+02 0.0 
0.0 0.0 -6.538221376780e+01 
-3.813070207531e+01 1.195322679252e+01 0.0 
1.195322679252e+01 -1.378827180460e+02 0.0 
0.0 0.0 -5.058770430029e+01 
-3.461821316008e+01 -1.037762064911e+01 0.0 
-1.037762064911e+01 -4.718801946909e+01 0.0 
0.0 0.0 -1.977783722064e+01 
-5.697216300766e+01 2.821939069670e+01 0.0 
2.821939069670e+01 -1.725920021613e+02 0.0 
0.0 0.0 -6.993727598661e+01 
-6.197043422548e+01 3.043544685951e+01 0.0 
3.043544685951e+01 -1.616582963187e+02 0.0 
0.0 0.0 -6.422683759384e+01 
-5.651737705113e+01 2.661886506917e+01 0.0 
2.661886506917e+01 -1.720021751884e+02 0.0 
0.0 0.0 -6.811399172011e+01 
-4.698231319471e+01 3.488968618641e+01 0.0 
3.488968618641e+01 -5.452245577791e+01 0.0 
0.0 0.0 -2.677736979814e+01 
-3.918081565379e+01 1.705667325178e-01 0.0 
1.705667325178e-01 -4.193684750889e+01 0.0 
0.0 0.0 -2.393529894880e+01 
-4.015078119055e+01 -1.108149134748e+01 0.0 
-1.108149134748e+01 -8.489387284157e+01 0.0 
0.0 0.0 -3.319495695639e+01 
-4.571970218591e+01 2.853653514501e+01 0.0 
2.853653514501e+01 -1.230472372158e+02 0.0 
0.0 0.0 -4.715436914340e+01 
-1.619739498054e+02 2.074037421553e+01 0.0 
2.074037421553e+01 -3.792725495459e+02 0.0 
0.0 0.0 -1.619739498054e+02 
-8.670305816254e+01 2.182480540135e+01 0.0 
2.182480540135e+01 -2.640246838110e+02 0.0 
0.0 0.0 -1.052606951778e+02 
-6.104960854246e+01 2.684199201651e+01 0.0 
2.684199201651e+01 -6.899316213029e+01 0.0 
0.0 0.0 -3.821613934013e+01 
-1.455710650474e+01 -8.473867969276e-01 0.0 
-8.473867969276e-01 -5.913237705255e+01 0.0 
0.0 0.0 -2.031700612757e+01 
-6.195817831593e+01 3.354767087182e+01 0.0 
3.354767087182e+01 -1.449743745571e+02 0.0 
0.0 0.0 -5.902969791407e+01 
-5.394588859516e+01 2.444913185152e+01 0.0 
2.444913185152e+01 -1.692442222350e+02 0.0 
0.0 0.0 -6.629792904441e+01 
-7.259369914455e+01 3.489128943160e+01 0.0 
3.489128943160e+01 -1.298712290754e+02 0.0 
0.0 0.0 -6.033947846598e+01 
-1.233667536053e+02 4.453500099880e+01 0.0 
4.453500099880e+01 -2.898029923868e+02 0.0 
0.0 0.0 -1.235509237976e+02 
-6.002128059903e+01 3.167822999483e+01 0.0 
3.167822999483e+01 -8.824714768337e+01 0.0 
0.0 0.0 -4.212561236046e+01 
-6.926559360517e+01 3.556152093421e+01 0.0 
3.556152093421e+01 -1.469855660360e+02 0.0 
0.0 0.0 -6.386987795056e+01 
-8.382792206100e+01 -6.892869830296e+00 0.0 
-6.892869830296e+00 -2.044001425799e+02 0.0 
0.0 0.0 -8.159605628776e+01 
-8.866192252855e+01 2.814708633950e+01 0.0 
2.814708633950e+01 -1.634963007906e+02 0.0 
0.0 0.0 -7.524746699573e+01 
-8.952756583077e+01 2.052892658475e+00 0.0 
2.052892658475e+00 -2.596350280259e+02 0.0 
0.0 0.0 -1.055344432563e+02 
-1.267906155632e+02 4.466356868874e+01 0.0 
4.466356868874e+01 -2.986639412052e+02 0.0 
0.0 0.0 -1.272363670305e+02 
-1.131321611737e+02 4.093266182330e+01 0.0 
4.093266182330e+01 -2.653083760719e+02 0.0 
0.0 0.0 -1.131321611737e+02 
-9.808119513194e+01 3.351819165757e+01 0.0 
3.351819165757e+01 -2.301894553079e+02 0.0 
0.0 0.0 -9.808119513194e+01 
-1.044213103313e+02 3.767208042504e+01 0.0 
3.767208042504e+01 -2.449830574397e+02 0.0 
0.0 0.0 -1.044213103313e+02 
-7.585536167519e+01 3.332998838555e+01 0.0 
3.332998838555e+01 -1.486371537273e+02 0.0 
0.0 0.0 -6.694775462075e+01 
-9.126699585304e+01 3.125013656898e+01 0.0 
3.125013656898e+01 -1.651827734178e+02 0.0 
0.0 0.0 -7.653493078127e+01 
-9.764636546160e+01 3.511747052289e+01 0.0 
3.511747052289e+01 -2.137949001799e+02 0.0 
0.0 0.0 -9.303237969245e+01 
-5.420979839857e+01 3.370928423433e+01 0.0 
3.370928423433e+01 -1.252583062155e+02 0.0 
0.0 0.0 -5.173621577808e+01 
-5.199763192980e+01 3.318880248509e+01 0.0 
3.318880248509e+01 -1.069120067474e+02 0.0 
0.0 0.0 -4.460957586477e+01 
-8.518200534454e+01 -6.512242410941e+00 0.0 
-6.512242410941e+00 -1.932928031608e+02 0.0 
0.0 0.0 -7.810934781553e+01 
-9.490683141878e+01 3.378564479393e+01 0.0 
3.378564479393e+01 -1.830486339227e+02 0.0 
0.0 0.0 -8.298663960243e+01 
-1.321361475331e+02 4.294043456418e+01 0.0 
4.294043456418e+01 -3.157596249588e+02 0.0 
0.0 0.0 -1.339687317476e+02 
-8.988542345125e+01 2.689124174421e+01 0.0 
2.689124174421e+01 -1.682718619842e+02 0.0 
0.0 0.0 -7.704718563064e+01 
-7.700624688073e+01 2.060941095264e+01 0.0 
2.060941095264e+01 -2.464714609857e+02 0.0 
0.0 0.0 -9.931193255908e+01 
-9.303682680853e+01 3.004123922964e+01 0.0 
3.004123922964e+01 -1.702258331696e+02 0.0 
0.0 0.0 -7.857879799344e+01 
-8.502805017804e+01 3.226197704698e+01 0.0 
3.226197704698e+01 -2.334152346370e+02 0.0 
0.0 0.0 -9.513298544452e+01 
-6.091713797594e+01 3.293698603798e+01 0.0 
3.293698603798e+01 -1.613209585006e+02 0.0 
0.0 0.0 -6.576583120318e+01 
-5.159741266958e+01 3.220885526872e+01 0.0 
3.220885526872e+01 -8.913507081425e+01 0.0 
0.0 0.0 -3.743479497735e+01 
-4.362359868219e+01 2.899341637236e+01 0.0 
2.899341637236e+01 -1.097406867788e+02 0.0 
0.0 0.0 -4.196325397392e+01 
-8.847911091227e+01 2.231916007050e+01 0.0 
2.231916007050e+01 -1.923263714568e+02 0.0 
0.0 0.0 -8.384164471072e+01 
-5.156200642675e+01 3.373992962106e+01 0.0 
3.373992962106e+01 -1.247366694860e+02 0.0 
0.0 0.0 -5.139600812163e+01 
-1.192570070093e+02 3.623617739223e+01 0.0 
3.623617739223e+01 -2.913113060778e+02 0.0 
0.0 0.0 -1.227704939261e+02 
-8.143208493271e+01 -7.404630459329e+00 0.0 
-7.404630459329e+00 -1.922670771918e+02 0.0 
0.0 0.0 -7.649266951838e+01 
-5.370483897681e+01 -1.790820126958e+01 0.0 
-1.790820126958e+01 -1.454527763052e+02 0.0 
0.0 0.0 -5.642139849062e+01 
-1.510164628850e+02 1.817511314098e+01 0.0 
1.817511314098e+01 -3.661066286012e+02 0.0 
0.0 0.0 -1.547369274459e+02 
-4.724909750377e+01 3.039972532633e+01 0.0 
3.039972532633e+01 -1.227050304752e+02 0.0 
0.0 0.0 -4.843539263571e+01 
-1.173588411313e+02 4.196914025511e+01 0.0 
4.196914025511e+01 -2.751706293064e+02 0.0 
0.0 0.0 -1.173588411313e+02 
-1.006339448359e+02 3.402412240846e+01 0.0 
3.402412240846e+01 -2.219600224954e+02 0.0 
0.0 0.0 -9.637819019938e+01 
-7.141499733054e+01 3.427731838905e+01 0.0 
3.427731838905e+01 -1.647128716296e+02 0.0 
0.0 0.0 -6.851105651163e+01 
-2.278586016568e+01 -5.847431197893e+00 0.0 
-5.847431197893e+00 -2.778606184806e+01 0.0 
0.0 0.0 -1.282927589888e+01 
-1.255066569162e+02 4.241794717362e+01 0.0 
4.241794717362e+01 -2.941821994711e+02 0.0 
0.0 0.0 -1.255066569162e+02 
-1.480139861728e+02 2.256680786987e+01 0.0 
2.256680786987e+01 -3.589504784515e+02 0.0 
0.0 0.0 -1.516893393873e+02 
-4.747281033391e+01 -1.467457758613e+01 0.0 
-1.467457758613e+01 -1.428306422970e+02 0.0 
0.0 0.0 -5.229466719145e+01 
-8.172292678905e+01 1.902905649937e+01 0.0 
1.902905649937e+01 -2.588654186717e+02 0.0 
0.0 0.0 -1.040972949358e+02 
-1.452534189534e+02 3.391169004004e+01 0.0 
3.391169004004e+01 -3.515046461973e+02 0.0 
0.0 0.0 -1.486274195452e+02 
-1.194314676327e+01 -1.127825653382e+00 0.0 
-1.127825653382e+00 -9.061599296860e+00 0.0 
0.0 0.0 -6.871336960826e+00 
-5.603641095821e+01 3.357698702107e+01 0.0 
3.357698702107e+01 -1.432256338088e+02 0.0 
0.0 0.0 -5.869368447163e+01 
-7.349879407034e+01 3.454677330948e+01 0.0 
3.454677330948e+01 -1.653611800532e+02 0.0 
0.0 0.0 -7.022153743469e+01 
-6.925133306927e+01 3.389161089053e+01 0.0 
3.389161089053e+01 -1.641119846719e+02 0.0 
0.0 0.0 -6.663197000889e+01 
-6.889120926116e+01 3.424474726593e+01 0.0 
3.424474726593e+01 -1.463757848083e+02 0.0 
0.0 0.0 -6.208549474559e+01 
-4.504913031778e+01 3.019846159581e+01 0.0 
3.019846159581e+01 -1.071811079186e+02 0.0 
0.0 0.0 -4.166318646426e+01 
-1.334692076807e+02 4.139735578202e+01 0.0 
4.139735578202e+01 -3.127614845884e+02 0.0 
0.0 0.0 -1.334692076807e+02 
-5.197177533609e+01 1.492018074670e+01 0.0 
1.492018074670e+01 -1.782925375961e+02 0.0 
0.0 0.0 -6.651490031464e+01 
-2.853448569218e+01 4.682222776763e+00 0.0 
4.682222776763e+00 -1.169735505369e+02 0.0 
0.0 0.0 -4.651235628636e+01 
-1.553505803634e+02 5.984342154233e+00 0.0 
5.984342154233e+00 -3.764014301592e+02 0.0 
0.0 0.0 -1.591256031568e+02 
-2.009254115139e+01 -3.282646512815e+00 0.0 
-3.282646512815e+00 -2.622696008857e+01 0.0 
0.0 0.0 -1.107925292918e+01 
-5.534753460140e+01 3.210435953660e+01 0.0 
3.210435953660e+01 -8.850113394868e+01 0.0 
0.0 0.0 -3.892005707631e+01 
-3.846962400675e+01 -2.227479158702e+01 0.0 
-2.227479158702e+01 -9.952085239032e+01 0.0 
0.0 0.0 -3.809931873799e+01 
-5.677284490765e+01 3.000777674223e+01 0.0 
3.000777674223e+01 -6.829942718690e+01 0.0 
0.0 0.0 -3.534202019217e+01 
-1.529536045402e+02 2.491817773930e+01 0.0 
2.491817773930e+01 -3.706672398518e+02 0.0 
0.0 0.0 -1.566862533176e+02 
-1.408648259618e+02 3.893732920959e+01 0.0 
3.893732920959e+01 -3.300179272443e+02 0.0 
0.0 0.0 -1.408648259618e+02 
-7.027819768985e+01 3.302557398658e+01 0.0 
3.302557398658e+01 -1.283058327167e+02 0.0 
0.0 0.0 -5.872111827341e+01 
-3.829525554244e+01 -2.374747866711e+01 0.0 
-2.374747866711e+01 -7.095674327614e+01 0.0 
0.0 0.0 -2.642948291702e+01 
-2.969897445833e+01 9.150286168428e+00 0.0 
9.150286168428e+00 -1.223935847777e+02 0.0 
0.0 0.0 -4.798482278053e+01 
-4.819945919807e+01 -2.534914288924e+01 0.0 
-2.534914288924e+01 -8.844406691237e+01 0.0 
0.0 0.0 -3.509028029975e+01 
-1.304519567200e+02 6.926482234487e+00 0.0 
6.926482234487e+00 -3.333722095208e+02 0.0 
0.0 0.0 -1.387472498722e+02 
-5.145767968728e+01 9.610514661251e+00 0.0 
9.610514661251e+00 -3.283563652495e+01 0.0 
0.0 0.0 -2.488799486367e+01 
-6.401417436979e+01 2.907784115216e+01 0.0 
2.907784115216e+01 -7.084842050213e+01 0.0 
0.0 0.0 -4.005877846158e+01 
-1.471641143872e+02 3.566648359186e+01 0.0 
3.566648359186e+01 -3.447162669034e+02 0.0 
0.0 0.0 -1.471641143872e+02 
-4.498505904768e+01 6.135824323433e+00 0.0 
6.135824323433e+00 -2.957390620301e+01 0.0 
0.0 0.0 -2.196768957521e+01 
-1.038119372953e+02 3.388945242023e+01 0.0 
3.388945242023e+01 -2.303365658161e+02 0.0 
0.0 0.0 -9.984455093344e+01 
-8.931309584444e+01 3.019015878570e+01 0.0 
3.019015878570e+01 -2.483802513310e+02 0.0 
0.0 0.0 -1.009080041526e+02 
-5.655333869965e+01 6.587715795919e+00 0.0 
6.587715795919e+00 -6.131009270772e+01 0.0 
0.0 0.0 -3.495902942221e+01 
-4.572856670696e+01 3.372773868088e+01 0.0 
3.372773868088e+01 -8.577286815651e+01 0.0 
0.0 0.0 -3.745125568324e+01 
-8.064538579594e+01 1.869351531994e+01 0.0 
1.869351531994e+01 -2.587659641965e+02 0.0 
0.0 0.0 -1.057293165300e+02 
-3.517313489656e+01 2.046000093512e+01 0.0 
2.046000093512e+01 -1.070411442051e+02 0.0 
0.0 0.0 -3.712780674326e+01 
-1.522743840223e+02 3.164851834482e+01 0.0 
3.164851834482e+01 -3.566402293854e+02 0.0 
0.0 0.0 -1.522743840223e+02 
-1.087987023454e+02 3.941485791648e+01 0.0 
3.941485791648e+01 -2.551969721392e+02 0.0 
0.0 0.0 -1.087987023454e+02 
-1.011725147606e+02 3.581126316001e+01 0.0 
3.581126316001e+01 -2.374025344413e+02 0.0 
0.0 0.0 -1.011725147606e+02 
-9.677067791750e+01 -4.192091897383e-01 0.0 
-4.192091897383e-01 -2.626835737780e+02 0.0 
0.0 0.0 -1.084630680997e+02 
-8.116449241286e+01 -5.981049654445e+00 0.0 
-5.981049654445e+00 -1.810106462264e+02 0.0 
0.0 0.0 -7.248599279939e+01 
-5.947100430240e+01 2.898156163642e+01 0.0 
2.898156163642e+01 -1.600785778968e+02 0.0 
0.0 0.0 -6.379072608038e+01 
-9.419712051500e+01 1.779806520488e+00 0.0 
1.779806520488e+00 -2.681847606439e+02 0.0 
0.0 0.0 -1.083145643477e+02 
-1.564420771740e+02 2.751849213978e+01 0.0 
2.751849213978e+01 -3.663648467392e+02 0.0 
0.0 0.0 -1.564420771740e+02 
-4.190851964437e+01 2.429008994901e+01 0.0 
2.429008994901e+01 -1.192653486180e+02 0.0 
0.0 0.0 -4.293028909589e+01 
-4.816825181991e+01 -5.296806343653e+00 0.0 
-5.296806343653e+00 -1.664409474113e+02 0.0 
0.0 0.0 -6.095461793516e+01 
-5.177206114543e+01 -8.379351766331e+00 0.0 
-8.379351766331e+00 -1.707603923948e+02 0.0 
0.0 0.0 -6.407142080216e+01 
-5.939574497921e+01 6.560954493916e+00 0.0 
6.560954493916e+00 -7.190546886037e+01 0.0 
0.0 0.0 -3.899036415187e+01 
-1.581001816746e+02 1.818473751046e+01 0.0 
1.818473751046e+01 -3.812412552481e+02 0.0 
0.0 0.0 -1.614024310768e+02 
-5.024571572134e+01 -2.549317046010e+01 0.0 
-2.549317046010e+01 -6.361989649336e+01 0.0 
0.0 0.0 -2.843265853297e+01 
-1.603251601078e+02 2.287157937805e+01 0.0 
2.287157937805e+01 -3.754253735848e+02 0.0 
0.0 0.0 -1.603251601078e+02 
-5.128854901634e+01 -1.245086249052e+01 0.0 
-1.245086249052e+01 -1.593280592993e+02 0.0 
0.0 0.0 -6.000182458181e+01 
-1.216832084087e+02 4.253172599405e+01 0.0 
4.253172599405e+01 -2.852608196203e+02 0.0 
0.0 0.0 -1.216832084087e+02 
-1.002978831121e+02 3.775793687005e+01 0.0 
3.775793687005e+01 -2.155612382179e+02 0.0 
0.0 0.0 -9.435773639899e+01 
-1.307616187585e+01 1.707799886936e-01 0.0 
1.707799886936e-01 -9.334689038971e+00 0.0 
0.0 0.0 -5.441247986434e+00 
-5.736174376607e+01 3.252697247728e+01 0.0 
3.252697247728e+01 -1.602984524522e+02 0.0 
0.0 0.0 -6.522817864761e+01 
-9.103196926389e+01 2.572049883465e+01 0.0 
2.572049883465e+01 -1.605638966357e+02 0.0 
0.0 0.0 -7.507875976988e+01 
-1.296684894739e+02 4.215755025064e+01 0.0 
4.215755025064e+01 -3.038931421057e+02 0.0 
0.0 0.0 -1.296684894739e+02 
-7.541180301301e+01 3.579962188083e+01 0.0 
3.579962188083e+01 -1.489136781734e+02 0.0 
0.0 0.0 -6.689764435593e+01 
-9.397132843423e+01 2.890364512028e+01 0.0 
2.890364512028e+01 -2.626782950472e+02 0.0 
0.0 0.0 -1.065948870444e+02 
-4.396542293575e+01 3.131905482548e+01 0.0 
3.131905482548e+01 -9.400923218735e+01 0.0 
0.0 0.0 -3.770250138571e+01 
-1.378728894087e+02 2.007484508941e+01 0.0 
2.007484508941e+01 -3.464270408420e+02 0.0 
0.0 0.0 -1.448899790752e+02 
-5.435513315392e+01 -1.339135482743e+01 0.0 
-1.339135482743e+01 -1.624534841881e+02 0.0 
0.0 0.0 -6.315332706270e+01 
-5.684002601616e+01 -1.222037201778e+01 0.0 
-1.222037201778e+01 -1.732189214373e+02 0.0 
0.0 0.0 -6.818860201257e+01 
-5.164112770642e+01 -2.771356356358e+01 0.0 
-2.771356356358e+01 -4.832874928280e+01 0.0 
0.0 0.0 -2.741504440446e+01 
-1.372091366962e+02 4.030458635170e+01 0.0 
4.030458635170e+01 -3.214879856246e+02 0.0 
0.0 0.0 -1.372091366962e+02 
-3.714877899505e+01 1.761521647853e+01 0.0 
1.761521647853e+01 -1.210853702247e+02 0.0 
0.0 0.0 -4.221479869884e+01 
-1.218009338295e+02 1.303287923578e+01 0.0 
1.303287923578e+01 -3.249970343417e+02 0.0 
0.0 0.0 -1.336393904514e+02 
-5.498521751556e+01 7.243358826477e+00 0.0 
7.243358826477e+00 -5.158930009714e+01 0.0 
0.0 0.0 -3.157235528381e+01 
-5.680140366867e+01 -1.896865187628e+01 0.0 
-1.896865187628e+01 -1.370065996133e+02 0.0 
0.0 0.0 -5.585097939135e+01 
-5.275545800420e+01 -9.901310829749e+00 0.0 
-9.901310829749e+00 -1.681593658002e+02 0.0 
0.0 0.0 -6.415157160045e+01 
-7.187548107737e+01 3.592035336790e+01 0.0 
3.592035336790e+01 -1.478183829617e+02 0.0 
0.0 0.0 -6.550815921172e+01 
-1.498686436814e+02 3.374725788793e+01 0.0 
3.374725788793e+01 -3.510268352566e+02 0.0 
0.0 0.0 -1.498686436814e+02 
-8.295905342062e+01 -6.229018897330e+00 0.0 
-6.229018897330e+00 -1.883782437029e+02 0.0 
0.0 0.0 -7.517134612755e+01 
-1.037177067884e+02 6.120398710317e+00 0.0 
6.120398710317e+00 -2.896806659194e+02 0.0 
0.0 0.0 -1.182001015425e+02 
-6.900440283816e+01 3.274833242567e+01 0.0 
3.274833242567e+01 -1.804313358890e+02 0.0 
0.0 0.0 -7.273317668055e+01 
-8.563000667643e+01 6.746174800043e+00 0.0 
6.746174800043e+00 -2.621211504329e+02 0.0 
0.0 0.0 -1.091865508287e+02 
-5.274808290731e+01 -4.712356827550e+00 0.0 
-4.712356827550e+00 -1.762196202743e+02 0.0 
0.0 0.0 -6.661658266115e+01 
-9.685248049021e+01 2.718936426014e+00 0.0 
2.718936426014e+00 -2.721868382321e+02 0.0 
0.0 0.0 -1.123754130223e+02 
-6.444187155324e+01 3.178606536572e+01 0.0 
3.178606536572e+01 -1.629988113694e+02 0.0 
0.0 0.0 -6.513851030689e+01 
-8.511245422003e+01 3.480997811840e+01 0.0 
3.480997811840e+01 -2.191247861693e+02 0.0 
0.0 0.0 -9.087117211681e+01 
-9.147162070680e+01 1.965146941449e+01 0.0 
1.965146941449e+01 -2.754302036633e+02 0.0 
0.0 0.0 -1.115575173693e+02 
-6.599647891863e+01 3.226078511534e+01 0.0 
3.226078511534e+01 -1.791585965097e+02 0.0 
0.0 0.0 -7.269605923909e+01 
-7.889089221130e+01 -8.057210653262e+00 0.0 
-8.057210653262e+00 -1.963268346863e+02 0.0 
0.0 0.0 -7.862699518869e+01 
-4.370080055675e+01 2.635045429047e+01 0.0 
2.635045429047e+01 -1.194586848385e+02 0.0 
0.0 0.0 -4.463880396636e+01 
-7.847415768617e+01 -7.491505305607e+00 0.0 
-7.491505305607e+00 -1.799636946039e+02 0.0 
0.0 0.0 -7.134074231472e+01 
-8.969645235666e+01 3.098946631561e+01 0.0 
3.098946631561e+01 -2.487433973442e+02 0.0 
0.0 0.0 -1.011319549103e+02 
-7.021446664418e+01 1.552253963730e+01 0.0 
1.552253963730e+01 -2.384990358212e+02 0.0 
0.0 0.0 -9.793677259658e+01 
-1.547639156011e+02 2.275505047092e+01 0.0 
2.275505047092e+01 -3.745988143692e+02 0.0 
0.0 0.0 -1.584088189911e+02 
-9.455556972797e+01 2.884410494176e+01 0.0 
2.884410494176e+01 -1.759947845114e+02 0.0 
0.0 0.0 -8.076510627181e+01 
-5.120882640085e+01 -1.594548511618e+01 0.0 
-1.594548511618e+01 -1.214723579918e+02 0.0 
0.0 0.0 -4.816038564671e+01 
-1.585945850693e+02 2.508878525533e+01 0.0 
2.508878525533e+01 -3.713873651618e+02 0.0 
0.0 0.0 -1.585945850693e+02 
-1.428829012087e+02 2.243894529668e+01 0.0 
2.243894529668e+01 -3.581451205398e+02 0.0 
0.0 0.0 -1.499084065245e+02 
-6.177169804355e+01 2.758607172789e+01 0.0 
2.758607172789e+01 -1.897213477601e+02 0.0 
0.0 0.0 -7.732732674764e+01 
-3.319129080328e+01 -1.476579064811e+01 0.0 
-1.476579064811e+01 -3.506041773600e+01 0.0 
0.0 0.0 -1.422417156595e+01 
-1.590641181854e+02 1.605586252616e+01 0.0 
1.605586252616e+01 -3.836093327996e+02 0.0 
0.0 0.0 -1.624020352955e+02 
-9.643803639150e+01 3.264387560319e+01 0.0 
3.264387560319e+01 -1.869780142294e+02 0.0 
0.0 0.0 -8.462481518627e+01 
-5.081557563118e+01 -1.548240132721e+01 0.0 
-1.548240132721e+01 -1.457742419711e+02 0.0 
0.0 0.0 -5.494333614307e+01 
-1.633233772638e+02 1.858075961056e+01 0.0 
1.858075961056e+01 -3.824212136154e+02 0.0 
0.0 0.0 -1.633233772638e+02 
-1.020752596222e+02 3.198121417467e+00 0.0 
3.198121417467e+00 -2.805314029537e+02 0.0 
0.0 0.0 -1.147655418924e+02 
-5.448228693550e+01 3.303848363083e+01 0.0 
3.303848363083e+01 -1.078776773837e+02 0.0 
0.0 0.0 -4.476893448391e+01 
-6.677690381611e+01 2.796740248638e+01 0.0 
2.796740248638e+01 -9.033654984197e+01 0.0 
0.0 0.0 -4.673403609742e+01 
-6.731890655401e+01 1.626970180541e+01 0.0 
1.626970180541e+01 -2.239842249381e+02 0.0 
0.0 0.0 -9.136871854197e+01 
-9.065449287848e+01 -3.850601714883e+00 0.0 
-3.850601714883e+00 -2.444953089307e+02 0.0 
0.0 0.0 -1.014208222138e+02 
-8.840016763294e+01 1.010420706351e+01 0.0 
1.010420706351e+01 -2.692735699118e+02 0.0 
0.0 0.0 -1.111882043775e+02 
-7.967562523408e+01 2.905014732689e+01 0.0 
2.905014732689e+01 -1.202182991472e+02 0.0 
0.0 0.0 -5.956817731437e+01 
-5.895380841046e+01 3.308334813830e+01 0.0 
3.308334813830e+01 -1.081448406045e+02 0.0 
0.0 0.0 -4.559351308518e+01 
-9.629715136669e+01 2.215150540367e+01 0.0 
2.215150540367e+01 -2.807670933979e+02 0.0 
0.0 0.0 -1.128489000046e+02 
-4.651202345753e+01 8.827564684894e-01 0.0 
8.827564684894e-01 -5.894051695255e+01 0.0 
0.0 0.0 -3.123576212302e+01 
-8.399313351562e+01 -8.610460058457e+00 0.0 
-8.610460058457e+00 -1.975244075072e+02 0.0 
0.0 0.0 -8.099914778188e+01 
-8.630395871511e+01 1.688001339560e+01 0.0 
1.688001339560e+01 -2.697159118799e+02 0.0 
0.0 0.0 -1.098518336416e+02 
-6.100848250467e+01 -1.670821470363e+01 0.0 
-1.670821470363e+01 -1.671085362945e+02 0.0 
0.0 0.0 -6.773227207222e+01 
-1.060873769837e+02 -1.325783222447e+00 0.0 
-1.325783222447e+00 -2.708211439024e+02 0.0 
0.0 0.0 -1.112610866746e+02 
-1.587901913938e+01 -1.701835182199e+00 0.0 
-1.701835182199e+00 -9.040348685726e+00 0.0 
0.0 0.0 -6.303830754986e+00 
-4.527963972867e+01 2.826087711953e+01 0.0 
2.826087711953e+01 -1.202938255833e+02 0.0 
0.0 0.0 -4.659285051506e+01 
-5.699245061250e+01 -1.585731715334e+01 0.0 
-1.585731715334e+01 -1.621276246812e+02 0.0 
0.0 0.0 -6.436475307992e+01 
-8.844270205240e+01 -5.870900627588e+00 0.0 
-5.870900627588e+00 -2.124990095890e+02 0.0 
0.0 0.0 -8.495388419432e+01 
-6.435996305544e+01 2.957320886236e+01 0.0 
2.957320886236e+01 -1.928906680545e+02 0.0 
0.0 0.0 -7.839730783142e+01 
-9.682558995977e+01 3.215362025934e+00 0.0 
3.215362025934e+00 -2.784605622472e+02 0.0 
0.0 0.0 -1.121858456621e+02 
-5.860443413050e+01 6.899891487967e+00 0.0 
6.899891487967e+00 -6.386421320679e+01 0.0 
0.0 0.0 -3.634059420119e+01 
-5.683397807774e+01 -1.809580312950e+01 0.0 
-1.809580312950e+01 -1.487551650818e+02 0.0 
0.0 0.0 -5.945872253626e+01 
-1.644395497683e+02 1.656263916833e+01 0.0 
1.656263916833e+01 -3.850256161259e+02 0.0 
0.0 0.0 -1.644395497683e+02 
-7.129472795743e+01 3.532837877901e+01 0.0 
3.532837877901e+01 -1.655615445989e+02 0.0 
0.0 0.0 -7.045892080403e+01 
-9.274171760697e+01 -4.977735256864e+00 0.0 
-4.977735256864e+00 -2.205205957991e+02 0.0 
0.0 0.0 -8.921077362850e+01 
-6.895089008430e+01 3.434273996567e+01 0.0 
3.434273996567e+01 -1.647679612313e+02 0.0 
0.0 0.0 -6.883177289996e+01 
-9.271681381486e+01 -5.217090539527e+00 0.0 
-5.217090539527e+00 -2.135297050398e+02 0.0 
0.0 0.0 -8.615430029611e+01 
-1.740074827776e+01 -1.638250021291e+00 0.0 
-1.638250021291e+00 -9.328963989875e+00 0.0 
0.0 0.0 -8.593159659540e+00 
-7.030556337944e+01 2.971798567324e+01 0.0 
2.971798567324e+01 -9.407621161745e+01 0.0 
0.0 0.0 -4.891453249907e+01 
-8.048966766656e+01 -3.361304302663e+00 0.0 
-3.361304302663e+00 -1.737048611873e+02 0.0 
0.0 0.0 -7.063668930869e+01 
-5.602501755338e+00 -5.484803140416e-01 0.0 
-5.484803140416e-01 -8.789872533625e+00 0.0 
0.0 0.0 -2.594202735643e+00 
-9.021829552022e+01 -5.261632441005e+00 0.0 
-5.261632441005e+00 -2.085412180702e+02 0.0 
0.0 0.0 -8.432326799654e+01 
-1.061349873565e+02 5.011270404299e+00 0.0 
5.011270404299e+00 -2.968011988193e+02 0.0 
0.0 0.0 -1.204808558527e+02 
-7.256581069210e+01 5.490146762172e+00 0.0 
5.490146762172e+00 -1.364036126372e+02 0.0 
0.0 0.0 -6.229082699879e+01 
-7.898721937850e+01 7.104864716970e+00 0.0 
7.104864716970e+00 -2.530729633934e+02 0.0 
0.0 0.0 -1.048711099977e+02 
-8.150111771222e+01 6.936804441643e+00 0.0 
6.936804441643e+00 -2.596658883251e+02 0.0 
0.0 0.0 -1.070496127601e+02 
-6.082502910299e+01 2.736789303433e+01 0.0 
2.736789303433e+01 -5.122347439399e+01 0.0 
0.0 0.0 -3.270703654711e+01 
-3.567555072004e+01 1.571980069350e+00 0.0 
1.571980069350e+00 -8.555215996727e+00 0.0 
0.0 0.0 -1.286923001503e+01 
-9.376021882844e+01 2.783821639479e+01 0.0 
2.783821639479e+01 -2.027981752043e+02 0.0 
0.0 0.0 -8.856751820983e+01 
-6.675255089766e+01 3.313126908170e+01 0.0 
3.313126908170e+01 -1.639921706471e+02 0.0 
0.0 0.0 -6.713090011203e+01 
-1.034847831044e+01 3.651760502764e-02 0.0 
3.651760502764e-02 -7.198247765470e+00 0.0 
0.0 0.0 -4.186740444984e+00 
-3.187309403474e+01 -7.250293744599e+00 0.0 
-7.250293744599e+00 -7.080843945004e+01 0.0 
0.0 0.0 -2.644370239981e+01 
-2.855623308479e+01 -8.958884897856e+00 0.0 
-8.958884897856e+00 -2.969672936247e+01 0.0 
0.0 0.0 -1.386697214941e+01 
-5.564564335705e+01 -1.521016837418e+01 0.0 
-1.521016837418e+01 -1.275278091616e+02 0.0 
0.0 0.0 -5.188041504553e+01 
-1.018566005133e+02 3.775334699024e+01 0.0 
3.775334699024e+01 -2.419159606637e+02 0.0 
0.0 0.0 -1.027317683531e+02 
-7.560798992658e+01 7.558733580346e+00 0.0 
7.558733580346e+00 -1.380527542312e+02 0.0 
0.0 0.0 -6.369822324733e+01 
-1.236928903523e+02 4.124029869627e+00 0.0 
4.124029869627e+00 -3.220276946983e+02 0.0 
0.0 0.0 -1.333161755152e+02 
-6.254015158163e+01 -1.060242009719e+01 0.0 
-1.060242009719e+01 -1.431715407314e+02 0.0 
0.0 0.0 -5.752453459773e+01 
-1.113235311637e+02 -6.229386687217e-01 0.0 
-6.229386687217e-01 -2.720381124277e+02 0.0 
0.0 0.0 -1.120799333828e+02 
-1.257470167686e+02 1.125378912844e+01 0.0 
1.125378912844e+01 -3.331919814241e+02 0.0 
0.0 0.0 -1.372816994578e+02 
-3.288791574930e+01 3.350626716569e+00 0.0 
3.350626716569e+00 -1.256095831469e+02 0.0 
0.0 0.0 -4.755850096356e+01 
-8.044136234542e+01 -8.739582128838e-01 0.0 
-8.739582128838e-01 -1.741221886949e+02 0.0 
0.0 0.0 -7.103058685820e+01 
-6.637591997896e+01 -2.381173980161e+00 0.0 
-2.381173980161e+00 -1.422422141460e+02 0.0 
0.0 0.0 -5.739143215017e+01 
-1.601820930254e+02 1.389448607719e+01 0.0 
1.389448607719e+01 -3.854968960812e+02 0.0 
0.0 0.0 -1.633036967320e+02 
-1.653705347235e+02 1.453116487508e+01 0.0 
1.453116487508e+01 -3.871979143549e+02 0.0 
0.0 0.0 -1.653705347235e+02 
-8.884148108989e+01 -9.332986669324e-01 0.0 
-9.332986669324e-01 -1.936333059169e+02 0.0 
0.0 0.0 -7.940914569145e+01 
-9.661425819492e+01 -3.940939372171e+00 0.0 
-3.940939372171e+00 -2.215496331235e+02 0.0 
0.0 0.0 -8.988320378489e+01 
-8.942007464377e+01 -6.564528207528e-01 0.0 
-6.564528207528e-01 -2.496257493281e+02 0.0 
0.0 0.0 -1.012544017107e+02 
-1.304758821431e+02 1.383697480227e+01 0.0 
1.383697480227e+01 -3.411729433190e+02 0.0 
0.0 0.0 -1.410946476386e+02 
-3.705061190863e+01 -1.047113356389e+01 0.0 
-1.047113356389e+01 -7.939518239192e+01 0.0 
0.0 0.0 -3.174915794641e+01 
-1.208700194212e+02 8.892578739273e+00 0.0 
8.892578739273e+00 -3.244372067288e+02 0.0 
0.0 0.0 -1.331921678450e+02 
-1.441001788168e+01 -1.047261182059e+00 0.0 
-1.047261182059e+00 -4.326973539143e+01 0.0 
0.0 0.0 -1.451259916380e+01 
-8.921429036261e+01 -5.049308925738e+00 0.0 
-5.049308925738e+00 -2.014338847163e+02 0.0 
0.0 0.0 -8.072132719581e+01 
-9.557609782786e+01 -5.027120480687e+00 0.0 
-5.027120480687e+00 -2.254844137380e+02 0.0 
0.0 0.0 -9.144916546236e+01 
-6.904845457478e+00 -5.613617568463e-01 0.0 
-5.613617568463e-01 -2.545586841234e+01 0.0 
0.0 0.0 -7.124116131761e+00 
-8.465833576329e+01 -2.182515187799e+00 0.0 
-2.182515187799e+00 -1.833304508493e+02 0.0 
0.0 0.0 -7.509336024988e+01 
-9.032118735561e+01 2.592845419465e+01 0.0 
2.592845419465e+01 -1.734792084918e+02 0.0 
0.0 0.0 -7.874011875423e+01 
-9.688128795267e+00 -2.198419505790e-02 0.0 
-2.198419505790e-02 -7.518803587236e+00 0.0 
0.0 0.0 -4.076628928108e+00 
-4.070180389191e+01 3.489847982106e+00 0.0 
3.489847982106e+00 -8.636486908638e+00 0.0 
0.0 0.0 -1.440148724017e+01 
-4.093990761438e+01 5.708018553656e+00 0.0 
5.708018553656e+00 -1.241599438864e+01 0.0 
0.0 0.0 -1.560677060090e+01 
-9.159567255487e+01 1.334047218244e+01 0.0 
1.334047218244e+01 -2.760046370903e+02 0.0 
0.0 0.0 -1.127121452695e+02 
-6.504226423905e+01 1.751591231124e-01 0.0 
1.751591231124e-01 -1.421949762521e+02 0.0 
0.0 0.0 -5.744212428351e+01 
-5.339210770130e+01 -1.541796530093e+01 0.0 
-1.541796530093e+01 -1.488611908412e+02 0.0 
0.0 0.0 -5.816909303445e+01 
-4.276164815892e+01 2.975891173163e+01 0.0 
2.975891173163e+01 -8.639483577889e+01 0.0 
0.0 0.0 -3.398702660038e+01 
-1.396058578412e+02 4.785523257564e+00 0.0 
4.785523257564e+00 -3.484596812858e+02 0.0 
0.0 0.0 -1.460196617381e+02 
-1.263933986405e+02 3.857403267830e+01 0.0 
3.857403267830e+01 -3.019904195157e+02 0.0 
0.0 0.0 -1.281151454469e+02 
-7.677470957820e+01 1.086206903549e+01 0.0 
1.086206903549e+01 -1.269789298479e+02 0.0 
0.0 0.0 -6.072609182784e+01 
-4.584082489195e+01 3.033964992987e+01 0.0 
3.033964992987e+01 -8.589798542230e+01 0.0 
0.0 0.0 -3.633500960145e+01 
-2.736309689891e+01 -7.722208668487e+00 0.0 
-7.722208668487e+00 -4.935542372110e+01 0.0 
0.0 0.0 -2.025325360129e+01 
-5.774804248528e+01 3.406807207041e+01 0.0 
3.406807207041e+01 -8.873180919871e+01 0.0 
0.0 0.0 -4.068469851836e+01 
-2.941842184601e+01 2.303356109807e-01 0.0 
2.303356109807e-01 -9.503705070717e+00 0.0 
0.0 0.0 -1.127663807502e+01 
-2.562144080880e+01 3.534611267785e-01 0.0 
3.534611267785e-01 -8.896146586159e+00 0.0 
0.0 0.0 -9.955276218487e+00 
-4.912791000385e+00 -4.720574968478e-01 0.0 
-4.720574968478e-01 -9.148400382537e+00 0.0 
0.0 0.0 -2.410182322121e+00 
-7.264117569357e+00 -7.540595358697e-01 0.0 
-7.540595358697e-01 -2.531497651699e+01 0.0 
0.0 0.0 -7.136238528614e+00 
-8.942897848373e+00 -3.674929589616e-01 0.0 
-3.674929589616e-01 -4.174563928323e+01 0.0 
0.0 0.0 -1.301164164561e+01 
-4.810246880273e+01 -1.108145860392e+01 0.0 
-1.108145860392e+01 -1.088556993387e+02 0.0 
0.0 0.0 -4.300371066744e+01 
-1.066423498164e+01 -1.499720798443e-01 0.0 
-1.499720798443e-01 -2.604788581590e+01 0.0 
0.0 0.0 -8.408633747511e+00 
-9.233273202893e+01 -1.941117473881e+00 0.0 
-1.941117473881e+00 -2.039575670288e+02 0.0 
0.0 0.0 -8.380085351605e+01 
-5.248228652666e+01 -1.418389079238e+01 0.0 
-1.418389079238e+01 -5.981029475777e+01 0.0 
0.0 0.0 -3.425610975048e+01 
-5.681443753857e+01 -1.111986550620e+01 0.0 
-1.111986550620e+01 -1.298351723735e+02 0.0 
0.0 0.0 -5.144394642144e+01 
-5.221334941226e+01 1.033030371482e+00 0.0 
1.033030371482e+00 -7.587865926682e+01 0.0 
0.0 0.0 -3.802760260372e+01 
-2.800617588955e+01 1.099547319250e+00 0.0 
1.099547319250e+00 -8.815432997841e+00 0.0 
0.0 0.0 -1.064648266622e+01 
-1.055395685966e+02 3.871904933961e+01 0.0 
3.871904933961e+01 -2.439801973138e+02 0.0 
0.0 0.0 -1.044559297731e+02 
-1.025434355666e+02 3.012510997703e+00 0.0 
3.012510997703e+00 -2.868638091182e+02 0.0 
0.0 0.0 -1.164221734054e+02 
-4.518265396581e+01 3.826299832869e-01 0.0 
3.826299832869e-01 -5.798080669609e+01 0.0 
0.0 0.0 -3.054903819857e+01 
-7.064638407634e+01 -1.281382150049e+00 0.0 
-1.281382150049e+00 -1.520592427652e+02 0.0 
0.0 0.0 -6.170857485792e+01 
-1.296301233690e+01 -3.566920217859e-01 0.0 
-3.566920217859e-01 -4.296656015585e+01 0.0 
0.0 0.0 -1.354899868193e+01 
-8.465590755731e+01 1.465857528404e+01 0.0 
1.465857528404e+01 -1.988637843004e+02 0.0 
0.0 0.0 -8.465590755731e+01 
-9.236533294435e+01 1.637903733034e+01 0.0 
1.637903733034e+01 -2.029975166814e+02 0.0 
0.0 0.0 -8.820885488774e+01 
-4.992083810637e+01 3.338169650698e+00 0.0 
3.338169650698e+00 -4.900725799333e+01 0.0 
0.0 0.0 -2.927842882991e+01 
-3.077998572321e+01 3.688683972826e-01 0.0 
3.688683972826e-01 -8.942053465848e+00 0.0 
0.0 0.0 -1.151661175672e+01 
-7.087147342269e+01 -1.207840568495e+00 0.0 
-1.207840568495e+00 -1.546578156854e+02 0.0 
0.0 0.0 -6.267798048404e+01 
-8.993351123676e+01 1.138889925818e+01 0.0 
1.138889925818e+01 -1.992014242574e+02 0.0 
0.0 0.0 -8.634048064826e+01 
-5.270187736296e+01 -1.083688192654e+01 0.0 
-1.083688192654e+01 -1.215713997837e+02 0.0 
0.0 0.0 -4.824710405718e+01 
-3.209239145404e+01 2.453211071299e+00 0.0 
2.453211071299e+00 -9.796561394177e+00 0.0 
0.0 0.0 -1.216668585447e+01 
-3.293701358296e+01 7.859137442845e-01 0.0 
7.859137442845e-01 -8.625945326742e+00 0.0 
0.0 0.0 -1.206888767291e+01 
-5.369048303431e+01 3.053576584083e+01 0.0 
3.053576584083e+01 -6.818590300720e+01 0.0 
0.0 0.0 -3.360657059295e+01 
-9.548588828704e+01 3.117585841220e+01 0.0 
3.117585841220e+01 -2.241337393364e+02 0.0 
0.0 0.0 -9.548588828704e+01 
-9.224538768982e+01 1.369029496657e+01 0.0 
1.369029496657e+01 -2.015758940048e+02 0.0 
0.0 0.0 -8.774638450837e+01 
-1.099623904018e+01 -3.238037495707e-01 0.0 
-3.238037495707e-01 -2.580558245264e+01 0.0 
0.0 0.0 -8.408977042279e+00 
-4.808106167220e+00 -2.769389426327e-01 0.0 
-2.769389426327e-01 -9.297914448447e+00 0.0 
0.0 0.0 -2.463301691145e+00 
-2.900681189414e+01 -7.879273408272e+00 0.0 
-7.879273408272e+00 -5.884644737038e+01 0.0 
0.0 0.0 -2.372965777653e+01 
-9.047941923913e+01 -5.130930530254e+00 0.0 
-5.130930530254e+00 -2.243205337662e+02 0.0 
0.0 0.0 -8.985019160186e+01 
-1.504431331181e+02 -3.632151409409e-01 0.0 
-3.632151409409e-01 -3.618710963070e+02 0.0 
0.0 0.0 -1.532942688275e+02 
-1.066057898978e+02 -2.355862280914e+01 0.0 
-2.355862280914e+01 -7.599596699923e+01 0.0 
0.0 0.0 -5.505656890350e+01 
-6.648725000887e+01 1.831742538592e+00 0.0 
1.831742538592e+00 -1.196909223366e+02 0.0 
0.0 0.0 -5.545345170364e+01 
-3.407565418722e+01 -1.264118198378e+01 0.0 
-1.264118198378e+01 -1.184842651717e+01 0.0 
0.0 0.0 -1.377154842261e+01 
-9.072759065890e+01 8.988938886291e+00 0.0 
8.988938886291e+00 -2.774551402603e+02 0.0 
0.0 0.0 -1.126686746452e+02 
-2.561013889688e+01 -6.571087536570e+00 0.0 
-6.571087536570e+00 -1.359362928089e+01 0.0 
0.0 0.0 -1.065208988972e+01 
-5.856737043305e+01 -2.675410003026e+01 0.0 
-2.675410003026e+01 -3.411614305865e+01 0.0 
0.0 0.0 -2.809734757826e+01 
-8.757385672129e+01 6.201832759672e+00 0.0 
6.201832759672e+00 -2.694267285795e+02 0.0 
0.0 0.0 -1.098148736435e+02 
-1.448085486965e+02 1.325360669395e+00 0.0 
1.325360669395e+00 -3.523694473220e+02 0.0 
0.0 0.0 -1.487533988055e+02 
-5.264641936421e+01 1.419953127724e+00 0.0 
1.419953127724e+00 -7.503001519285e+01 0.0 
0.0 0.0 -3.790293036712e+01 
-6.018216674583e+01 3.449721950084e+01 0.0 
3.449721950084e+01 -1.081561879637e+02 0.0 
0.0 0.0 -4.734428230772e+01 
-6.533904915883e+00 -2.577278653174e-01 0.0 
-2.577278653174e-01 -2.536822067615e+01 0.0 
0.0 0.0 -7.073254784013e+00 
-1.147716200878e+02 6.961908587294e-02 0.0 
6.961908587294e-02 -2.799632472985e+02 0.0 
0.0 0.0 -1.159047043552e+02 
-8.222519565219e+01 4.459649086595e+00 0.0 
4.459649086595e+00 -1.931921231884e+02 0.0 
0.0 0.0 -8.222519565219e+01 
-8.792467106923e+01 5.766132177611e+00 0.0 
5.766132177611e+00 -1.964434282745e+02 0.0 
0.0 0.0 -8.491042980311e+01 
-2.635305322831e+01 4.323465804558e-01 0.0 
4.323465804558e-01 -8.573693962747e+00 0.0 
0.0 0.0 -1.007802415732e+01 
-9.469855113789e+01 1.189328569918e+01 0.0 
1.189328569918e+01 -2.849823657803e+02 0.0 
0.0 0.0 -1.154747603176e+02 
-8.406929662720e+01 1.197845379991e+01 0.0 
1.197845379991e+01 -1.974950254635e+02 0.0 
0.0 0.0 -8.406929662720e+01 
-9.509432253101e+01 2.982055366643e+01 0.0 
2.982055366643e+01 -2.633453936108e+02 0.0 
0.0 0.0 -1.071319148425e+02 
-1.194115620287e+01 -3.392300674051e-01 0.0 
-3.392300674051e-01 -4.164028005957e+01 0.0 
0.0 0.0 -1.276157714899e+01 
-1.029555169670e+01 -5.735710541643e-02 0.0 
-5.735710541643e-02 -2.581330532384e+01 0.0 
0.0 0.0 -8.264404496549e+00 
-6.147127701410e+00 -6.231059149634e-02 0.0 
-6.231059149634e-02 -2.468921486932e+01 0.0 
0.0 0.0 -6.928138719668e+00 
-8.037246080684e+01 -1.192652083264e+00 0.0 
-1.192652083264e+00 -1.728955796241e+02 0.0 
0.0 0.0 -7.070031062522e+01 
-1.653784641559e+02 2.755145348602e+00 0.0 
2.755145348602e+00 -3.915407470864e+02 0.0 
0.0 0.0 -1.666757633727e+02 
-8.055624874955e+01 1.220993276403e+00 0.0 
1.220993276403e+00 -1.723017010151e+02 0.0 
0.0 0.0 -7.545738492939e+01 
-4.222372317289e+00 6.868864181279e-02 0.0 
6.868864181279e-02 -9.248519159972e+00 0.0 
0.0 0.0 -2.229344823701e+00 
-9.311588464726e+01 1.250090294987e-01 0.0 
1.250090294987e-01 -2.042439988539e+02 0.0 
0.0 0.0 -8.408953312634e+01 
-1.681237478999e+02 1.848649315993e+00 0.0 
1.848649315993e+00 -3.936220784330e+02 0.0 
0.0 0.0 -1.681237478999e+02 
-1.646645706220e+02 2.856509199224e+00 0.0 
2.856509199224e+00 -3.909261446550e+02 0.0 
0.0 0.0 -1.662772145831e+02 
-1.607875197351e+02 1.210542329220e+01 0.0 
1.210542329220e+01 -3.867581721409e+02 0.0 
0.0 0.0 -1.638637075628e+02 
-5.972961840861e+01 -3.380210971406e-01 0.0 
-3.380210971406e-01 -9.939495290386e+01 0.0 
0.0 0.0 -4.733737139374e+01 
-6.963659675647e+01 1.027600734980e+00 0.0 
1.027600734980e+00 -1.303319545323e+02 0.0 
0.0 0.0 -5.959056538663e+01 
-1.673340173354e+02 2.594108660932e+00 0.0 
2.594108660932e+00 -3.917793737825e+02 0.0 
0.0 0.0 -1.673340173354e+02 
-1.676459572554e+02 3.505936674759e+00 0.0 
3.505936674759e+00 -3.925072335959e+02 0.0 
0.0 0.0 -1.676459572554e+02 
-6.632477538505e+01 3.056099087383e-02 0.0 
3.056099087383e-02 -1.197121015143e+02 0.0 
0.0 0.0 -5.541106306981e+01 
-9.269367723648e+00 -3.036762064179e-01 0.0 
-3.036762064179e-01 -6.463036386014e+00 0.0 
0.0 0.0 -3.687646204459e+00 
-2.544088928485e+01 2.670185753904e-02 0.0 
2.670185753904e-02 -8.135117091569e+00 0.0 
0.0 0.0 -9.672801912926e+00 
-2.587210779513e+01 2.536588109190e-02 0.0 
2.536588109190e-02 -8.718111053805e+00 0.0 
0.0 0.0 -9.977065654679e+00 
-4.453947584598e+00 -1.275591764947e-01 0.0 
-1.275591764947e-01 -9.253832392451e+00 0.0 
0.0 0.0 -2.323472174057e+00 
-1.676472546507e+02 6.607870820081e+00 0.0 
6.607870820081e+00 -3.925102608516e+02 0.0 
0.0 0.0 -1.676472546507e+02 
-1.613414919898e+02 1.019855723110e+01 0.0 
1.019855723110e+01 -3.876331473596e+02 0.0 
0.0 0.0 -1.642923918048e+02 
-1.665902500751e+02 9.284304092011e+00 0.0 
9.284304092011e+00 -3.900439168420e+02 0.0 
0.0 0.0 -1.665902500751e+02 
-9.230029796587e+00 7.484383959276e-02 0.0 
7.484383959276e-02 -7.703403597188e+00 0.0 
0.0 0.0 -3.936331692809e+00 
-9.332427528605e+00 -3.579689992589e-02 0.0 
-3.579689992589e-02 -7.837851724031e+00 0.0 
0.0 0.0 -3.977678467233e+00 
-1.659078369413e+02 1.268974271572e+01 0.0 
1.268974271572e+01 -3.884516195298e+02 0.0 
0.0 0.0 -1.659078369413e+02 
-1.664128338032e+02 1.098469640109e+01 0.0 
1.098469640109e+01 -3.896299455408e+02 0.0 
0.0 0.0 -1.664128338032e+02 
-5.620540432609e+01 1.005539041985e+00 0.0 
1.005539041985e+00 -8.930111751908e+01 0.0 
0.0 0.0 -4.325195655355e+01 
-2.521036867357e+01 -2.131517511116e-01 0.0 
-2.131517511116e-01 -7.846525673332e+00 0.0 
0.0 0.0 -9.517068304070e+00 
-6.334571452039e+01 1.037155824919e+00 0.0 
1.037155824919e+00 -1.096987722681e+02 0.0 
0.0 0.0 -5.151334603655e+01 
-4.158787893987e+01 8.877518740250e-01 0.0 
8.877518740250e-01 -4.933879855408e+01 0.0 
0.0 0.0 -2.687800324818e+01 
-2.514343861886e+01 2.594738809653e-01 0.0 
2.594738809653e-01 -7.738123621291e+00 0.0 
0.0 0.0 -9.464468672047e+00 
-1.115536658007e+01 -1.212128968168e-01 0.0 
-1.212128968168e-01 -7.665780206910e+00 0.0 
0.0 0.0 -4.504331423236e+00 
-1.245207596154e+01 2.227045836027e-01 0.0 
2.227045836027e-01 -7.689876359102e+00 0.0 
0.0 0.0 -5.642585696193e+00 
-1.253554748315e+01 6.029231077169e-01 0.0 
6.029231077169e-01 -6.924654092464e+00 0.0 
0.0 0.0 -5.438060472684e+00 
-1.238793299271e+01 8.947907333727e-01 0.0 
8.947907333727e-01 -7.302573260759e+00 0.0 
0.0 0.0 -5.507151876040e+00 
-9.666083121290e+01 -1.162229468976e+00 0.0 
-1.162229468976e+00 -2.146352119873e+02 0.0 
0.0 0.0 -8.851746615646e+01 
-8.892120878961e+01 -1.144451044289e+00 0.0 
-1.144451044289e+00 -1.937386729530e+02 0.0 
0.0 0.0 -7.962198674691e+01 
-6.765191971752e+00 -4.854715143620e-01 0.0 
-4.854715143620e-01 -9.328585821614e+00 0.0 
0.0 0.0 -3.666072620091e+00 
-1.154962162593e+02 -9.515003057566e-01 0.0 
-9.515003057566e-01 -2.745540551986e+02 0.0 
0.0 0.0 -1.143657977087e+02 
-9.168946308365e+00 -5.671520994411e-01 0.0 
-5.671520994411e-01 -9.502270650332e+00 0.0 
0.0 0.0 -5.104482345951e+00 
-9.017280994488e+01 2.537061721390e+01 0.0 
2.537061721390e+01 -2.117365565380e+02 0.0 
0.0 0.0 -9.017280994488e+01 
-8.323536797211e+01 9.880521994057e+00 0.0 
9.880521994057e+00 -1.955491919349e+02 0.0 
0.0 0.0 -8.323536797211e+01 
-8.555842941969e+01 1.720642053237e+01 0.0 
1.720642053237e+01 -2.009696686459e+02 0.0 
0.0 0.0 -8.555842941969e+01 
-1.614426414371e+01 -1.521483173482e+00 0.0 
-1.521483173482e+00 -6.903487493647e+01 0.0 
0.0 0.0 -2.515374172405e+01 
-5.947086577855e+01 -1.327963568177e+00 0.0 
-1.327963568177e+00 -1.311992349857e+02 0.0 
0.0 0.0 -5.270079256356e+01 
-8.265569786556e+01 7.806908355137e+00 0.0 
7.806908355137e+00 -1.941966283530e+02 0.0 
0.0 0.0 -8.265569786556e+01 
-1.360462246950e+02 -7.250902809220e-01 0.0 
-7.250902809220e-01 -3.336465250596e+02 0.0 
0.0 0.0 -1.405078249264e+02 
-8.338226965935e+01 6.205956718963e+00 0.0 
6.205956718963e+00 -1.958919625385e+02 0.0 
0.0 0.0 -8.338226965935e+01 
-1.458101191846e+02 -7.506810045370e-01 0.0 
-7.506810045370e-01 -3.529018900233e+02 0.0 
0.0 0.0 -1.492136027624e+02 
-1.558475614685e+02 -8.095975669164e-01 0.0 
-8.095975669164e-01 -3.720468217581e+02 0.0 
0.0 0.0 -1.579683149680e+02 
-8.485304975083e+01 1.241373859930e-01 0.0 
1.241373859930e-01 -1.834378647038e+02 0.0 
0.0 0.0 -7.520687386905e+01 
-8.932715374889e+01 9.137478418668e+00 0.0 
9.137478418668e+00 -1.975830064125e+02 0.0 
0.0 0.0 -8.567304804842e+01 
-8.786625223468e+01 6.774047789643e+00 0.0 
6.774047789643e+00 -1.969537679924e+02 0.0 
0.0 0.0 -8.504600606812e+01 
-1.406204152188e+02 1.239298793855e+00 0.0 
1.239298793855e+00 -3.423961671476e+02 0.0 
0.0 0.0 -1.445049747099e+02 
-1.506943780233e+02 1.309019824340e+00 0.0 
1.309019824340e+00 -3.621138757686e+02 0.0 
0.0 0.0 -1.534424761376e+02 
-1.211745960777e+02 9.607825256839e-01 0.0 
9.607825256839e-01 -2.960114817586e+02 0.0 
0.0 0.0 -1.234890411730e+02 
-2.488345850935e+01 -4.274571819214e+00 0.0 
-4.274571819214e+00 -9.852205883762e+00 0.0 
0.0 0.0 -1.099717550081e+01 
-8.515430667695e+01 -4.610805917049e+00 0.0 
-4.610805917049e+00 -1.892704144140e+02 0.0 
0.0 0.0 -7.586321737969e+01 
-1.146543308540e+01 -3.057197230792e-01 0.0 
-3.057197230792e-01 -2.531778067170e+01 0.0 
0.0 0.0 -8.516144738054e+00 
-1.409846909569e+02 6.005819869092e+00 0.0 
6.005819869092e+00 -3.492243054496e+02 0.0 
0.0 0.0 -1.466626989219e+02 
-8.597879859897e+01 -6.237183626494e+00 0.0 
-6.237183626494e+00 -2.004832684888e+02 0.0 
0.0 0.0 -8.005434280220e+01 
-1.301039497273e+02 1.149774599940e+00 0.0 
1.149774599940e+00 -3.252921011975e+02 0.0 
0.0 0.0 -1.362188152774e+02 
-4.231837440580e+01 -9.949238588793e+00 0.0 
-9.949238588793e+00 -9.994924807776e+01 0.0 
0.0 0.0 -3.880688629484e+01 
-1.249831037318e+01 -2.119164585796e+00 0.0 
-2.119164585796e+00 -4.170333866314e+01 0.0 
0.0 0.0 -1.436361092746e+01 
-1.407074637117e+02 3.104435034322e+00 0.0 
3.104435034322e+00 -3.446876390043e+02 0.0 
0.0 0.0 -1.452185308148e+02 
-9.312899019444e+01 -3.757849245666e+00 0.0 
-3.757849245666e+00 -2.096015253944e+02 0.0 
0.0 0.0 -8.508397384861e+01 
-7.575492658284e+01 -2.361728388513e+00 0.0 
-2.361728388513e+00 -1.625808257142e+02 0.0 
0.0 0.0 -6.604976059899e+01 
-1.311101162540e+02 2.593985559391e+00 0.0 
2.593985559391e+00 -3.260465280178e+02 0.0 
0.0 0.0 -1.367469932815e+02 
-7.422058301720e+01 2.302278326869e+00 0.0 
2.302278326869e+00 -1.486920281441e+02 0.0 
0.0 0.0 -6.647378334840e+01 
-7.566466609909e+01 1.412793884192e-01 0.0 
1.412793884192e-01 -1.628248148019e+02 0.0 
0.0 0.0 -6.634767581036e+01 
-1.132713338675e+02 8.106152599164e+00 0.0 
8.106152599164e+00 -3.077649283987e+02 0.0 
0.0 0.0 -1.259108786799e+02 
-1.027990100217e+02 -1.864491594712e-01 0.0 
-1.864491594712e-01 -2.739030293644e+02 0.0 
0.0 0.0 -1.119451421004e+02 
-1.181491135487e+02 -4.006742593889e-01 0.0 
-4.006742593889e-01 -2.951375233833e+02 0.0 
0.0 0.0 -1.228719069351e+02 
-1.218522098744e+02 -2.522081948313e-01 0.0 
-2.522081948313e-01 -3.037121036884e+02 0.0 
0.0 0.0 -1.268796702680e+02 
-5.060162902259e+01 1.489481291220e+01 0.0 
1.489481291220e+01 -1.780186187137e+02 0.0 
0.0 0.0 -6.661975619646e+01 
-5.554018337481e+01 3.367153988738e+01 0.0 
3.367153988738e+01 -8.891026189718e+01 0.0 
0.0 0.0 -3.910191681077e+01 
-6.007629769018e+01 2.756621491782e+01 0.0 
2.756621491782e+01 -1.752132760551e+02 0.0 
0.0 0.0 -6.957354927360e+01 
-1.102538016221e+02 -9.560334779612e-01 0.0 
-9.560334779612e-01 -2.788636612579e+02 0.0 
0.0 0.0 -1.151258256004e+02 
-1.357054583955e+02 2.410418107037e+00 0.0 
2.410418107037e+00 -3.342607321536e+02 0.0 
0.0 0.0 -1.405898571647e+02 
-1.252203059413e+02 -3.274497517211e-01 0.0 
-3.274497517211e-01 -3.124485777781e+02 0.0 
0.0 0.0 -1.309006651158e+02 
-4.835001809038e+01 -1.474675925045e+01 0.0 
-1.474675925045e+01 -1.072224579694e+02 0.0 
0.0 0.0 -4.303916246320e+01 
-7.531600739447e+01 4.687771279237e+00 0.0 
4.687771279237e+00 -1.479969394945e+02 0.0 
0.0 0.0 -6.659388406670e+01 
-6.922478894468e+01 3.689493611458e+00 0.0 
3.689493611458e+00 -1.267147066944e+02 0.0 
0.0 0.0 -5.838184869173e+01 
-3.701634859755e+01 -3.761097378245e-01 0.0 
-3.761097378245e-01 -3.451089978705e+01 0.0 
0.0 0.0 -2.105817451538e+01 
-1.118523569185e+02 2.505450497120e-01 0.0 
2.505450497120e-01 -2.899579418174e+02 0.0 
0.0 0.0 -1.197576604251e+02 
-1.143081914254e+02 -6.328703101021e-01 0.0 
-6.328703101021e-01 -2.869970811856e+02 0.0 
0.0 0.0 -1.190084281176e+02 
-7.618814628937e+01 4.402359230647e+00 0.0 
4.402359230647e+00 -1.503559760039e+02 0.0 
0.0 0.0 -6.756323668799e+01 
-7.214236163871e+01 3.277633586596e+00 0.0 
3.277633586596e+00 -1.379835831535e+02 0.0 
0.0 0.0 -6.263778343766e+01 
-1.053134109709e+02 -9.541771017725e-01 0.0 
-9.541771017725e-01 -2.676147709747e+02 0.0 
0.0 0.0 -1.088971816934e+02 
-1.453851957997e+02 2.720110761943e+00 0.0 
2.720110761943e+00 -3.527949228163e+02 0.0 
0.0 0.0 -1.490540355848e+02 
-7.243698292601e+01 8.435378372955e+00 0.0 
8.435378372955e+00 -1.247232579645e+02 0.0 
0.0 0.0 -5.874807226715e+01 
-1.264564604487e+02 1.160319350365e+00 0.0 
1.160319350365e+00 -3.126410486604e+02 0.0 
0.0 0.0 -1.310930269473e+02 
-1.465781193021e+02 5.676882383449e+00 0.0 
5.676882383449e+00 -3.581994654042e+02 0.0 
0.0 0.0 -1.510332754119e+02 
-7.750151544672e+01 6.963300771357e+00 0.0 
6.963300771357e+00 -1.494612600199e+02 0.0 
0.0 0.0 -6.768883263997e+01 
-6.307371268088e+01 4.853906542492e+00 0.0 
4.853906542492e+00 -9.641585963757e+01 0.0 
0.0 0.0 -4.744687169553e+01 
-1.094860975268e+02 5.905771380719e+00 0.0 
5.905771380719e+00 -2.984154901007e+02 0.0 
0.0 0.0 -1.219704762882e+02 
-4.305351285204e+01 -5.574408169680e+00 0.0 
-5.574408169680e+00 -1.012709782908e+02 0.0 
0.0 0.0 -3.837938092173e+01 
-4.748250970727e+01 -1.576748998006e+01 0.0 
-1.576748998006e+01 -1.011483607276e+02 0.0 
0.0 0.0 -4.052944665195e+01 
-2.204391145638e+01 -3.295022600770e+00 0.0 
-3.295022600770e+00 -4.874244157565e+01 0.0 
0.0 0.0 -1.742607262489e+01 
-3.664344607118e+01 -1.495125414942e+01 0.0 
-1.495125414942e+01 -3.465145155642e+01 0.0 
0.0 0.0 -1.793284723246e+01 
-7.400291120586e+01 5.198835514438e+00 0.0 
5.198835514438e+00 -1.390446108769e+02 0.0 
0.0 0.0 -6.351425662483e+01 
-1.397496003816e+02 5.990290122961e-01 0.0 
5.990290122961e-01 -3.418514060770e+02 0.0 
0.0 0.0 -1.440803019376e+02 
-2.626095052762e+01 -6.983440628677e+00 0.0 
-6.983440628677e+00 -2.851583374224e+01 0.0 
0.0 0.0 -1.318739575562e+01 
-9.864360973153e+01 3.572087106125e+01 0.0 
3.572087106125e+01 -2.002769224296e+02 0.0 
0.0 0.0 -8.927615964834e+01 
-4.166139021945e+01 1.515486045805e-01 0.0 
1.515486045805e-01 -4.340708547878e+01 0.0 
0.0 0.0 -2.512054270947e+01 
-1.267070192734e+02 2.682190153035e+00 0.0 
2.682190153035e+00 -3.181423185088e+02 0.0 
0.0 0.0 -1.330548013346e+02 
-1.298335573030e+02 2.149970476286e-01 0.0 
2.149970476286e-01 -3.227176375628e+02 0.0 
0.0 0.0 -1.353653584598e+02 
-5.688965521163e+01 -1.505116191784e+01 0.0 
-1.505116191784e+01 -1.544012582464e+02 0.0 
0.0 0.0 -6.123084678885e+01 
-1.306964131733e+02 1.735694060021e+00 0.0 
1.735694060021e+00 -3.233968630732e+02 0.0 
0.0 0.0 -1.358279828740e+02 
-3.827130036614e+01 1.810534826053e+00 0.0 
1.810534826053e+00 -3.497925042348e+01 0.0 
0.0 0.0 -2.157516523689e+01 
-9.318055548921e+01 2.043327190776e+01 0.0 
2.043327190776e+01 -2.763197403165e+02 0.0 
0.0 0.0 -1.105836161000e+02 
-1.512245619498e+02 3.602665819305e+00 0.0 
3.602665819305e+00 -3.661896900432e+02 0.0 
0.0 0.0 -1.548242755979e+02 
-3.975632963633e+01 -3.159479154924e+00 0.0 
-3.159479154924e+00 -9.728048003817e+01 0.0 
0.0 0.0 -3.753633490361e+01 
-1.458967476013e+02 7.332001264593e+00 0.0 
7.332001264593e+00 -3.593869995056e+02 0.0 
0.0 0.0 -1.511851241321e+02 
-6.565064493877e+01 4.559758859076e+00 0.0 
4.559758859076e+00 -1.074617434109e+02 0.0 
0.0 0.0 -5.153371650490e+01 
-4.792274006166e+01 -4.634050686179e+00 0.0 
-4.634050686179e+00 -1.098467269048e+02 0.0 
0.0 0.0 -4.259839026678e+01 
-5.328369147029e+01 -1.721117986496e+01 0.0 
-1.721117986496e+01 -1.213826099654e+02 0.0 
0.0 0.0 -4.947530410776e+01 
-1.017917054689e+02 -2.504938396541e+00 0.0 
-2.504938396541e+00 -2.338290607401e+02 0.0 
0.0 0.0 -9.647793246737e+01 
-5.424494479684e+01 2.582189348633e+00 0.0 
2.582189348633e+00 -7.298971483002e+01 0.0 
0.0 0.0 -3.777039788806e+01 
-7.030766137370e+01 -8.682991110948e+00 0.0 
-8.682991110948e+00 -1.591870672691e+02 0.0 
0.0 0.0 -6.307235150672e+01 
-6.812942348695e+01 4.299491732362e+00 0.0 
4.299491732362e+00 -1.184085744162e+02 0.0 
0.0 0.0 -5.556139937094e+01 
-5.847738357995e+01 3.623267075392e+00 0.0 
3.623267075392e+00 -8.639540029326e+01 0.0 
0.0 0.0 -4.306183516196e+01 
-9.680906018981e+01 -4.107342879025e+00 0.0 
-4.107342879025e+00 -2.286736819896e+02 0.0 
0.0 0.0 -9.330855858579e+01 
-1.238749475501e+02 1.152678461178e+00 0.0 
1.152678461178e+00 -3.041464944645e+02 0.0 
0.0 0.0 -1.271990324616e+02 
-1.265750351002e+02 1.822173240429e+00 0.0 
1.822173240429e+00 -3.152709226400e+02 0.0 
0.0 0.0 -1.320383621651e+02 
-6.288071042848e+01 2.548788300595e+00 0.0 
2.548788300595e+00 -1.058768468673e+02 0.0 
0.0 0.0 -5.022726718872e+01 
-3.043925716034e+01 -4.537990116558e+00 0.0 
-4.537990116558e+00 -8.494367041068e+01 0.0 
0.0 0.0 -3.128950185033e+01 
-9.427126527145e+01 -4.244174389970e+00 0.0 
-4.244174389970e+00 -2.169166852457e+02 0.0 
0.0 0.0 -8.850305500387e+01 
-1.120507734998e+02 2.608203678967e+01 0.0 
2.608203678967e+01 -3.034621469428e+02 0.0 
0.0 0.0 -1.242538761328e+02 
-6.980666655132e+01 6.187480360034e+00 0.0 
6.187480360034e+00 -1.171779317937e+02 0.0 
0.0 0.0 -5.569537950350e+01 
-8.714875988594e+01 -5.226972446963e+00 0.0 
-5.226972446963e+00 -1.962839283682e+02 0.0 
0.0 0.0 -7.936606097509e+01 
-1.093989050565e+02 -1.435191655022e-01 0.0 
-1.435191655022e-01 -2.754500008219e+02 0.0 
0.0 0.0 -1.129094460612e+02 
-1.408175363341e+02 8.058989478256e+00 0.0 
8.058989478256e+00 -3.513789706599e+02 0.0 
0.0 0.0 -1.472589520982e+02 
-6.039074051041e+01 2.846424597782e+00 0.0 
2.846424597782e+00 -9.493856355163e+01 0.0 
0.0 0.0 -4.619879121861e+01 
-2.945840977487e+01 -9.065587410797e+00 0.0 
-9.065587410797e+00 -1.197185301528e+02 0.0 
0.0 0.0 -4.706317528646e+01 
-1.590408408138e+01 -8.189600042902e-01 0.0 
-8.189600042902e-01 -4.651408422468e+01 0.0 
0.0 0.0 -1.670344583442e+01 
-3.692159969939e+01 2.849914589265e+00 0.0 
2.849914589265e+00 -1.357494602450e+02 0.0 
0.0 0.0 -4.992107227727e+01 
-1.349298417954e+02 8.924212388064e-01 0.0 
8.924212388064e-01 -3.336036887618e+02 0.0 
0.0 0.0 -1.401600591672e+02 
-5.729652211993e+01 2.798843971144e+00 0.0 
2.798843971144e+00 -8.392516212099e+01 0.0 
0.0 0.0 -4.196650527228e+01 
-1.096019080376e+02 -1.059482210022e-01 0.0 
-1.059482210022e-01 -2.544444146256e+02 0.0 
0.0 0.0 -1.056035697036e+02 
-4.629500283398e+01 1.117794761225e+00 0.0 
1.117794761225e+00 -5.292876920960e+01 0.0 
0.0 0.0 -2.936713161307e+01 
-1.280612025817e+02 1.217781554456e+01 0.0 
1.217781554456e+01 -3.343654992040e+02 0.0 
0.0 0.0 -1.383280105357e+02 
-1.006851129162e+02 -3.300468049521e+00 0.0 
-3.300468049521e+00 -2.368910850751e+02 0.0 
0.0 0.0 -9.727664525507e+01 
-1.251274104147e+02 3.334659756835e-01 0.0 
3.334659756835e-01 -3.144829064902e+02 0.0 
0.0 0.0 -1.314830950715e+02 
-3.959255012577e+01 -2.722217890991e+00 0.0 
-2.722217890991e+00 -1.023844739703e+02 0.0 
0.0 0.0 -3.930542162468e+01 
-1.453983880911e+02 4.153117281816e+00 0.0 
4.153117281816e+00 -3.577847242319e+02 0.0 
0.0 0.0 -1.505549336969e+02 
-1.002485202471e+02 -2.824841072492e+00 0.0 
-2.824841072492e+00 -2.296532125405e+02 0.0 
0.0 0.0 -9.396797659558e+01 
-4.478251325545e+01 -1.735239112302e+00 0.0 
-1.735239112302e+00 -1.108466367821e+02 0.0 
0.0 0.0 -4.330765623202e+01 
-9.693629298715e+01 -2.609576319333e+00 0.0 
-2.609576319333e+00 -2.178909425059e+02 0.0 
0.0 0.0 -8.916343143121e+01 
-7.494136082196e+01 -7.246640523415e+00 0.0 
-7.246640523415e+00 -1.675957538749e+02 0.0 
0.0 0.0 -6.619067982473e+01 
-5.686289083300e+01 -9.026592715354e+00 0.0 
-9.026592715354e+00 -1.304769021281e+02 0.0 
0.0 0.0 -5.147729963700e+01 
-1.078999636551e+02 -1.869700853892e+00 0.0 
-1.869700853892e+00 -2.534778943115e+02 0.0 
0.0 0.0 -1.049952119715e+02 
-6.898328928537e+00 -6.178142334080e-01 0.0 
-6.178142334080e-01 -9.352267671353e+00 0.0 
0.0 0.0 -3.243635790827e+00 
-7.282694906633e+00 -5.579712794649e-01 0.0 
-5.579712794649e-01 -9.926915253813e+00 0.0 
0.0 0.0 -4.167075695007e+00 
-1.180354107318e+02 6.057593045937e-01 0.0 
6.057593045937e-01 -2.879734745118e+02 0.0 
0.0 0.0 -1.197039154420e+02 
-3.413141528768e+01 -3.564780268794e+00 0.0 
-3.564780268794e+00 -9.396310324377e+01 0.0 
0.0 0.0 -3.534181571207e+01 
-1.169629948554e+02 1.098707085928e+00 0.0 
1.098707085928e+00 -2.911674793303e+02 0.0 
0.0 0.0 -1.206410701302e+02 
-1.132832437111e+02 5.373501415634e-01 0.0 
5.373501415634e-01 -2.832994564631e+02 0.0 
0.0 0.0 -1.168093625477e+02 
-7.663918589464e+01 -8.681902782704e+00 0.0 
-8.681902782704e+00 -1.841358525604e+02 0.0 
0.0 0.0 -7.346868366311e+01 
-5.011857920279e+01 -1.700419059874e+01 0.0 
-1.700419059874e+01 -1.311697245711e+02 0.0 
0.0 0.0 -4.982739813846e+01 
-7.810868730597e+01 1.036081322842e+01 0.0 
1.036081322842e+01 -1.376724354226e+02 0.0 
0.0 0.0 -6.433433681857e+01 
-3.624090586788e+01 2.739192285319e+01 0.0 
2.739192285319e+01 -9.535592576773e+01 0.0 
0.0 0.0 -3.915096262373e+01 
-7.947050216991e+01 -5.929432911827e+00 0.0 
-5.929432911827e+00 -1.762386770825e+02 0.0 
0.0 0.0 -7.033091139040e+01 
-1.328311730968e+02 1.462543086314e+01 0.0 
1.462543086314e+01 -3.420749293305e+02 0.0 
0.0 0.0 -1.420718307282e+02 
-2.960128294183e+01 -4.673996558269e+00 0.0 
-4.673996558269e+00 -8.005861586427e+01 0.0 
0.0 0.0 -2.960211625732e+01 
-5.238739523007e+01 3.400945206810e+00 0.0 
3.400945206810e+00 -6.518793387811e+01 0.0 
0.0 0.0 -3.487259873246e+01 
-4.367972389415e+01 2.267700336229e+00 0.0 
2.267700336229e+00 -4.466974509564e+01 0.0 
0.0 0.0 -2.610484069694e+01 
-3.242050180557e+01 -7.766524512713e+00 0.0 
-7.766524512713e+00 -7.869384444082e+01 0.0 
0.0 0.0 -2.950931056358e+01 
-1.351554648629e+02 8.661733460916e+00 0.0 
8.661733460916e+00 -3.430243097695e+02 0.0 
0.0 0.0 -1.430539323897e+02 
-7.051433445281e+01 8.828403471764e+00 0.0 
8.828403471764e+00 -1.057664621313e+02 0.0 
0.0 0.0 -5.248423897522e+01 
-3.876501571479e+01 -6.362219225299e+00 0.0 
-6.362219225299e+00 -9.291301882486e+01 0.0 
0.0 0.0 -3.501859878828e+01 
-8.200873745497e+01 1.275856844022e+01 0.0 
1.275856844022e+01 -1.481840777952e+02 0.0 
0.0 0.0 -6.865784457504e+01 
-7.746999884255e+01 1.060067764144e+01 0.0 
1.060067764144e+01 -1.457791590479e+02 0.0 
0.0 0.0 -6.657474736715e+01 
-4.274775651244e+01 -5.459560440697e+00 0.0 
-5.459560440697e+00 -1.058055968873e+02 0.0 
0.0 0.0 -3.954245357925e+01 
-4.689237576920e+01 3.119668815087e+01 0.0 
3.119668815087e+01 -8.587435674552e+01 0.0 
0.0 0.0 -3.659894510707e+01 
-4.600708209220e+01 -8.745271957510e+00 0.0 
-8.745271957510e+00 -1.089981960858e+02 0.0 
0.0 0.0 -4.211748500239e+01 
-1.235354005607e+02 1.701422166838e+00 0.0 
1.701422166838e+00 -3.071051420586e+02 0.0 
0.0 0.0 -1.282144407445e+02 
-1.043873124667e+02 -2.545223975906e+00 0.0 
-2.545223975906e+00 -2.452391738967e+02 0.0 
0.0 0.0 -1.011883684401e+02 
-9.312124362582e+01 2.997937907597e+01 0.0 
2.997937907597e+01 -1.849177912926e+02 0.0 
0.0 0.0 -8.301171047552e+01 
-7.418174469656e+01 7.988423674285e+00 0.0 
7.988423674285e+00 -1.356020727045e+02 0.0 
0.0 0.0 -6.253514522033e+01 
-1.203923126396e+02 1.489836536234e+00 0.0 
1.489836536234e+00 -2.991161088213e+02 0.0 
0.0 0.0 -1.244463111636e+02 
-1.162794867393e+02 3.790542088816e-01 0.0 
3.790542088816e-01 -2.981071322067e+02 0.0 
0.0 0.0 -1.237163498255e+02 
-3.915128277962e+01 -9.903639291750e+00 0.0 
-9.903639291750e+00 -8.813798437765e+01 0.0 
0.0 0.0 -3.465497175499e+01 
-1.206006326871e+02 3.790691369590e-01 0.0 
3.790691369590e-01 -3.063081869418e+02 0.0 
0.0 0.0 -1.276726458887e+02 
-6.619636091452e+01 6.318527715740e+00 0.0 
6.318527715740e+00 -1.035086419860e+02 0.0 
0.0 0.0 -5.051150087017e+01 
-1.067082641781e+02 -9.557235713407e-01 0.0 
-9.557235713407e-01 -2.461085249447e+02 0.0 
0.0 0.0 -1.017800366486e+02 
-6.044799474866e+01 4.887547294732e+00 0.0 
4.887547294732e+00 -8.561478560113e+01 0.0 
0.0 0.0 -4.341883410494e+01 
-7.229939880035e+01 8.520297699964e+00 0.0 
8.520297699964e+00 -1.164404289549e+02 0.0 
0.0 0.0 -5.622194832657e+01 
-6.211193398076e+01 1.883994295023e+01 0.0 
1.883994295023e+01 -2.119275742679e+02 0.0 
0.0 0.0 -8.499986386097e+01 
-7.041898393199e+01 5.903023316605e+00 0.0 
5.903023316605e+00 -1.253248549229e+02 0.0 
0.0 0.0 -5.832315165646e+01 
-9.136185801760e+01 -4.137656784603e+00 0.0 
-4.137656784603e+00 -2.059770611359e+02 0.0 
0.0 0.0 -8.402496096922e+01 
-1.035943196353e+02 -1.805856891466e+00 0.0 
-1.805856891466e+00 -2.378045145956e+02 0.0 
0.0 0.0 -9.788877757223e+01 
-7.067367591105e+01 -6.744575573944e+00 0.0 
-6.744575573944e+00 -1.555099121686e+02 0.0 
0.0 0.0 -6.105549617539e+01 
-7.111650534316e+01 -1.278977885401e+01 0.0 
-1.278977885401e+01 -1.692812714093e+02 0.0 
0.0 0.0 -6.937612348697e+01 
-6.168444332899e+01 4.336097175797e+00 0.0 
4.336097175797e+00 -9.348158308116e+01 0.0 
0.0 0.0 -4.614980792305e+01 
-8.977423141439e+01 -6.011282327924e+00 0.0 
-6.011282327924e+00 -2.334810968217e+02 0.0 
0.0 0.0 -9.674824755278e+01 
-5.025408763045e+01 -7.309007356750e+00 0.0 
-7.309007356750e+00 -1.180179954762e+02 0.0 
0.0 0.0 -4.538975185839e+01 
-2.305519495959e+01 -4.002203069543e+00 0.0 
-4.002203069543e+00 -5.848939429735e+01 0.0 
0.0 0.0 -2.104004107252e+01 
-6.550452348688e+01 6.634942592572e+00 0.0 
6.634942592572e+00 -9.549196388407e+01 0.0 
0.0 0.0 -4.789894621129e+01 
-5.188402379918e+01 -9.872954288723e+00 0.0 
-9.872954288723e+00 -1.172741838075e+02 0.0 
0.0 0.0 -4.608207245371e+01 
-1.451093984627e+02 6.176055750494e+00 0.0 
6.176055750494e+00 -3.588855397227e+02 0.0 
0.0 0.0 -1.507984814556e+02 
-6.427160073604e+01 4.315743788212e+00 0.0 
4.315743788212e+00 -1.044456705683e+02 0.0 
0.0 0.0 -5.021518139130e+01 
-1.250304116922e+02 1.261059585244e+00 0.0 
1.261059585244e+00 -3.171228079434e+02 0.0 
0.0 0.0 -1.322459658907e+02 
-1.495732076203e+02 2.043739409985e+01 0.0 
2.043739409985e+01 -3.627431462867e+02 0.0 
0.0 0.0 -1.532949061721e+02 
-8.904759432013e+01 -3.265067319052e+00 0.0 
-3.265067319052e+00 -1.974802612976e+02 0.0 
0.0 0.0 -8.016475694395e+01 
-4.590880440760e+01 -8.353878853848e+00 0.0 
-8.353878853848e+00 -1.046627197000e+02 0.0 
0.0 0.0 -4.064166633015e+01 
-2.994844490854e+01 -8.020443235831e+00 0.0 
-8.020443235831e+00 -6.662884524289e+01 0.0 
0.0 0.0 -2.626408222842e+01 
-1.187706888899e+02 2.374668844205e+00 0.0 
2.374668844205e+00 -3.021654324319e+02 0.0 
0.0 0.0 -1.252605708243e+02 
-5.314123040687e+01 1.604017208511e+00 0.0 
1.604017208511e+00 -7.474130732075e+01 0.0 
0.0 0.0 -3.796476131829e+01 
-2.002019708517e+01 -4.861416180168e+00 0.0 
-4.861416180168e+00 -4.732109345245e+01 0.0 
0.0 0.0 -1.778662324306e+01 
-7.184124761754e+01 -6.707097668069e+00 0.0 
-6.707097668069e+00 -1.603320500272e+02 0.0 
0.0 0.0 -6.372443594313e+01 
-3.052359828471e+01 -1.205057965084e+00 0.0 
-1.205057965084e+00 -9.052230567796e+01 0.0 
0.0 0.0 -3.448879022690e+01 
-5.774115413583e+01 4.793232262843e+00 0.0 
4.793232262843e+00 -7.484466524536e+01 0.0 
0.0 0.0 -3.937574581436e+01 
-7.638179970168e+01 -5.181976375734e+00 0.0 
-5.181976375734e+00 -1.688280483806e+02 0.0 
0.0 0.0 -6.683095177038e+01 
-1.073536619950e+02 4.666385507596e-02 0.0 
4.666385507596e-02 -2.819281000450e+02 0.0 
0.0 0.0 -1.158566121774e+02 
-7.123922244679e+01 -4.257573229641e+00 0.0 
-4.257573229641e+00 -1.566358234762e+02 0.0 
0.0 0.0 -6.211212011756e+01 
-7.189364860790e+01 5.828874761654e+00 0.0 
5.828874761654e+00 -1.282485643141e+02 0.0 
0.0 0.0 -5.964266387660e+01 
-6.134045856578e+01 -9.589589949610e+00 0.0 
-9.589589949610e+00 -1.382110826249e+02 0.0 
0.0 0.0 -5.460873821685e+01 
-1.164930969089e+02 3.977902463587e+00 0.0 
3.977902463587e+00 -3.047504135311e+02 0.0 
0.0 0.0 -1.259311247674e+02 
-4.724701076083e+01 -1.519447100026e+01 0.0 
-1.519447100026e+01 -1.004080039981e+02 0.0 
0.0 0.0 -4.035889933674e+01 
-1.148056219781e+02 2.022299705520e+00 0.0 
2.022299705520e+00 -2.942179911212e+02 0.0 
0.0 0.0 -1.213781510304e+02 
-1.004235050906e+02 -1.701968303716e+00 0.0 
-1.701968303716e+00 -2.266450385748e+02 0.0 
0.0 0.0 -9.330696617374e+01 
-1.198967361753e+02 1.342441130325e+00 0.0 
1.342441130325e+00 -3.090370198411e+02 0.0 
0.0 0.0 -1.282801268049e+02 
-4.925902268837e+01 2.350358385392e-01 0.0 
2.350358385392e-01 -1.750863294524e+02 0.0 
0.0 0.0 -6.432464910833e+01 
-3.474923565228e+01 -4.109140516053e+00 0.0 
-4.109140516053e+00 -8.931163934915e+01 0.0 
0.0 0.0 -3.380553983389e+01 
-4.758206550976e+01 2.373167694061e+00 0.0 
2.373167694061e+00 -5.578626971538e+01 0.0 
0.0 0.0 -3.061050056754e+01 
-9.467893913511e+01 9.452518436642e+00 0.0 
9.452518436642e+00 -2.792293906568e+02 0.0 
0.0 0.0 -1.148301530351e+02 
-5.909628684035e+01 3.352258738394e+01 0.0 
3.352258738394e+01 -1.441110052764e+02 0.0 
0.0 0.0 -5.898804175377e+01 
-5.554671504974e+01 3.573888057398e+00 0.0 
3.573888057398e+00 -7.586373398209e+01 0.0 
0.0 0.0 -3.902313470955e+01 
-5.221961313964e+01 -1.810017650682e+01 0.0 
-1.810017650682e+01 -1.167369753226e+02 0.0 
0.0 0.0 -4.734341807871e+01 
-6.174966322844e+01 6.457009764786e+00 0.0 
6.457009764786e+00 -8.234724300522e+01 0.0 
0.0 0.0 -4.282907187010e+01 
-2.533095452230e+01 -1.970412876727e+00 0.0 
-1.970412876727e+00 -8.145834007948e+01 0.0 
0.0 0.0 -3.033289857380e+01 
-1.358371575601e+02 6.484135386049e+00 0.0 
6.484135386049e+00 -3.415558274559e+02 0.0 
0.0 0.0 -1.428178955048e+02 
-9.804706457654e+01 1.249143718048e+01 0.0 
1.249143718048e+01 -2.865304762797e+02 0.0 
0.0 0.0 -1.168171113908e+02 
-9.804094401950e+01 2.303523344910e+01 0.0 
2.303523344910e+01 -2.816831923353e+02 0.0 
0.0 0.0 -1.135172409064e+02 
-8.298733827037e+01 1.213505981700e+01 0.0 
1.213505981700e+01 -1.594584728076e+02 0.0 
0.0 0.0 -7.233374332338e+01 
-9.618238266141e+01 -2.829013728830e+00 0.0 
-2.829013728830e+00 -2.521613226630e+02 0.0 
0.0 0.0 -1.040690230822e+02 
-3.504380552460e+01 -7.245797547053e+00 0.0 
-7.245797547053e+00 -8.413132209470e+01 0.0 
0.0 0.0 -3.206560692612e+01 
-1.063209070912e+02 9.720511459565e-01 0.0 
9.720511459565e-01 -2.784285355905e+02 0.0 
0.0 0.0 -1.134760513539e+02 
-1.392253897516e+02 6.872420778533e+00 0.0 
6.872420778533e+00 -3.504412417933e+02 0.0 
0.0 0.0 -1.464999894635e+02 
-5.932892818011e+01 -1.846426240194e+01 0.0 
-1.846426240194e+01 -1.527152302434e+02 0.0 
0.0 0.0 -6.206999108899e+01 
-1.226159870964e+02 2.610419027309e+00 0.0 
2.610419027309e+00 -3.101462138544e+02 0.0 
0.0 0.0 -1.291601572215e+02 
-6.766984859474e+01 6.485422905560e+00 0.0 
6.485422905560e+00 -1.062554150600e+02 0.0 
0.0 0.0 -5.177757909643e+01 
-4.724287057455e+01 -1.744346906215e+01 0.0 
-1.744346906215e+01 -1.275474850281e+02 0.0 
0.0 0.0 -4.675165571208e+01 
-1.106683198184e+02 1.559950258801e+00 0.0 
1.559950258801e+00 -2.863100560263e+02 0.0 
0.0 0.0 -1.174695051152e+02 
-5.150375762696e+01 4.616909637192e+00 0.0 
4.616909637192e+00 -5.327728520449e+01 0.0 
0.0 0.0 -3.103431284943e+01 
-5.294644193169e+01 -3.168874176175e+00 0.0 
-3.168874176175e+00 -1.233483438779e+02 0.0 
0.0 0.0 -4.832369847567e+01 
-6.718222596563e+01 -8.502202784199e+00 0.0 
-8.502202784199e+00 -1.518207627849e+02 0.0 
0.0 0.0 -6.062521374089e+01 
-6.635111612728e+01 3.033970529342e+01 0.0 
3.033970529342e+01 -1.796599858700e+02 0.0 
0.0 0.0 -7.137143075293e+01 
-1.148146808068e+02 1.377434767281e+00 0.0 
1.377434767281e+00 -3.009574161983e+02 0.0 
0.0 0.0 -1.243316291015e+02 
-5.386702762343e+01 3.239842070129e+01 0.0 
3.239842070129e+01 -1.080728141040e+02 0.0 
0.0 0.0 -4.396926961218e+01 
-6.392723109050e+01 2.866390804685e+01 0.0 
2.866390804685e+01 -1.777918681190e+02 0.0 
0.0 0.0 -7.071345463026e+01 
-6.402777982475e+01 6.382514563788e+00 0.0 
6.382514563788e+00 -9.286856198026e+01 0.0 
0.0 0.0 -4.666890254150e+01 
-4.967990104952e+01 1.347282377816e+00 0.0 
1.347282377816e+00 -6.369410608462e+01 0.0 
0.0 0.0 -3.361220214024e+01 
-5.340976703213e+01 3.832166625209e+00 0.0 
3.832166625209e+00 -6.107758415063e+01 0.0 
0.0 0.0 -3.394620535483e+01 
-9.811172152555e+01 -3.251796583552e+00 0.0 
-3.251796583552e+00 -2.256509230385e+02 0.0 
0.0 0.0 -9.265350459271e+01 
-1.293871009508e+02 9.233162964280e+00 0.0 
9.233162964280e+00 -3.344674747667e+02 0.0 
0.0 0.0 -1.387563727153e+02 
-1.017390317478e+02 2.934112186736e-01 0.0 
2.934112186736e-01 -2.705621743160e+02 0.0 
0.0 0.0 -1.107328900760e+02 
-4.897041816666e+01 3.168111265874e+00 0.0 
3.168111265874e+00 -5.440365137956e+01 0.0 
0.0 0.0 -3.061222086387e+01 
-1.037085686227e+02 3.811807534250e+01 0.0 
3.811807534250e+01 -2.198163392600e+02 0.0 
0.0 0.0 -9.665747236482e+01 
-1.029730854385e+02 2.551558934322e+01 0.0 
2.551558934322e+01 -2.867797551742e+02 0.0 
0.0 0.0 -1.165258521838e+02 
-1.097391993925e+02 1.376800316241e+00 0.0 
1.376800316241e+00 -2.928527683557e+02 0.0 
0.0 0.0 -1.203775903244e+02 
-6.833637246756e+01 6.177519599322e+00 0.0 
6.177519599322e+00 -1.143610610866e+02 0.0 
0.0 0.0 -5.440923006625e+01 
-7.595614331351e+01 -1.047332706469e+01 0.0 
-1.047332706469e+01 -1.768847854452e+02 0.0 
0.0 0.0 -7.236186612356e+01 
-7.202094354605e+01 -9.604097857681e+00 0.0 
-9.604097857681e+00 -1.643567995123e+02 0.0 
0.0 0.0 -6.652423237722e+01 
-3.438830331803e+01 -7.473885669093e+00 0.0 
-7.473885669093e+00 -8.759358519201e+01 0.0 
0.0 0.0 -3.262931319887e+01 
-1.069549209152e+02 3.555900864109e+00 0.0 
3.555900864109e+00 -2.886072054109e+02 0.0 
0.0 0.0 -1.178453551061e+02 
-7.671403893122e+01 -7.659352374038e+00 0.0 
-7.659352374038e+00 -1.726531275716e+02 0.0 
0.0 0.0 -6.956967865335e+01 
-6.322511540752e+01 6.744013018588e+00 0.0 
6.744013018588e+00 -8.474881507100e+01 0.0 
0.0 0.0 -4.399217914356e+01 
-6.085280685016e+01 6.855126480786e+00 0.0 
6.855126480786e+00 -7.414297774968e+01 0.0 
0.0 0.0 -4.009873537995e+01 
-6.498803962089e+01 1.300618070298e+01 0.0 
1.300618070298e+01 -2.201993678169e+02 0.0 
0.0 0.0 -8.892524216359e+01 
-6.078630959399e+01 -1.197782560215e+01 0.0 
-1.197782560215e+01 -1.424764315941e+02 0.0 
0.0 0.0 -5.678718543712e+01 
-4.658817385050e+01 1.509860155321e+01 0.0 
1.509860155321e+01 -1.643684111373e+02 0.0 
0.0 0.0 -6.020335881534e+01 
-6.550902337016e+01 -1.029331286457e+01 0.0 
-1.029331286457e+01 -1.508086936749e+02 0.0 
0.0 0.0 -5.991098517022e+01 
-6.891281630159e+01 -1.055958825562e+01 0.0 
-1.055958825562e+01 -1.633391857947e+02 0.0 
0.0 0.0 -6.515080889224e+01 
-4.207422620180e+01 -9.328620745725e+00 0.0 
-9.328620745725e+00 -9.639764439911e+01 0.0 
0.0 0.0 -3.753677418491e+01 
-1.234632288612e+02 9.875856686595e+00 0.0 
9.875856686595e+00 -3.257418052637e+02 0.0 
0.0 0.0 -1.343615102375e+02 
-7.554662555704e+01 -8.087132651507e+00 0.0 
-8.087132651507e+00 -2.004632235285e+02 0.0 
0.0 0.0 -8.067064029348e+01 
-7.398116238594e+01 8.103342328439e+00 0.0 
8.103342328439e+00 -1.272114484793e+02 0.0 
0.0 0.0 -5.995778325958e+01 
-7.685931403955e+01 -6.437190539578e+00 0.0 
-6.437190539578e+00 -2.118159322062e+02 0.0 
0.0 0.0 -8.572190729576e+01 
-9.928386786763e+01 1.518400863690e+00 0.0 
1.518400863690e+00 -2.764876594401e+02 0.0 
0.0 0.0 -1.123314581923e+02 
-8.863276370940e+01 -2.866464703432e+00 0.0 
-2.866464703432e+00 -2.389552237588e+02 0.0 
0.0 0.0 -9.655828955382e+01 
-6.178235549271e+01 2.567127985310e+01 0.0 
2.567127985310e+01 -1.885181980196e+02 0.0 
0.0 0.0 -7.525239059998e+01 
-3.838899886719e+01 -6.672907388891e+00 0.0 
-6.672907388891e+00 -9.677598050092e+01 0.0 
0.0 0.0 -3.599699982137e+01 
-1.331866560554e+02 7.530372359639e+00 0.0 
7.530372359639e+00 -3.418946073286e+02 0.0 
0.0 0.0 -1.421243790152e+02 
-1.404462997178e+02 1.070142644219e+01 0.0 
1.070142644219e+01 -3.532173374565e+02 0.0 
0.0 0.0 -1.476990911523e+02 
-8.123539166493e+01 3.256535651603e+01 0.0 
3.256535651603e+01 -2.173950089380e+02 0.0 
0.0 0.0 -8.918912018089e+01 
-7.165242688913e+01 -1.024856624044e+01 0.0 
-1.024856624044e+01 -1.759099951669e+02 0.0 
0.0 0.0 -7.030342875557e+01 
-9.389098020108e+01 -5.039011412856e-01 0.0 
-5.039011412856e-01 -2.578109651875e+02 0.0 
0.0 0.0 -1.039924422846e+02 
-5.905119902817e+01 4.212957788440e+00 0.0 
4.212957788440e+00 -8.255164874556e+01 0.0 
0.0 0.0 -4.208085433212e+01 
-8.074346322944e+01 -8.337838594926e+00 0.0 
-8.337838594926e+00 -1.851099424102e+02 0.0 
0.0 0.0 -7.534073887899e+01 
-5.505878843077e+01 2.942473957566e+01 0.0 
2.942473957566e+01 -1.422747365146e+02 0.0 
0.0 0.0 -5.670919480226e+01 
-6.153419014254e+01 -7.188959960671e+00 0.0 
-7.188959960671e+00 -1.393639972859e+02 0.0 
0.0 0.0 -5.467143276750e+01 
-5.562293128943e+01 -1.872462700856e+01 0.0 
-1.872462700856e+01 -1.333623786741e+02 0.0 
0.0 0.0 -5.385174198027e+01 
-7.898912007740e+01 -1.088126098389e+01 0.0 
-1.088126098389e+01 -1.896214681357e+02 0.0 
0.0 0.0 -7.811360780962e+01 
-5.630802994290e+01 -8.545715078654e+00 0.0 
-8.545715078654e+00 -1.256742510143e+02 0.0 
0.0 0.0 -4.924930807256e+01 
-4.766943060092e+01 -4.235449782400e+00 0.0 
-4.235449782400e+00 -1.148477383742e+02 0.0 
0.0 0.0 -4.406385147311e+01 
-9.506523776535e+01 -4.626960852705e+00 0.0 
-4.626960852705e+00 -2.410263520993e+02 0.0 
0.0 0.0 -9.931344623743e+01 
-1.044823899534e+02 1.422044274841e+00 0.0 
1.422044274841e+00 -2.846764620897e+02 0.0 
0.0 0.0 -1.163476556129e+02 
-1.016047627054e+02 3.500630738285e+01 0.0 
3.500630738285e+01 -2.554459424309e+02 0.0 
0.0 0.0 -1.067152115409e+02 
-1.133245290857e+01 -1.743092993782e-01 0.0 
-1.743092993782e-01 -8.640790967127e+00 0.0 
0.0 0.0 -4.802398538976e+00 
-6.515782814866e+01 -5.735353387376e+00 0.0 
-5.735353387376e+00 -2.063796756339e+02 0.0 
0.0 0.0 -8.284593479559e+01 
-7.140745017524e+01 -7.430172839708e+00 0.0 
-7.430172839708e+00 -2.042013458168e+02 0.0 
0.0 0.0 -8.241394343230e+01 
-7.383579676956e+01 -9.359772406105e+00 0.0 
-9.359772406105e+00 -1.884064237613e+02 0.0 
0.0 0.0 -7.548364563155e+01 
-5.632185655247e+01 4.048080304645e+00 0.0 
4.048080304645e+00 -7.175286321311e+01 0.0 
0.0 0.0 -3.802241592967e+01 
-8.233223752979e+01 -5.433374389146e+00 0.0 
-5.433374389146e+00 -2.197927599678e+02 0.0 
0.0 0.0 -8.885669945690e+01 
-6.603158724594e+01 -8.062548804375e+00 0.0 
-8.062548804375e+00 -1.467740669607e+02 0.0 
0.0 0.0 -5.779246347044e+01 
-8.117139960533e+01 -1.050858926172e+01 0.0 
-1.050858926172e+01 -2.022541093790e+02 0.0 
0.0 0.0 -8.362344777280e+01 
-6.662532759478e+01 4.131314792353e+00 0.0 
4.131314792353e+00 -1.154820557756e+02 0.0 
0.0 0.0 -5.423221501112e+01 
-6.620672585894e+01 -5.647210064313e+00 0.0 
-5.647210064313e+00 -1.480409630719e+02 0.0 
0.0 0.0 -5.784600104168e+01 
-2.074329257088e+01 -5.287005409370e+00 0.0 
-5.287005409370e+00 -5.496127190557e+01 0.0 
0.0 0.0 -2.019956913982e+01 
-3.190099104541e+01 -7.492844382016e+00 0.0 
-7.492844382016e+00 -7.591300033859e+01 0.0 
0.0 0.0 -2.905559700562e+01 
-5.228723517682e+01 -1.653760743240e+01 0.0 
-1.653760743240e+01 -1.351698067054e+02 0.0 
0.0 0.0 -5.303893191506e+01 
-6.391169777977e+01 -1.233424188666e+01 0.0 
-1.233424188666e+01 -1.552975738030e+02 0.0 
0.0 0.0 -6.202126604979e+01 
-7.215825390816e+01 -5.019418971546e+00 0.0 
-5.019418971546e+00 -2.148703268021e+02 0.0 
0.0 0.0 -8.714794348225e+01 
-8.266374767215e+01 -9.380706786607e+00 0.0 
-9.380706786607e+00 -2.143604509731e+02 0.0 
0.0 0.0 -8.880512973967e+01 
-4.710603425145e+01 -1.588016088552e+01 0.0 
-1.588016088552e+01 -9.517579729469e+01 0.0 
0.0 0.0 -3.787352356717e+01 
-2.551181873751e+01 -4.911636581601e+00 0.0 
-4.911636581601e+00 -7.558264841595e+01 0.0 
0.0 0.0 -2.720671760424e+01 
-6.260227051479e+01 1.082111987607e+01 0.0 
1.082111987607e+01 -6.386052240073e+01 0.0 
0.0 0.0 -3.753883787465e+01 
-5.505646454132e+01 -5.746702359427e+00 0.0 
-5.746702359427e+00 -1.271251267813e+02 0.0 
0.0 0.0 -4.868398229388e+01 
-1.163095499763e+02 6.718764009908e+00 0.0 
6.718764009908e+00 -3.150901624189e+02 0.0 
0.0 0.0 -1.290199137185e+02 
-9.777012968289e+01 3.354438213373e+01 0.0 
3.354438213373e+01 -2.534598236959e+02 0.0 
0.0 0.0 -1.049689860136e+02 
-7.323379995600e+01 3.208349911556e+01 0.0 
3.208349911556e+01 -1.129825710890e+02 0.0 
0.0 0.0 -5.546491131349e+01 
-7.952841116926e+01 1.466924592617e+01 0.0 
1.466924592617e+01 -1.381900368276e+02 0.0 
0.0 0.0 -6.491553439905e+01 
-1.052269231947e+02 3.615941129505e+01 0.0 
3.615941129505e+01 -2.574634019241e+02 0.0 
0.0 0.0 -1.084070975356e+02 
-6.146784195051e+01 1.582293031663e+01 0.0 
1.582293031663e+01 -2.084848190044e+02 0.0 
0.0 0.0 -8.296027012018e+01 
-8.921703809960e+01 3.285892951579e+01 0.0 
3.285892951579e+01 -2.353657445040e+02 0.0 
0.0 0.0 -9.697483478109e+01 
-5.225130408465e+01 -1.933351749477e+01 0.0 
-1.933351749477e+01 -1.138726940922e+02 0.0 
0.0 0.0 -4.522155417649e+01 
-8.649569953936e+01 -8.338082895202e+00 0.0 
-8.338082895202e+00 -2.098208863125e+02 0.0 
0.0 0.0 -8.647080207884e+01 
-5.870269732455e+01 2.556776157298e+01 0.0 
2.556776157298e+01 -1.870966167081e+02 0.0 
0.0 0.0 -7.514688462505e+01 
-4.351048782322e+01 -1.301081292300e+01 0.0 
-1.301081292300e+01 -1.397109276789e+02 0.0 
0.0 0.0 -4.956384586033e+01 
-4.788537397519e+01 -1.870333100081e+01 0.0 
-1.870333100081e+01 -9.208428444517e+01 0.0 
0.0 0.0 -3.631608369303e+01 
-7.380398743043e+01 -8.877717398466e+00 0.0 
-8.877717398466e+00 -1.717077217424e+02 0.0 
0.0 0.0 -6.827661746276e+01 
-7.635206837396e+01 -1.125828090603e+01 0.0 
-1.125828090603e+01 -2.069016864124e+02 0.0 
0.0 0.0 -8.546484282775e+01 
-7.699528024496e+01 -8.896872682322e+00 0.0 
-8.896872682322e+00 -2.182583222157e+02 0.0 
0.0 0.0 -9.009600850515e+01 
-6.096934426158e+01 -7.106636303990e+00 0.0 
-7.106636303990e+00 -1.343409948656e+02 0.0 
0.0 0.0 -5.247875267831e+01 
-8.351891739287e+01 -3.437681185140e+00 0.0 
-3.437681185140e+00 -2.308016068746e+02 0.0 
0.0 0.0 -9.378680199526e+01 
-7.074871960308e+01 -9.346944012745e+00 0.0 
-9.346944012745e+00 -2.122067443956e+02 0.0 
0.0 0.0 -8.680207652486e+01 
-6.604763518398e+01 -2.096604344773e+00 0.0 
-2.096604344773e+00 -2.155439175541e+02 0.0 
0.0 0.0 -8.706645311432e+01 
-6.732269512416e+01 -1.190868128349e+01 0.0 
-1.190868128349e+01 -1.561994493073e+02 0.0 
0.0 0.0 -6.353806961808e+01 
-9.542530840215e+01 1.643399385133e+01 0.0 
1.643399385133e+01 -2.822942312765e+02 0.0 
0.0 0.0 -1.142403812983e+02 
-6.868727158553e+01 9.178359313920e+00 0.0 
9.178359313920e+00 -9.531468945947e+01 0.0 
0.0 0.0 -4.880058831350e+01 
-6.213478498767e+01 -2.454844721459e-01 0.0 
-2.454844721459e-01 -2.096787232931e+02 0.0 
0.0 0.0 -8.338122229894e+01 
-1.271004667848e+02 8.239577601462e+00 0.0 
8.239577601462e+00 -3.332827142507e+02 0.0 
0.0 0.0 -1.377149543106e+02 
-5.356602142390e+01 -1.954251157328e+01 0.0 
-1.954251157328e+01 -1.305749140105e+02 0.0 
0.0 0.0 -5.103956574574e+01 
-1.374036020991e+02 1.284967872658e+01 0.0 
1.284967872658e+01 -3.514446986432e+02 0.0 
0.0 0.0 -1.462544902227e+02 
-7.787260441648e+01 -4.272532153406e+00 0.0 
-4.272532153406e+00 -2.226463797781e+02 0.0 
0.0 0.0 -9.059067673760e+01 
-1.085064600280e+02 3.774976606806e+01 0.0 
3.774976606806e+01 -2.608030174059e+02 0.0 
0.0 0.0 -1.103928432302e+02 
-7.473388174345e+01 3.620039561935e+01 0.0 
3.620039561935e+01 -1.664053513214e+02 0.0 
0.0 0.0 -7.194176991945e+01 
-4.923728266909e+01 -1.738542822078e+01 0.0 
-1.738542822078e+01 -1.162486449168e+02 0.0 
0.0 0.0 -4.501202601216e+01 
-7.608838101109e+01 3.386678483661e+01 0.0 
3.386678483661e+01 -1.317554421157e+02 0.0 
0.0 0.0 -6.195314693803e+01 
-8.690352417637e+01 2.243697355804e+01 0.0 
2.243697355804e+01 -1.582144847967e+02 0.0 
0.0 0.0 -7.313540269192e+01 
-7.858120935379e+01 -1.584522182547e+00 0.0 
-1.584522182547e+00 -2.327955014451e+02 0.0 
0.0 0.0 -9.519144841857e+01 
-4.807593967849e+01 2.771339406731e+01 0.0 
2.771339406731e+01 -1.370021794345e+02 0.0 
0.0 0.0 -5.343828192959e+01 
-7.905696268415e+01 3.511640922517e+01 0.0 
3.511640922517e+01 -1.505327366664e+02 0.0 
0.0 0.0 -6.847690980517e+01 
-6.408715305880e+01 3.311702318026e+01 0.0 
3.311702318026e+01 -1.624294798519e+02 0.0 
0.0 0.0 -6.599682446882e+01 
-4.676216955404e+01 -1.697665213436e+01 0.0 
-1.697665213436e+01 -9.534300005162e+01 0.0 
0.0 0.0 -3.748887128920e+01 
-8.839043588526e+01 1.924448693761e+01 0.0 
1.924448693761e+01 -1.831412686451e+02 0.0 
0.0 0.0 -8.105951135911e+01 
-4.248690344709e+01 -1.433714197867e+01 0.0 
-1.433714197867e+01 -7.973165464822e+01 0.0 
0.0 0.0 -3.241505930791e+01 
-1.272826899658e+02 2.532794992596e+01 0.0 
2.532794992596e+01 -3.289490535367e+02 0.0 
0.0 0.0 -1.364695230507e+02 
-7.576714064568e+01 7.444750179787e+00 0.0 
7.444750179787e+00 -1.463117602468e+02 0.0 
0.0 0.0 -6.622367026773e+01 
-1.019434067591e+02 1.545673140491e+01 0.0 
1.545673140491e+01 -2.932924911014e+02 0.0 
0.0 0.0 -1.186853012394e+02 
-5.105220450967e+01 2.222973555301e+00 0.0 
2.222973555301e+00 -6.190259826675e+01 0.0 
0.0 0.0 -3.348644083293e+01 
-8.007673493795e+01 1.447239588437e+01 0.0 
1.447239588437e+01 -1.283747715144e+02 0.0 
0.0 0.0 -6.213545193569e+01 
-7.227235661767e+01 -4.914813960649e+00 0.0 
-4.914813960649e+00 -2.217385532959e+02 0.0 
0.0 0.0 -9.098725282946e+01 
-7.110956615213e+01 1.407621437040e+01 0.0 
1.407621437040e+01 -2.360359961629e+02 0.0 
0.0 0.0 -9.710483734128e+01 
-8.448837151748e+01 1.693170322079e+01 0.0 
1.693170322079e+01 -1.603873572251e+02 0.0 
0.0 0.0 -7.306271862277e+01 
-1.137349215065e+02 2.793183695628e+00 0.0 
2.793183695628e+00 -3.033586133532e+02 0.0 
0.0 0.0 -1.247280604579e+02 
-7.403319052548e+01 1.207693842106e+01 0.0 
1.207693842106e+01 -1.065964095669e+02 0.0 
0.0 0.0 -5.378888002772e+01 
-9.711810478697e+01 8.306476003173e+00 0.0 
8.306476003173e+00 -2.872211831421e+02 0.0 
0.0 0.0 -1.156651010493e+02 
-4.685652800740e+01 -1.831562965247e+01 0.0 
-1.831562965247e+01 -1.117463858091e+02 0.0 
0.0 0.0 -4.152226570488e+01 
-7.900696207131e+01 1.538139601347e+01 0.0 
1.538139601347e+01 -1.186629358612e+02 0.0 
0.0 0.0 -5.890096937976e+01 
-1.248609988509e+02 3.990104682482e+01 0.0 
3.990104682482e+01 -3.049423305134e+02 0.0 
0.0 0.0 -1.285409988093e+02 
-1.389301774984e+02 9.507651900377e+00 0.0 
9.507651900377e+00 -3.522023476992e+02 0.0 
0.0 0.0 -1.469397575593e+02 
-8.077085048648e+01 -6.985638796993e+00 0.0 
-6.985638796993e+00 -2.082317790747e+02 0.0 
0.0 0.0 -8.377416258274e+01 
-5.468784918298e+01 4.766544070157e+00 0.0 
4.766544070157e+00 -6.379273809317e+01 0.0 
0.0 0.0 -3.514417618284e+01 
-4.761709732048e+01 1.892750106089e+00 0.0 
1.892750106089e+00 -5.117543045740e+01 0.0 
0.0 0.0 -2.923775833336e+01 
-8.363484415543e+01 -7.505756300755e+00 0.0 
-7.505756300755e+00 -2.258855011934e+02 0.0 
0.0 0.0 -9.365563500036e+01 
-1.081665547742e+02 2.890699536286e+00 0.0 
2.890699536286e+00 -2.951483340890e+02 0.0 
0.0 0.0 -1.205944666590e+02 
-1.121364780154e+02 4.685591498174e+00 0.0 
4.685591498174e+00 -3.053220674220e+02 0.0 
0.0 0.0 -1.248375636312e+02 
-2.419518573004e+01 -4.441879058930e+00 0.0 
-4.441879058930e+00 -6.668305242552e+01 0.0 
0.0 0.0 -2.392306132649e+01 
-4.326446342596e+01 1.598698522640e+01 0.0 
1.598698522640e+01 -1.513277392685e+02 0.0 
0.0 0.0 -5.486460770076e+01 
-6.343860990233e+01 3.962063742491e+00 0.0 
3.962063742491e+00 -2.178504411869e+02 0.0 
0.0 0.0 -8.717054269241e+01 
-6.678173008535e+01 -3.161666720237e+00 0.0 
-3.161666720237e+00 -2.127620273167e+02 0.0 
0.0 0.0 -8.657076255262e+01 
-6.241910668153e+01 3.174371199160e+01 0.0 
3.174371199160e+01 -1.776420072515e+02 0.0 
0.0 0.0 -7.217360203372e+01 
-8.940905921148e+01 1.855503198190e+01 0.0 
1.855503198190e+01 -1.716244809822e+02 0.0 
0.0 0.0 -7.791006205809e+01 
-9.577934199758e+01 3.326895166495e+01 0.0 
3.326895166495e+01 -1.986508946495e+02 0.0 
0.0 0.0 -8.792907099412e+01 
-7.918095492749e+01 9.564433876294e+00 0.0 
9.564433876294e+00 -1.480076478431e+02 0.0 
0.0 0.0 -6.775658083117e+01 
-5.577824480728e+01 3.318579920304e+01 0.0 
3.318579920304e+01 -1.081708083535e+02 0.0 
0.0 0.0 -4.373476259762e+01 
-8.198732060502e+01 2.021236035147e+01 0.0 
2.021236035147e+01 -1.356100096520e+02 0.0 
0.0 0.0 -6.487919907711e+01 
-1.117807030272e+02 3.801378075247e+00 0.0 
3.801378075247e+00 -2.966857609640e+02 0.0 
0.0 0.0 -1.219038864800e+02 
-8.160714260635e+01 1.303117962303e+01 0.0 
1.303117962303e+01 -1.578925266417e+02 0.0 
0.0 0.0 -7.144990077442e+01 
-7.770623310059e+01 1.647911891854e+01 0.0 
1.647911891854e+01 -1.092335065644e+02 0.0 
0.0 0.0 -5.568192189950e+01 
-8.838804676329e+01 -7.486827044529e+00 0.0 
-7.486827044529e+00 -2.218662199726e+02 0.0 
0.0 0.0 -9.173198002852e+01 
-6.021433036838e+01 7.164624238805e+00 0.0 
7.164624238805e+00 -2.105092255897e+02 0.0 
0.0 0.0 -8.230123780997e+01 
-7.385540978813e+01 1.213767768211e+01 0.0 
1.213767768211e+01 -1.159285488697e+02 0.0 
0.0 0.0 -5.653518759735e+01 
-8.519309993156e+01 1.669538804507e+01 0.0 
1.669538804507e+01 -1.502907418330e+02 0.0 
0.0 0.0 -7.024515252937e+01 
-7.076310872864e+01 8.697280766701e+00 0.0 
8.697280766701e+00 -1.142763436613e+02 0.0 
0.0 0.0 -5.511183571698e+01 
-6.898479428364e+01 9.036389777421e+00 0.0 
9.036389777421e+00 -1.039406293466e+02 0.0 
0.0 0.0 -5.147762708907e+01 
-1.283275777027e+02 5.736212238905e+00 0.0 
5.736212238905e+00 -3.321955992735e+02 0.0 
0.0 0.0 -1.377569530929e+02 
-1.210441797878e+02 2.623644506179e+01 0.0 
2.623644506179e+01 -3.171379602044e+02 0.0 
0.0 0.0 -1.310546419976e+02 
-1.224052739031e+02 6.196509485016e+00 0.0 
6.196509485016e+00 -3.237366163426e+02 0.0 
0.0 0.0 -1.334425670737e+02 
-9.829740146846e+01 -3.765053816864e-01 0.0 
-3.765053816864e-01 -2.658702504012e+02 0.0 
0.0 0.0 -1.080101524341e+02 
-5.148502250538e+01 3.059710162871e+01 0.0 
3.059710162871e+01 -6.839377183488e+01 0.0 
0.0 0.0 -3.213351119489e+01 
-1.062513660917e+02 1.827274841392e+01 0.0 
1.827274841392e+01 -2.996142023819e+02 0.0 
0.0 0.0 -1.213596705421e+02 
-7.935367099746e+01 2.334573175346e+01 0.0 
2.334573175346e+01 -1.234011717946e+02 0.0 
0.0 0.0 -6.042645283763e+01 
-5.028983924199e+01 -7.151801104798e+00 0.0 
-7.151801104798e+00 -1.133653780039e+02 0.0 
0.0 0.0 -4.378060225755e+01 
-6.720741152896e+01 1.420984500775e+00 0.0 
1.420984500775e+00 -2.197490808821e+02 0.0 
0.0 0.0 -8.935707166299e+01 
-7.406557356640e+01 4.312208755392e+00 0.0 
4.312208755392e+00 -2.402100386947e+02 0.0 
0.0 0.0 -9.914243182979e+01 
-7.852981905689e+01 1.566803877622e+01 0.0 
1.566803877622e+01 -2.540273564384e+02 0.0 
0.0 0.0 -1.036534100339e+02 
-4.074833085663e+01 -2.334620593194e+00 0.0 
-2.334620593194e+00 -1.494808930829e+02 0.0 
0.0 0.0 -5.381166076218e+01 
-6.262762204336e+01 4.174041546416e+00 0.0 
4.174041546416e+00 -2.107135839361e+02 0.0 
0.0 0.0 -8.337027435338e+01 
-8.870105618924e+01 1.752283274251e+01 0.0 
1.752283274251e+01 -2.708689441023e+02 0.0 
0.0 0.0 -1.093768393442e+02 
-6.098700113826e+01 3.312091478836e+01 0.0 
3.312091478836e+01 -1.078992065282e+02 0.0 
0.0 0.0 -4.723805795815e+01 
-8.741086947231e+01 -4.646991330380e+00 0.0 
-4.646991330380e+00 -2.277735153146e+02 0.0 
0.0 0.0 -9.166856621931e+01 
-7.100788364117e+01 1.381728013383e+01 0.0 
1.381728013383e+01 -8.673293558867e+01 0.0 
0.0 0.0 -4.692224576895e+01 
-3.238926426604e+01 -3.681016828295e-01 0.0 
-3.681016828295e-01 -2.100325451043e+01 0.0 
0.0 0.0 -1.561775563294e+01 
-4.567766656880e+01 3.128153585052e+01 0.0 
3.128153585052e+01 -3.188736664544e+01 0.0 
0.0 0.0 -1.922061561143e+01 
-1.009778771551e+02 -1.859956115773e+00 0.0 
-1.859956115773e+00 -2.598481681314e+02 0.0 
0.0 0.0 -1.062971137692e+02 
-1.056433295913e+02 1.375672241951e+01 0.0 
1.375672241951e+01 -3.026055275436e+02 0.0 
0.0 0.0 -1.220746571405e+02 
-9.740739356402e+01 3.238451324914e+01 0.0 
3.238451324914e+01 -2.025032608755e+02 0.0 
0.0 0.0 -8.957319633187e+01 
-6.733543753089e+01 1.203505378101e+01 0.0 
1.203505378101e+01 -2.316919884077e+02 0.0 
0.0 0.0 -9.476523244693e+01 
-9.323222730338e+01 -2.477057212939e+00 0.0 
-2.477057212939e+00 -2.469792942569e+02 0.0 
0.0 0.0 -9.939823863478e+01 
-6.678774791239e+01 9.548952826729e+00 0.0 
9.548952826729e+00 -8.499278822680e+01 0.0 
0.0 0.0 -4.513416084176e+01 
-4.460851178717e+01 3.036911922882e+01 0.0 
3.036911922882e+01 -2.909568893719e+01 0.0 
0.0 0.0 -1.820497106321e+01 
-9.914934778431e+01 1.472546191951e+01 0.0 
1.472546191951e+01 -2.919502543312e+02 0.0 
0.0 0.0 -1.180681423126e+02 
-7.563244874514e+01 1.242276140660e+01 0.0 
1.242276140660e+01 -2.474847251663e+02 0.0 
0.0 0.0 -1.026727791373e+02 
-6.258868613310e+01 3.488314837330e+01 0.0 
3.488314837330e+01 -1.082716811355e+02 0.0 
0.0 0.0 -4.896102620139e+01 
-1.150488663553e+02 5.732372070782e+00 0.0 
5.732372070782e+00 -3.067829436809e+02 0.0 
0.0 0.0 -1.261495430109e+02 
-5.006140012071e+01 -1.690140095307e+01 0.0 
-1.690140095307e+01 -1.424295500666e+02 0.0 
0.0 0.0 -5.399761693755e+01 
-1.191443351517e+02 7.675289792681e+00 0.0 
7.675289792681e+00 -3.164999467622e+02 0.0 
0.0 0.0 -1.302932845742e+02 
-1.321025666653e+02 1.036432602873e+01 0.0 
1.036432602873e+01 -3.425345294809e+02 0.0 
0.0 0.0 -1.419911288439e+02 
-9.267292885694e+01 1.570897401064e+01 0.0 
1.570897401064e+01 -2.809715939888e+02 0.0 
0.0 0.0 -1.140621645688e+02 
-7.542048788091e+01 1.146327532506e+01 0.0 
1.146327532506e+01 -1.167316374198e+02 0.0 
0.0 0.0 -5.724563759022e+01 
-9.961636326527e+01 3.195622646317e+01 0.0 
3.195622646317e+01 -2.666932139502e+02 0.0 
0.0 0.0 -1.094928731647e+02 
-1.343928792854e+02 1.152009485969e+01 0.0 
1.152009485969e+01 -3.437182654782e+02 0.0 
0.0 0.0 -1.430333434291e+02 
-4.400354235684e+01 3.030517648953e+01 0.0 
3.030517648953e+01 -2.854838438499e+01 0.0 
0.0 0.0 -1.871214004456e+01 
-7.259023089622e+01 1.279235087143e+01 0.0 
1.279235087143e+01 -9.663876426116e+01 0.0 
0.0 0.0 -5.036869854721e+01 
-1.190916679681e+02 2.958376214925e+01 0.0 
2.958376214925e+01 -3.093481801346e+02 0.0 
0.0 0.0 -1.281319544308e+02 
-7.520624069060e+01 1.153198681841e+01 0.0 
1.153198681841e+01 -1.258041118190e+02 0.0 
0.0 0.0 -5.990310575287e+01 
-8.157172546715e+01 1.388210444916e+01 0.0 
1.388210444916e+01 -2.637053890555e+02 0.0 
0.0 0.0 -1.079919426748e+02 
-6.350108108843e+01 8.836886786193e+00 0.0 
8.836886786193e+00 -2.156998330184e+02 0.0 
0.0 0.0 -8.603892790956e+01 
-9.887331124676e+01 -3.653564623650e+00 0.0 
-3.653564623650e+00 -2.402489935519e+02 0.0 
0.0 0.0 -9.805812263471e+01 
-3.238500094590e+01 6.606088715704e+00 0.0 
6.606088715704e+00 -1.288063199471e+02 0.0 
0.0 0.0 -5.032558405913e+01 
-7.656423619937e+01 1.091317292296e+01 0.0 
1.091317292296e+01 -1.359486770727e+02 0.0 
0.0 0.0 -6.335387398163e+01 
-5.507464161003e+01 -5.959047419187e+00 0.0 
-5.959047419187e+00 -1.221164727677e+02 0.0 
0.0 0.0 -4.720226096159e+01 
-4.196058593863e+01 2.960913081876e+01 0.0 
2.960913081876e+01 -2.797610531372e+01 0.0 
0.0 0.0 -1.813183952709e+01 
-9.423742903488e+01 3.295968290061e+01 0.0 
3.295968290061e+01 -2.515594211455e+02 0.0 
0.0 0.0 -1.033390550541e+02 
-7.957601586615e+01 9.713299660863e+00 0.0 
9.713299660863e+00 -1.575643350343e+02 0.0 
0.0 0.0 -7.074210527015e+01 
-5.075154049106e+01 -2.011791285606e+01 0.0 
-2.011791285606e+01 -1.286712319631e+02 0.0 
0.0 0.0 -4.922280652303e+01 
-6.863775952922e+01 3.192068529088e+01 0.0 
3.192068529088e+01 -1.811530374530e+02 0.0 
0.0 0.0 -7.346570740370e+01 
-7.247435806472e+01 1.282838812258e+01 0.0 
1.282838812258e+01 -1.064062855984e+02 0.0 
0.0 0.0 -5.326419309893e+01 
-9.788646030396e+01 -4.454679156747e+00 0.0 
-4.454679156747e+00 -2.371760498020e+02 0.0 
0.0 0.0 -9.659983003267e+01 
-4.488301911188e+01 -9.044371461274e+00 0.0 
-9.044371461274e+00 -1.492075657573e+02 0.0 
0.0 0.0 -5.479896498319e+01 
-4.937673190594e+01 2.962033973763e+01 0.0 
2.962033973763e+01 -1.390413131983e+02 0.0 
0.0 0.0 -5.498829930600e+01 
-4.554023291117e+01 -1.888653667571e+01 0.0 
-1.888653667571e+01 -9.124344207970e+01 0.0 
0.0 0.0 -3.503137260843e+01 
-4.402044254244e+01 -1.692480230861e+01 0.0 
-1.692480230861e+01 -1.261769333583e+02 0.0 
0.0 0.0 -4.530575138859e+01 
-4.418978400992e+01 -1.918262450663e+01 0.0 
-1.918262450663e+01 -1.088896233163e+02 0.0 
0.0 0.0 -3.848531464936e+01 
-7.390336099870e+01 1.245712277323e+01 0.0 
1.245712277323e+01 -2.477858402563e+02 0.0 
0.0 0.0 -1.025973559390e+02 
-1.030123598674e+02 3.112844764033e+01 0.0 
3.112844764033e+01 -2.249067523316e+02 0.0 
0.0 0.0 -9.797573365968e+01 
-3.907938970614e+01 2.763007068385e+01 0.0 
2.763007068385e+01 -2.725581112184e+01 0.0 
0.0 0.0 -1.570076765120e+01 
-1.341792986210e+02 5.258769157587e+00 0.0 
5.258769157587e+00 -3.405696795534e+02 0.0 
0.0 0.0 -1.420246934523e+02 
-5.488969312713e+01 1.503813822092e+01 0.0 
1.503813822092e+01 -1.927323417816e+02 0.0 
0.0 0.0 -7.344956737053e+01 
-7.620531768216e+01 1.794687018315e+01 0.0 
1.794687018315e+01 -1.003812435847e+02 0.0 
0.0 0.0 -5.257596838005e+01 
-3.523903977624e+01 4.902927287631e+00 0.0 
4.902927287631e+00 -1.355962581512e+02 0.0 
0.0 0.0 -5.070302531411e+01 
-1.394130159656e+02 1.374066286344e+01 0.0 
1.374066286344e+01 -3.522318387965e+02 0.0 
0.0 0.0 -1.470934564286e+02 
-5.150070835950e+01 -2.141389208637e+01 0.0 
-2.141389208637e+01 -1.122885183056e+02 0.0 
0.0 0.0 -4.370850017052e+01 
-6.601432116579e+01 -5.766872084822e+00 0.0 
-5.766872084822e+00 -1.436354715733e+02 0.0 
0.0 0.0 -5.660000490826e+01 
-9.755841110613e+01 1.844351325049e+01 0.0 
1.844351325049e+01 -2.870772106162e+02 0.0 
0.0 0.0 -1.161124446685e+02 
-7.736930541711e+01 -5.762631934904e+00 0.0 
-5.762631934904e+00 -2.286545142806e+02 0.0 
0.0 0.0 -9.435166573436e+01 
-1.143243008108e+02 2.713129144795e+01 0.0 
2.713129144795e+01 -3.046240806113e+02 0.0 
0.0 0.0 -1.252845144266e+02 
-5.089124740858e+01 3.035870613537e+01 0.0 
3.035870613537e+01 -1.240636075754e+02 0.0 
0.0 0.0 -4.994993092647e+01 
-8.420413982268e+01 2.541032301432e+01 0.0 
2.541032301432e+01 -1.311373135941e+02 0.0 
0.0 0.0 -6.420243602503e+01 
-1.256601940262e+02 2.414443926187e+01 0.0 
2.414443926187e+01 -3.280022200150e+02 0.0 
0.0 0.0 -1.356987242124e+02 
-6.716002207388e+01 9.377247324373e+00 0.0 
9.377247324373e+00 -9.378552154001e+01 0.0 
0.0 0.0 -4.788366308417e+01 
-1.000371475372e+02 3.525235836420e+01 0.0 
3.525235836420e+01 -2.042343922098e+02 0.0 
0.0 0.0 -9.088146192412e+01 
-8.340478152003e+01 1.885888734285e+01 0.0 
1.885888734285e+01 -1.315440476182e+02 0.0 
0.0 0.0 -6.408464874146e+01 
-8.735566204388e+01 2.232593059174e+01 0.0 
2.232593059174e+01 -1.455345925426e+02 0.0 
0.0 0.0 -6.946707637595e+01 
-4.144092287387e+01 2.341148333388e+01 0.0 
2.341148333388e+01 -1.252802232929e+02 0.0 
0.0 0.0 -4.629960472910e+01 
-1.292664516521e+02 3.809464568184e+00 0.0 
3.809464568184e+00 -3.302002427339e+02 0.0 
0.0 0.0 -1.374400083158e+02 
-7.749386248823e+01 1.654930450436e+01 0.0 
1.654930450436e+01 -1.204652660073e+02 0.0 
0.0 0.0 -5.898773854866e+01 
-6.506979857953e+01 2.204667663065e+01 0.0 
2.204667663065e+01 -2.163332071698e+02 0.0 
0.0 0.0 -8.805054912594e+01 
-3.805349541502e+01 2.593294069897e+01 0.0 
2.593294069897e+01 -2.706583395951e+01 0.0 
0.0 0.0 -1.418463173042e+01 
-1.331100646704e+02 2.801422080462e+01 0.0 
2.801422080462e+01 -3.348304286400e+02 0.0 
0.0 0.0 -1.399821479931e+02 
-4.104459988454e+01 1.078159214326e+01 0.0 
1.078159214326e+01 -1.491709997959e+02 0.0 
0.0 0.0 -5.377525689413e+01 
-6.015958521580e+01 -4.344138505838e+00 0.0 
-4.344138505838e+00 -1.358871556718e+02 0.0 
0.0 0.0 -5.309509941872e+01 
-1.073471674014e+02 2.347648814205e+01 0.0 
2.347648814205e+01 -2.983388635412e+02 0.0 
0.0 0.0 -1.213058092828e+02 
-2.309076945843e+01 5.557186616585e-01 0.0 
5.557186616585e-01 -8.050617144496e+01 0.0 
0.0 0.0 -3.024217398500e+01 
-6.551789579119e+01 2.685895560720e+01 0.0 
2.685895560720e+01 -1.926696972433e+02 0.0 
0.0 0.0 -7.681628767051e+01 
-1.038768147948e+02 1.740392505431e+01 0.0 
1.740392505431e+01 -2.984391373237e+02 0.0 
0.0 0.0 -1.204934445188e+02 
-9.130679604087e+01 2.407844865541e+01 0.0 
2.407844865541e+01 -1.670800723792e+02 0.0 
0.0 0.0 -7.711606052603e+01 
-9.503249338784e+01 2.764147199183e+01 0.0 
2.764147199183e+01 -1.827277268045e+02 0.0 
0.0 0.0 -8.292806605769e+01 
-9.972142986850e+01 1.928212368316e+01 0.0 
1.928212368316e+01 -2.881696434967e+02 0.0 
0.0 0.0 -1.159673220096e+02 
-8.434383500261e+01 1.773600784897e+01 0.0 
1.773600784897e+01 -1.407627547290e+02 0.0 
0.0 0.0 -6.713197691949e+01 
-5.749814060572e+01 1.894294698251e+01 0.0 
1.894294698251e+01 -1.967484317864e+02 0.0 
0.0 0.0 -7.662926371498e+01 
-9.378131348976e+01 3.544185811453e+01 0.0 
3.544185811453e+01 -2.378033613599e+02 0.0 
0.0 0.0 -9.907540245489e+01 
-3.874532604780e+01 2.559597677980e+01 0.0 
2.559597677980e+01 -2.661034358252e+01 0.0 
0.0 0.0 -1.591692269758e+01 
-1.013650237963e+02 3.635697959835e+01 0.0 
3.635697959835e+01 -2.300461773289e+02 0.0 
0.0 0.0 -9.902336033755e+01 
-4.282514826533e+01 2.647091796793e+01 0.0 
2.647091796793e+01 -2.684892038255e+01 0.0 
0.0 0.0 -1.856068532720e+01 
-4.896944402408e+01 2.737811243031e+01 0.0 
2.737811243031e+01 -2.792717783939e+01 0.0 
0.0 0.0 -2.153663135709e+01 
-6.434600415658e+01 1.530858600924e+01 0.0 
1.530858600924e+01 -2.226199965199e+02 0.0 
0.0 0.0 -9.003479610743e+01 
-6.622616392075e+01 2.791902608267e+01 0.0 
2.791902608267e+01 -3.131788827954e+01 0.0 
0.0 0.0 -2.818921880294e+01 
-7.291149608371e+01 2.553145116519e+01 0.0 
2.553145116519e+01 -2.242912545861e+02 0.0 
0.0 0.0 -8.923024718705e+01 
-5.850438414177e+01 2.417995742671e+01 0.0 
2.417995742671e+01 -1.854879921734e+02 0.0 
0.0 0.0 -7.379911832476e+01 
-6.758539647559e+01 6.002837473841e+00 0.0 
6.002837473841e+00 -2.261862306978e+02 0.0 
0.0 0.0 -9.215380483214e+01 
-3.971119483270e+01 -9.317370330614e+00 0.0 
-9.317370330614e+00 -1.389494576493e+02 0.0 
0.0 0.0 -4.962142773940e+01 
-6.209055788484e+01 1.145871752722e+01 0.0 
1.145871752722e+01 -2.168327612202e+02 0.0 
0.0 0.0 -8.610972087738e+01 
-8.048159202874e+01 1.391462653300e+01 0.0 
1.391462653300e+01 -1.478116902945e+02 0.0 
0.0 0.0 -6.808798469698e+01 
-1.001600929419e+02 3.528059201732e+01 0.0 
3.528059201732e+01 -2.180932295630e+02 0.0 
0.0 0.0 -9.507599675147e+01 
-1.192509988920e+02 2.693365429629e+00 0.0 
2.693365429629e+00 -3.115426101864e+02 0.0 
0.0 0.0 -1.288380827235e+02 
-1.189091868848e+02 2.505525417069e+01 0.0 
2.505525417069e+01 -3.159808516787e+02 0.0 
0.0 0.0 -1.300670115690e+02 
-7.186876114967e+01 -2.480419633905e+00 0.0 
-2.480419633905e+00 -2.244593565843e+02 0.0 
0.0 0.0 -9.128315197906e+01 
-8.293497897328e+01 1.900580913261e+01 0.0 
1.900580913261e+01 -1.430803745087e+02 0.0 
0.0 0.0 -6.740460604459e+01 
-6.512385418776e+01 8.118626051162e+00 0.0 
8.118626051162e+00 -2.251004470107e+02 0.0 
0.0 0.0 -9.097359247674e+01 
-1.347335647599e+02 3.470711484616e+00 0.0 
3.470711484616e+00 -3.383433131667e+02 0.0 
0.0 0.0 -1.415230633780e+02 
-7.849485450456e+01 1.556636777434e+01 0.0 
1.556636777434e+01 -1.288994764722e+02 0.0 
0.0 0.0 -6.181829929302e+01 
-8.600771058447e+01 2.378880867649e+01 0.0 
2.378880867649e+01 -1.379566311391e+02 0.0 
0.0 0.0 -6.678930251708e+01 
-8.808841589065e+01 1.275755573516e+01 0.0 
1.275755573516e+01 -2.743909783528e+02 0.0 
0.0 0.0 -1.117808131745e+02 
-5.964471228771e+01 1.509135752310e+01 0.0 
1.509135752310e+01 -2.074060876934e+02 0.0 
0.0 0.0 -8.129550221193e+01 
-1.026228539394e+02 3.629999514668e+01 0.0 
3.629999514668e+01 -2.560056538223e+02 0.0 
0.0 0.0 -1.071885523285e+02 
-7.581057624488e+01 3.453847254594e+01 0.0 
3.453847254594e+01 -1.662490906985e+02 0.0 
0.0 0.0 -7.198613688689e+01 
-4.554129356678e+01 -1.512481675028e+01 0.0 
-1.512481675028e+01 -1.395950206104e+02 0.0 
0.0 0.0 -5.160941289861e+01 
-4.085832679059e+01 3.367025549158e+00 0.0 
3.367025549158e+00 -1.470802467220e+02 0.0 
0.0 0.0 -5.270616251621e+01 
-5.304329309202e+01 3.284904099828e+01 0.0 
3.284904099828e+01 -1.422057163048e+02 0.0 
0.0 0.0 -5.816582697451e+01 
-7.151532963190e+01 3.334300195157e+01 0.0 
3.334300195157e+01 -1.814932982134e+02 0.0 
0.0 0.0 -7.284056544443e+01 
-1.400895815066e+02 3.056244787839e+00 0.0 
3.056244787839e+00 -3.466838958031e+02 0.0 
0.0 0.0 -1.456320431929e+02 
-8.207780632855e+01 2.023791375899e+01 0.0 
2.023791375899e+01 -1.230434797974e+02 0.0 
0.0 0.0 -6.113638583779e+01 
-5.982333237564e+01 1.191368906366e+01 0.0 
1.191368906366e+01 -2.048611276450e+02 0.0 
0.0 0.0 -8.010985339270e+01 
-7.729427499268e+01 3.439426473861e+01 0.0 
3.439426473861e+01 -2.007522351386e+02 0.0 
0.0 0.0 -8.301395303940e+01 
-1.103614098203e+02 1.646907588095e+01 0.0 
1.646907588095e+01 -3.095357277530e+02 0.0 
0.0 0.0 -1.255691412720e+02 
-8.111215160447e+01 1.365698499938e+01 0.0 
1.365698499938e+01 -1.383646866300e+02 0.0 
0.0 0.0 -6.544305147035e+01 
-1.062750446702e+02 3.781495103080e+01 0.0 
3.781495103080e+01 -2.581649334143e+02 0.0 
0.0 0.0 -1.089319934254e+02 
-6.953083222106e+01 1.513593932817e+01 0.0 
1.513593932817e+01 -8.949230814649e+01 0.0 
0.0 0.0 -4.730694211026e+01 
-1.192668567657e+02 1.209146892247e+01 0.0 
1.209146892247e+01 -3.237174149587e+02 0.0 
0.0 0.0 -1.324952815173e+02 
-6.886365781232e+01 1.029882346540e+01 0.0 
1.029882346540e+01 -2.314507292542e+02 0.0 
0.0 0.0 -9.465447536503e+01 
-1.127779230688e+02 1.726866159159e+01 0.0 
1.726866159159e+01 -3.106726930272e+02 0.0 
0.0 0.0 -1.266351848288e+02 
-6.767700416898e+01 3.087073529907e+01 0.0 
3.087073529907e+01 -1.948103835199e+02 0.0 
0.0 0.0 -7.900742689216e+01 
-8.874409487915e+01 1.976471857007e+01 0.0 
1.976471857007e+01 -1.626171760246e+02 0.0 
0.0 0.0 -7.500838127113e+01 
-1.110652501823e+02 3.970020299841e+01 0.0 
3.970020299841e+01 -2.620683027490e+02 0.0 
0.0 0.0 -1.115400658794e+02 
-7.834861631130e+01 1.070192507481e+01 0.0 
1.070192507481e+01 -2.566616718430e+02 0.0 
0.0 0.0 -1.061093394110e+02 
-3.891373539037e+01 4.457098668951e+00 0.0 
4.457098668951e+00 -1.453375941366e+02 0.0 
0.0 0.0 -5.283447958239e+01 
-1.037828569609e+02 2.992568547500e+01 0.0 
2.992568547500e+01 -2.802081158679e+02 0.0 
0.0 0.0 -1.147972918486e+02 
-7.039560535842e+01 2.659803128542e+01 0.0 
2.659803128542e+01 -2.102243170411e+02 0.0 
0.0 0.0 -8.366606133474e+01 
-5.665352448791e+01 1.512048722290e+01 0.0 
1.512048722290e+01 -1.930975778268e+02 0.0 
0.0 0.0 -7.429556587818e+01 
-8.458889611099e+01 1.436840104209e+01 0.0 
1.436840104209e+01 -2.650887798090e+02 0.0 
0.0 0.0 -1.081699412156e+02 
-1.173700633187e+02 1.047928915575e+01 0.0 
1.047928915575e+01 -3.166074538612e+02 0.0 
0.0 0.0 -1.297932551540e+02 
-4.065284574209e+01 -3.960325688477e+00 0.0 
-3.960325688477e+00 -1.436107431723e+02 0.0 
0.0 0.0 -5.239273923929e+01 
-7.125366265809e+01 9.104753168615e+00 0.0 
9.104753168615e+00 -2.404413881466e+02 0.0 
0.0 0.0 -9.910288147871e+01 
-7.897653171498e+01 3.249303652802e+01 0.0 
3.249303652802e+01 -1.499946845460e+02 0.0 
0.0 0.0 -6.829136487830e+01 
-1.412517242433e+02 4.475400253164e+00 0.0 
4.475400253164e+00 -3.474616271071e+02 0.0 
0.0 0.0 -1.462140054051e+02 
-8.214359962956e+01 3.366059237656e+01 0.0 
3.366059237656e+01 -1.686784373361e+02 0.0 
0.0 0.0 -7.484661108971e+01 
-9.843336590202e+01 3.098988161977e+01 0.0 
3.098988161977e+01 -2.659900673518e+02 0.0 
0.0 0.0 -1.089270299762e+02 
-7.576643320869e+01 3.086738595392e+01 0.0 
3.086738595392e+01 -1.310530173564e+02 0.0 
0.0 0.0 -6.164583516952e+01 
-6.839069578896e+01 2.581111366951e+01 0.0 
2.581111366951e+01 -9.238666070265e+01 0.0 
0.0 0.0 -4.783320694748e+01 
-7.840676282032e+01 3.442118607406e+01 0.0 
3.442118607406e+01 -1.844587408079e+02 0.0 
0.0 0.0 -7.845095686522e+01 
-1.138413317457e+02 2.248845846935e+01 0.0 
2.248845846935e+01 -3.104305667273e+02 0.0 
0.0 0.0 -1.268815695419e+02 
-1.258583524033e+02 5.346071354302e+00 0.0 
5.346071354302e+00 -3.232227858597e+02 0.0 
0.0 0.0 -1.343243414789e+02 
-7.628974589688e+01 1.789626322494e+01 0.0 
1.789626322494e+01 -1.128326539767e+02 0.0 
0.0 0.0 -5.633671996208e+01 
-9.149993931736e+01 2.482820886896e+01 0.0 
2.482820886896e+01 -1.807203598514e+02 0.0 
0.0 0.0 -8.126608975063e+01 
-7.242782512232e+01 2.869172400019e+01 0.0 
2.869172400019e+01 -1.119776075072e+02 0.0 
0.0 0.0 -5.492162978886e+01 
-5.042831960713e+01 1.031657041249e+01 0.0 
1.031657041249e+01 -1.759569505870e+02 0.0 
0.0 0.0 -6.488112227670e+01 
-1.098186718850e+02 3.323289941118e+01 0.0 
3.323289941118e+01 -2.845854956760e+02 0.0 
0.0 0.0 -1.179212502683e+02 
-8.599493395674e+01 1.583104508186e+01 0.0 
1.583104508186e+01 -1.602234839828e+02 0.0 
0.0 0.0 -7.346552538186e+01 
-6.646744299088e+01 2.719129999611e+01 0.0 
2.719129999611e+01 -2.069217235982e+02 0.0 
0.0 0.0 -8.426285906580e+01 
-6.925604770072e+01 2.902624847538e+01 0.0 
2.902624847538e+01 -2.094874727498e+02 0.0 
0.0 0.0 -8.497901129620e+01 
-5.511109507871e+01 1.102127931428e+01 0.0 
1.102127931428e+01 -1.898926610941e+02 0.0 
0.0 0.0 -7.166695955721e+01 
-8.078827098614e+01 2.164966880107e+01 0.0 
2.164966880107e+01 -1.289722280429e+02 0.0 
0.0 0.0 -6.252814970871e+01 
-5.693546171107e+01 3.355309159527e+01 0.0 
3.355309159527e+01 -1.262674206485e+02 0.0 
0.0 0.0 -5.194401980114e+01 
-7.693705935393e+01 2.527412930750e+01 0.0 
2.527412930750e+01 -2.384431834992e+02 0.0 
0.0 0.0 -9.689401089951e+01 
-5.579545582311e+01 3.171873143949e+01 0.0 
3.171873143949e+01 -1.261981455633e+02 0.0 
0.0 0.0 -5.074013224128e+01 
-1.024763336693e+02 2.101167156254e+01 0.0 
2.101167156254e+01 -2.928424841628e+02 0.0 
0.0 0.0 -1.181956453496e+02 
-1.205511514738e+02 3.464475749677e+01 0.0 
3.464475749677e+01 -3.020197629958e+02 0.0 
0.0 0.0 -1.263712743409e+02 
-5.857168078624e+01 7.408868853776e+00 0.0 
7.408868853776e+00 -2.006914163735e+02 0.0 
0.0 0.0 -7.741951241624e+01 
-3.238258943282e+01 -6.564026597890e+00 0.0 
-6.564026597890e+00 -1.234705324028e+02 0.0 
0.0 0.0 -4.818882872159e+01 
-9.431065675540e+01 2.910498104249e+01 0.0 
2.910498104249e+01 -1.906483894957e+02 0.0 
0.0 0.0 -8.508771387535e+01 
-5.968325227851e+01 3.350782105162e+01 0.0 
3.350782105162e+01 -1.268665609149e+02 0.0 
0.0 0.0 -5.193132653318e+01 
-7.278738546479e+01 8.889202574988e-01 0.0 
8.889202574988e-01 -2.323584351412e+02 0.0 
0.0 0.0 -9.520351420054e+01 
-1.141770461282e+02 3.134531976370e+01 0.0 
3.134531976370e+01 -2.981373184774e+02 0.0 
0.0 0.0 -1.232943093817e+02 
-8.044312904859e+01 2.185968129868e+01 0.0 
2.185968129868e+01 -1.152747167869e+02 0.0 
0.0 0.0 -5.831535375063e+01 
-1.205152446344e+02 5.559738907328e+00 0.0 
5.559738907328e+00 -3.150482026289e+02 0.0 
0.0 0.0 -1.302690341790e+02 
-5.595035757442e+01 2.163084060860e+01 0.0 
2.163084060860e+01 -1.830374294303e+02 0.0 
0.0 0.0 -7.155957532452e+01 
-2.958138217661e+01 -4.257516579306e+00 0.0 
-4.257516579306e+00 -1.242240931477e+02 0.0 
0.0 0.0 -4.890873824282e+01 
-1.462895817831e+02 4.091139452793e+00 0.0 
4.091139452793e+00 -3.566710686913e+02 0.0 
0.0 0.0 -1.504881951423e+02 
-7.358292085983e+01 3.242413965105e+01 0.0 
3.242413965105e+01 -1.981479696905e+02 0.0 
0.0 0.0 -7.909626405752e+01 
-9.179041836928e+01 2.417027969135e+01 0.0 
2.417027969135e+01 -2.687285977307e+02 0.0 
0.0 0.0 -1.077557048300e+02 
-1.068445275226e+02 3.483901733708e+01 0.0 
3.483901733708e+01 -2.717978373141e+02 0.0 
0.0 0.0 -1.131927094510e+02 
-3.861033016909e+01 -5.158406004354e-01 0.0 
-5.158406004354e-01 -1.234048854403e+02 0.0 
0.0 0.0 -5.045803890753e+01 
-1.179682522548e+02 4.400797024606e+00 0.0 
4.400797024606e+00 -3.137123281866e+02 0.0 
0.0 0.0 -1.291041741324e+02 
-4.427166214059e+01 2.308971081565e+01 0.0 
2.308971081565e+01 -1.351521256082e+02 0.0 
0.0 0.0 -4.934860312802e+01 
-7.474144290970e+01 1.960303709484e+01 0.0 
1.960303709484e+01 -9.243385316055e+01 0.0 
0.0 0.0 -4.975258882108e+01 
-1.038346898152e+02 -2.357228117614e+00 0.0 
-2.357228117614e+00 -2.564387768934e+02 0.0 
0.0 0.0 -1.041986551969e+02 
-5.726452354859e+01 1.085111065996e+01 0.0 
1.085111065996e+01 -2.021611973554e+02 0.0 
0.0 0.0 -7.767279143559e+01 
-1.361756387827e+02 4.791518253699e+00 0.0 
4.791518253699e+00 -3.392460334151e+02 0.0 
0.0 0.0 -1.422265016593e+02 
-7.486537924037e+01 2.812117504438e+01 0.0 
2.812117504438e+01 -2.259043083533e+02 0.0 
0.0 0.0 -9.148304016272e+01 
-5.278004421743e+01 1.053299155748e+01 0.0 
1.053299155748e+01 -1.875762880179e+02 0.0 
0.0 0.0 -7.056643058109e+01 
-7.346486799912e+01 3.251296837496e+01 0.0 
3.251296837496e+01 -1.993481697253e+02 0.0 
0.0 0.0 -8.144391131733e+01 
-3.575826586417e+01 -1.878929371408e+01 0.0 
-1.878929371408e+01 -1.164701548847e+02 0.0 
0.0 0.0 -4.747789165119e+01 
-8.943710861255e+01 3.391386428137e+01 0.0 
3.391386428137e+01 -2.356654770076e+02 0.0 
0.0 0.0 -9.713077568605e+01 
-1.044204340342e+02 2.195730364340e+01 0.0 
2.195730364340e+01 -2.938694798946e+02 0.0 
0.0 0.0 -1.190869741786e+02 
-1.130432759738e+02 3.953993514775e+01 0.0 
3.953993514775e+01 -2.616285131556e+02 0.0 
0.0 0.0 -1.120015367388e+02 
-9.860678250417e+01 3.474676520407e+01 0.0 
3.474676520407e+01 -2.540529606817e+02 0.0 
0.0 0.0 -1.053979229558e+02 
-4.475231408102e+01 4.045285741973e+00 0.0 
4.045285741973e+00 -1.594514706425e+02 0.0 
0.0 0.0 -5.725202410177e+01 
-1.214008412479e+02 4.001700780634e+00 0.0 
4.001700780634e+00 -3.127479744067e+02 0.0 
0.0 0.0 -1.298446446964e+02 
-8.501822867814e+01 1.620683556150e+01 0.0 
1.620683556150e+01 -1.696121808095e+02 0.0 
0.0 0.0 -7.598912284628e+01 
-1.379488686561e+02 3.054565421557e+01 0.0 
3.054565421557e+01 -3.392307311708e+02 0.0 
0.0 0.0 -1.427538799481e+02 
-1.093314704519e+02 2.454811513149e+01 0.0 
2.454811513149e+01 -2.994093322556e+02 0.0 
0.0 0.0 -1.222222408122e+02 
-5.843500612571e+01 1.873134845554e+01 0.0 
1.873134845554e+01 -1.959712525091e+02 0.0 
0.0 0.0 -7.707305108873e+01 
-8.080154432874e+01 3.343086064776e+01 0.0 
3.343086064776e+01 -2.173759792434e+02 0.0 
0.0 0.0 -8.905325707165e+01 
-1.398058199310e+02 1.720542466121e+00 0.0 
1.720542466121e+00 -3.439640742743e+02 0.0 
0.0 0.0 -1.447309682616e+02 
-1.032049740572e+02 -7.118002010379e-01 0.0 
-7.118002010379e-01 -2.346585714535e+02 0.0 
0.0 0.0 -9.696905581115e+01 
-9.363651113615e+01 3.193600011430e+01 0.0 
3.193600011430e+01 -2.510944696649e+02 0.0 
0.0 0.0 -1.030192942403e+02 
-7.107040947984e+01 1.379105118414e+01 0.0 
1.379105118414e+01 -9.751896512116e+01 0.0 
0.0 0.0 -5.017681238030e+01 
-1.310672569981e+02 5.099976884033e+00 0.0 
5.099976884033e+00 -3.312470060855e+02 0.0 
0.0 0.0 -1.382942789251e+02 
-1.248649126322e+02 7.298876550547e+00 0.0 
7.298876550547e+00 -3.250230425899e+02 0.0 
0.0 0.0 -1.345663865666e+02 
-2.538275380013e+01 4.329672800838e-02 0.0 
4.329672800838e-02 -8.308421227941e+00 0.0 
0.0 0.0 -9.707352508422e+00 
-2.529178131471e+01 -1.689619315119e-02 0.0 
-1.689619315119e-02 -8.294633031548e+00 0.0 
0.0 0.0 -9.675924303877e+00 
-8.276477678382e+01 3.448292980152e+01 0.0 
3.448292980152e+01 -1.532417953596e+02 0.0 
0.0 0.0 -7.040197164304e+01 
-8.506375107206e+01 3.140883360419e+01 0.0 
3.140883360419e+01 -2.332441113919e+02 0.0 
0.0 0.0 -9.509235873919e+01 
-1.077007442919e+02 -1.432760903917e+00 0.0 
-1.432760903917e+00 -2.642656054516e+02 0.0 
0.0 0.0 -1.082271366055e+02 
-8.170188514700e+01 3.636251870923e+01 0.0 
3.636251870923e+01 -1.857666516347e+02 0.0 
0.0 0.0 -7.984056103452e+01 
-7.148301881736e+01 2.670468883698e+01 0.0 
2.670468883698e+01 -2.232128326248e+02 0.0 
0.0 0.0 -9.085771119841e+01 
-1.286073346367e+02 1.709342929256e+01 0.0 
1.709342929256e+01 -3.366992024128e+02 0.0 
0.0 0.0 -1.391919611149e+02 
-6.027442396507e+01 2.231288420139e+01 0.0 
2.231288420139e+01 -1.999975037943e+02 0.0 
0.0 0.0 -8.000482130001e+01 
-9.940756297344e+01 2.814835004090e+01 0.0 
2.814835004090e+01 -2.181039819401e+02 0.0 
0.0 0.0 -9.485346347407e+01 
-6.369187571844e+01 2.508783395599e+01 0.0 
2.508783395599e+01 -7.046347585646e+01 0.0 
0.0 0.0 -3.984660547247e+01 
-6.724000675905e+01 2.511596831097e+01 0.0 
2.511596831097e+01 -2.059420155271e+02 0.0 
0.0 0.0 -8.255075547546e+01 
-9.757561509251e+01 -2.108505710925e+00 0.0 
-2.108505710925e+00 -2.549693309598e+02 0.0 
0.0 0.0 -1.034823945284e+02 
-4.187321800545e+01 9.901941955920e+00 0.0 
9.901941955920e+00 -1.483811937003e+02 0.0 
0.0 0.0 -5.233289111418e+01 
-9.343509305254e+01 -5.841154021505e+00 0.0 
-5.841154021505e+00 -2.294395748788e+02 0.0 
0.0 0.0 -9.429122804052e+01 
-7.843810536112e+01 3.187132050768e+01 0.0 
3.187132050768e+01 -2.157576766528e+02 0.0 
0.0 0.0 -8.716146783479e+01 
-7.368981033712e+01 3.396619539418e+01 0.0 
3.396619539418e+01 -1.824182548550e+02 0.0 
0.0 0.0 -7.478984700684e+01 
-7.490527654922e+01 1.954717716790e+01 0.0 
1.954717716790e+01 -1.060849826146e+02 0.0 
0.0 0.0 -5.389707774916e+01 
-8.537482255012e+01 3.459205130292e+01 0.0 
3.459205130292e+01 -2.033885176012e+02 0.0 
0.0 0.0 -8.622900204541e+01 
-8.920059077341e+01 3.674212479926e+01 0.0 
3.674212479926e+01 -2.052762932335e+02 0.0 
0.0 0.0 -8.794306520209e+01 
-1.519414794276e+01 -5.197998412556e-02 0.0 
-5.197998412556e-02 -5.949651587572e+01 0.0 
0.0 0.0 -2.067955957843e+01 
-8.581309776141e+01 -5.979163381779e+00 0.0 
-5.979163381779e+00 -2.162398570049e+02 0.0 
0.0 0.0 -8.666697221248e+01 
-5.802400878246e+01 3.265567370578e+01 0.0 
3.265567370578e+01 -1.267703409113e+02 0.0 
0.0 0.0 -5.069771892680e+01 
-7.881710125780e+01 3.413354951461e+01 0.0 
3.413354951461e+01 -1.672482026669e+02 0.0 
0.0 0.0 -7.341959117740e+01 
-8.227252125309e+01 3.610450487260e+01 0.0 
3.610450487260e+01 -1.694293170918e+02 0.0 
0.0 0.0 -7.511055150348e+01 
-1.202741776164e+02 2.145978629751e+01 0.0 
2.145978629751e+01 -3.216081785443e+02 0.0 
0.0 0.0 -1.321647068482e+02 
-3.232747695341e+01 -1.414436890149e+00 0.0 
-1.414436890149e+00 -8.973727390692e+01 0.0 
0.0 0.0 -3.439629158513e+01 
-4.100988490507e+01 -1.118764494242e+01 0.0 
-1.118764494242e+01 -1.364353675429e+02 0.0 
0.0 0.0 -5.009472798215e+01 
-7.092919499845e+01 3.164450380540e+01 0.0 
3.164450380540e+01 -1.966361637631e+02 0.0 
0.0 0.0 -7.929638994455e+01 
-9.129242606122e+01 -6.520826091465e+00 0.0 
-6.520826091465e+00 -2.175786737043e+02 0.0 
0.0 0.0 -8.906698900510e+01 
-4.901680457297e+01 3.060555272225e+01 0.0 
3.060555272225e+01 -2.812446467766e+01 0.0 
0.0 0.0 -2.107580490960e+01 
-5.251627564027e+01 3.032926485877e+01 0.0 
3.032926485877e+01 -2.556063788885e+01 0.0 
0.0 0.0 -2.206167587313e+01 
-7.842185202256e+01 2.373540395747e+01 0.0 
2.373540395747e+01 -1.082849036291e+02 0.0 
0.0 0.0 -5.561202669551e+01 
-3.826202135346e+01 2.364738436922e+01 0.0 
2.364738436922e+01 -1.052484051821e+02 0.0 
0.0 0.0 -3.668650115945e+01 
-9.640501073754e+01 -3.423473209480e+00 0.0 
-3.423473209480e+00 -2.437919721124e+02 0.0 
0.0 0.0 -9.882755878257e+01 
-1.085041399962e+02 1.455854854191e+01 0.0 
1.455854854191e+01 -3.039923712123e+02 0.0 
0.0 0.0 -1.233489533626e+02 
-3.695930336929e+01 -3.030064100729e+00 0.0 
-3.030064100729e+00 -1.389396659619e+02 0.0 
0.0 0.0 -5.114233075933e+01 
-1.293380258026e+02 3.732148765967e+01 0.0 
3.732148765967e+01 -3.107902168788e+02 0.0 
0.0 0.0 -1.316384728044e+02 
-8.790603765412e+01 2.083023727478e+01 0.0 
2.083023727478e+01 -1.533126331064e+02 0.0 
0.0 0.0 -7.196560122815e+01 
-9.950872236644e+01 -3.801278482325e+00 0.0 
-3.801278482325e+00 -2.333483662255e+02 0.0 
0.0 0.0 -9.466533107833e+01 
-1.246372595034e+02 2.544715670291e+00 0.0 
2.544715670291e+00 -3.196991265562e+02 0.0 
0.0 0.0 -1.329009158179e+02 
-9.775482145774e+00 -1.332163310886e+00 0.0 
-1.332163310886e+00 -4.222312342784e+01 0.0 
0.0 0.0 -1.347222981647e+01 
-1.045103591514e+02 1.172256731318e+01 0.0 
1.172256731318e+01 -2.967366508922e+02 0.0 
0.0 0.0 -1.206608953478e+02 
-7.050686276217e+01 3.043089358392e+01 0.0 
3.043089358392e+01 -1.975602000305e+02 0.0 
0.0 0.0 -7.967100898166e+01 
-1.004127062375e+01 -8.782700276185e-01 0.0 
-8.782700276185e-01 -4.211368100714e+01 0.0 
0.0 0.0 -1.332773010466e+01 
-8.352166809636e+01 1.801820922022e+01 0.0 
1.801820922022e+01 -1.510827300119e+02 0.0 
0.0 0.0 -6.998131943247e+01 
-3.630790010120e+01 -5.344911001733e+00 0.0 
-5.344911001733e+00 -1.325373190364e+02 0.0 
0.0 0.0 -4.975615978772e+01 
-7.835737206371e+01 3.626436924566e+01 0.0 
3.626436924566e+01 -1.675195975764e+02 0.0 
0.0 0.0 -7.336309089202e+01 
-7.087161144736e+01 3.341929151207e+01 0.0 
3.341929151207e+01 -1.823757958009e+02 0.0 
0.0 0.0 -7.525691087267e+01 
-7.251279925539e+01 -6.254981747392e-01 0.0 
-6.254981747392e-01 -2.302339020643e+02 0.0 
0.0 0.0 -9.443598967720e+01 
-9.120268465970e+01 3.632155187727e+00 0.0 
3.632155187727e+00 -2.696708773595e+02 0.0 
0.0 0.0 -1.091646591910e+02 
-8.743072169553e+01 2.137394830858e+01 0.0 
2.137394830858e+01 -1.651840703473e+02 0.0 
0.0 0.0 -7.538443761284e+01 
-9.989758675028e+01 5.317560281833e+00 0.0 
5.317560281833e+00 -2.878902918883e+02 0.0 
0.0 0.0 -1.159363635916e+02 
-7.275145662670e+01 3.008118980034e+01 0.0 
3.008118980034e+01 -2.118380143034e+02 0.0 
0.0 0.0 -8.554531934993e+01 
-6.829727694825e+01 2.852942034204e+01 0.0 
2.852942034204e+01 -1.954163737868e+02 0.0 
0.0 0.0 -7.746641334472e+01 
-4.739348759244e+01 3.322227183487e+01 0.0 
3.322227183487e+01 -3.202240886304e+01 0.0 
0.0 0.0 -2.055777806446e+01 
-3.301294578789e+01 -4.111450877273e+00 0.0 
-4.111450877273e+00 -1.294832436720e+02 0.0 
0.0 0.0 -4.910798536847e+01 
-1.038637766076e+02 3.400009131018e+01 0.0 
3.400009131018e+01 -2.696346382683e+02 0.0 
0.0 0.0 -1.116495244628e+02 
-7.315280209033e+01 2.817986714506e+01 0.0 
2.817986714506e+01 -9.728325599490e+01 0.0 
0.0 0.0 -5.073081742557e+01 
-1.079486517397e+02 3.225879381955e+01 0.0 
3.225879381955e+01 -2.835432233699e+02 0.0 
0.0 0.0 -1.170475625329e+02 
-4.738760405445e+01 2.743229958777e+01 0.0 
2.743229958777e+01 -1.388435122835e+02 0.0 
0.0 0.0 -5.336553738184e+01 
-9.014119147202e+01 3.153998638289e+01 0.0 
3.153998638289e+01 -1.771159936219e+02 0.0 
0.0 0.0 -7.977715552817e+01 
-1.081595822671e+02 3.601621414586e+01 0.0 
3.601621414586e+01 -2.724825819745e+02 0.0 
0.0 0.0 -1.137926492725e+02 
-6.010926212078e+01 2.683374404043e+01 0.0 
2.683374404043e+01 -4.881079176327e+01 0.0 
0.0 0.0 -3.149969174504e+01 
-1.027707265921e+02 3.278706831574e+01 0.0 
3.278706831574e+01 -2.688700130864e+02 0.0 
0.0 0.0 -1.110922219035e+02 
-1.263658213969e+02 3.904561014805e+00 0.0 
3.904561014805e+00 -3.207391956273e+02 0.0 
0.0 0.0 -1.337315051072e+02 
-8.091530387740e+01 2.991999986479e+01 0.0 
2.991999986479e+01 -2.309324043761e+02 0.0 
0.0 0.0 -9.310095165674e+01 
-9.206527278276e+01 -4.007040990483e+00 0.0 
-4.007040990483e+00 -2.357882740934e+02 0.0 
0.0 0.0 -9.465748808383e+01 
-9.967424937986e+01 -3.419311353488e+00 0.0 
-3.419311353488e+00 -2.486541218052e+02 0.0 
0.0 0.0 -1.015498816948e+02 
-9.867741476787e+01 3.235337344689e+01 0.0 
3.235337344689e+01 -1.938600219263e+02 0.0 
0.0 0.0 -8.736123100824e+01 
-8.491965766310e+01 1.950945077365e+00 0.0 
1.950945077365e+00 -2.508031071854e+02 0.0 
0.0 0.0 -1.028599154733e+02 
-7.607800955419e+01 3.321344804697e+01 0.0 
3.321344804697e+01 -1.995299571802e+02 0.0 
0.0 0.0 -8.105550793913e+01 
-7.047533562836e+01 2.180080731379e+01 0.0 
2.180080731379e+01 -2.321406426698e+02 0.0 
0.0 0.0 -9.491335130289e+01 
-1.100963585487e+02 7.218378283237e+00 0.0 
7.218378283237e+00 -3.062320032121e+02 0.0 
0.0 0.0 -1.244985085282e+02 
-6.407190073502e+01 2.346151506816e+01 0.0 
2.346151506816e+01 -2.016643043457e+02 0.0 
0.0 0.0 -8.108085028998e+01 
-4.634926641480e+01 4.807291516238e+00 0.0 
4.807291516238e+00 -1.688399708038e+02 0.0 
0.0 0.0 -6.122627746323e+01 
-7.588137121036e+01 7.401474567575e+00 0.0 
7.401474567575e+00 -2.488682963812e+02 0.0 
0.0 0.0 -1.033441690564e+02 
-4.842773555215e+01 1.017894866455e+01 0.0 
1.017894866455e+01 -1.740461179291e+02 0.0 
0.0 0.0 -6.385750711811e+01 
-8.193085958684e+01 3.454700822720e+01 0.0 
3.454700822720e+01 -1.854932045134e+02 0.0 
0.0 0.0 -7.982721923008e+01 
-4.922613900276e+01 5.000005637672e+00 0.0 
5.000005637672e+00 -1.727636140011e+02 0.0 
0.0 0.0 -6.325437829591e+01 
-7.772601683812e+01 3.604460151457e+01 0.0 
3.604460151457e+01 -1.844956814434e+02 0.0 
0.0 0.0 -7.826650948446e+01 
-1.157652515193e+02 2.354846269386e+01 0.0 
2.354846269386e+01 -3.114793615367e+02 0.0 
0.0 0.0 -1.277733839168e+02 
-1.087969115264e+02 1.995949895339e+01 0.0 
1.995949895339e+01 -3.045460290147e+02 0.0 
0.0 0.0 -1.236028821623e+02 
-6.328933868559e+01 2.506174729318e+01 0.0 
2.506174729318e+01 -2.035497160172e+02 0.0 
0.0 0.0 -8.282208458007e+01 
-7.331172831046e+01 2.150233687080e+01 0.0 
2.150233687080e+01 -1.006139466980e+02 0.0 
0.0 0.0 -5.177770250255e+01 
-1.299144443910e+02 2.322339518207e+00 0.0 
2.322339518207e+00 -3.278631864242e+02 0.0 
0.0 0.0 -1.369332892445e+02 
-1.313176824993e+02 3.710880885670e+00 0.0 
3.710880885670e+00 -3.287766615313e+02 0.0 
0.0 0.0 -1.376283032092e+02 
-3.918348298497e+01 2.751925026266e+01 0.0 
2.751925026266e+01 -9.057056263033e+01 0.0 
0.0 0.0 -3.500993192172e+01 
-8.156024198342e+01 3.411023456836e+01 0.0 
3.411023456836e+01 -2.019481147179e+02 0.0 
0.0 0.0 -8.465250701039e+01 
-1.458021464410e+02 2.433201975360e+00 0.0 
2.433201975360e+00 -3.559258692647e+02 0.0 
0.0 0.0 -1.501184047117e+02 
-4.703379454598e+01 3.121369713879e+01 0.0 
3.121369713879e+01 -7.005738398717e+01 0.0 
0.0 0.0 -3.042296659099e+01 
-1.056144910626e+02 -2.278770753807e+00 0.0 
-2.278770753807e+00 -2.528071458735e+02 0.0 
0.0 0.0 -1.034655896298e+02 
-4.842289816533e+01 3.348895857766e+01 0.0 
3.348895857766e+01 -3.121741419277e+01 0.0 
0.0 0.0 -2.145186126032e+01 
-1.350526796824e+02 2.052565304923e+00 0.0 
2.052565304923e+00 -3.360343951352e+02 0.0 
0.0 0.0 -1.409261224453e+02 
-4.424033135177e+01 1.022240905799e+01 0.0 
1.022240905799e+01 -1.612214608573e+02 0.0 
0.0 0.0 -5.831469455409e+01 
-1.047877700513e+02 -1.586796720944e+00 0.0 
-1.586796720944e+00 -2.405654187478e+02 0.0 
0.0 0.0 -9.959366756134e+01 
-9.020559125029e+01 2.335548666621e+01 0.0 
2.335548666621e+01 -2.679148018320e+02 0.0 
0.0 0.0 -1.075834470896e+02 
-7.631709404048e+01 2.567551115713e+01 0.0 
2.567551115713e+01 -1.026671654697e+02 0.0 
0.0 0.0 -5.329527785304e+01 
-7.177103753776e+01 2.368582360097e+01 0.0 
2.368582360097e+01 -9.585830369393e+01 0.0 
0.0 0.0 -4.988880236951e+01 
-7.576993561276e+01 3.107449810202e+01 0.0 
3.107449810202e+01 -2.139676339973e+02 0.0 
0.0 0.0 -8.561207414558e+01 
-4.516945950325e+01 2.944491191563e+01 0.0 
2.944491191563e+01 -2.868191965636e+01 0.0 
0.0 0.0 -1.863739139861e+01 
-4.645024126615e+01 2.977261274878e+01 0.0 
2.977261274878e+01 -2.860317260849e+01 0.0 
0.0 0.0 -1.980724537505e+01 
-1.360638231312e+02 3.392148987266e+00 0.0 
3.392148987266e+00 -3.367771990794e+02 0.0 
0.0 0.0 -1.414523066632e+02 
-9.772248944897e+01 6.355339621132e+00 0.0 
6.355339621132e+00 -2.805138894435e+02 0.0 
0.0 0.0 -1.155027647338e+02 
-7.773351007256e+01 2.493886700008e+00 0.0 
2.493886700008e+00 -2.466693543649e+02 0.0 
0.0 0.0 -1.016953916598e+02 
-1.011402325717e+02 1.105621576023e+01 0.0 
1.105621576023e+01 -2.951841926398e+02 0.0 
0.0 0.0 -1.188180816937e+02 
-6.899676721889e+01 5.685994342807e+00 0.0 
5.685994342807e+00 -2.317734915869e+02 0.0 
0.0 0.0 -9.501617205657e+01 
-4.592608745625e+01 9.852111855930e+00 0.0 
9.852111855930e+00 -1.619529384240e+02 0.0 
0.0 0.0 -5.819392636295e+01 
-4.021313677247e+01 2.579674433062e+01 0.0 
2.579674433062e+01 -2.642610458928e+01 0.0 
0.0 0.0 -1.717318484523e+01 
-6.713337894144e+01 2.671387482750e+01 0.0 
2.671387482750e+01 -7.471454646886e+01 0.0 
0.0 0.0 -4.215437762309e+01 
-2.528778619762e+01 1.637147861470e-02 0.0 
1.637147861470e-02 -8.357179013735e+00 0.0 
0.0 0.0 -9.693489563407e+00 
-1.108179879052e+02 2.093811963364e+01 0.0 
2.093811963364e+01 -3.056023631443e+02 0.0 
0.0 0.0 -1.245261053149e+02 
-6.094317789592e+01 2.148820052004e+01 0.0 
2.148820052004e+01 -1.984578712508e+02 0.0 
0.0 0.0 -7.954315456044e+01 
-1.304899950305e+02 2.676306063831e+01 0.0 
2.676306063831e+01 -3.333740737959e+02 0.0 
0.0 0.0 -1.387592206479e+02 
-1.348521507692e+02 -8.567317343541e-02 0.0 
-8.567317343541e-02 -3.317780105603e+02 0.0 
0.0 0.0 -1.395890483988e+02 
-7.367083479355e+01 8.385026923188e+00 0.0 
8.385026923188e+00 -2.426063057755e+02 0.0 
0.0 0.0 -9.998781968757e+01 
-1.519891270219e+02 5.043584160214e+00 0.0 
5.043584160214e+00 -3.667354139861e+02 0.0 
0.0 0.0 -1.552173623024e+02 
-5.323926858654e+01 7.912974587791e-01 0.0 
7.912974587791e-01 -1.821418797922e+02 0.0 
0.0 0.0 -6.840917297725e+01 
-1.233803068553e+02 2.763065980592e+01 0.0 
2.763065980592e+01 -3.206238273194e+02 0.0 
0.0 0.0 -1.328012402524e+02 
-7.322803418990e+01 2.915969660232e+01 0.0 
2.915969660232e+01 -2.132596329484e+02 0.0 
0.0 0.0 -8.554630014148e+01 
-8.487021453477e+01 2.831704270939e+01 0.0 
2.831704270939e+01 -2.452111466835e+02 0.0 
0.0 0.0 -9.862440836550e+01 
-1.262702018430e+02 1.546435981768e+01 0.0 
1.546435981768e+01 -3.321243215614e+02 0.0 
0.0 0.0 -1.371183570213e+02 
-7.378850409946e+01 -1.316654156849e+01 0.0 
-1.316654156849e+01 -1.821571159366e+02 0.0 
0.0 0.0 -7.503453499850e+01 
-7.850541682033e+01 3.377566115483e+01 0.0 
3.377566115483e+01 -2.007392715378e+02 0.0 
0.0 0.0 -8.295384177229e+01 
-7.265115647465e+01 3.933405735682e+00 0.0 
3.933405735682e+00 -2.371306275177e+02 0.0 
0.0 0.0 -9.732239000464e+01 
-7.393196578852e+01 3.494524474123e+01 0.0 
3.494524474123e+01 -1.834548185444e+02 0.0 
0.0 0.0 -7.681603529987e+01 
-4.602119772224e+01 2.550520814512e+01 0.0 
2.550520814512e+01 -1.357297502745e+02 0.0 
0.0 0.0 -5.126259742392e+01 
-8.928768412506e+01 2.693491821825e+01 0.0 
2.693491821825e+01 -2.587977980735e+02 0.0 
0.0 0.0 -1.040256446596e+02 
-6.735044521919e+01 1.773053739695e+00 0.0 
1.773053739695e+00 -2.237169027788e+02 0.0 
0.0 0.0 -9.110519140204e+01 
-1.018450677261e+02 -1.713438921283e+00 0.0 
-1.713438921283e+00 -2.629252675796e+02 0.0 
0.0 0.0 -1.074166534196e+02 
-7.601182950775e+01 3.442452796452e+01 0.0 
3.442452796452e+01 -1.833706206116e+02 0.0 
0.0 0.0 -7.663260641643e+01 
-4.959498142815e+01 3.807897535547e+01 0.0 
3.807897535547e+01 -5.888321195911e+01 0.0 
0.0 0.0 -3.149986105502e+01 
-7.658492058192e+01 2.069223481234e+01 0.0 
2.069223481234e+01 -2.467393845475e+02 0.0 
0.0 0.0 -1.013796319036e+02 
-4.756007466648e+01 3.300916776254e+01 0.0 
3.300916776254e+01 -5.160475009066e+01 0.0 
0.0 0.0 -2.592461296073e+01 
-2.178628399554e+01 -5.282777165767e+00 0.0 
-5.282777165767e+00 -6.384447919847e+01 0.0 
0.0 0.0 -2.284360470334e+01 
-1.005443425874e+02 -2.864855846512e+00 0.0 
-2.864855846512e+00 -2.516203372808e+02 0.0 
0.0 0.0 -1.027467077867e+02 
-9.790905423898e+01 3.668096107024e+01 0.0 
3.668096107024e+01 -2.398532367277e+02 0.0 
0.0 0.0 -1.009286872900e+02 
-7.525721978499e+01 2.697896302770e+01 0.0 
2.697896302770e+01 -1.144683781932e+02 0.0 
0.0 0.0 -5.651767939346e+01 
-4.356056671321e+01 2.888648422249e+01 0.0 
2.888648422249e+01 -2.873745743602e+01 0.0 
0.0 0.0 -1.636543450716e+01 
-9.283039069875e+01 2.809435715421e+01 0.0 
2.809435715421e+01 -2.179375782971e+02 0.0 
0.0 0.0 -9.283039069875e+01 
-4.952999448575e+01 3.468502620277e+01 0.0 
3.468502620277e+01 -3.226451246171e+01 0.0 
0.0 0.0 -2.496265559239e+01 
-4.362106035294e+01 2.874099487416e+01 0.0 
2.874099487416e+01 -2.861932771850e+01 0.0 
0.0 0.0 -1.739567719396e+01 
-8.036040271454e+01 4.501965931749e+00 0.0 
4.501965931749e+00 -2.505487031871e+02 0.0 
0.0 0.0 -1.037703347091e+02 
-1.031590015285e+02 -2.718228815337e+00 0.0 
-2.718228815337e+00 -2.413061325510e+02 0.0 
0.0 0.0 -9.873190168952e+01 
-5.460939034288e+01 3.317717249431e+01 0.0 
3.317717249431e+01 -6.899704207341e+01 0.0 
0.0 0.0 -3.386632211113e+01 
-5.630114302340e+01 -6.599791811606e+00 0.0 
-6.599791811606e+00 -1.860228006479e+02 0.0 
0.0 0.0 -7.188164297252e+01 
-9.108985022682e+01 2.301116563474e+00 0.0 
2.301116563474e+00 -2.637153488230e+02 0.0 
0.0 0.0 -1.094577833567e+02 
-7.705962725922e+01 3.168766710070e+01 0.0 
3.168766710070e+01 -2.156953426348e+02 0.0 
0.0 0.0 -8.742649096820e+01 
-8.554669856666e+01 2.115147818567e+01 0.0 
2.115147818567e+01 -2.634036360810e+02 0.0 
0.0 0.0 -1.065985635396e+02 
-9.832517334182e+01 3.592390124708e+01 0.0 
3.592390124708e+01 -2.263728865105e+02 0.0 
0.0 0.0 -9.700941795570e+01 
-4.171769494732e+01 2.688221588416e+01 0.0 
2.688221588416e+01 -1.127314525160e+02 0.0 
0.0 0.0 -4.305180377713e+01 
-9.478480920440e+01 -4.371277922008e+00 0.0 
-4.371277922008e+00 -2.322564011207e+02 0.0 
0.0 0.0 -9.404116305485e+01 
-1.028224830134e+02 -2.961253522959e+00 0.0 
-2.961253522959e+00 -2.483755008606e+02 0.0 
0.0 0.0 -1.019975529501e+02 
-5.829721267359e+01 -1.270576623685e+01 0.0 
-1.270576623685e+01 -1.346228042325e+02 0.0 
0.0 0.0 -5.434302285060e+01 
-5.871627653261e+01 2.344576618825e+01 0.0 
2.344576618825e+01 -4.965393146038e+01 0.0 
0.0 0.0 -3.189251907851e+01 
-7.628214505922e+01 3.065981230991e+01 0.0 
3.065981230991e+01 -1.156422820108e+02 0.0 
0.0 0.0 -5.717732812102e+01 
-1.240840174917e+02 9.368913591946e-01 0.0 
9.368913591946e-01 -3.034970923767e+02 0.0 
0.0 0.0 -1.271282429383e+02 
-1.353792344114e+01 -6.766083353406e-01 0.0 
-6.766083353406e-01 -4.292777369767e+01 0.0 
0.0 0.0 -1.389920124810e+01 
-5.051642590465e+01 -8.008453963000e+00 0.0 
-8.008453963000e+00 -1.172528115725e+02 0.0 
0.0 0.0 -5.170916255196e+01 
-4.036571902899e+01 -1.089893040332e+01 0.0 
-1.089893040332e+01 -9.174603632581e+01 0.0 
0.0 0.0 -3.587469559169e+01 
-1.065757762337e+02 -1.762959032714e+00 0.0 
-1.762959032714e+00 -2.493780987987e+02 0.0 
0.0 0.0 -1.026713506259e+02 
-5.769191054915e+01 2.369068498726e+00 0.0 
2.369068498726e+00 -1.962380835969e+02 0.0 
0.0 0.0 -7.533842621584e+01 
-5.690556094939e+01 -7.699755678411e+00 0.0 
-7.699755678411e+00 -1.826228302304e+02 0.0 
0.0 0.0 -7.110810615465e+01 
-4.849627635944e+01 -8.517145052321e-01 0.0 
-8.517145052321e-01 -1.686291971293e+02 0.0 
0.0 0.0 -6.202862241432e+01 
-1.045749317478e+02 -2.311073148518e+00 0.0 
-2.311073148518e+00 -2.595942418269e+02 0.0 
0.0 0.0 -1.066198453484e+02 
-8.176413422338e+01 3.140541289165e+01 0.0 
3.140541289165e+01 -1.519605658992e+02 0.0 
0.0 0.0 -6.971741003676e+01 
-1.066274505131e+02 -2.313050235659e+00 0.0 
-2.313050235659e+00 -2.565781991282e+02 0.0 
0.0 0.0 -1.058787984936e+02 
-5.543914314873e+01 6.323135768542e+00 0.0 
6.323135768542e+00 -1.960192594209e+02 0.0 
0.0 0.0 -7.434001904184e+01 
-8.115850328424e+01 3.553953646781e+01 0.0 
3.553953646781e+01 -2.020435339097e+02 0.0 
0.0 0.0 -8.456061115817e+01 
-4.719516550366e+01 3.874318359707e+00 0.0 
3.874318359707e+00 -3.977741524617e+01 0.0 
0.0 0.0 -2.569177422495e+01 
-1.010792938202e+02 2.449158646767e+01 0.0 
2.449158646767e+01 -2.857940610259e+02 0.0 
0.0 0.0 -1.156620064538e+02 
-1.097854149265e+02 -9.147049835787e-01 0.0 
-9.147049835787e-01 -2.575335366092e+02 0.0 
0.0 0.0 -1.065261127981e+02 
-1.091124721201e+02 -1.382122358528e+00 0.0 
-1.382122358528e+00 -2.607162164718e+02 0.0 
0.0 0.0 -1.073631061599e+02 
-4.283213106217e+01 2.857095671691e+01 0.0 
2.857095671691e+01 -2.832260757316e+01 0.0 
0.0 0.0 -1.646028012255e+01 
-6.166383493291e+01 -7.041892204591e-01 0.0 
-7.041892204591e-01 -2.045645158508e+02 0.0 
0.0 0.0 -8.078498872936e+01 
-1.102570847755e+02 -1.720155898409e+00 0.0 
-1.720155898409e+00 -2.648003541592e+02 0.0 
0.0 0.0 -1.097211814841e+02 
-5.312401834651e+01 -2.850509327447e-01 0.0 
-2.850509327447e-01 -7.969646623013e+01 0.0 
0.0 0.0 -3.944614537299e+01 
-4.647399981693e+01 -4.922654145132e-01 0.0 
-4.922654145132e-01 -6.128520599216e+01 0.0 
0.0 0.0 -3.192776174273e+01 
-4.291070973858e+01 2.863293904044e+01 0.0 
2.863293904044e+01 -2.849043044964e+01 0.0 
0.0 0.0 -1.547571290354e+01 
-1.085257842163e+02 -1.787439202535e+00 0.0 
-1.787439202535e+00 -2.677061002638e+02 0.0 
0.0 0.0 -1.104884666210e+02 
-6.122826865120e+01 -1.383601165672e+01 0.0 
-1.383601165672e+01 -1.791012352926e+02 0.0 
0.0 0.0 -7.205303677604e+01 
-4.674917110562e+01 3.378412808182e+01 0.0 
3.378412808182e+01 -7.119368461149e+01 0.0 
0.0 0.0 -3.099496470611e+01 
-1.258065410446e+02 2.870475557824e+01 0.0 
2.870475557824e+01 -3.219868085301e+02 0.0 
0.0 0.0 -1.339380048724e+02 
-4.252645859197e+01 -1.339760161666e+01 0.0 
-1.339760161666e+01 -8.588244682957e+01 0.0 
0.0 0.0 -3.474586087226e+01 
-5.878495088101e+01 -1.144044103411e+01 0.0 
-1.144044103411e+01 -1.785852585852e+02 0.0 
0.0 0.0 -7.104331141074e+01 
-7.318338237218e+01 2.192573164289e+01 0.0 
2.192573164289e+01 -2.330095809739e+02 0.0 
0.0 0.0 -9.428355724720e+01 
-3.839772633363e+01 2.554833126367e+01 0.0 
2.554833126367e+01 -2.661882452890e+01 0.0 
0.0 0.0 -1.519928091190e+01 
-1.128713279874e+02 -1.948151125291e-01 0.0 
-1.948151125291e-01 -2.658991956962e+02 0.0 
0.0 0.0 -1.103918014970e+02 
-5.297442032420e+01 3.658920156097e-01 0.0 
3.658920156097e-01 -1.215986561209e+02 0.0 
0.0 0.0 -4.845909682714e+01 
-6.002636970413e+01 2.445285000909e+01 0.0 
2.445285000909e+01 -4.755836729398e+01 0.0 
0.0 0.0 -3.187435315163e+01 
-1.124038228967e+02 -6.143702323871e-01 0.0 
-6.143702323871e-01 -2.687428958627e+02 0.0 
0.0 0.0 -1.111959050731e+02 
-7.765052437008e+01 -1.868197622509e+00 0.0 
-1.868197622509e+00 -2.383471338066e+02 0.0 
0.0 0.0 -9.827211718117e+01 
-1.019034286522e+02 -3.285538846463e+00 0.0 
-3.285538846463e+00 -2.450385173438e+02 0.0 
0.0 0.0 -9.946270364991e+01 
-4.085852626822e+01 3.323331406164e+01 0.0 
3.323331406164e+01 -8.469902782419e+01 0.0 
0.0 0.0 -3.950123185180e+01 
-7.205653347354e+01 1.932814982803e+00 0.0 
1.932814982803e+00 -1.394602788232e+02 0.0 
0.0 0.0 -6.305504368902e+01 
-6.659280469486e+01 -7.711669202955e+00 0.0 
-7.711669202955e+00 -2.052904570987e+02 0.0 
0.0 0.0 -8.349331002824e+01 
-1.217746750897e+02 1.825871349569e+01 0.0 
1.825871349569e+01 -3.271598206952e+02 0.0 
0.0 0.0 -1.342803487355e+02 
-8.523428471423e+01 2.899560483793e+01 0.0 
2.899560483793e+01 -2.455448219878e+02 0.0 
0.0 0.0 -9.883373201060e+01 
-1.123422092567e+02 -1.336603069139e+00 0.0 
-1.336603069139e+00 -2.758673605454e+02 0.0 
0.0 0.0 -1.143378356158e+02 
-1.155172586746e+02 -2.023124604229e-02 0.0 
-2.023124604229e-02 -2.767947257894e+02 0.0 
0.0 0.0 -1.149729339576e+02 
-5.386678090077e+01 1.418390611224e+00 0.0 
1.418390611224e+00 -1.890231033967e+02 0.0 
0.0 0.0 -7.144462062913e+01 
-3.851426803010e+01 -1.201785253907e+01 0.0 
-1.201785253907e+01 -5.948345376112e+01 0.0 
0.0 0.0 -2.525973086151e+01 
-4.027409675351e+01 3.557321889803e+01 0.0 
3.557321889803e+01 -8.300382777026e+01 0.0 
0.0 0.0 -3.814486330251e+01 
-1.160018807983e+02 -9.844713165288e-01 0.0 
-9.844713165288e-01 -2.841373304545e+02 0.0 
0.0 0.0 -1.182162282461e+02 
-1.236946328251e+02 1.481103662997e+01 0.0 
1.481103662997e+01 -3.310547426119e+02 0.0 
0.0 0.0 -1.360248126311e+02 
-6.370662123722e+01 -1.714773772872e+01 0.0 
-1.714773772872e+01 -1.704519958160e+02 0.0 
0.0 0.0 -6.957319728018e+01 
-8.513074661660e+01 3.354526368398e+01 0.0 
3.354526368398e+01 -2.188842029513e+02 0.0 
0.0 0.0 -9.080448487038e+01 
-4.500859812163e+01 3.116468012620e+01 0.0 
3.116468012620e+01 -6.864205079492e+01 0.0 
0.0 0.0 -3.035396801331e+01 
-8.534325740156e+01 3.626959289156e+01 0.0 
3.626959289156e+01 -2.037111002263e+02 0.0 
0.0 0.0 -8.631630728835e+01 
-1.501938821832e+02 1.163841110480e+01 0.0 
1.163841110480e+01 -3.712123701695e+02 0.0 
0.0 0.0 -1.560218757058e+02 
-1.348233581590e+02 -7.574449231933e-01 0.0 
-7.574449231933e-01 -1.026577209793e+02 0.0 
0.0 0.0 -7.152119475194e+01 
-8.282987624536e+01 2.771409939197e+00 0.0 
2.771409939197e+00 -1.946030445725e+02 0.0 
0.0 0.0 -8.282987624536e+01 
-1.678225826574e+02 1.119069344385e+00 0.0 
1.119069344385e+00 -3.929193595338e+02 0.0 
0.0 0.0 -1.678225826574e+02 
-3.399826736860e+01 7.191852686881e-01 0.0 
7.191852686881e-01 -2.950208901073e+01 0.0 
0.0 0.0 -1.865010691380e+01 
-7.014320614933e+01 -1.263790150266e+01 0.0 
-1.263790150266e+01 -2.003068104984e+02 0.0 
0.0 0.0 -8.209070944145e+01 
-8.067331778867e+01 3.036440867766e+01 0.0 
3.036440867766e+01 -2.309759936634e+02 0.0 
0.0 0.0 -9.309479343562e+01 
-5.390500713803e+01 6.088236041812e+00 0.0 
6.088236041812e+00 -1.867004597861e+02 0.0 
0.0 0.0 -7.025813139866e+01 
-1.759873180354e+01 -1.145043032630e+00 0.0 
-1.145043032630e+00 -5.543170300564e+01 0.0 
0.0 0.0 -2.001735654516e+01 
-5.064673793309e+01 3.475222589928e+01 0.0 
3.475222589928e+01 -3.198734347697e+01 0.0 
0.0 0.0 -2.342190024615e+01 
-8.035545849207e+01 8.610938875358e+00 0.0 
8.610938875358e+00 -1.588479236299e+02 0.0 
0.0 0.0 -7.136101463659e+01 
-7.966249198948e+01 3.286910098349e+01 0.0 
3.286910098349e+01 -1.346520009424e+02 0.0 
0.0 0.0 -6.389434787955e+01 
-6.110600463174e+01 2.512513227597e+01 0.0 
2.512513227597e+01 -3.131946609804e+01 0.0 
0.0 0.0 -2.693406174302e+01 
-1.380298565005e+02 4.013880585605e+01 0.0 
4.013880585605e+01 -3.317045336707e+02 0.0 
0.0 0.0 -1.405203170514e+02 
-3.917344507818e+01 4.785856572187e-01 0.0 
4.785856572187e-01 -1.011828620456e+02 0.0 
0.0 0.0 -3.943712657777e+01 
-1.406667942137e+02 3.815105305572e+01 0.0 
3.815105305572e+01 -3.390602344827e+02 0.0 
0.0 0.0 -1.435181086089e+02 
-7.862133355276e+01 2.955277135972e+01 0.0 
2.955277135972e+01 -1.334008641926e+02 0.0 
0.0 0.0 -6.320665932361e+01 
-7.547733390518e+01 -1.280435391235e+01 0.0 
-1.280435391235e+01 -1.949119193291e+02 0.0 
0.0 0.0 -8.053673620499e+01 
-7.795117065407e+01 2.898838388581e+01 0.0 
2.898838388581e+01 -2.285553358954e+02 0.0 
0.0 0.0 -9.178063738683e+01 
-6.451601842802e+01 -1.099185411958e+01 0.0 
-1.099185411958e+01 -1.856445599712e+02 0.0 
0.0 0.0 -7.436608444862e+01 
-4.549838777603e+01 3.314744031403e+01 0.0 
3.314744031403e+01 -6.882022729611e+01 0.0 
0.0 0.0 -3.055441932764e+01 
-6.342903776041e+01 -1.267273075814e+01 0.0 
-1.267273075814e+01 -1.736346642526e+02 0.0 
0.0 0.0 -6.959739295319e+01 
-8.502639482843e+01 3.288396499167e+01 0.0 
3.288396499167e+01 -1.706206331256e+02 0.0 
0.0 0.0 -7.629410838622e+01 
-1.403173608957e+02 2.100402709537e+00 0.0 
2.100402709537e+00 -3.424411248044e+02 0.0 
0.0 0.0 -1.444275457101e+02 
-6.009695553771e+01 -8.165314041205e+00 0.0 
-8.165314041205e+00 -1.897934584588e+02 0.0 
0.0 0.0 -7.546350270286e+01 
-8.902857510918e+01 3.440285324131e+01 0.0 
3.440285324131e+01 -2.205857946766e+02 0.0 
0.0 0.0 -9.248431093573e+01 
-8.398367993265e+01 -2.484809986089e+00 0.0 
-2.484809986089e+00 -1.131502495704e+02 0.0 
0.0 0.0 -5.964143437414e+01 
-5.747748021864e+01 -2.046384940547e+00 0.0 
-2.046384940547e+00 -1.950151456717e+02 0.0 
0.0 0.0 -7.503041759915e+01 
-8.908600634940e+01 3.257890386123e+01 0.0 
3.257890386123e+01 -1.609286783550e+02 0.0 
0.0 0.0 -7.460440541133e+01 
-6.641336676879e+01 -1.211710970554e+01 0.0 
-1.211710970554e+01 -1.679529469353e+02 0.0 
0.0 0.0 -6.725631774998e+01 
-6.220367119749e+01 -1.773480158365e+01 0.0 
-1.773480158365e+01 -1.562386285900e+02 0.0 
0.0 0.0 -6.403718595952e+01 
-7.691382109336e+01 2.816828358537e+01 0.0 
2.816828358537e+01 -2.282583338860e+02 0.0 
0.0 0.0 -9.115164649380e+01 
-4.116330068411e+01 -1.963262716924e+01 0.0 
-1.963262716924e+01 -1.084669740637e+02 0.0 
0.0 0.0 -3.824406577959e+01 
-4.243258451566e+01 2.817497291030e+01 0.0 
2.817497291030e+01 -2.839082311982e+01 0.0 
0.0 0.0 -1.745157577979e+01 
-4.346939209749e+01 2.954239575908e+01 0.0 
2.954239575908e+01 -2.911696540772e+01 0.0 
0.0 0.0 -1.709016850614e+01 
-5.947342480548e+01 -1.394343320290e+01 0.0 
-1.394343320290e+01 -1.478519231244e+02 0.0 
0.0 0.0 -5.905675643160e+01 
-8.471621214501e+01 2.272281301225e+00 0.0 
2.272281301225e+00 -2.549366057024e+02 0.0 
0.0 0.0 -1.057809762131e+02 
-6.825566119072e+01 2.461668027537e+01 0.0 
2.461668027537e+01 -2.198573208691e+02 0.0 
0.0 0.0 -8.963339562899e+01 
-8.937466891934e+01 3.589978922828e+01 0.0 
3.589978922828e+01 -2.209776017748e+02 0.0 
0.0 0.0 -9.270568120824e+01 
-1.034783562549e+02 3.672007329406e+01 0.0 
3.672007329406e+01 -2.342010404986e+02 0.0 
0.0 0.0 -1.009038190260e+02 
-3.842229208504e+01 2.639562769898e+01 0.0 
2.639562769898e+01 -2.772000744731e+01 0.0 
0.0 0.0 -1.462701696703e+01 
-6.028253181715e+01 1.734829192215e+00 0.0 
1.734829192215e+00 -9.985831710842e+01 0.0 
0.0 0.0 -4.764225467767e+01 
-1.132597660484e+02 3.740177026589e+01 0.0 
3.740177026589e+01 -2.748589409706e+02 0.0 
0.0 0.0 -1.160356121057e+02 
-5.091806049297e+01 5.517414008685e+00 0.0 
5.517414008685e+00 -1.821773671707e+02 0.0 
0.0 0.0 -6.764832032973e+01 
-4.663677488847e+01 3.317078861829e+01 0.0 
3.317078861829e+01 -5.174865408470e+01 0.0 
0.0 0.0 -2.498146865174e+01 
-4.806128574495e+01 3.195673497852e+01 0.0 
3.195673497852e+01 -7.024351504114e+01 0.0 
0.0 0.0 -3.057381187540e+01 
-8.452625324636e+01 -1.643548016033e+00 0.0 
-1.643548016033e+00 -2.463929321373e+02 0.0 
0.0 0.0 -1.022457180030e+02 
-8.867321788802e+01 3.492106677469e+01 0.0 
3.492106677469e+01 -2.047220612735e+02 0.0 
0.0 0.0 -8.761858374847e+01 
-7.926042597398e+01 1.385727380759e+00 0.0 
1.385727380759e+00 -2.420713564897e+02 0.0 
0.0 0.0 -9.955575828473e+01 
-3.705766814620e+01 2.651887455625e+01 0.0 
2.651887455625e+01 -9.331584458851e+01 0.0 
0.0 0.0 -3.672073249835e+01 
-9.175047978389e+01 6.585640983406e+00 0.0 
6.585640983406e+00 -2.712802834139e+02 0.0 
0.0 0.0 -1.126589613946e+02 
-4.548434811715e+01 3.281845896046e+01 0.0 
3.281845896046e+01 -6.775274995453e+01 0.0 
0.0 0.0 -3.074091254528e+01 
-6.683302636266e+01 2.122835519356e+01 0.0 
2.122835519356e+01 -2.148113961950e+02 0.0 
0.0 0.0 -8.709520451824e+01 
-8.592510348173e+01 4.316199307597e+00 0.0 
4.316199307597e+00 -2.602356760075e+02 0.0 
0.0 0.0 -1.068905709891e+02 
-8.047881539311e+01 2.648676563271e+01 0.0 
2.648676563271e+01 -2.417704600040e+02 0.0 
0.0 0.0 -9.737682328291e+01 
-5.350948524248e+01 2.350634582308e+00 0.0 
2.350634582308e+00 -7.501656921718e+01 0.0 
0.0 0.0 -3.815781633790e+01 
-6.314797561282e+01 -1.456692158918e+01 0.0 
-1.456692158918e+01 -1.485491714914e+02 0.0 
0.0 0.0 -6.075709456887e+01 
-4.640253791537e+01 3.396918652683e+01 0.0 
3.396918652683e+01 -7.294064405540e+01 0.0 
0.0 0.0 -3.098402260505e+01 
-9.362666896438e+01 5.641510295009e+00 0.0 
5.641510295009e+00 -2.786242761749e+02 0.0 
0.0 0.0 -1.123959860470e+02 
-4.449095486029e+01 3.252627102246e+01 0.0 
3.252627102246e+01 -6.622854291528e+01 0.0 
0.0 0.0 -3.054048573934e+01 
-4.913718034787e+01 1.176397266939e+01 0.0 
1.176397266939e+01 -1.200810986833e+02 0.0 
0.0 0.0 -5.217327203537e+01 
-7.617769610346e+01 4.427068500817e-01 0.0 
4.427068500817e-01 -1.585748429393e+02 0.0 
0.0 0.0 -7.002576171282e+01 
-7.173176933826e+01 1.010286020908e-01 0.0 
1.010286020908e-01 -1.394247834404e+02 0.0 
0.0 0.0 -6.294696583361e+01 
-1.930898559816e+01 -3.971879627505e+00 0.0 
-3.971879627505e+00 -2.705932805891e+01 0.0 
0.0 0.0 -1.239013968024e+01 
-1.009921064117e+02 8.916506741179e+00 0.0 
8.916506741179e+00 -2.889734077094e+02 0.0 
0.0 0.0 -1.182493024017e+02 
-4.942041020563e+01 -1.256623197723e+01 0.0 
-1.256623197723e+01 -1.131201426847e+02 0.0 
0.0 0.0 -4.517004431400e+01 
-5.293452723337e+01 -1.259838534719e+01 0.0 
-1.259838534719e+01 -1.213637434381e+02 0.0 
0.0 0.0 -4.833498001962e+01 
-9.693987183038e+01 3.511250103143e+01 0.0 
3.511250103143e+01 -2.392953931536e+02 0.0 
0.0 0.0 -1.004705794952e+02 
-8.072141206931e+01 2.678254397397e+01 0.0 
2.678254397397e+01 -2.419309878460e+02 0.0 
0.0 0.0 -9.639571997460e+01 
-9.315691855928e+01 3.408118007304e+01 0.0 
3.408118007304e+01 -2.372891073282e+02 0.0 
0.0 0.0 -9.873380776623e+01 
-6.149493650277e+01 -5.778071011363e+00 0.0 
-5.778071011363e+00 -1.973047954519e+02 0.0 
0.0 0.0 -7.836996964518e+01 
-2.541248923361e+01 -1.628778585094e-01 0.0 
-1.628778585094e-01 -8.101388383486e+00 0.0 
0.0 0.0 -9.654163285130e+00 
-1.557721933941e+02 9.926383448721e+00 0.0 
9.926383448721e+00 -3.741859263218e+02 0.0 
0.0 0.0 -1.585874359148e+02 
-4.519851588296e+01 -1.202212333650e+01 0.0 
-1.202212333650e+01 -1.005893480860e+02 0.0 
0.0 0.0 -4.013071077153e+01 
-1.173936431327e+02 1.991988541240e+01 0.0 
1.991988541240e+01 -3.165929593448e+02 0.0 
0.0 0.0 -1.297959807432e+02 
-6.965757252296e+01 2.305731788726e+01 0.0 
2.305731788726e+01 -2.187104913471e+02 0.0 
0.0 0.0 -8.840108608114e+01 
-2.522052975887e+01 -2.819325827699e+00 0.0 
-2.819325827699e+00 -7.650691429368e+01 0.0 
0.0 0.0 -2.849686315498e+01 
-8.527224919606e+01 3.436236780586e+01 0.0 
3.436236780586e+01 -1.868497021259e+02 0.0 
0.0 0.0 -8.123658539659e+01 
-5.862101532508e+01 2.672138509997e+00 0.0 
2.672138509997e+00 -2.031007857543e+02 0.0 
0.0 0.0 -7.857952899300e+01 
-3.398320985912e+01 -1.123568991057e+01 0.0 
-1.123568991057e+01 -4.868012912117e+01 0.0 
0.0 0.0 -1.967535577212e+01 
-5.260452103652e+01 -3.581378063385e+00 0.0 
-3.581378063385e+00 -1.807505653653e+02 0.0 
0.0 0.0 -6.794881600649e+01 
-1.212654015659e+02 -8.125242945657e-01 0.0 
-8.125242945657e-01 -2.948547468186e+02 0.0 
0.0 0.0 -1.232619182711e+02 
-8.600779741536e+01 3.572967025197e+01 0.0 
3.572967025197e+01 -1.719867069119e+02 0.0 
0.0 0.0 -7.699835129818e+01 
-4.052053038611e+01 -1.148050679568e+01 0.0 
-1.148050679568e+01 -7.901326621189e+01 0.0 
0.0 0.0 -3.084886656055e+01 
-1.056026959920e+02 -2.815268694392e-01 0.0 
-2.815268694392e-01 -2.413552416629e+02 0.0 
0.0 0.0 -1.001206935774e+02 
-9.270134863762e+01 3.514885334788e+01 0.0 
3.514885334788e+01 -2.223895523313e+02 0.0 
0.0 0.0 -9.412727029068e+01 
-1.077595027375e+02 2.794210210863e+01 0.0 
2.794210210863e+01 -2.915448222594e+02 0.0 
0.0 0.0 -1.193912974991e+02 
-6.151058668752e+01 -1.365515583085e+01 0.0 
-1.365515583085e+01 -1.608645988533e+02 0.0 
0.0 0.0 -6.431905475462e+01 
-5.527328596376e+01 -2.379085476224e+00 0.0 
-2.379085476224e+00 -1.216318627752e+02 0.0 
0.0 0.0 -4.842684598342e+01 
-7.383124724269e+01 2.404204946000e+01 0.0 
2.404204946000e+01 -2.356459750661e+02 0.0 
0.0 0.0 -9.624483418693e+01 
-4.945668718783e+01 8.874629179664e-01 0.0 
8.874629179664e-01 -6.907053997656e+01 0.0 
0.0 0.0 -3.515816814932e+01 
-3.688861799619e+01 -1.550589588762e+01 0.0 
-1.550589588762e+01 -5.243455915265e+01 0.0 
0.0 0.0 -1.914509000692e+01 
-1.227133794792e+02 4.098797097578e+01 0.0 
4.098797097578e+01 -2.965678846510e+02 0.0 
0.0 0.0 -1.253843792391e+02 
-1.030800981091e+02 3.652957378098e+01 0.0 
3.652957378098e+01 -2.338469220016e+02 0.0 
0.0 0.0 -1.006781060332e+02 
-3.892032427626e+01 9.072557696211e-01 0.0 
9.072557696211e-01 -4.130451812500e+01 0.0 
0.0 0.0 -2.366745272038e+01 
-9.343642960231e+01 2.227863361335e+01 0.0 
2.227863361335e+01 -1.859005662814e+02 0.0 
0.0 0.0 -8.340109876510e+01 
-1.098956196844e+02 3.884049423099e+01 0.0 
3.884049423099e+01 -2.544525163087e+02 0.0 
0.0 0.0 -1.089044407980e+02 
-6.117747161474e+01 -4.265194458624e+00 0.0 
-4.265194458624e+00 -2.002107822659e+02 0.0 
0.0 0.0 -7.931517629638e+01 
-6.643181470725e+01 -1.171802348662e+01 0.0 
-1.171802348662e+01 -1.962164241871e+02 0.0 
0.0 0.0 -7.984011952236e+01 
-1.413934943595e+02 2.473308119835e+01 0.0 
2.473308119835e+01 -3.539815516733e+02 0.0 
0.0 0.0 -1.482125138099e+02 
-7.761809350705e+01 5.675088114378e+00 0.0 
5.675088114378e+00 -1.089674872475e+02 0.0 
0.0 0.0 -5.652628640914e+01 
-4.677147535828e+01 -1.363051967863e+00 0.0 
-1.363051967863e+00 -1.104128168218e+02 0.0 
0.0 0.0 -4.355959855877e+01 
-1.066874956079e+02 -1.236082691612e+00 0.0 
-1.236082691612e+00 -2.457057659086e+02 0.0 
0.0 0.0 -1.017947740455e+02 
-6.643056323660e+01 -1.545387248706e+01 0.0 
-1.545387248706e+01 -1.622182801006e+02 0.0 
0.0 0.0 -6.664309357759e+01 
-5.526502337908e+01 -1.037249032767e+01 0.0 
-1.037249032767e+01 -1.749044995732e+02 0.0 
0.0 0.0 -6.784344094245e+01 
-4.313438708327e+01 2.854102819442e+01 0.0 
2.854102819442e+01 -2.775183732255e+01 0.0 
0.0 0.0 -1.803389684444e+01 
-4.548658223554e+01 3.016796598764e+01 0.0 
3.016796598764e+01 -2.955281887557e+01 0.0 
0.0 0.0 -1.885792691834e+01 
-4.812654904404e+01 4.492478459716e+00 0.0 
4.492478459716e+00 -4.335140032815e+01 0.0 
0.0 0.0 -2.704338481166e+01 
-5.733489606467e+01 -2.816770155659e+00 0.0 
-2.816770155659e+00 -1.900113082899e+02 0.0 
0.0 0.0 -7.341862519463e+01 
-5.971167000640e+01 -4.710183313466e+00 0.0 
-4.710183313466e+00 -1.300685880691e+02 0.0 
0.0 0.0 -5.125919668453e+01 
-9.896890536604e+01 2.787997623374e+01 0.0 
2.787997623374e+01 -2.760295965894e+02 0.0 
0.0 0.0 -1.120995505866e+02 
-1.640411146524e+02 7.416334380542e+00 0.0 
7.416334380542e+00 -3.906886570063e+02 0.0 
0.0 0.0 -1.660189314976e+02 
-1.625684854925e+02 9.166690781565e+00 0.0 
9.166690781565e+00 -3.889084398777e+02 0.0 
0.0 0.0 -1.650430776110e+02 
-6.462615319518e+01 -8.781102815235e+00 0.0 
-8.781102815235e+00 -1.968538241819e+02 0.0 
0.0 0.0 -7.859882245312e+01 
-4.364763248962e+01 3.401279551670e+00 0.0 
3.401279551670e+00 -2.572049671130e+01 0.0 
0.0 0.0 -2.041043876028e+01 
-8.130800041063e+01 1.477514316568e+00 0.0 
1.477514316568e+00 -1.086640616195e+02 0.0 
0.0 0.0 -5.797390256616e+01 
-4.607428043938e+01 3.028708905756e+01 0.0 
3.028708905756e+01 -2.931915988075e+01 0.0 
0.0 0.0 -1.919486651919e+01 
-4.695007278232e+01 -2.299310707263e+01 0.0 
-2.299310707263e+01 -1.125195669894e+02 0.0 
0.0 0.0 -4.302594207572e+01 
-4.517023559586e+01 2.960551508693e+01 0.0 
2.960551508693e+01 -2.913772078692e+01 0.0 
0.0 0.0 -1.909061195304e+01 
-7.637028156911e+01 2.464122271226e+01 0.0 
2.464122271226e+01 -2.376356026341e+02 0.0 
0.0 0.0 -9.453722428206e+01 
-5.755662985905e+01 -1.386118407607e+01 0.0 
-1.386118407607e+01 -1.669204186638e+02 0.0 
0.0 0.0 -6.611208561591e+01 
-6.133761072423e+01 -9.948081006028e+00 0.0 
-9.948081006028e+00 -1.885004704812e+02 0.0 
0.0 0.0 -7.551486305775e+01 
-3.973209741642e+01 -2.731411453963e+01 0.0 
-2.731411453963e+01 -9.148244096066e+01 0.0 
0.0 0.0 -3.979053850579e+01 
-7.094642870555e+01 1.906197104956e+00 0.0 
1.906197104956e+00 -1.419857550672e+02 0.0 
0.0 0.0 -6.347965513184e+01 
-6.507657087658e+01 -1.506830277090e+01 0.0 
-1.506830277090e+01 -1.845950938044e+02 0.0 
0.0 0.0 -7.497839404660e+01 
-7.749924226518e+01 6.705802695479e+00 0.0 
6.705802695479e+00 -1.572143334102e+02 0.0 
0.0 0.0 -7.001407270262e+01 
-6.940908744365e+01 3.347443430835e+00 0.0 
3.347443430835e+00 -1.266817235175e+02 0.0 
0.0 0.0 -5.842724328835e+01 
-8.757589616990e+01 3.283700940756e+00 0.0 
3.283700940756e+00 -1.960523642970e+02 0.0 
0.0 0.0 -8.468847814008e+01 
-1.658561148211e+02 1.227548591704e+00 0.0 
1.227548591704e+00 -3.922903927793e+02 0.0 
0.0 0.0 -1.670439522801e+02 
-3.892548205508e+01 -4.959044360882e-01 0.0 
-4.959044360882e-01 -4.177014306811e+01 0.0 
0.0 0.0 -2.380868753696e+01 
-6.972115059832e+01 -1.459799031891e+01 0.0 
-1.459799031891e+01 -1.881150708834e+02 0.0 
0.0 0.0 -7.724562896518e+01 
-4.029406361603e+01 2.879896517083e+01 0.0 
2.879896517083e+01 -2.766264943660e+01 0.0 
0.0 0.0 -1.684904739918e+01 
-7.026909388505e+01 -9.407878021449e+00 0.0 
-9.407878021449e+00 -1.928077658035e+02 0.0 
0.0 0.0 -7.745222282579e+01 
-1.678618360141e+02 5.712951985346e+00 0.0 
5.712951985346e+00 -3.930109506995e+02 0.0 
0.0 0.0 -1.678618360141e+02 
-4.761426911187e+01 3.201909088527e+01 0.0 
3.201909088527e+01 -3.019778268367e+01 0.0 
0.0 0.0 -2.001850713259e+01 
-4.637452061435e+01 3.085943420086e+01 0.0 
3.085943420086e+01 -2.944427697158e+01 0.0 
0.0 0.0 -1.933452886560e+01 
-1.216404939038e+02 2.245588862052e+01 0.0 
2.245588862052e+01 -3.223062223964e+02 0.0 
0.0 0.0 -1.327840148901e+02 
-3.644871395616e+01 1.320628951431e+00 0.0 
1.320628951431e+00 -2.631460209900e+01 0.0 
0.0 0.0 -1.842899481655e+01 
-7.689903345173e+01 4.007271556181e+00 0.0 
4.007271556181e+00 -1.586787519539e+02 0.0 
0.0 0.0 -7.027333562168e+01 
-9.339833319951e+01 3.680426031627e+01 0.0 
3.680426031627e+01 -2.228364366984e+02 0.0 
0.0 0.0 -9.447043096938e+01 
-1.163502692703e+02 2.829859893641e+01 0.0 
2.829859893641e+01 -3.077435429694e+02 0.0 
0.0 0.0 -1.268281436719e+02 
-9.723314795985e+01 3.774154172843e+01 0.0 
3.774154172843e+01 -2.116089945425e+02 0.0 
0.0 0.0 -9.225264275070e+01 
-4.129271142789e+01 2.588426865510e-02 0.0 
2.588426865510e-02 -4.519586597500e+01 0.0 
0.0 0.0 -2.554657322087e+01 
-5.965837018186e+01 -1.704991896423e+01 0.0 
-1.704991896423e+01 -1.419466742715e+02 0.0 
0.0 0.0 -5.819208758844e+01 
-5.597854151877e+01 -1.518572720105e+01 0.0 
-1.518572720105e+01 -1.413330164301e+02 0.0 
0.0 0.0 -5.625732039594e+01 
-5.645582997932e+01 2.070309868482e-01 0.0 
2.070309868482e-01 -8.880153070578e+01 0.0 
0.0 0.0 -4.317720820553e+01 
-1.121857567719e+02 3.030967758958e+01 0.0 
3.030967758958e+01 -2.952049483742e+02 0.0 
0.0 0.0 -1.218172115439e+02 
-4.563282457085e+01 8.077045744552e+00 0.0 
8.077045744552e+00 -7.904097989241e+00 0.0 
0.0 0.0 -1.559937744426e+01 
-3.234790362802e+01 1.532454071273e-01 0.0 
1.532454071273e-01 -2.475849430310e+01 0.0 
0.0 0.0 -1.673191937934e+01 
-3.925330400486e+01 6.649399460683e-01 0.0 
6.649399460683e-01 -4.074769065758e+01 0.0 
0.0 0.0 -2.360029839873e+01 
-4.258150471313e+01 1.879040237104e+00 0.0 
1.879040237104e+00 -4.667036908561e+01 0.0 
0.0 0.0 -2.637556213962e+01 
-3.234294605790e+01 -1.435386454314e+01 0.0 
-1.435386454314e+01 -1.144224589081e+02 0.0 
0.0 0.0 -4.379225350519e+01 
-5.354598448982e+01 -1.476528576559e+01 0.0 
-1.476528576559e+01 -1.277101111174e+02 0.0 
0.0 0.0 -5.089746789260e+01 
-8.670786132288e+01 1.135570084814e+01 0.0 
1.135570084814e+01 -1.823355101408e+02 0.0 
0.0 0.0 -8.031301143911e+01 
-5.093584491833e+01 2.613691012469e+00 0.0 
2.613691012469e+00 -6.616968607663e+01 0.0 
0.0 0.0 -3.473165929849e+01 
-1.429376734443e+02 2.842894088654e+01 0.0 
2.842894088654e+01 -3.497922064132e+02 0.0 
0.0 0.0 -1.474189639572e+02 
-1.078462161271e+02 3.997241354543e+01 0.0 
3.997241354543e+01 -2.381863762145e+02 0.0 
0.0 0.0 -1.034097777025e+02 
-8.558474786364e+01 3.658088824812e+01 0.0 
3.658088824812e+01 -1.875727486332e+02 0.0 
0.0 0.0 -8.154724894906e+01 
-9.140944735644e+01 2.263262358583e+01 0.0 
2.263262358583e+01 -1.744263045908e+02 0.0 
0.0 0.0 -7.935072558418e+01 
-8.370561619457e+01 -4.664675422889e+00 0.0 
-4.664675422889e+00 -1.837724365779e+02 0.0 
0.0 0.0 -7.433842705826e+01 
-7.565903927681e+01 -5.271239803629e+00 0.0 
-5.271239803629e+00 -1.672676644745e+02 0.0 
0.0 0.0 -6.678132618906e+01 
-1.448961247588e+02 8.681317844641e+00 0.0 
8.681317844641e+00 -3.592709403487e+02 0.0 
0.0 0.0 -1.508501195323e+02 
-3.662996209121e+01 -2.356830002156e+01 0.0 
-2.356830002156e+01 -9.885436384439e+01 0.0 
0.0 0.0 -4.203967555790e+01 
-4.730959696995e+01 -1.034525611104e+00 0.0 
-1.034525611104e+00 -1.171868513330e+02 0.0 
0.0 0.0 -4.639009060918e+01 
-1.441649605415e+02 3.747673324069e+01 0.0 
3.747673324069e+01 -3.377182412635e+02 0.0 
0.0 0.0 -1.441649605415e+02 
-1.265283599234e+01 7.027378381212e-01 0.0 
7.027378381212e-01 -5.752864018315e+01 0.0 
0.0 0.0 -1.996654432368e+01 
-3.241722309928e+01 8.212811169711e-02 0.0 
8.212811169711e-02 -2.491468644253e+01 0.0 
0.0 0.0 -1.679957286254e+01 
-1.342954491600e+02 2.027310046808e+01 0.0 
2.027310046808e+01 -3.460475709519e+02 0.0 
0.0 0.0 -1.437029060336e+02 
-1.999235622836e+01 -4.071592234895e+00 0.0 
-4.071592234895e+00 -4.000022475032e+01 0.0 
0.0 0.0 -1.545178851618e+01 
-1.195327766342e+01 -2.232419334659e-01 0.0 
-2.232419334659e-01 -2.399823502378e+01 0.0 
0.0 0.0 -8.311626542704e+00 
-9.431127870437e+01 1.936111561429e+01 0.0 
1.936111561429e+01 -2.061664134333e+02 0.0 
0.0 0.0 -8.974330764129e+01 
-2.744239224071e+01 -4.888329375125e-01 0.0 
-4.888329375125e-01 -8.104276874969e+00 0.0 
0.0 0.0 -1.026400073470e+01 
-8.727559772685e+01 1.484236318693e+01 0.0 
1.484236318693e+01 -1.808022972405e+02 0.0 
0.0 0.0 -8.002336849019e+01 
-1.364982487491e+02 2.168013265600e+01 0.0 
2.168013265600e+01 -3.436859458451e+02 0.0 
0.0 0.0 -1.436552583783e+02 
-2.701442719692e+01 3.143735320598e-01 0.0 
3.143735320598e-01 -7.940822444195e+00 0.0 
0.0 0.0 -1.008657489233e+01 
-7.770754810079e+01 7.859133260181e+00 0.0 
7.859133260181e+00 -1.073360934686e+02 0.0 
0.0 0.0 -5.657413010469e+01 
-7.965533366306e+01 3.226170988287e+00 0.0 
3.226170988287e+00 -1.765293791060e+02 0.0 
0.0 0.0 -7.645541383073e+01 
-1.841067108449e+01 -2.642325283656e+00 0.0 
-2.642325283656e+00 -6.375651335845e+01 0.0 
0.0 0.0 -2.268148064057e+01 
-8.100592262991e+01 1.241095066789e+01 0.0 
1.241095066789e+01 -1.659653628769e+02 0.0 
0.0 0.0 -7.369138565204e+01 
-1.678553698341e+02 4.226952142256e+00 0.0 
4.226952142256e+00 -3.929958629463e+02 0.0 
0.0 0.0 -1.678553698341e+02 
-1.027963418076e+02 3.633746715766e+01 0.0 
3.633746715766e+01 -2.195983005008e+02 0.0 
0.0 0.0 -9.631839269252e+01 
-3.614604415909e+01 -1.099752713155e+01 0.0 
-1.099752713155e+01 -1.284369594267e+02 0.0 
0.0 0.0 -4.673471350924e+01 
-5.789786760374e+01 1.168697055748e+01 0.0 
1.168697055748e+01 -5.122006212692e+01 0.0 
0.0 0.0 -3.233537891920e+01 
-8.493100500553e+01 -2.128016323931e+00 0.0 
-2.128016323931e+00 -1.863691573415e+02 0.0 
0.0 0.0 -7.595296852059e+01 
-1.011440824941e+02 2.853204566570e+01 0.0 
2.853204566570e+01 -2.770290553875e+02 0.0 
0.0 0.0 -1.130519413645e+02 
-1.486339837587e+02 3.227131034692e+01 0.0 
3.227131034692e+01 -3.574343042341e+02 0.0 
0.0 0.0 -1.514204863978e+02 
-6.360242527863e+01 9.324868920879e-01 0.0 
9.324868920879e-01 -1.107456138618e+02 0.0 
0.0 0.0 -5.190441174214e+01 
-1.496726193240e+02 2.891954989940e+01 0.0 
2.891954989940e+01 -3.626934321887e+02 0.0 
0.0 0.0 -1.533098154538e+02 
-3.105326389521e+01 -1.744353300602e+01 0.0 
-1.744353300602e+01 -1.163448296592e+02 0.0 
0.0 0.0 -4.639312121534e+01 
-1.575741927872e+02 6.030445681268e+00 0.0 
6.030445681268e+00 -3.778884091316e+02 0.0 
0.0 0.0 -1.602387805757e+02 
-4.029833806704e+01 -1.530194724423e+01 0.0 
-1.530194724423e+01 -1.241490868470e+02 0.0 
0.0 0.0 -4.269470161179e+01 
-1.290262911354e+01 -1.714812499247e+00 0.0 
-1.714812499247e+00 -5.747805589205e+01 0.0 
0.0 0.0 -1.998781570682e+01 
-1.475448810052e+02 1.859302202436e+01 0.0 
1.859302202436e+01 -3.656775876331e+02 0.0 
0.0 0.0 -1.535667405915e+02 
-1.009845397821e+02 3.057422900992e+01 0.0 
3.057422900992e+01 -2.088618241844e+02 0.0 
0.0 0.0 -9.255390918993e+01 
-9.059696094387e+01 1.991117880496e+01 0.0 
1.991117880496e+01 -1.922485468856e+02 0.0 
0.0 0.0 -8.445365234884e+01 
-3.262943291659e+01 -5.456738202086e-01 0.0 
-5.456738202086e-01 -2.351082753692e+01 0.0 
0.0 0.0 -1.644207813605e+01 
-6.370787423493e+01 2.109968706543e+01 0.0 
2.109968706543e+01 -7.049437663292e+01 0.0 
0.0 0.0 -3.986067526036e+01 
-4.436863178562e+01 3.098372848607e+01 0.0 
3.098372848607e+01 -6.813523937011e+01 0.0 
0.0 0.0 -2.959989777921e+01 
-1.146981831192e+02 4.195997958888e+01 0.0 
4.195997958888e+01 -2.601417785579e+02 0.0 
0.0 0.0 -1.120519885031e+02 
-7.197617166003e+01 -3.342506640703e+00 0.0 
-3.342506640703e+00 -1.545384518370e+02 0.0 
0.0 0.0 -6.244334789334e+01 
-3.806305177970e+01 2.986964632853e+01 0.0 
2.986964632853e+01 -7.554488590828e+01 0.0 
0.0 0.0 -2.898623608384e+01 
-1.054363141442e+02 2.716301901047e+01 0.0 
2.716301901047e+01 -2.904102226549e+02 0.0 
0.0 0.0 -1.183539610397e+02 
-2.532350584143e+01 1.832033146693e-01 0.0 
1.832033146693e-01 -7.456853901722e+00 0.0 
0.0 0.0 -9.434107922945e+00 
-9.360600626786e+01 2.788877661612e+01 0.0 
2.788877661612e+01 -1.943111388692e+02 0.0 
0.0 0.0 -8.597514354111e+01 
-8.603621950634e+01 9.589462802729e-01 0.0 
9.589462802729e-01 -1.934996251954e+02 0.0 
0.0 0.0 -8.346075341052e+01 
-8.296757325905e+01 1.287733047909e+00 0.0 
1.287733047909e+00 -1.949243376045e+02 0.0 
0.0 0.0 -8.296757325905e+01 
-9.684546908555e+00 -5.983082626601e-02 0.0 
-5.983082626601e-02 -6.168350156265e+00 0.0 
0.0 0.0 -4.009336040040e+00 
-6.046941196040e+00 1.113647335508e-01 0.0 
1.113647335508e-01 -1.084129564806e+01 0.0 
0.0 0.0 -3.344467287244e+00 
-2.625000213851e+01 5.097440902269e-01 0.0 
5.097440902269e-01 -1.031223857577e+01 0.0 
0.0 0.0 -1.056867221428e+01 
-2.535361928921e+01 -2.594820251971e-01 0.0 
-2.594820251971e-01 -7.362490847959e+00 0.0 
0.0 0.0 -9.414833041150e+00 
-1.680122778491e+02 4.894061197395e-01 0.0 
4.894061197395e-01 -3.933619816478e+02 0.0 
0.0 0.0 -1.680122778491e+02 
-1.653335660495e+02 -6.438602536738e-01 0.0 
-6.438602536738e-01 -3.903743615804e+02 0.0 
0.0 0.0 -1.663123782889e+02 
-9.745971513364e+00 -4.485583855570e-01 0.0 
-4.485583855570e-01 -2.336429246006e+01 0.0 
0.0 0.0 -7.349334608263e+00 
-7.981755831267e+01 -4.083064166867e+00 0.0 
-4.083064166867e+00 -1.133220170530e+02 0.0 
0.0 0.0 -5.844229895691e+01 
-1.500474646474e+02 2.339525414997e+00 0.0 
2.339525414997e+00 -3.618486577154e+02 0.0 
0.0 0.0 -1.531688367089e+02 
-1.177415942236e+02 3.419370796124e+01 0.0 
3.419370796124e+01 -3.009632523599e+02 0.0 
0.0 0.0 -1.252114539751e+02 
-2.074733258772e+01 -2.345258267086e+00 0.0 
-2.345258267086e+00 -7.503955285241e+01 0.0 
0.0 0.0 -2.768827697059e+01 
-1.507743498007e+02 6.507544366500e+00 0.0 
6.507544366500e+00 -3.654656936788e+02 0.0 
0.0 0.0 -1.544720130438e+02 
-1.122414816248e+02 -9.409387679629e-04 0.0 
-9.409387679629e-04 -2.619882342623e+02 0.0 
0.0 0.0 -1.089860425386e+02 
-1.005789515498e+02 2.427003596070e-01 0.0 
2.427003596070e-01 -2.264325193378e+02 0.0 
0.0 0.0 -9.352569713974e+01 
-5.317398945828e+01 1.062109970849e+00 0.0 
1.062109970849e+00 -7.604244660938e+01 0.0 
0.0 0.0 -3.836493082030e+01 
-4.496659129617e+01 -2.112718699286e+01 0.0 
-2.112718699286e+01 -9.112283112065e+01 0.0 
0.0 0.0 -3.441977053817e+01 
-9.059369251740e+01 2.756831433327e+01 0.0 
2.756831433327e+01 -2.594698631251e+02 0.0 
0.0 0.0 -1.046190666928e+02 
-1.760055807573e+01 -1.122426662405e+00 0.0 
-1.122426662405e+00 -6.026599374732e+01 0.0 
0.0 0.0 -2.158524677560e+01 
-9.354016002131e+01 -2.162391296046e+00 0.0 
-2.162391296046e+00 -2.069190467340e+02 0.0 
0.0 0.0 -8.479211317148e+01 
-1.075972283591e+02 3.804140978520e+01 0.0 
3.804140978520e+01 -2.481425087566e+02 0.0 
0.0 0.0 -1.063219211347e+02 
-7.532957641981e+01 1.042166347701e+00 0.0 
1.042166347701e+00 -1.512092682082e+02 0.0 
0.0 0.0 -6.756165338840e+01 
-1.007215181617e+02 -1.181735681544e+00 0.0 
-1.181735681544e+00 -2.253578507228e+02 0.0 
0.0 0.0 -9.326518311329e+01 
-4.480734362019e+01 1.215450280195e+00 0.0 
1.215450280195e+00 -5.526815004544e+01 0.0 
0.0 0.0 -2.962264809969e+01 
-1.155959733369e+02 3.839875903622e+01 0.0 
3.839875903622e+01 -2.869441659104e+02 0.0 
0.0 0.0 -1.203620417742e+02 
-1.012544235828e+02 3.836512525409e+01 0.0 
3.836512525409e+01 -2.281253258488e+02 0.0 
0.0 0.0 -9.841392482949e+01 
-9.327904293753e+01 3.733068282309e+01 0.0 
3.733068282309e+01 -2.078657864069e+02 0.0 
0.0 0.0 -8.994344880334e+01 
-2.643667549831e+01 -4.484918998697e-02 0.0 
-4.484918998697e-02 -8.134633498095e+00 0.0 
0.0 0.0 -9.971392698922e+00 
-8.573386179292e+01 2.549705879510e+01 0.0 
2.549705879510e+01 -2.553745568873e+02 0.0 
0.0 0.0 -1.019325256041e+02 
-9.590231558571e+01 3.174142656148e+01 0.0 
3.174142656148e+01 -2.042440919144e+02 0.0 
0.0 0.0 -8.964392225002e+01 
-5.229541885664e+01 -3.289264672109e+00 0.0 
-3.289264672109e+00 -1.164282684261e+02 0.0 
0.0 0.0 -4.580721637574e+01 
-1.605724061938e+01 -6.877479493104e-02 0.0 
-6.877479493104e-02 -2.419107527784e+01 0.0 
0.0 0.0 -1.145079459201e+01 
-1.114762697440e+02 3.720715559257e+01 0.0 
3.720715559257e+01 -2.726034444191e+02 0.0 
0.0 0.0 -1.148239142489e+02 
-1.150965775654e+02 1.899549366533e+01 0.0 
1.899549366533e+01 -3.155224039418e+02 0.0 
0.0 0.0 -1.287856944521e+02 
-4.281798343139e+01 -2.215257993456e+01 0.0 
-2.215257993456e+01 -8.335887091653e+01 0.0 
0.0 0.0 -3.125166445715e+01 
-5.799686841695e+01 1.744017262771e+00 0.0 
1.744017262771e+00 -9.046524132038e+01 0.0 
0.0 0.0 -4.413863292120e+01 
-1.584664394763e+02 3.192265566887e+00 0.0 
3.192265566887e+00 -3.763444562654e+02 0.0 
0.0 0.0 -1.600432687225e+02 
-1.120922000547e+02 3.396197064288e+01 0.0 
3.396197064288e+01 -2.856249171640e+02 0.0 
0.0 0.0 -1.189151351656e+02 
-1.175939769570e+02 3.765856907570e+01 0.0 
3.765856907570e+01 -2.941715040584e+02 0.0 
0.0 0.0 -1.231296443046e+02 
-1.181659291527e+02 7.772475502646e-01 0.0 
7.772475502646e-01 -2.827235647976e+02 0.0 
0.0 0.0 -1.179871426668e+02 
-4.431471677992e+01 3.391188516281e+01 0.0 
3.391188516281e+01 -9.630237627685e+01 0.0 
0.0 0.0 -4.353730376809e+01 
-4.260813101822e+01 3.018151820069e+01 0.0 
3.018151820069e+01 -2.723408998625e+01 0.0 
0.0 0.0 -1.810488406622e+01 
-4.529420961729e+01 3.041253073553e+01 0.0 
3.041253073553e+01 -6.691664086203e+01 0.0 
0.0 0.0 -3.027051154683e+01 
-5.829863046673e+01 1.285230633135e+01 0.0 
1.285230633135e+01 -4.924385070609e+01 0.0 
0.0 0.0 -3.186274435185e+01 
-8.493973862306e+01 2.482341429818e+01 0.0 
2.482341429818e+01 -2.549204532227e+02 0.0 
0.0 0.0 -1.023747813546e+02 
-8.228372469238e+01 1.054096547469e+01 0.0 
1.054096547469e+01 -1.673830178161e+02 0.0 
0.0 0.0 -7.450002275255e+01 
-1.452184864205e+02 2.410367943458e+01 0.0 
2.410367943458e+01 -3.542472947970e+02 0.0 
0.0 0.0 -1.494397343653e+02 
-4.218368166682e+01 -1.657811424563e+01 0.0 
-1.657811424563e+01 -5.262432296950e+01 0.0 
0.0 0.0 -2.333801272969e+01 
-2.838596608059e+01 -7.029969776624e+00 0.0 
-7.029969776624e+00 -4.248429951646e+01 0.0 
0.0 0.0 -1.725033155909e+01 
-4.437481241636e+01 3.034279869676e+01 0.0 
3.034279869676e+01 -2.872334566407e+01 0.0 
0.0 0.0 -1.845172417617e+01 
-5.938139100424e+01 1.105082122348e+00 0.0 
1.105082122348e+00 -9.578776498888e+01 0.0 
0.0 0.0 -4.615074679794e+01 
-6.498063301413e+01 -3.298667520691e+00 0.0 
-3.298667520691e+00 -1.450535812498e+02 0.0 
0.0 0.0 -5.765342034690e+01 
-9.365169593836e+01 2.552477869452e+01 0.0 
2.552477869452e+01 -1.866994539219e+02 0.0 
0.0 0.0 -8.370534495809e+01 
-1.736982327869e+01 -8.900535035123e-01 0.0 
-8.900535035123e-01 -7.172855158162e+01 0.0 
0.0 0.0 -2.617315361212e+01 
-1.323650869410e+02 2.285846295493e+01 0.0 
2.285846295493e+01 -3.376945495209e+02 0.0 
0.0 0.0 -1.406178909386e+02 
-4.445717071281e+01 1.727496163690e+00 0.0 
1.727496163690e+00 -4.094057020395e+01 0.0 
0.0 0.0 -2.521932227503e+01 
-1.376517928601e+02 3.286305098537e+01 0.0 
3.286305098537e+01 -3.327766257275e+02 0.0 
0.0 0.0 -1.407285255763e+02 
-1.057183689927e+02 3.119466022250e+01 0.0 
3.119466022250e+01 -2.813640119880e+02 0.0 
0.0 0.0 -1.157247142942e+02 
-6.200659270260e+01 1.817076583041e+01 0.0 
1.817076583041e+01 -5.545310799047e+01 0.0 
0.0 0.0 -3.483791020792e+01 
-1.499812205531e+02 1.442602102411e+01 0.0 
1.442602102411e+01 -3.703190599424e+02 0.0 
0.0 0.0 -1.556900841487e+02 
-9.767980780449e+01 2.764965590857e+01 0.0 
2.764965590857e+01 -2.038321150117e+02 0.0 
0.0 0.0 -9.005357684486e+01 
-8.388293820409e+01 2.017051747863e+00 0.0 
2.017051747863e+00 -1.792848604955e+02 0.0 
0.0 0.0 -7.855033960988e+01 
-4.509893044012e+01 3.049989249728e+01 0.0 
3.049989249728e+01 -3.003464855857e+01 0.0 
0.0 0.0 -1.830110230365e+01 
-8.705607966515e+01 2.022313991223e+01 0.0 
2.022313991223e+01 -1.723048081186e+02 0.0 
0.0 0.0 -7.740826633512e+01 
-1.230979391942e+02 3.924521080227e+01 0.0 
3.924521080227e+01 -2.930194392376e+02 0.0 
0.0 0.0 -1.244352135295e+02 
-1.312038298405e+02 2.393642263288e+01 0.0 
2.393642263288e+01 -3.378810022530e+02 0.0 
0.0 0.0 -1.403254496280e+02 
-1.093101035258e+02 2.902001942501e+01 0.0 
2.902001942501e+01 -2.935761464546e+02 0.0 
0.0 0.0 -1.204658749941e+02 
-1.673796199338e+02 7.835048186516e+00 0.0 
7.835048186516e+00 -3.918857798455e+02 0.0 
0.0 0.0 -1.673796199338e+02 
-9.173526757077e+01 3.501197484994e+01 0.0 
3.501197484994e+01 -2.067561563936e+02 0.0 
0.0 0.0 -8.914742718932e+01 
-6.344924784694e+01 2.489555274763e+01 0.0 
2.489555274763e+01 -7.647285980236e+01 0.0 
0.0 0.0 -4.252837519532e+01 
-4.165450941651e+01 3.164945309148e+01 0.0 
3.164945309148e+01 -7.046727673368e+01 0.0 
0.0 0.0 -2.725545839062e+01 
-1.039700858636e+02 3.883721895593e+01 0.0 
3.883721895593e+01 -2.318148613070e+02 0.0 
0.0 0.0 -1.003354841512e+02 
-6.206960924801e+01 1.217108590230e+01 0.0 
1.217108590230e+01 -6.593324490409e+01 0.0 
0.0 0.0 -3.800085624563e+01 
-1.501728038653e+02 2.331890026127e+00 0.0 
2.331890026127e+00 -3.610674488802e+02 0.0 
0.0 0.0 -1.529720758236e+02 
-1.170119329057e+02 3.263669723231e+01 0.0 
3.263669723231e+01 -2.996164018665e+02 0.0 
0.0 0.0 -1.245885004317e+02 
-1.587968176427e+02 6.806792940368e+00 0.0 
6.806792940368e+00 -3.783801363886e+02 0.0 
0.0 0.0 -1.607530862094e+02 
-6.666500796166e+01 2.197821134707e+00 0.0 
2.197821134707e+00 -1.174244835775e+02 0.0 
0.0 0.0 -5.482684746174e+01 
-1.403951674244e+02 3.127119318715e+01 0.0 
3.127119318715e+01 -3.389082215933e+02 0.0 
0.0 0.0 -1.433910167053e+02 
-1.457061864851e+02 1.255661472758e+01 0.0 
1.255661472758e+01 -3.606114784840e+02 0.0 
0.0 0.0 -1.514952994907e+02 
-1.440976083498e+02 1.167684706203e+01 0.0 
1.167684706203e+01 -3.598105790553e+02 0.0 
0.0 0.0 -1.507724562215e+02 
-6.739047193293e+01 -2.263395326725e+00 0.0 
-2.263395326725e+00 -1.500077532538e+02 0.0 
0.0 0.0 -6.030636735006e+01 
-1.647062858109e+02 6.236327328001e+00 0.0 
6.236327328001e+00 -3.914834410400e+02 0.0 
0.0 0.0 -1.664569180553e+02 
-4.024501684545e+01 3.339826545955e+00 0.0 
3.339826545955e+00 -2.611315841085e+01 0.0 
0.0 0.0 -1.950745257689e+01 
-7.941741378234e+01 5.925445378842e+00 0.0 
5.925445378842e+00 -1.600880595504e+02 0.0 
0.0 0.0 -7.145164199984e+01 
-2.909042970899e+01 -7.705409677371e+00 0.0 
-7.705409677371e+00 -4.568096408293e+01 0.0 
0.0 0.0 -1.793260937839e+01 
-7.522071322404e+01 2.805706311866e+00 0.0 
2.805706311866e+00 -1.441878603109e+02 0.0 
0.0 0.0 -6.542257206048e+01 
-5.946969430556e+01 1.846113644440e+00 0.0 
1.846113644440e+00 -9.258384802372e+01 0.0 
0.0 0.0 -4.521606269878e+01 
-1.125351716565e+01 8.884873254299e-02 0.0 
8.884873254299e-02 -4.191474606701e+01 0.0 
0.0 0.0 -1.278170166846e+01 
-3.815875407207e+01 -1.461282174021e+01 0.0 
-1.461282174021e+01 -1.262900917579e+02 0.0 
0.0 0.0 -4.868999463236e+01 
-9.564310646203e+01 3.560580008458e+01 0.0 
3.560580008458e+01 -2.239005003536e+02 0.0 
0.0 0.0 -9.546308204470e+01 
-8.397308590690e+01 1.435769789827e+01 0.0 
1.435769789827e+01 -1.823171450321e+02 0.0 
0.0 0.0 -7.948706928169e+01 
-7.888919541168e+01 3.243344245154e+00 0.0 
3.243344245154e+00 -1.625348701724e+02 0.0 
0.0 0.0 -7.202721967523e+01 
-1.343641692837e+02 2.971977101043e+01 0.0 
2.971977101043e+01 -3.377153881016e+02 0.0 
0.0 0.0 -1.412238672156e+02 
-4.529725151275e+01 3.345174542847e-01 0.0 
3.345174542847e-01 -5.438227689386e+01 0.0 
0.0 0.0 -2.950385852198e+01 
-1.395288171976e+01 -4.668647025315e-01 0.0 
-4.668647025315e-01 -2.328383078767e+01 0.0 
0.0 0.0 -1.002312894438e+01 
-3.836042691163e+01 2.425393673963e+01 0.0 
2.425393673963e+01 -1.104000807362e+02 0.0 
0.0 0.0 -4.651960095365e+01 
-1.140051719805e+01 -1.667683016690e+00 0.0 
-1.667683016690e+00 -2.876844352620e+01 0.0 
0.0 0.0 -1.118916655942e+01 
-3.290765608719e+01 -7.532845136335e+00 0.0 
-7.532845136335e+00 -5.781719405458e+01 0.0 
0.0 0.0 -2.192136739975e+01 
-5.380973146249e+01 4.324639030727e+01 0.0 
4.324639030727e+01 -5.415152888474e+01 0.0 
0.0 0.0 -3.283882931885e+01 
-9.036660618758e+01 -3.254392125906e+00 0.0 
-3.254392125906e+00 -2.010091171364e+02 0.0 
0.0 0.0 -8.228364843935e+01 
-1.497303567631e+02 8.661586197802e-01 0.0 
8.661586197802e-01 -3.608333522671e+02 0.0 
0.0 0.0 -1.527691127091e+02 
-1.009358800602e+02 3.519778694899e+01 0.0 
3.519778694899e+01 -2.190399378259e+02 0.0 
0.0 0.0 -9.559274536582e+01 
-7.036437701247e+01 2.428928504070e+01 0.0 
2.428928504070e+01 -7.987522974965e+01 0.0 
0.0 0.0 -4.467188202864e+01 
-8.076632796986e+01 -3.781015366464e+00 0.0 
-3.781015366464e+00 -1.773420934305e+02 0.0 
0.0 0.0 -7.118526465229e+01 
-1.456087493112e+02 9.665332018305e+00 0.0 
9.665332018305e+00 -3.600460268368e+02 0.0 
0.0 0.0 -1.512964328444e+02 
-1.344586993728e+02 1.657508395072e+01 0.0 
1.657508395072e+01 -3.476161925878e+02 0.0 
0.0 0.0 -1.442224675882e+02 
-1.319394585352e+02 3.466798956321e+01 0.0 
3.466798956321e+01 -3.288546835340e+02 0.0 
0.0 0.0 -1.378382426208e+02 
-1.177104144157e+02 3.742882915135e+01 0.0 
3.742882915135e+01 -2.845501204229e+02 0.0 
0.0 0.0 -1.202781604516e+02 
-1.028017650622e+02 3.687864535447e+01 0.0 
3.687864535447e+01 -2.426353466788e+02 0.0 
0.0 0.0 -1.032311335223e+02 
-2.714625665051e+01 -7.730464401737e+00 0.0 
-7.730464401737e+00 -4.358968622786e+01 0.0 
0.0 0.0 -1.853811613396e+01 
-3.740002008752e+01 -2.124521670548e+01 0.0 
-2.124521670548e+01 -1.088842303879e+02 0.0 
0.0 0.0 -4.564773143883e+01 
-1.500226003049e+02 3.362175622179e+00 0.0 
3.362175622179e+00 -3.623156956778e+02 0.0 
0.0 0.0 -1.533014887948e+02 
-8.453336971800e+00 -4.365417621057e-01 0.0 
-4.365417621057e-01 -4.096990323613e+01 0.0 
0.0 0.0 -1.256308784042e+01 
-1.117358760312e+01 -1.105184223516e+00 0.0 
-1.105184223516e+00 -4.920766213705e+01 0.0 
0.0 0.0 -1.602506638932e+01 
-4.876660931051e+01 3.844040370176e+01 0.0 
3.844040370176e+01 -5.978975197764e+01 0.0 
0.0 0.0 -3.109424550283e+01 
-1.518358230811e+01 -5.110759010373e-01 0.0 
-5.110759010373e-01 -3.859860402497e+01 0.0 
0.0 0.0 -1.442694272694e+01 
-1.552688209223e+02 1.292946847107e+01 0.0 
1.292946847107e+01 -3.737392042279e+02 0.0 
0.0 0.0 -1.583024075450e+02 
-1.179050589815e+02 4.056965192685e+01 0.0 
4.056965192685e+01 -2.745533998312e+02 0.0 
0.0 0.0 -1.173375376438e+02 
-8.002310980475e+01 8.585965058714e+00 0.0 
8.585965058714e+00 -1.665767147582e+02 0.0 
0.0 0.0 -7.357994736888e+01 
-1.359598714535e+02 3.460314284561e+01 0.0 
3.460314284561e+01 -3.281799796744e+02 0.0 
0.0 0.0 -1.388419553384e+02 
-1.301934613815e+02 1.788693115255e+01 0.0 
1.788693115255e+01 -3.375169816482e+02 0.0 
0.0 0.0 -1.399131329089e+02 
-4.959768209131e+01 5.069413139579e-01 0.0 
5.069413139579e-01 -6.587697224457e+01 0.0 
0.0 0.0 -3.424239630077e+01 
-8.761042623716e+01 1.992574139768e+01 0.0 
1.992574139768e+01 -2.057576612200e+02 0.0 
0.0 0.0 -8.761042623716e+01 
-4.831676503779e+01 -2.026225121075e+01 0.0 
-2.026225121075e+01 -1.287142893987e+02 0.0 
0.0 0.0 -4.947206958387e+01 
-2.529226213536e+01 -4.045101165499e-02 0.0 
-4.045101165499e-02 -7.219060979100e+00 0.0 
0.0 0.0 -9.353396934338e+00 
-4.942011562905e+01 -2.318319695351e+01 0.0 
-2.318319695351e+01 -7.499261506841e+01 0.0 
0.0 0.0 -3.052791900044e+01 
-7.185369478115e+00 -1.138702220791e+00 0.0 
-1.138702220791e+00 -2.432012330139e+01 0.0 
0.0 0.0 -7.075915747602e+00 
-1.652308877793e+02 3.784036922914e+00 0.0 
3.784036922914e+00 -3.917036883658e+02 0.0 
0.0 0.0 -1.666803728436e+02 
-6.228682988311e+01 1.728126107279e+01 0.0 
1.728126107279e+01 -4.207909875612e+01 0.0 
0.0 0.0 -3.090977859177e+01 
-1.558042148435e+01 -8.610645272139e-01 0.0 
-8.610645272139e-01 -5.767889763136e+01 0.0 
0.0 0.0 -2.004655964692e+01 
-8.773263089783e+01 -3.060506812204e+00 0.0 
-3.060506812204e+00 -1.927486337687e+02 0.0 
0.0 0.0 -7.881773260452e+01 
-1.164711716915e+02 4.212971191817e+01 0.0 
4.212971191817e+01 -2.708965836328e+02 0.0 
0.0 0.0 -1.158103265973e+02 
-8.552136102817e+01 1.429679051314e+01 0.0 
1.429679051314e+01 -1.686573973372e+02 0.0 
0.0 0.0 -7.585362750960e+01 
-9.543702922984e+01 3.030827660160e+01 0.0 
3.030827660160e+01 -2.098760908346e+02 0.0 
0.0 0.0 -9.119393601932e+01 
-5.995310314572e+01 -9.883064461760e-01 0.0 
-9.883064461760e-01 -1.361942591745e+02 0.0 
0.0 0.0 -5.467262953055e+01 
-3.824957957286e+01 2.478597674615e+00 0.0 
2.478597674615e+00 -1.200739306905e+02 0.0 
0.0 0.0 -4.942688602249e+01 
-1.553264139030e+02 7.844136568402e+00 0.0 
7.844136568402e+00 -3.762427185449e+02 0.0 
0.0 0.0 -1.590707397344e+02 
-8.820697775728e+01 1.747504864916e+00 0.0 
1.747504864916e+00 -1.970719858925e+02 0.0 
0.0 0.0 -8.518368909494e+01 
-1.657882843507e+02 8.386075690490e-01 0.0 
8.386075690490e-01 -3.922794536685e+02 0.0 
0.0 0.0 -1.670203214058e+02 
-3.097158276346e+01 -5.268460221490e-01 0.0 
-5.268460221490e-01 -2.173946963698e+01 0.0 
0.0 0.0 -1.541331572013e+01 
-1.401407111608e+02 1.833487508107e+01 0.0 
1.833487508107e+01 -3.504997075030e+02 0.0 
0.0 0.0 -1.467921255992e+02 
-1.425700037112e+01 -1.253853994520e+00 0.0 
-1.253853994520e+00 -5.831671852751e+01 0.0 
0.0 0.0 -2.047363199001e+01 
-9.050766526780e+01 2.341115303986e+01 0.0 
2.341115303986e+01 -1.856001889734e+02 0.0 
0.0 0.0 -8.243235627235e+01 
-8.686603195850e+00 -8.431063753893e-01 0.0 
-8.431063753893e-01 -2.343165052468e+01 0.0 
0.0 0.0 -7.668140361505e+00 
-1.533885477696e+02 1.658852665317e+01 0.0 
1.658852665317e+01 -3.703034593207e+02 0.0 
0.0 0.0 -1.567076021271e+02 
-1.014900802122e+02 3.261385404022e+01 0.0 
3.261385404022e+01 -2.153829845046e+02 0.0 
0.0 0.0 -9.466191941504e+01 
-4.633517068126e+01 1.479174823903e+01 0.0 
1.479174823903e+01 -1.170093407675e+02 0.0 
0.0 0.0 -5.036962763838e+01 
-1.133430663558e+02 3.528793643835e+01 0.0 
3.528793643835e+01 -2.868242786381e+02 0.0 
0.0 0.0 -1.196502034982e+02 
-6.418611254641e+01 3.004170323491e+00 0.0 
3.004170323491e+00 -1.073907519995e+02 0.0 
0.0 0.0 -5.107305936377e+01 
-8.203510017793e+01 1.055281335109e+01 0.0 
1.055281335109e+01 -1.809050767011e+02 0.0 
0.0 0.0 -7.848205306372e+01 
-1.551945182170e+02 2.974805092407e+01 0.0 
2.974805092407e+01 -3.634538758397e+02 0.0 
0.0 0.0 -1.551945182170e+02 
-5.346144585212e+01 1.719979849003e+00 0.0 
1.719979849003e+00 -7.980668619348e+01 0.0 
0.0 0.0 -3.958043961368e+01 
-1.142209074917e+02 4.015190510949e+01 0.0 
4.015190510949e+01 -2.660124175084e+02 0.0 
0.0 0.0 -1.136699975000e+02 
-9.760153314117e+01 3.040310326836e+01 0.0 
3.040310326836e+01 -1.971908604324e+02 0.0 
0.0 0.0 -8.803771807208e+01 
-5.693689211489e+01 1.326103182267e+00 0.0 
1.326103182267e+00 -9.125074876561e+01 0.0 
0.0 0.0 -4.405629226415e+01 
-1.113515932858e+02 3.884990412108e+01 0.0 
3.884990412108e+01 -2.574861155191e+02 0.0 
0.0 0.0 -1.102513126415e+02 
-7.637586816968e+01 -2.278368041091e+00 0.0 
-2.278368041091e+00 -1.647427398219e+02 0.0 
0.0 0.0 -6.682028076085e+01 
-2.517904033038e+01 4.968455001406e-02 0.0 
4.968455001406e-02 -7.262614854904e+00 0.0 
0.0 0.0 -9.332496555585e+00 
-1.246769705401e+02 3.340683573078e+01 0.0 
3.340683573078e+01 -3.145254929925e+02 0.0 
0.0 0.0 -1.313607390598e+02 
-8.181811486569e+01 8.040603331170e-01 0.0 
8.040603331170e-01 -1.805533449491e+02 0.0 
0.0 0.0 -7.831143794443e+01 
-4.514775938446e+00 -5.330999481076e-02 0.0 
-5.330999481076e-02 -8.767635992987e+00 0.0 
0.0 0.0 -2.021484950706e+00 
-2.490898568494e+01 -8.482210138194e-02 0.0 
-8.482210138194e-02 -7.029740380687e+00 0.0 
0.0 0.0 -9.181617819689e+00 
-1.601941431213e+02 1.018439467577e+00 0.0 
1.018439467577e+00 -3.798314174416e+02 0.0 
0.0 0.0 -1.616076681689e+02 
-2.677384406350e+01 -5.110457985452e+00 0.0 
-5.110457985452e+00 -7.403373110545e+01 0.0 
0.0 0.0 -2.697208387029e+01 
-1.321170915671e+02 2.167922224079e+01 0.0 
2.167922224079e+01 -3.427032171068e+02 0.0 
0.0 0.0 -1.420460926022e+02 
-1.017126889662e+02 3.441122689578e+01 0.0 
3.441122689578e+01 -2.083033613584e+02 0.0 
0.0 0.0 -9.260481509739e+01 
-8.629667783299e+01 1.008813315290e+01 0.0 
1.008813315290e+01 -1.812042859709e+02 0.0 
0.0 0.0 -7.985028914117e+01 
-1.943129327526e+01 -3.233576833067e+00 0.0 
-3.233576833067e+00 -7.086983224795e+01 0.0 
0.0 0.0 -2.590253324327e+01 
-4.755576570812e+01 3.615251046750e+01 0.0 
3.615251046750e+01 -8.620358241122e+01 0.0 
0.0 0.0 -3.809604864969e+01 
-1.033348957641e+02 -1.412973130714e+00 0.0 
-1.412973130714e+00 -2.352073472280e+02 0.0 
0.0 0.0 -9.722043640684e+01 
-6.885400452721e+01 1.503872841761e+00 0.0 
1.503872841761e+00 -1.290824194359e+02 0.0 
0.0 0.0 -5.898092718893e+01 
-1.397757536851e+02 -3.403119429424e+00 0.0 
-3.403119429424e+00 -9.570385772401e+01 0.0 
0.0 0.0 -7.086826793555e+01 
-9.112075889657e+01 2.565028052656e+01 0.0 
2.565028052656e+01 -1.993681989669e+02 0.0 
0.0 0.0 -8.674668735904e+01 
-5.062183448628e+01 6.768386607473e-01 0.0 
6.768386607473e-01 -7.341472756221e+01 0.0 
0.0 0.0 -3.681096861455e+01 
-4.969138218070e+01 -2.206804272006e+01 0.0 
-2.206804272006e+01 -9.307242698161e+01 0.0 
0.0 0.0 -3.731526861485e+01 
-4.614641595205e+01 7.279080436934e-01 0.0 
7.279080436934e-01 -5.947676102962e+01 0.0 
0.0 0.0 -3.128695309450e+01 
-1.305882640974e+02 3.743563936073e+01 0.0 
3.743563936073e+01 -3.209161605499e+02 0.0 
0.0 0.0 -1.350513273942e+02 
-1.070156689394e+02 8.165564184615e-01 0.0 
8.165564184615e-01 -2.463805440571e+02 0.0 
0.0 0.0 -1.021461193051e+02 
-5.158208730123e+01 3.576039053873e+01 0.0 
3.576039053873e+01 -3.398964330068e+01 0.0 
0.0 0.0 -2.656198840203e+01 
-6.976903535007e+01 -4.260751279717e+00 0.0 
-4.260751279717e+00 -1.488735840960e+02 0.0 
0.0 0.0 -5.949224098720e+01 
-9.560012070095e+01 -2.771228417739e+00 0.0 
-2.771228417739e+00 -2.163915309762e+02 0.0 
0.0 0.0 -8.890830396545e+01 
-1.101586858483e+02 -1.401863425678e+00 0.0 
-1.401863425678e+00 -2.557079870123e+02 0.0 
0.0 0.0 -1.063148481324e+02 
-1.298439679663e+02 3.105487088579e+01 0.0 
3.105487088579e+01 -3.256456962529e+02 0.0 
0.0 0.0 -1.362468992658e+02 
-9.557974836186e+01 -7.287728724428e-01 0.0 
-7.287728724428e-01 -2.108640470548e+02 0.0 
0.0 0.0 -8.676025772141e+01 
-9.904923060215e+01 -1.793277428659e+00 0.0 
-1.793277428659e+00 -2.236223121988e+02 0.0 
0.0 0.0 -9.230586228006e+01 
-1.263425764801e+01 -1.627123707080e+00 0.0 
-1.627123707080e+00 -3.754894754649e+01 0.0 
0.0 0.0 -1.355104572627e+01 
-1.495930856993e+02 5.677335797272e+00 0.0 
5.677335797272e+00 -3.652334000026e+02 0.0 
0.0 0.0 -1.540479457106e+02 
-1.094907056970e+02 3.644772607736e+01 0.0 
3.644772607736e+01 -2.718717816190e+02 0.0 
0.0 0.0 -1.140087461948e+02 
-4.410531654153e+01 3.153702896491e+01 0.0 
3.153702896491e+01 -1.019328923517e+02 0.0 
0.0 0.0 -4.252821184557e+01 
-8.086918877723e+01 1.834437683308e+00 0.0 
1.834437683308e+00 -1.795186251934e+02 0.0 
0.0 0.0 -7.771634419119e+01 
-1.602117800812e+02 1.891635956849e-02 0.0 
1.891635956849e-02 -3.794103296299e+02 0.0 
0.0 0.0 -1.614866329133e+02 
-3.172024506842e+01 6.236712544188e-01 0.0 
6.236712544188e-01 -2.289888231973e+01 0.0 
0.0 0.0 -1.598573821644e+01 
-5.147653954147e+01 5.844357900738e-01 0.0 
5.844357900738e-01 -7.377548650553e+01 0.0 
0.0 0.0 -3.717560781410e+01 
-9.426176637336e+01 -2.504988980603e+00 0.0 
-2.504988980603e+00 -2.105210597343e+02 0.0 
0.0 0.0 -8.661181883205e+01 
-9.822394212796e+01 -1.494775958565e+00 0.0 
-1.494775958565e+00 -2.178262042396e+02 0.0 
0.0 0.0 -8.982235938669e+01 
-9.928350599776e+01 -1.002459320795e+00 0.0 
-1.002459320795e+00 -2.242893897785e+02 0.0 
0.0 0.0 -9.248649630052e+01 
-1.258817995738e+02 2.058489404942e+01 0.0 
2.058489404942e+01 -3.307876794830e+02 0.0 
0.0 0.0 -1.366008437170e+02 
-4.057811087474e+01 -1.683661307747e+01 0.0 
-1.683661307747e+01 -6.883757159928e+01 0.0 
0.0 0.0 -2.527957415936e+01 
-1.146510208872e+02 3.993295705200e+01 0.0 
3.993295705200e+01 -2.771505458905e+02 0.0 
0.0 0.0 -1.171404700333e+02 
-3.804867467253e+01 5.412833003929e-02 0.0 
5.412833003929e-02 -3.955856897292e+01 0.0 
0.0 0.0 -2.288217309363e+01 
-9.660891031050e+01 2.534294009745e+01 0.0 
2.534294009745e+01 -1.981642538660e+02 0.0 
0.0 0.0 -8.803194925295e+01 
-1.283178570678e+02 2.104213444282e+01 0.0 
2.104213444282e+01 -3.317425526287e+02 0.0 
0.0 0.0 -1.376181229090e+02 
-4.816606685803e+01 1.403671510408e+00 0.0 
1.403671510408e+00 -6.071792413436e+01 0.0 
0.0 0.0 -3.226519729772e+01 
-1.052578301038e+02 3.758271320544e+01 0.0 
3.758271320544e+01 -2.440769387724e+02 0.0 
0.0 0.0 -1.044004306629e+02 
-1.280565080779e+02 2.982872914789e+01 0.0 
2.982872914789e+01 -3.242960253777e+02 0.0 
0.0 0.0 -1.353057600367e+02 
-1.340507301465e+02 3.355416906296e+01 0.0 
3.355416906296e+01 -3.340971732365e+02 0.0 
0.0 0.0 -1.400443710149e+02 
-5.365992359187e+01 4.486203330947e+01 0.0 
4.486203330947e+01 -7.263083512532e+01 0.0 
0.0 0.0 -3.911314008819e+01 
-1.072201332654e+02 3.904977990929e+01 0.0 
3.904977990929e+01 -2.451457876461e+02 0.0 
0.0 0.0 -1.053097762735e+02 
-1.107538643399e+02 3.949898838123e+01 0.0 
3.949898838123e+01 -2.607295189024e+02 0.0 
0.0 0.0 -1.110450149727e+02 
-1.499680719219e+01 -5.955445274283e-01 0.0 
-5.955445274283e-01 -3.781390586427e+01 0.0 
0.0 0.0 -1.367282191015e+01 
-9.191798793234e+01 -1.775532316548e+00 0.0 
-1.775532316548e+00 -2.007745564158e+02 0.0 
0.0 0.0 -8.237319997836e+01 
-5.588347658336e+01 4.262417022775e+01 0.0 
4.262417022775e+01 -6.471499584064e+01 0.0 
0.0 0.0 -3.723339454597e+01 
-1.107916809782e+02 4.090792935176e+01 0.0 
4.090792935176e+01 -2.521207440235e+02 0.0 
0.0 0.0 -1.084737275005e+02 

TENSORS element_materi_strain_total float
-1.242910679111e-03 3.894902486358e-03 0.0 
3.894902486358e-03 5.434867103713e-03 0.0 
0.0 0.0 0.0 
-1.098126054113e-03 3.555490917820e-03 0.0 
3.555490917820e-03 5.188053137419e-03 0.0 
0.0 0.0 0.0 
-3.579476430550e-04 4.716905536170e-03 0.0 
4.716905536170e-03 1.275154798143e-02 0.0 
0.0 0.0 0.0 
-7.360652559245e-04 5.184275726631e-04 0.0 
5.184275726631e-04 1.733643079744e-02 0.0 
0.0 0.0 0.0 
-2.341390866209e-03 3.034710118318e-04 0.0 
3.034710118318e-04 1.547789219094e-02 0.0 
0.0 0.0 0.0 
1.188522355855e-03 3.616829347260e-03 0.0 
3.616829347260e-03 -3.235236834153e-03 0.0 
0.0 0.0 0.0 
-2.194039237951e-03 2.118409442663e-04 0.0 
2.118409442663e-04 1.547855750626e-02 0.0 
0.0 0.0 0.0 
-1.062595036334e-03 3.941107864670e-03 0.0 
3.941107864670e-03 4.620544516763e-03 0.0 
0.0 0.0 0.0 
-2.340794071934e-03 1.954405230834e-04 0.0 
1.954405230834e-04 1.548072470502e-02 0.0 
0.0 0.0 0.0 
-7.115287141792e-04 9.028562455443e-04 0.0 
9.028562455443e-04 1.728547271067e-02 0.0 
0.0 0.0 0.0 
-8.869252766115e-04 -3.232109502881e-04 0.0 
-3.232109502881e-04 4.092761737410e-03 0.0 
0.0 0.0 0.0 
-1.055115296542e-03 3.524175962273e-03 0.0 
3.524175962273e-03 4.473648607493e-03 0.0 
0.0 0.0 0.0 
-2.725952606367e-04 -1.628274897608e-04 0.0 
-1.628274897608e-04 5.688246864199e-03 0.0 
0.0 0.0 0.0 
-2.867737963875e-03 1.171697311624e-03 0.0 
1.171697311624e-03 1.564504772488e-02 0.0 
0.0 0.0 0.0 
-1.539234495490e-04 -2.622736996012e-04 0.0 
-2.622736996012e-04 5.734367134970e-03 0.0 
0.0 0.0 0.0 
-4.366279489706e-04 7.384179350611e-04 0.0 
7.384179350611e-04 1.734254243806e-02 0.0 
0.0 0.0 0.0 
-2.546045527521e-03 4.486076984308e-04 0.0 
4.486076984308e-04 1.534615215507e-02 0.0 
0.0 0.0 0.0 
1.315962220088e-03 1.670646510701e-03 0.0 
1.670646510701e-03 -3.719892167323e-03 0.0 
0.0 0.0 0.0 
4.814728541467e-04 -1.636061265386e-04 0.0 
-1.636061265386e-04 1.202736810766e-03 0.0 
0.0 0.0 0.0 
-1.169681982049e-06 -2.767047337456e-04 0.0 
-2.767047337456e-04 1.450351856502e-03 0.0 
0.0 0.0 0.0 
-8.795781583714e-04 9.147109218748e-04 0.0 
9.147109218748e-04 1.728466752286e-02 0.0 
0.0 0.0 0.0 
-1.354671916221e-03 3.575396883238e-03 0.0 
3.575396883238e-03 6.625457018448e-03 0.0 
0.0 0.0 0.0 
-1.527097936345e-03 3.796286939378e-03 0.0 
3.796286939378e-03 7.190218439973e-03 0.0 
0.0 0.0 0.0 
1.470684846131e-03 9.994781097703e-04 0.0 
9.994781097703e-04 2.822185559606e-03 0.0 
0.0 0.0 0.0 
-2.854265795719e-03 2.196798385985e-03 0.0 
2.196798385985e-03 1.522205311215e-02 0.0 
0.0 0.0 0.0 
-8.660277664789e-04 -3.610286297456e-04 0.0 
-3.610286297456e-04 4.131975528758e-03 0.0 
0.0 0.0 0.0 
-4.293956955414e-03 1.962601900269e-03 0.0 
1.962601900269e-03 1.489429127458e-02 0.0 
0.0 0.0 0.0 
7.252592489737e-04 4.873275137963e-03 0.0 
4.873275137963e-03 7.217008847137e-03 0.0 
0.0 0.0 0.0 
-3.139399523774e-03 2.504863022033e-03 0.0 
2.504863022033e-03 1.519608859923e-02 0.0 
0.0 0.0 0.0 
1.235313584443e-03 9.115533206033e-04 0.0 
9.115533206033e-04 3.266595838619e-03 0.0 
0.0 0.0 0.0 
1.592277205617e-03 -3.301215800642e-03 0.0 
-3.301215800642e-03 -2.669574123080e-03 0.0 
0.0 0.0 0.0 
2.123090214787e-04 -4.985635543139e-04 0.0 
-4.985635543139e-04 2.931862655793e-04 0.0 
0.0 0.0 0.0 
-6.300883836791e-04 4.933439799325e-03 0.0 
4.933439799325e-03 1.304453651330e-02 0.0 
0.0 0.0 0.0 
-6.207296798477e-04 -1.109857296132e-04 0.0 
-1.109857296132e-04 4.944322823043e-03 0.0 
0.0 0.0 0.0 
4.421185542240e-04 -2.750444581214e-04 0.0 
-2.750444581214e-04 4.238808939261e-03 0.0 
0.0 0.0 0.0 
-2.735991201031e-05 -3.919654893758e-04 0.0 
-3.919654893758e-04 5.444583123501e-03 0.0 
0.0 0.0 0.0 
3.085050851181e-05 -5.070998993888e-04 0.0 
-5.070998993888e-04 5.437427681857e-03 0.0 
0.0 0.0 0.0 
1.201494217691e-03 2.859201963489e-03 0.0 
2.859201963489e-03 4.111953577146e-03 0.0 
0.0 0.0 0.0 
-2.168107424438e-03 2.081118785292e-05 0.0 
2.081118785292e-05 1.504733254509e-02 0.0 
0.0 0.0 0.0 
-2.094136150996e-03 1.086272819496e-04 0.0 
1.086272819496e-04 1.506122567402e-02 0.0 
0.0 0.0 0.0 
-1.957751312822e-03 3.748061965683e-03 0.0 
3.748061965683e-03 9.031775663272e-03 0.0 
0.0 0.0 0.0 
4.312012830672e-04 1.395508279432e-04 0.0 
1.395508279432e-04 4.054973723483e-03 0.0 
0.0 0.0 0.0 
-9.386865945461e-04 3.790325666624e-03 0.0 
3.790325666624e-03 3.209641070499e-03 0.0 
0.0 0.0 0.0 
-3.602721670856e-03 2.004875783116e-03 0.0 
2.004875783116e-03 1.460828168451e-02 0.0 
0.0 0.0 0.0 
-9.693660371906e-04 1.780581275376e-04 0.0 
1.780581275376e-04 1.727368521604e-02 0.0 
0.0 0.0 0.0 
-9.505565470153e-04 3.713755605850e-03 0.0 
3.713755605850e-03 3.202690846882e-03 0.0 
0.0 0.0 0.0 
1.582348570756e-03 -3.398168270401e-03 0.0 
-3.398168270401e-03 -3.357258889211e-03 0.0 
0.0 0.0 0.0 
-6.733035413037e-04 3.033359790943e-04 0.0 
3.033359790943e-04 1.726924815372e-02 0.0 
0.0 0.0 0.0 
-3.863413656227e-04 -2.760115903319e-03 0.0 
-2.760115903319e-03 -1.201348323080e-03 0.0 
0.0 0.0 0.0 
-3.090902398404e-03 9.896132939357e-04 0.0 
9.896132939357e-04 1.562237627657e-02 0.0 
0.0 0.0 0.0 
-1.719414052966e-03 3.821114308333e-03 0.0 
3.821114308333e-03 8.051980977039e-03 0.0 
0.0 0.0 0.0 
-3.102010683809e-05 -1.772622907194e-04 0.0 
-1.772622907194e-04 1.775906150488e-03 0.0 
0.0 0.0 0.0 
3.202961052250e-03 -2.914200541445e-03 0.0 
-2.914200541445e-03 -3.650544104393e-03 0.0 
0.0 0.0 0.0 
-1.683294800611e-03 3.496710096225e-03 0.0 
3.496710096225e-03 8.274675042922e-03 0.0 
0.0 0.0 0.0 
-5.661433554913e-04 3.980336421366e-03 0.0 
3.980336421366e-03 1.480305422848e-02 0.0 
0.0 0.0 0.0 
-6.678282630280e-04 -5.296102580667e-04 0.0 
-5.296102580667e-04 2.384773677903e-03 0.0 
0.0 0.0 0.0 
-4.183724064524e-04 -3.075376326806e-04 0.0 
-3.075376326806e-04 1.948828744257e-03 0.0 
0.0 0.0 0.0 
-5.957094355185e-04 -1.558046574720e-04 0.0 
-1.558046574720e-04 4.943084308180e-03 0.0 
0.0 0.0 0.0 
8.288403393228e-04 -4.662695530574e-04 0.0 
-4.662695530574e-04 6.597697016499e-04 0.0 
0.0 0.0 0.0 
-5.242167491877e-04 7.396212949152e-04 0.0 
7.396212949152e-04 1.734252974437e-02 0.0 
0.0 0.0 0.0 
-1.297595335716e-03 -2.189290362539e-03 0.0 
-2.189290362539e-03 -3.065495904780e-03 0.0 
0.0 0.0 0.0 
1.423477539721e-03 3.996509556851e-03 0.0 
3.996509556851e-03 4.967324270493e-03 0.0 
0.0 0.0 0.0 
5.644165820773e-04 4.277654758677e-03 0.0 
4.277654758677e-03 3.395541764880e-03 0.0 
0.0 0.0 0.0 
3.107893682415e-03 -2.939482365765e-03 0.0 
-2.939482365765e-03 -3.158247754384e-03 0.0 
0.0 0.0 0.0 
-2.086860950570e-04 -3.453329442594e-04 0.0 
-3.453329442594e-04 5.504788566377e-03 0.0 
0.0 0.0 0.0 
-1.530996358353e-03 3.516505196322e-03 0.0 
3.516505196322e-03 7.434086257893e-03 0.0 
0.0 0.0 0.0 
3.423673302274e-04 -7.450562668871e-04 0.0 
-7.450562668871e-04 -4.834824013127e-03 0.0 
0.0 0.0 0.0 
-5.863343579090e-04 5.066813543981e-03 0.0 
5.066813543981e-03 1.246762879325e-02 0.0 
0.0 0.0 0.0 
3.518693015891e-05 -2.322439458280e-03 0.0 
-2.322439458280e-03 4.638153112908e-04 0.0 
0.0 0.0 0.0 
5.921532220032e-05 5.048882924223e-03 0.0 
5.048882924223e-03 9.808388160018e-03 0.0 
0.0 0.0 0.0 
-7.280485146347e-04 -4.998394407198e-04 0.0 
-4.998394407198e-04 4.159641287160e-03 0.0 
0.0 0.0 0.0 
0.0 2.773931693949e-03 0.0 
2.773931693949e-03 1.649424999477e-02 0.0 
0.0 0.0 0.0 
6.728807609984e-04 4.484152816723e-03 0.0 
4.484152816723e-03 6.744860629923e-03 0.0 
0.0 0.0 0.0 
1.767681944517e-03 -1.014905263065e-04 0.0 
-1.014905263065e-04 -2.750357141744e-04 0.0 
0.0 0.0 0.0 
-8.609016583048e-04 -5.791656863114e-04 0.0 
-5.791656863114e-04 2.577704488578e-03 0.0 
0.0 0.0 0.0 
-9.955120089845e-04 2.051157223760e-03 0.0 
2.051157223760e-03 1.692752531466e-02 0.0 
0.0 0.0 0.0 
-9.258364282621e-04 4.331155342244e-03 0.0 
4.331155342244e-03 1.449195917706e-02 0.0 
0.0 0.0 0.0 
-8.764843806690e-04 3.804943188267e-03 0.0 
3.804943188267e-03 1.941331555502e-03 0.0 
0.0 0.0 0.0 
3.489735419078e-04 -4.458215662887e-04 0.0 
-4.458215662887e-04 8.835670157636e-04 0.0 
0.0 0.0 0.0 
-8.500043146628e-04 3.916074234435e-03 0.0 
3.916074234435e-03 1.946029158336e-03 0.0 
0.0 0.0 0.0 
-3.217355249474e-05 -2.573662010453e-03 0.0 
-2.573662010453e-03 5.029028496060e-04 0.0 
0.0 0.0 0.0 
-2.591235303348e-03 3.790405984580e-04 0.0 
3.790405984580e-04 1.543513312401e-02 0.0 
0.0 0.0 0.0 
-1.403927996525e-03 3.859752270165e-03 0.0 
3.859752270165e-03 6.361734611754e-03 0.0 
0.0 0.0 0.0 
-1.257636960477e-03 3.469251762377e-03 0.0 
3.469251762377e-03 5.928960325175e-03 0.0 
0.0 0.0 0.0 
-2.493727874910e-03 3.476819473636e-04 0.0 
3.476819473636e-04 1.570262747946e-02 0.0 
0.0 0.0 0.0 
-2.270186741511e-03 3.239537974476e-04 0.0 
3.239537974476e-04 1.570286301373e-02 0.0 
0.0 0.0 0.0 
-7.546018416374e-04 -2.984600409765e-04 0.0 
-2.984600409765e-04 4.422731254405e-03 0.0 
0.0 0.0 0.0 
-6.874924730953e-04 -2.648039712905e-05 0.0 
-2.648039712905e-05 4.844165191510e-03 0.0 
0.0 0.0 0.0 
-1.095825035631e-03 4.499025412736e-03 0.0 
4.499025412736e-03 1.159888270033e-02 0.0 
0.0 0.0 0.0 
-2.557889058676e-03 3.258503229931e-04 0.0 
3.258503229931e-04 1.548555109968e-02 0.0 
0.0 0.0 0.0 
-2.610494208253e-04 -6.074566427923e-04 0.0 
-6.074566427923e-04 5.506983894616e-04 0.0 
0.0 0.0 0.0 
-3.383429443229e-03 2.145619962413e-03 0.0 
2.145619962413e-03 1.487102154281e-02 0.0 
0.0 0.0 0.0 
-1.499030573017e-03 1.995804437400e-04 0.0 
1.995804437400e-04 1.676596716706e-02 0.0 
0.0 0.0 0.0 
-1.656442057388e-03 3.015495744536e-04 0.0 
3.015495744536e-04 1.673230294989e-02 0.0 
0.0 0.0 0.0 
-6.239145249614e-04 3.074373281529e-03 0.0 
3.074373281529e-03 1.635510929526e-02 0.0 
0.0 0.0 0.0 
6.674381076910e-04 3.156981589777e-03 0.0 
3.156981589777e-03 4.940366432252e-03 0.0 
0.0 0.0 0.0 
-2.841646973217e-03 5.213275301220e-04 0.0 
5.213275301220e-04 1.547349798776e-02 0.0 
0.0 0.0 0.0 
6.598086549339e-04 -3.173857915636e-05 0.0 
-3.173857915636e-05 4.179893549124e-03 0.0 
0.0 0.0 0.0 
-1.912416271248e-03 3.049554137084e-05 0.0 
3.049554137084e-05 1.600606532417e-02 0.0 
0.0 0.0 0.0 
-1.005582212540e-04 4.194154935815e-03 0.0 
4.194154935815e-03 4.365103822623e-03 0.0 
0.0 0.0 0.0 
-2.369267093271e-03 2.137855541012e-04 0.0 
2.137855541012e-04 1.526698184430e-02 0.0 
0.0 0.0 0.0 
-1.721185401503e-04 -2.416342941117e-04 0.0 
-2.416342941117e-04 5.733094499667e-03 0.0 
0.0 0.0 0.0 
2.603667599281e-03 3.361756349729e-03 0.0 
3.361756349729e-03 2.597954902090e-03 0.0 
0.0 0.0 0.0 
1.311344568268e-03 3.832312917806e-03 0.0 
3.832312917806e-03 4.994148027733e-03 0.0 
0.0 0.0 0.0 
1.190002756870e-03 4.054389367577e-03 0.0 
4.054389367577e-03 1.680417057490e-03 0.0 
0.0 0.0 0.0 
-4.263142857175e-04 -4.028230981952e-03 0.0 
-4.028230981952e-03 -1.431620594643e-03 0.0 
0.0 0.0 0.0 
-4.210131178694e-04 -1.977537001459e-04 0.0 
-1.977537001459e-04 5.352686340329e-03 0.0 
0.0 0.0 0.0 
-1.450497662249e-03 3.589955422253e-04 0.0 
3.589955422253e-04 1.695849288083e-02 0.0 
0.0 0.0 0.0 
-1.348855688278e-03 -3.584077601360e-03 0.0 
-3.584077601360e-03 -1.853891218680e-03 0.0 
0.0 0.0 0.0 
-2.833910562161e-05 -4.056540403242e-04 0.0 
-4.056540403242e-04 5.352096167210e-03 0.0 
0.0 0.0 0.0 
-8.668104781554e-04 4.436784975724e-03 0.0 
4.436784975724e-03 1.078997787363e-02 0.0 
0.0 0.0 0.0 
2.191556078572e-03 1.017808532152e-04 0.0 
1.017808532152e-04 -5.891454500204e-04 0.0 
0.0 0.0 0.0 
2.565230320658e-03 4.077943734344e-03 0.0 
4.077943734344e-03 5.000074202515e-04 0.0 
0.0 0.0 0.0 
-3.041130467458e-03 3.456290031470e-03 0.0 
3.456290031470e-03 1.269091063865e-02 0.0 
0.0 0.0 0.0 
-9.177562297302e-04 -8.837067994566e-04 0.0 
-8.837067994566e-04 2.813485809275e-03 0.0 
0.0 0.0 0.0 
1.154153095067e-04 4.065795524898e-03 0.0 
4.065795524898e-03 3.523065281527e-03 0.0 
0.0 0.0 0.0 
5.589918270061e-04 4.187016806377e-03 0.0 
4.187016806377e-03 3.402340927001e-03 0.0 
0.0 0.0 0.0 
2.230376366812e-04 -2.657174741943e-04 0.0 
-2.657174741943e-04 4.650850461453e-03 0.0 
0.0 0.0 0.0 
-1.956792113375e-03 1.013222510390e-04 0.0 
1.013222510390e-04 1.589628549807e-02 0.0 
0.0 0.0 0.0 
8.313138787694e-04 4.226220708606e-03 0.0 
4.226220708606e-03 2.512506985546e-03 0.0 
0.0 0.0 0.0 
2.794134178852e-05 -1.622113934763e-03 0.0 
-1.622113934763e-03 7.995933336484e-04 0.0 
0.0 0.0 0.0 
-3.522843981181e-03 2.615183824868e-03 0.0 
2.615183824868e-03 1.419472226410e-02 0.0 
0.0 0.0 0.0 
-1.236030842411e-03 2.626257280570e-04 0.0 
2.626257280570e-04 1.696891562241e-02 0.0 
0.0 0.0 0.0 
8.525652047351e-04 4.061448806572e-03 0.0 
4.061448806572e-03 2.520410261923e-03 0.0 
0.0 0.0 0.0 
-1.002650503834e-03 3.875208743875e-03 0.0 
3.875208743875e-03 4.630987161303e-04 0.0 
0.0 0.0 0.0 
-2.455897004927e-03 3.666044728971e-03 0.0 
3.666044728971e-03 1.081168097054e-02 0.0 
0.0 0.0 0.0 
-9.117628553511e-04 -8.738323168954e-04 0.0 
-8.738323168954e-04 2.795446187220e-03 0.0 
0.0 0.0 0.0 
-2.119766554745e-03 3.426128342171e-03 0.0 
3.426128342171e-03 1.005653303630e-02 0.0 
0.0 0.0 0.0 
-5.338826372163e-04 2.351244596949e-03 0.0 
2.351244596949e-03 1.673841114377e-02 0.0 
0.0 0.0 0.0 
3.663286536997e-04 4.503306371123e-03 0.0 
4.503306371123e-03 -8.799204928859e-04 0.0 
0.0 0.0 0.0 
-7.578860913169e-04 -4.670822288743e-04 0.0 
-4.670822288743e-04 4.177264405754e-03 0.0 
0.0 0.0 0.0 
-6.555588499255e-04 5.224495684446e-04 0.0 
5.224495684446e-04 1.733653265000e-02 0.0 
0.0 0.0 0.0 
-4.305668918351e-04 4.372979524170e-03 0.0 
4.372979524170e-03 6.236680793310e-03 0.0 
0.0 0.0 0.0 
-2.210939261357e-03 3.715019981054e-03 0.0 
3.715019981054e-03 9.938359534218e-03 0.0 
0.0 0.0 0.0 
5.394790092719e-04 -1.636940521091e-04 0.0 
-1.636940521091e-04 4.241036850790e-03 0.0 
0.0 0.0 0.0 
-2.749207373166e-04 -1.928726999478e-04 0.0 
-1.928726999478e-04 5.694001735764e-03 0.0 
0.0 0.0 0.0 
-6.726890389236e-04 -3.758299054736e-04 0.0 
-3.758299054736e-04 4.420621051938e-03 0.0 
0.0 0.0 0.0 
-7.269994697559e-04 4.465343897382e-03 0.0 
4.465343897382e-03 7.252609153004e-03 0.0 
0.0 0.0 0.0 
1.033007391014e-03 7.676682125174e-04 0.0 
7.676682125174e-04 3.820832215382e-03 0.0 
0.0 0.0 0.0 
-9.613745957466e-04 4.165660492900e-03 0.0 
4.165660492900e-03 7.183133530694e-03 0.0 
0.0 0.0 0.0 
-5.258116409403e-04 1.554791955317e-03 0.0 
1.554791955317e-03 1.713038550488e-02 0.0 
0.0 0.0 0.0 
6.711878163723e-05 5.365191660364e-03 0.0 
5.365191660364e-03 1.013340826010e-02 0.0 
0.0 0.0 0.0 
-3.219809232143e-03 1.411651127171e-03 0.0 
1.411651127171e-03 1.569625068178e-02 0.0 
0.0 0.0 0.0 
-1.849878808969e-03 3.975040666149e-04 0.0 
3.975040666149e-04 1.643857193632e-02 0.0 
0.0 0.0 0.0 
-9.469287249548e-04 4.296504914917e-03 0.0 
4.296504914917e-03 7.177628335842e-03 0.0 
0.0 0.0 0.0 
-1.893120099447e-03 3.467714381170e-03 0.0 
3.467714381170e-03 9.115066916880e-03 0.0 
0.0 0.0 0.0 
-2.399073342396e-04 4.520065060139e-03 0.0 
4.520065060139e-03 6.330150188246e-03 0.0 
0.0 0.0 0.0 
1.703189564787e-03 4.111281291766e-03 0.0 
4.111281291766e-03 1.523623387570e-03 0.0 
0.0 0.0 0.0 
-2.217161456303e-03 1.196575895815e-04 0.0 
1.196575895815e-04 1.530955347897e-02 0.0 
0.0 0.0 0.0 
2.862604801365e-03 3.927957329827e-03 0.0 
3.927957329827e-03 5.172774890359e-04 0.0 
0.0 0.0 0.0 
1.637351427715e-04 -4.626499659640e-04 0.0 
-4.626499659640e-04 3.388882690487e-04 0.0 
0.0 0.0 0.0 
-2.036461530041e-03 4.805443239606e-05 0.0 
4.805443239606e-05 1.559876226057e-02 0.0 
0.0 0.0 0.0 
4.870483932358e-04 -1.789372672242e-04 0.0 
-1.789372672242e-04 9.287262001223e-04 0.0 
0.0 0.0 0.0 
-2.713714044202e-03 3.613394381081e-03 0.0 
3.613394381081e-03 1.171348418087e-02 0.0 
0.0 0.0 0.0 
5.616643641566e-04 6.385800383398e-04 0.0 
6.385800383398e-04 3.822199494546e-03 0.0 
0.0 0.0 0.0 
1.049759356714e-03 4.174715359699e-03 0.0 
4.174715359699e-03 1.671717365854e-03 0.0 
0.0 0.0 0.0 
-7.060251684143e-04 -1.907748341416e-04 0.0 
-1.907748341416e-04 4.657384575696e-03 0.0 
0.0 0.0 0.0 
-1.053951488186e-03 3.668070342242e-03 0.0 
3.668070342242e-03 3.902372519766e-03 0.0 
0.0 0.0 0.0 
2.573519312921e-03 3.614424869807e-03 0.0 
3.614424869807e-03 2.575172748633e-03 0.0 
0.0 0.0 0.0 
-2.079417416970e-03 6.330022624470e-05 0.0 
6.330022624470e-05 1.534134223854e-02 0.0 
0.0 0.0 0.0 
3.080824023479e-03 3.973112325438e-03 0.0 
3.973112325438e-03 -4.110705538685e-04 0.0 
0.0 0.0 0.0 
-5.420484034481e-04 -2.255335835634e-04 0.0 
-2.255335835634e-04 5.024594033612e-03 0.0 
0.0 0.0 0.0 
-3.013605355296e-04 -1.790572896693e-03 0.0 
-1.790572896693e-03 8.343624297020e-04 0.0 
0.0 0.0 0.0 
-3.908776566410e-04 -1.912168043012e-04 0.0 
-1.912168043012e-04 5.351911427848e-03 0.0 
0.0 0.0 0.0 
-2.223653166765e-03 3.824364400435e-03 0.0 
3.824364400435e-03 1.108730494633e-02 0.0 
0.0 0.0 0.0 
-1.298651674573e-04 -4.284046956381e-04 0.0 
-4.284046956381e-04 5.421821547154e-03 0.0 
0.0 0.0 0.0 
-2.034521625106e-03 3.286940085977e-05 0.0 
3.286940085977e-05 1.531789535653e-02 0.0 
0.0 0.0 0.0 
1.839386502653e-03 4.102426346868e-03 0.0 
4.102426346868e-03 6.273121669986e-04 0.0 
0.0 0.0 0.0 
-2.749128256931e-03 3.303360125800e-03 0.0 
3.303360125800e-03 1.183469040219e-02 0.0 
0.0 0.0 0.0 
-9.656562009924e-04 -2.355452815376e-04 0.0 
-2.355452815376e-04 4.044606587031e-03 0.0 
0.0 0.0 0.0 
-1.129827435084e-03 3.852192429534e-03 0.0 
3.852192429534e-03 3.955316055569e-03 0.0 
0.0 0.0 0.0 
3.384434349288e-03 3.621764787792e-03 0.0 
3.621764787792e-03 -3.648381275163e-04 0.0 
0.0 0.0 0.0 
-1.830468769278e-03 3.356460802124e-04 0.0 
3.356460802124e-04 1.659096438443e-02 0.0 
0.0 0.0 0.0 
-2.093956238001e-03 9.193100683720e-05 0.0 
9.193100683720e-05 1.531176508842e-02 0.0 
0.0 0.0 0.0 
2.257626407844e-03 4.090165327772e-03 0.0 
4.090165327772e-03 5.006815448496e-04 0.0 
0.0 0.0 0.0 
-2.414870934414e-03 3.369873743773e-03 0.0 
3.369873743773e-03 1.092655620443e-02 0.0 
0.0 0.0 0.0 
1.272695969756e-04 4.793592090531e-03 0.0 
4.793592090531e-03 8.935244106908e-03 0.0 
0.0 0.0 0.0 
-9.200042469584e-04 -9.627458979604e-04 0.0 
-9.627458979604e-04 2.894501537797e-03 0.0 
0.0 0.0 0.0 
4.842736207642e-04 4.520259641639e-03 0.0 
4.520259641639e-03 6.860733053357e-03 0.0 
0.0 0.0 0.0 
1.513813049576e-04 5.334323642631e-03 0.0 
5.334323642631e-03 9.472802548617e-03 0.0 
0.0 0.0 0.0 
-5.367368346533e-04 4.006127452431e-03 0.0 
4.006127452431e-03 4.491931452667e-03 0.0 
0.0 0.0 0.0 
-1.019819565054e-03 -7.882287834308e-04 0.0 
-7.882287834308e-04 3.154004470409e-03 0.0 
0.0 0.0 0.0 
2.119195473855e-03 1.435377682822e-03 0.0 
1.435377682822e-03 2.125293492271e-03 0.0 
0.0 0.0 0.0 
-1.474751751427e-03 4.069704049445e-03 0.0 
4.069704049445e-03 8.118299641159e-03 0.0 
0.0 0.0 0.0 
-3.943923010982e-04 3.815721291359e-03 0.0 
3.815721291359e-03 3.721330086518e-03 0.0 
0.0 0.0 0.0 
-2.692574563849e-03 3.488954510649e-03 0.0 
3.488954510649e-03 1.189729343336e-02 0.0 
0.0 0.0 0.0 
2.072766254337e-03 4.135657134323e-03 0.0 
4.135657134323e-03 1.486498186423e-03 0.0 
0.0 0.0 0.0 
-4.649846021775e-04 1.120617514233e-03 0.0 
1.120617514233e-03 1.724639104253e-02 0.0 
0.0 0.0 0.0 
-1.350686029037e-03 4.126979331939e-03 0.0 
4.126979331939e-03 1.230796902056e-02 0.0 
0.0 0.0 0.0 
-4.887785739131e-04 -1.121420789154e-04 0.0 
-1.121420789154e-04 5.254411107905e-03 0.0 
0.0 0.0 0.0 
-9.178685305112e-04 3.798079989026e-03 0.0 
3.798079989026e-03 2.574470686191e-03 0.0 
0.0 0.0 0.0 
3.845102916636e-03 3.233242750592e-03 0.0 
3.233242750592e-03 -1.183587777321e-03 0.0 
0.0 0.0 0.0 
-9.789336529596e-04 4.364546275681e-03 0.0 
4.364546275681e-03 1.163143591004e-02 0.0 
0.0 0.0 0.0 
-3.349207873381e-03 2.478533817595e-03 0.0 
2.478533817595e-03 -2.180894867327e-03 0.0 
0.0 0.0 0.0 
-1.455130806667e-03 3.879291398430e-03 0.0 
3.879291398430e-03 8.121930445300e-03 0.0 
0.0 0.0 0.0 
2.396980489377e-03 4.922173094776e-04 0.0 
4.922173094776e-04 1.178489529375e-03 0.0 
0.0 0.0 0.0 
1.040576846302e-03 -5.242246080498e-04 0.0 
-5.242246080498e-04 3.099182519870e-04 0.0 
0.0 0.0 0.0 
-6.520997675015e-04 4.459236042226e-03 0.0 
4.459236042226e-03 1.383024086346e-02 0.0 
0.0 0.0 0.0 
-2.390163098414e-03 3.158042280565e-03 0.0 
3.158042280565e-03 1.420420477778e-02 0.0 
0.0 0.0 0.0 
1.556267797103e-03 -2.494856277728e-03 0.0 
-2.494856277728e-03 -6.664734453210e-07 0.0 
0.0 0.0 0.0 
2.659263532648e-03 7.766497136046e-04 0.0 
7.766497136046e-04 1.158846565712e-03 0.0 
0.0 0.0 0.0 
-3.419859147213e-03 2.630653126237e-03 0.0 
2.630653126237e-03 1.460471970834e-02 0.0 
0.0 0.0 0.0 
-3.324620177612e-03 2.024046699265e-03 0.0 
2.024046699265e-03 1.551246592724e-02 0.0 
0.0 0.0 0.0 
1.072018506380e-03 7.659877157820e-04 0.0 
7.659877157820e-04 3.231348146558e-03 0.0 
0.0 0.0 0.0 
4.348663753726e-04 -2.419088203145e-03 0.0 
-2.419088203145e-03 8.448763734754e-04 0.0 
0.0 0.0 0.0 
3.135086890778e-04 4.620087606890e-03 0.0 
4.620087606890e-03 5.397228556552e-03 0.0 
0.0 0.0 0.0 
-1.758942706452e-03 4.109934236283e-03 0.0 
4.109934236283e-03 1.026690417039e-02 0.0 
0.0 0.0 0.0 
-2.544609677402e-03 3.179813244020e-03 0.0 
3.179813244020e-03 1.473908733030e-02 0.0 
0.0 0.0 0.0 
-2.472485413067e-03 3.869741089292e-03 0.0 
3.869741089292e-03 1.195534897607e-02 0.0 
0.0 0.0 0.0 
-2.627626726597e-03 3.750309815961e-03 0.0 
3.750309815961e-03 1.189877695793e-02 0.0 
0.0 0.0 0.0 
3.474478198204e-03 3.071632923591e-03 0.0 
3.071632923591e-03 8.527654365027e-04 0.0 
0.0 0.0 0.0 
-2.224755704185e-04 4.720383379640e-03 0.0 
4.720383379640e-03 9.514403572353e-03 0.0 
0.0 0.0 0.0 
-1.375278037021e-03 2.341583095978e-03 0.0 
2.341583095978e-03 -2.777883986342e-03 0.0 
0.0 0.0 0.0 
-5.242092634561e-04 3.993577423134e-03 0.0 
3.993577423134e-03 4.490348193765e-03 0.0 
0.0 0.0 0.0 
-8.190653550333e-05 4.153362223671e-03 0.0 
4.153362223671e-03 4.371627321867e-03 0.0 
0.0 0.0 0.0 
-1.562826363927e-04 4.583921801184e-03 0.0 
4.583921801184e-03 6.321078469811e-03 0.0 
0.0 0.0 0.0 
-1.551179714411e-03 4.157955963101e-03 0.0 
4.157955963101e-03 1.302003409620e-02 0.0 
0.0 0.0 0.0 
2.987249145398e-03 3.100055652039e-03 0.0 
3.100055652039e-03 -4.027487895306e-03 0.0 
0.0 0.0 0.0 
2.410546897455e-03 1.973552119870e-05 0.0 
1.973552119870e-05 8.457570847635e-04 0.0 
0.0 0.0 0.0 
-2.156407716185e-03 5.347995895622e-05 0.0 
5.347995895622e-05 1.529591030646e-02 0.0 
0.0 0.0 0.0 
3.536271204894e-03 3.713008619650e-03 0.0 
3.713008619650e-03 -1.249614572246e-03 0.0 
0.0 0.0 0.0 
2.317144432804e-03 -4.482063499993e-04 0.0 
-4.482063499993e-04 6.449786811404e-04 0.0 
0.0 0.0 0.0 
7.472900698806e-04 -4.569236506263e-04 0.0 
-4.569236506263e-04 1.887683530903e-04 0.0 
0.0 0.0 0.0 
-2.058804172497e-03 3.364767437140e-03 0.0 
3.364767437140e-03 1.423849553848e-02 0.0 
0.0 0.0 0.0 
9.977061124111e-04 -5.128026159864e-04 0.0 
-5.128026159864e-04 -9.095120962954e-05 0.0 
0.0 0.0 0.0 
6.673002088167e-04 -4.593552075389e-04 0.0 
-4.593552075389e-04 4.651277988583e-04 0.0 
0.0 0.0 0.0 
-8.623791531992e-04 3.839126589567e-03 0.0 
3.839126589567e-03 2.576511822492e-03 0.0 
0.0 0.0 0.0 
2.378898427113e-04 -2.293273764370e-03 0.0 
-2.293273764370e-03 8.765837482301e-04 0.0 
0.0 0.0 0.0 
-2.198205312219e-03 3.370434264611e-03 0.0 
3.370434264611e-03 1.477634434549e-02 0.0 
0.0 0.0 0.0 
2.968586816128e-04 -2.354321834803e-03 0.0 
-2.354321834803e-03 6.148122489000e-04 0.0 
0.0 0.0 0.0 
8.278466922775e-04 4.120427080203e-03 0.0 
4.120427080203e-03 4.299111081754e-04 0.0 
0.0 0.0 0.0 
1.688856905786e-03 -3.746551463787e-03 0.0 
-3.746551463787e-03 -1.933017428183e-03 0.0 
0.0 0.0 0.0 
-2.112978075358e-04 -1.734759668383e-03 0.0 
-1.734759668383e-03 9.220875387239e-04 0.0 
0.0 0.0 0.0 
2.491455141715e-03 1.206141720048e-03 0.0 
1.206141720048e-03 1.570466810194e-03 0.0 
0.0 0.0 0.0 
-2.201087813602e-03 4.030920806554e-03 0.0 
4.030920806554e-03 1.107927528995e-02 0.0 
0.0 0.0 0.0 
-1.906563495732e-04 -3.167518454320e-04 0.0 
-3.167518454320e-04 5.506350105652e-03 0.0 
0.0 0.0 0.0 
-1.327479901893e-03 1.134564006033e-03 0.0 
1.134564006033e-03 -4.309396150143e-03 0.0 
0.0 0.0 0.0 
1.592017394177e-03 4.147537494045e-03 0.0 
4.147537494045e-03 7.055493944796e-05 0.0 
0.0 0.0 0.0 
3.815651829517e-03 3.633585362962e-03 0.0 
3.633585362962e-03 -1.220852458677e-03 0.0 
0.0 0.0 0.0 
-1.143771248934e-03 3.898219940769e-03 0.0 
3.898219940769e-03 7.128102651188e-03 0.0 
0.0 0.0 0.0 
2.731154752492e-03 2.977859653846e-04 0.0 
2.977859653846e-04 8.263050188284e-04 0.0 
0.0 0.0 0.0 
-5.176957764785e-05 -4.192383849153e-04 0.0 
-4.192383849153e-04 5.346520745787e-03 0.0 
0.0 0.0 0.0 
-1.840965526785e-03 4.017650989409e-03 0.0 
4.017650989409e-03 1.293803725257e-02 0.0 
0.0 0.0 0.0 
3.862686816327e-03 2.890277315733e-03 0.0 
2.890277315733e-03 -1.920232320627e-03 0.0 
0.0 0.0 0.0 
2.280139170355e-03 9.728136924225e-04 0.0 
9.728136924225e-04 1.572074680129e-03 0.0 
0.0 0.0 0.0 
-8.090489884413e-04 -2.378151588068e-04 0.0 
-2.378151588068e-04 4.373757997037e-03 0.0 
0.0 0.0 0.0 
-5.342754772879e-04 4.594526151627e-03 0.0 
4.594526151627e-03 7.365260929178e-03 0.0 
0.0 0.0 0.0 
-2.067612308221e-03 3.525866998957e-03 0.0 
3.525866998957e-03 1.360682033553e-02 0.0 
0.0 0.0 0.0 
8.657001338883e-04 4.130517949539e-03 0.0 
4.130517949539e-03 5.835199068365e-03 0.0 
0.0 0.0 0.0 
4.105659042874e-03 3.189875448942e-03 0.0 
3.189875448942e-03 -1.157206849973e-03 0.0 
0.0 0.0 0.0 
8.109901056785e-04 3.960704692978e-03 0.0 
3.960704692978e-03 1.210274153608e-03 0.0 
0.0 0.0 0.0 
-2.232478068547e-03 4.006634280541e-03 0.0 
4.006634280541e-03 1.202298112081e-02 0.0 
0.0 0.0 0.0 
-4.852663502939e-04 2.764670212028e-03 0.0 
2.764670212028e-03 1.658748455617e-02 0.0 
0.0 0.0 0.0 
4.197267970985e-04 4.621412290609e-03 0.0 
4.621412290609e-03 5.396639901626e-03 0.0 
0.0 0.0 0.0 
4.578193738968e-03 2.594473975623e-03 0.0 
2.594473975623e-03 -1.442387919706e-03 0.0 
0.0 0.0 0.0 
-2.084510218860e-03 1.190159910761e-04 0.0 
1.190159910761e-04 1.567607092844e-02 0.0 
0.0 0.0 0.0 
-1.989650224494e-04 -2.758538930614e-03 0.0 
-2.758538930614e-03 2.980485411519e-04 0.0 
0.0 0.0 0.0 
-2.423898832735e-03 3.629750713745e-03 0.0 
3.629750713745e-03 1.199292509709e-02 0.0 
0.0 0.0 0.0 
3.498287859391e-03 3.542399306854e-03 0.0 
3.542399306854e-03 -2.016527010820e-03 0.0 
0.0 0.0 0.0 
3.491778930763e-03 2.751818465993e-03 0.0 
2.751818465993e-03 -3.812588555868e-03 0.0 
0.0 0.0 0.0 
2.984015612871e-03 -3.319334274278e-03 0.0 
-3.319334274278e-03 -4.303462661468e-03 0.0 
0.0 0.0 0.0 
-1.993519825649e-03 3.204273260111e-03 0.0 
3.204273260111e-03 1.479689584809e-02 0.0 
0.0 0.0 0.0 
-2.013441015946e-03 4.164252430757e-03 0.0 
4.164252430757e-03 1.115595366938e-02 0.0 
0.0 0.0 0.0 
1.511037863374e-03 4.173800899356e-03 0.0 
4.173800899356e-03 1.514813071935e-03 0.0 
0.0 0.0 0.0 
-2.109171792831e-03 3.202190210018e-03 0.0 
3.202190210018e-03 1.527666544617e-02 0.0 
0.0 0.0 0.0 
-1.464853086567e-03 4.260423206099e-03 0.0 
4.260423206099e-03 1.228199237296e-02 0.0 
0.0 0.0 0.0 
-8.912309400746e-04 4.567278500940e-03 0.0 
4.567278500940e-03 8.387157497376e-03 0.0 
0.0 0.0 0.0 
7.008572619527e-05 -3.719684833846e-04 0.0 
-3.719684833846e-04 5.016052094761e-03 0.0 
0.0 0.0 0.0 
4.655864617190e-03 2.511179184378e-03 0.0 
2.511179184378e-03 -1.867049271072e-03 0.0 
0.0 0.0 0.0 
-1.228421938936e-03 4.499998743800e-03 0.0 
4.499998743800e-03 9.389948075520e-03 0.0 
0.0 0.0 0.0 
2.344188559411e-03 4.078623533302e-03 0.0 
4.078623533302e-03 1.527977104154e-03 0.0 
0.0 0.0 0.0 
4.291833914092e-03 2.632347134500e-03 0.0 
2.632347134500e-03 -9.353372137230e-04 0.0 
0.0 0.0 0.0 
4.071605528040e-03 2.483570533759e-03 0.0 
2.483570533759e-03 -3.661665780948e-03 0.0 
0.0 0.0 0.0 
-3.358905821689e-03 1.496574186107e-03 0.0 
1.496574186107e-03 1.536449865021e-02 0.0 
0.0 0.0 0.0 
4.673554213525e-03 2.625468241478e-03 0.0 
2.625468241478e-03 -1.822722153528e-03 0.0 
0.0 0.0 0.0 
4.352917125372e-03 -1.438775586039e-03 0.0 
-1.438775586039e-03 -3.679632825876e-03 0.0 
0.0 0.0 0.0 
-1.717448289800e-03 3.856806625178e-03 0.0 
3.856806625178e-03 1.296740290105e-02 0.0 
0.0 0.0 0.0 
-5.000244336240e-03 4.960827664627e-04 0.0 
4.960827664627e-04 -2.579570480436e-03 0.0 
0.0 0.0 0.0 
-2.668206654380e-03 3.691736745657e-03 0.0 
3.691736745657e-03 1.276762189262e-02 0.0 
0.0 0.0 0.0 
4.281009124590e-03 2.896442620641e-03 0.0 
2.896442620641e-03 -2.813678259574e-03 0.0 
0.0 0.0 0.0 
1.912172057341e-03 3.856868429395e-03 0.0 
3.856868429395e-03 1.093956671576e-04 0.0 
0.0 0.0 0.0 
4.118336302528e-03 1.366023066720e-03 0.0 
1.366023066720e-03 -3.472358129672e-03 0.0 
0.0 0.0 0.0 
-1.788403351658e-03 4.091964145618e-03 0.0 
4.091964145618e-03 1.128043565942e-02 0.0 
0.0 0.0 0.0 
-6.144272525432e-05 -1.184986593610e-03 0.0 
-1.184986593610e-03 6.899006453072e-04 0.0 
0.0 0.0 0.0 
-3.459064138500e-04 4.188175338393e-03 0.0 
4.188175338393e-03 5.270849361847e-03 0.0 
0.0 0.0 0.0 
4.331550537492e-03 2.561763267485e-03 0.0 
2.561763267485e-03 -1.239005108175e-03 0.0 
0.0 0.0 0.0 
-2.003632951606e-03 3.966064210948e-03 0.0 
3.966064210948e-03 1.119019728611e-02 0.0 
0.0 0.0 0.0 
-3.384347394142e-03 2.083763038113e-03 0.0 
2.083763038113e-03 1.510815375526e-02 0.0 
0.0 0.0 0.0 
2.166325678641e-03 2.254520069412e-03 0.0 
2.254520069412e-03 -4.531946771536e-03 0.0 
0.0 0.0 0.0 
4.788559773839e-03 -4.649796963564e-04 0.0 
-4.649796963564e-04 -3.832269190505e-03 0.0 
0.0 0.0 0.0 
3.812398499155e-03 -2.319774534951e-03 0.0 
-2.319774534951e-03 -3.435081602474e-03 0.0 
0.0 0.0 0.0 
-7.508548310613e-04 4.052409316524e-03 0.0 
4.052409316524e-03 5.361843286219e-03 0.0 
0.0 0.0 0.0 
-2.210842396455e-03 3.720045347804e-03 0.0 
3.720045347804e-03 1.357168849304e-02 0.0 
0.0 0.0 0.0 
-3.486419995791e-04 4.262632114896e-03 0.0 
4.262632114896e-03 5.259721047747e-03 0.0 
0.0 0.0 0.0 
4.805202027950e-03 2.675649270552e-03 0.0 
2.675649270552e-03 -2.593339532082e-03 0.0 
0.0 0.0 0.0 
4.257259691654e-03 3.255121664142e-03 0.0 
3.255121664142e-03 -2.010539678832e-03 0.0 
0.0 0.0 0.0 
2.463628942770e-03 1.707748828609e-03 0.0 
1.707748828609e-03 -3.532381511852e-03 0.0 
0.0 0.0 0.0 
2.748973625716e-03 4.041934283454e-03 0.0 
4.041934283454e-03 6.074011657127e-04 0.0 
0.0 0.0 0.0 
1.979750348891e-04 3.938823074273e-03 0.0 
3.938823074273e-03 8.240419569434e-04 0.0 
0.0 0.0 0.0 
-5.322532179221e-04 4.539447017057e-03 0.0 
4.539447017057e-03 1.469158162488e-02 0.0 
0.0 0.0 0.0 
-4.410304413013e-04 5.076687232988e-03 0.0 
5.076687232988e-03 1.358444662420e-02 0.0 
0.0 0.0 0.0 
8.643941431812e-04 4.649261586154e-03 0.0 
4.649261586154e-03 4.504598284333e-03 0.0 
0.0 0.0 0.0 
3.858744001025e-03 3.117949215395e-03 0.0 
3.117949215395e-03 -2.845953246315e-03 0.0 
0.0 0.0 0.0 
2.307685432013e-03 3.686578012135e-03 0.0 
3.686578012135e-03 -7.179762273524e-04 0.0 
0.0 0.0 0.0 
-7.875318147690e-04 4.551190377670e-03 0.0 
4.551190377670e-03 8.561958901128e-03 0.0 
0.0 0.0 0.0 
3.303707270290e-03 3.076125884576e-03 0.0 
3.076125884576e-03 -1.816771175789e-03 0.0 
0.0 0.0 0.0 
4.308330286903e-03 -1.417146303418e-03 0.0 
-1.417146303418e-03 -3.578188013931e-03 0.0 
0.0 0.0 0.0 
-6.077495604986e-04 4.497435933909e-03 0.0 
4.497435933909e-03 7.383105704753e-03 0.0 
0.0 0.0 0.0 
-9.399667523343e-04 1.730431590266e-03 0.0 
1.730431590266e-03 1.706854334802e-02 0.0 
0.0 0.0 0.0 
3.938192034859e-03 3.360228556687e-03 0.0 
3.360228556687e-03 -2.048297763331e-03 0.0 
0.0 0.0 0.0 
3.290791140979e-03 3.386257655623e-03 0.0 
3.386257655623e-03 8.156111779767e-04 0.0 
0.0 0.0 0.0 
1.030694163695e-03 4.111666901174e-03 0.0 
4.111666901174e-03 -3.708889947388e-04 0.0 
0.0 0.0 0.0 
6.706627634425e-04 1.434433918918e-03 0.0 
1.434433918918e-03 4.535253665187e-03 0.0 
0.0 0.0 0.0 
2.956295192030e-03 3.745465808133e-03 0.0 
3.745465808133e-03 -1.922608713127e-03 0.0 
0.0 0.0 0.0 
-7.365398159176e-05 4.633148007921e-03 0.0 
4.633148007921e-03 6.466569965458e-03 0.0 
0.0 0.0 0.0 
3.270613527649e-03 1.938115744192e-03 0.0 
1.938115744192e-03 -4.467944968066e-03 0.0 
0.0 0.0 0.0 
3.935464175276e-03 5.102002489016e-04 0.0 
5.102002489016e-04 -1.075538806472e-03 0.0 
0.0 0.0 0.0 
4.418061549244e-03 3.144575708119e-03 0.0 
3.144575708119e-03 -1.903818378225e-03 0.0 
0.0 0.0 0.0 
4.002341378571e-03 -2.020453798198e-03 0.0 
-2.020453798198e-03 -2.965658512518e-03 0.0 
0.0 0.0 0.0 
-1.726612107872e-03 4.297464659609e-03 0.0 
4.297464659609e-03 1.024272221894e-02 0.0 
0.0 0.0 0.0 
-1.496005976677e-04 5.591471271452e-03 0.0 
5.591471271452e-03 1.161197789065e-02 0.0 
0.0 0.0 0.0 
4.606266196950e-03 2.747509186430e-03 0.0 
2.747509186430e-03 -2.732293425929e-03 0.0 
0.0 0.0 0.0 
4.370632273454e-03 2.142835602384e-03 0.0 
2.142835602384e-03 -1.180227477885e-03 0.0 
0.0 0.0 0.0 
1.318176138146e-03 3.845153585527e-03 0.0 
3.845153585527e-03 -3.358265816985e-04 0.0 
0.0 0.0 0.0 
-2.570552227651e-03 1.449720750573e-03 0.0 
1.449720750573e-03 1.607070134627e-02 0.0 
0.0 0.0 0.0 
2.697243584406e-03 -1.840224146436e-04 0.0 
-1.840224146436e-04 6.100962559226e-04 0.0 
0.0 0.0 0.0 
5.605073231476e-04 4.003174491652e-03 0.0 
4.003174491652e-03 1.951463377542e-03 0.0 
0.0 0.0 0.0 
-2.871256633504e-03 1.223544551099e-03 0.0 
1.223544551099e-03 1.608195458285e-02 0.0 
0.0 0.0 0.0 
1.562084776048e-04 5.600046985593e-03 0.0 
5.600046985593e-03 9.516269930037e-03 0.0 
0.0 0.0 0.0 
2.293143183782e-03 1.154476596244e-04 0.0 
1.154476596244e-04 1.382294703563e-03 0.0 
0.0 0.0 0.0 
-2.626396874456e-04 5.478773636530e-03 0.0 
5.478773636530e-03 1.229183311398e-02 0.0 
0.0 0.0 0.0 
-3.101058764795e-03 1.789625233135e-03 0.0 
1.789625233135e-03 1.580796096731e-02 0.0 
0.0 0.0 0.0 
-9.085587334846e-04 4.546140346315e-03 0.0 
4.546140346315e-03 1.076831295558e-02 0.0 
0.0 0.0 0.0 
-1.291029974513e-04 3.907225118489e-03 0.0 
3.907225118489e-03 2.251108643097e-03 0.0 
0.0 0.0 0.0 
-1.898480158621e-03 4.154575794571e-03 0.0 
4.154575794571e-03 1.011183432235e-02 0.0 
0.0 0.0 0.0 
-1.275201379883e-03 4.358423368420e-03 0.0 
4.358423368420e-03 9.410380539024e-03 0.0 
0.0 0.0 0.0 
-1.541222969930e-03 4.402702254133e-03 0.0 
4.402702254133e-03 1.035227991554e-02 0.0 
0.0 0.0 0.0 
8.361695579087e-04 4.535832861429e-03 0.0 
4.535832861429e-03 4.359710015619e-03 0.0 
0.0 0.0 0.0 
3.267227211659e-04 5.276859625755e-03 0.0 
5.276859625755e-03 8.212941375801e-03 0.0 
0.0 0.0 0.0 
-3.000546384486e-03 2.575503228161e-03 0.0 
2.575503228161e-03 1.469896425946e-02 0.0 
0.0 0.0 0.0 
-2.907840319204e-03 3.520446430404e-03 0.0 
3.520446430404e-03 1.271102523540e-02 0.0 
0.0 0.0 0.0 
4.487636935192e-03 2.671965183296e-03 0.0 
2.671965183296e-03 -1.923521211259e-03 0.0 
0.0 0.0 0.0 
-4.112177946158e-06 -2.068735643792e-03 0.0 
-2.068735643792e-03 9.132090575181e-04 0.0 
0.0 0.0 0.0 
-2.342474760356e-03 3.872332436191e-03 0.0 
3.872332436191e-03 1.091592039668e-02 0.0 
0.0 0.0 0.0 
1.296151418099e-03 4.141713002714e-03 0.0 
4.141713002714e-03 8.553670771287e-04 0.0 
0.0 0.0 0.0 
-2.067805236752e-03 4.908973809087e-05 0.0 
4.908973809087e-05 1.532075482673e-02 0.0 
0.0 0.0 0.0 
3.342957894421e-03 -2.624436956605e-03 0.0 
-2.624436956605e-03 -2.872375974895e-03 0.0 
0.0 0.0 0.0 
4.233611827900e-03 2.733719623836e-03 0.0 
2.733719623836e-03 -1.960403761176e-03 0.0 
0.0 0.0 0.0 
-1.733910089589e-03 3.714045991554e-03 0.0 
3.714045991554e-03 1.365464009471e-02 0.0 
0.0 0.0 0.0 
1.571920285004e-03 3.977539361475e-03 0.0 
3.977539361475e-03 8.755767675506e-04 0.0 
0.0 0.0 0.0 
-1.433202425611e-03 4.228223388782e-03 0.0 
4.228223388782e-03 9.288002478930e-03 0.0 
0.0 0.0 0.0 
4.255377061484e-03 2.055563051514e-03 0.0 
2.055563051514e-03 -1.187278059200e-03 0.0 
0.0 0.0 0.0 
2.492317317597e-03 -1.622792059632e-03 0.0 
-1.622792059632e-03 -4.093734478254e-04 0.0 
0.0 0.0 0.0 
5.815594591763e-04 4.391767424650e-03 0.0 
4.391767424650e-03 6.511433151603e-03 0.0 
0.0 0.0 0.0 
-1.766624409927e-03 4.038949994969e-03 0.0 
4.038949994969e-03 9.060738461593e-03 0.0 
0.0 0.0 0.0 
4.794855860653e-03 4.583905634048e-04 0.0 
4.583905634048e-04 -4.094115452417e-03 0.0 
0.0 0.0 0.0 
1.554987130716e-03 -2.662788735616e-03 0.0 
-2.662788735616e-03 -4.829865264083e-04 0.0 
0.0 0.0 0.0 
-4.092673703037e-04 3.896016750196e-03 0.0 
3.896016750196e-03 3.709878466904e-03 0.0 
0.0 0.0 0.0 
4.640761045926e-04 4.067644575729e-03 0.0 
4.067644575729e-03 1.944661921198e-03 0.0 
0.0 0.0 0.0 
-1.189815682893e-03 4.396540426083e-03 0.0 
4.396540426083e-03 1.238323719996e-02 0.0 
0.0 0.0 0.0 
-3.640775264129e-04 4.677281548007e-03 0.0 
4.677281548007e-03 7.511435954424e-03 0.0 
0.0 0.0 0.0 
-1.217543600225e-03 4.059340348441e-03 0.0 
4.059340348441e-03 7.114848132026e-03 0.0 
0.0 0.0 0.0 
-1.575745345738e-03 4.054551610336e-03 0.0 
4.054551610336e-03 9.170821216108e-03 0.0 
0.0 0.0 0.0 
7.376416514102e-04 2.763422243524e-03 0.0 
2.763422243524e-03 4.976848717044e-03 0.0 
0.0 0.0 0.0 
1.306363133290e-03 2.735243604652e-03 0.0 
2.735243604652e-03 4.153056882408e-03 0.0 
0.0 0.0 0.0 
-1.046489519874e-03 4.281345007692e-03 0.0 
4.281345007692e-03 1.240660625904e-02 0.0 
0.0 0.0 0.0 
-2.239276819564e-03 3.549591022361e-03 0.0 
3.549591022361e-03 1.420770141182e-02 0.0 
0.0 0.0 0.0 
2.557146054154e-03 -1.768049336909e-03 0.0 
-1.768049336909e-03 -9.827887736638e-04 0.0 
0.0 0.0 0.0 
2.834445559317e-04 4.335982970749e-03 0.0 
4.335982970749e-03 4.306096985407e-03 0.0 
0.0 0.0 0.0 
4.071723964505e-03 2.258658830120e-03 0.0 
2.258658830120e-03 -2.711250412107e-03 0.0 
0.0 0.0 0.0 
4.523125630830e-03 2.096830372533e-03 0.0 
2.096830372533e-03 -2.692744605878e-03 0.0 
0.0 0.0 0.0 
2.025574903097e-05 4.676505963039e-03 0.0 
4.676505963039e-03 6.459666183681e-03 0.0 
0.0 0.0 0.0 
4.043296016041e-03 4.544155877160e-04 0.0 
4.544155877160e-04 -1.468272385424e-03 0.0 
0.0 0.0 0.0 
1.111124464204e-04 -1.975474093430e-03 0.0 
-1.975474093430e-03 1.563112145931e-03 0.0 
0.0 0.0 0.0 
-1.381165133082e-03 3.919489250808e-03 0.0 
3.919489250808e-03 1.371206075984e-02 0.0 
0.0 0.0 0.0 
4.533009053680e-03 -6.823256537815e-04 0.0 
-6.823256537815e-04 -3.915123283674e-03 0.0 
0.0 0.0 0.0 
1.243873589603e-03 4.394801938307e-03 0.0 
4.394801938307e-03 3.367097809709e-03 0.0 
0.0 0.0 0.0 
-9.473244565507e-04 4.437474364291e-03 0.0 
4.437474364291e-03 8.412623889449e-03 0.0 
0.0 0.0 0.0 
9.590776944997e-04 4.318864898722e-03 0.0 
4.318864898722e-03 3.356104146879e-03 0.0 
0.0 0.0 0.0 
-3.645643907000e-04 5.319648400422e-03 0.0 
5.319648400422e-03 1.294177227929e-02 0.0 
0.0 0.0 0.0 
-4.412230371466e-04 4.827484410773e-03 0.0 
4.827484410773e-03 1.412872955127e-02 0.0 
0.0 0.0 0.0 
-9.014397172827e-04 4.527887090127e-03 0.0 
4.527887090127e-03 1.382144643694e-02 0.0 
0.0 0.0 0.0 
2.464598319901e-03 -1.541079315813e-03 0.0 
-1.541079315813e-03 -6.265170770703e-04 0.0 
0.0 0.0 0.0 
-1.864202963578e-03 3.052026014934e-03 0.0 
3.052026014934e-03 1.529486306640e-02 0.0 
0.0 0.0 0.0 
6.300064079470e-04 4.101407653697e-03 0.0 
4.101407653697e-03 1.194550350435e-03 0.0 
0.0 0.0 0.0 
4.790202988109e-03 2.017190238643e-03 0.0 
2.017190238643e-03 -2.621264252436e-03 0.0 
0.0 0.0 0.0 
3.504150524843e-03 1.483181594442e-03 0.0 
1.483181594442e-03 -3.596781769479e-03 0.0 
0.0 0.0 0.0 
-6.302273354059e-04 4.279470286220e-03 0.0 
4.279470286220e-03 6.174506995481e-03 0.0 
0.0 0.0 0.0 
-3.242101050297e-03 1.023072136510e-03 0.0 
1.023072136510e-03 1.550614370601e-02 0.0 
0.0 0.0 0.0 
-2.740789317328e-03 1.530155066082e-03 0.0 
1.530155066082e-03 1.583165004336e-02 0.0 
0.0 0.0 0.0 
1.239255461442e-03 1.506756330610e-03 0.0 
1.506756330610e-03 3.739977634327e-03 0.0 
0.0 0.0 0.0 
-6.017122785283e-04 4.544981423511e-03 0.0 
4.544981423511e-03 1.096286266873e-02 0.0 
0.0 0.0 0.0 
-2.208777169336e-03 3.793330136629e-03 0.0 
3.793330136629e-03 1.205539221291e-02 0.0 
0.0 0.0 0.0 
-1.097753850310e-03 4.468746855410e-03 0.0 
4.468746855410e-03 9.561659113629e-03 0.0 
0.0 0.0 0.0 
4.048777037143e-03 1.635204366474e-03 0.0 
1.635204366474e-03 -4.295479263890e-03 0.0 
0.0 0.0 0.0 
-6.373228430638e-04 -1.820254105622e-03 0.0 
-1.820254105622e-03 6.807516243739e-04 0.0 
0.0 0.0 0.0 
3.281369782753e-03 3.901944095455e-03 0.0 
3.901944095455e-03 -3.954473490544e-04 0.0 
0.0 0.0 0.0 
1.431493130454e-03 4.454851143506e-03 0.0 
4.454851143506e-03 3.469831151788e-03 0.0 
0.0 0.0 0.0 
3.052013175749e-03 3.872058219843e-03 0.0 
3.872058219843e-03 6.301174255552e-04 0.0 
0.0 0.0 0.0 
-8.306414585171e-04 3.893985827112e-03 0.0 
3.893985827112e-03 4.634593544119e-04 0.0 
0.0 0.0 0.0 
-2.012672890259e-03 1.121219149410e-04 0.0 
1.121219149410e-04 1.566946733907e-02 0.0 
0.0 0.0 0.0 
1.117775701229e-04 -2.055221780138e-03 0.0 
-2.055221780138e-03 7.417858870284e-04 0.0 
0.0 0.0 0.0 
2.581031368751e-03 3.959194449024e-03 0.0 
3.959194449024e-03 -1.014517565047e-03 0.0 
0.0 0.0 0.0 
0.0 1.594636885157e-03 0.0 
1.594636885157e-03 4.579401164716e-03 0.0 
0.0 0.0 0.0 
3.476232901876e-03 2.641509820092e-03 0.0 
2.641509820092e-03 7.420786516541e-04 0.0 
0.0 0.0 0.0 
-2.820761067488e-03 3.257767153688e-03 0.0 
3.257767153688e-03 1.274280705133e-02 0.0 
0.0 0.0 0.0 
1.104649577692e-03 -1.190242700115e-04 0.0 
-1.190242700115e-04 6.168894683569e-04 0.0 
0.0 0.0 0.0 
7.152529333214e-04 4.579438332632e-03 0.0 
4.579438332632e-03 4.354295989240e-03 0.0 
0.0 0.0 0.0 
3.618725306708e-03 3.596049324305e-03 0.0 
3.596049324305e-03 -3.540716083326e-04 0.0 
0.0 0.0 0.0 
-1.777777507339e-03 4.257261143970e-03 0.0 
4.257261143970e-03 1.125940161293e-02 0.0 
0.0 0.0 0.0 
-1.538286463887e-05 5.661115056632e-03 0.0 
5.661115056632e-03 1.089437454691e-02 0.0 
0.0 0.0 0.0 
-1.888241049169e-03 3.960110351884e-03 0.0 
3.960110351884e-03 1.013374200082e-02 0.0 
0.0 0.0 0.0 
-7.229502853331e-04 4.647189907228e-03 0.0 
4.647189907228e-03 8.549357059917e-03 0.0 
0.0 0.0 0.0 
3.870145481903e-04 -2.057820567995e-03 0.0 
-2.057820567995e-03 1.573890720726e-03 0.0 
0.0 0.0 0.0 
-1.701544493330e-03 3.587000447391e-03 0.0 
3.587000447391e-03 1.427892918795e-02 0.0 
0.0 0.0 0.0 
2.392788966355e-03 -1.381472212529e-03 0.0 
-1.381472212529e-03 1.543063208986e-05 0.0 
0.0 0.0 0.0 
4.430908270403e-05 5.666884457013e-03 0.0 
5.666884457013e-03 1.021414305492e-02 0.0 
0.0 0.0 0.0 
0.0 5.123540759580e-03 0.0 
5.123540759580e-03 1.260410616688e-02 0.0 
0.0 0.0 0.0 
0.0 4.137666602444e-03 0.0 
4.137666602444e-03 1.498516844182e-02 0.0 
0.0 0.0 0.0 
0.0 4.675363739755e-03 0.0 
4.675363739755e-03 1.389137172093e-02 0.0 
0.0 0.0 0.0 
-1.349643596562e-03 4.324525374402e-03 0.0 
4.324525374402e-03 1.050279451910e-02 0.0 
0.0 0.0 0.0 
-1.891738616438e-03 3.721149922051e-03 0.0 
3.721149922051e-03 1.426224573693e-02 0.0 
0.0 0.0 0.0 
-6.854620979120e-04 4.542301749336e-03 0.0 
4.542301749336e-03 1.175588180629e-02 0.0 
0.0 0.0 0.0 
8.707084213642e-04 4.420573041133e-03 0.0 
4.420573041133e-03 3.344034455709e-03 0.0 
0.0 0.0 0.0 
2.581402079751e-04 4.349635670526e-03 0.0 
4.349635670526e-03 4.304476973415e-03 0.0 
0.0 0.0 0.0 
-1.916922934851e-04 -1.833303092905e-03 0.0 
-1.833303092905e-03 1.860853383580e-03 0.0 
0.0 0.0 0.0 
-1.569557398834e-03 4.046929250973e-03 0.0 
4.046929250973e-03 1.369423363844e-02 0.0 
0.0 0.0 0.0 
2.500319240006e-04 5.463418927788e-03 0.0 
5.463418927788e-03 8.840374261649e-03 0.0 
0.0 0.0 0.0 
-1.600872091242e-03 3.438829497992e-03 0.0 
3.438829497992e-03 1.483090650485e-02 0.0 
0.0 0.0 0.0 
3.949429849615e-03 2.667397259724e-03 0.0 
2.667397259724e-03 -1.778982778057e-04 0.0 
0.0 0.0 0.0 
-1.823396874310e-03 3.576622194050e-03 0.0 
3.576622194050e-03 1.481313718998e-02 0.0 
0.0 0.0 0.0 
1.618700682371e-03 4.416698324342e-03 0.0 
4.416698324342e-03 4.783702223146e-03 0.0 
0.0 0.0 0.0 
1.697985671896e-03 4.422141233142e-03 0.0 
4.422141233142e-03 2.459734147548e-03 0.0 
0.0 0.0 0.0 
-6.287146983714e-04 4.187199501317e-03 0.0 
4.187199501317e-03 6.184165812044e-03 0.0 
0.0 0.0 0.0 
2.235083163724e-03 4.013336519719e-03 0.0 
4.013336519719e-03 -1.768232788540e-03 0.0 
0.0 0.0 0.0 
-5.654259504962e-04 2.840756581745e-03 0.0 
2.840756581745e-03 1.630638218675e-02 0.0 
0.0 0.0 0.0 
1.201520601299e-03 4.323314659243e-03 0.0 
4.323314659243e-03 2.437460287092e-03 0.0 
0.0 0.0 0.0 
5.473919405912e-04 4.643216221231e-03 0.0 
4.643216221231e-03 7.460774554974e-03 0.0 
0.0 0.0 0.0 
2.597936684667e-05 -1.964724795904e-03 0.0 
-1.964724795904e-03 1.879333353762e-03 0.0 
0.0 0.0 0.0 
2.622455616262e-03 -3.120971844821e-03 0.0 
-3.120971844821e-03 -2.284764476039e-03 0.0 
0.0 0.0 0.0 
6.780864561609e-04 1.296276207255e-03 0.0 
1.296276207255e-03 3.720541471782e-03 0.0 
0.0 0.0 0.0 
2.233362696486e-03 4.074774090879e-03 0.0 
4.074774090879e-03 -1.982004756582e-04 0.0 
0.0 0.0 0.0 
0.0 5.276666587807e-03 0.0 
5.276666587807e-03 1.194480656199e-02 0.0 
0.0 0.0 0.0 
-5.655596977114e-04 4.208031022800e-03 0.0 
4.208031022800e-03 1.431245391922e-02 0.0 
0.0 0.0 0.0 
6.684117495248e-05 4.708945187203e-03 0.0 
4.708945187203e-03 6.660234214090e-03 0.0 
0.0 0.0 0.0 
-5.841371805649e-04 -9.803446731752e-04 0.0 
-9.803446731752e-04 7.371601791466e-04 0.0 
0.0 0.0 0.0 
0.0 5.381137057248e-03 0.0 
5.381137057248e-03 1.056016237811e-02 0.0 
0.0 0.0 0.0 
7.138389713579e-04 2.059791980497e-03 0.0 
2.059791980497e-03 3.925348383205e-03 0.0 
0.0 0.0 0.0 
3.230503448592e-03 -2.626991341806e-03 0.0 
-2.626991341806e-03 -2.362653835820e-03 0.0 
0.0 0.0 0.0 
3.907402621169e-03 2.171653624109e-03 0.0 
2.171653624109e-03 -1.865520883879e-04 0.0 
0.0 0.0 0.0 
5.928650826819e-04 4.002356014229e-03 0.0 
4.002356014229e-03 6.043078364790e-03 0.0 
0.0 0.0 0.0 
-4.395568495449e-04 -9.774488995975e-05 0.0 
-9.774488995975e-05 3.041019879599e-04 0.0 
0.0 0.0 0.0 
1.481504605471e-03 4.381704993279e-03 0.0 
4.381704993279e-03 2.411437203521e-03 0.0 
0.0 0.0 0.0 
-2.944521846925e-04 4.685184746324e-03 0.0 
4.685184746324e-03 7.719960508697e-03 0.0 
0.0 0.0 0.0 
4.559662586550e-04 4.701524823962e-03 0.0 
4.701524823962e-03 5.580518294315e-03 0.0 
0.0 0.0 0.0 
-4.387618833336e-04 4.610552360094e-03 0.0 
4.610552360094e-03 7.521154961420e-03 0.0 
0.0 0.0 0.0 
1.893828933251e-03 4.087572894267e-03 0.0 
4.087572894267e-03 -7.759901041954e-04 0.0 
0.0 0.0 0.0 
0.0 5.262384461996e-03 0.0 
5.262384461996e-03 9.169925631226e-03 0.0 
0.0 0.0 0.0 
4.953526922465e-03 1.995875730523e-03 0.0 
1.995875730523e-03 -2.487366227170e-03 0.0 
0.0 0.0 0.0 
2.159105749923e-03 4.441801449710e-04 0.0 
4.441801449710e-04 -4.229041104866e-03 0.0 
0.0 0.0 0.0 
1.888490403761e-04 -4.251644981764e-04 0.0 
-4.251644981764e-04 4.907688888700e-03 0.0 
0.0 0.0 0.0 
-4.519523782981e-04 -8.001144407888e-04 0.0 
-8.001144407888e-04 4.764864179987e-04 0.0 
0.0 0.0 0.0 
-1.258168021578e-03 4.117146848126e-03 0.0 
4.117146848126e-03 8.194942854913e-03 0.0 
0.0 0.0 0.0 
1.805816178564e-03 -3.154400568167e-03 0.0 
-3.154400568167e-03 -2.570597042264e-03 0.0 
0.0 0.0 0.0 
-2.318436905169e-03 3.643659405736e-03 0.0 
3.643659405736e-03 1.094475651922e-02 0.0 
0.0 0.0 0.0 
7.187560922028e-04 2.269979605100e-03 0.0 
2.269979605100e-03 4.749906202529e-03 0.0 
0.0 0.0 0.0 
0.0 4.913404934774e-03 0.0 
4.913404934774e-03 7.880287200333e-03 0.0 
0.0 0.0 0.0 
-1.554181871689e-03 4.248495031120e-03 0.0 
4.248495031120e-03 1.037375121625e-02 0.0 
0.0 0.0 0.0 
5.969805732529e-04 -3.356813322763e-03 0.0 
-3.356813322763e-03 -1.003716578471e-03 0.0 
0.0 0.0 0.0 
1.887308280810e-03 8.453889568461e-04 0.0 
8.453889568461e-04 -4.708513124201e-03 0.0 
0.0 0.0 0.0 
5.317457346119e-04 -3.839040409855e-03 0.0 
-3.839040409855e-03 -1.271279324678e-03 0.0 
0.0 0.0 0.0 
8.021486201801e-04 -5.685693401320e-04 0.0 
-5.685693401320e-04 3.032685731187e-03 0.0 
0.0 0.0 0.0 
-3.274441342808e-03 1.326855403732e-03 0.0 
1.326855403732e-03 1.515238381296e-02 0.0 
0.0 0.0 0.0 
-3.068457816128e-03 3.312275960100e-03 0.0 
3.312275960100e-03 1.350876689176e-02 0.0 
0.0 0.0 0.0 
0.0 4.377148410247e-03 0.0 
4.377148410247e-03 6.762042988309e-03 0.0 
0.0 0.0 0.0 
-2.955348572254e-03 9.082366784910e-04 0.0 
9.082366784910e-04 1.526431710082e-02 0.0 
0.0 0.0 0.0 
-5.052403988592e-04 4.185538532453e-03 0.0 
4.185538532453e-03 1.519164822502e-02 0.0 
0.0 0.0 0.0 
1.764251665592e-03 4.326607524513e-03 0.0 
4.326607524513e-03 4.212926100037e-03 0.0 
0.0 0.0 0.0 
-2.682932937506e-03 1.083546219706e-03 0.0 
1.083546219706e-03 1.587753013362e-02 0.0 
0.0 0.0 0.0 
2.805114774478e-04 4.106887819555e-03 0.0 
4.106887819555e-03 2.690754241579e-03 0.0 
0.0 0.0 0.0 
3.815043190269e-03 2.547164777448e-03 0.0 
2.547164777448e-03 -2.385286976022e-04 0.0 
0.0 0.0 0.0 
2.986682800932e-03 2.817170180045e-03 0.0 
2.817170180045e-03 -2.646421033010e-03 0.0 
0.0 0.0 0.0 
0.0 3.654273922860e-03 0.0 
3.654273922860e-03 5.838769480712e-03 0.0 
0.0 0.0 0.0 
0.0 4.924896974164e-03 0.0 
4.924896974164e-03 1.325583909040e-02 0.0 
0.0 0.0 0.0 
0.0 4.417543156899e-03 0.0 
4.417543156899e-03 1.448704832941e-02 0.0 
0.0 0.0 0.0 
1.977932777033e-03 -1.587442749100e-03 0.0 
-1.587442749100e-03 4.826927954138e-05 0.0 
0.0 0.0 0.0 
-4.398728829448e-04 -1.633255137794e-03 0.0 
-1.633255137794e-03 2.109370722235e-03 0.0 
0.0 0.0 0.0 
1.851480149247e-03 4.251467616737e-03 0.0 
4.251467616737e-03 2.484991587651e-03 0.0 
0.0 0.0 0.0 
1.941623840129e-03 -1.390279862024e-03 0.0 
-1.390279862024e-03 7.070923682095e-04 0.0 
0.0 0.0 0.0 
0.0 2.887565019541e-03 0.0 
2.887565019541e-03 5.159384675454e-03 0.0 
0.0 0.0 0.0 
2.958620276286e-03 3.507297198592e-03 0.0 
3.507297198592e-03 -9.492434504232e-04 0.0 
0.0 0.0 0.0 
4.563138901113e-03 -1.194648409004e-03 0.0 
-1.194648409004e-03 -3.416447825817e-03 0.0 
0.0 0.0 0.0 
4.156772030096e-03 -1.737303192348e-03 0.0 
-1.737303192348e-03 -2.883875170157e-03 0.0 
0.0 0.0 0.0 
-2.535548527652e-03 1.065790824017e-03 0.0 
1.065790824017e-03 1.609878638974e-02 0.0 
0.0 0.0 0.0 
5.424485452377e-04 1.010235010001e-03 0.0 
1.010235010001e-03 4.512173954158e-03 0.0 
0.0 0.0 0.0 
-9.036791526628e-04 -3.536680636790e-03 0.0 
-3.536680636790e-03 -7.378636336841e-05 0.0 
0.0 0.0 0.0 
0.0 1.998047075533e-03 0.0 
1.998047075533e-03 4.675175873421e-03 0.0 
0.0 0.0 0.0 
3.499309357430e-03 -2.345679337177e-03 0.0 
-2.345679337177e-03 -2.392344138605e-03 0.0 
0.0 0.0 0.0 
0.0 5.371633650801e-03 0.0 
5.371633650801e-03 1.126319889293e-02 0.0 
0.0 0.0 0.0 
-8.645519669325e-04 4.634059194255e-03 0.0 
4.634059194255e-03 1.174152600550e-02 0.0 
0.0 0.0 0.0 
-5.758922244492e-05 -1.106074623697e-04 0.0 
-1.106074623697e-04 1.593309272672e-04 0.0 
0.0 0.0 0.0 
2.089968065358e-03 4.224749961964e-03 0.0 
4.224749961964e-03 1.507300329159e-03 0.0 
0.0 0.0 0.0 
-1.955565373337e-03 3.045223646824e-03 0.0 
3.045223646824e-03 1.569092224508e-02 0.0 
0.0 0.0 0.0 
0.0 5.355252792939e-03 0.0 
5.355252792939e-03 9.862459888299e-03 0.0 
0.0 0.0 0.0 
-1.309144793858e-03 4.457388171518e-03 0.0 
4.457388171518e-03 1.048513836966e-02 0.0 
0.0 0.0 0.0 
2.005899165122e-03 4.088485362624e-03 0.0 
4.088485362624e-03 3.770553477600e-03 0.0 
0.0 0.0 0.0 
1.311698249673e-03 4.100117443916e-03 0.0 
4.100117443916e-03 -1.420471266587e-03 0.0 
0.0 0.0 0.0 
1.354615133534e-03 1.735353054914e-03 0.0 
1.735353054914e-03 3.068456068798e-03 0.0 
0.0 0.0 0.0 
2.969213265498e-03 -2.524783456294e-03 0.0 
-2.524783456294e-03 -1.743508920700e-03 0.0 
0.0 0.0 0.0 
3.551403120338e-03 -2.304343551688e-03 0.0 
-2.304343551688e-03 -2.805452836650e-03 0.0 
0.0 0.0 0.0 
-1.782841088635e-03 -3.374976480016e-03 0.0 
-3.374976480016e-03 -3.973874403196e-05 0.0 
0.0 0.0 0.0 
0.0 5.113290498947e-03 0.0 
5.113290498947e-03 8.512228954637e-03 0.0 
0.0 0.0 0.0 
3.538641888127e-03 2.450831180595e-03 0.0 
2.450831180595e-03 -2.700519467972e-03 0.0 
0.0 0.0 0.0 
2.031274212868e-03 3.164344497684e-04 0.0 
3.164344497684e-04 1.681513245045e-03 0.0 
0.0 0.0 0.0 
-2.917303186857e-03 8.816051500644e-04 0.0 
8.816051500644e-04 1.581146959169e-02 0.0 
0.0 0.0 0.0 
1.126814514216e-03 -2.872838478781e-03 0.0 
-2.872838478781e-03 -3.961768895464e-04 0.0 
0.0 0.0 0.0 
4.031937986057e-03 -1.970473540199e-03 0.0 
-1.970473540199e-03 -3.301789815659e-03 0.0 
0.0 0.0 0.0 
-1.056698873857e-03 4.587074447141e-03 0.0 
4.587074447141e-03 9.545470264441e-03 0.0 
0.0 0.0 0.0 
0.0 4.023055539486e-03 0.0 
4.023055539486e-03 6.279011270687e-03 0.0 
0.0 0.0 0.0 
-5.168919139574e-04 -1.549658985801e-03 0.0 
-1.549658985801e-03 2.519336482394e-03 0.0 
0.0 0.0 0.0 
2.122971270054e-03 -8.855555407399e-04 0.0 
-8.855555407399e-04 5.579175416019e-04 0.0 
0.0 0.0 0.0 
1.402021318347e-03 4.604423396780e-03 0.0 
4.604423396780e-03 3.651086048784e-03 0.0 
0.0 0.0 0.0 
3.526441921796e-03 -5.143239468882e-04 0.0 
-5.143239468882e-04 -1.333098880007e-03 0.0 
0.0 0.0 0.0 
4.588111514240e-03 -1.196431136985e-03 0.0 
-1.196431136985e-03 -3.515734382477e-03 0.0 
0.0 0.0 0.0 
2.316518324695e-03 -1.273932476445e-03 0.0 
-1.273932476445e-03 -1.093509633771e-04 0.0 
0.0 0.0 0.0 
9.955451881627e-04 4.596997275184e-03 0.0 
4.596997275184e-03 4.510991673740e-03 0.0 
0.0 0.0 0.0 
8.157566424578e-04 4.652519658314e-03 0.0 
4.652519658314e-03 6.505322329204e-03 0.0 
0.0 0.0 0.0 
3.354061086647e-03 2.530871417858e-03 0.0 
2.530871417858e-03 6.802910546466e-04 0.0 
0.0 0.0 0.0 
1.839948572985e-03 4.459426486935e-03 0.0 
4.459426486935e-03 2.603666335480e-03 0.0 
0.0 0.0 0.0 
7.612593554684e-04 -2.251575701327e-03 0.0 
-2.251575701327e-03 1.046128475415e-03 0.0 
0.0 0.0 0.0 
2.576075074872e-03 3.753340122149e-03 0.0 
3.753340122149e-03 -1.537237983648e-04 0.0 
0.0 0.0 0.0 
-2.821392319614e-04 -1.805289910894e-03 0.0 
-1.805289910894e-03 2.134298548663e-03 0.0 
0.0 0.0 0.0 
1.917983441259e-03 4.186874015483e-03 0.0 
4.186874015483e-03 4.236288769231e-03 0.0 
0.0 0.0 0.0 
4.748168492119e-03 1.958681362019e-03 0.0 
1.958681362019e-03 -2.027901009738e-03 0.0 
0.0 0.0 0.0 
6.899341256905e-04 1.839018751737e-03 0.0 
1.839018751737e-03 4.627698527941e-03 0.0 
0.0 0.0 0.0 
-1.705558012970e-03 3.432456483013e-03 0.0 
3.432456483013e-03 1.529875969660e-02 0.0 
0.0 0.0 0.0 
8.533315326635e-04 -2.712116637671e-03 0.0 
-2.712116637671e-03 1.739049564264e-04 0.0 
0.0 0.0 0.0 
0.0 2.424990601967e-03 0.0 
2.424990601967e-03 4.829242264810e-03 0.0 
0.0 0.0 0.0 
1.355334031739e-03 1.938506311012e-03 0.0 
1.938506311012e-03 3.850668366531e-03 0.0 
0.0 0.0 0.0 
3.376650010765e-03 3.814372147959e-03 0.0 
3.814372147959e-03 -2.289758738178e-04 0.0 
0.0 0.0 0.0 
-8.235077487105e-04 -2.351099993454e-03 0.0 
-2.351099993454e-03 8.479365205034e-04 0.0 
0.0 0.0 0.0 
5.622687520461e-04 6.777533042141e-04 0.0 
6.777533042141e-04 4.550690869297e-03 0.0 
0.0 0.0 0.0 
-1.523741943002e-03 3.920011226084e-03 0.0 
3.920011226084e-03 1.430934458880e-02 0.0 
0.0 0.0 0.0 
2.769826797660e-03 -2.819720917916e-03 0.0 
-2.819720917916e-03 -1.719976334067e-03 0.0 
0.0 0.0 0.0 
0.0 1.193645848594e-03 0.0 
1.193645848594e-03 4.489836189327e-03 0.0 
0.0 0.0 0.0 
1.851380215071e-03 -1.268467691597e-03 0.0 
-1.268467691597e-03 5.889748843615e-04 0.0 
0.0 0.0 0.0 
-7.150063490657e-05 4.371188780994e-03 0.0 
4.371188780994e-03 5.233766499240e-03 0.0 
0.0 0.0 0.0 
-2.604814692741e-03 3.442856320192e-03 0.0 
3.442856320192e-03 1.280206733953e-02 0.0 
0.0 0.0 0.0 
4.748183304213e-03 2.033519725305e-03 0.0 
2.033519725305e-03 -1.807148716067e-03 0.0 
0.0 0.0 0.0 
2.076928375792e-03 -1.830263341831e-03 0.0 
-1.830263341831e-03 -3.771726277036e-04 0.0 
0.0 0.0 0.0 
3.612463368537e-03 1.086788746660e-04 0.0 
1.086788746660e-04 -1.008058767019e-03 0.0 
0.0 0.0 0.0 
-2.557873270384e-03 3.389898376214e-03 0.0 
3.389898376214e-03 1.417196877060e-02 0.0 
0.0 0.0 0.0 
-7.706263949102e-04 4.349007799314e-03 0.0 
4.349007799314e-03 7.268652293402e-03 0.0 
0.0 0.0 0.0 
2.966586007188e-03 2.931231014198e-03 0.0 
2.931231014198e-03 1.547297756061e-03 0.0 
0.0 0.0 0.0 
-2.023421428331e-03 1.382252205810e-04 0.0 
1.382252205810e-04 1.597646104754e-02 0.0 
0.0 0.0 0.0 
4.425615513157e-04 -2.199185644663e-03 0.0 
-2.199185644663e-03 1.040058104590e-03 0.0 
0.0 0.0 0.0 
3.738216023085e-03 2.062117230449e-03 0.0 
2.062117230449e-03 -1.422815950493e-04 0.0 
0.0 0.0 0.0 
2.358702464256e-03 -2.755746420871e-03 0.0 
-2.755746420871e-03 -1.711671788210e-03 0.0 
0.0 0.0 0.0 
1.877182929735e-04 -1.262862494129e-03 0.0 
-1.262862494129e-03 2.908713057840e-03 0.0 
0.0 0.0 0.0 
-2.545804561735e-04 -2.463355209366e-04 0.0 
-2.463355209366e-04 1.403916489500e-04 0.0 
0.0 0.0 0.0 
2.167156910981e-03 3.953054808827e-03 0.0 
3.953054808827e-03 6.485600671435e-04 0.0 
0.0 0.0 0.0 
2.877935836741e-03 -2.787526645522e-03 0.0 
-2.787526645522e-03 -2.326536718930e-03 0.0 
0.0 0.0 0.0 
6.129215524275e-05 -1.836819485082e-03 0.0 
-1.836819485082e-03 2.078802897703e-03 0.0 
0.0 0.0 0.0 
2.822696364147e-03 4.019114006476e-03 0.0 
4.019114006476e-03 8.208999235333e-04 0.0 
0.0 0.0 0.0 
2.301734160610e-03 -1.063046749988e-03 0.0 
-1.063046749988e-03 5.562619870603e-04 0.0 
0.0 0.0 0.0 
-2.770797198221e-03 8.605903407953e-04 0.0 
8.605903407953e-04 1.602175481755e-02 0.0 
0.0 0.0 0.0 
2.155489086552e-03 -3.060349638680e-03 0.0 
-3.060349638680e-03 -1.678869739284e-03 0.0 
0.0 0.0 0.0 
0.0 8.621365152116e-04 0.0 
8.621365152116e-04 4.534700262674e-03 0.0 
0.0 0.0 0.0 
-2.126040381720e-04 4.741164941666e-03 0.0 
4.741164941666e-03 7.711908647734e-03 0.0 
0.0 0.0 0.0 
-2.138080825984e-04 -1.598158633191e-03 0.0 
-1.598158633191e-03 2.546746674760e-03 0.0 
0.0 0.0 0.0 
1.691898140830e-04 4.735355776570e-03 0.0 
4.735355776570e-03 6.656044340349e-03 0.0 
0.0 0.0 0.0 
-1.786209643929e-04 -1.735664357541e-03 0.0 
-1.735664357541e-03 2.065075292489e-03 0.0 
0.0 0.0 0.0 
-7.633243469126e-04 -1.419816685119e-04 0.0 
-1.419816685119e-04 4.339101400535e-04 0.0 
0.0 0.0 0.0 
-2.772847710574e-03 3.446265051318e-03 0.0 
3.446265051318e-03 1.347812218910e-02 0.0 
0.0 0.0 0.0 
-1.069201620718e-03 -6.291754757742e-04 0.0 
-6.291754757742e-04 3.087116610393e-03 0.0 
0.0 0.0 0.0 
1.417757927457e-03 -1.486841879243e-04 0.0 
-1.486841879243e-04 -4.850556540456e-04 0.0 
0.0 0.0 0.0 
-4.887857273205e-04 -1.467433861632e-03 0.0 
-1.467433861632e-03 2.737250177305e-03 0.0 
0.0 0.0 0.0 
2.089342859880e-03 -6.989359163984e-04 0.0 
-6.989359163984e-04 1.184438668026e-03 0.0 
0.0 0.0 0.0 
-1.303549112693e-03 8.640119316616e-04 0.0 
8.640119316616e-04 1.702424990394e-02 0.0 
0.0 0.0 0.0 
4.024063605509e-03 -1.528042864447e-04 0.0 
-1.528042864447e-04 -1.815456883203e-03 0.0 
0.0 0.0 0.0 
3.899400623642e-03 -1.037757135016e-04 0.0 
-1.037757135016e-04 -1.406429715438e-03 0.0 
0.0 0.0 0.0 
-3.342819270815e-03 3.097257273289e-03 0.0 
3.097257273289e-03 1.340704560713e-02 0.0 
0.0 0.0 0.0 
-2.932237773474e-03 4.257627167825e-04 0.0 
4.257627167825e-04 1.512088307312e-02 0.0 
0.0 0.0 0.0 
-5.994533070076e-04 3.432573671295e-03 0.0 
3.432573671295e-03 1.569308002201e-02 0.0 
0.0 0.0 0.0 
5.692717619912e-04 4.687051080501e-03 0.0 
4.687051080501e-03 5.581922734977e-03 0.0 
0.0 0.0 0.0 
2.119532773621e-03 -1.699568438786e-04 0.0 
-1.699568438786e-04 -7.609452261808e-04 0.0 
0.0 0.0 0.0 
4.766598554973e-05 -1.554104870788e-03 0.0 
-1.554104870788e-03 8.884373046742e-04 0.0 
0.0 0.0 0.0 
-8.538847726857e-04 -1.434961599423e-03 0.0 
-1.434961599423e-03 9.028607268953e-04 0.0 
0.0 0.0 0.0 
4.623050282364e-04 -2.522698458677e-03 0.0 
-2.522698458677e-03 5.062335031070e-04 0.0 
0.0 0.0 0.0 
7.193551590023e-05 4.766758954599e-03 0.0 
4.766758954599e-03 8.936447644075e-03 0.0 
0.0 0.0 0.0 
-1.500959263338e-03 8.674678170763e-04 0.0 
8.674678170763e-04 1.702454332530e-02 0.0 
0.0 0.0 0.0 
8.942915706223e-04 -6.605645453891e-04 0.0 
-6.605645453891e-04 3.014767733760e-03 0.0 
0.0 0.0 0.0 
7.910194686445e-05 -2.090747174242e-03 0.0 
-2.090747174242e-03 1.179588802599e-03 0.0 
0.0 0.0 0.0 
-8.399216056498e-05 -1.240695823424e-03 0.0 
-1.240695823424e-03 2.906904976193e-03 0.0 
0.0 0.0 0.0 
1.865247697388e-03 3.574629284773e-04 0.0 
3.574629284773e-04 2.156327043563e-03 0.0 
0.0 0.0 0.0 
3.135289305829e-03 3.385944179511e-04 0.0 
3.385944179511e-04 -4.203082542447e-03 0.0 
0.0 0.0 0.0 
-1.077677722145e-03 -3.865494993940e-04 0.0 
-3.865494993940e-04 3.082753560952e-03 0.0 
0.0 0.0 0.0 
-9.480840248860e-04 -3.538388436535e-04 0.0 
-3.538388436535e-04 2.718939894028e-03 0.0 
0.0 0.0 0.0 
4.347760164591e-04 3.514158111431e-04 0.0 
3.514158111431e-04 4.611904009505e-03 0.0 
0.0 0.0 0.0 
0.0 5.199367307326e-04 0.0 
5.199367307326e-04 4.566651899951e-03 0.0 
0.0 0.0 0.0 
-1.113631010778e-03 -3.995430792905e-04 0.0 
-3.995430792905e-04 3.301460551433e-03 0.0 
0.0 0.0 0.0 
-4.256192091928e-04 -1.483641621387e-03 0.0 
-1.483641621387e-03 2.530502023903e-03 0.0 
0.0 0.0 0.0 
2.004438487878e-03 -1.665958330915e-03 0.0 
-1.665958330915e-03 2.601562047053e-04 0.0 
0.0 0.0 0.0 
1.811694778005e-03 7.535995837892e-04 0.0 
7.535995837892e-04 2.456198536062e-03 0.0 
0.0 0.0 0.0 
-1.500024604876e-04 -1.641954262393e-03 0.0 
-1.641954262393e-03 1.011625646269e-03 0.0 
0.0 0.0 0.0 
1.886107325183e-03 -2.636063472362e-05 0.0 
-2.636063472362e-05 1.942673559001e-03 0.0 
0.0 0.0 0.0 
1.249039212338e-03 -4.304243574454e-04 0.0 
-4.304243574454e-04 2.042258931969e-04 0.0 
0.0 0.0 0.0 
-4.377724843577e-04 -1.579342226705e-03 0.0 
-1.579342226705e-03 2.303825120276e-03 0.0 
0.0 0.0 0.0 
1.264649768824e-04 -1.834931790390e-03 0.0 
-1.834931790390e-03 1.792743268435e-03 0.0 
0.0 0.0 0.0 
1.426346917417e-03 -2.223312836365e-04 0.0 
-2.223312836365e-04 -2.116109290788e-04 0.0 
0.0 0.0 0.0 
-1.129276051762e-03 -3.749143397452e-04 0.0 
-3.749143397452e-04 3.262775612320e-03 0.0 
0.0 0.0 0.0 
-1.429139117700e-03 3.316455703972e-03 0.0 
3.316455703972e-03 1.531685121851e-02 0.0 
0.0 0.0 0.0 
2.366569429359e-03 -1.111056427704e-04 0.0 
-1.111056427704e-04 -8.523621084340e-04 0.0 
0.0 0.0 0.0 
-3.245244172715e-03 6.796306501966e-04 0.0 
6.796306501966e-04 1.520333717917e-02 0.0 
0.0 0.0 0.0 
-3.177169672137e-03 9.438577138694e-04 0.0 
9.438577138694e-04 1.490949493417e-02 0.0 
0.0 0.0 0.0 
3.587069085771e-03 7.434930102065e-04 0.0 
7.434930102065e-04 -5.170056215970e-04 0.0 
0.0 0.0 0.0 
-9.147593111123e-04 -9.203698355876e-05 0.0 
-9.203698355876e-05 2.728581400111e-03 0.0 
0.0 0.0 0.0 
2.248514376980e-03 -2.787742574589e-03 0.0 
-2.787742574589e-03 -1.082176588012e-03 0.0 
0.0 0.0 0.0 
1.044115414775e-03 3.910343054245e-03 0.0 
3.910343054245e-03 4.562341741354e-04 0.0 
0.0 0.0 0.0 
4.472862684606e-04 -4.584346766708e-04 0.0 
-4.584346766708e-04 4.040291740564e-03 0.0 
0.0 0.0 0.0 
2.361610026005e-04 4.907567713806e-03 0.0 
4.907567713806e-03 8.331145987085e-03 0.0 
0.0 0.0 0.0 
-1.975025561865e-03 1.292915245590e-03 0.0 
1.292915245590e-03 1.680440312062e-02 0.0 
0.0 0.0 0.0 
3.588100242076e-04 3.984996167411e-03 0.0 
3.984996167411e-03 2.705749190531e-03 0.0 
0.0 0.0 0.0 
-3.046100408829e-04 -1.274676555733e-03 0.0 
-1.274676555733e-03 8.054534815904e-04 0.0 
0.0 0.0 0.0 
-1.593034281618e-03 4.229379421226e-03 0.0 
4.229379421226e-03 9.148277632615e-03 0.0 
0.0 0.0 0.0 
-2.406066916570e-03 1.599089356930e-04 0.0 
1.599089356930e-04 1.502680011427e-02 0.0 
0.0 0.0 0.0 
-2.185853525654e-03 1.460330986374e-04 0.0 
1.460330986374e-04 1.493405762649e-02 0.0 
0.0 0.0 0.0 
1.638839005342e-03 -1.320368599437e-04 0.0 
-1.320368599437e-04 -5.851411393073e-04 0.0 
0.0 0.0 0.0 
1.249396204042e-03 -2.978627087053e-04 0.0 
-2.978627087053e-04 -1.323344689127e-04 0.0 
0.0 0.0 0.0 
1.028310995524e-03 -1.904066113653e-04 0.0 
-1.904066113653e-04 3.217789326941e-04 0.0 
0.0 0.0 0.0 
-1.364769051564e-04 -1.819131071436e-03 0.0 
-1.819131071436e-03 1.327902266040e-03 0.0 
0.0 0.0 0.0 
2.050529457103e-03 -1.902431911112e-04 0.0 
-1.902431911112e-04 -4.568004468061e-04 0.0 
0.0 0.0 0.0 
-1.120995231389e-03 -3.583532283138e-04 0.0 
-3.583532283138e-04 3.483878819488e-03 0.0 
0.0 0.0 0.0 
-1.579601987269e-03 -1.229270535339e-03 0.0 
-1.229270535339e-03 -1.722138717499e-03 0.0 
0.0 0.0 0.0 
-9.421110363961e-05 -1.977831403034e-03 0.0 
-1.977831403034e-03 1.456800264469e-03 0.0 
0.0 0.0 0.0 
-1.837328982032e-03 2.084289473635e-04 0.0 
2.084289473635e-04 1.627662500692e-02 0.0 
0.0 0.0 0.0 
-2.426926863764e-03 3.806837536654e-04 0.0 
3.806837536654e-04 1.488904222767e-02 0.0 
0.0 0.0 0.0 
-1.798234122702e-04 4.833797135332e-03 0.0 
4.833797135332e-03 9.847106058829e-03 0.0 
0.0 0.0 0.0 
1.845862213746e-03 -1.050985871328e-03 0.0 
-1.050985871328e-03 1.238169173649e-03 0.0 
0.0 0.0 0.0 
-1.922871384821e-03 1.321979036678e-04 0.0 
1.321979036678e-04 1.596818943145e-02 0.0 
0.0 0.0 0.0 
-1.020960438056e-03 -1.325458922041e-04 0.0 
-1.325458922041e-04 2.890164257092e-03 0.0 
0.0 0.0 0.0 
1.557068974305e-03 -2.381552886723e-04 0.0 
-2.381552886723e-04 9.226897948178e-05 0.0 
0.0 0.0 0.0 
0.0 1.840972838347e-03 0.0 
1.840972838347e-03 1.708960099988e-02 0.0 
0.0 0.0 0.0 
-5.194474369026e-04 2.064893883326e-03 0.0 
2.064893883326e-03 1.700647485090e-02 0.0 
0.0 0.0 0.0 
-2.588918252678e-03 7.211827586531e-04 0.0 
7.211827586531e-04 1.582300528376e-02 0.0 
0.0 0.0 0.0 
-2.563131574125e-03 2.073216982570e-04 0.0 
2.073216982570e-04 1.505027503696e-02 0.0 
0.0 0.0 0.0 
-9.749976698071e-04 -3.498504890315e-04 0.0 
-3.498504890315e-04 2.852652729209e-03 0.0 
0.0 0.0 0.0 
-4.467553340901e-04 1.440643162096e-03 0.0 
1.440643162096e-03 1.726872893598e-02 0.0 
0.0 0.0 0.0 
6.414452078873e-05 -1.979850618585e-03 0.0 
-1.979850618585e-03 1.120520234547e-03 0.0 
0.0 0.0 0.0 
-2.677159077826e-03 5.667883152182e-04 0.0 
5.667883152182e-04 1.487685581143e-02 0.0 
0.0 0.0 0.0 
-2.705458734455e-03 3.034880399912e-04 0.0 
3.034880399912e-04 1.507916793855e-02 0.0 
0.0 0.0 0.0 
-2.004041530890e-03 3.750420179810e-03 0.0 
3.750420179810e-03 1.003819895835e-02 0.0 
0.0 0.0 0.0 
0.0 3.839374156184e-03 0.0 
3.839374156184e-03 1.542724522882e-02 0.0 
0.0 0.0 0.0 
-5.148307001801e-04 1.748434747002e-03 0.0 
1.748434747002e-03 1.715395199162e-02 0.0 
0.0 0.0 0.0 
1.886524692005e-03 -2.514967252043e-04 0.0 
-2.514967252043e-04 -3.998637198802e-04 0.0 
0.0 0.0 0.0 
1.886392754086e-03 -1.106954523918e-04 0.0 
-1.106954523918e-04 -6.918487040259e-04 0.0 
0.0 0.0 0.0 
-2.275012385869e-04 -1.245171567383e-03 0.0 
-1.245171567383e-03 8.731440115231e-04 0.0 
0.0 0.0 0.0 
4.109309957028e-04 -1.890069772410e-03 0.0 
-1.890069772410e-03 1.799372142383e-03 0.0 
0.0 0.0 0.0 
-3.644639021815e-04 -8.453095968507e-05 0.0 
-8.453095968507e-05 5.573998833377e-03 0.0 
0.0 0.0 0.0 
-4.467599152837e-03 -2.041747310125e-03 0.0 
-2.041747310125e-03 -1.575511578480e-03 0.0 
0.0 0.0 0.0 
-1.442171929085e-03 1.049037297125e-04 0.0 
1.049037297125e-04 1.686968771764e-02 0.0 
0.0 0.0 0.0 
-1.736090036745e-03 -1.154080812402e-03 0.0 
-1.154080812402e-03 8.160311549812e-04 0.0 
0.0 0.0 0.0 
3.543148509860e-03 2.076479846444e-04 0.0 
2.076479846444e-04 -5.701843918965e-04 0.0 
0.0 0.0 0.0 
-9.938460933326e-04 -7.445179400832e-04 0.0 
-7.445179400832e-04 9.649656205957e-05 0.0 
0.0 0.0 0.0 
-2.640735314082e-03 -2.318688669289e-03 0.0 
-2.318688669289e-03 -2.683078816512e-04 0.0 
0.0 0.0 0.0 
3.470148106930e-03 -3.767013310969e-04 0.0 
-3.767013310969e-04 -8.096363083060e-04 0.0 
0.0 0.0 0.0 
-2.550100352695e-04 -3.522875560882e-04 0.0 
-3.522875560882e-04 5.158378029142e-03 0.0 
0.0 0.0 0.0 
-1.931746605387e-03 1.536018144954e-04 0.0 
1.536018144954e-04 1.624512169179e-02 0.0 
0.0 0.0 0.0 
-1.077939450303e-03 4.439038848577e-03 0.0 
4.439038848577e-03 8.275469028439e-03 0.0 
0.0 0.0 0.0 
1.557748386636e-03 -1.630278891709e-04 0.0 
-1.630278891709e-04 -2.673686484301e-04 0.0 
0.0 0.0 0.0 
-2.855251561562e-04 -1.023179412714e-03 0.0 
-1.023179412714e-03 3.369533644555e-03 0.0 
0.0 0.0 0.0 
0.0 5.617408163808e-04 0.0 
5.617408163808e-04 1.745098683702e-02 0.0 
0.0 0.0 0.0 
-3.906136210448e-04 6.509322022253e-04 0.0 
6.509322022253e-04 1.744575203011e-02 0.0 
0.0 0.0 0.0 
-2.297263633945e-03 2.633685093990e-04 0.0 
2.633685093990e-04 1.489683965878e-02 0.0 
0.0 0.0 0.0 
3.479995966665e-03 7.772442757758e-04 0.0 
7.772442757758e-04 -1.887893498099e-04 0.0 
0.0 0.0 0.0 
0.0 1.534280719095e-03 0.0 
1.534280719095e-03 1.722262518188e-02 0.0 
0.0 0.0 0.0 
2.106484246765e-03 3.926156313752e-03 0.0 
3.926156313752e-03 3.793597774367e-03 0.0 
0.0 0.0 0.0 
1.634735221042e-03 -1.265845453780e-04 0.0 
-1.265845453780e-04 4.117799694869e-05 0.0 
0.0 0.0 0.0 
2.171257243113e-03 -1.291751411944e-04 0.0 
-1.291751411944e-04 -5.103212166776e-04 0.0 
0.0 0.0 0.0 
1.651110080336e-03 -5.138440290714e-05 0.0 
-5.138440290714e-05 -2.815450354154e-04 0.0 
0.0 0.0 0.0 
-1.126222158501e-03 -1.254302693168e-04 0.0 
-1.254302693168e-04 3.162763993716e-03 0.0 
0.0 0.0 0.0 
-1.194000815534e-04 -3.477727828860e-04 0.0 
-3.477727828860e-04 5.891287917238e-03 0.0 
0.0 0.0 0.0 
-6.519502232317e-04 3.021701550176e-06 0.0 
3.021701550176e-06 1.735387707385e-02 0.0 
0.0 0.0 0.0 
2.173394241991e-03 -7.673740671892e-05 0.0 
-7.673740671892e-05 -8.244415351132e-04 0.0 
0.0 0.0 0.0 
-1.145433692598e-03 -1.476539940417e-04 0.0 
-1.476539940417e-04 3.483574959126e-03 0.0 
0.0 0.0 0.0 
0.0 -2.537602887444e-04 0.0 
-2.537602887444e-04 5.964207753736e-03 0.0 
0.0 0.0 0.0 
-1.063370496245e-04 -3.962088623335e-04 0.0 
-3.962088623335e-04 5.793813082314e-03 0.0 
0.0 0.0 0.0 
4.292842998266e-04 8.755319525028e-05 0.0 
8.755319525028e-05 4.715300905486e-03 0.0 
0.0 0.0 0.0 
-1.632758751090e-03 1.052828448533e-04 0.0 
1.052828448533e-04 1.661266249891e-02 0.0 
0.0 0.0 0.0 
-1.300134114263e-03 -9.519904745597e-06 0.0 
-9.519904745597e-06 1.698759322430e-02 0.0 
0.0 0.0 0.0 
0.0 -3.223704485504e-04 0.0 
-3.223704485504e-04 5.842974496013e-03 0.0 
0.0 0.0 0.0 
0.0 -3.824959958458e-04 0.0 
-3.824959958458e-04 5.742533144790e-03 0.0 
0.0 0.0 0.0 
-1.414939088263e-03 1.266508002120e-04 0.0 
1.266508002120e-04 1.687044630052e-02 0.0 
0.0 0.0 0.0 
2.911075844717e-03 -4.745863627744e-06 0.0 
-4.745863627744e-06 -1.123720904749e-03 0.0 
0.0 0.0 0.0 
-2.130645824737e-03 7.680439464701e-05 0.0 
7.680439464701e-05 1.494897636094e-02 0.0 
0.0 0.0 0.0 
-2.239183644810e-03 1.880982381527e-04 0.0 
1.880982381527e-04 1.493842344010e-02 0.0 
0.0 0.0 0.0 
2.051321890485e-03 -8.663007900060e-05 0.0 
-8.663007900060e-05 -7.635885327288e-04 0.0 
0.0 0.0 0.0 
0.0 -3.636616250528e-04 0.0 
-3.636616250528e-04 5.312955929201e-03 0.0 
0.0 0.0 0.0 
3.041778612052e-04 -1.307088920487e-04 0.0 
-1.307088920487e-04 4.848379978180e-03 0.0 
0.0 0.0 0.0 
0.0 -1.497523955486e-04 0.0 
-1.497523955486e-04 4.919471036460e-03 0.0 
0.0 0.0 0.0 
2.743243575604e-03 -6.840220233423e-05 0.0 
-6.840220233423e-05 -1.011161006785e-03 0.0 
0.0 0.0 0.0 
2.575217822585e-03 -9.147401543704e-05 0.0 
-9.147401543704e-05 -9.437021876239e-04 0.0 
0.0 0.0 0.0 
0.0 2.634640114740e-04 0.0 
2.634640114740e-04 4.655271357895e-03 0.0 
0.0 0.0 0.0 
0.0 2.552352983157e-05 0.0 
2.552352983157e-05 4.770531466472e-03 0.0 
0.0 0.0 0.0 
-1.729256138609e-03 -2.045362448543e-05 0.0 
-2.045362448543e-05 1.646114616255e-02 0.0 
0.0 0.0 0.0 
-2.069823012109e-03 2.582379805000e-05 0.0 
2.582379805000e-05 1.495220192145e-02 0.0 
0.0 0.0 0.0 
-1.536488717892e-03 -1.421422101086e-05 0.0 
-1.421422101086e-05 1.674376919313e-02 0.0 
0.0 0.0 0.0 
-1.964977364599e-03 -2.952123361336e-05 0.0 
-2.952123361336e-05 1.578623544672e-02 0.0 
0.0 0.0 0.0 
-2.028775507377e-03 4.033880522626e-05 0.0 
4.033880522626e-05 1.495629475880e-02 0.0 
0.0 0.0 0.0 
1.777828195974e-03 -2.000993937271e-04 0.0 
-2.000993937271e-04 -6.191516684700e-04 0.0 
0.0 0.0 0.0 
9.452209381775e-04 -1.743520224187e-04 0.0 
-1.743520224187e-04 -2.116073971277e-04 0.0 
0.0 0.0 0.0 
6.264808886838e-04 -1.697178229592e-04 0.0 
-1.697178229592e-04 -7.874959724408e-05 0.0 
0.0 0.0 0.0 
2.421197443394e-04 -1.378699695933e-04 0.0 
-1.378699695933e-04 1.160228433223e-04 0.0 
0.0 0.0 0.0 
-1.136112573484e-03 -9.804189158701e-05 0.0 
-9.804189158701e-05 3.622642875556e-03 0.0 
0.0 0.0 0.0 
-1.154310265246e-03 -1.151551115128e-04 0.0 
-1.151551115128e-04 3.397225269871e-03 0.0 
0.0 0.0 0.0 
2.116936408381e-04 -1.824481255020e-04 0.0 
-1.824481255020e-04 4.225027657445e-05 0.0 
0.0 0.0 0.0 
-9.079612394631e-04 -5.617386184541e-05 0.0 
-5.617386184541e-05 4.294546173315e-03 0.0 
0.0 0.0 0.0 
-1.185272411983e-04 -1.815658516575e-04 0.0 
-1.815658516575e-04 1.894678808705e-04 0.0 
0.0 0.0 0.0 
0.0 3.150053284695e-03 0.0 
3.150053284695e-03 1.620286379194e-02 0.0 
0.0 0.0 0.0 
0.0 1.273425098265e-03 0.0 
1.273425098265e-03 1.731339063822e-02 0.0 
0.0 0.0 0.0 
0.0 2.159384644170e-03 0.0 
2.159384644170e-03 1.691736707453e-02 0.0 
0.0 0.0 0.0 
5.232098808858e-04 -1.261255137569e-04 0.0 
-1.261255137569e-04 1.039973748809e-03 0.0 
0.0 0.0 0.0 
-8.159760241069e-04 -1.328383979176e-04 0.0 
-1.328383979176e-04 2.555916889244e-03 0.0 
0.0 0.0 0.0 
0.0 1.002131861168e-03 0.0 
1.002131861168e-03 1.736292111132e-02 0.0 
0.0 0.0 0.0 
-5.714036418987e-04 -1.322982762063e-05 0.0 
-1.322982762063e-05 5.136739944646e-03 0.0 
0.0 0.0 0.0 
0.0 7.880437190066e-04 0.0 
7.880437190066e-04 1.743671993479e-02 0.0 
0.0 0.0 0.0 
-4.451711347428e-04 -6.489240739309e-07 0.0 
-6.489240739309e-07 5.442059203769e-03 0.0 
0.0 0.0 0.0 
-2.963752795093e-04 7.219027374885e-06 0.0 
7.219027374885e-06 5.740913354494e-03 0.0 
0.0 0.0 0.0 
-1.140214672606e-03 -1.421487924512e-04 0.0 
-1.421487924512e-04 3.262688969465e-03 0.0 
0.0 0.0 0.0 
-4.780708158784e-04 1.153484840462e-03 0.0 
1.153484840462e-03 1.733927215334e-02 0.0 
0.0 0.0 0.0 
-3.771389769658e-04 9.535663884584e-04 0.0 
9.535663884584e-04 1.739086576388e-02 0.0 
0.0 0.0 0.0 
-5.025631231067e-04 -1.046369491185e-04 0.0 
-1.046369491185e-04 5.253967656901e-03 0.0 
0.0 0.0 0.0 
-3.691468470182e-04 -1.034755942581e-04 0.0 
-1.034755942581e-04 5.575074920779e-03 0.0 
0.0 0.0 0.0 
-5.643266297389e-04 -6.131368657033e-04 0.0 
-6.131368657033e-04 4.143484829280e-03 0.0 
0.0 0.0 0.0 
-1.203477860740e-03 -3.704628909985e-04 0.0 
-3.704628909985e-04 5.988433919732e-04 0.0 
0.0 0.0 0.0 
-6.455126890925e-04 -1.376066049631e-03 0.0 
-1.376066049631e-03 2.495472250523e-03 0.0 
0.0 0.0 0.0 
1.649123558585e-03 -3.335768383071e-04 0.0 
-3.335768383071e-04 -2.861915482729e-04 0.0 
0.0 0.0 0.0 
2.912188655149e-04 -5.280019344046e-04 0.0 
-5.280019344046e-04 4.047730020998e-03 0.0 
0.0 0.0 0.0 
-2.538602885310e-04 -1.719928881834e-03 0.0 
-1.719928881834e-03 2.324058586748e-03 0.0 
0.0 0.0 0.0 
-1.806586776076e-04 -5.461421423524e-04 0.0 
-5.461421423524e-04 4.474632622089e-03 0.0 
0.0 0.0 0.0 
7.167894931981e-05 -1.760583096469e-03 0.0 
-1.760583096469e-03 1.056691110160e-03 0.0 
0.0 0.0 0.0 
4.798002623765e-04 -6.341882861170e-04 0.0 
-6.341882861170e-04 4.863957587757e-04 0.0 
0.0 0.0 0.0 
-2.670342375536e-04 -4.629235664534e-04 0.0 
-4.629235664534e-04 4.845095223755e-03 0.0 
0.0 0.0 0.0 
-6.496988003531e-04 -1.316259071615e-03 0.0 
-1.316259071615e-03 2.714013769104e-03 0.0 
0.0 0.0 0.0 
-1.067844730090e-03 -3.754972965535e-04 0.0 
-3.754972965535e-04 3.010222108787e-03 0.0 
0.0 0.0 0.0 
-3.239826435265e-04 -5.519013458279e-04 0.0 
-5.519013458279e-04 4.476449793192e-03 0.0 
0.0 0.0 0.0 
-9.890460126611e-04 4.387759003378e-04 0.0 
4.387759003378e-04 1.716286054930e-02 0.0 
0.0 0.0 0.0 
-1.073220692253e-03 -1.222001780908e-04 0.0 
-1.222001780908e-04 3.015015169069e-03 0.0 
0.0 0.0 0.0 
1.896693192295e-03 -5.217080754436e-04 0.0 
-5.217080754436e-04 1.258740569770e-03 0.0 
0.0 0.0 0.0 
8.051530945976e-04 -1.378203591203e-03 0.0 
-1.378203591203e-03 2.190234131493e-03 0.0 
0.0 0.0 0.0 
-4.039216043512e-04 -6.585188487004e-04 0.0 
-6.585188487004e-04 4.149528020047e-03 0.0 
0.0 0.0 0.0 
-5.177029452764e-04 -4.772175322296e-04 0.0 
-4.772175322296e-04 4.453763256896e-03 0.0 
0.0 0.0 0.0 
5.086703060721e-03 2.030129546256e-03 0.0 
2.030129546256e-03 -3.213257379719e-03 0.0 
0.0 0.0 0.0 
-1.274302052476e-03 4.274021475884e-03 0.0 
4.274021475884e-03 8.172707742475e-03 0.0 
0.0 0.0 0.0 
2.488511160422e-03 4.057822185047e-03 0.0 
4.057822185047e-03 1.650956357063e-03 0.0 
0.0 0.0 0.0 
-5.154784085870e-05 -1.057231183281e-03 0.0 
-1.057231183281e-03 3.373392072258e-03 0.0 
0.0 0.0 0.0 
-4.047372387852e-04 -4.241293155304e-04 0.0 
-4.241293155304e-04 4.810842468962e-03 0.0 
0.0 0.0 0.0 
-5.843810103907e-04 -3.120886313734e-04 0.0 
-3.120886313734e-04 4.710823713082e-03 0.0 
0.0 0.0 0.0 
3.219078602064e-04 -2.447590343576e-03 0.0 
-2.447590343576e-03 6.306451760831e-04 0.0 
0.0 0.0 0.0 
-1.089101638944e-03 7.684577224627e-04 0.0 
7.684577224627e-04 1.713080086210e-02 0.0 
0.0 0.0 0.0 
-1.394527028882e-03 6.443692348940e-04 0.0 
6.443692348940e-04 1.694798951859e-02 0.0 
0.0 0.0 0.0 
-2.098936630452e-03 1.707733930767e-04 0.0 
1.707733930767e-04 1.552867015913e-02 0.0 
0.0 0.0 0.0 
2.120011307509e-04 -1.032135662753e-03 0.0 
-1.032135662753e-03 3.258570170408e-03 0.0 
0.0 0.0 0.0 
-2.484125113285e-04 -8.535723415292e-04 0.0 
-8.535723415292e-04 3.785881455669e-03 0.0 
0.0 0.0 0.0 
-1.122008764760e-03 4.408497748385e-04 0.0 
4.408497748385e-04 1.716491686683e-02 0.0 
0.0 0.0 0.0 
-1.226333744760e-03 5.660154192567e-04 0.0 
5.660154192567e-04 1.706583212366e-02 0.0 
0.0 0.0 0.0 
7.956867704237e-04 -1.587930728591e-03 0.0 
-1.587930728591e-03 1.596341969977e-03 0.0 
0.0 0.0 0.0 
-3.184268051877e-04 -3.681019889317e-04 0.0 
-3.681019889317e-04 5.159927993296e-03 0.0 
0.0 0.0 0.0 
-1.700357318975e-03 1.249415820615e-03 0.0 
1.249415820615e-03 1.680857416630e-02 0.0 
0.0 0.0 0.0 
-6.426611812512e-04 -2.605794267960e-04 0.0 
-2.605794267960e-04 4.710872193670e-03 0.0 
0.0 0.0 0.0 
1.242159386190e-04 -5.071802390125e-04 0.0 
-5.071802390125e-04 4.522707519202e-03 0.0 
0.0 0.0 0.0 
-1.243967809135e-03 7.782132813036e-04 0.0 
7.782132813036e-04 1.713024710868e-02 0.0 
0.0 0.0 0.0 
-1.995011012518e-03 5.466986977053e-04 0.0 
5.466986977053e-04 1.657640099680e-02 0.0 
0.0 0.0 0.0 
1.696655680324e-03 -8.902623969116e-04 0.0 
-8.902623969116e-04 1.215629579917e-03 0.0 
0.0 0.0 0.0 
-3.699537136538e-04 -8.633255226509e-04 0.0 
-8.633255226509e-04 1.809656948079e-03 0.0 
0.0 0.0 0.0 
3.876262401472e-04 -2.603543211791e-03 0.0 
-2.603543211791e-03 3.856634119395e-04 0.0 
0.0 0.0 0.0 
4.310880649472e-05 -1.075868605531e-03 0.0 
-1.075868605531e-03 7.767675833608e-04 0.0 
0.0 0.0 0.0 
-1.211218555804e-03 -1.909525437916e-03 0.0 
-1.909525437916e-03 4.656200655884e-04 0.0 
0.0 0.0 0.0 
-1.335371505664e-03 5.562814129808e-04 0.0 
5.562814129808e-04 1.706703691993e-02 0.0 
0.0 0.0 0.0 
-3.687743684241e-04 -3.001544938789e-04 0.0 
-3.001544938789e-04 5.095565929203e-03 0.0 
0.0 0.0 0.0 
-7.719706888729e-04 -1.177347773324e-03 0.0 
-1.177347773324e-03 5.699656017235e-04 0.0 
0.0 0.0 0.0 
-1.253534709697e-03 4.317304237408e-03 0.0 
4.317304237408e-03 1.312986831252e-02 0.0 
0.0 0.0 0.0 
-2.132971700113e-03 2.429506515824e-04 0.0 
2.429506515824e-04 1.573331543674e-02 0.0 
0.0 0.0 0.0 
-2.071319087514e-04 -6.970503638993e-04 0.0 
-6.970503638993e-04 4.089695465319e-03 0.0 
0.0 0.0 0.0 
-4.366463707033e-04 -3.801674226365e-04 0.0 
-3.801674226365e-04 4.765661052175e-03 0.0 
0.0 0.0 0.0 
1.785777611777e-03 -2.660079405110e-03 0.0 
-2.660079405110e-03 -4.998075596159e-04 0.0 
0.0 0.0 0.0 
-5.441077360453e-04 -3.654284131954e-04 0.0 
-3.654284131954e-04 4.764097144609e-03 0.0 
0.0 0.0 0.0 
-2.194495638296e-03 1.260457075024e-04 0.0 
1.260457075024e-04 1.552768886590e-02 0.0 
0.0 0.0 0.0 
3.374813831335e-03 2.229726004381e-03 0.0 
2.229726004381e-03 7.244855643835e-04 0.0 
0.0 0.0 0.0 
5.714830604409e-05 -4.101927612536e-04 0.0 
-4.101927612536e-04 4.940948120541e-03 0.0 
0.0 0.0 0.0 
-3.140715734449e-04 -4.858292869527e-04 0.0 
-4.858292869527e-04 1.837480000425e-03 0.0 
0.0 0.0 0.0 
4.052728896997e-04 -4.275776358828e-04 0.0 
-4.275776358828e-04 4.115735102447e-03 0.0 
0.0 0.0 0.0 
-1.806735986452e-03 5.069674178741e-04 0.0 
5.069674178741e-04 1.671988510066e-02 0.0 
0.0 0.0 0.0 
-5.179121134186e-04 -7.204692779867e-04 0.0 
-7.204692779867e-04 2.063699328976e-03 0.0 
0.0 0.0 0.0 
6.410433098141e-04 -2.701239030404e-03 0.0 
-2.701239030404e-03 1.734152155837e-04 0.0 
0.0 0.0 0.0 
-9.161559245674e-04 -6.624189064781e-04 0.0 
-6.624189064781e-04 3.666053552613e-03 0.0 
0.0 0.0 0.0 
-2.117231670707e-03 5.568424018255e-04 0.0 
5.568424018255e-04 1.625646995247e-02 0.0 
0.0 0.0 0.0 
-3.013283871806e-04 -1.832434704043e-03 0.0 
-1.832434704043e-03 1.962350071748e-03 0.0 
0.0 0.0 0.0 
-1.614634238623e-03 4.526683665598e-04 0.0 
4.526683665598e-04 1.685853768132e-02 0.0 
0.0 0.0 0.0 
-1.980840241583e-03 3.737114120489e-04 0.0 
3.737114120489e-04 1.643774961615e-02 0.0 
0.0 0.0 0.0 
-4.388687717769e-04 -1.345624262476e-03 0.0 
-1.345624262476e-03 2.967223472386e-03 0.0 
0.0 0.0 0.0 
-6.295526974580e-04 -4.281701149417e-04 0.0 
-4.281701149417e-04 4.450411827996e-03 0.0 
0.0 0.0 0.0 
-4.818291017087e-04 -5.168079593827e-04 0.0 
-5.168079593827e-04 4.462801577879e-03 0.0 
0.0 0.0 0.0 
-1.641242451799e-03 5.145961510995e-04 0.0 
5.145961510995e-04 1.671796485527e-02 0.0 
0.0 0.0 0.0 
6.633639018028e-05 -8.403634814557e-04 0.0 
-8.403634814557e-04 1.278895607612e-03 0.0 
0.0 0.0 0.0 
-6.770167613408e-04 -1.203366003615e-03 0.0 
-1.203366003615e-03 3.100561249777e-03 0.0 
0.0 0.0 0.0 
2.147203155158e-03 3.345856030176e-03 0.0 
3.345856030176e-03 3.238475232255e-03 0.0 
0.0 0.0 0.0 
-1.786447839240e-03 7.078233629616e-04 0.0 
7.078233629616e-04 1.682457107787e-02 0.0 
0.0 0.0 0.0 
-7.148522963024e-04 -1.288675852105e-03 0.0 
-1.288675852105e-03 2.881969117642e-03 0.0 
0.0 0.0 0.0 
4.671254198871e-04 -1.412541529794e-03 0.0 
-1.412541529794e-03 2.197915030735e-03 0.0 
0.0 0.0 0.0 
6.305298139939e-04 -3.963217215143e-04 0.0 
-3.963217215143e-04 3.634154338977e-03 0.0 
0.0 0.0 0.0 
-1.812801511176e-03 5.489859832468e-04 0.0 
5.489859832468e-04 1.657551485333e-02 0.0 
0.0 0.0 0.0 
1.758033714977e-03 -8.541182280841e-04 0.0 
-8.541182280841e-04 -4.527003925302e-03 0.0 
0.0 0.0 0.0 
4.082326784725e-04 -7.364259970455e-04 0.0 
-7.364259970455e-04 6.150902136943e-04 0.0 
0.0 0.0 0.0 
3.845399942648e-03 2.542214038404e-04 0.0 
2.542214038404e-04 -4.066161588936e-03 0.0 
0.0 0.0 0.0 
-2.995535658922e-04 -4.211556232680e-04 0.0 
-4.211556232680e-04 4.809793874640e-03 0.0 
0.0 0.0 0.0 
-1.970705609571e-03 5.613055863184e-04 0.0 
5.613055863184e-04 1.642172821643e-02 0.0 
0.0 0.0 0.0 
-9.466689446161e-04 -4.498941801039e-04 0.0 
-4.498941801039e-04 3.876259063932e-03 0.0 
0.0 0.0 0.0 
-2.189283166183e-03 3.689922632926e-04 0.0 
3.689922632926e-04 1.592064961339e-02 0.0 
0.0 0.0 0.0 
1.654098940641e-03 1.549178697667e-04 0.0 
1.549178697667e-04 2.186776381915e-03 0.0 
0.0 0.0 0.0 
-6.159880996247e-04 -1.085209969843e-03 0.0 
-1.085209969843e-03 3.333651771154e-03 0.0 
0.0 0.0 0.0 
-3.399665720272e-04 -5.323441678277e-04 0.0 
-5.323441678277e-04 4.464349152632e-03 0.0 
0.0 0.0 0.0 
-2.061110921273e-04 -5.946701929110e-04 0.0 
-5.946701929110e-04 1.765100434930e-03 0.0 
0.0 0.0 0.0 
2.207863642947e-04 -4.397218483953e-04 0.0 
-4.397218483953e-04 4.525468113542e-03 0.0 
0.0 0.0 0.0 
-6.243753231256e-04 -1.221861027569e-03 0.0 
-1.221861027569e-03 2.948878460327e-03 0.0 
0.0 0.0 0.0 
-3.780843129043e-04 -4.456994139837e-04 0.0 
-4.456994139837e-04 2.020131173258e-03 0.0 
0.0 0.0 0.0 
-8.139881396755e-04 -1.045003460891e-03 0.0 
-1.045003460891e-03 3.075598236324e-03 0.0 
0.0 0.0 0.0 
-5.262906902815e-04 -1.594911207730e-03 0.0 
-1.594911207730e-03 2.324268713650e-03 0.0 
0.0 0.0 0.0 
-1.179722404976e-04 -1.775822244612e-03 0.0 
-1.775822244612e-03 1.425391561801e-03 0.0 
0.0 0.0 0.0 
-8.355694613960e-04 -5.750708252213e-04 0.0 
-5.750708252213e-04 3.899431017873e-03 0.0 
0.0 0.0 0.0 
1.105769358823e-03 -1.470168970921e-04 0.0 
-1.470168970921e-04 -3.375467206248e-04 0.0 
0.0 0.0 0.0 
6.761684309100e-04 -2.075192778663e-04 0.0 
-2.075192778663e-04 -1.602214757604e-04 0.0 
0.0 0.0 0.0 
-4.435650470346e-04 -8.137249200710e-04 0.0 
-8.137249200710e-04 3.780912391012e-03 0.0 
0.0 0.0 0.0 
-2.671199242732e-05 -7.103467327431e-04 0.0 
-7.103467327431e-04 1.516068405826e-03 0.0 
0.0 0.0 0.0 
-4.874233495944e-05 -1.033069750652e-03 0.0 
-1.033069750652e-03 3.260251762674e-03 0.0 
0.0 0.0 0.0 
1.855165560716e-04 -1.224034296149e-03 0.0 
-1.224034296149e-03 2.754382147664e-03 0.0 
0.0 0.0 0.0 
3.474307760576e-04 -2.188717847195e-03 0.0 
-2.188717847195e-03 1.408745699625e-03 0.0 
0.0 0.0 0.0 
1.949468293456e-03 -3.017164404593e-03 0.0 
-3.017164404593e-03 -9.550033134023e-04 0.0 
0.0 0.0 0.0 
-1.701432336436e-03 1.218533151460e-03 0.0 
1.218533151460e-03 1.693646012993e-02 0.0 
0.0 0.0 0.0 
1.606371952086e-03 3.307626331113e-03 0.0 
3.307626331113e-03 -3.043646036162e-03 0.0 
0.0 0.0 0.0 
-7.178001061038e-04 -1.340949206510e-03 0.0 
-1.340949206510e-03 2.643065355485e-03 0.0 
0.0 0.0 0.0 
1.588680753247e-03 5.772902627180e-04 0.0 
5.772902627180e-04 2.440500075705e-03 0.0 
0.0 0.0 0.0 
-2.655423084330e-05 -6.820736054830e-04 0.0 
-6.820736054830e-04 1.384869214881e-03 0.0 
0.0 0.0 0.0 
-2.263429430900e-03 3.960339638844e-04 0.0 
3.960339638844e-04 1.610568440050e-02 0.0 
0.0 0.0 0.0 
-2.289554289657e-03 2.318663870309e-04 0.0 
2.318663870309e-04 1.573549771817e-02 0.0 
0.0 0.0 0.0 
7.697552050279e-05 -1.450158807724e-03 0.0 
-1.450158807724e-03 9.776548410263e-04 0.0 
0.0 0.0 0.0 
9.183063351348e-04 -3.407801578793e-04 0.0 
-3.407801578793e-04 3.084892902240e-03 0.0 
0.0 0.0 0.0 
-2.236692783522e-03 1.056718566620e-03 0.0 
1.056718566620e-03 1.661719695253e-02 0.0 
0.0 0.0 0.0 
-2.506866377762e-04 -9.869936767436e-04 0.0 
-9.869936767436e-04 1.573940606332e-03 0.0 
0.0 0.0 0.0 
-1.631609938667e-03 1.519653141739e-03 0.0 
1.519653141739e-03 1.693719038956e-02 0.0 
0.0 0.0 0.0 
-1.348922804645e-03 1.486612933997e-03 0.0 
1.486612933997e-03 1.694062552366e-02 0.0 
0.0 0.0 0.0 
-1.794854114205e-04 -1.066624554454e-03 0.0 
-1.066624554454e-03 1.595628550272e-03 0.0 
0.0 0.0 0.0 
1.093605478089e-04 4.082027998191e-03 0.0 
4.082027998191e-03 3.521520225341e-03 0.0 
0.0 0.0 0.0 
-5.170121257181e-05 -1.604022805088e-03 0.0 
-1.604022805088e-03 1.293821271145e-03 0.0 
0.0 0.0 0.0 
-3.773720261282e-04 -6.784622870527e-04 0.0 
-6.784622870527e-04 4.117151158633e-03 0.0 
0.0 0.0 0.0 
-7.466824386684e-04 -8.246622337422e-04 0.0 
-8.246622337422e-04 3.641168774303e-03 0.0 
0.0 0.0 0.0 
-1.294901330250e-03 3.818434075376e-03 0.0 
3.818434075376e-03 1.432516969730e-02 0.0 
0.0 0.0 0.0 
-1.455631529897e-03 1.182156469200e-03 0.0 
1.182156469200e-03 1.693988364433e-02 0.0 
0.0 0.0 0.0 
-2.360507858147e-04 -8.494696466053e-04 0.0 
-8.494696466053e-04 3.714908439362e-03 0.0 
0.0 0.0 0.0 
-2.406721720083e-05 -8.594528135883e-04 0.0 
-8.594528135883e-04 3.715194697527e-03 0.0 
0.0 0.0 0.0 
-1.527008501852e-04 -1.553021303934e-03 0.0 
-1.553021303934e-03 1.160972556914e-03 0.0 
0.0 0.0 0.0 
-2.149693827577e-04 -6.958922677667e-04 0.0 
-6.958922677667e-04 4.118867844133e-03 0.0 
0.0 0.0 0.0 
-1.965007547512e-03 1.006671369189e-03 0.0 
1.006671369189e-03 1.662211481650e-02 0.0 
0.0 0.0 0.0 
-8.730178793959e-04 -6.965531563258e-04 0.0 
-6.965531563258e-04 3.622081128767e-03 0.0 
0.0 0.0 0.0 
-2.172206411524e-03 5.700570543036e-04 0.0 
5.700570543036e-04 1.642139196502e-02 0.0 
0.0 0.0 0.0 
-2.000911845795e-03 1.006823601447e-03 0.0 
1.006823601447e-03 1.676434680876e-02 0.0 
0.0 0.0 0.0 
4.827892065121e-03 2.530952067277e-03 0.0 
2.530952067277e-03 -2.224342772934e-03 0.0 
0.0 0.0 0.0 
-1.530631544733e-03 9.277349844295e-04 0.0 
9.277349844295e-04 1.690217064528e-02 0.0 
0.0 0.0 0.0 
-8.689281710621e-04 -1.027028443721e-03 0.0 
-1.027028443721e-03 3.191824318671e-03 0.0 
0.0 0.0 0.0 
-7.726936751282e-04 -9.547383379331e-04 0.0 
-9.547383379331e-04 3.314106491503e-03 0.0 
0.0 0.0 0.0 
-6.942823738179e-04 -1.348643399881e-03 0.0 
-1.348643399881e-03 2.443849853206e-03 0.0 
0.0 0.0 0.0 
7.470942151053e-04 -2.513211690896e-03 0.0 
-2.513211690896e-03 4.486321911974e-04 0.0 
0.0 0.0 0.0 
-1.972550884877e-03 7.608952269685e-04 0.0 
7.608952269685e-04 1.653999778704e-02 0.0 
0.0 0.0 0.0 
1.664407805489e-03 -2.048112619743e-03 0.0 
-2.048112619743e-03 -6.751653072679e-05 0.0 
0.0 0.0 0.0 
-2.061613788200e-04 -1.424771828861e-03 0.0 
-1.424771828861e-03 1.566557904569e-03 0.0 
0.0 0.0 0.0 
1.287231335070e-04 -1.057471928427e-03 0.0 
-1.057471928427e-03 8.482094626141e-04 0.0 
0.0 0.0 0.0 
-2.212048770821e-03 7.909476935093e-04 0.0 
7.909476935093e-04 1.653730595342e-02 0.0 
0.0 0.0 0.0 
-2.712726687123e-04 -1.658055621868e-03 0.0 
-1.658055621868e-03 1.603089562227e-03 0.0 
0.0 0.0 0.0 
5.202553840968e-04 -3.232453732773e-04 0.0 
-3.232453732773e-04 4.104992679417e-03 0.0 
0.0 0.0 0.0 
-1.786330286564e-03 7.419426758982e-04 0.0 
7.419426758982e-04 1.668792409349e-02 0.0 
0.0 0.0 0.0 
-7.261225429711e-06 -6.832069227583e-04 0.0 
-6.832069227583e-04 4.086443757636e-03 0.0 
0.0 0.0 0.0 
6.963722524123e-04 1.656923863668e-03 0.0 
1.656923863668e-03 3.755808644316e-03 0.0 
0.0 0.0 0.0 
-8.178030527786e-04 -1.107199512761e-03 0.0 
-1.107199512761e-03 2.845060282483e-03 0.0 
0.0 0.0 0.0 
-3.255007679420e-04 -1.316388497789e-03 0.0 
-1.316388497789e-03 1.635047025237e-03 0.0 
0.0 0.0 0.0 
-1.483818080251e-04 -1.214430593732e-03 0.0 
-1.214430593732e-03 9.779643051915e-04 0.0 
0.0 0.0 0.0 
2.036259790870e-04 -9.973957551198e-04 0.0 
-9.973957551198e-04 3.150062373452e-03 0.0 
0.0 0.0 0.0 
-1.968793516512e-03 4.063136699417e-04 0.0 
4.063136699417e-04 1.627921251257e-02 0.0 
0.0 0.0 0.0 
3.952017431641e-05 -9.180077818956e-04 0.0 
-9.180077818956e-04 6.649184388376e-04 0.0 
0.0 0.0 0.0 
-3.977056173977e-04 -1.634978097820e-03 0.0 
-1.634978097820e-03 1.932592565275e-03 0.0 
0.0 0.0 0.0 
4.326967372204e-05 -3.214931243861e-04 0.0 
-3.214931243861e-04 1.558144968756e-03 0.0 
0.0 0.0 0.0 
-2.335824120809e-03 5.813497094211e-04 0.0 
5.813497094211e-04 1.625436536677e-02 0.0 
0.0 0.0 0.0 
-6.144514421232e-04 -1.391427197842e-03 0.0 
-1.391427197842e-03 2.293647936207e-03 0.0 
0.0 0.0 0.0 
4.878703860247e-04 -1.209118531679e-03 0.0 
-1.209118531679e-03 2.750122608324e-03 0.0 
0.0 0.0 0.0 
-7.226937044420e-04 -1.098972949524e-03 0.0 
-1.098972949524e-03 2.417877678332e-03 0.0 
0.0 0.0 0.0 
-1.561457587409e-03 6.446278932889e-04 0.0 
6.446278932889e-04 1.694866569196e-02 0.0 
0.0 0.0 0.0 
-2.993674015674e-04 -1.782315507081e-03 0.0 
-1.782315507081e-03 1.792486348005e-03 0.0 
0.0 0.0 0.0 
7.107912340099e-04 -1.012155159254e-03 0.0 
-1.012155159254e-03 2.515232820253e-03 0.0 
0.0 0.0 0.0 
3.534671631644e-04 -2.522001802751e-03 0.0 
-2.522001802751e-03 3.731004334637e-04 0.0 
0.0 0.0 0.0 
4.660107348093e-04 -1.153211775707e-03 0.0 
-1.153211775707e-03 2.611974313254e-03 0.0 
0.0 0.0 0.0 
-9.375624616584e-04 -7.696273324962e-04 0.0 
-7.696273324962e-04 3.390630618602e-03 0.0 
0.0 0.0 0.0 
2.141124180297e-04 -8.228649318186e-04 0.0 
-8.228649318186e-04 3.638847841577e-03 0.0 
0.0 0.0 0.0 
5.015145967783e-03 -3.440207201410e-04 0.0 
-3.440207201410e-04 -3.636615013498e-03 0.0 
0.0 0.0 0.0 
-1.709320648833e-04 -6.006722851109e-04 0.0 
-6.006722851109e-04 1.632020796727e-03 0.0 
0.0 0.0 0.0 
-2.201403624983e-03 2.538601077493e-04 0.0 
2.538601077493e-04 1.593906549217e-02 0.0 
0.0 0.0 0.0 
3.187740292010e-03 -1.541380640762e-04 0.0 
-1.541380640762e-04 -5.144430083356e-04 0.0 
0.0 0.0 0.0 
1.113713059644e-03 4.501265239650e-03 0.0 
4.501265239650e-03 3.352876961853e-03 0.0 
0.0 0.0 0.0 
-2.130984625582e-03 3.927325474624e-04 0.0 
3.927325474624e-04 1.627969996100e-02 0.0 
0.0 0.0 0.0 
7.950453705907e-04 -2.886609086772e-03 0.0 
-2.886609086772e-03 -2.126114075744e-04 0.0 
0.0 0.0 0.0 
-2.356759158679e-03 1.045676647404e-03 0.0 
1.045676647404e-03 1.628545518577e-02 0.0 
0.0 0.0 0.0 
2.027643747531e-04 -4.432777772670e-04 0.0 
-4.432777772670e-04 1.286552918881e-03 0.0 
0.0 0.0 0.0 
5.243633375132e-04 -5.648740663863e-04 0.0 
-5.648740663863e-04 3.577434553131e-03 0.0 
0.0 0.0 0.0 
3.222346963903e-03 4.388530854890e-04 0.0 
4.388530854890e-04 -1.366025736514e-04 0.0 
0.0 0.0 0.0 
3.000701136367e-03 2.674576440620e-03 0.0 
2.674576440620e-03 1.582765008402e-03 0.0 
0.0 0.0 0.0 
-1.316950829587e-03 1.424141200934e-03 0.0 
1.424141200934e-03 1.706075900286e-02 0.0 
0.0 0.0 0.0 
1.604449870257e-03 -1.817175902151e-03 0.0 
-1.817175902151e-03 2.851744527561e-04 0.0 
0.0 0.0 0.0 
-1.617635230559e-04 -1.087161529103e-03 0.0 
-1.087161529103e-03 1.335430322176e-03 0.0 
0.0 0.0 0.0 
1.125745771442e-03 -1.441239717566e-03 0.0 
-1.441239717566e-03 1.398340077153e-03 0.0 
0.0 0.0 0.0 
7.714045463114e-04 -2.751495257944e-04 0.0 
-2.751495257944e-04 3.614543895985e-03 0.0 
0.0 0.0 0.0 
1.724409175974e-03 -2.898259843422e-03 0.0 
-2.898259843422e-03 -1.063259490786e-03 0.0 
0.0 0.0 0.0 
-2.151651052940e-05 -8.449140381205e-04 0.0 
-8.449140381205e-04 3.643577154819e-03 0.0 
0.0 0.0 0.0 
-2.004071935381e-03 7.553950922553e-04 0.0 
7.553950922553e-04 1.668709540501e-02 0.0 
0.0 0.0 0.0 
2.405472025060e-03 -3.067418480606e-03 0.0 
-3.067418480606e-03 -1.543564074929e-03 0.0 
0.0 0.0 0.0 
7.717144502342e-04 -1.304399206489e-03 0.0 
-1.304399206489e-03 2.027810984361e-03 0.0 
0.0 0.0 0.0 
-2.596964203841e-03 5.817022089176e-04 0.0 
5.817022089176e-04 1.588071439638e-02 0.0 
0.0 0.0 0.0 
-5.254829709875e-04 -7.314551815812e-04 0.0 
-7.314551815812e-04 2.142541531827e-03 0.0 
0.0 0.0 0.0 
-1.626481922796e-04 -1.869221407597e-03 0.0 
-1.869221407597e-03 1.558964690014e-03 0.0 
0.0 0.0 0.0 
1.551384284965e-03 4.500456081194e-03 0.0 
4.500456081194e-03 3.665180891422e-03 0.0 
0.0 0.0 0.0 
4.752938179757e-04 -9.648646874066e-04 0.0 
-9.648646874066e-04 3.143448363926e-03 0.0 
0.0 0.0 0.0 
-2.122708676755e-05 4.409907858770e-03 0.0 
4.409907858770e-03 5.228074129193e-03 0.0 
0.0 0.0 0.0 
1.997983711313e-03 4.288930400088e-03 0.0 
4.288930400088e-03 2.628260623082e-03 0.0 
0.0 0.0 0.0 
-2.167551622057e-03 1.027146697571e-03 0.0 
1.027146697571e-03 1.646050063122e-02 0.0 
0.0 0.0 0.0 
-2.084794990757e-03 3.957834210877e-04 0.0 
3.957834210877e-04 1.610511215552e-02 0.0 
0.0 0.0 0.0 
-2.453495257922e-03 7.432618394020e-04 0.0 
7.432618394020e-04 1.603584324507e-02 0.0 
0.0 0.0 0.0 
-8.166967796812e-04 -9.353467032666e-04 0.0 
-9.353467032666e-04 3.425410194059e-03 0.0 
0.0 0.0 0.0 
1.252466313392e-03 -2.926186853024e-04 0.0 
-2.926186853024e-04 2.540253115901e-03 0.0 
0.0 0.0 0.0 
1.528531181410e-03 -1.544834104282e-03 0.0 
-1.544834104282e-03 7.324914714442e-04 0.0 
0.0 0.0 0.0 
-2.383401143581e-03 3.887346400860e-04 0.0 
3.887346400860e-04 1.591902657493e-02 0.0 
0.0 0.0 0.0 
-9.575664588265e-04 4.605334315431e-03 0.0 
4.605334315431e-03 1.255506861257e-02 0.0 
0.0 0.0 0.0 
2.595211881582e-03 3.057633371471e-03 0.0 
3.057633371471e-03 2.467314599059e-03 0.0 
0.0 0.0 0.0 
7.780886663402e-04 -1.103228795847e-03 0.0 
-1.103228795847e-03 2.602427987679e-03 0.0 
0.0 0.0 0.0 
-1.751471445405e-03 9.737380289833e-04 0.0 
9.737380289833e-04 1.676736336794e-02 0.0 
0.0 0.0 0.0 
4.116822206894e-04 -2.307647677226e-03 0.0 
-2.307647677226e-03 9.261659030619e-04 0.0 
0.0 0.0 0.0 
8.680206911182e-05 -2.125125141399e-03 0.0 
-2.125125141399e-03 1.276897146766e-03 0.0 
0.0 0.0 0.0 
6.724476298436e-05 -1.337698926518e-03 0.0 
-1.337698926518e-03 1.126553866373e-03 0.0 
0.0 0.0 0.0 
1.432141033469e-03 -1.207178331664e-03 0.0 
-1.207178331664e-03 1.264212816661e-03 0.0 
0.0 0.0 0.0 
-1.884190953416e-04 -1.886421055645e-03 0.0 
-1.886421055645e-03 1.697039210625e-03 0.0 
0.0 0.0 0.0 
-2.408388875483e-03 8.161803729256e-04 0.0 
8.161803729256e-04 1.637628230451e-02 0.0 
0.0 0.0 0.0 
-2.592729035732e-03 8.389137086794e-04 0.0 
8.389137086794e-04 1.620339895380e-02 0.0 
0.0 0.0 0.0 
5.009270799118e-03 1.399196300274e-03 0.0 
1.399196300274e-03 -2.417335353740e-03 0.0 
0.0 0.0 0.0 
1.993148792292e-04 -2.242103018553e-03 0.0 
-2.242103018553e-03 1.200734259589e-03 0.0 
0.0 0.0 0.0 
4.864115526879e-03 2.115418153411e-03 0.0 
2.115418153411e-03 -3.358951483120e-03 0.0 
0.0 0.0 0.0 
-5.624507060731e-05 -2.049695464202e-03 0.0 
-2.049695464202e-03 1.586287231151e-03 0.0 
0.0 0.0 0.0 
2.777194253551e-04 -2.256275579927e-03 0.0 
-2.256275579927e-03 1.295990155194e-03 0.0 
0.0 0.0 0.0 
-2.155365755809e-04 -1.455722184778e-03 0.0 
-1.455722184778e-03 1.390412366970e-03 0.0 
0.0 0.0 0.0 
1.620486217960e-03 -2.162872847070e-04 0.0 
-2.162872847070e-04 1.971648329224e-03 0.0 
0.0 0.0 0.0 
1.643181966003e-03 -2.317669432169e-03 0.0 
-2.317669432169e-03 8.711538993000e-05 0.0 
0.0 0.0 0.0 
-1.754250301844e-03 9.429836163899e-04 0.0 
9.429836163899e-04 1.690115068681e-02 0.0 
0.0 0.0 0.0 
2.117872643600e-03 -2.128712380614e-03 0.0 
-2.128712380614e-03 -3.298025120292e-04 0.0 
0.0 0.0 0.0 
1.522371092896e-03 -1.328645911973e-03 0.0 
-1.328645911973e-03 1.378856493911e-03 0.0 
0.0 0.0 0.0 
1.600825252024e-03 -1.879965989028e-03 0.0 
-1.879965989028e-03 5.619685296221e-04 0.0 
0.0 0.0 0.0 
3.111486310923e-03 3.832980017736e-03 0.0 
3.832980017736e-03 8.473480272082e-04 0.0 
0.0 0.0 0.0 
-4.793079794407e-05 -1.212182454886e-03 0.0 
-1.212182454886e-03 1.349045082275e-03 0.0 
0.0 0.0 0.0 
1.106718639728e-03 -2.212323084198e-04 0.0 
-2.212323084198e-04 3.061198924388e-03 0.0 
0.0 0.0 0.0 
9.632464561009e-04 -1.095853804883e-04 0.0 
-1.095853804883e-04 3.282289896908e-03 0.0 
0.0 0.0 0.0 
1.053024493694e-03 4.679484159563e-03 0.0 
4.679484159563e-03 5.413490142259e-03 0.0 
0.0 0.0 0.0 
6.907763221538e-04 -2.385495090943e-03 0.0 
-2.385495090943e-03 9.365181775502e-04 0.0 
0.0 0.0 0.0 
1.560586645191e-03 -1.627089431127e-03 0.0 
-1.627089431127e-03 9.359880710593e-04 0.0 
0.0 0.0 0.0 
-2.147726192210e-03 7.662071817769e-04 0.0 
7.662071817769e-04 1.638120015337e-02 0.0 
0.0 0.0 0.0 
9.621708419161e-05 -2.079120635899e-03 0.0 
-2.079120635899e-03 1.393424838515e-03 0.0 
0.0 0.0 0.0 
1.633516604787e-03 4.226042191116e-03 0.0 
4.226042191116e-03 2.434539195991e-03 0.0 
0.0 0.0 0.0 
-3.245058215713e-04 -1.565287180737e-03 0.0 
-1.565287180737e-03 1.759132068984e-03 0.0 
0.0 0.0 0.0 
1.418399115870e-03 -3.088581413629e-03 0.0 
-3.088581413629e-03 -9.408288637981e-04 0.0 
0.0 0.0 0.0 
8.028376812910e-04 -2.401818305902e-03 0.0 
-2.401818305902e-03 5.188272706549e-04 0.0 
0.0 0.0 0.0 
-4.387937535127e-04 -1.479875200865e-03 0.0 
-1.479875200865e-03 1.901000023643e-03 0.0 
0.0 0.0 0.0 
-3.468228280172e-04 -9.015742524974e-04 0.0 
-9.015742524974e-04 1.868574285573e-03 0.0 
0.0 0.0 0.0 
1.216226495141e-03 -1.971123329582e-03 0.0 
-1.971123329582e-03 5.782011410369e-04 0.0 
0.0 0.0 0.0 
1.132079070895e-03 -1.226271795441e-03 0.0 
-1.226271795441e-03 2.013716802119e-03 0.0 
0.0 0.0 0.0 
6.456534602404e-04 4.701366523246e-03 0.0 
4.701366523246e-03 7.364654045852e-03 0.0 
0.0 0.0 0.0 
1.330265118573e-03 -2.024016337457e-04 0.0 
-2.024016337457e-04 -4.215860071050e-04 0.0 
0.0 0.0 0.0 
3.573355131875e-03 -1.577474405444e-03 0.0 
-1.577474405444e-03 -1.789513913141e-03 0.0 
0.0 0.0 0.0 
2.564110425851e-03 -2.073545637586e-03 0.0 
-2.073545637586e-03 -8.801743492902e-04 0.0 
0.0 0.0 0.0 
1.162031803357e-03 -2.408293498236e-03 0.0 
-2.408293498236e-03 5.178908463996e-04 0.0 
0.0 0.0 0.0 
-2.308463992509e-03 7.583984151324e-04 0.0 
7.583984151324e-04 1.621169670088e-02 0.0 
0.0 0.0 0.0 
1.641645755922e-03 -2.105924700756e-03 0.0 
-2.105924700756e-03 2.736803217080e-04 0.0 
0.0 0.0 0.0 
-5.036958026658e-04 -1.570453688160e-03 0.0 
-1.570453688160e-03 2.125321578884e-03 0.0 
0.0 0.0 0.0 
1.234638016959e-03 -2.387302795542e-03 0.0 
-2.387302795542e-03 1.001872337989e-04 0.0 
0.0 0.0 0.0 
-1.591257158667e-03 7.055497641873e-04 0.0 
7.055497641873e-04 1.682417830365e-02 0.0 
0.0 0.0 0.0 
-5.264561183450e-04 -1.348092668929e-03 0.0 
-1.348092668929e-03 2.090957533759e-03 0.0 
0.0 0.0 0.0 
1.075431865287e-04 -8.939644127535e-04 0.0 
-8.939644127535e-04 7.924846203913e-04 0.0 
0.0 0.0 0.0 
-1.152598653699e-04 -1.150213173733e-03 0.0 
-1.150213173733e-03 1.122099303315e-03 0.0 
0.0 0.0 0.0 
1.516105684884e-03 -2.833153621582e-03 0.0 
-2.833153621582e-03 -4.039209673484e-04 0.0 
0.0 0.0 0.0 
5.919396302558e-04 -2.438004838880e-03 0.0 
-2.438004838880e-03 8.603979980131e-04 0.0 
0.0 0.0 0.0 
3.016474145358e-03 -1.707682553820e-03 0.0 
-1.707682553820e-03 -1.243913794882e-03 0.0 
0.0 0.0 0.0 
1.685065974705e-03 -2.271534786964e-03 0.0 
-2.271534786964e-03 -3.034813115597e-04 0.0 
0.0 0.0 0.0 
4.206539083778e-04 -2.677177676994e-03 0.0 
-2.677177676994e-03 1.014110574391e-04 0.0 
0.0 0.0 0.0 
1.898883734091e-04 -9.015809682936e-04 0.0 
-9.015809682936e-04 1.083930172418e-03 0.0 
0.0 0.0 0.0 
-3.084084390466e-03 1.286066972091e-03 0.0 
1.286066972091e-03 1.587893840041e-02 0.0 
0.0 0.0 0.0 
-3.877021139405e-04 -1.238988487479e-03 0.0 
-1.238988487479e-03 1.864000156207e-03 0.0 
0.0 0.0 0.0 
1.814718311495e-03 -3.843693988894e-04 0.0 
-3.843693988894e-04 1.836933909549e-03 0.0 
0.0 0.0 0.0 
9.871388178497e-04 4.589759564360e-03 0.0 
4.589759564360e-03 6.333414400626e-03 0.0 
0.0 0.0 0.0 
-2.381106058276e-03 3.787339665769e-03 0.0 
3.787339665769e-03 1.280218719651e-02 0.0 
0.0 0.0 0.0 
-1.779068749217e-03 1.995033089316e-03 0.0 
1.995033089316e-03 1.650573836503e-02 0.0 
0.0 0.0 0.0 
3.702089152025e-04 4.791816717379e-03 0.0 
4.791816717379e-03 8.348519423790e-03 0.0 
0.0 0.0 0.0 
4.939695767503e-03 2.006528127152e-03 0.0 
2.006528127152e-03 -2.146430553245e-03 0.0 
0.0 0.0 0.0 
1.049498930179e-03 4.604172324311e-03 0.0 
4.604172324311e-03 5.851557239681e-03 0.0 
0.0 0.0 0.0 
1.003774052490e-03 -3.175683071395e-03 0.0 
-3.175683071395e-03 -6.687266604349e-04 0.0 
0.0 0.0 0.0 
8.314135831677e-04 -2.233599524009e-03 0.0 
-2.233599524009e-03 6.647765690144e-04 0.0 
0.0 0.0 0.0 
3.928278892120e-03 3.549012837461e-03 0.0 
3.549012837461e-03 -1.149360072221e-03 0.0 
0.0 0.0 0.0 
3.690228775983e-03 -2.302211044914e-03 0.0 
-2.302211044914e-03 -2.990860472708e-03 0.0 
0.0 0.0 0.0 
4.418698832105e-04 -2.991930985627e-03 0.0 
-2.991930985627e-03 -2.234382579661e-04 0.0 
0.0 0.0 0.0 
-1.189943036284e-05 -2.045458076795e-03 0.0 
-2.045458076795e-03 1.720308909369e-03 0.0 
0.0 0.0 0.0 
2.118985685036e-03 -2.299747049043e-03 0.0 
-2.299747049043e-03 -8.378683469710e-04 0.0 
0.0 0.0 0.0 
2.574846808633e-03 -2.012028680287e-03 0.0 
-2.012028680287e-03 -1.192374287691e-03 0.0 
0.0 0.0 0.0 
-6.088843193073e-04 -1.287455425958e-03 0.0 
-1.287455425958e-03 2.194714373275e-03 0.0 
0.0 0.0 0.0 
2.080415992724e-03 -1.902676662939e-03 0.0 
-1.902676662939e-03 -9.218383526377e-05 0.0 
0.0 0.0 0.0 
3.010246250479e-03 -1.877688868561e-03 0.0 
-1.877688868561e-03 -1.733380437275e-03 0.0 
0.0 0.0 0.0 
4.076114671866e-03 -1.077039910839e-03 0.0 
-1.077039910839e-03 -2.147912083409e-03 0.0 
0.0 0.0 0.0 
3.709172087505e-04 -2.342706850928e-03 0.0 
-2.342706850928e-03 8.474524416890e-04 0.0 
0.0 0.0 0.0 
3.441258497410e-03 1.329997909124e-03 0.0 
1.329997909124e-03 9.200805301468e-05 0.0 
0.0 0.0 0.0 
-2.460563867437e-03 1.106621603610e-03 0.0 
1.106621603610e-03 1.645229962614e-02 0.0 
0.0 0.0 0.0 
4.673413418079e-03 -6.806314462277e-04 0.0 
-6.806314462277e-04 -2.803207940057e-03 0.0 
0.0 0.0 0.0 
1.487994999149e-03 -1.284012520432e-04 0.0 
-1.284012520432e-04 2.514030985706e-03 0.0 
0.0 0.0 0.0 
1.817770676719e-03 -3.301905258587e-03 0.0 
-3.301905258587e-03 -1.505100953783e-03 0.0 
0.0 0.0 0.0 
1.410776805189e-03 5.600928885836e-04 0.0 
5.600928885836e-04 2.971356896668e-03 0.0 
0.0 0.0 0.0 
2.571631383101e-03 -1.848942105958e-03 0.0 
-1.848942105958e-03 -7.077609106244e-04 0.0 
0.0 0.0 0.0 
2.034273644302e-04 4.983630606071e-03 0.0 
4.983630606071e-03 9.330761202201e-03 0.0 
0.0 0.0 0.0 
-5.544645027465e-04 4.703087482509e-03 0.0 
4.703087482509e-03 8.741335902167e-03 0.0 
0.0 0.0 0.0 
1.109549342416e-03 -2.939759434230e-03 0.0 
-2.939759434230e-03 -2.063078524546e-04 0.0 
0.0 0.0 0.0 
-1.965203458182e-03 4.071655673391e-03 0.0 
4.071655673391e-03 1.209962119751e-02 0.0 
0.0 0.0 0.0 
-1.679642254657e-03 2.907559570497e-03 0.0 
2.907559570497e-03 1.570721113155e-02 0.0 
0.0 0.0 0.0 
2.995726693039e-03 -1.487734479571e-03 0.0 
-1.487734479571e-03 -1.028445485616e-03 0.0 
0.0 0.0 0.0 
2.585507060548e-03 3.938605809031e-03 0.0 
3.938605809031e-03 5.209334142746e-04 0.0 
0.0 0.0 0.0 
-1.533751514326e-03 4.296728678411e-03 0.0 
4.296728678411e-03 1.137295559748e-02 0.0 
0.0 0.0 0.0 
1.287104808646e-03 4.556757689218e-03 0.0 
4.556757689218e-03 3.455278343678e-03 0.0 
0.0 0.0 0.0 
4.934320725534e-04 -2.828633645742e-03 0.0 
-2.828633645742e-03 1.256362111570e-04 0.0 
0.0 0.0 0.0 
-8.699749485944e-04 2.543486084777e-03 0.0 
2.543486084777e-03 1.657850739592e-02 0.0 
0.0 0.0 0.0 
-5.049297101167e-05 -2.343083645221e-03 0.0 
-2.343083645221e-03 6.053056259674e-04 0.0 
0.0 0.0 0.0 
1.851317386061e-03 2.584580911182e-03 0.0 
2.584580911182e-03 3.285926617432e-03 0.0 
0.0 0.0 0.0 
-1.205352860332e-03 1.103379917274e-03 0.0 
1.103379917274e-03 1.706333167075e-02 0.0 
0.0 0.0 0.0 
3.139804399136e-03 9.978342373633e-04 0.0 
9.978342373633e-04 3.721853930847e-04 0.0 
0.0 0.0 0.0 
-2.249789293751e-03 5.410796751422e-04 0.0 
5.410796751422e-04 1.607529196924e-02 0.0 
0.0 0.0 0.0 
-2.184750046947e-03 1.720860179660e-03 0.0 
1.720860179660e-03 1.660557623588e-02 0.0 
0.0 0.0 0.0 
3.510674569291e-03 -1.441366093156e-03 0.0 
-1.441366093156e-03 -2.084985797872e-03 0.0 
0.0 0.0 0.0 
4.728925588741e-03 1.481887048628e-03 0.0 
1.481887048628e-03 -1.960436206639e-03 0.0 
0.0 0.0 0.0 
-1.368252923564e-03 2.261277990287e-03 0.0 
2.261277990287e-03 1.655467748750e-02 0.0 
0.0 0.0 0.0 
1.041133198897e-03 -9.229866301775e-04 0.0 
-9.229866301775e-04 2.499345127731e-03 0.0 
0.0 0.0 0.0 
-2.476712438526e-03 1.446537776121e-03 0.0 
1.446537776121e-03 1.646677676345e-02 0.0 
0.0 0.0 0.0 
3.124493879475e-03 -2.540703009264e-05 0.0 
-2.540703009264e-05 8.858694549030e-07 0.0 
0.0 0.0 0.0 
1.491730731275e-03 -3.154211359052e-03 0.0 
-3.154211359052e-03 -6.751255087964e-04 0.0 
0.0 0.0 0.0 
-2.440471129363e-03 1.828083830771e-03 0.0 
1.828083830771e-03 1.640552913425e-02 0.0 
0.0 0.0 0.0 
5.667875248816e-04 5.085841497259e-03 0.0 
5.085841497259e-03 7.963695389826e-03 0.0 
0.0 0.0 0.0 
1.086556531074e-03 6.516505891197e-05 0.0 
6.516505891197e-05 3.241982344865e-03 0.0 
0.0 0.0 0.0 
1.197197736342e-03 -2.223148962493e-03 0.0 
-2.223148962493e-03 6.610584077504e-04 0.0 
0.0 0.0 0.0 
-2.481049160001e-03 5.810566086200e-04 0.0 
5.810566086200e-04 1.607207261670e-02 0.0 
0.0 0.0 0.0 
-2.357710848622e-03 5.127835741424e-04 0.0 
5.127835741424e-04 1.588782638202e-02 0.0 
0.0 0.0 0.0 
2.132613894113e-03 -2.061767617715e-03 0.0 
-2.061767617715e-03 -6.725000972123e-04 0.0 
0.0 0.0 0.0 
1.425565992206e-03 -9.993261465242e-04 0.0 
-9.993261465242e-04 1.887156833800e-03 0.0 
0.0 0.0 0.0 
1.655366016082e-03 -7.132909565864e-04 0.0 
-7.132909565864e-04 1.822658725276e-03 0.0 
0.0 0.0 0.0 
1.753785016261e-04 -1.000661422941e-03 0.0 
-1.000661422941e-03 9.423736164547e-04 0.0 
0.0 0.0 0.0 
4.511112065103e-03 2.301699316773e-03 0.0 
2.301699316773e-03 -3.498906012408e-03 0.0 
0.0 0.0 0.0 
4.962557361158e-03 -8.153376767561e-06 0.0 
-8.153376767561e-06 -2.896844203981e-03 0.0 
0.0 0.0 0.0 
4.163666508874e-03 -1.203183042551e-03 0.0 
-1.203183042551e-03 -2.711967404824e-03 0.0 
0.0 0.0 0.0 
2.263964662253e-03 4.254548694770e-03 0.0 
4.254548694770e-03 1.623112836890e-03 0.0 
0.0 0.0 0.0 
-1.365200553088e-03 2.207492261819e-03 0.0 
2.207492261819e-03 1.676373812721e-02 0.0 
0.0 0.0 0.0 
-1.062628550245e-03 4.240403058676e-03 0.0 
4.240403058676e-03 1.313813606546e-02 0.0 
0.0 0.0 0.0 
-1.420266540304e-03 1.116101131697e-03 0.0 
1.116101131697e-03 1.706266523715e-02 0.0 
0.0 0.0 0.0 
-3.691213509623e-04 4.454942878077e-03 0.0 
4.454942878077e-03 6.229177973780e-03 0.0 
0.0 0.0 0.0 
-2.086645928223e-03 2.633028602333e-03 0.0 
2.633028602333e-03 1.568301539259e-02 0.0 
0.0 0.0 0.0 
1.051763927526e-03 -1.117114804003e-03 0.0 
-1.117114804003e-03 1.907221669268e-03 0.0 
0.0 0.0 0.0 
-1.248202681005e-03 1.798155457890e-03 0.0 
1.798155457890e-03 1.687340579233e-02 0.0 
0.0 0.0 0.0 
-2.668939961605e-03 1.949338943075e-03 0.0 
1.949338943075e-03 1.617522817217e-02 0.0 
0.0 0.0 0.0 
1.244550070959e-03 -2.183513253694e-03 0.0 
-2.183513253694e-03 2.880954354392e-04 0.0 
0.0 0.0 0.0 
5.244095318486e-03 6.018529903603e-04 0.0 
6.018529903603e-04 -3.101621361886e-03 0.0 
0.0 0.0 0.0 
-2.119604072614e-03 1.702562633717e-03 0.0 
1.702562633717e-03 1.641906932827e-02 0.0 
0.0 0.0 0.0 
-1.809765918526e-03 1.977156440764e-03 0.0 
1.977156440764e-03 1.670043153099e-02 0.0 
0.0 0.0 0.0 
-1.937959772075e-03 1.294244687410e-03 0.0 
1.294244687410e-03 1.664979747800e-02 0.0 
0.0 0.0 0.0 
-2.162345156456e-03 1.342054738945e-03 0.0 
1.342054738945e-03 1.647787012541e-02 0.0 
0.0 0.0 0.0 
1.037199203569e-03 -4.486437050536e-04 0.0 
-4.486437050536e-04 3.011597829045e-03 0.0 
0.0 0.0 0.0 
1.998740717911e-03 2.866371390072e-03 0.0 
2.866371390072e-03 3.232865838710e-03 0.0 
0.0 0.0 0.0 
1.410915036840e-03 -4.312859797693e-04 0.0 
-4.312859797693e-04 2.432083549273e-03 0.0 
0.0 0.0 0.0 
1.162065797023e-03 -1.523595058573e-03 0.0 
-1.523595058573e-03 1.583881116910e-03 0.0 
0.0 0.0 0.0 
-1.719853243474e-03 3.805335406576e-03 0.0 
3.805335406576e-03 9.115648669224e-03 0.0 
0.0 0.0 0.0 
2.952336471070e-03 1.525386992277e-03 0.0 
1.525386992277e-03 9.662651134692e-04 0.0 
0.0 0.0 0.0 
-2.346660004328e-03 2.972042075792e-03 0.0 
2.972042075792e-03 1.476789255837e-02 0.0 
0.0 0.0 0.0 
-4.659512097632e-04 -1.168233645690e-03 0.0 
-1.168233645690e-03 1.909555211770e-03 0.0 
0.0 0.0 0.0 
4.567691033722e-03 -5.675932413572e-04 0.0 
-5.675932413572e-04 -2.804166179601e-03 0.0 
0.0 0.0 0.0 
4.163289816637e-03 -2.863852769665e-04 0.0 
-2.863852769665e-04 -1.879046668812e-03 0.0 
0.0 0.0 0.0 
4.256639700162e-03 1.588029292270e-03 0.0 
1.588029292270e-03 -1.119877166793e-03 0.0 
0.0 0.0 0.0 
4.446745166286e-03 -5.498508287011e-04 0.0 
-5.498508287011e-04 -4.094625004334e-03 0.0 
0.0 0.0 0.0 
4.962871394703e-03 -4.000322899387e-05 0.0 
-4.000322899387e-05 -2.991479005956e-03 0.0 
0.0 0.0 0.0 
3.692876312619e-03 1.712212782594e-03 0.0 
1.712212782594e-03 -9.014981576516e-05 0.0 
0.0 0.0 0.0 
-1.108290047718e-03 4.304292546098e-03 0.0 
4.304292546098e-03 8.294792321589e-03 0.0 
0.0 0.0 0.0 
1.187906292096e-03 -2.017510960335e-03 0.0 
-2.017510960335e-03 8.955519695486e-04 0.0 
0.0 0.0 0.0 
-2.918768232897e-03 1.640530721336e-03 0.0 
1.640530721336e-03 1.605452891366e-02 0.0 
0.0 0.0 0.0 
-2.224239759580e-03 1.794345962747e-04 0.0 
1.794345962747e-04 1.526609928247e-02 0.0 
0.0 0.0 0.0 
-1.622419597173e-03 3.557179015520e-03 0.0 
3.557179015520e-03 1.675470881822e-03 0.0 
0.0 0.0 0.0 
1.173957788606e-03 -1.730307499960e-03 0.0 
-1.730307499960e-03 9.540153059655e-04 0.0 
0.0 0.0 0.0 
3.000023661073e-03 1.001217121329e-03 0.0 
1.001217121329e-03 6.810957107735e-04 0.0 
0.0 0.0 0.0 
-1.023604929907e-03 4.139352660903e-03 0.0 
4.139352660903e-03 1.376923806991e-02 0.0 
0.0 0.0 0.0 
4.995535883963e-03 1.346579418154e-03 0.0 
1.346579418154e-03 -2.542158578209e-03 0.0 
0.0 0.0 0.0 
1.171153540194e-03 -1.788532270564e-03 0.0 
-1.788532270564e-03 1.208275565749e-03 0.0 
0.0 0.0 0.0 
-2.672831625915e-03 1.157908201020e-03 0.0 
1.157908201020e-03 1.627378871447e-02 0.0 
0.0 0.0 0.0 
-1.572578552734e-03 3.585755960978e-03 0.0 
3.585755960978e-03 2.901750228588e-03 0.0 
0.0 0.0 0.0 
3.308662539336e-03 1.311649391874e-03 0.0 
1.311649391874e-03 3.239538474606e-04 0.0 
0.0 0.0 0.0 
4.495856049575e-03 9.415695606558e-04 0.0 
9.415695606558e-04 -1.882064917584e-03 0.0 
0.0 0.0 0.0 
-1.416068657272e-03 4.384366356471e-03 0.0 
4.384366356471e-03 9.265177663324e-03 0.0 
0.0 0.0 0.0 
1.303084223167e-03 -8.622111202389e-04 0.0 
-8.622111202389e-04 1.847145375758e-03 0.0 
0.0 0.0 0.0 
3.043604992423e-03 -2.949406236272e-03 0.0 
-2.949406236272e-03 -2.905091575707e-03 0.0 
0.0 0.0 0.0 
1.498708472428e-03 -5.607137333703e-04 0.0 
-5.607137333703e-04 1.865573158227e-03 0.0 
0.0 0.0 0.0 
1.480311293130e-03 1.956645754137e-04 0.0 
1.956645754137e-04 2.680134574458e-03 0.0 
0.0 0.0 0.0 
3.560120914198e-03 1.659424605430e-03 0.0 
1.659424605430e-03 4.193387107621e-05 0.0 
0.0 0.0 0.0 
-2.231516778864e-03 1.369894131760e-03 0.0 
1.369894131760e-03 1.664180616699e-02 0.0 
0.0 0.0 0.0 
1.680522857751e-03 4.156618541552e-03 0.0 
4.156618541552e-03 4.824479722790e-03 0.0 
0.0 0.0 0.0 
1.289001198516e-03 3.268510302975e-05 0.0 
3.268510302975e-05 2.701567195585e-03 0.0 
0.0 0.0 0.0 
-1.646664530227e-03 3.526437698971e-03 0.0 
3.526437698971e-03 4.078991268970e-03 0.0 
0.0 0.0 0.0 
-2.706714518447e-03 1.532755516822e-03 0.0 
1.532755516822e-03 1.627102818931e-02 0.0 
0.0 0.0 0.0 
1.728178185752e-03 3.508851009985e-03 0.0 
3.508851009985e-03 4.101465444639e-03 0.0 
0.0 0.0 0.0 
-1.878763564478e-03 1.629054984631e-03 0.0 
1.629054984631e-03 1.661535810830e-02 0.0 
0.0 0.0 0.0 
4.059796658777e-03 1.523138738816e-03 0.0 
1.523138738816e-03 -8.850729720331e-04 0.0 
0.0 0.0 0.0 
5.082207429100e-03 6.963183678201e-04 0.0 
6.963183678201e-04 -2.789610822836e-03 0.0 
0.0 0.0 0.0 
-1.612003740896e-04 -1.441805644483e-03 0.0 
-1.441805644483e-03 2.793922311406e-03 0.0 
0.0 0.0 0.0 
2.895125702371e-03 7.501747247748e-04 0.0 
7.501747247748e-04 -4.870319910758e-03 0.0 
0.0 0.0 0.0 
-1.625444871605e-03 1.550837157211e-03 0.0 
1.550837157211e-03 1.678466649228e-02 0.0 
0.0 0.0 0.0 
-6.186895697547e-04 -9.960034781717e-04 0.0 
-9.960034781717e-04 2.177055997295e-03 0.0 
0.0 0.0 0.0 
-1.693732566348e-03 3.403628813675e-03 0.0 
3.403628813675e-03 5.345571720737e-03 0.0 
0.0 0.0 0.0 
1.477470696812e-03 4.366605430688e-03 0.0 
4.366605430688e-03 5.284075491266e-03 0.0 
0.0 0.0 0.0 
-1.096824305480e-03 1.383846079984e-03 0.0 
1.383846079984e-03 1.706501477457e-02 0.0 
0.0 0.0 0.0 
2.232940390096e-03 -3.415143429944e-03 0.0 
-3.415143429944e-03 -2.189615469388e-03 0.0 
0.0 0.0 0.0 
1.108919345874e-03 4.640337417225e-03 0.0 
4.640337417225e-03 4.741992949221e-03 0.0 
0.0 0.0 0.0 
-2.342954409678e-03 1.784108831724e-03 0.0 
1.784108831724e-03 1.619310827568e-02 0.0 
0.0 0.0 0.0 
4.612068136909e-04 -1.869287591139e-03 0.0 
-1.869287591139e-03 1.503383321169e-03 0.0 
0.0 0.0 0.0 
4.099786956580e-03 -1.683642222474e-03 0.0 
-1.683642222474e-03 -3.913567136994e-03 0.0 
0.0 0.0 0.0 
2.722511662780e-03 4.005497891820e-03 0.0 
4.005497891820e-03 -3.649283832731e-04 0.0 
0.0 0.0 0.0 
6.649486908836e-04 -3.056861718082e-03 0.0 
-3.056861718082e-03 -2.141577710427e-04 0.0 
0.0 0.0 0.0 
2.818059078642e-03 -2.853419947736e-03 0.0 
-2.853419947736e-03 -2.261471878847e-03 0.0 
0.0 0.0 0.0 
1.946959653135e-03 -3.323418202934e-03 0.0 
-3.323418202934e-03 -1.242234078609e-03 0.0 
0.0 0.0 0.0 
4.623995891102e-03 1.407560708479e-03 0.0 
1.407560708479e-03 -1.952201445443e-03 0.0 
0.0 0.0 0.0 
-5.808822184865e-04 3.840561399489e-03 0.0 
3.840561399489e-03 1.563314773056e-02 0.0 
0.0 0.0 0.0 
-1.744019756054e-03 3.260049938824e-03 0.0 
3.260049938824e-03 6.824338388564e-03 0.0 
0.0 0.0 0.0 
7.074934793208e-04 -4.582271149419e-04 0.0 
-4.582271149419e-04 3.558944712158e-03 0.0 
0.0 0.0 0.0 
5.148994601716e-03 1.979495214363e-03 0.0 
1.979495214363e-03 -2.952509459408e-03 0.0 
0.0 0.0 0.0 
-2.864638725936e-03 2.103822897125e-03 0.0 
2.103822897125e-03 1.590470769686e-02 0.0 
0.0 0.0 0.0 
3.634074282964e-03 5.868903600659e-04 0.0 
5.868903600659e-04 -4.531043014057e-03 0.0 
0.0 0.0 0.0 
1.241685956094e-03 3.697123733283e-04 0.0 
3.697123733283e-04 2.960624633208e-03 0.0 
0.0 0.0 0.0 
1.261350267462e-03 -3.510428232434e-03 0.0 
-3.510428232434e-03 -1.223006367068e-03 0.0 
0.0 0.0 0.0 
-7.814066300633e-04 -1.070598834622e-03 0.0 
-1.070598834622e-03 2.502526967787e-03 0.0 
0.0 0.0 0.0 
3.242376779290e-03 2.143568443292e-03 0.0 
2.143568443292e-03 7.581125653431e-04 0.0 
0.0 0.0 0.0 
3.000139850883e-03 -1.634746309791e-03 0.0 
-1.634746309791e-03 -1.475856118971e-03 0.0 
0.0 0.0 0.0 
2.127938852987e-03 3.147316625960e-03 0.0 
3.147316625960e-03 3.264396346461e-03 0.0 
0.0 0.0 0.0 
1.299530379840e-03 4.178333116605e-03 0.0 
4.178333116605e-03 2.455280610487e-03 0.0 
0.0 0.0 0.0 
-2.475288425483e-03 2.982544661334e-03 0.0 
2.982544661334e-03 1.524116034625e-02 0.0 
0.0 0.0 0.0 
1.853659822441e-03 2.768068821761e-03 0.0 
2.768068821761e-03 3.257848800879e-03 0.0 
0.0 0.0 0.0 
-2.373680884591e-03 1.389775676518e-03 0.0 
1.389775676518e-03 1.628580429180e-02 0.0 
0.0 0.0 0.0 
-1.216853264751e-03 4.249929806388e-03 0.0 
4.249929806388e-03 1.375373427423e-02 0.0 
0.0 0.0 0.0 
-2.340613738477e-03 2.231267712500e-03 0.0 
2.231267712500e-03 1.625988557673e-02 0.0 
0.0 0.0 0.0 
-2.176063684734e-03 2.638128367603e-03 0.0 
2.638128367603e-03 1.602163829895e-02 0.0 
0.0 0.0 0.0 
3.277929189733e-03 3.345213087107e-03 0.0 
3.345213087107e-03 -2.851329050971e-03 0.0 
0.0 0.0 0.0 
5.826383939156e-04 -6.190372486113e-04 0.0 
-6.190372486113e-04 3.546054400492e-03 0.0 
0.0 0.0 0.0 
-2.249419386651e-03 2.207540253571e-03 0.0 
2.207540253571e-03 1.599011681567e-02 0.0 
0.0 0.0 0.0 
4.371258572786e-03 3.024688750975e-03 0.0 
3.024688750975e-03 -1.501229596141e-03 0.0 
0.0 0.0 0.0 
-1.906390952992e-03 3.136158377996e-03 0.0 
3.136158377996e-03 8.394738540882e-03 0.0 
0.0 0.0 0.0 
1.430372822750e-03 3.011368650982e-03 0.0 
3.011368650982e-03 4.042593305272e-03 0.0 
0.0 0.0 0.0 
4.579536525068e-03 1.489733401947e-03 0.0 
1.489733401947e-03 -4.075086223563e-03 0.0 
0.0 0.0 0.0 
-5.778383218777e-04 -1.031451872911e-03 0.0 
-1.031451872911e-03 2.157512069614e-03 0.0 
0.0 0.0 0.0 
2.511709181244e-03 2.965861122431e-03 0.0 
2.965861122431e-03 2.376878304514e-03 0.0 
0.0 0.0 0.0 
2.411108678486e-04 4.098499957984e-05 0.0 
4.098499957984e-05 1.402597028637e-03 0.0 
0.0 0.0 0.0 
2.535113523654e-03 4.068396285572e-03 0.0 
4.068396285572e-03 1.861456431935e-03 0.0 
0.0 0.0 0.0 
3.054511913380e-03 1.792003065127e-03 0.0 
1.792003065127e-03 9.302069836714e-04 0.0 
0.0 0.0 0.0 
-1.725995483646e-03 2.868011860024e-03 0.0 
2.868011860024e-03 1.605239454641e-02 0.0 
0.0 0.0 0.0 
-1.490427269023e-03 3.300007348569e-03 0.0 
3.300007348569e-03 1.570157128373e-02 0.0 
0.0 0.0 0.0 
3.195249357396e-03 1.852538569335e-03 0.0 
1.852538569335e-03 8.007297653609e-04 0.0 
0.0 0.0 0.0 
-2.085981932502e-03 2.102065217626e-03 0.0 
2.102065217626e-03 1.649407188344e-02 0.0 
0.0 0.0 0.0 
4.880949546426e-03 2.570105976372e-03 0.0 
2.570105976372e-03 -2.422145897616e-03 0.0 
0.0 0.0 0.0 
7.692973129123e-04 4.626149494196e-03 0.0 
4.626149494196e-03 6.916322521135e-03 0.0 
0.0 0.0 0.0 
-2.172999746677e-03 3.037880512829e-03 0.0 
3.037880512829e-03 1.000158840052e-02 0.0 
0.0 0.0 0.0 
-4.116591660721e-04 4.707349370521e-03 0.0 
4.707349370521e-03 1.115859397318e-02 0.0 
0.0 0.0 0.0 
-2.618109813515e-03 3.033490292351e-03 0.0 
3.033490292351e-03 1.165995617508e-02 0.0 
0.0 0.0 0.0 
-3.064493595820e-03 3.068661806576e-03 0.0 
3.068661806576e-03 1.254452083275e-02 0.0 
0.0 0.0 0.0 
5.007133291204e-03 1.936774746119e-03 0.0 
1.936774746119e-03 -2.496154577962e-03 0.0 
0.0 0.0 0.0 
-4.117854644130e-03 3.101329090686e-03 0.0 
3.101329090686e-03 1.357507321980e-02 0.0 
0.0 0.0 0.0 
2.957697170672e-03 3.837547988152e-03 0.0 
3.837547988152e-03 1.579620927089e-03 0.0 
0.0 0.0 0.0 
3.698725050955e-03 3.557791443725e-03 0.0 
3.557791443725e-03 -1.920532711100e-04 0.0 
0.0 0.0 0.0 
4.805411040469e-03 1.158269753531e-04 0.0 
1.158269753531e-04 -2.732418249905e-03 0.0 
0.0 0.0 0.0 
3.963409964949e-03 -1.573892057224e-03 0.0 
-1.573892057224e-03 -3.770932735963e-03 0.0 
0.0 0.0 0.0 
5.215049273731e-03 1.297828669461e-03 0.0 
1.297828669461e-03 -2.881677601816e-03 0.0 
0.0 0.0 0.0 
-1.512761897873e-03 1.903979207355e-03 0.0 
1.903979207355e-03 1.670808849298e-02 0.0 
0.0 0.0 0.0 
-7.168858690919e-04 4.558255276374e-03 0.0 
4.558255276374e-03 1.255728670131e-02 0.0 
0.0 0.0 0.0 
6.986697463829e-04 -8.332646502199e-04 0.0 
-8.332646502199e-04 3.065134655805e-03 0.0 
0.0 0.0 0.0 
2.014906313906e-03 3.044085884736e-03 0.0 
3.044085884736e-03 3.206321343912e-03 0.0 
0.0 0.0 0.0 
3.457863280749e-03 -1.292750705336e-03 0.0 
-1.292750705336e-03 -1.532035041753e-03 0.0 
0.0 0.0 0.0 
-1.883665660771e-03 2.502894292348e-03 0.0 
2.502894292348e-03 1.603688122429e-02 0.0 
0.0 0.0 0.0 
5.076537976858e-03 6.822744355627e-04 0.0 
6.822744355627e-04 -2.818594473883e-03 0.0 
0.0 0.0 0.0 
3.254117916811e-04 -5.611290007893e-04 0.0 
-5.611290007893e-04 4.036896063772e-03 0.0 
0.0 0.0 0.0 
-2.027324172813e-03 2.097988465077e-03 0.0 
2.097988465077e-03 1.627448194581e-02 0.0 
0.0 0.0 0.0 
-2.354954406830e-03 2.801459533069e-03 0.0 
2.801459533069e-03 1.566311065934e-02 0.0 
0.0 0.0 0.0 
3.802578471803e-03 1.114453928925e-03 0.0 
1.114453928925e-03 -5.747842816808e-04 0.0 
0.0 0.0 0.0 
5.148787473755e-03 1.934676949592e-03 0.0 
1.934676949592e-03 -2.744768707092e-03 0.0 
0.0 0.0 0.0 
6.723478792570e-04 4.655088536138e-03 0.0 
4.655088536138e-03 7.367735561202e-03 0.0 
0.0 0.0 0.0 
-6.404688470922e-04 4.629618619619e-03 0.0 
4.629618619619e-03 8.751674006169e-03 0.0 
0.0 0.0 0.0 
3.519977480584e-03 -2.629928471553e-03 0.0 
-2.629928471553e-03 -3.599616485851e-03 0.0 
0.0 0.0 0.0 
4.459444706165e-03 2.861223576141e-04 0.0 
2.861223576141e-04 -3.881580092900e-03 0.0 
0.0 0.0 0.0 
1.845603871248e-03 4.205341198604e-03 0.0 
4.205341198604e-03 1.477228361357e-03 0.0 
0.0 0.0 0.0 
9.744717728057e-04 4.699792839417e-03 0.0 
4.699792839417e-03 4.734343011136e-03 0.0 
0.0 0.0 0.0 
1.195406367811e-04 -4.935250628886e-04 0.0 
-4.935250628886e-04 4.486968791712e-03 0.0 
0.0 0.0 0.0 
-2.546057723774e-03 2.381219932554e-03 0.0 
2.381219932554e-03 1.597053241607e-02 0.0 
0.0 0.0 0.0 
5.143664363974e-03 1.324288288583e-03 0.0 
1.324288288583e-03 -2.651335909449e-03 0.0 
0.0 0.0 0.0 
7.866927035767e-04 4.720952839323e-03 0.0 
4.720952839323e-03 6.133251117803e-03 0.0 
0.0 0.0 0.0 
2.804683438525e-03 1.495588968356e-03 0.0 
1.495588968356e-03 1.216734450303e-03 0.0 
0.0 0.0 0.0 
-1.912650579117e-03 1.622327759672e-03 0.0 
1.622327759672e-03 1.677698762742e-02 0.0 
0.0 0.0 0.0 
3.344390726749e-04 4.819806651147e-03 0.0 
4.819806651147e-03 8.345611016825e-03 0.0 
0.0 0.0 0.0 
-2.705813724383e-03 2.024361404596e-03 0.0 
2.024361404596e-03 1.560489499696e-02 0.0 
0.0 0.0 0.0 
2.243606940921e-03 5.434928993176e-04 0.0 
5.434928993176e-04 1.645644530402e-03 0.0 
0.0 0.0 0.0 
4.877424545126e-03 8.026915550320e-04 0.0 
8.026915550320e-04 -2.459586740858e-03 0.0 
0.0 0.0 0.0 
2.656260608791e-03 1.221654619871e-03 0.0 
1.221654619871e-03 1.242333264221e-03 0.0 
0.0 0.0 0.0 
2.359748623278e-03 4.283471728092e-03 0.0 
4.283471728092e-03 1.830298620676e-03 0.0 
0.0 0.0 0.0 
-1.661192814498e-03 2.353985792491e-03 0.0 
2.353985792491e-03 1.654594895377e-02 0.0 
0.0 0.0 0.0 
5.688038118934e-05 4.960419025609e-03 0.0 
4.960419025609e-03 9.332319228533e-03 0.0 
0.0 0.0 0.0 
4.296219388793e-03 9.120794962935e-04 0.0 
9.120794962935e-04 -1.541486356666e-03 0.0 
0.0 0.0 0.0 
4.352290580496e-03 5.160123334248e-04 0.0 
5.160123334248e-04 -4.374431595166e-03 0.0 
0.0 0.0 0.0 
1.748762810384e-03 4.068444474202e-03 0.0 
4.068444474202e-03 4.428887468485e-03 0.0 
0.0 0.0 0.0 
2.528855060249e-03 4.110274356997e-03 0.0 
4.110274356997e-03 2.170560590614e-03 0.0 
0.0 0.0 0.0 
5.009929016040e-03 1.975084741521e-03 0.0 
1.975084741521e-03 -2.330143937456e-03 0.0 
0.0 0.0 0.0 
3.929675274241e-03 1.122626420160e-03 0.0 
1.122626420160e-03 -8.244657813349e-04 0.0 
0.0 0.0 0.0 
2.009478426029e-03 -1.166477031089e-04 0.0 
-1.166477031089e-04 1.413606375202e-03 0.0 
0.0 0.0 0.0 
4.138165775434e-03 -7.961990527971e-04 0.0 
-7.961990527971e-04 -4.160488161842e-03 0.0 
0.0 0.0 0.0 
4.765168825616e-03 7.664525021481e-04 0.0 
7.664525021481e-04 -2.325190385545e-03 0.0 
0.0 0.0 0.0 
-1.530833316464e-03 4.161734950941e-03 0.0 
4.161734950941e-03 1.139105745410e-02 0.0 
0.0 0.0 0.0 
-1.451023734311e-05 -5.468384390057e-04 0.0 
-5.468384390057e-04 4.495086339720e-03 0.0 
0.0 0.0 0.0 
-1.114123257614e-03 4.370623336135e-03 0.0 
4.370623336135e-03 1.064859017034e-02 0.0 
0.0 0.0 0.0 
1.600118349575e-03 4.294668166402e-03 0.0 
4.294668166402e-03 4.804823845580e-03 0.0 
0.0 0.0 0.0 
-1.932802019347e-03 3.897875347619e-03 0.0 
3.897875347619e-03 1.212237647525e-02 0.0 
0.0 0.0 0.0 
-2.646400157990e-03 3.199407398356e-03 0.0 
3.199407398356e-03 1.351609858777e-02 0.0 
0.0 0.0 0.0 
-1.842672289640e-04 4.711504841189e-03 0.0 
4.711504841189e-03 7.957053437789e-03 0.0 
0.0 0.0 0.0 
2.389545554487e-03 2.662537865208e-03 0.0 
2.662537865208e-03 2.402163065209e-03 0.0 
0.0 0.0 0.0 
6.340892797065e-04 -7.576915670566e-04 0.0 
-7.576915670566e-04 3.031848697637e-03 0.0 
0.0 0.0 0.0 
-2.431868857524e-03 2.348521731665e-03 0.0 
2.348521731665e-03 1.564556524768e-02 0.0 
0.0 0.0 0.0 
-1.246791078319e-03 3.190640302298e-03 0.0 
3.190640302298e-03 1.571432675385e-02 0.0 
0.0 0.0 0.0 
-2.311467876985e-03 3.578418487989e-03 0.0 
3.578418487989e-03 1.283037622514e-02 0.0 
0.0 0.0 0.0 
5.113784365578e-03 1.251207961375e-03 0.0 
1.251207961375e-03 -3.088365733220e-03 0.0 
0.0 0.0 0.0 
1.387378706020e-03 4.197242201262e-03 0.0 
4.197242201262e-03 5.435364204154e-03 0.0 
0.0 0.0 0.0 
-1.512534884773e-03 1.863554844945e-03 0.0 
1.863554844945e-03 1.686673637108e-02 0.0 
0.0 0.0 0.0 
3.363070537936e-03 3.753989099995e-03 0.0 
3.753989099995e-03 7.766185773095e-05 0.0 
0.0 0.0 0.0 
2.834709431296e-03 4.043331905533e-03 0.0 
4.043331905533e-03 1.142586499579e-03 0.0 
0.0 0.0 0.0 
5.196980254919e-03 1.279165289797e-03 0.0 
1.279165289797e-03 -2.843190348465e-03 0.0 
0.0 0.0 0.0 
-2.242959891001e-03 2.788827154881e-03 0.0 
2.788827154881e-03 1.526581586560e-02 0.0 
0.0 0.0 0.0 
5.204514137473e-04 4.488093154693e-03 0.0 
4.488093154693e-03 4.282867721801e-03 0.0 
0.0 0.0 0.0 
3.086049695303e-03 3.765520227658e-03 0.0 
3.765520227658e-03 1.093647160856e-03 0.0 
0.0 0.0 0.0 
6.124250863153e-04 4.450150935677e-03 0.0 
4.450150935677e-03 4.287602128502e-03 0.0 
0.0 0.0 0.0 
2.887477074868e-03 2.578568315550e-03 0.0 
2.578568315550e-03 1.545359031424e-03 0.0 
0.0 0.0 0.0 
1.002977345777e-03 4.319652769887e-03 0.0 
4.319652769887e-03 6.052409152490e-03 0.0 
0.0 0.0 0.0 
5.173473386395e-03 5.847247676167e-04 0.0 
5.847247676167e-04 -2.999734045514e-03 0.0 
0.0 0.0 0.0 
2.826061161577e-03 -8.730403232782e-04 0.0 
-8.730403232782e-04 -4.607367634693e-03 0.0 
0.0 0.0 0.0 
-1.152424913726e-03 3.721153483224e-03 0.0 
3.721153483224e-03 1.485092855752e-02 0.0 
0.0 0.0 0.0 
1.329714707654e-04 4.512492155942e-03 0.0 
4.512492155942e-03 5.283048098479e-03 0.0 
0.0 0.0 0.0 
3.862294990499e-03 -8.183236644708e-04 0.0 
-8.183236644708e-04 -1.757017035244e-03 0.0 
0.0 0.0 0.0 
1.467493875415e-03 4.144053370535e-03 0.0 
4.144053370535e-03 5.083659550807e-03 0.0 
0.0 0.0 0.0 
-2.704776642007e-03 2.557194428078e-03 0.0 
2.557194428078e-03 1.562172538721e-02 0.0 
0.0 0.0 0.0 
9.459677547279e-04 -8.132592505785e-04 0.0 
-8.132592505785e-04 2.455395916134e-03 0.0 
0.0 0.0 0.0 
4.234106459321e-03 3.144957656979e-03 0.0 
3.144957656979e-03 -1.090338995451e-03 0.0 
0.0 0.0 0.0 
2.534696502241e-03 -4.810443200322e-04 0.0 
-4.810443200322e-04 -4.988840175470e-03 0.0 
0.0 0.0 0.0 
-1.297503791610e-04 -4.918482146999e-04 0.0 
-4.918482146999e-04 4.920521125091e-03 0.0 
0.0 0.0 0.0 
1.476630946580e-03 4.636159373447e-03 0.0 
4.636159373447e-03 3.932679516113e-03 0.0 
0.0 0.0 0.0 
3.034899530851e-03 3.017959501155e-03 0.0 
3.017959501155e-03 1.653831596171e-03 0.0 
0.0 0.0 0.0 
8.716879547088e-04 4.668581419768e-03 0.0 
4.668581419768e-03 6.861379280295e-03 0.0 
0.0 0.0 0.0 
1.026801423998e-03 -4.470618537107e-05 0.0 
-4.470618537107e-05 -4.715715704775e-03 0.0 
0.0 0.0 0.0 
1.256739280861e-03 -6.952884529996e-04 0.0 
-6.952884529996e-04 2.435287099571e-03 0.0 
0.0 0.0 0.0 
3.481204298898e-03 3.340125514904e-03 0.0 
3.340125514904e-03 -1.118661490070e-03 0.0 
0.0 0.0 0.0 
-3.033722027785e-03 2.279352943582e-03 0.0 
2.279352943582e-03 1.557713086078e-02 0.0 
0.0 0.0 0.0 
4.650259864425e-04 -1.659657327709e-03 0.0 
-1.659657327709e-03 1.826254144739e-03 0.0 
0.0 0.0 0.0 
5.305669977802e-03 1.265784319693e-03 0.0 
1.265784319693e-03 -3.113526166938e-03 0.0 
0.0 0.0 0.0 
1.531383643139e-04 -6.168961141590e-04 0.0 
-6.168961141590e-04 4.046519652390e-03 0.0 
0.0 0.0 0.0 
2.778932997327e-03 4.082825662462e-03 0.0 
4.082825662462e-03 1.543322897668e-03 0.0 
0.0 0.0 0.0 
5.321762316893e-03 1.288639008605e-03 0.0 
1.288639008605e-03 -3.421399781598e-03 0.0 
0.0 0.0 0.0 
1.195373131776e-03 4.656468510428e-03 0.0 
4.656468510428e-03 5.039269773287e-03 0.0 
0.0 0.0 0.0 
2.304160676547e-03 -2.384581359617e-03 0.0 
-2.384581359617e-03 -4.645403765711e-03 0.0 
0.0 0.0 0.0 
1.181145442145e-03 4.527157832728e-03 0.0 
4.527157832728e-03 5.861462439437e-03 0.0 
0.0 0.0 0.0 
2.876538478589e-03 2.322804951296e-03 0.0 
2.322804951296e-03 1.583709261912e-03 0.0 
0.0 0.0 0.0 
-1.728966465820e-04 4.941808153183e-03 0.0 
4.941808153183e-03 1.019933481774e-02 0.0 
0.0 0.0 0.0 
1.055019858510e-03 4.514758156722e-03 0.0 
4.514758156722e-03 6.343454126960e-03 0.0 
0.0 0.0 0.0 
4.826357766218e-03 3.205107360736e-04 0.0 
3.205107360736e-04 -3.656910936087e-03 0.0 
0.0 0.0 0.0 
4.241692865545e-04 -8.955554930442e-04 0.0 
-8.955554930442e-04 3.076636057987e-03 0.0 
0.0 0.0 0.0 
-1.068728449135e-03 2.165502711262e-03 0.0 
2.165502711262e-03 1.676527432197e-02 0.0 
0.0 0.0 0.0 
9.785279513579e-04 3.420213775504e-03 0.0 
3.420213775504e-03 4.863442088588e-03 0.0 
0.0 0.0 0.0 
2.513787980256e-03 2.755704321631e-03 0.0 
2.755704321631e-03 2.408241885685e-03 0.0 
0.0 0.0 0.0 
4.679996298615e-03 2.602202693602e-03 0.0 
2.602202693602e-03 -1.693389060597e-03 0.0 
0.0 0.0 0.0 
1.241331535127e-03 4.597774498577e-03 0.0 
4.597774498577e-03 5.423556316806e-03 0.0 
0.0 0.0 0.0 
-1.601102418616e-04 -4.400687333167e-04 0.0 
-4.400687333167e-04 4.840348757411e-03 0.0 
0.0 0.0 0.0 
-9.971408965970e-04 -5.142314811217e-04 0.0 
-5.142314811217e-04 3.639695276582e-03 0.0 
0.0 0.0 0.0 
1.360536144737e-03 4.460171357765e-03 0.0 
4.460171357765e-03 5.271272870802e-03 0.0 
0.0 0.0 0.0 
-2.542442491254e-03 1.886715072575e-03 0.0 
1.886715072575e-03 1.592832409046e-02 0.0 
0.0 0.0 0.0 
3.706363770635e-04 -6.892093155661e-04 0.0 
-6.892093155661e-04 3.558072829847e-03 0.0 
0.0 0.0 0.0 
1.132136226796e-03 -5.699572597860e-04 0.0 
-5.699572597860e-04 2.455214010028e-03 0.0 
0.0 0.0 0.0 
-2.066974846537e-03 2.038642150775e-05 0.0 
2.038642150775e-05 1.495708761701e-02 0.0 
0.0 0.0 0.0 
-2.049469340274e-03 2.870557444553e-05 0.0 
2.870557444553e-05 1.494976598014e-02 0.0 
0.0 0.0 0.0 
-1.719410940146e-03 4.158750217808e-03 0.0 
4.158750217808e-03 1.218818242850e-02 0.0 
0.0 0.0 0.0 
1.441121154396e-03 4.523026194887e-03 0.0 
4.523026194887e-03 4.768525256430e-03 0.0 
0.0 0.0 0.0 
1.651711129416e-04 -1.456444706919e-03 0.0 
-1.456444706919e-03 2.392429587676e-03 0.0 
0.0 0.0 0.0 
-3.902826463452e-04 4.675401867622e-03 0.0 
4.675401867622e-03 8.959606918698e-03 0.0 
0.0 0.0 0.0 
3.274427345077e-03 3.768822077135e-03 0.0 
3.768822077135e-03 5.015224113898e-04 0.0 
0.0 0.0 0.0 
1.874756037806e-03 1.352249370384e-03 0.0 
1.352249370384e-03 2.395323900512e-03 0.0 
0.0 0.0 0.0 
4.457770930990e-03 3.077960733988e-03 0.0 
3.077960733988e-03 -1.763262999398e-03 0.0 
0.0 0.0 0.0 
-5.583256564857e-04 3.455721363232e-03 0.0 
3.455721363232e-03 1.603578751452e-02 0.0 
0.0 0.0 0.0 
-2.979247629932e-03 3.041067577478e-03 0.0 
3.041067577478e-03 1.352047217901e-02 0.0 
0.0 0.0 0.0 
3.036353214552e-03 3.827441914559e-03 0.0 
3.827441914559e-03 1.174370908771e-03 0.0 
0.0 0.0 0.0 
7.973233852483e-04 -1.643670716930e-03 0.0 
-1.643670716930e-03 1.821515629536e-03 0.0 
0.0 0.0 0.0 
4.596458439627e-03 1.296527741685e-03 0.0 
1.296527741685e-03 -3.342367501058e-03 0.0 
0.0 0.0 0.0 
8.291842420507e-04 -2.047062077154e-03 0.0 
-2.047062077154e-03 9.022817913951e-04 0.0 
0.0 0.0 0.0 
1.485057641376e-03 4.619787192957e-03 0.0 
4.619787192957e-03 4.304127793588e-03 0.0 
0.0 0.0 0.0 
5.727777430173e-04 4.753103528404e-03 0.0 
4.753103528404e-03 5.823564513257e-03 0.0 
0.0 0.0 0.0 
-2.573010571882e-03 2.521485932652e-03 0.0 
2.521485932652e-03 1.523826849558e-02 0.0 
0.0 0.0 0.0 
-4.195488683301e-05 4.687519829926e-03 0.0 
4.687519829926e-03 8.228601586320e-03 0.0 
0.0 0.0 0.0 
-2.758560673121e-04 4.676543173262e-03 0.0 
4.676543173262e-03 9.203433286330e-03 0.0 
0.0 0.0 0.0 
1.026533878740e-03 -1.778349915463e-04 0.0 
-1.778349915463e-04 6.328686204926e-04 0.0 
0.0 0.0 0.0 
7.786617815857e-04 -2.076138650959e-03 0.0 
-2.076138650959e-03 1.239890115667e-03 0.0 
0.0 0.0 0.0 
2.297627287449e-04 4.531377741193e-03 0.0 
4.531377741193e-03 5.280516886423e-03 0.0 
0.0 0.0 0.0 
-9.059938825954e-04 4.501210613735e-03 0.0 
4.501210613735e-03 9.727007838252e-03 0.0 
0.0 0.0 0.0 
-1.099326435428e-03 4.490886306148e-03 0.0 
4.490886306148e-03 1.062454780606e-02 0.0 
0.0 0.0 0.0 
2.196772899523e-03 2.339982836907e-03 0.0 
2.339982836907e-03 2.479594057410e-03 0.0 
0.0 0.0 0.0 
-8.336368854622e-05 -1.402954609496e-04 0.0 
-1.402954609496e-04 1.671749028729e-03 0.0 
0.0 0.0 0.0 
3.728662844551e-03 -1.866241322087e-03 0.0 
-1.866241322087e-03 -4.125645209995e-03 0.0 
0.0 0.0 0.0 
1.915988627022e-03 4.493302395307e-03 0.0 
4.493302395307e-03 2.855677759298e-03 0.0 
0.0 0.0 0.0 
4.559077559081e-04 -2.047276878169e-03 0.0 
-2.047276878169e-03 1.237372790394e-03 0.0 
0.0 0.0 0.0 
-3.070263296557e-03 3.298563483154e-03 0.0 
3.298563483154e-03 1.249726406067e-02 0.0 
0.0 0.0 0.0 
-3.454249030306e-03 3.241878020538e-03 0.0 
3.241878020538e-03 1.355235682804e-02 0.0 
0.0 0.0 0.0 
-2.807638604571e-03 2.763567256172e-03 0.0 
2.763567256172e-03 1.521068556789e-02 0.0 
0.0 0.0 0.0 
2.679141689544e-03 3.333708371435e-03 0.0 
3.333708371435e-03 -1.656405975176e-03 0.0 
0.0 0.0 0.0 
4.400615154452e-04 -1.693011785564e-03 0.0 
-1.693011785564e-03 2.073546898286e-03 0.0 
0.0 0.0 0.0 
2.788872854109e-03 7.233657684623e-04 0.0 
7.233657684623e-04 7.244769423438e-04 0.0 
0.0 0.0 0.0 
3.949051585453e-03 -5.367658775147e-04 0.0 
-5.367658775147e-04 -4.413461301828e-03 0.0 
0.0 0.0 0.0 
3.353401355786e-04 4.714525037648e-03 0.0 
4.714525037648e-03 7.581417467754e-03 0.0 
0.0 0.0 0.0 
-1.931406251010e-03 2.481612102912e-03 0.0 
2.481612102912e-03 1.631458185845e-02 0.0 
0.0 0.0 0.0 
-1.567105274293e-04 -1.601286783765e-03 0.0 
-1.601286783765e-03 2.309856802460e-03 0.0 
0.0 0.0 0.0 
4.081263483764e-04 -7.346987277673e-04 0.0 
-7.346987277673e-04 3.584318790094e-03 0.0 
0.0 0.0 0.0 
8.382939489162e-04 -3.399350393267e-04 0.0 
-3.399350393267e-04 3.912822531600e-04 0.0 
0.0 0.0 0.0 
2.820415617248e-03 1.932112686186e-04 0.0 
1.932112686186e-04 3.238326883925e-04 0.0 
0.0 0.0 0.0 
1.620581281810e-03 4.532017625312e-03 0.0 
4.532017625312e-03 3.947133137420e-03 0.0 
0.0 0.0 0.0 
1.007643937266e-03 -2.572388444569e-04 0.0 
-2.572388444569e-04 3.345832679003e-04 0.0 
0.0 0.0 0.0 
-1.638050339417e-03 2.382345514650e-03 0.0 
2.382345514650e-03 1.632283896752e-02 0.0 
0.0 0.0 0.0 
3.456755042781e-03 -8.416967073430e-04 0.0 
-8.416967073430e-04 -4.295606147155e-03 0.0 
0.0 0.0 0.0 
-8.399299268490e-04 4.598765431424e-03 0.0 
4.598765431424e-03 9.711718113102e-03 0.0 
0.0 0.0 0.0 
6.881520075803e-04 4.728468656362e-03 0.0 
4.728468656362e-03 5.826359504909e-03 0.0 
0.0 0.0 0.0 
3.970228209486e-03 -9.272027828248e-04 0.0 
-9.272027828248e-04 -2.310707110796e-03 0.0 
0.0 0.0 0.0 
2.763739780835e-03 -1.013601572062e-03 0.0 
-1.013601572062e-03 -1.494613609386e-04 0.0 
0.0 0.0 0.0 
-1.465571302395e-03 2.779484861195e-03 0.0 
2.779484861195e-03 1.605759515259e-02 0.0 
0.0 0.0 0.0 
2.552778068448e-03 -6.463694798537e-04 0.0 
-6.463694798537e-04 5.201190692197e-04 0.0 
0.0 0.0 0.0 
2.386900765186e-03 4.312766427321e-03 0.0 
4.312766427321e-03 2.140700164365e-03 0.0 
0.0 0.0 0.0 
2.068506668014e-03 4.329789096067e-03 0.0 
4.329789096067e-03 2.878941201929e-03 0.0 
0.0 0.0 0.0 
-1.823095641559e-03 3.538062748575e-03 0.0 
3.538062748575e-03 1.136720916967e-03 0.0 
0.0 0.0 0.0 
3.264144802684e-03 -5.665373307683e-04 0.0 
-5.665373307683e-04 -4.615313730601e-03 0.0 
0.0 0.0 0.0 
1.272726445112e-03 4.385867881525e-03 0.0 
4.385867881525e-03 5.815827764911e-03 0.0 
0.0 0.0 0.0 
-2.844685552329e-03 3.239039407110e-03 0.0 
3.239039407110e-03 1.415543482158e-02 0.0 
0.0 0.0 0.0 
1.379529817452e-03 4.336975209480e-03 0.0 
4.336975209480e-03 5.410068913540e-03 0.0 
0.0 0.0 0.0 
3.127318904883e-03 3.813976877104e-03 0.0 
3.813976877104e-03 -1.188398453688e-03 0.0 
0.0 0.0 0.0 
-1.389227719108e-03 4.025662455808e-03 0.0 
4.025662455808e-03 1.304450035674e-02 0.0 
0.0 0.0 0.0 
8.712354916689e-04 4.585064961147e-03 0.0 
4.585064961147e-03 6.867463681067e-03 0.0 
0.0 0.0 0.0 
-3.238419834494e-03 3.146136250709e-03 0.0 
3.146136250709e-03 1.273910607560e-02 0.0 
0.0 0.0 0.0 
1.205785171705e-03 4.444109596614e-03 0.0 
4.444109596614e-03 5.806186378420e-03 0.0 
0.0 0.0 0.0 
1.830162741621e-04 -7.795120411504e-04 0.0 
-7.795120411504e-04 3.592815303293e-03 0.0 
0.0 0.0 0.0 
1.862555216248e-03 4.433982494993e-03 0.0 
4.433982494993e-03 3.671479415283e-03 0.0 
0.0 0.0 0.0 
7.849937808264e-04 -1.875702455700e-03 0.0 
-1.875702455700e-03 1.502471546575e-03 0.0 
0.0 0.0 0.0 
8.143172536959e-04 -1.836974568300e-03 0.0 
-1.836974568300e-03 1.217761791477e-03 0.0 
0.0 0.0 0.0 
-1.430798185408e-03 3.859036176459e-03 0.0 
3.859036176459e-03 1.481547747763e-02 0.0 
0.0 0.0 0.0 
2.872755395328e-03 -1.276650434798e-03 0.0 
-1.276650434798e-03 -6.669058598615e-04 0.0 
0.0 0.0 0.0 
1.047298026162e-03 4.725894260248e-03 0.0 
4.725894260248e-03 5.030478094442e-03 0.0 
0.0 0.0 0.0 
4.172332062845e-03 3.024450822706e-03 0.0 
3.024450822706e-03 -9.840787875385e-04 0.0 
0.0 0.0 0.0 
2.239658436187e-03 -3.041551079183e-04 0.0 
-3.041551079183e-04 1.225043742656e-03 0.0 
0.0 0.0 0.0 
3.649536959144e-03 3.505201421066e-03 0.0 
3.505201421066e-03 1.124289196306e-04 0.0 
0.0 0.0 0.0 
5.093633190184e-03 4.535232790400e-04 0.0 
4.535232790400e-04 -3.850164030682e-03 0.0 
0.0 0.0 0.0 
4.322583656947e-03 2.612595194581e-04 0.0 
2.612595194581e-04 -1.886339797762e-03 0.0 
0.0 0.0 0.0 
5.194481608253e-03 1.297507353736e-03 0.0 
1.297507353736e-03 -3.630449178458e-03 0.0 
0.0 0.0 0.0 
-4.643943422942e-04 4.627796129264e-03 0.0 
4.627796129264e-03 8.966771728670e-03 0.0 
0.0 0.0 0.0 
5.075435791345e-03 3.847281451966e-04 0.0 
3.847281451966e-04 -3.487944632594e-03 0.0 
0.0 0.0 0.0 
-5.834872200128e-05 4.749004304404e-03 0.0 
4.749004304404e-03 7.951380763679e-03 0.0 
0.0 0.0 0.0 
2.359603154115e-03 2.441395755971e-03 0.0 
2.441395755971e-03 2.436364379420e-03 0.0 
0.0 0.0 0.0 
2.738599558898e-03 2.237260562973e-03 0.0 
2.237260562973e-03 1.629526639204e-03 0.0 
0.0 0.0 0.0 
3.933197803788e-03 3.471446260071e-03 0.0 
3.471446260071e-03 -9.442554092010e-04 0.0 
0.0 0.0 0.0 
-2.652965634461e-03 2.729158801834e-03 0.0 
2.729158801834e-03 1.473629509474e-02 0.0 
0.0 0.0 0.0 
1.674707995576e-04 -6.342594315917e-04 0.0 
-6.342594315917e-04 4.056585123109e-03 0.0 
0.0 0.0 0.0 
-1.564542275234e-05 -6.689388858440e-04 0.0 
-6.689388858440e-04 4.063336435128e-03 0.0 
0.0 0.0 0.0 
1.459572607179e-03 3.484842209753e-03 0.0 
3.484842209753e-03 -1.316348702802e-03 0.0 
0.0 0.0 0.0 
2.689748274045e-04 4.730038314615e-03 0.0 
4.730038314615e-03 7.200144342927e-03 0.0 
0.0 0.0 0.0 
-4.441850396575e-05 -4.270623651553e-04 0.0 
-4.270623651553e-04 4.904689533725e-03 0.0 
0.0 0.0 0.0 
-9.153703375373e-04 3.967804023206e-03 0.0 
3.967804023206e-03 6.224613901006e-03 0.0 
0.0 0.0 0.0 
-1.226367217648e-04 -1.433973748029e-03 0.0 
-1.433973748029e-03 2.589753000367e-03 0.0 
0.0 0.0 0.0 
-1.921876916678e-03 3.495633984387e-03 0.0 
3.495633984387e-03 1.672952778089e-03 0.0 
0.0 0.0 0.0 
-2.207927310216e-05 -5.345161326815e-04 0.0 
-5.345161326815e-04 4.476587888134e-03 0.0 
0.0 0.0 0.0 
4.912933058371e-03 1.365046602281e-03 0.0 
1.365046602281e-03 -3.818646849447e-03 0.0 
0.0 0.0 0.0 
-9.710212310248e-04 -4.145073456216e-04 0.0 
-4.145073456216e-04 3.865511949064e-03 0.0 
0.0 0.0 0.0 
2.969500749308e-03 3.295520805595e-03 0.0 
3.295520805595e-03 1.620921532620e-03 0.0 
0.0 0.0 0.0 
-2.862868325146e-03 2.974236027898e-03 0.0 
2.974236027898e-03 1.470535501182e-02 0.0 
0.0 0.0 0.0 
-2.714901379865e-03 2.955114675375e-03 0.0 
2.955114675375e-03 1.419185798790e-02 0.0 
0.0 0.0 0.0 
1.929164418432e-03 4.507559547501e-03 0.0 
4.507559547501e-03 3.206300039091e-03 0.0 
0.0 0.0 0.0 
-2.609783000725e-03 3.310683126506e-03 0.0 
3.310683126506e-03 1.076922825047e-02 0.0 
0.0 0.0 0.0 
-2.802056257484e-03 3.298965859432e-03 0.0 
3.298965859432e-03 1.161916364461e-02 0.0 
0.0 0.0 0.0 
-1.644987187475e-04 -5.651907802374e-04 0.0 
-5.651907802374e-04 4.482582313577e-03 0.0 
0.0 0.0 0.0 
2.575167483454e-03 -8.424892915398e-04 0.0 
-8.424892915398e-04 -1.012915090023e-04 0.0 
0.0 0.0 0.0 
3.749056491344e-03 -6.858058702892e-04 0.0 
-6.858058702892e-04 -1.810313690350e-03 0.0 
0.0 0.0 0.0 
3.116975963146e-03 5.051669562349e-04 0.0 
5.051669562349e-04 2.838095362874e-04 0.0 
0.0 0.0 0.0 
4.716949435204e-03 1.502696549075e-04 0.0 
1.502696549075e-04 -2.439301577958e-03 0.0 
0.0 0.0 0.0 
4.907725219833e-03 1.227198162716e-03 0.0 
1.227198162716e-03 -3.219978033849e-03 0.0 
0.0 0.0 0.0 
-2.373548694182e-03 3.006993517506e-03 0.0 
3.006993517506e-03 1.083553625373e-02 0.0 
0.0 0.0 0.0 
-3.142041231051e-03 3.052518803009e-03 0.0 
3.052518803009e-03 1.413839117050e-02 0.0 
0.0 0.0 0.0 
-2.048712217976e-03 2.406299401421e-05 0.0 
2.406299401421e-05 1.495481721007e-02 0.0 
0.0 0.0 0.0 
2.689364229994e-03 1.998384686855e-03 0.0 
1.998384686855e-03 1.663609408564e-03 0.0 
0.0 0.0 0.0 
4.216452737654e-03 3.114320023105e-03 0.0 
3.114320023105e-03 -8.939872811556e-04 0.0 
0.0 0.0 0.0 
1.502009703886e-03 3.145672295516e-03 0.0 
3.145672295516e-03 4.015376407746e-03 0.0 
0.0 0.0 0.0 
-4.909534295242e-04 -2.387779302623e-04 0.0 
-2.387779302623e-04 5.026118128433e-03 0.0 
0.0 0.0 0.0 
4.537172913146e-03 2.936303320343e-04 0.0 
2.936303320343e-04 -2.249277266310e-03 0.0 
0.0 0.0 0.0 
-3.732289799108e-06 -4.741994705539e-04 0.0 
-4.741994705539e-04 4.947948481803e-03 0.0 
0.0 0.0 0.0 
5.006463843519e-03 -3.625808236916e-04 0.0 
-3.625808236916e-04 -3.523866630213e-03 0.0 
0.0 0.0 0.0 
1.643059863889e-03 3.420742060817e-03 0.0 
3.420742060817e-03 4.026977092235e-03 0.0 
0.0 0.0 0.0 
2.100203047193e-03 4.345469421213e-03 0.0 
4.345469421213e-03 3.229720826655e-03 0.0 
0.0 0.0 0.0 
2.185773697041e-03 4.165274833741e-03 0.0 
4.165274833741e-03 3.152449528365e-03 0.0 
0.0 0.0 0.0 
1.949910679380e-03 7.551827978954e-04 0.0 
7.551827978954e-04 2.022779880068e-03 0.0 
0.0 0.0 0.0 
1.182156868270e-03 -2.568761952778e-03 0.0 
-2.568761952778e-03 1.255884557883e-05 0.0 
0.0 0.0 0.0 
6.374548222803e-04 4.762263712897e-03 0.0 
4.762263712897e-03 6.129025189896e-03 0.0 
0.0 0.0 0.0 
4.324635542361e-03 -3.315350551711e-04 0.0 
-3.315350551711e-04 -2.363635115805e-03 0.0 
0.0 0.0 0.0 
2.977518003129e-04 4.769244671448e-03 0.0 
4.769244671448e-03 6.897713289692e-03 0.0 
0.0 0.0 0.0 
3.061720182401e-03 3.660205967550e-03 0.0 
3.660205967550e-03 -3.162584282865e-04 0.0 
0.0 0.0 0.0 
2.433410584883e-03 3.897768009727e-03 0.0 
3.897768009727e-03 2.781501507469e-03 0.0 
0.0 0.0 0.0 
4.478391855988e-03 -4.895840468642e-04 0.0 
-4.895840468642e-04 -2.383899825537e-03 0.0 
0.0 0.0 0.0 
4.711909490922e-04 -1.462977750059e-03 0.0 
-1.462977750059e-03 2.391407155000e-03 0.0 
0.0 0.0 0.0 
1.825484963909e-04 4.757276843032e-03 0.0 
4.757276843032e-03 6.899826287228e-03 0.0 
0.0 0.0 0.0 
-1.117352229929e-03 4.197833461478e-03 0.0 
4.197833461478e-03 -5.708705139664e-04 0.0 
0.0 0.0 0.0 
3.796115790703e-03 3.060580156238e-03 0.0 
3.060580156238e-03 -2.303243372652e-04 0.0 
0.0 0.0 0.0 
-9.651302965944e-04 3.822925461290e-03 0.0 
3.822925461290e-03 1.258608403964e-03 0.0 
0.0 0.0 0.0 
1.585817727712e-04 -8.328866565459e-04 0.0 
-8.328866565459e-04 9.373009798348e-04 0.0 
0.0 0.0 0.0 
1.451535532404e-04 -1.482536272564e-03 0.0 
-1.482536272564e-03 2.596204495821e-03 0.0 
0.0 0.0 0.0 
3.992774014225e-04 4.703299237998e-03 0.0 
4.703299237998e-03 7.930818151278e-03 0.0 
0.0 0.0 0.0 
-2.393188781660e-03 3.365878215446e-03 0.0 
3.365878215446e-03 1.355998281588e-02 0.0 
0.0 0.0 0.0 
-2.282788648629e-03 3.368542386974e-03 0.0 
3.368542386974e-03 9.127308099298e-03 0.0 
0.0 0.0 0.0 
0.0 3.483979649386e-03 0.0 
3.483979649386e-03 1.585188276010e-02 0.0 
0.0 0.0 0.0 
-2.262354853439e-03 4.000363095772e-03 0.0 
4.000363095772e-03 4.640243483682e-04 0.0 
0.0 0.0 0.0 
-2.410496071656e-03 3.327230145493e-03 0.0 
3.327230145493e-03 9.955277492804e-03 0.0 
0.0 0.0 0.0 
3.648103123240e-03 -6.257677301566e-04 0.0 
-6.257677301566e-04 -1.415480156984e-03 0.0 
0.0 0.0 0.0 
-3.888907861604e-04 -1.352980696993e-03 0.0 
-1.352980696993e-03 2.780926014343e-03 0.0 
0.0 0.0 0.0 
-2.047739932194e-03 3.975449820301e-03 0.0 
3.975449820301e-03 9.991742277799e-03 0.0 
0.0 0.0 0.0 
4.231348601771e-03 -1.544488228037e-03 0.0 
-1.544488228037e-03 -2.758116456310e-03 0.0 
0.0 0.0 0.0 
2.813626061196e-03 -1.188182560500e-03 0.0 
-1.188182560500e-03 -7.856835178406e-04 0.0 
0.0 0.0 0.0 
1.662621342923e-03 4.510574467474e-03 0.0 
4.510574467474e-03 4.319492294216e-03 0.0 
0.0 0.0 0.0 
3.392566497973e-03 2.958748479540e-03 0.0 
2.958748479540e-03 6.997483648767e-04 0.0 
0.0 0.0 0.0 
-2.994826616267e-04 4.704163573755e-03 0.0 
4.704163573755e-03 1.036907170479e-02 0.0 
0.0 0.0 0.0 
2.551941154820e-03 3.740563255761e-03 0.0 
3.740563255761e-03 -2.830064490704e-03 0.0 
0.0 0.0 0.0 
1.001431999219e-04 -1.674874249839e-03 0.0 
-1.674874249839e-03 2.319700059951e-03 0.0 
0.0 0.0 0.0 
-3.739858128633e-04 -1.196662507251e-03 0.0 
-1.196662507251e-03 3.214513223037e-03 0.0 
0.0 0.0 0.0 
3.003500971370e-04 -2.298960246844e-03 0.0 
-2.298960246844e-03 8.340962030426e-04 0.0 
0.0 0.0 0.0 
-3.233246482693e-03 2.831479124749e-03 0.0 
2.831479124749e-03 1.345801051608e-02 0.0 
0.0 0.0 0.0 
-2.489393595798e-03 3.586375327003e-03 0.0 
3.586375327003e-03 1.352954216504e-02 0.0 
0.0 0.0 0.0 
-7.328115900238e-04 -1.189255227040e-04 0.0 
-1.189255227040e-04 4.655594440943e-03 0.0 
0.0 0.0 0.0 
1.427066167720e-03 -3.306863696222e-04 0.0 
-3.306863696222e-04 1.279710874638e-04 0.0 
0.0 0.0 0.0 
1.033705094335e-04 -6.940660101267e-04 0.0 
-6.940660101267e-04 -4.485843780817e-03 0.0 
0.0 0.0 0.0 
1.120491259592e-04 -1.912842060281e-03 0.0 
-1.912842060281e-03 8.853019657109e-04 0.0 
0.0 0.0 0.0 
-5.714708775446e-04 -1.099470876192e-03 0.0 
-1.099470876192e-03 3.199950186787e-03 0.0 
0.0 0.0 0.0 
5.007259230358e-03 -2.114001664898e-04 0.0 
-2.114001664898e-04 -3.217087016369e-03 0.0 
0.0 0.0 0.0 
4.187845537398e-03 -1.707790226221e-03 0.0 
-1.707790226221e-03 -3.151117232867e-03 0.0 
0.0 0.0 0.0 
4.811745940607e-03 -5.203278210450e-04 0.0 
-5.203278210450e-04 -3.702979801665e-03 0.0 
0.0 0.0 0.0 
-1.031461714693e-04 -1.258482082019e-03 0.0 
-1.258482082019e-03 3.068275411768e-03 0.0 
0.0 0.0 0.0 
-1.651435044531e-03 3.997241814070e-03 0.0 
3.997241814070e-03 1.221900784083e-02 0.0 
0.0 0.0 0.0 
-5.406364523262e-04 -9.500178423886e-04 0.0 
-9.500178423886e-04 3.578210161866e-03 0.0 
0.0 0.0 0.0 
5.293707261294e-03 5.418310249006e-04 0.0 
5.418310249006e-04 -3.342079037397e-03 0.0 
0.0 0.0 0.0 
4.016271238778e-04 4.725714431839e-03 0.0 
4.725714431839e-03 7.200145407755e-03 0.0 
0.0 0.0 0.0 
-2.706661626349e-03 7.615729509356e-04 0.0 
7.615729509356e-04 1.561935396448e-02 0.0 
0.0 0.0 0.0 
2.569417959393e-03 3.281371199743e-03 0.0 
3.281371199743e-03 2.439940600155e-03 0.0 
0.0 0.0 0.0 
-7.066487030030e-04 -8.473888387274e-04 0.0 
-8.473888387274e-04 3.562209616998e-03 0.0 
0.0 0.0 0.0 
-3.393566646601e-04 -1.195742151903e-03 0.0 
-1.195742151903e-03 3.059094376225e-03 0.0 
0.0 0.0 0.0 
-2.022897518943e-03 3.364479269392e-03 0.0 
3.364479269392e-03 7.542639427935e-03 0.0 
0.0 0.0 0.0 
4.662261904264e-03 -7.633911203786e-04 0.0 
-7.633911203786e-04 -3.021454100541e-03 0.0 
0.0 0.0 0.0 
-6.665663009869e-04 -7.067656879452e-04 0.0 
-7.067656879452e-04 3.893701772030e-03 0.0 
0.0 0.0 0.0 
-1.803921282442e-03 8.316324107066e-05 0.0 
8.316324107066e-05 1.631961597494e-02 0.0 
0.0 0.0 0.0 
-1.926356067005e-03 6.336616394132e-05 0.0 
6.336616394132e-05 1.600815771470e-02 0.0 
0.0 0.0 0.0 
-2.142461960022e-03 3.386430212649e-03 0.0 
3.386430212649e-03 8.349713720650e-03 0.0 
0.0 0.0 0.0 
-3.068216552103e-04 -1.028706936909e-03 0.0 
-1.028706936909e-03 3.485699385411e-03 0.0 
0.0 0.0 0.0 
3.035716786918e-03 -2.474565314697e-03 0.0 
-2.474565314697e-03 -2.260081060691e-03 0.0 
0.0 0.0 0.0 
2.617870697330e-06 4.118747927423e-03 0.0 
4.118747927423e-03 8.265214218321e-04 0.0 
0.0 0.0 0.0 
1.614470909273e-03 3.251340361684e-03 0.0 
3.251340361684e-03 4.065615062245e-03 0.0 
0.0 0.0 0.0 
-8.950996694179e-06 -2.196199484331e-03 0.0 
-2.196199484331e-03 7.660941255132e-04 0.0 
0.0 0.0 0.0 
3.027364356680e-03 -2.265891687652e-03 0.0 
-2.265891687652e-03 -1.607206582874e-03 0.0 
0.0 0.0 0.0 
3.771603013688e-03 3.142544696866e-03 0.0 
3.142544696866e-03 6.649012012838e-05 0.0 
0.0 0.0 0.0 
-2.050726452474e-03 3.067855624849e-03 0.0 
3.067855624849e-03 9.213576543405e-03 0.0 
0.0 0.0 0.0 
-8.017950195850e-04 -6.040020352030e-04 0.0 
-6.040020352030e-04 3.870236900488e-03 0.0 
0.0 0.0 0.0 
-6.533516077346e-04 -6.510482143229e-05 0.0 
-6.510482143229e-05 2.367124698152e-03 0.0 
0.0 0.0 0.0 
-3.439392006562e-03 2.762473098988e-03 0.0 
2.762473098988e-03 1.426773539875e-02 0.0 
0.0 0.0 0.0 
-5.079018255486e-04 -9.596828333255e-04 0.0 
-9.596828333255e-04 3.475176008028e-03 0.0 
0.0 0.0 0.0 
3.393798915479e-03 -1.187459095263e-03 0.0 
-1.187459095263e-03 -1.691692226177e-03 0.0 
0.0 0.0 0.0 
1.441441892582e-04 -1.662422398304e-03 0.0 
-1.662422398304e-03 2.070537355991e-03 0.0 
0.0 0.0 0.0 
-1.176321827557e-04 2.880220552009e-03 0.0 
2.880220552009e-03 -2.327705443402e-03 0.0 
0.0 0.0 0.0 
-1.212956983962e-03 1.238425188347e-04 0.0 
1.238425188347e-04 1.708329524609e-02 0.0 
0.0 0.0 0.0 
3.636217531179e-03 -1.757153185634e-03 0.0 
-1.757153185634e-03 -2.454629731501e-03 0.0 
0.0 0.0 0.0 
2.274929006078e-03 1.685939389338e-03 0.0 
1.685939389338e-03 2.138265926132e-03 0.0 
0.0 0.0 0.0 
2.367641224951e-03 3.993893023593e-03 0.0 
3.993893023593e-03 3.182632032271e-03 0.0 
0.0 0.0 0.0 
-4.684207146889e-04 -8.045388244617e-04 0.0 
-8.045388244617e-04 3.851182590772e-03 0.0 
0.0 0.0 0.0 
-6.348651869975e-04 -7.288453906776e-04 0.0 
-7.288453906776e-04 3.839394279687e-03 0.0 
0.0 0.0 0.0 
5.105517944393e-03 -2.613650076705e-04 0.0 
-2.613650076705e-04 -3.441619065384e-03 0.0 
0.0 0.0 0.0 
-5.312482622589e-04 -1.961337538723e-03 0.0 
-1.961337538723e-03 7.960617302329e-04 0.0 
0.0 0.0 0.0 
4.368476652599e-04 3.900243527660e-03 0.0 
3.900243527660e-03 -2.535026976077e-03 0.0 
0.0 0.0 0.0 
-5.931221699271e-04 -5.894997935366e-04 0.0 
-5.894997935366e-04 4.174379517449e-03 0.0 
0.0 0.0 0.0 
2.139317472065e-03 9.866816753266e-04 0.0 
9.866816753266e-04 2.031040942822e-03 0.0 
0.0 0.0 0.0 
1.910080942107e-03 -2.687090340220e-03 0.0 
-2.687090340220e-03 -1.006376340993e-03 0.0 
0.0 0.0 0.0 
6.864749171207e-04 4.692061062378e-03 0.0 
4.692061062378e-03 6.500506192654e-03 0.0 
0.0 0.0 0.0 
-6.894228767933e-04 3.918274686435e-03 0.0 
3.918274686435e-03 5.389927834050e-03 0.0 
0.0 0.0 0.0 
3.953548070190e-05 4.706678764075e-03 0.0 
4.706678764075e-03 8.225522405602e-03 0.0 
0.0 0.0 0.0 
7.978973317411e-04 1.814426982030e-04 0.0 
1.814426982030e-04 4.029511835672e-03 0.0 
0.0 0.0 0.0 
-5.486187495283e-03 -6.564522667675e-05 0.0 
-6.564522667675e-05 -2.458544063989e-03 0.0 
0.0 0.0 0.0 
0.0 3.375118724189e-04 0.0 
3.375118724189e-04 1.747567266370e-02 0.0 
0.0 0.0 0.0 
0.0 -1.641551713790e-04 0.0 
-1.641551713790e-04 6.007906547892e-03 0.0 
0.0 0.0 0.0 
-2.021872422148e-03 -3.152762600292e-05 0.0 
-3.152762600292e-05 1.539690084454e-02 0.0 
0.0 0.0 0.0 
2.521131401321e-03 -2.256904914754e-03 0.0 
-2.256904914754e-03 -1.327097977554e-03 0.0 
0.0 0.0 0.0 
2.075779985677e-03 4.273910752634e-03 0.0 
4.273910752634e-03 3.696474412727e-03 0.0 
0.0 0.0 0.0 
5.181085089643e-03 4.754615271482e-04 0.0 
4.754615271482e-04 -3.290699412047e-03 0.0 
0.0 0.0 0.0 
4.856585272022e-04 -6.807210821210e-04 0.0 
-6.807210821210e-04 7.089534959066e-04 0.0 
0.0 0.0 0.0 
-2.224904432862e-03 3.812840502106e-03 0.0 
3.812840502106e-03 1.138251952879e-03 0.0 
0.0 0.0 0.0 
-1.144996177029e-03 1.014469624702e-03 0.0 
1.014469624702e-03 1.716926778424e-02 0.0 
0.0 0.0 0.0 
-2.118253322776e-03 3.900715145902e-03 0.0 
3.900715145902e-03 1.287148295032e-02 0.0 
0.0 0.0 0.0 
-3.946207535949e-03 2.754882866992e-03 0.0 
2.754882866992e-03 1.427432756171e-02 0.0 
0.0 0.0 0.0 
4.250053364223e-04 5.047645263934e-03 0.0 
5.047645263934e-03 7.610332816611e-03 0.0 
0.0 0.0 0.0 
-2.769845802673e-04 -2.914945468986e-05 0.0 
-2.914945468986e-05 1.926648683680e-03 0.0 
0.0 0.0 0.0 
4.520536980457e-04 4.731455297392e-03 0.0 
4.731455297392e-03 7.030165145826e-03 0.0 
0.0 0.0 0.0 
-2.034477465795e-03 3.721120745782e-03 0.0 
3.721120745782e-03 1.290152553585e-02 0.0 
0.0 0.0 0.0 
1.640995196548e-03 -2.494749463584e-03 0.0 
-2.494749463584e-03 -4.266010635032e-04 0.0 
0.0 0.0 0.0 
2.320709674499e-03 4.286192666211e-03 0.0 
4.286192666211e-03 2.580457637849e-03 0.0 
0.0 0.0 0.0 
2.477052348319e-03 -2.288453442379e-03 0.0 
-2.288453442379e-03 -9.683087661941e-04 0.0 
0.0 0.0 0.0 
-5.836617643906e-05 4.037630622135e-03 0.0 
4.037630622135e-03 1.543286024834e-03 0.0 
0.0 0.0 0.0 
1.932742973828e-03 -2.501391210780e-03 0.0 
-2.501391210780e-03 -5.087649448581e-04 0.0 
0.0 0.0 0.0 
-1.256452985709e-03 4.236459034142e-03 0.0 
4.236459034142e-03 1.150742782819e-02 0.0 
0.0 0.0 0.0 
-4.370597986582e-04 -3.068918723511e-04 0.0 
-3.068918723511e-04 5.097111191651e-03 0.0 
0.0 0.0 0.0 
3.679767476147e-03 -1.875031223433e-03 0.0 
-1.875031223433e-03 -2.147004805336e-03 0.0 
0.0 0.0 0.0 
3.531951342675e-04 4.699145434287e-03 0.0 
4.699145434287e-03 7.538002460140e-03 0.0 
0.0 0.0 0.0 
-2.109661281737e-03 -2.153501987944e-04 0.0 
-2.153501987944e-04 -4.203009196862e-03 0.0 
0.0 0.0 0.0 
4.765799979934e-03 -8.719644114750e-04 0.0 
-8.719644114750e-04 -3.036648042924e-03 0.0 
0.0 0.0 0.0 
-1.899657377122e-03 3.875347643667e-03 0.0 
3.875347643667e-03 1.362697906039e-02 0.0 
0.0 0.0 0.0 
1.052025257305e-03 -2.524780137285e-03 0.0 
-2.524780137285e-03 4.484323458116e-04 0.0 
0.0 0.0 0.0 
1.376106582585e-03 -2.789534116398e-03 0.0 
-2.789534116398e-03 -4.798546301577e-04 0.0 
0.0 0.0 0.0 
2.514009179025e-03 4.092412609089e-03 0.0 
4.092412609089e-03 2.610921716208e-03 0.0 
0.0 0.0 0.0 
2.295667764732e-03 -3.136443597610e-03 0.0 
-3.136443597610e-03 -2.012627632443e-03 0.0 
0.0 0.0 0.0 
-1.812297580919e-03 3.343309921702e-03 0.0 
3.343309921702e-03 6.036601889669e-03 0.0 
0.0 0.0 0.0 
-1.957500723044e-03 3.507214984659e-03 0.0 
3.507214984659e-03 6.793345489211e-03 0.0 
0.0 0.0 0.0 
9.008683122493e-04 -2.580758375308e-03 0.0 
-2.580758375308e-03 4.330922467666e-04 0.0 
0.0 0.0 0.0 
3.295677671933e-03 -9.855475107641e-04 0.0 
-9.855475107641e-04 -1.344904157878e-03 0.0 
0.0 0.0 0.0 
3.844700924119e-03 3.426012434637e-03 0.0 
3.426012434637e-03 -5.425250168780e-04 0.0 
0.0 0.0 0.0 
4.276357699362e-04 4.682860359637e-03 0.0 
4.682860359637e-03 7.539618647364e-03 0.0 
0.0 0.0 0.0 
-3.992149410618e-04 4.697772456810e-03 0.0 
4.697772456810e-03 1.194404287709e-02 0.0 
0.0 0.0 0.0 
-1.809471557905e-03 3.175575090849e-03 0.0 
3.175575090849e-03 7.579760981552e-03 0.0 
0.0 0.0 0.0 
-1.649872787896e-03 7.246244650132e-05 0.0 
7.246244650132e-05 1.661520269102e-02 0.0 
0.0 0.0 0.0 
3.237033451478e-04 4.875500087534e-03 0.0 
4.875500087534e-03 8.786858073822e-03 0.0 
0.0 0.0 0.0 
5.270455190803e-03 4.726322402871e-04 0.0 
4.726322402871e-04 -3.656640364964e-03 0.0 
0.0 0.0 0.0 
-8.122095037491e-04 3.946838334876e-03 0.0 
3.946838334876e-03 1.263053694889e-03 0.0 
0.0 0.0 0.0 
-9.630101078678e-04 4.070397461112e-03 0.0 
4.070397461112e-03 6.206770948864e-03 0.0 
0.0 0.0 0.0 
2.953492636644e-03 -1.397657616090e-03 0.0 
-1.397657616090e-03 -1.220282078775e-03 0.0 
0.0 0.0 0.0 
-2.954194441355e-04 4.651542913272e-03 0.0 
4.651542913272e-03 9.206676961833e-03 0.0 
0.0 0.0 0.0 
3.360194893234e-03 -1.070310210275e-03 0.0 
-1.070310210275e-03 -1.272291368832e-03 0.0 
0.0 0.0 0.0 
1.606465177393e-03 3.316994590062e-03 0.0 
3.316994590062e-03 -2.250686659160e-03 0.0 
0.0 0.0 0.0 
3.038055661020e-03 -7.407003245674e-04 0.0 
-7.407003245674e-04 -7.521278209953e-04 0.0 
0.0 0.0 0.0 
-1.895609357384e-04 4.010458699054e-03 0.0 
4.010458699054e-03 2.256477726397e-03 0.0 
0.0 0.0 0.0 
4.051055822543e-03 3.098095759816e-03 0.0 
3.098095759816e-03 -4.967517943445e-04 0.0 
0.0 0.0 0.0 
3.198930077019e-03 -8.784550977453e-04 0.0 
-8.784550977453e-04 -8.357162839712e-04 0.0 
0.0 0.0 0.0 
2.621400474263e-03 4.004547953727e-03 0.0 
4.004547953727e-03 2.115690242987e-03 0.0 
0.0 0.0 0.0 
-1.966579489387e-03 2.379965947661e-04 0.0 
2.379965947661e-04 1.626593295174e-02 0.0 
0.0 0.0 0.0 
6.379676601911e-04 -2.553537367550e-03 0.0 
-2.553537367550e-03 4.305999802803e-04 0.0 
0.0 0.0 0.0 
1.503237071219e-04 4.178189430190e-03 0.0 
4.178189430190e-03 7.030551717646e-05 0.0 
0.0 0.0 0.0 
3.017862908389e-03 -5.460037700094e-04 0.0 
-5.460037700094e-04 -1.481615425928e-04 0.0 
0.0 0.0 0.0 
-2.877423053330e-04 3.957667400057e-03 0.0 
3.957667400057e-03 2.982128461502e-03 0.0 
0.0 0.0 0.0 
2.631279462502e-04 1.019544298014e-03 0.0 
1.019544298014e-03 -4.665261760264e-03 0.0 
0.0 0.0 0.0 
-7.929767002629e-04 1.744215019256e-04 0.0 
1.744215019256e-04 1.727226943564e-02 0.0 
0.0 0.0 0.0 
-1.139168931067e-03 1.446153181860e-04 0.0 
1.446153181860e-04 1.708408848754e-02 0.0 
0.0 0.0 0.0 
-4.036532329388e-04 -6.999980246705e-04 0.0 
-6.999980246705e-04 5.823182504379e-04 0.0 
0.0 0.0 0.0 
2.748654651086e-03 -3.387997363225e-04 0.0 
-3.387997363225e-04 3.916265688297e-05 0.0 
0.0 0.0 0.0 
2.051794331210e-04 -2.168920486324e-03 0.0 
-2.168920486324e-03 8.508275865515e-04 0.0 
0.0 0.0 0.0 
7.502225759892e-05 -2.151679705819e-03 0.0 
-2.151679705819e-03 1.150195871333e-03 0.0 
0.0 0.0 0.0 
3.889992826915e-04 4.725096141258e-03 0.0 
4.725096141258e-03 7.929435366180e-03 0.0 
0.0 0.0 0.0 
2.830947522860e-03 3.758726092830e-03 0.0 
3.758726092830e-03 2.148094419440e-03 0.0 
0.0 0.0 0.0 
6.984716741154e-04 4.670377079105e-03 0.0 
4.670377079105e-03 6.910961814540e-03 0.0 
0.0 0.0 0.0 
4.214278791240e-03 -1.488753329276e-03 0.0 
-1.488753329276e-03 -2.918513001560e-03 0.0 
0.0 0.0 0.0 
-2.101517830814e-03 5.300008528477e-05 0.0 
5.300008528477e-05 1.495335809835e-02 0.0 
0.0 0.0 0.0 
3.279825499973e-04 -4.501788166207e-05 0.0 
-4.501788166207e-05 4.234969992151e-03 0.0 
0.0 0.0 0.0 
-4.395355937348e-05 -1.945490332843e-03 0.0 
-1.945490332843e-03 1.083553963571e-03 0.0 
0.0 0.0 0.0 
2.418303176293e-03 1.716772651137e-03 0.0 
1.716772651137e-03 1.812820304362e-03 0.0 
0.0 0.0 0.0 
3.476312257203e-03 3.526404694813e-03 0.0 
3.526404694813e-03 5.398696899068e-04 0.0 
0.0 0.0 0.0 
1.388085561775e-04 -3.887056564328e-04 0.0 
-3.887056564328e-04 1.325408985894e-03 0.0 
0.0 0.0 0.0 
-6.947466783203e-04 4.526829119941e-03 0.0 
4.526829119941e-03 9.907100383352e-03 0.0 
0.0 0.0 0.0 
5.079983129013e-03 -1.294997737825e-04 0.0 
-1.294997737825e-04 -3.133923118528e-03 0.0 
0.0 0.0 0.0 
-4.588123897735e-04 -2.002612767769e-03 0.0 
-2.002612767769e-03 8.273389343221e-04 0.0 
0.0 0.0 0.0 
4.701643412909e-03 -1.023843098926e-03 0.0 
-1.023843098926e-03 -3.253370863749e-03 0.0 
0.0 0.0 0.0 
-7.923241419625e-04 -4.201116359380e-05 0.0 
-4.201116359380e-05 4.560503359635e-03 0.0 
0.0 0.0 0.0 
-1.307442034290e-03 4.375554263320e-03 0.0 
4.375554263320e-03 1.147559031621e-02 0.0 
0.0 0.0 0.0 
9.407414765117e-05 -2.199516248850e-03 0.0 
-2.199516248850e-03 5.818098882502e-04 0.0 
0.0 0.0 0.0 
-1.067748277378e-03 -2.874800162769e-04 0.0 
-2.874800162769e-04 3.839242865304e-03 0.0 
0.0 0.0 0.0 
6.429319772372e-05 4.715761442828e-03 0.0 
4.715761442828e-03 8.546395080071e-03 0.0 
0.0 0.0 0.0 
2.196473966380e-03 3.423041257860e-03 0.0 
3.423041257860e-03 3.359339745345e-03 0.0 
0.0 0.0 0.0 
1.419604473365e-03 -2.605290411164e-03 0.0 
-2.605290411164e-03 -3.790468236198e-05 0.0 
0.0 0.0 0.0 
-7.255694531758e-04 -3.276420241066e-04 0.0 
-3.276420241066e-04 2.361323516836e-03 0.0 
0.0 0.0 0.0 
3.621969793282e-03 3.457457219983e-03 0.0 
3.457457219983e-03 2.371317739303e-05 0.0 
0.0 0.0 0.0 
-1.867890105792e-03 -2.443427615539e-05 0.0 
-2.443427615539e-05 1.613990625277e-02 0.0 
0.0 0.0 0.0 
-2.473608180719e-04 -2.765559814582e-03 0.0 
-2.765559814582e-03 6.285570670908e-04 0.0 
0.0 0.0 0.0 
3.490001760560e-04 5.236690731584e-03 0.0 
5.236690731584e-03 8.704887959914e-03 0.0 
0.0 0.0 0.0 
-3.554838585688e-04 4.562731839332e-03 0.0 
4.562731839332e-03 1.336661692485e-02 0.0 
0.0 0.0 0.0 
-1.992336018540e-03 5.729582171112e-06 0.0 
5.729582171112e-06 1.563923866304e-02 0.0 
0.0 0.0 0.0 
-1.196186252711e-03 2.629585057207e-03 0.0 
2.629585057207e-03 1.656791482862e-02 0.0 
0.0 0.0 0.0 
-1.676838532342e-04 4.936174522734e-03 0.0 
4.936174522734e-03 1.198759846605e-02 0.0 
0.0 0.0 0.0 
4.249171783455e-03 -1.335037910576e-03 0.0 
-1.335037910576e-03 -2.535938620813e-03 0.0 
0.0 0.0 0.0 
3.061822825463e-03 -2.191179686403e-03 0.0 
-2.191179686403e-03 -2.084033602470e-03 0.0 
0.0 0.0 0.0 
1.280787593184e-03 2.361881820228e-03 0.0 
2.361881820228e-03 4.074916188137e-03 0.0 
0.0 0.0 0.0 
-1.827956615152e-03 4.918409699127e-04 0.0 
4.918409699127e-04 -4.067706847574e-03 0.0 
0.0 0.0 0.0 
-5.105779429931e-04 -1.341603747702e-04 0.0 
-1.341603747702e-04 2.156816644017e-03 0.0 
0.0 0.0 0.0 
-9.846212801234e-04 -1.908065140145e-04 0.0 
-1.908065140145e-04 3.946089105025e-03 0.0 
0.0 0.0 0.0 
1.069344258022e-03 -2.675899998359e-03 0.0 
-2.675899998359e-03 -2.239920974301e-05 0.0 
0.0 0.0 0.0 
3.626035841890e-03 -2.084330094096e-03 0.0 
-2.084330094096e-03 -2.313263471919e-03 0.0 
0.0 0.0 0.0 
-1.698638637135e-03 3.380809046441e-03 0.0 
3.380809046441e-03 4.693131433968e-03 0.0 
0.0 0.0 0.0 
-1.844829873030e-03 3.578239695955e-03 0.0 
3.578239695955e-03 5.318779106060e-03 0.0 
0.0 0.0 0.0 
-2.694389207346e-03 5.987860732221e-04 0.0 
5.987860732221e-04 1.568117279791e-02 0.0 
0.0 0.0 0.0 
4.703547162965e-03 -1.011445904175e-03 0.0 
-1.011445904175e-03 -3.313968780317e-03 0.0 
0.0 0.0 0.0 
-7.600105223623e-04 -8.060500788328e-04 0.0 
-8.060500788328e-04 2.412822154797e-03 0.0 
0.0 0.0 0.0 
2.158182488256e-03 3.858316965821e-03 0.0 
3.858316965821e-03 3.496637302198e-03 0.0 
0.0 0.0 0.0 
1.387632932013e-04 -3.892775189098e-04 0.0 
-3.892775189098e-04 5.215832039132e-03 0.0 
0.0 0.0 0.0 
2.182356381961e-04 -2.911700321766e-04 0.0 
-2.911700321766e-04 5.003245846929e-03 0.0 
0.0 0.0 0.0 
3.030264323577e-03 -1.981414864476e-03 0.0 
-1.981414864476e-03 -1.382143602931e-03 0.0 
0.0 0.0 0.0 
-2.895928674212e-03 6.740588567287e-04 0.0 
6.740588567287e-04 1.544760755733e-02 0.0 
0.0 0.0 0.0 
-2.022288479854e-03 1.280512407692e-04 0.0 
1.280512407692e-04 -3.541834355120e-03 0.0 
0.0 0.0 0.0 
-1.718765806791e-03 3.541092637116e-03 0.0 
3.541092637116e-03 3.485656378551e-03 0.0 
0.0 0.0 0.0 
1.921650456797e-03 -3.632219713537e-03 0.0 
-3.632219713537e-03 -2.630189434153e-03 0.0 
0.0 0.0 0.0 
-1.711073744506e-03 3.478852322959e-03 0.0 
3.478852322959e-03 4.073994989089e-03 0.0 
0.0 0.0 0.0 
3.289128212388e-03 3.487054542518e-03 0.0 
3.487054542518e-03 1.125492290929e-03 0.0 
0.0 0.0 0.0 
2.392443023194e-03 -2.506342757100e-03 0.0 
-2.506342757100e-03 -1.030868968387e-03 0.0 
0.0 0.0 0.0 
3.676678246811e-03 -2.055261483838e-03 0.0 
-2.055261483838e-03 -2.673307589454e-03 0.0 
0.0 0.0 0.0 
1.001313097555e-03 -3.535179461102e-03 0.0 
-3.535179461102e-03 -3.275969459664e-03 0.0 
0.0 0.0 0.0 
-9.889436050754e-04 2.742296484460e-04 0.0 
2.742296484460e-04 1.713232951006e-02 0.0 
0.0 0.0 0.0 
2.487241728243e-03 -2.484202389336e-03 0.0 
-2.484202389336e-03 -1.572825063519e-03 0.0 
0.0 0.0 0.0 
-9.395954192898e-04 1.008039935208e-03 0.0 
1.008039935208e-03 1.716902848075e-02 0.0 
0.0 0.0 0.0 
-1.397303984894e-03 3.573654761902e-04 0.0 
3.573654761902e-04 1.695711322123e-02 0.0 
0.0 0.0 0.0 
-3.835017666792e-04 4.618951612312e-04 0.0 
4.618951612312e-04 1.746314108650e-02 0.0 
0.0 0.0 0.0 
-1.458871118581e-04 -2.153386455715e-04 0.0 
-2.153386455715e-04 5.991619509452e-03 0.0 
0.0 0.0 0.0 
-2.001249059281e-03 4.583665697912e-05 0.0 
4.583665697912e-05 1.564857721266e-02 0.0 
0.0 0.0 0.0 
2.045809700070e-03 -2.530422259348e-03 0.0 
-2.530422259348e-03 -9.241379183624e-04 0.0 
0.0 0.0 0.0 
-1.712176013732e-03 3.347884824418e-03 0.0 
3.347884824418e-03 6.036809657832e-03 0.0 
0.0 0.0 0.0 
2.079745679215e-03 -2.347795559760e-03 0.0 
-2.347795559760e-03 -4.543041556091e-04 0.0 
0.0 0.0 0.0 
0.0 -4.034579980469e-04 0.0 
-4.034579980469e-04 5.443242398726e-03 0.0 
0.0 0.0 0.0 
-1.830203574585e-03 3.562294845233e-03 0.0 
3.562294845233e-03 2.336568712597e-03 0.0 
0.0 0.0 0.0 
-1.731433964486e-03 3.539845943556e-03 0.0 
3.539845943556e-03 2.897815834539e-03 0.0 
0.0 0.0 0.0 
2.173004321379e-03 2.167458576383e-03 0.0 
2.167458576383e-03 2.493477629405e-03 0.0 
0.0 0.0 0.0 
-2.390249535622e-03 3.371636233924e-04 0.0 
3.371636233924e-04 1.532476914257e-02 0.0 
0.0 0.0 0.0 
-8.512475711471e-04 6.657083793358e-04 0.0 
6.657083793358e-04 1.723404444032e-02 0.0 
0.0 0.0 0.0 
8.333828327478e-05 4.705737032513e-03 0.0 
4.705737032513e-03 8.547006483056e-03 0.0 
0.0 0.0 0.0 
1.770519168602e-03 3.640548352049e-03 0.0 
3.640548352049e-03 4.067631768017e-03 0.0 
0.0 0.0 0.0 
-7.587732284488e-04 4.653773320358e-03 0.0 
4.653773320358e-03 1.093926646695e-02 0.0 
0.0 0.0 0.0 
-2.043816272288e-03 1.764110915506e-04 0.0 
1.764110915506e-04 1.574076458325e-02 0.0 
0.0 0.0 0.0 
8.808839925631e-04 -2.733002890251e-03 0.0 
-2.733002890251e-03 3.474103472523e-05 0.0 
0.0 0.0 0.0 
1.183630785222e-03 -2.685210185797e-03 0.0 
-2.685210185797e-03 2.717588887924e-05 0.0 
0.0 0.0 0.0 
-1.713830707842e-03 1.672095389572e-04 0.0 
1.672095389572e-04 1.647595968049e-02 0.0 
0.0 0.0 0.0 
1.779130025771e-03 3.705433919597e-03 0.0 
3.705433919597e-03 4.236331607846e-03 0.0 
0.0 0.0 0.0 
-3.551097223485e-03 1.176807580431e-03 0.0 
1.176807580431e-03 1.532930356556e-02 0.0 
0.0 0.0 0.0 
-2.049481414489e-03 4.461456221659e-05 0.0 
4.461456221659e-05 1.530915730446e-02 0.0 
0.0 0.0 0.0 
-2.047912702789e-03 7.611650010358e-05 0.0 
7.611650010358e-05 1.563689887504e-02 0.0 
0.0 0.0 0.0 
-2.150029181787e-03 1.456621911112e-04 0.0 
1.456621911112e-04 1.575508650967e-02 0.0 
0.0 0.0 0.0 
2.696912542882e-03 -1.888648866991e-03 0.0 
-1.888648866991e-03 -4.064363692897e-03 0.0 
0.0 0.0 0.0 
6.583669949087e-04 -2.571748435137e-03 0.0 
-2.571748435137e-03 5.122360235223e-04 0.0 
0.0 0.0 0.0 
-8.091989590623e-04 1.511948767362e-03 0.0 
1.511948767362e-03 1.715440837498e-02 0.0 
0.0 0.0 0.0 
-2.098459625219e-03 2.561548978945e-04 0.0 
2.561548978945e-04 1.612043519364e-02 0.0 
0.0 0.0 0.0 
7.737567853028e-04 3.272600718116e-03 0.0 
3.272600718116e-03 4.909903463747e-03 0.0 
0.0 0.0 0.0 
-6.500509013313e-04 4.920081450927e-03 0.0 
4.920081450927e-03 1.185031226516e-02 0.0 
0.0 0.0 0.0 
-6.766720934251e-04 4.611391859452e-03 0.0 
4.611391859452e-03 9.891224949551e-03 0.0 
0.0 0.0 0.0 
-1.471082499553e-03 2.720309956409e-03 0.0 
2.720309956409e-03 1.633298241979e-02 0.0 
0.0 0.0 0.0 
-8.739150970274e-04 -1.071761384847e-03 0.0 
-1.071761384847e-03 2.957170185889e-03 0.0 
0.0 0.0 0.0 
-8.360938436740e-04 -1.140899974021e-03 0.0 
-1.140899974021e-03 2.705127138740e-03 0.0 
0.0 0.0 0.0 
6.892581771143e-04 -7.630675375064e-05 0.0 
-7.630675375064e-05 3.704618406654e-03 0.0 
0.0 0.0 0.0 
4.688418337797e-04 -2.042586001868e-03 0.0 
-2.042586001868e-03 -3.715478911240e-03 0.0 
0.0 0.0 0.0 
-4.611199695881e-04 -2.258487625395e-04 0.0 
-2.258487625395e-04 2.210879486439e-03 0.0 
0.0 0.0 0.0 
0.0 4.664149398115e-03 0.0 
4.664149398115e-03 7.295461854732e-03 0.0 
0.0 0.0 0.0 
7.830840574674e-04 3.870980747730e-05 0.0 
3.870980747730e-05 7.275988790441e-04 0.0 
0.0 0.0 0.0 
-2.041603335250e-03 4.985696260784e-05 0.0 
4.985696260784e-05 1.531263422717e-02 0.0 
0.0 0.0 0.0 
1.724584146760e-03 1.610535102596e-03 0.0 
1.610535102596e-03 3.100269450332e-03 0.0 
0.0 0.0 0.0 
-1.018497931667e-04 -8.937323367212e-04 0.0 
-8.937323367212e-04 5.621822503219e-04 0.0 
0.0 0.0 0.0 
1.428406230939e-03 -4.325173733719e-04 0.0 
-4.325173733719e-04 -2.314603920209e-04 0.0 
0.0 0.0 0.0 
-5.448941529359e-04 2.354762835576e-03 0.0 
2.354762835576e-03 1.685095481916e-02 0.0 
0.0 0.0 0.0 
-2.280731654544e-03 1.032581820721e-04 0.0 
1.032581820721e-04 1.499380689244e-02 0.0 
0.0 0.0 0.0 
-8.710868895605e-04 2.023276798316e-03 0.0 
2.023276798316e-03 1.692307920817e-02 0.0 
0.0 0.0 0.0 
1.319402679890e-03 2.057736689098e-03 0.0 
2.057736689098e-03 3.206044802249e-03 0.0 
0.0 0.0 0.0 
-2.256686412162e-03 8.081930816193e-05 0.0 
8.081930816193e-05 1.498686559908e-02 0.0 
0.0 0.0 0.0 
-1.831562892996e-03 6.811248825491e-04 0.0 
6.811248825491e-04 -3.479804208838e-03 0.0 
0.0 0.0 0.0 
-4.155907952942e-04 3.561785294234e-04 0.0 
3.561785294234e-04 1.738529713192e-02 0.0 
0.0 0.0 0.0 
3.629685243476e-04 -5.794850771660e-04 0.0 
-5.794850771660e-04 9.243619957131e-04 0.0 
0.0 0.0 0.0 
-9.114046845479e-04 1.669171373074e-03 0.0 
1.669171373074e-03 1.699681695561e-02 0.0 
0.0 0.0 0.0 
0.0 -4.041559514164e-04 0.0 
-4.041559514164e-04 5.646941271039e-03 0.0 
0.0 0.0 0.0 
-8.904295130973e-04 4.430548221240e-03 0.0 
4.430548221240e-03 1.324018980913e-02 0.0 
0.0 0.0 0.0 
3.545266674831e-03 -1.663086930126e-03 0.0 
-1.663086930126e-03 -4.130353525728e-03 0.0 
0.0 0.0 0.0 
-3.128583711838e-03 1.540347558289e-03 0.0 
1.540347558289e-03 1.534492558027e-02 0.0 
0.0 0.0 0.0 
-1.039286810117e-03 -6.577835469053e-04 0.0 
-6.577835469053e-04 3.078043817243e-03 0.0 
0.0 0.0 0.0 
2.174784261419e-03 3.636418131740e-03 0.0 
3.636418131740e-03 3.513213431025e-03 0.0 
0.0 0.0 0.0 
5.557928830586e-04 3.608564958568e-03 0.0 
3.608564958568e-03 5.706285352035e-03 0.0 
0.0 0.0 0.0 
-1.537321963855e-03 2.198449509614e-04 0.0 
2.198449509614e-04 1.676437093247e-02 0.0 
0.0 0.0 0.0 
6.323834447386e-04 3.162632312647e-03 0.0 
3.162632312647e-03 5.278136430672e-03 0.0 
0.0 0.0 0.0 
1.696796533873e-03 -1.700579096541e-03 0.0 
-1.700579096541e-03 -4.545956235445e-03 0.0 
0.0 0.0 0.0 
7.858398814875e-05 -4.619581096859e-04 0.0 
-4.619581096859e-04 5.065923608229e-03 0.0 
0.0 0.0 0.0 
3.329554711738e-03 -2.607350441909e-03 0.0 
-2.607350441909e-03 -2.908388022141e-03 0.0 
0.0 0.0 0.0 
5.822548949530e-04 -2.690331196882e-04 0.0 
-2.690331196882e-04 8.216990322611e-04 0.0 
0.0 0.0 0.0 
1.060029121254e-03 1.133621794956e-03 0.0 
1.133621794956e-03 3.789758062926e-03 0.0 
0.0 0.0 0.0 
-1.035174234501e-03 3.735343000557e-03 0.0 
3.735343000557e-03 1.548887298396e-02 0.0 
0.0 0.0 0.0 
-7.392622051332e-04 2.385183352086e-03 0.0 
2.385183352086e-03 1.673863883305e-02 0.0 
0.0 0.0 0.0 
-2.125167960830e-03 1.371696974672e-04 0.0 
1.371696974672e-04 1.530675001067e-02 0.0 
0.0 0.0 0.0 
-2.962362662964e-03 2.644294883846e-03 0.0 
2.644294883846e-03 1.427549996124e-02 0.0 
0.0 0.0 0.0 
1.368945096902e-05 3.904083726180e-03 0.0 
3.904083726180e-03 1.536789212675e-03 0.0 
0.0 0.0 0.0 
-3.838969028718e-04 5.224208252173e-03 0.0 
5.224208252173e-03 1.176660153008e-02 0.0 
0.0 0.0 0.0 
-9.877744643333e-04 -6.064124132263e-04 0.0 
-6.064124132263e-04 2.842111279478e-03 0.0 
0.0 0.0 0.0 
9.312879426475e-04 3.753173914037e-03 0.0 
3.753173914037e-03 -1.078285085017e-03 0.0 
0.0 0.0 0.0 
2.208485067062e-03 3.616058181970e-03 0.0 
3.616058181970e-03 3.333802114261e-03 0.0 
0.0 0.0 0.0 
-2.092586423984e-03 4.823161258137e-05 0.0 
4.823161258137e-05 1.493954361914e-02 0.0 
0.0 0.0 0.0 
-9.411968320641e-04 3.547334666467e-03 0.0 
3.547334666467e-03 1.527742934428e-02 0.0 
0.0 0.0 0.0 
-3.242905570319e-04 -4.080529388203e-07 0.0 
-4.080529388203e-07 1.750657796193e-02 0.0 
0.0 0.0 0.0 
0.0 1.621452785155e-04 0.0 
1.621452785155e-04 1.750739406781e-02 0.0 
0.0 0.0 0.0 
2.943417185572e-03 7.947868968511e-05 0.0 
7.947868968511e-05 -1.065437745883e-03 0.0 
0.0 0.0 0.0 
2.418842539567e-03 -1.379500628528e-04 0.0 
-1.379500628528e-04 -9.757206049535e-04 0.0 
0.0 0.0 0.0 
-2.044167370774e-03 -3.702366265244e-05 0.0 
-3.702366265244e-05 1.497577349289e-02 0.0 
0.0 0.0 0.0 
-2.091553239178e-03 -6.572554161138e-06 0.0 
-6.572554161138e-06 1.496225714431e-02 0.0 
0.0 0.0 0.0 
0.0 -7.793160484164e-05 0.0 
-7.793160484164e-05 6.048969562946e-03 0.0 
0.0 0.0 0.0 
-1.558632096830e-04 9.449597605262e-06 0.0 
9.449597605262e-06 6.030070367735e-03 0.0 
0.0 0.0 0.0 
2.298564096628e-03 -6.321707543844e-05 0.0 
-6.321707543844e-05 -6.634928319870e-04 0.0 
0.0 0.0 0.0 
-1.852522477499e-03 -3.538655611285e-04 0.0 
-3.538655611285e-04 -4.322539400751e-03 0.0 
0.0 0.0 0.0 
-1.416132589516e-04 -3.687978866071e-04 0.0 
-3.687978866071e-04 5.193369447569e-03 0.0 
0.0 0.0 0.0 
1.141872527210e-03 4.545709024629e-03 0.0 
4.545709024629e-03 6.095055873591e-03 0.0 
0.0 0.0 0.0 
3.901861039637e-04 -5.972448861447e-04 0.0 
-5.972448861447e-04 1.079110250695e-03 0.0 
0.0 0.0 0.0 
2.095195907932e-04 -4.236059112237e-04 0.0 
-4.236059112237e-04 4.502424032113e-03 0.0 
0.0 0.0 0.0 
-9.326636058370e-04 -1.172014682170e-04 0.0 
-1.172014682170e-04 4.153051528235e-03 0.0 
0.0 0.0 0.0 
-1.107531283551e-03 -1.445850980986e-04 0.0 
-1.445850980986e-04 3.697535797023e-03 0.0 
0.0 0.0 0.0 
-1.956302194536e-03 2.477360311432e-04 0.0 
2.477360311432e-04 1.627083702584e-02 0.0 
0.0 0.0 0.0 
8.504539897258e-04 -3.285778969555e-03 0.0 
-3.285778969555e-03 -7.379864549416e-04 0.0 
0.0 0.0 0.0 
2.540340497126e-03 3.667513982466e-03 0.0 
3.667513982466e-03 2.810721194069e-03 0.0 
0.0 0.0 0.0 
6.433630042926e-04 -6.433076735410e-04 0.0 
-6.433076735410e-04 7.316279582819e-04 0.0 
0.0 0.0 0.0 
-9.488386306266e-04 -8.184173778726e-04 0.0 
-8.184173778726e-04 3.172189681151e-03 0.0 
0.0 0.0 0.0 
-2.168574990560e-04 4.873758718030e-03 0.0 
4.873758718030e-03 1.132250939046e-02 0.0 
0.0 0.0 0.0 
-1.009388773033e-03 -6.479849428597e-06 0.0 
-6.479849428597e-06 1.719230065913e-02 0.0 
0.0 0.0 0.0 
-1.079276025456e-03 -2.519156722099e-04 0.0 
-2.519156722099e-04 3.753101626550e-03 0.0 
0.0 0.0 0.0 
-2.002283416505e-03 6.263674012311e-05 0.0 
6.263674012311e-05 1.590736361692e-02 0.0 
0.0 0.0 0.0 
6.346362763954e-04 4.997394030929e-03 0.0 
4.997394030929e-03 7.815442263326e-03 0.0 
0.0 0.0 0.0 
-4.567608642680e-04 4.763158623548e-03 0.0 
4.763158623548e-03 1.036130392327e-02 0.0 
0.0 0.0 0.0 
-5.536709848465e-04 4.666770178745e-03 0.0 
4.666770178745e-03 1.010644046610e-02 0.0 
0.0 0.0 0.0 
-2.188661830133e-03 6.239984325526e-05 0.0 
6.239984325526e-05 1.498333339518e-02 0.0 
0.0 0.0 0.0 
2.997562227253e-03 3.391048794349e-03 0.0 
3.391048794349e-03 1.837105925497e-03 0.0 
0.0 0.0 0.0 
-8.134117646029e-04 4.008180441592e-03 0.0 
4.008180441592e-03 1.434158184074e-02 0.0 
0.0 0.0 0.0 
-6.519007304675e-04 -5.405178989270e-04 0.0 
-5.405178989270e-04 2.265747215967e-03 0.0 
0.0 0.0 0.0 
-1.048241574176e-04 -6.553959094782e-04 0.0 
-6.553959094782e-04 4.190448374939e-04 0.0 
0.0 0.0 0.0 
4.790828067736e-04 4.730018797178e-03 0.0 
4.730018797178e-03 7.832366951508e-03 0.0 
0.0 0.0 0.0 
2.529101812699e-03 1.926818485591e-03 0.0 
1.926818485591e-03 1.798676498510e-03 0.0 
0.0 0.0 0.0 
8.146441979420e-04 -3.364638859003e-03 0.0 
-3.364638859003e-03 -8.892883843858e-04 0.0 
0.0 0.0 0.0 
-1.819658385279e-03 1.424477493324e-04 0.0 
1.424477493324e-04 1.649386638350e-02 0.0 
0.0 0.0 0.0 
-9.306956127642e-05 -3.579092935063e-04 0.0 
-3.579092935063e-04 5.480233739926e-03 0.0 
0.0 0.0 0.0 
9.890021865515e-04 4.480917841897e-03 0.0 
4.480917841897e-03 6.349667478032e-03 0.0 
0.0 0.0 0.0 
8.233056561242e-04 4.824577703951e-03 0.0 
4.824577703951e-03 7.135098069030e-03 0.0 
0.0 0.0 0.0 
-8.358900656722e-04 -1.327764542446e-04 0.0 
-1.327764542446e-04 4.371672365541e-03 0.0 
0.0 0.0 0.0 
-6.737579435878e-05 2.939030047443e-03 0.0 
2.939030047443e-03 -3.401087213176e-03 0.0 
0.0 0.0 0.0 
-1.686956033557e-03 3.467765255780e-03 0.0 
3.467765255780e-03 4.700849607536e-03 0.0 
0.0 0.0 0.0 
-2.927684830240e-04 3.873056506953e-03 0.0 
3.873056506953e-03 2.978826165317e-03 0.0 
0.0 0.0 0.0 
-3.165145186000e-03 1.656555694606e-03 0.0 
1.656555694606e-03 1.548028840688e-02 0.0 
0.0 0.0 0.0 
2.857610042042e-03 3.661992598362e-03 0.0 
3.661992598362e-03 1.804971375742e-03 0.0 
0.0 0.0 0.0 
-9.718458010166e-04 1.249952244824e-03 0.0 
1.249952244824e-03 1.715255280864e-02 0.0 
0.0 0.0 0.0 
7.762440118828e-04 2.452351227664e-03 0.0 
2.452351227664e-03 4.086143584935e-03 0.0 
0.0 0.0 0.0 
-8.651072632083e-04 -2.426234039583e-03 0.0 
-2.426234039583e-03 4.465526707251e-04 0.0 
0.0 0.0 0.0 
-4.386388710195e-04 -1.397547207938e-03 0.0 
-1.397547207938e-03 6.493981129301e-04 0.0 
0.0 0.0 0.0 
-1.601199789559e-03 3.567981213333e-03 0.0 
3.567981213333e-03 3.487774033354e-03 0.0 
0.0 0.0 0.0 
-1.697463442753e-03 3.642450734191e-04 0.0 
3.642450734191e-04 1.658411885519e-02 0.0 
0.0 0.0 0.0 
-7.401128942806e-04 -8.365029609057e-04 0.0 
-8.365029609057e-04 2.440092216027e-03 0.0 
0.0 0.0 0.0 
-1.208023963736e-03 3.065550109131e-03 0.0 
3.065550109131e-03 1.604354491201e-02 0.0 
0.0 0.0 0.0 
5.790895722546e-04 -2.828511794477e-04 0.0 
-2.828511794477e-04 1.014191770263e-03 0.0 
0.0 0.0 0.0 
1.517034337121e-03 2.384386374389e-03 0.0 
2.384386374389e-03 3.289131516661e-03 0.0 
0.0 0.0 0.0 
-2.446056885834e-03 4.861965641416e-04 0.0 
4.861965641416e-04 1.570296428475e-02 0.0 
0.0 0.0 0.0 
5.729628699216e-04 4.008276491720e-03 0.0 
4.008276491720e-03 5.846118444030e-03 0.0 
0.0 0.0 0.0 
1.781120684394e-03 3.939282329078e-03 0.0 
3.939282329078e-03 4.452756659995e-03 0.0 
0.0 0.0 0.0 
-3.268747900537e-03 2.151451340094e-03 0.0 
2.151451340094e-03 1.514578973741e-02 0.0 
0.0 0.0 0.0 
8.874142548714e-04 4.722353746303e-04 0.0 
4.722353746303e-04 3.906929241504e-03 0.0 
0.0 0.0 0.0 
-9.401466502748e-04 3.467611038978e-03 0.0 
3.467611038978e-03 1.581970741070e-02 0.0 
0.0 0.0 0.0 
-6.732380118761e-04 3.066482505468e-04 0.0 
3.066482505468e-04 1.739407961201e-02 0.0 
0.0 0.0 0.0 
-1.595590935929e-03 3.581879491224e-03 0.0 
3.581879491224e-03 2.337422654426e-03 0.0 
0.0 0.0 0.0 
-1.166218523288e-03 2.641908427661e-03 0.0 
2.641908427661e-03 1.633848334939e-02 0.0 
0.0 0.0 0.0 
1.635583233730e-04 5.019862165437e-03 0.0 
5.019862165437e-03 9.035431820666e-03 0.0 
0.0 0.0 0.0 
1.768430958626e-03 2.316437724253e-03 0.0 
2.316437724253e-03 3.306430982405e-03 0.0 
0.0 0.0 0.0 
1.845912625900e-03 3.880394015094e-03 0.0 
3.880394015094e-03 4.195043120369e-03 0.0 
0.0 0.0 0.0 
0.0 -2.775630699099e-04 0.0 
-2.775630699099e-04 5.133640037025e-03 0.0 
0.0 0.0 0.0 
-4.817767387291e-04 4.608681986847e-03 0.0 
4.608681986847e-03 1.011404840161e-02 0.0 
0.0 0.0 0.0 
-1.813142296474e-03 2.157614571461e-03 0.0 
2.157614571461e-03 -2.463678152155e-03 0.0 
0.0 0.0 0.0 
5.219842438113e-04 4.104168026309e-03 0.0 
4.104168026309e-03 6.754366945683e-05 0.0 
0.0 0.0 0.0 
-5.768447265406e-04 4.805189123699e-03 0.0 
4.805189123699e-03 1.114160038450e-02 0.0 
0.0 0.0 0.0 
-2.915107134386e-03 1.675726859096e-03 0.0 
1.675726859096e-03 1.557928588419e-02 0.0 
0.0 0.0 0.0 
-3.163156765521e-04 -2.747017507913e-04 0.0 
-2.747017507913e-04 5.423433411676e-03 0.0 
0.0 0.0 0.0 
1.380306723975e-03 4.011578549255e-03 0.0 
4.011578549255e-03 5.104003720890e-03 0.0 
0.0 0.0 0.0 
1.403057895131e-04 -3.446650580827e-04 0.0 
-3.446650580827e-04 4.832872922116e-03 0.0 
0.0 0.0 0.0 
-1.498434530295e-03 4.685015312914e-04 0.0 
4.685015312914e-04 1.685621975974e-02 0.0 
0.0 0.0 0.0 
5.579628952150e-04 3.715607108324e-03 0.0 
3.715607108324e-03 5.410357439040e-03 0.0 
0.0 0.0 0.0 
8.680961695191e-04 1.975117951317e-04 0.0 
1.975117951317e-04 3.453012890547e-03 0.0 
0.0 0.0 0.0 
9.745469612348e-04 3.354408310025e-04 0.0 
3.354408310025e-04 3.440269709570e-03 0.0 
0.0 0.0 0.0 
-8.632740253125e-04 -5.876924545107e-04 0.0 
-5.876924545107e-04 2.659506863851e-03 0.0 
0.0 0.0 0.0 
7.784930997978e-05 -4.501223643455e-04 0.0 
-4.501223643455e-04 5.387417280827e-03 0.0 
0.0 0.0 0.0 
-2.690306694729e-03 6.163993190168e-04 0.0 
6.163993190168e-04 1.526782308719e-02 0.0 
0.0 0.0 0.0 
-9.953000154669e-04 6.528204211823e-04 0.0 
6.528204211823e-04 1.723617609311e-02 0.0 
0.0 0.0 0.0 
-3.106594320492e-04 -1.585079694240e-03 0.0 
-1.585079694240e-03 8.303171034960e-04 0.0 
0.0 0.0 0.0 
-1.240290387996e-03 2.908614615755e-04 0.0 
2.908614615755e-04 1.713518900654e-02 0.0 
0.0 0.0 0.0 
-1.848326527733e-03 2.529842162462e-04 0.0 
2.529842162462e-04 1.650776081290e-02 0.0 
0.0 0.0 0.0 
1.551754721028e-03 8.820281829372e-05 0.0 
8.820281829372e-05 1.131605892193e-04 0.0 
0.0 0.0 0.0 
3.034894830191e-03 -2.107584916892e-03 0.0 
-2.107584916892e-03 -4.379514286206e-03 0.0 
0.0 0.0 0.0 
-1.522778011904e-04 4.721646508989e-03 0.0 
4.721646508989e-03 9.514359639697e-03 0.0 
0.0 0.0 0.0 
-5.544636172529e-04 1.807639892131e-03 0.0 
1.807639892131e-03 1.702591007110e-02 0.0 
0.0 0.0 0.0 
-8.980870117025e-04 3.145470433123e-04 0.0 
3.145470433123e-04 1.727270611035e-02 0.0 
0.0 0.0 0.0 
1.205026426193e-03 3.637681479383e-03 0.0 
3.637681479383e-03 4.867245598171e-03 0.0 
0.0 0.0 0.0 
-2.057071602780e-03 2.755456109877e-04 0.0 
2.755456109877e-04 1.593503109434e-02 0.0 
0.0 0.0 0.0 
7.151556419756e-04 -4.368782570161e-04 0.0 
-4.368782570161e-04 6.739812101175e-05 0.0 
0.0 0.0 0.0 
7.071284169755e-04 2.102007850768e-03 0.0 
2.102007850768e-03 -3.897052743099e-03 0.0 
0.0 0.0 0.0 
2.916003770566e-04 -5.836031734414e-04 0.0 
-5.836031734414e-04 2.275397509668e-04 0.0 
0.0 0.0 0.0 
-1.823851685475e-04 -1.737734777923e-03 0.0 
-1.737734777923e-03 7.924574379208e-04 0.0 
0.0 0.0 0.0 
-1.790590107548e-03 4.556704712204e-03 0.0 
4.556704712204e-03 -1.483597654549e-03 0.0 
0.0 0.0 0.0 
-1.023555597690e-03 -8.163767265709e-04 0.0 
-8.163767265709e-04 3.258769758597e-03 0.0 
0.0 0.0 0.0 
-2.798736122634e-04 -2.551159077285e-04 0.0 
-2.551159077285e-04 5.423012910966e-03 0.0 
0.0 0.0 0.0 
-7.272525523282e-04 4.487834999519e-03 0.0 
4.487834999519e-03 1.324749182182e-02 0.0 
0.0 0.0 0.0 
-3.154517460212e-03 2.789380549347e-03 0.0 
2.789380549347e-03 1.471381864607e-02 0.0 
0.0 0.0 0.0 
-7.844783579773e-04 -1.148536583066e-03 0.0 
-1.148536583066e-03 2.615788401301e-03 0.0 
0.0 0.0 0.0 
6.617000992302e-04 -1.970887671296e-04 0.0 
-1.970887671296e-04 3.746735363091e-03 0.0 
0.0 0.0 0.0 
1.709880943050e-03 1.216089838902e-03 0.0 
1.216089838902e-03 2.872413649068e-03 0.0 
0.0 0.0 0.0 
9.663888851930e-04 4.336770732833e-03 0.0 
4.336770732833e-03 6.056205172334e-03 0.0 
0.0 0.0 0.0 
3.359678839838e-04 4.777958155710e-03 0.0 
4.777958155710e-03 8.247615317844e-03 0.0 
0.0 0.0 0.0 
-4.539078984978e-05 4.841792064025e-03 0.0 
4.841792064025e-03 9.846430361506e-03 0.0 
0.0 0.0 0.0 
-3.635137816929e-04 -1.294479747796e-03 0.0 
-1.294479747796e-03 7.630499059512e-04 0.0 
0.0 0.0 0.0 
7.148016504466e-04 -1.841252114475e-03 0.0 
-1.841252114475e-03 -3.953034452226e-03 0.0 
0.0 0.0 0.0 
-2.047062763092e-04 -4.143364742720e-04 0.0 
-4.143364742720e-04 5.209721970924e-03 0.0 
0.0 0.0 0.0 
1.114084304553e-03 -1.002714229665e-04 0.0 
-1.002714229665e-04 2.582934543225e-04 0.0 
0.0 0.0 0.0 
1.151810520042e-03 -7.934333591051e-05 0.0 
-7.934333591051e-05 3.820883451338e-04 0.0 
0.0 0.0 0.0 
-9.554647490855e-04 4.030421416734e-03 0.0 
4.030421416734e-03 -5.398749921852e-04 0.0 
0.0 0.0 0.0 
3.427623254679e-04 -7.173134339177e-04 0.0 
-7.173134339177e-04 5.675112343158e-04 0.0 
0.0 0.0 0.0 
4.370870509425e-04 3.673893250279e-04 0.0 
3.673893250279e-04 3.966298008816e-03 0.0 
0.0 0.0 0.0 
-1.117873697193e-04 5.092152463133e-03 0.0 
5.092152463133e-03 1.065331086140e-02 0.0 
0.0 0.0 0.0 
-8.320788232604e-04 1.236847140635e-03 0.0 
1.236847140635e-03 1.715168157600e-02 0.0 
0.0 0.0 0.0 
4.558660794727e-04 4.294941649113e-03 0.0 
4.294941649113e-03 6.384969624426e-03 0.0 
0.0 0.0 0.0 
1.791558447569e-03 1.195834030665e-03 0.0 
1.195834030665e-03 2.415375397749e-03 0.0 
0.0 0.0 0.0 
-1.980024553645e-03 2.976608925705e-04 0.0 
2.976608925705e-04 1.612401879027e-02 0.0 
0.0 0.0 0.0 
0.0 2.483761050895e-03 0.0 
2.483761050895e-03 1.673779433733e-02 0.0 
0.0 0.0 0.0 
2.526021904739e-03 -3.296216336594e-03 0.0 
-3.296216336594e-03 -2.931706632598e-03 0.0 
0.0 0.0 0.0 
-2.148411757186e-03 9.534354489189e-05 0.0 
9.534354489189e-05 1.490734315266e-02 0.0 
0.0 0.0 0.0 
-2.980314136538e-04 -3.469257744059e-03 0.0 
-3.469257744059e-03 -7.555400846448e-05 0.0 
0.0 0.0 0.0 
1.009882962255e-03 -3.632137949922e-04 0.0 
-3.632137949922e-04 -6.602955102597e-05 0.0 
0.0 0.0 0.0 
-4.354383991256e-05 -4.431090227590e-04 0.0 
-4.431090227590e-04 5.687057863284e-03 0.0 
0.0 0.0 0.0 
-3.709145355485e-03 2.050581836045e-03 0.0 
2.050581836045e-03 1.485676155705e-02 0.0 
0.0 0.0 0.0 
1.006589023818e-03 -3.131018046859e-04 0.0 
-3.131018046859e-04 5.717996977967e-04 0.0 
0.0 0.0 0.0 
-1.077084061113e-03 -5.929704641964e-04 0.0 
-5.929704641964e-04 3.328701546184e-03 0.0 
0.0 0.0 0.0 
-1.339165375648e-04 5.337369509877e-03 0.0 
5.337369509877e-03 1.099139183630e-02 0.0 
0.0 0.0 0.0 
-1.189406981694e-03 1.712206923476e-03 0.0 
1.712206923476e-03 1.699015509081e-02 0.0 
0.0 0.0 0.0 
-5.373641455684e-04 3.744592463240e-03 0.0 
3.744592463240e-03 1.526319545956e-02 0.0 
0.0 0.0 0.0 
-7.790291829655e-04 -2.921672083991e-04 0.0 
-2.921672083991e-04 2.579768944517e-03 0.0 
0.0 0.0 0.0 
9.686998923011e-04 2.148117984666e-04 0.0 
2.148117984666e-04 -4.450221986884e-03 0.0 
0.0 0.0 0.0 
2.669918938283e-04 -3.766021099694e-04 0.0 
-3.766021099694e-04 4.682370748264e-03 0.0 
0.0 0.0 0.0 
-3.573445392426e-04 2.437035458288e-04 0.0 
2.437035458288e-04 1.749556436271e-02 0.0 
0.0 0.0 0.0 
-1.687102324496e-04 -1.288943135015e-04 0.0 
-1.288943135015e-04 6.034265156186e-03 0.0 
0.0 0.0 0.0 
-2.035932280649e-03 2.485943228061e-05 0.0 
2.485943228061e-05 1.525244146236e-02 0.0 
0.0 0.0 0.0 
1.228456879806e-03 1.388122852957e-03 0.0 
1.388122852957e-03 3.030875139657e-03 0.0 
0.0 0.0 0.0 
5.607736862503e-04 -2.750219094597e-04 0.0 
-2.750219094597e-04 8.221741379792e-04 0.0 
0.0 0.0 0.0 
-9.987200665152e-04 3.016367397499e-03 0.0 
3.016367397499e-03 1.603923225528e-02 0.0 
0.0 0.0 0.0 
8.412329362673e-04 -3.967454711789e-04 0.0 
-3.967454711789e-04 4.447822375075e-06 0.0 
0.0 0.0 0.0 
5.430554048353e-04 9.550347240431e-04 0.0 
9.550347240431e-04 3.819465618772e-03 0.0 
0.0 0.0 0.0 
-8.700810731356e-04 4.094824435213e-03 0.0 
4.094824435213e-03 1.491413900047e-02 0.0 
0.0 0.0 0.0 
3.496529362836e-04 1.281951514050e-03 0.0 
1.281951514050e-03 -4.591337494603e-03 0.0 
0.0 0.0 0.0 
1.012103993270e-03 4.485478593637e-03 0.0 
4.485478593637e-03 6.347251190151e-03 0.0 
0.0 0.0 0.0 
-1.664220640037e-03 2.923956601960e-04 0.0 
2.923956601960e-04 1.673146101528e-02 0.0 
0.0 0.0 0.0 
-4.403703328126e-04 1.332278951619e-03 0.0 
1.332278951619e-03 1.721598323153e-02 0.0 
0.0 0.0 0.0 
0.0 3.275208691735e-03 0.0 
3.275208691735e-03 5.525761473842e-03 0.0 
0.0 0.0 0.0 
-1.819515594185e-03 3.724729659850e-05 0.0 
3.724729659850e-05 1.631906539437e-02 0.0 
0.0 0.0 0.0 
-1.079301624093e-04 5.075136096998e-03 0.0 
5.075136096998e-03 1.134947900847e-02 0.0 
0.0 0.0 0.0 
-1.198864344716e-03 3.654090797256e-03 0.0 
3.654090797256e-03 1.524805992715e-02 0.0 
0.0 0.0 0.0 
-1.675576816237e-03 2.027938324813e-04 0.0 
2.027938324813e-04 1.651403200071e-02 0.0 
0.0 0.0 0.0 
-1.859499497066e-04 4.914452093365e-03 0.0 
4.914452093365e-03 1.081242456128e-02 0.0 
0.0 0.0 0.0 
-9.895495203533e-04 -6.173550784183e-04 0.0 
-6.173550784183e-04 2.898037694847e-03 0.0 
0.0 0.0 0.0 
-2.107542245003e-03 2.108503236637e-05 0.0 
2.108503236637e-05 1.496159363194e-02 0.0 
0.0 0.0 0.0 
1.033116652874e-03 4.294998545526e-03 0.0 
4.294998545526e-03 5.858600205633e-03 0.0 
0.0 0.0 0.0 
-4.452069806623e-04 1.836657376741e-04 0.0 
1.836657376741e-04 1.740331253825e-02 0.0 
0.0 0.0 0.0 
2.313988189106e-03 -2.422503128211e-05 0.0 
-2.422503128211e-05 -9.051938575532e-04 0.0 
0.0 0.0 0.0 
-2.064194351490e-03 2.773881341532e-05 0.0 
2.773881341532e-05 1.498370941272e-02 0.0 
0.0 0.0 0.0 
-2.093531732970e-04 -9.724229343496e-05 0.0 
-9.724229343496e-05 5.846349557385e-03 0.0 
0.0 0.0 0.0 
5.936032279408e-05 -8.116982367001e-04 0.0 
-8.116982367001e-04 1.187981305643e-03 0.0 
0.0 0.0 0.0 
1.808588277164e-03 1.965950758301e-03 0.0 
1.965950758301e-03 3.182668903190e-03 0.0 
0.0 0.0 0.0 
-1.155786943320e-03 4.166038039685e-03 0.0 
4.166038039685e-03 1.428626034771e-02 0.0 
0.0 0.0 0.0 
-8.132796499776e-04 1.196013311389e-03 0.0 
1.196013311389e-03 1.723319779258e-02 0.0 
0.0 0.0 0.0 
3.538666099276e-04 -5.333609745347e-04 0.0 
-5.333609745347e-04 1.096551795019e-03 0.0 
0.0 0.0 0.0 
4.231657684317e-04 4.513123660020e-03 0.0 
4.513123660020e-03 -1.982866329924e-03 0.0 
0.0 0.0 0.0 
-1.061759929403e-03 -5.696473533446e-05 0.0 
-5.696473533446e-05 3.836946521425e-03 0.0 
0.0 0.0 0.0 
-1.311944810952e-03 2.597130338958e-04 0.0 
2.597130338958e-04 1.697159434884e-02 0.0 
0.0 0.0 0.0 
-5.971982098298e-03 -2.949370172167e-04 0.0 
-2.949370172167e-04 -1.957951203905e-03 0.0 
0.0 0.0 0.0 
-5.352791761570e-04 3.162407003364e-03 0.0 
3.162407003364e-03 1.604974177497e-02 0.0 
0.0 0.0 0.0 
-1.807617439135e-03 1.373439958964e-04 0.0 
1.373439958964e-04 1.622795807344e-02 0.0 
0.0 0.0 0.0 
4.833819495338e-04 -3.378959096776e-03 0.0 
-3.378959096776e-03 -7.476400198737e-04 0.0 
0.0 0.0 0.0 
-1.961861014428e-03 1.808921279249e-04 0.0 
1.808921279249e-04 1.600567420423e-02 0.0 
0.0 0.0 0.0 
7.461064775132e-04 4.628298116584e-03 0.0 
4.628298116584e-03 6.729513116287e-03 0.0 
0.0 0.0 0.0 
-1.036003868034e-03 -1.121506870322e-04 0.0 
-1.121506870322e-04 3.935105126976e-03 0.0 
0.0 0.0 0.0 
-2.502251615049e-03 4.546558827902e-03 0.0 
4.546558827902e-03 4.618529445006e-04 0.0 
0.0 0.0 0.0 
-9.249292867842e-04 -7.903623075426e-04 0.0 
-7.903623075426e-04 2.721180179728e-03 0.0 
0.0 0.0 0.0 
-9.644959653987e-04 -7.615846776252e-04 0.0 
-7.615846776252e-04 3.491613866929e-03 0.0 
0.0 0.0 0.0 
-1.005135200634e-03 -3.567967707760e-05 0.0 
-3.567967707760e-05 4.061745430119e-03 0.0 
0.0 0.0 0.0 
1.219969058794e-03 3.644544875905e-03 0.0 
3.644544875905e-03 4.835691030660e-03 0.0 
0.0 0.0 0.0 
-1.086283037507e-03 -3.822287329952e-04 0.0 
-3.822287329952e-04 3.489440501587e-03 0.0 
0.0 0.0 0.0 
-1.030995462633e-03 -4.882313088745e-04 0.0 
-4.882313088745e-04 3.689822489248e-03 0.0 
0.0 0.0 0.0 
4.122247928426e-04 -6.864862655107e-04 0.0 
-6.864862655107e-04 3.839176085993e-04 0.0 
0.0 0.0 0.0 
2.761504925066e-04 -3.735487842974e-04 0.0 
-3.735487842974e-04 4.512628761333e-03 0.0 
0.0 0.0 0.0 
5.504220251755e-04 4.822724855640e-03 0.0 
4.822724855640e-03 7.841962877823e-03 0.0 
0.0 0.0 0.0 
1.352983198520e-03 3.887408184574e-03 0.0 
3.887408184574e-03 -2.549309294036e-03 0.0 
0.0 0.0 0.0 
-3.705738046899e-04 1.837479595117e-04 0.0 
1.837479595117e-04 1.739967815063e-02 0.0 
0.0 0.0 0.0 
-1.817331533218e-04 -7.638798066822e-05 0.0 
-7.638798066822e-05 5.839543411845e-03 0.0 
0.0 0.0 0.0 
-2.059861862425e-03 -8.328207751492e-06 0.0 
-8.328207751492e-06 1.527133933114e-02 0.0 
0.0 0.0 0.0 
-1.882497762952e-03 1.153700753013e-04 0.0 
1.153700753013e-04 1.622231330291e-02 0.0 
0.0 0.0 0.0 
-1.077786907934e-03 -5.722680580234e-04 0.0 
-5.722680580234e-04 3.510612043810e-03 0.0 
0.0 0.0 0.0 
-1.046829560169e-03 -5.723066692858e-04 0.0 
-5.723066692858e-04 3.404234605452e-03 0.0 
0.0 0.0 0.0 
-1.087256621809e-03 -3.723334997767e-04 0.0 
-3.723334997767e-04 3.616997557759e-03 0.0 
0.0 0.0 0.0 
1.959763245309e-03 2.061009320843e-03 0.0 
2.061009320843e-03 2.655085884102e-03 0.0 
0.0 0.0 0.0 
1.707184648168e-04 -2.981942097921e-03 0.0 
-2.981942097921e-03 3.885693249099e-04 0.0 
0.0 0.0 0.0 
3.171876288510e-04 5.043704846708e-03 0.0 
5.043704846708e-03 8.707288566736e-03 0.0 
0.0 0.0 0.0 
-1.993004902541e-03 8.010497392796e-05 0.0 
8.010497392796e-05 1.562068218772e-02 0.0 
0.0 0.0 0.0 
-1.042486199475e-03 3.048055935235e-03 0.0 
3.048055935235e-03 1.621938754973e-02 0.0 
0.0 0.0 0.0 
1.794420770541e-03 1.872175605296e-03 0.0 
1.872175605296e-03 2.632222767511e-03 0.0 
0.0 0.0 0.0 
-2.067883952818e-03 1.949543675626e-04 0.0 
1.949543675626e-04 1.600499254675e-02 0.0 
0.0 0.0 0.0 
-2.119731319212e-04 4.846317026729e-03 0.0 
4.846317026729e-03 1.061028369282e-02 0.0 
0.0 0.0 0.0 
1.203030495048e-03 3.694389985907e-03 0.0 
3.694389985907e-03 4.818533356228e-03 0.0 
0.0 0.0 0.0 
1.035601913944e-03 4.048310567538e-03 0.0 
4.048310567538e-03 5.615175836356e-03 0.0 
0.0 0.0 0.0 
-1.131376129709e-03 4.393376121533e-03 0.0 
4.393376121533e-03 -1.971754533867e-03 0.0 
0.0 0.0 0.0 
-3.356131261906e-04 4.878528457092e-03 0.0 
4.878528457092e-03 1.060709082569e-02 0.0 
0.0 0.0 0.0 
-4.816447424627e-05 5.140117556215e-03 0.0 
5.140117556215e-03 1.026643459969e-02 0.0 
0.0 0.0 0.0 
8.770078202907e-04 -5.731646961229e-04 0.0 
-5.731646961229e-04 2.873062688795e-04 0.0 
0.0 0.0 0.0 
-1.063900138698e-03 -5.959935687514e-04 0.0 
-5.959935687514e-04 3.306173073675e-03 0.0 
0.0 0.0 0.0 
-1.616340443241e-03 3.694094753072e-03 0.0 
3.694094753072e-03 -1.468399669275e-03 0.0 
0.0 0.0 0.0 
-3.843807549064e-04 5.103065510424e-03 0.0 
5.103065510424e-03 1.118610253222e-02 0.0 
0.0 0.0 0.0 

TENSORS element_materi_strain_plasti float
-1.278716781713e-04 2.317088785895e-03 0.0 
2.317088785895e-03 1.725589617193e-03 0.0 
0.0 0.0 -6.847362595807e-04 
-1.156199042648e-04 2.024353748068e-03 0.0 
2.024353748068e-03 1.515455915080e-03 0.0 
0.0 0.0 -5.999297189210e-04 
-1.399419419615e-03 2.869344170324e-03 0.0 
2.869344170324e-03 7.127002349296e-03 0.0 
0.0 0.0 -1.278236581085e-03 
-1.499770292198e-03 1.938127459123e-04 0.0 
1.938127459123e-04 8.462485561252e-03 0.0 
0.0 0.0 -1.255598393855e-03 
-1.590286579790e-03 5.866412250785e-04 0.0 
5.866412250785e-04 5.570411940462e-03 0.0 
0.0 0.0 -7.961861350945e-04 
9.753052699299e-04 2.049730811989e-03 0.0 
2.049730811989e-03 -7.410546550660e-04 0.0 
0.0 0.0 -1.003931206560e-04 
-1.532722360608e-03 5.037005669365e-04 0.0 
5.037005669365e-04 5.548158926813e-03 0.0 
0.0 0.0 -8.011023898636e-04 
6.217083316276e-05 2.386622999709e-03 0.0 
2.386622999709e-03 1.415043626867e-03 0.0 
0.0 0.0 -6.330919114413e-04 
-1.605315258057e-03 4.380832637376e-06 0.0 
4.380832637376e-06 5.621376957900e-03 0.0 
0.0 0.0 -7.977904104816e-04 
-1.475813289088e-03 8.034655794974e-04 0.0 
8.034655794974e-04 8.366055234102e-03 0.0 
0.0 0.0 -1.253060141438e-03 
-1.723349006480e-03 -4.463465104632e-04 0.0 
-4.463465104632e-04 5.097851564140e-03 0.0 
0.0 0.0 -1.066978692879e-03 
5.108532101030e-06 1.964113970332e-03 0.0 
1.964113970332e-03 1.245831196254e-03 0.0 
0.0 0.0 -5.361170264378e-04 
-1.727294747470e-03 -3.711696677191e-04 0.0 
-3.711696677191e-04 6.945132129710e-03 0.0 
0.0 0.0 -1.259187713256e-03 
-1.707478703098e-03 1.059006860170e-03 0.0 
1.059006860170e-03 5.791719022601e-03 0.0 
0.0 0.0 -8.526168115438e-04 
-1.560262196776e-03 -9.393570101401e-04 0.0 
-9.393570101401e-04 6.928774089182e-03 0.0 
0.0 0.0 -1.289538875031e-03 
-1.440818830272e-03 6.754770737443e-04 0.0 
6.754770737443e-04 8.548838696717e-03 0.0 
0.0 0.0 -1.285984941237e-03 
-1.662616207287e-03 5.344607310422e-04 0.0 
5.344607310422e-04 5.529033418926e-03 0.0 
0.0 0.0 -7.740676797406e-04 
7.357046437425e-05 6.570695833459e-05 0.0 
6.570695833459e-05 -7.357046437425e-05 0.0 
0.0 0.0 0.0 
-6.149932217399e-04 -2.296531181353e-04 0.0 
-2.296531181353e-04 1.902161440616e-03 0.0 
0.0 0.0 -2.776016825098e-04 
-5.498585393581e-04 -2.166839192677e-04 0.0 
-2.166839192677e-04 1.738279106343e-03 0.0 
0.0 0.0 -4.484512109716e-04 
-1.512957112042e-03 4.043623184242e-04 0.0 
4.043623184242e-04 8.437324312554e-03 0.0 
0.0 0.0 -1.250388265701e-03 
-3.873012428043e-04 2.129273940428e-03 0.0 
2.129273940428e-03 2.185606563766e-03 0.0 
0.0 0.0 -7.707022804121e-04 
-4.415956435739e-04 2.226005795527e-03 0.0 
2.226005795527e-03 2.374460708771e-03 0.0 
0.0 0.0 -8.283707422273e-04 
-4.392711161920e-04 -9.745966439416e-04 0.0 
-9.745966439416e-04 3.836297522503e-03 0.0 
0.0 0.0 -1.210372970477e-03 
-1.729903628601e-03 1.506745383258e-03 0.0 
1.506745383258e-03 5.975665893657e-03 0.0 
0.0 0.0 -9.130988374533e-04 
-1.810671457854e-03 -7.476421640110e-04 0.0 
-7.476421640110e-04 5.330964071115e-03 0.0 
0.0 0.0 -1.080045423496e-03 
-1.736477005164e-03 1.109495533801e-03 0.0 
1.109495533801e-03 4.957414051106e-03 0.0 
0.0 0.0 -7.148082707961e-04 
-9.553018808659e-04 3.102749138761e-03 0.0 
3.102749138761e-03 5.566273317297e-03 0.0 
0.0 0.0 -1.266047838742e-03 
-1.821356794347e-03 1.188786638151e-03 0.0 
1.188786638151e-03 6.013421513739e-03 0.0 
0.0 0.0 -9.113908267906e-04 
-6.554257296263e-04 -8.444129216472e-04 0.0 
-8.444129216472e-04 4.294151155513e-03 0.0 
0.0 0.0 -1.237914324842e-03 
1.345111965206e-03 -2.563071370678e-03 0.0 
-2.563071370678e-03 -3.409519374557e-04 0.0 
0.0 0.0 -4.303542976074e-04 
3.575551772738e-04 -9.432915107626e-04 0.0 
-9.432915107626e-04 3.359353657627e-04 0.0 
0.0 0.0 -1.059755802940e-04 
-1.524187206040e-03 3.047553797097e-03 0.0 
3.047553797097e-03 7.492448074924e-03 0.0 
0.0 0.0 -1.261301343383e-03 
-2.126259398598e-03 -4.008249318176e-04 0.0 
-4.008249318176e-04 6.245433906960e-03 0.0 
0.0 0.0 -1.090200430068e-03 
-1.168924377092e-03 -2.135391167217e-03 0.0 
-2.135391167217e-03 5.528728836968e-03 0.0 
0.0 0.0 -1.254989870190e-03 
-1.506183274607e-03 -1.403999252581e-03 0.0 
-1.403999252581e-03 6.695784423920e-03 0.0 
0.0 0.0 -1.314886350686e-03 
-1.405965625827e-03 -2.094418066157e-03 0.0 
-2.094418066157e-03 6.677666447639e-03 0.0 
0.0 0.0 -1.314653105918e-03 
-6.328504155879e-04 1.260189016710e-03 0.0 
1.260189016710e-03 4.185986138576e-03 0.0 
0.0 0.0 -1.264739017786e-03 
-1.486815579568e-03 -1.990720886798e-04 0.0 
-1.990720886798e-04 5.107008468447e-03 0.0 
0.0 0.0 -7.380763454961e-04 
-1.448070308282e-03 4.493602178438e-04 0.0 
4.493602178438e-04 5.173305882684e-03 0.0 
0.0 0.0 -7.371174501546e-04 
-8.280494050984e-04 2.109474212237e-03 0.0 
2.109474212237e-03 3.158688487348e-03 0.0 
0.0 0.0 -8.774464902234e-04 
-1.113239206738e-03 -1.655283581889e-03 0.0 
-1.655283581889e-03 5.115282801902e-03 0.0 
0.0 0.0 -1.280756488215e-03 
3.008174076713e-04 2.119260517804e-03 0.0 
2.119260517804e-03 8.825314744810e-04 0.0 
0.0 0.0 -5.071495209224e-04 
-1.653413400617e-03 1.159238962241e-03 0.0 
1.159238962241e-03 4.683778627350e-03 0.0 
0.0 0.0 -7.557105610435e-04 
-1.547330050851e-03 3.671214089611e-05 0.0 
3.671214089611e-05 8.340609894927e-03 0.0 
0.0 0.0 -1.212858513926e-03 
3.049695683184e-04 2.191509382836e-03 0.0 
2.191509382836e-03 9.207765491606e-04 0.0 
0.0 0.0 -5.253197646338e-04 
1.207574275293e-03 -2.365696291912e-03 0.0 
-2.365696291912e-03 -7.132596237324e-04 0.0 
0.0 0.0 -2.118491363831e-04 
-1.445646034229e-03 2.633500934319e-04 0.0 
2.633500934319e-04 8.137788974429e-03 0.0 
0.0 0.0 -1.234743356787e-03 
1.908988241954e-04 -8.061125310431e-04 0.0 
-8.061125310431e-04 -1.579045808257e-05 0.0 
0.0 0.0 -7.504644261978e-05 
-1.740092141895e-03 6.147961927965e-04 0.0 
6.147961927965e-04 5.664008038323e-03 0.0 
0.0 0.0 -8.229436299569e-04 
-6.078592580179e-04 2.220023986171e-03 0.0 
2.220023986171e-03 2.788765867991e-03 0.0 
0.0 0.0 -9.296584868968e-04 
-8.623973456416e-04 -2.162048895284e-04 0.0 
-2.162048895284e-04 2.432076766193e-03 0.0 
0.0 0.0 -4.150917825895e-04 
2.292279279293e-03 -2.762669743217e-03 0.0 
-2.762669743217e-03 -9.405005062222e-04 0.0 
0.0 0.0 -5.793337598876e-04 
-6.898259874441e-04 2.091701766161e-03 0.0 
2.091701766161e-03 2.855891423984e-03 0.0 
0.0 0.0 -8.656335400463e-04 
-1.445100174427e-03 2.379194139466e-03 0.0 
2.379194139466e-03 7.706829156199e-03 0.0 
0.0 0.0 -1.282189168212e-03 
-9.586804568965e-04 -6.913799780171e-04 0.0 
-6.913799780171e-04 2.989840683449e-03 0.0 
0.0 0.0 -7.128710764410e-04 
-6.997308059935e-04 -2.320910788817e-04 0.0 
-2.320910788817e-04 2.233925226019e-03 0.0 
0.0 0.0 -5.951090654820e-04 
-2.130460140960e-03 -2.340494849444e-04 0.0 
-2.340494849444e-04 6.282260078053e-03 0.0 
0.0 0.0 -1.087734043504e-03 
1.076454852669e-04 -7.426368379909e-04 0.0 
-7.426368379909e-04 1.194913348537e-03 0.0 
0.0 0.0 -3.122055485762e-04 
-1.457512378927e-03 3.071898754378e-04 0.0 
3.071898754378e-04 8.560769857503e-03 0.0 
0.0 0.0 -1.285320035817e-03 
0.0 0.0 0.0 
0.0 0.0 0.0 
0.0 0.0 0.0 
-5.387044635243e-04 2.656482396914e-03 0.0 
2.656482396914e-03 4.203857407929e-03 0.0 
0.0 0.0 -1.210824713543e-03 
3.439414593790e-04 2.794168595655e-03 0.0 
2.794168595655e-03 1.235314347192e-03 0.0 
0.0 0.0 -6.768239171020e-04 
2.349935129578e-03 -2.770680198001e-03 0.0 
-2.770680198001e-03 -6.796113691984e-04 0.0 
0.0 0.0 -7.158530401625e-04 
-1.671429738175e-03 -1.210022446990e-03 0.0 
-1.210022446990e-03 6.777156017206e-03 0.0 
0.0 0.0 -1.257478522087e-03 
-5.278364963199e-04 2.118194625541e-03 0.0 
2.118194625541e-03 2.531471725177e-03 0.0 
0.0 0.0 -8.587008123673e-04 
0.0 0.0 0.0 
0.0 0.0 0.0 
0.0 0.0 0.0 
-1.493925828084e-03 3.040545355870e-03 0.0 
3.040545355870e-03 7.302395090943e-03 0.0 
0.0 0.0 -1.261660853087e-03 
4.867824217369e-04 -2.505859056628e-03 0.0 
-2.505859056628e-03 8.835287678333e-04 0.0 
0.0 0.0 -5.872762241015e-04 
-1.271990412820e-03 3.214687538356e-03 0.0 
3.214687538356e-03 6.250345422673e-03 0.0 
0.0 0.0 -1.282376455277e-03 
-1.831786578585e-03 -1.075910520083e-03 0.0 
-1.075910520083e-03 5.407233681497e-03 0.0 
0.0 0.0 -1.080053202689e-03 
-1.338499280800e-03 1.682976327997e-03 0.0 
1.682976327997e-03 8.399936015446e-03 0.0 
0.0 0.0 -1.338499280800e-03 
-9.312572041143e-04 2.894697176184e-03 0.0 
2.894697176184e-03 4.910832013066e-03 0.0 
0.0 0.0 -1.232909111256e-03 
1.433784453303e-03 -9.093882019497e-05 0.0 
-9.093882019497e-05 -5.456392549777e-05 0.0 
0.0 0.0 -2.878745769087e-04 
-9.147252279940e-04 -5.669281210358e-04 0.0 
-5.669281210358e-04 2.973437083954e-03 0.0 
0.0 0.0 -8.116687730804e-04 
-1.536993954654e-03 1.126957410002e-03 0.0 
1.126957410002e-03 8.303326713538e-03 0.0 
0.0 0.0 -1.262626981217e-03 
-1.574019976009e-03 2.576738749078e-03 0.0 
2.576738749078e-03 7.875617774672e-03 0.0 
0.0 0.0 -1.265352048664e-03 
4.720058723338e-04 2.134723574062e-03 0.0 
2.134723574062e-03 6.830651359346e-04 0.0 
0.0 0.0 -4.950304321150e-04 
-3.200456338227e-04 -3.352696368382e-04 0.0 
-3.352696368382e-04 1.110105412521e-03 0.0 
0.0 0.0 -3.374836250442e-04 
5.206675697946e-04 2.217090668705e-03 0.0 
2.217090668705e-03 6.763455683265e-04 0.0 
0.0 0.0 -5.130056306233e-04 
4.804782057485e-04 -2.508358039830e-03 0.0 
-2.508358039830e-03 8.916054330170e-04 0.0 
0.0 0.0 -5.880358451852e-04 
-1.625607394925e-03 4.831506481737e-04 0.0 
4.831506481737e-04 5.291976980867e-03 0.0 
0.0 0.0 -7.918363975426e-04 
-2.908848742719e-04 2.252062443166e-03 0.0 
2.252062443166e-03 2.033636756898e-03 0.0 
0.0 0.0 -7.468936639825e-04 
-2.599695243754e-04 1.891700121758e-03 0.0 
1.891700121758e-03 1.743771242898e-03 0.0 
0.0 0.0 -6.359150222241e-04 
-1.678000531135e-03 1.594922248822e-04 0.0 
1.594922248822e-04 5.821879659601e-03 0.0 
0.0 0.0 -8.336771054075e-04 
-1.596383286677e-03 5.670740920774e-04 0.0 
5.670740920774e-04 5.789976808295e-03 0.0 
0.0 0.0 -8.358076868167e-04 
-1.951624680642e-03 -7.308270384445e-04 0.0 
-7.308270384445e-04 5.657668243585e-03 0.0 
0.0 0.0 -1.080533843704e-03 
-2.196082702137e-03 8.354918695911e-05 0.0 
8.354918695911e-05 6.184278536814e-03 0.0 
0.0 0.0 -1.059807920279e-03 
-1.525646772161e-03 2.625569910847e-03 0.0 
2.625569910847e-03 6.112973773832e-03 0.0 
0.0 0.0 -1.085941371602e-03 
-1.648645582224e-03 1.246285648401e-04 0.0 
1.246285648401e-04 5.489793155500e-03 0.0 
0.0 0.0 -7.983229688164e-04 
-1.123057724715e-05 -5.872900984588e-04 0.0 
-5.872900984588e-04 3.960725969021e-04 0.0 
0.0 0.0 -1.649322941379e-04 
-1.757846623502e-03 1.222419041867e-03 0.0 
1.222419041867e-03 5.122536551657e-03 0.0 
0.0 0.0 -7.928983479555e-04 
-1.578530100158e-03 5.920453420347e-05 0.0 
5.920453420347e-05 7.247400490716e-03 0.0 
0.0 0.0 -1.069439317440e-03 
-1.600676841679e-03 3.339381263473e-04 0.0 
3.339381263473e-04 7.321452075562e-03 0.0 
0.0 0.0 -1.046447409317e-03 
-1.502072334268e-03 1.832498170444e-03 0.0 
1.832498170444e-03 8.633609047693e-03 0.0 
0.0 0.0 -1.319970921405e-03 
-9.007094055422e-04 1.223013959388e-03 0.0 
1.223013959388e-03 4.725884480151e-03 0.0 
0.0 0.0 -1.294194962782e-03 
-1.674253522828e-03 4.484898109266e-04 0.0 
4.484898109266e-04 5.280548957068e-03 0.0 
0.0 0.0 -7.889745663688e-04 
-1.078149223135e-03 -1.912876176720e-03 0.0 
-1.912876176720e-03 5.515902141362e-03 0.0 
0.0 0.0 -1.263183913703e-03 
-1.546584036688e-03 -9.624953365827e-05 0.0 
-9.624953365827e-05 6.233353762451e-03 0.0 
0.0 0.0 -9.040008563810e-04 
1.411194399049e-04 2.915371637598e-03 0.0 
2.915371637598e-03 1.618838156256e-03 0.0 
0.0 0.0 -7.542675412120e-04 
-1.587713497171e-03 1.272120189302e-04 0.0 
1.272120189302e-04 5.375209747655e-03 0.0 
0.0 0.0 -7.643292725052e-04 
-1.604005809179e-03 -6.682657737697e-04 0.0 
-6.682657737697e-04 6.948639054056e-03 0.0 
0.0 0.0 -1.287517816355e-03 
3.542986660605e-04 2.115271012738e-03 0.0 
2.115271012738e-03 2.453989176071e-03 0.0 
0.0 0.0 -1.043751955586e-03 
-5.121197440995e-04 2.106847301720e-03 0.0 
2.106847301720e-03 4.264562002622e-03 0.0 
0.0 0.0 -1.209599240962e-03 
8.414669120651e-04 2.750323762399e-03 0.0 
2.750323762399e-03 6.433152604662e-04 0.0 
0.0 0.0 -6.363352167991e-04 
5.516999887664e-04 -2.796976242529e-03 0.0 
-2.796976242529e-03 1.148224010342e-04 0.0 
0.0 0.0 -2.856524527717e-04 
-1.904299824368e-03 -6.917450604687e-04 0.0 
-6.917450604687e-04 6.641778035438e-03 0.0 
0.0 0.0 -1.189902873528e-03 
-1.601708388107e-03 3.286250233117e-04 0.0 
3.286250233117e-04 7.722816405099e-03 0.0 
0.0 0.0 -1.108790581071e-03 
3.810766207412e-05 -6.205157488134e-04 0.0 
-6.205157488134e-04 -3.810766207413e-05 0.0 
0.0 0.0 0.0 
-1.434793545909e-03 -1.524718547292e-03 0.0 
-1.524718547292e-03 6.503522325473e-03 0.0 
0.0 0.0 -1.285127980003e-03 
-1.436465131336e-03 2.957908754166e-03 0.0 
2.957908754166e-03 5.615958785865e-03 0.0 
0.0 0.0 -1.051491716222e-03 
2.107685358584e-03 1.966346604052e-04 0.0 
1.966346604052e-04 -5.019158565474e-04 0.0 
0.0 0.0 -2.190510374322e-04 
1.208695653732e-03 2.926354061763e-03 0.0 
2.926354061763e-03 1.261066979529e-04 0.0 
0.0 0.0 -5.720581507223e-04 
-1.531499204645e-03 1.574438431832e-03 0.0 
1.574438431832e-03 4.499656748010e-03 0.0 
0.0 0.0 -7.914135736088e-04 
-9.815222315618e-04 -1.138374471426e-03 0.0 
-1.138374471426e-03 3.347141370850e-03 0.0 
0.0 0.0 -9.587991763485e-04 
2.655737035557e-04 2.419593458192e-03 0.0 
2.419593458192e-03 1.115288623384e-03 0.0 
0.0 0.0 -5.917981401168e-04 
3.744529332960e-04 2.946102748991e-03 0.0 
2.946102748991e-03 1.286129190467e-03 0.0 
0.0 0.0 -7.116780530414e-04 
-1.321847859093e-03 -1.772500593240e-03 0.0 
-1.772500593240e-03 5.826707907603e-03 0.0 
0.0 0.0 -1.283833066805e-03 
-1.525040410968e-03 2.578190730368e-04 0.0 
2.578190730368e-04 6.156621214154e-03 0.0 
0.0 0.0 -8.766975940251e-04 
5.363756903500e-04 2.629255494055e-03 0.0 
2.629255494055e-03 8.922896369145e-04 0.0 
0.0 0.0 -6.122851402562e-04 
1.683483209039e-04 -2.096310185990e-03 0.0 
-2.096310185990e-03 1.080312045122e-03 0.0 
0.0 0.0 -5.351401568681e-04 
-1.746303579404e-03 1.473532537081e-03 0.0 
1.473532537081e-03 5.178940412439e-03 0.0 
0.0 0.0 -7.744920945421e-04 
-1.517476482960e-03 1.097936493812e-04 0.0 
1.097936493812e-04 7.545801257606e-03 0.0 
0.0 0.0 -1.129288753466e-03 
5.838877050126e-04 2.764835075281e-03 0.0 
2.764835075281e-03 9.155423273699e-04 0.0 
0.0 0.0 -6.426128710211e-04 
3.893622582553e-04 1.575203385168e-03 0.0 
1.575203385168e-03 3.980592224466e-04 0.0 
0.0 0.0 -3.374663488723e-04 
-1.195366450636e-03 1.829833708586e-03 0.0 
1.829833708586e-03 3.827762851113e-03 0.0 
0.0 0.0 -8.233021825037e-04 
-1.094193203907e-03 -1.066143348073e-03 0.0 
-1.066143348073e-03 3.532112380789e-03 0.0 
0.0 0.0 -8.981558865158e-04 
-1.046482062160e-03 1.913988030913e-03 0.0 
1.913988030913e-03 3.510208918747e-03 0.0 
0.0 0.0 -8.113141688877e-04 
-1.442225258082e-03 1.605824937381e-03 0.0 
1.605824937381e-03 8.359073722744e-03 0.0 
0.0 0.0 -1.290671971449e-03 
1.101065632512e-03 2.933128537393e-03 0.0 
2.933128537393e-03 9.745442457705e-05 0.0 
0.0 0.0 -5.136514530381e-04 
-1.801548102835e-03 -7.282038970032e-04 0.0 
-7.282038970032e-04 5.288878918754e-03 0.0 
0.0 0.0 -1.060402641786e-03 
-1.486141105577e-03 5.585996661944e-04 0.0 
5.585996661944e-04 8.452622925900e-03 0.0 
0.0 0.0 -1.256690274141e-03 
-3.198454740031e-04 3.015481670953e-03 0.0 
3.015481670953e-03 2.568097898378e-03 0.0 
0.0 0.0 -9.635367533037e-04 
-1.021958554670e-03 1.956756434106e-03 0.0 
1.956756434106e-03 3.500404682426e-03 0.0 
0.0 0.0 -8.457158960689e-04 
-1.158957625686e-03 -1.674495574427e-03 0.0 
-1.674495574427e-03 5.533719249484e-03 0.0 
0.0 0.0 -1.254964138299e-03 
-1.718729624033e-03 -7.379037217155e-04 0.0 
-7.379037217155e-04 6.953664324138e-03 0.0 
0.0 0.0 -1.261070974318e-03 
-1.967620110819e-03 -6.331696876036e-04 0.0 
-6.331696876036e-04 5.669647458342e-03 0.0 
0.0 0.0 -1.061066130071e-03 
-6.061740370739e-04 3.049979969874e-03 0.0 
3.049979969874e-03 3.089302566165e-03 0.0 
0.0 0.0 -9.441827087005e-04 
-7.851765230129e-04 -1.170373150230e-03 0.0 
-1.170373150230e-03 4.916146318737e-03 0.0 
0.0 0.0 -1.270330610962e-03 
-5.043578746139e-04 2.747041251980e-03 0.0 
2.747041251980e-03 2.809200300211e-03 0.0 
0.0 0.0 -9.719555150774e-04 
-1.411040385942e-03 9.892815171228e-04 0.0 
9.892815171228e-04 8.317615504874e-03 0.0 
0.0 0.0 -1.283174495648e-03 
-1.289076372121e-03 3.481935391156e-03 0.0 
3.481935391156e-03 6.606253020577e-03 0.0 
0.0 0.0 -1.267437373369e-03 
-1.784736589840e-03 7.085096522011e-04 0.0 
7.085096522011e-04 5.733057783552e-03 0.0 
0.0 0.0 -8.543707170918e-04 
-1.586571893561e-03 5.026260166066e-04 0.0 
5.026260166066e-04 6.801986481939e-03 0.0 
0.0 0.0 -9.817831382938e-04 
-5.156399995053e-04 2.841155344974e-03 0.0 
2.841155344974e-03 2.858892473080e-03 0.0 
0.0 0.0 -9.645491798066e-04 
-8.623176927628e-04 1.998107917208e-03 0.0 
1.998107917208e-03 3.164246376073e-03 0.0 
0.0 0.0 -8.398345356346e-04 
-3.881715109885e-04 3.210536691478e-03 0.0 
3.210536691478e-03 2.805390491743e-03 0.0 
0.0 0.0 -1.009766620266e-03 
9.302504035183e-04 2.952397877038e-03 0.0 
2.952397877038e-03 6.425944529841e-04 0.0 
0.0 0.0 -6.740763670724e-04 
-1.542505755946e-03 1.216931962656e-05 0.0 
1.216931962656e-05 5.518918282905e-03 0.0 
0.0 0.0 -7.693993191400e-04 
1.440386328935e-03 3.141679147944e-03 0.0 
3.141679147944e-03 1.287757348394e-04 0.0 
0.0 0.0 -6.724980273319e-04 
1.173568897977e-04 -7.192653952147e-04 0.0 
-7.192653952147e-04 2.932653952173e-04 0.0 
0.0 0.0 -1.759809792922e-04 
-1.513364044801e-03 4.633102658988e-05 0.0 
4.633102658988e-05 5.921965621168e-03 0.0 
0.0 0.0 -8.171079392438e-04 
-4.255541535768e-04 -1.657123349734e-04 0.0 
-1.657123349734e-04 1.278602330907e-03 0.0 
0.0 0.0 -2.802839825148e-04 
-1.368206188634e-03 1.704449020245e-03 0.0 
1.704449020245e-03 4.168743630605e-03 0.0 
0.0 0.0 -8.053258742841e-04 
-1.010207907769e-03 -1.246817911064e-03 0.0 
-1.246817911064e-03 4.735746548095e-03 0.0 
0.0 0.0 -1.284796145094e-03 
7.390568671829e-04 2.553228098249e-03 0.0 
2.553228098249e-03 5.918003010214e-04 0.0 
0.0 0.0 -5.703673578019e-04 
-2.093082199977e-03 -2.605836003403e-04 0.0 
-2.605836003403e-04 5.949086090445e-03 0.0 
0.0 0.0 -1.062413871926e-03 
1.655520854684e-04 2.161371362285e-03 0.0 
2.161371362285e-03 1.103022204114e-03 0.0 
0.0 0.0 -5.436746955351e-04 
2.242015872536e-04 2.776975076431e-03 0.0 
2.776975076431e-03 2.408189383906e-03 0.0 
0.0 0.0 -1.044905595188e-03 
-1.509926535812e-03 9.806530388370e-05 0.0 
9.806530388370e-05 5.368363465218e-03 0.0 
0.0 0.0 -7.899655494116e-04 
1.682599579449e-03 2.941445331381e-03 0.0 
2.941445331381e-03 -2.715371857708e-04 0.0 
0.0 0.0 -6.047410258623e-04 
-2.057240178145e-03 -7.296543458156e-04 0.0 
-7.296543458156e-04 6.353419805029e-03 0.0 
0.0 0.0 -1.120963572432e-03 
7.939550842651e-05 -1.701837783695e-03 0.0 
-1.701837783695e-03 9.541700722220e-04 0.0 
0.0 0.0 -4.429566774208e-04 
-1.888286542342e-03 -4.078361496187e-04 0.0 
-4.078361496187e-04 6.637817436663e-03 0.0 
0.0 0.0 -1.189111243166e-03 
-1.407485654430e-03 2.291313923690e-03 0.0 
2.291313923690e-03 4.423118315057e-03 0.0 
0.0 0.0 -8.496092609019e-04 
-1.655956820216e-03 -1.430755689950e-03 0.0 
-1.430755689950e-03 6.808595235967e-03 0.0 
0.0 0.0 -1.265987209193e-03 
-1.479137566383e-03 6.125436213776e-05 0.0 
6.125436213776e-05 5.372221524286e-03 0.0 
0.0 0.0 -7.842605076999e-04 
1.138347058752e-03 2.740886700746e-03 0.0 
2.740886700746e-03 1.338850972854e-04 0.0 
0.0 0.0 -5.452423525874e-04 
-1.371065394049e-03 1.713545049238e-03 0.0 
1.713545049238e-03 4.152463321133e-03 0.0 
0.0 0.0 -7.801847948469e-04 
-1.782923268792e-03 -4.744584193542e-04 0.0 
-4.744584193542e-04 5.239530130494e-03 0.0 
0.0 0.0 -1.068702715777e-03 
1.574789883305e-04 2.145072666255e-03 0.0 
2.145072666255e-03 1.105288466408e-03 0.0 
0.0 0.0 -5.411860520308e-04 
1.917158204157e-03 2.902714119045e-03 0.0 
2.902714119045e-03 -2.818191306246e-04 0.0 
0.0 0.0 -7.008596029424e-04 
-1.624113157274e-03 6.876053139899e-05 0.0 
6.876053139899e-05 7.048361475913e-03 0.0 
0.0 0.0 -1.016465148841e-03 
-1.496185645618e-03 2.597795714976e-04 0.0 
2.597795714976e-04 5.580042956141e-03 0.0 
0.0 0.0 -7.680022369673e-04 
1.209193990119e-03 2.857448575399e-03 0.0 
2.857448575399e-03 6.945453600022e-05 0.0 
0.0 0.0 -5.479922254795e-04 
-1.208481437465e-03 1.793019710120e-03 0.0 
1.793019710120e-03 3.824789842828e-03 0.0 
0.0 0.0 -7.984459790235e-04 
-1.152184433486e-03 3.335097296693e-03 0.0 
3.335097296693e-03 5.424015752646e-03 0.0 
0.0 0.0 -1.136725521675e-03 
-1.147448492341e-03 -1.324005404889e-03 0.0 
-1.324005404889e-03 3.757906895843e-03 0.0 
0.0 0.0 -9.635001610744e-04 
-1.057040178935e-03 2.860292126594e-03 0.0 
2.860292126594e-03 5.175691718835e-03 0.0 
0.0 0.0 -1.285202198870e-03 
-1.235950081423e-03 3.387647794385e-03 0.0 
3.387647794385e-03 6.387700415223e-03 0.0 
0.0 0.0 -1.265486236287e-03 
9.281696803102e-05 2.658900655702e-03 0.0 
2.658900655702e-03 1.536267417270e-03 0.0 
0.0 0.0 -6.981790222717e-04 
-1.143109251794e-03 -9.968271358534e-04 0.0 
-9.968271358534e-04 3.727905850470e-03 0.0 
0.0 0.0 -9.933498913217e-04 
8.375618411657e-06 -4.309904929494e-04 0.0 
-4.309904929494e-04 3.045007785971e-03 0.0 
0.0 0.0 -1.152822474774e-03 
-6.877546197814e-04 2.505636337626e-03 0.0 
2.505636337626e-03 3.038701524841e-03 0.0 
0.0 0.0 -9.245708556394e-04 
1.703115487888e-04 2.091650289530e-03 0.0 
2.091650289530e-03 1.051916456575e-03 0.0 
0.0 0.0 -5.238120022987e-04 
-1.475392442541e-03 1.965496358724e-03 0.0 
1.965496358724e-03 4.467421796523e-03 0.0 
0.0 0.0 -8.137754052845e-04 
9.749921592096e-04 3.123149167265e-03 0.0 
3.123149167265e-03 7.036965901566e-04 0.0 
0.0 0.0 -7.194380354427e-04 
-1.431612767918e-03 8.458326217491e-04 0.0 
8.458326217491e-04 8.384155646033e-03 0.0 
0.0 0.0 -1.279059907835e-03 
-1.564281029058e-03 2.665406032541e-03 0.0 
2.665406032541e-03 6.081997352065e-03 0.0 
0.0 0.0 -1.060691896764e-03 
-1.994493389840e-03 -1.486147162618e-04 0.0 
-1.486147162618e-04 6.559276794178e-03 0.0 
0.0 0.0 -1.155968210243e-03 
4.093528604226e-04 2.208508467563e-03 0.0 
2.208508467563e-03 7.981291822907e-04 0.0 
0.0 0.0 -5.174923040200e-04 
2.334418016396e-03 2.579116851284e-03 0.0 
2.579116851284e-03 -5.999483228990e-04 0.0 
0.0 0.0 -7.433441543560e-04 
-1.484568773685e-03 2.868377484862e-03 0.0 
2.868377484862e-03 6.031945958818e-03 0.0 
0.0 0.0 -1.089453766084e-03 
0.0 0.0 0.0 
0.0 0.0 0.0 
0.0 0.0 0.0 
-6.877179378264e-04 2.407578529618e-03 0.0 
2.407578529618e-03 2.994584755227e-03 0.0 
0.0 0.0 -9.117638418509e-04 
1.701472924961e-04 -1.416553182353e-03 0.0 
-1.416553182353e-03 2.527445138619e-03 0.0 
0.0 0.0 -1.080675545910e-03 
7.614101656211e-04 -9.306526935755e-04 0.0 
-9.306526935755e-04 6.714955075901e-04 0.0 
0.0 0.0 -3.004177607877e-04 
-1.466695883915e-03 2.895664536321e-03 0.0 
2.895664536321e-03 7.498365973997e-03 0.0 
0.0 0.0 -1.257517519450e-03 
-1.714163728762e-03 1.976135659385e-03 0.0 
1.976135659385e-03 6.108584287411e-03 0.0 
0.0 0.0 -9.749624431058e-04 
4.925108656531e-04 -3.055158529449e-03 0.0 
-3.055158529449e-03 1.195571453177e-03 0.0 
0.0 0.0 -7.234638509273e-04 
2.687278214663e-04 -6.810653139459e-04 0.0 
-6.810653139459e-04 2.481884598028e-03 0.0 
0.0 0.0 -1.082135573043e-03 
-1.799351909415e-03 1.409259675503e-03 0.0 
1.409259675503e-03 5.578155389814e-03 0.0 
0.0 0.0 -8.259898420369e-04 
-1.801064707900e-03 1.064269352962e-03 0.0 
1.064269352962e-03 5.991738140388e-03 0.0 
0.0 0.0 -8.838609275114e-04 
-6.913788155710e-04 -1.227574140941e-03 0.0 
-1.227574140941e-03 4.246435019945e-03 0.0 
0.0 0.0 -1.237791025003e-03 
1.617016974438e-05 -2.476429670131e-03 0.0 
-2.476429670131e-03 1.553276678470e-03 0.0 
0.0 0.0 -6.726200778060e-04 
-1.931314796257e-04 3.392233640780e-03 0.0 
3.392233640780e-03 2.538226820427e-03 0.0 
0.0 0.0 -1.005040860343e-03 
-1.319730188756e-03 2.601972306617e-03 0.0 
2.601972306617e-03 4.340655659079e-03 0.0 
0.0 0.0 -8.816854262052e-04 
-1.791217628275e-03 1.648610109221e-03 0.0 
1.648610109221e-03 6.470941124492e-03 0.0 
0.0 0.0 -1.008548823165e-03 
-1.624650418518e-03 2.058268446018e-03 0.0 
2.058268446018e-03 4.841940123608e-03 0.0 
0.0 0.0 -8.379792476443e-04 
-1.489577849007e-03 1.897054155513e-03 0.0 
1.897054155513e-03 4.494677002446e-03 0.0 
0.0 0.0 -8.233332215064e-04 
9.144592983676e-04 2.103723640953e-03 0.0 
2.103723640953e-03 1.164621970286e-03 0.0 
0.0 0.0 -8.910348294228e-04 
-1.234709836901e-03 2.936622841749e-03 0.0 
2.936622841749e-03 5.525011386670e-03 0.0 
0.0 0.0 -1.105110859848e-03 
0.0 0.0 0.0 
0.0 0.0 0.0 
0.0 0.0 0.0 
5.533753092925e-05 2.321065575708e-03 0.0 
2.321065575708e-03 1.385026181291e-03 0.0 
0.0 0.0 -6.172987338087e-04 
9.775337925356e-05 2.647350784272e-03 0.0 
2.647350784272e-03 1.520581698043e-03 0.0 
0.0 0.0 -6.935721759841e-04 
-4.200121646643e-04 3.335963278249e-03 0.0 
3.335963278249e-03 2.868206010904e-03 0.0 
0.0 0.0 -9.575728814879e-04 
-1.648855317221e-03 2.317084043405e-03 0.0 
2.317084043405e-03 6.523041636329e-03 0.0 
0.0 0.0 -1.095076276885e-03 
2.058287304795e-03 2.313329836799e-03 0.0 
2.313329836799e-03 -1.214980310369e-03 0.0 
0.0 0.0 -3.614172833254e-04 
1.621278099486e-04 -1.894393997341e-03 0.0 
-1.894393997341e-03 2.355296152545e-03 0.0 
0.0 0.0 -1.043355442177e-03 
-1.517251520276e-03 -1.088769506638e-04 0.0 
-1.088769506638e-04 5.367725382565e-03 0.0 
0.0 0.0 -7.763349569542e-04 
2.071225716726e-03 2.817742222964e-03 0.0 
2.817742222964e-03 -5.830940965428e-04 0.0 
0.0 0.0 -6.377706943641e-04 
8.701785889744e-05 -2.378886716450e-03 0.0 
-2.378886716450e-03 2.268431335651e-03 0.0 
0.0 0.0 -1.006238978475e-03 
6.688501451719e-04 -8.570105726374e-04 0.0 
-8.570105726374e-04 2.508766139633e-04 0.0 
0.0 0.0 -2.227849532966e-04 
-1.684683593515e-03 2.138149817611e-03 0.0 
2.138149817611e-03 6.451465524737e-03 0.0 
0.0 0.0 -1.040010908530e-03 
1.085799585697e-03 -9.338136306232e-04 0.0 
-9.338136306232e-04 4.841625588176e-05 0.0 
0.0 0.0 -1.827119720807e-04 
1.032861128012e-04 -6.271925775052e-04 0.0 
-6.271925775052e-04 6.433353347809e-04 0.0 
0.0 0.0 -2.890002659678e-04 
4.284292636794e-04 2.188011980544e-03 0.0 
2.188011980544e-03 7.634628543711e-04 0.0 
0.0 0.0 -5.108109077359e-04 
5.217682496465e-06 -2.221552624950e-03 0.0 
-2.221552624950e-03 1.410136832977e-03 0.0 
0.0 0.0 -6.065805066316e-04 
-1.756426844714e-03 1.797081824779e-03 0.0 
1.797081824779e-03 6.815040634103e-03 0.0 
0.0 0.0 -1.073797489760e-03 
1.622101319788e-04 -2.264597495009e-03 0.0 
-2.264597495009e-03 1.173181540105e-03 0.0 
0.0 0.0 -5.723107166073e-04 
1.082074594484e-03 2.640607073619e-03 0.0 
2.640607073619e-03 2.626720583109e-04 0.0 
0.0 0.0 -5.763199940550e-04 
1.605964786137e-03 -3.583242349909e-03 0.0 
-3.583242349909e-03 -7.906667844752e-05 0.0 
0.0 0.0 -6.543849032956e-04 
-3.494454807525e-05 -1.610984925714e-03 0.0 
-1.610984925714e-03 1.099950761190e-03 0.0 
0.0 0.0 -4.564312341920e-04 
1.739023189570e-04 -2.645147422265e-04 0.0 
-2.645147422265e-04 2.696870324371e-03 0.0 
0.0 0.0 -1.117524173959e-03 
-1.429083730494e-03 2.211537082543e-03 0.0 
2.211537082543e-03 4.453302943283e-03 0.0 
0.0 0.0 -8.507820156577e-04 
-1.682802659426e-03 -8.879633472863e-04 0.0 
-8.879633472863e-04 6.796328964063e-03 0.0 
0.0 0.0 -1.256743614961e-03 
0.0 0.0 0.0 
0.0 0.0 0.0 
0.0 0.0 0.0 
1.341168508293e-03 2.860330611598e-03 0.0 
2.860330611598e-03 7.949426344501e-05 0.0 
0.0 0.0 -6.088554736019e-04 
2.068683241690e-03 2.743594093827e-03 0.0 
2.743594093827e-03 -6.076247593681e-04 0.0 
0.0 0.0 -6.261679209952e-04 
-4.650783933680e-04 2.487333802040e-03 0.0 
2.487333802040e-03 2.583809885183e-03 0.0 
0.0 0.0 -9.080277822064e-04 
3.082871487027e-04 -1.189402361213e-03 0.0 
-1.189402361213e-03 2.304624928689e-03 0.0 
0.0 0.0 -1.045235091131e-03 
-1.579554839483e-03 -1.394031692893e-03 0.0 
-1.394031692893e-03 6.678028948098e-03 0.0 
0.0 0.0 -1.275930989368e-03 
-1.684299046229e-03 2.211375405385e-03 0.0 
2.211375405385e-03 6.180161065170e-03 0.0 
0.0 0.0 -1.029499106509e-03 
2.603806802799e-03 2.336705660835e-03 0.0 
2.336705660835e-03 -7.411156882784e-04 0.0 
0.0 0.0 -7.982961919374e-04 
1.043592575535e-04 -8.852470439530e-04 0.0 
-8.852470439530e-04 2.718008520162e-03 0.0 
0.0 0.0 -1.116166892424e-03 
-1.922924089839e-03 -2.680134474821e-04 0.0 
-2.680134474821e-04 5.558845052998e-03 0.0 
0.0 0.0 -1.068822925414e-03 
-7.222094777076e-04 3.206300168432e-03 0.0 
3.206300168432e-03 3.349356457826e-03 0.0 
0.0 0.0 -9.235973587808e-04 
-1.677093997722e-03 2.220083154297e-03 0.0 
2.220083154297e-03 6.117933896180e-03 0.0 
0.0 0.0 -1.003200534345e-03 
-7.865873312168e-04 2.395249233040e-03 0.0 
2.395249233040e-03 4.693437656803e-03 0.0 
0.0 0.0 -1.239730878702e-03 
2.351260119446e-03 2.575200545511e-03 0.0 
2.575200545511e-03 -6.504486438349e-04 0.0 
0.0 0.0 -7.289192038335e-04 
9.551102574568e-04 2.654829682591e-03 0.0 
2.654829682591e-03 4.928673923672e-04 0.0 
0.0 0.0 -6.205618499245e-04 
-1.702788092325e-03 2.198389791733e-03 0.0 
2.198389791733e-03 5.173682012494e-03 0.0 
0.0 0.0 -8.662621843288e-04 
-1.465090691244e-03 1.772844143032e-03 0.0 
1.772844143032e-03 8.679771669805e-03 0.0 
0.0 0.0 -1.323568725688e-03 
-2.196076664333e-04 3.542355712652e-03 0.0 
3.542355712652e-03 2.609169075547e-03 0.0 
0.0 0.0 -9.604425725470e-04 
2.156116458846e-03 1.930277635860e-03 0.0 
1.930277635860e-03 -8.514533959833e-04 0.0 
0.0 0.0 -5.591413126556e-04 
-1.551301896676e-03 9.806982104899e-05 0.0 
9.806982104899e-05 6.010438701821e-03 0.0 
0.0 0.0 -8.293613651800e-04 
5.856186318512e-04 -2.658816906517e-03 0.0 
-2.658816906517e-03 8.548743103245e-04 0.0 
0.0 0.0 -6.173541180753e-04 
-1.598852307231e-03 2.167741205054e-03 0.0 
2.167741205054e-03 4.803959338789e-03 0.0 
0.0 0.0 -8.353017157004e-04 
2.274495282906e-03 2.779935450298e-03 0.0 
2.779935450298e-03 -7.589577722122e-04 0.0 
0.0 0.0 -6.495160760114e-04 
2.298330951285e-03 2.091471460167e-03 0.0 
2.091471460167e-03 -1.204105301713e-03 0.0 
0.0 0.0 -4.689538498166e-04 
2.194832401766e-03 -2.977249775004e-03 0.0 
-2.977249775004e-03 -1.184035248941e-03 0.0 
0.0 0.0 -4.331987797821e-04 
-1.681597496447e-03 2.058302471615e-03 0.0 
2.058302471615e-03 6.767260745606e-03 0.0 
0.0 0.0 -1.075985979751e-03 
-1.563333733845e-03 2.379244648904e-03 0.0 
2.379244648904e-03 4.793451180047e-03 0.0 
0.0 0.0 -8.585603458244e-04 
7.771067329277e-04 2.601388271392e-03 0.0 
2.601388271392e-03 5.653213737160e-04 0.0 
0.0 0.0 -5.753263314187e-04 
-1.744996038836e-03 1.710273158382e-03 0.0 
1.710273158382e-03 7.117718959599e-03 0.0 
0.0 0.0 -1.109763131677e-03 
-1.606390224900e-03 2.419672085247e-03 0.0 
2.419672085247e-03 6.148327333334e-03 0.0 
0.0 0.0 -1.057773507355e-03 
-9.992751282894e-04 3.042009890222e-03 0.0 
3.042009890222e-03 3.819168416919e-03 0.0 
0.0 0.0 -9.009204134091e-04 
-1.375955048470e-03 -1.683400062222e-03 0.0 
-1.683400062222e-03 6.152421885777e-03 0.0 
0.0 0.0 -1.288412101370e-03 
1.944327134549e-03 1.768812360803e-03 0.0 
1.768812360803e-03 -8.136324325899e-04 0.0 
0.0 0.0 -4.845834436969e-04 
-1.254552424136e-03 2.860314366234e-03 0.0 
2.860314366234e-03 4.275922517579e-03 0.0 
0.0 0.0 -8.847105569873e-04 
9.718205800213e-04 3.231436175948e-03 0.0 
3.231436175948e-03 7.715228841926e-04 0.0 
0.0 0.0 -7.471471989488e-04 
1.727666947234e-03 1.978971680572e-03 0.0 
1.978971680572e-03 -4.287431573860e-04 0.0 
0.0 0.0 -5.566816242204e-04 
2.636933750934e-03 1.964049691199e-03 0.0 
1.964049691199e-03 -1.267164226969e-03 0.0 
0.0 0.0 -5.870440816995e-04 
-1.756261579278e-03 1.027223545009e-03 0.0 
1.027223545009e-03 5.150592098184e-03 0.0 
0.0 0.0 -7.898058234521e-04 
2.669142654027e-03 2.047008583083e-03 0.0 
2.047008583083e-03 -9.582484116816e-04 0.0 
0.0 0.0 -7.332403895767e-04 
2.689606729154e-03 -1.689602510838e-03 0.0 
-1.689602510838e-03 -1.205625742808e-03 0.0 
0.0 0.0 -6.359918512911e-04 
-1.629595190705e-03 2.449686769187e-03 0.0 
2.449686769187e-03 6.117601231972e-03 0.0 
0.0 0.0 -1.032318248600e-03 
0.0 0.0 0.0 
0.0 0.0 0.0 
0.0 0.0 0.0 
-1.769475386321e-03 1.897454184282e-03 0.0 
1.897454184282e-03 5.196794091963e-03 0.0 
0.0 0.0 -8.386390795737e-04 
2.679831450569e-03 2.298078295471e-03 0.0 
2.298078295471e-03 -1.117110075304e-03 0.0 
0.0 0.0 -6.697377322564e-04 
1.525405513799e-03 2.895304825734e-03 0.0 
2.895304825734e-03 1.054559655311e-04 0.0 
0.0 0.0 -6.989406339984e-04 
2.631491351563e-03 9.404993485972e-04 0.0 
9.404993485972e-04 -1.150887457296e-03 0.0 
0.0 0.0 -6.345445261146e-04 
-1.595995973144e-03 2.618038279511e-03 0.0 
2.618038279511e-03 5.071323653385e-03 0.0 
0.0 0.0 -8.965110541436e-04 
1.511841627677e-04 -1.773057166612e-03 0.0 
-1.773057166612e-03 8.535234281834e-04 0.0 
0.0 0.0 -3.901044503889e-04 
-9.397222903951e-05 2.775799572976e-03 0.0 
2.775799572976e-03 1.950195750929e-03 0.0 
0.0 0.0 -7.955243665241e-04 
1.510533742235e-03 1.893368219128e-03 0.0 
1.893368219128e-03 -3.333023352098e-04 0.0 
0.0 0.0 -5.045277458680e-04 
-1.529633938128e-03 2.472556152499e-03 0.0 
2.472556152499e-03 4.747231259560e-03 0.0 
0.0 0.0 -8.651285257930e-04 
-1.800570073848e-03 1.187623183650e-03 0.0 
1.187623183650e-03 5.684872286068e-03 0.0 
0.0 0.0 -8.301023967811e-04 
9.558821828944e-04 1.012922103067e-03 0.0 
1.012922103067e-03 -8.983468077863e-04 0.0 
0.0 0.0 -2.465801790349e-05 
2.929345942082e-03 -7.362875197769e-04 0.0 
-7.362875197769e-04 -1.325012703078e-03 0.0 
0.0 0.0 -6.875713881444e-04 
2.465820499106e-03 -2.486373233668e-03 0.0 
-2.486373233668e-03 -9.885187097241e-04 0.0 
0.0 0.0 -6.331293383067e-04 
-1.000270138248e-04 2.665501899130e-03 0.0 
2.665501899130e-03 1.891739969722e-03 0.0 
0.0 0.0 -7.678769810987e-04 
-1.745645462288e-03 1.969965136157e-03 0.0 
1.969965136157e-03 6.177510406470e-03 0.0 
0.0 0.0 -1.000663671924e-03 
-6.743676206496e-05 2.958894746749e-03 0.0 
2.958894746749e-03 2.016036742517e-03 0.0 
0.0 0.0 -8.351142773366e-04 
2.740866472437e-03 2.036102310260e-03 0.0 
2.036102310260e-03 -1.186449683482e-03 0.0 
0.0 0.0 -6.661786238380e-04 
2.465496107494e-03 2.525824601176e-03 0.0 
2.525824601176e-03 -9.322172367962e-04 0.0 
0.0 0.0 -6.571195160133e-04 
1.273787981714e-03 8.615297331710e-04 0.0 
8.615297331710e-04 -7.497623681705e-04 0.0 
0.0 0.0 -2.245824058045e-04 
1.142131131016e-03 2.936542087170e-03 0.0 
2.936542087170e-03 2.802751358821e-04 0.0 
0.0 0.0 -6.096026858133e-04 
8.727535464250e-04 2.453256376776e-03 0.0 
2.453256376776e-03 4.670237874706e-04 0.0 
0.0 0.0 -5.741902859552e-04 
-1.475760748405e-03 2.695142501196e-03 0.0 
2.695142501196e-03 8.197923622284e-03 0.0 
0.0 0.0 -1.321446319728e-03 
-1.492107186378e-03 3.030650340964e-03 0.0 
3.030650340964e-03 7.905007360297e-03 0.0 
0.0 0.0 -1.318029376683e-03 
-1.178085073701e-05 3.500120593452e-03 0.0 
3.500120593452e-03 2.258084084144e-03 0.0 
0.0 0.0 -9.627013857460e-04 
2.548877331085e-03 2.529452683065e-03 0.0 
2.529452683065e-03 -1.024625724028e-03 0.0 
0.0 0.0 -6.532506887387e-04 
1.850654072594e-03 2.843628912083e-03 0.0 
2.843628912083e-03 -1.310735320691e-04 0.0 
0.0 0.0 -7.369630887965e-04 
-1.088841516862e-03 3.167027765780e-03 0.0 
3.167027765780e-03 4.070335559596e-03 0.0 
0.0 0.0 -9.333628341409e-04 
2.340427504556e-03 2.434956062557e-03 0.0 
2.434956062557e-03 -5.727957500432e-04 0.0 
0.0 0.0 -7.575564662197e-04 
2.682095355776e-03 -1.550453496673e-03 0.0 
-1.550453496673e-03 -1.096738406614e-03 0.0 
0.0 0.0 -6.794386924979e-04 
-6.843102871119e-04 3.138323977980e-03 0.0 
3.138323977980e-03 3.288670793621e-03 0.0 
0.0 0.0 -9.652881140700e-04 
-1.560571318974e-03 1.068024078019e-03 0.0 
1.068024078019e-03 8.561491499252e-03 0.0 
0.0 0.0 -1.266640259566e-03 
2.402271625794e-03 2.610626999267e-03 0.0 
2.610626999267e-03 -8.722989033853e-04 0.0 
0.0 0.0 -6.557025953181e-04 
6.813860835502e-04 2.812347985425e-03 0.0 
2.812347985425e-03 1.059490988612e-03 0.0 
0.0 0.0 -7.460901737839e-04 
1.236363456041e-03 2.703241249809e-03 0.0 
2.703241249809e-03 7.838624202409e-05 0.0 
0.0 0.0 -5.634641563138e-04 
-9.652389989341e-04 -6.720183629338e-04 0.0 
-6.720183629338e-04 5.271242622276e-03 0.0 
0.0 0.0 -1.322863172658e-03 
2.098067576592e-03 2.923737740925e-03 0.0 
2.923737740925e-03 -6.205768400508e-04 0.0 
0.0 0.0 -6.332103156605e-04 
-5.055876985533e-04 3.367364034790e-03 0.0 
3.367364034790e-03 3.063510178626e-03 0.0 
0.0 0.0 -9.919420460789e-04 
1.879903345484e-03 1.255087970799e-03 0.0 
1.255087970799e-03 -1.207356077200e-03 0.0 
0.0 0.0 -2.882345435504e-04 
1.114970489587e-03 -6.571475029199e-04 0.0 
-6.571475029199e-04 3.550721468189e-04 0.0 
0.0 0.0 -6.300182727452e-04 
2.369471702773e-03 2.352310472614e-03 0.0 
2.352310472614e-03 -9.003050297678e-04 0.0 
0.0 0.0 -6.296428598595e-04 
2.511210871122e-03 -2.213592529972e-03 0.0 
-2.213592529972e-03 -7.926901794877e-04 0.0 
0.0 0.0 -7.365088678434e-04 
-1.351376459572e-03 2.550480813182e-03 0.0 
2.550480813182e-03 4.385207787700e-03 0.0 
0.0 0.0 -8.710486452961e-04 
-1.397658873592e-03 3.467085405935e-03 0.0 
3.467085405935e-03 7.331557043367e-03 0.0 
0.0 0.0 -1.324865334549e-03 
2.762976518654e-03 2.129275318385e-03 0.0 
2.129275318385e-03 -1.188719051590e-03 0.0 
0.0 0.0 -6.746817715991e-04 
1.650992187785e-03 1.271809720393e-03 0.0 
1.271809720393e-03 -3.513789338484e-04 0.0 
0.0 0.0 -5.569771088299e-04 
1.383242402169e-03 2.669272504238e-03 0.0 
2.669272504238e-03 1.108605796806e-04 0.0 
0.0 0.0 -6.403298493639e-04 
-1.712702943967e-03 1.199021659258e-03 0.0 
1.199021659258e-03 6.429834953111e-03 0.0 
0.0 0.0 -9.576894438039e-04 
2.851085176734e-04 -1.709536430844e-03 0.0 
-1.709536430844e-03 2.195876444368e-03 0.0 
0.0 0.0 -1.008345180213e-03 
7.579314461175e-04 2.705809604616e-03 0.0 
2.705809604616e-03 6.993839864940e-04 0.0 
0.0 0.0 -6.245637568335e-04 
-1.777734376668e-03 7.086825961679e-04 0.0 
7.086825961679e-04 6.354608604567e-03 0.0 
0.0 0.0 -9.257128893455e-04 
-1.277191206466e-03 3.589282529004e-03 0.0 
3.589282529004e-03 6.665823351058e-03 0.0 
0.0 0.0 -1.322580803729e-03 
1.403185707491e-06 -1.439264409054e-03 0.0 
-1.439264409054e-03 2.848558759865e-03 0.0 
0.0 0.0 -1.075861678316e-03 
-1.430658668499e-03 3.358596416292e-03 0.0 
3.358596416292e-03 7.549163922134e-03 0.0 
0.0 0.0 -1.322091174222e-03 
-1.793445118784e-03 9.356262614995e-04 0.0 
9.356262614995e-04 6.204769543778e-03 0.0 
0.0 0.0 -9.196498359204e-04 
-1.442068331431e-03 2.746821175537e-03 0.0 
2.746821175537e-03 5.682562585269e-03 0.0 
0.0 0.0 -1.048263655743e-03 
5.998084775859e-04 2.508005665207e-03 0.0 
2.508005665207e-03 7.531788584781e-04 0.0 
0.0 0.0 -5.798517154560e-04 
-1.223045542115e-03 2.387086346015e-03 0.0 
2.387086346015e-03 4.064515837256e-03 0.0 
0.0 0.0 -8.681697709544e-04 
-1.209389184573e-03 2.902758957536e-03 0.0 
2.902758957536e-03 4.217242041572e-03 0.0 
0.0 0.0 -9.102795160361e-04 
-1.488840206319e-03 2.679198250696e-03 0.0 
2.679198250696e-03 4.716368235080e-03 0.0 
0.0 0.0 -8.732807453983e-04 
1.119499660130e-04 3.567291341735e-03 0.0 
3.567291341735e-03 2.082472498151e-03 0.0 
0.0 0.0 -9.404667703562e-04 
-1.189299144518e-03 3.334584496646e-03 0.0 
3.334584496646e-03 6.217817091132e-03 0.0 
0.0 0.0 -1.322334986692e-03 
-1.743738005580e-03 1.571409251216e-03 0.0 
1.571409251216e-03 5.783273679231e-03 0.0 
0.0 0.0 -8.810748613436e-04 
-1.668503733379e-03 1.747174983457e-03 0.0 
1.747174983457e-03 4.858766838357e-03 0.0 
0.0 0.0 -8.123974380148e-04 
2.689502468919e-03 2.075432867186e-03 0.0 
2.075432867186e-03 -9.257907609435e-04 0.0 
0.0 0.0 -7.558764462751e-04 
-2.431074983303e-05 -1.913003925140e-03 0.0 
-1.913003925140e-03 1.267148434552e-03 0.0 
0.0 0.0 -5.326447220222e-04 
-1.300250353668e-03 2.028546891134e-03 0.0 
2.028546891134e-03 4.120204910714e-03 0.0 
0.0 0.0 -8.415228793236e-04 
1.029960534553e-03 2.697834854064e-03 0.0 
2.697834854064e-03 2.742713854926e-04 0.0 
0.0 0.0 -5.589565371624e-04 
-1.478386704748e-03 4.206789908739e-05 0.0 
4.206789908739e-05 5.616715806328e-03 0.0 
0.0 0.0 -7.696142143080e-04 
2.082223251132e-03 -2.739881630323e-03 0.0 
-2.739881630323e-03 -6.915223042800e-04 0.0 
0.0 0.0 -5.960146915079e-04 
2.687145576905e-03 2.150944824992e-03 0.0 
2.150944824992e-03 -8.619858571998e-04 0.0 
0.0 0.0 -7.822113084450e-04 
-1.642192723937e-03 2.370627921536e-03 0.0 
2.370627921536e-03 6.463774212935e-03 0.0 
0.0 0.0 -1.069052450572e-03 
1.210732016110e-03 2.901093481449e-03 0.0 
2.901093481449e-03 3.403089247521e-04 0.0 
0.0 0.0 -6.647318317980e-04 
-1.090838761359e-03 2.744646813510e-03 0.0 
2.744646813510e-03 3.916911857046e-03 0.0 
0.0 0.0 -9.030726692333e-04 
1.373131851669e-03 1.385595291722e-03 0.0 
1.385595291722e-03 -2.069114301952e-04 0.0 
0.0 0.0 -4.998087520603e-04 
5.484712090762e-04 -3.075676285272e-03 0.0 
-3.075676285272e-03 1.137788810983e-03 0.0 
0.0 0.0 -7.226828657397e-04 
-1.016387097360e-03 2.517297286892e-03 0.0 
2.517297286892e-03 5.594754578216e-03 0.0 
0.0 0.0 -1.324762665914e-03 
-9.072903591933e-04 2.355207703591e-03 0.0 
2.355207703591e-03 3.405907050817e-03 0.0 
0.0 0.0 -8.881387192877e-04 
2.946142820410e-03 1.617684650386e-04 0.0 
1.617684650386e-04 -1.452636572549e-03 0.0 
0.0 0.0 -6.400741062262e-04 
6.309307785542e-04 -2.673296576986e-03 0.0 
-2.673296576986e-03 8.118285156915e-04 0.0 
0.0 0.0 -6.183254118196e-04 
2.654857369397e-04 2.566176722282e-03 0.0 
2.566176722282e-03 1.206224560431e-03 0.0 
0.0 0.0 -6.307329845874e-04 
6.292944620548e-04 2.356029893105e-03 0.0 
2.356029893105e-03 6.393485700988e-04 0.0 
0.0 0.0 -5.437041566372e-04 
-1.573343830476e-03 2.521088319541e-03 0.0 
2.521088319541e-03 6.487888532466e-03 0.0 
0.0 0.0 -1.123886314723e-03 
-8.643744592464e-04 3.301393799564e-03 0.0 
3.301393799564e-03 3.642299074364e-03 0.0 
0.0 0.0 -9.055216267950e-04 
-4.630807398905e-04 2.550759047776e-03 0.0 
2.550759047776e-03 2.616100997212e-03 0.0 
0.0 0.0 -9.227229674235e-04 
-9.883417377340e-04 2.554278731018e-03 0.0 
2.554278731018e-03 3.636783780997e-03 0.0 
0.0 0.0 -8.916891917129e-04 
-9.188251607234e-04 7.915048635257e-04 0.0 
7.915048635257e-04 5.164894119245e-03 0.0 
0.0 0.0 -1.320675234999e-03 
-5.234519663279e-04 8.018217957374e-04 0.0 
8.018217957374e-04 4.358356351167e-03 0.0 
0.0 0.0 -1.258064670439e-03 
-1.519847497081e-03 2.784288839478e-03 0.0 
2.784288839478e-03 6.420730520918e-03 0.0 
0.0 0.0 -1.126590436115e-03 
-1.758421539440e-03 1.881967215149e-03 0.0 
1.881967215149e-03 6.509172932200e-03 0.0 
0.0 0.0 -1.037522200811e-03 
7.328240466091e-04 -2.682401726123e-03 0.0 
-2.682401726123e-03 7.115913620792e-04 0.0 
0.0 0.0 -6.190351751521e-04 
1.760096404852e-04 3.185483329578e-03 0.0 
3.185483329578e-03 1.733233248228e-03 0.0 
0.0 0.0 -8.182469523055e-04 
2.700024770010e-03 1.747528214601e-03 0.0 
1.747528214601e-03 -9.576266826323e-04 0.0 
0.0 0.0 -7.467420374474e-04 
2.935361494200e-03 1.596241168019e-03 0.0 
1.596241168019e-03 -1.073012164550e-03 0.0 
0.0 0.0 -7.981497127072e-04 
-5.548455542571e-04 3.454533405249e-03 0.0 
3.454533405249e-03 3.132006875912e-03 0.0 
0.0 0.0 -9.270064166112e-04 
1.279127165458e-03 -9.870557535994e-04 0.0 
-9.870557535994e-04 -3.854326390960e-05 0.0 
0.0 0.0 -5.316788149495e-04 
-4.227815079073e-04 -2.784371059583e-03 0.0 
-2.784371059583e-03 2.659310912429e-03 0.0 
0.0 0.0 -9.585126019377e-04 
-1.599277265462e-03 2.517332469059e-03 0.0 
2.517332469059e-03 6.812542085539e-03 0.0 
0.0 0.0 -1.134236807130e-03 
2.838543821024e-03 -9.388703813827e-04 0.0 
-9.388703813827e-04 -1.339013732820e-03 0.0 
0.0 0.0 -6.426557520871e-04 
4.165970448057e-04 3.486050932692e-03 0.0 
3.486050932692e-03 1.558675942698e-03 0.0 
0.0 0.0 -8.465455660731e-04 
-9.570428297717e-04 3.028568391790e-03 0.0 
3.028568391790e-03 3.758744006407e-03 0.0 
0.0 0.0 -9.331417602438e-04 
4.382192218767e-04 3.304842555304e-03 0.0 
3.304842555304e-03 1.417845423766e-03 0.0 
0.0 0.0 -7.954562767040e-04 
-1.443236035943e-03 3.221098478814e-03 0.0 
3.221098478814e-03 7.736365815094e-03 0.0 
0.0 0.0 -1.320088186226e-03 
-1.483693740833e-03 2.932428243371e-03 0.0 
2.932428243371e-03 8.049345893719e-03 0.0 
0.0 0.0 -1.318462653075e-03 
-1.548932721531e-03 2.525807133433e-03 0.0 
2.525807133433e-03 7.540510939249e-03 0.0 
0.0 0.0 -1.256494544188e-03 
5.199835747165e-04 -2.886590158864e-03 0.0 
-2.886590158864e-03 1.061442334883e-03 0.0 
0.0 0.0 -6.777539612569e-04 
-1.663138327388e-03 1.991577787862e-03 0.0 
1.991577787862e-03 7.067165816428e-03 0.0 
0.0 0.0 -1.112065035246e-03 
8.530770766536e-04 2.505748462956e-03 0.0 
2.505748462956e-03 4.288710739428e-04 0.0 
0.0 0.0 -5.494063502556e-04 
2.976026969438e-03 1.471613804293e-03 0.0 
1.471613804293e-03 -1.145802400427e-03 0.0 
0.0 0.0 -7.843819581477e-04 
2.176227096681e-03 9.823823306462e-04 0.0 
9.823823306462e-04 -1.042597419614e-03 0.0 
0.0 0.0 -4.858412901716e-04 
-2.813268701102e-04 2.910442502919e-03 0.0 
2.910442502919e-03 2.419195128745e-03 0.0 
0.0 0.0 -9.162292537005e-04 
-1.720195429854e-03 7.985877951349e-04 0.0 
7.985877951349e-04 5.205169340213e-03 0.0 
0.0 0.0 -7.914980036671e-04 
-1.719905413863e-03 1.237364143320e-03 0.0 
1.237364143320e-03 6.165155044144e-03 0.0 
0.0 0.0 -9.214502702889e-04 
-6.210179595173e-04 -4.728660276610e-04 0.0 
-4.728660276610e-04 4.588006840987e-03 0.0 
0.0 0.0 -1.265403586923e-03 
-1.395878555712e-03 3.050861695832e-03 0.0 
3.050861695832e-03 5.954496201824e-03 0.0 
0.0 0.0 -1.117224974728e-03 
-1.665465805844e-03 2.334336493253e-03 0.0 
2.334336493253e-03 5.128095132681e-03 0.0 
0.0 0.0 -8.687609488834e-04 
-1.346991783092e-03 3.039323733030e-03 0.0 
3.039323733030e-03 4.548648496957e-03 0.0 
0.0 0.0 -9.141259787764e-04 
2.498396854009e-03 1.198516088911e-03 0.0 
1.198516088911e-03 -1.399925765526e-03 0.0 
0.0 0.0 -4.707733236356e-04 
1.968831457284e-04 -1.841720632066e-03 0.0 
-1.841720632066e-03 8.576900148433e-04 0.0 
0.0 0.0 -4.519599259593e-04 
1.596184388708e-03 2.912527136814e-03 0.0 
2.912527136814e-03 -2.859190939001e-04 0.0 
0.0 0.0 -5.615422692032e-04 
3.342051080177e-04 3.634224831363e-03 0.0 
3.634224831363e-03 1.769838707620e-03 0.0 
0.0 0.0 -9.017330638447e-04 
1.350991084574e-03 3.130179827696e-03 0.0 
3.130179827696e-03 2.729672728852e-04 0.0 
0.0 0.0 -6.959821531966e-04 
5.181840272176e-04 1.740426048580e-03 0.0 
1.740426048580e-03 4.204450595975e-04 0.0 
0.0 0.0 -4.022696086350e-04 
-1.537623298193e-03 1.946789295788e-04 0.0 
1.946789295788e-04 5.729068901156e-03 0.0 
0.0 0.0 -8.462285223656e-04 
1.561759615532e-04 -2.189651726713e-03 0.0 
-2.189651726713e-03 1.146850025796e-03 0.0 
0.0 0.0 -5.584397088639e-04 
1.820241129970e-03 2.972056139581e-03 0.0 
2.972056139581e-03 -3.351854464419e-04 0.0 
0.0 0.0 -6.364524357979e-04 
-1.341153861134e-03 -4.057244270456e-04 0.0 
-4.057244270456e-04 4.982459086358e-03 0.0 
0.0 0.0 -1.341153861134e-03 
9.256271036625e-04 1.500053370618e-03 0.0 
1.500053370618e-03 1.273019829082e-03 0.0 
0.0 0.0 -9.422772568906e-04 
-1.647307264160e-03 1.862922357847e-03 0.0 
1.862922357847e-03 4.824359254377e-03 0.0 
0.0 0.0 -8.054468608743e-04 
2.951539872400e-04 -9.116816188897e-05 0.0 
-9.116816188897e-05 1.187821972232e-03 0.0 
0.0 0.0 -3.103042898065e-04 
7.971140923123e-05 3.343947047482e-03 0.0 
3.343947047482e-03 1.995422628245e-03 0.0 
0.0 0.0 -8.893431589182e-04 
1.873943254827e-03 2.954249127679e-03 0.0 
2.954249127679e-03 -3.006422023954e-04 0.0 
0.0 0.0 -6.742718796133e-04 
-1.609808059559e-03 2.466698786463e-03 0.0 
2.466698786463e-03 5.115271177997e-03 0.0 
0.0 0.0 -8.940630110298e-04 
-1.355176868643e-03 3.602829940139e-03 0.0 
3.602829940139e-03 7.115897601981e-03 0.0 
0.0 0.0 -1.323832587333e-03 
-1.204260933556e-03 2.429327504665e-03 0.0 
2.429327504665e-03 4.034179858945e-03 0.0 
0.0 0.0 -8.669777983973e-04 
-1.147063666963e-03 3.130382852526e-03 0.0 
3.130382852526e-03 4.139734973133e-03 0.0 
0.0 0.0 -8.917420716958e-04 
-4.014841504774e-04 -2.920877032072e-03 0.0 
-2.920877032072e-03 2.692647303736e-03 0.0 
0.0 0.0 -9.819270656821e-04 
-1.644216929044e-03 2.295172595936e-03 0.0 
2.295172595936e-03 6.800207970354e-03 0.0 
0.0 0.0 -1.105258581891e-03 
2.154052283225e-04 -3.118779152528e-03 0.0 
-3.118779152528e-03 1.628210503259e-03 0.0 
0.0 0.0 -7.901210278208e-04 
-1.316497550801e-03 3.592083674646e-03 0.0 
3.592083674646e-03 6.907418394644e-03 0.0 
0.0 0.0 -1.322174839672e-03 
-1.340103718614e-03 3.152086803121e-03 0.0 
3.152086803121e-03 7.377926064128e-03 0.0 
0.0 0.0 -1.340103718614e-03 
-1.341028575724e-03 2.465513317577e-03 0.0 
2.465513317577e-03 8.006817596930e-03 0.0 
0.0 0.0 -1.341028575724e-03 
-1.338044909071e-03 2.820900205836e-03 0.0 
2.820900205836e-03 7.687427743330e-03 0.0 
0.0 0.0 -1.338044909071e-03 
-1.502118998928e-03 2.871852761975e-03 0.0 
2.871852761975e-03 4.986656915824e-03 0.0 
0.0 0.0 -9.244680137507e-04 
-1.717961893973e-03 2.025609505479e-03 0.0 
2.025609505479e-03 6.849693926195e-03 0.0 
0.0 0.0 -1.103002250422e-03 
-1.441498127645e-03 2.997575274703e-03 0.0 
2.997575274703e-03 6.385826432379e-03 0.0 
0.0 0.0 -1.155914796392e-03 
3.567381933021e-04 2.998203481649e-03 0.0 
2.998203481649e-03 1.342739046541e-03 0.0 
0.0 0.0 -7.283473885043e-04 
1.335922643098e-04 2.946545576970e-03 0.0 
2.946545576970e-03 1.651048719616e-03 0.0 
0.0 0.0 -7.648461359682e-04 
-5.579616973433e-04 -2.537817501247e-03 0.0 
-2.537817501247e-03 2.842838828880e-03 0.0 
0.0 0.0 -9.792330563728e-04 
-1.668326353393e-03 2.237680070997e-03 0.0 
2.237680070997e-03 6.867008378533e-03 0.0 
0.0 0.0 -1.131852245309e-03 
-1.231232325275e-03 3.483829197783e-03 0.0 
3.483829197783e-03 6.428087696954e-03 0.0 
0.0 0.0 -1.322440284024e-03 
-1.629405615007e-03 2.216510426988e-03 0.0 
2.216510426988e-03 7.107180567101e-03 0.0 
0.0 0.0 -1.141180801552e-03 
1.287843860462e-03 1.762496620991e-03 0.0 
1.762496620991e-03 4.118181214961e-04 0.0 
0.0 0.0 -7.284265636965e-04 
-1.709232452093e-03 1.946096254963e-03 0.0 
1.946096254963e-03 7.158440520652e-03 0.0 
0.0 0.0 -1.138864741757e-03 
-2.474149681312e-04 3.241320627208e-03 0.0 
3.241320627208e-03 3.249866169459e-03 0.0 
0.0 0.0 -9.903545940741e-04 
5.390850837396e-04 3.135204886366e-03 0.0 
3.135204886366e-03 1.184502769340e-03 0.0 
0.0 0.0 -7.386805084625e-04 
-2.903565977667e-04 2.791530756056e-03 0.0 
2.791530756056e-03 2.364850385229e-03 0.0 
0.0 0.0 -8.890687660554e-04 
1.802555558832e-03 3.001147534895e-03 0.0 
3.001147534895e-03 -4.575658841899e-04 0.0 
0.0 0.0 -5.764241462752e-04 
-1.445725615323e-03 1.812858751269e-03 0.0 
1.812858751269e-03 8.104070872614e-03 0.0 
0.0 0.0 -1.282213402295e-03 
5.637528850199e-04 2.798374850836e-03 0.0 
2.798374850836e-03 9.579403324455e-04 0.0 
0.0 0.0 -6.521542360566e-04 
-9.878773185600e-04 3.005495027809e-03 0.0 
3.005495027809e-03 5.183572772416e-03 0.0 
0.0 0.0 -1.230767059693e-03 
-5.402829230253e-04 -2.645980312191e-03 0.0 
-2.645980312191e-03 2.860421160958e-03 0.0 
0.0 0.0 -9.943449591140e-04 
1.769669881029e-03 -3.137855469582e-03 0.0 
-3.137855469582e-03 -3.291852005029e-04 0.0 
0.0 0.0 -6.173505773685e-04 
-9.286667060019e-04 -5.578005299265e-04 0.0 
-5.578005299265e-04 4.405534968834e-03 0.0 
0.0 0.0 -1.284312900220e-03 
1.520178245233e-03 2.880262458528e-03 0.0 
2.880262458528e-03 -9.597643010145e-05 0.0 
0.0 0.0 -6.103722064851e-04 
-1.341987455608e-03 3.278682198062e-03 0.0 
3.278682198062e-03 7.180670491988e-03 0.0 
0.0 0.0 -1.341987455608e-03 
-1.479381738464e-03 2.518547494800e-03 0.0 
2.518547494800e-03 7.585721855360e-03 0.0 
0.0 0.0 -1.282654109251e-03 
-6.562251040144e-04 3.476488520305e-03 0.0 
3.476488520305e-03 3.368345711390e-03 0.0 
0.0 0.0 -9.747411499392e-04 
2.825665296399e-05 -9.471346053823e-04 0.0 
-9.471346053823e-04 5.562669983103e-04 0.0 
0.0 0.0 -2.505101362604e-04 
-1.340954708392e-03 3.409829937737e-03 0.0 
3.409829937737e-03 6.752010148723e-03 0.0 
0.0 0.0 -1.340954708392e-03 
-8.893530910468e-04 2.080039302171e-04 0.0 
2.080039302171e-04 4.249386795326e-03 0.0 
0.0 0.0 -1.284661450484e-03 
2.094151919582e-03 -2.710389235349e-03 0.0 
-2.710389235349e-03 -4.177516275291e-04 0.0 
0.0 0.0 -7.184572680229e-04 
1.187697048236e-03 1.044937454993e-03 0.0 
1.044937454993e-03 6.336881744863e-04 0.0 
0.0 0.0 -7.805936668811e-04 
-1.022563228378e-03 2.126685754851e-03 0.0 
2.126685754851e-03 5.450229037892e-03 0.0 
0.0 0.0 -1.323014926434e-03 
0.0 0.0 0.0 
0.0 0.0 0.0 
0.0 0.0 0.0 
5.629949439262e-04 2.943398902906e-03 0.0 
2.943398902906e-03 1.042834511407e-03 0.0 
0.0 0.0 -6.882126237144e-04 
-9.611236283513e-04 3.382262119005e-03 0.0 
3.382262119005e-03 3.900518768528e-03 0.0 
0.0 0.0 -9.507003520820e-04 
-3.264045535916e-04 3.528503760233e-03 0.0 
3.528503760233e-03 2.824189618732e-03 0.0 
0.0 0.0 -1.009382277479e-03 
-8.072349097140e-04 3.285348527428e-03 0.0 
3.285348527428e-03 3.572080463846e-03 0.0 
0.0 0.0 -9.583016177293e-04 
1.577973122007e-03 2.940745778594e-03 0.0 
2.940745778594e-03 -1.562631387263e-04 0.0 
0.0 0.0 -6.093042785491e-04 
-1.341360672448e-03 3.349227255108e-03 0.0 
3.349227255108e-03 6.276206882279e-03 0.0 
0.0 0.0 -1.341360672448e-03 
2.936452016240e-03 1.405586798284e-03 0.0 
1.405586798284e-03 -1.170886952934e-03 0.0 
0.0 0.0 -7.566707414170e-04 
6.010236317608e-04 7.677500863631e-05 0.0 
7.677500863631e-05 -6.010236317608e-04 0.0 
0.0 0.0 0.0 
-1.410674428243e-03 -1.887614969753e-03 0.0 
-1.887614969753e-03 6.271959657533e-03 0.0 
0.0 0.0 -1.272354826527e-03 
6.614899321087e-05 -1.031236819356e-03 0.0 
-1.031236819356e-03 5.476349804252e-04 0.0 
0.0 0.0 -2.630502744155e-04 
-7.579795143834e-04 2.669538043242e-03 0.0 
2.669538043242e-03 3.232540244350e-03 0.0 
0.0 0.0 -9.235262116470e-04 
1.408180871100e-03 -2.447837261249e-03 0.0 
-2.447837261249e-03 -4.054811993359e-04 0.0 
0.0 0.0 -4.297284307560e-04 
-1.289231145457e-03 2.085970842819e-03 0.0 
2.085970842819e-03 4.096251684655e-03 0.0 
0.0 0.0 -8.281323822960e-04 
-9.265632325981e-04 2.208084020548e-04 0.0 
2.208084020548e-04 5.136068338207e-03 0.0 
0.0 0.0 -1.321823097425e-03 
-1.341255375116e-03 3.077672806554e-03 0.0 
3.077672806554e-03 5.842647393183e-03 0.0 
0.0 0.0 -1.341255375116e-03 
-1.444220396543e-03 2.772557237900e-03 0.0 
2.772557237900e-03 4.661509496866e-03 0.0 
0.0 0.0 -8.916520742786e-04 
1.049542071535e-03 -2.597397009894e-03 0.0 
-2.597397009894e-03 2.940040078369e-04 0.0 
0.0 0.0 -5.758054625880e-04 
3.025347595527e-04 1.047283111649e-04 0.0 
1.047283111649e-04 -3.025347595527e-04 0.0 
0.0 0.0 0.0 
1.083086267670e-03 -3.284229385575e-03 0.0 
-3.284229385575e-03 2.814197768567e-04 0.0 
0.0 0.0 -5.847883047970e-04 
-1.038610003698e-03 -2.337728934242e-03 0.0 
-2.337728934242e-03 4.541183857773e-03 0.0 
0.0 0.0 -1.121833217354e-03 
-1.742165347554e-03 9.878882661806e-04 0.0 
9.878882661806e-04 5.401825771171e-03 0.0 
0.0 0.0 -7.704300227928e-04 
-1.803256776378e-03 1.584392787159e-03 0.0 
1.584392787159e-03 5.170803389825e-03 0.0 
0.0 0.0 -8.109332722942e-04 
-1.342502730507e-03 2.572106331239e-03 0.0 
2.572106331239e-03 5.434857979280e-03 0.0 
0.0 0.0 -1.342502730507e-03 
-1.732554351108e-03 7.529304742537e-04 0.0 
7.529304742537e-04 5.461566678014e-03 0.0 
0.0 0.0 -7.720444664677e-04 
-1.484252812585e-03 2.496905312066e-03 0.0 
2.496905312066e-03 8.327686936920e-03 0.0 
0.0 0.0 -1.322852565091e-03 
-2.616390310425e-04 3.420254192840e-03 0.0 
3.420254192840e-03 3.046539849901e-03 0.0 
0.0 0.0 -1.020998643257e-03 
-1.702171015059e-03 1.025221701453e-03 0.0 
1.025221701453e-03 6.037527275999e-03 0.0 
0.0 0.0 -8.907448815977e-04 
4.435059004645e-04 2.367634267758e-03 0.0 
2.367634267758e-03 8.500300084059e-04 0.0 
0.0 0.0 -5.543725323730e-04 
9.902971440261e-04 1.854120232773e-03 0.0 
1.854120232773e-03 5.282487487715e-04 0.0 
0.0 0.0 -6.508053826275e-04 
2.181030243503e-03 2.087940198003e-03 0.0 
2.087940198003e-03 -6.964523607222e-04 0.0 
0.0 0.0 -6.362476640488e-04 
-1.340754991027e-03 1.822804665951e-03 0.0 
1.822804665951e-03 5.126572871134e-03 0.0 
0.0 0.0 -1.340754991027e-03 
-1.339984467612e-03 3.017885242806e-03 0.0 
3.017885242806e-03 7.530573259310e-03 0.0 
0.0 0.0 -1.339984467612e-03 
-1.340417744004e-03 2.627800699396e-03 0.0 
2.627800699396e-03 7.874468285687e-03 0.0 
0.0 0.0 -1.340417744004e-03 
1.663950741528e-04 -3.102222571978e-03 0.0 
-3.102222571978e-03 1.696065106834e-03 0.0 
0.0 0.0 -7.981972204229e-04 
-6.783966376360e-04 -2.229795002151e-03 0.0 
-2.229795002151e-03 2.989937542639e-03 0.0 
0.0 0.0 -9.906603878584e-04 
6.633751209167e-04 3.479464549828e-03 0.0 
3.479464549828e-03 1.235326207863e-03 0.0 
0.0 0.0 -8.137291409057e-04 
-1.800452847873e-04 -3.089059520932e-03 0.0 
-3.089059520932e-03 2.334973482046e-03 0.0 
0.0 0.0 -8.981573260837e-04 
-1.339627896631e-03 1.005258068188e-03 0.0 
1.005258068188e-03 4.944567484942e-03 0.0 
0.0 0.0 -1.339627896631e-03 
2.106481318219e-03 2.804312139354e-03 0.0 
2.804312139354e-03 -3.247815718152e-04 0.0 
0.0 0.0 -7.635856056017e-04 
2.753925008266e-03 -1.471183718442e-03 0.0 
-1.471183718442e-03 -1.118113294929e-03 0.0 
0.0 0.0 -7.010621628588e-04 
2.411027346534e-03 -2.022185411865e-03 0.0 
-2.022185411865e-03 -8.248269265831e-04 0.0 
0.0 0.0 -6.798001799788e-04 
-1.695040583491e-03 9.943495357559e-04 0.0 
9.943495357559e-04 6.306677945551e-03 0.0 
0.0 0.0 -9.279583942086e-04 
-1.067283559268e-03 -1.131551148477e-03 0.0 
-1.131551148477e-03 5.382018527302e-03 0.0 
0.0 0.0 -1.323537156312e-03 
4.718253126561e-04 -2.654545060497e-03 0.0 
-2.654545060497e-03 7.297491663584e-04 0.0 
0.0 0.0 -5.149604910062e-04 
-1.340775759057e-03 3.168705887179e-05 0.0 
3.168705887179e-05 4.893000414627e-03 0.0 
0.0 0.0 -1.340775759057e-03 
2.068072739009e-03 -2.533209175997e-03 0.0 
-2.533209175997e-03 -4.905385770438e-04 0.0 
0.0 0.0 -6.760860694135e-04 
-1.342877878941e-03 3.371101462632e-03 0.0 
3.371101462632e-03 6.986301559429e-03 0.0 
0.0 0.0 -1.342877878941e-03 
-1.502505102679e-03 2.723409331035e-03 0.0 
2.723409331035e-03 6.453774250835e-03 0.0 
0.0 0.0 -1.152765850879e-03 
4.995410750134e-04 -2.508167894462e-04 0.0 
-2.508167894462e-04 1.439641133543e-04 0.0 
0.0 0.0 -1.045622396246e-04 
7.611624550475e-04 2.811491361200e-03 0.0 
2.811491361200e-03 7.486160262995e-04 0.0 
0.0 0.0 -6.470479205773e-04 
-1.718973478826e-03 1.632227495642e-03 0.0 
1.632227495642e-03 7.402026443868e-03 0.0 
0.0 0.0 -1.146019594970e-03 
-1.341220131281e-03 3.403196875767e-03 0.0 
3.403196875767e-03 6.531514611794e-03 0.0 
0.0 0.0 -1.341220131281e-03 
-1.493257815958e-03 2.709508550359e-03 0.0 
2.709508550359e-03 5.031766487179e-03 0.0 
0.0 0.0 -9.220067723808e-04 
-1.371432860580e-04 3.167005571068e-03 0.0 
3.167005571068e-03 2.958438968348e-03 0.0 
0.0 0.0 -1.049000704964e-03 
1.363417131051e-03 2.771598718083e-03 0.0 
2.771598718083e-03 -2.175926074803e-04 0.0 
0.0 0.0 -4.910676529589e-04 
-4.822149847462e-04 -8.933705669701e-06 0.0 
-8.933705669701e-06 3.680115228026e-03 0.0 
0.0 0.0 -1.228682347183e-03 
1.589016691459e-03 -2.728398742501e-03 0.0 
-2.728398742501e-03 -1.477483424757e-04 0.0 
0.0 0.0 -6.176864352786e-04 
2.014961445712e-03 -2.490489286961e-03 0.0 
-2.490489286961e-03 -7.248651286365e-04 0.0 
0.0 0.0 -5.528984216039e-04 
6.740675851827e-05 -1.946268609011e-03 0.0 
-1.946268609011e-03 5.144006658537e-04 0.0 
0.0 0.0 -2.493460390166e-04 
-1.341079611575e-03 3.240452696934e-03 0.0 
3.240452696934e-03 6.054614633037e-03 0.0 
0.0 0.0 -1.341079611575e-03 
2.419438568119e-03 1.848358171578e-03 0.0 
1.848358171578e-03 -8.324259170898e-04 0.0 
0.0 0.0 -6.801482790127e-04 
-1.052268534161e-04 -1.626163501332e-03 0.0 
-1.626163501332e-03 3.065488155398e-03 0.0 
0.0 0.0 -1.110501492391e-03 
-1.743720672030e-03 5.076947702062e-04 0.0 
5.076947702062e-04 5.915487175230e-03 0.0 
0.0 0.0 -8.555322119248e-04 
6.419311454372e-04 -2.457777299007e-03 0.0 
-2.457777299007e-03 6.816602911272e-04 0.0 
0.0 0.0 -5.672534728133e-04 
2.432948694747e-03 -2.224719869907e-03 0.0 
-2.224719869907e-03 -1.006521097821e-03 0.0 
0.0 0.0 -6.113261129685e-04 
-1.391571865871e-03 2.947954310513e-03 0.0 
2.947954310513e-03 4.611783904251e-03 0.0 
0.0 0.0 -8.867075537039e-04 
-1.342259935407e-03 2.196586378398e-03 0.0 
2.196586378398e-03 5.267748778168e-03 0.0 
0.0 0.0 -1.342259935407e-03 
-8.685003091139e-04 -2.019621362732e-03 0.0 
-2.019621362732e-03 3.358195832711e-03 0.0 
0.0 0.0 -1.026543027222e-03 
-6.279763244928e-05 -2.831980191268e-03 0.0 
-2.831980191268e-03 2.234263021353e-03 0.0 
0.0 0.0 -9.306280238158e-04 
1.626113199364e-04 3.532469173109e-03 0.0 
3.532469173109e-03 1.975304410449e-03 0.0 
0.0 0.0 -9.162495987365e-04 
9.545056478258e-04 -2.197984859117e-03 0.0 
-2.197984859117e-03 2.830222850846e-04 0.0 
0.0 0.0 -5.303691141045e-04 
2.741947853495e-03 -1.576053757195e-03 0.0 
-1.576053757195e-03 -1.238751484203e-03 0.0 
0.0 0.0 -6.442270154112e-04 
2.055993336022e-04 -3.019147266732e-03 0.0 
-3.019147266732e-03 1.580796400243e-03 0.0 
0.0 0.0 -7.655981716482e-04 
-1.735594457479e-05 3.684409886977e-03 0.0 
3.684409886977e-03 2.338058889169e-03 0.0 
0.0 0.0 -9.525257740877e-04 
-6.815819430518e-04 3.271309776104e-03 0.0 
3.271309776104e-03 3.991806398053e-03 0.0 
0.0 0.0 -9.982497011217e-04 
7.359468455794e-04 1.655488137203e-03 0.0 
1.655488137203e-03 1.311171725172e-03 0.0 
0.0 0.0 -8.773365303219e-04 
4.616179257589e-04 3.326983553877e-03 0.0 
3.326983553877e-03 1.399682897410e-03 0.0 
0.0 0.0 -7.977003527865e-04 
-1.068767707281e-04 -3.106568222755e-03 0.0 
-3.106568222755e-03 2.185893574205e-03 0.0 
0.0 0.0 -8.910072014901e-04 
1.770168940932e-03 2.939268167283e-03 0.0 
2.939268167283e-03 -7.940642901587e-05 0.0 
0.0 0.0 -7.246125051071e-04 
-6.590777518814e-04 -2.312052235482e-03 0.0 
-2.312052235482e-03 2.981136073476e-03 0.0 
0.0 0.0 -9.951678521122e-04 
-9.129757635954e-05 3.002240536259e-03 0.0 
3.002240536259e-03 3.121089298537e-03 0.0 
0.0 0.0 -1.018204129641e-03 
1.890566440799e-03 1.226789186906e-03 0.0 
1.226789186906e-03 -8.288946358717e-04 0.0 
0.0 0.0 -4.550022021117e-04 
-9.478871216341e-04 -2.661712448175e-04 0.0 
-2.661712448175e-04 5.203816778040e-03 0.0 
0.0 0.0 -1.321929620191e-03 
-1.684709762555e-03 1.865268109453e-03 0.0 
1.865268109453e-03 7.458111656375e-03 0.0 
0.0 0.0 -1.174325249119e-03 
4.942655387039e-04 -2.660349188538e-03 0.0 
-2.660349188538e-03 9.600175774831e-04 0.0 
0.0 0.0 -6.232641926516e-04 
-1.341047338368e-03 5.012584263436e-04 0.0 
5.012584263436e-04 4.843287135669e-03 0.0 
0.0 0.0 -1.341047338368e-03 
-5.199572059754e-04 -1.240456273397e-05 0.0 
-1.240456273397e-05 4.514719369705e-03 0.0 
0.0 0.0 -1.266414110344e-03 
1.456677627038e-03 2.847158529750e-03 0.0 
2.847158529750e-03 -1.224358696167e-04 0.0 
0.0 0.0 -5.718178960378e-04 
3.073160228107e-04 -2.142796274570e-03 0.0 
-2.142796274570e-03 8.896681783000e-04 0.0 
0.0 0.0 -5.129932290474e-04 
-1.050487114865e-03 -1.427509562772e-03 0.0 
-1.427509562772e-03 5.540080609798e-03 0.0 
0.0 0.0 -1.323469717371e-03 
-1.667087300368e-03 2.181750680949e-03 0.0 
2.181750680949e-03 7.186411773731e-03 0.0 
0.0 0.0 -1.167157861819e-03 
1.716323073858e-03 -2.955825605783e-03 0.0 
-2.955825605783e-03 -9.287262183540e-05 0.0 
0.0 0.0 -6.957644794382e-04 
-1.341709311524e-03 -8.333733019742e-04 0.0 
-8.333733019742e-04 5.041051645130e-03 0.0 
0.0 0.0 -1.341709311524e-03 
-1.554347035982e-04 -3.091276428888e-03 0.0 
-3.091276428888e-03 2.271745765848e-03 0.0 
0.0 0.0 -9.069904552498e-04 
-8.856300375339e-05 3.015707065978e-03 0.0 
3.015707065978e-03 2.092630915718e-03 0.0 
0.0 0.0 -8.588862479847e-04 
-1.708652242928e-03 2.038029542744e-03 0.0 
2.038029542744e-03 5.155213329433e-03 0.0 
0.0 0.0 -8.408860858065e-04 
2.150251675539e-03 1.246957804337e-03 0.0 
1.246957804337e-03 -9.518176328646e-04 0.0 
0.0 0.0 -5.136145897175e-04 
4.280369650893e-04 -2.993089053083e-03 0.0 
-2.993089053083e-03 1.242185283195e-03 0.0 
0.0 0.0 -7.158095349792e-04 
1.005063584136e-03 -1.534038141676e-03 0.0 
-1.534038141676e-03 4.706218155617e-04 0.0 
0.0 0.0 -6.324365998706e-04 
-1.787330646013e-03 1.744437882435e-03 0.0 
1.744437882435e-03 6.165539261386e-03 0.0 
0.0 0.0 -9.721028620036e-04 
-5.830614128886e-04 2.963568587990e-03 0.0 
2.963568587990e-03 3.036456168777e-03 0.0 
0.0 0.0 -9.703272795031e-04 
5.013338592635e-04 2.022867758426e-03 0.0 
2.022867758426e-03 1.903789761340e-03 0.0 
0.0 0.0 -1.030767265973e-03 
-1.583428582628e-03 1.234393199571e-04 0.0 
1.234393199571e-04 6.348909220080e-03 0.0 
0.0 0.0 -8.839498032872e-04 
-1.538973880155e-04 -2.905891545860e-03 0.0 
-2.905891545860e-03 2.151085361499e-03 0.0 
0.0 0.0 -8.559377029216e-04 
9.606550472545e-04 1.198365472328e-03 0.0 
1.198365472328e-03 7.584169667694e-04 0.0 
0.0 0.0 -7.367451488674e-04 
1.240241290569e-03 -2.615402293113e-03 0.0 
-2.615402293113e-03 9.801779930640e-06 0.0 
0.0 0.0 -5.357327444998e-04 
-1.264139912559e-03 -2.295922563033e-03 0.0 
-2.295922563033e-03 4.258611210865e-03 0.0 
0.0 0.0 -1.003470032316e-03 
4.779492527782e-04 -1.976862769587e-04 0.0 
-1.976862769587e-04 3.079286874380e-05 0.0 
0.0 0.0 -9.731995102935e-05 
1.375001823881e-03 3.007557583602e-03 0.0 
3.007557583602e-03 2.077996425490e-04 0.0 
0.0 0.0 -6.783434856128e-04 
1.686675147585e-03 -2.826451651131e-03 0.0 
-2.826451651131e-03 -3.979102607463e-04 0.0 
0.0 0.0 -5.523278086452e-04 
-6.775751599431e-04 -2.656016194715e-03 0.0 
-2.656016194715e-03 3.173617743200e-03 0.0 
0.0 0.0 -1.041231529553e-03 
9.547448531119e-04 2.912205143476e-03 0.0 
2.912205143476e-03 5.651456179382e-04 0.0 
0.0 0.0 -6.513816304500e-04 
3.545197186364e-05 -2.683422917804e-03 0.0 
-2.683422917804e-03 2.222563700784e-03 0.0 
0.0 0.0 -9.350600278798e-04 
-1.737561363205e-03 5.251994903431e-04 0.0 
5.251994903431e-04 6.205644374021e-03 0.0 
0.0 0.0 -8.962969588583e-04 
1.356254452431e-03 -2.984093401581e-03 0.0 
-2.984093401581e-03 -2.215529665070e-05 0.0 
0.0 0.0 -5.717567810488e-04 
-1.341827844788e-03 -1.146584425421e-03 0.0 
-1.146584425421e-03 5.213236186647e-03 0.0 
0.0 0.0 -1.341827844788e-03 
-1.032358392854e-03 3.358744228303e-03 0.0 
3.358744228303e-03 3.981695232776e-03 0.0 
0.0 0.0 -8.921909746423e-04 
-9.403772787457e-04 -2.333509821859e-03 0.0 
-2.333509821859e-03 3.602948163807e-03 0.0 
0.0 0.0 -1.032584340947e-03 
-7.230784000767e-04 3.517969959091e-03 0.0 
3.517969959091e-03 3.446928309249e-03 0.0 
0.0 0.0 -9.025917034692e-04 
-6.743760556383e-04 -2.567033021564e-03 0.0 
-2.567033021564e-03 3.158224002336e-03 0.0 
0.0 0.0 -1.064506262870e-03 
0.0 0.0 0.0 
0.0 0.0 0.0 
0.0 0.0 0.0 
-1.792312889487e-03 1.741412585942e-03 0.0 
1.741412585942e-03 5.511837739733e-03 0.0 
0.0 0.0 -8.733545218784e-04 
-1.159018419121e-03 -6.757248724201e-04 0.0 
-6.757248724201e-04 3.679422689167e-03 0.0 
0.0 0.0 -9.437415894182e-04 
1.526598219851e-03 -2.022984547481e-04 0.0 
-2.022984547481e-04 -5.806947110268e-04 0.0 
0.0 0.0 -1.518789559795e-04 
-1.008983259281e-03 -2.022851433489e-03 0.0 
-2.022851433489e-03 3.664714944016e-03 0.0 
0.0 0.0 -1.031099917346e-03 
-1.552203916554e-04 -2.266492036209e-03 0.0 
-2.266492036209e-03 2.794636645768e-03 0.0 
0.0 0.0 -1.001254648526e-03 
-1.559997350991e-03 7.763984245468e-04 0.0 
7.763984245468e-04 7.736769108545e-03 0.0 
0.0 0.0 -1.146946825052e-03 
1.304436411006e-03 -1.537118457164e-03 0.0 
-1.537118457164e-03 -1.929375046108e-04 0.0 
0.0 0.0 -4.763566741695e-04 
1.141009119650e-03 -1.409930863555e-03 0.0 
-1.409930863555e-03 1.287642799873e-04 0.0 
0.0 0.0 -5.441885998444e-04 
-1.689284059370e-03 1.450746420627e-03 0.0 
1.450746420627e-03 4.831311448006e-03 0.0 
0.0 0.0 -7.833574767318e-04 
-1.686952509024e-03 5.790488882109e-04 0.0 
5.790488882109e-04 4.855993105087e-03 0.0 
0.0 0.0 -7.312625299843e-04 
-1.435530838734e-03 2.039856500826e-03 0.0 
2.039856500826e-03 7.934174766789e-03 0.0 
0.0 0.0 -1.286111585339e-03 
-3.846383815358e-04 3.631348853507e-03 0.0 
3.631348853507e-03 2.894402056622e-03 0.0 
0.0 0.0 -9.211198782815e-04 
2.563042352686e-03 -3.462434059620e-04 0.0 
-3.462434059620e-04 -8.334153675030e-04 0.0 
0.0 0.0 -9.050770260813e-05 
-2.801224181593e-06 -1.851492159178e-03 0.0 
-1.851492159178e-03 1.218501688618e-03 0.0 
0.0 0.0 -5.210144847585e-04 
8.331805258011e-05 -1.317049816552e-03 0.0 
-1.317049816552e-03 7.003703442878e-04 0.0 
0.0 0.0 -3.358664558005e-04 
1.821034446314e-04 -2.408967732496e-03 0.0 
-2.408967732496e-03 1.233113086777e-03 0.0 
0.0 0.0 -6.065213706036e-04 
-1.138435434649e-03 2.989604430891e-03 0.0 
2.989604430891e-03 5.462421315605e-03 0.0 
0.0 0.0 -1.134523071099e-03 
-1.613429135808e-03 4.247551468927e-04 0.0 
4.247551468927e-04 7.790174225159e-03 0.0 
0.0 0.0 -1.144649651339e-03 
-1.027154245499e-03 -2.035960934847e-03 0.0 
-2.035960934847e-03 4.492443968240e-03 0.0 
0.0 0.0 -1.087427768671e-03 
-2.215897922679e-04 -2.343741531637e-03 0.0 
-2.343741531637e-03 1.937473062545e-03 0.0 
0.0 0.0 -7.353785444044e-04 
-1.224434476437e-03 -2.373415610936e-03 0.0 
-2.373415610936e-03 4.259607832395e-03 0.0 
0.0 0.0 -1.074887456883e-03 
-2.765309671832e-04 -1.235730925308e-03 0.0 
-1.235730925308e-03 3.492398506195e-03 0.0 
0.0 0.0 -1.142106164841e-03 
1.609002123108e-03 9.641353836346e-05 0.0 
9.641353836346e-05 -1.014383706755e-03 0.0 
0.0 0.0 -2.548364641514e-04 
-1.185520630974e-03 -6.216129085547e-04 0.0 
-6.216129085547e-04 3.715832065426e-03 0.0 
0.0 0.0 -9.234434510542e-04 
-9.870309350746e-04 -2.949408640791e-04 0.0 
-2.949408640791e-04 3.127712701104e-03 0.0 
0.0 0.0 -8.176025220169e-04 
-1.158159835052e-03 -1.705545964426e-03 0.0 
-1.705545964426e-03 5.701758529228e-03 0.0 
0.0 0.0 -1.322396863610e-03 
-1.341641872583e-03 -1.478861783549e-03 0.0 
-1.478861783549e-03 5.355371918508e-03 0.0 
0.0 0.0 -1.341641872583e-03 
-1.283076775259e-03 -6.373143896461e-04 0.0 
-6.373143896461e-04 4.006265140635e-03 0.0 
0.0 0.0 -9.869148323457e-04 
-9.252167440016e-04 -2.284187084932e-03 0.0 
-2.284187084932e-03 3.604049524323e-03 0.0 
0.0 0.0 -1.082955583678e-03 
1.424947381447e-04 -3.218131506232e-03 0.0 
-3.218131506232e-03 1.808876759913e-03 0.0 
0.0 0.0 -8.363020705961e-04 
-2.858765317583e-04 -8.912097981478e-04 0.0 
-8.912097981478e-04 3.661087959600e-03 0.0 
0.0 0.0 -1.177278300149e-03 
-1.642185562706e-04 -1.468912040377e-03 0.0 
-1.468912040377e-03 1.269461247680e-03 0.0 
0.0 0.0 -4.736754391754e-04 
-2.865195494759e-04 -1.594101584254e-03 0.0 
-1.594101584254e-03 3.398007437901e-03 0.0 
0.0 0.0 -1.104707344597e-03 
9.194713961983e-04 -6.793234433339e-04 0.0 
-6.793234433339e-04 6.261768049846e-04 0.0 
0.0 0.0 -3.206774383567e-04 
-7.790564292393e-04 -2.283470906283e-03 0.0 
-2.283470906283e-03 3.292851518803e-03 0.0 
0.0 0.0 -1.077340752670e-03 
-5.608514076299e-04 -2.798496030794e-03 0.0 
-2.798496030794e-03 2.999147072071e-03 0.0 
0.0 0.0 -1.044983856189e-03 
1.138912068891e-03 -3.473598627530e-04 0.0 
-3.473598627530e-04 -1.413469007123e-04 0.0 
0.0 0.0 -2.684313900889e-04 
-1.253955737825e-03 -3.715260469387e-04 0.0 
-3.715260469387e-04 3.888476539148e-03 0.0 
0.0 0.0 -9.536442305595e-04 
-1.602308644549e-03 2.138646014206e-03 0.0 
2.138646014206e-03 7.398169050205e-03 0.0 
0.0 0.0 -1.176862138969e-03 
2.761299412783e-03 -2.184006917307e-04 0.0 
-2.184006917307e-04 -8.957163604378e-04 0.0 
0.0 0.0 -9.160000506328e-05 
-1.698158774402e-03 7.543543168281e-04 0.0 
7.543543168281e-04 4.798515189366e-03 0.0 
0.0 0.0 -7.322753781719e-04 
-1.694678419912e-03 8.983255451051e-04 0.0 
8.983255451051e-04 4.996965617242e-03 0.0 
0.0 0.0 -7.130472889423e-04 
9.905782610910e-04 -8.253624912090e-04 0.0 
-8.253624912090e-04 7.976802919736e-04 0.0 
0.0 0.0 -7.663965227419e-04 
-1.039035016572e-03 -2.144348817903e-04 0.0 
-2.144348817903e-04 3.210973696896e-03 0.0 
0.0 0.0 -7.829545016062e-04 
1.212299874062e-03 -2.903037830351e-03 0.0 
-2.903037830351e-03 2.395213764874e-04 0.0 
0.0 0.0 -6.222091073784e-04 
1.174115903652e-03 2.662474741674e-03 0.0 
2.662474741674e-03 2.969730930284e-04 0.0 
0.0 0.0 -6.304667128631e-04 
-1.289472189001e-03 -1.746360051319e-03 0.0 
-1.746360051319e-03 5.399223758463e-03 0.0 
0.0 0.0 -1.180895453064e-03 
-1.199251439186e-03 3.128969763373e-03 0.0 
3.128969763373e-03 5.740281679720e-03 0.0 
0.0 0.0 -1.286194385238e-03 
-1.685234284086e-03 7.030718583631e-04 0.0 
7.030718583631e-04 7.477737434154e-03 0.0 
0.0 0.0 -1.101088927253e-03 
5.511702260285e-04 2.711119680311e-03 0.0 
2.711119680311e-03 9.222763951361e-04 0.0 
0.0 0.0 -6.314771233563e-04 
-3.649363196541e-05 -1.210836942261e-03 0.0 
-1.210836942261e-03 8.486569891216e-04 0.0 
0.0 0.0 -3.480700102098e-04 
-1.004741383637e-03 2.553626350246e-03 0.0 
2.553626350246e-03 3.669626505377e-03 0.0 
0.0 0.0 -8.905302458185e-04 
-1.568290103670e-03 2.798930321494e-04 0.0 
2.798930321494e-04 4.936656992355e-03 0.0 
0.0 0.0 -7.345111139194e-04 
-1.542599483069e-03 2.307996019665e-04 0.0 
2.307996019665e-04 5.186209951631e-03 0.0 
0.0 0.0 -7.144802219086e-04 
1.697260921232e-03 -1.822504204338e-04 0.0 
-1.822504204338e-04 -6.526688675189e-04 0.0 
0.0 0.0 -1.584708362264e-04 
9.885439547911e-04 -4.650217645265e-04 0.0 
-4.650217645265e-04 -7.811083121430e-05 0.0 
0.0 0.0 -2.719350994485e-04 
3.764836072069e-04 -3.171144431772e-04 0.0 
-3.171144431772e-04 5.254813268562e-04 0.0 
0.0 0.0 -2.992029258896e-04 
-3.222613347251e-04 -1.717475984859e-03 0.0 
-1.717475984859e-03 1.786840537745e-03 0.0 
0.0 0.0 -6.276768012942e-04 
1.995445303676e-03 -3.544912217161e-04 0.0 
-3.544912217161e-04 -1.783707534186e-04 0.0 
0.0 0.0 -2.505695937184e-04 
-1.385796394707e-03 -3.802460944882e-04 0.0 
-3.802460944882e-04 4.246303149623e-03 0.0 
0.0 0.0 -1.004230634435e-03 
0.0 0.0 0.0 
0.0 0.0 0.0 
0.0 0.0 0.0 
-3.537348662354e-04 -2.028219451660e-03 0.0 
-2.028219451660e-03 2.045322960423e-03 0.0 
0.0 0.0 -7.249663260806e-04 
-1.566153664312e-03 2.377992970035e-04 0.0 
2.377992970035e-04 6.488131571459e-03 0.0 
0.0 0.0 -9.582560723523e-04 
-1.634454558496e-03 5.707793053276e-04 0.0 
5.707793053276e-04 5.108535752511e-03 0.0 
0.0 0.0 -7.120344407548e-04 
-1.255391157734e-03 2.956292385131e-03 0.0 
2.956292385131e-03 5.913112370001e-03 0.0 
0.0 0.0 -1.169483110168e-03 
-3.211066572615e-04 -2.624140315591e-03 0.0 
-2.624140315591e-03 2.858415319154e-03 0.0 
0.0 0.0 -9.641449249716e-04 
-1.553469395463e-03 1.980732768992e-04 0.0 
1.980732768992e-04 6.108450087988e-03 0.0 
0.0 0.0 -8.988447104697e-04 
-1.086829048493e-03 -4.298554506639e-05 0.0 
-4.298554506639e-05 3.376551179836e-03 0.0 
0.0 0.0 -8.404787427002e-04 
1.157325761144e-03 -4.144839602351e-04 0.0 
-4.144839602351e-04 5.556060787113e-04 0.0 
0.0 0.0 -3.489577299251e-04 
-1.340974968048e-03 1.141125960794e-03 0.0 
1.141125960794e-03 8.560634098268e-03 0.0 
0.0 0.0 -1.340974968048e-03 
-1.479514720207e-03 1.290754629394e-03 0.0 
1.290754629394e-03 8.817356864728e-03 0.0 
0.0 0.0 -1.320295381545e-03 
-1.658748233041e-03 8.637494445187e-04 0.0 
8.637494445187e-04 5.855760830743e-03 0.0 
0.0 0.0 -8.588387843224e-04 
-1.626246500550e-03 3.507062076516e-04 0.0 
3.507062076516e-04 4.917310602464e-03 0.0 
0.0 0.0 -7.326073368542e-04 
-1.101733211462e-03 -4.903419461906e-04 0.0 
-4.903419461906e-04 3.425201513199e-03 0.0 
0.0 0.0 -8.368382630048e-04 
-1.457935752510e-03 9.072104527732e-04 0.0 
9.072104527732e-04 8.880607743519e-03 0.0 
0.0 0.0 -1.322576402756e-03 
-2.087604691238e-04 -2.081308369903e-03 0.0 
-2.081308369903e-03 1.746392936312e-03 0.0 
0.0 0.0 -6.589853430805e-04 
-1.662826015092e-03 7.083533780780e-04 0.0 
7.083533780780e-04 5.042251775661e-03 0.0 
0.0 0.0 -7.125614225629e-04 
-1.628165374516e-03 4.707510309731e-04 0.0 
4.707510309731e-04 4.889560536843e-03 0.0 
0.0 0.0 -7.312775522649e-04 
-1.109436790681e-03 2.207974280543e-03 0.0 
2.207974280543e-03 3.753226225228e-03 0.0 
0.0 0.0 -8.460010047089e-04 
-1.341823989366e-03 2.274932854254e-03 0.0 
2.274932854254e-03 8.137856468635e-03 0.0 
0.0 0.0 -1.341823989366e-03 
-1.447499776368e-03 1.123885033130e-03 0.0 
1.123885033130e-03 8.849685221172e-03 0.0 
0.0 0.0 -1.322582685247e-03 
1.858413942134e-03 -4.468674671497e-04 0.0 
-4.468674671497e-04 -1.442261551490e-04 0.0 
0.0 0.0 -2.523401230232e-04 
1.933225188622e-03 -1.733881547272e-04 0.0 
-1.733881547272e-04 -7.561870514403e-04 0.0 
0.0 0.0 -1.563839533901e-04 
-1.406822219416e-04 -1.124602410666e-03 0.0 
-1.124602410666e-03 1.005262349108e-03 0.0 
0.0 0.0 -3.705343402142e-04 
-5.636260726475e-04 -2.890778252910e-03 0.0 
-2.890778252910e-03 3.024028366260e-03 0.0 
0.0 0.0 -1.029090130247e-03 
-1.836231348186e-03 -1.061046282737e-04 0.0 
-1.061046282737e-04 6.851957631603e-03 0.0 
0.0 0.0 -1.224669017856e-03 
0.0 0.0 0.0 
0.0 0.0 0.0 
0.0 0.0 0.0 
-1.578428037932e-03 -1.076945805976e-04 0.0 
-1.076945805976e-04 7.488341038297e-03 0.0 
0.0 0.0 -1.092518628634e-03 
-1.550925910831e-05 -1.170234142814e-04 0.0 
-1.170234142814e-04 1.067621659097e-04 0.0 
0.0 0.0 -3.910838862915e-05 
8.665365973905e-04 -1.142786771002e-03 0.0 
-1.142786771002e-03 9.419164366956e-04 0.0 
0.0 0.0 -7.750513003226e-04 
2.093383490481e-04 -3.500473738276e-04 0.0 
-3.500473738276e-04 8.081195732962e-06 0.0 
0.0 0.0 -9.317980490616e-05 
0.0 0.0 0.0 
0.0 0.0 0.0 
0.0 0.0 0.0 
8.379829542951e-04 -1.828387007204e-03 0.0 
-1.828387007204e-03 8.061078686980e-04 0.0 
0.0 0.0 -7.046103527113e-04 
-1.789860880868e-03 -9.343042948716e-04 0.0 
-9.343042948716e-04 6.450275194502e-03 0.0 
0.0 0.0 -1.192963836147e-03 
-1.590104708056e-03 6.107842018535e-05 0.0 
6.107842018535e-05 6.703688956183e-03 0.0 
0.0 0.0 -9.361271490834e-04 
-8.759783829009e-04 2.898559650342e-03 0.0 
2.898559650342e-03 3.532916901786e-03 0.0 
0.0 0.0 -9.106555839008e-04 
1.248462822196e-03 -2.813829483536e-04 0.0 
-2.813829483536e-04 -1.929931588244e-04 0.0 
0.0 0.0 -2.625419092021e-04 
-1.459678414727e-03 -2.058426133646e-03 0.0 
-2.058426133646e-03 4.704925736718e-03 0.0 
0.0 0.0 -1.075952622059e-03 
-1.337797817327e-03 3.504757910850e-04 0.0 
3.504757910850e-04 8.685617780919e-03 0.0 
0.0 0.0 -1.337797817327e-03 
-1.451734133111e-03 3.024014936646e-04 0.0 
3.024014936646e-04 8.945645325804e-03 0.0 
0.0 0.0 -1.322354755130e-03 
-1.599337559302e-03 4.517969448523e-04 0.0 
4.517969448523e-04 5.137060814106e-03 0.0 
0.0 0.0 -7.125764448434e-04 
8.243811469618e-04 -5.070143029738e-04 0.0 
-5.070143029738e-04 1.170642242664e-03 0.0 
0.0 0.0 -8.550100241253e-04 
-1.341607717199e-03 9.922961128721e-04 0.0 
9.922961128721e-04 8.617013640237e-03 0.0 
0.0 0.0 -1.341607717199e-03 
1.651597580356e-05 2.683416658655e-03 0.0 
2.683416658655e-03 3.024822145470e-03 0.0 
0.0 0.0 -1.046710270629e-03 
1.210451057929e-03 -1.943692124057e-04 0.0 
-1.943692124057e-04 4.706046126820e-04 0.0 
0.0 0.0 -3.531810144492e-04 
2.099767295814e-03 -2.484083841165e-04 0.0 
-2.484083841165e-04 -2.289154150212e-04 0.0 
0.0 0.0 -2.475227046456e-04 
1.335233375907e-03 -9.196830328825e-05 0.0 
-9.196830328825e-05 -2.038367509550e-04 0.0 
0.0 0.0 -2.481890828467e-04 
-1.206645058523e-03 -4.413417753443e-05 0.0 
-4.413417753443e-05 3.734312456454e-03 0.0 
0.0 0.0 -9.186759157619e-04 
-1.554661254855e-03 -1.173104092863e-03 0.0 
-1.173104092863e-03 7.206653129246e-03 0.0 
0.0 0.0 -1.322828574513e-03 
-1.468378470940e-03 -2.055954314762e-04 0.0 
-2.055954314762e-04 8.477100898234e-03 0.0 
0.0 0.0 -1.258329778789e-03 
2.187416576026e-03 -1.653808446854e-04 0.0 
-1.653808446854e-04 -8.676741714944e-04 0.0 
0.0 0.0 -1.587067154099e-04 
-1.371588137901e-03 -3.169762198632e-04 0.0 
-3.169762198632e-04 4.214800910036e-03 0.0 
0.0 0.0 -1.008438243783e-03 
-1.344798314370e-03 -8.279531255943e-04 0.0 
-8.279531255943e-04 7.026886665436e-03 0.0 
0.0 0.0 -1.344798314369e-03 
-1.564884777426e-03 -1.287545985866e-03 0.0 
-1.287545985866e-03 7.147060172158e-03 0.0 
0.0 0.0 -1.318785251170e-03 
-1.158469832793e-03 -1.923166980148e-03 0.0 
-1.923166980148e-03 5.883371209853e-03 0.0 
0.0 0.0 -1.321151187552e-03 
-1.585912391543e-03 2.691560132111e-04 0.0 
2.691560132111e-04 7.090908885405e-03 0.0 
0.0 0.0 -1.027148381742e-03 
-1.555187588006e-03 -1.971572702211e-04 0.0 
-1.971572702211e-04 7.705246922455e-03 0.0 
0.0 0.0 -1.125709525796e-03 
-1.338030260144e-03 -1.094386398329e-03 0.0 
-1.094386398329e-03 6.909148412757e-03 0.0 
0.0 0.0 -1.338030260144e-03 
-1.340754991027e-03 -1.372687681983e-03 0.0 
-1.372687681983e-03 6.806607219922e-03 0.0 
0.0 0.0 -1.340754991027e-03 
-1.561602649575e-03 2.480043620058e-04 0.0 
2.480043620058e-04 7.494608831512e-03 0.0 
0.0 0.0 -1.092518628634e-03 
3.307271248664e-03 4.314548185695e-05 0.0 
4.314548185695e-05 -1.214475185733e-03 0.0 
0.0 0.0 -8.755379438333e-05 
-1.478032168390e-03 1.489804673206e-04 0.0 
1.489804673206e-04 5.167022187345e-03 0.0 
0.0 0.0 -7.139539158865e-04 
-1.574977551316e-03 3.717997235828e-04 0.0 
3.717997235828e-04 5.188881553203e-03 0.0 
0.0 0.0 -7.133642253441e-04 
2.078295521971e-03 -1.511499007421e-04 0.0 
-1.511499007421e-04 -8.199563945998e-04 0.0 
0.0 0.0 -1.576675707606e-04 
-1.342313591240e-03 -1.872687525586e-03 0.0 
-1.872687525586e-03 6.355359522584e-03 0.0 
0.0 0.0 -1.342313591240e-03 
-1.269922737054e-03 -2.029167704155e-03 0.0 
-2.029167704155e-03 6.094262192879e-03 0.0 
0.0 0.0 -1.318355947622e-03 
-1.337959751097e-03 -1.908784167046e-03 0.0 
-1.908784167046e-03 5.900685640896e-03 0.0 
0.0 0.0 -1.337959751097e-03 
3.106621107953e-03 -1.497773368645e-04 0.0 
-1.497773368645e-04 -1.029211139497e-03 0.0 
0.0 0.0 -9.540963664560e-05 
2.941822019467e-03 -1.767432348869e-04 0.0 
-1.767432348869e-04 -9.568393427299e-04 0.0 
0.0 0.0 -9.747405510327e-05 
-1.340754991027e-03 -1.672627381109e-03 0.0 
-1.672627381109e-03 5.518495974516e-03 0.0 
0.0 0.0 -1.340754991027e-03 
-1.340396196526e-03 -1.852966983193e-03 0.0 
-1.852966983193e-03 5.697134399037e-03 0.0 
0.0 0.0 -1.340396196526e-03 
-1.600296610560e-03 -2.152006829150e-04 0.0 
-2.152006829150e-04 6.887323541576e-03 0.0 
0.0 0.0 -9.936726122374e-04 
-1.422222177314e-03 8.859389962602e-05 0.0 
8.859389962602e-05 5.179295465595e-03 0.0 
0.0 0.0 -7.124851972278e-04 
-1.571159218797e-03 -2.082021183410e-04 0.0 
-2.082021183410e-04 7.291178693471e-03 0.0 
0.0 0.0 -1.060142436171e-03 
-1.552782223510e-03 -2.129194587244e-04 0.0 
-2.129194587244e-04 6.002253842572e-03 0.0 
0.0 0.0 -8.626607521900e-04 
-1.382122713210e-03 3.570213775188e-05 0.0 
3.570213775188e-05 5.182667103943e-03 0.0 
0.0 0.0 -7.121912678902e-04 
2.259827960221e-03 -3.791885520061e-04 0.0 
-3.791885520061e-04 -6.773411335669e-04 0.0 
0.0 0.0 -9.442328267794e-05 
1.489465085535e-03 -3.873061726619e-04 0.0 
-3.873061726619e-04 -3.302723319640e-04 0.0 
0.0 0.0 -4.591167563965e-05 
1.195706273835e-03 -4.439423179226e-04 0.0 
-4.439423179226e-04 -2.457069974477e-04 0.0 
0.0 0.0 -4.589015575604e-05 
7.928883186884e-04 -4.308369996379e-04 0.0 
-4.308369996379e-04 -1.962835067220e-05 0.0 
0.0 0.0 -4.556578909549e-05 
-1.455576565641e-03 5.369324781880e-06 0.0 
5.369324781880e-06 4.421569252006e-03 0.0 
0.0 0.0 -1.025222297049e-03 
-1.326853145310e-03 -3.193870868211e-05 0.0 
-3.193870868211e-05 4.074529080795e-03 0.0 
0.0 0.0 -9.784754570978e-04 
3.643447720584e-04 -2.807478551813e-04 0.0 
-2.807478551813e-04 -8.302826669459e-05 0.0 
0.0 0.0 -1.159392125903e-04 
-1.882114812679e-03 5.257899597366e-05 0.0 
5.257899597366e-05 5.463849854237e-03 0.0 
0.0 0.0 -1.072123180932e-03 
1.624781745822e-04 -2.648253394118e-04 0.0 
-2.648253394118e-04 3.767456551544e-06 0.0 
0.0 0.0 -7.124812762874e-05 
-1.341471640605e-03 1.902532918980e-03 0.0 
1.902532918980e-03 8.304452194875e-03 0.0 
0.0 0.0 -1.341471640605e-03 
-1.340968685557e-03 8.342263842268e-04 0.0 
8.342263842268e-04 8.620360450522e-03 0.0 
0.0 0.0 -1.340968685557e-03 
-1.339320413496e-03 1.336323062728e-03 0.0 
1.336323062728e-03 8.515855351859e-03 0.0 
0.0 0.0 -1.339320413496e-03 
-5.175251243654e-04 1.147272255642e-05 0.0 
1.147272255642e-05 1.550881351190e-03 0.0 
0.0 0.0 -2.599136149544e-04 
-9.633323041400e-04 -3.549644401783e-05 0.0 
-3.549644401783e-05 2.981977788141e-03 0.0 
0.0 0.0 -7.340959586659e-04 
-1.337132911908e-03 6.510662741128e-04 0.0 
6.510662741128e-04 8.656607653519e-03 0.0 
0.0 0.0 -1.337132911908e-03 
-2.083032595708e-03 9.922266011855e-05 0.0 
9.922266011855e-05 6.472696883650e-03 0.0 
0.0 0.0 -1.124956933753e-03 
-1.344556937803e-03 5.003882733929e-04 0.0 
5.003882733929e-04 8.710429521741e-03 0.0 
0.0 0.0 -1.344556937803e-03 
-1.932677962729e-03 1.288201926386e-04 0.0 
1.288201926386e-04 6.746175248938e-03 0.0 
0.0 0.0 -1.192538251246e-03 
-1.740079752366e-03 1.547682996820e-04 0.0 
1.547682996820e-04 7.002368902305e-03 0.0 
0.0 0.0 -1.259905836238e-03 
-1.256318881540e-03 -3.058147318078e-04 0.0 
-3.058147318078e-04 3.889569585195e-03 0.0 
0.0 0.0 -9.521061186879e-04 
-1.479483252636e-03 7.231400883548e-04 0.0 
7.231400883548e-04 8.931379513718e-03 0.0 
0.0 0.0 -1.318101597465e-03 
-1.454407492241e-03 7.329644933787e-04 0.0 
7.329644933787e-04 8.932547234701e-03 0.0 
0.0 0.0 -1.321689849711e-03 
-1.996720130669e-03 -4.240856891719e-04 0.0 
-4.240856891719e-04 6.546271744836e-03 0.0 
0.0 0.0 -1.157495185000e-03 
-1.833092771074e-03 -4.338479580684e-04 0.0 
-4.338479580684e-04 6.845712330688e-03 0.0 
0.0 0.0 -1.225777420818e-03 
-1.841879665554e-03 -1.392809369192e-03 0.0 
-1.392809369192e-03 5.462425115064e-03 0.0 
0.0 0.0 -1.076967794221e-03 
0.0 0.0 0.0 
0.0 0.0 0.0 
0.0 0.0 0.0 
-8.795889895974e-04 -1.952925740306e-03 0.0 
-1.952925740306e-03 3.376145193665e-03 0.0 
0.0 0.0 -1.039304039601e-03 
1.660434101197e-03 -6.141622579472e-04 0.0 
-6.141622579472e-04 -6.719522836332e-05 0.0 
0.0 0.0 -2.442944474907e-04 
-1.378694188408e-03 -2.097012646119e-03 0.0 
-2.097012646119e-03 5.460269496084e-03 0.0 
0.0 0.0 -1.177819030284e-03 
-7.813950936845e-04 -2.358745935075e-03 0.0 
-2.358745935075e-03 3.287112188259e-03 0.0 
0.0 0.0 -1.040987640873e-03 
-1.809630590335e-03 -1.291578548695e-03 0.0 
-1.291578548695e-03 5.821414157847e-03 0.0 
0.0 0.0 -1.099016898379e-03 
-2.060296257065e-04 -1.796631504213e-03 0.0 
-1.796631504213e-03 1.564117229874e-03 0.0 
0.0 0.0 -5.820375446434e-04 
4.475341314438e-05 -9.010547106959e-04 0.0 
-9.010547106959e-04 6.723802247933e-04 0.0 
0.0 0.0 -2.733874678612e-04 
-1.819661686397e-03 -1.463949205523e-03 0.0 
-1.463949205523e-03 6.215728401457e-03 0.0 
0.0 0.0 -1.161668299909e-03 
-1.009350816753e-03 -1.981157607315e-03 0.0 
-1.981157607315e-03 3.679610224835e-03 0.0 
0.0 0.0 -1.056886766371e-03 
-1.124597673924e-03 -3.416283390981e-04 0.0 
-3.416283390981e-04 3.530274889455e-03 0.0 
0.0 0.0 -8.978673291013e-04 
-1.908614693689e-03 -1.553426855284e-03 0.0 
-1.553426855284e-03 5.883638228136e-03 0.0 
0.0 0.0 -1.096102707776e-03 
-1.506564574904e-03 4.784902240182e-04 0.0 
4.784902240182e-04 7.990398295391e-03 0.0 
0.0 0.0 -1.188907866872e-03 
-1.145966443117e-03 -2.688887835076e-04 0.0 
-2.688887835076e-04 3.559257817850e-03 0.0 
0.0 0.0 -8.802182425544e-04 
-2.343808151550e-04 -2.448482601409e-03 0.0 
-2.448482601409e-03 2.867036480139e-03 0.0 
0.0 0.0 -1.035646790376e-03 
-9.500506080825e-04 -2.724089328098e-03 0.0 
-2.724089328098e-03 3.674446532369e-03 0.0 
0.0 0.0 -9.625389225288e-04 
-1.856114660532e-03 -1.247587492440e-03 0.0 
-1.247587492440e-03 5.444374226428e-03 0.0 
0.0 0.0 -1.042884296030e-03 
-2.003615679542e-03 -9.107189773551e-04 0.0 
-9.107189773551e-04 5.760788445208e-03 0.0 
0.0 0.0 -1.050199500156e-03 
3.015162384708e-03 1.478491521065e-03 0.0 
1.478491521065e-03 -1.420788746949e-03 0.0 
0.0 0.0 -6.833029876111e-04 
-7.703338813803e-04 2.711642704622e-03 0.0 
2.711642704622e-03 3.268676482316e-03 0.0 
0.0 0.0 -9.206815977879e-04 
8.952220710028e-04 3.337500451005e-03 0.0 
3.337500451005e-03 9.018971507738e-04 0.0 
0.0 0.0 -7.701939521900e-04 
-1.492273682533e-03 -1.948749897048e-03 0.0 
-1.948749897048e-03 4.700056634630e-03 0.0 
0.0 0.0 -1.018483763552e-03 
-1.953152701418e-03 -1.266064436280e-03 0.0 
-1.266064436280e-03 6.190905664489e-03 0.0 
0.0 0.0 -1.125100902632e-03 
-2.130434678919e-03 -5.674193057818e-04 0.0 
-5.674193057818e-04 6.039060582820e-03 0.0 
0.0 0.0 -1.053755873404e-03 
1.981272582958e-04 -2.339075750409e-03 0.0 
-2.339075750409e-03 1.164667172993e-03 0.0 
0.0 0.0 -5.840547562666e-04 
-1.516698384373e-03 7.243684231909e-04 0.0 
7.243684231909e-04 7.963201592157e-03 0.0 
0.0 0.0 -1.183514100502e-03 
-1.571889609711e-03 6.492262438020e-04 0.0 
6.492262438020e-04 7.577660240319e-03 0.0 
0.0 0.0 -1.117084069417e-03 
-1.526943038589e-03 4.067391407097e-04 0.0 
4.067391407097e-04 5.686565415721e-03 0.0 
0.0 0.0 -8.110481619253e-04 
-1.474195239190e-03 -2.107699134124e-03 0.0 
-2.107699134124e-03 4.674985602820e-03 0.0 
0.0 0.0 -1.001070066037e-03 
-1.687869148980e-03 -1.597447162641e-03 0.0 
-1.597447162641e-03 5.094192157887e-03 0.0 
0.0 0.0 -1.032102790996e-03 
-1.559878786953e-03 1.186239496982e-04 0.0 
1.186239496982e-04 8.091883647163e-03 0.0 
0.0 0.0 -1.185362187646e-03 
-1.553576411269e-03 5.639076835034e-04 0.0 
5.639076835034e-04 7.828849217298e-03 0.0 
0.0 0.0 -1.150972777267e-03 
-5.736846005059e-04 -3.010470759541e-03 0.0 
-3.010470759541e-03 3.112745496219e-03 0.0 
0.0 0.0 -1.058777908313e-03 
-1.827264969184e-03 -1.207689843267e-03 0.0 
-1.207689843267e-03 6.491929530035e-03 0.0 
0.0 0.0 -1.190872049285e-03 
-1.617401302618e-03 1.036699389917e-03 0.0 
1.036699389917e-03 7.425262889637e-03 0.0 
0.0 0.0 -1.103416240745e-03 
-2.113993614968e-03 -7.222808743220e-04 0.0 
-7.222808743220e-04 6.023476369147e-03 0.0 
0.0 0.0 -1.069496670503e-03 
-1.471914821471e-03 -1.998353424490e-03 0.0 
-1.998353424490e-03 5.883536090439e-03 0.0 
0.0 0.0 -1.210017230578e-03 
-1.575272729869e-03 3.494544289054e-04 0.0 
3.494544289054e-04 8.019533452472e-03 0.0 
0.0 0.0 -1.181737430652e-03 
-1.652502708926e-03 2.520535947120e-04 0.0 
2.520535947120e-04 7.001595806507e-03 0.0 
0.0 0.0 -1.011817915138e-03 
-3.838894113269e-04 -2.804191833148e-03 0.0 
-2.804191833148e-03 2.874279057775e-03 0.0 
0.0 0.0 -9.985655989919e-04 
-6.304965187655e-04 -7.604202958905e-04 0.0 
-7.604202958905e-04 2.203620271365e-03 0.0 
0.0 0.0 -6.656342390725e-04 
4.047615641515e-04 -2.474054827037e-03 0.0 
-2.474054827037e-03 9.613198754716e-04 0.0 
0.0 0.0 -5.854634741242e-04 
2.836227978939e-05 -1.580599960261e-03 0.0 
-1.580599960261e-03 9.832792497712e-04 0.0 
0.0 0.0 -4.149592254337e-04 
1.034548557929e-04 -1.227500156599e-03 0.0 
-1.227500156599e-03 6.126727267546e-04 0.0 
0.0 0.0 -3.069118210918e-04 
-1.577352812428e-03 2.114313367924e-04 0.0 
2.114313367924e-04 7.845695102100e-03 0.0 
0.0 0.0 -1.150998037120e-03 
-1.900941556448e-03 -7.041406832224e-04 0.0 
-7.041406832224e-04 6.386638876857e-03 0.0 
0.0 0.0 -1.156839719840e-03 
6.843292428348e-05 -1.144232504345e-03 0.0 
-1.144232504345e-03 6.143886100226e-04 0.0 
0.0 0.0 -2.926378004169e-04 
-1.601987702258e-03 2.442990824200e-03 0.0 
2.442990824200e-03 6.852419756780e-03 0.0 
0.0 0.0 -1.160298666437e-03 
-1.543111448516e-03 4.596328783708e-04 0.0 
4.596328783708e-04 5.853297686999e-03 0.0 
0.0 0.0 -8.436798659344e-04 
-1.824750470194e-03 -1.859013687658e-03 0.0 
-1.859013687658e-03 5.532595994557e-03 0.0 
0.0 0.0 -1.067477449466e-03 
-2.006499161308e-03 -7.976010001953e-04 0.0 
-7.976010001953e-04 6.083504909474e-03 0.0 
0.0 0.0 -1.090430023688e-03 
7.833829666557e-04 -2.711290744461e-03 0.0 
-2.711290744461e-03 6.776524641225e-04 0.0 
0.0 0.0 -6.261580417621e-04 
-2.076799610215e-03 -1.031710463461e-03 0.0 
-1.031710463461e-03 6.135351760274e-03 0.0 
0.0 0.0 -1.087955833448e-03 
-1.557514890525e-03 -6.173462151110e-05 0.0 
-6.173462151110e-05 5.695796094032e-03 0.0 
0.0 0.0 -8.100176300978e-04 
8.750615862245e-04 9.176848780839e-04 0.0 
9.176848780839e-04 1.438408062181e-03 0.0 
0.0 0.0 -9.914869921737e-04 
-1.497791782641e-03 -1.444847597853e-03 0.0 
-1.444847597853e-03 6.204442023908e-03 0.0 
0.0 0.0 -1.242964905849e-03 
-6.875629852487e-04 -4.240155203853e-04 0.0 
-4.240155203853e-04 2.190912803371e-03 0.0 
0.0 0.0 -5.658909553065e-04 
-1.268098618658e-03 -2.126035490962e-03 0.0 
-2.126035490962e-03 5.495926708526e-03 0.0 
0.0 0.0 -1.215045542354e-03 
-1.631557581403e-03 2.235766335083e-04 0.0 
2.235766335083e-04 7.237605270102e-03 0.0 
0.0 0.0 -1.048288725887e-03 
-7.383595785151e-04 -6.377031037024e-04 0.0 
-6.377031037024e-04 2.446869421887e-03 0.0 
0.0 0.0 -6.818911139857e-04 
3.993077738021e-04 -2.419206884214e-03 0.0 
-2.419206884214e-03 9.348823657586e-04 0.0 
0.0 0.0 -5.717957740974e-04 
-1.500476059484e-03 -8.906484908892e-04 0.0 
-8.906484908892e-04 4.589149281530e-03 0.0 
0.0 0.0 -1.044847128380e-03 
-1.630418366467e-03 6.661053165545e-04 0.0 
6.661053165545e-04 6.481746764143e-03 0.0 
0.0 0.0 -9.409807611877e-04 
-5.756498552716e-04 -2.159817615522e-03 0.0 
-2.159817615522e-03 2.678873720584e-03 0.0 
0.0 0.0 -9.013816565627e-04 
-1.610525300296e-03 1.600914995101e-04 0.0 
1.600914995101e-04 7.460282061065e-03 0.0 
0.0 0.0 -1.085119818393e-03 
-1.626505474320e-03 1.193898643633e-04 0.0 
1.193898643633e-04 6.796479922044e-03 0.0 
0.0 0.0 -9.816794289629e-04 
-1.168002604940e-03 -1.979309092588e-03 0.0 
-1.979309092588e-03 4.001814082530e-03 0.0 
0.0 0.0 -1.032510638845e-03 
-1.993224441762e-03 -1.056137829821e-03 0.0 
-1.056137829821e-03 5.774090597717e-03 0.0 
0.0 0.0 -1.075584385303e-03 
-2.021709392423e-03 -1.349459280440e-03 0.0 
-1.349459280440e-03 5.860171390496e-03 0.0 
0.0 0.0 -1.066391945090e-03 
-1.595291763312e-03 5.874023300959e-04 0.0 
5.874023300959e-04 7.178060268656e-03 0.0 
0.0 0.0 -1.050681058959e-03 
-5.082515002275e-04 -8.941420093747e-04 0.0 
-8.941420093747e-04 1.798316205834e-03 0.0 
0.0 0.0 -5.009000172756e-04 
-1.206852124203e-03 -1.671075112969e-03 0.0 
-1.671075112969e-03 4.019505130445e-03 0.0 
0.0 0.0 -1.029746919386e-03 
-5.152753143588e-05 2.170825683475e-03 0.0 
2.170825683475e-03 3.140726951459e-03 0.0 
0.0 0.0 -1.141128458404e-03 
-1.641668485544e-03 3.431501301840e-04 0.0 
3.431501301840e-04 7.404941610079e-03 0.0 
0.0 0.0 -1.078198857115e-03 
-1.057951637287e-03 -1.671343146736e-03 0.0 
-1.671343146736e-03 3.677031607098e-03 0.0 
0.0 0.0 -1.017599913258e-03 
-8.954401304147e-04 -2.800206404235e-03 0.0 
-2.800206404235e-03 3.674164100142e-03 0.0 
0.0 0.0 -1.058318663232e-03 
-1.115312546428e-03 -2.189534952593e-03 0.0 
-2.189534952593e-03 5.045014028914e-03 0.0 
0.0 0.0 -1.187586327529e-03 
-1.596801678993e-03 6.045917028781e-04 0.0 
6.045917028781e-04 6.950727632054e-03 0.0 
0.0 0.0 -1.013969106439e-03 
2.322873706387e-04 -1.368679716301e-04 0.0 
-1.368679716301e-04 -2.322873706387e-04 0.0 
0.0 0.0 0.0 
4.726741315202e-05 -1.330898926681e-03 0.0 
-1.330898926681e-03 8.674614564573e-04 0.0 
0.0 0.0 -2.916872467244e-04 
2.273358372470e-03 1.445761220817e-05 0.0 
1.445761220817e-05 -1.234043607805e-03 0.0 
0.0 0.0 -4.454206134279e-04 
-1.880676767284e-03 -9.969975945957e-04 0.0 
-9.969975945957e-04 6.131847364448e-03 0.0 
0.0 0.0 -1.127837695838e-03 
-1.619604464873e-03 6.374782176385e-04 0.0 
6.374782176385e-04 6.719807393941e-03 0.0 
0.0 0.0 -9.775003154318e-04 
-1.665473239862e-03 -8.814240019008e-04 0.0 
-8.814240019008e-04 4.990171794499e-03 0.0 
0.0 0.0 -1.065326950858e-03 
-1.596762474986e-03 5.442334346395e-04 0.0 
5.442334346395e-04 6.065464133813e-03 0.0 
0.0 0.0 -8.745614812816e-04 
-3.748877525410e-04 -1.800985621523e-03 0.0 
-1.800985621523e-03 3.574605346147e-03 0.0 
0.0 0.0 -1.139196670502e-03 
-1.359206623324e-03 -1.598338811102e-03 0.0 
-1.598338811102e-03 4.356288718259e-03 0.0 
0.0 0.0 -1.038619054332e-03 
-1.952425401121e-03 -1.122489104774e-03 0.0 
-1.122489104774e-03 5.808139918506e-03 0.0 
0.0 0.0 -1.061632825506e-03 
-7.352512267089e-04 -7.174892847169e-04 0.0 
-7.174892847169e-04 2.324934696345e-03 0.0 
0.0 0.0 -5.540246046759e-04 
-1.437645385880e-03 -1.599317358972e-03 0.0 
-1.599317358972e-03 5.870614125847e-03 0.0 
0.0 0.0 -1.211531131004e-03 
-1.154210490817e-03 -1.954082935906e-03 0.0 
-1.954082935906e-03 4.005717739264e-03 0.0 
0.0 0.0 -1.074148950826e-03 
-8.379192553434e-04 -5.906240485017e-04 0.0 
-5.906240485017e-04 2.576604047046e-03 0.0 
0.0 0.0 -5.876558844704e-04 
-1.197102623790e-03 -1.637680359765e-03 0.0 
-1.637680359765e-03 4.017415051808e-03 0.0 
0.0 0.0 -1.056762485630e-03 
-7.509293429896e-04 -1.933738058068e-03 0.0 
-1.933738058068e-03 3.044668356527e-03 0.0 
0.0 0.0 -9.830310058020e-04 
-3.848069222800e-04 -1.987035085230e-03 0.0 
-1.987035085230e-03 2.096507399408e-03 0.0 
0.0 0.0 -7.335859187690e-04 
-1.641529108376e-03 -8.260601691015e-04 0.0 
-8.260601691015e-04 4.922455749525e-03 0.0 
0.0 0.0 -1.057704792895e-03 
1.274028603033e-03 -1.869459937269e-04 0.0 
-1.869459937269e-04 -4.728594485301e-04 0.0 
0.0 0.0 -1.484808277242e-04 
8.391344234421e-04 -3.183235339587e-04 0.0 
-3.183235339587e-04 -2.967630892776e-04 0.0 
0.0 0.0 -1.070543391422e-04 
-1.665019363331e-03 -1.732448119605e-03 0.0 
-1.732448119605e-03 5.107282910853e-03 0.0 
0.0 0.0 -1.076850574752e-03 
-6.443609575616e-04 -8.027982188953e-04 0.0 
-8.027982188953e-04 2.093114862673e-03 0.0 
0.0 0.0 -5.127475950200e-04 
-1.433152566994e-03 -2.256582062865e-03 0.0 
-2.256582062865e-03 4.678524487026e-03 0.0 
0.0 0.0 -1.065643708224e-03 
-1.181624258185e-03 -2.541209283503e-03 0.0 
-2.541209283503e-03 4.198630913141e-03 0.0 
0.0 0.0 -1.061543848411e-03 
-2.864899867882e-04 -2.872572545388e-03 0.0 
-2.872572545388e-03 2.406784440249e-03 0.0 
0.0 0.0 -9.086976229117e-04 
1.281208818910e-03 -3.086935772070e-03 0.0 
-3.086935772070e-03 3.369465702636e-04 0.0 
0.0 0.0 -6.934951667885e-04 
-1.645375116221e-03 6.411920099951e-04 0.0 
6.411920099951e-04 7.711017833911e-03 0.0 
0.0 0.0 -1.137719822027e-03 
1.154207816654e-03 1.867319367673e-03 0.0 
1.867319367673e-03 -6.876363112737e-04 0.0 
0.0 0.0 -1.999592165914e-04 
-9.249733248304e-04 -1.654130041636e-03 0.0 
-1.654130041636e-03 3.362873241434e-03 0.0 
0.0 0.0 -9.992710862841e-04 
-3.877098979375e-04 -1.380494157509e-03 0.0 
-1.380494157509e-03 3.663297430763e-03 0.0 
0.0 0.0 -1.175533656463e-03 
-5.174404311479e-04 -5.539878075327e-04 0.0 
-5.539878075327e-04 1.742776399261e-03 0.0 
0.0 0.0 -4.908139796285e-04 
-1.654366313170e-03 2.025707585884e-04 0.0 
2.025707585884e-04 6.355277344232e-03 0.0 
0.0 0.0 -9.088859120638e-04 
-1.608026372927e-03 7.066471578212e-05 0.0 
7.066471578212e-05 5.908321987661e-03 0.0 
0.0 0.0 -8.416286270284e-04 
-1.832935889570e-04 -1.554120033244e-03 0.0 
-1.554120033244e-03 1.379295739965e-03 0.0 
0.0 0.0 -5.125723504322e-04 
-9.249495539582e-04 -2.182927448984e-03 0.0 
-2.182927448984e-03 4.540217093715e-03 0.0 
0.0 0.0 -1.158722036769e-03 
-1.708983070523e-03 5.831805314674e-04 0.0 
5.831805314674e-04 7.093076428562e-03 0.0 
0.0 0.0 -1.034898561726e-03 
-5.347835094169e-04 -8.712026877687e-04 0.0 
-8.712026877687e-04 1.955284966163e-03 0.0 
0.0 0.0 -6.087863386054e-04 
-1.641053002078e-03 8.278210871732e-04 0.0 
8.278210871732e-04 7.844844353227e-03 0.0 
0.0 0.0 -1.166520446339e-03 
-1.573669309360e-03 1.135775076811e-03 0.0 
1.135775076811e-03 7.785651679837e-03 0.0 
0.0 0.0 -1.169001632583e-03 
-5.801197933913e-04 -1.186925299187e-03 0.0 
-1.186925299187e-03 2.194197512368e-03 0.0 
0.0 0.0 -6.784273028471e-04 
3.325860372313e-04 2.756630050232e-03 0.0 
2.756630050232e-03 1.228114910237e-03 0.0 
0.0 0.0 -6.688718346292e-04 
-3.593200341485e-04 -1.692198470874e-03 0.0 
-1.692198470874e-03 1.863660251544e-03 0.0 
0.0 0.0 -6.447172360267e-04 
-1.851327153153e-03 -1.651837749691e-03 0.0 
-1.651837749691e-03 5.510234686298e-03 0.0 
0.0 0.0 -1.068438311093e-03 
-1.517049278155e-03 -1.208152311661e-03 0.0 
-1.208152311661e-03 4.665351215207e-03 0.0 
0.0 0.0 -1.047608655120e-03 
-1.588271255534e-03 2.440442444252e-03 0.0 
2.440442444252e-03 7.130284191767e-03 0.0 
0.0 0.0 -1.169529464977e-03 
-1.586290284398e-03 9.796528348583e-04 0.0 
9.796528348583e-04 7.658587432112e-03 0.0 
0.0 0.0 -1.140030709108e-03 
-1.655646109898e-03 -1.957177626158e-03 0.0 
-1.957177626158e-03 5.116194479746e-03 0.0 
0.0 0.0 -1.068248785331e-03 
-1.685997880852e-03 -1.784608356716e-03 0.0 
-1.784608356716e-03 5.105111501202e-03 0.0 
0.0 0.0 -1.017402529519e-03 
-2.876771207717e-04 -1.389411797297e-03 0.0 
-1.389411797297e-03 1.511875759344e-03 0.0 
0.0 0.0 -5.246565593881e-04 
-1.860731135260e-03 -1.457489852606e-03 0.0 
-1.457489852606e-03 5.487326218288e-03 0.0 
0.0 0.0 -1.032853941699e-03 
-1.642797758815e-03 9.181312676492e-04 0.0 
9.181312676492e-04 7.041840567815e-03 0.0 
0.0 0.0 -1.037144748481e-03 
-1.515109443870e-03 -1.227447560286e-03 0.0 
-1.227447560286e-03 4.684685552436e-03 0.0 
0.0 0.0 -1.069204617036e-03 
-1.671620005891e-03 2.929392441870e-04 0.0 
2.929392441870e-04 6.771202525829e-03 0.0 
0.0 0.0 -9.752741834902e-04 
-1.678948556331e-03 5.367956015661e-04 0.0 
5.367956015661e-04 7.330127940856e-03 0.0 
0.0 0.0 -1.071415751597e-03 
2.313268375330e-03 1.796314023182e-03 0.0 
1.796314023182e-03 -1.074261141593e-03 0.0 
0.0 0.0 -5.310031001729e-04 
-1.592584348350e-03 8.322792606474e-04 0.0 
8.322792606474e-04 7.512035850087e-03 0.0 
0.0 0.0 -1.110258267496e-03 
-1.248028584087e-03 -1.336863044777e-03 0.0 
-1.336863044777e-03 4.037984938667e-03 0.0 
0.0 0.0 -1.014964823884e-03 
-1.349668852610e-03 -1.596461481346e-03 0.0 
-1.596461481346e-03 4.366516516387e-03 0.0 
0.0 0.0 -1.071455489612e-03 
-8.215746796524e-04 -1.528227033612e-03 0.0 
-1.528227033612e-03 3.070718427055e-03 0.0 
0.0 0.0 -9.608678829247e-04 
1.835549677296e-04 -2.809528380429e-03 0.0 
-2.809528380429e-03 1.483313829287e-03 0.0 
0.0 0.0 -7.143723415785e-04 
-1.633555633710e-03 7.702002767988e-04 0.0 
7.702002767988e-04 6.885994191198e-03 0.0 
0.0 0.0 -1.007339817349e-03 
3.076530191659e-04 -3.054269635980e-03 0.0 
-3.054269635980e-03 1.447807107602e-03 0.0 
0.0 0.0 -7.523400543292e-04 
-5.051265774841e-04 -1.582649049219e-03 0.0 
-1.582649049219e-03 2.186388830496e-03 0.0 
0.0 0.0 -7.205409655766e-04 
-1.167533049478e-04 -1.421228658134e-03 0.0 
-1.421228658134e-03 1.178987498042e-03 0.0 
0.0 0.0 -4.201231086673e-04 
-1.691347074083e-03 4.318386709728e-04 0.0 
4.318386709728e-04 6.937090811669e-03 0.0 
0.0 0.0 -1.005115000480e-03 
-4.635122803593e-04 -1.604799167025e-03 0.0 
-1.604799167025e-03 2.085354868508e-03 0.0 
0.0 0.0 -6.950753949209e-04 
-1.191515342284e-03 -1.717007076640e-03 0.0 
-1.717007076640e-03 5.423834924642e-03 0.0 
0.0 0.0 -1.218716866995e-03 
-1.611990725284e-03 7.358230951730e-04 0.0 
7.358230951730e-04 7.120198208464e-03 0.0 
0.0 0.0 -1.043883448597e-03 
-1.702982719558e-03 -1.584997506959e-03 0.0 
-1.584997506959e-03 5.470541578607e-03 0.0 
0.0 0.0 -1.070373463590e-03 
-9.109045738307e-04 -2.286339166372e-04 0.0 
-2.286339166372e-04 4.268441463060e-03 0.0 
0.0 0.0 -1.284729618418e-03 
-1.071268175159e-03 -1.648454023553e-03 0.0 
-1.648454023553e-03 3.707169372543e-03 0.0 
0.0 0.0 -1.023311028316e-03 
-5.174967158518e-04 -1.184771327579e-03 0.0 
-1.184771327579e-03 2.030619627748e-03 0.0 
0.0 0.0 -6.484812479557e-04 
-2.326317737538e-04 -1.038651026586e-03 0.0 
-1.038651026586e-03 1.174275035768e-03 0.0 
0.0 0.0 -4.035613980062e-04 
-1.410090236189e-03 -2.406400776569e-03 0.0 
-2.406400776569e-03 4.648410275236e-03 0.0 
0.0 0.0 -1.051259780966e-03 
-1.600848466290e-03 5.345976904083e-04 0.0 
5.345976904083e-04 6.550294708413e-03 0.0 
0.0 0.0 -9.473489374553e-04 
-8.717253142324e-05 -9.933700925620e-04 0.0 
-9.933700925620e-04 8.344671106644e-04 0.0 
0.0 0.0 -3.202691053891e-04 
-6.027995719924e-04 -2.107392599842e-03 0.0 
-2.107392599842e-03 2.722751826872e-03 0.0 
0.0 0.0 -9.085509663768e-04 
-7.199860598078e-04 -4.341095348245e-04 0.0 
-4.341095348245e-04 2.121552428607e-03 0.0 
0.0 0.0 -4.196057652059e-04 
-1.682938822042e-03 3.318724932828e-04 0.0 
3.318724932828e-04 6.532037136807e-03 0.0 
0.0 0.0 -9.387834224271e-04 
-7.776326742692e-04 -1.884645157224e-03 0.0 
-1.884645157224e-03 3.094899202807e-03 0.0 
0.0 0.0 -9.909213861921e-04 
-1.231039957355e-03 -2.426325464904e-03 0.0 
-2.426325464904e-03 4.199347214172e-03 0.0 
0.0 0.0 -9.819879942351e-04 
-8.554599545912e-04 -1.459966539243e-03 0.0 
-1.459966539243e-03 3.093994812612e-03 0.0 
0.0 0.0 -9.237817853494e-04 
-1.614515104562e-03 2.789174945577e-04 0.0 
2.789174945577e-04 7.633843682432e-03 0.0 
0.0 0.0 -1.114809527198e-03 
-5.165996464755e-04 -1.902435422896e-03 0.0 
-1.902435422896e-03 2.384778332934e-03 0.0 
0.0 0.0 -8.006480084822e-04 
-1.128557246388e-03 -2.713813412197e-03 0.0 
-2.713813412197e-03 4.096504171839e-03 0.0 
0.0 0.0 -1.021386065992e-03 
3.769531236008e-04 -2.410295298791e-03 0.0 
-2.410295298791e-03 9.611755011410e-04 0.0 
0.0 0.0 -5.734836963179e-04 
-1.146759310470e-03 -2.656955500371e-03 0.0 
-2.656955500371e-03 4.139056916818e-03 0.0 
0.0 0.0 -1.043150860743e-03 
-1.375457983811e-03 -1.244246825682e-03 0.0 
-1.244246825682e-03 4.353109699875e-03 0.0 
0.0 0.0 -1.054662228279e-03 
-1.554003148348e-03 -1.878419659560e-03 0.0 
-1.878419659560e-03 5.069341272683e-03 0.0 
0.0 0.0 -1.041555045145e-03 
3.002499616426e-03 -7.287809856288e-04 0.0 
-7.287809856288e-04 -1.352929250409e-03 0.0 
0.0 0.0 -7.069587282928e-04 
-6.177242885591e-04 -4.890935474393e-04 0.0 
-4.890935474393e-04 2.000133674606e-03 0.0 
0.0 0.0 -5.285791946032e-04 
-1.609261505607e-03 9.637114852810e-05 0.0 
9.637114852810e-05 6.165456359686e-03 0.0 
0.0 0.0 -8.787268422831e-04 
6.987156508361e-04 -1.946712657170e-03 0.0 
-1.946712657170e-03 1.033985256572e-03 0.0 
0.0 0.0 -7.425861031749e-04 
3.405430775163e-04 3.191948666083e-03 0.0 
3.191948666083e-03 1.485409776068e-03 0.0 
0.0 0.0 -7.825512229649e-04 
-1.644262011324e-03 1.659911649759e-04 0.0 
1.659911649759e-04 6.584724351472e-03 0.0 
0.0 0.0 -9.453210152248e-04 
6.455202986104e-04 -2.635854245695e-03 0.0 
-2.635854245695e-03 6.894465372206e-04 0.0 
0.0 0.0 -5.721286439276e-04 
-1.681255032869e-03 9.721382689111e-04 0.0 
9.721382689111e-04 6.557103597372e-03 0.0 
0.0 0.0 -9.642804585795e-04 
-6.124308423891e-04 -5.450173225678e-04 0.0 
-5.450173225678e-04 1.850421424375e-03 0.0 
0.0 0.0 -3.816933993452e-04 
-1.231036729784e-03 -2.253664933021e-03 0.0 
-2.253664933021e-03 5.042416419642e-03 0.0 
0.0 0.0 -1.150402778756e-03 
7.350617248358e-04 -1.287476273638e-03 0.0 
-1.287476273638e-03 1.272883254993e-03 0.0 
0.0 0.0 -8.605478484981e-04 
6.223710608225e-04 1.356379083397e-03 0.0 
1.356379083397e-03 1.985099964088e-03 0.0 
0.0 0.0 -1.037051012011e-03 
-1.598102879927e-03 7.448720335872e-04 0.0 
7.448720335872e-04 8.095744984387e-03 0.0 
0.0 0.0 -1.204463612412e-03 
8.919152436734e-05 -3.143989424638e-03 0.0 
-3.143989424638e-03 1.851557330955e-03 0.0 
0.0 0.0 -8.317495094241e-04 
-4.309306607764e-04 -9.183848167176e-04 0.0 
-9.183848167176e-04 1.661245254261e-03 0.0 
0.0 0.0 -5.272776829218e-04 
-5.215676815475e-04 -3.050968300431e-03 0.0 
-3.050968300431e-03 3.002352665044e-03 0.0 
0.0 0.0 -1.027200950222e-03 
-1.049023862644e-03 -1.741518653201e-03 0.0 
-1.741518653201e-03 4.976635689622e-03 0.0 
0.0 0.0 -1.189963100592e-03 
9.320234363391e-04 -2.596047537173e-03 0.0 
-2.596047537173e-03 3.625727901239e-04 0.0 
0.0 0.0 -5.548269541984e-04 
-1.645253786717e-03 -2.142300707641e-03 0.0 
-2.142300707641e-03 5.116342603387e-03 0.0 
0.0 0.0 -1.056575865346e-03 
-1.668373394945e-03 3.866502142135e-04 0.0 
3.866502142135e-04 7.172333763355e-03 0.0 
0.0 0.0 -1.041631482750e-03 
1.707610751817e-03 -3.111302323774e-03 0.0 
-3.111302323774e-03 2.006678016110e-05 0.0 
0.0 0.0 -7.404332279907e-04 
-8.518987020310e-04 -2.879189791171e-03 0.0 
-2.879189791171e-03 3.589652711545e-03 0.0 
0.0 0.0 -1.034177093206e-03 
-1.689258382171e-03 3.631400807220e-04 0.0 
3.631400807220e-04 6.026727173804e-03 0.0 
0.0 0.0 -8.663127257150e-04 
-8.305596344540e-04 -9.136388392921e-04 0.0 
-9.136388392921e-04 2.720781083117e-03 0.0 
0.0 0.0 -7.057144296542e-04 
-4.174774710502e-04 -2.264727665933e-03 0.0 
-2.264727665933e-03 2.338052704739e-03 0.0 
0.0 0.0 -8.231036715810e-04 
1.803968687695e-04 3.742029911528e-03 0.0 
3.742029911528e-03 2.055326787370e-03 0.0 
0.0 0.0 -9.358934819731e-04 
-1.362318107691e-03 -2.168484734475e-03 0.0 
-2.168484734475e-03 4.618346883937e-03 0.0 
0.0 0.0 -1.012809740122e-03 
-6.445707195621e-05 3.204089462648e-03 0.0 
3.204089462648e-03 2.166873657449e-03 0.0 
0.0 0.0 -9.010356794969e-04 
5.513709198924e-04 3.609450072054e-03 0.0 
3.609450072054e-03 1.451733722049e-03 0.0 
0.0 0.0 -8.584734179747e-04 
-1.663785911262e-03 9.479908707512e-04 0.0 
9.479908707512e-04 6.801753296704e-03 0.0 
0.0 0.0 -1.000670320419e-03 
-1.603261119446e-03 5.580378966873e-04 0.0 
5.580378966873e-04 6.304876685805e-03 0.0 
0.0 0.0 -9.110000341593e-04 
-1.665053571431e-03 8.222814637678e-04 0.0 
8.222814637678e-04 6.156291516455e-03 0.0 
0.0 0.0 -8.984003255416e-04 
-1.378097458895e-03 -1.307048665384e-03 0.0 
-1.307048665384e-03 4.348190678149e-03 0.0 
0.0 0.0 -1.034446146726e-03 
-6.901682956972e-04 -2.185652284413e-03 0.0 
-2.185652284413e-03 4.019713840668e-03 0.0 
0.0 0.0 -1.130631056169e-03 
-1.834308716731e-04 -3.140526153133e-03 0.0 
-3.140526153133e-03 2.359250978041e-03 0.0 
0.0 0.0 -9.324943313007e-04 
-1.664409897791e-03 2.283299940873e-04 0.0 
2.283299940873e-04 6.118881933301e-03 0.0 
0.0 0.0 -8.720525204519e-04 
-1.540055594527e-03 2.603535571495e-03 0.0 
2.603535571495e-03 6.865325717395e-03 0.0 
0.0 0.0 -1.193584144721e-03 
3.472050528190e-04 1.692564590117e-03 0.0 
1.692564590117e-03 2.541247573186e-03 0.0 
0.0 0.0 -1.073433710836e-03 
-1.128039575521e-03 -2.445102979842e-03 0.0 
-2.445102979842e-03 4.119062361786e-03 0.0 
0.0 0.0 -9.841343610905e-04 
-1.618130106290e-03 8.767059940841e-04 0.0 
8.767059940841e-04 7.278368023729e-03 0.0 
0.0 0.0 -1.073677668998e-03 
-6.910390954277e-05 -2.799918663238e-03 0.0 
-2.799918663238e-03 1.917780934052e-03 0.0 
0.0 0.0 -7.922901533612e-04 
-2.515921695526e-04 -2.585539987467e-03 0.0 
-2.585539987467e-03 2.152735873912e-03 0.0 
0.0 0.0 -8.147758732969e-04 
-3.310614028043e-04 -1.379924337061e-03 0.0 
-1.379924337061e-03 1.616149347076e-03 0.0 
0.0 0.0 -5.507519761165e-04 
-5.011752582021e-04 -3.030712813107e-03 0.0 
-3.030712813107e-03 2.924383664169e-03 0.0 
0.0 0.0 -9.894786617912e-04 
-4.694395913292e-04 -2.445221033123e-03 0.0 
-2.445221033123e-03 2.569902493715e-03 0.0 
0.0 0.0 -9.001983867369e-04 
-1.710187933828e-03 4.633984892961e-04 0.0 
4.633984892961e-04 6.694041267773e-03 0.0 
0.0 0.0 -9.686535345556e-04 
-1.726289188827e-03 4.896054940225e-04 0.0 
4.896054940225e-04 6.449117765340e-03 0.0 
0.0 0.0 -9.322463471790e-04 
2.416944889244e-03 5.439879453653e-04 0.0 
5.439879453653e-04 -1.208818724836e-03 0.0 
0.0 0.0 -5.177683561747e-04 
-1.928901237433e-04 -2.408049599402e-03 0.0 
-2.408049599402e-03 1.916746904624e-03 0.0 
0.0 0.0 -7.387957632348e-04 
2.990366271950e-03 1.613745370932e-03 0.0 
1.613745370932e-03 -1.371577636674e-03 0.0 
0.0 0.0 -6.937665579755e-04 
-3.910486537431e-04 -2.315216698545e-03 0.0 
-2.315216698545e-03 2.304304739270e-03 0.0 
0.0 0.0 -8.199668937971e-04 
-2.230223782308e-04 -2.682222528879e-03 0.0 
-2.682222528879e-03 2.152181418268e-03 0.0 
0.0 0.0 -8.267824457303e-04 
-4.073029906979e-04 -1.294483440297e-03 0.0 
-1.294483440297e-03 1.772331589387e-03 0.0 
0.0 0.0 -5.850122565809e-04 
-4.258807302887e-04 -2.144389728424e-03 0.0 
-2.144389728424e-03 3.478718025925e-03 0.0 
0.0 0.0 -1.101849228970e-03 
4.193172772845e-04 -3.233569204744e-03 0.0 
-3.233569204744e-03 1.400177349689e-03 0.0 
0.0 0.0 -7.797834115600e-04 
-1.646879822787e-03 4.813878958504e-04 0.0 
4.813878958504e-04 7.564621706005e-03 0.0 
0.0 0.0 -1.107989045227e-03 
6.164328486864e-04 -3.141645067701e-03 0.0 
-3.141645067701e-03 1.094713369857e-03 0.0 
0.0 0.0 -7.333483793757e-04 
-5.352671715167e-04 -2.920481306985e-03 0.0 
-2.920481306985e-03 2.976534494236e-03 0.0 
0.0 0.0 -9.268471029392e-04 
3.090740504693e-05 -3.263078096127e-03 0.0 
-3.263078096127e-03 2.029516789361e-03 0.0 
0.0 0.0 -8.830389404604e-04 
1.224821345307e-03 3.216271527602e-03 0.0 
3.216271527602e-03 4.534564749945e-04 0.0 
0.0 0.0 -7.192619229864e-04 
-4.591680976874e-04 -1.267727629031e-03 0.0 
-1.267727629031e-03 1.902437159688e-03 0.0 
0.0 0.0 -6.185438837147e-04 
-8.295759423418e-04 -1.747729159177e-03 0.0 
-1.747729159177e-03 4.457598420487e-03 0.0 
0.0 0.0 -1.161691925552e-03 
-8.640451209017e-04 -2.074084677624e-03 0.0 
-2.074084677624e-03 4.658509439049e-03 0.0 
0.0 0.0 -1.198716319349e-03 
-6.013355258858e-04 3.714306523016e-03 0.0 
3.714306523016e-03 3.360817493125e-03 0.0 
0.0 0.0 -9.650368815299e-04 
-1.923559704037e-05 -2.994572033542e-03 0.0 
-2.994572033542e-03 1.948727475502e-03 0.0 
0.0 0.0 -8.269250907692e-04 
-2.503696762219e-04 -3.166835997765e-03 0.0 
-3.166835997765e-03 2.485701371906e-03 0.0 
0.0 0.0 -9.354962741733e-04 
-1.647815013080e-03 8.021683468908e-04 0.0 
8.021683468908e-04 6.643407279142e-03 0.0 
0.0 0.0 -9.708520278613e-04 
-3.181114656463e-04 -2.713015915343e-03 0.0 
-2.713015915343e-03 2.377429006136e-03 0.0 
0.0 0.0 -8.825646602100e-04 
7.116670481849e-04 3.351796189116e-03 0.0 
3.351796189116e-03 1.105566406541e-03 0.0 
0.0 0.0 -7.788143377395e-04 
-5.501781971430e-04 -1.884487968291e-03 0.0 
-1.884487968291e-03 2.464549120431e-03 0.0 
0.0 0.0 -8.204446814089e-04 
9.957483789486e-04 -2.931560812442e-03 0.0 
-2.931560812442e-03 3.486105119444e-04 0.0 
0.0 0.0 -5.761538103827e-04 
1.170702144068e-04 -2.917551374595e-03 0.0 
-2.917551374595e-03 1.660101911363e-03 0.0 
0.0 0.0 -7.616451967584e-04 
-5.960830469200e-04 -1.478493121431e-03 0.0 
-1.478493121431e-03 2.390521820873e-03 0.0 
0.0 0.0 -7.690451888369e-04 
-7.193147455851e-04 -1.069003876046e-03 0.0 
-1.069003876046e-03 2.479314286133e-03 0.0 
0.0 0.0 -6.849754419779e-04 
-1.850126680382e-05 -3.140240111362e-03 0.0 
-3.140240111362e-03 2.040450553655e-03 0.0 
0.0 0.0 -8.665496943648e-04 
-8.517286139436e-04 -2.699031265188e-03 0.0 
-2.699031265188e-03 3.572094775893e-03 0.0 
0.0 0.0 -9.554846610150e-04 
-9.258628841067e-04 3.334973100130e-03 0.0 
3.334973100130e-03 4.800766489173e-03 0.0 
0.0 0.0 -1.128610778606e-03 
1.795476015728e-03 -3.745896555992e-04 0.0 
-3.745896555992e-04 -4.681407310308e-04 0.0 
0.0 0.0 -1.007271482096e-04 
1.477477984761e-03 -2.160820890410e-03 0.0 
-2.160820890410e-03 -1.640262078733e-04 0.0 
0.0 0.0 -5.629079043802e-04 
9.457248714060e-04 -2.859194649623e-03 0.0 
-2.859194649623e-03 6.047505636496e-04 0.0 
0.0 0.0 -6.644894721667e-04 
2.064739481844e-04 -3.194226446081e-03 0.0 
-3.194226446081e-03 1.689929388459e-03 0.0 
0.0 0.0 -8.127442871328e-04 
-1.656928892650e-03 8.151295774597e-04 0.0 
8.151295774597e-04 6.399838907814e-03 0.0 
0.0 0.0 -9.344164207832e-04 
2.545948249673e-04 -3.270064507394e-03 0.0 
-3.270064507394e-03 1.662466157556e-03 0.0 
0.0 0.0 -8.215975639385e-04 
-6.717590179400e-04 -1.743398916895e-03 0.0 
-1.743398916895e-03 2.730040439290e-03 0.0 
0.0 0.0 -8.821206091502e-04 
2.940147133768e-04 -2.953116785718e-03 0.0 
-2.953116785718e-03 1.404914365559e-03 0.0 
0.0 0.0 -7.281124624012e-04 
-1.597640344519e-03 6.950049643667e-04 0.0 
6.950049643667e-04 7.352823299798e-03 0.0 
0.0 0.0 -1.080452943103e-03 
-7.063133806754e-04 -1.717335593378e-03 0.0 
-1.717335593378e-03 2.816704678048e-03 0.0 
0.0 0.0 -9.044534131596e-04 
-1.993759384210e-04 -8.715145545495e-04 0.0 
-8.715145545495e-04 1.025473523807e-03 0.0 
0.0 0.0 -3.540418223084e-04 
-3.396899465816e-04 -1.001666654583e-03 0.0 
-1.001666654583e-03 1.438762041900e-03 0.0 
0.0 0.0 -4.710308979937e-04 
8.199892085620e-04 -2.799788621547e-03 0.0 
-2.799788621547e-03 6.522727846800e-04 0.0 
0.0 0.0 -6.309694256751e-04 
9.078868863827e-06 -2.738074417405e-03 0.0 
-2.738074417405e-03 1.733216879781e-03 0.0 
0.0 0.0 -7.466981779905e-04 
1.103409613190e-03 -2.545332485906e-03 0.0 
-2.545332485906e-03 3.291592924430e-04 0.0 
0.0 0.0 -6.139581024141e-04 
4.609298661722e-04 -2.917080397583e-03 0.0 
-2.917080397583e-03 1.153463791195e-03 0.0 
0.0 0.0 -6.918829960147e-04 
6.174604848126e-04 -2.601794133831e-03 0.0 
-2.601794133831e-03 7.903429974379e-04 0.0 
0.0 0.0 -6.033443495359e-04 
-4.149645807323e-04 -9.518115957764e-04 0.0 
-9.518115957764e-04 1.570452979312e-03 0.0 
0.0 0.0 -4.579617190245e-04 
-1.800428115941e-03 6.964731656622e-04 0.0 
6.964731656622e-04 6.067707299324e-03 0.0 
0.0 0.0 -8.885078876198e-04 
-6.431842488821e-04 -1.481881899324e-03 0.0 
-1.481881899324e-03 2.527966751562e-03 0.0 
0.0 0.0 -8.077639297199e-04 
-3.542476587942e-04 -1.933324559496e-03 0.0 
-1.933324559496e-03 3.366073220136e-03 0.0 
0.0 0.0 -1.067401112627e-03 
-7.301428169590e-04 3.365159558875e-03 0.0 
3.365159558875e-03 4.241956460408e-03 0.0 
0.0 0.0 -1.093380752811e-03 
-1.742519381031e-03 2.013539484841e-03 0.0 
2.013539484841e-03 5.514346305573e-03 0.0 
0.0 0.0 -9.013836717722e-04 
-1.638703746775e-03 1.447396884762e-03 0.0 
1.447396884762e-03 7.437681461836e-03 0.0 
0.0 0.0 -1.126084317643e-03 
-1.069717058735e-03 3.316002143618e-03 0.0 
3.316002143618e-03 5.313047036020e-03 0.0 
0.0 0.0 -1.164310864388e-03 
2.494431731371e-03 1.270414999422e-03 0.0 
1.270414999422e-03 -1.135062232485e-03 0.0 
0.0 0.0 -5.825869280942e-04 
-6.518857880869e-04 3.512796865886e-03 0.0 
3.512796865886e-03 3.785510000148e-03 0.0 
0.0 0.0 -1.029042339204e-03 
9.845026743479e-04 -3.000223110364e-03 0.0 
-3.000223110364e-03 4.820355227438e-04 0.0 
0.0 0.0 -6.285163701822e-04 
9.169108146704e-06 -3.021931346183e-03 0.0 
-3.021931346183e-03 1.914436153364e-03 0.0 
0.0 0.0 -8.244022549332e-04 
1.935620549985e-03 2.666280335606e-03 0.0 
2.666280335606e-03 -6.114645168814e-04 0.0 
0.0 0.0 -5.674954427585e-04 
2.434658683002e-03 -2.349214516508e-03 0.0 
-2.349214516508e-03 -7.291186468832e-04 0.0 
0.0 0.0 -7.309457297651e-04 
8.115117363057e-04 -2.741951264447e-03 0.0 
-2.741951264447e-03 6.655581968644e-04 0.0 
0.0 0.0 -6.330299713586e-04 
-4.450599208505e-04 -2.552111804523e-03 0.0 
-2.552111804523e-03 2.573524769895e-03 0.0 
0.0 0.0 -9.121992210190e-04 
7.181167573208e-04 -2.648058741041e-03 0.0 
-2.648058741041e-03 7.077719066917e-04 0.0 
0.0 0.0 -6.110951417196e-04 
8.603807904587e-04 -2.481932762305e-03 0.0 
-2.481932762305e-03 4.907815371097e-04 0.0 
0.0 0.0 -5.790695689579e-04 
-7.220048660239e-04 -1.343093892557e-03 0.0 
-1.343093892557e-03 2.702939106315e-03 0.0 
0.0 0.0 -8.489718172674e-04 
4.166245934909e-04 -3.209488587121e-03 0.0 
-3.209488587121e-03 1.389160896237e-03 0.0 
0.0 0.0 -7.739080670261e-04 
1.094305293400e-03 -2.135240774913e-03 0.0 
-2.135240774913e-03 1.298780956037e-04 0.0 
0.0 0.0 -5.246500238586e-04 
1.735397459642e-03 -1.790668401916e-03 0.0 
-1.790668401916e-03 -5.241960348096e-04 0.0 
0.0 0.0 -5.190863249281e-04 
-2.953118235533e-05 -2.621242279383e-03 0.0 
-2.621242279383e-03 1.729246141722e-03 0.0 
0.0 0.0 -7.284492682998e-04 
9.068086297483e-04 -1.885631159827e-04 0.0 
-1.885631159827e-04 1.202081875786e-03 0.0 
0.0 0.0 -9.038102166578e-04 
-1.735518635242e-03 6.223275928078e-04 0.0 
6.223275928078e-04 6.851645939463e-03 0.0 
0.0 0.0 -9.984673180475e-04 
2.290762220203e-03 -1.318712250617e-03 0.0 
-1.318712250617e-03 -1.027744525883e-03 0.0 
0.0 0.0 -5.412932975660e-04 
-5.654229652914e-04 -1.684995955007e-03 0.0 
-1.684995955007e-03 3.940963543082e-03 0.0 
0.0 0.0 -1.133495712197e-03 
1.398246767021e-03 -3.216441844472e-03 0.0 
-3.216441844472e-03 9.154783719245e-05 0.0 
0.0 0.0 -6.384834018056e-04 
-5.648051924757e-04 -1.107091868774e-03 0.0 
-1.107091868774e-03 4.182104582450e-03 0.0 
0.0 0.0 -1.208505026952e-03 
7.869283801720e-04 -2.957311971993e-03 0.0 
-2.957311971993e-03 8.055017795032e-04 0.0 
0.0 0.0 -6.824700684322e-04 
-1.163518298392e-03 3.423968427013e-03 0.0 
3.423968427013e-03 5.864548636599e-03 0.0 
0.0 0.0 -1.203459118631e-03 
-1.226888468028e-03 3.131439724330e-03 0.0 
3.131439724330e-03 4.473148429932e-03 0.0 
0.0 0.0 -9.144069900286e-04 
8.146311757364e-04 -2.866044643526e-03 0.0 
-2.866044643526e-03 7.279520038073e-04 0.0 
0.0 0.0 -6.611070769473e-04 
-1.669436221743e-03 2.273068641771e-03 0.0 
2.273068641771e-03 5.485810747731e-03 0.0 
0.0 0.0 -9.292863832265e-04 
-1.634774651159e-03 1.926043724267e-03 0.0 
1.926043724267e-03 7.350223961808e-03 0.0 
0.0 0.0 -1.148369591821e-03 
9.266283371582e-04 -2.700818447501e-03 0.0 
-2.700818447501e-03 5.423083712425e-04 0.0 
0.0 0.0 -6.295443036003e-04 
1.446287545932e-03 3.073556646394e-03 0.0 
3.073556646394e-03 1.275065551695e-04 0.0 
0.0 0.0 -6.744831861864e-04 
-1.574055992192e-03 2.506613091125e-03 0.0 
2.506613091125e-03 5.429733742182e-03 0.0 
0.0 0.0 -9.572423940436e-04 
2.774777350088e-04 3.373231360524e-03 0.0 
3.373231360524e-03 1.692140773898e-03 0.0 
0.0 0.0 -8.441222181028e-04 
6.686313295052e-04 -2.714647588195e-03 0.0 
-2.714647588195e-03 7.978373867195e-04 0.0 
0.0 0.0 -6.284865926677e-04 
-1.493705396886e-03 1.751261100369e-03 0.0 
1.751261100369e-03 8.145178326217e-03 0.0 
0.0 0.0 -1.259077240559e-03 
2.909241618845e-04 -2.201062680806e-03 0.0 
-2.201062680806e-03 9.491865650592e-04 0.0 
0.0 0.0 -5.314760258330e-04 
-1.393014638960e-04 7.789838351986e-04 0.0 
7.789838351986e-04 3.592179503210e-03 0.0 
0.0 0.0 -1.194426649262e-03 
-1.554233915862e-03 9.163364700516e-04 0.0 
9.163364700516e-04 7.887220632938e-03 0.0 
0.0 0.0 -1.175981821618e-03 
7.026255322913e-04 -6.834983021250e-04 0.0 
-6.834983021250e-04 1.598542050998e-03 0.0 
0.0 0.0 -9.862146785524e-04 
-1.631602720906e-03 6.968439340323e-04 0.0 
6.968439340323e-04 6.226177705545e-03 0.0 
0.0 0.0 -9.041796124736e-04 
-1.724067531766e-03 9.331717393615e-04 0.0 
9.331717393615e-04 7.373782435820e-03 0.0 
0.0 0.0 -1.094228678348e-03 
1.385482593825e-03 -2.030831099799e-03 0.0 
-2.030831099799e-03 -2.112692183438e-04 0.0 
0.0 0.0 -5.032343037776e-04 
1.999660538583e-03 5.238969397191e-04 0.0 
5.238969397191e-04 -8.881969286874e-04 0.0 
0.0 0.0 -4.763415470983e-04 
-1.569811974871e-03 1.587727422304e-03 0.0 
1.587727422304e-03 7.784527269149e-03 0.0 
0.0 0.0 -1.191782302182e-03 
-9.330696091187e-04 -2.330125100931e-03 0.0 
-2.330125100931e-03 4.026828994110e-03 0.0 
0.0 0.0 -1.021464098896e-03 
-1.750430558126e-03 7.997395592586e-04 0.0 
7.997395592586e-04 6.994945578504e-03 0.0 
0.0 0.0 -1.028225029406e-03 
5.898974709842e-04 -1.490603234069e-03 0.0 
-1.490603234069e-03 1.573546015772e-03 0.0 
0.0 0.0 -9.271900657525e-04 
1.226199290364e-03 -3.133713578343e-03 0.0 
-3.133713578343e-03 4.720804484946e-04 0.0 
0.0 0.0 -7.278341737966e-04 
-1.755813224466e-03 9.900590192067e-04 0.0 
9.900590192067e-04 7.121505765451e-03 0.0 
0.0 0.0 -1.057861461704e-03 
-1.020230912339e-03 3.255501544884e-03 0.0 
3.255501544884e-03 5.845285965923e-03 0.0 
0.0 0.0 -1.268085107495e-03 
-8.098027228146e-04 -1.517662878241e-03 0.0 
-1.517662878241e-03 4.547334409745e-03 0.0 
0.0 0.0 -1.202195648613e-03 
7.610076650518e-05 -3.235453866840e-03 0.0 
-3.235453866840e-03 1.932455716982e-03 0.0 
0.0 0.0 -8.608099214947e-04 
-1.689275270792e-03 3.359122450795e-04 0.0 
3.359122450795e-04 6.273459191033e-03 0.0 
0.0 0.0 -9.020111041354e-04 
-1.632588233776e-03 6.974904632293e-04 0.0 
6.974904632293e-04 5.987209936235e-03 0.0 
0.0 0.0 -8.677534307045e-04 
6.088392128265e-04 -2.822537476632e-03 0.0 
-2.822537476632e-03 9.202084504231e-04 0.0 
0.0 0.0 -6.553061413927e-04 
-6.443122983676e-04 -2.499706879338e-03 0.0 
-2.499706879338e-03 3.462729029903e-03 0.0 
0.0 0.0 -9.927925938929e-04 
-4.755079025855e-04 -2.238751106190e-03 0.0 
-2.238751106190e-03 3.389731406328e-03 0.0 
0.0 0.0 -1.030113165296e-03 
-2.437047899643e-04 -1.231397142334e-03 0.0 
-1.231397142334e-03 1.345917923955e-03 0.0 
0.0 0.0 -4.426674065645e-04 
2.847402133071e-03 1.832321194303e-03 0.0 
1.832321194303e-03 -1.311219245011e-03 0.0 
0.0 0.0 -6.583640948828e-04 
2.391065633377e-03 -7.030644689003e-04 0.0 
-7.030644689003e-04 -1.190042454993e-03 0.0 
0.0 0.0 -5.147242193072e-04 
1.968235762107e-03 -1.858343853594e-03 0.0 
-1.858343853594e-03 -8.473461408074e-04 0.0 
0.0 0.0 -4.803812662711e-04 
7.235144373202e-04 3.006853977664e-03 0.0 
3.006853977664e-03 8.982936940798e-04 0.0 
0.0 0.0 -6.950606277428e-04 
-1.594047644543e-03 1.198778980109e-03 0.0 
1.198778980109e-03 8.076345274144e-03 0.0 
0.0 0.0 -1.225426844749e-03 
-1.544957883650e-03 2.714187828761e-03 0.0 
2.714187828761e-03 6.803087963728e-03 0.0 
0.0 0.0 -1.162686153705e-03 
-1.603786220280e-03 5.743670581703e-04 0.0 
5.743670581703e-04 7.933574954986e-03 0.0 
0.0 0.0 -1.173632101657e-03 
-3.176362262569e-04 3.157680560962e-03 0.0 
3.157680560962e-03 2.644961507973e-03 0.0 
0.0 0.0 -9.922833334649e-04 
-1.686655624371e-03 1.762581410411e-03 0.0 
1.762581410411e-03 7.001695775819e-03 0.0 
0.0 0.0 -1.082713561900e-03 
-8.312311815285e-04 -2.893135141048e-03 0.0 
-2.893135141048e-03 3.527094208899e-03 0.0 
0.0 0.0 -1.005652543148e-03 
-1.566323459329e-03 1.337573114455e-03 0.0 
1.337573114455e-03 7.933955714899e-03 0.0 
0.0 0.0 -1.198415070424e-03 
-1.781797660459e-03 1.042297273604e-03 0.0 
1.042297273604e-03 6.860193468522e-03 0.0 
0.0 0.0 -1.021631336281e-03 
1.651541321597e-04 -3.069309819670e-03 0.0 
-3.069309819670e-03 1.677218775847e-03 0.0 
0.0 0.0 -7.895883891459e-04 
2.729895556258e-03 -3.816222067231e-05 0.0 
-3.816222067231e-05 -1.329892949249e-03 0.0 
0.0 0.0 -6.000011172896e-04 
-1.678629276342e-03 1.301261135869e-03 0.0 
1.301261135869e-03 7.071604861536e-03 0.0 
0.0 0.0 -1.060111126929e-03 
-1.674561038714e-03 1.060445620383e-03 0.0 
1.060445620383e-03 7.740408073351e-03 0.0 
0.0 0.0 -1.160283895044e-03 
-1.648358362413e-03 1.080960708592e-03 0.0 
1.080960708592e-03 7.188263314287e-03 0.0 
0.0 0.0 -1.066842251349e-03 
-1.675485628863e-03 1.117801916471e-03 0.0 
1.117801916471e-03 6.945334177936e-03 0.0 
0.0 0.0 -1.030428295937e-03 
-9.047694827226e-04 -1.891564198184e-03 0.0 
-1.891564198184e-03 4.463027696646e-03 0.0 
0.0 0.0 -1.124756152480e-03 
-3.636288725450e-05 1.185092302766e-03 0.0 
1.185092302766e-03 3.361330425582e-03 0.0 
0.0 0.0 -1.167530213646e-03 
-6.417903686716e-04 -1.936633603608e-03 0.0 
-1.936633603608e-03 3.924941189051e-03 0.0 
0.0 0.0 -1.096139997395e-03 
-6.252750457425e-04 -2.981929184320e-03 0.0 
-2.981929184320e-03 3.101913023538e-03 0.0 
0.0 0.0 -9.455690924112e-04 
-9.133871784712e-04 2.307173197510e-03 0.0 
2.307173197510e-03 3.388339270904e-03 0.0 
0.0 0.0 -8.706649152390e-04 
5.857890875911e-04 -1.165024071922e-04 0.0 
-1.165024071922e-04 1.961403903997e-03 0.0 
0.0 0.0 -1.057160997780e-03 
-1.717096850446e-03 1.897490647652e-03 0.0 
1.897490647652e-03 6.421227655064e-03 0.0 
0.0 0.0 -1.010795753303e-03 
-6.313703935137e-04 -1.096821766549e-03 0.0 
-1.096821766549e-03 2.333660856895e-03 0.0 
0.0 0.0 -7.295530557346e-04 
2.168606455157e-03 -1.381490462849e-03 0.0 
-1.381490462849e-03 -1.049895932277e-03 0.0 
0.0 0.0 -4.794473669488e-04 
1.521212506514e-03 -1.320220071534e-03 0.0 
-1.320220071534e-03 -4.274634539344e-04 0.0 
0.0 0.0 -4.687495939627e-04 
1.466355838383e-03 4.602651966615e-04 0.0 
4.602651966615e-04 -3.624189179879e-05 0.0 
0.0 0.0 -6.129059771076e-04 
2.718390450017e-03 -6.950340879152e-04 0.0 
-6.950340879152e-04 -1.327258381844e-03 0.0 
0.0 0.0 -5.961994577885e-04 
2.586833026508e-03 -8.035069926998e-04 0.0 
-8.035069926998e-04 -1.237368745637e-03 0.0 
0.0 0.0 -5.783418346592e-04 
1.064335855090e-03 3.871345564871e-04 0.0 
3.871345564871e-04 8.878223967010e-04 0.0 
0.0 0.0 -8.366392507678e-04 
-8.479776809358e-04 2.867626528881e-03 0.0 
2.867626528881e-03 3.485177703647e-03 0.0 
0.0 0.0 -9.312627088267e-04 
-1.048673303190e-04 -3.229543423404e-03 0.0 
-3.229543423404e-03 2.260338218225e-03 0.0 
0.0 0.0 -9.237732376742e-04 
-1.787010102696e-03 8.860662194747e-04 0.0 
8.860662194747e-04 6.472161902549e-03 0.0 
0.0 0.0 -9.556638187253e-04 
-1.534511977861e-03 4.226734842399e-04 0.0 
4.226734842399e-04 5.386267654424e-03 0.0 
0.0 0.0 -7.638029664831e-04 
2.694004404959e-04 1.692225150283e-03 0.0 
1.692225150283e-03 6.665564429896e-04 0.0 
0.0 0.0 -4.011243786367e-04 
-2.485044760616e-04 -3.138222606519e-03 0.0 
-3.138222606519e-03 2.491915244985e-03 0.0 
0.0 0.0 -9.614617581102e-04 
5.241395104488e-04 -3.820643100564e-04 0.0 
-3.820643100564e-04 1.948070463321e-03 0.0 
0.0 0.0 -1.051835763028e-03 
-1.541512456067e-03 2.665389691955e-03 0.0 
2.665389691955e-03 7.146978989113e-03 0.0 
0.0 0.0 -1.196871286280e-03 
2.182111420875e-03 6.070828475979e-04 0.0 
6.070828475979e-04 -1.164368423359e-03 0.0 
0.0 0.0 -4.361755703639e-04 
-3.379696423289e-04 -3.147707957552e-03 0.0 
-3.147707957552e-03 2.662191701970e-03 0.0 
0.0 0.0 -9.747355338013e-04 
-1.758283285419e-03 6.606645787396e-04 0.0 
6.606645787396e-04 6.605527542412e-03 0.0 
0.0 0.0 -9.620958722923e-04 
2.572595780151e-04 1.907531255629e-03 0.0 
1.907531255629e-03 8.125007966372e-04 0.0 
0.0 0.0 -4.584687319938e-04 
7.215561543483e-04 7.088538436548e-05 0.0 
7.088538436548e-05 1.489224739350e-03 0.0 
0.0 0.0 -9.474775258707e-04 
1.699588376700e-03 -2.701395224992e-04 0.0 
-2.701395224992e-04 -6.431195081869e-04 0.0 
0.0 0.0 -4.527723722201e-04 
-1.123050040693e-03 2.722320328238e-03 0.0 
2.722320328238e-03 3.963607121214e-03 0.0 
0.0 0.0 -8.880452441696e-04 
-6.861996964777e-04 -2.718033399413e-03 0.0 
-2.718033399413e-03 3.467552900927e-03 0.0 
0.0 0.0 -1.027225276160e-03 
2.084513055480e-03 -2.969236307345e-03 0.0 
-2.969236307345e-03 -6.426223811324e-04 0.0 
0.0 0.0 -6.179531461491e-04 
-5.320903479306e-04 -2.451811030805e-03 0.0 
-2.451811030805e-03 3.446359028726e-03 0.0 
0.0 0.0 -1.064556537081e-03 
-5.475761825290e-04 -1.405154027486e-03 0.0 
-1.405154027486e-03 4.014926747039e-03 0.0 
0.0 0.0 -1.170878753521e-03 
8.694157167214e-04 5.959603823475e-04 0.0 
5.959603823475e-04 1.083517633446e-03 0.0 
0.0 0.0 -8.369714357860e-04 
-1.720938074938e-03 7.528205405103e-04 0.0 
7.528205405103e-04 7.239876321155e-03 0.0 
0.0 0.0 -1.064574987933e-03 
-2.581275539260e-04 2.774157829489e-03 0.0 
2.774157829489e-03 3.637568838645e-03 0.0 
0.0 0.0 -1.082686220397e-03 
-6.278749381159e-04 -1.931446236287e-03 0.0 
-1.931446236287e-03 4.088424354687e-03 0.0 
0.0 0.0 -1.168035910845e-03 
7.662032872175e-05 1.799978139758e-03 0.0 
1.799978139758e-03 1.016865245771e-03 0.0 
0.0 0.0 -4.686366747828e-04 
-1.772766923136e-03 8.481702159287e-04 0.0 
8.481702159287e-04 6.740907635403e-03 0.0 
0.0 0.0 -9.919185416031e-04 
-2.292199257427e-04 1.889849914101e-03 0.0 
1.889849914101e-03 3.718845686110e-03 0.0 
0.0 0.0 -1.173906618061e-03 
-1.648981142695e-03 1.259232254070e-03 0.0 
1.259232254070e-03 7.322595481216e-03 0.0 
0.0 0.0 -1.096489272820e-03 
1.160861635041e-03 6.400460397782e-04 0.0 
6.400460397782e-04 2.605650516831e-04 0.0 
0.0 0.0 -6.091828657388e-04 
2.574979574883e-03 -1.390903072999e-04 0.0 
-1.390903072999e-04 -1.282434716650e-03 0.0 
0.0 0.0 -5.539477963855e-04 
-1.116067155649e-03 -2.250326754200e-03 0.0 
-2.250326754200e-03 3.947993630682e-03 0.0 
0.0 0.0 -1.025516461270e-03 
1.249937303602e-03 3.552940721610e-04 0.0 
3.552940721610e-04 -1.039148958258e-03 0.0 
0.0 0.0 -9.033786229011e-05 
-1.613458135025e-03 1.210057674443e-03 0.0 
1.210057674443e-03 7.562124248112e-03 0.0 
0.0 0.0 -1.132911322290e-03 
-7.377235371559e-04 -9.591054036843e-04 0.0 
-9.591054036843e-04 2.612387194917e-03 0.0 
0.0 0.0 -8.013069569330e-04 
-1.500810255742e-04 1.675008285432e-03 0.0 
1.675008285432e-03 1.366929482546e-03 0.0 
0.0 0.0 -5.215064815592e-04 
-3.658200529699e-04 3.020199158602e-03 0.0 
3.020199158602e-03 3.713742958922e-03 0.0 
0.0 0.0 -1.054483161448e-03 
-1.538001914897e-03 1.084053552084e-03 0.0 
1.084053552084e-03 8.041309965801e-03 0.0 
0.0 0.0 -1.206783194404e-03 
1.727844094968e-03 -3.343181964838e-03 0.0 
-3.343181964838e-03 -2.401420928011e-04 0.0 
0.0 0.0 -6.375865723574e-04 
-2.167964077171e-04 3.747756050696e-03 0.0 
3.747756050696e-03 2.648111889763e-03 0.0 
0.0 0.0 -9.072936044704e-04 
-1.701887886532e-03 1.344630388867e-03 0.0 
1.344630388867e-03 6.812020791196e-03 0.0 
0.0 0.0 -1.023814440555e-03 
-4.458873681724e-04 -2.966430795108e-03 0.0 
-2.966430795108e-03 2.822625691825e-03 0.0 
0.0 0.0 -1.018602138708e-03 
2.635787731545e-03 -1.799593391660e-03 0.0 
-1.799593391660e-03 -1.225014149329e-03 0.0 
0.0 0.0 -6.046172495213e-04 
1.631098457746e-03 2.876803562451e-03 0.0 
2.876803562451e-03 -2.192512757881e-04 0.0 
0.0 0.0 -6.050773636963e-04 
9.159182720240e-04 -2.840057079041e-03 0.0 
-2.840057079041e-03 6.236111220924e-04 0.0 
0.0 0.0 -6.597983117642e-04 
1.988952410622e-03 -2.773207495313e-03 0.0 
-2.773207495313e-03 -3.142881963505e-04 0.0 
0.0 0.0 -7.177132346876e-04 
1.648220485470e-03 -3.321848158051e-03 0.0 
-3.321848158051e-03 2.024080431041e-04 0.0 
0.0 0.0 -7.931265122463e-04 
1.705098340266e-03 6.558868029328e-04 0.0 
6.558868029328e-04 -6.969008095806e-04 0.0 
0.0 0.0 -4.320846560080e-04 
-1.468520801646e-03 2.285525207987e-03 0.0 
2.285525207987e-03 8.442456052557e-03 0.0 
0.0 0.0 -1.324146187826e-03 
-3.956257745020e-04 1.730887625779e-03 0.0 
1.730887625779e-03 1.977050055323e-03 0.0 
0.0 0.0 -6.777532632091e-04 
-1.125863067977e-03 -1.827974217199e-03 0.0 
-1.827974217199e-03 4.964930907455e-03 0.0 
0.0 0.0 -1.153422328581e-03 
2.868285214674e-03 1.352379803766e-03 0.0 
1.352379803766e-03 -1.299848991907e-03 0.0 
0.0 0.0 -6.721869526143e-04 
-1.802402553613e-03 1.096854962503e-03 0.0 
1.096854962503e-03 6.595527473872e-03 0.0 
0.0 0.0 -9.856407671940e-04 
1.971085959338e-03 3.239399902758e-04 0.0 
3.239399902758e-04 -1.217941390756e-03 0.0 
0.0 0.0 -3.227762436777e-04 
-6.307118357170e-04 -1.642290149673e-03 0.0 
-1.642290149673e-03 4.191316448183e-03 0.0 
0.0 0.0 -1.206759618350e-03 
1.281188306004e-03 -3.309115169896e-03 0.0 
-3.309115169896e-03 2.482805933930e-04 0.0 
0.0 0.0 -6.554866711701e-04 
-8.580919722625e-04 -1.141606507875e-03 0.0 
-1.141606507875e-03 3.004910753851e-03 0.0 
0.0 0.0 -8.925927511852e-04 
6.775973206905e-04 1.090261256499e-03 0.0 
1.090261256499e-03 1.554850184539e-03 0.0 
0.0 0.0 -9.567632165269e-04 
9.810193940895e-04 -2.270636417532e-03 0.0 
-2.270636417532e-03 2.960510298287e-04 0.0 
0.0 0.0 -5.473158959649e-04 
3.899080625909e-05 1.591876067608e-03 0.0 
1.591876067608e-03 3.206945282166e-03 0.0 
0.0 0.0 -1.139062866688e-03 
6.623861865506e-04 3.094490503078e-03 0.0 
3.094490503078e-03 1.014638708619e-03 0.0 
0.0 0.0 -7.187249550728e-04 
-1.786253758345e-03 1.560633333520e-03 0.0 
1.560633333520e-03 6.766601134335e-03 0.0 
0.0 0.0 -1.044446328659e-03 
-2.152386475275e-04 1.351101504798e-03 0.0 
1.351101504798e-03 3.486323150058e-03 0.0 
0.0 0.0 -1.198892520503e-03 
-1.697142570711e-03 1.154161816812e-03 0.0 
1.154161816812e-03 6.693519511439e-03 0.0 
0.0 0.0 -9.940794652285e-04 
-1.618144651602e-03 2.389450829648e-03 0.0 
2.389450829648e-03 7.197343605865e-03 0.0 
0.0 0.0 -1.194784139986e-03 
-1.753520328123e-03 1.193661618907e-03 0.0 
1.193661618907e-03 7.230580119665e-03 0.0 
0.0 0.0 -1.087318097122e-03 
-1.742396685637e-03 1.406428765971e-03 0.0 
1.406428765971e-03 7.327343743658e-03 0.0 
0.0 0.0 -1.116677092124e-03 
2.275785242891e-03 2.632435729676e-03 0.0 
2.632435729676e-03 -9.199828087608e-04 0.0 
0.0 0.0 -5.810581860557e-04 
-1.241644556097e-03 -1.898381689041e-03 0.0 
-1.898381689041e-03 4.975895501890e-03 0.0 
0.0 0.0 -1.115908039155e-03 
-1.698919862003e-03 1.546534393052e-03 0.0 
1.546534393052e-03 6.917732160494e-03 0.0 
0.0 0.0 -1.053364550114e-03 
1.868987763194e-03 2.227953552638e-03 0.0 
2.227953552638e-03 -6.775743179747e-04 0.0 
0.0 0.0 -5.106057622367e-04 
-6.587012442941e-04 1.777273701504e-03 0.0 
1.777273701504e-03 2.655555522869e-03 0.0 
0.0 0.0 -8.209451439681e-04 
-3.975005523331e-04 1.166939029163e-03 0.0 
1.166939029163e-03 4.024011475053e-03 0.0 
0.0 0.0 -1.232292820449e-03 
2.869313435600e-03 1.110657499061e-03 0.0 
1.110657499061e-03 -1.453214644336e-03 0.0 
0.0 0.0 -6.068994819702e-04 
-7.856974671747e-04 -1.309919738143e-03 0.0 
-1.309919738143e-03 2.807619278170e-03 0.0 
0.0 0.0 -8.201145810435e-04 
1.968962910781e-04 1.862464300239e-03 0.0 
1.862464300239e-03 2.595514694035e-03 0.0 
0.0 0.0 -1.105063927110e-03 
-7.017846764740e-04 -1.435456886112e-05 0.0 
-1.435456886112e-05 1.960630528106e-03 0.0 
0.0 0.0 -3.231071520192e-04 
7.474966936510e-04 3.481240265895e-03 0.0 
3.481240265895e-03 1.138823329650e-03 0.0 
0.0 0.0 -8.084228671290e-04 
5.678040040528e-04 5.673257875062e-04 0.0 
5.673257875062e-04 1.874262662432e-03 0.0 
0.0 0.0 -1.046599999922e-03 
-1.677286885825e-03 1.562425953110e-03 0.0 
1.562425953110e-03 7.659770185164e-03 0.0 
0.0 0.0 -1.181155146799e-03 
-1.652320647354e-03 1.808826218554e-03 0.0 
1.808826218554e-03 7.744329424571e-03 0.0 
0.0 0.0 -1.210943746944e-03 
7.584470326040e-04 3.628423669223e-04 0.0 
3.628423669223e-04 1.668047544981e-03 0.0 
0.0 0.0 -1.028825005900e-03 
-1.718024774256e-03 1.129889074764e-03 0.0 
1.129889074764e-03 7.489751701523e-03 0.0 
0.0 0.0 -1.123737208958e-03 
2.593889195352e-03 1.856767809109e-03 0.0 
1.856767809109e-03 -1.126153271608e-03 0.0 
0.0 0.0 -6.290296816045e-04 
-7.519765885532e-04 3.109043581873e-03 0.0 
3.109043581873e-03 4.411738950076e-03 0.0 
0.0 0.0 -1.062452857821e-03 
-9.715076255527e-04 1.639125050494e-03 0.0 
1.639125050494e-03 3.248586274010e-03 0.0 
0.0 0.0 -7.769695025612e-04 
-1.390466882155e-03 3.112822277328e-03 0.0 
3.112822277328e-03 6.316045090648e-03 0.0 
0.0 0.0 -1.181751882508e-03 
-1.269001708520e-03 1.478688136927e-03 0.0 
1.478688136927e-03 3.854232216412e-03 0.0 
0.0 0.0 -7.538120163098e-04 
-1.420223830458e-03 1.391784125232e-03 0.0 
1.391784125232e-03 4.161040048690e-03 0.0 
0.0 0.0 -7.332406657775e-04 
2.298674918512e-03 1.220061250636e-03 0.0 
1.220061250636e-03 -1.173783310071e-03 0.0 
0.0 0.0 -4.820964036177e-04 
-1.557422700527e-03 1.363360327043e-03 0.0 
1.363360327043e-03 4.471575651466e-03 0.0 
0.0 0.0 -7.361032999402e-04 
6.913968744153e-04 3.249644441005e-03 0.0 
3.249644441005e-03 1.296623038176e-03 0.0 
0.0 0.0 -8.520085339679e-04 
1.718973007646e-03 2.924390266821e-03 0.0 
2.924390266821e-03 -1.924867080382e-04 0.0 
0.0 0.0 -6.542084141176e-04 
2.210348991445e-03 -8.088378780929e-04 0.0 
-8.088378780929e-04 -1.123482344713e-03 0.0 
0.0 0.0 -4.657999914567e-04 
2.497491272241e-03 -1.532773257142e-03 0.0 
-1.532773257142e-03 -1.081083643723e-03 0.0 
0.0 0.0 -6.070318407937e-04 
2.586887755130e-03 6.094796342036e-04 0.0 
6.094796342036e-04 -1.311719394663e-03 0.0 
0.0 0.0 -5.465007259145e-04 
-1.601167176657e-03 1.396089815657e-03 0.0 
1.396089815657e-03 7.688892179250e-03 0.0 
0.0 0.0 -1.162517914204e-03 
-1.471528092625e-03 3.001207936412e-03 0.0 
3.001207936412e-03 6.831752371077e-03 0.0 
0.0 0.0 -1.195263893373e-03 
-1.182311321110e-03 -2.133379308242e-03 0.0 
-2.133379308242e-03 4.544787139884e-03 0.0 
0.0 0.0 -1.050100468764e-03 
-1.223721568856e-04 1.745261046552e-03 0.0 
1.745261046552e-03 3.281782845900e-03 0.0 
0.0 0.0 -1.170266998156e-03 
1.214604030940e-03 -2.155562007462e-03 0.0 
-2.155562007462e-03 9.364629533619e-05 0.0 
0.0 0.0 -5.606787112612e-04 
-1.656719624483e-03 1.711448335042e-03 0.0 
1.711448335042e-03 7.275839845738e-03 0.0 
0.0 0.0 -1.119019617531e-03 
2.359890878457e-03 -4.267964440931e-05 0.0 
-4.267964440931e-05 -1.248439169515e-03 0.0 
0.0 0.0 -4.763364466896e-04 
-1.407406798469e-03 -1.723847992245e-03 0.0 
-1.723847992245e-03 5.419782439974e-03 0.0 
0.0 0.0 -1.144395376583e-03 
-1.671654625585e-03 1.497806515934e-03 0.0 
1.497806515934e-03 7.180003972529e-03 0.0 
0.0 0.0 -1.089631904438e-03 
-1.769810542863e-03 1.479525562214e-03 0.0 
1.479525562214e-03 7.051291447038e-03 0.0 
0.0 0.0 -1.080451501872e-03 
1.020279383885e-03 1.759819708792e-05 0.0 
1.759819708792e-05 6.806225927368e-04 0.0 
0.0 0.0 -7.289579899807e-04 
2.670406423032e-03 1.253518595181e-03 0.0 
1.253518595181e-03 -1.265788156022e-03 0.0 
0.0 0.0 -6.019792572901e-04 
-8.493845713370e-04 3.018177913519e-03 0.0 
3.018177913519e-03 4.847344094450e-03 0.0 
0.0 0.0 -1.126038590206e-03 
-1.241437732375e-03 3.272568664608e-03 0.0 
3.272568664608e-03 4.414773958175e-03 0.0 
0.0 0.0 -9.324202963083e-04 
2.392506853527e-03 -2.638222039722e-03 0.0 
-2.638222039722e-03 -9.888506330534e-04 0.0 
0.0 0.0 -6.015669516317e-04 
2.802892214258e-03 -1.137304662585e-05 0.0 
-1.137304662585e-05 -1.333498735436e-03 0.0 
0.0 0.0 -6.297400623524e-04 
7.949185057269e-04 2.716848624173e-03 0.0 
2.716848624173e-03 6.207904953631e-04 0.0 
0.0 0.0 -6.067324290386e-04 
-1.563287978713e-04 3.620132007229e-03 0.0 
3.620132007229e-03 2.581411168791e-03 0.0 
0.0 0.0 -1.015946800258e-03 
-1.534351365184e-03 -1.516799222336e-03 0.0 
-1.516799222336e-03 5.828494836448e-03 0.0 
0.0 0.0 -1.173545322487e-03 
-1.782237154873e-03 1.254534813549e-03 0.0 
1.254534813549e-03 6.967044995053e-03 0.0 
0.0 0.0 -1.051102540299e-03 
2.754613032243e-03 5.835371394657e-04 0.0 
5.835371394657e-04 -1.282545286099e-03 0.0 
0.0 0.0 -6.308861769187e-04 
-6.435068013720e-04 3.480233123954e-03 0.0 
3.480233123954e-03 3.600985193807e-03 0.0 
0.0 0.0 -9.344940742331e-04 
3.980809440766e-04 1.365381173478e-04 0.0 
1.365381173478e-04 2.266784517746e-03 0.0 
0.0 0.0 -1.088599101970e-03 
-1.685240832100e-03 8.774447861184e-04 0.0 
8.774447861184e-04 7.615424303421e-03 0.0 
0.0 0.0 -1.130578931274e-03 
-1.056611405718e-03 3.085021790290e-03 0.0 
3.085021790290e-03 5.374856941272e-03 0.0 
0.0 0.0 -1.160781586281e-03 
-1.731537587415e-03 1.425159992310e-03 0.0 
1.425159992310e-03 6.282505969900e-03 0.0 
0.0 0.0 -9.517943393003e-04 
-1.629224858151e-05 -1.008868814593e-03 0.0 
-1.008868814593e-03 2.976796140904e-03 0.0 
0.0 0.0 -1.113435711030e-03 
2.175710495241e-03 -1.797462906061e-04 0.0 
-1.797462906061e-04 -1.087187483949e-03 0.0 
0.0 0.0 -4.665098619825e-04 
3.691792219411e-04 -5.499254361333e-04 0.0 
-5.499254361333e-04 2.333255494325e-03 0.0 
0.0 0.0 -1.086118700983e-03 
6.267430188437e-04 3.216016004345e-03 0.0 
3.216016004345e-03 1.125673463038e-03 0.0 
0.0 0.0 -7.510356350921e-04 
-1.659468944553e-03 1.282087032836e-03 0.0 
1.282087032836e-03 7.843512833905e-03 0.0 
0.0 0.0 -1.188704642750e-03 
-1.184759635984e-03 3.039469531493e-03 0.0 
3.039469531493e-03 5.917915895918e-03 0.0 
0.0 0.0 -1.200489323427e-03 
1.397717749359e-03 -3.084135371350e-05 0.0 
-3.084135371350e-05 -2.483823730723e-04 0.0 
0.0 0.0 -4.925723041230e-04 
2.632145634489e-03 2.594608975648e-04 0.0 
2.594608975648e-04 -1.433557919304e-03 0.0 
0.0 0.0 -5.136804493649e-04 
-3.195071874589e-04 2.949770132737e-03 0.0 
2.949770132737e-03 3.519559910753e-03 0.0 
0.0 0.0 -1.113685640909e-03 
5.151939740245e-04 3.610223291188e-03 0.0 
3.610223291188e-03 1.499767463066e-03 0.0 
0.0 0.0 -8.635549016102e-04 
2.789061016644e-03 1.329285031073e-03 0.0 
1.329285031073e-03 -1.174648499198e-03 0.0 
0.0 0.0 -6.918910789057e-04 
1.203480951529e-03 -2.452700069764e-04 0.0 
-2.452700069764e-04 3.890277914199e-04 0.0 
0.0 0.0 -6.825037469782e-04 
-1.401752245562e-04 -2.049705526548e-03 0.0 
-2.049705526548e-03 2.929158581755e-03 0.0 
0.0 0.0 -1.072977024862e-03 
2.580288745065e-03 -9.059416529247e-04 0.0 
-9.059416529247e-04 -1.319309692526e-03 0.0 
0.0 0.0 -5.404195939453e-04 
1.923073746863e-03 -4.525221159698e-05 0.0 
-4.525221159698e-05 -9.232494801660e-04 0.0 
0.0 0.0 -4.284961142987e-04 
-1.564398244357e-03 2.691343570358e-03 0.0 
2.691343570358e-03 5.384100406286e-03 0.0 
0.0 0.0 -9.596127204057e-04 
-1.615413359891e-03 -1.869412921893e-03 0.0 
-1.869412921893e-03 5.891470981236e-03 0.0 
0.0 0.0 -1.170838755190e-03 
-1.469366754309e-03 2.906743993666e-03 0.0 
2.906743993666e-03 5.300260062947e-03 0.0 
0.0 0.0 -9.876491701490e-04 
-3.947067001148e-04 3.217756852044e-03 0.0 
3.217756852044e-03 3.568382132428e-03 0.0 
0.0 0.0 -1.085374163265e-03 
-1.640677092253e-03 2.445403796559e-03 0.0 
2.445403796559e-03 5.441088956569e-03 0.0 
0.0 0.0 -9.316602363005e-04 
-1.740388366318e-03 1.924888427331e-03 0.0 
1.924888427331e-03 5.465143202308e-03 0.0 
0.0 0.0 -8.756372412555e-04 
-1.133390563237e-03 3.456670762875e-03 0.0 
3.456670762875e-03 4.264491800942e-03 0.0 
0.0 0.0 -9.452931837154e-04 
1.258865816682e-04 1.427076262396e-03 0.0 
1.427076262396e-03 2.787339061218e-03 0.0 
0.0 0.0 -1.133505030480e-03 
-1.184151913809e-03 -2.442035502192e-03 0.0 
-2.442035502192e-03 4.566403913145e-03 0.0 
0.0 0.0 -1.084522140297e-03 
-1.719906891250e-03 1.595024504340e-03 0.0 
1.595024504340e-03 6.646342255881e-03 0.0 
0.0 0.0 -1.017300281410e-03 
-1.572744207127e-03 2.077724400643e-03 0.0 
2.077724400643e-03 7.699948884985e-03 0.0 
0.0 0.0 -1.212886757924e-03 
-1.697994519952e-03 2.183604815945e-03 0.0 
2.183604815945e-03 5.469670954577e-03 0.0 
0.0 0.0 -9.037302385344e-04 
3.109518991990e-03 7.142103845853e-04 0.0 
7.142103845853e-04 -1.355577660133e-03 0.0 
0.0 0.0 -7.516891422245e-04 
-4.615783183021e-04 2.634115171252e-03 0.0 
2.634115171252e-03 4.171995570701e-03 0.0 
0.0 0.0 -1.146733564437e-03 
-1.623397737588e-03 9.830618757015e-04 0.0 
9.830618757015e-04 7.977997106224e-03 0.0 
0.0 0.0 -1.196744929305e-03 
1.210285564886e-03 2.794819533997e-03 0.0 
2.794819533997e-03 2.142507881916e-04 0.0 
0.0 0.0 -6.105155798904e-04 
7.664634744893e-04 3.055447408668e-03 0.0 
3.055447408668e-03 8.799111198641e-04 0.0 
0.0 0.0 -7.055891118657e-04 
3.026285545234e-03 6.479754984524e-04 0.0 
6.479754984524e-04 -1.309294928286e-03 0.0 
0.0 0.0 -7.358531215491e-04 
-1.707025994169e-03 1.825045050910e-03 0.0 
1.825045050910e-03 6.718430060264e-03 0.0 
0.0 0.0 -1.046609947212e-03 
1.285120213061e-04 3.160317099540e-03 0.0 
3.160317099540e-03 1.795393702842e-03 0.0 
0.0 0.0 -8.245310246350e-04 
6.213466678406e-04 3.150191375349e-03 0.0 
3.150191375349e-03 1.093887972575e-03 0.0 
0.0 0.0 -7.351005601782e-04 
1.723951590445e-04 3.402388421843e-03 0.0 
3.402388421843e-03 1.876640106691e-03 0.0 
0.0 0.0 -8.781579710297e-04 
4.568820957443e-04 1.515113560259e-03 0.0 
1.515113560259e-03 2.072520192967e-03 0.0 
0.0 0.0 -1.068254633495e-03 
-7.126619732765e-04 2.634214240334e-03 0.0 
2.634214240334e-03 4.664743447894e-03 0.0 
0.0 0.0 -1.211228670573e-03 
2.874495408011e-03 -1.147543994212e-04 0.0 
-1.147543994212e-04 -1.321663854737e-03 0.0 
0.0 0.0 -6.654992371173e-04 
1.333222057608e-03 -6.083160362555e-04 0.0 
-6.083160362555e-04 -1.046303648964e-03 0.0 
0.0 0.0 -1.229650322759e-04 
-1.560287505520e-03 2.397443585750e-03 0.0 
2.397443585750e-03 7.445606798374e-03 0.0 
0.0 0.0 -1.207184308065e-03 
-1.227743039735e-04 3.216961996269e-03 0.0 
3.216961996269e-03 2.287126095753e-03 0.0 
0.0 0.0 -9.275793393341e-04 
1.407399929741e-03 -1.790726840241e-03 0.0 
-1.790726840241e-03 -2.123508212015e-04 0.0 
0.0 0.0 -5.121639036598e-04 
-5.005943122338e-04 2.854917982027e-03 0.0 
2.854917982027e-03 4.092431792890e-03 0.0 
0.0 0.0 -1.177925372349e-03 
-1.802105864534e-03 1.325377431051e-03 0.0 
1.325377431051e-03 6.693893706785e-03 0.0 
0.0 0.0 -1.015069748350e-03 
-9.552400268193e-04 -2.590206578427e-03 0.0 
-2.590206578427e-03 4.033946220946e-03 0.0 
0.0 0.0 -1.055879354346e-03 
2.213755167184e-03 2.540569608467e-03 0.0 
2.540569608467e-03 -6.561328527755e-04 0.0 
0.0 0.0 -6.675524204610e-04 
8.596589765025e-04 -2.241190996513e-04 0.0 
-2.241190996513e-04 -8.596589765025e-04 0.0 
0.0 0.0 0.0 
-1.695761363760e-03 -1.692827267884e-03 0.0 
-1.692827267884e-03 6.306533924159e-03 0.0 
0.0 0.0 -1.202131160132e-03 
-2.109701725842e-06 3.652134540712e-03 0.0 
3.652134540712e-03 2.337584034461e-03 0.0 
0.0 0.0 -1.000917571172e-03 
6.440987285096e-04 1.846403855810e-03 0.0 
1.846403855810e-03 1.851485320469e-03 0.0 
0.0 0.0 -1.007142642412e-03 
-8.363103258721e-04 3.298399834443e-03 0.0 
3.298399834443e-03 4.744308506763e-03 0.0 
0.0 0.0 -1.157822513452e-03 
0.0 0.0 0.0 
0.0 0.0 0.0 
0.0 0.0 0.0 
-7.671375815713e-04 -2.153381723597e-03 0.0 
-2.153381723597e-03 3.958636255064e-03 0.0 
0.0 0.0 -1.058763633038e-03 
2.277342632696e-03 2.678034488429e-03 0.0 
2.678034488429e-03 -4.950023667951e-04 0.0 
0.0 0.0 -7.638601139576e-04 
-1.817865112225e-03 1.160846124058e-03 0.0 
1.160846124058e-03 6.325027627169e-03 0.0 
0.0 0.0 -9.498437721210e-04 
-6.483445776371e-04 -2.910728448364e-03 0.0 
-2.910728448364e-03 3.240421631363e-03 0.0 
0.0 0.0 -1.081826897668e-03 
2.882336660409e-03 6.507094583248e-04 0.0 
6.507094583248e-04 -1.354897536976e-03 0.0 
0.0 0.0 -6.546167671857e-04 
-1.512905320875e-03 -2.064322058959e-03 0.0 
-2.064322058959e-03 5.485314435598e-03 0.0 
0.0 0.0 -1.141635569211e-03 
5.629634582603e-04 3.291314317230e-03 0.0 
3.291314317230e-03 1.247171813043e-03 0.0 
0.0 0.0 -7.757722591300e-04 
3.097498388755e-03 7.515594805802e-04 0.0 
7.515594805802e-04 -1.504351798864e-03 0.0 
0.0 0.0 -6.827771099535e-04 
-3.950988348044e-04 3.677355835862e-03 0.0 
3.677355835862e-03 3.018937195948e-03 0.0 
0.0 0.0 -8.989548790023e-04 
1.227636575782e-03 -1.512351808794e-03 0.0 
-1.512351808794e-03 -1.085715777594e-03 0.0 
0.0 0.0 -6.082319922330e-05 
-5.120566939223e-04 3.175912523353e-03 0.0 
3.175912523353e-03 3.844622698218e-03 0.0 
0.0 0.0 -1.026417656363e-03 
5.399418997976e-04 8.396772710701e-04 0.0 
8.396772710701e-04 2.161243029461e-03 0.0 
0.0 0.0 -1.065496432940e-03 
-1.316213487934e-03 3.030027547422e-03 0.0 
3.030027547422e-03 6.243260056489e-03 0.0 
0.0 0.0 -1.233600908384e-03 
-6.242951805065e-04 3.006743678072e-03 0.0 
3.006743678072e-03 4.303063931573e-03 0.0 
0.0 0.0 -1.090749533212e-03 
3.026627229701e-03 -6.016138979488e-05 0.0 
-6.016138979488e-05 -1.354975115356e-03 0.0 
0.0 0.0 -7.164223347191e-04 
-1.354858739815e-03 -2.484739121398e-03 0.0 
-2.484739121398e-03 4.613680447839e-03 0.0 
0.0 0.0 -1.047231727503e-03 
-1.514361396418e-03 1.521820591863e-03 0.0 
1.521820591863e-03 8.031763007479e-03 0.0 
0.0 0.0 -1.228155452712e-03 
-7.050516080877e-04 1.545847486976e-03 0.0 
1.545847486976e-03 4.498069063216e-03 0.0 
0.0 0.0 -1.267145247477e-03 
2.943450069451e-04 1.256402020470e-03 0.0 
1.256402020470e-03 2.679722888331e-03 0.0 
0.0 0.0 -1.102242875413e-03 
2.428652697383e-03 1.957638321578e-03 0.0 
1.957638321578e-03 -9.445444981417e-04 0.0 
0.0 0.0 -6.360463711034e-04 
-4.362885790871e-04 3.400866484877e-03 0.0 
3.400866484877e-03 3.416922100764e-03 0.0 
0.0 0.0 -9.624716764950e-04 
-1.751273191057e-03 -1.178364827428e-03 0.0 
-1.178364827428e-03 6.153449964232e-03 0.0 
0.0 0.0 -1.164316760544e-03 
-1.510592316959e-03 -9.050842607301e-04 0.0 
-9.050842607301e-04 4.622892738446e-03 0.0 
0.0 0.0 -1.053897668350e-03 
-5.098353463404e-04 3.384769362386e-03 0.0 
3.384769362386e-03 3.650364032255e-03 0.0 
0.0 0.0 -1.057196955382e-03 
-1.719373888211e-03 1.382981273232e-03 0.0 
1.382981273232e-03 6.550039956498e-03 0.0 
0.0 0.0 -9.877098122506e-04 
-1.368682583039e-03 -2.262414624365e-03 0.0 
-2.262414624365e-03 5.045630347078e-03 0.0 
0.0 0.0 -1.112977059762e-03 
-8.018931633473e-04 -2.405053121667e-03 0.0 
-2.405053121667e-03 4.002834443873e-03 0.0 
0.0 0.0 -1.093234982489e-03 
-1.439791436846e-03 3.326807682738e-05 0.0 
3.326807682738e-05 4.943594407769e-03 0.0 
0.0 0.0 -7.313513689239e-04 
-1.427152505588e-03 6.033982237060e-05 0.0 
6.033982237060e-05 4.941916582327e-03 0.0 
0.0 0.0 -7.310574395863e-04 
-1.640756721107e-03 2.340459270020e-03 0.0 
2.340459270020e-03 5.815255979654e-03 0.0 
0.0 0.0 -9.927888931628e-04 
-4.210846566685e-04 3.601854565047e-03 0.0 
3.601854565047e-03 3.185506434217e-03 0.0 
0.0 0.0 -9.930598132463e-04 
-9.560102716365e-04 -2.664544190492e-03 0.0 
-2.664544190492e-03 3.772312719303e-03 0.0 
0.0 0.0 -1.075560717398e-03 
-1.206510850392e-03 3.047967158976e-03 0.0 
3.047967158976e-03 4.800933324251e-03 0.0 
0.0 0.0 -9.775429604617e-04 
9.349897265997e-04 2.908831422528e-03 0.0 
2.908831422528e-03 6.057047016785e-04 0.0 
0.0 0.0 -6.602976121192e-04 
-2.228664070200e-04 -2.583623366081e-04 0.0 
-2.583623366081e-04 3.335250712245e-03 0.0 
0.0 0.0 -1.180288150054e-03 
2.187201504106e-03 2.288354873068e-03 0.0 
2.288354873068e-03 -8.791309691096e-04 0.0 
0.0 0.0 -5.606016578557e-04 
-1.487430872272e-03 2.032395386043e-03 0.0 
2.032395386043e-03 8.531052034659e-03 0.0 
0.0 0.0 -1.323793839065e-03 
-1.724651487443e-03 1.733577269253e-03 0.0 
1.733577269253e-03 5.152685708698e-03 0.0 
0.0 0.0 -8.119939454945e-04 
9.559001502051e-04 3.301449321883e-03 0.0 
3.301449321883e-03 8.023167039533e-04 0.0 
0.0 0.0 -7.535215089251e-04 
-6.923989162598e-04 -2.921867110632e-03 0.0 
-2.921867110632e-03 3.238107663680e-03 0.0 
0.0 0.0 -9.778014170609e-04 
2.952487269304e-03 8.767188776773e-04 0.0 
8.767188776773e-04 -1.231732878316e-03 0.0 
0.0 0.0 -7.374661675664e-04 
-1.449260709310e-04 -3.081657457247e-03 0.0 
-3.081657457247e-03 2.244720614764e-03 0.0 
0.0 0.0 -8.999119473571e-04 
-2.467797576170e-04 3.715212164584e-03 0.0 
3.715212164584e-03 2.738719973416e-03 0.0 
0.0 0.0 -9.758126512751e-04 
-5.058945486498e-04 3.618733188483e-03 0.0 
3.618733188483e-03 3.154888480052e-03 0.0 
0.0 0.0 -9.833357802921e-04 
-1.733759676165e-03 1.654794489536e-03 0.0 
1.654794489536e-03 6.367451579884e-03 0.0 
0.0 0.0 -9.814596669550e-04 
-1.124005872780e-03 3.379084100680e-03 0.0 
3.379084100680e-03 4.616783585522e-03 0.0 
0.0 0.0 -1.008022096355e-03 
-1.207720735867e-03 2.984451381318e-03 0.0 
2.984451381318e-03 5.147076662744e-03 0.0 
0.0 0.0 -1.040850218070e-03 
2.462504755941e-04 -3.466601191775e-04 0.0 
-3.466601191775e-04 1.225957598323e-03 0.0 
0.0 0.0 -3.048810613884e-04 
-2.528363505661e-04 -3.115888982409e-03 0.0 
-3.115888982409e-03 2.486992936593e-03 0.0 
0.0 0.0 -9.574956797260e-04 
-1.072167557266e-04 3.402438706717e-03 0.0 
3.402438706717e-03 2.375040834749e-03 0.0 
0.0 0.0 -9.719246052952e-04 
-1.390405142798e-03 3.085939311603e-03 0.0 
3.085939311603e-03 4.874750960273e-03 0.0 
0.0 0.0 -9.521954671713e-04 
-1.463685875107e-03 2.723658434378e-03 0.0 
2.723658434378e-03 5.354618705334e-03 0.0 
0.0 0.0 -9.850634846466e-04 
6.151608619481e-06 9.602693822456e-04 0.0 
9.602693822456e-04 3.003172333009e-03 0.0 
0.0 0.0 -1.160108757481e-03 
-7.116028528234e-04 -3.542186094007e-05 0.0 
-3.542186094007e-05 2.109496799795e-03 0.0 
0.0 0.0 -4.489418961951e-04 
2.420991236615e-03 -1.793290854156e-03 0.0 
-1.793290854156e-03 -1.206914640352e-03 0.0 
0.0 0.0 -5.203185412556e-04 
3.220195077698e-04 3.501557464345e-03 0.0 
3.501557464345e-03 1.705209014718e-03 0.0 
0.0 0.0 -8.688122239235e-04 
-2.823129498517e-04 -2.964277233818e-03 0.0 
-2.964277233818e-03 2.454860756862e-03 0.0 
0.0 0.0 -9.310919172903e-04 
-1.415275034250e-03 1.292164494452e-03 0.0 
1.292164494452e-03 4.167269738145e-03 0.0 
0.0 0.0 -7.665650418521e-04 
-1.567864091306e-03 1.226683465556e-03 0.0 
1.226683465556e-03 4.493286725470e-03 0.0 
0.0 0.0 -7.530137074853e-04 
-1.810136366687e-03 1.412997826384e-03 0.0 
1.412997826384e-03 6.411444835685e-03 0.0 
0.0 0.0 -9.793492904611e-04 
2.087664328359e-03 2.568536785539e-03 0.0 
2.568536785539e-03 -3.889452908062e-04 0.0 
0.0 0.0 -7.280224446655e-04 
-7.741376345699e-04 -2.792621548151e-03 0.0 
-2.792621548151e-03 3.378364177398e-03 0.0 
0.0 0.0 -1.004244986112e-03 
4.531124457367e-04 -1.076750210340e-03 0.0 
-1.076750210340e-03 2.037967656610e-03 0.0 
0.0 0.0 -1.049209916622e-03 
2.297209205504e-03 -5.483206442365e-04 0.0 
-5.483206442365e-04 -1.311033635610e-03 0.0 
0.0 0.0 -4.226466728115e-04 
-1.149618319309e-03 2.959992214286e-03 0.0 
2.959992214286e-03 5.456359281312e-03 0.0 
0.0 0.0 -1.285586381397e-03 
-1.702357103576e-03 1.352649744862e-03 0.0 
1.352649744862e-03 7.576949821791e-03 0.0 
0.0 0.0 -1.152455342817e-03 
-8.320143767109e-04 -2.543685297260e-03 0.0 
-2.543685297260e-03 3.497707295059e-03 0.0 
0.0 0.0 -1.095064427584e-03 
-1.386779618523e-03 -1.910481505052e-03 0.0 
-1.910481505052e-03 5.018049845752e-03 0.0 
0.0 0.0 -1.078722419643e-03 
2.229975894309e-04 -4.489617714331e-04 0.0 
-4.489617714331e-04 5.979694486616e-04 0.0 
0.0 0.0 -2.949115613585e-04 
4.540170595140e-04 -1.645489130381e-03 0.0 
-1.645489130381e-03 1.801582255490e-03 0.0 
0.0 0.0 -9.666854207159e-04 
-6.035540888641e-05 3.789347029411e-03 0.0 
3.789347029411e-03 2.399475313532e-03 0.0 
0.0 0.0 -8.867106850074e-04 
4.160484422948e-04 -3.622442174599e-04 0.0 
-3.622442174599e-04 5.441875866839e-04 0.0 
0.0 0.0 -3.067690066256e-04 
-1.619412582140e-03 1.641534764462e-03 0.0 
1.641534764462e-03 7.530266774085e-03 0.0 
0.0 0.0 -1.154859126927e-03 
1.948099663815e-03 -7.569421743857e-04 0.0 
-7.569421743857e-04 -1.147440738389e-03 0.0 
0.0 0.0 -3.431395394681e-04 
-1.356737557429e-03 2.911706860265e-03 0.0 
2.911706860265e-03 4.923580709307e-03 0.0 
0.0 0.0 -9.496453321265e-04 
-5.843331771905e-04 3.664260117298e-03 0.0 
3.664260117298e-03 3.237703376181e-03 0.0 
0.0 0.0 -8.924259012440e-04 
1.585702125321e-03 -1.745985882028e-03 0.0 
-1.745985882028e-03 -4.551642142342e-04 0.0 
0.0 0.0 -4.845162476087e-04 
3.886198775371e-04 -2.656776709997e-03 0.0 
-2.656776709997e-03 1.521016158266e-03 0.0 
0.0 0.0 -8.184154439158e-04 
-1.604458387616e-03 1.854152015569e-03 0.0 
1.854152015569e-03 7.626319442818e-03 0.0 
0.0 0.0 -1.182898372388e-03 
1.911502030331e-04 -2.214449408558e-03 0.0 
-2.214449408558e-03 2.167051973238e-03 0.0 
0.0 0.0 -9.716005391690e-04 
4.578213256305e-04 3.411459955915e-03 0.0 
3.411459955915e-03 1.456160682634e-03 0.0 
0.0 0.0 -8.202780035418e-04 
3.627077773465e-04 3.714478666179e-03 0.0 
3.714478666179e-03 1.773296424289e-03 0.0 
0.0 0.0 -9.111404029742e-04 
1.874131474266e-04 1.317598379107e-03 0.0 
1.317598379107e-03 5.481764939296e-04 0.0 
0.0 0.0 -3.152527034384e-04 
1.643748758810e-03 -4.204231761426e-04 0.0 
-4.204231761426e-04 -1.117599327178e-03 0.0 
0.0 0.0 -2.254926135565e-04 
-5.203694144565e-04 2.878386602619e-03 0.0 
2.878386602619e-03 4.197902991695e-03 0.0 
0.0 0.0 -1.118331045454e-03 
-1.809983628728e-03 1.593568509076e-03 0.0 
1.593568509076e-03 5.817131701425e-03 0.0 
0.0 0.0 -9.085367473448e-04 
-5.577334774044e-04 3.082426156906e-03 0.0 
3.082426156906e-03 4.104685153811e-03 0.0 
0.0 0.0 -1.148691026115e-03 
1.974680470733e-03 2.873021825660e-03 0.0 
2.873021825660e-03 -4.940617528099e-04 0.0 
0.0 0.0 -6.345508791099e-04 
-1.588961869452e-03 2.584393938582e-03 0.0 
2.584393938582e-03 6.455891274831e-03 0.0 
0.0 0.0 -1.097950598811e-03 
-7.723714131083e-04 2.927319470345e-03 0.0 
2.927319470345e-03 4.791549148204e-03 0.0 
0.0 0.0 -1.155407764312e-03 
-1.528620740983e-03 1.641090201076e-03 0.0 
1.641090201076e-03 4.483124494598e-03 0.0 
0.0 0.0 -7.696970057192e-04 
-6.364037100851e-04 3.205127351833e-03 0.0 
3.205127351833e-03 4.133031580390e-03 0.0 
0.0 0.0 -1.120992621467e-03 
-1.531289715330e-03 -2.235814658200e-03 0.0 
-2.235814658200e-03 5.083560864057e-03 0.0 
0.0 0.0 -1.075946734593e-03 
-1.542078502361e-04 3.681831680089e-03 0.0 
3.681831680089e-03 2.560354402538e-03 0.0 
0.0 0.0 -9.606735922745e-04 
-4.462082875552e-04 -3.056851139717e-03 0.0 
-3.056851139717e-03 2.847631123845e-03 0.0 
0.0 0.0 -1.006543408955e-03 
-3.390473984761e-04 -3.081268501996e-03 0.0 
-3.081268501996e-03 2.650937052075e-03 0.0 
0.0 0.0 -9.908098515424e-04 
-1.654766843293e-03 2.110154288789e-03 0.0 
2.110154288789e-03 7.526175185133e-03 0.0 
0.0 0.0 -1.204704583718e-03 
6.478121330843e-04 -2.891464683005e-03 0.0 
-2.891464683005e-03 9.158033438757e-04 0.0 
0.0 0.0 -6.701209186971e-04 
-3.674328541615e-04 3.694790859021e-03 0.0 
3.694790859021e-03 2.941360548218e-03 0.0 
0.0 0.0 -9.833476869619e-04 
1.512914527637e-03 2.270095044354e-03 0.0 
2.270095044354e-03 -2.495167818894e-04 0.0 
0.0 0.0 -5.414561767490e-04 
-4.689248235341e-05 -1.859495784931e-03 0.0 
-1.859495784931e-03 2.784842397477e-03 0.0 
0.0 0.0 -1.038364586984e-03 
1.508518420493e-03 2.943740230317e-03 0.0 
2.943740230317e-03 4.760392635737e-05 0.0 
0.0 0.0 -6.669095772216e-04 
3.102345530720e-03 7.378269526544e-05 0.0 
7.378269526544e-05 -1.464469892876e-03 0.0 
0.0 0.0 -7.019467019332e-04 
1.507578771505e-03 -7.604032194635e-04 0.0 
-7.604032194635e-04 -4.928220476776e-04 0.0 
0.0 0.0 -4.348957387830e-04 
3.148975456484e-03 8.306636056168e-04 0.0 
8.306636056168e-04 -1.496370463473e-03 0.0 
0.0 0.0 -7.082592827190e-04 
-1.261991141926e-03 3.267444165813e-03 0.0 
3.267444165813e-03 4.752384958846e-03 0.0 
0.0 0.0 -9.799122972177e-04 
3.123536661893e-03 -9.721135346994e-05 0.0 
-9.721135346994e-05 -1.405927083563e-03 0.0 
0.0 0.0 -7.361183907127e-04 
-1.047249439091e-03 3.250277679615e-03 0.0 
3.250277679615e-03 4.315763371752e-03 0.0 
0.0 0.0 -9.420580210740e-04 
1.883489007768e-04 8.010579783403e-04 0.0 
8.010579783403e-04 2.876523535355e-03 0.0 
0.0 0.0 -1.130549445556e-03 
3.588863471818e-04 1.014874640691e-03 0.0 
1.014874640691e-03 2.306525440664e-03 0.0 
0.0 0.0 -1.096529089934e-03 
1.700464822711e-03 2.598856322658e-03 0.0 
2.598856322658e-03 -4.407098144151e-04 0.0 
0.0 0.0 -5.398950035552e-04 
-1.732708782740e-03 1.731245879395e-03 0.0 
1.731245879395e-03 6.071080868846e-03 0.0 
0.0 0.0 -9.460253849645e-04 
-1.548270655095e-03 -1.671057713006e-03 0.0 
-1.671057713006e-03 5.446327602559e-03 0.0 
0.0 0.0 -1.107441567342e-03 
-1.667313564664e-03 -1.981097125204e-03 0.0 
-1.981097125204e-03 5.509726630970e-03 0.0 
0.0 0.0 -1.104747680386e-03 
1.318532451431e-03 2.199681040646e-03 0.0 
2.199681040646e-03 -1.454539841179e-04 0.0 
0.0 0.0 -5.027479145627e-04 
-9.715008187727e-04 3.547635970715e-03 0.0 
3.547635970715e-03 4.097719530490e-03 0.0 
0.0 0.0 -9.724793438395e-04 
-1.624312607657e-03 -1.275879739373e-03 0.0 
-1.275879739373e-03 6.206545711786e-03 0.0 
0.0 0.0 -1.205818386895e-03 
-2.985133365854e-04 2.525233875689e-03 0.0 
2.525233875689e-03 2.218258876373e-03 0.0 
0.0 0.0 -8.227480884806e-04 
-1.021411894397e-03 -2.472960565398e-03 0.0 
-2.472960565398e-03 3.861949643739e-03 0.0 
0.0 0.0 -1.085013296808e-03 
1.242793848756e-04 1.186515148645e-03 0.0 
1.186515148645e-03 5.554989300674e-04 0.0 
0.0 0.0 -2.913335635470e-04 
-1.667346094177e-03 -1.424810251550e-03 0.0 
-1.424810251550e-03 5.825346578498e-03 0.0 
0.0 0.0 -1.136235114959e-03 
3.019668846566e-03 9.582089678435e-04 0.0 
9.582089678435e-04 -1.448201355488e-03 0.0 
0.0 0.0 -6.734860676048e-04 
-1.578302787965e-03 -5.539699262797e-04 0.0 
-5.539699262797e-04 4.756261434844e-03 0.0 
0.0 0.0 -1.057437106069e-03 
4.911868189057e-04 2.542757255714e-03 0.0 
2.542757255714e-03 1.777357060087e-03 0.0 
0.0 0.0 -9.722330909969e-04 
-1.811529723315e-03 1.498050121893e-03 0.0 
1.498050121893e-03 6.116522056800e-03 0.0 
0.0 0.0 -9.438854677472e-04 
-1.729248363348e-03 1.804686593249e-03 0.0 
1.804686593249e-03 5.771244996451e-03 0.0 
0.0 0.0 -9.108073647307e-04 
1.218753398279e-04 3.628872757319e-03 0.0 
3.628872757319e-03 2.104833384723e-03 0.0 
0.0 0.0 -9.543037390934e-04 
-1.106695794268e-03 1.517581520969e-03 0.0 
1.517581520969e-03 3.539684992285e-03 0.0 
0.0 0.0 -7.963586959451e-04 
-1.268797780777e-03 1.437345509075e-03 0.0 
1.437345509075e-03 3.867869279896e-03 0.0 
0.0 0.0 -7.758011671882e-04 
-1.764900971931e-03 -1.718354051601e-03 0.0 
-1.718354051601e-03 5.889801463908e-03 0.0 
0.0 0.0 -1.133400347077e-03 
2.569249843707e-04 -2.786570784076e-03 0.0 
-2.786570784076e-03 1.556740733674e-03 0.0 
0.0 0.0 -7.772853077335e-04 
1.174175751745e-03 -1.803885435246e-03 0.0 
-1.803885435246e-03 -1.174563587325e-05 0.0 
0.0 0.0 -4.981843353734e-04 
5.912929398665e-04 -9.060768193030e-04 0.0 
-9.060768193030e-04 1.727113514221e-03 0.0 
0.0 0.0 -9.936027660373e-04 
2.016096735556e-03 -6.850330429382e-04 0.0 
-6.850330429382e-04 -9.758089702167e-04 0.0 
0.0 0.0 -4.458376137168e-04 
3.081197548797e-03 7.466969370712e-04 0.0 
7.466969370712e-04 -1.300129295292e-03 0.0 
0.0 0.0 -7.633149657881e-04 
-1.128831614242e-03 1.542551351037e-03 0.0 
1.542551351037e-03 3.551129300523e-03 0.0 
0.0 0.0 -7.520787537531e-04 
-1.821423928511e-03 1.474632635918e-03 0.0 
1.474632635918e-03 5.487726439764e-03 0.0 
0.0 0.0 -8.442294783838e-04 
-1.409406014707e-03 4.528826506854e-05 0.0 
4.528826506854e-05 5.214877225355e-03 0.0 
0.0 0.0 -7.121995050294e-04 
4.077287179479e-04 3.674953038794e-04 0.0 
3.674953038794e-04 2.393170375530e-03 0.0 
0.0 0.0 -1.093598669875e-03 
1.997342351340e-03 2.504018622736e-03 0.0 
2.504018622736e-03 -5.807467309884e-04 0.0 
0.0 0.0 -6.071124087219e-04 
-4.482284720357e-04 1.652414080391e-03 0.0 
1.652414080391e-03 3.958656300163e-03 0.0 
0.0 0.0 -1.233571955743e-03 
-2.022662331208e-03 -4.627058437959e-04 0.0 
-4.627058437959e-04 6.332672682848e-03 0.0 
0.0 0.0 -1.121177773779e-03 
1.798099945912e-03 -8.661440026173e-04 0.0 
-8.661440026173e-04 -7.288088564904e-04 0.0 
0.0 0.0 -4.582676097521e-04 
-1.524985310237e-03 -1.822620195545e-03 0.0 
-1.822620195545e-03 6.245562815238e-03 0.0 
0.0 0.0 -1.241472629463e-03 
3.003131752772e-03 -8.623198735716e-04 0.0 
-8.623198735716e-04 -1.396381984480e-03 0.0 
0.0 0.0 -6.886070435535e-04 
-3.779034990216e-04 2.052169755275e-03 0.0 
2.052169755275e-03 3.788846745744e-03 0.0 
0.0 0.0 -1.204482468497e-03 
1.415534273829e-04 3.636591431357e-03 0.0 
3.636591431357e-03 2.169944347150e-03 0.0 
0.0 0.0 -8.910665706739e-04 
8.940143763453e-06 3.422262264522e-03 0.0 
3.422262264522e-03 2.416052284656e-03 0.0 
0.0 0.0 -9.848034212814e-04 
-1.370477965762e-04 -1.170123439274e-03 0.0 
-1.170123439274e-03 3.214973093205e-03 0.0 
0.0 0.0 -1.146785027167e-03 
3.884013163081e-04 -2.855323367017e-03 0.0 
-2.855323367017e-03 1.211719834243e-03 0.0 
0.0 0.0 -6.857662073788e-04 
-7.129927410741e-04 3.670079492291e-03 0.0 
3.670079492291e-03 3.538541594785e-03 0.0 
0.0 0.0 -9.649174008510e-04 
1.717035050200e-03 -1.344860437860e-03 0.0 
-1.344860437860e-03 -6.217055712217e-04 0.0 
0.0 0.0 -4.694269195620e-04 
-8.587679122771e-04 3.481313587749e-03 0.0 
3.481313587749e-03 3.794469535060e-03 0.0 
0.0 0.0 -9.065670216064e-04 
1.889810402813e-03 2.899509189946e-03 0.0 
2.899509189946e-03 -2.152817456685e-04 0.0 
0.0 0.0 -7.176551387762e-04 
1.428912843794e-04 3.126816861625e-03 0.0 
3.126816861625e-03 2.356543378173e-03 0.0 
0.0 0.0 -1.013229387512e-03 
1.943775632291e-03 -1.286497408609e-03 0.0 
-1.286497408609e-03 -8.334086717492e-04 0.0 
0.0 0.0 -4.758715545177e-04 
-1.000337791729e-03 -2.628959420428e-03 0.0 
-2.628959420428e-03 3.773462867951e-03 0.0 
0.0 0.0 -9.886579807222e-04 
-8.325357311160e-04 3.547635505547e-03 0.0 
3.547635505547e-03 3.716995785029e-03 0.0 
0.0 0.0 -9.612835620876e-04 
2.687167972919e-04 1.795311194676e-03 0.0 
1.795311194676e-03 1.563575924244e-04 0.0 
0.0 0.0 -1.821747384498e-04 
1.057813883420e-03 2.534506278338e-03 0.0 
2.534506278338e-03 3.175156107454e-04 0.0 
0.0 0.0 -5.894269260710e-04 
4.651919044669e-04 1.924261843739e-03 0.0 
1.924261843739e-03 5.725607713308e-04 0.0 
0.0 0.0 -4.447511467704e-04 
-3.371303889653e-04 -7.500919376923e-04 0.0 
-7.500919376923e-04 1.299829984783e-03 0.0 
0.0 0.0 -4.040777003935e-04 
-1.056371726126e-03 -2.468497531733e-03 0.0 
-2.468497531733e-03 3.865104933196e-03 0.0 
0.0 0.0 -1.010653628765e-03 
-9.607789536057e-04 3.048565223821e-03 0.0 
3.048565223821e-03 4.940644900743e-03 0.0 
0.0 0.0 -1.098354823938e-03 
-1.707850550320e-03 2.055402839425e-03 0.0 
2.055402839425e-03 5.786469608898e-03 0.0 
0.0 0.0 -9.387552692591e-04 
-7.756723233026e-04 1.730094175383e-03 0.0 
1.730094175383e-03 2.916527936956e-03 0.0 
0.0 0.0 -8.497951325312e-04 
-1.342322198460e-03 2.098270725376e-03 0.0 
2.098270725376e-03 8.248661573518e-03 0.0 
0.0 0.0 -1.342322198460e-03 
-1.675664492560e-04 1.988654983064e-03 0.0 
1.988654983064e-03 2.477887045978e-04 0.0 
0.0 0.0 -3.438096657507e-05 
-9.510393810217e-04 1.672687846132e-03 0.0 
1.672687846132e-03 3.246503304730e-03 0.0 
0.0 0.0 -8.134098498104e-04 
1.098475143763e-03 -2.031876221816e-03 0.0 
-2.031876221816e-03 1.166483383452e-04 0.0 
0.0 0.0 -5.207672066180e-04 
-1.089976521784e-03 -2.234801732660e-03 0.0 
-2.234801732660e-03 3.943897982090e-03 0.0 
0.0 0.0 -1.084767721667e-03 
-1.111038172895e-03 2.200189741588e-03 0.0 
2.200189741588e-03 3.768833115442e-03 0.0 
0.0 0.0 -8.610308207870e-04 
2.262464148868e-03 -1.945012542063e-03 0.0 
-1.945012542063e-03 -8.191237484730e-04 0.0 
0.0 0.0 -6.185744573122e-04 
5.761048584873e-04 -2.775225325336e-03 0.0 
-2.775225325336e-03 9.303736926874e-04 0.0 
0.0 0.0 -6.456336647891e-04 
-1.625181255020e-04 3.528619970826e-03 0.0 
3.528619970826e-03 2.809301514261e-03 0.0 
0.0 0.0 -9.266779469803e-04 
7.488835648315e-04 2.251240740231e-03 0.0 
2.251240740231e-03 1.162555029076e-03 0.0 
0.0 0.0 -8.191879688175e-04 
-1.329752805185e-03 3.181517598016e-03 0.0 
3.181517598016e-03 5.907007101231e-03 0.0 
0.0 0.0 -1.144302277022e-03 
1.946489244002e-03 2.821542424935e-03 0.0 
2.821542424935e-03 -8.035545710095e-04 0.0 
0.0 0.0 -4.898291455683e-04 
-8.586335344055e-04 -2.592060326530e-03 0.0 
-2.592060326530e-03 3.501562453949e-03 0.0 
0.0 0.0 -1.023226067289e-03 
-1.335563518602e-03 -1.880041070522e-03 0.0 
-1.880041070522e-03 4.351195601973e-03 0.0 
0.0 0.0 -1.033071644556e-03 
-2.022124363338e-05 -2.395587679301e-03 0.0 
-2.395587679301e-03 1.567846091858e-03 0.0 
0.0 0.0 -6.632677920962e-04 
-1.674900766220e-03 1.599025443535e-03 0.0 
1.599025443535e-03 4.804084785627e-03 0.0 
0.0 0.0 -7.663799295492e-04 
-1.769874274313e-03 1.858383186956e-03 0.0 
1.858383186956e-03 5.835930784600e-03 0.0 
0.0 0.0 -9.362314798257e-04 
-2.069835677089e-03 -4.002455476683e-04 0.0 
-4.002455476683e-04 5.909495734486e-03 0.0 
0.0 0.0 -1.073191215027e-03 
1.059197299257e-03 -5.440939611188e-04 0.0 
-5.440939611188e-04 5.670737881280e-04 0.0 
0.0 0.0 -3.365581251930e-04 
0.0 0.0 0.0 
0.0 0.0 0.0 
0.0 0.0 0.0 
-4.602170046064e-05 -1.936536183988e-03 0.0 
-1.936536183988e-03 1.323038368316e-03 0.0 
0.0 0.0 -5.472928576524e-04 
-1.313750205869e-03 -1.893362186714e-03 0.0 
-1.893362186714e-03 4.351424993746e-03 0.0 
0.0 0.0 -1.080662880999e-03 
2.816321063082e-03 -8.334388727588e-04 0.0 
-8.334388727588e-04 -1.272649618703e-03 0.0 
0.0 0.0 -6.615734761625e-04 
2.373065583622e-03 -2.080956134851e-03 0.0 
-2.080956134851e-03 -1.010649277428e-03 0.0 
0.0 0.0 -5.838927026542e-04 
2.954183213689e-03 -8.930251278497e-04 0.0 
-8.930251278497e-04 -1.356411275311e-03 0.0 
0.0 0.0 -6.847594021618e-04 
-1.301232695251e-03 -2.116378151629e-03 0.0 
-2.116378151629e-03 4.314126103213e-03 0.0 
0.0 0.0 -1.020860678390e-03 
-1.603005468093e-03 2.550878726920e-03 0.0 
2.550878726920e-03 5.754736739264e-03 0.0 
0.0 0.0 -9.956198530692e-04 
-1.518941795168e-03 -1.499106977263e-03 0.0 
-1.499106977263e-03 4.706029179031e-03 0.0 
0.0 0.0 -1.043188517862e-03 
2.974270505683e-03 -1.234815007946e-05 0.0 
-1.234815007946e-05 -1.384428534307e-03 0.0 
0.0 0.0 -6.813608448753e-04 
-8.631645989931e-04 3.291242542591e-03 0.0 
3.291242542591e-03 4.149472146392e-03 0.0 
0.0 0.0 -9.699423737970e-04 
-1.666656418554e-03 8.515973861887e-04 0.0 
8.515973861887e-04 5.656067677278e-03 0.0 
0.0 0.0 -8.236220363599e-04 
2.293852952879e-04 2.317534078424e-03 0.0 
2.317534078424e-03 2.464619361077e-03 0.0 
0.0 0.0 -1.076197569190e-03 
-1.503911657480e-03 -1.536228813635e-03 0.0 
-1.536228813635e-03 4.713514709764e-03 0.0 
0.0 0.0 -1.079735805607e-03 
-1.269594224654e-03 -2.151916428327e-03 0.0 
-2.151916428327e-03 4.311241093571e-03 0.0 
0.0 0.0 -1.081849276551e-03 
-4.912617181252e-04 1.776659374520e-03 0.0 
1.776659374520e-03 2.250419150674e-03 0.0 
0.0 0.0 -7.539246139495e-04 
2.432965561316e-03 -1.404722775878e-03 0.0 
-1.404722775878e-03 -1.097996306609e-03 0.0 
0.0 0.0 -5.721296805886e-04 
-1.672927313923e-03 -1.115371020166e-03 0.0 
-1.115371020166e-03 5.017856732658e-03 0.0 
0.0 0.0 -1.052805964859e-03 
-1.580075754320e-03 2.157353104837e-04 0.0 
2.157353104837e-04 6.692661968395e-03 0.0 
0.0 0.0 -9.615701295830e-04 
-1.562907036777e-03 2.120583330649e-04 0.0 
2.120583330649e-04 6.337987109484e-03 0.0 
0.0 0.0 -8.972249362023e-04 
-6.223529423683e-04 1.809817658288e-03 0.0 
1.809817658288e-03 2.623397927817e-03 0.0 
0.0 0.0 -8.575907080495e-04 
-1.509705893005e-03 -1.747591078712e-03 0.0 
-1.747591078712e-03 4.715855182949e-03 0.0 
0.0 0.0 -1.032785096058e-03 
1.569414128809e-03 -2.550888608895e-03 0.0 
-2.550888608895e-03 -3.370499251341e-04 0.0 
0.0 0.0 -5.281560872893e-04 
8.209882341614e-04 2.381580320664e-03 0.0 
2.381580320664e-03 4.553315452112e-04 0.0 
0.0 0.0 -5.469941911596e-04 
-2.931643961127e-04 1.527189756473e-03 0.0 
1.527189756473e-03 3.869126548266e-03 0.0 
0.0 0.0 -1.202908440308e-03 
1.382596818972e-04 -2.070148021774e-03 0.0 
-2.070148021774e-03 1.091658495820e-03 0.0 
0.0 0.0 -5.271077904503e-04 
1.398235426833e-03 -2.548773596058e-03 0.0 
-2.548773596058e-03 -7.584749764512e-05 0.0 
0.0 0.0 -5.667376839375e-04 
1.254646909069e-03 2.484629242297e-03 0.0 
2.484629242297e-03 3.513264158718e-04 0.0 
0.0 0.0 -6.882742821176e-04 
-8.245697505670e-04 1.707333830662e-03 0.0 
1.707333830662e-03 2.953610139157e-03 0.0 
0.0 0.0 -7.843752346430e-04 
-1.666758732331e-03 -1.174236117568e-03 0.0 
-1.174236117568e-03 5.037001804565e-03 0.0 
0.0 0.0 -1.079856008588e-03 
-9.244628747481e-04 -1.936309255703e-04 0.0 
-1.936309255703e-04 2.822852214519e-03 0.0 
0.0 0.0 -6.624393034254e-04 
-1.781970376818e-03 1.286452196400e-03 0.0 
1.286452196400e-03 5.020731578576e-03 0.0 
0.0 0.0 -7.824198048058e-04 
-1.484587749919e-03 -1.812874826371e-03 0.0 
-1.812874826371e-03 4.718401123365e-03 0.0 
0.0 0.0 -1.081372135754e-03 
1.084769609676e-03 -2.051097269290e-03 0.0 
-2.051097269290e-03 1.328211131767e-04 0.0 
0.0 0.0 -5.218245955084e-04 
-7.383188819978e-04 -2.755351396555e-03 0.0 
-2.755351396555e-03 3.375108004806e-03 0.0 
0.0 0.0 -1.093992571453e-03 
0.0 0.0 0.0 
0.0 0.0 0.0 
0.0 0.0 0.0 
-1.585395185030e-03 -8.733622601649e-05 0.0 
-8.733622601649e-05 7.915806537563e-03 0.0 
0.0 0.0 -1.152567315725e-03 
1.675271907871e-03 -2.177617042757e-03 0.0 
-2.177617042757e-03 -5.173898653476e-04 0.0 
0.0 0.0 -4.962351610816e-04 
3.706447397785e-05 2.070351060898e-04 0.0 
2.070351060898e-04 3.044600736775e-03 0.0 
0.0 0.0 -1.154039482800e-03 
2.069033457779e-04 2.961881208612e-03 0.0 
2.961881208612e-03 2.494592241471e-03 0.0 
0.0 0.0 -9.821191134873e-04 
-1.685773855788e-03 -1.377399783606e-03 0.0 
-1.377399783606e-03 5.070521373149e-03 0.0 
0.0 0.0 -1.044398856648e-03 
-1.669266621470e-03 -1.454184032041e-03 0.0 
-1.454184032041e-03 5.079788696568e-03 0.0 
0.0 0.0 -1.081576243284e-03 
2.914990553637e-03 -7.685843879532e-04 0.0 
-7.685843879532e-04 -1.358389786941e-03 0.0 
0.0 0.0 -6.671146142983e-04 
1.578300081431e-04 -1.839580637340e-03 0.0 
-1.839580637340e-03 9.146826550122e-04 0.0 
0.0 0.0 -4.596482842094e-04 
5.655633450819e-04 1.634462446329e-03 0.0 
1.634462446329e-03 -4.353216112412e-04 0.0 
0.0 0.0 -5.581788593170e-05 
-1.838374468884e-03 -1.008357892208e-03 0.0 
-1.008357892208e-03 5.389548205880e-03 0.0 
0.0 0.0 -1.053342186814e-03 
-7.735429255110e-05 -5.938829985412e-04 0.0 
-5.938829985412e-04 3.207515001155e-03 0.0 
0.0 0.0 -1.148056181429e-03 
8.407270435530e-04 -2.401906140793e-03 0.0 
-2.401906140793e-03 4.680800088294e-04 0.0 
0.0 0.0 -5.609173081639e-04 
-8.059519139880e-04 3.569609752867e-03 0.0 
3.569609752867e-03 3.937575205409e-03 0.0 
0.0 0.0 -1.000702849114e-03 
-1.423128099077e-04 2.434671484328e-03 0.0 
2.434671484328e-03 1.829214520191e-03 0.0 
0.0 0.0 -7.229578758357e-04 
-1.050409536978e-03 3.126628093613e-03 0.0 
3.126628093613e-03 4.667808075339e-03 0.0 
0.0 0.0 -1.005614027492e-03 
-9.737300203529e-04 -1.654439195094e-03 0.0 
-1.654439195094e-03 5.294537233988e-03 0.0 
0.0 0.0 -1.266534580134e-03 
0.0 0.0 0.0 
0.0 0.0 0.0 
0.0 0.0 0.0 
-1.341620833825e-03 1.946460220436e-04 0.0 
1.946460220436e-04 8.726655578502e-03 0.0 
0.0 0.0 -1.341620833825e-03 
-1.340051318819e-03 -5.222823624513e-04 0.0 
-5.222823624513e-04 7.102242080382e-03 0.0 
0.0 0.0 -1.340051318819e-03 
-1.487218295656e-03 -1.877140319118e-04 0.0 
-1.877140319118e-04 5.546795712007e-03 0.0 
0.0 0.0 -7.955197795907e-04 
9.332368058577e-04 -2.323240235713e-03 0.0 
-2.323240235713e-03 3.557999178189e-04 0.0 
0.0 0.0 -5.524443101471e-04 
4.489255113101e-05 3.284657334475e-03 0.0 
3.284657334475e-03 2.631811467132e-03 0.0 
0.0 0.0 -9.543595451431e-04 
3.058132153657e-03 -1.043711929510e-04 0.0 
-1.043711929510e-04 -1.411540431284e-03 0.0 
0.0 0.0 -7.056821667315e-04 
-3.299569164523e-05 -1.162968038586e-03 0.0 
-1.162968038586e-03 1.091173189700e-03 0.0 
0.0 0.0 -3.090400745732e-04 
-5.009462419672e-05 1.601961848337e-03 0.0 
1.601961848337e-03 4.810055806684e-04 0.0 
0.0 0.0 -1.846761242021e-04 
-1.574977123889e-03 5.363765110094e-04 0.0 
5.363765110094e-04 8.165141429638e-03 0.0 
0.0 0.0 -1.209499414335e-03 
-1.716498366635e-03 2.104119454666e-03 0.0 
2.104119454666e-03 5.843034081691e-03 0.0 
0.0 0.0 -9.648175333861e-04 
-1.733356707705e-03 1.154742806149e-03 0.0 
1.154742806149e-03 4.860119042041e-03 0.0 
0.0 0.0 -7.487175554447e-04 
-1.114495707937e-03 3.137897512820e-03 0.0 
3.137897512820e-03 5.995042437661e-03 0.0 
0.0 0.0 -1.323661129950e-03 
-8.127251142362e-04 -1.412537566310e-04 0.0 
-1.412537566310e-04 2.411308652960e-03 0.0 
0.0 0.0 -5.128881373376e-04 
-1.119968701545e-03 2.850061398458e-03 0.0 
2.850061398458e-03 5.775097260118e-03 0.0 
0.0 0.0 -1.324908485340e-03 
-1.665581242751e-03 2.319761122546e-03 0.0 
2.319761122546e-03 5.793099015745e-03 0.0 
0.0 0.0 -9.670422101491e-04 
5.568715715285e-04 -2.770077582360e-03 0.0 
-2.770077582360e-03 9.496266440003e-04 0.0 
0.0 0.0 -6.456420923695e-04 
2.161043505782e-04 3.547732125549e-03 0.0 
3.547732125549e-03 1.898015910390e-03 0.0 
0.0 0.0 -9.060515404150e-04 
9.950905598312e-04 -2.671652170698e-03 0.0 
-2.671652170698e-03 4.709180402517e-04 0.0 
0.0 0.0 -6.282894000355e-04 
6.980021611784e-04 2.329704923171e-03 0.0 
2.329704923171e-03 5.591408928334e-04 0.0 
0.0 0.0 -5.387755945765e-04 
7.505691487916e-04 -2.806175756815e-03 0.0 
-2.806175756815e-03 7.604579484207e-04 0.0 
0.0 0.0 -6.475830416624e-04 
-1.523404584578e-03 2.773030803061e-03 0.0 
2.773030803061e-03 5.696563371559e-03 0.0 
0.0 0.0 -1.023749757194e-03 
-1.948666597127e-03 -9.778535476886e-04 0.0 
-9.778535476886e-04 6.429483775968e-03 0.0 
0.0 0.0 -1.155390781228e-03 
1.789573321784e-03 -2.334741346390e-03 0.0 
-2.334741346390e-03 -4.865776105569e-04 0.0 
0.0 0.0 -5.584267333832e-04 
-9.825735489597e-04 3.435129640079e-03 0.0 
3.435129640079e-03 4.478995622056e-03 0.0 
0.0 0.0 -1.036271578259e-03 
0.0 0.0 0.0 
0.0 0.0 0.0 
0.0 0.0 0.0 
2.596759179503e-03 -1.389222099922e-03 0.0 
-1.389222099922e-03 -1.085257982110e-03 0.0 
0.0 0.0 -6.477862274541e-04 
-1.710970656604e-03 2.103685284721e-03 0.0 
2.103685284721e-03 6.525687664567e-03 0.0 
0.0 0.0 -1.066385360782e-03 
2.404574348015e-04 -2.949261258943e-03 0.0 
-2.949261258943e-03 1.482737397066e-03 0.0 
0.0 0.0 -7.385120708005e-04 
6.388802882870e-04 -2.505035958296e-03 0.0 
-2.505035958296e-03 7.105369687538e-04 0.0 
0.0 0.0 -5.783216815889e-04 
3.613031293431e-04 3.302322730047e-03 0.0 
3.302322730047e-03 1.977511413847e-03 0.0 
0.0 0.0 -9.187611816440e-04 
1.834377336541e-03 -2.869898485884e-03 0.0 
-2.869898485884e-03 -1.676988345135e-04 0.0 
0.0 0.0 -7.142907865831e-04 
-2.603602936992e-04 1.802957872284e-03 0.0 
1.802957872284e-03 1.690888390106e-03 0.0 
0.0 0.0 -6.130834698885e-04 
-3.766094290651e-04 1.893748037744e-03 0.0 
1.893748037744e-03 2.022328291586e-03 0.0 
0.0 0.0 -7.053080839374e-04 
2.569187355972e-04 -2.744654995445e-03 0.0 
-2.744654995445e-03 1.329889881086e-03 0.0 
0.0 0.0 -6.800608357214e-04 
9.113223760588e-04 -2.364957113740e-03 0.0 
-2.364957113740e-03 3.924099138829e-04 0.0 
0.0 0.0 -5.587424099750e-04 
1.417197887517e-03 2.585133621544e-03 0.0 
2.585133621544e-03 -7.607709962933e-05 0.0 
0.0 0.0 -5.747660519518e-04 
-8.949493316928e-04 3.143090586373e-03 0.0 
3.143090586373e-03 4.528621917534e-03 0.0 
0.0 0.0 -1.033897369924e-03 
-1.400349245868e-03 3.030732209316e-03 0.0 
3.030732209316e-03 6.703483299750e-03 0.0 
0.0 0.0 -1.224260864640e-03 
-5.253406665386e-04 1.775908047208e-03 0.0 
1.775908047208e-03 2.340968666104e-03 0.0 
0.0 0.0 -7.781262855279e-04 
-1.583002963210e-03 -1.557788336479e-04 0.0 
-1.557788336479e-04 7.086569384723e-03 0.0 
0.0 0.0 -1.028620860735e-03 
-1.145284533028e-03 3.268026662313e-03 0.0 
3.268026662313e-03 5.700409497196e-03 0.0 
0.0 0.0 -1.228414553209e-03 
3.124385303303e-03 -1.108728093105e-05 0.0 
-1.108728093105e-05 -1.500119221682e-03 0.0 
0.0 0.0 -6.961140349804e-04 
5.697530012785e-04 2.144073309248e-03 0.0 
2.144073309248e-03 5.848519704173e-04 0.0 
0.0 0.0 -4.948307021553e-04 
-2.816210062748e-04 2.601627525948e-03 0.0 
2.601627525948e-03 2.228068929511e-03 0.0 
0.0 0.0 -8.341919671012e-04 
8.341721467740e-04 -2.510433576068e-03 0.0 
-2.510433576068e-03 5.276394565767e-04 0.0 
0.0 0.0 -5.836335442932e-04 
-1.247042165843e-03 3.250100918931e-03 0.0 
3.250100918931e-03 5.099970820779e-03 0.0 
0.0 0.0 -1.043024347135e-03 
1.027519968218e-03 -2.380813166548e-03 0.0 
-2.380813166548e-03 3.112209895361e-04 0.0 
0.0 0.0 -5.737461247516e-04 
1.268606586028e-03 2.037384257040e-03 0.0 
2.037384257040e-03 -4.121339973903e-04 0.0 
0.0 0.0 -3.670596808449e-04 
5.930292221715e-04 -2.622911752925e-03 0.0 
-2.622911752925e-03 8.838728538733e-04 0.0 
0.0 0.0 -6.329580325906e-04 
5.486710723125e-04 2.332384511628e-03 0.0 
2.332384511628e-03 7.102378801027e-04 0.0 
0.0 0.0 -5.395324081779e-04 
1.682768200706e-03 2.516609952748e-03 0.0 
2.516609952748e-03 -2.542264434373e-04 0.0 
0.0 0.0 -6.122321816867e-04 
7.358023053180e-04 -2.505051408807e-03 0.0 
-2.505051408807e-03 7.718123993888e-04 0.0 
0.0 0.0 -6.461205877315e-04 
2.812366509539e-04 3.418056531118e-03 0.0 
3.418056531118e-03 1.761992896829e-03 0.0 
0.0 0.0 -8.756698061928e-04 
-1.585509504414e-03 6.854986193214e-05 0.0 
6.854986193214e-05 6.515313053331e-03 0.0 
0.0 0.0 -9.494079867578e-04 
1.950119496099e-04 -2.582141659643e-03 0.0 
-2.582141659643e-03 1.322040652856e-03 0.0 
0.0 0.0 -6.501654010570e-04 
9.460441418101e-04 2.468386529063e-03 0.0 
2.468386529063e-03 3.152412733386e-04 0.0 
0.0 0.0 -5.405508922066e-04 
5.243693270813e-04 -2.069869324487e-03 0.0 
-2.069869324487e-03 1.498209352588e-03 0.0 
0.0 0.0 -8.668194341442e-04 
3.838921855015e-04 2.277447822888e-03 0.0 
2.277447822888e-03 8.700555358996e-04 0.0 
0.0 0.0 -5.374061663147e-04 
0.0 0.0 0.0 
0.0 0.0 0.0 
0.0 0.0 0.0 
-1.483198277618e-03 2.721071498371e-04 0.0 
2.721071498371e-04 8.165740664983e-03 0.0 
0.0 0.0 -1.223389224544e-03 
-1.535254932215e-03 2.717190120097e-04 0.0 
2.717190120097e-04 7.854733745092e-03 0.0 
0.0 0.0 -1.157435638217e-03 
1.714590457334e-06 -7.115369139069e-04 0.0 
-7.115369139069e-04 4.515715516867e-04 0.0 
0.0 0.0 -1.942654894903e-04 
3.878432463794e-04 -2.223127307783e-03 0.0 
-2.223127307783e-03 1.630928175518e-03 0.0 
0.0 0.0 -8.651877522418e-04 
-2.798740380973e-05 -2.159694096595e-03 0.0 
-2.159694096595e-03 1.431561792510e-03 0.0 
0.0 0.0 -6.015318808715e-04 
-1.829025907462e-04 -2.119639284792e-03 0.0 
-2.119639284792e-03 1.714857895665e-03 0.0 
0.0 0.0 -6.565522735366e-04 
-1.017733219917e-03 3.364025437069e-03 0.0 
3.364025437069e-03 4.897256146699e-03 0.0 
0.0 0.0 -1.100737838324e-03 
5.257552207879e-04 2.875144563505e-03 0.0 
2.875144563505e-03 1.853285664374e-03 0.0 
0.0 0.0 -9.467522836136e-04 
-8.497134643687e-04 3.433349612216e-03 0.0 
3.433349612216e-03 4.357788075562e-03 0.0 
0.0 0.0 -1.064854740548e-03 
2.203223739880e-03 -1.975974349915e-03 0.0 
-1.975974349915e-03 -9.232686555069e-04 0.0 
0.0 0.0 -5.485521790173e-04 
-1.446388010227e-03 1.342323327112e-04 0.0 
1.342323327112e-04 5.217166277606e-03 0.0 
0.0 0.0 -7.105917616147e-04 
-1.197543499266e-03 -1.810608894436e-03 0.0 
-1.810608894436e-03 5.325302062837e-03 0.0 
0.0 0.0 -1.281538364137e-03 
-1.726353625323e-04 -1.807145954026e-03 0.0 
-1.807145954026e-03 1.497715714659e-03 0.0 
0.0 0.0 -5.678915794828e-04 
2.222123337372e-04 -1.923483587620e-05 0.0 
-1.923483587620e-05 2.651456288210e-03 0.0 
0.0 0.0 -1.121221582973e-03 
1.156875498320e-03 3.056207622502e-03 0.0 
3.056207622502e-03 4.647886417546e-04 0.0 
0.0 0.0 -6.949989171747e-04 
-5.424671300971e-04 -2.887281693977e-04 0.0 
-2.887281693977e-04 1.675559050033e-03 0.0 
0.0 0.0 -3.973267919445e-04 
-1.360155763593e-03 3.097514486866e-03 0.0 
3.097514486866e-03 5.194571229381e-03 0.0 
0.0 0.0 -1.015166614560e-03 
2.718308302872e-03 -7.221702226311e-04 0.0 
-7.221702226311e-04 -1.243788694723e-03 0.0 
0.0 0.0 -6.319369749211e-04 
2.871950510200e-04 -2.057705951039e-03 0.0 
-2.057705951039e-03 8.654869691646e-04 0.0 
0.0 0.0 -4.940065800791e-04 
2.698077562336e-03 -1.426914000199e-03 0.0 
-1.426914000199e-03 -1.126048004927e-03 0.0 
0.0 0.0 -6.737269531753e-04 
-2.035172389928e-03 5.681521720379e-05 0.0 
5.681521720379e-05 5.818689376235e-03 0.0 
0.0 0.0 -1.069816800183e-03 
-1.547603731344e-03 2.557965682965e-03 0.0 
2.557965682965e-03 5.760856088478e-03 0.0 
0.0 0.0 -1.020980360542e-03 
3.535477644423e-04 -2.409077986448e-03 0.0 
-2.409077986448e-03 9.968391477695e-04 0.0 
0.0 0.0 -5.787372480908e-04 
-1.638049386592e-03 -5.261620418510e-04 0.0 
-5.261620418510e-04 4.881654597217e-03 0.0 
0.0 0.0 -1.045407985144e-03 
-1.131069213092e-03 3.339054972024e-03 0.0 
3.339054972024e-03 5.004170711216e-03 0.0 
0.0 0.0 -1.071782534217e-03 
7.849170986353e-05 2.002784816892e-03 0.0 
2.002784816892e-03 3.087471277383e-03 0.0 
0.0 0.0 -1.109893377180e-03 
5.081300325286e-04 -2.843687144981e-03 0.0 
-2.843687144981e-03 1.050709009186e-03 0.0 
0.0 0.0 -6.680738750205e-04 
-8.485846460072e-04 -2.429092323345e-04 0.0 
-2.429092323345e-04 2.701937249489e-03 0.0 
0.0 0.0 -7.163733244607e-04 
1.054276666128e-03 2.747625866901e-03 0.0 
2.747625866901e-03 4.044819373952e-04 0.0 
0.0 0.0 -6.251822586527e-04 
-1.556582639800e-03 -2.026954580916e-04 0.0 
-2.026954580916e-04 6.435079901625e-03 0.0 
0.0 0.0 -9.278975173457e-04 
6.306613738133e-04 -2.843431008643e-03 0.0 
-2.843431008643e-03 9.087558385051e-04 0.0 
0.0 0.0 -6.597502338507e-04 
-1.151665732863e-03 3.368799827368e-03 0.0 
3.368799827368e-03 6.118948746046e-03 0.0 
0.0 0.0 -1.269179263064e-03 
-1.428509069589e-03 2.793670889960e-03 0.0 
2.793670889960e-03 7.317810969107e-03 0.0 
0.0 0.0 -1.281197857596e-03 
-1.509195270466e-03 -1.457985023921e-04 0.0 
-1.457985023921e-04 5.771603983327e-03 0.0 
0.0 0.0 -8.387747867703e-04 
-1.581495188537e-03 1.397540288099e-03 0.0 
1.397540288099e-03 8.227342162666e-03 0.0 
0.0 0.0 -1.255037608383e-03 
-1.367281596907e-03 3.139996712098e-03 0.0 
3.139996712098e-03 6.951432883283e-03 0.0 
0.0 0.0 -1.285499913836e-03 
2.109542503114e-03 -1.930775448323e-03 0.0 
-1.930775448323e-03 -7.849211290522e-04 0.0 
0.0 0.0 -5.676948745980e-04 
1.380801218232e-03 -2.351235301793e-03 0.0 
-2.351235301793e-03 -1.698746639676e-04 0.0 
0.0 0.0 -5.189685232560e-04 
-5.757297583633e-04 4.366962327414e-04 0.0 
4.366962327414e-04 4.537400147680e-03 0.0 
0.0 0.0 -1.265535665854e-03 
0.0 0.0 0.0 
0.0 0.0 0.0 
0.0 0.0 0.0 
-8.394320087675e-04 -3.205840844428e-05 0.0 
-3.205840844428e-05 2.565992005118e-03 0.0 
0.0 0.0 -6.072167217314e-04 
-1.628413269992e-03 -1.673586948164e-04 0.0 
-1.673586948164e-04 4.868895534125e-03 0.0 
0.0 0.0 -1.067827858613e-03 
4.161330338528e-04 -2.673128765629e-03 0.0 
-2.673128765629e-03 1.065048131365e-03 0.0 
0.0 0.0 -6.347919279505e-04 
1.927385449734e-03 -2.370761864729e-03 0.0 
-2.370761864729e-03 -5.075034197406e-04 0.0 
0.0 0.0 -6.085208699972e-04 
-3.171269370445e-05 1.814506539183e-03 0.0 
1.814506539183e-03 1.218095740662e-03 0.0 
0.0 0.0 -5.084498772674e-04 
-1.067456340534e-04 1.927365287384e-03 0.0 
1.927365287384e-03 1.436121596143e-03 0.0 
0.0 0.0 -5.697325551813e-04 
-1.696184299969e-03 4.188758800933e-04 0.0 
4.188758800933e-04 5.835163577314e-03 0.0 
0.0 0.0 -8.290026594306e-04 
2.687649412673e-03 -1.534651648036e-03 0.0 
-1.534651648036e-03 -1.236375441606e-03 0.0 
0.0 0.0 -6.219745590288e-04 
-8.374689021838e-04 -7.956683833314e-04 0.0 
-7.956683833314e-04 2.821114433129e-03 0.0 
0.0 0.0 -8.100060677168e-04 
-5.763887782379e-05 2.884104717794e-03 0.0 
2.884104717794e-03 2.960925031656e-03 0.0 
0.0 0.0 -1.077832113627e-03 
-1.357626258592e-03 -2.064052997114e-03 0.0 
-2.064052997114e-03 6.484172296954e-03 0.0 
0.0 0.0 -1.324978758543e-03 
-1.316853930481e-03 -2.171233133158e-03 0.0 
-2.171233133158e-03 6.262828385778e-03 0.0 
0.0 0.0 -1.320624918399e-03 
1.210545566472e-03 -2.440771907645e-03 0.0 
-2.440771907645e-03 2.098806390541e-04 0.0 
0.0 0.0 -6.087540880828e-04 
-1.669792706879e-03 7.585625911679e-04 0.0 
7.585625911679e-04 5.225921064138e-03 0.0 
0.0 0.0 -7.877541558771e-04 
0.0 0.0 0.0 
0.0 0.0 0.0 
0.0 0.0 0.0 
1.526705898495e-04 1.832423170921e-03 0.0 
1.832423170921e-03 9.162592996274e-04 0.0 
0.0 0.0 -4.581128097759e-04 
1.694782762505e-03 -3.278967534484e-03 0.0 
-3.278967534484e-03 -3.718783773796e-04 0.0 
0.0 0.0 -5.669590221966e-04 
7.211551457005e-05 1.826082030850e-03 0.0 
1.826082030850e-03 1.040988995356e-03 0.0 
0.0 0.0 -4.770447899684e-04 
8.520859723696e-04 2.702963814911e-03 0.0 
2.702963814911e-03 1.160586394610e-03 0.0 
0.0 0.0 -8.625738715628e-04 
1.049602008115e-03 -2.610080274348e-03 0.0 
-2.610080274348e-03 3.535904184598e-04 0.0 
0.0 0.0 -6.013681828177e-04 
1.924226435236e-03 -2.386188926630e-03 0.0 
-2.386188926630e-03 -7.021276801157e-04 0.0 
0.0 0.0 -5.237566093371e-04 
8.906199206854e-04 -2.335912402002e-03 0.0 
-2.335912402002e-03 -6.441539282859e-04 0.0 
0.0 0.0 -1.056282824569e-04 
-1.518150307999e-03 2.180517986998e-04 0.0 
2.180517986998e-04 7.814279060755e-03 0.0 
0.0 0.0 -1.176327079312e-03 
1.081599261770e-03 -2.356565631716e-03 0.0 
-2.356565631716e-03 1.958644745057e-04 0.0 
0.0 0.0 -5.474844584040e-04 
-1.503838573524e-03 8.537407365335e-04 0.0 
8.537407365335e-04 8.091641180223e-03 0.0 
0.0 0.0 -1.212957849656e-03 
-1.563004608103e-03 1.345074243690e-04 0.0 
1.345074243690e-04 7.574721874408e-03 0.0 
0.0 0.0 -1.117460450001e-03 
-1.452677521913e-03 3.546154927313e-04 0.0 
3.546154927313e-04 8.989483437301e-03 0.0 
0.0 0.0 -1.319418651152e-03 
-1.573682658163e-03 -6.434523803718e-04 0.0 
-6.434523803718e-04 7.311749488072e-03 0.0 
0.0 0.0 -1.324849633189e-03 
-1.522640732825e-03 1.776300828802e-04 0.0 
1.776300828802e-04 5.910709247101e-03 0.0 
0.0 0.0 -8.315138651140e-04 
8.069897163257e-04 -2.530526196753e-03 0.0 
-2.530526196753e-03 5.619735093356e-04 0.0 
0.0 0.0 -5.866985252834e-04 
-2.779641202251e-04 1.703949019227e-03 0.0 
1.703949019227e-03 1.672572981451e-03 0.0 
0.0 0.0 -5.976895119538e-04 
7.490285409449e-04 -3.064892262470e-03 0.0 
-3.064892262470e-03 9.033898181147e-04 0.0 
0.0 0.0 -7.081792967398e-04 
-1.343328350294e-03 -1.797161006887e-03 0.0 
-1.797161006887e-03 6.496235434020e-03 0.0 
0.0 0.0 -1.343328350294e-03 
1.770851489837e-04 1.574613937019e-03 0.0 
1.574613937019e-03 7.197174740553e-04 0.0 
0.0 0.0 -3.843439813024e-04 
1.884365055557e-04 1.730723292298e-03 0.0 
1.730723292298e-03 7.999529513160e-04 0.0 
0.0 0.0 -4.235954815164e-04 
5.120454739848e-05 4.425631252095e-04 0.0 
4.425631252095e-04 3.081010907522e-03 0.0 
0.0 0.0 -1.156027955174e-03 
-1.600063486753e-03 4.454182285367e-04 0.0 
4.454182285367e-04 5.553533901810e-03 0.0 
0.0 0.0 -7.715229432315e-04 
-1.496300168116e-03 6.368230222668e-04 0.0 
6.368230222668e-04 8.172597464420e-03 0.0 
0.0 0.0 -1.219279742240e-03 
-1.079188820050e-03 3.032068943539e-03 0.0 
3.032068943539e-03 5.044159493797e-03 0.0 
0.0 0.0 -1.069611963270e-03 
-3.125996649260e-04 2.376006221788e-03 0.0 
2.376006221788e-03 3.643123644996e-03 0.0 
0.0 0.0 -1.175036385391e-03 
-1.440706362563e-03 2.765679407787e-03 0.0 
2.765679407787e-03 6.040073424197e-03 0.0 
0.0 0.0 -1.113576918908e-03 
-1.533426048517e-03 3.483355765343e-04 0.0 
3.483355765343e-04 5.830518730214e-03 0.0 
0.0 0.0 -8.542750875040e-04 
4.145616627609e-04 -2.510686493370e-03 0.0 
-2.510686493370e-03 9.700386978898e-04 0.0 
0.0 0.0 -5.934001545646e-04 
5.188237827814e-04 -2.738227656747e-03 0.0 
-2.738227656747e-03 9.760172721955e-04 0.0 
0.0 0.0 -6.406461664186e-04 
-1.559322814184e-03 2.985337068608e-04 0.0 
2.985337068608e-04 6.828450389527e-03 0.0 
0.0 0.0 -9.963059934037e-04 
-1.981024320875e-04 2.157190390334e-03 0.0 
2.157190390334e-03 3.614846179737e-03 0.0 
0.0 0.0 -1.142506377625e-03 
-1.686833987170e-03 9.535938984725e-04 0.0 
9.535938984725e-04 4.721621554871e-03 0.0 
0.0 0.0 -7.386355146563e-04 
-1.463703012742e-03 6.266658719779e-05 0.0 
6.266658719779e-05 5.604963867248e-03 0.0 
0.0 0.0 -7.676068998053e-04 
-1.515549186513e-03 3.697674288865e-05 0.0 
3.697674288865e-05 5.930448629907e-03 0.0 
0.0 0.0 -8.242303029217e-04 
-1.592254304502e-03 -3.437592554212e-05 0.0 
-3.437592554212e-05 6.006274404460e-03 0.0 
0.0 0.0 -8.467401457521e-04 
1.475757754276e-03 -1.289294546505e-03 0.0 
-1.289294546505e-03 -9.417009757612e-04 0.0 
0.0 0.0 -2.288814765064e-04 
2.490964718879e-04 -2.584180670905e-03 0.0 
-2.584180670905e-03 1.241456993708e-03 0.0 
0.0 0.0 -6.388086281126e-04 
-1.524289002589e-03 1.055576054381e-03 0.0 
1.055576054381e-03 8.572679794113e-03 0.0 
0.0 0.0 -1.269310366786e-03 
-1.609154575879e-03 5.927002029432e-05 0.0 
5.927002029432e-05 6.380922986421e-03 0.0 
0.0 0.0 -9.150577043801e-04 
-9.099437829954e-04 1.617518349232e-03 0.0 
1.617518349232e-03 4.661075676102e-03 0.0 
0.0 0.0 -1.295322057178e-03 
-1.481137119135e-03 2.911611220647e-03 0.0 
2.911611220647e-03 6.859531798370e-03 0.0 
0.0 0.0 -1.215577547940e-03 
-1.339321083005e-03 2.882096422563e-03 0.0 
2.882096422563e-03 5.250850385045e-03 0.0 
0.0 0.0 -1.012565562176e-03 
-1.640900346179e-03 1.517631824607e-03 0.0 
1.517631824607e-03 7.910833663920e-03 0.0 
0.0 0.0 -1.214907066889e-03 
-1.059540956040e-03 -1.334979029727e-03 0.0 
-1.334979029727e-03 3.594823103032e-03 0.0 
0.0 0.0 -9.974489174931e-04 
-1.013156646554e-03 -1.368118382081e-03 0.0 
-1.368118382081e-03 3.447232281497e-03 0.0 
0.0 0.0 -9.464646038184e-04 
-1.053605941392e-03 -1.657375267239e-03 0.0 
-1.657375267239e-03 4.938505543447e-03 0.0 
0.0 0.0 -1.226851238141e-03 
0.0 0.0 0.0 
0.0 0.0 0.0 
0.0 0.0 0.0 
-9.591830860426e-04 -2.723797524876e-04 0.0 
-2.723797524876e-04 2.822378765221e-03 0.0 
0.0 0.0 -5.777536677209e-04 
-1.342405754833e-03 2.832331701177e-03 0.0 
2.832331701177e-03 5.623065616304e-03 0.0 
0.0 0.0 -1.342405754833e-03 
-1.232108481340e-04 -4.438827698639e-05 0.0 
-4.438827698639e-05 1.111663342237e-03 0.0 
0.0 0.0 -2.724401835525e-04 
-1.475085458698e-03 8.547838585484e-05 0.0 
8.547838585484e-05 5.344445388578e-03 0.0 
0.0 0.0 -7.870118106326e-04 
-3.041907190684e-04 -2.929338759418e-04 0.0 
-2.929338759418e-04 3.995006628254e-03 0.0 
0.0 0.0 -1.213461936786e-03 
-7.635875139997e-06 -1.081722019394e-03 0.0 
-1.081722019394e-03 7.060070926500e-04 0.0 
0.0 0.0 -2.993019503614e-04 
1.505773719545e-03 -8.263394782763e-04 0.0 
-8.263394782763e-04 -6.336254798976e-05 0.0 
0.0 0.0 -2.382422751898e-04 
-1.473393185853e-03 1.353598964677e-03 0.0 
1.353598964677e-03 8.746165970417e-03 0.0 
0.0 0.0 -1.324389858384e-03 
-1.521392000938e-03 2.912474066464e-04 0.0 
2.912474066464e-04 4.940937614450e-03 0.0 
0.0 0.0 -7.294542769151e-04 
-1.503978704987e-03 1.473877310897e-03 0.0 
1.473877310897e-03 8.344062810088e-03 0.0 
0.0 0.0 -1.261418349269e-03 
-5.327298325037e-04 3.575837178235e-04 0.0 
3.575837178235e-04 3.642687559217e-03 0.0 
0.0 0.0 -1.231858344535e-03 
-1.518533849991e-03 1.071472041001e-04 0.0 
1.071472041001e-04 4.942575461076e-03 0.0 
0.0 0.0 -7.289279708929e-04 
0.0 0.0 0.0 
0.0 0.0 0.0 
0.0 0.0 0.0 
-1.422405127371e-03 1.531540875437e-04 0.0 
1.531540875437e-04 8.427070743481e-03 0.0 
0.0 0.0 -1.284140717545e-03 
-3.551011727049e-04 -7.009671051649e-04 0.0 
-7.009671051649e-04 1.319322733909e-03 0.0 
0.0 0.0 -3.479328688591e-04 
-1.509662464093e-03 1.187111297047e-03 0.0 
1.187111297047e-03 8.089981201651e-03 0.0 
0.0 0.0 -1.232184317627e-03 
-1.343095105526e-03 -1.540983607491e-03 0.0 
-1.540983607491e-03 6.702452530061e-03 0.0 
0.0 0.0 -1.343095105526e-03 
-1.554707611052e-03 2.562602135152e-03 0.0 
2.562602135152e-03 7.111310188225e-03 0.0 
0.0 0.0 -1.225700354592e-03 
2.173759747286e-03 -1.419935824116e-03 0.0 
-1.419935824116e-03 -1.114841162711e-03 0.0 
0.0 0.0 -4.538222505322e-04 
-1.741082427331e-03 1.054953553281e-03 0.0 
1.054953553281e-03 5.737463170789e-03 0.0 
0.0 0.0 -8.279144014868e-04 
-1.224194647146e-03 -9.467109309958e-04 0.0 
-9.467109309958e-04 3.877522353974e-03 0.0 
0.0 0.0 -9.630043323905e-04 
6.517046530342e-05 2.327281681424e-03 0.0 
2.327281681424e-03 2.984838930140e-03 0.0 
0.0 0.0 -1.077599360682e-03 
-1.012701747737e-03 1.623436123670e-03 0.0 
1.623436123670e-03 5.329514602195e-03 0.0 
0.0 0.0 -1.326997735404e-03 
-1.585109039191e-03 2.780588406276e-04 0.0 
2.780588406276e-04 7.347999637207e-03 0.0 
0.0 0.0 -1.061614915164e-03 
-1.008710860855e-03 1.312542642731e-03 0.0 
1.312542642731e-03 5.209194240256e-03 0.0 
0.0 0.0 -1.325870641008e-03 
3.673422327950e-04 -3.776124720398e-04 0.0 
-3.776124720398e-04 -3.673422327950e-04 0.0 
0.0 0.0 0.0 
-1.430003464036e-03 -1.969193470792e-03 0.0 
-1.969193470792e-03 6.388366935774e-03 0.0 
0.0 0.0 -1.277656510522e-03 
2.370305391374e-03 -2.562363361486e-03 0.0 
-2.562363361486e-03 -6.166549384612e-04 0.0 
0.0 0.0 -7.515644798196e-04 
-3.100324176095e-04 -2.408320728402e-04 0.0 
-2.408320728402e-04 1.151728361162e-03 0.0 
0.0 0.0 -2.782378078114e-04 
-7.322007537650e-04 -9.555468943118e-04 0.0 
-9.555468943118e-04 4.734669521016e-03 0.0 
0.0 0.0 -1.270335377537e-03 
-1.575122942683e-03 2.171152972729e-03 0.0 
2.171152972729e-03 8.127111917130e-03 0.0 
0.0 0.0 -1.270603359501e-03 
-1.496692965649e-03 1.319095711312e-03 0.0 
1.319095711312e-03 8.369617950368e-03 0.0 
0.0 0.0 -1.289850838753e-03 
-1.498527200318e-03 3.689228571039e-04 0.0 
3.689228571039e-04 5.398355138859e-03 0.0 
0.0 0.0 -7.762633204683e-04 
-1.744558354744e-03 1.631310676350e-03 0.0 
1.631310676350e-03 5.391746306119e-03 0.0 
0.0 0.0 -8.489529362435e-04 
7.301121496963e-04 2.437654514774e-03 0.0 
2.437654514774e-03 5.848010967936e-04 0.0 
0.0 0.0 -5.635342484957e-04 
-1.427601509624e-03 3.175353375607e-03 0.0 
3.175353375607e-03 7.125136039489e-03 0.0 
0.0 0.0 -1.273041473476e-03 
-1.038080719471e-03 -6.334570087308e-04 0.0 
-6.334570087308e-04 3.329140480764e-03 0.0 
0.0 0.0 -8.764843149172e-04 
1.193441318594e-03 2.328942464463e-03 0.0 
2.328942464463e-03 3.040131158427e-05 0.0 
0.0 0.0 -5.245039843621e-04 
-2.118585962265e-05 2.523859735457e-03 0.0 
2.523859735457e-03 3.050030047244e-03 0.0 
0.0 0.0 -1.110141529071e-03 
-1.425138137322e-03 6.470798395339e-05 0.0 
6.470798395339e-05 5.179988142805e-03 0.0 
0.0 0.0 -7.096328662732e-04 
-1.517585115342e-03 2.260614719474e-03 0.0 
2.260614719474e-03 7.684999531697e-03 0.0 
0.0 0.0 -1.237729719596e-03 
-1.422593477448e-03 -1.670334611249e-04 0.0 
-1.670334611249e-04 8.888807101193e-03 0.0 
0.0 0.0 -1.321509982054e-03 
-1.343732204276e-03 1.010834953933e-04 0.0 
1.010834953933e-04 8.744729451207e-03 0.0 
0.0 0.0 -1.343732204276e-03 
3.369232126492e-03 1.693280559230e-04 0.0 
1.693280559230e-04 -1.155841201236e-03 0.0 
0.0 0.0 -6.603666768414e-05 
2.499766675984e-03 -2.952033461878e-04 0.0 
-2.952033461878e-04 -9.796559826583e-04 0.0 
0.0 0.0 -1.532902690118e-04 
-1.416942128620e-03 -1.624029676109e-04 0.0 
-1.624029676109e-04 5.054688992973e-03 0.0 
0.0 0.0 -7.318233512793e-04 
-1.419792893404e-03 3.183177604522e-05 0.0 
3.183177604522e-05 5.196638347434e-03 0.0 
0.0 0.0 -7.096011290571e-04 
-1.343732204276e-03 -2.406936037715e-04 0.0 
-2.406936037715e-04 7.113693032304e-03 0.0 
0.0 0.0 -1.343732204276e-03 
-1.562203585825e-03 1.305016391806e-04 0.0 
1.305016391806e-04 7.294302504235e-03 0.0 
0.0 0.0 -1.321509982054e-03 
2.262811037578e-03 -4.868403071367e-05 0.0 
-4.868403071367e-05 -4.447467837794e-04 0.0 
0.0 0.0 -2.434615908245e-04 
0.0 0.0 0.0 
0.0 0.0 0.0 
0.0 0.0 0.0 
-1.642313907969e-03 -1.143113511814e-03 0.0 
-1.143113511814e-03 6.403076283141e-03 0.0 
0.0 0.0 -1.230181737024e-03 
-7.148794360532e-04 3.164508669310e-03 0.0 
3.164508669310e-03 4.742447412984e-03 0.0 
0.0 0.0 -1.209364118140e-03 
-5.258157990741e-04 -7.879783393280e-04 0.0 
-7.879783393280e-04 1.688623542397e-03 0.0 
0.0 0.0 -3.144533898553e-04 
-1.351136438279e-03 -1.975186179308e-03 0.0 
-1.975186179308e-03 5.772523348463e-03 0.0 
0.0 0.0 -1.240191881334e-03 
-1.731554632553e-03 -2.342398403810e-04 0.0 
-2.342398403810e-04 5.123990276158e-03 0.0 
0.0 0.0 -1.081029080859e-03 
-1.535845139517e-03 -3.312382585291e-04 0.0 
-3.312382585291e-04 4.629162629476e-03 0.0 
0.0 0.0 -1.039595904837e-03 
-1.612928706957e-03 3.113730006726e-04 0.0 
3.113730006726e-04 6.721792739589e-03 0.0 
0.0 0.0 -9.400782610458e-04 
1.101421061084e-03 -2.909512193680e-03 0.0 
-2.909512193680e-03 4.457906368086e-04 0.0 
0.0 0.0 -6.630907276683e-04 
3.131506035800e-04 2.556520147165e-03 0.0 
2.556520147165e-03 2.414585707981e-03 0.0 
0.0 0.0 -1.011657465016e-03 
-1.177300482134e-05 -1.092061392265e-03 0.0 
-1.092061392265e-03 1.284900459222e-03 0.0 
0.0 0.0 -3.097963217911e-04 
-1.220126007134e-03 -1.262020264430e-03 0.0 
-1.262020264430e-03 3.977099482089e-03 0.0 
0.0 0.0 -1.029451436826e-03 
-1.346849968967e-03 3.153673073291e-03 0.0 
3.153673073291e-03 6.593026306646e-03 0.0 
0.0 0.0 -1.240519096027e-03 
-1.527894889398e-03 -1.936018657920e-04 0.0 
-1.936018657920e-04 8.104261702945e-03 0.0 
0.0 0.0 -1.191726112421e-03 
-1.479396360357e-03 -2.989971596189e-04 0.0 
-2.989971596189e-04 4.503238817139e-03 0.0 
0.0 0.0 -1.046336039097e-03 
-1.560842421660e-03 -8.540456832086e-05 0.0 
-8.540456832086e-05 6.232717148515e-03 0.0 
0.0 0.0 -8.745659502648e-04 
-9.955423334814e-04 3.339003162247e-03 0.0 
3.339003162247e-03 5.559555520798e-03 0.0 
0.0 0.0 -1.217119345309e-03 
-1.351529115626e-03 2.876362203055e-03 0.0 
2.876362203055e-03 5.976398005188e-03 0.0 
0.0 0.0 -1.140944809983e-03 
-1.341013158963e-03 2.862888668155e-03 0.0 
2.862888668155e-03 5.603065071307e-03 0.0 
0.0 0.0 -1.076426999079e-03 
-1.492882998354e-03 1.325735461083e-04 0.0 
1.325735461083e-04 4.933841446090e-03 0.0 
0.0 0.0 -7.312123441678e-04 
6.172998628868e-04 2.362607397547e-03 0.0 
2.362607397547e-03 1.812787626421e-03 0.0 
0.0 0.0 -9.763781674015e-04 
-1.502422605285e-03 2.514513612527e-03 0.0 
2.514513612527e-03 7.380594194812e-03 0.0 
0.0 0.0 -1.231404929774e-03 
-8.003792871297e-04 -5.108965880218e-04 0.0 
-5.108965880218e-04 2.603757424793e-03 0.0 
0.0 0.0 -7.107894383394e-04 
1.779720377328e-04 -1.298870854502e-03 0.0 
-1.298870854502e-03 4.337348693579e-04 0.0 
0.0 0.0 -1.164291272224e-04 
-9.970216092610e-04 3.010797291644e-03 0.0 
3.010797291644e-03 5.249606407737e-03 0.0 
0.0 0.0 -1.185975225609e-03 
2.191734593223e-04 5.610847358595e-04 0.0 
5.610847358595e-04 2.599656196276e-03 0.0 
0.0 0.0 -1.123538223191e-03 
1.172927684885e-03 -2.889497196016e-03 0.0 
-2.889497196016e-03 3.300442381492e-04 0.0 
0.0 0.0 -6.441308241577e-04 
-1.607945126080e-03 -1.740082688204e-05 0.0 
-1.740082688204e-05 7.004832338719e-03 0.0 
0.0 0.0 -9.893338170986e-04 
-1.512467681835e-03 -1.269144618606e-03 0.0 
-1.269144618606e-03 6.614649124568e-03 0.0 
0.0 0.0 -1.282739585886e-03 
-7.843923001707e-04 3.075094105696e-03 0.0 
3.075094105696e-03 4.595487038337e-03 0.0 
0.0 0.0 -1.182073443778e-03 
-8.715817867822e-04 3.121670101447e-03 0.0 
3.121670101447e-03 5.293578095492e-03 0.0 
0.0 0.0 -1.215129606110e-03 
-1.899421587696e-03 -4.002758172017e-04 0.0 
-4.002758172017e-04 5.518204821451e-03 0.0 
0.0 0.0 -1.079026350805e-03 
0.0 0.0 0.0 
0.0 0.0 0.0 
0.0 0.0 0.0 
-4.777114925536e-05 1.704067356774e-03 0.0 
1.704067356774e-03 1.178107469511e-03 0.0 
0.0 0.0 -4.844298515380e-04 
4.263341666864e-04 2.474607686413e-03 0.0 
2.474607686413e-03 9.338852604604e-04 0.0 
0.0 0.0 -5.829511830629e-04 
-1.721178049984e-03 1.085378291777e-03 0.0 
1.085378291777e-03 5.473315709064e-03 0.0 
0.0 0.0 -8.471429939415e-04 
4.228609678747e-04 3.021260051708e-03 0.0 
3.021260051708e-03 1.732467119469e-03 0.0 
0.0 0.0 -9.237120374330e-04 
-1.533799557255e-03 6.728038073689e-04 0.0 
6.728038073689e-04 8.237501439824e-03 0.0 
0.0 0.0 -1.236541257690e-03 
-8.719226860915e-04 7.267313533335e-04 0.0 
7.267313533335e-04 4.230245890387e-03 0.0 
0.0 0.0 -1.282325209426e-03 
2.964520960670e-04 -1.978928276592e-03 0.0 
-1.978928276592e-03 8.042557840210e-04 0.0 
0.0 0.0 -4.717319486092e-04 
1.319048487483e-04 -1.576566321261e-03 0.0 
-1.576566321261e-03 7.886992305850e-04 0.0 
0.0 0.0 -3.945446054286e-04 
1.817673251283e-04 1.876543985894e-03 0.0 
1.876543985894e-03 9.002005847285e-04 0.0 
0.0 0.0 -4.637005327958e-04 
-1.570049742763e-03 5.369425789645e-04 0.0 
5.369425789645e-04 6.963270594615e-03 0.0 
0.0 0.0 -1.019242131223e-03 
-9.308723645065e-04 -1.101236884891e-03 0.0 
-1.101236884891e-03 3.096386949501e-03 0.0 
0.0 0.0 -8.257845680531e-04 
-1.587305306336e-03 1.706805244546e-03 0.0 
1.706805244546e-03 7.938189703079e-03 0.0 
0.0 0.0 -1.241298427557e-03 
-4.566804084497e-04 -4.114264182866e-04 0.0 
-4.114264182866e-04 1.625098335496e-03 0.0 
0.0 0.0 -2.728146851408e-04 
-4.193612778590e-04 8.066391699242e-04 0.0 
8.066391699242e-04 3.619638834416e-03 0.0 
0.0 0.0 -1.221152601860e-03 
-1.613149922033e-03 6.729604599103e-04 0.0 
6.729604599103e-04 5.730913827298e-03 0.0 
0.0 0.0 -8.343732341398e-04 
-9.805029045404e-04 2.320290812643e-03 0.0 
2.320290812643e-03 4.821535310315e-03 0.0 
0.0 0.0 -1.286815605725e-03 
-1.972178768770e-04 2.471490219589e-03 0.0 
2.471490219589e-03 3.599121568157e-03 0.0 
0.0 0.0 -1.111121968474e-03 
-1.760642934702e-03 1.153303269584e-03 0.0 
1.153303269584e-03 5.427908306702e-03 0.0 
0.0 0.0 -8.465141837044e-04 
-8.764965121591e-04 -1.556039561585e-03 0.0 
-1.556039561585e-03 5.086777567781e-03 0.0 
0.0 0.0 -1.269142588751e-03 
-1.551933899349e-03 2.142615053803e-03 0.0 
2.142615053803e-03 8.208999000424e-03 0.0 
0.0 0.0 -1.272727265576e-03 
-1.482418812719e-03 2.636741981307e-04 0.0 
2.636741981307e-04 8.672320582664e-03 0.0 
0.0 0.0 -1.271339345674e-03 
2.794840770511e-04 1.877110949586e-03 0.0 
1.877110949586e-03 7.644572491491e-04 0.0 
0.0 0.0 -4.474034255144e-04 
-1.548384254494e-03 1.778472603870e-03 0.0 
1.778472603870e-03 7.853183226647e-03 0.0 
0.0 0.0 -1.218309553141e-03 
-1.238984078820e-03 3.237221125149e-03 0.0 
3.237221125149e-03 5.979697278194e-03 0.0 
0.0 0.0 -1.286645293131e-03 
-2.338452424878e-04 4.838955254747e-04 0.0 
4.838955254747e-04 3.810277403162e-03 0.0 
0.0 0.0 -1.211735819529e-03 
-2.641749654371e-04 2.730651329854e-03 0.0 
2.730651329854e-03 3.539043083142e-03 0.0 
0.0 0.0 -1.143254064081e-03 
-1.342665167303e-03 -1.913201158816e-03 0.0 
-1.913201158816e-03 6.140194887135e-03 0.0 
0.0 0.0 -1.342665167303e-03 
-1.336562494305e-03 3.148621666370e-03 0.0 
3.148621666370e-03 5.546558025077e-03 0.0 
0.0 0.0 -1.079065255302e-03 
0.0 0.0 0.0 
0.0 0.0 0.0 
0.0 0.0 0.0 
1.128782554056e-03 2.722430850094e-03 0.0 
2.722430850094e-03 3.671628183846e-04 0.0 
0.0 0.0 -6.411194453319e-04 
-1.438782275937e-03 2.878593628370e-03 0.0 
2.878593628370e-03 6.406037302073e-03 0.0 
0.0 0.0 -1.176936364471e-03 
-1.717609899646e-03 1.241798828460e-03 0.0 
1.241798828460e-03 5.908300544731e-03 0.0 
0.0 0.0 -8.884613587993e-04 
-1.780913372705e-03 -9.535977727778e-04 0.0 
-9.535977727778e-04 6.697114639858e-03 0.0 
0.0 0.0 -1.221994126432e-03 
-4.533386727007e-04 2.366129578243e-03 0.0 
2.366129578243e-03 4.141621556580e-03 0.0 
0.0 0.0 -1.177009544428e-03 
-1.321487320261e-03 -1.869174225829e-03 0.0 
-1.869174225829e-03 5.949052928407e-03 0.0 
0.0 0.0 -1.292249833993e-03 
-1.557982079132e-03 5.560473992337e-04 0.0 
5.560473992337e-04 7.430714466144e-03 0.0 
0.0 0.0 -1.085521458831e-03 
-9.906508321286e-04 2.010874064209e-03 0.0 
2.010874064209e-03 4.656220140669e-03 0.0 
0.0 0.0 -1.288973456333e-03 
-8.669493969727e-04 -1.781456295850e-03 0.0 
-1.781456295850e-03 4.656567585957e-03 0.0 
0.0 0.0 -1.233322439334e-03 
-8.389834207114e-04 -1.353105162080e-03 0.0 
-1.353105162080e-03 4.612963758963e-03 0.0 
0.0 0.0 -1.235043566395e-03 
-1.060688043098e-03 -7.830630523890e-04 0.0 
-7.830630523890e-04 3.332470677800e-03 0.0 
0.0 0.0 -8.113697483009e-04 
-1.399514092732e-03 -1.981208132211e-03 0.0 
-1.981208132211e-03 6.677395424695e-03 0.0 
0.0 0.0 -1.325641941534e-03 
-1.659266455691e-03 6.538953700681e-04 0.0 
6.538953700681e-04 5.459969626810e-03 0.0 
0.0 0.0 -7.662153309038e-04 
-1.522339522893e-03 2.785636433653e-04 0.0 
2.785636433653e-04 8.220976080768e-03 0.0 
0.0 0.0 -1.217406395242e-03 
2.069000998586e-04 -1.834555044401e-03 0.0 
-1.834555044401e-03 8.418202147660e-04 0.0 
0.0 0.0 -4.494515634106e-04 
-1.554320641115e-03 9.540049576088e-05 0.0 
9.540049576088e-05 8.023345832809e-03 0.0 
0.0 0.0 -1.163202487293e-03 
-1.605625159736e-03 1.859754007895e-04 0.0 
1.859754007895e-04 7.063048343461e-03 0.0 
0.0 0.0 -9.926133712568e-04 
1.071864880333e-03 1.610051896133e-04 0.0 
1.610051896133e-04 5.200375252643e-04 0.0 
0.0 0.0 -3.474471837849e-04 
1.832184275694e-03 -1.682280732148e-03 0.0 
-1.682280732148e-03 -1.155510517394e-03 0.0 
0.0 0.0 -2.900030392716e-04 
-1.244256880666e-03 3.271621003319e-03 0.0 
3.271621003319e-03 5.486132487448e-03 0.0 
0.0 0.0 -1.107581195644e-03 
-1.451044372397e-03 1.126612148562e-03 0.0 
1.126612148562e-03 8.289352558878e-03 0.0 
0.0 0.0 -1.285368862661e-03 
-1.527299749628e-03 6.691441746447e-05 0.0 
6.691441746447e-05 8.328526928916e-03 0.0 
0.0 0.0 -1.223917301752e-03 
-6.542601835067e-04 2.123935983624e-03 0.0 
2.123935983624e-03 4.536265029875e-03 0.0 
0.0 0.0 -1.264779455601e-03 
-1.569067467187e-03 4.931081965661e-04 0.0 
4.931081965661e-04 6.107235089411e-03 0.0 
0.0 0.0 -8.807565902733e-04 
9.036251718301e-04 -7.928332989266e-04 0.0 
-7.928332989266e-04 8.196583140466e-05 0.0 
0.0 0.0 -1.521090440113e-04 
0.0 0.0 0.0 
0.0 0.0 0.0 
0.0 0.0 0.0 
1.535104090838e-04 -8.781412906566e-04 0.0 
-8.781412906566e-04 3.080308650687e-04 0.0 
0.0 0.0 -1.564070233212e-04 
2.353484151011e-04 -2.169776398881e-03 0.0 
-2.169776398881e-03 1.011611602068e-03 0.0 
0.0 0.0 -5.344114359296e-04 
2.688807823404e-05 1.617368437816e-03 0.0 
1.617368437816e-03 -2.688807823404e-05 0.0 
0.0 0.0 0.0 
-1.313634282752e-03 -1.068658817985e-03 0.0 
-1.068658817985e-03 4.125079470398e-03 0.0 
0.0 0.0 -9.906016899089e-04 
-1.765538454854e-03 -6.603659762189e-04 0.0 
-6.603659762189e-04 6.689629757519e-03 0.0 
0.0 0.0 -1.222305993939e-03 
-1.487013992754e-03 2.874720261213e-03 0.0 
2.874720261213e-03 7.173251573241e-03 0.0 
0.0 0.0 -1.222833113937e-03 
-1.810465878115e-03 1.368618358307e-03 0.0 
1.368618358307e-03 5.754603684206e-03 0.0 
0.0 0.0 -8.826313165011e-04 
-9.427899726930e-04 -1.641697169279e-03 0.0 
-1.641697169279e-03 3.388954329502e-03 0.0 
0.0 0.0 -9.886704355714e-04 
-1.052300381815e-03 -2.069501750766e-03 0.0 
-2.069501750766e-03 5.090082794775e-03 0.0 
0.0 0.0 -1.221067908166e-03 
-3.450149565899e-04 -4.408348736528e-04 0.0 
-4.408348736528e-04 3.924699322023e-03 0.0 
0.0 0.0 -1.208702654310e-03 
-8.170914780341e-04 2.664423274710e-03 0.0 
2.664423274710e-03 5.146096323449e-03 0.0 
0.0 0.0 -1.272252409145e-03 
-1.123992376730e-03 3.068252591852e-03 0.0 
3.068252591852e-03 5.507273388894e-03 0.0 
0.0 0.0 -1.237422270938e-03 
-1.253834785736e-03 3.291285599942e-03 0.0 
3.291285599942e-03 5.877546624236e-03 0.0 
0.0 0.0 -1.171232062679e-03 
5.704301253037e-05 -1.249012332624e-03 0.0 
-1.249012332624e-03 7.024151054081e-04 0.0 
0.0 0.0 -3.254820505451e-04 
0.0 0.0 0.0 
0.0 0.0 0.0 
0.0 0.0 0.0 
-1.712539485778e-03 -1.411450056388e-03 0.0 
-1.411450056388e-03 6.539673002672e-03 0.0 
0.0 0.0 -1.223662873675e-03 
4.574946163465e-04 -1.248756071680e-04 0.0 
-1.248756071680e-04 4.764925333501e-04 0.0 
0.0 0.0 -3.004112795925e-04 
4.253951230566e-04 3.287859358848e-05 0.0 
3.287859358848e-05 7.852927410903e-04 0.0 
0.0 0.0 -3.059539021820e-04 
3.569372191111e-04 1.397839525162e-03 0.0 
1.397839525162e-03 1.545362028711e-04 0.0 
0.0 0.0 -2.192028951352e-04 
1.631271963867e-04 -1.346040378322e-03 0.0 
-1.346040378322e-03 7.094587977712e-04 0.0 
0.0 0.0 -2.452105594499e-04 
-1.114394941751e-03 -1.506329218264e-03 0.0 
-1.506329218264e-03 4.944157592562e-03 0.0 
0.0 0.0 -1.288571152055e-03 
-1.352715823829e-03 3.152231925611e-03 0.0 
3.152231925611e-03 6.563761337094e-03 0.0 
0.0 0.0 -1.290113636706e-03 
-1.510579169811e-03 9.854603377599e-04 0.0 
9.854603377599e-04 8.241359475843e-03 0.0 
0.0 0.0 -1.236907757659e-03 
-1.086519748050e-03 2.592005204986e-03 0.0 
2.592005204986e-03 5.044458595201e-03 0.0 
0.0 0.0 -1.292605224168e-03 
-2.276922230483e-04 -7.087333384445e-04 0.0 
-7.087333384445e-04 3.411401019740e-03 0.0 
0.0 0.0 -1.176879138244e-03 
-1.566246162816e-03 5.074519573883e-04 0.0 
5.074519573883e-04 6.374166084480e-03 0.0 
0.0 0.0 -9.170130443517e-04 
-1.345069444888e-03 1.513726926191e-03 0.0 
1.513726926191e-03 8.492915807412e-03 0.0 
0.0 0.0 -1.345069444888e-03 
1.877003485193e-03 -3.080309129991e-03 0.0 
-3.080309129991e-03 -5.962554255729e-04 0.0 
0.0 0.0 -5.488920255517e-04 
-1.475350828104e-03 1.976985984706e-04 0.0 
1.976985984706e-04 5.152730599786e-03 0.0 
0.0 0.0 -7.083073883397e-04 
7.042658253586e-04 -2.920094682842e-03 0.0 
-2.920094682842e-03 7.774626018425e-04 0.0 
0.0 0.0 -6.350264688005e-04 
7.675081391674e-04 -5.290525383807e-04 0.0 
-5.290525383807e-04 -3.861513785840e-05 0.0 
0.0 0.0 -2.518608130650e-04 
-1.493015975364e-03 -1.542117778823e-03 0.0 
-1.542117778823e-03 7.001843856807e-03 0.0 
0.0 0.0 -1.323850096553e-03 
-1.762927026530e-03 1.105745086140e-03 0.0 
1.105745086140e-03 5.347670343178e-03 0.0 
0.0 0.0 -7.731261162940e-04 
3.059071642176e-04 -4.769524246547e-04 0.0 
-4.769524246547e-04 1.116375202047e-03 0.0 
0.0 0.0 -3.136165521777e-04 
-1.289952526759e-03 -6.554530809443e-04 0.0 
-6.554530809443e-04 4.022238421528e-03 0.0 
0.0 0.0 -9.854929843998e-04 
-1.353447502636e-03 3.372255620603e-03 0.0 
3.372255620603e-03 6.903608554072e-03 0.0 
0.0 0.0 -1.276804206569e-03 
-1.580153705301e-03 9.463034913401e-04 0.0 
9.463034913401e-04 8.179177676168e-03 0.0 
0.0 0.0 -1.228616961883e-03 
-1.459295938370e-03 2.235750315535e-03 0.0 
2.235750315535e-03 7.840317348904e-03 0.0 
0.0 0.0 -1.289666537713e-03 
-1.042366719392e-03 -4.130279661277e-04 0.0 
-4.130279661277e-04 3.166645294064e-03 0.0 
0.0 0.0 -7.209785830746e-04 
0.0 0.0 0.0 
0.0 0.0 0.0 
0.0 0.0 0.0 
-1.330660736049e-03 -2.112854558462e-03 0.0 
-2.112854558462e-03 6.026587435622e-03 0.0 
0.0 0.0 -1.273144391159e-03 
-1.420679226607e-03 1.845062484055e-04 0.0 
1.845062484055e-04 8.984274218415e-03 0.0 
0.0 0.0 -1.325353038101e-03 
-1.599270300318e-03 -4.031472723049e-04 0.0 
-4.031472723049e-04 7.370420628954e-03 0.0 
0.0 0.0 -1.323783523096e-03 
-1.454892267765e-03 1.410388417337e-04 0.0 
1.410388417337e-04 5.404570969644e-03 0.0 
0.0 0.0 -7.673431308700e-04 
-5.798667066363e-04 -4.017993081382e-04 0.0 
-4.017993081382e-04 3.786051546347e-03 0.0 
0.0 0.0 -1.231867668451e-03 
-2.703199839151e-04 -3.327091265360e-04 0.0 
-3.327091265360e-04 1.134795808800e-03 0.0 
0.0 0.0 -2.923189298614e-04 
-1.540435464510e-03 1.974801601423e-03 0.0 
1.974801601423e-03 7.945053936292e-03 0.0 
0.0 0.0 -1.241575510934e-03 
7.093719106213e-04 -6.473525039570e-04 0.0 
-6.473525039570e-04 -6.146240833118e-06 0.0 
0.0 0.0 -2.201278046225e-04 
-1.035309467580e-03 -9.652751717972e-04 0.0 
-9.652751717972e-04 4.607784315543e-03 0.0 
0.0 0.0 -1.290713494763e-03 
-1.546892534215e-03 2.536580836788e-03 0.0 
2.536580836788e-03 7.963102419275e-03 0.0 
0.0 0.0 -1.268585396830e-03 
0.0 0.0 0.0 
0.0 0.0 0.0 
0.0 0.0 0.0 
-7.125328406643e-04 2.854381537959e-03 0.0 
2.854381537959e-03 4.690081759982e-03 0.0 
0.0 0.0 -1.178018281593e-03 
-1.581615712652e-03 6.406846432010e-05 0.0 
6.406846432010e-05 7.204958832163e-03 0.0 
0.0 0.0 -1.053859681778e-03 
-1.422126824857e-03 8.354035890497e-04 0.0 
8.354035890497e-04 8.383690559568e-03 0.0 
0.0 0.0 -1.289687241943e-03 
-1.346242744377e-03 1.394088556631e-03 0.0 
1.394088556631e-03 5.074174046536e-03 0.0 
0.0 0.0 -1.346242744377e-03 
-1.579226085277e-03 -2.236352472968e-04 0.0 
-2.236352472968e-04 6.673772320033e-03 0.0 
0.0 0.0 -9.627310317561e-04 
-1.352695242601e-03 3.190608641684e-03 0.0 
3.190608641684e-03 6.804006829943e-03 0.0 
0.0 0.0 -1.292510612804e-03 
-1.606507542629e-03 2.038310361331e-03 0.0 
2.038310361331e-03 7.743565210436e-03 0.0 
0.0 0.0 -1.236507170568e-03 
-1.568883613753e-03 1.757297800362e-04 0.0 
1.757297800362e-04 6.816128580048e-03 0.0 
0.0 0.0 -1.009625451247e-03 
-1.338198193755e-03 3.094920805743e-03 0.0 
3.094920805743e-03 6.452958212167e-03 0.0 
0.0 0.0 -1.247605899893e-03 
-1.069270980668e-03 -8.397930297141e-04 0.0 
-8.397930297141e-04 3.454365731416e-03 0.0 
0.0 0.0 -9.078723690805e-04 
-1.462959848022e-03 3.355807606363e-05 0.0 
3.355807606363e-05 4.925884328863e-03 0.0 
0.0 0.0 -7.287847301676e-04 
-7.853622933110e-04 2.799478897718e-03 0.0 
2.799478897718e-03 4.730479437110e-03 0.0 
0.0 0.0 -1.239219007812e-03 
-1.427801408329e-03 2.279610176079e-04 0.0 
2.279610176079e-04 8.599854493521e-03 0.0 
0.0 0.0 -1.286506427510e-03 
2.364174244584e-03 -3.920966346370e-05 0.0 
-3.920966346370e-05 -9.416422440926e-04 0.0 
0.0 0.0 -1.658991634594e-04 
-1.429614866782e-03 7.018012440351e-05 0.0 
7.018012440351e-05 4.945453144079e-03 0.0 
0.0 0.0 -7.284590636140e-04 
-1.619941162379e-03 -3.710140945832e-04 0.0 
-3.710140945832e-04 7.072586371596e-03 0.0 
0.0 0.0 -1.288082484959e-03 
-4.257310582937e-04 -7.375837559217e-04 0.0 
-7.375837559217e-04 1.550072552707e-03 0.0 
0.0 0.0 -4.679105978332e-04 
-2.651775118790e-04 1.741696615315e-04 0.0 
1.741696615315e-04 3.934086569527e-03 0.0 
0.0 0.0 -1.213252366005e-03 
-1.592381110183e-03 2.367463417435e-03 0.0 
2.367463417435e-03 7.496929060090e-03 0.0 
0.0 0.0 -1.225943235494e-03 
-1.523630465134e-03 6.434168762766e-04 0.0 
6.434168762766e-04 8.597347826225e-03 0.0 
0.0 0.0 -1.269037835114e-03 
-5.242932188711e-04 -5.062352980044e-04 0.0 
-5.062352980044e-04 1.580681758625e-03 0.0 
0.0 0.0 -3.173190315717e-04 
9.435665947915e-04 2.759812172338e-03 0.0 
2.759812172338e-03 -2.448701844830e-04 0.0 
0.0 0.0 -2.994413187036e-04 
-1.588603004086e-03 1.309858719882e-04 0.0 
1.309858719882e-04 4.764403352260e-03 0.0 
0.0 0.0 -1.056762885644e-03 
-1.577119311605e-03 2.587547752196e-04 0.0 
2.587547752196e-04 7.701946830658e-03 0.0 
0.0 0.0 -1.120841203304e-03 
0.0 0.0 0.0 
0.0 0.0 0.0 
0.0 0.0 0.0 
-1.448426484907e-03 1.878765382125e-03 0.0 
1.878765382125e-03 8.065670326291e-03 0.0 
0.0 0.0 -1.292233508669e-03 
-1.560868544091e-03 1.573692905966e-04 0.0 
1.573692905966e-04 6.444251121821e-03 0.0 
0.0 0.0 -9.501928138396e-04 
9.548640501235e-04 -2.932790788742e-03 0.0 
-2.932790788742e-03 4.477362362625e-04 0.0 
0.0 0.0 -6.011144084512e-04 
-1.577095330701e-03 2.356135282763e-04 0.0 
2.356135282763e-04 6.152695530289e-03 0.0 
0.0 0.0 -9.030544305944e-04 
-9.123359041244e-04 2.767752077309e-03 0.0 
2.767752077309e-03 5.381455446983e-03 0.0 
0.0 0.0 -1.271643562581e-03 
-1.672772992247e-03 -3.658378199310e-04 0.0 
-3.658378199310e-04 4.968645958279e-03 0.0 
0.0 0.0 -1.058796759180e-03 
-3.338430437854e-04 2.894649962425e-03 0.0 
2.894649962425e-03 3.338430437854e-04 0.0 
0.0 0.0 0.0 
-9.352736057356e-04 -8.421943932676e-04 0.0 
-8.421943932676e-04 3.140704490616e-03 0.0 
0.0 0.0 -9.009998304000e-04 
-1.402484368002e-03 -1.042823096176e-03 0.0 
-1.042823096176e-03 4.352884265014e-03 0.0 
0.0 0.0 -1.017945853013e-03 
-1.735012846972e-03 1.716303062956e-04 0.0 
1.716303062956e-04 5.112807218002e-03 0.0 
0.0 0.0 -1.063010248388e-03 
-5.677318458841e-04 1.906245464939e-03 0.0 
1.906245464939e-03 4.337997414081e-03 0.0 
0.0 0.0 -1.232780192057e-03 
-1.357670205510e-03 -6.381368347671e-04 0.0 
-6.381368347671e-04 4.227863364473e-03 0.0 
0.0 0.0 -1.035743023508e-03 
-1.479273144233e-03 -6.656278634480e-04 0.0 
-6.656278634480e-04 4.508927527855e-03 0.0 
0.0 0.0 -1.032702936181e-03 
1.040523643933e-04 -1.090937755128e-03 0.0 
-1.090937755128e-03 5.650850241542e-04 0.0 
0.0 0.0 -2.287174616664e-04 
-1.350567245042e-03 -1.731169106789e-03 0.0 
-1.731169106789e-03 5.793216621325e-03 0.0 
0.0 0.0 -1.240629869904e-03 
-1.027503594671e-03 3.327843857872e-03 0.0 
3.327843857872e-03 5.261023074075e-03 0.0 
0.0 0.0 -1.186362110037e-03 
1.189612951575e-03 2.308398015229e-03 0.0 
2.308398015229e-03 -4.894900924091e-04 0.0 
0.0 0.0 -3.000526539282e-04 
-1.387676757457e-03 4.952672058335e-05 0.0 
4.952672058335e-05 8.504316401028e-03 0.0 
0.0 0.0 -1.290349483557e-03 
-1.582576424774e-03 -1.560547969950e-04 0.0 
-1.560547969950e-04 7.007946096611e-03 0.0 
0.0 0.0 -1.290356026000e-03 
-1.460183445125e-03 -1.247594329356e-04 0.0 
-1.247594329356e-04 5.521441348557e-03 0.0 
0.0 0.0 -7.639788432047e-04 
-1.578918019610e-03 1.294379469898e-04 0.0 
1.294379469898e-04 6.639288700401e-03 0.0 
0.0 0.0 -9.358343396975e-04 
-1.420511664925e-03 -7.103380260756e-04 0.0 
-7.103380260756e-04 4.349288440906e-03 0.0 
0.0 0.0 -1.005720210571e-03 
-1.359175063422e-03 -8.855188390870e-04 0.0 
-8.855188390870e-04 4.258136974865e-03 0.0 
0.0 0.0 -1.040482674164e-03 
-1.527056262754e-03 -5.709073839489e-04 0.0 
-5.709073839489e-04 4.609671028000e-03 0.0 
0.0 0.0 -1.028873814706e-03 
-1.501496450629e-04 5.539703397871e-04 0.0 
5.539703397871e-04 3.298271412421e-03 0.0 
0.0 0.0 -1.180929064624e-03 
7.927858436439e-04 -3.045537929079e-03 0.0 
-3.045537929079e-03 8.494276970912e-04 0.0 
0.0 0.0 -7.038058031722e-04 
-1.116381248406e-03 3.165697137737e-03 0.0 
3.165697137737e-03 5.872062490069e-03 0.0 
0.0 0.0 -1.217816617926e-03 
-1.516247589342e-03 1.508277039824e-04 0.0 
1.508277039824e-04 5.685216966324e-03 0.0 
0.0 0.0 -8.376728236383e-04 
-1.571303365585e-03 1.703335586913e-03 0.0 
1.703335586913e-03 8.300700874157e-03 0.0 
0.0 0.0 -1.272153791098e-03 
-1.928595014899e-04 9.704790717136e-05 0.0 
9.704790717136e-05 3.265405422004e-03 0.0 
0.0 0.0 -1.181257232468e-03 
-1.580055462922e-03 1.466056733213e-04 0.0 
1.466056733213e-04 6.354105997974e-03 0.0 
0.0 0.0 -8.902468719968e-04 
-1.338698042931e-03 3.178297097849e-03 0.0 
3.178297097849e-03 6.247787653213e-03 0.0 
0.0 0.0 -1.201032862555e-03 
-6.620052052400e-04 2.218466919512e-03 0.0 
2.218466919512e-03 4.229615591750e-03 0.0 
0.0 0.0 -1.236767197193e-03 
-7.541183664370e-04 2.280565164163e-03 0.0 
2.280565164163e-03 4.995952357256e-03 0.0 
0.0 0.0 -1.270271405117e-03 
1.293451072768e-04 1.010666469426e-03 0.0 
1.010666469426e-03 -1.293451072768e-04 0.0 
0.0 0.0 0.0 
-1.368734881355e-03 2.988428396573e-03 0.0 
2.988428396573e-03 6.291274088760e-03 0.0 
0.0 0.0 -1.198686027802e-03 
-1.300476394130e-03 3.433743793017e-03 0.0 
3.433743793017e-03 6.406654162985e-03 0.0 
0.0 0.0 -1.227078865044e-03 
7.248957313196e-04 -1.043101674158e-03 0.0 
-1.043101674158e-03 5.245352296454e-04 0.0 
0.0 0.0 -2.668574800815e-04 
-1.256459332456e-03 -8.842282026345e-04 0.0 
-8.842282026345e-04 4.000740750754e-03 0.0 
0.0 0.0 -1.019774149770e-03 
0.0 0.0 0.0 
0.0 0.0 0.0 
0.0 0.0 0.0 
-1.414281382184e-03 3.115423266543e-03 0.0 
3.115423266543e-03 6.751118296047e-03 0.0 
0.0 0.0 -1.230789928679e-03 

SCALARS element_materi_plasti_kappa_shear float
LOOKUP_TABLE default
2.638449368411e-03
2.307880314974e-03
5.668059790692e-03
5.685840565928e-03
3.968724762264e-03
2.227775623384e-03
3.926609063437e-03
2.603981897009e-03
3.959861142706e-03
5.676159459017e-03
3.789460879762e-03
2.166184027025e-03
4.891618303360e-03
4.239593676266e-03
4.915486508882e-03
5.763080812267e-03
3.957109970888e-03
9.864085158716e-05
1.385502992053e-03
1.310811347843e-03
5.684919687706e-03
2.668003560693e-03
2.830444855211e-03
2.887992383095e-03
4.492952651090e-03
3.999825579596e-03
3.772973464484e-03
4.950933107395e-03
4.446798420902e-03
3.154878546999e-03
2.756846244610e-03
9.905717093618e-04
5.968283596401e-03
4.581378283716e-03
4.439297578914e-03
4.887177070447e-03
5.091662130986e-03
3.236750732308e-03
3.615750744496e-03
3.662711387174e-03
3.132788783305e-03
4.003574433579e-03
2.231218125306e-03
3.619781891395e-03
5.614862315127e-03
2.308537538977e-03
2.567928975722e-03
5.479464518158e-03
8.195853011298e-04
4.082692105509e-03
3.028705324844e-03
1.800022130003e-03
3.293726347817e-03
2.963783223813e-03
5.752538416863e-03
2.317662380795e-03
1.680471960424e-03
4.591779384906e-03
1.282089538117e-03
5.743217870912e-03
0.0
3.970806248155e-03
2.953445704213e-03
3.287038662097e-03
4.914099357777e-03
2.824966036789e-03
0.0
5.862902570517e-03
2.620748184046e-03
5.405750626231e-03
4.123083578977e-03
5.868967824668e-03
4.513723255217e-03
9.779064778028e-04
2.287061364591e-03
5.715984257660e-03
5.955190373470e-03
2.225229681789e-03
8.958780141002e-04
2.309523210765e-03
2.623606725785e-03
3.807044789785e-03
2.701030844542e-03
2.283651859930e-03
4.111166650998e-03
4.102179279090e-03
4.228241446566e-03
4.546798255786e-03
5.028716670229e-03
3.901152697752e-03
6.549433232101e-04
3.920650833441e-03
4.955587413478e-03
5.010029682247e-03
6.082587846612e-03
3.583046306489e-03
3.812238424463e-03
4.309414704673e-03
4.319293153851e-03
3.152072117772e-03
3.806820599516e-03
4.894923453038e-03
2.752080048091e-03
3.649256563451e-03
2.864912835823e-03
2.832888651383e-03
4.791522079347e-03
5.257296183678e-03
6.216847982976e-04
4.789762209254e-03
4.946970942302e-03
1.455853485302e-03
3.116660414769e-03
3.646713869330e-03
2.740266031467e-03
2.565730635348e-03
3.111248311779e-03
4.481696809263e-03
4.267994674223e-03
2.744319843462e-03
2.256121814009e-03
4.028535080126e-03
5.125478964429e-03
2.884095006377e-03
1.634010763882e-03
3.343960081378e-03
2.825136596843e-03
3.200895695618e-03
5.840634446844e-03
3.049581698772e-03
3.964814282569e-03
5.700506446746e-03
3.554006587530e-03
3.223480759992e-03
4.236959910874e-03
4.935732901856e-03
4.220142662913e-03
3.782725374417e-03
3.633905000164e-03
3.434454553281e-03
5.667308756995e-03
5.731127569311e-03
4.159105326719e-03
4.705255006089e-03
3.527054415500e-03
3.060528253236e-03
3.807578355912e-03
3.078773552032e-03
3.873095872756e-03
3.370616847934e-03
7.627933793163e-04
4.106841682748e-03
9.591787070335e-04
3.491582586837e-03
3.620903548599e-03
2.658320563693e-03
4.383820681644e-03
2.313821533157e-03
3.280595579104e-03
3.781797064791e-03
3.239934934191e-03
4.666843953081e-03
1.844128017672e-03
4.751176865938e-03
3.949884846235e-03
4.988018486650e-03
3.771577015596e-03
2.896598297230e-03
3.483459645253e-03
3.893786270809e-03
2.298745108616e-03
3.272701774280e-03
4.841674106423e-03
3.900979634001e-03
3.037833255544e-03
3.320787467051e-03
5.050201609921e-03
3.079663805871e-03
4.649906474497e-03
5.561012058297e-03
2.890227526471e-03
2.943961554453e-03
2.210045688094e-03
3.349611072643e-03
2.235768342795e-03
3.804052174663e-03
3.255583921612e-03
5.686869579948e-03
5.039238049397e-03
4.717478710770e-03
2.309621426061e-03
3.143595662693e-03
5.111000880600e-03
0.0
3.256985193650e-03
2.315875762829e-03
1.186781807755e-03
5.879212306886e-03
4.749545806609e-03
3.205712272384e-03
1.923895110586e-03
4.248611553850e-03
4.390119912627e-03
3.260852054243e-03
2.726046229142e-03
3.866905638561e-03
4.085059299403e-03
4.849847065370e-03
4.084848891733e-03
3.788784052669e-03
2.384045379571e-03
4.854751456170e-03
0.0
2.534886222220e-03
2.875294506275e-03
3.926615174907e-03
5.120800106263e-03
2.883704576323e-03
2.560806566150e-03
3.780927287153e-03
3.250336732161e-03
2.904934106925e-03
9.744138873205e-04
5.002746784696e-03
1.187677453753e-03
9.712234474307e-04
2.285555067131e-03
2.450408811608e-03
5.091607850684e-03
2.428262004319e-03
2.774880105580e-03
3.779138720656e-03
1.803156298713e-03
1.957999132830e-03
3.924614645831e-03
4.859013116495e-03
0.0
3.040676180201e-03
3.206874618957e-03
3.130650380996e-03
2.062644621155e-03
4.885442700903e-03
4.892149880117e-03
3.059373875750e-03
2.149562808967e-03
4.104130610049e-03
4.011618650566e-03
4.856263363195e-03
4.079661242982e-03
3.170623979729e-03
2.775910294641e-03
4.348640566437e-03
6.080884502444e-03
4.012120085899e-03
2.651654117440e-03
4.174160396721e-03
2.772644652466e-03
4.114504492513e-03
3.290795862291e-03
2.811701725688e-03
3.471873507376e-03
5.142731837040e-03
4.219310466071e-03
2.711805464269e-03
5.231202940207e-03
4.958047196859e-03
4.103438709337e-03
4.637764333400e-03
2.438306330947e-03
4.211956383520e-03
3.365372856234e-03
2.450675261700e-03
2.887962119562e-03
3.878533253387e-03
2.940597055344e-03
2.728683675051e-03
4.958207544711e-03
0.0
4.231308200600e-03
3.120397780434e-03
3.113605546757e-03
2.278736831083e-03
4.503373325418e-03
1.884659263120e-03
3.120901491325e-03
2.297614029118e-03
4.243041167150e-03
4.240307436026e-03
1.373936041198e-03
2.435310679187e-03
3.155120820171e-03
3.003223930663e-03
4.798301013803e-03
3.306297059749e-03
2.985321424422e-03
3.188763902837e-03
1.370686704752e-03
3.117506418936e-03
2.564683140303e-03
6.161779301333e-03
6.171298087031e-03
3.871585823704e-03
3.224089549692e-03
3.155590452933e-03
4.317766949050e-03
3.003359536048e-03
2.608662778043e-03
3.938150114374e-03
5.859163444552e-03
3.214653691530e-03
2.969191311487e-03
2.861811173678e-03
3.768586856653e-03
3.337633072254e-03
4.030230270756e-03
2.035757012657e-03
1.094219009940e-03
3.031075150381e-03
2.930652641428e-03
4.078338297131e-03
6.100030670434e-03
3.051206385844e-03
1.821620188347e-03
2.861790791984e-03
4.656042724998e-03
2.349687270255e-03
2.816498775574e-03
4.525435709533e-03
5.833892866330e-03
2.486522419678e-03
6.151276113809e-03
4.485990906698e-03
4.856089461195e-03
2.611916462935e-03
3.799226166888e-03
4.210806094155e-03
4.343507042612e-03
3.883342781648e-03
5.453648402860e-03
4.408884898377e-03
3.954238356753e-03
2.946932738359e-03
2.126147916000e-03
3.626304909236e-03
2.828752624356e-03
3.908082809323e-03
3.189022324685e-03
2.979438473071e-03
5.107150669262e-03
3.057133034874e-03
3.948493172096e-03
1.767047002602e-03
3.219295742043e-03
4.649421512783e-03
3.423567528206e-03
2.373751734207e-03
2.784414744251e-03
2.725624955031e-03
2.452240531365e-03
5.184269692729e-03
4.210892199139e-03
3.195156139090e-03
3.675464466287e-03
3.719198240263e-03
3.156300643646e-03
5.270722120897e-03
4.951030620452e-03
2.791959147438e-03
3.435291521076e-03
2.714045320190e-03
2.771808396209e-03
4.119259232477e-03
1.360400106286e-03
3.400766620885e-03
5.356429761657e-03
2.456112603846e-03
3.687823897699e-03
4.067889866897e-03
3.485977458347e-03
6.171877983723e-03
6.194847258957e-03
5.749913356992e-03
3.020677987419e-03
5.279204517925e-03
2.613300540084e-03
2.741755212613e-03
2.004260055720e-03
3.406978849626e-03
3.842950909138e-03
4.513278632072e-03
3.244307823644e-03
5.163355495152e-03
4.386423237293e-03
4.476099206042e-03
2.391474383936e-03
1.955161698588e-03
3.217570021580e-03
3.872368428504e-03
3.338770506916e-03
1.812371568338e-03
4.015486225802e-03
2.355558185555e-03
3.278219706871e-03
3.673414290175e-03
1.915648292058e-03
3.981389866812e-03
1.053059668761e-03
3.652003582868e-03
3.330842304649e-03
4.441446771420e-03
6.067281547840e-03
3.807583682193e-03
4.322942112553e-03
3.526145110671e-03
5.255189385440e-03
3.347041718801e-03
5.955073764805e-03
5.938883086238e-03
5.933478345374e-03
5.925413924026e-03
4.598269985990e-03
5.190485547386e-03
5.356291838170e-03
3.172127365247e-03
3.189545386338e-03
3.291257441844e-03
5.278332870253e-03
5.650465782490e-03
5.386391458906e-03
2.086314033400e-03
5.331196890249e-03
3.953887606243e-03
3.284431480345e-03
3.285128967487e-03
3.301125392640e-03
5.759722545496e-03
2.921518703947e-03
4.716770599090e-03
3.382244159206e-03
3.419989620685e-03
3.235774226863e-03
3.108654577361e-03
5.912838273886e-03
5.757913193712e-03
4.236288878953e-03
1.032336198831e-03
5.784372647958e-03
3.094301216638e-03
3.133163714027e-03
1.473651489525e-03
4.377992282328e-03
0.0
3.076087156915e-03
4.393331777553e-03
4.078214650418e-03
4.173061940919e-03
3.172673925433e-03
5.528089032988e-03
2.695300704482e-03
6.061028079687e-04
4.784301089445e-03
1.109397696731e-03
3.558631343330e-03
2.671343080510e-03
3.641731318210e-03
3.626491229389e-03
5.164773912347e-03
4.369311817321e-03
2.723039152115e-03
3.202065681838e-04
3.393270163090e-03
4.000013488580e-03
3.998607249003e-03
4.091967694104e-03
4.682585152391e-03
3.977798602140e-03
6.148717226547e-03
4.046693637694e-03
4.375476627736e-03
2.475463655856e-03
2.038113747758e-03
2.665603733635e-03
4.155084444683e-03
5.944456476497e-03
5.933805245862e-03
3.347496143322e-03
3.141954240646e-03
3.636565096111e-03
3.524861024850e-03
3.764870203374e-03
3.214228737877e-03
2.609429685079e-03
2.752166065871e-03
4.525635562498e-03
3.964553113648e-03
2.737089484301e-03
3.599211839311e-03
2.982464518279e-03
5.872767812275e-03
5.256518196814e-03
6.948896764315e-04
2.926992632798e-03
5.363068251323e-03
5.678180438031e-03
4.516604651069e-03
3.800290162266e-03
2.959233318371e-03
2.645089123398e-03
2.991327947613e-03
2.961565605678e-03
1.984606166548e-03
5.360282778703e-03
2.617597906633e-03
2.719354908298e-03
4.219904639673e-03
2.558238552366e-03
2.945805251787e-03
4.447306010212e-03
4.403301426083e-03
3.203880338452e-03
3.270240138625e-03
3.822758874253e-03
2.320351021533e-03
2.695647363228e-03
3.241179321446e-03
4.055854335950e-03
4.302137120783e-03
2.006945487216e-03
3.504931263533e-03
3.493889225164e-03
3.226663955409e-03
3.195012242961e-03
3.705694372684e-03
2.015330950654e-03
3.674094389629e-03
5.465741692552e-03
2.782005441388e-03
3.605540778520e-03
3.144508273297e-03
3.122849437202e-03
2.256333325417e-03
4.140151503650e-03
5.431033007288e-03
3.225301536712e-03
3.778146397866e-03
3.509424093333e-03
3.382045560242e-03
4.257156002915e-03
2.174643724136e-03
3.150567633663e-03
1.746587665764e-03
4.710220312248e-03
3.696882214136e-03
2.499260062841e-03
4.393497597306e-03
3.304371545067e-03
1.515148851359e-03
2.794723090240e-03
3.870525163770e-03
5.202539231559e-04
3.198860063348e-03
3.122843769625e-03
3.536839909767e-03
3.054969112373e-03
3.133169061378e-03
4.394974799046e-03
3.171453652514e-03
3.954441890249e-03
4.408365611268e-03
3.531054572272e-03
4.293331672903e-03
3.469160005882e-03
0.0
4.342827187450e-03
2.815733446127e-03
1.169868182888e-03
3.377528405656e-03
3.017950135559e-03
5.309388747160e-03
1.836141118027e-03
1.645439494872e-03
3.818624685672e-03
3.581263554169e-03
5.741565943865e-03
4.177684629919e-03
1.850928756814e-03
2.067405024286e-03
1.416744999512e-03
2.579714406710e-03
4.842819569639e-03
5.316030625827e-03
3.796388360631e-03
2.739477237490e-03
3.923275296672e-03
2.756654641123e-03
1.368956117904e-03
2.826459377297e-03
2.346887089609e-03
4.356557030682e-03
4.139689611657e-03
3.039564492647e-03
3.507425817395e-03
3.484969287982e-03
2.724837710706e-03
1.738579034053e-03
2.880004918018e-03
1.059860394561e-03
3.342988300000e-03
3.564932177344e-03
9.012381607526e-04
2.910014888118e-03
5.510045432400e-03
1.959702749170e-03
3.585704259986e-03
3.723526099815e-03
1.268716263999e-03
2.392889037010e-03
3.063515298584e-03
2.813209111348e-03
4.210048530920e-03
5.103573185464e-03
5.177892081959e-03
2.829945348819e-03
1.363451425510e-03
3.691969532227e-03
3.550626997966e-03
3.676511325993e-03
1.285478420515e-03
8.537344141222e-04
7.845181071081e-04
2.162938812804e-03
1.377340432524e-03
3.170219899797e-03
0.0
2.524870915773e-03
4.491269867148e-03
3.700282617022e-03
5.066161758074e-03
3.327949804502e-03
4.251884330892e-03
2.509212341416e-03
1.018037242248e-03
5.829475890603e-03
6.039028528119e-03
4.216434674855e-03
3.565489033799e-03
2.587498848121e-03
5.999263223227e-03
2.442752516004e-03
3.696609549568e-03
3.563907472710e-03
3.514699694935e-03
5.927065042664e-03
6.015277257663e-03
1.330400211541e-03
1.449907591737e-03
1.344592241943e-03
3.643608196866e-03
4.850396606121e-03
0.0
5.101358492196e-03
1.409139728971e-04
1.499124232117e-03
3.824208957472e-04
0.0
2.029814193675e-03
4.688865864911e-03
4.611649624509e-03
3.864254668426e-03
9.306078872588e-04
4.020589784949e-03
5.797624803762e-03
5.973591106953e-03
3.688007304244e-03
1.196237126604e-03
5.834612071299e-03
3.414725027011e-03
9.671159728271e-04
1.409744689688e-03
9.368666534769e-04
2.773625038877e-03
5.128733981852e-03
5.686078140094e-03
1.614169892137e-03
3.141780048589e-03
4.903795419049e-03
5.124707089311e-03
4.540751789241e-03
4.863760003676e-03
5.230664655895e-03
4.885659315087e-03
4.900079095049e-03
5.104618843216e-03
2.371313285604e-03
3.639130252576e-03
3.700407251155e-03
1.543007074285e-03
4.822691056273e-03
4.723797952646e-03
4.594502443142e-03
2.187658065542e-03
2.078158679153e-03
4.298928970353e-03
4.465695048772e-03
4.739825188448e-03
3.625004239622e-03
4.980074041723e-03
4.182381661481e-03
3.612530889479e-03
1.648586597975e-03
1.078919747717e-03
9.715320649564e-04
8.189522588763e-04
3.276017880373e-03
3.023112973762e-03
3.897742298982e-04
4.028126407989e-03
2.904706458492e-04
5.885086834910e-03
5.811364703112e-03
5.844706076157e-03
1.127270833140e-03
2.214903500655e-03
5.806505327904e-03
4.688671280238e-03
5.826774921975e-03
4.813055851057e-03
4.917144813202e-03
2.903322035183e-03
6.008349193016e-03
6.003877113261e-03
4.727827648335e-03
4.864305038441e-03
4.249335747199e-03
0.0
3.175859147544e-03
1.259325279811e-03
4.420798695160e-03
3.384638883793e-03
4.409067033902e-03
2.131043982543e-03
1.108023222196e-03
4.695482135487e-03
3.365831542969e-03
2.646631452456e-03
4.556588175849e-03
5.414895944389e-03
2.656831201839e-03
3.200576911771e-03
3.816886599349e-03
4.190899904542e-03
4.331300515814e-03
2.822232598008e-03
3.605666078604e-03
3.473782743791e-03
3.959311659394e-03
4.657481856823e-03
4.474738788930e-03
2.497721918515e-03
5.428170056435e-03
5.196932708230e-03
3.994972095663e-03
4.018877418988e-03
4.067532001752e-03
5.468828346424e-03
5.334434594670e-03
3.777218885507e-03
4.785229386991e-03
5.183640898652e-03
4.486085823950e-03
4.626918442455e-03
5.440760853048e-03
4.828731435924e-03
3.492214324912e-03
1.813629337524e-03
2.595415623829e-03
1.751915947168e-03
1.311389193297e-03
5.325791288567e-03
4.638904880307e-03
1.232072997821e-03
5.349220756651e-03
4.109200150890e-03
4.453473742339e-03
4.501290464753e-03
2.822661026846e-03
4.600361826760e-03
3.989940508894e-03
1.568365711787e-03
4.607579259789e-03
1.682217231393e-03
4.433060704539e-03
4.965853579252e-03
1.931234771425e-03
2.536905363929e-03
3.506959235330e-03
4.546823231474e-03
2.929878446617e-03
5.094658413771e-03
4.689487714454e-03
3.549548679273e-03
4.373859018118e-03
4.508144441649e-03
4.950601638813e-03
1.602271484754e-03
3.405781233643e-03
3.108775469077e-03
5.079843116042e-03
3.194307102305e-03
3.880531337843e-03
4.194530845224e-03
4.813687637528e-03
2.696113206384e-04
1.541456333067e-03
1.874707634932e-03
4.535680067079e-03
4.684102630711e-03
3.785681380179e-03
4.265606377495e-03
3.105476038775e-03
3.587079011170e-03
4.392674845493e-03
1.860767443432e-03
4.452816754116e-03
3.543702289538e-03
1.992785431315e-03
3.392397121739e-03
2.975423009005e-03
2.515877789845e-03
3.725661475432e-03
9.890849693237e-04
7.121019429699e-04
4.132428392348e-03
1.740140079302e-03
4.103577769620e-03
3.987009557526e-03
3.370047699069e-03
3.248806400505e-03
5.300420175180e-03
2.104285098993e-03
2.995450123017e-03
2.940527097191e-03
1.410651741479e-03
4.429529881649e-03
4.136718757980e-03
1.859816294009e-03
3.894261520894e-03
4.933477745413e-03
1.699722713993e-03
5.408694418047e-03
5.411197824938e-03
2.017061567542e-03
2.915404601559e-03
2.179306637539e-03
4.367605250964e-03
3.647788208579e-03
5.489535749250e-03
5.304729192866e-03
4.231498250215e-03
4.146491013705e-03
1.780674243216e-03
4.280532226645e-03
4.934868325194e-03
3.669316609231e-03
4.695546322833e-03
5.063717161736e-03
2.645489529404e-03
5.190164349716e-03
3.272404207533e-03
3.596661715041e-03
2.751844944681e-03
3.019000093276e-03
4.810385432176e-03
3.246422704326e-03
2.264566458407e-03
1.689403800147e-03
4.815225778648e-03
2.226110953632e-03
4.194754128453e-03
4.940895878954e-03
4.276223362945e-03
3.112253213804e-03
3.202020562987e-03
1.919623832173e-03
1.352217145348e-03
4.164633130640e-03
4.560658305418e-03
1.177128837243e-03
2.915068821861e-03
1.620327168500e-03
4.555465457417e-03
2.973416926450e-03
3.909810264466e-03
2.724408296497e-03
5.208767427969e-03
2.593619795372e-03
4.035142549939e-03
2.532928249258e-03
4.024142569854e-03
3.450900747862e-03
4.136123601672e-03
2.485244761370e-03
1.564757219021e-03
4.294495704809e-03
2.163488820880e-03
3.387401299419e-03
4.565662359774e-03
2.738581822716e-03
4.665942928302e-03
1.465348703278e-03
4.246327033609e-03
1.699623542301e-03
2.032350589391e-03
5.536974569683e-03
3.426908671018e-03
1.540384123316e-03
3.758577465195e-03
3.927524684089e-03
2.715033437353e-03
4.314845763778e-03
4.948351979472e-03
3.360890771607e-03
3.891846381777e-03
4.252820554628e-03
2.212724349773e-03
2.843833598180e-03
4.035789724437e-03
3.996131275531e-03
3.575096828484e-03
3.792627721388e-03
4.802343365754e-03
4.415034608388e-03
4.389129640424e-03
3.467263775261e-03
3.595494986516e-03
3.583279255749e-03
4.289394557029e-03
5.421975200704e-03
2.486182053314e-03
3.861488826342e-03
5.063142224082e-03
3.131891392016e-03
3.028041098227e-03
1.823938140991e-03
3.705908196928e-03
3.091369410019e-03
4.675935954995e-03
4.534875968551e-03
2.056161555857e-03
2.786655864969e-03
2.873165513745e-03
2.868546210609e-03
3.110365765296e-03
1.843618803568e-03
3.272992134604e-03
3.412916071715e-03
5.192089283469e-03
3.281566540745e-03
3.626240938450e-03
3.586985508785e-03
3.409305181201e-03
1.897398460282e-03
3.604818096321e-03
3.888630237913e-03
4.421922450971e-03
3.317485446496e-03
3.647674555787e-03
4.673336337087e-03
3.224252799485e-03
3.496064654627e-03
2.622358304585e-03
3.055333394029e-03
3.164663825952e-03
2.311141121049e-03
2.125313783725e-03
3.477924834306e-03
3.736945563828e-03
4.738585916756e-03
1.315321289851e-03
2.446620192041e-03
2.982448329977e-03
3.433203482514e-03
4.531582693643e-03
3.499304588405e-03
2.673974497719e-03
3.139905464342e-03
5.072747806473e-03
2.707809154280e-03
1.166214898562e-03
1.463299212712e-03
2.914504388254e-03
3.018723201689e-03
2.686713935682e-03
3.062407380188e-03
2.712109552951e-03
1.499659389839e-03
4.359635542217e-03
2.393958649680e-03
3.066798902882e-03
4.495652146628e-03
4.450791082476e-03
5.300178894970e-03
4.977951589195e-03
2.397146190700e-03
4.416844529747e-03
3.119400395624e-03
3.332129797491e-03
3.122426360325e-03
2.988793531740e-03
2.855846187293e-03
3.177000482072e-03
2.756193394155e-03
2.592075865469e-03
2.421633066575e-03
3.387402253471e-03
2.293172573691e-03
2.277057048855e-03
2.911114260278e-03
1.155684839829e-03
4.799837983891e-03
2.295247612437e-03
3.251041652365e-03
3.393599796704e-03
3.145369302234e-03
3.078086569887e-03
5.318104494318e-03
4.480500477960e-03
2.985180505105e-03
4.544225245269e-03
5.407567982517e-03
2.819844426375e-03
3.291868619470e-03
4.617460502529e-03
3.604719748764e-03
2.828319211559e-03
5.770682299556e-03
2.324148480044e-03
2.632797394299e-03
5.423157329672e-03
1.479799231386e-03
4.397525855562e-03
5.165585481733e-03
2.315901153844e-03
1.693562376470e-03
5.527898528543e-03
3.711930513200e-03
4.919552001560e-03
1.951673982838e-03
3.287761322064e-03
5.034502267978e-03
5.186304779390e-03
3.552693579741e-03
3.534005249318e-03
4.400555289825e-03
4.253543167516e-03
2.943285220908e-03
3.519756308427e-03
3.287722794547e-03
1.604761110599e-03
2.916005013921e-03
2.089170602373e-03
2.495795305072e-03
3.131259226377e-03
5.609482615871e-03
5.438909998859e-03
5.417054799902e-03
3.703317504642e-03
5.161557093516e-03
3.868518273720e-03
5.545650970965e-03
4.897334775276e-03
3.311771604763e-03
2.197730088428e-03
5.053606803532e-03
5.398699092692e-03
5.059342313408e-03
4.930251969398e-03
3.686756924755e-03
2.638215958256e-03
3.385656639266e-03
3.735595459470e-03
3.380928897864e-03
1.515738106098e-03
4.891642251278e-03
2.057605305164e-03
2.303129579541e-03
1.798145096306e-03
1.202338881616e-03
2.291547627481e-03
2.255519192117e-03
1.119365171026e-03
3.821601090175e-03
3.628201443266e-03
4.633003595104e-03
3.816334825167e-03
1.776186669795e-03
3.629386261877e-03
1.548469868944e-03
5.595449219484e-03
1.931840670526e-03
3.698695061029e-03
4.663243438870e-03
2.011134684472e-03
1.247841792706e-03
1.362382450494e-03
3.956724378172e-03
3.694573121702e-03
3.378959753737e-03
3.476784983087e-03
3.160808567775e-03
1.209468731441e-03
5.051259765074e-03
3.748618971867e-03
3.477272273897e-03
1.950538792296e-03
4.782003339930e-03
3.210604208948e-03
5.183136400848e-03
1.092245890419e-03
2.105066893939e-03
3.669072015162e-03
1.206486766565e-03
5.304264296023e-03
2.175618363556e-03
1.951041802013e-03
3.970362899570e-03
5.544534571255e-03
3.589900622387e-03
4.195224401096e-03
4.919263556773e-03
3.618574329088e-03
2.771490720799e-03
3.147261186437e-03
2.962169357454e-03
3.142630492045e-03
3.544072557654e-03
1.522290315329e-03
6.123405621243e-03
2.263220382989e-03
3.970342460406e-03
2.658927723359e-03
4.758938700212e-03
1.696532885482e-03
3.388847263524e-03
3.457624531915e-03
2.514428578240e-03
1.677345446119e-03
2.396212171815e-03
2.754267880200e-03
3.227262210638e-03
4.988779509347e-03
2.815825285194e-03
4.795644255112e-03
5.516289922385e-03
5.146103467286e-03
5.257081820144e-03
3.182071023712e-03
4.029201795451e-03
5.042361025696e-03
2.756595180965e-03
2.647290714061e-03
3.056301189697e-03
2.572569436643e-03
2.462008023465e-03
2.644345930535e-03
1.440401882729e-03
3.630426804566e-03
1.569273956402e-03
5.480811851792e-03
5.602378623592e-03
1.419199509514e-03
5.275547562051e-03
2.804242796237e-03
4.372719245337e-03
2.891727352859e-03
5.381895938702e-03
3.185020396507e-03
3.346610583280e-03
2.289654001474e-03
3.542499471540e-03
3.433320806316e-03
3.266208049097e-03
2.035076047681e-03
2.493404353718e-03
2.201070291381e-03
5.424319885087e-03
5.590129291020e-03
3.903582702292e-03
2.909258766393e-03
2.335058945798e-03
5.293513921390e-03
1.953817967391e-03
4.234737884749e-03
5.172652995614e-03
5.124227989435e-03
9.277188622567e-04
2.506898590902e-03
4.525242961084e-03
4.563239763712e-03
3.241690536946e-03
2.241320889607e-03
2.833288907621e-03
4.078547169666e-03
4.419169055791e-03
5.013620306272e-03
2.282293485652e-03
4.307804809555e-03
1.686847443505e-03
5.290274890223e-03
4.851002717086e-03
4.643175649224e-03
2.345179317856e-03
1.807172178817e-03
1.801948734361e-03
3.359707236442e-03
5.507142592636e-03
5.108003363980e-03
1.046447068850e-03
2.179901417413e-03
3.852336584431e-03
3.800392508022e-03
2.586138136504e-03
9.771895354138e-04
2.930181311238e-03
2.283701537404e-03
1.568412579387e-03
4.696631355627e-03
4.607881037575e-03
4.766072203044e-03
4.081754060291e-03
4.603369163212e-03
4.379957173959e-03
4.618906992019e-03
2.458376662123e-03
4.098638148539e-03
4.907202475208e-03
5.648784616652e-03
4.495095601971e-03
2.548434779706e-03
3.912793135380e-03
5.512760513766e-03
3.001262042829e-03
3.180884923332e-03
2.468543689254e-03
5.028337068141e-03
3.427253910037e-03
3.290153938343e-03
3.675470650321e-03
2.182285102727e-03
4.189801390205e-03
2.291578316535e-03
1.349449754861e-03
5.636015473331e-03
3.625895958899e-03
2.103450277769e-03
4.046287823861e-03
4.878000002137e-03
3.895798009600e-03
3.114017949884e-03
8.889497729122e-04
4.793301523209e-03
4.034143798685e-03
2.338495865229e-03
4.679004096829e-03
0.0
3.545292720195e-03
3.183419108901e-03
4.620052298240e-03
3.760015126243e-03
2.393922234819e-03
4.445933361572e-03
3.448409215898e-03
2.584776922099e-03
4.250432662385e-03
1.906468634271e-03
4.153126910283e-03
1.818802017300e-03
5.293743423829e-03
4.239353654533e-03
2.394815569185e-03
4.179465517636e-03
5.639919064863e-03
3.534684727708e-03
2.288195308190e-03
2.779857412875e-03
4.157293753941e-03
4.559059439739e-03
3.534808419225e-03
4.252606570727e-03
4.782120039691e-03
4.278791894662e-03
3.738223600894e-03
3.499074933205e-03
3.494139593801e-03
4.747419654542e-03
4.255099070675e-03
3.839964885528e-03
4.569340265878e-03
3.056246348132e-03
2.393304954355e-03
2.930480403413e-03
6.086851266750e-03
4.117844399000e-03
3.455995573439e-03
3.753400023371e-03
2.472071372363e-03
3.491628202087e-03
4.204348122107e-03
4.268597776756e-03
4.772004198945e-03
4.710233733702e-03
4.692963440339e-03
1.106720622824e-03
3.608330547153e-03
3.820362875112e-03
4.664326353529e-03
4.680096484355e-03
2.352584026883e-03
1.558884795758e-03
2.654480659438e-03
3.731003145245e-03
3.466490700851e-03
3.315280051285e-03
3.510786059953e-03
4.741445271794e-03
3.000739119005e-03
3.725942709322e-03
1.882186228005e-03
1.989209782105e-03
4.859365221654e-03
5.378791863780e-03
3.622412790060e-03
4.086298431898e-03
8.788451117360e-04
2.150327118180e-03
4.157073371539e-03
8.318441689136e-04
5.408814910997e-03
1.796994317519e-03
4.563827465076e-03
4.326693611244e-03
2.179157756358e-03
2.902957421488e-03
5.531946144864e-03
2.724274636976e-03
3.597238446451e-03
3.949741788311e-03
1.387126890400e-03
1.483538630366e-03
4.094562523506e-03
4.462003929120e-03
4.216899447097e-03
3.250175486718e-03
5.197689124532e-03
4.432557972304e-03
3.662154238880e-03
4.324815174578e-03
4.318493610634e-03
4.118093824424e-03
3.698739609380e-03
3.642170033284e-03
5.589231027012e-03
3.013506558343e-03
4.255186571382e-03
2.631728022376e-03
2.719221655027e-03
3.230635052550e-03
2.472264286779e-03
1.402294089302e-03
2.643957478187e-03
4.711133417206e-03
2.471516709082e-03
4.468472658716e-03
2.193648896864e-03
1.986292001410e-03
2.990854761195e-03
4.632153164590e-03
4.258818863725e-03
4.455822626565e-03
2.409857783535e-03
4.599243387348e-03
4.586353591898e-03
3.003262797050e-03
3.764237663719e-03
1.259809435264e-03
4.417137978971e-03
2.598861938414e-03
3.559924899756e-03
2.891071441809e-03
4.599295072823e-03
4.492928374407e-03
3.946747793921e-03
3.008453656814e-03
3.177730900320e-03
4.583213391973e-03
3.022048143241e-03
1.998492614778e-03
1.639620437187e-03
1.813972294795e-03
2.527763030566e-03
3.023198208948e-03
4.233192300425e-03
3.640278608643e-03
1.787168974819e-03
3.020737013717e-03
3.250114505745e-03
4.609207531696e-03
1.720484110792e-03
4.768807741004e-03
2.542365269620e-03
3.372604860332e-03
3.955992186008e-03
3.843149938690e-03
2.565660421796e-03
3.009689123218e-03
4.457896627465e-03
1.960918397589e-03
4.405903501378e-03
3.240600366134e-03
3.564971743917e-03
2.068612722327e-03
3.806478467456e-03
4.436879848710e-03
1.816133218611e-03
2.713220334332e-03
2.003794310319e-03
1.222241799405e-03
3.754040591865e-03
4.602132618812e-03
4.606753680845e-03
2.762317310720e-03
5.921576080326e-03
2.005752252152e-03
2.912859680010e-03
2.189495913324e-03
3.665001844436e-03
3.520328983887e-03
2.638881836419e-03
2.895778659108e-03
4.043104173156e-03
2.482129023893e-03
5.209900433282e-03
3.214049017557e-03
3.647482495706e-03
3.710983494359e-03
2.656638786889e-03
3.855170451250e-03
4.566671673770e-03
4.366198307929e-03
1.028648459849e-03
0.0
2.165054714133e-03
3.723014921691e-03
2.395137752120e-03
2.817631679997e-03
2.513976997857e-03
3.806732758052e-03
4.815158278389e-03
3.775227130307e-03
2.362468453277e-03
4.403407743042e-03
4.096150277746e-03
2.928708125507e-03
3.798202669823e-03
3.830814983830e-03
2.434166470534e-03
2.429201062824e-03
3.861528244714e-03
4.613156150105e-03
4.387204249011e-03
2.657070979426e-03
3.880643775733e-03
2.837716406776e-03
2.485420115051e-03
3.105685387870e-03
2.225639351650e-03
2.780093807569e-03
2.725707991279e-03
2.761000011738e-03
3.893879650775e-03
2.100922071665e-03
3.891918480221e-03
3.915697350990e-03
2.204461836540e-03
3.709703770702e-03
0.0
5.365652246451e-03
2.578069340872e-03
2.173697461019e-03
3.448943280229e-03
3.975644968851e-03
4.011347503913e-03
2.443864926480e-03
1.964861984032e-03
1.711666579155e-03
4.092079591951e-03
2.346058795579e-03
2.509223878502e-03
4.534649018568e-03
2.777991002642e-03
4.537667482143e-03
4.058891197805e-03
0.0
5.816180050420e-03
4.902062641942e-03
3.881412651745e-03
2.440978645024e-03
3.770170632493e-03
2.426839343308e-03
1.518214254580e-03
1.660184359322e-03
5.546974744787e-03
4.665874526858e-03
3.739497969649e-03
5.215858982210e-03
1.786753972791e-03
4.945218504881e-03
4.727704294311e-03
2.892091425302e-03
3.818142524302e-03
2.797163094051e-03
2.426438530921e-03
2.920765910813e-03
4.893505897122e-03
4.727405870860e-03
2.743689612102e-03
4.673515583297e-03
0.0
2.485522009972e-03
5.040677103797e-03
3.152365298128e-03
2.607652291814e-03
3.607194230213e-03
3.172614263735e-03
2.188759691854e-03
2.409032827129e-03
2.923122928886e-03
2.479690312005e-03
2.876821812237e-03
4.465612370866e-03
5.532694685970e-03
2.480976938953e-03
4.855765288150e-03
5.147151796070e-03
2.491148219769e-03
2.231684133508e-03
3.071159247528e-03
2.618928641937e-03
4.855263855775e-03
2.512300808846e-03
2.262013899534e-03
2.743671721340e-03
2.429414246353e-03
2.905151765398e-03
2.632275217683e-03
3.664855587076e-03
4.505149016415e-03
2.765225984554e-03
2.582205512883e-03
2.386883807025e-03
2.387003191431e-03
0.0
5.504082384171e-03
5.322543550804e-03
7.848135277644e-04
2.549500333694e-03
2.400638059406e-03
2.463285382783e-03
4.810923744731e-03
3.198165242386e-03
4.606096513073e-03
2.664651155853e-03
3.655834997024e-03
4.200689173686e-03
2.113752298900e-03
1.912300493824e-03
3.255578082472e-03
1.273953511854e-03
4.816843425833e-03
2.290848895151e-03
2.168710725122e-03
2.559244781557e-03
4.283416494899e-03
4.812195502839e-03
2.539570789041e-03
3.643462494390e-03
4.855540140174e-03
2.948190669232e-03
2.976334480875e-03
2.027418807040e-03
2.926129920543e-03
4.448255544290e-03
2.964508539853e-03
5.409142776678e-03
5.734258886474e-03
4.026664295728e-03
5.743896818908e-03
5.718569705541e-03
2.582070465025e-03
2.595631204153e-03
3.199953522585e-03
0.0
1.902903777885e-03
3.604210869196e-03
2.807391870645e-03
2.804874001204e-03
2.021751019950e-03
2.194943763957e-03
4.142001498770e-03
2.644769460266e-03
2.249798190126e-03
3.567736017229e-03
4.967219196927e-03
4.886134841971e-03
2.605300666506e-03
3.828525680063e-03
0.0
1.957535475967e-03
3.521502279004e-03
1.981252673420e-03
2.924275991023e-03
2.745952613108e-03
2.849229022871e-03
2.462891224688e-03
5.296655538006e-03
2.503533226713e-03
5.524289484905e-03
5.153625615526e-03
6.001172921191e-03
5.100455085511e-03
4.110540018138e-03
2.637651237191e-03
2.100855566225e-03
3.191285649529e-03
4.869911819269e-03
1.668585154639e-03
1.835666317314e-03
2.227285640186e-03
3.938213713365e-03
5.540832376998e-03
4.655361428653e-03
3.499491474385e-03
5.052024159388e-03
4.084593475503e-03
2.632811007746e-03
2.862235179152e-03
4.698107313135e-03
3.316215251475e-03
3.587892556505e-03
3.896233695222e-03
4.114095616366e-03
4.188562373750e-03
1.799506149793e-03
2.750045215379e-03
5.853261315327e-03
4.426727944562e-03
3.704988570506e-03
5.563415471233e-03
4.701176930839e-03
5.605287308872e-03
2.984653430048e-03
2.899269361477e-03
3.882189993689e-03
0.0
2.099672330588e-03
4.918810832529e-03
9.297763855901e-04
3.755397294441e-03
2.797405890751e-03
1.199320246670e-03
1.287155906031e-03
6.012085979982e-03
3.536739645719e-03
5.807206894269e-03
2.659927490576e-03
3.526193540084e-03
0.0
5.649183673557e-03
1.226889212049e-03
5.591486415216e-03
4.894034742833e-03
5.539486036354e-03
2.262943268428e-03
4.213950339262e-03
3.025007021002e-03
3.131326445099e-03
4.091554630855e-03
5.020955983920e-03
3.911662398283e-03
5.268125805587e-04
4.885085777727e-03
3.118765135349e-03
9.712620635747e-04
3.457233058136e-03
5.927711436663e-03
5.789822867449e-03
3.808569037443e-03
4.215889140078e-03
2.538577934307e-03
5.833806765854e-03
2.555830622428e-03
2.490656388983e-03
3.320251670345e-03
3.625198829927e-03
5.701509361268e-03
5.926679449314e-03
5.825453120953e-03
2.375146025770e-03
1.855020722498e-03
3.558870854792e-03
3.632521599668e-03
4.888825416704e-03
5.046946971521e-03
1.549964253441e-03
0.0
4.672705056340e-03
4.574124372469e-03
1.492817307624e-03
4.534041151919e-03
3.791507055834e-03
3.441092852532e-03
4.640515334488e-03
3.044493888229e-03
3.085586377938e-03
1.541679909506e-03
3.205964040354e-03
5.539122948349e-03
5.470096428524e-03
3.349468659420e-03
4.316012489498e-03
5.096328403816e-03
5.066889044332e-03
4.866255092984e-03
3.513811278074e-03
2.745903881909e-03
5.643353601341e-03
2.006177374357e-03
1.336548591570e-03
4.740994586223e-03
1.967258917603e-03
3.030928276529e-03
4.804010908766e-03
4.798192704978e-03
4.457553134226e-03
4.812474116929e-03
4.086135366692e-03
0.0
1.909648872290e-03
2.592269180864e-03
4.073105943506e-03
3.300295154598e-03
5.598216389854e-03
3.155889343856e-03
2.080876808324e-03
1.684831239890e-03
1.996726710914e-03
4.805748266782e-03
2.545899529970e-03
5.665640345273e-03
1.260613380941e-03
2.717034335033e-03
4.089865816188e-03
4.150741350700e-03
3.513862819322e-03
4.079622705219e-03
3.886731369533e-03
5.955413447924e-03
5.808855366257e-03
1.973720843828e-03
5.623880488313e-03
5.288178170346e-03
2.706065533823e-03
3.694588255657e-03
4.724906017287e-03
5.013738577708e-03
0.0
2.864341795004e-03
5.304542939534e-03
4.364446428508e-03
4.836626331640e-03
3.730875922937e-03
4.587318565965e-03
5.089225402943e-03
3.906899070662e-03
3.750017617316e-03
3.537069004234e-03
2.588839608145e-03
5.047138554197e-03
3.933020823055e-03
5.546377694027e-03
1.946527573604e-03
5.421130664064e-03
4.841192871563e-03
9.322091538505e-04
2.293274876912e-03
5.049998438284e-03
5.689077263393e-03
5.605137768792e-03
3.830427027326e-03
4.275713481985e-03
1.034452648196e-03
0.0
9.165803274728e-04
2.306330849804e-03
1.617624622502e-03
3.232809435929e-03
4.778427176324e-03
5.703044928894e-03
4.347082166528e-03
3.002796748421e-03
4.148995897399e-03
2.783709893463e-03
4.463871432644e-03
4.932249577077e-03
5.252682971647e-03
1.354054557860e-03
0.0
4.840119537013e-03
7.233031137748e-04
8.681517225348e-04
1.435436843906e-03
1.472272678795e-03
3.855676984439e-03
5.537407312308e-03
5.639733232520e-03
4.436603250530e-03
2.523558595448e-03
4.438054910322e-03
5.878210086007e-03
3.406643456978e-03
3.631025882734e-03
3.027978513677e-03
7.658097359086e-04
5.095377053932e-03
4.007087122991e-03
1.117452099742e-03
3.054154399225e-03
5.821463871987e-03
5.616162225123e-03
5.771476761292e-03
2.378943900085e-03
0.0
4.729401298327e-03
5.982820025955e-03
5.116893597155e-03
3.780141864939e-03
2.757852932878e-03
1.016540728646e-03
5.742488357776e-03
8.130160899770e-04
3.471132188594e-03
5.976997195660e-03
0.0
4.334445045259e-03
4.928068088589e-03
5.685262055675e-03
3.960311455775e-03
4.602685966077e-03
5.674047741207e-03
5.673486810091e-03
4.691284669015e-03
5.438753250395e-03
2.700307817537e-03
3.496149835990e-03
4.345309502369e-03
5.753633298066e-03
1.736380299792e-03
3.496568385412e-03
4.939582600280e-03
1.368820282863e-03
2.744988563961e-03
5.663738979536e-03
5.807014388648e-03
1.265820552801e-03
2.857699370651e-03
3.526860356291e-03
5.236929301907e-03
0.0
5.763265201970e-03
4.458722862593e-03
3.044071100787e-03
4.287981028573e-03
4.654162068594e-03
3.688235848984e-03
2.913938479117e-03
2.490177180056e-03
3.382376733098e-03
3.778484931935e-03
3.590372836895e-03
3.200278276933e-03
3.401617339723e-03
1.200485253478e-03
4.444142389629e-03
4.959617724818e-03
2.494216693804e-03
5.683473093287e-03
4.880068419398e-03
3.847676400356e-03
4.572298701193e-03
3.295609289569e-03
3.277091984412e-03
3.455826167072e-03
2.410347476307e-03
3.171270214627e-03
5.151777217512e-03
3.979240728433e-03
5.867901631608e-03
2.336872728529e-03
4.397657744471e-03
5.380026001316e-03
3.734283041452e-03
4.159349955921e-03
1.018917914231e-03
5.297615537063e-03
5.603907969465e-03
1.200386500765e-03
3.098141903975e-03
0.0
5.607338238193e-03

SCALARS element_materi_plasti_phimob float
LOOKUP_TABLE default
2.298690927500e+01
1.916595628223e+01
2.130346349436e+01
1.588484215955e+01
-1.146626183408e+01
2.361846672833e+01
-1.264810488554e+01
2.117722087318e+01
-1.073575673202e+01
1.583459121780e+01
1.964977256183e+01
2.143351513648e+01
2.091084876885e+01
-4.900082499518e-01
2.076970586080e+01
1.655427033046e+01
-1.000247067179e+01
2.608786584917e+01
1.797970737731e+01
1.156545357598e+01
1.578537023899e+01
1.917847848122e+01
2.096566080423e+01
2.255359926459e+01
7.728591131167e+00
1.984495573318e+01
1.612574472695e+01
2.328979741361e+01
9.693161822058e+00
2.236917535163e+01
1.956581175191e+01
-2.271572315904e+01
2.110025730538e+01
2.117799041824e+01
2.142147035300e+01
2.095477618340e+01
2.087546681271e+01
2.261726301126e+01
-1.765438132337e+01
-1.830547610049e+01
2.065067244173e+01
2.123858271245e+01
2.256608935160e+01
1.196843739473e+01
1.502293529064e+01
2.031233731226e+01
2.210548805097e+01
1.534643532481e+01
1.881632929858e+01
-5.502849346609e-01
2.094927629052e+01
1.598439559836e+01
2.211694916575e+01
1.774075848407e+01
1.960489738836e+01
1.589090664445e+01
1.335895199552e+01
2.127419113096e+01
1.057642400567e+01
1.651614792057e+01
1.125915830809e+01
2.362309311547e+01
2.247478842785e+01
2.158575618926e+01
2.094477005662e+01
1.800680538624e+01
1.575083116977e+01
2.140124417047e+01
1.024912425422e+01
2.242390619272e+01
2.004428956413e+01
1.953084018653e+01
2.283976523945e+01
-1.143498890326e+01
1.615906852994e+01
1.640693754914e+01
1.936833975487e+01
2.190269120009e+01
9.671350564994e+00
2.290792263257e+01
1.110555651118e+01
-8.915594319466e+00
2.159271832183e+01
2.092610410228e+01
-6.817749616574e+00
-1.026074386290e+01
2.032479344318e+01
2.122288412381e+01
1.958975474847e+01
-8.394091405164e+00
-1.847612885000e+01
5.581992144640e+00
1.045937082003e+01
9.803323093903e+00
1.813865976675e+01
2.201750001299e+01
-5.923774944322e+00
2.178837685627e+01
-4.144973331271e-01
1.978823852436e+01
-1.271935888374e+01
2.083349200316e+01
2.515452272252e+01
2.328381359748e+01
2.262458149800e+01
1.699492327975e+01
2.103705399610e+01
1.219987184628e+01
2.303078532832e+01
2.077721537711e+01
1.966594361188e+01
-2.569886318327e+01
2.553172037227e+01
1.908872234533e+01
1.771778864476e+01
2.191416000310e+01
2.105283775387e+01
2.117275698099e+01
-3.218978504467e+00
2.353423029242e+01
7.477812097700e+00
8.148954338117e+00
1.250852119213e+01
2.164953613900e+01
2.601552137827e+01
2.082046163774e+01
1.764114613003e+01
1.765998749008e+01
1.724433105471e+01
2.343401351988e+01
1.984588317743e+01
1.593603452381e+01
1.958722745279e+01
2.096371212319e+01
2.162980625972e+01
2.088650471094e+01
2.063093696063e+01
1.976893615861e+01
2.211678004682e+01
1.832595691363e+01
1.659357250237e+01
2.288941020532e+01
3.113862032970e+00
6.124569574914e+00
1.927303191375e+01
1.763841306229e+01
2.028168494788e+01
2.401638798631e+01
-1.397305860912e+01
2.538916985745e+01
-2.018788219222e+01
-1.200187879838e+01
1.335808655929e+01
2.061266062790e+01
2.138470240589e+01
2.376860027686e+01
2.089343636013e+01
1.999623296668e+01
2.547795208933e+01
-1.534775238557e+01
2.587779030542e+01
2.118660567334e+01
7.050142324241e+00
2.107270342650e+01
1.442221732660e+01
2.112195425956e+01
-1.600110577525e+01
2.410809364259e+01
1.615312872816e+01
1.969728833826e+01
2.355691414473e+01
2.553901050136e+01
8.236588922998e+00
-1.551022423907e+01
2.484900111157e+01
1.714269134506e+01
2.244409500222e+01
1.829408849239e+01
2.249031718489e+01
2.296650832354e+01
1.905977905873e+01
1.817331926103e+01
2.342758221793e+01
1.916786053731e+01
2.130425014627e+01
1.298651865788e+01
2.479461167882e+01
1.646230009621e+01
1.752850701923e+01
2.112365021498e+01
2.128651307289e+01
2.560230512238e+01
1.914574810433e+01
1.163742174852e+01
1.749876113582e+01
2.382871831711e+01
-2.241961811195e+00
1.996680793501e+01
1.308799454568e+01
2.021138727240e+01
2.436082041177e+01
8.755392383425e+00
7.056569464947e+00
2.202776349708e+01
1.655790652520e+01
2.166898944630e+01
1.623953735435e+01
1.370793454811e+01
1.545093462740e+01
1.674722675303e+01
2.688684790898e+01
2.189518943294e+01
1.173509092232e+01
2.137894803093e+01
2.100708890407e+01
2.091069897139e+01
1.760123403057e+01
2.426183474705e+01
2.394623321910e+01
-1.472270188336e+01
2.608242998114e+01
2.394659799062e+01
-1.629158780073e+01
1.472080525988e+01
-2.250250291777e+01
2.190744685415e+00
2.247838178616e+01
1.505336718355e+01
1.515356264564e+01
1.436970135290e+01
2.150923949752e+01
1.762832530189e+01
8.819675594781e+00
2.407008907108e+01
1.685996063246e+01
2.101685767674e+01
1.015665322024e+01
2.271757982574e+01
2.670225128748e+01
1.798798176417e+01
2.454628353804e+01
2.111119164294e+01
1.651000851026e+01
2.447879727234e+01
2.363429134531e+01
2.005699406304e+01
2.054426941737e+01
1.475746814394e+01
2.280381696072e+01
2.613791335576e+01
2.080263325264e+01
1.597446406172e+01
1.799050973532e+01
2.206541678460e+01
2.709936729597e+01
-9.268634526568e+00
1.129224435677e+01
1.302086938588e+01
2.529165259724e+01
2.472355513711e+01
2.271458214663e+01
1.478438162519e+01
1.706416606732e+01
2.477372956945e+01
1.523790097813e+01
1.810686875641e+01
2.009588802739e+01
2.088736928037e+01
2.795695887739e+01
1.949433159064e+01
2.509787240141e+01
2.706503903007e+01
2.540648547085e+01
1.737136154942e+00
2.658624914506e+01
2.448911758877e+01
1.614108849408e+01
8.606996079232e+00
1.411384326416e+01
2.618836957235e+01
2.200972687468e+01
2.462559863838e+01
1.630738495637e+01
-2.796183329014e+00
1.998552084836e+01
2.773311403086e+01
1.527000188443e+01
6.186759321758e+00
2.533187262060e+01
2.582552916831e+01
2.316482023482e+01
1.928496291532e+01
1.530817666603e+01
1.970353812036e+01
2.723352694881e+01
2.674198178980e+01
2.357589909309e+01
2.590227699126e+01
2.060554658181e+01
2.060322956535e+01
2.171427821540e+01
2.295951496238e+01
2.525441382143e+01
2.208127672376e+01
1.982614788365e+01
2.345457550434e+01
2.478940777313e+01
1.960142761548e+01
1.644042682398e+01
2.619226459375e+01
2.686019742918e+01
2.167799134669e+01
2.170589451397e+01
2.412815380719e+01
2.106068701745e+01
2.508797816013e+01
2.660409192292e+01
2.727249061939e+01
2.390232441390e+01
1.806623942536e+01
2.272368104953e+01
2.678979301367e+01
2.723960021468e+01
2.095670355910e+01
6.012521245770e+00
2.460271362182e+01
2.017790391183e+01
4.497482145356e+00
2.303964354394e+01
2.392176926651e+01
2.243553204842e+01
6.800755674091e+00
2.016716352172e+01
1.909904525820e+01
1.784999388415e+01
1.811539182819e+01
1.876331113312e+01
2.241392601048e+01
2.292535127872e+01
8.973359401873e+00
1.417539091717e+01
2.624596581345e+01
1.270319063883e+01
1.780745674880e+01
2.297905211131e+01
-1.541748930334e+01
2.253178994466e+01
2.551067453070e+01
1.607391647812e+01
2.215372736965e+01
1.733349294025e+01
2.740280642746e+01
2.339272466653e+01
2.254773162747e+01
1.903772695551e+01
2.612663127929e+01
1.989152184228e+01
1.851716537724e+01
2.255466769349e+01
1.909099619376e+01
2.140274780288e+01
1.912751231840e+01
1.687665393321e+01
2.208403114815e+01
2.270223304286e+01
1.874825169536e+01
1.519202351420e+01
2.293928540303e+01
2.051998003137e+01
2.464323509990e+01
2.537080394634e+01
2.178573609886e+01
2.656129557805e+01
1.891427172912e+01
1.718842172351e+01
2.485008144253e+01
2.277270580414e+01
1.889646262572e+01
2.182303013329e+01
2.203317918404e+01
2.131185833937e+01
1.991800073315e+01
2.315847602319e+01
1.495719871843e+01
2.197956168291e+01
2.608921556263e+01
2.385368444300e+01
1.947074599051e+01
-8.722371077109e-01
4.637175612828e+00
2.240906058771e+01
2.046936372136e+01
1.403330179650e+01
1.919637538667e+01
2.539150006092e+01
2.588382304442e+00
2.631538939643e+01
2.353543913108e+01
2.600745901340e+01
2.507124326278e+01
-1.007499926831e+01
1.192685989258e+01
2.402366919310e+01
2.091308620411e+01
2.636149093558e+01
1.100298627798e+01
1.194966836665e+01
2.244714127029e+01
2.613301188771e+01
1.774467890969e+01
2.295610660623e+01
1.585215358448e+01
2.095394570474e+01
1.934999481430e+01
1.610375265516e+01
2.413707055724e+01
2.297688886716e+01
2.254402813427e+01
2.148429404496e+01
2.214241149504e+01
1.822225343554e+01
1.635900178328e+01
2.020772989153e+01
2.307683301275e+01
2.149809891663e+01
1.870407809855e+01
1.738042416118e+01
2.301321409615e+01
1.619659880990e+01
2.717125379268e+01
1.640512208300e+01
2.500823311786e+01
2.468891357788e+01
1.917359728866e+01
2.317877575856e+01
1.750891086333e+01
2.416403489236e+01
2.279019553602e+01
1.905650764870e+01
2.070997342513e+01
2.158550305681e+01
2.414830045207e+01
2.263309468956e+01
2.011390064472e+01
2.186383376285e+01
-1.346866202133e+01
2.257371411326e+01
2.174841571691e+01
2.223186146937e+01
2.696651877583e+01
2.241027990426e+01
-4.855755171480e+01
2.454117297593e+01
2.136207372315e+01
2.237904327924e+01
2.047805358934e+01
2.280098738855e+01
2.235776117816e+01
2.656127759114e+01
2.512020566880e+01
2.133126005234e+01
-1.798740037896e+01
1.767682926962e+01
2.009166057117e+01
1.488023474577e+01
2.192481043342e+01
2.204650656805e+01
1.737088648033e+01
1.522720813014e+01
2.639385306505e+01
1.568799979680e+01
2.224999534235e+01
4.565978983820e-01
1.253542695245e+01
2.173741343105e+01
-3.955670556493e+00
2.019998279564e+01
2.504628254507e+01
5.553927328713e-01
2.271187338604e+01
2.723485978953e+01
2.276877107328e+01
2.143972928106e+01
2.236973471298e+01
2.186046737925e+01
2.261468969942e+01
1.847101189302e+01
2.381922481484e+01
2.386059487954e+01
2.119856419187e+01
2.331730690148e+01
2.527115957555e+01
2.467537348508e+01
2.905467278328e+00
2.155881675720e+01
1.327693089948e+01
2.098912037051e+01
2.330324946030e+01
2.264564686556e+01
2.031574450757e+01
-4.578561112094e+01
2.580881877915e+01
1.545394088743e+01
2.248837547105e+01
1.934372536056e+01
2.507753744198e+01
2.233088225516e+01
2.241246923333e+01
2.270696768810e+01
2.340504530775e+01
1.543599919853e+01
2.220658346545e+01
2.368217157786e+01
2.338325186709e+01
-5.240099525460e-01
1.809930400260e+01
2.394866634206e+01
2.035353137901e+01
2.158667494505e+01
1.882934958187e+01
2.382677677559e+01
2.410361286279e+01
2.554147894041e+01
2.496340967694e+01
2.363219515456e+01
2.323159717134e+01
2.397123330858e+01
2.605562472747e+01
2.485454500169e+01
1.913016931455e+01
2.338111817064e+01
1.870221379843e+01
2.509288428824e+01
2.793431953812e+01
2.180636377718e+01
1.652668502719e+01
1.626436300390e+01
2.108204090701e+01
2.255573744402e+01
2.657428156178e+01
4.344272150796e+00
2.150309674717e+01
1.737694809910e+01
2.147228443396e+01
2.084411327209e+01
2.324584544781e+01
2.049776511947e+01
1.218313568520e+01
2.724024371918e+01
2.212797917300e+01
2.567370411173e+01
1.385317338878e+01
1.887682650738e+01
2.555381728749e+01
-1.412080924502e+00
1.853188570831e+01
2.664837423847e+01
2.142038417904e+01
2.128179630186e+01
-3.762298401383e+01
2.366013023067e+01
2.197467363303e+01
1.953361191860e+01
2.646138781541e+01
2.429496674279e+01
1.247413442957e+00
2.008866010669e+01
2.078812285794e+01
2.234817663603e+01
1.945311962131e+01
2.270637200293e+01
1.933399716492e+01
-3.552298951536e+01
1.275911175559e+01
1.777290940058e+01
-5.777838984460e+01
1.914206245026e+01
2.394112259389e+01
1.316785840047e+01
2.642979775266e+01
2.642704224948e+01
1.363679000928e+01
-3.427523824251e+00
1.847492583204e+01
2.297027549941e+01
-5.349640944420e+01
9.385543849261e+00
-6.174146974934e+00
1.586067386079e+01
2.247071238853e+01
1.313176232457e+01
2.253148743742e+01
1.676728753503e+01
2.023124631820e+01
2.324095933869e+01
2.447254110999e+01
1.769563016842e+01
1.632495551997e+01
2.139823984897e+01
2.073856046760e+01
1.830317137532e+01
1.940137318084e+01
2.302292127805e+01
2.308190822205e+01
1.044374710479e+01
2.339381503610e+01
-1.052323811711e+00
1.914245152428e+01
1.951800892795e+01
-1.792374732611e+01
1.797127353591e+01
1.641766052876e+01
-5.556409593453e+01
3.331107322399e+00
7.800400593109e-01
2.567904300461e+01
1.627732413020e+01
2.094755339403e+01
2.074246402356e+01
2.179567000259e+01
2.252167286136e+01
1.189282711454e+01
1.972819323472e+01
1.232516026592e+00
1.846528427462e+01
-1.371043961091e+01
-1.952263291866e+01
-5.665682819666e+01
-1.840423251923e+01
3.233072815679e+00
1.460250411098e+01
-1.833059796322e+01
1.859203605344e+01
3.601452601864e+00
1.626886275856e+01
4.010426388352e+00
-1.517350971362e+01
2.197782087986e+01
2.377113299515e+01
-1.646736626553e+00
1.675899831882e+01
1.232207567898e-02
1.838934003808e+01
1.755706243515e+01
-4.438899494476e+00
-1.102447455206e+01
1.693099825677e+01
1.732819759600e+01
1.559237254886e+01
-9.308627509968e+00
-7.444703521746e+00
1.617731974232e+01
2.108223849776e+01
1.737154104476e+01
-1.875550148848e+01
-5.629045304229e+01
4.871232385346e+00
1.979042368995e+01
2.097853112623e+01
1.155565188446e+01
1.149031534452e+01
4.702209883319e+00
2.586063148013e+01
-1.623800484983e+01
1.921355519933e+01
2.577920455297e+01
2.117675522945e+01
3.692619837764e+00
1.933149783678e+01
-1.775679325757e+01
2.031710656310e+01
1.747599378459e+01
1.717604903685e+01
-1.791685613783e+01
2.571399645331e+01
1.808608253310e+01
2.497002522562e+01
-3.129706344059e-01
-1.861979986775e+01
-1.868121376323e+01
1.758824275997e+01
2.084705466840e+01
1.593187615703e+01
-5.643783218805e+01
1.854674586343e+01
2.057790467478e+01
2.091208722299e+01
2.134781567465e+01
8.785801974522e+00
1.261511470790e+01
2.056694900496e+01
2.057809613438e+01
1.149632198252e+01
-5.669957126720e+01
-1.917713166568e+01
-1.893254984487e+01
-5.644049961195e+01
2.060920071887e+01
2.128198616598e+01
2.063311197752e+01
-5.699380244713e+01
-5.668173589801e+01
2.069671056070e+01
2.066460499816e+01
7.065139114922e+00
-1.932671734419e+01
1.024873577343e+01
-5.489850545134e+00
-1.934637444596e+01
-5.108847588739e+01
-4.766571482982e+01
-4.717813392287e+01
-4.737931689704e+01
1.880626408693e+01
1.825632654487e+01
-5.631613005787e+01
1.983603068737e+01
-5.512455592224e+01
2.005841430517e+01
1.785635135124e+01
1.873318585748e+01
1.651668481703e+01
1.565666127348e+01
1.767218095549e+01
2.117095268626e+01
1.763396689460e+01
2.104628988703e+01
2.088328038052e+01
1.794525743274e+01
1.720652531529e+01
1.723402705382e+01
2.108931082539e+01
2.095767788636e+01
2.059731911319e+01
-1.868278194048e+01
1.872940986818e+01
-1.973849971744e+01
2.163021313953e+01
1.921469877549e+01
2.155359329056e+01
1.388047933768e+01
-5.156733734461e-01
2.127449815877e+01
1.906252760374e+01
1.728477690771e+01
2.143702189147e+01
1.431582984192e+01
1.721385717875e+01
2.346455591557e+01
2.236905665736e+01
2.113359958424e+01
2.119946067570e+01
2.709995157350e+01
1.889320394886e+01
2.529452184429e+01
2.118967090514e+01
2.129292222901e+01
2.134258427263e+01
1.455291656674e+01
1.417326638662e+01
1.222650803542e+01
-1.312771290189e+01
2.196353112605e+01
2.113724257854e+01
1.432598509587e+01
1.333734911942e+01
2.111207037297e+01
2.111883200780e+01
1.184780641530e+01
2.111964456073e+01
2.137658649477e+01
1.417874625238e+01
7.932001979477e+00
2.336338714923e+01
1.417778951193e+01
1.420784533193e+01
1.486685652000e+00
2.275773492113e+00
1.331632345958e+01
2.119697750931e+01
-9.994610136271e+00
1.869508360293e+01
-9.481433220956e+00
2.157967561485e+01
2.137591443004e+01
2.048668650881e+01
2.127651506484e+01
-1.133312895161e+01
2.576698276172e+01
2.120078129088e+01
1.314700192716e+01
2.161156873119e+01
9.691172560324e+00
1.461970872797e+01
1.575689296457e+01
1.928058270824e+01
2.892458580525e+00
1.785374751510e+01
1.117283974995e+01
6.172861653199e+00
1.943974617103e+01
2.083650703147e+01
2.133992992586e+01
9.662229118315e+00
1.303703233903e+01
1.914623726114e+01
2.430944916391e+01
1.089262691975e+01
1.876700296181e+01
2.102078357175e+01
2.186901564674e+01
7.827023322642e+00
2.586011805840e+01
6.016664089991e-01
2.453474946247e+01
2.137213989845e+01
5.637170231274e+00
1.956527646858e+01
-4.290809549400e+00
2.292214689154e+01
1.947013354250e+01
2.154699769983e+01
1.390402739462e+01
2.152744230605e+01
1.938745631301e+01
1.447233720042e+01
1.908839729425e+01
1.827354155567e+01
1.627312171369e+01
1.959764773155e+01
-5.592162578334e+01
-5.446889892941e+01
2.044654260761e+01
1.407700249355e+01
2.099227083858e+01
2.098241644382e+01
1.873237866743e+01
1.918078693192e+01
1.300665574973e+01
2.382264494252e+01
1.836426428482e+01
2.274475584989e+01
1.153136771150e+01
6.613986781041e-01
-7.406416039155e+00
1.106548363201e+01
2.221826490785e+01
9.244972071606e+00
1.322073188894e+01
1.393272411646e+01
1.398310357915e+01
1.500615061320e+01
1.998509490465e+01
1.486624832190e+01
2.118553390660e+01
1.952937665934e+01
1.726804839234e+01
1.301735606190e+01
2.106061314871e+01
2.181300373197e+01
1.206655123529e+01
2.169806415080e+01
9.058110282582e+00
1.948666830765e+01
5.860450026923e+00
1.069143490806e+01
2.783401910401e+01
1.199068929707e+01
1.884238855871e+01
1.942447902013e+01
1.781667028906e+01
1.767556582464e+01
7.443932782056e+00
2.107032996200e+01
1.573736338201e+01
5.775510060146e+00
7.644817879720e+00
1.538478941695e+01
2.168849952318e+01
9.305932584845e+00
2.180758827378e+01
2.166945236868e+01
1.868854660216e+01
1.427340943030e+01
7.471058286565e+00
2.169132882980e+01
3.532686139698e+00
3.256160459460e-01
1.777247207896e+01
1.486379229658e+01
3.362233644602e+00
1.822468504881e+01
2.215271069475e+01
1.758074679191e+01
1.221541288007e+01
1.679656672358e+01
2.242509359190e+01
1.397658769143e+01
2.175418315858e+01
1.916092910202e+01
2.209824815020e+01
2.615755227948e+01
1.240500681066e+01
-2.735059334688e+00
2.505385079244e+01
2.341141370784e+01
3.730421917765e+00
1.553808526809e+01
5.193098399645e+00
1.478920387204e+01
2.193054974522e+01
2.507050873273e+01
2.528827577466e+01
1.488116094940e+01
2.159164168540e+01
1.167924874918e+01
2.202876209342e+01
2.205367988929e+01
1.991167789414e+01
2.165846263981e+01
9.383950207405e+00
1.984484910647e+01
2.186250922900e+01
-2.544838413758e+00
1.562468743394e+01
1.729140427403e+01
2.428767420589e+01
2.239820410771e+01
2.036514109663e+01
2.448447915200e+01
7.253823825337e+00
1.236784640339e-01
-7.586429502743e-01
1.920827998200e+01
2.259403816307e+01
2.226489326023e+01
-3.120573974473e+00
2.001098250414e+01
2.480726021617e+01
2.271520053386e+01
1.062954844341e+01
1.792810690080e+01
1.763106259545e+01
1.273652963500e+01
2.293788623996e+01
1.803119039264e+01
5.638871409444e+00
3.425789485382e+00
2.728001296481e+01
1.698694569467e+01
2.670057555504e+01
1.743411737011e+01
1.796039090006e+01
1.332429131302e+01
2.301527311021e+01
2.077720662092e+01
1.198391606966e+01
2.191381614824e+01
2.347924004954e+01
2.198033571783e+01
2.601417136591e+01
1.405632073556e+01
2.246361737736e+01
2.214119605216e+01
2.445502405178e+01
1.842702433219e+01
2.279582157847e+01
5.183369729773e+00
1.829062274240e+01
2.316672319273e+01
1.691570692215e+01
1.778444680283e+01
1.828321090732e+01
1.604381554556e+01
1.534347600071e+01
2.058518242563e+01
2.309013775540e+01
2.334353455182e+01
-5.064111663221e+01
2.493644439511e+01
2.260266698104e+01
1.956580588648e+01
2.460517910783e+00
2.134052820583e+01
1.732020021538e+01
1.950102488389e+01
1.089295752759e+01
1.748268807964e+01
4.474369191612e+00
1.006388062457e+01
1.894623049383e+01
1.763182325090e+01
2.375127205732e+01
2.069409494276e+01
1.382962469168e+01
1.241031309741e+01
3.382020158524e+00
1.652502911185e+01
2.345554202420e+01
2.386362508528e+01
1.443754684536e+01
1.330639542408e+01
2.285977916731e+01
2.727774667173e+01
2.416505039031e+01
1.599655499071e+01
1.891755261041e+01
2.696692780792e+01
2.316524868874e+01
1.436614415817e+01
1.833734611534e+01
2.167069033598e+01
2.286775662158e+01
1.667619727929e+01
2.238531775702e+01
2.404494867319e+01
2.579716797737e+01
1.723655487544e+01
2.550828627783e+01
7.679568207662e+00
2.635408963526e+01
2.290806688827e+01
1.832013873024e+01
2.260260325087e+01
2.299750598094e+01
2.266321982399e+01
2.164073730899e+01
1.639706762121e+01
1.646341137846e+01
1.526369099705e+01
2.404044971900e+01
2.477080605478e+01
1.819970341737e+01
2.371448561510e+01
1.429944054258e+01
1.672434502540e+01
1.121949433946e+01
2.328836216748e+01
1.404342590802e+01
2.493484885364e+01
-6.839864544339e-01
1.214253033606e+01
2.462718439579e+01
2.725165456055e+01
1.515500419247e+01
2.286452757289e+01
9.528917965727e+00
2.520668313894e+01
1.705199952330e+01
1.122903244045e+01
2.321190327014e+01
2.229982399631e+01
2.026095931841e+01
3.904301837381e-01
-5.034185851312e+00
2.184980210960e+01
2.329813925174e+01
2.341347983506e+01
8.703726713336e+00
2.615135160177e+01
2.704407380568e+01
2.518769793322e+01
2.581815239880e+01
1.575403438976e+01
1.863622850876e+01
1.398110618894e+01
2.011721871911e+01
1.348302666537e+01
2.266164828252e+01
1.492331291679e+01
1.041541754850e+01
2.000232953010e+01
2.733807159149e+01
1.088568878700e+01
1.417443061476e+01
1.055889536332e+01
9.141828039541e+00
2.253316376604e+01
2.361123308534e+01
2.296779749489e+01
2.258770220900e+01
1.686424787314e+01
2.468921903355e+01
1.306192775656e+01
1.520915610948e+01
2.595573866646e+01
2.634848168799e+01
2.711462896199e+01
2.544928796216e+01
2.637837351118e+01
2.617006113123e+01
1.817072474168e+01
2.094152865943e+01
7.335703131107e+00
-1.475240940676e+01
2.923928957451e+01
2.128108271727e+01
2.486410173103e+01
1.846630540911e+01
2.782514172520e+01
2.173020627771e+01
6.036635797047e+00
2.983030645263e+01
2.543044721996e+01
2.704527570133e+01
1.877376836106e+01
2.294502280371e+01
2.146536417456e+01
2.301718869410e+01
2.278187762147e+01
2.602538450640e+01
1.074172578401e+01
2.444270500929e+01
2.248774497543e+01
3.035246880028e+01
8.337673651917e+00
2.363433701285e+01
1.197730562641e+01
2.714723422359e+01
2.693587437765e+01
1.969397841006e+01
2.586826121184e+01
1.301075648705e+01
1.592109802276e+01
2.987191295733e+01
2.447645406222e+01
1.490295792162e+01
1.932842767791e+01
2.409553628992e+01
9.790422815159e+00
1.968346411083e+01
2.383740104005e+01
2.523556256534e+01
1.480471004486e+01
2.094426158381e+01
1.798553072061e+01
2.760736450810e+01
1.933381633318e+01
2.658011089652e+01
2.213345955063e+01
2.753794464486e+01
9.849129286702e+00
2.558565506454e+01
2.233512767030e+01
1.664319178522e+01
1.703275220884e+01
2.556991506691e+01
2.396702910945e+01
2.401188874606e+01
2.265826308506e+01
1.370365113804e+01
2.344542737164e+01
7.602813523233e+00
1.866701328554e+01
1.277894587278e+01
1.418987609315e+01
2.433200753276e+01
2.215805456070e+01
1.176611942401e+01
2.774611447735e+01
2.294972577135e+01
2.285006828729e+01
2.596613767059e+01
1.667622280117e+01
2.468396685246e+01
1.602078412663e+01
2.544876995792e+01
2.507102390290e+01
1.572755563052e+01
1.679422954499e+01
2.520895587752e+01
1.345605103787e+01
2.758227015125e+01
2.365500092267e+01
2.236387131920e+01
2.119775444760e+01
2.350619840919e+01
2.397747960687e+01
2.799936457923e+01
2.309053822608e+01
2.656824136881e+01
2.654575259860e+01
2.675899557409e+01
2.434157860131e+01
2.775237830580e+01
1.413372455961e+01
2.007750523380e+01
2.246933193218e+01
2.385885681693e+01
2.505561483028e+01
1.394824678031e+01
2.754176454286e+01
2.182515388349e+01
1.249270812909e+01
1.386744141726e+01
2.639985576501e+01
2.772943453683e+01
2.335227616760e+01
2.074674171601e+01
2.258388843081e+01
2.493448209331e+01
2.536620887765e+01
2.355668074110e+01
2.154786725999e+01
1.226871858360e+01
2.702258084561e+01
2.419695468144e+01
2.457010710637e+01
1.307039548213e+01
2.294058927356e+01
8.186762723864e+00
2.375087491221e+01
2.718440588213e+01
2.419083614728e+01
2.582062686918e+01
1.520297629088e+01
2.251674844421e+01
2.715527708883e+01
2.564832961160e+01
2.445982809397e+01
2.591047764497e+01
2.690140703802e+01
2.648081182628e+01
2.346687361999e+01
2.433421963170e+01
2.741926238827e+01
1.717190113164e+01
2.141964423399e+01
1.890238892918e+01
2.454125942018e+01
1.523280878116e+01
1.164883748712e+01
2.203703566928e+01
2.425907806419e+01
2.222784748860e+01
1.123232824439e+01
1.670625599436e+01
1.366059710588e+01
2.630413281228e+01
2.386084557233e+01
1.492097722245e+01
2.694239221361e+01
2.663356242953e+01
2.661249386114e+01
1.317277775814e+01
2.201612872971e+01
2.685479773253e+01
2.155572292468e+01
2.511464261451e+01
2.323112432037e+01
2.659424897854e+01
2.454387474473e+01
1.743546512588e+01
2.101128226941e+01
2.574799790470e+01
2.388046270651e+01
1.195613930946e+01
2.256614731247e+01
2.671883383505e+01
2.629246821513e+01
2.128607195078e+01
2.460994565271e+01
2.570884847209e+01
2.359760314799e+01
2.048448204976e+01
2.294885383117e+01
2.458950642077e+01
9.576015160377e+00
2.022103571550e+01
2.752997434250e+01
2.165168434727e+01
2.652683602809e+01
2.716665376860e+01
2.480508812847e+01
2.386822528973e+01
2.431351904539e+01
2.482879097234e+01
2.202534866239e+01
2.389412166275e+01
2.549819227596e+01
2.215588696769e+01
1.581644957389e+01
2.250313495833e+01
2.442277340589e+01
2.708579360596e+01
2.474633579070e+01
2.136599963272e+01
1.925659565394e+01
2.443593804340e+01
8.832168367061e+00
2.192287666164e+01
2.261469983399e+01
-1.944285741123e+01
-1.959715096524e+01
1.724217597495e+01
2.484092359983e+01
2.019948928379e+01
2.174554436096e+01
2.707740964957e+01
2.320049578880e+01
2.746990214382e+01
1.892764394814e+01
1.001785300454e+01
2.619717435359e+01
2.155956979303e+01
2.526555570552e+01
1.958729024023e+01
2.497091948786e+01
2.313336058223e+01
1.093930258984e+01
2.218103300085e+01
2.183649971772e+01
1.151178677006e+01
1.989006606960e+01
2.121005001353e+01
1.983569735502e+01
1.972314666550e+01
2.381308312746e+01
1.340406179191e+01
2.340341926016e+01
2.511793123002e+01
1.911005774039e+01
3.014062348623e+01
3.150439759791e+01
1.187527958103e+01
2.219981696179e+01
2.055695754309e+01
2.438740173451e+01
2.524749656579e+01
2.250855589795e+01
1.461862203837e+01
1.968822099574e+01
2.212322125433e+01
2.859663969586e+00
2.449309740703e+01
2.509934894219e+01
2.358060361826e+00
1.452282116645e+01
2.429879261157e+01
2.068994978091e+01
2.389309299413e+01
2.556884240961e+01
2.480245223745e+01
1.565593057525e+01
2.453054129663e+01
2.595775545196e+01
2.517691893962e+01
3.275700177387e+01
2.540844186572e+01
2.397458535521e+01
1.242405885651e+01
2.407161845227e+01
2.527811908341e+01
1.718195440267e+01
2.352128324745e+01
1.364256412814e+01
2.400148386235e+01
2.189011879138e+01
2.553841400307e+01
2.069902485148e+01
2.032763755421e+01
1.756067854872e+01
2.438442680202e+01
2.416338983649e+01
2.774770335328e+01
2.398815322992e+01
2.648838659189e+01
2.650078742270e+01
2.688696302361e+01
2.685304513373e+01
2.115645617772e+01
2.589671320716e+01
2.268974387558e+01
2.401798820584e+01
2.466848879014e+01
2.727519907895e+01
1.095327397397e+01
2.182004116839e+01
2.164580352185e+01
2.141179552687e+01
2.299608840068e+01
2.129698961325e+01
1.902894172637e+01
1.988028518709e+01
3.370682119441e+01
2.156130756305e+01
2.657720768491e+01
1.934469300319e+01
2.596144641511e+01
1.200841388516e+01
1.117659582757e+01
2.543466269205e+01
2.799413375711e+01
2.848379847445e+01
2.144907345711e+01
2.434155124357e+01
2.596641759819e+01
2.510201255827e+01
2.697667708334e+01
2.586686908650e+01
2.271287679012e+01
1.081643316857e+01
-1.966149364011e+01
2.438272149103e+01
2.688890863251e+01
2.313319876764e+01
2.122854151111e+01
2.688231493771e+01
2.113091713477e+01
2.564385271863e+01
2.354067017064e+01
2.579826147882e+01
2.567458567606e+01
2.320136201067e+01
1.895777910837e+01
2.368733070555e+01
2.641220475863e+01
2.344331905631e+01
2.469787412209e+01
2.567739200602e+01
2.642699355596e+01
2.141547163096e+01
2.264094667013e+01
2.751549741683e+01
2.733431455640e+01
2.284188366177e+01
9.243238338064e+00
2.045583234430e+01
2.303679348167e+01
1.330092606764e+01
2.710327978464e+01
2.054338752977e+01
3.499586537224e+01
2.686547453298e+01
2.567835577686e+01
1.965203021332e+01
1.862013186486e+01
2.521946689494e+01
2.417799313451e+01
2.534572486296e+01
2.655170574525e+01
2.148283198003e+01
2.348777183323e+01
1.971345799073e+01
1.971158429494e+01
1.627730164190e+01
9.659961866303e+00
1.408009242092e+01
2.073243170637e+01
-5.859429712701e-01
1.360847801389e+01
1.283246637869e+01
1.966485514991e+01
2.609269050875e+01
2.450760608081e+01
2.537255345305e+01
2.040529015972e+01
1.626362376763e+01
1.975129093335e+01
2.707023938140e+01
2.345262885889e+01
-5.172246166788e+00
2.506956950964e+01
1.970762712441e+01
1.987716281435e+01
2.690973708705e+01
2.580687677435e+01
1.980012768974e+01
4.991761106628e+00
-3.844384326520e-01
2.689462488349e+01
2.039298017423e+01
2.287924883844e+01
2.191616304900e+01
2.326152775562e+01
1.186450841576e+01
2.344509714254e+01
2.699865574361e+01
2.231117989088e+01
1.976953082959e+01
1.505457847873e+01
1.128316282844e+01
1.990273095276e+01
2.500092666972e+01
1.992843651609e+01
2.464430328217e+01
1.350009798789e+01
2.437950937788e+01
2.379886270233e+01
2.569988857888e+01
2.041775973914e+01
1.994215139119e+01
2.648908097741e+01
6.280107712172e+00
2.717567553281e+01
2.048664878202e+01
2.358809071939e+01
2.105432311503e+01
2.369325242629e+01
1.976169780411e+01
2.261082858478e+01
2.189121923326e+01
9.405332238400e+00
1.747160331017e+01
2.057034335935e+01
-1.486525261983e+01
2.283266600562e+01
2.568411916218e+01
2.625828294618e+01
6.357434286270e+00
3.499323245665e+01
1.489863547710e+01
1.551247276811e+01
1.896957962960e+01
2.279560793091e+01
1.353548558427e+01
2.266740816474e+01
1.496898838291e+01
2.034827512789e+01
2.601108694313e+01
2.241098058967e+01
2.178107367362e+01
2.103242484297e+01
1.810110318714e+01
2.115048944324e+01
2.444507503673e+01
2.297332926844e+01
7.977289101708e+00
2.598639822345e+01
1.641682933079e+01
1.892529798594e+01
1.929699784727e+01
2.616412246158e+01
1.936596830310e+01
2.607079777492e+01
2.827272833665e+01
1.802289074202e+01
2.491235930590e+01
2.744066342043e+01
2.321680376762e+01
2.117299138708e+01
2.347550578445e+01
8.827586639303e+00
2.280243163570e+01
2.675502664867e+01
2.335032925884e+01
1.943409835219e+01
2.397960624476e+01
2.150052699564e+01
2.496804108833e+01
2.234727516252e+01
2.489132252330e+01
2.143776210995e+01
2.684430234725e+01
2.519833900060e+01
2.631956151247e+01
3.625554117754e+00
1.689663117023e+01
2.223974085090e+01
2.514693668816e+01
2.156038825335e+01
1.572676275307e+01
1.510946634137e+01
1.351935047638e+01
-1.738394185348e+01
2.446827536583e+01
1.491249955597e+01
1.565106097505e+01
2.295032855102e+01
2.630479662102e+01
2.353155295149e+01
2.493234225689e+01
-1.919382941931e+01
2.116426326373e+01
1.365215414515e+01
2.388370159624e+01
2.661862693257e+01
1.267835248653e+01
2.032260073110e+01
2.674704315411e+01
3.970324340765e+00
2.573404996134e+01
2.046502246126e+01
1.886250498490e+01
1.117065377130e+01
1.931067546644e+01
2.234008200551e+01
2.437048913710e+01
1.965211526846e+01
1.510101508563e+01
2.734557080962e+01
2.184379642489e+00
9.407795949380e+00
2.311804244669e+01
2.119642129362e+01
-1.021903019141e+01
1.670089755425e+01
2.196562581536e+01
2.541953022955e+01
2.341020330909e+01
2.262578550489e+01
8.199076761726e+00
1.420860214039e+01
1.943524578531e+01
1.840322865067e+01
2.411576918713e+01
2.723944756588e+01
2.876058929244e+01
-4.510607541425e+00
2.529134047187e+01
1.607519441566e+01
2.499346588754e+01
2.103701668133e+01
2.116402249565e+01
2.390626968936e+01
-5.330904035045e+00
7.239363439071e+00
2.906547414592e+01
1.892048512373e+01
2.796586900308e+01
2.685840164722e+01
2.226709336937e+01
2.391656813475e+01
2.111186390362e+01
1.391933491591e+01
2.249943946199e+01
1.495321140991e+01
1.218940177979e+01
1.714659361590e+01
2.082254579689e+01
-1.007917924768e+01
2.138263078136e+01
2.872272812512e+01
2.141286043321e+01
2.060207801185e+01
3.164546094667e+01
3.012308202571e+01
2.365889777888e+01
-1.172374935286e+01
1.508471084996e+01
2.253469278909e+01
2.395195482825e+01
2.066030882837e+01
-8.164430726030e+00
1.744955050825e+01
1.835149651500e+01
6.894271260739e+00
2.395067397957e+01
1.270710315594e+01
-1.567911291694e+01
-1.076945288556e+01
-6.819521432008e+00
2.393130480943e+01
1.635553646651e+01
1.640959453176e+01
1.062522484729e+00
2.227432756400e+01
2.116338310780e+01
2.091029673129e+01
1.611081950505e+01
1.831341794953e+01
1.795666821153e+01
2.179884357047e+01
2.174668844397e+01
1.480701431023e+01
2.189838880704e+01
1.288788446438e+01
-1.564204821038e+01
2.303979991261e+01
-4.646045848646e+00
-2.202744212630e+01
1.772976222042e+01
-1.556323722971e+01
1.640175046557e+01
2.252670179949e+01
-1.616261675007e+01
7.973322418298e+00
1.638617859156e+01
1.140281092265e+01
1.565845463196e+01
2.058736483632e+01
1.982581276564e+01
2.421900763105e+01
2.550620053447e+00
1.820366729898e+01
2.463580643976e+01
2.214473191717e+01
1.039544970220e+01
2.212138888988e+01
2.627507838128e+01
2.108718390696e+01
2.193613175704e+01
1.267065440710e+01
2.214901288782e+01
1.804116852365e+01
1.719166342500e+01
-1.505067001713e+01
8.486905662947e+00
1.981979002940e+01
2.194631234392e+01
1.701792906283e+01
2.209166987010e+01
2.471982718785e+01
-1.875083643225e+01
1.760396443015e+01
1.708513460584e+01
1.745774503268e+01
-5.555226679666e+01
-5.162783434582e+01
-1.963414362053e+01
-1.859905761797e+01
2.057276372376e+01
2.076216640174e+01
-2.239566717846e+01
8.582472308992e+00
2.104886059955e+01
2.366931151950e+01
1.549158086253e+01
2.125246354530e+01
1.965007209328e+01
1.907309394246e+01
3.905830011108e+00
1.562353086776e+01
2.547453868174e+01
9.726902564590e+00
1.874560021138e+01
2.177351196216e+01
1.445458948517e+01
1.900022668165e+01
-2.816984016815e+00
2.345942375684e+01
2.142993916604e+01
2.117730985955e+01
-1.738186045080e+01
2.612572927620e+01
1.889280066989e+01
1.491485984101e+01
-2.421544548890e+01
2.296544536735e+01
2.421663097665e+01
1.535626707505e+01
7.100563019313e+00
2.080136974850e+01
2.354083922308e+01
2.354178445771e+01
1.992133196468e+01
2.442291585602e+01
3.178626975933e+01
1.879573037647e+01
3.224005630108e+00
2.622251177815e+01
1.556993301836e+01
2.194891347663e+01
7.638042847394e+00
-1.689363324452e+00
3.016828169455e+01
8.085622220403e+00
1.685815706419e+01
1.697215675801e+01
1.673722806231e+01
2.287421344324e+01
-7.975280660418e+00
2.225051709769e+01
2.426043794533e+01
6.429029722307e+00
2.193865388077e+01
1.781566120153e+01
1.620543996345e+01
2.918882620019e+01
1.612799504450e+01
2.253322908334e+01
2.317034283441e+01
2.430889038835e+01
2.062208694060e+01
2.093206550975e+01
9.833546822109e+00
2.183391820736e+01
2.123672127031e+01
4.216176603978e+00
2.096643662606e+01
2.354306725903e+01
2.094052870586e+01
1.112574451958e+01
2.210141715661e+01
2.186030797030e+01
2.204909220497e+01
1.687089033502e+01
2.097655489901e+01
-7.821702633329e+00
1.501394063929e+01
6.680622294336e-01
1.371807478126e+01
7.382331016911e+00
7.156562499168e-01
2.340315244687e+01
2.183567258494e+01
1.677664510008e+01
1.523936143238e+01
2.297140567495e+01
-3.454095629298e+00
-2.475836675945e+01
2.350872409797e+01
-1.605179506128e+01
5.712202629235e+00
3.499586537224e+01
1.859970949965e+01
2.101635973939e+01
1.997302342833e+01
1.023191568593e+01
1.823423469469e+01
2.175854467540e+01
2.296592582769e+01
2.315345016972e+01
2.269248634282e+01
2.216234016106e+01
-1.645963433082e+00
2.225116209489e+01
2.109641992809e+01
2.979363649464e+00
7.986362720188e+00
2.815048206344e+01
-6.111711682435e+00
2.128595969089e+01
2.225733360605e+01
1.563469683490e+01
2.235784956715e+01
2.300316219274e+01
9.466891764572e-01
1.917362153818e+01
2.047623223604e+01
-1.858564176983e+01
1.410870015656e+01
-2.015436467475e+01
2.088801003892e+01
6.391168342822e+00
9.887172536481e+00
1.835522936718e+01
2.249364598195e+01
1.557562084641e+01
1.935709386021e+01
1.602714818946e+01
1.984862877576e+01
2.135073055649e+01
1.715264536206e+01
2.083126937504e+01
-1.649332481364e+01
2.224801738382e+01
1.173290536137e+01
1.699341942075e+01
-2.247873711165e+01
2.145082487099e+01
1.894455605906e+01
1.706593266212e+01
2.353382409637e+01
9.783300863444e+00
1.668679197093e+01
2.132921301296e+01
5.018308815111e+00
2.224724737340e+01
1.765841283821e+01
7.427230182734e+00
2.191729715666e+01
1.742421458545e+01
-1.883964549163e+01
2.329771503973e+01
1.649054205010e+01
-5.800091692654e+01
-1.912505833699e+01
2.078088401258e+01
1.079657971998e+01
2.325098344166e+01
1.851189336174e+01
1.631256788621e+01
1.463594481588e+01
2.409100254781e+01
1.926433710656e+01
1.254453027873e+01
1.085129066377e+01
1.832027916356e+01
3.473237522613e+00
1.495062028690e+01
-1.113696926601e+00
2.306994097524e+01
1.943126512069e+01
3.499586537224e+01
1.698012983969e+01
1.895166495698e+01
1.954795198624e+01
2.297573233184e+01
1.875648648304e+01
1.902223769836e+01
-5.419410416761e+00
2.141946895931e+01
2.323110631632e+01
2.341849577295e+01
1.650082421907e+01
2.074550206191e+01
-1.589189684528e+01
3.445728422144e+00
1.875584224983e+01
1.889616840754e+01
1.906143532430e+01
2.341448383029e+01
1.253054735751e+01
2.305931491254e+01
-1.173048146621e+01
1.742284381503e+01
2.304971299177e+01
-8.544288587477e-01
2.185055172896e+01
2.310536518538e+01
2.306391675357e+01
3.158834925654e+01
2.176202522843e+01
2.243650912944e+01
-6.311194997543e+00
1.852816419216e+01
2.963252441961e+01
2.191858957536e+01


