# vtk DataFile Version 2.0
Calculation C:\Users\johan\Documents\GitHub\TOCHNOG\standsicherheit_phiC at time 6.000000000000e+00 
ASCII
DATASET UNSTRUCTURED_GRID
Field FieldData 1
Time 1 1 double
6.000000000000e+00

POINTS 1137 float
0.0 0.0 0.0 
5.000000000000e+01 -1.000000000000e+01 0.0 
0.0 -2.000000000000e+01 0.0 
5.000000000000e+01 -2.000000000000e+01 0.0 
0.0 -9.999999999991e-01 0.0 
0.0 -1.999999999998e+00 0.0 
0.0 -2.999999999997e+00 0.0 
0.0 -3.999999999994e+00 0.0 
0.0 -4.999999999991e+00 0.0 
0.0 -5.999999999988e+00 0.0 
0.0 -6.999999999985e+00 0.0 
0.0 -7.999999999982e+00 0.0 
0.0 -8.999999999983e+00 0.0 
0.0 -9.999999999985e+00 0.0 
0.0 -1.099999999999e+01 0.0 
0.0 -1.199999999999e+01 0.0 
0.0 -1.299999999999e+01 0.0 
0.0 -1.399999999999e+01 0.0 
0.0 -1.499999999999e+01 0.0 
0.0 -1.599999999999e+01 0.0 
0.0 -1.700000000000e+01 0.0 
0.0 -1.800000000000e+01 0.0 
0.0 -1.900000000000e+01 0.0 
4.900000000001e+01 -2.000000000000e+01 0.0 
4.800000000001e+01 -2.000000000000e+01 0.0 
4.700000000002e+01 -2.000000000000e+01 0.0 
4.600000000003e+01 -2.000000000000e+01 0.0 
4.500000000004e+01 -2.000000000000e+01 0.0 
4.400000000004e+01 -2.000000000000e+01 0.0 
4.300000000005e+01 -2.000000000000e+01 0.0 
4.200000000006e+01 -2.000000000000e+01 0.0 
4.100000000006e+01 -2.000000000000e+01 0.0 
4.000000000007e+01 -2.000000000000e+01 0.0 
3.900000000008e+01 -2.000000000000e+01 0.0 
3.800000000009e+01 -2.000000000000e+01 0.0 
3.700000000009e+01 -2.000000000000e+01 0.0 
3.600000000010e+01 -2.000000000000e+01 0.0 
3.500000000011e+01 -2.000000000000e+01 0.0 
3.400000000011e+01 -2.000000000000e+01 0.0 
3.300000000012e+01 -2.000000000000e+01 0.0 
3.200000000013e+01 -2.000000000000e+01 0.0 
3.100000000013e+01 -2.000000000000e+01 0.0 
3.000000000013e+01 -2.000000000000e+01 0.0 
2.900000000013e+01 -2.000000000000e+01 0.0 
2.800000000013e+01 -2.000000000000e+01 0.0 
2.700000000013e+01 -2.000000000000e+01 0.0 
2.600000000013e+01 -2.000000000000e+01 0.0 
2.500000000013e+01 -2.000000000000e+01 0.0 
2.400000000013e+01 -2.000000000000e+01 0.0 
2.300000000013e+01 -2.000000000000e+01 0.0 
2.200000000013e+01 -2.000000000000e+01 0.0 
2.100000000013e+01 -2.000000000000e+01 0.0 
2.000000000013e+01 -2.000000000000e+01 0.0 
1.900000000013e+01 -2.000000000000e+01 0.0 
1.800000000013e+01 -2.000000000000e+01 0.0 
1.700000000012e+01 -2.000000000000e+01 0.0 
1.600000000011e+01 -2.000000000000e+01 0.0 
1.500000000011e+01 -2.000000000000e+01 0.0 
1.400000000010e+01 -2.000000000000e+01 0.0 
1.300000000009e+01 -2.000000000000e+01 0.0 
1.200000000009e+01 -2.000000000000e+01 0.0 
1.100000000008e+01 -2.000000000000e+01 0.0 
1.000000000007e+01 -2.000000000000e+01 0.0 
9.000000000064e+00 -2.000000000000e+01 0.0 
8.000000000057e+00 -2.000000000000e+01 0.0 
7.000000000050e+00 -2.000000000000e+01 0.0 
6.000000000043e+00 -2.000000000000e+01 0.0 
5.000000000036e+00 -2.000000000000e+01 0.0 
4.000000000028e+00 -2.000000000000e+01 0.0 
3.000000000021e+00 -2.000000000000e+01 0.0 
2.000000000014e+00 -2.000000000000e+01 0.0 
1.000000000007e+00 -2.000000000000e+01 0.0 
5.000000000000e+01 -1.100000000000e+01 0.0 
5.000000000000e+01 -1.200000000000e+01 0.0 
5.000000000000e+01 -1.300000000000e+01 0.0 
5.000000000000e+01 -1.400000000000e+01 0.0 
5.000000000000e+01 -1.500000000000e+01 0.0 
5.000000000000e+01 -1.600000000000e+01 0.0 
5.000000000000e+01 -1.700000000000e+01 0.0 
5.000000000000e+01 -1.800000000000e+01 0.0 
5.000000000000e+01 -1.900000000000e+01 0.0 
2.000000000000e+01 0.0 0.0 
3.500000000000e+01 -1.000000000000e+01 0.0 
2.150000000000e+01 -1.000000000000e+00 0.0 
2.300000000000e+01 -2.000000000000e+00 0.0 
2.450000000000e+01 -3.000000000000e+00 0.0 
2.600000000000e+01 -4.000000000000e+00 0.0 
2.750000000000e+01 -5.000000000000e+00 0.0 
2.900000000000e+01 -6.000000000000e+00 0.0 
3.050000000000e+01 -7.000000000000e+00 0.0 
3.200000000000e+01 -8.000000000000e+00 0.0 
3.350000000000e+01 -9.000000000000e+00 0.0 
5.000000000000e+01 -5.000000000000e+00 0.0 
5.000000000000e+01 -6.000000000000e+00 0.0 
5.000000000000e+01 -7.000000000000e+00 0.0 
5.000000000000e+01 -8.000000000000e+00 0.0 
5.000000000000e+01 -9.000000000000e+00 0.0 
4.900000000000e+01 -1.000000000000e+01 0.0 
4.800000000000e+01 -1.000000000000e+01 0.0 
4.700000000000e+01 -1.000000000000e+01 0.0 
4.600000000000e+01 -1.000000000000e+01 0.0 
4.500000000000e+01 -1.000000000000e+01 0.0 
4.400000000000e+01 -1.000000000000e+01 0.0 
4.300000000000e+01 -1.000000000000e+01 0.0 
4.200000000000e+01 -1.000000000000e+01 0.0 
4.100000000000e+01 -1.000000000000e+01 0.0 
4.000000000000e+01 -1.000000000000e+01 0.0 
3.900000000000e+01 -1.000000000000e+01 0.0 
3.800000000000e+01 -1.000000000000e+01 0.0 
3.700000000000e+01 -1.000000000000e+01 0.0 
3.600000000000e+01 -1.000000000000e+01 0.0 
1.900000000000e+01 0.0 0.0 
1.800000000000e+01 0.0 0.0 
1.700000000000e+01 0.0 0.0 
1.600000000000e+01 0.0 0.0 
1.500000000000e+01 0.0 0.0 
1.400000000000e+01 0.0 0.0 
1.300000000000e+01 0.0 0.0 
1.200000000000e+01 0.0 0.0 
1.100000000000e+01 0.0 0.0 
1.000000000000e+01 0.0 0.0 
9.000000000000e+00 0.0 0.0 
8.000000000000e+00 0.0 0.0 
7.000000000000e+00 0.0 0.0 
6.000000000000e+00 0.0 0.0 
5.000000000000e+00 0.0 0.0 
4.000000000000e+00 0.0 0.0 
3.000000000000e+00 0.0 0.0 
2.000000000000e+00 0.0 0.0 
1.000000000000e+00 0.0 0.0 
2.847826086957e+01 -5.000000000000e+00 0.0 
2.945652173913e+01 -5.000000000000e+00 0.0 
3.043478260870e+01 -5.000000000000e+00 0.0 
3.141304347826e+01 -5.000000000000e+00 0.0 
3.239130434783e+01 -5.000000000000e+00 0.0 
3.336956521739e+01 -5.000000000000e+00 0.0 
3.434782608696e+01 -5.000000000000e+00 0.0 
3.532608695652e+01 -5.000000000000e+00 0.0 
3.630434782609e+01 -5.000000000000e+00 0.0 
3.728260869565e+01 -5.000000000000e+00 0.0 
3.826086956522e+01 -5.000000000000e+00 0.0 
3.923913043478e+01 -5.000000000000e+00 0.0 
4.021739130435e+01 -5.000000000000e+00 0.0 
4.119565217391e+01 -5.000000000000e+00 0.0 
4.217391304348e+01 -5.000000000000e+00 0.0 
4.315217391304e+01 -5.000000000000e+00 0.0 
4.413043478261e+01 -5.000000000000e+00 0.0 
4.510869565217e+01 -5.000000000000e+00 0.0 
4.608695652174e+01 -5.000000000000e+00 0.0 
4.706521739130e+01 -5.000000000000e+00 0.0 
4.804347826087e+01 -5.000000000000e+00 0.0 
4.902173913043e+01 -5.000000000000e+00 0.0 
4.900000000001e+01 -6.000000000000e+00 0.0 
4.800000000003e+01 -6.000000000000e+00 0.0 
4.700000000004e+01 -6.000000000000e+00 0.0 
4.600000000006e+01 -6.000000000000e+00 0.0 
4.500000000007e+01 -6.000000000000e+00 0.0 
4.400000000009e+01 -6.000000000000e+00 0.0 
4.300000000010e+01 -6.000000000000e+00 0.0 
4.200000000012e+01 -6.000000000000e+00 0.0 
4.100000000013e+01 -6.000000000000e+00 0.0 
4.000000000014e+01 -6.000000000000e+00 0.0 
3.900000000014e+01 -6.000000000000e+00 0.0 
3.800000000012e+01 -6.000000000000e+00 0.0 
3.700000000010e+01 -6.000000000000e+00 0.0 
3.600000000008e+01 -6.000000000000e+00 0.0 
3.500000000006e+01 -6.000000000000e+00 0.0 
3.400000000005e+01 -6.000000000000e+00 0.0 
3.300000000003e+01 -6.000000000000e+00 0.0 
3.200000000001e+01 -6.000000000000e+00 0.0 
3.100000000000e+01 -6.000000000000e+00 0.0 
3.000000000000e+01 -6.000000000000e+00 0.0 
3.147499999998e+01 -7.000000000000e+00 0.0 
3.244999999998e+01 -7.000000000000e+00 0.0 
3.342499999998e+01 -7.000000000000e+00 0.0 
3.439999999998e+01 -7.000000000000e+00 0.0 
3.537499999998e+01 -7.000000000000e+00 0.0 
3.634999999998e+01 -7.000000000000e+00 0.0 
3.732499999998e+01 -7.000000000000e+00 0.0 
3.829999999998e+01 -7.000000000000e+00 0.0 
3.927499999999e+01 -7.000000000000e+00 0.0 
4.024999999999e+01 -7.000000000000e+00 0.0 
4.122499999999e+01 -7.000000000000e+00 0.0 
4.219999999999e+01 -7.000000000000e+00 0.0 
4.317499999999e+01 -7.000000000000e+00 0.0 
4.414999999999e+01 -7.000000000000e+00 0.0 
4.512499999999e+01 -7.000000000000e+00 0.0 
4.609999999999e+01 -7.000000000000e+00 0.0 
4.707500000000e+01 -7.000000000000e+00 0.0 
4.805000000000e+01 -7.000000000000e+00 0.0 
4.902500000000e+01 -7.000000000000e+00 0.0 
4.900000000000e+01 -8.000000000000e+00 0.0 
4.800000000000e+01 -8.000000000000e+00 0.0 
4.700000000000e+01 -8.000000000000e+00 0.0 
4.600000000000e+01 -8.000000000000e+00 0.0 
4.500000000000e+01 -8.000000000000e+00 0.0 
4.400000000000e+01 -8.000000000000e+00 0.0 
4.300000000000e+01 -8.000000000000e+00 0.0 
4.200000000000e+01 -8.000000000000e+00 0.0 
4.100000000000e+01 -8.000000000000e+00 0.0 
4.000000000000e+01 -8.000000000000e+00 0.0 
3.900000000000e+01 -8.000000000000e+00 0.0 
3.800000000000e+01 -8.000000000000e+00 0.0 
3.700000000000e+01 -8.000000000000e+00 0.0 
3.600000000000e+01 -8.000000000000e+00 0.0 
3.500000000000e+01 -8.000000000000e+00 0.0 
3.400000000000e+01 -8.000000000000e+00 0.0 
3.300000000000e+01 -8.000000000000e+00 0.0 
3.447058823527e+01 -9.000000000000e+00 0.0 
3.544117647055e+01 -9.000000000000e+00 0.0 
3.641176470582e+01 -9.000000000000e+00 0.0 
3.738235294109e+01 -9.000000000000e+00 0.0 
3.835294117637e+01 -9.000000000000e+00 0.0 
3.932352941164e+01 -9.000000000000e+00 0.0 
4.029411764691e+01 -9.000000000000e+00 0.0 
4.126470588219e+01 -9.000000000000e+00 0.0 
4.223529411748e+01 -9.000000000000e+00 0.0 
4.320588235279e+01 -9.000000000000e+00 0.0 
4.417647058811e+01 -9.000000000000e+00 0.0 
4.514705882342e+01 -9.000000000000e+00 0.0 
4.611764705874e+01 -9.000000000000e+00 0.0 
4.708823529405e+01 -9.000000000000e+00 0.0 
4.805882352937e+01 -9.000000000000e+00 0.0 
4.902941176468e+01 -9.000000000000e+00 0.0 
2.075000000000e+01 -5.000000000006e-01 0.0 
2.225000000000e+01 -1.500000000000e+00 0.0 
2.375000000000e+01 -2.500000000000e+00 0.0 
2.525000000000e+01 -3.500000000000e+00 0.0 
2.675000000000e+01 -4.500000000000e+00 0.0 
2.825000000000e+01 -5.500000000000e+00 0.0 
2.975000000000e+01 -6.500000000000e+00 0.0 
3.125000000000e+01 -7.500000000000e+00 0.0 
3.275000000000e+01 -8.500000000000e+00 0.0 
3.425000000000e+01 -9.500000000000e+00 0.0 
2.226951693683e+01 -2.403913980114e+00 0.0 
1.650149491944e+01 -1.913490915758e+01 0.0 
1.050042386896e+01 -8.504605092970e-01 0.0 
1.553146524712e+01 -8.281255032105e-01 0.0 
1.150000000008e+01 -1.913397459621e+01 0.0 
2.530060260647e+01 -4.428336431260e+00 0.0 
8.651114563942e-01 -1.052096295641e+01 0.0 
2.050000000013e+01 -1.913397459622e+01 0.0 
2.819198729811e+01 -6.399519052838e+00 0.0 
2.445670302931e+01 -1.915649188023e+01 0.0 
3.117591465718e+01 -8.394293040695e+00 0.0 
7.465053044742e+00 -1.920411160581e+01 0.0 
6.398295709691e+00 -8.230098819370e-01 0.0 
2.849659607461e+01 -1.914296187762e+01 0.0 
3.418732642882e+01 -1.040265792588e+01 0.0 
8.386450935063e-01 -6.533605142809e+00 0.0 
9.178661865596e-01 -1.329769195597e+01 0.0 
3.149448624493e+01 -1.910466733764e+01 0.0 
3.552916747426e+01 -1.914628590759e+01 0.0 
4.449210346537e+01 -1.914359085008e+01 0.0 
4.140975975145e+01 -1.906941860733e+01 0.0 
3.847475958753e+01 -1.916622382724e+01 0.0 
3.653774794640e+01 -1.088712800241e+01 0.0 
4.047886341787e+01 -1.090139014048e+01 0.0 
4.348006339825e+01 -1.092792621489e+01 0.0 
4.919519968029e+01 -1.451526755068e+01 0.0 
4.500000000032e+00 -1.913397459621e+01 0.0 
1.856136921614e+01 -8.212235170404e-01 0.0 
3.499895312306e+00 -8.661165539723e-01 0.0 
9.076088696565e-01 -1.642306201891e+01 0.0 
4.655174095477e+01 -1.086183387525e+01 0.0 
9.430688970604e-01 -3.496112672958e+00 0.0 
3.353992337063e+01 -1.901202090820e+01 0.0 
2.249746016977e+01 -1.921262287282e+01 0.0 
2.650122741777e+01 -1.916123026018e+01 0.0 
1.863571384842e+01 -1.908325534840e+01 0.0 
1.450089971693e+01 -1.917691901860e+01 0.0 
1.350044695317e+01 -8.659695299584e-01 0.0 
3.849987469880e+01 -1.084154983397e+01 0.0 
9.454419857884e+00 -1.900818879936e+01 0.0 
4.917398660523e+01 -1.645692866081e+01 0.0 
8.500000000000e+00 -8.660254037844e-01 0.0 
8.660319230785e-01 -8.500111697188e+00 0.0 
4.649022621545e+01 -1.930506220113e+01 0.0 
2.667688107845e+01 -5.420288124331e+00 0.0 
2.379251615665e+01 -3.412225477429e+00 0.0 
2.966631491830e+01 -7.389030232731e+00 0.0 
3.267915035995e+01 -9.396934932445e+00 0.0 
2.074836922338e+01 -1.320054020319e+00 0.0 
4.915985743621e+01 -1.261973384855e+01 0.0 
2.527129768623e+00 -1.931592414663e+01 0.0 
1.538676247410e+00 -8.436956619311e-01 0.0 
4.908096641539e+01 -1.842484004551e+01 0.0 
3.478612492673e+01 -1.090889364140e+01 0.0 
3.409757055860e+01 -1.131991530427e+01 0.0 
3.501895309466e+01 -1.177687842717e+01 0.0 
3.407758073088e+01 -1.224293381580e+01 0.0 
3.484541875390e+01 -1.277051428430e+01 0.0 
3.400322025842e+01 -1.319022775640e+01 0.0 
3.321672625034e+01 -1.266779191233e+01 0.0 
3.315244139236e+01 -1.360984106532e+01 0.0 
3.236335186892e+01 -1.308463225210e+01 0.0 
3.478337442841e+01 -1.372341158982e+01 0.0 
3.230105923633e+01 -1.403023731610e+01 0.0 
3.150954055289e+01 -1.350301767700e+01 0.0 
3.144604792090e+01 -1.444931742516e+01 0.0 
3.065653897123e+01 -1.392357262981e+01 0.0 
3.071897610812e+01 -1.297447031198e+01 0.0 
2.986790411740e+01 -1.339226181535e+01 0.0 
2.993181466745e+01 -1.244703272398e+01 0.0 
2.908023061869e+01 -1.286254537734e+01 0.0 
2.901619051372e+01 -1.380881655279e+01 0.0 
2.822986160390e+01 -1.327695262116e+01 0.0 
2.829453476870e+01 -1.233265343811e+01 0.0 
2.744542905518e+01 -1.274510491105e+01 0.0 
2.751120089246e+01 -1.180368086886e+01 0.0 
2.666218649885e+01 -1.221619339205e+01 0.0 
2.672371209234e+01 -1.127125228527e+01 0.0 
2.587763216302e+01 -1.168539979114e+01 0.0 
2.581165585299e+01 -1.262994410089e+01 0.0 
2.502890882577e+01 -1.209827323619e+01 0.0 
2.509631327757e+01 -1.115492410304e+01 0.0 
2.424662989877e+01 -1.156630981079e+01 0.0 
2.431704046904e+01 -1.062389179334e+01 0.0 
2.346445438728e+01 -1.103427680694e+01 0.0 
2.339382552877e+01 -1.197964871788e+01 0.0 
2.260936050780e+01 -1.144513277642e+01 0.0 
2.268075012022e+01 -1.049911928216e+01 0.0 
2.182525737661e+01 -1.090920811464e+01 0.0 
2.189682319817e+01 -9.961716944568e+00 0.0 
2.104174127792e+01 -1.037266986667e+01 0.0 
2.111304367575e+01 -9.424179358711e+00 0.0 
2.025306185381e+01 -9.832727364719e+00 0.0 
2.018141124247e+01 -1.079140628871e+01 0.0 
1.938594498257e+01 -1.025147354112e+01 0.0 
1.946106490453e+01 -9.288010758448e+00 0.0 
1.858929958352e+01 -9.706319802516e+00 0.0 
1.851540991219e+01 -1.067205988724e+01 0.0 
1.771485303178e+01 -1.012504443115e+01 0.0 
1.764134552256e+01 -1.109360378538e+01 0.0 
1.683745148095e+01 -1.054496365337e+01 0.0 
1.691852964353e+01 -9.582555261178e+00 0.0 
1.603603813062e+01 -1.000160132379e+01 0.0 
1.595824239350e+01 -1.096750698862e+01 0.0 
1.515080624291e+01 -1.041639501931e+01 0.0 
1.523171602559e+01 -9.451711491453e+00 0.0 
1.434621060709e+01 -9.871956467464e+00 0.0 
1.426777178765e+01 -1.083749501371e+01 0.0 
1.345775282374e+01 -1.028803175500e+01 0.0 
1.354103873368e+01 -9.324918457162e+00 0.0 
1.265072018622e+01 -9.742612837270e+00 0.0 
1.257285762070e+01 -1.071557782384e+01 0.0 
1.175874815690e+01 -1.015972324288e+01 0.0 
1.184203019714e+01 -9.193604071377e+00 0.0 
1.094927709905e+01 -9.612103238656e+00 0.0 
1.086938022910e+01 -1.058685085646e+01 0.0 
1.005424098961e+01 -1.002939116380e+01 0.0 
9.977974613295e+00 -1.101324897989e+01 0.0 
1.012915646404e+01 -9.051815821181e+00 0.0 
9.237127782494e+00 -9.471239055559e+00 0.0 
9.308426593771e+00 -8.483376461131e+00 0.0 
8.418806073345e+00 -8.910712374517e+00 0.0 
2.253688464062e+01 -1.239459402279e+01 0.0 
8.495126726666e+00 -7.921646665254e+00 0.0 
9.389727383206e+00 -7.512103628377e+00 0.0 
7.601560812974e+00 -8.349460349344e+00 0.0 
7.525680547759e+00 -9.339736686940e+00 0.0 
7.677888324502e+00 -7.359727833346e+00 0.0 
6.782001206724e+00 -7.788454494773e+00 0.0 
6.858778622885e+00 -6.797338062822e+00 0.0 
2.196596590865e+01 -8.979025665442e+00 0.0 
2.816540108272e+01 -1.422634142353e+01 0.0 
5.961601194403e+00 -7.226824010712e+00 0.0 
6.038171749656e+00 -6.234825887079e+00 0.0 
6.936257279557e+00 -5.805287640737e+00 0.0 
6.115068918323e+00 -5.242109758768e+00 0.0 
3.564391741903e+01 -1.329240553876e+01 0.0 
3.558115605778e+01 -1.425902892003e+01 0.0 
3.645445282201e+01 -1.381970786460e+01 0.0 
3.639744204358e+01 -1.479198128612e+01 0.0 
3.727266909778e+01 -1.435399586226e+01 0.0 
5.216667013081e+00 -5.671788584287e+00 0.0 
3.220697293295e+01 -1.499594545107e+01 0.0 
3.551112158269e+01 -1.523479869250e+01 0.0 
2.836056961467e+01 -1.139032434851e+01 0.0 
2.516730388602e+01 -1.021382726837e+01 0.0 
1.844436907403e+01 -1.164097215196e+01 0.0 
5.885434318740e+00 -8.218694781467e+00 0.0 
5.064071066867e+00 -7.656614643901e+00 0.0 
4.988089103470e+00 -8.649722082718e+00 0.0 
1.079421050408e+01 -1.157014985435e+01 0.0 
9.902420005256e+00 -1.199903342656e+01 0.0 
1.071994252214e+01 -1.255727909771e+01 0.0 
9.826974788171e+00 -1.298659581767e+01 0.0 
1.064607883789e+01 -1.354595476388e+01 0.0 
9.751541265343e+00 -1.397556905071e+01 0.0 
8.932296185869e+00 -1.341553353988e+01 0.0 
8.856399248106e+00 -1.440570715508e+01 0.0 
8.036186803543e+00 -1.384470558472e+01 0.0 
1.057112875118e+01 -1.453516759081e+01 0.0 
1.146582585687e+01 -1.410539926903e+01 0.0 
7.959894480382e+00 -1.483563350928e+01 0.0 
7.138792279156e+00 -1.427465094140e+01 0.0 
7.062506792418e+00 -1.526615385482e+01 0.0 
6.240693558277e+00 -1.470508863040e+01 0.0 
6.316957575451e+00 -1.371212581281e+01 0.0 
5.418183007107e+00 -1.414253605022e+01 0.0 
5.494748364428e+00 -1.314886770603e+01 0.0 
1.756825565873e+01 -1.206433872514e+01 0.0 
1.837565773345e+01 -1.261356468266e+01 0.0 
1.749574831391e+01 -1.303769280014e+01 0.0 
1.830539187332e+01 -1.358828364284e+01 0.0 
1.742278925170e+01 -1.401367746928e+01 0.0 
1.823303007798e+01 -1.456432294258e+01 0.0 
1.734941694138e+01 -1.499213734361e+01 0.0 
1.653760041637e+01 -1.443920312098e+01 0.0 
3.056237977307e+01 -1.487132260174e+01 0.0 
1.866469084762e+01 -8.742953000418e+00 0.0 
1.953669694916e+01 -8.326038909849e+00 0.0 
1.874194303780e+01 -7.780688158966e+00 0.0 
1.961032016741e+01 -7.366854697285e+00 0.0 
1.881715755159e+01 -6.821102209649e+00 0.0 
1.968369797150e+01 -6.407747217358e+00 0.0 
1.889237123259e+01 -5.858375520026e+00 0.0 
1.802038875366e+01 -6.276202618170e+00 0.0 
1.809793837984e+01 -5.307629520489e+00 0.0 
1.721985207997e+01 -5.728242054488e+00 0.0 
1.729850893523e+01 -4.756990819347e+00 0.0 
1.641745664240e+01 -5.174636548624e+00 0.0 
2.495978509456e+01 -1.304406404294e+01 0.0 
1.911567814831e+01 -1.413854250293e+01 0.0 
1.904387332608e+01 -1.511463127723e+01 0.0 
1.992115934240e+01 -1.468788025898e+01 0.0 
7.013706899628e+00 -4.812582868662e+00 0.0 
5.342091874585e+00 -1.513658157269e+01 0.0 
1.139098043784e+01 -1.509488509480e+01 0.0 
1.228151810610e+01 -1.465617481983e+01 0.0 
1.646373110164e+01 -1.541993323337e+01 0.0 
5.293328636712e+00 -4.678385108584e+00 0.0 
1.975965862987e+01 -5.448124345648e+00 0.0 
2.054318374236e+01 -5.992561293251e+00 0.0 
3.721453439063e+01 -1.533216152738e+01 0.0 
3.809302733893e+01 -1.489235527381e+01 0.0 
1.220852788900e+01 -1.565304565230e+01 0.0 
4.394120899730e+00 -5.108397613210e+00 0.0 
8.779354620288e+00 -1.539524721159e+01 0.0 
1.817791047702e+01 -4.338570146253e+00 0.0 
4.518860013839e+00 -1.457343189307e+01 0.0 
4.442712140414e+00 -1.556841391069e+01 0.0 
8.115343466391e+00 -1.285760324283e+01 0.0 
1.985334703171e+01 -1.566478400426e+01 0.0 
2.071953850276e+01 -1.522074243119e+01 0.0 
1.634012953883e+01 -6.154777738301e+00 0.0 
1.553479994708e+01 -5.593730508879e+00 0.0 
1.561265946942e+01 -4.617761762647e+00 0.0 
1.470674212978e+01 -5.064576488228e+00 0.0 
1.464498299883e+01 -6.026514471420e+00 0.0 
1.383271561817e+01 -5.467796261169e+00 0.0 
1.389241253067e+01 -4.504338666645e+00 0.0 
1.301868735463e+01 -4.907185188626e+00 0.0 
1.294514184846e+01 -5.888160903592e+00 0.0 
1.212955968622e+01 -5.328262335277e+00 0.0 
1.220721122383e+01 -4.341264976687e+00 0.0 
1.131324345897e+01 -4.766773516508e+00 0.0 
5.266597955397e+00 -1.613148974258e+01 0.0 
1.737805990867e+01 -3.786677807525e+00 0.0 
3.078438094513e+01 -1.203225297748e+01 0.0 
1.131569882285e+01 -1.608511932110e+01 0.0 
1.728478341782e+01 -1.596017432313e+01 0.0 
3.803465906019e+01 -1.587509751228e+01 0.0 
3.891681276677e+01 -1.543395196905e+01 0.0 
3.897340985302e+01 -1.444710288980e+01 0.0 
3.980095968193e+01 -1.499059496613e+01 0.0 
3.974334598189e+01 -1.597921884150e+01 0.0 
4.062964983717e+01 -1.553518690417e+01 0.0 
4.068729602479e+01 -1.454434445295e+01 0.0 
4.151772679790e+01 -1.508974196007e+01 0.0 
4.157505195739e+01 -1.409694289912e+01 0.0 
4.240699932656e+01 -1.464347955968e+01 0.0 
4.234898051011e+01 -1.563721375790e+01 0.0 
4.323934606035e+01 -1.519082036405e+01 0.0 
4.329740528208e+01 -1.419587509788e+01 0.0 
4.413056841369e+01 -1.474359631875e+01 0.0 
4.418850110108e+01 -1.374786684042e+01 0.0 
4.502219770667e+01 -1.429605103525e+01 0.0 
4.496411937907e+01 -1.529215882720e+01 0.0 
4.490027319897e+00 -4.154167794594e+00 0.0 
1.565080385988e+01 -1.486411982419e+01 0.0 
1.557610691279e+01 -1.584855627870e+01 0.0 
4.195350646612e+00 -8.089117689096e+00 0.0 
4.124027797830e+00 -9.082831955007e+00 0.0 
4.917944318925e+00 -9.643530901533e+00 0.0 
4.020105689502e+00 -1.007439673661e+01 0.0 
4.587185899277e+01 -1.484039992728e+01 0.0 
4.580078661551e+01 -1.584043391042e+01 0.0 
2.061956522375e+01 -5.046701343981e+00 0.0 
2.139572955529e+01 -5.579553449826e+00 0.0 
3.715344357292e+01 -1.631485124583e+01 0.0 
3.618886196443e+00 -1.500471207167e+01 0.0 
3.695606940204e+00 -1.400939692294e+01 0.0 
2.438890661143e+01 -9.686110599723e+00 0.0 
2.523267572778e+01 -9.276766000622e+00 0.0 
2.446094171539e+01 -8.751904591412e+00 0.0 
2.529089822738e+01 -8.321495612547e+00 0.0 
2.606882688827e+01 -8.864724051119e+00 0.0 
2.452116646430e+01 -7.792756462004e+00 0.0 
1.235543269617e+01 -1.365845617339e+01 0.0 
4.318116874181e+01 -1.618567469992e+01 0.0 
7.835066111909e+00 -5.376366223896e+00 0.0 
7.905687335704e+00 -4.382539065697e+00 0.0 
3.542640009567e+00 -1.600035116542e+01 0.0 
1.572431503071e+01 -1.388358386695e+01 0.0 
2.574684696680e+01 -1.357896141127e+01 0.0 
2.488842657651e+01 -1.399674354505e+01 0.0 
2.568301775611e+01 -1.453552048595e+01 0.0 
2.481535572009e+01 -1.495542756508e+01 0.0 
2.561729699688e+01 -1.549784648532e+01 0.0 
2.474623061296e+01 -1.592058894178e+01 0.0 
2.394234041695e+01 -1.537572575827e+01 0.0 
2.065825452567e+01 -1.621899055217e+01 0.0 
2.387180528935e+01 -1.634552264687e+01 0.0 
4.585364400844e+01 -1.383912334080e+01 0.0 
1.998744432052e+01 -1.370317155541e+01 0.0 
1.205356951443e+01 -6.313580285498e+00 0.0 
5.396543905849e+00 -3.731818611283e+00 0.0 
1.139652573295e+01 -3.745819399350e+00 0.0 
3.574124306703e+00 -4.551456826011e+00 0.0 
3.494140761930e+00 -5.539787055649e+00 0.0 
1.213651452413e+01 -1.664505033022e+01 0.0 
2.555045568519e+01 -1.646529356744e+01 0.0 
2.641671114986e+01 -1.603899382371e+01 0.0 
2.612920721894e+01 -7.906435260873e+00 0.0 
2.690339829698e+01 -8.456969591431e+00 0.0 
1.978024383368e+01 -1.664410216353e+01 0.0 
3.732829979082e+01 -1.336926601859e+01 0.0 
4.074336584605e+01 -1.355133328401e+01 0.0 
4.163204691081e+01 -1.310280943992e+01 0.0 
3.773826114429e+00 -3.493444309145e+00 0.0 
1.228783001032e+01 -3.374822835872e+00 0.0 
4.057110462520e+01 -1.652588478000e+01 0.0 
2.132535497898e+01 -6.523623360525e+00 0.0 
2.216932532211e+01 -6.110044769206e+00 0.0 
1.825781152128e+01 -3.370146817147e+00 0.0 
1.745679445888e+01 -2.812942552063e+00 0.0 
4.666517057280e+01 -1.539981381543e+01 0.0 
4.660575894464e+01 -1.639014410186e+01 0.0 
4.838230979954e+00 -1.063643436446e+01 0.0 
3.938942630206e+00 -1.106778981745e+01 0.0 
1.302967218620e+01 -1.621373452436e+01 0.0 
1.049548003190e+01 -4.204825123240e+00 0.0 
4.573571907195e+01 -1.683820511148e+01 0.0 
1.483686335807e+01 -1.430849689310e+01 0.0 
1.490982658890e+01 -1.332679386284e+01 0.0 
3.190805600162e+00 -9.510968358545e+00 0.0 
2.146625721848e+01 -4.642437303115e+00 0.0 
2.069866208266e+01 -4.111852942193e+00 0.0 
1.286859345584e+01 -6.873252723348e+00 0.0 
1.041794493184e+01 -5.194814260291e+00 0.0 
2.671081808965e+00 -4.976806516331e+00 0.0 
1.295786792925e+01 -1.720506531799e+01 0.0 
3.968438206511e+01 -1.696869067241e+01 0.0 
2.308550456051e+01 -1.579963151273e+01 0.0 
2.315593682844e+01 -1.482967445235e+01 0.0 
2.299471449450e+01 -1.677069968132e+01 0.0 
1.057344714696e+01 -3.214252277840e+00 0.0 
1.124057603753e+01 -1.707713739755e+01 0.0 
2.718402535754e+00 -1.543629882103e+01 0.0 
2.638549692805e+01 -1.696744916809e+01 0.0 
2.723416349007e+01 -1.658104204545e+01 0.0 
2.210193351704e+01 -7.046769643417e+00 0.0 
2.295180925161e+01 -6.657397605239e+00 0.0 
2.301355235833e+01 -5.709111896800e+00 0.0 
2.379052718281e+01 -6.254965406962e+00 0.0 
3.243528601237e+01 -1.214181853533e+01 0.0 
2.287977995457e+01 -7.583722368300e+00 0.0 
2.999876029544e+01 -1.150837653096e+01 0.0 
3.084435366963e+01 -1.109693775882e+01 0.0 
3.006650579669e+01 -1.057778994262e+01 0.0 
2.683802665066e+01 -9.386863216633e+00 0.0 
2.768641973621e+01 -8.988883915666e+00 0.0 
2.040296980397e+01 -7.903629133404e+00 0.0 
1.925235024054e+01 -1.218872783130e+01 0.0 
5.735667000424e+00 -1.020577277283e+01 0.0 
6.396559909872e+00 -1.272326295703e+01 0.0 
1.161199420714e+01 -1.212812778229e+01 0.0 
4.229046132615e+01 -1.663084237572e+01 0.0 
4.312275399692e+01 -1.718087491556e+01 0.0 
4.335502068163e+01 -1.320039231514e+01 0.0 
4.424630298089e+01 -1.275160688731e+01 0.0 
7.090116643816e+00 -3.818998061530e+00 0.0 
7.989472176569e+00 -3.389238711200e+00 0.0 
9.085824861778e+00 -1.144036167408e+01 0.0 
1.041972423731e+01 -1.651614080893e+01 0.0 
3.797525112640e+01 -1.686052038746e+01 0.0 
3.709114253394e+01 -1.730125999865e+01 0.0 
3.626966748340e+01 -1.675477052919e+01 0.0 
1.385164591440e+01 -1.677597757552e+01 0.0 
1.787152588784e+01 -8.198993896093e+00 0.0 
1.668849729812e+01 -1.248560611628e+01 0.0 
1.659546177905e+01 -3.232482605530e+00 0.0 
2.332214717345e+01 -1.292598167641e+01 0.0 
7.168238450786e+00 -2.824711686516e+00 0.0 
2.894878403906e+01 -1.475427524446e+01 0.0 
2.646763248247e+00 -1.643270107952e+01 0.0 
3.467431944285e+00 -1.699648837348e+01 0.0 
2.059475877282e+01 -1.719473628526e+01 0.0 
3.333868355437e+01 -1.080596971682e+01 0.0 
2.246451062637e+01 -1.334557761546e+01 0.0 
2.167821896388e+01 -1.280847834858e+01 0.0 
3.089653185767e+01 -1.017198487212e+01 0.0 
3.012604365669e+01 -9.657298805968e+00 0.0 
2.929627299435e+01 -1.006100135274e+01 0.0 
2.936201435219e+01 -9.136748899251e+00 0.0 
1.198219052702e+01 -7.291887238230e+00 0.0 
1.116702076035e+01 -6.731976101053e+00 0.0 
2.551388807505e+01 -1.746927036981e+01 0.0 
2.378639090370e+01 -1.728678807149e+01 0.0 
2.718543627188e+01 -1.748668016909e+01 0.0 
2.804681050301e+01 -1.712626668293e+01 0.0 
1.970737034667e+01 -1.762317646822e+01 0.0 
1.889535776135e+01 -1.707158098231e+01 0.0 
2.593777711283e+00 -5.971157087874e+00 0.0 
2.773468281110e+01 -8.067164273938e+00 0.0 
4.051205884347e+01 -1.751819982458e+01 0.0 
3.166903145421e+01 -1.068032992414e+01 0.0 
1.033042452886e+01 -1.748285844336e+01 0.0 
9.519274604626e+00 -1.694349240233e+01 0.0 
1.668308673328e+01 -2.255861778986e+00 0.0 
1.570531902832e+01 -2.676795860126e+00 0.0 
4.655826903379e+01 -1.736656245706e+01 0.0 
2.384148070773e+01 -5.328744256413e+00 0.0 
2.460255123641e+01 -5.852182672816e+00 0.0 
2.306638135119e+01 -4.798935440613e+00 0.0 
8.467720450578e-01 -1.849576263072e+01 0.0 
4.849657322345e+01 -1.084860705506e+01 0.0 
2.565860899507e+00 -1.742859793981e+01 0.0 
2.764418872564e+01 -9.927142821799e+00 0.0 
4.565165880064e+01 -1.785336695404e+01 0.0 
2.162231831329e+01 -1.376528337468e+01 0.0 
2.360646352969e+01 -9.136041963102e+00 0.0 
1.392738739903e+01 -1.578285505772e+01 0.0 
4.756405947478e+01 -1.683706841809e+01 0.0 
4.740895034054e+01 -1.793766756892e+01 0.0 
4.080779328826e+01 -1.257387192544e+01 0.0 
4.168907939671e+01 -1.210739129181e+01 0.0 
3.991197722154e+01 -1.300815793917e+01 0.0 
1.905536506762e+01 -3.940076697685e+00 0.0 
1.923879596617e+01 -2.875000734166e+00 0.0 
4.401386745746e+01 -1.673483229438e+01 0.0 
4.247233362525e+00 -7.094581653070e+00 0.0 
3.286051630211e+00 -7.635300020553e+00 0.0 
9.609533347623e+00 -4.594311677967e+00 0.0 
9.523554636369e+00 -5.595597029530e+00 0.0 
5.660336628893e+00 -1.119290329628e+01 0.0 
6.558070063295e+00 -1.076385809362e+01 0.0 
2.809866407414e+01 -1.518037766799e+01 0.0 
2.888868674504e+01 -1.570360690070e+01 0.0 
2.654431550819e+01 -1.411217777162e+01 0.0 
1.402158265969e+01 -1.375404617952e+01 0.0 
1.409592494026e+01 -1.277071998942e+01 0.0 
1.499355196178e+01 -1.235270737023e+01 0.0 
4.221535326155e+01 -1.759335617494e+01 0.0 
4.305583287033e+01 -1.822663146802e+01 0.0 
1.280748808359e+01 -7.834332838285e+00 0.0 
1.368988389326e+01 -7.420529606172e+00 0.0 
1.110091796060e+01 -7.683966794328e+00 0.0 
3.963446145980e+01 -1.794331310122e+01 0.0 
3.423932362213e+00 -1.796415590455e+01 0.0 
4.280814572302e+00 -1.752272834860e+01 0.0 
8.050136380041e+00 -2.421582378631e+00 0.0 
8.888674091650e+00 -2.984264211327e+00 0.0 
2.152839430898e+01 -3.732609965436e+00 0.0 
2.077799585292e+01 -3.183896021866e+00 0.0 
3.618719395821e+01 -1.770276572576e+01 0.0 
3.538165138340e+01 -1.718709995539e+01 0.0 
3.702925326420e+01 -1.828844288807e+01 0.0 
1.756739438711e+00 -5.353284859169e+00 0.0 
2.233710191104e+01 -1.527265621324e+01 0.0 
1.389483555057e+01 -1.771797164730e+01 0.0 
1.475634224300e+01 -1.728357428390e+01 0.0 
1.298797563052e+01 -1.825968924755e+01 0.0 
2.145331271866e+01 -1.673705379077e+01 0.0 
2.133282821169e+01 -1.769400773673e+01 0.0 
2.292139194136e+01 -1.774915400288e+01 0.0 
1.750750053243e+01 -1.861475593469e+00 0.0 
4.830478841772e+01 -1.752611802221e+01 0.0 
4.341203507805e+01 -1.220326745522e+01 0.0 
1.685254151866e+01 -1.443085301632e+00 0.0 
4.431538535165e+01 -1.171841387375e+01 0.0 
4.511308610496e+01 -1.229557320599e+01 0.0 
4.510133242889e+01 -1.123680627466e+01 0.0 
1.846818030617e+00 -4.410877617069e+00 0.0 
3.995468694584e+01 -1.186571542989e+01 0.0 
3.901387459804e+01 -1.242507616755e+01 0.0 
8.966735877533e+00 -1.837818700423e+00 0.0 
4.049310011091e+01 -1.848269508791e+01 0.0 
7.278862053803e+00 -1.918523922691e+00 0.0 
6.429715522129e+00 -2.316676521184e+00 0.0 
9.443505505022e+00 -1.792198868094e+01 0.0 
8.620386951051e+00 -1.737590365556e+01 0.0 
8.571868171503e+00 -1.834436667826e+01 0.0 
7.758629848526e+00 -1.775677907213e+01 0.0 
7.806648388584e+00 -1.680761266021e+01 0.0 
6.908555145436e+00 -1.723746463044e+01 0.0 
4.251709122090e+01 -1.156937480156e+01 0.0 
6.931136405615e+00 -1.832465719263e+01 0.0 
6.015545461353e+00 -1.768865355295e+01 0.0 
5.960535926343e+00 -1.872011001764e+01 0.0 
3.023253444786e+01 -8.761960642196e+00 0.0 
2.454622702599e+01 -6.749421992767e+00 0.0 
2.537499741604e+01 -6.347634963783e+00 0.0 
2.544077378460e+01 -5.431358513649e+00 0.0 
2.801367161747e+01 -1.820907270221e+01 0.0 
2.884507806914e+01 -1.762032095326e+01 0.0 
1.821474531936e+00 -1.588901260460e+01 0.0 
1.821006262604e+00 -1.489370287756e+01 0.0 
4.599962488908e+01 -1.176478780598e+01 0.0 
4.705457470007e+01 -1.172182804229e+01 0.0 
4.667668314802e+01 -1.263464558483e+01 0.0 
4.759648056504e+01 -1.252380987933e+01 0.0 
4.728041618103e+01 -1.341928568376e+01 0.0 
4.825209352360e+01 -1.330491640804e+01 0.0 
4.778118233428e+01 -1.420151961695e+01 0.0 
2.388192727579e+01 -1.826934810142e+01 0.0 
2.381714684947e+01 -4.385917965223e+00 0.0 
3.172733219247e+01 -9.758744265248e+00 0.0 
1.882012070658e+01 -1.805540597212e+01 0.0 
1.805667505243e+01 -1.742221226236e+01 0.0 
2.852599958080e+01 -8.597196079481e+00 0.0 
2.856486123437e+01 -7.661382718527e+00 0.0 
1.111792842875e+01 -1.818223852980e+01 0.0 
2.203322722466e+01 -7.986646678802e+00 0.0 
3.955703676900e+01 -1.903246763601e+01 0.0 
1.944842206513e+01 -8.038750575182e-01 0.0 
1.909882767783e+01 -1.746322740933e+00 0.0 
2.281147422941e+01 -8.525912918334e+00 0.0 
2.850633001468e+01 -9.533271335986e+00 0.0 
2.532883344309e+01 -7.308951659710e+00 0.0 
2.620475466461e+01 -6.979208585400e+00 0.0 
1.396278270396e+01 -1.475095389807e+01 0.0 
9.791001166724e+00 -2.554159793552e+00 0.0 
2.229293380421e+01 -4.269762271052e+00 0.0 
4.677238984118e+01 -1.430071795514e+01 0.0 
2.228658385918e+01 -3.344747535984e+00 0.0 
8.940223674553e-01 -1.543595733415e+01 0.0 
2.118566862474e+01 -8.435876987696e+00 0.0 
2.678325936437e+01 -1.032621195706e+01 0.0 
2.223400220487e+01 -5.179046761770e+00 0.0 
2.375370625384e+01 -7.251580562134e+00 0.0 
3.156971327386e+01 -1.255534750737e+01 0.0 
3.328226391312e+01 -1.172914813316e+01 0.0 
3.250948774219e+01 -1.120157009348e+01 0.0 
2.032993445717e+01 -8.867880112202e+00 0.0 
2.697226974856e+01 -7.536633082045e+00 0.0 
2.707377810386e+01 -6.590835263295e+00 0.0 
2.914099246827e+01 -1.191678458549e+01 0.0 
3.544824072239e+01 -1.621126558525e+01 0.0 
3.456511855436e+01 -1.665054783843e+01 0.0 
3.448395810225e+01 -1.759117813016e+01 0.0 
3.368378673938e+01 -1.708037781328e+01 0.0 
3.375560452567e+01 -1.610973066913e+01 0.0 
3.288001547988e+01 -1.654324255651e+01 0.0 
3.282475929147e+01 -1.749725654692e+01 0.0 
3.199880906313e+01 -1.697294088625e+01 0.0 
3.197001272932e+01 -1.811667776864e+01 0.0 
3.111884713021e+01 -1.742166785755e+01 0.0 
3.120418962865e+01 -1.642155709385e+01 0.0 
3.034666704371e+01 -1.683123833816e+01 0.0 
3.026224379976e+01 -1.772592851714e+01 0.0 
3.046632362943e+01 -1.582232843075e+01 0.0 
1.961344017324e+01 -1.857459447985e+01 0.0 
2.274975894774e+01 -9.532738811922e+00 0.0 
1.833923246887e+01 -2.396746883672e+00 0.0 
1.988859500848e+01 -2.249244376594e+00 0.0 
2.758045562861e+01 -1.086434261689e+01 0.0 
3.247300178163e+01 -1.909930104252e+01 0.0 
3.461947482503e+01 -1.911879848019e+01 0.0 
2.047161538662e+01 -6.941478180358e+00 0.0 
2.750230940214e+01 -1.915490590764e+01 0.0 
3.165081350803e+01 -1.161860780120e+01 0.0 
1.897456727641e+01 -4.889634688522e+00 0.0 
2.549338539756e+01 -1.914858252089e+01 0.0 
3.462873135081e+01 -1.567482276144e+01 0.0 
3.384432415243e+01 -1.512280684518e+01 0.0 
3.471433767690e+01 -1.469086942990e+01 0.0 
3.651470373046e+01 -1.918207952149e+01 0.0 
3.901742690249e+01 -1.345028556517e+01 0.0 
2.153224102692e+01 -1.920169709333e+01 0.0 
1.918382939341e+01 -1.316226275662e+01 0.0 
2.005389162382e+01 -1.271962165174e+01 0.0 
2.011472087878e+01 -1.175029352900e+01 0.0 
3.210679478412e+01 -1.598038618242e+01 0.0 
1.752175226543e+01 -1.914713022656e+01 0.0 
1.696897240059e+01 -1.832772588765e+01 0.0 
1.599682523337e+01 -1.832599992024e+01 0.0 
1.644507199462e+01 -1.743697981535e+01 0.0 
1.549987712903e+01 -1.915192375101e+01 0.0 
3.050250861901e+01 -1.918943550234e+01 0.0 
2.949944061527e+01 -1.922950455235e+01 0.0 
1.375892575273e+01 -6.447160534926e+00 0.0 
1.457223670180e+01 -7.006709243857e+00 0.0 
1.450818793236e+01 -7.965943451779e+00 0.0 
1.538804712402e+01 -7.553409623699e+00 0.0 
1.545817644768e+01 -6.580929593419e+00 0.0 
1.626506893751e+01 -7.129032608911e+00 0.0 
1.619833811522e+01 -8.086588580887e+00 0.0 
1.714448609609e+01 -6.697429609777e+00 0.0 
2.887616543568e+01 -1.668015232137e+01 0.0 
1.349814589130e+01 -1.918225301544e+01 0.0 
1.153887772210e+01 -1.311384581217e+01 0.0 
1.242708159886e+01 -1.267046795531e+01 0.0 
1.249799674267e+01 -1.169005616014e+01 0.0 
6.631723893693e+00 -9.774184881867e+00 0.0 
7.451471631867e+00 -1.033148796006e+01 0.0 
7.377795355458e+00 -1.132196345268e+01 0.0 
5.810931797536e+00 -9.211654212252e+00 0.0 
2.402683899133e+01 -1.441378562320e+01 0.0 
1.249768692036e+01 -1.917388426624e+01 0.0 
1.580373499437e+01 -1.290751860664e+01 0.0 
8.344650507834e+00 -9.898403995170e+00 0.0 
3.750622115305e+01 -1.086526401533e+01 0.0 
3.699391251667e+01 -1.171695900794e+01 0.0 
3.606517829518e+01 -1.173717504500e+01 0.0 
3.650257641795e+01 -1.270047380221e+01 0.0 
3.808951488918e+01 -1.183518714175e+01 0.0 
4.760380962420e+00 -1.162484888315e+01 0.0 
3.861210370848e+00 -1.205657631736e+01 0.0 
3.038284309476e+00 -1.149851280664e+01 0.0 
2.961598794889e+00 -1.248856794980e+01 0.0 
2.138953225512e+00 -1.193212674534e+01 0.0 
2.227383593457e+00 -1.096258903918e+01 0.0 
2.043265419276e+00 -1.292158472959e+01 0.0 
1.252449446028e+00 -1.225502002753e+01 0.0 
3.949985210740e+01 -1.086594001795e+01 0.0 
1.453499444792e+01 -8.768805922472e-01 0.0 
1.403518950933e+01 -1.749965556633e+00 0.0 
1.300715031023e+01 -1.714737233040e+00 0.0 
1.350929389899e+01 -2.527443911291e+00 0.0 
1.449600910711e+01 -2.595486162864e+00 0.0 
1.395693872901e+01 -3.484211041558e+00 0.0 
1.495105865208e+01 -3.364609636216e+00 0.0 
1.508822528740e+01 -1.766586020494e+00 0.0 
1.250223858430e+01 -8.634590186802e-01 0.0 
1.200279523409e+01 -1.709044504992e+00 0.0 
1.150086239419e+01 -8.592789190668e-01 0.0 
1.101482754194e+01 -1.677730591922e+00 0.0 
1.148018564526e+01 -2.659323866909e+00 0.0 
8.800552119754e+00 -3.989875954728e+00 0.0 
3.452790439430e+00 -1.901136170646e+01 0.0 
8.658451825200e-01 -9.503462241795e+00 0.0 
1.694787786797e+00 -9.000589234502e+00 0.0 
1.703436717094e+00 -8.038819004041e+00 0.0 
2.594197971110e+00 -8.563955242845e+00 0.0 
1.630513735412e+00 -9.907244747511e+00 0.0 
8.566859292791e-01 -7.512203837972e+00 0.0 
1.685461277022e+00 -7.164280248030e+00 0.0 
2.506394468801e+00 -8.623386730818e-01 0.0 
2.007475081581e+00 -1.727729545205e+00 0.0 
9.211534699767e-01 -1.628791366312e+00 0.0 
1.500000000020e+00 -2.598063549486e+00 0.0 
2.482078929963e+00 -2.553580088725e+00 0.0 
2.999795253092e+00 -1.732169015019e+00 0.0 
3.999712607169e+00 -1.728832897453e+00 0.0 
4.499752199340e+00 -8.656478679175e-01 0.0 
4.964377774841e+00 -1.730129617941e+00 0.0 
4.425017908337e+00 -2.597541756243e+00 0.0 
5.446573195014e+00 -8.410144840023e-01 0.0 
4.915722346614e+01 -1.550640962770e+01 0.0 
4.826794919243e+01 -1.600000000000e+01 0.0 
1.053139533193e+01 -1.911782884365e+01 0.0 
4.156049861949e+01 -1.095160998589e+01 0.0 
9.494526624416e+00 -8.650570090219e-01 0.0 
4.555762166964e+01 -1.897098103585e+01 0.0 
4.250656411371e+01 -1.914387356218e+01 0.0 
4.350906466345e+01 -1.917234727395e+01 0.0 
8.759665722424e-01 -1.746422130609e+01 0.0 
1.698936011838e+00 -1.795012186674e+01 0.0 
4.742476811029e+01 -1.900090177972e+01 0.0 
7.749196752349e+00 -6.368049313489e+00 0.0 
3.361572113416e+01 -1.798765193915e+01 0.0 
4.484660149212e+01 -1.728661231383e+01 0.0 
1.984038172228e+01 -4.502575320116e+00 0.0 
1.035080352627e+01 -6.166639575753e+00 0.0 
2.753558010652e+00 -1.444909521181e+01 0.0 
7.217069543032e+00 -1.328635391078e+01 0.0 
4.364336727739e+00 -1.655585677381e+01 0.0 
4.595208426108e+00 -1.357919665443e+01 0.0 
6.164967006980e+00 -1.569873454630e+01 0.0 
1.487855768353e+01 -1.826523774028e+01 0.0 
2.791876456372e+00 -4.019632415181e+00 0.0 
4.246464893515e+01 -1.364898659620e+01 0.0 
4.503855590351e+01 -1.329552780944e+01 0.0 
4.407239109604e+01 -1.573900004093e+01 0.0 
5.141054449252e+00 -6.664290382472e+00 0.0 
3.141083947149e+00 -1.055790764912e+01 0.0 
6.196463198741e+00 -4.256497932609e+00 0.0 
2.599618716181e+01 -1.836893455464e+01 0.0 
2.923057372337e+01 -1.098461757645e+01 0.0 
1.168343877486e+01 -1.114079645041e+01 0.0 
6.706222096238e+00 -8.780364234441e+00 0.0 
8.567858614669e+00 -6.943121440850e+00 0.0 
1.123755132901e+01 -5.753525820030e+00 0.0 
2.353456234423e+01 -1.008536320953e+01 0.0 
9.162073319168e+00 -1.045593739109e+01 0.0 
9.676343469685e+00 -1.496493008366e+01 0.0 
4.490637882905e+01 -1.628778970202e+01 0.0 
7.398129387772e+00 -9.639977982323e-01 0.0 
1.049641705805e+01 -1.552503975272e+01 0.0 
9.010356286268e+00 -1.242805042052e+01 0.0 
3.985573925497e+01 -1.399863651620e+01 0.0 
1.816196318262e+01 -1.554066497931e+01 0.0 
1.306332244168e+01 -3.963646550326e+00 0.0 
4.145850903932e+01 -1.608094559275e+01 0.0 
3.794664933633e+01 -1.779020121986e+01 0.0 
3.819614412903e+01 -1.290749321016e+01 0.0 
6.270014188119e+00 -3.255093186826e+00 0.0 
4.251165370388e+01 -1.263870364997e+01 0.0 
1.207347709171e+01 -1.763942826023e+01 0.0 
3.633240829927e+01 -1.577330481104e+01 0.0 
4.319052668832e+00 -6.101812561904e+00 0.0 
1.676492415806e+01 -1.151547901392e+01 0.0 
2.594059220037e+01 -1.074225223009e+01 0.0 
3.340750911501e+01 -9.898764354137e+00 0.0 
4.397619591281e+01 -1.769773736461e+01 0.0 
2.175611595028e+01 -1.185718747128e+01 0.0 
1.641818733106e+01 -1.640685203215e+01 0.0 
1.661211421753e+01 -1.346121366338e+01 0.0 
3.428853504935e+00 -6.551993389271e+00 0.0 
8.700728832502e+00 -1.638460872825e+01 0.0 
1.931369795309e+01 -1.121629383702e+01 0.0 
4.139798872363e+01 -1.706922153459e+01 0.0 
2.647837478700e+01 -1.507353829290e+01 0.0 
1.779469616424e+01 -9.161615782908e+00 0.0 
3.885879219319e+01 -1.642026488918e+01 0.0 
1.338194936770e+01 -1.125916521471e+01 0.0 
1.897071181111e+01 -1.609204322578e+01 0.0 
2.844308548793e+01 -1.046221003096e+01 0.0 
2.659854702194e+01 -1.316109415760e+01 0.0 
2.979604503271e+01 -1.433296157755e+01 0.0 
2.417694041347e+01 -1.251231397779e+01 0.0 
1.807401327411e+00 -1.388891148480e+01 0.0 
9.599810618782e+00 -1.595439365034e+01 0.0 
1.652144692160e+01 -4.205392788472e+00 0.0 
2.367839450246e+01 -8.188385218643e+00 0.0 
3.814894930468e+01 -1.390748338767e+01 0.0 
2.466448215774e+01 -1.685878545680e+01 0.0 
4.134044524611e+01 -1.806610045954e+01 0.0 
2.600511411958e+01 -9.801774120648e+00 0.0 
7.882158050716e+00 -1.582364037353e+01 0.0 
3.881607873422e+01 -1.737970515013e+01 0.0 
8.270182347708e+00 -1.088622154920e+01 0.0 
8.672520392520e-01 -4.532984309881e+00 0.0 
1.993447205337e+01 -3.579061902667e+00 0.0 
1.794616079549e+01 -7.238038888498e+00 0.0 
2.097277068165e+01 -1.132450168636e+01 0.0 
8.194803300681e+00 -1.187214224265e+01 0.0 
3.522279404911e+01 -1.823342818178e+01 0.0 
6.984481050295e+00 -1.625271465557e+01 0.0 
1.309433007797e+01 -1.521718594215e+01 0.0 
2.150246167611e+01 -1.885399038185e+00 0.0 
3.250689370209e+01 -1.028789870535e+01 0.0 
6.085886272238e+00 -1.668342132851e+01 0.0 
1.588455661727e+01 -1.193498985921e+01 0.0 
1.809323400821e+01 -1.651110084195e+01 0.0 
1.348885082381e+00 -1.136065576512e+01 0.0 
2.497670221995e+01 -1.834631276173e+01 0.0 
2.937062818424e+01 -8.233711194470e+00 0.0 
5.185823744469e+00 -1.711566910207e+01 0.0 
1.477497877209e+01 -1.530177014512e+01 0.0 
2.125346158933e+01 -7.473003997367e+00 0.0 
4.751561118290e+01 -1.084897772632e+01 0.0 
5.056026576843e+00 -1.825750475525e+01 0.0 
1.473948554523e+01 -1.634577436309e+01 0.0 
2.410566630936e+01 -1.345970002612e+01 0.0 
1.507337507513e+01 -1.138527895328e+01 0.0 
3.189857338687e+01 -8.887781229006e+00 0.0 
7.298712468334e+00 -1.230231046246e+01 0.0 
2.738235495295e+01 -1.368931690364e+01 0.0 
3.750141041969e+01 -1.920449893070e+01 0.0 
1.557271965640e+01 -1.683317951731e+01 0.0 
3.393731848929e+01 -1.413034777044e+01 0.0 
6.482156824153e+00 -1.174575135362e+01 0.0 
2.077971718439e+01 -1.421279621836e+01 0.0 
3.455084320178e+00 -2.562590040585e+00 0.0 
3.099056096250e+01 -9.270280416035e+00 0.0 
5.580176125418e+00 -1.217387969259e+01 0.0 
1.707247630389e+01 -7.660651981710e+00 0.0 
1.418658814174e+01 -1.180390575393e+01 0.0 
2.049103025389e+01 -1.811296706038e+01 0.0 
4.680386172316e+00 -1.260396879301e+01 0.0 
1.699679896554e+01 -8.624561788199e+00 0.0 
3.779470168555e+00 -1.303424899720e+01 0.0 
3.036589870126e+01 -7.879832518349e+00 0.0 
3.306993001774e+01 -1.457671062095e+01 0.0 
2.840150110165e+00 -1.346530088269e+01 0.0 
2.732011135052e+01 -1.464591214560e+01 0.0 
5.423639259568e+00 -2.659711955016e+00 0.0 
2.324455961696e+01 -1.387269388211e+01 0.0 
1.752768355571e+00 -1.693128613594e+01 0.0 
1.020244783051e+01 -8.076834012808e+00 0.0 
1.330873875224e+01 -1.222417528206e+01 0.0 
3.297727364880e+01 -1.555480372087e+01 0.0 
2.890929955439e+01 -6.868664170731e+00 0.0 
1.323294664622e+01 -1.320754260334e+01 0.0 
2.726532861246e+01 -1.560593120806e+01 0.0 
2.240020643398e+01 -1.429299177247e+01 0.0 
2.090445823633e+01 -1.228128621332e+01 0.0 
1.315809881502e+01 -1.420739326938e+01 0.0 
2.781328038068e+01 -7.181956082300e+00 0.0 
8.614200829057e+00 -5.936933226306e+00 0.0 
8.714765730069e+00 -4.979270529687e+00 0.0 
1.611881701099e+01 -9.041973294003e+00 0.0 
2.806830314340e+01 -1.614622947108e+01 0.0 
2.084435391396e+00 -3.385085422913e+00 0.0 
3.133211811152e+01 -1.542347619750e+01 0.0 
9.693114650768e+00 -3.590281506442e+00 0.0 
1.531883592202e+01 -8.504584946143e+00 0.0 
2.151589117094e+01 -1.578915763018e+01 0.0 
4.918943882696e+01 -1.355538828056e+01 0.0 
1.443236615188e+01 -8.918701794549e+00 0.0 
8.276250966452e-01 -5.537685192197e+00 0.0 
1.362790867918e+01 -8.374718262212e+00 0.0 
2.083767477370e+01 -1.324843956035e+01 0.0 
1.273834678703e+01 -8.790890389337e+00 0.0 
1.192275845670e+01 -8.242261327467e+00 0.0 
4.477236023583e+01 -1.824312396664e+01 0.0 
1.102989384254e+01 -8.649855800911e+00 0.0 
4.849096516045e+01 -1.917293752213e+01 0.0 
1.588996752238e+00 -1.910230934687e+01 0.0 
4.904245197583e+01 -1.159839008158e+01 0.0 
2.753852929608e+01 -5.782128488093e+00 0.0 
1.756133602833e+01 -8.306130313187e-01 0.0 
2.615423700951e+01 -6.153865090092e+00 0.0 
1.028818761294e+01 -7.122020845892e+00 0.0 
2.970818901196e+01 -1.527821347593e+01 0.0 
4.801461623449e+01 -1.164472570985e+01 0.0 
9.455722100419e+00 -6.546069291118e+00 0.0 
3.089099236677e+01 -1.835339328261e+01 0.0 
2.350000000013e+01 -1.920825896750e+01 0.0 
4.830620531887e+01 -1.506626155470e+01 0.0 
1.725381944701e+01 -1.688794487850e+01 0.0 
2.156246225273e+01 -1.475893794002e+01 0.0 
4.919319648787e+01 -1.742767505896e+01 0.0 
4.437935623576e+01 -1.077662927266e+01 0.0 
1.001520521978e+01 -1.652692675208e+00 0.0 
9.067160240050e-01 -1.441937727541e+01 0.0 
2.603365149390e+01 -4.755996613848e+00 0.0 
2.458344439002e+01 -4.873645517696e+00 0.0 
2.304312390142e+01 -3.836552768096e+00 0.0 
2.546923202198e+00 -6.902480355749e+00 0.0 
1.251534969393e+01 -2.490989965776e+00 0.0 
2.454061833377e+01 -3.933354231935e+00 0.0 
1.788186558740e+01 -1.827424884923e+01 0.0 
4.090785243552e+01 -1.166553231904e+01 0.0 
2.230128851568e+01 -1.623015738726e+01 0.0 
2.302362347568e+01 -2.916239960270e+00 0.0 
3.878119254461e+01 -1.830091164002e+01 0.0 
2.210081359958e+01 -1.829238229150e+01 0.0 
8.443704882233e+00 -1.921993252862e+01 0.0 
2.218405824691e+01 -1.724557581508e+01 0.0 
2.151157503963e+01 -2.790636689331e+00 0.0 
3.741658958955e+01 -1.250400191722e+01 0.0 
2.697247663737e+01 -1.838290202309e+01 0.0 
4.743362342862e+01 -1.585850773010e+01 0.0 
6.671345075358e+00 -1.924977576322e+01 0.0 
3.900825404537e+01 -1.157220003875e+01 0.0 
4.649692961375e+01 -1.836335837481e+01 0.0 
1.578831424832e+01 -3.678284023361e+00 0.0 
4.814208768888e+01 -1.841249298770e+01 0.0 
2.964123298315e+01 -1.625739458193e+01 0.0 
4.580760351902e+01 -1.284294554687e+01 0.0 
3.561520879615e+01 -1.245548941949e+01 0.0 
2.555418095658e+00 -1.841101588290e+01 0.0 
3.288468366144e+01 -1.834258164109e+01 0.0 
2.065894391445e+01 -2.240688571739e+00 0.0 
4.739171429915e+01 -1.496536413446e+01 0.0 
3.478086729185e+00 -8.576434653209e+00 0.0 
1.606010630246e+01 -1.588421807951e+00 0.0 
1.018329200594e+01 -1.834320874317e+01 0.0 
2.957213339430e+01 -1.720496954591e+01 0.0 
4.142712790164e+00 -1.837794506222e+01 0.0 
6.698721532573e-01 -2.499999999997e+00 0.0 
8.037039123140e+00 -1.571229354954e+00 0.0 
1.203541361428e+01 -1.847784298001e+01 0.0 
2.899968332038e+01 -1.848264722179e+01 0.0 
1.469229460948e+01 -4.219485753730e+00 0.0 
4.049590781957e+01 -1.932812501995e+01 0.0 
1.996211678340e+01 -1.506329754720e+00 0.0 
4.250588298353e+01 -1.067383247529e+01 0.0 
5.831497011152e+00 -1.635396227234e+00 0.0 
5.317606125670e+00 -1.923927974868e+01 0.0 
4.208546426993e+01 -1.842830665025e+01 0.0 
2.327553405011e+00 -9.459409929662e+00 0.0 
3.568351902251e+01 -1.096637218582e+01 0.0 
1.682104374890e+00 -6.231413350963e+00 0.0 
2.451812238018e+01 -1.766524914339e+01 0.0 
1.058003429638e+01 -2.391839617098e+00 0.0 
4.399988753123e+01 -1.851998776342e+01 0.0 
1.400000000010e+01 -1.852293523028e+01 0.0 
3.604719565984e+01 -1.850662876800e+01 0.0 
1.951297136734e+01 -1.938092349694e+01 0.0 
1.821365318472e+01 -1.531276353287e+00 0.0 
2.298031859732e+01 -1.854635324722e+01 0.0 
1.552168066204e+01 -1.764280741977e+01 0.0 
4.572957713638e+01 -1.073347898229e+01 0.0 
3.429637429624e+01 -1.838861552790e+01 0.0 
2.427434426052e+00 -7.705577451869e+00 0.0 
4.662792031485e+00 -3.359424455416e+00 0.0 
4.926794919243e+01 -1.926794919243e+01 0.0 
7.320508075690e-01 -7.320508075688e-01 0.0 
4.926794919243e+01 -1.073205080757e+01 0.0 
7.320508075705e-01 -1.926794919243e+01 0.0 
2.917460242467e+00 -3.202866455310e+00 0.0 
4.838200575963e+01 -1.232674147454e+01 0.0 
2.998445708009e+01 -1.854403752148e+01 0.0 
5.949940090766e-01 -1.152762038165e+01 0.0 
4.844763495759e+01 -1.678092548787e+01 0.0 
1.301685480160e+01 -3.170056592566e+00 0.0 
1.650046335855e+01 -6.731535384067e-01 0.0 
4.854881540991e+01 -1.405224059779e+01 0.0 
2.119545114693e+01 -1.846813384545e+01 0.0 
3.797852849897e+01 -1.857978513215e+01 0.0 
4.649823708745e+01 -1.338351810816e+01 0.0 
2.012685900976e+01 -2.889659035009e+00 0.0 
2.953271913273e+01 -1.791558075192e+01 0.0 
2.408509097292e+00 -1.021949208421e+01 0.0 
2.642589566221e+01 -1.773216561448e+01 0.0 
1.730010270775e+01 -1.763165076721e+01 0.0 
2.017406551304e+01 -8.513536440582e-01 0.0 
5.254761581934e-01 -1.249999999999e+01 0.0 
6.640448215642e+00 -1.545337834885e+00 0.0 
7.843361506349e+00 -1.852719839527e+01 0.0 
1.588442191088e+00 -1.066158564320e+01 0.0 
2.880770112393e+01 -5.415638864241e+00 0.0 
4.951086956522e+01 -5.500000000000e+00 0.0 
3.031250000000e+01 -6.420918367347e+00 0.0 
4.951250000000e+01 -6.500000000000e+00 0.0 
3.180701530612e+01 -7.414795918363e+00 0.0 
4.951250000000e+01 -7.500000000000e+00 0.0 
3.331250000000e+01 -8.420918367347e+00 0.0 
4.951470588234e+01 -8.500000000000e+00 0.0 
3.480610198624e+01 -9.413633635267e+00 0.0 
4.951470588234e+01 -9.500000000000e+00 0.0 

CELLS 2134 8536 
3 278 748 1024 
3 748 278 1026 
3 758 251 769 
3 871 636 1060 
3 638 698 864 
3 728 641 767 
3 258 680 682 
3 278 705 1026 
3 680 258 698 
3 631 866 1060 
3 250 825 826 
3 705 278 1040 
3 870 1022 1066 
3 687 818 908 
3 1022 284 1066 
3 277 871 1060 
3 686 257 827 
3 641 728 766 
3 265 685 1007 
3 685 265 945 
3 866 631 1019 
3 996 242 1002 
3 723 996 1002 
3 673 672 882 
3 372 528 817 
3 825 250 934 
3 110 82 1087 
3 717 243 959 
3 370 372 817 
3 882 672 1092 
3 622 832 834 
3 275 688 865 
3 758 769 1067 
3 19 263 738 
3 273 692 694 
3 701 66 1058 
3 66 701 1084 
3 720 269 764 
3 684 101 1037 
3 101 684 1098 
3 960 702 986 
3 238 724 863 
3 1041 239 1045 
3 82 287 1087 
3 679 286 1036 
3 718 1041 1045 
3 832 622 835 
3 286 679 1062 
3 828 829 835 
3 818 687 1059 
3 280 723 960 
3 670 685 945 
3 448 1061 1079 
3 280 960 986 
3 770 252 950 
3 1043 615 1088 
3 670 945 1014 
3 263 708 738 
3 531 859 977 
3 866 277 1060 
3 237 1071 1112 
3 1051 677 1053 
3 497 525 731 
3 1061 834 1079 
3 842 661 1066 
3 723 280 996 
3 1071 681 1112 
3 251 758 1031 
3 558 519 840 
3 247 706 772 
3 934 877 988 
3 33 32 726 
3 717 959 1089 
3 4 5 852 
3 849 1043 1088 
3 689 254 940 
3 770 950 1099 
3 737 1042 1049 
3 859 531 1101 
3 1042 279 1049 
3 519 532 840 
3 257 686 1047 
3 242 748 1002 
3 748 242 1024 
3 698 638 910 
3 680 698 910 
3 709 934 1039 
3 18 19 738 
3 763 760 1008 
3 638 864 1047 
3 865 688 1038 
3 289 816 1087 
3 862 1033 1057 
3 1057 1033 1069 
3 255 33 726 
3 764 269 1094 
3 686 827 1059 
3 863 724 1072 
3 283 715 1012 
3 731 525 732 
3 864 698 1082 
3 284 842 1066 
3 445 1011 1035 
3 676 1051 1053 
3 566 564 742 
3 829 832 835 
3 869 870 992 
3 635 862 1057 
3 237 828 835 
3 965 260 1084 
3 410 763 1008 
3 4 852 1103 
3 633 729 765 
3 600 916 954 
3 644 846 1070 
3 704 731 732 
3 499 497 731 
3 273 694 1052 
3 715 283 1107 
3 703 499 731 
3 734 664 1009 
3 287 289 1087 
3 862 635 1110 
3 499 703 742 
3 1054 953 1068 
3 719 969 978 
3 846 644 1100 
3 969 244 978 
3 254 689 1080 
3 666 1054 1068 
3 825 934 988 
3 636 871 1062 
3 573 630 730 
3 244 702 978 
3 692 273 1072 
3 870 627 1022 
3 709 877 934 
3 730 630 930 
3 674 802 1092 
3 606 722 730 
3 656 867 868 
3 706 247 1078 
3 908 818 1055 
3 515 487 736 
3 722 573 730 
3 702 244 986 
3 630 768 930 
3 742 568 937 
3 258 682 1037 
3 729 364 765 
3 688 275 1076 
3 1023 1029 1107 
3 853 265 1007 
3 281 719 954 
3 802 674 811 
3 703 566 742 
3 738 709 1039 
3 705 239 1041 
3 1011 671 1035 
3 264 710 711 
3 725 364 729 
3 708 263 992 
3 558 734 1009 
3 870 629 992 
3 745 618 773 
3 260 965 1074 
3 1023 628 1029 
3 564 568 742 
3 916 281 954 
3 250 826 1123 
3 239 705 1040 
3 364 725 739 
3 487 538 736 
3 710 264 1098 
3 568 729 937 
3 719 281 969 
3 612 801 1006 
3 846 547 1070 
3 243 717 1032 
3 772 706 1056 
3 704 732 1026 
3 547 846 1086 
3 789 919 973 
3 722 606 960 
3 705 704 1026 
3 745 600 954 
3 729 633 937 
3 253 866 1019 
3 376 785 995 
3 263 869 992 
3 718 279 1042 
3 574 739 963 
3 760 785 1008 
3 81 111 727 
3 606 702 960 
3 962 634 966 
3 858 990 1083 
3 873 266 1099 
3 371 296 778 
3 993 352 1020 
3 482 962 966 
3 816 289 1065 
3 817 528 1055 
3 672 674 1092 
3 1003 894 1030 
3 740 311 768 
3 570 460 773 
3 377 371 778 
3 567 745 773 
3 618 745 954 
3 516 976 1016 
3 801 650 1006 
3 727 261 728 
3 732 748 1026 
3 732 525 747 
3 630 740 768 
3 785 755 995 
3 641 640 946 
3 634 733 952 
3 684 710 1098 
3 739 725 963 
3 430 952 1001 
3 690 900 1124 
3 776 377 778 
3 900 246 1124 
3 858 859 990 
3 279 718 1045 
3 1003 646 1004 
3 750 377 776 
3 646 645 1004 
3 626 735 741 
3 452 833 905 
3 664 841 1009 
3 919 482 973 
3 618 570 773 
3 661 842 1074 
3 111 261 727 
3 535 565 741 
3 325 364 739 
3 723 722 960 
3 733 634 962 
3 701 965 1084 
3 987 376 995 
3 434 416 771 
3 482 966 973 
3 934 250 1039 
3 768 378 930 
3 777 778 974 
3 677 1051 1096 
3 325 739 746 
3 565 626 741 
3 295 567 743 
3 726 32 1080 
3 311 740 915 
3 784 327 923 
3 711 710 712 
3 840 532 1044 
3 567 744 745 
3 534 434 771 
3 640 774 875 
3 622 834 1061 
3 377 750 912 
3 460 743 773 
3 499 742 937 
3 750 589 912 
3 785 376 1008 
3 378 749 891 
3 245 699 1058 
3 575 784 923 
3 303 569 749 
3 633 765 896 
3 575 783 784 
3 417 433 774 
3 815 256 816 
3 329 326 746 
3 446 797 798 
3 777 987 995 
3 111 112 261 
3 567 293 744 
3 416 414 771 
3 490 535 741 
3 419 417 774 
3 298 295 743 
3 688 734 1038 
3 526 616 747 
3 575 782 783 
3 743 567 773 
3 815 816 817 
3 536 641 766 
3 446 798 800 
3 447 450 797 
3 732 747 748 
3 777 974 987 
3 525 526 747 
3 412 329 746 
3 739 574 746 
3 536 640 641 
3 765 321 896 
3 665 735 737 
3 37 252 770 
3 39 266 769 
3 312 311 915 
3 433 416 434 
3 489 490 548 
3 304 303 749 
3 433 434 489 
3 446 447 797 
3 378 891 930 
3 867 656 1085 
3 771 574 963 
3 976 632 1016 
3 665 548 735 
3 270 57 790 
3 489 434 490 
3 309 378 768 
3 536 440 640 
3 812 505 920 
3 326 325 746 
3 450 794 797 
3 569 460 570 
3 42 791 792 
3 414 412 574 
3 575 403 782 
3 549 548 665 
3 780 465 903 
3 952 733 1001 
3 565 566 624 
3 639 780 903 
3 268 45 772 
3 542 634 952 
3 41 251 791 
3 908 528 938 
3 763 410 1028 
3 626 624 718 
3 571 570 603 
3 303 460 569 
3 303 301 460 
3 379 915 941 
3 243 47 775 
3 370 817 1065 
3 744 600 745 
3 574 412 746 
3 645 841 1004 
3 603 618 719 
3 565 564 566 
3 264 711 964 
3 450 793 794 
3 414 574 771 
3 754 776 777 
3 535 564 565 
3 569 570 571 
3 403 405 782 
3 578 805 892 
3 50 267 781 
3 606 604 702 
3 418 420 800 
3 659 993 1020 
3 625 704 705 
3 624 566 625 
3 760 757 785 
3 309 307 378 
3 616 722 723 
3 571 603 604 
3 54 269 786 
3 269 720 1046 
3 757 755 785 
3 777 776 778 
3 805 345 892 
3 497 498 525 
3 417 416 433 
3 415 414 416 
3 311 309 768 
3 592 812 920 
3 360 806 807 
3 753 751 754 
3 420 446 800 
3 494 379 495 
3 749 569 891 
3 496 495 497 
3 251 40 769 
3 266 38 770 
3 266 873 1067 
3 578 804 805 
3 589 491 912 
3 565 624 626 
3 413 412 414 
3 640 440 774 
3 526 573 616 
3 814 815 818 
3 780 908 938 
3 790 788 882 
3 761 760 763 
3 295 293 567 
3 302 301 303 
3 440 419 774 
3 837 839 840 
3 364 323 765 
3 317 315 379 
3 323 321 765 
3 234 953 1054 
3 711 712 713 
3 841 645 1009 
3 490 534 535 
3 57 56 790 
3 424 426 516 
3 288 600 744 
3 265 853 1075 
3 915 740 941 
3 325 323 364 
3 301 298 743 
3 247 43 792 
3 603 570 618 
3 307 304 749 
3 360 807 813 
3 751 750 776 
3 578 803 804 
3 44 247 772 
3 41 40 251 
3 37 36 252 
3 39 38 266 
3 300 298 301 
3 754 751 776 
3 759 757 760 
3 497 495 498 
3 525 498 526 
3 809 806 893 
3 753 754 755 
3 46 268 775 
3 668 589 750 
3 782 516 783 
3 668 750 751 
3 509 507 810 
3 317 379 494 
3 616 573 722 
3 489 548 549 
3 255 726 1050 
3 496 497 499 
3 890 609 959 
3 806 360 893 
3 451 454 793 
3 270 790 882 
3 535 563 564 
3 42 41 791 
3 266 770 1099 
3 308 307 309 
3 837 838 839 
3 44 43 247 
3 235 786 787 
3 450 451 793 
3 405 424 782 
3 241 51 781 
3 119 236 838 
3 494 495 496 
3 306 304 307 
3 310 309 311 
3 378 307 749 
3 548 490 741 
3 46 45 268 
3 411 329 412 
3 537 536 766 
3 699 245 1125 
3 838 236 839 
3 605 604 606 
3 832 833 834 
3 719 618 954 
3 235 55 786 
3 48 47 243 
3 460 301 743 
3 829 831 832 
3 678 537 766 
3 832 831 833 
3 922 620 935 
3 814 256 815 
3 290 288 744 
3 50 49 267 
3 272 814 818 
3 252 36 779 
3 512 509 810 
3 639 687 780 
3 625 703 704 
3 424 516 782 
3 640 875 946 
3 52 51 241 
3 40 39 769 
3 38 37 770 
3 578 386 803 
3 381 383 809 
3 317 494 896 
3 386 388 803 
3 54 53 269 
3 490 434 534 
3 797 796 798 
3 794 795 796 
3 529 639 903 
3 58 270 802 
3 829 830 831 
3 56 55 235 
3 793 658 794 
3 43 42 792 
3 759 760 761 
3 118 119 838 
3 494 633 896 
3 588 491 589 
3 45 44 772 
3 300 301 302 
3 555 512 556 
3 549 665 666 
3 788 787 789 
3 550 657 658 
3 794 658 795 
3 828 271 829 
3 47 46 775 
3 774 433 875 
3 542 590 634 
3 639 686 687 
3 876 608 895 
3 794 796 797 
3 302 303 304 
3 51 50 781 
3 383 485 809 
3 394 430 500 
3 314 312 315 
3 653 546 654 
3 798 796 799 
3 803 500 804 
3 315 312 915 
3 651 508 925 
3 424 425 426 
3 316 315 317 
3 353 355 813 
3 535 534 563 
3 381 809 893 
3 556 512 810 
3 380 403 575 
3 56 235 790 
3 667 589 668 
3 551 876 895 
3 55 54 786 
3 235 787 788 
3 322 321 323 
3 829 271 830 
3 59 802 811 
3 752 751 753 
3 454 550 793 
3 58 57 270 
3 388 394 803 
3 526 572 573 
3 293 290 744 
3 380 575 923 
3 384 578 892 
3 546 505 812 
3 778 296 974 
3 605 730 930 
3 426 444 445 
3 713 712 714 
3 355 360 813 
3 405 407 424 
3 550 607 657 
3 577 399 878 
3 117 118 836 
3 564 563 568 
3 550 658 793 
3 806 648 807 
3 320 318 321 
3 394 500 803 
3 529 637 639 
3 454 517 550 
3 59 58 802 
3 306 307 308 
3 576 647 648 
3 308 309 310 
3 576 648 806 
3 836 118 838 
3 292 290 293 
3 845 844 846 
3 246 124 860 
3 485 540 576 
3 394 429 430 
3 874 544 899 
3 654 812 956 
3 654 546 812 
3 288 248 600 
3 272 108 814 
3 669 779 972 
3 310 311 312 
3 124 125 860 
3 664 584 841 
3 830 836 837 
3 646 1003 1030 
3 562 612 1006 
3 642 874 899 
3 439 922 935 
3 363 361 872 
3 401 399 577 
3 542 553 590 
3 459 440 536 
3 276 844 845 
3 249 848 849 
3 238 60 811 
3 60 59 811 
3 844 843 847 
3 576 540 647 
3 384 386 578 
3 590 672 673 
3 584 503 841 
3 437 522 542 
3 858 856 859 
3 485 576 809 
3 807 648 808 
3 262 855 856 
3 276 843 844 
3 588 589 667 
3 125 126 857 
3 109 256 814 
3 109 110 256 
3 505 409 920 
3 249 10 848 
3 550 517 607 
3 735 548 741 
3 695 693 696 
3 775 268 890 
3 579 473 906 
3 625 566 703 
3 688 664 734 
3 571 604 605 
3 105 257 864 
3 104 105 864 
3 125 857 860 
3 857 856 858 
3 851 853 854 
3 427 368 502 
3 262 850 855 
3 843 240 847 
3 237 115 828 
3 368 363 872 
3 716 714 736 
3 107 108 272 
3 612 707 801 
3 388 393 394 
3 713 714 715 
3 10 11 848 
3 851 854 855 
3 30 29 867 
3 254 30 867 
3 639 637 686 
3 257 106 827 
3 848 845 849 
3 28 253 868 
3 502 368 872 
3 108 109 814 
3 107 272 827 
3 603 719 978 
3 36 35 779 
3 867 29 868 
3 262 856 857 
3 126 262 857 
3 663 584 664 
3 807 808 944 
3 869 627 870 
3 114 115 237 
3 274 861 862 
3 116 271 828 
3 545 505 546 
3 116 117 271 
3 115 116 828 
3 652 546 653 
3 598 661 662 
3 715 714 716 
3 891 605 930 
3 850 851 855 
3 400 401 880 
3 25 24 871 
3 277 25 871 
3 106 107 827 
3 481 409 505 
3 29 28 868 
3 555 556 671 
3 851 852 853 
3 850 285 851 
3 851 285 852 
3 11 12 276 
3 284 69 842 
3 80 79 286 
3 128 285 850 
3 13 240 843 
3 70 69 284 
3 68 260 842 
3 61 238 863 
3 76 259 861 
3 78 77 274 
3 69 68 842 
3 68 67 260 
3 274 77 861 
3 128 129 285 
3 102 103 258 
3 105 106 257 
3 262 127 850 
3 65 64 245 
3 273 62 863 
3 63 62 273 
3 127 128 850 
3 126 127 262 
3 61 60 238 
3 62 61 863 
3 76 75 259 
3 99 100 264 
3 77 76 861 
3 74 73 283 
3 97 98 628 
3 123 124 246 
3 121 122 275 
3 120 121 865 
3 119 120 236 
3 13 14 240 
3 12 13 843 
3 121 275 865 
3 16 17 250 
3 236 120 865 
3 34 33 255 
3 28 27 253 
3 31 30 254 
3 6 7 265 
3 9 10 249 
3 27 26 866 
3 19 20 263 
3 26 25 277 
3 20 21 869 
3 21 22 627 
3 276 12 843 
3 253 27 866 
3 26 277 866 
3 263 20 869 
3 21 627 869 
3 492 493 877 
3 271 117 836 
3 383 484 485 
3 857 858 860 
3 695 696 697 
3 576 806 809 
3 458 442 879 
3 427 502 503 
3 990 691 1083 
3 598 662 879 
3 485 486 540 
3 276 845 848 
3 442 504 879 
3 635 636 679 
3 11 276 848 
3 430 429 437 
3 392 390 443 
3 492 441 493 
3 560 492 877 
3 411 412 413 
3 605 606 730 
3 321 318 896 
3 400 399 401 
3 504 597 598 
3 708 560 709 
3 551 645 646 
3 623 544 631 
3 539 488 544 
3 684 683 710 
3 398 396 399 
3 441 400 880 
3 635 623 636 
3 539 623 635 
3 443 390 902 
3 598 629 661 
3 501 473 579 
3 708 709 738 
3 699 697 700 
3 631 544 874 
3 478 476 479 
3 394 393 429 
3 438 520 521 
3 457 543 551 
3 663 664 688 
3 830 271 836 
3 539 544 623 
3 598 597 629 
3 837 836 838 
3 756 755 757 
3 682 582 683 
3 428 442 458 
3 504 560 597 
3 607 608 659 
3 597 560 708 
3 682 683 684 
3 424 407 425 
3 699 700 701 
3 670 552 685 
3 694 693 695 
3 487 479 488 
3 521 552 615 
3 551 646 876 
3 823 821 824 
3 475 477 581 
3 362 366 381 
3 538 488 539 
3 478 487 515 
3 647 540 819 
3 709 560 877 
3 504 492 560 
3 487 488 538 
3 480 432 518 
3 540 486 541 
3 513 599 675 
3 479 886 899 
3 485 484 486 
3 392 443 878 
3 692 620 693 
3 478 479 487 
3 621 537 678 
3 595 690 691 
3 421 419 440 
3 504 598 879 
3 477 476 478 
3 825 823 826 
3 581 582 680 
3 542 522 553 
3 819 541 820 
3 442 492 504 
3 521 520 552 
3 695 697 699 
3 540 541 819 
3 615 552 670 
3 541 486 888 
3 381 382 383 
3 367 363 368 
3 822 823 825 
3 123 246 900 
3 275 122 900 
3 493 441 880 
3 438 480 520 
3 398 399 400 
3 399 396 878 
3 355 359 360 
3 454 455 517 
3 501 579 580 
3 767 641 1117 
3 383 483 484 
3 590 553 672 
3 520 480 531 
3 581 477 582 
3 680 582 682 
3 583 503 584 
3 619 586 620 
3 472 470 473 
3 438 432 480 
3 655 579 924 
3 580 579 655 
3 375 432 438 
3 704 703 731 
3 369 368 427 
3 442 441 492 
3 820 821 822 
3 668 751 752 
3 501 580 642 
3 428 400 441 
3 398 400 428 
3 427 503 583 
3 428 441 442 
3 472 473 474 
3 822 821 823 
3 475 476 477 
3 474 473 501 
3 327 328 923 
3 886 642 899 
3 486 547 888 
3 820 541 821 
3 483 382 643 
3 357 354 358 
3 475 474 476 
3 349 351 384 
3 367 369 375 
3 595 584 663 
3 472 474 475 
3 367 368 369 
3 692 693 694 
3 479 476 886 
3 428 458 881 
3 235 788 790 
3 486 484 547 
3 375 369 432 
3 583 584 595 
3 397 396 398 
3 478 515 885 
3 595 663 690 
3 381 366 382 
3 685 552 883 
3 475 581 884 
3 383 382 483 
3 396 392 878 
3 483 643 644 
3 544 488 899 
3 366 363 367 
3 391 395 439 
3 551 543 645 
3 395 392 396 
3 824 821 888 
3 397 398 881 
3 798 799 980 
3 552 520 883 
3 683 582 885 
3 545 546 652 
3 495 379 941 
3 477 478 885 
3 457 551 895 
3 469 471 529 
3 520 531 883 
3 696 693 922 
3 481 505 545 
3 426 425 444 
3 580 655 656 
3 384 385 386 
3 518 432 889 
3 389 387 390 
3 619 620 692 
3 607 517 608 
3 398 428 881 
3 476 474 886 
3 451 453 454 
3 391 390 392 
3 637 530 638 
3 521 615 921 
3 362 363 366 
3 314 315 316 
3 395 396 397 
3 526 498 572 
3 316 317 318 
3 471 470 472 
3 582 477 885 
3 529 530 637 
3 821 541 888 
3 559 461 586 
3 386 387 388 
3 581 680 910 
3 758 757 759 
3 445 444 513 
3 391 392 395 
3 474 501 886 
3 355 357 359 
3 359 361 362 
3 427 583 889 
3 388 389 393 
3 362 381 893 
3 471 472 884 
3 529 471 530 
3 331 333 380 
3 872 361 894 
3 413 414 415 
3 362 361 363 
3 359 357 361 
3 369 427 889 
3 437 461 522 
3 350 348 352 
3 501 642 886 
3 346 348 349 
3 388 387 389 
3 384 351 385 
3 320 321 322 
3 432 369 889 
3 559 586 619 
3 559 619 724 
3 506 508 651 
3 355 354 357 
3 386 385 387 
3 472 475 884 
3 360 359 893 
3 494 496 633 
3 366 367 887 
3 517 455 895 
3 353 354 355 
3 367 375 887 
3 438 521 913 
3 385 351 585 
3 389 390 391 
3 524 561 562 
3 122 123 900 
3 342 340 343 
3 346 344 347 
3 353 352 354 
3 530 471 884 
3 349 350 351 
3 382 366 887 
3 350 352 353 
3 488 479 899 
3 643 382 887 
3 595 691 909 
3 889 583 909 
3 608 517 895 
3 357 358 894 
3 342 344 345 
3 349 348 350 
3 457 519 543 
3 518 889 909 
3 780 687 908 
3 887 375 913 
3 437 429 461 
3 510 523 524 
3 294 293 295 
3 533 467 554 
3 562 611 612 
3 328 331 923 
3 508 510 925 
3 455 456 457 
3 353 813 897 
3 324 323 325 
3 447 449 450 
3 519 456 532 
3 359 362 893 
3 346 347 348 
3 345 344 346 
3 643 887 913 
3 349 384 892 
3 342 343 344 
3 338 340 341 
3 361 357 894 
3 408 406 409 
3 469 470 471 
3 338 336 339 
3 522 461 559 
3 454 453 455 
3 672 553 674 
3 345 346 892 
3 612 706 707 
3 305 304 306 
3 455 457 895 
3 297 295 298 
3 587 491 588 
3 345 805 928 
3 568 725 729 
3 299 298 300 
3 379 315 915 
3 457 456 519 
3 689 660 726 
3 543 519 558 
3 720 614 721 
3 874 642 917 
3 431 409 481 
3 884 581 910 
3 468 467 533 
3 341 340 342 
3 380 402 403 
3 617 554 660 
3 391 439 898 
3 466 468 469 
3 545 652 733 
3 455 453 456 
3 466 464 467 
3 775 890 959 
3 559 724 911 
3 350 353 897 
3 530 884 910 
3 638 530 910 
3 346 349 892 
3 393 389 898 
3 429 393 901 
3 583 595 909 
3 415 416 417 
3 334 336 337 
3 338 339 340 
3 318 317 896 
3 617 660 689 
3 753 755 756 
3 642 580 917 
3 573 572 630 
3 463 435 491 
3 389 391 898 
3 655 924 940 
3 436 464 465 
3 351 350 897 
3 334 332 335 
3 466 467 468 
3 533 554 617 
3 473 470 906 
3 469 468 470 
3 620 586 935 
3 613 527 614 
3 586 461 901 
3 390 387 902 
3 702 604 978 
3 408 431 462 
3 373 371 377 
3 375 438 913 
3 337 336 338 
3 654 956 968 
3 403 404 405 
3 420 422 446 
3 334 335 336 
3 405 406 407 
3 571 605 891 
3 585 351 897 
3 465 780 938 
3 698 258 1082 
3 84 225 234 
3 387 385 902 
3 431 481 482 
3 752 753 873 
3 380 333 402 
3 385 585 902 
3 469 529 903 
3 85 226 279 
3 408 409 431 
3 404 402 592 
3 569 571 891 
3 393 898 901 
3 450 449 451 
3 461 429 901 
3 553 522 911 
3 407 406 408 
3 470 468 906 
3 514 512 555 
3 522 559 911 
3 86 227 239 
3 465 466 903 
3 675 599 676 
3 468 533 906 
3 405 404 406 
3 333 332 334 
3 975 647 979 
3 459 536 537 
3 579 906 924 
3 913 521 921 
3 87 228 278 
3 511 509 512 
3 580 656 917 
3 451 452 453 
3 313 312 314 
3 465 464 466 
3 944 808 949 
3 446 422 447 
3 568 563 725 
3 532 456 905 
3 451 449 452 
3 453 452 905 
3 403 402 404 
3 779 35 972 
3 88 229 242 
3 693 620 922 
3 330 329 411 
3 374 436 938 
3 421 440 459 
3 674 553 911 
3 456 453 905 
3 644 643 921 
3 425 407 904 
3 342 345 928 
3 513 527 599 
3 496 499 937 
3 373 377 912 
3 613 614 720 
3 466 469 903 
3 753 756 873 
3 464 463 927 
3 463 491 587 
3 433 489 875 
3 696 922 942 
3 436 463 464 
3 327 784 948 
3 89 230 280 
3 613 720 764 
3 418 417 419 
3 643 913 921 
3 513 444 527 
3 265 7 945 
3 319 318 320 
3 408 462 904 
3 587 588 907 
3 588 667 669 
3 407 408 904 
3 554 467 927 
3 328 326 329 
3 510 524 925 
3 90 231 244 
3 759 761 762 
3 91 232 281 
3 233 91 916 
3 331 380 923 
3 82 233 248 
3 601 356 602 
3 322 323 324 
3 334 337 914 
3 447 422 448 
3 331 332 333 
3 533 617 924 
3 756 757 758 
3 439 395 942 
3 599 527 613 
3 341 342 928 
3 463 587 927 
3 333 334 914 
3 697 696 951 
3 467 464 927 
3 491 435 912 
3 409 406 920 
3 328 330 331 
3 524 523 561 
3 302 304 305 
3 447 448 449 
3 418 419 420 
3 633 496 937 
3 310 312 313 
3 700 697 955 
3 436 435 463 
3 331 330 332 
3 506 651 931 
3 462 431 919 
3 906 533 924 
3 562 561 611 
3 528 374 938 
3 634 590 966 
3 402 333 914 
3 431 482 919 
3 316 318 319 
3 660 554 943 
3 612 611 706 
3 404 592 920 
3 420 419 421 
3 514 555 557 
3 319 356 594 
3 328 329 330 
3 406 404 920 
3 437 542 952 
3 420 421 422 
3 592 402 914 
3 297 298 299 
3 700 955 961 
3 299 300 410 
3 511 512 514 
3 294 295 297 
3 291 290 292 
3 305 306 365 
3 614 527 929 
3 922 439 942 
3 374 435 436 
3 588 669 907 
3 292 293 294 
3 411 413 591 
3 514 557 610 
3 924 617 940 
3 320 322 918 
3 319 320 356 
3 330 411 926 
3 435 373 912 
3 572 498 941 
3 601 602 632 
3 498 495 941 
3 444 425 929 
3 610 677 717 
3 335 332 926 
3 459 537 593 
3 667 668 950 
3 630 572 740 
3 968 341 981 
3 610 557 677 
3 374 373 435 
3 898 439 935 
3 324 325 326 
3 593 537 621 
3 961 662 965 
3 313 314 423 
3 426 445 976 
3 561 523 609 
3 621 678 681 
3 901 898 935 
3 534 771 963 
3 372 374 528 
3 443 949 970 
3 332 330 926 
3 697 951 955 
3 594 356 601 
3 411 591 926 
3 313 423 506 
3 593 621 622 
3 508 509 510 
3 425 904 929 
3 707 706 1078 
3 510 511 523 
3 418 800 947 
3 395 397 942 
3 617 689 940 
3 764 241 982 
3 527 444 929 
3 327 326 328 
3 506 507 508 
3 879 662 961 
3 823 824 958 
3 510 509 511 
3 436 465 938 
3 696 942 951 
3 586 901 935 
3 99 264 964 
3 628 98 964 
3 297 299 376 
3 508 507 509 
3 577 878 970 
3 305 365 596 
3 602 356 918 
3 789 973 1097 
3 324 326 327 
3 34 255 972 
3 289 288 290 
3 356 320 918 
3 443 902 949 
3 415 417 418 
3 585 897 944 
3 506 423 507 
3 308 310 931 
3 372 373 374 
3 596 365 649 
3 596 649 650 
3 854 853 1007 
3 897 813 944 
3 740 572 941 
3 300 302 932 
3 410 300 932 
3 721 614 957 
3 7 8 945 
3 448 422 936 
3 314 316 933 
3 813 807 944 
3 91 281 916 
3 248 233 916 
3 372 371 373 
3 489 549 875 
3 949 808 970 
3 482 481 962 
3 422 421 936 
3 243 775 959 
3 927 587 943 
3 648 647 975 
3 942 397 951 
3 859 856 977 
3 545 733 962 
3 423 314 933 
3 855 854 977 
3 554 927 943 
3 421 459 936 
3 302 305 932 
3 310 313 931 
3 338 341 968 
3 804 500 997 
3 587 907 943 
3 500 430 1001 
3 319 594 933 
3 316 319 933 
3 225 83 953 
3 459 593 936 
3 511 514 939 
3 291 292 296 
3 514 610 939 
3 563 534 963 
3 755 754 995 
3 609 523 939 
3 600 248 916 
3 523 511 939 
3 397 881 951 
3 810 507 967 
3 585 944 949 
3 902 585 949 
3 668 752 950 
3 805 804 994 
3 313 506 931 
3 784 783 1000 
3 430 437 952 
3 918 322 948 
3 947 800 980 
3 812 592 956 
3 591 413 947 
3 305 596 932 
3 591 947 980 
3 365 306 971 
3 614 929 957 
3 929 904 957 
3 322 324 948 
3 370 371 372 
3 951 881 955 
3 881 458 955 
3 549 666 946 
3 365 971 989 
3 700 961 965 
3 616 723 1002 
3 577 975 979 
3 234 225 953 
3 955 458 961 
3 415 418 947 
3 826 823 958 
3 976 445 1035 
3 370 296 371 
3 291 296 370 
3 423 933 967 
3 90 244 969 
3 281 232 969 
3 458 879 961 
3 997 500 1001 
3 654 968 981 
3 481 545 962 
3 914 337 956 
3 413 415 947 
3 232 90 969 
3 289 290 291 
3 98 99 964 
3 904 462 957 
3 324 327 948 
3 613 764 982 
3 597 708 992 
3 592 914 956 
3 701 700 965 
3 980 799 984 
3 676 599 982 
3 933 594 967 
3 556 810 991 
3 590 673 966 
3 354 352 993 
3 931 651 971 
3 956 337 968 
3 308 931 971 
3 725 563 963 
3 671 556 999 
3 337 338 968 
3 878 443 970 
3 306 308 971 
3 1068 282 1081 
3 783 516 1016 
3 737 234 1054 
3 518 909 990 
3 577 970 975 
3 524 562 998 
3 296 292 974 
3 89 280 986 
3 35 34 972 
3 83 224 282 
3 244 231 986 
3 653 654 981 
3 647 819 979 
3 604 603 978 
3 1010 795 1013 
3 994 804 997 
3 507 423 967 
3 516 426 976 
3 761 1063 1073 
3 875 549 946 
3 808 648 975 
3 979 819 983 
3 872 894 1003 
3 287 248 288 
3 292 294 974 
3 18 738 1039 
3 856 855 977 
3 681 678 1025 
3 841 503 1004 
3 819 820 983 
3 335 984 1005 
3 796 795 1010 
3 800 798 980 
3 401 577 979 
3 297 376 987 
3 983 820 985 
3 335 926 984 
3 971 651 989 
3 687 686 1059 
3 445 513 1011 
3 820 822 985 
3 401 979 983 
3 88 242 996 
3 339 336 1005 
3 985 822 988 
3 259 75 1012 
3 74 283 1012 
3 280 230 996 
3 880 401 983 
3 658 657 1015 
3 737 735 1042 
3 599 613 982 
3 645 543 1009 
3 1015 657 1017 
3 1000 783 1016 
3 231 89 986 
3 822 825 988 
3 9 249 1014 
3 287 288 289 
3 880 983 985 
3 341 928 981 
3 970 808 975 
3 728 767 1081 
3 1036 274 1110 
3 343 340 1013 
3 919 789 1034 
3 556 991 999 
3 493 880 985 
3 493 985 988 
3 984 799 1005 
3 558 840 1090 
3 767 1068 1081 
3 877 493 988 
3 966 673 973 
3 607 659 1018 
3 651 925 989 
3 748 747 1002 
3 649 365 989 
3 724 238 1077 
3 112 113 1025 
3 24 23 1021 
3 71 70 1022 
3 73 72 1023 
3 347 344 1017 
3 810 967 991 
3 926 591 984 
3 909 691 990 
3 83 282 953 
3 874 917 1019 
3 294 297 987 
3 82 248 287 
3 48 243 1032 
3 945 8 1014 
3 267 49 1032 
3 974 294 987 
3 352 348 1020 
3 967 594 991 
3 347 1017 1018 
3 626 718 1042 
3 1018 659 1020 
3 376 299 1008 
3 629 597 992 
3 343 1013 1015 
3 649 989 998 
3 1025 113 1112 
3 339 1005 1010 
3 754 777 995 
3 358 354 993 
3 659 608 1027 
3 594 601 991 
3 833 452 1079 
3 87 278 1024 
3 242 229 1024 
3 358 1027 1030 
3 653 981 994 
3 918 948 1000 
3 989 925 998 
3 758 759 1031 
3 230 88 996 
3 861 259 1033 
3 706 611 1056 
3 591 980 984 
3 234 737 1049 
3 747 616 1002 
3 928 805 994 
3 596 650 1028 
3 981 928 994 
3 641 946 1117 
3 652 653 997 
3 718 624 1041 
3 948 784 1000 
3 653 994 997 
3 991 601 999 
3 515 736 1116 
3 894 358 1030 
3 665 737 1054 
3 652 997 1001 
3 625 705 1041 
3 1025 678 1095 
3 286 79 1036 
3 78 274 1036 
3 839 236 1038 
3 733 652 1001 
3 502 1003 1004 
3 502 872 1003 
3 998 562 1006 
3 601 632 999 
3 925 524 998 
3 339 1010 1013 
3 101 102 1037 
3 273 863 1072 
3 503 502 1004 
3 462 919 1034 
3 602 918 1000 
3 685 883 1007 
3 410 932 1028 
3 336 335 1005 
3 837 840 1044 
3 799 796 1010 
3 17 18 1039 
3 299 410 1008 
3 543 558 1009 
3 826 958 1109 
3 650 649 1006 
3 513 675 1011 
3 993 659 1027 
3 1014 249 1088 
3 602 1000 1016 
3 75 74 1012 
3 831 830 1044 
3 890 268 1056 
3 769 266 1067 
3 283 1023 1107 
3 726 660 1050 
3 791 251 1031 
3 340 339 1013 
3 343 1015 1017 
3 787 786 1046 
3 261 112 1025 
3 8 9 1014 
3 826 1109 1123 
3 358 993 1027 
3 795 658 1015 
3 86 239 1040 
3 278 228 1040 
3 686 637 1047 
3 1005 799 1010 
3 921 615 1043 
3 555 671 1048 
3 245 64 1052 
3 63 273 1052 
3 344 343 1017 
3 272 818 1059 
3 681 1025 1112 
3 85 279 1045 
3 834 833 1079 
3 239 227 1045 
3 632 602 1016 
3 657 607 1018 
3 1013 795 1015 
3 835 622 1071 
3 679 1036 1110 
3 1017 657 1018 
3 631 874 1019 
3 539 635 1057 
3 871 24 1021 
3 70 284 1022 
3 283 73 1023 
3 347 1018 1020 
3 229 87 1024 
3 348 347 1020 
3 66 65 1058 
3 84 234 1049 
3 279 226 1049 
3 721 957 1034 
3 864 257 1047 
3 636 623 1060 
3 649 998 1006 
3 675 676 1053 
3 761 763 1063 
3 712 710 1064 
3 1027 876 1030 
3 608 876 1027 
3 1033 259 1113 
3 1048 675 1053 
3 256 110 1087 
3 628 964 1029 
3 711 713 1029 
3 710 683 1064 
3 593 622 1061 
3 876 646 1030 
3 656 868 1091 
3 885 515 1064 
3 241 764 1094 
3 759 762 1031 
3 932 596 1028 
3 943 907 1050 
3 547 484 1070 
3 483 644 1070 
3 724 619 1072 
3 237 835 1071 
3 670 1014 1088 
3 49 48 1032 
3 6 265 1075 
3 964 711 1029 
3 788 789 1097 
3 663 688 1076 
3 246 860 1083 
3 31 254 1080 
3 104 864 1082 
3 940 254 1085 
3 787 1046 1121 
3 258 103 1082 
3 261 1025 1095 
3 871 1021 1062 
3 518 990 1101 
3 656 655 1085 
3 67 66 1084 
3 756 758 1067 
3 448 936 1061 
3 818 815 1055 
3 846 844 1086 
3 671 1011 1048 
3 52 241 1094 
3 862 861 1033 
3 269 53 1094 
3 622 621 1071 
3 699 701 1058 
3 449 448 1079 
3 854 1007 1106 
3 270 882 1092 
3 779 669 1093 
3 689 726 1080 
3 682 684 1037 
3 289 291 1065 
3 735 626 1042 
3 791 1031 1108 
3 849 845 1100 
3 666 1068 1117 
3 1011 675 1048 
3 100 101 1098 
3 669 667 1093 
3 3 80 1102 
3 23 3 1102 
3 129 0 1103 
3 0 4 1103 
3 72 1 1104 
3 1 97 1104 
3 2 71 1105 
3 22 2 1105 
3 852 285 1103 
3 114 237 1112 
3 965 662 1074 
3 610 717 1089 
3 531 480 1101 
3 695 699 1125 
3 16 250 1123 
3 240 14 1109 
3 736 714 1116 
3 905 833 1111 
3 671 999 1035 
3 990 859 1101 
3 888 547 1119 
3 1031 762 1108 
3 79 78 1036 
3 958 240 1109 
3 713 715 1107 
3 609 890 1120 
3 1063 801 1073 
3 1028 650 1063 
3 102 258 1037 
3 632 976 1035 
3 950 752 1099 
3 615 670 1088 
3 236 865 1038 
3 561 609 1120 
3 957 462 1034 
3 833 831 1111 
3 716 1033 1113 
3 842 260 1074 
3 609 939 1089 
3 959 609 1089 
3 250 17 1039 
3 727 728 1081 
3 228 86 1040 
3 624 625 1041 
3 815 817 1055 
3 999 632 1035 
3 917 656 1091 
3 786 269 1046 
3 830 837 1044 
3 839 1038 1090 
3 227 85 1045 
3 736 538 1069 
3 644 921 1043 
3 907 669 1115 
3 1007 883 1106 
3 720 721 1046 
3 637 638 1047 
3 781 267 1051 
3 557 555 1048 
3 817 816 1065 
3 811 674 1077 
3 669 972 1115 
3 1021 286 1062 
3 226 84 1049 
3 660 943 1050 
3 268 772 1056 
3 1046 721 1121 
3 557 1048 1053 
3 64 63 1052 
3 763 1028 1063 
3 81 727 1122 
3 666 665 1054 
3 762 761 1073 
3 528 908 1055 
3 629 870 1066 
3 677 557 1053 
3 245 1052 1125 
3 538 539 1057 
3 241 781 1114 
3 911 724 1077 
3 674 911 1077 
3 1043 849 1100 
3 65 245 1058 
3 827 272 1059 
3 623 631 1060 
3 840 839 1090 
3 635 679 1110 
3 716 736 1069 
3 852 5 1075 
3 936 593 1061 
3 650 801 1063 
3 254 867 1085 
3 679 636 1062 
3 982 241 1114 
3 683 885 1064 
3 275 900 1076 
3 766 728 1095 
3 900 690 1076 
3 734 558 1090 
3 224 81 1122 
3 547 1086 1119 
3 661 629 1066 
3 873 756 1067 
3 291 370 1065 
3 484 483 1070 
3 619 692 1072 
3 673 882 1097 
3 1051 267 1096 
3 890 1056 1120 
3 801 707 1073 
3 1038 734 1090 
3 621 681 1071 
3 662 661 1074 
3 853 852 1075 
3 5 6 1075 
3 953 282 1068 
3 690 663 1076 
3 238 811 1077 
3 247 792 1078 
3 1019 917 1091 
3 267 1032 1096 
3 973 673 1097 
3 1064 515 1116 
3 32 31 1080 
3 452 449 1079 
3 103 104 1082 
3 831 1044 1111 
3 860 858 1083 
3 260 67 1084 
3 816 256 1087 
3 977 854 1106 
3 844 847 1086 
3 1078 792 1108 
3 655 940 1085 
3 252 779 1093 
3 249 849 1088 
3 678 766 1095 
3 1052 694 1125 
3 1021 23 1102 
3 71 1022 1105 
3 1023 72 1104 
3 882 788 1097 
3 531 977 1106 
3 1050 907 1115 
3 246 1083 1124 
3 802 270 1092 
3 950 252 1093 
3 728 261 1095 
3 939 610 1089 
3 538 1057 1069 
3 868 253 1091 
3 53 52 1094 
3 259 1012 1113 
3 792 791 1108 
3 667 950 1093 
3 1033 716 1069 
3 1078 1108 1118 
3 845 846 1100 
3 264 100 1098 
3 717 677 1096 
3 80 286 1102 
3 285 129 1103 
3 97 628 1104 
3 627 22 1105 
3 480 518 1101 
3 789 787 1121 
3 752 873 1099 
3 253 1019 1091 
3 883 531 1106 
3 1068 767 1117 
3 14 15 1109 
3 274 862 1110 
3 113 114 1112 
3 972 255 1115 
3 715 716 1113 
3 532 905 1111 
3 714 712 1116 
3 1032 717 1096 
3 1109 15 1123 
3 282 224 1122 
3 644 1043 1100 
3 824 888 1119 
3 15 16 1123 
3 676 982 1114 
3 847 240 1126 
3 958 824 1126 
3 691 690 1124 
3 694 695 1125 
3 611 561 1120 
3 946 666 1117 
3 286 1021 1102 
3 1022 627 1105 
3 628 1023 1104 
3 1012 715 1113 
3 1119 847 1126 
3 824 1119 1126 
3 240 958 1126 
3 721 1034 1121 
3 1044 532 1111 
3 1056 611 1120 
3 1029 713 1107 
3 255 1050 1115 
3 1034 789 1121 
3 712 1064 1116 
3 762 1073 1118 
3 1051 676 1114 
3 781 1051 1114 
3 1081 282 1122 
3 1073 707 1118 
3 707 1078 1118 
3 1083 691 1124 
3 1086 847 1119 
3 727 1081 1122 
3 1108 762 1118 
3 150 151 152 
3 150 152 153 
3 149 150 153 
3 149 153 154 
3 148 149 154 
3 155 148 154 
3 155 147 148 
3 155 156 147 
3 156 146 147 
3 156 157 146 
3 157 145 146 
3 157 158 145 
3 158 144 145 
3 158 159 144 
3 144 159 143 
3 159 160 143 
3 160 142 143 
3 131 88 1127 
3 160 161 142 
3 161 141 142 
3 171 88 131 
3 161 162 141 
3 162 140 141 
3 162 163 140 
3 140 163 139 
3 163 164 139 
3 130 131 1127 
3 139 164 138 
3 164 165 138 
3 138 165 137 
3 165 166 137 
3 137 166 136 
3 166 167 136 
3 136 167 135 
3 167 168 135 
3 135 168 134 
3 168 169 134 
3 88 229 1127 
3 169 170 133 
3 169 133 134 
3 170 171 132 
3 133 170 132 
3 132 171 131 
3 229 130 1127 
3 92 93 1128 
3 152 151 1128 
3 93 152 1128 
3 151 92 1128 
3 229 87 130 
3 189 190 152 
3 153 189 152 
3 188 189 153 
3 154 188 153 
3 187 188 154 
3 155 187 154 
3 186 187 155 
3 156 186 155 
3 185 186 156 
3 185 156 157 
3 184 185 157 
3 158 184 157 
3 183 184 158 
3 159 183 158 
3 182 183 159 
3 160 182 159 
3 89 170 1129 
3 181 182 160 
3 181 160 161 
3 170 171 1129 
3 181 161 180 
3 180 161 162 
3 170 89 172 
3 179 180 162 
3 179 162 163 
3 178 179 163 
3 178 163 164 
3 177 178 164 
3 165 177 164 
3 230 89 1129 
3 176 177 165 
3 176 165 166 
3 175 176 166 
3 175 166 167 
3 174 167 168 
3 174 175 167 
3 168 169 173 
3 174 168 173 
3 169 170 172 
3 169 172 173 
3 171 230 1129 
3 94 93 1130 
3 152 190 1130 
3 93 152 1130 
3 190 94 1130 
3 171 88 230 
3 189 190 191 
3 192 189 191 
3 188 189 192 
3 193 188 192 
3 187 188 193 
3 194 187 193 
3 186 187 194 
3 195 186 194 
3 185 186 195 
3 196 185 195 
3 184 185 196 
3 197 184 196 
3 183 184 197 
3 183 197 198 
3 182 183 198 
3 173 90 1131 
3 199 182 198 
3 90 173 207 
3 182 199 181 
3 199 200 181 
3 181 200 180 
3 200 201 180 
3 201 179 180 
3 179 201 202 
3 172 173 1131 
3 179 202 178 
3 202 203 178 
3 203 177 178 
3 203 204 177 
3 204 176 177 
3 205 176 204 
3 176 205 175 
3 175 205 206 
3 174 206 207 
3 174 175 206 
3 90 231 1131 
3 173 174 207 
3 231 172 1131 
3 94 95 1132 
3 191 190 1132 
3 95 191 1132 
3 190 94 1132 
3 89 172 231 
3 222 223 191 
3 192 222 191 
3 221 222 192 
3 193 221 192 
3 220 221 193 
3 194 220 193 
3 219 220 194 
3 195 219 194 
3 218 219 195 
3 196 218 195 
3 217 218 196 
3 197 217 196 
3 216 217 197 
3 91 206 1133 
3 216 197 198 
3 215 216 198 
3 206 207 1133 
3 199 215 198 
3 215 199 214 
3 206 91 208 
3 199 200 214 
3 200 213 214 
3 200 201 213 
3 201 212 213 
3 201 202 212 
3 232 91 1133 
3 202 211 212 
3 202 203 211 
3 203 204 210 
3 203 210 211 
3 204 205 209 
3 204 209 210 
3 205 206 208 
3 205 208 209 
3 207 232 1133 
3 96 95 1134 
3 191 223 1134 
3 95 191 1134 
3 223 96 1134 
3 90 232 207 
3 222 223 97 
3 222 97 98 
3 221 222 98 
3 221 98 99 
3 220 221 99 
3 220 99 100 
3 219 220 100 
3 219 100 101 
3 218 219 101 
3 218 101 102 
3 217 218 102 
3 217 102 103 
3 209 82 1135 
3 216 217 103 
3 110 82 209 
3 216 103 104 
3 215 216 104 
3 105 215 104 
3 214 215 105 
3 106 214 105 
3 213 214 106 
3 213 106 107 
3 208 209 1135 
3 213 107 212 
3 107 108 212 
3 108 211 212 
3 108 109 211 
3 109 110 210 
3 211 109 210 
3 210 110 209 
3 82 233 1135 
3 233 208 1135 
3 96 1 1136 
3 97 223 1136 
3 1 97 1136 
3 223 96 1136 
3 233 91 208 

CELL_TYPES 2134
5
5
5
5
5
5
5
5
5
5
5
5
5
5
5
5
5
5
5
5
5
5
5
5
5
5
5
5
5
5
5
5
5
5
5
5
5
5
5
5
5
5
5
5
5
5
5
5
5
5
5
5
5
5
5
5
5
5
5
5
5
5
5
5
5
5
5
5
5
5
5
5
5
5
5
5
5
5
5
5
5
5
5
5
5
5
5
5
5
5
5
5
5
5
5
5
5
5
5
5
5
5
5
5
5
5
5
5
5
5
5
5
5
5
5
5
5
5
5
5
5
5
5
5
5
5
5
5
5
5
5
5
5
5
5
5
5
5
5
5
5
5
5
5
5
5
5
5
5
5
5
5
5
5
5
5
5
5
5
5
5
5
5
5
5
5
5
5
5
5
5
5
5
5
5
5
5
5
5
5
5
5
5
5
5
5
5
5
5
5
5
5
5
5
5
5
5
5
5
5
5
5
5
5
5
5
5
5
5
5
5
5
5
5
5
5
5
5
5
5
5
5
5
5
5
5
5
5
5
5
5
5
5
5
5
5
5
5
5
5
5
5
5
5
5
5
5
5
5
5
5
5
5
5
5
5
5
5
5
5
5
5
5
5
5
5
5
5
5
5
5
5
5
5
5
5
5
5
5
5
5
5
5
5
5
5
5
5
5
5
5
5
5
5
5
5
5
5
5
5
5
5
5
5
5
5
5
5
5
5
5
5
5
5
5
5
5
5
5
5
5
5
5
5
5
5
5
5
5
5
5
5
5
5
5
5
5
5
5
5
5
5
5
5
5
5
5
5
5
5
5
5
5
5
5
5
5
5
5
5
5
5
5
5
5
5
5
5
5
5
5
5
5
5
5
5
5
5
5
5
5
5
5
5
5
5
5
5
5
5
5
5
5
5
5
5
5
5
5
5
5
5
5
5
5
5
5
5
5
5
5
5
5
5
5
5
5
5
5
5
5
5
5
5
5
5
5
5
5
5
5
5
5
5
5
5
5
5
5
5
5
5
5
5
5
5
5
5
5
5
5
5
5
5
5
5
5
5
5
5
5
5
5
5
5
5
5
5
5
5
5
5
5
5
5
5
5
5
5
5
5
5
5
5
5
5
5
5
5
5
5
5
5
5
5
5
5
5
5
5
5
5
5
5
5
5
5
5
5
5
5
5
5
5
5
5
5
5
5
5
5
5
5
5
5
5
5
5
5
5
5
5
5
5
5
5
5
5
5
5
5
5
5
5
5
5
5
5
5
5
5
5
5
5
5
5
5
5
5
5
5
5
5
5
5
5
5
5
5
5
5
5
5
5
5
5
5
5
5
5
5
5
5
5
5
5
5
5
5
5
5
5
5
5
5
5
5
5
5
5
5
5
5
5
5
5
5
5
5
5
5
5
5
5
5
5
5
5
5
5
5
5
5
5
5
5
5
5
5
5
5
5
5
5
5
5
5
5
5
5
5
5
5
5
5
5
5
5
5
5
5
5
5
5
5
5
5
5
5
5
5
5
5
5
5
5
5
5
5
5
5
5
5
5
5
5
5
5
5
5
5
5
5
5
5
5
5
5
5
5
5
5
5
5
5
5
5
5
5
5
5
5
5
5
5
5
5
5
5
5
5
5
5
5
5
5
5
5
5
5
5
5
5
5
5
5
5
5
5
5
5
5
5
5
5
5
5
5
5
5
5
5
5
5
5
5
5
5
5
5
5
5
5
5
5
5
5
5
5
5
5
5
5
5
5
5
5
5
5
5
5
5
5
5
5
5
5
5
5
5
5
5
5
5
5
5
5
5
5
5
5
5
5
5
5
5
5
5
5
5
5
5
5
5
5
5
5
5
5
5
5
5
5
5
5
5
5
5
5
5
5
5
5
5
5
5
5
5
5
5
5
5
5
5
5
5
5
5
5
5
5
5
5
5
5
5
5
5
5
5
5
5
5
5
5
5
5
5
5
5
5
5
5
5
5
5
5
5
5
5
5
5
5
5
5
5
5
5
5
5
5
5
5
5
5
5
5
5
5
5
5
5
5
5
5
5
5
5
5
5
5
5
5
5
5
5
5
5
5
5
5
5
5
5
5
5
5
5
5
5
5
5
5
5
5
5
5
5
5
5
5
5
5
5
5
5
5
5
5
5
5
5
5
5
5
5
5
5
5
5
5
5
5
5
5
5
5
5
5
5
5
5
5
5
5
5
5
5
5
5
5
5
5
5
5
5
5
5
5
5
5
5
5
5
5
5
5
5
5
5
5
5
5
5
5
5
5
5
5
5
5
5
5
5
5
5
5
5
5
5
5
5
5
5
5
5
5
5
5
5
5
5
5
5
5
5
5
5
5
5
5
5
5
5
5
5
5
5
5
5
5
5
5
5
5
5
5
5
5
5
5
5
5
5
5
5
5
5
5
5
5
5
5
5
5
5
5
5
5
5
5
5
5
5
5
5
5
5
5
5
5
5
5
5
5
5
5
5
5
5
5
5
5
5
5
5
5
5
5
5
5
5
5
5
5
5
5
5
5
5
5
5
5
5
5
5
5
5
5
5
5
5
5
5
5
5
5
5
5
5
5
5
5
5
5
5
5
5
5
5
5
5
5
5
5
5
5
5
5
5
5
5
5
5
5
5
5
5
5
5
5
5
5
5
5
5
5
5
5
5
5
5
5
5
5
5
5
5
5
5
5
5
5
5
5
5
5
5
5
5
5
5
5
5
5
5
5
5
5
5
5
5
5
5
5
5
5
5
5
5
5
5
5
5
5
5
5
5
5
5
5
5
5
5
5
5
5
5
5
5
5
5
5
5
5
5
5
5
5
5
5
5
5
5
5
5
5
5
5
5
5
5
5
5
5
5
5
5
5
5
5
5
5
5
5
5
5
5
5
5
5
5
5
5
5
5
5
5
5
5
5
5
5
5
5
5
5
5
5
5
5
5
5
5
5
5
5
5
5
5
5
5
5
5
5
5
5
5
5
5
5
5
5
5
5
5
5
5
5
5
5
5
5
5
5
5
5
5
5
5
5
5
5
5
5
5
5
5
5
5
5
5
5
5
5
5
5
5
5
5
5
5
5
5
5
5
5
5
5
5
5
5
5
5
5
5
5
5
5
5
5
5
5
5
5
5
5
5
5
5
5
5
5
5
5
5
5
5
5
5
5
5
5
5
5
5
5
5
5
5
5
5
5
5
5
5
5
5
5
5
5
5
5
5
5
5
5
5
5
5
5
5
5
5
5
5
5
5
5
5
5
5
5
5
5
5
5
5
5
5
5
5
5
5
5
5
5
5
5
5
5
5
5
5
5
5
5
5
5
5
5
5
5
5
5
5
5
5
5
5
5
5
5
5
5
5
5
5
5
5
5
5
5
5
5
5
5
5
5
5
5
5
5
5
5
5
5
5
5
5
5
5
5
5
5
5
5
5
5
5
5
5
5
5
5
5
5
5
5
5
5
5
5
5
5
5
5
5
5
5
5
5
5
5
5
5
5
5
5
5
5
5
5
5
5
5
5
5
5
5
5
5
5
5
5
5
5
5
5
5
5
5
5
5
5
5
5
5
5
5
5
5
5
5
5
5
5
5
5
5
5
5
5
5
5
5
5
5
5
5
5
5
5
5
5
5
5
5
5
5
5
5
5
5
5
5
5
5
5
5
5
5
5
5
5
5
5
5
5
5
5
5
5
5
5
5
5
5
5
5
5
5
5
5
5
5
5
5
5
5
5
5
5
5
5
5
5
5
5
5
5
5
5
5
5
5
5
5
5
5
5
5
5
5
5
5
5
5
5
5
5
5
5
5
5
5
5
5
5
5
5
5
5
5
5
5
5
5
5
5
5
5
5
5
5
5
5
5
5
5
5
5
5
5
5
5
5
5
5
5
5
5
5
5
5
5
5
5
5
5
5
5
5
5
5
5
5
5
5
5
5
5
5
5
5
5
5
5
5
5
5
5
5
5
5
5
5
5
5
5
5
5
5
5
5
5
5
5
5
5
5
5
5
5
5
5
5
5
5
5
5
5
5
5
5
5
5
5
5
5
5
5
5
5
5
5
5
5
5
5
5
5
5
5
5
5
5
5
5
5
5
5
5
5
5
5
5
5
5
5
5
5
5
5
5
5
5
5
5
5
5
5
5
5
5
5
5
5
5
5
5
5
5
5
5
5
5
5
5
5
5
5
5
5
5
5
5
5
5
5
5
5
5
5
5
5
5
5
5
5
5
5
5
5
5
5
5
5
5
5
5
5
5
5
5
5
5
5
5
5
5
5
5
5
5
5
5
5
5
5
5
5
5
5
5
5
5
5
5
5
5
5
5
5
5
5
5
5
5
5
5
5
5
5
5
5
5
5
5
5
5
5
5
5
5
5
5
5
5
5
5
5
5
5
5
5
5
5
5
5
5
5
5
5
5
5
5
5
5
5
5
5
5
5
5
5
5
5
5
5
5
5
5
5
5
5
5
5
5
5
5
5
5
5
5
5
5
5
5
5
5
5
5
5
5
5
5
5
5
5
5
5
5
5
5
5
5
5
5
5
5
5
5
5
5
5
5
5
5
5
5
5
5
5
5
5
5
5
5
5
5
5
5
5
5
5
5
5
5
5
5
5
5
5
5
5
5
5
5
5
5
5
5
5
5
5
5
5
5
5
5
5
5
5
5
5
5
5
5
5
5
5
5
5
5
5
5
5
5
5
5
5
5
5
5
5
5
5
5
5
5
5
5
5
5
5
5
5
5
5
5
5
5
5
5
5
5
5
5
5
5
5
5
5
5
5
5
5
5
5
5
5
5
5
5
5
5
5
5
5
5
5
5
5
5
5
5
5
5
5
5
5
5
5

POINT_DATA 1137

VECTORS coord float
0.0 0.0 0.0 
5.000000000000e+01 -1.000000000000e+01 0.0 
0.0 -2.000000000000e+01 0.0 
5.000000000000e+01 -2.000000000000e+01 0.0 
0.0 -9.999999999991e-01 0.0 
0.0 -1.999999999998e+00 0.0 
0.0 -2.999999999997e+00 0.0 
0.0 -3.999999999994e+00 0.0 
0.0 -4.999999999991e+00 0.0 
0.0 -5.999999999988e+00 0.0 
0.0 -6.999999999985e+00 0.0 
0.0 -7.999999999982e+00 0.0 
0.0 -8.999999999983e+00 0.0 
0.0 -9.999999999985e+00 0.0 
0.0 -1.099999999999e+01 0.0 
0.0 -1.199999999999e+01 0.0 
0.0 -1.299999999999e+01 0.0 
0.0 -1.399999999999e+01 0.0 
0.0 -1.499999999999e+01 0.0 
0.0 -1.599999999999e+01 0.0 
0.0 -1.700000000000e+01 0.0 
0.0 -1.800000000000e+01 0.0 
0.0 -1.900000000000e+01 0.0 
4.900000000001e+01 -2.000000000000e+01 0.0 
4.800000000001e+01 -2.000000000000e+01 0.0 
4.700000000002e+01 -2.000000000000e+01 0.0 
4.600000000003e+01 -2.000000000000e+01 0.0 
4.500000000004e+01 -2.000000000000e+01 0.0 
4.400000000004e+01 -2.000000000000e+01 0.0 
4.300000000005e+01 -2.000000000000e+01 0.0 
4.200000000006e+01 -2.000000000000e+01 0.0 
4.100000000006e+01 -2.000000000000e+01 0.0 
4.000000000007e+01 -2.000000000000e+01 0.0 
3.900000000008e+01 -2.000000000000e+01 0.0 
3.800000000009e+01 -2.000000000000e+01 0.0 
3.700000000009e+01 -2.000000000000e+01 0.0 
3.600000000010e+01 -2.000000000000e+01 0.0 
3.500000000011e+01 -2.000000000000e+01 0.0 
3.400000000011e+01 -2.000000000000e+01 0.0 
3.300000000012e+01 -2.000000000000e+01 0.0 
3.200000000013e+01 -2.000000000000e+01 0.0 
3.100000000013e+01 -2.000000000000e+01 0.0 
3.000000000013e+01 -2.000000000000e+01 0.0 
2.900000000013e+01 -2.000000000000e+01 0.0 
2.800000000013e+01 -2.000000000000e+01 0.0 
2.700000000013e+01 -2.000000000000e+01 0.0 
2.600000000013e+01 -2.000000000000e+01 0.0 
2.500000000013e+01 -2.000000000000e+01 0.0 
2.400000000013e+01 -2.000000000000e+01 0.0 
2.300000000013e+01 -2.000000000000e+01 0.0 
2.200000000013e+01 -2.000000000000e+01 0.0 
2.100000000013e+01 -2.000000000000e+01 0.0 
2.000000000013e+01 -2.000000000000e+01 0.0 
1.900000000013e+01 -2.000000000000e+01 0.0 
1.800000000013e+01 -2.000000000000e+01 0.0 
1.700000000012e+01 -2.000000000000e+01 0.0 
1.600000000011e+01 -2.000000000000e+01 0.0 
1.500000000011e+01 -2.000000000000e+01 0.0 
1.400000000010e+01 -2.000000000000e+01 0.0 
1.300000000009e+01 -2.000000000000e+01 0.0 
1.200000000009e+01 -2.000000000000e+01 0.0 
1.100000000008e+01 -2.000000000000e+01 0.0 
1.000000000007e+01 -2.000000000000e+01 0.0 
9.000000000064e+00 -2.000000000000e+01 0.0 
8.000000000057e+00 -2.000000000000e+01 0.0 
7.000000000050e+00 -2.000000000000e+01 0.0 
6.000000000043e+00 -2.000000000000e+01 0.0 
5.000000000036e+00 -2.000000000000e+01 0.0 
4.000000000028e+00 -2.000000000000e+01 0.0 
3.000000000021e+00 -2.000000000000e+01 0.0 
2.000000000014e+00 -2.000000000000e+01 0.0 
1.000000000007e+00 -2.000000000000e+01 0.0 
5.000000000000e+01 -1.100000000000e+01 0.0 
5.000000000000e+01 -1.200000000000e+01 0.0 
5.000000000000e+01 -1.300000000000e+01 0.0 
5.000000000000e+01 -1.400000000000e+01 0.0 
5.000000000000e+01 -1.500000000000e+01 0.0 
5.000000000000e+01 -1.600000000000e+01 0.0 
5.000000000000e+01 -1.700000000000e+01 0.0 
5.000000000000e+01 -1.800000000000e+01 0.0 
5.000000000000e+01 -1.900000000000e+01 0.0 
2.000000000000e+01 0.0 0.0 
3.500000000000e+01 -1.000000000000e+01 0.0 
2.150000000000e+01 -1.000000000000e+00 0.0 
2.300000000000e+01 -2.000000000000e+00 0.0 
2.450000000000e+01 -3.000000000000e+00 0.0 
2.600000000000e+01 -4.000000000000e+00 0.0 
2.750000000000e+01 -5.000000000000e+00 0.0 
2.900000000000e+01 -6.000000000000e+00 0.0 
3.050000000000e+01 -7.000000000000e+00 0.0 
3.200000000000e+01 -8.000000000000e+00 0.0 
3.350000000000e+01 -9.000000000000e+00 0.0 
5.000000000000e+01 -5.000000000000e+00 0.0 
5.000000000000e+01 -6.000000000000e+00 0.0 
5.000000000000e+01 -7.000000000000e+00 0.0 
5.000000000000e+01 -8.000000000000e+00 0.0 
5.000000000000e+01 -9.000000000000e+00 0.0 
4.900000000000e+01 -1.000000000000e+01 0.0 
4.800000000000e+01 -1.000000000000e+01 0.0 
4.700000000000e+01 -1.000000000000e+01 0.0 
4.600000000000e+01 -1.000000000000e+01 0.0 
4.500000000000e+01 -1.000000000000e+01 0.0 
4.400000000000e+01 -1.000000000000e+01 0.0 
4.300000000000e+01 -1.000000000000e+01 0.0 
4.200000000000e+01 -1.000000000000e+01 0.0 
4.100000000000e+01 -1.000000000000e+01 0.0 
4.000000000000e+01 -1.000000000000e+01 0.0 
3.900000000000e+01 -1.000000000000e+01 0.0 
3.800000000000e+01 -1.000000000000e+01 0.0 
3.700000000000e+01 -1.000000000000e+01 0.0 
3.600000000000e+01 -1.000000000000e+01 0.0 
1.900000000000e+01 0.0 0.0 
1.800000000000e+01 0.0 0.0 
1.700000000000e+01 0.0 0.0 
1.600000000000e+01 0.0 0.0 
1.500000000000e+01 0.0 0.0 
1.400000000000e+01 0.0 0.0 
1.300000000000e+01 0.0 0.0 
1.200000000000e+01 0.0 0.0 
1.100000000000e+01 0.0 0.0 
1.000000000000e+01 0.0 0.0 
9.000000000000e+00 0.0 0.0 
8.000000000000e+00 0.0 0.0 
7.000000000000e+00 0.0 0.0 
6.000000000000e+00 0.0 0.0 
5.000000000000e+00 0.0 0.0 
4.000000000000e+00 0.0 0.0 
3.000000000000e+00 0.0 0.0 
2.000000000000e+00 0.0 0.0 
1.000000000000e+00 0.0 0.0 
2.847826086957e+01 -5.000000000000e+00 0.0 
2.945652173913e+01 -5.000000000000e+00 0.0 
3.043478260870e+01 -5.000000000000e+00 0.0 
3.141304347826e+01 -5.000000000000e+00 0.0 
3.239130434783e+01 -5.000000000000e+00 0.0 
3.336956521739e+01 -5.000000000000e+00 0.0 
3.434782608696e+01 -5.000000000000e+00 0.0 
3.532608695652e+01 -5.000000000000e+00 0.0 
3.630434782609e+01 -5.000000000000e+00 0.0 
3.728260869565e+01 -5.000000000000e+00 0.0 
3.826086956522e+01 -5.000000000000e+00 0.0 
3.923913043478e+01 -5.000000000000e+00 0.0 
4.021739130435e+01 -5.000000000000e+00 0.0 
4.119565217391e+01 -5.000000000000e+00 0.0 
4.217391304348e+01 -5.000000000000e+00 0.0 
4.315217391304e+01 -5.000000000000e+00 0.0 
4.413043478261e+01 -5.000000000000e+00 0.0 
4.510869565217e+01 -5.000000000000e+00 0.0 
4.608695652174e+01 -5.000000000000e+00 0.0 
4.706521739130e+01 -5.000000000000e+00 0.0 
4.804347826087e+01 -5.000000000000e+00 0.0 
4.902173913043e+01 -5.000000000000e+00 0.0 
4.900000000001e+01 -6.000000000000e+00 0.0 
4.800000000003e+01 -6.000000000000e+00 0.0 
4.700000000004e+01 -6.000000000000e+00 0.0 
4.600000000006e+01 -6.000000000000e+00 0.0 
4.500000000007e+01 -6.000000000000e+00 0.0 
4.400000000009e+01 -6.000000000000e+00 0.0 
4.300000000010e+01 -6.000000000000e+00 0.0 
4.200000000012e+01 -6.000000000000e+00 0.0 
4.100000000013e+01 -6.000000000000e+00 0.0 
4.000000000014e+01 -6.000000000000e+00 0.0 
3.900000000014e+01 -6.000000000000e+00 0.0 
3.800000000012e+01 -6.000000000000e+00 0.0 
3.700000000010e+01 -6.000000000000e+00 0.0 
3.600000000008e+01 -6.000000000000e+00 0.0 
3.500000000006e+01 -6.000000000000e+00 0.0 
3.400000000005e+01 -6.000000000000e+00 0.0 
3.300000000003e+01 -6.000000000000e+00 0.0 
3.200000000001e+01 -6.000000000000e+00 0.0 
3.100000000000e+01 -6.000000000000e+00 0.0 
3.000000000000e+01 -6.000000000000e+00 0.0 
3.147499999998e+01 -7.000000000000e+00 0.0 
3.244999999998e+01 -7.000000000000e+00 0.0 
3.342499999998e+01 -7.000000000000e+00 0.0 
3.439999999998e+01 -7.000000000000e+00 0.0 
3.537499999998e+01 -7.000000000000e+00 0.0 
3.634999999998e+01 -7.000000000000e+00 0.0 
3.732499999998e+01 -7.000000000000e+00 0.0 
3.829999999998e+01 -7.000000000000e+00 0.0 
3.927499999999e+01 -7.000000000000e+00 0.0 
4.024999999999e+01 -7.000000000000e+00 0.0 
4.122499999999e+01 -7.000000000000e+00 0.0 
4.219999999999e+01 -7.000000000000e+00 0.0 
4.317499999999e+01 -7.000000000000e+00 0.0 
4.414999999999e+01 -7.000000000000e+00 0.0 
4.512499999999e+01 -7.000000000000e+00 0.0 
4.609999999999e+01 -7.000000000000e+00 0.0 
4.707500000000e+01 -7.000000000000e+00 0.0 
4.805000000000e+01 -7.000000000000e+00 0.0 
4.902500000000e+01 -7.000000000000e+00 0.0 
4.900000000000e+01 -8.000000000000e+00 0.0 
4.800000000000e+01 -8.000000000000e+00 0.0 
4.700000000000e+01 -8.000000000000e+00 0.0 
4.600000000000e+01 -8.000000000000e+00 0.0 
4.500000000000e+01 -8.000000000000e+00 0.0 
4.400000000000e+01 -8.000000000000e+00 0.0 
4.300000000000e+01 -8.000000000000e+00 0.0 
4.200000000000e+01 -8.000000000000e+00 0.0 
4.100000000000e+01 -8.000000000000e+00 0.0 
4.000000000000e+01 -8.000000000000e+00 0.0 
3.900000000000e+01 -8.000000000000e+00 0.0 
3.800000000000e+01 -8.000000000000e+00 0.0 
3.700000000000e+01 -8.000000000000e+00 0.0 
3.600000000000e+01 -8.000000000000e+00 0.0 
3.500000000000e+01 -8.000000000000e+00 0.0 
3.400000000000e+01 -8.000000000000e+00 0.0 
3.300000000000e+01 -8.000000000000e+00 0.0 
3.447058823527e+01 -9.000000000000e+00 0.0 
3.544117647055e+01 -9.000000000000e+00 0.0 
3.641176470582e+01 -9.000000000000e+00 0.0 
3.738235294109e+01 -9.000000000000e+00 0.0 
3.835294117637e+01 -9.000000000000e+00 0.0 
3.932352941164e+01 -9.000000000000e+00 0.0 
4.029411764691e+01 -9.000000000000e+00 0.0 
4.126470588219e+01 -9.000000000000e+00 0.0 
4.223529411748e+01 -9.000000000000e+00 0.0 
4.320588235279e+01 -9.000000000000e+00 0.0 
4.417647058811e+01 -9.000000000000e+00 0.0 
4.514705882342e+01 -9.000000000000e+00 0.0 
4.611764705874e+01 -9.000000000000e+00 0.0 
4.708823529405e+01 -9.000000000000e+00 0.0 
4.805882352937e+01 -9.000000000000e+00 0.0 
4.902941176468e+01 -9.000000000000e+00 0.0 
2.075000000000e+01 -5.000000000006e-01 0.0 
2.225000000000e+01 -1.500000000000e+00 0.0 
2.375000000000e+01 -2.500000000000e+00 0.0 
2.525000000000e+01 -3.500000000000e+00 0.0 
2.675000000000e+01 -4.500000000000e+00 0.0 
2.825000000000e+01 -5.500000000000e+00 0.0 
2.975000000000e+01 -6.500000000000e+00 0.0 
3.125000000000e+01 -7.500000000000e+00 0.0 
3.275000000000e+01 -8.500000000000e+00 0.0 
3.425000000000e+01 -9.500000000000e+00 0.0 
2.226951693683e+01 -2.403913980114e+00 0.0 
1.650149491944e+01 -1.913490915758e+01 0.0 
1.050042386896e+01 -8.504605092970e-01 0.0 
1.553146524712e+01 -8.281255032105e-01 0.0 
1.150000000008e+01 -1.913397459621e+01 0.0 
2.530060260647e+01 -4.428336431260e+00 0.0 
8.651114563942e-01 -1.052096295641e+01 0.0 
2.050000000013e+01 -1.913397459622e+01 0.0 
2.819198729811e+01 -6.399519052838e+00 0.0 
2.445670302931e+01 -1.915649188023e+01 0.0 
3.117591465718e+01 -8.394293040695e+00 0.0 
7.465053044742e+00 -1.920411160581e+01 0.0 
6.398295709691e+00 -8.230098819370e-01 0.0 
2.849659607461e+01 -1.914296187762e+01 0.0 
3.418732642882e+01 -1.040265792588e+01 0.0 
8.386450935063e-01 -6.533605142809e+00 0.0 
9.178661865596e-01 -1.329769195597e+01 0.0 
3.149448624493e+01 -1.910466733764e+01 0.0 
3.552916747426e+01 -1.914628590759e+01 0.0 
4.449210346537e+01 -1.914359085008e+01 0.0 
4.140975975145e+01 -1.906941860733e+01 0.0 
3.847475958753e+01 -1.916622382724e+01 0.0 
3.653774794640e+01 -1.088712800241e+01 0.0 
4.047886341787e+01 -1.090139014048e+01 0.0 
4.348006339825e+01 -1.092792621489e+01 0.0 
4.919519968029e+01 -1.451526755068e+01 0.0 
4.500000000032e+00 -1.913397459621e+01 0.0 
1.856136921614e+01 -8.212235170404e-01 0.0 
3.499895312306e+00 -8.661165539723e-01 0.0 
9.076088696565e-01 -1.642306201891e+01 0.0 
4.655174095477e+01 -1.086183387525e+01 0.0 
9.430688970604e-01 -3.496112672958e+00 0.0 
3.353992337063e+01 -1.901202090820e+01 0.0 
2.249746016977e+01 -1.921262287282e+01 0.0 
2.650122741777e+01 -1.916123026018e+01 0.0 
1.863571384842e+01 -1.908325534840e+01 0.0 
1.450089971693e+01 -1.917691901860e+01 0.0 
1.350044695317e+01 -8.659695299584e-01 0.0 
3.849987469880e+01 -1.084154983397e+01 0.0 
9.454419857884e+00 -1.900818879936e+01 0.0 
4.917398660523e+01 -1.645692866081e+01 0.0 
8.500000000000e+00 -8.660254037844e-01 0.0 
8.660319230785e-01 -8.500111697188e+00 0.0 
4.649022621545e+01 -1.930506220113e+01 0.0 
2.667688107845e+01 -5.420288124331e+00 0.0 
2.379251615665e+01 -3.412225477429e+00 0.0 
2.966631491830e+01 -7.389030232731e+00 0.0 
3.267915035995e+01 -9.396934932445e+00 0.0 
2.074836922338e+01 -1.320054020319e+00 0.0 
4.915985743621e+01 -1.261973384855e+01 0.0 
2.527129768623e+00 -1.931592414663e+01 0.0 
1.538676247410e+00 -8.436956619311e-01 0.0 
4.908096641539e+01 -1.842484004551e+01 0.0 
3.478612492673e+01 -1.090889364140e+01 0.0 
3.409757055860e+01 -1.131991530427e+01 0.0 
3.501895309466e+01 -1.177687842717e+01 0.0 
3.407758073088e+01 -1.224293381580e+01 0.0 
3.484541875390e+01 -1.277051428430e+01 0.0 
3.400322025842e+01 -1.319022775640e+01 0.0 
3.321672625034e+01 -1.266779191233e+01 0.0 
3.315244139236e+01 -1.360984106532e+01 0.0 
3.236335186892e+01 -1.308463225210e+01 0.0 
3.478337442841e+01 -1.372341158982e+01 0.0 
3.230105923633e+01 -1.403023731610e+01 0.0 
3.150954055289e+01 -1.350301767700e+01 0.0 
3.144604792090e+01 -1.444931742516e+01 0.0 
3.065653897123e+01 -1.392357262981e+01 0.0 
3.071897610812e+01 -1.297447031198e+01 0.0 
2.986790411740e+01 -1.339226181535e+01 0.0 
2.993181466745e+01 -1.244703272398e+01 0.0 
2.908023061869e+01 -1.286254537734e+01 0.0 
2.901619051372e+01 -1.380881655279e+01 0.0 
2.822986160390e+01 -1.327695262116e+01 0.0 
2.829453476870e+01 -1.233265343811e+01 0.0 
2.744542905518e+01 -1.274510491105e+01 0.0 
2.751120089246e+01 -1.180368086886e+01 0.0 
2.666218649885e+01 -1.221619339205e+01 0.0 
2.672371209234e+01 -1.127125228527e+01 0.0 
2.587763216302e+01 -1.168539979114e+01 0.0 
2.581165585299e+01 -1.262994410089e+01 0.0 
2.502890882577e+01 -1.209827323619e+01 0.0 
2.509631327757e+01 -1.115492410304e+01 0.0 
2.424662989877e+01 -1.156630981079e+01 0.0 
2.431704046904e+01 -1.062389179334e+01 0.0 
2.346445438728e+01 -1.103427680694e+01 0.0 
2.339382552877e+01 -1.197964871788e+01 0.0 
2.260936050780e+01 -1.144513277642e+01 0.0 
2.268075012022e+01 -1.049911928216e+01 0.0 
2.182525737661e+01 -1.090920811464e+01 0.0 
2.189682319817e+01 -9.961716944568e+00 0.0 
2.104174127792e+01 -1.037266986667e+01 0.0 
2.111304367575e+01 -9.424179358711e+00 0.0 
2.025306185381e+01 -9.832727364719e+00 0.0 
2.018141124247e+01 -1.079140628871e+01 0.0 
1.938594498257e+01 -1.025147354112e+01 0.0 
1.946106490453e+01 -9.288010758448e+00 0.0 
1.858929958352e+01 -9.706319802516e+00 0.0 
1.851540991219e+01 -1.067205988724e+01 0.0 
1.771485303178e+01 -1.012504443115e+01 0.0 
1.764134552256e+01 -1.109360378538e+01 0.0 
1.683745148095e+01 -1.054496365337e+01 0.0 
1.691852964353e+01 -9.582555261178e+00 0.0 
1.603603813062e+01 -1.000160132379e+01 0.0 
1.595824239350e+01 -1.096750698862e+01 0.0 
1.515080624291e+01 -1.041639501931e+01 0.0 
1.523171602559e+01 -9.451711491453e+00 0.0 
1.434621060709e+01 -9.871956467464e+00 0.0 
1.426777178765e+01 -1.083749501371e+01 0.0 
1.345775282374e+01 -1.028803175500e+01 0.0 
1.354103873368e+01 -9.324918457162e+00 0.0 
1.265072018622e+01 -9.742612837270e+00 0.0 
1.257285762070e+01 -1.071557782384e+01 0.0 
1.175874815690e+01 -1.015972324288e+01 0.0 
1.184203019714e+01 -9.193604071377e+00 0.0 
1.094927709905e+01 -9.612103238656e+00 0.0 
1.086938022910e+01 -1.058685085646e+01 0.0 
1.005424098961e+01 -1.002939116380e+01 0.0 
9.977974613295e+00 -1.101324897989e+01 0.0 
1.012915646404e+01 -9.051815821181e+00 0.0 
9.237127782494e+00 -9.471239055559e+00 0.0 
9.308426593771e+00 -8.483376461131e+00 0.0 
8.418806073345e+00 -8.910712374517e+00 0.0 
2.253688464062e+01 -1.239459402279e+01 0.0 
8.495126726666e+00 -7.921646665254e+00 0.0 
9.389727383206e+00 -7.512103628377e+00 0.0 
7.601560812974e+00 -8.349460349344e+00 0.0 
7.525680547759e+00 -9.339736686940e+00 0.0 
7.677888324502e+00 -7.359727833346e+00 0.0 
6.782001206724e+00 -7.788454494773e+00 0.0 
6.858778622885e+00 -6.797338062822e+00 0.0 
2.196596590865e+01 -8.979025665442e+00 0.0 
2.816540108272e+01 -1.422634142353e+01 0.0 
5.961601194403e+00 -7.226824010712e+00 0.0 
6.038171749656e+00 -6.234825887079e+00 0.0 
6.936257279557e+00 -5.805287640737e+00 0.0 
6.115068918323e+00 -5.242109758768e+00 0.0 
3.564391741903e+01 -1.329240553876e+01 0.0 
3.558115605778e+01 -1.425902892003e+01 0.0 
3.645445282201e+01 -1.381970786460e+01 0.0 
3.639744204358e+01 -1.479198128612e+01 0.0 
3.727266909778e+01 -1.435399586226e+01 0.0 
5.216667013081e+00 -5.671788584287e+00 0.0 
3.220697293295e+01 -1.499594545107e+01 0.0 
3.551112158269e+01 -1.523479869250e+01 0.0 
2.836056961467e+01 -1.139032434851e+01 0.0 
2.516730388602e+01 -1.021382726837e+01 0.0 
1.844436907403e+01 -1.164097215196e+01 0.0 
5.885434318740e+00 -8.218694781467e+00 0.0 
5.064071066867e+00 -7.656614643901e+00 0.0 
4.988089103470e+00 -8.649722082718e+00 0.0 
1.079421050408e+01 -1.157014985435e+01 0.0 
9.902420005256e+00 -1.199903342656e+01 0.0 
1.071994252214e+01 -1.255727909771e+01 0.0 
9.826974788171e+00 -1.298659581767e+01 0.0 
1.064607883789e+01 -1.354595476388e+01 0.0 
9.751541265343e+00 -1.397556905071e+01 0.0 
8.932296185869e+00 -1.341553353988e+01 0.0 
8.856399248106e+00 -1.440570715508e+01 0.0 
8.036186803543e+00 -1.384470558472e+01 0.0 
1.057112875118e+01 -1.453516759081e+01 0.0 
1.146582585687e+01 -1.410539926903e+01 0.0 
7.959894480382e+00 -1.483563350928e+01 0.0 
7.138792279156e+00 -1.427465094140e+01 0.0 
7.062506792418e+00 -1.526615385482e+01 0.0 
6.240693558277e+00 -1.470508863040e+01 0.0 
6.316957575451e+00 -1.371212581281e+01 0.0 
5.418183007107e+00 -1.414253605022e+01 0.0 
5.494748364428e+00 -1.314886770603e+01 0.0 
1.756825565873e+01 -1.206433872514e+01 0.0 
1.837565773345e+01 -1.261356468266e+01 0.0 
1.749574831391e+01 -1.303769280014e+01 0.0 
1.830539187332e+01 -1.358828364284e+01 0.0 
1.742278925170e+01 -1.401367746928e+01 0.0 
1.823303007798e+01 -1.456432294258e+01 0.0 
1.734941694138e+01 -1.499213734361e+01 0.0 
1.653760041637e+01 -1.443920312098e+01 0.0 
3.056237977307e+01 -1.487132260174e+01 0.0 
1.866469084762e+01 -8.742953000418e+00 0.0 
1.953669694916e+01 -8.326038909849e+00 0.0 
1.874194303780e+01 -7.780688158966e+00 0.0 
1.961032016741e+01 -7.366854697285e+00 0.0 
1.881715755159e+01 -6.821102209649e+00 0.0 
1.968369797150e+01 -6.407747217358e+00 0.0 
1.889237123259e+01 -5.858375520026e+00 0.0 
1.802038875366e+01 -6.276202618170e+00 0.0 
1.809793837984e+01 -5.307629520489e+00 0.0 
1.721985207997e+01 -5.728242054488e+00 0.0 
1.729850893523e+01 -4.756990819347e+00 0.0 
1.641745664240e+01 -5.174636548624e+00 0.0 
2.495978509456e+01 -1.304406404294e+01 0.0 
1.911567814831e+01 -1.413854250293e+01 0.0 
1.904387332608e+01 -1.511463127723e+01 0.0 
1.992115934240e+01 -1.468788025898e+01 0.0 
7.013706899628e+00 -4.812582868662e+00 0.0 
5.342091874585e+00 -1.513658157269e+01 0.0 
1.139098043784e+01 -1.509488509480e+01 0.0 
1.228151810610e+01 -1.465617481983e+01 0.0 
1.646373110164e+01 -1.541993323337e+01 0.0 
5.293328636712e+00 -4.678385108584e+00 0.0 
1.975965862987e+01 -5.448124345648e+00 0.0 
2.054318374236e+01 -5.992561293251e+00 0.0 
3.721453439063e+01 -1.533216152738e+01 0.0 
3.809302733893e+01 -1.489235527381e+01 0.0 
1.220852788900e+01 -1.565304565230e+01 0.0 
4.394120899730e+00 -5.108397613210e+00 0.0 
8.779354620288e+00 -1.539524721159e+01 0.0 
1.817791047702e+01 -4.338570146253e+00 0.0 
4.518860013839e+00 -1.457343189307e+01 0.0 
4.442712140414e+00 -1.556841391069e+01 0.0 
8.115343466391e+00 -1.285760324283e+01 0.0 
1.985334703171e+01 -1.566478400426e+01 0.0 
2.071953850276e+01 -1.522074243119e+01 0.0 
1.634012953883e+01 -6.154777738301e+00 0.0 
1.553479994708e+01 -5.593730508879e+00 0.0 
1.561265946942e+01 -4.617761762647e+00 0.0 
1.470674212978e+01 -5.064576488228e+00 0.0 
1.464498299883e+01 -6.026514471420e+00 0.0 
1.383271561817e+01 -5.467796261169e+00 0.0 
1.389241253067e+01 -4.504338666645e+00 0.0 
1.301868735463e+01 -4.907185188626e+00 0.0 
1.294514184846e+01 -5.888160903592e+00 0.0 
1.212955968622e+01 -5.328262335277e+00 0.0 
1.220721122383e+01 -4.341264976687e+00 0.0 
1.131324345897e+01 -4.766773516508e+00 0.0 
5.266597955397e+00 -1.613148974258e+01 0.0 
1.737805990867e+01 -3.786677807525e+00 0.0 
3.078438094513e+01 -1.203225297748e+01 0.0 
1.131569882285e+01 -1.608511932110e+01 0.0 
1.728478341782e+01 -1.596017432313e+01 0.0 
3.803465906019e+01 -1.587509751228e+01 0.0 
3.891681276677e+01 -1.543395196905e+01 0.0 
3.897340985302e+01 -1.444710288980e+01 0.0 
3.980095968193e+01 -1.499059496613e+01 0.0 
3.974334598189e+01 -1.597921884150e+01 0.0 
4.062964983717e+01 -1.553518690417e+01 0.0 
4.068729602479e+01 -1.454434445295e+01 0.0 
4.151772679790e+01 -1.508974196007e+01 0.0 
4.157505195739e+01 -1.409694289912e+01 0.0 
4.240699932656e+01 -1.464347955968e+01 0.0 
4.234898051011e+01 -1.563721375790e+01 0.0 
4.323934606035e+01 -1.519082036405e+01 0.0 
4.329740528208e+01 -1.419587509788e+01 0.0 
4.413056841369e+01 -1.474359631875e+01 0.0 
4.418850110108e+01 -1.374786684042e+01 0.0 
4.502219770667e+01 -1.429605103525e+01 0.0 
4.496411937907e+01 -1.529215882720e+01 0.0 
4.490027319897e+00 -4.154167794594e+00 0.0 
1.565080385988e+01 -1.486411982419e+01 0.0 
1.557610691279e+01 -1.584855627870e+01 0.0 
4.195350646612e+00 -8.089117689096e+00 0.0 
4.124027797830e+00 -9.082831955007e+00 0.0 
4.917944318925e+00 -9.643530901533e+00 0.0 
4.020105689502e+00 -1.007439673661e+01 0.0 
4.587185899277e+01 -1.484039992728e+01 0.0 
4.580078661551e+01 -1.584043391042e+01 0.0 
2.061956522375e+01 -5.046701343981e+00 0.0 
2.139572955529e+01 -5.579553449826e+00 0.0 
3.715344357292e+01 -1.631485124583e+01 0.0 
3.618886196443e+00 -1.500471207167e+01 0.0 
3.695606940204e+00 -1.400939692294e+01 0.0 
2.438890661143e+01 -9.686110599723e+00 0.0 
2.523267572778e+01 -9.276766000622e+00 0.0 
2.446094171539e+01 -8.751904591412e+00 0.0 
2.529089822738e+01 -8.321495612547e+00 0.0 
2.606882688827e+01 -8.864724051119e+00 0.0 
2.452116646430e+01 -7.792756462004e+00 0.0 
1.235543269617e+01 -1.365845617339e+01 0.0 
4.318116874181e+01 -1.618567469992e+01 0.0 
7.835066111909e+00 -5.376366223896e+00 0.0 
7.905687335704e+00 -4.382539065697e+00 0.0 
3.542640009567e+00 -1.600035116542e+01 0.0 
1.572431503071e+01 -1.388358386695e+01 0.0 
2.574684696680e+01 -1.357896141127e+01 0.0 
2.488842657651e+01 -1.399674354505e+01 0.0 
2.568301775611e+01 -1.453552048595e+01 0.0 
2.481535572009e+01 -1.495542756508e+01 0.0 
2.561729699688e+01 -1.549784648532e+01 0.0 
2.474623061296e+01 -1.592058894178e+01 0.0 
2.394234041695e+01 -1.537572575827e+01 0.0 
2.065825452567e+01 -1.621899055217e+01 0.0 
2.387180528935e+01 -1.634552264687e+01 0.0 
4.585364400844e+01 -1.383912334080e+01 0.0 
1.998744432052e+01 -1.370317155541e+01 0.0 
1.205356951443e+01 -6.313580285498e+00 0.0 
5.396543905849e+00 -3.731818611283e+00 0.0 
1.139652573295e+01 -3.745819399350e+00 0.0 
3.574124306703e+00 -4.551456826011e+00 0.0 
3.494140761930e+00 -5.539787055649e+00 0.0 
1.213651452413e+01 -1.664505033022e+01 0.0 
2.555045568519e+01 -1.646529356744e+01 0.0 
2.641671114986e+01 -1.603899382371e+01 0.0 
2.612920721894e+01 -7.906435260873e+00 0.0 
2.690339829698e+01 -8.456969591431e+00 0.0 
1.978024383368e+01 -1.664410216353e+01 0.0 
3.732829979082e+01 -1.336926601859e+01 0.0 
4.074336584605e+01 -1.355133328401e+01 0.0 
4.163204691081e+01 -1.310280943992e+01 0.0 
3.773826114429e+00 -3.493444309145e+00 0.0 
1.228783001032e+01 -3.374822835872e+00 0.0 
4.057110462520e+01 -1.652588478000e+01 0.0 
2.132535497898e+01 -6.523623360525e+00 0.0 
2.216932532211e+01 -6.110044769206e+00 0.0 
1.825781152128e+01 -3.370146817147e+00 0.0 
1.745679445888e+01 -2.812942552063e+00 0.0 
4.666517057280e+01 -1.539981381543e+01 0.0 
4.660575894464e+01 -1.639014410186e+01 0.0 
4.838230979954e+00 -1.063643436446e+01 0.0 
3.938942630206e+00 -1.106778981745e+01 0.0 
1.302967218620e+01 -1.621373452436e+01 0.0 
1.049548003190e+01 -4.204825123240e+00 0.0 
4.573571907195e+01 -1.683820511148e+01 0.0 
1.483686335807e+01 -1.430849689310e+01 0.0 
1.490982658890e+01 -1.332679386284e+01 0.0 
3.190805600162e+00 -9.510968358545e+00 0.0 
2.146625721848e+01 -4.642437303115e+00 0.0 
2.069866208266e+01 -4.111852942193e+00 0.0 
1.286859345584e+01 -6.873252723348e+00 0.0 
1.041794493184e+01 -5.194814260291e+00 0.0 
2.671081808965e+00 -4.976806516331e+00 0.0 
1.295786792925e+01 -1.720506531799e+01 0.0 
3.968438206511e+01 -1.696869067241e+01 0.0 
2.308550456051e+01 -1.579963151273e+01 0.0 
2.315593682844e+01 -1.482967445235e+01 0.0 
2.299471449450e+01 -1.677069968132e+01 0.0 
1.057344714696e+01 -3.214252277840e+00 0.0 
1.124057603753e+01 -1.707713739755e+01 0.0 
2.718402535754e+00 -1.543629882103e+01 0.0 
2.638549692805e+01 -1.696744916809e+01 0.0 
2.723416349007e+01 -1.658104204545e+01 0.0 
2.210193351704e+01 -7.046769643417e+00 0.0 
2.295180925161e+01 -6.657397605239e+00 0.0 
2.301355235833e+01 -5.709111896800e+00 0.0 
2.379052718281e+01 -6.254965406962e+00 0.0 
3.243528601237e+01 -1.214181853533e+01 0.0 
2.287977995457e+01 -7.583722368300e+00 0.0 
2.999876029544e+01 -1.150837653096e+01 0.0 
3.084435366963e+01 -1.109693775882e+01 0.0 
3.006650579669e+01 -1.057778994262e+01 0.0 
2.683802665066e+01 -9.386863216633e+00 0.0 
2.768641973621e+01 -8.988883915666e+00 0.0 
2.040296980397e+01 -7.903629133404e+00 0.0 
1.925235024054e+01 -1.218872783130e+01 0.0 
5.735667000424e+00 -1.020577277283e+01 0.0 
6.396559909872e+00 -1.272326295703e+01 0.0 
1.161199420714e+01 -1.212812778229e+01 0.0 
4.229046132615e+01 -1.663084237572e+01 0.0 
4.312275399692e+01 -1.718087491556e+01 0.0 
4.335502068163e+01 -1.320039231514e+01 0.0 
4.424630298089e+01 -1.275160688731e+01 0.0 
7.090116643816e+00 -3.818998061530e+00 0.0 
7.989472176569e+00 -3.389238711200e+00 0.0 
9.085824861778e+00 -1.144036167408e+01 0.0 
1.041972423731e+01 -1.651614080893e+01 0.0 
3.797525112640e+01 -1.686052038746e+01 0.0 
3.709114253394e+01 -1.730125999865e+01 0.0 
3.626966748340e+01 -1.675477052919e+01 0.0 
1.385164591440e+01 -1.677597757552e+01 0.0 
1.787152588784e+01 -8.198993896093e+00 0.0 
1.668849729812e+01 -1.248560611628e+01 0.0 
1.659546177905e+01 -3.232482605530e+00 0.0 
2.332214717345e+01 -1.292598167641e+01 0.0 
7.168238450786e+00 -2.824711686516e+00 0.0 
2.894878403906e+01 -1.475427524446e+01 0.0 
2.646763248247e+00 -1.643270107952e+01 0.0 
3.467431944285e+00 -1.699648837348e+01 0.0 
2.059475877282e+01 -1.719473628526e+01 0.0 
3.333868355437e+01 -1.080596971682e+01 0.0 
2.246451062637e+01 -1.334557761546e+01 0.0 
2.167821896388e+01 -1.280847834858e+01 0.0 
3.089653185767e+01 -1.017198487212e+01 0.0 
3.012604365669e+01 -9.657298805968e+00 0.0 
2.929627299435e+01 -1.006100135274e+01 0.0 
2.936201435219e+01 -9.136748899251e+00 0.0 
1.198219052702e+01 -7.291887238230e+00 0.0 
1.116702076035e+01 -6.731976101053e+00 0.0 
2.551388807505e+01 -1.746927036981e+01 0.0 
2.378639090370e+01 -1.728678807149e+01 0.0 
2.718543627188e+01 -1.748668016909e+01 0.0 
2.804681050301e+01 -1.712626668293e+01 0.0 
1.970737034667e+01 -1.762317646822e+01 0.0 
1.889535776135e+01 -1.707158098231e+01 0.0 
2.593777711283e+00 -5.971157087874e+00 0.0 
2.773468281110e+01 -8.067164273938e+00 0.0 
4.051205884347e+01 -1.751819982458e+01 0.0 
3.166903145421e+01 -1.068032992414e+01 0.0 
1.033042452886e+01 -1.748285844336e+01 0.0 
9.519274604626e+00 -1.694349240233e+01 0.0 
1.668308673328e+01 -2.255861778986e+00 0.0 
1.570531902832e+01 -2.676795860126e+00 0.0 
4.655826903379e+01 -1.736656245706e+01 0.0 
2.384148070773e+01 -5.328744256413e+00 0.0 
2.460255123641e+01 -5.852182672816e+00 0.0 
2.306638135119e+01 -4.798935440613e+00 0.0 
8.467720450578e-01 -1.849576263072e+01 0.0 
4.849657322345e+01 -1.084860705506e+01 0.0 
2.565860899507e+00 -1.742859793981e+01 0.0 
2.764418872564e+01 -9.927142821799e+00 0.0 
4.565165880064e+01 -1.785336695404e+01 0.0 
2.162231831329e+01 -1.376528337468e+01 0.0 
2.360646352969e+01 -9.136041963102e+00 0.0 
1.392738739903e+01 -1.578285505772e+01 0.0 
4.756405947478e+01 -1.683706841809e+01 0.0 
4.740895034054e+01 -1.793766756892e+01 0.0 
4.080779328826e+01 -1.257387192544e+01 0.0 
4.168907939671e+01 -1.210739129181e+01 0.0 
3.991197722154e+01 -1.300815793917e+01 0.0 
1.905536506762e+01 -3.940076697685e+00 0.0 
1.923879596617e+01 -2.875000734166e+00 0.0 
4.401386745746e+01 -1.673483229438e+01 0.0 
4.247233362525e+00 -7.094581653070e+00 0.0 
3.286051630211e+00 -7.635300020553e+00 0.0 
9.609533347623e+00 -4.594311677967e+00 0.0 
9.523554636369e+00 -5.595597029530e+00 0.0 
5.660336628893e+00 -1.119290329628e+01 0.0 
6.558070063295e+00 -1.076385809362e+01 0.0 
2.809866407414e+01 -1.518037766799e+01 0.0 
2.888868674504e+01 -1.570360690070e+01 0.0 
2.654431550819e+01 -1.411217777162e+01 0.0 
1.402158265969e+01 -1.375404617952e+01 0.0 
1.409592494026e+01 -1.277071998942e+01 0.0 
1.499355196178e+01 -1.235270737023e+01 0.0 
4.221535326155e+01 -1.759335617494e+01 0.0 
4.305583287033e+01 -1.822663146802e+01 0.0 
1.280748808359e+01 -7.834332838285e+00 0.0 
1.368988389326e+01 -7.420529606172e+00 0.0 
1.110091796060e+01 -7.683966794328e+00 0.0 
3.963446145980e+01 -1.794331310122e+01 0.0 
3.423932362213e+00 -1.796415590455e+01 0.0 
4.280814572302e+00 -1.752272834860e+01 0.0 
8.050136380041e+00 -2.421582378631e+00 0.0 
8.888674091650e+00 -2.984264211327e+00 0.0 
2.152839430898e+01 -3.732609965436e+00 0.0 
2.077799585292e+01 -3.183896021866e+00 0.0 
3.618719395821e+01 -1.770276572576e+01 0.0 
3.538165138340e+01 -1.718709995539e+01 0.0 
3.702925326420e+01 -1.828844288807e+01 0.0 
1.756739438711e+00 -5.353284859169e+00 0.0 
2.233710191104e+01 -1.527265621324e+01 0.0 
1.389483555057e+01 -1.771797164730e+01 0.0 
1.475634224300e+01 -1.728357428390e+01 0.0 
1.298797563052e+01 -1.825968924755e+01 0.0 
2.145331271866e+01 -1.673705379077e+01 0.0 
2.133282821169e+01 -1.769400773673e+01 0.0 
2.292139194136e+01 -1.774915400288e+01 0.0 
1.750750053243e+01 -1.861475593469e+00 0.0 
4.830478841772e+01 -1.752611802221e+01 0.0 
4.341203507805e+01 -1.220326745522e+01 0.0 
1.685254151866e+01 -1.443085301632e+00 0.0 
4.431538535165e+01 -1.171841387375e+01 0.0 
4.511308610496e+01 -1.229557320599e+01 0.0 
4.510133242889e+01 -1.123680627466e+01 0.0 
1.846818030617e+00 -4.410877617069e+00 0.0 
3.995468694584e+01 -1.186571542989e+01 0.0 
3.901387459804e+01 -1.242507616755e+01 0.0 
8.966735877533e+00 -1.837818700423e+00 0.0 
4.049310011091e+01 -1.848269508791e+01 0.0 
7.278862053803e+00 -1.918523922691e+00 0.0 
6.429715522129e+00 -2.316676521184e+00 0.0 
9.443505505022e+00 -1.792198868094e+01 0.0 
8.620386951051e+00 -1.737590365556e+01 0.0 
8.571868171503e+00 -1.834436667826e+01 0.0 
7.758629848526e+00 -1.775677907213e+01 0.0 
7.806648388584e+00 -1.680761266021e+01 0.0 
6.908555145436e+00 -1.723746463044e+01 0.0 
4.251709122090e+01 -1.156937480156e+01 0.0 
6.931136405615e+00 -1.832465719263e+01 0.0 
6.015545461353e+00 -1.768865355295e+01 0.0 
5.960535926343e+00 -1.872011001764e+01 0.0 
3.023253444786e+01 -8.761960642196e+00 0.0 
2.454622702599e+01 -6.749421992767e+00 0.0 
2.537499741604e+01 -6.347634963783e+00 0.0 
2.544077378460e+01 -5.431358513649e+00 0.0 
2.801367161747e+01 -1.820907270221e+01 0.0 
2.884507806914e+01 -1.762032095326e+01 0.0 
1.821474531936e+00 -1.588901260460e+01 0.0 
1.821006262604e+00 -1.489370287756e+01 0.0 
4.599962488908e+01 -1.176478780598e+01 0.0 
4.705457470007e+01 -1.172182804229e+01 0.0 
4.667668314802e+01 -1.263464558483e+01 0.0 
4.759648056504e+01 -1.252380987933e+01 0.0 
4.728041618103e+01 -1.341928568376e+01 0.0 
4.825209352360e+01 -1.330491640804e+01 0.0 
4.778118233428e+01 -1.420151961695e+01 0.0 
2.388192727579e+01 -1.826934810142e+01 0.0 
2.381714684947e+01 -4.385917965223e+00 0.0 
3.172733219247e+01 -9.758744265248e+00 0.0 
1.882012070658e+01 -1.805540597212e+01 0.0 
1.805667505243e+01 -1.742221226236e+01 0.0 
2.852599958080e+01 -8.597196079481e+00 0.0 
2.856486123437e+01 -7.661382718527e+00 0.0 
1.111792842875e+01 -1.818223852980e+01 0.0 
2.203322722466e+01 -7.986646678802e+00 0.0 
3.955703676900e+01 -1.903246763601e+01 0.0 
1.944842206513e+01 -8.038750575182e-01 0.0 
1.909882767783e+01 -1.746322740933e+00 0.0 
2.281147422941e+01 -8.525912918334e+00 0.0 
2.850633001468e+01 -9.533271335986e+00 0.0 
2.532883344309e+01 -7.308951659710e+00 0.0 
2.620475466461e+01 -6.979208585400e+00 0.0 
1.396278270396e+01 -1.475095389807e+01 0.0 
9.791001166724e+00 -2.554159793552e+00 0.0 
2.229293380421e+01 -4.269762271052e+00 0.0 
4.677238984118e+01 -1.430071795514e+01 0.0 
2.228658385918e+01 -3.344747535984e+00 0.0 
8.940223674553e-01 -1.543595733415e+01 0.0 
2.118566862474e+01 -8.435876987696e+00 0.0 
2.678325936437e+01 -1.032621195706e+01 0.0 
2.223400220487e+01 -5.179046761770e+00 0.0 
2.375370625384e+01 -7.251580562134e+00 0.0 
3.156971327386e+01 -1.255534750737e+01 0.0 
3.328226391312e+01 -1.172914813316e+01 0.0 
3.250948774219e+01 -1.120157009348e+01 0.0 
2.032993445717e+01 -8.867880112202e+00 0.0 
2.697226974856e+01 -7.536633082045e+00 0.0 
2.707377810386e+01 -6.590835263295e+00 0.0 
2.914099246827e+01 -1.191678458549e+01 0.0 
3.544824072239e+01 -1.621126558525e+01 0.0 
3.456511855436e+01 -1.665054783843e+01 0.0 
3.448395810225e+01 -1.759117813016e+01 0.0 
3.368378673938e+01 -1.708037781328e+01 0.0 
3.375560452567e+01 -1.610973066913e+01 0.0 
3.288001547988e+01 -1.654324255651e+01 0.0 
3.282475929147e+01 -1.749725654692e+01 0.0 
3.199880906313e+01 -1.697294088625e+01 0.0 
3.197001272932e+01 -1.811667776864e+01 0.0 
3.111884713021e+01 -1.742166785755e+01 0.0 
3.120418962865e+01 -1.642155709385e+01 0.0 
3.034666704371e+01 -1.683123833816e+01 0.0 
3.026224379976e+01 -1.772592851714e+01 0.0 
3.046632362943e+01 -1.582232843075e+01 0.0 
1.961344017324e+01 -1.857459447985e+01 0.0 
2.274975894774e+01 -9.532738811922e+00 0.0 
1.833923246887e+01 -2.396746883672e+00 0.0 
1.988859500848e+01 -2.249244376594e+00 0.0 
2.758045562861e+01 -1.086434261689e+01 0.0 
3.247300178163e+01 -1.909930104252e+01 0.0 
3.461947482503e+01 -1.911879848019e+01 0.0 
2.047161538662e+01 -6.941478180358e+00 0.0 
2.750230940214e+01 -1.915490590764e+01 0.0 
3.165081350803e+01 -1.161860780120e+01 0.0 
1.897456727641e+01 -4.889634688522e+00 0.0 
2.549338539756e+01 -1.914858252089e+01 0.0 
3.462873135081e+01 -1.567482276144e+01 0.0 
3.384432415243e+01 -1.512280684518e+01 0.0 
3.471433767690e+01 -1.469086942990e+01 0.0 
3.651470373046e+01 -1.918207952149e+01 0.0 
3.901742690249e+01 -1.345028556517e+01 0.0 
2.153224102692e+01 -1.920169709333e+01 0.0 
1.918382939341e+01 -1.316226275662e+01 0.0 
2.005389162382e+01 -1.271962165174e+01 0.0 
2.011472087878e+01 -1.175029352900e+01 0.0 
3.210679478412e+01 -1.598038618242e+01 0.0 
1.752175226543e+01 -1.914713022656e+01 0.0 
1.696897240059e+01 -1.832772588765e+01 0.0 
1.599682523337e+01 -1.832599992024e+01 0.0 
1.644507199462e+01 -1.743697981535e+01 0.0 
1.549987712903e+01 -1.915192375101e+01 0.0 
3.050250861901e+01 -1.918943550234e+01 0.0 
2.949944061527e+01 -1.922950455235e+01 0.0 
1.375892575273e+01 -6.447160534926e+00 0.0 
1.457223670180e+01 -7.006709243857e+00 0.0 
1.450818793236e+01 -7.965943451779e+00 0.0 
1.538804712402e+01 -7.553409623699e+00 0.0 
1.545817644768e+01 -6.580929593419e+00 0.0 
1.626506893751e+01 -7.129032608911e+00 0.0 
1.619833811522e+01 -8.086588580887e+00 0.0 
1.714448609609e+01 -6.697429609777e+00 0.0 
2.887616543568e+01 -1.668015232137e+01 0.0 
1.349814589130e+01 -1.918225301544e+01 0.0 
1.153887772210e+01 -1.311384581217e+01 0.0 
1.242708159886e+01 -1.267046795531e+01 0.0 
1.249799674267e+01 -1.169005616014e+01 0.0 
6.631723893693e+00 -9.774184881867e+00 0.0 
7.451471631867e+00 -1.033148796006e+01 0.0 
7.377795355458e+00 -1.132196345268e+01 0.0 
5.810931797536e+00 -9.211654212252e+00 0.0 
2.402683899133e+01 -1.441378562320e+01 0.0 
1.249768692036e+01 -1.917388426624e+01 0.0 
1.580373499437e+01 -1.290751860664e+01 0.0 
8.344650507834e+00 -9.898403995170e+00 0.0 
3.750622115305e+01 -1.086526401533e+01 0.0 
3.699391251667e+01 -1.171695900794e+01 0.0 
3.606517829518e+01 -1.173717504500e+01 0.0 
3.650257641795e+01 -1.270047380221e+01 0.0 
3.808951488918e+01 -1.183518714175e+01 0.0 
4.760380962420e+00 -1.162484888315e+01 0.0 
3.861210370848e+00 -1.205657631736e+01 0.0 
3.038284309476e+00 -1.149851280664e+01 0.0 
2.961598794889e+00 -1.248856794980e+01 0.0 
2.138953225512e+00 -1.193212674534e+01 0.0 
2.227383593457e+00 -1.096258903918e+01 0.0 
2.043265419276e+00 -1.292158472959e+01 0.0 
1.252449446028e+00 -1.225502002753e+01 0.0 
3.949985210740e+01 -1.086594001795e+01 0.0 
1.453499444792e+01 -8.768805922472e-01 0.0 
1.403518950933e+01 -1.749965556633e+00 0.0 
1.300715031023e+01 -1.714737233040e+00 0.0 
1.350929389899e+01 -2.527443911291e+00 0.0 
1.449600910711e+01 -2.595486162864e+00 0.0 
1.395693872901e+01 -3.484211041558e+00 0.0 
1.495105865208e+01 -3.364609636216e+00 0.0 
1.508822528740e+01 -1.766586020494e+00 0.0 
1.250223858430e+01 -8.634590186802e-01 0.0 
1.200279523409e+01 -1.709044504992e+00 0.0 
1.150086239419e+01 -8.592789190668e-01 0.0 
1.101482754194e+01 -1.677730591922e+00 0.0 
1.148018564526e+01 -2.659323866909e+00 0.0 
8.800552119754e+00 -3.989875954728e+00 0.0 
3.452790439430e+00 -1.901136170646e+01 0.0 
8.658451825200e-01 -9.503462241795e+00 0.0 
1.694787786797e+00 -9.000589234502e+00 0.0 
1.703436717094e+00 -8.038819004041e+00 0.0 
2.594197971110e+00 -8.563955242845e+00 0.0 
1.630513735412e+00 -9.907244747511e+00 0.0 
8.566859292791e-01 -7.512203837972e+00 0.0 
1.685461277022e+00 -7.164280248030e+00 0.0 
2.506394468801e+00 -8.623386730818e-01 0.0 
2.007475081581e+00 -1.727729545205e+00 0.0 
9.211534699767e-01 -1.628791366312e+00 0.0 
1.500000000020e+00 -2.598063549486e+00 0.0 
2.482078929963e+00 -2.553580088725e+00 0.0 
2.999795253092e+00 -1.732169015019e+00 0.0 
3.999712607169e+00 -1.728832897453e+00 0.0 
4.499752199340e+00 -8.656478679175e-01 0.0 
4.964377774841e+00 -1.730129617941e+00 0.0 
4.425017908337e+00 -2.597541756243e+00 0.0 
5.446573195014e+00 -8.410144840023e-01 0.0 
4.915722346614e+01 -1.550640962770e+01 0.0 
4.826794919243e+01 -1.600000000000e+01 0.0 
1.053139533193e+01 -1.911782884365e+01 0.0 
4.156049861949e+01 -1.095160998589e+01 0.0 
9.494526624416e+00 -8.650570090219e-01 0.0 
4.555762166964e+01 -1.897098103585e+01 0.0 
4.250656411371e+01 -1.914387356218e+01 0.0 
4.350906466345e+01 -1.917234727395e+01 0.0 
8.759665722424e-01 -1.746422130609e+01 0.0 
1.698936011838e+00 -1.795012186674e+01 0.0 
4.742476811029e+01 -1.900090177972e+01 0.0 
7.749196752349e+00 -6.368049313489e+00 0.0 
3.361572113416e+01 -1.798765193915e+01 0.0 
4.484660149212e+01 -1.728661231383e+01 0.0 
1.984038172228e+01 -4.502575320116e+00 0.0 
1.035080352627e+01 -6.166639575753e+00 0.0 
2.753558010652e+00 -1.444909521181e+01 0.0 
7.217069543032e+00 -1.328635391078e+01 0.0 
4.364336727739e+00 -1.655585677381e+01 0.0 
4.595208426108e+00 -1.357919665443e+01 0.0 
6.164967006980e+00 -1.569873454630e+01 0.0 
1.487855768353e+01 -1.826523774028e+01 0.0 
2.791876456372e+00 -4.019632415181e+00 0.0 
4.246464893515e+01 -1.364898659620e+01 0.0 
4.503855590351e+01 -1.329552780944e+01 0.0 
4.407239109604e+01 -1.573900004093e+01 0.0 
5.141054449252e+00 -6.664290382472e+00 0.0 
3.141083947149e+00 -1.055790764912e+01 0.0 
6.196463198741e+00 -4.256497932609e+00 0.0 
2.599618716181e+01 -1.836893455464e+01 0.0 
2.923057372337e+01 -1.098461757645e+01 0.0 
1.168343877486e+01 -1.114079645041e+01 0.0 
6.706222096238e+00 -8.780364234441e+00 0.0 
8.567858614669e+00 -6.943121440850e+00 0.0 
1.123755132901e+01 -5.753525820030e+00 0.0 
2.353456234423e+01 -1.008536320953e+01 0.0 
9.162073319168e+00 -1.045593739109e+01 0.0 
9.676343469685e+00 -1.496493008366e+01 0.0 
4.490637882905e+01 -1.628778970202e+01 0.0 
7.398129387772e+00 -9.639977982323e-01 0.0 
1.049641705805e+01 -1.552503975272e+01 0.0 
9.010356286268e+00 -1.242805042052e+01 0.0 
3.985573925497e+01 -1.399863651620e+01 0.0 
1.816196318262e+01 -1.554066497931e+01 0.0 
1.306332244168e+01 -3.963646550326e+00 0.0 
4.145850903932e+01 -1.608094559275e+01 0.0 
3.794664933633e+01 -1.779020121986e+01 0.0 
3.819614412903e+01 -1.290749321016e+01 0.0 
6.270014188119e+00 -3.255093186826e+00 0.0 
4.251165370388e+01 -1.263870364997e+01 0.0 
1.207347709171e+01 -1.763942826023e+01 0.0 
3.633240829927e+01 -1.577330481104e+01 0.0 
4.319052668832e+00 -6.101812561904e+00 0.0 
1.676492415806e+01 -1.151547901392e+01 0.0 
2.594059220037e+01 -1.074225223009e+01 0.0 
3.340750911501e+01 -9.898764354137e+00 0.0 
4.397619591281e+01 -1.769773736461e+01 0.0 
2.175611595028e+01 -1.185718747128e+01 0.0 
1.641818733106e+01 -1.640685203215e+01 0.0 
1.661211421753e+01 -1.346121366338e+01 0.0 
3.428853504935e+00 -6.551993389271e+00 0.0 
8.700728832502e+00 -1.638460872825e+01 0.0 
1.931369795309e+01 -1.121629383702e+01 0.0 
4.139798872363e+01 -1.706922153459e+01 0.0 
2.647837478700e+01 -1.507353829290e+01 0.0 
1.779469616424e+01 -9.161615782908e+00 0.0 
3.885879219319e+01 -1.642026488918e+01 0.0 
1.338194936770e+01 -1.125916521471e+01 0.0 
1.897071181111e+01 -1.609204322578e+01 0.0 
2.844308548793e+01 -1.046221003096e+01 0.0 
2.659854702194e+01 -1.316109415760e+01 0.0 
2.979604503271e+01 -1.433296157755e+01 0.0 
2.417694041347e+01 -1.251231397779e+01 0.0 
1.807401327411e+00 -1.388891148480e+01 0.0 
9.599810618782e+00 -1.595439365034e+01 0.0 
1.652144692160e+01 -4.205392788472e+00 0.0 
2.367839450246e+01 -8.188385218643e+00 0.0 
3.814894930468e+01 -1.390748338767e+01 0.0 
2.466448215774e+01 -1.685878545680e+01 0.0 
4.134044524611e+01 -1.806610045954e+01 0.0 
2.600511411958e+01 -9.801774120648e+00 0.0 
7.882158050716e+00 -1.582364037353e+01 0.0 
3.881607873422e+01 -1.737970515013e+01 0.0 
8.270182347708e+00 -1.088622154920e+01 0.0 
8.672520392520e-01 -4.532984309881e+00 0.0 
1.993447205337e+01 -3.579061902667e+00 0.0 
1.794616079549e+01 -7.238038888498e+00 0.0 
2.097277068165e+01 -1.132450168636e+01 0.0 
8.194803300681e+00 -1.187214224265e+01 0.0 
3.522279404911e+01 -1.823342818178e+01 0.0 
6.984481050295e+00 -1.625271465557e+01 0.0 
1.309433007797e+01 -1.521718594215e+01 0.0 
2.150246167611e+01 -1.885399038185e+00 0.0 
3.250689370209e+01 -1.028789870535e+01 0.0 
6.085886272238e+00 -1.668342132851e+01 0.0 
1.588455661727e+01 -1.193498985921e+01 0.0 
1.809323400821e+01 -1.651110084195e+01 0.0 
1.348885082381e+00 -1.136065576512e+01 0.0 
2.497670221995e+01 -1.834631276173e+01 0.0 
2.937062818424e+01 -8.233711194470e+00 0.0 
5.185823744469e+00 -1.711566910207e+01 0.0 
1.477497877209e+01 -1.530177014512e+01 0.0 
2.125346158933e+01 -7.473003997367e+00 0.0 
4.751561118290e+01 -1.084897772632e+01 0.0 
5.056026576843e+00 -1.825750475525e+01 0.0 
1.473948554523e+01 -1.634577436309e+01 0.0 
2.410566630936e+01 -1.345970002612e+01 0.0 
1.507337507513e+01 -1.138527895328e+01 0.0 
3.189857338687e+01 -8.887781229006e+00 0.0 
7.298712468334e+00 -1.230231046246e+01 0.0 
2.738235495295e+01 -1.368931690364e+01 0.0 
3.750141041969e+01 -1.920449893070e+01 0.0 
1.557271965640e+01 -1.683317951731e+01 0.0 
3.393731848929e+01 -1.413034777044e+01 0.0 
6.482156824153e+00 -1.174575135362e+01 0.0 
2.077971718439e+01 -1.421279621836e+01 0.0 
3.455084320178e+00 -2.562590040585e+00 0.0 
3.099056096250e+01 -9.270280416035e+00 0.0 
5.580176125418e+00 -1.217387969259e+01 0.0 
1.707247630389e+01 -7.660651981710e+00 0.0 
1.418658814174e+01 -1.180390575393e+01 0.0 
2.049103025389e+01 -1.811296706038e+01 0.0 
4.680386172316e+00 -1.260396879301e+01 0.0 
1.699679896554e+01 -8.624561788199e+00 0.0 
3.779470168555e+00 -1.303424899720e+01 0.0 
3.036589870126e+01 -7.879832518349e+00 0.0 
3.306993001774e+01 -1.457671062095e+01 0.0 
2.840150110165e+00 -1.346530088269e+01 0.0 
2.732011135052e+01 -1.464591214560e+01 0.0 
5.423639259568e+00 -2.659711955016e+00 0.0 
2.324455961696e+01 -1.387269388211e+01 0.0 
1.752768355571e+00 -1.693128613594e+01 0.0 
1.020244783051e+01 -8.076834012808e+00 0.0 
1.330873875224e+01 -1.222417528206e+01 0.0 
3.297727364880e+01 -1.555480372087e+01 0.0 
2.890929955439e+01 -6.868664170731e+00 0.0 
1.323294664622e+01 -1.320754260334e+01 0.0 
2.726532861246e+01 -1.560593120806e+01 0.0 
2.240020643398e+01 -1.429299177247e+01 0.0 
2.090445823633e+01 -1.228128621332e+01 0.0 
1.315809881502e+01 -1.420739326938e+01 0.0 
2.781328038068e+01 -7.181956082300e+00 0.0 
8.614200829057e+00 -5.936933226306e+00 0.0 
8.714765730069e+00 -4.979270529687e+00 0.0 
1.611881701099e+01 -9.041973294003e+00 0.0 
2.806830314340e+01 -1.614622947108e+01 0.0 
2.084435391396e+00 -3.385085422913e+00 0.0 
3.133211811152e+01 -1.542347619750e+01 0.0 
9.693114650768e+00 -3.590281506442e+00 0.0 
1.531883592202e+01 -8.504584946143e+00 0.0 
2.151589117094e+01 -1.578915763018e+01 0.0 
4.918943882696e+01 -1.355538828056e+01 0.0 
1.443236615188e+01 -8.918701794549e+00 0.0 
8.276250966452e-01 -5.537685192197e+00 0.0 
1.362790867918e+01 -8.374718262212e+00 0.0 
2.083767477370e+01 -1.324843956035e+01 0.0 
1.273834678703e+01 -8.790890389337e+00 0.0 
1.192275845670e+01 -8.242261327467e+00 0.0 
4.477236023583e+01 -1.824312396664e+01 0.0 
1.102989384254e+01 -8.649855800911e+00 0.0 
4.849096516045e+01 -1.917293752213e+01 0.0 
1.588996752238e+00 -1.910230934687e+01 0.0 
4.904245197583e+01 -1.159839008158e+01 0.0 
2.753852929608e+01 -5.782128488093e+00 0.0 
1.756133602833e+01 -8.306130313187e-01 0.0 
2.615423700951e+01 -6.153865090092e+00 0.0 
1.028818761294e+01 -7.122020845892e+00 0.0 
2.970818901196e+01 -1.527821347593e+01 0.0 
4.801461623449e+01 -1.164472570985e+01 0.0 
9.455722100419e+00 -6.546069291118e+00 0.0 
3.089099236677e+01 -1.835339328261e+01 0.0 
2.350000000013e+01 -1.920825896750e+01 0.0 
4.830620531887e+01 -1.506626155470e+01 0.0 
1.725381944701e+01 -1.688794487850e+01 0.0 
2.156246225273e+01 -1.475893794002e+01 0.0 
4.919319648787e+01 -1.742767505896e+01 0.0 
4.437935623576e+01 -1.077662927266e+01 0.0 
1.001520521978e+01 -1.652692675208e+00 0.0 
9.067160240050e-01 -1.441937727541e+01 0.0 
2.603365149390e+01 -4.755996613848e+00 0.0 
2.458344439002e+01 -4.873645517696e+00 0.0 
2.304312390142e+01 -3.836552768096e+00 0.0 
2.546923202198e+00 -6.902480355749e+00 0.0 
1.251534969393e+01 -2.490989965776e+00 0.0 
2.454061833377e+01 -3.933354231935e+00 0.0 
1.788186558740e+01 -1.827424884923e+01 0.0 
4.090785243552e+01 -1.166553231904e+01 0.0 
2.230128851568e+01 -1.623015738726e+01 0.0 
2.302362347568e+01 -2.916239960270e+00 0.0 
3.878119254461e+01 -1.830091164002e+01 0.0 
2.210081359958e+01 -1.829238229150e+01 0.0 
8.443704882233e+00 -1.921993252862e+01 0.0 
2.218405824691e+01 -1.724557581508e+01 0.0 
2.151157503963e+01 -2.790636689331e+00 0.0 
3.741658958955e+01 -1.250400191722e+01 0.0 
2.697247663737e+01 -1.838290202309e+01 0.0 
4.743362342862e+01 -1.585850773010e+01 0.0 
6.671345075358e+00 -1.924977576322e+01 0.0 
3.900825404537e+01 -1.157220003875e+01 0.0 
4.649692961375e+01 -1.836335837481e+01 0.0 
1.578831424832e+01 -3.678284023361e+00 0.0 
4.814208768888e+01 -1.841249298770e+01 0.0 
2.964123298315e+01 -1.625739458193e+01 0.0 
4.580760351902e+01 -1.284294554687e+01 0.0 
3.561520879615e+01 -1.245548941949e+01 0.0 
2.555418095658e+00 -1.841101588290e+01 0.0 
3.288468366144e+01 -1.834258164109e+01 0.0 
2.065894391445e+01 -2.240688571739e+00 0.0 
4.739171429915e+01 -1.496536413446e+01 0.0 
3.478086729185e+00 -8.576434653209e+00 0.0 
1.606010630246e+01 -1.588421807951e+00 0.0 
1.018329200594e+01 -1.834320874317e+01 0.0 
2.957213339430e+01 -1.720496954591e+01 0.0 
4.142712790164e+00 -1.837794506222e+01 0.0 
6.698721532573e-01 -2.499999999997e+00 0.0 
8.037039123140e+00 -1.571229354954e+00 0.0 
1.203541361428e+01 -1.847784298001e+01 0.0 
2.899968332038e+01 -1.848264722179e+01 0.0 
1.469229460948e+01 -4.219485753730e+00 0.0 
4.049590781957e+01 -1.932812501995e+01 0.0 
1.996211678340e+01 -1.506329754720e+00 0.0 
4.250588298353e+01 -1.067383247529e+01 0.0 
5.831497011152e+00 -1.635396227234e+00 0.0 
5.317606125670e+00 -1.923927974868e+01 0.0 
4.208546426993e+01 -1.842830665025e+01 0.0 
2.327553405011e+00 -9.459409929662e+00 0.0 
3.568351902251e+01 -1.096637218582e+01 0.0 
1.682104374890e+00 -6.231413350963e+00 0.0 
2.451812238018e+01 -1.766524914339e+01 0.0 
1.058003429638e+01 -2.391839617098e+00 0.0 
4.399988753123e+01 -1.851998776342e+01 0.0 
1.400000000010e+01 -1.852293523028e+01 0.0 
3.604719565984e+01 -1.850662876800e+01 0.0 
1.951297136734e+01 -1.938092349694e+01 0.0 
1.821365318472e+01 -1.531276353287e+00 0.0 
2.298031859732e+01 -1.854635324722e+01 0.0 
1.552168066204e+01 -1.764280741977e+01 0.0 
4.572957713638e+01 -1.073347898229e+01 0.0 
3.429637429624e+01 -1.838861552790e+01 0.0 
2.427434426052e+00 -7.705577451869e+00 0.0 
4.662792031485e+00 -3.359424455416e+00 0.0 
4.926794919243e+01 -1.926794919243e+01 0.0 
7.320508075690e-01 -7.320508075688e-01 0.0 
4.926794919243e+01 -1.073205080757e+01 0.0 
7.320508075705e-01 -1.926794919243e+01 0.0 
2.917460242467e+00 -3.202866455310e+00 0.0 
4.838200575963e+01 -1.232674147454e+01 0.0 
2.998445708009e+01 -1.854403752148e+01 0.0 
5.949940090766e-01 -1.152762038165e+01 0.0 
4.844763495759e+01 -1.678092548787e+01 0.0 
1.301685480160e+01 -3.170056592566e+00 0.0 
1.650046335855e+01 -6.731535384067e-01 0.0 
4.854881540991e+01 -1.405224059779e+01 0.0 
2.119545114693e+01 -1.846813384545e+01 0.0 
3.797852849897e+01 -1.857978513215e+01 0.0 
4.649823708745e+01 -1.338351810816e+01 0.0 
2.012685900976e+01 -2.889659035009e+00 0.0 
2.953271913273e+01 -1.791558075192e+01 0.0 
2.408509097292e+00 -1.021949208421e+01 0.0 
2.642589566221e+01 -1.773216561448e+01 0.0 
1.730010270775e+01 -1.763165076721e+01 0.0 
2.017406551304e+01 -8.513536440582e-01 0.0 
5.254761581934e-01 -1.249999999999e+01 0.0 
6.640448215642e+00 -1.545337834885e+00 0.0 
7.843361506349e+00 -1.852719839527e+01 0.0 
1.588442191088e+00 -1.066158564320e+01 0.0 
2.880770112393e+01 -5.415638864241e+00 0.0 
4.951086956522e+01 -5.500000000000e+00 0.0 
3.031250000000e+01 -6.420918367347e+00 0.0 
4.951250000000e+01 -6.500000000000e+00 0.0 
3.180701530612e+01 -7.414795918363e+00 0.0 
4.951250000000e+01 -7.500000000000e+00 0.0 
3.331250000000e+01 -8.420918367347e+00 0.0 
4.951470588234e+01 -8.500000000000e+00 0.0 
3.480610198624e+01 -9.413633635267e+00 0.0 
4.951470588234e+01 -9.500000000000e+00 0.0 

SCALARS node_number int
LOOKUP_TABLE default
1
2
3
4
5
6
7
8
9
10
11
12
13
14
15
16
17
18
19
20
21
22
23
24
25
26
27
28
29
30
31
32
33
34
35
36
37
38
39
40
41
42
43
44
45
46
47
48
49
50
51
52
53
54
55
56
57
58
59
60
61
62
63
64
65
66
67
68
69
70
71
72
73
74
75
76
77
78
79
80
81
82
84
85
86
87
88
89
90
91
92
93
98
99
100
101
102
104
105
106
107
108
109
110
111
112
113
114
115
116
117
118
119
120
121
122
123
124
125
126
127
128
129
130
131
132
133
134
135
136
268
269
270
271
272
273
274
275
276
277
278
279
280
281
282
283
284
285
286
287
288
289
290
291
292
293
294
295
296
297
298
299
300
301
302
303
304
305
306
307
308
309
310
311
312
313
314
315
316
317
318
319
320
321
322
323
324
325
326
327
328
329
330
331
332
333
334
335
336
337
338
339
340
341
342
343
344
345
346
347
348
349
350
351
352
353
354
355
356
357
358
359
360
361
362
363
364
365
366
367
368
369
370
371
372
373
374
375
376
377
378
379
380
381
382
383
384
385
386
387
388
389
390
391
392
393
394
395
396
397
398
399
400
401
402
403
404
405
406
407
408
409
410
411
412
413
414
415
416
417
418
419
420
421
422
423
424
425
426
427
428
429
430
431
432
433
434
435
436
437
438
439
440
441
442
443
444
445
446
447
448
449
450
451
452
453
454
455
456
457
458
459
460
461
462
463
464
465
466
467
468
469
470
471
472
473
474
475
476
477
478
479
480
481
482
483
484
485
486
487
488
489
490
491
492
493
494
495
496
497
498
499
500
501
502
503
504
505
506
507
508
509
510
511
512
513
514
515
516
517
518
519
520
521
522
523
524
525
526
527
528
529
530
531
532
533
534
535
536
537
538
539
540
541
542
543
544
545
546
547
548
549
550
551
552
553
554
555
556
557
558
559
560
561
562
563
564
565
566
567
568
569
570
571
572
573
574
575
576
577
578
579
580
581
582
583
584
585
586
587
588
589
590
591
592
593
594
595
596
597
598
599
600
601
602
603
604
605
606
607
608
609
610
611
612
613
614
615
616
617
618
619
620
621
622
623
624
625
626
627
628
629
630
631
632
633
634
635
636
637
638
639
640
641
642
643
644
645
646
647
648
649
650
651
652
653
654
655
656
657
658
659
660
661
662
663
664
665
666
667
668
669
670
671
672
673
674
675
676
677
678
679
680
681
682
683
684
685
686
687
688
689
690
691
692
693
694
695
696
697
698
699
700
701
702
703
704
705
706
707
708
709
710
711
712
713
714
715
716
717
718
719
720
721
722
723
724
725
726
727
728
729
730
731
732
733
734
735
736
737
738
739
740
741
742
743
744
745
746
747
748
749
750
751
752
753
754
755
756
757
758
759
760
761
762
763
764
765
766
767
768
769
770
771
772
773
774
775
776
777
778
779
780
781
782
783
784
785
786
787
788
789
790
791
792
793
794
795
796
797
798
799
800
801
802
803
804
805
806
807
808
809
810
811
812
813
814
815
816
817
818
819
820
821
822
823
824
825
826
827
828
829
830
831
832
833
834
835
836
837
838
839
840
841
842
843
844
845
846
847
848
849
850
851
852
853
854
855
856
857
858
859
860
861
862
863
864
865
866
867
868
869
870
871
872
873
874
875
876
877
878
879
880
881
882
883
884
885
886
887
888
889
890
891
892
893
894
895
896
897
898
899
900
901
902
903
904
905
906
907
908
909
910
911
912
913
914
915
916
917
918
919
920
921
922
923
924
925
926
927
928
929
930
931
932
933
934
935
936
937
938
939
940
941
942
943
944
945
946
947
948
949
950
951
952
953
954
955
956
957
958
959
960
961
962
963
964
965
966
967
968
969
970
971
972
973
974
975
976
977
978
979
980
981
982
983
984
985
986
987
988
989
990
991
992
993
994
995
996
997
998
999
1000
1001
1002
1003
1004
1005
1006
1007
1008
1009
1010
1011
1012
1013
1014
1015
1016
1017
1018
1019
1020
1021
1022
1023
1024
1025
1026
1027
1028
1029
1030
1031
1032
1033
1034
1035
1036
1037
1038
1039
1040
1041
1042
1043
1044
1045
1046
1047
1048
1049
1050
1051
1052
1053
1054
1055
1056
1057
1058
1059
1060
1061
1062
1063
1064
1065
1066
1067
1068
1069
1070
1071
1072
1073
1074
1075
1076
1077
1078
1079
1080
1081
1082
1083
1084
1085
1086
1087
1088
1089
1090
1091
1092
1093
1094
1095
1096
1097
1098
1099
1100
1101
1102
1103
1104
1105
1106
1107
1108
1109
1110
1111
1112
1113
1114
1115
1116
1117
1118
1119
1120
1121
1122
1123
1124
1125
1126
1127
1128
1129
1130
1131
1132
1133
1134
1135
1136
1137
1138
1139
1140
1141
1142
1143
1144
1145
1146
1147
1148
1149
1150
1151
1152
1153
1154
1155
1156
1157
1158
1159
1160
1161
1162
1163
1164
1165
1166
1167
1168
1169
1170
1171
1172
1173
1174
1175
1176
1177
1178
1179
1180
1181
1182
1183
1184
1185
1186
1187
1188
1189
1190
1191
1192
1193
1194
1195
1196
1197
1198
1199
1200
1201
1202
1203
1204
1205
1206
1207
1208
1209
1210
1211
1212
1213
1214
1215
1216
1217
1218
1219
1220
1221
1222
1223
1224
1225
1226
1227
1228
1229
1230
1231
1232
1233
1234
1235
1236
1237
1238
1239
1240
1241
1242
1243
1244
1245
1246
1247
1248
1249
1250
1251
1252
1253
1254
1255
1256
1257
1258
1259
1260
1261
1262
1263
1264
1275
1276
1277
1278
1279
1280
1281
1282
1283
1284

VECTORS node_mesh_deformation float
0.0 7.573376513121e-02 0.0 
0.000000000000e+00 1.126847783537e-01 0.0 
0.0 0.000000000000e+00 0.0 
0.000000000000e+00 0.000000000000e+00 0.0 
0.0 7.591115433302e-02 0.0 
0.0 7.559650608440e-02 0.0 
0.0 7.481398287474e-02 0.0 
0.0 7.357472850200e-02 0.0 
0.0 7.187561361582e-02 0.0 
0.0 6.975899598430e-02 0.0 
0.0 6.724688701953e-02 0.0 
0.0 6.435204871092e-02 0.0 
0.0 6.108847989782e-02 0.0 
0.0 5.746059285511e-02 0.0 
0.0 5.346215576825e-02 0.0 
0.0 4.909089474095e-02 0.0 
0.0 4.434805734741e-02 0.0 
0.0 3.924214931673e-02 0.0 
0.0 3.373275010647e-02 0.0 
0.0 2.781901390674e-02 0.0 
0.0 2.149556776751e-02 0.0 
0.0 1.474974208734e-02 0.0 
0.0 7.577647599195e-03 0.0 
0.000000000000e+00 0.000000000000e+00 0.0 
0.000000000000e+00 0.000000000000e+00 0.0 
0.000000000000e+00 0.000000000000e+00 0.0 
0.000000000000e+00 0.000000000000e+00 0.0 
0.000000000000e+00 0.000000000000e+00 0.0 
0.000000000000e+00 0.000000000000e+00 0.0 
0.000000000000e+00 0.000000000000e+00 0.0 
0.000000000000e+00 0.000000000000e+00 0.0 
0.000000000000e+00 0.000000000000e+00 0.0 
0.000000000000e+00 0.000000000000e+00 0.0 
0.000000000000e+00 0.000000000000e+00 0.0 
0.000000000000e+00 0.000000000000e+00 0.0 
0.000000000000e+00 0.000000000000e+00 0.0 
0.000000000000e+00 0.000000000000e+00 0.0 
0.000000000000e+00 0.000000000000e+00 0.0 
0.000000000000e+00 0.000000000000e+00 0.0 
0.000000000000e+00 0.000000000000e+00 0.0 
0.000000000000e+00 0.000000000000e+00 0.0 
0.000000000000e+00 0.000000000000e+00 0.0 
0.000000000000e+00 0.000000000000e+00 0.0 
0.000000000000e+00 0.000000000000e+00 0.0 
0.000000000000e+00 0.000000000000e+00 0.0 
0.000000000000e+00 0.000000000000e+00 0.0 
0.000000000000e+00 0.000000000000e+00 0.0 
0.000000000000e+00 0.000000000000e+00 0.0 
0.000000000000e+00 0.000000000000e+00 0.0 
0.000000000000e+00 0.000000000000e+00 0.0 
0.000000000000e+00 0.000000000000e+00 0.0 
0.000000000000e+00 0.000000000000e+00 0.0 
0.000000000000e+00 0.000000000000e+00 0.0 
0.000000000000e+00 0.000000000000e+00 0.0 
0.000000000000e+00 0.000000000000e+00 0.0 
0.000000000000e+00 0.000000000000e+00 0.0 
0.000000000000e+00 0.000000000000e+00 0.0 
0.000000000000e+00 0.000000000000e+00 0.0 
0.000000000000e+00 0.000000000000e+00 0.0 
0.000000000000e+00 0.000000000000e+00 0.0 
0.000000000000e+00 0.000000000000e+00 0.0 
0.000000000000e+00 0.000000000000e+00 0.0 
0.000000000000e+00 0.000000000000e+00 0.0 
0.000000000000e+00 0.000000000000e+00 0.0 
0.000000000000e+00 0.000000000000e+00 0.0 
0.000000000000e+00 0.000000000000e+00 0.0 
0.000000000000e+00 0.000000000000e+00 0.0 
0.000000000000e+00 0.000000000000e+00 0.0 
0.000000000000e+00 0.000000000000e+00 0.0 
0.000000000000e+00 0.000000000000e+00 0.0 
0.000000000000e+00 0.000000000000e+00 0.0 
0.000000000000e+00 0.000000000000e+00 0.0 
0.000000000000e+00 1.031651835186e-01 0.0 
0.000000000000e+00 9.322947887007e-02 0.0 
0.000000000000e+00 8.288207442691e-02 0.0 
0.000000000000e+00 7.214309509214e-02 0.0 
0.000000000000e+00 6.101456836302e-02 0.0 
0.000000000000e+00 4.951449795019e-02 0.0 
0.000000000000e+00 3.765235585926e-02 0.0 
0.000000000000e+00 2.543864167583e-02 0.0 
0.000000000000e+00 1.288691460330e-02 0.0 
-1.339573798960e-02 4.663315856829e-02 0.0 
1.306365034041e-02 1.093612833680e-01 0.0 
-6.108380676235e-03 7.084105888048e-02 0.0 
-2.761425432034e-04 8.968025878406e-02 0.0 
4.547727896789e-03 1.049928375766e-01 0.0 
8.321838639212e-03 1.166318796908e-01 0.0 
1.118532896182e-02 1.244982439074e-01 0.0 
1.366228402333e-02 1.270212907735e-01 0.0 
1.477579784293e-02 1.257378575676e-01 0.0 
1.485562836861e-02 1.219884809196e-01 0.0 
1.421173849118e-02 1.163896838875e-01 0.0 
0.000000000000e+00 1.538269699110e-01 0.0 
0.000000000000e+00 1.464363373996e-01 0.0 
0.000000000000e+00 1.386641299891e-01 0.0 
0.000000000000e+00 1.304239681329e-01 0.0 
0.000000000000e+00 1.217829742604e-01 0.0 
7.330807431671e-04 1.126890523450e-01 0.0 
1.458183335195e-03 1.127002975326e-01 0.0 
2.197057582350e-03 1.127138407264e-01 0.0 
2.947719163522e-03 1.127201011565e-01 0.0 
3.710669392575e-03 1.127275683911e-01 0.0 
4.490075743725e-03 1.127070767810e-01 0.0 
5.294594298896e-03 1.126718216714e-01 0.0 
6.117276990267e-03 1.125915322177e-01 0.0 
6.980742949047e-03 1.124759006001e-01 0.0 
7.881136744281e-03 1.122809522147e-01 0.0 
8.817866602620e-03 1.119963356864e-01 0.0 
9.800911684280e-03 1.115995254417e-01 0.0 
1.083136683456e-02 1.110539030648e-01 0.0 
1.191535374181e-02 1.103173723302e-01 0.0 
-1.074086797511e-02 3.290573480693e-02 0.0 
-6.763287708743e-03 2.569886656530e-02 0.0 
-2.461314188324e-03 2.292607763477e-02 0.0 
2.077531488659e-03 2.475803586364e-02 0.0 
5.233804277182e-03 3.336611386198e-02 0.0 
6.876734449150e-03 4.364062208108e-02 0.0 
7.479251745217e-03 5.050210991600e-02 0.0 
7.549446475984e-03 5.583970335610e-02 0.0 
7.057959823026e-03 6.012142531048e-02 0.0 
6.546387479428e-03 6.356145032105e-02 0.0 
6.034615378372e-03 6.636430128684e-02 0.0 
5.445952378819e-03 6.860224418132e-02 0.0 
4.879829276251e-03 7.045330174459e-02 0.0 
4.186774201012e-03 7.196228662168e-02 0.0 
3.498133941618e-03 7.317537970276e-02 0.0 
2.832428510723e-03 7.411472559372e-02 0.0 
2.165548621182e-03 7.484061373974e-02 0.0 
1.487881087664e-03 7.536713188126e-02 0.0 
7.543922828315e-04 7.565672261868e-02 0.0 
9.751637337427e-03 1.315138041844e-01 0.0 
9.376549219542e-03 1.365359680820e-01 0.0 
9.072804567399e-03 1.404552136607e-01 0.0 
8.886981483926e-03 1.435623096549e-01 0.0 
8.731958468950e-03 1.460201463231e-01 0.0 
8.567415095420e-03 1.479612301762e-01 0.0 
8.369424014482e-03 1.494855827037e-01 0.0 
8.126374365112e-03 1.506721429609e-01 0.0 
7.833220958275e-03 1.515864680702e-01 0.0 
7.489538692603e-03 1.522813262313e-01 0.0 
7.097281686839e-03 1.528002915348e-01 0.0 
6.659692313157e-03 1.531790897270e-01 0.0 
6.180639844750e-03 1.534475294558e-01 0.0 
5.664483563933e-03 1.536303946395e-01 0.0 
5.115809769848e-03 1.537482167332e-01 0.0 
4.539270843146e-03 1.538180000932e-01 0.0 
3.939511304615e-03 1.538537365787e-01 0.0 
3.321284456021e-03 1.538668639423e-01 0.0 
2.689705037199e-03 1.538664184663e-01 0.0 
2.050658810873e-03 1.538581771816e-01 0.0 
1.410375317278e-03 1.538398981020e-01 0.0 
7.313912524793e-04 1.538041192320e-01 0.0 
7.079545288633e-04 1.464789868589e-01 0.0 
1.409468159189e-03 1.464873631927e-01 0.0 
2.098562010588e-03 1.465058397268e-01 0.0 
2.778498758985e-03 1.465186781617e-01 0.0 
3.450203565244e-03 1.465235442915e-01 0.0 
4.112872333224e-03 1.465142471296e-01 0.0 
4.764904304295e-03 1.464813228053e-01 0.0 
5.404244244552e-03 1.464125942496e-01 0.0 
6.028889731674e-03 1.462925772232e-01 0.0 
6.637261055786e-03 1.461023725199e-01 0.0 
7.228433744551e-03 1.458189598435e-01 0.0 
7.802209973825e-03 1.454145734981e-01 0.0 
8.359500740120e-03 1.448556900603e-01 0.0 
8.903027569318e-03 1.441005063848e-01 0.0 
9.439926456210e-03 1.430992285981e-01 0.0 
9.979682546245e-03 1.417885694722e-01 0.0 
1.054163185966e-02 1.400958407264e-01 0.0 
1.114604113397e-02 1.379160469434e-01 0.0 
1.184154747011e-02 1.351509639131e-01 0.0 
1.262589713723e-02 1.316060041127e-01 0.0 
1.371647924608e-02 1.288117379138e-01 0.0 
1.279213936955e-02 1.312393683160e-01 0.0 
1.191478519235e-02 1.331314135047e-01 0.0 
1.110855850628e-02 1.346237081194e-01 0.0 
1.034595174102e-02 1.357715022914e-01 0.0 
9.617257844312e-03 1.366515177923e-01 0.0 
8.908463511418e-03 1.373109239720e-01 0.0 
8.213209426607e-03 1.377981598104e-01 0.0 
7.526241414084e-03 1.381490837333e-01 0.0 
6.844135465229e-03 1.383931860983e-01 0.0 
6.164267389302e-03 1.385548941637e-01 0.0 
5.484603823760e-03 1.386548025041e-01 0.0 
4.804663744842e-03 1.387101447980e-01 0.0 
4.124027655728e-03 1.387346019922e-01 0.0 
3.442179415792e-03 1.387383074089e-01 0.0 
2.758276384149e-03 1.387291446697e-01 0.0 
2.071454712201e-03 1.387120729573e-01 0.0 
1.381310443470e-03 1.386887620037e-01 0.0 
6.902649169049e-04 1.386451927654e-01 0.0 
7.169251549328e-04 1.304590350468e-01 0.0 
1.437169694952e-03 1.304598426809e-01 0.0 
2.158919083612e-03 1.304808865549e-01 0.0 
2.883583891972e-03 1.304979769028e-01 0.0 
3.611528353979e-03 1.305067038481e-01 0.0 
4.345567161586e-03 1.305000934664e-01 0.0 
5.086991958812e-03 1.304701088731e-01 0.0 
5.839421234825e-03 1.304051960070e-01 0.0 
6.603323817401e-03 1.302914717155e-01 0.0 
7.382686168526e-03 1.301071080070e-01 0.0 
8.182169552647e-03 1.298295006098e-01 0.0 
9.005784966128e-03 1.294321025180e-01 0.0 
9.859706873321e-03 1.288806971169e-01 0.0 
1.075194836690e-02 1.281359979580e-01 0.0 
1.168610004162e-02 1.271353158088e-01 0.0 
1.268484876355e-02 1.258387030630e-01 0.0 
1.372277937430e-02 1.241466178509e-01 0.0 
1.309258538051e-02 1.178150409850e-01 0.0 
1.204843516106e-02 1.189376579576e-01 0.0 
1.103006547279e-02 1.197762433250e-01 0.0 
1.006818135206e-02 1.204192286930e-01 0.0 
9.151845369040e-03 1.208956730023e-01 0.0 
8.273940806482e-03 1.212401554304e-01 0.0 
7.429989795490e-03 1.214834345227e-01 0.0 
6.615667635067e-03 1.216442228502e-01 0.0 
5.824241068879e-03 1.217414159891e-01 0.0 
5.056107524133e-03 1.218021750188e-01 0.0 
4.303683086420e-03 1.218281842979e-01 0.0 
3.567162052455e-03 1.218361959848e-01 0.0 
2.839864101105e-03 1.218272517259e-01 0.0 
2.122534271386e-03 1.218135152221e-01 0.0 
1.412816751653e-03 1.217931550948e-01 0.0 
7.036654937167e-04 1.217541175191e-01 0.0 
-9.346597178006e-03 6.014010265471e-02 0.0 
-3.087674463877e-03 8.068625670580e-02 0.0 
2.272484477206e-03 9.779036269973e-02 0.0 
6.556058650464e-03 1.112788637034e-01 0.0 
1.002102551221e-02 1.211670478631e-01 0.0 
1.267060853334e-02 1.263125019602e-01 0.0 
1.440517119454e-02 1.267254455487e-01 0.0 
1.493869386552e-02 1.241208966897e-01 0.0 
1.462328169277e-02 1.193865379458e-01 0.0 
1.369866243822e-02 1.130311190716e-01 0.0 
3.949248441113e-03 7.943962607903e-02 0.0 
2.253052052026e-03 6.562268886590e-03 0.0 
3.972993788118e-03 6.190052781679e-02 0.0 
-3.384855786965e-04 3.062275516558e-02 0.0 
8.467725332792e-04 6.330307725634e-03 0.0 
1.185425303947e-02 1.074197375042e-01 0.0 
-8.149081775055e-05 5.537112369129e-02 0.0 
3.445601798905e-03 7.263497357592e-03 0.0 
1.613512468223e-02 1.193918351456e-01 0.0 
3.973806332446e-03 8.063344451816e-03 0.0 
1.647036837805e-02 1.164630179826e-01 0.0 
1.915036905258e-04 5.925936769120e-03 0.0 
3.262092548995e-03 7.149075351775e-02 0.0 
3.864339787526e-03 9.271738351497e-03 0.0 
1.420837820677e-02 1.045969536525e-01 0.0 
-8.584922516575e-05 6.839392023029e-02 0.0 
-2.784568256509e-05 4.284425850294e-02 0.0 
3.474765831040e-03 1.037349728863e-02 0.0 
2.387906040788e-03 1.050079584563e-02 0.0 
6.978671792339e-04 1.101072645344e-02 0.0 
1.276760125506e-03 1.187550231700e-02 0.0 
1.696828176257e-03 1.050511415734e-02 0.0 
1.152011884968e-02 1.022983609542e-01 0.0 
7.490110537567e-03 1.037748805814e-01 0.0 
4.896024824482e-03 1.038623514695e-01 0.0 
4.745664469681e-04 6.645766438550e-02 0.0 
7.610964215310e-06 6.526202138669e-03 0.0 
-3.681632555150e-03 3.225090292109e-02 0.0 
1.889102346721e-03 7.461740277015e-02 0.0 
-6.108126013538e-06 2.517674432744e-02 0.0 
2.508830792237e-03 1.045383569923e-01 0.0 
1.264212794571e-04 7.418531207952e-02 0.0 
3.285879505178e-03 1.183896867130e-02 0.0 
3.515601931337e-03 7.043969508025e-03 0.0 
3.960246247189e-03 8.557300485332e-03 0.0 
3.091069486018e-03 7.279314096337e-03 0.0 
1.542876310888e-03 6.082614474828e-03 0.0 
2.225413324048e-03 4.700489001573e-02 0.0 
9.409334401347e-03 1.037869533636e-01 0.0 
5.236606102130e-04 7.266034355318e-03 0.0 
3.534406548056e-04 4.413627401188e-02 0.0 
3.860859697934e-03 6.756366985232e-02 0.0 
-1.072809907051e-04 6.269387274690e-02 0.0 
3.474972445474e-04 8.971139799666e-03 0.0 
1.459185795709e-02 1.148279972362e-01 0.0 
8.384564218577e-03 9.536069208851e-02 0.0 
1.672123523301e-02 1.193961720444e-01 0.0 
1.557463153730e-02 1.113627117730e-01 0.0 
-2.034536002679e-03 5.990336511869e-02 0.0 
5.756729516193e-04 8.687156328915e-02 0.0 
-9.291762355090e-06 5.206354955153e-03 0.0 
8.731324734155e-04 7.567885650421e-02 0.0 
1.922188132539e-04 2.014863645146e-02 0.0 
1.356991653288e-02 1.004886320464e-01 0.0 
1.446324643441e-02 9.570062234970e-02 0.0 
1.328818878626e-02 9.225767685815e-02 0.0 
1.431666997065e-02 8.657102153941e-02 0.0 
1.315687511929e-02 8.203266869982e-02 0.0 
1.389569313712e-02 7.686077073868e-02 0.0 
1.517812198585e-02 8.122005989305e-02 0.0 
1.453322095119e-02 7.156285357924e-02 0.0 
1.591358833950e-02 7.582739326800e-02 0.0 
1.257456272161e-02 7.204713109271e-02 0.0 
1.502103242600e-02 6.616985092825e-02 0.0 
1.648697928119e-02 7.032522910395e-02 0.0 
1.533346642959e-02 6.073498318170e-02 0.0 
1.686018062187e-02 6.475607116526e-02 0.0 
1.788034245184e-02 7.404007489563e-02 0.0 
1.830262084436e-02 6.834865069000e-02 0.0 
1.917279622364e-02 7.723932595773e-02 0.0 
1.962526332997e-02 7.138889301959e-02 0.0 
1.848068889037e-02 6.268472897013e-02 0.0 
1.980737743732e-02 6.559756398139e-02 0.0 
2.080129437352e-02 7.384334641513e-02 0.0 
2.095858484804e-02 6.791010305676e-02 0.0 
2.179694463660e-02 7.564978471242e-02 0.0 
2.189946249095e-02 6.955637900384e-02 0.0 
2.258601235607e-02 7.676970046362e-02 0.0 
2.260394396337e-02 7.054092832539e-02 0.0 
2.167175066461e-02 6.367290425423e-02 0.0 
2.227504175657e-02 6.460253877458e-02 0.0 
2.303479548934e-02 7.084111643998e-02 0.0 
2.258234660480e-02 6.488531198077e-02 0.0 
2.316141406921e-02 7.045784032234e-02 0.0 
2.256607325709e-02 6.453216134573e-02 0.0 
2.179585515003e-02 5.933031127354e-02 0.0 
2.163749207394e-02 5.909785945665e-02 0.0 
2.220428866332e-02 6.358076893356e-02 0.0 
2.112646788607e-02 5.834697340436e-02 0.0 
2.148071156856e-02 6.208261360478e-02 0.0 
2.025295598557e-02 5.713766136115e-02 0.0 
2.038823675802e-02 6.009863669045e-02 0.0 
1.900411356074e-02 5.553953912900e-02 0.0 
1.877511846883e-02 5.281526342467e-02 0.0 
1.740326172218e-02 5.166685213005e-02 0.0 
1.738327359137e-02 5.366380483357e-02 0.0 
1.568791238036e-02 5.036664261011e-02 0.0 
1.567525515019e-02 4.845629345602e-02 0.0 
1.392249567846e-02 4.776265733490e-02 0.0 
1.389695123912e-02 4.581994431713e-02 0.0 
1.216463800263e-02 4.572580429002e-02 0.0 
1.192438871590e-02 4.714405465316e-02 0.0 
1.023976612993e-02 4.576051481047e-02 0.0 
1.047643555238e-02 4.412131915734e-02 0.0 
8.667808490850e-03 4.475975411015e-02 0.0 
8.184684246963e-03 4.606038989130e-02 0.0 
6.804468213010e-03 4.564941333445e-02 0.0 
7.248032072239e-03 4.398357827167e-02 0.0 
5.581841915669e-03 4.537924950207e-02 0.0 
4.968649365962e-03 4.687754936267e-02 0.0 
3.988018020328e-03 4.705188027992e-02 0.0 
4.531432896332e-03 4.510211941703e-02 0.0 
3.157395568492e-03 4.715074684944e-02 0.0 
2.533765558384e-03 4.903332449370e-02 0.0 
1.943877522708e-03 4.940341872851e-02 0.0 
2.467161859155e-03 4.707663080304e-02 0.0 
1.458135507503e-03 4.956369415488e-02 0.0 
1.887256651527e-03 4.681512824490e-02 0.0 
9.162919983314e-04 5.190104714893e-02 0.0 
6.311348990842e-04 5.218376299517e-02 0.0 
1.244473085684e-04 5.456892837867e-02 0.0 
8.334389136166e-06 5.489155337862e-02 0.0 
2.071381584789e-02 5.420746358220e-02 0.0 
-4.036310260602e-04 5.729029251117e-02 0.0 
-3.867715198087e-04 5.657469407542e-02 0.0 
-4.025464780471e-04 5.761915535025e-02 0.0 
-7.844678618518e-05 5.490143327218e-02 0.0 
-6.905933923198e-04 6.001747386160e-02 0.0 
-6.178572009077e-04 6.030352860858e-02 0.0 
-7.658176213896e-04 6.267194377490e-02 0.0 
2.145496152891e-02 6.549561696661e-02 0.0 
1.839064521697e-02 5.709633537879e-02 0.0 
-6.669648488220e-04 6.288161578015e-02 0.0 
-6.762804476237e-04 6.518051511641e-02 0.0 
-7.722820794571e-04 6.474038963419e-02 0.0 
-5.207883342333e-04 6.715940397905e-02 0.0 
1.192267009956e-02 7.728453954458e-02 0.0 
1.121595995875e-02 6.692791660396e-02 0.0 
1.067108242135e-02 7.221850493518e-02 0.0 
9.838867175638e-03 6.157898931396e-02 0.0 
9.398804446256e-03 6.682913893235e-02 0.0 
-4.805893387507e-04 6.748304844616e-02 0.0 
1.373646510925e-02 5.603472010456e-02 0.0 
1.016786475829e-02 5.617834150100e-02 0.0 
2.136663167449e-02 8.188735619006e-02 0.0 
2.338233701954e-02 7.682990471984e-02 0.0 
1.536652043259e-02 4.592341600708e-02 0.0 
-5.476807811116e-04 6.026236881129e-02 0.0 
-5.743093303909e-04 6.277542115786e-02 0.0 
-4.745211228396e-04 5.991587613170e-02 0.0 
2.841820247024e-03 4.428349158778e-02 0.0 
2.181346977103e-03 4.363584660364e-02 0.0 
3.047139774148e-03 4.101520126087e-02 0.0 
2.328322671062e-03 4.000360965718e-02 0.0 
3.077282884028e-03 3.725999802323e-02 0.0 
2.325682735179e-03 3.589936475440e-02 0.0 
1.727392128231e-03 3.881342991038e-02 0.0 
1.701136195702e-03 3.436788994613e-02 0.0 
1.235398704525e-03 3.742818831230e-02 0.0 
2.936927774593e-03 3.300671707142e-02 0.0 
3.835856167846e-03 3.456275086118e-02 0.0 
1.194372176454e-03 3.265700278784e-02 0.0 
8.432088989032e-04 3.583835070194e-02 0.0 
7.955365208066e-04 3.075578132139e-02 0.0 
5.413912583974e-04 3.404466426265e-02 0.0 
5.277142749094e-04 3.899051307958e-02 0.0 
3.172531927333e-04 3.728348394140e-02 0.0 
2.643027758351e-04 4.209430678526e-02 0.0 
1.357781821663e-02 4.323794408299e-02 0.0 
1.475965156085e-02 4.277612867677e-02 0.0 
1.296344038717e-02 4.003482031707e-02 0.0 
1.384474977526e-02 3.902611828064e-02 0.0 
1.205116959364e-02 3.622278448286e-02 0.0 
1.262040676283e-02 3.468710446911e-02 0.0 
1.083993390389e-02 3.181214397814e-02 0.0 
1.030298715305e-02 3.367965517305e-02 0.0 
1.545504636623e-02 5.522219505360e-02 0.0 
1.540053178131e-02 5.163640010189e-02 0.0 
1.704592165769e-02 5.505897259863e-02 0.0 
1.481338165959e-02 5.224674546186e-02 0.0 
1.638010824348e-02 5.583546685818e-02 0.0 
1.392258769234e-02 5.216008555525e-02 0.0 
1.538032914532e-02 5.599909707603e-02 0.0 
1.273458669216e-02 5.135516462940e-02 0.0 
1.112347076775e-02 4.861310757311e-02 0.0 
9.716814447426e-03 4.685694606894e-02 0.0 
8.038688259351e-03 4.552751943702e-02 0.0 
6.418473077318e-03 4.297403153946e-02 0.0 
4.825282968362e-03 4.328639213651e-02 0.0 
2.112539112255e-02 5.806684107920e-02 0.0 
1.441755947280e-02 3.782879148411e-02 0.0 
1.287411657480e-02 3.292878535333e-02 0.0 
1.465104060602e-02 3.635819289860e-02 0.0 
-5.650286976042e-04 6.651067646313e-02 0.0 
3.190566024251e-04 3.204973083549e-02 0.0 
3.521139321382e-03 3.012427837006e-02 0.0 
4.555942785078e-03 3.193773076671e-02 0.0 
9.120897515405e-03 2.913803237702e-02 0.0 
-2.020065279593e-04 6.931943040749e-02 0.0 
1.403624515266e-02 5.558007647827e-02 0.0 
1.642131021444e-02 6.114190293241e-02 0.0 
8.474661673887e-03 5.590784116411e-02 0.0 
8.141102875008e-03 6.117655738484e-02 0.0 
4.032758854374e-03 2.724181103165e-02 0.0 
-2.377700942793e-04 6.953909890412e-02 0.0 
1.557319095616e-03 2.945336278055e-02 0.0 
8.030302732138e-03 4.420035502463e-02 0.0 
1.688991490978e-04 3.537110789864e-02 0.0 
1.648270730952e-04 2.986672914269e-02 0.0 
1.176326152773e-03 4.173305513773e-02 0.0 
1.278636209952e-02 3.087798357168e-02 0.0 
1.456175321734e-02 3.463332297906e-02 0.0 
6.465452078526e-03 4.539767036307e-02 0.0 
3.511796320881e-03 4.455420118334e-02 0.0 
1.730526014045e-03 4.226887692681e-02 0.0 
8.898328336677e-04 4.500856280474e-02 0.0 
2.518525793883e-03 4.634036910106e-02 0.0 
3.364484414714e-04 4.760921451115e-02 0.0 
-1.095175502629e-03 4.659241967363e-02 0.0 
-1.231395830558e-03 4.984444961846e-02 0.0 
1.305756117098e-05 5.009717210347e-02 0.0 
-1.166681147087e-03 5.267808794021e-02 0.0 
-1.984297577632e-03 5.285083351226e-02 0.0 
-1.689969853235e-03 5.574298079644e-02 0.0 
2.768708023630e-04 2.637608434466e-02 0.0 
4.570264541659e-03 3.954150711456e-02 0.0 
1.847659296426e-02 8.305838718793e-02 0.0 
3.035936723398e-03 2.514787257567e-02 0.0 
9.357440621695e-03 2.688175017813e-02 0.0 
7.144453004194e-03 4.999164704001e-02 0.0 
6.914019822055e-03 5.529153058975e-02 0.0 
7.716591710583e-03 6.641076389092e-02 0.0 
6.585325583707e-03 6.053140689268e-02 0.0 
5.735371770108e-03 4.919001397210e-02 0.0 
5.500699235569e-03 5.447550513427e-02 0.0 
6.178283607987e-03 6.570761247278e-02 0.0 
5.179608718791e-03 5.968965033824e-02 0.0 
5.708662148365e-03 7.079414124682e-02 0.0 
4.788203643926e-03 6.481885236638e-02 0.0 
4.236229264656e-03 5.350601065631e-02 0.0 
3.917880221877e-03 5.870072382340e-02 0.0 
4.340684736697e-03 6.986690876168e-02 0.0 
3.534488029800e-03 6.381456878285e-02 0.0 
3.847452991110e-03 7.482102548729e-02 0.0 
3.096719230221e-03 6.884096657035e-02 0.0 
2.785502023364e-03 5.763133235541e-02 0.0 
1.000675331531e-04 7.111183138749e-02 0.0 
8.641360094959e-03 3.132697277654e-02 0.0 
7.499336661228e-03 2.660114696114e-02 0.0 
-4.830750423057e-04 6.234073157721e-02 0.0 
-3.955992090887e-04 5.925146498561e-02 0.0 
-3.342172486356e-04 5.670675211526e-02 0.0 
-2.895500432887e-04 5.584193058169e-02 0.0 
2.391224578091e-03 6.278724465501e-02 0.0 
2.101019934550e-03 5.133448780573e-02 0.0 
1.477206217281e-02 6.138099292162e-02 0.0 
1.685019333821e-02 6.760879743906e-02 0.0 
7.254678448490e-03 4.463617307925e-02 0.0 
7.262003214947e-05 3.326498196202e-02 0.0 
5.364277385844e-05 3.860425293307e-02 0.0 
2.332588792202e-02 7.573899562400e-02 0.0 
2.327410041255e-02 8.254356280375e-02 0.0 
2.302672766928e-02 8.076114404849e-02 0.0 
2.262896463455e-02 8.811721001474e-02 0.0 
2.278336472355e-02 8.974123129223e-02 0.0 
2.215456689258e-02 8.561057229246e-02 0.0 
4.879704167037e-03 3.607859260592e-02 0.0 
3.361905841103e-03 4.718069041588e-02 0.0 
-8.903704764256e-04 6.394896744271e-02 0.0 
-6.172093838295e-04 6.552233443202e-02 0.0 
6.709429363561e-05 2.750678169436e-02 0.0 
9.510022129303e-03 3.544375701005e-02 0.0 
2.033956719090e-02 5.651842270956e-02 0.0 
1.958552418639e-02 5.118078055415e-02 0.0 
1.860060600407e-02 4.902550172752e-02 0.0 
1.764673247351e-02 4.393181595403e-02 0.0 
1.644347494658e-02 4.117963296831e-02 0.0 
1.528888268096e-02 3.630840960437e-02 0.0 
1.644902228190e-02 3.911234374610e-02 0.0 
1.233145133007e-02 2.844263250303e-02 0.0 
1.391396951190e-02 3.166696292360e-02 0.0 
2.657179242583e-03 7.387558913472e-02 0.0 
1.618514091657e-02 4.133600052140e-02 0.0 
-1.655006080519e-04 5.226543980953e-02 0.0 
2.537862429230e-04 7.068581684986e-02 0.0 
-1.831795161518e-03 5.635976220838e-02 0.0 
-7.778618943632e-06 7.129684485451e-02 0.0 
-2.465196401973e-04 6.946447340205e-02 0.0 
3.329975281821e-03 2.200981133754e-02 0.0 
1.384227881279e-02 3.296580501153e-02 0.0 
1.498236637214e-02 3.788344767980e-02 0.0 
2.175038855782e-02 9.589635696365e-02 0.0 
2.184929178301e-02 9.720232467703e-02 0.0 
1.055823920427e-02 2.484241831871e-02 0.0 
1.003687199178e-02 7.750657485507e-02 0.0 
6.665305929694e-03 7.661325940532e-02 0.0 
6.071851297264e-03 8.154869926529e-02 0.0 
3.940497226882e-04 7.272694827357e-02 0.0 
-2.065559553481e-03 5.290992937146e-02 0.0 
4.625864688975e-03 4.291286207579e-02 0.0 
1.842138873716e-02 6.633721044242e-02 0.0 
1.860644837301e-02 7.322353937424e-02 0.0 
5.811653441903e-03 4.096166054279e-02 0.0 
2.564596069025e-03 3.570556685202e-02 0.0 
1.771325403460e-03 5.644408979916e-02 0.0 
1.508547706059e-03 4.490665575586e-02 0.0 
-1.833109396499e-04 5.315891780752e-02 0.0 
-1.715350186053e-04 5.204745351097e-02 0.0 
4.427017733581e-03 2.430833793160e-02 0.0 
-1.543365081034e-03 5.901436749376e-02 0.0 
1.727417912932e-03 3.955075062613e-02 0.0 
7.930423522211e-03 3.341682172402e-02 0.0 
8.506004932949e-03 3.716825021134e-02 0.0 
-3.147932199035e-04 5.839825543290e-02 0.0 
1.468492166250e-02 6.863892902582e-02 0.0 
1.246721088499e-02 6.135397689279e-02 0.0 
1.235869922576e-03 4.998361128586e-02 0.0 
-1.399825679513e-03 5.800979838567e-02 0.0 
-7.342752059669e-05 7.115337765336e-02 0.0 
3.469149227820e-03 1.879027845067e-02 0.0 
4.663022343117e-03 3.752289639690e-02 0.0 
1.504621850977e-02 3.459329034529e-02 0.0 
1.730994458351e-02 4.143378849535e-02 0.0 
1.236450936341e-02 2.729880297156e-02 0.0 
-1.006882303029e-03 5.986986292891e-02 0.0 
2.401124220752e-03 1.961595537163e-02 0.0 
1.884328325286e-05 3.098171047869e-02 0.0 
1.226658248095e-02 2.952491210782e-02 0.0 
1.328819549284e-02 3.407586445207e-02 0.0 
2.005712111189e-02 7.100691698807e-02 0.0 
2.009481445070e-02 7.819510925818e-02 0.0 
1.810828495583e-02 8.112551683665e-02 0.0 
1.946499224506e-02 8.614844549834e-02 0.0 
1.640463752345e-02 8.524262804495e-02 0.0 
2.136929677451e-02 7.506225999745e-02 0.0 
1.961291727882e-02 8.588807223416e-02 0.0 
1.866099818590e-02 9.180679467349e-02 0.0 
1.961540056349e-02 9.429624757167e-02 0.0 
2.261564893147e-02 9.056235770392e-02 0.0 
2.161816893583e-02 9.769721354925e-02 0.0 
1.846035528025e-02 5.941572759670e-02 0.0 
1.654008999662e-02 4.592432586799e-02 0.0 
-1.716960923632e-04 5.401039771001e-02 0.0 
4.483765751422e-04 4.349315554558e-02 0.0 
3.893023961991e-03 4.187065859802e-02 0.0 
3.529055929711e-03 4.185077155194e-02 0.0 
2.670309751991e-03 3.531769802201e-02 0.0 
4.638226546788e-03 8.066819263053e-02 0.0 
4.057030607754e-03 8.545264835562e-02 0.0 
-6.570006018158e-05 6.796817535606e-02 0.0 
3.153227658181e-05 6.677700715587e-02 0.0 
1.405833031869e-03 4.633402734465e-02 0.0 
2.198026061262e-03 2.294929246358e-02 0.0 
5.872994021388e-03 3.847508807836e-02 0.0 
5.730125917076e-03 3.303805216735e-02 0.0 
7.219869596852e-03 3.922016881025e-02 0.0 
4.649871612441e-03 2.129133476911e-02 0.0 
1.311069966050e-02 4.965322146765e-02 0.0 
1.181302914747e-02 4.094894746988e-02 0.0 
1.497937699803e-03 3.655189476695e-02 0.0 
2.066428138254e-02 5.377131846859e-02 0.0 
7.929941093892e-04 6.906943913961e-02 0.0 
1.692259751445e-02 5.376826321438e-02 0.0 
1.471468383585e-05 2.498398628077e-02 0.0 
4.501462360151e-05 2.131684243002e-02 0.0 
9.767169703558e-03 2.187073811583e-02 0.0 
1.539436456828e-02 9.956048361997e-02 0.0 
1.944574658409e-02 4.891188997714e-02 0.0 
1.939053352082e-02 4.955376904854e-02 0.0 
1.842770730074e-02 1.002486745213e-01 0.0 
1.917612733046e-02 1.024312237627e-01 0.0 
2.043259013896e-02 9.616969763933e-02 0.0 
1.977145597848e-02 1.040385406983e-01 0.0 
8.430542648501e-04 5.153658160835e-02 0.0 
-2.666823420210e-04 5.404180884192e-02 0.0 
1.066065095094e-02 2.411929670217e-02 0.0 
1.103017763982e-02 2.404704193195e-02 0.0 
1.042419798731e-02 2.543123433783e-02 0.0 
1.139261186219e-02 2.971250708320e-02 0.0 
7.968815114676e-03 1.827376708912e-02 0.0 
8.772079481435e-03 2.143314386124e-02 0.0 
-2.242950906735e-04 6.911569484755e-02 0.0 
2.051443738378e-02 1.046321604895e-01 0.0 
3.550154775247e-03 3.101557739943e-02 0.0 
1.756011110325e-02 9.757015120479e-02 0.0 
1.656379315243e-03 1.727384057910e-02 0.0 
1.519317311834e-03 2.062955035341e-02 0.0 
2.171626553960e-05 3.244085669417e-02 0.0 
-9.771454655940e-04 3.599399667426e-02 0.0 
1.184138715118e-03 3.319093784626e-02 0.0 
1.690460004468e-02 8.968943770692e-02 0.0 
1.816822215543e-02 9.459813069059e-02 0.0 
1.542980345155e-02 8.380796992769e-02 0.0 
-1.102181100343e-05 1.124761566913e-02 0.0 
1.083146192066e-03 1.046499877815e-01 0.0 
2.564278307471e-06 1.856528508062e-02 0.0 
2.215223954900e-02 9.055970026439e-02 0.0 
1.267096671583e-03 2.721106987365e-02 0.0 
1.803616493199e-02 4.450124811712e-02 0.0 
2.292542620582e-02 7.400272570734e-02 0.0 
5.691894445215e-03 2.655709094850e-02 0.0 
9.655713617249e-04 3.960950585116e-02 0.0 
7.118520721647e-04 2.620220408409e-02 0.0 
6.955132832715e-03 8.698923036106e-02 0.0 
6.285647625880e-03 9.193203228696e-02 0.0 
7.644116698863e-03 8.224859705273e-02 0.0 
9.243511163358e-03 4.771036356929e-02 0.0 
6.198540890484e-03 4.565365558109e-02 0.0 
2.568732757361e-03 4.072157378610e-02 0.0 
-5.013156368294e-04 6.511099247431e-02 0.0 
-4.031202137580e-04 6.438040110373e-02 0.0 
-1.256304132692e-03 6.111356591509e-02 0.0 
-1.180602832411e-03 5.979936193898e-02 0.0 
1.273309738359e-05 5.038190923103e-02 0.0 
1.051733125665e-04 5.123472165795e-02 0.0 
1.654647712184e-02 4.831686344282e-02 0.0 
1.492939889575e-02 4.460198470419e-02 0.0 
1.929228725118e-02 5.439996443931e-02 0.0 
7.037352962584e-03 3.547654247765e-02 0.0 
7.347507161354e-03 3.891998810522e-02 0.0 
8.833830321876e-03 4.030639774892e-02 0.0 
2.700582106534e-03 3.024650288287e-02 0.0 
1.803099270923e-03 2.250555790980e-02 0.0 
2.338778395124e-03 4.943202856323e-02 0.0 
3.061609350596e-03 4.827075508066e-02 0.0 
5.333120117239e-04 5.283526928095e-02 0.0 
3.386482572303e-03 2.574123143443e-02 0.0 
2.253901701055e-05 1.488353196720e-02 0.0 
8.349384962614e-05 1.779310202196e-02 0.0 
1.114111471745e-03 6.772520019377e-02 0.0 
1.013511607812e-04 6.517203250378e-02 0.0 
1.156498535148e-02 6.955325592382e-02 0.0 
8.990398619776e-03 6.134967100091e-02 0.0 
5.496014548754e-03 2.802480661542e-02 0.0 
7.032258446770e-03 3.386075030556e-02 0.0 
3.905071058988e-03 2.116520707624e-02 0.0 
-8.282743796562e-05 7.085798056120e-02 0.0 
1.583771056902e-02 3.695764814420e-02 0.0 
3.537702719971e-03 1.576105388491e-02 0.0 
4.797084079788e-03 1.848272075832e-02 0.0 
2.323411992398e-03 1.228593372337e-02 0.0 
1.161150709331e-02 2.585899495696e-02 0.0 
8.728387900426e-03 1.883935726252e-02 0.0 
9.211580083267e-03 1.955861649444e-02 0.0 
2.789216769408e-04 3.160180767204e-02 0.0 
5.382070417710e-04 3.126313594607e-02 0.0 
4.815615149219e-03 9.110116661773e-02 0.0 
-9.273328437338e-04 2.881324118184e-02 0.0 
4.159626615213e-03 9.605950073645e-02 0.0 
3.477913871258e-03 9.020840945533e-02 0.0 
3.594174783430e-03 1.008638821353e-01 0.0 
4.596557837111e-05 7.256681941373e-02 0.0 
7.912538219678e-03 9.409696108696e-02 0.0 
8.700387869851e-03 8.809863939178e-02 0.0 
1.790271517777e-03 6.605244708570e-02 0.0 
2.297553171005e-03 1.916791879500e-02 0.0 
1.876092584831e-03 6.963922975956e-02 0.0 
1.394629808117e-03 7.079268982994e-02 0.0 
1.072814127074e-03 1.457682164165e-02 0.0 
9.900651548769e-04 1.813995850134e-02 0.0 
6.247827844774e-04 1.187404635613e-02 0.0 
6.097425813625e-04 1.584202166070e-02 0.0 
8.560861947631e-04 2.176976534353e-02 0.0 
5.118692748471e-04 1.928262022968e-02 0.0 
5.641021377883e-03 9.746098613312e-02 0.0 
3.154558611369e-04 1.214515453271e-02 0.0 
2.672673579029e-04 1.649681071759e-02 0.0 
1.310615473633e-04 9.445289920770e-03 0.0 
1.822336083742e-02 1.103641613026e-01 0.0 
2.043996728793e-02 9.037235764484e-02 0.0 
1.909503317416e-02 9.887592658379e-02 0.0 
1.611163535159e-02 1.039679052151e-01 0.0 
7.689842998705e-03 1.883960001507e-02 0.0 
9.520253370653e-03 2.540156875243e-02 0.0 
-3.111794681931e-06 2.840866229577e-02 0.0 
-9.231896027861e-06 3.422254719254e-02 0.0 
2.871440665302e-03 9.562368515674e-02 0.0 
2.096329390511e-03 9.605103682694e-02 0.0 
2.289428007238e-03 8.672144107715e-02 0.0 
1.652489069762e-03 8.787711799009e-02 0.0 
1.773616878587e-03 7.843850469003e-02 0.0 
1.142057144470e-03 7.966269835293e-02 0.0 
1.351809966891e-03 6.993815130818e-02 0.0 
7.560593211331e-03 1.583617433220e-02 0.0 
1.337271768433e-02 9.251747592794e-02 0.0 
1.709468314430e-02 1.060512397443e-01 0.0 
6.185230401414e-03 1.481574791026e-02 0.0 
7.245171883650e-03 1.872550898040e-02 0.0 
2.027520068135e-02 1.047334465577e-01 0.0 
1.879479573913e-02 1.120927635439e-01 0.0 
1.544293800162e-03 1.280422817569e-02 0.0 
2.097370131057e-02 6.849487041699e-02 0.0 
1.717700443244e-03 1.224970492240e-02 0.0 
-4.505524370995e-03 4.107698921851e-02 0.0 
1.241013567022e-03 4.058116762351e-02 0.0 
2.211358747457e-02 7.166698343271e-02 0.0 
2.110988603636e-02 9.735217669003e-02 0.0 
2.124043409041e-02 9.367085412585e-02 0.0 
2.002665129886e-02 1.018501774061e-01 0.0 
6.491772388440e-03 3.139744813642e-02 0.0 
2.772674938392e-04 6.312549916051e-02 0.0 
1.368239593857e-02 7.706343520679e-02 0.0 
1.965026089550e-03 6.883141668039e-02 0.0 
9.570213338169e-03 7.827531263352e-02 0.0 
-7.420831195426e-06 3.118090911045e-02 0.0 
2.014446729462e-02 6.268067685419e-02 0.0 
2.283691167879e-02 8.377963124113e-02 0.0 
1.654057093215e-02 7.521574405467e-02 0.0 
2.133797760830e-02 8.236046305168e-02 0.0 
1.724249246523e-02 7.970325704756e-02 0.0 
1.545704007261e-02 9.059862825382e-02 0.0 
1.650642287021e-02 9.440652025128e-02 0.0 
1.891290648371e-02 5.775699361900e-02 0.0 
2.045943325860e-02 1.037149484018e-01 0.0 
1.820520190640e-02 1.106058204546e-01 0.0 
2.035134296266e-02 7.988296739192e-02 0.0 
8.770980266284e-03 4.514811767461e-02 0.0 
8.674830794028e-03 3.970023227545e-02 0.0 
6.710920748212e-03 2.881051763485e-02 0.0 
8.399199014896e-03 3.435729361242e-02 0.0 
1.036459317380e-02 4.533071503709e-02 0.0 
1.018491983203e-02 3.992084109361e-02 0.0 
7.926516494166e-03 2.918329807615e-02 0.0 
9.801339718646e-03 3.457806395342e-02 0.0 
6.632824138460e-03 2.178967132102e-02 0.0 
9.108799468191e-03 2.907857103041e-02 0.0 
1.169878507002e-02 3.993191181709e-02 0.0 
1.119829972573e-02 3.483328517351e-02 0.0 
8.602458727225e-03 2.523535920515e-02 0.0 
1.362059001301e-02 4.544882818655e-02 0.0 
5.070491706913e-03 1.137185378796e-02 0.0 
2.239129449818e-02 6.775880977854e-02 0.0 
3.008952003448e-03 3.749710699215e-02 0.0 
4.116137820677e-03 5.023442509648e-02 0.0 
2.220278568231e-02 8.320065961767e-02 0.0 
3.254224063362e-03 1.062738877316e-02 0.0 
2.688925114853e-03 1.071652891533e-02 0.0 
1.762985969501e-02 6.051885523791e-02 0.0 
3.927510330751e-03 8.889086972079e-03 0.0 
1.756175596698e-02 8.880224505372e-02 0.0 
1.124578045969e-02 4.983649650041e-02 0.0 
4.037299549374e-03 8.412476247667e-03 0.0 
1.035229773390e-02 5.074219397423e-02 0.0 
1.194268973066e-02 5.625018418724e-02 0.0 
1.164746995775e-02 6.162681352466e-02 0.0 
2.080731002643e-03 1.015537056773e-02 0.0 
8.300760039781e-03 7.729570953143e-02 0.0 
3.383839738756e-03 6.914236408317e-03 0.0 
1.563700502701e-02 4.216514039575e-02 0.0 
1.738436736690e-02 4.576113875526e-02 0.0 
1.823682144351e-02 4.956904459003e-02 0.0 
1.199818644350e-02 4.546746592638e-02 0.0 
2.540586807562e-03 6.581619756371e-03 0.0 
4.412602077952e-03 1.233362274534e-02 0.0 
3.832531369120e-03 1.213324123831e-02 0.0 
5.932539141362e-03 1.799265100307e-02 0.0 
1.903187574886e-03 6.351967354288e-03 0.0 
3.349030081619e-03 9.208344242634e-03 0.0 
3.352236818316e-03 8.557309413963e-03 0.0 
1.773781380248e-03 4.820233896749e-02 0.0 
3.974463581367e-03 4.708446797332e-02 0.0 
5.188135983135e-03 4.719051017112e-02 0.0 
6.426912166093e-03 4.672299545719e-02 0.0 
5.103484593995e-03 4.603075489358e-02 0.0 
7.847204245191e-03 4.661917850531e-02 0.0 
8.946841512614e-03 4.704482280059e-02 0.0 
9.435664900632e-03 4.713912502268e-02 0.0 
1.239835794582e-02 3.496959151489e-02 0.0 
1.281455722815e-03 6.020329887640e-03 0.0 
3.962979585136e-03 3.848428591805e-02 0.0 
4.983196921394e-03 3.963627160984e-02 0.0 
4.864645520664e-03 4.263767967980e-02 0.0 
-1.369668387383e-04 5.459427007285e-02 0.0 
2.352605360780e-04 5.183614917988e-02 0.0 
5.025423381797e-04 4.841018662565e-02 0.0 
-3.690501135898e-04 5.730863113943e-02 0.0 
1.856476058506e-02 4.614948038578e-02 0.0 
1.018922144729e-03 6.049729300937e-03 0.0 
1.011297295657e-02 3.895298380864e-02 0.0 
4.076362632457e-04 5.216145630251e-02 0.0 
1.045343289510e-02 1.031092328058e-01 0.0 
1.098423500162e-02 9.440359027976e-02 0.0 
1.204126999701e-02 9.357611473937e-02 0.0 
1.127802420385e-02 8.407777053694e-02 0.0 
9.787475808032e-03 9.378792929726e-02 0.0 
-4.341059025936e-05 4.926357188754e-02 0.0 
-6.919083216506e-05 4.790334123617e-02 0.0 
-1.426354765957e-04 5.069696882974e-02 0.0 
-7.113140022508e-05 4.631596126555e-02 0.0 
-1.034302258578e-04 4.910792059378e-02 0.0 
-1.583188392527e-04 5.324300281085e-02 0.0 
-5.647483093263e-05 4.452128284671e-02 0.0 
-6.345987937828e-05 4.783264102762e-02 0.0 
8.421547599262e-03 1.038921329532e-01 0.0 
6.135794610262e-04 3.879475705851e-02 0.0 
-1.251850395402e-03 4.310537245846e-02 0.0 
-2.010255022213e-04 4.985733047052e-02 0.0 
-2.052863098406e-03 4.678014662875e-02 0.0 
-2.110423170150e-03 4.120981582121e-02 0.0 
-2.169443027503e-03 4.518146448723e-02 0.0 
-1.326436280314e-03 4.084548200209e-02 0.0 
-1.774854659953e-03 3.617461140372e-02 0.0 
3.185680099515e-03 5.310101485296e-02 0.0 
6.478732738877e-04 5.525883788957e-02 0.0 
3.723218405719e-03 5.801765253495e-02 0.0 
1.377260526720e-03 5.959656908549e-02 0.0 
-9.488405710076e-04 5.693946934651e-02 0.0 
-7.170064722182e-04 6.408854920131e-02 0.0 
-7.976459728720e-06 7.461013777409e-03 0.0 
-9.531632945181e-05 5.924164233510e-02 0.0 
-1.956141857249e-04 6.082067614705e-02 0.0 
-2.157671718852e-04 6.395103086212e-02 0.0 
-3.117864597240e-04 6.193329842618e-02 0.0 
-1.667813238897e-04 5.757650369793e-02 0.0 
-1.070898973761e-04 6.573722188807e-02 0.0 
-1.997499966229e-04 6.651032599216e-02 0.0 
1.382408639751e-03 7.524459379258e-02 0.0 
7.776569525610e-04 7.531529490570e-02 0.0 
3.884910855785e-04 7.570444944400e-02 0.0 
3.691797735905e-04 7.497367492239e-02 0.0 
6.112521694379e-04 7.456562666403e-02 0.0 
1.143852118955e-03 7.477264323337e-02 0.0 
1.486195485360e-03 7.403619178300e-02 0.0 
2.381380222472e-03 7.378305718799e-02 0.0 
1.768955128049e-03 7.310452383201e-02 0.0 
9.622477386966e-04 7.307819218541e-02 0.0 
2.836349431333e-03 7.277482597018e-02 0.0 
4.314379191328e-04 5.523778051482e-02 0.0 
8.210611830890e-04 4.951277672800e-02 0.0 
6.400117976568e-04 6.450693184789e-03 0.0 
6.520095096832e-03 1.034694616354e-01 0.0 
3.946474724410e-03 6.505159210913e-02 0.0 
6.588442171420e-04 1.323188426687e-02 0.0 
9.984019138756e-04 1.096371786097e-02 0.0 
8.104309237993e-04 1.062993501126e-02 0.0 
-9.408595295413e-06 1.840590564109e-02 0.0 
-1.432802997448e-05 1.506987435843e-02 0.0 
3.553594343444e-04 1.287050467636e-02 0.0 
-8.792489801692e-04 6.213439859278e-02 0.0 
6.201873630765e-03 2.389007107753e-02 0.0 
1.865833609358e-03 3.411450858924e-02 0.0 
1.227406577178e-02 5.467480949327e-02 0.0 
-9.401990209863e-04 5.683662762049e-02 0.0 
6.309463861154e-06 3.652164663361e-02 0.0 
8.114112189608e-04 4.046303681507e-02 0.0 
1.312330315191e-04 2.397878277430e-02 0.0 
1.360556569647e-04 4.045266189246e-02 0.0 
4.937476134872e-04 2.865654589537e-02 0.0 
3.329458109766e-03 1.237888309543e-02 0.0 
1.656267969716e-04 7.270004254988e-02 0.0 
5.191184373288e-03 7.577987263635e-02 0.0 
3.349372513398e-03 7.972283631499e-02 0.0 
3.110163622146e-03 5.244625592849e-02 0.0 
-5.890093759930e-04 6.529741269049e-02 0.0 
-2.237277219614e-04 5.450481732940e-02 0.0 
-1.501207575050e-04 6.878773490217e-02 0.0 
7.300062396261e-03 1.611796761452e-02 0.0 
2.060517833284e-02 8.817255543810e-02 0.0 
3.620072977837e-03 4.476339727287e-02 0.0 
-3.914040843069e-04 5.761798998595e-02 0.0 
-7.695145021049e-04 5.936949086035e-02 0.0 
-1.051139235267e-03 5.500103390996e-02 0.0 
2.295646649443e-02 6.941686077989e-02 0.0 
1.067150383729e-03 4.945194726713e-02 0.0 
2.180033988724e-03 3.131067934651e-02 0.0 
2.375635605830e-03 4.606536066247e-02 0.0 
3.382262511050e-03 6.982696907203e-02 0.0 
2.638423115897e-03 2.824132741522e-02 0.0 
1.630104782585e-03 4.279042178619e-02 0.0 
7.221237262343e-03 7.157435771457e-02 0.0 
1.108795960876e-02 2.977647428723e-02 0.0 
-2.146576772970e-03 4.944560408650e-02 0.0 
4.478973156424e-03 4.825710050101e-02 0.0 
4.407546618829e-03 2.735468913928e-02 0.0 
9.370597175057e-03 8.277407694337e-02 0.0 
5.074249497783e-04 7.009706479375e-02 0.0 
5.468136088794e-03 8.652694861509e-02 0.0 
2.468044223985e-03 1.619575494369e-02 0.0 
8.692111124724e-03 5.054102166395e-02 0.0 
-4.327700052791e-04 6.750507945145e-02 0.0 
1.213699339583e-02 4.365360014689e-02 0.0 
2.312605389272e-02 7.715329904769e-02 0.0 
1.497440436544e-02 1.081318707990e-01 0.0 
1.927256767011e-03 2.906427042165e-02 0.0 
2.043053125652e-02 5.419054081802e-02 0.0 
7.678763250453e-03 2.398675509620e-02 0.0 
1.120023422720e-02 3.761742697956e-02 0.0 
-3.750538789169e-04 6.718353799201e-02 0.0 
1.312527209615e-03 2.405275614690e-02 0.0 
1.711838489526e-02 4.908487911637e-02 0.0 
3.605050514636e-03 3.653129681652e-02 0.0 
1.735689470739e-02 4.630164943942e-02 0.0 
1.366716242367e-02 4.905393333523e-02 0.0 
5.866424666443e-03 4.386024892531e-02 0.0 
5.977724221029e-03 4.331751304221e-02 0.0 
1.099832532222e-02 2.746587192123e-02 0.0 
2.146784184292e-02 8.971831956833e-02 0.0 
2.080236757450e-02 6.211364211086e-02 0.0 
1.702968194136e-02 5.928184617275e-02 0.0 
2.161755097336e-02 5.899487991914e-02 0.0 
-2.848154902213e-05 3.968817424092e-02 0.0 
1.903735051281e-03 2.622473301654e-02 0.0 
3.126613322788e-03 4.023133378135e-02 0.0 
2.240691957142e-02 7.830459072718e-02 0.0 
8.873631664748e-03 7.206766430831e-02 0.0 
1.258228789175e-02 2.854093398369e-02 0.0 
2.545392427280e-03 2.438943867692e-02 0.0 
2.320449405294e-02 8.354919815906e-02 0.0 
1.061292768981e-03 2.743860506397e-02 0.0 
4.603156815953e-03 3.245545208390e-02 0.0 
7.520188813022e-04 4.907092950046e-02 0.0 
1.023039595793e-05 7.264408335483e-02 0.0 
9.821364779096e-03 5.359027576098e-02 0.0 
1.225753855173e-02 4.952201815922e-02 0.0 
1.978662111094e-02 5.369815128158e-02 0.0 
1.014032403864e-03 4.560288243265e-02 0.0 
4.819427577637e-03 2.146044809773e-02 0.0 
6.786272841079e-04 2.524577619526e-02 0.0 
5.183822429556e-03 2.927477027972e-02 0.0 
1.245671952077e-03 7.004393047048e-02 0.0 
1.633197623079e-02 1.029360077660e-01 0.0 
3.970670100824e-04 2.287179966942e-02 0.0 
1.044129242970e-02 4.185186654500e-02 0.0 
9.250633875556e-03 2.433410705507e-02 0.0 
-9.506362763601e-05 5.179884269109e-02 0.0 
7.371354504208e-03 1.576379925067e-02 0.0 
1.868699566209e-02 1.113790206447e-01 0.0 
2.019840852379e-04 2.032528870469e-02 0.0 
7.101493690644e-03 2.902565440936e-02 0.0 
1.949405149226e-02 6.471359375905e-02 0.0 
1.797080572373e-03 1.046470563997e-01 0.0 
9.590148187844e-05 1.275461895975e-02 0.0 
5.987213187950e-03 2.377031296257e-02 0.0 
2.028194239875e-02 5.277135088625e-02 0.0 
8.887872547396e-03 4.283305352139e-02 0.0 
1.612390025451e-02 1.141477145845e-01 0.0 
6.972866343791e-04 4.464415213662e-02 0.0 
1.970454483095e-02 5.994423847021e-02 0.0 
1.810271176765e-03 9.964248604017e-03 0.0 
6.169560525613e-03 2.129924094922e-02 0.0 
1.311971723938e-02 6.697428436131e-02 0.0 
3.064784581799e-04 4.754142535923e-02 0.0 
1.642936602481e-02 4.033503210102e-02 0.0 
8.249699860201e-04 7.393581559843e-02 0.0 
1.771640262176e-02 1.084187970822e-01 0.0 
1.627579180035e-04 4.641352480301e-02 0.0 
1.055980956285e-02 4.789929735774e-02 0.0 
7.431576693158e-03 4.173722046922e-02 0.0 
6.972466402296e-03 1.518279285136e-02 0.0 
6.592139810735e-05 4.503795645565e-02 0.0 
1.139250600139e-02 4.788092976438e-02 0.0 
7.468820822698e-06 4.343794967475e-02 0.0 
1.674051994532e-02 1.181523020650e-01 0.0 
1.350091521496e-02 6.138293916057e-02 0.0 
-2.200530313790e-05 4.163533839996e-02 0.0 
1.801904050212e-02 5.163681397252e-02 0.0 
1.016451313335e-03 7.192473112629e-02 0.0 
1.917682964155e-02 4.783345500934e-02 0.0 
-6.550018773366e-06 2.188787978318e-02 0.0 
2.933838940287e-04 5.387268866731e-02 0.0 
6.136538227789e-03 4.072679403114e-02 0.0 
1.206202717443e-02 5.083066984623e-02 0.0 
1.651691703584e-02 1.199346753655e-01 0.0 
6.054623993924e-03 3.753377795910e-02 0.0 
1.589952465385e-02 4.305317979436e-02 0.0 
1.785111206318e-02 4.324650587838e-02 0.0 
1.899426126746e-02 4.975539971079e-02 0.0 
5.733028885814e-03 3.371587571240e-02 0.0 
1.876815656931e-02 1.114197762044e-01 0.0 
-1.017061559775e-03 6.129007758834e-02 0.0 
-1.041085603152e-03 6.276065684417e-02 0.0 
9.735980095080e-03 4.674389978893e-02 0.0 
1.422305745277e-02 3.922863844571e-02 0.0 
2.744119642029e-04 7.392435495036e-02 0.0 
1.376674508224e-02 5.057574732245e-02 0.0 
-8.606866459537e-04 6.224856516195e-02 0.0 
7.459198308958e-03 4.671462286712e-02 0.0 
1.405117413093e-02 3.230694190561e-02 0.0 
5.172094849542e-04 7.696647823343e-02 0.0 
6.131817590303e-03 4.671190080605e-02 0.0 
-5.062114149978e-05 7.071440993485e-02 0.0 
4.143111229567e-03 4.781918616993e-02 0.0 
1.786973980953e-02 4.527954723030e-02 0.0 
3.271197330582e-03 4.846130566253e-02 0.0 
1.757987304185e-03 5.046134059410e-02 0.0 
1.289090527486e-03 2.235599065835e-02 0.0 
1.294227744664e-03 5.129314740663e-02 0.0 
1.735915459236e-04 1.067570730268e-02 0.0 
-1.241868499458e-05 6.834590038277e-03 0.0 
6.787662920402e-04 9.727760192740e-02 0.0 
1.484431726491e-02 1.193551460010e-01 0.0 
-2.375259975516e-03 2.695055313868e-02 0.0 
1.784532008100e-02 1.061828461209e-01 0.0 
-3.392347065976e-04 5.546155505762e-02 0.0 
1.534533985739e-02 4.993769782541e-02 0.0 
1.410700612169e-03 9.681498619907e-02 0.0 
-8.541840455241e-04 5.831737217027e-02 0.0 
6.288404119026e-03 1.868222570166e-02 0.0 
3.654269437497e-03 7.322316749736e-03 0.0 
9.310538633756e-04 6.027439595880e-02 0.0 
7.681583578822e-03 2.163315654294e-02 0.0 
1.627074644758e-02 3.876107821872e-02 0.0 
2.658779589240e-04 3.246789859838e-02 0.0 
4.178443878587e-03 1.053326881263e-01 0.0 
1.901603038139e-03 6.314999807272e-02 0.0 
-1.319007216949e-05 3.694904881228e-02 0.0 
1.246843472245e-02 1.128614276817e-01 0.0 
1.472434690374e-02 9.842463446567e-02 0.0 
1.148444879833e-02 8.581867768920e-02 0.0 
-2.927160084565e-04 6.684300575150e-02 0.0 
-1.365479614744e-03 5.225294192949e-02 0.0 
1.031728606386e-02 1.017365465770e-01 0.0 
5.051074910803e-03 1.295793967265e-02 0.0 
7.046299022569e-03 9.629079702221e-02 0.0 
1.350970110072e-02 3.040374502118e-02 0.0 
6.362759188953e-03 8.774745184749e-02 0.0 
3.170812263313e-03 2.125467283844e-02 0.0 
7.035923125304e-03 1.465329690733e-02 0.0 
2.923540793685e-04 5.769273514158e-03 0.0 
1.055629358136e-02 2.288087183481e-02 0.0 
7.032413331981e-03 6.969874262178e-02 0.0 
1.033564430728e-02 8.662035280858e-02 0.0 
7.167786447319e-03 1.650297063453e-02 0.0 
1.257549745254e-03 5.116109479889e-02 0.0 
1.083172757355e-04 5.609734753222e-03 0.0 
8.871091925570e-03 9.676301090856e-02 0.0 
7.866227938607e-04 2.089338843322e-02 0.0 
5.108435918952e-04 3.922606998958e-02 0.0 
3.964264251763e-04 2.028888397616e-02 0.0 
1.312778051621e-02 4.006301546549e-02 0.0 
2.881961374733e-03 8.452855124461e-02 0.0 
1.237708725464e-02 8.593460960743e-02 0.0 
-1.038131977538e-05 1.181237285939e-02 0.0 
5.526955818979e-03 1.952156762604e-02 0.0 
4.282303133998e-03 5.921095487930e-02 0.0 
1.459647227648e-03 6.139876650684e-02 0.0 
-3.929101151225e-04 6.136059886070e-02 0.0 
-1.241173971437e-03 3.085366670692e-02 0.0 
1.096750919141e-03 1.176598901725e-02 0.0 
1.053271570593e-02 3.026162205265e-02 0.0 
3.692718088288e-05 1.196090192214e-02 0.0 
1.738241935060e-04 7.521525610453e-02 0.0 
2.406283634491e-03 6.835464826834e-02 0.0 
1.652259727514e-03 1.080903594682e-02 0.0 
6.398446259926e-03 1.647703732970e-02 0.0 
-5.994500681101e-04 4.356105226233e-02 0.0 
1.060861508009e-03 8.563033498206e-03 0.0 
-5.124196003337e-05 4.936379290733e-02 0.0 
5.710186353120e-03 1.062382385105e-01 0.0 
2.067140184168e-03 7.209914684196e-02 0.0 
4.366454711047e-05 5.725204027812e-03 0.0 
1.884508733916e-03 1.993910764951e-02 0.0 
-2.467009167746e-04 5.897662545580e-02 0.0 
1.250808079537e-02 1.008545037807e-01 0.0 
-1.559534222597e-04 6.892586593099e-02 0.0 
9.866872450562e-03 2.151723077760e-02 0.0 
1.349434954161e-04 6.064944691039e-02 0.0 
1.285073381908e-03 1.886985569258e-02 0.0 
2.451782067626e-03 1.056960999848e-02 0.0 
3.812854931532e-03 1.834231190670e-02 0.0 
2.288233720463e-03 5.070869913659e-03 0.0 
-2.890427015494e-04 3.306483424528e-02 0.0 
6.284491182562e-03 1.294841484835e-02 0.0 
4.825764660588e-03 1.645235509859e-02 0.0 
3.135440599088e-03 1.057684133104e-01 0.0 
4.805811826948e-03 1.938012281510e-02 0.0 
-2.977208293822e-04 6.464911946246e-02 0.0 
5.085736566688e-04 7.202376822513e-02 0.0 
7.505134912833e-05 9.462436146233e-03 0.0 
4.510645154443e-04 7.582067618872e-02 0.0 
5.265760058037e-04 1.057555535080e-01 0.0 
-3.199098306705e-06 5.585111660935e-03 0.0 
4.395388820515e-04 7.367272694802e-02 0.0 
1.119105196885e-03 8.989652512114e-02 0.0 
5.904784094714e-03 1.621432073966e-02 0.0 
-4.479559174153e-05 5.118051710382e-02 0.0 
6.208036445372e-04 4.027109096826e-02 0.0 
-2.200873960254e-03 4.950198292693e-02 0.0 
-9.762655221977e-04 2.561932936131e-02 0.0 
8.934485015502e-04 7.157292531322e-02 0.0 
6.064519584765e-03 1.279343894607e-02 0.0 
2.955702806879e-03 1.772841845196e-02 0.0 
2.308064635926e-03 7.880338397654e-02 0.0 
7.251804479981e-03 5.412868236250e-02 0.0 
8.261466279276e-03 2.276195022924e-02 0.0 
-2.175101686368e-04 5.613388199185e-02 0.0 
9.654834664708e-03 2.245001175973e-02 0.0 
6.177035660215e-03 1.703302420776e-02 0.0 
-5.026606877308e-03 5.110323170179e-02 0.0 
-2.379810146014e-05 4.675056098666e-02 0.0 
2.344164751586e-03 7.092941244551e-02 0.0 
4.225314986934e-04 1.066906138402e-02 0.0 
-1.380428996796e-04 5.464292311114e-02 0.0 
1.153450817784e-02 1.303103273431e-01 0.0 
3.652354553481e-04 1.501858240047e-01 0.0 
1.353526255350e-02 1.295541345986e-01 0.0 
3.363023830758e-04 1.426107845234e-01 0.0 
1.413668725710e-02 1.263193199355e-01 0.0 
3.551363507412e-04 1.346039933841e-01 0.0 
1.386616516420e-02 1.211037844842e-01 0.0 
3.406189878774e-04 1.261606934589e-01 0.0 
1.298981299470e-02 1.145024507456e-01 0.0 
3.588776655832e-04 1.172836596142e-01 0.0 

VECTORS node_bounda_dof_materi_velocity_x float
1.000000000000e+00 0.0 0.0 
1.000000000000e+00 0.0 0.0 
1.000000000000e+00 0.0 0.0 
1.000000000000e+00 0.0 0.0 
1.000000000000e+00 0.0 0.0 
1.000000000000e+00 0.0 0.0 
1.000000000000e+00 0.0 0.0 
1.000000000000e+00 0.0 0.0 
1.000000000000e+00 0.0 0.0 
1.000000000000e+00 0.0 0.0 
1.000000000000e+00 0.0 0.0 
1.000000000000e+00 0.0 0.0 
1.000000000000e+00 0.0 0.0 
1.000000000000e+00 0.0 0.0 
1.000000000000e+00 0.0 0.0 
1.000000000000e+00 0.0 0.0 
1.000000000000e+00 0.0 0.0 
1.000000000000e+00 0.0 0.0 
1.000000000000e+00 0.0 0.0 
1.000000000000e+00 0.0 0.0 
1.000000000000e+00 0.0 0.0 
1.000000000000e+00 0.0 0.0 
1.000000000000e+00 0.0 0.0 
1.000000000000e+00 0.0 0.0 
1.000000000000e+00 0.0 0.0 
1.000000000000e+00 0.0 0.0 
1.000000000000e+00 0.0 0.0 
1.000000000000e+00 0.0 0.0 
1.000000000000e+00 0.0 0.0 
1.000000000000e+00 0.0 0.0 
1.000000000000e+00 0.0 0.0 
1.000000000000e+00 0.0 0.0 
1.000000000000e+00 0.0 0.0 
1.000000000000e+00 0.0 0.0 
1.000000000000e+00 0.0 0.0 
1.000000000000e+00 0.0 0.0 
1.000000000000e+00 0.0 0.0 
1.000000000000e+00 0.0 0.0 
1.000000000000e+00 0.0 0.0 
1.000000000000e+00 0.0 0.0 
1.000000000000e+00 0.0 0.0 
1.000000000000e+00 0.0 0.0 
1.000000000000e+00 0.0 0.0 
1.000000000000e+00 0.0 0.0 
1.000000000000e+00 0.0 0.0 
1.000000000000e+00 0.0 0.0 
1.000000000000e+00 0.0 0.0 
1.000000000000e+00 0.0 0.0 
1.000000000000e+00 0.0 0.0 
1.000000000000e+00 0.0 0.0 
1.000000000000e+00 0.0 0.0 
1.000000000000e+00 0.0 0.0 
1.000000000000e+00 0.0 0.0 
1.000000000000e+00 0.0 0.0 
1.000000000000e+00 0.0 0.0 
1.000000000000e+00 0.0 0.0 
1.000000000000e+00 0.0 0.0 
1.000000000000e+00 0.0 0.0 
1.000000000000e+00 0.0 0.0 
1.000000000000e+00 0.0 0.0 
1.000000000000e+00 0.0 0.0 
1.000000000000e+00 0.0 0.0 
1.000000000000e+00 0.0 0.0 
1.000000000000e+00 0.0 0.0 
1.000000000000e+00 0.0 0.0 
1.000000000000e+00 0.0 0.0 
1.000000000000e+00 0.0 0.0 
1.000000000000e+00 0.0 0.0 
1.000000000000e+00 0.0 0.0 
1.000000000000e+00 0.0 0.0 
1.000000000000e+00 0.0 0.0 
1.000000000000e+00 0.0 0.0 
1.000000000000e+00 0.0 0.0 
1.000000000000e+00 0.0 0.0 
1.000000000000e+00 0.0 0.0 
1.000000000000e+00 0.0 0.0 
1.000000000000e+00 0.0 0.0 
1.000000000000e+00 0.0 0.0 
1.000000000000e+00 0.0 0.0 
1.000000000000e+00 0.0 0.0 
1.000000000000e+00 0.0 0.0 
0.0 0.0 0.0 
0.0 0.0 0.0 
0.0 0.0 0.0 
0.0 0.0 0.0 
0.0 0.0 0.0 
0.0 0.0 0.0 
0.0 0.0 0.0 
0.0 0.0 0.0 
0.0 0.0 0.0 
0.0 0.0 0.0 
0.0 0.0 0.0 
1.000000000000e+00 0.0 0.0 
1.000000000000e+00 0.0 0.0 
1.000000000000e+00 0.0 0.0 
1.000000000000e+00 0.0 0.0 
1.000000000000e+00 0.0 0.0 
0.0 0.0 0.0 
0.0 0.0 0.0 
0.0 0.0 0.0 
0.0 0.0 0.0 
0.0 0.0 0.0 
0.0 0.0 0.0 
0.0 0.0 0.0 
0.0 0.0 0.0 
0.0 0.0 0.0 
0.0 0.0 0.0 
0.0 0.0 0.0 
0.0 0.0 0.0 
0.0 0.0 0.0 
0.0 0.0 0.0 
0.0 0.0 0.0 
0.0 0.0 0.0 
0.0 0.0 0.0 
0.0 0.0 0.0 
0.0 0.0 0.0 
0.0 0.0 0.0 
0.0 0.0 0.0 
0.0 0.0 0.0 
0.0 0.0 0.0 
0.0 0.0 0.0 
0.0 0.0 0.0 
0.0 0.0 0.0 
0.0 0.0 0.0 
0.0 0.0 0.0 
0.0 0.0 0.0 
0.0 0.0 0.0 
0.0 0.0 0.0 
0.0 0.0 0.0 
0.0 0.0 0.0 
0.0 0.0 0.0 
0.0 0.0 0.0 
0.0 0.0 0.0 
0.0 0.0 0.0 
0.0 0.0 0.0 
0.0 0.0 0.0 
0.0 0.0 0.0 
0.0 0.0 0.0 
0.0 0.0 0.0 
0.0 0.0 0.0 
0.0 0.0 0.0 
0.0 0.0 0.0 
0.0 0.0 0.0 
0.0 0.0 0.0 
0.0 0.0 0.0 
0.0 0.0 0.0 
0.0 0.0 0.0 
0.0 0.0 0.0 
0.0 0.0 0.0 
0.0 0.0 0.0 
0.0 0.0 0.0 
0.0 0.0 0.0 
0.0 0.0 0.0 
0.0 0.0 0.0 
0.0 0.0 0.0 
0.0 0.0 0.0 
0.0 0.0 0.0 
0.0 0.0 0.0 
0.0 0.0 0.0 
0.0 0.0 0.0 
0.0 0.0 0.0 
0.0 0.0 0.0 
0.0 0.0 0.0 
0.0 0.0 0.0 
0.0 0.0 0.0 
0.0 0.0 0.0 
0.0 0.0 0.0 
0.0 0.0 0.0 
0.0 0.0 0.0 
0.0 0.0 0.0 
0.0 0.0 0.0 
0.0 0.0 0.0 
0.0 0.0 0.0 
0.0 0.0 0.0 
0.0 0.0 0.0 
0.0 0.0 0.0 
0.0 0.0 0.0 
0.0 0.0 0.0 
0.0 0.0 0.0 
0.0 0.0 0.0 
0.0 0.0 0.0 
0.0 0.0 0.0 
0.0 0.0 0.0 
0.0 0.0 0.0 
0.0 0.0 0.0 
0.0 0.0 0.0 
0.0 0.0 0.0 
0.0 0.0 0.0 
0.0 0.0 0.0 
0.0 0.0 0.0 
0.0 0.0 0.0 
0.0 0.0 0.0 
0.0 0.0 0.0 
0.0 0.0 0.0 
0.0 0.0 0.0 
0.0 0.0 0.0 
0.0 0.0 0.0 
0.0 0.0 0.0 
0.0 0.0 0.0 
0.0 0.0 0.0 
0.0 0.0 0.0 
0.0 0.0 0.0 
0.0 0.0 0.0 
0.0 0.0 0.0 
0.0 0.0 0.0 
0.0 0.0 0.0 
0.0 0.0 0.0 
0.0 0.0 0.0 
0.0 0.0 0.0 
0.0 0.0 0.0 
0.0 0.0 0.0 
0.0 0.0 0.0 
0.0 0.0 0.0 
0.0 0.0 0.0 
0.0 0.0 0.0 
0.0 0.0 0.0 
0.0 0.0 0.0 
0.0 0.0 0.0 
0.0 0.0 0.0 
0.0 0.0 0.0 
0.0 0.0 0.0 
0.0 0.0 0.0 
0.0 0.0 0.0 
0.0 0.0 0.0 
0.0 0.0 0.0 
0.0 0.0 0.0 
0.0 0.0 0.0 
0.0 0.0 0.0 
0.0 0.0 0.0 
0.0 0.0 0.0 
0.0 0.0 0.0 
0.0 0.0 0.0 
0.0 0.0 0.0 
0.0 0.0 0.0 
0.0 0.0 0.0 
0.0 0.0 0.0 
0.0 0.0 0.0 
0.0 0.0 0.0 
0.0 0.0 0.0 
0.0 0.0 0.0 
0.0 0.0 0.0 
0.0 0.0 0.0 
0.0 0.0 0.0 
0.0 0.0 0.0 
0.0 0.0 0.0 
0.0 0.0 0.0 
0.0 0.0 0.0 
0.0 0.0 0.0 
0.0 0.0 0.0 
0.0 0.0 0.0 
0.0 0.0 0.0 
0.0 0.0 0.0 
0.0 0.0 0.0 
0.0 0.0 0.0 
0.0 0.0 0.0 
0.0 0.0 0.0 
0.0 0.0 0.0 
0.0 0.0 0.0 
0.0 0.0 0.0 
0.0 0.0 0.0 
0.0 0.0 0.0 
0.0 0.0 0.0 
0.0 0.0 0.0 
0.0 0.0 0.0 
0.0 0.0 0.0 
0.0 0.0 0.0 
0.0 0.0 0.0 
0.0 0.0 0.0 
0.0 0.0 0.0 
0.0 0.0 0.0 
0.0 0.0 0.0 
0.0 0.0 0.0 
0.0 0.0 0.0 
0.0 0.0 0.0 
0.0 0.0 0.0 
0.0 0.0 0.0 
0.0 0.0 0.0 
0.0 0.0 0.0 
0.0 0.0 0.0 
0.0 0.0 0.0 
0.0 0.0 0.0 
0.0 0.0 0.0 
0.0 0.0 0.0 
0.0 0.0 0.0 
0.0 0.0 0.0 
0.0 0.0 0.0 
0.0 0.0 0.0 
0.0 0.0 0.0 
0.0 0.0 0.0 
0.0 0.0 0.0 
0.0 0.0 0.0 
0.0 0.0 0.0 
0.0 0.0 0.0 
0.0 0.0 0.0 
0.0 0.0 0.0 
0.0 0.0 0.0 
0.0 0.0 0.0 
0.0 0.0 0.0 
0.0 0.0 0.0 
0.0 0.0 0.0 
0.0 0.0 0.0 
0.0 0.0 0.0 
0.0 0.0 0.0 
0.0 0.0 0.0 
0.0 0.0 0.0 
0.0 0.0 0.0 
0.0 0.0 0.0 
0.0 0.0 0.0 
0.0 0.0 0.0 
0.0 0.0 0.0 
0.0 0.0 0.0 
0.0 0.0 0.0 
0.0 0.0 0.0 
0.0 0.0 0.0 
0.0 0.0 0.0 
0.0 0.0 0.0 
0.0 0.0 0.0 
0.0 0.0 0.0 
0.0 0.0 0.0 
0.0 0.0 0.0 
0.0 0.0 0.0 
0.0 0.0 0.0 
0.0 0.0 0.0 
0.0 0.0 0.0 
0.0 0.0 0.0 
0.0 0.0 0.0 
0.0 0.0 0.0 
0.0 0.0 0.0 
0.0 0.0 0.0 
0.0 0.0 0.0 
0.0 0.0 0.0 
0.0 0.0 0.0 
0.0 0.0 0.0 
0.0 0.0 0.0 
0.0 0.0 0.0 
0.0 0.0 0.0 
0.0 0.0 0.0 
0.0 0.0 0.0 
0.0 0.0 0.0 
0.0 0.0 0.0 
0.0 0.0 0.0 
0.0 0.0 0.0 
0.0 0.0 0.0 
0.0 0.0 0.0 
0.0 0.0 0.0 
0.0 0.0 0.0 
0.0 0.0 0.0 
0.0 0.0 0.0 
0.0 0.0 0.0 
0.0 0.0 0.0 
0.0 0.0 0.0 
0.0 0.0 0.0 
0.0 0.0 0.0 
0.0 0.0 0.0 
0.0 0.0 0.0 
0.0 0.0 0.0 
0.0 0.0 0.0 
0.0 0.0 0.0 
0.0 0.0 0.0 
0.0 0.0 0.0 
0.0 0.0 0.0 
0.0 0.0 0.0 
0.0 0.0 0.0 
0.0 0.0 0.0 
0.0 0.0 0.0 
0.0 0.0 0.0 
0.0 0.0 0.0 
0.0 0.0 0.0 
0.0 0.0 0.0 
0.0 0.0 0.0 
0.0 0.0 0.0 
0.0 0.0 0.0 
0.0 0.0 0.0 
0.0 0.0 0.0 
0.0 0.0 0.0 
0.0 0.0 0.0 
0.0 0.0 0.0 
0.0 0.0 0.0 
0.0 0.0 0.0 
0.0 0.0 0.0 
0.0 0.0 0.0 
0.0 0.0 0.0 
0.0 0.0 0.0 
0.0 0.0 0.0 
0.0 0.0 0.0 
0.0 0.0 0.0 
0.0 0.0 0.0 
0.0 0.0 0.0 
0.0 0.0 0.0 
0.0 0.0 0.0 
0.0 0.0 0.0 
0.0 0.0 0.0 
0.0 0.0 0.0 
0.0 0.0 0.0 
0.0 0.0 0.0 
0.0 0.0 0.0 
0.0 0.0 0.0 
0.0 0.0 0.0 
0.0 0.0 0.0 
0.0 0.0 0.0 
0.0 0.0 0.0 
0.0 0.0 0.0 
0.0 0.0 0.0 
0.0 0.0 0.0 
0.0 0.0 0.0 
0.0 0.0 0.0 
0.0 0.0 0.0 
0.0 0.0 0.0 
0.0 0.0 0.0 
0.0 0.0 0.0 
0.0 0.0 0.0 
0.0 0.0 0.0 
0.0 0.0 0.0 
0.0 0.0 0.0 
0.0 0.0 0.0 
0.0 0.0 0.0 
0.0 0.0 0.0 
0.0 0.0 0.0 
0.0 0.0 0.0 
0.0 0.0 0.0 
0.0 0.0 0.0 
0.0 0.0 0.0 
0.0 0.0 0.0 
0.0 0.0 0.0 
0.0 0.0 0.0 
0.0 0.0 0.0 
0.0 0.0 0.0 
0.0 0.0 0.0 
0.0 0.0 0.0 
0.0 0.0 0.0 
0.0 0.0 0.0 
0.0 0.0 0.0 
0.0 0.0 0.0 
0.0 0.0 0.0 
0.0 0.0 0.0 
0.0 0.0 0.0 
0.0 0.0 0.0 
0.0 0.0 0.0 
0.0 0.0 0.0 
0.0 0.0 0.0 
0.0 0.0 0.0 
0.0 0.0 0.0 
0.0 0.0 0.0 
0.0 0.0 0.0 
0.0 0.0 0.0 
0.0 0.0 0.0 
0.0 0.0 0.0 
0.0 0.0 0.0 
0.0 0.0 0.0 
0.0 0.0 0.0 
0.0 0.0 0.0 
0.0 0.0 0.0 
0.0 0.0 0.0 
0.0 0.0 0.0 
0.0 0.0 0.0 
0.0 0.0 0.0 
0.0 0.0 0.0 
0.0 0.0 0.0 
0.0 0.0 0.0 
0.0 0.0 0.0 
0.0 0.0 0.0 
0.0 0.0 0.0 
0.0 0.0 0.0 
0.0 0.0 0.0 
0.0 0.0 0.0 
0.0 0.0 0.0 
0.0 0.0 0.0 
0.0 0.0 0.0 
0.0 0.0 0.0 
0.0 0.0 0.0 
0.0 0.0 0.0 
0.0 0.0 0.0 
0.0 0.0 0.0 
0.0 0.0 0.0 
0.0 0.0 0.0 
0.0 0.0 0.0 
0.0 0.0 0.0 
0.0 0.0 0.0 
0.0 0.0 0.0 
0.0 0.0 0.0 
0.0 0.0 0.0 
0.0 0.0 0.0 
0.0 0.0 0.0 
0.0 0.0 0.0 
0.0 0.0 0.0 
0.0 0.0 0.0 
0.0 0.0 0.0 
0.0 0.0 0.0 
0.0 0.0 0.0 
0.0 0.0 0.0 
0.0 0.0 0.0 
0.0 0.0 0.0 
0.0 0.0 0.0 
0.0 0.0 0.0 
0.0 0.0 0.0 
0.0 0.0 0.0 
0.0 0.0 0.0 
0.0 0.0 0.0 
0.0 0.0 0.0 
0.0 0.0 0.0 
0.0 0.0 0.0 
0.0 0.0 0.0 
0.0 0.0 0.0 
0.0 0.0 0.0 
0.0 0.0 0.0 
0.0 0.0 0.0 
0.0 0.0 0.0 
0.0 0.0 0.0 
0.0 0.0 0.0 
0.0 0.0 0.0 
0.0 0.0 0.0 
0.0 0.0 0.0 
0.0 0.0 0.0 
0.0 0.0 0.0 
0.0 0.0 0.0 
0.0 0.0 0.0 
0.0 0.0 0.0 
0.0 0.0 0.0 
0.0 0.0 0.0 
0.0 0.0 0.0 
0.0 0.0 0.0 
0.0 0.0 0.0 
0.0 0.0 0.0 
0.0 0.0 0.0 
0.0 0.0 0.0 
0.0 0.0 0.0 
0.0 0.0 0.0 
0.0 0.0 0.0 
0.0 0.0 0.0 
0.0 0.0 0.0 
0.0 0.0 0.0 
0.0 0.0 0.0 
0.0 0.0 0.0 
0.0 0.0 0.0 
0.0 0.0 0.0 
0.0 0.0 0.0 
0.0 0.0 0.0 
0.0 0.0 0.0 
0.0 0.0 0.0 
0.0 0.0 0.0 
0.0 0.0 0.0 
0.0 0.0 0.0 
0.0 0.0 0.0 
0.0 0.0 0.0 
0.0 0.0 0.0 
0.0 0.0 0.0 
0.0 0.0 0.0 
0.0 0.0 0.0 
0.0 0.0 0.0 
0.0 0.0 0.0 
0.0 0.0 0.0 
0.0 0.0 0.0 
0.0 0.0 0.0 
0.0 0.0 0.0 
0.0 0.0 0.0 
0.0 0.0 0.0 
0.0 0.0 0.0 
0.0 0.0 0.0 
0.0 0.0 0.0 
0.0 0.0 0.0 
0.0 0.0 0.0 
0.0 0.0 0.0 
0.0 0.0 0.0 
0.0 0.0 0.0 
0.0 0.0 0.0 
0.0 0.0 0.0 
0.0 0.0 0.0 
0.0 0.0 0.0 
0.0 0.0 0.0 
0.0 0.0 0.0 
0.0 0.0 0.0 
0.0 0.0 0.0 
0.0 0.0 0.0 
0.0 0.0 0.0 
0.0 0.0 0.0 
0.0 0.0 0.0 
0.0 0.0 0.0 
0.0 0.0 0.0 
0.0 0.0 0.0 
0.0 0.0 0.0 
0.0 0.0 0.0 
0.0 0.0 0.0 
0.0 0.0 0.0 
0.0 0.0 0.0 
0.0 0.0 0.0 
0.0 0.0 0.0 
0.0 0.0 0.0 
0.0 0.0 0.0 
0.0 0.0 0.0 
0.0 0.0 0.0 
0.0 0.0 0.0 
0.0 0.0 0.0 
0.0 0.0 0.0 
0.0 0.0 0.0 
0.0 0.0 0.0 
0.0 0.0 0.0 
0.0 0.0 0.0 
0.0 0.0 0.0 
0.0 0.0 0.0 
0.0 0.0 0.0 
0.0 0.0 0.0 
0.0 0.0 0.0 
0.0 0.0 0.0 
0.0 0.0 0.0 
0.0 0.0 0.0 
0.0 0.0 0.0 
0.0 0.0 0.0 
0.0 0.0 0.0 
0.0 0.0 0.0 
0.0 0.0 0.0 
0.0 0.0 0.0 
0.0 0.0 0.0 
0.0 0.0 0.0 
0.0 0.0 0.0 
0.0 0.0 0.0 
0.0 0.0 0.0 
0.0 0.0 0.0 
0.0 0.0 0.0 
0.0 0.0 0.0 
0.0 0.0 0.0 
0.0 0.0 0.0 
0.0 0.0 0.0 
0.0 0.0 0.0 
0.0 0.0 0.0 
0.0 0.0 0.0 
0.0 0.0 0.0 
0.0 0.0 0.0 
0.0 0.0 0.0 
0.0 0.0 0.0 
0.0 0.0 0.0 
0.0 0.0 0.0 
0.0 0.0 0.0 
0.0 0.0 0.0 
0.0 0.0 0.0 
0.0 0.0 0.0 
0.0 0.0 0.0 
0.0 0.0 0.0 
0.0 0.0 0.0 
0.0 0.0 0.0 
0.0 0.0 0.0 
0.0 0.0 0.0 
0.0 0.0 0.0 
0.0 0.0 0.0 
0.0 0.0 0.0 
0.0 0.0 0.0 
0.0 0.0 0.0 
0.0 0.0 0.0 
0.0 0.0 0.0 
0.0 0.0 0.0 
0.0 0.0 0.0 
0.0 0.0 0.0 
0.0 0.0 0.0 
0.0 0.0 0.0 
0.0 0.0 0.0 
0.0 0.0 0.0 
0.0 0.0 0.0 
0.0 0.0 0.0 
0.0 0.0 0.0 
0.0 0.0 0.0 
0.0 0.0 0.0 
0.0 0.0 0.0 
0.0 0.0 0.0 
0.0 0.0 0.0 
0.0 0.0 0.0 
0.0 0.0 0.0 
0.0 0.0 0.0 
0.0 0.0 0.0 
0.0 0.0 0.0 
0.0 0.0 0.0 
0.0 0.0 0.0 
0.0 0.0 0.0 
0.0 0.0 0.0 
0.0 0.0 0.0 
0.0 0.0 0.0 
0.0 0.0 0.0 
0.0 0.0 0.0 
0.0 0.0 0.0 
0.0 0.0 0.0 
0.0 0.0 0.0 
0.0 0.0 0.0 
0.0 0.0 0.0 
0.0 0.0 0.0 
0.0 0.0 0.0 
0.0 0.0 0.0 
0.0 0.0 0.0 
0.0 0.0 0.0 
0.0 0.0 0.0 
0.0 0.0 0.0 
0.0 0.0 0.0 
0.0 0.0 0.0 
0.0 0.0 0.0 
0.0 0.0 0.0 
0.0 0.0 0.0 
0.0 0.0 0.0 
0.0 0.0 0.0 
0.0 0.0 0.0 
0.0 0.0 0.0 
0.0 0.0 0.0 
0.0 0.0 0.0 
0.0 0.0 0.0 
0.0 0.0 0.0 
0.0 0.0 0.0 
0.0 0.0 0.0 
0.0 0.0 0.0 
0.0 0.0 0.0 
0.0 0.0 0.0 
0.0 0.0 0.0 
0.0 0.0 0.0 
0.0 0.0 0.0 
0.0 0.0 0.0 
0.0 0.0 0.0 
0.0 0.0 0.0 
0.0 0.0 0.0 
0.0 0.0 0.0 
0.0 0.0 0.0 
0.0 0.0 0.0 
0.0 0.0 0.0 
0.0 0.0 0.0 
0.0 0.0 0.0 
0.0 0.0 0.0 
0.0 0.0 0.0 
0.0 0.0 0.0 
0.0 0.0 0.0 
0.0 0.0 0.0 
0.0 0.0 0.0 
0.0 0.0 0.0 
0.0 0.0 0.0 
0.0 0.0 0.0 
0.0 0.0 0.0 
0.0 0.0 0.0 
0.0 0.0 0.0 
0.0 0.0 0.0 
0.0 0.0 0.0 
0.0 0.0 0.0 
0.0 0.0 0.0 
0.0 0.0 0.0 
0.0 0.0 0.0 
0.0 0.0 0.0 
0.0 0.0 0.0 
0.0 0.0 0.0 
0.0 0.0 0.0 
0.0 0.0 0.0 
0.0 0.0 0.0 
0.0 0.0 0.0 
0.0 0.0 0.0 
0.0 0.0 0.0 
0.0 0.0 0.0 
0.0 0.0 0.0 
0.0 0.0 0.0 
0.0 0.0 0.0 
0.0 0.0 0.0 
0.0 0.0 0.0 
0.0 0.0 0.0 
0.0 0.0 0.0 
0.0 0.0 0.0 
0.0 0.0 0.0 
0.0 0.0 0.0 
0.0 0.0 0.0 
0.0 0.0 0.0 
0.0 0.0 0.0 
0.0 0.0 0.0 
0.0 0.0 0.0 
0.0 0.0 0.0 
0.0 0.0 0.0 
0.0 0.0 0.0 
0.0 0.0 0.0 
0.0 0.0 0.0 
0.0 0.0 0.0 
0.0 0.0 0.0 
0.0 0.0 0.0 
0.0 0.0 0.0 
0.0 0.0 0.0 
0.0 0.0 0.0 
0.0 0.0 0.0 
0.0 0.0 0.0 
0.0 0.0 0.0 
0.0 0.0 0.0 
0.0 0.0 0.0 
0.0 0.0 0.0 
0.0 0.0 0.0 
0.0 0.0 0.0 
0.0 0.0 0.0 
0.0 0.0 0.0 
0.0 0.0 0.0 
0.0 0.0 0.0 
0.0 0.0 0.0 
0.0 0.0 0.0 
0.0 0.0 0.0 
0.0 0.0 0.0 
0.0 0.0 0.0 
0.0 0.0 0.0 
0.0 0.0 0.0 
0.0 0.0 0.0 
0.0 0.0 0.0 
0.0 0.0 0.0 
0.0 0.0 0.0 
0.0 0.0 0.0 
0.0 0.0 0.0 
0.0 0.0 0.0 
0.0 0.0 0.0 
0.0 0.0 0.0 
0.0 0.0 0.0 
0.0 0.0 0.0 
0.0 0.0 0.0 
0.0 0.0 0.0 
0.0 0.0 0.0 
0.0 0.0 0.0 
0.0 0.0 0.0 
0.0 0.0 0.0 
0.0 0.0 0.0 
0.0 0.0 0.0 
0.0 0.0 0.0 
0.0 0.0 0.0 
0.0 0.0 0.0 
0.0 0.0 0.0 
0.0 0.0 0.0 
0.0 0.0 0.0 
0.0 0.0 0.0 
0.0 0.0 0.0 
0.0 0.0 0.0 
0.0 0.0 0.0 
0.0 0.0 0.0 
0.0 0.0 0.0 
0.0 0.0 0.0 
0.0 0.0 0.0 
0.0 0.0 0.0 
0.0 0.0 0.0 
0.0 0.0 0.0 
0.0 0.0 0.0 
0.0 0.0 0.0 
0.0 0.0 0.0 
0.0 0.0 0.0 
0.0 0.0 0.0 
0.0 0.0 0.0 
0.0 0.0 0.0 
0.0 0.0 0.0 
0.0 0.0 0.0 
0.0 0.0 0.0 
0.0 0.0 0.0 
0.0 0.0 0.0 
0.0 0.0 0.0 
0.0 0.0 0.0 
0.0 0.0 0.0 
0.0 0.0 0.0 
0.0 0.0 0.0 
0.0 0.0 0.0 
0.0 0.0 0.0 
0.0 0.0 0.0 
0.0 0.0 0.0 
0.0 0.0 0.0 
0.0 0.0 0.0 
0.0 0.0 0.0 
0.0 0.0 0.0 
0.0 0.0 0.0 
0.0 0.0 0.0 
0.0 0.0 0.0 
0.0 0.0 0.0 
0.0 0.0 0.0 
0.0 0.0 0.0 
0.0 0.0 0.0 
0.0 0.0 0.0 
0.0 0.0 0.0 
0.0 0.0 0.0 
0.0 0.0 0.0 
0.0 0.0 0.0 
0.0 0.0 0.0 
0.0 0.0 0.0 
0.0 0.0 0.0 
0.0 0.0 0.0 
0.0 0.0 0.0 
0.0 0.0 0.0 
0.0 0.0 0.0 
0.0 0.0 0.0 
0.0 0.0 0.0 
0.0 0.0 0.0 
0.0 0.0 0.0 
0.0 0.0 0.0 
0.0 0.0 0.0 
0.0 0.0 0.0 
0.0 0.0 0.0 
0.0 0.0 0.0 
0.0 0.0 0.0 
0.0 0.0 0.0 
0.0 0.0 0.0 
0.0 0.0 0.0 
0.0 0.0 0.0 
0.0 0.0 0.0 
0.0 0.0 0.0 
0.0 0.0 0.0 
0.0 0.0 0.0 
0.0 0.0 0.0 
0.0 0.0 0.0 
0.0 0.0 0.0 
0.0 0.0 0.0 
0.0 0.0 0.0 
0.0 0.0 0.0 
0.0 0.0 0.0 
0.0 0.0 0.0 
0.0 0.0 0.0 
0.0 0.0 0.0 
0.0 0.0 0.0 
0.0 0.0 0.0 
0.0 0.0 0.0 
0.0 0.0 0.0 
0.0 0.0 0.0 
0.0 0.0 0.0 
0.0 0.0 0.0 
0.0 0.0 0.0 
0.0 0.0 0.0 
0.0 0.0 0.0 
0.0 0.0 0.0 
0.0 0.0 0.0 
0.0 0.0 0.0 
0.0 0.0 0.0 
0.0 0.0 0.0 
0.0 0.0 0.0 
0.0 0.0 0.0 
0.0 0.0 0.0 
0.0 0.0 0.0 
0.0 0.0 0.0 
0.0 0.0 0.0 
0.0 0.0 0.0 
0.0 0.0 0.0 
0.0 0.0 0.0 
0.0 0.0 0.0 
0.0 0.0 0.0 
0.0 0.0 0.0 
0.0 0.0 0.0 
0.0 0.0 0.0 
0.0 0.0 0.0 
0.0 0.0 0.0 
0.0 0.0 0.0 
0.0 0.0 0.0 
0.0 0.0 0.0 
0.0 0.0 0.0 
0.0 0.0 0.0 
0.0 0.0 0.0 
0.0 0.0 0.0 
0.0 0.0 0.0 
0.0 0.0 0.0 
0.0 0.0 0.0 
0.0 0.0 0.0 
0.0 0.0 0.0 
0.0 0.0 0.0 
0.0 0.0 0.0 
0.0 0.0 0.0 
0.0 0.0 0.0 
0.0 0.0 0.0 
0.0 0.0 0.0 
0.0 0.0 0.0 
0.0 0.0 0.0 
0.0 0.0 0.0 
0.0 0.0 0.0 
0.0 0.0 0.0 
0.0 0.0 0.0 
0.0 0.0 0.0 
0.0 0.0 0.0 
0.0 0.0 0.0 
0.0 0.0 0.0 
0.0 0.0 0.0 
0.0 0.0 0.0 
0.0 0.0 0.0 
0.0 0.0 0.0 
0.0 0.0 0.0 
0.0 0.0 0.0 
0.0 0.0 0.0 
0.0 0.0 0.0 
0.0 0.0 0.0 
0.0 0.0 0.0 
0.0 0.0 0.0 
0.0 0.0 0.0 
0.0 0.0 0.0 
0.0 0.0 0.0 
0.0 0.0 0.0 
0.0 0.0 0.0 
0.0 0.0 0.0 
0.0 0.0 0.0 
0.0 0.0 0.0 
0.0 0.0 0.0 
0.0 0.0 0.0 
0.0 0.0 0.0 
0.0 0.0 0.0 
0.0 0.0 0.0 
0.0 0.0 0.0 
0.0 0.0 0.0 
0.0 0.0 0.0 
0.0 0.0 0.0 
0.0 0.0 0.0 
0.0 0.0 0.0 
0.0 0.0 0.0 
0.0 0.0 0.0 
0.0 0.0 0.0 
0.0 0.0 0.0 
0.0 0.0 0.0 
0.0 0.0 0.0 
0.0 0.0 0.0 
0.0 0.0 0.0 
0.0 0.0 0.0 
0.0 0.0 0.0 
0.0 0.0 0.0 
0.0 0.0 0.0 
0.0 0.0 0.0 
0.0 0.0 0.0 
0.0 0.0 0.0 
0.0 0.0 0.0 
0.0 0.0 0.0 
0.0 0.0 0.0 
0.0 0.0 0.0 
0.0 0.0 0.0 
0.0 0.0 0.0 
0.0 0.0 0.0 
0.0 0.0 0.0 
0.0 0.0 0.0 
0.0 0.0 0.0 
0.0 0.0 0.0 
0.0 0.0 0.0 
0.0 0.0 0.0 
0.0 0.0 0.0 
0.0 0.0 0.0 
0.0 0.0 0.0 
0.0 0.0 0.0 
0.0 0.0 0.0 
0.0 0.0 0.0 
0.0 0.0 0.0 
0.0 0.0 0.0 
0.0 0.0 0.0 
0.0 0.0 0.0 
0.0 0.0 0.0 
0.0 0.0 0.0 
0.0 0.0 0.0 
0.0 0.0 0.0 
0.0 0.0 0.0 
0.0 0.0 0.0 
0.0 0.0 0.0 
0.0 0.0 0.0 
0.0 0.0 0.0 
0.0 0.0 0.0 
0.0 0.0 0.0 
0.0 0.0 0.0 
0.0 0.0 0.0 
0.0 0.0 0.0 
0.0 0.0 0.0 
0.0 0.0 0.0 
0.0 0.0 0.0 
0.0 0.0 0.0 
0.0 0.0 0.0 
0.0 0.0 0.0 
0.0 0.0 0.0 
0.0 0.0 0.0 
0.0 0.0 0.0 
0.0 0.0 0.0 
0.0 0.0 0.0 
0.0 0.0 0.0 
0.0 0.0 0.0 
0.0 0.0 0.0 
0.0 0.0 0.0 
0.0 0.0 0.0 
0.0 0.0 0.0 
0.0 0.0 0.0 
0.0 0.0 0.0 
0.0 0.0 0.0 
0.0 0.0 0.0 
0.0 0.0 0.0 
0.0 0.0 0.0 
0.0 0.0 0.0 
0.0 0.0 0.0 
0.0 0.0 0.0 
0.0 0.0 0.0 
0.0 0.0 0.0 
0.0 0.0 0.0 
0.0 0.0 0.0 
0.0 0.0 0.0 
0.0 0.0 0.0 
0.0 0.0 0.0 
0.0 0.0 0.0 
0.0 0.0 0.0 
0.0 0.0 0.0 
0.0 0.0 0.0 
0.0 0.0 0.0 
0.0 0.0 0.0 
0.0 0.0 0.0 
0.0 0.0 0.0 
0.0 0.0 0.0 
0.0 0.0 0.0 
0.0 0.0 0.0 
0.0 0.0 0.0 
0.0 0.0 0.0 
0.0 0.0 0.0 
0.0 0.0 0.0 
0.0 0.0 0.0 
0.0 0.0 0.0 
0.0 0.0 0.0 
0.0 0.0 0.0 
0.0 0.0 0.0 
0.0 0.0 0.0 
0.0 0.0 0.0 
0.0 0.0 0.0 
0.0 0.0 0.0 
0.0 0.0 0.0 
0.0 0.0 0.0 
0.0 0.0 0.0 
0.0 0.0 0.0 
0.0 0.0 0.0 
0.0 0.0 0.0 
0.0 0.0 0.0 
0.0 0.0 0.0 
0.0 0.0 0.0 
0.0 0.0 0.0 
0.0 0.0 0.0 
0.0 0.0 0.0 
0.0 0.0 0.0 
0.0 0.0 0.0 
0.0 0.0 0.0 
0.0 0.0 0.0 
0.0 0.0 0.0 
0.0 0.0 0.0 
0.0 0.0 0.0 
0.0 0.0 0.0 
0.0 0.0 0.0 
0.0 0.0 0.0 
0.0 0.0 0.0 
0.0 0.0 0.0 
0.0 0.0 0.0 
0.0 0.0 0.0 
0.0 0.0 0.0 
0.0 0.0 0.0 
0.0 0.0 0.0 
0.0 0.0 0.0 
0.0 0.0 0.0 
0.0 0.0 0.0 
0.0 0.0 0.0 
0.0 0.0 0.0 
0.0 0.0 0.0 
0.0 0.0 0.0 
0.0 0.0 0.0 
0.0 0.0 0.0 
0.0 0.0 0.0 

VECTORS node_bounda_dof_materi_velocity_y float
0.0 0.0 0.0 
0.0 0.0 0.0 
0.0 1.000000000000e+00 0.0 
0.0 1.000000000000e+00 0.0 
0.0 0.0 0.0 
0.0 0.0 0.0 
0.0 0.0 0.0 
0.0 0.0 0.0 
0.0 0.0 0.0 
0.0 0.0 0.0 
0.0 0.0 0.0 
0.0 0.0 0.0 
0.0 0.0 0.0 
0.0 0.0 0.0 
0.0 0.0 0.0 
0.0 0.0 0.0 
0.0 0.0 0.0 
0.0 0.0 0.0 
0.0 0.0 0.0 
0.0 0.0 0.0 
0.0 0.0 0.0 
0.0 0.0 0.0 
0.0 0.0 0.0 
0.0 1.000000000000e+00 0.0 
0.0 1.000000000000e+00 0.0 
0.0 1.000000000000e+00 0.0 
0.0 1.000000000000e+00 0.0 
0.0 1.000000000000e+00 0.0 
0.0 1.000000000000e+00 0.0 
0.0 1.000000000000e+00 0.0 
0.0 1.000000000000e+00 0.0 
0.0 1.000000000000e+00 0.0 
0.0 1.000000000000e+00 0.0 
0.0 1.000000000000e+00 0.0 
0.0 1.000000000000e+00 0.0 
0.0 1.000000000000e+00 0.0 
0.0 1.000000000000e+00 0.0 
0.0 1.000000000000e+00 0.0 
0.0 1.000000000000e+00 0.0 
0.0 1.000000000000e+00 0.0 
0.0 1.000000000000e+00 0.0 
0.0 1.000000000000e+00 0.0 
0.0 1.000000000000e+00 0.0 
0.0 1.000000000000e+00 0.0 
0.0 1.000000000000e+00 0.0 
0.0 1.000000000000e+00 0.0 
0.0 1.000000000000e+00 0.0 
0.0 1.000000000000e+00 0.0 
0.0 1.000000000000e+00 0.0 
0.0 1.000000000000e+00 0.0 
0.0 1.000000000000e+00 0.0 
0.0 1.000000000000e+00 0.0 
0.0 1.000000000000e+00 0.0 
0.0 1.000000000000e+00 0.0 
0.0 1.000000000000e+00 0.0 
0.0 1.000000000000e+00 0.0 
0.0 1.000000000000e+00 0.0 
0.0 1.000000000000e+00 0.0 
0.0 1.000000000000e+00 0.0 
0.0 1.000000000000e+00 0.0 
0.0 1.000000000000e+00 0.0 
0.0 1.000000000000e+00 0.0 
0.0 1.000000000000e+00 0.0 
0.0 1.000000000000e+00 0.0 
0.0 1.000000000000e+00 0.0 
0.0 1.000000000000e+00 0.0 
0.0 1.000000000000e+00 0.0 
0.0 1.000000000000e+00 0.0 
0.0 1.000000000000e+00 0.0 
0.0 1.000000000000e+00 0.0 
0.0 1.000000000000e+00 0.0 
0.0 1.000000000000e+00 0.0 
0.0 0.0 0.0 
0.0 0.0 0.0 
0.0 0.0 0.0 
0.0 0.0 0.0 
0.0 0.0 0.0 
0.0 0.0 0.0 
0.0 0.0 0.0 
0.0 0.0 0.0 
0.0 0.0 0.0 
0.0 0.0 0.0 
0.0 0.0 0.0 
0.0 0.0 0.0 
0.0 0.0 0.0 
0.0 0.0 0.0 
0.0 0.0 0.0 
0.0 0.0 0.0 
0.0 0.0 0.0 
0.0 0.0 0.0 
0.0 0.0 0.0 
0.0 0.0 0.0 
0.0 0.0 0.0 
0.0 0.0 0.0 
0.0 0.0 0.0 
0.0 0.0 0.0 
0.0 0.0 0.0 
0.0 0.0 0.0 
0.0 0.0 0.0 
0.0 0.0 0.0 
0.0 0.0 0.0 
0.0 0.0 0.0 
0.0 0.0 0.0 
0.0 0.0 0.0 
0.0 0.0 0.0 
0.0 0.0 0.0 
0.0 0.0 0.0 
0.0 0.0 0.0 
0.0 0.0 0.0 
0.0 0.0 0.0 
0.0 0.0 0.0 
0.0 0.0 0.0 
0.0 0.0 0.0 
0.0 0.0 0.0 
0.0 0.0 0.0 
0.0 0.0 0.0 
0.0 0.0 0.0 
0.0 0.0 0.0 
0.0 0.0 0.0 
0.0 0.0 0.0 
0.0 0.0 0.0 
0.0 0.0 0.0 
0.0 0.0 0.0 
0.0 0.0 0.0 
0.0 0.0 0.0 
0.0 0.0 0.0 
0.0 0.0 0.0 
0.0 0.0 0.0 
0.0 0.0 0.0 
0.0 0.0 0.0 
0.0 0.0 0.0 
0.0 0.0 0.0 
0.0 0.0 0.0 
0.0 0.0 0.0 
0.0 0.0 0.0 
0.0 0.0 0.0 
0.0 0.0 0.0 
0.0 0.0 0.0 
0.0 0.0 0.0 
0.0 0.0 0.0 
0.0 0.0 0.0 
0.0 0.0 0.0 
0.0 0.0 0.0 
0.0 0.0 0.0 
0.0 0.0 0.0 
0.0 0.0 0.0 
0.0 0.0 0.0 
0.0 0.0 0.0 
0.0 0.0 0.0 
0.0 0.0 0.0 
0.0 0.0 0.0 
0.0 0.0 0.0 
0.0 0.0 0.0 
0.0 0.0 0.0 
0.0 0.0 0.0 
0.0 0.0 0.0 
0.0 0.0 0.0 
0.0 0.0 0.0 
0.0 0.0 0.0 
0.0 0.0 0.0 
0.0 0.0 0.0 
0.0 0.0 0.0 
0.0 0.0 0.0 
0.0 0.0 0.0 
0.0 0.0 0.0 
0.0 0.0 0.0 
0.0 0.0 0.0 
0.0 0.0 0.0 
0.0 0.0 0.0 
0.0 0.0 0.0 
0.0 0.0 0.0 
0.0 0.0 0.0 
0.0 0.0 0.0 
0.0 0.0 0.0 
0.0 0.0 0.0 
0.0 0.0 0.0 
0.0 0.0 0.0 
0.0 0.0 0.0 
0.0 0.0 0.0 
0.0 0.0 0.0 
0.0 0.0 0.0 
0.0 0.0 0.0 
0.0 0.0 0.0 
0.0 0.0 0.0 
0.0 0.0 0.0 
0.0 0.0 0.0 
0.0 0.0 0.0 
0.0 0.0 0.0 
0.0 0.0 0.0 
0.0 0.0 0.0 
0.0 0.0 0.0 
0.0 0.0 0.0 
0.0 0.0 0.0 
0.0 0.0 0.0 
0.0 0.0 0.0 
0.0 0.0 0.0 
0.0 0.0 0.0 
0.0 0.0 0.0 
0.0 0.0 0.0 
0.0 0.0 0.0 
0.0 0.0 0.0 
0.0 0.0 0.0 
0.0 0.0 0.0 
0.0 0.0 0.0 
0.0 0.0 0.0 
0.0 0.0 0.0 
0.0 0.0 0.0 
0.0 0.0 0.0 
0.0 0.0 0.0 
0.0 0.0 0.0 
0.0 0.0 0.0 
0.0 0.0 0.0 
0.0 0.0 0.0 
0.0 0.0 0.0 
0.0 0.0 0.0 
0.0 0.0 0.0 
0.0 0.0 0.0 
0.0 0.0 0.0 
0.0 0.0 0.0 
0.0 0.0 0.0 
0.0 0.0 0.0 
0.0 0.0 0.0 
0.0 0.0 0.0 
0.0 0.0 0.0 
0.0 0.0 0.0 
0.0 0.0 0.0 
0.0 0.0 0.0 
0.0 0.0 0.0 
0.0 0.0 0.0 
0.0 0.0 0.0 
0.0 0.0 0.0 
0.0 0.0 0.0 
0.0 0.0 0.0 
0.0 0.0 0.0 
0.0 0.0 0.0 
0.0 0.0 0.0 
0.0 0.0 0.0 
0.0 0.0 0.0 
0.0 0.0 0.0 
0.0 0.0 0.0 
0.0 0.0 0.0 
0.0 0.0 0.0 
0.0 0.0 0.0 
0.0 0.0 0.0 
0.0 0.0 0.0 
0.0 0.0 0.0 
0.0 0.0 0.0 
0.0 0.0 0.0 
0.0 0.0 0.0 
0.0 0.0 0.0 
0.0 0.0 0.0 
0.0 0.0 0.0 
0.0 0.0 0.0 
0.0 0.0 0.0 
0.0 0.0 0.0 
0.0 0.0 0.0 
0.0 0.0 0.0 
0.0 0.0 0.0 
0.0 0.0 0.0 
0.0 0.0 0.0 
0.0 0.0 0.0 
0.0 0.0 0.0 
0.0 0.0 0.0 
0.0 0.0 0.0 
0.0 0.0 0.0 
0.0 0.0 0.0 
0.0 0.0 0.0 
0.0 0.0 0.0 
0.0 0.0 0.0 
0.0 0.0 0.0 
0.0 0.0 0.0 
0.0 0.0 0.0 
0.0 0.0 0.0 
0.0 0.0 0.0 
0.0 0.0 0.0 
0.0 0.0 0.0 
0.0 0.0 0.0 
0.0 0.0 0.0 
0.0 0.0 0.0 
0.0 0.0 0.0 
0.0 0.0 0.0 
0.0 0.0 0.0 
0.0 0.0 0.0 
0.0 0.0 0.0 
0.0 0.0 0.0 
0.0 0.0 0.0 
0.0 0.0 0.0 
0.0 0.0 0.0 
0.0 0.0 0.0 
0.0 0.0 0.0 
0.0 0.0 0.0 
0.0 0.0 0.0 
0.0 0.0 0.0 
0.0 0.0 0.0 
0.0 0.0 0.0 
0.0 0.0 0.0 
0.0 0.0 0.0 
0.0 0.0 0.0 
0.0 0.0 0.0 
0.0 0.0 0.0 
0.0 0.0 0.0 
0.0 0.0 0.0 
0.0 0.0 0.0 
0.0 0.0 0.0 
0.0 0.0 0.0 
0.0 0.0 0.0 
0.0 0.0 0.0 
0.0 0.0 0.0 
0.0 0.0 0.0 
0.0 0.0 0.0 
0.0 0.0 0.0 
0.0 0.0 0.0 
0.0 0.0 0.0 
0.0 0.0 0.0 
0.0 0.0 0.0 
0.0 0.0 0.0 
0.0 0.0 0.0 
0.0 0.0 0.0 
0.0 0.0 0.0 
0.0 0.0 0.0 
0.0 0.0 0.0 
0.0 0.0 0.0 
0.0 0.0 0.0 
0.0 0.0 0.0 
0.0 0.0 0.0 
0.0 0.0 0.0 
0.0 0.0 0.0 
0.0 0.0 0.0 
0.0 0.0 0.0 
0.0 0.0 0.0 
0.0 0.0 0.0 
0.0 0.0 0.0 
0.0 0.0 0.0 
0.0 0.0 0.0 
0.0 0.0 0.0 
0.0 0.0 0.0 
0.0 0.0 0.0 
0.0 0.0 0.0 
0.0 0.0 0.0 
0.0 0.0 0.0 
0.0 0.0 0.0 
0.0 0.0 0.0 
0.0 0.0 0.0 
0.0 0.0 0.0 
0.0 0.0 0.0 
0.0 0.0 0.0 
0.0 0.0 0.0 
0.0 0.0 0.0 
0.0 0.0 0.0 
0.0 0.0 0.0 
0.0 0.0 0.0 
0.0 0.0 0.0 
0.0 0.0 0.0 
0.0 0.0 0.0 
0.0 0.0 0.0 
0.0 0.0 0.0 
0.0 0.0 0.0 
0.0 0.0 0.0 
0.0 0.0 0.0 
0.0 0.0 0.0 
0.0 0.0 0.0 
0.0 0.0 0.0 
0.0 0.0 0.0 
0.0 0.0 0.0 
0.0 0.0 0.0 
0.0 0.0 0.0 
0.0 0.0 0.0 
0.0 0.0 0.0 
0.0 0.0 0.0 
0.0 0.0 0.0 
0.0 0.0 0.0 
0.0 0.0 0.0 
0.0 0.0 0.0 
0.0 0.0 0.0 
0.0 0.0 0.0 
0.0 0.0 0.0 
0.0 0.0 0.0 
0.0 0.0 0.0 
0.0 0.0 0.0 
0.0 0.0 0.0 
0.0 0.0 0.0 
0.0 0.0 0.0 
0.0 0.0 0.0 
0.0 0.0 0.0 
0.0 0.0 0.0 
0.0 0.0 0.0 
0.0 0.0 0.0 
0.0 0.0 0.0 
0.0 0.0 0.0 
0.0 0.0 0.0 
0.0 0.0 0.0 
0.0 0.0 0.0 
0.0 0.0 0.0 
0.0 0.0 0.0 
0.0 0.0 0.0 
0.0 0.0 0.0 
0.0 0.0 0.0 
0.0 0.0 0.0 
0.0 0.0 0.0 
0.0 0.0 0.0 
0.0 0.0 0.0 
0.0 0.0 0.0 
0.0 0.0 0.0 
0.0 0.0 0.0 
0.0 0.0 0.0 
0.0 0.0 0.0 
0.0 0.0 0.0 
0.0 0.0 0.0 
0.0 0.0 0.0 
0.0 0.0 0.0 
0.0 0.0 0.0 
0.0 0.0 0.0 
0.0 0.0 0.0 
0.0 0.0 0.0 
0.0 0.0 0.0 
0.0 0.0 0.0 
0.0 0.0 0.0 
0.0 0.0 0.0 
0.0 0.0 0.0 
0.0 0.0 0.0 
0.0 0.0 0.0 
0.0 0.0 0.0 
0.0 0.0 0.0 
0.0 0.0 0.0 
0.0 0.0 0.0 
0.0 0.0 0.0 
0.0 0.0 0.0 
0.0 0.0 0.0 
0.0 0.0 0.0 
0.0 0.0 0.0 
0.0 0.0 0.0 
0.0 0.0 0.0 
0.0 0.0 0.0 
0.0 0.0 0.0 
0.0 0.0 0.0 
0.0 0.0 0.0 
0.0 0.0 0.0 
0.0 0.0 0.0 
0.0 0.0 0.0 
0.0 0.0 0.0 
0.0 0.0 0.0 
0.0 0.0 0.0 
0.0 0.0 0.0 
0.0 0.0 0.0 
0.0 0.0 0.0 
0.0 0.0 0.0 
0.0 0.0 0.0 
0.0 0.0 0.0 
0.0 0.0 0.0 
0.0 0.0 0.0 
0.0 0.0 0.0 
0.0 0.0 0.0 
0.0 0.0 0.0 
0.0 0.0 0.0 
0.0 0.0 0.0 
0.0 0.0 0.0 
0.0 0.0 0.0 
0.0 0.0 0.0 
0.0 0.0 0.0 
0.0 0.0 0.0 
0.0 0.0 0.0 
0.0 0.0 0.0 
0.0 0.0 0.0 
0.0 0.0 0.0 
0.0 0.0 0.0 
0.0 0.0 0.0 
0.0 0.0 0.0 
0.0 0.0 0.0 
0.0 0.0 0.0 
0.0 0.0 0.0 
0.0 0.0 0.0 
0.0 0.0 0.0 
0.0 0.0 0.0 
0.0 0.0 0.0 
0.0 0.0 0.0 
0.0 0.0 0.0 
0.0 0.0 0.0 
0.0 0.0 0.0 
0.0 0.0 0.0 
0.0 0.0 0.0 
0.0 0.0 0.0 
0.0 0.0 0.0 
0.0 0.0 0.0 
0.0 0.0 0.0 
0.0 0.0 0.0 
0.0 0.0 0.0 
0.0 0.0 0.0 
0.0 0.0 0.0 
0.0 0.0 0.0 
0.0 0.0 0.0 
0.0 0.0 0.0 
0.0 0.0 0.0 
0.0 0.0 0.0 
0.0 0.0 0.0 
0.0 0.0 0.0 
0.0 0.0 0.0 
0.0 0.0 0.0 
0.0 0.0 0.0 
0.0 0.0 0.0 
0.0 0.0 0.0 
0.0 0.0 0.0 
0.0 0.0 0.0 
0.0 0.0 0.0 
0.0 0.0 0.0 
0.0 0.0 0.0 
0.0 0.0 0.0 
0.0 0.0 0.0 
0.0 0.0 0.0 
0.0 0.0 0.0 
0.0 0.0 0.0 
0.0 0.0 0.0 
0.0 0.0 0.0 
0.0 0.0 0.0 
0.0 0.0 0.0 
0.0 0.0 0.0 
0.0 0.0 0.0 
0.0 0.0 0.0 
0.0 0.0 0.0 
0.0 0.0 0.0 
0.0 0.0 0.0 
0.0 0.0 0.0 
0.0 0.0 0.0 
0.0 0.0 0.0 
0.0 0.0 0.0 
0.0 0.0 0.0 
0.0 0.0 0.0 
0.0 0.0 0.0 
0.0 0.0 0.0 
0.0 0.0 0.0 
0.0 0.0 0.0 
0.0 0.0 0.0 
0.0 0.0 0.0 
0.0 0.0 0.0 
0.0 0.0 0.0 
0.0 0.0 0.0 
0.0 0.0 0.0 
0.0 0.0 0.0 
0.0 0.0 0.0 
0.0 0.0 0.0 
0.0 0.0 0.0 
0.0 0.0 0.0 
0.0 0.0 0.0 
0.0 0.0 0.0 
0.0 0.0 0.0 
0.0 0.0 0.0 
0.0 0.0 0.0 
0.0 0.0 0.0 
0.0 0.0 0.0 
0.0 0.0 0.0 
0.0 0.0 0.0 
0.0 0.0 0.0 
0.0 0.0 0.0 
0.0 0.0 0.0 
0.0 0.0 0.0 
0.0 0.0 0.0 
0.0 0.0 0.0 
0.0 0.0 0.0 
0.0 0.0 0.0 
0.0 0.0 0.0 
0.0 0.0 0.0 
0.0 0.0 0.0 
0.0 0.0 0.0 
0.0 0.0 0.0 
0.0 0.0 0.0 
0.0 0.0 0.0 
0.0 0.0 0.0 
0.0 0.0 0.0 
0.0 0.0 0.0 
0.0 0.0 0.0 
0.0 0.0 0.0 
0.0 0.0 0.0 
0.0 0.0 0.0 
0.0 0.0 0.0 
0.0 0.0 0.0 
0.0 0.0 0.0 
0.0 0.0 0.0 
0.0 0.0 0.0 
0.0 0.0 0.0 
0.0 0.0 0.0 
0.0 0.0 0.0 
0.0 0.0 0.0 
0.0 0.0 0.0 
0.0 0.0 0.0 
0.0 0.0 0.0 
0.0 0.0 0.0 
0.0 0.0 0.0 
0.0 0.0 0.0 
0.0 0.0 0.0 
0.0 0.0 0.0 
0.0 0.0 0.0 
0.0 0.0 0.0 
0.0 0.0 0.0 
0.0 0.0 0.0 
0.0 0.0 0.0 
0.0 0.0 0.0 
0.0 0.0 0.0 
0.0 0.0 0.0 
0.0 0.0 0.0 
0.0 0.0 0.0 
0.0 0.0 0.0 
0.0 0.0 0.0 
0.0 0.0 0.0 
0.0 0.0 0.0 
0.0 0.0 0.0 
0.0 0.0 0.0 
0.0 0.0 0.0 
0.0 0.0 0.0 
0.0 0.0 0.0 
0.0 0.0 0.0 
0.0 0.0 0.0 
0.0 0.0 0.0 
0.0 0.0 0.0 
0.0 0.0 0.0 
0.0 0.0 0.0 
0.0 0.0 0.0 
0.0 0.0 0.0 
0.0 0.0 0.0 
0.0 0.0 0.0 
0.0 0.0 0.0 
0.0 0.0 0.0 
0.0 0.0 0.0 
0.0 0.0 0.0 
0.0 0.0 0.0 
0.0 0.0 0.0 
0.0 0.0 0.0 
0.0 0.0 0.0 
0.0 0.0 0.0 
0.0 0.0 0.0 
0.0 0.0 0.0 
0.0 0.0 0.0 
0.0 0.0 0.0 
0.0 0.0 0.0 
0.0 0.0 0.0 
0.0 0.0 0.0 
0.0 0.0 0.0 
0.0 0.0 0.0 
0.0 0.0 0.0 
0.0 0.0 0.0 
0.0 0.0 0.0 
0.0 0.0 0.0 
0.0 0.0 0.0 
0.0 0.0 0.0 
0.0 0.0 0.0 
0.0 0.0 0.0 
0.0 0.0 0.0 
0.0 0.0 0.0 
0.0 0.0 0.0 
0.0 0.0 0.0 
0.0 0.0 0.0 
0.0 0.0 0.0 
0.0 0.0 0.0 
0.0 0.0 0.0 
0.0 0.0 0.0 
0.0 0.0 0.0 
0.0 0.0 0.0 
0.0 0.0 0.0 
0.0 0.0 0.0 
0.0 0.0 0.0 
0.0 0.0 0.0 
0.0 0.0 0.0 
0.0 0.0 0.0 
0.0 0.0 0.0 
0.0 0.0 0.0 
0.0 0.0 0.0 
0.0 0.0 0.0 
0.0 0.0 0.0 
0.0 0.0 0.0 
0.0 0.0 0.0 
0.0 0.0 0.0 
0.0 0.0 0.0 
0.0 0.0 0.0 
0.0 0.0 0.0 
0.0 0.0 0.0 
0.0 0.0 0.0 
0.0 0.0 0.0 
0.0 0.0 0.0 
0.0 0.0 0.0 
0.0 0.0 0.0 
0.0 0.0 0.0 
0.0 0.0 0.0 
0.0 0.0 0.0 
0.0 0.0 0.0 
0.0 0.0 0.0 
0.0 0.0 0.0 
0.0 0.0 0.0 
0.0 0.0 0.0 
0.0 0.0 0.0 
0.0 0.0 0.0 
0.0 0.0 0.0 
0.0 0.0 0.0 
0.0 0.0 0.0 
0.0 0.0 0.0 
0.0 0.0 0.0 
0.0 0.0 0.0 
0.0 0.0 0.0 
0.0 0.0 0.0 
0.0 0.0 0.0 
0.0 0.0 0.0 
0.0 0.0 0.0 
0.0 0.0 0.0 
0.0 0.0 0.0 
0.0 0.0 0.0 
0.0 0.0 0.0 
0.0 0.0 0.0 
0.0 0.0 0.0 
0.0 0.0 0.0 
0.0 0.0 0.0 
0.0 0.0 0.0 
0.0 0.0 0.0 
0.0 0.0 0.0 
0.0 0.0 0.0 
0.0 0.0 0.0 
0.0 0.0 0.0 
0.0 0.0 0.0 
0.0 0.0 0.0 
0.0 0.0 0.0 
0.0 0.0 0.0 
0.0 0.0 0.0 
0.0 0.0 0.0 
0.0 0.0 0.0 
0.0 0.0 0.0 
0.0 0.0 0.0 
0.0 0.0 0.0 
0.0 0.0 0.0 
0.0 0.0 0.0 
0.0 0.0 0.0 
0.0 0.0 0.0 
0.0 0.0 0.0 
0.0 0.0 0.0 
0.0 0.0 0.0 
0.0 0.0 0.0 
0.0 0.0 0.0 
0.0 0.0 0.0 
0.0 0.0 0.0 
0.0 0.0 0.0 
0.0 0.0 0.0 
0.0 0.0 0.0 
0.0 0.0 0.0 
0.0 0.0 0.0 
0.0 0.0 0.0 
0.0 0.0 0.0 
0.0 0.0 0.0 
0.0 0.0 0.0 
0.0 0.0 0.0 
0.0 0.0 0.0 
0.0 0.0 0.0 
0.0 0.0 0.0 
0.0 0.0 0.0 
0.0 0.0 0.0 
0.0 0.0 0.0 
0.0 0.0 0.0 
0.0 0.0 0.0 
0.0 0.0 0.0 
0.0 0.0 0.0 
0.0 0.0 0.0 
0.0 0.0 0.0 
0.0 0.0 0.0 
0.0 0.0 0.0 
0.0 0.0 0.0 
0.0 0.0 0.0 
0.0 0.0 0.0 
0.0 0.0 0.0 
0.0 0.0 0.0 
0.0 0.0 0.0 
0.0 0.0 0.0 
0.0 0.0 0.0 
0.0 0.0 0.0 
0.0 0.0 0.0 
0.0 0.0 0.0 
0.0 0.0 0.0 
0.0 0.0 0.0 
0.0 0.0 0.0 
0.0 0.0 0.0 
0.0 0.0 0.0 
0.0 0.0 0.0 
0.0 0.0 0.0 
0.0 0.0 0.0 
0.0 0.0 0.0 
0.0 0.0 0.0 
0.0 0.0 0.0 
0.0 0.0 0.0 
0.0 0.0 0.0 
0.0 0.0 0.0 
0.0 0.0 0.0 
0.0 0.0 0.0 
0.0 0.0 0.0 
0.0 0.0 0.0 
0.0 0.0 0.0 
0.0 0.0 0.0 
0.0 0.0 0.0 
0.0 0.0 0.0 
0.0 0.0 0.0 
0.0 0.0 0.0 
0.0 0.0 0.0 
0.0 0.0 0.0 
0.0 0.0 0.0 
0.0 0.0 0.0 
0.0 0.0 0.0 
0.0 0.0 0.0 
0.0 0.0 0.0 
0.0 0.0 0.0 
0.0 0.0 0.0 
0.0 0.0 0.0 
0.0 0.0 0.0 
0.0 0.0 0.0 
0.0 0.0 0.0 
0.0 0.0 0.0 
0.0 0.0 0.0 
0.0 0.0 0.0 
0.0 0.0 0.0 
0.0 0.0 0.0 
0.0 0.0 0.0 
0.0 0.0 0.0 
0.0 0.0 0.0 
0.0 0.0 0.0 
0.0 0.0 0.0 
0.0 0.0 0.0 
0.0 0.0 0.0 
0.0 0.0 0.0 
0.0 0.0 0.0 
0.0 0.0 0.0 
0.0 0.0 0.0 
0.0 0.0 0.0 
0.0 0.0 0.0 
0.0 0.0 0.0 
0.0 0.0 0.0 
0.0 0.0 0.0 
0.0 0.0 0.0 
0.0 0.0 0.0 
0.0 0.0 0.0 
0.0 0.0 0.0 
0.0 0.0 0.0 
0.0 0.0 0.0 
0.0 0.0 0.0 
0.0 0.0 0.0 
0.0 0.0 0.0 
0.0 0.0 0.0 
0.0 0.0 0.0 
0.0 0.0 0.0 
0.0 0.0 0.0 
0.0 0.0 0.0 
0.0 0.0 0.0 
0.0 0.0 0.0 
0.0 0.0 0.0 
0.0 0.0 0.0 
0.0 0.0 0.0 
0.0 0.0 0.0 
0.0 0.0 0.0 
0.0 0.0 0.0 
0.0 0.0 0.0 
0.0 0.0 0.0 
0.0 0.0 0.0 
0.0 0.0 0.0 
0.0 0.0 0.0 
0.0 0.0 0.0 
0.0 0.0 0.0 
0.0 0.0 0.0 
0.0 0.0 0.0 
0.0 0.0 0.0 
0.0 0.0 0.0 
0.0 0.0 0.0 
0.0 0.0 0.0 
0.0 0.0 0.0 
0.0 0.0 0.0 
0.0 0.0 0.0 
0.0 0.0 0.0 
0.0 0.0 0.0 
0.0 0.0 0.0 
0.0 0.0 0.0 
0.0 0.0 0.0 
0.0 0.0 0.0 
0.0 0.0 0.0 
0.0 0.0 0.0 
0.0 0.0 0.0 
0.0 0.0 0.0 
0.0 0.0 0.0 
0.0 0.0 0.0 
0.0 0.0 0.0 
0.0 0.0 0.0 
0.0 0.0 0.0 
0.0 0.0 0.0 
0.0 0.0 0.0 
0.0 0.0 0.0 
0.0 0.0 0.0 
0.0 0.0 0.0 
0.0 0.0 0.0 
0.0 0.0 0.0 
0.0 0.0 0.0 
0.0 0.0 0.0 
0.0 0.0 0.0 
0.0 0.0 0.0 
0.0 0.0 0.0 
0.0 0.0 0.0 
0.0 0.0 0.0 
0.0 0.0 0.0 
0.0 0.0 0.0 
0.0 0.0 0.0 
0.0 0.0 0.0 
0.0 0.0 0.0 
0.0 0.0 0.0 
0.0 0.0 0.0 
0.0 0.0 0.0 
0.0 0.0 0.0 
0.0 0.0 0.0 
0.0 0.0 0.0 
0.0 0.0 0.0 
0.0 0.0 0.0 
0.0 0.0 0.0 
0.0 0.0 0.0 
0.0 0.0 0.0 
0.0 0.0 0.0 
0.0 0.0 0.0 
0.0 0.0 0.0 
0.0 0.0 0.0 
0.0 0.0 0.0 
0.0 0.0 0.0 
0.0 0.0 0.0 
0.0 0.0 0.0 
0.0 0.0 0.0 
0.0 0.0 0.0 
0.0 0.0 0.0 
0.0 0.0 0.0 
0.0 0.0 0.0 
0.0 0.0 0.0 
0.0 0.0 0.0 
0.0 0.0 0.0 
0.0 0.0 0.0 
0.0 0.0 0.0 
0.0 0.0 0.0 
0.0 0.0 0.0 
0.0 0.0 0.0 
0.0 0.0 0.0 
0.0 0.0 0.0 
0.0 0.0 0.0 
0.0 0.0 0.0 
0.0 0.0 0.0 
0.0 0.0 0.0 
0.0 0.0 0.0 
0.0 0.0 0.0 
0.0 0.0 0.0 
0.0 0.0 0.0 
0.0 0.0 0.0 
0.0 0.0 0.0 
0.0 0.0 0.0 
0.0 0.0 0.0 
0.0 0.0 0.0 
0.0 0.0 0.0 
0.0 0.0 0.0 
0.0 0.0 0.0 
0.0 0.0 0.0 
0.0 0.0 0.0 
0.0 0.0 0.0 
0.0 0.0 0.0 
0.0 0.0 0.0 
0.0 0.0 0.0 
0.0 0.0 0.0 
0.0 0.0 0.0 
0.0 0.0 0.0 
0.0 0.0 0.0 
0.0 0.0 0.0 
0.0 0.0 0.0 
0.0 0.0 0.0 
0.0 0.0 0.0 
0.0 0.0 0.0 
0.0 0.0 0.0 
0.0 0.0 0.0 
0.0 0.0 0.0 
0.0 0.0 0.0 
0.0 0.0 0.0 
0.0 0.0 0.0 
0.0 0.0 0.0 
0.0 0.0 0.0 
0.0 0.0 0.0 
0.0 0.0 0.0 
0.0 0.0 0.0 
0.0 0.0 0.0 
0.0 0.0 0.0 
0.0 0.0 0.0 
0.0 0.0 0.0 
0.0 0.0 0.0 
0.0 0.0 0.0 
0.0 0.0 0.0 
0.0 0.0 0.0 
0.0 0.0 0.0 
0.0 0.0 0.0 
0.0 0.0 0.0 
0.0 0.0 0.0 
0.0 0.0 0.0 
0.0 0.0 0.0 
0.0 0.0 0.0 
0.0 0.0 0.0 
0.0 0.0 0.0 
0.0 0.0 0.0 
0.0 0.0 0.0 
0.0 0.0 0.0 
0.0 0.0 0.0 
0.0 0.0 0.0 
0.0 0.0 0.0 
0.0 0.0 0.0 
0.0 0.0 0.0 
0.0 0.0 0.0 
0.0 0.0 0.0 
0.0 0.0 0.0 
0.0 0.0 0.0 
0.0 0.0 0.0 
0.0 0.0 0.0 
0.0 0.0 0.0 
0.0 0.0 0.0 
0.0 0.0 0.0 
0.0 0.0 0.0 
0.0 0.0 0.0 
0.0 0.0 0.0 
0.0 0.0 0.0 
0.0 0.0 0.0 
0.0 0.0 0.0 
0.0 0.0 0.0 
0.0 0.0 0.0 
0.0 0.0 0.0 
0.0 0.0 0.0 
0.0 0.0 0.0 
0.0 0.0 0.0 
0.0 0.0 0.0 
0.0 0.0 0.0 
0.0 0.0 0.0 
0.0 0.0 0.0 
0.0 0.0 0.0 
0.0 0.0 0.0 
0.0 0.0 0.0 
0.0 0.0 0.0 
0.0 0.0 0.0 
0.0 0.0 0.0 
0.0 0.0 0.0 
0.0 0.0 0.0 
0.0 0.0 0.0 
0.0 0.0 0.0 
0.0 0.0 0.0 
0.0 0.0 0.0 
0.0 0.0 0.0 
0.0 0.0 0.0 
0.0 0.0 0.0 
0.0 0.0 0.0 
0.0 0.0 0.0 
0.0 0.0 0.0 
0.0 0.0 0.0 
0.0 0.0 0.0 
0.0 0.0 0.0 
0.0 0.0 0.0 
0.0 0.0 0.0 
0.0 0.0 0.0 
0.0 0.0 0.0 
0.0 0.0 0.0 
0.0 0.0 0.0 
0.0 0.0 0.0 
0.0 0.0 0.0 
0.0 0.0 0.0 
0.0 0.0 0.0 
0.0 0.0 0.0 
0.0 0.0 0.0 
0.0 0.0 0.0 
0.0 0.0 0.0 
0.0 0.0 0.0 
0.0 0.0 0.0 
0.0 0.0 0.0 
0.0 0.0 0.0 
0.0 0.0 0.0 
0.0 0.0 0.0 
0.0 0.0 0.0 
0.0 0.0 0.0 
0.0 0.0 0.0 
0.0 0.0 0.0 
0.0 0.0 0.0 
0.0 0.0 0.0 
0.0 0.0 0.0 
0.0 0.0 0.0 
0.0 0.0 0.0 
0.0 0.0 0.0 
0.0 0.0 0.0 
0.0 0.0 0.0 
0.0 0.0 0.0 
0.0 0.0 0.0 
0.0 0.0 0.0 
0.0 0.0 0.0 
0.0 0.0 0.0 
0.0 0.0 0.0 
0.0 0.0 0.0 
0.0 0.0 0.0 
0.0 0.0 0.0 
0.0 0.0 0.0 
0.0 0.0 0.0 
0.0 0.0 0.0 
0.0 0.0 0.0 
0.0 0.0 0.0 
0.0 0.0 0.0 
0.0 0.0 0.0 
0.0 0.0 0.0 
0.0 0.0 0.0 
0.0 0.0 0.0 
0.0 0.0 0.0 
0.0 0.0 0.0 
0.0 0.0 0.0 
0.0 0.0 0.0 
0.0 0.0 0.0 
0.0 0.0 0.0 
0.0 0.0 0.0 
0.0 0.0 0.0 
0.0 0.0 0.0 
0.0 0.0 0.0 
0.0 0.0 0.0 
0.0 0.0 0.0 
0.0 0.0 0.0 
0.0 0.0 0.0 
0.0 0.0 0.0 
0.0 0.0 0.0 
0.0 0.0 0.0 
0.0 0.0 0.0 
0.0 0.0 0.0 
0.0 0.0 0.0 
0.0 0.0 0.0 
0.0 0.0 0.0 
0.0 0.0 0.0 
0.0 0.0 0.0 
0.0 0.0 0.0 
0.0 0.0 0.0 
0.0 0.0 0.0 
0.0 0.0 0.0 
0.0 0.0 0.0 
0.0 0.0 0.0 
0.0 0.0 0.0 
0.0 0.0 0.0 
0.0 0.0 0.0 
0.0 0.0 0.0 
0.0 0.0 0.0 
0.0 0.0 0.0 
0.0 0.0 0.0 
0.0 0.0 0.0 
0.0 0.0 0.0 
0.0 0.0 0.0 

SCALARS node_boundary float
LOOKUP_TABLE default
1.000000000000e+00 
1.000000000000e+00 
1.000000000000e+00 
1.000000000000e+00 
1.000000000000e+00 
1.000000000000e+00 
1.000000000000e+00 
1.000000000000e+00 
1.000000000000e+00 
1.000000000000e+00 
1.000000000000e+00 
1.000000000000e+00 
1.000000000000e+00 
1.000000000000e+00 
1.000000000000e+00 
1.000000000000e+00 
1.000000000000e+00 
1.000000000000e+00 
1.000000000000e+00 
1.000000000000e+00 
1.000000000000e+00 
1.000000000000e+00 
1.000000000000e+00 
1.000000000000e+00 
1.000000000000e+00 
1.000000000000e+00 
1.000000000000e+00 
1.000000000000e+00 
1.000000000000e+00 
1.000000000000e+00 
1.000000000000e+00 
1.000000000000e+00 
1.000000000000e+00 
1.000000000000e+00 
1.000000000000e+00 
1.000000000000e+00 
1.000000000000e+00 
1.000000000000e+00 
1.000000000000e+00 
1.000000000000e+00 
1.000000000000e+00 
1.000000000000e+00 
1.000000000000e+00 
1.000000000000e+00 
1.000000000000e+00 
1.000000000000e+00 
1.000000000000e+00 
1.000000000000e+00 
1.000000000000e+00 
1.000000000000e+00 
1.000000000000e+00 
1.000000000000e+00 
1.000000000000e+00 
1.000000000000e+00 
1.000000000000e+00 
1.000000000000e+00 
1.000000000000e+00 
1.000000000000e+00 
1.000000000000e+00 
1.000000000000e+00 
1.000000000000e+00 
1.000000000000e+00 
1.000000000000e+00 
1.000000000000e+00 
1.000000000000e+00 
1.000000000000e+00 
1.000000000000e+00 
1.000000000000e+00 
1.000000000000e+00 
1.000000000000e+00 
1.000000000000e+00 
1.000000000000e+00 
1.000000000000e+00 
1.000000000000e+00 
1.000000000000e+00 
1.000000000000e+00 
1.000000000000e+00 
1.000000000000e+00 
1.000000000000e+00 
1.000000000000e+00 
1.000000000000e+00 
1.000000000000e+00 
0.0
1.000000000000e+00 
1.000000000000e+00 
1.000000000000e+00 
1.000000000000e+00 
1.000000000000e+00 
0.0
0.0
0.0
0.0
1.000000000000e+00 
1.000000000000e+00 
1.000000000000e+00 
1.000000000000e+00 
1.000000000000e+00 
0.0
0.0
0.0
0.0
0.0
0.0
0.0
0.0
0.0
0.0
0.0
0.0
0.0
0.0
1.000000000000e+00 
1.000000000000e+00 
1.000000000000e+00 
1.000000000000e+00 
1.000000000000e+00 
1.000000000000e+00 
1.000000000000e+00 
1.000000000000e+00 
1.000000000000e+00 
1.000000000000e+00 
1.000000000000e+00 
1.000000000000e+00 
1.000000000000e+00 
1.000000000000e+00 
1.000000000000e+00 
1.000000000000e+00 
1.000000000000e+00 
1.000000000000e+00 
1.000000000000e+00 
1.000000000000e+00 
1.000000000000e+00 
1.000000000000e+00 
1.000000000000e+00 
1.000000000000e+00 
1.000000000000e+00 
1.000000000000e+00 
1.000000000000e+00 
1.000000000000e+00 
1.000000000000e+00 
1.000000000000e+00 
1.000000000000e+00 
1.000000000000e+00 
1.000000000000e+00 
1.000000000000e+00 
1.000000000000e+00 
1.000000000000e+00 
1.000000000000e+00 
1.000000000000e+00 
1.000000000000e+00 
1.000000000000e+00 
1.000000000000e+00 
0.0
0.0
0.0
0.0
0.0
0.0
0.0
0.0
0.0
0.0
0.0
0.0
0.0
0.0
0.0
0.0
0.0
0.0
0.0
0.0
0.0
0.0
0.0
0.0
0.0
0.0
0.0
0.0
0.0
0.0
0.0
0.0
0.0
0.0
0.0
0.0
0.0
0.0
0.0
0.0
0.0
0.0
0.0
0.0
0.0
0.0
0.0
0.0
0.0
0.0
0.0
0.0
0.0
0.0
0.0
0.0
0.0
0.0
0.0
0.0
0.0
0.0
0.0
0.0
0.0
0.0
0.0
0.0
0.0
0.0
0.0
0.0
1.000000000000e+00 
1.000000000000e+00 
1.000000000000e+00 
1.000000000000e+00 
1.000000000000e+00 
0.0
0.0
0.0
0.0
0.0
0.0
0.0
0.0
0.0
0.0
0.0
0.0
0.0
0.0
0.0
0.0
0.0
0.0
0.0
0.0
0.0
0.0
0.0
0.0
0.0
0.0
0.0
0.0
0.0
0.0
0.0
0.0
0.0
0.0
0.0
0.0
0.0
0.0
0.0
0.0
0.0
0.0
0.0
0.0
0.0
0.0
0.0
0.0
0.0
0.0
0.0
0.0
0.0
0.0
0.0
0.0
0.0
0.0
0.0
0.0
0.0
0.0
0.0
0.0
0.0
0.0
0.0
0.0
0.0
0.0
0.0
0.0
0.0
0.0
0.0
0.0
0.0
0.0
0.0
0.0
0.0
0.0
0.0
0.0
0.0
0.0
0.0
0.0
0.0
0.0
0.0
0.0
0.0
0.0
0.0
0.0
0.0
0.0
0.0
0.0
0.0
0.0
0.0
0.0
0.0
0.0
0.0
0.0
0.0
0.0
0.0
0.0
0.0
0.0
0.0
0.0
0.0
0.0
0.0
0.0
0.0
0.0
0.0
0.0
0.0
0.0
0.0
0.0
0.0
0.0
0.0
0.0
0.0
0.0
0.0
0.0
0.0
0.0
0.0
0.0
0.0
0.0
0.0
0.0
0.0
0.0
0.0
0.0
0.0
0.0
0.0
0.0
0.0
0.0
0.0
0.0
0.0
0.0
0.0
0.0
0.0
0.0
0.0
0.0
0.0
0.0
0.0
0.0
0.0
0.0
0.0
0.0
0.0
0.0
0.0
0.0
0.0
0.0
0.0
0.0
0.0
0.0
0.0
0.0
0.0
0.0
0.0
0.0
0.0
0.0
0.0
0.0
0.0
0.0
0.0
0.0
0.0
0.0
0.0
0.0
0.0
0.0
0.0
0.0
0.0
0.0
0.0
0.0
0.0
0.0
0.0
0.0
0.0
0.0
0.0
0.0
0.0
0.0
0.0
0.0
0.0
0.0
0.0
0.0
0.0
0.0
0.0
0.0
0.0
0.0
0.0
0.0
0.0
0.0
0.0
0.0
0.0
0.0
0.0
0.0
0.0
0.0
0.0
0.0
0.0
0.0
0.0
0.0
0.0
0.0
0.0
0.0
0.0
0.0
0.0
0.0
0.0
0.0
0.0
0.0
0.0
0.0
0.0
0.0
0.0
0.0
0.0
0.0
0.0
0.0
0.0
0.0
0.0
0.0
0.0
0.0
0.0
0.0
0.0
0.0
0.0
0.0
0.0
0.0
0.0
0.0
0.0
0.0
0.0
0.0
0.0
0.0
0.0
0.0
0.0
0.0
0.0
0.0
0.0
0.0
0.0
0.0
0.0
0.0
0.0
0.0
0.0
0.0
0.0
0.0
0.0
0.0
0.0
0.0
0.0
0.0
0.0
0.0
0.0
0.0
0.0
0.0
0.0
0.0
0.0
0.0
0.0
0.0
0.0
0.0
0.0
0.0
0.0
0.0
0.0
0.0
0.0
0.0
0.0
0.0
0.0
0.0
0.0
0.0
0.0
0.0
0.0
0.0
0.0
0.0
0.0
0.0
0.0
0.0
0.0
0.0
0.0
0.0
0.0
0.0
0.0
0.0
0.0
0.0
0.0
0.0
0.0
0.0
0.0
0.0
0.0
0.0
0.0
0.0
0.0
0.0
0.0
0.0
0.0
0.0
0.0
0.0
0.0
0.0
0.0
0.0
0.0
0.0
0.0
0.0
0.0
0.0
0.0
0.0
0.0
0.0
0.0
0.0
0.0
0.0
0.0
0.0
0.0
0.0
0.0
0.0
0.0
0.0
0.0
0.0
0.0
0.0
0.0
0.0
0.0
0.0
0.0
0.0
0.0
0.0
0.0
0.0
0.0
0.0
0.0
0.0
0.0
0.0
0.0
0.0
0.0
0.0
0.0
0.0
0.0
0.0
0.0
0.0
0.0
0.0
0.0
0.0
0.0
0.0
0.0
0.0
0.0
0.0
0.0
0.0
0.0
0.0
0.0
0.0
0.0
0.0
0.0
0.0
0.0
0.0
0.0
0.0
0.0
0.0
0.0
0.0
0.0
0.0
0.0
0.0
0.0
0.0
0.0
0.0
0.0
0.0
0.0
0.0
0.0
0.0
0.0
0.0
0.0
0.0
0.0
0.0
0.0
0.0
0.0
0.0
0.0
0.0
0.0
0.0
0.0
0.0
0.0
0.0
0.0
0.0
0.0
0.0
0.0
0.0
0.0
0.0
0.0
0.0
0.0
0.0
0.0
0.0
0.0
0.0
0.0
0.0
0.0
0.0
0.0
0.0
0.0
0.0
0.0
0.0
0.0
0.0
0.0
0.0
0.0
0.0
0.0
0.0
0.0
0.0
0.0
0.0
0.0
0.0
0.0
0.0
0.0
0.0
0.0
0.0
0.0
0.0
0.0
0.0
0.0
0.0
0.0
0.0
0.0
0.0
0.0
0.0
0.0
0.0
0.0
0.0
0.0
0.0
0.0
0.0
0.0
0.0
0.0
0.0
0.0
0.0
0.0
0.0
0.0
0.0
0.0
0.0
0.0
0.0
0.0
0.0
0.0
0.0
0.0
0.0
0.0
0.0
0.0
0.0
0.0
0.0
0.0
0.0
0.0
0.0
0.0
0.0
0.0
0.0
0.0
0.0
0.0
0.0
0.0
0.0
0.0
0.0
0.0
0.0
0.0
0.0
0.0
0.0
0.0
0.0
0.0
0.0
0.0
0.0
0.0
0.0
0.0
0.0
0.0
0.0
0.0
0.0
0.0
0.0
0.0
0.0
0.0
0.0
0.0
0.0
0.0
0.0
0.0
0.0
0.0
0.0
0.0
0.0
0.0
0.0
0.0
0.0
0.0
0.0
0.0
0.0
0.0
0.0
0.0
0.0
0.0
0.0
0.0
0.0
0.0
0.0
0.0
0.0
0.0
0.0
0.0
0.0
0.0
0.0
0.0
0.0
0.0
0.0
0.0
0.0
0.0
0.0
0.0
0.0
0.0
0.0
0.0
0.0
0.0
0.0
0.0
0.0
0.0
0.0
0.0
0.0
0.0
0.0
0.0
0.0
0.0
0.0
0.0
0.0
0.0
0.0
0.0
0.0
0.0
0.0
0.0
0.0
0.0
0.0
0.0
0.0
0.0
0.0
0.0
0.0
0.0
0.0
0.0
0.0
0.0
0.0
0.0
0.0
0.0
0.0
0.0
0.0
0.0
0.0
0.0
0.0
0.0
0.0
0.0
0.0
0.0
0.0
0.0
0.0
0.0
0.0
0.0
0.0
0.0
0.0
0.0
0.0
0.0
0.0
0.0
0.0
0.0
0.0
0.0
0.0
0.0
0.0
0.0
0.0
0.0
0.0
0.0
0.0
0.0
0.0
0.0
0.0
0.0
0.0
0.0
0.0
0.0
0.0
0.0
0.0
0.0
0.0
0.0
0.0
0.0
0.0
0.0
0.0
0.0
0.0
0.0
0.0
0.0
0.0
0.0
0.0
0.0
0.0
0.0
0.0
0.0
0.0
0.0
0.0
0.0
0.0
0.0
0.0
0.0
0.0
0.0
0.0
0.0
0.0
0.0
0.0
0.0
0.0
0.0
0.0
0.0
0.0
0.0
0.0
0.0
0.0
0.0
0.0
0.0
0.0
0.0
0.0
0.0
0.0
0.0
0.0
0.0
0.0
0.0
0.0
0.0
0.0
0.0
0.0
0.0
0.0
0.0
0.0
0.0
0.0
0.0
0.0
0.0
0.0
0.0
0.0
0.0
0.0
0.0
0.0
0.0
0.0
0.0
0.0
0.0
0.0
0.0
0.0
0.0
0.0
0.0
0.0
0.0
0.0
0.0
0.0
0.0
0.0
0.0
0.0
0.0
0.0
0.0
0.0
0.0
0.0
0.0
0.0
0.0
0.0
0.0
0.0
0.0
0.0
0.0
0.0
0.0
0.0
0.0
0.0
0.0
0.0
0.0
0.0
0.0
0.0
0.0
0.0
0.0
0.0
0.0
0.0
0.0
0.0

VECTORS node_force_edge float
0.0 0.0 0.0 
0.0 0.0 0.0 
0.0 0.0 0.0 
0.0 0.0 0.0 
0.0 0.0 0.0 
0.0 0.0 0.0 
0.0 0.0 0.0 
0.0 0.0 0.0 
0.0 0.0 0.0 
0.0 0.0 0.0 
0.0 0.0 0.0 
0.0 0.0 0.0 
0.0 0.0 0.0 
0.0 0.0 0.0 
0.0 0.0 0.0 
0.0 0.0 0.0 
0.0 0.0 0.0 
0.0 0.0 0.0 
0.0 0.0 0.0 
0.0 0.0 0.0 
0.0 0.0 0.0 
0.0 0.0 0.0 
0.0 0.0 0.0 
0.0 0.0 0.0 
0.0 0.0 0.0 
0.0 0.0 0.0 
0.0 0.0 0.0 
0.0 0.0 0.0 
0.0 0.0 0.0 
0.0 0.0 0.0 
0.0 0.0 0.0 
0.0 0.0 0.0 
0.0 0.0 0.0 
0.0 0.0 0.0 
0.0 0.0 0.0 
0.0 0.0 0.0 
0.0 0.0 0.0 
0.0 0.0 0.0 
0.0 0.0 0.0 
0.0 0.0 0.0 
0.0 0.0 0.0 
0.0 0.0 0.0 
0.0 0.0 0.0 
0.0 0.0 0.0 
0.0 0.0 0.0 
0.0 0.0 0.0 
0.0 0.0 0.0 
0.0 0.0 0.0 
0.0 0.0 0.0 
0.0 0.0 0.0 
0.0 0.0 0.0 
0.0 0.0 0.0 
0.0 0.0 0.0 
0.0 0.0 0.0 
0.0 0.0 0.0 
0.0 0.0 0.0 
0.0 0.0 0.0 
0.0 0.0 0.0 
0.0 0.0 0.0 
0.0 0.0 0.0 
0.0 0.0 0.0 
0.0 0.0 0.0 
0.0 0.0 0.0 
0.0 0.0 0.0 
0.0 0.0 0.0 
0.0 0.0 0.0 
0.0 0.0 0.0 
0.0 0.0 0.0 
0.0 0.0 0.0 
0.0 0.0 0.0 
0.0 0.0 0.0 
0.0 0.0 0.0 
0.0 0.0 0.0 
0.0 0.0 0.0 
0.0 0.0 0.0 
0.0 0.0 0.0 
0.0 0.0 0.0 
0.0 0.0 0.0 
0.0 0.0 0.0 
0.0 0.0 0.0 
0.0 0.0 0.0 
0.0 -1.000000000000e+02 0.0 
0.0 0.0 0.0 
0.0 0.0 0.0 
0.0 0.0 0.0 
0.0 0.0 0.0 
0.0 0.0 0.0 
0.0 0.0 0.0 
0.0 0.0 0.0 
0.0 0.0 0.0 
0.0 0.0 0.0 
0.0 0.0 0.0 
0.0 0.0 0.0 
0.0 0.0 0.0 
0.0 0.0 0.0 
0.0 0.0 0.0 
0.0 0.0 0.0 
0.0 0.0 0.0 
0.0 0.0 0.0 
0.0 0.0 0.0 
0.0 0.0 0.0 
0.0 0.0 0.0 
0.0 0.0 0.0 
0.0 0.0 0.0 
0.0 0.0 0.0 
0.0 0.0 0.0 
0.0 0.0 0.0 
0.0 0.0 0.0 
0.0 0.0 0.0 
0.0 0.0 0.0 
0.0 0.0 0.0 
0.0 -1.000000000000e+02 0.0 
0.0 -1.000000000000e+02 0.0 
0.0 -1.000000000000e+02 0.0 
0.0 -1.000000000000e+02 0.0 
0.0 -1.000000000000e+02 0.0 
0.0 0.0 0.0 
0.0 0.0 0.0 
0.0 0.0 0.0 
0.0 0.0 0.0 
0.0 0.0 0.0 
0.0 0.0 0.0 
0.0 0.0 0.0 
0.0 0.0 0.0 
0.0 0.0 0.0 
0.0 0.0 0.0 
0.0 0.0 0.0 
0.0 0.0 0.0 
0.0 0.0 0.0 
0.0 0.0 0.0 
0.0 0.0 0.0 
0.0 0.0 0.0 
0.0 0.0 0.0 
0.0 0.0 0.0 
0.0 0.0 0.0 
0.0 0.0 0.0 
0.0 0.0 0.0 
0.0 0.0 0.0 
0.0 0.0 0.0 
0.0 0.0 0.0 
0.0 0.0 0.0 
0.0 0.0 0.0 
0.0 0.0 0.0 
0.0 0.0 0.0 
0.0 0.0 0.0 
0.0 0.0 0.0 
0.0 0.0 0.0 
0.0 0.0 0.0 
0.0 0.0 0.0 
0.0 0.0 0.0 
0.0 0.0 0.0 
0.0 0.0 0.0 
0.0 0.0 0.0 
0.0 0.0 0.0 
0.0 0.0 0.0 
0.0 0.0 0.0 
0.0 0.0 0.0 
0.0 0.0 0.0 
0.0 0.0 0.0 
0.0 0.0 0.0 
0.0 0.0 0.0 
0.0 0.0 0.0 
0.0 0.0 0.0 
0.0 0.0 0.0 
0.0 0.0 0.0 
0.0 0.0 0.0 
0.0 0.0 0.0 
0.0 0.0 0.0 
0.0 0.0 0.0 
0.0 0.0 0.0 
0.0 0.0 0.0 
0.0 0.0 0.0 
0.0 0.0 0.0 
0.0 0.0 0.0 
0.0 0.0 0.0 
0.0 0.0 0.0 
0.0 0.0 0.0 
0.0 0.0 0.0 
0.0 0.0 0.0 
0.0 0.0 0.0 
0.0 0.0 0.0 
0.0 0.0 0.0 
0.0 0.0 0.0 
0.0 0.0 0.0 
0.0 0.0 0.0 
0.0 0.0 0.0 
0.0 0.0 0.0 
0.0 0.0 0.0 
0.0 0.0 0.0 
0.0 0.0 0.0 
0.0 0.0 0.0 
0.0 0.0 0.0 
0.0 0.0 0.0 
0.0 0.0 0.0 
0.0 0.0 0.0 
0.0 0.0 0.0 
0.0 0.0 0.0 
0.0 0.0 0.0 
0.0 0.0 0.0 
0.0 0.0 0.0 
0.0 0.0 0.0 
0.0 0.0 0.0 
0.0 0.0 0.0 
0.0 0.0 0.0 
0.0 0.0 0.0 
0.0 0.0 0.0 
0.0 0.0 0.0 
0.0 0.0 0.0 
0.0 0.0 0.0 
0.0 0.0 0.0 
0.0 0.0 0.0 
0.0 0.0 0.0 
0.0 0.0 0.0 
0.0 0.0 0.0 
0.0 0.0 0.0 
0.0 0.0 0.0 
0.0 0.0 0.0 
0.0 0.0 0.0 
0.0 0.0 0.0 
0.0 0.0 0.0 
0.0 0.0 0.0 
0.0 0.0 0.0 
0.0 0.0 0.0 
0.0 0.0 0.0 
0.0 0.0 0.0 
0.0 0.0 0.0 
0.0 0.0 0.0 
0.0 0.0 0.0 
0.0 0.0 0.0 
0.0 0.0 0.0 
0.0 0.0 0.0 
0.0 0.0 0.0 
0.0 0.0 0.0 
0.0 0.0 0.0 
0.0 0.0 0.0 
0.0 0.0 0.0 
0.0 0.0 0.0 
0.0 0.0 0.0 
0.0 0.0 0.0 
0.0 0.0 0.0 
0.0 0.0 0.0 
0.0 0.0 0.0 
0.0 0.0 0.0 
0.0 0.0 0.0 
0.0 0.0 0.0 
0.0 0.0 0.0 
0.0 0.0 0.0 
0.0 0.0 0.0 
0.0 0.0 0.0 
0.0 0.0 0.0 
0.0 0.0 0.0 
0.0 0.0 0.0 
0.0 0.0 0.0 
0.0 0.0 0.0 
0.0 0.0 0.0 
0.0 0.0 0.0 
0.0 0.0 0.0 
0.0 0.0 0.0 
0.0 0.0 0.0 
0.0 0.0 0.0 
0.0 0.0 0.0 
0.0 0.0 0.0 
0.0 0.0 0.0 
0.0 0.0 0.0 
0.0 0.0 0.0 
0.0 0.0 0.0 
0.0 0.0 0.0 
0.0 0.0 0.0 
0.0 0.0 0.0 
0.0 0.0 0.0 
0.0 0.0 0.0 
0.0 0.0 0.0 
0.0 0.0 0.0 
0.0 0.0 0.0 
0.0 0.0 0.0 
0.0 0.0 0.0 
0.0 0.0 0.0 
0.0 0.0 0.0 
0.0 0.0 0.0 
0.0 0.0 0.0 
0.0 0.0 0.0 
0.0 0.0 0.0 
0.0 0.0 0.0 
0.0 0.0 0.0 
0.0 0.0 0.0 
0.0 0.0 0.0 
0.0 0.0 0.0 
0.0 0.0 0.0 
0.0 0.0 0.0 
0.0 0.0 0.0 
0.0 0.0 0.0 
0.0 0.0 0.0 
0.0 0.0 0.0 
0.0 0.0 0.0 
0.0 0.0 0.0 
0.0 0.0 0.0 
0.0 0.0 0.0 
0.0 0.0 0.0 
0.0 0.0 0.0 
0.0 0.0 0.0 
0.0 0.0 0.0 
0.0 0.0 0.0 
0.0 0.0 0.0 
0.0 0.0 0.0 
0.0 0.0 0.0 
0.0 0.0 0.0 
0.0 0.0 0.0 
0.0 0.0 0.0 
0.0 0.0 0.0 
0.0 0.0 0.0 
0.0 0.0 0.0 
0.0 0.0 0.0 
0.0 0.0 0.0 
0.0 0.0 0.0 
0.0 0.0 0.0 
0.0 0.0 0.0 
0.0 0.0 0.0 
0.0 0.0 0.0 
0.0 0.0 0.0 
0.0 0.0 0.0 
0.0 0.0 0.0 
0.0 0.0 0.0 
0.0 0.0 0.0 
0.0 0.0 0.0 
0.0 0.0 0.0 
0.0 0.0 0.0 
0.0 0.0 0.0 
0.0 0.0 0.0 
0.0 0.0 0.0 
0.0 0.0 0.0 
0.0 0.0 0.0 
0.0 0.0 0.0 
0.0 0.0 0.0 
0.0 0.0 0.0 
0.0 0.0 0.0 
0.0 0.0 0.0 
0.0 0.0 0.0 
0.0 0.0 0.0 
0.0 0.0 0.0 
0.0 0.0 0.0 
0.0 0.0 0.0 
0.0 0.0 0.0 
0.0 0.0 0.0 
0.0 0.0 0.0 
0.0 0.0 0.0 
0.0 0.0 0.0 
0.0 0.0 0.0 
0.0 0.0 0.0 
0.0 0.0 0.0 
0.0 0.0 0.0 
0.0 0.0 0.0 
0.0 0.0 0.0 
0.0 0.0 0.0 
0.0 0.0 0.0 
0.0 0.0 0.0 
0.0 0.0 0.0 
0.0 0.0 0.0 
0.0 0.0 0.0 
0.0 0.0 0.0 
0.0 0.0 0.0 
0.0 0.0 0.0 
0.0 0.0 0.0 
0.0 0.0 0.0 
0.0 0.0 0.0 
0.0 0.0 0.0 
0.0 0.0 0.0 
0.0 0.0 0.0 
0.0 0.0 0.0 
0.0 0.0 0.0 
0.0 0.0 0.0 
0.0 0.0 0.0 
0.0 0.0 0.0 
0.0 0.0 0.0 
0.0 0.0 0.0 
0.0 0.0 0.0 
0.0 0.0 0.0 
0.0 0.0 0.0 
0.0 0.0 0.0 
0.0 0.0 0.0 
0.0 0.0 0.0 
0.0 0.0 0.0 
0.0 0.0 0.0 
0.0 0.0 0.0 
0.0 0.0 0.0 
0.0 0.0 0.0 
0.0 0.0 0.0 
0.0 0.0 0.0 
0.0 0.0 0.0 
0.0 0.0 0.0 
0.0 0.0 0.0 
0.0 0.0 0.0 
0.0 0.0 0.0 
0.0 0.0 0.0 
0.0 0.0 0.0 
0.0 0.0 0.0 
0.0 0.0 0.0 
0.0 0.0 0.0 
0.0 0.0 0.0 
0.0 0.0 0.0 
0.0 0.0 0.0 
0.0 0.0 0.0 
0.0 0.0 0.0 
0.0 0.0 0.0 
0.0 0.0 0.0 
0.0 0.0 0.0 
0.0 0.0 0.0 
0.0 0.0 0.0 
0.0 0.0 0.0 
0.0 0.0 0.0 
0.0 0.0 0.0 
0.0 0.0 0.0 
0.0 0.0 0.0 
0.0 0.0 0.0 
0.0 0.0 0.0 
0.0 0.0 0.0 
0.0 0.0 0.0 
0.0 0.0 0.0 
0.0 0.0 0.0 
0.0 0.0 0.0 
0.0 0.0 0.0 
0.0 0.0 0.0 
0.0 0.0 0.0 
0.0 0.0 0.0 
0.0 0.0 0.0 
0.0 0.0 0.0 
0.0 0.0 0.0 
0.0 0.0 0.0 
0.0 0.0 0.0 
0.0 0.0 0.0 
0.0 0.0 0.0 
0.0 0.0 0.0 
0.0 0.0 0.0 
0.0 0.0 0.0 
0.0 0.0 0.0 
0.0 0.0 0.0 
0.0 0.0 0.0 
0.0 0.0 0.0 
0.0 0.0 0.0 
0.0 0.0 0.0 
0.0 0.0 0.0 
0.0 0.0 0.0 
0.0 0.0 0.0 
0.0 0.0 0.0 
0.0 0.0 0.0 
0.0 0.0 0.0 
0.0 0.0 0.0 
0.0 0.0 0.0 
0.0 0.0 0.0 
0.0 0.0 0.0 
0.0 0.0 0.0 
0.0 0.0 0.0 
0.0 0.0 0.0 
0.0 0.0 0.0 
0.0 0.0 0.0 
0.0 0.0 0.0 
0.0 0.0 0.0 
0.0 0.0 0.0 
0.0 0.0 0.0 
0.0 0.0 0.0 
0.0 0.0 0.0 
0.0 0.0 0.0 
0.0 0.0 0.0 
0.0 0.0 0.0 
0.0 0.0 0.0 
0.0 0.0 0.0 
0.0 0.0 0.0 
0.0 0.0 0.0 
0.0 0.0 0.0 
0.0 0.0 0.0 
0.0 0.0 0.0 
0.0 0.0 0.0 
0.0 0.0 0.0 
0.0 0.0 0.0 
0.0 0.0 0.0 
0.0 0.0 0.0 
0.0 0.0 0.0 
0.0 0.0 0.0 
0.0 0.0 0.0 
0.0 0.0 0.0 
0.0 0.0 0.0 
0.0 0.0 0.0 
0.0 0.0 0.0 
0.0 0.0 0.0 
0.0 0.0 0.0 
0.0 0.0 0.0 
0.0 0.0 0.0 
0.0 0.0 0.0 
0.0 0.0 0.0 
0.0 0.0 0.0 
0.0 0.0 0.0 
0.0 0.0 0.0 
0.0 0.0 0.0 
0.0 0.0 0.0 
0.0 0.0 0.0 
0.0 0.0 0.0 
0.0 0.0 0.0 
0.0 0.0 0.0 
0.0 0.0 0.0 
0.0 0.0 0.0 
0.0 0.0 0.0 
0.0 0.0 0.0 
0.0 0.0 0.0 
0.0 0.0 0.0 
0.0 0.0 0.0 
0.0 0.0 0.0 
0.0 0.0 0.0 
0.0 0.0 0.0 
0.0 0.0 0.0 
0.0 0.0 0.0 
0.0 0.0 0.0 
0.0 0.0 0.0 
0.0 0.0 0.0 
0.0 0.0 0.0 
0.0 0.0 0.0 
0.0 0.0 0.0 
0.0 0.0 0.0 
0.0 0.0 0.0 
0.0 0.0 0.0 
0.0 0.0 0.0 
0.0 0.0 0.0 
0.0 0.0 0.0 
0.0 0.0 0.0 
0.0 0.0 0.0 
0.0 0.0 0.0 
0.0 0.0 0.0 
0.0 0.0 0.0 
0.0 0.0 0.0 
0.0 0.0 0.0 
0.0 0.0 0.0 
0.0 0.0 0.0 
0.0 0.0 0.0 
0.0 0.0 0.0 
0.0 0.0 0.0 
0.0 0.0 0.0 
0.0 0.0 0.0 
0.0 0.0 0.0 
0.0 0.0 0.0 
0.0 0.0 0.0 
0.0 0.0 0.0 
0.0 0.0 0.0 
0.0 0.0 0.0 
0.0 0.0 0.0 
0.0 0.0 0.0 
0.0 0.0 0.0 
0.0 0.0 0.0 
0.0 0.0 0.0 
0.0 0.0 0.0 
0.0 0.0 0.0 
0.0 0.0 0.0 
0.0 0.0 0.0 
0.0 0.0 0.0 
0.0 0.0 0.0 
0.0 0.0 0.0 
0.0 0.0 0.0 
0.0 0.0 0.0 
0.0 0.0 0.0 
0.0 0.0 0.0 
0.0 0.0 0.0 
0.0 0.0 0.0 
0.0 0.0 0.0 
0.0 0.0 0.0 
0.0 0.0 0.0 
0.0 0.0 0.0 
0.0 0.0 0.0 
0.0 0.0 0.0 
0.0 0.0 0.0 
0.0 0.0 0.0 
0.0 0.0 0.0 
0.0 0.0 0.0 
0.0 0.0 0.0 
0.0 0.0 0.0 
0.0 0.0 0.0 
0.0 0.0 0.0 
0.0 0.0 0.0 
0.0 0.0 0.0 
0.0 0.0 0.0 
0.0 0.0 0.0 
0.0 0.0 0.0 
0.0 0.0 0.0 
0.0 0.0 0.0 
0.0 0.0 0.0 
0.0 0.0 0.0 
0.0 0.0 0.0 
0.0 0.0 0.0 
0.0 0.0 0.0 
0.0 0.0 0.0 
0.0 0.0 0.0 
0.0 0.0 0.0 
0.0 0.0 0.0 
0.0 0.0 0.0 
0.0 0.0 0.0 
0.0 0.0 0.0 
0.0 0.0 0.0 
0.0 0.0 0.0 
0.0 0.0 0.0 
0.0 0.0 0.0 
0.0 0.0 0.0 
0.0 0.0 0.0 
0.0 0.0 0.0 
0.0 0.0 0.0 
0.0 0.0 0.0 
0.0 0.0 0.0 
0.0 0.0 0.0 
0.0 0.0 0.0 
0.0 0.0 0.0 
0.0 0.0 0.0 
0.0 0.0 0.0 
0.0 0.0 0.0 
0.0 0.0 0.0 
0.0 0.0 0.0 
0.0 0.0 0.0 
0.0 0.0 0.0 
0.0 0.0 0.0 
0.0 0.0 0.0 
0.0 0.0 0.0 
0.0 0.0 0.0 
0.0 0.0 0.0 
0.0 0.0 0.0 
0.0 0.0 0.0 
0.0 0.0 0.0 
0.0 0.0 0.0 
0.0 0.0 0.0 
0.0 0.0 0.0 
0.0 0.0 0.0 
0.0 0.0 0.0 
0.0 0.0 0.0 
0.0 0.0 0.0 
0.0 0.0 0.0 
0.0 0.0 0.0 
0.0 0.0 0.0 
0.0 0.0 0.0 
0.0 0.0 0.0 
0.0 0.0 0.0 
0.0 0.0 0.0 
0.0 0.0 0.0 
0.0 0.0 0.0 
0.0 0.0 0.0 
0.0 0.0 0.0 
0.0 0.0 0.0 
0.0 0.0 0.0 
0.0 0.0 0.0 
0.0 0.0 0.0 
0.0 0.0 0.0 
0.0 0.0 0.0 
0.0 0.0 0.0 
0.0 0.0 0.0 
0.0 0.0 0.0 
0.0 0.0 0.0 
0.0 0.0 0.0 
0.0 0.0 0.0 
0.0 0.0 0.0 
0.0 0.0 0.0 
0.0 0.0 0.0 
0.0 0.0 0.0 
0.0 0.0 0.0 
0.0 0.0 0.0 
0.0 0.0 0.0 
0.0 0.0 0.0 
0.0 0.0 0.0 
0.0 0.0 0.0 
0.0 0.0 0.0 
0.0 0.0 0.0 
0.0 0.0 0.0 
0.0 0.0 0.0 
0.0 0.0 0.0 
0.0 0.0 0.0 
0.0 0.0 0.0 
0.0 0.0 0.0 
0.0 0.0 0.0 
0.0 0.0 0.0 
0.0 0.0 0.0 
0.0 0.0 0.0 
0.0 0.0 0.0 
0.0 0.0 0.0 
0.0 0.0 0.0 
0.0 0.0 0.0 
0.0 0.0 0.0 
0.0 0.0 0.0 
0.0 0.0 0.0 
0.0 0.0 0.0 
0.0 0.0 0.0 
0.0 0.0 0.0 
0.0 0.0 0.0 
0.0 0.0 0.0 
0.0 0.0 0.0 
0.0 0.0 0.0 
0.0 0.0 0.0 
0.0 0.0 0.0 
0.0 0.0 0.0 
0.0 0.0 0.0 
0.0 0.0 0.0 
0.0 0.0 0.0 
0.0 0.0 0.0 
0.0 0.0 0.0 
0.0 0.0 0.0 
0.0 0.0 0.0 
0.0 0.0 0.0 
0.0 0.0 0.0 
0.0 0.0 0.0 
0.0 0.0 0.0 
0.0 0.0 0.0 
0.0 0.0 0.0 
0.0 0.0 0.0 
0.0 0.0 0.0 
0.0 0.0 0.0 
0.0 0.0 0.0 
0.0 0.0 0.0 
0.0 0.0 0.0 
0.0 0.0 0.0 
0.0 0.0 0.0 
0.0 0.0 0.0 
0.0 0.0 0.0 
0.0 0.0 0.0 
0.0 0.0 0.0 
0.0 0.0 0.0 
0.0 0.0 0.0 
0.0 0.0 0.0 
0.0 0.0 0.0 
0.0 0.0 0.0 
0.0 0.0 0.0 
0.0 0.0 0.0 
0.0 0.0 0.0 
0.0 0.0 0.0 
0.0 0.0 0.0 
0.0 0.0 0.0 
0.0 0.0 0.0 
0.0 0.0 0.0 
0.0 0.0 0.0 
0.0 0.0 0.0 
0.0 0.0 0.0 
0.0 0.0 0.0 
0.0 0.0 0.0 
0.0 0.0 0.0 
0.0 0.0 0.0 
0.0 0.0 0.0 
0.0 0.0 0.0 
0.0 0.0 0.0 
0.0 0.0 0.0 
0.0 0.0 0.0 
0.0 0.0 0.0 
0.0 0.0 0.0 
0.0 0.0 0.0 
0.0 0.0 0.0 
0.0 0.0 0.0 
0.0 0.0 0.0 
0.0 0.0 0.0 
0.0 0.0 0.0 
0.0 0.0 0.0 
0.0 0.0 0.0 
0.0 0.0 0.0 
0.0 0.0 0.0 
0.0 0.0 0.0 
0.0 0.0 0.0 
0.0 0.0 0.0 
0.0 0.0 0.0 
0.0 0.0 0.0 
0.0 0.0 0.0 
0.0 0.0 0.0 
0.0 0.0 0.0 
0.0 0.0 0.0 
0.0 0.0 0.0 
0.0 0.0 0.0 
0.0 0.0 0.0 
0.0 0.0 0.0 
0.0 0.0 0.0 
0.0 0.0 0.0 
0.0 0.0 0.0 
0.0 0.0 0.0 
0.0 0.0 0.0 
0.0 0.0 0.0 
0.0 0.0 0.0 
0.0 0.0 0.0 
0.0 0.0 0.0 
0.0 0.0 0.0 
0.0 0.0 0.0 
0.0 0.0 0.0 
0.0 0.0 0.0 
0.0 0.0 0.0 
0.0 0.0 0.0 
0.0 0.0 0.0 
0.0 0.0 0.0 
0.0 0.0 0.0 
0.0 0.0 0.0 
0.0 0.0 0.0 
0.0 0.0 0.0 
0.0 0.0 0.0 
0.0 0.0 0.0 
0.0 0.0 0.0 
0.0 0.0 0.0 
0.0 0.0 0.0 
0.0 0.0 0.0 
0.0 0.0 0.0 
0.0 0.0 0.0 
0.0 0.0 0.0 
0.0 0.0 0.0 
0.0 0.0 0.0 
0.0 0.0 0.0 
0.0 0.0 0.0 
0.0 0.0 0.0 
0.0 0.0 0.0 
0.0 0.0 0.0 
0.0 0.0 0.0 
0.0 0.0 0.0 
0.0 0.0 0.0 
0.0 0.0 0.0 
0.0 0.0 0.0 
0.0 0.0 0.0 
0.0 0.0 0.0 
0.0 0.0 0.0 
0.0 0.0 0.0 
0.0 0.0 0.0 
0.0 0.0 0.0 
0.0 0.0 0.0 
0.0 0.0 0.0 
0.0 0.0 0.0 
0.0 0.0 0.0 
0.0 0.0 0.0 
0.0 0.0 0.0 
0.0 0.0 0.0 
0.0 0.0 0.0 
0.0 0.0 0.0 
0.0 0.0 0.0 
0.0 0.0 0.0 
0.0 0.0 0.0 
0.0 0.0 0.0 
0.0 0.0 0.0 
0.0 0.0 0.0 
0.0 0.0 0.0 
0.0 0.0 0.0 
0.0 0.0 0.0 
0.0 0.0 0.0 
0.0 0.0 0.0 
0.0 0.0 0.0 
0.0 0.0 0.0 
0.0 0.0 0.0 
0.0 0.0 0.0 
0.0 0.0 0.0 
0.0 0.0 0.0 
0.0 0.0 0.0 
0.0 0.0 0.0 
0.0 0.0 0.0 
0.0 0.0 0.0 
0.0 0.0 0.0 
0.0 0.0 0.0 
0.0 0.0 0.0 
0.0 0.0 0.0 
0.0 0.0 0.0 
0.0 0.0 0.0 
0.0 0.0 0.0 
0.0 0.0 0.0 
0.0 0.0 0.0 
0.0 0.0 0.0 
0.0 0.0 0.0 
0.0 0.0 0.0 
0.0 0.0 0.0 
0.0 0.0 0.0 
0.0 0.0 0.0 
0.0 0.0 0.0 
0.0 0.0 0.0 
0.0 0.0 0.0 
0.0 0.0 0.0 
0.0 0.0 0.0 
0.0 0.0 0.0 
0.0 0.0 0.0 
0.0 0.0 0.0 
0.0 0.0 0.0 
0.0 0.0 0.0 
0.0 0.0 0.0 
0.0 0.0 0.0 
0.0 0.0 0.0 
0.0 0.0 0.0 
0.0 0.0 0.0 
0.0 0.0 0.0 
0.0 0.0 0.0 
0.0 0.0 0.0 
0.0 0.0 0.0 
0.0 0.0 0.0 
0.0 0.0 0.0 
0.0 0.0 0.0 
0.0 0.0 0.0 
0.0 0.0 0.0 
0.0 0.0 0.0 
0.0 0.0 0.0 
0.0 0.0 0.0 
0.0 0.0 0.0 
0.0 0.0 0.0 
0.0 0.0 0.0 
0.0 0.0 0.0 
0.0 0.0 0.0 
0.0 0.0 0.0 
0.0 0.0 0.0 
0.0 0.0 0.0 
0.0 0.0 0.0 
0.0 0.0 0.0 
0.0 0.0 0.0 
0.0 0.0 0.0 
0.0 0.0 0.0 
0.0 0.0 0.0 
0.0 0.0 0.0 
0.0 0.0 0.0 
0.0 0.0 0.0 
0.0 0.0 0.0 
0.0 0.0 0.0 
0.0 0.0 0.0 
0.0 0.0 0.0 
0.0 0.0 0.0 
0.0 0.0 0.0 
0.0 0.0 0.0 
0.0 0.0 0.0 
0.0 0.0 0.0 
0.0 0.0 0.0 
0.0 0.0 0.0 
0.0 0.0 0.0 
0.0 0.0 0.0 
0.0 0.0 0.0 
0.0 0.0 0.0 
0.0 0.0 0.0 
0.0 0.0 0.0 
0.0 0.0 0.0 
0.0 0.0 0.0 
0.0 0.0 0.0 
0.0 0.0 0.0 
0.0 0.0 0.0 
0.0 0.0 0.0 
0.0 0.0 0.0 
0.0 0.0 0.0 
0.0 0.0 0.0 
0.0 0.0 0.0 
0.0 0.0 0.0 
0.0 0.0 0.0 
0.0 0.0 0.0 
0.0 0.0 0.0 
0.0 0.0 0.0 
0.0 0.0 0.0 
0.0 0.0 0.0 
0.0 0.0 0.0 
0.0 0.0 0.0 
0.0 0.0 0.0 
0.0 0.0 0.0 
0.0 0.0 0.0 
0.0 0.0 0.0 
0.0 0.0 0.0 
0.0 0.0 0.0 
0.0 0.0 0.0 
0.0 0.0 0.0 
0.0 0.0 0.0 
0.0 0.0 0.0 
0.0 0.0 0.0 
0.0 0.0 0.0 
0.0 0.0 0.0 
0.0 0.0 0.0 
0.0 0.0 0.0 
0.0 0.0 0.0 
0.0 0.0 0.0 
0.0 0.0 0.0 
0.0 0.0 0.0 
0.0 0.0 0.0 
0.0 0.0 0.0 
0.0 0.0 0.0 
0.0 0.0 0.0 
0.0 0.0 0.0 
0.0 0.0 0.0 
0.0 0.0 0.0 
0.0 0.0 0.0 
0.0 0.0 0.0 
0.0 0.0 0.0 
0.0 0.0 0.0 
0.0 0.0 0.0 
0.0 0.0 0.0 
0.0 0.0 0.0 
0.0 0.0 0.0 
0.0 0.0 0.0 
0.0 0.0 0.0 
0.0 0.0 0.0 
0.0 0.0 0.0 
0.0 0.0 0.0 
0.0 0.0 0.0 
0.0 0.0 0.0 
0.0 0.0 0.0 
0.0 0.0 0.0 
0.0 0.0 0.0 
0.0 0.0 0.0 
0.0 0.0 0.0 
0.0 0.0 0.0 
0.0 0.0 0.0 
0.0 0.0 0.0 
0.0 0.0 0.0 
0.0 0.0 0.0 
0.0 0.0 0.0 
0.0 0.0 0.0 
0.0 0.0 0.0 
0.0 0.0 0.0 
0.0 0.0 0.0 
0.0 0.0 0.0 
0.0 0.0 0.0 
0.0 0.0 0.0 
0.0 0.0 0.0 
0.0 0.0 0.0 
0.0 0.0 0.0 
0.0 0.0 0.0 
0.0 0.0 0.0 
0.0 0.0 0.0 
0.0 0.0 0.0 
0.0 0.0 0.0 
0.0 0.0 0.0 
0.0 0.0 0.0 
0.0 0.0 0.0 
0.0 0.0 0.0 
0.0 0.0 0.0 
0.0 0.0 0.0 
0.0 0.0 0.0 
0.0 0.0 0.0 
0.0 0.0 0.0 
0.0 0.0 0.0 
0.0 0.0 0.0 
0.0 0.0 0.0 
0.0 0.0 0.0 
0.0 0.0 0.0 
0.0 0.0 0.0 
0.0 0.0 0.0 
0.0 0.0 0.0 
0.0 0.0 0.0 
0.0 0.0 0.0 
0.0 0.0 0.0 
0.0 0.0 0.0 
0.0 0.0 0.0 
0.0 0.0 0.0 
0.0 0.0 0.0 
0.0 0.0 0.0 
0.0 0.0 0.0 
0.0 0.0 0.0 
0.0 0.0 0.0 
0.0 0.0 0.0 
0.0 0.0 0.0 
0.0 0.0 0.0 
0.0 0.0 0.0 
0.0 0.0 0.0 
0.0 0.0 0.0 
0.0 0.0 0.0 
0.0 0.0 0.0 
0.0 0.0 0.0 
0.0 0.0 0.0 
0.0 0.0 0.0 
0.0 0.0 0.0 
0.0 0.0 0.0 
0.0 0.0 0.0 
0.0 0.0 0.0 
0.0 0.0 0.0 
0.0 0.0 0.0 
0.0 0.0 0.0 
0.0 0.0 0.0 
0.0 0.0 0.0 
0.0 0.0 0.0 
0.0 0.0 0.0 
0.0 0.0 0.0 
0.0 0.0 0.0 
0.0 0.0 0.0 
0.0 0.0 0.0 
0.0 0.0 0.0 
0.0 0.0 0.0 
0.0 0.0 0.0 
0.0 0.0 0.0 
0.0 0.0 0.0 
0.0 0.0 0.0 
0.0 0.0 0.0 
0.0 0.0 0.0 
0.0 0.0 0.0 
0.0 0.0 0.0 
0.0 0.0 0.0 
0.0 0.0 0.0 
0.0 0.0 0.0 
0.0 0.0 0.0 
0.0 0.0 0.0 
0.0 0.0 0.0 
0.0 0.0 0.0 
0.0 0.0 0.0 
0.0 0.0 0.0 
0.0 0.0 0.0 
0.0 0.0 0.0 
0.0 0.0 0.0 
0.0 0.0 0.0 
0.0 0.0 0.0 
0.0 0.0 0.0 
0.0 0.0 0.0 
0.0 0.0 0.0 
0.0 0.0 0.0 
0.0 0.0 0.0 
0.0 0.0 0.0 
0.0 0.0 0.0 
0.0 0.0 0.0 
0.0 0.0 0.0 
0.0 0.0 0.0 
0.0 0.0 0.0 
0.0 0.0 0.0 
0.0 0.0 0.0 
0.0 0.0 0.0 
0.0 0.0 0.0 
0.0 0.0 0.0 
0.0 0.0 0.0 
0.0 0.0 0.0 
0.0 0.0 0.0 
0.0 0.0 0.0 
0.0 0.0 0.0 
0.0 0.0 0.0 
0.0 0.0 0.0 
0.0 0.0 0.0 
0.0 0.0 0.0 
0.0 0.0 0.0 
0.0 0.0 0.0 
0.0 0.0 0.0 
0.0 0.0 0.0 
0.0 0.0 0.0 
0.0 0.0 0.0 
0.0 0.0 0.0 
0.0 0.0 0.0 
0.0 0.0 0.0 
0.0 0.0 0.0 
0.0 0.0 0.0 
0.0 0.0 0.0 
0.0 0.0 0.0 
0.0 0.0 0.0 
0.0 0.0 0.0 
0.0 0.0 0.0 
0.0 0.0 0.0 
0.0 0.0 0.0 
0.0 0.0 0.0 
0.0 0.0 0.0 
0.0 0.0 0.0 
0.0 0.0 0.0 
0.0 0.0 0.0 
0.0 0.0 0.0 
0.0 0.0 0.0 
0.0 0.0 0.0 
0.0 0.0 0.0 
0.0 0.0 0.0 
0.0 0.0 0.0 
0.0 0.0 0.0 

VECTORS node_force_gravity float
0.0 -1.962000000000e+01 0.0 
0.0 -1.962000000000e+01 0.0 
0.0 -1.962000000000e+01 0.0 
0.0 -1.962000000000e+01 0.0 
0.0 -1.962000000000e+01 0.0 
0.0 -1.962000000000e+01 0.0 
0.0 -1.962000000000e+01 0.0 
0.0 -1.962000000000e+01 0.0 
0.0 -1.962000000000e+01 0.0 
0.0 -1.962000000000e+01 0.0 
0.0 -1.962000000000e+01 0.0 
0.0 -1.962000000000e+01 0.0 
0.0 -1.962000000000e+01 0.0 
0.0 -1.962000000000e+01 0.0 
0.0 -1.962000000000e+01 0.0 
0.0 -1.962000000000e+01 0.0 
0.0 -1.962000000000e+01 0.0 
0.0 -1.962000000000e+01 0.0 
0.0 -1.962000000000e+01 0.0 
0.0 -1.962000000000e+01 0.0 
0.0 -1.962000000000e+01 0.0 
0.0 -1.962000000000e+01 0.0 
0.0 -1.962000000000e+01 0.0 
0.0 -1.962000000000e+01 0.0 
0.0 -1.962000000000e+01 0.0 
0.0 -1.962000000000e+01 0.0 
0.0 -1.962000000000e+01 0.0 
0.0 -1.962000000000e+01 0.0 
0.0 -1.962000000000e+01 0.0 
0.0 -1.962000000000e+01 0.0 
0.0 -1.962000000000e+01 0.0 
0.0 -1.962000000000e+01 0.0 
0.0 -1.962000000000e+01 0.0 
0.0 -1.962000000000e+01 0.0 
0.0 -1.962000000000e+01 0.0 
0.0 -1.962000000000e+01 0.0 
0.0 -1.962000000000e+01 0.0 
0.0 -1.962000000000e+01 0.0 
0.0 -1.962000000000e+01 0.0 
0.0 -1.962000000000e+01 0.0 
0.0 -1.962000000000e+01 0.0 
0.0 -1.962000000000e+01 0.0 
0.0 -1.962000000000e+01 0.0 
0.0 -1.962000000000e+01 0.0 
0.0 -1.962000000000e+01 0.0 
0.0 -1.962000000000e+01 0.0 
0.0 -1.962000000000e+01 0.0 
0.0 -1.962000000000e+01 0.0 
0.0 -1.962000000000e+01 0.0 
0.0 -1.962000000000e+01 0.0 
0.0 -1.962000000000e+01 0.0 
0.0 -1.962000000000e+01 0.0 
0.0 -1.962000000000e+01 0.0 
0.0 -1.962000000000e+01 0.0 
0.0 -1.962000000000e+01 0.0 
0.0 -1.962000000000e+01 0.0 
0.0 -1.962000000000e+01 0.0 
0.0 -1.962000000000e+01 0.0 
0.0 -1.962000000000e+01 0.0 
0.0 -1.962000000000e+01 0.0 
0.0 -1.962000000000e+01 0.0 
0.0 -1.962000000000e+01 0.0 
0.0 -1.962000000000e+01 0.0 
0.0 -1.962000000000e+01 0.0 
0.0 -1.962000000000e+01 0.0 
0.0 -1.962000000000e+01 0.0 
0.0 -1.962000000000e+01 0.0 
0.0 -1.962000000000e+01 0.0 
0.0 -1.962000000000e+01 0.0 
0.0 -1.962000000000e+01 0.0 
0.0 -1.962000000000e+01 0.0 
0.0 -1.962000000000e+01 0.0 
0.0 -1.962000000000e+01 0.0 
0.0 -1.962000000000e+01 0.0 
0.0 -1.962000000000e+01 0.0 
0.0 -1.962000000000e+01 0.0 
0.0 -1.962000000000e+01 0.0 
0.0 -1.962000000000e+01 0.0 
0.0 -1.962000000000e+01 0.0 
0.0 -1.962000000000e+01 0.0 
0.0 -1.962000000000e+01 0.0 
0.0 -1.962000000000e+01 0.0 
0.0 -1.962000000000e+01 0.0 
0.0 -1.962000000000e+01 0.0 
0.0 -1.962000000000e+01 0.0 
0.0 -1.962000000000e+01 0.0 
0.0 -1.962000000000e+01 0.0 
0.0 -1.962000000000e+01 0.0 
0.0 -1.962000000000e+01 0.0 
0.0 -1.962000000000e+01 0.0 
0.0 -1.962000000000e+01 0.0 
0.0 -1.962000000000e+01 0.0 
0.0 -1.962000000000e+01 0.0 
0.0 -1.962000000000e+01 0.0 
0.0 -1.962000000000e+01 0.0 
0.0 -1.962000000000e+01 0.0 
0.0 -1.962000000000e+01 0.0 
0.0 -1.962000000000e+01 0.0 
0.0 -1.962000000000e+01 0.0 
0.0 -1.962000000000e+01 0.0 
0.0 -1.962000000000e+01 0.0 
0.0 -1.962000000000e+01 0.0 
0.0 -1.962000000000e+01 0.0 
0.0 -1.962000000000e+01 0.0 
0.0 -1.962000000000e+01 0.0 
0.0 -1.962000000000e+01 0.0 
0.0 -1.962000000000e+01 0.0 
0.0 -1.962000000000e+01 0.0 
0.0 -1.962000000000e+01 0.0 
0.0 -1.962000000000e+01 0.0 
0.0 -1.962000000000e+01 0.0 
0.0 -1.962000000000e+01 0.0 
0.0 -1.962000000000e+01 0.0 
0.0 -1.962000000000e+01 0.0 
0.0 -1.962000000000e+01 0.0 
0.0 -1.962000000000e+01 0.0 
0.0 -1.962000000000e+01 0.0 
0.0 -1.962000000000e+01 0.0 
0.0 -1.962000000000e+01 0.0 
0.0 -1.962000000000e+01 0.0 
0.0 -1.962000000000e+01 0.0 
0.0 -1.962000000000e+01 0.0 
0.0 -1.962000000000e+01 0.0 
0.0 -1.962000000000e+01 0.0 
0.0 -1.962000000000e+01 0.0 
0.0 -1.962000000000e+01 0.0 
0.0 -1.962000000000e+01 0.0 
0.0 -1.962000000000e+01 0.0 
0.0 -1.962000000000e+01 0.0 
0.0 -1.962000000000e+01 0.0 
0.0 -1.962000000000e+01 0.0 
0.0 -1.962000000000e+01 0.0 
0.0 -1.962000000000e+01 0.0 
0.0 -1.962000000000e+01 0.0 
0.0 -1.962000000000e+01 0.0 
0.0 -1.962000000000e+01 0.0 
0.0 -1.962000000000e+01 0.0 
0.0 -1.962000000000e+01 0.0 
0.0 -1.962000000000e+01 0.0 
0.0 -1.962000000000e+01 0.0 
0.0 -1.962000000000e+01 0.0 
0.0 -1.962000000000e+01 0.0 
0.0 -1.962000000000e+01 0.0 
0.0 -1.962000000000e+01 0.0 
0.0 -1.962000000000e+01 0.0 
0.0 -1.962000000000e+01 0.0 
0.0 -1.962000000000e+01 0.0 
0.0 -1.962000000000e+01 0.0 
0.0 -1.962000000000e+01 0.0 
0.0 -1.962000000000e+01 0.0 
0.0 -1.962000000000e+01 0.0 
0.0 -1.962000000000e+01 0.0 
0.0 -1.962000000000e+01 0.0 
0.0 -1.962000000000e+01 0.0 
0.0 -1.962000000000e+01 0.0 
0.0 -1.962000000000e+01 0.0 
0.0 -1.962000000000e+01 0.0 
0.0 -1.962000000000e+01 0.0 
0.0 -1.962000000000e+01 0.0 
0.0 -1.962000000000e+01 0.0 
0.0 -1.962000000000e+01 0.0 
0.0 -1.962000000000e+01 0.0 
0.0 -1.962000000000e+01 0.0 
0.0 -1.962000000000e+01 0.0 
0.0 -1.962000000000e+01 0.0 
0.0 -1.962000000000e+01 0.0 
0.0 -1.962000000000e+01 0.0 
0.0 -1.962000000000e+01 0.0 
0.0 -1.962000000000e+01 0.0 
0.0 -1.962000000000e+01 0.0 
0.0 -1.962000000000e+01 0.0 
0.0 -1.962000000000e+01 0.0 
0.0 -1.962000000000e+01 0.0 
0.0 -1.962000000000e+01 0.0 
0.0 -1.962000000000e+01 0.0 
0.0 -1.962000000000e+01 0.0 
0.0 -1.962000000000e+01 0.0 
0.0 -1.962000000000e+01 0.0 
0.0 -1.962000000000e+01 0.0 
0.0 -1.962000000000e+01 0.0 
0.0 -1.962000000000e+01 0.0 
0.0 -1.962000000000e+01 0.0 
0.0 -1.962000000000e+01 0.0 
0.0 -1.962000000000e+01 0.0 
0.0 -1.962000000000e+01 0.0 
0.0 -1.962000000000e+01 0.0 
0.0 -1.962000000000e+01 0.0 
0.0 -1.962000000000e+01 0.0 
0.0 -1.962000000000e+01 0.0 
0.0 -1.962000000000e+01 0.0 
0.0 -1.962000000000e+01 0.0 
0.0 -1.962000000000e+01 0.0 
0.0 -1.962000000000e+01 0.0 
0.0 -1.962000000000e+01 0.0 
0.0 -1.962000000000e+01 0.0 
0.0 -1.962000000000e+01 0.0 
0.0 -1.962000000000e+01 0.0 
0.0 -1.962000000000e+01 0.0 
0.0 -1.962000000000e+01 0.0 
0.0 -1.962000000000e+01 0.0 
0.0 -1.962000000000e+01 0.0 
0.0 -1.962000000000e+01 0.0 
0.0 -1.962000000000e+01 0.0 
0.0 -1.962000000000e+01 0.0 
0.0 -1.962000000000e+01 0.0 
0.0 -1.962000000000e+01 0.0 
0.0 -1.962000000000e+01 0.0 
0.0 -1.962000000000e+01 0.0 
0.0 -1.962000000000e+01 0.0 
0.0 -1.962000000000e+01 0.0 
0.0 -1.962000000000e+01 0.0 
0.0 -1.962000000000e+01 0.0 
0.0 -1.962000000000e+01 0.0 
0.0 -1.962000000000e+01 0.0 
0.0 -1.962000000000e+01 0.0 
0.0 -1.962000000000e+01 0.0 
0.0 -1.962000000000e+01 0.0 
0.0 -1.962000000000e+01 0.0 
0.0 -1.962000000000e+01 0.0 
0.0 -1.962000000000e+01 0.0 
0.0 -1.962000000000e+01 0.0 
0.0 -1.962000000000e+01 0.0 
0.0 -1.962000000000e+01 0.0 
0.0 -1.962000000000e+01 0.0 
0.0 -1.962000000000e+01 0.0 
0.0 -1.962000000000e+01 0.0 
0.0 -1.962000000000e+01 0.0 
0.0 -1.962000000000e+01 0.0 
0.0 -1.962000000000e+01 0.0 
0.0 -1.962000000000e+01 0.0 
0.0 -1.962000000000e+01 0.0 
0.0 -1.962000000000e+01 0.0 
0.0 -1.962000000000e+01 0.0 
0.0 -1.962000000000e+01 0.0 
0.0 -1.962000000000e+01 0.0 
0.0 -1.962000000000e+01 0.0 
0.0 -1.962000000000e+01 0.0 
0.0 -1.962000000000e+01 0.0 
0.0 -1.962000000000e+01 0.0 
0.0 -1.962000000000e+01 0.0 
0.0 -1.962000000000e+01 0.0 
0.0 -1.962000000000e+01 0.0 
0.0 -1.962000000000e+01 0.0 
0.0 -1.962000000000e+01 0.0 
0.0 -1.962000000000e+01 0.0 
0.0 -1.962000000000e+01 0.0 
0.0 -1.962000000000e+01 0.0 
0.0 -1.962000000000e+01 0.0 
0.0 -1.962000000000e+01 0.0 
0.0 -1.962000000000e+01 0.0 
0.0 -1.962000000000e+01 0.0 
0.0 -1.962000000000e+01 0.0 
0.0 -1.962000000000e+01 0.0 
0.0 -1.962000000000e+01 0.0 
0.0 -1.962000000000e+01 0.0 
0.0 -1.962000000000e+01 0.0 
0.0 -1.962000000000e+01 0.0 
0.0 -1.962000000000e+01 0.0 
0.0 -1.962000000000e+01 0.0 
0.0 -1.962000000000e+01 0.0 
0.0 -1.962000000000e+01 0.0 
0.0 -1.962000000000e+01 0.0 
0.0 -1.962000000000e+01 0.0 
0.0 -1.962000000000e+01 0.0 
0.0 -1.962000000000e+01 0.0 
0.0 -1.962000000000e+01 0.0 
0.0 -1.962000000000e+01 0.0 
0.0 -1.962000000000e+01 0.0 
0.0 -1.962000000000e+01 0.0 
0.0 -1.962000000000e+01 0.0 
0.0 -1.962000000000e+01 0.0 
0.0 -1.962000000000e+01 0.0 
0.0 -1.962000000000e+01 0.0 
0.0 -1.962000000000e+01 0.0 
0.0 -1.962000000000e+01 0.0 
0.0 -1.962000000000e+01 0.0 
0.0 -1.962000000000e+01 0.0 
0.0 -1.962000000000e+01 0.0 
0.0 -1.962000000000e+01 0.0 
0.0 -1.962000000000e+01 0.0 
0.0 -1.962000000000e+01 0.0 
0.0 -1.962000000000e+01 0.0 
0.0 -1.962000000000e+01 0.0 
0.0 -1.962000000000e+01 0.0 
0.0 -1.962000000000e+01 0.0 
0.0 -1.962000000000e+01 0.0 
0.0 -1.962000000000e+01 0.0 
0.0 -1.962000000000e+01 0.0 
0.0 -1.962000000000e+01 0.0 
0.0 -1.962000000000e+01 0.0 
0.0 -1.962000000000e+01 0.0 
0.0 -1.962000000000e+01 0.0 
0.0 -1.962000000000e+01 0.0 
0.0 -1.962000000000e+01 0.0 
0.0 -1.962000000000e+01 0.0 
0.0 -1.962000000000e+01 0.0 
0.0 -1.962000000000e+01 0.0 
0.0 -1.962000000000e+01 0.0 
0.0 -1.962000000000e+01 0.0 
0.0 -1.962000000000e+01 0.0 
0.0 -1.962000000000e+01 0.0 
0.0 -1.962000000000e+01 0.0 
0.0 -1.962000000000e+01 0.0 
0.0 -1.962000000000e+01 0.0 
0.0 -1.962000000000e+01 0.0 
0.0 -1.962000000000e+01 0.0 
0.0 -1.962000000000e+01 0.0 
0.0 -1.962000000000e+01 0.0 
0.0 -1.962000000000e+01 0.0 
0.0 -1.962000000000e+01 0.0 
0.0 -1.962000000000e+01 0.0 
0.0 -1.962000000000e+01 0.0 
0.0 -1.962000000000e+01 0.0 
0.0 -1.962000000000e+01 0.0 
0.0 -1.962000000000e+01 0.0 
0.0 -1.962000000000e+01 0.0 
0.0 -1.962000000000e+01 0.0 
0.0 -1.962000000000e+01 0.0 
0.0 -1.962000000000e+01 0.0 
0.0 -1.962000000000e+01 0.0 
0.0 -1.962000000000e+01 0.0 
0.0 -1.962000000000e+01 0.0 
0.0 -1.962000000000e+01 0.0 
0.0 -1.962000000000e+01 0.0 
0.0 -1.962000000000e+01 0.0 
0.0 -1.962000000000e+01 0.0 
0.0 -1.962000000000e+01 0.0 
0.0 -1.962000000000e+01 0.0 
0.0 -1.962000000000e+01 0.0 
0.0 -1.962000000000e+01 0.0 
0.0 -1.962000000000e+01 0.0 
0.0 -1.962000000000e+01 0.0 
0.0 -1.962000000000e+01 0.0 
0.0 -1.962000000000e+01 0.0 
0.0 -1.962000000000e+01 0.0 
0.0 -1.962000000000e+01 0.0 
0.0 -1.962000000000e+01 0.0 
0.0 -1.962000000000e+01 0.0 
0.0 -1.962000000000e+01 0.0 
0.0 -1.962000000000e+01 0.0 
0.0 -1.962000000000e+01 0.0 
0.0 -1.962000000000e+01 0.0 
0.0 -1.962000000000e+01 0.0 
0.0 -1.962000000000e+01 0.0 
0.0 -1.962000000000e+01 0.0 
0.0 -1.962000000000e+01 0.0 
0.0 -1.962000000000e+01 0.0 
0.0 -1.962000000000e+01 0.0 
0.0 -1.962000000000e+01 0.0 
0.0 -1.962000000000e+01 0.0 
0.0 -1.962000000000e+01 0.0 
0.0 -1.962000000000e+01 0.0 
0.0 -1.962000000000e+01 0.0 
0.0 -1.962000000000e+01 0.0 
0.0 -1.962000000000e+01 0.0 
0.0 -1.962000000000e+01 0.0 
0.0 -1.962000000000e+01 0.0 
0.0 -1.962000000000e+01 0.0 
0.0 -1.962000000000e+01 0.0 
0.0 -1.962000000000e+01 0.0 
0.0 -1.962000000000e+01 0.0 
0.0 -1.962000000000e+01 0.0 
0.0 -1.962000000000e+01 0.0 
0.0 -1.962000000000e+01 0.0 
0.0 -1.962000000000e+01 0.0 
0.0 -1.962000000000e+01 0.0 
0.0 -1.962000000000e+01 0.0 
0.0 -1.962000000000e+01 0.0 
0.0 -1.962000000000e+01 0.0 
0.0 -1.962000000000e+01 0.0 
0.0 -1.962000000000e+01 0.0 
0.0 -1.962000000000e+01 0.0 
0.0 -1.962000000000e+01 0.0 
0.0 -1.962000000000e+01 0.0 
0.0 -1.962000000000e+01 0.0 
0.0 -1.962000000000e+01 0.0 
0.0 -1.962000000000e+01 0.0 
0.0 -1.962000000000e+01 0.0 
0.0 -1.962000000000e+01 0.0 
0.0 -1.962000000000e+01 0.0 
0.0 -1.962000000000e+01 0.0 
0.0 -1.962000000000e+01 0.0 
0.0 -1.962000000000e+01 0.0 
0.0 -1.962000000000e+01 0.0 
0.0 -1.962000000000e+01 0.0 
0.0 -1.962000000000e+01 0.0 
0.0 -1.962000000000e+01 0.0 
0.0 -1.962000000000e+01 0.0 
0.0 -1.962000000000e+01 0.0 
0.0 -1.962000000000e+01 0.0 
0.0 -1.962000000000e+01 0.0 
0.0 -1.962000000000e+01 0.0 
0.0 -1.962000000000e+01 0.0 
0.0 -1.962000000000e+01 0.0 
0.0 -1.962000000000e+01 0.0 
0.0 -1.962000000000e+01 0.0 
0.0 -1.962000000000e+01 0.0 
0.0 -1.962000000000e+01 0.0 
0.0 -1.962000000000e+01 0.0 
0.0 -1.962000000000e+01 0.0 
0.0 -1.962000000000e+01 0.0 
0.0 -1.962000000000e+01 0.0 
0.0 -1.962000000000e+01 0.0 
0.0 -1.962000000000e+01 0.0 
0.0 -1.962000000000e+01 0.0 
0.0 -1.962000000000e+01 0.0 
0.0 -1.962000000000e+01 0.0 
0.0 -1.962000000000e+01 0.0 
0.0 -1.962000000000e+01 0.0 
0.0 -1.962000000000e+01 0.0 
0.0 -1.962000000000e+01 0.0 
0.0 -1.962000000000e+01 0.0 
0.0 -1.962000000000e+01 0.0 
0.0 -1.962000000000e+01 0.0 
0.0 -1.962000000000e+01 0.0 
0.0 -1.962000000000e+01 0.0 
0.0 -1.962000000000e+01 0.0 
0.0 -1.962000000000e+01 0.0 
0.0 -1.962000000000e+01 0.0 
0.0 -1.962000000000e+01 0.0 
0.0 -1.962000000000e+01 0.0 
0.0 -1.962000000000e+01 0.0 
0.0 -1.962000000000e+01 0.0 
0.0 -1.962000000000e+01 0.0 
0.0 -1.962000000000e+01 0.0 
0.0 -1.962000000000e+01 0.0 
0.0 -1.962000000000e+01 0.0 
0.0 -1.962000000000e+01 0.0 
0.0 -1.962000000000e+01 0.0 
0.0 -1.962000000000e+01 0.0 
0.0 -1.962000000000e+01 0.0 
0.0 -1.962000000000e+01 0.0 
0.0 -1.962000000000e+01 0.0 
0.0 -1.962000000000e+01 0.0 
0.0 -1.962000000000e+01 0.0 
0.0 -1.962000000000e+01 0.0 
0.0 -1.962000000000e+01 0.0 
0.0 -1.962000000000e+01 0.0 
0.0 -1.962000000000e+01 0.0 
0.0 -1.962000000000e+01 0.0 
0.0 -1.962000000000e+01 0.0 
0.0 -1.962000000000e+01 0.0 
0.0 -1.962000000000e+01 0.0 
0.0 -1.962000000000e+01 0.0 
0.0 -1.962000000000e+01 0.0 
0.0 -1.962000000000e+01 0.0 
0.0 -1.962000000000e+01 0.0 
0.0 -1.962000000000e+01 0.0 
0.0 -1.962000000000e+01 0.0 
0.0 -1.962000000000e+01 0.0 
0.0 -1.962000000000e+01 0.0 
0.0 -1.962000000000e+01 0.0 
0.0 -1.962000000000e+01 0.0 
0.0 -1.962000000000e+01 0.0 
0.0 -1.962000000000e+01 0.0 
0.0 -1.962000000000e+01 0.0 
0.0 -1.962000000000e+01 0.0 
0.0 -1.962000000000e+01 0.0 
0.0 -1.962000000000e+01 0.0 
0.0 -1.962000000000e+01 0.0 
0.0 -1.962000000000e+01 0.0 
0.0 -1.962000000000e+01 0.0 
0.0 -1.962000000000e+01 0.0 
0.0 -1.962000000000e+01 0.0 
0.0 -1.962000000000e+01 0.0 
0.0 -1.962000000000e+01 0.0 
0.0 -1.962000000000e+01 0.0 
0.0 -1.962000000000e+01 0.0 
0.0 -1.962000000000e+01 0.0 
0.0 -1.962000000000e+01 0.0 
0.0 -1.962000000000e+01 0.0 
0.0 -1.962000000000e+01 0.0 
0.0 -1.962000000000e+01 0.0 
0.0 -1.962000000000e+01 0.0 
0.0 -1.962000000000e+01 0.0 
0.0 -1.962000000000e+01 0.0 
0.0 -1.962000000000e+01 0.0 
0.0 -1.962000000000e+01 0.0 
0.0 -1.962000000000e+01 0.0 
0.0 -1.962000000000e+01 0.0 
0.0 -1.962000000000e+01 0.0 
0.0 -1.962000000000e+01 0.0 
0.0 -1.962000000000e+01 0.0 
0.0 -1.962000000000e+01 0.0 
0.0 -1.962000000000e+01 0.0 
0.0 -1.962000000000e+01 0.0 
0.0 -1.962000000000e+01 0.0 
0.0 -1.962000000000e+01 0.0 
0.0 -1.962000000000e+01 0.0 
0.0 -1.962000000000e+01 0.0 
0.0 -1.962000000000e+01 0.0 
0.0 -1.962000000000e+01 0.0 
0.0 -1.962000000000e+01 0.0 
0.0 -1.962000000000e+01 0.0 
0.0 -1.962000000000e+01 0.0 
0.0 -1.962000000000e+01 0.0 
0.0 -1.962000000000e+01 0.0 
0.0 -1.962000000000e+01 0.0 
0.0 -1.962000000000e+01 0.0 
0.0 -1.962000000000e+01 0.0 
0.0 -1.962000000000e+01 0.0 
0.0 -1.962000000000e+01 0.0 
0.0 -1.962000000000e+01 0.0 
0.0 -1.962000000000e+01 0.0 
0.0 -1.962000000000e+01 0.0 
0.0 -1.962000000000e+01 0.0 
0.0 -1.962000000000e+01 0.0 
0.0 -1.962000000000e+01 0.0 
0.0 -1.962000000000e+01 0.0 
0.0 -1.962000000000e+01 0.0 
0.0 -1.962000000000e+01 0.0 
0.0 -1.962000000000e+01 0.0 
0.0 -1.962000000000e+01 0.0 
0.0 -1.962000000000e+01 0.0 
0.0 -1.962000000000e+01 0.0 
0.0 -1.962000000000e+01 0.0 
0.0 -1.962000000000e+01 0.0 
0.0 -1.962000000000e+01 0.0 
0.0 -1.962000000000e+01 0.0 
0.0 -1.962000000000e+01 0.0 
0.0 -1.962000000000e+01 0.0 
0.0 -1.962000000000e+01 0.0 
0.0 -1.962000000000e+01 0.0 
0.0 -1.962000000000e+01 0.0 
0.0 -1.962000000000e+01 0.0 
0.0 -1.962000000000e+01 0.0 
0.0 -1.962000000000e+01 0.0 
0.0 -1.962000000000e+01 0.0 
0.0 -1.962000000000e+01 0.0 
0.0 -1.962000000000e+01 0.0 
0.0 -1.962000000000e+01 0.0 
0.0 -1.962000000000e+01 0.0 
0.0 -1.962000000000e+01 0.0 
0.0 -1.962000000000e+01 0.0 
0.0 -1.962000000000e+01 0.0 
0.0 -1.962000000000e+01 0.0 
0.0 -1.962000000000e+01 0.0 
0.0 -1.962000000000e+01 0.0 
0.0 -1.962000000000e+01 0.0 
0.0 -1.962000000000e+01 0.0 
0.0 -1.962000000000e+01 0.0 
0.0 -1.962000000000e+01 0.0 
0.0 -1.962000000000e+01 0.0 
0.0 -1.962000000000e+01 0.0 
0.0 -1.962000000000e+01 0.0 
0.0 -1.962000000000e+01 0.0 
0.0 -1.962000000000e+01 0.0 
0.0 -1.962000000000e+01 0.0 
0.0 -1.962000000000e+01 0.0 
0.0 -1.962000000000e+01 0.0 
0.0 -1.962000000000e+01 0.0 
0.0 -1.962000000000e+01 0.0 
0.0 -1.962000000000e+01 0.0 
0.0 -1.962000000000e+01 0.0 
0.0 -1.962000000000e+01 0.0 
0.0 -1.962000000000e+01 0.0 
0.0 -1.962000000000e+01 0.0 
0.0 -1.962000000000e+01 0.0 
0.0 -1.962000000000e+01 0.0 
0.0 -1.962000000000e+01 0.0 
0.0 -1.962000000000e+01 0.0 
0.0 -1.962000000000e+01 0.0 
0.0 -1.962000000000e+01 0.0 
0.0 -1.962000000000e+01 0.0 
0.0 -1.962000000000e+01 0.0 
0.0 -1.962000000000e+01 0.0 
0.0 -1.962000000000e+01 0.0 
0.0 -1.962000000000e+01 0.0 
0.0 -1.962000000000e+01 0.0 
0.0 -1.962000000000e+01 0.0 
0.0 -1.962000000000e+01 0.0 
0.0 -1.962000000000e+01 0.0 
0.0 -1.962000000000e+01 0.0 
0.0 -1.962000000000e+01 0.0 
0.0 -1.962000000000e+01 0.0 
0.0 -1.962000000000e+01 0.0 
0.0 -1.962000000000e+01 0.0 
0.0 -1.962000000000e+01 0.0 
0.0 -1.962000000000e+01 0.0 
0.0 -1.962000000000e+01 0.0 
0.0 -1.962000000000e+01 0.0 
0.0 -1.962000000000e+01 0.0 
0.0 -1.962000000000e+01 0.0 
0.0 -1.962000000000e+01 0.0 
0.0 -1.962000000000e+01 0.0 
0.0 -1.962000000000e+01 0.0 
0.0 -1.962000000000e+01 0.0 
0.0 -1.962000000000e+01 0.0 
0.0 -1.962000000000e+01 0.0 
0.0 -1.962000000000e+01 0.0 
0.0 -1.962000000000e+01 0.0 
0.0 -1.962000000000e+01 0.0 
0.0 -1.962000000000e+01 0.0 
0.0 -1.962000000000e+01 0.0 
0.0 -1.962000000000e+01 0.0 
0.0 -1.962000000000e+01 0.0 
0.0 -1.962000000000e+01 0.0 
0.0 -1.962000000000e+01 0.0 
0.0 -1.962000000000e+01 0.0 
0.0 -1.962000000000e+01 0.0 
0.0 -1.962000000000e+01 0.0 
0.0 -1.962000000000e+01 0.0 
0.0 -1.962000000000e+01 0.0 
0.0 -1.962000000000e+01 0.0 
0.0 -1.962000000000e+01 0.0 
0.0 -1.962000000000e+01 0.0 
0.0 -1.962000000000e+01 0.0 
0.0 -1.962000000000e+01 0.0 
0.0 -1.962000000000e+01 0.0 
0.0 -1.962000000000e+01 0.0 
0.0 -1.962000000000e+01 0.0 
0.0 -1.962000000000e+01 0.0 
0.0 -1.962000000000e+01 0.0 
0.0 -1.962000000000e+01 0.0 
0.0 -1.962000000000e+01 0.0 
0.0 -1.962000000000e+01 0.0 
0.0 -1.962000000000e+01 0.0 
0.0 -1.962000000000e+01 0.0 
0.0 -1.962000000000e+01 0.0 
0.0 -1.962000000000e+01 0.0 
0.0 -1.962000000000e+01 0.0 
0.0 -1.962000000000e+01 0.0 
0.0 -1.962000000000e+01 0.0 
0.0 -1.962000000000e+01 0.0 
0.0 -1.962000000000e+01 0.0 
0.0 -1.962000000000e+01 0.0 
0.0 -1.962000000000e+01 0.0 
0.0 -1.962000000000e+01 0.0 
0.0 -1.962000000000e+01 0.0 
0.0 -1.962000000000e+01 0.0 
0.0 -1.962000000000e+01 0.0 
0.0 -1.962000000000e+01 0.0 
0.0 -1.962000000000e+01 0.0 
0.0 -1.962000000000e+01 0.0 
0.0 -1.962000000000e+01 0.0 
0.0 -1.962000000000e+01 0.0 
0.0 -1.962000000000e+01 0.0 
0.0 -1.962000000000e+01 0.0 
0.0 -1.962000000000e+01 0.0 
0.0 -1.962000000000e+01 0.0 
0.0 -1.962000000000e+01 0.0 
0.0 -1.962000000000e+01 0.0 
0.0 -1.962000000000e+01 0.0 
0.0 -1.962000000000e+01 0.0 
0.0 -1.962000000000e+01 0.0 
0.0 -1.962000000000e+01 0.0 
0.0 -1.962000000000e+01 0.0 
0.0 -1.962000000000e+01 0.0 
0.0 -1.962000000000e+01 0.0 
0.0 -1.962000000000e+01 0.0 
0.0 -1.962000000000e+01 0.0 
0.0 -1.962000000000e+01 0.0 
0.0 -1.962000000000e+01 0.0 
0.0 -1.962000000000e+01 0.0 
0.0 -1.962000000000e+01 0.0 
0.0 -1.962000000000e+01 0.0 
0.0 -1.962000000000e+01 0.0 
0.0 -1.962000000000e+01 0.0 
0.0 -1.962000000000e+01 0.0 
0.0 -1.962000000000e+01 0.0 
0.0 -1.962000000000e+01 0.0 
0.0 -1.962000000000e+01 0.0 
0.0 -1.962000000000e+01 0.0 
0.0 -1.962000000000e+01 0.0 
0.0 -1.962000000000e+01 0.0 
0.0 -1.962000000000e+01 0.0 
0.0 -1.962000000000e+01 0.0 
0.0 -1.962000000000e+01 0.0 
0.0 -1.962000000000e+01 0.0 
0.0 -1.962000000000e+01 0.0 
0.0 -1.962000000000e+01 0.0 
0.0 -1.962000000000e+01 0.0 
0.0 -1.962000000000e+01 0.0 
0.0 -1.962000000000e+01 0.0 
0.0 -1.962000000000e+01 0.0 
0.0 -1.962000000000e+01 0.0 
0.0 -1.962000000000e+01 0.0 
0.0 -1.962000000000e+01 0.0 
0.0 -1.962000000000e+01 0.0 
0.0 -1.962000000000e+01 0.0 
0.0 -1.962000000000e+01 0.0 
0.0 -1.962000000000e+01 0.0 
0.0 -1.962000000000e+01 0.0 
0.0 -1.962000000000e+01 0.0 
0.0 -1.962000000000e+01 0.0 
0.0 -1.962000000000e+01 0.0 
0.0 -1.962000000000e+01 0.0 
0.0 -1.962000000000e+01 0.0 
0.0 -1.962000000000e+01 0.0 
0.0 -1.962000000000e+01 0.0 
0.0 -1.962000000000e+01 0.0 
0.0 -1.962000000000e+01 0.0 
0.0 -1.962000000000e+01 0.0 
0.0 -1.962000000000e+01 0.0 
0.0 -1.962000000000e+01 0.0 
0.0 -1.962000000000e+01 0.0 
0.0 -1.962000000000e+01 0.0 
0.0 -1.962000000000e+01 0.0 
0.0 -1.962000000000e+01 0.0 
0.0 -1.962000000000e+01 0.0 
0.0 -1.962000000000e+01 0.0 
0.0 -1.962000000000e+01 0.0 
0.0 -1.962000000000e+01 0.0 
0.0 -1.962000000000e+01 0.0 
0.0 -1.962000000000e+01 0.0 
0.0 -1.962000000000e+01 0.0 
0.0 -1.962000000000e+01 0.0 
0.0 -1.962000000000e+01 0.0 
0.0 -1.962000000000e+01 0.0 
0.0 -1.962000000000e+01 0.0 
0.0 -1.962000000000e+01 0.0 
0.0 -1.962000000000e+01 0.0 
0.0 -1.962000000000e+01 0.0 
0.0 -1.962000000000e+01 0.0 
0.0 -1.962000000000e+01 0.0 
0.0 -1.962000000000e+01 0.0 
0.0 -1.962000000000e+01 0.0 
0.0 -1.962000000000e+01 0.0 
0.0 -1.962000000000e+01 0.0 
0.0 -1.962000000000e+01 0.0 
0.0 -1.962000000000e+01 0.0 
0.0 -1.962000000000e+01 0.0 
0.0 -1.962000000000e+01 0.0 
0.0 -1.962000000000e+01 0.0 
0.0 -1.962000000000e+01 0.0 
0.0 -1.962000000000e+01 0.0 
0.0 -1.962000000000e+01 0.0 
0.0 -1.962000000000e+01 0.0 
0.0 -1.962000000000e+01 0.0 
0.0 -1.962000000000e+01 0.0 
0.0 -1.962000000000e+01 0.0 
0.0 -1.962000000000e+01 0.0 
0.0 -1.962000000000e+01 0.0 
0.0 -1.962000000000e+01 0.0 
0.0 -1.962000000000e+01 0.0 
0.0 -1.962000000000e+01 0.0 
0.0 -1.962000000000e+01 0.0 
0.0 -1.962000000000e+01 0.0 
0.0 -1.962000000000e+01 0.0 
0.0 -1.962000000000e+01 0.0 
0.0 -1.962000000000e+01 0.0 
0.0 -1.962000000000e+01 0.0 
0.0 -1.962000000000e+01 0.0 
0.0 -1.962000000000e+01 0.0 
0.0 -1.962000000000e+01 0.0 
0.0 -1.962000000000e+01 0.0 
0.0 -1.962000000000e+01 0.0 
0.0 -1.962000000000e+01 0.0 
0.0 -1.962000000000e+01 0.0 
0.0 -1.962000000000e+01 0.0 
0.0 -1.962000000000e+01 0.0 
0.0 -1.962000000000e+01 0.0 
0.0 -1.962000000000e+01 0.0 
0.0 -1.962000000000e+01 0.0 
0.0 -1.962000000000e+01 0.0 
0.0 -1.962000000000e+01 0.0 
0.0 -1.962000000000e+01 0.0 
0.0 -1.962000000000e+01 0.0 
0.0 -1.962000000000e+01 0.0 
0.0 -1.962000000000e+01 0.0 
0.0 -1.962000000000e+01 0.0 
0.0 -1.962000000000e+01 0.0 
0.0 -1.962000000000e+01 0.0 
0.0 -1.962000000000e+01 0.0 
0.0 -1.962000000000e+01 0.0 
0.0 -1.962000000000e+01 0.0 
0.0 -1.962000000000e+01 0.0 
0.0 -1.962000000000e+01 0.0 
0.0 -1.962000000000e+01 0.0 
0.0 -1.962000000000e+01 0.0 
0.0 -1.962000000000e+01 0.0 
0.0 -1.962000000000e+01 0.0 
0.0 -1.962000000000e+01 0.0 
0.0 -1.962000000000e+01 0.0 
0.0 -1.962000000000e+01 0.0 
0.0 -1.962000000000e+01 0.0 
0.0 -1.962000000000e+01 0.0 
0.0 -1.962000000000e+01 0.0 
0.0 -1.962000000000e+01 0.0 
0.0 -1.962000000000e+01 0.0 
0.0 -1.962000000000e+01 0.0 
0.0 -1.962000000000e+01 0.0 
0.0 -1.962000000000e+01 0.0 
0.0 -1.962000000000e+01 0.0 
0.0 -1.962000000000e+01 0.0 
0.0 -1.962000000000e+01 0.0 
0.0 -1.962000000000e+01 0.0 
0.0 -1.962000000000e+01 0.0 
0.0 -1.962000000000e+01 0.0 
0.0 -1.962000000000e+01 0.0 
0.0 -1.962000000000e+01 0.0 
0.0 -1.962000000000e+01 0.0 
0.0 -1.962000000000e+01 0.0 
0.0 -1.962000000000e+01 0.0 
0.0 -1.962000000000e+01 0.0 
0.0 -1.962000000000e+01 0.0 
0.0 -1.962000000000e+01 0.0 
0.0 -1.962000000000e+01 0.0 
0.0 -1.962000000000e+01 0.0 
0.0 -1.962000000000e+01 0.0 
0.0 -1.962000000000e+01 0.0 
0.0 -1.962000000000e+01 0.0 
0.0 -1.962000000000e+01 0.0 
0.0 -1.962000000000e+01 0.0 
0.0 -1.962000000000e+01 0.0 
0.0 -1.962000000000e+01 0.0 
0.0 -1.962000000000e+01 0.0 
0.0 -1.962000000000e+01 0.0 
0.0 -1.962000000000e+01 0.0 
0.0 -1.962000000000e+01 0.0 
0.0 -1.962000000000e+01 0.0 
0.0 -1.962000000000e+01 0.0 
0.0 -1.962000000000e+01 0.0 
0.0 -1.962000000000e+01 0.0 
0.0 -1.962000000000e+01 0.0 
0.0 -1.962000000000e+01 0.0 
0.0 -1.962000000000e+01 0.0 
0.0 -1.962000000000e+01 0.0 
0.0 -1.962000000000e+01 0.0 
0.0 -1.962000000000e+01 0.0 
0.0 -1.962000000000e+01 0.0 
0.0 -1.962000000000e+01 0.0 
0.0 -1.962000000000e+01 0.0 
0.0 -1.962000000000e+01 0.0 
0.0 -1.962000000000e+01 0.0 
0.0 -1.962000000000e+01 0.0 
0.0 -1.962000000000e+01 0.0 
0.0 -1.962000000000e+01 0.0 
0.0 -1.962000000000e+01 0.0 
0.0 -1.962000000000e+01 0.0 
0.0 -1.962000000000e+01 0.0 
0.0 -1.962000000000e+01 0.0 
0.0 -1.962000000000e+01 0.0 
0.0 -1.962000000000e+01 0.0 
0.0 -1.962000000000e+01 0.0 
0.0 -1.962000000000e+01 0.0 
0.0 -1.962000000000e+01 0.0 
0.0 -1.962000000000e+01 0.0 
0.0 -1.962000000000e+01 0.0 
0.0 -1.962000000000e+01 0.0 
0.0 -1.962000000000e+01 0.0 
0.0 -1.962000000000e+01 0.0 
0.0 -1.962000000000e+01 0.0 
0.0 -1.962000000000e+01 0.0 
0.0 -1.962000000000e+01 0.0 
0.0 -1.962000000000e+01 0.0 
0.0 -1.962000000000e+01 0.0 
0.0 -1.962000000000e+01 0.0 
0.0 -1.962000000000e+01 0.0 
0.0 -1.962000000000e+01 0.0 
0.0 -1.962000000000e+01 0.0 
0.0 -1.962000000000e+01 0.0 
0.0 -1.962000000000e+01 0.0 
0.0 -1.962000000000e+01 0.0 
0.0 -1.962000000000e+01 0.0 
0.0 -1.962000000000e+01 0.0 
0.0 -1.962000000000e+01 0.0 
0.0 -1.962000000000e+01 0.0 
0.0 -1.962000000000e+01 0.0 
0.0 -1.962000000000e+01 0.0 
0.0 -1.962000000000e+01 0.0 
0.0 -1.962000000000e+01 0.0 
0.0 -1.962000000000e+01 0.0 
0.0 -1.962000000000e+01 0.0 
0.0 -1.962000000000e+01 0.0 
0.0 -1.962000000000e+01 0.0 
0.0 -1.962000000000e+01 0.0 
0.0 -1.962000000000e+01 0.0 
0.0 -1.962000000000e+01 0.0 
0.0 -1.962000000000e+01 0.0 
0.0 -1.962000000000e+01 0.0 
0.0 -1.962000000000e+01 0.0 
0.0 -1.962000000000e+01 0.0 
0.0 -1.962000000000e+01 0.0 
0.0 -1.962000000000e+01 0.0 
0.0 -1.962000000000e+01 0.0 
0.0 -1.962000000000e+01 0.0 
0.0 -1.962000000000e+01 0.0 
0.0 -1.962000000000e+01 0.0 
0.0 -1.962000000000e+01 0.0 
0.0 -1.962000000000e+01 0.0 
0.0 -1.962000000000e+01 0.0 
0.0 -1.962000000000e+01 0.0 
0.0 -1.962000000000e+01 0.0 
0.0 -1.962000000000e+01 0.0 
0.0 -1.962000000000e+01 0.0 
0.0 -1.962000000000e+01 0.0 
0.0 -1.962000000000e+01 0.0 
0.0 -1.962000000000e+01 0.0 
0.0 -1.962000000000e+01 0.0 
0.0 -1.962000000000e+01 0.0 
0.0 -1.962000000000e+01 0.0 
0.0 -1.962000000000e+01 0.0 
0.0 -1.962000000000e+01 0.0 
0.0 -1.962000000000e+01 0.0 
0.0 -1.962000000000e+01 0.0 
0.0 -1.962000000000e+01 0.0 
0.0 -1.962000000000e+01 0.0 
0.0 -1.962000000000e+01 0.0 
0.0 -1.962000000000e+01 0.0 
0.0 -1.962000000000e+01 0.0 
0.0 -1.962000000000e+01 0.0 
0.0 -1.962000000000e+01 0.0 
0.0 -1.962000000000e+01 0.0 
0.0 -1.962000000000e+01 0.0 
0.0 -1.962000000000e+01 0.0 
0.0 -1.962000000000e+01 0.0 
0.0 -1.962000000000e+01 0.0 
0.0 -1.962000000000e+01 0.0 
0.0 -1.962000000000e+01 0.0 
0.0 -1.962000000000e+01 0.0 
0.0 -1.962000000000e+01 0.0 
0.0 -1.962000000000e+01 0.0 
0.0 -1.962000000000e+01 0.0 
0.0 -1.962000000000e+01 0.0 
0.0 -1.962000000000e+01 0.0 
0.0 -1.962000000000e+01 0.0 
0.0 -1.962000000000e+01 0.0 
0.0 -1.962000000000e+01 0.0 
0.0 -1.962000000000e+01 0.0 
0.0 -1.962000000000e+01 0.0 
0.0 -1.962000000000e+01 0.0 
0.0 -1.962000000000e+01 0.0 
0.0 -1.962000000000e+01 0.0 
0.0 -1.962000000000e+01 0.0 
0.0 -1.962000000000e+01 0.0 
0.0 -1.962000000000e+01 0.0 
0.0 -1.962000000000e+01 0.0 
0.0 -1.962000000000e+01 0.0 
0.0 -1.962000000000e+01 0.0 
0.0 -1.962000000000e+01 0.0 
0.0 -1.962000000000e+01 0.0 
0.0 -1.962000000000e+01 0.0 
0.0 -1.962000000000e+01 0.0 
0.0 -1.962000000000e+01 0.0 
0.0 -1.962000000000e+01 0.0 
0.0 -1.962000000000e+01 0.0 
0.0 -1.962000000000e+01 0.0 
0.0 -1.962000000000e+01 0.0 
0.0 -1.962000000000e+01 0.0 
0.0 -1.962000000000e+01 0.0 
0.0 -1.962000000000e+01 0.0 
0.0 -1.962000000000e+01 0.0 
0.0 -1.962000000000e+01 0.0 
0.0 -1.962000000000e+01 0.0 
0.0 -1.962000000000e+01 0.0 
0.0 -1.962000000000e+01 0.0 
0.0 -1.962000000000e+01 0.0 
0.0 -1.962000000000e+01 0.0 
0.0 -1.962000000000e+01 0.0 
0.0 -1.962000000000e+01 0.0 
0.0 -1.962000000000e+01 0.0 
0.0 -1.962000000000e+01 0.0 
0.0 -1.962000000000e+01 0.0 
0.0 -1.962000000000e+01 0.0 
0.0 -1.962000000000e+01 0.0 
0.0 -1.962000000000e+01 0.0 
0.0 -1.962000000000e+01 0.0 
0.0 -1.962000000000e+01 0.0 
0.0 -1.962000000000e+01 0.0 
0.0 -1.962000000000e+01 0.0 
0.0 -1.962000000000e+01 0.0 
0.0 -1.962000000000e+01 0.0 
0.0 -1.962000000000e+01 0.0 
0.0 -1.962000000000e+01 0.0 
0.0 -1.962000000000e+01 0.0 
0.0 -1.962000000000e+01 0.0 
0.0 -1.962000000000e+01 0.0 
0.0 -1.962000000000e+01 0.0 
0.0 -1.962000000000e+01 0.0 
0.0 -1.962000000000e+01 0.0 
0.0 -1.962000000000e+01 0.0 
0.0 -1.962000000000e+01 0.0 
0.0 -1.962000000000e+01 0.0 
0.0 -1.962000000000e+01 0.0 
0.0 -1.962000000000e+01 0.0 
0.0 -1.962000000000e+01 0.0 
0.0 -1.962000000000e+01 0.0 
0.0 -1.962000000000e+01 0.0 
0.0 -1.962000000000e+01 0.0 
0.0 -1.962000000000e+01 0.0 
0.0 -1.962000000000e+01 0.0 
0.0 -1.962000000000e+01 0.0 
0.0 -1.962000000000e+01 0.0 
0.0 -1.962000000000e+01 0.0 
0.0 -1.962000000000e+01 0.0 
0.0 -1.962000000000e+01 0.0 
0.0 -1.962000000000e+01 0.0 
0.0 -1.962000000000e+01 0.0 
0.0 -1.962000000000e+01 0.0 
0.0 -1.962000000000e+01 0.0 
0.0 -1.962000000000e+01 0.0 
0.0 -1.962000000000e+01 0.0 
0.0 -1.962000000000e+01 0.0 
0.0 -1.962000000000e+01 0.0 
0.0 -1.962000000000e+01 0.0 
0.0 -1.962000000000e+01 0.0 
0.0 -1.962000000000e+01 0.0 
0.0 -1.962000000000e+01 0.0 
0.0 -1.962000000000e+01 0.0 
0.0 -1.962000000000e+01 0.0 
0.0 -1.962000000000e+01 0.0 
0.0 -1.962000000000e+01 0.0 
0.0 -1.962000000000e+01 0.0 
0.0 -1.962000000000e+01 0.0 
0.0 -1.962000000000e+01 0.0 
0.0 -1.962000000000e+01 0.0 
0.0 -1.962000000000e+01 0.0 
0.0 -1.962000000000e+01 0.0 
0.0 -1.962000000000e+01 0.0 
0.0 -1.962000000000e+01 0.0 
0.0 -1.962000000000e+01 0.0 
0.0 -1.962000000000e+01 0.0 
0.0 -1.962000000000e+01 0.0 
0.0 -1.962000000000e+01 0.0 
0.0 -1.962000000000e+01 0.0 
0.0 -1.962000000000e+01 0.0 
0.0 -1.962000000000e+01 0.0 
0.0 -1.962000000000e+01 0.0 
0.0 -1.962000000000e+01 0.0 
0.0 -1.962000000000e+01 0.0 
0.0 -1.962000000000e+01 0.0 
0.0 -1.962000000000e+01 0.0 
0.0 -1.962000000000e+01 0.0 
0.0 -1.962000000000e+01 0.0 
0.0 -1.962000000000e+01 0.0 
0.0 -1.962000000000e+01 0.0 
0.0 -1.962000000000e+01 0.0 
0.0 -1.962000000000e+01 0.0 
0.0 -1.962000000000e+01 0.0 
0.0 -1.962000000000e+01 0.0 
0.0 -1.962000000000e+01 0.0 
0.0 -1.962000000000e+01 0.0 
0.0 -1.962000000000e+01 0.0 
0.0 -1.962000000000e+01 0.0 
0.0 -1.962000000000e+01 0.0 
0.0 -1.962000000000e+01 0.0 
0.0 -1.962000000000e+01 0.0 
0.0 -1.962000000000e+01 0.0 
0.0 -1.962000000000e+01 0.0 
0.0 -1.962000000000e+01 0.0 
0.0 -1.962000000000e+01 0.0 
0.0 -1.962000000000e+01 0.0 
0.0 -1.962000000000e+01 0.0 
0.0 -1.962000000000e+01 0.0 
0.0 -1.962000000000e+01 0.0 
0.0 -1.962000000000e+01 0.0 
0.0 -1.962000000000e+01 0.0 
0.0 -1.962000000000e+01 0.0 
0.0 -1.962000000000e+01 0.0 
0.0 -1.962000000000e+01 0.0 
0.0 -1.962000000000e+01 0.0 
0.0 -1.962000000000e+01 0.0 
0.0 -1.962000000000e+01 0.0 
0.0 -1.962000000000e+01 0.0 
0.0 -1.962000000000e+01 0.0 
0.0 -1.962000000000e+01 0.0 
0.0 -1.962000000000e+01 0.0 
0.0 -1.962000000000e+01 0.0 
0.0 -1.962000000000e+01 0.0 
0.0 -1.962000000000e+01 0.0 
0.0 -1.962000000000e+01 0.0 
0.0 -1.962000000000e+01 0.0 
0.0 -1.962000000000e+01 0.0 
0.0 -1.962000000000e+01 0.0 
0.0 -1.962000000000e+01 0.0 
0.0 -1.962000000000e+01 0.0 
0.0 -1.962000000000e+01 0.0 
0.0 -1.962000000000e+01 0.0 
0.0 -1.962000000000e+01 0.0 
0.0 -1.962000000000e+01 0.0 
0.0 -1.962000000000e+01 0.0 
0.0 -1.962000000000e+01 0.0 
0.0 -1.962000000000e+01 0.0 
0.0 -1.962000000000e+01 0.0 
0.0 -1.962000000000e+01 0.0 
0.0 -1.962000000000e+01 0.0 
0.0 -1.962000000000e+01 0.0 
0.0 -1.962000000000e+01 0.0 
0.0 -1.962000000000e+01 0.0 
0.0 -1.962000000000e+01 0.0 
0.0 -1.962000000000e+01 0.0 
0.0 -1.962000000000e+01 0.0 
0.0 -1.962000000000e+01 0.0 
0.0 -1.962000000000e+01 0.0 
0.0 -1.962000000000e+01 0.0 
0.0 -1.962000000000e+01 0.0 
0.0 -1.962000000000e+01 0.0 
0.0 -1.962000000000e+01 0.0 
0.0 -1.962000000000e+01 0.0 
0.0 -1.962000000000e+01 0.0 
0.0 -1.962000000000e+01 0.0 
0.0 -1.962000000000e+01 0.0 
0.0 -1.962000000000e+01 0.0 
0.0 -1.962000000000e+01 0.0 
0.0 -1.962000000000e+01 0.0 
0.0 -1.962000000000e+01 0.0 
0.0 -1.962000000000e+01 0.0 
0.0 -1.962000000000e+01 0.0 
0.0 -1.962000000000e+01 0.0 
0.0 -1.962000000000e+01 0.0 
0.0 -1.962000000000e+01 0.0 
0.0 -1.962000000000e+01 0.0 
0.0 -1.962000000000e+01 0.0 
0.0 -1.962000000000e+01 0.0 
0.0 -1.962000000000e+01 0.0 
0.0 -1.962000000000e+01 0.0 
0.0 -1.962000000000e+01 0.0 
0.0 -1.962000000000e+01 0.0 
0.0 -1.962000000000e+01 0.0 
0.0 -1.962000000000e+01 0.0 
0.0 -1.962000000000e+01 0.0 
0.0 -1.962000000000e+01 0.0 
0.0 -1.962000000000e+01 0.0 
0.0 -1.962000000000e+01 0.0 
0.0 -1.962000000000e+01 0.0 
0.0 -1.962000000000e+01 0.0 
0.0 -1.962000000000e+01 0.0 
0.0 -1.962000000000e+01 0.0 
0.0 -1.962000000000e+01 0.0 
0.0 -1.962000000000e+01 0.0 
0.0 -1.962000000000e+01 0.0 
0.0 -1.962000000000e+01 0.0 
0.0 -1.962000000000e+01 0.0 
0.0 -1.962000000000e+01 0.0 
0.0 -1.962000000000e+01 0.0 
0.0 -1.962000000000e+01 0.0 
0.0 -1.962000000000e+01 0.0 
0.0 -1.962000000000e+01 0.0 
0.0 -1.962000000000e+01 0.0 
0.0 -1.962000000000e+01 0.0 
0.0 -1.962000000000e+01 0.0 
0.0 -1.962000000000e+01 0.0 
0.0 -1.962000000000e+01 0.0 
0.0 -1.962000000000e+01 0.0 
0.0 -1.962000000000e+01 0.0 
0.0 -1.962000000000e+01 0.0 

VECTORS node_rhside_materi_fixed float
-2.784448449118e-01 0.0 0.0 
5.157962120970e+01 0.0 0.0 
-8.366235841032e+01 -1.996438339451e+02 0.0 
6.222981951402e+01 -1.491112410386e+02 0.0 
-3.395536186815e+00 0.0 0.0 
-1.202349889208e+01 0.0 0.0 
-2.093963685559e+01 0.0 0.0 
-3.122055818511e+01 0.0 0.0 
-4.026818324104e+01 0.0 0.0 
-4.926214841929e+01 0.0 0.0 
-5.800798951596e+01 0.0 0.0 
-6.654044465958e+01 0.0 0.0 
-7.489035501768e+01 0.0 0.0 
-8.309900883930e+01 0.0 0.0 
-9.176343716687e+01 0.0 0.0 
-1.003030118818e+02 0.0 0.0 
-1.083269499426e+02 0.0 0.0 
-1.171113609093e+02 0.0 0.0 
-1.258037870152e+02 0.0 0.0 
-1.345929789901e+02 0.0 0.0 
-1.434790419042e+02 0.0 0.0 
-1.524009943294e+02 0.0 0.0 
-1.618078773170e+02 0.0 0.0 
5.626025843186e-01 -2.970831759631e+02 0.0 
9.219302835494e-01 -2.983426057026e+02 0.0 
3.131647944451e+00 -2.975917026842e+02 0.0 
2.037188414692e+00 -2.978442974513e+02 0.0 
4.033475189036e+00 -2.987742473116e+02 0.0 
4.684748138690e+00 -2.983902539584e+02 0.0 
5.325930065127e+00 -2.993510271545e+02 0.0 
6.361501049953e+00 -3.002771876757e+02 0.0 
8.390174795230e+00 -3.002634856710e+02 0.0 
7.736036694355e+00 -3.012635160287e+02 0.0 
1.021122835349e+01 -3.032015895466e+02 0.0 
1.139863688929e+01 -3.036731014839e+02 0.0 
1.252545327771e+01 -3.060094418815e+02 0.0 
1.382498075249e+01 -3.075453825061e+02 0.0 
1.548463744562e+01 -3.097319967865e+02 0.0 
1.660034118705e+01 -3.127994187380e+02 0.0 
1.902021944569e+01 -3.157015306925e+02 0.0 
2.032082796743e+01 -3.192704201894e+02 0.0 
2.181929553957e+01 -3.230733035700e+02 0.0 
2.305410932610e+01 -3.269739889861e+02 0.0 
2.371809226441e+01 -3.315699416980e+02 0.0 
2.512974023913e+01 -3.368741547555e+02 0.0 
2.565405057205e+01 -3.418383719031e+02 0.0 
2.615329340785e+01 -3.471571952206e+02 0.0 
2.630094754580e+01 -3.528422618679e+02 0.0 
2.595333274526e+01 -3.581202618220e+02 0.0 
2.539356768978e+01 -3.633436253446e+02 0.0 
2.445221417589e+01 -3.686148301867e+02 0.0 
2.343885214498e+01 -3.736635951764e+02 0.0 
2.196038414595e+01 -3.780259804301e+02 0.0 
2.036394561330e+01 -3.819747388141e+02 0.0 
1.859603374576e+01 -3.861449973942e+02 0.0 
1.683874178816e+01 -3.890131655139e+02 0.0 
1.502569840030e+01 -3.918606402820e+02 0.0 
1.307050397778e+01 -3.940568045056e+02 0.0 
1.136528624852e+01 -3.958235298059e+02 0.0 
9.697130524659e+00 -3.972234353950e+02 0.0 
8.077659074194e+00 -3.982494518468e+02 0.0 
6.721551707703e+00 -3.988782118687e+02 0.0 
5.476431464638e+00 -3.996776037874e+02 0.0 
4.443034485397e+00 -3.996599152520e+02 0.0 
3.518322828353e+00 -3.996340743365e+02 0.0 
2.773783581523e+00 -3.994029598333e+02 0.0 
2.052628283988e+00 -4.000330079050e+02 0.0 
1.414031741919e+00 -3.990715904535e+02 0.0 
9.417380017972e-01 -3.996178024459e+02 0.0 
1.156818952536e+00 -3.988565431952e+02 0.0 
3.463557148303e-01 -3.989816240094e+02 0.0 
2.531477179251e-01 -3.987479359852e+02 0.0 
5.951573518828e+01 0.0 0.0 
6.805879364008e+01 0.0 0.0 
7.603300780190e+01 0.0 0.0 
8.370851225052e+01 0.0 0.0 
9.133243982891e+01 0.0 0.0 
9.914076380591e+01 0.0 0.0 
1.063258557523e+02 0.0 0.0 
1.130002863769e+02 0.0 0.0 
1.208857389262e+02 0.0 0.0 
0.0 0.0 0.0 
0.0 0.0 0.0 
0.0 0.0 0.0 
0.0 0.0 0.0 
0.0 0.0 0.0 
0.0 0.0 0.0 
0.0 0.0 0.0 
0.0 0.0 0.0 
0.0 0.0 0.0 
0.0 0.0 0.0 
0.0 0.0 0.0 
6.296599890882e+00 0.0 0.0 
1.844331023598e+01 0.0 0.0 
2.657114765240e+01 0.0 0.0 
3.495537907077e+01 0.0 0.0 
4.336830725105e+01 0.0 0.0 
0.0 0.0 0.0 
0.0 0.0 0.0 
0.0 0.0 0.0 
0.0 0.0 0.0 
0.0 0.0 0.0 
0.0 0.0 0.0 
0.0 0.0 0.0 
0.0 0.0 0.0 
0.0 0.0 0.0 
0.0 0.0 0.0 
0.0 0.0 0.0 
0.0 0.0 0.0 
0.0 0.0 0.0 
0.0 0.0 0.0 
0.0 0.0 0.0 
0.0 0.0 0.0 
0.0 0.0 0.0 
0.0 0.0 0.0 
0.0 0.0 0.0 
0.0 0.0 0.0 
0.0 0.0 0.0 
0.0 0.0 0.0 
0.0 0.0 0.0 
0.0 0.0 0.0 
0.0 0.0 0.0 
0.0 0.0 0.0 
0.0 0.0 0.0 
0.0 0.0 0.0 
0.0 0.0 0.0 
0.0 0.0 0.0 
0.0 0.0 0.0 
0.0 0.0 0.0 
0.0 0.0 0.0 
0.0 0.0 0.0 
0.0 0.0 0.0 
0.0 0.0 0.0 
0.0 0.0 0.0 
0.0 0.0 0.0 
0.0 0.0 0.0 
0.0 0.0 0.0 
0.0 0.0 0.0 
0.0 0.0 0.0 
0.0 0.0 0.0 
0.0 0.0 0.0 
0.0 0.0 0.0 
0.0 0.0 0.0 
0.0 0.0 0.0 
0.0 0.0 0.0 
0.0 0.0 0.0 
0.0 0.0 0.0 
0.0 0.0 0.0 
0.0 0.0 0.0 
0.0 0.0 0.0 
0.0 0.0 0.0 
0.0 0.0 0.0 
0.0 0.0 0.0 
0.0 0.0 0.0 
0.0 0.0 0.0 
0.0 0.0 0.0 
0.0 0.0 0.0 
0.0 0.0 0.0 
0.0 0.0 0.0 
0.0 0.0 0.0 
0.0 0.0 0.0 
0.0 0.0 0.0 
0.0 0.0 0.0 
0.0 0.0 0.0 
0.0 0.0 0.0 
0.0 0.0 0.0 
0.0 0.0 0.0 
0.0 0.0 0.0 
0.0 0.0 0.0 
0.0 0.0 0.0 
0.0 0.0 0.0 
0.0 0.0 0.0 
0.0 0.0 0.0 
0.0 0.0 0.0 
0.0 0.0 0.0 
0.0 0.0 0.0 
0.0 0.0 0.0 
0.0 0.0 0.0 
0.0 0.0 0.0 
0.0 0.0 0.0 
0.0 0.0 0.0 
0.0 0.0 0.0 
0.0 0.0 0.0 
0.0 0.0 0.0 
0.0 0.0 0.0 
0.0 0.0 0.0 
0.0 0.0 0.0 
0.0 0.0 0.0 
0.0 0.0 0.0 
0.0 0.0 0.0 
0.0 0.0 0.0 
0.0 0.0 0.0 
0.0 0.0 0.0 
0.0 0.0 0.0 
0.0 0.0 0.0 
0.0 0.0 0.0 
0.0 0.0 0.0 
0.0 0.0 0.0 
0.0 0.0 0.0 
0.0 0.0 0.0 
0.0 0.0 0.0 
0.0 0.0 0.0 
0.0 0.0 0.0 
0.0 0.0 0.0 
0.0 0.0 0.0 
0.0 0.0 0.0 
0.0 0.0 0.0 
0.0 0.0 0.0 
0.0 0.0 0.0 
0.0 0.0 0.0 
0.0 0.0 0.0 
0.0 0.0 0.0 
0.0 0.0 0.0 
0.0 0.0 0.0 
0.0 0.0 0.0 
0.0 0.0 0.0 
0.0 0.0 0.0 
0.0 0.0 0.0 
0.0 0.0 0.0 
0.0 0.0 0.0 
0.0 0.0 0.0 
0.0 0.0 0.0 
0.0 0.0 0.0 
0.0 0.0 0.0 
0.0 0.0 0.0 
0.0 0.0 0.0 
0.0 0.0 0.0 
0.0 0.0 0.0 
0.0 0.0 0.0 
0.0 0.0 0.0 
0.0 0.0 0.0 
0.0 0.0 0.0 
0.0 0.0 0.0 
0.0 0.0 0.0 
0.0 0.0 0.0 
0.0 0.0 0.0 
0.0 0.0 0.0 
0.0 0.0 0.0 
0.0 0.0 0.0 
0.0 0.0 0.0 
0.0 0.0 0.0 
0.0 0.0 0.0 
0.0 0.0 0.0 
0.0 0.0 0.0 
0.0 0.0 0.0 
0.0 0.0 0.0 
0.0 0.0 0.0 
0.0 0.0 0.0 
0.0 0.0 0.0 
0.0 0.0 0.0 
0.0 0.0 0.0 
0.0 0.0 0.0 
0.0 0.0 0.0 
0.0 0.0 0.0 
0.0 0.0 0.0 
0.0 0.0 0.0 
0.0 0.0 0.0 
0.0 0.0 0.0 
0.0 0.0 0.0 
0.0 0.0 0.0 
0.0 0.0 0.0 
0.0 0.0 0.0 
0.0 0.0 0.0 
0.0 0.0 0.0 
0.0 0.0 0.0 
0.0 0.0 0.0 
0.0 0.0 0.0 
0.0 0.0 0.0 
0.0 0.0 0.0 
0.0 0.0 0.0 
0.0 0.0 0.0 
0.0 0.0 0.0 
0.0 0.0 0.0 
0.0 0.0 0.0 
0.0 0.0 0.0 
0.0 0.0 0.0 
0.0 0.0 0.0 
0.0 0.0 0.0 
0.0 0.0 0.0 
0.0 0.0 0.0 
0.0 0.0 0.0 
0.0 0.0 0.0 
0.0 0.0 0.0 
0.0 0.0 0.0 
0.0 0.0 0.0 
0.0 0.0 0.0 
0.0 0.0 0.0 
0.0 0.0 0.0 
0.0 0.0 0.0 
0.0 0.0 0.0 
0.0 0.0 0.0 
0.0 0.0 0.0 
0.0 0.0 0.0 
0.0 0.0 0.0 
0.0 0.0 0.0 
0.0 0.0 0.0 
0.0 0.0 0.0 
0.0 0.0 0.0 
0.0 0.0 0.0 
0.0 0.0 0.0 
0.0 0.0 0.0 
0.0 0.0 0.0 
0.0 0.0 0.0 
0.0 0.0 0.0 
0.0 0.0 0.0 
0.0 0.0 0.0 
0.0 0.0 0.0 
0.0 0.0 0.0 
0.0 0.0 0.0 
0.0 0.0 0.0 
0.0 0.0 0.0 
0.0 0.0 0.0 
0.0 0.0 0.0 
0.0 0.0 0.0 
0.0 0.0 0.0 
0.0 0.0 0.0 
0.0 0.0 0.0 
0.0 0.0 0.0 
0.0 0.0 0.0 
0.0 0.0 0.0 
0.0 0.0 0.0 
0.0 0.0 0.0 
0.0 0.0 0.0 
0.0 0.0 0.0 
0.0 0.0 0.0 
0.0 0.0 0.0 
0.0 0.0 0.0 
0.0 0.0 0.0 
0.0 0.0 0.0 
0.0 0.0 0.0 
0.0 0.0 0.0 
0.0 0.0 0.0 
0.0 0.0 0.0 
0.0 0.0 0.0 
0.0 0.0 0.0 
0.0 0.0 0.0 
0.0 0.0 0.0 
0.0 0.0 0.0 
0.0 0.0 0.0 
0.0 0.0 0.0 
0.0 0.0 0.0 
0.0 0.0 0.0 
0.0 0.0 0.0 
0.0 0.0 0.0 
0.0 0.0 0.0 
0.0 0.0 0.0 
0.0 0.0 0.0 
0.0 0.0 0.0 
0.0 0.0 0.0 
0.0 0.0 0.0 
0.0 0.0 0.0 
0.0 0.0 0.0 
0.0 0.0 0.0 
0.0 0.0 0.0 
0.0 0.0 0.0 
0.0 0.0 0.0 
0.0 0.0 0.0 
0.0 0.0 0.0 
0.0 0.0 0.0 
0.0 0.0 0.0 
0.0 0.0 0.0 
0.0 0.0 0.0 
0.0 0.0 0.0 
0.0 0.0 0.0 
0.0 0.0 0.0 
0.0 0.0 0.0 
0.0 0.0 0.0 
0.0 0.0 0.0 
0.0 0.0 0.0 
0.0 0.0 0.0 
0.0 0.0 0.0 
0.0 0.0 0.0 
0.0 0.0 0.0 
0.0 0.0 0.0 
0.0 0.0 0.0 
0.0 0.0 0.0 
0.0 0.0 0.0 
0.0 0.0 0.0 
0.0 0.0 0.0 
0.0 0.0 0.0 
0.0 0.0 0.0 
0.0 0.0 0.0 
0.0 0.0 0.0 
0.0 0.0 0.0 
0.0 0.0 0.0 
0.0 0.0 0.0 
0.0 0.0 0.0 
0.0 0.0 0.0 
0.0 0.0 0.0 
0.0 0.0 0.0 
0.0 0.0 0.0 
0.0 0.0 0.0 
0.0 0.0 0.0 
0.0 0.0 0.0 
0.0 0.0 0.0 
0.0 0.0 0.0 
0.0 0.0 0.0 
0.0 0.0 0.0 
0.0 0.0 0.0 
0.0 0.0 0.0 
0.0 0.0 0.0 
0.0 0.0 0.0 
0.0 0.0 0.0 
0.0 0.0 0.0 
0.0 0.0 0.0 
0.0 0.0 0.0 
0.0 0.0 0.0 
0.0 0.0 0.0 
0.0 0.0 0.0 
0.0 0.0 0.0 
0.0 0.0 0.0 
0.0 0.0 0.0 
0.0 0.0 0.0 
0.0 0.0 0.0 
0.0 0.0 0.0 
0.0 0.0 0.0 
0.0 0.0 0.0 
0.0 0.0 0.0 
0.0 0.0 0.0 
0.0 0.0 0.0 
0.0 0.0 0.0 
0.0 0.0 0.0 
0.0 0.0 0.0 
0.0 0.0 0.0 
0.0 0.0 0.0 
0.0 0.0 0.0 
0.0 0.0 0.0 
0.0 0.0 0.0 
0.0 0.0 0.0 
0.0 0.0 0.0 
0.0 0.0 0.0 
0.0 0.0 0.0 
0.0 0.0 0.0 
0.0 0.0 0.0 
0.0 0.0 0.0 
0.0 0.0 0.0 
0.0 0.0 0.0 
0.0 0.0 0.0 
0.0 0.0 0.0 
0.0 0.0 0.0 
0.0 0.0 0.0 
0.0 0.0 0.0 
0.0 0.0 0.0 
0.0 0.0 0.0 
0.0 0.0 0.0 
0.0 0.0 0.0 
0.0 0.0 0.0 
0.0 0.0 0.0 
0.0 0.0 0.0 
0.0 0.0 0.0 
0.0 0.0 0.0 
0.0 0.0 0.0 
0.0 0.0 0.0 
0.0 0.0 0.0 
0.0 0.0 0.0 
0.0 0.0 0.0 
0.0 0.0 0.0 
0.0 0.0 0.0 
0.0 0.0 0.0 
0.0 0.0 0.0 
0.0 0.0 0.0 
0.0 0.0 0.0 
0.0 0.0 0.0 
0.0 0.0 0.0 
0.0 0.0 0.0 
0.0 0.0 0.0 
0.0 0.0 0.0 
0.0 0.0 0.0 
0.0 0.0 0.0 
0.0 0.0 0.0 
0.0 0.0 0.0 
0.0 0.0 0.0 
0.0 0.0 0.0 
0.0 0.0 0.0 
0.0 0.0 0.0 
0.0 0.0 0.0 
0.0 0.0 0.0 
0.0 0.0 0.0 
0.0 0.0 0.0 
0.0 0.0 0.0 
0.0 0.0 0.0 
0.0 0.0 0.0 
0.0 0.0 0.0 
0.0 0.0 0.0 
0.0 0.0 0.0 
0.0 0.0 0.0 
0.0 0.0 0.0 
0.0 0.0 0.0 
0.0 0.0 0.0 
0.0 0.0 0.0 
0.0 0.0 0.0 
0.0 0.0 0.0 
0.0 0.0 0.0 
0.0 0.0 0.0 
0.0 0.0 0.0 
0.0 0.0 0.0 
0.0 0.0 0.0 
0.0 0.0 0.0 
0.0 0.0 0.0 
0.0 0.0 0.0 
0.0 0.0 0.0 
0.0 0.0 0.0 
0.0 0.0 0.0 
0.0 0.0 0.0 
0.0 0.0 0.0 
0.0 0.0 0.0 
0.0 0.0 0.0 
0.0 0.0 0.0 
0.0 0.0 0.0 
0.0 0.0 0.0 
0.0 0.0 0.0 
0.0 0.0 0.0 
0.0 0.0 0.0 
0.0 0.0 0.0 
0.0 0.0 0.0 
0.0 0.0 0.0 
0.0 0.0 0.0 
0.0 0.0 0.0 
0.0 0.0 0.0 
0.0 0.0 0.0 
0.0 0.0 0.0 
0.0 0.0 0.0 
0.0 0.0 0.0 
0.0 0.0 0.0 
0.0 0.0 0.0 
0.0 0.0 0.0 
0.0 0.0 0.0 
0.0 0.0 0.0 
0.0 0.0 0.0 
0.0 0.0 0.0 
0.0 0.0 0.0 
0.0 0.0 0.0 
0.0 0.0 0.0 
0.0 0.0 0.0 
0.0 0.0 0.0 
0.0 0.0 0.0 
0.0 0.0 0.0 
0.0 0.0 0.0 
0.0 0.0 0.0 
0.0 0.0 0.0 
0.0 0.0 0.0 
0.0 0.0 0.0 
0.0 0.0 0.0 
0.0 0.0 0.0 
0.0 0.0 0.0 
0.0 0.0 0.0 
0.0 0.0 0.0 
0.0 0.0 0.0 
0.0 0.0 0.0 
0.0 0.0 0.0 
0.0 0.0 0.0 
0.0 0.0 0.0 
0.0 0.0 0.0 
0.0 0.0 0.0 
0.0 0.0 0.0 
0.0 0.0 0.0 
0.0 0.0 0.0 
0.0 0.0 0.0 
0.0 0.0 0.0 
0.0 0.0 0.0 
0.0 0.0 0.0 
0.0 0.0 0.0 
0.0 0.0 0.0 
0.0 0.0 0.0 
0.0 0.0 0.0 
0.0 0.0 0.0 
0.0 0.0 0.0 
0.0 0.0 0.0 
0.0 0.0 0.0 
0.0 0.0 0.0 
0.0 0.0 0.0 
0.0 0.0 0.0 
0.0 0.0 0.0 
0.0 0.0 0.0 
0.0 0.0 0.0 
0.0 0.0 0.0 
0.0 0.0 0.0 
0.0 0.0 0.0 
0.0 0.0 0.0 
0.0 0.0 0.0 
0.0 0.0 0.0 
0.0 0.0 0.0 
0.0 0.0 0.0 
0.0 0.0 0.0 
0.0 0.0 0.0 
0.0 0.0 0.0 
0.0 0.0 0.0 
0.0 0.0 0.0 
0.0 0.0 0.0 
0.0 0.0 0.0 
0.0 0.0 0.0 
0.0 0.0 0.0 
0.0 0.0 0.0 
0.0 0.0 0.0 
0.0 0.0 0.0 
0.0 0.0 0.0 
0.0 0.0 0.0 
0.0 0.0 0.0 
0.0 0.0 0.0 
0.0 0.0 0.0 
0.0 0.0 0.0 
0.0 0.0 0.0 
0.0 0.0 0.0 
0.0 0.0 0.0 
0.0 0.0 0.0 
0.0 0.0 0.0 
0.0 0.0 0.0 
0.0 0.0 0.0 
0.0 0.0 0.0 
0.0 0.0 0.0 
0.0 0.0 0.0 
0.0 0.0 0.0 
0.0 0.0 0.0 
0.0 0.0 0.0 
0.0 0.0 0.0 
0.0 0.0 0.0 
0.0 0.0 0.0 
0.0 0.0 0.0 
0.0 0.0 0.0 
0.0 0.0 0.0 
0.0 0.0 0.0 
0.0 0.0 0.0 
0.0 0.0 0.0 
0.0 0.0 0.0 
0.0 0.0 0.0 
0.0 0.0 0.0 
0.0 0.0 0.0 
0.0 0.0 0.0 
0.0 0.0 0.0 
0.0 0.0 0.0 
0.0 0.0 0.0 
0.0 0.0 0.0 
0.0 0.0 0.0 
0.0 0.0 0.0 
0.0 0.0 0.0 
0.0 0.0 0.0 
0.0 0.0 0.0 
0.0 0.0 0.0 
0.0 0.0 0.0 
0.0 0.0 0.0 
0.0 0.0 0.0 
0.0 0.0 0.0 
0.0 0.0 0.0 
0.0 0.0 0.0 
0.0 0.0 0.0 
0.0 0.0 0.0 
0.0 0.0 0.0 
0.0 0.0 0.0 
0.0 0.0 0.0 
0.0 0.0 0.0 
0.0 0.0 0.0 
0.0 0.0 0.0 
0.0 0.0 0.0 
0.0 0.0 0.0 
0.0 0.0 0.0 
0.0 0.0 0.0 
0.0 0.0 0.0 
0.0 0.0 0.0 
0.0 0.0 0.0 
0.0 0.0 0.0 
0.0 0.0 0.0 
0.0 0.0 0.0 
0.0 0.0 0.0 
0.0 0.0 0.0 
0.0 0.0 0.0 
0.0 0.0 0.0 
0.0 0.0 0.0 
0.0 0.0 0.0 
0.0 0.0 0.0 
0.0 0.0 0.0 
0.0 0.0 0.0 
0.0 0.0 0.0 
0.0 0.0 0.0 
0.0 0.0 0.0 
0.0 0.0 0.0 
0.0 0.0 0.0 
0.0 0.0 0.0 
0.0 0.0 0.0 
0.0 0.0 0.0 
0.0 0.0 0.0 
0.0 0.0 0.0 
0.0 0.0 0.0 
0.0 0.0 0.0 
0.0 0.0 0.0 
0.0 0.0 0.0 
0.0 0.0 0.0 
0.0 0.0 0.0 
0.0 0.0 0.0 
0.0 0.0 0.0 
0.0 0.0 0.0 
0.0 0.0 0.0 
0.0 0.0 0.0 
0.0 0.0 0.0 
0.0 0.0 0.0 
0.0 0.0 0.0 
0.0 0.0 0.0 
0.0 0.0 0.0 
0.0 0.0 0.0 
0.0 0.0 0.0 
0.0 0.0 0.0 
0.0 0.0 0.0 
0.0 0.0 0.0 
0.0 0.0 0.0 
0.0 0.0 0.0 
0.0 0.0 0.0 
0.0 0.0 0.0 
0.0 0.0 0.0 
0.0 0.0 0.0 
0.0 0.0 0.0 
0.0 0.0 0.0 
0.0 0.0 0.0 
0.0 0.0 0.0 
0.0 0.0 0.0 
0.0 0.0 0.0 
0.0 0.0 0.0 
0.0 0.0 0.0 
0.0 0.0 0.0 
0.0 0.0 0.0 
0.0 0.0 0.0 
0.0 0.0 0.0 
0.0 0.0 0.0 
0.0 0.0 0.0 
0.0 0.0 0.0 
0.0 0.0 0.0 
0.0 0.0 0.0 
0.0 0.0 0.0 
0.0 0.0 0.0 
0.0 0.0 0.0 
0.0 0.0 0.0 
0.0 0.0 0.0 
0.0 0.0 0.0 
0.0 0.0 0.0 
0.0 0.0 0.0 
0.0 0.0 0.0 
0.0 0.0 0.0 
0.0 0.0 0.0 
0.0 0.0 0.0 
0.0 0.0 0.0 
0.0 0.0 0.0 
0.0 0.0 0.0 
0.0 0.0 0.0 
0.0 0.0 0.0 
0.0 0.0 0.0 
0.0 0.0 0.0 
0.0 0.0 0.0 
0.0 0.0 0.0 
0.0 0.0 0.0 
0.0 0.0 0.0 
0.0 0.0 0.0 
0.0 0.0 0.0 
0.0 0.0 0.0 
0.0 0.0 0.0 
0.0 0.0 0.0 
0.0 0.0 0.0 
0.0 0.0 0.0 
0.0 0.0 0.0 
0.0 0.0 0.0 
0.0 0.0 0.0 
0.0 0.0 0.0 
0.0 0.0 0.0 
0.0 0.0 0.0 
0.0 0.0 0.0 
0.0 0.0 0.0 
0.0 0.0 0.0 
0.0 0.0 0.0 
0.0 0.0 0.0 
0.0 0.0 0.0 
0.0 0.0 0.0 
0.0 0.0 0.0 
0.0 0.0 0.0 
0.0 0.0 0.0 
0.0 0.0 0.0 
0.0 0.0 0.0 
0.0 0.0 0.0 
0.0 0.0 0.0 
0.0 0.0 0.0 
0.0 0.0 0.0 
0.0 0.0 0.0 
0.0 0.0 0.0 
0.0 0.0 0.0 
0.0 0.0 0.0 
0.0 0.0 0.0 
0.0 0.0 0.0 
0.0 0.0 0.0 
0.0 0.0 0.0 
0.0 0.0 0.0 
0.0 0.0 0.0 
0.0 0.0 0.0 
0.0 0.0 0.0 
0.0 0.0 0.0 
0.0 0.0 0.0 
0.0 0.0 0.0 
0.0 0.0 0.0 
0.0 0.0 0.0 
0.0 0.0 0.0 
0.0 0.0 0.0 
0.0 0.0 0.0 
0.0 0.0 0.0 
0.0 0.0 0.0 
0.0 0.0 0.0 
0.0 0.0 0.0 
0.0 0.0 0.0 
0.0 0.0 0.0 
0.0 0.0 0.0 
0.0 0.0 0.0 
0.0 0.0 0.0 
0.0 0.0 0.0 
0.0 0.0 0.0 
0.0 0.0 0.0 
0.0 0.0 0.0 
0.0 0.0 0.0 
0.0 0.0 0.0 
0.0 0.0 0.0 
0.0 0.0 0.0 
0.0 0.0 0.0 
0.0 0.0 0.0 
0.0 0.0 0.0 
0.0 0.0 0.0 
0.0 0.0 0.0 
0.0 0.0 0.0 
0.0 0.0 0.0 
0.0 0.0 0.0 
0.0 0.0 0.0 
0.0 0.0 0.0 
0.0 0.0 0.0 
0.0 0.0 0.0 
0.0 0.0 0.0 
0.0 0.0 0.0 
0.0 0.0 0.0 
0.0 0.0 0.0 
0.0 0.0 0.0 
0.0 0.0 0.0 
0.0 0.0 0.0 
0.0 0.0 0.0 
0.0 0.0 0.0 
0.0 0.0 0.0 
0.0 0.0 0.0 
0.0 0.0 0.0 
0.0 0.0 0.0 
0.0 0.0 0.0 
0.0 0.0 0.0 
0.0 0.0 0.0 
0.0 0.0 0.0 
0.0 0.0 0.0 
0.0 0.0 0.0 
0.0 0.0 0.0 
0.0 0.0 0.0 
0.0 0.0 0.0 
0.0 0.0 0.0 
0.0 0.0 0.0 
0.0 0.0 0.0 
0.0 0.0 0.0 
0.0 0.0 0.0 
0.0 0.0 0.0 
0.0 0.0 0.0 
0.0 0.0 0.0 
0.0 0.0 0.0 
0.0 0.0 0.0 
0.0 0.0 0.0 
0.0 0.0 0.0 
0.0 0.0 0.0 
0.0 0.0 0.0 
0.0 0.0 0.0 
0.0 0.0 0.0 
0.0 0.0 0.0 
0.0 0.0 0.0 
0.0 0.0 0.0 
0.0 0.0 0.0 
0.0 0.0 0.0 
0.0 0.0 0.0 
0.0 0.0 0.0 
0.0 0.0 0.0 
0.0 0.0 0.0 
0.0 0.0 0.0 
0.0 0.0 0.0 
0.0 0.0 0.0 
0.0 0.0 0.0 
0.0 0.0 0.0 
0.0 0.0 0.0 
0.0 0.0 0.0 
0.0 0.0 0.0 
0.0 0.0 0.0 
0.0 0.0 0.0 
0.0 0.0 0.0 
0.0 0.0 0.0 
0.0 0.0 0.0 
0.0 0.0 0.0 
0.0 0.0 0.0 
0.0 0.0 0.0 
0.0 0.0 0.0 
0.0 0.0 0.0 
0.0 0.0 0.0 
0.0 0.0 0.0 
0.0 0.0 0.0 
0.0 0.0 0.0 
0.0 0.0 0.0 
0.0 0.0 0.0 
0.0 0.0 0.0 
0.0 0.0 0.0 
0.0 0.0 0.0 
0.0 0.0 0.0 
0.0 0.0 0.0 
0.0 0.0 0.0 
0.0 0.0 0.0 
0.0 0.0 0.0 
0.0 0.0 0.0 
0.0 0.0 0.0 
0.0 0.0 0.0 
0.0 0.0 0.0 
0.0 0.0 0.0 
0.0 0.0 0.0 
0.0 0.0 0.0 
0.0 0.0 0.0 
0.0 0.0 0.0 
0.0 0.0 0.0 
0.0 0.0 0.0 
0.0 0.0 0.0 
0.0 0.0 0.0 
0.0 0.0 0.0 
0.0 0.0 0.0 
0.0 0.0 0.0 
0.0 0.0 0.0 
0.0 0.0 0.0 
0.0 0.0 0.0 
0.0 0.0 0.0 
0.0 0.0 0.0 
0.0 0.0 0.0 
0.0 0.0 0.0 
0.0 0.0 0.0 
0.0 0.0 0.0 
0.0 0.0 0.0 
0.0 0.0 0.0 
0.0 0.0 0.0 
0.0 0.0 0.0 
0.0 0.0 0.0 
0.0 0.0 0.0 
0.0 0.0 0.0 
0.0 0.0 0.0 
0.0 0.0 0.0 
0.0 0.0 0.0 
0.0 0.0 0.0 
0.0 0.0 0.0 
0.0 0.0 0.0 
0.0 0.0 0.0 
0.0 0.0 0.0 
0.0 0.0 0.0 
0.0 0.0 0.0 
0.0 0.0 0.0 
0.0 0.0 0.0 
0.0 0.0 0.0 
0.0 0.0 0.0 
0.0 0.0 0.0 
0.0 0.0 0.0 
0.0 0.0 0.0 
0.0 0.0 0.0 
0.0 0.0 0.0 
0.0 0.0 0.0 
0.0 0.0 0.0 
0.0 0.0 0.0 
0.0 0.0 0.0 
0.0 0.0 0.0 
0.0 0.0 0.0 
0.0 0.0 0.0 
0.0 0.0 0.0 
0.0 0.0 0.0 
0.0 0.0 0.0 
0.0 0.0 0.0 
0.0 0.0 0.0 
0.0 0.0 0.0 
0.0 0.0 0.0 
0.0 0.0 0.0 
0.0 0.0 0.0 
0.0 0.0 0.0 
0.0 0.0 0.0 
0.0 0.0 0.0 
0.0 0.0 0.0 
0.0 0.0 0.0 
0.0 0.0 0.0 
0.0 0.0 0.0 
0.0 0.0 0.0 
0.0 0.0 0.0 
0.0 0.0 0.0 
0.0 0.0 0.0 
0.0 0.0 0.0 
0.0 0.0 0.0 
0.0 0.0 0.0 
0.0 0.0 0.0 
0.0 0.0 0.0 
0.0 0.0 0.0 
0.0 0.0 0.0 
0.0 0.0 0.0 
0.0 0.0 0.0 
0.0 0.0 0.0 
0.0 0.0 0.0 
0.0 0.0 0.0 
0.0 0.0 0.0 
0.0 0.0 0.0 
0.0 0.0 0.0 
0.0 0.0 0.0 
0.0 0.0 0.0 
0.0 0.0 0.0 
0.0 0.0 0.0 
0.0 0.0 0.0 
0.0 0.0 0.0 
0.0 0.0 0.0 
0.0 0.0 0.0 
0.0 0.0 0.0 
0.0 0.0 0.0 
0.0 0.0 0.0 
0.0 0.0 0.0 
0.0 0.0 0.0 
0.0 0.0 0.0 
0.0 0.0 0.0 
0.0 0.0 0.0 
0.0 0.0 0.0 
0.0 0.0 0.0 
0.0 0.0 0.0 
0.0 0.0 0.0 
0.0 0.0 0.0 
0.0 0.0 0.0 
0.0 0.0 0.0 
0.0 0.0 0.0 
0.0 0.0 0.0 
0.0 0.0 0.0 
0.0 0.0 0.0 
0.0 0.0 0.0 
0.0 0.0 0.0 
0.0 0.0 0.0 
0.0 0.0 0.0 
0.0 0.0 0.0 
0.0 0.0 0.0 
0.0 0.0 0.0 
0.0 0.0 0.0 
0.0 0.0 0.0 
0.0 0.0 0.0 
0.0 0.0 0.0 
0.0 0.0 0.0 
0.0 0.0 0.0 
0.0 0.0 0.0 
0.0 0.0 0.0 
0.0 0.0 0.0 
0.0 0.0 0.0 
0.0 0.0 0.0 
0.0 0.0 0.0 
0.0 0.0 0.0 
0.0 0.0 0.0 
0.0 0.0 0.0 
0.0 0.0 0.0 
0.0 0.0 0.0 
0.0 0.0 0.0 
0.0 0.0 0.0 
0.0 0.0 0.0 
0.0 0.0 0.0 
0.0 0.0 0.0 
0.0 0.0 0.0 
0.0 0.0 0.0 
0.0 0.0 0.0 
0.0 0.0 0.0 
0.0 0.0 0.0 
0.0 0.0 0.0 
0.0 0.0 0.0 
0.0 0.0 0.0 
0.0 0.0 0.0 
0.0 0.0 0.0 
0.0 0.0 0.0 
0.0 0.0 0.0 
0.0 0.0 0.0 
0.0 0.0 0.0 
0.0 0.0 0.0 
0.0 0.0 0.0 
0.0 0.0 0.0 
0.0 0.0 0.0 
0.0 0.0 0.0 
0.0 0.0 0.0 
0.0 0.0 0.0 
0.0 0.0 0.0 
0.0 0.0 0.0 
0.0 0.0 0.0 
0.0 0.0 0.0 
0.0 0.0 0.0 
0.0 0.0 0.0 
0.0 0.0 0.0 
0.0 0.0 0.0 
0.0 0.0 0.0 
0.0 0.0 0.0 
0.0 0.0 0.0 
0.0 0.0 0.0 
0.0 0.0 0.0 
0.0 0.0 0.0 
0.0 0.0 0.0 
0.0 0.0 0.0 
0.0 0.0 0.0 
0.0 0.0 0.0 
0.0 0.0 0.0 
0.0 0.0 0.0 
0.0 0.0 0.0 
0.0 0.0 0.0 
0.0 0.0 0.0 
0.0 0.0 0.0 
0.0 0.0 0.0 
0.0 0.0 0.0 
0.0 0.0 0.0 
0.0 0.0 0.0 
0.0 0.0 0.0 
0.0 0.0 0.0 
0.0 0.0 0.0 
0.0 0.0 0.0 
0.0 0.0 0.0 
0.0 0.0 0.0 
0.0 0.0 0.0 
0.0 0.0 0.0 
0.0 0.0 0.0 
0.0 0.0 0.0 
0.0 0.0 0.0 
0.0 0.0 0.0 
0.0 0.0 0.0 
0.0 0.0 0.0 
0.0 0.0 0.0 
0.0 0.0 0.0 
0.0 0.0 0.0 
0.0 0.0 0.0 
0.0 0.0 0.0 
0.0 0.0 0.0 
0.0 0.0 0.0 
0.0 0.0 0.0 
0.0 0.0 0.0 
0.0 0.0 0.0 
0.0 0.0 0.0 
0.0 0.0 0.0 
0.0 0.0 0.0 
0.0 0.0 0.0 
0.0 0.0 0.0 
0.0 0.0 0.0 
0.0 0.0 0.0 
0.0 0.0 0.0 
0.0 0.0 0.0 
0.0 0.0 0.0 

VECTORS node_materi_velocity float
0.0 -5.659627825756e-04 0.0 
0.0 9.881776471265e-03 0.0 
0.0 0.0 0.0 
0.0 0.0 0.0 
0.0 -5.595815997148e-04 0.0 
0.0 -5.510343195442e-04 0.0 
0.0 -5.392235035150e-04 0.0 
0.0 -5.233234579628e-04 0.0 
0.0 -5.020200435123e-04 0.0 
0.0 -4.755828945667e-04 0.0 
0.0 -4.441283454578e-04 0.0 
0.0 -4.078224350383e-04 0.0 
0.0 -3.673645693281e-04 0.0 
0.0 -3.235531275589e-04 0.0 
0.0 -2.774976964174e-04 0.0 
0.0 -2.307432028780e-04 0.0 
0.0 -1.845947395888e-04 0.0 
0.0 -1.399008251736e-04 0.0 
0.0 -9.889614452735e-05 0.0 
0.0 -6.304444586252e-05 0.0 
0.0 -3.370678073808e-05 0.0 
0.0 -1.276587154345e-05 0.0 
0.0 -1.893597146297e-06 0.0 
0.0 0.0 0.0 
0.0 0.0 0.0 
0.0 0.0 0.0 
0.0 0.0 0.0 
0.0 0.0 0.0 
0.0 0.0 0.0 
0.0 0.0 0.0 
0.0 0.0 0.0 
0.0 0.0 0.0 
0.0 0.0 0.0 
0.0 0.0 0.0 
0.0 0.0 0.0 
0.0 0.0 0.0 
0.0 0.0 0.0 
0.0 0.0 0.0 
0.0 0.0 0.0 
0.0 0.0 0.0 
0.0 0.0 0.0 
0.0 0.0 0.0 
0.0 0.0 0.0 
0.0 0.0 0.0 
0.0 0.0 0.0 
0.0 0.0 0.0 
0.0 0.0 0.0 
0.0 0.0 0.0 
0.0 0.0 0.0 
0.0 0.0 0.0 
0.0 0.0 0.0 
0.0 0.0 0.0 
0.0 0.0 0.0 
0.0 0.0 0.0 
0.0 0.0 0.0 
0.0 0.0 0.0 
0.0 0.0 0.0 
0.0 0.0 0.0 
0.0 0.0 0.0 
0.0 0.0 0.0 
0.0 0.0 0.0 
0.0 0.0 0.0 
0.0 0.0 0.0 
0.0 0.0 0.0 
0.0 0.0 0.0 
0.0 0.0 0.0 
0.0 0.0 0.0 
0.0 0.0 0.0 
0.0 0.0 0.0 
0.0 0.0 0.0 
0.0 0.0 0.0 
0.0 0.0 0.0 
0.0 8.870972431909e-03 0.0 
0.0 7.861240787630e-03 0.0 
0.0 6.854051141001e-03 0.0 
0.0 5.850364824313e-03 0.0 
0.0 4.852239249700e-03 0.0 
0.0 3.861028984768e-03 0.0 
0.0 2.878598632730e-03 0.0 
0.0 1.906712562425e-03 0.0 
0.0 9.471542332504e-04 0.0 
-8.783630265688e-04 1.172840757196e-03 0.0 
1.830681457252e-03 9.474691383712e-03 0.0 
-7.549176955010e-04 1.676967356379e-03 0.0 
-6.662734995496e-04 2.386591453809e-03 0.0 
-4.890918887950e-04 3.435754636754e-03 0.0 
1.606579014130e-04 5.076869090249e-03 0.0 
1.458255876886e-04 8.373476305194e-03 0.0 
1.043033235878e-03 1.014868224146e-02 0.0 
1.619271691906e-03 1.063009975112e-02 0.0 
1.870789943350e-03 1.054874909843e-02 0.0 
1.916831330019e-03 1.012309475648e-02 0.0 
0.0 1.497756165252e-02 0.0 
0.0 1.393564120432e-02 0.0 
0.0 1.291773651332e-02 0.0 
0.0 1.190538383271e-02 0.0 
0.0 1.089319430860e-02 0.0 
1.060193336251e-04 9.883787471011e-03 0.0 
2.132661341953e-04 9.890005568461e-03 0.0 
3.213869429485e-04 9.898979856062e-03 0.0 
4.304616056764e-04 9.909714539508e-03 0.0 
5.405880691178e-04 9.920575409929e-03 0.0 
6.516580712793e-04 9.930392315979e-03 0.0 
7.646003721091e-04 9.938207885175e-03 0.0 
8.793072555811e-04 9.941007869167e-03 0.0 
9.972259923566e-04 9.937190188053e-03 0.0 
1.119103256418e-03 9.922763984788e-03 0.0 
1.245571173651e-03 9.892477127917e-03 0.0 
1.378388984229e-03 9.840682841657e-03 0.0 
1.518906380746e-03 9.760397092592e-03 0.0 
1.668733511798e-03 9.641785701405e-03 0.0 
-8.048883288904e-04 8.710772680241e-04 0.0 
-7.037372766961e-04 5.922735763337e-04 0.0 
-5.934916273617e-04 3.528871939715e-04 0.0 
-4.815441624875e-04 1.526521862975e-04 0.0 
-3.800282883515e-04 -1.226610294078e-05 0.0 
-2.889456387634e-04 -1.456347956883e-04 0.0 
-2.089593428012e-04 -2.518388830659e-04 0.0 
-1.409467301239e-04 -3.357348959348e-04 0.0 
-8.453031955407e-05 -4.005826884998e-04 0.0 
-3.947725146296e-05 -4.495851419308e-04 0.0 
-5.172112653590e-06 -4.868668646612e-04 0.0 
1.997633466010e-05 -5.130520527522e-04 0.0 
3.576869208767e-05 -5.320677776466e-04 0.0 
4.480883372130e-05 -5.451866044665e-04 0.0 
4.727361060536e-05 -5.542711070034e-04 0.0 
4.422465886006e-05 -5.598003775204e-04 0.0 
3.673854479921e-05 -5.630661177691e-04 0.0 
2.608439516681e-05 -5.651072618215e-04 0.0 
1.358848209469e-05 -5.658268003837e-04 0.0 
-4.047645570077e-04 1.054276457949e-02 0.0 
-1.602388213995e-04 1.169108726776e-02 0.0 
7.112243559077e-05 1.254943480366e-02 0.0 
3.204378654640e-04 1.318564204481e-02 0.0 
5.489844246437e-04 1.367212826617e-02 0.0 
7.391205120499e-04 1.403729184038e-02 0.0 
8.878586709559e-04 1.431498071920e-02 0.0 
9.951083886813e-04 1.452168420817e-02 0.0 
1.064184533868e-03 1.467537112351e-02 0.0 
1.099381552293e-03 1.478734289493e-02 0.0 
1.105318764228e-03 1.486737723390e-02 0.0 
1.085990790985e-03 1.492245780156e-02 0.0 
1.044977073578e-03 1.495859762125e-02 0.0 
9.856593278315e-04 1.498061146954e-02 0.0 
9.111337942974e-04 1.499228532853e-02 0.0 
8.242061681481e-04 1.499663968618e-02 0.0 
7.274161492123e-04 1.499603054251e-02 0.0 
6.234079957070e-04 1.499241178071e-02 0.0 
5.153647562981e-04 1.498724993515e-02 0.0 
4.077715494512e-04 1.498094378751e-02 0.0 
3.068758398567e-04 1.497054994760e-02 0.0 
1.780812314737e-04 1.497229110610e-02 0.0 
1.340309813935e-04 1.394221789756e-02 0.0 
2.596849424179e-04 1.395436850868e-02 0.0 
3.770039694008e-04 1.396345324787e-02 0.0 
4.893154047763e-04 1.397097864901e-02 0.0 
5.972059146140e-04 1.397813253519e-02 0.0 
6.998361766242e-04 1.398430873104e-02 0.0 
7.957791794481e-04 1.398797580713e-02 0.0 
8.833643662136e-04 1.398705900774e-02 0.0 
9.608092009366e-04 1.397896451295e-02 0.0 
1.026252717530e-03 1.396035827711e-02 0.0 
1.077825245313e-03 1.392698942825e-02 0.0 
1.113714220562e-03 1.387344420028e-02 0.0 
1.132274850082e-03 1.379301999759e-02 0.0 
1.132420512921e-03 1.367718888072e-02 0.0 
1.113973056263e-03 1.351464338860e-02 0.0 
1.078734795921e-03 1.329016883821e-02 0.0 
1.031097127746e-03 1.298400813541e-02 0.0 
9.811265088397e-04 1.256823169682e-02 0.0 
9.461471143649e-04 1.200839909773e-02 0.0 
9.421317512331e-04 1.124366523600e-02 0.0 
1.507307141596e-03 1.129580304882e-02 0.0 
1.437224387604e-03 1.178271990976e-02 0.0 
1.381095384387e-03 1.214272570025e-02 0.0 
1.336550422589e-03 1.240852191995e-02 0.0 
1.294958119473e-03 1.260135845826e-02 0.0 
1.251452903265e-03 1.273953302959e-02 0.0 
1.202609398641e-03 1.283604964233e-02 0.0 
1.146772751682e-03 1.290129827264e-02 0.0 
1.083235979983e-03 1.294299027438e-02 0.0 
1.011961012179e-03 1.296720003919e-02 0.0 
9.332852376274e-04 1.297876564093e-02 0.0 
8.478137205482e-04 1.298151673041e-02 0.0 
7.563209441403e-04 1.297845220429e-02 0.0 
6.595752127754e-04 1.297185355018e-02 0.0 
5.582598284115e-04 1.296341927308e-02 0.0 
4.528253786439e-04 1.295419821676e-02 0.0 
3.434514808258e-04 1.294436399502e-02 0.0 
2.305035619933e-04 1.293344494598e-02 0.0 
1.152331423810e-04 1.292386786781e-02 0.0 
1.119001884164e-04 1.190833129397e-02 0.0 
2.251186244243e-04 1.191779653076e-02 0.0 
3.375122583136e-04 1.192886381323e-02 0.0 
4.480238306223e-04 1.194009512023e-02 0.0 
5.561938497906e-04 1.195102005144e-02 0.0 
6.618555510291e-04 1.196104004312e-02 0.0 
7.647797832612e-04 1.196895647754e-02 0.0 
8.648918771997e-04 1.197279591036e-02 0.0 
9.620240943384e-04 1.197003383838e-02 0.0 
1.056187758387e-03 1.195706847172e-02 0.0 
1.147766228069e-03 1.192930630837e-02 0.0 
1.237513638335e-03 1.188102031250e-02 0.0 
1.326764328611e-03 1.180484064637e-02 0.0 
1.417694044937e-03 1.169144994622e-02 0.0 
1.513053755100e-03 1.152762620562e-02 0.0 
1.617574817032e-03 1.129877490958e-02 0.0 
1.732298090319e-03 1.098290481644e-02 0.0 
1.766477032588e-03 1.039171669113e-02 0.0 
1.632329591599e-03 1.058554821410e-02 0.0 
1.505026258535e-03 1.072395175217e-02 0.0 
1.386220177577e-03 1.082088039809e-02 0.0 
1.273144383918e-03 1.088552850336e-02 0.0 
1.163934297066e-03 1.092594247991e-02 0.0 
1.057111250381e-03 1.094841677119e-02 0.0 
9.515335209610e-04 1.095782774847e-02 0.0 
8.465559455338e-04 1.095845970986e-02 0.0 
7.418064016725e-04 1.095353801331e-02 0.0 
6.367219400208e-04 1.094482732903e-02 0.0 
5.312016208587e-04 1.093448190357e-02 0.0 
4.250708643175e-04 1.092336010869e-02 0.0 
3.184223693249e-04 1.091239490251e-02 0.0 
2.117981501571e-04 1.090272301602e-02 0.0 
1.058120071218e-04 1.089604706283e-02 0.0 
-7.976614858321e-04 1.413622954173e-03 0.0 
-7.129278294191e-04 1.999043038504e-03 0.0 
-5.991129187470e-04 2.858088334024e-03 0.0 
-2.832140024072e-04 4.150162941950e-03 0.0 
1.577002063785e-04 6.761539627176e-03 0.0 
6.493628085846e-04 9.469903642735e-03 0.0 
1.393703542230e-03 1.047475342738e-02 0.0 
1.781347171317e-03 1.064061893957e-02 0.0 
1.917232458006e-03 1.036807304156e-02 0.0 
1.888343690051e-03 9.820381711229e-03 0.0 
-4.535528131294e-04 1.992316917769e-03 0.0 
3.431174159135e-04 8.970868234146e-05 0.0 
-9.118701649237e-06 -4.407742122381e-04 0.0 
-2.898097124372e-04 3.879347995018e-05 0.0 
1.977819902564e-04 3.168054983282e-05 0.0 
3.436324436111e-04 4.279866986091e-03 0.0 
5.941489425737e-05 -2.998294618513e-04 0.0 
4.834087659165e-04 1.817256246348e-04 0.0 
1.621348018561e-03 8.529198723526e-03 0.0 
5.775793626036e-04 3.143383370241e-04 0.0 
2.162574540925e-03 9.677972070540e-03 0.0 
1.035050022102e-04 1.077188345685e-05 0.0 
5.881426938250e-05 -5.422632371682e-04 0.0 
5.990825271769e-04 4.957503243179e-04 0.0 
2.022449925879e-03 8.877029425942e-03 0.0 
4.096674367909e-05 -4.596409116306e-04 0.0 
6.195165548885e-05 -1.704556004118e-04 0.0 
5.536556680912e-04 6.430990380678e-04 0.0 
3.798454807270e-04 7.256473581340e-04 0.0 
1.010015279810e-04 8.059625676904e-04 0.0 
1.920022774013e-04 8.640973174518e-04 0.0 
2.630672844527e-04 7.525457141728e-04 0.0 
1.647539635816e-03 8.796758826442e-03 0.0 
1.071505956686e-03 9.007899280179e-03 0.0 
7.041843859934e-04 8.989722911733e-03 0.0 
6.669595833788e-05 5.335500466119e-03 0.0 
6.117080953086e-05 3.576053630087e-06 0.0 
-5.479424364880e-04 7.091908644165e-04 0.0 
4.727584473529e-05 -5.581979599157e-04 0.0 
4.276565522535e-05 -4.932075854153e-05 0.0 
3.627214772687e-04 9.029318419204e-03 0.0 
2.617731476246e-05 -5.325400934651e-04 0.0 
5.255152334802e-04 7.868069019774e-04 0.0 
4.978259560963e-04 2.236125146625e-04 0.0 
5.956892472251e-04 3.976249130042e-04 0.0 
4.410804059791e-04 1.397282095651e-04 0.0 
2.655115989009e-04 5.717151437927e-05 0.0 
-1.448089820171e-04 -2.277074985730e-04 0.0 
1.342417274154e-03 9.004262930036e-03 0.0 
1.724229088114e-04 2.143881914431e-05 0.0 
5.055430702777e-05 3.410684788517e-03 0.0 
3.945357849457e-05 -5.087920084397e-04 0.0 
5.283352934930e-05 -3.881903674687e-04 0.0 
5.038031269455e-05 6.552619809207e-04 0.0 
9.678573053903e-04 6.237990335166e-03 0.0 
-2.005475146891e-04 2.879894258675e-03 0.0 
2.006614138516e-03 9.485017521440e-03 0.0 
2.150499455768e-03 9.419102886697e-03 0.0 
-6.145137012030e-04 1.391249966602e-03 0.0 
8.131300662135e-05 7.237468334919e-03 0.0 
2.735535099513e-05 8.961998734464e-07 0.0 
2.266364663684e-05 -5.607351159701e-04 0.0 
2.759198225662e-05 1.495975738310e-03 0.0 
1.954607779193e-03 8.494339713562e-03 0.0 
2.114046694888e-03 7.920701970353e-03 0.0 
1.951323959593e-03 7.656744205220e-03 0.0 
2.131816329485e-03 6.992982270823e-03 0.0 
1.970286565626e-03 6.624127716204e-03 0.0 
2.101855158627e-03 6.048308777531e-03 0.0 
2.284276265566e-03 6.364643712529e-03 0.0 
2.215974519562e-03 5.458424308588e-03 0.0 
2.412810305406e-03 5.731609737394e-03 0.0 
1.908715677627e-03 5.673082436103e-03 0.0 
2.302245237312e-03 4.863811925839e-03 0.0 
2.509438907512e-03 5.093426543856e-03 0.0 
2.354994247687e-03 4.275158393070e-03 0.0 
2.566944290536e-03 4.462750110419e-03 0.0 
2.697176626710e-03 5.253052022680e-03 0.0 
2.755500747533e-03 4.580221455272e-03 0.0 
2.858699527625e-03 5.330013987776e-03 0.0 
2.912601318835e-03 4.612613667811e-03 0.0 
2.766838730831e-03 3.937089389006e-03 0.0 
2.915302939255e-03 3.937337829694e-03 0.0 
3.030574352621e-03 4.554024118089e-03 0.0 
3.019079203454e-03 3.852411331620e-03 0.0 
3.099757663110e-03 4.398909249886e-03 0.0 
3.070016523634e-03 3.681261017204e-03 0.0 
3.111045830269e-03 4.146534776947e-03 0.0 
3.062145853970e-03 3.433421737768e-03 0.0 
2.993803195747e-03 3.047528998285e-03 0.0 
2.972166830955e-03 2.817089218320e-03 0.0 
2.991785426338e-03 3.123818610698e-03 0.0 
2.892796169522e-03 2.539771102324e-03 0.0 
2.859928643709e-03 2.771916904343e-03 0.0 
2.759566832467e-03 2.233061285739e-03 0.0 
2.768340233618e-03 2.048975581509e-03 0.0 
2.639381072861e-03 1.786207533527e-03 0.0 
2.580271533313e-03 1.915095596575e-03 0.0 
2.471941216638e-03 1.517872846416e-03 0.0 
2.366564113892e-03 1.602552353179e-03 0.0 
2.276463502431e-03 1.255851759138e-03 0.0 
2.131814251080e-03 1.307529955162e-03 0.0 
2.062657343286e-03 1.007526096440e-03 0.0 
2.173860325622e-03 9.715145275994e-04 0.0 
1.980091754199e-03 7.617858207556e-04 0.0 
1.841019117453e-03 7.794706008523e-04 0.0 
1.779489935429e-03 5.690732957545e-04 0.0 
1.884962922053e-03 5.632795477089e-04 0.0 
1.703833348211e-03 4.000496672709e-04 0.0 
1.778988912049e-03 4.047075970485e-04 0.0 
1.616289417726e-03 2.660686612016e-04 0.0 
1.523861553732e-03 2.529652358868e-04 0.0 
1.453288923810e-03 1.402699479095e-04 0.0 
1.519354626014e-03 1.618796588780e-04 0.0 
1.371717673642e-03 5.363848419533e-05 0.0 
1.292210113020e-03 2.676330100394e-05 0.0 
1.226343933657e-03 -4.355434533938e-05 0.0 
1.282915568049e-03 -1.044765164718e-05 0.0 
1.151023311074e-03 -9.470282550160e-05 0.0 
1.085061410688e-03 -1.301832546833e-04 0.0 
1.022537114241e-03 -1.697040130375e-04 0.0 
1.070099605140e-03 -1.291293660520e-04 0.0 
9.525955939124e-04 -1.952080817796e-04 0.0 
8.984022778706e-04 -2.361642325258e-04 0.0 
8.393752591903e-04 -2.533009082752e-04 0.0 
8.779578340042e-04 -2.088185016183e-04 0.0 
7.741679169675e-04 -2.606865075908e-04 0.0 
7.991515764181e-04 -2.135981943694e-04 0.0 
7.294003603363e-04 -3.050450537054e-04 0.0 
6.738075809562e-04 -3.065598475855e-04 0.0 
6.251079220223e-04 -3.501461192697e-04 0.0 
5.781422760228e-04 -3.467227038764e-04 0.0 
2.624281679887e-03 1.639548688677e-03 0.0 
5.291245107562e-04 -3.881722866565e-04 0.0 
5.638942511432e-04 -3.881317587246e-04 0.0 
4.885422267630e-04 -3.814163160513e-04 0.0 
5.253859086890e-04 -3.378478508291e-04 0.0 
4.406976795602e-04 -4.203802521181e-04 0.0 
4.054819605462e-04 -4.111509602361e-04 0.0 
3.604097259008e-04 -4.473160462359e-04 0.0 
2.175655479323e-03 1.672826211541e-03 0.0 
2.730504199148e-03 3.336766252852e-03 0.0 
3.295426077248e-04 -4.364691301926e-04 0.0 
2.886298409263e-04 -4.695840276633e-04 0.0 
3.088971634040e-04 -4.776341308397e-04 0.0 
2.433934560076e-04 -4.967272481274e-04 0.0 
1.790397628076e-03 6.227899579308e-03 0.0 
1.706713132802e-03 5.261730769505e-03 0.0 
1.606264968561e-03 5.796684919066e-03 0.0 
1.499102699965e-03 4.824824166283e-03 0.0 
1.416571304513e-03 5.333490595569e-03 0.0 
2.253881780747e-04 -4.879168635597e-04 0.0 
2.124504190211e-03 3.999107939601e-03 0.0 
1.564744875902e-03 4.305226044149e-03 0.0 
3.074371459690e-03 5.192539782468e-03 0.0 
2.934404938201e-03 3.417804491475e-03 0.0 
1.934950799301e-03 5.539413141506e-04 0.0 
3.641029319672e-04 -3.980571530126e-04 0.0 
2.923238630157e-04 -4.225150143132e-04 0.0 
3.175157790309e-04 -3.822513885327e-04 0.0 
8.939669748066e-04 -1.622572104455e-04 0.0 
8.024688536362e-04 -1.656767323613e-04 0.0 
8.848563131140e-04 -1.159466446124e-04 0.0 
7.827521980231e-04 -1.188687793220e-04 0.0 
8.493248326400e-04 -7.210688852740e-05 0.0 
7.392760653182e-04 -7.525559792164e-05 0.0 
6.828302603279e-04 -1.165983242022e-04 0.0 
6.338565442207e-04 -7.383176877940e-05 0.0 
5.862679664811e-04 -1.105501065470e-04 0.0 
7.869336364920e-04 -3.300549627033e-05 0.0 
9.077965597448e-04 -2.368991939185e-05 0.0 
5.340749900071e-04 -6.920553381564e-05 0.0 
4.940810574038e-04 -1.019420187622e-04 0.0 
4.408063270183e-04 -6.255885593263e-05 0.0 
4.072180337372e-04 -9.172130649501e-05 0.0 
4.463653642780e-04 -1.344294548725e-04 0.0 
3.653036300142e-04 -1.211587549141e-04 0.0 
3.928947726607e-04 -1.661752228482e-04 0.0 
1.802061100296e-03 4.057427866354e-04 0.0 
1.927714010431e-03 5.381086160959e-04 0.0 
1.771388420533e-03 4.006762224311e-04 0.0 
1.861616332036e-03 5.129895465338e-04 0.0 
1.685984408659e-03 3.871385764505e-04 0.0 
1.736639415448e-03 4.768008213198e-04 0.0 
1.545486989879e-03 3.632530844574e-04 0.0 
1.510180173283e-03 2.893125330595e-04 0.0 
2.370895097316e-03 3.692606810457e-03 0.0 
1.621398966239e-03 5.743010413359e-04 0.0 
1.645178945037e-03 7.958391914788e-04 0.0 
1.415432589425e-03 5.826642951554e-04 0.0 
1.398470733250e-03 8.141400148453e-04 0.0 
1.168789208144e-03 5.970096610848e-04 0.0 
1.109309226156e-03 8.393453157615e-04 0.0 
8.898335437657e-04 6.213803301783e-04 0.0 
9.625194452672e-04 4.089711628455e-04 0.0 
6.983526311850e-04 4.329798012224e-04 0.0 
7.788601955605e-04 2.458199599903e-04 0.0 
5.329505315108e-04 2.686491219082e-04 0.0 
6.162143217961e-04 1.043757832812e-04 0.0 
2.879890648423e-03 2.498354934403e-03 0.0 
1.927718462410e-03 6.220383253753e-04 0.0 
1.758401898029e-03 5.579930585666e-04 0.0 
1.962838658565e-03 7.216232945414e-04 0.0 
2.533583413124e-04 -5.015287702308e-04 0.0 
3.263723142960e-04 -8.053846583042e-05 0.0 
8.228611053662e-04 8.999204143406e-06 0.0 
9.553759132536e-04 2.483791360730e-05 0.0 
1.357115045970e-03 2.748041371981e-04 0.0 
1.871696107814e-04 -5.118559727544e-04 0.0 
7.898514127803e-04 8.762567531942e-04 0.0 
1.019310771013e-03 1.129439678498e-03 0.0 
1.291649415674e-03 4.357036653954e-03 0.0 
1.227241681408e-03 4.847420354471e-03 0.0 
8.437480531953e-04 4.924007838670e-05 0.0 
1.705126263497e-04 -5.030560662666e-04 0.0 
5.639914007662e-04 -3.702499551789e-05 0.0 
4.224034677189e-04 4.703062900763e-04 0.0 
2.890715938176e-04 -1.072231141648e-04 0.0 
2.521398476452e-04 -6.887456257199e-05 0.0 
6.201978281290e-04 -1.561615279782e-04 0.0 
1.745453792332e-03 6.253376606999e-04 0.0 
1.964985395062e-03 8.068976023594e-04 0.0 
8.351998927718e-04 9.436309076468e-05 0.0 
6.764077897075e-04 -2.744314665209e-05 0.0 
4.736232685978e-04 -1.819917395228e-05 0.0 
5.418713356500e-04 -1.358037185009e-04 0.0 
7.168675217947e-04 -1.314772772482e-04 0.0 
5.815980606718e-04 -2.208103472019e-04 0.0 
4.200520381755e-04 -2.245652681244e-04 0.0 
4.627138948416e-04 -2.965135521687e-04 0.0 
6.062637302460e-04 -2.853282348228e-04 0.0 
4.912626974832e-04 -3.490849599074e-04 0.0 
3.595281075221e-04 -3.586213582754e-04 0.0 
3.910673677187e-04 -4.014073183222e-04 0.0 
2.766581053905e-04 -4.603684874265e-05 0.0 
2.808950875790e-04 3.035312735923e-04 0.0 
2.754829488109e-03 6.070285552463e-03 0.0 
7.085066405760e-04 3.309923529367e-05 0.0 
1.353792398691e-03 3.284322558689e-04 0.0 
1.087954049217e-03 3.869072502140e-03 0.0 
1.041239789281e-03 4.344353733376e-03 0.0 
1.150164508163e-03 5.337438370191e-03 0.0 
9.808767706935e-04 4.818268834497e-03 0.0 
8.618943878975e-04 3.828897421881e-03 0.0 
8.178882454688e-04 4.291945220987e-03 0.0 
9.108184753094e-04 5.289816717344e-03 0.0 
7.625654998783e-04 4.753138474107e-03 0.0 
8.339213191550e-04 5.756832347679e-03 0.0 
6.987362427123e-04 5.211300949213e-03 0.0 
6.221542601845e-04 4.212756491212e-03 0.0 
5.705887371045e-04 4.665082398405e-03 0.0 
6.287320606505e-04 5.667060910811e-03 0.0 
5.112110470610e-04 5.115897887858e-03 0.0 
5.542113668471e-04 6.119817902968e-03 0.0 
4.455782883056e-04 5.565107700286e-03 0.0 
4.018606228859e-04 4.566301309483e-03 0.0 
1.415785739625e-04 -5.233055096617e-04 0.0 
1.336887012502e-03 2.143801559458e-04 0.0 
1.173859205600e-03 2.070257109379e-04 0.0 
2.515832098408e-04 -4.063101203799e-04 0.0 
2.687719686599e-04 -3.643386056464e-04 0.0 
3.356701666383e-04 -3.379970989053e-04 0.0 
2.775014945761e-04 -3.195414040578e-04 0.0 
3.429792039987e-04 5.017074154936e-03 0.0 
3.025234933572e-04 4.020307120958e-03 0.0 
6.611081731726e-04 1.178171416507e-03 0.0 
8.971101425368e-04 1.474570391066e-03 0.0 
1.116618816764e-03 3.394077131954e-03 0.0 
2.182743572041e-04 -9.319191846298e-05 0.0 
2.447609032414e-04 -1.343520277101e-04 0.0 
2.745862718640e-03 2.984215491421e-03 0.0 
2.790735819951e-03 3.687159011489e-03 0.0 
2.542347551380e-03 3.171894032648e-03 0.0 
2.541366634749e-03 3.927380301056e-03 0.0 
2.795739113816e-03 4.533981394750e-03 0.0 
2.225555543109e-03 3.324549714836e-03 0.0 
1.033831404855e-03 -7.893074421146e-06 0.0 
4.919814272369e-04 3.672220438223e-03 0.0 
3.208671811629e-04 -4.807948614388e-04 0.0 
2.541113227105e-04 -5.011083166422e-04 0.0 
1.850515596156e-04 -5.748600729538e-05 0.0 
1.452093139579e-03 2.109677361733e-04 0.0 
2.854995404990e-03 2.657376266184e-03 0.0 
2.716641651761e-03 2.169038494922e-03 0.0 
2.645627916750e-03 2.262735368569e-03 0.0 
2.482272199065e-03 1.832044526509e-03 0.0 
2.364373984557e-03 1.864704122415e-03 0.0 
2.175114256816e-03 1.490445261337e-03 0.0 
2.292329397549e-03 1.464755086388e-03 0.0 
1.691235412682e-03 6.714952684467e-04 0.0 
1.961378753925e-03 1.171312306066e-03 0.0 
3.809775941773e-04 6.022584113193e-03 0.0 
2.116176727489e-03 8.041597417366e-04 0.0 
6.157066058600e-04 -3.309659353109e-04 0.0 
1.509530322577e-04 -5.287587324237e-04 0.0 
2.692618999891e-04 -4.090967160429e-04 0.0 
1.240615673073e-04 -5.150609070956e-04 0.0 
1.469899479945e-04 -4.915910403143e-04 0.0 
7.003441017108e-04 6.317257310461e-05 0.0 
2.008258399819e-03 1.464253609829e-03 0.0 
2.197518729512e-03 1.840417615657e-03 0.0 
2.500668673941e-03 4.870593771216e-03 0.0 
2.743455903802e-03 5.547909594592e-03 0.0 
1.462009109003e-03 5.135909816912e-04 0.0 
1.492733260139e-03 6.331646675503e-03 0.0 
9.736421193545e-04 6.299212030158e-03 0.0 
8.798635988951e-04 6.769051058318e-03 0.0 
1.024724412713e-04 -5.342971845112e-04 0.0 
2.282537242835e-04 -3.589029437589e-04 0.0 
6.929519169650e-04 3.306876460529e-03 0.0 
1.278458249707e-03 1.428693367066e-03 0.0 
1.173352324439e-03 1.828075799164e-03 0.0 
1.461970720317e-04 5.192469943191e-04 0.0 
3.030669295931e-05 3.483541213132e-04 0.0 
2.540663930812e-04 4.457498491496e-03 0.0 
2.166081378880e-04 3.476186179131e-03 0.0 
3.449464234884e-04 -2.912351626419e-04 0.0 
2.806363259081e-04 -2.724399459291e-04 0.0 
8.459435343751e-04 8.593483830340e-05 0.0 
3.055587650893e-04 -4.437835740717e-04 0.0 
2.489415083720e-04 3.035176035789e-03 0.0 
1.293885469885e-03 1.487684382163e-04 0.0 
1.376048200728e-03 1.313668318899e-04 0.0 
2.119005385471e-04 -3.461709490372e-04 0.0 
4.975342644855e-04 1.530618309013e-03 0.0 
2.998247852319e-04 1.240386711087e-03 0.0 
7.395026697085e-04 -2.658320629523e-04 0.0 
4.083397956363e-04 -4.296588238094e-04 0.0 
1.012964994025e-04 -5.048136671947e-04 0.0 
6.692005830462e-04 8.663848213999e-05 0.0 
7.061839599839e-04 2.854185225103e-03 0.0 
2.083323872897e-03 1.160238106680e-03 0.0 
2.361457247961e-03 1.399965117788e-03 0.0 
1.730412676318e-03 9.064871232664e-04 0.0 
2.025208587816e-04 -4.496431568815e-04 0.0 
5.656933188184e-04 4.634875675479e-05 0.0 
1.535424846822e-04 -7.929818876254e-05 0.0 
1.812862703402e-03 1.408492542734e-03 0.0 
1.984978158109e-03 1.759787356861e-03 0.0 
1.565059040466e-03 1.779188641377e-03 0.0 
1.495006150325e-03 2.253949020514e-03 0.0 
1.039425242198e-03 2.311186911686e-03 0.0 
1.385159620581e-03 2.826280264506e-03 0.0 
2.453277512474e-03 6.628764947861e-03 0.0 
1.880992863349e-03 2.188601000415e-03 0.0 
2.888699098438e-03 6.108580784673e-03 0.0 
2.739509536022e-03 6.914408175212e-03 0.0 
2.840823782351e-03 6.918959194392e-03 0.0 
2.958325963392e-03 5.077525313963e-03 0.0 
2.877910666383e-03 6.117498393321e-03 0.0 
1.646552402705e-03 1.065832517763e-03 0.0 
2.078885679868e-03 7.120824308751e-04 0.0 
4.077943255509e-04 -3.088794872891e-04 0.0 
4.720161850463e-04 -1.807565971769e-04 0.0 
9.877916485198e-04 -1.059462075196e-04 0.0 
5.211307173563e-04 3.225147534123e-03 0.0 
3.922446073254e-04 2.690898250755e-03 0.0 
6.682787793114e-04 6.675851642606e-03 0.0 
5.823407080436e-04 7.129327695417e-03 0.0 
1.967727812738e-04 -5.187537273149e-04 0.0 
1.878604147871e-04 -5.141061540795e-04 0.0 
7.179138607834e-04 -2.115735677005e-04 0.0 
5.829107362651e-04 2.261643379908e-05 0.0 
9.022778017070e-04 2.906046284349e-03 0.0 
8.896282414014e-04 2.448850307351e-03 0.0 
1.122317494783e-03 2.920680186090e-03 0.0 
8.249686444385e-04 1.168556836031e-04 0.0 
1.411443078617e-03 3.938254245015e-04 0.0 
1.663344322620e-03 2.895494465800e-04 0.0 
1.603024140488e-04 1.600749147878e-04 0.0 
2.703829005791e-03 1.848273901882e-03 0.0 
1.423500717284e-04 -5.290533158635e-04 0.0 
2.552651359756e-03 3.283850597487e-03 0.0 
1.258942488728e-04 -4.633848252074e-05 0.0 
1.457778887707e-04 -2.884585892026e-05 0.0 
1.354177291406e-03 5.236148371228e-04 0.0 
2.228908584800e-03 8.227562890967e-03 0.0 
2.538093826039e-03 1.477620590675e-03 0.0 
2.465661059311e-03 1.301901188781e-03 0.0 
2.645491326199e-03 7.781952081061e-03 0.0 
2.708351988894e-03 7.758138075469e-03 0.0 
2.905738539451e-03 6.808447220877e-03 0.0 
2.730865880290e-03 7.610902352381e-03 0.0 
7.281129883276e-04 -3.049413275373e-04 0.0 
6.109295405290e-04 -3.610144510094e-04 0.0 
1.559301336287e-03 1.053882322647e-03 0.0 
1.567137961378e-03 8.773646839284e-04 0.0 
1.567601587065e-03 1.285708800838e-03 0.0 
1.729879493204e-03 1.612943246392e-03 0.0 
1.114430134216e-03 3.862946671782e-04 0.0 
1.234041630573e-03 3.866235724343e-04 0.0 
1.171519493794e-04 -4.787014566992e-04 0.0 
2.611528274694e-03 6.717792007135e-03 0.0 
5.350196509118e-04 2.336018851585e-03 0.0 
2.552508489025e-03 7.705535838161e-03 0.0 
4.464988424761e-04 3.451096959366e-05 0.0 
4.683787931939e-04 1.503381719390e-05 0.0 
-6.848787187436e-05 2.014147499976e-04 0.0 
6.234567262372e-05 1.633048145974e-05 0.0 
1.693620380143e-04 2.518662324412e-03 0.0 
8.757215426133e-04 2.890158796295e-03 0.0 
1.222949405295e-03 3.509638355976e-03 0.0 
5.639585511647e-04 2.362972653075e-03 0.0 
1.891684910987e-05 -4.987137236163e-06 0.0 
1.565520247305e-04 9.027787179072e-03 0.0 
9.399106733719e-05 -2.097364889581e-05 0.0 
3.037290011579e-03 5.538005121691e-03 0.0 
1.830542709178e-04 2.044707907938e-03 0.0 
2.361125418293e-03 1.176380676444e-03 0.0 
2.498302839417e-03 2.543302515112e-03 0.0 
1.001807576393e-03 1.179553740190e-04 0.0 
1.379157623451e-04 3.036423047942e-03 0.0 
1.014973790911e-04 1.965043053547e-03 0.0 
1.006506326219e-03 7.299116378342e-03 0.0 
9.039549759791e-04 7.786327634419e-03 0.0 
1.115371084805e-03 6.834630853425e-03 0.0 
2.892135855876e-04 7.125133901618e-04 0.0 
-4.555556500599e-05 8.102956566012e-04 0.0 
3.742593089464e-04 3.132878085160e-03 0.0 
2.272450465659e-04 -4.439010714830e-04 0.0 
1.864848041211e-04 -4.242204517611e-04 0.0 
3.212352341914e-04 -4.651507629057e-04 0.0 
4.104650811991e-04 -4.460752359053e-04 0.0 
4.143635553452e-04 -2.609975045080e-04 0.0 
4.828712481203e-04 -2.770071509459e-04 0.0 
2.475583431133e-03 2.749551657604e-03 0.0 
2.267629665338e-03 2.651234921098e-03 0.0 
2.777023674348e-03 2.761296750678e-03 0.0 
1.232777979256e-03 8.156167126096e-05 0.0 
1.286885657168e-03 5.350292147271e-05 0.0 
1.416370276968e-03 1.086608265462e-04 0.0 
4.001384356627e-04 2.281463782060e-03 0.0 
2.654797140441e-04 1.675218545776e-03 0.0 
8.555362706083e-04 -2.384972747484e-04 0.0 
8.753131207165e-04 -1.885334129772e-04 0.0 
7.027495869783e-04 -3.305550605305e-04 0.0 
5.168262891518e-04 1.912540795393e-03 0.0 
1.037837269124e-04 -9.277044249660e-06 0.0 
1.555961360700e-04 -1.389305083552e-05 0.0 
1.267983109319e-04 -5.201503161355e-04 0.0 
1.700559688243e-04 -5.010957881328e-04 0.0 
1.138895931167e-04 1.592912468052e-03 0.0 
-4.634141916336e-05 1.313259392617e-03 0.0 
8.611295331724e-04 2.033117847174e-03 0.0 
1.102755272229e-03 2.461264417211e-03 0.0 
6.111951150032e-04 1.527102127938e-03 0.0 
7.136253708318e-05 -4.946984583435e-04 0.0 
2.155797198874e-03 1.113487469378e-03 0.0 
6.287617993348e-04 1.062652319216e-04 0.0 
7.959558110094e-04 1.426100884596e-04 0.0 
4.505931002963e-04 7.343676549106e-05 0.0 
1.603990426502e-03 6.970332579951e-04 0.0 
1.215566612724e-03 5.081119580203e-04 0.0 
1.299336191264e-03 6.462106581590e-04 0.0 
-2.090849730044e-04 3.940238190825e-04 0.0 
7.618788468953e-05 2.364199704636e-03 0.0 
6.917196678526e-04 7.690203594040e-03 0.0 
-2.620313821996e-04 2.640363178276e-04 0.0 
5.968863084352e-04 8.179311549575e-03 0.0 
4.976315447119e-04 7.587608856106e-03 0.0 
5.169010930430e-04 8.662494530978e-03 0.0 
6.280379597952e-05 -5.162762776401e-04 0.0 
1.140489510569e-03 8.007472975762e-03 0.0 
1.265950791578e-03 7.400543123411e-03 0.0 
8.800881999894e-05 -5.021229683514e-04 0.0 
3.477814805130e-04 1.410399315722e-03 0.0 
9.730344282901e-05 -5.320426936549e-04 0.0 
1.101548864031e-04 -5.393449311122e-04 0.0 
3.373916145620e-04 2.438257689564e-05 0.0 
3.651342522951e-04 1.073606006221e-05 0.0 
2.426207818373e-04 1.874284384714e-05 0.0 
2.801927617571e-04 8.873207555543e-06 0.0 
3.776338908167e-04 -7.758718124385e-06 0.0 
2.907554212572e-04 -6.637859966357e-06 0.0 
8.098266276355e-04 8.338639734011e-03 0.0 
1.898829309130e-04 8.421981160500e-06 0.0 
2.132188850451e-04 -4.232766455381e-06 0.0 
1.240356004829e-04 5.194118414699e-06 0.0 
2.473515292067e-03 8.658204364405e-03 0.0 
1.737730864121e-03 3.418211878839e-03 0.0 
1.605911500339e-03 4.264128858034e-03 0.0 
9.905595706692e-04 4.381952427151e-03 0.0 
1.176758873059e-03 9.958843471145e-04 0.0 
1.465472106519e-03 1.437711306585e-03 0.0 
9.527842122011e-05 -6.526259163799e-05 0.0 
1.092408284266e-04 -1.015740455646e-04 0.0 
4.114731558603e-04 8.118922127912e-03 0.0 
3.007301464997e-04 8.153901235319e-03 0.0 
3.265143854029e-04 7.233645941956e-03 0.0 
2.356914133260e-04 7.339649375319e-03 0.0 
2.532497296572e-04 6.438775888939e-03 0.0 
1.630283453366e-04 6.549946929342e-03 0.0 
1.922137296388e-04 5.651442518759e-03 0.0 
1.084693807902e-03 5.837354444156e-04 0.0 
3.279794197789e-04 2.885088758970e-03 0.0 
2.412295094678e-03 8.626223839037e-03 0.0 
8.782298091208e-04 2.765148957706e-04 0.0 
1.040676315292e-03 2.974604263125e-04 0.0 
2.710129031873e-03 7.249080021707e-03 0.0 
2.359178107961e-03 8.017880361294e-03 0.0 
3.740979444605e-04 4.526100821265e-05 0.0 
1.899593023886e-03 1.729612219645e-03 0.0 
2.636570509393e-04 8.841041805678e-04 0.0 
-6.289069089766e-04 9.768941188350e-04 0.0 
-3.541694044218e-04 8.242630866168e-04 0.0 
2.194978039604e-03 2.115668717908e-03 0.0 
2.924022053832e-03 6.552108950544e-03 0.0 
2.139136670954e-03 4.118976037457e-03 0.0 
2.084519636959e-03 5.189222349315e-03 0.0 
1.139363785082e-03 1.038531385511e-04 0.0 
1.388413674724e-04 -4.787112895872e-04 0.0 
3.133703683512e-04 1.936382459583e-03 0.0 
2.806122889748e-04 5.555516126622e-03 0.0 
-9.774577708668e-05 1.967105737254e-03 0.0 
4.990178757684e-05 -8.214577994039e-05 0.0 
1.907134313132e-03 1.351480207267e-03 0.0 
3.076337810467e-03 4.613846060407e-03 0.0 
7.445620761802e-04 1.879807495788e-03 0.0 
1.870549053467e-03 2.765477759606e-03 0.0 
2.595215533024e-03 5.941326118336e-03 0.0 
2.288127275995e-03 7.293561118329e-03 0.0 
2.423114065510e-03 7.553779940064e-03 0.0 
1.885701060400e-03 1.038631488359e-03 0.0 
2.409277869837e-03 6.020017310546e-03 0.0 
1.904334745337e-03 6.561576272966e-03 0.0 
2.988373610780e-03 5.312657779919e-03 0.0 
1.363173838276e-03 3.370953392191e-03 0.0 
1.358520005117e-03 2.884451252998e-03 0.0 
1.059227832871e-03 2.036795689379e-03 0.0 
1.322513516958e-03 2.419997629535e-03 0.0 
1.618728963531e-03 3.283506114923e-03 0.0 
1.597057938948e-03 2.791101116360e-03 0.0 
1.252122613688e-03 1.983528139262e-03 0.0 
1.539757658085e-03 2.321284049007e-03 0.0 
1.050939158288e-03 1.414432416056e-03 0.0 
1.430639322646e-03 1.862756303039e-03 0.0 
1.823853256366e-03 2.637807058218e-03 0.0 
1.741280426694e-03 2.188074715356e-03 0.0 
1.345359397432e-03 1.541803928314e-03 0.0 
2.103814672062e-03 2.949348100789e-03 0.0 
7.128170462104e-04 2.465358237083e-04 0.0 
2.437953005958e-03 2.026134813030e-03 0.0 
-1.239241654590e-04 5.799699706022e-04 0.0 
-2.764414621313e-04 1.048247140829e-03 0.0 
3.107980733911e-03 4.961630448771e-03 0.0 
5.193697039596e-04 6.840353175176e-04 0.0 
4.301747763734e-04 7.274582952686e-04 0.0 
1.352188356691e-03 1.093585840910e-03 0.0 
6.003601682791e-04 4.446478464588e-04 0.0 
2.604819216402e-03 6.819603976060e-03 0.0 
5.896949329236e-04 6.605530933630e-04 0.0 
5.970055870030e-04 3.598718088924e-04 0.0 
1.606608433268e-03 3.788349119497e-03 0.0 
1.848025898836e-03 4.191998764857e-03 0.0 
1.788972865542e-03 4.727953782511e-03 0.0 
3.294877044945e-04 7.107455202173e-04 0.0 
1.222770501897e-03 6.351521879792e-03 0.0 
4.760406894203e-04 1.957266072506e-04 0.0 
2.034594319151e-03 6.727775348943e-04 0.0 
2.202355437687e-03 8.731820531406e-04 0.0 
2.220343744842e-03 9.274792741172e-04 0.0 
1.870637682372e-03 3.148193515500e-03 0.0 
3.723775392825e-04 1.055337763292e-04 0.0 
6.570918013218e-04 1.712834469217e-04 0.0 
5.972335234666e-04 1.395717617039e-04 0.0 
8.987210329324e-04 2.092825612662e-04 0.0 
3.049777845624e-04 7.326053431340e-05 0.0 
5.304205624399e-04 5.473152441324e-04 0.0 
5.261912781016e-04 4.835928955818e-04 0.0 
7.360972983409e-04 -2.090412426092e-04 0.0 
8.810983035821e-04 -1.191312709726e-04 0.0 
1.023322408109e-03 -9.846793000942e-05 0.0 
1.038867876919e-03 -1.414592219772e-05 0.0 
8.683902776689e-04 -2.583234232983e-05 0.0 
1.035086328772e-03 9.522384747867e-05 0.0 
1.207812188059e-03 1.058378707921e-04 0.0 
1.009514124757e-03 2.350143650260e-04 0.0 
1.896777124026e-03 2.028507397425e-03 0.0 
2.378384765589e-04 4.744097542891e-05 0.0 
9.628043804872e-04 -6.292483222664e-05 0.0 
1.077919781714e-03 -4.605930873127e-05 0.0 
1.089232657622e-03 -8.728746884974e-05 0.0 
4.683574652615e-04 -3.247182201171e-04 0.0 
5.495298413231e-04 -2.908463776185e-04 0.0 
5.593503632608e-04 -2.420218788910e-04 0.0 
3.906972513485e-04 -3.551683145105e-04 0.0 
2.550176816971e-03 1.752240160631e-03 0.0 
2.121554797655e-04 3.781726843205e-05 0.0 
1.520776237433e-03 1.997991536746e-04 0.0 
6.134954515894e-04 -3.012490267202e-04 0.0 
1.491865502946e-03 8.914159598905e-03 0.0 
1.595914517061e-03 7.990936535303e-03 0.0 
1.756841599342e-03 7.864529286949e-03 0.0 
1.669946845146e-03 6.932858844989e-03 0.0 
1.418815524811e-03 7.958099536037e-03 0.0 
3.451868317240e-04 -2.433421692028e-04 0.0 
2.763106500685e-04 -2.247916877689e-04 0.0 
2.154516938550e-04 -2.530332641886e-04 0.0 
2.084284718159e-04 -2.058460480898e-04 0.0 
1.504965179026e-04 -2.332114512287e-04 0.0 
1.556523777855e-04 -2.792241803960e-04 0.0 
1.409024642482e-04 -1.867400832631e-04 0.0 
8.731798484809e-05 -2.184277478270e-04 0.0 
1.202309690336e-03 9.021705687395e-03 0.0 
-2.093243118588e-04 -1.083345357069e-04 0.0 
-4.544566453582e-05 -1.904583773456e-04 0.0 
-9.605942605144e-06 -2.917999987828e-04 0.0 
9.254011090685e-05 -2.566719487856e-04 0.0 
8.128463742029e-05 -1.501774811236e-04 0.0 
2.447015368937e-04 -2.198758388458e-04 0.0 
2.161734894544e-04 -1.001179846753e-04 0.0 
-9.112960970855e-05 -5.642798931326e-05 0.0 
-9.032094330479e-05 -3.179541971983e-04 0.0 
2.291754192343e-05 -3.687021888343e-04 0.0 
-4.511256907976e-05 -3.882088543443e-04 0.0 
4.448803633313e-05 -4.256588040596e-04 0.0 
1.404897235766e-04 -4.079669009582e-04 0.0 
2.477400103066e-04 -4.929844494029e-04 0.0 
5.358031465588e-05 1.949256511816e-06 0.0 
5.680113633587e-05 -3.457358057316e-04 0.0 
1.077808055135e-04 -3.678051456213e-04 0.0 
9.996263752077e-05 -4.071008013584e-04 0.0 
1.602349963583e-04 -3.869694235984e-04 0.0 
1.096057931248e-04 -3.279837550028e-04 0.0 
4.744706085821e-05 -4.262897100174e-04 0.0 
8.960122805091e-05 -4.393656859978e-04 0.0 
3.588750692013e-05 -5.597028987346e-04 0.0 
3.578753712024e-05 -5.538820268299e-04 0.0 
1.622614533456e-05 -5.549299755455e-04 0.0 
3.371271647465e-05 -5.454606133427e-04 0.0 
5.432566108840e-05 -5.455335945404e-04 0.0 
5.177889090638e-05 -5.533247389988e-04 0.0 
6.568887703270e-05 -5.525276608997e-04 0.0 
5.560264515828e-05 -5.555183095651e-04 0.0 
7.672426827635e-05 -5.502171627304e-04 0.0 
9.254041849352e-05 -5.446114906537e-04 0.0 
5.946930387693e-05 -5.506421291264e-04 0.0 
6.163717808023e-05 4.349164024837e-03 0.0 
1.171060672608e-04 3.860458986443e-03 0.0 
1.764092380097e-04 2.498073517386e-05 0.0 
9.345049458090e-04 8.968384060436e-03 0.0 
2.023494160425e-05 -4.803472674397e-04 0.0 
9.513695443495e-05 9.698860863359e-04 0.0 
1.490056786798e-04 7.996620754428e-04 0.0 
1.184366458482e-04 7.762707843556e-04 0.0 
3.127667669877e-05 -2.248961334184e-05 0.0 
5.069282991969e-05 -1.246720691599e-05 0.0 
5.166326726243e-05 9.438903043289e-04 0.0 
3.835224755550e-04 -4.538986526086e-04 0.0 
9.837865940983e-04 1.639023983437e-03 0.0 
2.705790210773e-04 2.593952661123e-03 0.0 
4.605243134026e-04 9.276447698742e-04 0.0 
5.050800978083e-04 -4.077908946974e-04 0.0 
1.740181447090e-04 -1.179188274586e-04 0.0 
5.316222196376e-04 -1.462363591438e-04 0.0 
2.070555850495e-04 -3.724460031627e-05 0.0 
3.169525270700e-04 -1.504414615406e-04 0.0 
3.547791423040e-04 -5.462029941946e-05 0.0 
5.525806503509e-04 1.136956765943e-04 0.0 
8.672561774439e-05 -5.248238275206e-04 0.0 
7.524167868888e-04 6.218650980734e-03 0.0 
4.806191476887e-04 6.574636392325e-03 0.0 
4.516275185943e-04 4.119637061798e-03 0.0 
2.610611557943e-04 -4.579894942022e-04 0.0 
2.190148034384e-04 -2.977122764657e-04 0.0 
1.966256821420e-04 -5.173163594365e-04 0.0 
1.083240565187e-03 7.273617879185e-04 0.0 
2.985893676868e-03 6.051839009774e-03 0.0 
9.836176841773e-04 -1.509540552351e-04 0.0 
4.420341475304e-04 -3.699555456279e-04 0.0 
4.690150076165e-04 -4.240693763229e-04 0.0 
5.052876585864e-04 -3.851823084351e-04 0.0 
2.671834146603e-03 2.398480612970e-03 0.0 
7.051736359081e-04 -2.599078137949e-04 0.0 
6.720321949079e-04 -3.695115385191e-05 0.0 
3.437800648302e-04 3.576377834154e-03 0.0 
5.690471406584e-05 -5.300396739209e-04 0.0 
6.979725793692e-04 -7.252102374343e-07 0.0 
7.108695605365e-04 -1.630960621369e-04 0.0 
1.064800202198e-03 5.822878496194e-03 0.0 
1.553628436734e-03 4.285751023072e-04 0.0 
3.187904890113e-04 -3.010248414951e-04 0.0 
6.641097564331e-04 3.761278640536e-03 0.0 
6.819419017844e-04 2.018087583522e-03 0.0 
1.377052778864e-03 6.863968394685e-03 0.0 
1.498191342713e-04 -5.320769953367e-04 0.0 
7.875702674325e-04 7.247166511913e-03 0.0 
5.255298772040e-04 6.471054195756e-05 0.0 
1.338576448137e-03 3.862033630062e-03 0.0 
2.002368449545e-04 -4.762509561307e-04 0.0 
1.664462544428e-03 2.798540894424e-04 0.0 
3.056867888120e-03 3.811298538087e-03 0.0 
2.103218393208e-03 9.169844962126e-03 0.0 
2.812330514609e-04 2.190759469616e-03 0.0 
2.504712751061e-03 1.418940093086e-03 0.0 
1.155662810770e-03 2.493771761753e-04 0.0 
1.612125040158e-03 2.934187536731e-04 0.0 
1.696219955440e-04 -4.618642930035e-04 0.0 
4.740326657704e-04 -8.196317748065e-06 0.0 
2.059365641511e-03 7.397056240968e-04 0.0 
5.376167890684e-04 2.785714819781e-03 0.0 
2.523820381905e-03 2.298866015826e-03 0.0 
1.580525881589e-03 3.959618922181e-04 0.0 
8.913435862884e-04 3.366698555498e-03 0.0 
1.187881521727e-03 -5.651091229581e-05 0.0 
1.527180369465e-03 4.800059345577e-04 0.0 
3.041235507943e-03 5.862021854012e-03 0.0 
2.958202430325e-03 3.218591112642e-03 0.0 
2.584202041182e-03 3.859015764733e-03 0.0 
2.850229843571e-03 2.291146059513e-03 0.0 
1.184350452236e-04 -1.433418033444e-04 0.0 
5.813682322649e-04 -6.107586393034e-06 0.0 
3.906283883267e-04 1.294159794327e-04 0.0 
2.232173408487e-03 2.664496905996e-03 0.0 
1.322057150505e-03 5.842786536967e-03 0.0 
1.805102692037e-03 1.152510009383e-03 0.0 
3.804828917330e-04 1.818112415184e-03 0.0 
2.971932860578e-03 4.180531095796e-03 0.0 
4.640448387283e-04 -3.437249762641e-05 0.0 
7.048663590266e-04 2.433580359985e-03 0.0 
6.331912925952e-04 -2.531953925938e-04 0.0 
3.043025305481e-05 -5.128380257246e-04 0.0 
1.402757802600e-04 9.950280197184e-04 0.0 
1.202951230232e-03 3.970366677214e-04 0.0 
2.351811864649e-03 1.193386625511e-03 0.0 
6.358168778753e-04 -2.042624158500e-04 0.0 
7.623450688172e-04 1.510601168057e-03 0.0 
3.726045871747e-04 -3.026674946400e-05 0.0 
9.871739131360e-04 7.250530954898e-05 0.0 
-5.340588259077e-04 1.661048983564e-03 0.0 
2.338496223481e-03 8.450641618227e-03 0.0 
2.902712886828e-04 -2.521231282428e-05 0.0 
1.543152175258e-03 1.829509891579e-04 0.0 
1.314504700142e-03 3.672008269627e-04 0.0 
9.416134128577e-05 -2.605756031968e-04 0.0 
1.075824568872e-03 6.481796015632e-04 0.0 
2.460185008915e-03 8.397461844120e-03 0.0 
2.173712420579e-04 -1.963478706733e-05 0.0 
1.168053820188e-03 1.580019221638e-04 0.0 
1.619411572538e-03 1.388559009784e-03 0.0 
2.599505082425e-04 9.033937657283e-03 0.0 
1.367412420317e-04 -1.959780086574e-07 0.0 
9.912925369477e-04 1.564489448442e-04 0.0 
2.735944377955e-03 2.028772005652e-03 0.0 
1.414286039722e-03 8.201727833731e-05 0.0 
2.177933783498e-03 9.586167003393e-03 0.0 
5.534455755151e-04 -1.934937619920e-04 0.0 
2.869257151866e-03 3.318660115514e-03 0.0 
2.830080255145e-04 7.060479752049e-04 0.0 
9.720130927765e-04 1.901302333137e-04 0.0 
2.008469473718e-03 5.134536675028e-03 0.0 
4.844469017262e-04 -2.285373328714e-04 0.0 
2.169488807241e-03 9.275265892655e-04 0.0 
7.355622226133e-05 -5.456413458357e-04 0.0 
2.458645620348e-03 8.692648006029e-03 0.0 
4.094625360842e-04 -2.129202402124e-04 0.0 
1.215200553908e-03 2.348306103289e-04 0.0 
1.304077547104e-03 2.282174031218e-05 0.0 
9.731744008746e-04 3.664310211836e-04 0.0 
3.359019895740e-04 -1.959759479881e-04 0.0 
1.389110398630e-03 2.416975948260e-04 0.0 
2.642734395003e-04 -1.783979508024e-04 0.0 
2.114252797340e-03 9.623091864387e-03 0.0 
2.080526519531e-03 4.551399633669e-03 0.0 
1.926633123960e-04 -1.606796012134e-04 0.0 
2.648540818156e-03 2.789715074561e-03 0.0 
1.106683336494e-04 -5.419920050748e-04 0.0 
2.568557362051e-03 1.632199046869e-03 0.0 
7.365848561930e-05 -3.429616090067e-05 0.0 
6.670530518887e-04 -3.453741825246e-04 0.0 
1.192125032215e-03 -1.880775202905e-05 0.0 
1.875942343931e-03 3.661206343466e-03 0.0 
1.841465896236e-03 9.142954850300e-03 0.0 
1.161236957632e-03 1.685457864730e-05 0.0 
2.356466507622e-03 2.271829533550e-03 0.0 
2.384900655720e-03 1.304731135068e-03 0.0 
2.358583989181e-03 1.117897170670e-03 0.0 
1.093052807446e-03 4.809965576460e-05 0.0 
2.214243493069e-03 7.374894587126e-03 0.0 
3.967981624489e-04 -4.551724371045e-04 0.0 
3.251484051246e-04 -4.772838214419e-04 0.0 
1.348462928568e-03 1.211249639213e-04 0.0 
2.144082205281e-03 2.180053129333e-03 0.0 
5.666490492873e-05 -5.344843495521e-04 0.0 
2.131038542139e-03 3.451093065367e-03 0.0 
2.299483734784e-04 -4.761960097125e-04 0.0 
1.181379431817e-03 4.626266210060e-06 0.0 
1.917667025640e-03 8.658332695870e-04 0.0 
7.386815543422e-05 6.296640491269e-03 0.0 
1.139631511483e-03 -7.284761149913e-05 0.0 
3.482525271976e-05 -4.886324041130e-04 0.0 
9.932379863744e-04 -1.610654865848e-04 0.0 
2.296997016001e-03 1.028559243676e-03 0.0 
9.515116224032e-04 -2.057620072122e-04 0.0 
8.231850284136e-04 -2.727023100130e-04 0.0 
1.878598482365e-04 1.665585242266e-03 0.0 
7.806816258873e-04 -2.939990041848e-04 0.0 
2.581876656237e-05 7.807737350195e-04 0.0 
2.194826894260e-05 8.220271171682e-07 0.0 
9.719768174803e-05 8.267868975296e-03 0.0 
1.176099413240e-03 7.854089630802e-03 0.0 
-4.582309882128e-04 4.453475342750e-04 0.0 
1.541582317048e-03 5.291296755440e-03 0.0 
5.925320841953e-04 -3.792888664219e-04 0.0 
2.344601962327e-03 3.156087375649e-03 0.0 
2.020047381323e-04 8.225497017523e-03 0.0 
4.904729576152e-04 -4.206264596485e-04 0.0 
9.921555308553e-04 1.155380928394e-03 0.0 
5.239751267884e-04 2.584156667993e-04 0.0 
1.324091611384e-04 4.786208995697e-03 0.0 
1.123042244853e-03 2.836568560096e-04 0.0 
2.180105874712e-03 1.030212895359e-03 0.0 
3.785066491753e-05 2.461260258764e-03 0.0 
6.029044011610e-04 9.136869910115e-03 0.0 
6.232767354763e-05 -4.685920827201e-04 0.0 
5.680828161607e-05 -1.218276397279e-04 0.0 
5.188232101099e-04 5.234790518550e-03 0.0 
6.250317300433e-04 3.526569108733e-03 0.0 
7.050728255837e-05 2.372125970347e-03 0.0 
1.313986991219e-04 -4.494267329640e-04 0.0 
1.070386034926e-04 -3.402687711016e-04 0.0 
3.044799212311e-05 3.481005552559e-03 0.0 
7.319998731389e-04 2.102716894195e-04 0.0 
1.012408946281e-03 8.231036436032e-03 0.0 
1.865453219008e-03 9.182745494816e-04 0.0 
-3.453658422138e-04 2.385954857041e-03 0.0 
4.892309656592e-04 1.557016634476e-03 0.0 
9.886407047179e-04 4.399915381458e-04 0.0 
1.184097725334e-04 1.316683462274e-05 0.0 
1.472519926031e-03 6.864890719148e-04 0.0 
-2.443194338120e-04 1.627796577424e-03 0.0 
1.516855366694e-03 7.221345195469e-03 0.0 
1.080497721518e-03 8.061630016571e-04 0.0 
1.792249244472e-04 4.001005804252e-03 0.0 
8.400133423011e-05 7.682594956850e-06 0.0 
1.277607412821e-03 8.276698526394e-03 0.0 
1.128415365151e-04 1.553134390785e-03 0.0 
2.732999896574e-04 1.408731162699e-05 0.0 
5.727296454145e-05 1.507832982541e-03 0.0 
2.019464740055e-03 2.460022058633e-03 0.0 
4.121908951340e-04 7.028673341922e-03 0.0 
1.835268110042e-03 7.066090560144e-03 0.0 
6.102971659530e-05 -4.320308025324e-06 0.0 
8.793274688823e-04 1.299228475388e-03 0.0 
-3.471964733264e-04 1.315727258071e-03 0.0 
2.081551627206e-04 4.889300901819e-03 0.0 
2.164568008156e-04 -3.862743136526e-04 0.0 
-1.786797557109e-04 1.050018515731e-04 0.0 
3.048324254446e-04 3.248703564722e-05 0.0 
1.630195378486e-03 1.806860716393e-03 0.0 
1.030835957347e-04 -1.860796050606e-06 0.0 
1.478257992902e-05 -5.457622419081e-04 0.0 
7.927949025454e-05 -5.204016115509e-04 0.0 
3.560493345462e-04 5.234346046617e-05 0.0 
9.934393024048e-04 9.233715264991e-04 0.0 
3.811135672756e-04 -1.396288721757e-04 0.0 
1.615175872835e-04 6.185287467418e-04 0.0 
-4.912382078927e-04 1.108702957118e-03 0.0 
8.203468092891e-04 9.253015732484e-03 0.0 
8.124521476651e-05 -5.462973167039e-04 0.0 
6.574627264071e-05 5.150869900202e-06 0.0 
2.796929166266e-04 1.476531085735e-03 0.0 
1.532764701343e-04 -3.481567427142e-04 0.0 
1.797040180335e-03 8.598746640692e-03 0.0 
7.878099208522e-05 -4.700129549949e-04 0.0 
1.421590782689e-03 8.500232020335e-04 0.0 
1.202669442694e-04 -4.489121585422e-04 0.0 
1.879685940460e-04 1.398634224070e-03 0.0 
4.341916503383e-04 8.262618069938e-05 0.0 
6.018611535432e-04 1.300831228583e-03 0.0 
3.233414307021e-04 1.111427205939e-04 0.0 
-3.408952685825e-04 5.843393958552e-04 0.0 
8.922580929929e-04 4.312880734056e-04 0.0 
7.656394594360e-04 1.601740864577e-04 0.0 
4.532143442732e-04 9.167990122133e-03 0.0 
7.629027279011e-04 1.335102712540e-03 0.0 
1.378566189689e-04 -4.201227594846e-04 0.0 
1.200002444200e-04 -5.353968419856e-04 0.0 
1.087842145392e-05 6.915706455984e-04 0.0 
1.070099953137e-05 -5.613154654688e-04 0.0 
7.636598481265e-05 9.142859466667e-03 0.0 
8.509892144037e-06 1.363855647139e-07 0.0 
7.488364358501e-05 -5.375691637159e-04 0.0 
1.595784050079e-04 7.535237456761e-03 0.0 
9.264210687202e-04 9.563450048211e-04 0.0 
4.152975970442e-05 -2.528272586081e-04 0.0 
8.763697831973e-05 3.092541640837e-03 0.0 
1.979701703267e-04 -3.040404078413e-04 0.0 
-3.998085003272e-04 2.188711376568e-04 0.0 
1.269030049878e-04 5.799436962740e-03 0.0 
8.480934723282e-04 3.434398890902e-04 0.0 
4.597223336218e-04 1.283257071359e-03 0.0 
3.295395044780e-04 6.479111028203e-03 0.0 
-9.829130062016e-05 1.095819442063e-03 0.0 
1.284436402121e-03 1.332195340738e-03 0.0 
1.646855075779e-04 -3.140482810587e-04 0.0 
1.436335275192e-03 1.061913925458e-03 0.0 
9.080828714378e-04 2.377374898432e-04 0.0 
-6.737943796042e-04 1.206751141595e-03 0.0 
3.644084906708e-05 -2.072706380249e-04 0.0 
8.105450510724e-05 -5.399288673454e-04 0.0 
1.952952650693e-04 1.364185428249e-05 0.0 
1.097617580102e-04 -2.933281104532e-04 0.0 
3.349450667978e-04 1.053201928285e-02 0.0 
7.882074309979e-05 1.445025115858e-02 0.0 
1.255903008316e-03 1.106914070577e-02 0.0 
6.148151137014e-05 1.342763749922e-02 0.0 
1.663781088876e-03 1.104607191872e-02 0.0 
5.561235677742e-05 1.241294614287e-02 0.0 
1.806646477977e-03 1.065471016886e-02 0.0 
5.361318940542e-05 1.140032011216e-02 0.0 
1.782311439175e-03 1.003681986887e-02 0.0 
5.204298229436e-05 1.038827390266e-02 0.0 

VECTORS node_materi_displacement float
0.0 7.573376513121e-02 0.0 
0.0 1.126847783537e-01 0.0 
0.0 0.0 0.0 
0.0 0.0 0.0 
0.0 7.591115433302e-02 0.0 
0.0 7.559650608440e-02 0.0 
0.0 7.481398287474e-02 0.0 
0.0 7.357472850200e-02 0.0 
0.0 7.187561361582e-02 0.0 
0.0 6.975899598430e-02 0.0 
0.0 6.724688701953e-02 0.0 
0.0 6.435204871092e-02 0.0 
0.0 6.108847989782e-02 0.0 
0.0 5.746059285511e-02 0.0 
0.0 5.346215576825e-02 0.0 
0.0 4.909089474095e-02 0.0 
0.0 4.434805734741e-02 0.0 
0.0 3.924214931673e-02 0.0 
0.0 3.373275010647e-02 0.0 
0.0 2.781901390674e-02 0.0 
0.0 2.149556776751e-02 0.0 
0.0 1.474974208734e-02 0.0 
0.0 7.577647599195e-03 0.0 
0.0 0.0 0.0 
0.0 0.0 0.0 
0.0 0.0 0.0 
0.0 0.0 0.0 
0.0 0.0 0.0 
0.0 0.0 0.0 
0.0 0.0 0.0 
0.0 0.0 0.0 
0.0 0.0 0.0 
0.0 0.0 0.0 
0.0 0.0 0.0 
0.0 0.0 0.0 
0.0 0.0 0.0 
0.0 0.0 0.0 
0.0 0.0 0.0 
0.0 0.0 0.0 
0.0 0.0 0.0 
0.0 0.0 0.0 
0.0 0.0 0.0 
0.0 0.0 0.0 
0.0 0.0 0.0 
0.0 0.0 0.0 
0.0 0.0 0.0 
0.0 0.0 0.0 
0.0 0.0 0.0 
0.0 0.0 0.0 
0.0 0.0 0.0 
0.0 0.0 0.0 
0.0 0.0 0.0 
0.0 0.0 0.0 
0.0 0.0 0.0 
0.0 0.0 0.0 
0.0 0.0 0.0 
0.0 0.0 0.0 
0.0 0.0 0.0 
0.0 0.0 0.0 
0.0 0.0 0.0 
0.0 0.0 0.0 
0.0 0.0 0.0 
0.0 0.0 0.0 
0.0 0.0 0.0 
0.0 0.0 0.0 
0.0 0.0 0.0 
0.0 0.0 0.0 
0.0 0.0 0.0 
0.0 0.0 0.0 
0.0 0.0 0.0 
0.0 0.0 0.0 
0.0 0.0 0.0 
0.0 1.031651835186e-01 0.0 
0.0 9.322947887007e-02 0.0 
0.0 8.288207442691e-02 0.0 
0.0 7.214309509214e-02 0.0 
0.0 6.101456836302e-02 0.0 
0.0 4.951449795019e-02 0.0 
0.0 3.765235585926e-02 0.0 
0.0 2.543864167583e-02 0.0 
0.0 1.288691460330e-02 0.0 
-1.339573798960e-02 4.663315856829e-02 0.0 
1.306365034042e-02 1.093612833680e-01 0.0 
-6.108380676236e-03 7.084105888048e-02 0.0 
-2.761425432017e-04 8.968025878406e-02 0.0 
4.547727896789e-03 1.049928375766e-01 0.0 
8.321838639212e-03 1.166318796908e-01 0.0 
1.118532896182e-02 1.244982439074e-01 0.0 
1.366228402333e-02 1.270212907735e-01 0.0 
1.477579784293e-02 1.257378575676e-01 0.0 
1.485562836862e-02 1.219884809196e-01 0.0 
1.421173849118e-02 1.163896838875e-01 0.0 
0.0 1.538269699110e-01 0.0 
0.0 1.464363373996e-01 0.0 
0.0 1.386641299891e-01 0.0 
0.0 1.304239681329e-01 0.0 
0.0 1.217829742604e-01 0.0 
7.330807431669e-04 1.126890523450e-01 0.0 
1.458183335194e-03 1.127002975326e-01 0.0 
2.197057582349e-03 1.127138407264e-01 0.0 
2.947719163524e-03 1.127201011565e-01 0.0 
3.710669392576e-03 1.127275683911e-01 0.0 
4.490075743727e-03 1.127070767810e-01 0.0 
5.294594298896e-03 1.126718216714e-01 0.0 
6.117276990264e-03 1.125915322177e-01 0.0 
6.980742949048e-03 1.124759006001e-01 0.0 
7.881136744280e-03 1.122809522147e-01 0.0 
8.817866602621e-03 1.119963356864e-01 0.0 
9.800911684281e-03 1.115995254417e-01 0.0 
1.083136683456e-02 1.110539030648e-01 0.0 
1.191535374181e-02 1.103173723302e-01 0.0 
-1.074086797511e-02 3.290573480693e-02 0.0 
-6.763287708743e-03 2.569886656530e-02 0.0 
-2.461314188322e-03 2.292607763477e-02 0.0 
2.077531488661e-03 2.475803586364e-02 0.0 
5.233804277183e-03 3.336611386198e-02 0.0 
6.876734449151e-03 4.364062208108e-02 0.0 
7.479251745217e-03 5.050210991600e-02 0.0 
7.549446475984e-03 5.583970335610e-02 0.0 
7.057959823026e-03 6.012142531048e-02 0.0 
6.546387479428e-03 6.356145032105e-02 0.0 
6.034615378372e-03 6.636430128684e-02 0.0 
5.445952378820e-03 6.860224418132e-02 0.0 
4.879829276251e-03 7.045330174459e-02 0.0 
4.186774201012e-03 7.196228662168e-02 0.0 
3.498133941618e-03 7.317537970276e-02 0.0 
2.832428510723e-03 7.411472559372e-02 0.0 
2.165548621183e-03 7.484061373974e-02 0.0 
1.487881087665e-03 7.536713188126e-02 0.0 
7.543922828316e-04 7.565672261868e-02 0.0 
9.751637337427e-03 1.315138041844e-01 0.0 
9.376549219542e-03 1.365359680820e-01 0.0 
9.072804567401e-03 1.404552136607e-01 0.0 
8.886981483925e-03 1.435623096549e-01 0.0 
8.731958468950e-03 1.460201463231e-01 0.0 
8.567415095419e-03 1.479612301762e-01 0.0 
8.369424014481e-03 1.494855827037e-01 0.0 
8.126374365114e-03 1.506721429609e-01 0.0 
7.833220958274e-03 1.515864680702e-01 0.0 
7.489538692600e-03 1.522813262313e-01 0.0 
7.097281686840e-03 1.528002915348e-01 0.0 
6.659692313155e-03 1.531790897270e-01 0.0 
6.180639844749e-03 1.534475294558e-01 0.0 
5.664483563936e-03 1.536303946395e-01 0.0 
5.115809769850e-03 1.537482167332e-01 0.0 
4.539270843148e-03 1.538180000932e-01 0.0 
3.939511304618e-03 1.538537365787e-01 0.0 
3.321284456024e-03 1.538668639423e-01 0.0 
2.689705037202e-03 1.538664184663e-01 0.0 
2.050658810872e-03 1.538581771816e-01 0.0 
1.410375317276e-03 1.538398981020e-01 0.0 
7.313912524767e-04 1.538041192320e-01 0.0 
7.079545288606e-04 1.464789868589e-01 0.0 
1.409468159189e-03 1.464873631927e-01 0.0 
2.098562010584e-03 1.465058397268e-01 0.0 
2.778498758986e-03 1.465186781617e-01 0.0 
3.450203565246e-03 1.465235442915e-01 0.0 
4.112872333222e-03 1.465142471296e-01 0.0 
4.764904304296e-03 1.464813228053e-01 0.0 
5.404244244552e-03 1.464125942496e-01 0.0 
6.028889731676e-03 1.462925772232e-01 0.0 
6.637261055788e-03 1.461023725199e-01 0.0 
7.228433744550e-03 1.458189598435e-01 0.0 
7.802209973821e-03 1.454145734981e-01 0.0 
8.359500740119e-03 1.448556900603e-01 0.0 
8.903027569318e-03 1.441005063848e-01 0.0 
9.439926456208e-03 1.430992285981e-01 0.0 
9.979682546243e-03 1.417885694722e-01 0.0 
1.054163185966e-02 1.400958407264e-01 0.0 
1.114604113397e-02 1.379160469434e-01 0.0 
1.184154747011e-02 1.351509639131e-01 0.0 
1.262589713723e-02 1.316060041127e-01 0.0 
1.371647924608e-02 1.288117379138e-01 0.0 
1.279213936955e-02 1.312393683160e-01 0.0 
1.191478519235e-02 1.331314135047e-01 0.0 
1.110855850628e-02 1.346237081194e-01 0.0 
1.034595174102e-02 1.357715022914e-01 0.0 
9.617257844313e-03 1.366515177923e-01 0.0 
8.908463511415e-03 1.373109239720e-01 0.0 
8.213209426604e-03 1.377981598104e-01 0.0 
7.526241414085e-03 1.381490837333e-01 0.0 
6.844135465232e-03 1.383931860983e-01 0.0 
6.164267389303e-03 1.385548941637e-01 0.0 
5.484603823758e-03 1.386548025041e-01 0.0 
4.804663744841e-03 1.387101447980e-01 0.0 
4.124027655729e-03 1.387346019922e-01 0.0 
3.442179415792e-03 1.387383074089e-01 0.0 
2.758276384148e-03 1.387291446697e-01 0.0 
2.071454712203e-03 1.387120729573e-01 0.0 
1.381310443467e-03 1.386887620037e-01 0.0 
6.902649169049e-04 1.386451927654e-01 0.0 
7.169251549293e-04 1.304590350468e-01 0.0 
1.437169694955e-03 1.304598426809e-01 0.0 
2.158919083613e-03 1.304808865549e-01 0.0 
2.883583891974e-03 1.304979769028e-01 0.0 
3.611528353978e-03 1.305067038481e-01 0.0 
4.345567161588e-03 1.305000934664e-01 0.0 
5.086991958811e-03 1.304701088731e-01 0.0 
5.839421234824e-03 1.304051960070e-01 0.0 
6.603323817402e-03 1.302914717155e-01 0.0 
7.382686168526e-03 1.301071080070e-01 0.0 
8.182169552646e-03 1.298295006098e-01 0.0 
9.005784966128e-03 1.294321025180e-01 0.0 
9.859706873323e-03 1.288806971169e-01 0.0 
1.075194836690e-02 1.281359979580e-01 0.0 
1.168610004162e-02 1.271353158088e-01 0.0 
1.268484876355e-02 1.258387030630e-01 0.0 
1.372277937430e-02 1.241466178509e-01 0.0 
1.309258538051e-02 1.178150409850e-01 0.0 
1.204843516106e-02 1.189376579576e-01 0.0 
1.103006547278e-02 1.197762433250e-01 0.0 
1.006818135206e-02 1.204192286930e-01 0.0 
9.151845369040e-03 1.208956730023e-01 0.0 
8.273940806483e-03 1.212401554304e-01 0.0 
7.429989795493e-03 1.214834345227e-01 0.0 
6.615667635069e-03 1.216442228502e-01 0.0 
5.824241068879e-03 1.217414159891e-01 0.0 
5.056107524132e-03 1.218021750188e-01 0.0 
4.303683086418e-03 1.218281842979e-01 0.0 
3.567162052456e-03 1.218361959848e-01 0.0 
2.839864101107e-03 1.218272517259e-01 0.0 
2.122534271388e-03 1.218135152221e-01 0.0 
1.412816751650e-03 1.217931550948e-01 0.0 
7.036654937171e-04 1.217541175191e-01 0.0 
-9.346597178005e-03 6.014010265471e-02 0.0 
-3.087674463878e-03 8.068625670580e-02 0.0 
2.272484477206e-03 9.779036269973e-02 0.0 
6.556058650462e-03 1.112788637034e-01 0.0 
1.002102551221e-02 1.211670478631e-01 0.0 
1.267060853335e-02 1.263125019602e-01 0.0 
1.440517119454e-02 1.267254455487e-01 0.0 
1.493869386552e-02 1.241208966897e-01 0.0 
1.462328169277e-02 1.193865379458e-01 0.0 
1.369866243822e-02 1.130311190716e-01 0.0 
3.949248441114e-03 7.943962607903e-02 0.0 
2.253052052026e-03 6.562268886591e-03 0.0 
3.972993788118e-03 6.190052781679e-02 0.0 
-3.384855786960e-04 3.062275516558e-02 0.0 
8.467725332790e-04 6.330307725633e-03 0.0 
1.185425303947e-02 1.074197375042e-01 0.0 
-8.149081775053e-05 5.537112369130e-02 0.0 
3.445601798905e-03 7.263497357591e-03 0.0 
1.613512468223e-02 1.193918351456e-01 0.0 
3.973806332445e-03 8.063344451815e-03 0.0 
1.647036837805e-02 1.164630179826e-01 0.0 
1.915036905257e-04 5.925936769122e-03 0.0 
3.262092548995e-03 7.149075351775e-02 0.0 
3.864339787525e-03 9.271738351498e-03 0.0 
1.420837820677e-02 1.045969536525e-01 0.0 
-8.584922516577e-05 6.839392023029e-02 0.0 
-2.784568256513e-05 4.284425850294e-02 0.0 
3.474765831039e-03 1.037349728863e-02 0.0 
2.387906040789e-03 1.050079584563e-02 0.0 
6.978671792305e-04 1.101072645344e-02 0.0 
1.276760125508e-03 1.187550231700e-02 0.0 
1.696828176254e-03 1.050511415734e-02 0.0 
1.152011884968e-02 1.022983609542e-01 0.0 
7.490110537568e-03 1.037748805814e-01 0.0 
4.896024824479e-03 1.038623514695e-01 0.0 
4.745664469710e-04 6.645766438550e-02 0.0 
7.610964215522e-06 6.526202138669e-03 0.0 
-3.681632555152e-03 3.225090292109e-02 0.0 
1.889102346721e-03 7.461740277015e-02 0.0 
-6.108126013537e-06 2.517674432744e-02 0.0 
2.508830792239e-03 1.045383569923e-01 0.0 
1.264212794571e-04 7.418531207952e-02 0.0 
3.285879505176e-03 1.183896867130e-02 0.0 
3.515601931338e-03 7.043969508025e-03 0.0 
3.960246247190e-03 8.557300485331e-03 0.0 
3.091069486018e-03 7.279314096336e-03 0.0 
1.542876310888e-03 6.082614474826e-03 0.0 
2.225413324048e-03 4.700489001573e-02 0.0 
9.409334401347e-03 1.037869533636e-01 0.0 
5.236606102127e-04 7.266034355317e-03 0.0 
3.534406548085e-04 4.413627401188e-02 0.0 
3.860859697934e-03 6.756366985232e-02 0.0 
-1.072809907051e-04 6.269387274690e-02 0.0 
3.474972445453e-04 8.971139799665e-03 0.0 
1.459185795709e-02 1.148279972362e-01 0.0 
8.384564218576e-03 9.536069208851e-02 0.0 
1.672123523301e-02 1.193961720444e-01 0.0 
1.557463153730e-02 1.113627117730e-01 0.0 
-2.034536002677e-03 5.990336511869e-02 0.0 
5.756729516160e-04 8.687156328915e-02 0.0 
-9.291762355229e-06 5.206354955153e-03 0.0 
8.731324734154e-04 7.567885650421e-02 0.0 
1.922188132573e-04 2.014863645146e-02 0.0 
1.356991653288e-02 1.004886320464e-01 0.0 
1.446324643441e-02 9.570062234970e-02 0.0 
1.328818878626e-02 9.225767685815e-02 0.0 
1.431666997065e-02 8.657102153941e-02 0.0 
1.315687511929e-02 8.203266869982e-02 0.0 
1.389569313712e-02 7.686077073868e-02 0.0 
1.517812198585e-02 8.122005989305e-02 0.0 
1.453322095118e-02 7.156285357924e-02 0.0 
1.591358833950e-02 7.582739326800e-02 0.0 
1.257456272161e-02 7.204713109271e-02 0.0 
1.502103242600e-02 6.616985092825e-02 0.0 
1.648697928118e-02 7.032522910395e-02 0.0 
1.533346642959e-02 6.073498318170e-02 0.0 
1.686018062187e-02 6.475607116526e-02 0.0 
1.788034245184e-02 7.404007489563e-02 0.0 
1.830262084436e-02 6.834865069000e-02 0.0 
1.917279622364e-02 7.723932595773e-02 0.0 
1.962526332997e-02 7.138889301959e-02 0.0 
1.848068889037e-02 6.268472897013e-02 0.0 
1.980737743732e-02 6.559756398139e-02 0.0 
2.080129437352e-02 7.384334641513e-02 0.0 
2.095858484804e-02 6.791010305676e-02 0.0 
2.179694463660e-02 7.564978471242e-02 0.0 
2.189946249094e-02 6.955637900384e-02 0.0 
2.258601235606e-02 7.676970046362e-02 0.0 
2.260394396337e-02 7.054092832539e-02 0.0 
2.167175066461e-02 6.367290425423e-02 0.0 
2.227504175657e-02 6.460253877458e-02 0.0 
2.303479548935e-02 7.084111643998e-02 0.0 
2.258234660480e-02 6.488531198077e-02 0.0 
2.316141406921e-02 7.045784032234e-02 0.0 
2.256607325709e-02 6.453216134573e-02 0.0 
2.179585515003e-02 5.933031127354e-02 0.0 
2.163749207394e-02 5.909785945665e-02 0.0 
2.220428866332e-02 6.358076893355e-02 0.0 
2.112646788607e-02 5.834697340436e-02 0.0 
2.148071156856e-02 6.208261360478e-02 0.0 
2.025295598557e-02 5.713766136115e-02 0.0 
2.038823675802e-02 6.009863669045e-02 0.0 
1.900411356074e-02 5.553953912899e-02 0.0 
1.877511846883e-02 5.281526342467e-02 0.0 
1.740326172218e-02 5.166685213005e-02 0.0 
1.738327359138e-02 5.366380483357e-02 0.0 
1.568791238036e-02 5.036664261011e-02 0.0 
1.567525515019e-02 4.845629345602e-02 0.0 
1.392249567846e-02 4.776265733490e-02 0.0 
1.389695123912e-02 4.581994431713e-02 0.0 
1.216463800264e-02 4.572580429002e-02 0.0 
1.192438871590e-02 4.714405465316e-02 0.0 
1.023976612993e-02 4.576051481047e-02 0.0 
1.047643555238e-02 4.412131915734e-02 0.0 
8.667808490851e-03 4.475975411015e-02 0.0 
8.184684246964e-03 4.606038989130e-02 0.0 
6.804468213010e-03 4.564941333445e-02 0.0 
7.248032072238e-03 4.398357827167e-02 0.0 
5.581841915669e-03 4.537924950207e-02 0.0 
4.968649365962e-03 4.687754936267e-02 0.0 
3.988018020328e-03 4.705188027992e-02 0.0 
4.531432896333e-03 4.510211941703e-02 0.0 
3.157395568491e-03 4.715074684944e-02 0.0 
2.533765558384e-03 4.903332449370e-02 0.0 
1.943877522708e-03 4.940341872851e-02 0.0 
2.467161859155e-03 4.707663080304e-02 0.0 
1.458135507503e-03 4.956369415488e-02 0.0 
1.887256651526e-03 4.681512824490e-02 0.0 
9.162919983308e-04 5.190104714893e-02 0.0 
6.311348990839e-04 5.218376299517e-02 0.0 
1.244473085684e-04 5.456892837867e-02 0.0 
8.334389136735e-06 5.489155337862e-02 0.0 
2.071381584789e-02 5.420746358220e-02 0.0 
-4.036310260606e-04 5.729029251117e-02 0.0 
-3.867715198095e-04 5.657469407542e-02 0.0 
-4.025464780475e-04 5.761915535025e-02 0.0 
-7.844678618529e-05 5.490143327218e-02 0.0 
-6.905933923197e-04 6.001747386160e-02 0.0 
-6.178572009080e-04 6.030352860858e-02 0.0 
-7.658176213900e-04 6.267194377490e-02 0.0 
2.145496152891e-02 6.549561696661e-02 0.0 
1.839064521697e-02 5.709633537879e-02 0.0 
-6.669648488216e-04 6.288161578015e-02 0.0 
-6.762804476235e-04 6.518051511641e-02 0.0 
-7.722820794572e-04 6.474038963419e-02 0.0 
-5.207883342333e-04 6.715940397905e-02 0.0 
1.192267009956e-02 7.728453954458e-02 0.0 
1.121595995875e-02 6.692791660396e-02 0.0 
1.067108242136e-02 7.221850493518e-02 0.0 
9.838867175636e-03 6.157898931396e-02 0.0 
9.398804446258e-03 6.682913893235e-02 0.0 
-4.805893387508e-04 6.748304844616e-02 0.0 
1.373646510925e-02 5.603472010456e-02 0.0 
1.016786475829e-02 5.617834150100e-02 0.0 
2.136663167449e-02 8.188735619006e-02 0.0 
2.338233701954e-02 7.682990471984e-02 0.0 
1.536652043259e-02 4.592341600708e-02 0.0 
-5.476807811114e-04 6.026236881129e-02 0.0 
-5.743093303906e-04 6.277542115786e-02 0.0 
-4.745211228399e-04 5.991587613171e-02 0.0 
2.841820247023e-03 4.428349158778e-02 0.0 
2.181346977104e-03 4.363584660364e-02 0.0 
3.047139774149e-03 4.101520126087e-02 0.0 
2.328322671062e-03 4.000360965718e-02 0.0 
3.077282884028e-03 3.725999802323e-02 0.0 
2.325682735180e-03 3.589936475440e-02 0.0 
1.727392128231e-03 3.881342991038e-02 0.0 
1.701136195702e-03 3.436788994613e-02 0.0 
1.235398704524e-03 3.742818831230e-02 0.0 
2.936927774594e-03 3.300671707142e-02 0.0 
3.835856167847e-03 3.456275086118e-02 0.0 
1.194372176454e-03 3.265700278784e-02 0.0 
8.432088989034e-04 3.583835070193e-02 0.0 
7.955365208066e-04 3.075578132139e-02 0.0 
5.413912583973e-04 3.404466426265e-02 0.0 
5.277142749090e-04 3.899051307958e-02 0.0 
3.172531927337e-04 3.728348394139e-02 0.0 
2.643027758349e-04 4.209430678526e-02 0.0 
1.357781821663e-02 4.323794408299e-02 0.0 
1.475965156085e-02 4.277612867677e-02 0.0 
1.296344038717e-02 4.003482031707e-02 0.0 
1.384474977525e-02 3.902611828064e-02 0.0 
1.205116959364e-02 3.622278448286e-02 0.0 
1.262040676283e-02 3.468710446911e-02 0.0 
1.083993390389e-02 3.181214397814e-02 0.0 
1.030298715305e-02 3.367965517305e-02 0.0 
1.545504636623e-02 5.522219505360e-02 0.0 
1.540053178131e-02 5.163640010189e-02 0.0 
1.704592165769e-02 5.505897259863e-02 0.0 
1.481338165959e-02 5.224674546186e-02 0.0 
1.638010824348e-02 5.583546685818e-02 0.0 
1.392258769234e-02 5.216008555524e-02 0.0 
1.538032914532e-02 5.599909707603e-02 0.0 
1.273458669216e-02 5.135516462940e-02 0.0 
1.112347076775e-02 4.861310757311e-02 0.0 
9.716814447427e-03 4.685694606894e-02 0.0 
8.038688259352e-03 4.552751943702e-02 0.0 
6.418473077317e-03 4.297403153946e-02 0.0 
4.825282968361e-03 4.328639213651e-02 0.0 
2.112539112255e-02 5.806684107920e-02 0.0 
1.441755947280e-02 3.782879148411e-02 0.0 
1.287411657480e-02 3.292878535333e-02 0.0 
1.465104060602e-02 3.635819289860e-02 0.0 
-5.650286976044e-04 6.651067646313e-02 0.0 
3.190566024253e-04 3.204973083549e-02 0.0 
3.521139321381e-03 3.012427837006e-02 0.0 
4.555942785078e-03 3.193773076671e-02 0.0 
9.120897515404e-03 2.913803237702e-02 0.0 
-2.020065279595e-04 6.931943040749e-02 0.0 
1.403624515266e-02 5.558007647827e-02 0.0 
1.642131021444e-02 6.114190293241e-02 0.0 
8.474661673884e-03 5.590784116411e-02 0.0 
8.141102875012e-03 6.117655738484e-02 0.0 
4.032758854374e-03 2.724181103165e-02 0.0 
-2.377700942794e-04 6.953909890412e-02 0.0 
1.557319095617e-03 2.945336278055e-02 0.0 
8.030302732139e-03 4.420035502463e-02 0.0 
1.688991490974e-04 3.537110789864e-02 0.0 
1.648270730952e-04 2.986672914269e-02 0.0 
1.176326152773e-03 4.173305513773e-02 0.0 
1.278636209952e-02 3.087798357168e-02 0.0 
1.456175321734e-02 3.463332297906e-02 0.0 
6.465452078527e-03 4.539767036307e-02 0.0 
3.511796320880e-03 4.455420118334e-02 0.0 
1.730526014045e-03 4.226887692681e-02 0.0 
8.898328336669e-04 4.500856280474e-02 0.0 
2.518525793883e-03 4.634036910106e-02 0.0 
3.364484414720e-04 4.760921451115e-02 0.0 
-1.095175502628e-03 4.659241967363e-02 0.0 
-1.231395830559e-03 4.984444961846e-02 0.0 
1.305756117162e-05 5.009717210347e-02 0.0 
-1.166681147086e-03 5.267808794021e-02 0.0 
-1.984297577632e-03 5.285083351226e-02 0.0 
-1.689969853235e-03 5.574298079644e-02 0.0 
2.768708023633e-04 2.637608434466e-02 0.0 
4.570264541660e-03 3.954150711456e-02 0.0 
1.847659296425e-02 8.305838718793e-02 0.0 
3.035936723398e-03 2.514787257567e-02 0.0 
9.357440621695e-03 2.688175017813e-02 0.0 
7.144453004192e-03 4.999164704001e-02 0.0 
6.914019822057e-03 5.529153058975e-02 0.0 
7.716591710580e-03 6.641076389092e-02 0.0 
6.585325583704e-03 6.053140689268e-02 0.0 
5.735371770106e-03 4.919001397210e-02 0.0 
5.500699235572e-03 5.447550513427e-02 0.0 
6.178283607985e-03 6.570761247278e-02 0.0 
5.179608718790e-03 5.968965033824e-02 0.0 
5.708662148364e-03 7.079414124682e-02 0.0 
4.788203643927e-03 6.481885236638e-02 0.0 
4.236229264659e-03 5.350601065631e-02 0.0 
3.917880221880e-03 5.870072382340e-02 0.0 
4.340684736698e-03 6.986690876168e-02 0.0 
3.534488029797e-03 6.381456878285e-02 0.0 
3.847452991113e-03 7.482102548729e-02 0.0 
3.096719230218e-03 6.884096657035e-02 0.0 
2.785502023362e-03 5.763133235542e-02 0.0 
1.000675331535e-04 7.111183138749e-02 0.0 
8.641360094959e-03 3.132697277654e-02 0.0 
7.499336661228e-03 2.660114696114e-02 0.0 
-4.830750423060e-04 6.234073157721e-02 0.0 
-3.955992090891e-04 5.925146498561e-02 0.0 
-3.342172486356e-04 5.670675211527e-02 0.0 
-2.895500432888e-04 5.584193058169e-02 0.0 
2.391224578088e-03 6.278724465501e-02 0.0 
2.101019934552e-03 5.133448780573e-02 0.0 
1.477206217281e-02 6.138099292162e-02 0.0 
1.685019333821e-02 6.760879743906e-02 0.0 
7.254678448491e-03 4.463617307925e-02 0.0 
7.262003214955e-05 3.326498196202e-02 0.0 
5.364277385858e-05 3.860425293307e-02 0.0 
2.332588792202e-02 7.573899562400e-02 0.0 
2.327410041255e-02 8.254356280375e-02 0.0 
2.302672766928e-02 8.076114404849e-02 0.0 
2.262896463454e-02 8.811721001474e-02 0.0 
2.278336472356e-02 8.974123129223e-02 0.0 
2.215456689258e-02 8.561057229246e-02 0.0 
4.879704167036e-03 3.607859260592e-02 0.0 
3.361905841106e-03 4.718069041588e-02 0.0 
-8.903704764253e-04 6.394896744271e-02 0.0 
-6.172093838294e-04 6.552233443202e-02 0.0 
6.709429363576e-05 2.750678169436e-02 0.0 
9.510022129304e-03 3.544375701005e-02 0.0 
2.033956719090e-02 5.651842270956e-02 0.0 
1.958552418638e-02 5.118078055415e-02 0.0 
1.860060600407e-02 4.902550172752e-02 0.0 
1.764673247351e-02 4.393181595403e-02 0.0 
1.644347494658e-02 4.117963296831e-02 0.0 
1.528888268096e-02 3.630840960437e-02 0.0 
1.644902228190e-02 3.911234374610e-02 0.0 
1.233145133007e-02 2.844263250303e-02 0.0 
1.391396951190e-02 3.166696292360e-02 0.0 
2.657179242581e-03 7.387558913472e-02 0.0 
1.618514091656e-02 4.133600052140e-02 0.0 
-1.655006080518e-04 5.226543980953e-02 0.0 
2.537862429232e-04 7.068581684986e-02 0.0 
-1.831795161517e-03 5.635976220838e-02 0.0 
-7.778618943482e-06 7.129684485451e-02 0.0 
-2.465196401975e-04 6.946447340205e-02 0.0 
3.329975281821e-03 2.200981133754e-02 0.0 
1.384227881279e-02 3.296580501153e-02 0.0 
1.498236637215e-02 3.788344767980e-02 0.0 
2.175038855782e-02 9.589635696365e-02 0.0 
2.184929178301e-02 9.720232467703e-02 0.0 
1.055823920427e-02 2.484241831871e-02 0.0 
1.003687199178e-02 7.750657485507e-02 0.0 
6.665305929697e-03 7.661325940532e-02 0.0 
6.071851297264e-03 8.154869926529e-02 0.0 
3.940497226882e-04 7.272694827357e-02 0.0 
-2.065559553480e-03 5.290992937146e-02 0.0 
4.625864688974e-03 4.291286207579e-02 0.0 
1.842138873716e-02 6.633721044242e-02 0.0 
1.860644837301e-02 7.322353937424e-02 0.0 
5.811653441901e-03 4.096166054279e-02 0.0 
2.564596069025e-03 3.570556685202e-02 0.0 
1.771325403462e-03 5.644408979916e-02 0.0 
1.508547706062e-03 4.490665575586e-02 0.0 
-1.833109396496e-04 5.315891780751e-02 0.0 
-1.715350186051e-04 5.204745351097e-02 0.0 
4.427017733581e-03 2.430833793160e-02 0.0 
-1.543365081034e-03 5.901436749376e-02 0.0 
1.727417912933e-03 3.955075062613e-02 0.0 
7.930423522212e-03 3.341682172402e-02 0.0 
8.506004932949e-03 3.716825021133e-02 0.0 
-3.147932199034e-04 5.839825543290e-02 0.0 
1.468492166250e-02 6.863892902582e-02 0.0 
1.246721088499e-02 6.135397689279e-02 0.0 
1.235869922577e-03 4.998361128586e-02 0.0 
-1.399825679514e-03 5.800979838567e-02 0.0 
-7.342752059674e-05 7.115337765336e-02 0.0 
3.469149227819e-03 1.879027845067e-02 0.0 
4.663022343119e-03 3.752289639690e-02 0.0 
1.504621850977e-02 3.459329034529e-02 0.0 
1.730994458351e-02 4.143378849535e-02 0.0 
1.236450936341e-02 2.729880297156e-02 0.0 
-1.006882303029e-03 5.986986292891e-02 0.0 
2.401124220752e-03 1.961595537164e-02 0.0 
1.884328325290e-05 3.098171047869e-02 0.0 
1.226658248095e-02 2.952491210782e-02 0.0 
1.328819549284e-02 3.407586445207e-02 0.0 
2.005712111189e-02 7.100691698807e-02 0.0 
2.009481445070e-02 7.819510925818e-02 0.0 
1.810828495583e-02 8.112551683665e-02 0.0 
1.946499224506e-02 8.614844549834e-02 0.0 
1.640463752345e-02 8.524262804495e-02 0.0 
2.136929677451e-02 7.506225999745e-02 0.0 
1.961291727883e-02 8.588807223416e-02 0.0 
1.866099818590e-02 9.180679467349e-02 0.0 
1.961540056349e-02 9.429624757167e-02 0.0 
2.261564893147e-02 9.056235770392e-02 0.0 
2.161816893583e-02 9.769721354925e-02 0.0 
1.846035528025e-02 5.941572759670e-02 0.0 
1.654008999662e-02 4.592432586799e-02 0.0 
-1.716960923635e-04 5.401039771001e-02 0.0 
4.483765751424e-04 4.349315554558e-02 0.0 
3.893023961992e-03 4.187065859802e-02 0.0 
3.529055929713e-03 4.185077155194e-02 0.0 
2.670309751991e-03 3.531769802200e-02 0.0 
4.638226546791e-03 8.066819263053e-02 0.0 
4.057030607754e-03 8.545264835562e-02 0.0 
-6.570006018120e-05 6.796817535605e-02 0.0 
3.153227658187e-05 6.677700715587e-02 0.0 
1.405833031870e-03 4.633402734465e-02 0.0 
2.198026061262e-03 2.294929246358e-02 0.0 
5.872994021389e-03 3.847508807836e-02 0.0 
5.730125917078e-03 3.303805216735e-02 0.0 
7.219869596853e-03 3.922016881025e-02 0.0 
4.649871612441e-03 2.129133476911e-02 0.0 
1.311069966050e-02 4.965322146765e-02 0.0 
1.181302914747e-02 4.094894746988e-02 0.0 
1.497937699801e-03 3.655189476695e-02 0.0 
2.066428138254e-02 5.377131846859e-02 0.0 
7.929941093896e-04 6.906943913961e-02 0.0 
1.692259751445e-02 5.376826321438e-02 0.0 
1.471468383600e-05 2.498398628077e-02 0.0 
4.501462360170e-05 2.131684243002e-02 0.0 
9.767169703560e-03 2.187073811583e-02 0.0 
1.539436456828e-02 9.956048361997e-02 0.0 
1.944574658409e-02 4.891188997714e-02 0.0 
1.939053352082e-02 4.955376904854e-02 0.0 
1.842770730074e-02 1.002486745213e-01 0.0 
1.917612733046e-02 1.024312237627e-01 0.0 
2.043259013896e-02 9.616969763933e-02 0.0 
1.977145597848e-02 1.040385406983e-01 0.0 
8.430542648501e-04 5.153658160835e-02 0.0 
-2.666823420213e-04 5.404180884192e-02 0.0 
1.066065095093e-02 2.411929670218e-02 0.0 
1.103017763982e-02 2.404704193195e-02 0.0 
1.042419798731e-02 2.543123433784e-02 0.0 
1.139261186219e-02 2.971250708320e-02 0.0 
7.968815114675e-03 1.827376708912e-02 0.0 
8.772079481436e-03 2.143314386124e-02 0.0 
-2.242950906734e-04 6.911569484755e-02 0.0 
2.051443738378e-02 1.046321604895e-01 0.0 
3.550154775247e-03 3.101557739943e-02 0.0 
1.756011110325e-02 9.757015120479e-02 0.0 
1.656379315242e-03 1.727384057910e-02 0.0 
1.519317311833e-03 2.062955035341e-02 0.0 
2.171626553859e-05 3.244085669417e-02 0.0 
-9.771454655940e-04 3.599399667426e-02 0.0 
1.184138715121e-03 3.319093784626e-02 0.0 
1.690460004468e-02 8.968943770692e-02 0.0 
1.816822215544e-02 9.459813069059e-02 0.0 
1.542980345155e-02 8.380796992769e-02 0.0 
-1.102181100345e-05 1.124761566913e-02 0.0 
1.083146192064e-03 1.046499877815e-01 0.0 
2.564278307471e-06 1.856528508062e-02 0.0 
2.215223954900e-02 9.055970026439e-02 0.0 
1.267096671585e-03 2.721106987365e-02 0.0 
1.803616493199e-02 4.450124811712e-02 0.0 
2.292542620582e-02 7.400272570734e-02 0.0 
5.691894445215e-03 2.655709094850e-02 0.0 
9.655713617271e-04 3.960950585116e-02 0.0 
7.118520721614e-04 2.620220408408e-02 0.0 
6.955132832712e-03 8.698923036106e-02 0.0 
6.285647625879e-03 9.193203228696e-02 0.0 
7.644116698860e-03 8.224859705273e-02 0.0 
9.243511163357e-03 4.771036356929e-02 0.0 
6.198540890485e-03 4.565365558109e-02 0.0 
2.568732757358e-03 4.072157378610e-02 0.0 
-5.013156368292e-04 6.511099247431e-02 0.0 
-4.031202137580e-04 6.438040110373e-02 0.0 
-1.256304132692e-03 6.111356591509e-02 0.0 
-1.180602832412e-03 5.979936193898e-02 0.0 
1.273309738363e-05 5.038190923103e-02 0.0 
1.051733125666e-04 5.123472165795e-02 0.0 
1.654647712184e-02 4.831686344282e-02 0.0 
1.492939889574e-02 4.460198470419e-02 0.0 
1.929228725118e-02 5.439996443931e-02 0.0 
7.037352962583e-03 3.547654247765e-02 0.0 
7.347507161354e-03 3.891998810522e-02 0.0 
8.833830321876e-03 4.030639774892e-02 0.0 
2.700582106533e-03 3.024650288287e-02 0.0 
1.803099270923e-03 2.250555790980e-02 0.0 
2.338778395124e-03 4.943202856323e-02 0.0 
3.061609350595e-03 4.827075508066e-02 0.0 
5.333120117241e-04 5.283526928094e-02 0.0 
3.386482572306e-03 2.574123143443e-02 0.0 
2.253901701075e-05 1.488353196720e-02 0.0 
8.349384962637e-05 1.779310202196e-02 0.0 
1.114111471745e-03 6.772520019377e-02 0.0 
1.013511607805e-04 6.517203250378e-02 0.0 
1.156498535148e-02 6.955325592382e-02 0.0 
8.990398619775e-03 6.134967100091e-02 0.0 
5.496014548755e-03 2.802480661542e-02 0.0 
7.032258446769e-03 3.386075030556e-02 0.0 
3.905071058986e-03 2.116520707624e-02 0.0 
-8.282743796568e-05 7.085798056120e-02 0.0 
1.583771056902e-02 3.695764814420e-02 0.0 
3.537702719971e-03 1.576105388491e-02 0.0 
4.797084079788e-03 1.848272075832e-02 0.0 
2.323411992398e-03 1.228593372337e-02 0.0 
1.161150709331e-02 2.585899495696e-02 0.0 
8.728387900427e-03 1.883935726252e-02 0.0 
9.211580083266e-03 1.955861649444e-02 0.0 
2.789216769424e-04 3.160180767204e-02 0.0 
5.382070417694e-04 3.126313594607e-02 0.0 
4.815615149218e-03 9.110116661773e-02 0.0 
-9.273328437342e-04 2.881324118184e-02 0.0 
4.159626615212e-03 9.605950073645e-02 0.0 
3.477913871255e-03 9.020840945533e-02 0.0 
3.594174783428e-03 1.008638821353e-01 0.0 
4.596557837109e-05 7.256681941373e-02 0.0 
7.912538219677e-03 9.409696108696e-02 0.0 
8.700387869852e-03 8.809863939178e-02 0.0 
1.790271517776e-03 6.605244708570e-02 0.0 
2.297553171003e-03 1.916791879500e-02 0.0 
1.876092584830e-03 6.963922975956e-02 0.0 
1.394629808117e-03 7.079268982994e-02 0.0 
1.072814127075e-03 1.457682164165e-02 0.0 
9.900651548777e-04 1.813995850134e-02 0.0 
6.247827844775e-04 1.187404635613e-02 0.0 
6.097425813621e-04 1.584202166070e-02 0.0 
8.560861947631e-04 2.176976534353e-02 0.0 
5.118692748472e-04 1.928262022968e-02 0.0 
5.641021377884e-03 9.746098613312e-02 0.0 
3.154558611373e-04 1.214515453271e-02 0.0 
2.672673579034e-04 1.649681071759e-02 0.0 
1.310615473635e-04 9.445289920768e-03 0.0 
1.822336083742e-02 1.103641613026e-01 0.0 
2.043996728793e-02 9.037235764484e-02 0.0 
1.909503317416e-02 9.887592658379e-02 0.0 
1.611163535159e-02 1.039679052151e-01 0.0 
7.689842998703e-03 1.883960001507e-02 0.0 
9.520253370652e-03 2.540156875243e-02 0.0 
-3.111794681942e-06 2.840866229576e-02 0.0 
-9.231896027835e-06 3.422254719254e-02 0.0 
2.871440665306e-03 9.562368515674e-02 0.0 
2.096329390509e-03 9.605103682694e-02 0.0 
2.289428007238e-03 8.672144107715e-02 0.0 
1.652489069762e-03 8.787711799009e-02 0.0 
1.773616878586e-03 7.843850469003e-02 0.0 
1.142057144467e-03 7.966269835293e-02 0.0 
1.351809966892e-03 6.993815130818e-02 0.0 
7.560593211330e-03 1.583617433220e-02 0.0 
1.337271768433e-02 9.251747592794e-02 0.0 
1.709468314430e-02 1.060512397443e-01 0.0 
6.185230401413e-03 1.481574791026e-02 0.0 
7.245171883648e-03 1.872550898040e-02 0.0 
2.027520068135e-02 1.047334465577e-01 0.0 
1.879479573913e-02 1.120927635439e-01 0.0 
1.544293800163e-03 1.280422817569e-02 0.0 
2.097370131057e-02 6.849487041699e-02 0.0 
1.717700443244e-03 1.224970492240e-02 0.0 
-4.505524370994e-03 4.107698921851e-02 0.0 
1.241013567022e-03 4.058116762351e-02 0.0 
2.211358747457e-02 7.166698343271e-02 0.0 
2.110988603636e-02 9.735217669003e-02 0.0 
2.124043409041e-02 9.367085412585e-02 0.0 
2.002665129886e-02 1.018501774061e-01 0.0 
6.491772388441e-03 3.139744813642e-02 0.0 
2.772674938390e-04 6.312549916051e-02 0.0 
1.368239593857e-02 7.706343520679e-02 0.0 
1.965026089548e-03 6.883141668039e-02 0.0 
9.570213338170e-03 7.827531263352e-02 0.0 
-7.420831195460e-06 3.118090911045e-02 0.0 
2.014446729462e-02 6.268067685419e-02 0.0 
2.283691167879e-02 8.377963124113e-02 0.0 
1.654057093215e-02 7.521574405468e-02 0.0 
2.133797760830e-02 8.236046305168e-02 0.0 
1.724249246523e-02 7.970325704756e-02 0.0 
1.545704007261e-02 9.059862825382e-02 0.0 
1.650642287021e-02 9.440652025128e-02 0.0 
1.891290648371e-02 5.775699361900e-02 0.0 
2.045943325860e-02 1.037149484018e-01 0.0 
1.820520190640e-02 1.106058204546e-01 0.0 
2.035134296265e-02 7.988296739192e-02 0.0 
8.770980266286e-03 4.514811767461e-02 0.0 
8.674830794026e-03 3.970023227545e-02 0.0 
6.710920748211e-03 2.881051763484e-02 0.0 
8.399199014897e-03 3.435729361242e-02 0.0 
1.036459317381e-02 4.533071503709e-02 0.0 
1.018491983203e-02 3.992084109361e-02 0.0 
7.926516494165e-03 2.918329807615e-02 0.0 
9.801339718646e-03 3.457806395342e-02 0.0 
6.632824138462e-03 2.178967132102e-02 0.0 
9.108799468192e-03 2.907857103041e-02 0.0 
1.169878507002e-02 3.993191181709e-02 0.0 
1.119829972573e-02 3.483328517351e-02 0.0 
8.602458727225e-03 2.523535920515e-02 0.0 
1.362059001301e-02 4.544882818655e-02 0.0 
5.070491706913e-03 1.137185378796e-02 0.0 
2.239129449818e-02 6.775880977854e-02 0.0 
3.008952003449e-03 3.749710699215e-02 0.0 
4.116137820677e-03 5.023442509648e-02 0.0 
2.220278568231e-02 8.320065961766e-02 0.0 
3.254224063362e-03 1.062738877315e-02 0.0 
2.688925114851e-03 1.071652891533e-02 0.0 
1.762985969501e-02 6.051885523791e-02 0.0 
3.927510330752e-03 8.889086972081e-03 0.0 
1.756175596698e-02 8.880224505372e-02 0.0 
1.124578045969e-02 4.983649650041e-02 0.0 
4.037299549374e-03 8.412476247667e-03 0.0 
1.035229773391e-02 5.074219397423e-02 0.0 
1.194268973066e-02 5.625018418724e-02 0.0 
1.164746995775e-02 6.162681352466e-02 0.0 
2.080731002640e-03 1.015537056773e-02 0.0 
8.300760039780e-03 7.729570953143e-02 0.0 
3.383839738756e-03 6.914236408315e-03 0.0 
1.563700502701e-02 4.216514039575e-02 0.0 
1.738436736690e-02 4.576113875526e-02 0.0 
1.823682144351e-02 4.956904459003e-02 0.0 
1.199818644350e-02 4.546746592638e-02 0.0 
2.540586807562e-03 6.581619756371e-03 0.0 
4.412602077952e-03 1.233362274535e-02 0.0 
3.832531369121e-03 1.213324123831e-02 0.0 
5.932539141361e-03 1.799265100307e-02 0.0 
1.903187574886e-03 6.351967354288e-03 0.0 
3.349030081618e-03 9.208344242633e-03 0.0 
3.352236818316e-03 8.557309413962e-03 0.0 
1.773781380247e-03 4.820233896749e-02 0.0 
3.974463581367e-03 4.708446797332e-02 0.0 
5.188135983135e-03 4.719051017112e-02 0.0 
6.426912166094e-03 4.672299545720e-02 0.0 
5.103484593995e-03 4.603075489358e-02 0.0 
7.847204245191e-03 4.661917850531e-02 0.0 
8.946841512614e-03 4.704482280059e-02 0.0 
9.435664900634e-03 4.713912502268e-02 0.0 
1.239835794582e-02 3.496959151489e-02 0.0 
1.281455722814e-03 6.020329887641e-03 0.0 
3.962979585137e-03 3.848428591805e-02 0.0 
4.983196921394e-03 3.963627160984e-02 0.0 
4.864645520665e-03 4.263767967980e-02 0.0 
-1.369668387384e-04 5.459427007285e-02 0.0 
2.352605360777e-04 5.183614917988e-02 0.0 
5.025423381794e-04 4.841018662565e-02 0.0 
-3.690501135894e-04 5.730863113943e-02 0.0 
1.856476058506e-02 4.614948038578e-02 0.0 
1.018922144728e-03 6.049729300937e-03 0.0 
1.011297295657e-02 3.895298380864e-02 0.0 
4.076362632450e-04 5.216145630251e-02 0.0 
1.045343289510e-02 1.031092328058e-01 0.0 
1.098423500162e-02 9.440359027977e-02 0.0 
1.204126999701e-02 9.357611473937e-02 0.0 
1.127802420385e-02 8.407777053694e-02 0.0 
9.787475808032e-03 9.378792929726e-02 0.0 
-4.341059025928e-05 4.926357188754e-02 0.0 
-6.919083216488e-05 4.790334123617e-02 0.0 
-1.426354765959e-04 5.069696882974e-02 0.0 
-7.113140022515e-05 4.631596126555e-02 0.0 
-1.034302258576e-04 4.910792059378e-02 0.0 
-1.583188392527e-04 5.324300281085e-02 0.0 
-5.647483093266e-05 4.452128284671e-02 0.0 
-6.345987937838e-05 4.783264102762e-02 0.0 
8.421547599265e-03 1.038921329532e-01 0.0 
6.135794610257e-04 3.879475705851e-02 0.0 
-1.251850395401e-03 4.310537245846e-02 0.0 
-2.010255022209e-04 4.985733047052e-02 0.0 
-2.052863098406e-03 4.678014662875e-02 0.0 
-2.110423170149e-03 4.120981582121e-02 0.0 
-2.169443027503e-03 4.518146448723e-02 0.0 
-1.326436280314e-03 4.084548200209e-02 0.0 
-1.774854659952e-03 3.617461140372e-02 0.0 
3.185680099514e-03 5.310101485296e-02 0.0 
6.478732738878e-04 5.525883788957e-02 0.0 
3.723218405720e-03 5.801765253495e-02 0.0 
1.377260526720e-03 5.959656908549e-02 0.0 
-9.488405710071e-04 5.693946934651e-02 0.0 
-7.170064722180e-04 6.408854920131e-02 0.0 
-7.976459728697e-06 7.461013777408e-03 0.0 
-9.531632945180e-05 5.924164233510e-02 0.0 
-1.956141857249e-04 6.082067614705e-02 0.0 
-2.157671718852e-04 6.395103086212e-02 0.0 
-3.117864597241e-04 6.193329842618e-02 0.0 
-1.667813238898e-04 5.757650369793e-02 0.0 
-1.070898973760e-04 6.573722188807e-02 0.0 
-1.997499966229e-04 6.651032599216e-02 0.0 
1.382408639751e-03 7.524459379258e-02 0.0 
7.776569525611e-04 7.531529490570e-02 0.0 
3.884910855785e-04 7.570444944400e-02 0.0 
3.691797735906e-04 7.497367492239e-02 0.0 
6.112521694380e-04 7.456562666403e-02 0.0 
1.143852118955e-03 7.477264323337e-02 0.0 
1.486195485360e-03 7.403619178300e-02 0.0 
2.381380222472e-03 7.378305718799e-02 0.0 
1.768955128049e-03 7.310452383201e-02 0.0 
9.622477386963e-04 7.307819218541e-02 0.0 
2.836349431333e-03 7.277482597018e-02 0.0 
4.314379191310e-04 5.523778051482e-02 0.0 
8.210611830905e-04 4.951277672801e-02 0.0 
6.400117976567e-04 6.450693184788e-03 0.0 
6.520095096829e-03 1.034694616354e-01 0.0 
3.946474724410e-03 6.505159210913e-02 0.0 
6.588442171398e-04 1.323188426687e-02 0.0 
9.984019138762e-04 1.096371786097e-02 0.0 
8.104309238007e-04 1.062993501126e-02 0.0 
-9.408595295436e-06 1.840590564109e-02 0.0 
-1.432802997450e-05 1.506987435843e-02 0.0 
3.553594343471e-04 1.287050467636e-02 0.0 
-8.792489801695e-04 6.213439859278e-02 0.0 
6.201873630762e-03 2.389007107753e-02 0.0 
1.865833609360e-03 3.411450858924e-02 0.0 
1.227406577178e-02 5.467480949327e-02 0.0 
-9.401990209858e-04 5.683662762049e-02 0.0 
6.309463861086e-06 3.652164663361e-02 0.0 
8.114112189606e-04 4.046303681507e-02 0.0 
1.312330315187e-04 2.397878277430e-02 0.0 
1.360556569643e-04 4.045266189246e-02 0.0 
4.937476134874e-04 2.865654589537e-02 0.0 
3.329458109766e-03 1.237888309543e-02 0.0 
1.656267969716e-04 7.270004254988e-02 0.0 
5.191184373286e-03 7.577987263635e-02 0.0 
3.349372513400e-03 7.972283631499e-02 0.0 
3.110163622146e-03 5.244625592849e-02 0.0 
-5.890093759930e-04 6.529741269049e-02 0.0 
-2.237277219615e-04 5.450481732940e-02 0.0 
-1.501207575048e-04 6.878773490217e-02 0.0 
7.300062396262e-03 1.611796761452e-02 0.0 
2.060517833284e-02 8.817255543810e-02 0.0 
3.620072977837e-03 4.476339727287e-02 0.0 
-3.914040843068e-04 5.761798998595e-02 0.0 
-7.695145021044e-04 5.936949086035e-02 0.0 
-1.051139235267e-03 5.500103390996e-02 0.0 
2.295646649443e-02 6.941686077989e-02 0.0 
1.067150383729e-03 4.945194726713e-02 0.0 
2.180033988724e-03 3.131067934651e-02 0.0 
2.375635605829e-03 4.606536066247e-02 0.0 
3.382262511050e-03 6.982696907203e-02 0.0 
2.638423115897e-03 2.824132741522e-02 0.0 
1.630104782586e-03 4.279042178619e-02 0.0 
7.221237262343e-03 7.157435771457e-02 0.0 
1.108795960876e-02 2.977647428723e-02 0.0 
-2.146576772970e-03 4.944560408650e-02 0.0 
4.478973156422e-03 4.825710050101e-02 0.0 
4.407546618832e-03 2.735468913927e-02 0.0 
9.370597175055e-03 8.277407694337e-02 0.0 
5.074249497786e-04 7.009706479375e-02 0.0 
5.468136088791e-03 8.652694861509e-02 0.0 
2.468044223985e-03 1.619575494369e-02 0.0 
8.692111124723e-03 5.054102166395e-02 0.0 
-4.327700052795e-04 6.750507945145e-02 0.0 
1.213699339583e-02 4.365360014689e-02 0.0 
2.312605389272e-02 7.715329904768e-02 0.0 
1.497440436544e-02 1.081318707990e-01 0.0 
1.927256767010e-03 2.906427042165e-02 0.0 
2.043053125651e-02 5.419054081802e-02 0.0 
7.678763250455e-03 2.398675509620e-02 0.0 
1.120023422720e-02 3.761742697956e-02 0.0 
-3.750538789167e-04 6.718353799201e-02 0.0 
1.312527209615e-03 2.405275614690e-02 0.0 
1.711838489526e-02 4.908487911637e-02 0.0 
3.605050514636e-03 3.653129681652e-02 0.0 
1.735689470739e-02 4.630164943942e-02 0.0 
1.366716242367e-02 4.905393333523e-02 0.0 
5.866424666442e-03 4.386024892531e-02 0.0 
5.977724221029e-03 4.331751304222e-02 0.0 
1.099832532222e-02 2.746587192123e-02 0.0 
2.146784184292e-02 8.971831956833e-02 0.0 
2.080236757450e-02 6.211364211086e-02 0.0 
1.702968194136e-02 5.928184617275e-02 0.0 
2.161755097336e-02 5.899487991914e-02 0.0 
-2.848154902204e-05 3.968817424092e-02 0.0 
1.903735051280e-03 2.622473301654e-02 0.0 
3.126613322788e-03 4.023133378135e-02 0.0 
2.240691957142e-02 7.830459072718e-02 0.0 
8.873631664746e-03 7.206766430831e-02 0.0 
1.258228789175e-02 2.854093398369e-02 0.0 
2.545392427280e-03 2.438943867692e-02 0.0 
2.320449405295e-02 8.354919815906e-02 0.0 
1.061292768981e-03 2.743860506397e-02 0.0 
4.603156815951e-03 3.245545208390e-02 0.0 
7.520188813020e-04 4.907092950046e-02 0.0 
1.023039595794e-05 7.264408335483e-02 0.0 
9.821364779096e-03 5.359027576098e-02 0.0 
1.225753855173e-02 4.952201815922e-02 0.0 
1.978662111094e-02 5.369815128158e-02 0.0 
1.014032403865e-03 4.560288243265e-02 0.0 
4.819427577639e-03 2.146044809773e-02 0.0 
6.786272841076e-04 2.524577619526e-02 0.0 
5.183822429557e-03 2.927477027972e-02 0.0 
1.245671952075e-03 7.004393047048e-02 0.0 
1.633197623079e-02 1.029360077660e-01 0.0 
3.970670100823e-04 2.287179966942e-02 0.0 
1.044129242970e-02 4.185186654500e-02 0.0 
9.250633875557e-03 2.433410705507e-02 0.0 
-9.506362763599e-05 5.179884269109e-02 0.0 
7.371354504209e-03 1.576379925067e-02 0.0 
1.868699566209e-02 1.113790206447e-01 0.0 
2.019840852376e-04 2.032528870469e-02 0.0 
7.101493690645e-03 2.902565440936e-02 0.0 
1.949405149225e-02 6.471359375905e-02 0.0 
1.797080572376e-03 1.046470563997e-01 0.0 
9.590148187804e-05 1.275461895975e-02 0.0 
5.987213187951e-03 2.377031296257e-02 0.0 
2.028194239875e-02 5.277135088625e-02 0.0 
8.887872547395e-03 4.283305352139e-02 0.0 
1.612390025451e-02 1.141477145845e-01 0.0 
6.972866343788e-04 4.464415213662e-02 0.0 
1.970454483095e-02 5.994423847020e-02 0.0 
1.810271176765e-03 9.964248604017e-03 0.0 
6.169560525614e-03 2.129924094922e-02 0.0 
1.311971723939e-02 6.697428436131e-02 0.0 
3.064784581796e-04 4.754142535923e-02 0.0 
1.642936602481e-02 4.033503210102e-02 0.0 
8.249699860202e-04 7.393581559843e-02 0.0 
1.771640262176e-02 1.084187970822e-01 0.0 
1.627579180035e-04 4.641352480301e-02 0.0 
1.055980956284e-02 4.789929735774e-02 0.0 
7.431576693158e-03 4.173722046922e-02 0.0 
6.972466402295e-03 1.518279285136e-02 0.0 
6.592139810743e-05 4.503795645565e-02 0.0 
1.139250600139e-02 4.788092976438e-02 0.0 
7.468820822753e-06 4.343794967475e-02 0.0 
1.674051994532e-02 1.181523020650e-01 0.0 
1.350091521495e-02 6.138293916057e-02 0.0 
-2.200530313781e-05 4.163533839996e-02 0.0 
1.801904050212e-02 5.163681397252e-02 0.0 
1.016451313335e-03 7.192473112629e-02 0.0 
1.917682964155e-02 4.783345500934e-02 0.0 
-6.550018773314e-06 2.188787978318e-02 0.0 
2.933838940283e-04 5.387268866731e-02 0.0 
6.136538227789e-03 4.072679403114e-02 0.0 
1.206202717443e-02 5.083066984623e-02 0.0 
1.651691703585e-02 1.199346753655e-01 0.0 
6.054623993925e-03 3.753377795910e-02 0.0 
1.589952465385e-02 4.305317979436e-02 0.0 
1.785111206318e-02 4.324650587838e-02 0.0 
1.899426126746e-02 4.975539971079e-02 0.0 
5.733028885814e-03 3.371587571240e-02 0.0 
1.876815656931e-02 1.114197762044e-01 0.0 
-1.017061559774e-03 6.129007758834e-02 0.0 
-1.041085603152e-03 6.276065684417e-02 0.0 
9.735980095078e-03 4.674389978893e-02 0.0 
1.422305745277e-02 3.922863844571e-02 0.0 
2.744119642029e-04 7.392435495036e-02 0.0 
1.376674508224e-02 5.057574732245e-02 0.0 
-8.606866459542e-04 6.224856516195e-02 0.0 
7.459198308958e-03 4.671462286712e-02 0.0 
1.405117413093e-02 3.230694190561e-02 0.0 
5.172094849541e-04 7.696647823343e-02 0.0 
6.131817590303e-03 4.671190080605e-02 0.0 
-5.062114149977e-05 7.071440993485e-02 0.0 
4.143111229568e-03 4.781918616993e-02 0.0 
1.786973980953e-02 4.527954723030e-02 0.0 
3.271197330582e-03 4.846130566253e-02 0.0 
1.757987304185e-03 5.046134059409e-02 0.0 
1.289090527485e-03 2.235599065835e-02 0.0 
1.294227744664e-03 5.129314740663e-02 0.0 
1.735915459249e-04 1.067570730268e-02 0.0 
-1.241868499461e-05 6.834590038277e-03 0.0 
6.787662920398e-04 9.727760192740e-02 0.0 
1.484431726491e-02 1.193551460010e-01 0.0 
-2.375259975517e-03 2.695055313868e-02 0.0 
1.784532008100e-02 1.061828461209e-01 0.0 
-3.392347065979e-04 5.546155505762e-02 0.0 
1.534533985739e-02 4.993769782541e-02 0.0 
1.410700612171e-03 9.681498619907e-02 0.0 
-8.541840455232e-04 5.831737217027e-02 0.0 
6.288404119027e-03 1.868222570166e-02 0.0 
3.654269437498e-03 7.322316749735e-03 0.0 
9.310538633720e-04 6.027439595880e-02 0.0 
7.681583578824e-03 2.163315654294e-02 0.0 
1.627074644758e-02 3.876107821872e-02 0.0 
2.658779589259e-04 3.246789859838e-02 0.0 
4.178443878587e-03 1.053326881263e-01 0.0 
1.901603038138e-03 6.314999807272e-02 0.0 
-1.319007216945e-05 3.694904881228e-02 0.0 
1.246843472245e-02 1.128614276817e-01 0.0 
1.472434690374e-02 9.842463446567e-02 0.0 
1.148444879833e-02 8.581867768920e-02 0.0 
-2.927160084563e-04 6.684300575150e-02 0.0 
-1.365479614744e-03 5.225294192949e-02 0.0 
1.031728606386e-02 1.017365465770e-01 0.0 
5.051074910804e-03 1.295793967265e-02 0.0 
7.046299022570e-03 9.629079702221e-02 0.0 
1.350970110072e-02 3.040374502117e-02 0.0 
6.362759188951e-03 8.774745184749e-02 0.0 
3.170812263312e-03 2.125467283844e-02 0.0 
7.035923125306e-03 1.465329690733e-02 0.0 
2.923540793686e-04 5.769273514158e-03 0.0 
1.055629358136e-02 2.288087183481e-02 0.0 
7.032413331982e-03 6.969874262178e-02 0.0 
1.033564430728e-02 8.662035280858e-02 0.0 
7.167786447318e-03 1.650297063453e-02 0.0 
1.257549745255e-03 5.116109479889e-02 0.0 
1.083172757351e-04 5.609734753221e-03 0.0 
8.871091925573e-03 9.676301090856e-02 0.0 
7.866227938612e-04 2.089338843321e-02 0.0 
5.108435918946e-04 3.922606998958e-02 0.0 
3.964264251743e-04 2.028888397616e-02 0.0 
1.312778051621e-02 4.006301546549e-02 0.0 
2.881961374732e-03 8.452855124461e-02 0.0 
1.237708725464e-02 8.593460960743e-02 0.0 
-1.038131977522e-05 1.181237285939e-02 0.0 
5.526955818981e-03 1.952156762604e-02 0.0 
4.282303133997e-03 5.921095487930e-02 0.0 
1.459647227647e-03 6.139876650684e-02 0.0 
-3.929101151224e-04 6.136059886070e-02 0.0 
-1.241173971435e-03 3.085366670692e-02 0.0 
1.096750919141e-03 1.176598901725e-02 0.0 
1.053271570593e-02 3.026162205265e-02 0.0 
3.692718088264e-05 1.196090192214e-02 0.0 
1.738241935059e-04 7.521525610453e-02 0.0 
2.406283634491e-03 6.835464826834e-02 0.0 
1.652259727515e-03 1.080903594682e-02 0.0 
6.398446259926e-03 1.647703732970e-02 0.0 
-5.994500681100e-04 4.356105226233e-02 0.0 
1.060861508012e-03 8.563033498204e-03 0.0 
-5.124196003448e-05 4.936379290733e-02 0.0 
5.710186353123e-03 1.062382385105e-01 0.0 
2.067140184168e-03 7.209914684196e-02 0.0 
4.366454711022e-05 5.725204027811e-03 0.0 
1.884508733915e-03 1.993910764951e-02 0.0 
-2.467009167747e-04 5.897662545580e-02 0.0 
1.250808079537e-02 1.008545037807e-01 0.0 
-1.559534222597e-04 6.892586593099e-02 0.0 
9.866872450561e-03 2.151723077760e-02 0.0 
1.349434954156e-04 6.064944691039e-02 0.0 
1.285073381905e-03 1.886985569258e-02 0.0 
2.451782067626e-03 1.056960999848e-02 0.0 
3.812854931534e-03 1.834231190670e-02 0.0 
2.288233720465e-03 5.070869913660e-03 0.0 
-2.890427015500e-04 3.306483424528e-02 0.0 
6.284491182562e-03 1.294841484835e-02 0.0 
4.825764660587e-03 1.645235509859e-02 0.0 
3.135440599090e-03 1.057684133104e-01 0.0 
4.805811826948e-03 1.938012281510e-02 0.0 
-2.977208293820e-04 6.464911946246e-02 0.0 
5.085736566688e-04 7.202376822513e-02 0.0 
7.505134913135e-05 9.462436146233e-03 0.0 
4.510645154443e-04 7.582067618872e-02 0.0 
5.265760058032e-04 1.057555535080e-01 0.0 
-3.199098306705e-06 5.585111660934e-03 0.0 
4.395388820515e-04 7.367272694802e-02 0.0 
1.119105196888e-03 8.989652512114e-02 0.0 
5.904784094713e-03 1.621432073966e-02 0.0 
-4.479559174156e-05 5.118051710382e-02 0.0 
6.208036445403e-04 4.027109096826e-02 0.0 
-2.200873960254e-03 4.950198292693e-02 0.0 
-9.762655221967e-04 2.561932936131e-02 0.0 
8.934485015495e-04 7.157292531322e-02 0.0 
6.064519584766e-03 1.279343894607e-02 0.0 
2.955702806877e-03 1.772841845196e-02 0.0 
2.308064635925e-03 7.880338397654e-02 0.0 
7.251804479981e-03 5.412868236250e-02 0.0 
8.261466279277e-03 2.276195022924e-02 0.0 
-2.175101686368e-04 5.613388199185e-02 0.0 
9.654834664709e-03 2.245001175974e-02 0.0 
6.177035660216e-03 1.703302420776e-02 0.0 
-5.026606877307e-03 5.110323170179e-02 0.0 
-2.379810146017e-05 4.675056098666e-02 0.0 
2.344164751586e-03 7.092941244551e-02 0.0 
4.225314986933e-04 1.066906138402e-02 0.0 
-1.380428996796e-04 5.464292311114e-02 0.0 
1.153450817784e-02 1.303103273431e-01 0.0 
3.652354553476e-04 1.501858240047e-01 0.0 
1.353526255349e-02 1.295541345986e-01 0.0 
3.363023830737e-04 1.426107845234e-01 0.0 
1.413668725710e-02 1.263193199355e-01 0.0 
3.551363507400e-04 1.346039933841e-01 0.0 
1.386616516420e-02 1.211037844842e-01 0.0 
3.406189878739e-04 1.261606934589e-01 0.0 
1.298981299470e-02 1.145024507456e-01 0.0 
3.588776655817e-04 1.172836596142e-01 0.0 

TENSORS node_materi_stress float
-9.163984935062e-01 -1.538562397427e-01 0.0 
-1.538562397427e-01 -8.533493594108e+00 0.0 
0.0 0.0 -1.580197500354e+00 
-5.167529660138e+01 4.358826232403e-01 0.0 
4.358826232403e-01 -9.840028683767e+01 0.0 
0.0 0.0 -4.462267503172e+01 
-1.664846805733e+02 -2.882686065054e-01 0.0 
-2.882686065054e-01 -3.902435142100e+02 0.0 
0.0 0.0 -1.666184584350e+02 
-1.238578936413e+02 6.904932601815e-01 0.0 
6.904932601815e-01 -2.885089344572e+02 0.0 
0.0 0.0 -1.233100484296e+02 
-4.258827272884e+00 -3.365914917310e-01 0.0 
-3.365914917310e-01 -2.083509472333e+01 0.0 
0.0 0.0 -6.554576807520e+00 
-1.208899770417e+01 -6.344888849721e-01 0.0 
-6.344888849721e-01 -4.037734603510e+01 0.0 
0.0 0.0 -1.533990312178e+01 
-2.127479263299e+01 -6.015814307378e-01 0.0 
-6.015814307378e-01 -5.869975166528e+01 0.0 
0.0 0.0 -2.359236328948e+01 
-3.110363066418e+01 -6.135405566557e-01 0.0 
-6.135405566557e-01 -7.959613347614e+01 0.0 
0.0 0.0 -3.280992924210e+01 
-4.032844009073e+01 -5.525263980032e-01 0.0 
-5.525263980032e-01 -9.988153004279e+01 0.0 
0.0 0.0 -4.166299104006e+01 
-4.938401294801e+01 -5.593474185779e-01 0.0 
-5.593474185779e-01 -1.200031624684e+02 0.0 
0.0 0.0 -5.041615262491e+01 
-5.808693586786e+01 -6.102503448445e-01 0.0 
-6.102503448445e-01 -1.401987954688e+02 0.0 
0.0 0.0 -5.908571940100e+01 
-6.653927930342e+01 -5.856129759289e-01 0.0 
-5.856129759289e-01 -1.604521772733e+02 0.0 
0.0 0.0 -6.769743697303e+01 
-7.490344569323e+01 -5.767594797801e-01 0.0 
-5.767594797801e-01 -1.807127773420e+02 0.0 
0.0 0.0 -7.628486691058e+01 
-8.318493763624e+01 -6.259540311735e-01 0.0 
-6.259540311735e-01 -2.011627873490e+02 0.0 
0.0 0.0 -8.490431749557e+01 
-9.161616354813e+01 -7.417365038139e-01 0.0 
-7.417365038139e-01 -2.220828990576e+02 0.0 
0.0 0.0 -9.370971878171e+01 
-1.002177856329e+02 -6.927230975010e-01 0.0 
-6.927230975010e-01 -2.422221073027e+02 0.0 
0.0 0.0 -1.023319678807e+02 
-1.081114251125e+02 -8.432660787214e-01 0.0 
-8.432660787214e-01 -2.604505447836e+02 0.0 
0.0 0.0 -1.101685909688e+02 
-1.166123855156e+02 -3.890076762500e-01 0.0 
-3.890076762500e-01 -2.804948651392e+02 0.0 
0.0 0.0 -1.187321751964e+02 
-1.255474245480e+02 -3.250646743099e-01 0.0 
-3.250646743099e-01 -3.008995525906e+02 0.0 
0.0 0.0 -1.275340931416e+02 
-1.343489789244e+02 -2.852584089230e-01 0.0 
-2.852584089230e-01 -3.205794780205e+02 0.0 
0.0 0.0 -1.360785370835e+02 
-1.432779888792e+02 -2.256183118757e-01 0.0 
-2.256183118757e-01 -3.403176745307e+02 0.0 
0.0 0.0 -1.446786990230e+02 
-1.523529550807e+02 -2.462018158699e-01 0.0 
-2.462018158699e-01 -3.601306571081e+02 0.0 
0.0 0.0 -1.533450836566e+02 
-1.611586933639e+02 -3.160190059976e-01 0.0 
-3.160190059976e-01 -3.790125935006e+02 0.0 
0.0 0.0 -1.616513860594e+02 
-1.242281773380e+02 8.088013397841e-01 0.0 
8.088013397841e-01 -2.896816512012e+02 0.0 
0.0 0.0 -1.237729485618e+02 
-1.236922751470e+02 1.441708421441e+00 0.0 
1.441708421441e+00 -2.886804901760e+02 0.0 
0.0 0.0 -1.233118295969e+02 
-1.238626172292e+02 2.382262642849e+00 0.0 
2.382262642849e+00 -2.890289777896e+02 0.0 
0.0 0.0 -1.234674785056e+02 
-1.238651153129e+02 2.735873889078e+00 0.0 
2.735873889078e+00 -2.891715228445e+02 0.0 
0.0 0.0 -1.235109914472e+02 
-1.238241246894e+02 3.621150584029e+00 0.0 
3.621150584029e+00 -2.887509728326e+02 0.0 
0.0 0.0 -1.233725292566e+02 
-1.242329122350e+02 4.429320638024e+00 0.0 
4.429320638024e+00 -2.896685246453e+02 0.0 
0.0 0.0 -1.237704310641e+02 
-1.247722015223e+02 5.333276052427e+00 0.0 
5.333276052427e+00 -2.903742714324e+02 0.0 
0.0 0.0 -1.241439418864e+02 
-1.247025906593e+02 6.381736831815e+00 0.0 
6.381736831815e+00 -2.905778117025e+02 0.0 
0.0 0.0 -1.241841207085e+02 
-1.254422640490e+02 7.525295877160e+00 0.0 
7.525295877160e+00 -2.920339891710e+02 0.0 
0.0 0.0 -1.248428759660e+02 
-1.256801152544e+02 8.330579147111e+00 0.0 
8.330579147111e+00 -2.928178016951e+02 0.0 
0.0 0.0 -1.251493750848e+02 
-1.260855668653e+02 9.594034878770e+00 0.0 
9.594034878770e+00 -2.932102046293e+02 0.0 
0.0 0.0 -1.253887314484e+02 
-1.268197279533e+02 1.087145227937e+01 0.0 
1.087145227937e+01 -2.950560478654e+02 0.0 
0.0 0.0 -1.261627327456e+02 
-1.280050289198e+02 1.220799401352e+01 0.0 
1.220799401352e+01 -2.971934947950e+02 0.0 
0.0 0.0 -1.271595571144e+02 
-1.283965008763e+02 1.358167539890e+01 0.0 
1.358167539890e+01 -2.986020325442e+02 0.0 
0.0 0.0 -1.276995600262e+02 
-1.294935004912e+02 1.501333025158e+01 0.0 
1.501333025158e+01 -3.005294700936e+02 0.0 
0.0 0.0 -1.286068911754e+02 
-1.300630452379e+02 1.631129612556e+01 0.0 
1.631129612556e+01 -3.023304542990e+02 0.0 
0.0 0.0 -1.293180498611e+02 
-1.313674633299e+02 1.780052612863e+01 0.0 
1.780052612863e+01 -3.051862085372e+02 0.0 
0.0 0.0 -1.305661015601e+02 
-1.334254814125e+02 1.928347863986e+01 0.0 
1.928347863986e+01 -3.095611885927e+02 0.0 
0.0 0.0 -1.324960010015e+02 
-1.350248122368e+02 2.067529625826e+01 0.0 
2.067529625826e+01 -3.138620055114e+02 0.0 
0.0 0.0 -1.342660453245e+02 
-1.368042823715e+02 2.194610449332e+01 0.0 
2.194610449332e+01 -3.185040226547e+02 0.0 
0.0 0.0 -1.361924915079e+02 
-1.385465987501e+02 2.291081977951e+01 0.0 
2.291081977951e+01 -3.230962617634e+02 0.0 
0.0 0.0 -1.380928581540e+02 
-1.406864229904e+02 2.387064665679e+01 0.0 
2.387064665679e+01 -3.280041206242e+02 0.0 
0.0 0.0 -1.402071630844e+02 
-1.426277811195e+02 2.448591852863e+01 0.0 
2.448591852863e+01 -3.332794086302e+02 0.0 
0.0 0.0 -1.423721569249e+02 
-1.447544262855e+02 2.485487292976e+01 0.0 
2.485487292976e+01 -3.387401007234e+02 0.0 
0.0 0.0 -1.446483581027e+02 
-1.470483313612e+02 2.492383646964e+01 0.0 
2.492383646964e+01 -3.445722032441e+02 0.0 
0.0 0.0 -1.470861603816e+02 
-1.494041732850e+02 2.475751495996e+01 0.0 
2.475751495996e+01 -3.504184856751e+02 0.0 
0.0 0.0 -1.495467976880e+02 
-1.514674666105e+02 2.422449362476e+01 0.0 
2.422449362476e+01 -3.560241367092e+02 0.0 
0.0 0.0 -1.518474809959e+02 
-1.536346346202e+02 2.340213314049e+01 0.0 
2.340213314049e+01 -3.613783335124e+02 0.0 
0.0 0.0 -1.541038904398e+02 
-1.554155732864e+02 2.231212964829e+01 0.0 
2.231212964829e+01 -3.661532977400e+02 0.0 
0.0 0.0 -1.560706613079e+02 
-1.577246121978e+02 2.120203684699e+01 0.0 
2.120203684699e+01 -3.713282748030e+02 0.0 
0.0 0.0 -1.583158661003e+02 
-1.590870516369e+02 1.942045252103e+01 0.0 
1.942045252103e+01 -3.754050754571e+02 0.0 
0.0 0.0 -1.599476381282e+02 
-1.601438769645e+02 1.791910164165e+01 0.0 
1.791910164165e+01 -3.782170053362e+02 0.0 
0.0 0.0 -1.611082646902e+02 
-1.616135310802e+02 1.613360408722e+01 0.0 
1.613360408722e+01 -3.816206004660e+02 0.0 
0.0 0.0 -1.625702394639e+02 
-1.628650891915e+02 1.444162229103e+01 0.0 
1.444162229103e+01 -3.845206565140e+02 0.0 
0.0 0.0 -1.638157237117e+02 
-1.639108861177e+02 1.270031364926e+01 0.0 
1.270031364926e+01 -3.869087592315e+02 0.0 
0.0 0.0 -1.648458936048e+02 
-1.648006971573e+02 1.103549735217e+01 0.0 
1.103549735217e+01 -3.887422263710e+02 0.0 
0.0 0.0 -1.656628770585e+02 
-1.654245668921e+02 9.444958176668e+00 0.0 
9.444958176668e+00 -3.900982393173e+02 0.0 
0.0 0.0 -1.662568418628e+02 
-1.658156282201e+02 7.931981298259e+00 0.0 
7.931981298259e+00 -3.908286131665e+02 0.0 
0.0 0.0 -1.665932724160e+02 
-1.660335965349e+02 6.638287248391e+00 0.0 
6.638287248391e+00 -3.911629691303e+02 0.0 
0.0 0.0 -1.667589696996e+02 
-1.660625888864e+02 5.376220284803e+00 0.0 
5.376220284803e+00 -3.911298988321e+02 0.0 
0.0 0.0 -1.667577463155e+02 
-1.664305406344e+02 4.447021251916e+00 0.0 
4.447021251916e+00 -3.915801362877e+02 0.0 
0.0 0.0 -1.670032030766e+02 
-1.670238432347e+02 3.454139639677e+00 0.0 
3.454139639677e+00 -3.924041565899e+02 0.0 
0.0 0.0 -1.674283999474e+02 
-1.672353952084e+02 2.816646037245e+00 0.0 
2.816646037245e+00 -3.925751380831e+02 0.0 
0.0 0.0 -1.675431599874e+02 
-1.658597163627e+02 2.111048314112e+00 0.0 
2.111048314112e+00 -3.899154632920e+02 0.0 
0.0 0.0 -1.663325538964e+02 
-1.670134981737e+02 1.509380597917e+00 0.0 
1.509380597917e+00 -3.917122656866e+02 0.0 
0.0 0.0 -1.672177291581e+02 
-1.664824289514e+02 1.111981423005e+00 0.0 
1.111981423005e+00 -3.906853156910e+02 0.0 
0.0 0.0 -1.667503233927e+02 
-1.667243065738e+02 9.597222117921e-01 0.0 
9.597222117921e-01 -3.910030077374e+02 0.0 
0.0 0.0 -1.669181942934e+02 
-1.670093360379e+02 4.337847966567e-01 0.0 
4.337847966567e-01 -3.915064118915e+02 0.0 
0.0 0.0 -1.671547243788e+02 
-1.669124058152e+02 2.737710418739e-01 0.0 
2.737710418739e-01 -3.913165136978e+02 0.0 
0.0 0.0 -1.670686758539e+02 
-6.026790916888e+01 3.233138547438e-01 0.0 
3.233138547438e-01 -1.182173654963e+02 0.0 
0.0 0.0 -5.314558239956e+01 
-6.826427318442e+01 3.922639801613e-01 0.0 
3.922639801613e-01 -1.379817107028e+02 0.0 
0.0 0.0 -6.147379516616e+01 
-7.623652439761e+01 4.071225010974e-01 0.0 
4.071225010974e-01 -1.576258440092e+02 0.0 
0.0 0.0 -6.975871052204e+01 
-8.382744146080e+01 4.643948671529e-01 0.0 
4.643948671529e-01 -1.769358442247e+02 0.0 
0.0 0.0 -7.782898570564e+01 
-9.140636597655e+01 4.486038891084e-01 0.0 
4.486038891084e-01 -1.967551810127e+02 0.0 
0.0 0.0 -8.604846409678e+01 
-9.906285718856e+01 5.173094485354e-01 0.0 
5.173094485354e-01 -2.167508141270e+02 0.0 
0.0 0.0 -9.434410139466e+01 
-1.061915809162e+02 4.966938661129e-01 0.0 
4.966938661129e-01 -2.365657884656e+02 0.0 
0.0 0.0 -1.024272108145e+02 
-1.130734642866e+02 5.934885129629e-01 0.0 
5.934885129629e-01 -2.562691480580e+02 0.0 
0.0 0.0 -1.104027837034e+02 
-1.202609513820e+02 6.499368288881e-01 0.0 
6.499368288881e-01 -2.766780772359e+02 0.0 
0.0 0.0 -1.186817085854e+02 
-5.995140918503e+01 2.832395375851e+01 0.0 
2.832395375851e+01 -6.960877884974e+01 0.0 
0.0 0.0 -3.929144056634e+01 
-5.982836294275e+01 3.178601466568e+00 0.0 
3.178601466568e+00 -1.012221133183e+02 0.0 
0.0 0.0 -4.791514287831e+01 
-4.172169591338e+01 3.000699309984e+01 0.0 
3.000699309984e+01 -2.929810885003e+01 0.0 
0.0 0.0 -2.098626961810e+01 
-3.711417878973e+01 2.613699597656e+01 0.0 
2.613699597656e+01 -2.732050035511e+01 0.0 
0.0 0.0 -1.762241536232e+01 
-3.383690808263e+01 2.369422864478e+01 0.0 
2.369422864478e+01 -2.540039029450e+01 0.0 
0.0 0.0 -1.662395578624e+01 
-3.027029072998e+01 2.078596253959e+01 0.0 
2.078596253959e+01 -2.257947460037e+01 0.0 
0.0 0.0 -1.545492959911e+01 
-2.879608379920e+01 1.351162818352e+01 0.0 
1.351162818352e+01 -1.810218542514e+01 0.0 
0.0 0.0 -1.366948076730e+01 
-2.571677540736e+01 7.435788537856e+00 0.0 
7.435788537856e+00 -2.267961884869e+01 0.0 
0.0 0.0 -1.411891827681e+01 
-3.392027141434e+01 5.678670114885e+00 0.0 
5.678670114885e+00 -4.210634729281e+01 0.0 
0.0 0.0 -2.240798561214e+01 
-4.279340467008e+01 4.344397101834e+00 0.0 
4.344397101834e+00 -6.150466885736e+01 0.0 
0.0 0.0 -3.088942205823e+01 
-5.136037554633e+01 3.558665938310e+00 0.0 
3.558665938310e+00 -8.085518261059e+01 0.0 
0.0 0.0 -3.926466744707e+01 
-1.329426443185e+01 7.166438645369e-01 0.0 
7.166438645369e-01 -7.272569283747e+00 0.0 
0.0 0.0 -5.770050114680e+00 
-1.839331897379e+01 8.122291260946e-01 0.0 
8.122291260946e-01 -1.971700885692e+01 0.0 
0.0 0.0 -1.103309834921e+01 
-2.656879643150e+01 6.127420578780e-01 0.0 
6.127420578780e-01 -3.927307462629e+01 0.0 
0.0 0.0 -1.935256131734e+01 
-3.493768129949e+01 7.505729880222e-01 0.0 
7.505729880222e-01 -5.875102600672e+01 0.0 
0.0 0.0 -2.770661219186e+01 
-4.333683141350e+01 5.338394197684e-01 0.0 
5.338394197684e-01 -7.813623382180e+01 0.0 
0.0 0.0 -3.604191957059e+01 
-5.081792415110e+01 -2.427459425146e-01 0.0 
-2.427459425146e-01 -9.578232680555e+01 0.0 
0.0 0.0 -4.358007528700e+01 
-5.150285739540e+01 -5.617685246831e-02 0.0 
-5.617685246831e-02 -9.695572805158e+01 0.0 
0.0 0.0 -4.413757563409e+01 
-5.157177964735e+01 -6.393973003310e-02 0.0 
-6.393973003310e-02 -9.698060508627e+01 0.0 
0.0 0.0 -4.416571542008e+01 
-5.168171866367e+01 -1.829002838875e-02 0.0 
-1.829002838875e-02 -9.675279280939e+01 0.0 
0.0 0.0 -4.413035344192e+01 
-5.313209026356e+01 -1.203113101467e-02 0.0 
-1.203113101467e-02 -9.940072045324e+01 0.0 
0.0 0.0 -4.535984321504e+01 
-5.233177109759e+01 -3.546125543359e-02 0.0 
-3.546125543359e-02 -9.706482924353e+01 0.0 
0.0 0.0 -4.441898010234e+01 
-5.273373818135e+01 4.321142042849e-02 0.0 
4.321142042849e-02 -9.692446753204e+01 0.0 
0.0 0.0 -4.449746171402e+01 
-5.313765057921e+01 2.903963169067e-02 0.0 
2.903963169067e-02 -9.715278315081e+01 0.0 
0.0 0.0 -4.468713011901e+01 
-5.374690709047e+01 1.810966632393e-01 0.0 
1.810966632393e-01 -9.766520335415e+01 0.0 
0.0 0.0 -4.502363313339e+01 
-5.428442133328e+01 2.970469075450e-01 0.0 
2.970469075450e-01 -9.771996483968e+01 0.0 
0.0 0.0 -4.520131585189e+01 
-5.504070231938e+01 5.701936105539e-01 0.0 
5.701936105539e-01 -9.785947477645e+01 0.0 
0.0 0.0 -4.547005312875e+01 
-5.577017017947e+01 9.316386113124e-01 0.0 
9.316386113124e-01 -9.806284349523e+01 0.0 
0.0 0.0 -4.574990410241e+01 
-5.681204939730e+01 1.386851516051e+00 0.0 
1.386851516051e+00 -9.856436309788e+01 0.0 
0.0 0.0 -4.621292374855e+01 
-5.798328852455e+01 2.061319067386e+00 0.0 
2.061319067386e+00 -9.943174968549e+01 0.0 
0.0 0.0 -4.682451146301e+01 
-8.263064054486e+01 1.361344310293e+01 0.0 
1.361344310293e+01 -9.671436526091e+01 0.0 
0.0 0.0 -5.416463475830e+01 
-9.775742920674e+01 2.350347775540e+00 0.0 
2.350347775540e+00 -1.045367816968e+02 0.0 
0.0 0.0 -6.105533805958e+01 
-1.018343481040e+02 -2.727474240724e+00 0.0 
-2.727474240724e+00 -1.041450238448e+02 0.0 
0.0 0.0 -6.212798193349e+01 
-9.064897423629e+01 -1.036445059999e+01 0.0 
-1.036445059999e+01 -9.589205915335e+01 0.0 
0.0 0.0 -5.629592758170e+01 
-5.858471194085e+01 -1.948466631722e+01 0.0 
-1.948466631722e+01 -5.783010466307e+01 0.0 
0.0 0.0 -3.520165750570e+01 
-2.969109477999e+01 -1.259520634989e+01 0.0 
-1.259520634989e+01 -1.947292572009e+01 0.0 
0.0 0.0 -1.460025883542e+01 
-1.517458090318e+01 -3.076359093053e+00 0.0 
-3.076359093053e+00 -1.014244655598e+01 0.0 
0.0 0.0 -7.315582845854e+00 
-9.708343512460e+00 -8.534237064180e-01 0.0 
-8.534237064180e-01 -8.508658210681e+00 0.0 
0.0 0.0 -4.636208991231e+00 
-6.923526409140e+00 -5.072250442320e-01 0.0 
-5.072250442320e-01 -8.084835075610e+00 0.0 
0.0 0.0 -3.112871551470e+00 
-5.021691382451e+00 -3.686189893934e-01 0.0 
-3.686189893934e-01 -8.255666518765e+00 0.0 
0.0 0.0 -3.080558682124e+00 
-3.976645159781e+00 -1.118146625087e-01 0.0 
-1.118146625087e-01 -8.311747743055e+00 0.0 
0.0 0.0 -3.040056567287e+00 
-3.463614002447e+00 -2.187996114075e-01 0.0 
-2.187996114075e-01 -8.762469255466e+00 0.0 
0.0 0.0 -2.747483864314e+00 
-2.897103895635e+00 -2.234897634228e-01 0.0 
-2.234897634228e-01 -8.507741396173e+00 0.0 
0.0 0.0 -2.463308603992e+00 
-2.208355035158e+00 -2.672357856080e-01 0.0 
-2.672357856080e-01 -7.783645799472e+00 0.0 
0.0 0.0 -2.106288628770e+00 
-1.619974922149e+00 -2.612885821950e-01 0.0 
-2.612885821950e-01 -7.963960508377e+00 0.0 
0.0 0.0 -1.978789470073e+00 
-1.152808098369e+00 -2.427721106804e-01 0.0 
-2.427721106804e-01 -8.237334074395e+00 0.0 
0.0 0.0 -1.850371878074e+00 
-7.451435433252e-01 -1.568240777734e-01 0.0 
-1.568240777734e-01 -8.284037742590e+00 0.0 
0.0 0.0 -1.733375780883e+00 
-4.518091483785e-01 -1.536220853875e-01 0.0 
-1.536220853875e-01 -7.886977189290e+00 0.0 
0.0 0.0 -1.546930533822e+00 
-4.040003503681e-01 -2.215845339560e-02 0.0 
-2.215845339560e-02 -7.278234063023e+00 0.0 
0.0 0.0 -1.347088401557e+00 
-1.663905200478e+01 4.150590487362e+00 0.0 
4.150590487362e+00 -5.301432963481e+00 0.0 
0.0 0.0 -6.157601300326e+00 
-1.169491125984e+01 2.715584528987e+00 0.0 
2.715584528987e+00 -1.011266210213e+01 0.0 
0.0 0.0 -6.142272008592e+00 
-8.587616837814e+00 1.091365957015e+00 0.0 
1.091365957015e+00 -1.030557096209e+01 0.0 
0.0 0.0 -5.267956339970e+00 
-7.039755824756e+00 3.134755466254e-01 0.0 
3.134755466254e-01 -9.853872250818e+00 0.0 
0.0 0.0 -4.668088422672e+00 
-6.645115455156e+00 -9.048281494474e-02 0.0 
-9.048281494474e-02 -9.766648312513e+00 0.0 
0.0 0.0 -4.523529130301e+00 
-6.749315846658e+00 -2.745396912358e-01 0.0 
-2.745396912358e-01 -9.704516775608e+00 0.0 
0.0 0.0 -4.536149786680e+00 
-7.247243862008e+00 -3.759768110977e-01 0.0 
-3.759768110977e-01 -9.703380657565e+00 0.0 
0.0 0.0 -4.685187355872e+00 
-7.891121651647e+00 -4.098460335652e-01 0.0 
-4.098460335652e-01 -9.698041267874e+00 0.0 
0.0 0.0 -4.876748875856e+00 
-8.614169009584e+00 -4.086163699389e-01 0.0 
-4.086163699389e-01 -9.710903001303e+00 0.0 
0.0 0.0 -5.097521603266e+00 
-9.330110068123e+00 -3.870306739695e-01 0.0 
-3.870306739695e-01 -9.726872259207e+00 0.0 
0.0 0.0 -5.317094698199e+00 
-1.002171186224e+01 -3.605559016351e-01 0.0 
-3.605559016351e-01 -9.745615984012e+00 0.0 
0.0 0.0 -5.530198353875e+00 
-1.067090635187e+01 -3.304645355658e-01 0.0 
-3.304645355658e-01 -9.761214401218e+00 0.0 
0.0 0.0 -5.729636225925e+00 
-1.126445114145e+01 -2.964486133033e-01 0.0 
-2.964486133033e-01 -9.776584535109e+00 0.0 
0.0 0.0 -5.912310702968e+00 
-1.179264088006e+01 -2.609227263902e-01 0.0 
-2.609227263902e-01 -9.791897558692e+00 0.0 
0.0 0.0 -6.075361531625e+00 
-1.225253825098e+01 -2.252798181162e-01 0.0 
-2.252798181162e-01 -9.805775985474e+00 0.0 
0.0 0.0 -6.217494270935e+00 
-1.264600389626e+01 -1.898130034883e-01 0.0 
-1.898130034883e-01 -9.816348801995e+00 0.0 
0.0 0.0 -6.338705809475e+00 
-1.297219981243e+01 -1.502344065380e-01 0.0 
-1.502344065380e-01 -9.821188106064e+00 0.0 
0.0 0.0 -6.438016375548e+00 
-1.322449432961e+01 -1.006493337014e-01 0.0 
-1.006493337014e-01 -9.816795291787e+00 0.0 
0.0 0.0 -6.512386886420e+00 
-1.339524879951e+01 -3.248493517208e-02 0.0 
-3.248493517208e-02 -9.796548918773e+00 0.0 
0.0 0.0 -6.557539315484e+00 
-1.347492793383e+01 6.375531660204e-02 0.0 
6.375531660204e-02 -9.744435669193e+00 0.0 
0.0 0.0 -6.565809080907e+00 
-1.349898425710e+01 1.798479561805e-01 0.0 
1.798479561805e-01 -9.155043869122e+00 0.0 
0.0 0.0 -6.396208437866e+00 
-1.337138098365e+01 -2.950221225772e-01 0.0 
-2.950221225772e-01 -6.883256623603e+00 0.0 
0.0 0.0 -5.676391282177e+00 
-1.828054971787e+01 -2.702058875489e-01 0.0 
-2.702058875489e-01 -1.966864976645e+01 0.0 
0.0 0.0 -1.098475984530e+01 
-1.798035665148e+01 -7.698171979098e-02 0.0 
-7.698171979098e-02 -1.955004143581e+01 0.0 
0.0 0.0 -1.085911942619e+01 
-1.784481852286e+01 -9.023208313690e-02 0.0 
-9.023208313690e-02 -1.952959025289e+01 0.0 
0.0 0.0 -1.081232263272e+01 
-1.771238266524e+01 -1.694067606792e-01 0.0 
-1.694067606792e-01 -1.954699429142e+01 0.0 
0.0 0.0 -1.077781308700e+01 
-1.755419697890e+01 -2.467258543402e-01 0.0 
-2.467258543402e-01 -1.956247822025e+01 0.0 
0.0 0.0 -1.073500255974e+01 
-1.735811494913e+01 -3.192338186901e-01 0.0 
-3.192338186901e-01 -1.957294921773e+01 0.0 
0.0 0.0 -1.067931925006e+01 
-1.712194515843e+01 -3.863625315419e-01 0.0 
-3.863625315419e-01 -1.957904109550e+01 0.0 
0.0 0.0 -1.061029587618e+01 
-1.685002899468e+01 -4.519824183055e-01 0.0 
-4.519824183055e-01 -1.958040202162e+01 0.0 
0.0 0.0 -1.052912930489e+01 
-1.654441433804e+01 -5.180239588694e-01 0.0 
-5.180239588694e-01 -1.958341470450e+01 0.0 
0.0 0.0 -1.043834871276e+01 
-1.620406574455e+01 -5.802688560607e-01 0.0 
-5.802688560607e-01 -1.959060342886e+01 0.0 
0.0 0.0 -1.033840075202e+01 
-1.584431440837e+01 -6.311883544979e-01 0.0 
-6.311883544979e-01 -1.960237124921e+01 0.0 
0.0 0.0 -1.023400569727e+01 
-1.548546537158e+01 -6.651920277555e-01 0.0 
-6.651920277555e-01 -1.961702162696e+01 0.0 
0.0 0.0 -1.013074609956e+01 
-1.515136819396e+01 -6.790518170681e-01 0.0 
-6.790518170681e-01 -1.963235283500e+01 0.0 
0.0 0.0 -1.003511630869e+01 
-1.487649471030e+01 -6.622445314959e-01 0.0 
-6.622445314959e-01 -1.967731680814e+01 0.0 
0.0 0.0 -9.966143455532e+00 
-1.469889081212e+01 -5.700833898317e-01 0.0 
-5.700833898317e-01 -1.974162677936e+01 0.0 
0.0 0.0 -9.932155277444e+00 
-1.473681577730e+01 -3.733961909146e-01 0.0 
-3.733961909146e-01 -1.987606877113e+01 0.0 
0.0 0.0 -9.983865364531e+00 
-1.508742473346e+01 1.782088131022e-02 0.0 
1.782088131022e-02 -2.000572397517e+01 0.0 
0.0 0.0 -1.012794461259e+01 
-1.602921721417e+01 6.308696401144e-01 0.0 
6.308696401144e-01 -2.036284287685e+01 0.0 
0.0 0.0 -1.051761802731e+01 
-1.867211821453e+01 2.076334570116e+00 0.0 
2.076334570116e+00 -2.198731162965e+01 0.0 
0.0 0.0 -1.179782895325e+01 
-1.928774911333e+01 3.295383508925e+00 0.0 
3.295383508925e+00 -1.851288389594e+01 0.0 
0.0 0.0 -1.094018990278e+01 
-3.028087925671e+01 3.036702732743e+00 0.0 
3.036702732743e+00 -3.853046646913e+01 0.0 
0.0 0.0 -2.024340371775e+01 
-3.029216339267e+01 2.040222387308e+00 0.0 
2.040222387308e+00 -4.183627421920e+01 0.0 
0.0 0.0 -2.123853128356e+01 
-2.818045726355e+01 7.238364091098e-01 0.0 
7.238364091098e-01 -4.023403546949e+01 0.0 
0.0 0.0 -2.012434781991e+01 
-2.722022714615e+01 7.911049626298e-02 0.0 
7.911049626298e-02 -3.975060275638e+01 0.0 
0.0 0.0 -1.969124897076e+01 
-2.669297510733e+01 -3.257645061525e-01 0.0 
-3.257645061525e-01 -3.952819740863e+01 0.0 
0.0 0.0 -1.946635175479e+01 
-2.631413805164e+01 -5.295461671701e-01 0.0 
-5.295461671701e-01 -3.934312691367e+01 0.0 
0.0 0.0 -1.929717948959e+01 
-2.611119553908e+01 -6.418202350245e-01 0.0 
-6.418202350245e-01 -3.927348239469e+01 0.0 
0.0 0.0 -1.921540338013e+01 
-2.601579986662e+01 -6.932738655052e-01 0.0 
-6.932738655052e-01 -3.921654365310e+01 0.0 
0.0 0.0 -1.916970305591e+01 
-2.599338786940e+01 -6.979469046210e-01 0.0 
-6.979469046210e-01 -3.917079914570e+01 0.0 
0.0 0.0 -1.914925610453e+01 
-2.602645047349e+01 -6.645121890653e-01 0.0 
-6.645121890653e-01 -3.913615563481e+01 0.0 
0.0 0.0 -1.914878183249e+01 
-2.608038771714e+01 -6.020328408121e-01 0.0 
-6.020328408121e-01 -3.912374632261e+01 0.0 
0.0 0.0 -1.916124021192e+01 
-2.613484764239e+01 -5.360004645791e-01 0.0 
-5.360004645791e-01 -3.912292708849e+01 0.0 
0.0 0.0 -1.917733241926e+01 
-2.620685746855e+01 -4.676122140777e-01 0.0 
-4.676122140777e-01 -3.911500423476e+01 0.0 
0.0 0.0 -1.919655851099e+01 
-2.627435671889e+01 -3.883186902754e-01 0.0 
-3.883186902754e-01 -3.910118542101e+01 0.0 
0.0 0.0 -1.921266264197e+01 
-2.633818850481e+01 -3.052685566003e-01 0.0 
-3.052685566003e-01 -3.909003010971e+01 0.0 
0.0 0.0 -1.922846558436e+01 
-2.639925682006e+01 -2.271657652110e-01 0.0 
-2.271657652110e-01 -3.907560035409e+01 0.0 
0.0 0.0 -1.924245715225e+01 
-2.646937844534e+01 -1.538676821657e-01 0.0 
-1.538676821657e-01 -3.908156391636e+01 0.0 
0.0 0.0 -1.926528270851e+01 
-2.653342893582e+01 -8.200586034282e-02 0.0 
-8.200586034282e-02 -3.915066809093e+01 0.0 
0.0 0.0 -1.930522910802e+01 
-2.656310491702e+01 -4.950656587080e-01 0.0 
-4.950656587080e-01 -3.923929766060e+01 0.0 
0.0 0.0 -1.934072077329e+01 
-3.492835457243e+01 -3.850636514016e-01 0.0 
-3.850636514016e-01 -5.875611101007e+01 0.0 
0.0 0.0 -2.770533967475e+01 
-3.498339737097e+01 -2.067364330818e-01 0.0 
-2.067364330818e-01 -5.865189732897e+01 0.0 
0.0 0.0 -2.769058840998e+01 
-3.500524748361e+01 -2.259128324449e-01 0.0 
-2.259128324449e-01 -5.861429638687e+01 0.0 
0.0 0.0 -2.768586316114e+01 
-3.502704776781e+01 -2.928261296642e-01 0.0 
-2.928261296642e-01 -5.862747909564e+01 0.0 
0.0 0.0 -2.769635805903e+01 
-3.508641573698e+01 -3.716380335582e-01 0.0 
-3.716380335582e-01 -5.863242417264e+01 0.0 
0.0 0.0 -2.771565197289e+01 
-3.514490485813e+01 -4.537263758290e-01 0.0 
-4.537263758290e-01 -5.864971194264e+01 0.0 
0.0 0.0 -2.773838504023e+01 
-3.523728218310e+01 -5.256551731706e-01 0.0 
-5.256551731706e-01 -5.868192474502e+01 0.0 
0.0 0.0 -2.777576207844e+01 
-3.535131324491e+01 -5.645197981600e-01 0.0 
-5.645197981600e-01 -5.868969838198e+01 0.0 
0.0 0.0 -2.781230348807e+01 
-3.552070203668e+01 -6.184839859513e-01 0.0 
-6.184839859513e-01 -5.869244783702e+01 0.0 
0.0 0.0 -2.786394496211e+01 
-3.571890033332e+01 -6.384098423341e-01 0.0 
-6.384098423341e-01 -5.876808804044e+01 0.0 
0.0 0.0 -2.794609651213e+01 
-3.599896839250e+01 -5.833034893607e-01 0.0 
-5.833034893607e-01 -5.885915162294e+01 0.0 
0.0 0.0 -2.805743600463e+01 
-3.638932060011e+01 -4.671308167390e-01 0.0 
-4.671308167390e-01 -5.896200778737e+01 0.0 
0.0 0.0 -2.820539851624e+01 
-3.688459571912e+01 -2.578986144242e-01 0.0 
-2.578986144242e-01 -5.912228880382e+01 0.0 
0.0 0.0 -2.840206535688e+01 
-3.753618947774e+01 8.055791213258e-02 0.0 
8.055791213258e-02 -5.929657745038e+01 0.0 
0.0 0.0 -2.864983007844e+01 
-3.845503525752e+01 5.534006150953e-01 0.0 
5.534006150953e-01 -5.980890660202e+01 0.0 
0.0 0.0 -2.907918255786e+01 
-4.031799331295e+01 1.665112132984e+00 0.0 
1.665112132984e+00 -6.152803213993e+01 0.0 
0.0 0.0 -3.015380763586e+01 
-4.015570920766e+01 2.484145769420e+00 0.0 
2.484145769420e+00 -5.830514633299e+01 0.0 
0.0 0.0 -2.913825666219e+01 
-4.912333455718e+01 2.124196306449e+00 0.0 
2.124196306449e+00 -7.781000969780e+01 0.0 
0.0 0.0 -3.768000327649e+01 
-4.926788399027e+01 1.564026292384e+00 0.0 
1.564026292384e+00 -8.087776104802e+01 0.0 
0.0 0.0 -3.864369351149e+01 
-4.764571553149e+01 7.569741386685e-01 0.0 
7.569741386685e-01 -7.930987627579e+01 0.0 
0.0 0.0 -3.768667754218e+01 
-4.683819535328e+01 3.288645886385e-01 0.0 
3.288645886385e-01 -7.893313506665e+01 0.0 
0.0 0.0 -3.733139912598e+01 
-4.613391918834e+01 6.871611844459e-02 0.0 
6.871611844459e-02 -7.872169840475e+01 0.0 
0.0 0.0 -3.705668527793e+01 
-4.555156944688e+01 -1.403332797267e-01 0.0 
-1.403332797267e-01 -7.857787097938e+01 0.0 
0.0 0.0 -3.683883212788e+01 
-4.506557034947e+01 -2.644058494753e-01 0.0 
-2.644058494753e-01 -7.838910732899e+01 0.0 
0.0 0.0 -3.663640330354e+01 
-4.467076755019e+01 -2.719104734862e-01 0.0 
-2.719104734862e-01 -7.829740102665e+01 0.0 
0.0 0.0 -3.649045057305e+01 
-4.444015997922e+01 -3.039813338608e-01 0.0 
-3.039813338608e-01 -7.833050676910e+01 0.0 
0.0 0.0 -3.643120002450e+01 
-4.413018871858e+01 -2.835177160323e-01 0.0 
-2.835177160323e-01 -7.825911401907e+01 0.0 
0.0 0.0 -3.631679082130e+01 
-4.391766934228e+01 -2.646931090960e-01 0.0 
-2.646931090960e-01 -7.821834132997e+01 0.0 
0.0 0.0 -3.624080320167e+01 
-4.375858534985e+01 -1.942969775401e-01 0.0 
-1.942969775401e-01 -7.820640797354e+01 0.0 
0.0 0.0 -3.618949799702e+01 
-4.360113594256e+01 -1.806898180205e-01 0.0 
-1.806898180205e-01 -7.822082336382e+01 0.0 
0.0 0.0 -3.614658779191e+01 
-4.348921862770e+01 -1.152680792629e-01 0.0 
-1.152680792629e-01 -7.816416778167e+01 0.0 
0.0 0.0 -3.609601592281e+01 
-4.342998586662e+01 2.463085750305e-02 0.0 
2.463085750305e-02 -7.831925637845e+01 0.0 
0.0 0.0 -3.612477267352e+01 
-4.331748763090e+01 -5.056498736442e-01 0.0 
-5.056498736442e-01 -7.841043266881e+01 0.0 
0.0 0.0 -3.611837608991e+01 
-4.527775386002e+01 3.452210013234e+01 0.0 
3.452210013234e+01 -3.918260480641e+01 0.0 
0.0 0.0 -2.584389785956e+01 
-3.906368984206e+01 2.782707543744e+01 0.0 
2.782707543744e+01 -2.830764728981e+01 0.0 
0.0 0.0 -1.922054604048e+01 
-3.532359611330e+01 2.467492322960e+01 0.0 
2.467492322960e+01 -2.623530672366e+01 0.0 
0.0 0.0 -1.655663158778e+01 
-3.218269371799e+01 2.236962662556e+01 0.0 
2.236962662556e+01 -2.471636545149e+01 0.0 
0.0 0.0 -1.656288696679e+01 
-3.209271121542e+01 2.041268689170e+01 0.0 
2.041268689170e+01 -2.316996095237e+01 0.0 
0.0 0.0 -1.617880165034e+01 
-2.600213579657e+01 9.166482079074e+00 0.0 
9.166482079074e+00 -1.603777222662e+01 0.0 
0.0 0.0 -1.219970031188e+01 
-3.121047522586e+01 6.756348972717e+00 0.0 
6.756348972717e+00 -3.426706094434e+01 0.0 
0.0 0.0 -1.924326085106e+01 
-3.983742617935e+01 5.052689252125e+00 0.0 
5.052689252125e+00 -5.371141373622e+01 0.0 
0.0 0.0 -2.766465197467e+01 
-4.849237970433e+01 3.968134636717e+00 0.0 
3.968134636717e+00 -7.309865293817e+01 0.0 
0.0 0.0 -3.607730979275e+01 
-5.674725798774e+01 3.321686580261e+00 0.0 
3.321686580261e+00 -9.254327791999e+01 0.0 
0.0 0.0 -4.438716077232e+01 
-3.883110211618e+01 2.840681013250e+01 0.0 
2.840681013250e+01 -3.899623190743e+01 0.0 
0.0 0.0 -2.185229266950e+01 
-1.562580225042e+02 1.493534304027e+01 0.0 
1.493534304027e+01 -3.752811242911e+02 0.0 
0.0 0.0 -1.590617440386e+02 
-1.034591496262e+01 -1.702163009502e+00 0.0 
-1.702163009502e+00 -1.727310069603e+01 0.0 
0.0 0.0 -7.981659123029e+00 
-5.840188815599e+01 -1.933980680485e+01 0.0 
-1.933980680485e+01 -8.722997307854e+01 0.0 
0.0 0.0 -4.438414311393e+01 
-1.604536578894e+02 6.979781026055e+00 0.0 
6.979781026055e+00 -3.830694112277e+02 0.0 
0.0 0.0 -1.626569207351e+02 
-3.322874092036e+01 2.340284279385e+01 0.0 
2.340284279385e+01 -3.469553229468e+01 0.0 
0.0 0.0 -1.996456182967e+01 
-8.770662451976e+01 -5.197971270099e-01 0.0 
-5.197971270099e-01 -2.124515316290e+02 0.0 
0.0 0.0 -8.964744684463e+01 
-1.504529261810e+02 2.106259377057e+01 0.0 
2.106259377057e+01 -3.597076299645e+02 0.0 
0.0 0.0 -1.526481668436e+02 
-3.544119663992e+01 1.462909268255e+01 0.0 
1.462909268255e+01 -3.859092074034e+01 0.0 
0.0 0.0 -2.180963521408e+01 
-1.443241261916e+02 2.433345436704e+01 0.0 
2.433345436704e+01 -3.393893127369e+02 0.0 
0.0 0.0 -1.447140316786e+02 
-4.939483458444e+01 7.279042550862e+00 0.0 
7.279042550862e+00 -7.261430882989e+01 0.0 
0.0 0.0 -3.620274302430e+01 
-1.628030202386e+02 2.910677158646e+00 0.0 
2.910677158646e+00 -3.848908003276e+02 0.0 
0.0 0.0 -1.639081461698e+02 
-4.645030236928e+00 -4.353152612884e-01 0.0 
-4.353152612884e-01 -1.615477780266e+01 0.0 
0.0 0.0 -5.666432338109e+00 
-1.373125449997e+02 2.295698900101e+01 0.0 
2.295698900101e+01 -3.172342016198e+02 0.0 
0.0 0.0 -1.359640239859e+02 
-6.485022959484e+01 4.682213196120e+00 0.0 
4.682213196120e+00 -1.105677009593e+02 0.0 
0.0 0.0 -5.222537916623e+01 
-5.421031117965e+01 -6.244854901899e-01 0.0 
-6.244854901899e-01 -1.310793925604e+02 0.0 
0.0 0.0 -5.518691112201e+01 
-1.108686076244e+02 -3.675633719168e-01 0.0 
-3.675633719168e-01 -2.674789481725e+02 0.0 
0.0 0.0 -1.131042667390e+02 
-1.326145273821e+02 1.958737048141e+01 0.0 
1.958737048141e+01 -3.028722744582e+02 0.0 
0.0 0.0 -1.302460405521e+02 
-1.274727127894e+02 1.380035621869e+01 0.0 
1.380035621869e+01 -2.912659974612e+02 0.0 
0.0 0.0 -1.252216130752e+02 
-1.219121210044e+02 4.018866363550e+00 0.0 
4.018866363550e+00 -2.813523586747e+02 0.0 
0.0 0.0 -1.205793439037e+02 
-1.226020507276e+02 6.612335787389e+00 0.0 
6.612335787389e+00 -2.811910104135e+02 0.0 
0.0 0.0 -1.207379183423e+02 
-1.249784298551e+02 1.010485855470e+01 0.0 
1.010485855470e+01 -2.864749211425e+02 0.0 
0.0 0.0 -1.230360052993e+02 
-6.594306886297e+01 2.733779970320e+00 0.0 
2.733779970320e+00 -1.174837089510e+02 0.0 
0.0 0.0 -5.462803334421e+01 
-6.216824812628e+01 8.589352419548e-01 0.0 
8.589352419548e-01 -1.157214346258e+02 0.0 
0.0 0.0 -5.296690482564e+01 
-6.109067787608e+01 4.910124270613e-01 0.0 
4.910124270613e-01 -1.166935272994e+02 0.0 
0.0 0.0 -5.293526155265e+01 
-8.775733721892e+01 4.190303505152e-01 0.0 
4.190303505152e-01 -1.869536233420e+02 0.0 
0.0 0.0 -8.201328816829e+01 
-1.626148649018e+02 1.343368883769e+00 0.0 
1.343368883769e+00 -3.831473939715e+02 0.0 
0.0 0.0 -1.633286776620e+02 
-6.780472361122e+01 1.059877419280e+01 0.0 
1.059877419280e+01 -1.068598207712e+02 0.0 
0.0 0.0 -5.321889195187e+01 
-3.477845997511e+00 -3.087805555083e-01 0.0 
-3.087805555083e-01 -1.720627933275e+01 0.0 
0.0 0.0 -5.462807052412e+00 
-1.384510516170e+02 4.473744426634e-02 0.0 
4.473744426634e-02 -3.298096034931e+02 0.0 
0.0 0.0 -1.400781965330e+02 
-5.891255260325e+01 4.905354676612e-02 0.0 
4.905354676612e-02 -1.142934943154e+02 0.0 
0.0 0.0 -5.156181407560e+01 
-2.613836922430e+01 -3.993600752628e-01 0.0 
-3.993600752628e-01 -6.906745320577e+01 0.0 
0.0 0.0 -2.816174672902e+01 
-1.286795649623e+02 1.644189476983e+01 0.0 
1.644189476983e+01 -2.927376118761e+02 0.0 
0.0 0.0 -1.260251530515e+02 
-1.481518395533e+02 2.332489423774e+01 0.0 
2.332489423774e+01 -3.512537877369e+02 0.0 
0.0 0.0 -1.494216881871e+02 
-1.407274629196e+02 2.419206237040e+01 0.0 
2.419206237040e+01 -3.279180257615e+02 0.0 
0.0 0.0 -1.401936466043e+02 
-1.525699513127e+02 1.835100489689e+01 0.0 
1.835100489689e+01 -3.669058359945e+02 0.0 
0.0 0.0 -1.554427361922e+02 
-1.587100217398e+02 1.159227795248e+01 0.0 
1.159227795248e+01 -3.803008688529e+02 0.0 
0.0 0.0 -1.613032671778e+02 
-2.938422611255e+01 -1.184137873695e+01 0.0 
-1.184137873695e+01 -2.436105320927e+01 0.0 
0.0 0.0 -1.575654746208e+01 
-6.353333712452e+01 1.503179604232e+00 0.0 
1.503179604232e+00 -1.156644489515e+02 0.0 
0.0 0.0 -5.335933582281e+01 
-1.598238196906e+02 4.561957743068e+00 0.0 
4.561957743068e+00 -3.809086135642e+02 0.0 
0.0 0.0 -1.618197299764e+02 
-1.023604616359e+02 5.538778966593e-01 0.0 
5.538778966593e-01 -2.261820377265e+02 0.0 
0.0 0.0 -9.816274980872e+01 
-6.818753729738e+00 -6.439648016646e-01 0.0 
-6.439648016646e-01 -1.722618478405e+01 0.0 
0.0 0.0 -6.926206963945e+00 
-7.075281318772e+01 -6.196872511122e-01 0.0 
-6.196872511122e-01 -1.707540381795e+02 0.0 
0.0 0.0 -7.205205541018e+01 
-1.224961497442e+02 2.483053759119e+00 0.0 
2.483053759119e+00 -2.837788656530e+02 0.0 
0.0 0.0 -1.214825046192e+02 
-3.478120914279e+01 2.114435908729e+01 0.0 
2.114435908729e+01 -3.625809537732e+01 0.0 
0.0 0.0 -2.091179135603e+01 
-3.571239751783e+01 2.573735046590e+01 0.0 
2.573735046590e+01 -3.631371588486e+01 0.0 
0.0 0.0 -2.012753923898e+01 
-4.178365545765e+01 1.017445862647e+01 0.0 
1.017445862647e+01 -5.415785474905e+01 0.0 
0.0 0.0 -2.838245306201e+01 
-5.714823939649e+01 5.721939687685e+00 0.0 
5.721939687685e+00 -9.123282230566e+01 0.0 
0.0 0.0 -4.411431851064e+01 
-4.368718338846e+01 3.367241472305e+01 0.0 
3.367241472305e+01 -4.528625419222e+01 0.0 
0.0 0.0 -2.690672868389e+01 
-7.303882785249e+01 1.751672580306e-01 0.0 
1.751672580306e-01 -1.493597262700e+02 0.0 
0.0 0.0 -6.631956623675e+01 
-1.641732288233e+02 6.692139511019e-01 0.0 
6.692139511019e-01 -3.859025377986e+02 0.0 
0.0 0.0 -1.646227299866e+02 
-2.818752840278e+00 -2.155747244513e-01 0.0 
-2.155747244513e-01 -1.640307156886e+01 0.0 
0.0 0.0 -4.961614414426e+00 
-1.162290597268e+02 6.102686493048e-01 0.0 
6.102686493048e-01 -2.652957415274e+02 0.0 
0.0 0.0 -1.140574403763e+02 
-6.859003390888e+01 4.510076616549e+00 0.0 
4.510076616549e+00 -1.195139021003e+02 0.0 
0.0 0.0 -5.603118080277e+01 
-7.311042571294e+01 6.108350353697e+00 0.0 
6.108350353697e+00 -1.291444217736e+02 0.0 
0.0 0.0 -6.027645424596e+01 
-7.612587974915e+01 5.485135751054e+00 0.0 
5.485135751054e+00 -1.376615388182e+02 0.0 
0.0 0.0 -6.373622557020e+01 
-8.131378165786e+01 7.579458180786e+00 0.0 
7.579458180786e+00 -1.493108561008e+02 0.0 
0.0 0.0 -6.878739132759e+01 
-8.470029193179e+01 7.124864920999e+00 0.0 
7.124864920999e+00 -1.586427636617e+02 0.0 
0.0 0.0 -7.260291667804e+01 
-8.917061078171e+01 8.917205003317e+00 0.0 
8.917205003317e+00 -1.693956641171e+02 0.0 
0.0 0.0 -7.716988246965e+01 
-8.599811009611e+01 9.509918230492e+00 0.0 
9.509918230492e+00 -1.603992426329e+02 0.0 
0.0 0.0 -7.351920581871e+01 
-9.362611943586e+01 1.080209034615e+01 0.0 
1.080209034615e+01 -1.807276403733e+02 0.0 
0.0 0.0 -8.190612794275e+01 
-9.036323708350e+01 1.151801075040e+01 0.0 
1.151801075040e+01 -1.719857978338e+02 0.0 
0.0 0.0 -7.830471047519e+01 
-9.260298036779e+01 8.507854106642e+00 0.0 
8.507854106642e+00 -1.789405506578e+02 0.0 
0.0 0.0 -8.106305930766e+01 
-9.781906107804e+01 1.270291850321e+01 0.0 
1.270291850321e+01 -1.925411198761e+02 0.0 
0.0 0.0 -8.670805428624e+01 
-9.450968873316e+01 1.352129658803e+01 0.0 
1.352129658803e+01 -1.841750060558e+02 0.0 
0.0 0.0 -8.320540843669e+01 
-1.017975663145e+02 1.454091256587e+01 0.0 
1.454091256587e+01 -2.048426507511e+02 0.0 
0.0 0.0 -9.159206511968e+01 
-9.841936274904e+01 1.543096798800e+01 0.0 
1.543096798800e+01 -1.969391170174e+02 0.0 
0.0 0.0 -8.820754392992e+01 
-9.108775357984e+01 1.456492504229e+01 0.0 
1.456492504229e+01 -1.762873457757e+02 0.0 
0.0 0.0 -7.981252980666e+01 
-9.485950034634e+01 1.649603719729e+01 0.0 
1.649603719729e+01 -1.895446938074e+02 0.0 
0.0 0.0 -8.492125824613e+01 
-8.749667211268e+01 1.582773278755e+01 0.0 
1.582773278755e+01 -1.688096572852e+02 0.0 
0.0 0.0 -7.649189881937e+01 
-9.110133431875e+01 1.775494108282e+01 0.0 
1.775494108282e+01 -1.826681556185e+02 0.0 
0.0 0.0 -8.173084698116e+01 
-9.840666514672e+01 1.815501713510e+01 0.0 
1.815501713510e+01 -2.032675406439e+02 0.0 
0.0 0.0 -9.010226173719e+01 
-9.446728753242e+01 1.931585888242e+01 0.0 
1.931585888242e+01 -1.969497110108e+02 0.0 
0.0 0.0 -8.702509956296e+01 
-8.706497551508e+01 1.917258883741e+01 0.0 
1.917258883741e+01 -1.763475816695e+02 0.0 
0.0 0.0 -7.862376715538e+01 
-9.022072310685e+01 2.055301524882e+01 0.0 
2.055301524882e+01 -1.911863856267e+02 0.0 
0.0 0.0 -8.402213262008e+01 
-8.278449585959e+01 2.068180081875e+01 0.0 
2.068180081875e+01 -1.707168690196e+02 0.0 
0.0 0.0 -7.565040946376e+01 
-8.573973295655e+01 2.177972636435e+01 0.0 
2.177972636435e+01 -1.861144360211e+02 0.0 
0.0 0.0 -8.115625069330e+01 
-7.825514182531e+01 2.218870057666e+01 0.0 
2.218870057666e+01 -1.658192716597e+02 0.0 
0.0 0.0 -7.282232404551e+01 
-8.102289392657e+01 2.290430025818e+01 0.0 
2.290430025818e+01 -1.817175240197e+02 0.0 
0.0 0.0 -7.842212538388e+01 
-8.861324073545e+01 2.231621378575e+01 0.0 
2.231621378575e+01 -2.014875183620e+02 0.0 
0.0 0.0 -8.663022772922e+01 
-8.372710363674e+01 2.302990951844e+01 0.0 
2.302990951844e+01 -1.973613172176e+02 0.0 
0.0 0.0 -8.392652625631e+01 
-7.610347761682e+01 2.381508110060e+01 0.0 
2.381508110060e+01 -1.779796942006e+02 0.0 
0.0 0.0 -7.582495154522e+01 
-7.868802944689e+01 2.346941397249e+01 0.0 
2.346941397249e+01 -1.937678992458e+02 0.0 
0.0 0.0 -8.133677860782e+01 
-7.107612170262e+01 2.438789362298e+01 0.0 
2.438789362298e+01 -1.748587291174e+02 0.0 
0.0 0.0 -7.338045524599e+01 
-7.357224503575e+01 2.353286526354e+01 0.0 
2.353286526354e+01 -1.906143915925e+02 0.0 
0.0 0.0 -7.885599098849e+01 
-8.139784477329e+01 2.263778769784e+01 0.0 
2.263778769784e+01 -2.090039745771e+02 0.0 
0.0 0.0 -8.672054580513e+01 
-7.625734829078e+01 2.222206382629e+01 0.0 
2.222206382629e+01 -2.056783846248e+02 0.0 
0.0 0.0 -8.418071987466e+01 
-6.844602212554e+01 2.314627165315e+01 0.0 
2.314627165315e+01 -1.877689645087e+02 0.0 
0.0 0.0 -7.646449599027e+01 
-7.114367173186e+01 2.134061661538e+01 0.0 
2.134061661538e+01 -2.025389241677e+02 0.0 
0.0 0.0 -8.170477876988e+01 
-6.340399535775e+01 2.225743097922e+01 0.0 
2.225743097922e+01 -1.851457539671e+02 0.0 
0.0 0.0 -7.416492479746e+01 
-6.614848993218e+01 1.993825057952e+01 0.0 
1.993825057952e+01 -1.994971957398e+02 0.0 
0.0 0.0 -7.929370570160e+01 
-5.850147079850e+01 2.080051329948e+01 0.0 
2.080051329948e+01 -1.826505538799e+02 0.0 
0.0 0.0 -7.194560740352e+01 
-6.131064088248e+01 1.794986794311e+01 0.0 
1.794986794311e+01 -1.963468118171e+02 0.0 
0.0 0.0 -7.689723580987e+01 
-6.928256049910e+01 1.739972226676e+01 0.0 
1.739972226676e+01 -2.127606762839e+02 0.0 
0.0 0.0 -8.421297103489e+01 
-6.460973486498e+01 1.499925113363e+01 0.0 
1.499925113363e+01 -2.088548540149e+02 0.0 
0.0 0.0 -8.163937666397e+01 
-5.674176037941e+01 1.533901617705e+01 0.0 
1.533901617705e+01 -1.929693317231e+02 0.0 
0.0 0.0 -7.451332763075e+01 
-6.024079392270e+01 1.201001584345e+01 0.0 
1.201001584345e+01 -2.044397312761e+02 0.0 
0.0 0.0 -7.900415755964e+01 
-6.839215591735e+01 1.212350729846e+01 0.0 
1.212350729846e+01 -2.202469103100e+02 0.0 
0.0 0.0 -8.619171986820e+01 
-6.426157460807e+01 8.941285529334e+00 0.0 
8.941285529334e+00 -2.147210567493e+02 0.0 
0.0 0.0 -8.329478940720e+01 
-7.262274299882e+01 9.491549144823e+00 0.0 
9.491549144823e+00 -2.306367173525e+02 0.0 
0.0 0.0 -9.057783810540e+01 
-6.873046545856e+01 6.277985647978e+00 0.0 
6.277985647978e+00 -2.240343106768e+02 0.0 
0.0 0.0 -8.742943284061e+01 
-6.064256667366e+01 5.338007983317e+00 0.0 
5.338007983317e+00 -2.083895025083e+02 0.0 
0.0 0.0 -8.030962075459e+01 
-6.534751493700e+01 2.801513108827e+00 0.0 
2.801513108827e+00 -2.165281260227e+02 0.0 
0.0 0.0 -8.416269228790e+01 
-7.353834936658e+01 4.095645844157e+00 0.0 
4.095645844157e+00 -2.325936307587e+02 0.0 
0.0 0.0 -9.143959403758e+01 
-7.031527879827e+01 8.766629132976e-01 0.0 
8.766629132976e-01 -2.240532076941e+02 0.0 
0.0 0.0 -8.791054594772e+01 
-6.252114388473e+01 -7.820695626179e-01 0.0 
-7.820695626179e-01 -2.079357812532e+02 0.0 
0.0 0.0 -8.073707754136e+01 
-6.760065047445e+01 -2.281312422256e+00 0.0 
-2.281312422256e+00 -2.145374069371e+02 0.0 
0.0 0.0 -8.424141722346e+01 
-7.544824626716e+01 -4.717260025973e-01 0.0 
-4.717260025973e-01 -2.312686251819e+02 0.0 
0.0 0.0 -9.161506143471e+01 
-7.274262468920e+01 -3.175930452671e+00 0.0 
-3.175930452671e+00 -2.210448138450e+02 0.0 
0.0 0.0 -8.773623156027e+01 
-6.532258834794e+01 -5.178251433506e+00 0.0 
-5.178251433506e+00 -2.039738189856e+02 0.0 
0.0 0.0 -8.038892220005e+01 
-7.036146801299e+01 -5.538755632489e+00 0.0 
-5.538755632489e+00 -2.099606864032e+02 0.0 
0.0 0.0 -8.369664632485e+01 
-7.790621026187e+01 -3.584721438137e+00 0.0 
-3.584721438137e+00 -2.277008362496e+02 0.0 
0.0 0.0 -9.128211395345e+01 
-7.532157365472e+01 -5.480905704811e+00 0.0 
-5.480905704811e+00 -2.162031664246e+02 0.0 
0.0 0.0 -8.705742202378e+01 
-6.816983952351e+01 -7.409785835811e+00 0.0 
-7.409785835811e+00 -1.980329278858e+02 0.0 
0.0 0.0 -7.946083022279e+01 
-7.285234453253e+01 -6.911173192496e+00 0.0 
-6.911173192496e+00 -2.040983069185e+02 0.0 
0.0 0.0 -8.268519543530e+01 
-8.021481479936e+01 -5.151764073211e+00 0.0 
-5.151764073211e+00 -2.228015815702e+02 0.0 
0.0 0.0 -9.050491891088e+01 
-7.743214938324e+01 -6.231193030594e+00 0.0 
-6.231193030594e+00 -2.105626929094e+02 0.0 
0.0 0.0 -8.599845268779e+01 
-8.501733195352e+01 -4.648439909667e+00 0.0 
-4.648439909667e+00 -2.296608272256e+02 0.0 
0.0 0.0 -9.400344775375e+01 
-7.029236450434e+01 -7.801749871015e+00 0.0 
-7.801749871015e+00 -1.913622333207e+02 0.0 
0.0 0.0 -7.809637934752e+01 
-7.454042086083e+01 -6.836205918032e+00 0.0 
-6.836205918032e+00 -1.979421980520e+02 0.0 
0.0 0.0 -8.134478567384e+01 
-6.751659597598e+01 -8.133050514407e+00 0.0 
-8.133050514407e+00 -1.782304486918e+02 0.0 
0.0 0.0 -7.332411340033e+01 
-7.145734574455e+01 -6.973598387619e+00 0.0 
-6.973598387619e+00 -1.851289383507e+02 0.0 
0.0 0.0 -7.657588522858e+01 
-8.432454075051e+01 2.143459836422e+01 0.0 
2.143459836422e+01 -2.236081739173e+02 0.0 
0.0 0.0 -9.197981440036e+01 
-6.442791251757e+01 -7.919094530093e+00 0.0 
-7.919094530093e+00 -1.650294053614e+02 0.0 
0.0 0.0 -6.843719536370e+01 
-6.091134327142e+01 -9.239346367177e+00 0.0 
-9.239346367177e+00 -1.584280894080e+02 0.0 
0.0 0.0 -6.540182980384e+01 
-6.807999762849e+01 -6.687884202373e+00 0.0 
-6.687884202373e+00 -1.723043158282e+02 0.0 
0.0 0.0 -7.171529403701e+01 
-7.544255352088e+01 -5.878547096616e+00 0.0 
-5.878547096616e+00 -1.925029047116e+02 0.0 
0.0 0.0 -7.998363746973e+01 
-6.090434212881e+01 -7.262466129625e+00 0.0 
-7.262466129625e+00 -1.519190652235e+02 0.0 
0.0 0.0 -6.344702220571e+01 
-6.433959655526e+01 -6.079457020230e+00 0.0 
-6.079457020230e+00 -1.595743910013e+02 0.0 
0.0 0.0 -6.677419626697e+01 
-5.690599626674e+01 -6.322387837364e+00 0.0 
-6.322387837364e+00 -1.390392897823e+02 0.0 
0.0 0.0 -5.838358581471e+01 
-5.595017023640e+01 2.332078997232e+01 0.0 
2.332078997232e+01 -1.674443378016e+02 0.0 
0.0 0.0 -6.661835241140e+01 
-1.018113363222e+02 1.950014156288e+01 0.0 
1.950014156288e+01 -2.173393304395e+02 0.0 
0.0 0.0 -9.534520002850e+01 
-6.020702425202e+01 -5.255165372650e+00 0.0 
-5.255165372650e+00 -1.470424229303e+02 0.0 
0.0 0.0 -6.177483415470e+01 
-5.242751834846e+01 -5.194888925407e+00 0.0 
-5.194888925407e+00 -1.264649718255e+02 0.0 
0.0 0.0 -5.326774705217e+01 
-4.940856381248e+01 -6.193265904118e+00 0.0 
-6.193265904118e+00 -1.183360846910e+02 0.0 
0.0 0.0 -4.992339455105e+01 
-4.449985857477e+01 -4.819292594033e+00 0.0 
-4.819292594033e+00 -1.058478642512e+02 0.0 
0.0 0.0 -4.470431684778e+01 
-8.822842351172e+01 6.949694110540e+00 0.0 
6.949694110540e+00 -1.684541702216e+02 0.0 
0.0 0.0 -7.660477811999e+01 
-9.565707379414e+01 8.123188090747e+00 0.0 
8.123188090747e+00 -1.886052250292e+02 0.0 
0.0 0.0 -8.487868964701e+01 
-9.104869542217e+01 6.586413211851e+00 0.0 
6.586413211851e+00 -1.776465970221e+02 0.0 
0.0 0.0 -8.020858773328e+01 
-9.863837200180e+01 7.867436738017e+00 0.0 
7.867436738017e+00 -1.983428991718e+02 0.0 
0.0 0.0 -8.869438135207e+01 
-9.431218363457e+01 6.428927326241e+00 0.0 
6.428927326241e+00 -1.879823312910e+02 0.0 
0.0 0.0 -8.428835447767e+01 
-4.755913149050e+01 -4.025054295098e+00 0.0 
-4.025054295098e+00 -1.141960848820e+02 0.0 
0.0 0.0 -4.812656491177e+01 
-1.050637588749e+02 1.382191355445e+01 0.0 
1.382191355445e+01 -2.133301463286e+02 0.0 
0.0 0.0 -9.511817156104e+01 
-1.029021267670e+02 9.405872488045e+00 0.0 
9.405872488045e+00 -2.090206585468e+02 0.0 
0.0 0.0 -9.317683559416e+01 
-7.961643920713e+01 1.898494478305e+01 0.0 
1.898494478305e+01 -1.555114024699e+02 0.0 
0.0 0.0 -7.013835250310e+01 
-6.863636220734e+01 2.465748649407e+01 0.0 
2.465748649407e+01 -1.584648799229e+02 0.0 
0.0 0.0 -6.773037263907e+01 
-7.694520806678e+01 1.234419501834e+01 0.0 
1.234419501834e+01 -2.365160753603e+02 0.0 
0.0 0.0 -9.363838502811e+01 
-6.789639528070e+01 -4.995030334066e+00 0.0 
-4.995030334066e+00 -1.674733287863e+02 0.0 
0.0 0.0 -7.021091722012e+01 
-6.367333074825e+01 -4.294466616696e+00 0.0 
-4.294466616696e+00 -1.552389140304e+02 0.0 
0.0 0.0 -6.527367343359e+01 
-7.150827111568e+01 -3.999335967132e+00 0.0 
-3.999335967132e+00 -1.756099455081e+02 0.0 
0.0 0.0 -7.373546498713e+01 
-8.806507128094e+01 -3.436143467254e+00 0.0 
-3.436143467254e+00 -2.415265224306e+02 0.0 
0.0 0.0 -9.847747811346e+01 
-9.302094009185e+01 -3.094195812335e+00 0.0 
-3.094195812335e+00 -2.486689932163e+02 0.0 
0.0 0.0 -1.021069799925e+02 
-9.635452943777e+01 -1.802099831516e+00 0.0 
-1.802099831516e+00 -2.602205261054e+02 0.0 
0.0 0.0 -1.065725166629e+02 
-1.014190165657e+02 -1.604232845305e+00 0.0 
-1.604232845305e+00 -2.675835758236e+02 0.0 
0.0 0.0 -1.103007777168e+02 
-1.050511462720e+02 -2.715139823810e-01 0.0 
-2.715139823810e-01 -2.788753471523e+02 0.0 
0.0 0.0 -1.147779480273e+02 
-1.101897232312e+02 -2.110948804611e-01 0.0 
-2.110948804611e-01 -2.864225985742e+02 0.0 
0.0 0.0 -1.185836965416e+02 
-1.063820292297e+02 -1.327850547597e+00 0.0 
-1.327850547597e+00 -2.750308078860e+02 0.0 
0.0 0.0 -1.140238511347e+02 
-1.152219464469e+02 -8.123724139602e-02 0.0 
-8.123724139602e-02 -2.940123754606e+02 0.0 
0.0 0.0 -1.223702965723e+02 
-1.112412889423e+02 -1.018349040541e+00 0.0 
-1.018349040541e+00 -2.825735556475e+02 0.0 
0.0 0.0 -1.177444533769e+02 
-1.141263823013e+02 1.131938107591e+00 0.0 
1.131938107591e+00 -2.974907074380e+02 0.0 
0.0 0.0 -1.230851269218e+02 
-1.088150447081e+02 1.293429609618e+00 0.0 
1.293429609618e+00 -2.897303240178e+02 0.0 
0.0 0.0 -1.191636106178e+02 
-1.201406530561e+02 7.464977744333e-02 0.0 
7.464977744333e-02 -3.016549698614e+02 0.0 
0.0 0.0 -1.261386868753e+02 
-1.159933474336e+02 -7.138999546821e-01 0.0 
-7.138999546821e-01 -2.902072656254e+02 0.0 
0.0 0.0 -1.214601839177e+02 
-1.249452806809e+02 2.235555380251e-01 0.0 
2.235555380251e-01 -3.093635842882e+02 0.0 
0.0 0.0 -1.298926594907e+02 
-1.206362251107e+02 -4.347284386787e-01 0.0 
-4.347284386787e-01 -2.979320807095e+02 0.0 
0.0 0.0 -1.251704917460e+02 
-1.118708002783e+02 -1.299915954465e+00 0.0 
-1.299915954465e+00 -2.785745596677e+02 0.0 
0.0 0.0 -1.167336079838e+02 
-1.163376495419e+02 -9.158708201988e-01 0.0 
-9.158708201988e-01 -2.863502379366e+02 0.0 
0.0 0.0 -1.204063662436e+02 
-1.077597224859e+02 -1.670707994134e+00 0.0 
-1.670707994134e+00 -2.669040882322e+02 0.0 
0.0 0.0 -1.119991432154e+02 
-8.135521848921e+01 1.008403600857e+01 0.0 
1.008403600857e+01 -2.470165019007e+02 0.0 
0.0 0.0 -9.811151611696e+01 
-8.584274411489e+01 1.265308373062e+01 0.0 
1.265308373062e+01 -2.531992107775e+02 0.0 
0.0 0.0 -1.013125864677e+02 
-9.042133129471e+01 1.070808811156e+01 0.0 
1.070808811156e+01 -2.637982118954e+02 0.0 
0.0 0.0 -1.058658629570e+02 
-9.505926519313e+01 1.304023374983e+01 0.0 
1.304023374983e+01 -2.702501647712e+02 0.0 
0.0 0.0 -1.091928289893e+02 
-9.981873264797e+01 1.137253034749e+01 0.0 
1.137253034749e+01 -2.809281050607e+02 0.0 
0.0 0.0 -1.138240513126e+02 
-1.045824223046e+02 1.351335608272e+01 0.0 
1.351335608272e+01 -2.875959845274e+02 0.0 
0.0 0.0 -1.172535220496e+02 
-1.095351916174e+02 1.208526511852e+01 0.0 
1.208526511852e+01 -2.983083663848e+02 0.0 
0.0 0.0 -1.219530674007e+02 
-1.048504318458e+02 9.903808027605e+00 0.0 
9.903808027605e+00 -2.910032109415e+02 0.0 
0.0 0.0 -1.183560928362e+02 
-1.055530255534e+02 1.627500044030e+01 0.0 
1.627500044030e+01 -2.175731776852e+02 0.0 
0.0 0.0 -9.653786097159e+01 
-5.253527165047e+01 1.202785891871e+01 0.0 
1.202785891871e+01 -1.891298928238e+02 0.0 
0.0 0.0 -7.209954934229e+01 
-4.939806338370e+01 1.587130577856e+01 0.0 
1.587130577856e+01 -1.774852597997e+02 0.0 
0.0 0.0 -6.766499695503e+01 
-4.537991302142e+01 1.223548563656e+01 0.0 
1.223548563656e+01 -1.743930160413e+02 0.0 
0.0 0.0 -6.553187871881e+01 
-4.275716943465e+01 1.667164204435e+01 0.0 
1.667164204435e+01 -1.624603482724e+02 0.0 
0.0 0.0 -6.116525531211e+01 
-3.893133141469e+01 1.274900139128e+01 0.0 
1.274900139128e+01 -1.602955430788e+02 0.0 
0.0 0.0 -5.936806234804e+01 
-3.705653767383e+01 1.785501616699e+01 0.0 
1.785501616699e+01 -1.478565095113e+02 0.0 
0.0 0.0 -5.507391415554e+01 
-3.356517582867e+01 1.369633424791e+01 0.0 
1.369633424791e+01 -1.468549860316e+02 0.0 
0.0 0.0 -5.367109154822e+01 
-3.567081471677e+01 7.692414896678e+00 0.0 
7.692414896678e+00 -1.573067105115e+02 0.0 
0.0 0.0 -5.746922196047e+01 
-3.109078182350e+01 8.004652054634e+00 0.0 
8.004652054634e+00 -1.451239859154e+02 0.0 
0.0 0.0 -5.256774448418e+01 
-3.358545845457e+01 1.461111731895e+00 0.0 
1.461111731895e+00 -1.525899097403e+02 0.0 
0.0 0.0 -5.532798413930e+01 
-2.965461700488e+01 8.495434644315e-01 0.0 
8.495434644315e-01 -1.413228611509e+02 0.0 
0.0 0.0 -5.145446081012e+01 
-3.275492958953e+01 -5.463927996554e+00 0.0 
-5.463927996554e+00 -1.451668704475e+02 0.0 
0.0 0.0 -5.309215388324e+01 
-9.149737693245e+01 2.237179982874e+01 0.0 
2.237179982874e+01 -2.166490002850e+02 0.0 
0.0 0.0 -9.204391316523e+01 
-9.991941665478e+01 1.507995410103e+01 0.0 
1.507995410103e+01 -2.762439838455e+02 0.0 
0.0 0.0 -1.124490201501e+02 
-1.095394498513e+02 1.541491043410e+01 0.0 
1.541491043410e+01 -2.938653524290e+02 0.0 
0.0 0.0 -1.206214406841e+02 
-1.048919713722e+02 1.681701283784e+01 0.0 
1.681701283784e+01 -2.818384468762e+02 0.0 
0.0 0.0 -1.156191254745e+02 
-4.163962127755e+01 -5.618198876481e+00 0.0 
-5.618198876481e+00 -9.757209330010e+01 0.0 
0.0 0.0 -4.136351437329e+01 
-1.251735649797e+02 -2.006400413002e-01 0.0 
-2.006400413002e-01 -3.057621900728e+02 0.0 
0.0 0.0 -1.288807265157e+02 
-1.182298527860e+02 2.672274088440e+00 0.0 
2.672274088440e+00 -3.081655410964e+02 0.0 
0.0 0.0 -1.275186181647e+02 
-1.127607020567e+02 3.037732070971e+00 0.0 
3.037732070971e+00 -3.000759113554e+02 0.0 
0.0 0.0 -1.234509840236e+02 
-1.147548016775e+02 1.080730576314e+01 0.0 
1.080730576314e+01 -3.084992292136e+02 0.0 
0.0 0.0 -1.265762092673e+02 
-3.926358074007e+01 -3.548359301857e+00 0.0 
-3.548359301857e+00 -9.392568233272e+01 0.0 
0.0 0.0 -3.955677892184e+01 
-3.297896139508e+01 1.956775567593e+01 0.0 
1.956775567593e+01 -1.336920390992e+02 0.0 
0.0 0.0 -4.956676109776e+01 
-3.614597081309e+01 2.247146812069e+01 0.0 
2.247146812069e+01 -1.329594251994e+02 0.0 
0.0 0.0 -5.033161880374e+01 
-1.015980410685e+02 7.639620933270e+00 0.0 
7.639620933270e+00 -2.082732771225e+02 0.0 
0.0 0.0 -9.256139545730e+01 
-9.738663016045e+01 6.282052667642e+00 0.0 
6.282052667642e+00 -1.980714008822e+02 0.0 
0.0 0.0 -8.823740931279e+01 
-1.225633543982e+02 4.356765198030e+00 0.0 
4.356765198030e+00 -3.184351354395e+02 0.0 
0.0 0.0 -1.318995469513e+02 
-4.243481208123e+01 -2.973346154816e+00 0.0 
-2.973346154816e+00 -1.023768501189e+02 0.0 
0.0 0.0 -4.304349866005e+01 
-1.243798180669e+02 1.054234888276e+00 0.0 
1.054234888276e+00 -3.128998467834e+02 0.0 
0.0 0.0 -1.307838994551e+02 
-2.820860579057e+01 8.967162190430e+00 0.0 
8.967162190430e+00 -1.343841009553e+02 0.0 
0.0 0.0 -4.945083545630e+01 
-1.207227798553e+02 -5.972191045966e-01 0.0 
-5.972191045966e-01 -2.942521185043e+02 0.0 
0.0 0.0 -1.240924695079e+02 
-1.295817314206e+02 -2.138622519273e-02 0.0 
-2.138622519273e-02 -3.136882512147e+02 0.0 
0.0 0.0 -1.325809947906e+02 
-1.026556130993e+02 -2.192131377680e+00 0.0 
-2.192131377680e+00 -2.634083204490e+02 0.0 
0.0 0.0 -1.094191800645e+02 
-1.146062761114e+02 1.708325555203e+01 0.0 
1.708325555203e+01 -2.998320722961e+02 0.0 
0.0 0.0 -1.239315045223e+02 
-1.099283612827e+02 1.825323946062e+01 0.0 
1.825323946062e+01 -2.871925147045e+02 0.0 
0.0 0.0 -1.187362627961e+02 
-3.746261423021e+01 -3.642597019565e+00 0.0 
-3.642597019565e+00 -1.578942693436e+02 0.0 
0.0 0.0 -5.818190340217e+01 
-3.702753738506e+01 -9.702578442774e+00 0.0 
-9.702578442774e+00 -1.477267163270e+02 0.0 
0.0 0.0 -5.495717744805e+01 
-3.365214446753e+01 -1.242523085785e+01 0.0 
-1.242523085785e+01 -1.342550974692e+02 0.0 
0.0 0.0 -5.030551688157e+01 
-3.835948712292e+01 -1.491606231920e+01 0.0 
-1.491606231920e+01 -1.348921236973e+02 0.0 
0.0 0.0 -5.140013589260e+01 
-4.189850645196e+01 -1.181164611912e+01 0.0 
-1.181164611912e+01 -1.501839742342e+02 0.0 
0.0 0.0 -5.721788042462e+01 
-4.235183249474e+01 -1.538875843567e+01 0.0 
-1.538875843567e+01 -1.358876362692e+02 0.0 
0.0 0.0 -5.297346087649e+01 
-4.030778185411e+01 -1.843690222013e+01 0.0 
-1.843690222013e+01 -1.185963592410e+02 0.0 
0.0 0.0 -4.668365230732e+01 
-4.301986277926e+01 -1.715249318266e+01 0.0 
-1.715249318266e+01 -1.195484183422e+02 0.0 
0.0 0.0 -4.802548322610e+01 
-4.636364659014e+01 -1.470379635783e+01 0.0 
-1.470379635783e+01 -1.384213562496e+02 0.0 
0.0 0.0 -5.503550085193e+01 
-4.580105953166e+01 -1.530875879479e+01 0.0 
-1.530875879479e+01 -1.225793907626e+02 0.0 
0.0 0.0 -5.006175488699e+01 
-4.326167302218e+01 -1.644767284119e+01 0.0 
-1.644767284119e+01 -1.018979102537e+02 0.0 
0.0 0.0 -4.242421915501e+01 
-4.443092462613e+01 -1.409881785028e+01 0.0 
-1.409881785028e+01 -1.062120208907e+02 0.0 
0.0 0.0 -4.461878620917e+01 
-1.341623498568e+02 4.267616799437e-01 0.0 
4.267616799437e-01 -3.250040615290e+02 0.0 
0.0 0.0 -1.373499234158e+02 
-2.701946748616e+01 4.993726720536e-01 0.0 
4.993726720536e-01 -1.315125819623e+02 0.0 
0.0 0.0 -4.876903992737e+01 
-8.354942146091e+01 1.362870498645e+01 0.0 
1.362870498645e+01 -1.555221795417e+02 0.0 
0.0 0.0 -7.132148030078e+01 
-1.280055149656e+02 3.895373845091e+00 0.0 
3.895373845091e+00 -3.265680245358e+02 0.0 
0.0 0.0 -1.359720618504e+02 
-1.195252460749e+02 1.285516194306e+01 0.0 
1.285516194306e+01 -3.157101756417e+02 0.0 
0.0 0.0 -1.301706265150e+02 
-1.045411461632e+02 7.411926210099e+00 0.0 
7.411926210099e+00 -2.183815535645e+02 0.0 
0.0 0.0 -9.647680991831e+01 
-1.004514140367e+02 6.126140754026e+00 0.0 
6.126140754026e+00 -2.083605486709e+02 0.0 
0.0 0.0 -9.224358881228e+01 
-9.304951936336e+01 5.014054588228e+00 0.0 
5.014054588228e+00 -1.880898318076e+02 0.0 
0.0 0.0 -8.394180535127e+01 
-9.628759880592e+01 4.942164254147e+00 0.0 
4.942164254147e+00 -1.986166330983e+02 0.0 
0.0 0.0 -8.807126957126e+01 
-1.035077397559e+02 5.961406634542e+00 0.0 
5.961406634542e+00 -2.188658240484e+02 0.0 
0.0 0.0 -9.631206914129e+01 
-9.950832046558e+01 4.837051038425e+00 0.0 
4.837051038425e+00 -2.092085609753e+02 0.0 
0.0 0.0 -9.221506443226e+01 
-9.208387144306e+01 3.912946558629e+00 0.0 
3.912946558629e+00 -1.890493054171e+02 0.0 
0.0 0.0 -8.393995305804e+01 
-9.548486615534e+01 3.848573904612e+00 0.0 
3.848573904612e+00 -1.996843157109e+02 0.0 
0.0 0.0 -8.815075455987e+01 
-8.790359815838e+01 3.021815747973e+00 0.0 
3.021815747973e+00 -1.796004640216e+02 0.0 
0.0 0.0 -7.985121865400e+01 
-9.145149957996e+01 2.990399922505e+00 0.0 
2.990399922505e+00 -1.903073300868e+02 0.0 
0.0 0.0 -8.412764890003e+01 
-9.888779736015e+01 3.739228858939e+00 0.0 
3.739228858939e+00 -2.103899229244e+02 0.0 
0.0 0.0 -9.238331608538e+01 
-9.500247558100e+01 2.932167255815e+00 0.0 
2.932167255815e+00 -2.011073112950e+02 0.0 
0.0 0.0 -8.843293606280e+01 
-8.740850887422e+01 2.255995375793e+00 0.0 
2.255995375793e+00 -1.811061674652e+02 0.0 
0.0 0.0 -8.015440290182e+01 
-9.110694633520e+01 2.241384795815e+00 0.0 
2.241384795815e+00 -1.919130419623e+02 0.0 
0.0 0.0 -8.450599648925e+01 
-8.337797336630e+01 1.665189516573e+00 0.0 
1.665189516573e+00 -1.719572226463e+02 0.0 
0.0 0.0 -7.620055880378e+01 
-8.723438668330e+01 1.678087731673e+00 0.0 
1.678087731673e+00 -1.827040902836e+02 0.0 
0.0 0.0 -8.058154309008e+01 
-9.482368114262e+01 2.121386350299e+00 0.0 
2.121386350299e+00 -2.027843113546e+02 0.0 
0.0 0.0 -8.888239774918e+01 
-3.406696963235e+01 -2.518634308615e+00 0.0 
-2.518634308615e+00 -8.284437292144e+01 0.0 
0.0 0.0 -3.467340276614e+01 
-1.101123085990e+02 8.646266287963e+00 0.0 
8.646266287963e+00 -3.006003218169e+02 0.0 
0.0 0.0 -1.228137891248e+02 
-1.202556853364e+02 9.686561510169e+00 0.0 
9.686561510169e+00 -3.183647537658e+02 0.0 
0.0 0.0 -1.311861317307e+02 
-6.737359174073e+01 -3.312866071312e+00 0.0 
-3.312866071312e+00 -1.641904593485e+02 0.0 
0.0 0.0 -6.906921532677e+01 
-7.506943000361e+01 -3.062500197641e+00 0.0 
-3.062500197641e+00 -1.836176467440e+02 0.0 
0.0 0.0 -7.720612302427e+01 
-7.935459943091e+01 -3.651152568673e+00 0.0 
-3.651152568673e+00 -1.957812211672e+02 0.0 
0.0 0.0 -8.214074617943e+01 
-8.331192131970e+01 -2.791603447129e+00 0.0 
-2.791603447129e+00 -2.041170350149e+02 0.0 
0.0 0.0 -8.582868690037e+01 
-9.103852639765e+01 1.566092289414e+00 0.0 
1.566092289414e+00 -1.934798060497e+02 0.0 
0.0 0.0 -8.495549973419e+01 
-9.846854301649e+01 1.915553780222e+00 0.0 
1.915553780222e+00 -2.136886269408e+02 0.0 
0.0 0.0 -9.324715098717e+01 
-3.358914528353e+01 2.457522029238e+01 0.0 
2.457522029238e+01 -1.175966719211e+02 0.0 
0.0 0.0 -4.480677982507e+01 
-3.602191387960e+01 2.605278667244e+01 0.0 
2.605278667244e+01 -1.158494657198e+02 0.0 
0.0 0.0 -4.509348542954e+01 
-1.085357606808e+02 8.807053407537e+00 0.0 
8.807053407537e+00 -2.286791562654e+02 0.0 
0.0 0.0 -1.007644750839e+02 
-1.250181425046e+02 -3.260681807152e-01 0.0 
-3.260681807152e-01 -3.023366403723e+02 0.0 
0.0 0.0 -1.278064348631e+02 
-1.162947981546e+02 -8.263425846974e-01 0.0 
-8.263425846974e-01 -2.827791172069e+02 0.0 
0.0 0.0 -1.193221746085e+02 
-6.371866301532e+01 2.533583892008e+01 0.0 
2.533583892008e+01 -1.558561932074e+02 0.0 
0.0 0.0 -6.547245686682e+01 
-6.133347202405e+01 2.544090954954e+01 0.0 
2.544090954954e+01 -1.387401939774e+02 0.0 
0.0 0.0 -5.962209980043e+01 
-5.666282373742e+01 2.621815135707e+01 0.0 
2.621815135707e+01 -1.366273568307e+02 0.0 
0.0 0.0 -5.758705417044e+01 
-5.414005961637e+01 2.603270673912e+01 0.0 
2.603270673912e+01 -1.184198414520e+02 0.0 
0.0 0.0 -5.136797032052e+01 
-5.869376092977e+01 2.473620653410e+01 0.0 
2.473620653410e+01 -1.209891288834e+02 0.0 
0.0 0.0 -5.350486694394e+01 
-4.992367554237e+01 2.691870517479e+01 0.0 
2.691870517479e+01 -1.166972976530e+02 0.0 
0.0 0.0 -4.958629195860e+01 
-1.033459933306e+02 1.566745144300e+00 0.0 
1.566745144300e+00 -2.817390482459e+02 0.0 
0.0 0.0 -1.151255124730e+02 
-1.023046669435e+02 3.591567764498e+00 0.0 
3.591567764498e+00 -2.212226466827e+02 0.0 
0.0 0.0 -9.665819408787e+01 
-4.665060802203e+01 -7.290179701831e+00 0.0 
-7.290179701831e+00 -1.104577450112e+02 0.0 
0.0 0.0 -4.673250590997e+01 
-3.919565768296e+01 -6.473262171166e+00 0.0 
-6.473262171166e+00 -8.955842942213e+01 0.0 
0.0 0.0 -3.822622613153e+01 
-1.338512084388e+02 1.056014386376e-01 0.0 
1.056014386376e-01 -3.217883544023e+02 0.0 
0.0 0.0 -1.362918688523e+02 
-1.003918127836e+02 7.571349578020e+00 0.0 
7.571349578020e+00 -2.831147246229e+02 0.0 
0.0 0.0 -1.146519612219e+02 
-9.630940341333e+01 2.185982448240e+01 0.0 
2.185982448240e+01 -2.211204041075e+02 0.0 
0.0 0.0 -9.482894225626e+01 
-9.941795062528e+01 2.188680227958e+01 0.0 
2.188680227958e+01 -2.359165786073e+02 0.0 
0.0 0.0 -1.002003587698e+02 
-1.041330871937e+02 2.158266777107e+01 0.0 
2.158266777107e+01 -2.407436485540e+02 0.0 
0.0 0.0 -1.030630207243e+02 
-1.075006852617e+02 2.161642737456e+01 0.0 
2.161642737456e+01 -2.552367842744e+02 0.0 
0.0 0.0 -1.084212408608e+02 
-1.120541051999e+02 2.152951117690e+01 0.0 
2.152951117690e+01 -2.603479251619e+02 0.0 
0.0 0.0 -1.113206091085e+02 
-1.156792431188e+02 2.162078477363e+01 0.0 
2.162078477363e+01 -2.744956550008e+02 0.0 
0.0 0.0 -1.166524694359e+02 
-1.110717526961e+02 2.138742082373e+01 0.0 
2.138742082373e+01 -2.694665256360e+02 0.0 
0.0 0.0 -1.137614834996e+02 
-1.196682734924e+02 1.853246028156e+01 0.0 
1.853246028156e+01 -3.055488716430e+02 0.0 
0.0 0.0 -1.271651435406e+02 
-1.195643861911e+02 2.152792287103e+01 0.0 
2.152792287103e+01 -2.884308695845e+02 0.0 
0.0 0.0 -1.219985767327e+02 
-8.335945336009e+01 1.126599102512e+00 0.0 
1.126599102512e+00 -1.732437303452e+02 0.0 
0.0 0.0 -7.658095511158e+01 
-9.545946603271e+01 1.671311365120e+01 0.0 
1.671311365120e+01 -2.640401838320e+02 0.0 
0.0 0.0 -1.074498949594e+02 
-5.031954681877e+01 -1.345428441392e+01 0.0 
-1.345428441392e+01 -1.423894619136e+02 0.0 
0.0 0.0 -5.741270261972e+01 
-3.059369321545e+01 -2.761777385846e+00 0.0 
-2.761777385846e+00 -7.400399517027e+01 0.0 
0.0 0.0 -3.097930651571e+01 
-4.054197201107e+01 -1.344886760530e+01 0.0 
-1.344886760530e+01 -8.379278365684e+01 0.0 
0.0 0.0 -3.602776830416e+01 
-3.699740494615e+01 -2.105342909859e+00 0.0 
-2.105342909859e+00 -9.057830832105e+01 0.0 
0.0 0.0 -3.787271398016e+01 
-4.579018247460e+01 -2.435538634659e+00 0.0 
-2.435538634659e+00 -1.108558764960e+02 0.0 
0.0 0.0 -4.659381769119e+01 
-1.327199451828e+02 5.529287020420e+00 0.0 
5.529287020420e+00 -3.367490648497e+02 0.0 
0.0 0.0 -1.404407030097e+02 
-1.200104212692e+02 2.175405792190e+01 0.0 
2.175405792190e+01 -2.798172108095e+02 0.0 
0.0 0.0 -1.195482896236e+02 
-1.162214554949e+02 2.133468924820e+01 0.0 
2.133468924820e+01 -2.656439052450e+02 0.0 
0.0 0.0 -1.141596082220e+02 
-5.136719537719e+01 2.493854473352e+01 0.0 
2.493854473352e+01 -9.996580644971e+01 0.0 
0.0 0.0 -4.499990054807e+01 
-5.576006898718e+01 2.297965652434e+01 0.0 
2.297965652434e+01 -1.029660530133e+02 0.0 
0.0 0.0 -4.721783660015e+01 
-1.246501896021e+02 1.756958885595e+01 0.0 
1.756958885595e+01 -3.179096052282e+02 0.0 
0.0 0.0 -1.323679384491e+02 
-8.666714026266e+01 5.180809949985e+00 0.0 
5.180809949985e+00 -1.677213807784e+02 0.0 
0.0 0.0 -7.591655631231e+01 
-8.437261092489e+01 2.994136125005e+00 0.0 
2.994136125005e+00 -1.690303040037e+02 0.0 
0.0 0.0 -7.562087447857e+01 
-7.997144066422e+01 2.196586033071e+00 0.0 
2.196586033071e+00 -1.595748471372e+02 0.0 
0.0 0.0 -7.146388634043e+01 
-2.728916007547e+01 -1.562096925258e+00 0.0 
-1.562096925258e+00 -6.895831037732e+01 0.0 
0.0 0.0 -2.847424113584e+01 
-4.052542033311e+01 -1.625402664520e+01 0.0 
-1.625402664520e+01 -7.984779546390e+01 0.0 
0.0 0.0 -3.418088907425e+01 
-1.065983352603e+02 5.740869788579e+00 0.0 
5.740869788579e+00 -2.294776023464e+02 0.0 
0.0 0.0 -1.004227812820e+02 
-3.972463381715e+01 2.442090095936e+01 0.0 
2.442090095936e+01 -1.324949123320e+02 0.0 
0.0 0.0 -5.126586384476e+01 
-3.894852539361e+01 2.688826094249e+01 0.0 
2.688826094249e+01 -1.149073513576e+02 0.0 
0.0 0.0 -4.575676302537e+01 
-2.721785934386e+01 1.124690202641e+01 0.0 
1.124690202641e+01 -1.247129254933e+02 0.0 
0.0 0.0 -4.692922070024e+01 
-2.744462835236e+01 6.819655513221e-01 0.0 
6.819655513221e-01 -1.243899633221e+02 0.0 
0.0 0.0 -4.741517791740e+01 
-9.483200095814e+01 1.290939885327e+00 0.0 
1.290939885327e+00 -2.040953181574e+02 0.0 
0.0 0.0 -8.927819573467e+01 
-1.021562768438e+02 1.623235804804e+00 0.0 
1.623235804804e+00 -2.241890293866e+02 0.0 
0.0 0.0 -9.750359186912e+01 
-8.744772914284e+01 -3.098402865550e+00 0.0 
-3.098402865550e+00 -2.159176624051e+02 0.0 
0.0 0.0 -9.060961746437e+01 
-9.140160184290e+01 -2.292633924873e+00 0.0 
-2.292633924873e+00 -2.241188668148e+02 0.0 
0.0 0.0 -9.425614059733e+01 
-1.271691131726e+02 6.151965390311e+00 0.0 
6.151965390311e+00 -3.282993578036e+02 0.0 
0.0 0.0 -1.362405412928e+02 
-4.132457547681e+01 -1.150089562841e+01 0.0 
-1.150089562841e+01 -9.045065204112e+01 0.0 
0.0 0.0 -3.894487617491e+01 
-1.057936737774e+02 2.318691228425e+00 0.0 
2.318691228425e+00 -2.338717985381e+02 0.0 
0.0 0.0 -1.014996416947e+02 
-1.057020231370e+02 6.412455357150e+00 0.0 
6.412455357150e+00 -2.921352167450e+02 0.0 
0.0 0.0 -1.189511719646e+02 
-9.623623273797e+01 5.150200605766e+00 0.0 
5.150200605766e+00 -2.746121895989e+02 0.0 
0.0 0.0 -1.108545267011e+02 
-7.901021123440e+01 -2.380549963746e+00 0.0 
-2.380549963746e+00 -1.919812074778e+02 0.0 
0.0 0.0 -8.089742561365e+01 
-3.508430655001e+01 2.784984281913e+01 0.0 
2.784984281913e+01 -9.884299580902e+01 0.0 
0.0 0.0 -3.924415396119e+01 
-3.403244632281e+01 2.713376038950e+01 0.0 
2.713376038950e+01 -1.018680560674e+02 0.0 
0.0 0.0 -4.010538480336e+01 
-5.134003279057e+01 -1.222485456877e+01 0.0 
-1.222485456877e+01 -1.569115526629e+02 0.0 
0.0 0.0 -6.207547563604e+01 
-4.648558476537e+01 -1.210024885525e+01 0.0 
-1.210024885525e+01 -1.120685420226e+02 0.0 
0.0 0.0 -4.716623803640e+01 
-4.050835804088e+01 -1.635527369380e+00 0.0 
-1.635527369380e+00 -9.914684560369e+01 0.0 
0.0 0.0 -4.149656109337e+01 
-1.376286368790e+02 7.251677393743e+00 0.0 
7.251677393743e+00 -3.464636284727e+02 0.0 
0.0 0.0 -1.448276796055e+02 
-1.103705126078e+02 6.897256720058e+00 0.0 
6.897256720058e+00 -2.391194213051e+02 0.0 
0.0 0.0 -1.044469801739e+02 
-1.149851691007e+02 2.100707008720e+01 0.0 
2.100707008720e+01 -2.833558369977e+02 0.0 
0.0 0.0 -1.191023018295e+02 
-1.061824508629e+02 2.102197087745e+01 0.0 
2.102197087745e+01 -2.645451622623e+02 0.0 
0.0 0.0 -1.108182839376e+02 
-1.240392847341e+02 2.124960981671e+01 0.0 
2.124960981671e+01 -3.022466473931e+02 0.0 
0.0 0.0 -1.274857796382e+02 
-3.561439570088e+01 -9.679507363113e+00 0.0 
-9.679507363113e+00 -6.858862420868e+01 0.0 
0.0 0.0 -3.026188256723e+01 
-1.382648050027e+02 4.969677579441e+00 0.0 
4.969677579441e+00 -3.452035690976e+02 0.0 
0.0 0.0 -1.446405122301e+02 
-1.291837124111e+02 -1.245909745782e-01 0.0 
-1.245909745782e-01 -3.106026748836e+02 0.0 
0.0 0.0 -1.315359161884e+02 
-1.235595862752e+02 2.171884541992e+01 0.0 
2.171884541992e+01 -2.845066802740e+02 0.0 
0.0 0.0 -1.220198799648e+02 
-1.200668962524e+02 2.108500897285e+01 0.0 
2.108500897285e+01 -2.713617291870e+02 0.0 
0.0 0.0 -1.170285876318e+02 
-4.341823248216e+01 2.564962973098e+01 0.0 
2.564962973098e+01 -1.323889534532e+02 0.0 
0.0 0.0 -5.234215578062e+01 
-4.225332496121e+01 2.727734958338e+01 0.0 
2.727734958338e+01 -1.147817981861e+02 0.0 
0.0 0.0 -4.671053694420e+01 
-3.829324004216e+01 2.803714928640e+01 0.0 
2.803714928640e+01 -9.613817500906e+01 0.0 
0.0 0.0 -3.992942451537e+01 
-4.080187689614e+01 2.776417512137e+01 0.0 
2.776417512137e+01 -9.608615645648e+01 0.0 
0.0 0.0 -4.066641000578e+01 
-8.258350204028e+01 1.027139248494e+01 0.0 
1.027139248494e+01 -1.514728709955e+02 0.0 
0.0 0.0 -6.981691191072e+01 
-4.744820003763e+01 2.633768385312e+01 0.0 
2.633768385312e+01 -1.330070135119e+02 0.0 
0.0 0.0 -5.373656406485e+01 
-7.989878920970e+01 1.505967293505e+01 0.0 
1.505967293505e+01 -1.478282980639e+02 0.0 
0.0 0.0 -6.791812618208e+01 
-7.569745210076e+01 1.255314178130e+01 0.0 
1.255314178130e+01 -1.345977610986e+02 0.0 
0.0 0.0 -6.268856395981e+01 
-7.207783935958e+01 1.408739445892e+01 0.0 
1.408739445892e+01 -1.267821800326e+02 0.0 
0.0 0.0 -5.925800581765e+01 
-6.329161870258e+01 2.292344825272e+01 0.0 
2.292344825272e+01 -1.242479521270e+02 0.0 
0.0 0.0 -5.586187124887e+01 
-6.013249496046e+01 2.059849741473e+01 0.0 
2.059849741473e+01 -1.072080190949e+02 0.0 
0.0 0.0 -4.980215421659e+01 
-4.689386402101e+01 1.966192656134e+01 0.0 
1.966192656134e+01 -1.641303838523e+02 0.0 
0.0 0.0 -6.290727436199e+01 
-8.157540742751e+01 1.478784770281e+01 0.0 
1.478784770281e+01 -2.417933385919e+02 0.0 
0.0 0.0 -9.661062380582e+01 
-8.341306402710e+01 -3.952430379224e+00 0.0 
-3.952430379224e+00 -2.079496911444e+02 0.0 
0.0 0.0 -8.700882655144e+01 
-1.033959979419e+02 -2.205049884006e+00 0.0 
-2.205049884006e+00 -2.591873377916e+02 0.0 
0.0 0.0 -1.083750007201e+02 
-9.118779296240e+01 -1.871445752437e+00 0.0 
-1.871445752437e+00 -2.528956486972e+02 0.0 
0.0 0.0 -1.028250324979e+02 
-1.059664400791e+02 4.471279797344e+00 0.0 
4.471279797344e+00 -2.304609274804e+02 0.0 
0.0 0.0 -1.005282102678e+02 
-1.092951549749e+02 4.226639535674e+00 0.0 
4.226639535674e+00 -2.414345463739e+02 0.0 
0.0 0.0 -1.048189104046e+02 
-7.954942780931e+01 1.602407328420e+00 0.0 
1.602407328420e+00 -1.611831329351e+02 0.0 
0.0 0.0 -7.181976822333e+01 
-7.551795317051e+01 1.127117313758e+00 0.0 
1.127117313758e+00 -1.520087248021e+02 0.0 
0.0 0.0 -6.785800339179e+01 
-3.343235909337e+01 -4.589465373038e+00 0.0 
-4.589465373038e+00 -7.686420155612e+01 0.0 
0.0 0.0 -3.268896819485e+01 
-3.108000452830e+01 -5.105838962173e+00 0.0 
-5.105838962173e+00 -6.869693220136e+01 0.0 
0.0 0.0 -2.953098605299e+01 
-8.973992507279e+01 -4.050371187600e+00 0.0 
-4.050371187600e+00 -2.367854717946e+02 0.0 
0.0 0.0 -9.755761906021e+01 
-1.333108385278e+02 3.496115223049e+00 0.0 
3.496115223049e+00 -3.345370769204e+02 0.0 
0.0 0.0 -1.399543746345e+02 
-1.111852195831e+02 8.452829538826e+00 0.0 
8.452829538826e+00 -2.385509018473e+02 0.0 
0.0 0.0 -1.045208364291e+02 
-1.149623223942e+02 9.922460603041e+00 0.0 
9.922460603041e+00 -2.489722371363e+02 0.0 
0.0 0.0 -1.087803678591e+02 
-1.124106045622e+02 1.031252561985e+01 0.0 
1.031252561985e+01 -2.391418873687e+02 0.0 
0.0 0.0 -1.050657475793e+02 
-1.319042833737e+02 8.019722073360e+00 0.0 
8.019722073360e+00 -3.374945217376e+02 0.0 
0.0 0.0 -1.404196415334e+02 
-4.883768726638e+01 8.022626061630e+00 0.0 
8.022626061630e+00 -1.845631247069e+02 0.0 
0.0 0.0 -6.962024359198e+01 
-8.608321753845e+01 8.115476802968e+00 0.0 
8.115476802968e+00 -2.567721300729e+02 0.0 
0.0 0.0 -1.024566042834e+02 
-2.829617998906e+01 -9.916965877898e+00 0.0 
-9.916965877898e+00 -1.250183146435e+02 0.0 
0.0 0.0 -4.724839911281e+01 
-8.944176414682e+01 2.189239076225e+01 0.0 
2.189239076225e+01 -2.274100106862e+02 0.0 
0.0 0.0 -9.465553244991e+01 
-2.457319805527e+01 -3.262255269253e+00 0.0 
-3.262255269253e+00 -5.655998740877e+01 0.0 
0.0 0.0 -2.393995563921e+01 
-1.055934352932e+02 1.858787352468e+01 0.0 
1.858787352468e+01 -2.236625632387e+02 0.0 
0.0 0.0 -9.837679955959e+01 
-1.381193742450e+02 1.639693815414e-01 0.0 
1.639693815414e-01 -3.300948675982e+02 0.0 
0.0 0.0 -1.400642725530e+02 
-1.428190351399e+02 4.476187450990e-01 0.0 
4.476187450990e-01 -3.410213568520e+02 0.0 
0.0 0.0 -1.447521175976e+02 
-1.295582940272e+02 1.908206559168e+01 0.0 
1.908206559168e+01 -3.237072312830e+02 0.0 
0.0 0.0 -1.355796575930e+02 
-6.977444894760e+01 6.642184488429e+00 0.0 
6.642184488429e+00 -1.203988564032e+02 0.0 
0.0 0.0 -5.665199160524e+01 
-9.263186919044e+01 2.083077303660e+01 0.0 
2.083077303660e+01 -2.416191661754e+02 0.0 
0.0 0.0 -9.987531060976e+01 
-8.756203698867e+01 1.995512612321e+01 0.0 
1.995512612321e+01 -2.375404027078e+02 0.0 
0.0 0.0 -9.713073190893e+01 
-6.755083497821e+01 1.121985469371e+01 0.0 
1.121985469371e+01 -1.138008694189e+02 0.0 
0.0 0.0 -5.400551131912e+01 
-6.391041927193e+01 1.280904505117e+01 0.0 
1.280904505117e+01 -1.056767134298e+02 0.0 
0.0 0.0 -5.047613981051e+01 
-6.829059189220e+01 1.591700006433e+01 0.0 
1.591700006433e+01 -1.194754193150e+02 0.0 
0.0 0.0 -5.592980336215e+01 
-6.023031522549e+01 1.483207159998e+01 0.0 
1.483207159998e+01 -9.816208298399e+01 0.0 
0.0 0.0 -4.711771946284e+01 
-5.566681376100e+01 -1.143404078072e+01 0.0 
-1.143404078072e+01 -1.614618921085e+02 0.0 
0.0 0.0 -6.473861176087e+01 
-5.400069593518e+01 -1.200894676074e+01 0.0 
-1.200894676074e+01 -1.472535500593e+02 0.0 
0.0 0.0 -5.997627379834e+01 
-1.286286666994e+02 2.241889799596e+01 0.0 
2.241889799596e+01 -3.005643177826e+02 0.0 
0.0 0.0 -1.283578953446e+02 
-1.281474939396e+02 2.195231750736e+01 0.0 
2.195231750736e+01 -3.071650292421e+02 0.0 
0.0 0.0 -1.301937569545e+02 
-1.271995825916e+02 2.186924424825e+01 0.0 
2.186924424825e+01 -2.906805598615e+02 0.0 
0.0 0.0 -1.249640427359e+02 
-1.239149128039e+02 2.090420877479e+01 0.0 
2.090420877479e+01 -2.780050562555e+02 0.0 
0.0 0.0 -1.201759907178e+02 
-1.349938590479e+02 1.828916039763e+01 0.0 
1.828916039763e+01 -3.359247045824e+02 0.0 
0.0 0.0 -1.408755690891e+02 
-1.297799519474e+02 1.658634619073e+01 0.0 
1.658634619073e+01 -3.294804108166e+02 0.0 
0.0 0.0 -1.373781088292e+02 
-4.893960021994e+01 -1.804658040115e+00 0.0 
-1.804658040115e+00 -1.188195339615e+02 0.0 
0.0 0.0 -4.992774025443e+01 
-5.232438668237e+01 1.995500523788e+01 0.0 
1.995500523788e+01 -8.538117902691e+01 0.0 
0.0 0.0 -4.091166971278e+01 
-1.134376247675e+02 6.587301284463e+00 0.0 
6.587301284463e+00 -2.497099565275e+02 0.0 
0.0 0.0 -1.085442743885e+02 
-7.106410676377e+01 9.923264915159e+00 0.0 
9.923264915159e+00 -1.221979088301e+02 0.0 
0.0 0.0 -5.757860467815e+01 
-1.434026947604e+02 4.421672030441e+00 0.0 
4.421672030441e+00 -3.527803407489e+02 0.0 
0.0 0.0 -1.484549106528e+02 
-1.385323140209e+02 3.159567418537e+00 0.0 
3.159567418537e+00 -3.424744153331e+02 0.0 
0.0 0.0 -1.439020188062e+02 
-3.323625058824e+01 -1.057677395302e+01 0.0 
-1.057677395302e+01 -1.198461540137e+02 0.0 
0.0 0.0 -4.777936188364e+01 
-3.332538031163e+01 -2.089948436676e+01 0.0 
-2.089948436676e+01 -1.101621161294e+02 0.0 
0.0 0.0 -4.382631377543e+01 
-1.094096322866e+02 1.968247414085e+00 0.0 
1.968247414085e+00 -2.446821681540e+02 0.0 
0.0 0.0 -1.058275401322e+02 
-3.735934128386e+01 2.780499131420e+01 0.0 
2.780499131420e+01 -7.643339778137e+01 0.0 
0.0 0.0 -3.373782171957e+01 
-3.886650973107e+01 2.702770688391e+01 0.0 
2.702770688391e+01 -7.604038962469e+01 0.0 
0.0 0.0 -3.407206980673e+01 
-3.638298818108e+01 2.835232018266e+01 0.0 
2.835232018266e+01 -7.707447119593e+01 0.0 
0.0 0.0 -3.333646360037e+01 
-1.566237321424e+02 1.526554743006e-01 0.0 
1.526554743006e-01 -3.692482356103e+02 0.0 
0.0 0.0 -1.573615903258e+02 
-5.851191679921e+01 5.582175822057e-02 0.0 
5.582175822057e-02 -1.138267402952e+02 0.0 
0.0 0.0 -5.130159712831e+01 
-1.471941661915e+02 3.884999694457e-01 0.0 
3.884999694457e-01 -3.494777137283e+02 0.0 
0.0 0.0 -1.486015639759e+02 
-6.781397689143e+01 2.079023038276e+01 0.0 
2.079023038276e+01 -1.287830898312e+02 0.0 
0.0 0.0 -5.857912001678e+01 
-1.130535395995e+02 2.674336988501e+00 0.0 
2.674336988501e+00 -2.544815778505e+02 0.0 
0.0 0.0 -1.098605352350e+02 
-9.624214825229e+01 1.955999929382e+01 0.0 
1.955999929382e+01 -2.553783246419e+02 0.0 
0.0 0.0 -1.050861418683e+02 
-5.869303114747e+01 2.555663948665e+01 0.0 
2.555663948665e+01 -1.534747613729e+02 0.0 
0.0 0.0 -6.325033775611e+01 
-1.215111572183e+02 6.874265029226e+00 0.0 
6.874265029226e+00 -3.195073911842e+02 0.0 
0.0 0.0 -1.319055645208e+02 
-1.054741667479e+02 1.353298547035e+00 0.0 
1.353298547035e+00 -2.338626220449e+02 0.0 
0.0 0.0 -1.014010366378e+02 
-1.130594547260e+02 1.499331616551e+00 0.0 
1.499331616551e+00 -2.559724999650e+02 0.0 
0.0 0.0 -1.103095864073e+02 
-7.633863572870e+01 2.078963120481e+00 0.0 
2.078963120481e+00 -1.490337010829e+02 0.0 
0.0 0.0 -6.721170104349e+01 
-7.154725482547e+01 1.514181725142e+00 0.0 
1.514181725142e+00 -1.391195634817e+02 0.0 
0.0 0.0 -6.280004549217e+01 
-8.056673642994e+01 2.904645055274e+00 0.0 
2.904645055274e+00 -1.579607441101e+02 0.0 
0.0 0.0 -7.115824416203e+01 
-2.877856134046e+01 1.795405985198e+01 0.0 
1.795405985198e+01 -1.226518934669e+02 0.0 
0.0 0.0 -4.596957305905e+01 
-3.050743504822e+01 2.307887847787e+01 0.0 
2.307887847787e+01 -1.090007059795e+02 0.0 
0.0 0.0 -4.285535353443e+01 
-1.056733158045e+02 3.346832515449e+00 0.0 
3.346832515449e+00 -2.320158189977e+02 0.0 
0.0 0.0 -1.009067404407e+02 
-5.909088598711e+01 -3.441661848997e+00 0.0 
-3.441661848997e+00 -1.432363808890e+02 0.0 
0.0 0.0 -6.029818006282e+01 
-6.329942702945e+01 -2.681477756057e+00 0.0 
-2.681477756057e+00 -1.537650905488e+02 0.0 
0.0 0.0 -6.471935527348e+01 
-4.264208264507e+01 -9.892496026953e+00 0.0 
-9.892496026953e+00 -9.677389742536e+01 0.0 
0.0 0.0 -4.141671541921e+01 
-4.866375371874e+01 -1.032394365691e+01 0.0 
-1.032394365691e+01 -1.179152894098e+02 0.0 
0.0 0.0 -4.957371293857e+01 
-9.139921226329e+01 -3.221971546309e+00 0.0 
-3.221971546309e+00 -2.278558105260e+02 0.0 
0.0 0.0 -9.537650683679e+01 
-8.722828698273e+01 -4.034801595483e+00 0.0 
-4.034801595483e+00 -2.200995016414e+02 0.0 
0.0 0.0 -9.179833658724e+01 
-1.091309379468e+02 1.977788059140e+01 0.0 
1.977788059140e+01 -2.375989649303e+02 0.0 
0.0 0.0 -1.036189708631e+02 
-1.127514795108e+02 1.910964022068e+01 0.0 
1.910964022068e+01 -2.440009152581e+02 0.0 
0.0 0.0 -1.066257184307e+02 
-1.008734261698e+02 2.121418636440e+01 0.0 
2.121418636440e+01 -2.260832237026e+02 0.0 
0.0 0.0 -9.768699496175e+01 
-1.016076760594e+02 4.172655107551e+00 0.0 
4.172655107551e+00 -2.831151679487e+02 0.0 
0.0 0.0 -1.150168532024e+02 
-9.243517155391e+01 2.730362051787e+00 0.0 
2.730362051787e+00 -2.655010739512e+02 0.0 
0.0 0.0 -1.069808736515e+02 
-8.720106190747e+01 3.831810685888e+00 0.0 
3.831810685888e+00 -2.574368901100e+02 0.0 
0.0 0.0 -1.029913856052e+02 
-1.125016616196e+02 5.153041878040e+00 0.0 
5.153041878040e+00 -2.502423727487e+02 0.0 
0.0 0.0 -1.084232103105e+02 
-1.165944974050e+02 4.779870040618e+00 0.0 
4.779870040618e+00 -2.635219128423e+02 0.0 
0.0 0.0 -1.136349230742e+02 
-5.704852482341e+01 -9.834198070687e+00 0.0 
-9.834198070687e+00 -1.748701460029e+02 0.0 
0.0 0.0 -6.917560124790e+01 
-5.226793202019e+01 -9.791066206936e+00 0.0 
-9.791066206936e+00 -1.702541673207e+02 0.0 
0.0 0.0 -6.635662980228e+01 
-5.973494732016e+01 -1.040640864366e+01 0.0 
-1.040640864366e+01 -1.665088469961e+02 0.0 
0.0 0.0 -6.747313829487e+01 
-1.169551426513e+02 7.771119989318e+00 0.0 
7.771119989318e+00 -2.594702055952e+02 0.0 
0.0 0.0 -1.125276044740e+02 
-1.517724478116e+02 6.360523975061e-01 0.0 
6.360523975061e-01 -3.600084679563e+02 0.0 
0.0 0.0 -1.531342747304e+02 
-1.474742230669e+02 8.751878864688e-01 0.0 
8.751878864688e-01 -3.518321824292e+02 0.0 
0.0 0.0 -1.493919216488e+02 
-2.197700083840e+01 -3.306673925227e+00 0.0 
-3.306673925227e+00 -4.847048950986e+01 0.0 
0.0 0.0 -2.073215213857e+01 
-2.896852485431e+01 -5.460076099092e+00 0.0 
-5.460076099092e+00 -6.047140759698e+01 0.0 
0.0 0.0 -2.633644274605e+01 
-3.616396406870e+01 2.931386369344e+01 0.0 
2.931386369344e+01 -8.073159262852e+01 0.0 
0.0 0.0 -3.367861137530e+01 
-3.539774253865e+01 2.996717788017e+01 0.0 
2.996717788017e+01 -8.495142126904e+01 0.0 
0.0 0.0 -3.559947771504e+01 
-1.183838627026e+02 1.142121238562e+01 0.0 
1.142121238562e+01 -2.591412286656e+02 0.0 
0.0 0.0 -1.128575274105e+02 
-1.162936568701e+02 1.192245740885e+01 0.0 
1.192245740885e+01 -2.502017622890e+02 0.0 
0.0 0.0 -1.095486257477e+02 
-1.214949857048e+02 1.103475086424e+01 0.0 
1.103475086424e+01 -2.707791028919e+02 0.0 
0.0 0.0 -1.172822265790e+02 
-4.324155478299e+01 -1.155086101076e+00 0.0 
-1.155086101076e+00 -1.058870925465e+02 0.0 
0.0 0.0 -4.433859419884e+01 
-1.101482659547e+02 2.025512649773e+01 0.0 
2.025512649773e+01 -2.783496651243e+02 0.0 
0.0 0.0 -1.161493793237e+02 
-1.423011589582e+02 9.095975826887e+00 0.0 
9.095975826887e+00 -3.547138056642e+02 0.0 
0.0 0.0 -1.487044893867e+02 
-1.363114751300e+02 9.952362540767e+00 0.0 
9.952362540767e+00 -3.455069009321e+02 0.0 
0.0 0.0 -1.441455128186e+02 
-1.493993757200e+02 8.361297994164e+00 0.0 
8.361297994164e+00 -3.659577580913e+02 0.0 
0.0 0.0 -1.542071401434e+02 
-1.244500458192e+02 1.983420821702e+01 0.0 
1.983420821702e+01 -3.108587186144e+02 0.0 
0.0 0.0 -1.301926293301e+02 
-1.340104052558e+02 2.038324212394e+01 0.0 
2.038324212394e+01 -3.288536798013e+02 0.0 
0.0 0.0 -1.384592255171e+02 
-1.331548463110e+02 2.177813092388e+01 0.0 
2.177813092388e+01 -3.207230271563e+02 0.0 
0.0 0.0 -1.357633620402e+02 
-3.939656572321e+01 1.056486226000e+00 0.0 
1.056486226000e+00 -1.217045561792e+02 0.0 
0.0 0.0 -5.016759618049e+01 
-1.105053110574e+02 1.050017417687e+00 0.0 
1.050017417687e+00 -2.488435073259e+02 0.0 
0.0 0.0 -1.074046455150e+02 
-7.107380994888e+01 1.028997599164e+00 0.0 
1.028997599164e+00 -1.403674813183e+02 0.0 
0.0 0.0 -6.303238738015e+01 
-4.973039399943e+01 -7.041456933485e+00 0.0 
-7.041456933485e+00 -1.169484341187e+02 0.0 
0.0 0.0 -5.144594696933e+01 
-6.702420578851e+01 6.492079709678e-01 0.0 
6.492079709678e-01 -1.314176349818e+02 0.0 
0.0 0.0 -5.913255223108e+01 
-7.133889605312e+01 7.492032871785e-01 0.0 
7.492032871785e-01 -1.427600432130e+02 0.0 
0.0 0.0 -6.382968177982e+01 
-6.243290196745e+01 3.743742841387e-01 0.0 
3.743742841387e-01 -1.213009035175e+02 0.0 
0.0 0.0 -5.472014164549e+01 
-3.445699318251e+01 -1.005297775909e+00 0.0 
-1.005297775909e+00 -8.622237076405e+01 0.0 
0.0 0.0 -3.580380918397e+01 
-7.105117809584e+01 1.924588885891e+00 0.0 
1.924588885891e+00 -1.349696066425e+02 0.0 
0.0 0.0 -6.140623542151e+01 
-7.698391411908e+01 2.960550362201e+00 0.0 
2.960550362201e+00 -1.474263523052e+02 0.0 
0.0 0.0 -6.692307992728e+01 
-1.807454596790e+01 -2.943311900103e+00 0.0 
-2.943311900103e+00 -3.690615764544e+01 0.0 
0.0 0.0 -1.613021684500e+01 
-1.195152576713e+02 7.221760559324e+00 0.0 
7.221760559324e+00 -2.696285935713e+02 0.0 
0.0 0.0 -1.163431553728e+02 
-1.538340102475e+01 -1.823268042699e+00 0.0 
-1.823268042699e+00 -3.772567002492e+01 0.0 
0.0 0.0 -1.553272131490e+01 
-1.828547178308e+01 -1.932625682871e+00 0.0 
-1.932625682871e+00 -4.559652120226e+01 0.0 
0.0 0.0 -1.876459789560e+01 
-1.486002240585e+02 3.890718367171e+00 0.0 
3.890718367171e+00 -3.609393754429e+02 0.0 
0.0 0.0 -1.524618798504e+02 
-1.435091950111e+02 2.826739669303e+00 0.0 
2.826739669303e+00 -3.502348766603e+02 0.0 
0.0 0.0 -1.477232215014e+02 
-1.531626079244e+02 3.450238146753e+00 0.0 
3.450238146753e+00 -3.682450998528e+02 0.0 
0.0 0.0 -1.560223123332e+02 
-1.480160236126e+02 2.463581757977e+00 0.0 
2.463581757977e+00 -3.574088291585e+02 0.0 
0.0 0.0 -1.512274558313e+02 
-1.386959021801e+02 1.882551855081e+00 0.0 
1.882551855081e+00 -3.392943470825e+02 0.0 
0.0 0.0 -1.429970747788e+02 
-1.435922965458e+02 1.697095280593e+00 0.0 
1.697095280593e+00 -3.474156866100e+02 0.0 
0.0 0.0 -1.469023949467e+02 
-6.683524214999e+01 9.682364270129e-01 0.0 
9.682364270129e-01 -1.292448089773e+02 0.0 
0.0 0.0 -5.842401533819e+01 
-1.542147177046e+02 2.251120656476e+00 0.0 
2.251120656476e+00 -3.681986231967e+02 0.0 
0.0 0.0 -1.563240022704e+02 
-1.485054930701e+02 1.511517648773e+00 0.0 
1.511517648773e+00 -3.558003020050e+02 0.0 
0.0 0.0 -1.508917385225e+02 
-1.588024957735e+02 1.865346600373e+00 0.0 
1.865346600373e+00 -3.766958828653e+02 0.0 
0.0 0.0 -1.602495135916e+02 
-5.536051008446e+01 1.103781695533e+01 0.0 
1.103781695533e+01 -8.476042753287e+01 0.0 
0.0 0.0 -4.163628128520e+01 
-4.367843220094e+01 2.732788441446e+01 0.0 
2.732788441446e+01 -9.628292303634e+01 0.0 
0.0 0.0 -4.158840657118e+01 
-4.115378407756e+01 2.589428177576e+01 0.0 
2.589428177576e+01 -7.639493492812e+01 0.0 
0.0 0.0 -3.486461570170e+01 
-3.617445378668e+01 2.456411875320e+01 0.0 
2.456411875320e+01 -5.408891146904e+01 0.0 
0.0 0.0 -2.667900957672e+01 
-1.315594909038e+02 2.200037387865e+01 0.0 
2.200037387865e+01 -3.002195847009e+02 0.0 
0.0 0.0 -1.291337226814e+02 
-1.264601089544e+02 2.051933605334e+01 0.0 
2.051933605334e+01 -2.834882568059e+02 0.0 
0.0 0.0 -1.225845097281e+02 
-1.335930100393e+02 -1.055130671044e-02 0.0 
-1.055130671044e-02 -3.195731558296e+02 0.0 
0.0 0.0 -1.355498497607e+02 
-1.247276147219e+02 -2.394512378985e-01 0.0 
-2.394512378985e-01 -2.998366327484e+02 0.0 
0.0 0.0 -1.269692742411e+02 
-6.671886677797e+01 3.875976472252e-01 0.0 
3.875976472252e-01 -1.324996176522e+02 0.0 
0.0 0.0 -5.936554532905e+01 
-6.602882023934e+01 3.143404379325e-01 0.0 
3.143404379325e-01 -1.314427671403e+02 0.0 
0.0 0.0 -5.884147621389e+01 
-7.341725611339e+01 4.148183543668e-01 0.0 
4.148183543668e-01 -1.493412118792e+02 0.0 
0.0 0.0 -6.642754039778e+01 
-7.220374887781e+01 3.972782850860e-01 0.0 
3.972782850860e-01 -1.469082003346e+02 0.0 
0.0 0.0 -6.533358476371e+01 
-7.947749816095e+01 5.014278080612e-01 0.0 
5.014278080612e-01 -1.649499984447e+02 0.0 
0.0 0.0 -7.292824898169e+01 
-7.830754747770e+01 4.476528045826e-01 0.0 
4.476528045826e-01 -1.621971507415e+02 0.0 
0.0 0.0 -7.175140946575e+01 
-8.562408617553e+01 7.816715667621e-01 0.0 
7.816715667621e-01 -1.806431538776e+02 0.0 
0.0 0.0 -7.948017201594e+01 
-1.371483862187e+02 2.284162114479e+01 0.0 
2.284162114479e+01 -3.258786113952e+02 0.0 
0.0 0.0 -1.385080992842e+02 
-3.570894573910e+01 2.715023195041e+01 0.0 
2.715023195041e+01 -5.660996375818e+01 0.0 
0.0 0.0 -2.696098320270e+01 
-6.256121730844e+01 8.329525697080e+00 0.0 
8.329525697080e+00 -1.019280845262e+02 0.0 
0.0 0.0 -4.894679055039e+01 
-1.403684113981e+02 1.741240345012e+01 0.0 
1.741240345012e+01 -3.472832549704e+02 0.0 
0.0 0.0 -1.458954999105e+02 
-1.343617221462e+02 1.553005764942e+01 0.0 
1.553005764942e+01 -3.391876711727e+02 0.0 
0.0 0.0 -1.416648179957e+02 
-5.623888247943e+01 1.725782075638e+01 0.0 
1.725782075638e+01 -9.090624897953e+01 0.0 
0.0 0.0 -4.374353943769e+01 
-4.788276405436e+01 1.544793130318e+01 0.0 
1.544793130318e+01 -6.897261240008e+01 0.0 
0.0 0.0 -3.465661293633e+01 
-1.500001741622e+02 5.823031593644e+00 0.0 
5.823031593644e+00 -3.655940335217e+02 0.0 
0.0 0.0 -1.542782623052e+02 
-4.913469262293e+01 2.447591744815e+01 0.0 
2.447591744815e+01 -1.497567443437e+02 0.0 
0.0 0.0 -5.926743108998e+01 
-1.235308157766e+02 8.633574958058e+00 0.0 
8.633574958058e+00 -2.822735060524e+02 0.0 
0.0 0.0 -1.213412965487e+02 
-5.648173574538e+01 2.458522634291e+01 0.0 
2.458522634291e+01 -8.679912333826e+01 0.0 
0.0 0.0 -4.378424158452e+01 
-4.013935517779e+01 2.367096006397e+01 0.0 
2.367096006397e+01 -1.025378997314e+02 0.0 
0.0 0.0 -4.417913696715e+01 
-5.370392375463e+01 2.528133666734e+01 0.0 
2.528133666734e+01 -1.511746032120e+02 0.0 
0.0 0.0 -6.106355809000e+01 
-6.436495631710e+01 1.813128915742e+01 0.0 
1.813128915742e+01 -1.129004642879e+02 0.0 
0.0 0.0 -5.277962618151e+01 
-4.719096673982e+01 2.629370444994e+01 0.0 
2.629370444994e+01 -9.736585713380e+01 0.0 
0.0 0.0 -4.296704716209e+01 
-4.465937755759e+01 2.479663325234e+01 0.0 
2.479663325234e+01 -7.901391332102e+01 0.0 
0.0 0.0 -3.670198726358e+01 
-1.112691377278e+02 5.555248682539e+00 0.0 
5.555248682539e+00 -3.011396357476e+02 0.0 
0.0 0.0 -1.233226320426e+02 
-2.784430333868e+01 -6.118983571587e+00 0.0 
-6.118983571587e+00 -5.325522178637e+01 0.0 
0.0 0.0 -2.361128072688e+01 
-3.633874999576e+01 2.883227286429e+01 0.0 
2.883227286429e+01 -7.856464481219e+01 0.0 
0.0 0.0 -3.313672164669e+01 
-8.681989958826e+01 8.945281021708e-01 0.0 
8.945281021708e-01 -1.829344799997e+02 0.0 
0.0 0.0 -8.052631387639e+01 
-3.745913804223e+01 2.899096501266e+01 0.0 
2.899096501266e+01 -5.926006691043e+01 0.0 
0.0 0.0 -2.713861832879e+01 
-1.295238368534e+02 -7.181747231285e-02 0.0 
-7.181747231285e-02 -3.100140455256e+02 0.0 
0.0 0.0 -1.314613647137e+02 
-5.131247082835e+01 2.185654921831e+01 0.0 
2.185654921831e+01 -1.657272118157e+02 0.0 
0.0 0.0 -6.471190479322e+01 
-7.078949990582e+01 2.260425952482e+01 0.0 
2.260425952482e+01 -1.451943677312e+02 0.0 
0.0 0.0 -6.439516029111e+01 
-3.632206631930e+01 2.810528500648e+01 0.0 
2.810528500648e+01 -9.703306283929e+01 0.0 
0.0 0.0 -3.942413876526e+01 
-4.595981136578e+01 2.735505940491e+01 0.0 
2.735505940491e+01 -1.155820550326e+02 0.0 
0.0 0.0 -4.806255991952e+01 
-8.698934862806e+01 1.245083634874e+01 0.0 
1.245083634874e+01 -1.635563604238e+02 0.0 
0.0 0.0 -7.476371271555e+01 
-7.792236649770e+01 8.164351161604e+00 0.0 
8.164351161604e+00 -1.401398314360e+02 0.0 
0.0 0.0 -6.501865938012e+01 
-7.456079332619e+01 8.891197843236e+00 0.0 
8.891197843236e+00 -1.311903781992e+02 0.0 
0.0 0.0 -6.132535145761e+01 
-5.379919369517e+01 1.870643973488e+01 0.0 
1.870643973488e+01 -1.801239504103e+02 0.0 
0.0 0.0 -6.977694323165e+01 
-4.820506631132e+01 2.254784842054e+01 0.0 
2.254784842054e+01 -8.106315196778e+01 0.0 
0.0 0.0 -3.838046548373e+01 
-4.002047525840e+01 2.086435545741e+01 0.0 
2.086435545741e+01 -5.660823651856e+01 0.0 
0.0 0.0 -2.858861353309e+01 
-8.365674902512e+01 1.731019752961e+01 0.0 
1.731019752961e+01 -1.618130791920e+02 0.0 
0.0 0.0 -7.324094846513e+01 
-1.097760191221e+02 1.064622592951e+01 0.0 
1.064622592951e+01 -2.295521596962e+02 0.0 
0.0 0.0 -1.013984536455e+02 
-1.136168282902e+02 1.227058557776e+01 0.0 
1.227058557776e+01 -2.406266409766e+02 0.0 
0.0 0.0 -1.058730407801e+02 
-1.197065680734e+02 1.350627408622e+01 0.0 
1.350627408622e+01 -2.606597046867e+02 0.0 
0.0 0.0 -1.137098818280e+02 
-1.174527555946e+02 1.395591953128e+01 0.0 
1.395591953128e+01 -2.520820275539e+02 0.0 
0.0 0.0 -1.104604349446e+02 
-1.110368031095e+02 1.274053420744e+01 0.0 
1.274053420744e+01 -2.315472737823e+02 0.0 
0.0 0.0 -1.023752230675e+02 
-1.149360538688e+02 1.447586376457e+01 0.0 
1.447586376457e+01 -2.432519868991e+02 0.0 
0.0 0.0 -1.070564122304e+02 
-1.210076840643e+02 1.557302481157e+01 0.0 
1.557302481157e+01 -2.637124423927e+02 0.0 
0.0 0.0 -1.150160379371e+02 
-1.189898002663e+02 1.616793641114e+01 0.0 
1.616793641114e+01 -2.559958518755e+02 0.0 
0.0 0.0 -1.120956956425e+02 
-1.260177548690e+02 1.762473050911e+01 0.0 
1.762473050911e+01 -2.799303331449e+02 0.0 
0.0 0.0 -1.213844264042e+02 
-1.225908129198e+02 1.789627076675e+01 0.0 
1.789627076675e+01 -2.684287115422e+02 0.0 
0.0 0.0 -1.169058573386e+02 
-1.158389418204e+02 1.663130182951e+01 0.0 
1.663130182951e+01 -2.470448803122e+02 0.0 
0.0 0.0 -1.084651466398e+02 
-1.192772680425e+02 1.813332216013e+01 0.0 
1.813332216013e+01 -2.592530463106e+02 0.0 
0.0 0.0 -1.131590943059e+02 
-1.256503488933e+02 1.932921802921e+01 0.0 
1.932921802921e+01 -2.790775903602e+02 0.0 
0.0 0.0 -1.210183817761e+02 
-1.125866582976e+02 1.718383982158e+01 0.0 
1.718383982158e+01 -2.384668719470e+02 0.0 
0.0 0.0 -1.049160590734e+02 
-1.456136590601e+02 1.915958133075e+01 0.0 
1.915958133075e+01 -3.535769423702e+02 0.0 
0.0 0.0 -1.493571804291e+02 
-6.085781825729e+01 2.416934522203e+01 0.0 
2.416934522203e+01 -1.695816864662e+02 0.0 
0.0 0.0 -6.873185141703e+01 
-3.186431828385e+01 1.273221363238e+01 0.0 
1.273221363238e+01 -1.183788632079e+02 0.0 
0.0 0.0 -4.700664742096e+01 
-3.612974016943e+01 3.120804888202e+01 0.0 
3.120804888202e+01 -9.087746469378e+01 0.0 
0.0 0.0 -3.885822053665e+01 
-7.532031708352e+01 2.078511380073e+01 0.0 
2.078511380073e+01 -1.499402532088e+02 0.0 
0.0 0.0 -6.717817108770e+01 
-1.308083418699e+02 1.818430844210e+01 0.0 
1.818430844210e+01 -2.987176741755e+02 0.0 
0.0 0.0 -1.284578048136e+02 
-1.284949052148e+02 1.514218080811e+01 0.0 
1.514218080811e+01 -2.929445921654e+02 0.0 
0.0 0.0 -1.260318492141e+02 
-4.090895674755e+01 2.089517759941e+01 0.0 
2.089517759941e+01 -1.484648737566e+02 0.0 
0.0 0.0 -5.641214915123e+01 
-1.389981570405e+02 2.371587132782e+01 0.0 
2.371587132782e+01 -3.221609197462e+02 0.0 
0.0 0.0 -1.379477230360e+02 
-7.921040646028e+01 1.127158387252e+01 0.0 
1.127158387252e+01 -1.428978260249e+02 0.0 
0.0 0.0 -6.623246974555e+01 
-3.030147582357e+01 1.525771416701e+01 0.0 
1.525771416701e+01 -1.343341758604e+02 0.0 
0.0 0.0 -4.942341319554e+01 
-1.425845853604e+02 2.445742604935e+01 0.0 
2.445742604935e+01 -3.335832611492e+02 0.0 
0.0 0.0 -1.424503539529e+02 
-1.070498054542e+02 1.102878904929e+01 0.0 
1.102878904929e+01 -2.200742443765e+02 0.0 
0.0 0.0 -9.773721494922e+01 
-1.041218365552e+02 1.148640179220e+01 0.0 
1.148640179220e+01 -2.106197394203e+02 0.0 
0.0 0.0 -9.402247279265e+01 
-9.996935897594e+01 9.759489234042e+00 0.0 
9.759489234042e+00 -1.993815837477e+02 0.0 
0.0 0.0 -8.940528281710e+01 
-1.268912608018e+02 1.260672143837e+01 0.0 
1.260672143837e+01 -2.898275772572e+02 0.0 
0.0 0.0 -1.246156514177e+02 
-8.512235506597e+01 3.910667593366e+00 0.0 
3.910667593366e+00 -1.677552922717e+02 0.0 
0.0 0.0 -7.546329420129e+01 
-1.496793002047e+02 2.253026518485e+01 0.0 
2.253026518485e+01 -3.558801817883e+02 0.0 
0.0 0.0 -1.512678445979e+02 
-9.059156334905e+01 1.487462321959e+01 0.0 
1.487462321959e+01 -2.588588701652e+02 0.0 
0.0 0.0 -1.044351300543e+02 
-8.638264484509e+01 1.678775288803e+01 0.0 
1.678775288803e+01 -2.465713529598e+02 0.0 
0.0 0.0 -9.948619934147e+01 
-7.763983075980e+01 1.701549618411e+01 0.0 
1.701549618411e+01 -2.294659154367e+02 0.0 
0.0 0.0 -9.173172385895e+01 
-1.120747694484e+02 1.496499302977e+01 0.0 
1.496499302977e+01 -2.344480829445e+02 0.0 
0.0 0.0 -1.035568557179e+02 
-1.548991399724e+02 1.657880074957e+01 0.0 
1.657880074957e+01 -3.721602309120e+02 0.0 
0.0 0.0 -1.577178112653e+02 
-1.458767256379e+02 1.473312456010e+01 0.0 
1.473312456010e+01 -3.593209998849e+02 0.0 
0.0 0.0 -1.511593176568e+02 
-1.470454223012e+02 1.320932844247e+01 0.0 
1.320932844247e+01 -3.618997729440e+02 0.0 
0.0 0.0 -1.522835585736e+02 
-1.363191522847e+02 1.293434963016e+01 0.0 
1.293434963016e+01 -3.447838416270e+02 0.0 
0.0 0.0 -1.439308981735e+02 
-1.573676527453e+02 1.317005226688e+01 0.0 
1.317005226688e+01 -3.778407210132e+02 0.0 
0.0 0.0 -1.601625121275e+02 
-1.343623964868e+02 2.091199042557e+01 0.0 
2.091199042557e+01 -3.084283122682e+02 0.0 
0.0 0.0 -1.324372126265e+02 
-1.360069989972e+02 2.209518430366e+01 0.0 
2.209518430366e+01 -3.134117100455e+02 0.0 
0.0 0.0 -1.344256127128e+02 
-4.673335751311e+01 -1.247721208323e+01 0.0 
-1.247721208323e+01 -1.531235774173e+02 0.0 
0.0 0.0 -5.955708047911e+01 
-4.732213128471e+01 -8.972681180005e+00 0.0 
-8.972681180005e+00 -1.661168729912e+02 0.0 
0.0 0.0 -6.363170128278e+01 
-5.350848032673e+01 -6.455459588232e+00 0.0 
-6.455459588232e+00 -1.821277669323e+02 0.0 
0.0 0.0 -7.029087417770e+01 
-4.848820312978e+01 -4.669040568850e+00 0.0 
-4.669040568850e+00 -1.770903573609e+02 0.0 
0.0 0.0 -6.727356814721e+01 
-4.228271055152e+01 -7.046589047860e+00 0.0 
-7.046589047860e+00 -1.621495820307e+02 0.0 
0.0 0.0 -6.092968777468e+01 
-4.359745074687e+01 -1.787008383480e+00 0.0 
-1.787008383480e+00 -1.716316608663e+02 0.0 
0.0 0.0 -6.416873348394e+01 
-5.036148346240e+01 -8.546741388684e-02 0.0 
-8.546741388684e-02 -1.860427137123e+02 0.0 
0.0 0.0 -7.052125915242e+01 
-3.912534254639e+01 2.349280700264e+00 0.0 
2.349280700264e+00 -1.652512644638e+02 0.0 
0.0 0.0 -6.091298210304e+01 
-1.198661688261e+02 1.976981594496e+01 0.0 
1.976981594496e+01 -2.641756317183e+02 0.0 
0.0 0.0 -1.148125401633e+02 
-1.595300852194e+02 9.890981337841e+00 0.0 
9.890981337841e+00 -3.818870257942e+02 0.0 
0.0 0.0 -1.620251333041e+02 
-9.979009546737e+01 -2.265243695461e-01 0.0 
-2.265243695461e-01 -2.712939114493e+02 0.0 
0.0 0.0 -1.109252020750e+02 
-9.440160254143e+01 -2.771719391631e-02 0.0 
-2.771719391631e-02 -2.635622762471e+02 0.0 
0.0 0.0 -1.069891636366e+02 
-8.592795749754e+01 -1.748687784718e+00 0.0 
-1.748687784718e+00 -2.455747908275e+02 0.0 
0.0 0.0 -9.905082449751e+01 
-7.943424796938e+01 -4.862222237813e+00 0.0 
-4.862222237813e+00 -2.001617042696e+02 0.0 
0.0 0.0 -8.347878567169e+01 
-8.303447634072e+01 -4.914505210256e+00 0.0 
-4.914505210256e+00 -2.124827317951e+02 0.0 
0.0 0.0 -8.825516244074e+01 
-9.087301301901e+01 -3.867983036911e+00 0.0 
-3.867983036911e+00 -2.321953877532e+02 0.0 
0.0 0.0 -9.652052023165e+01 
-7.558655113102e+01 -4.540848579928e+00 0.0 
-4.540848579928e+00 -1.878429823681e+02 0.0 
0.0 0.0 -7.862886004973e+01 
-1.026697063360e+02 2.157264344995e+01 0.0 
2.157264344995e+01 -2.504131260174e+02 0.0 
0.0 0.0 -1.055248497060e+02 
-1.601880543368e+02 8.490738591367e+00 0.0 
8.490738591367e+00 -3.828173918239e+02 0.0 
0.0 0.0 -1.625016338482e+02 
-9.106481047315e+01 6.469882210395e+00 0.0 
6.469882210395e+00 -2.659223891321e+02 0.0 
0.0 0.0 -1.066961598816e+02 
-7.879559180128e+01 -5.859438145085e+00 0.0 
-5.859438145085e+00 -2.050377768285e+02 0.0 
0.0 0.0 -8.475001058893e+01 
-6.471435009889e+01 2.121581027796e+00 0.0 
2.121581027796e+00 -1.165476172685e+02 0.0 
0.0 0.0 -5.397859021023e+01 
-7.306618888651e+01 3.408813129398e+00 0.0 
3.408813129398e+00 -1.344997660393e+02 0.0 
0.0 0.0 -6.186978647774e+01 
-7.454457736751e+01 4.451508635386e+00 0.0 
4.451508635386e+00 -1.357307177234e+02 0.0 
0.0 0.0 -6.268258852726e+01 
-8.206719827093e+01 5.217476233064e+00 0.0 
5.217476233064e+00 -1.545120357689e+02 0.0 
0.0 0.0 -7.057377021195e+01 
-7.276181276806e+01 2.955269444092e+00 0.0 
2.955269444092e+00 -1.355893151551e+02 0.0 
0.0 0.0 -6.210533837695e+01 
-9.550309185603e+01 -2.476988129242e+00 0.0 
-2.476988129242e+00 -2.357874473572e+02 0.0 
0.0 0.0 -9.898716176398e+01 
-9.955131302044e+01 -1.818317272490e+00 0.0 
-1.818317272490e+00 -2.438517059210e+02 0.0 
0.0 0.0 -1.026209056824e+02 
-9.535967125678e+01 -1.654499890879e+00 0.0 
-1.654499890879e+00 -2.324441834515e+02 0.0 
0.0 0.0 -9.794115641248e+01 
-1.035703026561e+02 -1.242689697779e+00 0.0 
-1.242689697779e+00 -2.520193823069e+02 0.0 
0.0 0.0 -1.062769054889e+02 
-9.909309352236e+01 -1.017913776544e+00 0.0 
-1.017913776544e+00 -2.403275751448e+02 0.0 
0.0 0.0 -1.014262006001e+02 
-9.155096721843e+01 -1.296615780542e+00 0.0 
-1.296615780542e+00 -2.220920339638e+02 0.0 
0.0 0.0 -9.369290035466e+01 
-1.074202187530e+02 -7.219386837441e-01 0.0 
-7.219386837441e-01 -2.599146430149e+02 0.0 
0.0 0.0 -1.098004585304e+02 
-1.021969252550e+02 -6.158456484647e-01 0.0 
-6.158456484647e-01 -2.470755300112e+02 0.0 
0.0 0.0 -1.043817365799e+02 
-6.284786145231e+01 1.242962343912e+00 0.0 
1.242962343912e+00 -1.154920856001e+02 0.0 
0.0 0.0 -5.310198411574e+01 
-4.248262446225e+01 -2.147066813526e+01 0.0 
-2.147066813526e+01 -4.792909408733e+01 0.0 
0.0 0.0 -2.747223349268e+01 
-3.969924578829e+01 -2.342357864455e+01 0.0 
-2.342357864455e+01 -5.725571210184e+01 0.0 
0.0 0.0 -2.877273003243e+01 
-3.368272141778e+01 -1.524644488773e+01 0.0 
-1.524644488773e+01 -4.287593298510e+01 0.0 
0.0 0.0 -2.197656341232e+01 
-3.973320354726e+01 -2.165060991196e+01 0.0 
-2.165060991196e+01 -7.026650746503e+01 0.0 
0.0 0.0 -3.186947076780e+01 
-3.797375858811e+01 -2.471016178972e+01 0.0 
-2.471016178972e+01 -8.787149198856e+01 0.0 
0.0 0.0 -3.750037998459e+01 
-3.961465499546e+01 -2.147528291828e+01 0.0 
-2.147528291828e+01 -9.829424415022e+01 0.0 
0.0 0.0 -4.028863258777e+01 
-3.560552813862e+01 -2.152164590775e+01 0.0 
-2.152164590775e+01 -1.093860083264e+02 0.0 
0.0 0.0 -4.330185842223e+01 
-4.075979756990e+01 -2.673429730522e+01 0.0 
-2.673429730522e+01 -8.429512053564e+01 0.0 
0.0 0.0 -3.809986086413e+01 
-1.992846870193e+01 -5.602181572565e+00 0.0 
-5.602181572565e+00 -1.964889337397e+01 0.0 
0.0 0.0 -1.157673351935e+01 
-2.746017505022e+01 -9.444319431878e+00 0.0 
-9.444319431878e+00 -3.778690010831e+01 0.0 
0.0 0.0 -1.852921069825e+01 
-1.394498866663e+01 -2.929494981829e+00 0.0 
-2.929494981829e+00 -1.769133234716e+01 0.0 
0.0 0.0 -8.973714744502e+00 
-2.221349191218e+01 -5.790434755180e+00 0.0 
-5.790434755180e+00 -3.499733894687e+01 0.0 
0.0 0.0 -1.646575242581e+01 
-3.404061990562e+01 -1.114659639905e+01 0.0 
-1.114659639905e+01 -5.821053437087e+01 0.0 
0.0 0.0 -2.603647957871e+01 
-3.730138847323e+01 -7.378509135190e+00 0.0 
-7.378509135190e+00 -8.209862315147e+01 0.0 
0.0 0.0 -3.540607244555e+01 
-1.614452383278e+02 8.137748755095e-01 0.0 
8.137748755095e-01 -3.804478263604e+02 0.0 
0.0 0.0 -1.621679194064e+02 
-7.894315804891e+01 -6.377138348682e-01 0.0 
-6.377138348682e-01 -1.908519386555e+02 0.0 
0.0 0.0 -8.053852901133e+01 
-7.484030511413e+01 -1.344474885432e+00 0.0 
-1.344474885432e+00 -1.812396433828e+02 0.0 
0.0 0.0 -7.642398454907e+01 
-6.698265188468e+01 -1.376287305837e+00 0.0 
-1.376287305837e+00 -1.616933903266e+02 0.0 
0.0 0.0 -6.820281266337e+01 
-7.119191942111e+01 -1.981700229233e+00 0.0 
-1.981700229233e+00 -1.725500726046e+02 0.0 
0.0 0.0 -7.272259760772e+01 
-8.204786172292e+01 -1.231547971371e+00 0.0 
-1.231547971371e+00 -1.989778119708e+02 0.0 
0.0 0.0 -8.390770210811e+01 
-6.250575326033e+01 -7.007971716927e-01 0.0 
-7.007971716927e-01 -1.508206383041e+02 0.0 
0.0 0.0 -6.359791746933e+01 
-5.952235524765e+01 -1.366698567118e+00 0.0 
-1.366698567118e+00 -1.437073855245e+02 0.0 
0.0 0.0 -6.056892223164e+01 
-3.166724182918e+00 -1.836000065794e-01 0.0 
-1.836000065794e-01 -1.717512333260e+01 0.0 
0.0 0.0 -5.341647544294e+00 
-9.448260996933e+00 -2.813538790104e-01 0.0 
-2.813538790104e-01 -3.376170959902e+01 0.0 
0.0 0.0 -1.248066732366e+01 
-8.702287409256e+00 -2.012774247875e-01 0.0 
-2.012774247875e-01 -3.211397178058e+01 0.0 
0.0 0.0 -1.166898568159e+01 
-1.731961997918e+01 -4.706359470314e-01 0.0 
-4.706359470314e-01 -5.057804511042e+01 0.0 
0.0 0.0 -1.996929952688e+01 
-1.759054055948e+01 -6.729557791691e-01 0.0 
-6.729557791691e-01 -5.025323066778e+01 0.0 
0.0 0.0 -1.995313136818e+01 
-9.964674779498e+00 -5.107170156235e-01 0.0 
-5.107170156235e-01 -3.408090763401e+01 0.0 
0.0 0.0 -1.275829073472e+01 
-1.036299506892e+01 -7.034485374406e-01 0.0 
-7.034485374406e-01 -3.408388245134e+01 0.0 
0.0 0.0 -1.291145120573e+01 
-3.773353925809e+00 -3.541432183205e-01 0.0 
-3.541432183205e-01 -1.702825742726e+01 0.0 
0.0 0.0 -5.562642471738e+00 
-1.084269253650e+01 -8.149611493037e-01 0.0 
-8.149611493037e-01 -3.391352332888e+01 0.0 
0.0 0.0 -1.308610615929e+01 
-1.902934696938e+01 -1.377463062176e+00 0.0 
-1.377463062176e+00 -5.110257345366e+01 0.0 
0.0 0.0 -2.063957612691e+01 
-4.060567556259e+00 -3.893864018439e-01 0.0 
-3.893864018439e-01 -1.645281712004e+01 0.0 
0.0 0.0 -5.566903260983e+00 
-9.535599872212e+01 4.803013218957e-01 0.0 
4.803013218957e-01 -2.069374227147e+02 0.0 
0.0 0.0 -9.028802643104e+01 
-9.931902551484e+01 8.924099060913e-01 0.0 
8.924099060913e-01 -2.177985554754e+02 0.0 
0.0 0.0 -9.473527429708e+01 
-1.606181082378e+02 5.880844847608e+00 0.0 
5.880844847608e+00 -3.829872234761e+02 0.0 
0.0 0.0 -1.626815995142e+02 
-6.227878554337e+01 8.411466506261e-01 0.0 
8.411466506261e-01 -1.172166006189e+02 0.0 
0.0 0.0 -5.344861584867e+01 
-8.465721466069e+00 -1.157988362594e+00 0.0 
-1.157988362594e+00 -1.745550290963e+01 0.0 
0.0 0.0 -7.626475482292e+00 
-1.206514067649e+02 3.064856981768e+00 0.0 
3.064856981768e+00 -2.778211681075e+02 0.0 
0.0 0.0 -1.191417724617e+02 
-1.227471469984e+02 5.679590065452e+00 0.0 
5.679590065452e+00 -2.822738204608e+02 0.0 
0.0 0.0 -1.211062902378e+02 
-1.224969988903e+02 4.733918641508e+00 0.0 
4.733918641508e+00 -2.821437184476e+02 0.0 
0.0 0.0 -1.209922152014e+02 
-1.475734331798e+02 8.432080584987e-02 0.0 
8.432080584987e-02 -3.497537154967e+02 0.0 
0.0 0.0 -1.487981446029e+02 
-1.520478168831e+02 2.873843035991e-01 0.0 
2.873843035991e-01 -3.595391737616e+02 0.0 
0.0 0.0 -1.530760971934e+02 
-1.204407465683e+02 1.695842149794e+00 0.0 
1.695842149794e+00 -2.780356051269e+02 0.0 
0.0 0.0 -1.191429055086e+02 
-5.378553353486e+01 -7.494483225042e+00 0.0 
-7.494483225042e+00 -1.312307184683e+02 0.0 
0.0 0.0 -5.510487560095e+01 
-1.236458969537e+02 1.517099026195e+01 0.0 
1.517099026195e+01 -2.721322646357e+02 0.0 
0.0 0.0 -1.183334484768e+02 
-1.091031503470e+02 3.028992539908e+00 0.0 
3.028992539908e+00 -2.429073728453e+02 0.0 
0.0 0.0 -1.052031569577e+02 
-3.130759384326e+01 2.208052523393e+01 0.0 
2.208052523393e+01 -1.200943705013e+02 0.0 
0.0 0.0 -4.529120445076e+01 
-5.179479928090e+01 -1.159448635311e+01 0.0 
-1.159448635311e+01 -1.326992368395e+02 0.0 
0.0 0.0 -5.494821083613e+01 
-1.204901670837e+02 -4.826852720454e-01 0.0 
-4.826852720454e-01 -2.910569726335e+02 0.0 
0.0 0.0 -1.230641419152e+02 
-1.073214406834e+02 -1.731461534371e+00 0.0 
-1.731461534371e+00 -2.709504346015e+02 0.0 
0.0 0.0 -1.130815625855e+02 
-1.384834991161e+02 4.577750289616e-01 0.0 
4.577750289616e-01 -3.328855940203e+02 0.0 
0.0 0.0 -1.410107279409e+02 
-1.120565339099e+02 -1.208398739235e+00 0.0 
-1.208398739235e+00 -2.747852691026e+02 0.0 
0.0 0.0 -1.156525409038e+02 
-1.296296080700e+02 3.468940507882e-01 0.0 
3.468940507882e-01 -3.171522443372e+02 0.0 
0.0 0.0 -1.336345557222e+02 
-1.473931072669e+02 1.119267978856e+01 0.0 
1.119267978856e+01 -3.631223152974e+02 0.0 
0.0 0.0 -1.527546267693e+02 
-3.181139047894e+01 -1.358701230674e+00 0.0 
-1.358701230674e+00 -7.964600737589e+01 0.0 
0.0 0.0 -3.303721935645e+01 
-8.369325253292e+01 2.233714469626e+00 0.0 
2.233714469626e+00 -1.702513734545e+02 0.0 
0.0 0.0 -7.578338779622e+01 
-7.943700962125e+01 1.151811514250e+00 0.0 
1.151811514250e+00 -1.627756158204e+02 0.0 
0.0 0.0 -7.226378763250e+01 
-9.856013871966e+01 2.802868806290e+00 0.0 
2.802868806290e+00 -2.119630476998e+02 0.0 
0.0 0.0 -9.275695592584e+01 
-5.562334774315e+01 -4.279614551974e+00 0.0 
-4.279614551974e+00 -1.347170240951e+02 0.0 
0.0 0.0 -5.670211155147e+01 
-8.748718578385e+01 -1.969195060600e+00 0.0 
-1.969195060600e+00 -2.132491629149e+02 0.0 
0.0 0.0 -8.982090460963e+01 
-3.613672980674e+01 -4.065067696679e+00 0.0 
-4.065067696679e+00 -8.536536435946e+01 0.0 
0.0 0.0 -3.605062824986e+01 
-1.354255075269e+02 2.318133128920e+01 0.0 
2.318133128920e+01 -3.152043621355e+02 0.0 
0.0 0.0 -1.347889608987e+02 
-7.608346455073e+01 1.673347331186e+01 0.0 
1.673347331186e+01 -1.407332672833e+02 0.0 
0.0 0.0 -6.464501955020e+01 
-8.301762267178e+01 -3.631180659746e+00 0.0 
-3.631180659746e+00 -2.345224620341e+02 0.0 
0.0 0.0 -9.486202541177e+01 
-7.182036787253e+01 -5.564928990400e+00 0.0 
-5.564928990400e+00 -1.799556472720e+02 0.0 
0.0 0.0 -7.513280454335e+01 
-5.763393404547e+01 -8.570468559280e+00 0.0 
-8.570468559280e+00 -1.446782085540e+02 0.0 
0.0 0.0 -6.029364277984e+01 
-4.880061636994e+01 -1.338049725742e+01 0.0 
-1.338049725742e+01 -1.272427388138e+02 0.0 
0.0 0.0 -5.241300655513e+01 
-6.597854950877e+01 2.452732594964e+01 0.0 
2.452732594964e+01 -1.721392877054e+02 0.0 
0.0 0.0 -7.103535116426e+01 
-8.195613489704e+01 -5.455376398029e+00 0.0 
-5.455376398029e+00 -2.174559711697e+02 0.0 
0.0 0.0 -8.942363182003e+01 
-1.193092235566e+02 1.065099250032e+00 0.0 
1.065099250032e+00 -3.051922595049e+02 0.0 
0.0 0.0 -1.269504449184e+02 
-1.021024225965e+02 2.605409292949e+00 0.0 
2.605409292949e+00 -2.228663560039e+02 0.0 
0.0 0.0 -9.709063358013e+01 
-6.530817856082e+00 -7.102180562218e-01 0.0 
-7.102180562218e-01 -1.910753894036e+01 0.0 
0.0 0.0 -7.159304848076e+00 
-1.235592332751e+02 2.395181037213e+00 0.0 
2.395181037213e+00 -3.160605944679e+02 0.0 
0.0 0.0 -1.314859483229e+02 
-9.788421035061e+01 -2.660527526952e+00 0.0 
-2.660527526952e+00 -2.559654535191e+02 0.0 
0.0 0.0 -1.057548991609e+02 
-8.866470990996e+01 3.913470763132e+00 0.0 
3.913470763132e+00 -1.784547796071e+02 0.0 
0.0 0.0 -7.973584685512e+01 
-1.144108236664e+02 1.408466376978e+01 0.0 
1.408466376978e+01 -3.051400962150e+02 0.0 
0.0 0.0 -1.254652759644e+02 
-4.238223426852e+01 -1.898703026818e+01 0.0 
-1.898703026818e+01 -1.000915537678e+02 0.0 
0.0 0.0 -4.110705506305e+01 
-1.027538656776e+02 4.662073363968e+00 0.0 
4.662073363968e+00 -2.198530322703e+02 0.0 
0.0 0.0 -9.638206938437e+01 
-1.170925387647e+02 9.364558192523e+00 0.0 
9.364558192523e+00 -2.579955658124e+02 0.0 
0.0 0.0 -1.121264313731e+02 
-8.166210072928e+01 4.042224196086e+00 0.0 
4.042224196086e+00 -1.572487728873e+02 0.0 
0.0 0.0 -7.127326208499e+01 
-2.732203919672e+01 -3.055810124041e+00 0.0 
-3.055810124041e+00 -6.507510148233e+01 0.0 
0.0 0.0 -2.731914220372e+01 
-7.546381893595e+01 1.522609324170e+00 0.0 
1.522609324170e+00 -1.500326001699e+02 0.0 
0.0 0.0 -6.724892573176e+01 
-1.433181337597e+02 6.506478249909e+00 0.0 
6.506478249909e+00 -3.549351874588e+02 0.0 
0.0 0.0 -1.490759963656e+02 
-1.057291055338e+02 9.096276266768e+00 0.0 
9.096276266768e+00 -2.187410008323e+02 0.0 
0.0 0.0 -9.694103190983e+01 
-5.085029222363e+01 -3.280558156675e+00 0.0 
-3.280558156675e+00 -1.226650433412e+02 0.0 
0.0 0.0 -5.165460066945e+01 
-7.722838053443e+01 7.208084505046e+00 0.0 
7.208084505046e+00 -2.401903876114e+02 0.0 
0.0 0.0 -9.482563044376e+01 
-7.351911843055e+01 2.357021579758e+01 0.0 
2.357021579758e+01 -1.617336524468e+02 0.0 
0.0 0.0 -7.017583126319e+01 
-6.108379117856e+01 5.167504628474e+00 0.0 
5.167504628474e+00 -1.007148482989e+02 0.0 
0.0 0.0 -4.813959184324e+01 
-1.122544286068e+02 3.760754025282e+00 0.0 
3.760754025282e+00 -2.516543139915e+02 0.0 
0.0 0.0 -1.087726227795e+02 
-7.920224402660e+01 2.056996140572e+01 0.0 
2.056996140572e+01 -2.199446669984e+02 0.0 
0.0 0.0 -8.934407330750e+01 
-1.250117661501e+02 1.176171904904e+01 0.0 
1.176171904904e+01 -3.261331967830e+02 0.0 
0.0 0.0 -1.349434888799e+02 
-9.529020354895e+01 9.007630384429e+00 0.0 
9.007630384429e+00 -2.737303249105e+02 0.0 
0.0 0.0 -1.103061585378e+02 
-5.433491398966e+01 -2.607888729378e+00 0.0 
-2.607888729378e+00 -1.313569297466e+02 0.0 
0.0 0.0 -5.530755312088e+01 
-1.338378662241e+02 2.046651750419e+00 0.0 
2.046651750419e+00 -3.316863074067e+02 0.0 
0.0 0.0 -1.392572520892e+02 
-7.289919555244e+01 1.482094964560e+01 0.0 
1.482094964560e+01 -2.251241721269e+02 0.0 
0.0 0.0 -8.900701030380e+01 
-1.097221831608e+02 5.455572118595e+00 0.0 
5.455572118595e+00 -2.400962518189e+02 0.0 
0.0 0.0 -1.045455304939e+02 
-1.085544252831e+02 2.116517870732e+01 0.0 
2.116517870732e+01 -2.459657182789e+02 0.0 
0.0 0.0 -1.059560430686e+02 
-5.632122026080e+01 8.447229023196e+00 0.0 
8.447229023196e+00 -1.993414153087e+02 0.0 
0.0 0.0 -7.629879067085e+01 
-1.073920510564e+02 7.166125809129e+00 0.0 
7.166125809129e+00 -2.285729048677e+02 0.0 
0.0 0.0 -1.003894867772e+02 
-8.065813192358e+01 -1.316596310200e+00 0.0 
-1.316596310200e+00 -2.383586733674e+02 0.0 
0.0 0.0 -9.530504158729e+01 
-1.194797760660e+02 1.590237356332e+01 0.0 
1.590237356332e+01 -3.116629877037e+02 0.0 
0.0 0.0 -1.289428291309e+02 
-7.206371486108e+01 1.865313659371e+01 0.0 
1.865313659371e+01 -1.343556536094e+02 0.0 
0.0 0.0 -6.152581054114e+01 
-9.326359469353e+01 2.143388569633e+01 0.0 
2.143388569633e+01 -2.061583379576e+02 0.0 
0.0 0.0 -8.942657979535e+01 
-1.020720086665e+02 1.713719418533e+01 0.0 
1.713719418533e+01 -2.101059525253e+02 0.0 
0.0 0.0 -9.325338835754e+01 
-8.650204115669e+01 2.265937241159e+01 0.0 
2.265937241159e+01 -2.126256194705e+02 0.0 
0.0 0.0 -8.933829818816e+01 
-1.160064695461e+02 -5.370633878244e-01 0.0 
-5.370633878244e-01 -2.799202045520e+02 0.0 
0.0 0.0 -1.183780022294e+02 
-1.287621543085e+02 2.202657826761e+00 0.0 
2.202657826761e+00 -3.238969474613e+02 0.0 
0.0 0.0 -1.353977305310e+02 
-2.979676353964e+01 -7.401654937752e+00 0.0 
-7.401654937752e+00 -1.342213641569e+02 0.0 
0.0 0.0 -4.995454414645e+01 
-5.199226225025e+01 2.655229369625e+01 0.0 
2.655229369625e+01 -1.347143920415e+02 0.0 
0.0 0.0 -5.561199628751e+01 
-8.977568169574e+01 5.097613775644e+00 0.0 
5.097613775644e+00 -1.777376696667e+02 0.0 
0.0 0.0 -7.985400540873e+01 
-1.236957788933e+02 2.193986111790e+01 0.0 
2.193986111790e+01 -2.932558199576e+02 0.0 
0.0 0.0 -1.246854796553e+02 
-1.163635521728e+02 6.106029718324e+00 0.0 
6.106029718324e+00 -2.601985691166e+02 0.0 
0.0 0.0 -1.125686363868e+02 
-6.607955159233e+01 2.423070121451e+01 0.0 
2.423070121451e+01 -1.415249521427e+02 0.0 
0.0 0.0 -6.188135112051e+01 
-1.293193172883e+02 1.056792037716e+00 0.0 
1.056792037716e+00 -3.205990856064e+02 0.0 
0.0 0.0 -1.345755208684e+02 
-1.137429332427e+02 8.087366638477e+00 0.0 
8.087366638477e+00 -2.484384736216e+02 0.0 
0.0 0.0 -1.082544220593e+02 
-8.644211322912e+01 -4.655676027663e+00 0.0 
-4.655676027663e+00 -2.247049331811e+02 0.0 
0.0 0.0 -9.294411392306e+01 
-3.657279056155e+01 -4.876930944355e-01 0.0 
-4.876930944355e-01 -9.130477535655e+01 0.0 
0.0 0.0 -3.796326977543e+01 
-3.244470069947e+01 2.582064016248e+01 0.0 
2.582064016248e+01 -1.060942221764e+02 0.0 
0.0 0.0 -4.155387845422e+01 
-4.189351846965e+01 7.736367935001e+00 0.0 
7.736367935001e+00 -1.705003185950e+02 0.0 
0.0 0.0 -6.331815111939e+01 
-7.416454046252e+01 1.924616587122e+01 0.0 
1.924616587122e+01 -2.163829555511e+02 0.0 
0.0 0.0 -8.676424880409e+01 
-9.439370496295e+01 -3.415519392432e+00 0.0 
-3.415519392432e+00 -2.441456064468e+02 0.0 
0.0 0.0 -1.011617934229e+02 
-1.228193791617e+02 1.326508501344e+01 0.0 
1.326508501344e+01 -2.727769929335e+02 0.0 
0.0 0.0 -1.182789116286e+02 
-1.341335110731e+02 1.045449784121e+00 0.0 
1.045449784121e+00 -3.283467714612e+02 0.0 
0.0 0.0 -1.383440847603e+02 
-1.169909280549e+02 4.915933432503e+00 0.0 
4.915933432503e+00 -3.100078187331e+02 0.0 
0.0 0.0 -1.276996240364e+02 
-4.088399725385e+01 3.044531847834e+01 0.0 
3.044531847834e+01 -4.119282680184e+01 0.0 
0.0 0.0 -2.392048089240e+01 
-6.619934331209e+01 7.378354412514e+00 0.0 
7.378354412514e+00 -1.110124983530e+02 0.0 
0.0 0.0 -5.276355249953e+01 
-1.388242167868e+02 1.015983659812e+00 0.0 
1.015983659812e+00 -3.362282681920e+02 0.0 
0.0 0.0 -1.421157454937e+02 
-8.211525813657e+01 5.319507247097e+00 0.0 
5.319507247097e+00 -2.490724690923e+02 0.0 
0.0 0.0 -9.895631816867e+01 
-1.244425199510e+02 1.474731128814e+01 0.0 
1.474731128814e+01 -3.225507491632e+02 0.0 
0.0 0.0 -1.336979807343e+02 
-9.436728514500e+01 -7.955949958098e-01 0.0 
-7.955949958098e-01 -2.282007977888e+02 0.0 
0.0 0.0 -9.637042488013e+01 
-1.365439081512e+02 2.328270067954e+01 0.0 
2.328270067954e+01 -3.205654351752e+02 0.0 
0.0 0.0 -1.367328029979e+02 
-5.162116068767e+01 1.304661003484e+01 0.0 
1.304661003484e+01 -7.643093101596e+01 0.0 
0.0 0.0 -3.801562751109e+01 
-1.434262648057e+02 9.385903593013e-01 0.0 
9.385903593013e-01 -3.444863693957e+02 0.0 
0.0 0.0 -1.459737902604e+02 
-1.156745445701e+02 7.640361258862e+00 0.0 
7.640361258862e+00 -3.101162231102e+02 0.0 
0.0 0.0 -1.273372303041e+02 
-4.493200080292e+01 2.304196939678e+01 0.0 
2.304196939678e+01 -1.490159266561e+02 0.0 
0.0 0.0 -5.778437823771e+01 
-5.889348171928e+01 6.996258366407e-02 0.0 
6.996258366407e-02 -1.144277858819e+02 0.0 
0.0 0.0 -5.159638028035e+01 
-1.540567352107e+02 1.284309314676e+00 0.0 
1.284309314676e+00 -3.661878623445e+02 0.0 
0.0 0.0 -1.556733792666e+02 
-1.261036975580e+02 8.826420155042e+00 0.0 
8.826420155042e+00 -3.282058283628e+02 0.0 
0.0 0.0 -1.358928577762e+02 
-9.449435821458e+01 2.201629110858e+01 0.0 
2.201629110858e+01 -2.314804959030e+02 0.0 
0.0 0.0 -9.739245623527e+01 
-7.856489959606e+01 2.412292722583e+00 0.0 
2.412292722583e+00 -2.405922724406e+02 0.0 
0.0 0.0 -9.534715161099e+01 
-5.330206518860e+01 6.408777383779e+00 0.0 
6.408777383779e+00 -8.174965803334e+01 0.0 
0.0 0.0 -4.011551696658e+01 
-9.895821801450e+01 -2.791984268990e+00 0.0 
-2.791984268990e+00 -2.516426936404e+02 0.0 
0.0 0.0 -1.047802734965e+02 
-9.767351195584e+01 2.047456868136e+01 0.0 
2.047456868136e+01 -2.114434827761e+02 0.0 
0.0 0.0 -9.233509841959e+01 
-1.260051386337e+02 1.127542965040e+01 0.0 
1.127542965040e+01 -2.883854980360e+02 0.0 
0.0 0.0 -1.239171910009e+02 
-1.306091733902e+02 1.077675241512e+01 0.0 
1.077675241512e+01 -3.357605763377e+02 0.0 
0.0 0.0 -1.395109249184e+02 
-9.684075948782e+01 1.022504763237e+01 0.0 
1.022504763237e+01 -1.897876614035e+02 0.0 
0.0 0.0 -8.558852626740e+01 
-9.521080709313e+01 -3.129508871654e+00 0.0 
-3.129508871654e+00 -2.397573093479e+02 0.0 
0.0 0.0 -1.000904349323e+02 
-1.003709096464e+02 1.820211908114e+01 0.0 
1.820211908114e+01 -2.688522365186e+02 0.0 
0.0 0.0 -1.103669438495e+02 
-1.813308320468e+01 -9.450094293394e-01 0.0 
-9.450094293394e-01 -5.041462709161e+01 0.0 
0.0 0.0 -2.016431308889e+01 
-5.898018213086e+01 9.496422244011e+00 0.0 
9.496422244011e+00 -9.318689977448e+01 0.0 
0.0 0.0 -4.525012457160e+01 
-9.947491601460e+01 -2.448110924485e+00 0.0 
-2.448110924485e+00 -2.474736265934e+02 0.0 
0.0 0.0 -1.036845627824e+02 
-4.580746146708e+01 3.362531816594e+00 0.0 
3.362531816594e+00 -1.788992587899e+02 0.0 
0.0 0.0 -6.701201607708e+01 
-8.373328135103e+01 1.197135099814e+00 0.0 
1.197135099814e+00 -2.482560656445e+02 0.0 
0.0 0.0 -9.919680409867e+01 
-1.394894964550e+02 1.986483694106e+01 0.0 
1.986483694106e+01 -3.414350504907e+02 0.0 
0.0 0.0 -1.438773640837e+02 
-1.036827968657e+02 -1.842030958453e+00 0.0 
-1.842030958453e+00 -2.553672767877e+02 0.0 
0.0 0.0 -1.073150220960e+02 
-5.299576602035e+01 4.367468864307e+00 0.0 
4.367468864307e+00 -1.933310520716e+02 0.0 
0.0 0.0 -7.349804542758e+01 
-1.078218341592e+02 -1.316008228148e+00 0.0 
-1.316008228148e+00 -2.633703048459e+02 0.0 
0.0 0.0 -1.109576417015e+02 
-4.551240126240e+01 8.546385381535e+00 0.0 
8.546385381535e+00 -6.311238568673e+01 0.0 
0.0 0.0 -3.218743608474e+01 
-1.010494892870e+02 1.204739766061e+01 0.0 
1.204739766061e+01 -2.013893090180e+02 0.0 
0.0 0.0 -9.033163949150e+01 
-1.119205745489e+02 -8.514365723602e-01 0.0 
-8.514365723602e-01 -2.714325451714e+02 0.0 
0.0 0.0 -1.146059359161e+02 
-1.051554027386e+02 2.049969828471e+01 0.0 
2.049969828471e+01 -2.315846425077e+02 0.0 
0.0 0.0 -1.006220135739e+02 
-2.059893200472e+01 -1.764450613652e+00 0.0 
-1.764450613652e+00 -5.276088315545e+01 0.0 
0.0 0.0 -2.160794454805e+01 
-9.769061456321e+01 2.135379754971e+01 0.0 
2.135379754971e+01 -2.458777363997e+02 0.0 
0.0 0.0 -1.026705052889e+02 
-1.427055110662e+02 1.382747052425e-01 0.0 
1.382747052425e-01 -3.394063379321e+02 0.0 
0.0 0.0 -1.442335546995e+02 
-6.363131179791e+01 -9.284555185560e+00 0.0 
-9.284555185560e+00 -1.720346954734e+02 0.0 
0.0 0.0 -7.029980218138e+01 
-8.900209123391e+01 4.030635639381e-01 0.0 
4.030635639381e-01 -2.558253407208e+02 0.0 
0.0 0.0 -1.030482295864e+02 
-1.081599970126e+02 1.325918610519e+01 0.0 
1.325918610519e+01 -2.223626714592e+02 0.0 
0.0 0.0 -9.875680054154e+01 
-3.814509887673e+01 1.209010594990e+01 0.0 
1.209010594990e+01 -4.544515820730e+01 0.0 
0.0 0.0 -2.467707712521e+01 
-9.783150888020e+01 2.006368686814e+00 0.0 
2.006368686814e+00 -2.735807275470e+02 0.0 
0.0 0.0 -1.110236709282e+02 
-1.126561515175e+02 2.069122333135e+01 0.0 
2.069122333135e+01 -2.516325414565e+02 0.0 
0.0 0.0 -1.088866078922e+02 
-1.012155683566e+02 2.043507300339e+01 0.0 
2.043507300339e+01 -2.598282051144e+02 0.0 
0.0 0.0 -1.079131320413e+02 
-8.254629390113e+01 1.871582985607e+01 0.0 
1.871582985607e+01 -2.335452914337e+02 0.0 
0.0 0.0 -9.442747560045e+01 
-1.071603234320e+02 3.510153595568e+00 0.0 
3.510153595568e+00 -2.916766963757e+02 0.0 
0.0 0.0 -1.192511059423e+02 
-4.445123638908e+01 1.815792594610e+01 0.0 
1.815792594610e+01 -6.334428702803e+01 0.0 
0.0 0.0 -3.193865702513e+01 
-5.099854955524e+01 -8.824921132934e+00 0.0 
-8.824921132934e+00 -1.240510571045e+02 0.0 
0.0 0.0 -5.211488199792e+01 
-4.436637264613e+01 -8.465619919431e+00 0.0 
-8.465619919431e+00 -1.032892013026e+02 0.0 
0.0 0.0 -4.389667218461e+01 
-5.761598034733e+01 1.423454643432e+00 0.0 
1.423454643432e+00 -2.010070146647e+02 0.0 
0.0 0.0 -7.718689850360e+01 
-1.164726723065e+02 2.020152503001e+01 0.0 
2.020152503001e+01 -2.577597417570e+02 0.0 
0.0 0.0 -1.118697242190e+02 
-2.545782804953e+01 -7.171058601952e-01 0.0 
-7.171058601952e-01 -6.699360571743e+01 0.0 
0.0 0.0 -2.733543013009e+01 
-1.089455211972e+02 1.558433133837e+01 0.0 
1.558433133837e+01 -2.258056043225e+02 0.0 
0.0 0.0 -1.000253376559e+02 
-3.584987638602e+01 -8.332447888896e+00 0.0 
-8.332447888896e+00 -7.496088521093e+01 0.0 
0.0 0.0 -3.272314481515e+01 
-5.524782309791e+01 -2.600326262116e+00 0.0 
-2.600326262116e+00 -1.923265515928e+02 0.0 
0.0 0.0 -7.387231240720e+01 
-1.148619286647e+02 1.945011457663e+01 0.0 
1.945011457663e+01 -2.923833767146e+02 0.0 
0.0 0.0 -1.217735916138e+02 
-8.067362996123e+01 4.052199507529e-01 0.0 
4.052199507529e-01 -1.684683054709e+02 0.0 
0.0 0.0 -7.434258062964e+01 
-6.027406438808e+01 -4.253150834798e+00 0.0 
-4.253150834798e+00 -1.981942245525e+02 0.0 
0.0 0.0 -7.714048668218e+01 
-4.554098675434e+01 -5.785398068320e-01 0.0 
-5.785398068320e-01 -1.112639659804e+02 0.0 
0.0 0.0 -4.664148582042e+01 
-5.848908822602e+01 -7.360879031531e+00 0.0 
-7.360879031531e+00 -1.871457893213e+02 0.0 
0.0 0.0 -7.329046326419e+01 
-9.126937833608e+01 1.834865735771e+01 0.0 
1.834865735771e+01 -2.510009625553e+02 0.0 
0.0 0.0 -1.022811022674e+02 
-6.339083026442e+01 -7.611494827956e+00 0.0 
-7.611494827956e+00 -1.924364909565e+02 0.0 
0.0 0.0 -7.634819636626e+01 
-6.161993709847e+01 -9.398704140448e+00 0.0 
-9.398704140448e+00 -1.798979802616e+02 0.0 
0.0 0.0 -7.205537520803e+01 
-1.158565473433e+02 3.471911995144e+00 0.0 
3.471911995144e+00 -2.628943589347e+02 0.0 
0.0 0.0 -1.132252718834e+02 
-6.601985168651e+01 -8.683040296801e+00 0.0 
-8.683040296801e+00 -1.853792584077e+02 0.0 
0.0 0.0 -7.501973302827e+01 
-1.218268166901e+02 1.053959546182e+00 0.0 
1.053959546182e+00 -2.814328845033e+02 0.0 
0.0 0.0 -1.205779103580e+02 
-1.621490305264e+02 3.859590476150e-01 0.0 
3.859590476150e-01 -3.813120939978e+02 0.0 
0.0 0.0 -1.626383373573e+02 
-6.492594688317e+01 2.244546646737e-01 0.0 
2.244546646737e-01 -1.294033908632e+02 0.0 
0.0 0.0 -5.789880132391e+01 
-3.197527004613e+01 1.598701292424e+01 0.0 
1.598701292424e+01 -3.065459506904e+01 0.0 
0.0 0.0 -1.838895953455e+01 
-7.058446653440e+01 1.287080888401e+00 0.0 
1.287080888401e+00 -1.115465216876e+02 0.0 
0.0 0.0 -5.551904502979e+01 
-3.964906868914e+01 2.394429308541e+01 0.0 
2.394429308541e+01 -6.085628613535e+01 0.0 
0.0 0.0 -2.975160644735e+01 
-5.749171352639e+01 -1.059779719552e+01 0.0 
-1.059779719552e+01 -1.525849689715e+02 0.0 
0.0 0.0 -6.262300474937e+01 
-1.091484860153e+02 1.780841086125e+01 0.0 
1.780841086125e+01 -2.306118866987e+02 0.0 
0.0 0.0 -1.015281118142e+02 
-6.537540684127e+01 1.475118505656e-01 0.0 
1.475118505656e-01 -1.301501034780e+02 0.0 
0.0 0.0 -5.825765309578e+01 
-5.469336874946e+01 -1.004207245670e+01 0.0 
-1.004207245670e+01 -1.383946870736e+02 0.0 
0.0 0.0 -5.752641674692e+01 
-1.288864874987e+02 1.926088326980e+01 0.0 
1.926088326980e+01 -2.893174139532e+02 0.0 
0.0 0.0 -1.250611704356e+02 
-1.463949746296e+02 2.410079213670e+01 0.0 
2.410079213670e+01 -3.455572837365e+02 0.0 
0.0 0.0 -1.471856775098e+02 
-9.177679050306e+01 7.005839808503e-01 0.0 
7.005839808503e-01 -1.972105229936e+02 0.0 
0.0 0.0 -8.629619404900e+01 
-1.295002024498e+02 1.364909263296e+01 0.0 
1.364909263296e+01 -3.324045575361e+02 0.0 
0.0 0.0 -1.381714279958e+02 
-1.053732416836e+02 1.938015088774e+01 0.0 
1.938015088774e+01 -2.737706703230e+02 0.0 
0.0 0.0 -1.133431736020e+02 
-1.088025090497e+02 5.706439697510e-01 0.0 
5.706439697510e-01 -2.444880144239e+02 0.0 
0.0 0.0 -1.055871570421e+02 
-5.919690126764e+01 4.991629487235e-01 0.0 
4.991629487235e-01 -1.130624169915e+02 0.0 
0.0 0.0 -5.127779547775e+01 
-1.925051983184e+01 -3.836707183417e+00 0.0 
-3.836707183417e+00 -3.416650882867e+01 0.0 
0.0 0.0 -1.558572472428e+01 
-1.205858481170e+02 -2.166571737760e-01 0.0 
-2.166571737760e-01 -2.898502858440e+02 0.0 
0.0 0.0 -1.227308401883e+02 
-3.203197251081e+01 2.208465006526e+01 0.0 
2.208465006526e+01 -3.027137590809e+01 0.0 
0.0 0.0 -1.829100452567e+01 
-3.570450668643e+01 2.621483620115e+01 0.0 
2.621483620115e+01 -5.596966331427e+01 0.0 
0.0 0.0 -2.710225100021e+01 
-3.658520833193e+01 2.797618868845e+01 0.0 
2.797618868845e+01 -5.760136578463e+01 0.0 
0.0 0.0 -2.671411516693e+01 
-5.699462001090e+01 -1.942264797925e+00 0.0 
-1.942264797925e+00 -1.381961387236e+02 0.0 
0.0 0.0 -5.815722762034e+01 
-3.693906934496e+01 -1.577136893298e+01 0.0 
-1.577136893298e+01 -5.974976765504e+01 0.0 
0.0 0.0 -2.725115023086e+01 
-3.422166244251e+01 2.464471105092e+01 0.0 
2.464471105092e+01 -3.564995183656e+01 0.0 
0.0 0.0 -2.027954123698e+01 
-1.442383535060e+02 1.621811721966e+01 0.0 
1.621811721966e+01 -3.552481009799e+02 0.0 
0.0 0.0 -1.494459363458e+02 
-6.883448731384e+01 1.596352971907e+00 0.0 
1.596352971907e+00 -1.311619939671e+02 0.0 
0.0 0.0 -5.959894438427e+01 
-1.194133890588e+02 2.045399495200e+01 0.0 
2.045399495200e+01 -2.970094988366e+02 0.0 
0.0 0.0 -1.245268663686e+02 
-3.718244071458e+01 2.679556734149e+01 0.0 
2.679556734149e+01 -3.747079377811e+01 0.0 
0.0 0.0 -2.042017780083e+01 
-1.197402671068e+02 9.056166308083e+00 0.0 
9.056166308083e+00 -2.681425304724e+02 0.0 
0.0 0.0 -1.159648392738e+02 
-1.395781218253e+02 2.178504523229e+01 0.0 
2.178504523229e+01 -3.364949364597e+02 0.0 
0.0 0.0 -1.424219174855e+02 
-1.622361692640e+02 3.762066207028e+00 0.0 
3.762066207028e+00 -3.846417395683e+02 0.0 
0.0 0.0 -1.636633726497e+02 
-1.289715750865e+02 2.087051746059e+01 0.0 
2.087051746059e+01 -3.160129535875e+02 0.0 
0.0 0.0 -1.330953586022e+02 
-3.831496533585e+01 3.074025739870e+01 0.0 
3.074025739870e+01 -6.185631594099e+01 0.0 
0.0 0.0 -2.876634217997e+01 
-7.939862817548e+01 4.281861985687e+00 0.0 
4.281861985687e+00 -1.497038751367e+02 0.0 
0.0 0.0 -6.833075099365e+01 
-1.339447403771e+02 2.289051531589e+01 0.0 
2.289051531589e+01 -3.093550664242e+02 0.0 
0.0 0.0 -1.325899420404e+02 
-9.797826490647e+01 1.126484409999e+00 0.0 
1.126484409999e+00 -2.130138299502e+02 0.0 
0.0 0.0 -9.289762845699e+01 
-1.633631687295e+02 2.230066416238e+00 0.0 
2.230066416238e+00 -3.854947085737e+02 0.0 
0.0 0.0 -1.642573631909e+02 
-6.948199160870e+01 2.033743046194e+00 0.0 
2.033743046194e+00 -1.293641182730e+02 0.0 
0.0 0.0 -5.925383296452e+01 
-1.162679726699e+02 2.191908979932e+00 0.0 
2.191908979932e+00 -2.651795276205e+02 0.0 
0.0 0.0 -1.140342500871e+02 
-3.183245085057e+01 -1.610125992821e+01 0.0 
-1.610125992821e+01 -1.233276353164e+02 0.0 
0.0 0.0 -4.711803375991e+01 
-1.161151998453e+02 1.072598854133e+00 0.0 
1.072598854133e+00 -2.652317619461e+02 0.0 
0.0 0.0 -1.140040885374e+02 
-1.161721414695e+02 1.860085060829e+01 0.0 
1.860085060829e+01 -2.512542517613e+02 0.0 
0.0 0.0 -1.098279179692e+02 
-7.579604150787e+01 6.791082536615e-01 0.0 
6.791082536615e-01 -1.542592015283e+02 0.0 
0.0 0.0 -6.861657291084e+01 
-8.119269578683e+01 5.729590984388e+00 0.0 
5.729590984388e+00 -1.506817113905e+02 0.0 
0.0 0.0 -6.916232215320e+01 
-1.562413350728e+02 5.199757994555e-01 0.0 
5.199757994555e-01 -3.688031514582e+02 0.0 
0.0 0.0 -1.571133459593e+02 
-1.260552319530e+02 1.673028420823e+01 0.0 
1.673028420823e+01 -2.814339910969e+02 0.0 
0.0 0.0 -1.218467669150e+02 
-3.857701767502e+01 3.297426293230e+01 0.0 
3.297426293230e+01 -6.961582527400e+01 0.0 
0.0 0.0 -3.231215588080e+01 
-9.174309228444e+01 8.084815095322e-01 0.0 
8.084815095322e-01 -1.961625550695e+02 0.0 
0.0 0.0 -8.597169420618e+01 
-7.115140021521e+01 -2.641470915606e+00 0.0 
-2.641470915606e+00 -1.731796714231e+02 0.0 
0.0 0.0 -7.289932149148e+01 
-4.215896628792e+01 -1.870533903077e+01 0.0 
-1.870533903077e+01 -1.074228286688e+02 0.0 
0.0 0.0 -4.616072344896e+01 
-1.523858768642e+02 4.828264638504e+00 0.0 
4.828264638504e+00 -3.686311797990e+02 0.0 
0.0 0.0 -1.559051169990e+02 
-1.224974082674e+02 1.941203302588e+01 0.0 
1.941203302588e+01 -2.706718911324e+02 0.0 
0.0 0.0 -1.175507898199e+02 
-1.552773090670e+02 8.792717518296e-01 0.0 
8.792717518296e-01 -3.680089266440e+02 0.0 
0.0 0.0 -1.565858707133e+02 
-1.687906849038e+01 -2.658760180421e-01 0.0 
-2.658760180421e-01 -4.987716608339e+01 0.0 
0.0 0.0 -1.962687037213e+01 
-1.339872457854e+01 -1.771874510350e+00 0.0 
-1.771874510350e+00 -3.141899713202e+01 0.0 
0.0 0.0 -1.309867613528e+01 
-1.525248227550e+02 7.231235287163e+00 0.0 
7.231235287163e+00 -3.706195600848e+02 0.0 
0.0 0.0 -1.565433148519e+02 
-1.319793846595e+02 2.140698010933e+01 0.0 
2.140698010933e+01 -3.000277076776e+02 0.0 
0.0 0.0 -1.292021277011e+02 
-3.657773594196e+01 -1.819795066431e+01 0.0 
-1.819795066431e+01 -1.199390340418e+02 0.0 
0.0 0.0 -4.628181246218e+01 
-1.247985266511e+02 7.793301422722e+00 0.0 
7.793301422722e+00 -2.874778958658e+02 0.0 
0.0 0.0 -1.232829267551e+02 
-4.202045332363e+01 3.364749599717e+01 0.0 
3.364749599717e+01 -7.628301614010e+01 0.0 
0.0 0.0 -3.642729282069e+01 
-5.918996284464e+01 3.853372699947e-01 0.0 
3.853372699947e-01 -1.110741829272e+02 0.0 
0.0 0.0 -5.067924373154e+01 
-1.095213493747e+01 -9.169443330235e-01 0.0 
-9.169443330235e-01 -3.226904490902e+01 0.0 
0.0 0.0 -1.264324374838e+01 
-1.633092782385e+02 1.842667742606e+00 0.0 
1.842667742606e+00 -3.847695758234e+02 0.0 
0.0 0.0 -1.640236562186e+02 
-1.180662717888e+02 5.552502141972e+00 0.0 
5.552502141972e+00 -2.674900588889e+02 0.0 
0.0 0.0 -1.152668992033e+02 
-7.848565616414e+01 -1.850565964222e+00 0.0 
-1.850565964222e+00 -1.902635527774e+02 0.0 
0.0 0.0 -8.022476268247e+01 
-6.747131982918e+01 3.547416561965e+00 0.0 
3.547416561965e+00 -1.189591780187e+02 0.0 
0.0 0.0 -5.552914935438e+01 
-5.149878980427e+01 -1.273864184241e+00 0.0 
-1.273864184241e+00 -1.249711692416e+02 0.0 
0.0 0.0 -5.254098771376e+01 
-1.308280783152e+02 2.235307424291e+01 0.0 
2.235307424291e+01 -3.098671201842e+02 0.0 
0.0 0.0 -1.318085595498e+02 
-2.847177832308e+01 -7.299303301599e+00 0.0 
-7.299303301599e+00 -4.920001522220e+01 0.0 
0.0 0.0 -2.226986126973e+01 
-1.179607754678e+02 4.201040858904e+00 0.0 
4.201040858904e+00 -2.687108857391e+02 0.0 
0.0 0.0 -1.156014983621e+02 
-1.512985725903e+02 1.011629537182e+01 0.0 
1.011629537182e+01 -3.693893964124e+02 0.0 
0.0 0.0 -1.558063907008e+02 
-1.235249975328e+02 1.241019281827e+01 0.0 
1.241019281827e+01 -2.767600414748e+02 0.0 
0.0 0.0 -1.196855117023e+02 
-1.547052975696e+02 2.020741993987e+01 0.0 
2.020741993987e+01 -3.686539970964e+02 0.0 
0.0 0.0 -1.566077883998e+02 
-4.755786113276e+01 1.090640582590e+01 0.0 
1.090640582590e+01 -1.161914476273e+02 0.0 
0.0 0.0 -5.059237157662e+01 
-1.409583010071e+02 2.287699673348e+01 0.0 
2.287699673348e+01 -3.363751250502e+02 0.0 
0.0 0.0 -1.428000278172e+02 
-1.394949897330e+02 1.154305487541e+01 0.0 
1.154305487541e+01 -3.505136393799e+02 0.0 
0.0 0.0 -1.466025887339e+02 
-5.860632880509e+01 -2.645026022139e-02 0.0 
-2.645026022139e-02 -1.128363714171e+02 0.0 
0.0 0.0 -5.103281006667e+01 
-1.245997576505e+02 1.447115564865e+01 0.0 
1.447115564865e+01 -2.779817060163e+02 0.0 
0.0 0.0 -1.203744391000e+02 
-6.383508374520e+01 -1.992413385789e+00 0.0 
-1.992413385789e+00 -1.543657970233e+02 0.0 
0.0 0.0 -6.506026423054e+01 
-2.654737864235e+01 -1.842359618492e+00 0.0 
-1.842359618492e+00 -6.616113102254e+01 0.0 
0.0 0.0 -2.741255289947e+01 
-1.224455766493e+02 6.128189087413e-01 0.0 
6.128189087413e-01 -2.834552235947e+02 0.0 
0.0 0.0 -1.213702400732e+02 
-2.331926744946e+00 -6.638563754245e-02 0.0 
-6.638563754245e-02 -1.416584107952e+01 0.0 
0.0 0.0 -3.891259597825e+00 
-5.752178725496e+01 1.064405336883e-01 0.0 
1.064405336883e-01 -1.117583306525e+02 0.0 
0.0 0.0 -5.038403537224e+01 
-1.641408191350e+02 -3.570309410247e-04 0.0 
-3.570309410247e-04 -3.854256078123e+02 0.0 
0.0 0.0 -1.644699280842e+02 
-2.418859075591e+01 -1.093246003729e+00 0.0 
-1.093246003729e+00 -6.314313787033e+01 0.0 
0.0 0.0 -2.579951858787e+01 
-7.094990167243e+01 3.380033797522e-01 0.0 
3.380033797522e-01 -1.437970807290e+02 0.0 
0.0 0.0 -6.402409472041e+01 
-1.310874523312e+02 2.057199743967e+01 0.0 
2.057199743967e+01 -2.965188926959e+02 0.0 
0.0 0.0 -1.278819035081e+02 
-9.646281101733e+01 -3.877104426817e-01 0.0 
-3.877104426817e-01 -2.332459477756e+02 0.0 
0.0 0.0 -9.851262763788e+01 
-1.048043194999e+02 1.075377511223e+00 0.0 
1.075377511223e+00 -2.330343827370e+02 0.0 
0.0 0.0 -1.009516106711e+02 
-4.093257588165e+01 -1.940153740081e+01 0.0 
-1.940153740081e+01 -8.030714184427e+01 0.0 
0.0 0.0 -3.455941796231e+01 
-7.246775532023e+01 -7.246220166928e+00 0.0 
-7.246220166928e+00 -1.084636511983e+02 0.0 
0.0 0.0 -5.502494487328e+01 
-8.480316404546e+01 6.151755034627e-01 0.0 
6.151755034627e-01 -1.788480179980e+02 0.0 
0.0 0.0 -7.869535461304e+01 
-1.424746355699e+02 2.098750439303e+01 0.0 
2.098750439303e+01 -3.446969276004e+02 0.0 
0.0 0.0 -1.457514689511e+02 
-1.220646597892e+02 1.022038679578e+01 0.0 
1.022038679578e+01 -2.747132155403e+02 0.0 
0.0 0.0 -1.186333625988e+02 
-7.992512879071e+01 6.516699103458e-01 0.0 
6.516699103458e-01 -1.651143618733e+02 0.0 
0.0 0.0 -7.311184719921e+01 
-3.396714432353e+01 2.950051179902e+01 0.0 
2.950051179902e+01 -9.097739825562e+01 0.0 
0.0 0.0 -3.767262946930e+01 
-1.277796759759e+02 2.024689452163e+01 0.0 
2.024689452163e+01 -2.865940302061e+02 0.0 
0.0 0.0 -1.239121118546e+02 
-8.492934876277e+01 -1.588234724961e+00 0.0 
-1.588234724961e+00 -2.056610040624e+02 0.0 
0.0 0.0 -8.677710584756e+01 
-1.298241640857e+02 2.254299413155e+01 0.0 
2.254299413155e+01 -3.001141281416e+02 0.0 
0.0 0.0 -1.285814876682e+02 
-1.378217123318e+02 1.462259895465e+01 0.0 
1.462259895465e+01 -3.461122427596e+02 0.0 
0.0 0.0 -1.447801865274e+02 
-4.882247539259e+01 3.350177842724e+01 0.0 
3.350177842724e+01 -5.943268786511e+01 0.0 
0.0 0.0 -3.321471487681e+01 
-1.037489516494e+02 -3.191292184415e-01 0.0 
-3.191292184415e-01 -2.506604117616e+02 0.0 
0.0 0.0 -1.059228090233e+02 
-1.064774125147e+01 -9.450279487285e-01 0.0 
-9.450279487285e-01 -3.019408890813e+01 0.0 
0.0 0.0 -1.187683012329e+01 
-1.559271655986e+02 3.055156729200e+00 0.0 
3.055156729200e+00 -3.726039514945e+02 0.0 
0.0 0.0 -1.581593351279e+02 
-8.841247431539e+01 -1.002401163486e+00 0.0 
-1.002401163486e+00 -2.141387567350e+02 0.0 
0.0 0.0 -9.036536931512e+01 
-1.642310453828e+01 4.272320780330e+00 0.0 
4.272320780330e+00 -7.844736163192e+00 0.0 
0.0 0.0 -6.861944067826e+00 
-1.426702023460e+01 9.168194032898e-02 0.0 
9.168194032898e-02 -9.362493055538e+00 0.0 
0.0 0.0 -6.688853987040e+00 
-2.661702641119e+01 4.621720363140e+00 0.0 
4.621720363140e+00 -2.958636110323e+01 0.0 
0.0 0.0 -1.646101625432e+01 
-2.267552281991e+01 -3.358842877054e-02 0.0 
-3.358842877054e-02 -3.005522083758e+01 0.0 
0.0 0.0 -1.541922309725e+01 
-3.657151343882e+01 3.813744225827e+00 0.0 
3.813744225827e+00 -4.971531775891e+01 0.0 
0.0 0.0 -2.548604935932e+01 
-3.049707568878e+01 -3.916392948326e-02 0.0 
-3.916392948326e-02 -4.846362684422e+01 0.0 
0.0 0.0 -2.328821075990e+01 
-4.581472779289e+01 3.116801413876e+00 0.0 
3.116801413876e+00 -6.929332692434e+01 0.0 
0.0 0.0 -3.413241641517e+01 
-3.939340899753e+01 -8.096196481748e-02 0.0 
-8.096196481748e-02 -6.906930718275e+01 0.0 
0.0 0.0 -3.213881485409e+01 
-5.442564484872e+01 2.742062278082e+00 0.0 
2.742062278082e+00 -8.888722915543e+01 0.0 
0.0 0.0 -4.259386220125e+01 
-4.713703631728e+01 -1.692192399315e-01 0.0 
-1.692192399315e-01 -8.743530953621e+01 0.0 
0.0 0.0 -3.997170375605e+01 

TENSORS node_materi_strain_total float
6.852789348372e-04 6.294235191431e-07 0.0 
6.294235191431e-07 -1.865772133856e-04 0.0 
0.0 0.0 0.0 
-7.312457949956e-04 -1.815363823743e-05 0.0 
-1.815363823743e-05 9.320294034040e-03 0.0 
0.0 0.0 0.0 
-2.185024778056e-06 1.184669076684e-05 0.0 
1.184669076684e-05 7.603526005495e-03 0.0 
0.0 0.0 0.0 
-5.126102475089e-05 1.587712384453e-05 0.0 
1.587712384453e-05 1.290642138036e-02 0.0 
0.0 0.0 0.0 
5.287376201806e-04 -6.943007065209e-06 0.0 
-6.943007065209e-06 7.779534023737e-05 0.0 
0.0 0.0 0.0 
3.486964673400e-04 3.842082297662e-06 0.0 
3.842082297662e-06 5.647624865740e-04 0.0 
0.0 0.0 0.0 
1.931506428690e-04 -7.426057300840e-06 0.0 
-7.426057300840e-06 1.005472350408e-03 0.0 
0.0 0.0 0.0 
7.434818840143e-05 -1.498131891511e-05 0.0 
-1.498131891511e-05 1.478652915176e-03 0.0 
0.0 0.0 0.0 
-2.354623577009e-05 -2.446740647603e-05 0.0 
-2.446740647603e-05 1.914116038668e-03 0.0 
0.0 0.0 0.0 
-8.131910152287e-05 -2.817279850061e-05 0.0 
-2.817279850061e-05 2.319034887712e-03 0.0 
0.0 0.0 0.0 
-1.135491763441e-04 -3.029225473634e-05 0.0 
-3.029225473634e-05 2.706384520638e-03 0.0 
0.0 0.0 0.0 
-1.244419926070e-04 -3.315273749078e-05 0.0 
-3.315273749078e-05 3.079238787908e-03 0.0 
0.0 0.0 0.0 
-1.169890410376e-04 -3.295863589415e-05 0.0 
-3.295863589415e-05 3.444060888974e-03 0.0 
0.0 0.0 0.0 
-1.022054996645e-04 -2.815548358238e-05 0.0 
-2.815548358238e-05 3.810120254432e-03 0.0 
0.0 0.0 0.0 
-8.547081585127e-05 -1.578147778849e-05 0.0 
-1.578147778849e-05 4.187877667030e-03 0.0 
0.0 0.0 0.0 
-6.073948301462e-05 -4.621263384974e-06 0.0 
-4.621263384974e-06 4.559280378153e-03 0.0 
0.0 0.0 0.0 
-3.658805967277e-05 9.076273877107e-07 0.0 
9.076273877107e-07 4.905473271363e-03 0.0 
0.0 0.0 0.0 
-2.179351039448e-05 -1.228564709992e-05 0.0 
-1.228564709992e-05 5.290650006636e-03 0.0 
0.0 0.0 0.0 
-1.128283318978e-05 -7.307972936490e-06 0.0 
-7.307972936490e-06 5.699428093972e-03 0.0 
0.0 0.0 0.0 
-7.475886641628e-06 -2.031123127969e-06 0.0 
-2.031123127969e-06 6.106243925619e-03 0.0 
0.0 0.0 0.0 
-8.795990236251e-06 1.345304403827e-06 0.0 
1.345304403827e-06 6.524953440485e-03 0.0 
0.0 0.0 0.0 
-1.188683155033e-05 6.853381515019e-06 0.0 
6.853381515019e-06 6.953121541306e-03 0.0 
0.0 0.0 0.0 
-8.349265866977e-06 1.169442765761e-05 0.0 
1.169442765761e-05 7.362713520242e-03 0.0 
0.0 0.0 0.0 
-3.646370322811e-05 7.887634732291e-05 0.0 
7.887634732291e-05 1.291771509599e-02 0.0 
0.0 0.0 0.0 
-4.155802213039e-05 1.452638153616e-04 0.0 
1.452638153616e-04 1.289498571057e-02 0.0 
0.0 0.0 0.0 
-4.152930972319e-05 2.068232848501e-04 0.0 
2.068232848501e-04 1.289449152541e-02 0.0 
0.0 0.0 0.0 
-4.116979715781e-05 2.953303810210e-04 0.0 
2.953303810210e-04 1.288195970660e-02 0.0 
0.0 0.0 0.0 
-5.128316813452e-05 3.634058875667e-04 0.0 
3.634058875667e-04 1.285780911793e-02 0.0 
0.0 0.0 0.0 
-4.690275941347e-05 4.502090913950e-04 0.0 
4.502090913950e-04 1.285019811594e-02 0.0 
0.0 0.0 0.0 
-5.231620263391e-05 5.420659589355e-04 0.0 
5.420659589355e-04 1.282462936498e-02 0.0 
0.0 0.0 0.0 
-5.596075031430e-05 6.400431544328e-04 0.0 
6.400431544328e-04 1.278404415093e-02 0.0 
0.0 0.0 0.0 
-5.794095042462e-05 7.355457560399e-04 0.0 
7.355457560399e-04 1.275389151745e-02 0.0 
0.0 0.0 0.0 
-5.473731586877e-05 8.541455887327e-04 0.0 
8.541455887327e-04 1.269958618735e-02 0.0 
0.0 0.0 0.0 
-7.181841732766e-05 9.601176220049e-04 0.0 
9.601176220049e-04 1.263056557624e-02 0.0 
0.0 0.0 0.0 
-6.702612716651e-05 1.086993661130e-03 0.0 
1.086993661130e-03 1.256318532905e-02 0.0 
0.0 0.0 0.0 
-7.308590174437e-05 1.220503952205e-03 0.0 
1.220503952205e-03 1.247036606667e-02 0.0 
0.0 0.0 0.0 
-7.146351354540e-05 1.353007991194e-03 0.0 
1.353007991194e-03 1.235683575389e-02 0.0 
0.0 0.0 0.0 
-8.061838880617e-05 1.487923566494e-03 0.0 
1.487923566494e-03 1.222656287793e-02 0.0 
0.0 0.0 0.0 
-7.827431215128e-05 1.624387671087e-03 0.0 
1.624387671087e-03 1.206610946163e-02 0.0 
0.0 0.0 0.0 
-8.458268343333e-05 1.760994029072e-03 0.0 
1.760994029072e-03 1.189207696647e-02 0.0 
0.0 0.0 0.0 
-8.196878027748e-05 1.905238891310e-03 0.0 
1.905238891310e-03 1.169390440797e-02 0.0 
0.0 0.0 0.0 
-7.168007681239e-05 2.034346164451e-03 0.0 
2.034346164451e-03 1.147528478299e-02 0.0 
0.0 0.0 0.0 
-5.750574430100e-05 2.153558452844e-03 0.0 
2.153558452844e-03 1.123431714285e-02 0.0 
0.0 0.0 0.0 
-4.267687026560e-05 2.254408144158e-03 0.0 
2.254408144158e-03 1.095993404622e-02 0.0 
0.0 0.0 0.0 
-3.950765868876e-05 2.331779027626e-03 0.0 
2.331779027626e-03 1.066880988551e-02 0.0 
0.0 0.0 0.0 
-2.076487717854e-05 2.386557389413e-03 0.0 
2.386557389413e-03 1.036034319053e-02 0.0 
0.0 0.0 0.0 
-5.691378753873e-06 2.410792184165e-03 0.0 
2.410792184165e-03 1.004126460809e-02 0.0 
0.0 0.0 0.0 
8.393306458077e-06 2.407120628572e-03 0.0 
2.407120628572e-03 9.722752380411e-03 0.0 
0.0 0.0 0.0 
2.715688057705e-05 2.376424366066e-03 0.0 
2.376424366066e-03 9.407815112627e-03 0.0 
0.0 0.0 0.0 
3.951719261493e-05 2.309849423654e-03 0.0 
2.309849423654e-03 9.097513081328e-03 0.0 
0.0 0.0 0.0 
6.190762345456e-05 2.214226524186e-03 0.0 
2.214226524186e-03 8.801855792655e-03 0.0 
0.0 0.0 0.0 
6.970516390300e-05 2.089508408825e-03 0.0 
2.089508408825e-03 8.520886223497e-03 0.0 
0.0 0.0 0.0 
6.901817494135e-05 1.946288613405e-03 0.0 
1.946288613405e-03 8.294110903627e-03 0.0 
0.0 0.0 0.0 
8.820617564864e-05 1.791561016186e-03 0.0 
1.791561016186e-03 8.051015596395e-03 0.0 
0.0 0.0 0.0 
1.044280879362e-04 1.613882563085e-03 0.0 
1.613882563085e-03 7.824772355001e-03 0.0 
0.0 0.0 0.0 
1.050660323097e-04 1.413319316884e-03 0.0 
1.413319316884e-03 7.650679968619e-03 0.0 
0.0 0.0 0.0 
1.026972958672e-04 1.226042316273e-03 0.0 
1.226042316273e-03 7.537884414983e-03 0.0 
0.0 0.0 0.0 
1.030295415513e-04 1.044005356380e-03 0.0 
1.044005356380e-03 7.440190843820e-03 0.0 
0.0 0.0 0.0 
8.384858914789e-05 8.643130291076e-04 0.0 
8.643130291076e-04 7.376094371060e-03 0.0 
0.0 0.0 0.0 
9.137486130628e-05 7.054246764096e-04 0.0 
7.054246764096e-04 7.342591521494e-03 0.0 
0.0 0.0 0.0 
7.222186002768e-05 5.542423455173e-04 0.0 
5.542423455173e-04 7.316307754616e-03 0.0 
0.0 0.0 0.0 
7.585694994986e-05 4.245376267569e-04 0.0 
4.245376267569e-04 7.310969537523e-03 0.0 
0.0 0.0 0.0 
5.712781096704e-05 3.106371837378e-04 0.0 
3.106371837378e-04 7.319262759074e-03 0.0 
0.0 0.0 0.0 
4.359899183045e-05 2.185327626968e-04 0.0 
2.185327626968e-04 7.358411520027e-03 0.0 
0.0 0.0 0.0 
3.603829717225e-05 1.480885843758e-04 0.0 
1.480885843758e-04 7.420084962547e-03 0.0 
0.0 0.0 0.0 
3.137612959314e-05 8.993060306624e-05 0.0 
8.993060306624e-05 7.462305695544e-03 0.0 
0.0 0.0 0.0 
2.432545123771e-05 4.327571421700e-05 0.0 
4.327571421700e-05 7.440255379588e-03 0.0 
0.0 0.0 0.0 
1.628728240936e-05 1.555953946732e-05 0.0 
1.555953946732e-05 7.530658105712e-03 0.0 
0.0 0.0 0.0 
4.968691410904e-06 -1.463205121686e-06 0.0 
-1.463205121686e-06 7.541321962390e-03 0.0 
0.0 0.0 0.0 
1.599542648556e-06 -1.460501234847e-05 0.0 
-1.460501234847e-05 7.576605990775e-03 0.0 
0.0 0.0 0.0 
6.813500149268e-08 -7.231153399840e-06 0.0 
-7.231153399840e-06 7.612271617032e-03 0.0 
0.0 0.0 0.0 
-3.086301211375e-06 -6.916440943731e-06 0.0 
-6.916440943731e-06 7.622215738839e-03 0.0 
0.0 0.0 0.0 
-7.145428253354e-04 -1.072246567766e-05 0.0 
-1.072246567766e-05 9.743645163838e-03 0.0 
0.0 0.0 0.0 
-6.981178125735e-04 -9.523888411871e-06 0.0 
-9.523888411871e-06 1.015906608801e-02 0.0 
0.0 0.0 0.0 
-6.632536436289e-04 -6.701133322696e-06 0.0 
-6.701133322696e-06 1.055800886048e-02 0.0 
0.0 0.0 0.0 
-6.145016012016e-04 -4.190919240816e-06 0.0 
-4.190919240816e-06 1.093863090729e-02 0.0 
0.0 0.0 0.0 
-5.507818479731e-04 3.268247661268e-07 0.0 
3.268247661268e-07 1.131556650320e-02 0.0 
0.0 0.0 0.0 
-4.695062034576e-04 2.857566629099e-06 0.0 
2.857566629099e-06 1.168083553720e-02 0.0 
0.0 0.0 0.0 
-3.769580763801e-04 6.230752723566e-06 0.0 
6.230752723566e-06 1.203230775843e-02 0.0 
0.0 0.0 0.0 
-2.651171655832e-04 9.279909983086e-06 0.0 
9.279909983086e-06 1.237145948238e-02 0.0 
0.0 0.0 0.0 
-1.511824824295e-04 9.670310612158e-06 0.0 
9.670310612158e-06 1.270710716475e-02 0.0 
0.0 0.0 0.0 
-1.790530613620e-03 2.454742659071e-03 0.0 
2.454742659071e-03 -2.260569716110e-03 0.0 
0.0 0.0 0.0 
-1.184927282558e-03 3.464217491733e-04 0.0 
3.464217491733e-04 9.312285248537e-03 0.0 
0.0 0.0 0.0 
-1.672695442394e-03 2.801851651635e-03 0.0 
2.801851651635e-03 7.127193929061e-04 0.0 
0.0 0.0 0.0 
-1.557537002907e-03 2.635751412751e-03 0.0 
2.635751412751e-03 2.176096412392e-03 0.0 
0.0 0.0 0.0 
-1.580624206316e-03 2.465375696759e-03 0.0 
2.465375696759e-03 3.719953180494e-03 0.0 
0.0 0.0 0.0 
-1.528430517181e-03 2.148862365861e-03 0.0 
2.148862365861e-03 5.186870587971e-03 0.0 
0.0 0.0 0.0 
-1.504961598966e-03 1.433486327224e-03 0.0 
1.433486327224e-03 6.809099314980e-03 0.0 
0.0 0.0 0.0 
-1.162719161881e-03 8.166777636404e-04 0.0 
8.166777636404e-04 7.471680691674e-03 0.0 
0.0 0.0 0.0 
-1.148477138002e-03 6.289593891257e-04 0.0 
6.289593891257e-04 7.913183583685e-03 0.0 
0.0 0.0 0.0 
-1.176830158444e-03 4.842517302426e-04 0.0 
4.842517302426e-04 8.376221849795e-03 0.0 
0.0 0.0 0.0 
-1.188629968575e-03 3.942344113901e-04 0.0 
3.942344113901e-04 8.836376927981e-03 0.0 
0.0 0.0 0.0 
-7.471739945101e-04 -2.161736404959e-05 0.0 
-2.161736404959e-05 7.325036822472e-03 0.0 
0.0 0.0 0.0 
-7.131159243857e-04 -3.308705249816e-05 0.0 
-3.308705249816e-05 7.578194952574e-03 0.0 
0.0 0.0 0.0 
-7.085659747266e-04 -3.074898637743e-05 0.0 
-3.074898637743e-05 8.006487886304e-03 0.0 
0.0 0.0 0.0 
-7.160541706609e-04 -3.564215769880e-05 0.0 
-3.564215769880e-05 8.441900218080e-03 0.0 
0.0 0.0 0.0 
-7.228411061037e-04 -2.469391302876e-05 0.0 
-2.469391302876e-05 8.873314367107e-03 0.0 
0.0 0.0 0.0 
-7.271576553670e-04 6.476230533624e-06 0.0 
6.476230533624e-06 9.262364257544e-03 0.0 
0.0 0.0 0.0 
-7.311623128733e-04 -2.454405891702e-06 0.0 
-2.454405891702e-06 9.291347528898e-03 0.0 
0.0 0.0 0.0 
-7.428113371732e-04 -2.687550647513e-06 0.0 
-2.687550647513e-06 9.297662010835e-03 0.0 
0.0 0.0 0.0 
-7.558347891793e-04 -3.755793551309e-06 0.0 
-3.755793551309e-06 9.296522252393e-03 0.0 
0.0 0.0 0.0 
-7.700119050655e-04 4.583161526621e-06 0.0 
4.583161526621e-06 9.358238166309e-03 0.0 
0.0 0.0 0.0 
-7.904669077567e-04 3.843918226940e-06 0.0 
3.843918226940e-06 9.314435084362e-03 0.0 
0.0 0.0 0.0 
-8.137350340737e-04 7.129881295952e-06 0.0 
7.129881295952e-06 9.314741970391e-03 0.0 
0.0 0.0 0.0 
-8.391682349345e-04 1.788407977753e-05 0.0 
1.788407977753e-05 9.323739686945e-03 0.0 
0.0 0.0 0.0 
-8.776050044647e-04 3.067055976817e-05 0.0 
3.067055976817e-05 9.339928776759e-03 0.0 
0.0 0.0 0.0 
-9.163038410037e-04 5.107227934835e-05 0.0 
5.107227934835e-05 9.340966068951e-03 0.0 
0.0 0.0 0.0 
-9.557750795719e-04 7.882778949529e-05 0.0 
7.882778949529e-05 9.338883658911e-03 0.0 
0.0 0.0 0.0 
-1.003022238734e-03 1.167774948584e-04 0.0 
1.167774948584e-04 9.334868803756e-03 0.0 
0.0 0.0 0.0 
-1.052783439664e-03 1.728026843182e-04 0.0 
1.728026843182e-04 9.326106441694e-03 0.0 
0.0 0.0 0.0 
-1.107984427621e-03 2.469998341360e-04 0.0 
2.469998341360e-04 9.317692038240e-03 0.0 
0.0 0.0 0.0 
-2.467053834835e-03 1.179831735587e-03 0.0 
1.179831735587e-03 -3.374661362534e-03 0.0 
0.0 0.0 0.0 
-3.180847899421e-03 2.036968072135e-04 0.0 
2.036968072135e-04 -3.450260298502e-03 0.0 
0.0 0.0 0.0 
-3.441218401447e-03 -2.363811008627e-04 0.0 
-2.363811008627e-04 -3.351862663333e-03 0.0 
0.0 0.0 0.0 
-2.977264043398e-03 -8.982523853323e-04 0.0 
-8.982523853323e-04 -3.142529513380e-03 0.0 
0.0 0.0 0.0 
-2.014918100338e-03 -1.703032402432e-03 0.0 
-1.703032402432e-03 -1.615000263462e-03 0.0 
0.0 0.0 0.0 
-1.245909373699e-03 -1.162272879436e-03 0.0 
-1.162272879436e-03 6.585046589421e-06 0.0 
0.0 0.0 0.0 
-5.402739129966e-04 -3.423307872737e-04 0.0 
-3.423307872737e-04 2.167588812472e-04 0.0 
0.0 0.0 0.0 
-3.188880292275e-05 -9.906931485269e-05 0.0 
-9.906931485269e-05 1.121013775693e-04 0.0 
0.0 0.0 0.0 
2.621627999311e-04 -5.873451330796e-05 0.0 
-5.873451330796e-05 2.277406727661e-05 0.0 
0.0 0.0 0.0 
3.353160719384e-04 -5.467637454072e-05 0.0 
-5.467637454072e-05 -1.574667939700e-05 0.0 
0.0 0.0 0.0 
3.947080912274e-04 -3.807275802465e-05 0.0 
-3.807275802465e-05 -3.473178671032e-05 0.0 
0.0 0.0 0.0 
4.710441901203e-04 -3.454003051863e-05 0.0 
-3.454003051863e-05 -6.497000858123e-05 0.0 
0.0 0.0 0.0 
5.398025250108e-04 -1.353474756206e-05 0.0 
-1.353474756206e-05 -1.039821128648e-04 0.0 
0.0 0.0 0.0 
6.013047880801e-04 -2.173750246244e-05 0.0 
-2.173750246244e-05 -1.348308501904e-04 0.0 
0.0 0.0 0.0 
6.027090970385e-04 -2.153998869755e-05 0.0 
-2.153998869755e-05 -1.383228353391e-04 0.0 
0.0 0.0 0.0 
6.081854253227e-04 -1.418683803244e-05 0.0 
-1.418683803244e-05 -1.396593787926e-04 0.0 
0.0 0.0 0.0 
6.189646430258e-04 -7.479482479092e-06 0.0 
-7.479482479092e-06 -1.450725486402e-04 0.0 
0.0 0.0 0.0 
6.486087625790e-04 2.815879849760e-06 0.0 
2.815879849760e-06 -1.670099852931e-04 0.0 
0.0 0.0 0.0 
6.801624279519e-04 1.906801071561e-05 0.0 
1.906801071561e-05 -1.862699316847e-04 0.0 
0.0 0.0 0.0 
-1.029537099679e-03 5.468007859007e-04 0.0 
5.468007859007e-04 7.250740105486e-03 0.0 
0.0 0.0 0.0 
-6.376860007697e-04 3.670536908982e-04 0.0 
3.670536908982e-04 7.187468546748e-03 0.0 
0.0 0.0 0.0 
-4.282655619150e-04 2.035281706900e-04 0.0 
2.035281706900e-04 7.171568689619e-03 0.0 
0.0 0.0 0.0 
-3.479755974444e-04 9.303473717730e-05 0.0 
9.303473717730e-05 7.163223902739e-03 0.0 
0.0 0.0 0.0 
-3.103590460356e-04 3.912733537630e-05 0.0 
3.912733537630e-05 7.168064137641e-03 0.0 
0.0 0.0 0.0 
-3.108466963609e-04 2.786223747478e-06 0.0 
2.786223747478e-06 7.175642703418e-03 0.0 
0.0 0.0 0.0 
-3.301992418157e-04 -1.885001840900e-05 0.0 
-1.885001840900e-05 7.191182431837e-03 0.0 
0.0 0.0 0.0 
-3.616725221863e-04 -3.346095712906e-05 0.0 
-3.346095712906e-05 7.208436666235e-03 0.0 
0.0 0.0 0.0 
-3.981714685119e-04 -4.225636947517e-05 0.0 
-4.225636947517e-05 7.227509176433e-03 0.0 
0.0 0.0 0.0 
-4.365280812510e-04 -4.729809205763e-05 0.0 
-4.729809205763e-05 7.246639169967e-03 0.0 
0.0 0.0 0.0 
-4.740212131199e-04 -4.920815826029e-05 0.0 
-4.920815826029e-05 7.265029335243e-03 0.0 
0.0 0.0 0.0 
-5.093947831879e-04 -4.904677237217e-05 0.0 
-4.904677237217e-05 7.281798573271e-03 0.0 
0.0 0.0 0.0 
-5.418986077741e-04 -4.736133004194e-05 0.0 
-4.736133004194e-05 7.296852043293e-03 0.0 
0.0 0.0 0.0 
-5.710461508620e-04 -4.447900926460e-05 0.0 
-4.447900926460e-05 7.310085512460e-03 0.0 
0.0 0.0 0.0 
-5.965191293938e-04 -4.059733260080e-05 0.0 
-4.059733260080e-05 7.321389374459e-03 0.0 
0.0 0.0 0.0 
-6.181568007366e-04 -3.582747795975e-05 0.0 
-3.582747795975e-05 7.330737915836e-03 0.0 
0.0 0.0 0.0 
-6.359071730894e-04 -3.021657083496e-05 0.0 
-3.021657083496e-05 7.338287471695e-03 0.0 
0.0 0.0 0.0 
-6.497615154316e-04 -2.344845101311e-05 0.0 
-2.344845101311e-05 7.344496511749e-03 0.0 
0.0 0.0 0.0 
-6.595995063374e-04 -1.489007814652e-05 0.0 
-1.489007814652e-05 7.349841155486e-03 0.0 
0.0 0.0 0.0 
-6.656177068875e-04 -4.080741995193e-06 0.0 
-4.080741995193e-06 7.353258877620e-03 0.0 
0.0 0.0 0.0 
-6.833660818622e-04 5.943606688844e-06 0.0 
5.943606688844e-06 7.344057956555e-03 0.0 
0.0 0.0 0.0 
-7.168639538819e-04 2.560318025272e-05 0.0 
2.560318025272e-05 7.302858713788e-03 0.0 
0.0 0.0 0.0 
-7.070328888624e-04 9.972426804100e-06 0.0 
9.972426804100e-06 7.577382766099e-03 0.0 
0.0 0.0 0.0 
-6.905945424647e-04 -6.434752932778e-06 0.0 
-6.434752932778e-06 7.574626335659e-03 0.0 
0.0 0.0 0.0 
-6.826234895436e-04 -1.871384923262e-05 0.0 
-1.871384923262e-05 7.571395041514e-03 0.0 
0.0 0.0 0.0 
-6.750561055324e-04 -2.809364972076e-05 0.0 
-2.809364972076e-05 7.566992859900e-03 0.0 
0.0 0.0 0.0 
-6.666739832761e-04 -3.690551937999e-05 0.0 
-3.690551937999e-05 7.562561112136e-03 0.0 
0.0 0.0 0.0 
-6.567628838232e-04 -4.508013359111e-05 0.0 
-4.508013359111e-05 7.557675947213e-03 0.0 
0.0 0.0 0.0 
-6.449115275769e-04 -5.267476120878e-05 0.0 
-5.267476120878e-05 7.551791219091e-03 0.0 
0.0 0.0 0.0 
-6.309880393864e-04 -5.948807446042e-05 0.0 
-5.948807446042e-05 7.544531993349e-03 0.0 
0.0 0.0 0.0 
-6.151601055984e-04 -6.513900752743e-05 0.0 
-6.513900752743e-05 7.535968847385e-03 0.0 
0.0 0.0 0.0 
-5.980636582588e-04 -6.925210718491e-05 0.0 
-6.925210718491e-05 7.526333000403e-03 0.0 
0.0 0.0 0.0 
-5.802989991619e-04 -7.139509449766e-05 0.0 
-7.139509449766e-05 7.515752807243e-03 0.0 
0.0 0.0 0.0 
-5.626981553051e-04 -7.078438854004e-05 0.0 
-7.078438854004e-05 7.504284881888e-03 0.0 
0.0 0.0 0.0 
-5.466538978112e-04 -6.604625555451e-05 0.0 
-6.604625555451e-05 7.492164604761e-03 0.0 
0.0 0.0 0.0 
-5.346496191200e-04 -5.491320500578e-05 0.0 
-5.491320500578e-05 7.480906474214e-03 0.0 
0.0 0.0 0.0 
-5.306535818967e-04 -3.591488783254e-05 0.0 
-3.591488783254e-05 7.471075482275e-03 0.0 
0.0 0.0 0.0 
-5.387834757978e-04 -4.146107701885e-06 0.0 
-4.146107701885e-06 7.464335921209e-03 0.0 
0.0 0.0 0.0 
-5.667945844181e-04 4.399990334425e-05 0.0 
4.399990334425e-05 7.458938519920e-03 0.0 
0.0 0.0 0.0 
-6.177233484584e-04 1.249208425860e-04 0.0 
1.249208425860e-04 7.458116205565e-03 0.0 
0.0 0.0 0.0 
-7.425088889387e-04 2.733974079119e-04 0.0 
2.733974079119e-04 7.481769735485e-03 0.0 
0.0 0.0 0.0 
-8.462134649463e-04 4.147378715450e-04 0.0 
4.147378715450e-04 7.434486751813e-03 0.0 
0.0 0.0 0.0 
-9.848767374003e-04 3.684908747914e-04 0.0 
3.684908747914e-04 7.903183496588e-03 0.0 
0.0 0.0 0.0 
-9.291159472851e-04 2.494658115070e-04 0.0 
2.494658115070e-04 7.981213516763e-03 0.0 
0.0 0.0 0.0 
-8.422298551430e-04 1.218233547372e-04 0.0 
1.218233547372e-04 7.974764276967e-03 0.0 
0.0 0.0 0.0 
-7.927707853532e-04 4.582747054694e-05 0.0 
4.582747054694e-05 7.978210693258e-03 0.0 
0.0 0.0 0.0 
-7.550214737588e-04 -2.560720957086e-06 0.0 
-2.560720957086e-06 7.982092894875e-03 0.0 
0.0 0.0 0.0 
-7.307436878446e-04 -3.486055821608e-05 0.0 
-3.486055821608e-05 7.984613229594e-03 0.0 
0.0 0.0 0.0 
-7.152186653093e-04 -5.376725898317e-05 0.0 
-5.376725898317e-05 7.989147871422e-03 0.0 
0.0 0.0 0.0 
-7.054531703129e-04 -6.373729380343e-05 0.0 
-6.373729380343e-05 7.992749611619e-03 0.0 
0.0 0.0 0.0 
-6.998354861193e-04 -6.783537246074e-05 0.0 
-6.783537246074e-05 7.995963238633e-03 0.0 
0.0 0.0 0.0 
-6.969210910978e-04 -6.796137418535e-05 0.0 
-6.796137418535e-05 7.998849130321e-03 0.0 
0.0 0.0 0.0 
-6.962218206691e-04 -6.519349661629e-05 0.0 
-6.519349661629e-05 8.001837520526e-03 0.0 
0.0 0.0 0.0 
-6.967832948361e-04 -5.980995886112e-05 0.0 
-5.980995886112e-05 8.004462259216e-03 0.0 
0.0 0.0 0.0 
-6.973970401971e-04 -5.288551812141e-05 0.0 
-5.288551812141e-05 8.006182663426e-03 0.0 
0.0 0.0 0.0 
-6.985912041538e-04 -4.519432813701e-05 0.0 
-4.519432813701e-05 8.007591797808e-03 0.0 
0.0 0.0 0.0 
-7.001983896964e-04 -3.712436133614e-05 0.0 
-3.712436133614e-05 8.009144124608e-03 0.0 
0.0 0.0 0.0 
-7.027240897487e-04 -2.914979795240e-05 0.0 
-2.914979795240e-05 8.011130146827e-03 0.0 
0.0 0.0 0.0 
-7.058981265676e-04 -2.236026353872e-05 0.0 
-2.236026353872e-05 8.012936567692e-03 0.0 
0.0 0.0 0.0 
-7.091613344781e-04 -1.748427140924e-05 0.0 
-1.748427140924e-05 8.012435733456e-03 0.0 
0.0 0.0 0.0 
-7.093315616518e-04 7.857879065095e-06 0.0 
7.857879065095e-06 8.008887777384e-03 0.0 
0.0 0.0 0.0 
-7.187518457206e-04 5.283432830332e-07 0.0 
5.283432830332e-07 8.445589876432e-03 0.0 
0.0 0.0 0.0 
-7.205087073703e-04 -1.885081635150e-05 0.0 
-1.885081635150e-05 8.448241231909e-03 0.0 
0.0 0.0 0.0 
-7.227213292258e-04 -2.719980196410e-05 0.0 
-2.719980196410e-05 8.449748788930e-03 0.0 
0.0 0.0 0.0 
-7.259991384560e-04 -3.377207189555e-05 0.0 
-3.377207189555e-05 8.450876471124e-03 0.0 
0.0 0.0 0.0 
-7.303563200873e-04 -4.012205256253e-05 0.0 
-4.012205256253e-05 8.451893642588e-03 0.0 
0.0 0.0 0.0 
-7.373734474041e-04 -4.667512747353e-05 0.0 
-4.667512747353e-05 8.453812076307e-03 0.0 
0.0 0.0 0.0 
-7.460821508663e-04 -5.197654219438e-05 0.0 
-5.197654219438e-05 8.455916359570e-03 0.0 
0.0 0.0 0.0 
-7.575272905077e-04 -5.667687618534e-05 0.0 
-5.667687618534e-05 8.457886477303e-03 0.0 
0.0 0.0 0.0 
-7.704715079409e-04 -5.757283187742e-05 0.0 
-5.757283187742e-05 8.458379589189e-03 0.0 
0.0 0.0 0.0 
-7.878020999222e-04 -5.403992634361e-05 0.0 
-5.403992634361e-05 8.460194642946e-03 0.0 
0.0 0.0 0.0 
-8.092146505476e-04 -4.587139666774e-05 0.0 
-4.587139666774e-05 8.461783865591e-03 0.0 
0.0 0.0 0.0 
-8.353765823468e-04 -3.005320930044e-05 0.0 
-3.005320930044e-05 8.462111015950e-03 0.0 
0.0 0.0 0.0 
-8.683879120844e-04 -3.999468525883e-06 0.0 
-3.999468525883e-06 8.461630179586e-03 0.0 
0.0 0.0 0.0 
-9.082323446666e-04 3.682165752391e-05 0.0 
3.682165752391e-05 8.456078582419e-03 0.0 
0.0 0.0 0.0 
-9.539587855683e-04 1.021528603360e-04 0.0 
1.021528603360e-04 8.450487360930e-03 0.0 
0.0 0.0 0.0 
-1.026058775886e-03 2.052764761315e-04 0.0 
2.052764761315e-04 8.456222765746e-03 0.0 
0.0 0.0 0.0 
-1.069469523052e-03 2.983188217169e-04 0.0 
2.983188217169e-04 8.371655936164e-03 0.0 
0.0 0.0 0.0 
-1.103799793804e-03 2.584922457366e-04 0.0 
2.584922457366e-04 8.823613586195e-03 0.0 
0.0 0.0 0.0 
-1.069234250208e-03 1.879330792178e-04 0.0 
1.879330792178e-04 8.911600866698e-03 0.0 
0.0 0.0 0.0 
-1.009458566879e-03 1.095539010742e-04 0.0 
1.095539010742e-04 8.911234796094e-03 0.0 
0.0 0.0 0.0 
-9.591081310806e-04 6.106522663410e-05 0.0 
6.106522663410e-05 8.914729389488e-03 0.0 
0.0 0.0 0.0 
-9.173139062700e-04 2.634447961304e-05 0.0 
2.634447961304e-05 8.916421091926e-03 0.0 
0.0 0.0 0.0 
-8.807132121465e-04 3.993955987004e-06 0.0 
3.993955987004e-06 8.915036329866e-03 0.0 
0.0 0.0 0.0 
-8.494673155977e-04 -1.056557764011e-05 0.0 
-1.056557764011e-05 8.910794926656e-03 0.0 
0.0 0.0 0.0 
-8.226973498783e-04 -2.044874376492e-05 0.0 
-2.044874376492e-05 8.907383523306e-03 0.0 
0.0 0.0 0.0 
-7.981251639704e-04 -2.300867665683e-05 0.0 
-2.300867665683e-05 8.903666126632e-03 0.0 
0.0 0.0 0.0 
-7.798690577478e-04 -2.522403041719e-05 0.0 
-2.522403041719e-05 8.898084330424e-03 0.0 
0.0 0.0 0.0 
-7.635958702572e-04 -2.357886376964e-05 0.0 
-2.357886376964e-05 8.893786533206e-03 0.0 
0.0 0.0 0.0 
-7.512081606254e-04 -2.294877377200e-05 0.0 
-2.294877377200e-05 8.889326901430e-03 0.0 
0.0 0.0 0.0 
-7.420225250768e-04 -1.945312442668e-05 0.0 
-1.945312442668e-05 8.886920535509e-03 0.0 
0.0 0.0 0.0 
-7.335343421355e-04 -1.671886777062e-05 0.0 
-1.671886777062e-05 8.882162496726e-03 0.0 
0.0 0.0 0.0 
-7.281794557437e-04 -1.602876576804e-05 0.0 
-1.602876576804e-05 8.881614495327e-03 0.0 
0.0 0.0 0.0 
-7.282670565887e-04 1.183146829996e-05 0.0 
1.183146829996e-05 8.882260834046e-03 0.0 
0.0 0.0 0.0 
-1.675094738577e-03 3.140648014386e-03 0.0 
3.140648014386e-03 -4.327275397739e-04 0.0 
0.0 0.0 0.0 
-1.579460156590e-03 2.713252586024e-03 0.0 
2.713252586024e-03 1.422835463279e-03 0.0 
0.0 0.0 0.0 
-1.560508699652e-03 2.553860288647e-03 0.0 
2.553860288647e-03 2.954223831725e-03 0.0 
0.0 0.0 0.0 
-1.582876226172e-03 2.338593391065e-03 0.0 
2.338593391065e-03 4.472960038584e-03 0.0 
0.0 0.0 0.0 
-1.597805933268e-03 2.070351062164e-03 0.0 
2.070351062164e-03 5.921692910774e-03 0.0 
0.0 0.0 0.0 
-1.343382788672e-03 1.012652360861e-03 0.0 
1.012652360861e-03 7.314191807794e-03 0.0 
0.0 0.0 0.0 
-1.178777361527e-03 7.537668706945e-04 0.0 
7.537668706945e-04 7.744944139278e-03 0.0 
0.0 0.0 0.0 
-1.185747024189e-03 5.760339201508e-04 0.0 
5.760339201508e-04 8.196155934882e-03 0.0 
0.0 0.0 0.0 
-1.201400203527e-03 4.540383711470e-04 0.0 
4.540383711470e-04 8.653271316858e-03 0.0 
0.0 0.0 0.0 
-1.190193456968e-03 3.820693120366e-04 0.0 
3.820693120366e-04 9.106378964150e-03 0.0 
0.0 0.0 0.0 
-1.276688925664e-03 2.878383163184e-03 0.0 
2.878383163184e-03 1.531129645666e-03 0.0 
0.0 0.0 0.0 
3.081063305282e-04 1.282779341918e-03 0.0 
1.282779341918e-03 7.305133633118e-03 0.0 
0.0 0.0 0.0 
-6.830558034534e-05 -2.056972818522e-04 0.0 
-2.056972818522e-04 2.536977305144e-04 0.0 
0.0 0.0 0.0 
-1.193732941395e-03 -1.694156162042e-03 0.0 
-1.694156162042e-03 -2.986336533562e-03 0.0 
0.0 0.0 0.0 
2.154088557514e-04 4.757696432079e-04 0.0 
4.757696432079e-04 7.062852636375e-03 0.0 
0.0 0.0 0.0 
-1.392984559382e-03 2.432286607139e-03 0.0 
2.432286607139e-03 4.735606240990e-03 0.0 
0.0 0.0 0.0 
-8.793427463479e-05 -7.862832258117e-05 0.0 
-7.862832258117e-05 4.004696707792e-03 0.0 
0.0 0.0 0.0 
2.463251541210e-04 1.972688586070e-03 0.0 
1.972688586070e-03 8.086956241058e-03 0.0 
0.0 0.0 0.0 
-1.366411831071e-03 1.489060738160e-03 0.0 
1.489060738160e-03 7.257183860796e-03 0.0 
0.0 0.0 0.0 
6.067758528672e-05 2.347784683420e-03 0.0 
2.347784683420e-03 9.353710007185e-03 0.0 
0.0 0.0 0.0 
-1.308998539563e-03 7.757339312631e-04 0.0 
7.757339312631e-04 8.440998793017e-03 0.0 
0.0 0.0 0.0 
9.585134972290e-05 1.068654559058e-04 0.0 
1.068654559058e-04 7.244304991513e-03 0.0 
0.0 0.0 0.0 
4.014354870530e-04 -5.108165253356e-05 0.0 
-5.108165253356e-05 7.175789757478e-05 0.0 
0.0 0.0 0.0 
-1.215287174791e-04 2.250228214672e-03 0.0 
2.250228214672e-03 1.068094298952e-02 0.0 
0.0 0.0 0.0 
-1.248487954301e-03 5.092115819488e-04 0.0 
5.092115819488e-04 9.410446631431e-03 0.0 
0.0 0.0 0.0 
-1.018788192818e-04 -7.224341672815e-05 0.0 
-7.224341672815e-05 2.529959886239e-03 0.0 
0.0 0.0 0.0 
-2.506433477256e-05 -5.431431772370e-05 0.0 
-5.431431772370e-05 5.026077182384e-03 0.0 
0.0 0.0 0.0 
-2.187523314439e-04 1.927035864329e-03 0.0 
1.927035864329e-03 1.147059952605e-02 0.0 
0.0 0.0 0.0 
-2.190008971152e-04 1.384739983850e-03 0.0 
1.384739983850e-03 1.219759965511e-02 0.0 
0.0 0.0 0.0 
-1.404997460932e-04 3.984176126497e-04 0.0 
3.984176126497e-04 1.272791563989e-02 0.0 
0.0 0.0 0.0 
-1.851919933611e-04 6.741064305078e-04 0.0 
6.741064305078e-04 1.262203625135e-02 0.0 
0.0 0.0 0.0 
-1.967126605999e-04 1.002013957008e-03 0.0 
1.002013957008e-03 1.249281948989e-02 0.0 
0.0 0.0 0.0 
-1.119207690367e-03 3.055565671971e-04 0.0 
3.055565671971e-04 9.687396905492e-03 0.0 
0.0 0.0 0.0 
-9.195227381713e-04 1.062228078456e-04 0.0 
1.062228078456e-04 9.728841102542e-03 0.0 
0.0 0.0 0.0 
-8.139679835599e-04 4.916047621417e-05 0.0 
4.916047621417e-05 9.742486145521e-03 0.0 
0.0 0.0 0.0 
-5.840916927259e-04 2.362831656826e-05 0.0 
2.362831656826e-05 1.113226869317e-02 0.0 
0.0 0.0 0.0 
3.217677347234e-05 1.634908839859e-06 0.0 
1.634908839859e-06 7.344618725066e-03 0.0 
0.0 0.0 0.0 
-1.264105410478e-03 9.185604300430e-04 0.0 
9.185604300430e-04 -3.938622345498e-03 0.0 
0.0 0.0 0.0 
5.025841789086e-04 -2.412652014585e-05 0.0 
-2.412652014585e-05 4.248252905030e-05 0.0 
0.0 0.0 0.0 
-2.709535174598e-06 -1.966721307498e-05 0.0 
-1.966721307498e-05 6.293340539607e-03 0.0 
0.0 0.0 0.0 
-7.460991287284e-04 1.834039767099e-05 0.0 
1.834039767099e-05 9.673787270116e-03 0.0 
0.0 0.0 0.0 
1.270553967828e-04 -4.437471223934e-05 0.0 
-4.437471223934e-05 1.245242920992e-03 0.0 
0.0 0.0 0.0 
-2.610756000225e-04 1.633349130341e-03 0.0 
1.633349130341e-03 1.185708576259e-02 0.0 
0.0 0.0 0.0 
1.485714034745e-04 2.227309777719e-03 0.0 
2.227309777719e-03 8.731371252334e-03 0.0 
0.0 0.0 0.0 
-3.965764390549e-05 2.355551526094e-03 0.0 
2.355551526094e-03 1.004104625393e-02 0.0 
0.0 0.0 0.0 
3.135402864346e-04 1.672143373354e-03 0.0 
1.672143373354e-03 7.619290524410e-03 0.0 
0.0 0.0 0.0 
2.684485202861e-04 9.248114505594e-04 0.0 
9.248114505594e-04 7.140575177092e-03 0.0 
0.0 0.0 0.0 
-1.071454712337e-03 -1.184709984071e-03 0.0 
-1.184709984071e-03 2.526934887167e-04 0.0 
0.0 0.0 0.0 
-1.011154051248e-03 1.780719383796e-04 0.0 
1.780719383796e-04 9.709090526200e-03 0.0 
0.0 0.0 0.0 
1.745879633132e-04 2.444468439349e-04 0.0 
2.444468439349e-04 7.037480377591e-03 0.0 
0.0 0.0 0.0 
-4.318914846751e-04 3.960498313697e-05 0.0 
3.960498313697e-05 1.185075083176e-02 0.0 
0.0 0.0 0.0 
2.035518925766e-04 -8.362362460291e-05 0.0 
-8.362362460291e-05 1.666953578747e-04 0.0 
0.0 0.0 0.0 
-1.211134681966e-04 -8.456577234094e-05 0.0 
-8.456577234094e-05 3.260086592068e-03 0.0 
0.0 0.0 0.0 
-1.116327823142e-04 2.470545946164e-04 0.0 
2.470545946164e-04 1.279993641919e-02 0.0 
0.0 0.0 0.0 
-1.415239027144e-03 2.138615059571e-03 0.0 
2.138615059571e-03 6.130558480823e-03 0.0 
0.0 0.0 0.0 
-1.365892113285e-03 2.700043898973e-03 0.0 
2.700043898973e-03 3.189786801453e-03 0.0 
0.0 0.0 0.0 
-1.336804071069e-03 1.062433459061e-03 0.0 
1.062433459061e-03 7.923026264915e-03 0.0 
0.0 0.0 0.0 
-1.287108946073e-03 6.076000219588e-04 0.0 
6.076000219588e-04 8.931225571287e-03 0.0 
0.0 0.0 0.0 
-1.335063034176e-03 3.126648006285e-03 0.0 
3.126648006285e-03 -2.406169233147e-04 0.0 
0.0 0.0 0.0 
-6.786147584977e-04 1.379527779948e-05 0.0 
1.379527779948e-05 1.039198518608e-02 0.0 
0.0 0.0 0.0 
1.975271647137e-06 -1.367600333118e-05 0.0 
-1.367600333118e-05 7.479437508782e-03 0.0 
0.0 0.0 0.0 
5.483754621234e-04 -1.413316638251e-06 0.0 
-1.413316638251e-06 2.841289608368e-06 0.0 
0.0 0.0 0.0 
-2.098700921986e-04 6.215928513908e-05 0.0 
6.215928513908e-05 1.251987134419e-02 0.0 
0.0 0.0 0.0 
-1.230551568461e-03 4.859595062972e-04 0.0 
4.859595062972e-04 9.626188470718e-03 0.0 
0.0 0.0 0.0 
-1.255555552880e-03 6.403088557268e-04 0.0 
6.403088557268e-04 9.711911183457e-03 0.0 
0.0 0.0 0.0 
-1.209114868705e-03 5.846227700060e-04 0.0 
5.846227700060e-04 9.945131851161e-03 0.0 
0.0 0.0 0.0 
-1.227539638383e-03 7.743002516000e-04 0.0 
7.743002516000e-04 1.000987066417e-02 0.0 
0.0 0.0 0.0 
-1.183198137688e-03 7.309860654048e-04 0.0 
7.309860654048e-04 1.026817766366e-02 0.0 
0.0 0.0 0.0 
-1.172408066725e-03 9.023449907668e-04 0.0 
9.023449907668e-04 1.029948441371e-02 0.0 
0.0 0.0 0.0 
-1.214553691072e-03 9.632671227972e-04 0.0 
9.632671227972e-04 1.002341731968e-02 0.0 
0.0 0.0 0.0 
-1.136173826766e-03 1.084853135529e-03 0.0 
1.084853135529e-03 1.029293193273e-02 0.0 
0.0 0.0 0.0 
-1.167000286295e-03 1.159275234745e-03 0.0 
1.159275234745e-03 9.986614920673e-03 0.0 
0.0 0.0 0.0 
-1.119293969295e-03 8.585594929659e-04 0.0 
8.585594929659e-04 1.056334608175e-02 0.0 
0.0 0.0 0.0 
-1.070560060147e-03 1.268056895087e-03 0.0 
1.268056895087e-03 1.024325311042e-02 0.0 
0.0 0.0 0.0 
-1.086206456934e-03 1.352907008982e-03 0.0 
1.352907008982e-03 9.902941853509e-03 0.0 
0.0 0.0 0.0 
-9.758884318923e-04 1.446503519906e-03 0.0 
1.446503519906e-03 1.015114168242e-02 0.0 
0.0 0.0 0.0 
-9.732073289860e-04 1.536917601808e-03 0.0 
1.536917601808e-03 9.775052339233e-03 0.0 
0.0 0.0 0.0 
-1.080137413216e-03 1.459449805838e-03 0.0 
1.459449805838e-03 9.534526906804e-03 0.0 
0.0 0.0 0.0 
-9.429683137195e-04 1.646295243293e-03 0.0 
1.646295243293e-03 9.365208351611e-03 0.0 
0.0 0.0 0.0 
-1.049683389240e-03 1.588134472536e-03 0.0 
1.588134472536e-03 9.133513449938e-03 0.0 
0.0 0.0 0.0 
-8.831390600555e-04 1.774496731201e-03 0.0 
1.774496731201e-03 8.916264567377e-03 0.0 
0.0 0.0 0.0 
-7.764654456063e-04 1.806401844845e-03 0.0 
1.806401844845e-03 9.158946184609e-03 0.0 
0.0 0.0 0.0 
-6.866165865112e-04 1.924292445442e-03 0.0 
1.924292445442e-03 8.662885787539e-03 0.0 
0.0 0.0 0.0 
-7.888573975339e-04 1.919131069025e-03 0.0 
1.919131069025e-03 8.420305394388e-03 0.0 
0.0 0.0 0.0 
-5.597071604742e-04 2.052981211736e-03 0.0 
2.052981211736e-03 8.118718128989e-03 0.0 
0.0 0.0 0.0 
-6.580291021568e-04 2.075807400346e-03 0.0 
2.075807400346e-03 7.872321227072e-03 0.0 
0.0 0.0 0.0 
-3.962339909243e-04 2.183318104414e-03 0.0 
2.183318104414e-03 7.523255800930e-03 0.0 
0.0 0.0 0.0 
-4.895367875879e-04 2.234883186239e-03 0.0 
2.234883186239e-03 7.264987004902e-03 0.0 
0.0 0.0 0.0 
-1.965567545174e-04 2.306839589115e-03 0.0 
2.306839589115e-03 6.873737712331e-03 0.0 
0.0 0.0 0.0 
-1.272228735120e-04 2.233947022855e-03 0.0 
2.233947022855e-03 7.174140774515e-03 0.0 
0.0 0.0 0.0 
9.562308133015e-05 2.318197254183e-03 0.0 
2.318197254183e-03 6.495514936285e-03 0.0 
0.0 0.0 0.0 
3.811923519152e-05 2.414414766209e-03 0.0 
2.414414766209e-03 6.171137792221e-03 0.0 
0.0 0.0 0.0 
3.477184857517e-04 2.378514407208e-03 0.0 
2.378514407208e-03 5.772787142291e-03 0.0 
0.0 0.0 0.0 
3.017136428213e-04 2.493366616739e-03 0.0 
2.493366616739e-03 5.418778898890e-03 0.0 
0.0 0.0 0.0 
6.231219438519e-04 2.404682537087e-03 0.0 
2.404682537087e-03 5.008921608346e-03 0.0 
0.0 0.0 0.0 
6.333230127216e-04 2.288085952966e-03 0.0 
2.288085952966e-03 5.416391680107e-03 0.0 
0.0 0.0 0.0 
9.098722308518e-04 2.260655240187e-03 0.0 
2.260655240187e-03 4.658030503210e-03 0.0 
0.0 0.0 0.0 
9.145418440278e-04 2.386135010391e-03 0.0 
2.386135010391e-03 4.207941298531e-03 0.0 
0.0 0.0 0.0 
1.195535796249e-03 2.184992399672e-03 0.0 
2.184992399672e-03 3.877745624236e-03 0.0 
0.0 0.0 0.0 
1.213771627045e-03 2.315489527358e-03 0.0 
2.315489527358e-03 3.381162546627e-03 0.0 
0.0 0.0 0.0 
1.482991476481e-03 2.053825607839e-03 0.0 
2.053825607839e-03 3.085597128588e-03 0.0 
0.0 0.0 0.0 
1.517956953178e-03 2.185271083964e-03 0.0 
2.185271083964e-03 2.535380087969e-03 0.0 
0.0 0.0 0.0 
1.763877745892e-03 1.855222951511e-03 0.0 
1.855222951511e-03 2.287793216603e-03 0.0 
0.0 0.0 0.0 
1.682855820821e-03 1.758777206826e-03 0.0 
1.758777206826e-03 2.888033988938e-03 0.0 
0.0 0.0 0.0 
1.925522228550e-03 1.504309402010e-03 0.0 
1.504309402010e-03 2.155918492962e-03 0.0 
0.0 0.0 0.0 
2.024759280797e-03 1.579138319482e-03 0.0 
1.579138319482e-03 1.501609334892e-03 0.0 
0.0 0.0 0.0 
2.132966241974e-03 1.175958440425e-03 0.0 
1.175958440425e-03 1.458938639067e-03 0.0 
0.0 0.0 0.0 
2.005381421917e-03 1.158764603142e-03 0.0 
1.158764603142e-03 2.137954052001e-03 0.0 
0.0 0.0 0.0 
2.150745444809e-03 8.016433935482e-04 0.0 
8.016433935482e-04 1.539660208942e-03 0.0 
0.0 0.0 0.0 
2.009405141270e-03 8.410586219448e-04 0.0 
8.410586219448e-04 2.222397672317e-03 0.0 
0.0 0.0 0.0 
2.092709340571e-03 4.768619706714e-04 0.0 
4.768619706714e-04 1.722791243134e-03 0.0 
0.0 0.0 0.0 
2.227381926668e-03 3.875772978095e-04 0.0 
3.875772978095e-04 1.028318996188e-03 0.0 
0.0 0.0 0.0 
2.102255079733e-03 7.606133258926e-05 0.0 
7.606133258926e-05 1.318204920762e-03 0.0 
0.0 0.0 0.0 
1.977393693567e-03 2.122722644920e-04 0.0 
2.122722644920e-04 1.981814965003e-03 0.0 
0.0 0.0 0.0 
1.931663243310e-03 -1.581361830934e-04 0.0 
-1.581361830934e-04 1.666302248768e-03 0.0 
0.0 0.0 0.0 
2.025009435906e-03 -3.432688286095e-04 0.0 
-3.432688286095e-04 1.025990573894e-03 0.0 
0.0 0.0 0.0 
1.807562837485e-03 -5.231976661137e-04 0.0 
-5.231976661137e-04 1.457771384114e-03 0.0 
0.0 0.0 0.0 
1.736858255124e-03 -3.177419332928e-04 0.0 
-3.177419332928e-04 2.049082842185e-03 0.0 
0.0 0.0 0.0 
1.583858473367e-03 -6.254284085891e-04 0.0 
-6.254284085891e-04 1.897363487350e-03 0.0 
0.0 0.0 0.0 
1.607447558585e-03 -8.583421894409e-04 0.0 
-8.583421894409e-04 1.355945871419e-03 0.0 
0.0 0.0 0.0 
1.371695986201e-03 -8.920763030182e-04 0.0 
-8.920763030182e-04 1.833630912846e-03 0.0 
0.0 0.0 0.0 
1.367510254587e-03 -6.654574018273e-04 0.0 
-6.654574018273e-04 2.331189952558e-03 0.0 
0.0 0.0 0.0 
1.157090908123e-03 -8.731001761106e-04 0.0 
-8.731001761106e-04 2.282134187623e-03 0.0 
0.0 0.0 0.0 
1.113510428962e-03 -1.097751097603e-03 0.0 
-1.097751097603e-03 1.842559652360e-03 0.0 
0.0 0.0 0.0 
9.169271598461e-04 -1.021216644186e-03 0.0 
-1.021216644186e-03 2.285970495783e-03 0.0 
0.0 0.0 0.0 
9.663684568494e-04 -8.190057769798e-04 0.0 
-8.190057769798e-04 2.700701252962e-03 0.0 
0.0 0.0 0.0 
7.492905298420e-04 -9.231056854755e-04 0.0 
-9.231056854755e-04 2.689084842459e-03 0.0 
0.0 0.0 0.0 
7.976959700124e-04 -7.435597971258e-04 0.0 
-7.435597971258e-04 3.089253530097e-03 0.0 
0.0 0.0 0.0 
6.646342676405e-04 -1.101915697034e-03 0.0 
-1.101915697034e-03 2.320086866838e-03 0.0 
0.0 0.0 0.0 
5.313017428032e-04 -9.691002445554e-04 0.0 
-9.691002445554e-04 2.694769801910e-03 0.0 
0.0 0.0 0.0 
4.210283110091e-04 -1.112800980390e-03 0.0 
-1.112800980390e-03 2.364155992616e-03 0.0 
0.0 0.0 0.0 
3.277346394811e-04 -9.580634864150e-04 0.0 
-9.580634864150e-04 2.701254353754e-03 0.0 
0.0 0.0 0.0 
8.831887993136e-04 2.153601783470e-03 0.0 
2.153601783470e-03 5.115878055317e-03 0.0 
0.0 0.0 0.0 
2.081480067497e-04 -1.057617298152e-03 0.0 
-1.057617298152e-03 2.396124904413e-03 0.0 
0.0 0.0 0.0 
2.770591636719e-04 -1.233784078172e-03 0.0 
-1.233784078172e-03 2.071792892939e-03 0.0 
0.0 0.0 0.0 
1.542353959140e-04 -8.970320953620e-04 0.0 
-8.970320953620e-04 2.690868783505e-03 0.0 
0.0 0.0 0.0 
2.501527703352e-04 -8.130883989661e-04 0.0 
-8.130883989661e-04 3.009727599533e-03 0.0 
0.0 0.0 0.0 
4.108516944817e-05 -9.508465807860e-04 0.0 
-9.508465807860e-04 2.395259778285e-03 0.0 
0.0 0.0 0.0 
2.037576922000e-05 -7.984772082493e-04 0.0 
-7.984772082493e-04 2.650839168203e-03 0.0 
0.0 0.0 0.0 
-7.232409395648e-05 -8.108838246614e-04 0.0 
-8.108838246614e-04 2.351748670649e-03 0.0 
0.0 0.0 0.0 
1.197519257269e-03 2.470055458878e-03 0.0 
2.470055458878e-03 2.886350831357e-03 0.0 
0.0 0.0 0.0 
-5.892491889604e-04 1.933387216085e-03 0.0 
1.933387216085e-03 8.926412362010e-03 0.0 
0.0 0.0 0.0 
-6.914664230040e-05 -6.752525364161e-04 0.0 
-6.752525364161e-04 2.573762366715e-03 0.0 
0.0 0.0 0.0 
-1.303657109071e-04 -6.551508731977e-04 0.0 
-6.551508731977e-04 2.258664850593e-03 0.0 
0.0 0.0 0.0 
-1.586544159506e-04 -7.794764782995e-04 0.0 
-7.794764782995e-04 2.058913260772e-03 0.0 
0.0 0.0 0.0 
-1.691587446127e-04 -5.953425180963e-04 0.0 
-5.953425180963e-04 1.936464518303e-03 0.0 
0.0 0.0 0.0 
-1.127044152353e-03 7.006288662319e-04 0.0 
7.006288662319e-04 1.050884229155e-02 0.0 
0.0 0.0 0.0 
-1.049545252136e-03 8.242573172533e-04 0.0 
8.242573172533e-04 1.081709910541e-02 0.0 
0.0 0.0 0.0 
-1.058276887288e-03 6.684637773016e-04 0.0 
6.684637773016e-04 1.074087967014e-02 0.0 
0.0 0.0 0.0 
-9.733463716371e-04 7.954780053196e-04 0.0 
7.954780053196e-04 1.106092384072e-02 0.0 
0.0 0.0 0.0 
-9.832790451375e-04 6.504152067101e-04 0.0 
6.504152067101e-04 1.097707422052e-02 0.0 
0.0 0.0 0.0 
-1.376036327603e-04 -5.021029602824e-04 0.0 
-5.021029602824e-04 2.115998753961e-03 0.0 
0.0 0.0 0.0 
-9.524392454465e-04 1.374920211654e-03 0.0 
1.374920211654e-03 1.049974204819e-02 0.0 
0.0 0.0 0.0 
-9.470540831385e-04 9.490301221108e-04 0.0 
9.490301221108e-04 1.111417186704e-02 0.0 
0.0 0.0 0.0 
-8.972280846912e-04 1.908814230336e-03 0.0 
1.908814230336e-03 8.203489624825e-03 0.0 
0.0 0.0 0.0 
-3.950943574667e-05 2.515981171923e-03 0.0 
2.515981171923e-03 5.870388115515e-03 0.0 
0.0 0.0 0.0 
1.867193801462e-03 1.157382283070e-03 0.0 
1.157382283070e-03 2.794520431851e-03 0.0 
0.0 0.0 0.0 
-2.873730707102e-07 -6.610655373689e-04 0.0 
-6.610655373689e-04 2.891795067918e-03 0.0 
0.0 0.0 0.0 
-7.198353775571e-05 -5.532353868603e-04 0.0 
-5.532353868603e-04 2.788425822631e-03 0.0 
0.0 0.0 0.0 
-2.110675045116e-05 -5.372672725966e-04 0.0 
-5.372672725966e-04 3.120146788712e-03 0.0 
0.0 0.0 0.0 
9.811988953657e-04 -6.237700311344e-04 0.0 
-6.237700311344e-04 3.142807777707e-03 0.0 
0.0 0.0 0.0 
8.132027986744e-04 -5.682528024383e-04 0.0 
-5.682528024383e-04 3.515882851256e-03 0.0 
0.0 0.0 0.0 
9.638858591863e-04 -4.391494283280e-04 0.0 
-4.391494283280e-04 3.607070869616e-03 0.0 
0.0 0.0 0.0 
7.983043189481e-04 -4.014510639908e-04 0.0 
-4.014510639908e-04 3.964959343528e-03 0.0 
0.0 0.0 0.0 
9.171874870578e-04 -2.682689906268e-04 0.0 
-2.682689906268e-04 4.089647972085e-03 0.0 
0.0 0.0 0.0 
7.557233388664e-04 -2.468162384275e-04 0.0 
-2.468162384275e-04 4.433386786709e-03 0.0 
0.0 0.0 0.0 
6.479851602843e-04 -3.541264946087e-04 0.0 
-3.541264946087e-04 4.306238402124e-03 0.0 
0.0 0.0 0.0 
6.080851261970e-04 -2.173918090961e-04 0.0 
-2.173918090961e-04 4.764196301378e-03 0.0 
0.0 0.0 0.0 
5.132393138334e-04 -3.025531537231e-04 0.0 
-3.025531537231e-04 4.630606305678e-03 0.0 
0.0 0.0 0.0 
8.437796436186e-04 -1.133554618759e-04 0.0 
-1.133554618759e-04 4.587933329009e-03 0.0 
0.0 0.0 0.0 
1.010937709950e-03 -1.080679554309e-04 0.0 
-1.080679554309e-04 4.249248622415e-03 0.0 
0.0 0.0 0.0 
4.756913145916e-04 -1.843163870512e-04 0.0 
-1.843163870512e-04 5.080444960113e-03 0.0 
0.0 0.0 0.0 
3.941688044914e-04 -2.503993424120e-04 0.0 
-2.503993424120e-04 4.938496538736e-03 0.0 
0.0 0.0 0.0 
3.594452303114e-04 -1.501821091703e-04 0.0 
-1.501821091703e-04 5.382327958218e-03 0.0 
0.0 0.0 0.0 
2.910800155868e-04 -2.007701947796e-04 0.0 
-2.007701947796e-04 5.230220588712e-03 0.0 
0.0 0.0 0.0 
3.062085865959e-04 -2.935282425763e-04 0.0 
-2.935282425763e-04 4.805618977636e-03 0.0 
0.0 0.0 0.0 
2.186149521768e-04 -2.311224855431e-04 0.0 
-2.311224855431e-04 5.083056949789e-03 0.0 
0.0 0.0 0.0 
2.181384241320e-04 -3.134877502756e-04 0.0 
-3.134877502756e-04 4.677133321252e-03 0.0 
0.0 0.0 0.0 
1.860324597005e-03 8.872137748788e-04 0.0 
8.872137748788e-04 2.880349774264e-03 0.0 
0.0 0.0 0.0 
1.719828924008e-03 1.169623622763e-03 0.0 
1.169623622763e-03 3.432612586647e-03 0.0 
0.0 0.0 0.0 
1.703461296798e-03 9.391622445386e-04 0.0 
9.391622445386e-04 3.517849540201e-03 0.0 
0.0 0.0 0.0 
1.563108837920e-03 1.192739538475e-03 0.0 
1.192739538475e-03 4.053382168806e-03 0.0 
0.0 0.0 0.0 
1.536458096780e-03 9.960495703519e-04 0.0 
9.960495703519e-04 4.139984719735e-03 0.0 
0.0 0.0 0.0 
1.394637937184e-03 1.226247228836e-03 0.0 
1.226247228836e-03 4.661931737391e-03 0.0 
0.0 0.0 0.0 
1.355652418960e-03 1.058473817498e-03 0.0 
1.058473817498e-03 4.750492599871e-03 0.0 
0.0 0.0 0.0 
1.467368856049e-03 8.241980347928e-04 0.0 
8.241980347928e-04 4.284102264690e-03 0.0 
0.0 0.0 0.0 
-8.555200096443e-04 1.614866786634e-03 0.0 
1.614866786634e-03 1.001841828961e-02 0.0 
0.0 0.0 0.0 
2.248371213470e-03 1.213696298242e-03 0.0 
1.213696298242e-03 7.533973779981e-04 0.0 
0.0 0.0 0.0 
2.100622967290e-03 1.683073334186e-03 0.0 
1.683073334186e-03 8.304191600588e-04 0.0 
0.0 0.0 0.0 
2.346368353152e-03 1.280382448364e-03 0.0 
1.280382448364e-03 1.680711794066e-05 0.0 
0.0 0.0 0.0 
2.141451344240e-03 1.827095410825e-03 0.0 
1.827095410825e-03 1.462005014358e-04 0.0 
0.0 0.0 0.0 
2.417889882930e-03 1.390198572881e-03 0.0 
1.390198572881e-03 -7.535402414494e-04 0.0 
0.0 0.0 0.0 
2.128282684536e-03 2.025549383563e-03 0.0 
2.025549383563e-03 -5.408974616667e-04 0.0 
0.0 0.0 0.0 
2.447914849760e-03 1.561213314950e-03 0.0 
1.561213314950e-03 -1.558582657554e-03 0.0 
0.0 0.0 0.0 
2.628763050322e-03 7.977176321802e-04 0.0 
7.977176321802e-04 -1.581037922912e-03 0.0 
0.0 0.0 0.0 
2.700970427892e-03 8.874441608754e-04 0.0 
8.874441608754e-04 -2.512465474494e-03 0.0 
0.0 0.0 0.0 
2.707123490094e-03 3.872524302622e-05 0.0 
3.872524302622e-05 -2.238926076887e-03 0.0 
0.0 0.0 0.0 
2.774741908651e-03 -6.879390014966e-06 0.0 
-6.879390014966e-06 -3.206254196332e-03 0.0 
0.0 0.0 0.0 
2.576000680981e-03 -8.311605622678e-04 0.0 
-8.311605622678e-04 -2.622019663815e-03 0.0 
0.0 0.0 0.0 
1.357039028475e-04 2.234914451551e-03 0.0 
2.234914451551e-03 6.839573055569e-03 0.0 
0.0 0.0 0.0 
1.389899970135e-03 1.411342908944e-03 0.0 
1.411342908944e-03 4.629860276036e-03 0.0 
0.0 0.0 0.0 
1.224850783764e-03 1.430127862683e-03 0.0 
1.430127862683e-03 5.221653219021e-03 0.0 
0.0 0.0 0.0 
1.196605084971e-03 1.595480210504e-03 0.0 
1.595480210504e-03 5.229896670892e-03 0.0 
0.0 0.0 0.0 
-2.167992431988e-04 -6.962670555519e-04 0.0 
-6.962670555519e-04 1.757807993582e-03 0.0 
0.0 0.0 0.0 
2.041720719783e-04 -1.555591822124e-04 0.0 
-1.555591822124e-04 5.505954546148e-03 0.0 
0.0 0.0 0.0 
9.052642958552e-04 4.131038714794e-05 0.0 
4.131038714794e-05 4.777127250454e-03 0.0 
0.0 0.0 0.0 
1.072336406069e-03 7.255472160446e-05 0.0 
7.255472160446e-05 4.448986815667e-03 0.0 
0.0 0.0 0.0 
1.278397817636e-03 9.114792469960e-04 0.0 
9.114792469960e-04 4.895281419709e-03 0.0 
0.0 0.0 0.0 
-1.294830846347e-04 -4.310360367917e-04 0.0 
-4.310360367917e-04 1.762801573154e-03 0.0 
0.0 0.0 0.0 
2.027447722018e-03 2.282144048539e-03 0.0 
2.282144048539e-03 -1.209388980400e-03 0.0 
0.0 0.0 0.0 
1.660709077055e-03 2.586446068496e-03 0.0 
2.586446068496e-03 -7.541054968372e-05 0.0 
0.0 0.0 0.0 
-8.869934397052e-04 7.694303639469e-04 0.0 
7.694303639469e-04 1.129250263011e-02 0.0 
0.0 0.0 0.0 
-8.994538863290e-04 6.344583758948e-04 0.0 
6.344583758948e-04 1.119899916670e-02 0.0 
0.0 0.0 0.0 
9.344656330448e-04 2.128168237997e-04 0.0 
2.128168237997e-04 5.005510809033e-03 0.0 
0.0 0.0 0.0 
-1.037017883412e-04 -3.628234466272e-04 0.0 
-3.628234466272e-04 1.934470548895e-03 0.0 
0.0 0.0 0.0 
5.442265849206e-04 -9.574260726664e-05 0.0 
-9.574260726664e-05 5.239337836504e-03 0.0 
0.0 0.0 0.0 
2.641407654645e-03 9.835217227774e-04 0.0 
9.835217227774e-04 -3.339733645514e-03 0.0 
0.0 0.0 0.0 
1.461526993343e-04 -1.746762942627e-04 0.0 
-1.746762942627e-04 5.344232270086e-03 0.0 
0.0 0.0 0.0 
1.331275534838e-04 -1.151881936186e-04 0.0 
-1.151881936186e-04 5.764588876193e-03 0.0 
0.0 0.0 0.0 
5.282076331924e-04 -4.314972722571e-04 0.0 
-4.314972722571e-04 4.199251746598e-03 0.0 
0.0 0.0 0.0 
1.038202691067e-03 1.607235364344e-03 0.0 
1.607235364344e-03 5.804708352232e-03 0.0 
0.0 0.0 0.0 
9.924731605382e-04 1.745310363536e-03 0.0 
1.745310363536e-03 5.842123572753e-03 0.0 
0.0 0.0 0.0 
2.498249088144e-03 -6.217380120154e-04 0.0 
-6.217380120154e-04 -1.700538526833e-03 0.0 
0.0 0.0 0.0 
2.185519237760e-03 -1.388303791277e-03 0.0 
-1.388303791277e-03 -1.800976432129e-03 0.0 
0.0 0.0 0.0 
2.121342146518e-03 -1.654445619484e-03 0.0 
-1.654445619484e-03 -2.524308100994e-03 0.0 
0.0 0.0 0.0 
1.623694830805e-03 -2.020228370716e-03 0.0 
-2.020228370716e-03 -1.520942612614e-03 0.0 
0.0 0.0 0.0 
1.782148122314e-03 -1.655028208172e-03 0.0 
-1.655028208172e-03 -9.505371516449e-04 0.0 
0.0 0.0 0.0 
1.229040213097e-03 -2.079076812046e-03 0.0 
-2.079076812046e-03 -6.496062899163e-04 0.0 
0.0 0.0 0.0 
9.425981562821e-04 -2.354904040994e-03 0.0 
-2.354904040994e-03 -1.008942793595e-03 0.0 
0.0 0.0 0.0 
6.009505278037e-04 -2.265846058242e-03 0.0 
-2.265846058242e-03 -1.611735798184e-04 0.0 
0.0 0.0 0.0 
9.042792144559e-04 -1.994600615580e-03 0.0 
-1.994600615580e-03 1.248477792803e-04 0.0 
0.0 0.0 0.0 
3.687604013318e-04 -2.042925004274e-03 0.0 
-2.042925004274e-03 5.216200274339e-04 0.0 
0.0 0.0 0.0 
-4.108512610068e-06 -2.124678650567e-03 0.0 
-2.124678650567e-03 3.929712030350e-04 0.0 
0.0 0.0 0.0 
-9.336020587170e-05 -1.851561977641e-03 0.0 
-1.851561977641e-03 9.100935310238e-04 0.0 
0.0 0.0 0.0 
1.762424712640e-04 -9.020956665855e-05 0.0 
-9.020956665855e-05 5.941169115843e-03 0.0 
0.0 0.0 0.0 
2.598043978956e-03 1.352353667709e-06 0.0 
1.352353667709e-06 -3.858315565942e-03 0.0 
0.0 0.0 0.0 
-1.177264359522e-03 1.374155795822e-03 0.0 
1.374155795822e-03 9.303921544349e-03 0.0 
0.0 0.0 0.0 
7.750833572154e-04 1.715212765995e-04 0.0 
1.715212765995e-04 5.315523559168e-03 0.0 
0.0 0.0 0.0 
1.156355540195e-03 1.129508963382e-03 0.0 
1.129508963382e-03 5.352817133160e-03 0.0 
0.0 0.0 0.0 
-7.924431656632e-04 7.457092552253e-04 0.0 
7.457092552253e-04 1.151521430992e-02 0.0 
0.0 0.0 0.0 
-8.093995647035e-04 6.186898183348e-04 0.0 
6.186898183348e-04 1.141322902636e-02 0.0 
0.0 0.0 0.0 
-8.982754504632e-04 5.127886058031e-04 0.0 
5.127886058031e-04 1.107944215420e-02 0.0 
0.0 0.0 0.0 
-8.151935628768e-04 5.034950097774e-04 0.0 
5.034950097774e-04 1.129000297821e-02 0.0 
0.0 0.0 0.0 
-7.135073022714e-04 6.005630806322e-04 0.0 
6.005630806322e-04 1.162022231639e-02 0.0 
0.0 0.0 0.0 
-7.272970847726e-04 4.909302733231e-04 0.0 
4.909302733231e-04 1.149422723313e-02 0.0 
0.0 0.0 0.0 
-8.128857277533e-04 4.010575119117e-04 0.0 
4.010575119117e-04 1.114943580038e-02 0.0 
0.0 0.0 0.0 
-7.331156409756e-04 3.932584775446e-04 0.0 
3.932584775446e-04 1.135244699646e-02 0.0 
0.0 0.0 0.0 
-8.040676302848e-04 3.115964935341e-04 0.0 
3.115964935341e-04 1.099435314078e-02 0.0 
0.0 0.0 0.0 
-7.332008130836e-04 3.082458218322e-04 0.0 
3.082458218322e-04 1.119782951856e-02 0.0 
0.0 0.0 0.0 
-6.504763598432e-04 3.811483224120e-04 0.0 
3.811483224120e-04 1.155164038700e-02 0.0 
0.0 0.0 0.0 
-6.593374179389e-04 2.994670497944e-04 0.0 
2.994670497944e-04 1.139765175263e-02 0.0 
0.0 0.0 0.0 
-7.301445134090e-04 2.355378982722e-04 0.0 
2.355378982722e-04 1.103304947038e-02 0.0 
0.0 0.0 0.0 
-6.650134996377e-04 2.287298599697e-04 0.0 
2.287298599697e-04 1.123469378690e-02 0.0 
0.0 0.0 0.0 
-7.256127632898e-04 1.740551191647e-04 0.0 
1.740551191647e-04 1.086009693478e-02 0.0 
0.0 0.0 0.0 
-6.685161681461e-04 1.685793716128e-04 0.0 
1.685793716128e-04 1.106269570730e-02 0.0 
0.0 0.0 0.0 
-5.976016040451e-04 2.168421248325e-04 0.0 
2.168421248325e-04 1.143348046423e-02 0.0 
0.0 0.0 0.0 
-5.118857861199e-05 -2.986503606919e-04 0.0 
-2.986503606919e-04 1.557464878301e-03 0.0 
0.0 0.0 0.0 
1.363044960945e-03 6.802562939509e-04 0.0 
6.802562939509e-04 4.476216076742e-03 0.0 
0.0 0.0 0.0 
1.166107459457e-03 7.873249262360e-04 0.0 
7.873249262360e-04 5.088590228151e-03 0.0 
0.0 0.0 0.0 
-7.873703856737e-05 -4.459135515866e-04 0.0 
-4.459135515866e-04 3.001826751911e-03 0.0 
0.0 0.0 0.0 
-3.891643662401e-05 -4.263077794157e-04 0.0 
-4.263077794157e-04 3.335491513473e-03 0.0 
0.0 0.0 0.0 
3.054017712097e-05 -4.977933355039e-04 0.0 
-4.977933355039e-04 3.460596731683e-03 0.0 
0.0 0.0 0.0 
-9.513007077263e-07 -3.881658861880e-04 0.0 
-3.881658861880e-04 3.691006808849e-03 0.0 
0.0 0.0 0.0 
-6.108533415126e-04 1.575177348005e-04 0.0 
1.575177348005e-04 1.126225387568e-02 0.0 
0.0 0.0 0.0 
-5.302175311082e-04 1.987350541755e-04 0.0 
1.987350541755e-04 1.163010768884e-02 0.0 
0.0 0.0 0.0 
1.415579644075e-03 2.854769280367e-03 0.0 
2.854769280367e-03 -5.507588011645e-04 0.0 
0.0 0.0 0.0 
1.058191559087e-03 2.991265657402e-03 0.0 
2.991265657402e-03 6.111946430503e-04 0.0 
0.0 0.0 0.0 
-7.615542093713e-04 8.839580234583e-04 0.0 
8.839580234583e-04 1.159255535502e-02 0.0 
0.0 0.0 0.0 
8.784694609258e-05 -1.250594827744e-04 0.0 
-1.250594827744e-04 5.590446407247e-03 0.0 
0.0 0.0 0.0 
8.904584726251e-05 -1.758263208925e-04 0.0 
-1.758263208925e-04 5.184064000998e-03 0.0 
0.0 0.0 0.0 
2.289307682885e-04 2.611576135648e-03 0.0 
2.611576135648e-03 5.089223349819e-03 0.0 
0.0 0.0 0.0 
-1.403650622379e-04 2.610965008384e-03 0.0 
2.610965008384e-03 5.595881068767e-03 0.0 
0.0 0.0 0.0 
1.228471042767e-04 2.721832493397e-03 0.0 
2.721832493397e-03 4.786826103009e-03 0.0 
0.0 0.0 0.0 
-2.712660948950e-04 2.685395425121e-03 0.0 
2.685395425121e-03 5.346906205649e-03 0.0 
0.0 0.0 0.0 
-5.040723792518e-04 2.527381492657e-03 0.0 
2.527381492657e-03 6.128152755182e-03 0.0 
0.0 0.0 0.0 
-3.191127279056e-05 2.811322676290e-03 0.0 
2.811322676290e-03 4.513044819648e-03 0.0 
0.0 0.0 0.0 
1.186170053697e-03 -8.669270365709e-05 0.0 
-8.669270365709e-05 3.901687917529e-03 0.0 
0.0 0.0 0.0 
-5.658593867313e-04 3.633194686630e-04 0.0 
3.633194686630e-04 1.174667310787e-02 0.0 
0.0 0.0 0.0 
-2.005025758274e-04 -9.174912612769e-04 0.0 
-9.174912612769e-04 1.854826868609e-03 0.0 
0.0 0.0 0.0 
-2.844420863794e-04 -8.051116820242e-04 0.0 
-8.051116820242e-04 1.581956527630e-03 0.0 
0.0 0.0 0.0 
7.695036504907e-05 -8.044117315418e-05 0.0 
-8.044117315418e-05 6.009214634257e-03 0.0 
0.0 0.0 0.0 
1.538181518941e-03 5.717306821253e-04 0.0 
5.717306821253e-04 3.866385398254e-03 0.0 
0.0 0.0 0.0 
-7.335115740009e-05 2.173734083097e-03 0.0 
2.173734083097e-03 7.496853518013e-03 0.0 
0.0 0.0 0.0 
1.604710046963e-04 2.169597918558e-03 0.0 
2.169597918558e-03 7.201233805397e-03 0.0 
0.0 0.0 0.0 
-3.301211292348e-05 2.131812634802e-03 0.0 
2.131812634802e-03 7.838401258972e-03 0.0 
0.0 0.0 0.0 
1.714361556556e-04 2.127427904719e-03 0.0 
2.127427904719e-03 7.577301760434e-03 0.0 
0.0 0.0 0.0 
-4.566268359429e-06 2.112885056246e-03 0.0 
2.112885056246e-03 8.196700650999e-03 0.0 
0.0 0.0 0.0 
1.677812478416e-04 2.112677807307e-03 0.0 
2.112677807307e-03 7.967430771569e-03 0.0 
0.0 0.0 0.0 
3.512874592971e-04 2.094043409538e-03 0.0 
2.094043409538e-03 7.347499033513e-03 0.0 
0.0 0.0 0.0 
8.474890669870e-04 1.760601284085e-03 0.0 
1.760601284085e-03 6.398059606048e-03 0.0 
0.0 0.0 0.0 
3.128992372023e-04 2.090305996925e-03 0.0 
2.090305996925e-03 7.774419992599e-03 0.0 
0.0 0.0 0.0 
-6.720506564745e-04 1.219412462453e-04 0.0 
1.219412462453e-04 1.087933587863e-02 0.0 
0.0 0.0 0.0 
1.340292653378e-03 1.605915659418e-03 0.0 
1.605915659418e-03 4.651848570731e-03 0.0 
0.0 0.0 0.0 
6.663300282745e-04 -1.819508685726e-03 0.0 
-1.819508685726e-03 7.633628994038e-04 0.0 
0.0 0.0 0.0 
-7.806990527624e-05 -3.363222613632e-04 0.0 
-3.363222613632e-04 1.390498672339e-03 0.0 
0.0 0.0 0.0 
-4.109054532020e-04 -1.715521957175e-03 0.0 
-1.715521957175e-03 8.339152657376e-04 0.0 
0.0 0.0 0.0 
-4.284962577413e-05 -2.451442992416e-04 0.0 
-2.451442992416e-04 1.714824701740e-03 0.0 
0.0 0.0 0.0 
-9.389851110375e-05 -2.936168584880e-04 0.0 
-2.936168584880e-04 2.109334169107e-03 0.0 
0.0 0.0 0.0 
7.720487287078e-04 3.348484491208e-04 0.0 
3.348484491208e-04 5.569017867525e-03 0.0 
0.0 0.0 0.0 
1.139764314299e-05 2.123206952011e-03 0.0 
2.123206952011e-03 8.571450299970e-03 0.0 
0.0 0.0 0.0 
-1.482735336562e-04 2.091473856557e-03 0.0 
2.091473856557e-03 8.780858991991e-03 0.0 
0.0 0.0 0.0 
-6.444334773599e-04 2.558496490835e-03 0.0 
2.558496490835e-03 5.936716019381e-03 0.0 
0.0 0.0 0.0 
-8.447725829193e-04 2.334189589690e-03 0.0 
2.334189589690e-03 6.672548068446e-03 0.0 
0.0 0.0 0.0 
8.641953668448e-04 1.640852797969e-03 0.0 
1.640852797969e-03 6.374455226329e-03 0.0 
0.0 0.0 0.0 
-1.045262965868e-03 5.335598288567e-04 0.0 
5.335598288567e-04 1.064214760239e-02 0.0 
0.0 0.0 0.0 
-8.717226337994e-04 3.108220662506e-04 0.0 
3.108220662506e-04 1.078788481408e-02 0.0 
0.0 0.0 0.0 
-8.481228347746e-04 2.317048754597e-04 0.0 
2.317048754597e-04 1.061773925959e-02 0.0 
0.0 0.0 0.0 
5.815085969894e-05 -1.878306623622e-04 0.0 
-1.878306623622e-04 1.257856872562e-03 0.0 
0.0 0.0 0.0 
-3.620436860251e-04 -1.997173117027e-03 0.0 
-1.997173117027e-03 4.003251901009e-04 0.0 
0.0 0.0 0.0 
-6.147456873646e-04 5.781830963225e-04 0.0 
5.781830963225e-04 1.182147595095e-02 0.0 
0.0 0.0 0.0 
1.312212755597e-03 2.750067174948e-03 0.0 
2.750067174948e-03 1.000637756311e-03 0.0 
0.0 0.0 0.0 
7.465630963576e-04 3.012676213919e-03 0.0 
3.012676213919e-03 1.681743359176e-03 0.0 
0.0 0.0 0.0 
2.245903961694e-03 1.097003076207e-03 0.0 
1.097003076207e-03 -3.783543108818e-03 0.0 
0.0 0.0 0.0 
1.999318822772e-03 4.929517587448e-05 0.0 
4.929517587448e-05 -4.224590257645e-03 0.0 
0.0 0.0 0.0 
-5.509982862572e-04 1.433596439889e-04 0.0 
1.433596439889e-04 1.145703543851e-02 0.0 
0.0 0.0 0.0 
-4.628681113366e-04 1.735922472950e-04 0.0 
1.735922472950e-04 1.181651878430e-02 0.0 
0.0 0.0 0.0 
7.633341966340e-05 -4.440178981851e-04 0.0 
-4.440178981851e-04 3.812093279098e-03 0.0 
0.0 0.0 0.0 
3.363756400128e-05 -3.417439649248e-04 0.0 
-3.417439649248e-04 4.049537435155e-03 0.0 
0.0 0.0 0.0 
9.283064067869e-04 3.974434389150e-04 0.0 
3.974434389150e-04 5.279927281658e-03 0.0 
0.0 0.0 0.0 
-3.904380428394e-04 -1.490863570037e-03 0.0 
-1.490863570037e-03 1.169590299299e-03 0.0 
0.0 0.0 0.0 
-4.303289593638e-04 2.370512076641e-04 0.0 
2.370512076641e-04 1.198036836436e-02 0.0 
0.0 0.0 0.0 
1.406929632441e-03 4.397589612056e-04 0.0 
4.397589612056e-04 4.111205263677e-03 0.0 
0.0 0.0 0.0 
1.562214721770e-03 3.061777741472e-04 0.0 
3.061777741472e-04 3.508662453554e-03 0.0 
0.0 0.0 0.0 
-6.099707550524e-05 -3.116800808774e-04 0.0 
-3.116800808774e-04 3.549764963991e-03 0.0 
0.0 0.0 0.0 
6.614540473990e-04 3.175046174545e-03 0.0 
3.175046174545e-03 3.648744062254e-04 0.0 
0.0 0.0 0.0 
9.954947647726e-04 3.028237108333e-03 0.0 
3.028237108333e-03 -8.218465429773e-04 0.0 
0.0 0.0 0.0 
1.121059859838e-03 -1.688312516493e-03 0.0 
-1.688312516493e-03 4.932743822142e-04 0.0 
0.0 0.0 0.0 
-1.174749579935e-04 -1.582411213509e-03 0.0 
-1.582411213509e-03 1.302115174881e-03 0.0 
0.0 0.0 0.0 
-4.482025749282e-05 -1.943458728564e-04 0.0 
-1.943458728564e-04 1.890117910681e-03 0.0 
0.0 0.0 0.0 
7.354743315062e-04 5.135384656507e-04 0.0 
5.135384656507e-04 5.863489060848e-03 0.0 
0.0 0.0 0.0 
-5.836742780183e-04 6.924127165567e-04 0.0 
6.924127165567e-04 1.193098020557e-02 0.0 
0.0 0.0 0.0 
4.946007367021e-04 2.035832400368e-03 0.0 
2.035832400368e-03 7.161352884349e-03 0.0 
0.0 0.0 0.0 
5.561814429557e-04 2.060729616545e-03 0.0 
2.060729616545e-03 6.704416092891e-03 0.0 
0.0 0.0 0.0 
4.215361925470e-04 2.045147776007e-03 0.0 
2.045147776007e-03 7.620190809121e-03 0.0 
0.0 0.0 0.0 
-5.675209709060e-04 -1.236797771810e-03 0.0 
-1.236797771810e-03 1.029561743149e-03 0.0 
0.0 0.0 0.0 
6.161411774780e-04 2.793478861431e-04 0.0 
2.793478861431e-04 5.874392549035e-03 0.0 
0.0 0.0 0.0 
4.309914256684e-05 -8.288165366504e-05 0.0 
-8.288165366504e-05 5.823027201929e-03 0.0 
0.0 0.0 0.0 
-1.147845836602e-04 2.128014421710e-03 0.0 
2.128014421710e-03 9.129171139309e-03 0.0 
0.0 0.0 0.0 
-2.558651575408e-04 2.068344850725e-03 0.0 
2.068344850725e-03 9.324738088821e-03 0.0 
0.0 0.0 0.0 
9.892620672482e-04 2.824635804192e-03 0.0 
2.824635804192e-03 2.012386797720e-03 0.0 
0.0 0.0 0.0 
4.691245775126e-04 2.975018157743e-03 0.0 
2.975018157743e-03 2.680647027087e-03 0.0 
0.0 0.0 0.0 
1.460133213930e-04 3.098124618450e-03 0.0 
3.098124618450e-03 2.469060635812e-03 0.0 
0.0 0.0 0.0 
-4.962388820366e-05 2.994508775696e-03 0.0 
2.994508775696e-03 3.406984205043e-03 0.0 
0.0 0.0 0.0 
-1.243506131168e-03 1.042284318063e-03 0.0 
1.042284318063e-03 9.731088467223e-03 0.0 
0.0 0.0 0.0 
6.858393734544e-04 2.834861166376e-03 0.0 
2.834861166376e-03 2.980457996926e-03 0.0 
0.0 0.0 0.0 
-1.150138093192e-03 1.518232916540e-03 0.0 
1.518232916540e-03 8.920110740056e-03 0.0 
0.0 0.0 0.0 
-1.258438141001e-03 1.273940232901e-03 0.0 
1.273940232901e-03 9.083195755278e-03 0.0 
0.0 0.0 0.0 
-1.239116893352e-03 1.428987713356e-03 0.0 
1.428987713356e-03 8.720034862163e-03 0.0 
0.0 0.0 0.0 
-7.164756989724e-04 2.323090306700e-03 0.0 
2.323090306700e-03 6.838076688466e-03 0.0 
0.0 0.0 0.0 
-1.007679028907e-03 2.082637928873e-03 0.0 
2.082637928873e-03 7.307286001030e-03 0.0 
0.0 0.0 0.0 
1.833159665835e-03 2.138418448704e-03 0.0 
2.138418448704e-03 1.069227582495e-03 0.0 
0.0 0.0 0.0 
1.681796367762e-03 1.422925727824e-03 0.0 
1.422925727824e-03 3.418364602784e-03 0.0 
0.0 0.0 0.0 
1.260691208869e-04 -5.560988448096e-04 0.0 
-5.560988448096e-04 3.561783597693e-03 0.0 
0.0 0.0 0.0 
3.037617075756e-04 -3.927697124641e-04 0.0 
-3.927697124641e-04 4.399569444240e-03 0.0 
0.0 0.0 0.0 
1.143267591478e-03 -4.601284360173e-04 0.0 
-4.601284360173e-04 3.232643074315e-03 0.0 
0.0 0.0 0.0 
-5.435450401469e-04 4.522951954136e-04 0.0 
4.522951954136e-04 1.188755037212e-02 0.0 
0.0 0.0 0.0 
-4.501499887629e-04 4.242492666992e-04 0.0 
4.242492666992e-04 1.208045157501e-02 0.0 
0.0 0.0 0.0 
-7.792250353201e-04 1.735262723702e-04 0.0 
1.735262723702e-04 1.065255717005e-02 0.0 
0.0 0.0 0.0 
-7.642481902967e-04 1.200232693432e-04 0.0 
1.200232693432e-04 1.046857547508e-02 0.0 
0.0 0.0 0.0 
-2.223262862932e-04 -5.607373856038e-04 0.0 
-5.607373856038e-04 1.428574444985e-03 0.0 
0.0 0.0 0.0 
-3.055614401204e-04 -6.247434074040e-04 0.0 
-6.247434074040e-04 1.276461684896e-03 0.0 
0.0 0.0 0.0 
6.492526078900e-04 -6.571236547177e-04 0.0 
-6.571236547177e-04 3.450764496880e-03 0.0 
0.0 0.0 0.0 
6.209419493554e-04 1.397635288527e-04 0.0 
1.397635288527e-04 5.623286593794e-03 0.0 
0.0 0.0 0.0 
-6.552324106777e-04 8.506300761307e-04 0.0 
8.506300761307e-04 1.181171936988e-02 0.0 
0.0 0.0 0.0 
-6.062847074837e-04 9.935182932046e-04 0.0 
9.935182932046e-04 1.187399845397e-02 0.0 
0.0 0.0 0.0 
-7.161587231905e-04 1.031822942000e-03 0.0 
1.031822942000e-03 1.164374658439e-02 0.0 
0.0 0.0 0.0 
8.887665081930e-04 5.936246112794e-04 0.0 
5.936246112794e-04 5.589305494874e-03 0.0 
0.0 0.0 0.0 
2.409481591030e-03 7.551767525951e-04 0.0 
7.551767525951e-04 7.864843359355e-05 0.0 
0.0 0.0 0.0 
1.799927310044e-03 6.527286869490e-04 0.0 
6.527286869490e-04 3.037113351728e-03 0.0 
0.0 0.0 0.0 
2.155674621429e-03 -1.009580692066e-03 0.0 
-1.009580692066e-03 -3.877472502587e-03 0.0 
0.0 0.0 0.0 
6.241605558653e-04 2.189410681784e-03 0.0 
2.189410681784e-03 5.835205602486e-03 0.0 
0.0 0.0 0.0 
-1.501354075075e-04 -3.941275803793e-04 0.0 
-3.941275803793e-04 1.055892073992e-03 0.0 
0.0 0.0 0.0 
-6.701756369064e-04 1.842285826842e-03 0.0 
1.842285826842e-03 9.416034511964e-03 0.0 
0.0 0.0 0.0 
3.579731158676e-05 -5.155719782149e-05 0.0 
-5.155719782149e-05 6.241496431538e-03 0.0 
0.0 0.0 0.0 
5.889706914712e-05 -4.493758222372e-05 0.0 
-4.493758222372e-05 6.435771374181e-03 0.0 
0.0 0.0 0.0 
6.831087725050e-04 1.796293009346e-03 0.0 
1.796293009346e-03 6.940371387769e-03 0.0 
0.0 0.0 0.0 
-1.286522763691e-03 7.001005547998e-04 0.0 
7.001005547998e-04 9.463601102731e-03 0.0 
0.0 0.0 0.0 
8.382363988135e-04 2.068895859645e-03 0.0 
2.068895859645e-03 5.581857530969e-03 0.0 
0.0 0.0 0.0 
1.087351488746e-03 1.985453872512e-03 0.0 
1.985453872512e-03 4.883890453889e-03 0.0 
0.0 0.0 0.0 
-1.316795968016e-03 1.151258966796e-03 0.0 
1.151258966796e-03 8.864378791166e-03 0.0 
0.0 0.0 0.0 
-1.306815176157e-03 1.310353237468e-03 0.0 
1.310353237468e-03 8.532319716807e-03 0.0 
0.0 0.0 0.0 
-1.194920782218e-03 1.613589804932e-03 0.0 
1.613589804932e-03 8.316943538333e-03 0.0 
0.0 0.0 0.0 
-1.278692398443e-03 1.511612477710e-03 0.0 
1.511612477710e-03 8.149349957915e-03 0.0 
0.0 0.0 0.0 
8.807538331086e-04 -1.575286480429e-03 0.0 
-1.575286480429e-03 1.074224049930e-03 0.0 
0.0 0.0 0.0 
4.966639269047e-04 -1.619362663261e-03 0.0 
-1.619362663261e-03 1.280745619817e-03 0.0 
0.0 0.0 0.0 
1.455378704856e-05 2.182109948282e-03 0.0 
2.182109948282e-03 8.991181924318e-03 0.0 
0.0 0.0 0.0 
2.615384290165e-04 2.133454836585e-03 0.0 
2.133454836585e-03 8.203160566084e-03 0.0 
0.0 0.0 0.0 
-1.883106143973e-04 2.135885481644e-03 0.0 
2.135885481644e-03 9.649608033244e-03 0.0 
0.0 0.0 0.0 
-3.191386225393e-04 2.050991303189e-03 0.0 
2.050991303189e-03 9.840731560044e-03 0.0 
0.0 0.0 0.0 
6.735756807557e-04 1.694264179599e-03 0.0 
1.694264179599e-03 6.936732650370e-03 0.0 
0.0 0.0 0.0 
8.473203339493e-04 1.519502815262e-03 0.0 
1.519502815262e-03 6.393048687781e-03 0.0 
0.0 0.0 0.0 
-9.448215414713e-05 -2.244126137918e-04 0.0 
-2.244126137918e-04 2.276689462415e-03 0.0 
0.0 0.0 0.0 
-1.129196436091e-03 2.021831520334e-03 0.0 
2.021831520334e-03 7.180874823632e-03 0.0 
0.0 0.0 0.0 
-4.750662562733e-04 6.597919535431e-04 0.0 
6.597919535431e-04 1.213084214997e-02 0.0 
0.0 0.0 0.0 
-1.311443884082e-03 1.020455593533e-03 0.0 
1.020455593533e-03 9.174588050945e-03 0.0 
0.0 0.0 0.0 
4.657573008232e-04 2.275218145887e-04 0.0 
2.275218145887e-04 6.160718320086e-03 0.0 
0.0 0.0 0.0 
4.792917126292e-04 1.136172811997e-04 0.0 
1.136172811997e-04 5.933606631218e-03 0.0 
0.0 0.0 0.0 
1.369183878230e-03 -9.448163898918e-04 0.0 
-9.448163898918e-04 -4.273305125520e-03 0.0 
0.0 0.0 0.0 
1.307103994804e-03 -2.037289380684e-03 0.0 
-2.037289380684e-03 -3.306447528676e-03 0.0 
0.0 0.0 0.0 
-3.574263108756e-04 2.016406173783e-04 0.0 
2.016406173783e-04 1.216721182497e-02 0.0 
0.0 0.0 0.0 
-4.327320354113e-04 3.012106181708e-03 0.0 
3.012106181708e-03 3.281210935887e-03 0.0 
0.0 0.0 0.0 
-5.486427018836e-04 2.863793768259e-03 0.0 
2.863793768259e-03 4.139079453012e-03 0.0 
0.0 0.0 0.0 
-2.822808745443e-04 3.130540131928e-03 0.0 
3.130540131928e-03 2.359612238462e-03 0.0 
0.0 0.0 0.0 
-8.269205389044e-06 -6.035967208206e-06 0.0 
-6.035967208206e-06 7.145631315905e-03 0.0 
0.0 0.0 0.0 
-7.235443472334e-04 5.124245610020e-06 0.0 
5.124245610020e-06 9.652639278138e-03 0.0 
0.0 0.0 0.0 
2.595830369974e-05 -2.813837683877e-05 0.0 
-2.813837683877e-05 6.666550415444e-03 0.0 
0.0 0.0 0.0 
-8.862928688110e-04 2.099358526122e-03 0.0 
2.099358526122e-03 7.466685742124e-03 0.0 
0.0 0.0 0.0 
-3.125813876361e-04 2.742657146686e-04 0.0 
2.742657146686e-04 1.232411220452e-02 0.0 
0.0 0.0 0.0 
1.006422760306e-03 1.921423388363e-03 0.0 
1.921423388363e-03 5.396440987236e-03 0.0 
0.0 0.0 0.0 
5.194330217638e-04 2.672562085206e-03 0.0 
2.672562085206e-03 4.248431650423e-03 0.0 
0.0 0.0 0.0 
1.081641721807e-03 4.733288025881e-04 0.0 
4.733288025881e-04 4.995534924669e-03 0.0 
0.0 0.0 0.0 
-4.044098223815e-04 1.287986443008e-04 0.0 
1.287986443008e-04 1.198443110056e-02 0.0 
0.0 0.0 0.0 
-2.843809987431e-04 1.600261386568e-04 0.0 
1.600261386568e-04 1.236005256992e-02 0.0 
0.0 0.0 0.0 
-9.005958503628e-04 2.261233404591e-04 0.0 
2.261233404591e-04 1.040591102963e-02 0.0 
0.0 0.0 0.0 
-8.734101294852e-04 1.527363351265e-04 0.0 
1.527363351265e-04 1.021391422718e-02 0.0 
0.0 0.0 0.0 
-9.342245831408e-04 3.063481690886e-04 0.0 
3.063481690886e-04 1.056580881039e-02 0.0 
0.0 0.0 0.0 
2.162282995166e-03 1.940486429216e-03 0.0 
1.940486429216e-03 -2.932319031372e-03 0.0 
0.0 0.0 0.0 
1.479333923575e-03 2.219686971496e-03 0.0 
2.219686971496e-03 -3.104194727319e-03 0.0 
0.0 0.0 0.0 
-4.810972023541e-04 3.386304570256e-04 0.0 
3.386304570256e-04 1.193840988722e-02 0.0 
0.0 0.0 0.0 
-1.088818865133e-04 -4.383901278608e-04 0.0 
-4.383901278608e-04 2.655097185203e-03 0.0 
0.0 0.0 0.0 
-1.104513201731e-04 -3.328626646348e-04 0.0 
-3.328626646348e-04 2.886821123706e-03 0.0 
0.0 0.0 0.0 
-3.280043731091e-04 -1.273008262483e-03 0.0 
-1.273008262483e-03 1.434055445040e-03 0.0 
0.0 0.0 0.0 
-1.081048484734e-04 -1.339248485607e-03 0.0 
-1.339248485607e-03 1.614815088954e-03 0.0 
0.0 0.0 0.0 
1.721267588278e-04 -4.808101911639e-04 0.0 
-4.808101911639e-04 3.918448356742e-03 0.0 
0.0 0.0 0.0 
2.431571702115e-04 -5.907197293105e-04 0.0 
-5.907197293105e-04 3.645273582328e-03 0.0 
0.0 0.0 0.0 
-4.965967495416e-04 1.952970785248e-03 0.0 
1.952970785248e-03 9.208661230266e-03 0.0 
0.0 0.0 0.0 
-5.653959493050e-04 1.887793348574e-03 0.0 
1.887793348574e-03 9.693785911934e-03 0.0 
0.0 0.0 0.0 
-2.504195252484e-04 2.102166232790e-03 0.0 
2.102166232790e-03 8.112567547748e-03 0.0 
0.0 0.0 0.0 
1.407045271377e-03 1.946835502541e-04 0.0 
1.946835502541e-04 3.801184094690e-03 0.0 
0.0 0.0 0.0 
1.536164494238e-03 3.791002475383e-05 0.0 
3.791002475383e-05 3.216763676667e-03 0.0 
0.0 0.0 0.0 
1.700464450894e-03 1.640535450098e-04 0.0 
1.640535450098e-04 2.903733763366e-03 0.0 
0.0 0.0 0.0 
-4.133952100846e-04 5.164754370290e-04 0.0 
5.164754370290e-04 1.219949347365e-02 0.0 
0.0 0.0 0.0 
-3.011658296305e-04 4.836195800154e-04 0.0 
4.836195800154e-04 1.242060738595e-02 0.0 
0.0 0.0 0.0 
1.261884581374e-03 -1.401069819075e-03 0.0 
-1.401069819075e-03 9.069364768520e-04 0.0 
0.0 0.0 0.0 
1.538732959161e-03 -1.404571640847e-03 0.0 
-1.404571640847e-03 3.114176746197e-04 0.0 
0.0 0.0 0.0 
6.902427103353e-04 -1.429718252680e-03 0.0 
-1.429718252680e-03 1.565936468360e-03 0.0 
0.0 0.0 0.0 
-4.283715463332e-04 7.794077105825e-04 0.0 
7.794077105825e-04 1.222647093293e-02 0.0 
0.0 0.0 0.0 
3.926410403650e-05 -1.909859059576e-05 0.0 
-1.909859059576e-05 6.865224923628e-03 0.0 
0.0 0.0 0.0 
7.472033406682e-05 -3.099950065604e-05 0.0 
-3.099950065604e-05 6.630827961336e-03 0.0 
0.0 0.0 0.0 
-2.029221212074e-04 -4.113079590239e-04 0.0 
-4.113079590239e-04 9.067772343805e-04 0.0 
0.0 0.0 0.0 
-3.940061185018e-04 -6.888041821893e-04 0.0 
-6.888041821893e-04 1.119022929701e-03 0.0 
0.0 0.0 0.0 
1.462684657003e-04 3.214451836622e-03 0.0 
3.214451836622e-03 3.117591227017e-04 0.0 
0.0 0.0 0.0 
4.475774835858e-04 3.113873198141e-03 0.0 
3.113873198141e-03 -8.511658888236e-04 0.0 
0.0 0.0 0.0 
-5.402825024810e-04 1.141877977111e-03 0.0 
1.141877977111e-03 1.190052823183e-02 0.0 
0.0 0.0 0.0 
-6.557505255194e-04 1.190770653474e-03 0.0 
1.190770653474e-03 1.166784272280e-02 0.0 
0.0 0.0 0.0 
-4.099553096665e-04 1.104318382978e-03 0.0 
1.104318382978e-03 1.214881200962e-02 0.0 
0.0 0.0 0.0 
-4.707087098582e-05 -1.299374930938e-04 0.0 
-1.299374930938e-04 2.030068297549e-03 0.0 
0.0 0.0 0.0 
6.971815383519e-04 1.971266596409e-03 0.0 
1.971266596409e-03 6.545975811449e-03 0.0 
0.0 0.0 0.0 
6.675273677188e-04 7.034525698988e-04 0.0 
7.034525698988e-04 6.176519406067e-03 0.0 
0.0 0.0 0.0 
8.243891964720e-04 8.015661267024e-04 0.0 
8.015661267024e-04 5.935669314942e-03 0.0 
0.0 0.0 0.0 
4.921507438413e-04 6.185601390634e-04 0.0 
6.185601390634e-04 6.525298222163e-03 0.0 
0.0 0.0 0.0 
6.600927338940e-04 1.888240264756e-03 0.0 
1.888240264756e-03 6.975136292039e-03 0.0 
0.0 0.0 0.0 
5.012153233322e-04 1.925585950253e-03 0.0 
1.925585950253e-03 7.481897941485e-03 0.0 
0.0 0.0 0.0 
3.164642944821e-04 2.092581354796e-03 0.0 
2.092581354796e-03 8.094284034484e-03 0.0 
0.0 0.0 0.0 
9.434861767318e-04 9.013053962884e-05 0.0 
9.013053962884e-05 -4.576537934302e-03 0.0 
0.0 0.0 0.0 
-3.123127632360e-04 9.767143534434e-05 0.0 
9.767143534434e-05 1.224560165745e-02 0.0 
0.0 0.0 0.0 
-8.064888921190e-04 1.099662047461e-04 0.0 
1.099662047461e-04 1.023629102142e-02 0.0 
0.0 0.0 0.0 
1.486812573906e-04 -6.102596009020e-04 0.0 
-6.102596009020e-04 -4.426890156901e-03 0.0 
0.0 0.0 0.0 
-7.821651657805e-04 7.089704417181e-05 0.0 
7.089704417181e-05 1.004657324548e-02 0.0 
0.0 0.0 0.0 
-7.521178598203e-04 7.938448647133e-05 0.0 
7.938448647133e-05 1.027638655596e-02 0.0 
0.0 0.0 0.0 
-7.682335218171e-04 3.950194923509e-05 0.0 
3.950194923509e-05 9.829514790694e-03 0.0 
0.0 0.0 0.0 
2.793115533125e-05 -1.120637983342e-04 0.0 
-1.120637983342e-04 1.621002191380e-03 0.0 
0.0 0.0 0.0 
-9.527467144215e-04 2.017803147219e-04 0.0 
2.017803147219e-04 1.012088532195e-02 0.0 
0.0 0.0 0.0 
-9.946843461237e-04 3.041728268354e-04 0.0 
3.041728268354e-04 1.034597080006e-02 0.0 
0.0 0.0 0.0 
-2.106837546607e-04 -3.591012461654e-04 0.0 
-3.591012461654e-04 6.612731079714e-04 0.0 
0.0 0.0 0.0 
-3.040258710204e-04 7.303106095237e-04 0.0 
7.303106095237e-04 1.241749818686e-02 0.0 
0.0 0.0 0.0 
-7.189425288379e-06 -2.258110849878e-04 0.0 
-2.258110849878e-04 6.492851504836e-04 0.0 
0.0 0.0 0.0 
2.452269706869e-05 -2.384353002928e-04 0.0 
-2.384353002928e-04 7.977942437476e-04 0.0 
0.0 0.0 0.0 
3.548448476174e-04 1.894551577366e-04 0.0 
1.894551577366e-04 6.457902203226e-03 0.0 
0.0 0.0 0.0 
3.597766454676e-04 8.759756841403e-05 0.0 
8.759756841403e-05 6.227403429946e-03 0.0 
0.0 0.0 0.0 
2.403661174376e-04 1.421167697841e-04 0.0 
1.421167697841e-04 6.724661737718e-03 0.0 
0.0 0.0 0.0 
2.492111856989e-04 7.078133365918e-05 0.0 
7.078133365918e-05 6.493673645897e-03 0.0 
0.0 0.0 0.0 
3.417690210358e-04 4.305815176246e-06 0.0 
4.305815176246e-06 6.020114582439e-03 0.0 
0.0 0.0 0.0 
2.409685260392e-04 6.316213871555e-06 0.0 
6.316213871555e-06 6.311999176312e-03 0.0 
0.0 0.0 0.0 
-8.467453653647e-04 9.812752296709e-05 0.0 
9.812752296709e-05 1.001047814783e-02 0.0 
0.0 0.0 0.0 
1.572480346502e-04 6.089959751814e-05 0.0 
6.089959751814e-05 6.837401047934e-03 0.0 
0.0 0.0 0.0 
1.553983340810e-04 3.648242170327e-06 0.0 
3.648242170327e-06 6.596994907736e-03 0.0 
0.0 0.0 0.0 
8.801835393598e-05 3.288281224052e-05 0.0 
3.288281224052e-05 7.115847222610e-03 0.0 
0.0 0.0 0.0 
-1.345475487365e-03 1.142235905093e-03 0.0 
1.142235905093e-03 8.352023107866e-03 0.0 
0.0 0.0 0.0 
-2.495419011984e-04 2.879712527747e-03 0.0 
2.879712527747e-03 4.284028998147e-03 0.0 
0.0 0.0 0.0 
-6.845817876520e-04 2.688533227911e-03 0.0 
2.688533227911e-03 4.988590487908e-03 0.0 
0.0 0.0 0.0 
-1.016173452020e-03 2.563858626760e-03 0.0 
2.563858626760e-03 4.944407913303e-03 0.0 
0.0 0.0 0.0 
-2.084650351238e-04 2.155946878159e-03 0.0 
2.155946878159e-03 1.020241470696e-02 0.0 
0.0 0.0 0.0 
-3.496327977316e-04 2.027124480303e-03 0.0 
2.027124480303e-03 1.028910406151e-02 0.0 
0.0 0.0 0.0 
1.344337903819e-05 -4.719883653785e-05 0.0 
-4.719883653785e-05 6.053237954361e-03 0.0 
0.0 0.0 0.0 
1.228154688937e-05 -6.876166536878e-05 0.0 
-6.876166536878e-05 5.641930543972e-03 0.0 
0.0 0.0 0.0 
-7.450280037977e-04 4.665848939384e-05 0.0 
4.665848939384e-05 1.005872560387e-02 0.0 
0.0 0.0 0.0 
-7.254976019358e-04 2.962627690271e-05 0.0 
2.962627690271e-05 1.003120580794e-02 0.0 
0.0 0.0 0.0 
-7.083923146973e-04 6.261189272446e-05 0.0 
6.261189272446e-05 1.040102943809e-02 0.0 
0.0 0.0 0.0 
-6.963854468967e-04 3.827558087802e-05 0.0 
3.827558087802e-05 1.034866032483e-02 0.0 
0.0 0.0 0.0 
-6.675663423838e-04 6.993642659198e-05 0.0 
6.993642659198e-05 1.071144769279e-02 0.0 
0.0 0.0 0.0 
-6.587404168235e-04 3.878684172286e-05 0.0 
3.878684172286e-05 1.065209947245e-02 0.0 
0.0 0.0 0.0 
-6.175960522233e-04 6.438262788478e-05 0.0 
6.438262788478e-05 1.101386769522e-02 0.0 
0.0 0.0 0.0 
1.725676472634e-04 2.213453870117e-03 0.0 
2.213453870117e-03 8.712422326234e-03 0.0 
0.0 0.0 0.0 
-8.759278012681e-04 2.928174624229e-03 0.0 
2.928174624229e-03 3.203400424031e-03 0.0 
0.0 0.0 0.0 
-1.330965515092e-03 8.695184457132e-04 0.0 
8.695184457132e-04 8.931289970382e-03 0.0 
0.0 0.0 0.0 
6.214295368222e-04 1.581990359252e-03 0.0 
1.581990359252e-03 6.968337743715e-03 0.0 
0.0 0.0 0.0 
7.958707758311e-04 1.393757423692e-03 0.0 
1.393757423692e-03 6.424993306645e-03 0.0 
0.0 0.0 0.0 
-1.223365656720e-03 1.751926461070e-03 0.0 
1.751926461070e-03 7.708753554454e-03 0.0 
0.0 0.0 0.0 
-1.309236374882e-03 1.582663956694e-03 0.0 
1.582663956694e-03 7.608021182594e-03 0.0 
0.0 0.0 0.0 
4.065121631530e-04 3.682525619427e-04 0.0 
3.682525619427e-04 6.516078513532e-03 0.0 
0.0 0.0 0.0 
1.130610499939e-03 2.644180512173e-03 0.0 
2.644180512173e-03 2.418344602910e-03 0.0 
0.0 0.0 0.0 
-2.161194010125e-04 8.670711751981e-04 0.0 
8.670711751981e-04 1.252633358421e-02 0.0 
0.0 0.0 0.0 
-1.097957667185e-03 2.132898765771e-03 0.0 
2.132898765771e-03 -3.019538764992e-03 0.0 
0.0 0.0 0.0 
4.315787915999e-04 2.095443230926e-03 0.0 
2.095443230926e-03 -3.523214584939e-03 0.0 
0.0 0.0 0.0 
8.192850647739e-04 2.683787750238e-03 0.0 
2.683787750238e-03 3.345804945728e-03 0.0 
0.0 0.0 0.0 
-1.122274917621e-03 1.834351524766e-03 0.0 
1.834351524766e-03 7.850408542179e-03 0.0 
0.0 0.0 0.0 
-4.433448827156e-04 2.725891409925e-03 0.0 
2.725891409925e-03 5.131002129491e-03 0.0 
0.0 0.0 0.0 
-8.185222264243e-04 2.536476149144e-03 0.0 
2.536476149144e-03 5.789269453617e-03 0.0 
0.0 0.0 0.0 
1.258507631357e-03 3.417289321837e-04 0.0 
3.417289321837e-04 4.393289131960e-03 0.0 
0.0 0.0 0.0 
-4.665767124727e-04 -7.723846269004e-04 0.0 
-7.723846269004e-04 9.643911348455e-04 0.0 
0.0 0.0 0.0 
-1.022130535622e-04 3.208363297502e-03 0.0 
3.208363297502e-03 1.373977635311e-03 0.0 
0.0 0.0 0.0 
-6.279767496858e-04 1.089381438249e-04 0.0 
1.089381438249e-04 1.106015410316e-02 0.0 
0.0 0.0 0.0 
-6.444498201435e-04 3.109261759987e-03 0.0 
3.109261759987e-03 1.396222796982e-03 0.0 
0.0 0.0 0.0 
-3.276047215672e-06 -2.882154605296e-05 0.0 
-2.882154605296e-05 5.878091424373e-03 0.0 
0.0 0.0 0.0 
1.514300048448e-03 2.346831145171e-03 0.0 
2.346831145171e-03 1.986923406089e-03 0.0 
0.0 0.0 0.0 
-5.976760374213e-04 2.284703671721e-03 0.0 
2.284703671721e-03 7.036514690927e-03 0.0 
0.0 0.0 0.0 
3.800449127277e-04 3.178503790946e-03 0.0 
3.178503790946e-03 1.460486426275e-03 0.0 
0.0 0.0 0.0 
2.128514695628e-04 2.912437438739e-03 0.0 
2.912437438739e-03 3.629090440957e-03 0.0 
0.0 0.0 0.0 
-1.181404027440e-03 1.254801630197e-03 0.0 
1.254801630197e-03 9.657968467788e-03 0.0 
0.0 0.0 0.0 
-1.266340811735e-03 8.354103169917e-04 0.0 
8.354103169917e-04 9.748830256613e-03 0.0 
0.0 0.0 0.0 
-1.293645286325e-03 9.162795534064e-04 0.0 
9.162795534064e-04 9.468536918838e-03 0.0 
0.0 0.0 0.0 
1.817350544836e-03 1.979698509922e-03 0.0 
1.979698509922e-03 1.678755580638e-03 0.0 
0.0 0.0 0.0 
-9.886926816770e-04 2.292922423359e-03 0.0 
2.292922423359e-03 6.559055016986e-03 0.0 
0.0 0.0 0.0 
-1.161991245546e-03 2.121366056722e-03 0.0 
2.121366056722e-03 6.472675469088e-03 0.0 
0.0 0.0 0.0 
-9.898120234860e-04 1.738547547285e-03 0.0 
1.738547547285e-03 8.693001787454e-03 0.0 
0.0 0.0 0.0 
-8.152167595782e-04 1.069559036447e-03 0.0 
1.069559036447e-03 1.139814541141e-02 0.0 
0.0 0.0 0.0 
-7.529301717059e-04 1.229562042067e-03 0.0 
1.229562042067e-03 1.140654192061e-02 0.0 
0.0 0.0 0.0 
-5.806994529914e-04 1.344736164003e-03 0.0 
1.344736164003e-03 1.165096561174e-02 0.0 
0.0 0.0 0.0 
-6.778015752913e-04 1.390627374557e-03 0.0 
1.390627374557e-03 1.138249827010e-02 0.0 
0.0 0.0 0.0 
-8.377766083020e-04 1.272669033553e-03 0.0 
1.272669033553e-03 1.112674338879e-02 0.0 
0.0 0.0 0.0 
-7.557544406702e-04 1.435686299324e-03 0.0 
1.435686299324e-03 1.108571258902e-02 0.0 
0.0 0.0 0.0 
-5.774313674870e-04 1.550340085420e-03 0.0 
1.550340085420e-03 1.133781938498e-02 0.0 
0.0 0.0 0.0 
-6.511944643040e-04 1.601892364257e-03 0.0 
1.601892364257e-03 1.101921712194e-02 0.0 
0.0 0.0 0.0 
-4.430170449017e-04 1.736015860468e-03 0.0 
1.736015860468e-03 1.131652104199e-02 0.0 
0.0 0.0 0.0 
-5.370509304053e-04 1.759554686283e-03 0.0 
1.759554686283e-03 1.091102746590e-02 0.0 
0.0 0.0 0.0 
-6.983648478948e-04 1.648686028167e-03 0.0 
1.648686028167e-03 1.065447372849e-02 0.0 
0.0 0.0 0.0 
-5.820028655451e-04 1.791271062368e-03 0.0 
1.791271062368e-03 1.053014102291e-02 0.0 
0.0 0.0 0.0 
-4.397837170232e-04 1.900841471003e-03 0.0 
1.900841471003e-03 1.076062327742e-02 0.0 
0.0 0.0 0.0 
-7.250110373742e-04 1.700777452492e-03 0.0 
1.700777452492e-03 1.027013084648e-02 0.0 
0.0 0.0 0.0 
4.278877919492e-04 1.766540438847e-03 0.0 
1.766540438847e-03 7.502020083056e-03 0.0 
0.0 0.0 0.0 
8.892419980792e-04 2.528280641516e-03 0.0 
2.528280641516e-03 3.766626894827e-03 0.0 
0.0 0.0 0.0 
1.431570407180e-03 1.130902037155e-03 0.0 
1.130902037155e-03 -4.117412422767e-03 0.0 
0.0 0.0 0.0 
5.278760326532e-04 2.900093076122e-03 0.0 
2.900093076122e-03 -2.417217628122e-03 0.0 
0.0 0.0 0.0 
-7.669912127661e-04 2.094282903205e-03 0.0 
2.094282903205e-03 7.654421374112e-03 0.0 
0.0 0.0 0.0 
-2.302017853618e-04 1.799749666679e-03 0.0 
1.799749666679e-03 1.167585682317e-02 0.0 
0.0 0.0 0.0 
-2.410841613000e-04 1.505528382704e-03 0.0 
1.505528382704e-03 1.206336855619e-02 0.0 
0.0 0.0 0.0 
1.790961801032e-03 2.338394305872e-03 0.0 
2.338394305872e-03 4.768020706466e-04 0.0 
0.0 0.0 0.0 
-8.844419368400e-05 2.313840227098e-03 0.0 
2.313840227098e-03 1.036750604408e-02 0.0 
0.0 0.0 0.0 
-1.259471922224e-03 1.144524921089e-03 0.0 
1.144524921089e-03 9.417247564071e-03 0.0 
0.0 0.0 0.0 
2.388604969219e-03 1.773666910525e-03 0.0 
1.773666910525e-03 -2.356714547849e-03 0.0 
0.0 0.0 0.0 
6.060939921744e-06 2.364017163907e-03 0.0 
2.364017163907e-03 9.703197304661e-03 0.0 
0.0 0.0 0.0 
-9.024666711772e-04 1.109193173392e-03 0.0 
1.109193173392e-03 1.113712582754e-02 0.0 
0.0 0.0 0.0 
-9.757398056792e-04 1.150620449408e-03 0.0 
1.150620449408e-03 1.085654313822e-02 0.0 
0.0 0.0 0.0 
-1.023777173858e-03 9.849850440966e-04 0.0 
9.849850440966e-04 1.085405378092e-02 0.0 
0.0 0.0 0.0 
-2.158375948530e-04 1.251503802274e-03 0.0 
1.251503802274e-03 1.232082167605e-02 0.0 
0.0 0.0 0.0 
-9.599669592124e-04 4.058297615172e-04 0.0 
4.058297615172e-04 1.072379236618e-02 0.0 
0.0 0.0 0.0 
1.824737801187e-04 2.122541506487e-03 0.0 
2.122541506487e-03 8.444900390423e-03 0.0 
0.0 0.0 0.0 
1.541630939416e-03 1.409264716231e-03 0.0 
1.409264716231e-03 4.029883878187e-03 0.0 
0.0 0.0 0.0 
1.468222521105e-03 1.636251678135e-03 0.0 
1.636251678135e-03 4.069558942981e-03 0.0 
0.0 0.0 0.0 
1.583210329778e-03 1.686952747601e-03 0.0 
1.686952747601e-03 3.482067609294e-03 0.0 
0.0 0.0 0.0 
-8.121576691951e-04 1.484266100487e-03 0.0 
1.484266100487e-03 1.075546512134e-02 0.0 
0.0 0.0 0.0 
3.035806368875e-04 1.472526120208e-03 0.0 
1.472526120208e-03 7.447843381976e-03 0.0 
0.0 0.0 0.0 
5.670617328180e-04 1.286367096850e-03 0.0 
1.286367096850e-03 6.829075559462e-03 0.0 
0.0 0.0 0.0 
5.632186544425e-04 1.115644274640e-03 0.0 
1.115644274640e-03 6.707401986611e-03 0.0 
0.0 0.0 0.0 
8.066276853723e-04 1.110638867110e-03 0.0 
1.110638867110e-03 6.194136679664e-03 0.0 
0.0 0.0 0.0 
3.005738903533e-04 1.101629844731e-03 0.0 
1.101629844731e-03 7.197487288876e-03 0.0 
0.0 0.0 0.0 
-1.792078807889e-04 2.056369878332e-03 0.0 
2.056369878332e-03 1.124798496009e-02 0.0 
0.0 0.0 0.0 
-1.471825501455e-04 2.166527634589e-03 0.0 
2.166527634589e-03 1.099132844677e-02 0.0 
0.0 0.0 0.0 
1.422069791759e-03 -1.730170724208e-03 0.0 
-1.730170724208e-03 -1.861375546169e-04 0.0 
0.0 0.0 0.0 
1.853332305243e-03 -1.308007039213e-03 0.0 
-1.308007039213e-03 -3.404039456658e-04 0.0 
0.0 0.0 0.0 
1.873955071649e-03 -1.009059133055e-03 0.0 
-1.009059133055e-03 2.646847271004e-04 0.0 
0.0 0.0 0.0 
2.157604207035e-03 -7.861652321006e-04 0.0 
-7.861652321006e-04 -3.127131141787e-04 0.0 
0.0 0.0 0.0 
2.187395569785e-03 -1.064683989941e-03 0.0 
-1.064683989941e-03 -1.034386063078e-03 0.0 
0.0 0.0 0.0 
2.414457304102e-03 -4.167751573519e-04 0.0 
-4.167751573519e-04 -8.618707618978e-04 0.0 
0.0 0.0 0.0 
2.321026813740e-03 -2.335631137132e-04 0.0 
-2.335631137132e-04 -9.169500716131e-05 0.0 
0.0 0.0 0.0 
2.594788047806e-03 1.147005833533e-04 0.0 
1.147005833533e-04 -1.316330764931e-03 0.0 
0.0 0.0 0.0 
-4.594362798552e-04 1.946086954024e-03 0.0 
1.946086954024e-03 9.991457303133e-03 0.0 
0.0 0.0 0.0 
2.570619723356e-04 7.619701814953e-04 0.0 
7.619701814953e-04 7.100878678669e-03 0.0 
0.0 0.0 0.0 
1.091065642722e-03 -2.757203975930e-04 0.0 
-2.757203975930e-04 3.733742157195e-03 0.0 
0.0 0.0 0.0 
1.273339929400e-03 -2.628591328293e-04 0.0 
-2.628591328293e-04 3.366017759697e-03 0.0 
0.0 0.0 0.0 
1.334246291556e-03 -4.554958564355e-04 0.0 
-4.554958564355e-04 2.842771357651e-03 0.0 
0.0 0.0 0.0 
1.837229475038e-04 -6.790820159590e-04 0.0 
-6.790820159590e-04 3.295545879412e-03 0.0 
0.0 0.0 0.0 
3.249778467002e-04 -7.096259679388e-04 0.0 
-7.096259679388e-04 3.352692506027e-03 0.0 
0.0 0.0 0.0 
3.764502710905e-04 -5.956151132174e-04 0.0 
-5.956151132174e-04 3.718158284868e-03 0.0 
0.0 0.0 0.0 
6.667658576998e-05 -6.186083798226e-04 0.0 
-6.186083798226e-04 3.220297030970e-03 0.0 
0.0 0.0 0.0 
3.741860582633e-04 2.128828378493e-03 0.0 
2.128828378493e-03 6.932227641932e-03 0.0 
0.0 0.0 0.0 
2.348743587949e-04 6.095698584021e-04 0.0 
6.095698584021e-04 7.074967402644e-03 0.0 
0.0 0.0 0.0 
1.696971156738e-03 4.588061108944e-04 0.0 
4.588061108944e-04 3.250659133565e-03 0.0 
0.0 0.0 0.0 
4.198307510423e-04 -8.365821206926e-04 0.0 
-8.365821206926e-04 3.036990290467e-03 0.0 
0.0 0.0 0.0 
-1.069589021923e-03 2.323846940644e-04 0.0 
2.323846940644e-04 9.707695588762e-03 0.0 
0.0 0.0 0.0 
-1.103690489122e-03 3.709750676662e-04 0.0 
3.709750676662e-04 1.003324189256e-02 0.0 
0.0 0.0 0.0 
-1.167200799582e-03 4.578946310904e-04 0.0 
4.578946310904e-04 1.000569584655e-02 0.0 
0.0 0.0 0.0 
-1.115622039325e-03 5.304576929841e-04 0.0 
5.304576929841e-04 1.036234105375e-02 0.0 
0.0 0.0 0.0 
-1.050035599552e-03 2.994856183624e-04 0.0 
2.994856183624e-04 1.009335609277e-02 0.0 
0.0 0.0 0.0 
1.113904671440e-04 -3.796497546449e-04 0.0 
-3.796497546449e-04 4.174972676931e-03 0.0 
0.0 0.0 0.0 
6.191691747689e-05 -2.872566148000e-04 0.0 
-2.872566148000e-04 4.414826490900e-03 0.0 
0.0 0.0 0.0 
7.898412760499e-07 -2.460370398501e-04 0.0 
-2.460370398501e-04 4.271290519321e-03 0.0 
0.0 0.0 0.0 
2.389011051100e-05 -2.042594407245e-04 0.0 
-2.042594407245e-04 4.638947854941e-03 0.0 
0.0 0.0 0.0 
-2.168953908166e-05 -1.644513640891e-04 0.0 
-1.644513640891e-04 4.468933436909e-03 0.0 
0.0 0.0 0.0 
-4.259755581456e-05 -1.954489385651e-04 0.0 
-1.954489385651e-04 4.130410105580e-03 0.0 
0.0 0.0 0.0 
-4.428995215855e-06 -1.297671013767e-04 0.0 
-1.297671013767e-04 4.843348265842e-03 0.0 
0.0 0.0 0.0 
-3.917772683241e-05 -9.070153948155e-05 0.0 
-9.070153948155e-05 4.629811979121e-03 0.0 
0.0 0.0 0.0 
-9.686499912076e-04 1.337771719518e-04 0.0 
1.337771719518e-04 9.718083230620e-03 0.0 
0.0 0.0 0.0 
-1.236752285355e-03 -1.934200924929e-03 0.0 
-1.934200924929e-03 -9.310342117589e-04 0.0 
0.0 0.0 0.0 
-7.213958008919e-04 -2.310600604578e-03 0.0 
-2.310600604578e-03 -6.008752096967e-04 0.0 
0.0 0.0 0.0 
-8.508878743120e-04 -1.632216748021e-03 0.0 
-1.632216748021e-03 2.823772817168e-04 0.0 
0.0 0.0 0.0 
-3.671014982956e-04 -2.348500170698e-03 0.0 
-2.348500170698e-03 -3.897547018151e-04 0.0 
0.0 0.0 0.0 
3.677650218638e-04 -2.538360496658e-03 0.0 
-2.538360496658e-03 -1.702338149032e-03 0.0 
0.0 0.0 0.0 
5.022087084160e-04 -2.472003359697e-03 0.0 
-2.472003359697e-03 -1.136472055505e-03 0.0 
0.0 0.0 0.0 
1.234384233603e-03 -2.358581680783e-03 0.0 
-2.358581680783e-03 -2.376166627658e-03 0.0 
0.0 0.0 0.0 
-2.547298089822e-05 -2.470458798734e-03 0.0 
-2.470458798734e-03 -2.372233053983e-03 0.0 
0.0 0.0 0.0 
-6.395157756550e-04 -6.037078846082e-04 0.0 
-6.037078846082e-04 3.420025132479e-04 0.0 
0.0 0.0 0.0 
-7.054954598128e-04 -1.070454295891e-03 0.0 
-1.070454295891e-03 5.637741685144e-04 0.0 
0.0 0.0 0.0 
-2.706193956051e-04 -3.331451242669e-04 0.0 
-3.331451242669e-04 3.071359932342e-04 0.0 
0.0 0.0 0.0 
-5.067509320239e-04 -6.904629801913e-04 0.0 
-6.904629801913e-04 6.356840528728e-04 0.0 
0.0 0.0 0.0 
-6.309158128365e-04 -1.357806869096e-03 0.0 
-1.357806869096e-03 7.718415936090e-04 0.0 
0.0 0.0 0.0 
-3.788191403336e-04 -9.318068041786e-04 0.0 
-9.318068041786e-04 1.416338880253e-03 0.0 
0.0 0.0 0.0 
1.458290583845e-05 -6.489335373407e-06 0.0 
-6.489335373407e-06 7.327968073408e-03 0.0 
0.0 0.0 0.0 
-1.083446520120e-04 -8.203587304609e-05 0.0 
-8.203587304609e-05 3.619220072685e-03 0.0 
0.0 0.0 0.0 
-1.111033907727e-04 -1.641995309816e-04 0.0 
-1.641995309816e-04 3.430478362531e-03 0.0 
0.0 0.0 0.0 
-1.194797275417e-04 -1.642196002753e-04 0.0 
-1.642196002753e-04 3.084882176588e-03 0.0 
0.0 0.0 0.0 
-1.041090097008e-04 -2.615631389199e-04 0.0 
-2.615631389199e-04 3.242546504169e-03 0.0 
0.0 0.0 0.0 
-9.220186583174e-05 -1.526471211166e-04 0.0 
-1.526471211166e-04 3.751686335969e-03 0.0 
0.0 0.0 0.0 
-1.216945840105e-04 -7.905611442526e-05 0.0 
-7.905611442526e-05 2.899425273429e-03 0.0 
0.0 0.0 0.0 
-1.159686208565e-04 -1.559980221797e-04 0.0 
-1.559980221797e-04 2.754551238955e-03 0.0 
0.0 0.0 0.0 
5.236395027850e-04 -1.825164933579e-05 0.0 
-1.825164933579e-05 3.269100401928e-05 0.0 
0.0 0.0 0.0 
3.791243962848e-04 -3.652508957104e-05 0.0 
-3.652508957104e-05 4.097743586537e-04 0.0 
0.0 0.0 0.0 
4.152979506519e-04 -4.990195184148e-06 0.0 
-4.990195184148e-06 3.615672167645e-04 0.0 
0.0 0.0 0.0 
2.433415030516e-04 -4.764020159189e-05 0.0 
-4.764020159189e-05 8.183084972580e-04 0.0 
0.0 0.0 0.0 
2.342770389689e-04 -7.871402796351e-05 0.0 
-7.871402796351e-05 8.107109087593e-04 0.0 
0.0 0.0 0.0 
3.598673278768e-04 -5.263980582565e-05 0.0 
-5.263980582565e-05 4.197279825403e-04 0.0 
0.0 0.0 0.0 
3.212036245258e-04 -6.794867782591e-05 0.0 
-6.794867782591e-05 4.363053801906e-04 0.0 
0.0 0.0 0.0 
4.755758245601e-04 -3.302739309162e-05 0.0 
-3.302739309162e-05 5.336449505583e-05 0.0 
0.0 0.0 0.0 
2.700999137084e-04 -9.123640506455e-05 0.0 
-9.123640506455e-05 4.602700375110e-04 0.0 
0.0 0.0 0.0 
1.431616642036e-04 -1.486271876467e-04 0.0 
-1.486271876467e-04 8.618470367706e-04 0.0 
0.0 0.0 0.0 
4.452675411374e-04 -4.351455730893e-05 0.0 
-4.351455730893e-05 5.730013384599e-05 0.0 
0.0 0.0 0.0 
-5.132028090587e-04 3.320004144900e-05 0.0 
3.320004144900e-05 1.150387328256e-02 0.0 
0.0 0.0 0.0 
-4.692724933513e-04 7.862400026764e-05 0.0 
7.862400026764e-05 1.170222575202e-02 0.0 
0.0 0.0 0.0 
1.920767396112e-04 3.567950274287e-04 0.0 
3.567950274287e-04 7.067843528537e-03 0.0 
0.0 0.0 0.0 
-8.777905906221e-04 8.107265617328e-05 0.0 
8.107265617328e-05 9.757949877366e-03 0.0 
0.0 0.0 0.0 
5.590445937461e-05 -1.380059168146e-04 0.0 
-1.380059168146e-04 2.171025036848e-04 0.0 
0.0 0.0 0.0 
-1.570493335525e-04 3.112170752461e-04 0.0 
3.112170752461e-04 1.269318937391e-02 0.0 
0.0 0.0 0.0 
-1.609264100445e-04 5.684028719068e-04 0.0 
5.684028719068e-04 1.268368913087e-02 0.0 
0.0 0.0 0.0 
-1.429777632400e-04 4.854101893050e-04 0.0 
4.854101893050e-04 1.271498692148e-02 0.0 
0.0 0.0 0.0 
-6.099987532889e-06 -1.028380112044e-05 0.0 
-1.028380112044e-05 6.721811912060e-03 0.0 
0.0 0.0 0.0 
3.524972180147e-06 -1.536868098493e-05 0.0 
-1.536868098493e-05 6.917052970091e-03 0.0 
0.0 0.0 0.0 
-1.397136415022e-04 1.761596638113e-04 0.0 
1.761596638113e-04 1.271988643620e-02 0.0 
0.0 0.0 0.0 
-8.256163479559e-05 -9.618220385927e-04 0.0 
-9.618220385927e-04 2.120600466568e-03 0.0 
0.0 0.0 0.0 
-5.044046537777e-04 1.512291698509e-03 0.0 
1.512291698509e-03 1.161855393126e-02 0.0 
0.0 0.0 0.0 
-3.962880350412e-04 3.097912097625e-04 0.0 
3.097912097625e-04 1.212764808110e-02 0.0 
0.0 0.0 0.0 
1.807060176263e-03 2.526380258749e-03 0.0 
2.526380258749e-03 -1.770809726681e-03 0.0 
0.0 0.0 0.0 
1.533687722222e-04 -1.533971726055e-03 0.0 
-1.533971726055e-03 1.477555563979e-03 0.0 
0.0 0.0 0.0 
4.370066259825e-05 -1.182011250016e-04 0.0 
-1.182011250016e-04 5.416752166676e-03 0.0 
0.0 0.0 0.0 
4.094518734665e-04 -3.609428881852e-04 0.0 
-3.609428881852e-04 4.511752443094e-03 0.0 
0.0 0.0 0.0 
1.090543275574e-04 -6.570210285169e-05 0.0 
-6.570210285169e-05 6.194077721184e-03 0.0 
0.0 0.0 0.0 
1.468474074651e-04 -2.411190050021e-04 0.0 
-2.411190050021e-04 4.938294544119e-03 0.0 
0.0 0.0 0.0 
2.594021085964e-04 -1.182604037004e-04 0.0 
-1.182604037004e-04 5.669786618081e-03 0.0 
0.0 0.0 0.0 
5.626061263293e-04 9.219365228745e-04 0.0 
9.219365228745e-04 6.573954474068e-03 0.0 
0.0 0.0 0.0 
3.900917963316e-05 -1.615445923526e-04 0.0 
-1.615445923526e-04 1.480362750522e-03 0.0 
0.0 0.0 0.0 
-7.915634713775e-04 2.363011824606e-04 0.0 
2.363011824606e-04 1.082617544600e-02 0.0 
0.0 0.0 0.0 
-7.202906316542e-04 1.245739290107e-04 0.0 
1.245739290107e-04 1.067965086288e-02 0.0 
0.0 0.0 0.0 
-5.834954922674e-04 2.848626322999e-04 0.0 
2.848626322999e-04 1.159461734595e-02 0.0 
0.0 0.0 0.0 
-1.152725540711e-04 -5.431762769080e-04 0.0 
-5.431762769080e-04 2.456056152230e-03 0.0 
0.0 0.0 0.0 
-2.525424286616e-05 -2.871232258239e-04 0.0 
-2.871232258239e-04 3.922364900400e-03 0.0 
0.0 0.0 0.0 
-1.669383715152e-04 -4.955401365693e-04 0.0 
-4.955401365693e-04 1.596173437705e-03 0.0 
0.0 0.0 0.0 
-2.942626857081e-05 2.255186937917e-03 0.0 
2.255186937917e-03 9.542087758222e-03 0.0 
0.0 0.0 0.0 
-1.096506644659e-03 1.687069696090e-03 0.0 
1.687069696090e-03 8.495835011244e-03 0.0 
0.0 0.0 0.0 
1.166037477485e-03 -6.599647246145e-04 0.0 
-6.599647246145e-04 2.747730005478e-03 0.0 
0.0 0.0 0.0 
1.078940091006e-04 -7.512944435655e-04 0.0 
-7.512944435655e-04 2.964449690002e-03 0.0 
0.0 0.0 0.0 
6.479995679698e-05 -1.121574685548e-03 0.0 
-1.121574685548e-03 2.121753673060e-03 0.0 
0.0 0.0 0.0 
2.340870773303e-04 -1.780508955632e-03 0.0 
-1.780508955632e-03 1.056924293624e-03 0.0 
0.0 0.0 0.0 
5.883994387151e-04 2.535458487955e-03 0.0 
2.535458487955e-03 4.617751219429e-03 0.0 
0.0 0.0 0.0 
6.063625172825e-04 -8.145582863586e-04 0.0 
-8.145582863586e-04 3.058780207636e-03 0.0 
0.0 0.0 0.0 
6.875626615315e-04 -1.071627748472e-04 0.0 
-1.071627748472e-04 4.918436076395e-03 0.0 
0.0 0.0 0.0 
-5.071199609022e-04 2.645145144148e-04 0.0 
2.645145144148e-04 1.178895471809e-02 0.0 
0.0 0.0 0.0 
2.738352972432e-04 -7.729714057316e-05 0.0 
-7.729714057316e-05 1.687029482592e-04 0.0 
0.0 0.0 0.0 
7.453138820656e-04 2.383158244329e-05 0.0 
2.383158244329e-05 5.099612458057e-03 0.0 
0.0 0.0 0.0 
6.624345805204e-04 -5.020512506425e-04 0.0 
-5.020512506425e-04 3.867500698168e-03 0.0 
0.0 0.0 0.0 
-8.889842316059e-04 4.056487635700e-04 0.0 
4.056487635700e-04 1.094129873487e-02 0.0 
0.0 0.0 0.0 
1.210885638860e-03 1.271127696620e-03 0.0 
1.271127696620e-03 5.261951807052e-03 0.0 
0.0 0.0 0.0 
1.845090645153e-04 -2.364511033409e-03 0.0 
-2.364511033409e-03 -2.674017719494e-04 0.0 
0.0 0.0 0.0 
-6.365210977412e-04 4.737347552429e-04 0.0 
4.737347552429e-04 1.169305029435e-02 0.0 
0.0 0.0 0.0 
-4.931027880937e-04 9.439220572608e-04 0.0 
9.439220572608e-04 1.207862406514e-02 0.0 
0.0 0.0 0.0 
-1.023464554624e-03 4.070659196414e-04 0.0 
4.070659196414e-04 1.050373269858e-02 0.0 
0.0 0.0 0.0 
-9.923191356927e-05 -3.660021641221e-04 0.0 
-3.660021641221e-04 1.213740965875e-03 0.0 
0.0 0.0 0.0 
-8.298459518870e-04 1.646791224011e-04 0.0 
1.646791224011e-04 1.043335391621e-02 0.0 
0.0 0.0 0.0 
5.717869927230e-04 4.344113155029e-04 0.0 
4.344113155029e-04 6.145549373897e-03 0.0 
0.0 0.0 0.0 
-8.593971484928e-04 9.153374461631e-04 0.0 
9.153374461631e-04 1.136014479375e-02 0.0 
0.0 0.0 0.0 
-1.205039802249e-04 -4.132364016937e-04 0.0 
-4.132364016937e-04 2.299333462001e-03 0.0 
0.0 0.0 0.0 
1.950136132653e-03 5.654557260871e-04 0.0 
5.654557260871e-04 2.391487596926e-03 0.0 
0.0 0.0 0.0 
-2.824240258444e-04 2.386895420741e-03 0.0 
2.386895420741e-03 6.597793652794e-03 0.0 
0.0 0.0 0.0 
-1.265274451205e-03 5.477243498067e-04 0.0 
5.477243498067e-04 9.172028605845e-03 0.0 
0.0 0.0 0.0 
-3.588609509472e-04 3.865797981236e-04 0.0 
3.865797981236e-04 1.225783035916e-02 0.0 
0.0 0.0 0.0 
1.150970032597e-03 2.074393348534e-03 0.0 
2.074393348534e-03 4.378662597349e-03 0.0 
0.0 0.0 0.0 
1.066932009261e-03 1.005301558673e-03 0.0 
1.005301558673e-03 5.512726913328e-03 0.0 
0.0 0.0 0.0 
1.639948344597e-03 7.386146742007e-04 0.0 
7.386146742007e-04 3.666235399295e-03 0.0 
0.0 0.0 0.0 
-1.142873215190e-04 -3.272507196002e-04 0.0 
-3.272507196002e-04 2.485761171090e-03 0.0 
0.0 0.0 0.0 
4.585180146907e-04 6.607876143166e-06 0.0 
6.607876143166e-06 5.730043414455e-03 0.0 
0.0 0.0 0.0 
1.810655018431e-03 1.453530777214e-03 0.0 
1.453530777214e-03 2.793820535667e-03 0.0 
0.0 0.0 0.0 
-5.159078599545e-04 5.510075286394e-04 0.0 
5.510075286394e-04 1.201666279193e-02 0.0 
0.0 0.0 0.0 
-1.940275834844e-04 2.085463538520e-03 0.0 
2.085463538520e-03 8.437644510512e-03 0.0 
0.0 0.0 0.0 
2.283942785204e-03 7.718392571406e-04 0.0 
7.718392571406e-04 8.284012915650e-04 0.0 
0.0 0.0 0.0 
-6.899204371908e-04 7.209591913773e-04 0.0 
7.209591913773e-04 1.172681161002e-02 0.0 
0.0 0.0 0.0 
1.533657120515e-03 -4.129552577798e-04 0.0 
-4.129552577798e-04 2.444775113990e-03 0.0 
0.0 0.0 0.0 
1.043193826377e-03 1.466359720088e-03 0.0 
1.466359720088e-03 5.809184662272e-03 0.0 
0.0 0.0 0.0 
-1.009807807143e-03 1.881878566642e-03 0.0 
1.881878566642e-03 8.016666138122e-03 0.0 
0.0 0.0 0.0 
-3.168571999236e-04 2.137027652595e-03 0.0 
2.137027652595e-03 7.806347895809e-03 0.0 
0.0 0.0 0.0 
-8.321798079370e-04 1.702852609109e-03 0.0 
1.702852609109e-03 9.607630528939e-03 0.0 
0.0 0.0 0.0 
3.728307024719e-04 2.275978963131e-03 0.0 
2.275978963131e-03 6.145455075695e-03 0.0 
0.0 0.0 0.0 
5.398470443304e-06 -9.305411808281e-05 0.0 
-9.305411808281e-05 5.239451017136e-03 0.0 
0.0 0.0 0.0 
5.945445655032e-04 1.464206832718e-05 0.0 
1.464206832718e-05 5.419289525045e-03 0.0 
0.0 0.0 0.0 
2.520187050114e-03 -9.476785030123e-04 0.0 
-9.476785030123e-04 -3.431288397192e-03 0.0 
0.0 0.0 0.0 
3.995702596422e-04 2.801961236306e-03 0.0 
2.801961236306e-03 3.915218857151e-03 0.0 
0.0 0.0 0.0 
-9.738165827726e-04 5.209699484384e-04 0.0 
5.209699484384e-04 1.086277277269e-02 0.0 
0.0 0.0 0.0 
1.507509595384e-04 2.129805556927e-03 0.0 
2.129805556927e-03 8.358863163147e-03 0.0 
0.0 0.0 0.0 
-3.722256182229e-04 6.210632234933e-04 0.0 
6.210632234933e-04 1.232092947847e-02 0.0 
0.0 0.0 0.0 
-3.843838909769e-04 2.465283232908e-03 0.0 
2.465283232908e-03 6.348966086221e-03 0.0 
0.0 0.0 0.0 
4.174621758197e-04 -8.121937627649e-05 0.0 
-8.121937627649e-05 5.545510390147e-03 0.0 
0.0 0.0 0.0 
-5.433576557795e-04 8.155747910639e-04 0.0 
8.155747910639e-04 1.201669460405e-02 0.0 
0.0 0.0 0.0 
4.831415570974e-04 -7.036191613029e-04 0.0 
-7.036191613029e-04 3.400505344979e-03 0.0 
0.0 0.0 0.0 
1.051115597054e-05 -5.509976005348e-05 0.0 
-5.509976005348e-05 1.733609370536e-03 0.0 
0.0 0.0 0.0 
1.349316404904e-03 2.736578885834e-03 0.0 
2.736578885834e-03 -2.011609480923e-03 0.0 
0.0 0.0 0.0 
2.525213191108e-03 7.594495236325e-04 0.0 
7.594495236325e-04 -7.195881661047e-04 0.0 
0.0 0.0 0.0 
1.420612946484e-03 1.946527623387e-03 0.0 
1.946527623387e-03 3.633524051479e-03 0.0 
0.0 0.0 0.0 
5.188296862126e-04 -5.668704464436e-04 0.0 
-5.668704464436e-04 3.788545488381e-03 0.0 
0.0 0.0 0.0 
-4.447854809468e-04 1.326593512862e-03 0.0 
1.326593512862e-03 1.192558241287e-02 0.0 
0.0 0.0 0.0 
3.075340795295e-04 -6.439651463869e-05 0.0 
-6.439651463869e-05 5.839194052957e-03 0.0 
0.0 0.0 0.0 
1.096916975086e-03 2.682640134683e-04 0.0 
2.682640134683e-04 4.696856260996e-03 0.0 
0.0 0.0 0.0 
-1.267163267925e-03 2.960513416846e-03 0.0 
2.960513416846e-03 6.743706600007e-04 0.0 
0.0 0.0 0.0 
-1.310051314543e-03 7.750702246365e-04 0.0 
7.750702246365e-04 9.201711714847e-03 0.0 
0.0 0.0 0.0 
2.139936787542e-04 -4.944550643243e-05 0.0 
-4.944550643243e-05 6.121445027352e-03 0.0 
0.0 0.0 0.0 
1.842700756686e-03 3.396645459705e-04 0.0 
3.396645459705e-04 2.624634302735e-03 0.0 
0.0 0.0 0.0 
1.009769842652e-03 1.329915611982e-03 0.0 
1.329915611982e-03 5.852477726494e-03 0.0 
0.0 0.0 0.0 
-5.687479058375e-05 -1.171951002425e-04 0.0 
-1.171951002425e-04 4.279747575862e-03 0.0 
0.0 0.0 0.0 
5.631205494283e-05 2.248706434038e-03 0.0 
2.248706434038e-03 9.169142607746e-03 0.0 
0.0 0.0 0.0 
-1.335320156118e-03 1.345336394151e-03 0.0 
1.345336394151e-03 8.011037014341e-03 0.0 
0.0 0.0 0.0 
1.363131103494e-04 -3.854198136351e-05 0.0 
-3.854198136351e-05 6.395879067053e-03 0.0 
0.0 0.0 0.0 
1.232540812272e-03 5.680683014390e-04 0.0 
5.680683014390e-04 4.721142538700e-03 0.0 
0.0 0.0 0.0 
1.455352468915e-03 2.535237601883e-03 0.0 
2.535237601883e-03 1.466689495956e-03 0.0 
0.0 0.0 0.0 
-7.315521969510e-04 1.092654718678e-05 0.0 
1.092654718678e-05 9.669773276758e-03 0.0 
0.0 0.0 0.0 
8.197839831198e-05 -5.977340078983e-07 0.0 
-5.977340078983e-07 6.916296090403e-03 0.0 
0.0 0.0 0.0 
1.028902990575e-03 6.844507441866e-04 0.0 
6.844507441866e-04 5.334080977378e-03 0.0 
0.0 0.0 0.0 
3.810669075988e-04 2.191289156621e-03 0.0 
2.191289156621e-03 6.532443377829e-03 0.0 
0.0 0.0 0.0 
1.823307423571e-03 1.035837291741e-05 0.0 
1.035837291741e-05 2.291654467803e-03 0.0 
0.0 0.0 0.0 
-1.297611237088e-03 6.786670398378e-04 0.0 
6.786670398378e-04 8.690481830415e-03 0.0 
0.0 0.0 0.0 
4.040683245182e-04 -4.777571620380e-04 0.0 
-4.777571620380e-04 4.104610241390e-03 0.0 
0.0 0.0 0.0 
-4.716985807773e-04 2.034132271729e-03 0.0 
2.034132271729e-03 8.389604195672e-03 0.0 
0.0 0.0 0.0 
-1.989868401200e-04 1.129891240782e-03 0.0 
1.129891240782e-03 1.241910458973e-02 0.0 
0.0 0.0 0.0 
9.393127892993e-04 8.860462038399e-04 0.0 
8.860462038399e-04 5.696463807232e-03 0.0 
0.0 0.0 0.0 
-1.088466961856e-03 1.027163819342e-03 0.0 
1.027163819342e-03 1.058003854186e-02 0.0 
0.0 0.0 0.0 
2.832673034004e-04 -4.934350537988e-04 0.0 
-4.934350537988e-04 4.013140183760e-03 0.0 
0.0 0.0 0.0 
1.125275819658e-03 1.760238615997e-03 0.0 
1.760238615997e-03 5.282601499187e-03 0.0 
0.0 0.0 0.0 
2.053851950580e-04 -1.066071645643e-04 0.0 
-1.066071645643e-04 8.229635196249e-04 0.0 
0.0 0.0 0.0 
-1.341394660038e-03 9.881921361840e-04 0.0 
9.881921361840e-04 8.656674896974e-03 0.0 
0.0 0.0 0.0 
2.027954633808e-04 -3.981596438971e-04 0.0 
-3.981596438971e-04 4.289691320291e-03 0.0 
0.0 0.0 0.0 
2.476923631141e-03 2.046083897220e-04 0.0 
2.046083897220e-04 -4.759951144724e-04 0.0 
0.0 0.0 0.0 
1.645896173048e-03 -1.317247218689e-04 0.0 
-1.317247218689e-04 2.634654107089e-03 0.0 
0.0 0.0 0.0 
5.005031639675e-04 1.866013358096e-03 0.0 
1.866013358096e-03 7.476168854758e-03 0.0 
0.0 0.0 0.0 
1.353818737332e-04 -3.105409370621e-04 0.0 
-3.105409370621e-04 4.549329784248e-03 0.0 
0.0 0.0 0.0 
2.355118791496e-03 2.966361523996e-04 0.0 
2.966361523996e-04 2.991756255520e-04 0.0 
0.0 0.0 0.0 
8.063455983228e-05 -2.310696817013e-04 0.0 
-2.310696817013e-04 4.792489180290e-03 0.0 
0.0 0.0 0.0 
-1.316185643386e-03 9.002827376063e-04 0.0 
9.002827376063e-04 8.193841617994e-03 0.0 
0.0 0.0 0.0 
-1.033287208685e-03 1.202312432395e-03 0.0 
1.202312432395e-03 1.056013848771e-02 0.0 
0.0 0.0 0.0 
3.776664284605e-05 -1.595091173166e-04 0.0 
-1.595091173166e-04 5.021526331594e-03 0.0 
0.0 0.0 0.0 
-3.916504727883e-04 2.025887655631e-03 0.0 
2.025887655631e-03 8.681784056191e-03 0.0 
0.0 0.0 0.0 
6.357012723076e-05 -2.155092918821e-04 0.0 
-2.155092918821e-04 9.294660925581e-04 0.0 
0.0 0.0 0.0 
5.978325112525e-04 2.112561344138e-03 0.0 
2.112561344138e-03 6.264334039079e-03 0.0 
0.0 0.0 0.0 
9.548563360477e-06 -2.746307333381e-05 0.0 
-2.746307333381e-05 6.478388643726e-03 0.0 
0.0 0.0 0.0 
5.394315500192e-04 -1.272303171524e-03 0.0 
-1.272303171524e-03 1.989765102708e-03 0.0 
0.0 0.0 0.0 
1.459726203418e-03 -2.190017552205e-04 0.0 
-2.190017552205e-04 2.995798467741e-03 0.0 
0.0 0.0 0.0 
-9.049122575661e-04 1.319601710849e-03 0.0 
1.319601710849e-03 1.082473162118e-02 0.0 
0.0 0.0 0.0 
-1.342054581716e-03 1.246284010155e-03 0.0 
1.246284010155e-03 7.631879498422e-03 0.0 
0.0 0.0 0.0 
1.362707366884e-03 -4.174284052789e-05 0.0 
-4.174284052789e-05 3.552981541431e-03 0.0 
0.0 0.0 0.0 
-3.194585058855e-04 2.035483786559e-03 0.0 
2.035483786559e-03 8.994809601283e-03 0.0 
0.0 0.0 0.0 
7.768835381670e-04 2.008226656298e-03 0.0 
2.008226656298e-03 6.056945813173e-03 0.0 
0.0 0.0 0.0 
1.338784550629e-03 1.862215869669e-03 0.0 
1.862215869669e-03 4.182448960506e-03 0.0 
0.0 0.0 0.0 
1.243188848287e-03 1.212703767605e-04 0.0 
1.212703767605e-04 4.119879876234e-03 0.0 
0.0 0.0 0.0 
-1.250232203239e-03 1.853870330644e-03 0.0 
1.853870330644e-03 7.127990585936e-03 0.0 
0.0 0.0 0.0 
-9.683023129418e-05 -1.133952485792e-03 0.0 
-1.133952485792e-03 1.877665364453e-03 0.0 
0.0 0.0 0.0 
-2.546888262924e-04 -1.077973586327e-03 0.0 
-1.077973586327e-03 1.650008013194e-03 0.0 
0.0 0.0 0.0 
2.216812523594e-03 -7.135906796482e-05 0.0 
-7.135906796482e-05 6.290456226657e-04 0.0 
0.0 0.0 0.0 
-4.098295044710e-04 1.987327852509e-03 0.0 
1.987327852509e-03 9.517279096868e-03 0.0 
0.0 0.0 0.0 
1.238975718985e-04 -9.578823986292e-05 0.0 
-9.578823986292e-05 1.202551426329e-03 0.0 
0.0 0.0 0.0 
-8.484077378477e-04 1.544376832536e-03 0.0 
1.544376832536e-03 1.040066613394e-02 0.0 
0.0 0.0 0.0 
-4.717505396976e-04 -1.072511328601e-03 0.0 
-1.072511328601e-03 1.235400519524e-03 0.0 
0.0 0.0 0.0 
2.101789961638e-03 -5.492063971302e-04 0.0 
-5.492063971302e-04 3.692868078687e-04 0.0 
0.0 0.0 0.0 
7.928249008587e-04 1.871288404271e-03 0.0 
1.871288404271e-03 6.454728816259e-03 0.0 
0.0 0.0 0.0 
-6.401533972878e-04 1.478982516587e-05 0.0 
1.478982516587e-05 1.077325650864e-02 0.0 
0.0 0.0 0.0 
1.855721747626e-03 -7.510602826181e-04 0.0 
-7.510602826181e-04 8.626828524898e-04 0.0 
0.0 0.0 0.0 
-5.956550294330e-05 -6.366685180902e-05 0.0 
-6.366685180902e-05 2.142278404696e-03 0.0 
0.0 0.0 0.0 
1.596687153808e-03 -1.115698742715e-03 0.0 
-1.115698742715e-03 8.255079518907e-04 0.0 
0.0 0.0 0.0 
1.240053257903e-03 1.799247042391e-03 0.0 
1.799247042391e-03 4.730306690956e-03 0.0 
0.0 0.0 0.0 
1.341173829388e-03 -1.136572484422e-03 0.0 
-1.136572484422e-03 1.355819748723e-03 0.0 
0.0 0.0 0.0 
1.025426073668e-03 -1.332843529335e-03 0.0 
-1.332843529335e-03 1.436466124332e-03 0.0 
0.0 0.0 0.0 
-2.716116416893e-04 3.497986646332e-04 0.0 
3.497986646332e-04 1.244605386952e-02 0.0 
0.0 0.0 0.0 
8.273662024574e-04 -1.226903894642e-03 0.0 
-1.226903894642e-03 1.904693157147e-03 0.0 
0.0 0.0 0.0 
-1.158252222950e-04 1.001558338765e-04 0.0 
1.001558338765e-04 1.277928547990e-02 0.0 
0.0 0.0 0.0 
-2.077884259512e-06 -1.098944358123e-05 0.0 
-1.098944358123e-05 7.397072631700e-03 0.0 
0.0 0.0 0.0 
-7.093736674363e-04 3.876735772697e-06 0.0 
3.876735772697e-06 9.980565804533e-03 0.0 
0.0 0.0 0.0 
-1.377296882047e-03 1.651525292941e-03 0.0 
1.651525292941e-03 6.884740397444e-03 0.0 
0.0 0.0 0.0 
-1.305669863732e-03 1.115470103281e-04 0.0 
1.115470103281e-04 -4.093265888918e-03 0.0 
0.0 0.0 0.0 
-1.022177412479e-03 2.442851620046e-03 0.0 
2.442851620046e-03 5.644806157045e-03 0.0 
0.0 0.0 0.0 
3.704845706176e-04 -1.421721855735e-03 0.0 
-1.421721855735e-03 1.706746691796e-03 0.0 
0.0 0.0 0.0 
-7.157568265554e-04 1.764772765855e-03 0.0 
1.764772765855e-03 9.860349475030e-03 0.0 
0.0 0.0 0.0 
-7.140253717098e-04 2.123649224713e-05 0.0 
2.123649224713e-05 9.999881515440e-03 0.0 
0.0 0.0 0.0 
9.748821540564e-05 -1.315928313154e-03 0.0 
-1.315928313154e-03 1.823192742295e-03 0.0 
0.0 0.0 0.0 
-3.573507843943e-04 1.899180912473e-03 0.0 
1.899180912473e-03 1.111703186746e-02 0.0 
0.0 0.0 0.0 
9.810932159560e-05 2.301094120309e-03 0.0 
2.301094120309e-03 9.045670198421e-03 0.0 
0.0 0.0 0.0 
-5.544362084541e-04 6.540575404351e-05 0.0 
6.540575404351e-05 1.132772936834e-02 0.0 
0.0 0.0 0.0 
9.306917348250e-04 1.208710236947e-03 0.0 
1.208710236947e-03 5.944695863413e-03 0.0 
0.0 0.0 0.0 
9.092028697710e-04 1.883547996812e-03 0.0 
1.883547996812e-03 5.921838665181e-03 0.0 
0.0 0.0 0.0 
-3.348043201572e-04 4.730602563200e-05 0.0 
4.730602563200e-05 1.217391977061e-02 0.0 
0.0 0.0 0.0 
-7.887361044393e-04 2.435414348942e-05 0.0 
2.435414348942e-05 9.658399489629e-03 0.0 
0.0 0.0 0.0 
-3.426397514362e-04 -4.688092479443e-04 0.0 
-4.688092479443e-04 6.210819156468e-04 0.0 
0.0 0.0 0.0 
-9.942404821550e-06 -3.963992360984e-05 0.0 
-3.963992360984e-05 5.468220959085e-03 0.0 
0.0 0.0 0.0 
-1.418047947223e-03 2.251066212112e-03 0.0 
2.251066212112e-03 5.452141546703e-03 0.0 
0.0 0.0 0.0 
-9.426683011233e-04 2.777643058098e-03 0.0 
2.777643058098e-03 4.030201004576e-03 0.0 
0.0 0.0 0.0 
-7.815138436030e-04 3.027459089662e-03 0.0 
3.027459089662e-03 2.322528160007e-03 0.0 
0.0 0.0 0.0 
-1.156040573796e-04 -2.403517622009e-04 0.0 
-2.403517622009e-04 2.635644332250e-03 0.0 
0.0 0.0 0.0 
-6.427934547850e-04 -1.821097779711e-03 0.0 
-1.821097779711e-03 4.043389913769e-04 0.0 
0.0 0.0 0.0 
-1.390019771782e-03 2.584326105266e-03 0.0 
2.584326105266e-03 3.973909094049e-03 0.0 
0.0 0.0 0.0 
5.594215405824e-04 1.441330842266e-03 0.0 
1.441330842266e-03 6.946445531224e-03 0.0 
0.0 0.0 0.0 
-9.093630217877e-04 1.465565099407e-04 0.0 
1.465565099407e-04 1.004840376668e-02 0.0 
0.0 0.0 0.0 
5.995427619992e-04 1.964776306837e-03 0.0 
1.964776306837e-03 7.041118694417e-03 0.0 
0.0 0.0 0.0 
-1.316810218544e-03 2.789274775631e-03 0.0 
2.789274775631e-03 2.370036064758e-03 0.0 
0.0 0.0 0.0 
-3.766664523851e-04 9.019408267230e-04 0.0 
9.019408267230e-04 1.227876817066e-02 0.0 
0.0 0.0 0.0 
3.244259301044e-04 2.074816689806e-03 0.0 
2.074816689806e-03 8.103369051206e-03 0.0 
0.0 0.0 0.0 
1.149728520391e-04 1.601328904554e-04 0.0 
1.601328904554e-04 7.192847088017e-03 0.0 
0.0 0.0 0.0 
4.835644443338e-04 1.993600757877e-03 0.0 
1.993600757877e-03 7.538550368334e-03 0.0 
0.0 0.0 0.0 
-4.943384850972e-04 3.185547722339e-03 0.0 
3.185547722339e-03 4.010539799260e-04 0.0 
0.0 0.0 0.0 
-1.075475830457e-03 4.231762519761e-04 0.0 
4.231762519761e-04 1.033105403656e-02 0.0 
0.0 0.0 0.0 
-1.133130253029e-04 2.227192719517e-03 0.0 
2.227192719517e-03 9.890905966520e-03 0.0 
0.0 0.0 0.0 
-5.060623094140e-04 1.138078275343e-04 0.0 
1.138078275343e-04 1.161775592269e-02 0.0 
0.0 0.0 0.0 
6.888497135460e-05 7.812227028288e-05 0.0 
7.812227028288e-05 7.297201942280e-03 0.0 
0.0 0.0 0.0 
-9.989946279946e-04 2.202154152732e-04 0.0 
2.202154152732e-04 9.997256624086e-03 0.0 
0.0 0.0 0.0 
-2.279161781950e-04 2.296141194675e-04 0.0 
2.296141194675e-04 1.250551173142e-02 0.0 
0.0 0.0 0.0 
1.952583769260e-03 -1.789764745447e-03 0.0 
-1.789764745447e-03 -3.115181782026e-03 0.0 
0.0 0.0 0.0 
-2.139939310254e-04 1.195207928743e-04 0.0 
1.195207928743e-04 1.251770677897e-02 0.0 
0.0 0.0 0.0 
-5.949519689358e-04 1.835175927881e-03 0.0 
1.835175927881e-03 1.013097883777e-02 0.0 
0.0 0.0 0.0 
-7.167299030868e-04 8.888739742017e-05 0.0 
8.888739742017e-05 1.050454039545e-02 0.0 
0.0 0.0 0.0 
-1.167005422638e-03 6.004696390359e-04 0.0 
6.004696390359e-04 1.022617420971e-02 0.0 
0.0 0.0 0.0 
1.232120747589e-05 -1.335412893383e-05 0.0 
-1.335412893383e-05 7.096468770254e-03 0.0 
0.0 0.0 0.0 
-4.141552430126e-04 1.643580786688e-03 0.0 
1.643580786688e-03 1.157249668622e-02 0.0 
0.0 0.0 0.0 
-2.240898908767e-04 3.194719489849e-03 0.0 
3.194719489849e-03 -9.050677945458e-04 0.0 
0.0 0.0 0.0 
-5.719242630643e-04 1.043442616716e-04 0.0 
1.043442616716e-04 1.130910521111e-02 0.0 
0.0 0.0 0.0 
-8.282466281282e-05 -3.598187611171e-04 0.0 
-3.598187611171e-04 3.206184333512e-03 0.0 
0.0 0.0 0.0 
4.137597132046e-04 -1.661212982769e-03 0.0 
-1.661212982769e-03 -3.897859563137e-03 0.0 
0.0 0.0 0.0 
3.186598239068e-04 2.871710713183e-04 0.0 
2.871710713183e-04 6.644752658919e-03 0.0 
0.0 0.0 0.0 
-4.680532470209e-04 1.910654686419e-03 0.0 
1.910654686419e-03 1.039734004861e-02 0.0 
0.0 0.0 0.0 
4.391070667111e-05 -3.719155127525e-06 0.0 
-3.719155127525e-06 7.013896594676e-03 0.0 
0.0 0.0 0.0 
2.630006644059e-04 -1.154194690816e-05 0.0 
-1.154194690816e-05 7.969113466046e-04 0.0 
0.0 0.0 0.0 
-8.587066878807e-06 -2.009735077322e-04 0.0 
-2.009735077322e-04 5.025153804488e-04 0.0 
0.0 0.0 0.0 
3.926907569865e-04 5.023973285442e-04 0.0 
5.023973285442e-04 6.664407712820e-03 0.0 
0.0 0.0 0.0 
-2.548081129236e-04 2.103856284822e-03 0.0 
2.103856284822e-03 1.062578521230e-02 0.0 
0.0 0.0 0.0 
1.422155853543e-03 -2.247081660490e-03 0.0 
-2.247081660490e-03 -1.948941153017e-03 0.0 
0.0 0.0 0.0 
-1.509871995251e-04 7.833089658219e-04 0.0 
7.833089658219e-04 1.265623619785e-02 0.0 
0.0 0.0 0.0 
-3.878598363710e-04 2.997614695514e-03 0.0 
2.997614695514e-03 -2.058584274472e-03 0.0 
0.0 0.0 0.0 
-8.402036806273e-04 5.044268670518e-05 0.0 
5.044268670518e-05 9.627025937197e-03 0.0 
0.0 0.0 0.0 
2.215758314814e-04 -1.190097867609e-04 0.0 
-1.190097867609e-04 4.529128679862e-04 0.0 
0.0 0.0 0.0 
4.601688991448e-05 1.047000724995e-05 0.0 
1.047000724995e-05 7.347129673935e-03 0.0 
0.0 0.0 0.0 
-2.884429733134e-04 5.755506704992e-04 0.0 
5.755506704992e-04 1.245407671881e-02 0.0 
0.0 0.0 0.0 
-9.122806274187e-05 -2.222422902276e-04 0.0 
-2.222422902276e-04 3.572415644662e-03 0.0 
0.0 0.0 0.0 
-1.169647355005e-03 3.980822229399e-04 0.0 
3.980822229399e-04 9.666430691511e-03 0.0 
0.0 0.0 0.0 
-9.464347091522e-05 -1.439804756625e-04 0.0 
-1.439804756625e-04 2.405114962827e-03 0.0 
0.0 0.0 0.0 
1.366576138038e-04 2.186609386022e-03 0.0 
2.186609386022e-03 8.670859837167e-03 0.0 
0.0 0.0 0.0 
-5.785260701430e-04 -9.026124557725e-04 0.0 
-9.026124557725e-04 8.721063131132e-04 0.0 
0.0 0.0 0.0 
-2.480149004582e-04 4.183843519602e-04 0.0 
4.183843519602e-04 1.252036712374e-02 0.0 
0.0 0.0 0.0 
4.604068458251e-04 7.871169532882e-04 0.0 
7.871169532882e-04 6.705052819948e-03 0.0 
0.0 0.0 0.0 
-3.803522070559e-04 1.244043731030e-03 0.0 
1.244043731030e-03 1.210271322776e-02 0.0 
0.0 0.0 0.0 
2.072372377579e-04 1.861474581506e-03 0.0 
1.861474581506e-03 8.019065739111e-03 0.0 
0.0 0.0 0.0 
2.794605314908e-04 9.508624750552e-04 0.0 
9.508624750552e-04 -4.356215238769e-03 0.0 
0.0 0.0 0.0 
2.108885057221e-04 2.182973768413e-03 0.0 
2.182973768413e-03 8.543502602988e-03 0.0 
0.0 0.0 0.0 
7.450777671073e-04 9.751741874889e-04 0.0 
9.751741874889e-04 6.216892605484e-03 0.0 
0.0 0.0 0.0 
-7.606941230183e-04 2.649047627850e-05 0.0 
2.649047627850e-05 9.646740335128e-03 0.0 
0.0 0.0 0.0 
-4.084096999432e-04 1.460598462894e-03 0.0 
1.460598462894e-03 1.183151712405e-02 0.0 
0.0 0.0 0.0 
-1.186525749572e-04 -2.350566059973e-04 0.0 
-2.350566059973e-04 2.932580757780e-03 0.0 
0.0 0.0 0.0 
2.387434765196e-05 -2.404455637994e-04 0.0 
-2.404455637994e-04 1.214160418587e-03 0.0 
0.0 0.0 0.0 
-9.333543940935e-05 4.696024017765e-05 0.0 
4.696024017765e-05 1.281737285997e-02 0.0 
0.0 0.0 0.0 
6.040797402247e-04 6.729196152743e-06 0.0 
6.729196152743e-06 -6.672517798096e-05 0.0 
0.0 0.0 0.0 
-7.230786919070e-04 -1.005565803086e-06 0.0 
-1.005565803086e-06 9.607065205688e-03 0.0 
0.0 0.0 0.0 
-6.070226019572e-06 1.234516450876e-06 0.0 
1.234516450876e-06 7.499205895523e-03 0.0 
0.0 0.0 0.0 
1.300818569628e-04 -1.256957826637e-04 0.0 
-1.256957826637e-04 1.116968121586e-03 0.0 
0.0 0.0 0.0 
-6.934639466987e-04 2.098527628071e-05 0.0 
2.098527628071e-05 1.028087066898e-02 0.0 
0.0 0.0 0.0 
-2.938828072823e-04 2.017728087045e-03 0.0 
2.017728087045e-03 1.091277606022e-02 0.0 
0.0 0.0 0.0 
-6.581754698237e-05 -5.037129620454e-05 0.0 
-5.037129620454e-05 4.388772243112e-03 0.0 
0.0 0.0 0.0 
-3.941652102655e-04 7.563518287166e-05 0.0 
7.563518287166e-05 1.197451837383e-02 0.0 
0.0 0.0 0.0 
-2.338743191588e-04 -2.272647220512e-03 0.0 
-2.272647220512e-03 -9.789456868055e-05 0.0 
0.0 0.0 0.0 
-1.511710238736e-03 -6.280057478004e-04 0.0 
-6.280057478004e-04 -3.985234686163e-03 0.0 
0.0 0.0 0.0 
-6.148236505103e-04 4.055053597460e-05 0.0 
4.055053597460e-05 1.097877354785e-02 0.0 
0.0 0.0 0.0 
3.605759116986e-04 1.997096750360e-03 0.0 
1.997096750360e-03 7.904223702988e-03 0.0 
0.0 0.0 0.0 
-3.450053891810e-04 1.015739465873e-03 0.0 
1.015739465873e-03 1.229399993161e-02 0.0 
0.0 0.0 0.0 
-6.827027591769e-04 9.109022099373e-05 0.0 
9.109022099373e-05 1.071738498082e-02 0.0 
0.0 0.0 0.0 
7.630672629890e-04 2.929474845052e-03 0.0 
2.929474845052e-03 -1.826553222058e-03 0.0 
0.0 0.0 0.0 
-3.646288110627e-04 1.995946861607e-03 0.0 
1.995946861607e-03 1.060776413015e-02 0.0 
0.0 0.0 0.0 
-6.584897809403e-05 -2.210346073345e-04 0.0 
-2.210346073345e-04 3.832110751747e-03 0.0 
0.0 0.0 0.0 
-9.941629278205e-05 2.189808416548e-03 0.0 
2.189808416548e-03 9.464279589229e-03 0.0 
0.0 0.0 0.0 
7.362203582916e-04 1.285992061591e-03 0.0 
1.285992061591e-03 6.458912336804e-03 0.0 
0.0 0.0 0.0 
-1.350633605791e-03 2.984265364310e-03 0.0 
2.984265364310e-03 -1.523216608061e-03 0.0 
0.0 0.0 0.0 
-4.755665266869e-05 -3.641036179409e-05 0.0 
-3.641036179409e-05 4.712444605533e-03 0.0 
0.0 0.0 0.0 
1.768877980930e-04 -1.375024790011e-04 0.0 
-1.375024790011e-04 4.299632558159e-04 0.0 
0.0 0.0 0.0 
1.710326033125e-04 1.044847555567e-04 0.0 
1.044847555567e-04 6.893822425878e-03 0.0 
0.0 0.0 0.0 
-7.245898040398e-05 -1.502684079701e-04 0.0 
-1.502684079701e-04 4.012679412809e-03 0.0 
0.0 0.0 0.0 
-9.648363112991e-04 5.280332394080e-04 0.0 
5.280332394080e-04 7.372125624207e-03 0.0 
0.0 0.0 0.0 
-7.277943471359e-04 4.522093453657e-06 0.0 
4.522093453657e-06 7.357633026692e-03 0.0 
0.0 0.0 0.0 
-1.015546514887e-03 5.135198669416e-04 0.0 
5.135198669416e-04 7.715416963766e-03 0.0 
0.0 0.0 0.0 
-7.078460670096e-04 -6.313009791392e-06 0.0 
-6.313009791392e-06 7.803342876759e-03 0.0 
0.0 0.0 0.0 
-1.088827548782e-03 4.169216308925e-04 0.0 
4.169216308925e-04 8.159228179322e-03 0.0 
0.0 0.0 0.0 
-7.125728411627e-04 -6.602786426322e-06 0.0 
-6.602786426322e-06 8.212730462153e-03 0.0 
0.0 0.0 0.0 
-1.137390257813e-03 3.343998751980e-04 0.0 
3.343998751980e-04 8.617491058372e-03 0.0 
0.0 0.0 0.0 
-7.207870172660e-04 -3.915786611874e-06 0.0 
-3.915786611874e-06 8.673493695972e-03 0.0 
0.0 0.0 0.0 
-1.147021113274e-03 2.901665277486e-04 0.0 
2.901665277486e-04 9.062791018141e-03 0.0 
0.0 0.0 0.0 
-7.291414580165e-04 3.862533405721e-06 0.0 
3.862533405721e-06 9.080749103824e-03 0.0 
0.0 0.0 0.0 

TENSORS node_materi_strain_plasti float
5.167194390135e-04 2.792726192703e-05 0.0 
2.792726192703e-05 -5.091425601016e-05 0.0 
0.0 0.0 -1.110302485635e-04 
-8.159302679306e-04 -1.118602645032e-04 0.0 
-1.118602645032e-04 4.584923598267e-03 0.0 
0.0 0.0 -6.959116756397e-04 
-1.346400199288e-03 7.365993999463e-05 0.0 
7.365993999463e-05 8.674335535019e-03 0.0 
0.0 0.0 -1.332621093165e-03 
-1.336402199564e-03 -8.793125074240e-05 0.0 
-8.793125074240e-05 8.913629531779e-03 0.0 
0.0 0.0 -1.332621093165e-03 
1.928535311059e-04 4.445651110295e-05 0.0 
4.445651110295e-05 2.423589004168e-04 0.0 
0.0 0.0 -1.369191294062e-04 
-9.495668909469e-05 1.176622379905e-04 0.0 
1.176622379905e-04 8.146285890130e-04 0.0 
0.0 0.0 -1.619080202416e-04 
-2.343145573296e-04 8.942200005953e-05 0.0 
8.942200005953e-05 1.222252270070e-03 0.0 
0.0 0.0 -2.266090766362e-04 
-3.672954214302e-04 7.638439199011e-05 0.0 
7.638439199011e-05 1.767422352355e-03 0.0 
0.0 0.0 -2.937643997455e-04 
-5.002542736311e-04 4.683642936848e-05 0.0 
4.683642936848e-05 2.251732040701e-03 0.0 
0.0 0.0 -3.610469555860e-04 
-5.984940266315e-04 4.060795555227e-05 0.0 
4.060795555227e-05 2.708456263927e-03 0.0 
0.0 0.0 -4.277228197774e-04 
-6.941224007828e-04 4.519221696703e-05 0.0 
4.519221696703e-05 3.166683324582e-03 0.0 
0.0 0.0 -4.940119848999e-04 
-7.849981096782e-04 3.520077417946e-05 0.0 
3.520077417946e-05 3.622095280725e-03 0.0 
0.0 0.0 -5.601824523721e-04 
-8.634318271181e-04 3.405437137357e-05 0.0 
3.405437137357e-05 4.067071864957e-03 0.0 
0.0 0.0 -6.267196139102e-04 
-9.449136089268e-04 5.218773157199e-05 0.0 
5.218773157199e-05 4.520788341368e-03 0.0 
0.0 0.0 -6.936951881209e-04 
-1.027632022584e-03 9.700470508409e-05 0.0 
9.700470508409e-05 5.010143413423e-03 0.0 
0.0 0.0 -7.607197531558e-04 
-1.071044468659e-03 1.108294767969e-04 0.0 
1.108294767969e-04 5.450697122990e-03 0.0 
0.0 0.0 -8.270758575053e-04 
-1.105211944346e-03 1.479813750871e-04 0.0 
1.479813750871e-04 5.811869455564e-03 0.0 
0.0 0.0 -8.903361771249e-04 
-1.161317049125e-03 4.285670301683e-05 0.0 
4.285670301683e-05 6.275431738875e-03 0.0 
0.0 0.0 -9.558084330571e-04 
-1.207984253662e-03 4.172859767407e-05 0.0 
4.172859767407e-05 6.727772586467e-03 0.0 
0.0 0.0 -1.024523475697e-03 
-1.248615658251e-03 4.538254462405e-05 0.0 
4.538254462405e-05 7.165565903975e-03 0.0 
0.0 0.0 -1.091244731156e-03 
-1.288520992697e-03 4.179778286610e-05 0.0 
4.179778286610e-05 7.610376257827e-03 0.0 
0.0 0.0 -1.158330123333e-03 
-1.323945144233e-03 5.638174444750e-05 0.0 
5.638174444750e-05 8.056170868355e-03 0.0 
0.0 0.0 -1.226073836101e-03 
-1.340882067222e-03 7.816548302147e-05 0.0 
7.816548302147e-05 8.489692749980e-03 0.0 
0.0 0.0 -1.289832767750e-03 
-1.333912568024e-03 1.756046241659e-05 0.0 
1.756046241659e-05 8.926507635803e-03 0.0 
0.0 0.0 -1.336902025401e-03 
-1.341531841891e-03 4.063150434003e-05 0.0 
4.063150434003e-05 8.912362216672e-03 0.0 
0.0 0.0 -1.332945767435e-03 
-1.342187123766e-03 7.210449397357e-07 0.0 
7.210449397357e-07 8.901177082135e-03 0.0 
0.0 0.0 -1.334903170087e-03 
-1.344938961940e-03 1.164426212685e-04 0.0 
1.164426212685e-04 8.903433830404e-03 0.0 
0.0 0.0 -1.334459899807e-03 
-1.344212628933e-03 9.914567390186e-05 0.0 
9.914567390186e-05 8.888325984844e-03 0.0 
0.0 0.0 -1.332067731643e-03 
-1.341871993109e-03 1.326692721992e-04 0.0 
1.326692721992e-04 8.883986467254e-03 0.0 
0.0 0.0 -1.335050935171e-03 
-1.332922157688e-03 1.596974021170e-04 0.0 
1.596974021170e-04 8.887152863323e-03 0.0 
0.0 0.0 -1.335055123498e-03 
-1.344556942280e-03 1.739185913509e-04 0.0 
1.739185913509e-04 8.882073809328e-03 0.0 
0.0 0.0 -1.333530254363e-03 
-1.342253888820e-03 1.667068933720e-04 0.0 
1.667068933720e-04 8.882815983630e-03 0.0 
0.0 0.0 -1.336259905589e-03 
-1.344452318304e-03 2.643241252995e-04 0.0 
2.643241252995e-04 8.877541720491e-03 0.0 
0.0 0.0 -1.335712483792e-03 
-1.344739962132e-03 2.572691983564e-04 0.0 
2.572691983564e-04 8.855364652133e-03 0.0 
0.0 0.0 -1.333313947604e-03 
-1.345949101879e-03 2.896022605016e-04 0.0 
2.896022605016e-04 8.845196808155e-03 0.0 
0.0 0.0 -1.335862559377e-03 
-1.335909137164e-03 3.249556087329e-04 0.0 
3.249556087329e-04 8.847942912603e-03 0.0 
0.0 0.0 -1.336097458551e-03 
-1.346297016590e-03 3.518589132456e-04 0.0 
3.518589132456e-04 8.821759431274e-03 0.0 
0.0 0.0 -1.335235043394e-03 
-1.338076461259e-03 3.735365560477e-04 0.0 
3.735365560477e-04 8.793020733369e-03 0.0 
0.0 0.0 -1.334297546486e-03 
-1.346016481544e-03 4.214840137430e-04 0.0 
4.214840137430e-04 8.754866417549e-03 0.0 
0.0 0.0 -1.332308435384e-03 
-1.347150914510e-03 4.365635291823e-04 0.0 
4.365635291823e-04 8.724212055446e-03 0.0 
0.0 0.0 -1.332019584455e-03 
-1.334805935481e-03 4.680081517091e-04 0.0 
4.680081517091e-04 8.718730927757e-03 0.0 
0.0 0.0 -1.333392124151e-03 
-1.340647727227e-03 4.849743108024e-04 0.0 
4.849743108024e-04 8.700750373122e-03 0.0 
0.0 0.0 -1.334727449481e-03 
-1.341060759155e-03 5.031254601797e-04 0.0 
5.031254601797e-04 8.669240053120e-03 0.0 
0.0 0.0 -1.336576889699e-03 
-1.339241076831e-03 5.376075265351e-04 0.0 
5.376075265351e-04 8.637791543921e-03 0.0 
0.0 0.0 -1.335888391555e-03 
-1.332755026613e-03 5.259793014087e-04 0.0 
5.259793014087e-04 8.604247702023e-03 0.0 
0.0 0.0 -1.334783226448e-03 
-1.333664649469e-03 5.288889005307e-04 0.0 
5.288889005307e-04 8.561550836847e-03 0.0 
0.0 0.0 -1.335053869153e-03 
-1.331458992258e-03 5.134063938371e-04 0.0 
5.134063938371e-04 8.519772984337e-03 0.0 
0.0 0.0 -1.334960189349e-03 
-1.329775199773e-03 4.941096024064e-04 0.0 
4.941096024064e-04 8.496416219376e-03 0.0 
0.0 0.0 -1.334889991128e-03 
-1.320977987653e-03 4.615461390730e-04 0.0 
4.615461390730e-04 8.462524191980e-03 0.0 
0.0 0.0 -1.335774086633e-03 
-1.330023044346e-03 4.207866190154e-04 0.0 
4.207866190154e-04 8.427010713301e-03 0.0 
0.0 0.0 -1.336605656894e-03 
-1.315269658186e-03 3.720833040210e-04 0.0 
3.720833040210e-04 8.401189310414e-03 0.0 
0.0 0.0 -1.336508443943e-03 
-1.322412415585e-03 3.115810119469e-04 0.0 
3.115810119469e-04 8.379908734224e-03 0.0 
0.0 0.0 -1.335343284290e-03 
-1.320222320207e-03 2.175575066663e-04 0.0 
2.175575066663e-04 8.369874127435e-03 0.0 
0.0 0.0 -1.337998490269e-03 
-1.323625080933e-03 2.169102620600e-04 0.0 
2.169102620600e-04 8.349200848827e-03 0.0 
0.0 0.0 -1.337247094005e-03 
-1.312935671626e-03 1.217875082846e-04 0.0 
1.217875082846e-04 8.314561017664e-03 0.0 
0.0 0.0 -1.333783489999e-03 
-1.312397425891e-03 3.014725865093e-05 0.0 
3.014725865093e-05 8.298029012834e-03 0.0 
0.0 0.0 -1.334548731617e-03 
-1.314310776006e-03 -5.112989789944e-05 0.0 
-5.112989789944e-05 8.327635469408e-03 0.0 
0.0 0.0 -1.334619746794e-03 
-1.313246555764e-03 -1.133769864441e-04 0.0 
-1.133769864441e-04 8.338916253329e-03 0.0 
0.0 0.0 -1.335242115105e-03 
-1.326565106495e-03 -1.841934828275e-04 0.0 
-1.841934828275e-04 8.356624519228e-03 0.0 
0.0 0.0 -1.335691437541e-03 
-1.316402114403e-03 -2.262767311367e-04 0.0 
-2.262767311367e-04 8.389795272091e-03 0.0 
0.0 0.0 -1.335646478247e-03 
-1.330105212687e-03 -2.663920673302e-04 0.0 
-2.663920673302e-04 8.407666559300e-03 0.0 
0.0 0.0 -1.334931242407e-03 
-1.321109516020e-03 -3.015612028738e-04 0.0 
-3.015612028738e-04 8.428571737695e-03 0.0 
0.0 0.0 -1.334100791702e-03 
-1.335356464641e-03 -3.106038152236e-04 0.0 
-3.106038152236e-04 8.460193799364e-03 0.0 
0.0 0.0 -1.332237298415e-03 
-1.339781698762e-03 -3.337514916052e-04 0.0 
-3.337514916052e-04 8.495913159923e-03 0.0 
0.0 0.0 -1.333749945600e-03 
-1.335675790289e-03 -3.025403687924e-04 0.0 
-3.025403687924e-04 8.551515458499e-03 0.0 
0.0 0.0 -1.336652505695e-03 
-1.332391445612e-03 -3.083574403233e-04 0.0 
-3.083574403233e-04 8.592419009515e-03 0.0 
0.0 0.0 -1.337094627689e-03 
-1.345644529791e-03 -2.793636126787e-04 0.0 
-2.793636126787e-04 8.558237333725e-03 0.0 
0.0 0.0 -1.328990728106e-03 
-1.337312800610e-03 -2.305068913709e-04 0.0 
-2.305068913709e-04 8.630917037025e-03 0.0 
0.0 0.0 -1.335900064369e-03 
-1.350772327614e-03 -1.956698568975e-04 0.0 
-1.956698568975e-04 8.640358950647e-03 0.0 
0.0 0.0 -1.332523500780e-03 
-1.350423109387e-03 -1.955618747409e-04 0.0 
-1.955618747409e-04 8.650889793805e-03 0.0 
0.0 0.0 -1.335219049675e-03 
-1.349098610006e-03 -8.965167155351e-05 0.0 
-8.965167155351e-05 8.690821291703e-03 0.0 
0.0 0.0 -1.336566422126e-03 
-1.352485386629e-03 -6.128652914560e-05 0.0 
-6.128652914560e-05 8.701715469751e-03 0.0 
0.0 0.0 -1.335855682064e-03 
-8.621699259071e-04 -7.748599951090e-05 0.0 
-7.748599951090e-05 5.021330477437e-03 0.0 
0.0 0.0 -7.648954205800e-04 
-9.395078499560e-04 -8.704020005170e-05 0.0 
-8.704020005170e-05 5.517844915676e-03 0.0 
0.0 0.0 -8.298981322982e-04 
-9.977708429922e-04 -8.397016683561e-05 0.0 
-8.397016683561e-05 5.976838802593e-03 0.0 
0.0 0.0 -8.959277352460e-04 
-1.055682188809e-03 -8.887694878813e-05 0.0 
-8.887694878813e-05 6.419904102828e-03 0.0 
0.0 0.0 -9.610467530554e-04 
-1.113418161777e-03 -7.710435791321e-05 0.0 
-7.710435791321e-05 6.878985961880e-03 0.0 
0.0 0.0 -1.026987810050e-03 
-1.153337564853e-03 -8.395183782127e-05 0.0 
-8.395183782127e-05 7.337021217867e-03 0.0 
0.0 0.0 -1.092790196867e-03 
-1.209003093049e-03 -7.363209801243e-05 0.0 
-7.363209801243e-05 7.788251864833e-03 0.0 
0.0 0.0 -1.158290425478e-03 
-1.258139886954e-03 -8.431152228072e-05 0.0 
-8.431152228072e-05 8.217133852926e-03 0.0 
0.0 0.0 -1.224481705251e-03 
-1.303096836171e-03 -9.331509578295e-05 0.0 
-9.331509578295e-05 8.703843568816e-03 0.0 
0.0 0.0 -1.288782062784e-03 
0.0 0.0 0.0 
0.0 0.0 0.0 
0.0 0.0 0.0 
-8.469977810266e-04 1.418859108081e-04 0.0 
1.418859108081e-04 4.555195363259e-03 0.0 
0.0 0.0 -6.945495707198e-04 
1.853815197246e-05 4.024911659637e-04 0.0 
4.024911659637e-04 2.284141119962e-04 0.0 
0.0 0.0 -1.058366845580e-04 
-1.350079007602e-04 7.410901895652e-04 0.0 
7.410901895652e-04 7.622548468714e-04 0.0 
0.0 0.0 -2.667570615628e-04 
-3.852517699685e-04 8.237517617570e-04 0.0 
8.237517617570e-04 1.325012057104e-03 0.0 
0.0 0.0 -2.964167626729e-04 
-5.553115605805e-04 6.948245581935e-04 0.0 
6.948245581935e-04 1.798691708354e-03 0.0 
0.0 0.0 -3.108790080757e-04 
-5.701272985618e-04 5.249571026369e-04 0.0 
5.249571026369e-04 2.274002245616e-03 0.0 
0.0 0.0 -3.761379623603e-04 
-5.822307317594e-04 3.444855140525e-04 0.0 
3.444855140525e-04 2.615046111209e-03 0.0 
0.0 0.0 -4.246591878591e-04 
-6.421093914524e-04 2.736159583380e-04 0.0 
2.736159583380e-04 3.087949941038e-03 0.0 
0.0 0.0 -4.913636896408e-04 
-7.032270316906e-04 2.154746295006e-04 0.0 
2.154746295006e-04 3.563154777891e-03 0.0 
0.0 0.0 -5.580753662734e-04 
-7.652026803153e-04 1.716333934732e-04 0.0 
1.716333934732e-04 4.039411117358e-03 0.0 
0.0 0.0 -6.248674136757e-04 
-4.772976425773e-04 -1.674529979523e-04 0.0 
-1.674529979523e-04 2.450810706013e-03 0.0 
0.0 0.0 -3.822222222222e-04 
-5.018968035888e-04 -2.069604868527e-04 0.0 
-2.069604868527e-04 2.704133863242e-03 0.0 
0.0 0.0 -4.266666666667e-04 
-5.764922648323e-04 -1.677065961204e-04 0.0 
-1.677065961204e-04 3.172932373080e-03 0.0 
0.0 0.0 -4.933333333333e-04 
-6.493615146667e-04 -2.013836333214e-04 0.0 
-2.013836333214e-04 3.639082748701e-03 0.0 
0.0 0.0 -5.600000000000e-04 
-7.172820797178e-04 -1.419199921507e-04 0.0 
-1.419199921507e-04 4.094821602212e-03 0.0 
0.0 0.0 -6.266666666667e-04 
-7.873736608755e-04 5.502842443645e-05 0.0 
5.502842443645e-05 4.508278690252e-03 0.0 
0.0 0.0 -6.874962403976e-04 
-7.839311141629e-04 4.828509311105e-06 0.0 
4.828509311105e-06 4.540282316640e-03 0.0 
0.0 0.0 -6.910932206029e-04 
-7.921436345257e-04 5.707785244044e-06 0.0 
5.707785244044e-06 4.544942356556e-03 0.0 
0.0 0.0 -6.911911970487e-04 
-7.917187874242e-04 -4.341315515235e-06 0.0 
-4.341315515235e-06 4.539101219755e-03 0.0 
0.0 0.0 -6.903356507966e-04 
-7.944928086677e-04 1.125171909579e-05 0.0 
1.125171909579e-05 4.615388457654e-03 0.0 
0.0 0.0 -6.980756478071e-04 
-7.958365436316e-04 1.383445406237e-05 0.0 
1.383445406237e-05 4.547714033445e-03 0.0 
0.0 0.0 -6.911448554634e-04 
-7.903078046097e-04 6.769783050965e-06 0.0 
6.769783050965e-06 4.539714906749e-03 0.0 
0.0 0.0 -6.903833977050e-04 
-7.973486280958e-04 3.073462339535e-05 0.0 
3.073462339535e-05 4.549605953727e-03 0.0 
0.0 0.0 -6.905588330458e-04 
-8.138323735647e-04 2.995103124151e-05 0.0 
2.995103124151e-05 4.557442627231e-03 0.0 
0.0 0.0 -6.922444453805e-04 
-8.207112189752e-04 5.065642805556e-05 0.0 
5.065642805556e-05 4.556711038870e-03 0.0 
0.0 0.0 -6.916098530255e-04 
-8.174854078797e-04 5.882201982790e-05 0.0 
5.882201982790e-05 4.549634587438e-03 0.0 
0.0 0.0 -6.911665914957e-04 
-8.257607627907e-04 7.207096375596e-05 0.0 
7.207096375596e-05 4.539061374169e-03 0.0 
0.0 0.0 -6.911615840689e-04 
-8.256917502379e-04 1.052177725209e-04 0.0 
1.052177725209e-04 4.528909050130e-03 0.0 
0.0 0.0 -6.914992001314e-04 
-8.331385651634e-04 1.367043632585e-04 0.0 
1.367043632585e-04 4.532178590594e-03 0.0 
0.0 0.0 -6.922481495424e-04 
0.0 0.0 0.0 
0.0 0.0 0.0 
0.0 0.0 0.0 
0.0 0.0 0.0 
0.0 0.0 0.0 
0.0 0.0 0.0 
0.0 0.0 0.0 
0.0 0.0 0.0 
0.0 0.0 0.0 
0.0 0.0 0.0 
0.0 0.0 0.0 
0.0 0.0 0.0 
4.834769447440e-06 -2.872264321309e-05 0.0 
-2.872264321309e-05 1.098176460521e-05 0.0 
0.0 0.0 -6.778514593993e-06 
2.621325204595e-05 -1.413766582246e-04 0.0 
-1.413766582246e-04 5.747299694100e-05 0.0 
0.0 0.0 -3.574982278410e-05 
9.658306216209e-05 -1.514259984182e-04 0.0 
-1.514259984182e-04 8.442241842910e-05 0.0 
0.0 0.0 -4.425618980996e-05 
3.269147103475e-04 -5.021185392625e-05 0.0 
-5.021185392625e-05 3.514559889707e-05 0.0 
0.0 0.0 -8.078147856959e-05 
4.744476216527e-04 -2.955001894905e-05 0.0 
-2.955001894905e-05 6.422490925947e-06 0.0 
0.0 0.0 -1.179719326098e-04 
4.179559190719e-04 -4.545879091992e-05 0.0 
-4.545879091992e-05 1.677504639263e-05 0.0 
0.0 0.0 -8.559165356152e-05 
4.071360169644e-04 -5.676430788113e-05 0.0 
-5.676430788113e-05 2.001137970326e-05 0.0 
0.0 0.0 -6.874308561246e-05 
4.446412730432e-04 -3.115479505997e-05 0.0 
-3.115479505997e-05 1.541228328890e-05 0.0 
0.0 0.0 -8.846752904866e-05 
4.870475968622e-04 1.166873053583e-05 0.0 
1.166873053583e-05 -1.464623307350e-05 0.0 
0.0 0.0 -9.035052009108e-05 
5.260775556971e-04 2.845864580513e-06 0.0 
2.845864580513e-06 -4.734498310635e-05 0.0 
0.0 0.0 -8.407298760335e-05 
4.865685389177e-04 2.210043518699e-06 0.0 
2.210043518699e-06 -3.334183635663e-05 0.0 
0.0 0.0 -8.504329730078e-05 
4.576294102847e-04 1.370682311972e-05 0.0 
1.370682311972e-05 -9.748142346333e-06 0.0 
0.0 0.0 -9.010048746351e-05 
4.426858646735e-04 1.222387518921e-05 0.0 
1.222387518921e-05 -8.681697480965e-07 0.0 
0.0 0.0 -9.063198443064e-05 
4.647766352677e-04 3.225958783335e-05 0.0 
3.225958783335e-05 -3.503045802417e-05 0.0 
0.0 0.0 -8.892160723951e-05 
5.112449432108e-04 4.197682001980e-05 0.0 
4.197682001980e-05 -6.289759249197e-05 0.0 
0.0 0.0 -8.718318697143e-05 
-4.963460048474e-04 3.741658873253e-04 0.0 
3.741658873253e-04 2.291658953995e-03 0.0 
0.0 0.0 -3.752012995546e-04 
-5.432976974861e-04 2.634060634387e-04 0.0 
2.634060634387e-04 2.462469642639e-03 0.0 
0.0 0.0 -3.868404318249e-04 
-5.301912817315e-04 2.178862421640e-04 0.0 
2.178862421640e-04 2.500013808721e-03 0.0 
0.0 0.0 -3.896296296296e-04 
-5.320607188934e-04 1.317337129395e-04 0.0 
1.317337129395e-04 2.504510353030e-03 0.0 
0.0 0.0 -3.896296296296e-04 
-5.161178608444e-04 9.393835867636e-05 0.0 
9.393835867636e-05 2.514319651951e-03 0.0 
0.0 0.0 -3.896296296296e-04 
-5.086686007925e-04 5.315932730916e-05 0.0 
5.315932730916e-05 2.515419694310e-03 0.0 
0.0 0.0 -3.896296296296e-04 
-4.977839742469e-04 2.746927710559e-05 0.0 
2.746927710559e-05 2.517944369836e-03 0.0 
0.0 0.0 -3.896296296296e-04 
-4.900565112474e-04 4.118064893182e-06 0.0 
4.118064893182e-06 2.518133858728e-03 0.0 
0.0 0.0 -3.896296296296e-04 
-4.830249895940e-04 -1.368590149426e-05 0.0 
-1.368590149426e-05 2.519187416115e-03 0.0 
0.0 0.0 -3.896296296296e-04 
-4.783630454872e-04 -2.751086729387e-05 0.0 
-2.751086729387e-05 2.520671743773e-03 0.0 
0.0 0.0 -3.896296296296e-04 
-4.743863386915e-04 -3.591996023717e-05 0.0 
-3.591996023717e-05 2.522217381707e-03 0.0 
0.0 0.0 -3.896296296296e-04 
-4.707810019027e-04 -4.081302524628e-05 0.0 
-4.081302524628e-05 2.523053866982e-03 0.0 
0.0 0.0 -3.896296296296e-04 
-4.676760660685e-04 -4.333823377797e-05 0.0 
-4.333823377797e-05 2.523607627263e-03 0.0 
0.0 0.0 -3.896296296296e-04 
-4.651782369608e-04 -4.373141262157e-05 0.0 
-4.373141262157e-05 2.524037153325e-03 0.0 
0.0 0.0 -3.896296296296e-04 
-4.631116140866e-04 -4.214616339480e-05 0.0 
-4.214616339480e-05 2.524225641571e-03 0.0 
0.0 0.0 -3.896296296296e-04 
-4.611539295119e-04 -3.875403531486e-05 0.0 
-3.875403531486e-05 2.523985493706e-03 0.0 
0.0 0.0 -3.896296296296e-04 
-4.592409048559e-04 -3.439251120333e-05 0.0 
-3.439251120333e-05 2.523347540192e-03 0.0 
0.0 0.0 -3.896296296296e-04 
-4.576751666513e-04 -2.945101751799e-05 0.0 
-2.945101751799e-05 2.522730425399e-03 0.0 
0.0 0.0 -3.896296296296e-04 
-4.566276473517e-04 -2.414943419655e-05 0.0 
-2.414943419655e-05 2.522407172956e-03 0.0 
0.0 0.0 -3.896296296296e-04 
-4.564570359305e-04 -1.921240553474e-05 0.0 
-1.921240553474e-05 2.520591700457e-03 0.0 
0.0 0.0 -3.896296296296e-04 
-4.574218071583e-04 -1.928643236027e-05 0.0 
-1.928643236027e-05 2.475008879116e-03 0.0 
0.0 0.0 -3.896296296296e-04 
-4.321870686427e-04 1.023435284188e-04 0.0 
1.023435284188e-04 2.403009265600e-03 0.0 
0.0 0.0 -3.822222222222e-04 
-5.013977665724e-04 6.678054078335e-05 0.0 
6.678054078335e-05 2.703319892598e-03 0.0 
0.0 0.0 -4.266666666667e-04 
-5.000873162729e-04 4.739922315480e-07 0.0 
4.739922315480e-07 2.701172909826e-03 0.0 
0.0 0.0 -4.266666666667e-04 
-4.998071790653e-04 -2.178747072151e-05 0.0 
-2.178747072151e-05 2.700224901928e-03 0.0 
0.0 0.0 -4.266666666667e-04 
-5.007267420848e-04 -2.682346092380e-05 0.0 
-2.682346092380e-05 2.700321897617e-03 0.0 
0.0 0.0 -4.266666666667e-04 
-5.023438002827e-04 -3.104522400768e-05 0.0 
-3.104522400768e-05 2.700942336046e-03 0.0 
0.0 0.0 -4.266666666667e-04 
-5.046005899036e-04 -3.482640527593e-05 0.0 
-3.482640527593e-05 2.701790544412e-03 0.0 
0.0 0.0 -4.266666666667e-04 
-5.072352564482e-04 -3.838001695029e-05 0.0 
-3.838001695029e-05 2.702415804766e-03 0.0 
0.0 0.0 -4.266666666667e-04 
-5.098433996047e-04 -4.063252974789e-05 0.0 
-4.063252974789e-05 2.702308962132e-03 0.0 
0.0 0.0 -4.266666666667e-04 
-5.126344180745e-04 -4.048719551750e-05 0.0 
-4.048719551750e-05 2.701874566670e-03 0.0 
0.0 0.0 -4.266666666667e-04 
-5.163726922397e-04 -3.792427931932e-05 0.0 
-3.792427931932e-05 2.701523899062e-03 0.0 
0.0 0.0 -4.266666666667e-04 
-5.207389108666e-04 -3.338420754901e-05 0.0 
-3.338420754901e-05 2.701011155077e-03 0.0 
0.0 0.0 -4.266666666667e-04 
-5.252891517300e-04 -2.626882560247e-05 0.0 
-2.626882560247e-05 2.699762094262e-03 0.0 
0.0 0.0 -4.266666666667e-04 
-5.299120677543e-04 -1.439019615054e-05 0.0 
-1.439019615054e-05 2.697258437041e-03 0.0 
0.0 0.0 -4.266666666667e-04 
-5.357525103733e-04 4.962642114392e-06 0.0 
4.962642114392e-06 2.695874831440e-03 0.0 
0.0 0.0 -4.266666666667e-04 
-5.442031688919e-04 2.698467857241e-05 0.0 
2.698467857241e-05 2.694563012441e-03 0.0 
0.0 0.0 -4.266666666667e-04 
-5.535277733574e-04 5.642979102142e-05 0.0 
5.642979102142e-05 2.694993549781e-03 0.0 
0.0 0.0 -4.266666666667e-04 
-5.636396406095e-04 8.491085392806e-05 0.0 
8.491085392806e-05 2.688346064678e-03 0.0 
0.0 0.0 -4.266666666667e-04 
-5.667180855967e-04 1.404909475521e-04 0.0 
1.404909475521e-04 2.684702359192e-03 0.0 
0.0 0.0 -4.266666666667e-04 
-5.760763171982e-04 1.868968236703e-04 0.0 
1.868968236703e-04 2.700776601453e-03 0.0 
0.0 0.0 -4.293391642371e-04 
-5.414318027528e-04 2.582759348764e-04 0.0 
2.582759348764e-04 2.576024993124e-03 0.0 
0.0 0.0 -4.186734693878e-04 
-6.002569752709e-04 2.106199425740e-04 0.0 
2.106199425740e-04 3.040601950913e-03 0.0 
0.0 0.0 -4.852947845805e-04 
-6.404347893740e-04 1.452930758805e-04 0.0 
1.452930758805e-04 3.169480489552e-03 0.0 
0.0 0.0 -4.959669582118e-04 
-6.373670366941e-04 1.181817318953e-04 0.0 
1.181817318953e-04 3.157603873263e-03 0.0 
0.0 0.0 -4.933333333333e-04 
-6.335926768194e-04 7.794245507497e-05 0.0 
7.794245507497e-05 3.156688021345e-03 0.0 
0.0 0.0 -4.933333333333e-04 
-6.220474498716e-04 5.134440581893e-05 0.0 
5.134440581893e-05 3.160786184874e-03 0.0 
0.0 0.0 -4.933333333333e-04 
-6.159406124673e-04 2.206688587732e-05 0.0 
2.206688587732e-05 3.161928673014e-03 0.0 
0.0 0.0 -4.933333333333e-04 
-6.109166782003e-04 3.714322771242e-06 0.0 
3.714322771242e-06 3.167514719351e-03 0.0 
0.0 0.0 -4.933333333333e-04 
-6.054581133856e-04 -7.307117585949e-06 0.0 
-7.307117585949e-06 3.170142463375e-03 0.0 
0.0 0.0 -4.933333333333e-04 
-6.000107331639e-04 -1.469328145384e-05 0.0 
-1.469328145384e-05 3.171163635534e-03 0.0 
0.0 0.0 -4.933333333333e-04 
-5.941898088781e-04 -2.074063559937e-05 0.0 
-2.074063559937e-05 3.171088193189e-03 0.0 
0.0 0.0 -4.933333333333e-04 
-5.898957035509e-04 -2.603463415847e-05 0.0 
-2.603463415847e-05 3.171921383452e-03 0.0 
0.0 0.0 -4.933333333333e-04 
-5.871319754984e-04 -2.671317052851e-05 0.0 
-2.671317052851e-05 3.173080463882e-03 0.0 
0.0 0.0 -4.933333333333e-04 
-5.831711305422e-04 -2.471825246934e-05 0.0 
-2.471825246934e-05 3.172447959486e-03 0.0 
0.0 0.0 -4.933333333333e-04 
-5.799110508209e-04 -2.308008329295e-05 0.0 
-2.308008329295e-05 3.171263771991e-03 0.0 
0.0 0.0 -4.933333333333e-04 
-5.773557365906e-04 -2.133550619489e-05 0.0 
-2.133550619489e-05 3.170479716806e-03 0.0 
0.0 0.0 -4.933333333333e-04 
-5.758014518713e-04 -1.892419660156e-05 0.0 
-1.892419660156e-05 3.170002557654e-03 0.0 
0.0 0.0 -4.933333333333e-04 
-5.748764960425e-04 -1.805012883539e-05 0.0 
-1.805012883539e-05 3.170347605706e-03 0.0 
0.0 0.0 -4.933333333333e-04 
-5.760506827362e-04 -2.075419369238e-05 0.0 
-2.075419369238e-05 3.172373778641e-03 0.0 
0.0 0.0 -4.933333333333e-04 
-5.767249358615e-04 1.015271389729e-04 0.0 
1.015271389729e-04 3.173431107618e-03 0.0 
0.0 0.0 -4.933333333333e-04 
-6.527572212549e-04 6.780105280902e-05 0.0 
6.780105280902e-05 3.643323392159e-03 0.0 
0.0 0.0 -5.600000000000e-04 
-6.484652640847e-04 -1.867317635502e-06 0.0 
-1.867317635502e-06 3.638221338221e-03 0.0 
0.0 0.0 -5.600000000000e-04 
-6.483746879456e-04 -1.524137963776e-05 0.0 
-1.524137963776e-05 3.636879668493e-03 0.0 
0.0 0.0 -5.600000000000e-04 
-6.506726970290e-04 -1.678761464932e-05 0.0 
-1.678761464932e-05 3.638240294297e-03 0.0 
0.0 0.0 -5.600000000000e-04 
-6.515567938656e-04 -1.582684597498e-05 0.0 
-1.582684597498e-05 3.638013899900e-03 0.0 
0.0 0.0 -5.600000000000e-04 
-6.554750631859e-04 -1.470434980338e-05 0.0 
-1.470434980338e-05 3.639460407849e-03 0.0 
0.0 0.0 -5.600000000000e-04 
-6.594170751284e-04 -1.283952103919e-05 0.0 
-1.283952103919e-05 3.641117124007e-03 0.0 
0.0 0.0 -5.600000000000e-04 
-6.641464449147e-04 -1.550365402295e-05 0.0 
-1.550365402295e-05 3.640594034775e-03 0.0 
0.0 0.0 -5.600000000000e-04 
-6.668858948113e-04 -7.941772856611e-06 0.0 
-7.941772856611e-06 3.636849838348e-03 0.0 
0.0 0.0 -5.600000000000e-04 
-6.741591020856e-04 2.577853317367e-06 0.0 
2.577853317367e-06 3.638100575400e-03 0.0 
0.0 0.0 -5.600000000000e-04 
-6.809485102659e-04 9.363144820372e-06 0.0 
9.363144820372e-06 3.637932552511e-03 0.0 
0.0 0.0 -5.600000000000e-04 
-6.861033350786e-04 2.086292296722e-05 0.0 
2.086292296722e-05 3.634350486115e-03 0.0 
0.0 0.0 -5.600000000000e-04 
-6.932352806905e-04 3.670348944842e-05 0.0 
3.670348944842e-05 3.630716211654e-03 0.0 
0.0 0.0 -5.600000000000e-04 
-6.980811967268e-04 5.967994361152e-05 0.0 
5.967994361152e-05 3.618796687988e-03 0.0 
0.0 0.0 -5.600000000000e-04 
-7.013848849314e-04 1.083829473888e-04 0.0 
1.083829473888e-04 3.620396778090e-03 0.0 
0.0 0.0 -5.600000000000e-04 
-7.078351814424e-04 1.219335158790e-04 0.0 
1.219335158790e-04 3.644573923445e-03 0.0 
0.0 0.0 -5.626724975705e-04 
-6.666304385001e-04 1.660523767343e-04 0.0 
1.660523767343e-04 3.518024469538e-03 0.0 
0.0 0.0 -5.520068027211e-04 
-7.306639245541e-04 1.487904650220e-04 0.0 
1.487904650220e-04 3.987541024977e-03 0.0 
0.0 0.0 -6.186195084094e-04 
-7.777639873500e-04 1.047682677556e-04 0.0 
1.047682677556e-04 4.108452618951e-03 0.0 
0.0 0.0 -6.292929119699e-04 
-7.730086078056e-04 8.789895144587e-05 0.0 
8.789895144587e-05 4.091912019672e-03 0.0 
0.0 0.0 -6.266666666667e-04 
-7.618524580481e-04 6.512725790421e-05 0.0 
6.512725790421e-05 4.093546504346e-03 0.0 
0.0 0.0 -6.266666666667e-04 
-7.572869673676e-04 4.077816536235e-05 0.0 
4.077816536235e-05 4.100722229585e-03 0.0 
0.0 0.0 -6.266666666667e-04 
-7.522759778333e-04 3.231234712664e-05 0.0 
3.231234712664e-05 4.105753030330e-03 0.0 
0.0 0.0 -6.266666666667e-04 
-7.456061716167e-04 2.469919196216e-05 0.0 
2.469919196216e-05 4.102695942195e-03 0.0 
0.0 0.0 -6.266666666667e-04 
-7.404032118594e-04 6.233661207773e-06 0.0 
6.233661207773e-06 4.103985895951e-03 0.0 
0.0 0.0 -6.266666666667e-04 
-7.306819678944e-04 6.672744555550e-06 0.0 
6.672744555550e-06 4.108272711165e-03 0.0 
0.0 0.0 -6.266666666667e-04 
-7.293745733164e-04 -1.304990055444e-06 0.0 
-1.304990055444e-06 4.106419007565e-03 0.0 
0.0 0.0 -6.266666666667e-04 
-7.249341380716e-04 -1.277588629320e-06 0.0 
-1.277588629320e-06 4.105173170991e-03 0.0 
0.0 0.0 -6.266666666667e-04 
-7.218872567136e-04 -1.221940477039e-05 0.0 
-1.221940477039e-05 4.104125766063e-03 0.0 
0.0 0.0 -6.266666666667e-04 
-7.226283520212e-04 -7.586680396462e-06 0.0 
-7.586680396462e-06 4.106687618408e-03 0.0 
0.0 0.0 -6.266666666667e-04 
-7.194567743785e-04 -1.345793513568e-05 0.0 
-1.345793513568e-05 4.101402324494e-03 0.0 
0.0 0.0 -6.266666666667e-04 
-7.217276456755e-04 -3.632688016994e-05 0.0 
-3.632688016994e-05 4.111803083088e-03 0.0 
0.0 0.0 -6.266666666667e-04 
-7.310107230365e-04 1.113089146982e-04 0.0 
1.113089146982e-04 4.120905737550e-03 0.0 
0.0 0.0 -6.266666666667e-04 
-7.795388848307e-06 2.974653391665e-04 0.0 
2.974653391665e-04 4.738778624265e-05 0.0 
0.0 0.0 -1.696817031186e-05 
-4.487896732987e-05 6.031454295583e-04 0.0 
6.031454295583e-04 4.769141611533e-04 0.0 
0.0 0.0 -1.851579402100e-04 
-2.477886944410e-04 8.307338841621e-04 0.0 
8.307338841621e-04 1.056772820351e-03 0.0 
0.0 0.0 -3.137502536684e-04 
-5.164548883485e-04 7.997848336998e-04 0.0 
7.997848336998e-04 1.596714724844e-03 0.0 
0.0 0.0 -2.872952472806e-04 
-5.626935448601e-04 6.025030630991e-04 0.0 
6.025030630991e-04 2.056956549032e-03 0.0 
0.0 0.0 -3.440931072323e-04 
-5.457475300790e-04 4.364478280154e-04 0.0 
4.364478280154e-04 2.424065755011e-03 0.0 
0.0 0.0 -3.985758167471e-04 
-6.066455436428e-04 3.364332527846e-04 0.0 
3.364332527846e-04 2.883298822982e-03 0.0 
0.0 0.0 -4.650267612653e-04 
-6.625430485052e-04 2.762683699332e-04 0.0 
2.762683699332e-04 3.355431578782e-03 0.0 
0.0 0.0 -5.317697887215e-04 
-7.239877336263e-04 2.202667385963e-04 0.0 
2.202667385963e-04 3.828610808697e-03 0.0 
0.0 0.0 -5.985602557689e-04 
-7.842817421153e-04 1.883796168278e-04 0.0 
1.883796168278e-04 4.312421836845e-03 0.0 
0.0 0.0 -6.652967104836e-04 
-6.528049956139e-05 8.329192367362e-04 0.0 
8.329192367362e-04 6.721534156509e-04 0.0 
0.0 0.0 -2.600883926098e-04 
-1.238271811776e-03 -2.323410981101e-05 0.0 
-2.323410981101e-05 8.143368057859e-03 0.0 
0.0 0.0 -1.303388942653e-03 
5.998510431380e-05 -1.163529753908e-04 0.0 
-1.163529753908e-04 2.499013313257e-04 0.0 
0.0 0.0 -7.661148810519e-05 
1.270751205327e-05 -3.607914457565e-05 0.0 
-3.607914457565e-05 6.964316184803e-06 0.0 
0.0 0.0 -8.430783530604e-06 
-1.278901467981e-03 -2.582894247670e-04 0.0 
-2.582894247670e-04 8.264882866352e-03 0.0 
0.0 0.0 -1.303360877099e-03 
-5.655990039998e-04 8.080804633426e-04 0.0 
8.080804633426e-04 1.859508276799e-03 0.0 
0.0 0.0 -3.221766324775e-04 
-9.861956324832e-04 -6.715847648061e-05 0.0 
-6.715847648061e-05 4.773589466734e-03 0.0 
0.0 0.0 -7.300567563597e-04 
-1.244927303710e-03 2.945275852412e-04 0.0 
2.945275852412e-04 8.164800639293e-03 0.0 
0.0 0.0 -1.300998267065e-03 
-6.348034790759e-04 4.424120780115e-04 0.0 
4.424120780115e-04 2.761117670990e-03 0.0 
0.0 0.0 -4.497936382440e-04 
-1.277128875373e-03 4.777706098865e-04 0.0 
4.777706098865e-04 8.316029240451e-03 0.0 
0.0 0.0 -1.304014651794e-03 
-7.514819667783e-04 2.897671537100e-04 0.0 
2.897671537100e-04 3.742162088854e-03 0.0 
0.0 0.0 -5.857980290939e-04 
-1.307584739855e-03 -2.907864623538e-04 0.0 
-2.907864623538e-04 8.435582561033e-03 0.0 
0.0 0.0 -1.307658508868e-03 
2.194594038095e-04 -2.670865977714e-05 0.0 
-2.670865977714e-05 1.694259524564e-04 0.0 
0.0 0.0 -9.345456780789e-05 
-1.309138496400e-03 5.212450025025e-04 0.0 
5.212450025025e-04 8.474949316046e-03 0.0 
0.0 0.0 -1.304481600125e-03 
-8.746417822978e-04 2.068395432367e-04 0.0 
2.068395432367e-04 4.729142408164e-03 0.0 
0.0 0.0 -7.203075318094e-04 
-6.505648739721e-04 -3.624268182337e-05 0.0 
-3.624268182337e-05 2.957311441966e-03 0.0 
0.0 0.0 -4.640473930190e-04 
-1.131372666701e-03 -4.491765098181e-05 0.0 
-4.491765098181e-05 5.976165985442e-03 0.0 
0.0 0.0 -9.125512086551e-04 
-1.314763544022e-03 4.589275118802e-04 0.0 
4.589275118802e-04 8.560285468091e-03 0.0 
0.0 0.0 -1.301280071178e-03 
-1.328200349095e-03 3.774182231254e-04 0.0 
3.774182231254e-04 8.674652987533e-03 0.0 
0.0 0.0 -1.304294760550e-03 
-1.328231009146e-03 1.002317222840e-04 0.0 
1.002317222840e-04 8.762903021805e-03 0.0 
0.0 0.0 -1.303238611779e-03 
-1.321361255880e-03 2.020746578681e-04 0.0 
2.020746578681e-04 8.706453928135e-03 0.0 
0.0 0.0 -1.297727402575e-03 
-1.333675382953e-03 2.525190978684e-04 0.0 
2.525190978684e-04 8.729905622316e-03 0.0 
0.0 0.0 -1.305306183856e-03 
-8.907724214169e-04 1.372579395388e-04 0.0 
1.372579395388e-04 4.950739460616e-03 0.0 
0.0 0.0 -7.522011426764e-04 
-8.750579348879e-04 6.356350708577e-05 0.0 
6.356350708577e-05 4.972444393085e-03 0.0 
0.0 0.0 -7.529849494387e-04 
-8.651922808025e-04 1.321213173771e-05 0.0 
1.321213173771e-05 5.002490543075e-03 0.0 
0.0 0.0 -7.580270452736e-04 
-1.081282276580e-03 -2.537529428612e-05 0.0 
-2.537529428612e-05 6.643650052824e-03 0.0 
0.0 0.0 -9.950081682429e-04 
-1.332561184719e-03 -2.295807888403e-04 0.0 
-2.295807888403e-04 8.502002206283e-03 0.0 
0.0 0.0 -1.302874185639e-03 
0.0 0.0 0.0 
0.0 0.0 0.0 
0.0 0.0 0.0 
2.233748649996e-04 5.268922663070e-06 0.0 
5.268922663070e-06 2.031789523429e-04 0.0 
0.0 0.0 -1.071793558177e-04 
-1.266615157062e-03 -4.708891648946e-05 0.0 
-4.708891648946e-05 7.362986267811e-03 0.0 
0.0 0.0 -1.122886395833e-03 
-8.590690058330e-04 2.817818056919e-05 0.0 
2.817818056919e-05 4.956725197885e-03 0.0 
0.0 0.0 -7.500338828344e-04 
-3.077541790528e-04 -1.952701143312e-05 0.0 
-1.952701143312e-05 1.504768126338e-03 0.0 
0.0 0.0 -2.594501920933e-04 
-1.324226706230e-03 4.167698339106e-04 0.0 
4.167698339106e-04 8.547363588762e-03 0.0 
0.0 0.0 -1.293200138473e-03 
-1.268789998251e-03 4.116378875631e-04 0.0 
4.116378875631e-04 8.267843264786e-03 0.0 
0.0 0.0 -1.307307853467e-03 
-1.298127013523e-03 5.178122413189e-04 0.0 
5.178122413189e-04 8.390890810400e-03 0.0 
0.0 0.0 -1.304733450272e-03 
-1.233362636415e-03 1.634458979136e-04 0.0 
1.634458979136e-04 8.121763907804e-03 0.0 
0.0 0.0 -1.297928233296e-03 
-1.261877986510e-03 -1.597052773119e-04 0.0 
-1.597052773119e-04 8.188934025231e-03 0.0 
0.0 0.0 -1.305578568836e-03 
2.734204477331e-05 -3.169143204034e-04 0.0 
-3.169143204034e-04 1.647533136443e-04 0.0 
0.0 0.0 -8.226872593096e-05 
-8.795053511419e-04 9.559274535899e-05 0.0 
9.559274535899e-05 4.954160552764e-03 0.0 
0.0 0.0 -7.500980793755e-04 
-1.291571793349e-03 -3.018456542619e-04 0.0 
-3.018456542619e-04 8.267318175430e-03 0.0 
0.0 0.0 -1.293180865222e-03 
-1.191688283040e-03 -1.679553581366e-05 0.0 
-1.679553581366e-05 7.562043590583e-03 0.0 
0.0 0.0 -1.123598490052e-03 
1.170418686809e-04 -5.562668358397e-05 0.0 
-5.562668358397e-05 2.275676700802e-04 0.0 
0.0 0.0 -7.719741026454e-05 
-8.274582342161e-04 -6.171908782243e-05 0.0 
-6.171908782243e-05 3.848512271059e-03 0.0 
0.0 0.0 -5.937437734062e-04 
-1.335764842081e-03 6.371320431880e-05 0.0 
6.371320431880e-05 8.844549453637e-03 0.0 
0.0 0.0 -1.311981303940e-03 
-6.029700723185e-04 6.122078773443e-04 0.0 
6.122078773443e-04 2.350776615634e-03 0.0 
0.0 0.0 -3.897472533596e-04 
-3.421036135192e-04 9.389470505226e-04 0.0 
9.389470505226e-04 1.298921873387e-03 0.0 
0.0 0.0 -3.268992177355e-04 
-6.932234286341e-04 3.612940895342e-04 0.0 
3.612940895342e-04 3.253564498504e-03 0.0 
0.0 0.0 -5.178568985205e-04 
-8.102727904185e-04 2.233971647189e-04 0.0 
2.233971647189e-04 4.222711404521e-03 0.0 
0.0 0.0 -6.527703211191e-04 
4.508262257154e-05 4.167441272399e-04 0.0 
4.167441272399e-04 1.279583519400e-04 0.0 
0.0 0.0 -7.416041764780e-05 
-9.647575502476e-04 -2.771769126341e-06 0.0 
-2.771769126341e-06 5.776762544034e-03 0.0 
0.0 0.0 -8.684787984471e-04 
-1.350888138525e-03 -1.433490915200e-04 0.0 
-1.433490915200e-04 8.608994521473e-03 0.0 
0.0 0.0 -1.313906642692e-03 
2.535763956766e-04 3.453965229505e-05 0.0 
3.453965229505e-05 1.648612099088e-04 0.0 
0.0 0.0 -1.090843966873e-04 
-1.275593957644e-03 1.853867106533e-05 0.0 
1.853867106533e-05 8.418825182379e-03 0.0 
0.0 0.0 -1.253930875827e-03 
-8.953448143456e-04 1.901723990594e-04 0.0 
1.901723990594e-04 4.929510438704e-03 0.0 
0.0 0.0 -7.532271817479e-04 
-9.242130448013e-04 2.218369834796e-04 0.0 
2.218369834796e-04 5.094044769017e-03 0.0 
0.0 0.0 -7.809350190597e-04 
-9.469027331401e-04 2.184886764960e-04 0.0 
2.184886764960e-04 5.336848493436e-03 0.0 
0.0 0.0 -8.115578932774e-04 
-9.847582339447e-04 2.348277518639e-04 0.0 
2.348277518639e-04 5.535490339246e-03 0.0 
0.0 0.0 -8.428390908522e-04 
-1.013224796440e-03 2.269955445031e-04 0.0 
2.269955445031e-04 5.773109205172e-03 0.0 
0.0 0.0 -8.784658474099e-04 
-1.038385862696e-03 2.590411142921e-04 0.0 
2.590411142921e-04 5.954479327597e-03 0.0 
0.0 0.0 -9.060409163497e-04 
-1.004174411440e-03 2.781484189758e-04 0.0 
2.781484189758e-04 5.703926568537e-03 0.0 
0.0 0.0 -8.711257577415e-04 
-1.054585459025e-03 2.973439443916e-04 0.0 
2.973439443916e-04 6.126110480118e-03 0.0 
0.0 0.0 -9.341442283280e-04 
-1.020905393351e-03 3.220952727550e-04 0.0 
3.220952727550e-04 5.866625374892e-03 0.0 
0.0 0.0 -8.989774131092e-04 
-1.060675836449e-03 2.424242741137e-04 0.0 
2.424242741137e-04 6.211611638975e-03 0.0 
0.0 0.0 -9.415083590319e-04 
-1.069903741450e-03 3.342745829502e-04 0.0 
3.342745829502e-04 6.289952349254e-03 0.0 
0.0 0.0 -9.622976032585e-04 
-1.033366094007e-03 3.621226093725e-04 0.0 
3.621226093725e-04 6.024211968433e-03 0.0 
0.0 0.0 -9.268639294333e-04 
-1.081748877589e-03 3.725821950626e-04 0.0 
3.725821950626e-04 6.448138080981e-03 0.0 
0.0 0.0 -9.903372159162e-04 
-1.042953915019e-03 3.991340856965e-04 0.0 
3.991340856965e-04 6.178329635147e-03 0.0 
0.0 0.0 -9.547708836903e-04 
-9.946320659626e-04 3.943126043460e-04 0.0 
3.943126043460e-04 5.758814307551e-03 0.0 
0.0 0.0 -8.916807130883e-04 
-1.001107217771e-03 4.332773723891e-04 0.0 
4.332773723891e-04 5.906894361937e-03 0.0 
0.0 0.0 -9.194532194038e-04 
-9.524385169357e-04 4.327952618966e-04 0.0 
4.327952618966e-04 5.490022466699e-03 0.0 
0.0 0.0 -8.565021464485e-04 
-9.551941416785e-04 4.714703413802e-04 0.0 
4.714703413802e-04 5.632535536945e-03 0.0 
0.0 0.0 -8.841639842141e-04 
-1.003948910985e-03 4.659340529388e-04 0.0 
4.659340529388e-04 6.052492370979e-03 0.0 
0.0 0.0 -9.471984275390e-04 
-9.534464918986e-04 5.005026845975e-04 0.0 
5.005026845975e-04 5.770878701320e-03 0.0 
0.0 0.0 -9.118195294070e-04 
-9.061256584098e-04 5.150134062317e-04 0.0 
5.150134062317e-04 5.352614190247e-03 0.0 
0.0 0.0 -8.488396520500e-04 
-8.989049191365e-04 5.434397803423e-04 0.0 
5.434397803423e-04 5.483228311018e-03 0.0 
0.0 0.0 -8.764089341820e-04 
-8.533039374695e-04 5.667693254413e-04 0.0 
5.667693254413e-04 5.068208533921e-03 0.0 
0.0 0.0 -8.135623229517e-04 
-8.400733524865e-04 5.914836390070e-04 0.0 
5.914836390070e-04 5.191255654721e-03 0.0 
0.0 0.0 -8.410744910442e-04 
-7.968543408339e-04 6.237249391908e-04 0.0 
6.237249391908e-04 4.777124479860e-03 0.0 
0.0 0.0 -7.781617608290e-04 
-7.768533972697e-04 6.436004668132e-04 0.0 
6.436004668132e-04 4.892920097115e-03 0.0 
0.0 0.0 -8.056965831182e-04 
-8.240566969273e-04 5.997503228454e-04 0.0 
5.997503228454e-04 5.313376653990e-03 0.0 
0.0 0.0 -8.686949506212e-04 
-7.549029941076e-04 6.445435251704e-04 0.0 
6.445435251704e-04 5.007797875212e-03 0.0 
0.0 0.0 -8.332427817419e-04 
-7.080731455591e-04 7.008821416478e-04 0.0 
7.008821416478e-04 4.586577191639e-03 0.0 
0.0 0.0 -7.703313069557e-04 
-6.796342790660e-04 6.889970591832e-04 0.0 
6.889970591832e-04 4.694361205396e-03 0.0 
0.0 0.0 -7.977945042040e-04 
-6.329025767040e-04 7.594983388287e-04 0.0 
7.594983388287e-04 4.271526927018e-03 0.0 
0.0 0.0 -7.349073124327e-04 
-5.970419350956e-04 7.303350951608e-04 0.0 
7.303350951608e-04 4.369967111415e-03 0.0 
0.0 0.0 -7.622392297106e-04 
-6.532929672579e-04 6.522887049741e-04 0.0 
6.522887049741e-04 4.806542372592e-03 0.0 
0.0 0.0 -8.253152238873e-04 
-5.665194748989e-04 6.694860838181e-04 0.0 
6.694860838181e-04 4.478701756150e-03 0.0 
0.0 0.0 -7.896995018144e-04 
-5.068058502527e-04 7.602496009026e-04 0.0 
7.602496009026e-04 4.031209139410e-03 0.0 
0.0 0.0 -7.264132926703e-04 
-4.737449794266e-04 6.709445860115e-04 0.0 
6.709445860115e-04 4.140917238724e-03 0.0 
0.0 0.0 -7.539848323805e-04 
-4.092281239023e-04 7.730243516518e-04 0.0 
7.730243516518e-04 3.680765614921e-03 0.0 
0.0 0.0 -6.903858661722e-04 
-3.744957372966e-04 6.516877818939e-04 0.0 
6.516877818939e-04 3.794607072583e-03 0.0 
0.0 0.0 -7.182351804274e-04 
-3.014418119782e-04 7.651198626849e-04 0.0 
7.651198626849e-04 3.317111817818e-03 0.0 
0.0 0.0 -6.542402593883e-04 
-2.691367924077e-04 5.991354595496e-04 0.0 
5.991354595496e-04 3.436288112929e-03 0.0 
0.0 0.0 -6.821763112594e-04 
-3.572033048063e-04 5.016025540799e-04 0.0 
5.016025540799e-04 3.930238801817e-03 0.0 
0.0 0.0 -7.460902125261e-04 
-2.604633093040e-04 4.087486075233e-04 0.0 
4.087486075233e-04 3.586761049540e-03 0.0 
0.0 0.0 -7.100832486075e-04 
-1.613056217724e-04 4.995138349428e-04 0.0 
4.995138349428e-04 3.072389318551e-03 0.0 
0.0 0.0 -6.458624074531e-04 
-1.669705829229e-04 2.701808013183e-04 0.0 
2.701808013183e-04 3.243787358763e-03 0.0 
0.0 0.0 -6.737786430284e-04 
-2.753947664968e-04 2.161212745525e-04 0.0 
2.161212745525e-04 3.768674846201e-03 0.0 
0.0 0.0 -7.381473126730e-04 
-2.005498486414e-04 5.346396201185e-05 0.0 
5.346396201185e-05 3.452103226554e-03 0.0 
0.0 0.0 -7.017500108595e-04 
-3.129525029213e-04 3.691539212023e-05 0.0 
3.691539212023e-05 3.980008917697e-03 0.0 
0.0 0.0 -7.662494016216e-04 
-2.576506604218e-04 -1.344602376400e-04 0.0 
-1.344602376400e-04 3.691587731914e-03 0.0 
0.0 0.0 -7.297828278826e-04 
-1.426325829897e-04 -1.501001214894e-04 0.0 
-1.501001214894e-04 3.157731231159e-03 0.0 
0.0 0.0 -6.655364893108e-04 
-2.218003623758e-04 -3.334729403515e-04 0.0 
-3.334729403515e-04 3.428848173996e-03 0.0 
0.0 0.0 -6.934067383651e-04 
-3.318343911700e-04 -2.853674173367e-04 0.0 
-2.853674173367e-04 3.952815162001e-03 0.0 
0.0 0.0 -7.577868799165e-04 
-3.144801710965e-04 -4.682272711583e-04 0.0 
-4.682272711583e-04 3.714915939774e-03 0.0 
0.0 0.0 -7.212202614536e-04 
-2.108184981842e-04 -5.509789330318e-04 0.0 
-5.509789330318e-04 3.196953321697e-03 0.0 
0.0 0.0 -6.571136838490e-04 
-3.194748950850e-04 -6.509678457029e-04 0.0 
-6.509678457029e-04 3.509025892108e-03 0.0 
0.0 0.0 -6.848379476561e-04 
-4.134303053585e-04 -5.537180261355e-04 0.0 
-5.537180261355e-04 4.010754256809e-03 0.0 
0.0 0.0 -7.491645792950e-04 
-4.282972412297e-04 -7.003622053819e-04 0.0 
-7.003622053819e-04 3.819503617895e-03 0.0 
0.0 0.0 -7.127097857715e-04 
-3.469063150971e-04 -8.191207970740e-04 0.0 
-8.191207970740e-04 3.332834435183e-03 0.0 
0.0 0.0 -6.486049398320e-04 
-4.603200915782e-04 -8.241016297384e-04 0.0 
-8.241016297384e-04 3.654972315785e-03 0.0 
0.0 0.0 -6.763006240845e-04 
-5.326763552168e-04 -7.095630877107e-04 0.0 
-7.095630877107e-04 4.127629826769e-03 0.0 
0.0 0.0 -7.409416231994e-04 
-5.642434690968e-04 -7.961766967206e-04 0.0 
-7.961766967206e-04 3.962246775740e-03 0.0 
0.0 0.0 -7.042275185679e-04 
-5.048810542407e-04 -9.111393169982e-04 0.0 
-9.111393169982e-04 3.507729400124e-03 0.0 
0.0 0.0 -6.398389559308e-04 
-6.027165900428e-04 -8.444966016725e-04 0.0 
-8.444966016725e-04 3.810620087909e-03 0.0 
0.0 0.0 -6.674633383154e-04 
-6.579291994771e-04 -7.450391146030e-04 0.0 
-7.450391146030e-04 4.258237816838e-03 0.0 
0.0 0.0 -7.324886333286e-04 
-6.885251553241e-04 -7.661379123145e-04 0.0 
-7.661379123145e-04 4.095680745521e-03 0.0 
0.0 0.0 -6.954027321055e-04 
-7.420005201256e-04 -6.813900099092e-04 0.0 
-6.813900099092e-04 4.540296059999e-03 0.0 
0.0 0.0 -7.608997874520e-04 
-6.419229239274e-04 -8.515280830913e-04 0.0 
-8.515280830913e-04 3.660198205629e-03 0.0 
0.0 0.0 -6.302092384919e-04 
-7.165087956100e-04 -7.532581299851e-04 0.0 
-7.532581299851e-04 3.933160643348e-03 0.0 
0.0 0.0 -6.580989212857e-04 
-6.748415764425e-04 -8.158732049488e-04 0.0 
-8.158732049488e-04 3.506981101763e-03 0.0 
0.0 0.0 -5.925517106747e-04 
-7.365832294088e-04 -7.073699189760e-04 0.0 
-7.073699189760e-04 3.765896700508e-03 0.0 
0.0 0.0 -6.207111136070e-04 
-6.332000182986e-04 5.918731838089e-04 0.0 
5.918731838089e-04 4.929291128701e-03 0.0 
0.0 0.0 -8.529317679587e-04 
-6.943116331248e-04 -7.425915444218e-04 0.0 
-7.425915444218e-04 3.344277999279e-03 0.0 
0.0 0.0 -5.549884598765e-04 
-6.397413698948e-04 -8.660814527003e-04 0.0 
-8.660814527003e-04 3.093984914707e-03 0.0 
0.0 0.0 -5.276250340903e-04 
-7.441497249529e-04 -6.348309289793e-04 0.0 
-6.348309289793e-04 3.588685288948e-03 0.0 
0.0 0.0 -5.833260987948e-04 
-7.927694967591e-04 -6.072286345187e-04 0.0 
-6.072286345187e-04 4.017000879105e-03 0.0 
0.0 0.0 -6.493616581942e-04 
-6.966675025981e-04 -6.428656991036e-04 0.0 
-6.428656991036e-04 3.166084591150e-03 0.0 
0.0 0.0 -5.173870653820e-04 
-7.365323002863e-04 -5.431818663254e-04 0.0 
-5.431818663254e-04 3.397457388952e-03 0.0 
0.0 0.0 -5.459094278256e-04 
-6.801980278813e-04 -5.258870908465e-04 0.0 
-5.258870908465e-04 2.971149924429e-03 0.0 
0.0 0.0 -4.798161731008e-04 
-3.522724475006e-04 8.978406558880e-04 0.0 
8.978406558880e-04 3.218246737404e-03 0.0 
0.0 0.0 -6.252159162693e-04 
-1.003922379852e-03 4.867498946042e-04 0.0 
4.867498946042e-04 6.194900288835e-03 0.0 
0.0 0.0 -9.750716696758e-04 
-7.134730581966e-04 -4.396097415729e-04 0.0 
-4.396097415729e-04 3.191992919970e-03 0.0 
0.0 0.0 -5.084495576641e-04 
-6.454975030147e-04 -4.098543326581e-04 0.0 
-4.098543326581e-04 2.756723401947e-03 0.0 
0.0 0.0 -4.423119711188e-04 
-6.169555617155e-04 -4.854535332185e-04 0.0 
-4.854535332185e-04 2.543124995000e-03 0.0 
0.0 0.0 -4.136824817550e-04 
-5.630688119643e-04 -3.553409865602e-04 0.0 
-3.553409865602e-04 2.315573721592e-03 0.0 
0.0 0.0 -3.761903503575e-04 
-1.032297422083e-03 1.966440866369e-04 0.0 
1.966440866369e-04 6.038887422175e-03 0.0 
0.0 0.0 -9.126358703463e-04 
-1.092679819842e-03 2.404953654437e-04 0.0 
2.404953654437e-04 6.471742125457e-03 0.0 
0.0 0.0 -9.772611937912e-04 
-1.065662184042e-03 1.952825978825e-04 0.0 
1.952825978825e-04 6.276115658093e-03 0.0 
0.0 0.0 -9.468612964576e-04 
-1.124488971150e-03 2.272669760496e-04 0.0 
2.272669760496e-04 6.729090336894e-03 0.0 
0.0 0.0 -1.012955122490e-03 
-1.098065280761e-03 1.864830102051e-04 0.0 
1.864830102051e-04 6.541298868571e-03 0.0 
0.0 0.0 -9.835180958883e-04 
-5.915603593799e-04 -3.065298427479e-04 0.0 
-3.065298427479e-04 2.521782196510e-03 0.0 
0.0 0.0 -4.047791634435e-04 
-1.117175513921e-03 3.540420738705e-04 0.0 
3.540420738705e-04 6.717826161917e-03 0.0 
0.0 0.0 -1.026687169009e-03 
-1.146459728684e-03 2.677090129604e-04 0.0 
2.677090129604e-04 6.908937528882e-03 0.0 
0.0 0.0 -1.042264213861e-03 
-8.619810308033e-04 5.269046982762e-04 0.0 
5.269046982762e-04 4.942534175484e-03 0.0 
0.0 0.0 -7.861871271282e-04 
-6.685992335526e-04 7.579980182072e-04 0.0 
7.579980182072e-04 4.174187567995e-03 0.0 
0.0 0.0 -7.076088937226e-04 
-3.823000922578e-04 1.751040962943e-04 0.0 
1.751040962943e-04 4.285393794973e-03 0.0 
0.0 0.0 -8.027518904046e-04 
-7.754697783619e-04 -4.563258168331e-04 0.0 
-4.563258168331e-04 3.623603682734e-03 0.0 
0.0 0.0 -5.745905038755e-04 
-7.478137892348e-04 -3.620965601600e-04 0.0 
-3.620965601600e-04 3.412205611854e-03 0.0 
0.0 0.0 -5.371338854166e-04 
-8.174754817651e-04 -3.813163108904e-04 0.0 
-3.813163108904e-04 3.849101426160e-03 0.0 
0.0 0.0 -6.033452624549e-04 
-7.192525572030e-04 -6.519418612780e-04 0.0 
-6.519418612780e-04 4.714458239345e-03 0.0 
0.0 0.0 -7.980428604176e-04 
-8.008672232585e-04 -6.001783307384e-04 0.0 
-6.001783307384e-04 4.992005436326e-03 0.0 
0.0 0.0 -8.266132305475e-04 
-7.854918836627e-04 -5.659348858598e-04 0.0 
-5.659348858598e-04 5.176434454621e-03 0.0 
0.0 0.0 -8.638188500004e-04 
-8.639017049063e-04 -5.248351014622e-04 0.0 
-5.248351014622e-04 5.448454375514e-03 0.0 
0.0 0.0 -8.924533907576e-04 
-8.555184497349e-04 -4.894755576408e-04 0.0 
-4.894755576408e-04 5.642058910946e-03 0.0 
0.0 0.0 -9.297164513315e-04 
-9.301291339826e-04 -4.570426975750e-04 0.0 
-4.570426975750e-04 5.908844626244e-03 0.0 
0.0 0.0 -9.583747859490e-04 
-9.353789003032e-04 -4.780922276340e-04 0.0 
-4.780922276340e-04 5.711821717037e-03 0.0 
0.0 0.0 -9.210728288235e-04 
-9.984662583326e-04 -4.207024963502e-04 0.0 
-4.207024963502e-04 6.168121907027e-03 0.0 
0.0 0.0 -9.870277070005e-04 
-1.000069004232e-03 -4.285924737525e-04 0.0 
-4.285924737525e-04 5.966651563586e-03 0.0 
0.0 0.0 -9.497007337289e-04 
-9.283284515458e-04 -4.229135290675e-04 0.0 
-4.229135290675e-04 6.110180447664e-03 0.0 
0.0 0.0 -9.956835613869e-04 
-8.527578693464e-04 -4.403303765288e-04 0.0 
-4.403303765288e-04 5.842885643991e-03 0.0 
0.0 0.0 -9.668198671257e-04 
-1.059819806392e-03 -3.815720688592e-04 0.0 
-3.815720688592e-04 6.418981492352e-03 0.0 
0.0 0.0 -1.015681523326e-03 
-1.057949721367e-03 -3.770560260125e-04 0.0 
-3.770560260125e-04 6.213345858748e-03 0.0 
0.0 0.0 -9.783260305704e-04 
-1.113690001508e-03 -3.391138449317e-04 0.0 
-3.391138449317e-04 6.662067817752e-03 0.0 
0.0 0.0 -1.044362401637e-03 
-1.108897527401e-03 -3.261874601882e-04 0.0 
-3.261874601882e-04 6.451449547970e-03 0.0 
0.0 0.0 -1.007007767922e-03 
-1.056102434059e-03 -3.617377197121e-04 0.0 
-3.617377197121e-04 6.006353850389e-03 0.0 
0.0 0.0 -9.408676861799e-04 
-1.103510128039e-03 -3.034940289184e-04 0.0 
-3.034940289184e-04 6.238484304806e-03 0.0 
0.0 0.0 -9.695029660748e-04 
-1.052845247082e-03 -3.373861149014e-04 0.0 
-3.373861149014e-04 5.798954310895e-03 0.0 
0.0 0.0 -9.035672079865e-04 
-4.228503435162e-04 2.652797493901e-05 0.0 
2.652797493901e-05 4.498640496550e-03 0.0 
0.0 0.0 -8.309624794500e-04 
-4.884683166150e-04 1.460460655517e-04 0.0 
1.460460655517e-04 4.796700712876e-03 0.0 
0.0 0.0 -8.675775700443e-04 
-5.309148746778e-04 2.225588307319e-05 0.0 
2.225588307319e-05 5.010085131158e-03 0.0 
0.0 0.0 -8.958500940740e-04 
-5.943549435448e-04 1.251718936452e-04 0.0 
1.251718936452e-04 5.302582402065e-03 0.0 
0.0 0.0 -9.325549191312e-04 
-6.382538609797e-04 2.086054713912e-05 0.0 
2.086054713912e-05 5.516155282354e-03 0.0 
0.0 0.0 -9.609176734917e-04 
-7.011603817707e-04 1.101794033340e-04 0.0 
1.101794033340e-04 5.804703043974e-03 0.0 
0.0 0.0 -9.976363410588e-04 
-7.465959866999e-04 2.216834778625e-05 0.0 
2.216834778625e-05 6.016830116331e-03 0.0 
0.0 0.0 -1.026032504441e-03 
-6.923978724816e-04 -6.826398853254e-05 0.0 
-6.826398853254e-05 5.743653636097e-03 0.0 
0.0 0.0 -9.892761093610e-04 
-1.092308246197e-03 4.087334969491e-04 0.0 
4.087334969491e-04 6.601377400440e-03 0.0 
0.0 0.0 -1.018102500310e-03 
-5.675897396992e-05 3.425637172408e-04 0.0 
3.425637172408e-04 2.708861454988e-03 0.0 
0.0 0.0 -6.095594541484e-04 
-6.420114659775e-05 6.151203334216e-04 0.0 
6.151203334216e-04 2.551183745386e-03 0.0 
0.0 0.0 -5.816898710390e-04 
5.441246620249e-05 4.399473863901e-04 0.0 
4.399473863901e-04 2.161774981432e-03 0.0 
0.0 0.0 -5.454521931755e-04 
2.844502818309e-05 7.644395339616e-04 0.0 
7.644395339616e-04 2.024830997844e-03 0.0 
0.0 0.0 -5.176388733440e-04 
1.652901373793e-04 5.705702379394e-04 0.0 
5.705702379394e-04 1.600345183292e-03 0.0 
0.0 0.0 -4.814163979944e-04 
1.130601457631e-04 9.562292981796e-04 0.0 
9.562292981796e-04 1.494895390825e-03 0.0 
0.0 0.0 -4.537165770244e-04 
2.845119300012e-04 7.483953602617e-04 0.0 
7.483953602617e-04 1.019187802654e-03 0.0 
0.0 0.0 -4.208902240644e-04 
2.929325993539e-04 2.620833489363e-04 0.0 
2.620833489363e-04 1.186149753907e-03 0.0 
0.0 0.0 -4.466351565148e-04 
4.659960569609e-04 3.874152989476e-04 0.0 
3.874152989476e-04 5.352766773023e-04 0.0 
0.0 0.0 -3.736376070058e-04 
4.059265982279e-04 -1.758088808093e-04 0.0 
-1.758088808093e-04 8.092916298160e-04 0.0 
0.0 0.0 -4.168446658567e-04 
5.790431118009e-04 -1.610129805314e-04 0.0 
-1.610129805314e-04 1.533127793959e-04 0.0 
0.0 0.0 -3.063790003961e-04 
4.494391646470e-04 -7.152402717994e-04 0.0 
-7.152402717994e-04 5.082279969168e-04 0.0 
0.0 0.0 -3.640020775467e-04 
-8.080190775198e-04 5.920502661192e-04 0.0 
5.920502661192e-04 5.436356176569e-03 0.0 
0.0 0.0 -8.963565068603e-04 
-6.651558879210e-04 2.088271070434e-04 0.0 
2.088271070434e-04 5.603894024499e-03 0.0 
0.0 0.0 -9.691568884624e-04 
-7.699005087498e-04 1.883379167874e-04 0.0 
1.883379167874e-04 6.102423018858e-03 0.0 
0.0 0.0 -1.034312087004e-03 
-7.384024095732e-04 2.760115291154e-04 0.0 
2.760115291154e-04 5.907746579569e-03 0.0 
0.0 0.0 -1.005320805676e-03 
-5.404221803057e-04 -4.187129725138e-04 0.0 
-4.187129725138e-04 2.110154003912e-03 0.0 
0.0 0.0 -3.475522021424e-04 
-1.152888887005e-03 -2.763407572661e-04 0.0 
-2.763407572661e-04 6.681517292358e-03 0.0 
0.0 0.0 -1.035773625862e-03 
-9.326850124499e-04 -3.805734010338e-04 0.0 
-3.805734010338e-04 6.318938914437e-03 0.0 
0.0 0.0 -1.032922975483e-03 
-8.578946226242e-04 -3.814307824260e-04 0.0 
-3.814307824260e-04 6.050788235921e-03 0.0 
0.0 0.0 -1.003739924893e-03 
-8.007230077279e-04 -5.030783828559e-05 0.0 
-5.030783828559e-05 6.244226135644e-03 0.0 
0.0 0.0 -1.054598834243e-03 
-4.941523760954e-04 -2.470231279283e-04 0.0 
-2.470231279283e-04 2.071816915527e-03 0.0 
0.0 0.0 -3.392587823741e-04 
1.975953042673e-04 1.172543779916e-03 0.0 
1.172543779916e-03 9.666654142640e-04 0.0 
0.0 0.0 -3.922431101850e-04 
5.175793587871e-06 1.277837662737e-03 0.0 
1.277837662737e-03 1.466786264722e-03 0.0 
0.0 0.0 -4.261104576107e-04 
-1.152692083578e-03 2.146597661269e-04 0.0 
2.146597661269e-04 6.983288018661e-03 0.0 
0.0 0.0 -1.048874596840e-03 
-1.125979627456e-03 1.800276227316e-04 0.0 
1.800276227316e-04 6.792196765101e-03 0.0 
0.0 0.0 -1.019458214591e-03 
-9.448287362971e-04 -3.295389867260e-04 0.0 
-3.295389867260e-04 6.536387605041e-03 0.0 
0.0 0.0 -1.070157681403e-03 
-5.240293716215e-04 -2.102668930863e-04 0.0 
-2.102668930863e-04 2.277314558376e-03 0.0 
0.0 0.0 -3.675747464493e-04 
-1.063791247498e-03 -3.742192618344e-04 0.0 
-3.742192618344e-04 6.627422368744e-03 0.0 
0.0 0.0 -1.052997445444e-03 
5.558984473440e-04 4.127353325470e-04 0.0 
4.127353325470e-04 1.463881506699e-05 0.0 
0.0 0.0 -2.445159696047e-04 
-1.144117684349e-03 -2.458346103954e-04 0.0 
-2.458346103954e-04 6.462839923362e-03 0.0 
0.0 0.0 -9.982306137915e-04 
-1.191309827109e-03 -2.266694415371e-04 0.0 
-2.266694415371e-04 6.904200660223e-03 0.0 
0.0 0.0 -1.064501221861e-03 
-9.418341400068e-04 -4.830251057162e-04 0.0 
-4.830251057162e-04 5.517520339527e-03 0.0 
0.0 0.0 -8.838659695519e-04 
-8.408929706273e-04 2.533730996691e-04 0.0 
2.533730996691e-04 6.403362100756e-03 0.0 
0.0 0.0 -1.070909199420e-03 
-8.123210735737e-04 3.267258872306e-04 0.0 
3.267258872306e-04 6.208133296915e-03 0.0 
0.0 0.0 -1.041442769611e-03 
2.640974401389e-04 -6.120925406395e-04 0.0 
-6.120925406395e-04 1.170954425306e-03 0.0 
0.0 0.0 -4.384799197683e-04 
2.270076462303e-04 -1.094827319140e-03 0.0 
-1.094827319140e-03 9.810701092341e-04 0.0 
0.0 0.0 -4.046094527367e-04 
3.640551099348e-04 -1.155184556941e-03 0.0 
-1.155184556941e-03 4.131638396833e-04 0.0 
0.0 0.0 -3.139947606995e-04 
1.171979887630e-04 -1.455005939438e-03 0.0 
-1.455005939438e-03 9.453620887615e-04 0.0 
0.0 0.0 -3.763072820036e-04 
2.556371078842e-05 -1.262704422364e-03 0.0 
-1.262704422364e-03 1.454464914390e-03 0.0 
0.0 0.0 -4.289053338950e-04 
-8.947678599683e-05 -1.490768828574e-03 0.0 
-1.490768828574e-03 1.396555812330e-03 0.0 
0.0 0.0 -3.979758726750e-04 
2.329510608105e-05 -1.514078363831e-03 0.0 
-1.514078363831e-03 9.452166061342e-04 0.0 
0.0 0.0 -3.667276109228e-04 
-2.100553572376e-04 -1.558593298157e-03 0.0 
-1.558593298157e-03 1.402552177449e-03 0.0 
0.0 0.0 -3.771854463149e-04 
-2.665534885264e-04 -1.440543195804e-03 0.0 
-1.440543195804e-03 1.828480576306e-03 0.0 
0.0 0.0 -4.192720002935e-04 
-3.858828221178e-04 -1.432331817451e-03 0.0 
-1.432331817451e-03 1.803183213938e-03 0.0 
0.0 0.0 -3.853829593207e-04 
-2.961455271275e-04 -1.398427341996e-03 0.0 
-1.398427341996e-03 1.416563920223e-03 0.0 
0.0 0.0 -3.646163496721e-04 
-4.654616132702e-04 -1.259328861233e-03 0.0 
-1.259328861233e-03 1.764244007017e-03 0.0 
0.0 0.0 -3.558200702016e-04 
-1.201889062818e-03 -2.543911578407e-04 0.0 
-2.543911578407e-04 7.124942193322e-03 0.0 
0.0 0.0 -1.101875158976e-03 
5.412904168970e-04 -8.385322248721e-05 0.0 
-8.385322248721e-05 -1.404456435363e-04 0.0 
0.0 0.0 -1.717906171546e-04 
-9.463800631761e-04 3.860027273263e-04 0.0 
3.860027273263e-04 5.343793686453e-03 0.0 
0.0 0.0 -8.288706041983e-04 
-1.014362980206e-03 -3.321555799501e-04 0.0 
-3.321555799501e-04 6.794335154877e-03 0.0 
0.0 0.0 -1.099012274073e-03 
-8.569045148225e-04 3.078985663283e-05 0.0 
3.078985663283e-05 6.510332221214e-03 0.0 
0.0 0.0 -1.090660416876e-03 
-1.178566600954e-03 2.066846340334e-04 0.0 
2.066846340334e-04 7.236502688045e-03 0.0 
0.0 0.0 -1.085032576515e-03 
-1.153658343620e-03 1.755152393049e-04 0.0 
1.755152393049e-04 7.044914703598e-03 0.0 
0.0 0.0 -1.055603631703e-03 
-1.098678134952e-03 1.564744163133e-04 0.0 
1.564744163133e-04 6.595940529562e-03 0.0 
0.0 0.0 -9.897378988699e-04 
-1.129113373444e-03 1.503482155027e-04 0.0 
1.503482155027e-04 6.853244331223e-03 0.0 
0.0 0.0 -1.026001677571e-03 
-1.181824965340e-03 1.678156779438e-04 0.0 
1.678156779438e-04 7.301020112961e-03 0.0 
0.0 0.0 -1.091942449670e-03 
-1.157557793781e-03 1.434383666525e-04 0.0 
1.434383666525e-04 7.107529686986e-03 0.0 
0.0 0.0 -1.062342898562e-03 
-1.103342207633e-03 1.238709536611e-04 0.0 
1.238709536611e-04 6.657901312686e-03 0.0 
0.0 0.0 -9.962627399151e-04 
-1.130139591936e-03 1.194308116232e-04 0.0 
1.194308116232e-04 6.908298246914e-03 0.0 
0.0 0.0 -1.032646955902e-03 
-1.072650473166e-03 9.941159075289e-05 0.0 
9.941159075289e-05 6.455574140328e-03 0.0 
0.0 0.0 -9.664557332607e-04 
-1.101356119743e-03 9.815565709695e-05 0.0 
9.815565709695e-05 6.706288769856e-03 0.0 
0.0 0.0 -1.002889032254e-03 
-1.155889062888e-03 1.141636426079e-04 0.0 
1.141636426079e-04 7.157664523701e-03 0.0 
0.0 0.0 -1.069134413525e-03 
-1.129364737971e-03 9.069177524751e-05 0.0 
9.069177524751e-05 6.958007176896e-03 0.0 
0.0 0.0 -1.039387411609e-03 
-1.074512864600e-03 8.003659807365e-05 0.0 
8.003659807365e-05 6.506063569350e-03 0.0 
0.0 0.0 -9.730575354659e-04 
-1.102505706781e-03 6.895302199807e-05 0.0 
6.895302199807e-05 6.755927681467e-03 0.0 
0.0 0.0 -1.009574527126e-03 
-1.046730538131e-03 5.947738879001e-05 0.0 
5.947738879001e-05 6.301429284161e-03 0.0 
0.0 0.0 -9.431603702596e-04 
-1.071542509842e-03 4.629020306893e-05 0.0 
4.629020306893e-05 6.545497453892e-03 0.0 
0.0 0.0 -9.796061197752e-04 
-1.128792209327e-03 6.597728227981e-05 0.0 
6.597728227981e-05 7.006220652052e-03 0.0 
0.0 0.0 -1.046101832713e-03 
-4.073418969283e-04 -1.607374412238e-04 0.0 
-1.607374412238e-04 1.828608037656e-03 0.0 
0.0 0.0 -3.035957800550e-04 
-7.554826328512e-04 -1.381735686785e-04 0.0 
-1.381735686785e-04 5.982792301535e-03 0.0 
0.0 0.0 -1.017732614895e-03 
-8.650297313857e-04 -1.043541426240e-04 0.0 
-1.043541426240e-04 6.483758424389e-03 0.0 
0.0 0.0 -1.083831836677e-03 
-7.928232165852e-04 -3.175969841458e-04 0.0 
-3.175969841458e-04 3.652484692606e-03 0.0 
0.0 0.0 -5.671321338944e-04 
-8.566347672055e-04 -3.217821912401e-04 0.0 
-3.217821912401e-04 4.048954472777e-03 0.0 
0.0 0.0 -6.325382687906e-04 
-8.804918361104e-04 -3.627202257711e-04 0.0 
-3.627202257711e-04 4.282181100263e-03 0.0 
0.0 0.0 -6.695659616924e-04 
-9.177573047803e-04 -2.924538415403e-04 0.0 
-2.924538415403e-04 4.507721826303e-03 0.0 
0.0 0.0 -6.986863204145e-04 
-1.099135465243e-03 4.357947276918e-05 0.0 
4.357947276918e-05 6.797671672464e-03 0.0 
0.0 0.0 -1.015477767897e-03 
-1.160436245727e-03 6.544078644588e-05 0.0 
6.544078644588e-05 7.256684604588e-03 0.0 
0.0 0.0 -1.082739357160e-03 
7.036319334209e-05 1.449833710054e-03 0.0 
1.449833710054e-03 1.011168072104e-03 0.0 
0.0 0.0 -3.730214571323e-04 
-1.313033917885e-04 1.466714958247e-03 0.0 
1.466714958247e-03 1.502828426790e-03 0.0 
0.0 0.0 -4.032920832132e-04 
-1.202425520628e-03 2.413601229435e-04 0.0 
2.413601229435e-04 7.423802842249e-03 0.0 
0.0 0.0 -1.114382729655e-03 
-1.180850422310e-03 -1.936004808914e-04 0.0 
-1.936004808914e-04 6.684429122052e-03 0.0 
0.0 0.0 -1.027045364000e-03 
-1.134320678585e-03 -2.084199271041e-04 0.0 
-2.084199271041e-04 6.243084428302e-03 0.0 
0.0 0.0 -9.609938998495e-04 
-5.952582294012e-04 8.316068584819e-04 0.0 
8.316068584819e-04 3.858437738170e-03 0.0 
0.0 0.0 -6.721935305596e-04 
-6.370100935664e-04 8.121723615139e-04 0.0 
8.121723615139e-04 3.769953827514e-03 0.0 
0.0 0.0 -6.449639573754e-04 
-5.665659749616e-04 8.991854182347e-04 0.0 
8.991854182347e-04 3.453268816289e-03 0.0 
0.0 0.0 -6.093131083769e-04 
-6.122481697245e-04 8.584550154617e-04 0.0 
8.584550154617e-04 3.367517643807e-03 0.0 
0.0 0.0 -5.812298138028e-04 
-6.717347223774e-04 7.671538527367e-04 0.0 
7.671538527367e-04 3.680324616707e-03 0.0 
0.0 0.0 -6.173664885638e-04 
-5.474862438506e-04 9.567364556164e-04 0.0 
9.567364556164e-04 3.048590303343e-03 0.0 
0.0 0.0 -5.448148816535e-04 
-7.720267330795e-04 -4.449545656596e-04 0.0 
-4.449545656596e-04 5.565922562376e-03 0.0 
0.0 0.0 -9.373051277721e-04 
-1.182206612194e-03 1.041005248131e-04 0.0 
1.041005248131e-04 7.409010778114e-03 0.0 
0.0 0.0 -1.105708206284e-03 
-5.928875136439e-04 -5.713513742364e-04 0.0 
-5.713513742364e-04 2.330327898660e-03 0.0 
0.0 0.0 -3.852871208612e-04 
-5.197872744909e-04 -4.881912543796e-04 0.0 
-4.881912543796e-04 1.906337896852e-03 0.0 
0.0 0.0 -3.193625892355e-04 
-1.227873719132e-03 -1.791865956722e-04 0.0 
-1.791865956722e-04 7.126040838435e-03 0.0 
0.0 0.0 -1.093300181677e-03 
-6.499802166189e-04 -1.689058959396e-04 0.0 
-1.689058959396e-04 5.481207367019e-03 0.0 
0.0 0.0 -9.522822042369e-04 
-8.770180670307e-04 5.584319225786e-04 0.0 
5.584319225786e-04 5.741150606381e-03 0.0 
0.0 0.0 -9.319735432435e-04 
-8.671724403427e-04 5.454834419887e-04 0.0 
5.454834419887e-04 5.872286509418e-03 0.0 
0.0 0.0 -9.598347391831e-04 
-9.359860302395e-04 5.226295226197e-04 0.0 
5.226295226197e-04 6.177406845640e-03 0.0 
0.0 0.0 -9.957130113267e-04 
-9.320971335610e-04 5.080083978468e-04 0.0 
5.080083978468e-04 6.315456934145e-03 0.0 
0.0 0.0 -1.023751803962e-03 
-1.000869956237e-03 4.939881751637e-04 0.0 
4.939881751637e-04 6.620841154437e-03 0.0 
0.0 0.0 -1.059873349132e-03 
-1.004419613008e-03 4.777529205192e-04 0.0 
4.777529205192e-04 6.763876066662e-03 0.0 
0.0 0.0 -1.087854580038e-03 
-9.336137141730e-04 4.809338762962e-04 0.0 
4.809338762962e-04 6.463526298401e-03 0.0 
0.0 0.0 -1.051791170495e-03 
-9.097029887622e-04 3.089094526998e-04 0.0 
3.089094526998e-04 6.700162919637e-03 0.0 
0.0 0.0 -1.107463318235e-03 
-1.013980886497e-03 4.491053628713e-04 0.0 
4.491053628713e-04 6.922381498406e-03 0.0 
0.0 0.0 -1.115916943430e-03 
-1.033295848304e-03 4.860531472176e-05 0.0 
4.860531472176e-05 6.321432505072e-03 0.0 
0.0 0.0 -9.487150400336e-04 
-6.387227248277e-04 3.148916192941e-04 0.0 
3.148916192941e-04 5.411845409225e-03 0.0 
0.0 0.0 -9.398448712237e-04 
-3.958753706079e-04 -1.306941406373e-03 0.0 
-1.306941406373e-03 2.210168825673e-03 0.0 
0.0 0.0 -4.474652294669e-04 
-3.867396229061e-04 -1.939364425131e-04 0.0 
-1.939364425131e-04 1.612473113241e-03 0.0 
0.0 0.0 -2.752498982733e-04 
-3.548792531294e-04 -1.099906862766e-03 0.0 
-1.099906862766e-03 1.383653509656e-03 0.0 
0.0 0.0 -3.352047878591e-04 
-4.486846026636e-04 -1.253624941077e-04 0.0 
-1.253624941077e-04 2.009661496099e-03 0.0 
0.0 0.0 -3.299748606085e-04 
-5.597023421830e-04 -1.650736869684e-04 0.0 
-1.650736869684e-04 2.479203026553e-03 0.0 
0.0 0.0 -3.961554456411e-04 
-1.033444219732e-03 -2.887128519644e-04 0.0 
-2.887128519644e-04 7.020027445513e-03 0.0 
0.0 0.0 -1.136360603439e-03 
-1.072616243485e-03 4.757105308921e-04 0.0 
4.757105308921e-04 7.071175993343e-03 0.0 
0.0 0.0 -1.124065295910e-03 
-1.065195527322e-03 4.849349100928e-04 0.0 
4.849349100928e-04 6.917548798149e-03 0.0 
0.0 0.0 -1.095615423988e-03 
-6.465811726499e-04 7.943118945265e-04 0.0 
7.943118945265e-04 3.291375737462e-03 0.0 
0.0 0.0 -5.539799138139e-04 
-6.949762395585e-04 6.852387151617e-04 0.0 
6.852387151617e-04 3.583300335040e-03 0.0 
0.0 0.0 -5.905304635153e-04 
-9.409548518096e-04 2.363101942403e-04 0.0 
2.363101942403e-04 6.893498553700e-03 0.0 
0.0 0.0 -1.136278651916e-03 
-1.031330535355e-03 1.691125997159e-04 0.0 
1.691125997159e-04 6.096244556870e-03 0.0 
0.0 0.0 -9.177848451843e-04 
-1.043451867895e-03 1.026605375003e-04 0.0 
1.026605375003e-04 6.207052540714e-03 0.0 
0.0 0.0 -9.302130594432e-04 
-1.010991519056e-03 8.266817185374e-05 0.0 
8.266817185374e-05 5.998028369178e-03 0.0 
0.0 0.0 -9.001900590098e-04 
-3.040782914078e-04 -1.048978576797e-04 0.0 
-1.048978576797e-04 1.479833111238e-03 0.0 
0.0 0.0 -2.595221258752e-04 
-1.668157979825e-04 -1.176981615551e-03 0.0 
-1.176981615551e-03 1.066881825257e-03 0.0 
0.0 0.0 -3.546314877250e-04 
-1.207894844135e-03 1.612820959581e-04 0.0 
1.612820959581e-04 7.555800088084e-03 0.0 
0.0 0.0 -1.128363834889e-03 
-1.496144498695e-04 1.267178183608e-03 0.0 
1.267178183608e-03 1.924933515505e-03 0.0 
0.0 0.0 -4.615872697407e-04 
-2.777481430259e-04 1.364720531140e-03 0.0 
1.364720531140e-03 1.941765323137e-03 0.0 
0.0 0.0 -4.342639779644e-04 
4.034334735409e-04 2.445431345025e-04 0.0 
2.445431345025e-04 -9.041096436294e-05 0.0 
0.0 0.0 -1.341525039334e-04 
2.051377463425e-04 -1.961701048020e-05 0.0 
-1.961701048020e-05 -5.720414671563e-05 0.0 
0.0 0.0 -6.340011412580e-05 
-1.121483383227e-03 6.295637452115e-05 0.0 
6.295637452115e-05 7.029111019756e-03 0.0 
0.0 0.0 -1.051814883004e-03 
-1.177494848702e-03 6.582362175726e-05 0.0 
6.582362175726e-05 7.492557943411e-03 0.0 
0.0 0.0 -1.117859435171e-03 
-9.333898311745e-04 -3.509792996749e-04 0.0 
-3.509792996749e-04 4.719089492349e-03 0.0 
0.0 0.0 -7.356929296387e-04 
-9.785857666390e-04 -2.860980495383e-04 0.0 
-2.860980495383e-04 4.943354100410e-03 0.0 
0.0 0.0 -7.648299719236e-04 
-9.654424262213e-04 -2.714537898239e-04 0.0 
-2.714537898239e-04 6.765873836397e-03 0.0 
0.0 0.0 -1.107558395918e-03 
-5.027897087658e-04 -9.882385644824e-04 0.0 
-9.882385644824e-04 1.682465534830e-03 0.0 
0.0 0.0 -3.185922720913e-04 
-1.207361177183e-03 7.219593573452e-05 0.0 
7.219593573452e-05 7.710745314262e-03 0.0 
0.0 0.0 -1.149181664990e-03 
-7.221207359935e-04 -2.319743394949e-04 0.0 
-2.319743394949e-04 5.736084564024e-03 0.0 
0.0 0.0 -9.807908033776e-04 
-6.199444920269e-04 -2.803458900383e-04 0.0 
-2.803458900383e-04 5.234294253432e-03 0.0 
0.0 0.0 -9.152404036620e-04 
-8.850179884087e-04 -2.107315013722e-04 0.0 
-2.107315013722e-04 4.277220058387e-03 0.0 
0.0 0.0 -6.604623333687e-04 
-7.131176054971e-05 1.522786260440e-03 0.0 
1.522786260440e-03 1.128166094303e-03 0.0 
0.0 0.0 -3.722456989795e-04 
1.506124378874e-04 1.353289082485e-03 0.0 
1.353289082485e-03 6.471948717885e-04 0.0 
0.0 0.0 -3.185609919049e-04 
-2.939037762269e-04 -1.257650241065e-03 0.0 
-1.257650241065e-03 2.275247472139e-03 0.0 
0.0 0.0 -4.845585894574e-04 
-5.488065046231e-04 -1.067445958774e-03 0.0 
-1.067445958774e-03 2.060865836395e-03 0.0 
0.0 0.0 -3.723415964733e-04 
-4.888098213751e-04 -1.052003350203e-04 0.0 
-1.052003350203e-04 2.216308377581e-03 0.0 
0.0 0.0 -3.583452993329e-04 
-1.062272686561e-03 -2.298804836140e-04 0.0 
-2.298804836140e-04 7.251651551201e-03 0.0 
0.0 0.0 -1.173829981771e-03 
-1.227876715994e-03 1.893009349700e-04 0.0 
1.893009349700e-04 7.743204952100e-03 0.0 
0.0 0.0 -1.157575248917e-03 
-9.423902529627e-04 4.304393189543e-04 0.0 
4.304393189543e-04 6.620906454591e-03 0.0 
0.0 0.0 -1.080172819833e-03 
-8.612685947681e-04 4.776509476654e-04 0.0 
4.776509476654e-04 6.154589150170e-03 0.0 
0.0 0.0 -1.015677837919e-03 
-1.022115058251e-03 4.070298504517e-04 0.0 
4.070298504517e-04 7.083428986968e-03 0.0 
0.0 0.0 -1.144955025780e-03 
-3.834899570330e-04 -7.958142673473e-04 0.0 
-7.958142673473e-04 1.299084562353e-03 0.0 
0.0 0.0 -2.798534577099e-04 
-1.102214544351e-03 -3.027150081502e-04 0.0 
-3.027150081502e-04 7.282068807861e-03 0.0 
0.0 0.0 -1.165794428787e-03 
-1.216895343866e-03 -1.441675384032e-04 0.0 
-1.441675384032e-04 6.902897395280e-03 0.0 
0.0 0.0 -1.056136825731e-03 
-1.138941837453e-03 4.914289706325e-04 0.0 
4.914289706325e-04 7.351648623001e-03 0.0 
0.0 0.0 -1.157598467365e-03 
-1.123764904198e-03 4.819548128218e-04 0.0 
4.819548128218e-04 7.209866110785e-03 0.0 
0.0 0.0 -1.131219827106e-03 
-2.809946016527e-04 1.203335788346e-03 0.0 
1.203335788346e-03 2.340542833527e-03 0.0 
0.0 0.0 -4.968499830348e-04 
-3.877477755505e-04 1.221962387701e-03 0.0 
1.221962387701e-03 2.338693931197e-03 0.0 
0.0 0.0 -4.705806478706e-04 
-4.036150361409e-04 1.336476693924e-03 0.0 
1.336476693924e-03 1.977592500610e-03 0.0 
0.0 0.0 -4.078257031896e-04 
-4.816859073884e-04 1.176560530353e-03 0.0 
1.176560530353e-03 2.343460801890e-03 0.0 
0.0 0.0 -4.438024830152e-04 
-9.732353814622e-04 3.041939387352e-04 0.0 
3.041939387352e-04 5.448266059909e-03 0.0 
0.0 0.0 -8.361670615232e-04 
-3.925437291381e-04 1.104523798212e-03 0.0 
1.104523798212e-03 2.729748532404e-03 0.0 
0.0 0.0 -5.333915535664e-04 
-9.057439282626e-04 4.261225243385e-04 0.0 
4.261225243385e-04 5.077306138642e-03 0.0 
0.0 0.0 -7.939299641313e-04 
-8.975208378586e-04 3.720025570421e-04 0.0 
3.720025570421e-04 4.930717473606e-03 0.0 
0.0 0.0 -7.665196690739e-04 
-8.600171473097e-04 4.161603871668e-04 0.0 
4.161603871668e-04 4.671461707836e-03 0.0 
0.0 0.0 -7.319524942586e-04 
-7.253516315596e-04 6.727829162625e-04 0.0 
6.727829162625e-04 3.972513731187e-03 0.0 
0.0 0.0 -6.527873785750e-04 
-7.385699352999e-04 5.948696391935e-04 0.0 
5.948696391935e-04 3.862508165088e-03 0.0 
0.0 0.0 -6.261871041946e-04 
-1.081656769382e-04 8.687696267767e-04 0.0 
8.687696267767e-04 2.439613486548e-03 0.0 
0.0 0.0 -5.534964465553e-04 
-4.602867709727e-04 2.826245204948e-04 0.0 
2.826245204948e-04 4.601098480980e-03 0.0 
0.0 0.0 -8.390310526140e-04 
-8.925257354332e-04 -4.271097572203e-04 0.0 
-4.271097572203e-04 4.492522403458e-03 0.0 
0.0 0.0 -7.069621042110e-04 
-1.002856146604e-03 -4.033307783673e-04 0.0 
-4.033307783673e-04 5.565178736137e-03 0.0 
0.0 0.0 -8.751042800696e-04 
-7.003078251289e-04 -5.958729416123e-04 0.0 
-5.958729416123e-04 4.895224615458e-03 0.0 
0.0 0.0 -8.350146568664e-04 
-1.207341521713e-03 1.295685592876e-04 0.0 
1.295685592876e-04 7.603516284320e-03 0.0 
0.0 0.0 -1.135109731873e-03 
-1.234147304705e-03 1.158810138817e-04 0.0 
1.158810138817e-04 7.860000857238e-03 0.0 
0.0 0.0 -1.171938512032e-03 
-1.015895156183e-03 6.930194114772e-05 0.0 
6.930194114772e-05 6.052013455342e-03 0.0 
0.0 0.0 -9.065739516476e-04 
-9.767996699331e-04 4.467953763507e-05 0.0 
4.467953763507e-05 5.838511550894e-03 0.0 
0.0 0.0 -8.764137937918e-04 
-4.392150575772e-04 -3.259674398810e-04 0.0 
-3.259674398810e-04 1.665337581441e-03 0.0 
0.0 0.0 -2.813159824896e-04 
-4.247097810398e-04 -3.644747280315e-04 0.0 
-3.644747280315e-04 1.471773465299e-03 0.0 
0.0 0.0 -2.533966087790e-04 
-8.177306416292e-04 -6.121829702514e-04 0.0 
-6.121829702514e-04 4.811548278672e-03 0.0 
0.0 0.0 -7.894497706086e-04 
-1.082360538362e-03 -3.264662476232e-04 0.0 
-3.264662476232e-04 7.048376439915e-03 0.0 
0.0 0.0 -1.127529358476e-03 
-1.227748397910e-03 2.361030321983e-04 0.0 
2.361030321983e-04 7.672982991330e-03 0.0 
0.0 0.0 -1.150095860580e-03 
-1.249888144017e-03 2.671434152154e-04 0.0 
2.671434152154e-04 7.859407510661e-03 0.0 
0.0 0.0 -1.179372829571e-03 
-1.222973776595e-03 2.761414432265e-04 0.0 
2.761414432265e-04 7.603174812567e-03 0.0 
0.0 0.0 -1.143369325255e-03 
-9.935045909858e-04 -2.028359368237e-04 0.0 
-2.028359368237e-04 6.995967624477e-03 0.0 
0.0 0.0 -1.144273392007e-03 
3.495269992969e-05 1.197649878409e-04 0.0 
1.197649878409e-04 2.359795329880e-03 0.0 
0.0 0.0 -5.733740095480e-04 
-4.781962153862e-04 -1.012252719499e-04 0.0 
-1.012252719499e-04 4.730438814657e-03 0.0 
0.0 0.0 -8.590966742019e-04 
3.810975112987e-04 -3.002206319640e-04 0.0 
-3.002206319640e-04 -7.297745490903e-05 0.0 
0.0 0.0 -1.320514527384e-04 
-7.161621287090e-04 5.841402981115e-04 0.0 
5.841402981115e-04 5.248781673340e-03 0.0 
0.0 0.0 -8.884627649733e-04 
-3.115080858313e-04 -2.227975807547e-04 0.0 
-2.227975807547e-04 1.202076532669e-03 0.0 
0.0 0.0 -2.162536877156e-04 
-1.055053453560e-03 4.626735760724e-04 0.0 
4.626735760724e-04 6.476326574185e-03 0.0 
0.0 0.0 -1.010319580236e-03 
-1.255576380871e-03 -1.315357551102e-04 0.0 
-1.315357551102e-04 7.338059588025e-03 0.0 
0.0 0.0 -1.122815839103e-03 
-1.267850494462e-03 -1.674624135979e-04 0.0 
-1.674624135979e-04 7.563446267715e-03 0.0 
0.0 0.0 -1.159213750608e-03 
-1.010702044889e-03 2.850279828007e-04 0.0 
2.850279828007e-04 7.183997457293e-03 0.0 
0.0 0.0 -1.171959308352e-03 
-8.963384137737e-04 2.488891316052e-04 0.0 
2.488891316052e-04 4.875662042004e-03 0.0 
0.0 0.0 -7.470952864203e-04 
-7.058007902936e-04 5.271243929450e-04 0.0 
5.271243929450e-04 5.385179954600e-03 0.0 
0.0 0.0 -9.162722660995e-04 
-6.228080214073e-04 5.120192170004e-04 0.0 
5.120192170004e-04 5.067178617559e-03 0.0 
0.0 0.0 -8.808726170640e-04 
-8.477370711112e-04 3.577431200157e-04 0.0 
3.577431200157e-04 4.525141676784e-03 0.0 
0.0 0.0 -7.048691535495e-04 
-8.132640120407e-04 4.004719993994e-04 0.0 
4.004719993994e-04 4.272493314920e-03 0.0 
0.0 0.0 -6.707530558731e-04 
-8.209482996094e-04 4.682329320479e-04 0.0 
4.682329320479e-04 4.408754927634e-03 0.0 
0.0 0.0 -6.972958566626e-04 
-7.782280701881e-04 4.523325447572e-04 0.0 
4.523325447572e-04 4.016412533301e-03 0.0 
0.0 0.0 -6.359606378414e-04 
-4.177281549139e-04 -1.168672558867e-03 0.0 
-1.168672558867e-03 2.631942087578e-03 0.0 
0.0 0.0 -5.122594947013e-04 
-4.962383683680e-04 -1.157174554661e-03 0.0 
-1.157174554661e-03 2.541178569243e-03 0.0 
0.0 0.0 -4.750188804659e-04 
-1.154021499096e-03 4.782775772644e-04 0.0 
4.782775772644e-04 7.573815285751e-03 0.0 
0.0 0.0 -1.192042136895e-03 
-1.094464537807e-03 4.618413052259e-04 0.0 
4.618413052259e-04 7.386095086857e-03 0.0 
0.0 0.0 -1.178660172201e-03 
-1.187593002781e-03 4.811019602591e-04 0.0 
4.811019602591e-04 7.655964388501e-03 0.0 
0.0 0.0 -1.193029175878e-03 
-1.163263876641e-03 4.785864187479e-04 0.0 
4.785864187479e-04 7.511604884733e-03 0.0 
0.0 0.0 -1.168165168231e-03 
-1.037083014282e-03 2.184072236099e-04 0.0 
2.184072236099e-04 7.374910845912e-03 0.0 
0.0 0.0 -1.200910491468e-03 
-9.753553652922e-04 1.640389574658e-04 0.0 
1.640389574658e-04 7.090218753853e-03 0.0 
0.0 0.0 -1.164168769488e-03 
-6.028560444752e-04 -1.360178339637e-04 0.0 
-1.360178339637e-04 2.675687027615e-03 0.0 
0.0 0.0 -4.227350873389e-04 
-7.047203305141e-04 5.847954661015e-04 0.0 
5.847954661015e-04 3.476801185836e-03 0.0 
0.0 0.0 -5.646260317871e-04 
-1.245127779796e-03 1.777850177793e-04 0.0 
1.777850177793e-04 7.993741479566e-03 0.0 
0.0 0.0 -1.194151889699e-03 
-8.817872830960e-04 3.208786017712e-04 0.0 
3.208786017712e-04 4.774377627364e-03 0.0 
0.0 0.0 -7.390869131010e-04 
-1.164936831278e-03 -3.113795227657e-04 0.0 
-3.113795227657e-04 7.515893028419e-03 0.0 
0.0 0.0 -1.192835421428e-03 
-1.142129895980e-03 -3.204237901470e-04 0.0 
-3.204237901470e-04 7.305220282504e-03 0.0 
0.0 0.0 -1.156047193884e-03 
8.143997684988e-05 -5.632529459351e-05 0.0 
-5.632529459351e-05 -1.764449114255e-05 0.0 
0.0 0.0 -2.734092244600e-05 
2.721987346519e-04 -4.520014711284e-04 0.0 
-4.520014711284e-04 1.905810524669e-05 0.0 
0.0 0.0 -1.248243599565e-04 
-1.231567197499e-03 6.211834964842e-05 0.0 
6.211834964842e-05 7.963702026826e-03 0.0 
0.0 0.0 -1.184588873336e-03 
-5.000595373901e-04 1.204680535621e-03 0.0 
1.204680535621e-03 1.991465428866e-03 0.0 
0.0 0.0 -3.811925308841e-04 
-5.489936022904e-04 1.042785009975e-03 0.0 
1.042785009975e-03 2.300834123338e-03 0.0 
0.0 0.0 -4.158690271831e-04 
-3.842703009259e-04 1.346678098862e-03 0.0 
1.346678098862e-03 1.633275420512e-03 0.0 
0.0 0.0 -3.660215567096e-04 
-1.330527207980e-03 -3.853221662851e-05 0.0 
-3.853221662851e-05 8.239463133450e-03 0.0 
0.0 0.0 -1.258310293365e-03 
-8.465756460554e-04 5.727197951410e-07 0.0 
5.727197951410e-07 4.947192301730e-03 0.0 
0.0 0.0 -7.479256703001e-04 
-1.285435156603e-03 -1.236167483815e-04 0.0 
-1.236167483815e-04 7.770617594905e-03 0.0 
0.0 0.0 -1.189418985649e-03 
-7.744068399611e-04 5.950771192320e-04 0.0 
5.950771192320e-04 4.259141188703e-03 0.0 
0.0 0.0 -6.884682336192e-04 
-1.252365039908e-03 8.497968466371e-05 0.0 
8.497968466371e-05 8.173452803744e-03 0.0 
0.0 0.0 -1.216510697198e-03 
-7.049683277386e-04 4.524468991294e-04 0.0 
4.524468991294e-04 5.539667182357e-03 0.0 
0.0 0.0 -9.449116413281e-04 
-5.109301527551e-04 9.153066593930e-04 0.0 
9.153066593930e-04 3.518995939107e-03 0.0 
0.0 0.0 -6.353966017694e-04 
-8.973844045661e-04 -2.448816665564e-04 0.0 
-2.448816665564e-04 6.506541659943e-03 0.0 
0.0 0.0 -1.078177493492e-03 
-1.200545941931e-03 2.302554044874e-05 0.0 
2.302554044874e-05 7.723131628604e-03 0.0 
0.0 0.0 -1.149140729088e-03 
-1.267685038875e-03 6.016813044477e-05 0.0 
6.016813044477e-05 8.228074956414e-03 0.0 
0.0 0.0 -1.221625961084e-03 
-9.734656256454e-04 9.189307336811e-05 0.0 
9.189307336811e-05 5.749626761027e-03 0.0 
0.0 0.0 -8.638707813346e-04 
-9.480895872449e-04 4.301450456172e-05 0.0 
4.301450456172e-05 5.516146053233e-03 0.0 
0.0 0.0 -8.327709333130e-04 
-1.011335939965e-03 1.092245285963e-04 0.0 
1.092245285963e-04 5.940162525294e-03 0.0 
0.0 0.0 -8.925140200429e-04 
4.463857562194e-04 7.689358174209e-04 0.0 
7.689358174209e-04 8.096987600889e-05 0.0 
0.0 0.0 -2.260095566693e-04 
2.840813490605e-04 4.390350068277e-04 0.0 
4.390350068277e-04 7.817808705327e-06 0.0 
0.0 0.0 -1.250996390425e-04 
-1.210084270230e-03 9.714327804011e-05 0.0 
9.714327804011e-05 7.658599637129e-03 0.0 
0.0 0.0 -1.142090266074e-03 
-7.141279186037e-04 -2.802255352289e-04 0.0 
-2.802255352289e-04 3.181146952729e-03 0.0 
0.0 0.0 -5.006138788623e-04 
-7.694336124780e-04 -2.009358515531e-04 0.0 
-2.009358515531e-04 3.447879024720e-03 0.0 
0.0 0.0 -5.359218444892e-04 
-5.552155606093e-04 -8.313172136283e-04 0.0 
-8.313172136283e-04 1.917610481523e-03 0.0 
0.0 0.0 -3.334096804080e-04 
-5.855222745600e-04 -8.890134040167e-04 0.0 
-8.890134040167e-04 2.304658271308e-03 0.0 
0.0 0.0 -3.985542937016e-04 
-9.453814008689e-04 -4.031453143009e-04 0.0 
-4.031453143009e-04 4.927324523234e-03 0.0 
0.0 0.0 -7.728092966600e-04 
-8.970888917955e-04 -4.820738487373e-04 0.0 
-4.820738487373e-04 4.692923205728e-03 0.0 
0.0 0.0 -7.441750962829e-04 
-1.057585005233e-03 4.777756013197e-04 0.0 
4.777756013197e-04 6.625238408207e-03 0.0 
0.0 0.0 -1.038692069610e-03 
-1.108626014693e-03 4.632490588969e-04 0.0 
4.632490588969e-04 6.908491944325e-03 0.0 
0.0 0.0 -1.074129358999e-03 
-9.418242035971e-04 5.272068290834e-04 0.0 
5.272068290834e-04 6.041038675917e-03 0.0 
0.0 0.0 -9.675620497173e-04 
-6.990392591995e-04 -3.338931181341e-04 0.0 
-3.338931181341e-04 5.500989544803e-03 0.0 
0.0 0.0 -9.439558448496e-04 
-6.028432506679e-04 -3.974427061355e-04 0.0 
-3.974427061355e-04 5.004524485729e-03 0.0 
0.0 0.0 -8.783802297791e-04 
-5.183067816985e-04 -3.360734288677e-04 0.0 
-3.360734288677e-04 4.731806317453e-03 0.0 
0.0 0.0 -8.502765121185e-04 
-1.259796436841e-03 1.397569485309e-04 0.0 
1.397569485309e-04 8.039016122005e-03 0.0 
0.0 0.0 -1.199867006878e-03 
-1.287397602500e-03 1.387283529904e-04 0.0 
1.387283529904e-04 8.359284824254e-03 0.0 
0.0 0.0 -1.242728214876e-03 
-3.379919536494e-04 -1.097545305898e-03 0.0 
-1.097545305898e-03 2.729711593676e-03 0.0 
0.0 0.0 -5.488632449009e-04 
-2.035001513821e-04 -1.112025139158e-03 0.0 
-1.112025139158e-03 2.365560687545e-03 0.0 
0.0 0.0 -5.212126360957e-04 
-5.194133645792e-04 -1.055659007126e-03 0.0 
-1.055659007126e-03 2.949517889644e-03 0.0 
0.0 0.0 -5.390128571062e-04 
-1.267707936259e-03 2.118212896833e-04 0.0 
2.118212896833e-04 8.185373915988e-03 0.0 
0.0 0.0 -1.223056365294e-03 
-1.302765377273e-03 -1.484462634259e-04 0.0 
-1.484462634259e-04 8.004925592989e-03 0.0 
0.0 0.0 -1.224004481682e-03 
-1.287300987604e-03 -2.136982349667e-04 0.0 
-2.136982349667e-04 7.780826338296e-03 0.0 
0.0 0.0 -1.195820777905e-03 
-2.832529258607e-04 -2.494591043419e-04 0.0 
-2.494591043419e-04 1.024201089409e-03 0.0 
0.0 0.0 -1.882176919714e-04 
-3.969707252897e-04 -4.311951738694e-04 0.0 
-4.311951738694e-04 1.271754487823e-03 0.0 
0.0 0.0 -2.310783895037e-04 
2.054226679739e-05 1.347833966380e-03 0.0 
1.347833966380e-03 8.186709947017e-04 0.0 
0.0 0.0 -3.411234323309e-04 
1.823631015032e-04 1.033435563719e-03 0.0 
1.033435563719e-03 3.956751210192e-04 0.0 
0.0 0.0 -2.477306667953e-04 
-1.268592166038e-03 3.040791407146e-04 0.0 
3.040791407146e-04 8.023493563003e-03 0.0 
0.0 0.0 -1.207258722210e-03 
-1.243812686443e-03 3.149820227485e-04 0.0 
3.149820227485e-04 7.787606541598e-03 0.0 
0.0 0.0 -1.172631524865e-03 
-1.292321070540e-03 2.959466161544e-04 0.0 
2.959466161544e-04 8.333939565192e-03 0.0 
0.0 0.0 -1.247471551777e-03 
-5.223015362984e-04 -5.966006200107e-05 0.0 
-5.966006200107e-05 2.388783331191e-03 0.0 
0.0 0.0 -3.801539159394e-04 
-8.682373190693e-04 4.316445998786e-04 0.0 
4.316445998786e-04 6.315487464641e-03 0.0 
0.0 0.0 -1.045322365442e-03 
-1.095327153402e-03 -1.697306701960e-04 0.0 
-1.697306701960e-04 7.466737774382e-03 0.0 
0.0 0.0 -1.207899217314e-03 
-1.032573115176e-03 -1.219439203281e-04 0.0 
-1.219439203281e-04 7.241482983967e-03 0.0 
0.0 0.0 -1.178012378629e-03 
-1.169146255923e-03 -2.121713741949e-04 0.0 
-2.121713741949e-04 7.798947947966e-03 0.0 
0.0 0.0 -1.244624083072e-03 
-9.796999613362e-04 3.385511052295e-04 0.0 
3.385511052295e-04 6.990100956638e-03 0.0 
0.0 0.0 -1.142102124289e-03 
-1.089777783011e-03 3.180765990224e-04 0.0 
3.180765990224e-04 7.453415741070e-03 0.0 
0.0 0.0 -1.205428683694e-03 
-1.118930099946e-03 4.102866827850e-04 0.0 
4.102866827850e-04 7.540265907261e-03 0.0 
0.0 0.0 -1.209323031234e-03 
7.629343076431e-06 -2.863199915616e-06 0.0 
-2.863199915616e-06 -2.105112574010e-06 0.0 
0.0 0.0 -2.367527358180e-06 
-1.243581183883e-03 1.333985162286e-05 0.0 
1.333985162286e-05 8.050404267198e-03 0.0 
0.0 0.0 -1.199992767657e-03 
-9.467227888159e-04 4.157282563709e-05 0.0 
4.157282563709e-05 5.565131892238e-03 0.0 
0.0 0.0 -8.371571859873e-04 
0.0 0.0 0.0 
0.0 0.0 0.0 
0.0 0.0 0.0 
-9.052370495583e-04 2.926470670919e-05 0.0 
2.926470670919e-05 5.359734394624e-03 0.0 
0.0 0.0 -8.070151920887e-04 
-9.464808288455e-04 2.890706983172e-05 0.0 
2.890706983172e-05 5.631422995547e-03 0.0 
0.0 0.0 -8.451615393777e-04 
-8.746039380960e-04 1.411235588614e-05 0.0 
1.411235588614e-05 5.099179134377e-03 0.0 
0.0 0.0 -7.748096441827e-04 
-4.043228169997e-04 -4.987598217760e-05 0.0 
-4.987598217760e-05 1.919858664121e-03 0.0 
0.0 0.0 -3.155299188714e-04 
-9.342623020306e-04 6.996522255594e-05 0.0 
6.996522255594e-05 5.399295489727e-03 0.0 
0.0 0.0 -8.174106193842e-04 
-9.784066260017e-04 9.518359088927e-05 0.0 
9.518359088927e-05 5.690330335138e-03 0.0 
0.0 0.0 -8.556612431672e-04 
-1.892819975809e-04 -2.080284296464e-04 0.0 
-2.080284296464e-04 7.178215811464e-04 0.0 
0.0 0.0 -1.471067669042e-04 
-1.288411893385e-03 2.088493887645e-04 0.0 
2.088493887645e-04 8.418681062039e-03 0.0 
0.0 0.0 -1.259301554906e-03 
-1.756794603790e-04 -1.355890425743e-04 0.0 
-1.355890425743e-04 7.416554994657e-04 0.0 
0.0 0.0 -1.555489432776e-04 
-1.976593762146e-04 -1.418821488879e-04 0.0 
-1.418821488879e-04 9.406849208869e-04 0.0 
0.0 0.0 -1.806578101979e-04 
-1.201046689643e-03 -2.954808681697e-04 0.0 
-2.954808681697e-04 7.775612660441e-03 0.0 
0.0 0.0 -1.221214701962e-03 
-1.189783866574e-03 -3.147730725178e-04 0.0 
-3.147730725178e-04 7.544251850061e-03 0.0 
0.0 0.0 -1.184344882880e-03 
-1.255201532556e-03 -3.138077392023e-04 0.0 
-3.138077392023e-04 7.995797572139e-03 0.0 
0.0 0.0 -1.247726601234e-03 
-1.240131757912e-03 -2.854581707310e-04 0.0 
-2.854581707310e-04 7.755129215709e-03 0.0 
0.0 0.0 -1.211018817991e-03 
-1.178065560448e-03 -3.176973578615e-04 0.0 
-3.176973578615e-04 7.320283461016e-03 0.0 
0.0 0.0 -1.147066289601e-03 
-1.222397278732e-03 -2.815307542264e-04 0.0 
-2.815307542264e-04 7.565615913449e-03 0.0 
0.0 0.0 -1.176490610025e-03 
-9.163713044728e-04 2.842739858528e-05 0.0 
2.842739858528e-05 5.314561917383e-03 0.0 
0.0 0.0 -7.985989294648e-04 
-1.274574997316e-03 -2.683950520862e-04 0.0 
-2.683950520862e-04 8.060277687178e-03 0.0 
0.0 0.0 -1.249018369598e-03 
-1.258852476870e-03 -2.546999081133e-04 0.0 
-2.546999081133e-04 7.798203538470e-03 0.0 
0.0 0.0 -1.207442871744e-03 
-1.315317272271e-03 -2.575611195837e-04 0.0 
-2.575611195837e-04 8.330215412111e-03 0.0 
0.0 0.0 -1.277927415301e-03 
-7.668426714387e-04 3.712502045957e-04 0.0 
3.712502045957e-04 3.884910929190e-03 0.0 
0.0 0.0 -6.108003466767e-04 
-5.473421814769e-04 1.022591756988e-03 0.0 
1.022591756988e-03 2.665785403795e-03 0.0 
0.0 0.0 -4.789358348571e-04 
-5.922456647504e-04 8.887242813561e-04 0.0 
8.887242813561e-04 2.596399578783e-03 0.0 
0.0 0.0 -4.527251363391e-04 
-5.808013297698e-04 8.699366696317e-04 0.0 
8.699366696317e-04 2.240670147384e-03 0.0 
0.0 0.0 -3.875663759467e-04 
-1.238412356123e-03 4.984956173527e-04 0.0 
4.984956173527e-04 8.013994811476e-03 0.0 
0.0 0.0 -1.240180566941e-03 
-1.214337546906e-03 4.975640446935e-04 0.0 
4.975640446935e-04 7.772501925276e-03 0.0 
0.0 0.0 -1.200590015451e-03 
-1.243705293709e-03 -9.256877991256e-05 0.0 
-9.256877991256e-05 7.122808590461e-03 0.0 
0.0 0.0 -1.087555896896e-03 
-1.202734584511e-03 -9.601844950182e-05 0.0 
-9.601844950182e-05 6.680089324953e-03 0.0 
0.0 0.0 -1.020738973070e-03 
-9.185583597048e-04 2.613338660199e-05 0.0 
2.613338660199e-05 5.392223531156e-03 0.0 
0.0 0.0 -8.108182148135e-04 
-9.103297472006e-04 4.766877897124e-06 0.0 
4.766877897124e-06 5.361690236980e-03 0.0 
0.0 0.0 -8.077352941366e-04 
-9.704696328324e-04 5.332193735867e-05 0.0 
5.332193735867e-05 5.783610110985e-03 0.0 
0.0 0.0 -8.678526801547e-04 
-9.618865758326e-04 7.689592341134e-06 0.0 
7.689592341134e-06 5.712312077429e-03 0.0 
0.0 0.0 -8.609153521579e-04 
-1.020016484653e-03 5.295869978670e-05 0.0 
5.295869978670e-05 6.152608316973e-03 0.0 
0.0 0.0 -9.200517378055e-04 
-1.001436562516e-03 -1.946934861064e-08 0.0 
-1.946934861064e-08 6.084870222159e-03 0.0 
0.0 0.0 -9.108947733944e-04 
-1.057814937538e-03 -6.724482469216e-06 0.0 
-6.724482469216e-06 6.510312548520e-03 0.0 
0.0 0.0 -9.726914458129e-04 
-1.190361938599e-03 4.676934084708e-04 0.0 
4.676934084708e-04 7.866637693242e-03 0.0 
0.0 0.0 -1.245087786853e-03 
-4.581667400111e-04 1.150309043721e-03 0.0 
1.150309043721e-03 1.644170079222e-03 0.0 
0.0 0.0 -3.403956918982e-04 
-8.293555136529e-04 2.952524372658e-04 0.0 
2.952524372658e-04 4.373371002006e-03 0.0 
0.0 0.0 -6.783069842581e-04 
-1.085846180975e-03 1.458307871503e-04 0.0 
1.458307871503e-04 7.572950528203e-03 0.0 
0.0 0.0 -1.228261380050e-03 
-1.024461005777e-03 9.563818815218e-05 0.0 
9.563818815218e-05 7.266751936821e-03 0.0 
0.0 0.0 -1.187396807988e-03 
-7.405303751490e-04 5.124973243675e-04 0.0 
5.124973243675e-04 3.741532766096e-03 0.0 
0.0 0.0 -6.000944487132e-04 
-7.031319460548e-04 4.876864875037e-04 0.0 
4.876864875037e-04 3.366473116495e-03 0.0 
0.0 0.0 -5.401620014017e-04 
-1.203049851257e-03 -2.728203523462e-04 0.0 
-2.728203523462e-04 7.833657430654e-03 0.0 
0.0 0.0 -1.238794375355e-03 
-3.075916606640e-04 1.045868666668e-03 0.0 
1.045868666668e-03 2.766977509803e-03 0.0 
0.0 0.0 -5.600314934590e-04 
-1.321820784768e-03 2.376560243328e-04 0.0 
2.376560243328e-04 8.684022372100e-03 0.0 
0.0 0.0 -1.295459716840e-03 
1.477011241759e-06 4.358298770146e-06 0.0 
4.358298770146e-06 8.908916257897e-07 0.0 
0.0 0.0 -1.014815514664e-06 
5.703109316316e-05 8.792005076422e-05 0.0 
8.792005076422e-05 -2.011421539823e-08 0.0 
0.0 0.0 -2.443327669190e-05 
-4.154706477079e-04 9.854771448034e-04 0.0 
9.854771448034e-04 3.145205208474e-03 0.0 
0.0 0.0 -5.969207367497e-04 
-7.802351733359e-04 5.259462622456e-04 0.0 
5.259462622456e-04 4.139237033551e-03 0.0 
0.0 0.0 -6.620222007989e-04 
-5.930037626935e-04 8.942073818617e-04 0.0 
8.942073818617e-04 2.971985586365e-03 0.0 
0.0 0.0 -5.157319100482e-04 
-6.206001126179e-04 7.748692012147e-04 0.0 
7.748692012147e-04 2.918912415158e-03 0.0 
0.0 0.0 -4.917183783407e-04 
-7.966812031951e-04 -2.794519072728e-04 0.0 
-2.794519072728e-04 6.003025537970e-03 0.0 
0.0 0.0 -1.010552660601e-03 
-3.204615651146e-04 -4.841454347256e-04 0.0 
-4.841454347256e-04 1.065843889916e-03 0.0 
0.0 0.0 -2.207468123314e-04 
-1.976838392314e-04 1.419132631860e-03 0.0 
1.419132631860e-03 1.245736136353e-03 0.0 
0.0 0.0 -3.729799092550e-04 
-1.062224956052e-03 6.282474994029e-05 0.0 
6.282474994029e-05 6.566502947635e-03 0.0 
0.0 0.0 -9.796923013958e-04 
-9.725104983260e-05 1.193422917781e-03 0.0 
1.193422917781e-03 9.454912755048e-04 0.0 
0.0 0.0 -3.472462715210e-04 
-1.226995326804e-03 -4.519473023836e-05 0.0 
-4.519473023836e-05 6.918120984331e-03 0.0 
0.0 0.0 -1.055800198362e-03 
-2.361841982036e-04 9.051937591691e-04 0.0 
9.051937591691e-04 2.839450438954e-03 0.0 
0.0 0.0 -5.891999696964e-04 
-7.588500349801e-04 6.513356924725e-04 0.0 
6.513356924725e-04 4.370877970735e-03 0.0 
0.0 0.0 -7.153500975001e-04 
-2.731612567135e-04 1.485424847436e-03 0.0 
1.485424847436e-03 1.576968026293e-03 0.0 
0.0 0.0 -3.843598907912e-04 
-4.773970402082e-04 1.083331247294e-03 0.0 
1.083331247294e-03 2.715302459171e-03 0.0 
0.0 0.0 -5.080103017801e-04 
-9.857070044825e-04 3.514582932795e-04 0.0 
3.514582932795e-04 5.605984683384e-03 0.0 
0.0 0.0 -8.638580894607e-04 
-9.566672598969e-04 2.556664326387e-04 0.0 
2.556664326387e-04 5.284930257865e-03 0.0 
0.0 0.0 -8.086477316853e-04 
-9.204142732436e-04 2.914181473186e-04 0.0 
2.914181473186e-04 5.036403952363e-03 0.0 
0.0 0.0 -7.738406155293e-04 
-1.852699916538e-04 7.169474657993e-04 0.0 
7.169474657993e-04 2.938478129515e-03 0.0 
0.0 0.0 -6.178822433291e-04 
-6.660603751627e-04 6.775511204911e-04 0.0 
6.775511204911e-04 3.201224465995e-03 0.0 
0.0 0.0 -5.288330985435e-04 
-6.329538447596e-04 6.262438341605e-04 0.0 
6.262438341605e-04 2.783574178796e-03 0.0 
0.0 0.0 -4.617239487405e-04 
-9.084122990405e-04 4.766608561051e-04 0.0 
4.766608561051e-04 5.217677913222e-03 0.0 
0.0 0.0 -8.213029907542e-04 
-1.196636206004e-03 2.937722451120e-04 0.0 
2.937722451120e-04 7.346814907567e-03 0.0 
0.0 0.0 -1.107475121065e-03 
-1.218143538823e-03 3.322225839887e-04 0.0 
3.322225839887e-04 7.523071285648e-03 0.0 
0.0 0.0 -1.136341617999e-03 
-1.260255205402e-03 3.483848197279e-04 0.0 
3.483848197279e-04 7.943523748013e-03 0.0 
0.0 0.0 -1.199268560344e-03 
-1.236398534658e-03 3.622286970254e-04 0.0 
3.622286970254e-04 7.698663143048e-03 0.0 
0.0 0.0 -1.164598082371e-03 
-1.187519623503e-03 3.369788044843e-04 0.0 
3.369788044843e-04 7.262535120341e-03 0.0 
0.0 0.0 -1.100413285504e-03 
-1.201927894883e-03 3.622228794556e-04 0.0 
3.622228794556e-04 7.428935513365e-03 0.0 
0.0 0.0 -1.129075729544e-03 
-1.251749756802e-03 4.013558701664e-04 0.0 
4.013558701664e-04 7.861186353057e-03 0.0 
0.0 0.0 -1.193594387005e-03 
-1.212961772203e-03 4.013424172495e-04 0.0 
4.013424172495e-04 7.607641408015e-03 0.0 
0.0 0.0 -1.159256375294e-03 
-1.275748773412e-03 4.170784326894e-04 0.0 
4.170784326894e-04 8.123816889762e-03 0.0 
0.0 0.0 -1.234286862126e-03 
-1.231663961214e-03 4.170891063283e-04 0.0 
4.170891063283e-04 7.767346293695e-03 0.0 
0.0 0.0 -1.187309181180e-03 
-1.180167111311e-03 4.146130725523e-04 0.0 
4.146130725523e-04 7.319280806481e-03 0.0 
0.0 0.0 -1.120864512401e-03 
-1.199520853126e-03 4.394329503130e-04 0.0 
4.394329503130e-04 7.469647570104e-03 0.0 
0.0 0.0 -1.147759711419e-03 
-1.246114513889e-03 4.512851502766e-04 0.0 
4.512851502766e-04 7.897003429628e-03 0.0 
0.0 0.0 -1.207767947030e-03 
-1.142819753357e-03 4.230226692438e-04 0.0 
4.230226692438e-04 7.034885546341e-03 0.0 
0.0 0.0 -1.082593982084e-03 
-1.161095070267e-03 2.120867803638e-04 0.0 
2.120867803638e-04 7.844111974654e-03 0.0 
0.0 0.0 -1.264544343569e-03 
-4.552882566461e-04 8.672081112126e-04 0.0 
8.672081112126e-04 3.584015933420e-03 0.0 
0.0 0.0 -6.621140475474e-04 
8.972285469528e-05 5.488704469766e-05 0.0 
5.488704469766e-05 -2.086067995893e-05 0.0 
0.0 0.0 -2.951236060129e-05 
1.917573457574e-04 3.907910126935e-04 0.0 
3.907910126935e-04 4.076022718458e-05 0.0 
0.0 0.0 -9.965038840370e-05 
-8.122559684108e-04 5.858127476170e-04 0.0 
5.858127476170e-04 4.660958103986e-03 0.0 
0.0 0.0 -7.509174086159e-04 
-1.326294875917e-03 4.475525367279e-04 0.0 
4.475525367279e-04 8.581090605175e-03 0.0 
0.0 0.0 -1.299806302097e-03 
-1.329372981724e-03 3.864120920022e-04 0.0 
3.864120920022e-04 8.651254845127e-03 0.0 
0.0 0.0 -1.301753673823e-03 
-4.221749795590e-05 1.054957827846e-03 0.0 
1.054957827846e-03 1.947401467081e-03 0.0 
0.0 0.0 -4.895692906686e-04 
-1.300820539860e-03 5.169294240401e-04 0.0 
5.169294240401e-04 8.431520987084e-03 0.0 
0.0 0.0 -1.303413959896e-03 
-9.359328158380e-04 3.353086376080e-04 0.0 
3.353086376080e-04 5.191229383814e-03 0.0 
0.0 0.0 -8.012154088905e-04 
4.071496828873e-04 9.026633654341e-04 0.0 
9.026633654341e-04 4.347728874957e-04 0.0 
0.0 0.0 -3.242207140944e-04 
-1.286592464162e-03 4.887471459282e-04 0.0 
4.887471459282e-04 8.354700830031e-03 0.0 
0.0 0.0 -1.304286792737e-03 
-1.166816141077e-03 3.067295782393e-04 0.0 
3.067295782393e-04 7.086165986606e-03 0.0 
0.0 0.0 -1.071440646998e-03 
-1.135318690764e-03 3.102645881689e-04 0.0 
3.102645881689e-04 6.820307156207e-03 0.0 
0.0 0.0 -1.034857077839e-03 
-1.114281868751e-03 2.783252876259e-04 0.0 
2.783252876259e-04 6.647188393663e-03 0.0 
0.0 0.0 -1.006057961993e-03 
-1.324485485700e-03 3.178425552296e-04 0.0 
3.178425552296e-04 8.703712057523e-03 0.0 
0.0 0.0 -1.305867370806e-03 
-1.046143216171e-03 1.338104735178e-04 0.0 
1.338104735178e-04 6.142970752386e-03 0.0 
0.0 0.0 -9.232948652302e-04 
-1.261216399776e-03 3.398370476000e-04 0.0 
3.398370476000e-04 8.240407625413e-03 0.0 
0.0 0.0 -1.306016332489e-03 
-5.621352130883e-04 2.402614077322e-04 0.0 
2.402614077322e-04 5.104076155106e-03 0.0 
0.0 0.0 -9.039903713831e-04 
-5.421821752565e-04 3.626261890118e-04 0.0 
3.626261890118e-04 4.916919296443e-03 0.0 
0.0 0.0 -8.747633066757e-04 
-4.482553543368e-04 4.245528232913e-04 0.0 
4.245528232913e-04 4.423341595392e-03 0.0 
0.0 0.0 -8.101682821885e-04 
-1.166183845535e-03 3.746000758126e-04 0.0 
3.746000758126e-04 7.154603019155e-03 0.0 
0.0 0.0 -1.092245366321e-03 
-1.243382207926e-03 7.139344382452e-05 0.0 
7.139344382452e-05 8.142027759390e-03 0.0 
0.0 0.0 -1.302677999426e-03 
-1.139163622892e-03 1.899260328228e-05 0.0 
1.899260328228e-05 7.738811355617e-03 0.0 
0.0 0.0 -1.248400714067e-03 
-1.139179700515e-03 -5.832838074801e-05 0.0 
-5.832838074801e-05 7.742835606473e-03 0.0 
0.0 0.0 -1.248426544684e-03 
-1.042171814045e-03 -2.067620167567e-05 0.0 
-2.067620167567e-05 7.300450465494e-03 0.0 
0.0 0.0 -1.189114855724e-03 
-1.245046049368e-03 -7.954937012982e-05 0.0 
-7.954937012982e-05 8.162015620032e-03 0.0 
0.0 0.0 -1.303398793257e-03 
-1.319024606982e-03 4.879947495646e-04 0.0 
4.879947495646e-04 8.553889678550e-03 0.0 
0.0 0.0 -1.306665994082e-03 
-1.318629781647e-03 5.032233232110e-04 0.0 
5.032233232110e-04 8.531113616169e-03 0.0 
0.0 0.0 -1.308500709484e-03 
-1.457969009565e-04 -1.297624687323e-03 0.0 
-1.297624687323e-03 1.878942347425e-03 0.0 
0.0 0.0 -4.564773689951e-04 
-5.360535394488e-05 -1.060749340558e-03 0.0 
-1.060749340558e-03 1.980128638088e-03 0.0 
0.0 0.0 -4.934415926888e-04 
-1.381226460422e-04 -8.991719374826e-04 0.0 
-8.991719374826e-04 2.497431923997e-03 0.0 
0.0 0.0 -5.576035839405e-04 
-3.423707423507e-07 -7.630300989339e-04 0.0 
-7.630300989339e-04 2.133066083266e-03 0.0 
0.0 0.0 -5.298816096007e-04 
1.060874476646e-04 -9.079592115861e-04 0.0 
-9.079592115861e-04 1.571356760192e-03 0.0 
0.0 0.0 -4.652367627802e-04 
1.299766153745e-04 -5.238021949006e-04 0.0 
-5.238021949006e-04 1.775343023360e-03 0.0 
0.0 0.0 -5.016361848483e-04 
8.113068861589e-06 -4.523118756860e-04 0.0 
-4.523118756860e-04 2.346566463626e-03 0.0 
0.0 0.0 -5.657331850765e-04 
2.333464364560e-04 -1.778074880060e-04 0.0 
-1.778074880060e-04 1.448473809503e-03 0.0 
0.0 0.0 -4.731795164401e-04 
-1.159968055748e-03 4.654058109210e-04 0.0 
4.654058109210e-04 7.343744264572e-03 0.0 
0.0 0.0 -1.138512926666e-03 
-1.264954689887e-03 -1.904964022353e-04 0.0 
-1.904964022353e-04 8.221334432808e-03 0.0 
0.0 0.0 -1.305779161548e-03 
-7.747711705181e-04 -5.121765711313e-04 0.0 
-5.121765711313e-04 5.367910934867e-03 0.0 
0.0 0.0 -9.007942405787e-04 
-6.889420890608e-04 -5.209139520464e-04 0.0 
-5.209139520464e-04 5.083313389568e-03 0.0 
0.0 0.0 -8.713600568839e-04 
-6.090575816933e-04 -6.078858301865e-04 0.0 
-6.078858301865e-04 4.604339507385e-03 0.0 
0.0 0.0 -8.059887332522e-04 
-8.449920134059e-04 -5.153788440303e-04 0.0 
-5.153788440303e-04 4.260095117302e-03 0.0 
0.0 0.0 -6.781883600425e-04 
-8.428803748540e-04 -5.674043660998e-04 0.0 
-5.674043660998e-04 4.450165882994e-03 0.0 
0.0 0.0 -7.153987595530e-04 
-8.942422948913e-04 -5.207798333702e-04 0.0 
-5.207798333702e-04 4.885926297656e-03 0.0 
0.0 0.0 -7.812419408864e-04 
-8.377845004557e-04 -4.501363391243e-04 0.0 
-4.501363391243e-04 4.061067246097e-03 0.0 
0.0 0.0 -6.407943132712e-04 
-8.608991234260e-04 5.183985589951e-04 0.0 
5.183985589951e-04 6.008926334250e-03 0.0 
0.0 0.0 -9.876394229526e-04 
-1.270638922106e-03 -2.525883056993e-04 0.0 
-2.525883056993e-04 8.245623635122e-03 0.0 
0.0 0.0 -1.305003056577e-03 
-5.449120924268e-04 -2.038340280130e-04 0.0 
-2.038340280130e-04 4.976604129178e-03 0.0 
0.0 0.0 -8.871663004355e-04 
-7.828155216857e-04 -6.575282962370e-04 0.0 
-6.575282962370e-04 4.196243675374e-03 0.0 
0.0 0.0 -6.865966444657e-04 
-8.908351355140e-04 9.702867664421e-05 0.0 
9.702867664421e-05 4.953510345307e-03 0.0 
0.0 0.0 -7.516786372745e-04 
-9.428178873818e-04 1.510891929034e-04 0.0 
1.510891929034e-04 5.341754956276e-03 0.0 
0.0 0.0 -8.094822736869e-04 
-9.489012184647e-04 1.441944320473e-04 0.0 
1.441944320473e-04 5.346848053026e-03 0.0 
0.0 0.0 -8.097394517040e-04 
-9.928370876702e-04 1.565528389037e-04 0.0 
1.565528389037e-04 5.757287346966e-03 0.0 
0.0 0.0 -8.733121467894e-04 
-9.420662265250e-04 8.672453308222e-05 0.0 
8.672453308222e-05 5.390349708032e-03 0.0 
0.0 0.0 -8.155917408702e-04 
-9.920889169566e-04 -3.299549002211e-04 0.0 
-3.299549002211e-04 5.156290872581e-03 0.0 
0.0 0.0 -8.015266587451e-04 
-1.034393455446e-03 -2.593382357018e-04 0.0 
-2.593382357018e-04 5.377589720533e-03 0.0 
0.0 0.0 -8.302790088839e-04 
-1.016724768056e-03 -2.052940986145e-04 0.0 
-2.052940986145e-04 5.161883654298e-03 0.0 
0.0 0.0 -7.937858958383e-04 
-1.069749204098e-03 -1.931193338339e-04 0.0 
-1.931193338339e-04 5.589690211797e-03 0.0 
0.0 0.0 -8.590670690980e-04 
-1.045250008444e-03 -1.524643402440e-04 0.0 
-1.524643402440e-04 5.354709247412e-03 0.0 
0.0 0.0 -8.213578559547e-04 
-9.891061891856e-04 -1.661511418362e-04 0.0 
-1.661511418362e-04 4.952759689804e-03 0.0 
0.0 0.0 -7.608744282309e-04 
-1.097326614700e-03 -1.343981642378e-04 0.0 
-1.343981642378e-04 5.787368511626e-03 0.0 
0.0 0.0 -8.866101721103e-04 
-1.072266853954e-03 -7.465649989587e-05 0.0 
-7.465649989587e-05 5.530930704335e-03 0.0 
0.0 0.0 -8.437388122980e-04 
-8.749604405334e-04 5.210753762548e-05 0.0 
5.210753762548e-05 4.958547900325e-03 0.0 
0.0 0.0 -7.509531518293e-04 
2.931250951271e-05 -1.468193730782e-04 0.0 
-1.468193730782e-04 5.197092075325e-05 0.0 
0.0 0.0 -3.483575582827e-05 
8.911840808785e-05 -5.611142441010e-04 0.0 
-5.611142441010e-04 2.292660682549e-04 0.0 
0.0 0.0 -1.364504898612e-04 
-1.613477578931e-05 -6.217163821683e-04 0.0 
-6.217163821683e-04 4.356228314527e-04 0.0 
0.0 0.0 -1.797805952843e-04 
7.026081585524e-05 -9.442279566568e-04 0.0 
-9.442279566568e-04 4.994486354165e-04 0.0 
0.0 0.0 -2.441611934022e-04 
2.189035585349e-04 -7.936262830972e-04 0.0 
-7.936262830972e-04 2.241675290565e-04 0.0 
0.0 0.0 -1.898876089678e-04 
1.395294056137e-04 -1.221624346892e-03 0.0 
-1.221624346892e-03 5.704290544817e-04 0.0 
0.0 0.0 -3.042679114694e-04 
3.315217795862e-04 -9.867447375553e-04 0.0 
-9.867447375553e-04 2.187882668786e-04 0.0 
0.0 0.0 -2.358471627707e-04 
1.282773509924e-04 -3.069727312294e-04 0.0 
-3.069727312294e-04 5.087018620754e-05 0.0 
0.0 0.0 -7.677751594282e-05 
7.207324065744e-06 -2.363709633052e-04 0.0 
-2.363709633052e-04 2.192194981731e-04 0.0 
0.0 0.0 -7.709394943614e-05 
-1.151589919320e-04 -5.038932235898e-04 0.0 
-5.038932235898e-04 5.668379900610e-04 0.0 
0.0 0.0 -1.836804426236e-04 
6.886756343239e-05 -1.585111183501e-04 0.0 
-1.585111183501e-04 2.318919381609e-04 0.0 
0.0 0.0 -9.135678087991e-05 
-1.673787199121e-04 -3.772506028182e-04 0.0 
-3.772506028182e-04 6.235391984471e-04 0.0 
0.0 0.0 -1.587652100407e-04 
-2.237013217840e-04 -7.835370290226e-04 0.0 
-7.835370290226e-04 9.699234306887e-04 0.0 
0.0 0.0 -2.864776706126e-04 
-5.080022175142e-04 -5.846720249242e-04 0.0 
-5.846720249242e-04 1.713553650264e-03 0.0 
0.0 0.0 -2.934437995798e-04 
-1.342924257900e-03 -1.540329825018e-04 0.0 
-1.540329825018e-04 8.463979425849e-03 0.0 
0.0 0.0 -1.294874803588e-03 
-9.061604714287e-04 -5.353468138170e-05 0.0 
-5.353468138170e-05 4.292677537748e-03 0.0 
0.0 0.0 -6.595503360071e-04 
-8.748353904416e-04 -9.535674848835e-05 0.0 
-9.535674848835e-05 4.090451847143e-03 0.0 
0.0 0.0 -6.264797819744e-04 
-7.893986596546e-04 -8.988273420556e-05 0.0 
-8.988273420556e-05 3.635662269298e-03 0.0 
0.0 0.0 -5.641716646261e-04 
-8.342340843015e-04 -1.796315714393e-04 0.0 
-1.796315714393e-04 3.876399492582e-03 0.0 
0.0 0.0 -5.974662984275e-04 
-9.399601535283e-04 -9.182592719562e-05 0.0 
-9.182592719562e-05 4.459086163681e-03 0.0 
0.0 0.0 -6.865721209800e-04 
-7.450408717977e-04 -3.664071909045e-05 0.0 
-3.664071909045e-05 3.403705623677e-03 0.0 
0.0 0.0 -5.286920563404e-04 
-7.105002771536e-04 -7.510162605901e-05 0.0 
-7.510162605901e-05 3.252942810076e-03 0.0 
0.0 0.0 -5.038291843518e-04 
2.269617952537e-04 -4.679297531140e-06 0.0 
-4.679297531140e-06 2.031304943507e-04 0.0 
0.0 0.0 -1.081843495454e-04 
-2.992668304113e-05 -2.428217344695e-05 0.0 
-2.428217344695e-05 6.247499294921e-04 0.0 
0.0 0.0 -1.462425310096e-04 
1.120520427135e-05 2.490769659488e-05 0.0 
2.490769659488e-05 5.748679317617e-04 0.0 
0.0 0.0 -1.469788961115e-04 
-1.839676854865e-04 -1.370350569834e-05 0.0 
-1.370350569834e-05 1.050348992839e-03 0.0 
0.0 0.0 -1.976702944042e-04 
-1.665493073749e-04 -4.078238753771e-05 0.0 
-4.078238753771e-05 1.038427513794e-03 0.0 
0.0 0.0 -1.960684762570e-04 
-2.740272711721e-05 -1.675532894322e-05 0.0 
-1.675532894322e-05 6.301608269895e-04 0.0 
0.0 0.0 -1.451566722079e-04 
-4.295295916181e-05 -1.396627582879e-05 0.0 
-1.396627582879e-05 6.314478061460e-04 0.0 
0.0 0.0 -1.432903851643e-04 
2.178107760258e-04 -4.669961674357e-06 0.0 
-4.669961674357e-06 1.968060237393e-04 0.0 
0.0 0.0 -1.026933745538e-04 
-6.199861096773e-05 -4.121287758313e-05 0.0 
-4.121287758313e-05 6.332661626784e-04 0.0 
0.0 0.0 -1.376693440338e-04 
-1.958490001476e-04 -5.849411118292e-05 0.0 
-5.849411118292e-05 1.056235548644e-03 0.0 
0.0 0.0 -1.994574706984e-04 
2.194500295117e-04 -1.953547163157e-05 0.0 
-1.953547163157e-05 1.758186835889e-04 0.0 
0.0 0.0 -9.526841721624e-05 
-1.134405852345e-03 -1.685214623059e-05 0.0 
-1.685214623059e-05 7.114171974622e-03 0.0 
0.0 0.0 -1.060427308513e-03 
-1.169096287658e-03 2.563616812788e-06 0.0 
2.563616812788e-06 7.355225522955e-03 0.0 
0.0 0.0 -1.097082233180e-03 
-1.287656187300e-03 -3.057563853945e-04 0.0 
-3.057563853945e-04 8.295106043806e-03 0.0 
0.0 0.0 -1.300897016293e-03 
-8.709102074234e-04 1.634655957137e-05 0.0 
1.634655957137e-05 5.013561359335e-03 0.0 
0.0 0.0 -7.584009903415e-04 
6.085248323127e-05 -7.529385077948e-05 0.0 
-7.529385077948e-05 2.498450074273e-04 0.0 
0.0 0.0 -6.778662807072e-05 
-1.318321890589e-03 9.119227365237e-05 0.0 
9.119227365237e-05 8.702564910127e-03 0.0 
0.0 0.0 -1.292107529982e-03 
-1.321891599576e-03 1.523434658018e-04 0.0 
1.523434658018e-04 8.753789560532e-03 0.0 
0.0 0.0 -1.303172775453e-03 
-1.317386328466e-03 1.502744807486e-04 0.0 
1.502744807486e-04 8.760593080467e-03 0.0 
0.0 0.0 -1.304823151597e-03 
-1.303300137320e-03 -3.518320858820e-05 0.0 
-3.518320858820e-05 7.809809152570e-03 0.0 
0.0 0.0 -1.191058493115e-03 
-1.309915312802e-03 -8.055064126037e-05 0.0 
-8.055064126037e-05 8.016669059363e-03 0.0 
0.0 0.0 -1.224322658093e-03 
-1.321803447330e-03 5.837335499168e-05 0.0 
5.837335499168e-05 8.713282635678e-03 0.0 
0.0 0.0 -1.294569364341e-03 
-6.481855202900e-04 -6.246003181782e-04 0.0 
-6.246003181782e-04 2.746907491681e-03 0.0 
0.0 0.0 -4.512809064328e-04 
-1.269733092336e-03 3.949450849478e-04 0.0 
3.949450849478e-04 8.134082373248e-03 0.0 
0.0 0.0 -1.225740639889e-03 
-1.236917440076e-03 9.455704594097e-05 0.0 
9.455704594097e-05 7.907876475173e-03 0.0 
0.0 0.0 -1.178628832109e-03 
2.863499120991e-04 1.225469476951e-03 0.0 
1.225469476951e-03 5.011020420815e-04 0.0 
0.0 0.0 -3.087973448475e-04 
-5.572892816396e-04 -1.058232484237e-03 0.0 
-1.058232484237e-03 2.439571083886e-03 0.0 
0.0 0.0 -4.373623857420e-04 
-1.169344627949e-03 -1.527368028486e-04 0.0 
-1.527368028486e-04 6.463252890075e-03 0.0 
0.0 0.0 -9.899674718230e-04 
-1.002156622739e-03 -4.217657770794e-04 0.0 
-4.217657770794e-04 5.766816978775e-03 0.0 
0.0 0.0 -9.123979313600e-04 
-1.240362622181e-03 -2.107518773901e-04 0.0 
-2.107518773901e-04 7.344433125846e-03 0.0 
0.0 0.0 -1.130390451587e-03 
-1.097029052933e-03 -2.727822285369e-04 0.0 
-2.727822285369e-04 6.025349028311e-03 0.0 
0.0 0.0 -9.322225209316e-04 
-1.160816713283e-03 -2.966491095374e-04 0.0 
-2.966491095374e-04 6.897592609693e-03 0.0 
0.0 0.0 -1.073123358692e-03 
-1.146188823319e-03 -9.619145093431e-05 0.0 
-9.619145093431e-05 7.734668514319e-03 0.0 
0.0 0.0 -1.244129926109e-03 
-3.611510593238e-04 -8.758097138839e-05 0.0 
-8.758097138839e-05 1.751553404855e-03 0.0 
0.0 0.0 -2.939217362394e-04 
-1.042524547902e-03 8.542519018607e-05 0.0 
8.542519018607e-05 6.249309917826e-03 0.0 
0.0 0.0 -9.364826870394e-04 
-1.011646579925e-03 4.950052888461e-05 0.0 
4.950052888461e-05 6.088183350352e-03 0.0 
0.0 0.0 -9.130351872960e-04 
-1.156492778501e-03 8.389467150956e-05 0.0 
8.389467150956e-05 7.209321502601e-03 0.0 
0.0 0.0 -1.075939795031e-03 
-6.797233321873e-04 -3.445526981405e-04 0.0 
-3.445526981405e-04 2.970604433142e-03 0.0 
0.0 0.0 -4.709579147287e-04 
-9.579355913964e-04 -2.329193078104e-04 0.0 
-2.329193078104e-04 4.740187249377e-03 0.0 
0.0 0.0 -7.304257169629e-04 
-4.699094320929e-04 -2.864685390476e-04 0.0 
-2.864685390476e-04 1.870719163436e-03 0.0 
0.0 0.0 -3.104331955072e-04 
-1.225720132749e-03 4.922764523725e-04 0.0 
4.922764523725e-04 8.004298524687e-03 0.0 
0.0 0.0 -1.251461238623e-03 
-8.642142966185e-04 4.736706847914e-04 0.0 
4.736706847914e-04 4.810262753378e-03 0.0 
0.0 0.0 -7.590395520047e-04 
-6.299061308779e-04 -6.905248015396e-04 0.0 
-6.905248015396e-04 4.426299320179e-03 0.0 
0.0 0.0 -7.694287042311e-04 
-7.912081179997e-04 -5.380011954616e-04 0.0 
-5.380011954616e-04 3.827422774339e-03 0.0 
0.0 0.0 -6.120242822960e-04 
-6.551443874445e-04 -7.576014874881e-04 0.0 
-7.576014874881e-04 2.929641818478e-03 0.0 
0.0 0.0 -4.894362539292e-04 
-4.890802463817e-04 -1.241731719978e-03 0.0 
-1.241731719978e-03 2.147525315431e-03 0.0 
0.0 0.0 -4.100935076628e-04 
-5.488809187293e-04 8.195138113053e-04 0.0 
8.195138113053e-04 3.940420057434e-03 0.0 
0.0 0.0 -6.990242139688e-04 
-7.645737241242e-04 -6.835179970588e-04 0.0 
-6.835179970588e-04 4.369038504805e-03 0.0 
0.0 0.0 -7.237531747479e-04 
-9.990166317683e-04 -3.989427530334e-04 0.0 
-3.989427530334e-04 6.371965153356e-03 0.0 
0.0 0.0 -1.024340108609e-03 
-1.185317591363e-03 7.742475138516e-05 0.0 
7.742475138516e-05 7.460446495103e-03 0.0 
0.0 0.0 -1.112552678551e-03 
1.197712392318e-04 -3.148981806786e-05 0.0 
-3.148981806786e-05 2.711258731277e-04 0.0 
0.0 0.0 -9.959518537181e-05 
-1.003340353985e-03 -3.675015482303e-04 0.0 
-3.675015482303e-04 6.579336743889e-03 0.0 
0.0 0.0 -1.061672265243e-03 
-8.749171253014e-04 -5.429443966133e-04 0.0 
-5.429443966133e-04 5.259260617559e-03 0.0 
0.0 0.0 -8.552253422611e-04 
-1.075058534600e-03 1.329625948637e-04 0.0 
1.329625948637e-04 6.404878824914e-03 0.0 
0.0 0.0 -9.599091010803e-04 
-8.098069298724e-04 1.009136731454e-04 0.0 
1.009136731454e-04 6.303475721426e-03 0.0 
0.0 0.0 -1.062640036239e-03 
-7.822393088759e-05 -1.437936820334e-03 0.0 
-1.437936820334e-03 1.036179245632e-03 0.0 
0.0 0.0 -3.732485265440e-04 
-1.183046367818e-03 1.393767940647e-04 0.0 
1.393767940647e-04 7.358067127657e-03 0.0 
0.0 0.0 -1.098747615487e-03 
-1.275160361241e-03 2.646540278175e-04 0.0 
2.646540278175e-04 8.092932724066e-03 0.0 
0.0 0.0 -1.212453547082e-03 
-1.010608018996e-03 1.134796452945e-04 0.0 
1.134796452945e-04 5.876477578498e-03 0.0 
0.0 0.0 -8.875094802107e-04 
-3.432304284614e-04 -2.023305734104e-04 0.0 
-2.023305734104e-04 1.413096543350e-03 0.0 
0.0 0.0 -2.442495876194e-04 
-9.871354508553e-04 6.543929527951e-05 0.0 
6.543929527951e-05 5.785148960874e-03 0.0 
0.0 0.0 -8.692469099983e-04 
-1.129933755956e-03 -2.589669323117e-04 0.0 
-2.589669323117e-04 7.495462082173e-03 0.0 
0.0 0.0 -1.202705989510e-03 
-1.175984421816e-03 2.539870060864e-04 0.0 
2.539870060864e-04 7.167724276723e-03 0.0 
0.0 0.0 -1.078220320736e-03 
-6.238127593336e-04 -2.578427228971e-04 0.0 
-2.578427228971e-04 2.729809833616e-03 0.0 
0.0 0.0 -4.336020471383e-04 
-3.693103125981e-04 -1.184898620339e-04 0.0 
-1.184898620339e-04 4.215512874596e-03 0.0 
0.0 0.0 -7.943514531093e-04 
-7.354883692347e-04 6.882867699015e-04 0.0 
6.882867699015e-04 4.480048918178e-03 0.0 
0.0 0.0 -7.428158978947e-04 
-8.300346150545e-04 1.997478973446e-04 0.0 
1.997478973446e-04 4.462946677923e-03 0.0 
0.0 0.0 -6.865907729104e-04 
-1.263662037140e-03 1.212955651983e-04 0.0 
1.212955651983e-04 8.095770653682e-03 0.0 
0.0 0.0 -1.206557591227e-03 
-5.452830500886e-04 5.833267200760e-04 0.0 
5.833267200760e-04 4.601923753795e-03 0.0 
0.0 0.0 -8.172945450070e-04 
-9.138715469007e-04 -2.809485115349e-05 0.0 
-2.809485115349e-05 6.748408724194e-03 0.0 
0.0 0.0 -1.120054252910e-03 
-5.855153319979e-04 -8.409325156636e-05 0.0 
-8.409325156636e-05 5.239197065772e-03 0.0 
0.0 0.0 -9.240809108919e-04 
-6.615538158736e-04 -2.024673927750e-04 0.0 
-2.024673927750e-04 2.941778370234e-03 0.0 
0.0 0.0 -4.629711029823e-04 
-1.130081472427e-03 -3.415372177863e-04 0.0 
-3.415372177863e-04 7.089023572073e-03 0.0 
0.0 0.0 -1.118919378802e-03 
-3.597542210602e-04 3.380969491909e-04 0.0 
3.380969491909e-04 4.095727105777e-03 0.0 
0.0 0.0 -7.743986277066e-04 
-1.231879397795e-03 1.563825567224e-04 0.0 
1.563825567224e-04 7.806451874477e-03 0.0 
0.0 0.0 -1.164614768973e-03 
-1.000367767849e-03 5.022961011040e-04 0.0 
5.022961011040e-04 6.477016694026e-03 0.0 
0.0 0.0 -1.031533309622e-03 
-8.496720980242e-05 7.949215026050e-05 0.0 
7.949215026050e-05 2.913474260951e-03 0.0 
0.0 0.0 -6.375205594687e-04 
-1.204201749293e-03 1.997899091721e-04 0.0 
1.997899091721e-04 7.486324816343e-03 0.0 
0.0 0.0 -1.121170216299e-03 
-5.130508831761e-04 -5.977004884583e-04 0.0 
-5.977004884583e-04 4.307094875234e-03 0.0 
0.0 0.0 -7.773091661689e-04 
-8.763670238880e-04 1.763080225343e-04 0.0 
1.763080225343e-04 6.599584220336e-03 0.0 
0.0 0.0 -1.099429584637e-03 
-8.205770634544e-04 5.305467903750e-04 0.0 
5.305467903750e-04 4.538492374159e-03 0.0 
0.0 0.0 -7.240542973723e-04 
-8.884268788469e-04 5.588484511591e-04 0.0 
5.588484511591e-04 5.612213355160e-03 0.0 
0.0 0.0 -9.041109700986e-04 
-1.050324174142e-03 4.352582260935e-04 0.0 
4.352582260935e-04 6.327572321714e-03 0.0 
0.0 0.0 -9.824247929831e-04 
-7.337998657639e-04 6.243333749199e-04 0.0 
6.243333749199e-04 5.125520163039e-03 0.0 
0.0 0.0 -8.608216255090e-04 
-1.153567602020e-03 -9.301724894271e-05 0.0 
-9.301724894271e-05 6.238376526397e-03 0.0 
0.0 0.0 -9.534332399069e-04 
-1.070854558502e-03 -3.525098866510e-04 0.0 
-3.525098866510e-04 6.838133072795e-03 0.0 
0.0 0.0 -1.090315851396e-03 
5.426530316348e-04 -6.124034834809e-04 0.0 
-6.124034834809e-04 -4.758177895350e-06 0.0 
0.0 0.0 -2.305263658883e-04 
-4.860442792995e-04 1.001524898596e-03 0.0 
1.001524898596e-03 3.110766909182e-03 0.0 
0.0 0.0 -5.719042557127e-04 
-1.067589445178e-03 1.583535090986e-04 0.0 
1.583535090986e-04 6.341569706464e-03 0.0 
0.0 0.0 -9.536514739466e-04 
-1.085608803619e-03 4.567018534179e-04 0.0 
4.567018534179e-04 7.206759563006e-03 0.0 
0.0 0.0 -1.150585697120e-03 
-1.272662540904e-03 1.837479624771e-04 0.0 
1.837479624771e-04 8.251575577157e-03 0.0 
0.0 0.0 -1.229329624135e-03 
-7.006581247961e-04 7.305782553014e-04 0.0 
7.305782553014e-04 4.076422328874e-03 0.0 
0.0 0.0 -6.801182747099e-04 
-1.119652443645e-03 -3.456160390905e-04 0.0 
-3.456160390905e-04 6.872141672148e-03 0.0 
0.0 0.0 -1.081576975854e-03 
-1.253042370701e-03 2.293393647918e-04 0.0 
2.293393647918e-04 7.917666161319e-03 0.0 
0.0 0.0 -1.185355684152e-03 
-8.328019205503e-04 -6.002544778108e-04 0.0 
-6.002544778108e-04 4.632328502255e-03 0.0 
0.0 0.0 -7.524367508395e-04 
-4.433075112401e-04 -2.566605040482e-05 0.0 
-2.566605040482e-05 2.036859959460e-03 0.0 
0.0 0.0 -3.333104686742e-04 
3.205177984844e-04 9.975801435051e-04 0.0 
9.975801435051e-04 2.379341149770e-04 0.0 
0.0 0.0 -2.393365343406e-04 
1.591584715393e-04 1.779286051982e-04 0.0 
1.779286051982e-04 1.786654556165e-03 0.0 
0.0 0.0 -5.092532232582e-04 
-4.531066397313e-04 5.570531624296e-04 0.0 
5.570531624296e-04 4.269383883647e-03 0.0 
0.0 0.0 -7.817448632792e-04 
-8.859078879477e-04 -5.417175315324e-04 0.0 
-5.417175315324e-04 5.072763910333e-03 0.0 
0.0 0.0 -8.181699076276e-04 
-1.293553667002e-03 3.539056233938e-04 0.0 
3.539056233938e-04 8.270227580961e-03 0.0 
0.0 0.0 -1.242275372262e-03 
-1.167568761218e-03 -3.100043251916e-04 0.0 
-3.100043251916e-04 7.110149870389e-03 0.0 
0.0 0.0 -1.110186454522e-03 
-8.720271584818e-04 -3.155671013640e-04 0.0 
-3.155671013640e-04 6.271566388977e-03 0.0 
0.0 0.0 -1.040857148505e-03 
3.090009603171e-05 6.438382974465e-04 0.0 
6.438382974465e-04 3.706853633849e-04 0.0 
0.0 0.0 -1.721080540357e-04 
-8.582532174726e-04 2.712256844373e-04 0.0 
2.712256844373e-04 4.619700861909e-03 0.0 
0.0 0.0 -7.126371066839e-04 
-1.210346144101e-03 -2.749948472322e-04 0.0 
-2.749948472322e-04 7.344160972203e-03 0.0 
0.0 0.0 -1.139074001596e-03 
-4.392212359222e-04 -2.427188308892e-04 0.0 
-2.427188308892e-04 4.468278991880e-03 0.0 
0.0 0.0 -8.223634564932e-04 
-9.190954487653e-04 1.036306006856e-04 0.0 
1.036306006856e-04 6.792229327511e-03 0.0 
0.0 0.0 -1.126725356868e-03 
-1.012271879397e-03 -9.648706787801e-05 0.0 
-9.648706787801e-05 5.106630196527e-03 0.0 
0.0 0.0 -7.817916451012e-04 
-1.209813015887e-03 4.617447502893e-04 0.0 
4.617447502893e-04 7.951412152162e-03 0.0 
0.0 0.0 -1.249754184115e-03 
-7.319316117329e-04 4.292603822642e-04 0.0 
4.292603822642e-04 3.626422685243e-03 0.0 
0.0 0.0 -5.757576642514e-04 
-1.253262516526e-03 -2.397729583392e-04 0.0 
-2.397729583392e-04 7.583908034255e-03 0.0 
0.0 0.0 -1.168790087466e-03 
-8.256776309677e-04 -1.881926819914e-04 0.0 
-1.881926819914e-04 6.244322400387e-03 0.0 
0.0 0.0 -1.047452346298e-03 
-1.833871752581e-04 1.076533841658e-03 0.0 
1.076533841658e-03 2.371953294675e-03 0.0 
0.0 0.0 -5.248669331578e-04 
-8.489436119586e-04 9.726246538456e-06 0.0 
9.726246538456e-06 4.964532206226e-03 0.0 
0.0 0.0 -7.498068730476e-04 
-1.301937909208e-03 -2.238090825597e-04 0.0 
-2.238090825597e-04 8.094251106337e-03 0.0 
0.0 0.0 -1.243807156011e-03 
-9.340333835081e-04 -1.610113385009e-04 0.0 
-1.610113385009e-04 6.744276922541e-03 0.0 
0.0 0.0 -1.114542488500e-03 
-7.941362751269e-04 5.664211877541e-04 0.0 
5.664211877541e-04 5.563587855978e-03 0.0 
0.0 0.0 -9.240346875991e-04 
-4.168495056098e-04 -3.974139927462e-04 0.0 
-3.974139927462e-04 4.226500375937e-03 0.0 
0.0 0.0 -7.856950878877e-04 
-7.739148085239e-04 2.464793331539e-04 0.0 
2.464793331539e-04 3.977512213385e-03 0.0 
0.0 0.0 -6.191377506773e-04 
-9.472802509339e-04 -4.715703841177e-04 0.0 
-4.715703841177e-04 5.324567248990e-03 0.0 
0.0 0.0 -8.467704336814e-04 
-9.485585464614e-04 5.193393053567e-04 0.0 
5.193393053567e-04 5.905682896343e-03 0.0 
0.0 0.0 -9.395224721591e-04 
-1.324920476103e-03 3.053746754946e-04 0.0 
3.053746754946e-04 8.723243834592e-03 0.0 
0.0 0.0 -1.306889097489e-03 
-9.807951782906e-04 -9.587801094059e-05 0.0 
-9.587801094059e-05 6.970713904845e-03 0.0 
0.0 0.0 -1.148622835147e-03 
-1.082939420670e-03 2.819860490732e-04 0.0 
2.819860490732e-04 6.381972856138e-03 0.0 
0.0 0.0 -9.696660045843e-04 
-9.493777168521e-04 -4.444219031776e-04 0.0 
-4.444219031776e-04 5.127854127799e-03 0.0 
0.0 0.0 -8.097439408559e-04 
-7.160311725792e-04 3.654432579295e-04 0.0 
3.654432579295e-04 5.714883805619e-03 0.0 
0.0 0.0 -9.749840279683e-04 
-1.676636515260e-04 -4.941269470984e-05 0.0 
-4.941269470984e-05 1.033199140519e-03 0.0 
0.0 0.0 -1.970089232863e-04 
-7.962185908535e-04 3.303377500728e-04 0.0 
3.303377500728e-04 4.131190544581e-03 0.0 
0.0 0.0 -6.447622526173e-04 
-1.000272012546e-03 -3.719800608836e-04 0.0 
-3.719800608836e-04 5.362836932527e-03 0.0 
0.0 0.0 -8.382314227178e-04 
1.017392588855e-04 -1.736220687656e-04 0.0 
-1.736220687656e-04 2.043177635858e-03 0.0 
0.0 0.0 -5.374563060555e-04 
-5.079147546005e-04 -4.709528610388e-04 0.0 
-4.709528610388e-04 4.508844721117e-03 0.0 
0.0 0.0 -8.136389561866e-04 
-1.114056657132e-03 2.887883130746e-04 0.0 
2.887883130746e-04 7.664610237433e-03 0.0 
0.0 0.0 -1.234277959947e-03 
-1.046296347188e-03 -3.017965079923e-04 0.0 
-3.017965079923e-04 5.590796710732e-03 0.0 
0.0 0.0 -8.668853676281e-04 
-2.327182499333e-05 -1.637556316808e-04 0.0 
-1.637556316808e-04 2.609999917965e-03 0.0 
0.0 0.0 -6.015264011954e-04 
-1.086733608739e-03 -2.340312705235e-04 0.0 
-2.340312705235e-04 5.809878777498e-03 0.0 
0.0 0.0 -8.955981815692e-04 
-7.133441625448e-04 3.191920090799e-04 0.0 
3.191920090799e-04 3.492826899708e-03 0.0 
0.0 0.0 -5.519888345566e-04 
-1.102733663682e-03 3.164092702850e-04 0.0 
3.164092702850e-04 6.555228391521e-03 0.0 
0.0 0.0 -9.983267706061e-04 
-1.119318067822e-03 -1.714358954242e-04 0.0 
-1.714358954242e-04 6.018884976543e-03 0.0 
0.0 0.0 -9.243533921793e-04 
-1.001908002250e-03 4.984942752457e-04 0.0 
4.984942752457e-04 6.334427631463e-03 0.0 
0.0 0.0 -1.003151257071e-03 
-2.279098310875e-04 -1.251804773978e-04 0.0 
-1.251804773978e-04 1.119603241316e-03 0.0 
0.0 0.0 -2.040322045631e-04 
-7.855046317287e-04 5.237977796601e-04 0.0 
5.237977796601e-04 5.697841480735e-03 0.0 
0.0 0.0 -9.517466134248e-04 
-1.278300960589e-03 -7.889376224299e-05 0.0 
-7.889376224299e-05 7.564162797006e-03 0.0 
0.0 0.0 -1.155419075730e-03 
-6.039386638838e-04 -9.352834442183e-04 0.0 
-9.352834442183e-04 3.237374525321e-03 0.0 
0.0 0.0 -5.654343806685e-04 
-5.996382576729e-04 -5.078678615237e-04 0.0 
-5.078678615237e-04 4.794693511813e-03 0.0 
0.0 0.0 -8.420324705410e-04 
-1.153622144798e-03 3.409444967982e-04 0.0 
3.409444967982e-04 6.992756961225e-03 0.0 
0.0 0.0 -1.063653581392e-03 
-6.588103306477e-04 3.969496556601e-04 0.0 
3.969496556601e-04 3.002666315313e-03 0.0 
0.0 0.0 -4.839843007303e-04 
-6.880791710433e-04 -4.312562534369e-04 0.0 
-4.312562534369e-04 5.283404868934e-03 0.0 
0.0 0.0 -9.074658271045e-04 
-1.060052777402e-03 4.844888623504e-04 0.0 
4.844888623504e-04 6.770757776904e-03 0.0 
0.0 0.0 -1.067288052377e-03 
-7.837482685475e-04 4.743739920089e-04 0.0 
4.743739920089e-04 5.847117456295e-03 0.0 
0.0 0.0 -9.801762873724e-04 
-5.364910550697e-04 4.803545642860e-04 0.0 
4.803545642860e-04 4.747968314780e-03 0.0 
0.0 0.0 -8.455731917576e-04 
-7.785051872343e-04 -3.658858697108e-04 0.0 
-3.658858697108e-04 5.776530662371e-03 0.0 
0.0 0.0 -9.738262179588e-04 
-6.715128569437e-04 5.603668306290e-04 0.0 
5.603668306290e-04 3.116619739403e-03 0.0 
0.0 0.0 -5.057041985798e-04 
-6.174255134183e-04 -7.382519752092e-04 0.0 
-7.382519752092e-04 2.524949954393e-03 0.0 
0.0 0.0 -4.238464704258e-04 
-5.725994882734e-04 -6.885730532868e-04 0.0 
-6.885730532868e-04 2.123374709043e-03 0.0 
0.0 0.0 -3.586180353125e-04 
-1.087968519769e-04 -3.894502741245e-04 0.0 
-3.894502741245e-04 2.894305128247e-03 0.0 
0.0 0.0 -6.294631353604e-04 
-1.113989301634e-03 4.730580331504e-04 0.0 
4.730580331504e-04 7.064599777148e-03 0.0 
0.0 0.0 -1.103081964739e-03 
-2.909493422495e-04 -6.727813062534e-05 0.0 
-6.727813062534e-05 1.456560370235e-03 0.0 
0.0 0.0 -2.521214004998e-04 
-1.130223577437e-03 3.874695664211e-04 0.0 
3.874695664211e-04 6.879711460710e-03 0.0 
0.0 0.0 -1.054898413167e-03 
-4.747914815808e-04 -7.007316897934e-04 0.0 
-7.007316897934e-04 1.510403036883e-03 0.0 
0.0 0.0 -2.740243446916e-04 
-1.059034309075e-04 -6.476895754937e-04 0.0 
-6.476895754937e-04 2.671993736935e-03 0.0 
0.0 0.0 -5.935709857392e-04 
-8.832674525435e-04 3.712236152595e-04 0.0 
3.712236152595e-04 6.508434955568e-03 0.0 
0.0 0.0 -1.077081564483e-03 
-1.023005590377e-03 -4.065847446542e-05 0.0 
-4.065847446542e-05 6.235882102629e-03 0.0 
0.0 0.0 -9.315431351609e-04 
-2.271455064543e-04 -7.649077538712e-04 0.0 
-7.649077538712e-04 3.005124294304e-03 0.0 
0.0 0.0 -6.211106552582e-04 
-5.539372237771e-04 -2.705347043382e-05 0.0 
-2.705347043382e-05 2.503628127068e-03 0.0 
0.0 0.0 -3.989951351066e-04 
-2.711318037513e-04 -9.555117866304e-04 0.0 
-9.555117866304e-04 2.849172517321e-03 0.0 
0.0 0.0 -5.850331209179e-04 
-6.241921201683e-04 4.180601427792e-04 0.0 
4.180601427792e-04 5.227484326245e-03 0.0 
0.0 0.0 -9.098959706900e-04 
-3.942802621189e-04 -9.538191986641e-04 0.0 
-9.538191986641e-04 3.188718869022e-03 0.0 
0.0 0.0 -6.124823626799e-04 
-4.550624226044e-04 -1.036578340992e-03 0.0 
-1.036578340992e-03 3.064317854104e-03 0.0 
0.0 0.0 -5.760838601101e-04 
-1.286542940212e-03 9.779925010804e-05 0.0 
9.779925010804e-05 8.362389009926e-03 0.0 
0.0 0.0 -1.242975171717e-03 
-5.556616817437e-04 -9.487474711726e-04 0.0 
-9.487474711726e-04 3.373317672553e-03 0.0 
0.0 0.0 -6.030381679152e-04 
-1.312957018488e-03 1.762534641485e-05 0.0 
1.762534641485e-05 8.791531742823e-03 0.0 
0.0 0.0 -1.305370344976e-03 
-1.342889913941e-03 -8.887845541572e-05 0.0 
-8.887845541572e-05 8.517788746463e-03 0.0 
0.0 0.0 -1.298405437673e-03 
-9.001399359898e-04 -3.115200366471e-05 0.0 
-3.115200366471e-05 5.327299192951e-03 0.0 
0.0 0.0 -7.997855503562e-04 
-6.119585369169e-04 5.319683456807e-04 0.0 
5.319683456807e-04 2.524442221547e-03 0.0 
0.0 0.0 -4.121418992062e-04 
0.0 0.0 0.0 
0.0 0.0 0.0 
0.0 0.0 0.0 
-6.013216908629e-04 7.353591052882e-04 0.0 
7.353591052882e-04 2.570270979253e-03 0.0 
0.0 0.0 -4.369243393394e-04 
-5.755877201232e-04 -1.006492197580e-03 0.0 
-1.006492197580e-03 2.831071537896e-03 0.0 
0.0 0.0 -5.013603847490e-04 
-1.101076468124e-03 4.427543157598e-04 0.0 
4.427543157598e-04 6.753747619027e-03 0.0 
0.0 0.0 -1.045752072333e-03 
-9.001350944238e-04 1.690426372956e-05 0.0 
1.690426372956e-05 5.335483219367e-03 0.0 
0.0 0.0 -8.029817139903e-04 
-6.111138971153e-04 -8.912307338130e-04 0.0 
-8.912307338130e-04 2.695444832232e-03 0.0 
0.0 0.0 -4.630712860745e-04 
-1.275916597091e-03 4.598087248478e-04 0.0 
4.598087248478e-04 8.197933557976e-03 0.0 
0.0 0.0 -1.250093291501e-03 
-1.277155987315e-03 4.247176035906e-04 0.0 
4.247176035906e-04 8.290214574666e-03 0.0 
0.0 0.0 -1.306737725957e-03 
-1.108220863065e-03 9.376951406301e-06 0.0 
9.376951406301e-06 6.884195681395e-03 0.0 
0.0 0.0 -1.028769680629e-03 
-9.736500693663e-04 5.157775084853e-05 0.0 
5.157775084853e-05 6.985202160712e-03 0.0 
0.0 0.0 -1.152835590205e-03 
-7.921204258207e-04 4.078698397503e-04 0.0 
4.078698397503e-04 6.023879636983e-03 0.0 
0.0 0.0 -1.010595862668e-03 
-1.241857793517e-03 -4.299570159508e-06 0.0 
-4.299570159508e-06 7.958618347353e-03 0.0 
0.0 0.0 -1.185717314024e-03 
-8.475222208266e-04 -3.781329079989e-05 0.0 
-3.781329079989e-05 4.928212699674e-03 0.0 
0.0 0.0 -7.451086181774e-04 
-1.664286133127e-04 -2.725892507630e-04 0.0 
-2.725892507630e-04 6.325537652716e-04 0.0 
0.0 0.0 -1.414044378648e-04 
-1.183800202695e-03 -4.172593709851e-05 0.0 
-4.172593709851e-05 6.467154125527e-03 0.0 
0.0 0.0 -9.879584850274e-04 
-5.708971627680e-04 6.741264129118e-04 0.0 
6.741264129118e-04 2.024843560255e-03 0.0 
0.0 0.0 -3.437331075899e-04 
-5.495900722021e-04 1.011381174664e-03 0.0 
1.011381174664e-03 1.944401710747e-03 0.0 
0.0 0.0 -3.524505972177e-04 
-2.853835512823e-04 1.205712139992e-03 0.0 
1.205712139992e-03 1.304597058130e-03 0.0 
0.0 0.0 -3.593644486456e-04 
-7.020460695734e-04 -1.440442927613e-04 0.0 
-1.440442927613e-04 3.119459023260e-03 0.0 
0.0 0.0 -4.856826860430e-04 
-8.782495870591e-05 -9.084916110393e-04 0.0 
-9.084916110393e-04 7.572036747300e-04 0.0 
0.0 0.0 -2.846511604759e-04 
-4.893890858810e-04 8.969022950391e-04 0.0 
8.969022950391e-04 1.589417859757e-03 0.0 
0.0 0.0 -3.076864852448e-04 
-1.137014357475e-03 7.152136645660e-05 0.0 
7.152136645660e-05 7.697731072351e-03 0.0 
0.0 0.0 -1.245112051941e-03 
-9.139609418570e-04 1.641183808410e-05 0.0 
1.641183808410e-05 5.327038428336e-03 0.0 
0.0 0.0 -8.050116406322e-04 
-9.540345071131e-04 3.841934886618e-04 0.0 
3.841934886618e-04 6.790550876670e-03 0.0 
0.0 0.0 -1.110409235593e-03 
-1.902162665021e-04 9.339845454039e-04 0.0 
9.339845454039e-04 9.942126500714e-04 0.0 
0.0 0.0 -3.261355004832e-04 
-1.296828862309e-03 2.341461600450e-04 0.0 
2.341461600450e-04 8.351041898143e-03 0.0 
0.0 0.0 -1.247366155457e-03 
-1.168645139073e-03 3.735588726833e-04 0.0 
3.735588726833e-04 7.817174461527e-03 0.0 
0.0 0.0 -1.246608778627e-03 
-1.314967464086e-03 -3.318256949741e-04 0.0 
-3.318256949741e-04 8.403481236488e-03 0.0 
0.0 0.0 -1.306249356034e-03 
-1.050201848033e-03 3.696451559178e-04 0.0 
3.696451559178e-04 7.268871172990e-03 0.0 
0.0 0.0 -1.176371721005e-03 
6.114555871551e-05 1.042784162236e-03 0.0 
1.042784162236e-03 5.736687994652e-04 0.0 
0.0 0.0 -2.720632963632e-04 
-9.766098877979e-04 1.041630930997e-04 0.0 
1.041630930997e-04 5.685157012225e-03 0.0 
0.0 0.0 -8.603500797662e-04 
-1.246724541881e-03 4.866961176123e-04 0.0 
4.866961176123e-04 8.045633532487e-03 0.0 
0.0 0.0 -1.250827372426e-03 
-1.145993633532e-03 3.235835733547e-05 0.0 
3.235835733547e-05 7.250949289083e-03 0.0 
0.0 0.0 -1.080253149739e-03 
-1.318596932855e-03 -2.303003049155e-04 0.0 
-2.303003049155e-04 8.477981163117e-03 0.0 
0.0 0.0 -1.309985050881e-03 
-9.104561560587e-04 8.791536920609e-05 0.0 
8.791536920609e-05 5.249520802984e-03 0.0 
0.0 0.0 -7.979019438933e-04 
-1.287101829326e-03 7.929734908006e-05 0.0 
7.929734908006e-05 8.412586601378e-03 0.0 
0.0 0.0 -1.252774941638e-03 
4.187865149814e-04 -7.886444366699e-04 0.0 
-7.886444366699e-04 6.898920111237e-05 0.0 
0.0 0.0 -2.090467354688e-04 
-1.285197150188e-03 5.312445103222e-05 0.0 
5.312445103222e-05 8.412445019205e-03 0.0 
0.0 0.0 -1.254166199180e-03 
-1.155435508235e-03 4.462044169920e-04 0.0 
4.462044169920e-04 7.190167035892e-03 0.0 
0.0 0.0 -1.110316242656e-03 
-9.785241987209e-04 6.006269753900e-05 0.0 
6.006269753900e-05 5.897359505691e-03 0.0 
0.0 0.0 -8.840149073763e-04 
-9.814056690218e-04 2.078101741112e-04 0.0 
2.078101741112e-04 5.639397818750e-03 0.0 
0.0 0.0 -8.570326279659e-04 
-1.319590243869e-03 -1.168373964399e-04 0.0 
-1.168373964399e-04 8.200864803592e-03 0.0 
0.0 0.0 -1.256337174517e-03 
-1.298927049123e-03 3.872456439500e-04 0.0 
3.872456439500e-04 8.256979916972e-03 0.0 
0.0 0.0 -1.249505442739e-03 
1.588810044440e-04 6.739000714330e-04 0.0 
6.739000714330e-04 2.144145137498e-04 0.0 
0.0 0.0 -1.599837935116e-04 
-1.096094038579e-03 6.855172835755e-05 0.0 
6.855172835755e-05 6.864639960432e-03 0.0 
0.0 0.0 -1.024357608964e-03 
-8.327401503038e-04 -2.617825635292e-04 0.0 
-2.617825635292e-04 3.865808984588e-03 0.0 
0.0 0.0 -5.984289768806e-04 
4.595402762325e-05 -8.016720020432e-05 0.0 
-8.016720020432e-05 3.015012832339e-06 0.0 
0.0 0.0 -2.098673162382e-05 
-1.235862100260e-03 -2.625570613708e-04 0.0 
-2.625570613708e-04 7.934382526740e-03 0.0 
0.0 0.0 -1.249521112489e-03 
-1.211535382329e-03 4.565569816846e-04 0.0 
4.565569816846e-04 7.603855218494e-03 0.0 
0.0 0.0 -1.172189067419e-03 
-1.321360973485e-03 -1.598454139055e-04 0.0 
-1.598454139055e-04 8.157812717265e-03 0.0 
0.0 0.0 -1.251863004148e-03 
-1.704574328015e-04 2.300128264431e-05 0.0 
2.300128264431e-05 1.030856563870e-03 0.0 
0.0 0.0 -1.953152674555e-04 
-1.117901966883e-04 -9.482210033707e-05 0.0 
-9.482210033707e-05 5.817955991869e-04 0.0 
0.0 0.0 -1.292073282250e-04 
-1.214101423412e-03 -2.486194593532e-04 0.0 
-2.486194593532e-04 7.945028851660e-03 0.0 
0.0 0.0 -1.258522865334e-03 
-1.271219324857e-03 4.971693506933e-04 0.0 
4.971693506933e-04 8.177840067003e-03 0.0 
0.0 0.0 -1.257106814994e-03 
2.594232538172e-04 -1.339851872499e-03 0.0 
-1.339851872499e-03 5.141638941498e-04 0.0 
0.0 0.0 -3.217126346404e-04 
-1.334345376368e-03 2.157790183718e-04 0.0 
2.157790183718e-04 8.827191171129e-03 0.0 
0.0 0.0 -1.314710167832e-03 
5.758992691219e-05 1.629967515181e-04 0.0 
1.629967515181e-04 3.408863824387e-05 0.0 
0.0 0.0 -3.929081363831e-05 
-8.415723991859e-04 3.409357994461e-05 0.0 
3.409357994461e-05 4.862419417103e-03 0.0 
0.0 0.0 -7.389643750272e-04 
-5.632071603276e-05 -7.908255579780e-05 0.0 
-7.908255579780e-05 5.951715054384e-04 0.0 
0.0 0.0 -1.313337839019e-04 
-1.324427323831e-03 -2.984557275517e-04 0.0 
-2.984557275517e-04 8.505668996389e-03 0.0 
0.0 0.0 -1.308531455474e-03 
-1.300676432775e-03 1.886676363898e-04 0.0 
1.886676363898e-04 8.425576722081e-03 0.0 
0.0 0.0 -1.254845750201e-03 
-8.984019564796e-04 -1.237198133233e-04 0.0 
-1.237198133233e-04 4.265458849472e-03 0.0 
0.0 0.0 -6.564513288157e-04 
-8.888014077326e-04 1.812789084724e-04 0.0 
1.812789084724e-04 4.952376261473e-03 0.0 
0.0 0.0 -7.541421605440e-04 
-6.276097559503e-04 -6.715782605664e-05 0.0 
-6.715782605664e-05 2.832069501594e-03 0.0 
0.0 0.0 -4.426424662127e-04 
-1.151816338705e-03 4.986859032723e-04 0.0 
4.986859032723e-04 7.600283655027e-03 0.0 
0.0 0.0 -1.203498912175e-03 
-2.674740073154e-04 -5.400123392678e-04 0.0 
-5.400123392678e-04 9.299090651865e-04 0.0 
0.0 0.0 -2.264474151299e-04 
-1.303841109802e-03 1.085882883771e-04 0.0 
1.085882883771e-04 8.492357544012e-03 0.0 
0.0 0.0 -1.260296891839e-03 
-1.191687690371e-03 -1.792572912051e-04 0.0 
-1.792572912051e-04 7.902409115589e-03 0.0 
0.0 0.0 -1.261416966621e-03 
-1.308215205254e-03 3.369873735607e-04 0.0 
3.369873735607e-04 8.413847692259e-03 0.0 
0.0 0.0 -1.260618436842e-03 
-1.275370929010e-03 2.203297067690e-04 0.0 
2.203297067690e-04 8.294911698725e-03 0.0 
0.0 0.0 -1.317725628150e-03 
1.222313271004e-05 1.128127362180e-05 0.0 
1.128127362180e-05 -2.314647535049e-06 0.0 
0.0 0.0 -4.246493646427e-06 
-1.211818034300e-03 4.006014363556e-04 0.0 
4.006014363556e-04 7.983414665776e-03 0.0 
0.0 0.0 -1.263090216482e-03 
-1.073154055867e-03 -5.044780342709e-05 0.0 
-5.044780342709e-05 7.404491594172e-03 0.0 
0.0 0.0 -1.202239909569e-03 
-8.482969471247e-04 5.756566432870e-05 0.0 
5.756566432870e-05 4.934073378721e-03 0.0 
0.0 0.0 -7.439744481034e-04 
-1.294789794099e-03 4.128632800208e-04 0.0 
4.128632800208e-04 8.301439097425e-03 0.0 
0.0 0.0 -1.252574368527e-03 
-7.632240259174e-04 -1.247615584578e-04 0.0 
-1.247615584578e-04 3.481612275262e-03 0.0 
0.0 0.0 -5.383891422301e-04 
-3.003096040968e-04 -1.615487937268e-04 0.0 
-1.615487937268e-04 1.430206630076e-03 0.0 
0.0 0.0 -2.492021827984e-04 
-1.313629829914e-03 -1.230146382652e-05 0.0 
-1.230146382652e-05 8.822541585775e-03 0.0 
0.0 0.0 -1.313490227100e-03 
3.512651625883e-04 2.496523614618e-05 0.0 
2.496523614618e-05 9.331964126241e-05 0.0 
0.0 0.0 -1.176723970536e-04 
-8.447146323437e-04 -2.046082411215e-05 0.0 
-2.046082411215e-05 4.909462012842e-03 0.0 
0.0 0.0 -7.402411036050e-04 
-1.348085845692e-03 2.530918264864e-06 0.0 
2.530918264864e-06 8.606464988216e-03 0.0 
0.0 0.0 -1.313492844077e-03 
-2.497229854947e-04 -6.189559134780e-05 0.0 
-6.189559134780e-05 1.337406434444e-03 0.0 
0.0 0.0 -2.401910970207e-04 
-9.421911629794e-04 -1.661669992897e-05 0.0 
-1.661669992897e-05 5.655702660019e-03 0.0 
0.0 0.0 -8.489638187885e-04 
-1.276280445523e-03 4.696432845470e-04 0.0 
4.696432845470e-04 8.231682282445e-03 0.0 
0.0 0.0 -1.260211869575e-03 
-1.042131282941e-03 -3.353944901092e-05 0.0 
-3.353944901092e-05 5.231045184564e-03 0.0 
0.0 0.0 -7.986629621775e-04 
-1.208709146256e-03 -3.512840286861e-05 0.0 
-3.512840286861e-05 7.690123470060e-03 0.0 
0.0 0.0 -1.148445367820e-03 
-1.362273016930e-05 -1.182361291552e-03 0.0 
-1.182361291552e-03 7.884965128820e-04 0.0 
0.0 0.0 -3.320887640197e-04 
0.0 0.0 0.0 
0.0 0.0 0.0 
0.0 0.0 0.0 
-1.052359765526e-03 -2.552934865100e-05 0.0 
-2.552934865100e-05 6.469023319650e-03 0.0 
0.0 0.0 -9.668795991591e-04 
-1.182130655930e-03 3.563594059290e-04 0.0 
3.563594059290e-04 7.870829341615e-03 0.0 
0.0 0.0 -1.258714341260e-03 
-1.311624000118e-03 2.599452204782e-04 0.0 
2.599452204782e-04 8.471619375797e-03 0.0 
0.0 0.0 -1.263997700767e-03 
-1.012178473530e-03 6.922432419418e-05 0.0 
6.922432419418e-05 6.158161253950e-03 0.0 
0.0 0.0 -9.199601189493e-04 
2.647470927745e-04 7.455276449397e-04 0.0 
7.455276449397e-04 1.486685304712e-04 0.0 
0.0 0.0 -1.771781242482e-04 
-1.250478637346e-03 4.824320061321e-04 0.0 
4.824320061321e-04 7.958988352162e-03 0.0 
0.0 0.0 -1.221038716794e-03 
-9.320485300336e-04 -1.667751956757e-04 0.0 
-1.667751956757e-04 4.597200132756e-03 0.0 
0.0 0.0 -7.060606045914e-04 
-1.200656783891e-03 4.721645169611e-04 0.0 
4.721645169611e-04 7.751960834764e-03 0.0 
0.0 0.0 -1.208939113964e-03 
-1.070653970758e-03 3.740030437558e-05 0.0 
3.740030437558e-05 7.401065294209e-03 0.0 
0.0 0.0 -1.203806565432e-03 
-4.382349502779e-06 1.615558012311e-04 0.0 
1.615558012311e-04 1.936543357770e-05 0.0 
0.0 0.0 -6.421321746397e-06 
-1.092227246100e-03 -1.750499239164e-05 0.0 
-1.750499239164e-05 5.615262148534e-03 0.0 
0.0 0.0 -8.562696210230e-04 
-5.708960077967e-05 -1.112001135559e-04 0.0 
-1.112001135559e-04 5.586929987395e-04 0.0 
0.0 0.0 -1.274563633148e-04 
-1.286136249812e-03 -3.205909886145e-04 0.0 
-3.205909886145e-04 8.133690929480e-03 0.0 
0.0 0.0 -1.263714160583e-03 
-9.761535132734e-04 -1.267872809360e-04 0.0 
-1.267872809360e-04 4.804162128704e-03 0.0 
0.0 0.0 -7.344436328926e-04 
-5.233326992396e-04 3.155308768923e-04 0.0 
3.155308768923e-04 2.400097194089e-03 0.0 
0.0 0.0 -3.871302953797e-04 
-4.643532723477e-04 -6.847349416375e-06 0.0 
-6.847349416375e-06 2.429348412629e-03 0.0 
0.0 0.0 -3.933333333333e-04 
-5.880460427890e-04 2.259415376055e-04 0.0 
2.259415376055e-04 2.861994469718e-03 0.0 
0.0 0.0 -4.526870748299e-04 
-5.389667577120e-04 -6.804025262557e-06 0.0 
-6.804025262557e-06 2.978462680921e-03 0.0 
0.0 0.0 -4.600000000000e-04 
-6.473050156334e-04 1.727942626416e-04 0.0 
1.727942626416e-04 3.336717154907e-03 0.0 
0.0 0.0 -5.192176870747e-04 
-6.144712139930e-04 -6.417158408879e-06 0.0 
-6.417158408879e-06 3.367933189460e-03 0.0 
0.0 0.0 -5.266666666667e-04 
-7.109436799071e-04 1.285541719908e-04 0.0 
1.285541719908e-04 3.807150921548e-03 0.0 
0.0 0.0 -5.860204081633e-04 
-6.853888581673e-04 6.201834011282e-06 0.0 
6.201834011282e-06 3.914136364457e-03 0.0 
0.0 0.0 -5.933333333333e-04 
-7.741251423872e-04 1.050422606297e-04 0.0 
1.050422606297e-04 4.286196800977e-03 0.0 
0.0 0.0 -6.525251918948e-04 
-7.681459693767e-04 3.705640173290e-05 0.0 
3.705640173290e-05 4.300928271438e-03 0.0 
0.0 0.0 -6.600000000000e-04 

SCALARS node_materi_plasti_kappa_shear float
LOOKUP_TABLE default
4.018595016637e-04
3.089753889168e-03
5.782851735544e-03
5.918183804685e-03
3.534406101045e-04
5.777185496190e-04
8.655346567894e-04
1.225178696612e-03
1.561289241519e-03
1.871659154863e-03
2.181083715770e-03
2.488964856422e-03
2.787137593187e-03
3.091771098928e-03
3.420472284368e-03
3.710467865470e-03
3.939561491463e-03
4.240577622205e-03
4.533842638206e-03
4.816933074020e-03
5.104668969230e-03
5.391975952764e-03
5.664103688175e-03
5.924781152092e-03
5.917884078783e-03
5.912198488963e-03
5.915363934694e-03
5.905144694759e-03
5.903457440159e-03
5.903348825921e-03
5.903761712110e-03
5.904265203747e-03
5.905318048855e-03
5.891395232290e-03
5.888128140164e-03
5.888680312796e-03
5.877931512601e-03
5.860031142375e-03
5.843163873243e-03
5.826784160533e-03
5.822850206754e-03
5.815960623432e-03
5.800025919692e-03
5.784362356774e-03
5.761776212317e-03
5.737855144386e-03
5.711749137531e-03
5.696108572039e-03
5.671644922162e-03
5.650827538949e-03
5.628366488181e-03
5.614080868870e-03
5.604140386821e-03
5.593036124330e-03
5.565915778014e-03
5.555192109801e-03
5.573004876633e-03
5.580306717995e-03
5.596307166112e-03
5.614091302200e-03
5.629810666475e-03
5.640837494200e-03
5.663093814390e-03
5.686920133380e-03
5.716693701825e-03
5.739758391817e-03
5.726679333637e-03
5.759394314008e-03
5.766547388258e-03
5.773558049937e-03
5.793695355299e-03
5.800384027879e-03
3.373278433029e-03
3.702017582457e-03
4.003145076898e-03
4.293988028575e-03
4.595203178701e-03
4.888984289506e-03
5.184208240141e-03
5.464856448975e-03
5.776378587400e-03
0.0
3.081614032412e-03
4.378618974845e-04
9.313671065223e-04
1.273596264124e-03
1.475817609515e-03
1.677932198029e-03
1.839092757794e-03
2.132793436960e-03
2.435412037652e-03
2.742854806992e-03
1.683739134145e-03
1.848687914648e-03
2.157438038011e-03
2.464376355407e-03
2.763613688910e-03
3.033283060944e-03
3.047551184854e-03
3.052691208087e-03
3.048980415926e-03
3.100970999415e-03
3.055386088564e-03
3.048944342912e-03
3.057111577284e-03
3.066860764030e-03
3.068512091509e-03
3.063486917503e-03
3.060147944086e-03
3.055345893607e-03
3.060924048497e-03
0.0
0.0
0.0
0.0
3.010556392940e-05
1.524327839584e-04
1.995857095858e-04
2.767971837970e-04
3.769179784358e-04
3.253807271213e-04
3.117581124918e-04
3.606568275965e-04
3.857262083461e-04
3.906419353076e-04
3.716692121618e-04
3.690405021818e-04
3.649158742688e-04
3.750961897123e-04
3.938961504005e-04
1.620135908555e-03
1.714044458270e-03
1.724507644853e-03
1.718863527978e-03
1.716927556558e-03
1.713547476568e-03
1.711033232728e-03
1.708581038193e-03
1.707099789443e-03
1.706714244533e-03
1.706557285261e-03
1.706061594387e-03
1.705508089392e-03
1.705014258565e-03
1.704461734929e-03
1.703654159174e-03
1.702618608318e-03
1.701701217951e-03
1.701117932806e-03
1.699951044350e-03
1.674634184561e-03
1.636314444179e-03
1.838274221278e-03
1.827642067065e-03
1.826933390294e-03
1.827334425569e-03
1.828247054489e-03
1.829485851769e-03
1.830712470314e-03
1.831486639508e-03
1.832077787242e-03
1.832953756020e-03
1.833892061319e-03
1.834434545344e-03
1.834261549352e-03
1.835206308822e-03
1.837211607732e-03
1.841012575748e-03
1.841393986030e-03
1.843823439171e-03
1.861376219882e-03
1.784560400915e-03
2.080506824934e-03
2.164948252942e-03
2.154100839180e-03
2.150515564044e-03
2.148527180390e-03
2.146829621685e-03
2.148399684790e-03
2.148269732465e-03
2.147251103362e-03
2.145502430008e-03
2.144742881416e-03
2.144585681651e-03
2.143007155335e-03
2.141326361852e-03
2.140089070988e-03
2.139324946174e-03
2.139237355337e-03
2.141352669433e-03
2.151708895370e-03
2.461087216651e-03
2.449937346399e-03
2.449035342414e-03
2.450513446923e-03
2.450644149295e-03
2.452642955489e-03
2.454778138053e-03
2.455902509536e-03
2.454538383279e-03
2.457438007012e-03
2.459393424546e-03
2.458960398410e-03
2.459214310986e-03
2.454295807747e-03
2.458028484257e-03
2.475695803071e-03
2.389521690566e-03
2.696529334491e-03
2.782001887569e-03
2.769038020761e-03
2.765913210012e-03
2.768177298346e-03
2.769449690573e-03
2.765618434112e-03
2.764713207464e-03
2.764281696244e-03
2.762786239059e-03
2.760748228383e-03
2.759266427299e-03
2.760944420823e-03
2.756978941966e-03
2.764313748951e-03
2.781014989081e-03
3.018422573660e-04
6.987967846243e-04
1.138663496479e-03
1.416159959173e-03
1.577549707534e-03
1.732780224795e-03
2.006286172887e-03
2.301780023271e-03
2.604607703320e-03
2.917242865590e-03
9.738600395069e-04
5.435588587201e-03
2.909988311951e-04
3.769847250244e-05
5.523350165746e-03
1.570944169196e-03
3.259014405966e-03
5.458606763578e-03
1.964336709912e-03
5.566973844380e-03
2.569306611317e-03
5.632953359091e-03
2.974125210141e-04
5.671758588449e-03
3.203440197606e-03
2.038890301765e-03
4.045860618713e-03
5.716180375961e-03
5.780776132195e-03
5.820339983969e-03
5.787783236705e-03
5.807930197893e-03
3.336276229903e-03
3.342041558882e-03
3.361792062102e-03
4.441169448529e-03
5.674307051814e-03
0.0
3.209899088955e-04
4.945795996265e-03
3.327462179656e-03
1.042267579418e-03
5.707024864185e-03
5.532622783008e-03
5.619797893241e-03
5.423578043402e-03
5.471772884167e-03
3.436383270429e-04
3.333005330644e-03
5.529223749367e-03
5.037839075619e-03
2.638587871684e-04
2.642361659730e-03
5.873210275008e-03
1.763677943653e-03
1.340334044123e-03
2.263467496582e-03
2.874799860949e-03
4.354703221414e-04
3.869122312403e-03
5.743109238437e-03
3.285007242827e-04
5.592525333234e-03
3.331816214928e-03
3.445762685372e-03
3.598635432457e-03
3.735913935781e-03
3.890935618439e-03
4.012600674008e-03
3.849474617287e-03
4.126514031565e-03
3.959165169884e-03
4.176038116471e-03
4.235988580970e-03
4.064707878218e-03
4.341402437136e-03
4.167240197337e-03
3.894151677151e-03
3.992834958239e-03
3.721936449487e-03
3.816849981585e-03
4.088667098279e-03
3.907021233887e-03
3.638494610824e-03
3.722863223661e-03
3.459179651477e-03
3.537390187834e-03
3.278134638251e-03
3.349761859775e-03
3.611638012721e-03
3.416809574398e-03
3.159803868816e-03
3.218051688491e-03
2.967054440755e-03
3.013255720382e-03
3.274741419647e-03
3.060407839341e-03
2.799033525006e-03
2.837141687482e-03
2.575225456547e-03
2.604333461748e-03
2.339006943104e-03
2.356936139518e-03
2.652093179226e-03
2.407825459181e-03
2.096105658174e-03
2.161022888783e-03
2.499076110119e-03
2.280206439540e-03
2.629068977315e-03
2.442266900798e-03
2.092139772061e-03
2.292183785287e-03
2.630236405014e-03
2.506325631077e-03
2.190661895186e-03
2.422274426006e-03
2.721982461051e-03
2.641933182030e-03
2.372758104436e-03
2.584384885052e-03
2.850333968712e-03
2.779077813445e-03
2.534557373612e-03
2.709557774217e-03
2.962454448322e-03
2.875190167875e-03
3.136631662821e-03
2.629761375739e-03
2.778979644167e-03
2.533618166994e-03
2.669371918058e-03
3.335780224915e-03
2.417052975495e-03
2.301133563289e-03
2.544153619348e-03
2.809569658580e-03
2.280488059570e-03
2.403129281843e-03
2.126768242516e-03
2.337020972949e-03
4.180692697777e-03
2.249003779132e-03
1.959755581014e-03
1.842529391951e-03
1.658290441270e-03
4.057689887828e-03
4.345234894460e-03
4.214494829484e-03
4.512207963410e-03
4.386116896851e-03
1.781237856866e-03
4.515858041588e-03
4.632785065629e-03
3.375865563346e-03
2.914340702826e-03
2.837997481989e-03
2.532048550751e-03
2.378710134929e-03
2.668313152737e-03
3.233044162886e-03
3.411145406702e-03
3.516648249659e-03
3.695606962541e-03
3.809881520442e-03
3.987932871345e-03
3.868387923180e-03
4.160380401702e-03
4.035401995459e-03
4.109927676280e-03
3.929071965477e-03
4.326541573449e-03
4.196853341751e-03
4.486612097014e-03
4.352559495553e-03
4.065464170358e-03
4.216259007439e-03
3.932665926102e-03
2.974206145827e-03
3.176937453123e-03
3.316135238148e-03
3.514584502752e-03
3.655690360847e-03
3.851432524779e-03
3.992906615051e-03
3.810423676568e-03
4.443438443787e-03
1.828572061533e-03
1.806415762240e-03
1.513365747016e-03
1.563989916259e-03
1.243214007741e-03
1.411260727777e-03
1.087408529277e-03
9.280634857496e-04
7.696745497683e-04
7.727047061156e-04
6.380213861808e-04
9.424950275726e-04
3.683920707972e-03
3.721810168106e-03
4.055539867157e-03
3.931687734683e-03
1.545289606018e-03
4.502587431745e-03
4.237803823005e-03
4.054767645798e-03
4.147689587509e-03
1.469037962723e-03
1.381279309045e-03
1.636872751770e-03
4.676612476866e-03
4.548915297300e-03
4.373011447568e-03
1.596671411329e-03
4.457517107573e-03
6.726180917699e-04
4.361759767158e-03
4.647438517847e-03
3.749070434487e-03
4.262666346844e-03
4.139562493484e-03
1.058263721451e-03
1.328795762681e-03
1.257951778391e-03
1.615059101371e-03
1.617776829754e-03
1.784704992927e-03
1.664404533731e-03
1.851897133188e-03
1.923512677117e-03
1.920863832566e-03
1.732826179112e-03
1.789080397445e-03
4.789640175199e-03
4.933105548269e-04
3.623293427982e-03
4.549397453839e-03
4.326717748868e-03
4.840106465985e-03
4.712783082347e-03
4.418649943636e-03
4.585859736983e-03
4.878747721020e-03
4.750919794657e-03
4.456475978691e-03
4.618929314417e-03
4.321775629010e-03
4.485087669046e-03
4.780485262660e-03
4.648645754832e-03
4.352908180169e-03
4.515438133183e-03
4.218119818909e-03
4.376442562231e-03
4.677698654010e-03
1.280455175298e-03
3.975684030661e-03
4.313430537097e-03
2.531248625096e-03
2.795187276442e-03
2.950421176089e-03
3.091354176801e-03
4.540325048563e-03
4.842133621751e-03
1.627886023255e-03
1.806948227217e-03
4.964897247722e-03
4.505647349825e-03
4.219641279943e-03
2.730984817609e-03
2.680252985846e-03
2.508656173216e-03
2.453261305901e-03
2.619408054872e-03
2.295804407583e-03
3.740263927180e-03
4.943332949813e-03
1.736869985241e-03
1.441819622179e-03
4.792252417499e-03
3.639826983595e-03
3.882064491805e-03
3.960472891563e-03
4.161603615821e-03
4.245857029619e-03
4.449138486875e-03
4.538270851724e-03
4.336412104350e-03
4.467009293726e-03
4.637465802825e-03
4.227760771006e-03
3.603493058884e-03
2.015316274690e-03
1.151528373984e-03
1.494680084950e-03
1.401763515938e-03
1.725734234278e-03
4.692766413527e-03
4.744201478353e-03
4.646812231519e-03
2.391216520205e-03
2.541437442855e-03
4.590954612420e-03
4.090617543142e-03
4.159541705089e-03
4.020881279016e-03
1.028169191453e-03
1.414727337198e-03
5.043491496533e-03
1.828932906125e-03
1.917980713017e-03
4.157180774186e-04
1.730461438410e-04
4.691724722002e-03
4.992960999119e-03
3.232526540781e-03
3.376337074583e-03
4.517813292037e-03
1.573664134280e-03
5.136914764881e-03
3.818178697522e-03
3.485662865048e-03
2.929371560799e-03
1.726704283358e-03
1.445214139705e-03
2.001081890038e-03
1.816948000307e-03
1.537558582793e-03
4.841861112859e-03
5.166500773962e-03
4.432736485775e-03
4.128543821065e-03
4.737743923515e-03
1.242267063270e-03
4.872712079514e-03
4.648563616368e-03
4.934717953700e-03
4.841015803806e-03
1.998284811115e-03
2.023831337705e-03
1.929656289699e-03
2.012827717834e-03
3.685637869250e-03
2.160195855781e-03
3.453630867072e-03
3.353268669804e-03
3.189580292168e-03
2.780580474833e-03
2.697012491619e-03
1.850761695031e-03
3.058179809856e-03
3.092459470665e-03
3.782098167745e-03
3.330348654579e-03
5.071602464651e-03
5.237586080772e-03
4.054791370477e-03
3.911736450825e-03
1.227723328770e-03
1.121568548935e-03
3.305144710569e-03
4.722576138819e-03
5.125546474561e-03
5.249094215458e-03
5.084093944170e-03
4.665047890294e-03
1.576387794071e-03
3.131769936580e-03
4.332121020711e-04
3.548502236301e-03
8.886689387002e-04
4.364114879908e-03
4.929747689709e-03
5.074378233997e-03
4.790835636385e-03
3.303647652991e-03
3.622953727387e-03
3.407028331038e-03
3.087385769992e-03
2.928470296600e-03
3.025957624230e-03
2.770242371404e-03
2.146257545189e-03
2.105072283453e-03
5.074226657025e-03
4.945890381019e-03
5.132442016699e-03
5.036778597884e-03
4.913108523956e-03
4.718978319234e-03
1.854189815065e-03
2.451969709865e-03
5.326205974980e-03
3.245806195750e-03
5.032929921038e-03
4.895632072523e-03
8.703516401930e-05
5.025155932237e-04
5.299729360747e-03
1.862195518962e-03
1.925793576571e-03
1.786850721610e-03
5.508894573325e-03
3.317615670200e-03
5.206554443836e-03
2.947814730022e-03
5.436495255461e-03
3.710224019945e-03
2.542778381884e-03
4.340023150483e-03
5.139724345049e-03
5.473155703650e-03
3.856151046115e-03
3.706636097451e-03
3.986363479487e-03
8.597848081307e-04
4.948557720353e-04
5.105588847389e-03
2.215579397184e-03
2.383580716268e-03
1.610091948116e-03
1.853488942060e-03
3.371371645262e-03
3.226095624709e-03
4.460118615317e-03
4.646317835839e-03
4.077799721507e-03
3.673670130341e-03
3.349970931866e-03
3.156166832522e-03
5.356340387661e-03
5.560199060828e-03
2.148566688317e-03
1.947252295954e-03
2.277219304698e-03
5.452662980312e-03
5.357012637058e-03
5.217066698957e-03
7.819578528788e-04
1.028971749725e-03
1.479365826605e-03
1.088843442230e-03
5.358763484459e-03
5.206986646545e-03
5.554350471510e-03
1.646365469631e-03
4.227084436487e-03
4.981659535795e-03
4.824566320775e-03
5.205837116450e-03
4.665431215243e-03
4.979351549170e-03
5.045785100976e-03
6.553725280392e-06
5.354913579491e-03
3.735880701652e-03
0.0
3.596581939605e-03
3.776236102998e-03
3.431628553560e-03
1.322961065373e-03
3.627378963851e-03
3.821605526455e-03
5.613183195734e-04
5.602994573649e-03
5.605292770001e-04
6.792338181858e-04
5.201033617940e-03
5.054577875215e-03
5.350694268135e-03
5.195925285154e-03
4.911596497334e-03
5.072562886383e-03
3.571136890228e-03
5.391533904623e-03
5.225263310295e-03
5.570873285067e-03
2.672019548462e-03
2.112700823482e-03
2.016942320669e-03
1.807045388934e-03
5.367508392991e-03
5.211741918196e-03
4.791087967570e-03
4.504528282397e-03
3.617380192862e-03
3.592243224651e-03
3.871542763848e-03
3.825760515629e-03
4.113486033420e-03
4.067343757730e-03
4.345783660312e-03
5.267440361509e-03
1.658829135304e-03
2.980180790998e-03
5.045745089381e-03
4.837810433997e-03
2.604840179930e-03
2.359528337880e-03
5.236949940379e-03
2.139698474170e-03
5.776025953178e-03
4.548865527340e-06
9.778909536361e-05
2.339238525722e-03
2.860933532174e-03
2.233233218599e-03
2.157897013088e-03
4.004695448910e-03
9.235095768594e-04
1.682665914814e-03
4.384602592843e-03
1.382892764948e-03
4.658101181556e-03
2.105930324669e-03
3.025966663440e-03
1.860371278765e-03
2.156903041045e-03
3.791766830717e-03
3.575521711054e-03
3.414449332742e-03
2.082739350568e-03
2.302944948856e-03
2.030320299130e-03
3.548903922870e-03
4.919586046203e-03
5.037796762255e-03
5.310613898604e-03
5.154282845663e-03
4.869442501820e-03
4.979196796726e-03
5.263482143390e-03
5.097588445123e-03
5.433286767238e-03
5.203085790594e-03
4.911819673152e-03
5.013424306316e-03
5.289013913456e-03
4.727439554445e-03
5.236156713520e-03
2.555895745055e-03
9.111497954272e-05
4.210174297477e-04
3.201712461661e-03
5.730004135783e-03
5.767445976811e-03
1.691075707631e-03
5.643473628579e-03
3.519780408461e-03
1.047073323882e-03
5.592957634279e-03
4.751520745493e-03
4.579435651060e-03
4.463201836768e-03
5.793236110746e-03
4.123046406902e-03
5.509305537426e-03
3.389446893060e-03
3.279327038173e-03
2.961278145953e-03
4.801619878836e-03
5.436694213567e-03
5.157649565966e-03
5.160321964187e-03
4.861485784401e-03
5.448713258893e-03
5.717599457513e-03
5.706213826985e-03
1.828494135708e-03
1.709398695910e-03
1.898258451700e-03
1.622333472901e-03
1.412743391040e-03
1.316736111381e-03
1.628168335130e-03
1.039665837842e-03
4.929832743955e-03
5.492129088288e-03
3.625564248662e-03
3.432597322909e-03
3.134856267973e-03
2.952066020253e-03
3.078747520708e-03
3.351373813983e-03
2.815770384213e-03
4.041389319165e-03
5.510043080626e-03
3.303884447530e-03
2.928688293770e-03
3.336341398281e-03
3.593836274312e-03
3.598511107039e-03
3.869249033601e-03
3.623805167776e-03
3.516608453604e-03
3.658527646077e-03
3.515347475486e-03
3.794985028764e-03
3.639781273069e-03
3.373627075467e-03
3.921733030934e-03
3.752559113767e-03
3.333440693931e-03
1.541531548536e-04
5.940250931269e-04
7.027142990941e-04
1.021409890230e-03
8.359819815989e-04
1.303920167999e-03
1.039423496534e-03
3.284076278483e-04
3.019271284436e-04
6.566057884129e-04
3.288717913001e-04
5.940028616348e-04
1.062033452019e-03
1.367334253023e-03
5.652286702243e-03
2.938936405259e-03
2.805289880450e-03
2.499233211098e-03
2.662705054473e-03
3.052456379495e-03
2.341669267002e-03
2.236323217213e-03
3.229285700949e-04
4.419598349488e-04
4.410447408450e-04
7.207625795544e-04
7.074768685298e-04
4.420400412776e-04
4.449633113940e-04
3.145644272533e-04
4.504548672275e-04
7.268015370500e-04
3.062409538729e-04
4.745527215494e-03
4.902505264739e-03
5.544916367284e-03
3.368924595429e-03
2.544811655954e-04
5.780998861492e-03
5.813842834379e-03
5.817013326087e-03
5.233971751005e-03
5.365637462079e-03
5.788240472877e-03
2.014050555547e-03
5.434538857935e-03
5.267458791713e-03
1.311421764019e-03
2.008026884127e-03
4.362324178154e-03
3.910057017267e-03
4.933262515921e-03
4.079022426720e-03
4.641099795521e-03
5.158355521769e-03
1.213464950072e-03
4.185417172818e-03
4.076798602367e-03
4.811798339392e-03
2.086149546152e-03
3.238993663622e-03
1.348867022610e-03
5.359250132040e-03
3.285416912687e-03
3.046769336548e-03
2.677719312106e-03
2.168475210699e-03
1.957305737071e-03
2.768223087164e-03
3.036664388310e-03
4.286179880856e-03
4.975421168353e-03
3.166773246265e-04
4.414552831620e-03
3.582806630633e-03
4.292263749295e-03
4.187531334710e-03
1.624964030413e-03
4.913094015127e-03
5.399859365631e-03
3.948537402346e-03
1.019982226970e-03
3.882948642930e-03
5.011342776407e-03
4.799927772923e-03
1.909455734444e-03
2.789026983488e-03
3.096861197051e-03
3.026441214717e-03
5.391810110936e-03
3.115333052867e-03
4.488935570888e-03
3.471918703045e-03
2.042934957486e-03
4.758450757248e-03
2.730164700611e-03
5.205251802628e-03
4.359423513210e-03
1.928746000249e-03
5.001431347950e-03
2.931441338209e-03
4.390043822392e-03
3.117148399214e-03
3.803735016467e-03
4.266483966727e-03
3.482072113493e-03
4.216350577803e-03
4.589726999369e-03
7.822158450211e-04
2.336975079915e-03
4.252864040516e-03
4.830810690924e-03
5.492998307562e-03
2.853919931406e-03
4.620197000946e-03
5.283300374483e-03
3.195345026289e-03
1.407849422888e-03
1.052568637253e-03
1.231938885888e-03
2.888387059379e-03
3.468984859371e-03
5.520066455693e-03
4.776767016044e-03
4.191097730844e-03
7.054263323161e-04
3.137270481220e-03
4.930209733183e-03
2.967745864271e-03
4.518076980286e-03
3.471719766141e-03
5.320909655121e-03
2.513659337608e-03
5.087932046227e-03
4.157539429139e-03
1.929448282595e-03
3.328255837959e-03
5.415880323612e-03
4.493880815661e-03
3.756679585458e-03
2.829619919497e-03
2.715238429679e-03
3.628276273171e-03
3.993174405771e-03
5.804322562982e-03
4.644362204700e-03
4.291233033703e-03
3.502523749532e-03
3.813462889229e-03
7.047390220056e-04
2.825859966298e-03
3.651715310585e-03
1.384942781952e-03
3.032571676708e-03
5.114951343620e-03
3.797843583975e-03
1.739058177563e-03
3.939088055833e-03
2.408697712716e-03
4.407302233334e-03
4.073717321279e-03
4.269608694399e-03
7.894202949830e-04
3.833002126981e-03
5.075427847675e-03
2.404246341971e-03
3.233663163957e-03
4.694223929722e-03
2.107126776239e-03
3.545482769992e-03
4.553232214609e-03
3.920507140127e-03
3.187539066147e-03
3.865534957540e-03
2.217505343363e-03
1.917452006600e-03
1.657786857477e-03
1.956380160446e-03
4.746672213180e-03
1.005389459169e-03
4.623386601130e-03
1.307883538802e-03
1.891532021104e-03
4.345633367675e-03
4.169109331877e-03
2.143128441899e-03
1.729669733719e-03
2.136474112095e-03
3.495395175694e-03
2.347008504077e-03
2.321698774103e-03
5.562109209316e-03
2.479278600157e-03
5.832033053261e-03
5.683459550606e-03
3.569571471478e-03
1.841669118824e-03
0.0
1.939425135395e-03
2.198379986357e-03
4.544915456455e-03
3.572687871249e-03
2.077081277084e-03
5.482725273702e-03
5.548817509372e-03
4.594253848124e-03
4.650854355195e-03
4.026711817750e-03
5.298348689818e-03
3.310673635212e-03
5.319704039765e-04
4.366888493405e-03
1.596020396402e-03
1.727925572495e-03
1.537504339033e-03
2.155926239816e-03
1.066640011348e-03
1.470469770676e-03
5.133441966827e-03
3.576035110635e-03
4.538549050418e-03
1.190734353883e-03
5.563426082931e-03
5.226029974003e-03
5.618784336637e-03
4.858869215134e-03
1.131768423013e-03
3.817527287724e-03
5.388671225134e-03
4.831755994392e-03
5.661150035348e-03
3.527768805689e-03
5.594510040717e-03
8.645247776374e-04
5.592056671628e-03
4.830647828208e-03
3.948871847594e-03
3.795468355754e-03
5.483498521481e-03
5.518494078473e-03
7.078378622743e-04
4.578727725803e-03
2.665021533502e-03
8.704557035289e-05
5.306855478618e-03
5.101857700586e-03
5.457161495010e-03
7.154962728763e-04
4.367291898862e-04
5.308036467256e-03
5.475077044311e-03
1.415797628064e-03
5.866481278788e-03
1.720779943565e-04
3.266292359391e-03
4.330017662913e-04
5.682371966829e-03
5.607182569852e-03
2.919687531898e-03
3.339776257796e-03
1.951427265437e-03
5.094079203513e-03
8.720869757284e-04
5.646101319162e-03
5.274827266557e-03
5.610655463052e-03
5.543108792546e-03
1.443335536965e-05
5.340000167234e-03
4.934198621273e-03
3.315096198721e-03
5.545224744200e-03
2.394333441960e-03
1.003430899199e-03
5.853061777030e-03
3.539454610573e-04
3.294611847679e-03
5.738597030996e-03
9.205396441291e-04
3.785517905279e-03
5.505285211453e-03
3.560630679607e-03
5.121626185149e-03
1.319457347623e-03
0.0
4.321439572445e-03
5.262500811899e-03
5.642111831980e-03
4.116674015646e-03
7.838175614556e-04
5.331973850864e-03
3.136604846599e-03
5.194131730829e-03
4.931303994474e-03
1.636985586391e-04
3.813324024854e-03
4.130724803800e-04
5.442551602023e-03
3.274124271133e-03
1.682543119024e-03
1.670388510905e-03
1.968639986938e-03
2.024811344556e-03
2.272195221506e-03
2.288799502470e-03
2.577527492663e-03
2.642045162662e-03
2.890176481776e-03
2.907269203429e-03

SCALARS node_materi_plasti_phimob float
LOOKUP_TABLE default
1.948826802683e+01
9.655840876179e+00
2.057754503926e+01
1.941725510350e+01
-2.810096197775e+01
-2.809657432559e+00
5.152803636873e+00
9.720892361693e+00
1.240571075704e+01
1.416082209626e+01
1.554248827827e+01
1.667061837505e+01
1.756968436902e+01
1.833802148269e+01
1.898948424803e+01
1.939480932216e+01
1.967338660257e+01
1.997842161296e+01
2.019127321434e+01
2.033591966971e+01
2.044570831053e+01
2.052506441809e+01
2.056754294666e+01
1.944329295677e+01
1.943738438149e+01
1.944541306384e+01
1.945476905474e+01
1.944743603007e+01
1.946872396027e+01
1.947772652645e+01
1.950695615744e+01
1.954086267957e+01
1.957760882801e+01
1.959805659768e+01
1.966005175768e+01
1.971378733077e+01
1.979018593847e+01
1.984868844149e+01
1.993382439754e+01
2.002010070378e+01
2.012101961783e+01
2.025813023744e+01
2.041517268749e+01
2.055274902972e+01
2.064371764186e+01
2.077381566249e+01
2.086751285453e+01
2.094023328109e+01
2.098747417242e+01
2.104315897422e+01
2.104749649014e+01
2.106078531602e+01
2.102201757480e+01
2.102873243257e+01
2.101011570444e+01
2.096553582218e+01
2.092919502016e+01
2.089304935293e+01
2.084913417799e+01
2.081910354403e+01
2.078580628872e+01
2.075781656877e+01
2.073581697620e+01
2.070312704660e+01
2.066461208340e+01
2.064084061424e+01
2.065458748691e+01
2.060617983470e+01
2.061112214494e+01
2.059717616057e+01
2.058976793414e+01
2.059052908233e+01
1.198305368295e+01
1.370313519080e+01
1.498865895934e+01
1.599438049991e+01
1.684280721110e+01
1.753998508884e+01
1.814861874750e+01
1.867541612186e+01
1.913929419488e+01
1.609846917498e+01
9.124061616605e+00
2.983729993344e+01
2.346106485208e+01
1.955309077076e+01
1.449753083038e+01
-1.696709330203e+00
-1.558733309507e+01
-6.840491928907e+00
6.745438993358e-01
5.649587851245e+00
-4.463109199286e+01
-3.113754219804e+01
-1.028865344294e+01
4.010604044912e-01
6.020608166929e+00
9.226473151271e+00
9.357986383329e+00
9.354465230495e+00
9.298164779869e+00
9.599490655601e+00
9.260164880791e+00
9.176655017927e+00
9.159974669484e+00
9.165042984782e+00
9.102677210334e+00
9.025817608614e+00
8.965296303050e+00
8.925369768647e+00
8.951147197208e+00
9.067947898733e+00
7.143700998673e+00
7.616943547860e+00
8.928197902280e+00
8.614483191094e+00
-7.154638110526e+00
-3.774549856585e+01
-3.277516367194e+00
4.147472770054e+01
-9.374843170717e+00
-5.973821649449e+01
-5.812026816217e+01
-7.817581828798e+00
4.109926475102e+01
4.136127438010e+01
8.999999999681e+01
8.998423381620e+01
8.966026640010e+01
8.956078790371e+01
-3.317455932292e+01
-4.415606757748e+01
-4.930321197757e+01
-5.319304409329e+01
-5.427320185071e+01
-5.482247734364e+01
-5.478661656351e+01
-5.476130484034e+01
-5.458528265100e+01
-5.433485820917e+01
-5.380979760110e+01
-5.269155100180e+01
-5.116584539346e+01
-4.972277533129e+01
-4.847079946856e+01
-4.741142576993e+01
-4.654412522912e+01
-4.588048741860e+01
-4.543256362692e+01
-4.521254710206e+01
-4.503023112453e+01
-4.479947749497e+01
-3.080208484974e+01
-3.163142781549e+01
-3.180500975538e+01
-3.196145719136e+01
-3.217414567045e+01
-3.245546941256e+01
-3.280693949595e+01
-3.322682642559e+01
-3.370929895956e+01
-3.424383086783e+01
-3.477224938200e+01
-3.508776686642e+01
-3.527304381933e+01
-3.537055624163e+01
-3.539570214586e+01
-3.530718710588e+01
-3.502382874257e+01
-3.397245076157e+01
-2.945465371815e+01
-2.864199837688e+01
-1.064266569748e+01
-9.396320333626e+00
-1.055228858961e+01
-1.074100171307e+01
-1.078254331267e+01
-1.082894978322e+01
-1.083325585012e+01
-1.085552163007e+01
-1.089120862544e+01
-1.093428085705e+01
-1.096846798094e+01
-1.099320035089e+01
-1.102550190830e+01
-1.106196348186e+01
-1.109589258780e+01
-1.113069599475e+01
-1.113990272950e+01
-1.090320658914e+01
-1.020304106773e+01
1.531582754085e-01
8.846147502964e-02
7.543467005274e-02
7.978797214971e-02
7.415055296486e-02
7.400850143954e-02
7.299559317896e-02
5.717450706295e-02
2.880869781015e-02
2.399352516726e-02
8.238168255660e-03
-2.593080412718e-02
-5.976883440321e-02
-1.101991554444e-01
-6.570345560754e-02
4.229669486179e-01
-6.195866769928e-01
5.025381992675e+00
5.739072206658e+00
5.523575152373e+00
5.548151065130e+00
5.604404849527e+00
5.661103372921e+00
5.690303737476e+00
5.730778920398e+00
5.779879642542e+00
5.810873603159e+00
5.834902921250e+00
5.857362270992e+00
5.887104297855e+00
5.893093367222e+00
5.978655044504e+00
6.130107068804e+00
3.250803660871e+01
2.623248516562e+01
2.111175628217e+01
1.699142567487e+01
1.328810899965e+01
-1.123433111922e+01
-9.639533248704e+00
-1.879076602020e+00
3.901291305494e+00
7.782807676959e+00
2.329338925151e+01
2.130840244455e+01
-1.388608770819e+01
1.203861302327e+01
2.103441864243e+01
1.634607240369e+01
1.871268195965e+01
2.132788466727e+01
-1.051804225417e-01
2.095901251765e+01
4.261286202657e+00
2.075884713990e+01
-1.443860302535e+01
2.027435644682e+01
1.028800138617e+01
1.495320871265e+01
1.983414180860e+01
1.975500191642e+01
1.945887370505e+01
1.924946047788e+01
1.922102881310e+01
1.934567092338e+01
1.116870306151e+01
1.134029253136e+01
1.161373743198e+01
1.643781729455e+01
2.065110606927e+01
1.094328572311e+01
3.641498526485e+01
2.040237105569e+01
1.152939213415e+01
7.722876815812e+00
1.949803273684e+01
2.117932364966e+01
2.064608471982e+01
2.140544271466e+01
2.119469034207e+01
-8.483425380443e+00
1.116423124245e+01
2.094381877863e+01
1.785082796159e+01
-3.898936321885e+01
1.717142574767e+01
1.930805597705e+01
1.151184692437e+01
1.998497973722e+01
5.283480751856e-01
7.636498523839e+00
2.950163796999e+01
1.447175646225e+01
2.061273949064e+01
3.542492573667e+01
1.889002716112e+01
1.125583623093e+01
1.217450377139e+01
1.288808349688e+01
1.377448883357e+01
1.437251850867e+01
1.502091069037e+01
1.452095232425e+01
1.564537175735e+01
1.525079981918e+01
1.550554254652e+01
1.625722112943e+01
1.595676993474e+01
1.684687276723e+01
1.663153608009e+01
1.569744737942e+01
1.646566843756e+01
1.548996668475e+01
1.636101583966e+01
1.717001950316e+01
1.714019488706e+01
1.633445234835e+01
1.718032366737e+01
1.639678445712e+01
1.745053780280e+01
1.673548252332e+01
1.821703684847e+01
1.868974009717e+01
1.961796404486e+01
1.934966844702e+01
2.068868427714e+01
2.062950383209e+01
2.185860630897e+01
2.174253130845e+01
2.279627425406e+01
2.308435404408e+01
2.387890182101e+01
2.432170559053e+01
2.495090164879e+01
2.553644977025e+01
2.597361840520e+01
2.531319148668e+01
2.614054265278e+01
2.690061092678e+01
2.684063258234e+01
2.608391430723e+01
2.656571861636e+01
2.584969358154e+01
2.613377315610e+01
2.683561563416e+01
2.619896628719e+01
2.560115919988e+01
2.550249508014e+01
2.599463562035e+01
2.515295902966e+01
2.479924815699e+01
2.435648038425e+01
2.453024980967e+01
2.368505712044e+01
2.363574264955e+01
2.295825871859e+01
2.277996314527e+01
2.209813551218e+01
2.235082682859e+01
2.155598007691e+01
2.184804181201e+01
2.106985964558e+01
2.064396648416e+01
1.990296233020e+01
1.963792620828e+01
2.254582566044e+01
1.864418859479e+01
1.883071515250e+01
1.857841179489e+01
1.947457319222e+01
1.734472279365e+01
1.749763696002e+01
1.604792486361e+01
2.480596524447e+01
1.780514408406e+01
1.642705057968e+01
1.477885330442e+01
1.407157801558e+01
1.254196467760e+01
1.495421298884e+01
1.598911932189e+01
1.547734126808e+01
1.644484036395e+01
1.601377128687e+01
1.351961154058e+01
1.710275008829e+01
1.686350048740e+01
1.533200303092e+01
1.906157619821e+01
2.539646985666e+01
1.766615511191e+01
1.677400827176e+01
1.786095680481e+01
2.245930580342e+01
2.199465010411e+01
2.245659967796e+01
2.202920523252e+01
2.236885645936e+01
2.197856127599e+01
2.166399365495e+01
2.164126605160e+01
2.135648687001e+01
2.221639884835e+01
2.261823311022e+01
2.135406103082e+01
2.110131691142e+01
2.111340142844e+01
2.089379601175e+01
2.080502424914e+01
2.064051452920e+01
2.047721714397e+01
2.519815624388e+01
2.477580698832e+01
2.460417443243e+01
2.421176277789e+01
2.405432663359e+01
2.369120218212e+01
2.353626867556e+01
2.381072602016e+01
1.741006084878e+01
2.767169374712e+01
2.771394374420e+01
2.856511821591e+01
2.853582102015e+01
2.948027152992e+01
2.926503221222e+01
3.021331813271e+01
3.011545716779e+01
3.052682653022e+01
3.006051025381e+01
3.020065165206e+01
2.926943941531e+01
1.986404791989e+01
2.374661148467e+01
2.327091096315e+01
2.323986513427e+01
1.139489421393e+01
2.072999213602e+01
2.237365067190e+01
2.277193542460e+01
2.330468222708e+01
1.103341320148e+01
2.951818700382e+01
2.843189801835e+01
1.687644358874e+01
1.649426293984e+01
2.244619772705e+01
1.226755082230e+01
2.155450426341e+01
3.033822386065e+01
2.051612146348e+01
2.060942793244e+01
2.128177598870e+01
2.282155831343e+01
2.271612956080e+01
2.895887236241e+01
2.775565442107e+01
2.739339846770e+01
2.533141087977e+01
2.593929765609e+01
2.350281731886e+01
2.170539025474e+01
2.003667066692e+01
2.187557051351e+01
1.877778166667e+01
1.520492946376e+01
1.488930526503e+01
2.076611819502e+01
2.986302055797e+01
1.453791513226e+01
2.209089428649e+01
2.303542869938e+01
1.728380653639e+01
1.694465727287e+01
1.610287584966e+01
1.660091073319e+01
1.736870425168e+01
1.705613794406e+01
1.624297091863e+01
1.672808019403e+01
1.585788233898e+01
1.638200077422e+01
1.716982991954e+01
1.685780591163e+01
1.601765690338e+01
1.652503048730e+01
1.561963284277e+01
1.615720329505e+01
1.698145800691e+01
9.476658387656e+00
2.350674184284e+01
2.301635269918e+01
1.716028389605e+01
1.805012036862e+01
1.869827508449e+01
1.877231620639e+01
1.664130884295e+01
1.740023244583e+01
2.802748268315e+01
2.691860188808e+01
1.761960350203e+01
2.043462885495e+01
2.028404658529e+01
2.056622270297e+01
1.874438724803e+01
2.047542133790e+01
1.835870832941e+01
1.643956072297e+01
2.028327953111e+01
2.306382820615e+01
1.757643493817e+01
1.327443460114e+01
1.006945070417e+01
2.053724501851e+01
2.400207483225e+01
1.910494802896e+01
2.008819190407e+01
1.947434772897e+01
2.029138029992e+01
1.980611463614e+01
2.047659064751e+01
2.094999388980e+01
2.237070086110e+01
2.100848766760e+01
1.573001712164e+01
2.368956818126e+01
2.060916191622e+01
7.541721927366e+00
1.042330777565e+01
1.088460703127e+01
1.325506980135e+01
2.209326192034e+01
2.010528625384e+01
1.944756480818e+01
1.567374668954e+01
1.356616558066e+01
2.241329308731e+01
1.498459025990e+01
1.527971112878e+01
1.481382600446e+01
6.898595608232e+00
1.069535907312e+01
1.775897892490e+01
2.702454793236e+01
2.545827328685e+01
2.940279156813e+01
2.806729198066e+01
1.706534735405e+01
1.775219088146e+01
1.930224744119e+01
1.933462270439e+01
2.243515923337e+01
1.100363160647e+01
1.803548221285e+01
2.362637631646e+01
2.408481250595e+01
1.817025977024e+01
2.554879157237e+01
2.627034103776e+01
2.281850625919e+01
1.488493562383e+01
1.208691096886e+01
2.202942176504e+01
1.803322526696e+01
2.144380980122e+01
2.151466590654e+01
2.136326898206e+01
6.070390786402e+00
2.177613520962e+01
2.040035409566e+01
1.983577236330e+01
1.927447816802e+01
2.552264085878e+01
2.383376726096e+01
2.330761810720e+01
2.170912407598e+01
1.401535116137e+01
2.392070971011e+01
1.426079939550e+01
1.305297535510e+01
1.266804841536e+01
1.484605791610e+01
1.253105030545e+01
2.740789072835e+01
2.482377694759e+01
1.933137045908e+01
2.063418168585e+01
2.294821043632e+01
1.784757621550e+01
1.820344103248e+01
1.500610776817e+01
1.449303142413e+01
7.649666780340e+00
5.550326089022e+00
2.143898651158e+01
2.177044036454e+01
1.796854821002e+01
1.827159059853e+01
1.794786246162e+01
2.235300100350e+01
2.821499918709e+01
2.489134778886e+01
2.850198478595e+01
2.164975841729e+01
1.813005179575e+00
1.784155325583e+01
2.048751871918e+01
2.058611890428e+01
2.204075445238e+01
1.136434621044e+01
2.232854735089e+01
2.311991157367e+01
1.109283551886e+01
1.051203959407e+01
1.240725020437e+01
1.013140199783e+01
2.172747815891e+01
1.975361796521e+01
2.039140338141e+01
2.104646801969e+01
1.973388829718e+01
1.926196497241e+01
2.200733317793e+01
2.236404338846e+01
1.406312823328e+01
1.029011591134e+01
1.836458504608e+01
1.174451894276e+01
2.147921364020e+01
2.148252518235e+01
2.447082083324e+01
2.530917397945e+01
1.835227422737e+01
2.067790604326e+01
1.904670219342e+01
2.183964118073e+01
2.054351402897e+01
1.151565933624e+01
2.053176119581e+01
1.417204195995e+01
1.859511292296e+01
2.279971251522e+01
2.215063680143e+01
2.279548199745e+01
1.805254464517e+01
1.866291547811e+01
1.409998623086e+01
1.347512166163e+01
1.460034777370e+01
2.952060460546e+01
2.799515897104e+01
1.794725325399e+01
1.591769042987e+01
1.652980761194e+01
1.166079100302e+01
1.500170836074e+01
1.984320778844e+01
1.995744172515e+01
1.836559553893e+01
1.841119669373e+01
1.856381489926e+01
2.363961528030e+01
2.403851064445e+01
2.454701781045e+01
1.844070229970e+01
1.880034054274e+01
2.335987948506e+01
2.453212312420e+01
2.090935244930e+01
1.861734682314e+01
2.061180244986e+01
2.067706206174e+01
-2.027251613703e+00
2.922207205275e+00
2.342751988511e+01
2.510574665330e+01
1.856462099832e+01
1.828083431979e+01
1.888689852982e+01
1.290549155379e+01
2.194890738963e+01
2.190311505353e+01
2.224742794755e+01
2.155686358586e+01
2.196042500372e+01
2.171057616621e+01
2.126540380845e+01
2.040569863713e+01
1.848591971428e+01
1.366898515614e+01
1.580015115849e+01
1.302460648572e+01
1.392475200064e+01
1.216347481408e+01
1.054315237724e+01
1.301059308148e+01
1.386827297176e+01
-1.081260615141e+01
1.891257118890e+01
-8.462577371342e+00
-2.632901101979e+00
2.123457942007e+01
2.123908363428e+01
2.104232192000e+01
2.104150328465e+01
2.117758563885e+01
2.098697196372e+01
1.275921396233e+01
2.085911704079e+01
2.082563294888e+01
2.076920899330e+01
7.408490122929e+00
1.998783485076e+01
1.686046306001e+01
1.523588445633e+01
1.981309415793e+01
1.931737175639e+01
2.038620138844e+01
2.025151458672e+01
1.318493609652e+01
1.314010306862e+01
1.442893553218e+01
1.429329276597e+01
1.536074137537e+01
1.521822080414e+01
1.613327805378e+01
2.103198026549e+01
1.922524382394e+01
9.387788165036e+00
2.191936512913e+01
2.226861750090e+01
9.973773090603e+00
6.241463885783e+00
2.138674447081e+01
2.526048277211e+01
1.923344343462e+01
1.498490862495e+01
2.179003557437e+01
2.372985395238e+01
1.234731723032e+01
1.784374412488e+01
1.479096516862e+01
2.323227004426e+01
2.449037930842e-01
2.254759064592e+01
1.620556963087e+01
2.096050384050e+01
2.027986779078e+01
2.615131237317e+01
1.587792942976e+01
2.466704290957e+01
2.214838297776e+01
1.487610167510e+01
1.313423009412e+01
1.245602143724e+01
2.668344114649e+01
1.189613122559e+01
9.036108788234e+00
1.535957077999e+01
1.761767055382e+01
1.798469670546e+01
1.859120157606e+01
1.834179284780e+01
1.769022029567e+01
1.808516466738e+01
1.869303158227e+01
1.848182799550e+01
1.912541317512e+01
1.885962445049e+01
1.827386821581e+01
1.866874421398e+01
1.915859796724e+01
1.808190305274e+01
2.158183049202e+01
2.340574387590e+01
2.552009415831e+01
2.649987507579e+01
1.542130985023e+01
1.965337951804e+01
1.949387199554e+01
2.804881860553e+01
2.044094420437e+01
1.351617266256e+01
3.015055469331e+01
2.080085085195e+01
1.727702999466e+01
1.692902795567e+01
1.645974667305e+01
1.941139680518e+01
1.510673005407e+01
2.123645035948e+01
2.426029117625e+01
2.417566900818e+01
2.471554301501e+01
1.783737183959e+01
2.135064377941e+01
2.180614855381e+01
2.175718345967e+01
2.227425636514e+01
2.126825781557e+01
1.994746800127e+01
2.012739225215e+01
2.423121936308e+01
2.591686207696e+01
2.574124140476e+01
2.697679613245e+01
2.744991497732e+01
2.822782429383e+01
2.750713265122e+01
2.936913717475e+01
1.889797345431e+01
2.114412473881e+01
2.281409319221e+01
2.331022418989e+01
2.350533962968e+01
1.938132758420e+01
2.011497007937e+01
2.055552247152e+01
1.862880580693e+01
2.088987489425e+01
2.108178625902e+01
2.451003563413e+01
2.033507783919e+01
1.116001477227e+01
1.276135482383e+01
1.278788506073e+01
1.414007885679e+01
1.291587440483e+01
1.978220042619e+01
1.975966261465e+01
1.938530342183e+01
1.976059019638e+01
1.943557239134e+01
1.901310431406e+01
1.977083266860e+01
1.949762094577e+01
1.122193556462e+01
1.012370389323e+01
1.238744675303e+01
1.364199836604e+00
1.244895606038e+01
1.990963884874e+01
1.884546402233e+01
2.360816958155e+01
1.986577318314e+01
-2.563937836602e+01
-6.211632520214e+00
-1.021872983846e+01
-1.105087457759e+01
3.618297753623e+00
8.669286692280e+00
2.063084788411e+01
1.799192343039e+01
1.768888215485e+01
1.676795856966e+01
1.735918488675e+01
1.834671307262e+01
1.617982397224e+01
1.578871919084e+01
3.638704365922e+01
-8.955656962313e+00
-1.070984871948e+01
2.132948794365e+00
1.779853675004e+00
-9.017607647771e+00
-9.438288043796e+00
1.173422897029e+01
-1.027634847228e+01
1.259991310677e+00
-1.364880740067e+01
1.721088993746e+01
1.758604203329e+01
2.098739981495e+01
1.155302919346e+01
-3.914712786887e+01
1.916898734301e+01
1.925022635963e+01
1.925177936958e+01
2.048924347450e+01
2.052863477237e+01
1.918695203211e+01
1.563707506195e+01
1.889057608854e+01
1.828655968747e+01
2.887098644240e+01
1.748980259794e+01
2.024593147429e+01
2.101694123784e+01
2.066384408696e+01
2.036441310924e+01
2.091735349004e+01
2.173815236467e+01
9.353924294011e+00
1.544429403012e+01
1.516593459945e+01
1.728886841828e+01
1.539464514915e+01
1.889972866681e+01
9.537792452602e+00
2.046192884079e+01
1.408377141223e+01
2.300437644772e+01
1.857921503487e+01
1.724203106656e+01
1.795080122166e+01
2.200047310986e+01
2.113367281078e+01
2.186272585888e+01
1.768283267828e+01
-3.455483661390e+01
2.201329029708e+01
2.160484494397e+01
1.570647058654e+01
2.319955066114e+01
1.639464491618e+01
1.746996618357e+01
1.856140853015e+01
1.444185782869e+01
5.008293324157e+00
1.429202382083e+01
2.169533174445e+01
1.724926070092e+01
1.432583380264e+01
2.548667218444e+01
1.768355597867e+01
9.018642942647e+00
1.851748710334e+01
2.347621265380e+01
2.280917041955e+01
2.433637195780e+01
1.501825958021e+01
2.141667185530e+01
2.544966231010e+01
1.811400292913e+01
1.902489139657e+01
2.735127026989e+01
1.766903953378e+01
2.412514350866e+01
2.281724912278e+01
1.404488679447e+01
1.805141878418e+01
1.726226407774e+01
2.075258356671e+01
2.004767786072e+01
2.169552116217e+01
2.904321764949e+01
2.223326590223e+01
1.556702088046e+01
2.065432272865e+01
1.867315285729e+01
1.709808432723e+01
2.128943861737e+01
1.829904637697e+01
2.080667014504e+01
1.132797074792e+01
2.737162343555e+01
2.915500359674e+01
2.441210176284e+01
2.110871227162e+01
1.892894567361e+01
2.106719350931e+01
2.282861732945e+01
2.570374242637e+01
1.039599035582e+01
2.089087964115e+01
2.504049210206e+01
2.272404408636e+01
1.908483064328e+01
2.072231148330e+01
6.610847291144e+00
2.077056857720e+01
2.316756860986e+01
2.670061185803e+01
1.155850399239e+01
2.072416255620e+01
2.268974366256e+01
2.082078944534e+01
2.501868190875e+01
6.011867371415e+00
2.084315659156e+01
1.782458260382e+01
1.938098244787e+01
2.251955480079e+01
1.604381963361e+01
2.036075452941e+01
2.309277616382e+01
1.444477335579e+00
8.358653600880e+00
2.022056044086e+01
2.843811977725e+01
2.442522426511e+01
2.172099888449e+01
2.012709090724e+01
2.760036359915e+01
2.007019442248e+01
2.287894112221e+00
1.658433433427e+01
2.003389065162e+01
1.836653252004e+01
1.217571278956e+00
2.157649109344e+01
2.046952325827e+01
2.031529962560e+01
2.385095523702e+01
1.739304600113e+01
-9.242343371229e-01
2.353999696711e+01
1.884530594284e+01
2.213465077688e+01
2.392799116249e+01
2.320063394805e+01
6.676269558532e+00
1.525733172532e+01
1.243370767005e+01
2.683327983599e+01
1.884342722909e+01
7.113724233350e+00
1.760715677418e+01
7.228524079254e+00
2.648859182113e+01
2.221801438996e+01
1.556728650496e+01
2.547623697622e+01
1.343412202927e+01
2.460935350091e+01
2.349030443127e+01
2.361899888784e+01
2.240272988159e+01
1.881316853232e+01
2.164561519746e+01
1.924538778649e+01
2.058490213880e+01
1.300375401853e+01
1.777530247269e+00
1.040602268438e+01
1.354081373207e+01
1.918529987467e+01
1.793314344470e+01
1.305510601977e+01
1.727069156621e+01
1.937779331393e+01
2.107757708362e+01
1.684070472441e+01
2.254167218127e+01
2.250484778131e+01
1.838191830937e+01
1.131691483300e+01
-1.273102183481e+01
2.010529204816e+01
1.509425856570e+01
1.787399513465e+01
2.000086497611e+01
1.554487504873e+01
6.206989289902e+00
1.846228261248e+01
2.182399547438e+01
1.279660769020e+01
2.176497223462e+01
2.122666248021e+01
1.885351185251e+01
2.140803572991e+01
2.083465936864e+01
2.159496573958e+01
2.285442832317e+01
1.390012855403e+01
2.020575528640e+01
1.739349786297e+01
2.071330523139e+01
1.248903586612e+01
1.888586188581e+01
2.709058270244e+01
1.889769723476e+01
1.851451120662e+01
1.469499479674e+01
1.386449331157e+01
2.057064665904e+01
1.916891616446e+01
2.585964376699e+01
1.677626169236e+01
1.751097220045e+01
1.916936190788e+01
2.121210346747e+01
1.900388143843e+01
2.066525384197e+01
2.154395032810e+00
-1.451005364993e+01
2.137393170085e+01
1.970096586602e+01
2.405807275447e+01
1.936738060687e+01
2.543495280598e+01
1.099073743752e+01
-1.259304259924e+01
2.066656922198e+01
1.889593496017e+01
1.805532280457e+01
1.123516976815e+01
1.456646680343e+01
2.079988937976e+01
-1.017745417084e+00
1.894861221652e+01
2.153785128429e+01
1.904525241475e+01
2.126392974296e+01
1.714145530851e+01
2.121621770199e+01
2.212145877941e+01
1.135416162634e+01
1.906815144819e+01
1.645515582957e+01
6.013316860265e+00
1.929247482057e+01
1.670516332389e+01
1.132546847106e+01
2.058192804587e+01
5.875533721755e+00
1.409161462948e+01
1.957433675390e+01
1.919986385886e+01
1.806036376310e+01
1.241441075656e+01
1.053594309490e+01
1.606721992433e+01
2.151255565019e+01
1.901454800233e+01
1.533985927447e+01
2.645686140310e+01
1.935646525154e+01
1.852016202307e+01
2.013203888982e+01
2.216486108055e+01
2.493369527901e+01
1.955729708110e+01
-1.456366847761e+01
2.092358087179e+01
1.876413531131e+01
-3.323112680179e+01
-4.266303830825e+01
-1.463140311455e+01
-1.797204704124e+01
-3.654785981083e+00
-3.876184103217e+00
3.038767846569e+00
3.937344194817e+00
7.279021579815e+00
7.996076276641e+00

SCALARS node_materi_stress_average_a_sig float
LOOKUP_TABLE default
-3.676696529323e+00
-6.489941949026e+01
-2.411155510728e+02
-1.785589588427e+02
-1.054949960124e+01
-2.260208228701e+01
-3.452230252925e+01
-4.783656446080e+01
-6.062432039119e+01
-7.326777601376e+01
-8.579048357922e+01
-9.822963118326e+01
-1.106336966486e+02
-1.230840141603e+02
-1.358029271291e+02
-1.482572869388e+02
-1.595768536217e+02
-1.719464752837e+02
-1.846603567601e+02
-1.970023313428e+02
-2.094247874776e+02
-2.219428986151e+02
-2.339408909746e+02
-1.792275923670e+02
-1.785615316400e+02
-1.787863578415e+02
-1.788492098682e+02
-1.786492089262e+02
-1.792239559815e+02
-1.797634716137e+02
-1.798215076901e+02
-1.807730430620e+02
-1.812157640114e+02
-1.815615009810e+02
-1.826795028548e+02
-1.841193602764e+02
-1.848993644822e+02
-1.862099539201e+02
-1.872371831326e+02
-1.890399244757e+02
-1.918275570022e+02
-1.943842876909e+02
-1.971669321780e+02
-1.999119062225e+02
-2.029659022330e+02
-2.060931155582e+02
-2.093809617039e+02
-2.129022316623e+02
-2.164564855494e+02
-2.197796947719e+02
-2.230389528575e+02
-2.258798441114e+02
-2.291229177004e+02
-2.314799217408e+02
-2.331563823303e+02
-2.352681236700e+02
-2.370671564724e+02
-2.385551796513e+02
-2.397352668622e+02
-2.405932160241e+02
-2.410791712675e+02
-2.413185117883e+02
-2.413167446780e+02
-2.416712933329e+02
-2.422854665907e+02
-2.424512310930e+02
-2.407025778504e+02
-2.419811643395e+02
-2.413060226784e+02
-2.415485028682e+02
-2.418901574361e+02
-2.417658651223e+02
-7.721028568825e+01
-8.923992635112e+01
-1.012070263096e+02
-1.128640904637e+02
-1.247366703620e+02
-1.367192575701e+02
-1.483948600654e+02
-1.599151320160e+02
-1.718735790678e+02
-5.628387620037e+01
-6.965520637979e+01
-3.066869146050e+01
-2.735236483572e+01
-2.528708472112e+01
-2.276823164316e+01
-2.018924999721e+01
-2.083843751095e+01
-3.281153477310e+01
-4.506249852856e+01
-5.716007520133e+01
-8.778961276760e+00
-1.638114205998e+01
-2.839814412504e+01
-4.046510649935e+01
-5.250499493530e+01
-6.339344208122e+01
-6.419872036036e+01
-6.423936671790e+01
-6.418828830499e+01
-6.596421797728e+01
-6.460519348115e+01
-6.471855580914e+01
-6.499252128301e+01
-6.547858119267e+01
-6.573523400828e+01
-6.612341007486e+01
-6.652763925904e+01
-6.719644541458e+01
-6.807984989101e+01
-7.783654685469e+01
-8.778318298770e+01
-8.936911796079e+01
-8.094565365712e+01
-5.053882470321e+01
-2.125475977850e+01
-1.087753676834e+01
-7.617736904791e+00
-6.040411012073e+00
-5.452638861113e+00
-5.109483156708e+00
-4.991189040742e+00
-4.622717965267e+00
-4.032763154467e+00
-3.854241633533e+00
-3.746838016946e+00
-3.587519022266e+00
-3.295238957163e+00
-3.009774271649e+00
-9.366028756197e+00
-9.316615123522e+00
-8.053714713290e+00
-7.187238832749e+00
-6.978430965990e+00
-6.996660802982e+00
-7.211937291815e+00
-7.488637265126e+00
-7.807531204718e+00
-8.124692341843e+00
-8.432508733374e+00
-8.720585659669e+00
-8.984448793177e+00
-9.219966656791e+00
-9.425269502462e+00
-9.600352835909e+00
-9.743801431347e+00
-9.851225502607e+00
-9.916445677921e+00
-9.928390894643e+00
-9.683412188029e+00
-8.643676296478e+00
-1.631131977654e+01
-1.612983917116e+01
-1.606224380282e+01
-1.601239668122e+01
-1.595055925296e+01
-1.587012780564e+01
-1.577042737671e+01
-1.565318677373e+01
-1.552205925177e+01
-1.537768997514e+01
-1.522689711828e+01
-1.507774436604e+01
-1.493961244588e+01
-1.483998499132e+01
-1.479089095631e+01
-1.486558330432e+01
-1.507369777374e+01
-1.563655937278e+01
-1.748575293248e+01
-1.624694097069e+01
-2.968491648120e+01
-3.112232296514e+01
-2.951294685099e+01
-2.888735962443e+01
-2.856250809025e+01
-2.831814815164e+01
-2.820002710464e+01
-2.813401552521e+01
-2.810448103988e+01
-2.810379598026e+01
-2.812179141722e+01
-2.814503571672e+01
-2.817280673810e+01
-2.819606826062e+01
-2.821889473296e+01
-2.823910477547e+01
-2.827207502340e+01
-2.832977537826e+01
-2.838104111697e+01
-4.046326841908e+01
-4.044196103664e+01
-4.043513567721e+01
-4.045029497416e+01
-4.047816396084e+01
-4.051100061367e+01
-4.056498966885e+01
-4.061777170498e+01
-4.069236494527e+01
-4.081102829530e+01
-4.097185200669e+01
-4.118557563457e+01
-4.146964995994e+01
-4.182753233552e+01
-4.244770813913e+01
-4.399994436291e+01
-4.253303740095e+01
-5.487111584382e+01
-5.626311284993e+01
-5.488075644982e+01
-5.436757651530e+01
-5.397076762367e+01
-5.365609085138e+01
-5.336369366067e+01
-5.315287304997e+01
-5.306728892427e+01
-5.290203118632e+01
-5.279227129130e+01
-5.271816377347e+01
-5.265618236610e+01
-5.258313411073e+01
-5.262467163953e+01
-5.261543212987e+01
-3.676808550866e+01
-2.886396105745e+01
-2.603851147491e+01
-2.448731537875e+01
-2.381382460604e+01
-1.807986944502e+01
-2.824026567375e+01
-4.040449729675e+01
-5.255611414508e+01
-6.455923222668e+01
-3.322654223104e+01
-2.302002969446e+02
-1.186689159389e+01
-6.333866811615e+01
-2.353933299507e+02
-2.929627834824e+01
-1.299352009978e+02
-2.209362409964e+02
-3.194725086478e+01
-2.094758235357e+02
-5.273729547955e+01
-2.372006555787e+02
-8.822080125898e+00
-1.968369235351e+02
-7.588110324012e+01
-8.015887162069e+01
-1.638172741786e+02
-1.885776141308e+02
-1.813201077753e+02
-1.746146078609e+02
-1.748436598278e+02
-1.781631187656e+02
-7.935160371941e+01
-7.695219585925e+01
-7.690648890938e+01
-1.189080829097e+02
-2.363636455118e+02
-7.596114544477e+01
-8.715644127557e+00
-2.027796172144e+02
-7.492262033142e+01
-4.112252305303e+01
-1.824807766299e+02
-2.162757718258e+02
-2.029463784284e+02
-2.249728411664e+02
-2.334380525902e+02
-2.316727559463e+01
-7.751904063294e+01
-2.341840544104e+02
-1.422350830570e+02
-1.032371515925e+01
-1.045196355925e+02
-1.759191733388e+02
-3.065036529205e+01
-3.071788421389e+01
-4.144132108957e+01
-6.416512673760e+01
-3.862672208819e+01
-9.623937345309e+01
-2.382328322028e+02
-8.061146274521e+00
-1.651940805435e+02
-8.137837227066e+01
-8.751043391083e+01
-9.250788137917e+01
-9.980400969541e+01
-1.053153240905e+02
-1.119120524562e+02
-1.066388528493e+02
-1.187532959173e+02
-1.135512484642e+02
-1.175355301111e+02
-1.256894117468e+02
-1.206300344086e+02
-1.327440940618e+02
-1.278553412321e+02
-1.157292097207e+02
-1.231084841333e+02
-1.109327427391e+02
-1.185001123061e+02
-1.305921558426e+02
-1.261473660354e+02
-1.140121081133e+02
-1.218097471179e+02
-1.097172581143e+02
-1.176701398903e+02
-1.056322458435e+02
-1.137208477767e+02
-1.255769956089e+02
-1.216716490369e+02
-1.099693744542e+02
-1.179309024335e+02
-1.064384353553e+02
-1.143475425389e+02
-1.257074550518e+02
-1.220388175967e+02
-1.108931608748e+02
-1.184624582232e+02
-1.075715580408e+02
-1.149797971245e+02
-1.043658773606e+02
-1.115182295031e+02
-1.220854026059e+02
-1.183679885146e+02
-1.080748065777e+02
-1.145615609195e+02
-1.249435953652e+02
-1.207591402548e+02
-1.312790994856e+02
-1.267314029920e+02
-1.164472299788e+02
-1.220127777492e+02
-1.325238580543e+02
-1.274263441467e+02
-1.170646675597e+02
-1.221264915450e+02
-1.327773109612e+02
-1.271745566982e+02
-1.165617765112e+02
-1.213396002470e+02
-1.322963868217e+02
-1.261940540344e+02
-1.152211992107e+02
-1.198786156288e+02
-1.311737717602e+02
-1.246644316601e+02
-1.362272023110e+02
-1.132503257242e+02
-1.179424681955e+02
-1.063570526894e+02
-1.110540564413e+02
-1.333041763561e+02
-9.929817108090e+01
-9.491375416110e+01
-1.040332024979e+02
-1.159763652341e+02
-9.209014318602e+01
-9.689606127451e+01
-8.477629062125e+01
-9.667095348313e+01
-1.381652889301e+02
-8.967476044567e+01
-7.738674574203e+01
-7.255601435152e+01
-6.501734655791e+01
-1.110957906178e+02
-1.230469961568e+02
-1.163012933925e+02
-1.285585508419e+02
-1.221942898011e+02
-6.996059376144e+01
-1.378373589215e+02
-1.350332069693e+02
-1.017553980600e+02
-9.827720492310e+01
-1.356998894851e+02
-1.018602137624e+02
-9.472863940407e+01
-1.069512272036e+02
-1.426896906083e+02
-1.479323044335e+02
-1.543825240687e+02
-1.597677900354e+02
-1.662348138172e+02
-1.717320061157e+02
-1.651455627501e+02
-1.772015394933e+02
-1.705197659889e+02
-1.782340722203e+02
-1.725696597812e+02
-1.826447699309e+02
-1.758869323256e+02
-1.880671748200e+02
-1.812462658554e+02
-1.690596559766e+02
-1.743647512407e+02
-1.622209846445e+02
-1.421610788356e+02
-1.467848471200e+02
-1.533618020491e+02
-1.581674196512e+02
-1.648569630071e+02
-1.698106429605e+02
-1.765988751343e+02
-1.714032452078e+02
-1.398880214034e+02
-1.045882379389e+02
-9.818277337948e+01
-9.510160259384e+01
-8.879425767305e+01
-8.619831228050e+01
-7.999565378022e+01
-7.803041780283e+01
-8.348224906290e+01
-7.626083740771e+01
-8.050111744472e+01
-7.414397965530e+01
-7.700465130675e+01
-1.333967634609e+02
-1.628708068835e+02
-1.746754143214e+02
-1.674498479077e+02
-6.019174298365e+01
-1.866054938561e+02
-1.846380040157e+02
-1.787625324786e+02
-1.832767467194e+02
-5.758201399821e+01
-7.207925386403e+01
-7.314567160540e+01
-1.341442378828e+02
-1.278984801185e+02
-1.909660122630e+02
-6.261838695341e+01
-1.893545214351e+02
-7.068118073406e+01
-1.796891226225e+02
-1.919503258087e+02
-1.584943712043e+02
-1.794566176433e+02
-1.719523795944e+02
-8.451292899199e+01
-7.990381038672e+01
-7.273758627278e+01
-7.488391557095e+01
-8.310012037026e+01
-7.707097654681e+01
-6.852926446748e+01
-7.019792144918e+01
-7.994016789724e+01
-7.281406839374e+01
-6.252793414362e+01
-6.508724390866e+01
-1.988387782672e+02
-6.910036312528e+01
-1.034643604345e+02
-1.968485337839e+02
-1.884686827439e+02
-1.397998365487e+02
-1.336851838400e+02
-1.216937188407e+02
-1.276585004918e+02
-1.395618776485e+02
-1.336439819577e+02
-1.216910433061e+02
-1.277733121420e+02
-1.157850936113e+02
-1.219621595223e+02
-1.338870121233e+02
-1.281809076463e+02
-1.162230264137e+02
-1.225086615956e+02
-1.105119182721e+02
-1.168400066857e+02
-1.288301300821e+02
-5.052824843998e+01
-1.778421398469e+02
-1.899355236110e+02
-1.002110888053e+02
-1.119643999239e+02
-1.190921889258e+02
-1.244192144116e+02
-1.231579440605e+02
-1.351347736481e+02
-6.533086567656e+01
-6.565495500964e+01
-1.459931306767e+02
-1.850537392466e+02
-1.727986966567e+02
-9.501577102985e+01
-8.656525526729e+01
-8.362574491285e+01
-7.464262379631e+01
-7.772925225236e+01
-7.206908838464e+01
-1.667368513498e+02
-1.400618359047e+02
-6.794695298107e+01
-5.566010441220e+01
-1.973104772311e+02
-1.660528328761e+02
-1.374195832590e+02
-1.451782960008e+02
-1.493132521573e+02
-1.570529034657e+02
-1.612408798234e+02
-1.689424558518e+02
-1.647665872772e+02
-1.841274295587e+02
-1.766646108361e+02
-1.110613796056e+02
-1.556498482747e+02
-8.337390378404e+01
-4.519233163381e+01
-5.345417465736e+01
-5.514947574912e+01
-6.774662555395e+01
-2.033032376807e+02
-1.731253072341e+02
-1.653416563206e+02
-6.544430079166e+01
-6.864798620022e+01
-1.916425777598e+02
-1.101016924511e+02
-1.096745964690e+02
-1.036700580473e+02
-4.157390386288e+01
-5.151803495709e+01
-1.454995729629e+02
-7.449513666465e+01
-6.653754659221e+01
-6.628666851247e+01
-6.641658986396e+01
-1.294018382834e+02
-1.412829660332e+02
-1.313250030041e+02
-1.365922030850e+02
-1.972363374230e+02
-5.690670123095e+01
-1.470550380034e+02
-1.722628039489e+02
-1.605676496793e+02
-1.172962814419e+02
-5.772381877341e+01
-5.866862906453e+01
-9.010902036317e+01
-6.857345494147e+01
-6.038392157931e+01
-2.096399816524e+02
-1.513123046956e+02
-1.724811026426e+02
-1.605152990209e+02
-1.845905705885e+02
-4.482163415893e+01
-2.093696287768e+02
-1.904407678277e+02
-1.766953821713e+02
-1.694857376904e+02
-7.604978057200e+01
-6.791522003050e+01
-5.812027985553e+01
-5.918481445280e+01
-1.012910949822e+02
-7.806392587145e+01
-9.854840448523e+01
-9.099459238639e+01
-8.603934173660e+01
-8.113381402615e+01
-7.238088942397e+01
-9.131050741177e+01
-1.399931232751e+02
-1.261238605743e+02
-1.569861121512e+02
-1.489694913858e+02
-1.456518592758e+02
-1.518495372511e+02
-1.041841096559e+02
-9.846156045481e+01
-4.766184294811e+01
-4.310264092755e+01
-1.413610053092e+02
-2.026007633609e+02
-1.514189859532e+02
-1.575716424632e+02
-1.522060798367e+02
-2.032728155483e+02
-1.010070185217e+02
-1.484373172982e+02
-6.685429791511e+01
-1.371691024277e+02
-3.502438036775e+01
-1.425442660305e+02
-2.027595047988e+02
-2.095308365298e+02
-1.962817276344e+02
-8.227509898535e+01
-1.447087819919e+02
-1.407443905351e+02
-7.845240523873e+01
-7.335442417074e+01
-8.123193818977e+01
-6.850337255744e+01
-9.395577254347e+01
-8.707683993093e+01
-1.858502932755e+02
-1.885020933787e+02
-1.809480617297e+02
-1.740319865924e+02
-2.039313775731e+02
-1.988794905311e+02
-7.256229147862e+01
-5.953907847402e+01
-1.572306185612e+02
-8.361354009066e+01
-2.148793153874e+02
-2.083029160534e+02
-6.695392216185e+01
-6.243793673882e+01
-1.533064468576e+02
-4.917685359493e+01
-4.965965638750e+01
-4.893130765912e+01
-2.277445193595e+02
-7.454675140756e+01
-2.150911479652e+02
-8.505872891313e+01
-1.591318842283e+02
-1.522355382541e+02
-9.180604342550e+01
-1.909747043078e+02
-1.469126084769e+02
-1.597805136994e+02
-9.752801261837e+01
-9.115562126646e+01
-1.032285749007e+02
-6.580000928880e+01
-6.078783152073e+01
-1.461986250810e+02
-8.754181564629e+01
-9.392795761725e+01
-6.027756516321e+01
-7.205091868905e+01
-1.382105098754e+02
-1.330420417371e+02
-1.501162912467e+02
-1.544593710665e+02
-1.415478816114e+02
-1.665798990702e+02
-1.549723730522e+02
-1.492097792076e+02
-1.570557482262e+02
-1.645837777739e+02
-1.003647573581e+02
-9.629290971440e+01
-9.790564420371e+01
-1.629843175735e+02
-2.216383968327e+02
-2.162327757150e+02
-3.039321416228e+01
-3.859212506578e+01
-5.019138935750e+01
-5.198288050758e+01
-1.634608729262e+02
-1.586813483023e+02
-1.698521050586e+02
-6.448908050943e+01
-1.682157701343e+02
-2.152398180030e+02
-2.086546296269e+02
-2.231880913182e+02
-1.885004645879e+02
-2.004411035247e+02
-1.965470785025e+02
-7.042290602762e+01
-1.555844879661e+02
-9.149122621577e+01
-7.270825836248e+01
-8.585813100045e+01
-9.264287368197e+01
-7.948464904348e+01
-5.216105771018e+01
-8.914234005329e+01
-9.711111545051e+01
-2.370364015278e+01
-1.684956688718e+02
-2.288059745486e+01
-2.754886362698e+01
-2.206671597839e+02
-2.138224310576e+02
-2.258100067035e+02
-2.188841028675e+02
-2.069957746805e+02
-2.126367927008e+02
-8.483468882182e+01
-2.262457810572e+02
-2.183991778659e+02
-2.319159640768e+02
-6.058573963418e+01
-6.051658726949e+01
-5.080444490246e+01
-3.898079161081e+01
-1.869709327620e+02
-1.775109584961e+02
-1.962386718765e+02
-1.838445072371e+02
-8.619467658640e+01
-8.543768786451e+01
-9.639533613013e+01
-9.481517799203e+01
-1.057852485291e+02
-1.040853692283e+02
-1.152491373564e+02
-2.005116989660e+02
-3.975996423333e+01
-7.114536412835e+01
-2.111823887597e+02
-2.050714037715e+02
-6.362955696555e+01
-5.050399646359e+01
-2.232908233297e+02
-8.605295601886e+01
-1.757152061259e+02
-6.235503355605e+01
-6.228546395877e+01
-8.864736168555e+01
-7.668168226218e+01
-6.250795701190e+01
-5.345842604740e+01
-1.785771351726e+02
-3.490360195064e+01
-4.934670548488e+01
-1.167602311548e+02
-4.128594109382e+01
-1.903330823642e+02
-9.391719581242e+01
-9.345967597605e+01
-5.759308930795e+01
-6.986814210597e+01
-1.084364739225e+02
-9.436028577129e+01
-8.902550766099e+01
-1.012333624457e+02
-5.588289458761e+01
-4.173910843668e+01
-1.062369255607e+02
-1.469088774879e+02
-1.533721700156e+02
-1.646920515294e+02
-1.599984060310e+02
-1.483197666531e+02
-1.550814843328e+02
-1.665787214647e+02
-1.623604492615e+02
-1.757775048060e+02
-1.693084606002e+02
-1.571163229241e+02
-1.638964695530e+02
-1.752487736765e+02
-1.519898631060e+02
-2.161825939531e+02
-9.972378538016e+01
-6.574994297091e+01
-5.528847513329e+01
-9.747958046001e+01
-1.859946069530e+02
-1.824904488648e+02
-8.192865988512e+01
-1.997022666075e+02
-9.611356741024e+01
-7.135302162652e+01
-2.062060668209e+02
-1.416204215933e+02
-1.362546829227e+02
-1.295854085136e+02
-1.804448298256e+02
-1.094469805130e+02
-2.189424421970e+02
-1.512951878562e+02
-1.441467323821e+02
-1.329458233518e+02
-1.500265693703e+02
-2.282590607166e+02
-2.187856810599e+02
-2.204095846063e+02
-2.083446306951e+02
-2.317902952953e+02
-1.917426404605e+02
-1.946147739185e+02
-8.647133846983e+01
-9.235690185290e+01
-1.019757071456e+02
-9.761737621264e+01
-8.845399345232e+01
-9.313261503236e+01
-1.023084854424e+02
-8.842986303773e+01
-1.662847802359e+02
-2.344807481059e+02
-1.606697363306e+02
-1.549843474750e+02
-1.435178576075e+02
-1.210249126369e+02
-1.279241235255e+02
-1.398629736679e+02
-1.140194645163e+02
-1.528692273531e+02
-2.351690266696e+02
-1.545611198289e+02
-1.228611264062e+02
-7.841351919255e+01
-8.981191380118e+01
-9.098596120605e+01
-1.023843347506e+02
-9.015215543337e+01
-1.434259003257e+02
-1.486746415413e+02
-1.419150037069e+02
-1.539555301506e+02
-1.469489564224e+02
-1.357786338456e+02
-1.590451067661e+02
-1.512180639487e+02
-7.714731038940e+01
-3.929465068075e+01
-4.190922930752e+01
-3.284507260507e+01
-4.728972726003e+01
-5.444854352042e+01
-5.939917724448e+01
-6.276446496240e+01
-5.438492632322e+01
-1.705136519842e+01
-2.792542861893e+01
-1.353667858609e+01
-2.455886109495e+01
-3.942921128506e+01
-5.160202802342e+01
-2.346869946982e+02
-1.167778752386e+02
-1.108346443487e+02
-9.895961829154e+01
-1.054881965445e+02
-1.216444586006e+02
-9.230810301125e+01
-8.793288766792e+01
-8.561165019938e+00
-1.856354597320e+01
-1.749508162381e+01
-2.928898820550e+01
-2.926563419848e+01
-1.893462438274e+01
-1.911944290866e+01
-8.788084608269e+00
-1.928077400822e+01
-3.025716551665e+01
-8.693429312427e+00
-1.308604826226e+02
-1.372842850958e+02
-2.354289770760e+02
-7.764800067031e+01
-1.118256661933e+01
-1.725381157780e+02
-1.753757525657e+02
-1.752109775131e+02
-2.153750977598e+02
-2.215543626127e+02
-1.725397524013e+02
-8.004037586804e+01
-1.713705366887e+02
-1.524045600500e+02
-6.556438959843e+01
-7.981408231886e+01
-1.782037605441e+02
-1.637844792901e+02
-2.041266070258e+02
-1.674981146388e+02
-1.934721360431e+02
-2.210900164446e+02
-4.816487240376e+01
-1.099093379279e+02
-1.048254710247e+02
-1.344267141151e+02
-8.234749446323e+01
-1.301857511028e+02
-5.251757413869e+01
-1.951396101870e+02
-9.382058379474e+01
-1.374673700392e+02
-1.089696065626e+02
-8.753526179310e+01
-7.615212057963e+01
-1.030510627928e+02
-1.296119126289e+02
-1.838173093266e+02
-1.406864707268e+02
-1.093255388151e+01
-1.903685920220e+02
-1.532015210102e+02
-1.156184454574e+02
-1.816720652819e+02
-6.119361436644e+01
-1.396629891108e+02
-1.624048453167e+02
-1.033947119005e+02
-3.990542762759e+01
-9.758178161254e+01
-2.157764391947e+02
-1.404703794253e+02
-7.505664541142e+01
-1.374147995299e+02
-1.018095340468e+02
-6.997941044023e+01
-1.575604551259e+02
-1.294969947775e+02
-1.953628172710e+02
-1.597755623324e+02
-8.033313228572e+01
-2.015938085734e+02
-1.290101259944e+02
-1.514546551579e+02
-1.534920622102e+02
-1.106538087468e+02
-1.454514809004e+02
-1.381072822928e+02
-1.866951976335e+02
-8.931505967054e+01
-1.296161708155e+02
-1.351437831831e+02
-1.294886529384e+02
-1.714348921092e+02
-1.960189441003e+02
-7.132422394765e+01
-8.077288352641e+01
-1.157891189237e+02
-1.805456928354e+02
-1.630435858921e+02
-8.982861828518e+01
-1.948313079210e+02
-1.568119429746e+02
-1.346970534444e+02
-5.528027856451e+01
-6.003093377671e+01
-9.190399606134e+01
-1.257705816059e+02
-1.465670349442e+02
-1.712917612412e+02
-2.002747890982e+02
-1.848994569414e+02
-3.533243498269e+01
-7.665846472155e+01
-2.057227434908e+02
-1.433813484659e+02
-1.935637499495e+02
-1.396461692713e+02
-1.979473821081e+02
-5.535590640491e+01
-2.112954748206e+02
-1.843759993281e+02
-8.391076856558e+01
-7.497254929384e+01
-2.253059922739e+02
-1.967341278990e+02
-1.411224367843e+02
-1.381681078825e+02
-5.838908006284e+01
-1.517937283838e+02
-1.338173643838e+02
-1.794359425569e+02
-2.019602248821e+02
-1.240723157196e+02
-1.450195171245e+02
-1.598633633382e+02
-2.957067446173e+01
-6.580573549231e+01
-1.502110351301e+02
-9.723957877801e+01
-1.437287170314e+02
-2.082673036765e+02
-1.554550319165e+02
-1.066082878398e+02
-1.607165935688e+02
-4.693740767796e+01
-1.309234792655e+02
-1.659863518788e+02
-1.457873529401e+02
-3.165591990274e+01
-1.487462854172e+02
-2.087818012326e+02
-1.019886031509e+02
-1.492918871804e+02
-1.430931563378e+02
-3.608911140308e+01
-1.608119691185e+02
-1.577251002887e+02
-1.563189685041e+02
-1.368396869784e+02
-1.726960419166e+02
-4.657806014742e+01
-7.572149621921e+01
-6.385074871110e+01
-1.119366311719e+02
-1.620340460942e+02
-3.992895463235e+01
-1.449254877252e+02
-4.784463547070e+01
-1.071488956993e+02
-1.763396323310e+02
-1.078281720206e+02
-1.118695918743e+02
-6.781547951838e+01
-1.063084469372e+02
-1.481838143863e+02
-1.107251725290e+02
-1.045244308560e+02
-1.639920593871e+02
-1.088062810408e+02
-1.746125371838e+02
-2.353664872938e+02
-8.407604635676e+01
-2.700627488324e+01
-7.921667775061e+01
-4.341898709061e+01
-9.089989574909e+01
-1.470961615094e+02
-8.459438780501e+01
-8.353815752333e+01
-1.810883572958e+02
-2.130459786253e+02
-1.250945025152e+02
-2.000253959939e+02
-1.641623618695e+02
-1.529592268386e+02
-7.451237124564e+01
-2.300091779493e+01
-1.777223247164e+02
-2.686478431486e+01
-3.959214033363e+01
-4.030022976116e+01
-8.444932878493e+01
-4.131332907695e+01
-3.005038517202e+01
-2.163107969439e+02
-8.653180855505e+01
-1.803165847547e+02
-3.169113743117e+01
-1.679492122843e+02
-2.061649919235e+02
-2.368470938273e+02
-1.926932957587e+02
-4.297920781894e+01
-9.914441810193e+01
-1.919632496139e+02
-1.346299077712e+02
-2.377050801647e+02
-8.603331428208e+01
-1.651605834592e+02
-6.742603997561e+01
-1.651170167763e+02
-1.590847704000e+02
-9.955727198233e+01
-1.003455764435e+02
-2.273859441635e+02
-1.764453299883e+02
-4.683499960994e+01
-1.246257805200e+02
-1.057434643766e+02
-6.524750613523e+01
-2.256407245541e+02
-1.702400297399e+02
-2.266240354748e+02
-2.879436831530e+01
-1.930546594861e+01
-2.265625658973e+02
-1.870697400127e+02
-6.759952748199e+01
-1.785197830907e+02
-5.157692076148e+01
-7.364779650112e+01
-1.862147453163e+01
-2.373675034268e+02
-1.669410766270e+02
-1.163246572080e+02
-8.065321573410e+01
-7.633698225321e+01
-1.908345860164e+02
-3.331388493834e+01
-1.674243865230e+02
-2.254981199012e+02
-1.733235169033e+02
-2.266556943553e+02
-7.144722677890e+01
-2.067111512915e+02
-2.122037392823e+02
-7.415850342963e+01
-1.743186342556e+02
-9.442038166634e+01
-4.004035418812e+01
-1.757570134390e+02
-6.796342474098e+00
-7.322138442657e+01
-2.380121183439e+02
-3.771041573804e+01
-9.292369237393e+01
-1.851627495117e+02
-1.427404621436e+02
-1.462634376360e+02
-5.193304522941e+01
-7.865211713062e+01
-1.141155122188e+02
-2.109743440405e+02
-1.718037459761e+02
-1.060504459544e+02
-5.420572401615e+01
-1.794286060122e+02
-1.257891528909e+02
-1.861732599652e+02
-2.095713805396e+02
-4.715662604484e+01
-1.534440574781e+02
-1.757288676096e+01
-2.288968174070e+02
-1.309722001218e+02
-1.037659492310e+01
-1.010612242572e+01
-2.422146792291e+01
-2.271665558492e+01
-3.725762685235e+01
-3.408297109763e+01
-4.974682371080e+01
-4.686717701146e+01
-6.196891206847e+01
-5.818134986985e+01

SCALARS node_materi_stress_size_dev_sd_sig float
LOOKUP_TABLE default
5.970793468084e+00
4.133656846387e+01
1.826441875068e+02
1.346647664964e+02
1.271031160714e+01
2.190957204690e+01
2.966871984763e+01
3.892574890105e+01
4.809567390528e+01
5.724904292489e+01
6.664563150913e+01
7.621564414611e+01
8.583842840790e+01
9.563840235194e+01
1.056865278396e+02
1.150968106114e+02
1.235588544541e+02
1.329536716996e+02
1.423710319241e+02
1.513559552906e+02
1.603137692880e+02
1.692465606332e+02
1.776767272879e+02
1.352832606248e+02
1.348833086759e+02
1.350613982507e+02
1.351723042061e+02
1.349441553209e+02
1.354117750717e+02
1.356805386811e+02
1.359486147530e+02
1.366818824231e+02
1.371913268510e+02
1.374135486036e+02
1.384894384907e+02
1.395602647341e+02
1.405759999544e+02
1.416143385246e+02
1.428358704013e+02
1.444609895549e+02
1.467513171152e+02
1.492233600940e+02
1.518139797151e+02
1.543097289261e+02
1.568169776406e+02
1.595734401532e+02
1.622843655863e+02
1.650692826930e+02
1.677635403816e+02
1.703453736573e+02
1.726328651548e+02
1.746735226597e+02
1.767279630012e+02
1.783994200249e+02
1.794617785196e+02
1.806920452140e+02
1.817453569519e+02
1.825820635069e+02
1.831626246093e+02
1.835929976758e+02
1.837484096352e+02
1.837619081651e+02
1.836410107994e+02
1.837082136466e+02
1.839221999243e+02
1.839067576908e+02
1.827724065891e+02
1.833948782837e+02
1.829583795853e+02
1.830487215695e+02
1.832427960475e+02
1.831618323924e+02
5.047716042507e+01
5.989161335775e+01
6.925270406051e+01
7.858884466586e+01
8.828790892129e+01
9.807774270259e+01
1.080219772692e+02
1.180271804957e+02
1.283669197811e+02
4.565347095911e+01
3.982303154226e+01
4.492923287404e+01
3.944934804443e+01
3.565101769586e+01
3.120758535909e+01
2.204697280295e+01
1.352486489571e+01
1.613540394313e+01
2.267415755989e+01
3.067031881863e+01
5.721702776050e+00
6.715494550532e+00
1.428930020613e+01
2.299637315285e+01
3.182166634128e+01
3.999838571498e+01
4.045568351559e+01
4.044027825187e+01
4.023906879927e+01
4.131832218672e+01
4.014661351108e+01
3.987170656408e+01
3.983881272996e+01
3.990089366815e+01
3.969839273647e+01
3.946157128888e+01
3.928921514181e+01
3.919103004763e+01
3.930864607734e+01
3.619898411034e+01
3.325048302170e+01
3.362539339166e+01
3.376391765765e+01
3.335314386268e+01
2.087839815846e+01
7.114803736002e+00
3.938343497717e+00
3.747613152459e+00
3.733792183981e+00
3.980622043696e+00
4.656822888432e+00
4.778503438764e+00
4.609958745020e+00
5.053276286890e+00
5.532450313538e+00
5.798570616622e+00
5.680927292549e+00
5.270228933938e+00
1.068487789634e+01
5.578103278324e+00
3.936815599263e+00
3.698018070435e+00
3.732046690984e+00
3.687617393572e+00
3.588275207170e+00
3.493045695265e+00
3.457105069245e+00
3.493165097189e+00
3.596279173232e+00
3.748446493401e+00
3.929336553129e+00
4.119521859042e+00
4.304597273710e+00
4.475828852446e+00
4.626218800852e+00
4.748497857255e+00
4.837438256480e+00
4.891507991422e+00
5.070321721988e+00
5.867633721996e+00
6.608161194117e+00
6.550918826890e+00
6.540490806293e+00
6.545349136442e+00
6.552968144045e+00
6.563025679649e+00
6.577054651408e+00
6.596968399350e+00
6.627264030066e+00
6.670786793597e+00
6.726941370353e+00
6.791835332660e+00
6.858786915830e+00
6.930554019741e+00
6.983949581434e+00
7.016520873167e+00
6.984710472146e+00
7.035018794950e+00
7.914941754307e+00
8.016341019405e+00
1.364493372850e+01
1.488261634170e+01
1.434959719738e+01
1.433074841520e+01
1.437684947781e+01
1.440503131104e+01
1.444063569478e+01
1.444400992225e+01
1.442533965630e+01
1.439109986024e+01
1.436059559324e+01
1.433698889209e+01
1.430409022575e+01
1.426946792460e+01
1.423842808584e+01
1.420765828526e+01
1.418676930842e+01
1.420473389213e+01
1.426268555089e+01
2.298531390312e+01
2.289280849595e+01
2.286069974448e+01
2.286167172293e+01
2.284307454451e+01
2.283329315207e+01
2.281939466089e+01
2.278041922331e+01
2.271744892139e+01
2.268716302033e+01
2.263068018415e+01
2.253723636256e+01
2.243954481028e+01
2.229905775316e+01
2.228637766677e+01
2.276074084357e+01
2.112281280866e+01
2.939028091329e+01
3.114723787152e+01
3.075565121626e+01
3.083189730618e+01
3.098580954787e+01
3.113901041743e+01
3.122614679009e+01
3.133652173248e+01
3.145793688235e+01
3.154612230722e+01
3.161225740390e+01
3.167328421418e+01
3.175179909391e+01
3.176381938761e+01
3.189046582625e+01
3.200778102719e+01
5.080485242353e+01
4.178554367576e+01
3.733445116886e+01
3.350922661164e+01
3.099360694897e+01
1.641821067110e+01
1.474404980590e+01
1.976761470099e+01
2.723147104993e+01
3.568071503081e+01
4.252020328460e+01
1.789489565938e+02
7.240871214393e+00
4.126131992240e+01
1.811413794303e+02
3.502974792815e+01
1.010734436190e+02
1.725570133251e+02
2.423092988322e+01
1.627899936441e+02
2.802905725091e+01
1.809312660063e+02
9.030687277705e+00
1.509907705714e+02
4.391218233015e+01
6.237472258163e+01
1.269700093499e+02
1.427061284554e+02
1.360719713120e+02
1.308533984819e+02
1.305902826737e+02
1.334289048167e+02
4.753996523287e+01
4.794151343647e+01
4.907392617150e+01
8.343944859418e+01
1.797833898393e+02
4.198968298014e+01
1.050224049140e+01
1.555835914360e+02
4.849866047992e+01
3.425995748778e+01
1.370366715018e+02
1.685749234291e+02
1.568359754619e+02
1.757700422120e+02
1.806243463051e+02
1.937604115845e+01
4.731683117849e+01
1.798214646091e+02
1.028594222770e+02
8.503016218520e+00
8.113018038223e+01
1.321492137295e+02
3.221052890532e+01
3.864241607263e+01
2.322500101135e+01
3.534703593593e+01
4.974915987608e+01
6.523261017743e+01
1.808604701044e+02
1.033297871918e+01
1.226116496038e+02
4.796896841637e+01
5.250773960028e+01
5.652613876721e+01
6.220726132445e+01
6.663650922074e+01
7.202492793842e+01
6.777911094153e+01
7.786705637250e+01
7.389132571097e+01
7.659776024497e+01
8.419134060384e+01
8.053874491094e+01
9.095193906036e+01
8.767680584403e+01
7.738715127345e+01
8.493690451297e+01
7.474083638867e+01
8.276886827776e+01
9.282380183105e+01
9.106786464303e+01
8.123650792566e+01
8.990962734786e+01
8.038874399105e+01
8.936525960965e+01
8.020693072282e+01
8.937515263921e+01
9.819167053638e+01
9.825559604170e+01
8.984687168761e+01
9.865094955828e+01
9.063221604372e+01
9.922952623852e+01
1.069886427822e+02
1.072958336049e+02
9.984228323196e+01
1.075634255432e+02
1.003758889337e+02
1.076858951962e+02
1.007394211724e+02
1.075160409202e+02
1.142364527379e+02
1.134758505637e+02
1.069537551249e+02
1.121679148803e+02
1.186442322916e+02
1.165516513550e+02
1.230823954624e+02
1.202307600577e+02
1.137121690207e+02
1.165865729390e+02
1.233479429249e+02
1.190019324519e+02
1.120422792561e+02
1.138355491801e+02
1.211690408996e+02
1.155422648091e+02
1.078351683729e+02
1.092282677949e+02
1.173378511451e+02
1.108215060043e+02
1.022752496794e+02
1.038426969490e+02
1.126920927276e+02
1.057455116673e+02
1.147970144334e+02
9.645927165644e+01
9.857257366333e+01
8.886975993012e+01
9.132904284517e+01
1.148059388042e+02
8.132867901845e+01
7.894250724436e+01
8.418717629923e+01
9.414824597543e+01
7.401330493778e+01
7.726411042139e+01
6.706524008975e+01
9.304800608911e+01
1.009168458417e+02
7.066141513272e+01
6.055852662735e+01
5.675004732067e+01
5.046948411125e+01
7.140816920157e+01
8.146705598744e+01
7.609457971141e+01
8.647553124678e+01
8.139410539612e+01
5.447688616765e+01
9.476438871145e+01
9.184468414186e+01
7.141663206692e+01
8.154893023075e+01
1.252595081480e+02
8.068581323071e+01
7.436669576111e+01
8.429412180836e+01
1.213709283925e+02
1.236213851094e+02
1.298507711635e+02
1.322155643800e+02
1.381277937307e+02
1.405923771539e+02
1.347029166091e+02
1.431527846492e+02
1.373218748366e+02
1.462050261978e+02
1.436900281684e+02
1.458188632560e+02
1.400702336884e+02
1.485986764999e+02
1.429476367305e+02
1.341844782681e+02
1.371899366291e+02
1.282668980665e+02
1.297526567696e+02
1.320071371401e+02
1.365389834838e+02
1.388660751794e+02
1.434067934057e+02
1.457929353626e+02
1.502964054000e+02
1.474571123125e+02
9.809619327312e+01
1.058378777998e+02
1.005184741922e+02
9.966522687477e+01
9.415601662151e+01
9.364562710842e+01
8.779270894055e+01
8.765007047879e+01
9.236345833349e+01
8.644060796404e+01
8.964278759898e+01
8.371716204975e+01
8.506258014881e+01
1.067592928527e+02
1.407605107797e+02
1.478039451669e+02
1.423035035413e+02
4.646614164543e+01
1.459603693339e+02
1.514793758390e+02
1.488321219976e+02
1.543517856632e+02
4.479417408627e+01
8.122545555756e+01
8.048029412196e+01
9.165276747527e+01
8.664375745119e+01
1.563781029964e+02
4.887708987159e+01
1.513865914628e+02
8.045824521548e+01
1.403332134016e+02
1.491129854452e+02
1.286191623289e+02
1.495410656218e+02
1.436160999903e+02
9.120533518213e+01
8.514068304022e+01
7.825628668569e+01
7.701613242819e+01
8.453837443080e+01
7.562497245270e+01
6.678499500308e+01
6.522385666433e+01
7.483366802114e+01
6.475086037915e+01
5.353872501872e+01
5.417048918247e+01
1.545379002525e+02
7.797402315553e+01
6.716598296031e+01
1.590685394124e+02
1.570756782950e+02
9.697947944569e+01
9.205084772818e+01
8.188053761270e+01
8.737956787814e+01
9.762499397083e+01
9.294298424538e+01
8.288236975857e+01
8.839290859602e+01
7.848111492310e+01
8.397200656784e+01
9.395829311355e+01
8.953303947750e+01
7.969456095652e+01
8.518970537671e+01
7.546251716319e+01
8.083859463838e+01
9.072200050596e+01
3.974127288331e+01
1.511110072301e+02
1.580775031882e+02
7.850749974070e+01
8.787674443918e+01
9.408695252895e+01
9.770551196049e+01
8.626211977018e+01
9.631735025741e+01
7.326917715368e+01
7.195745583425e+01
1.021801989666e+02
1.436559023247e+02
1.347200339402e+02
8.269028250116e+01
7.334357844395e+01
7.475938951695e+01
6.506852586603e+01
6.359518477832e+01
6.660935282797e+01
1.411118203862e+02
9.961102275898e+01
5.307586977476e+01
4.251965195951e+01
1.524634827508e+02
1.441234066160e+02
1.070772658013e+02
1.153625771421e+02
1.160666691830e+02
1.240768924989e+02
1.251423923571e+02
1.328442961856e+02
1.317633352013e+02
1.510951872007e+02
1.402405449932e+02
7.632482941728e+01
1.351045476366e+02
7.490958630115e+01
3.550348026706e+01
4.186382556956e+01
4.349771587800e+01
5.291311639703e+01
1.637151009034e+02
1.342435409537e+02
1.265040522934e+02
5.524250879459e+01
5.347156870443e+01
1.567233424456e+02
7.135483049877e+01
7.308129838124e+01
6.880303325778e+01
3.362203269271e+01
4.186139388952e+01
1.032639725850e+02
7.940605624768e+01
7.055912572032e+01
7.461699371344e+01
7.239965209978e+01
9.158290960294e+01
1.016179931845e+02
1.037211454155e+02
1.072658465304e+02
1.608822915281e+02
4.421727760534e+01
1.064222574390e+02
1.473909839986e+02
1.402466827414e+02
9.154164129390e+01
6.400046668167e+01
6.549967890540e+01
8.396657958667e+01
5.595353062545e+01
4.753613983663e+01
1.679647351438e+02
1.080639764662e+02
1.390355330687e+02
1.308736438796e+02
1.472190871181e+02
3.238850333136e+01
1.665713337475e+02
1.471771834834e+02
1.355710730148e+02
1.283037307779e+02
7.820983835556e+01
6.922972766046e+01
6.116814986485e+01
5.986878634555e+01
6.379507727639e+01
7.704046509308e+01
6.456095962577e+01
5.702309010491e+01
5.448900567933e+01
6.218370276424e+01
5.216653719675e+01
9.410366079384e+01
1.268673145572e+02
1.004037249737e+02
1.252587542168e+02
1.275761989976e+02
1.041327947017e+02
1.099270582502e+02
7.005956194072e+01
6.582420843917e+01
3.635339492042e+01
3.218603005726e+01
1.171414204677e+02
1.617321866012e+02
1.074851794756e+02
1.129031522574e+02
1.075937813177e+02
1.648881049838e+02
1.040053686249e+02
1.336802652324e+02
7.382997353562e+01
1.148358721025e+02
2.677981838624e+01
1.028947287908e+02
1.559595685283e+02
1.610493853788e+02
1.584369506593e+02
4.852286051328e+01
1.223989778401e+02
1.220507928578e+02
4.709330159430e+01
4.455871157234e+01
5.269669915182e+01
4.295822896675e+01
8.448809149653e+01
7.575049856476e+01
1.440285102373e+02
1.486177667899e+02
1.379161275071e+02
1.307538163149e+02
1.637670345188e+02
1.617528371407e+02
5.671508189914e+01
4.316538849449e+01
1.136987222507e+02
5.020958098740e+01
1.690470467161e+02
1.644304394744e+02
6.727458378157e+01
6.591743049571e+01
1.119752086470e+02
5.164466659224e+01
5.016375020966e+01
5.291885539465e+01
1.733068705906e+02
4.837744182499e+01
1.645931828330e+02
6.143971236930e+01
1.168620892584e+02
1.294679374673e+02
8.379268658648e+01
1.578908176067e+02
1.065477138074e+02
1.178457645020e+02
6.347872525498e+01
5.910712272984e+01
6.748740111109e+01
7.510437453431e+01
6.803107161022e+01
1.052646609919e+02
6.839039222297e+01
7.339013871241e+01
4.684492630573e+01
5.804216045749e+01
1.099231164518e+02
1.068246409402e+02
1.108031917599e+02
1.130294270420e+02
1.078169567918e+02
1.431622452185e+02
1.358145392152e+02
1.331303647142e+02
1.143986234557e+02
1.213804173314e+02
9.270132307778e+01
9.217579453197e+01
8.547587748339e+01
1.187218262998e+02
1.694731580094e+02
1.660848257472e+02
2.264563611442e+01
2.794894087883e+01
5.586367086071e+01
5.853606468371e+01
1.183564704071e+02
1.134505044863e+02
1.246266161800e+02
5.073424185369e+01
1.379592665182e+02
1.713635454930e+02
1.682902295311e+02
1.752887518736e+02
1.525142411597e+02
1.599235246573e+02
1.551820720519e+02
6.328468486327e+01
1.142491976973e+02
6.014800395567e+01
5.510377045989e+01
5.608462039140e+01
6.161909430793e+01
5.150652730922e+01
4.175150026452e+01
5.660501823086e+01
6.217374444912e+01
1.675339010372e+01
1.243026204674e+02
1.836366059372e+01
2.227468924380e+01
1.719074556276e+02
1.671448261147e+02
1.745265907588e+02
1.697084111339e+02
1.620824063100e+02
1.651037976715e+02
5.473241717787e+01
1.738915573463e+02
1.683033565527e+02
1.773410366857e+02
3.484920855407e+01
5.843506479835e+01
4.840572534758e+01
3.992814194388e+01
1.421578728959e+02
1.330277342301e+02
1.510596148263e+02
1.420700072620e+02
5.695223861006e+01
5.657497287361e+01
6.503591968815e+01
6.398780901640e+01
7.261301977577e+01
7.132573858597e+01
8.021634469763e+01
1.569066532079e+02
4.402746120517e+01
4.065466907123e+01
1.685432485046e+02
1.658004606692e+02
4.230553680338e+01
3.280819046683e+01
1.745057931972e+02
8.565475021664e+01
1.310857778524e+02
4.675200718224e+01
5.965883419573e+01
8.467501387963e+01
5.188735382864e+01
5.669434131431e+01
4.733952329857e+01
1.505546902598e+02
2.426965360296e+01
5.429786715533e+01
8.117851801364e+01
4.710427227561e+01
1.465850836117e+02
9.370276143391e+01
7.111305353723e+01
6.259307298376e+01
6.806946509581e+01
7.029994715627e+01
5.796737263647e+01
5.396767291773e+01
1.008121685082e+02
4.490145175937e+01
3.560369142986e+01
7.270896510296e+01
1.025019228892e+02
1.084026370406e+02
1.191532822927e+02
1.145996146727e+02
1.036936874771e+02
1.100509060564e+02
1.210596040271e+02
1.170382484870e+02
1.300142822688e+02
1.240723522583e+02
1.127435363098e+02
1.196480917794e+02
1.301099521936e+02
1.087998039308e+02
1.704611291617e+02
9.230116040568e+01
6.777586931777e+01
6.206022236109e+01
7.088986147548e+01
1.404415732087e+02
1.369736517002e+02
8.737272466676e+01
1.536867574135e+02
6.017857515645e+01
8.123028136471e+01
1.597928810661e+02
9.756604947775e+01
9.279071003231e+01
8.691118586657e+01
1.351566728039e+02
7.195154064139e+01
1.707173225593e+02
1.337656519037e+02
1.280066920712e+02
1.210476650351e+02
1.057102993619e+02
1.778060907223e+02
1.734166847904e+02
1.743327331438e+02
1.681875487604e+02
1.798524296513e+02
1.459444923983e+02
1.488177166195e+02
8.400813658898e+01
9.195009007806e+01
9.930105397605e+01
9.845799585599e+01
9.175905066031e+01
9.726831925093e+01
1.035391441110e+02
9.539748651788e+01
1.231600139341e+02
1.810847638787e+02
1.357153643005e+02
1.332778106374e+02
1.253620638969e+02
9.720807187508e+01
1.038613010381e+02
1.132862824468e+02
9.066826410300e+01
1.233168766334e+02
1.812371959831e+02
1.371418489922e+02
1.010737176235e+02
4.741249451792e+01
5.551059298759e+01
5.579538602408e+01
6.477993038697e+01
5.631208292689e+01
1.132003682283e+02
1.166161829716e+02
1.109148563107e+02
1.201313033910e+02
1.143859416317e+02
1.057386444195e+02
1.235551301088e+02
1.174143344396e+02
4.749803840423e+01
3.385949672235e+01
3.886250439113e+01
2.616013132611e+01
4.195611527080e+01
5.382319631400e+01
5.649638944340e+01
6.493328648337e+01
5.267743836961e+01
1.038100890849e+01
1.908256615591e+01
7.443949604409e+00
1.571684617558e+01
2.845405944734e+01
3.880392218765e+01
1.785242719166e+02
9.073332501770e+01
8.625639152666e+01
7.686235723859e+01
8.218861594230e+01
9.473876840637e+01
7.167394104050e+01
6.834087574723e+01
1.066456658553e+01
1.874119341107e+01
1.802913194379e+01
2.614936544343e+01
2.577625777655e+01
1.866918994719e+01
1.844284875690e+01
1.018343182423e+01
1.802833338700e+01
2.562982200554e+01
9.578617639875e+00
9.324620512894e+01
9.867076456906e+01
1.809183567009e+02
4.887649902181e+01
7.877730355865e+00
1.290221215769e+02
1.311741478785e+02
1.311406450497e+02
1.645818444919e+02
1.689982426576e+02
1.292310193814e+02
6.359152186153e+01
1.253148741122e+02
1.109598722585e+02
7.438513358138e+01
6.685129454855e+01
1.382300613531e+02
1.313369650439e+02
1.577083626715e+02
1.314351032168e+02
1.515038423779e+02
1.747131534360e+02
3.861393861013e+01
7.418223384328e+01
7.117380008923e+01
9.513345968164e+01
6.442874760458e+01
1.017829757521e+02
4.063888828546e+01
1.506594432060e+02
6.266288437598e+01
1.192730154197e+02
8.732668521747e+01
7.105221625470e+01
6.542153317115e+01
9.151906517406e+01
1.079919994713e+02
1.487591368653e+02
1.007791429114e+02
1.007233281783e+01
1.540798799598e+02
1.260387615841e+02
7.741511569852e+01
1.527232397461e+02
5.469371273113e+01
9.853646169316e+01
1.178732360586e+02
6.661105737224e+01
3.112787622302e+01
6.453690002234e+01
1.707307261068e+02
9.692025003064e+01
5.849518706556e+01
1.268975051958e+02
8.064148361137e+01
3.942312857871e+01
1.153899018194e+02
1.147555972069e+02
1.611748549394e+02
1.405473092369e+02
6.260365038626e+01
1.594024774507e+02
1.201079378758e+02
1.088986886451e+02
1.171595961693e+02
1.101839387234e+02
1.024254917244e+02
1.232324833461e+02
1.548417530548e+02
6.159858258794e+01
9.856084049952e+01
9.515903073222e+01
1.067639887761e+02
1.328795826360e+02
1.567191579046e+02
7.903677891259e+01
7.603373823266e+01
7.653512638857e+01
1.414869743100e+02
1.193331640358e+02
7.205437257903e+01
1.540855227227e+02
1.128671987489e+02
1.105288028846e+02
4.413716074931e+01
6.751029020660e+01
9.805754990544e+01
1.146128683639e+02
1.197021364925e+02
1.257422413550e+02
1.568907243768e+02
1.535702581007e+02
4.526843896776e+01
4.437837204294e+01
1.598593741152e+02
1.302087724968e+02
1.594812437462e+02
1.084719114564e+02
1.537431837495e+02
3.315446164314e+01
1.631402109943e+02
1.545983996512e+02
8.661685127744e+01
4.859739885591e+01
1.725576936613e+02
1.616506642382e+02
1.149804414062e+02
1.260496907248e+02
3.142709478760e+01
1.224224746995e+02
9.945545052884e+01
1.343929270792e+02
1.646988113188e+02
8.215941554033e+01
1.161652570632e+02
1.361266187918e+02
2.560380000936e+01
3.740606297559e+01
1.192093310290e+02
1.012417148116e+02
1.284966009080e+02
1.655274097300e+02
1.224216798568e+02
1.073758727695e+02
1.257579303988e+02
2.504603012553e+01
8.829419843324e+01
1.291642558573e+02
1.090528010365e+02
2.597816074975e+01
1.227849630465e+02
1.599854995942e+02
8.691560784151e+01
1.308550228560e+02
9.910250312506e+01
2.267903318957e+01
1.384566969006e+02
1.187066528695e+02
1.301109380200e+02
1.216515791648e+02
1.460559141926e+02
3.404941139310e+01
6.049794416433e+01
4.976475725568e+01
1.099811924300e+02
1.207141665582e+02
3.318936853800e+01
1.016755501334e+02
3.530841402218e+01
1.052131588235e+02
1.448437964577e+02
7.440569989284e+01
1.065660827614e+02
5.322528937895e+01
1.000995470386e+02
1.288061505598e+02
1.010689156660e+02
9.355681903691e+01
1.212438346258e+02
9.479673308674e+01
1.308391434057e+02
1.787473015563e+02
5.573727107740e+01
2.496854904486e+01
4.104418144476e+01
4.064144828986e+01
7.710618699745e+01
1.054780952479e+02
5.602106366714e+01
6.869903762339e+01
1.353498165178e+02
1.658338865918e+02
8.841425631104e+01
1.633908019185e+02
1.371273580556e+02
1.121253715650e+02
4.755011552110e+01
1.493859566063e+01
1.373368627721e+02
3.297389781356e+01
4.258837357805e+01
4.542078234414e+01
6.588854210851e+01
3.246926924934e+01
3.686390724906e+01
1.717410137126e+02
5.509559408054e+01
1.458617836841e+02
4.033110745483e+01
1.234066721793e+02
1.625794010404e+02
1.810917190365e+02
1.539196764676e+02
4.969942422746e+01
6.270809900051e+01
1.473774986324e+02
9.608071217396e+01
1.810331670778e+02
5.363690611821e+01
1.225470826864e+02
7.295757813587e+01
1.226334890342e+02
1.159953784175e+02
6.719483912312e+01
6.275835476397e+01
1.732026579754e+02
1.307768666486e+02
5.452226430928e+01
8.771674282599e+01
8.268582334847e+01
5.810269522938e+01
1.752775577224e+02
1.260782564266e+02
1.731673571456e+02
2.589677837686e+01
1.504760943447e+01
1.767520354294e+02
1.416320156651e+02
6.941578558014e+01
1.339045373575e+02
5.652907587473e+01
4.623434590110e+01
1.680761030408e+01
1.805494459614e+02
1.234128257288e+02
9.060243844155e+01
4.793220385275e+01
5.959626468322e+01
1.491741157626e+02
2.245763228926e+01
1.242035143143e+02
1.768385938086e+02
1.279221189648e+02
1.762491598533e+02
5.696991707818e+01
1.620726043299e+02
1.702532992661e+02
4.767228440468e+01
1.286343811753e+02
7.347699768829e+01
3.210304214285e+01
1.319078692667e+02
9.093340317056e+00
4.746725973528e+01
1.805440651822e+02
3.120773863126e+01
6.250091485426e+01
1.394698457238e+02
1.108569614733e+02
1.063180602101e+02
4.450597618327e+01
3.987772030553e+01
7.940312025674e+01
1.664599457248e+02
1.268871069167e+02
7.250433777286e+01
6.144639731060e+01
1.343651543952e+02
9.785714586350e+01
1.431465244159e+02
1.685733121393e+02
5.091750141609e+01
1.190760086043e+02
1.553974262447e+01
1.760646751542e+02
1.018770372752e+02
9.582734872734e+00
5.436965141921e+00
1.172458901785e+01
1.034944487155e+01
1.798121633967e+01
1.833553446074e+01
2.570536487750e+01
2.767181876905e+01
3.423341998069e+01
3.618590194953e+01

SCALARS node_materi_strain_total_average_a_ept float
LOOKUP_TABLE default
1.662339071505e-04
2.863016079681e-03
2.533780326906e-03
4.285053451870e-03
2.021776534726e-04
3.044863179713e-04
3.995409977591e-04
5.176670345257e-04
6.301899342993e-04
7.459052620630e-04
8.642784480980e-04
9.849322651004e-04
1.109023949312e-03
1.235971584922e-03
1.367468950393e-03
1.499513631713e-03
1.622961737230e-03
1.756285498747e-03
1.896048420261e-03
2.032922679659e-03
2.172052483416e-03
2.313744903252e-03
2.451454751458e-03
4.293750464255e-03
4.284475896146e-03
4.284320738561e-03
4.280263303148e-03
4.268841983265e-03
4.267765118842e-03
4.257437720782e-03
4.242694466873e-03
4.231983522342e-03
4.214949623828e-03
4.186249052970e-03
4.165386400627e-03
4.132426721642e-03
4.095124080115e-03
4.048648163040e-03
3.995945049827e-03
3.935831427679e-03
3.870645209230e-03
3.801201568725e-03
3.725603799515e-03
3.639085725317e-03
3.543100742275e-03
3.446526104450e-03
3.345191076447e-03
3.243715228956e-03
3.144990664401e-03
3.045676757981e-03
2.954587805370e-03
2.863530462467e-03
2.787709692856e-03
2.713073924014e-03
2.643066814312e-03
2.585248666976e-03
2.546860570283e-03
2.514406795124e-03
2.486647653402e-03
2.477988794267e-03
2.462843204881e-03
2.462275495824e-03
2.458796856680e-03
2.467336837286e-03
2.485374419907e-03
2.497893941712e-03
2.488193610275e-03
2.515648462707e-03
2.515430217934e-03
2.526068511141e-03
2.537446584011e-03
2.539709812543e-03
3.009700779501e-03
3.153649425146e-03
3.298251738952e-03
3.441376435362e-03
3.588261551742e-03
3.737109777914e-03
3.885116560685e-03
4.035447438931e-03
4.185308227440e-03
-1.350366776577e-03
2.709119321993e-03
-3.199920164959e-04
2.061864698286e-04
7.131096580591e-04
1.219480023597e-03
1.768045905338e-03
2.102987176598e-03
2.254902148561e-03
2.399797230450e-03
2.549248986469e-03
2.192620942654e-03
2.288359676063e-03
2.432640637193e-03
2.575282015806e-03
2.716824420334e-03
2.845068867392e-03
2.853395072008e-03
2.851616891221e-03
2.846895821071e-03
2.862742087081e-03
2.841322725535e-03
2.833668978772e-03
2.828190484003e-03
2.820774590765e-03
2.808220742649e-03
2.794369526446e-03
2.777282188341e-03
2.757774334010e-03
2.736569203540e-03
-1.947238399123e-03
-2.210369399308e-03
-2.264360354927e-03
-2.039931185593e-03
-1.209972787934e-03
-4.131081090366e-04
-1.078383439165e-04
2.673752488219e-05
9.497895573591e-05
1.065231308471e-04
1.199921015057e-04
1.353580605130e-04
1.452734707153e-04
1.554913126299e-04
1.547954205665e-04
1.561753488434e-04
1.579640314619e-04
1.605329257620e-04
1.646308320891e-04
2.073734335269e-03
2.183260848659e-03
2.247767709235e-03
2.271749435098e-03
2.285901697202e-03
2.288265335686e-03
2.286994396674e-03
2.282254714683e-03
2.276445902640e-03
2.270037029572e-03
2.263669374041e-03
2.257467930028e-03
2.251651145173e-03
2.246346453866e-03
2.241623415022e-03
2.237527038366e-03
2.234126766202e-03
2.231578332106e-03
2.230080549716e-03
2.229213723577e-03
2.220230624898e-03
2.195331586635e-03
2.290116625745e-03
2.294677264398e-03
2.296257183990e-03
2.297312251456e-03
2.298629042953e-03
2.300304354463e-03
2.302293230505e-03
2.304514651321e-03
2.306936247262e-03
2.309423114048e-03
2.311817936027e-03
2.313862242194e-03
2.315170235650e-03
2.315418951698e-03
2.313473966793e-03
2.308517481804e-03
2.297381311834e-03
2.280130952369e-03
2.246420282182e-03
2.196091095622e-03
2.306102253062e-03
2.350699189826e-03
2.377511473941e-03
2.395146635968e-03
2.409023807039e-03
2.417956513916e-03
2.424643068704e-03
2.429098813769e-03
2.432042584171e-03
2.433976013074e-03
2.435205233286e-03
2.435892988126e-03
2.436261874410e-03
2.436333531218e-03
2.436315244971e-03
2.436135352360e-03
2.435679480375e-03
2.434424799659e-03
2.433185405244e-03
2.575612676904e-03
2.575910841513e-03
2.575675819901e-03
2.574959110889e-03
2.573845774167e-03
2.572146209634e-03
2.569944736235e-03
2.566786395598e-03
2.562636027083e-03
2.557464181008e-03
2.550856405014e-03
2.542244811201e-03
2.531080755834e-03
2.515948745918e-03
2.498842858454e-03
2.476721329953e-03
2.434062137704e-03
2.573271264130e-03
2.614122205497e-03
2.633925409738e-03
2.651873752802e-03
2.666369061886e-03
2.678107705907e-03
2.687109203686e-03
2.694895391143e-03
2.701846987554e-03
2.706071757559e-03
2.710063554316e-03
2.712706246935e-03
2.714966003477e-03
2.716209384864e-03
2.717811679861e-03
2.717997925819e-03
-7.026074261168e-04
-5.220823110387e-05
4.645717106912e-04
9.633612708042e-04
1.441295659169e-03
1.990269673041e-03
2.188722259250e-03
2.336802970231e-03
2.483957037777e-03
2.638728502394e-03
8.481357333418e-05
2.537746654549e-03
6.179738338969e-05
-1.393356491653e-03
2.426087164042e-03
1.114207227203e-03
1.305587477719e-03
2.777760465060e-03
1.963590676575e-03
3.138129197490e-03
2.377333417818e-03
2.446718780412e-03
1.577311282093e-04
3.519804757347e-03
2.720652892377e-03
8.093603556522e-04
1.667004282537e-03
3.750615731537e-03
3.992866252666e-03
4.195805297931e-03
4.145614752661e-03
4.098702276431e-03
2.856063071708e-03
2.936439454790e-03
2.976172720654e-03
3.516059000147e-03
2.458931832846e-03
-1.734242585325e-03
1.816889026530e-04
2.096877001477e-03
2.975896047129e-03
4.574327725916e-04
3.865336720857e-03
2.959980885270e-03
3.333796203341e-03
2.644276936948e-03
2.469674565793e-03
-2.729204078734e-04
2.899312158317e-03
2.404022780301e-03
3.806286449029e-03
1.234157501505e-04
1.046324374624e-03
4.229434545626e-03
1.571773151226e-03
6.079648960562e-04
2.195407397949e-03
2.548038875071e-03
-5.252266524970e-04
3.237790142526e-03
2.493804260143e-03
1.837389172439e-04
4.103333750663e-03
2.798545634086e-03
2.818785210192e-03
2.912005660819e-03
2.927443675262e-03
3.028326508658e-03
3.042358782329e-03
2.936287876204e-03
3.052252701988e-03
2.939871544793e-03
3.148017370817e-03
3.057564350090e-03
2.938911798858e-03
3.058417750176e-03
2.933948336749e-03
2.818129831196e-03
2.807413345964e-03
2.694610020233e-03
2.677708502440e-03
2.794160246334e-03
2.658756400342e-03
2.543815998951e-03
2.519670322838e-03
2.404764041638e-03
2.375673936668e-03
2.258483405771e-03
2.225726985938e-03
2.348972633668e-03
2.197046005872e-03
2.069752342471e-03
2.040168542681e-03
1.906830847237e-03
1.877347850732e-03
2.016571564276e-03
1.855967578021e-03
1.707494380853e-03
1.691093806828e-03
1.531644724557e-03
1.522862868356e-03
1.351112347049e-03
1.350556987498e-03
1.523629936586e-03
1.360480240504e-03
1.175456205230e-03
1.197301627014e-03
1.381111824639e-03
1.230135217917e-03
1.410600937862e-03
1.271833527902e-03
1.085233640952e-03
1.140153333499e-03
1.319736219523e-03
1.199321830693e-03
1.017000003267e-03
1.088444740533e-03
1.261980365770e-03
1.160407320239e-03
9.877978100013e-04
1.068442299682e-03
1.232900069048e-03
1.146408365249e-03
9.853566937739e-04
1.067632551876e-03
1.222356569937e-03
1.146125124100e-03
1.295649833370e-03
9.949070448260e-04
1.075357181571e-03
9.283947678752e-04
1.009662997745e-03
1.999688951543e-03
8.680909703875e-04
7.829506855371e-04
9.483680598062e-04
1.086626789956e-03
8.121149825778e-04
8.904049791408e-04
7.598081922309e-04
1.361290029542e-03
2.779054391016e-03
8.348719081382e-04
7.094330465619e-04
6.334196149406e-04
5.891019245635e-04
3.127266046399e-03
3.255851284424e-03
3.227534260949e-03
3.362525823026e-03
3.331265058461e-03
6.594650404003e-04
3.182434267581e-03
3.389039261302e-03
2.435420513378e-03
1.943626226589e-03
1.553904744438e-03
9.638358982824e-04
9.054807616252e-04
1.033013346087e-03
1.374668891024e-03
1.443028549977e-03
1.523652242934e-03
1.587754554159e-03
1.668945153048e-03
1.729703375192e-03
1.651407854136e-03
1.790760475858e-03
1.714615206504e-03
1.810570990876e-03
1.753395444122e-03
1.852045424901e-03
1.777555114409e-03
1.913924396176e-03
1.840433534766e-03
1.703942521411e-03
1.767223967322e-03
1.631757248461e-03
1.580224790423e-03
1.717480503552e-03
1.740436945666e-03
1.872163668909e-03
1.892147605505e-03
2.018856558192e-03
2.035381672944e-03
1.917157040246e-03
3.054299426654e-03
1.000589530489e-03
9.770140424495e-04
7.877251570308e-04
7.625506152253e-04
5.547832138270e-04
5.291284076231e-04
2.964440640686e-04
3.492417091367e-04
6.283498446610e-05
1.560658044024e-04
-1.438374292270e-04
-1.533966094444e-05
2.325092319472e-03
2.006586748724e-03
2.148834667595e-03
2.142167251954e-03
5.136695834612e-04
1.903375539375e-03
1.894130515436e-03
1.840441073912e-03
2.057893079115e-03
5.444394961729e-04
2.726862472060e-04
5.284328424572e-04
3.468503063467e-03
3.433181760124e-03
1.979992147359e-03
6.102562535181e-04
1.927854807142e-03
-2.327753302898e-04
1.830128323140e-03
1.965905476559e-03
1.575819793263e-03
2.280970347766e-03
2.278198911097e-03
2.659035204367e-04
1.281809352102e-04
-1.343219848253e-04
3.425073939719e-05
2.772036568896e-04
1.931446410602e-04
-2.211487910415e-05
1.465923159951e-04
3.430423312454e-04
2.967934762552e-04
1.296208968083e-04
2.722444417174e-04
2.039137195702e-03
-4.200905289951e-04
2.708885728276e-03
2.030202305461e-03
2.169724224452e-03
3.574257048085e-03
3.534609820551e-03
3.393722234578e-03
3.491603138443e-03
3.635571671374e-03
3.588976716119e-03
3.445516690876e-03
3.539777118493e-03
3.396761836833e-03
3.488209568491e-03
3.633721342386e-03
3.579438111565e-03
3.434301652324e-03
3.523226762421e-03
3.378161390496e-03
3.464726513053e-03
3.611959620061e-03
5.020920998962e-04
1.946420345896e-03
2.084899229203e-03
9.743632377813e-04
1.098858358950e-03
1.163712302935e-03
1.230018502714e-03
3.550466844723e-03
3.699963385912e-03
2.882736143036e-04
5.564620673789e-04
3.610333715217e-03
1.892764451113e-03
1.757703282754e-03
1.772718039369e-03
1.818505335510e-03
1.636557735762e-03
1.691880036918e-03
1.874693458644e-03
1.493711182286e-03
1.695952657075e-03
3.726937907045e-03
5.514414309272e-04
4.325048137502e-04
2.028721666435e-03
1.801522305732e-03
2.474500786871e-03
2.453901603364e-03
2.601796382016e-03
2.582912638697e-03
2.730711460880e-03
2.711737339803e-03
2.566262164270e-03
2.415182891012e-03
2.695773076600e-03
3.402428407385e-03
1.997380408036e-03
4.765643092261e-04
4.374762556876e-04
1.410032708452e-04
5.573250253221e-04
6.718118860011e-04
2.113688865411e-03
2.860949314371e-03
2.877528486112e-03
1.764094180674e-03
1.942591828509e-03
2.412883531058e-03
3.198961545508e-03
3.305387393426e-03
3.256538808273e-03
4.386692440871e-04
1.276050135860e-05
3.735576754528e-03
7.709501706359e-04
8.094354851780e-04
-5.125463823747e-04
-7.417571449576e-04
3.635345717417e-03
3.784550224320e-03
1.296142232920e-03
1.361058333052e-03
2.069411229482e-03
2.597174188198e-04
3.850013134998e-03
1.839378298706e-03
1.690292391775e-03
1.162922629495e-03
3.421094845415e-04
5.788274059844e-05
5.381114140174e-04
3.948800722960e-04
6.150992177294e-04
2.199654464118e-03
3.782435309184e-03
2.551984540350e-03
2.420199178616e-03
2.680575667223e-03
1.540135907475e-04
2.163511242171e-03
1.955375448165e-03
3.004795518550e-03
3.022957643760e-03
1.000549621656e-03
1.049923868200e-03
8.716913190683e-04
1.119120105613e-03
2.829194112018e-03
1.222099123460e-03
2.589990882288e-03
2.608252538093e-03
2.493639322937e-03
2.040533663164e-03
2.099868990707e-03
9.674624161103e-04
1.700053656848e-03
1.229284239526e-03
1.567777050605e-03
1.458636888598e-03
3.781335110657e-03
3.876767195417e-03
3.291110711578e-03
3.234775761595e-03
4.020827195640e-04
3.236334149253e-04
1.366672368257e-03
2.081409514383e-03
3.718828986400e-03
3.755904582163e-03
3.642529287067e-03
2.159357334356e-03
8.293766748744e-04
1.612346887258e-03
-5.739326270527e-04
2.153122052784e-03
3.019188888283e-04
2.915286291686e-03
2.092431247708e-03
2.164889481109e-03
2.541160053425e-03
2.725692779680e-03
2.140031309927e-03
1.990413980878e-03
2.515860941050e-03
2.408501513550e-03
2.374007585372e-03
2.290219186491e-03
6.516592943463e-04
5.924698489073e-04
3.001911903789e-03
2.821566331700e-03
3.153765806282e-03
3.173864312502e-03
2.536769443709e-03
2.413456340577e-03
7.274024360893e-04
2.017226129180e-03
3.885258631233e-03
2.621048055621e-03
2.208825206970e-03
2.137632781282e-03
-9.680404157633e-04
-6.664478446240e-04
3.936595171366e-03
9.494929668252e-04
1.196812250376e-03
6.924437879725e-04
2.379120703505e-03
2.976364976968e-03
2.230836239715e-03
2.193464291104e-03
4.003843605626e-03
2.134287915847e-03
1.589288224062e-03
2.025725548826e-03
3.860007092726e-03
4.025223857060e-03
3.168438393088e-03
3.113501365900e-03
3.210528075750e-03
-2.566786787351e-04
-5.416202679146e-04
3.819104228289e-03
8.487384328966e-04
9.254566011775e-04
3.686836906438e-04
5.022367468270e-04
1.363525038523e-03
1.296143584180e-03
2.904021493575e-03
3.042796654210e-03
2.620716007500e-03
1.736076455356e-03
1.584309390302e-03
1.534732738087e-03
3.928699421188e-03
4.039813852107e-03
7.229403527421e-04
6.167168779269e-04
7.520597262317e-04
3.932699795532e-03
2.301496342555e-03
2.235182765134e-03
2.346183710577e-04
2.416722703996e-04
1.526758628007e-04
-1.345294684126e-04
3.786748576450e-03
3.670697399092e-03
3.912952233317e-03
6.609991421876e-04
2.414385783267e-03
2.281348924595e-03
2.253352837138e-03
2.339149655335e-03
2.545076341978e-03
2.661037754939e-03
2.803582776322e-03
-1.211017252523e-03
3.977762964738e-03
3.143267376434e-03
-1.426069633170e-03
3.088136026565e-03
3.174756232048e-03
3.020427089626e-03
5.496444489039e-04
3.056046202510e-03
3.117095484645e-03
1.501964511036e-04
4.037824105280e-03
2.140319083984e-04
2.741056469388e-04
2.270915683614e-03
2.195726691805e-03
2.321675951719e-03
2.247628277198e-03
2.120627867825e-03
2.184322567450e-03
3.054577594156e-03
2.331549694195e-03
2.250797747272e-03
2.401288525515e-03
2.335515873500e-03
1.344829032316e-03
1.434669566752e-03
1.309411487094e-03
3.331316557277e-03
3.313157087927e-03
2.022227111133e-03
1.884737363620e-03
3.104565866692e-03
3.101902735333e-03
3.230879041132e-03
3.217424959312e-03
3.347960450136e-03
3.331119685209e-03
3.465423881000e-03
2.961663324499e-03
7.758242075875e-04
2.533441485097e-03
2.529922426846e-03
2.406954694159e-03
2.161795965911e-03
2.099594935904e-03
2.307530225562e-03
1.182985034283e-03
4.103404727733e-03
-1.372498810726e-03
-1.030545264446e-03
1.388363336834e-03
2.242711208186e-03
1.562552415592e-03
1.656915742398e-03
1.883932254439e-03
1.659381407909e-04
4.239215272495e-04
3.477392451157e-03
2.505909922795e-04
1.958271792386e-03
1.167074484846e-03
2.146279551168e-03
6.135104463341e-04
1.280647303507e-03
2.825521480116e-03
2.827496481626e-03
2.724963877504e-03
1.165368708492e-03
1.856787445103e-03
1.770228074514e-03
2.567729921323e-03
3.527642883945e-03
3.551203916300e-03
3.690088719583e-03
3.568232231603e-03
3.429655593497e-03
3.443319382783e-03
3.586796005830e-03
3.456007552544e-03
3.624501332363e-03
3.457992178499e-03
3.318702960198e-03
3.316046052454e-03
3.440279853466e-03
3.181706603034e-03
2.643302625002e-03
1.551956297635e-03
-8.952806718624e-04
-6.297805318228e-04
2.295810053782e-03
3.815218345937e-03
3.940761464964e-03
7.559212905594e-04
3.426353950133e-03
2.719258547283e-03
1.063014045690e-05
3.236419414861e-03
3.411553052121e-03
3.293601110848e-03
3.276758869020e-03
4.034994693734e-03
3.254608468988e-03
2.875791390181e-03
1.857171605868e-03
1.845927154695e-03
1.688425979691e-03
3.314435817381e-03
2.583808006288e-03
2.465379097427e-03
2.423540213684e-03
2.333588121679e-03
2.499353726410e-03
3.689592359766e-03
3.614715298876e-03
4.119774123805e-04
5.043094531923e-04
7.128799329166e-04
6.149636976189e-04
3.843365022358e-04
5.175288474015e-04
7.431106021927e-04
4.261524276249e-04
3.177340341093e-03
2.452646883668e-03
1.608269266639e-03
1.546452563033e-03
1.392339216402e-03
1.159756275639e-03
1.225890117576e-03
1.364869518653e-03
1.095657872247e-03
2.435471233398e-03
2.436613920480e-03
1.649210096768e-03
1.152273680503e-03
2.879368855613e-03
2.976517134479e-03
2.946165015657e-03
3.082239671474e-03
3.014440164408e-03
1.428787714692e-03
1.492247802792e-03
1.424026786866e-03
1.554279321817e-03
1.482414632609e-03
1.362604183255e-03
1.612973090209e-03
1.530211417430e-03
2.916477746471e-03
-7.225954990381e-04
-4.407570035295e-04
-1.895035308651e-04
-2.522854000369e-04
-4.448577090562e-04
-2.114211156962e-04
-3.805941313515e-04
-7.992353449602e-04
-9.917108746904e-05
-4.724043043280e-05
1.217219920972e-05
4.297770694964e-05
4.697526025752e-05
3.458399133066e-04
2.447516993082e-03
1.170291806891e-03
1.106458323920e-03
9.884674830154e-04
1.046145831489e-03
1.219828156713e-03
9.259102298061e-04
8.795275393663e-04
1.854435022681e-04
2.629662516462e-04
2.589550558055e-04
3.538833334365e-04
3.483293159094e-04
2.598651034723e-04
2.525030015722e-04
1.763134398720e-04
2.434566504065e-04
3.350029003247e-04
1.675225583278e-04
3.663556824500e-03
3.744317752888e-03
2.419973422716e-03
2.960053095581e-03
9.100232101979e-05
4.178713346786e-03
4.174254240275e-03
4.190669719413e-03
2.238570641509e-03
2.306859314090e-03
4.193390931565e-03
6.793462772576e-04
3.704716425827e-03
3.910453348687e-03
1.208348319414e-05
5.436414454005e-04
1.820150943092e-03
1.640401438853e-03
2.101044016247e-03
1.695047317195e-03
1.976396242226e-03
2.378853533466e-03
5.064573100516e-04
3.344870658206e-03
3.319786743741e-03
3.670373951228e-03
7.802611993863e-04
1.299036885845e-03
4.764116887300e-04
3.170887163217e-03
2.466442788862e-03
1.304589160988e-03
1.024114566368e-03
7.288512099523e-04
4.303371236514e-04
1.735383552715e-03
1.221714241640e-03
1.868666245975e-03
3.760611585728e-03
1.475127485008e-04
1.948308780041e-03
1.509978426230e-03
3.350771501087e-03
2.157612481971e-03
-2.763090247802e-05
3.685509732203e-03
3.861840425683e-03
3.160089381318e-03
3.715030174351e-04
3.201169321441e-03
2.239112122207e-03
3.500249215087e-03
7.262764939253e-04
1.447207909860e-03
2.105123208983e-03
2.635584718213e-03
3.966323136071e-03
1.843210876649e-03
2.193219640863e-03
1.768727914631e-03
7.904912831904e-04
2.062853809715e-03
1.534825184699e-03
3.833584977324e-03
2.747872309009e-03
1.037448025590e-03
3.678963724278e-03
1.326144078168e-03
2.284126162883e-03
2.335619443660e-03
2.496496898629e-03
2.925150240334e-03
2.172761926056e-03
1.748283162527e-03
2.004611363516e-03
-3.037004490261e-04
1.438263038931e-03
3.296318729974e-03
2.836538040895e-03
3.982901286748e-03
1.988194065081e-03
1.987657521989e-03
3.824445649422e-03
1.294548967359e-03
5.813735088354e-04
-2.207643586731e-04
6.018750083345e-04
1.684712332654e-03
1.435791724865e-03
3.826932310639e-03
2.048909377496e-03
1.931257745361e-03
-1.975975359747e-04
2.630553466768e-03
2.111812902035e-03
1.489111686474e-03
2.287415856382e-03
1.407624261759e-03
3.075151554229e-03
2.225238952741e-03
2.177397392468e-03
1.984561116991e-03
9.740139882904e-04
2.979407026602e-03
2.332758162905e-03
2.120994655984e-03
2.304503428476e-03
1.371653963791e-03
2.464290197776e-03
1.502892855303e-03
2.639301871632e-03
4.073372583204e-03
2.211925532177e-03
3.163857193333e-03
1.432135829054e-03
2.135959106282e-03
3.427829048943e-04
2.438426745645e-03
1.497495594557e-03
6.669761722230e-04
1.426850093379e-03
2.658890672909e-03
1.561570552660e-03
8.847648056826e-04
1.624374580041e-03
2.292551991536e-03
3.175617093008e-03
1.686430991480e-03
2.763377861134e-03
3.310120732629e-04
2.287388850111e-03
2.162645735696e-03
8.430655509089e-04
1.485174890386e-03
3.306606454538e-03
2.096608305569e-03
1.638562969438e-03
2.891783698466e-03
2.277943117113e-03
1.840411170378e-03
1.787689574840e-03
1.959252794232e-03
5.936117110528e-04
4.651063956339e-04
9.486193820866e-04
3.035816530799e-03
4.421496660760e-04
3.184086132030e-03
2.545499932756e-04
8.236922565021e-04
2.415851239039e-03
3.377701037117e-03
9.061348667052e-04
6.942376339177e-04
8.073983685661e-04
1.990119982953e-03
8.989978593702e-04
8.206307326669e-04
4.058147409275e-03
9.106864532014e-04
4.221153419201e-03
2.464998249147e-03
3.090397379032e-03
1.835814505132e-03
-1.799645250883e-03
1.540876248189e-03
6.924104208046e-04
3.048197549491e-03
3.095285381243e-03
6.402269859003e-04
3.586560361022e-03
3.047926506672e-03
3.591097719962e-03
2.291795866079e-03
2.277013844984e-03
3.946371816816e-03
2.956554461730e-03
9.281405473688e-05
1.819426184754e-03
1.344697866493e-03
1.029177567818e-03
5.136714388013e-04
8.400134249569e-04
-7.948482113602e-05
8.612964407557e-04
2.501955690602e-03
3.046346914964e-03
2.546887152139e-03
3.510752820714e-04
3.967367239425e-03
2.809264993770e-03
2.435939980019e-03
2.674038270889e-03
-3.109483505706e-05
3.085192735366e-03
3.259197647072e-03
3.703897871093e-03
2.455362304545e-03
2.999420665364e-03
4.092531851075e-03
-3.875326709219e-04
4.101237615982e-03
3.178675622945e-03
3.262603497454e-03
3.019722929023e-03
2.369596659243e-03
3.719447147736e-03
-3.763858951408e-04
3.579060316016e-03
1.041119890233e-03
-1.161366616644e-03
2.321137494275e-03
3.309762267195e-03
2.352602433782e-03
3.533040036702e-04
1.646427711900e-04
2.352366156602e-03
3.456992366457e-03
-1.755950998244e-04
4.168416332775e-03
-8.154813702812e-04
2.928940752190e-03
2.248295664892e-04
2.464382187950e-03
4.055211248499e-03
1.160395860640e-03
2.832261112169e-03
7.701571639706e-04
2.935839150324e-03
9.786008099006e-05
4.090784074428e-03
2.388486555258e-03
3.907453673567e-03
2.742100992290e-03
-1.358918235759e-03
2.918130369570e-03
2.320656790864e-03
2.962015404037e-03
3.807702474703e-03
9.379760609408e-04
4.126782554130e-04
4.241345806855e-03
1.791181874146e-04
2.961328837927e-03
2.497711889835e-03
4.156833261831e-04
3.195802240762e-03
3.539631084313e-03
1.440984898710e-03
3.860117721187e-03
-1.105896292798e-04
-1.832314974966e-03
3.454649965779e-03
2.754933204896e-03
3.982998180808e-03
3.344894073880e-03
-3.544953196896e-04
3.414378439697e-03
1.255420591218e-03
3.121621098816e-03
2.398377565032e-03
-9.579500712839e-04
1.554962650955e-03
2.022836846363e-04
2.354951676397e-03
1.313406810802e-03
2.135763104303e-03
2.209946226519e-03
2.233290149626e-03
2.365165603250e-03
2.356800210180e-03
2.500052540330e-03
2.493366933520e-03
2.650902226235e-03
2.638589968289e-03
2.783869215269e-03

SCALARS node_materi_strain_total_size_dev_sd_ept float
LOOKUP_TABLE default
6.492441234040e-04
7.925444920336e-03
6.209167814103e-03
1.055906224293e-02
4.038373261104e-04
4.030380407284e-04
7.546476557040e-04
1.178326567894e-03
1.572950693057e-03
1.927952032580e-03
2.257944667801e-03
2.566928286879e-03
2.861400360942e-03
3.153754984728e-03
3.454881869701e-03
3.747685441507e-03
4.020322617428e-03
4.328757103920e-03
4.658188046623e-03
4.988782933195e-03
5.331197090475e-03
5.682067226867e-03
6.015064622706e-03
1.056277694129e-02
1.054771944939e-02
1.054935901143e-02
1.054319965996e-02
1.053190283474e-02
1.053060827354e-02
1.052065580194e-02
1.050013609054e-02
1.048895168789e-02
1.046155886487e-02
1.043100920124e-02
1.039951426523e-02
1.035682284058e-02
1.029794321388e-02
1.023467226479e-02
1.014749547900e-02
1.005776027087e-02
9.953306317116e-03
9.829396086204e-03
9.687540739704e-03
9.516188996913e-03
9.329456762640e-03
9.115526753052e-03
8.881438803381e-03
8.634545632498e-03
8.374342325657e-03
8.099918138539e-03
7.816222159742e-03
7.532797056628e-03
7.284170641092e-03
7.011683382808e-03
6.744612289319e-03
6.518309123233e-03
6.354298656611e-03
6.211298145565e-03
6.112088278545e-03
6.041188804485e-03
5.995928148082e-03
5.968927240007e-03
5.969155375405e-03
5.998364852276e-03
6.047442603825e-03
6.081508312077e-03
6.065345422093e-03
6.142157553781e-03
6.155436488697e-03
6.185654463500e-03
6.215374345535e-03
6.224781134562e-03
8.262840076159e-03
8.594047915827e-03
8.903715668401e-03
9.192501191829e-03
9.471987291740e-03
9.734700959816e-03
9.981794075178e-03
1.021121740890e-02
1.043758596579e-02
3.859692613458e-03
8.145228220822e-03
4.324284872636e-03
4.574729451024e-03
5.192976318620e-03
5.832113741447e-03
6.584872817766e-03
6.726380018419e-03
7.033839839888e-03
7.398509372398e-03
7.765901671587e-03
6.308138255857e-03
6.498460782818e-03
6.845040803768e-03
7.203104970174e-03
7.557514267806e-03
7.876355959306e-03
7.901782012171e-03
7.912214943575e-03
7.917208660989e-03
7.973939123834e-03
7.947592335578e-03
7.958495128307e-03
7.977529725148e-03
8.008497586286e-03
8.027463196268e-03
8.044574475210e-03
8.064317336285e-03
8.082597233320e-03
8.105713986453e-03
2.980518014589e-03
2.729079628926e-03
2.794053685795e-03
2.805236156944e-03
2.841946003516e-03
1.934454727721e-03
7.337395479590e-04
1.762622681831e-04
2.215501564365e-04
2.908991331400e-04
3.416219120965e-04
4.165625341291e-04
4.891342154317e-04
5.551208872377e-04
5.580632024873e-04
5.626940266675e-04
5.739488246301e-04
6.093349322658e-04
6.455498906278e-04
6.428844269075e-03
6.167326857740e-03
6.044855438300e-03
5.997302571509e-03
5.983685186215e-03
5.989825929218e-03
6.010974699863e-03
6.038919249969e-03
6.070616342048e-03
6.103245521652e-03
6.134948502897e-03
6.164446472578e-03
6.191315804843e-03
6.215238008157e-03
6.235964009412e-03
6.253384819045e-03
6.267591228690e-03
6.278940447302e-03
6.287758119857e-03
6.293275369930e-03
6.293963380955e-03
6.276026453240e-03
6.494838066492e-03
6.485008597974e-03
6.478758133652e-03
6.471764013902e-03
6.464396520802e-03
6.455979188013e-03
6.445878403942e-03
6.433725455136e-03
6.419647191091e-03
6.404112344571e-03
6.387485827698e-03
6.370170031819e-03
6.352955651069e-03
6.338165984390e-03
6.328084738614e-03
6.326047254604e-03
6.334588325375e-03
6.359190076174e-03
6.445035132385e-03
6.470180615293e-03
6.909959465400e-03
6.936146767675e-03
6.883183553809e-03
6.861074950390e-03
6.846436329522e-03
6.837464747331e-03
6.834260841897e-03
6.832881696153e-03
6.833001368582e-03
6.834018306747e-03
6.836077481115e-03
6.838373602891e-03
6.839941627366e-03
6.841525992015e-03
6.843429543107e-03
6.846127404023e-03
6.849002918116e-03
6.850063887657e-03
6.847217284323e-03
7.207166652064e-03
7.210178460081e-03
7.212471323099e-03
7.214944609397e-03
7.217832074143e-03
7.222686964440e-03
7.228465628047e-03
7.235394847105e-03
7.241762952444e-03
7.251172116357e-03
7.262246051442e-03
7.274472986488e-03
7.289321331631e-03
7.303620224014e-03
7.321816545217e-03
7.364939327656e-03
7.323414568520e-03
7.703440282698e-03
7.754329426705e-03
7.722721483496e-03
7.700807958669e-03
7.682242252875e-03
7.663992286984e-03
7.646071971309e-03
7.630974050237e-03
7.616652915674e-03
7.603742495036e-03
7.592779206038e-03
7.583480349222e-03
7.577307548210e-03
7.569548336800e-03
7.566659383405e-03
7.567210332927e-03
4.608640127165e-03
4.385710573529e-03
4.853818082124e-03
5.537753329408e-03
6.321403185978e-03
6.743106747764e-03
6.938190642731e-03
7.270808339075e-03
7.630507251852e-03
7.984108459564e-03
4.530219845249e-03
6.118045303911e-03
3.770864417025e-04
3.202999764492e-03
5.720603557535e-03
5.698599432795e-03
3.308174269646e-03
7.077759408020e-03
6.884862933273e-03
8.305190782086e-03
7.563882701767e-03
5.878153142899e-03
3.112571126295e-04
9.330449604453e-03
8.272119701929e-03
2.111000233636e-03
4.114762486509e-03
9.841142485378e-03
1.023891916415e-02
1.046530953238e-02
1.042595650919e-02
1.037878690240e-02
8.415089154697e-03
8.345681986476e-03
8.307261973074e-03
9.337112684310e-03
5.983763667746e-03
3.126567280944e-03
3.956352209684e-04
5.139672811533e-03
8.220196162365e-03
9.710700345406e-04
1.005842025950e-02
7.739268348906e-03
8.864470498015e-03
6.539680494555e-03
5.871333198103e-03
1.948201233302e-03
8.374619849144e-03
5.686663604989e-03
9.857307596105e-03
1.936806503923e-04
2.715281147297e-03
1.050278803136e-02
6.428264541853e-03
5.050941622323e-03
7.235985012417e-03
7.917341024044e-03
4.534816006183e-03
8.775215079777e-03
6.106159541961e-03
4.465957301449e-04
1.030955420356e-02
8.435312793357e-03
8.537035741964e-03
8.695507056129e-03
8.785992637200e-03
8.966148966646e-03
9.017457066529e-03
8.828048655107e-03
9.035508381789e-03
8.823472745023e-03
9.196809671700e-03
9.013332926282e-03
8.774805347503e-03
8.951034753061e-03
8.683251328926e-03
8.515181759839e-03
8.388813007849e-03
8.233132810793e-03
8.066412911624e-03
8.221518996166e-03
7.855945426675e-03
7.712131193064e-03
7.457218266053e-03
7.326371969828e-03
7.025571517807e-03
6.907014280977e-03
6.562647379502e-03
6.701679103985e-03
6.202249722805e-03
6.073842916618e-03
5.681001501363e-03
5.565962487148e-03
5.144829247493e-03
5.292389715956e-03
4.734172886925e-03
4.602589070301e-03
4.175548556676e-03
4.073165666303e-03
3.633075648350e-03
3.578638176730e-03
3.123612391859e-03
3.224126860166e-03
2.707174634278e-03
2.682674883896e-03
2.267864610383e-03
2.357003048440e-03
1.934379958831e-03
2.102887212640e-03
1.717426901383e-03
1.669103460652e-03
1.506274348966e-03
1.643984287044e-03
1.497591938374e-03
1.511992007481e-03
1.544576497254e-03
1.624670315513e-03
1.688573897919e-03
1.723004918112e-03
1.846793334585e-03
1.905274326133e-03
2.031956504281e-03
2.032796854236e-03
2.175469051791e-03
2.255377889710e-03
2.357128210532e-03
2.499888618611e-03
2.298577408442e-03
2.439917455841e-03
2.378528937170e-03
2.486302125356e-03
4.922597313092e-03
2.400229791157e-03
2.361037599566e-03
2.485093679729e-03
2.626973311439e-03
2.359784651663e-03
2.433933460717e-03
2.262541109399e-03
4.050690039917e-03
8.020884900888e-03
2.334509080157e-03
2.113556650891e-03
2.067800999554e-03
1.856408281241e-03
9.129533266907e-03
9.363133865526e-03
9.280581958305e-03
9.520360820454e-03
9.434887139573e-03
1.922477004656e-03
9.195046012347e-03
9.579471944110e-03
7.589175486276e-03
5.982498759814e-03
2.594410293346e-03
2.539597442580e-03
2.435765332612e-03
2.666781581392e-03
2.439062611643e-03
2.724253901959e-03
2.713151705412e-03
3.019540481975e-03
3.058472846539e-03
3.372276883372e-03
3.321587179367e-03
3.679861827624e-03
3.615147335031e-03
3.457208888813e-03
3.142973039031e-03
3.976799154205e-03
3.897487680111e-03
4.260803289569e-03
4.166409189771e-03
3.827505031517e-03
4.077113440503e-03
3.759230567852e-03
2.416648056336e-03
2.937254108087e-03
2.820236680634e-03
3.347160146947e-03
3.277764294903e-03
3.802452054231e-03
3.770592977697e-03
3.292238603783e-03
8.850422251315e-03
2.359101503940e-03
2.811408047787e-03
2.631150430322e-03
3.088574655815e-03
3.058752242747e-03
3.491121201645e-03
3.610069776651e-03
3.211989043507e-03
3.894995967186e-03
3.503032579262e-03
4.232881484874e-03
3.858978682345e-03
6.369434626480e-03
3.907945057878e-03
4.359355675265e-03
4.484211805409e-03
1.820685902765e-03
4.420079601759e-03
3.588965043021e-03
3.285155611138e-03
3.815088232071e-03
1.614489482953e-03
3.970699625978e-03
3.912201951987e-03
9.664361265968e-03
9.574521580567e-03
3.775955477606e-03
1.702637362277e-03
4.076187478784e-03
4.461270235726e-03
4.312202887878e-03
4.656220728083e-03
3.291728157743e-03
4.932589353761e-03
5.063304899792e-03
3.113532086278e-03
3.438821633205e-03
4.036394098719e-03
3.620604553758e-03
3.054060239097e-03
3.235078731804e-03
3.605015357237e-03
3.254345903200e-03
2.904675020369e-03
2.913914502888e-03
3.022012119760e-03
2.733349368303e-03
4.782320137221e-03
4.594236282893e-03
8.349331117606e-03
4.068073230911e-03
4.291652451282e-03
9.798691291365e-03
9.705775543224e-03
9.462282479675e-03
9.594886388772e-03
9.828930117127e-03
9.720390125726e-03
9.469827893242e-03
9.598684788286e-03
9.332874024620e-03
9.466582400801e-03
9.723284981441e-03
9.596010668464e-03
9.326787459352e-03
9.461809640840e-03
9.181115756993e-03
9.320622230183e-03
9.593585738732e-03
1.360298409640e-03
3.384411720434e-03
3.931018164317e-03
2.562555365898e-03
2.805000123346e-03
2.899927564525e-03
3.063664656468e-03
9.457467070641e-03
9.723699890302e-03
4.284543294673e-03
4.296477468394e-03
9.870488308175e-03
4.532594848926e-03
4.204249758160e-03
5.492328803365e-03
5.920048890902e-03
5.450740878839e-03
5.873526561343e-03
6.327735209503e-03
5.429746123501e-03
2.831330607098e-03
9.843694912598e-03
2.062013935267e-03
1.821736027839e-03
4.876719045048e-03
2.869188478414e-03
6.876697634635e-03
6.575175304338e-03
7.086807537646e-03
6.817805967192e-03
7.331039059163e-03
7.097489730996e-03
6.566740138097e-03
5.509402237371e-03
6.890333303546e-03
9.171247645650e-03
4.077428631971e-03
2.639432081935e-03
1.261606266627e-03
2.586627798087e-03
1.459732082089e-03
1.810120342963e-03
4.293160182987e-03
7.611229383947e-03
7.812393032751e-03
6.278185673734e-03
6.694208802184e-03
5.412881678958e-03
9.176992292246e-03
9.195369615407e-03
9.041456663439e-03
1.038678984412e-03
2.875456192673e-03
9.946365981493e-03
4.008219638686e-03
4.424081340664e-03
4.580175016045e-03
4.494295010624e-03
9.589637567203e-03
9.845616811738e-03
3.145191835713e-03
3.328066021227e-03
4.025905978614e-03
2.400702457516e-03
9.967898087867e-03
3.019651970243e-03
2.523380985818e-03
2.956632165464e-03
4.514573569218e-03
4.471781557778e-03
2.516386586058e-03
2.499912793919e-03
1.585892198542e-03
4.575306622058e-03
1.003630332663e-02
6.346728044050e-03
6.014952523221e-03
6.712212888261e-03
2.090515327300e-03
4.582777058588e-03
4.738434618907e-03
8.082415704761e-03
8.255754932112e-03
4.240539621061e-03
4.669088995062e-03
4.799457818235e-03
5.078078385252e-03
8.625548416425e-03
4.576658429486e-03
8.085610509727e-03
8.180771064517e-03
7.937488218818e-03
6.750910640736e-03
7.061038016985e-03
3.292633949800e-03
3.145241409733e-03
2.964332715095e-03
3.518983364912e-03
2.407823429691e-03
9.956050988751e-03
1.007034996844e-02
9.036047781178e-03
8.877648126662e-03
1.494689002286e-03
1.479565853593e-03
2.754913332664e-03
4.364538006332e-03
9.995204847691e-03
1.005052834126e-02
9.920432257929e-03
4.329728615865e-03
2.211057204701e-03
2.348812009437e-03
4.553244606673e-03
5.488026545786e-03
1.083815835576e-03
8.390601466098e-03
5.082132412930e-03
5.231292519236e-03
5.976307095082e-03
8.361038502433e-03
5.165387874113e-03
4.586232652143e-03
7.998330361258e-03
7.780723504021e-03
7.674567972632e-03
7.541988582956e-03
2.370392395176e-03
2.465480420467e-03
7.958036606309e-03
7.251192661194e-03
8.510916130565e-03
8.668029402710e-03
5.916707585251e-03
5.360269243259e-03
1.924998939245e-03
6.986275792469e-03
1.014731324857e-02
8.207675156387e-03
4.861911769058e-03
4.664204567787e-03
4.371481495988e-03
4.428290185343e-03
1.008760479048e-02
5.137563511809e-03
5.434936829344e-03
4.879506147629e-03
5.837768596206e-03
8.192726563463e-03
5.432794936901e-03
7.135661614335e-03
1.019998045405e-02
4.883916773726e-03
5.002664007661e-03
3.776599834662e-03
9.956121233811e-03
1.021252698971e-02
8.892655127690e-03
8.720772534834e-03
9.042915360399e-03
4.539524863300e-03
4.560528118712e-03
9.961413303677e-03
2.298846961863e-03
2.449106171530e-03
2.235490767078e-03
2.334472572679e-03
3.204468822344e-03
3.000846534598e-03
8.208179899106e-03
8.581424759510e-03
7.355964295730e-03
2.731793533631e-03
2.275991105483e-03
2.076261668591e-03
1.016011776218e-02
1.028929913115e-02
2.184708558305e-03
2.295496450369e-03
2.306512321828e-03
1.022187181336e-02
5.589537386029e-03
5.383981662170e-03
1.018151989767e-03
1.476867997681e-03
4.551270116937e-03
4.501436107366e-03
1.007491209215e-02
9.948988585121e-03
1.021112869580e-02
1.687127993340e-03
5.798264333264e-03
4.896020531934e-03
4.686577349052e-03
5.212686371147e-03
6.065221392931e-03
6.511713316105e-03
7.127071487111e-03
4.177490191540e-03
1.012934272412e-02
8.707231129438e-03
3.776674773210e-03
8.540826467579e-03
8.714652851218e-03
8.357255839166e-03
1.321823658080e-03
8.683502831066e-03
8.891833229435e-03
8.196952214250e-04
1.031704073890e-02
6.214299745291e-04
7.248296943618e-04
5.141111564597e-03
4.945876289052e-03
5.398954346472e-03
5.204269882653e-03
4.781990701385e-03
5.058229333018e-03
8.541345072492e-03
5.520310283593e-03
5.324119230154e-03
5.774654252553e-03
7.603426649944e-03
5.438287296922e-03
5.799679199568e-03
5.786436285499e-03
8.951867257288e-03
9.015283863047e-03
4.937420222130e-03
4.602638660939e-03
8.533603803074e-03
8.502222675615e-03
8.796325108052e-03
8.747981661114e-03
9.031280151639e-03
8.978590973776e-03
9.255674406122e-03
7.708468687798e-03
5.135341025330e-03
7.987274698985e-03
5.894723921922e-03
5.330926382464e-03
7.282850551031e-03
7.168042962701e-03
5.188609062785e-03
4.112382655943e-03
1.038968596375e-02
3.710846362482e-03
4.265559202114e-03
4.526412913519e-03
7.384364943087e-03
5.836094185401e-03
6.230323636848e-03
3.235859385606e-03
1.502762028276e-03
4.684690359497e-03
9.298834542241e-03
4.638036601569e-03
4.800952577379e-03
3.629051328757e-03
6.818353880607e-03
4.621043413760e-03
5.025934171669e-03
8.594789686743e-03
8.605516960553e-03
8.410086893077e-03
3.144064726198e-03
6.646105894797e-03
6.545610511533e-03
7.925490030294e-03
9.774324390962e-03
9.791149079406e-03
9.942262215766e-03
9.782204611339e-03
9.615510831640e-03
9.592561366262e-03
9.751480266559e-03
9.547112332759e-03
9.740450965258e-03
9.468784490730e-03
9.295186233567e-03
9.200620471990e-03
9.365054362983e-03
9.023122839156e-03
6.460926963773e-03
4.531769020062e-03
4.376731118189e-03
4.663990063573e-03
7.220682269779e-03
9.959374983458e-03
1.017484206985e-02
3.557640967584e-03
9.109391470773e-03
8.408780806690e-03
4.189389785917e-03
8.596859722248e-03
9.612208596392e-03
9.429794647051e-03
9.412095845127e-03
1.030234000795e-02
9.190931726821e-03
7.453152072688e-03
3.498769067106e-03
3.721462788871e-03
3.430834018516e-03
9.369592702324e-03
6.314349305737e-03
5.659772993619e-03
5.493190280314e-03
5.014789551967e-03
5.964984276387e-03
9.703984745256e-03
9.540447978739e-03
2.744947173763e-03
2.491886079941e-03
2.023257988260e-03
2.203319291922e-03
2.771031263307e-03
2.473119492350e-03
1.961641353392e-03
2.819068368925e-03
8.793653090236e-03
5.796837566628e-03
2.742937860469e-03
2.432100613194e-03
2.112034476110e-03
2.789547934146e-03
2.800870566173e-03
3.014518892838e-03
2.745671661158e-03
6.282121889122e-03
5.748236107278e-03
2.389104471215e-03
2.610766797111e-03
8.403516204063e-03
8.693696441474e-03
8.709533694072e-03
8.982476896697e-03
8.711902589717e-03
3.406870933970e-03
3.602658582228e-03
3.504487823508e-03
3.788997116099e-03
3.665141958098e-03
3.401239816087e-03
3.960640664365e-03
3.798487389571e-03
8.360483826263e-03
2.883091151715e-03
3.313067010859e-03
2.454439928841e-03
3.335661039728e-03
3.914851103557e-03
3.692057268783e-03
4.226243212352e-03
3.989754438276e-03
1.106963347400e-03
1.760856320454e-03
6.237741866753e-04
1.268395729388e-03
2.162048373837e-03
1.878092614468e-03
5.977323370431e-03
3.002532851985e-03
2.856868681524e-03
2.579439029715e-03
2.716341982640e-03
3.109069256065e-03
2.421166447284e-03
2.308455314142e-03
4.156505725093e-04
3.269017416445e-04
3.194994231119e-04
5.980658996758e-04
6.004413110372e-04
3.295881601440e-04
3.339085225321e-04
3.714060640175e-04
3.516208357769e-04
6.861303294750e-04
3.480547360385e-04
9.609356705361e-03
9.752687905763e-03
5.716388449102e-03
8.349581108974e-03
2.520035804168e-04
1.043793549545e-02
1.045346045768e-02
1.046314690073e-02
5.490847708051e-03
5.646353418284e-03
1.044622002405e-02
2.229222271763e-03
9.931993781899e-03
1.007739535774e-02
4.377897892898e-03
2.454830518414e-03
4.408197866260e-03
3.565300806346e-03
5.014376064920e-03
3.988112046084e-03
4.530266490597e-03
5.315684770928e-03
1.214780588893e-03
9.185850252099e-03
9.030052403104e-03
9.722292785220e-03
2.192979229819e-03
3.238514040410e-03
1.544620932639e-03
8.429736931555e-03
7.798969649051e-03
2.162154439552e-03
2.604238435413e-03
2.329855140416e-03
2.637563247473e-03
5.048987174395e-03
2.563798978092e-03
3.769745741452e-03
9.846317147053e-03
2.238662943330e-04
3.895504407219e-03
3.010047773260e-03
9.335330944906e-03
4.291857083512e-03
3.359327575042e-03
9.840349972041e-03
1.015760074755e-02
9.041503798033e-03
1.156237777149e-03
8.880050765500e-03
4.840586180071e-03
9.732004149784e-03
2.015081037877e-03
1.969388741559e-03
6.458370749603e-03
8.092472532509e-03
1.017285193628e-02
4.348718739911e-03
4.372542418531e-03
2.799396460293e-03
2.128761811974e-03
4.503068521422e-03
2.870948132436e-03
1.005904780946e-02
7.568183484169e-03
1.966016227369e-03
9.921156323950e-03
1.842313562607e-03
4.845988492894e-03
7.483597203207e-03
7.174660273272e-03
8.551548973400e-03
5.839785795675e-03
4.277816287911e-03
4.203238135146e-03
4.432219538132e-03
4.998476460267e-03
9.321685411645e-03
7.404567406697e-03
1.025303790100e-02
6.383855986413e-03
4.368959379015e-03
1.010679759630e-02
2.785579136744e-03
1.413364224394e-03
4.549587316987e-03
2.638422894508e-03
3.779392917153e-03
3.013378790554e-03
1.009954543414e-02
4.648114597209e-03
3.495475262606e-03
4.412779572857e-03
8.174947462312e-03
4.913604688418e-03
1.965358609767e-03
4.807459604005e-03
3.521750310720e-03
8.112954900481e-03
7.397606964482e-03
5.167750289914e-03
3.555038457404e-03
3.778621247780e-03
8.210318138119e-03
5.613963915335e-03
4.117299101053e-03
6.040638761992e-03
1.712320344817e-03
7.740236994612e-03
3.269791958642e-03
7.614827850985e-03
1.034649556132e-02
4.497145816430e-03
9.230499979867e-03
3.243370423764e-03
4.656397784650e-03
6.242450227210e-04
7.800809722092e-03
3.468740500563e-03
2.260725451455e-03
1.891395176644e-03
6.472906382433e-03
3.686745626153e-03
1.861088473630e-03
3.894285883470e-03
7.397636056349e-03
9.231559236728e-03
4.090952317999e-03
7.799130366100e-03
7.950659784753e-04
5.729631076722e-03
5.285830994333e-03
2.314170199502e-03
2.141097667259e-03
9.416763747670e-03
7.068652183106e-03
2.535639626709e-03
8.012977169246e-03
5.457931356046e-03
4.007440510173e-03
2.993466162776e-03
6.908616809881e-03
2.247125987596e-03
2.112457116654e-03
1.618797145139e-03
8.425969356170e-03
9.451678863822e-04
9.124069148821e-03
1.963399352672e-03
1.766845302323e-03
5.637953917095e-03
9.068996458398e-03
1.689043165484e-03
1.776264077035e-03
1.940300038156e-03
4.301904307676e-03
1.948331851327e-03
2.155823023372e-03
1.028674228471e-02
2.198846911700e-03
1.048280528655e-02
6.040552976930e-03
8.453594913162e-03
6.681393861777e-03
2.961134210802e-03
6.141728783627e-03
2.377926110008e-03
8.723137080919e-03
8.471480966010e-03
2.359491173536e-03
9.609351056762e-03
8.034567512219e-03
9.483958006758e-03
4.834311948170e-03
5.237934038978e-03
1.007964982945e-02
8.227048604256e-03
9.575310025549e-04
4.469199819942e-03
6.037107631315e-03
5.420712700497e-03
4.852251331063e-03
2.226803902697e-03
2.681513412539e-03
5.371787096847e-03
5.825940296541e-03
8.602303668546e-03
6.180420161038e-03
4.747779068872e-03
1.026240768424e-02
7.120650345376e-03
5.830964098221e-03
6.600077436576e-03
4.549477195125e-03
8.926938971760e-03
8.711861316156e-03
9.700395758166e-03
5.931247370004e-03
8.605262747261e-03
1.031012918835e-02
4.412812242328e-03
1.031052359963e-02
8.911481654672e-03
8.884881983889e-03
8.905138319776e-03
5.789249735706e-03
9.899194839391e-03
4.566927873678e-03
9.477115344424e-03
2.700671233123e-03
4.103345728511e-03
5.315654111019e-03
9.097328057942e-03
5.708982976055e-03
5.744843948045e-04
5.020502172195e-04
5.335959402075e-03
9.272123404129e-03
3.978335072648e-03
1.045481580574e-02
4.512711224693e-03
8.225240285862e-03
3.618115142872e-04
5.980226796454e-03
1.032063605625e-02
2.971481736208e-03
8.429696740618e-03
2.013844570492e-03
7.675125554905e-03
1.641934998556e-03
1.034251672492e-02
5.412412577063e-03
1.019367658163e-02
6.980056180314e-03
3.914461900906e-03
7.551172430480e-03
4.995045556960e-03
8.204818850627e-03
1.004601897628e-02
2.466822709032e-03
1.038977197714e-03
1.050386244694e-02
5.226903202664e-04
8.155374989805e-03
6.125555885411e-03
8.819070533282e-04
8.691295578636e-03
9.472620391019e-03
3.611290053628e-03
9.942553565136e-03
3.218297861173e-03
2.980605858844e-03
9.225559401462e-03
6.914809274685e-03
1.028261118768e-02
9.043233362284e-03
4.550298150824e-03
9.254797748798e-03
3.171573570689e-03
8.362980251742e-03
5.320758904714e-03
4.382131271902e-03
3.867598827015e-03
3.622367881908e-04
5.562237115112e-03
3.313139781342e-03
6.492482685185e-03
6.325575253962e-03
6.791439043303e-03
6.679166177199e-03
7.172354948950e-03
7.014698908598e-03
7.558294734743e-03
7.393727723275e-03
7.920338416897e-03
7.729288322191e-03


CELL_DATA 2134

SCALARS element_number int
LOOKUP_TABLE default
407
408
409
410
411
412
413
414
415
416
417
418
419
420
421
422
423
424
425
426
427
428
429
430
431
432
433
434
435
436
437
438
439
440
441
442
443
444
445
446
447
448
449
450
451
452
453
454
455
456
457
458
459
460
461
462
463
464
465
466
467
468
469
470
471
472
473
474
475
476
477
478
479
480
481
482
483
484
485
486
487
488
489
490
491
492
493
494
495
496
497
498
499
500
501
502
503
504
505
506
507
508
509
510
511
512
513
514
515
516
517
518
519
520
521
522
523
524
525
526
527
528
529
530
531
532
533
534
535
536
537
538
539
540
541
542
543
544
545
546
547
548
549
550
551
552
553
554
555
556
557
558
559
560
561
562
563
564
565
566
567
568
569
570
571
572
573
574
575
576
577
578
579
580
581
582
583
584
585
586
587
588
589
590
591
592
593
594
595
596
597
598
599
600
601
602
603
604
605
606
607
608
609
610
611
612
613
614
615
616
617
618
619
620
621
622
623
624
625
626
627
628
629
630
631
632
633
634
635
636
637
638
639
640
641
642
643
644
645
646
647
648
649
650
651
652
653
654
655
656
657
658
659
660
661
662
663
664
665
666
667
668
669
670
671
672
673
674
675
676
677
678
679
680
681
682
683
684
685
686
687
688
689
690
691
692
693
694
695
696
697
698
699
700
701
702
703
704
705
706
707
708
709
710
711
712
713
714
715
716
717
718
719
720
721
722
723
724
725
726
727
728
729
730
731
732
733
734
735
736
737
738
739
740
741
742
743
744
745
746
747
748
749
750
751
752
753
754
755
756
757
758
759
760
761
762
763
764
765
766
767
768
769
770
771
772
773
774
775
776
777
778
779
780
781
782
783
784
785
786
787
788
789
790
791
792
793
794
795
796
797
798
799
800
801
802
803
804
805
806
807
808
809
810
811
812
813
814
815
816
817
818
819
820
821
822
823
824
825
826
827
828
829
830
831
832
833
834
835
836
837
838
839
840
841
842
843
844
845
846
847
848
849
850
851
852
853
854
855
856
857
858
859
860
861
862
863
864
865
866
867
868
869
870
871
872
873
874
875
876
877
878
879
880
881
882
883
884
885
886
887
888
889
890
891
892
893
894
895
896
897
898
899
900
901
902
903
904
905
906
907
908
909
910
911
912
913
914
915
916
917
918
919
920
921
922
923
924
925
926
927
928
929
930
931
932
933
934
935
936
937
938
939
940
941
942
943
944
945
946
947
948
949
950
951
952
953
954
955
956
957
958
959
960
961
962
963
964
965
966
967
968
969
970
971
972
973
974
975
976
977
978
979
980
981
982
983
984
985
986
987
988
989
990
991
992
993
994
995
996
997
998
999
1000
1001
1002
1003
1004
1005
1006
1007
1008
1009
1010
1011
1012
1013
1014
1015
1016
1017
1018
1019
1020
1021
1022
1023
1024
1025
1026
1027
1028
1029
1030
1031
1032
1033
1034
1035
1036
1037
1038
1039
1040
1041
1042
1043
1044
1045
1046
1047
1048
1049
1050
1051
1052
1053
1054
1055
1056
1057
1058
1059
1060
1061
1062
1063
1064
1065
1066
1067
1068
1069
1070
1071
1072
1073
1074
1075
1076
1077
1078
1079
1080
1081
1082
1083
1084
1085
1086
1087
1088
1089
1090
1091
1092
1093
1094
1095
1096
1097
1098
1099
1100
1101
1102
1103
1104
1105
1106
1107
1108
1109
1110
1111
1112
1113
1114
1115
1116
1117
1118
1119
1120
1121
1122
1123
1124
1125
1126
1127
1128
1129
1130
1131
1132
1133
1134
1135
1136
1137
1138
1139
1140
1141
1142
1143
1144
1145
1146
1147
1148
1149
1150
1151
1152
1153
1154
1155
1156
1157
1158
1159
1160
1161
1162
1163
1164
1165
1166
1167
1168
1169
1170
1171
1172
1173
1174
1175
1176
1177
1178
1179
1180
1181
1182
1183
1184
1185
1186
1187
1188
1189
1190
1191
1192
1193
1194
1195
1196
1197
1198
1199
1200
1201
1202
1203
1204
1205
1206
1207
1208
1209
1210
1211
1212
1213
1214
1215
1216
1217
1218
1219
1220
1221
1222
1223
1224
1225
1226
1227
1228
1229
1230
1231
1232
1233
1234
1235
1236
1237
1238
1239
1240
1241
1242
1243
1244
1245
1246
1247
1248
1249
1250
1251
1252
1253
1254
1255
1256
1257
1258
1259
1260
1261
1262
1263
1264
1265
1266
1267
1268
1269
1270
1271
1272
1273
1274
1275
1276
1277
1278
1279
1280
1281
1282
1283
1284
1285
1286
1287
1288
1289
1290
1291
1292
1293
1294
1295
1296
1297
1298
1299
1300
1301
1302
1303
1304
1305
1306
1307
1308
1309
1310
1311
1312
1313
1314
1315
1316
1317
1318
1319
1320
1321
1322
1323
1324
1325
1326
1327
1328
1329
1330
1331
1332
1333
1334
1335
1336
1337
1338
1339
1340
1341
1342
1343
1344
1345
1346
1347
1348
1349
1350
1351
1352
1353
1354
1355
1356
1357
1358
1359
1360
1361
1362
1363
1364
1365
1366
1367
1368
1369
1370
1371
1372
1373
1374
1375
1376
1377
1378
1379
1380
1381
1382
1383
1384
1385
1386
1387
1388
1389
1390
1391
1392
1393
1394
1395
1396
1397
1398
1399
1400
1401
1402
1403
1404
1405
1406
1407
1408
1409
1410
1411
1412
1413
1414
1415
1416
1417
1418
1419
1420
1421
1422
1423
1424
1425
1426
1427
1428
1429
1430
1431
1432
1433
1434
1435
1436
1437
1438
1439
1440
1441
1442
1443
1444
1445
1446
1447
1448
1449
1450
1451
1452
1453
1454
1455
1456
1457
1458
1459
1460
1461
1462
1463
1464
1465
1466
1467
1468
1469
1470
1471
1472
1473
1474
1475
1476
1477
1478
1479
1480
1481
1482
1483
1484
1485
1486
1487
1488
1489
1490
1491
1492
1493
1494
1495
1496
1497
1498
1499
1500
1501
1502
1503
1504
1505
1506
1507
1508
1509
1510
1511
1512
1513
1514
1515
1516
1517
1518
1519
1520
1521
1522
1523
1524
1525
1526
1527
1528
1529
1530
1531
1532
1533
1534
1535
1536
1537
1538
1539
1540
1541
1542
1543
1544
1545
1546
1547
1548
1549
1550
1551
1552
1553
1554
1555
1556
1557
1558
1559
1560
1561
1562
1563
1564
1565
1566
1567
1568
1569
1570
1571
1572
1573
1574
1575
1576
1577
1578
1579
1580
1581
1582
1583
1584
1585
1586
1587
1588
1589
1590
1591
1592
1593
1594
1595
1596
1597
1598
1599
1600
1601
1602
1603
1604
1605
1606
1607
1608
1609
1610
1611
1612
1613
1614
1615
1616
1617
1618
1619
1620
1621
1622
1623
1624
1625
1626
1627
1628
1629
1630
1631
1632
1633
1634
1635
1636
1637
1638
1639
1640
1641
1642
1643
1644
1645
1646
1647
1648
1649
1650
1651
1652
1653
1654
1655
1656
1657
1658
1659
1660
1661
1662
1663
1664
1665
1666
1667
1668
1669
1670
1671
1672
1673
1674
1675
1676
1677
1678
1679
1680
1681
1682
1683
1684
1685
1686
1687
1688
1689
1690
1691
1692
1693
1694
1695
1696
1697
1698
1699
1700
1701
1702
1703
1704
1705
1706
1707
1708
1709
1710
1711
1712
1713
1714
1715
1716
1717
1718
1719
1720
1721
1722
1723
1724
1725
1726
1727
1728
1729
1730
1731
1732
1733
1734
1735
1736
1737
1738
1739
1740
1741
1742
1743
1744
1745
1746
1747
1748
1749
1750
1751
1752
1753
1754
1755
1756
1757
1758
1759
1760
1761
1762
1763
1764
1765
1766
1767
1768
1769
1770
1771
1772
1773
1774
1775
1776
1777
1778
1779
1780
1781
1782
1783
1784
1785
1786
1787
1788
1789
1790
1791
1792
1793
1794
1795
1796
1797
1798
1799
1800
1801
1802
1803
1804
1805
1806
1807
1808
1809
1810
1811
1812
1813
1814
1815
1816
1817
1818
1819
1820
1821
1822
1823
1824
1825
1826
1827
1828
1829
1830
1831
1832
1833
1834
1835
1836
1837
1838
1839
1840
1841
1842
1843
1844
1845
1846
1847
1848
1849
1850
1851
1852
1853
1854
1855
1856
1857
1858
1859
1860
1861
1862
1863
1864
1865
1866
1867
1868
1869
1870
1871
1872
1873
1874
1875
1876
1877
1878
1879
1880
1881
1882
1883
1884
1885
1886
1887
1888
1889
1890
1891
1892
1893
1894
1895
1896
1897
1898
1899
1900
1901
1902
1903
1904
1905
1906
1907
1908
1909
1910
1911
1912
1913
1914
1915
1916
1917
1918
1919
1920
1921
1922
1923
1924
1925
1926
1927
1928
1929
1930
1931
1932
1933
1934
1935
1936
1937
1938
1939
1940
1941
1942
1943
1944
1945
1946
1947
1948
1949
1950
1951
1952
1953
1954
1955
1956
1957
1958
1959
1960
1961
1962
1963
1964
1965
1966
1967
1968
1969
1970
1971
1972
1973
1974
1975
1976
1977
1978
1979
1980
1981
1982
1983
1984
1985
1986
1987
1988
1989
1990
1991
1992
1993
1994
1995
1996
1997
1998
1999
2000
2001
2002
2003
2004
2005
2006
2007
2008
2009
2010
2011
2012
2013
2014
2015
2016
2017
2018
2019
2020
2021
2022
2023
2024
2025
2026
2027
2028
2029
2030
2031
2032
2033
2034
2035
2036
2037
2038
2039
2040
2041
2042
2043
2044
2045
2046
2047
2048
2049
2050
2051
2052
2053
2054
2055
2056
2057
2058
2059
2060
2061
2062
2063
2064
2065
2066
2067
2068
2069
2070
2071
2072
2073
2074
2075
2076
2077
2078
2079
2080
2081
2082
2083
2084
2085
2086
2087
2088
2089
2090
2091
2092
2093
2094
2095
2096
2097
2098
2099
2100
2101
2102
2103
2104
2105
2106
2107
2108
2109
2110
2111
2112
2113
2114
2115
2116
2117
2118
2119
2120
2121
2122
2123
2124
2125
2126
2127
2128
2129
2130
2131
2132
2133
2134
2135
2136
2137
2138
2139
2140
2141
2142
2143
2144
2145
2146
2147
2148
2149
2150
2151
2152
2153
2154
2155
2156
2157
2158
2159
2160
2161
2162
2163
2164
2165
2166
2167
2168
2169
2170
2171
2172
2173
2174
2175
2176
2177
2178
2179
2180
2181
2182
2183
2184
2185
2186
2187
2188
2189
2190
2191
2192
2193
2194
2195
2196
2197
2198
2199
2200
2201
2202
2203
2204
2205
2206
2207
2208
2209
2210
2211
2212
2213
2214
2215
2216
2217
2218
2219
2220
2221
2222
2223
2224
2225
2226
2227
2228
2229
2230
2231
2232
2233
2234
2235
2236
2237
2238
2239
2240
2241
2242
2243
2244
2245
2246
2247
2248
2249
2250
2251
2252
2253
2254
2255
2256
2257
2258
2259
2260
2261
2262
2263
2264
2265
2266
2267
2268
2269
2270
2271
2272
2273
2274
2275
2276
2277
2278
2279
2280
2281
2282
2283
2284
2285
2286
2287
2288
2289
2290
2291
2292
2293
2294
2295
2296
2297
2298
2299
2300
2301
2302
2303
2304
2305
2306
2307
2308
2309
2310
2311
2312
2313
2314
2315
2316
2317
2318
2319
2320
2321
2322
2323
2324
2325
2616
2617
2618
2619
2620
2621
2622
2623
2624
2625
2626
2627
2628
2629
2630
2631
2632
2633
2634
2635
2636
2637
2638
2639
2640
2641
2642
2643
2644
2645
2646
2647
2648
2649
2650
2651
2652
2653
2654
2655
2656
2657
2658
2659
2660
2661
2662
2663
2664
2665
2666
2667
2668
2669
2670
2671
2672
2673
2674
2675
2676
2677
2678
2679
2680
2681
2682
2683
2684
2685
2686
2687
2688
2689
2690
2691
2692
2693
2694
2695
2696
2697
2698
2699
2700
2701
2702
2703
2704
2705
2706
2707
2708
2709
2710
2711
2712
2713
2714
2715
2716
2717
2718
2719
2720
2721
2722
2723
2724
2725
2726
2727
2728
2729
2730
2731
2732
2733
2734
2735
2736
2737
2738
2739
2740
2741
2742
2743
2744
2745
2746
2747
2748
2749
2750
2751
2752
2753
2754
2755
2756
2757
2758
2759
2760
2761
2762
2763
2764
2765
2766
2767
2768
2769
2770
2771
2772
2773
2774
2775
2776
2777
2778
2779
2780
2781
2782
2783
2784
2785
2786
2787
2788
2789
2790
2791
2792
2793
2794
2795
2796
2797
2798
2799
2800
2801
2802
2803
2804
2805
2806
2807
2808
2809
2810
2811
2812
2813
2814
2815
2816
2817
2818
2819
2820
2821
2822
2823
2824
2825
2826
2827
2828
2829
2830

SCALARS element_group int
LOOKUP_TABLE default
0
0
0
0
0
0
0
0
0
0
0
0
0
0
0
0
0
0
0
0
0
0
0
0
0
0
0
0
0
0
0
0
0
0
0
0
0
0
0
0
0
0
0
0
0
0
0
0
0
0
0
0
0
0
0
0
0
0
0
0
0
0
0
0
0
0
0
0
0
0
0
0
0
0
0
0
0
0
0
0
0
0
0
0
0
0
0
0
0
0
0
0
0
0
0
0
0
0
0
0
0
0
0
0
0
0
0
0
0
0
0
0
0
0
0
0
0
0
0
0
0
0
0
0
0
0
0
0
0
0
0
0
0
0
0
0
0
0
0
0
0
0
0
0
0
0
0
0
0
0
0
0
0
0
0
0
0
0
0
0
0
0
0
0
0
0
0
0
0
0
0
0
0
0
0
0
0
0
0
0
0
0
0
0
0
0
0
0
0
0
0
0
0
0
0
0
0
0
0
0
0
0
0
0
0
0
0
0
0
0
0
0
0
0
0
0
0
0
0
0
0
0
0
0
0
0
0
0
0
0
0
0
0
0
0
0
0
0
0
0
0
0
0
0
0
0
0
0
0
0
0
0
0
0
0
0
0
0
0
0
0
0
0
0
0
0
0
0
0
0
0
0
0
0
0
0
0
0
0
0
0
0
0
0
0
0
0
0
0
0
0
0
0
0
0
0
0
0
0
0
0
0
0
0
0
0
0
0
0
0
0
0
0
0
0
0
0
0
0
0
0
0
0
0
0
0
0
0
0
0
0
0
0
0
0
0
0
0
0
0
0
0
0
0
0
0
0
0
0
0
0
0
0
0
0
0
0
0
0
0
0
0
0
0
0
0
0
0
0
0
0
0
0
0
0
0
0
0
0
0
0
0
0
0
0
0
0
0
0
0
0
0
0
0
0
0
0
0
0
0
0
0
0
0
0
0
0
0
0
0
0
0
0
0
0
0
0
0
0
0
0
0
0
0
0
0
0
0
0
0
0
0
0
0
0
0
0
0
0
0
0
0
0
0
0
0
0
0
0
0
0
0
0
0
0
0
0
0
0
0
0
0
0
0
0
0
0
0
0
0
0
0
0
0
0
0
0
0
0
0
0
0
0
0
0
0
0
0
0
0
0
0
0
0
0
0
0
0
0
0
0
0
0
0
0
0
0
0
0
0
0
0
0
0
0
0
0
0
0
0
0
0
0
0
0
0
0
0
0
0
0
0
0
0
0
0
0
0
0
0
0
0
0
0
0
0
0
0
0
0
0
0
0
0
0
0
0
0
0
0
0
0
0
0
0
0
0
0
0
0
0
0
0
0
0
0
0
0
0
0
0
0
0
0
0
0
0
0
0
0
0
0
0
0
0
0
0
0
0
0
0
0
0
0
0
0
0
0
0
0
0
0
0
0
0
0
0
0
0
0
0
0
0
0
0
0
0
0
0
0
0
0
0
0
0
0
0
0
0
0
0
0
0
0
0
0
0
0
0
0
0
0
0
0
0
0
0
0
0
0
0
0
0
0
0
0
0
0
0
0
0
0
0
0
0
0
0
0
0
0
0
0
0
0
0
0
0
0
0
0
0
0
0
0
0
0
0
0
0
0
0
0
0
0
0
0
0
0
0
0
0
0
0
0
0
0
0
0
0
0
0
0
0
0
0
0
0
0
0
0
0
0
0
0
0
0
0
0
0
0
0
0
0
0
0
0
0
0
0
0
0
0
0
0
0
0
0
0
0
0
0
0
0
0
0
0
0
0
0
0
0
0
0
0
0
0
0
0
0
0
0
0
0
0
0
0
0
0
0
0
0
0
0
0
0
0
0
0
0
0
0
0
0
0
0
0
0
0
0
0
0
0
0
0
0
0
0
0
0
0
0
0
0
0
0
0
0
0
0
0
0
0
0
0
0
0
0
0
0
0
0
0
0
0
0
0
0
0
0
0
0
0
0
0
0
0
0
0
0
0
0
0
0
0
0
0
0
0
0
0
0
0
0
0
0
0
0
0
0
0
0
0
0
0
0
0
0
0
0
0
0
0
0
0
0
0
0
0
0
0
0
0
0
0
0
0
0
0
0
0
0
0
0
0
0
0
0
0
0
0
0
0
0
0
0
0
0
0
0
0
0
0
0
0
0
0
0
0
0
0
0
0
0
0
0
0
0
0
0
0
0
0
0
0
0
0
0
0
0
0
0
0
0
0
0
0
0
0
0
0
0
0
0
0
0
0
0
0
0
0
0
0
0
0
0
0
0
0
0
0
0
0
0
0
0
0
0
0
0
0
0
0
0
0
0
0
0
0
0
0
0
0
0
0
0
0
0
0
0
0
0
0
0
0
0
0
0
0
0
0
0
0
0
0
0
0
0
0
0
0
0
0
0
0
0
0
0
0
0
0
0
0
0
0
0
0
0
0
0
0
0
0
0
0
0
0
0
0
0
0
0
0
0
0
0
0
0
0
0
0
0
0
0
0
0
0
0
0
0
0
0
0
0
0
0
0
0
0
0
0
0
0
0
0
0
0
0
0
0
0
0
0
0
0
0
0
0
0
0
0
0
0
0
0
0
0
0
0
0
0
0
0
0
0
0
0
0
0
0
0
0
0
0
0
0
0
0
0
0
0
0
0
0
0
0
0
0
0
0
0
0
0
0
0
0
0
0
0
0
0
0
0
0
0
0
0
0
0
0
0
0
0
0
0
0
0
0
0
0
0
0
0
0
0
0
0
0
0
0
0
0
0
0
0
0
0
0
0
0
0
0
0
0
0
0
0
0
0
0
0
0
0
0
0
0
0
0
0
0
0
0
0
0
0
0
0
0
0
0
0
0
0
0
0
0
0
0
0
0
0
0
0
0
0
0
0
0
0
0
0
0
0
0
0
0
0
0
0
0
0
0
0
0
0
0
0
0
0
0
0
0
0
0
0
0
0
0
0
0
0
0
0
0
0
0
0
0
0
0
0
0
0
0
0
0
0
0
0
0
0
0
0
0
0
0
0
0
0
0
0
0
0
0
0
0
0
0
0
0
0
0
0
0
0
0
0
0
0
0
0
0
0
0
0
0
0
0
0
0
0
0
0
0
0
0
0
0
0
0
0
0
0
0
0
0
0
0
0
0
0
0
0
0
0
0
0
0
0
0
0
0
0
0
0
0
0
0
0
0
0
0
0
0
0
0
0
0
0
0
0
0
0
0
0
0
0
0
0
0
0
0
0
0
0
0
0
0
0
0
0
0
0
0
0
0
0
0
0
0
0
0
0
0
0
0
0
0
0
0
0
0
0
0
0
0
0
0
0
0
0
0
0
0
0
0
0
0
0
0
0
0
0
0
0
0
0
0
0
0
0
0
0
0
0
0
0
0
0
0
0
0
0
0
0
0
0
0
0
0
0
0
0
0
0
0
0
0
0
0
0
0
0
0
0
0
0
0
0
0
0
0
0
0
0
0
0
0
0
0
0
0
0
0
0
0
0
0
0
0
0
0
0
0
0
0
0
0
0
0
0
0
0
0
0
0
0
0
0
0
0
0
0
0
0
0
0
0
0
0
0
0
0
0
0
0
0
0
0
0
0
0
0
0
0
0
0
0
0
0
0
0
0
0
0
0
0
0
0
0
0
0
0
0
0
0
0
0
0
0
0
0
0
0
0
0
0
0
0
0
0
0
0
0
0
0
0
0
0
0
0
0
0
0
0
0
0
0
0
0
0
0
0
0
0
0
0
0
0
0
0
0
0
0
0
0
0
0
0
0
0
0
0
0
0
0
0
0
0
0
0
0
0
0
0
0
0
0
0
0
0
0
0
0
0
0
0
0
0
0
0
0
0
0
0
0
0
0
0
0
0
0
0
0
0
0
0
0
0
0
0
0
0
0
0
0
0
0
0
0
0
0
0
0
0
0
0
0
0
0
0
0
0
0
0
0
0
0
0
0
0
0
0
0
0
0
0
0
0
0
0
0
0
0
0
0
0
0
0
0
0
0
0
0
0
0
0
0
0
0
0
0
0
0
0
0
0
0
0
0
0
0
0
0
0
0
0
0
0
0
0
0
0
0
0
0
0
0
0
0
0
0
0
0
0
0
0
0
0
0
0
0
0
0
0
0
0
0
0
0
0
0
0
0
0
0
0
0
0
0
0
0
0
0
0
0
0
0
0
0
0
0
0
0
0
0
0
0
0
0
0
0
0
0
0
0
0
0
0
0
0
0
0
0
0
0
0
0
0
0
0
0
0
0
0
0
0
0
0
0
0
0
0
0
0
0
0
0
0
0
0
0
0
0
0
0
0
0
0
0
0
0
0
0
0
0
0
0
0
0
0
0
0
0
0
0
0
0
0
0
0
0
0
0
0
0
0
0
0
0
0
0
0
0
0
0
0
0
0
0
0
0
0
0
0
0
0
0
0
0
0
0
0
0
0
0
0
0
0
0
0
0
0
0
0
0
0
0
0
0
0
0
0
0
0
0
0
0
0
0
0
0
0
0
0
0
0
0
0
0
0
0
0
0
0
0
0
0
0
0
0
0
0
0
0
0
0
0
0
0
0
0
0
0
0
0
0
0
0
0
0
0
0
0
0
0
0
0
0
0
0
0
0
0
0
0
0
0
0
0
0
0
0
0
0
0
0
0
0
0
0
0
0
0
0
0
0
0
0
0
0
0
0
0
0
0
0
0
0
0
0
0
0
0
0
0
0
0
0
0
0
0
0
0
0
0
0
0
0
0
0
0
0
0
0
0
0
0
0
0
0
0
0
0
0
0
0
0
0
0
0
0
0
0
0
0
0
0
0
0
0
0
0
0
0
0
0
0
0
0
0
0
0
0
0
0
0
0
0
0
0
0
0
0
0


VECTORS element_materi_velocity float
1.349430487989e-03 6.884552079645e-03 0.0 
1.471258122592e-03 6.030287787858e-03 0.0 
7.079881767797e-04 9.138555905472e-04 0.0 
8.866739428952e-05 1.487355916220e-03 0.0 
8.827621831412e-04 8.364450476289e-03 0.0 
-2.253888105197e-04 8.942686280157e-04 0.0 
6.642634540937e-04 8.286412685116e-03 0.0 
1.166666397703e-03 5.303746505919e-03 0.0 
7.352435604938e-04 8.339522079928e-03 0.0 
1.303442539560e-04 1.522576128353e-03 0.0 
9.672403486170e-05 -1.918744771673e-04 0.0 
8.257466953898e-04 5.284911093622e-03 0.0 
4.455693848586e-05 -5.321829274715e-06 0.0 
1.353939698418e-03 7.407537018045e-03 0.0 
3.677777884434e-05 -8.673603449032e-07 0.0 
7.162837215735e-05 1.050762225345e-03 0.0 
1.138101719197e-03 8.679025981112e-03 0.0 
-1.745497116289e-04 7.381762379401e-04 0.0 
4.854867189024e-05 -5.277669068858e-04 0.0 
3.980378793226e-05 -5.205514656099e-04 0.0 
1.553503578631e-04 1.560059745513e-03 0.0 
1.892352469289e-03 8.349016053651e-03 0.0 
2.138295832422e-03 8.178576599573e-03 0.0 
6.590994202317e-04 1.208569989918e-04 0.0 
1.589648357949e-03 6.353730146519e-03 0.0 
1.070963883202e-04 -1.668458290065e-04 0.0 
1.765485049795e-03 9.238407908603e-03 0.0 
9.126992464593e-04 5.154177943343e-04 0.0 
1.688869813927e-03 6.319147781121e-03 0.0 
5.385113666746e-04 1.008623630717e-04 0.0 
1.199345998328e-04 -7.798832811306e-05 0.0 
4.923244669925e-05 -4.970874147436e-04 0.0 
8.165454437101e-04 1.132565402987e-03 0.0 
3.088914760073e-05 -6.483699478148e-05 0.0 
2.508117684036e-04 2.152141329570e-05 0.0 
6.934564490433e-05 4.292237790517e-06 0.0 
6.326062437453e-05 3.448329438300e-06 0.0 
6.773757537701e-04 2.209263096813e-04 0.0 
5.534645211073e-04 9.239979950340e-03 0.0 
5.035678354780e-04 9.250353354346e-03 0.0 
2.349317699441e-03 8.892919357637e-03 0.0 
2.494297242422e-04 3.397409773977e-05 0.0 
3.330373885925e-04 3.762480549128e-03 0.0 
1.860776472260e-03 8.855925912656e-03 0.0 
4.721017728789e-05 2.107145233903e-03 0.0 
3.278197139818e-04 3.297554473420e-03 0.0 
1.750023344515e-05 -6.342499632571e-05 0.0 
5.368427716253e-05 1.789336141829e-03 0.0 
-1.152998620344e-04 -1.184069674552e-04 0.0 
1.320791243070e-03 7.878447061947e-03 0.0 
2.275325751797e-03 8.633453242284e-03 0.0 
5.486552870583e-05 -5.079375872361e-04 0.0 
3.760122751769e-04 -4.791357816700e-05 0.0 
2.193683981591e-03 9.168523743315e-03 0.0 
5.241217753059e-04 9.879022738198e-04 0.0 
1.091105468622e-04 -4.660470482194e-04 0.0 
4.553934761925e-05 -4.987229627270e-04 0.0 
6.264862134077e-05 -6.557637670664e-05 0.0 
8.952302734206e-05 -5.415166736669e-04 0.0 
8.611960121485e-05 1.059427486014e-03 0.0 
-2.894326561584e-04 1.208888230600e-04 0.0 
1.253498940671e-03 5.908970894065e-04 0.0 
2.393723993215e-03 4.305650036576e-03 0.0 
2.901956821291e-04 -7.521984840801e-05 0.0 
7.279791938785e-05 -3.882698587723e-06 0.0 
2.069086047571e-03 8.881950911011e-03 0.0 
-2.801732127459e-04 1.959697690192e-04 0.0 
8.655834524116e-04 1.070970794173e-03 0.0 
2.040908274491e-04 -4.222355912942e-04 0.0 
7.920671895051e-04 6.454275059637e-04 0.0 
1.617055007762e-04 -1.406467440055e-04 0.0 
8.788568364642e-05 2.947013935226e-04 0.0 
1.194036386488e-03 6.939794160041e-04 0.0 
5.408715111521e-06 -5.551819649348e-04 0.0 
9.992697308600e-05 -4.529351246522e-04 0.0 
3.067555498824e-04 1.364203016119e-03 0.0 
6.518075243639e-04 1.191054058622e-03 0.0 
-1.242014455807e-04 2.241728854881e-03 0.0 
1.050043680616e-04 -5.381018390502e-04 0.0 
-1.584686914482e-04 2.545991695354e-03 0.0 
2.126684492831e-04 -3.919888535867e-04 0.0 
1.074801471179e-03 8.415469563991e-03 0.0 
1.913308752322e-03 7.488556527873e-03 0.0 
1.567260725713e-03 7.648288209098e-03 0.0 
8.337839570157e-04 7.790711293448e-03 0.0 
7.630388543068e-04 7.758669946654e-03 0.0 
9.482805175543e-05 -1.222478295456e-04 0.0 
1.663392919228e-05 -8.136212344342e-05 0.0 
2.019568823522e-03 3.012749408125e-03 0.0 
9.502896226897e-04 8.328582710296e-03 0.0 
5.685714505027e-05 -4.836874395037e-04 0.0 
1.835068579757e-03 8.040006710954e-03 0.0 
1.429133842821e-04 4.215891262131e-03 0.0 
1.732630827687e-04 4.558838567256e-03 0.0 
1.755747784640e-04 5.455499649135e-04 0.0 
4.924129609639e-04 1.658022512891e-04 0.0 
1.206802204575e-03 8.435292396517e-03 0.0 
2.851132026383e-04 3.424292634458e-05 0.0 
1.060698357974e-04 6.694685251843e-03 0.0 
2.241441660618e-03 4.726264052663e-03 0.0 
8.548927942445e-04 8.853346508977e-03 0.0 
4.732179408210e-05 -4.916172133539e-07 0.0 
2.020919431805e-03 9.009812557683e-04 0.0 
1.225575747824e-03 5.448641893603e-04 0.0 
1.583571608124e-03 2.615235681542e-03 0.0 
-1.843021227469e-05 -1.323546159275e-04 0.0 
5.187599741259e-05 -2.308432705283e-05 0.0 
1.447489180177e-04 3.632629279546e-03 0.0 
-1.967545446682e-04 -4.198968168999e-05 0.0 
8.788610806775e-05 2.843648507210e-06 0.0 
2.201916103839e-03 3.364349325538e-03 0.0 
8.975714955311e-06 -5.586090135763e-04 0.0 
2.377077961660e-03 2.228368682016e-03 0.0 
2.223541067163e-03 8.616016490440e-03 0.0 
1.877255337650e-04 -3.991547296707e-04 0.0 
1.943189269417e-03 4.524109081602e-03 0.0 
2.302019616270e-03 3.790302017783e-03 0.0 
1.778178210607e-04 1.778283253806e-05 0.0 
1.346399189886e-04 7.107550907007e-03 0.0 
2.034141026061e-03 3.620579210377e-03 0.0 
1.796152365917e-04 -4.853343624775e-04 0.0 
1.900990639707e-03 8.249943519825e-03 0.0 
1.142196026419e-04 3.329807891740e-03 0.0 
1.944611820232e-03 3.169413117760e-03 0.0 
-3.751915776820e-04 1.534857606353e-03 0.0 
2.349624832842e-03 8.968346282820e-03 0.0 
1.615254731494e-04 -4.104375449480e-04 0.0 
2.266384648257e-03 9.318929026654e-03 0.0 
2.337671150659e-04 9.643417933052e-04 0.0 
-2.126191087673e-04 1.418927742704e-03 0.0 
1.506669406226e-04 -1.635871626070e-04 0.0 
7.014453696498e-05 1.472255446806e-03 0.0 
2.946407577265e-03 6.069204155185e-03 0.0 
2.364911817780e-03 9.009608146991e-03 0.0 
2.715489829394e-04 2.610281056239e-05 0.0 
3.051931599072e-05 -5.544105678328e-06 0.0 
1.338980061197e-04 -1.209448921225e-04 0.0 
3.000849191118e-03 5.984045308749e-03 0.0 
3.742077423978e-04 6.783464053978e-05 0.0 
2.788338988665e-03 7.137363774877e-03 0.0 
1.776406795240e-04 1.083717135191e-03 0.0 
9.230935675470e-04 8.050020659772e-04 0.0 
1.437574556790e-03 7.347804375397e-03 0.0 
3.348563623836e-04 5.531724798250e-03 0.0 
2.837353917363e-03 6.639562455190e-03 0.0 
2.250114210111e-03 9.319756099777e-03 0.0 
3.062168751144e-03 5.453885808158e-03 0.0 
1.994571775101e-03 2.539525222006e-03 0.0 
6.346583651966e-04 8.768634790475e-03 0.0 
2.269528841628e-03 1.938209914159e-03 0.0 
6.891396291602e-05 -5.104388627807e-04 0.0 
1.529269416294e-04 8.009534483194e-03 0.0 
3.885164538861e-05 -5.374950187866e-04 0.0 
2.300430257976e-03 8.831989447987e-03 0.0 
3.001956855402e-04 5.289833645067e-05 0.0 
1.664479846056e-03 3.003323300984e-03 0.0 
7.198363253985e-05 -1.018491550776e-04 0.0 
6.530745814412e-04 4.062796173992e-03 0.0 
2.084523366409e-03 1.003177878108e-03 0.0 
3.583082598762e-04 8.434047260812e-03 0.0 
2.090075514271e-03 1.839369049698e-03 0.0 
7.056752068825e-05 -4.962650369340e-05 0.0 
1.904368665775e-04 -4.681834853937e-04 0.0 
7.278079429206e-05 -2.257900557082e-05 0.0 
2.526813923646e-03 7.359639918095e-03 0.0 
1.003318824324e-04 5.064265236078e-07 0.0 
1.519181482036e-04 8.507051057297e-03 0.0 
1.748849355714e-03 2.402675926845e-03 0.0 
2.197404690819e-03 9.013196489017e-03 0.0 
6.190349646801e-05 -1.987179954213e-04 0.0 
6.176717414634e-04 4.632203310597e-03 0.0 
1.994127605447e-03 1.584639546151e-03 0.0 
2.925526286849e-04 5.010029591018e-03 0.0 
4.091363258007e-04 8.772076889750e-03 0.0 
2.102714770480e-03 2.322922208106e-03 0.0 
2.246909444648e-03 9.210497909709e-03 0.0 
1.923579607504e-03 1.940501257717e-03 0.0 
1.961974452403e-04 -3.731382287627e-04 0.0 
7.287494324313e-04 3.854964827463e-04 0.0 
9.525389209522e-04 7.488983984101e-04 0.0 
1.744004484782e-03 4.914882654263e-03 0.0 
1.751373350132e-04 -3.604323717833e-04 0.0 
1.008798978826e-03 2.162633235851e-04 0.0 
2.633726640359e-03 7.752481406069e-03 0.0 
1.379351129352e-03 4.645792680208e-03 0.0 
2.330172957931e-03 8.077328149752e-03 0.0 
2.308484762503e-03 2.441156046338e-03 0.0 
1.279994435508e-04 1.147144632097e-03 0.0 
1.957028072171e-03 3.602835932856e-03 0.0 
4.923360584781e-05 -3.536884426135e-05 0.0 
6.597972921604e-05 2.712369662664e-03 0.0 
1.724366096125e-03 1.268623911605e-03 0.0 
1.941843160292e-03 3.079031213028e-03 0.0 
-7.707194214786e-04 1.006937381352e-03 0.0 
2.554855393757e-03 8.222189520302e-03 0.0 
1.053717977843e-03 1.441354136757e-04 0.0 
8.954593889741e-05 -5.461688281697e-04 0.0 
7.574015184932e-04 1.253644532651e-03 0.0 
1.801467225324e-03 5.220922329373e-03 0.0 
7.257116793707e-04 -3.148060801383e-04 0.0 
1.111068520912e-03 1.738255259820e-04 0.0 
1.847811222992e-03 7.529121350771e-03 0.0 
1.559845157326e-03 6.828616905320e-03 0.0 
5.045155166564e-04 8.744272603733e-05 0.0 
4.520953758935e-04 -4.332894243587e-04 0.0 
3.098454791549e-03 4.574003762042e-03 0.0 
2.699719413511e-03 6.601432567912e-03 0.0 
1.686810291415e-03 4.764970198722e-03 0.0 
2.493736931462e-03 7.000716287995e-03 0.0 
2.438039592672e-03 7.903319132150e-03 0.0 
2.194220850244e-03 9.200818582259e-04 0.0 
2.102829664882e-03 2.286598482619e-03 0.0 
-5.103395832955e-04 8.367826899561e-04 0.0 
1.843478899781e-03 5.680698459240e-03 0.0 
2.331488726912e-03 5.359944477026e-03 0.0 
3.073869518652e-03 5.037827210290e-03 0.0 
1.781212655084e-03 3.200166991775e-03 0.0 
1.279779336139e-04 8.392790221605e-04 0.0 
1.042781758204e-03 9.810460737304e-05 0.0 
4.605295310589e-04 8.649802260341e-03 0.0 
1.808712969852e-03 1.489883812232e-03 0.0 
1.011867544612e-03 4.848095964029e-05 0.0 
7.842088733403e-05 -5.340037449737e-04 0.0 
1.653442058237e-03 4.273842982052e-03 0.0 
6.559116285186e-05 -5.374105928115e-04 0.0 
9.331100680642e-05 -5.456068861529e-04 0.0 
5.262663240429e-05 3.081996190068e-03 0.0 
3.774705495909e-04 -4.595104981506e-04 0.0 
1.511509049149e-03 3.821509518612e-03 0.0 
3.522829068384e-04 -4.628366067510e-04 0.0 
5.406303318987e-04 2.059720869482e-03 0.0 
3.278480213602e-04 -2.484886494885e-04 0.0 
2.159147842031e-04 -4.900920824161e-04 0.0 
1.100511703049e-03 2.155110401423e-04 0.0 
2.632279080483e-03 7.146515996478e-03 0.0 
8.681587910097e-05 -3.062861262817e-06 0.0 
-6.605792247850e-04 8.523874170919e-04 0.0 
9.857798809390e-04 2.006356735546e-03 0.0 
2.071534681178e-03 1.443945457990e-03 0.0 
2.509830716250e-03 7.888140742373e-03 0.0 
1.103075060554e-03 1.266034782446e-04 0.0 
1.088410383851e-04 3.383003435415e-06 0.0 
2.026991017891e-03 4.070571305579e-03 0.0 
1.160269451287e-03 1.020790278390e-03 0.0 
1.045721611775e-03 1.845349630319e-04 0.0 
7.906499410950e-05 -1.452083478281e-04 0.0 
3.074529233848e-03 5.338730695084e-03 0.0 
1.881822746032e-03 4.684829740799e-03 0.0 
1.060078329658e-03 5.058300899035e-04 0.0 
1.974883208204e-03 1.232547216929e-03 0.0 
7.826486231810e-04 2.184655686850e-03 0.0 
2.487101116968e-03 6.100566934530e-03 0.0 
1.417248794076e-04 5.008776424365e-04 0.0 
3.081417176285e-03 4.190559791814e-03 0.0 
2.151189903992e-03 8.795664752711e-04 0.0 
3.462392292543e-04 7.835489768396e-03 0.0 
1.585940171176e-04 -3.690462052729e-04 0.0 
2.388172951326e-03 7.158702002084e-03 0.0 
1.216652459137e-03 1.217239628825e-03 0.0 
4.464776106379e-04 7.669037511330e-04 0.0 
1.839397172452e-04 -2.323339719619e-05 0.0 
1.422165054105e-03 3.846071022134e-03 0.0 
2.651621412512e-03 6.277071882287e-03 0.0 
2.109426001688e-03 2.918174793479e-03 0.0 
1.274689260399e-03 3.384555736114e-03 0.0 
2.042060138241e-03 3.532798173490e-03 0.0 
3.016212915779e-03 5.519012190720e-03 0.0 
1.257964224511e-04 8.958819858067e-06 0.0 
2.119531688740e-03 7.930891096964e-04 0.0 
2.911924078948e-03 5.583750850790e-03 0.0 
2.536029997326e-03 2.322639313704e-03 0.0 
2.167194954132e-03 8.375812527110e-04 0.0 
7.564599631565e-04 7.193967255785e-04 0.0 
1.666765250740e-03 8.217408216231e-03 0.0 
1.929792507047e-03 9.418760618840e-04 0.0 
9.128921664043e-04 5.458486530451e-05 0.0 
1.934831587433e-03 4.134868247331e-03 0.0 
-6.855226806915e-04 7.241805695915e-04 0.0 
2.341893684678e-03 6.762323259573e-03 0.0 
1.286656105366e-03 9.156903905055e-04 0.0 
9.383415143853e-04 1.727484562006e-03 0.0 
7.259603692914e-04 5.716377415879e-04 0.0 
2.505821581981e-03 5.588787466529e-03 0.0 
9.639262033967e-05 -4.831421135529e-04 0.0 
2.588087349445e-03 6.095239637424e-03 0.0 
2.105278478902e-03 7.526806729700e-04 0.0 
2.551104087300e-03 6.463231680753e-03 0.0 
1.674234320516e-03 7.596108222414e-03 0.0 
-7.760886144439e-06 6.365042071742e-04 0.0 
9.599334487670e-04 1.415337677565e-04 0.0 
7.538885297237e-04 -6.158425541005e-05 0.0 
2.132710750711e-03 5.923605310942e-03 0.0 
1.979007297362e-03 4.625978357851e-03 0.0 
2.551134149193e-03 5.479506892118e-03 0.0 
1.790633040964e-03 8.713137602302e-04 0.0 
1.813129258746e-03 1.151981404463e-03 0.0 
1.299516975378e-04 6.806853470274e-04 0.0 
2.563352895291e-03 2.113237007525e-03 0.0 
1.098380614604e-04 1.832133554963e-03 0.0 
2.700067523668e-04 4.843685511342e-04 0.0 
3.482949791466e-04 4.902807398317e-04 0.0 
3.076686524120e-03 3.797085017600e-03 0.0 
9.728238033165e-04 9.483472491511e-04 0.0 
6.852508600650e-04 1.394453372195e-03 0.0 
2.919891485747e-03 5.085095145169e-03 0.0 
8.234234523219e-04 1.061289282733e-03 0.0 
7.933326533827e-04 1.369586726092e-05 0.0 
3.033833548167e-03 5.702133548751e-03 0.0 
2.313927697835e-04 1.317137235651e-03 0.0 
1.539384110644e-03 1.182659122819e-03 0.0 
2.275870413845e-03 1.044155503128e-03 0.0 
3.082647419845e-04 1.686637745549e-03 0.0 
1.901631278211e-04 4.347734956422e-05 0.0 
8.591763622407e-04 1.260727162023e-03 0.0 
3.094036618904e-03 4.851026493708e-03 0.0 
2.859380417794e-04 5.673555581858e-04 0.0 
1.528331472390e-03 2.347285478403e-04 0.0 
2.026724218256e-03 1.117895846654e-03 0.0 
8.221187010152e-04 -9.214696351690e-05 0.0 
2.794346040856e-03 6.364424837449e-03 0.0 
3.522039468472e-04 3.436360465714e-04 0.0 
1.563400693664e-03 8.919372413625e-04 0.0 
2.013731336483e-03 6.409895272884e-04 0.0 
3.037495476114e-04 1.454639162717e-03 0.0 
1.145911737420e-03 5.837279582059e-03 0.0 
1.073196835221e-03 7.481936795490e-05 0.0 
1.100102135131e-03 2.675875324162e-03 0.0 
1.134313929633e-03 6.336343743137e-03 0.0 
3.986831385014e-04 2.807575864877e-04 0.0 
9.449750079680e-04 9.213184062380e-05 0.0 
3.613587435104e-04 3.968047607334e-04 0.0 
1.397281063169e-03 6.346133869052e-03 0.0 
2.273103910568e-03 3.266014095632e-03 0.0 
5.892198378523e-04 2.712740069447e-03 0.0 
2.741941548191e-03 7.205106483555e-03 0.0 
2.834076038057e-03 5.836293441637e-03 0.0 
2.770235214148e-03 5.551117187640e-03 0.0 
2.987735228967e-03 3.803211375119e-03 0.0 
3.915283165355e-04 2.247367153055e-04 0.0 
1.765204194421e-03 6.742282994814e-03 0.0 
2.313383308768e-03 7.691634649786e-03 0.0 
1.725810802714e-03 9.667677325339e-04 0.0 
2.980412165409e-04 -4.784730112502e-04 0.0 
2.536764969967e-03 8.037903919420e-03 0.0 
1.306530337701e-03 2.463805398902e-03 0.0 
3.078007106703e-04 8.739052437268e-03 0.0 
7.780210412392e-04 -1.532165969434e-04 0.0 
1.465737164215e-03 9.911861245062e-04 0.0 
1.691121098545e-03 3.754617999759e-03 0.0 
1.235927905654e-03 2.131070577121e-03 0.0 
2.823010805604e-03 6.647316051426e-03 0.0 
1.941308220540e-03 5.746252325080e-04 0.0 
1.020213996773e-03 -1.147292438681e-04 0.0 
3.246222151722e-04 1.397797073043e-04 0.0 
2.637577720417e-03 8.009081597418e-03 0.0 
9.169645885283e-04 2.966018292873e-04 0.0 
7.168280882514e-04 -3.233094157466e-04 0.0 
1.273140158768e-03 4.051906547054e-03 0.0 
1.161276856163e-03 3.075359138925e-03 0.0 
1.744749532274e-03 2.702428207575e-03 0.0 
3.068234491807e-03 4.715157716814e-03 0.0 
2.560278471509e-03 7.328250796712e-03 0.0 
2.731555699148e-03 7.486349783641e-03 0.0 
2.711526484205e-04 8.175399529812e-05 0.0 
6.837700294129e-04 2.088382649184e-04 0.0 
1.669151093135e-03 2.753526226955e-03 0.0 
1.747869065882e-03 4.236100555622e-03 0.0 
1.047649982313e-03 -1.224569633789e-04 0.0 
2.612591474169e-03 4.443985155674e-03 0.0 
9.296647275675e-04 7.789941330446e-04 0.0 
1.225523055850e-03 7.501649972305e-04 0.0 
3.106261409096e-03 4.502358158535e-03 0.0 
1.598748533404e-03 2.609224513092e-04 0.0 
5.144244050912e-04 -3.178041495216e-04 0.0 
1.433254161869e-03 2.862651665819e-03 0.0 
8.745247376965e-04 1.917324719270e-04 0.0 
2.823667825598e-03 3.363059664795e-03 0.0 
2.954322128696e-03 5.824359191455e-03 0.0 
2.624816668693e-03 3.595477781731e-03 0.0 
3.576751240169e-04 4.423781185285e-04 0.0 
3.185633366179e-04 5.047550657487e-04 0.0 
7.962097654869e-04 1.241686453601e-03 0.0 
1.051648029285e-03 -7.976432836687e-05 0.0 
1.192504253228e-03 3.392263649369e-03 0.0 
8.263684453254e-04 2.521439453685e-03 0.0 
1.486360755904e-03 7.308811671598e-04 0.0 
4.337706620767e-04 6.144575912004e-04 0.0 
2.744298281627e-03 6.127733331683e-03 0.0 
1.502198514940e-03 8.287731890082e-03 0.0 
1.307293477089e-03 6.352758937148e-03 0.0 
4.849306527933e-04 1.088426575372e-04 0.0 
1.889649451707e-03 2.591743291454e-03 0.0 
2.383454694482e-03 6.241672799261e-03 0.0 
2.770458967289e-03 5.054429155243e-03 0.0 
5.701503439425e-04 5.212797282206e-04 0.0 
6.929843394437e-05 -4.007759646174e-04 0.0 
2.326724199724e-03 1.767171125916e-03 0.0 
2.928706336083e-03 3.104513335505e-03 0.0 
2.461596217721e-03 1.847927587594e-03 0.0 
-4.106436909497e-04 1.760387492919e-03 0.0 
2.876453150762e-04 7.575732184198e-03 0.0 
2.663078726588e-04 -4.781104073404e-04 0.0 
1.116306905561e-03 1.577113185765e-03 0.0 
1.016592615208e-04 2.442017810447e-05 0.0 
2.002244616155e-03 7.159404538844e-04 0.0 
2.210360851894e-03 7.813941993216e-03 0.0 
2.489087038871e-05 -5.412543162386e-04 0.0 
3.035046186389e-03 4.201891898097e-03 0.0 
2.224677948099e-03 1.527636173294e-03 0.0 
2.600610355749e-03 5.429268228291e-03 0.0 
3.750912684262e-04 3.264477399665e-04 0.0 
2.645836450415e-03 7.467298698145e-03 0.0 
2.977183094079e-03 4.826431855273e-03 0.0 
5.628037338672e-04 -3.099810850559e-04 0.0 
1.442767425553e-03 3.347917921562e-03 0.0 
1.009505270240e-03 -7.164344949251e-05 0.0 
3.998142318186e-04 3.134660569256e-04 0.0 
1.845518893637e-04 2.143663460226e-04 0.0 
1.266151602423e-04 2.418824527113e-04 0.0 
1.751717444934e-04 2.622689673258e-04 0.0 
2.591186608253e-03 4.936409558985e-03 0.0 
1.527952467305e-03 3.318768829139e-03 0.0 
1.598083412366e-03 2.273949136755e-03 0.0 
2.709280522839e-03 4.049506902432e-03 0.0 
2.679954563853e-03 4.984161586853e-03 0.0 
4.336962880468e-04 -3.499473600852e-04 0.0 
1.512766806479e-03 2.831534953606e-03 0.0 
3.975649447427e-04 2.524989072989e-04 0.0 
1.196082201763e-03 2.917632665164e-03 0.0 
2.117708828109e-03 7.833731099238e-04 0.0 
1.274816371874e-03 2.905556354133e-03 0.0 
2.583030222599e-03 1.917774394021e-03 0.0 
2.846732100183e-03 3.057978962413e-03 0.0 
2.733189324317e-03 6.694790140721e-03 0.0 
4.861557409634e-04 1.316392145536e-03 0.0 
3.386517670170e-04 1.064555509739e-03 0.0 
2.436423243079e-03 3.474608016180e-03 0.0 
1.239455490116e-03 8.098079040431e-04 0.0 
4.785925071603e-04 -3.441738721913e-04 0.0 
6.413196964196e-04 -2.383932748780e-04 0.0 
3.743566779380e-04 8.137590842898e-05 0.0 
1.411139171743e-03 1.953737820351e-03 0.0 
1.768068541466e-04 1.824384147108e-04 0.0 
5.728642459182e-04 9.497893032620e-04 0.0 
3.049803739728e-03 4.268448233198e-03 0.0 
7.431003058932e-06 -3.941899490794e-04 0.0 
1.996941757256e-04 1.652501081060e-04 0.0 
4.575289188393e-04 1.221753018641e-04 0.0 
6.781876269358e-04 -1.871096223531e-04 0.0 
1.941309704532e-03 6.026018022678e-04 0.0 
3.198164851123e-04 1.258174106284e-04 0.0 
-4.625386342769e-05 -4.098552516941e-04 0.0 
2.692982029990e-03 3.281089511853e-03 0.0 
2.952826203570e-03 4.367991871864e-03 0.0 
3.093606672338e-03 4.075568348012e-03 0.0 
3.031106474364e-03 5.019740560159e-03 0.0 
7.130688277342e-04 1.628332065289e-03 0.0 
1.985630824084e-04 1.325416376681e-04 0.0 
1.702532342910e-03 7.165369445557e-04 0.0 
1.752653317732e-05 4.825236954115e-04 0.0 
1.628943993975e-04 1.094523963328e-05 0.0 
-3.247744798623e-06 -4.182139568807e-04 0.0 
2.781652136212e-03 7.392495882909e-03 0.0 
1.807198879228e-04 -1.567237682149e-04 0.0 
2.434433269061e-03 8.260800431808e-03 0.0 
2.384983183986e-04 6.508081955689e-05 0.0 
1.925264542012e-04 1.047794456747e-04 0.0 
2.682407215948e-03 5.754887897826e-03 0.0 
4.279302793044e-05 -1.991026024183e-04 0.0 
-1.009008151680e-04 4.407826369993e-04 0.0 
1.395087617403e-04 -2.089084229184e-04 0.0 
5.079265637431e-04 2.433043509322e-07 0.0 
1.578439885275e-03 8.567284986884e-03 0.0 
2.177996766789e-03 7.402415119835e-03 0.0 
1.659419853654e-04 7.453750488749e-05 0.0 
1.417699433970e-03 8.625507354993e-03 0.0 
2.364443950738e-04 4.787976261171e-04 0.0 
2.441592804528e-03 1.683013257843e-03 0.0 
1.201364126093e-03 6.862231952209e-03 0.0 
1.522197256585e-03 3.730659697616e-03 0.0 
2.026163169683e-03 6.996585340020e-04 0.0 
2.966712264167e-04 8.783953932515e-04 0.0 
1.611362553055e-04 6.057520821159e-05 0.0 
1.731232346532e-04 2.280117725059e-04 0.0 
1.433915921245e-04 2.424860984229e-04 0.0 
9.451507807070e-04 -9.493922811954e-05 0.0 
3.574386541155e-04 -3.784922853519e-04 0.0 
2.759208502984e-03 2.718204336245e-03 0.0 
8.989951754137e-04 -8.365945512214e-05 0.0 
1.470268019930e-04 4.657606985504e-05 0.0 
1.064959721086e-03 1.344234478877e-03 0.0 
9.807814944535e-04 1.841519431704e-05 0.0 
9.810961962034e-04 -7.724837439326e-05 0.0 
1.051271135453e-03 6.318907126592e-03 0.0 
1.677833584866e-04 3.487082993606e-05 0.0 
1.249616792196e-05 -2.463101083047e-04 0.0 
1.143724719712e-04 2.990289411382e-05 0.0 
8.308362408798e-04 -1.722353088530e-04 0.0 
1.753970927005e-04 1.611976318606e-04 0.0 
1.665257668569e-03 2.229546025538e-03 0.0 
-9.019653958591e-05 -3.748421462596e-04 0.0 
2.638666568220e-03 2.641999539834e-03 0.0 
1.042854850983e-03 2.921202541798e-03 0.0 
2.001200560930e-04 1.482159488196e-04 0.0 
2.673207221593e-03 4.765341196124e-03 0.0 
2.245703506135e-03 1.341652770285e-03 0.0 
1.224576530617e-04 1.382186190585e-03 0.0 
7.176821192403e-04 1.733792566306e-04 0.0 
8.234506870111e-04 -2.309542502260e-04 0.0 
9.265779441357e-04 -1.353775379864e-04 0.0 
-1.331929861373e-04 -1.755001372085e-04 0.0 
1.990018623343e-04 1.199572696308e-04 0.0 
6.133568863688e-04 8.214848721438e-04 0.0 
8.909065850688e-04 1.069152986418e-04 0.0 
1.173937128984e-03 7.414215650866e-03 0.0 
5.404324323079e-04 -3.846625513806e-04 0.0 
9.294521527235e-04 -5.303651183339e-05 0.0 
2.842267197998e-03 4.840949703620e-03 0.0 
1.586802298068e-04 6.524220241686e-05 0.0 
3.479610656726e-04 -3.584722673162e-04 0.0 
9.656679592845e-04 -2.248360068565e-06 0.0 
3.008699370421e-03 3.124776522262e-03 0.0 
1.359768044955e-03 9.784352663628e-05 0.0 
1.093922131250e-03 6.230526535769e-05 0.0 
1.024851855685e-03 -3.895907179302e-05 0.0 
3.036933056143e-03 3.456179628851e-03 0.0 
2.648823991001e-03 2.440966045024e-03 0.0 
1.882986339668e-03 6.338848928278e-04 0.0 
2.914836746523e-03 2.811835539122e-03 0.0 
6.218151028562e-04 -3.181771927274e-04 0.0 
1.338956538204e-03 1.678652602536e-03 0.0 
3.989447769487e-04 -3.743936710503e-04 0.0 
2.401321154160e-03 1.538986788269e-03 0.0 
1.980516829867e-03 6.013774537072e-04 0.0 
2.160317334920e-04 5.432307221829e-05 0.0 
1.028734100062e-03 2.471687483492e-03 0.0 
4.729025173437e-04 -4.075440089806e-04 0.0 
1.241258464275e-04 3.517792544307e-05 0.0 
5.324809135673e-04 1.335212969890e-04 0.0 
2.472925621281e-03 1.678506932056e-03 0.0 
-6.662019638604e-05 -2.366552915671e-04 0.0 
1.499979854414e-04 2.841941462032e-05 0.0 
1.246753784982e-03 2.447081523971e-03 0.0 
6.939545660985e-04 -2.534005134614e-04 0.0 
8.850386630030e-05 1.905717145976e-05 0.0 
9.066419242907e-04 -5.290721338196e-05 0.0 
2.859897511193e-03 5.580977767292e-03 0.0 
2.234739957015e-03 6.883729033893e-03 0.0 
2.024400706893e-03 6.685764563741e-04 0.0 
9.551254358346e-04 -1.397191577334e-04 0.0 
1.449639192580e-03 1.807112405793e-04 0.0 
1.902052672296e-03 5.178524297881e-03 0.0 
2.956998700409e-03 6.407526008478e-03 0.0 
1.891092615320e-03 7.179528525335e-04 0.0 
2.718185094620e-04 7.004023735405e-03 0.0 
5.723412121004e-04 -3.286065271419e-04 0.0 
1.841991403298e-03 5.372762310763e-04 0.0 
7.743839762148e-04 -2.697568884127e-04 0.0 
4.833345896540e-04 -1.538074703977e-04 0.0 
-1.467423387433e-04 -3.018426587330e-04 0.0 
1.647019351380e-03 2.073912887435e-03 0.0 
7.836376962553e-04 -2.211355728462e-04 0.0 
5.002528515683e-04 -2.975239162271e-04 0.0 
2.659739812880e-03 1.978121471947e-03 0.0 
9.681441150290e-04 -3.150260867988e-05 0.0 
1.031839843460e-03 6.810986420642e-03 0.0 
6.538243352715e-04 -2.940420776953e-04 0.0 
7.927949218629e-05 1.581365847630e-05 0.0 
2.988318831776e-03 4.114591093134e-03 0.0 
4.350097096721e-04 -2.822947142477e-04 0.0 
3.062951130066e-03 3.977527199570e-03 0.0 
4.530076796442e-04 -3.035349527840e-04 0.0 
-9.212674750282e-05 -3.472993158258e-04 0.0 
2.172649251226e-03 6.468644920294e-03 0.0 
1.226594797975e-04 -3.872917901927e-04 0.0 
5.436413566024e-05 -5.460306569204e-04 0.0 
3.628036385592e-04 -3.127039162788e-04 0.0 
8.953445261216e-04 3.382399452952e-06 0.0 
2.877668647598e-04 3.068502177022e-03 0.0 
1.493432896553e-03 1.638036564596e-04 0.0 
1.437731571710e-03 1.466089373702e-04 0.0 
2.121801735189e-03 8.341764762421e-03 0.0 
1.404223920443e-03 9.253035123533e-03 0.0 
4.078969483374e-04 9.812985411202e-04 0.0 
3.081069402624e-03 3.753739177306e-03 0.0 
5.051724940120e-05 -5.500332801988e-04 0.0 
2.018854646393e-04 -5.027287972051e-04 0.0 
-2.566978132883e-05 -3.261521282718e-04 0.0 
4.325787337544e-04 -4.406247108861e-04 0.0 
1.952979952198e-03 1.850927910862e-03 0.0 
3.295394649513e-04 3.101069526812e-03 0.0 
5.397974329338e-04 -1.710963321966e-05 0.0 
3.948766270053e-04 -4.405316503209e-04 0.0 
4.370921073284e-04 -1.604537582992e-04 0.0 
7.800375872866e-04 9.647633468217e-05 0.0 
2.831652091099e-04 4.310281859959e-04 0.0 
8.685899079452e-05 -3.876987714828e-04 0.0 
5.933834419607e-05 -4.417654358819e-04 0.0 
1.366458233406e-04 2.316593942162e-05 0.0 
7.071849325516e-05 1.260575614402e-05 0.0 
9.139591165806e-05 -3.471749021186e-04 0.0 
3.890347681281e-04 -2.870373848130e-04 0.0 
9.222049788135e-04 -1.280500208591e-04 0.0 
7.498954182609e-04 1.219103346614e-04 0.0 
2.299039159347e-04 -5.027329733749e-04 0.0 
7.966785630937e-04 6.611582993157e-05 0.0 
7.831785460086e-05 -5.491187714279e-04 0.0 
3.780539145126e-04 -3.340149669017e-04 0.0 
5.305838175681e-04 -2.699584691518e-04 0.0 
5.491453755813e-05 -5.546834532714e-04 0.0 
7.247182373289e-05 -3.672437729405e-04 0.0 
9.576917564524e-04 2.467549446872e-03 0.0 
4.903363820790e-05 -5.565299313629e-04 0.0 
1.552770506503e-03 9.157105172647e-03 0.0 
1.611726509454e-03 9.399647206813e-03 0.0 
1.524799451006e-03 2.645663409686e-04 0.0 
2.947126817910e-05 -4.433529890353e-04 0.0 
6.944407546320e-04 -3.005797752668e-04 0.0 
5.184889030056e-04 1.782269421461e-03 0.0 
3.409869682896e-04 3.950183164455e-06 0.0 
7.586451331384e-04 4.949528366050e-04 0.0 
6.024649113246e-04 3.733060888624e-03 0.0 
1.448613296666e-03 3.251376833107e-03 0.0 
1.323020520986e-04 -4.939766820238e-04 0.0 
2.818304770232e-03 7.161848163579e-03 0.0 
1.001078964951e-03 9.304491176222e-03 0.0 
9.370127312489e-04 9.615527372552e-03 0.0 
5.411518654686e-05 -5.534771818983e-04 0.0 
6.600526348911e-05 -5.527543777317e-04 0.0 
4.127530489443e-05 -5.482920782376e-04 0.0 
2.943742286264e-04 -4.866525875031e-04 0.0 
4.498074752060e-05 -5.570751992164e-04 0.0 
7.527394123936e-05 -3.245163408619e-04 0.0 
-2.930541042158e-04 -2.726905289917e-05 0.0 
3.509431216199e-04 -4.596162765614e-04 0.0 
2.420252494236e-04 5.881911511440e-03 0.0 
1.322125810678e-03 9.579140966537e-03 0.0 
1.697376241250e-03 1.693053983467e-03 0.0 
8.480183429589e-04 -4.293410139653e-05 0.0 
2.173231627733e-04 6.776124064534e-03 0.0 
1.581568695274e-05 -4.260801635045e-04 0.0 
4.729736303834e-05 -5.509134534563e-04 0.0 
4.966855955993e-05 2.665540251476e-04 0.0 
1.136693186937e-04 5.545864642982e-04 0.0 
1.087455640531e-03 7.380406735843e-03 0.0 
1.130972967814e-03 9.317456317454e-03 0.0 
7.900364214330e-05 -4.242520657912e-04 0.0 
7.314605794306e-05 5.274111173487e-04 0.0 
3.377622733740e-04 -4.707758816290e-04 0.0 
1.463053622640e-03 9.505079844385e-03 0.0 
1.263432712714e-03 9.306148581783e-03 0.0 
2.505477347075e-03 8.366941308709e-03 0.0 
1.098292348315e-04 2.369151734058e-04 0.0 
8.914744150931e-05 5.253109532661e-04 0.0 
5.618912230876e-05 -5.554146434601e-04 0.0 
4.903438291788e-05 -5.578388823337e-04 0.0 
1.615715648478e-04 -5.117840861159e-04 0.0 
5.806904990597e-04 -2.620212163678e-04 0.0 
3.362878524278e-05 -1.331465249800e-05 0.0 
-3.837940544254e-04 5.972652110230e-05 0.0 
7.643251745627e-05 3.873435933266e-03 0.0 
-2.143596442131e-04 -1.605589433227e-04 0.0 
1.374008936731e-03 1.637010020932e-04 0.0 
-2.142379878606e-04 -2.083937257757e-04 0.0 
-2.927660796579e-04 -8.874514477867e-05 0.0 
1.298570612384e-03 8.881047487452e-05 0.0 
1.350525839177e-04 -1.733865133515e-05 0.0 
2.028306015442e-04 6.213388445680e-03 0.0 
2.977622574754e-03 6.240769361554e-03 0.0 
4.115131164892e-05 -5.556365548544e-04 0.0 
3.583836432483e-04 -1.459251464343e-04 0.0 
1.722108908748e-05 3.146301014430e-04 0.0 
3.401452665233e-05 5.330507617498e-04 0.0 
1.188994706802e-03 9.612315600033e-03 0.0 
1.433053441788e-03 2.382201417262e-04 0.0 
3.947888194938e-05 2.587569281185e-04 0.0 
2.200192773244e-03 1.224563564615e-03 0.0 
2.857546630982e-05 -5.514242052393e-04 0.0 
3.144623022574e-05 -5.581066805115e-04 0.0 
2.489244303055e-05 -5.565157061151e-04 0.0 
1.761117644977e-05 -3.877924572784e-04 0.0 
2.697855521700e-05 9.484854617542e-07 0.0 
9.197327418874e-06 1.449947511328e-03 0.0 
2.821184957459e-05 -5.618484255087e-04 0.0 
3.873867686442e-05 -3.230394650473e-04 0.0 
9.118450331711e-06 2.987332911488e-07 0.0 
3.825037472891e-05 1.841770047301e-06 0.0 
1.247304094220e-04 1.888709500222e-05 0.0 
4.277771213937e-05 4.845634580219e-03 0.0 
1.685143567592e-05 3.383437468672e-03 0.0 
1.786010488529e-05 6.497521706054e-07 0.0 
2.039026984362e-05 1.192017876696e-06 0.0 
3.739716170267e-05 3.873625932708e-03 0.0 
2.077884129945e-05 -5.638897260584e-04 0.0 
7.068142764606e-04 9.619441037629e-03 0.0 
1.062611735154e-03 9.622617817673e-03 0.0 
3.996729881821e-05 -5.603223254731e-04 0.0 
3.450166740340e-05 3.590627818950e-06 0.0 
1.162773822737e-04 1.547318477272e-05 0.0 
5.747430293713e-05 7.146273048103e-06 0.0 
3.290348229538e-05 -5.626254261084e-04 0.0 
4.274634946485e-05 -5.603548184017e-04 0.0 
6.592733008548e-05 1.056018327761e-05 0.0 
5.880307933655e-05 8.326911724619e-06 0.0 
2.223198611263e-05 5.346034846711e-03 0.0 
3.715233419645e-04 9.612670938258e-03 0.0 
2.054572602674e-05 4.354144086435e-03 0.0 
2.710433554045e-05 7.317586754516e-03 0.0 
1.586124975170e-04 9.600526739515e-03 0.0 
4.646393173049e-05 -5.398392064271e-04 0.0 
1.808593350036e-05 -5.029036419510e-04 0.0 
-8.138140837433e-06 -4.722664246772e-04 0.0 
-4.437542422209e-05 -4.303140142229e-04 0.0 
1.980496475246e-05 -3.002934286092e-04 0.0 
1.893371211196e-05 -3.455511675395e-04 0.0 
1.817213581507e-05 -4.920020468469e-04 0.0 
2.065055182962e-05 -1.649837217247e-04 0.0 
-9.453670502649e-06 -4.569022072029e-04 0.0 
8.768909481756e-05 2.508485713909e-04 0.0 
3.366717599368e-05 2.686541892301e-04 0.0 
6.400075913377e-05 2.880324391506e-04 0.0 
8.725771587488e-06 -5.316956849809e-04 0.0 
1.365558122636e-05 -4.597840505517e-04 0.0 
3.171231814498e-05 3.232953621120e-04 0.0 
1.425521840845e-05 -4.869066171404e-05 0.0 
1.679343756485e-05 2.184206603069e-04 0.0 
1.042555889959e-05 -2.298742187446e-05 0.0 
6.305616369957e-06 -6.548868641972e-06 0.0 
3.654488856173e-05 -3.670969141761e-04 0.0 
6.537949413866e-05 5.919495513421e-04 0.0 
4.850575570983e-05 5.417160224189e-04 0.0 
2.468077730804e-05 -3.517238420715e-05 0.0 
1.673117526955e-05 -1.341420737382e-05 0.0 
2.123511350515e-04 -1.151542578772e-04 0.0 
-1.480297560410e-04 -2.658335262791e-04 0.0 
3.073193047764e-04 -3.615290310281e-04 0.0 
6.393207243719e-05 -5.521258671406e-04 0.0 
3.161940246103e-04 -1.841123511733e-06 0.0 
4.222830140536e-04 -3.295886739722e-04 0.0 
2.452845126951e-04 -5.071867054364e-05 0.0 
2.761122817286e-04 -4.944773161040e-04 0.0 
1.006894782730e-04 -5.425447509636e-04 0.0 
1.694765366301e-04 -2.666117002402e-05 0.0 
3.193726949009e-04 -3.162578885350e-04 0.0 
6.674774257610e-05 -4.071936262815e-04 0.0 
2.147489974368e-04 -5.453505672788e-05 0.0 
1.052003420419e-04 2.455221935375e-03 0.0 
3.342686340250e-05 -4.074341708414e-04 0.0 
8.739950239384e-04 2.769239871247e-05 0.0 
6.297653516460e-04 -1.277699862425e-04 0.0 
2.507022847544e-04 -1.115890201126e-04 0.0 
1.819449955318e-04 -9.680297822803e-05 0.0 
1.560670166900e-03 6.509348426567e-04 0.0 
2.853542157858e-03 6.990486174601e-03 0.0 
2.670557504128e-03 2.182212498428e-03 0.0 
4.015212556510e-04 -1.405878108783e-04 0.0 
1.522412324197e-04 -4.422344957879e-05 0.0 
1.193539114430e-04 -8.204494198838e-05 0.0 
3.800133703423e-04 -4.469616075401e-04 0.0 
2.004526057680e-04 2.532848756046e-03 0.0 
2.560243798724e-04 3.510556445293e-03 0.0 
4.753352645384e-04 8.123008504999e-03 0.0 
4.492214851397e-04 -1.093642600432e-04 0.0 
3.237759169673e-04 -1.262744435398e-04 0.0 
1.362583931501e-04 2.506709475300e-03 0.0 
1.746286460824e-04 3.010423850495e-03 0.0 
6.712992163311e-04 -1.452853047724e-04 0.0 
1.145175610067e-04 -1.969885068858e-05 0.0 
5.450888015925e-04 3.703374821186e-03 0.0 
8.480701240786e-05 -8.299413904766e-05 0.0 
2.312857457384e-04 -8.162150870793e-07 0.0 
2.341916001224e-04 2.557945534950e-03 0.0 
4.528833194175e-04 5.082435632543e-03 0.0 
8.391971005343e-04 -1.589873717292e-05 0.0 
1.471880472172e-04 -5.032360045588e-04 0.0 
3.683219761481e-04 -4.249499054011e-04 0.0 
1.282876999184e-04 -5.077896908732e-04 0.0 
-8.157862264236e-05 -2.791538981847e-04 0.0 
2.116372280914e-04 3.010008179777e-03 0.0 
1.218877349935e-04 -3.205266344560e-05 0.0 
-3.750532348704e-05 -3.582884134590e-04 0.0 
1.462979403574e-03 2.365304434876e-03 0.0 
5.589528537303e-04 7.632082700366e-03 0.0 
2.850567557772e-04 -6.514995904836e-05 0.0 
1.548294310568e-04 -6.104089285955e-05 0.0 
6.805973719450e-04 -3.321702796924e-04 0.0 
1.249050515917e-04 -6.363308764042e-05 0.0 
5.371396487301e-04 8.143138312220e-03 0.0 
1.807586591962e-03 5.522774017539e-04 0.0 
1.757124721470e-04 3.127777706606e-06 0.0 
7.848761082173e-05 -5.052628010594e-04 0.0 
2.959825986298e-04 1.278403715496e-05 0.0 
3.491211067473e-04 4.534560861792e-03 0.0 
1.218127989255e-04 -4.917020547361e-04 0.0 
4.412949915479e-04 -4.278416514707e-04 0.0 
1.738668631810e-04 -2.551562986045e-04 0.0 
6.170740689363e-04 6.154243485462e-03 0.0 
3.663758334128e-04 -4.152257478137e-04 0.0 
2.577326747755e-04 3.984663930528e-03 0.0 
3.898450288272e-04 5.534921989472e-03 0.0 
3.681656035192e-04 -2.651916121176e-04 0.0 
1.456004859393e-04 -9.959702059524e-05 0.0 
1.856228005006e-04 -7.665870484030e-05 0.0 
2.998563634790e-04 4.498293255797e-03 0.0 
1.599004056672e-04 -5.213067382799e-04 0.0 
3.010280813242e-04 -2.944055042096e-04 0.0 
1.549801043530e-03 6.307144545215e-04 0.0 
3.990894021035e-04 4.087438735145e-03 0.0 
2.939812099581e-04 -3.406257028698e-04 0.0 
5.793626714159e-04 -1.376493312230e-04 0.0 
3.903015533503e-04 1.671748471725e-05 0.0 
3.968060383967e-04 5.049494388235e-03 0.0 
-8.242205063982e-05 3.145975634644e-04 0.0 
1.166028003202e-04 -5.334803135435e-04 0.0 
5.512355434716e-04 3.906450710690e-04 0.0 
1.792950111452e-04 -4.119215551064e-05 0.0 
5.036669007379e-04 5.600274497038e-03 0.0 
1.262389889996e-04 -2.127930941063e-04 0.0 
6.474463850692e-04 7.165127644021e-03 0.0 
7.384960730440e-04 7.858196451600e-05 0.0 
3.007112692335e-04 -2.468579343003e-04 0.0 
2.184885881550e-04 -7.318416277678e-05 0.0 
1.241160049015e-04 -5.038218715349e-04 0.0 
2.536103713091e-04 3.552442916562e-06 0.0 
3.235898603735e-04 -2.690057592579e-04 0.0 
9.660366195503e-05 -4.927378607458e-04 0.0 
2.590508746409e-04 -2.965645421509e-04 0.0 
3.246475246713e-04 -4.009411852861e-04 0.0 
3.193122434104e-04 -4.648447349130e-04 0.0 
1.666091513222e-04 -2.085991941939e-04 0.0 
5.049589184533e-05 -5.347902295786e-04 0.0 
3.877820907350e-05 -5.172945783709e-04 0.0 
2.835950080430e-04 -1.306722011385e-04 0.0 
1.453842558732e-04 -5.138074943413e-04 0.0 
4.062956760098e-04 -1.157698387605e-04 0.0 
4.906895471065e-04 -1.275359442595e-04 0.0 
5.306901371583e-04 -3.553289569189e-04 0.0 
5.710776778631e-04 -3.217930433471e-04 0.0 
4.684522506395e-04 3.196088741034e-03 0.0 
-1.400961092525e-04 9.847874131644e-04 0.0 
2.792903191772e-04 -3.843000381863e-04 0.0 
7.076436756065e-04 1.032531325549e-04 0.0 
1.227041941804e-04 -5.242212004228e-04 0.0 
6.016102847340e-04 6.641665746997e-03 0.0 
6.236488947771e-04 7.666280946344e-03 0.0 
2.129148395904e-04 -5.113227326789e-04 0.0 
4.992627906450e-04 2.405374019555e-05 0.0 
6.944853342583e-04 4.725731971510e-03 0.0 
1.664202703645e-04 -5.127391828942e-04 0.0 
4.862953140291e-04 2.764108711988e-03 0.0 
4.378379201148e-04 2.732503188979e-03 0.0 
1.943568050686e-04 -5.009429675269e-04 0.0 
1.827593011805e-03 3.933772258110e-03 0.0 
2.685496535747e-04 -4.919633830660e-04 0.0 
2.531619328890e-04 -8.976319839993e-05 0.0 
2.333969385798e-04 -2.278903333491e-04 0.0 
1.173501036739e-03 2.460837119862e-03 0.0 
4.194951145029e-04 3.165332258046e-03 0.0 
3.269158460426e-04 -1.029734449698e-04 0.0 
3.662979926825e-04 -9.780617574650e-05 0.0 
2.347474817655e-04 -5.071302713960e-04 0.0 
2.891945852529e-04 -8.554538085575e-05 0.0 
6.304930800004e-04 4.696379946277e-03 0.0 
1.914588945245e-04 -2.306969211690e-04 0.0 
5.647181581862e-04 5.634258900546e-03 0.0 
5.615748081753e-04 4.183353109280e-03 0.0 
2.071105907111e-03 8.243353241506e-04 0.0 
3.898889641236e-04 3.609630993704e-03 0.0 
2.361389455206e-04 -3.211415431869e-04 0.0 
2.574662232772e-04 -2.500882992956e-04 0.0 
2.570507064741e-04 -4.242420687253e-04 0.0 
5.727088946406e-04 -3.754833882169e-04 0.0 
5.701772816053e-04 5.149347065692e-03 0.0 
8.570254617430e-04 -1.948913021444e-04 0.0 
2.524704916695e-04 -4.847427131168e-04 0.0 
1.523362658158e-04 -5.211032620262e-04 0.0 
6.326856801558e-04 5.181148086143e-03 0.0 
2.803068201126e-04 -4.813151355435e-04 0.0 
3.150488828981e-04 1.795382693500e-05 0.0 
4.548997295137e-04 4.600612086380e-03 0.0 
3.192698539968e-04 -6.039853799751e-05 0.0 
4.151095746475e-04 1.008469927863e-04 0.0 
2.527246672611e-04 -3.433503195805e-04 0.0 
2.186504149546e-04 -4.988333614805e-04 0.0 
1.756610892631e-04 -5.206377324193e-04 0.0 
4.473684727198e-04 -8.540739372996e-05 0.0 
4.357250100572e-04 6.054109401935e-03 0.0 
1.221506084964e-04 -5.270821085513e-04 0.0 
3.286564675693e-04 -4.190137658394e-04 0.0 
8.360863770880e-05 -5.153045907851e-04 0.0 
6.831425422836e-04 6.187187844717e-03 0.0 
2.871409506292e-04 -4.036921744086e-04 0.0 
5.373237478408e-04 -1.195761614843e-04 0.0 
2.217710201759e-04 -4.248105478746e-04 0.0 
2.984150221865e-04 3.543953663634e-03 0.0 
3.261940581840e-04 -4.511230680306e-04 0.0 
5.773076449980e-04 -6.002076603764e-05 0.0 
3.450445983057e-04 -4.461977202622e-04 0.0 
5.381413379640e-04 -9.389921970830e-05 0.0 
1.967062916930e-04 -2.766565736834e-04 0.0 
4.009345010198e-04 -6.963348728236e-05 0.0 
1.152699690246e-03 1.452974428666e-04 0.0 
1.040278948181e-04 -5.148994672703e-04 0.0 
5.201971334814e-04 7.097190981282e-03 0.0 
1.300903883290e-03 1.205656471224e-04 0.0 
2.899024539577e-03 3.761831532920e-03 0.0 
4.934696009471e-04 6.086520665193e-03 0.0 
4.348982739805e-04 -4.054161501889e-04 0.0 
9.061273046063e-04 5.781953698394e-03 0.0 
1.044198754410e-04 -5.247273063758e-04 0.0 
4.056002696274e-04 -1.739658603415e-06 0.0 
1.360955207322e-03 1.913721101118e-04 0.0 
1.822231449642e-03 6.349846712693e-04 0.0 
3.526209190107e-04 2.215860192864e-03 0.0 
8.604307138523e-04 -1.479601958064e-04 0.0 
1.782494417270e-04 -5.193103548715e-04 0.0 
7.349528412231e-04 -1.035742338153e-04 0.0 
4.174230834107e-04 2.464245456107e-05 0.0 
6.515830449055e-04 -3.323072379525e-04 0.0 
3.627898301124e-04 -7.562669058163e-05 0.0 
5.111424342533e-04 4.633539116021e-03 0.0 
5.501918952531e-04 -2.675507113978e-04 0.0 
6.343182570099e-04 -1.003267331762e-04 0.0 
9.301083003645e-04 7.284831690360e-03 0.0 
1.445879643060e-04 -4.773855966723e-04 0.0 
3.651447647239e-04 -4.316453788882e-04 0.0 
2.952249475605e-03 2.826892977114e-03 0.0 
4.896541248097e-04 -7.790213617017e-05 0.0 
2.832506993670e-03 5.053138767768e-03 0.0 
2.837430548566e-03 2.514916430802e-03 0.0 
7.650743539152e-04 5.240423923666e-03 0.0 
5.390570741931e-04 6.607927330237e-03 0.0 
9.533373481563e-04 6.789126488940e-03 0.0 
2.383676077339e-04 -2.743951621945e-04 0.0 
6.190368985531e-04 3.402147528252e-05 0.0 
8.389777812590e-04 -1.023074374872e-04 0.0 
7.158562381988e-04 7.204407249519e-03 0.0 
1.340445379673e-03 1.866157589367e-03 0.0 
1.800558200025e-03 7.012435105020e-04 0.0 
5.847331669030e-04 -8.452913638068e-05 0.0 
5.047325609786e-04 4.152313299475e-03 0.0 
5.319363378473e-04 -3.721037688614e-04 0.0 
4.449072889565e-04 -4.043158428018e-04 0.0 
2.155856015761e-04 -5.125329523274e-04 0.0 
7.918448448167e-04 -6.012266090646e-05 0.0 
4.038730133479e-04 -3.930545529589e-04 0.0 
7.616914495854e-04 5.728928092542e-03 0.0 
8.958090124682e-04 6.275031812052e-03 0.0 
1.866300877801e-03 5.073094863027e-04 0.0 
4.310783875772e-04 -4.327827603499e-04 0.0 
1.327564176940e-03 6.646046570285e-04 0.0 
4.021964553357e-04 -4.262824195301e-04 0.0 
4.861214723598e-04 -3.966562849420e-04 0.0 
2.311258264873e-04 -5.051907925982e-04 0.0 
7.508662651607e-04 4.850396226166e-05 0.0 
7.809811788314e-04 -2.730108231905e-04 0.0 
4.392894182592e-04 3.641578528393e-03 0.0 
8.899762290356e-04 -2.191091638910e-04 0.0 
7.904510319938e-04 -8.874375525700e-05 0.0 
8.318624682870e-04 -1.805107123921e-04 0.0 
2.563864607604e-03 1.739725325506e-03 0.0 
2.090629163103e-04 -5.086331934394e-04 0.0 
5.317009658532e-04 3.449205338251e-05 0.0 
4.620967019183e-04 4.204024485370e-05 0.0 
2.759215665363e-03 2.560469461810e-03 0.0 
5.774582362671e-04 -3.616803699342e-04 0.0 
8.233591215911e-04 -1.334973854319e-04 0.0 
6.932950300839e-04 5.699004280252e-03 0.0 
4.853207609941e-04 -3.630732375028e-04 0.0 
2.595504369812e-03 2.899804013060e-03 0.0 
2.930778681485e-04 -4.546808840194e-04 0.0 
5.374189873099e-04 -3.550777345512e-04 0.0 
6.256859263338e-04 -3.344762235772e-04 0.0 
2.583597249318e-04 -4.718301284751e-04 0.0 
1.725798064329e-04 -4.902993542372e-04 0.0 
7.731780969459e-04 -1.969494981438e-04 0.0 
6.853209566223e-04 -8.856189696776e-05 0.0 
1.998453197008e-03 1.669565838417e-03 0.0 
3.754991360454e-05 -5.250531681066e-04 0.0 
1.154142885139e-03 -8.948014184145e-05 0.0 
9.578449953415e-04 -2.003587757810e-04 0.0 
6.761052877716e-04 -3.205836735202e-04 0.0 
8.220672349796e-04 6.248178128910e-03 0.0 
8.170924424633e-04 -2.277010678595e-04 0.0 
2.943092088450e-04 -4.389912129026e-04 0.0 
7.257919527533e-04 -2.907638029606e-04 0.0 
3.493880603578e-04 4.054328754865e-03 0.0 
2.602100217920e-04 -4.414685266661e-04 0.0 
1.341080308009e-04 -5.334917474375e-04 0.0 
1.810725325624e-04 -5.227156940293e-04 0.0 
5.773079349918e-04 -3.590542315852e-04 0.0 
5.206779231720e-04 -4.001244739013e-04 0.0 
1.081220010152e-03 -1.311787348637e-04 0.0 
8.305003367207e-04 -2.409353058281e-04 0.0 
3.219626775990e-04 -4.180958694789e-04 0.0 
1.657992828903e-04 -5.260506957323e-04 0.0 
1.288591357447e-03 6.872011132630e-03 0.0 
2.288953929412e-04 -4.740524379642e-04 0.0 
7.917052663792e-04 3.044617260793e-05 0.0 
2.190050371296e-03 1.723125115967e-03 0.0 
2.304353696845e-03 5.851559252837e-03 0.0 
7.536767549488e-04 3.329986369171e-03 0.0 
1.760819746126e-03 1.552813134697e-03 0.0 
1.974806772588e-03 6.882569975204e-04 0.0 
2.511274094404e-03 2.142101835603e-03 0.0 
4.139527242413e-04 -3.697045455016e-04 0.0 
6.641588894846e-04 -2.892388960335e-04 0.0 
2.258280622468e-03 1.388644689159e-03 0.0 
6.450488823841e-04 -9.824138080041e-05 0.0 
2.856812439316e-04 -3.755403393591e-04 0.0 
4.453527782799e-04 -3.875076073051e-04 0.0 
8.967910436578e-04 -2.282244075269e-04 0.0 
1.015077437765e-03 -1.646804869564e-04 0.0 
2.295143491049e-04 -4.593805072720e-04 0.0 
9.185141643294e-04 -1.740099224329e-04 0.0 
1.086207278668e-03 -1.315300310741e-04 0.0 
1.293659058449e-03 -1.211709304122e-07 0.0 
4.796123993109e-04 -4.108739716992e-04 0.0 
1.580550523940e-03 3.465680646558e-04 0.0 
8.357684314475e-04 5.266595846377e-03 0.0 
1.372405570157e-03 7.355724436960e-05 0.0 
6.581813537017e-04 4.754018838436e-05 0.0 
5.200801075236e-04 -3.103089156330e-04 0.0 
5.828518275591e-04 8.878015985087e-05 0.0 
1.002104294410e-03 -1.584305010222e-04 0.0 
1.457370157594e-03 1.348846300031e-03 0.0 
2.864914329640e-03 4.162346962170e-03 0.0 
4.625392412628e-04 -3.785581955549e-04 0.0 
2.408164816743e-03 5.229616069030e-03 0.0 
9.695082866240e-04 2.916324574551e-03 0.0 
1.115737928163e-03 -9.097591573252e-05 0.0 
1.991854642280e-03 2.011293979322e-03 0.0 
2.477125815245e-03 4.610445015782e-03 0.0 
2.994352750887e-03 3.450973880086e-03 0.0 
3.399524584100e-04 -3.897084642135e-04 0.0 
3.760882735347e-04 1.402348097228e-03 0.0 
2.591138412867e-04 -4.341744823320e-04 0.0 
1.050982584995e-03 3.201996315058e-04 0.0 
3.086904604949e-04 2.639196738633e-03 0.0 
1.401394077251e-03 2.594989420678e-04 0.0 
7.360886112109e-04 6.713889711751e-03 0.0 
7.909115167771e-04 3.809239701132e-03 0.0 
1.220094270926e-03 -4.956827416272e-05 0.0 
1.888241970010e-03 4.992642389606e-04 0.0 
5.860099666825e-04 2.367581624027e-03 0.0 
6.232933799649e-04 -4.926930604973e-05 0.0 
9.031944971572e-04 4.800010257609e-03 0.0 
1.222009078074e-03 1.113944160095e-04 0.0 
4.378348999490e-04 -3.347399567838e-04 0.0 
9.613369826241e-04 4.330506663251e-03 0.0 
9.186902403541e-04 5.784710661247e-04 0.0 
4.884403801610e-04 5.210676897500e-05 0.0 
7.177163779440e-04 -2.757180563237e-04 0.0 
8.066168844055e-04 6.744956183655e-03 0.0 
8.571296141022e-04 7.267515068217e-03 0.0 
9.380570373646e-04 -1.849935462110e-04 0.0 
7.327472989060e-04 -4.840408268129e-05 0.0 
7.692557737425e-04 -8.243834121452e-06 0.0 
1.629806624245e-04 -5.266280128384e-04 0.0 
1.055977326022e-03 6.859117690082e-04 0.0 
1.529644322517e-03 1.894060893297e-04 0.0 
1.296757240106e-03 1.228247995330e-05 0.0 
2.763776540926e-03 2.467819601017e-03 0.0 
4.665424735255e-04 1.886319654234e-03 0.0 
1.390564689864e-03 2.398208961719e-03 0.0 
3.492456559109e-04 2.671511935177e-03 0.0 
2.957842213785e-03 5.577676276325e-03 0.0 
1.165407427218e-03 3.873395429350e-03 0.0 
6.817216014823e-04 -6.201284018431e-05 0.0 
4.394127054880e-04 2.295097005675e-03 0.0 
1.139548659618e-03 4.843070819346e-03 0.0 
7.594977097646e-04 -2.447308385850e-04 0.0 
1.614661439890e-03 3.063611881197e-04 0.0 
8.868864680199e-04 4.313037159122e-03 0.0 
6.447185092869e-04 2.832360179073e-03 0.0 
6.829431721653e-04 4.242391201951e-03 0.0 
8.304240735521e-04 4.778300137479e-03 0.0 
5.442192539080e-04 1.051422153331e-05 0.0 
1.270160291264e-03 4.288364071012e-04 0.0 
6.631299854034e-04 1.833015295177e-05 0.0 
7.254840062958e-04 -1.328543885537e-04 0.0 
2.546837633770e-03 8.369663481968e-03 0.0 
1.418798144846e-03 3.221631591748e-04 0.0 
1.590186902890e-03 4.797260326646e-03 0.0 
1.987125497929e-04 -4.890746286523e-04 0.0 
1.448120407822e-03 1.185960303276e-04 0.0 
1.457936163982e-03 1.245430313471e-04 0.0 
1.853572921000e-03 4.839247950202e-04 0.0 
7.434248033761e-04 1.481862780120e-04 0.0 
1.531146631756e-03 2.197679483326e-04 0.0 
1.761413385381e-03 4.589763147680e-04 0.0 
2.910818666224e-03 6.593081808348e-03 0.0 
7.407463577032e-04 -2.283598586216e-04 0.0 
1.231664053522e-03 5.843915595650e-03 0.0 
7.781192743060e-04 8.860459459409e-03 0.0 
-6.109180473661e-04 2.125983803361e-03 0.0 
7.653635373986e-04 -1.492138579401e-04 0.0 
1.289287088024e-03 2.320700013606e-04 0.0 
1.121842647976e-03 2.031939100784e-03 0.0 
1.838666937216e-03 4.547972326115e-04 0.0 
7.437507583187e-04 -1.801154540663e-04 0.0 
9.830869322874e-04 5.803969081232e-03 0.0 
-4.295841074104e-04 3.057912409818e-03 0.0 
1.470927403044e-03 3.091232515717e-04 0.0 
1.745597947816e-03 3.653228185488e-04 0.0 
2.905138852553e-03 6.359792996280e-03 0.0 
7.189794702564e-04 -2.356062011989e-05 0.0 
6.134456393722e-04 -1.626971143170e-04 0.0 
7.431134417705e-04 1.379107639988e-05 0.0 
6.316915206537e-04 7.150719906739e-05 0.0 
1.656036937995e-03 4.090641607425e-04 0.0 
7.481878339267e-04 4.268787445210e-03 0.0 
2.112344008124e-03 1.265435166378e-03 0.0 
5.971890992444e-04 5.807729060565e-05 0.0 
7.369211420561e-05 4.502299672763e-03 0.0 
1.065280493685e-03 5.326195233627e-03 0.0 
1.391244776877e-03 5.762533510461e-04 0.0 
7.249833062890e-04 3.786700107351e-03 0.0 
1.772996387076e-03 4.336014484718e-04 0.0 
1.699703892662e-03 3.569419751736e-04 0.0 
4.360909977185e-04 -2.341516925306e-04 0.0 
1.524662841900e-04 3.903774630749e-04 0.0 
5.742857542859e-04 3.257380331480e-03 0.0 
1.722829294977e-04 -4.765687631495e-04 0.0 
4.237943664858e-04 7.124335422512e-03 0.0 
2.316571951143e-03 1.595748291411e-03 0.0 
3.129857909434e-04 2.185625422049e-03 0.0 
4.881213312296e-04 -2.472963891650e-04 0.0 
3.009371960224e-03 3.099346651458e-03 0.0 
1.057427022713e-03 4.833353646021e-03 0.0 
6.094528445771e-04 -2.331598957783e-04 0.0 
7.092740014251e-04 5.709857579792e-05 0.0 
1.781881642567e-03 1.899133953812e-03 0.0 
3.021907736056e-04 -3.395163811765e-04 0.0 
5.145071448324e-04 -1.937264446091e-04 0.0 
4.005188073428e-04 -2.740345539294e-04 0.0 
1.833721177087e-03 4.481758750541e-04 0.0 
2.041652433363e-04 4.722644984741e-04 0.0 
1.104581354341e-03 9.382594869240e-03 0.0 
4.358485704198e-04 5.857853169346e-06 0.0 
1.747302673040e-03 6.409483126476e-04 0.0 
1.321956712142e-03 5.341232495669e-03 0.0 
4.120830289362e-04 3.474955618589e-04 0.0 
5.484411868488e-04 7.492859652954e-05 0.0 
3.803441637917e-04 -3.187199173131e-04 0.0 
1.944506154103e-04 -4.433286054158e-04 0.0 
1.682889916737e-03 4.877896607312e-04 0.0 
1.136334812647e-03 -9.344770128314e-05 0.0 
1.502473937697e-03 5.695670290869e-04 0.0 
2.333358834325e-03 3.053646884493e-03 0.0 
1.467474674668e-03 4.330694613498e-03 0.0 
1.075567191303e-03 3.498110451277e-04 0.0 
9.854984827337e-04 5.310321349345e-03 0.0 
1.186140908248e-03 2.014183250745e-03 0.0 
1.006845808262e-03 3.860041597005e-03 0.0 
1.035616889229e-03 3.389731972815e-03 0.0 
6.371612997852e-04 9.940243131918e-04 0.0 
4.385704651051e-04 -1.677584449962e-05 0.0 
1.118811839969e-03 4.353615529996e-03 0.0 
2.248671978371e-03 1.030793475743e-03 0.0 
1.673196457551e-03 1.019662356664e-02 0.0 
9.018256631824e-04 3.031151288857e-04 0.0 
8.502352067393e-04 4.877770980821e-04 0.0 
1.990346290214e-04 -4.606721068724e-04 0.0 
1.632899438006e-03 6.034746369459e-04 0.0 
1.886918927243e-05 -5.229005257175e-04 0.0 
2.722429379649e-03 2.022748133591e-03 0.0 
1.484302608434e-03 3.734201475445e-04 0.0 
8.246159816309e-04 2.457661391741e-03 0.0 
7.873176298590e-04 2.003023427488e-03 0.0 
1.611918280687e-03 4.228763360281e-04 0.0 
8.198073113899e-04 3.349927067494e-03 0.0 
1.961256071646e-03 8.495941726827e-04 0.0 
2.361904365325e-03 2.001329251299e-03 0.0 
1.938237218531e-03 1.028911336951e-02 0.0 
1.505759715591e-03 1.864211648903e-03 0.0 
1.994854414598e-03 9.970090228243e-03 0.0 
1.969464471093e-03 9.704440476610e-03 0.0 
1.959759787622e-03 6.189754953188e-04 0.0 
1.913825024394e-03 9.390700840294e-03 0.0 
2.542678855079e-03 1.473023489378e-03 0.0 
2.371656277654e-03 1.458758986244e-03 0.0 
1.600035529389e-03 2.359341365073e-04 0.0 
5.887484600338e-04 1.957782089226e-05 0.0 
1.789261727438e-03 4.560122706761e-04 0.0 
5.885294523150e-04 2.809536710632e-03 0.0 
1.280939810020e-03 1.906414868108e-03 0.0 
5.207037431672e-04 -4.686767565331e-05 0.0 
1.310205511541e-03 4.745001619974e-04 0.0 
1.207273466950e-03 -5.388712981487e-05 0.0 
9.605251457374e-04 3.380605780662e-03 0.0 
1.686580291401e-03 3.168767825642e-04 0.0 
3.469979664162e-04 -1.488777585158e-05 0.0 
9.314925878224e-04 3.846649903585e-03 0.0 
1.248948226858e-03 3.871049138657e-03 0.0 
1.602763207367e-03 3.232899543944e-04 0.0 
1.881514870560e-03 6.313795547397e-04 0.0 
2.006213277578e-03 1.571054589407e-03 0.0 
2.811646932400e-03 4.376641504030e-03 0.0 
5.639674646518e-04 -6.048201303508e-05 0.0 
8.132440906709e-04 3.625903080194e-04 0.0 
2.424274599761e-03 2.793231151252e-03 0.0 
3.041988524450e-03 3.387403917752e-03 0.0 
2.647485316617e-04 -1.202764641534e-05 0.0 
1.202281715433e-03 4.357843170189e-03 0.0 
1.789428735231e-03 5.108008369114e-04 0.0 
2.863407169888e-03 2.879088043168e-03 0.0 
1.288856751810e-03 2.842045230808e-04 0.0 
6.315594874888e-04 3.284623306949e-03 0.0 
1.788480816192e-03 1.484662900144e-03 0.0 
1.410453905052e-03 5.835974602680e-03 0.0 
9.393562525930e-04 1.304200008221e-04 0.0 
1.748504185591e-03 3.634348243754e-04 0.0 
1.228879020780e-03 2.437356747704e-04 0.0 
2.806901078536e-03 2.273935989857e-03 0.0 
6.426255360541e-04 2.400102126827e-03 0.0 
1.491413317776e-03 1.298178798115e-03 0.0 
1.682285927770e-03 3.278814742280e-04 0.0 
6.700544527521e-04 3.158162943736e-04 0.0 
1.925038434380e-03 1.079345845338e-03 0.0 
2.698816973099e-03 1.845599390689e-03 0.0 
1.866866935694e-03 7.034432391208e-04 0.0 
1.689832623116e-03 3.604111841849e-04 0.0 
8.922885002355e-04 6.922674207969e-05 0.0 
6.426750162891e-04 2.062816217265e-04 0.0 
1.709955989115e-03 3.250487742193e-04 0.0 
2.388892797504e-03 4.744132287589e-03 0.0 
2.402871385953e-04 -1.635995544900e-05 0.0 
2.430944545180e-03 4.143505104649e-03 0.0 
2.142940802764e-03 1.375504217931e-03 0.0 
2.310343354093e-03 5.351281990607e-03 0.0 
2.067986017913e-03 6.555139588186e-03 0.0 
2.804215289745e-03 3.737064490517e-03 0.0 
1.407743703014e-03 4.600734962277e-04 0.0 
5.006896350883e-04 -2.653127029745e-05 0.0 
1.311820800532e-03 4.845982534665e-03 0.0 
7.275884193963e-04 1.998013339604e-03 0.0 
2.200701981252e-03 5.957125599549e-03 0.0 
1.482758211427e-03 5.169302536643e-04 0.0 
1.752976463874e-03 9.850547044204e-04 0.0 
4.843731105710e-04 2.313282028850e-03 0.0 
2.538678346853e-03 1.574340157676e-03 0.0 
2.677334328789e-03 1.824910601238e-03 0.0 
1.660471594419e-03 5.131120764362e-04 0.0 
1.376442854592e-03 4.347964816767e-03 0.0 
2.908665979262e-03 4.597345934836e-03 0.0 
2.454960101214e-03 1.318634151967e-03 0.0 
2.852802598115e-03 4.133890500678e-03 0.0 
1.677012019942e-03 5.544455512747e-04 0.0 
1.317055986848e-03 7.024369288344e-04 0.0 
1.602740261177e-03 3.496589317919e-04 0.0 
1.571680648624e-04 2.706534365644e-04 0.0 
9.087432914062e-04 2.001661144147e-03 0.0 
3.023984595146e-03 5.076458832020e-03 0.0 
1.333759718292e-03 3.146378900077e-05 0.0 
1.532295609653e-03 8.100208217846e-04 0.0 
1.402441140051e-03 4.838450471936e-03 0.0 
6.057972759797e-04 -2.669457858761e-05 0.0 
2.156978365599e-03 1.190302603580e-03 0.0 
4.070707837792e-05 2.366145953662e-04 0.0 
1.699028733865e-04 -1.124127197050e-05 0.0 
2.948620225042e-03 2.787657717003e-03 0.0 
2.032437620290e-03 8.186824953887e-04 0.0 
1.793474146503e-03 1.308876158403e-03 0.0 
-1.798680756928e-04 2.864916289692e-04 0.0 
6.504576688473e-04 -1.459465016079e-05 0.0 
1.416686059645e-03 1.303612739253e-03 0.0 
1.505189844404e-03 5.820607396713e-03 0.0 
6.031534271731e-04 -1.846392352734e-04 0.0 
1.687949721743e-03 4.550282850812e-04 0.0 
3.178770990382e-04 -2.070564075155e-05 0.0 
2.622068170572e-03 1.655147727078e-03 0.0 
1.537789308815e-03 4.546961193518e-04 0.0 
2.909563083053e-03 2.734420066291e-03 0.0 
5.138673826606e-05 1.259400487484e-04 0.0 
2.497424700124e-03 1.986494672498e-03 0.0 
1.613070234743e-03 4.888580318105e-04 0.0 
1.211890093994e-03 1.118989060066e-03 0.0 
2.182582213731e-03 1.606467664527e-03 0.0 
1.058328266752e-03 3.470073985310e-04 0.0 
4.796420519179e-04 -5.537896245822e-05 0.0 
4.210946743859e-04 1.854843527497e-03 0.0 
7.231334043338e-04 2.648974898422e-04 0.0 
1.578214423600e-03 5.396448589829e-04 0.0 
2.072203141036e-03 9.136088149317e-04 0.0 
2.739088324500e-03 2.363050043225e-03 0.0 
1.933409877258e-04 -2.359081273971e-05 0.0 
1.334367456580e-04 -2.576704116072e-04 0.0 
2.340586813479e-03 1.729064636754e-03 0.0 
1.233154446692e-03 5.342548420543e-03 0.0 
4.047611055732e-04 -2.413265507160e-05 0.0 
6.207505159664e-04 5.261212389538e-06 0.0 
3.146863094866e-04 9.320745310849e-03 0.0 
2.099228890561e-04 9.317243468272e-03 0.0 
2.260581225070e-03 4.379359419504e-03 0.0 
2.614847255858e-03 2.087939463333e-03 0.0 
5.190279933997e-04 -1.734955727709e-04 0.0 
2.683331429912e-03 3.519235413115e-03 0.0 
2.531551830086e-03 1.453463323515e-03 0.0 
8.787911950483e-04 1.865289603459e-04 0.0 
2.170993723780e-03 1.078297461059e-03 0.0 
1.820251033224e-04 4.861978964592e-04 0.0 
2.065728994655e-03 7.523476148799e-03 0.0 
2.589458501270e-03 1.614898771763e-03 0.0 
6.556280888469e-04 -1.745066686550e-04 0.0 
1.007047399059e-03 5.424537180362e-04 0.0 
6.854262630956e-04 -2.415589246964e-04 0.0 
2.817175901724e-03 2.441589898503e-03 0.0 
3.015766052471e-03 3.584087820489e-03 0.0 
1.507312991013e-03 5.318333226973e-03 0.0 
2.586246330012e-03 3.123389502648e-03 0.0 
2.431954818742e-03 2.894879058730e-03 0.0 
4.823442749726e-05 -5.418261858117e-04 0.0 
6.506201266976e-04 -2.714507443696e-04 0.0 
3.002198878146e-03 4.623967490055e-03 0.0 
2.635549026417e-03 4.300662443475e-03 0.0 
2.507347143011e-03 4.004790895203e-03 0.0 
1.196407548669e-03 3.504282752365e-04 0.0 
1.014341768494e-05 -5.127271757332e-04 0.0 
4.934886595735e-04 7.186419625388e-05 0.0 
2.905064281350e-03 2.549335460052e-03 0.0 
5.987388618359e-04 -2.817635989775e-04 0.0 
2.056849726332e-03 9.570680868433e-03 0.0 
2.004670669713e-03 9.289085366432e-03 0.0 
1.604026933776e-03 5.294413284951e-03 0.0 
4.738190906024e-04 1.115400965823e-03 0.0 
5.828709388837e-04 -2.132593522443e-04 0.0 
1.226266679430e-03 1.931359296825e-04 0.0 
5.132644138779e-04 1.674802948740e-04 0.0 
7.501365061596e-04 4.407965824933e-04 0.0 
8.328292490073e-04 2.902108399944e-03 0.0 
4.605605683972e-04 -2.555139961084e-04 0.0 
4.258185843071e-04 -4.239936767435e-05 0.0 
7.726183926252e-05 -5.475934991297e-04 0.0 
1.200434358385e-03 1.368744996438e-04 0.0 
2.900762440983e-03 2.535530070745e-03 0.0 
5.988692475204e-05 -5.481665597916e-04 0.0 
7.674646350996e-04 2.884821380195e-03 0.0 
4.014913358055e-04 2.338654583111e-04 0.0 
2.702180506515e-03 4.125442203004e-03 0.0 
3.007340716568e-03 3.315793709377e-03 0.0 
1.356306427138e-03 4.173603696182e-05 0.0 
1.090996048067e-03 -1.236593483504e-05 0.0 
7.630286875060e-04 2.452571409285e-03 0.0 
1.027420041852e-03 2.168149831692e-05 0.0 
2.774133027660e-03 2.062798514301e-03 0.0 
2.837122082237e-03 2.293297581115e-03 0.0 
-6.673014502759e-04 1.779019792816e-03 0.0 
2.772752966515e-04 1.976740559376e-04 0.0 
1.980531900926e-03 1.271422525595e-03 0.0 
1.993619133960e-03 6.115172976613e-03 0.0 
1.777873135780e-03 1.067062333126e-03 0.0 
1.487642954237e-03 1.532147006076e-03 0.0 
1.697243082137e-03 3.245271191583e-03 0.0 
1.790887476048e-03 1.223548647286e-03 0.0 
2.118192301296e-03 8.758145759678e-03 0.0 
1.996158449557e-03 1.369069626849e-03 0.0 
3.893966854990e-04 -4.914863493870e-05 0.0 
2.667587615562e-03 1.983350220402e-03 0.0 
6.623073437513e-04 -2.230104587148e-04 0.0 
6.882000997318e-04 -1.929773485625e-04 0.0 
9.747760579724e-04 2.002887091549e-03 0.0 
1.119759157184e-03 -5.071817653668e-05 0.0 
2.935667010354e-03 2.974498792370e-03 0.0 
2.260427723903e-03 9.728528326424e-04 0.0 
9.287659598616e-04 4.886110051433e-05 0.0 
2.442821944116e-03 1.376733188338e-03 0.0 
1.142555302966e-03 2.889605476921e-04 0.0 
1.575757578437e-03 2.240998631375e-04 0.0 
1.343275632758e-03 4.578421291261e-04 0.0 
2.634564043923e-03 3.693318583742e-03 0.0 
1.276531620919e-03 3.418975675173e-04 0.0 
2.838354763423e-03 3.530921399353e-03 0.0 
1.358575566727e-03 4.112767779849e-04 0.0 
1.465104502114e-03 4.252606212759e-04 0.0 
2.366738861240e-03 1.322370410355e-03 0.0 
1.701125243146e-03 5.762105089293e-03 0.0 
3.392183393871e-04 -3.669978723591e-05 0.0 
3.072361787924e-04 -4.195648699546e-05 0.0 
1.312530487762e-04 1.182891374474e-03 0.0 
2.749434056390e-03 3.148380480976e-03 0.0 
1.891104563782e-04 -8.021177177123e-06 0.0 
2.394983291908e-03 7.370188985185e-03 0.0 
4.553085409522e-04 -2.074047234202e-04 0.0 
-5.668464894854e-04 1.884136313279e-03 0.0 
2.614335453771e-04 -3.029464954475e-05 0.0 
1.111419961214e-03 4.676724972172e-04 0.0 
1.106586146788e-04 -2.374049340842e-04 0.0 
2.104860025672e-03 9.215456956611e-04 0.0 
1.801942146168e-03 5.720904261639e-03 0.0 
1.889799957110e-03 6.175036577205e-03 0.0 
2.822021623316e-03 2.272757666523e-03 0.0 
2.070432755925e-03 9.937629390788e-03 0.0 
2.081888565757e-03 9.791114310548e-03 0.0 
2.336949774993e-04 -3.430541204208e-05 0.0 
1.096040389978e-03 1.902038666358e-05 0.0 
1.378244621264e-03 7.116661506525e-05 0.0 
1.266275434192e-03 1.737168387753e-04 0.0 
1.575656448566e-03 2.082282458261e-04 0.0 
1.262391009267e-03 5.255702079872e-04 0.0 
1.988652061618e-03 1.016766304779e-02 0.0 
2.017808951568e-03 7.091284730749e-03 0.0 
2.648678617955e-04 9.607641027269e-03 0.0 
1.407308511856e-03 3.747360617129e-04 0.0 
2.267378564234e-03 1.140250970750e-03 0.0 
9.334738604336e-04 3.330871706900e-04 0.0 
9.827705190406e-05 -4.863241168647e-05 0.0 
1.623653014102e-03 2.507848417268e-04 0.0 
1.579985758532e-04 2.551246502202e-07 0.0 
1.270707713532e-03 1.941220253157e-04 0.0 
1.180972768335e-03 4.660526054422e-04 0.0 
2.763334409106e-03 2.056063989016e-03 0.0 
2.493397142328e-03 1.594801441762e-03 0.0 
8.707389974652e-04 1.386382389690e-04 0.0 
6.738537780824e-04 -3.335217851666e-04 0.0 
2.868161085513e-03 3.099515992945e-03 0.0 
1.492264280331e-03 1.422826421244e-04 0.0 
2.948846261881e-03 3.463220853259e-03 0.0 
1.694687878963e-03 1.632453290269e-03 0.0 
2.300718367518e-03 1.272727907411e-03 0.0 
1.435119446459e-03 9.917847380355e-05 0.0 
5.684218744272e-04 -1.652972163713e-04 0.0 
2.934546431525e-03 3.702803092276e-03 0.0 
-4.843161274740e-04 1.271893393930e-03 0.0 
2.205176393726e-03 9.019670128509e-04 0.0 
-2.652060080094e-04 1.862406410815e-03 0.0 
1.371468333928e-04 -5.342759109451e-04 0.0 
5.033028874292e-04 -2.009292306801e-04 0.0 
2.179654465081e-03 1.957344835356e-03 0.0 
2.006346769991e-03 5.618642629554e-03 0.0 
1.913379542588e-03 9.912736378982e-03 0.0 
9.433600850483e-05 2.353493250683e-04 0.0 
-7.223642941787e-04 1.493946759051e-03 0.0 
2.019391503194e-03 9.980560958166e-03 0.0 
1.335777827080e-03 6.166182944371e-05 0.0 
3.896709743844e-04 -2.390866379744e-04 0.0 
2.604162978480e-03 8.077579387520e-03 0.0 
1.114777783803e-03 -5.556309176616e-05 0.0 
1.143760590520e-03 -1.600416070434e-05 0.0 
2.777492226046e-03 2.232055144993e-03 0.0 
2.082834731099e-03 8.177698751811e-04 0.0 
1.796980181745e-03 2.151652496794e-03 0.0 
3.002082929648e-04 1.054353166893e-03 0.0 
5.088895043691e-04 -2.491887875694e-04 0.0 
3.635171191274e-04 -2.174127858011e-04 0.0 
4.164452152068e-04 -4.443801553453e-04 0.0 
2.030368133320e-03 8.430690369953e-03 0.0 
2.108766383969e-03 5.547089920382e-03 0.0 
3.557002306430e-05 -1.009565213985e-04 0.0 
6.367466340014e-05 -5.504979152447e-04 0.0 
-3.097824478056e-04 3.678025570617e-04 0.0 
2.756665793805e-04 -4.904588624957e-04 0.0 
3.191331571222e-04 -2.213699349866e-04 0.0 
1.420478293643e-03 2.052625982113e-04 0.0 
1.081189905615e-03 -3.599586199903e-05 0.0 
1.086600335812e-03 1.883562742779e-04 0.0 
4.247911645971e-04 -1.866173534125e-04 0.0 
2.169091982351e-03 4.471439833036e-03 0.0 
2.921620263809e-04 -1.997218621865e-04 0.0 
1.497832611317e-03 2.968749076436e-04 0.0 
2.764940548123e-03 2.956557313585e-03 0.0 
1.228015904989e-03 7.894904875189e-03 0.0 
1.857962611128e-03 7.814087134643e-04 0.0 
2.496708537949e-04 -2.030118955537e-04 0.0 
3.794197661063e-04 -1.916904703496e-04 0.0 
1.501949050225e-03 9.273611938429e-03 0.0 
1.364653988466e-03 9.605273761158e-05 0.0 
2.217884079041e-04 -1.816412000352e-04 0.0 
4.685470459070e-05 5.827501927234e-03 0.0 
5.172705401852e-05 6.796053322396e-03 0.0 
1.747261192328e-03 9.700908599705e-03 0.0 
3.485830964349e-04 -1.708642107923e-04 0.0 
9.080291258997e-04 -1.960320581034e-04 0.0 
9.537729127430e-05 2.091871389061e-03 0.0 
1.147260608832e-03 4.254468418282e-04 0.0 
2.855807909197e-04 -4.617101155633e-04 0.0 
9.334286264620e-04 -2.017749228485e-04 0.0 
2.285978814289e-03 1.006546155829e-03 0.0 
1.838290553521e-03 1.029793685169e-02 0.0 
1.806647494867e-04 -1.844219108554e-04 0.0 
2.526399879962e-05 -4.746187367701e-04 0.0 
2.006659477891e-03 8.023928629712e-03 0.0 
3.057093187148e-04 -1.749384534437e-04 0.0 
1.258291545626e-03 -1.471227454360e-05 0.0 
5.324142801674e-04 -2.213509912514e-04 0.0 
-3.739496914819e-04 9.937377281881e-04 0.0 
5.868065008834e-05 2.988162229373e-03 0.0 
1.150345618609e-03 -8.219507050729e-05 0.0 
1.059142029519e-03 2.474388644837e-04 0.0 
2.438305088577e-03 1.445631766575e-03 0.0 
2.753289566039e-04 -1.543971466844e-04 0.0 
2.338992183793e-04 -1.578098599087e-04 0.0 
1.315128505086e-03 1.562201431798e-04 0.0 
1.544258422092e-04 -4.355074054606e-04 0.0 
-3.716253811168e-04 1.157559118673e-03 0.0 
2.038141201155e-04 -1.376501521274e-04 0.0 
9.197538135779e-04 1.630630888725e-04 0.0 
7.513492012398e-04 -3.027328993603e-04 0.0 
2.649794958136e-03 2.616625947022e-03 0.0 
2.175952036081e-03 6.652162723546e-03 0.0 
2.618209482812e-03 2.958677661673e-03 0.0 
3.093097564211e-04 4.309500617055e-05 0.0 
-5.851532974236e-04 4.635027681934e-04 0.0 
8.606255520790e-06 2.602579116732e-04 0.0 
7.316089647533e-06 2.740090390561e-07 0.0 
3.239922724934e-05 8.333360731612e-03 0.0 
9.574836715051e-04 -2.038767509251e-04 0.0 
2.618226185659e-03 1.804403737717e-03 0.0 
1.460359786278e-03 3.438283038485e-04 0.0 
1.235474514412e-04 -5.378046438413e-04 0.0 
-6.344967408706e-04 1.576422102181e-03 0.0 
2.465573069249e-04 2.150099124335e-03 0.0 
2.199582092135e-03 4.957878622699e-03 0.0 
1.935913054108e-03 8.948686841072e-03 0.0 
3.671848297973e-04 1.909180012745e-04 0.0 
2.175183525819e-05 -5.011634911166e-04 0.0 
3.406003609616e-04 1.606760604872e-04 0.0 
2.101656837604e-03 5.048120205762e-03 0.0 
7.831524151380e-04 -2.841149887218e-04 0.0 
2.669443581932e-03 1.836414984801e-03 0.0 
8.910329762291e-04 -2.382095165837e-04 0.0 
3.208150845006e-04 2.540062460797e-03 0.0 
7.688720804264e-04 -2.990854582427e-04 0.0 
2.203512326679e-03 3.908453132680e-03 0.0 
9.784793394308e-05 -3.386943077241e-05 0.0 
1.072643636182e-03 -1.213654509224e-04 0.0 
2.493530252303e-03 2.603698755239e-03 0.0 
-4.838437053006e-04 3.390352886344e-04 0.0 
1.274017491135e-03 5.083817704509e-05 0.0 
1.780899068766e-03 3.712237074415e-03 0.0 
6.186850750181e-04 -3.612173535063e-04 0.0 
6.354037372342e-04 -3.569527926539e-04 0.0 
2.603493397960e-03 1.652697846475e-03 0.0 
3.486223807816e-04 -1.946899930487e-04 0.0 
7.632607687729e-04 7.488518757054e-03 0.0 
1.148936746795e-03 8.617730665688e-03 0.0 
5.489664309846e-04 -3.960156949317e-04 0.0 
1.261029412162e-03 1.917230325195e-05 0.0 
2.405036201630e-03 1.243407963089e-03 0.0 
2.509609235894e-03 2.453470207979e-03 0.0 
1.157911337263e-03 1.477523215830e-03 0.0 
1.426067558115e-03 9.922130173045e-03 0.0 
8.691409918550e-05 4.823624495551e-03 0.0 
1.274952727214e-03 1.029252049870e-03 0.0 
1.338584677052e-03 2.901178765521e-04 0.0 
-2.988881441433e-04 2.115125837355e-03 0.0 
2.411683212533e-03 6.704234634935e-03 0.0 
1.156413070521e-03 -5.420204439153e-05 0.0 
2.388294329140e-03 3.030390964745e-03 0.0 
1.228028033682e-03 -1.749897467089e-05 0.0 
-1.190361788708e-06 9.670477061275e-04 0.0 
1.226966864685e-03 5.063972379365e-05 0.0 
6.095775641452e-04 3.100605554666e-03 0.0 
2.310246532891e-03 1.079587690099e-03 0.0 
1.213415882338e-03 1.718324936365e-05 0.0 
2.497183947937e-03 1.471516924204e-03 0.0 
3.303764625434e-04 6.019070422673e-03 0.0 
5.077940721250e-04 -4.109425315654e-04 0.0 
-7.605853926068e-05 1.729271594243e-03 0.0 
1.162355914778e-03 4.883863522428e-05 0.0 
9.461802353358e-04 3.806053297286e-03 0.0 
-3.360704099332e-04 4.745702497376e-04 0.0 
2.181421572472e-05 1.954649519833e-03 0.0 
2.946832398177e-05 2.916847893337e-03 0.0 
3.256566941051e-05 -4.450083663393e-04 0.0 
1.155064857261e-03 7.783815519223e-05 0.0 
3.476045829121e-04 -4.710837066617e-04 0.0 
3.670626063889e-04 -4.632886503840e-04 0.0 
2.161842290337e-03 2.070556673248e-03 0.0 
2.428039966684e-03 1.319577467396e-03 0.0 
2.359268539680e-03 2.137037721678e-03 0.0 
1.204407018773e-03 -1.381934809504e-05 0.0 
5.983835138527e-04 9.662612545341e-03 0.0 
2.178881907552e-04 2.630219665513e-05 0.0 
3.000423029993e-04 -4.863956665077e-04 0.0 
1.210832484771e-03 2.871554293513e-04 0.0 
2.442985933184e-03 1.279579484179e-03 0.0 
6.873143955088e-05 -5.251948182376e-04 0.0 
2.433233033608e-03 3.569236650280e-03 0.0 
1.441871135370e-03 1.714533825725e-04 0.0 
9.014862299753e-05 -3.723126202980e-04 0.0 
1.142686498932e-03 3.210607160149e-05 0.0 
1.893609387202e-05 -1.202082031429e-04 0.0 
2.285642629048e-03 3.806286089632e-03 0.0 
2.460093324498e-04 -4.565409135552e-04 0.0 
7.433636194609e-05 -2.439435365440e-04 0.0 
2.295765100584e-03 2.526946569345e-03 0.0 
1.737630954942e-03 7.447872653429e-04 0.0 
6.541115743541e-04 -3.517393698257e-04 0.0 
5.152432949469e-05 -4.727620902462e-04 0.0 
2.373747354831e-03 1.149452534375e-03 0.0 
2.462271847807e-05 6.333685485528e-03 0.0 
6.332425726477e-05 -2.962469062233e-04 0.0 
9.198091779767e-04 6.437165675266e-04 0.0 
6.414041354407e-04 9.233568982944e-04 0.0 
1.126963644591e-04 7.680191588992e-03 0.0 
4.232381019168e-04 1.451220536812e-03 0.0 
6.920772537955e-04 7.819317368648e-04 0.0 
1.219395186053e-03 -2.987955194486e-05 0.0 
1.009937006488e-03 -1.656702494935e-04 0.0 
5.871564045811e-04 1.623629708901e-04 0.0 
-5.699702337990e-04 5.822706583417e-04 0.0 
1.160841757325e-05 -4.887451140640e-04 0.0 
5.509619787320e-05 -2.261752148200e-04 0.0 
6.078264624091e-04 -3.709316025570e-04 0.0 
9.639578383998e-04 -1.493556098571e-04 0.0 
3.410378517113e-04 4.863842198297e-03 0.0 
5.481269072929e-04 6.078106826964e-03 0.0 
1.053134927690e-03 7.845875263379e-03 0.0 
1.245884849481e-03 7.719636697448e-05 0.0 
1.393908813484e-04 -4.633308275556e-04 0.0 
2.034858096926e-03 1.064000041846e-03 0.0 
7.397159158120e-05 7.979572693197e-06 0.0 
9.694422711493e-05 1.153521792235e-05 0.0 
1.019703382444e-03 -1.685497583110e-04 0.0 
1.346280070595e-03 8.413020330822e-03 0.0 
-3.733569569132e-04 3.094183299198e-04 0.0 
-2.197304704537e-04 3.265551482663e-03 0.0 
2.806628645412e-04 -1.532075652323e-04 0.0 
3.028881110897e-05 3.970345160200e-03 0.0 
2.374594497868e-03 1.168947036300e-03 0.0 
8.022780957832e-04 -2.720469707662e-04 0.0 
1.052063968655e-03 -1.107936760311e-04 0.0 
-6.915456426523e-05 2.163478123985e-05 0.0 
6.722517597559e-05 2.639333868079e-03 0.0 
8.767443071417e-04 -2.389871973245e-04 0.0 
2.138310467439e-04 2.101415270442e-03 0.0 
1.779162748934e-04 3.504538343775e-03 0.0 
2.582734460827e-05 5.748880131161e-04 0.0 
1.643453997924e-05 5.727423302048e-07 0.0 
5.950356278979e-05 7.788859365948e-03 0.0 
8.340896440571e-04 -2.676218489078e-04 0.0 
6.570959365043e-04 8.565823192910e-03 0.0 
8.394863876494e-04 -2.611547149953e-04 0.0 
2.800044474337e-05 2.560864985617e-06 0.0 
-4.883973849643e-04 2.254954409539e-03 0.0 
-3.816754252166e-04 2.707979149913e-03 0.0 
1.159407753429e-03 3.161060364283e-04 0.0 
1.006139949592e-03 8.735773258882e-03 0.0 
1.279003178735e-04 2.012279922915e-03 0.0 
2.325377381345e-03 2.400478106829e-03 0.0 
1.430692321752e-03 6.305447626434e-04 0.0 
1.954853279604e-03 2.532481624926e-03 0.0 
3.833928121324e-04 7.460413803930e-03 0.0 
5.293617132063e-04 -4.025687402559e-04 0.0 
5.695139075109e-04 -3.826980707096e-04 0.0 
1.086693748213e-04 5.307048808185e-03 0.0 
1.647321190514e-03 7.672656264638e-04 0.0 
1.704437775983e-03 9.012430389513e-03 0.0 
2.061690903684e-04 8.762407284626e-03 0.0 
2.461420993193e-04 7.906349209387e-03 0.0 
4.404318652354e-04 7.578401441980e-03 0.0 
1.653160254433e-04 6.349756929152e-05 0.0 
4.686727122075e-04 -4.248308634171e-04 0.0 
1.906283179794e-04 1.283374518067e-03 0.0 
4.245958790000e-04 6.541964615814e-03 0.0 
5.065224142763e-04 1.798013896456e-04 0.0 
1.256051416978e-03 1.519980386583e-03 0.0 
2.493818454422e-03 3.432984579290e-03 0.0 
6.253464088234e-04 2.002894859328e-03 0.0 
2.323764360076e-04 -3.655946227787e-04 0.0 
2.181749382592e-04 -4.056016285978e-04 0.0 
3.751430707938e-04 3.741967115118e-05 0.0 
-1.865396926189e-04 2.912244740333e-05 0.0 
6.165626062938e-05 -4.844479391504e-04 0.0 
1.746583755961e-04 8.613855559976e-05 0.0 
1.365329823049e-05 -5.391752796294e-04 0.0 
2.542284642915e-04 8.471111970042e-03 0.0 
7.538646719450e-04 1.696761364759e-04 0.0 
9.802887372846e-05 -5.142249653459e-04 0.0 
6.650959600865e-05 -5.464008943328e-04 0.0 
1.178399548949e-04 4.942086880645e-04 0.0 
8.780530035597e-04 9.387469220696e-03 0.0 
2.840593619203e-04 1.386246939457e-03 0.0 
7.657248486328e-04 2.064308753948e-04 0.0 
7.630438557972e-04 9.393648843131e-03 0.0 
-4.490228977611e-04 5.796259315156e-04 0.0 
4.491833278875e-05 1.077499007297e-03 0.0 
1.272072034423e-04 -5.353825264947e-04 0.0 
3.151036887778e-04 1.811071137857e-03 0.0 
2.191542421357e-05 1.716956633401e-06 0.0 
1.060796413619e-03 1.565729676902e-03 0.0 
3.791838821940e-04 4.176803903582e-05 0.0 
1.510528469522e-03 7.723460422270e-03 0.0 
1.404307573353e-04 -3.676437706446e-04 0.0 
1.979639147841e-03 9.658650961487e-04 0.0 
2.689167322062e-04 9.762278174287e-05 0.0 
1.037174688265e-04 4.331944002326e-03 0.0 
2.548072788937e-04 8.362364338633e-05 0.0 
-6.160731832050e-05 1.075823610101e-04 0.0 
1.326399552087e-04 7.099564844017e-06 0.0 
4.655360571745e-04 -9.787725487629e-05 0.0 
6.195806986738e-05 -5.391957026028e-04 0.0 
4.174279665300e-04 8.449779055764e-05 0.0 
5.141813243470e-04 1.179559625579e-03 0.0 
2.576520395786e-04 9.710107476772e-04 0.0 
5.722306008797e-04 8.659558663556e-03 0.0 
1.918959545087e-03 7.115654160523e-03 0.0 
3.159454006914e-04 2.223827027668e-03 0.0 
8.163323873385e-04 8.863470591159e-04 0.0 
1.091401615135e-04 -4.221964156136e-04 0.0 
-1.639430643700e-04 1.241602030917e-03 0.0 
1.795703557050e-03 8.270470256879e-04 0.0 
4.747546730225e-04 9.666093357190e-03 0.0 
6.913952672396e-04 1.620350401232e-03 0.0 
3.626140484640e-06 5.462416262829e-04 0.0 
3.626140484640e-06 2.305235485328e-04 0.0 
8.096493875353e-06 -5.643683494760e-04 0.0 
3.566999843790e-06 -5.622866159197e-04 0.0 
2.545532827088e-05 9.298536123280e-03 0.0 
6.079510614592e-05 9.636141136314e-03 0.0 
2.836630714679e-06 4.546185490464e-08 0.0 
2.836630714679e-06 -5.857371938611e-07 0.0 
1.653026383426e-05 -5.589935189948e-04 0.0 
-3.903874584173e-04 1.367722679682e-04 0.0 
1.318069912788e-04 -5.316608298261e-06 0.0 
1.357807517323e-03 7.703744434592e-04 0.0 
1.213504198846e-04 -5.309998453862e-04 0.0 
2.217903192465e-04 1.031234766618e-05 0.0 
3.279750151864e-05 -1.874403260085e-04 0.0 
3.364821798726e-05 -2.767181389589e-04 0.0 
2.878005077033e-04 6.157801014588e-03 0.0 
2.538207320772e-04 -2.749803627274e-04 0.0 
2.240267909768e-03 1.149477166601e-03 0.0 
1.077363321876e-04 -5.406667792380e-04 0.0 
1.985336165212e-04 -3.193105021872e-04 0.0 
1.087978665669e-03 1.217843287177e-03 0.0 
1.261688830584e-05 2.415523817973e-03 0.0 
6.503533174919e-05 -2.710774412187e-04 0.0 
1.860993878901e-04 7.141611253808e-03 0.0 
1.359625725555e-03 9.477193453414e-04 0.0 
1.848812414189e-03 2.098463390817e-03 0.0 
2.210565455907e-03 2.755781451794e-03 0.0 
6.529156194779e-04 9.352328379276e-03 0.0 
2.236906700082e-03 1.044706720356e-03 0.0 
8.614918765297e-04 1.627499856659e-03 0.0 
8.909849284927e-05 -4.811376233459e-04 0.0 
2.448130450088e-05 -4.632378541326e-04 0.0 
1.602833104960e-03 1.174762930280e-03 0.0 
1.263779781229e-03 3.264299796137e-04 0.0 
1.784039393757e-04 -2.601960651576e-04 0.0 
1.505086319217e-04 5.412362825732e-03 0.0 
7.261157330714e-05 1.221504697099e-06 0.0 
1.595331603671e-03 1.018805178021e-03 0.0 
1.352238895950e-03 8.506950420814e-04 0.0 
3.958664570164e-05 -1.440613551044e-04 0.0 
-4.914381737637e-04 9.699533875234e-04 0.0 
2.790604393005e-04 5.691066411991e-03 0.0 
9.079008926505e-04 3.308788753668e-03 0.0 
1.594238909634e-03 7.381713525254e-03 0.0 
2.308710649575e-03 1.170441568957e-03 0.0 
2.448937865170e-04 1.754870746487e-03 0.0 
5.151526061335e-04 1.518445584379e-04 0.0 
4.011673427030e-05 -3.335903195729e-04 0.0 
7.569421805006e-05 -4.477210151073e-04 0.0 
-2.472859663597e-04 3.688974377088e-03 0.0 
2.476112815922e-04 4.967438506645e-03 0.0 
1.625018329290e-04 -4.451704925762e-04 0.0 
5.842864501365e-04 1.609482260940e-03 0.0 
7.275805541938e-05 -5.322924469295e-04 0.0 
8.836353325173e-04 2.614156705009e-04 0.0 
9.742900828265e-04 7.772160149598e-03 0.0 
6.541691167449e-04 2.864435533529e-04 0.0 
1.893063256074e-03 9.949999264760e-04 0.0 
1.754018851510e-03 7.287826230694e-03 0.0 
3.395993048693e-04 5.453249812976e-05 0.0 
4.513084913798e-04 1.172135724834e-03 0.0 
3.689457112015e-05 1.261527485290e-03 0.0 
-5.369174201701e-04 2.543544881625e-03 0.0 
5.703078712792e-04 1.967712596618e-03 0.0 
7.588490456741e-04 5.494785870400e-04 0.0 
8.935863532896e-04 2.484898685251e-04 0.0 
1.689461940452e-03 8.370835815543e-04 0.0 
3.946992417780e-05 4.388944874246e-06 0.0 
2.155960458148e-03 2.855152511690e-03 0.0 
-7.270214383832e-04 1.118828672542e-03 0.0 
-5.892375328624e-05 1.511322812698e-03 0.0 
1.572278400871e-03 1.845579786688e-03 0.0 
1.462213801899e-03 6.805653421886e-03 0.0 
6.857120461739e-05 -1.258705461237e-05 0.0 
1.500756264538e-03 7.463956177801e-04 0.0 
1.390700132710e-04 1.252685745403e-05 0.0 
2.166331518055e-04 3.978230158293e-03 0.0 
6.025143092217e-04 2.402973736585e-04 0.0 
4.185590520703e-04 5.410500354546e-05 0.0 
4.440574373488e-04 6.349692263826e-05 0.0 
1.196188487139e-04 -4.363050594821e-04 0.0 
6.250211214677e-05 6.151492804567e-06 0.0 
1.274111459104e-03 8.767555714608e-03 0.0 
1.550859484824e-04 2.038834874378e-03 0.0 
1.017482347264e-04 -4.275126211867e-04 0.0 
1.005802084514e-04 2.831054797805e-03 0.0 
2.269937271114e-04 5.365419849066e-03 0.0 
1.033624175453e-05 -5.505755123326e-04 0.0 
2.747435973443e-04 1.011927352825e-04 0.0 
2.061290509806e-03 2.379921459052e-03 0.0 
2.069002909026e-04 1.046763492876e-03 0.0 
7.831940944068e-05 1.945691913575e-03 0.0 
7.682255463731e-04 2.971988449695e-04 0.0 
4.634805291782e-04 7.063639530118e-03 0.0 
5.854592760498e-05 -5.197444313038e-04 0.0 
-2.729962794878e-04 6.628574843581e-04 0.0 
7.782921571647e-05 -5.274946597089e-04 0.0 
1.538763901745e-04 -4.590888683370e-04 0.0 
-7.832729640017e-04 1.264404950988e-03 0.0 
1.766208387531e-04 -3.361253242700e-04 0.0 
8.626817028162e-05 -1.152366705693e-05 0.0 
1.038412225556e-03 1.640593532696e-03 0.0 
1.865317434581e-03 6.639372618552e-03 0.0 
2.456039931054e-04 -3.856410132263e-04 0.0 
3.629076274943e-04 3.046019404551e-05 0.0 
7.047253069321e-04 1.388266171705e-04 0.0 
7.929082512690e-04 3.649640420713e-04 0.0 
1.200024520632e-03 8.651462383446e-04 0.0 
1.664148203011e-03 1.757693140134e-03 0.0 
1.071453284298e-04 -4.654051769498e-04 0.0 
-1.697330032616e-04 1.901509731328e-04 0.0 
1.208211529057e-04 -8.343630378596e-06 0.0 
2.157381391275e-05 -5.487176102654e-04 0.0 
4.927526643007e-06 -5.453400216558e-04 0.0 
-4.985896668124e-04 1.456008736079e-03 0.0 
1.011270813385e-04 -5.241982071138e-04 0.0 
2.553289348560e-04 4.061375957701e-05 0.0 
7.062377025611e-04 6.342382487996e-04 0.0 
2.190204979145e-04 1.751659645317e-03 0.0 
6.380197252925e-04 3.044387516225e-04 0.0 
8.445361210740e-04 1.643048027437e-04 0.0 
3.742359979298e-04 6.510122827773e-03 0.0 
5.383919576116e-05 2.061762489139e-04 0.0 
4.476789803670e-04 -1.666659529337e-04 0.0 
8.214181456598e-04 9.710743828942e-03 0.0 
1.325162949087e-04 -3.003270425762e-04 0.0 
7.247959563993e-05 -5.490522028536e-04 0.0 
4.230569405719e-05 2.908974510096e-06 0.0 
1.733807138498e-03 8.420011584694e-03 0.0 
6.758850897825e-05 -5.429147013640e-04 0.0 
1.235543562575e-04 -3.479818811127e-04 0.0 
8.153505497422e-04 7.877698089673e-04 0.0 
3.534380813407e-04 1.858702427660e-03 0.0 
4.370647795882e-04 9.124080356446e-04 0.0 
6.978298793841e-05 -4.563398508744e-04 0.0 
-2.246348023486e-04 5.194443951800e-04 0.0 
1.854419398133e-04 1.518384425079e-05 0.0 
1.223239600543e-05 4.907814602060e-04 0.0 
1.015272036221e-05 3.194708939607e-07 0.0 
5.785455552023e-05 8.760566957957e-03 0.0 
6.384845444178e-04 1.378138415853e-04 0.0 
8.363743570588e-05 -5.391692313543e-04 0.0 
5.436317336885e-04 1.619453763119e-03 0.0 
7.370466308542e-05 -5.428298070725e-04 0.0 
3.125139085993e-04 6.241289016919e-05 0.0 
5.813505676958e-04 1.179026584924e-03 0.0 
-4.143357031641e-04 7.059311156295e-04 0.0 
1.597943812035e-03 9.599659651148e-04 0.0 
2.138154934163e-04 4.449268399189e-03 0.0 
1.358022559584e-04 9.936225253720e-04 0.0 
1.077804769007e-04 3.704757353129e-05 0.0 
8.915570625329e-05 5.810525973376e-03 0.0 
6.610109697539e-04 6.624177148451e-04 0.0 
7.417785851776e-04 1.614850081271e-03 0.0 
1.775926844993e-04 5.108984138758e-03 0.0 
1.068098924415e-03 1.070637290686e-03 0.0 
1.326847509493e-04 -4.047309948138e-04 0.0 
4.154658090728e-04 9.369007693615e-03 0.0 
1.092096030720e-03 5.537447253268e-04 0.0 
1.282346790351e-05 1.044900205720e-03 0.0 
1.565104275430e-05 -5.626257939408e-04 0.0 
1.129791143894e-04 9.351478038916e-03 0.0 
9.142247084636e-06 -2.248116272582e-06 0.0 
1.375106168801e-04 -5.291536946903e-04 0.0 
8.212985685640e-04 2.061011660104e-04 0.0 
9.353057182901e-04 1.670307461785e-03 0.0 
1.589433234212e-04 1.290060678009e-03 0.0 
8.802723420024e-05 -5.322300585826e-04 0.0 
-2.406430786926e-04 1.153264613654e-03 0.0 
1.384325323481e-05 -2.536893859678e-04 0.0 
8.509911753610e-05 3.454561805265e-03 0.0 
-4.916147633921e-04 2.414701726419e-04 0.0 
3.352658811963e-04 9.139502535789e-04 0.0 
1.607150266544e-04 6.000275470281e-03 0.0 
2.483381278738e-04 -3.213227310318e-04 0.0 
3.031012065127e-04 6.717177619700e-03 0.0 
8.336423425611e-04 4.244797282068e-04 0.0 
2.599020292383e-05 -2.302803665037e-04 0.0 
-6.953231888798e-04 1.337208020790e-03 0.0 
1.519133740706e-04 -4.312566480699e-04 0.0 
1.797842296006e-04 -2.969949126401e-04 0.0 
1.214694968903e-05 -2.075361934972e-04 0.0 
1.012278161975e-03 4.059942894314e-04 0.0 
9.292748179747e-05 -3.070471091024e-04 0.0 
1.198584923605e-04 -2.777092980153e-04 0.0 
9.617094477979e-05 -5.371054973708e-04 0.0 
2.393696028879e-04 1.375263522839e-05 0.0 
1.605599855220e-03 1.252038423010e-03 0.0 
-1.452313174499e-06 1.134702284800e-03 0.0 
2.142972342430e-05 9.894400396427e-04 0.0 
1.645833673217e-05 -1.342908184760e-06 0.0 
1.100385637637e-04 8.812838540345e-03 0.0 
1.212665019195e-04 6.215341461117e-03 0.0 
1.280176862377e-04 -3.117867155049e-04 0.0 
1.433665477912e-04 -2.955335239693e-04 0.0 
8.777933118445e-05 -2.845777251671e-04 0.0 
1.023933810528e-03 2.729515907218e-04 0.0 
1.777541660343e-04 -3.344040409006e-04 0.0 
1.361478194592e-03 1.051261909318e-03 0.0 
1.990915188220e-04 7.700127949868e-03 0.0 
4.040068612446e-04 1.197606473336e-03 0.0 
9.766153830744e-04 2.435589690397e-04 0.0 
3.560815950050e-04 6.913810104027e-03 0.0 
1.419997059346e-03 1.560286661815e-03 0.0 
1.017433596590e-03 4.305144617521e-04 0.0 
7.709249554888e-04 3.263860114955e-04 0.0 
-5.931820962333e-04 1.235568021772e-03 0.0 
1.460034629042e-03 1.525589121238e-03 0.0 
1.247782603682e-03 1.231092724607e-03 0.0 
9.081820209229e-05 -5.418570383872e-04 0.0 
1.425225902790e-04 -3.300629262585e-04 0.0 
-5.979798321578e-04 1.097449405850e-03 0.0 
1.185405622758e-03 1.276781424624e-03 0.0 
2.063293509079e-04 1.462835298375e-02 0.0 
2.335305878894e-04 1.428904545128e-02 0.0 
3.247774439086e-04 1.463528741460e-02 0.0 
3.481534870900e-04 1.429958851469e-02 0.0 
4.333800917167e-04 1.464388232351e-02 0.0 
4.605613768251e-04 1.430722727734e-02 0.0 
5.426960522605e-04 1.465021345496e-02 0.0 
5.699764383658e-04 1.431384098831e-02 0.0 
6.493433531777e-04 1.465552495280e-02 0.0 
6.748194134835e-04 1.431949060291e-02 0.0 
7.504861646615e-04 1.465899298658e-02 0.0 
7.732738414068e-04 1.432297474145e-02 0.0 
8.437063806312e-04 1.465896694062e-02 0.0 
8.634257799864e-04 1.432244004780e-02 0.0 
9.267191627808e-04 1.465331860193e-02 0.0 
9.432776316606e-04 1.431554499674e-02 0.0 
9.971485341152e-04 1.463939120125e-02 0.0 
4.059131604254e-04 1.079059626402e-02 0.0 
1.010679664015e-03 1.429930680377e-02 0.0 
1.052406860697e-03 1.461380456664e-02 0.0 
6.083087219038e-04 1.102781158174e-02 0.0 
1.063356251276e-03 1.426993516897e-02 0.0 
1.089711600175e-03 1.457227482123e-02 0.0 
1.098952743368e-03 1.422260362081e-02 0.0 
1.106138179028e-03 1.450938810970e-02 0.0 
1.115123540979e-03 1.415126903093e-02 0.0 
-7.668610386981e-05 1.092195704337e-02 0.0 
1.098613645414e-03 1.441857800534e-02 0.0 
1.109626632290e-03 1.404852666727e-02 0.0 
1.063904478490e-03 1.429141473747e-02 0.0 
1.080500652622e-03 1.390450549250e-02 0.0 
9.989800386334e-04 1.411710277199e-02 0.0 
1.026855507713e-03 1.370659764867e-02 0.0 
9.019046596423e-04 1.388081379926e-02 0.0 
9.496508119058e-04 1.343715627133e-02 0.0 
7.730673548133e-04 1.356447608065e-02 0.0 
8.537360204099e-04 1.307478936613e-02 0.0 
6.757803704201e-04 1.005020172235e-02 0.0 
7.492371628895e-04 1.258742427979e-02 0.0 
6.168495996491e-04 1.314200066927e-02 0.0 
6.531337670629e-04 1.193383304580e-02 0.0 
4.459024718065e-04 1.258115864873e-02 0.0 
2.843384551415e-04 1.182806243581e-02 0.0 
1.931811061249e-04 1.018156250169e-02 0.0 
2.627358103326e-05 1.445448467181e-02 0.0 
1.303109853223e-04 1.445492005408e-02 0.0 
7.095057483108e-05 1.410937008682e-02 0.0 
8.563399152448e-05 1.480003463907e-02 0.0 
1.301412797552e-04 9.462048175808e-03 0.0 
1.599225619226e-04 1.326651023712e-02 0.0 
2.080731619349e-04 1.361001045074e-02 0.0 
2.778799950790e-04 1.327739248323e-02 0.0 
3.267134642148e-04 1.362072858386e-02 0.0 
3.910936096235e-04 1.328733848655e-02 0.0 
4.397149176070e-04 1.362954337121e-02 0.0 
5.001335372772e-04 1.329619871295e-02 0.0 
5.482603826006e-04 1.363751015243e-02 0.0 
6.050136519336e-04 1.330446845282e-02 0.0 
6.522057680045e-04 1.364476493880e-02 0.0 
7.052441111799e-04 1.331153816184e-02 0.0 
7.506454334042e-04 1.365024558082e-02 0.0 
7.999712813788e-04 1.331598158061e-02 0.0 
8.423190887366e-04 1.365218384843e-02 0.0 
8.881544414631e-04 1.331578045969e-02 0.0 
9.258196015925e-04 1.364826305387e-02 0.0 
1.273773938196e-03 1.123587985154e-02 0.0 
9.686851502477e-04 1.330831006435e-02 0.0 
9.996743102152e-04 1.363550760975e-02 0.0 
1.048060624638e-03 1.144040167983e-02 0.0 
1.040483236564e-03 1.329018286356e-02 0.0 
1.062437980942e-03 1.361011265991e-02 0.0 
1.357575315956e-03 1.131143396589e-02 0.0 
1.102611325659e-03 1.325709265842e-02 0.0 
1.112770739186e-03 1.356724396706e-02 0.0 
1.154365456962e-03 1.320359737175e-02 0.0 
1.149532823095e-03 1.350083794673e-02 0.0 
1.195445717329e-03 1.312286755650e-02 0.0 
1.172049422089e-03 1.340324730263e-02 0.0 
1.422959414151e-03 1.072466462809e-02 0.0 
1.226277178553e-03 1.300602678952e-02 0.0 
1.180450562886e-03 1.326439690919e-02 0.0 
1.248493866108e-03 1.284150792227e-02 0.0 
1.176419424924e-03 1.307111138226e-02 0.0 
1.163642436018e-03 1.280563422463e-02 0.0 
1.265460200966e-03 1.261380548614e-02 0.0 
1.149816008063e-03 1.244498658066e-02 0.0 
1.283138966579e-03 1.230315124848e-02 0.0 
1.144860254933e-03 1.195747794779e-02 0.0 
1.308552679346e-03 1.188225155180e-02 0.0 
1.197246100593e-03 1.092918645638e-02 0.0 
2.049383712338e-05 1.342700507228e-02 0.0 
1.035818783815e-04 1.343124108820e-02 0.0 
6.517083092120e-05 1.376849886703e-02 0.0 
5.890488458373e-05 1.308974729345e-02 0.0 
1.126289509780e-03 1.062236696828e-02 0.0 
1.525456309302e-04 1.258854803592e-02 0.0 
1.891741249447e-04 1.225319092357e-02 0.0 
2.663578890811e-04 1.259853515726e-02 0.0 
3.020274545212e-04 1.226367477967e-02 0.0 
3.779297059278e-04 1.260914200834e-02 0.0 
4.127871558599e-04 1.227438571674e-02 0.0 
4.863696792259e-04 1.261923753669e-02 0.0 
5.208258362748e-04 1.228484481492e-02 0.0 
5.913429636592e-04 1.262876429157e-02 0.0 
6.258748711984e-04 1.229463788158e-02 0.0 
6.925839026482e-04 1.263711526587e-02 0.0 
7.276520928102e-04 1.230281624165e-02 0.0 
7.896381493165e-04 1.264297513741e-02 0.0 
8.258284603364e-04 1.230775637277e-02 0.0 
8.819969451251e-04 1.264435942723e-02 0.0 
1.657265139943e-03 1.112584697564e-02 0.0 
9.200670697219e-04 1.230719846322e-02 0.0 
1.680104140424e-03 1.110479127488e-02 0.0 
9.690901147150e-04 1.263866650616e-02 0.0 
1.010057621635e-03 1.229810078310e-02 0.0 
1.050461583517e-03 1.262241959510e-02 0.0 
1.095729988813e-03 1.227645501816e-02 0.0 
1.125924986578e-03 1.259119828513e-02 0.0 
1.177350872695e-03 1.223720829784e-02 0.0 
1.536104206025e-03 1.137486495910e-02 0.0 
1.195631929553e-03 1.253945607582e-02 0.0 
1.255629121862e-03 1.217397020040e-02 0.0 
1.260275543506e-03 1.246014110610e-02 0.0 
1.331970425604e-03 1.207860787406e-02 0.0 
1.321368355892e-03 1.234411381135e-02 0.0 
1.408568639837e-03 1.194014487003e-02 0.0 
1.381520765720e-03 1.217916886128e-02 0.0 
1.489059664907e-03 1.174497434505e-02 0.0 
1.576989430579e-03 1.147480180876e-02 0.0 
1.445073541336e-03 1.195000750993e-02 0.0 
1.771972734514e-03 1.074514665224e-02 0.0 
1.516872620770e-03 1.163611680882e-02 0.0 
1.650811800596e-03 1.099416463570e-02 0.0 
1.853745225914e-05 1.241202216297e-02 0.0 
9.424856252496e-05 1.241504843488e-02 0.0 
5.583751506461e-05 1.207555375652e-02 0.0 
5.694849971949e-05 1.275151684133e-02 0.0 
1.635975334940e-03 1.085550724650e-02 0.0 
1.431701152318e-04 1.123570045761e-02 0.0 
1.829389876659e-04 1.157628361358e-02 0.0 
2.517797146354e-04 1.124430481643e-02 0.0 
2.936844173543e-04 1.158635174883e-02 0.0 
3.603351639854e-04 1.125487294148e-02 0.0 
4.035356510845e-04 1.159743968071e-02 0.0 
4.680987719329e-04 1.126597904416e-02 0.0 
5.118064337572e-04 1.160853235841e-02 0.0 
5.747058035567e-04 1.127677642801e-02 0.0 
6.182571136135e-04 1.161896247453e-02 0.0 
6.801279642408e-04 1.128646846182e-02 0.0 
7.228139119876e-04 1.162784484466e-02 0.0 
7.843807101558e-04 1.129365140024e-02 0.0 
1.780350875009e-03 1.069219327831e-02 0.0 
8.254092019982e-04 1.163340403258e-02 0.0 
8.876604478982e-04 1.129636112290e-02 0.0 
1.718839795109e-03 1.097879663163e-02 0.0 
9.261498308331e-04 1.163355249907e-02 0.0 
9.902229552267e-04 1.129209278601e-02 0.0 
1.766961059880e-03 1.060452878573e-02 0.0 
1.025107701035e-03 1.162517302710e-02 0.0 
1.092411101945e-03 1.127714257427e-02 0.0 
1.122629427841e-03 1.160410575333e-02 0.0 
1.194948303018e-03 1.124692576388e-02 0.0 
1.219474750107e-03 1.156528504141e-02 0.0 
1.880236755334e-03 1.038195932230e-02 0.0 
1.298959399943e-03 1.119580973798e-02 0.0 
1.316832714841e-03 1.150224711899e-02 0.0 
1.416494877361e-03 1.140674744825e-02 0.0 
1.406003588241e-03 1.111655759888e-02 0.0 
1.521025797212e-03 1.126820812198e-02 0.0 
1.518349965024e-03 1.100031663749e-02 0.0 
1.632368534907e-03 1.107270593544e-02 0.0 
1.637286793096e-03 1.083496370362e-02 0.0 
1.818725675434e-03 1.066856267562e-02 0.0 
1.787106313514e-05 1.139963275116e-02 0.0 
9.044179498122e-05 1.140156615632e-02 0.0 
5.517112594061e-05 1.173801174628e-02 0.0 
5.314173217575e-05 1.106318716120e-02 0.0 
1.840106830558e-03 1.063324231881e-02 0.0 
1.412098303014e-04 1.056085251662e-02 0.0 
1.770278726592e-04 1.022550535183e-02 0.0 
2.478288845591e-04 1.056837449566e-02 0.0 
2.843584821563e-04 1.023379344235e-02 0.0 
3.549600588637e-04 1.057824495575e-02 0.0 
3.923064709808e-04 1.024401816809e-02 0.0 
4.622446969509e-04 1.058918551725e-02 0.0 
5.007504318843e-04 1.025492395100e-02 0.0 
5.695038766658e-04 1.059996154751e-02 0.0 
6.096560268060e-04 1.026526501831e-02 0.0 
6.767288043242e-04 1.060958588611e-02 0.0 
7.193549483537e-04 1.027404607149e-02 0.0 
1.748440829342e-03 1.003235315556e-02 0.0 
7.843209064385e-04 1.061673520278e-02 0.0 
1.710581520216e-03 9.900675099739e-03 0.0 
8.301545244080e-04 1.027922515473e-02 0.0 
8.924655740253e-04 1.061909844250e-02 0.0 
9.426889229663e-04 1.027867526856e-02 0.0 
1.001956921233e-03 1.061447823590e-02 0.0 
1.057813499719e-03 1.026945698134e-02 0.0 
1.113382934622e-03 1.059904107863e-02 0.0 
1.176202909045e-03 1.024706119754e-02 0.0 
1.727039354454e-03 1.033802825803e-02 0.0 
1.227549951545e-03 1.056798270373e-02 0.0 
1.299034847266e-03 1.020622949098e-02 0.0 
1.345917848574e-03 1.051569724770e-02 0.0 
1.427838514184e-03 1.014065344411e-02 0.0 
1.564222050360e-03 1.004204484872e-02 0.0 
1.470050938953e-03 1.043507641428e-02 0.0 
1.602029787311e-03 1.031709522256e-02 0.0 
1.833778862159e-03 9.777297654605e-03 0.0 
1.812377387271e-03 1.008297275708e-02 0.0 
1.734766076479e-05 1.038774822751e-02 0.0 
8.795810768043e-05 1.038936947883e-02 0.0 
5.268743863983e-05 1.005127928164e-02 0.0 
5.261832980539e-05 1.072583842470e-02 0.0 
1.857217350886e-03 1.011173105294e-02 0.0 

VECTORS element_materi_displacement float
0.0 0.0 0.0 
0.0 0.0 0.0 
0.0 0.0 0.0 
0.0 0.0 0.0 
0.0 0.0 0.0 
0.0 0.0 0.0 
0.0 0.0 0.0 
0.0 0.0 0.0 
0.0 0.0 0.0 
0.0 0.0 0.0 
0.0 0.0 0.0 
0.0 0.0 0.0 
0.0 0.0 0.0 
0.0 0.0 0.0 
0.0 0.0 0.0 
0.0 0.0 0.0 
0.0 0.0 0.0 
0.0 0.0 0.0 
0.0 0.0 0.0 
0.0 0.0 0.0 
0.0 0.0 0.0 
0.0 0.0 0.0 
0.0 0.0 0.0 
0.0 0.0 0.0 
0.0 0.0 0.0 
0.0 0.0 0.0 
0.0 0.0 0.0 
0.0 0.0 0.0 
0.0 0.0 0.0 
0.0 0.0 0.0 
0.0 0.0 0.0 
0.0 0.0 0.0 
0.0 0.0 0.0 
0.0 0.0 0.0 
0.0 0.0 0.0 
0.0 0.0 0.0 
0.0 0.0 0.0 
0.0 0.0 0.0 
0.0 0.0 0.0 
0.0 0.0 0.0 
0.0 0.0 0.0 
0.0 0.0 0.0 
0.0 0.0 0.0 
0.0 0.0 0.0 
0.0 0.0 0.0 
0.0 0.0 0.0 
0.0 0.0 0.0 
0.0 0.0 0.0 
0.0 0.0 0.0 
0.0 0.0 0.0 
0.0 0.0 0.0 
0.0 0.0 0.0 
0.0 0.0 0.0 
0.0 0.0 0.0 
0.0 0.0 0.0 
0.0 0.0 0.0 
0.0 0.0 0.0 
0.0 0.0 0.0 
0.0 0.0 0.0 
0.0 0.0 0.0 
0.0 0.0 0.0 
0.0 0.0 0.0 
0.0 0.0 0.0 
0.0 0.0 0.0 
0.0 0.0 0.0 
0.0 0.0 0.0 
0.0 0.0 0.0 
0.0 0.0 0.0 
0.0 0.0 0.0 
0.0 0.0 0.0 
0.0 0.0 0.0 
0.0 0.0 0.0 
0.0 0.0 0.0 
0.0 0.0 0.0 
0.0 0.0 0.0 
0.0 0.0 0.0 
0.0 0.0 0.0 
0.0 0.0 0.0 
0.0 0.0 0.0 
0.0 0.0 0.0 
0.0 0.0 0.0 
0.0 0.0 0.0 
0.0 0.0 0.0 
0.0 0.0 0.0 
0.0 0.0 0.0 
0.0 0.0 0.0 
0.0 0.0 0.0 
0.0 0.0 0.0 
0.0 0.0 0.0 
0.0 0.0 0.0 
0.0 0.0 0.0 
0.0 0.0 0.0 
0.0 0.0 0.0 
0.0 0.0 0.0 
0.0 0.0 0.0 
0.0 0.0 0.0 
0.0 0.0 0.0 
0.0 0.0 0.0 
0.0 0.0 0.0 
0.0 0.0 0.0 
0.0 0.0 0.0 
0.0 0.0 0.0 
0.0 0.0 0.0 
0.0 0.0 0.0 
0.0 0.0 0.0 
0.0 0.0 0.0 
0.0 0.0 0.0 
0.0 0.0 0.0 
0.0 0.0 0.0 
0.0 0.0 0.0 
0.0 0.0 0.0 
0.0 0.0 0.0 
0.0 0.0 0.0 
0.0 0.0 0.0 
0.0 0.0 0.0 
0.0 0.0 0.0 
0.0 0.0 0.0 
0.0 0.0 0.0 
0.0 0.0 0.0 
0.0 0.0 0.0 
0.0 0.0 0.0 
0.0 0.0 0.0 
0.0 0.0 0.0 
0.0 0.0 0.0 
0.0 0.0 0.0 
0.0 0.0 0.0 
0.0 0.0 0.0 
0.0 0.0 0.0 
0.0 0.0 0.0 
0.0 0.0 0.0 
0.0 0.0 0.0 
0.0 0.0 0.0 
0.0 0.0 0.0 
0.0 0.0 0.0 
0.0 0.0 0.0 
0.0 0.0 0.0 
0.0 0.0 0.0 
0.0 0.0 0.0 
0.0 0.0 0.0 
0.0 0.0 0.0 
0.0 0.0 0.0 
0.0 0.0 0.0 
0.0 0.0 0.0 
0.0 0.0 0.0 
0.0 0.0 0.0 
0.0 0.0 0.0 
0.0 0.0 0.0 
0.0 0.0 0.0 
0.0 0.0 0.0 
0.0 0.0 0.0 
0.0 0.0 0.0 
0.0 0.0 0.0 
0.0 0.0 0.0 
0.0 0.0 0.0 
0.0 0.0 0.0 
0.0 0.0 0.0 
0.0 0.0 0.0 
0.0 0.0 0.0 
0.0 0.0 0.0 
0.0 0.0 0.0 
0.0 0.0 0.0 
0.0 0.0 0.0 
0.0 0.0 0.0 
0.0 0.0 0.0 
0.0 0.0 0.0 
0.0 0.0 0.0 
0.0 0.0 0.0 
0.0 0.0 0.0 
0.0 0.0 0.0 
0.0 0.0 0.0 
0.0 0.0 0.0 
0.0 0.0 0.0 
0.0 0.0 0.0 
0.0 0.0 0.0 
0.0 0.0 0.0 
0.0 0.0 0.0 
0.0 0.0 0.0 
0.0 0.0 0.0 
0.0 0.0 0.0 
0.0 0.0 0.0 
0.0 0.0 0.0 
0.0 0.0 0.0 
0.0 0.0 0.0 
0.0 0.0 0.0 
0.0 0.0 0.0 
0.0 0.0 0.0 
0.0 0.0 0.0 
0.0 0.0 0.0 
0.0 0.0 0.0 
0.0 0.0 0.0 
0.0 0.0 0.0 
0.0 0.0 0.0 
0.0 0.0 0.0 
0.0 0.0 0.0 
0.0 0.0 0.0 
0.0 0.0 0.0 
0.0 0.0 0.0 
0.0 0.0 0.0 
0.0 0.0 0.0 
0.0 0.0 0.0 
0.0 0.0 0.0 
0.0 0.0 0.0 
0.0 0.0 0.0 
0.0 0.0 0.0 
0.0 0.0 0.0 
0.0 0.0 0.0 
0.0 0.0 0.0 
0.0 0.0 0.0 
0.0 0.0 0.0 
0.0 0.0 0.0 
0.0 0.0 0.0 
0.0 0.0 0.0 
0.0 0.0 0.0 
0.0 0.0 0.0 
0.0 0.0 0.0 
0.0 0.0 0.0 
0.0 0.0 0.0 
0.0 0.0 0.0 
0.0 0.0 0.0 
0.0 0.0 0.0 
0.0 0.0 0.0 
0.0 0.0 0.0 
0.0 0.0 0.0 
0.0 0.0 0.0 
0.0 0.0 0.0 
0.0 0.0 0.0 
0.0 0.0 0.0 
0.0 0.0 0.0 
0.0 0.0 0.0 
0.0 0.0 0.0 
0.0 0.0 0.0 
0.0 0.0 0.0 
0.0 0.0 0.0 
0.0 0.0 0.0 
0.0 0.0 0.0 
0.0 0.0 0.0 
0.0 0.0 0.0 
0.0 0.0 0.0 
0.0 0.0 0.0 
0.0 0.0 0.0 
0.0 0.0 0.0 
0.0 0.0 0.0 
0.0 0.0 0.0 
0.0 0.0 0.0 
0.0 0.0 0.0 
0.0 0.0 0.0 
0.0 0.0 0.0 
0.0 0.0 0.0 
0.0 0.0 0.0 
0.0 0.0 0.0 
0.0 0.0 0.0 
0.0 0.0 0.0 
0.0 0.0 0.0 
0.0 0.0 0.0 
0.0 0.0 0.0 
0.0 0.0 0.0 
0.0 0.0 0.0 
0.0 0.0 0.0 
0.0 0.0 0.0 
0.0 0.0 0.0 
0.0 0.0 0.0 
0.0 0.0 0.0 
0.0 0.0 0.0 
0.0 0.0 0.0 
0.0 0.0 0.0 
0.0 0.0 0.0 
0.0 0.0 0.0 
0.0 0.0 0.0 
0.0 0.0 0.0 
0.0 0.0 0.0 
0.0 0.0 0.0 
0.0 0.0 0.0 
0.0 0.0 0.0 
0.0 0.0 0.0 
0.0 0.0 0.0 
0.0 0.0 0.0 
0.0 0.0 0.0 
0.0 0.0 0.0 
0.0 0.0 0.0 
0.0 0.0 0.0 
0.0 0.0 0.0 
0.0 0.0 0.0 
0.0 0.0 0.0 
0.0 0.0 0.0 
0.0 0.0 0.0 
0.0 0.0 0.0 
0.0 0.0 0.0 
0.0 0.0 0.0 
0.0 0.0 0.0 
0.0 0.0 0.0 
0.0 0.0 0.0 
0.0 0.0 0.0 
0.0 0.0 0.0 
0.0 0.0 0.0 
0.0 0.0 0.0 
0.0 0.0 0.0 
0.0 0.0 0.0 
0.0 0.0 0.0 
0.0 0.0 0.0 
0.0 0.0 0.0 
0.0 0.0 0.0 
0.0 0.0 0.0 
0.0 0.0 0.0 
0.0 0.0 0.0 
0.0 0.0 0.0 
0.0 0.0 0.0 
0.0 0.0 0.0 
0.0 0.0 0.0 
0.0 0.0 0.0 
0.0 0.0 0.0 
0.0 0.0 0.0 
0.0 0.0 0.0 
0.0 0.0 0.0 
0.0 0.0 0.0 
0.0 0.0 0.0 
0.0 0.0 0.0 
0.0 0.0 0.0 
0.0 0.0 0.0 
0.0 0.0 0.0 
0.0 0.0 0.0 
0.0 0.0 0.0 
0.0 0.0 0.0 
0.0 0.0 0.0 
0.0 0.0 0.0 
0.0 0.0 0.0 
0.0 0.0 0.0 
0.0 0.0 0.0 
0.0 0.0 0.0 
0.0 0.0 0.0 
0.0 0.0 0.0 
0.0 0.0 0.0 
0.0 0.0 0.0 
0.0 0.0 0.0 
0.0 0.0 0.0 
0.0 0.0 0.0 
0.0 0.0 0.0 
0.0 0.0 0.0 
0.0 0.0 0.0 
0.0 0.0 0.0 
0.0 0.0 0.0 
0.0 0.0 0.0 
0.0 0.0 0.0 
0.0 0.0 0.0 
0.0 0.0 0.0 
0.0 0.0 0.0 
0.0 0.0 0.0 
0.0 0.0 0.0 
0.0 0.0 0.0 
0.0 0.0 0.0 
0.0 0.0 0.0 
0.0 0.0 0.0 
0.0 0.0 0.0 
0.0 0.0 0.0 
0.0 0.0 0.0 
0.0 0.0 0.0 
0.0 0.0 0.0 
0.0 0.0 0.0 
0.0 0.0 0.0 
0.0 0.0 0.0 
0.0 0.0 0.0 
0.0 0.0 0.0 
0.0 0.0 0.0 
0.0 0.0 0.0 
0.0 0.0 0.0 
0.0 0.0 0.0 
0.0 0.0 0.0 
0.0 0.0 0.0 
0.0 0.0 0.0 
0.0 0.0 0.0 
0.0 0.0 0.0 
0.0 0.0 0.0 
0.0 0.0 0.0 
0.0 0.0 0.0 
0.0 0.0 0.0 
0.0 0.0 0.0 
0.0 0.0 0.0 
0.0 0.0 0.0 
0.0 0.0 0.0 
0.0 0.0 0.0 
0.0 0.0 0.0 
0.0 0.0 0.0 
0.0 0.0 0.0 
0.0 0.0 0.0 
0.0 0.0 0.0 
0.0 0.0 0.0 
0.0 0.0 0.0 
0.0 0.0 0.0 
0.0 0.0 0.0 
0.0 0.0 0.0 
0.0 0.0 0.0 
0.0 0.0 0.0 
0.0 0.0 0.0 
0.0 0.0 0.0 
0.0 0.0 0.0 
0.0 0.0 0.0 
0.0 0.0 0.0 
0.0 0.0 0.0 
0.0 0.0 0.0 
0.0 0.0 0.0 
0.0 0.0 0.0 
0.0 0.0 0.0 
0.0 0.0 0.0 
0.0 0.0 0.0 
0.0 0.0 0.0 
0.0 0.0 0.0 
0.0 0.0 0.0 
0.0 0.0 0.0 
0.0 0.0 0.0 
0.0 0.0 0.0 
0.0 0.0 0.0 
0.0 0.0 0.0 
0.0 0.0 0.0 
0.0 0.0 0.0 
0.0 0.0 0.0 
0.0 0.0 0.0 
0.0 0.0 0.0 
0.0 0.0 0.0 
0.0 0.0 0.0 
0.0 0.0 0.0 
0.0 0.0 0.0 
0.0 0.0 0.0 
0.0 0.0 0.0 
0.0 0.0 0.0 
0.0 0.0 0.0 
0.0 0.0 0.0 
0.0 0.0 0.0 
0.0 0.0 0.0 
0.0 0.0 0.0 
0.0 0.0 0.0 
0.0 0.0 0.0 
0.0 0.0 0.0 
0.0 0.0 0.0 
0.0 0.0 0.0 
0.0 0.0 0.0 
0.0 0.0 0.0 
0.0 0.0 0.0 
0.0 0.0 0.0 
0.0 0.0 0.0 
0.0 0.0 0.0 
0.0 0.0 0.0 
0.0 0.0 0.0 
0.0 0.0 0.0 
0.0 0.0 0.0 
0.0 0.0 0.0 
0.0 0.0 0.0 
0.0 0.0 0.0 
0.0 0.0 0.0 
0.0 0.0 0.0 
0.0 0.0 0.0 
0.0 0.0 0.0 
0.0 0.0 0.0 
0.0 0.0 0.0 
0.0 0.0 0.0 
0.0 0.0 0.0 
0.0 0.0 0.0 
0.0 0.0 0.0 
0.0 0.0 0.0 
0.0 0.0 0.0 
0.0 0.0 0.0 
0.0 0.0 0.0 
0.0 0.0 0.0 
0.0 0.0 0.0 
0.0 0.0 0.0 
0.0 0.0 0.0 
0.0 0.0 0.0 
0.0 0.0 0.0 
0.0 0.0 0.0 
0.0 0.0 0.0 
0.0 0.0 0.0 
0.0 0.0 0.0 
0.0 0.0 0.0 
0.0 0.0 0.0 
0.0 0.0 0.0 
0.0 0.0 0.0 
0.0 0.0 0.0 
0.0 0.0 0.0 
0.0 0.0 0.0 
0.0 0.0 0.0 
0.0 0.0 0.0 
0.0 0.0 0.0 
0.0 0.0 0.0 
0.0 0.0 0.0 
0.0 0.0 0.0 
0.0 0.0 0.0 
0.0 0.0 0.0 
0.0 0.0 0.0 
0.0 0.0 0.0 
0.0 0.0 0.0 
0.0 0.0 0.0 
0.0 0.0 0.0 
0.0 0.0 0.0 
0.0 0.0 0.0 
0.0 0.0 0.0 
0.0 0.0 0.0 
0.0 0.0 0.0 
0.0 0.0 0.0 
0.0 0.0 0.0 
0.0 0.0 0.0 
0.0 0.0 0.0 
0.0 0.0 0.0 
0.0 0.0 0.0 
0.0 0.0 0.0 
0.0 0.0 0.0 
0.0 0.0 0.0 
0.0 0.0 0.0 
0.0 0.0 0.0 
0.0 0.0 0.0 
0.0 0.0 0.0 
0.0 0.0 0.0 
0.0 0.0 0.0 
0.0 0.0 0.0 
0.0 0.0 0.0 
0.0 0.0 0.0 
0.0 0.0 0.0 
0.0 0.0 0.0 
0.0 0.0 0.0 
0.0 0.0 0.0 
0.0 0.0 0.0 
0.0 0.0 0.0 
0.0 0.0 0.0 
0.0 0.0 0.0 
0.0 0.0 0.0 
0.0 0.0 0.0 
0.0 0.0 0.0 
0.0 0.0 0.0 
0.0 0.0 0.0 
0.0 0.0 0.0 
0.0 0.0 0.0 
0.0 0.0 0.0 
0.0 0.0 0.0 
0.0 0.0 0.0 
0.0 0.0 0.0 
0.0 0.0 0.0 
0.0 0.0 0.0 
0.0 0.0 0.0 
0.0 0.0 0.0 
0.0 0.0 0.0 
0.0 0.0 0.0 
0.0 0.0 0.0 
0.0 0.0 0.0 
0.0 0.0 0.0 
0.0 0.0 0.0 
0.0 0.0 0.0 
0.0 0.0 0.0 
0.0 0.0 0.0 
0.0 0.0 0.0 
0.0 0.0 0.0 
0.0 0.0 0.0 
0.0 0.0 0.0 
0.0 0.0 0.0 
0.0 0.0 0.0 
0.0 0.0 0.0 
0.0 0.0 0.0 
0.0 0.0 0.0 
0.0 0.0 0.0 
0.0 0.0 0.0 
0.0 0.0 0.0 
0.0 0.0 0.0 
0.0 0.0 0.0 
0.0 0.0 0.0 
0.0 0.0 0.0 
0.0 0.0 0.0 
0.0 0.0 0.0 
0.0 0.0 0.0 
0.0 0.0 0.0 
0.0 0.0 0.0 
0.0 0.0 0.0 
0.0 0.0 0.0 
0.0 0.0 0.0 
0.0 0.0 0.0 
0.0 0.0 0.0 
0.0 0.0 0.0 
0.0 0.0 0.0 
0.0 0.0 0.0 
0.0 0.0 0.0 
0.0 0.0 0.0 
0.0 0.0 0.0 
0.0 0.0 0.0 
0.0 0.0 0.0 
0.0 0.0 0.0 
0.0 0.0 0.0 
0.0 0.0 0.0 
0.0 0.0 0.0 
0.0 0.0 0.0 
0.0 0.0 0.0 
0.0 0.0 0.0 
0.0 0.0 0.0 
0.0 0.0 0.0 
0.0 0.0 0.0 
0.0 0.0 0.0 
0.0 0.0 0.0 
0.0 0.0 0.0 
0.0 0.0 0.0 
0.0 0.0 0.0 
0.0 0.0 0.0 
0.0 0.0 0.0 
0.0 0.0 0.0 
0.0 0.0 0.0 
0.0 0.0 0.0 
0.0 0.0 0.0 
0.0 0.0 0.0 
0.0 0.0 0.0 
0.0 0.0 0.0 
0.0 0.0 0.0 
0.0 0.0 0.0 
0.0 0.0 0.0 
0.0 0.0 0.0 
0.0 0.0 0.0 
0.0 0.0 0.0 
0.0 0.0 0.0 
0.0 0.0 0.0 
0.0 0.0 0.0 
0.0 0.0 0.0 
0.0 0.0 0.0 
0.0 0.0 0.0 
0.0 0.0 0.0 
0.0 0.0 0.0 
0.0 0.0 0.0 
0.0 0.0 0.0 
0.0 0.0 0.0 
0.0 0.0 0.0 
0.0 0.0 0.0 
0.0 0.0 0.0 
0.0 0.0 0.0 
0.0 0.0 0.0 
0.0 0.0 0.0 
0.0 0.0 0.0 
0.0 0.0 0.0 
0.0 0.0 0.0 
0.0 0.0 0.0 
0.0 0.0 0.0 
0.0 0.0 0.0 
0.0 0.0 0.0 
0.0 0.0 0.0 
0.0 0.0 0.0 
0.0 0.0 0.0 
0.0 0.0 0.0 
0.0 0.0 0.0 
0.0 0.0 0.0 
0.0 0.0 0.0 
0.0 0.0 0.0 
0.0 0.0 0.0 
0.0 0.0 0.0 
0.0 0.0 0.0 
0.0 0.0 0.0 
0.0 0.0 0.0 
0.0 0.0 0.0 
0.0 0.0 0.0 
0.0 0.0 0.0 
0.0 0.0 0.0 
0.0 0.0 0.0 
0.0 0.0 0.0 
0.0 0.0 0.0 
0.0 0.0 0.0 
0.0 0.0 0.0 
0.0 0.0 0.0 
0.0 0.0 0.0 
0.0 0.0 0.0 
0.0 0.0 0.0 
0.0 0.0 0.0 
0.0 0.0 0.0 
0.0 0.0 0.0 
0.0 0.0 0.0 
0.0 0.0 0.0 
0.0 0.0 0.0 
0.0 0.0 0.0 
0.0 0.0 0.0 
0.0 0.0 0.0 
0.0 0.0 0.0 
0.0 0.0 0.0 
0.0 0.0 0.0 
0.0 0.0 0.0 
0.0 0.0 0.0 
0.0 0.0 0.0 
0.0 0.0 0.0 
0.0 0.0 0.0 
0.0 0.0 0.0 
0.0 0.0 0.0 
0.0 0.0 0.0 
0.0 0.0 0.0 
0.0 0.0 0.0 
0.0 0.0 0.0 
0.0 0.0 0.0 
0.0 0.0 0.0 
0.0 0.0 0.0 
0.0 0.0 0.0 
0.0 0.0 0.0 
0.0 0.0 0.0 
0.0 0.0 0.0 
0.0 0.0 0.0 
0.0 0.0 0.0 
0.0 0.0 0.0 
0.0 0.0 0.0 
0.0 0.0 0.0 
0.0 0.0 0.0 
0.0 0.0 0.0 
0.0 0.0 0.0 
0.0 0.0 0.0 
0.0 0.0 0.0 
0.0 0.0 0.0 
0.0 0.0 0.0 
0.0 0.0 0.0 
0.0 0.0 0.0 
0.0 0.0 0.0 
0.0 0.0 0.0 
0.0 0.0 0.0 
0.0 0.0 0.0 
0.0 0.0 0.0 
0.0 0.0 0.0 
0.0 0.0 0.0 
0.0 0.0 0.0 
0.0 0.0 0.0 
0.0 0.0 0.0 
0.0 0.0 0.0 
0.0 0.0 0.0 
0.0 0.0 0.0 
0.0 0.0 0.0 
0.0 0.0 0.0 
0.0 0.0 0.0 
0.0 0.0 0.0 
0.0 0.0 0.0 
0.0 0.0 0.0 
0.0 0.0 0.0 
0.0 0.0 0.0 
0.0 0.0 0.0 
0.0 0.0 0.0 
0.0 0.0 0.0 
0.0 0.0 0.0 
0.0 0.0 0.0 
0.0 0.0 0.0 
0.0 0.0 0.0 
0.0 0.0 0.0 
0.0 0.0 0.0 
0.0 0.0 0.0 
0.0 0.0 0.0 
0.0 0.0 0.0 
0.0 0.0 0.0 
0.0 0.0 0.0 
0.0 0.0 0.0 
0.0 0.0 0.0 
0.0 0.0 0.0 
0.0 0.0 0.0 
0.0 0.0 0.0 
0.0 0.0 0.0 
0.0 0.0 0.0 
0.0 0.0 0.0 
0.0 0.0 0.0 
0.0 0.0 0.0 
0.0 0.0 0.0 
0.0 0.0 0.0 
0.0 0.0 0.0 
0.0 0.0 0.0 
0.0 0.0 0.0 
0.0 0.0 0.0 
0.0 0.0 0.0 
0.0 0.0 0.0 
0.0 0.0 0.0 
0.0 0.0 0.0 
0.0 0.0 0.0 
0.0 0.0 0.0 
0.0 0.0 0.0 
0.0 0.0 0.0 
0.0 0.0 0.0 
0.0 0.0 0.0 
0.0 0.0 0.0 
0.0 0.0 0.0 
0.0 0.0 0.0 
0.0 0.0 0.0 
0.0 0.0 0.0 
0.0 0.0 0.0 
0.0 0.0 0.0 
0.0 0.0 0.0 
0.0 0.0 0.0 
0.0 0.0 0.0 
0.0 0.0 0.0 
0.0 0.0 0.0 
0.0 0.0 0.0 
0.0 0.0 0.0 
0.0 0.0 0.0 
0.0 0.0 0.0 
0.0 0.0 0.0 
0.0 0.0 0.0 
0.0 0.0 0.0 
0.0 0.0 0.0 
0.0 0.0 0.0 
0.0 0.0 0.0 
0.0 0.0 0.0 
0.0 0.0 0.0 
0.0 0.0 0.0 
0.0 0.0 0.0 
0.0 0.0 0.0 
0.0 0.0 0.0 
0.0 0.0 0.0 
0.0 0.0 0.0 
0.0 0.0 0.0 
0.0 0.0 0.0 
0.0 0.0 0.0 
0.0 0.0 0.0 
0.0 0.0 0.0 
0.0 0.0 0.0 
0.0 0.0 0.0 
0.0 0.0 0.0 
0.0 0.0 0.0 
0.0 0.0 0.0 
0.0 0.0 0.0 
0.0 0.0 0.0 
0.0 0.0 0.0 
0.0 0.0 0.0 
0.0 0.0 0.0 
0.0 0.0 0.0 
0.0 0.0 0.0 
0.0 0.0 0.0 
0.0 0.0 0.0 
0.0 0.0 0.0 
0.0 0.0 0.0 
0.0 0.0 0.0 
0.0 0.0 0.0 
0.0 0.0 0.0 
0.0 0.0 0.0 
0.0 0.0 0.0 
0.0 0.0 0.0 
0.0 0.0 0.0 
0.0 0.0 0.0 
0.0 0.0 0.0 
0.0 0.0 0.0 
0.0 0.0 0.0 
0.0 0.0 0.0 
0.0 0.0 0.0 
0.0 0.0 0.0 
0.0 0.0 0.0 
0.0 0.0 0.0 
0.0 0.0 0.0 
0.0 0.0 0.0 
0.0 0.0 0.0 
0.0 0.0 0.0 
0.0 0.0 0.0 
0.0 0.0 0.0 
0.0 0.0 0.0 
0.0 0.0 0.0 
0.0 0.0 0.0 
0.0 0.0 0.0 
0.0 0.0 0.0 
0.0 0.0 0.0 
0.0 0.0 0.0 
0.0 0.0 0.0 
0.0 0.0 0.0 
0.0 0.0 0.0 
0.0 0.0 0.0 
0.0 0.0 0.0 
0.0 0.0 0.0 
0.0 0.0 0.0 
0.0 0.0 0.0 
0.0 0.0 0.0 
0.0 0.0 0.0 
0.0 0.0 0.0 
0.0 0.0 0.0 
0.0 0.0 0.0 
0.0 0.0 0.0 
0.0 0.0 0.0 
0.0 0.0 0.0 
0.0 0.0 0.0 
0.0 0.0 0.0 
0.0 0.0 0.0 
0.0 0.0 0.0 
0.0 0.0 0.0 
0.0 0.0 0.0 
0.0 0.0 0.0 
0.0 0.0 0.0 
0.0 0.0 0.0 
0.0 0.0 0.0 
0.0 0.0 0.0 
0.0 0.0 0.0 
0.0 0.0 0.0 
0.0 0.0 0.0 
0.0 0.0 0.0 
0.0 0.0 0.0 
0.0 0.0 0.0 
0.0 0.0 0.0 
0.0 0.0 0.0 
0.0 0.0 0.0 
0.0 0.0 0.0 
0.0 0.0 0.0 
0.0 0.0 0.0 
0.0 0.0 0.0 
0.0 0.0 0.0 
0.0 0.0 0.0 
0.0 0.0 0.0 
0.0 0.0 0.0 
0.0 0.0 0.0 
0.0 0.0 0.0 
0.0 0.0 0.0 
0.0 0.0 0.0 
0.0 0.0 0.0 
0.0 0.0 0.0 
0.0 0.0 0.0 
0.0 0.0 0.0 
0.0 0.0 0.0 
0.0 0.0 0.0 
0.0 0.0 0.0 
0.0 0.0 0.0 
0.0 0.0 0.0 
0.0 0.0 0.0 
0.0 0.0 0.0 
0.0 0.0 0.0 
0.0 0.0 0.0 
0.0 0.0 0.0 
0.0 0.0 0.0 
0.0 0.0 0.0 
0.0 0.0 0.0 
0.0 0.0 0.0 
0.0 0.0 0.0 
0.0 0.0 0.0 
0.0 0.0 0.0 
0.0 0.0 0.0 
0.0 0.0 0.0 
0.0 0.0 0.0 
0.0 0.0 0.0 
0.0 0.0 0.0 
0.0 0.0 0.0 
0.0 0.0 0.0 
0.0 0.0 0.0 
0.0 0.0 0.0 
0.0 0.0 0.0 
0.0 0.0 0.0 
0.0 0.0 0.0 
0.0 0.0 0.0 
0.0 0.0 0.0 
0.0 0.0 0.0 
0.0 0.0 0.0 
0.0 0.0 0.0 
0.0 0.0 0.0 
0.0 0.0 0.0 
0.0 0.0 0.0 
0.0 0.0 0.0 
0.0 0.0 0.0 
0.0 0.0 0.0 
0.0 0.0 0.0 
0.0 0.0 0.0 
0.0 0.0 0.0 
0.0 0.0 0.0 
0.0 0.0 0.0 
0.0 0.0 0.0 
0.0 0.0 0.0 
0.0 0.0 0.0 
0.0 0.0 0.0 
0.0 0.0 0.0 
0.0 0.0 0.0 
0.0 0.0 0.0 
0.0 0.0 0.0 
0.0 0.0 0.0 
0.0 0.0 0.0 
0.0 0.0 0.0 
0.0 0.0 0.0 
0.0 0.0 0.0 
0.0 0.0 0.0 
0.0 0.0 0.0 
0.0 0.0 0.0 
0.0 0.0 0.0 
0.0 0.0 0.0 
0.0 0.0 0.0 
0.0 0.0 0.0 
0.0 0.0 0.0 
0.0 0.0 0.0 
0.0 0.0 0.0 
0.0 0.0 0.0 
0.0 0.0 0.0 
0.0 0.0 0.0 
0.0 0.0 0.0 
0.0 0.0 0.0 
0.0 0.0 0.0 
0.0 0.0 0.0 
0.0 0.0 0.0 
0.0 0.0 0.0 
0.0 0.0 0.0 
0.0 0.0 0.0 
0.0 0.0 0.0 
0.0 0.0 0.0 
0.0 0.0 0.0 
0.0 0.0 0.0 
0.0 0.0 0.0 
0.0 0.0 0.0 
0.0 0.0 0.0 
0.0 0.0 0.0 
0.0 0.0 0.0 
0.0 0.0 0.0 
0.0 0.0 0.0 
0.0 0.0 0.0 
0.0 0.0 0.0 
0.0 0.0 0.0 
0.0 0.0 0.0 
0.0 0.0 0.0 
0.0 0.0 0.0 
0.0 0.0 0.0 
0.0 0.0 0.0 
0.0 0.0 0.0 
0.0 0.0 0.0 
0.0 0.0 0.0 
0.0 0.0 0.0 
0.0 0.0 0.0 
0.0 0.0 0.0 
0.0 0.0 0.0 
0.0 0.0 0.0 
0.0 0.0 0.0 
0.0 0.0 0.0 
0.0 0.0 0.0 
0.0 0.0 0.0 
0.0 0.0 0.0 
0.0 0.0 0.0 
0.0 0.0 0.0 
0.0 0.0 0.0 
0.0 0.0 0.0 
0.0 0.0 0.0 
0.0 0.0 0.0 
0.0 0.0 0.0 
0.0 0.0 0.0 
0.0 0.0 0.0 
0.0 0.0 0.0 
0.0 0.0 0.0 
0.0 0.0 0.0 
0.0 0.0 0.0 
0.0 0.0 0.0 
0.0 0.0 0.0 
0.0 0.0 0.0 
0.0 0.0 0.0 
0.0 0.0 0.0 
0.0 0.0 0.0 
0.0 0.0 0.0 
0.0 0.0 0.0 
0.0 0.0 0.0 
0.0 0.0 0.0 
0.0 0.0 0.0 
0.0 0.0 0.0 
0.0 0.0 0.0 
0.0 0.0 0.0 
0.0 0.0 0.0 
0.0 0.0 0.0 
0.0 0.0 0.0 
0.0 0.0 0.0 
0.0 0.0 0.0 
0.0 0.0 0.0 
0.0 0.0 0.0 
0.0 0.0 0.0 
0.0 0.0 0.0 
0.0 0.0 0.0 
0.0 0.0 0.0 
0.0 0.0 0.0 
0.0 0.0 0.0 
0.0 0.0 0.0 
0.0 0.0 0.0 
0.0 0.0 0.0 
0.0 0.0 0.0 
0.0 0.0 0.0 
0.0 0.0 0.0 
0.0 0.0 0.0 
0.0 0.0 0.0 
0.0 0.0 0.0 
0.0 0.0 0.0 
0.0 0.0 0.0 
0.0 0.0 0.0 
0.0 0.0 0.0 
0.0 0.0 0.0 
0.0 0.0 0.0 
0.0 0.0 0.0 
0.0 0.0 0.0 
0.0 0.0 0.0 
0.0 0.0 0.0 
0.0 0.0 0.0 
0.0 0.0 0.0 
0.0 0.0 0.0 
0.0 0.0 0.0 
0.0 0.0 0.0 
0.0 0.0 0.0 
0.0 0.0 0.0 
0.0 0.0 0.0 
0.0 0.0 0.0 
0.0 0.0 0.0 
0.0 0.0 0.0 
0.0 0.0 0.0 
0.0 0.0 0.0 
0.0 0.0 0.0 
0.0 0.0 0.0 
0.0 0.0 0.0 
0.0 0.0 0.0 
0.0 0.0 0.0 
0.0 0.0 0.0 
0.0 0.0 0.0 
0.0 0.0 0.0 
0.0 0.0 0.0 
0.0 0.0 0.0 
0.0 0.0 0.0 
0.0 0.0 0.0 
0.0 0.0 0.0 
0.0 0.0 0.0 
0.0 0.0 0.0 
0.0 0.0 0.0 
0.0 0.0 0.0 
0.0 0.0 0.0 
0.0 0.0 0.0 
0.0 0.0 0.0 
0.0 0.0 0.0 
0.0 0.0 0.0 
0.0 0.0 0.0 
0.0 0.0 0.0 
0.0 0.0 0.0 
0.0 0.0 0.0 
0.0 0.0 0.0 
0.0 0.0 0.0 
0.0 0.0 0.0 
0.0 0.0 0.0 
0.0 0.0 0.0 
0.0 0.0 0.0 
0.0 0.0 0.0 
0.0 0.0 0.0 
0.0 0.0 0.0 
0.0 0.0 0.0 
0.0 0.0 0.0 
0.0 0.0 0.0 
0.0 0.0 0.0 
0.0 0.0 0.0 
0.0 0.0 0.0 
0.0 0.0 0.0 
0.0 0.0 0.0 
0.0 0.0 0.0 
0.0 0.0 0.0 
0.0 0.0 0.0 
0.0 0.0 0.0 
0.0 0.0 0.0 
0.0 0.0 0.0 
0.0 0.0 0.0 
0.0 0.0 0.0 
0.0 0.0 0.0 
0.0 0.0 0.0 
0.0 0.0 0.0 
0.0 0.0 0.0 
0.0 0.0 0.0 
0.0 0.0 0.0 
0.0 0.0 0.0 
0.0 0.0 0.0 
0.0 0.0 0.0 
0.0 0.0 0.0 
0.0 0.0 0.0 
0.0 0.0 0.0 
0.0 0.0 0.0 
0.0 0.0 0.0 
0.0 0.0 0.0 
0.0 0.0 0.0 
0.0 0.0 0.0 
0.0 0.0 0.0 
0.0 0.0 0.0 
0.0 0.0 0.0 
0.0 0.0 0.0 
0.0 0.0 0.0 
0.0 0.0 0.0 
0.0 0.0 0.0 
0.0 0.0 0.0 
0.0 0.0 0.0 
0.0 0.0 0.0 
0.0 0.0 0.0 
0.0 0.0 0.0 
0.0 0.0 0.0 
0.0 0.0 0.0 
0.0 0.0 0.0 
0.0 0.0 0.0 
0.0 0.0 0.0 
0.0 0.0 0.0 
0.0 0.0 0.0 
0.0 0.0 0.0 
0.0 0.0 0.0 
0.0 0.0 0.0 
0.0 0.0 0.0 
0.0 0.0 0.0 
0.0 0.0 0.0 
0.0 0.0 0.0 
0.0 0.0 0.0 
0.0 0.0 0.0 
0.0 0.0 0.0 
0.0 0.0 0.0 
0.0 0.0 0.0 
0.0 0.0 0.0 
0.0 0.0 0.0 
0.0 0.0 0.0 
0.0 0.0 0.0 
0.0 0.0 0.0 
0.0 0.0 0.0 
0.0 0.0 0.0 
0.0 0.0 0.0 
0.0 0.0 0.0 
0.0 0.0 0.0 
0.0 0.0 0.0 
0.0 0.0 0.0 
0.0 0.0 0.0 
0.0 0.0 0.0 
0.0 0.0 0.0 
0.0 0.0 0.0 
0.0 0.0 0.0 
0.0 0.0 0.0 
0.0 0.0 0.0 
0.0 0.0 0.0 
0.0 0.0 0.0 
0.0 0.0 0.0 
0.0 0.0 0.0 
0.0 0.0 0.0 
0.0 0.0 0.0 
0.0 0.0 0.0 
0.0 0.0 0.0 
0.0 0.0 0.0 
0.0 0.0 0.0 
0.0 0.0 0.0 
0.0 0.0 0.0 
0.0 0.0 0.0 
0.0 0.0 0.0 
0.0 0.0 0.0 
0.0 0.0 0.0 
0.0 0.0 0.0 
0.0 0.0 0.0 
0.0 0.0 0.0 
0.0 0.0 0.0 
0.0 0.0 0.0 
0.0 0.0 0.0 
0.0 0.0 0.0 
0.0 0.0 0.0 
0.0 0.0 0.0 
0.0 0.0 0.0 
0.0 0.0 0.0 
0.0 0.0 0.0 
0.0 0.0 0.0 
0.0 0.0 0.0 
0.0 0.0 0.0 
0.0 0.0 0.0 
0.0 0.0 0.0 
0.0 0.0 0.0 
0.0 0.0 0.0 
0.0 0.0 0.0 
0.0 0.0 0.0 
0.0 0.0 0.0 
0.0 0.0 0.0 
0.0 0.0 0.0 
0.0 0.0 0.0 
0.0 0.0 0.0 
0.0 0.0 0.0 
0.0 0.0 0.0 
0.0 0.0 0.0 
0.0 0.0 0.0 
0.0 0.0 0.0 
0.0 0.0 0.0 
0.0 0.0 0.0 
0.0 0.0 0.0 
0.0 0.0 0.0 
0.0 0.0 0.0 
0.0 0.0 0.0 
0.0 0.0 0.0 
0.0 0.0 0.0 
0.0 0.0 0.0 
0.0 0.0 0.0 
0.0 0.0 0.0 
0.0 0.0 0.0 
0.0 0.0 0.0 
0.0 0.0 0.0 
0.0 0.0 0.0 
0.0 0.0 0.0 
0.0 0.0 0.0 
0.0 0.0 0.0 
0.0 0.0 0.0 
0.0 0.0 0.0 
0.0 0.0 0.0 
0.0 0.0 0.0 
0.0 0.0 0.0 
0.0 0.0 0.0 
0.0 0.0 0.0 
0.0 0.0 0.0 
0.0 0.0 0.0 
0.0 0.0 0.0 
0.0 0.0 0.0 
0.0 0.0 0.0 
0.0 0.0 0.0 
0.0 0.0 0.0 
0.0 0.0 0.0 
0.0 0.0 0.0 
0.0 0.0 0.0 
0.0 0.0 0.0 
0.0 0.0 0.0 
0.0 0.0 0.0 
0.0 0.0 0.0 
0.0 0.0 0.0 
0.0 0.0 0.0 
0.0 0.0 0.0 
0.0 0.0 0.0 
0.0 0.0 0.0 
0.0 0.0 0.0 
0.0 0.0 0.0 
0.0 0.0 0.0 
0.0 0.0 0.0 
0.0 0.0 0.0 
0.0 0.0 0.0 
0.0 0.0 0.0 
0.0 0.0 0.0 
0.0 0.0 0.0 
0.0 0.0 0.0 
0.0 0.0 0.0 
0.0 0.0 0.0 
0.0 0.0 0.0 
0.0 0.0 0.0 
0.0 0.0 0.0 
0.0 0.0 0.0 
0.0 0.0 0.0 
0.0 0.0 0.0 
0.0 0.0 0.0 
0.0 0.0 0.0 
0.0 0.0 0.0 
0.0 0.0 0.0 
0.0 0.0 0.0 
0.0 0.0 0.0 
0.0 0.0 0.0 
0.0 0.0 0.0 
0.0 0.0 0.0 
0.0 0.0 0.0 
0.0 0.0 0.0 
0.0 0.0 0.0 
0.0 0.0 0.0 
0.0 0.0 0.0 
0.0 0.0 0.0 
0.0 0.0 0.0 
0.0 0.0 0.0 
0.0 0.0 0.0 
0.0 0.0 0.0 
0.0 0.0 0.0 
0.0 0.0 0.0 
0.0 0.0 0.0 
0.0 0.0 0.0 
0.0 0.0 0.0 
0.0 0.0 0.0 
0.0 0.0 0.0 
0.0 0.0 0.0 
0.0 0.0 0.0 
0.0 0.0 0.0 
0.0 0.0 0.0 
0.0 0.0 0.0 
0.0 0.0 0.0 
0.0 0.0 0.0 
0.0 0.0 0.0 
0.0 0.0 0.0 
0.0 0.0 0.0 
0.0 0.0 0.0 
0.0 0.0 0.0 
0.0 0.0 0.0 
0.0 0.0 0.0 
0.0 0.0 0.0 
0.0 0.0 0.0 
0.0 0.0 0.0 
0.0 0.0 0.0 
0.0 0.0 0.0 
0.0 0.0 0.0 
0.0 0.0 0.0 
0.0 0.0 0.0 
0.0 0.0 0.0 
0.0 0.0 0.0 
0.0 0.0 0.0 
0.0 0.0 0.0 
0.0 0.0 0.0 
0.0 0.0 0.0 
0.0 0.0 0.0 
0.0 0.0 0.0 
0.0 0.0 0.0 
0.0 0.0 0.0 
0.0 0.0 0.0 
0.0 0.0 0.0 
0.0 0.0 0.0 
0.0 0.0 0.0 
0.0 0.0 0.0 
0.0 0.0 0.0 
0.0 0.0 0.0 
0.0 0.0 0.0 
0.0 0.0 0.0 
0.0 0.0 0.0 
0.0 0.0 0.0 
0.0 0.0 0.0 
0.0 0.0 0.0 
0.0 0.0 0.0 
0.0 0.0 0.0 
0.0 0.0 0.0 
0.0 0.0 0.0 
0.0 0.0 0.0 
0.0 0.0 0.0 
0.0 0.0 0.0 
0.0 0.0 0.0 
0.0 0.0 0.0 
0.0 0.0 0.0 
0.0 0.0 0.0 
0.0 0.0 0.0 
0.0 0.0 0.0 
0.0 0.0 0.0 
0.0 0.0 0.0 
0.0 0.0 0.0 
0.0 0.0 0.0 
0.0 0.0 0.0 
0.0 0.0 0.0 
0.0 0.0 0.0 
0.0 0.0 0.0 
0.0 0.0 0.0 
0.0 0.0 0.0 
0.0 0.0 0.0 
0.0 0.0 0.0 
0.0 0.0 0.0 
0.0 0.0 0.0 
0.0 0.0 0.0 
0.0 0.0 0.0 
0.0 0.0 0.0 
0.0 0.0 0.0 
0.0 0.0 0.0 
0.0 0.0 0.0 
0.0 0.0 0.0 
0.0 0.0 0.0 
0.0 0.0 0.0 
0.0 0.0 0.0 
0.0 0.0 0.0 
0.0 0.0 0.0 
0.0 0.0 0.0 
0.0 0.0 0.0 
0.0 0.0 0.0 
0.0 0.0 0.0 
0.0 0.0 0.0 
0.0 0.0 0.0 
0.0 0.0 0.0 
0.0 0.0 0.0 
0.0 0.0 0.0 
0.0 0.0 0.0 
0.0 0.0 0.0 
0.0 0.0 0.0 
0.0 0.0 0.0 
0.0 0.0 0.0 
0.0 0.0 0.0 
0.0 0.0 0.0 
0.0 0.0 0.0 
0.0 0.0 0.0 
0.0 0.0 0.0 
0.0 0.0 0.0 
0.0 0.0 0.0 
0.0 0.0 0.0 
0.0 0.0 0.0 
0.0 0.0 0.0 
0.0 0.0 0.0 
0.0 0.0 0.0 
0.0 0.0 0.0 
0.0 0.0 0.0 
0.0 0.0 0.0 
0.0 0.0 0.0 
0.0 0.0 0.0 
0.0 0.0 0.0 
0.0 0.0 0.0 
0.0 0.0 0.0 
0.0 0.0 0.0 
0.0 0.0 0.0 
0.0 0.0 0.0 
0.0 0.0 0.0 
0.0 0.0 0.0 
0.0 0.0 0.0 
0.0 0.0 0.0 
0.0 0.0 0.0 
0.0 0.0 0.0 
0.0 0.0 0.0 
0.0 0.0 0.0 
0.0 0.0 0.0 
0.0 0.0 0.0 
0.0 0.0 0.0 
0.0 0.0 0.0 
0.0 0.0 0.0 
0.0 0.0 0.0 
0.0 0.0 0.0 
0.0 0.0 0.0 
0.0 0.0 0.0 
0.0 0.0 0.0 
0.0 0.0 0.0 
0.0 0.0 0.0 
0.0 0.0 0.0 
0.0 0.0 0.0 
0.0 0.0 0.0 
0.0 0.0 0.0 
0.0 0.0 0.0 
0.0 0.0 0.0 
0.0 0.0 0.0 
0.0 0.0 0.0 
0.0 0.0 0.0 
0.0 0.0 0.0 
0.0 0.0 0.0 
0.0 0.0 0.0 
0.0 0.0 0.0 
0.0 0.0 0.0 
0.0 0.0 0.0 
0.0 0.0 0.0 
0.0 0.0 0.0 
0.0 0.0 0.0 
0.0 0.0 0.0 
0.0 0.0 0.0 
0.0 0.0 0.0 
0.0 0.0 0.0 
0.0 0.0 0.0 
0.0 0.0 0.0 
0.0 0.0 0.0 
0.0 0.0 0.0 
0.0 0.0 0.0 
0.0 0.0 0.0 
0.0 0.0 0.0 
0.0 0.0 0.0 
0.0 0.0 0.0 
0.0 0.0 0.0 
0.0 0.0 0.0 
0.0 0.0 0.0 
0.0 0.0 0.0 
0.0 0.0 0.0 
0.0 0.0 0.0 
0.0 0.0 0.0 
0.0 0.0 0.0 
0.0 0.0 0.0 
0.0 0.0 0.0 
0.0 0.0 0.0 
0.0 0.0 0.0 
0.0 0.0 0.0 
0.0 0.0 0.0 
0.0 0.0 0.0 
0.0 0.0 0.0 
0.0 0.0 0.0 
0.0 0.0 0.0 
0.0 0.0 0.0 
0.0 0.0 0.0 
0.0 0.0 0.0 
0.0 0.0 0.0 
0.0 0.0 0.0 
0.0 0.0 0.0 
0.0 0.0 0.0 
0.0 0.0 0.0 
0.0 0.0 0.0 
0.0 0.0 0.0 
0.0 0.0 0.0 
0.0 0.0 0.0 
0.0 0.0 0.0 
0.0 0.0 0.0 
0.0 0.0 0.0 
0.0 0.0 0.0 
0.0 0.0 0.0 
0.0 0.0 0.0 
0.0 0.0 0.0 
0.0 0.0 0.0 
0.0 0.0 0.0 
0.0 0.0 0.0 
0.0 0.0 0.0 
0.0 0.0 0.0 
0.0 0.0 0.0 
0.0 0.0 0.0 
0.0 0.0 0.0 
0.0 0.0 0.0 
0.0 0.0 0.0 
0.0 0.0 0.0 
0.0 0.0 0.0 
0.0 0.0 0.0 
0.0 0.0 0.0 
0.0 0.0 0.0 
0.0 0.0 0.0 
0.0 0.0 0.0 
0.0 0.0 0.0 
0.0 0.0 0.0 
0.0 0.0 0.0 
0.0 0.0 0.0 
0.0 0.0 0.0 
0.0 0.0 0.0 
0.0 0.0 0.0 
0.0 0.0 0.0 
0.0 0.0 0.0 
0.0 0.0 0.0 
0.0 0.0 0.0 
0.0 0.0 0.0 
0.0 0.0 0.0 
0.0 0.0 0.0 
0.0 0.0 0.0 
0.0 0.0 0.0 
0.0 0.0 0.0 
0.0 0.0 0.0 
0.0 0.0 0.0 
0.0 0.0 0.0 
0.0 0.0 0.0 
0.0 0.0 0.0 
0.0 0.0 0.0 
0.0 0.0 0.0 
0.0 0.0 0.0 
0.0 0.0 0.0 
0.0 0.0 0.0 
0.0 0.0 0.0 
0.0 0.0 0.0 
0.0 0.0 0.0 
0.0 0.0 0.0 
0.0 0.0 0.0 
0.0 0.0 0.0 
0.0 0.0 0.0 
0.0 0.0 0.0 
0.0 0.0 0.0 
0.0 0.0 0.0 
0.0 0.0 0.0 
0.0 0.0 0.0 
0.0 0.0 0.0 
0.0 0.0 0.0 
0.0 0.0 0.0 
0.0 0.0 0.0 
0.0 0.0 0.0 
0.0 0.0 0.0 
0.0 0.0 0.0 
0.0 0.0 0.0 
0.0 0.0 0.0 
0.0 0.0 0.0 
0.0 0.0 0.0 
0.0 0.0 0.0 
0.0 0.0 0.0 
0.0 0.0 0.0 
0.0 0.0 0.0 
0.0 0.0 0.0 
0.0 0.0 0.0 
0.0 0.0 0.0 
0.0 0.0 0.0 
0.0 0.0 0.0 
0.0 0.0 0.0 
0.0 0.0 0.0 
0.0 0.0 0.0 
0.0 0.0 0.0 
0.0 0.0 0.0 
0.0 0.0 0.0 
0.0 0.0 0.0 
0.0 0.0 0.0 
0.0 0.0 0.0 
0.0 0.0 0.0 
0.0 0.0 0.0 
0.0 0.0 0.0 
0.0 0.0 0.0 
0.0 0.0 0.0 
0.0 0.0 0.0 
0.0 0.0 0.0 
0.0 0.0 0.0 
0.0 0.0 0.0 
0.0 0.0 0.0 
0.0 0.0 0.0 
0.0 0.0 0.0 
0.0 0.0 0.0 
0.0 0.0 0.0 
0.0 0.0 0.0 
0.0 0.0 0.0 
0.0 0.0 0.0 
0.0 0.0 0.0 
0.0 0.0 0.0 
0.0 0.0 0.0 
0.0 0.0 0.0 
0.0 0.0 0.0 
0.0 0.0 0.0 
0.0 0.0 0.0 
0.0 0.0 0.0 
0.0 0.0 0.0 
0.0 0.0 0.0 
0.0 0.0 0.0 
0.0 0.0 0.0 
0.0 0.0 0.0 
0.0 0.0 0.0 
0.0 0.0 0.0 
0.0 0.0 0.0 
0.0 0.0 0.0 
0.0 0.0 0.0 
0.0 0.0 0.0 
0.0 0.0 0.0 
0.0 0.0 0.0 
0.0 0.0 0.0 
0.0 0.0 0.0 
0.0 0.0 0.0 
0.0 0.0 0.0 
0.0 0.0 0.0 
0.0 0.0 0.0 
0.0 0.0 0.0 
0.0 0.0 0.0 
0.0 0.0 0.0 
0.0 0.0 0.0 
0.0 0.0 0.0 
0.0 0.0 0.0 
0.0 0.0 0.0 
0.0 0.0 0.0 
0.0 0.0 0.0 
0.0 0.0 0.0 
0.0 0.0 0.0 
0.0 0.0 0.0 
0.0 0.0 0.0 
0.0 0.0 0.0 
0.0 0.0 0.0 
0.0 0.0 0.0 
0.0 0.0 0.0 
0.0 0.0 0.0 
0.0 0.0 0.0 
0.0 0.0 0.0 
0.0 0.0 0.0 
0.0 0.0 0.0 
0.0 0.0 0.0 
0.0 0.0 0.0 
0.0 0.0 0.0 
0.0 0.0 0.0 
0.0 0.0 0.0 
0.0 0.0 0.0 
0.0 0.0 0.0 
0.0 0.0 0.0 
0.0 0.0 0.0 
0.0 0.0 0.0 
0.0 0.0 0.0 
0.0 0.0 0.0 
0.0 0.0 0.0 
0.0 0.0 0.0 
0.0 0.0 0.0 
0.0 0.0 0.0 
0.0 0.0 0.0 
0.0 0.0 0.0 
0.0 0.0 0.0 
0.0 0.0 0.0 
0.0 0.0 0.0 
0.0 0.0 0.0 
0.0 0.0 0.0 
0.0 0.0 0.0 
0.0 0.0 0.0 
0.0 0.0 0.0 
0.0 0.0 0.0 
0.0 0.0 0.0 
0.0 0.0 0.0 
0.0 0.0 0.0 
0.0 0.0 0.0 
0.0 0.0 0.0 
0.0 0.0 0.0 
0.0 0.0 0.0 
0.0 0.0 0.0 
0.0 0.0 0.0 
0.0 0.0 0.0 
0.0 0.0 0.0 
0.0 0.0 0.0 
0.0 0.0 0.0 
0.0 0.0 0.0 
0.0 0.0 0.0 
0.0 0.0 0.0 
0.0 0.0 0.0 
0.0 0.0 0.0 
0.0 0.0 0.0 
0.0 0.0 0.0 
0.0 0.0 0.0 
0.0 0.0 0.0 
0.0 0.0 0.0 
0.0 0.0 0.0 
0.0 0.0 0.0 
0.0 0.0 0.0 
0.0 0.0 0.0 
0.0 0.0 0.0 
0.0 0.0 0.0 
0.0 0.0 0.0 
0.0 0.0 0.0 
0.0 0.0 0.0 
0.0 0.0 0.0 
0.0 0.0 0.0 
0.0 0.0 0.0 
0.0 0.0 0.0 
0.0 0.0 0.0 
0.0 0.0 0.0 
0.0 0.0 0.0 
0.0 0.0 0.0 
0.0 0.0 0.0 
0.0 0.0 0.0 
0.0 0.0 0.0 
0.0 0.0 0.0 
0.0 0.0 0.0 
0.0 0.0 0.0 
0.0 0.0 0.0 
0.0 0.0 0.0 
0.0 0.0 0.0 
0.0 0.0 0.0 
0.0 0.0 0.0 
0.0 0.0 0.0 
0.0 0.0 0.0 
0.0 0.0 0.0 
0.0 0.0 0.0 
0.0 0.0 0.0 
0.0 0.0 0.0 
0.0 0.0 0.0 
0.0 0.0 0.0 
0.0 0.0 0.0 
0.0 0.0 0.0 
0.0 0.0 0.0 
0.0 0.0 0.0 
0.0 0.0 0.0 
0.0 0.0 0.0 
0.0 0.0 0.0 
0.0 0.0 0.0 
0.0 0.0 0.0 
0.0 0.0 0.0 
0.0 0.0 0.0 
0.0 0.0 0.0 
0.0 0.0 0.0 
0.0 0.0 0.0 
0.0 0.0 0.0 
0.0 0.0 0.0 
0.0 0.0 0.0 
0.0 0.0 0.0 
0.0 0.0 0.0 
0.0 0.0 0.0 
0.0 0.0 0.0 
0.0 0.0 0.0 
0.0 0.0 0.0 
0.0 0.0 0.0 
0.0 0.0 0.0 
0.0 0.0 0.0 
0.0 0.0 0.0 
0.0 0.0 0.0 
0.0 0.0 0.0 
0.0 0.0 0.0 
0.0 0.0 0.0 
0.0 0.0 0.0 
0.0 0.0 0.0 
0.0 0.0 0.0 
0.0 0.0 0.0 
0.0 0.0 0.0 
0.0 0.0 0.0 
0.0 0.0 0.0 
0.0 0.0 0.0 
0.0 0.0 0.0 
0.0 0.0 0.0 
0.0 0.0 0.0 
0.0 0.0 0.0 
0.0 0.0 0.0 
0.0 0.0 0.0 
0.0 0.0 0.0 
0.0 0.0 0.0 
0.0 0.0 0.0 
0.0 0.0 0.0 
0.0 0.0 0.0 
0.0 0.0 0.0 
0.0 0.0 0.0 
0.0 0.0 0.0 
0.0 0.0 0.0 
0.0 0.0 0.0 
0.0 0.0 0.0 
0.0 0.0 0.0 
0.0 0.0 0.0 
0.0 0.0 0.0 
0.0 0.0 0.0 
0.0 0.0 0.0 
0.0 0.0 0.0 
0.0 0.0 0.0 
0.0 0.0 0.0 
0.0 0.0 0.0 
0.0 0.0 0.0 
0.0 0.0 0.0 
0.0 0.0 0.0 
0.0 0.0 0.0 
0.0 0.0 0.0 
0.0 0.0 0.0 
0.0 0.0 0.0 
0.0 0.0 0.0 
0.0 0.0 0.0 
0.0 0.0 0.0 
0.0 0.0 0.0 
0.0 0.0 0.0 
0.0 0.0 0.0 
0.0 0.0 0.0 
0.0 0.0 0.0 
0.0 0.0 0.0 
0.0 0.0 0.0 
0.0 0.0 0.0 
0.0 0.0 0.0 
0.0 0.0 0.0 
0.0 0.0 0.0 
0.0 0.0 0.0 
0.0 0.0 0.0 
0.0 0.0 0.0 
0.0 0.0 0.0 
0.0 0.0 0.0 
0.0 0.0 0.0 
0.0 0.0 0.0 
0.0 0.0 0.0 
0.0 0.0 0.0 
0.0 0.0 0.0 
0.0 0.0 0.0 
0.0 0.0 0.0 
0.0 0.0 0.0 
0.0 0.0 0.0 
0.0 0.0 0.0 
0.0 0.0 0.0 
0.0 0.0 0.0 
0.0 0.0 0.0 
0.0 0.0 0.0 
0.0 0.0 0.0 
0.0 0.0 0.0 
0.0 0.0 0.0 
0.0 0.0 0.0 
0.0 0.0 0.0 
0.0 0.0 0.0 
0.0 0.0 0.0 
0.0 0.0 0.0 
0.0 0.0 0.0 
0.0 0.0 0.0 
0.0 0.0 0.0 
0.0 0.0 0.0 
0.0 0.0 0.0 
0.0 0.0 0.0 
0.0 0.0 0.0 
0.0 0.0 0.0 
0.0 0.0 0.0 
0.0 0.0 0.0 
0.0 0.0 0.0 
0.0 0.0 0.0 
0.0 0.0 0.0 
0.0 0.0 0.0 
0.0 0.0 0.0 
0.0 0.0 0.0 
0.0 0.0 0.0 
0.0 0.0 0.0 
0.0 0.0 0.0 
0.0 0.0 0.0 
0.0 0.0 0.0 
0.0 0.0 0.0 
0.0 0.0 0.0 
0.0 0.0 0.0 
0.0 0.0 0.0 
0.0 0.0 0.0 
0.0 0.0 0.0 
0.0 0.0 0.0 
0.0 0.0 0.0 
0.0 0.0 0.0 
0.0 0.0 0.0 
0.0 0.0 0.0 
0.0 0.0 0.0 
0.0 0.0 0.0 
0.0 0.0 0.0 
0.0 0.0 0.0 
0.0 0.0 0.0 
0.0 0.0 0.0 
0.0 0.0 0.0 
0.0 0.0 0.0 
0.0 0.0 0.0 
0.0 0.0 0.0 
0.0 0.0 0.0 
0.0 0.0 0.0 
0.0 0.0 0.0 
0.0 0.0 0.0 
0.0 0.0 0.0 
0.0 0.0 0.0 
0.0 0.0 0.0 
0.0 0.0 0.0 
0.0 0.0 0.0 
0.0 0.0 0.0 
0.0 0.0 0.0 
0.0 0.0 0.0 
0.0 0.0 0.0 
0.0 0.0 0.0 
0.0 0.0 0.0 
0.0 0.0 0.0 
0.0 0.0 0.0 
0.0 0.0 0.0 
0.0 0.0 0.0 
0.0 0.0 0.0 
0.0 0.0 0.0 
0.0 0.0 0.0 
0.0 0.0 0.0 
0.0 0.0 0.0 
0.0 0.0 0.0 
0.0 0.0 0.0 
0.0 0.0 0.0 
0.0 0.0 0.0 
0.0 0.0 0.0 
0.0 0.0 0.0 
0.0 0.0 0.0 
0.0 0.0 0.0 
0.0 0.0 0.0 
0.0 0.0 0.0 
0.0 0.0 0.0 
0.0 0.0 0.0 
0.0 0.0 0.0 
0.0 0.0 0.0 
0.0 0.0 0.0 
0.0 0.0 0.0 
0.0 0.0 0.0 
0.0 0.0 0.0 
0.0 0.0 0.0 
0.0 0.0 0.0 
0.0 0.0 0.0 
0.0 0.0 0.0 
0.0 0.0 0.0 
0.0 0.0 0.0 
0.0 0.0 0.0 
0.0 0.0 0.0 
0.0 0.0 0.0 
0.0 0.0 0.0 
0.0 0.0 0.0 
0.0 0.0 0.0 
0.0 0.0 0.0 
0.0 0.0 0.0 
0.0 0.0 0.0 
0.0 0.0 0.0 
0.0 0.0 0.0 
0.0 0.0 0.0 
0.0 0.0 0.0 
0.0 0.0 0.0 
0.0 0.0 0.0 
0.0 0.0 0.0 
0.0 0.0 0.0 
0.0 0.0 0.0 
0.0 0.0 0.0 
0.0 0.0 0.0 
0.0 0.0 0.0 
0.0 0.0 0.0 
0.0 0.0 0.0 
0.0 0.0 0.0 
0.0 0.0 0.0 
0.0 0.0 0.0 
0.0 0.0 0.0 
0.0 0.0 0.0 
0.0 0.0 0.0 
0.0 0.0 0.0 
0.0 0.0 0.0 
0.0 0.0 0.0 
0.0 0.0 0.0 
0.0 0.0 0.0 
0.0 0.0 0.0 
0.0 0.0 0.0 
0.0 0.0 0.0 
0.0 0.0 0.0 
0.0 0.0 0.0 
0.0 0.0 0.0 
0.0 0.0 0.0 
0.0 0.0 0.0 
0.0 0.0 0.0 
0.0 0.0 0.0 
0.0 0.0 0.0 
0.0 0.0 0.0 
0.0 0.0 0.0 
0.0 0.0 0.0 
0.0 0.0 0.0 
0.0 0.0 0.0 
0.0 0.0 0.0 
0.0 0.0 0.0 
0.0 0.0 0.0 
0.0 0.0 0.0 
0.0 0.0 0.0 
0.0 0.0 0.0 
0.0 0.0 0.0 
0.0 0.0 0.0 
0.0 0.0 0.0 
0.0 0.0 0.0 
0.0 0.0 0.0 
0.0 0.0 0.0 
0.0 0.0 0.0 
0.0 0.0 0.0 
0.0 0.0 0.0 
0.0 0.0 0.0 
0.0 0.0 0.0 
0.0 0.0 0.0 
0.0 0.0 0.0 
0.0 0.0 0.0 
0.0 0.0 0.0 
0.0 0.0 0.0 
0.0 0.0 0.0 
0.0 0.0 0.0 
0.0 0.0 0.0 
0.0 0.0 0.0 
0.0 0.0 0.0 
0.0 0.0 0.0 
0.0 0.0 0.0 
0.0 0.0 0.0 
0.0 0.0 0.0 
0.0 0.0 0.0 
0.0 0.0 0.0 
0.0 0.0 0.0 
0.0 0.0 0.0 
0.0 0.0 0.0 
0.0 0.0 0.0 
0.0 0.0 0.0 
0.0 0.0 0.0 
0.0 0.0 0.0 
0.0 0.0 0.0 
0.0 0.0 0.0 
0.0 0.0 0.0 
0.0 0.0 0.0 
0.0 0.0 0.0 
0.0 0.0 0.0 
0.0 0.0 0.0 
0.0 0.0 0.0 
0.0 0.0 0.0 
0.0 0.0 0.0 
0.0 0.0 0.0 
0.0 0.0 0.0 
0.0 0.0 0.0 
0.0 0.0 0.0 
0.0 0.0 0.0 
0.0 0.0 0.0 
0.0 0.0 0.0 
0.0 0.0 0.0 
0.0 0.0 0.0 
0.0 0.0 0.0 
0.0 0.0 0.0 
0.0 0.0 0.0 
0.0 0.0 0.0 
0.0 0.0 0.0 
0.0 0.0 0.0 
0.0 0.0 0.0 
0.0 0.0 0.0 
0.0 0.0 0.0 
0.0 0.0 0.0 
0.0 0.0 0.0 
0.0 0.0 0.0 
0.0 0.0 0.0 
0.0 0.0 0.0 
0.0 0.0 0.0 
0.0 0.0 0.0 
0.0 0.0 0.0 
0.0 0.0 0.0 
0.0 0.0 0.0 
0.0 0.0 0.0 
0.0 0.0 0.0 
0.0 0.0 0.0 
0.0 0.0 0.0 
0.0 0.0 0.0 
0.0 0.0 0.0 
0.0 0.0 0.0 
0.0 0.0 0.0 
0.0 0.0 0.0 
0.0 0.0 0.0 
0.0 0.0 0.0 
0.0 0.0 0.0 
0.0 0.0 0.0 
0.0 0.0 0.0 
0.0 0.0 0.0 
0.0 0.0 0.0 
0.0 0.0 0.0 
0.0 0.0 0.0 
0.0 0.0 0.0 
0.0 0.0 0.0 
0.0 0.0 0.0 
0.0 0.0 0.0 
0.0 0.0 0.0 
0.0 0.0 0.0 
0.0 0.0 0.0 

TENSORS element_materi_stress float
-3.528012917393e+01 2.068001244978e+01 0.0 
2.068001244978e+01 -4.729422046810e+01 0.0 
0.0 0.0 -2.437230489261e+01 
-3.800485447759e+01 2.219314340380e+01 0.0 
2.219314340380e+01 -4.665114053455e+01 0.0 
0.0 0.0 -2.499679850364e+01 
-1.277172931932e+02 1.794298088567e+01 0.0 
1.794298088567e+01 -2.901212087578e+02 0.0 
0.0 0.0 -1.249515505853e+02 
-1.169705709964e+02 2.435111913418e+00 0.0 
2.435111913418e+00 -2.667050001680e+02 0.0 
0.0 0.0 -1.147026713493e+02 
-6.659090818426e+01 5.387292315863e-02 0.0 
5.387292315863e-02 -1.285067238672e+02 0.0 
0.0 0.0 -5.812928961542e+01 
-3.652853576774e+01 3.170129097491e+01 0.0 
3.170129097491e+01 -1.044011873478e+02 0.0 
0.0 0.0 -4.296167475556e+01 
-6.591758759810e+01 -4.239014735825e-01 0.0 
-4.239014735825e-01 -1.286366199171e+02 0.0 
0.0 0.0 -5.796626225456e+01 
-3.889302868464e+01 2.504212728386e+01 0.0 
2.504212728386e+01 -5.397319784143e+01 0.0 
0.0 0.0 -2.745986795782e+01 
-6.684346401013e+01 1.955739776043e+00 0.0 
1.955739776043e+00 -1.293943796806e+02 0.0 
0.0 0.0 -5.847135310721e+01 
-1.163274890006e+02 1.874111493378e+00 0.0 
1.874111493378e+00 -2.650684023542e+02 0.0 
0.0 0.0 -1.140187674064e+02 
-1.061589819954e+02 -1.195249671464e+00 0.0 
-1.195249671464e+00 -2.565843096888e+02 0.0 
0.0 0.0 -1.084229875053e+02 
-3.162870837180e+01 2.140031868209e+01 0.0 
2.140031868209e+01 -3.723800433546e+01 0.0 
0.0 0.0 -2.026001381218e+01 
-1.567156390435e+02 -5.460373822497e-01 0.0 
-5.460373822497e-01 -3.697205705136e+02 0.0 
0.0 0.0 -1.575308628671e+02 
-7.664010431081e+01 2.375642118568e+00 0.0 
2.375642118568e+00 -1.466611955765e+02 0.0 
0.0 0.0 -6.659038996620e+01 
-1.606903714824e+02 1.308140299030e+00 0.0 
1.308140299030e+00 -3.779798840272e+02 0.0 
0.0 0.0 -1.612010766529e+02 
-1.190044078681e+02 1.428129766643e+00 0.0 
1.428129766643e+00 -2.748438773709e+02 0.0 
0.0 0.0 -1.177544855717e+02 
-6.622186833892e+01 1.392175775850e+00 0.0 
1.392175775850e+00 -1.247519889685e+02 0.0 
0.0 0.0 -5.689215719222e+01 
-2.844470103159e+01 1.683246283226e+01 0.0 
1.683246283226e+01 -1.084178664517e+02 0.0 
0.0 0.0 -4.339812703124e+01 
-2.944429218857e+01 -1.394228985974e-01 0.0 
-1.394228985974e-01 -7.714419333596e+01 0.0 
0.0 0.0 -3.157654565736e+01 
-3.176513195305e+01 -1.186980564309e+00 0.0 
-1.186980564309e+00 -8.004324530304e+01 0.0 
0.0 0.0 -3.314251317683e+01 
-1.175907051246e+02 3.924012110552e+00 0.0 
3.924012110552e+00 -2.660967594763e+02 0.0 
0.0 0.0 -1.147062393803e+02 
-3.701119434351e+01 1.346192806661e+01 0.0 
1.346192806661e+01 -4.517934177978e+01 0.0 
0.0 0.0 -2.425716083699e+01 
-4.608178755746e+01 1.719564572984e+01 0.0 
1.719564572984e+01 -6.162277487751e+01 0.0 
0.0 0.0 -3.191136873049e+01 
-1.423976258628e+02 1.092497131969e+01 0.0 
1.092497131969e+01 -3.544565887497e+02 0.0 
0.0 0.0 -1.486562643837e+02 
-8.571395073435e+01 4.562090712924e+00 0.0 
4.562090712924e+00 -1.659904062662e+02 0.0 
0.0 0.0 -7.511130710016e+01 
-1.121326587641e+02 1.199334639682e-01 0.0 
1.199334639682e-01 -2.705703413038e+02 0.0 
0.0 0.0 -1.144109000204e+02 
-6.306894502942e+01 3.385067235732e+00 0.0 
3.385067235732e+00 -1.098824498129e+02 0.0 
0.0 0.0 -5.148541845270e+01 
-1.399792932770e+02 2.425988127422e+01 0.0 
2.425988127422e+01 -3.309742290707e+02 0.0 
0.0 0.0 -1.408860567043e+02 
-8.807346319102e+01 7.324318045608e+00 0.0 
7.324318045608e+00 -1.673376661329e+02 0.0 
0.0 0.0 -7.622333879719e+01 
-1.465598601122e+02 9.254481374846e+00 0.0 
9.254481374846e+00 -3.624759551418e+02 0.0 
0.0 0.0 -1.523107445762e+02 
-3.631416146048e+01 -2.223913066760e+01 0.0 
-2.223913066760e+01 -9.903015764806e+01 0.0 
0.0 0.0 -3.969020906694e+01 
-1.020327898012e+01 -1.625508311537e+00 0.0 
-1.625508311537e+00 -2.631518310094e+01 0.0 
0.0 0.0 -1.055553862432e+01 
-1.296377752853e+02 1.788970393170e+01 0.0 
1.788970393170e+01 -2.905692953668e+02 0.0 
0.0 0.0 -1.256621211956e+02 
-1.340115131723e+02 7.999825266328e-01 0.0 
7.999825266328e-01 -3.197398702975e+02 0.0 
0.0 0.0 -1.357254150410e+02 
-1.544938204245e+02 4.993495177449e+00 0.0 
4.993495177449e+00 -3.708715200083e+02 0.0 
0.0 0.0 -1.572096021298e+02 
-1.639027002061e+02 6.083850141691e-01 0.0 
6.083850141691e-01 -3.873421738081e+02 0.0 
0.0 0.0 -1.649734622042e+02 
-1.642058735453e+02 3.515407909196e+00 0.0 
3.515407909196e+00 -3.872156653948e+02 0.0 
0.0 0.0 -1.650264616820e+02 
-1.457921229402e+02 1.724674288353e+01 0.0 
1.724674288353e+01 -3.566548291444e+02 0.0 
0.0 0.0 -1.503340856254e+02 
-5.796890283285e+01 1.458327363515e+00 0.0 
1.458327363515e+00 -1.098988640438e+02 0.0 
0.0 0.0 -4.996033006298e+01 
-5.765227130606e+01 -1.274609715765e+00 0.0 
-1.274609715765e+00 -1.104064977893e+02 0.0 
0.0 0.0 -5.001763072859e+01 
-5.279397462965e+01 1.246749428534e+01 0.0 
1.246749428534e+01 -7.567327932017e+01 0.0 
0.0 0.0 -3.814017618495e+01 
-1.573267260673e+02 6.194933009550e+00 0.0 
6.194933009550e+00 -3.756221381074e+02 0.0 
0.0 0.0 -1.594846592524e+02 
-3.302126416132e+01 2.442336158351e+01 0.0 
2.442336158351e+01 -4.551579316047e+01 0.0 
0.0 0.0 -2.316111719654e+01 
-6.438352936983e+01 3.111565318458e+00 0.0 
3.111565318458e+00 -1.104660150311e+02 0.0 
0.0 0.0 -5.205486332027e+01 
-1.131173598439e+02 1.012534606869e+00 0.0 
1.012534606869e+00 -2.552705000956e+02 0.0 
0.0 0.0 -1.101163579819e+02 
-3.576150697130e+01 2.664587937007e+01 0.0 
2.664587937007e+01 -4.639606480498e+01 0.0 
0.0 0.0 -2.424727153288e+01 
-3.302855580142e+01 -2.583060906174e+01 0.0 
-2.583060906174e+01 -9.741278936961e+01 0.0 
0.0 0.0 -4.021431928590e+01 
-1.126545505890e+02 6.972958755919e-01 0.0 
6.972958755919e-01 -2.566297223655e+02 0.0 
0.0 0.0 -1.103852818864e+02 
-3.396860826295e+01 -2.421152928648e+01 0.0 
-2.421152928648e+01 -5.668145671217e+01 0.0 
0.0 0.0 -2.864495478552e+01 
-7.407639324931e+01 3.436233513600e+00 0.0 
3.436233513600e+00 -1.381043403695e+02 0.0 
0.0 0.0 -6.325422008565e+01 
-4.965363929127e+01 1.462538038857e+01 0.0 
1.462538038857e+01 -6.885900012335e+01 0.0 
0.0 0.0 -3.515379182439e+01 
-3.913671213022e+01 -4.256616627298e-01 0.0 
-4.256616627298e-01 -9.711535799325e+01 0.0 
0.0 0.0 -4.047562103704e+01 
-3.610664903783e+01 -1.779483018677e+01 0.0 
-1.779483018677e+01 -1.293212128233e+02 0.0 
0.0 0.0 -4.977695520389e+01 
-4.445672694051e+01 8.998022874577e+00 0.0 
8.998022874577e+00 -6.124018466696e+01 0.0 
0.0 0.0 -3.130907348224e+01 
-1.242993133374e+02 1.363244908090e+01 0.0 
1.363244908090e+01 -2.820910432657e+02 0.0 
0.0 0.0 -1.215171069809e+02 
-5.315361231416e+01 -9.775845093659e-01 0.0 
-9.775845093659e-01 -1.289790243055e+02 0.0 
0.0 0.0 -5.423979098589e+01 
-4.098165685499e+01 -1.403511219569e+00 0.0 
-1.403511219569e+00 -1.004432170030e+02 0.0 
0.0 0.0 -4.202746215741e+01 
-1.337103788098e+02 -8.052818504030e-01 0.0 
-8.052818504030e-01 -3.196739925512e+02 0.0 
0.0 0.0 -1.356153114083e+02 
-2.216797731102e+01 -1.546244117673e+00 0.0 
-1.546244117673e+00 -5.925721855183e+01 0.0 
0.0 0.0 -2.402755875885e+01 
-1.195850524102e+02 3.265489198969e+00 0.0 
3.265489198969e+00 -2.751300704199e+02 0.0 
0.0 0.0 -1.180145368490e+02 
-5.603514350447e+01 -2.276792765599e+01 0.0 
-2.276792765599e+01 -9.796185512739e+01 0.0 
0.0 0.0 -4.722899987275e+01 
-1.332584080205e+02 2.042769744085e+01 0.0 
2.042769744085e+01 -3.254277482633e+02 0.0 
0.0 0.0 -1.372058468851e+02 
-5.076230332099e+01 2.468060580535e+01 0.0 
2.468060580535e+01 -1.077047966861e+02 0.0 
0.0 0.0 -4.714013000214e+01 
-3.128830065223e+01 -1.740149214157e+01 0.0 
-1.740149214157e+01 -1.132674018047e+02 0.0 
0.0 0.0 -4.310083525090e+01 
-1.564982909332e+02 1.515738146639e+00 0.0 
1.515738146639e+00 -3.697452329532e+02 0.0 
0.0 0.0 -1.574730571659e+02 
-4.039685521271e+01 1.085505092469e+01 0.0 
1.085505092469e+01 -5.157524802246e+01 0.0 
0.0 0.0 -2.719163097055e+01 
-4.727547371774e+01 -9.030203836428e+00 0.0 
-9.030203836428e+00 -1.206606546813e+02 0.0 
0.0 0.0 -5.161572540237e+01 
-1.315984006671e+02 1.962750671680e+01 0.0 
1.962750671680e+01 -2.935415287758e+02 0.0 
0.0 0.0 -1.271419788329e+02 
-3.605337386943e+01 -1.051185020559e+01 0.0 
-1.051185020559e+01 -7.121940165166e+01 0.0 
0.0 0.0 -3.081024926474e+01 
-1.342437080182e+02 2.200949136298e+01 0.0 
2.200949136298e+01 -3.099928635111e+02 0.0 
0.0 0.0 -1.328709714588e+02 
-1.166587503339e+02 1.471824531530e-01 0.0 
1.471824531530e-01 -2.815766702378e+02 0.0 
0.0 0.0 -1.190706261715e+02 
-1.245442501729e+02 8.852909987341e+00 0.0 
8.852909987341e+00 -2.919365837367e+02 0.0 
0.0 0.0 -1.245442501729e+02 
-1.341258741763e+02 2.210725751965e+01 0.0 
2.210725751965e+01 -3.161655156914e+02 0.0 
0.0 0.0 -1.346874169603e+02 
-7.105815144239e+00 -1.146680327917e+00 0.0 
-1.146680327917e+00 -2.997079919128e+01 0.0 
0.0 0.0 -1.072298430066e+01 
-5.547284062078e+01 -2.176321505479e+00 0.0 
-2.176321505479e+00 -1.343775371198e+02 0.0 
0.0 0.0 -5.655511332218e+01 
-1.200772152693e+02 7.248941014176e+00 0.0 
7.248941014176e+00 -2.705411926374e+02 0.0 
0.0 0.0 -1.167855223720e+02 
-1.277602275854e+02 1.483205773134e+01 0.0 
1.483205773134e+01 -2.848523045953e+02 0.0 
0.0 0.0 -1.233837596542e+02 
-3.771191331441e+01 2.798098226738e+01 0.0 
2.798098226738e+01 -4.779314605719e+01 0.0 
0.0 0.0 -2.361872264879e+01 
-2.352761776199e+01 -1.496160908777e+00 0.0 
-1.496160908777e+00 -5.921635436758e+01 0.0 
0.0 0.0 -2.442319163887e+01 
-3.577644422209e+01 2.689753373422e+01 0.0 
2.689753373422e+01 -4.723854905546e+01 0.0 
0.0 0.0 -2.294578252836e+01 
-3.911542231050e+01 -1.438317072519e+01 0.0 
-1.438317072519e+01 -7.111958576605e+01 0.0 
0.0 0.0 -3.117123988528e+01 
-6.611380504384e+01 1.098932666921e+00 0.0 
1.098932666921e+00 -1.242140673052e+02 0.0 
0.0 0.0 -5.669836170472e+01 
-4.348679989320e+01 2.020807430400e+01 0.0 
2.020807430400e+01 -5.694833005509e+01 0.0 
0.0 0.0 -2.973053898449e+01 
-3.328715863577e+01 1.560532176988e+01 0.0 
1.560532176988e+01 -3.735974117211e+01 0.0 
0.0 0.0 -2.079406994236e+01 
-7.167752700611e+01 2.259182439163e+00 0.0 
2.259182439163e+00 -1.398245029043e+02 0.0 
0.0 0.0 -6.305060897313e+01 
-7.048021384043e+01 1.878271501680e-01 0.0 
1.878271501680e-01 -1.392812999082e+02 0.0 
0.0 0.0 -6.252845412460e+01 
-1.204681640428e+02 5.127263153637e-01 0.0 
5.127263153637e-01 -2.897738035278e+02 0.0 
0.0 0.0 -1.226725902712e+02 
-1.301000097525e+02 -8.553605638929e-01 0.0 
-8.553605638929e-01 -3.112124855152e+02 0.0 
0.0 0.0 -1.319937485803e+02 
-1.137521404311e+02 1.756210410749e+01 0.0 
1.756210410749e+01 -2.374695540500e+02 0.0 
0.0 0.0 -1.049665083443e+02 
-6.750784054882e+01 2.364649934431e+00 0.0 
2.364649934431e+00 -1.281519670829e+02 0.0 
0.0 0.0 -5.829794228951e+01 
-1.640085614978e+01 -2.275793170452e+00 0.0 
-2.275793170452e+00 -2.615407228512e+01 0.0 
0.0 0.0 -1.272014287347e+01 
-7.176465559139e+01 4.137744923042e+00 0.0 
4.137744923042e+00 -1.281890564988e+02 0.0 
0.0 0.0 -5.958611362705e+01 
-9.539167198137e+01 1.174217531808e+00 0.0 
1.174217531808e+00 -2.078721707380e+02 0.0 
0.0 0.0 -9.057915281580e+01 
-9.490504591345e+01 5.291980291350e-01 0.0 
5.291980291350e-01 -2.044395435719e+02 0.0 
0.0 0.0 -8.940337684561e+01 
-1.285146938923e+02 9.816040661793e+00 0.0 
9.816040661793e+00 -2.942325982462e+02 0.0 
0.0 0.0 -1.264241876416e+02 
-1.516648796766e+02 2.012403651259e+01 0.0 
2.012403651259e+01 -3.624469915698e+02 0.0 
0.0 0.0 -1.538335613739e+02 
-6.716342578267e+01 2.018252446349e+00 0.0 
2.018252446349e+00 -1.240879544746e+02 0.0 
0.0 0.0 -5.697541407718e+01 
-1.542898002683e+02 5.728628273778e+00 0.0 
5.728628273778e+00 -3.744878831879e+02 0.0 
0.0 0.0 -1.582333050368e+02 
-7.697237969140e+01 8.097709406486e-01 0.0 
8.097709406486e-01 -1.589571579543e+02 0.0 
0.0 0.0 -7.037886129372e+01 
-4.778942755024e+01 2.682019206872e+01 0.0 
2.682019206872e+01 -8.982899716909e+01 0.0 
0.0 0.0 -4.088552741580e+01 
-6.326817766457e+01 1.476223223394e+00 0.0 
1.476223223394e+00 -1.194416600688e+02 0.0 
0.0 0.0 -5.441295132000e+01 
-1.602575677543e+02 -1.524364683852e-01 0.0 
-1.524364683852e-01 -3.776642329743e+02 0.0 
0.0 0.0 -1.609765402186e+02 
-1.101763820421e+02 2.003256051164e+01 0.0 
2.003256051164e+01 -2.834537190351e+02 0.0 
0.0 0.0 -1.176890303231e+02 
-1.345580204873e+02 2.204342124986e+01 0.0 
2.204342124986e+01 -3.263460993371e+02 0.0 
0.0 0.0 -1.378712359473e+02 
-4.264345004130e+01 2.847944536456e+01 0.0 
2.847944536456e+01 -1.059352792846e+02 0.0 
0.0 0.0 -4.417361879777e+01 
-4.654239077853e+01 -2.879981304767e+01 0.0 
-2.879981304767e+01 -7.764908716954e+01 0.0 
0.0 0.0 -3.631130493684e+01 
-1.474492257603e+02 1.055757019288e+00 0.0 
1.055757019288e+00 -3.494634689748e+02 0.0 
0.0 0.0 -1.486738084205e+02 
-1.019478130112e+02 8.737728532038e-01 0.0 
8.737728532038e-01 -2.237040322493e+02 0.0 
0.0 0.0 -9.729555357814e+01 
-5.242636230173e+01 -3.377001707882e+01 0.0 
-3.377001707882e+01 -7.555676648934e+01 0.0 
0.0 0.0 -3.879336549155e+01 
-1.598330506701e+02 1.842585879078e+00 0.0 
1.842585879078e+00 -3.762499693832e+02 0.0 
0.0 0.0 -1.604249060160e+02 
-1.080549101663e+02 1.535444719488e+01 0.0 
1.535444719488e+01 -2.269620002666e+02 0.0 
0.0 0.0 -1.001050731299e+02 
-4.722002993837e+00 7.016165956357e-01 0.0 
7.016165956357e-01 -2.183571348564e+01 0.0 
0.0 0.0 -6.937029963402e+00 
-5.829186456328e+01 2.421439718637e+01 0.0 
2.421439718637e+01 -1.606843441949e+02 0.0 
0.0 0.0 -6.529286262746e+01 
-6.691153002231e+01 7.423078226089e+00 0.0 
7.423078226089e+00 -1.112633694156e+02 0.0 
0.0 0.0 -5.305246983137e+01 
-6.733996874113e+01 -2.102243945771e+00 0.0 
-2.102243945771e+00 -1.639746495162e+02 0.0 
0.0 0.0 -6.899438547720e+01 
-4.389870817622e+01 2.443839055236e+01 0.0 
2.443839055236e+01 -8.602011261393e+01 0.0 
0.0 0.0 -3.857564623704e+01 
-5.013697793558e+01 2.767181718612e+01 0.0 
2.767181718612e+01 -1.077578997498e+02 0.0 
0.0 0.0 -4.696846330560e+01 
-1.582221355584e+02 3.279380032477e+00 0.0 
3.279380032477e+00 -3.771361320432e+02 0.0 
0.0 0.0 -1.602074802805e+02 
-7.457519204864e+01 -4.637210308856e-01 0.0 
-4.637210308856e-01 -1.523366849605e+02 0.0 
0.0 0.0 -6.767356310273e+01 
-4.681638217866e+01 2.608403144408e+01 0.0 
2.608403144408e+01 -1.064317083164e+02 0.0 
0.0 0.0 -4.557442714853e+01 
-2.925484451623e+01 -5.416125426193e+00 0.0 
-5.416125426193e+00 -6.324274096158e+01 0.0 
0.0 0.0 -2.734927564334e+01 
-7.181276036988e+01 4.210298717166e+00 0.0 
4.210298717166e+00 -1.284113524089e+02 0.0 
0.0 0.0 -5.966723383365e+01 
-1.019601804236e+02 1.292987463548e+00 0.0 
1.292987463548e+00 -2.251442257752e+02 0.0 
0.0 0.0 -9.773132185963e+01 
-4.627712099694e+01 2.826596376477e+01 0.0 
2.826596376477e+01 -1.063506283703e+02 0.0 
0.0 0.0 -4.538832481016e+01 
-4.020287723707e+01 3.070929263201e+01 0.0 
3.070929263201e+01 -5.190149986938e+01 0.0 
0.0 0.0 -2.647528817137e+01 
-5.992008959591e+01 9.345445630818e+00 0.0 
9.345445630818e+00 -9.345699213824e+01 0.0 
0.0 0.0 -4.561312452024e+01 
-6.710787571334e+01 -2.571962604010e+00 0.0 
-2.571962604010e+00 -1.627012594822e+02 0.0 
0.0 0.0 -6.854274055865e+01 
-5.248405522560e+01 6.311159213764e+00 0.0 
6.311159213764e+00 -8.064024756582e+01 0.0 
0.0 0.0 -3.953729083743e+01 
-1.214870008365e+02 6.699287731038e+00 0.0 
6.699287731038e+00 -2.788580751627e+02 0.0 
0.0 0.0 -1.197035227998e+02 
-3.880313052433e+01 3.386275424587e+01 0.0 
3.386275424587e+01 -7.651534407501e+01 0.0 
0.0 0.0 -3.406395433614e+01 
-1.111758237267e+02 -1.423520976198e+00 0.0 
-1.423520976198e+00 -2.691045454982e+02 0.0 
0.0 0.0 -1.136841107675e+02 
-1.164546940248e+02 6.395150110317e-01 0.0 
6.395150110317e-01 -2.665603337871e+02 0.0 
0.0 0.0 -1.145045083436e+02 
-6.416284272861e+01 1.864504717421e+01 0.0 
1.864504717421e+01 -1.176564681028e+02 0.0 
0.0 0.0 -5.414579324941e+01 
-5.652186627196e+01 1.061481229675e+01 0.0 
1.061481229675e+01 -8.487296670705e+01 0.0 
0.0 0.0 -4.201844989370e+01 
-1.532341017057e+02 3.459100671647e+00 0.0 
3.459100671647e+00 -3.703757974342e+02 0.0 
0.0 0.0 -1.566829697420e+02 
-1.571229848379e+02 1.369763122218e+00 0.0 
1.369763122218e+00 -3.704164440660e+02 0.0 
0.0 0.0 -1.578618286712e+02 
-1.200008280985e+02 -1.159810479721e+00 0.0 
-1.159810479721e+00 -2.896382952903e+02 0.0 
0.0 0.0 -1.224917370166e+02 
-6.839802540659e+01 2.053145340993e+01 0.0 
2.053145340993e+01 -1.239971165270e+02 0.0 
0.0 0.0 -5.731854258007e+01 
-1.527366286978e+02 9.336651355681e+00 0.0 
9.336651355681e+00 -3.737470204915e+02 0.0 
0.0 0.0 -1.575450947568e+02 
-5.994465741803e+01 1.541245462098e+01 0.0 
1.541245462098e+01 -1.014015290386e+02 0.0 
0.0 0.0 -4.800385593699e+01 
-1.191234366157e+02 4.966877744195e+00 0.0 
4.966877744195e+00 -2.729009918128e+02 0.0 
0.0 0.0 -1.172073285285e+02 
-1.350016442690e+02 2.262250166492e+01 0.0 
2.262250166492e+01 -3.091079017696e+02 0.0 
0.0 0.0 -1.328328638116e+02 
-7.799276088999e+01 4.722461643139e+00 0.0 
4.722461643139e+00 -1.465603433993e+02 0.0 
0.0 0.0 -6.696593128677e+01 
-8.704552175966e+01 5.231493949725e-01 0.0 
5.231493949725e-01 -1.833726765505e+02 0.0 
0.0 0.0 -8.072545949304e+01 
-6.068553420810e+01 2.023298013426e+01 0.0 
2.023298013426e+01 -1.020082432293e+02 0.0 
0.0 0.0 -4.840813323121e+01 
-4.859810374640e+01 7.241572418839e+00 0.0 
7.241572418839e+00 -7.167441172450e+01 0.0 
0.0 0.0 -3.568175464127e+01 
-7.177025118167e+01 1.895126132051e+01 0.0 
1.895126132051e+01 -1.389901149780e+02 0.0 
0.0 0.0 -6.282810984791e+01 
-4.774276388282e+01 2.784691937097e+01 0.0 
2.784691937097e+01 -1.251548360281e+02 0.0 
0.0 0.0 -5.146927997329e+01 
-6.335285891717e+01 1.287007401103e+00 0.0 
1.287007401103e+00 -1.221145730784e+02 0.0 
0.0 0.0 -5.524022959868e+01 
-5.590949915470e+01 2.514430638996e+01 0.0 
2.514430638996e+01 -1.598337707238e+02 0.0 
0.0 0.0 -6.432298096354e+01 
-1.188444149628e+01 -7.832169398633e-01 0.0 
-7.832169398633e-01 -2.518910878715e+01 0.0 
0.0 0.0 -1.109750695848e+01 
-6.821979575550e+01 2.401691802694e-01 0.0 
2.401691802694e-01 -1.370164547119e+02 0.0 
0.0 0.0 -6.117087514021e+01 
-2.214601071628e+01 -5.737981850671e-01 0.0 
-5.737981850671e-01 -6.008905905228e+01 0.0 
0.0 0.0 -2.427052093057e+01 
-6.343310831207e+01 8.308120684521e+00 0.0 
8.308120684521e+00 -1.025790756876e+02 0.0 
0.0 0.0 -4.940365519991e+01 
-1.567875709445e+02 8.719186267613e+00 0.0 
8.719186267613e+00 -3.754420921850e+02 0.0 
0.0 0.0 -1.592688989388e+02 
-4.351199993693e+01 2.700436439815e+01 0.0 
2.700436439815e+01 -1.061507459417e+02 0.0 
0.0 0.0 -4.449882376360e+01 
-1.248797633991e+02 -1.032716058505e+00 0.0 
-1.032716058505e+00 -2.998849017199e+02 0.0 
0.0 0.0 -1.270293995357e+02 
-3.585765336315e+01 2.575734850602e+01 0.0 
2.575734850602e+01 -4.554077280473e+01 0.0 
0.0 0.0 -2.401952785036e+01 
-1.101478123681e+02 1.877451446554e+01 0.0 
1.877451446554e+01 -2.832788945275e+02 0.0 
0.0 0.0 -1.176280120687e+02 
-6.265156353132e+01 1.977388075736e-01 0.0 
1.977388075736e-01 -1.235082105534e+02 0.0 
0.0 0.0 -5.544793222542e+01 
-5.355040310748e+01 2.386383617967e+01 0.0 
2.386383617967e+01 -1.590689590409e+02 0.0 
0.0 0.0 -6.338580864452e+01 
-1.382314134329e+02 9.929635067224e-01 0.0 
9.929635067224e-01 -3.295155241514e+02 0.0 
0.0 0.0 -1.399240812753e+02 
-3.504572468253e+01 -8.888769756800e+00 0.0 
-8.888769756800e+00 -6.408045709308e+01 0.0 
0.0 0.0 -2.877402470258e+01 
-1.471216180663e+02 -6.389301505060e-01 0.0 
-6.389301505060e-01 -3.490676713316e+02 0.0 
0.0 0.0 -1.484567868194e+02 
-7.411369004364e+01 8.900414363539e+00 0.0 
8.900414363539e+00 -1.318551648590e+02 0.0 
0.0 0.0 -6.139065647079e+01 
-1.578809287146e+02 1.176463176927e+00 0.0 
1.176463176927e+00 -3.747293222155e+02 0.0 
0.0 0.0 -1.593830752790e+02 
-6.197121291327e+01 -1.128621771178e-02 0.0 
-1.128621771178e-02 -1.224556519516e+02 0.0 
0.0 0.0 -5.492805945947e+01 
-4.570697415740e+01 2.633231569358e+01 0.0 
2.633231569358e+01 -1.242218339304e+02 0.0 
0.0 0.0 -5.057864242635e+01 
-6.041931473886e+01 4.896457252505e+00 0.0 
4.896457252505e+00 -9.946564936397e+01 0.0 
0.0 0.0 -4.756548923085e+01 
-1.065661978161e+02 1.397109036971e-01 0.0 
1.397109036971e-01 -2.580034578246e+02 0.0 
0.0 0.0 -1.089708966922e+02 
-3.403028717199e+01 2.393903530913e+01 0.0 
2.393903530913e+01 -4.551914330178e+01 0.0 
0.0 0.0 -2.346482914213e+01 
-5.109838658790e+01 2.391202755530e+01 0.0 
2.391202755530e+01 -1.580366589119e+02 0.0 
0.0 0.0 -6.234051364993e+01 
-9.132624884025e+01 2.195589029093e+00 0.0 
2.195589029093e+00 -1.942942384464e+02 0.0 
0.0 0.0 -8.528614618599e+01 
-6.231866254672e+01 -3.879867028134e-01 0.0 
-3.879867028134e-01 -1.222680100078e+02 0.0 
0.0 0.0 -5.497600176635e+01 
-5.160510226153e+01 2.535333880320e+01 0.0 
2.535333880320e+01 -1.423007389131e+02 0.0 
0.0 0.0 -5.777175235239e+01 
-5.633039510036e+01 5.505306125951e+00 0.0 
5.505306125951e+00 -8.984021074731e+01 0.0 
0.0 0.0 -4.345118175430e+01 
-1.197038875223e+02 1.931637349842e+01 0.0 
1.931637349842e+01 -2.675493548235e+02 0.0 
0.0 0.0 -1.157759727038e+02 
-7.510227799870e+01 -2.178219959121e+00 0.0 
-2.178219959121e+00 -1.820864301138e+02 0.0 
0.0 0.0 -7.675661243375e+01 
-1.418228000864e+02 2.261439297565e+01 0.0 
2.261439297565e+01 -3.347082132483e+02 0.0 
0.0 0.0 -1.425593040004e+02 
-1.366427056622e+02 2.379651182418e+01 0.0 
2.379651182418e+01 -3.135223443481e+02 0.0 
0.0 0.0 -1.346495150031e+02 
-4.179237715335e+01 2.633331687041e+01 0.0 
2.633331687041e+01 -6.919078666497e+01 0.0 
0.0 0.0 -3.289494914550e+01 
-7.528247025480e+01 -2.306858865089e+00 0.0 
-2.306858865089e+00 -1.823723123476e+02 0.0 
0.0 0.0 -7.689643478072e+01 
-1.310581140120e+02 1.271126737081e+01 0.0 
1.271126737081e+01 -3.355292057314e+02 0.0 
0.0 0.0 -1.395761959230e+02 
-5.700690524219e+01 1.663127293293e+01 0.0 
1.663127293293e+01 -8.763273766397e+01 0.0 
0.0 0.0 -4.299189287185e+01 
-3.770715941291e+01 2.306208124527e+01 0.0 
2.306208124527e+01 -6.468391924058e+01 0.0 
0.0 0.0 -3.031732359605e+01 
-6.925213751313e+01 6.536241284100e+00 0.0 
6.536241284100e+00 -1.204483815608e+02 0.0 
0.0 0.0 -5.651015572216e+01 
-5.393549736571e+01 2.693332929550e+01 0.0 
2.693332929550e+01 -1.438221684864e+02 0.0 
0.0 0.0 -5.892729975564e+01 
-1.177549852758e+02 3.010723257127e+00 0.0 
3.010723257127e+00 -2.714730345521e+02 0.0 
0.0 0.0 -1.163684059484e+02 
-1.073198835558e+02 1.303205761370e+01 0.0 
1.303205761370e+01 -2.228123301637e+02 0.0 
0.0 0.0 -9.863966411585e+01 
-1.427888758665e+02 -8.616822633334e-01 0.0 
-8.616822633334e-01 -3.394413976014e+02 0.0 
0.0 0.0 -1.442690820404e+02 
-3.706923046231e+01 2.767371298192e+01 0.0 
2.767371298192e+01 -4.694766977208e+01 0.0 
0.0 0.0 -2.409107800461e+01 
-4.657053283100e+01 2.201382826357e+01 0.0 
2.201382826357e+01 -1.567651245891e+02 0.0 
0.0 0.0 -6.060069722602e+01 
-1.112974649236e+02 1.477774058062e+01 0.0 
1.477774058062e+01 -2.354238040872e+02 0.0 
0.0 0.0 -1.036163807032e+02 
-7.798552624161e+01 2.590304708326e+01 0.0 
2.590304708326e+01 -7.896264821608e+01 0.0 
0.0 0.0 -4.735241068981e+01 
-5.498219509106e+01 1.175037090448e+01 0.0 
1.175037090448e+01 -8.663212822583e+01 0.0 
0.0 0.0 -4.208429699507e+01 
-1.219804613982e+02 8.759200138975e+00 0.0 
8.759200138975e+00 -3.198978244224e+02 0.0 
0.0 0.0 -1.321634857462e+02 
-1.431881301636e+01 -9.040090703919e-01 0.0 
-9.040090703919e-01 -4.237026350180e+01 0.0 
0.0 0.0 -1.660672295545e+01 
-1.257413680724e+02 1.463700547753e+01 0.0 
1.463700547753e+01 -2.815869062094e+02 0.0 
0.0 0.0 -1.217984822845e+02 
-9.500815028882e+01 7.852006784265e+00 0.0 
7.852006784265e+00 -1.882664914777e+02 0.0 
0.0 0.0 -8.458239252995e+01 
-6.497939985018e+01 -9.213847268116e+00 0.0 
-9.213847268116e+00 -1.807377044364e+02 0.0 
0.0 0.0 -7.331513128599e+01 
-1.198197520717e+02 7.752657535533e+00 0.0 
7.752657535533e+00 -3.188760269744e+02 0.0 
0.0 0.0 -1.312087337138e+02 
-7.891021450954e+01 5.644154094540e+00 0.0 
5.644154094540e+00 -1.445255193232e+02 0.0 
0.0 0.0 -6.663072014981e+01 
-8.436039578749e+01 5.660981901932e+00 0.0 
5.660981901932e+00 -1.590876706295e+02 0.0 
0.0 0.0 -7.263441992509e+01 
-1.482733902843e+02 9.918267014388e+00 0.0 
9.918267014388e+00 -3.629366764539e+02 0.0 
0.0 0.0 -1.529630200215e+02 
-5.353019114512e+01 -9.904226511737e+00 0.0 
-9.904226511737e+00 -1.337142855298e+02 0.0 
0.0 0.0 -5.577334300248e+01 
-7.511713696423e+01 2.082696939469e+01 0.0 
2.082696939469e+01 -1.554109108424e+02 0.0 
0.0 0.0 -6.875841434199e+01 
-7.878911371866e+01 1.136681329363e+01 0.0 
1.136681329363e+01 -1.442621502491e+02 0.0 
0.0 0.0 -6.651537919032e+01 
-1.006956158058e+02 9.987970244332e+00 0.0 
9.987970244332e+00 -1.995880871599e+02 0.0 
0.0 0.0 -8.968511088973e+01 
-7.986547386495e+01 1.120645477275e+01 0.0 
1.120645477275e+01 -1.420806850154e+02 0.0 
0.0 0.0 -6.618384766411e+01 
-7.165541699898e+01 9.801071342079e+00 0.0 
9.801071342079e+00 -1.214518588450e+02 0.0 
0.0 0.0 -5.753218275318e+01 
-9.537667296081e+01 1.853659765911e+01 0.0 
1.853659765911e+01 -2.597550010226e+02 0.0 
0.0 0.0 -1.061395021950e+02 
-1.168381268698e+02 2.060791506406e+01 0.0 
2.060791506406e+01 -2.542368165808e+02 0.0 
0.0 0.0 -1.109224830352e+02 
-5.529149324538e+01 2.433043057058e+01 0.0 
2.433043057058e+01 -9.390353286725e+01 0.0 
0.0 0.0 -4.588231493895e+01 
-4.184792371723e+01 2.309079662370e+01 0.0 
2.309079662370e+01 -6.978238639521e+01 0.0 
0.0 0.0 -3.308909303373e+01 
-4.787982142340e+01 2.301891971834e+01 0.0 
2.301891971834e+01 -8.897982011396e+01 0.0 
0.0 0.0 -4.065789246121e+01 
-7.119352730043e+01 2.268795733704e+01 0.0 
2.268795733704e+01 -1.394725975637e+02 0.0 
0.0 0.0 -6.279983745925e+01 
-1.129931831718e+02 1.518691414955e+01 0.0 
1.518691414955e+01 -2.337969863549e+02 0.0 
0.0 0.0 -1.036370508580e+02 
-3.104851437532e+01 2.425208810427e+01 0.0 
2.425208810427e+01 -1.212644694962e+02 0.0 
0.0 0.0 -4.630256290367e+01 
-1.174715296077e+02 6.691547984703e+00 0.0 
6.691547984703e+00 -3.109432217980e+02 0.0 
0.0 0.0 -1.281244254217e+02 
-6.238647701146e+01 1.216990215603e+00 0.0 
1.216990215603e+00 -1.210560604434e+02 0.0 
0.0 0.0 -5.463276123645e+01 
-4.927613123565e+01 2.284916411902e+01 0.0 
2.284916411902e+01 -1.580820910742e+02 0.0 
0.0 0.0 -6.180746669295e+01 
-1.132833944023e+02 4.665468529546e+00 0.0 
4.665468529546e+00 -3.015509239922e+02 0.0 
0.0 0.0 -1.240502955184e+02 
-9.606169967397e+00 3.154167228219e-02 0.0 
3.154167228219e-02 -2.841966994546e+01 0.0 
0.0 0.0 -1.100775197386e+01 
-1.022665712545e+02 9.165932886771e+00 0.0 
9.165932886771e+00 -2.088313460124e+02 0.0 
0.0 0.0 -9.292937518004e+01 
-7.504094560478e+00 -1.157577776010e+00 0.0 
-1.157577776010e+00 -2.392198476845e+01 0.0 
0.0 0.0 -8.789065250725e+00 
-1.606778176472e+01 -1.112689833258e+00 0.0 
-1.112689833258e+00 -4.305960059020e+01 0.0 
0.0 0.0 -1.733821470648e+01 
-3.374340943655e+01 2.542134981560e+01 0.0 
2.542134981560e+01 -4.592916697434e+01 0.0 
0.0 0.0 -2.294185118392e+01 
-4.722181918960e+01 -9.815332402216e+00 0.0 
-9.815332402216e+00 -1.129824508664e+02 0.0 
0.0 0.0 -4.766128101679e+01 
-1.077229520911e+02 1.117631982697e+01 0.0 
1.117631982697e+01 -2.200072512085e+02 0.0 
0.0 0.0 -9.791906098986e+01 
-4.595125326624e+01 -9.021188328424e+00 0.0 
-9.021188328424e+00 -1.078900990342e+02 0.0 
0.0 0.0 -4.575240569012e+01 
-3.687514820255e+01 2.866484291524e+01 0.0 
2.866484291524e+01 -8.805266588159e+01 0.0 
0.0 0.0 -3.639151503295e+01 
-4.394800192857e+01 -2.162722499074e+01 0.0 
-2.162722499074e+01 -1.107912771768e+02 0.0 
0.0 0.0 -4.469481733084e+01 
-3.516202944192e+01 -7.964879463563e+00 0.0 
-7.964879463563e+00 -7.161968842179e+01 0.0 
0.0 0.0 -3.155092910793e+01 
-1.246238899001e+02 9.775253856816e+00 0.0 
9.775253856816e+00 -3.269056438856e+02 0.0 
0.0 0.0 -1.350588601357e+02 
-7.628557568895e+01 1.241660454848e+01 0.0 
1.241660454848e+01 -1.329803978160e+02 0.0 
0.0 0.0 -6.237979205149e+01 
-1.561606501111e+02 -1.524973886602e-01 0.0 
-1.524973886602e-01 -3.697321302500e+02 0.0 
0.0 0.0 -1.573678341083e+02 
-6.044146638921e+01 1.069476105125e+01 0.0 
1.069476105125e+01 -1.096586068644e+02 0.0 
0.0 0.0 -5.157172150094e+01 
-3.836644552651e+01 2.752947868131e+01 0.0 
2.752947868131e+01 -1.065567076842e+02 0.0 
0.0 0.0 -4.307694596322e+01 
-5.593663780035e+01 2.151129859431e+01 0.0 
2.151129859431e+01 -1.748537316835e+02 0.0 
0.0 0.0 -6.883711084515e+01 
-5.083352293132e+01 1.380711882312e+01 0.0 
1.380711882312e+01 -7.854825609548e+01 0.0 
0.0 0.0 -3.841453370804e+01 
-1.151042170650e+02 5.764430590925e+00 0.0 
5.764430590925e+00 -3.098400279800e+02 0.0 
0.0 0.0 -1.270832735135e+02 
-1.586466226124e+02 7.571340766363e-01 0.0 
7.571340766363e-01 -3.766646309769e+02 0.0 
0.0 0.0 -1.601933760768e+02 
-1.059798595729e+02 1.400789598896e+01 0.0 
1.400789598896e+01 -2.127390076790e+02 0.0 
0.0 0.0 -9.521566017558e+01 
-3.653716011681e+01 2.061170736240e+01 0.0 
2.061170736240e+01 -1.399050868931e+02 0.0 
0.0 0.0 -5.253267410297e+01 
-1.263650111298e+02 1.063390005240e+01 0.0 
1.063390005240e+01 -3.276602615654e+02 0.0 
0.0 0.0 -1.358075818086e+02 
-1.156025923105e+02 -1.418891103512e+00 0.0 
-1.418891103512e+00 -2.788575714542e+02 0.0 
0.0 0.0 -1.179380491294e+02 
-7.586245628297e+01 2.073772191145e+01 0.0 
2.073772191145e+01 -1.452936502865e+02 0.0 
0.0 0.0 -6.594683197084e+01 
-9.915351168438e+01 9.462993002738e+00 0.0 
9.462993002738e+00 -1.990633755190e+02 0.0 
0.0 0.0 -8.906506616100e+01 
-1.382705545580e+02 2.260064978668e+01 0.0 
2.260064978668e+01 -3.294843317662e+02 0.0 
0.0 0.0 -1.399264658973e+02 
-5.365794334309e+01 2.108534169097e+01 0.0 
2.108534169097e+01 -1.737975768716e+02 0.0 
0.0 0.0 -6.783665606440e+01 
-3.599429786634e+01 2.885959580396e+01 0.0 
2.885959580396e+01 -8.636668724726e+01 0.0 
0.0 0.0 -3.630829553408e+01 
-8.767795001658e+01 1.246831651131e+01 0.0 
1.246831651131e+01 -1.624584649397e+02 0.0 
0.0 0.0 -7.464092448689e+01 
-1.275026129326e+02 8.238004188842e+00 0.0 
8.238004188842e+00 -2.935320284809e+02 0.0 
0.0 0.0 -1.259103924240e+02 
-7.377531795036e+01 2.398491028802e+01 0.0 
2.398491028802e+01 -1.554096931697e+02 0.0 
0.0 0.0 -6.835550333601e+01 
-7.277932379034e+01 1.705451484220e+01 0.0 
1.705451484220e+01 -2.208732143678e+02 0.0 
0.0 0.0 -8.769576144743e+01 
-7.010840813778e+01 6.641023538066e-01 0.0 
6.641023538066e-01 -1.408355858865e+02 0.0 
0.0 0.0 -6.288319820727e+01 
-3.845941644029e+01 -1.458950265549e+01 0.0 
-1.458950265549e+01 -6.887690958673e+01 0.0 
0.0 0.0 -2.967293643427e+01 
-7.722314952234e+01 7.959771922496e+00 0.0 
7.959771922496e+00 -1.402277165132e+02 0.0 
0.0 0.0 -6.483525981066e+01 
-3.994048574140e+01 2.261874653097e+01 0.0 
2.261874653097e+01 -1.417813644189e+02 0.0 
0.0 0.0 -5.411655504808e+01 
-3.131550823811e+01 2.037985580912e+01 0.0 
2.037985580912e+01 -1.316140861474e+02 0.0 
0.0 0.0 -4.969702910546e+01 
-3.519793872150e+01 -2.293940207758e+01 0.0 
-2.293940207758e+01 -1.227504557691e+02 0.0 
0.0 0.0 -4.802661358122e+01 
-1.051414067817e+02 8.894071838545e+00 0.0 
8.894071838545e+00 -2.184889721375e+02 0.0 
0.0 0.0 -9.668911367575e+01 
-8.421229076631e+01 1.352435418080e+01 0.0 
1.352435418080e+01 -1.539829763470e+02 0.0 
0.0 0.0 -7.105858013398e+01 
-4.987655917926e+01 2.620134783743e+01 0.0 
2.620134783743e+01 -1.256790066405e+02 0.0 
0.0 0.0 -5.226666974593e+01 
-1.104343948733e+02 1.079304095054e+01 0.0 
1.079304095054e+01 -2.296721317216e+02 0.0 
0.0 0.0 -1.016319579785e+02 
-1.098933197572e+02 1.577091799582e+01 0.0 
1.577091799582e+01 -2.246932456879e+02 0.0 
0.0 0.0 -9.997596963353e+01 
-8.022216919086e+01 1.888167281178e+01 0.0 
1.888167281178e+01 -1.518051314578e+02 0.0 
0.0 0.0 -6.920819019460e+01 
-1.598262495435e+02 2.264083290673e+00 0.0 
2.264083290673e+00 -3.774546863653e+02 0.0 
0.0 0.0 -1.607842807726e+02 
-7.750794410887e+01 1.493797128430e+01 0.0 
1.493797128430e+01 -2.337090628642e+02 0.0 
0.0 0.0 -9.296510209193e+01 
-8.430456289276e+01 1.721841316087e+01 0.0 
1.721841316087e+01 -1.588365079307e+02 0.0 
0.0 0.0 -7.254232124705e+01 
-6.093118778806e+01 2.574033291177e+01 0.0 
2.574033291177e+01 -1.624493077912e+02 0.0 
0.0 0.0 -6.661414867377e+01 
-8.151294696637e+01 1.690538068389e+01 0.0 
1.690538068389e+01 -2.378450501034e+02 0.0 
0.0 0.0 -9.540739912093e+01 
-3.269377452201e+01 1.658686709804e+01 0.0 
1.658686709804e+01 -1.419200528621e+02 0.0 
0.0 0.0 -5.198414821523e+01 
-6.954968385792e+01 2.993656304821e+00 0.0 
2.993656304821e+00 -1.258543975388e+02 0.0 
0.0 0.0 -5.822122441902e+01 
-5.653366214779e+01 1.786736066083e+01 0.0 
1.786736066083e+01 -1.878410569194e+02 0.0 
0.0 0.0 -7.291241572016e+01 
-4.258686782446e+01 -4.443682696454e+00 0.0 
-4.443682696454e+00 -1.655501784729e+02 0.0 
0.0 0.0 -6.204111388921e+01 
-1.033576541191e+02 1.129142412268e+01 0.0 
1.129142412268e+01 -2.108964052333e+02 0.0 
0.0 0.0 -9.387621780573e+01 
-1.094649290038e+02 4.242521174278e+00 0.0 
4.242521174278e+00 -1.015218407022e+02 0.0 
0.0 0.0 -6.356977208414e+01 
-8.329986780777e+01 1.040000085027e+01 0.0 
1.040000085027e+01 -1.510106458781e+02 0.0 
0.0 0.0 -6.989315410578e+01 
-4.103783475449e+01 1.848870477201e+01 0.0 
1.848870477201e+01 -1.561897987332e+02 0.0 
0.0 0.0 -5.876829004631e+01 
-3.559766701472e+01 2.751995662687e+01 0.0 
2.751995662687e+01 -1.053791252008e+02 0.0 
0.0 0.0 -4.189303766464e+01 
-3.042049302301e+01 1.206247808848e+01 0.0 
1.206247808848e+01 -1.394279294904e+02 0.0 
0.0 0.0 -5.022478469482e+01 
-8.983703142082e+01 1.146083241780e+01 0.0 
1.146083241780e+01 -1.730897227064e+02 0.0 
0.0 0.0 -7.847802623817e+01 
-1.987224968780e+01 -3.518569069454e+00 0.0 
-3.518569069454e+00 -4.257589878350e+01 0.0 
0.0 0.0 -1.833444454139e+01 
-5.197720995162e+01 2.060413123012e+01 0.0 
2.060413123012e+01 -9.147692548054e+01 0.0 
0.0 0.0 -4.263624062965e+01 
-8.624908263916e+01 1.480554068213e+01 0.0 
1.480554068213e+01 -2.504938659699e+02 0.0 
0.0 0.0 -1.006228845827e+02 
-8.199629467917e+01 1.021486207591e+01 0.0 
1.021486207591e+01 -1.522255818629e+02 0.0 
0.0 0.0 -6.986656296264e+01 
-7.748429894638e+01 4.627171894431e+00 0.0 
4.627171894431e+00 -1.441479164538e+02 0.0 
0.0 0.0 -6.608966462005e+01 
-3.025230311011e+01 2.060790169611e+01 0.0 
2.060790169611e+01 -1.248735418079e+02 0.0 
0.0 0.0 -4.788538902665e+01 
-3.853993311231e+01 -9.968200430261e-01 0.0 
-9.968200430261e-01 -1.645961168146e+02 0.0 
0.0 0.0 -6.054081497808e+01 
-4.250701255606e+01 -9.941294841866e+00 0.0 
-9.941294841866e+00 -1.561030947124e+02 0.0 
0.0 0.0 -5.918303218053e+01 
-4.474800732510e+01 2.507818368050e+01 0.0 
2.507818368050e+01 -7.028137696896e+01 0.0 
0.0 0.0 -3.410881528822e+01 
-1.018284545883e+02 1.222845530286e+01 0.0 
1.222845530286e+01 -2.009336927143e+02 0.0 
0.0 0.0 -9.042864419080e+01 
-5.183510257556e+01 2.526714102776e+01 0.0 
2.526714102776e+01 -9.241606218299e+01 0.0 
0.0 0.0 -4.287534942757e+01 
-5.373956798217e+01 1.632957865959e+01 0.0 
1.632957865959e+01 -1.858405913790e+02 0.0 
0.0 0.0 -7.147404780834e+01 
-5.133519317210e+01 1.976763508669e+01 0.0 
1.976763508669e+01 -1.728280877640e+02 0.0 
0.0 0.0 -6.684898428084e+01 
-2.596029125371e+01 1.510271791207e+01 0.0 
1.510271791207e+01 -1.125938832311e+02 0.0 
0.0 0.0 -4.264530421496e+01 
-6.587098087243e+01 2.324487119276e+01 0.0 
2.324487119276e+01 -1.792556611071e+02 0.0 
0.0 0.0 -7.313799259385e+01 
-3.632597368513e+01 2.887869848231e+01 0.0 
2.887869848231e+01 -6.892971631265e+01 0.0 
0.0 0.0 -2.990612159948e+01 
-1.326513824135e+02 1.548493830447e+01 0.0 
1.548493830447e+01 -3.019871324740e+02 0.0 
0.0 0.0 -1.299915544662e+02 
-1.341522311564e+02 1.847573143043e+01 0.0 
1.847573143043e+01 -3.063415883341e+02 0.0 
0.0 0.0 -1.317481458472e+02 
-7.813207583986e+01 2.193289199057e+01 0.0 
2.193289199057e+01 -1.718398080836e+02 0.0 
0.0 0.0 -7.459156517704e+01 
-3.631530794428e+01 2.016777034140e+01 0.0 
2.016777034140e+01 -1.420208787699e+02 0.0 
0.0 0.0 -5.310085601425e+01 
-3.276082896883e+01 2.627719642634e+01 0.0 
2.627719642634e+01 -1.066005596750e+02 0.0 
0.0 0.0 -4.140841659314e+01 
-8.709928781327e+01 1.589931937112e+01 0.0 
1.589931937112e+01 -1.717287506291e+02 0.0 
0.0 0.0 -7.724841153270e+01 
-3.220287291747e+01 2.229638590396e+01 0.0 
2.229638590396e+01 -1.242435596406e+02 0.0 
0.0 0.0 -4.653392976743e+01 
-3.654242212600e+01 -6.790735321625e+00 0.0 
-6.790735321625e+00 -1.542767370527e+02 0.0 
0.0 0.0 -5.684574775362e+01 
-7.571557311825e+01 1.700673158255e+01 0.0 
1.700673158255e+01 -1.442806835195e+02 0.0 
0.0 0.0 -6.559887699133e+01 
-1.210114720726e+02 5.606424782936e+00 0.0 
5.606424782936e+00 -2.743500270076e+02 0.0 
0.0 0.0 -1.182084497241e+02 
-4.507075775117e+01 2.104449247171e+01 0.0 
2.104449247171e+01 -1.571558676029e+02 0.0 
0.0 0.0 -6.026798760623e+01 
-9.611656276513e+01 1.793114300062e+01 0.0 
1.793114300062e+01 -2.599657857059e+02 0.0 
0.0 0.0 -1.064247045413e+02 
-3.722062137198e+01 2.947266166718e+01 0.0 
2.947266166718e+01 -9.028871507525e+01 0.0 
0.0 0.0 -3.641585040315e+01 
-1.606343784889e+02 1.302132341018e+01 0.0 
1.302132341018e+01 -3.854969580112e+02 0.0 
0.0 0.0 -1.634394009500e+02 
-3.612546998791e+01 2.447674674132e+01 0.0 
2.447674674132e+01 -1.264082046723e+02 0.0 
0.0 0.0 -4.836010239805e+01 
-7.933711188408e+01 1.908630779523e+01 0.0 
1.908630779523e+01 -1.600326643066e+02 0.0 
0.0 0.0 -7.141093285719e+01 
-2.912474557864e+01 1.570055292989e+01 0.0 
1.570055292989e+01 -1.341877877667e+02 0.0 
0.0 0.0 -5.007893601472e+01 
-9.480775141999e+01 6.944791206253e+00 0.0 
6.944791206253e+00 -2.742006430072e+02 0.0 
0.0 0.0 -1.103025183282e+02 
-5.843696918001e+01 1.867657502827e+01 0.0 
1.867657502827e+01 -1.888315807991e+02 0.0 
0.0 0.0 -7.378056499374e+01 
-4.127671182123e+01 -9.455539983567e+00 0.0 
-9.455539983567e+00 -1.571790650557e+02 0.0 
0.0 0.0 -5.913673306309e+01 
-8.055452315480e+01 1.491908594603e+01 0.0 
1.491908594603e+01 -1.456647471273e+02 0.0 
0.0 0.0 -6.746578108462e+01 
-1.389286800148e+02 2.269412598258e+01 0.0 
2.269412598258e+01 -3.193823447318e+02 0.0 
0.0 0.0 -1.370933074240e+02 
-4.694729896080e+01 1.724452186480e+01 0.0 
1.724452186480e+01 -1.707665007869e+02 0.0 
0.0 0.0 -6.491413992431e+01 
-8.589383592267e+01 1.482516389620e+01 0.0 
1.482516389620e+01 -2.503470115783e+02 0.0 
0.0 0.0 -1.004722542503e+02 
-3.334171129425e+01 2.727432484209e+01 0.0 
2.727432484209e+01 -8.888043096727e+01 0.0 
0.0 0.0 -3.564883013581e+01 
-8.806641434682e+01 3.376398772239e+00 0.0 
3.376398772239e+00 -1.772753298978e+02 0.0 
0.0 0.0 -7.920252327339e+01 
-1.106979183125e+02 3.795453333081e+00 0.0 
3.795453333081e+00 -3.002940490256e+02 0.0 
0.0 0.0 -1.228975902014e+02 
-3.849011178698e+01 2.869856568150e+01 0.0 
2.869856568150e+01 -8.630174102327e+01 0.0 
0.0 0.0 -3.703755584308e+01 
-8.573874998914e+01 4.390357751986e+00 0.0 
4.390357751986e+00 -1.689975283744e+02 0.0 
0.0 0.0 -7.602088350906e+01 
-1.435222978759e+02 2.533081524827e+01 0.0 
2.533081524827e+01 -3.336624530982e+02 0.0 
0.0 0.0 -1.427554252922e+02 
-1.209964600054e+02 5.103008848218e+00 0.0 
5.103008848218e+00 -3.187416500039e+02 0.0 
0.0 0.0 -1.315214330028e+02 
-1.376472141016e+02 2.137394625242e+01 0.0 
2.137394625242e+01 -3.149224971141e+02 0.0 
0.0 0.0 -1.353709133647e+02 
-8.701036596015e+01 5.649891215300e+00 0.0 
5.649891215300e+00 -1.681727112552e+02 0.0 
0.0 0.0 -7.615492316461e+01 
-1.099208914356e+02 1.803455383061e+01 0.0 
1.803455383061e+01 -2.285229335456e+02 0.0 
0.0 0.0 -1.011331474944e+02 
-3.636974260997e+01 2.853427857250e+01 0.0 
2.853427857250e+01 -6.674794876926e+01 0.0 
0.0 0.0 -3.053530741377e+01 
-7.279805969408e+01 1.384622342269e+01 0.0 
1.384622342269e+01 -1.248944757566e+02 0.0 
0.0 0.0 -5.890776063519e+01 
-8.311023383536e+01 1.373234253410e+01 0.0 
1.373234253410e+01 -1.576177020790e+02 0.0 
0.0 0.0 -7.181838077430e+01 
-8.814267878058e+01 1.576192539704e+01 0.0 
1.576192539704e+01 -1.664814785567e+02 0.0 
0.0 0.0 -7.598724720119e+01 
-6.880665883294e+01 2.534037329926e+01 0.0 
2.534037329926e+01 -1.514624577273e+02 0.0 
0.0 0.0 -6.568073496808e+01 
-1.468697274636e+02 2.587859122828e+01 0.0 
2.587859122828e+01 -3.444076542859e+02 0.0 
0.0 0.0 -1.469832145248e+02 
-8.375277864036e+01 5.376186543462e+00 0.0 
5.376186543462e+00 -1.588417660377e+02 0.0 
0.0 0.0 -7.237836340342e+01 
-7.525489201412e+01 8.943233374454e+00 0.0 
8.943233374454e+00 -1.310784624017e+02 0.0 
0.0 0.0 -6.150000632474e+01 
-4.909182634588e+01 1.851214728291e+01 0.0 
1.851214728291e+01 -1.716048087289e+02 0.0 
0.0 0.0 -6.580899052242e+01 
-4.146933363444e+01 -9.331232614770e+00 0.0 
-9.331232614770e+00 -9.250732169320e+01 0.0 
0.0 0.0 -3.979299659829e+01 
-6.824422960370e+01 1.107258328509e+01 0.0 
1.107258328509e+01 -1.127054505201e+02 0.0 
0.0 0.0 -5.388490403713e+01 
-4.066956662180e+01 2.721402953395e+01 0.0 
2.721402953395e+01 -1.057116615776e+02 0.0 
0.0 0.0 -4.351436845982e+01 
-6.272481529245e+01 3.451821030713e-01 0.0 
3.451821030713e-01 -1.232270563813e+02 0.0 
0.0 0.0 -5.538556150212e+01 
-4.769903137525e+01 -1.127058764468e+01 0.0 
-1.127058764468e+01 -1.595167577301e+02 0.0 
0.0 0.0 -6.176473673161e+01 
-4.234757506513e+01 1.938893439834e+01 0.0 
1.938893439834e+01 -1.556619136420e+02 0.0 
0.0 0.0 -5.900284661215e+01 
-1.063529521606e+02 1.081922884586e+01 0.0 
1.081922884586e+01 -2.202021726313e+02 0.0 
0.0 0.0 -9.756653743758e+01 
-3.898060388523e+01 2.814623074462e+01 0.0 
2.814623074462e+01 -1.051674083537e+02 0.0 
0.0 0.0 -4.284440367168e+01 
-7.519626438789e+01 1.272636521102e+01 0.0 
1.272636521102e+01 -1.364568699475e+02 0.0 
0.0 0.0 -6.309594030062e+01 
-9.032970741563e+01 1.279976785887e+01 0.0 
1.279976785887e+01 -2.617521800679e+02 0.0 
0.0 0.0 -1.052245662451e+02 
-8.521688493683e+01 -3.128338844212e+00 0.0 
-3.128338844212e+00 -2.429208869212e+02 0.0 
0.0 0.0 -9.804133155742e+01 
-1.520196867746e+02 2.418951770283e+01 0.0 
2.418951770283e+01 -3.607384940032e+02 0.0 
0.0 0.0 -1.534274542333e+02 
-6.100685763605e+01 1.436527275268e+01 0.0 
1.436527275268e+01 -9.621012032000e+01 0.0 
0.0 0.0 -4.676509338681e+01 
-3.516380125508e+01 4.033261380907e+00 0.0 
4.033261380907e+00 -1.593177703641e+02 0.0 
0.0 0.0 -5.794447148574e+01 
-6.483422479740e+01 -9.058312107816e+00 0.0 
-9.058312107816e+00 -1.769657612808e+02 0.0 
0.0 0.0 -7.213999582345e+01 
-3.879748564704e+01 2.713000028192e+01 0.0 
2.713000028192e+01 -6.598280053891e+01 0.0 
0.0 0.0 -3.103408585579e+01 
-3.875801697255e+01 2.697760057493e+01 0.0 
2.697760057493e+01 -8.614504583236e+01 0.0 
0.0 0.0 -3.707091884147e+01 
-1.166727194537e+02 1.681123268855e+01 0.0 
1.681123268855e+01 -2.458900187062e+02 0.0 
0.0 0.0 -1.083688214480e+02 
-8.327299047420e+01 2.078428750291e+01 0.0 
2.078428750291e+01 -1.661630983339e+02 0.0 
0.0 0.0 -7.443082664242e+01 
-5.299339938535e+01 1.944119924317e+01 0.0 
1.944119924317e+01 -8.013984688608e+01 0.0 
0.0 0.0 -3.953997388143e+01 
-6.700652605126e+01 1.143682593970e+01 0.0 
1.143682593970e+01 -1.152258312053e+02 0.0 
0.0 0.0 -5.426970717696e+01 
-1.568268745170e+02 1.844146590888e+01 0.0 
1.844146590888e+01 -3.769065844635e+02 0.0 
0.0 0.0 -1.597200376941e+02 
-1.457030440530e+02 1.846170725318e+01 0.0 
1.846170725318e+01 -3.572505294731e+02 0.0 
0.0 0.0 -1.504860720578e+02 
-1.142720458287e+02 1.421109515040e+01 0.0 
1.421109515040e+01 -2.440721126671e+02 0.0 
0.0 0.0 -1.071032475487e+02 
-1.050003201693e+02 1.166725027338e+01 0.0 
1.166725027338e+01 -2.106098025394e+02 0.0 
0.0 0.0 -9.428303681260e+01 
-8.373624419228e+01 -2.436831192446e+00 0.0 
-2.436831192446e+00 -2.375548326180e+02 0.0 
0.0 0.0 -9.598732304309e+01 
-5.446768967945e+01 2.665808039356e+01 0.0 
2.665808039356e+01 -1.105327090548e+02 0.0 
0.0 0.0 -4.910011962027e+01 
-3.289017305078e+01 1.703057858802e+01 0.0 
1.703057858802e+01 -1.398591056185e+02 0.0 
0.0 0.0 -5.142478360078e+01 
-3.846733171136e+01 1.587910417555e+01 0.0 
1.587910417555e+01 -1.545286017313e+02 0.0 
0.0 0.0 -5.749878003279e+01 
-7.864141888773e+01 2.242046504545e+01 0.0 
2.242046504545e+01 -1.604415812756e+02 0.0 
0.0 0.0 -7.132490004901e+01 
-9.134037345189e+01 8.538437844841e+00 0.0 
8.538437844841e+00 -2.656114870351e+02 0.0 
0.0 0.0 -1.066855581461e+02 
-8.030434287757e+01 -4.489027792683e+00 0.0 
-4.489027792683e+00 -2.031765852827e+02 0.0 
0.0 0.0 -8.464427844809e+01 
-1.130967941445e+02 1.215074545793e+01 0.0 
1.215074545793e+01 -2.411831468085e+02 0.0 
0.0 0.0 -1.058839822859e+02 
-3.719421445188e+01 -3.604596166313e-01 0.0 
-3.604596166313e-01 -1.591991776873e+02 0.0 
0.0 0.0 -5.851801764176e+01 
-6.381789865679e+01 2.624346261540e+01 0.0 
2.624346261540e+01 -1.483794349650e+02 0.0 
0.0 0.0 -6.325920008653e+01 
-7.942725717376e+01 1.522416923748e+01 0.0 
1.522416923748e+01 -1.504622349017e+02 0.0 
0.0 0.0 -6.856684762264e+01 
-5.679495147746e+01 2.706650398927e+01 0.0 
2.706650398927e+01 -1.285194836350e+02 0.0 
0.0 0.0 -5.519433053373e+01 
-1.366555826685e+02 2.004500184803e+01 0.0 
2.004500184803e+01 -3.109015554506e+02 0.0 
0.0 0.0 -1.338671414357e+02 
-1.327193934638e+02 1.667423625661e+01 0.0 
1.667423625661e+01 -3.035619643139e+02 0.0 
0.0 0.0 -1.304844073333e+02 
-1.280501108347e+02 1.716151540621e+01 0.0 
1.716151540621e+01 -2.831009939117e+02 0.0 
0.0 0.0 -1.229453314239e+02 
-9.181367105251e+01 -5.759149841643e-01 0.0 
-5.759149841643e-01 -2.554131811739e+02 0.0 
0.0 0.0 -1.037680556679e+02 
-1.079058798867e+02 8.618583632710e+00 0.0 
8.618583632710e+00 -2.281990823359e+02 0.0 
0.0 0.0 -1.004314886668e+02 
-3.725841456613e+01 2.777499527307e+01 0.0 
2.777499527307e+01 -8.672484416826e+01 0.0 
0.0 0.0 -3.679497762032e+01 
-4.503114969724e+01 1.518053465289e+01 0.0 
1.518053465289e+01 -1.695007482594e+02 0.0 
0.0 0.0 -6.395956938699e+01 
-2.749390500370e+01 1.263925777250e+01 0.0 
1.263925777250e+01 -1.262055222431e+02 0.0 
0.0 0.0 -4.604729597444e+01 
-5.636725211131e+01 2.277585056419e+01 0.0 
2.277585056419e+01 -9.658860541115e+01 0.0 
0.0 0.0 -4.548675725674e+01 
-6.916433047524e+01 2.587112438427e+00 0.0 
2.587112438427e+00 -1.254766908644e+02 0.0 
0.0 0.0 -5.799230640190e+01 
-8.461627165081e+01 3.337066869596e+00 0.0 
3.337066869596e+00 -1.668388603943e+02 0.0 
0.0 0.0 -7.503653961354e+01 
-1.500206980873e+02 1.294010684064e+01 0.0 
1.294010684064e+01 -3.691498194822e+02 0.0 
0.0 0.0 -1.553511552708e+02 
-1.147344383033e+02 1.622796197607e+01 0.0 
1.622796197607e+01 -2.478222814978e+02 0.0 
0.0 0.0 -1.083670159403e+02 
-8.543827635088e+01 9.378948776918e+00 0.0 
9.378948776918e+00 -1.608341317633e+02 0.0 
0.0 0.0 -7.348172243425e+01 
-9.063800083552e+01 1.458055855969e+01 0.0 
1.458055855969e+01 -1.785652476782e+02 0.0 
0.0 0.0 -8.036097455410e+01 
-2.997408523005e+01 1.147859940623e+01 0.0 
1.147859940623e+01 -1.412229354464e+02 0.0 
0.0 0.0 -5.248781931995e+01 
-2.934621417630e+01 -9.488675002755e+00 0.0 
-9.488675002755e+00 -4.720225729996e+01 0.0 
0.0 0.0 -2.127886251512e+01 
-6.080905133612e+01 2.263903990667e+01 0.0 
2.263903990667e+01 -1.769267518967e+02 0.0 
0.0 0.0 -7.092074096984e+01 
-7.117953272209e+01 2.535831795637e+01 0.0 
2.535831795637e+01 -1.679632044608e+02 0.0 
0.0 0.0 -7.134282115488e+01 
-6.333432582913e+01 2.403312374465e+01 0.0 
2.403312374465e+01 -1.783402830833e+02 0.0 
0.0 0.0 -7.210238267374e+01 
-3.864037701134e+01 3.075923403901e+01 0.0 
3.075923403901e+01 -5.147943207457e+01 0.0 
0.0 0.0 -2.614372909445e+01 
-6.915747133270e+01 6.060800443329e-02 0.0 
6.060800443329e-02 -1.398012223899e+02 0.0 
0.0 0.0 -6.228760811679e+01 
-3.850512799420e+01 -7.860838157645e+00 0.0 
-7.860838157645e+00 -8.569109188813e+01 0.0 
0.0 0.0 -3.685886596470e+01 
-3.909488083458e+01 2.567668978321e+01 0.0 
2.567668978321e+01 -1.250314458956e+02 0.0 
0.0 0.0 -4.883789801905e+01 
-1.651279555170e+02 1.337837393565e+01 0.0 
1.337837393565e+01 -3.866318962064e+02 0.0 
0.0 0.0 -1.651279555170e+02 
-1.000203433580e+02 1.706016960862e+01 0.0 
1.706016960862e+01 -2.730604357301e+02 0.0 
0.0 0.0 -1.115242337264e+02 
-7.233276541858e+01 5.880870723641e+00 0.0 
5.880870723641e+00 -1.292994604748e+02 0.0 
0.0 0.0 -6.008966776802e+01 
-2.097302514871e+01 -9.846120358693e-01 0.0 
-9.846120358693e-01 -5.915572547942e+01 0.0 
0.0 0.0 -2.363862518844e+01 
-7.069038730802e+01 2.251156932611e+01 0.0 
2.251156932611e+01 -1.517069072798e+02 0.0 
0.0 0.0 -6.631918837635e+01 
-5.839704343183e+01 2.285423120799e+01 0.0 
2.285423120799e+01 -1.759461545529e+02 0.0 
0.0 0.0 -6.990295939542e+01 
-9.172483637572e+01 1.456894433952e+01 0.0 
1.456894433952e+01 -1.744573937954e+02 0.0 
0.0 0.0 -7.945466905133e+01 
-1.401646924623e+02 2.358221836165e+01 0.0 
2.358221836165e+01 -3.238468764516e+02 0.0 
0.0 0.0 -1.388034706742e+02 
-7.056117596019e+01 1.004375826598e+01 0.0 
1.004375826598e+01 -1.233279256951e+02 0.0 
0.0 0.0 -5.776673049660e+01 
-8.759888278767e+01 1.922466350199e+01 0.0 
1.922466350199e+01 -1.725526633175e+02 0.0 
0.0 0.0 -7.764546383155e+01 
-7.799012456076e+01 -6.342864291870e+00 0.0 
-6.342864291870e+00 -2.017980970966e+02 0.0 
0.0 0.0 -8.353646649721e+01 
-1.092111906995e+02 1.052713603149e+01 0.0 
1.052713603149e+01 -2.296452781190e+02 0.0 
0.0 0.0 -1.012569406455e+02 
-9.377327794967e+01 -1.455560661663e+00 0.0 
-1.455560661663e+00 -2.613816440508e+02 0.0 
0.0 0.0 -1.061464766002e+02 
-1.423573420090e+02 2.478083228087e+01 0.0 
2.478083228087e+01 -3.287078656273e+02 0.0 
0.0 0.0 -1.409195622909e+02 
-1.327665256980e+02 1.966239973658e+01 0.0 
1.966239973658e+01 -3.111218932954e+02 0.0 
0.0 0.0 -1.327665256980e+02 
-1.274551997726e+02 1.407821295068e+01 0.0 
1.407821295068e+01 -2.987287994693e+02 0.0 
0.0 0.0 -1.274551997726e+02 
-1.290958229624e+02 1.678281262048e+01 0.0 
1.678281262048e+01 -3.025569202455e+02 0.0 
0.0 0.0 -1.290958229624e+02 
-9.404514413740e+01 1.347612449336e+01 0.0 
1.347612449336e+01 -1.859533611587e+02 0.0 
0.0 0.0 -8.359955158884e+01 
-1.117448463502e+02 1.281686643128e+01 0.0 
1.281686643128e+01 -2.311496157487e+02 0.0 
0.0 0.0 -1.024683386297e+02 
-1.180700349188e+02 1.595500359799e+01 0.0 
1.595500359799e+01 -2.570113378642e+02 0.0 
0.0 0.0 -1.121244118349e+02 
-5.854697656361e+01 2.449956646886e+01 0.0 
2.449956646886e+01 -1.288173129698e+02 0.0 
0.0 0.0 -5.580928686001e+01 
-5.546882771352e+01 2.318632938740e+01 0.0 
2.318632938740e+01 -1.103324534913e+02 0.0 
0.0 0.0 -4.934038436145e+01 
-7.647053700822e+01 -4.232145129507e+00 0.0 
-4.232145129507e+00 -1.906546598382e+02 0.0 
0.0 0.0 -7.973755905393e+01 
-1.157168243455e+02 1.461953975332e+01 0.0 
1.461953975332e+01 -2.428174081810e+02 0.0 
0.0 0.0 -1.071602697580e+02 
-1.451274566776e+02 2.579201568345e+01 0.0 
2.579201568345e+01 -3.389033837527e+02 0.0 
0.0 0.0 -1.448092521291e+02 
-1.118464896035e+02 1.014066214709e+01 0.0 
1.014066214709e+01 -2.390132247047e+02 0.0 
0.0 0.0 -1.048579142925e+02 
-9.061012357137e+01 1.691303733247e+01 0.0 
1.691303733247e+01 -2.552887286222e+02 0.0 
0.0 0.0 -1.033696556581e+02 
-1.142996806834e+02 1.234612478242e+01 0.0 
1.234612478242e+01 -2.404861002860e+02 0.0 
0.0 0.0 -1.060357342908e+02 
-1.028940731651e+02 2.267071209477e+01 0.0 
2.267071209477e+01 -2.455437633144e+02 0.0 
0.0 0.0 -1.041313509439e+02 
-6.859122339708e+01 2.398669861012e+01 0.0 
2.398669861012e+01 -1.657165827501e+02 0.0 
0.0 0.0 -6.989234184416e+01 
-5.596927569160e+01 1.802189878380e+01 0.0 
1.802189878380e+01 -9.570688096379e+01 0.0 
0.0 0.0 -4.510284699662e+01 
-3.608383835935e+01 2.801703796768e+01 0.0 
2.801703796768e+01 -1.114450781147e+02 0.0 
0.0 0.0 -4.311678823842e+01 
-1.205884537345e+02 8.713535719339e+00 0.0 
8.713535719339e+00 -2.761220311133e+02 0.0 
0.0 0.0 -1.186131454543e+02 
-5.413145872112e+01 2.561966659156e+01 0.0 
2.561966659156e+01 -1.271868466168e+02 0.0 
0.0 0.0 -5.399549160138e+01 
-1.327750267988e+02 2.216523986285e+01 0.0 
2.216523986285e+01 -3.095714226577e+02 0.0 
0.0 0.0 -1.323039348369e+02 
-7.465203559371e+01 -6.245968811342e+00 0.0 
-6.245968811342e+00 -1.894513110517e+02 0.0 
0.0 0.0 -7.883100399363e+01 
-4.765852879932e+01 -1.435882724247e+01 0.0 
-1.435882724247e+01 -1.459243773081e+02 0.0 
0.0 0.0 -5.767487183223e+01 
-1.549503278779e+02 1.147429359550e+01 0.0 
1.147429359550e+01 -3.724767656189e+02 0.0 
0.0 0.0 -1.578281280491e+02 
-4.220679385059e+01 2.629047307294e+01 0.0 
2.629047307294e+01 -1.242534720540e+02 0.0 
0.0 0.0 -4.953807977137e+01 
-1.346606969106e+02 2.098954278578e+01 0.0 
2.098954278578e+01 -3.155416261248e+02 0.0 
0.0 0.0 -1.346606969106e+02 
-1.251651952013e+02 1.475256397578e+01 0.0 
1.475256397578e+01 -2.843026300061e+02 0.0 
0.0 0.0 -1.224403475622e+02 
-8.678114584999e+01 1.911437906984e+01 0.0 
1.911437906984e+01 -1.807181680287e+02 0.0 
0.0 0.0 -7.984979416361e+01 
-2.143095376131e+01 -5.508140410829e+00 0.0 
-5.508140410829e+00 -2.508212500697e+01 0.0 
0.0 0.0 -1.389234123278e+01 
-1.386516335990e+02 2.299559626527e+01 0.0 
2.299559626527e+01 -3.248538117309e+02 0.0 
0.0 0.0 -1.386516335990e+02 
-1.529078458370e+02 1.496414872142e+01 0.0 
1.496414872142e+01 -3.675509580919e+02 0.0 
0.0 0.0 -1.557376411787e+02 
-4.072501760975e+01 -1.346782031204e+01 0.0 
-1.346782031204e+01 -1.431773569658e+02 0.0 
0.0 0.0 -5.477071237268e+01 
-9.516319382689e+01 1.511495836073e+01 0.0 
1.511495836073e+01 -2.676384917876e+02 0.0 
0.0 0.0 -1.084405056844e+02 
-1.531707713042e+02 2.299911060869e+01 0.0 
2.299911060869e+01 -3.652826799250e+02 0.0 
0.0 0.0 -1.551360353687e+02 
-8.454130322343e+00 -7.205830848289e-01 0.0 
-7.205830848289e-01 -9.496955272466e+00 0.0 
0.0 0.0 -5.955238821231e+00 
-6.133921794653e+01 2.487419908694e+01 0.0 
2.487419908694e+01 -1.466677838779e+02 0.0 
0.0 0.0 -6.200210054733e+01 
-9.076912948981e+01 1.771272140651e+01 0.0 
1.771272140651e+01 -1.862969009859e+02 0.0 
0.0 0.0 -8.271980914272e+01 
-8.257284750729e+01 2.055532594831e+01 0.0 
2.055532594831e+01 -1.759128900855e+02 0.0 
0.0 0.0 -7.714572127785e+01 
-8.328833429244e+01 1.741294709439e+01 0.0 
1.741294709439e+01 -1.654931869150e+02 0.0 
0.0 0.0 -7.423445636223e+01 
-3.679810830086e+01 2.770867861278e+01 0.0 
2.770867861278e+01 -1.082800020736e+02 0.0 
0.0 0.0 -4.271586241070e+01 
-1.433107521191e+02 2.429142891339e+01 0.0 
2.429142891339e+01 -3.357250882779e+02 0.0 
0.0 0.0 -1.433107521191e+02 
-5.229609894603e+01 1.478777527146e+01 0.0 
1.478777527146e+01 -1.848820035725e+02 0.0 
0.0 0.0 -7.075343075557e+01 
-2.569405159761e+01 4.643192252909e+00 0.0 
4.643192252909e+00 -1.188212225279e+02 0.0 
0.0 0.0 -4.542423719473e+01 
-1.575576805369e+02 2.534963605990e+00 0.0 
2.534963605990e+00 -3.767350328432e+02 0.0 
0.0 0.0 -1.598878140140e+02 
-1.367577613359e+01 -3.384446699827e+00 0.0 
-3.384446699827e+00 -2.644848218523e+01 0.0 
0.0 0.0 -1.163727749565e+01 
-6.336147561693e+01 1.318550393744e+01 0.0 
1.318550393744e+01 -1.077289466521e+02 0.0 
0.0 0.0 -5.092712668072e+01 
-3.462219551553e+01 -2.265760283307e+01 0.0 
-2.265760283307e+01 -9.832909885731e+01 0.0 
0.0 0.0 -4.066029217966e+01 
-6.552455228717e+01 7.305157685789e+00 0.0 
7.305157685789e+00 -1.108666552452e+02 0.0 
0.0 0.0 -5.251736225971e+01 
-1.582780374285e+02 1.660413723134e+01 0.0 
1.660413723134e+01 -3.802158378364e+02 0.0 
0.0 0.0 -1.611481625795e+02 
-1.484501965601e+02 2.441174398818e+01 0.0 
2.441174398818e+01 -3.477171253068e+02 0.0 
0.0 0.0 -1.484501965601e+02 
-8.648768850977e+01 1.246770856708e+01 0.0 
1.246770856708e+01 -1.651240228912e+02 0.0 
0.0 0.0 -7.508351342028e+01 
-3.370104311190e+01 -2.346246373315e+01 0.0 
-2.346246373315e+01 -6.699410513215e+01 0.0 
0.0 0.0 -3.031175648010e+01 
-2.896697360998e+01 9.671525982998e+00 0.0 
9.671525982998e+00 -1.241919399563e+02 0.0 
0.0 0.0 -4.829039003660e+01 
-4.363420486081e+01 -2.527135139509e+01 0.0 
-2.527135139509e+01 -8.781371375470e+01 0.0 
0.0 0.0 -3.781439795809e+01 
-1.344740087089e+02 3.365427625607e+00 0.0 
3.365427625607e+00 -3.337889036399e+02 0.0 
0.0 0.0 -1.400788737046e+02 
-6.931906082792e+01 2.864712049277e+00 0.0 
2.864712049277e+00 -1.260535600593e+02 0.0 
0.0 0.0 -5.821178626616e+01 
-7.849039784978e+01 8.415302316261e+00 0.0 
8.415302316261e+00 -1.398192744788e+02 0.0 
0.0 0.0 -6.509290169858e+01 
-1.533486906540e+02 2.343701304826e+01 0.0 
2.343701304826e+01 -3.591469448592e+02 0.0 
0.0 0.0 -1.533486906540e+02 
-6.803393987788e+01 2.515943481979e+00 0.0 
2.515943481979e+00 -1.255318957761e+02 0.0 
0.0 0.0 -5.766975069619e+01 
-1.308482902853e+02 1.382301578292e+01 0.0 
1.382301578292e+01 -2.996766021640e+02 0.0 
0.0 0.0 -1.287574677348e+02 
-1.072720953097e+02 2.057407774415e+01 0.0 
2.057407774415e+01 -2.599202384352e+02 0.0 
0.0 0.0 -1.097577001235e+02 
-7.998929998804e+01 2.306372204676e+00 0.0 
2.306372204676e+00 -1.570346236942e+02 0.0 
0.0 0.0 -7.070717710467e+01 
-4.098497279860e+01 2.633471206163e+01 0.0 
2.633471206163e+01 -8.604036224290e+01 0.0 
0.0 0.0 -3.770760051245e+01 
-9.530343671856e+01 1.478927118716e+01 0.0 
1.478927118716e+01 -2.676329429656e+02 0.0 
0.0 0.0 -1.084809139052e+02 
-2.772840359328e+01 1.964988658405e+01 0.0 
1.964988658405e+01 -1.100456119168e+02 0.0 
0.0 0.0 -4.104631014102e+01 
-1.575404221230e+02 2.135740966580e+01 0.0 
2.135740966580e+01 -3.689276516203e+02 0.0 
0.0 0.0 -1.575404221230e+02 
-1.308543358708e+02 1.814303433498e+01 0.0 
1.814303433498e+01 -3.066601170320e+02 0.0 
0.0 0.0 -1.308543358708e+02 
-1.283739192875e+02 1.547683949959e+01 0.0 
1.547683949959e+01 -3.008724783375e+02 0.0 
0.0 0.0 -1.283739192875e+02 
-9.706601960734e+01 -6.109230116062e-01 0.0 
-6.109230116062e-01 -2.629574228474e+02 0.0 
0.0 0.0 -1.076070327364e+02 
-7.235697653449e+01 -3.728067175504e+00 0.0 
-3.728067175504e+00 -1.781352904882e+02 0.0 
0.0 0.0 -7.474768010681e+01 
-6.605409749330e+01 2.576831832741e+01 0.0 
2.576831832741e+01 -1.650325158431e+02 0.0 
0.0 0.0 -6.892598400092e+01 
-9.908351650052e+01 -1.544909165522e+00 0.0 
-1.544909165522e+00 -2.688245215408e+02 0.0 
0.0 0.0 -1.099724114124e+02 
-1.609750550472e+02 1.856506952394e+01 0.0 
1.856506952394e+01 -3.769417951102e+02 0.0 
0.0 0.0 -1.609750550472e+02 
-3.575452817068e+01 2.465745184412e+01 0.0 
2.465745184412e+01 -1.233974568015e+02 0.0 
0.0 0.0 -4.734559549166e+01 
-4.284970745911e+01 -4.611830395927e+00 0.0 
-4.611830395927e+00 -1.690659725819e+02 0.0 
0.0 0.0 -6.317470401231e+01 
-4.763218803386e+01 -6.937115528890e+00 0.0 
-6.937115528890e+00 -1.733150163446e+02 0.0 
0.0 0.0 -6.588416131353e+01 
-8.378205627678e+01 2.454597759807e+00 0.0 
2.454597759807e+00 -1.678496396771e+02 0.0 
0.0 0.0 -7.508950878617e+01 
-1.617821158672e+02 1.128472999312e+01 0.0 
1.128472999312e+01 -3.874467360353e+02 0.0 
0.0 0.0 -1.643686555707e+02 
-4.516810716003e+01 -2.300863824763e+01 0.0 
-2.300863824763e+01 -6.214455084573e+01 0.0 
0.0 0.0 -3.072241479800e+01 
-1.639328544828e+02 1.504590553819e+01 0.0 
1.504590553819e+01 -3.838433271266e+02 0.0 
0.0 0.0 -1.639328544828e+02 
-4.628827286707e+01 -1.072338120102e+01 0.0 
-1.072338120102e+01 -1.606103363748e+02 0.0 
0.0 0.0 -6.166958277256e+01 
-1.368234701890e+02 2.215464471160e+01 0.0 
2.215464471160e+01 -3.205880971076e+02 0.0 
0.0 0.0 -1.368234701890e+02 
-1.205068528917e+02 1.845376802632e+01 0.0 
1.845376802632e+01 -2.586522856678e+02 0.0 
0.0 0.0 -1.133477415679e+02 
-6.825833076526e+00 -4.618901524050e-01 0.0 
-4.618901524050e-01 -7.099235562320e+00 0.0 
0.0 0.0 -1.516600035271e+00 
-6.359187713099e+01 2.437264327639e+01 0.0 
2.437264327639e+01 -1.632804171344e+02 0.0 
0.0 0.0 -6.766168827960e+01 
-1.131300315521e+02 1.044968758485e+01 0.0 
1.044968758485e+01 -2.396219603867e+02 0.0 
0.0 0.0 -1.054255975816e+02 
-1.410502933633e+02 2.383551142423e+01 0.0 
2.383551142423e+01 -3.304506845144e+02 0.0 
0.0 0.0 -1.410502933633e+02 
-9.548817284005e+01 1.653428889703e+01 0.0 
1.653428889703e+01 -1.871425705740e+02 0.0 
0.0 0.0 -8.438922302421e+01 
-1.107969909034e+02 2.013487406979e+01 0.0 
2.013487406979e+01 -2.739210179530e+02 0.0 
0.0 0.0 -1.150154026569e+02 
-3.682048105087e+01 3.044205028722e+01 0.0 
3.044205028722e+01 -9.448541237719e+01 0.0 
0.0 0.0 -3.878143489634e+01 
-1.435784123650e+02 1.316840067903e+01 0.0 
1.316840067903e+01 -3.542187811653e+02 0.0 
0.0 0.0 -1.489391580591e+02 
-5.127466939176e+01 -1.103268182313e+01 0.0 
-1.103268182313e+01 -1.648359275922e+02 0.0 
0.0 0.0 -6.443317909520e+01 
-5.310304208860e+01 -8.413011674157e+00 0.0 
-8.413011674157e+00 -1.753576181332e+02 0.0 
0.0 0.0 -6.813819806655e+01 
-4.839815563484e+01 -2.512842943971e+01 0.0 
-2.512842943971e+01 -4.871622608343e+01 0.0 
0.0 0.0 -2.824171415517e+01 
-1.458250700598e+02 2.448117419245e+01 0.0 
2.448117419245e+01 -3.415918301396e+02 0.0 
0.0 0.0 -1.458250700598e+02 
-2.991108892454e+01 1.839922682770e+01 0.0 
1.839922682770e+01 -1.256145289733e+02 0.0 
0.0 0.0 -4.609940186335e+01 
-1.276458409191e+02 7.948066583136e+00 0.0 
7.948066583136e+00 -3.292932623777e+02 0.0 
0.0 0.0 -1.366817309890e+02 
-7.707292602462e+01 3.558564443574e+00 0.0 
3.558564443574e+00 -1.475803123006e+02 0.0 
0.0 0.0 -6.699597149756e+01 
-5.313572234740e+01 -1.198415352280e+01 0.0 
-1.198415352280e+01 -1.382801349255e+02 0.0 
0.0 0.0 -5.702475718187e+01 
-4.793354152227e+01 -7.036451047718e+00 0.0 
-7.036451047718e+00 -1.707224443088e+02 0.0 
0.0 0.0 -6.519679574932e+01 
-9.168526851859e+01 1.777383770249e+01 0.0 
1.777383770249e+01 -1.796282568377e+02 0.0 
0.0 0.0 -8.099405760688e+01 
-1.555355264320e+02 2.257986867038e+01 0.0 
2.257986867038e+01 -3.642495616747e+02 0.0 
0.0 0.0 -1.555355264320e+02 
-7.483954913710e+01 -4.885570383997e+00 0.0 
-4.885570383997e+00 -1.853342153658e+02 0.0 
0.0 0.0 -7.765212935087e+01 
-1.093711477921e+02 2.756168855388e+00 0.0 
2.756168855388e+00 -2.916377876519e+02 0.0 
0.0 0.0 -1.199026806332e+02 
-8.090942872571e+01 2.235139677931e+01 0.0 
2.235139677931e+01 -1.878780322257e+02 0.0 
0.0 0.0 -8.023623828543e+01 
-9.284044355563e+01 4.538975567667e+00 0.0 
4.538975567667e+00 -2.665804580568e+02 0.0 
0.0 0.0 -1.074262704837e+02 
-4.876861777570e+01 -2.237084722399e+00 0.0 
-2.237084722399e+00 -1.795676490058e+02 0.0 
0.0 0.0 -6.810088003446e+01 
-1.003550974751e+02 1.151817772220e+00 0.0 
1.151817772220e+00 -2.734236608322e+02 0.0 
0.0 0.0 -1.117336274922e+02 
-7.628914417533e+01 2.453527646157e+01 0.0 
2.453527646157e+01 -1.715539977865e+02 0.0 
0.0 0.0 -7.395294258856e+01 
-1.044295860246e+02 2.231589109008e+01 0.0 
2.231589109008e+01 -2.360895562474e+02 0.0 
0.0 0.0 -1.017557426816e+02 
-1.046859896474e+02 1.491808735544e+01 0.0 
1.491808735544e+01 -2.850541880165e+02 0.0 
0.0 0.0 -1.165220532992e+02 
-7.602503209129e+01 2.305829741256e+01 0.0 
2.305829741256e+01 -1.846388711721e+02 0.0 
0.0 0.0 -7.779917097901e+01 
-7.367098983886e+01 -7.314036507187e+00 0.0 
-7.314036507187e+00 -1.943193621430e+02 0.0 
0.0 0.0 -7.999710559457e+01 
-3.944476125005e+01 2.616673674600e+01 0.0 
2.616673674600e+01 -1.230559489575e+02 0.0 
0.0 0.0 -4.835021306227e+01 
-7.103104359359e+01 -5.858123232091e+00 0.0 
-5.858123232091e+00 -1.771154094388e+02 0.0 
0.0 0.0 -7.404393590970e+01 
-1.063620059966e+02 2.228524386517e+01 0.0 
2.228524386517e+01 -2.599668393979e+02 0.0 
0.0 0.0 -1.094986536184e+02 
-8.134142734394e+01 1.262325645147e+01 0.0 
1.262325645147e+01 -2.449501158866e+02 0.0 
0.0 0.0 -9.748746296915e+01 
-1.595344575747e+02 1.490058739924e+01 0.0 
1.490058739924e+01 -3.830867462092e+02 0.0 
0.0 0.0 -1.623863611352e+02 
-1.169685749004e+02 1.193451032301e+01 0.0 
1.193451032301e+01 -2.500105954739e+02 0.0 
0.0 0.0 -1.096937511123e+02 
-4.779962387937e+01 -1.299861138680e+01 0.0 
-1.299861138680e+01 -1.217841062594e+02 0.0 
0.0 0.0 -5.047511904163e+01 
-1.626297013293e+02 1.675076949212e+01 0.0 
1.675076949212e+01 -3.808026364350e+02 0.0 
0.0 0.0 -1.626297013293e+02 
-1.489568407762e+02 1.479165093138e+01 0.0 
1.479165093138e+01 -3.667877359313e+02 0.0 
0.0 0.0 -1.543233730123e+02 
-6.843280696985e+01 2.161438862338e+01 0.0 
2.161438862338e+01 -1.944329324996e+02 0.0 
0.0 0.0 -7.845972184085e+01 
-3.041716978146e+01 -1.593059811263e+01 0.0 
-1.593059811263e+01 -3.134884666800e+01 0.0 
0.0 0.0 -1.840423503894e+01 
-1.625117472453e+02 9.613418668131e+00 0.0 
9.613418668131e+00 -3.888501599461e+02 0.0 
0.0 0.0 -1.650085721574e+02 
-1.180033322449e+02 1.390635785900e+01 0.0 
1.390635785900e+01 -2.514603958936e+02 0.0 
0.0 0.0 -1.104391184415e+02 
-4.562767147370e+01 -1.354522243839e+01 0.0 
-1.354522243839e+01 -1.464646629121e+02 0.0 
0.0 0.0 -5.722770031575e+01 
-1.659703243473e+02 1.170124360194e+01 0.0 
1.170124360194e+01 -3.885974234769e+02 0.0 
0.0 0.0 -1.659703243473e+02 
-1.057207492575e+02 1.017269018296e+00 0.0 
1.017269018296e+00 -2.813183601925e+02 0.0 
0.0 0.0 -1.157117328350e+02 
-5.989483660230e+01 2.103497388290e+01 0.0 
2.103497388290e+01 -1.132774245378e+02 0.0 
0.0 0.0 -5.155167834204e+01 
-8.093312637360e+01 7.386927782504e+00 0.0 
7.386927782504e+00 -1.494034288696e+02 0.0 
0.0 0.0 -6.870096657296e+01 
-7.694720758404e+01 1.462977321884e+01 0.0 
1.462977321884e+01 -2.334149251490e+02 0.0 
0.0 0.0 -9.270863981991e+01 
-8.882298021730e+01 -2.346312768554e+00 0.0 
-2.346312768554e+00 -2.446129525428e+02 0.0 
0.0 0.0 -9.963077982803e+01 
-9.658993982591e+01 7.091350186272e+00 0.0 
7.091350186272e+00 -2.749889473326e+02 0.0 
0.0 0.0 -1.110736661476e+02 
-9.769198465286e+01 1.042078221277e+01 0.0 
1.042078221277e+01 -1.899303997780e+02 0.0 
0.0 0.0 -8.588671532926e+01 
-6.791887779259e+01 1.631824515376e+01 0.0 
1.631824515376e+01 -1.229723928266e+02 0.0 
0.0 0.0 -5.686738118575e+01 
-1.097380666052e+02 1.649796421005e+01 0.0 
1.649796421005e+01 -2.908645158160e+02 0.0 
0.0 0.0 -1.197807747263e+02 
-7.636475173147e+01 6.030510263223e-01 0.0 
6.030510263223e-01 -1.566485952563e+02 0.0 
0.0 0.0 -6.950400409632e+01 
-7.636395510047e+01 -5.562465581319e+00 0.0 
-5.562465581319e+00 -1.958377134314e+02 0.0 
0.0 0.0 -8.126050055955e+01 
-9.962254845934e+01 1.308198362563e+01 0.0 
1.308198362563e+01 -2.788830065011e+02 0.0 
0.0 0.0 -1.131516664881e+02 
-5.680773679275e+01 -1.100792868636e+01 0.0 
-1.100792868636e+01 -1.671934562014e+02 0.0 
0.0 0.0 -6.680035789826e+01 
-1.065534131533e+02 -2.565314144458e+00 0.0 
-2.565314144458e+00 -2.682347524477e+02 0.0 
0.0 0.0 -1.120364496803e+02 
-8.858461777066e+00 -1.201655600751e+00 0.0 
-1.201655600751e+00 -8.862188467593e+00 0.0 
0.0 0.0 -4.916195073398e+00 
-4.331256121092e+01 2.720160309061e+01 0.0 
2.720160309061e+01 -1.234011339164e+02 0.0 
0.0 0.0 -4.961410853818e+01 
-5.240162295361e+01 -1.149743366080e+01 0.0 
-1.149743366080e+01 -1.630479732126e+02 0.0 
0.0 0.0 -6.423487884985e+01 
-8.226075415674e+01 -5.406746039813e+00 0.0 
-5.406746039813e+00 -2.095332144385e+02 0.0 
0.0 0.0 -8.713819057857e+01 
-7.353421640050e+01 2.224920416505e+01 0.0 
2.224920416505e+01 -1.972240772092e+02 0.0 
0.0 0.0 -8.082748808292e+01 
-1.027419120141e+02 8.315983099832e-02 0.0 
8.315983099832e-02 -2.798578592322e+02 0.0 
0.0 0.0 -1.143799313739e+02 
-8.149749830616e+01 3.447062335999e+00 0.0 
3.447062335999e+00 -1.597158462841e+02 0.0 
0.0 0.0 -7.196400337707e+01 
-5.162585996102e+01 -1.338180936216e+01 0.0 
-1.338180936216e+01 -1.490420467550e+02 0.0 
0.0 0.0 -5.980037201480e+01 
-1.666496512574e+02 1.012051846145e+01 0.0 
1.012051846145e+01 -3.901825196007e+02 0.0 
0.0 0.0 -1.666496512574e+02 
-9.067937019636e+01 2.078653444883e+01 0.0 
2.078653444883e+01 -1.868614724361e+02 0.0 
0.0 0.0 -8.286225278975e+01 
-8.647342254099e+01 -4.558101514893e+00 0.0 
-4.558101514893e+00 -2.173242065380e+02 0.0 
0.0 0.0 -9.073928872370e+01 
-8.610146055428e+01 2.213003955079e+01 0.0 
2.213003955079e+01 -1.810328120874e+02 0.0 
0.0 0.0 -7.974028179249e+01 
-8.425037138915e+01 -3.529987896833e+00 0.0 
-3.529987896833e+00 -2.107769049790e+02 0.0 
0.0 0.0 -8.810818291046e+01 
-1.344073568379e+01 -8.967253660984e-01 0.0 
-8.967253660984e-01 -9.564550602130e+00 0.0 
0.0 0.0 -7.475831865024e+00 
-8.665797752918e+01 9.607079736666e+00 0.0 
9.607079736666e+00 -1.601961160520e+02 0.0 
0.0 0.0 -7.365622807436e+01 
-7.076449752803e+01 -2.455652382358e+00 0.0 
-2.455652382358e+00 -1.712579662174e+02 0.0 
0.0 0.0 -7.220673912363e+01 
-8.877841461500e-01 -2.198707181629e-01 0.0 
-2.198707181629e-01 -9.044212314851e+00 0.0 
0.0 0.0 -2.579062609345e+00 
-8.264840434084e+01 -4.437885147057e+00 0.0 
-4.437885147057e+00 -2.052691207500e+02 0.0 
0.0 0.0 -8.597525752725e+01 
-1.121473632179e+02 1.503022824173e+00 0.0 
1.503022824173e+00 -2.983577344127e+02 0.0 
0.0 0.0 -1.227515292892e+02 
-1.051325857820e+02 1.960383003960e+00 0.0 
1.960383003960e+00 -2.325198067923e+02 0.0 
0.0 0.0 -1.008957177723e+02 
-8.754408754013e+01 5.819475069365e+00 0.0 
5.819475069365e+00 -2.579729340304e+02 0.0 
0.0 0.0 -1.032551064711e+02 
-9.051372376570e+01 4.449847384026e+00 0.0 
4.449847384026e+00 -2.655754116992e+02 0.0 
0.0 0.0 -1.064267406395e+02 
-7.054847274028e+01 6.753826835877e+00 0.0 
6.753826835877e+00 -1.208023266194e+02 0.0 
0.0 0.0 -5.700523980791e+01 
-6.000127289726e+01 1.320911690108e+00 0.0 
1.320911690108e+00 -1.069590327705e+02 0.0 
0.0 0.0 -4.968809170032e+01 
-1.229043480169e+02 1.140674572365e+01 0.0 
1.140674572365e+01 -2.794728805026e+02 0.0 
0.0 0.0 -1.203131685558e+02 
-8.129205380240e+01 2.341164079291e+01 0.0 
2.341164079291e+01 -1.759007465014e+02 0.0 
0.0 0.0 -7.675784009115e+01 
-2.534422096987e+00 -2.505397913834e-01 0.0 
-2.505397913834e-01 -7.076828541748e+00 0.0 
0.0 0.0 -1.759342291460e+00 
-3.200417896210e+01 -5.171018794214e+00 0.0 
-5.171018794214e+00 -7.109448934240e+01 0.0 
0.0 0.0 -3.052960049135e+01 
-2.608882010934e+01 -9.351073574409e+00 0.0 
-9.351073574409e+00 -2.765971963404e+01 0.0 
0.0 0.0 -1.604615628176e+01 
-5.261657598862e+01 -9.335695476357e+00 0.0 
-9.335695476357e+00 -1.288149087545e+02 0.0 
0.0 0.0 -5.402944542295e+01 
-1.205745075307e+02 2.162657768857e+01 0.0 
2.162657768857e+01 -2.680669192966e+02 0.0 
0.0 0.0 -1.161924280482e+02 
-1.062827436542e+02 3.710608433941e+00 0.0 
3.710608433941e+00 -2.333091011564e+02 0.0 
0.0 0.0 -1.014775534432e+02 
-1.280912074163e+02 9.091837567908e-01 0.0 
9.091837567908e-01 -3.217731678549e+02 0.0 
0.0 0.0 -1.345593125814e+02 
-5.783867771118e+01 -6.314443037024e+00 0.0 
-6.314443037024e+00 -1.420157055065e+02 0.0 
0.0 0.0 -5.955631496529e+01 
-1.085286250721e+02 -9.337603195864e-01 0.0 
-9.337603195864e-01 -2.694470912834e+02 0.0 
0.0 0.0 -1.129927149066e+02 
-1.315043786797e+02 6.215561125954e+00 0.0 
6.215561125954e+00 -3.369526426713e+02 0.0 
0.0 0.0 -1.401371064053e+02 
-2.606317134981e+01 4.400577874362e+00 0.0 
4.400577874362e+00 -1.272477072381e+02 0.0 
0.0 0.0 -4.715894030558e+01 
-7.094022147105e+01 -7.678932782070e-02 0.0 
-7.678932782070e-02 -1.713943882795e+02 0.0 
0.0 0.0 -7.230038292516e+01 
-5.844295459351e+01 -1.720732557844e+00 0.0 
-1.720732557844e+00 -1.406873183286e+02 0.0 
0.0 0.0 -5.933908187663e+01 
-1.630947774461e+02 7.970257158438e+00 0.0 
7.970257158438e+00 -3.896642559996e+02 0.0 
0.0 0.0 -1.654277100337e+02 
-1.671123021737e+02 8.600937400425e+00 0.0 
8.600937400425e+00 -3.912620384052e+02 0.0 
0.0 0.0 -1.671123021737e+02 
-7.871326593786e+01 -2.795065608395e-01 0.0 
-2.795065608395e-01 -1.906046383327e+02 0.0 
0.0 0.0 -8.039537128116e+01 
-8.828498537890e+01 -2.647422158087e+00 0.0 
-2.647422158087e+00 -2.185095955217e+02 0.0 
0.0 0.0 -9.163837427018e+01 
-9.043392401076e+01 -3.111624244422e+00 0.0 
-3.111624244422e+00 -2.500878046469e+02 0.0 
0.0 0.0 -1.017565185973e+02 
-1.363042027606e+02 8.166331668033e+00 0.0 
8.166331668033e+00 -3.461088371706e+02 0.0 
0.0 0.0 -1.443239119793e+02 
-3.630049278731e+01 -7.172121867681e+00 0.0 
-7.172121867681e+00 -7.900108785017e+01 0.0 
0.0 0.0 -3.419047419125e+01 
-1.265985020191e+02 4.427905602500e+00 0.0 
4.427905602500e+00 -3.271394655042e+02 0.0 
0.0 0.0 -1.357213902570e+02 
-1.414497438574e+01 -1.162105875363e+00 0.0 
-1.162105875363e+00 -4.285773183883e+01 0.0 
0.0 0.0 -1.670081186737e+01 
-8.015375372185e+01 -3.271727801772e+00 0.0 
-3.271727801772e+00 -1.984407690500e+02 0.0 
0.0 0.0 -8.317835683156e+01 
-8.807175960747e+01 -3.528894787543e+00 0.0 
-3.528894787543e+00 -2.230709506242e+02 0.0 
0.0 0.0 -9.294281306951e+01 
-6.317683011347e+00 -4.553246676165e-01 0.0 
-4.553246676165e-01 -2.568527800055e+01 0.0 
0.0 0.0 -9.346709783833e+00 
-7.502565296384e+01 -1.727647220373e+00 0.0 
-1.727647220373e+00 -1.807625944866e+02 0.0 
0.0 0.0 -7.633647423514e+01 
-1.141782565570e+02 9.938669080906e+00 0.0 
9.938669080906e+00 -2.483343295896e+02 0.0 
0.0 0.0 -1.083537758440e+02 
-1.859122598435e+00 -2.460269004373e-01 0.0 
-2.460269004373e-01 -7.585602668756e+00 0.0 
0.0 0.0 -1.654054227485e+00 
-6.134154274644e+01 1.767337166498e+00 0.0 
1.767337166498e+00 -1.075866161310e+02 0.0 
0.0 0.0 -5.027844766323e+01 
-6.165009713100e+01 2.337151123932e+00 0.0 
2.337151123932e+00 -1.086014856164e+02 0.0 
0.0 0.0 -5.067547482422e+01 
-1.006859307392e+02 9.578410439423e+00 0.0 
9.578410439423e+00 -2.827459368332e+02 0.0 
0.0 0.0 -1.146295602717e+02 
-5.820612202318e+01 4.668722517204e-01 0.0 
4.668722517204e-01 -1.404706409598e+02 0.0 
0.0 0.0 -5.920302889490e+01 
-5.030263617060e+01 -1.288405144181e+01 0.0 
-1.288405144181e+01 -1.508852493041e+02 0.0 
0.0 0.0 -5.995636564240e+01 
-3.430073100479e+01 2.834915739871e+01 0.0 
2.834915739871e+01 -8.756318894833e+01 0.0 
0.0 0.0 -3.615917598594e+01 
-1.427899939257e+02 1.589345974896e+00 0.0 
1.589345974896e+00 -3.480928975831e+02 0.0 
0.0 0.0 -1.468648674526e+02 
-1.382058511842e+02 2.304401381100e+01 0.0 
2.304401381100e+01 -3.225181361286e+02 0.0 
0.0 0.0 -1.378171961939e+02 
-1.033668511274e+02 5.008281530647e+00 0.0 
5.008281530647e+00 -2.209422837392e+02 0.0 
0.0 0.0 -9.689274045997e+01 
-4.073811601726e+01 2.821104517515e+01 0.0 
2.821104517515e+01 -8.627246507930e+01 0.0 
0.0 0.0 -3.770317432897e+01 
-2.698659981230e+01 -6.030456584444e+00 0.0 
-6.030456584444e+00 -4.944425921119e+01 0.0 
0.0 0.0 -2.205219181763e+01 
-6.904750358713e+01 1.560009212479e+01 0.0 
1.560009212479e+01 -1.168643129843e+02 0.0 
0.0 0.0 -5.537354497142e+01 
-5.841748637082e+01 4.705662111113e-01 0.0 
4.705662111113e-01 -1.072227144121e+02 0.0 
0.0 0.0 -4.929206023486e+01 
-5.747056410441e+01 5.332352080748e-01 0.0 
5.332352080748e-01 -1.070080132701e+02 0.0 
0.0 0.0 -4.894357321236e+01 
-4.663800710271e-01 -2.872990547643e-01 0.0 
-2.872990547643e-01 -9.229450314625e+00 0.0 
0.0 0.0 -2.522971891273e+00 
-6.722387584284e+00 -5.330122027694e-01 0.0 
-5.330122027694e-01 -2.554394064438e+01 0.0 
0.0 0.0 -9.566628508009e+00 
-1.390569671650e+01 -2.350811001800e-01 0.0 
-2.350811001800e-01 -4.215525382722e+01 0.0 
0.0 0.0 -1.641828516312e+01 
-4.589235606870e+01 -7.229823077010e+00 0.0 
-7.229823077010e+00 -1.077324744523e+02 0.0 
0.0 0.0 -4.568744915629e+01 
-6.384717481116e+00 -3.400303051158e-01 0.0 
-3.400303051158e-01 -2.568792964983e+01 0.0 
0.0 0.0 -8.628838447242e+00 
-8.276417412151e+01 -1.614270423319e+00 0.0 
-1.614270423319e+00 -2.009765632796e+02 0.0 
0.0 0.0 -8.472222122032e+01 
-4.719833894991e+01 -1.257103657443e+01 0.0 
-1.257103657443e+01 -6.032918554320e+01 0.0 
0.0 0.0 -3.282659271308e+01 
-5.299454258480e+01 -7.529028274297e+00 0.0 
-7.529028274297e+00 -1.283080503112e+02 0.0 
0.0 0.0 -5.399077786881e+01 
-8.279927096720e+01 4.838616141662e-01 0.0 
4.838616141662e-01 -1.736493543705e+02 0.0 
0.0 0.0 -7.653458760132e+01 
-5.946249188158e+01 1.124923777299e+00 0.0 
1.124923777299e+00 -1.073028243995e+02 0.0 
0.0 0.0 -4.962959488432e+01 
-1.241760851435e+02 2.125012882335e+01 0.0 
2.125012882335e+01 -2.743416983045e+02 0.0 
0.0 0.0 -1.191553350344e+02 
-1.081452341251e+02 -9.634115066175e-02 0.0 
-9.634115066175e-02 -2.875279550134e+02 0.0 
0.0 0.0 -1.183019567416e+02 
-7.554772467833e+01 1.367424626404e-01 0.0 
1.367424626404e-01 -1.558894451303e+02 0.0 
0.0 0.0 -6.903115094257e+01 
-6.227288503574e+01 -1.142929264590e+00 0.0 
-1.142929264590e+00 -1.502284360503e+02 0.0 
0.0 0.0 -6.335039632582e+01 
-1.313625542709e+01 -5.278356021950e-01 0.0 
-5.278356021950e-01 -4.262708486576e+01 0.0 
0.0 0.0 -1.632900208786e+01 
-1.237036543361e+02 5.876935186086e+00 0.0 
5.876935186086e+00 -2.899751934509e+02 0.0 
0.0 0.0 -1.237036543361e+02 
-1.265150894965e+02 6.437902249373e+00 0.0 
6.437902249373e+00 -2.913505093177e+02 0.0 
0.0 0.0 -1.249596796443e+02 
-7.531988799488e+01 1.270915835601e+00 0.0 
1.270915835601e+00 -1.465865143306e+02 0.0 
0.0 0.0 -6.617192069763e+01 
-5.864048948915e+01 6.653816700326e-01 0.0 
6.653816700326e-01 -1.068418022816e+02 0.0 
0.0 0.0 -4.924468753122e+01 
-6.320902853758e+01 -5.145511471336e-01 0.0 
-5.145511471336e-01 -1.524151516733e+02 0.0 
0.0 0.0 -6.428725406327e+01 
-1.258493037768e+02 4.589785137747e+00 0.0 
4.589785137747e+00 -2.903568971038e+02 0.0 
0.0 0.0 -1.244618602642e+02 
-5.031535874525e+01 -6.267350903485e+00 0.0 
-6.267350903485e+00 -1.210715305886e+02 0.0 
0.0 0.0 -5.101606680017e+01 
-6.042595376859e+01 1.673469340488e+00 0.0 
1.673469340488e+00 -1.076779080100e+02 0.0 
0.0 0.0 -5.003115853357e+01 
-5.970406364490e+01 9.069162618010e-01 0.0 
9.069162618010e-01 -1.068880897688e+02 0.0 
0.0 0.0 -4.957764602410e+01 
-6.191492895144e+01 8.440540770308e+00 0.0 
8.440540770308e+00 -1.021201228188e+02 0.0 
0.0 0.0 -4.881051553107e+01 
-1.268860125711e+02 1.284379746311e+01 0.0 
1.284379746311e+01 -2.974006959993e+02 0.0 
0.0 0.0 -1.268860125711e+02 
-1.269717870653e+02 5.368747932076e+00 0.0 
5.368747932076e+00 -2.913182401268e+02 0.0 
0.0 0.0 -1.250870081577e+02 
-6.575725714906e+00 -4.379573416054e-01 0.0 
-4.379573416054e-01 -2.549013621105e+01 0.0 
0.0 0.0 -8.651534756019e+00 
-3.032800170865e-01 -2.456452455140e-01 0.0 
-2.456452455140e-01 -9.280386098955e+00 0.0 
0.0 0.0 -2.368189828674e+00 
-2.851069122452e+01 -5.532265551931e+00 0.0 
-5.532265551931e+00 -5.884094810162e+01 0.0 
0.0 0.0 -2.579292200242e+01 
-8.568375609726e+01 -5.278342575984e+00 0.0 
-5.278342575984e+00 -2.216856421618e+02 0.0 
0.0 0.0 -9.181081947773e+01 
-1.520748265414e+02 -7.951142534172e-01 0.0 
-7.951142534172e-01 -3.596202954343e+02 0.0 
0.0 0.0 -1.531085365927e+02 
-8.563225217252e+01 -2.252813747975e+01 0.0 
-2.252813747975e+01 -7.749334170366e+01 0.0 
0.0 0.0 -4.921371999726e+01 
-9.892313524711e+01 1.313729152562e+00 0.0 
1.313729152562e+00 -2.165009883611e+02 0.0 
0.0 0.0 -9.422723708247e+01 
-2.998073692393e+01 -9.788171534668e+00 0.0 
-9.788171534668e+00 -1.062314295350e+01 0.0 
0.0 0.0 -1.276211400396e+01 
-9.984623806775e+01 5.600766891419e+00 0.0 
5.600766891419e+00 -2.829178764416e+02 0.0 
0.0 0.0 -1.144292343528e+02 
-1.616900271590e+01 -4.642622617538e+00 0.0 
-4.642622617538e+00 -1.212784746443e+01 0.0 
0.0 0.0 -7.474002695529e+00 
-4.292354470013e+01 -2.335482489747e+01 0.0 
-2.335482489747e+01 -3.566778674234e+01 0.0 
0.0 0.0 -2.356465980676e+01 
-9.563088133433e+01 3.256004336388e+00 0.0 
3.256004336388e+00 -2.737035146084e+02 0.0 
0.0 0.0 -1.104003187828e+02 
-1.470374517690e+02 -1.789337254637e-01 0.0 
-1.789337254637e-01 -3.503249332539e+02 0.0 
0.0 0.0 -1.488087155069e+02 
-8.278425627124e+01 9.777590123650e-01 0.0 
9.777590123650e-01 -1.725531673789e+02 0.0 
0.0 0.0 -7.620122709503e+01 
-7.271710538439e+01 1.837340618405e+01 0.0 
1.837340618405e+01 -1.305999635188e+02 0.0 
0.0 0.0 -6.059512067095e+01 
-5.869106634547e+00 -2.424398416944e-01 0.0 
-2.424398416944e-01 -2.567827033652e+01 0.0 
0.0 0.0 -9.179043367109e+00 
-1.127843808235e+02 -4.499696313910e-01 0.0 
-4.499696313910e-01 -2.771166360354e+02 0.0 
0.0 0.0 -1.165703050577e+02 
-1.227340744825e+02 1.885380896032e+00 0.0 
1.885380896032e+00 -2.877128404592e+02 0.0 
0.0 0.0 -1.227340744825e+02 
-1.251605022812e+02 2.689252542809e+00 0.0 
2.689252542809e+00 -2.894231180870e+02 0.0 
0.0 0.0 -1.239750861105e+02 
-5.866552614722e+01 7.673893887700e-01 0.0 
7.673893887700e-01 -1.070409940202e+02 0.0 
0.0 0.0 -4.931195605022e+01 
-1.043752255021e+02 7.894912837229e+00 0.0 
7.894912837229e+00 -2.915179275249e+02 0.0 
0.0 0.0 -1.183679459081e+02 
-1.236411631654e+02 4.754145039118e+00 0.0 
4.754145039118e+00 -2.898293807194e+02 0.0 
0.0 0.0 -1.236411631654e+02 
-1.103163810316e+02 2.174342295324e+01 0.0 
2.174342295324e+01 -2.740515939254e+02 0.0 
0.0 0.0 -1.149103924871e+02 
-1.237649048144e+01 -4.792704831883e-01 0.0 
-4.792704831883e-01 -4.152048825140e+01 0.0 
0.0 0.0 -1.576909361985e+01 
-6.073112467381e+00 -2.540816839365e-01 0.0 
-2.540816839365e-01 -2.544992051269e+01 0.0 
0.0 0.0 -8.448136487485e+00 
-5.328904254636e+00 5.058543713179e-02 0.0 
5.058543713179e-02 -2.513923980050e+01 0.0 
0.0 0.0 -8.740443216542e+00 
-7.074414719802e+01 -1.096693700707e+00 0.0 
-1.096693700707e+00 -1.705336218846e+02 0.0 
0.0 0.0 -7.198333072479e+01 
-1.659967059966e+02 1.262386483547e+00 0.0 
1.262386483547e+00 -3.905978578541e+02 0.0 
0.0 0.0 -1.665783691552e+02 
-1.170557588181e+02 1.052598874124e+00 0.0 
1.052598874124e+00 -2.672790570425e+02 0.0 
0.0 0.0 -1.149004447582e+02 
2.660004359228e-01 -3.122016149924e-02 0.0 
-3.122016149924e-02 -9.228519724273e+00 0.0 
0.0 0.0 -2.122611199343e+00 
-8.318966538858e+01 4.287259339558e-01 0.0 
4.287259339558e-01 -2.011631256928e+02 0.0 
0.0 0.0 -8.490583732440e+01 
-1.674501861423e+02 6.412712525976e-01 0.0 
6.412712525976e-01 -3.920504343321e+02 0.0 
0.0 0.0 -1.674501861423e+02 
-1.655416091155e+02 9.305044241506e-01 0.0 
9.305044241506e-01 -3.902760323490e+02 0.0 
0.0 0.0 -1.663452924393e+02 
-1.634965205649e+02 6.671526263326e+00 0.0 
6.671526263326e+00 -3.900789462977e+02 0.0 
0.0 0.0 -1.656726400588e+02 
-9.140264974146e+01 -5.985907636966e-01 0.0 
-5.985907636966e-01 -1.967470715320e+02 0.0 
0.0 0.0 -8.604491638205e+01 
-1.028012904995e+02 9.391601559613e-01 0.0 
9.391601559613e-01 -2.268634834708e+02 0.0 
0.0 0.0 -9.849943219108e+01 
-1.667260275826e+02 9.755088992317e-01 0.0 
9.755088992317e-01 -3.903607310261e+02 0.0 
0.0 0.0 -1.667260275826e+02 
-1.671796501562e+02 1.429930945631e+00 0.0 
1.429930945631e+00 -3.914191836978e+02 0.0 
0.0 0.0 -1.671796501562e+02 
-9.899338105677e+01 -3.594285432541e-01 0.0 
-3.594285432541e-01 -2.166153940568e+02 0.0 
0.0 0.0 -9.428263253407e+01 
-6.716670116947e-01 -3.328996345411e-01 0.0 
-3.328996345411e-01 -6.674244651924e+00 0.0 
0.0 0.0 -1.099622558176e+00 
-5.636754539828e+01 1.854077735499e-01 0.0 
1.854077735499e-01 -1.060576620926e+02 0.0 
0.0 0.0 -4.832756224728e+01 
-5.804641894486e+01 4.425001640226e-01 0.0 
4.425001640226e-01 -1.071277520890e+02 0.0 
0.0 0.0 -4.915225131015e+01 
1.035191897479e-02 -1.370815871085e-01 0.0 
-1.370815871085e-01 -9.247932580624e+00 0.0 
0.0 0.0 -2.252697920638e+00 
-1.677590242522e+02 3.057684090849e+00 0.0 
3.057684090849e+00 -3.927710565886e+02 0.0 
0.0 0.0 -1.677590242522e+02 
-1.636269947788e+02 5.293196943258e+00 0.0 
5.293196943258e+00 -3.900812287754e+02 0.0 
0.0 0.0 -1.657124670663e+02 
-1.671963078810e+02 4.816877765218e+00 0.0 
4.816877765218e+00 -3.914580517223e+02 0.0 
0.0 0.0 -1.671963078810e+02 
-9.497608693637e-01 -9.674646012203e-02 0.0 
-9.674646012203e-02 -7.758167191674e+00 0.0 
0.0 0.0 -1.418557843947e+00 
-1.296021679587e+00 -2.366441860897e-01 0.0 
-2.366441860897e-01 -7.846013455473e+00 0.0 
0.0 0.0 -1.528871578063e+00 
-1.672398050405e+02 7.224749335912e+00 0.0 
7.224749335912e+00 -3.915595450946e+02 0.0 
0.0 0.0 -1.672398050405e+02 
-1.673644639994e+02 6.018586145934e+00 0.0 
6.018586145934e+00 -3.918504159985e+02 0.0 
0.0 0.0 -1.673644639994e+02 
-8.742254817872e+01 9.722056981230e-01 0.0 
9.722056981230e-01 -1.867449066528e+02 0.0 
0.0 0.0 -8.185023644946e+01 
-5.539085922254e+01 -8.939472414141e-02 0.0 
-8.939472414141e-02 -1.056756390851e+02 0.0 
0.0 0.0 -4.791994949230e+01 
-9.539390000945e+01 9.721967328989e-01 0.0 
9.721967328989e-01 -2.067735648534e+02 0.0 
0.0 0.0 -9.025023945884e+01 
-7.181705666046e+01 9.113452665915e-01 0.0 
9.113452665915e-01 -1.470968561934e+02 0.0 
0.0 0.0 -6.527417385614e+01 
-5.537259814224e+01 -5.258476799612e-02 0.0 
-5.258476799612e-02 -1.057990124151e+02 0.0 
0.0 0.0 -4.795148316722e+01 
-3.202858862337e+00 -3.312968472776e-01 0.0 
-3.312968472776e-01 -7.229896541818e+00 0.0 
0.0 0.0 -1.980460985504e+00 
-4.039129079915e+00 1.181320092887e-01 0.0 
1.181320092887e-01 -7.884473463782e+00 0.0 
0.0 0.0 -2.262551350709e+00 
-4.446125287295e+00 -8.287060548453e-02 0.0 
-8.287060548453e-02 -7.717791057842e+00 0.0 
0.0 0.0 -2.447292934316e+00 
-5.490615828550e+00 -3.392018954621e-01 0.0 
-3.392018954621e-01 -7.658314392045e+00 0.0 
0.0 0.0 -1.866775797908e+00 
-8.730228575992e+01 -1.196554234306e+00 0.0 
-1.196554234306e+00 -2.114318678267e+02 0.0 
0.0 0.0 -8.922024607598e+01 
-7.906286176024e+01 -1.110033793170e+00 0.0 
-1.110033793170e+00 -1.908933685275e+02 0.0 
0.0 0.0 -8.058686908632e+01 
-3.444681112132e+00 -3.707053913304e-01 0.0 
-3.707053913304e-01 -9.332978707540e+00 0.0 
0.0 0.0 -4.410325416837e+00 
-1.124866880856e+02 -1.034550603069e+00 0.0 
-1.034550603069e+00 -2.709916719953e+02 0.0 
0.0 0.0 -1.146435080243e+02 
-5.128333031508e+00 -6.837844672335e-01 0.0 
-6.837844672335e-01 -9.390894106407e+00 0.0 
0.0 0.0 -4.927607314148e+00 
-1.251977565307e+02 1.011315398718e+01 0.0 
1.011315398718e+01 -2.934614319049e+02 0.0 
0.0 0.0 -1.251977565307e+02 
-1.232082697627e+02 3.944031737206e+00 0.0 
3.944031737206e+00 -2.888192961129e+02 0.0 
0.0 0.0 -1.232082697627e+02 
-1.238890281453e+02 6.830373059986e+00 0.0 
6.830373059986e+00 -2.904077323389e+02 0.0 
0.0 0.0 -1.238890281453e+02 
-2.633622657553e+01 -1.259911118257e+00 0.0 
-1.259911118257e+00 -6.906644891178e+01 0.0 
0.0 0.0 -2.822080264619e+01 
-5.378180054465e+01 -1.154694021664e+00 0.0 
-1.154694021664e+00 -1.298973093963e+02 0.0 
0.0 0.0 -5.470373298228e+01 
-1.228645597770e+02 3.175224380059e+00 0.0 
3.175224380059e+00 -2.880173061463e+02 0.0 
0.0 0.0 -1.228645597770e+02 
-1.389354138483e+02 -8.003971895091e-01 0.0 
-8.003971895091e-01 -3.307860782487e+02 0.0 
0.0 0.0 -1.405164476291e+02 
-1.236932749240e+02 2.572154489704e+00 0.0 
2.572154489704e+00 -2.899509748226e+02 0.0 
0.0 0.0 -1.236932749240e+02 
-1.478698382170e+02 -8.192976816062e-01 0.0 
-8.192976816062e-01 -3.504661872353e+02 0.0 
0.0 0.0 -1.491008076357e+02 
-1.569599089035e+02 -9.027298446836e-01 0.0 
-9.027298446836e-01 -3.700955984627e+02 0.0 
0.0 0.0 -1.577166522099e+02 
-7.490332812143e+01 4.764490545367e-01 0.0 
4.764490545367e-01 -1.807113416140e+02 0.0 
0.0 0.0 -7.628440092062e+01 
-1.253995445287e+02 3.744195634820e+00 0.0 
3.744195634820e+00 -2.894163162387e+02 0.0 
0.0 0.0 -1.240447582302e+02 
-1.250375112377e+02 2.460242797471e+00 0.0 
2.460242797471e+00 -2.895462875647e+02 0.0 
0.0 0.0 -1.239751396407e+02 
-1.430287145722e+02 9.428399354883e-01 0.0 
9.428399354883e-01 -3.397007581081e+02 0.0 
0.0 0.0 -1.444188418041e+02 
-1.522291181214e+02 9.834220786799e-01 0.0 
9.834220786799e-01 -3.598301856262e+02 0.0 
0.0 0.0 -1.532177911243e+02 
-1.211628681864e+02 2.645574502359e-01 0.0 
2.645574502359e-01 -2.929039687561e+02 0.0 
0.0 0.0 -1.238200510827e+02 
-2.049627821659e+01 -3.384799060870e+00 0.0 
-3.384799060870e+00 -9.437303735925e+00 0.0 
0.0 0.0 -9.556550768634e+00 
-7.572455312166e+01 -2.792904545211e+00 0.0 
-2.792904545211e+00 -1.861328105200e+02 0.0 
0.0 0.0 -7.815720909251e+01 
-6.713227569118e+00 -3.749185648327e-01 0.0 
-3.749185648327e-01 -2.504002862579e+01 0.0 
0.0 0.0 -8.612475618969e+00 
-1.439508800956e+02 2.866412638635e+00 0.0 
2.866412638635e+00 -3.487727865178e+02 0.0 
0.0 0.0 -1.474170999840e+02 
-7.866744679089e+01 -5.269457756700e+00 0.0 
-5.269457756700e+00 -1.973775500274e+02 0.0 
0.0 0.0 -8.241349904549e+01 
-1.335069002960e+02 -5.362703552075e-01 0.0 
-5.362703552075e-01 -3.229217369193e+02 0.0 
0.0 0.0 -1.365285911646e+02 
-4.245177193877e+01 -5.659963048591e+00 0.0 
-5.659963048591e+00 -9.991438718260e+01 0.0 
0.0 0.0 -4.230984773641e+01 
-1.662374458465e+01 -2.121138305201e+00 0.0 
-2.121138305201e+00 -4.155242720220e+01 0.0 
0.0 0.0 -1.705285153605e+01 
-1.433567312372e+02 1.413687054651e+00 0.0 
1.413687054651e+00 -3.426725663035e+02 0.0 
0.0 0.0 -1.454087892622e+02 
-8.418930197516e+01 -2.373510042994e+00 0.0 
-2.373510042994e+00 -2.063962139434e+02 0.0 
0.0 0.0 -8.677565477556e+01 
-6.630272369544e+01 -1.776226349819e+00 0.0 
-1.776226349819e+00 -1.605278089275e+02 0.0 
0.0 0.0 -6.764915978687e+01 
-1.345101825970e+02 1.006645616672e+00 0.0 
1.006645616672e+00 -3.236973871845e+02 0.0 
0.0 0.0 -1.370622709345e+02 
-1.090083028082e+02 5.582302397668e-01 0.0 
5.582302397668e-01 -2.447818048028e+02 0.0 
0.0 0.0 -1.057370322833e+02 
-6.660080567651e+01 4.827840375097e-01 0.0 
4.827840375097e-01 -1.605944738851e+02 0.0 
0.0 0.0 -6.775858386847e+01 
-1.187903789636e+02 4.203192471633e+00 0.0 
4.203192471633e+00 -3.099323355557e+02 0.0 
0.0 0.0 -1.282168143558e+02 
-1.056309120157e+02 -2.326851662985e+00 0.0 
-2.326851662985e+00 -2.723070435993e+02 0.0 
0.0 0.0 -1.129813866845e+02 
-1.200289474117e+02 -1.445036928000e+00 0.0 
-1.445036928000e+00 -2.920460447892e+02 0.0 
0.0 0.0 -1.232224976602e+02 
-1.243922657460e+02 -1.117090229403e+00 0.0 
-1.117090229403e+00 -3.005207396245e+02 0.0 
0.0 0.0 -1.270739016112e+02 
-4.928243837008e+01 1.317327693968e+01 0.0 
1.317327693968e+01 -1.823169060717e+02 0.0 
0.0 0.0 -6.907980333253e+01 
-6.507980034867e+01 1.764755445138e+01 0.0 
1.764755445138e+01 -1.093670360034e+02 0.0 
0.0 0.0 -5.193405090562e+01 
-6.842337973813e+01 2.465900169264e+01 0.0 
2.465900169264e+01 -1.809980198579e+02 0.0 
0.0 0.0 -7.442641987882e+01 
-1.111296310801e+02 -2.132634481715e+00 0.0 
-2.132634481715e+00 -2.760441109140e+02 0.0 
0.0 0.0 -1.157521225982e+02 
-1.387109283109e+02 1.119729403279e+00 0.0 
1.119729403279e+00 -3.318531417503e+02 0.0 
0.0 0.0 -1.407692210184e+02 
-1.287270868760e+02 -9.672108424084e-01 0.0 
-9.672108424084e-01 -3.092683793167e+02 0.0 
0.0 0.0 -1.309986398578e+02 
-4.535717796747e+01 -1.154706096381e+01 0.0 
-1.154706096381e+01 -1.070174251779e+02 0.0 
0.0 0.0 -4.531238094361e+01 
-1.091528789809e+02 1.518739354273e+00 0.0 
1.518739354273e+00 -2.437671694920e+02 0.0 
0.0 0.0 -1.054760145419e+02 
-1.016250827461e+02 1.206987954501e+00 0.0 
1.206987954501e+00 -2.233784731875e+02 0.0 
0.0 0.0 -9.710106678008e+01 
-6.672085331358e+01 -4.202491346322e-01 0.0 
-4.202491346322e-01 -1.324051550681e+02 0.0 
0.0 0.0 -5.933780251451e+01 
-1.152672947294e+02 -1.653367574005e+00 0.0 
-1.653367574005e+00 -2.876914543670e+02 0.0 
0.0 0.0 -1.204876247289e+02 
-1.156284698670e+02 -1.752992797112e+00 0.0 
-1.752992797112e+00 -2.840042111529e+02 0.0 
0.0 0.0 -1.194898043060e+02 
-1.097953462415e+02 2.376917182326e+00 0.0 
2.376917182326e+00 -2.458448411383e+02 0.0 
0.0 0.0 -1.062920562139e+02 
-1.055159563369e+02 1.032442088469e+00 0.0 
1.032442088469e+00 -2.342957752188e+02 0.0 
0.0 0.0 -1.015435194667e+02 
-1.034331990621e+02 -1.308358695708e+00 0.0 
-1.308358695708e+00 -2.662565602161e+02 0.0 
0.0 0.0 -1.105069277835e+02 
-1.476069564748e+02 1.351530203095e+00 0.0 
1.351530203095e+00 -3.507648053288e+02 0.0 
0.0 0.0 -1.491115285411e+02 
-1.016808971629e+02 3.206983938549e+00 0.0 
3.206983938549e+00 -2.199209576878e+02 0.0 
0.0 0.0 -9.608055645520e+01 
-1.292272554982e+02 6.910608826123e-01 0.0 
6.910608826123e-01 -3.094805081299e+02 0.0 
0.0 0.0 -1.312123290884e+02 
-1.489869563299e+02 2.810939346341e+00 0.0 
2.810939346341e+00 -3.575164647527e+02 0.0 
0.0 0.0 -1.515510263248e+02 
-1.098754203299e+02 3.441057373605e+00 0.0 
3.441057373605e+00 -2.445289061474e+02 0.0 
0.0 0.0 -1.059212979432e+02 
-9.166497540599e+01 2.777730893904e+00 0.0 
2.777730893904e+00 -1.931277064216e+02 0.0 
0.0 0.0 -8.503780454826e+01 
-1.147638618420e+02 2.497298279513e+00 0.0 
2.497298279513e+00 -2.996822476040e+02 0.0 
0.0 0.0 -1.239338328338e+02 
-4.170606016768e+01 -3.389202083293e+00 0.0 
-3.389202083293e+00 -1.005573523957e+02 0.0 
0.0 0.0 -4.227902376900e+01 
-4.352998081691e+01 -1.332386593550e+01 0.0 
-1.332386593550e+01 -1.009652314204e+02 0.0 
0.0 0.0 -4.294856367119e+01 
-2.189280516879e+01 -2.645710774205e+00 0.0 
-2.645710774205e+00 -4.858631954331e+01 0.0 
0.0 0.0 -2.074373741363e+01 
-3.084401340260e+01 -1.217365165628e+01 0.0 
-1.217365165628e+01 -3.391295235031e+01 0.0 
0.0 0.0 -1.810066811023e+01 
-1.062732964161e+02 2.732774352260e+00 0.0 
2.732774352260e+00 -2.348554076654e+02 0.0 
0.0 0.0 -1.019386112244e+02 
-1.422812969354e+02 -4.970279569082e-01 0.0 
-4.970279569082e-01 -3.393497594871e+02 0.0 
0.0 0.0 -1.440893169267e+02 
-1.984250302219e+01 -6.605184176986e+00 0.0 
-6.605184176986e+00 -2.845664545382e+01 0.0 
0.0 0.0 -1.336499901705e+01 
-1.195138482289e+02 1.620316618431e+01 0.0 
1.620316618431e+01 -2.541995928979e+02 0.0 
0.0 0.0 -1.117140323380e+02 
-7.098881490776e+01 -4.850966631212e-02 0.0 
-4.850966631212e-02 -1.414610984782e+02 0.0 
0.0 0.0 -6.333497401578e+01 
-1.302989518868e+02 9.167790648131e-01 0.0 
9.167790648131e-01 -3.158712723522e+02 0.0 
0.0 0.0 -1.334510672717e+02 
-1.331931101563e+02 -7.850231396298e-01 0.0 
-7.850231396298e-01 -3.198907155824e+02 0.0 
0.0 0.0 -1.355251477216e+02 
-5.458559611253e+01 -1.182560448215e+01 0.0 
-1.182560448215e+01 -1.559382400970e+02 0.0 
0.0 0.0 -6.275715086286e+01 
-1.338889767965e+02 8.645978632235e-01 0.0 
8.645978632235e-01 -3.205256232362e+02 0.0 
0.0 0.0 -1.359243800098e+02 
-6.746867405546e+01 1.676455343458e+00 0.0 
1.676455343458e+00 -1.326590677246e+02 0.0 
0.0 0.0 -5.963832253403e+01 
-1.047209879184e+02 1.551525446859e+01 0.0 
1.551525446859e+01 -2.851948380721e+02 0.0 
0.0 0.0 -1.165747477972e+02 
-1.531856025728e+02 9.192106693617e-01 0.0 
9.192106693617e-01 -3.653772123557e+02 0.0 
0.0 0.0 -1.551688444786e+02 
-3.949873152773e+01 -1.970808393380e+00 0.0 
-1.970808393380e+00 -9.684416683205e+01 0.0 
0.0 0.0 -4.050286950794e+01 
-1.486795702003e+02 3.717431172173e+00 0.0 
3.717431172173e+00 -3.597089144145e+02 0.0 
0.0 0.0 -1.521165453844e+02 
-9.539917250738e+01 2.551608570022e+00 0.0 
2.551608570022e+00 -2.040763098860e+02 0.0 
0.0 0.0 -8.944264471803e+01 
-4.508999198016e+01 -2.909125503804e+00 0.0 
-2.909125503804e+00 -1.090656603870e+02 0.0 
0.0 0.0 -4.584669571015e+01 
-5.019875302590e+01 -1.097058394523e+01 0.0 
-1.097058394523e+01 -1.232040784799e+02 0.0 
0.0 0.0 -5.162084945173e+01 
-9.467113943730e+01 -2.209253561425e+00 0.0 
-2.209253561425e+00 -2.303644926463e+02 0.0 
0.0 0.0 -9.711068962508e+01 
-8.279813540947e+01 1.045347766554e+00 0.0 
1.045347766554e+00 -1.706942704898e+02 0.0 
0.0 0.0 -7.564772176979e+01 
-6.354889849742e+01 -6.276921219499e+00 0.0 
-6.276921219499e+00 -1.567609549869e+02 0.0 
0.0 0.0 -6.569295604530e+01 
-9.907627936099e+01 2.416002527640e+00 0.0 
2.416002527640e+00 -2.149186984444e+02 0.0 
0.0 0.0 -9.379849334163e+01 
-8.765120573451e+01 2.301034190992e+00 0.0 
2.301034190992e+00 -1.835396704789e+02 0.0 
0.0 0.0 -8.095726286401e+01 
-9.067622279323e+01 -3.745697404745e+00 0.0 
-3.745697404745e+00 -2.253448039591e+02 0.0 
0.0 0.0 -9.440630802570e+01 
-1.250625904166e+02 5.192427552674e-01 0.0 
5.192427552674e-01 -3.009739085055e+02 0.0 
0.0 0.0 -1.274109496766e+02 
-1.298382444750e+02 7.379377454805e-01 0.0 
7.379377454805e-01 -3.124366830362e+02 0.0 
0.0 0.0 -1.322824782534e+02 
-9.417083931746e+01 7.811743594272e-01 0.0 
7.811743594272e-01 -2.031946780339e+02 0.0 
0.0 0.0 -8.880965520541e+01 
-3.457788282900e+01 -2.108264826708e+00 0.0 
-2.108264826708e+00 -8.408356440924e+01 0.0 
0.0 0.0 -3.519843417147e+01 
-8.671447932855e+01 -3.558439040652e+00 0.0 
-3.558439040652e+00 -2.135747464402e+02 0.0 
0.0 0.0 -8.968676773064e+01 
-1.243580682070e+02 1.821163802092e+01 0.0 
1.821163802092e+01 -3.145792525968e+02 0.0 
0.0 0.0 -1.312811962412e+02 
-9.914969307995e+01 3.232938125463e+00 0.0 
3.232938125463e+00 -2.132314916207e+02 0.0 
0.0 0.0 -9.331435541018e+01 
-7.857203428883e+01 -4.145317491007e+00 0.0 
-4.145317491007e+00 -1.931141973740e+02 0.0 
0.0 0.0 -8.110586949885e+01 
-1.080942507854e+02 -8.695543689558e-01 0.0 
-8.695543689558e-01 -2.736846075555e+02 0.0 
0.0 0.0 -1.141336575022e+02 
-1.441494368589e+02 4.224088487239e+00 0.0 
4.224088487239e+00 -3.521531263598e+02 0.0 
0.0 0.0 -1.484907689656e+02 
-9.063817022667e+01 1.043998191980e+00 0.0 
1.043998191980e+00 -1.924012629023e+02 0.0 
0.0 0.0 -8.451182993868e+01 
-3.128904093824e+01 -8.024769421598e+00 0.0 
-8.024769421598e+00 -1.214891507759e+02 0.0 
0.0 0.0 -4.794481240321e+01 
-1.873496603887e+01 -1.359350347678e+00 0.0 
-1.359350347678e+00 -4.674620015062e+01 0.0 
0.0 0.0 -1.924434985685e+01 
-2.907870923629e+01 5.011642909725e+00 0.0 
5.011642909725e+00 -1.391605534213e+02 0.0 
0.0 0.0 -4.977211856270e+01 
-1.379208461120e+02 -5.232725080583e-01 0.0 
-5.232725080583e-01 -3.311629349886e+02 0.0 
0.0 0.0 -1.403251343302e+02 
-8.665725629702e+01 1.091911572663e+00 0.0 
1.091911572663e+00 -1.815250327295e+02 0.0 
0.0 0.0 -8.005468670795e+01 
-1.039020338164e+02 1.217794433906e-01 0.0 
1.217794433906e-01 -2.509011613760e+02 0.0 
0.0 0.0 -1.060409585577e+02 
-7.501651663958e+01 4.974833069481e-01 0.0 
4.974833069481e-01 -1.509392298185e+02 0.0 
0.0 0.0 -6.738672393742e+01 
-1.331863471161e+02 7.205736230947e+00 0.0 
7.205736230947e+00 -3.378716441665e+02 0.0 
0.0 0.0 -1.409173973848e+02 
-9.480786099161e+01 -3.033589936448e+00 0.0 
-3.033589936448e+00 -2.334811494273e+02 0.0 
0.0 0.0 -9.808670312567e+01 
-1.289339389817e+02 -9.224084859175e-01 0.0 
-9.224084859175e-01 -3.116892638716e+02 0.0 
0.0 0.0 -1.317869608560e+02 
-4.125855872984e+01 -1.177152980352e+00 0.0 
-1.177152980352e+00 -1.008808810323e+02 0.0 
0.0 0.0 -4.224183192864e+01 
-1.480906908344e+02 1.142307942032e+00 0.0 
1.142307942032e+00 -3.572317075148e+02 0.0 
0.0 0.0 -1.511967195048e+02 
-9.217298104037e+01 -1.827463399762e+00 0.0 
-1.827463399762e+00 -2.264114938160e+02 0.0 
0.0 0.0 -9.517534245690e+01 
-4.472927704738e+01 -6.174773783355e-01 0.0 
-6.174773783355e-01 -1.094232039975e+02 0.0 
0.0 0.0 -4.584574431347e+01 
-8.786788044846e+01 -1.492049537833e+00 0.0 
-1.492049537833e+00 -2.145465131925e+02 0.0 
0.0 0.0 -9.032431809228e+01 
-6.711985317049e+01 -5.254024927552e+00 0.0 
-5.254024927552e+00 -1.648672553039e+02 0.0 
0.0 0.0 -6.919613254233e+01 
-5.328364334423e+01 -5.131393680283e+00 0.0 
-5.131393680283e+00 -1.289669213125e+02 0.0 
0.0 0.0 -5.427516939701e+01 
-1.028626243754e+02 -1.843334042115e+00 0.0 
-1.843334042115e+00 -2.499185087108e+02 0.0 
0.0 0.0 -1.054343399258e+02 
-2.110226666672e+00 3.264226402895e-02 0.0 
3.264226402895e-02 -9.608793031959e+00 0.0 
0.0 0.0 -3.184186811213e+00 
-2.973486769528e+00 -4.027161364915e-01 0.0 
-4.027161364915e-01 -9.718399687871e+00 0.0 
0.0 0.0 -3.754622226975e+00 
-1.169808979938e+02 -5.319109121224e-02 0.0 
-5.319109121224e-02 -2.849511831386e+02 0.0 
0.0 0.0 -1.201796243397e+02 
-3.787958908672e+01 -1.672907926889e+00 0.0 
-1.672907926889e+00 -9.259679113588e+01 0.0 
0.0 0.0 -3.874291406678e+01 
-1.170935175985e+02 -6.197155077624e-02 0.0 
-6.197155077624e-02 -2.888154082669e+02 0.0 
0.0 0.0 -1.213726777596e+02 
-1.126523200366e+02 -4.524476562475e-01 0.0 
-4.524476562475e-01 -2.812145407276e+02 0.0 
0.0 0.0 -1.177600582293e+02 
-7.061942115712e+01 -7.298482740001e+00 0.0 
-7.298482740001e+00 -1.817148787027e+02 0.0 
0.0 0.0 -7.530028995793e+01 
-4.520758697348e+01 -1.501122540868e+01 0.0 
-1.501122540868e+01 -1.312683687972e+02 0.0 
0.0 0.0 -5.254278673120e+01 
-1.066546342881e+02 4.829225397747e+00 0.0 
4.829225397747e+00 -2.318057277387e+02 0.0 
0.0 0.0 -1.011381086080e+02 
-2.988590952396e+01 2.720639655690e+01 0.0 
2.720639655690e+01 -9.610822468338e+01 0.0 
0.0 0.0 -3.912173788868e+01 
-7.077576294646e+01 -4.295601845524e+00 0.0 
-4.295601845524e+00 -1.733659123617e+02 0.0 
0.0 0.0 -7.284250259245e+01 
-1.379177699555e+02 9.023798378449e+00 0.0 
9.023798378449e+00 -3.466851671632e+02 0.0 
0.0 0.0 -1.449808811356e+02 
-3.281373940266e+01 -2.948122179319e+00 0.0 
-2.948122179319e+00 -7.979848000410e+01 0.0 
0.0 0.0 -3.338366582203e+01 
-8.008365267929e+01 2.236969338794e+00 0.0 
2.236969338794e+00 -1.624459079971e+02 0.0 
0.0 0.0 -7.235886820290e+01 
-7.201706596728e+01 1.814864588487e+00 0.0 
1.814864588487e+00 -1.422546746563e+02 0.0 
0.0 0.0 -6.388152218707e+01 
-3.419578195658e+01 -4.522560549638e+00 0.0 
-4.522560549638e+00 -7.875182764695e+01 0.0 
0.0 0.0 -3.348428288106e+01 
-1.390613768154e+02 4.582458842295e+00 0.0 
4.582458842295e+00 -3.442279736294e+02 0.0 
0.0 0.0 -1.445868051334e+02 
-9.608310579034e+01 4.286452863952e+00 0.0 
4.286452863952e+00 -2.008359110099e+02 0.0 
0.0 0.0 -8.867570504006e+01 
-3.859965678606e+01 -3.859691716079e+00 0.0 
-3.859691716079e+00 -9.226873677788e+01 0.0 
0.0 0.0 -3.886051806918e+01 
-1.102574918991e+02 5.660502058209e+00 0.0 
5.660502058209e+00 -2.409085199462e+02 0.0 
0.0 0.0 -1.049498035536e+02 
-1.084340237329e+02 4.028766560297e+00 0.0 
4.028766560297e+00 -2.397713706109e+02 0.0 
0.0 0.0 -1.040616183031e+02 
-4.310066707199e+01 -2.608275031958e+00 0.0 
-2.608275031958e+00 -1.040257173778e+02 0.0 
0.0 0.0 -4.373791533494e+01 
-4.374200127723e+01 2.806718964297e+01 0.0 
2.806718964297e+01 -8.645162826744e+01 0.0 
0.0 0.0 -3.865808886340e+01 
-4.530182264903e+01 -4.732343969302e+00 0.0 
-4.732343969302e+00 -1.080405018843e+02 0.0 
0.0 0.0 -4.560269735999e+01 
-1.257525902265e+02 5.256313633127e-01 0.0 
5.256313633127e-01 -3.044231421562e+02 0.0 
0.0 0.0 -1.286527197148e+02 
-9.887929693091e+01 -2.403754748294e+00 0.0 
-2.403754748294e+00 -2.417426558611e+02 0.0 
0.0 0.0 -1.017865858376e+02 
-1.153451256189e+02 1.187628290444e+01 0.0 
1.187628290444e+01 -2.498353090039e+02 0.0 
0.0 0.0 -1.091541303868e+02 
-1.051211274398e+02 2.996369369106e+00 0.0 
2.996369369106e+00 -2.308449976277e+02 0.0 
0.0 0.0 -1.003898375203e+02 
-1.214579490969e+02 2.609693802614e-01 0.0 
2.609693802614e-01 -2.965614249843e+02 0.0 
0.0 0.0 -1.250058122244e+02 
-1.199319487855e+02 -1.358625840460e+00 0.0 
-1.358625840460e+00 -2.955596362661e+02 0.0 
0.0 0.0 -1.242474755155e+02 
-3.847116052705e+01 -6.454754299055e+00 0.0 
-6.454754299055e+00 -8.722250080712e+01 0.0 
0.0 0.0 -3.730809840025e+01 
-1.244878245358e+02 -1.118694554829e+00 0.0 
-1.118694554829e+00 -3.035267048047e+02 0.0 
0.0 0.0 -1.280043588022e+02 
-9.439948377350e+01 2.452793145120e+00 0.0 
2.452793145120e+00 -1.998127242517e+02 0.0 
0.0 0.0 -8.786366240755e+01 
-9.993096703954e+01 -5.142939593930e-01 0.0 
-5.142939593930e-01 -2.426074277073e+02 0.0 
0.0 0.0 -1.023615184240e+02 
-8.796792647215e+01 2.825298964127e+00 0.0 
2.825298964127e+00 -1.823716843173e+02 0.0 
0.0 0.0 -8.070188323684e+01 
-9.950648921358e+01 4.172252650153e+00 0.0 
4.172252650153e+00 -2.116280677732e+02 0.0 
0.0 0.0 -9.294036709603e+01 
-6.916652928854e+01 1.521359809680e+01 0.0 
1.521359809680e+01 -2.173455082141e+02 0.0 
0.0 0.0 -8.555361125080e+01 
-1.015096288961e+02 2.190976924587e+00 0.0 
2.190976924587e+00 -2.215741343613e+02 0.0 
0.0 0.0 -9.652512897721e+01 
-8.286188957956e+01 -3.323201017799e+00 0.0 
-3.323201017799e+00 -2.028089414515e+02 0.0 
0.0 0.0 -8.530124930931e+01 
-9.601667577224e+01 -1.099319463723e+00 0.0 
-1.099319463723e+00 -2.344287101302e+02 0.0 
0.0 0.0 -9.873361577075e+01 
-6.300095025815e+01 -4.722020102322e+00 0.0 
-4.722020102322e+00 -1.531882919956e+02 0.0 
0.0 0.0 -6.445677267613e+01 
-6.553396517326e+01 -7.880665350270e+00 0.0 
-7.880665350270e+00 -1.690519207968e+02 0.0 
0.0 0.0 -6.997576579103e+01 
-9.051486305073e+01 1.704644787939e+00 0.0 
1.704644787939e+00 -1.906172973574e+02 0.0 
0.0 0.0 -8.393964812245e+01 
-8.586282674208e+01 -3.800972747080e+00 0.0 
-3.800972747080e+00 -2.330700791666e+02 0.0 
0.0 0.0 -9.527987177260e+01 
-4.834909977408e+01 -3.839280676327e+00 0.0 
-3.839280676327e+00 -1.163030361059e+02 0.0 
0.0 0.0 -4.899564076399e+01 
-2.511344510469e+01 -2.956442163234e+00 0.0 
-2.956442163234e+00 -5.787527713078e+01 0.0 
0.0 0.0 -2.449661667064e+01 
-9.204990385798e+01 3.488488227996e+00 0.0 
3.488488227996e+00 -1.915687468968e+02 0.0 
0.0 0.0 -8.468559522642e+01 
-4.866365948284e+01 -6.269655520332e+00 0.0 
-6.269655520332e+00 -1.158970295973e+02 0.0 
0.0 0.0 -4.896820672404e+01 
-1.481272473430e+02 2.477804717832e+00 0.0 
2.477804717832e+00 -3.592957071939e+02 0.0 
0.0 0.0 -1.518268863611e+02 
-9.425296987813e+01 1.636698382638e+00 0.0 
1.636698382638e+00 -2.014865231490e+02 0.0 
0.0 0.0 -8.832184790815e+01 
-1.289748307499e+02 -6.515681762531e-01 0.0 
-6.515681762531e-01 -3.149691708796e+02 0.0 
0.0 0.0 -1.327832004889e+02 
-1.539380989257e+02 1.330562842005e+01 0.0 
1.330562842005e+01 -3.702021405514e+02 0.0 
0.0 0.0 -1.568420718431e+02 
-7.966594229765e+01 -1.857103552490e+00 0.0 
-1.857103552490e+00 -1.942615976877e+02 0.0 
0.0 0.0 -8.177826199559e+01 
-4.377595462082e+01 -5.026145461950e+00 0.0 
-5.026145461950e+00 -1.037773603021e+02 0.0 
0.0 0.0 -4.386599447687e+01 
-3.035543713457e+01 -5.280624846338e+00 0.0 
-5.280624846338e+00 -6.661796313623e+01 0.0 
0.0 0.0 -2.869202008124e+01 
-1.213657992236e+02 5.189003162351e-01 0.0 
5.189003162351e-01 -3.003810137917e+02 0.0 
0.0 0.0 -1.261240439046e+02 
-8.289505971134e+01 5.490647199617e-01 0.0 
5.490647199617e-01 -1.725592618204e+02 0.0 
0.0 0.0 -7.623629645953e+01 
-2.137940300660e+01 -3.733071160446e+00 0.0 
-3.733071160446e+00 -4.701390594454e+01 0.0 
0.0 0.0 -2.011799268534e+01 
-6.454592036385e+01 -4.055584056060e+00 0.0 
-4.055584056060e+00 -1.576720418206e+02 0.0 
0.0 0.0 -6.626538865533e+01 
-3.616993271035e+01 -4.609167274352e-01 0.0 
-4.609167274352e-01 -8.970819638934e+01 0.0 
0.0 0.0 -3.736343872991e+01 
-8.430451806559e+01 2.787457840520e+00 0.0 
2.787457840520e+00 -1.716242316457e+02 0.0 
0.0 0.0 -7.637862491339e+01 
-6.823293178388e+01 -3.039846925003e+00 0.0 
-3.039846925003e+00 -1.658241890088e+02 0.0 
0.0 0.0 -6.981713623781e+01 
-1.105065842801e+02 -1.977774687673e+00 0.0 
-1.977774687673e+00 -2.799598492602e+02 0.0 
0.0 0.0 -1.167399300621e+02 
-6.314777930780e+01 -2.264457218165e+00 0.0 
-2.264457218165e+00 -1.536176214506e+02 0.0 
0.0 0.0 -6.462962022752e+01 
-1.027027784094e+02 3.052205331954e+00 0.0 
3.052205331954e+00 -2.241810279444e+02 0.0 
0.0 0.0 -9.766514190613e+01 
-5.614253641322e+01 -6.453952585371e+00 0.0 
-6.453952585371e+00 -1.363997790128e+02 0.0 
0.0 0.0 -5.736269462780e+01 
-1.208472572830e+02 1.172063364521e+00 0.0 
1.172063364521e+00 -3.041119308911e+02 0.0 
0.0 0.0 -1.270877564522e+02 
-4.420728773548e+01 -1.083115621584e+01 0.0 
-1.083115621584e+01 -1.018113667237e+02 0.0 
0.0 0.0 -4.340559633774e+01 
-1.167289865820e+02 2.592931893917e-01 0.0 
2.592931893917e-01 -2.927620118694e+02 0.0 
0.0 0.0 -1.224472995354e+02 
-9.183021488453e+01 -9.554354416192e-01 0.0 
-9.554354416192e-01 -2.232512264811e+02 0.0 
0.0 0.0 -9.412443240967e+01 
-1.242689055033e+02 -8.006058617329e-01 0.0 
-8.006058617329e-01 -3.070600404154e+02 0.0 
0.0 0.0 -1.289986837756e+02 
-4.528486836070e+01 4.010809686661e-01 0.0 
4.010809686661e-01 -1.786148358797e+02 0.0 
0.0 0.0 -6.676991127211e+01 
-3.630365624979e+01 -2.677683232971e+00 0.0 
-2.677683232971e+00 -8.895896498391e+01 0.0 
0.0 0.0 -3.717878637011e+01 
-7.614045221354e+01 1.775073677869e+00 0.0 
1.775073677869e+00 -1.533166048679e+02 0.0 
0.0 0.0 -6.843711712445e+01 
-1.019961698785e+02 5.964259268822e+00 0.0 
5.964259268822e+00 -2.839069294548e+02 0.0 
0.0 0.0 -1.153709298000e+02 
-6.600173315830e+01 2.389979306334e+01 0.0 
2.389979306334e+01 -1.488385490004e+02 0.0 
0.0 0.0 -6.405208464762e+01 
-8.389965272427e+01 2.304786820538e+00 0.0 
2.304786820538e+00 -1.730716073492e+02 0.0 
0.0 0.0 -7.669137802204e+01 
-4.782068516706e+01 -1.293021468431e+01 0.0 
-1.293021468431e+01 -1.176290440745e+02 0.0 
0.0 0.0 -4.923491877248e+01 
-8.732914111530e+01 2.500637042959e+00 0.0 
2.500637042959e+00 -1.784463107101e+02 0.0 
0.0 0.0 -7.933263554762e+01 
-3.202282604020e+01 -7.669890563295e-01 0.0 
-7.669890563295e-01 -8.067738037444e+01 0.0 
0.0 0.0 -3.341006192439e+01 
-1.393654260620e+02 3.141293478274e+00 0.0 
3.141293478274e+00 -3.415347034065e+02 0.0 
0.0 0.0 -1.438700388406e+02 
-1.060457911466e+02 8.317865907525e+00 0.0 
8.317865907525e+00 -2.923170165978e+02 0.0 
0.0 0.0 -1.191088423233e+02 
-1.096870489558e+02 1.732921626227e+01 0.0 
1.732921626227e+01 -2.910080556979e+02 0.0 
0.0 0.0 -1.198085313961e+02 
-1.135359874051e+02 5.455835316670e+00 0.0 
5.455835316670e+00 -2.523728231145e+02 0.0 
0.0 0.0 -1.093726431559e+02 
-9.380522595908e+01 -2.104916387657e+00 0.0 
-2.104916387657e+00 -2.517339613999e+02 0.0 
0.0 0.0 -1.032617562077e+02 
-3.557901168478e+01 -4.395745524091e+00 0.0 
-4.395745524091e+00 -8.378654283519e+01 0.0 
0.0 0.0 -3.540966635599e+01 
-1.071285051912e+02 -2.867203285256e-01 0.0 
-2.867203285256e-01 -2.777612035432e+02 0.0 
0.0 0.0 -1.150669126203e+02 
-1.428667603158e+02 2.908342094869e+00 0.0 
2.908342094869e+00 -3.513178558455e+02 0.0 
0.0 0.0 -1.478553848484e+02 
-5.529795073144e+01 -1.205441534249e+01 0.0 
-1.205441534249e+01 -1.531776840869e+02 0.0 
0.0 0.0 -6.214269044551e+01 
-1.258898848235e+02 7.472998786665e-01 0.0 
7.472998786665e-01 -3.080849311496e+02 0.0 
0.0 0.0 -1.297924447920e+02 
-9.558368690721e+01 3.412024173622e+00 0.0 
3.412024173622e+00 -2.023500077989e+02 0.0 
0.0 0.0 -8.898010841183e+01 
-4.085994514631e+01 -1.612414273739e+01 0.0 
-1.612414273739e+01 -1.275352194172e+02 0.0 
0.0 0.0 -5.011854936905e+01 
-1.119856930377e+02 -1.999199463455e-02 0.0 
-1.999199463455e-02 -2.852260803901e+02 0.0 
0.0 0.0 -1.187635320283e+02 
-7.676366196438e+01 2.730150485449e+00 0.0 
2.730150485449e+00 -1.501224200256e+02 0.0 
0.0 0.0 -6.766582459699e+01 
-4.999302085442e+01 -1.442103960829e+00 0.0 
-1.442103960829e+00 -1.211871563056e+02 0.0 
0.0 0.0 -5.095405314802e+01 
-6.109762246237e+01 -5.131467206198e+00 0.0 
-5.131467206198e+00 -1.497372403837e+02 0.0 
0.0 0.0 -6.285045885382e+01 
-7.879660150967e+01 2.447092457385e+01 0.0 
2.447092457385e+01 -1.874150089247e+02 0.0 
0.0 0.0 -7.946348313032e+01 
-1.194390997498e+02 -9.780033157937e-01 0.0 
-9.780033157937e-01 -2.992347237363e+02 0.0 
0.0 0.0 -1.252021470458e+02 
-5.901718496878e+01 2.500951305365e+01 0.0 
2.500951305365e+01 -1.137048469761e+02 0.0 
0.0 0.0 -5.141660958347e+01 
-7.360707048222e+01 2.477694113453e+01 0.0 
2.477694113453e+01 -1.839813959791e+02 0.0 
0.0 0.0 -7.687653993840e+01 
-9.087020531014e+01 2.491686444426e+00 0.0 
2.491686444426e+00 -1.890844122816e+02 0.0 
0.0 0.0 -8.358638527751e+01 
-7.886121661559e+01 4.868226367622e-01 0.0 
4.868226367622e-01 -1.616348329949e+02 0.0 
0.0 0.0 -7.174881488313e+01 
-7.946939570030e+01 1.591522771445e+00 0.0 
1.591522771445e+00 -1.585037731089e+02 0.0 
0.0 0.0 -7.099195064276e+01 
-9.082973347618e+01 -2.744942170820e+00 0.0 
-2.744942170820e+00 -2.222705878829e+02 0.0 
0.0 0.0 -9.353009640772e+01 
-1.338869833810e+02 4.992112285302e+00 0.0 
4.992112285302e+00 -3.362784448521e+02 0.0 
0.0 0.0 -1.406496284699e+02 
-1.021559357503e+02 -4.974652575732e-01 0.0 
-4.974652575732e-01 -2.703513596950e+02 0.0 
0.0 0.0 -1.113521886336e+02 
-7.616801163777e+01 2.141972246923e+00 0.0 
2.141972246923e+00 -1.516986839290e+02 0.0 
0.0 0.0 -6.796000867003e+01 
-1.240176830549e+02 1.830388655144e+01 0.0 
1.830388655144e+01 -2.680629316976e+02 0.0 
0.0 0.0 -1.172241844257e+02 
-1.147837772301e+02 1.890934791450e+01 0.0 
1.890934791450e+01 -2.965682127304e+02 0.0 
0.0 0.0 -1.230055969881e+02 
-1.145013069528e+02 -1.175214718387e+00 0.0 
-1.175214718387e+00 -2.915017412103e+02 0.0 
0.0 0.0 -1.214009144489e+02 
-9.796042668299e+01 2.362800550059e+00 0.0 
2.362800550059e+00 -2.106670236920e+02 0.0 
0.0 0.0 -9.218823511250e+01 
-6.904717725798e+01 -6.528149419160e+00 0.0 
-6.528149419160e+00 -1.757457557340e+02 0.0 
0.0 0.0 -7.303787989760e+01 
-6.526895408312e+01 -5.973448047693e+00 0.0 
-5.973448047693e+00 -1.626664478711e+02 0.0 
0.0 0.0 -6.798062058627e+01 
-3.676031300763e+01 -3.876012178997e+00 0.0 
-3.876012178997e+00 -8.706561015095e+01 0.0 
0.0 0.0 -3.674777694757e+01 
-1.108832409369e+02 9.918103873582e-01 0.0 
9.918103873582e-01 -2.889246659461e+02 0.0 
0.0 0.0 -1.195423720649e+02 
-6.877567952439e+01 -4.797461393690e+00 0.0 
-4.797461393690e+00 -1.702890206797e+02 0.0 
0.0 0.0 -7.131941006122e+01 
-8.849059235844e+01 3.538244185911e+00 0.0 
3.538244185911e+00 -1.807814119970e+02 0.0 
0.0 0.0 -8.038160130664e+01 
-8.491595059799e+01 3.558664838223e+00 0.0 
3.558664838223e+00 -1.700964625658e+02 0.0 
0.0 0.0 -7.610372394914e+01 
-7.265295285515e+01 1.187830280485e+01 0.0 
1.187830280485e+01 -2.284101502485e+02 0.0 
0.0 0.0 -8.991893093109e+01 
-5.674300205827e+01 -8.557597637297e+00 0.0 
-8.557597637297e+00 -1.410888901032e+02 0.0 
0.0 0.0 -5.894956764845e+01 
-4.271182641890e+01 1.384805240253e+01 0.0 
1.384805240253e+01 -1.681145264815e+02 0.0 
0.0 0.0 -6.284790587014e+01 
-6.007895508464e+01 -7.374042241010e+00 0.0 
-7.374042241010e+00 -1.488080421671e+02 0.0 
0.0 0.0 -6.226609917553e+01 
-6.355152175742e+01 -8.071349631614e+00 0.0 
-8.071349631614e+00 -1.614753300381e+02 0.0 
0.0 0.0 -6.710805553865e+01 
-4.096030347411e+01 -5.756296685932e+00 0.0 
-5.756296685932e+00 -9.545708532337e+01 0.0 
0.0 0.0 -4.052521663924e+01 
-1.285577394066e+02 5.489918180892e+00 0.0 
5.489918180892e+00 -3.281914625814e+02 0.0 
0.0 0.0 -1.366247605964e+02 
-7.193109333589e+01 -7.656072189615e+00 0.0 
-7.656072189615e+00 -2.000445599618e+02 0.0 
0.0 0.0 -8.119269598930e+01 
-1.029044268736e+02 3.981774681371e+00 0.0 
3.981774681371e+00 -2.224691055770e+02 0.0 
0.0 0.0 -9.721205973518e+01 
-7.447691342692e+01 -6.511229186386e+00 0.0 
-6.511229186386e+00 -2.125282867154e+02 0.0 
0.0 0.0 -8.570156004269e+01 
-1.043182010614e+02 -1.499447726183e+00 0.0 
-1.499447726183e+00 -2.763052205259e+02 0.0 
0.0 0.0 -1.137870264762e+02 
-8.725956387964e+01 -4.474534296827e+00 0.0 
-4.474534296827e+00 -2.383480654637e+02 0.0 
0.0 0.0 -9.728228880301e+01 
-7.108042294322e+01 2.307704050040e+01 0.0 
2.307704050040e+01 -1.963628132950e+02 0.0 
0.0 0.0 -7.983297087147e+01 
-3.994831144776e+01 -3.292033250354e+00 0.0 
-3.292033250354e+00 -9.561217229411e+01 0.0 
0.0 0.0 -4.026814512256e+01 
-1.374519078130e+02 3.394711485310e+00 0.0 
3.394711485310e+00 -3.432348252944e+02 0.0 
0.0 0.0 -1.438060199322e+02 
-1.442347850190e+02 6.069123962881e+00 0.0 
6.069123962881e+00 -3.554118998404e+02 0.0 
0.0 0.0 -1.494940054578e+02 
-1.006935231912e+02 2.062139199985e+01 0.0 
2.062139199985e+01 -2.309040734317e+02 0.0 
0.0 0.0 -9.907927898688e+01 
-6.659729748263e+01 -8.437885625923e+00 0.0 
-8.437885625923e+00 -1.742856296968e+02 0.0 
0.0 0.0 -7.186487815384e+01 
-9.558255479860e+01 -2.942760922319e+00 0.0 
-2.942760922319e+00 -2.573680865024e+02 0.0 
0.0 0.0 -1.054851923903e+02 
-8.681570638939e+01 1.684734667624e+00 0.0 
1.684734667624e+00 -1.797607740840e+02 0.0 
0.0 0.0 -7.957294414202e+01 
-7.272544183565e+01 -5.332473362481e+00 0.0 
-5.332473362481e+00 -1.830388427043e+02 0.0 
0.0 0.0 -7.632928536197e+01 
-5.891766346722e+01 2.676971160423e+01 0.0 
2.676971160423e+01 -1.460604246740e+02 0.0 
0.0 0.0 -6.109342644237e+01 
-5.643909040411e+01 -4.108757015483e+00 0.0 
-4.108757015483e+00 -1.370439556793e+02 0.0 
0.0 0.0 -5.764491382502e+01 
-5.022242393470e+01 -1.386387799177e+01 0.0 
-1.386387799177e+01 -1.336466373846e+02 0.0 
0.0 0.0 -5.476071839580e+01 
-7.244523363022e+01 -6.700570452126e+00 0.0 
-6.700570452126e+00 -1.888702903965e+02 0.0 
0.0 0.0 -7.799465720800e+01 
-5.168708067225e+01 -5.366294074650e+00 0.0 
-5.366294074650e+00 -1.241791092449e+02 0.0 
0.0 0.0 -5.235985697516e+01 
-4.646820638176e+01 -1.998890205406e+00 0.0 
-1.998890205406e+00 -1.125745551718e+02 0.0 
0.0 0.0 -4.731282846606e+01 
-9.057693084670e+01 -3.259766137932e+00 0.0 
-3.259766137932e+00 -2.400205313302e+02 0.0 
0.0 0.0 -9.877923865307e+01 
-1.094592749665e+02 -1.362041837381e+00 0.0 
-1.362041837381e+00 -2.838608260303e+02 0.0 
0.0 0.0 -1.175960302991e+02 
-1.198350468227e+02 2.052589358204e+01 0.0 
2.052589358204e+01 -2.750956295979e+02 0.0 
0.0 0.0 -1.180792029262e+02 
-3.378226157897e+00 -3.718147070197e-01 0.0 
-3.718147070197e-01 -8.684534614743e+00 0.0 
0.0 0.0 -2.225278015258e+00 
-6.684539117003e+01 -4.070347445225e+00 0.0 
-4.070347445225e+00 -2.116644272215e+02 0.0 
0.0 0.0 -8.315294551747e+01 
-6.949192786003e+01 -6.746333327005e+00 0.0 
-6.746333327005e+00 -2.061135867498e+02 0.0 
0.0 0.0 -8.228165438294e+01 
-6.932530595951e+01 -8.307830365713e+00 0.0 
-8.307830365713e+00 -1.872142946862e+02 0.0 
0.0 0.0 -7.656188019372e+01 
-8.314820701536e+01 1.657717465325e+00 0.0 
1.657717465325e+00 -1.690317865758e+02 0.0 
0.0 0.0 -7.525399807734e+01 
-7.936755814030e+01 -6.065241634790e+00 0.0 
-6.065241634790e+00 -2.192346026075e+02 0.0 
0.0 0.0 -8.918064822433e+01 
-5.946807737115e+01 -5.504310153286e+00 0.0 
-5.504310153286e+00 -1.446405656986e+02 0.0 
0.0 0.0 -6.083259292091e+01 
-7.553057173315e+01 -6.386709860288e+00 0.0 
-6.386709860288e+00 -2.018485272697e+02 0.0 
0.0 0.0 -8.281372970086e+01 
-9.783710575760e+01 1.485343937790e+00 0.0 
1.485343937790e+00 -2.123825741483e+02 0.0 
0.0 0.0 -9.266590397177e+01 
-5.967225154199e+01 -3.191013535953e+00 0.0 
-3.191013535953e+00 -1.452411403547e+02 0.0 
0.0 0.0 -6.107401756902e+01 
-2.389675749172e+01 -3.638235393314e+00 0.0 
-3.638235393314e+00 -5.490141787087e+01 0.0 
0.0 0.0 -2.323945260878e+01 
-3.285228237923e+01 -4.797032659689e+00 0.0 
-4.797032659689e+00 -7.532214737586e+01 0.0 
0.0 0.0 -3.205232892653e+01 
-4.926082314140e+01 -1.353032693660e+01 0.0 
-1.353032693660e+01 -1.363167851540e+02 0.0 
0.0 0.0 -5.527328248862e+01 
-5.989257135587e+01 -9.312600970480e+00 0.0 
-9.312600970480e+00 -1.541578202475e+02 0.0 
0.0 0.0 -6.381511748103e+01 
-7.197157583473e+01 -4.702643459400e+00 0.0 
-4.702643459400e+00 -2.179610788400e+02 0.0 
0.0 0.0 -8.657979640242e+01 
-7.835881888846e+01 -5.555561548996e+00 0.0 
-5.555561548996e+00 -2.143950633020e+02 0.0 
0.0 0.0 -8.742616465715e+01 
-4.230553541079e+01 -1.256933191161e+01 0.0 
-1.256933191161e+01 -9.515666102562e+01 0.0 
0.0 0.0 -4.046298985992e+01 
-3.072015684693e+01 -2.273285881010e+00 0.0 
-2.273285881010e+00 -7.494862817725e+01 0.0 
0.0 0.0 -3.130063550725e+01 
-8.195287657561e+01 4.522643035975e+00 0.0 
4.522643035975e+00 -1.578541963635e+02 0.0 
0.0 0.0 -7.154212188174e+01 
-5.158729381069e+01 -2.999220560432e+00 0.0 
-2.999220560432e+00 -1.246533384069e+02 0.0 
0.0 0.0 -5.247218966527e+01 
-1.219372399984e+02 2.779453033684e+00 0.0 
2.779453033684e+00 -3.168304814174e+02 0.0 
0.0 0.0 -1.312303164247e+02 
-1.160373900668e+02 2.059333828495e+01 0.0 
2.059333828495e+01 -2.699146347136e+02 0.0 
0.0 0.0 -1.153856074341e+02 
-9.105864456164e+01 1.157282562566e+01 0.0 
1.157282562566e+01 -1.712768496958e+02 0.0 
0.0 0.0 -7.830064827724e+01 
-1.059627917782e+02 5.453687823480e+00 0.0 
5.453687823480e+00 -2.284015499261e+02 0.0 
0.0 0.0 -9.990930251130e+01 
-1.233329535019e+02 2.032367633218e+01 0.0 
2.032367633218e+01 -2.806444001748e+02 0.0 
0.0 0.0 -1.207932061030e+02 
-6.832128971732e+01 1.454831918199e+01 0.0 
1.454831918199e+01 -2.168444638624e+02 0.0 
0.0 0.0 -8.514972607391e+01 
-1.083255058750e+02 2.048013874038e+01 0.0 
2.048013874038e+01 -2.504315432279e+02 0.0 
0.0 0.0 -1.072271147309e+02 
-4.609146317398e+01 -1.547953760469e+01 0.0 
-1.547953760469e+01 -1.132370688063e+02 0.0 
0.0 0.0 -4.708427838640e+01 
-7.971332903483e+01 -5.402795721933e+00 0.0 
-5.402795721933e+00 -2.085332002756e+02 0.0 
0.0 0.0 -8.607395879313e+01 
-6.342019073328e+01 2.047058982461e+01 0.0 
2.047058982461e+01 -1.917448185379e+02 0.0 
0.0 0.0 -7.614950278136e+01 
-3.589888254970e+01 -1.221108836024e+01 0.0 
-1.221108836024e+01 -1.411781530516e+02 0.0 
0.0 0.0 -5.268192799300e+01 
-4.273091982090e+01 -1.549774966772e+01 0.0 
-1.549774966772e+01 -9.113733838922e+01 0.0 
0.0 0.0 -3.840307399209e+01 
-6.726746967964e+01 -6.923402013290e+00 0.0 
-6.923402013290e+00 -1.691846399192e+02 0.0 
0.0 0.0 -7.053563287965e+01 
-7.372137743657e+01 -6.129633997212e+00 0.0 
-6.129633997212e+00 -2.080528442017e+02 0.0 
0.0 0.0 -8.413226649149e+01 
-7.611550339731e+01 -4.401136923980e+00 0.0 
-4.401136923980e+00 -2.197844521215e+02 0.0 
0.0 0.0 -8.836998665564e+01 
-5.488629265873e+01 -4.508091972038e+00 0.0 
-4.508091972038e+00 -1.325440351861e+02 0.0 
0.0 0.0 -5.582909835343e+01 
-8.220590687680e+01 -4.778500358983e+00 0.0 
-4.778500358983e+00 -2.313062713636e+02 0.0 
0.0 0.0 -9.365365347213e+01 
-7.104566185735e+01 -4.250351720689e+00 0.0 
-4.250351720689e+00 -2.133942028395e+02 0.0 
0.0 0.0 -8.493195940907e+01 
-6.964337858514e+01 -1.152410680894e+00 0.0 
-1.152410680894e+00 -2.222618642806e+02 0.0 
0.0 0.0 -8.717157285974e+01 
-6.194494207824e+01 -7.283916183110e+00 0.0 
-7.283916183110e+00 -1.554599756553e+02 0.0 
0.0 0.0 -6.482147532006e+01 
-1.050934416868e+02 1.193056381233e+01 0.0 
1.193056381233e+01 -2.899436385372e+02 0.0 
0.0 0.0 -1.181111240672e+02 
-9.266749255305e+01 4.383944510995e+00 0.0 
4.383944510995e+00 -1.901623999994e+02 0.0 
0.0 0.0 -8.444896776575e+01 
-6.474152185551e+01 5.031929990284e-01 0.0 
5.031929990284e-01 -2.154798189004e+02 0.0 
0.0 0.0 -8.366640222676e+01 
-1.321025628878e+02 3.900035868463e+00 0.0 
3.900035868463e+00 -3.352851995793e+02 0.0 
0.0 0.0 -1.398163287401e+02 
-4.720228718702e+01 -1.580155095790e+01 0.0 
-1.580155095790e+01 -1.302934623082e+02 0.0 
0.0 0.0 -5.284872484857e+01 
-1.423541047738e+02 7.288005205912e+00 0.0 
7.288005205912e+00 -3.556196093060e+02 0.0 
0.0 0.0 -1.489921142239e+02 
-7.710685508588e+01 -4.898021831248e+00 0.0 
-4.898021831248e+00 -2.244646424928e+02 0.0 
0.0 0.0 -9.007144927359e+01 
-1.270280969522e+02 2.026030639811e+01 0.0 
2.026030639811e+01 -2.882574875913e+02 0.0 
0.0 0.0 -1.241856753631e+02 
-9.498668555702e+01 1.947182651962e+01 0.0 
1.947182651962e+01 -1.933041862780e+02 0.0 
0.0 0.0 -8.608726155050e+01 
-4.456441974974e+01 -1.497579902224e+01 0.0 
-1.497579902224e+01 -1.157997250848e+02 0.0 
0.0 0.0 -4.770924345035e+01 
-9.516461110710e+01 1.355941313825e+01 0.0 
1.355941313825e+01 -1.828598339186e+02 0.0 
0.0 0.0 -8.300733350772e+01 
-1.106790723966e+02 8.313150232184e+00 0.0 
8.313150232184e+00 -2.381933339741e+02 0.0 
0.0 0.0 -1.042617219112e+02 
-7.996695173613e+01 -2.866011338830e+00 0.0 
-2.866011338830e+00 -2.358631868978e+02 0.0 
0.0 0.0 -9.434904159019e+01 
-4.893117607505e+01 2.617881214933e+01 0.0 
2.617881214933e+01 -1.413376379131e+02 0.0 
0.0 0.0 -5.668064419643e+01 
-9.905375411898e+01 1.546900213726e+01 0.0 
1.546900213726e+01 -1.950078799552e+02 0.0 
0.0 0.0 -8.781849022226e+01 
-7.342112647681e+01 2.311627341994e+01 0.0 
2.311627341994e+01 -1.684290506336e+02 0.0 
0.0 0.0 -7.215505313312e+01 
-4.227346343831e+01 -1.531415794332e+01 0.0 
-1.531415794332e+01 -9.448439493245e+01 0.0 
0.0 0.0 -4.027272311470e+01 
-1.194424717706e+02 7.175410237417e+00 0.0 
7.175410237417e+00 -2.697222645068e+02 0.0 
0.0 0.0 -1.163494208832e+02 
-4.077311721647e+01 -1.241694517836e+01 0.0 
-1.241694517836e+01 -7.963932017603e+01 0.0 
0.0 0.0 -3.504633370827e+01 
-1.353017963457e+02 1.760572009686e+01 0.0 
1.760572009686e+01 -3.388146244350e+02 0.0 
0.0 0.0 -1.418349262342e+02 
-1.084539891570e+02 2.733781539363e+00 0.0 
2.733781539363e+00 -2.415710801004e+02 0.0 
0.0 0.0 -1.046075207772e+02 
-1.104065086575e+02 1.061114828229e+01 0.0 
1.061114828229e+01 -3.001582037405e+02 0.0 
0.0 0.0 -1.227694137194e+02 
-7.892573242413e+01 9.052134707790e-01 0.0 
9.052134707790e-01 -1.596964737307e+02 0.0 
0.0 0.0 -7.118666184645e+01 
-1.041407075423e+02 6.272914249072e+00 0.0 
6.272914249072e+00 -2.199170890411e+02 0.0 
0.0 0.0 -9.681733897500e+01 
-7.331272744919e+01 -1.575948001075e+00 0.0 
-1.575948001075e+00 -2.237160317122e+02 0.0 
0.0 0.0 -8.870862774841e+01 
-8.144010476564e+01 1.233688916876e+01 0.0 
1.233688916876e+01 -2.449340760646e+02 0.0 
0.0 0.0 -9.751225424907e+01 
-1.128580623984e+02 6.335981770325e+00 0.0 
6.335981770325e+00 -2.487299283775e+02 0.0 
0.0 0.0 -1.080763972328e+02 
-1.186130808344e+02 -1.630601481232e-01 0.0 
-1.630601481232e-01 -3.028677338434e+02 0.0 
0.0 0.0 -1.260442444033e+02 
-9.689704989743e+01 5.344125922092e+00 0.0 
5.344125922092e+00 -1.997013355632e+02 0.0 
0.0 0.0 -8.857951563820e+01 
-1.051224435055e+02 4.541407993669e+00 0.0 
4.541407993669e+00 -2.915139313614e+02 0.0 
0.0 0.0 -1.185909124601e+02 
-4.151817617101e+01 -1.672056178344e+01 0.0 
-1.672056178344e+01 -1.112310821944e+02 0.0 
0.0 0.0 -4.542477750963e+01 
-1.011068240445e+02 6.457757833553e+00 0.0 
6.457757833553e+00 -2.093574483971e+02 0.0 
0.0 0.0 -9.273928173249e+01 
-1.394984102674e+02 2.441263902440e+01 0.0 
2.441263902440e+01 -3.256068863663e+02 0.0 
0.0 0.0 -1.391315889901e+02 
-1.431090139389e+02 4.776268399814e+00 0.0 
4.776268399814e+00 -3.545286728554e+02 0.0 
0.0 0.0 -1.488913060383e+02 
-7.655709496837e+01 -6.905292600947e+00 0.0 
-6.905292600947e+00 -2.068675135407e+02 0.0 
0.0 0.0 -8.462738255274e+01 
-8.047475894462e+01 2.828919187599e+00 0.0 
2.828919187599e+00 -1.606135626936e+02 0.0 
0.0 0.0 -7.192649649145e+01 
-7.505666976267e+01 8.125414503864e-01 0.0 
8.125414503864e-01 -1.490810778537e+02 0.0 
0.0 0.0 -6.684132428491e+01 
-8.101686472160e+01 -4.199078963033e+00 0.0 
-4.199078963033e+00 -2.262751862662e+02 0.0 
0.0 0.0 -9.178761529634e+01 
-1.134240516244e+02 -1.709916636638e-01 0.0 
-1.709916636638e-01 -2.951777350011e+02 0.0 
0.0 0.0 -1.221805359876e+02 
-1.175804297067e+02 1.216641714913e+00 0.0 
1.216641714913e+00 -3.061882980327e+02 0.0 
0.0 0.0 -1.267306183218e+02 
-2.795917955518e+01 -2.605807704510e+00 0.0 
-2.605807704510e+00 -6.620516021959e+01 0.0 
0.0 0.0 -2.784930193243e+01 
-3.709141846524e+01 1.495223176258e+01 0.0 
1.495223176258e+01 -1.546355853219e+02 0.0 
0.0 0.0 -5.711810113614e+01 
-6.824353315207e+01 3.906653536745e+00 0.0 
3.906653536745e+00 -2.242831739950e+02 0.0 
0.0 0.0 -8.735801214413e+01 
-6.802552464455e+01 -3.947854682370e-01 0.0 
-3.947854682370e-01 -2.166524967434e+02 0.0 
0.0 0.0 -8.500340641640e+01 
-7.099977402972e+01 2.337878829687e+01 0.0 
2.337878829687e+01 -1.818198044989e+02 0.0 
0.0 0.0 -7.544587355859e+01 
-1.176180324920e+02 7.837749465126e+00 0.0 
7.837749465126e+00 -2.600892005436e+02 0.0 
0.0 0.0 -1.129121699107e+02 
-1.168491465914e+02 1.404670179927e+01 0.0 
1.404670179927e+01 -2.527075098545e+02 0.0 
0.0 0.0 -1.104669969338e+02 
-1.097679788063e+02 4.467484144326e+00 0.0 
4.467484144326e+00 -2.423264951636e+02 0.0 
0.0 0.0 -1.052283421910e+02 
-6.371522842085e+01 2.288023394900e+01 0.0 
2.288023394900e+01 -1.180104923243e+02 0.0 
0.0 0.0 -5.411771622354e+01 
-1.039183464290e+02 7.149263557447e+00 0.0 
7.149263557447e+00 -2.177033430743e+02 0.0 
0.0 0.0 -9.608650685098e+01 
-1.159250656071e+02 1.060821885629e+00 0.0 
1.060821885629e+00 -2.965059403985e+02 0.0 
0.0 0.0 -1.233293018017e+02 
-1.122643198104e+02 4.842216556948e+00 0.0 
4.842216556948e+00 -2.497713765149e+02 0.0 
0.0 0.0 -1.082107088976e+02 
-9.801633711213e+01 6.613882195415e+00 0.0 
6.613882195415e+00 -1.988621367646e+02 0.0 
0.0 0.0 -8.866354216303e+01 
-8.284775923327e+01 -4.818280348932e+00 0.0 
-4.818280348932e+00 -2.209858907746e+02 0.0 
0.0 0.0 -9.075009500235e+01 
-6.387463125779e+01 6.425236774222e+00 0.0 
6.425236774222e+00 -2.161362079605e+02 0.0 
0.0 0.0 -8.360325176550e+01 
-9.888683828426e+01 4.465797512505e+00 0.0 
4.465797512505e+00 -2.080800352439e+02 0.0 
0.0 0.0 -9.169006205844e+01 
-1.110609806665e+02 7.159108875480e+00 0.0 
7.159108875480e+00 -2.402324048908e+02 0.0 
0.0 0.0 -1.049880156672e+02 
-9.828995709325e+01 3.308609025215e+00 0.0 
3.308609025215e+00 -2.091995930849e+02 0.0 
0.0 0.0 -9.184686505346e+01 
-9.488312560717e+01 3.409139705451e+00 0.0 
3.409139705451e+00 -1.985216863702e+02 0.0 
0.0 0.0 -8.762144359322e+01 
-1.326988057498e+02 2.066613275809e+00 0.0 
2.066613275809e+00 -3.327347215203e+02 0.0 
0.0 0.0 -1.392300581810e+02 
-1.301513127504e+02 1.850767461387e+01 0.0 
1.850767461387e+01 -3.273219445781e+02 0.0 
0.0 0.0 -1.368419771985e+02 
-1.273887211328e+02 2.376687495480e+00 0.0 
2.376687495480e+00 -3.248204092289e+02 0.0 
0.0 0.0 -1.352627391085e+02 
-1.006545911054e+02 -2.663138766346e+00 0.0 
-2.663138766346e+00 -2.647731335368e+02 0.0 
0.0 0.0 -1.092283173927e+02 
-5.826006313164e+01 9.787379073904e+00 0.0 
9.787379073904e+00 -9.349965889965e+01 0.0 
0.0 0.0 -4.512791660939e+01 
-1.149782663751e+02 1.277991623745e+01 0.0 
1.277991623745e+01 -3.074049564925e+02 0.0 
0.0 0.0 -1.263149668603e+02 
-9.806605746637e+01 7.604224744741e+00 0.0 
7.604224744741e+00 -1.979823061068e+02 0.0 
0.0 0.0 -8.841450907195e+01 
-4.685469299320e+01 -4.311109965274e+00 0.0 
-4.311109965274e+00 -1.122379478547e+02 0.0 
0.0 0.0 -4.732779225436e+01 
-7.063884750698e+01 2.993913053045e+00 0.0 
2.993913053045e+00 -2.250863928012e+02 0.0 
0.0 0.0 -8.831757209245e+01 
-8.155463017325e+01 3.234636230902e+00 0.0 
3.234636230902e+00 -2.485710439287e+02 0.0 
0.0 0.0 -9.863770223060e+01 
-9.055096727585e+01 1.285448865928e+01 0.0 
1.285448865928e+01 -2.618573608105e+02 0.0 
0.0 0.0 -1.053224984259e+02 
-3.291345605913e+01 -2.347119303790e+00 0.0 
-2.347119303790e+00 -1.514144135642e+02 0.0 
0.0 0.0 -5.474739086720e+01 
-6.549985180204e+01 5.168676092588e+00 0.0 
5.168676092588e+00 -2.165199091685e+02 0.0 
0.0 0.0 -8.420592829117e+01 
-9.998272998899e+01 1.343196471827e+01 0.0 
1.343196471827e+01 -2.791100593321e+02 0.0 
0.0 0.0 -1.133278367963e+02 
-7.161878862347e+01 1.437719853453e+01 0.0 
1.437719853453e+01 -1.293198639046e+02 0.0 
0.0 0.0 -5.988159575843e+01 
-8.418935287916e+01 -5.471844292443e+00 0.0 
-5.471844292443e+00 -2.263057940113e+02 0.0 
0.0 0.0 -9.274854406713e+01 
-9.037051784537e+01 5.531166925722e+00 0.0 
5.531166925722e+00 -1.785312149058e+02 0.0 
0.0 0.0 -8.027051982536e+01 
-6.215116219446e+01 -1.234269498494e-01 0.0 
-1.234269498494e-01 -1.190202874348e+02 0.0 
0.0 0.0 -5.395143488877e+01 
-3.653929950921e+01 2.652056639341e+01 0.0 
2.652056639341e+01 -2.760334628151e+01 0.0 
0.0 0.0 -1.795160564115e+01 
-9.867431148719e+01 -1.735864070881e+00 0.0 
-1.735864070881e+00 -2.589424511385e+02 0.0 
0.0 0.0 -1.068850287877e+02 
-1.143228558602e+02 8.830079101567e+00 0.0 
8.830079101567e+00 -3.090929507778e+02 0.0 
0.0 0.0 -1.266247419914e+02 
-1.195152373892e+02 1.333792920788e+01 0.0 
1.333792920788e+01 -2.614826564965e+02 0.0 
0.0 0.0 -1.138993681657e+02 
-7.661667702637e+01 1.005542721660e+01 0.0 
1.005542721660e+01 -2.388293265090e+02 0.0 
0.0 0.0 -9.423380106061e+01 
-9.222705357990e+01 -4.047333058397e+00 0.0 
-4.047333058397e+00 -2.456008634633e+02 0.0 
0.0 0.0 -1.009483751130e+02 
-8.924162355280e+01 4.412332001599e+00 0.0 
4.412332001599e+00 -1.795697916760e+02 0.0 
0.0 0.0 -8.024342456864e+01 
-3.325948596165e+01 2.355120443767e+01 0.0 
2.355120443767e+01 -2.539747806770e+01 0.0 
0.0 0.0 -1.601080376014e+01 
-1.091412363568e+02 1.009037849554e+01 0.0 
1.009037849554e+01 -2.995094742823e+02 0.0 
0.0 0.0 -1.221952131917e+02 
-8.626323678420e+01 1.029015586746e+01 0.0 
1.029015586746e+01 -2.556377023205e+02 0.0 
0.0 0.0 -1.021702817314e+02 
-7.679989381364e+01 1.653766152079e+01 0.0 
1.653766152079e+01 -1.379317263972e+02 0.0 
0.0 0.0 -6.401948606326e+01 
-1.199614755725e+02 2.353211078086e+00 0.0 
2.353211078086e+00 -3.074433430305e+02 0.0 
0.0 0.0 -1.278214455809e+02 
-4.328438279978e+01 -1.452354557230e+01 0.0 
-1.452354557230e+01 -1.439494178896e+02 0.0 
0.0 0.0 -5.577014020681e+01 
-1.241598429873e+02 3.834036206727e+00 0.0 
3.834036206727e+00 -3.180021495556e+02 0.0 
0.0 0.0 -1.322485977629e+02 
-1.370709426908e+02 5.466312764837e+00 0.0 
5.466312764837e+00 -3.455242451027e+02 0.0 
0.0 0.0 -1.443785563380e+02 
-1.042243247092e+02 1.150205713407e+01 0.0 
1.150205713407e+01 -2.894831295868e+02 0.0 
0.0 0.0 -1.177122362888e+02 
-1.001153105781e+02 5.211610877634e+00 0.0 
5.211610877634e+00 -2.103018915193e+02 0.0 
0.0 0.0 -9.272516062921e+01 
-1.152227211055e+02 2.225983457438e+01 0.0 
2.225983457438e+01 -2.791318115646e+02 0.0 
0.0 0.0 -1.179063598010e+02 
-1.388035769765e+02 6.685813474878e+00 0.0 
6.685813474878e+00 -3.464823721640e+02 0.0 
0.0 0.0 -1.451857847421e+02 
-3.034087920148e+01 2.090504128760e+01 0.0 
2.090504128760e+01 -2.401542101295e+01 0.0 
0.0 0.0 -1.590689006433e+01 
-9.367461936160e+01 5.419638124485e+00 0.0 
5.419638124485e+00 -1.891420798339e+02 0.0 
0.0 0.0 -8.444500975864e+01 
-1.297331641704e+02 2.074396736887e+01 0.0 
2.074396736887e+01 -3.205592619241e+02 0.0 
0.0 0.0 -1.346877278284e+02 
-1.021268908842e+02 4.318717963797e+00 0.0 
4.318717963797e+00 -2.187293281141e+02 0.0 
0.0 0.0 -9.585686569950e+01 
-9.470644419208e+01 1.095823927622e+01 0.0 
1.095823927622e+01 -2.722598901278e+02 0.0 
0.0 0.0 -1.096899002960e+02 
-6.880438985971e+01 8.699152263712e+00 0.0 
8.699152263712e+00 -2.228345574379e+02 0.0 
0.0 0.0 -8.709168418929e+01 
-9.447041479529e+01 -3.736219471536e+00 0.0 
-3.736219471536e+00 -2.370905318449e+02 0.0 
0.0 0.0 -9.906828399207e+01 
-2.621259317326e+01 7.026469493107e+00 0.0 
7.026469493107e+00 -1.305534103882e+02 0.0 
0.0 0.0 -4.838251744479e+01 
-1.054047422640e+02 4.093919298615e+00 0.0 
4.093919298615e+00 -2.294167051594e+02 0.0 
0.0 0.0 -1.000464342270e+02 
-5.022525673375e+01 -3.696757074271e+00 0.0 
-3.696757074271e+00 -1.208696536839e+02 0.0 
0.0 0.0 -5.092847312530e+01 
-3.334707246059e+01 1.770024037721e+01 0.0 
1.770024037721e+01 -2.323722117827e+01 0.0 
0.0 0.0 -1.657528809166e+01 
-1.113229768618e+02 2.250237385175e+01 0.0 
2.250237385175e+01 -2.649817785116e+02 0.0 
0.0 0.0 -1.124914266120e+02 
-1.122571781772e+02 3.582156425895e+00 0.0 
3.582156425895e+00 -2.514858639878e+02 0.0 
0.0 0.0 -1.087229126495e+02 
-4.470391215421e+01 -1.786818162480e+01 0.0 
-1.786818162480e+01 -1.288114676248e+02 0.0 
0.0 0.0 -5.106433541760e+01 
-8.392596188443e+01 2.380763494192e+01 0.0 
2.380763494192e+01 -1.914553515405e+02 0.0 
0.0 0.0 -8.221439402748e+01 
-9.567546531507e+01 4.538165963570e+00 0.0 
4.538165963570e+00 -1.975245913682e+02 0.0 
0.0 0.0 -8.756001700499e+01 
-9.168839221634e+01 -3.254059752021e+00 0.0 
-3.254059752021e+00 -2.351856449842e+02 0.0 
0.0 0.0 -9.766221116017e+01 
-3.699879180746e+01 -6.916765135864e+00 0.0 
-6.916765135864e+00 -1.523289924696e+02 0.0 
0.0 0.0 -5.639833528313e+01 
-4.739062263804e+01 2.511311401100e+01 0.0 
2.511311401100e+01 -1.416259003702e+02 0.0 
0.0 0.0 -5.630495690247e+01 
-4.134826288023e+01 -1.711548381010e+01 0.0 
-1.711548381010e+01 -9.026409066669e+01 0.0 
0.0 0.0 -3.803242382813e+01 
-3.687920845907e+01 -1.599003312504e+01 0.0 
-1.599003312504e+01 -1.259279784096e+02 0.0 
0.0 0.0 -4.844215606059e+01 
-3.822710336837e+01 -1.784197575457e+01 0.0 
-1.784197575457e+01 -1.083857919754e+02 0.0 
0.0 0.0 -4.336847411267e+01 
-8.550042196562e+01 1.047893634916e+01 0.0 
1.047893634916e+01 -2.553545202572e+02 0.0 
0.0 0.0 -1.018564826669e+02 
-1.309715182142e+02 1.248821307347e+01 0.0 
1.248821307347e+01 -2.984788244461e+02 0.0 
0.0 0.0 -1.284351027981e+02 
-2.671622666097e+01 8.591039679950e+00 0.0 
8.591039679950e+00 -2.505193409407e+01 0.0 
0.0 0.0 -1.513044822651e+01 
-1.379434956766e+02 1.810474185404e+00 0.0 
1.810474185404e+00 -3.406239110038e+02 0.0 
0.0 0.0 -1.431702220041e+02 
-5.657566042736e+01 1.278784993896e+01 0.0 
1.278784993896e+01 -1.971846417890e+02 0.0 
0.0 0.0 -7.572809066491e+01 
-9.491548569753e+01 6.793886372724e+00 0.0 
6.793886372724e+00 -1.885907219734e+02 0.0 
0.0 0.0 -8.465186230127e+01 
-2.751701834495e+01 4.572342249869e+00 0.0 
4.572342249869e+00 -1.382800996161e+02 0.0 
0.0 0.0 -5.115990256040e+01 
-1.437382780583e+02 8.310650656361e+00 0.0 
8.310650656361e+00 -3.561284624263e+02 0.0 
0.0 0.0 -1.495600221454e+02 
-4.560775264863e+01 -1.855854623784e+01 0.0 
-1.855854623784e+01 -1.110334865330e+02 0.0 
0.0 0.0 -4.532803809910e+01 
-5.875803139230e+01 -3.795109102874e+00 0.0 
-3.795109102874e+00 -1.417164666028e+02 0.0 
0.0 0.0 -5.974234939853e+01 
-1.092172918716e+02 1.347103600054e+01 0.0 
1.347103600054e+01 -2.962811508136e+02 0.0 
0.0 0.0 -1.212495328056e+02 
-7.854013132488e+01 -2.203683882921e+00 0.0 
-2.203683882921e+00 -2.305768245277e+02 0.0 
0.0 0.0 -9.233508675578e+01 
-1.248462639479e+02 1.939005884503e+01 0.0 
1.939005884503e+01 -3.150062860032e+02 0.0 
0.0 0.0 -1.315557649853e+02 
-5.230355424265e+01 2.766940422478e+01 0.0 
2.766940422478e+01 -1.267776962239e+02 0.0 
0.0 0.0 -5.332437513997e+01 
-1.035201572028e+02 9.606715386906e+00 0.0 
9.606715386906e+00 -2.092259886560e+02 0.0 
0.0 0.0 -9.342384375765e+01 
-1.347760326618e+02 1.640963820434e+01 0.0 
1.640963820434e+01 -3.383298162737e+02 0.0 
0.0 0.0 -1.415317546807e+02 
-9.148479593263e+01 3.427500168675e+00 0.0 
3.427500168675e+00 -1.878943081834e+02 0.0 
0.0 0.0 -8.341373123482e+01 
-1.215351988522e+02 1.567424311027e+01 0.0 
1.567424311027e+01 -2.628410480896e+02 0.0 
0.0 0.0 -1.149128740826e+02 
-1.051890615722e+02 7.678638063291e+00 0.0 
7.678638063291e+00 -2.191216559516e+02 0.0 
0.0 0.0 -9.689321525714e+01 
-1.091959467081e+02 9.005424345102e+00 0.0 
9.005424345102e+00 -2.292206579746e+02 0.0 
0.0 0.0 -1.011249814048e+02 
-3.386055101144e+01 2.292570529649e+01 0.0 
2.292570529649e+01 -1.284941087310e+02 0.0 
0.0 0.0 -4.825744712553e+01 
-1.331597912707e+02 8.113458577049e-01 0.0 
8.113458577049e-01 -3.295151609649e+02 0.0 
0.0 0.0 -1.384024856707e+02 
-9.985752404822e+01 5.798406692467e+00 0.0 
5.798406692467e+00 -2.075040919898e+02 0.0 
0.0 0.0 -9.180848481141e+01 
-7.408020399588e+01 1.729821667765e+01 0.0 
1.729821667765e+01 -2.214741144489e+02 0.0 
0.0 0.0 -8.826629553343e+01 
-3.361400780793e+01 5.496447496725e+00 0.0 
5.496447496725e+00 -4.198122025048e+01 0.0 
0.0 0.0 -2.227856841752e+01 
-1.408991433832e+02 1.938158389879e+01 0.0 
1.938158389879e+01 -3.454605606849e+02 0.0 
0.0 0.0 -1.455079112204e+02 
-3.326674221752e+01 1.023683679596e+01 0.0 
1.023683679596e+01 -1.523408379564e+02 0.0 
0.0 0.0 -5.528227405218e+01 
-5.508001076368e+01 -2.169279162630e+00 0.0 
-2.169279162630e+00 -1.331107297439e+02 0.0 
0.0 0.0 -5.605722215227e+01 
-1.194318979283e+02 1.674434210885e+01 0.0 
1.674434210885e+01 -3.087716957018e+02 0.0 
0.0 0.0 -1.280610780890e+02 
-3.137050529469e+01 5.863633151287e-01 0.0 
5.863633151287e-01 -8.024717761401e+01 0.0 
0.0 0.0 -3.308530487261e+01 
-7.624959494377e+01 2.370853756719e+01 0.0 
2.370853756719e+01 -1.994664640893e+02 0.0 
0.0 0.0 -8.231481770993e+01 
-1.140472296960e+02 1.213083448245e+01 0.0 
1.213083448245e+01 -3.068852765517e+02 0.0 
0.0 0.0 -1.258797518743e+02 
-1.153664289999e+02 9.886891173506e+00 0.0 
9.886891173506e+00 -2.490044424527e+02 0.0 
0.0 0.0 -1.089112614358e+02 
-1.191829246806e+02 1.143621611762e+01 0.0 
1.143621611762e+01 -2.599262800641e+02 0.0 
0.0 0.0 -1.133327614234e+02 
-1.097266508803e+02 1.407784054925e+01 0.0 
1.407784054925e+01 -2.966237228584e+02 0.0 
0.0 0.0 -1.215051121216e+02 
-1.080860047580e+02 7.448288612779e+00 0.0 
7.448288612779e+00 -2.296454541282e+02 0.0 
0.0 0.0 -1.009194376659e+02 
-6.120851248793e+01 1.566413884109e+01 0.0 
1.566413884109e+01 -2.013883801796e+02 0.0 
0.0 0.0 -7.837906780027e+01 
-1.123854663491e+02 2.232347115750e+01 0.0 
2.232347115750e+01 -2.560423811421e+02 0.0 
0.0 0.0 -1.101283542474e+02 
-4.229891221140e+01 3.918155975852e+00 0.0 
3.918155975852e+00 -6.127241376571e+01 0.0 
0.0 0.0 -3.067139779313e+01 
-1.212984352932e+02 1.747426403104e+01 0.0 
1.747426403104e+01 -2.685613508109e+02 0.0 
0.0 0.0 -1.165579358312e+02 
-5.072134555690e+01 3.056748531328e+00 0.0 
3.056748531328e+00 -8.056803554822e+01 0.0 
0.0 0.0 -3.898681433154e+01 
-5.520544279055e+01 2.844988265227e+00 0.0 
2.844988265227e+00 -9.008796758116e+01 0.0 
0.0 0.0 -4.318802311151e+01 
-7.267287882554e+01 1.254152124948e+01 0.0 
1.254152124948e+01 -2.285578583039e+02 0.0 
0.0 0.0 -8.996922113884e+01 
-5.886681514967e+01 2.490908958149e+00 0.0 
2.490908958149e+00 -9.999651320920e+01 0.0 
0.0 0.0 -4.725899850766e+01 
-8.755941596092e+01 2.160913106013e+01 0.0 
2.160913106013e+01 -2.324051232476e+02 0.0 
0.0 0.0 -9.558936176255e+01 
-6.603055384630e+01 2.193321256801e+01 0.0 
2.193321256801e+01 -1.934835832323e+02 0.0 
0.0 0.0 -7.745424112358e+01 
-7.374810090065e+01 6.342252501875e+00 0.0 
6.342252501875e+00 -2.324577356827e+02 0.0 
0.0 0.0 -9.146175097501e+01 
-3.203349130883e+01 -9.030085492592e+00 0.0 
-9.030085492592e+00 -1.401643342975e+02 0.0 
0.0 0.0 -5.089981239326e+01 
-6.808026113037e+01 9.696416964823e+00 0.0 
9.696416964823e+00 -2.227444107910e+02 0.0 
0.0 0.0 -8.684740157641e+01 
-1.090791985722e+02 5.209488331743e+00 0.0 
5.209488331743e+00 -2.390568501011e+02 0.0 
0.0 0.0 -1.040408146020e+02 
-1.213924701131e+02 1.552323429415e+01 0.0 
1.552323429415e+01 -2.667391174199e+02 0.0 
0.0 0.0 -1.160394762599e+02 
-1.236901209332e+02 -1.191758165581e-01 0.0 
-1.191758165581e-01 -3.105887257475e+02 0.0 
0.0 0.0 -1.298836540042e+02 
-1.294627329329e+02 1.729485953954e+01 0.0 
1.729485953954e+01 -3.267714293023e+02 0.0 
0.0 0.0 -1.364702486706e+02 
-7.474026049904e+01 -2.252608206720e+00 0.0 
-2.252608206720e+00 -2.289563179291e+02 0.0 
0.0 0.0 -9.070897352845e+01 
-1.068550890960e+02 6.920751796411e+00 0.0 
6.920751796411e+00 -2.278647487663e+02 0.0 
0.0 0.0 -1.000159513587e+02 
-7.221228577911e+01 7.125942718724e+00 0.0 
7.125942718724e+00 -2.319742798161e+02 0.0 
0.0 0.0 -9.085596967856e+01 
-1.381317482750e+02 6.957299986386e-01 0.0 
6.957299986386e-01 -3.373465315234e+02 0.0 
0.0 0.0 -1.422434839395e+02 
-1.028632721283e+02 5.669993775862e+00 0.0 
5.669993775862e+00 -2.177933675538e+02 0.0 
0.0 0.0 -9.579699190462e+01 
-1.063852871121e+02 9.306211092929e+00 0.0 
9.306211092929e+00 -2.191365598470e+02 0.0 
0.0 0.0 -9.725655408774e+01 
-9.940024813210e+01 9.317434298819e+00 0.0 
9.317434298819e+00 -2.821440847308e+02 0.0 
0.0 0.0 -1.140632998589e+02 
-6.440678239409e+01 1.259291122201e+01 0.0 
1.259291122201e+01 -2.126236843906e+02 0.0 
0.0 0.0 -8.270914003541e+01 
-1.200899978226e+02 2.245065992425e+01 0.0 
2.245065992425e+01 -2.753896334730e+02 0.0 
0.0 0.0 -1.182438893887e+02 
-9.446875174617e+01 1.644727799520e+01 0.0 
1.644727799520e+01 -1.924981756626e+02 0.0 
0.0 0.0 -8.569007822264e+01 
-3.818462396229e+01 -1.332550150445e+01 0.0 
-1.332550150445e+01 -1.423089863783e+02 0.0 
0.0 0.0 -5.373420908477e+01 
-3.300146987978e+01 5.279701705942e+00 0.0 
5.279701705942e+00 -1.508893660415e+02 0.0 
0.0 0.0 -5.462303712833e+01 
-5.649009656954e+01 2.530942264564e+01 0.0 
2.530942264564e+01 -1.445519059566e+02 0.0 
0.0 0.0 -5.991260075785e+01 
-8.558869913167e+01 2.138696058279e+01 0.0 
2.138696058279e+01 -1.916772079805e+02 0.0 
0.0 0.0 -8.277977213364e+01 
-1.429630984423e+02 5.472827257357e-01 0.0 
5.472827257357e-01 -3.454153163634e+02 0.0 
0.0 0.0 -1.461135244417e+02 
-1.022309091257e+02 7.919072805872e+00 0.0 
7.919072805872e+00 -2.088748236305e+02 0.0 
0.0 0.0 -9.293171982686e+01 
-6.421877058165e+01 1.148357236758e+01 0.0 
1.148357236758e+01 -2.123008942636e+02 0.0 
0.0 0.0 -8.255589945357e+01 
-9.656325902804e+01 2.251300131096e+01 0.0 
2.251300131096e+01 -2.160514283892e+02 0.0 
0.0 0.0 -9.338440622518e+01 
-1.192186804206e+02 1.092028115357e+01 0.0 
1.092028115357e+01 -3.171040632668e+02 0.0 
0.0 0.0 -1.304968231062e+02 
-1.072194421184e+02 6.031301487900e+00 0.0 
6.031301487900e+00 -2.305283920051e+02 0.0 
0.0 0.0 -1.009243502370e+02 
-1.238894378568e+02 2.232901578842e+01 0.0 
2.232901578842e+01 -2.811902336167e+02 0.0 
0.0 0.0 -1.211239014420e+02 
-8.924768682142e+01 4.668595722585e+00 0.0 
4.668595722585e+00 -1.770888713964e+02 0.0 
0.0 0.0 -7.950096746535e+01 
-1.258684343143e+02 6.979336029401e+00 0.0 
6.979336029401e+00 -3.283283605233e+02 0.0 
0.0 0.0 -1.358590384513e+02 
-7.736989134222e+01 9.494052900223e+00 0.0 
9.494052900223e+00 -2.390275793125e+02 0.0 
0.0 0.0 -9.451924119642e+01 
-1.204612623945e+02 1.161203130842e+01 0.0 
1.161203130842e+01 -3.177257267215e+02 0.0 
0.0 0.0 -1.310560967348e+02 
-7.861943462018e+01 2.242471872498e+01 0.0 
2.242471872498e+01 -2.001965879207e+02 0.0 
0.0 0.0 -8.324480676227e+01 
-1.146103944078e+02 8.259745808892e+00 0.0 
8.259745808892e+00 -2.497590192195e+02 0.0 
0.0 0.0 -1.089108240882e+02 
-1.286739461728e+02 2.264818990813e+01 0.0 
2.264818990813e+01 -2.891704773421e+02 0.0 
0.0 0.0 -1.249533270545e+02 
-9.000171037184e+01 8.571785672021e+00 0.0 
8.571785672021e+00 -2.650519698072e+02 0.0 
0.0 0.0 -1.061161040537e+02 
-3.080319135437e+01 3.958653421467e+00 0.0 
3.958653421467e+00 -1.477022931367e+02 0.0 
0.0 0.0 -5.301643314713e+01 
-1.193489172468e+02 2.024788138074e+01 0.0 
2.024788138074e+01 -2.925550372699e+02 0.0 
0.0 0.0 -1.231711863550e+02 
-8.434028719753e+01 2.289716431455e+01 0.0 
2.289716431455e+01 -2.179228774519e+02 0.0 
0.0 0.0 -9.027894939483e+01 
-6.009706028519e+01 1.459739369035e+01 0.0 
1.459739369035e+01 -2.006793164990e+02 0.0 
0.0 0.0 -7.783291303525e+01 
-9.550520717868e+01 1.109492284522e+01 0.0 
1.109492284522e+01 -2.726278280494e+02 0.0 
0.0 0.0 -1.100399105684e+02 
-1.230831502961e+02 6.011513951112e+00 0.0 
6.011513951112e+00 -3.197974820979e+02 0.0 
0.0 0.0 -1.324641897182e+02 
-3.243661772716e+01 -1.797367196527e+00 0.0 
-1.797367196527e+00 -1.470164376480e+02 0.0 
0.0 0.0 -5.311855456562e+01 
-8.094097905120e+01 7.848754549202e+00 0.0 
7.848754549202e+00 -2.483158069401e+02 0.0 
0.0 0.0 -9.837703579739e+01 
-9.723275523896e+01 1.259346300201e+01 0.0 
1.259346300201e+01 -1.936818448004e+02 0.0 
0.0 0.0 -8.687438001181e+01 
-1.440320930136e+02 2.070564308935e+00 0.0 
2.070564308935e+00 -3.461743616017e+02 0.0 
0.0 0.0 -1.466619363846e+02 
-1.012297822861e+02 1.445325952833e+01 0.0 
1.445325952833e+01 -2.064460078809e+02 0.0 
0.0 0.0 -9.190273705009e+01 
-1.154537259994e+02 2.056812083711e+01 0.0 
2.056812083711e+01 -2.788774679537e+02 0.0 
0.0 0.0 -1.178993581859e+02 
-9.300290904396e+01 1.066772803246e+01 0.0 
1.066772803246e+01 -1.813957839790e+02 0.0 
0.0 0.0 -8.191960790688e+01 
-8.369245634270e+01 6.753610491235e+00 0.0 
6.753610491235e+00 -1.582984660095e+02 0.0 
0.0 0.0 -7.219727670567e+01 
-9.807097693564e+01 1.798687067195e+01 0.0 
1.798687067195e+01 -2.067914016401e+02 0.0 
0.0 0.0 -9.105871357272e+01 
-1.243290860756e+02 1.567846999858e+01 0.0 
1.567846999858e+01 -3.204833063140e+02 0.0 
0.0 0.0 -1.330437177169e+02 
-1.299932682098e+02 2.242185598733e+00 0.0 
2.242185598733e+00 -3.228819975704e+02 0.0 
0.0 0.0 -1.354625797341e+02 
-9.680576277993e+01 5.961992391441e+00 0.0 
5.961992391441e+00 -1.973929928598e+02 0.0 
0.0 0.0 -8.785962669193e+01 
-1.172372201791e+02 9.510149429182e+00 0.0 
9.510149429182e+00 -2.587530763502e+02 0.0 
0.0 0.0 -1.123970889588e+02 
-8.860076795356e+01 8.713726610933e+00 0.0 
8.713726610933e+00 -1.696742835387e+02 0.0 
0.0 0.0 -7.708251544769e+01 
-4.858978045851e+01 1.098534752896e+01 0.0 
1.098534752896e+01 -1.815204583226e+02 0.0 
0.0 0.0 -6.863307163433e+01 
-1.240693280212e+02 2.252270564912e+01 0.0 
2.252270564912e+01 -2.982081357927e+02 0.0 
0.0 0.0 -1.262832391442e+02 
-1.141079043009e+02 6.896004978154e+00 0.0 
6.896004978154e+00 -2.508956671866e+02 0.0 
0.0 0.0 -1.091010714462e+02 
-7.617842218421e+01 2.068661811403e+01 0.0 
2.068661811403e+01 -2.116733154669e+02 0.0 
0.0 0.0 -8.595552129533e+01 
-8.131670955470e+01 2.133835965561e+01 0.0 
2.133835965561e+01 -2.150214550625e+02 0.0 
0.0 0.0 -8.850144938517e+01 
-5.618870540222e+01 1.117873961554e+01 0.0 
1.117873961554e+01 -1.966600083755e+02 0.0 
0.0 0.0 -7.545461413332e+01 
-1.009875073462e+02 7.359034698978e+00 0.0 
7.359034698978e+00 -2.077232702956e+02 0.0 
0.0 0.0 -9.221323329255e+01 
-6.316183231167e+01 2.300181782768e+01 0.0 
2.300181782768e+01 -1.313288513921e+02 0.0 
0.0 0.0 -5.794720511113e+01 
-9.249791384790e+01 1.930762466500e+01 0.0 
1.930762466500e+01 -2.466271509750e+02 0.0 
0.0 0.0 -1.013375194469e+02 
-6.150005434158e+01 2.606193207346e+01 0.0 
2.606193207346e+01 -1.312185994162e+02 0.0 
0.0 0.0 -5.741559612734e+01 
-1.143170219716e+02 1.521653478673e+01 0.0 
1.521653478673e+01 -3.026769843608e+02 0.0 
0.0 0.0 -1.246982018997e+02 
-1.329884473147e+02 2.285646393988e+01 0.0 
2.285646393988e+01 -3.165654242653e+02 0.0 
0.0 0.0 -1.344661614740e+02 
-6.063361037321e+01 7.923706579404e+00 0.0 
7.923706579404e+00 -2.071204277036e+02 0.0 
0.0 0.0 -7.992621142305e+01 
-2.707614911635e+01 -5.968315337422e+00 0.0 
-5.968315337422e+00 -1.267856161964e+02 0.0 
0.0 0.0 -4.735237206876e+01 
-1.182583546203e+02 1.145424080874e+01 0.0 
1.145424080874e+01 -2.598521668102e+02 0.0 
0.0 0.0 -1.130331564291e+02 
-6.764398631040e+01 2.104542910590e+01 0.0 
2.104542910590e+01 -1.345717494913e+02 0.0 
0.0 0.0 -6.026472074051e+01 
-7.792862251159e+01 4.459560531635e-01 0.0 
4.459560531635e-01 -2.391782287262e+02 0.0 
0.0 0.0 -9.473205537132e+01 
-1.283581861874e+02 2.066524037657e+01 0.0 
2.066524037657e+01 -3.115476676743e+02 0.0 
0.0 0.0 -1.315717561585e+02 
-9.926043361769e+01 8.142151052956e+00 0.0 
8.142151052956e+00 -1.988086730281e+02 0.0 
0.0 0.0 -8.902073199372e+01 
-1.250439737247e+02 2.284212574290e+00 0.0 
2.284212574290e+00 -3.151755247930e+02 0.0 
0.0 0.0 -1.316658495553e+02 
-6.116004030243e+01 2.020504345076e+01 0.0 
2.020504345076e+01 -1.907294608344e+02 0.0 
0.0 0.0 -7.516685034104e+01 
-2.542896167871e+01 -3.256309662062e+00 0.0 
-3.256309662062e+00 -1.244984400879e+02 0.0 
0.0 0.0 -4.709673835631e+01 
-1.486099901145e+02 2.002594702979e+00 0.0 
2.002594702979e+00 -3.552493531613e+02 0.0 
0.0 0.0 -1.507578029827e+02 
-8.846858619883e+01 2.166449947436e+01 0.0 
2.166449947436e+01 -2.071517193132e+02 0.0 
0.0 0.0 -8.828609165362e+01 
-1.049507965536e+02 1.864313551261e+01 0.0 
1.864313551261e+01 -2.779940618750e+02 0.0 
0.0 0.0 -1.144834575286e+02 
-1.239313124279e+02 2.111489691525e+01 0.0 
2.111489691525e+01 -2.895943618851e+02 0.0 
0.0 0.0 -1.236577022939e+02 
-3.987181834303e+01 -7.390147442402e-01 0.0 
-7.390147442402e-01 -1.240492948633e+02 0.0 
0.0 0.0 -5.102980818660e+01 
-1.228876939767e+02 1.026401773973e+00 0.0 
1.026401773973e+00 -3.139832799627e+02 0.0 
0.0 0.0 -1.306612921818e+02 
-4.051992705633e+01 2.321848006104e+01 0.0 
2.321848006104e+01 -1.400952112492e+02 0.0 
0.0 0.0 -5.378454149165e+01 
-9.191021728426e+01 6.897659853236e+00 0.0 
6.897659853236e+00 -1.785832947876e+02 0.0 
0.0 0.0 -8.074805362156e+01 
-9.975657246250e+01 -2.051633101036e+00 0.0 
-2.051633101036e+00 -2.545187259113e+02 0.0 
0.0 0.0 -1.058825895122e+02 
-5.995778444568e+01 9.419628226259e+00 0.0 
9.419628226259e+00 -2.071898423389e+02 0.0 
0.0 0.0 -7.974428803538e+01 
-1.394304052976e+02 2.119899032178e+00 0.0 
2.119899032178e+00 -3.382113129877e+02 0.0 
0.0 0.0 -1.428925154856e+02 
-8.933677758415e+01 2.059213916997e+01 0.0 
2.059213916997e+01 -2.329367391801e+02 0.0 
0.0 0.0 -9.628205502929e+01 
-5.227894629863e+01 9.254164217697e+00 0.0 
9.254164217697e+00 -1.922153388117e+02 0.0 
0.0 0.0 -7.294828553310e+01 
-9.171328927668e+01 2.320364165245e+01 0.0 
2.320364165245e+01 -2.112000913694e+02 0.0 
0.0 0.0 -9.047401419382e+01 
-3.177737033896e+01 -1.880046255465e+01 0.0 
-1.880046255465e+01 -1.215961996239e+02 0.0 
0.0 0.0 -4.712041762201e+01 
-1.077621746923e+02 2.254514582930e+01 0.0 
2.254514582930e+01 -2.505960056506e+02 0.0 
0.0 0.0 -1.071074541029e+02 
-1.146083587428e+02 1.603933373105e+01 0.0 
1.603933373105e+01 -3.029768976130e+02 0.0 
0.0 0.0 -1.248755769067e+02 
-1.298863595791e+02 2.152452481440e+01 0.0 
2.152452481440e+01 -2.925632796581e+02 0.0 
0.0 0.0 -1.263348917712e+02 
-1.159954400113e+02 2.259006980962e+01 0.0 
2.259006980962e+01 -2.702917850517e+02 0.0 
0.0 0.0 -1.154861675189e+02 
-3.876981541527e+01 5.761041742728e+00 0.0 
5.761041742728e+00 -1.637505966893e+02 0.0 
0.0 0.0 -6.035612363136e+01 
-1.256371468359e+02 1.288935961487e+00 0.0 
1.288935961487e+00 -3.117306857139e+02 0.0 
0.0 0.0 -1.308103497649e+02 
-1.159015701748e+02 6.085474285949e+00 0.0 
6.085474285949e+00 -2.592556880655e+02 0.0 
0.0 0.0 -1.121471774721e+02 
-1.456227196390e+02 2.097581759554e+01 0.0 
2.097581759554e+01 -3.509078203384e+02 0.0 
0.0 0.0 -1.485591619932e+02 
-1.196798439775e+02 1.780212802981e+01 0.0 
1.780212802981e+01 -3.091029694699e+02 0.0 
0.0 0.0 -1.282348440342e+02 
-6.445823501680e+01 1.737914576954e+01 0.0 
1.737914576954e+01 -2.042477709439e+02 0.0 
0.0 0.0 -8.021180178820e+01 
-9.965359604229e+01 2.277208747902e+01 0.0 
2.277208747902e+01 -2.308729942172e+02 0.0 
0.0 0.0 -9.875797707785e+01 
-1.424320155724e+02 -4.139365219042e-02 0.0 
-4.139365219042e-02 -3.419216282180e+02 0.0 
0.0 0.0 -1.449060931371e+02 
-9.536088350215e+01 -2.341271654683e-01 0.0 
-2.341271654683e-01 -2.311719492133e+02 0.0 
0.0 0.0 -9.755984981464e+01 
-1.118186542052e+02 2.064490323963e+01 0.0 
2.064490323963e+01 -2.648112011851e+02 0.0 
0.0 0.0 -1.125889566171e+02 
-9.249376219918e+01 4.605075547935e+00 0.0 
4.605075547935e+00 -1.872036380749e+02 0.0 
0.0 0.0 -8.350922008223e+01 
-1.347775734518e+02 2.191183182336e+00 0.0 
2.191183182336e+00 -3.305040024994e+02 0.0 
0.0 0.0 -1.391844727853e+02 
-1.293772362748e+02 3.564107954099e+00 0.0 
3.564107954099e+00 -3.259260869972e+02 0.0 
0.0 0.0 -1.361909969816e+02 
-5.531026286987e+01 7.897362024029e-02 0.0 
7.897362024029e-02 -1.059442502469e+02 0.0 
0.0 0.0 -4.797635393503e+01 
-5.519816807055e+01 -1.222960694911e-01 0.0 
-1.222960694911e-01 -1.059179946735e+02 0.0 
0.0 0.0 -4.793484882322e+01 
-1.025938143382e+02 1.468897257617e+01 0.0 
1.468897257617e+01 -2.036351500268e+02 0.0 
0.0 0.0 -9.146868930951e+01 
-1.039341373365e+02 2.076135148776e+01 0.0 
2.076135148776e+01 -2.455677185494e+02 0.0 
0.0 0.0 -1.044505567658e+02 
-1.042186041012e+02 -1.479661914815e+00 0.0 
-1.479661914815e+00 -2.619799669198e+02 0.0 
0.0 0.0 -1.094595713063e+02 
-1.022935817574e+02 1.975013882228e+01 0.0 
1.975013882228e+01 -2.137928011572e+02 0.0 
0.0 0.0 -9.442591487441e+01 
-8.420933048745e+01 1.989817302960e+01 0.0 
1.989817302960e+01 -2.290406659364e+02 0.0 
0.0 0.0 -9.357499892714e+01 
-1.351179692898e+02 1.087564551044e+01 0.0 
1.087564551044e+01 -3.435245533840e+02 0.0 
0.0 0.0 -1.431927568021e+02 
-6.606642615990e+01 1.790694390819e+01 0.0 
1.790694390819e+01 -2.050426212261e+02 0.0 
0.0 0.0 -8.093271421580e+01 
-1.291038713551e+02 1.120923134695e+01 0.0 
1.120923134695e+01 -2.960057477519e+02 0.0 
0.0 0.0 -1.271328857321e+02 
-7.628799950485e+01 5.603379258697e+00 0.0 
5.603379258697e+00 -1.387022040106e+02 0.0 
0.0 0.0 -6.409706105465e+01 
-7.918472371831e+01 2.227262295546e+01 0.0 
2.227262295546e+01 -2.143221826256e+02 0.0 
0.0 0.0 -8.765207190317e+01 
-9.711527252653e+01 -3.552374003321e+00 0.0 
-3.552374003321e+00 -2.530540947135e+02 0.0 
0.0 0.0 -1.046508101720e+02 
-3.502845369344e+01 1.130901315440e+01 0.0 
1.130901315440e+01 -1.529464049404e+02 0.0 
0.0 0.0 -5.599245759014e+01 
-8.729024173834e+01 -4.040734429361e+00 0.0 
-4.040734429361e+00 -2.279370415584e+02 0.0 
0.0 0.0 -9.416818498902e+01 
-9.613033456580e+01 2.111934820839e+01 0.0 
2.111934820839e+01 -2.263483180393e+02 0.0 
0.0 0.0 -9.634359578154e+01 
-9.000284719853e+01 2.028932149205e+01 0.0 
2.028932149205e+01 -1.960677387020e+02 0.0 
0.0 0.0 -8.542117577016e+01 
-9.373351560658e+01 6.109278564501e+00 0.0 
6.109278564501e+00 -1.874294337007e+02 0.0 
0.0 0.0 -8.394888479218e+01 
-1.052898082872e+02 1.832005900804e+01 0.0 
1.832005900804e+01 -2.271001125165e+02 0.0 
0.0 0.0 -9.931697624112e+01 
-1.095294390954e+02 2.009620659305e+01 0.0 
2.009620659305e+01 -2.340898023722e+02 0.0 
0.0 0.0 -1.026857724403e+02 
-2.118875017051e+01 -2.002311904104e-01 0.0 
-2.002311904104e-01 -5.920520077257e+01 0.0 
0.0 0.0 -2.371818528292e+01 
-8.113903152826e+01 -6.093310994556e+00 0.0 
-6.093310994556e+00 -2.141063868577e+02 0.0 
0.0 0.0 -8.817362551579e+01 
-6.631664360145e+01 2.456872169719e+01 0.0 
2.456872169719e+01 -1.345943480404e+02 0.0 
0.0 0.0 -5.987329749255e+01 
-9.791662415994e+01 1.535984140899e+01 0.0 
1.535984140899e+01 -1.991763146448e+02 0.0 
0.0 0.0 -8.872788164142e+01 
-1.027826989518e+02 1.729329146302e+01 0.0 
1.729329146302e+01 -2.079085678906e+02 0.0 
0.0 0.0 -9.280738005272e+01 
-1.293054468741e+02 1.461818478285e+01 0.0 
1.461818478285e+01 -3.310183891931e+02 0.0 
0.0 0.0 -1.376971508202e+02 
-3.560416012231e+01 -1.167073866839e+00 0.0 
-1.167073866839e+00 -8.947477390264e+01 0.0 
0.0 0.0 -3.712368020748e+01 
-3.301884371531e+01 -9.401486065939e+00 0.0 
-9.401486065939e+00 -1.400436676142e+02 0.0 
0.0 0.0 -5.193540669856e+01 
-8.362532023019e+01 2.219842590745e+01 0.0 
2.219842590745e+01 -2.034699391888e+02 0.0 
0.0 0.0 -8.572857782570e+01 
-8.389612074452e+01 -4.441155773645e+00 0.0 
-4.441155773645e+00 -2.156319011665e+02 0.0 
0.0 0.0 -8.945840657331e+01 
-5.789122825366e+01 6.090301995229e+00 0.0 
6.090301995229e+00 -9.217424942858e+01 0.0 
0.0 0.0 -4.461964330467e+01 
-6.172833528879e+01 5.434345545380e+00 0.0 
5.434345545380e+00 -1.017967160572e+02 0.0 
0.0 0.0 -4.865751540378e+01 
-9.626256077113e+01 8.383215980021e+00 0.0 
8.383215980021e+00 -1.888877232433e+02 0.0 
0.0 0.0 -8.514508520434e+01 
-3.050131045616e+01 2.345824941852e+01 0.0 
2.345824941852e+01 -1.083885206930e+02 0.0 
0.0 0.0 -4.116399482787e+01 
-9.364602117971e+01 -4.152500290744e+00 0.0 
-4.152500290744e+00 -2.412665726675e+02 0.0 
0.0 0.0 -1.000737781542e+02 
-1.159413406623e+02 9.515447206274e+00 0.0 
9.515447206274e+00 -3.099279126698e+02 0.0 
0.0 0.0 -1.273607759996e+02 
-2.912837691931e+01 -3.290744784614e+00 0.0 
-3.290744784614e+00 -1.400333770912e+02 0.0 
0.0 0.0 -5.145342349165e+01 
-1.399809965099e+02 2.313612235649e+01 0.0 
2.313612235649e+01 -3.284716762223e+02 0.0 
0.0 0.0 -1.401358018197e+02 
-1.117140371460e+02 8.552355177040e+00 0.0 
8.552355177040e+00 -2.390640315178e+02 0.0 
0.0 0.0 -1.048334205991e+02 
-9.221520802571e+01 -2.709372005517e+00 0.0 
-2.709372005517e+00 -2.305899197780e+02 0.0 
0.0 0.0 -9.644153834112e+01 
-1.286580030281e+02 -7.372255740456e-02 0.0 
-7.372255740456e-02 -3.183739411423e+02 0.0 
0.0 0.0 -1.337095832511e+02 
-1.491749682050e+01 -8.119076793406e-01 0.0 
-8.119076793406e-01 -4.247440820944e+01 0.0 
0.0 0.0 -1.681757150898e+01 
-1.116193664585e+02 7.342287688567e+00 0.0 
7.342287688567e+00 -3.015676270236e+02 0.0 
0.0 0.0 -1.235560980446e+02 
-8.663672327163e+01 2.368657543373e+01 0.0 
2.368657543373e+01 -2.067978521128e+02 0.0 
0.0 0.0 -8.763037261531e+01 
-1.458058322613e+01 -6.782882191705e-01 0.0 
-6.782882191705e-01 -4.235508314765e+01 0.0 
0.0 0.0 -1.668069991213e+01 
-1.096448416380e+02 6.726727429393e+00 0.0 
6.726727429393e+00 -2.379481712883e+02 0.0 
0.0 0.0 -1.038779038779e+02 
-2.896378844719e+01 -3.357265813332e+00 0.0 
-3.357265813332e+00 -1.357444059920e+02 0.0 
0.0 0.0 -5.020633253320e+01 
-9.896018397779e+01 1.828041862037e+01 0.0 
1.828041862037e+01 -2.002575974473e+02 0.0 
0.0 0.0 -8.936533442751e+01 
-8.888048954516e+01 2.290506981928e+01 0.0 
2.290506981928e+01 -1.960952207699e+02 0.0 
0.0 0.0 -8.509271309451e+01 
-7.588261109211e+01 1.398216901599e+00 0.0 
1.398216901599e+00 -2.329792136264e+02 0.0 
0.0 0.0 -9.225854741555e+01 
-9.722237224775e+01 4.124579637821e-01 0.0 
4.124579637821e-01 -2.719410026368e+02 0.0 
0.0 0.0 -1.103490124654e+02 
-1.133007431523e+02 8.038404508710e+00 0.0 
8.038404508710e+00 -2.479581963980e+02 0.0 
0.0 0.0 -1.079776818651e+02 
-1.065588122591e+02 1.869931796723e+00 0.0 
1.869931796723e+00 -2.902571010394e+02 0.0 
0.0 0.0 -1.186447739896e+02 
-8.640632457581e+01 2.157076984309e+01 0.0 
2.157076984309e+01 -2.185108706487e+02 0.0 
0.0 0.0 -9.107515856736e+01 
-8.145471774776e+01 2.388717608160e+01 0.0 
2.388717608160e+01 -2.029055922896e+02 0.0 
0.0 0.0 -8.490809301120e+01 
-3.870822844555e+01 2.851573894604e+01 0.0 
2.851573894604e+01 -2.834594654037e+01 0.0 
0.0 0.0 -1.958473208438e+01 
-2.628408448542e+01 -3.677572434263e+00 0.0 
-3.677572434263e+00 -1.304642523429e+02 0.0 
0.0 0.0 -4.835417465151e+01 
-1.197346710570e+02 2.259829900845e+01 0.0 
2.259829900845e+01 -2.842245751113e+02 0.0 
0.0 0.0 -1.207877738505e+02 
-8.991254756499e+01 9.239434183999e+00 0.0 
9.239434183999e+00 -1.694992606423e+02 0.0 
0.0 0.0 -7.742354246218e+01 
-1.235569537166e+02 2.097069577638e+01 0.0 
2.097069577638e+01 -2.975881898146e+02 0.0 
0.0 0.0 -1.259435430594e+02 
-4.359321984989e+01 2.418730079079e+01 0.0 
2.418730079079e+01 -1.416080466696e+02 0.0 
0.0 0.0 -5.516037995584e+01 
-1.102712750467e+02 1.258776555058e+01 0.0 
1.258776555058e+01 -2.319183114396e+02 0.0 
0.0 0.0 -1.022568759459e+02 
-1.242583967079e+02 2.295444070213e+01 0.0 
2.295444070213e+01 -2.899257275423e+02 0.0 
0.0 0.0 -1.238552372751e+02 
-6.434689597718e+01 4.315856486414e+00 0.0 
4.315856486414e+00 -1.095011379470e+02 0.0 
0.0 0.0 -5.175441017725e+01 
-1.197499905785e+02 2.082094189519e+01 0.0 
2.082094189519e+01 -2.837871221913e+02 0.0 
0.0 0.0 -1.206611338309e+02 
-1.303027297449e+02 1.385828685360e+00 0.0 
1.385828685360e+00 -3.194011009297e+02 0.0 
0.0 0.0 -1.345111492024e+02 
-9.921647215635e+01 2.091505641408e+01 0.0 
2.091505641408e+01 -2.410125667476e+02 0.0 
0.0 0.0 -1.016687116712e+02 
-8.895513705000e+01 -4.826452640411e+00 0.0 
-4.826452640411e+00 -2.336829823578e+02 0.0 
0.0 0.0 -9.639143582235e+01 
-9.520083434261e+01 -2.656096567057e+00 0.0 
-2.656096567057e+00 -2.471656180466e+02 0.0 
0.0 0.0 -1.023099357168e+02 
-1.210437157943e+02 1.378292348738e+01 0.0 
1.378292348738e+01 -2.620131774552e+02 0.0 
0.0 0.0 -1.145170679749e+02 
-8.836991813649e+01 -1.163236376651e+00 0.0 
-1.163236376651e+00 -2.538303779449e+02 0.0 
0.0 0.0 -1.022600888244e+02 
-9.310241837591e+01 2.092947624370e+01 0.0 
2.092947624370e+01 -2.113455191983e+02 0.0 
0.0 0.0 -9.093438127227e+01 
-8.243265243523e+01 1.683586410005e+01 0.0 
1.683586410005e+01 -2.382237627635e+02 0.0 
0.0 0.0 -9.579692455961e+01 
-1.164131157053e+02 3.228607948360e+00 0.0 
3.228607948360e+00 -3.087195854807e+02 0.0 
0.0 0.0 -1.271398103558e+02 
-7.407074063955e+01 2.116464046704e+01 0.0 
2.116464046704e+01 -2.108790384067e+02 0.0 
0.0 0.0 -8.508493371388e+01 
-4.152958109488e+01 4.492374149346e+00 0.0 
4.492374149346e+00 -1.722487127846e+02 0.0 
0.0 0.0 -6.373348816383e+01 
-8.559298683526e+01 5.975391571612e+00 0.0 
5.975391571612e+00 -2.571849116879e+02 0.0 
0.0 0.0 -1.024333695570e+02 
-4.516993082413e+01 9.254730042807e+00 0.0 
9.254730042807e+00 -1.779526041922e+02 0.0 
0.0 0.0 -6.653676050490e+01 
-1.016598109063e+02 1.699357018116e+01 0.0 
1.699357018116e+01 -2.129610816782e+02 0.0 
0.0 0.0 -9.398626777534e+01 
-4.560282528443e+01 6.404454822486e+00 0.0 
6.404454822486e+00 -1.775018579063e+02 0.0 
0.0 0.0 -6.653140495722e+01 
-9.813969579527e+01 2.082085690374e+01 0.0 
2.082085690374e+01 -2.073714497185e+02 0.0 
0.0 0.0 -9.125334365412e+01 
-1.248160369770e+02 1.669838944786e+01 0.0 
1.669838944786e+01 -3.209143841057e+02 0.0 
0.0 0.0 -1.333191263248e+02 
-1.191283086513e+02 1.397938538588e+01 0.0 
1.397938538588e+01 -3.138233843588e+02 0.0 
0.0 0.0 -1.294855079030e+02 
-7.106908380803e+01 1.956779941939e+01 0.0 
1.956779941939e+01 -2.084018621058e+02 0.0 
0.0 0.0 -8.344128377416e+01 
-9.059846494565e+01 6.241916114813e+00 0.0 
6.241916114813e+00 -1.776510580018e+02 0.0 
0.0 0.0 -8.007485688424e+01 
-1.335006066410e+02 -4.621963638443e-02 0.0 
-4.621963638443e-02 -3.262437396847e+02 0.0 
0.0 0.0 -1.375233038977e+02 
-1.348406909575e+02 1.446629415073e+00 0.0 
1.446629415073e+00 -3.271544829644e+02 0.0 
0.0 0.0 -1.381985521766e+02 
-3.291863594022e+01 2.594067235382e+01 0.0 
2.594067235382e+01 -9.159952770622e+01 0.0 
0.0 0.0 -3.643821708037e+01 
-1.014605833503e+02 1.917257088061e+01 0.0 
1.917257088061e+01 -2.212159252525e+02 0.0 
0.0 0.0 -9.640295258084e+01 
-1.481307648827e+02 2.147766648482e-01 0.0 
2.147766648482e-01 -3.544651673348e+02 0.0 
0.0 0.0 -1.503787796653e+02 
-4.733737994804e+01 1.676319270967e+01 0.0 
1.676319270967e+01 -7.309054839558e+01 0.0 
0.0 0.0 -3.572837850309e+01 
-1.002563749617e+02 -1.831660551302e+00 0.0 
-1.831660551302e+00 -2.500995853285e+02 0.0 
0.0 0.0 -1.047067880871e+02 
-4.194354157141e+01 2.844492097287e+01 0.0 
2.844492097287e+01 -2.897364904754e+01 0.0 
0.0 0.0 -2.012530039590e+01 
-1.381784063689e+02 -4.225388666648e-02 0.0 
-4.225388666648e-02 -3.341703955503e+02 0.0 
0.0 0.0 -1.413046405758e+02 
-3.879460583954e+01 9.534634600132e+00 0.0 
9.534634600132e+00 -1.645952870773e+02 0.0 
0.0 0.0 -6.061696787505e+01 
-9.783091296341e+01 -1.428253374253e+00 0.0 
-1.428253374253e+00 -2.370019112149e+02 0.0 
0.0 0.0 -1.000498472535e+02 
-1.051369912500e+02 1.768216769976e+01 0.0 
1.768216769976e+01 -2.779091408142e+02 0.0 
0.0 0.0 -1.145138396193e+02 
-9.331159348704e+01 8.669794676313e+00 0.0 
8.669794676313e+00 -1.792556841857e+02 0.0 
0.0 0.0 -8.137018330183e+01 
-8.779997237572e+01 6.616208530521e+00 0.0 
6.616208530521e+00 -1.681123032783e+02 0.0 
0.0 0.0 -7.637368269620e+01 
-9.135623779619e+01 2.147447621008e+01 0.0 
2.147447621008e+01 -2.222419100992e+02 0.0 
0.0 0.0 -9.367944436862e+01 
-5.021017775770e+01 7.386433463674e+00 0.0 
7.386433463674e+00 -7.326281101947e+01 0.0 
0.0 0.0 -3.664189663315e+01 
-5.409404441709e+01 6.474703536575e+00 0.0 
6.474703536575e+00 -8.276971305822e+01 0.0 
0.0 0.0 -4.065912724259e+01 
-1.391743188821e+02 1.427254017903e+00 0.0 
1.427254017903e+00 -3.349373105082e+02 0.0 
0.0 0.0 -1.418334888171e+02 
-1.038266181954e+02 3.126934646690e+00 0.0 
3.126934646690e+00 -2.833168780830e+02 0.0 
0.0 0.0 -1.157430488835e+02 
-8.416292655672e+01 3.033060224137e+00 0.0 
3.033060224137e+00 -2.496266875596e+02 0.0 
0.0 0.0 -9.973688423489e+01 
-1.095821297652e+02 6.708144392899e+00 0.0 
6.708144392899e+00 -3.005879195907e+02 0.0 
0.0 0.0 -1.226510148068e+02 
-7.673900739705e+01 4.969169047583e+00 0.0 
4.969169047583e+00 -2.405360212707e+02 0.0 
0.0 0.0 -9.478250860034e+01 
-4.149435235967e+01 1.097097225251e+01 0.0 
1.097097225251e+01 -1.669528529203e+02 0.0 
0.0 0.0 -6.213416158399e+01 
-4.677362903494e+01 3.429616331893e+00 0.0 
3.429616331893e+00 -7.052797367096e+01 0.0 
0.0 0.0 -3.479048081177e+01 
-8.182073234706e+01 7.710449499350e+00 0.0 
7.710449499350e+00 -1.494456471840e+02 0.0 
0.0 0.0 -6.897991385933e+01 
-5.542009312125e+01 -1.553417636806e-02 0.0 
-1.553417636806e-02 -1.061468253187e+02 0.0 
0.0 0.0 -4.807007553199e+01 
-1.197371021564e+02 1.480955246950e+01 0.0 
1.480955246950e+01 -3.142501450943e+02 0.0 
0.0 0.0 -1.297961741752e+02 
-6.914464474313e+01 1.954591430615e+01 0.0 
1.954591430615e+01 -2.075808285024e+02 0.0 
0.0 0.0 -8.261764197366e+01 
-1.396513652659e+02 1.811357486738e+01 0.0 
1.811357486738e+01 -3.445765935119e+02 0.0 
0.0 0.0 -1.448683876333e+02 
-1.377729488225e+02 -8.394374000095e-01 0.0 
-8.394374000095e-01 -3.289749075922e+02 0.0 
0.0 0.0 -1.396243569244e+02 
-8.236001873633e+01 7.468335312671e+00 0.0 
7.468335312671e+00 -2.488309026465e+02 0.0 
0.0 0.0 -9.895727641486e+01 
-1.537344431795e+02 2.506332177416e+00 0.0 
2.506332177416e+00 -3.658532896214e+02 0.0 
0.0 0.0 -1.554763198403e+02 
-5.039595281473e+01 2.623471050490e+00 0.0 
2.623471050490e+00 -1.864467701767e+02 0.0 
0.0 0.0 -7.065281689744e+01 
-1.339269676116e+02 1.882423851389e+01 0.0 
1.882423851389e+01 -3.322392747276e+02 0.0 
0.0 0.0 -1.394498727018e+02 
-8.953292331858e+01 2.313881099356e+01 0.0 
2.313881099356e+01 -2.218275524839e+02 0.0 
0.0 0.0 -9.300814274075e+01 
-1.024365289340e+02 2.038892650262e+01 0.0 
2.038892650262e+01 -2.552068974135e+02 0.0 
0.0 0.0 -1.068930279042e+02 
-1.321850736133e+02 9.785238655188e+00 0.0 
9.785238655188e+00 -3.375988605197e+02 0.0 
0.0 0.0 -1.405351802399e+02 
-6.862603289786e+01 -7.906987897673e+00 0.0 
-7.906987897673e+00 -1.825650497419e+02 0.0 
0.0 0.0 -7.495732479192e+01 
-9.743090639202e+01 2.008497172442e+01 0.0 
2.008497172442e+01 -2.160248531862e+02 0.0 
0.0 0.0 -9.363672787347e+01 
-7.890081813740e+01 4.450036250452e+00 0.0 
4.450036250452e+00 -2.413390009897e+02 0.0 
0.0 0.0 -9.567194573812e+01 
-9.360164762150e+01 2.188147358755e+01 0.0 
2.188147358755e+01 -2.013652675002e+02 0.0 
0.0 0.0 -8.809007453650e+01 
-4.456143609347e+01 2.493855067455e+01 0.0 
2.493855067455e+01 -1.403892187517e+02 0.0 
0.0 0.0 -5.508519645356e+01 
-1.058462546215e+02 1.966050368631e+01 0.0 
1.966050368631e+01 -2.689751228708e+02 0.0 
0.0 0.0 -1.120464132477e+02 
-7.295978910531e+01 1.911850675244e+00 0.0 
1.911850675244e+00 -2.318594598128e+02 0.0 
0.0 0.0 -9.104577467543e+01 
-1.019034717439e+02 -3.044016434076e+00 0.0 
-3.044016434076e+00 -2.606288906981e+02 0.0 
0.0 0.0 -1.083597087326e+02 
-9.415786722041e+01 1.911634334387e+01 0.0 
1.911634334387e+01 -2.010728550061e+02 0.0 
0.0 0.0 -8.816921666796e+01 
-4.331970137598e+01 3.577393414197e+01 0.0 
3.577393414197e+01 -5.661026811530e+01 0.0 
0.0 0.0 -2.970606126441e+01 
-9.117663647429e+01 1.652610204175e+01 0.0 
1.652610204175e+01 -2.554545705299e+02 0.0 
0.0 0.0 -1.035893621013e+02 
-3.896841023239e+01 2.929481659346e+01 0.0 
2.929481659346e+01 -4.943633858823e+01 0.0 
0.0 0.0 -2.459565026089e+01 
-2.668234142311e+01 -3.607443137013e+00 0.0 
-3.607443137013e+00 -6.391599107939e+01 0.0 
0.0 0.0 -2.677949975075e+01 
-9.817469576278e+01 -3.505700386394e+00 0.0 
-3.505700386394e+00 -2.488003030551e+02 0.0 
0.0 0.0 -1.036924996454e+02 
-1.166013580284e+02 2.198924760026e+01 0.0 
2.198924760026e+01 -2.617831158094e+02 0.0 
0.0 0.0 -1.131153421513e+02 
-9.189363383727e+01 8.248898251988e+00 0.0 
8.248898251988e+00 -1.785791645846e+02 0.0 
0.0 0.0 -8.074183952656e+01 
-4.297817005820e+01 9.771125234187e+00 0.0 
9.771125234187e+00 -5.522024335414e+01 0.0 
0.0 0.0 -2.905952402370e+01 
-1.261575559741e+02 1.129197150399e+01 0.0 
1.129197150399e+01 -2.957009639395e+02 0.0 
0.0 0.0 -1.261575559741e+02 
-4.087383023580e+01 3.086642195003e+01 0.0 
3.086642195003e+01 -2.875518164002e+01 0.0 
0.0 0.0 -2.120948379678e+01 
-4.625589229361e+01 8.202121936297e+00 0.0 
8.202121936297e+00 -6.396300219681e+01 0.0 
0.0 0.0 -3.266566834712e+01 
-8.659055985337e+01 1.914869639231e+00 0.0 
1.914869639231e+00 -2.562948053854e+02 0.0 
0.0 0.0 -1.024656095716e+02 
-9.627502004560e+01 -1.935016723077e+00 0.0 
-1.935016723077e+00 -2.382758055143e+02 0.0 
0.0 0.0 -9.996524766796e+01 
-6.478008960858e+01 1.247919647852e+01 0.0 
1.247919647852e+01 -1.045314105173e+02 0.0 
0.0 0.0 -5.039345003778e+01 
-5.452387908939e+01 -4.770725406696e+00 0.0 
-4.770725406696e+00 -1.894811078183e+02 0.0 
0.0 0.0 -7.280149607230e+01 
-9.487527838709e+01 1.464133122978e+00 0.0 
1.464133122978e+00 -2.653837908438e+02 0.0 
0.0 0.0 -1.076777207693e+02 
-9.467909048560e+01 2.308225799345e+01 0.0 
2.308225799345e+01 -2.261541107759e+02 0.0 
0.0 0.0 -9.584996037845e+01 
-1.002695831132e+02 1.645350407808e+01 0.0 
1.645350407808e+01 -2.730494241218e+02 0.0 
0.0 0.0 -1.115957021705e+02 
-1.182506990822e+02 1.772381402026e+01 0.0 
1.772381402026e+01 -2.604574408849e+02 0.0 
0.0 0.0 -1.132124419902e+02 
-3.452870083603e+01 2.767022746767e+01 0.0 
2.767022746767e+01 -1.164093665461e+02 0.0 
0.0 0.0 -4.548304364133e+01 
-9.009820617634e+01 -4.475707328299e+00 0.0 
-4.475707328299e+00 -2.293018134906e+02 0.0 
0.0 0.0 -9.542000590010e+01 
-9.878771934269e+01 -3.066630512835e+00 0.0 
-3.066630512835e+00 -2.450738290985e+02 0.0 
0.0 0.0 -1.027584645324e+02 
-5.476612049725e+01 -7.569540574155e+00 0.0 
-7.569540574155e+00 -1.345493329652e+02 0.0 
0.0 0.0 -5.639463603873e+01 
-6.785989737255e+01 3.866545291487e+00 0.0 
3.866545291487e+00 -1.188606339191e+02 0.0 
0.0 0.0 -5.561615938749e+01 
-9.426628146252e+01 1.094048074508e+01 0.0 
1.094048074508e+01 -1.801266938756e+02 0.0 
0.0 0.0 -8.191789260142e+01 
-1.252141004883e+02 7.714102296782e-01 0.0 
7.714102296782e-01 -3.000925149397e+02 0.0 
0.0 0.0 -1.271919846284e+02 
-1.349970289675e+01 -8.203834579485e-01 0.0 
-8.203834579485e-01 -4.245179980377e+01 0.0 
0.0 0.0 -1.638545081016e+01 
-4.958241928336e+01 -7.233114111434e+00 0.0 
-7.233114111434e+00 -1.184294214710e+02 0.0 
0.0 0.0 -5.178194353511e+01 
-4.036716801941e+01 -6.770963913269e+00 0.0 
-6.770963913269e+00 -9.267805971314e+01 0.0 
0.0 0.0 -3.951356831976e+01 
-1.002987469227e+02 -1.253530798587e+00 0.0 
-1.253530798587e+00 -2.461376023283e+02 0.0 
0.0 0.0 -1.035309047753e+02 
-5.772250455312e+01 3.938628606374e+00 0.0 
3.938628606374e+00 -2.011822550330e+02 0.0 
0.0 0.0 -7.727142787584e+01 
-5.403031628024e+01 -4.533874790941e+00 0.0 
-4.533874790941e+00 -1.856554776407e+02 0.0 
0.0 0.0 -7.150573817628e+01 
-4.355470994894e+01 1.166286588264e+00 0.0 
1.166286588264e+00 -1.723952124427e+02 0.0 
0.0 0.0 -6.438497671748e+01 
-1.026442746001e+02 -2.914201987478e+00 0.0 
-2.914201987478e+00 -2.565623277153e+02 0.0 
0.0 0.0 -1.073619806946e+02 
-1.003028538481e+02 1.183882948639e+01 0.0 
1.183882948639e+01 -2.018745173306e+02 0.0 
0.0 0.0 -9.025321135363e+01 
-1.030245335341e+02 -2.474191728753e+00 0.0 
-2.474191728753e+00 -2.531753912066e+02 0.0 
0.0 0.0 -1.064599774222e+02 
-5.596046561129e+01 5.757599062761e+00 0.0 
5.757599062761e+00 -2.008625491633e+02 0.0 
0.0 0.0 -7.664690443238e+01 
-1.012503713555e+02 2.177119564796e+01 0.0 
2.177119564796e+01 -2.216105459933e+02 0.0 
0.0 0.0 -9.645827520462e+01 
-7.217188456606e+01 1.563846856812e+00 0.0 
1.563846856812e+00 -1.373234455268e+02 0.0 
0.0 0.0 -6.244859902785e+01 
-1.147841540151e+02 1.775426091515e+01 0.0 
1.775426091515e+01 -2.963654379562e+02 0.0 
0.0 0.0 -1.229448775914e+02 
-1.042807639711e+02 -6.455169591346e-01 0.0 
-6.455169591346e-01 -2.541447265723e+02 0.0 
0.0 0.0 -1.071276471630e+02 
-1.044156923422e+02 -1.204936300678e+00 0.0 
-1.204936300678e+00 -2.577396800587e+02 0.0 
0.0 0.0 -1.082466117203e+02 
-3.690448424087e+01 1.350495388668e+01 0.0 
1.350495388668e+01 -3.688753967289e+01 0.0 
0.0 0.0 -2.173760717413e+01 
-6.279699886092e+01 1.422442187002e+00 0.0 
1.422442187002e+00 -2.092837952500e+02 0.0 
0.0 0.0 -8.122423823328e+01 
-1.071789737796e+02 -1.937998157692e+00 0.0 
-1.937998157692e+00 -2.612939834780e+02 0.0 
0.0 0.0 -1.101418871773e+02 
-8.401960588676e+01 -4.650497534919e-01 0.0 
-4.650497534919e-01 -1.773129950040e+02 0.0 
0.0 0.0 -7.799978026723e+01 
-7.685234621545e+01 -5.760064201269e-01 0.0 
-5.760064201269e-01 -1.590310448171e+02 0.0 
0.0 0.0 -7.036501730975e+01 
-3.960253343526e+01 1.130072484009e+01 0.0 
1.130072484009e+01 -4.607123207690e+01 0.0 
0.0 0.0 -2.530212965365e+01 
-1.070557309972e+02 -2.388745243955e+00 0.0 
-2.388745243955e+00 -2.645146833864e+02 0.0 
0.0 0.0 -1.110711243151e+02 
-5.795305233529e+01 -8.866550262217e+00 0.0 
-8.866550262217e+00 -1.799164814772e+02 0.0 
0.0 0.0 -7.096086014376e+01 
-3.715333615130e+01 2.902469461601e+01 0.0 
2.902469461601e+01 -6.907414871384e+01 0.0 
0.0 0.0 -2.964042181876e+01 
-1.350225672932e+02 2.002763126185e+01 0.0 
2.002763126185e+01 -3.330878831437e+02 0.0 
0.0 0.0 -1.400331351311e+02 
-4.036231527258e+01 -1.076349988123e+01 0.0 
-1.076349988123e+01 -8.572608003510e+01 0.0 
0.0 0.0 -3.737804698079e+01 
-5.761161295881e+01 -8.726729932003e+00 0.0 
-8.726729932003e+00 -1.827279133734e+02 0.0 
0.0 0.0 -7.170185789966e+01 
-8.631442698414e+01 1.874059248786e+01 0.0 
1.874059248786e+01 -2.421221397700e+02 0.0 
0.0 0.0 -9.813097002623e+01 
-3.799153990604e+01 4.597975539969e+00 0.0 
4.597975539969e+00 -5.090319285780e+01 0.0 
0.0 0.0 -2.626841982915e+01 
-1.082891898400e+02 -1.112403200471e-01 0.0 
-1.112403200471e-01 -2.624089915119e+02 0.0 
0.0 0.0 -1.108094544056e+02 
-4.956765516353e+01 6.378625248064e-01 0.0 
6.378625248064e-01 -1.204472421064e+02 0.0 
0.0 0.0 -5.060446918097e+01 
-7.314302139159e+01 6.130177696217e+00 0.0 
6.130177696217e+00 -1.273826311388e+02 0.0 
0.0 0.0 -5.975769575912e+01 
-1.085143580554e+02 -6.641511659072e-01 0.0 
-6.641511659072e-01 -2.655624746475e+02 0.0 
0.0 0.0 -1.118230498109e+02 
-8.118187746590e+01 3.064379183428e-01 0.0 
3.064379183428e-01 -2.405200948166e+02 0.0 
0.0 0.0 -9.611059168476e+01 
-9.604994283693e+01 -2.518393486876e+00 0.0 
-2.518393486876e+00 -2.426617025904e+02 0.0 
0.0 0.0 -1.012134936282e+02 
-3.792519056650e+01 2.891166804890e+01 0.0 
2.891166804890e+01 -8.199641507148e+01 0.0 
0.0 0.0 -3.717087174930e+01 
-1.056152656132e+02 1.302650138267e+00 0.0 
1.302650138267e+00 -2.356200600964e+02 0.0 
0.0 0.0 -1.019705977129e+02 
-6.593837685533e+01 -3.620146731197e+00 0.0 
-3.620146731197e+00 -2.072329909735e+02 0.0 
0.0 0.0 -8.155141034866e+01 
-1.295984898380e+02 1.191205839055e+01 0.0 
1.191205839055e+01 -3.349640761835e+02 0.0 
0.0 0.0 -1.389687698065e+02 
-1.013365436903e+02 2.191885418757e+01 0.0 
2.191885418757e+01 -2.551495020134e+02 0.0 
0.0 0.0 -1.065458137111e+02 
-1.113753657225e+02 -1.941342505831e+00 0.0 
-1.941342505831e+00 -2.725624262549e+02 0.0 
0.0 0.0 -1.147813375932e+02 
-1.125570098923e+02 -2.328488515722e-01 0.0 
-2.328488515722e-01 -2.734828269158e+02 0.0 
0.0 0.0 -1.154119510425e+02 
-5.251103241039e+01 1.648054708386e+00 0.0 
1.648054708386e+00 -1.933062490481e+02 0.0 
0.0 0.0 -7.334518443753e+01 
-3.578006310444e+01 -1.045088317783e+01 0.0 
-1.045088317783e+01 -5.938279227317e+01 0.0 
0.0 0.0 -2.701063495959e+01 
-3.598162174710e+01 3.398475765648e+01 0.0 
3.398475765648e+01 -8.508802074737e+01 0.0 
0.0 0.0 -3.772227225966e+01 
-1.156636997210e+02 -1.550193581805e+00 0.0 
-1.550193581805e+00 -2.807282533868e+02 0.0 
0.0 0.0 -1.185175859323e+02 
-1.304034528205e+02 9.048188518755e+00 0.0 
9.048188518755e+00 -3.368736361714e+02 0.0 
0.0 0.0 -1.397831266976e+02 
-6.094083156615e+01 -1.014151731233e+01 0.0 
-1.014151731233e+01 -1.718742928878e+02 0.0 
0.0 0.0 -6.944453733617e+01 
-1.048729110277e+02 1.997866641311e+01 0.0 
1.997866641311e+01 -2.358188849681e+02 0.0 
0.0 0.0 -1.018075387987e+02 
-4.348845358597e+01 1.919495597017e+01 0.0 
1.919495597017e+01 -6.794046003592e+01 0.0 
0.0 0.0 -3.302867408657e+01 
-1.056133718070e+02 2.095035309063e+01 0.0 
2.095035309063e+01 -2.277642923523e+02 0.0 
0.0 0.0 -9.961329924779e+01 
-1.538151946700e+02 6.315720178660e+00 0.0 
6.315720178660e+00 -3.744646238125e+02 0.0 
0.0 0.0 -1.580839455448e+02 
-1.153487466058e+02 -1.373816107081e+00 0.0 
-1.373816107081e+00 -1.027636520293e+02 0.0 
0.0 0.0 -6.571059060098e+01 
-1.233219114542e+02 1.218054865158e+00 0.0 
1.218054865158e+00 -2.890844600597e+02 0.0 
0.0 0.0 -1.233219114542e+02 
-1.671065092303e+02 3.733749486520e-01 0.0 
3.733749486520e-01 -3.912485215374e+02 0.0 
0.0 0.0 -1.671065092303e+02 
-6.395639651329e+01 7.827719116790e-01 0.0 
7.827719116790e-01 -1.272433017882e+02 0.0 
0.0 0.0 -5.695990949045e+01 
-6.904644651734e+01 -6.497369526193e+00 0.0 
-6.497369526193e+00 -2.022324644096e+02 0.0 
0.0 0.0 -8.098367327807e+01 
-9.783706245411e+01 2.260184407890e+01 0.0 
2.260184407890e+01 -2.408284507959e+02 0.0 
0.0 0.0 -1.011996539750e+02 
-5.290780943379e+01 7.149536437518e+00 0.0 
7.149536437518e+00 -1.920003254592e+02 0.0 
0.0 0.0 -7.307244046790e+01 
-2.182151748417e+01 -1.413055968712e+00 0.0 
-1.413055968712e+00 -5.515726417101e+01 0.0 
0.0 0.0 -2.269363449655e+01 
-4.558302905878e+01 3.063881840346e+01 0.0 
3.063881840346e+01 -3.079319836969e+01 0.0 
0.0 0.0 -2.216459297312e+01 
-1.129172933036e+02 3.963627638460e+00 0.0 
3.963627638460e+00 -2.531388808549e+02 0.0 
0.0 0.0 -1.094168522475e+02 
-9.861742289189e+01 1.286910478397e+01 0.0 
1.286910478397e+01 -1.917995892012e+02 0.0 
0.0 0.0 -8.672510362792e+01 
-6.575096104056e+01 5.231796059414e+00 0.0 
5.231796059414e+00 -1.124488780038e+02 0.0 
0.0 0.0 -5.305995171331e+01 
-1.488417432529e+02 2.569999437942e+01 0.0 
2.569999437942e+01 -3.500569782872e+02 0.0 
0.0 0.0 -1.492696164620e+02 
-4.057857701402e+01 6.707054317051e-01 0.0 
6.707054317051e-01 -1.005048803233e+02 0.0 
0.0 0.0 -4.192503720120e+01 
-1.501331291356e+02 2.507566131375e+01 0.0 
2.507566131375e+01 -3.554441118370e+02 0.0 
0.0 0.0 -1.512731722918e+02 
-9.621069070156e+01 1.004867627878e+01 0.0 
1.004867627878e+01 -1.900926419495e+02 0.0 
0.0 0.0 -8.549099979533e+01 
-7.136178324943e+01 -7.339051644683e+00 0.0 
-7.339051644683e+00 -1.957632638284e+02 0.0 
0.0 0.0 -7.973751412334e+01 
-9.434436307667e+01 2.088530096144e+01 0.0 
2.088530096144e+01 -2.368183845155e+02 0.0 
0.0 0.0 -9.894882427764e+01 
-6.245509219868e+01 -8.667869637836e+00 0.0 
-8.667869637836e+00 -1.879634939096e+02 0.0 
0.0 0.0 -7.472557583249e+01 
-3.564363628268e+01 2.767662642491e+01 0.0 
2.767662642491e+01 -6.707524716772e+01 0.0 
0.0 0.0 -2.968144096124e+01 
-6.063950909365e+01 -1.006952223357e+01 0.0 
-1.006952223357e+01 -1.749736428566e+02 0.0 
0.0 0.0 -7.028394558507e+01 
-1.042928221772e+02 1.359280766566e+01 0.0 
1.359280766566e+01 -2.142266270832e+02 0.0 
0.0 0.0 -9.515583477812e+01 
-1.428689844487e+02 1.120977519294e+00 0.0 
1.120977519294e+00 -3.399750579414e+02 0.0 
0.0 0.0 -1.444532127170e+02 
-5.945221656253e+01 -6.032233133463e+00 0.0 
-6.032233133463e+00 -1.947008861318e+02 0.0 
0.0 0.0 -7.584593080830e+01 
-1.088015703490e+02 1.935802377330e+01 0.0 
1.935802377330e+01 -2.413242991262e+02 0.0 
0.0 0.0 -1.046377608426e+02 
-7.340172440077e+01 -2.944034188620e+00 0.0 
-2.944034188620e+00 -1.125676844113e+02 0.0 
0.0 0.0 -5.629207816687e+01 
-5.700742810965e+01 -9.921588644836e-01 0.0 
-9.921588644836e-01 -1.996489287562e+02 0.0 
0.0 0.0 -7.659690705976e+01 
-1.090381266094e+02 1.344905920566e+01 0.0 
1.344905920566e+01 -2.220129878845e+02 0.0 
0.0 0.0 -9.891533434816e+01 
-6.257174071240e+01 -9.564363394738e+00 0.0 
-9.564363394738e+00 -1.673955068325e+02 0.0 
0.0 0.0 -6.859017426347e+01 
-5.881077400940e+01 -1.067209500099e+01 0.0 
-1.067209500099e+01 -1.579616847745e+02 0.0 
0.0 0.0 -6.463173763517e+01 
-9.268990912821e+01 2.227015929091e+01 0.0 
2.227015929091e+01 -2.364436398371e+02 0.0 
0.0 0.0 -9.834006468961e+01 
-3.555659665172e+01 -1.817457448546e+01 0.0 
-1.817457448546e+01 -1.075044556155e+02 0.0 
0.0 0.0 -4.200936027549e+01 
-3.228379680916e+01 1.736362141038e+01 0.0 
1.736362141038e+01 -2.053615416838e+01 0.0 
0.0 0.0 -1.544598529326e+01 
-3.524131606518e+01 1.640323838816e+01 0.0 
1.640323838816e+01 -3.011863766811e+01 0.0 
0.0 0.0 -1.920798611999e+01 
-5.636528106118e+01 -1.059109928873e+01 0.0 
-1.059109928873e+01 -1.476596512797e+02 0.0 
0.0 0.0 -6.080747970225e+01 
-8.948020613409e+01 2.044405143077e+00 0.0 
2.044405143077e+00 -2.575472407554e+02 0.0 
0.0 0.0 -1.037082340668e+02 
-7.909665632642e+01 1.883939484056e+01 0.0 
1.883939484056e+01 -2.252916017705e+02 0.0 
0.0 0.0 -9.091647742907e+01 
-1.089336085421e+02 2.176737990263e+01 0.0 
2.176737990263e+01 -2.417739073539e+02 0.0 
0.0 0.0 -1.048122547688e+02 
-1.239332338300e+02 1.736210770388e+01 0.0 
1.736210770388e+01 -2.775415007799e+02 0.0 
0.0 0.0 -1.200424203830e+02 
-2.887373847056e+01 6.222332251484e+00 0.0 
6.222332251484e+00 -3.133481281427e+01 0.0 
0.0 0.0 -1.766256538545e+01 
-9.175144505811e+01 1.364563282495e+00 0.0 
1.364563282495e+00 -1.971111849748e+02 0.0 
0.0 0.0 -8.625878900987e+01 
-1.294399756729e+02 2.114109117781e+01 0.0 
2.114109117781e+01 -2.989227386858e+02 0.0 
0.0 0.0 -1.281088143076e+02 
-4.847683129879e+01 5.087523320314e+00 0.0 
5.087523320314e+00 -1.861881635493e+02 0.0 
0.0 0.0 -6.999949845442e+01 
-3.697382699998e+01 2.829800163234e+01 0.0 
2.829800163234e+01 -4.899049207069e+01 0.0 
0.0 0.0 -2.381043789772e+01 
-4.930180300628e+01 2.212375889632e+01 0.0 
2.212375889632e+01 -7.528426702432e+01 0.0 
0.0 0.0 -3.697582100918e+01 
-8.646407493099e+01 -3.217939720051e-01 0.0 
-3.217939720051e-01 -2.478662794090e+02 0.0 
0.0 0.0 -9.989910630200e+01 
-1.086226384627e+02 1.753770324431e+01 0.0 
1.753770324431e+01 -2.332405899850e+02 0.0 
0.0 0.0 -1.021589685343e+02 
-8.305549558454e+01 -5.619183790669e-01 0.0 
-5.619183790669e-01 -2.463693366240e+02 0.0 
0.0 0.0 -9.842744966257e+01 
-3.143179027511e+01 2.584929126855e+01 0.0 
2.584929126855e+01 -9.534576883878e+01 0.0 
0.0 0.0 -3.767267892027e+01 
-9.830136421575e+01 3.671125779064e+00 0.0 
3.671125779064e+00 -2.749254061535e+02 0.0 
0.0 0.0 -1.115680311108e+02 
-3.566614867181e+01 2.694954453748e+01 0.0 
2.694954453748e+01 -6.656368506072e+01 0.0 
0.0 0.0 -3.026895011976e+01 
-7.752591326214e+01 1.906102951653e+01 0.0 
1.906102951653e+01 -2.246702880724e+02 0.0 
0.0 0.0 -9.025886040037e+01 
-9.176757423027e+01 9.567918452962e-01 0.0 
9.567918452962e-01 -2.639550187477e+02 0.0 
0.0 0.0 -1.063167778934e+02 
-9.749928009598e+01 2.005770027679e+01 0.0 
2.005770027679e+01 -2.508195438226e+02 0.0 
0.0 0.0 -1.040956471756e+02 
-8.315218895654e+01 1.614256518297e+00 0.0 
1.614256518297e+00 -1.725528611612e+02 0.0 
0.0 0.0 -7.631151503531e+01 
-5.892677713804e+01 -8.794929478902e+00 0.0 
-8.794929478902e+00 -1.490989468230e+02 0.0 
0.0 0.0 -6.200771718831e+01 
-3.762136787020e+01 3.046859648443e+01 0.0 
3.046859648443e+01 -7.133655971995e+01 0.0 
0.0 0.0 -3.126035574709e+01 
-1.009958460050e+02 2.406768763074e+00 0.0 
2.406768763074e+00 -2.819622688172e+02 0.0 
0.0 0.0 -1.144874344467e+02 
-3.630685385525e+01 2.561791996411e+01 0.0 
2.561791996411e+01 -6.568454222037e+01 0.0 
0.0 0.0 -3.019741882269e+01 
-4.678958429165e+01 9.751235998209e+00 0.0 
9.751235998209e+00 -1.202385377982e+02 0.0 
0.0 0.0 -5.151622495299e+01 
-1.122010079855e+02 -2.063126662501e-01 0.0 
-2.063126662501e-01 -2.544932223607e+02 0.0 
0.0 0.0 -1.096082691039e+02 
-1.058098261928e+02 -3.832578886376e-01 0.0 
-3.832578886376e-01 -2.357987171552e+02 0.0 
0.0 0.0 -1.020825630044e+02 
-1.815558022413e+01 -3.175693680132e+00 0.0 
-3.175693680132e+00 -2.482186002010e+01 0.0 
0.0 0.0 -1.280510957858e+01 
-1.075993514174e+02 5.196364504292e+00 0.0 
5.196364504292e+00 -2.926789572967e+02 0.0 
0.0 0.0 -1.196834926142e+02 
-4.780109089845e+01 -7.595792909147e+00 0.0 
-7.595792909147e+00 -1.138945631758e+02 0.0 
0.0 0.0 -4.810869622227e+01 
-5.005549961240e+01 -8.728938923992e+00 0.0 
-8.728938923992e+00 -1.203508013352e+02 0.0 
0.0 0.0 -5.072189028428e+01 
-1.161680737738e+02 1.971564284565e+01 0.0 
1.971564284565e+01 -2.613900766267e+02 0.0 
0.0 0.0 -1.128674451202e+02 
-9.620791852551e+01 2.114788375681e+01 0.0 
2.114788375681e+01 -2.504827999902e+02 0.0 
0.0 0.0 -1.036072155547e+02 
-1.123794738800e+02 2.012552494020e+01 0.0 
2.012552494020e+01 -2.556380367338e+02 0.0 
0.0 0.0 -1.100052531841e+02 
-6.071688569526e+01 -2.356872022109e+00 0.0 
-2.356872022109e+00 -2.008530171778e+02 0.0 
0.0 0.0 -7.807097086191e+01 
-5.604030707997e+01 4.115740780189e-02 0.0 
4.115740780189e-02 -1.060014666036e+02 0.0 
0.0 0.0 -4.821253210507e+01 
-1.576041437481e+02 5.378198449801e+00 0.0 
5.378198449801e+00 -3.758027284894e+02 0.0 
0.0 0.0 -1.596220616712e+02 
-4.338757086861e+01 -8.259209348761e+00 0.0 
-8.259209348761e+00 -9.978271333281e+01 0.0 
0.0 0.0 -4.255108526043e+01 
-1.251101603354e+02 1.363942221407e+01 0.0 
1.363942221407e+01 -3.245704649093e+02 0.0 
0.0 0.0 -1.345041875734e+02 
-8.247359080366e+01 2.055831902763e+01 0.0 
2.055831902763e+01 -2.284611977845e+02 0.0 
0.0 0.0 -9.288043657643e+01 
-3.072715858514e+01 -1.847996409001e+00 0.0 
-1.847996409001e+00 -7.647906473065e+01 0.0 
0.0 0.0 -3.176186699474e+01 
-1.049474007529e+02 1.606648013919e+01 0.0 
1.606648013919e+01 -2.195411617676e+02 0.0 
0.0 0.0 -9.694656875618e+01 
-6.016433644450e+01 2.814200784553e+00 0.0 
2.814200784553e+00 -2.085156660208e+02 0.0 
0.0 0.0 -8.020400073960e+01 
-3.211927854488e+01 -1.140539985943e+01 0.0 
-1.140539985943e+01 -4.648515505622e+01 0.0 
0.0 0.0 -2.243179450119e+01 
-4.971484770752e+01 -2.657886927224e+00 0.0 
-2.657886927224e+00 -1.842155842837e+02 0.0 
0.0 0.0 -6.977912959737e+01 
-1.213281634034e+02 -8.912436887150e-01 0.0 
-8.912436887150e-01 -2.913936573170e+02 0.0 
0.0 0.0 -1.234165462161e+02 
-1.063824697277e+02 1.644797048578e+01 0.0 
1.644797048578e+01 -2.160583947600e+02 0.0 
0.0 0.0 -9.633225934629e+01 
-3.676921640865e+01 -9.100574647942e+00 0.0 
-9.100574647942e+00 -7.940525286589e+01 0.0 
0.0 0.0 -3.442772649156e+01 
-9.885550887765e+01 -5.564525434067e-02 0.0 
-5.564525434067e-02 -2.378562331322e+02 0.0 
0.0 0.0 -1.006135226029e+02 
-1.124986136104e+02 1.875112015730e+01 0.0 
1.875112015730e+01 -2.474294701258e+02 0.0 
0.0 0.0 -1.075784251209e+02 
-1.198054796260e+02 2.018511388492e+01 0.0 
2.018511388492e+01 -3.020023448699e+02 0.0 
0.0 0.0 -1.261423473488e+02 
-5.859874834186e+01 -1.067140072508e+01 0.0 
-1.067140072508e+01 -1.613394600799e+02 0.0 
0.0 0.0 -6.558146252654e+01 
-4.970684497085e+01 -1.662445604314e+00 0.0 
-1.662445604314e+00 -1.205796083241e+02 0.0 
0.0 0.0 -5.068593598848e+01 
-8.743452359520e+01 1.825977916381e+01 0.0 
1.825977916381e+01 -2.425027584414e+02 0.0 
0.0 0.0 -9.858118461097e+01 
-8.004017031692e+01 8.860286568275e-01 0.0 
8.860286568275e-01 -1.667496310172e+02 0.0 
0.0 0.0 -7.363694040022e+01 
-3.364493736596e+01 -1.670726416857e+01 0.0 
-1.670726416857e+01 -5.035403021366e+01 0.0 
0.0 0.0 -2.442479560339e+01 
-1.380258243465e+02 2.415203473985e+01 0.0 
2.415203473985e+01 -3.200697859333e+02 0.0 
0.0 0.0 -1.370286830839e+02 
-1.258328330449e+02 1.660939822179e+01 0.0 
1.660939822179e+01 -2.877122801118e+02 0.0 
0.0 0.0 -1.236635339470e+02 
-6.899662611948e+01 8.869400297424e-01 0.0 
8.869400297424e-01 -1.391316395681e+02 0.0 
0.0 0.0 -6.203847970628e+01 
-1.215579724488e+02 9.355423289437e+00 0.0 
9.355423289437e+00 -2.710638957715e+02 0.0 
0.0 0.0 -1.173865604661e+02 
-1.293021479640e+02 1.887238744896e+01 0.0 
1.887238744896e+01 -2.966249633555e+02 0.0 
0.0 0.0 -1.273781333959e+02 
-6.183850414248e+01 -2.874236206909e+00 0.0 
-2.874236206909e+00 -2.056966306911e+02 0.0 
0.0 0.0 -7.986054045007e+01 
-6.415619103122e+01 -6.461730732796e+00 0.0 
-6.461730732796e+00 -1.965720732883e+02 0.0 
0.0 0.0 -7.781847929585e+01 
-1.479011680130e+02 1.664290103243e+01 0.0 
1.664290103243e+01 -3.636962085963e+02 0.0 
0.0 0.0 -1.530792129828e+02 
-6.845861201063e+01 4.182338259423e+00 0.0 
4.182338259423e+00 -1.093248523588e+02 0.0 
0.0 0.0 -5.388565149361e+01 
-4.480258313585e+01 -1.161210758876e+00 0.0 
-1.161210758876e+00 -1.096649359024e+02 0.0 
0.0 0.0 -4.594025571149e+01 
-9.986791606099e+01 -1.277415937818e+00 0.0 
-1.277415937818e+00 -2.421061068309e+02 0.0 
0.0 0.0 -1.021922068676e+02 
-6.217772418774e+01 -9.292419719941e+00 0.0 
-9.292419719941e+00 -1.632046904687e+02 0.0 
0.0 0.0 -6.721472439694e+01 
-5.258693248482e+01 -8.213338620290e+00 0.0 
-8.213338620290e+00 -1.777566671343e+02 0.0 
0.0 0.0 -6.870307988575e+01 
-3.156980582460e+01 2.154607603719e+01 0.0 
2.154607603719e+01 -2.232707022440e+01 0.0 
0.0 0.0 -1.576906281470e+01 
-3.403087402179e+01 2.363105000394e+01 0.0 
2.363105000394e+01 -2.487672911506e+01 0.0 
0.0 0.0 -1.727228094106e+01 
-7.329444891988e+01 2.569434176133e+00 0.0 
2.569434176133e+00 -1.402429635915e+02 0.0 
0.0 0.0 -6.366122375342e+01 
-5.549358170537e+01 -2.904395612408e-01 0.0 
-2.904395612408e-01 -1.941051938800e+02 0.0 
0.0 0.0 -7.447963267560e+01 
-5.317735137266e+01 -2.921238150657e+00 0.0 
-2.921238150657e+00 -1.287094615435e+02 0.0 
0.0 0.0 -5.416604387486e+01 
-1.145504608435e+02 1.964295070889e+01 0.0 
1.964295070889e+01 -2.873094714092e+02 0.0 
0.0 0.0 -1.201579796758e+02 
-1.656064251673e+02 3.494003999279e+00 0.0 
3.494003999279e+00 -3.917938925171e+02 0.0 
0.0 0.0 -1.668200953053e+02 
-1.643892337376e+02 4.713455161628e+00 0.0 
4.713455161628e+00 -3.906348364767e+02 0.0 
0.0 0.0 -1.661072210643e+02 
-6.449769261115e+01 -6.634698837666e+00 0.0 
-6.634698837666e+00 -2.002783334587e+02 0.0 
0.0 0.0 -7.903280782095e+01 
-6.730645913445e+01 1.442723893540e+00 0.0 
1.442723893540e+00 -1.239631669070e+02 0.0 
0.0 0.0 -5.698088781244e+01 
-7.177951976205e+01 -1.699410003107e-01 0.0 
-1.699410003107e-01 -1.094088772137e+02 0.0 
0.0 0.0 -5.533880304984e+01 
-3.659659213340e+01 2.517383694726e+01 0.0 
2.517383694726e+01 -2.592501073807e+01 0.0 
0.0 0.0 -1.754523667253e+01 
-4.060504434333e+01 -2.237060181893e+01 0.0 
-2.237060181893e+01 -1.135529275526e+02 0.0 
0.0 0.0 -4.503134203241e+01 
-3.455255579964e+01 2.384619403968e+01 0.0 
2.384619403968e+01 -2.525499326378e+01 0.0 
0.0 0.0 -1.746594390999e+01 
-9.119744723691e+01 2.009772979309e+01 0.0 
2.009772979309e+01 -2.462055198619e+02 0.0 
0.0 0.0 -1.008208901296e+02 
-5.606613119256e+01 -1.069072741917e+01 0.0 
-1.069072741917e+01 -1.697024300741e+02 0.0 
0.0 0.0 -6.733056838000e+01 
-5.917452398348e+01 -5.864691508417e+00 0.0 
-5.864691508417e+00 -1.912007145226e+02 0.0 
0.0 0.0 -7.471257155183e+01 
-3.903573349830e+01 -2.809273521023e+01 0.0 
-2.809273521023e+01 -9.951103452802e+01 0.0 
0.0 0.0 -4.168582579128e+01 
-1.061079686068e+02 7.640702972423e-01 0.0 
7.640702972423e-01 -2.387104220644e+02 0.0 
0.0 0.0 -1.030455172014e+02 
-6.257794626928e+01 -8.680570301244e+00 0.0 
-8.680570301244e+00 -1.848446672992e+02 0.0 
0.0 0.0 -7.382678407055e+01 
-1.119568698554e+02 2.364497250120e+00 0.0 
2.364497250120e+00 -2.523764620204e+02 0.0 
0.0 0.0 -1.088999995627e+02 
-1.017732567641e+02 1.831974709933e+00 0.0 
1.831974709933e+00 -2.232640525996e+02 0.0 
0.0 0.0 -9.711119280909e+01 
-1.250208395043e+02 1.221689503134e+00 0.0 
1.221689503134e+00 -2.892441700091e+02 0.0 
0.0 0.0 -1.238795028540e+02 
-1.664713127410e+02 2.867081887205e-01 0.0 
2.867081887205e-01 -3.912202798050e+02 0.0 
0.0 0.0 -1.669074777638e+02 
-6.901936637951e+01 -5.173252377866e-01 0.0 
-5.173252377866e-01 -1.396049741268e+02 0.0 
0.0 0.0 -6.218730215189e+01 
-6.704011227047e+01 -8.142017938537e+00 0.0 
-8.142017938537e+00 -1.900293545426e+02 0.0 
0.0 0.0 -7.672084004392e+01 
-2.378394954661e+01 9.882870603015e+00 0.0 
9.882870603015e+00 -1.796422186851e+01 0.0 
0.0 0.0 -1.212445142453e+01 
-6.726408085793e+01 -8.275490588085e+00 0.0 
-8.275490588085e+00 -1.938058235016e+02 0.0 
0.0 0.0 -7.792097130785e+01 
-1.677875812876e+02 2.585698329749e+00 0.0 
2.585698329749e+00 -3.928376896710e+02 0.0 
0.0 0.0 -1.677875812876e+02 
-3.992115737274e+01 2.712332116388e+01 0.0 
2.712332116388e+01 -2.749413338203e+01 0.0 
0.0 0.0 -1.848703272692e+01 
-3.782922289101e+01 2.570646487873e+01 0.0 
2.570646487873e+01 -2.644442070150e+01 0.0 
0.0 0.0 -1.723048328430e+01 
-1.296081875813e+02 1.552739054142e+01 0.0 
1.552739054142e+01 -3.312520446914e+02 0.0 
0.0 0.0 -1.378580696818e+02 
-6.556942057007e+01 1.084054963791e+00 0.0 
1.084054963791e+00 -1.241702826988e+02 0.0 
0.0 0.0 -5.652191098065e+01 
-1.123024414382e+02 1.225007158107e+00 0.0 
1.225007158107e+00 -2.542780477972e+02 0.0 
0.0 0.0 -1.095741467706e+02 
-1.130528245317e+02 2.119152092606e+01 0.0 
2.119152092606e+01 -2.478858130888e+02 0.0 
0.0 0.0 -1.078815912861e+02 
-1.287520078529e+02 1.931826779122e+01 0.0 
1.931826779122e+01 -3.196351800678e+02 0.0 
0.0 0.0 -1.341161563762e+02 
-1.172799298381e+02 1.908629891797e+01 0.0 
1.908629891797e+01 -2.498582418688e+02 0.0 
0.0 0.0 -1.097414515121e+02 
-7.104056463106e+01 -1.644906418565e-01 0.0 
-1.644906418565e-01 -1.431013151942e+02 0.0 
0.0 0.0 -6.384256394758e+01 
-5.608444428921e+01 -1.037268315902e+01 0.0 
-1.037268315902e+01 -1.434975559085e+02 0.0 
0.0 0.0 -5.947460005933e+01 
-5.291330926893e+01 -1.198708527938e+01 0.0 
-1.198708527938e+01 -1.418467713178e+02 0.0 
0.0 0.0 -5.802802417601e+01 
-8.776311947302e+01 -2.495382186427e-01 0.0 
-2.495382186427e-01 -1.864553914005e+02 0.0 
0.0 0.0 -8.186555326205e+01 
-1.244772806824e+02 2.138534362397e+01 0.0 
2.138534362397e+01 -3.066657400992e+02 0.0 
0.0 0.0 -1.289429062345e+02 
-6.256386013876e+01 2.331626044964e+00 0.0 
2.331626044964e+00 -1.086791445708e+02 0.0 
0.0 0.0 -5.097290141286e+01 
-6.237153890564e+01 7.167816330677e-02 0.0 
7.167816330677e-02 -1.226553758668e+02 0.0 
0.0 0.0 -5.510807443174e+01 
-6.919465108589e+01 5.566394974849e-01 0.0 
5.566394974849e-01 -1.386093148266e+02 0.0 
0.0 0.0 -6.194118977375e+01 
-7.180553827385e+01 1.607078632895e+00 0.0 
1.607078632895e+00 -1.443229864120e+02 0.0 
0.0 0.0 -6.443855740574e+01 
-2.701632902124e+01 -1.378897463499e+01 0.0 
-1.378897463499e+01 -1.155842596002e+02 0.0 
0.0 0.0 -4.402587101967e+01 
-5.063694287461e+01 -1.125380082544e+01 0.0 
-1.125380082544e+01 -1.275827741461e+02 0.0 
0.0 0.0 -5.306591510623e+01 
-1.204131224595e+02 4.363267476467e+00 0.0 
4.363267476467e+00 -2.741022568129e+02 0.0 
0.0 0.0 -1.179546137817e+02 
-7.991663290824e+01 1.889750360577e+00 0.0 
1.889750360577e+00 -1.636760411632e+02 0.0 
0.0 0.0 -7.267780222142e+01 
-1.500517234558e+02 1.911573222666e+01 0.0 
1.911573222666e+01 -3.614148589721e+02 0.0 
0.0 0.0 -1.530399747284e+02 
-1.277186375304e+02 1.982859468984e+01 0.0 
1.982859468984e+01 -2.807428624329e+02 0.0 
0.0 0.0 -1.221384499890e+02 
-1.061653332504e+02 1.882956329925e+01 0.0 
1.882956329925e+01 -2.207909917233e+02 0.0 
0.0 0.0 -9.768689749209e+01 
-1.175436607222e+02 9.284557542121e+00 0.0 
9.284557542121e+00 -2.584444981537e+02 0.0 
0.0 0.0 -1.123964476628e+02 
-7.423062818813e+01 -3.371620336280e+00 0.0 
-3.371620336280e+00 -1.806905362111e+02 0.0 
0.0 0.0 -7.607634931977e+01 
-6.763646696916e+01 -3.642816921520e+00 0.0 
-3.642816921520e+00 -1.650059149649e+02 0.0 
0.0 0.0 -6.939271458023e+01 
-1.480713608959e+02 4.293916743304e+00 0.0 
4.293916743304e+00 -3.608672440679e+02 0.0 
0.0 0.0 -1.522815814891e+02 
-3.955713477648e+01 -1.970108014639e+01 0.0 
-1.970108014639e+01 -9.895958894514e+01 0.0 
0.0 0.0 -4.294939489370e+01 
-4.760860338677e+01 -5.526392147456e-01 0.0 
-5.526392147456e-01 -1.159439122231e+02 0.0 
0.0 0.0 -4.866575468297e+01 
-1.509205800420e+02 2.416080651228e+01 0.0 
2.416080651228e+01 -3.534813534313e+02 0.0 
0.0 0.0 -1.509205800420e+02 
-2.093339269326e+01 7.628409601319e-01 0.0 
7.628409601319e-01 -5.772632274388e+01 0.0 
0.0 0.0 -2.319791463114e+01 
-6.233601205591e+01 6.177186122528e-02 0.0 
6.177186122528e-02 -1.226752128041e+02 0.0 
0.0 0.0 -5.510336745802e+01 
-1.406573238117e+02 1.326915812903e+01 0.0 
1.326915812903e+01 -3.538101116056e+02 0.0 
0.0 0.0 -1.479402306252e+02 
-1.928159048022e+01 -3.723928450763e+00 0.0 
-3.723928450763e+00 -4.007826180686e+01 0.0 
0.0 0.0 -1.740795568612e+01 
-6.672620555514e+00 -4.006589327137e-01 0.0 
-4.006589327137e-01 -2.371680815097e+01 0.0 
0.0 0.0 -8.235783855368e+00 
-1.274442813441e+02 7.844691306344e+00 0.0 
7.844691306344e+00 -2.927094423062e+02 0.0 
0.0 0.0 -1.256461170951e+02 
-5.712710136066e+01 -9.457590957803e-02 0.0 
-9.457590957803e-02 -1.060148429324e+02 0.0 
0.0 0.0 -4.854258328792e+01 
-1.196442975972e+02 5.404502652759e+00 0.0 
5.404502652759e+00 -2.707221600823e+02 0.0 
0.0 0.0 -1.167099373038e+02 
-1.426682319106e+02 1.444905533059e+01 0.0 
1.444905533059e+01 -3.522692515733e+02 0.0 
0.0 0.0 -1.480812450452e+02 
-5.677992279154e+01 4.362695236213e-01 0.0 
4.362695236213e-01 -1.057137636963e+02 0.0 
0.0 0.0 -4.834810594635e+01 
-6.873065938650e+01 6.796897368619e+00 0.0 
6.796897368619e+00 -1.080926265311e+02 0.0 
0.0 0.0 -5.410802340916e+01 
-1.177401368211e+02 1.571815415492e+00 0.0 
1.571815415492e+00 -2.717598960071e+02 0.0 
0.0 0.0 -1.164500098485e+02 
-2.532809198773e+01 -1.057148022345e+00 0.0 
-1.057148022345e+00 -6.352050837948e+01 0.0 
0.0 0.0 -2.625458011016e+01 
-1.143321409855e+02 4.771891954162e+00 0.0 
4.771891954162e+00 -2.586248160924e+02 0.0 
0.0 0.0 -1.114870871234e+02 
-1.675427104118e+02 1.734702003334e+00 0.0 
1.734702003334e+00 -3.922663242942e+02 0.0 
0.0 0.0 -1.675427104118e+02 
-1.238274279392e+02 1.672369348014e+01 0.0 
1.672369348014e+01 -2.729367492168e+02 0.0 
0.0 0.0 -1.186292531468e+02 
-2.919130237693e+01 -1.067269988436e+01 0.0 
-1.067269988436e+01 -1.278613618913e+02 0.0 
0.0 0.0 -4.823710654521e+01 
-7.611870143877e+01 3.606769019390e+00 0.0 
3.606769019390e+00 -1.428275731928e+02 0.0 
0.0 0.0 -6.528388238948e+01 
-7.546167491227e+01 -1.112579756807e+00 0.0 
-1.112579756807e+00 -1.834918459240e+02 0.0 
0.0 0.0 -7.728605625087e+01 
-1.146834695603e+02 2.079331907033e+01 0.0 
2.079331907033e+01 -2.874893317702e+02 0.0 
0.0 0.0 -1.202518403992e+02 
-1.555237848520e+02 2.210104292094e+01 0.0 
2.210104292094e+01 -3.701347036792e+02 0.0 
0.0 0.0 -1.572975465594e+02 
-9.567148121983e+01 1.893380703692e-01 0.0 
1.893380703692e-01 -2.078763325100e+02 0.0 
0.0 0.0 -9.066434411895e+01 
-1.561764702452e+02 1.954863008491e+01 0.0 
1.954863008491e+01 -3.743509621515e+02 0.0 
0.0 0.0 -1.587582297190e+02 
-3.090757333951e+01 -1.460507636056e+01 0.0 
-1.460507636056e+01 -1.152499163670e+02 0.0 
0.0 0.0 -4.602094006097e+01 
-1.591397325247e+02 2.885609755462e+00 0.0 
2.885609755462e+00 -3.777223250346e+02 0.0 
0.0 0.0 -1.606586172678e+02 
-3.337795640397e+01 -1.432678201297e+01 0.0 
-1.432678201297e+01 -1.258310218109e+02 0.0 
0.0 0.0 -4.724961136371e+01 
-2.166544551770e+01 -1.254374958432e+00 0.0 
-1.254374958432e+00 -5.771399873770e+01 0.0 
0.0 0.0 -2.341383327662e+01 
-1.522101865534e+02 1.180069383311e+01 0.0 
1.180069383311e+01 -3.721337034680e+02 0.0 
0.0 0.0 -1.569031670064e+02 
-1.263278312787e+02 1.250380491465e+01 0.0 
1.250380491465e+01 -2.819637999243e+02 0.0 
0.0 0.0 -1.220874893609e+02 
-1.225652554847e+02 8.283700622238e+00 0.0 
8.283700622238e+00 -2.793051405116e+02 0.0 
0.0 0.0 -1.201611187989e+02 
-6.240023328530e+01 -4.106683673464e-01 0.0 
-4.106683673464e-01 -1.213797760359e+02 0.0 
0.0 0.0 -5.473400279635e+01 
-7.914177452972e+01 4.959746068367e+00 0.0 
4.959746068367e+00 -1.469743611629e+02 0.0 
0.0 0.0 -6.743484070778e+01 
-3.615668955879e+01 2.860358210628e+01 0.0 
2.860358210628e+01 -6.747943394147e+01 0.0 
0.0 0.0 -3.030724503985e+01 
-1.338604497747e+02 2.104469733600e+01 0.0 
2.104469733600e+01 -3.008712583748e+02 0.0 
0.0 0.0 -1.300195124449e+02 
-6.339476927648e+01 -2.290120536412e+00 0.0 
-2.290120536412e+00 -1.525989822304e+02 0.0 
0.0 0.0 -6.439812545206e+01 
-3.117841939988e+01 2.864906480021e+01 0.0 
2.864906480021e+01 -7.473893358252e+01 0.0 
0.0 0.0 -3.187372646881e+01 
-1.195742743768e+02 1.916091861221e+01 0.0 
1.916091861221e+01 -3.017105321287e+02 0.0 
0.0 0.0 -1.259854419516e+02 
-5.559508100462e+01 1.635467252020e-01 0.0 
1.635467252020e-01 -1.053134892273e+02 0.0 
0.0 0.0 -4.787257106957e+01 
-1.197400926260e+02 1.100449620866e+01 0.0 
1.100449620866e+01 -2.674688315764e+02 0.0 
0.0 0.0 -1.157626772607e+02 
-1.241917667804e+02 8.331413086096e-01 0.0 
8.331413086096e-01 -2.874618210760e+02 0.0 
0.0 0.0 -1.230960763569e+02 
-1.235240205022e+02 5.478452117535e-01 0.0 
5.478452117535e-01 -2.895560478385e+02 0.0 
0.0 0.0 -1.235240205022e+02 
-8.841333064371e-01 2.569982634265e-01 0.0 
2.569982634265e-01 -6.368215695165e+00 0.0 
0.0 0.0 -1.156678842207e+00 
-9.486636805754e-01 -5.647107429120e-01 0.0 
-5.647107429120e-01 -1.069877149305e+01 0.0 
0.0 0.0 -2.003716158502e+00 
-5.593271181277e+01 6.612702949627e-01 0.0 
6.612702949627e-01 -1.077496460046e+02 0.0 
0.0 0.0 -4.870470734522e+01 
-5.460362251785e+01 -1.043864253262e-01 0.0 
-1.043864253262e-01 -1.052504516981e+02 0.0 
0.0 0.0 -4.755622226479e+01 
-1.672515281373e+02 1.337778616701e-01 0.0 
1.337778616701e-01 -3.915868989870e+02 0.0 
0.0 0.0 -1.672515281373e+02 
-1.657178330094e+02 -7.103150746809e-01 0.0 
-7.103150746809e-01 -3.889001294331e+02 0.0 
0.0 0.0 -1.659853887328e+02 
-5.448633010909e+00 -7.352583147902e-01 0.0 
-7.352583147902e-01 -2.313426288177e+01 0.0 
0.0 0.0 -7.573909220724e+00 
-6.956209723086e+01 -4.700641893746e+00 0.0 
-4.700641893746e+00 -1.130791006625e+02 0.0 
0.0 0.0 -5.529278571521e+01 
-1.515613463010e+02 4.902785248491e-01 0.0 
4.902785248491e-01 -3.601033037185e+02 0.0 
0.0 0.0 -1.530993950058e+02 
-1.322360082219e+02 2.174826033002e+01 0.0 
2.174826033002e+01 -3.165578991006e+02 0.0 
0.0 0.0 -1.342381721968e+02 
-2.985627516857e+01 -1.394042278787e+00 0.0 
-1.394042278787e+00 -7.454992906051e+01 0.0 
0.0 0.0 -3.092186126873e+01 
-1.527161115899e+02 3.200729985471e+00 0.0 
3.200729985471e+00 -3.653529335107e+02 0.0 
0.0 0.0 -1.550207135302e+02 
-1.071108293410e+02 5.733214392813e-02 0.0 
5.733214392813e-02 -2.582460188353e+02 0.0 
0.0 0.0 -1.092070544529e+02 
-9.209266301437e+01 5.342408133532e-01 0.0 
5.342408133532e-01 -2.230969827551e+02 0.0 
0.0 0.0 -9.415689373085e+01 
-8.314500305942e+01 4.361142196626e-01 0.0 
4.361142196626e-01 -1.735965247600e+02 0.0 
0.0 0.0 -7.662245834583e+01 
-4.091345007667e+01 -1.961549206399e+01 0.0 
-1.961549206399e+01 -8.955421600270e+01 0.0 
0.0 0.0 -3.704796973859e+01 
-1.053452173033e+02 2.091604810206e+01 0.0 
2.091604810206e+01 -2.689935762429e+02 0.0 
0.0 0.0 -1.119016380639e+02 
-2.335023377233e+01 -2.135669958643e+00 0.0 
-2.135669958643e+00 -5.975012716409e+01 0.0 
0.0 0.0 -2.453010828093e+01 
-8.392744835719e+01 -1.158260985529e+00 0.0 
-1.158260985529e+00 -2.035576961304e+02 0.0 
0.0 0.0 -8.584554334628e+01 
-1.269060552260e+02 1.883000572334e+01 0.0 
1.883000572334e+01 -2.865823700003e+02 0.0 
0.0 0.0 -1.236465275679e+02 
-1.099636260563e+02 9.341793310148e-01 0.0 
9.341793310148e-01 -2.470351647708e+02 0.0 
0.0 0.0 -1.066996372481e+02 
-9.204417916298e+01 -1.001852761805e+00 0.0 
-1.001852761805e+00 -2.218639855474e+02 0.0 
0.0 0.0 -9.377244941312e+01 
-7.479866410708e+01 1.060530100816e+00 0.0 
1.060530100816e+00 -1.530120136975e+02 0.0 
0.0 0.0 -6.794320334138e+01 
-1.321217564407e+02 2.311097602107e+01 0.0 
2.311097602107e+01 -3.078141954369e+02 0.0 
0.0 0.0 -1.315807855633e+02 
-1.207045212591e+02 2.029242154369e+01 0.0 
2.029242154369e+01 -2.620347948763e+02 0.0 
0.0 0.0 -1.144217948406e+02 
-1.134570125791e+02 1.954449175169e+01 0.0 
1.954449175169e+01 -2.414094227176e+02 0.0 
0.0 0.0 -1.060599305890e+02 
-5.622220422288e+01 1.199909385437e-01 0.0 
1.199909385437e-01 -1.059174051960e+02 0.0 
0.0 0.0 -4.824188282567e+01 
-1.003748512355e+02 1.996616653666e+01 0.0 
1.996616653666e+01 -2.644400055719e+02 0.0 
0.0 0.0 -1.090444570422e+02 
-1.202265434802e+02 1.318601269014e+01 0.0 
1.318601269014e+01 -2.682353430413e+02 0.0 
0.0 0.0 -1.161385659565e+02 
-4.749434775084e+01 -1.960418737697e+00 0.0 
-1.960418737697e+00 -1.155526972298e+02 0.0 
0.0 0.0 -4.851411349418e+01 
-1.117105423558e+01 -1.909268229529e+00 0.0 
-1.909268229529e+00 -2.582209819995e+01 0.0 
0.0 0.0 -1.069794573066e+01 
-1.272117055188e+02 2.262741807774e+01 0.0 
2.262741807774e+01 -2.929551896315e+02 0.0 
0.0 0.0 -1.256500685451e+02 
-1.240600374659e+02 1.285096510134e+01 0.0 
1.285096510134e+01 -3.240461475359e+02 0.0 
0.0 0.0 -1.340318555005e+02 
-3.802309159161e+01 -2.061013284068e+01 0.0 
-2.061013284068e+01 -8.051402009192e+01 0.0 
0.0 0.0 -3.476224859929e+01 
-8.859343023162e+01 1.222335731158e+00 0.0 
1.222335731158e+00 -1.878029220325e+02 0.0 
0.0 0.0 -8.251890567923e+01 
-1.589358168012e+02 1.317220032044e+00 0.0 
1.317220032044e+00 -3.747585671158e+02 0.0 
0.0 0.0 -1.597083151751e+02 
-1.271986211239e+02 2.134425035306e+01 0.0 
2.134425035306e+01 -3.014864462815e+02 0.0 
0.0 0.0 -1.282055202216e+02 
-1.329038478779e+02 2.361506403960e+01 0.0 
2.361506403960e+01 -3.126028810429e+02 0.0 
0.0 0.0 -1.332520186763e+02 
-1.160223050577e+02 7.587712630340e-01 0.0 
7.587712630340e-01 -2.790992661052e+02 0.0 
0.0 0.0 -1.181364713489e+02 
-4.039606152068e+01 2.885002591058e+01 0.0 
2.885002591058e+01 -9.824921478418e+01 0.0 
0.0 0.0 -4.294575874252e+01 
-2.890018716387e+01 1.990677029397e+01 0.0 
1.990677029397e+01 -2.139593256377e+01 0.0 
0.0 0.0 -1.468883591829e+01 
-3.761361309572e+01 2.789496324570e+01 0.0 
2.789496324570e+01 -6.611712183433e+01 0.0 
0.0 0.0 -3.071922047901e+01 
-7.676105777285e+01 3.773457070040e+00 0.0 
3.773457070040e+00 -1.426384581266e+02 0.0 
0.0 0.0 -6.541985476983e+01 
-1.010581959028e+02 1.890944801077e+01 0.0 
1.890944801077e+01 -2.645486857464e+02 0.0 
0.0 0.0 -1.092820644948e+02 
-1.154881441198e+02 4.712636584001e+00 0.0 
4.712636584001e+00 -2.608166110682e+02 0.0 
0.0 0.0 -1.124914265564e+02 
-1.508512127096e+02 1.606938211121e+01 0.0 
1.606938211121e+01 -3.637891600490e+02 0.0 
0.0 0.0 -1.539921118276e+02 
-3.593328068731e+01 -1.430744356685e+01 0.0 
-1.430744356685e+01 -5.183549819887e+01 0.0 
0.0 0.0 -2.416111064159e+01 
-2.326185628430e+01 -5.988959570468e+00 0.0 
-5.988959570468e+00 -4.324167020667e+01 0.0 
0.0 0.0 -1.930128424193e+01 
-3.165464615285e+01 2.235764454941e+01 0.0 
2.235764454941e+01 -2.487868207772e+01 0.0 
0.0 0.0 -1.631582692604e+01 
-9.056683646141e+01 3.130059889532e-03 0.0 
3.130059889532e-03 -1.933611134775e+02 0.0 
0.0 0.0 -8.477838498166e+01 
-5.877581282115e+01 -1.622844925005e+00 0.0 
-1.622844925005e+00 -1.425481105999e+02 0.0 
0.0 0.0 -5.999717702631e+01 
-1.203221673589e+02 1.052444579163e+01 0.0 
1.052444579163e+01 -2.671436734825e+02 0.0 
0.0 0.0 -1.158397522524e+02 
-2.757531111898e+01 -2.868115196633e-01 0.0 
-2.868115196633e-01 -7.133011767541e+01 0.0 
0.0 0.0 -2.927162863832e+01 
-1.397383290044e+02 1.536902836401e+01 0.0 
1.536902836401e+01 -3.471891698113e+02 0.0 
0.0 0.0 -1.456782496447e+02 
-7.168692148660e+01 8.646931182609e-01 0.0 
8.646931182609e-01 -1.390306891569e+02 0.0 
0.0 0.0 -6.281528319305e+01 
-1.457748607325e+02 2.176793145494e+01 0.0 
2.176793145494e+01 -3.459808806269e+02 0.0 
0.0 0.0 -1.471267224078e+02 
-1.196755434733e+02 2.201345683618e+01 0.0 
2.201345683618e+01 -2.931660898642e+02 0.0 
0.0 0.0 -1.234524900013e+02 
-7.832444282402e+01 5.198127463051e+00 0.0 
5.198127463051e+00 -1.435403667356e+02 0.0 
0.0 0.0 -6.615944286790e+01 
-1.538730046638e+02 8.539131843149e+00 0.0 
8.539131843149e+00 -3.746588463527e+02 0.0 
0.0 0.0 -1.581595553049e+02 
-1.247503157935e+02 1.085739786430e+01 0.0 
1.085739786430e+01 -2.807251783431e+02 0.0 
0.0 0.0 -1.212426482410e+02 
-1.199012449449e+02 6.931597738962e-01 0.0 
6.931597738962e-01 -2.735438854740e+02 0.0 
0.0 0.0 -1.176335391257e+02 
-3.488207948725e+01 2.476710037240e+01 0.0 
2.476710037240e+01 -2.686402140179e+01 0.0 
0.0 0.0 -1.642860771889e+01 
-1.156439223901e+02 7.662409364709e+00 0.0 
7.662409364709e+00 -2.574569251525e+02 0.0 
0.0 0.0 -1.115302542628e+02 
-1.361725953140e+02 2.254206582641e+01 0.0 
2.254206582641e+01 -3.166293073781e+02 0.0 
0.0 0.0 -1.354405708076e+02 
-1.385681353450e+02 1.631662922657e+01 0.0 
1.631662922657e+01 -3.472942863766e+02 0.0 
0.0 0.0 -1.453587265165e+02 
-1.235193054164e+02 1.972798086042e+01 0.0 
1.972798086042e+01 -3.057158277482e+02 0.0 
0.0 0.0 -1.283705399494e+02 
-1.677060802846e+02 3.810730828902e+00 0.0 
3.810730828902e+00 -3.926475206640e+02 0.0 
0.0 0.0 -1.677060802846e+02 
-1.117776396112e+02 1.683767290247e+01 0.0 
1.683767290247e+01 -2.401662204530e+02 0.0 
0.0 0.0 -1.051831580193e+02 
-5.465280088716e+01 2.044442346413e+01 0.0 
2.044442346413e+01 -7.261662842406e+01 0.0 
0.0 0.0 -3.873257169389e+01 
-3.565362913976e+01 2.934685039742e+01 0.0 
2.934685039742e+01 -7.046872131881e+01 0.0 
0.0 0.0 -3.005907546991e+01 
-1.235932528466e+02 1.983382598914e+01 0.0 
1.983382598914e+01 -2.701666771331e+02 0.0 
0.0 0.0 -1.177279789939e+02 
-8.176022498828e+01 3.645640293936e+00 0.0 
3.645640293936e+00 -1.574053303353e+02 0.0 
0.0 0.0 -7.134966659706e+01 
-1.518026070495e+02 1.278867466261e+00 0.0 
1.278867466261e+00 -3.589465922491e+02 0.0 
0.0 0.0 -1.528247597896e+02 
-1.292644280595e+02 2.232039379721e+01 0.0 
2.232039379721e+01 -3.122871260095e+02 0.0 
0.0 0.0 -1.320654662207e+02 
-1.599091618460e+02 3.306772273951e+00 0.0 
3.306772273951e+00 -3.784734656616e+02 0.0 
0.0 0.0 -1.611147882523e+02 
-9.867378943871e+01 5.192331960216e-01 0.0 
5.192331960216e-01 -2.144217692039e+02 0.0 
0.0 0.0 -9.352866759278e+01 
-1.475551114409e+02 2.096624190331e+01 0.0 
2.096624190331e+01 -3.511727944658e+02 0.0 
0.0 0.0 -1.492183717720e+02 
-1.491543382764e+02 7.382630587520e+00 0.0 
7.382630587520e+00 -3.637757727805e+02 0.0 
0.0 0.0 -1.534790333171e+02 
-1.480326526177e+02 6.417193616041e+00 0.0 
6.417193616041e+00 -3.631715994235e+02 0.0 
0.0 0.0 -1.529612756124e+02 
-6.105804867538e+01 -1.184690121992e+00 0.0 
-1.184690121992e+00 -1.477710875475e+02 0.0 
0.0 0.0 -6.224874086685e+01 
-1.661595800854e+02 2.806555691137e+00 0.0 
2.806555691137e+00 -3.921166679896e+02 0.0 
0.0 0.0 -1.670828744225e+02 
-6.669179531103e+01 1.707658520668e+00 0.0 
1.707658520668e+00 -1.233416840872e+02 0.0 
0.0 0.0 -5.661004381947e+01 
-1.134178743058e+02 2.923604349076e+00 0.0 
2.923604349076e+00 -2.550517676126e+02 0.0 
0.0 0.0 -1.101408925755e+02 
-2.741057089346e+01 -7.196693167066e+00 0.0 
-7.196693167066e+00 -4.318763896226e+01 0.0 
0.0 0.0 -1.987963949079e+01 
-1.083183116497e+02 1.506765291999e+00 0.0 
1.506765291999e+00 -2.400036225301e+02 0.0 
0.0 0.0 -1.040965802539e+02 
-8.970422707334e+01 1.005595879116e+00 0.0 
1.005595879116e+00 -1.897145912319e+02 0.0 
0.0 0.0 -8.342564549156e+01 
-1.260641933807e+01 5.508878070882e-01 0.0 
5.508878070882e-01 -4.185475557382e+01 0.0 
0.0 0.0 -1.593835247357e+01 
-3.219418529366e+01 -1.401016064400e+01 0.0 
-1.401016064400e+01 -1.311811200096e+02 0.0 
0.0 0.0 -4.954082095859e+01 
-1.155630464474e+02 1.812040451365e+01 0.0 
1.812040451365e+01 -2.535993897671e+02 0.0 
0.0 0.0 -1.103487308644e+02 
-1.191574424041e+02 5.820652498049e+00 0.0 
5.820652498049e+00 -2.737479610491e+02 0.0 
0.0 0.0 -1.174716210360e+02 
-1.138253728468e+02 1.761208194655e+00 0.0 
1.761208194655e+00 -2.576649720968e+02 0.0 
0.0 0.0 -1.110471034831e+02 
-1.437059504518e+02 1.992280147307e+01 0.0 
1.992280147307e+01 -3.501129007509e+02 0.0 
0.0 0.0 -1.477456553608e+02 
-7.490904355454e+01 -9.462913020575e-02 0.0 
-9.462913020575e-02 -1.523953467269e+02 0.0 
0.0 0.0 -6.779131708443e+01 
-8.367504940457e+00 -7.997740400543e-01 0.0 
-7.997740400543e-01 -2.491696495702e+01 0.0 
0.0 0.0 -9.476697206355e+00 
-3.794832248077e+01 2.172514537791e+01 0.0 
2.172514537791e+01 -1.121396162935e+02 0.0 
0.0 0.0 -4.659934326810e+01 
-1.177601593014e+01 -2.303827670288e+00 0.0 
-2.303827670288e+00 -2.848242557702e+01 0.0 
0.0 0.0 -1.167753245215e+01 
-2.926487892376e+01 -6.708021212166e+00 0.0 
-6.708021212166e+00 -5.780452119224e+01 0.0 
0.0 0.0 -2.550232627665e+01 
-4.721590042631e+01 3.862439072816e+01 0.0 
3.862439072816e+01 -5.724705990907e+01 0.0 
0.0 0.0 -3.178933931530e+01 
-8.200082196479e+01 -2.468585029913e+00 0.0 
-2.468585029913e+00 -1.980909384023e+02 0.0 
0.0 0.0 -8.362752811013e+01 
-1.514835341740e+02 -2.844172645615e-01 0.0 
-2.844172645615e-01 -3.587623960319e+02 0.0 
0.0 0.0 -1.526737790618e+02 
-1.229280126608e+02 1.526711000131e+01 0.0 
1.526711000131e+01 -2.728506368773e+02 0.0 
0.0 0.0 -1.183335948614e+02 
-8.583426843052e+01 7.469740752523e+00 0.0 
7.469740752523e+00 -1.595265436931e+02 0.0 
0.0 0.0 -7.320824363707e+01 
-7.144765917893e+01 -1.912453415336e+00 0.0 
-1.912453415336e+00 -1.741408263093e+02 0.0 
0.0 0.0 -7.327654564647e+01 
-1.487299777032e+02 5.281479053988e+00 0.0 
5.281479053988e+00 -3.616222458157e+02 0.0 
0.0 0.0 -1.527056670557e+02 
-1.404918925338e+02 1.017318590145e+01 0.0 
1.017318590145e+01 -3.539333256930e+02 0.0 
0.0 0.0 -1.479275654680e+02 
-1.430803014909e+02 2.293209603954e+01 0.0 
2.293209603954e+01 -3.437123829111e+02 0.0 
0.0 0.0 -1.456378053206e+02 
-1.319261761240e+02 2.220308427601e+01 0.0 
2.220308427601e+01 -3.056457462900e+02 0.0 
0.0 0.0 -1.308715767242e+02 
-1.222113457145e+02 1.903165222662e+01 0.0 
1.903165222662e+01 -2.732917359575e+02 0.0 
0.0 0.0 -1.182509245016e+02 
-2.664152240945e+01 -6.151959380466e+00 0.0 
-6.151959380466e+00 -4.238345347666e+01 0.0 
0.0 0.0 -1.965542137967e+01 
-4.014273889100e+01 -1.803501097501e+01 0.0 
-1.803501097501e+01 -1.121939223641e+02 0.0 
0.0 0.0 -4.746345467272e+01 
-1.518478034074e+02 1.564894413988e+00 0.0 
1.564894413988e+00 -3.607213099199e+02 0.0 
0.0 0.0 -1.533707339982e+02 
-1.332774664166e+01 -3.508226874733e-01 0.0 
-3.508226874733e-01 -4.134254327966e+01 0.0 
0.0 0.0 -1.600108697640e+01 
-1.655475863019e+01 -1.307674134088e+00 0.0 
-1.307674134088e+00 -4.930648334019e+01 0.0 
0.0 0.0 -1.935837259111e+01 
-4.022593019893e+01 3.360390587663e+01 0.0 
3.360390587663e+01 -5.566323490947e+01 0.0 
0.0 0.0 -2.902924263517e+01 
-1.568407004558e+01 -1.248625450780e+00 0.0 
-1.248625450780e+00 -3.842822453207e+01 0.0 
0.0 0.0 -1.583368837329e+01 
-1.577489235473e+02 7.501500210443e+00 0.0 
7.501500210443e+00 -3.770269580547e+02 0.0 
0.0 0.0 -1.600327644806e+02 
-1.334562496409e+02 2.175129407038e+01 0.0 
2.175129407038e+01 -3.068958906281e+02 0.0 
0.0 0.0 -1.317056420807e+02 
-1.146419880770e+02 3.104837819649e+00 0.0 
3.104837819649e+00 -2.605869527738e+02 0.0 
0.0 0.0 -1.121686822552e+02 
-1.445543685323e+02 2.254714586710e+01 0.0 
2.254714586710e+01 -3.424999121839e+02 0.0 
0.0 0.0 -1.457162842149e+02 
-1.360866031888e+02 1.161625918148e+01 0.0 
1.161625918148e+01 -3.440701572883e+02 0.0 
0.0 0.0 -1.436470281431e+02 
-7.949611109023e+01 -1.176605697251e-01 0.0 
-1.176605697251e-01 -1.637618708970e+02 0.0 
0.0 0.0 -7.257739459618e+01 
-1.249934826576e+02 7.900823265150e+00 0.0 
7.900823265150e+00 -2.929847928678e+02 0.0 
0.0 0.0 -1.249934826576e+02 
-4.253186856269e+01 -1.911942334019e+01 0.0 
-1.911942334019e+01 -1.301571846440e+02 0.0 
0.0 0.0 -5.052277064670e+01 
-5.662345021198e+01 2.321964623857e-01 0.0 
2.321964623857e-01 -1.051803605036e+02 0.0 
0.0 0.0 -4.814114321467e+01 
-4.422783719322e+01 -2.084380908663e+01 0.0 
-2.084380908663e+01 -7.377862475201e+01 0.0 
0.0 0.0 -3.318121116792e+01 
-7.088970898759e+00 -8.030313492066e-01 0.0 
-8.030313492066e-01 -2.460957477225e+01 0.0 
0.0 0.0 -9.691783299484e+00 
-1.663181339530e+02 1.363508844784e+00 0.0 
1.363508844784e+00 -3.914512890679e+02 0.0 
0.0 0.0 -1.669308269063e+02 
-7.123416847579e+01 4.108197132428e+00 0.0 
4.108197132428e+00 -1.281270497900e+02 0.0 
0.0 0.0 -5.940836547975e+01 
-2.106651229897e+01 -1.141923604626e+00 0.0 
-1.141923604626e+00 -5.746276265578e+01 0.0 
0.0 0.0 -2.315878248643e+01 
-7.813651787175e+01 -2.414674064392e+00 0.0 
-2.414674064392e+00 -1.899264270564e+02 0.0 
0.0 0.0 -8.001888347845e+01 
-1.348937115217e+02 2.189157994804e+01 0.0 
2.189157994804e+01 -3.065298674456e+02 0.0 
0.0 0.0 -1.320270736902e+02 
-1.161860058845e+02 6.159038821956e+00 0.0 
6.159038821956e+00 -2.600053302131e+02 0.0 
0.0 0.0 -1.124574008293e+02 
-1.234095644449e+02 1.257475167243e+01 0.0 
1.257475167243e+01 -2.819726605068e+02 0.0 
0.0 0.0 -1.212146674855e+02 
-5.555648978220e+01 -3.137755338447e-01 0.0 
-3.137755338447e-01 -1.343942362472e+02 0.0 
0.0 0.0 -5.658521780883e+01 
-3.987955787304e+01 2.913053652064e+00 0.0 
2.913053652064e+00 -1.218289922102e+02 0.0 
0.0 0.0 -5.044239796845e+01 
-1.575839789903e+02 3.968054945933e+00 0.0 
3.968054945933e+00 -3.771645900471e+02 0.0 
0.0 0.0 -1.600245707112e+02 
-1.258386000576e+02 6.605039424410e-01 0.0 
6.605039424410e-01 -2.904044457056e+02 0.0 
0.0 0.0 -1.244729137289e+02 
-1.663791800780e+02 3.141603152997e-01 0.0 
3.141603152997e-01 -3.911141205689e+02 0.0 
0.0 0.0 -1.668479901941e+02 
-6.091461918059e+01 -4.741006424105e-01 0.0 
-4.741006424105e-01 -1.196591486961e+02 0.0 
0.0 0.0 -5.377213036300e+01 
-1.451211598411e+02 1.178102565467e+01 0.0 
1.178102565467e+01 -3.572300489284e+02 0.0 
0.0 0.0 -1.503053626308e+02 
-2.256622667473e+01 -6.713094972770e-01 0.0 
-6.713094972770e-01 -5.848649018118e+01 0.0 
0.0 0.0 -2.391581505677e+01 
-1.187850121757e+02 8.942900709996e+00 0.0 
8.942900709996e+00 -2.666695080373e+02 0.0 
0.0 0.0 -1.152363560639e+02 
-7.492596630418e+00 -5.351295575943e-01 0.0 
-5.351295575943e-01 -2.340697200789e+01 0.0 
0.0 0.0 -9.230034516498e+00 
-1.567127973040e+02 1.027138328105e+01 0.0 
1.027138328105e+01 -3.756536265068e+02 0.0 
0.0 0.0 -1.593099271433e+02 
-1.261725264829e+02 1.320876952076e+01 0.0 
1.320876952076e+01 -2.831397468872e+02 0.0 
0.0 0.0 -1.223936820110e+02 
-4.444118163185e+01 1.334569673268e+01 0.0 
1.334569673268e+01 -1.186574653036e+02 0.0 
0.0 0.0 -5.029586828439e+01 
-1.276760401760e+02 2.295053897221e+01 0.0 
2.295053897221e+01 -3.025228588048e+02 0.0 
0.0 0.0 -1.286596696942e+02 
-9.517801233000e+01 1.830510139891e+00 0.0 
1.830510139891e+00 -2.043814113385e+02 0.0 
0.0 0.0 -8.946782710054e+01 
-1.189831802589e+02 4.360688519447e+00 0.0 
4.360688519447e+00 -2.743545441102e+02 0.0 
0.0 0.0 -1.176013173107e+02 
-1.601096296184e+02 2.014765795423e+01 0.0 
2.014765795423e+01 -3.749224691096e+02 0.0 
0.0 0.0 -1.601096296184e+02 
-8.418465497546e+01 1.490591858305e+00 0.0 
1.490591858305e+00 -1.773501904881e+02 0.0 
0.0 0.0 -7.806045363908e+01 
-1.317751901548e+02 2.049724274770e+01 0.0 
2.049724274770e+01 -3.032271839083e+02 0.0 
0.0 0.0 -1.301007122189e+02 
-1.219749728313e+02 1.275914177482e+01 0.0 
1.275914177482e+01 -2.692551684793e+02 0.0 
0.0 0.0 -1.169690423932e+02 
-8.836133964401e+01 6.739734396298e-01 0.0 
6.739734396298e-01 -1.889161157278e+02 0.0 
0.0 0.0 -8.278323661153e+01 
-1.290539010788e+02 2.017645080868e+01 0.0 
2.017645080868e+01 -2.920825299223e+02 0.0 
0.0 0.0 -1.259409293003e+02 
-6.728467079949e+01 -1.144384091478e+00 0.0 
-1.144384091478e+00 -1.619660446313e+02 0.0 
0.0 0.0 -6.837521462923e+01 
-5.507915215660e+01 1.498081766663e-01 0.0 
1.498081766663e-01 -1.051377996180e+02 0.0 
0.0 0.0 -4.766508553237e+01 
-1.367890537261e+02 2.179834020210e+01 0.0 
2.179834020210e+01 -3.290258649590e+02 0.0 
0.0 0.0 -1.393444756055e+02 
-1.195353285475e+02 6.407030393082e-02 0.0 
6.407030393082e-02 -2.752933535893e+02 0.0 
0.0 0.0 -1.180486046410e+02 
3.437992670275e-01 9.426010927788e-03 0.0 
9.426010927788e-03 -8.792241841981e+00 0.0 
0.0 0.0 -1.784963804289e+00 
-5.475437144302e+01 -2.145941877183e-01 0.0 
-2.145941877183e-01 -1.054198416642e+02 0.0 
0.0 0.0 -4.765226393216e+01 
-1.607983381788e+02 6.649879013716e-01 0.0 
6.649879013716e-01 -3.780420526060e+02 0.0 
0.0 0.0 -1.612521172355e+02 
-3.067467452112e+01 -3.128776923908e+00 0.0 
-3.128776923908e+00 -7.376873614104e+01 0.0 
0.0 0.0 -3.093302319865e+01 
-1.392478549254e+02 1.438259066572e+01 0.0 
1.438259066572e+01 -3.514030639512e+02 0.0 
0.0 0.0 -1.467952756630e+02 
-1.241054539130e+02 1.494813836848e+01 0.0 
1.494813836848e+01 -2.709313462296e+02 0.0 
0.0 0.0 -1.181110400428e+02 
-1.202774424237e+02 4.463773894955e+00 0.0 
4.463773894955e+00 -2.736940639304e+02 0.0 
0.0 0.0 -1.177914519062e+02 
-2.806945816915e+01 -2.111810438644e+00 0.0 
-2.111810438644e+00 -7.072232010158e+01 0.0 
0.0 0.0 -2.923753348122e+01 
-4.032744324187e+01 3.423613117293e+01 0.0 
3.423613117293e+01 -8.679347561892e+01 0.0 
0.0 0.0 -3.731454603005e+01 
-9.545354187008e+01 -1.562896090488e+00 0.0 
-1.562896090488e+00 -2.317198465909e+02 0.0 
0.0 0.0 -9.775201653828e+01 
-1.020198712060e+02 5.104143650564e-01 0.0 
5.104143650564e-01 -2.256935832189e+02 0.0 
0.0 0.0 -9.791403632747e+01 
-1.167525733055e+02 -3.864572426470e+00 0.0 
-3.864572426470e+00 -9.710373509390e+01 0.0 
0.0 0.0 -6.438127703262e+01 
-1.221432224483e+02 1.039901839006e+01 0.0 
1.039901839006e+01 -2.799293932328e+02 0.0 
0.0 0.0 -1.202217847043e+02 
-8.150199286578e+01 3.265037241385e-01 0.0 
3.265037241385e-01 -1.712227725242e+02 0.0 
0.0 0.0 -7.541742961699e+01 
-4.424883470867e+01 -1.916345875183e+01 0.0 
-1.916345875183e+01 -9.052046025201e+01 0.0 
0.0 0.0 -3.817060726897e+01 
-7.622398225806e+01 3.710385132104e-01 0.0 
3.710385132104e-01 -1.573629037721e+02 0.0 
0.0 0.0 -6.967606580904e+01 
-1.420972267283e+02 2.450675177200e+01 0.0 
2.450675177200e+01 -3.371531334310e+02 0.0 
0.0 0.0 -1.433751080478e+02 
-1.004630571179e+02 1.037306575009e+00 0.0 
1.037306575009e+00 -2.428325317971e+02 0.0 
0.0 0.0 -1.025886766745e+02 
-4.774353091794e+01 3.407548771884e+01 0.0 
3.407548771884e+01 -3.154557287013e+01 0.0 
0.0 0.0 -2.453287046658e+01 
-6.033005426130e+01 -2.770909575052e+00 0.0 
-2.770909575052e+00 -1.467916112251e+02 0.0 
0.0 0.0 -6.173649964592e+01 
-8.760594795718e+01 -2.141281210000e+00 0.0 
-2.141281210000e+00 -2.130600123512e+02 0.0 
0.0 0.0 -8.979978809251e+01 
-1.047367579108e+02 -1.552579777023e+00 0.0 
-1.552579777023e+00 -2.521139435202e+02 0.0 
0.0 0.0 -1.066552104293e+02 
-1.390074084688e+02 2.132495793464e+01 0.0 
2.132495793464e+01 -3.376858304715e+02 0.0 
0.0 0.0 -1.426079716821e+02 
-8.545506673277e+01 -1.471653790235e-01 0.0 
-1.471653790235e-01 -2.075619387164e+02 0.0 
0.0 0.0 -8.750510163476e+01 
-9.101388890562e+01 -1.411987581067e+00 0.0 
-1.411987581067e+00 -2.202444500398e+02 0.0 
0.0 0.0 -9.297750168364e+01 
-1.511978115991e+01 -2.326275299286e+00 0.0 
-2.326275299286e+00 -3.726359399983e+01 0.0 
0.0 0.0 -1.531501254792e+01 
-1.518688950299e+02 2.265262834654e+00 0.0 
2.265262834654e+00 -3.652937354100e+02 0.0 
0.0 0.0 -1.547487891320e+02 
-1.264000172024e+02 2.126518823183e+01 0.0 
2.126518823183e+01 -2.928150334397e+02 0.0 
0.0 0.0 -1.253645151926e+02 
-3.701215917683e+01 3.156167519651e+01 0.0 
3.156167519651e+01 -1.019005885545e+02 0.0 
0.0 0.0 -4.238045803868e+01 
-1.191381673587e+02 9.585337769717e-01 0.0 
9.585337769717e-01 -2.745604497641e+02 0.0 
0.0 0.0 -1.177095851368e+02 
-1.605572162717e+02 -4.043961583656e-01 0.0 
-4.043961583656e-01 -3.774848374666e+02 0.0 
0.0 0.0 -1.610126161215e+02 
-6.140361132055e+01 6.640136289340e-01 0.0 
6.640136289340e-01 -1.207125651996e+02 0.0 
0.0 0.0 -5.423485295605e+01 
-8.197262268141e+01 2.859844223554e-01 0.0 
2.859844223554e-01 -1.714088135447e+02 0.0 
0.0 0.0 -7.561443086784e+01 
-8.567134985656e+01 -1.983539295741e+00 0.0 
-1.983539295741e+00 -2.073610642828e+02 0.0 
0.0 0.0 -8.750972424180e+01 
-8.882372862381e+01 -8.276097236725e-01 0.0 
-8.276097236725e-01 -2.144600730510e+02 0.0 
0.0 0.0 -9.058514050244e+01 
-9.109833745819e+01 -6.417038379241e-01 0.0 
-6.417038379241e-01 -2.210662575850e+02 0.0 
0.0 0.0 -9.324937851297e+01 
-1.336484377267e+02 1.374339288480e+01 0.0 
1.374339288480e+01 -3.395575125289e+02 0.0 
0.0 0.0 -1.415617850767e+02 
-3.724966583807e+01 -1.677479426090e+01 0.0 
-1.677479426090e+01 -6.716838812272e+01 0.0 
0.0 0.0 -2.963505303680e+01 
-1.314611651428e+02 2.350830405110e+01 0.0 
2.350830405110e+01 -3.013404759097e+02 0.0 
0.0 0.0 -1.294404923158e+02 
-6.815923033143e+01 -3.390138118118e-02 0.0 
-3.390138118118e-02 -1.374886107068e+02 0.0 
0.0 0.0 -6.129435231147e+01 
-1.243225811696e+02 1.037817122290e+01 0.0 
1.037817122290e+01 -2.790983246058e+02 0.0 
0.0 0.0 -1.206262717326e+02 
-1.349759017513e+02 1.422132666557e+01 0.0 
1.422132666557e+01 -3.400370993678e+02 0.0 
0.0 0.0 -1.421039003357e+02 
-7.760835858929e+01 9.546008702847e-01 0.0 
9.546008702847e-01 -1.582976487763e+02 0.0 
0.0 0.0 -7.037180220969e+01 
-1.243503062326e+02 1.901660966761e+01 0.0 
1.901660966761e+01 -2.785921352603e+02 0.0 
0.0 0.0 -1.204827324478e+02 
-1.380848629438e+02 2.004459988518e+01 0.0 
2.004459988518e+01 -3.366564322796e+02 0.0 
0.0 0.0 -1.420223885670e+02 
-1.440198445442e+02 2.267892076895e+01 0.0 
2.267892076895e+01 -3.478566800340e+02 0.0 
0.0 0.0 -1.471629573735e+02 
-4.437707854330e+01 3.707592024740e+01 0.0 
3.707592024740e+01 -6.835006924869e+01 0.0 
0.0 0.0 -3.479812096727e+01 
-1.258743244693e+02 2.057387470798e+01 0.0 
2.057387470798e+01 -2.794885626824e+02 0.0 
0.0 0.0 -1.212088661455e+02 
-1.295844418675e+02 2.047552934956e+01 0.0 
2.047552934956e+01 -2.929867766417e+02 0.0 
0.0 0.0 -1.263713655528e+02 
-1.351606393913e+01 -7.376987830337e-01 0.0 
-7.376987830337e-01 -3.795822381902e+01 0.0 
0.0 0.0 -1.504228632744e+01 
-8.154679581707e+01 -9.501321049106e-01 0.0 
-9.501321049106e-01 -1.974362401568e+02 0.0 
0.0 0.0 -8.329491079217e+01 
-5.012306618824e+01 3.728866997769e+01 0.0 
3.728866997769e+01 -6.740410887358e+01 0.0 
0.0 0.0 -3.622067194099e+01 
-1.300354062312e+02 2.099200807429e+01 0.0 
2.099200807429e+01 -2.898201465238e+02 0.0 
0.0 0.0 -1.255566658265e+02 
-1.321050717001e+01 4.699555730251e-01 0.0 
4.699555730251e-01 -7.983662830254e+00 0.0 
0.0 0.0 -5.958251000080e+00 
-1.400677385013e+01 -9.356051593956e-02 0.0 
-9.356051593956e-02 -9.880022905565e+00 0.0 
0.0 0.0 -6.766039026710e+00 
-1.327967175115e+01 1.631488114560e-01 0.0 
1.631488114560e-01 -9.601445871546e+00 0.0 
0.0 0.0 -6.464335286810e+00 
-1.383306291851e+01 -4.464480666938e-03 0.0 
-4.464480666938e-03 -9.923212421729e+00 0.0 
0.0 0.0 -6.726882602072e+00 
-1.331204913182e+01 3.258161901701e-02 0.0 
3.258161901701e-02 -9.708648714304e+00 0.0 
0.0 0.0 -6.506209353838e+00 
-1.368438293700e+01 -8.241046972880e-02 0.0 
-8.241046972880e-02 -9.940717146868e+00 0.0 
0.0 0.0 -6.687530025160e+00 
-1.318931432970e+01 -4.762595480446e-02 0.0 
-4.762595480446e-02 -9.740280895147e+00 0.0 
0.0 0.0 -6.478878567454e+00 
-1.354072257292e+01 -1.577589214514e-01 0.0 
-1.577589214514e-01 -9.970594564080e+00 0.0 
0.0 0.0 -6.653395141099e+00 
-1.294344608622e+01 -9.656312484820e-02 0.0 
-9.656312484820e-02 -9.739510416135e+00 0.0 
0.0 0.0 -6.404886950707e+00 
-1.337478244260e+01 -2.255969795046e-01 0.0 
-2.255969795046e-01 -1.000475231086e+01 0.0 
0.0 0.0 -6.613860426039e+00 
-1.259837090847e+01 -1.285431152611e-01 0.0 
-1.285431152611e-01 -9.719301591193e+00 0.0 
0.0 0.0 -6.295301749898e+00 
-1.317253416693e+01 -2.891068581467e-01 0.0 
-2.891068581467e-01 -1.004057188548e+01 0.0 
0.0 0.0 -6.563931815725e+00 
-1.216710661337e+01 -1.517890370570e-01 0.0 
-1.517890370570e-01 -9.689172929308e+00 0.0 
0.0 0.0 -6.156883862803e+00 
-1.293672107313e+01 -3.511456066705e-01 0.0 
-3.511456066705e-01 -1.007808087820e+01 0.0 
0.0 0.0 -6.504440585399e+00 
-1.165378706643e+01 -1.729048106210e-01 0.0 
-1.729048106210e-01 -9.650074148914e+00 0.0 
0.0 0.0 -5.991158364603e+00 
-1.266831905421e+01 -4.168325404398e-01 0.0 
-4.168325404398e-01 -1.011913430226e+01 0.0 
0.0 0.0 -6.436236006940e+00 
-1.105581651954e+01 -1.930308281099e-01 0.0 
-1.930308281099e-01 -9.606484224899e+00 0.0 
0.0 0.0 -5.798690223331e+00 
-1.499110826073e+01 4.977987265790e+00 0.0 
4.977987265790e+00 -1.299528646419e+01 0.0 
0.0 0.0 -7.995918417478e+00 
-1.236510351620e+01 -4.843019232751e-01 0.0 
-4.843019232751e-01 -1.016309360711e+01 0.0 
0.0 0.0 -6.358459136993e+00 
-1.037243338862e+01 -2.120130885249e-01 0.0 
-2.120130885249e-01 -9.560175773313e+00 0.0 
0.0 0.0 -5.579782748581e+00 
-1.925483538821e+01 2.834053275547e+00 0.0 
2.834053275547e+00 -1.095534350854e+01 0.0 
0.0 0.0 -8.663053669026e+00 
-1.203395136144e+01 -5.517907765938e-01 0.0 
-5.517907765938e-01 -1.021031863296e+01 0.0 
0.0 0.0 -6.273280998322e+00 
-9.606334305528e+00 -2.275897415786e-01 0.0 
-2.275897415786e-01 -9.513148797379e+00 0.0 
0.0 0.0 -5.335844930872e+00 
-1.169345888834e+01 -6.151975412216e-01 0.0 
-6.151975412216e-01 -1.026107075588e+01 0.0 
0.0 0.0 -6.186358893266e+00 
-8.765342392847e+00 -2.388804221051e-01 0.0 
-2.388804221051e-01 -9.462628398772e+00 0.0 
0.0 0.0 -5.068391237486e+00 
-1.136823786825e+01 -6.727083157865e-01 0.0 
-6.727083157865e-01 -1.031601281777e+01 0.0 
0.0 0.0 -6.105275205808e+00 
-6.199503766127e+00 1.089332395701e+00 0.0 
1.089332395701e+00 -5.962962944948e+00 0.0 
0.0 0.0 -3.248740013322e+00 
-7.856749943271e+00 -2.495032840170e-01 0.0 
-2.495032840170e-01 -9.401975561075e+00 0.0 
0.0 0.0 -4.777617651304e+00 
-1.109566217483e+01 -7.303912138911e-01 0.0 
-7.303912138911e-01 -1.038165466003e+01 0.0 
0.0 0.0 -6.043195050459e+00 
-6.890094910648e+00 -2.459546119086e-01 0.0 
-2.459546119086e-01 -9.349078782804e+00 0.0 
0.0 0.0 -4.471752108036e+00 
-1.087355275218e+01 -7.591563263688e-01 0.0 
-7.591563263688e-01 -1.044948806861e+01 0.0 
0.0 0.0 -5.996912246238e+00 
-5.909717292113e+00 -2.244271624184e-01 0.0 
-2.244271624184e-01 -9.295556952204e+00 0.0 
0.0 0.0 -4.161582273295e+00 
-1.084585249204e+01 -7.597382505233e-01 0.0 
-7.597382505233e-01 -1.053494933309e+01 0.0 
0.0 0.0 -6.014240547537e+00 
-4.986161801875e+00 -1.437650203513e-01 0.0 
-1.437650203513e-01 -9.279635687404e+00 0.0 
0.0 0.0 -3.879739246784e+00 
-1.099479969413e+01 -6.525517246582e-01 0.0 
-6.525517246582e-01 -1.060963905103e+01 0.0 
0.0 0.0 -6.081331623548e+00 
-4.266986043969e+00 -2.730232869780e-02 0.0 
-2.730232869780e-02 -9.224275588388e+00 0.0 
0.0 0.0 -3.647378489707e+00 
-1.176448521862e+01 -5.077378192706e-01 0.0 
-5.077378192706e-01 -1.073501937046e+01 0.0 
0.0 0.0 -6.349851376723e+00 
-2.655367025846e+01 8.759304736940e+00 0.0 
8.759304736940e+00 -1.315050378353e+01 0.0 
0.0 0.0 -1.151125221260e+01 
-1.284155121270e+01 -3.619602224398e-02 0.0 
-3.619602224398e-02 -1.081186850179e+01 0.0 
0.0 0.0 -6.696025914347e+00 
-3.903875102882e+00 2.635917031342e-01 0.0 
2.635917031342e-01 -9.340649978691e+00 0.0 
0.0 0.0 -3.573357524472e+00 
-1.505481173046e+01 6.001017331489e-01 0.0 
6.001017331489e-01 -1.097055912344e+01 0.0 
0.0 0.0 -7.407611256170e+00 
-4.373841158684e+00 7.130309589861e-01 0.0 
7.130309589861e-01 -9.409098271975e+00 0.0 
0.0 0.0 -3.734881829198e+00 
-6.334197624303e+00 1.960965178912e+00 0.0 
1.960965178912e+00 -1.053705549084e+01 0.0 
0.0 0.0 -4.661375934543e+00 
-1.794813586779e+01 2.262658722888e+00 0.0 
2.262658722888e+00 7.298085399017e-01 0.0 
0.0 0.0 -4.691865627906e+00 
-1.408783370686e+01 1.497964981328e+00 0.0 
1.497964981328e+00 -1.026391957786e+01 0.0 
0.0 0.0 -6.905525985416e+00 
-1.440294062410e+01 -1.290344688502e+00 0.0 
-1.290344688502e+00 -8.384888050923e+00 0.0 
0.0 0.0 -6.436348602507e+00 
-1.607661145058e+01 2.237847207446e-01 0.0 
2.237847207446e-01 -1.451994560374e+01 0.0 
0.0 0.0 -8.778967116294e+00 
-1.250069515685e+01 -6.467725225422e-02 0.0 
-6.467725225422e-02 -4.281218989631e+00 0.0 
0.0 0.0 -4.634574243944e+00 
-2.576951638043e+01 9.099780343498e+00 0.0 
9.099780343498e+00 -1.067114448540e+01 0.0 
0.0 0.0 -1.053219825975e+01 
-2.310109616199e+01 2.138335184016e-01 0.0 
2.138335184016e-01 -3.118347750884e+01 0.0 
0.0 0.0 -1.588537210125e+01 
-2.236628989737e+01 -3.206548600643e-01 0.0 
-3.206548600643e-01 -2.938556034911e+01 0.0 
0.0 0.0 -1.512555507394e+01 
-2.230809951176e+01 -6.871279724123e-02 0.0 
-6.871279724123e-02 -2.932471016853e+01 0.0 
0.0 0.0 -1.508984290409e+01 
-2.208824197994e+01 -1.376464762899e-01 0.0 
-1.376464762899e-01 -2.918529689839e+01 0.0 
0.0 0.0 -1.498206166350e+01 
-2.222320744309e+01 -1.441749699582e-01 0.0 
-1.441749699582e-01 -2.924392034632e+01 0.0 
0.0 0.0 -1.504013833682e+01 
-2.192796672679e+01 -2.052777211946e-01 0.0 
-2.052777211946e-01 -2.917574598973e+01 0.0 
0.0 0.0 -1.493111381496e+01 
-2.216006180446e+01 -2.218720504270e-01 0.0 
-2.218720504270e-01 -2.927807414410e+01 0.0 
0.0 0.0 -1.503144078457e+01 
-2.177184762057e+01 -3.014954464690e-01 0.0 
-3.014954464690e-01 -2.917655300859e+01 0.0 
0.0 0.0 -1.488452018875e+01 
-2.210621335995e+01 -2.975383976782e-01 0.0 
-2.975383976782e-01 -2.931413623103e+01 0.0 
0.0 0.0 -1.502610487729e+01 
-2.158816979115e+01 -4.014022560898e-01 0.0 
-4.014022560898e-01 -2.916932279080e+01 0.0 
0.0 0.0 -1.482724777458e+01 
-2.204878860056e+01 -3.708937176728e-01 0.0 
-3.708937176728e-01 -2.934498573356e+01 0.0 
0.0 0.0 -1.501813230024e+01 
-2.136604378508e+01 -4.998599854654e-01 0.0 
-4.998599854654e-01 -2.915876099450e+01 0.0 
0.0 0.0 -1.475744143387e+01 
-2.198646929426e+01 -4.336671554431e-01 0.0 
-4.336671554431e-01 -2.937540413633e+01 0.0 
0.0 0.0 -1.500856202918e+01 
-2.110279601784e+01 -5.926065464689e-01 0.0 
-5.926065464689e-01 -2.913225574919e+01 0.0 
0.0 0.0 -1.467051553011e+01 
-2.193620609386e+01 -4.938720257438e-01 0.0 
-4.938720257438e-01 -2.940433966262e+01 0.0 
0.0 0.0 -1.500216372694e+01 
-2.080234466262e+01 -6.845329798889e-01 0.0 
-6.845329798889e-01 -2.909852738856e+01 0.0 
0.0 0.0 -1.457026161535e+01 
-2.617391425494e+01 4.997432085411e+00 0.0 
4.997432085411e+00 -3.369796032591e+01 0.0 
0.0 0.0 -1.756156237426e+01 
-2.190525097725e+01 -5.550763485991e-01 0.0 
-5.550763485991e-01 -2.943954360521e+01 0.0 
0.0 0.0 -1.500343837474e+01 
-2.046965129842e+01 -7.743691329037e-01 0.0 
-7.743691329037e-01 -2.907370509898e+01 0.0 
0.0 0.0 -1.446300691922e+01 
-2.184498432009e+01 3.131708787745e+00 0.0 
3.131708787745e+00 -2.681429516592e+01 0.0 
0.0 0.0 -1.419778384580e+01 
-2.187245820335e+01 -6.090569546050e-01 0.0 
-6.090569546050e-01 -2.948003637290e+01 0.0 
0.0 0.0 -1.500574837287e+01 
-2.011079669926e+01 -8.500812604615e-01 0.0 
-8.500812604615e-01 -2.905629108788e+01 0.0 
0.0 0.0 -1.435012633614e+01 
-2.890502877004e+01 3.074521870541e+00 0.0 
3.074521870541e+00 -3.116752688508e+01 0.0 
0.0 0.0 -1.762176669654e+01 
-2.187916881098e+01 -6.415287312225e-01 0.0 
-6.415287312225e-01 -2.953198664042e+01 0.0 
0.0 0.0 -1.502334663542e+01 
-1.974217638469e+01 -9.009420759097e-01 0.0 
-9.009420759097e-01 -2.904141158072e+01 0.0 
0.0 0.0 -1.423507638962e+01 
-2.195610219411e+01 -6.456346567358e-01 0.0 
-6.456346567358e-01 -2.959344124716e+01 0.0 
0.0 0.0 -1.506486303238e+01 
-1.938747450126e+01 -9.177891547741e-01 0.0 
-9.177891547741e-01 -2.902756496146e+01 0.0 
0.0 0.0 -1.412451183881e+01 
-2.212086920052e+01 -6.142764584442e-01 0.0 
-6.142764584442e-01 -2.965696331447e+01 0.0 
0.0 0.0 -1.513334975449e+01 
-1.907921547561e+01 -8.896424754958e-01 0.0 
-8.896424754958e-01 -2.900994569517e+01 0.0 
0.0 0.0 -1.402674835123e+01 
-3.193490602446e+01 6.273117169804e+00 0.0 
6.273117169804e+00 -3.441505043751e+01 0.0 
0.0 0.0 -1.950498693859e+01 
-2.244531521328e+01 -5.642759628243e-01 0.0 
-5.642759628243e-01 -2.975390394643e+01 0.0 
0.0 0.0 -1.525976574791e+01 
-1.887512773525e+01 -7.840465984867e-01 0.0 
-7.840465984867e-01 -2.911982969578e+01 0.0 
0.0 0.0 -1.399848722931e+01 
-2.284685256428e+01 -3.629817012829e-01 0.0 
-3.629817012829e-01 -2.985674502223e+01 0.0 
0.0 0.0 -1.541107927595e+01 
-1.884224203683e+01 -5.301502999099e-01 0.0 
-5.301502999099e-01 -2.919319160427e+01 0.0 
0.0 0.0 -1.401063009233e+01 
-1.913388128746e+01 -5.765928168578e-02 0.0 
-5.765928168578e-02 -2.960082943547e+01 0.0 
0.0 0.0 -1.422041321688e+01 
-2.361795735149e+01 -9.651256835889e-02 0.0 
-9.651256835889e-02 -3.003816751553e+01 0.0 
0.0 0.0 -1.569683746011e+01 
-1.989845184210e+01 7.385561633173e-01 0.0 
7.385561633173e-01 -2.971427482525e+01 0.0 
0.0 0.0 -1.448381800021e+01 
-2.446594431447e+01 6.136202788564e-01 0.0 
6.136202788564e-01 -3.015030558044e+01 0.0 
0.0 0.0 -1.598487496847e+01 
-2.151069605483e+01 2.053742577222e+00 0.0 
2.053742577222e+00 -3.103987313342e+01 0.0 
0.0 0.0 -1.536517075648e+01 
-2.625624385391e+01 1.273261238528e+00 0.0 
1.273261238528e+00 -3.053537145151e+01 0.0 
0.0 0.0 -1.663748459163e+01 
-2.651430104526e+01 4.084623409601e+00 0.0 
4.084623409601e+00 -2.341813848358e+01 0.0 
0.0 0.0 -1.457973185865e+01 
-2.286164664844e+01 1.425217798815e+00 0.0 
1.425217798815e+00 -2.913288848531e+01 0.0 
0.0 0.0 -1.519836054013e+01 
-2.253299449949e+01 -1.466609851547e+00 0.0 
-1.466609851547e+00 -3.106035912238e+01 0.0 
0.0 0.0 -1.567800608656e+01 
-2.054718408930e+01 1.019490034906e-01 0.0 
1.019490034906e-01 -2.495128176076e+01 0.0 
0.0 0.0 -1.324953975502e+01 
-2.476026604243e+01 -1.949106658407e-01 0.0 
-1.949106658407e-01 -3.507635398188e+01 0.0 
0.0 0.0 -1.755098600729e+01 
-2.672336457169e+01 7.160848668596e+00 0.0 
7.160848668596e+00 -2.838191160332e+01 0.0 
0.0 0.0 -1.613158285250e+01 
-2.998621259332e+01 1.675639147429e-01 0.0 
1.675639147429e-01 -4.724874918196e+01 0.0 
0.0 0.0 -2.277048853258e+01 
-3.074944239780e+01 -3.343144101224e-01 0.0 
-3.343144101224e-01 -4.888035623987e+01 0.0 
0.0 0.0 -2.348893959130e+01 
-3.068943305266e+01 -1.497505277736e-01 0.0 
-1.497505277736e-01 -4.888115509729e+01 0.0 
0.0 0.0 -2.347117644498e+01 
-3.087047715705e+01 -2.023646697670e-01 0.0 
-2.023646697670e-01 -4.897863777763e+01 0.0 
0.0 0.0 -2.355473448040e+01 
-3.063681152752e+01 -2.205566519643e-01 0.0 
-2.205566519643e-01 -4.887566320998e+01 0.0 
0.0 0.0 -2.345374242125e+01 
-3.089004502189e+01 -2.917748856326e-01 0.0 
-2.917748856326e-01 -4.900822224195e+01 0.0 
0.0 0.0 -2.356948017915e+01 
-3.055744839661e+01 -2.793383120893e-01 0.0 
-2.793383120893e-01 -4.887197619245e+01 0.0 
0.0 0.0 -2.342882737672e+01 
-3.095204063592e+01 -3.784801675284e-01 0.0 
-3.784801675284e-01 -4.904292453117e+01 0.0 
0.0 0.0 -2.359848955013e+01 
-3.048151921133e+01 -3.528869654098e-01 0.0 
-3.528869654098e-01 -4.885651655092e+01 0.0 
0.0 0.0 -2.340141072868e+01 
-3.101434809358e+01 -4.793217269360e-01 0.0 
-4.793217269360e-01 -4.907443595510e+01 0.0 
0.0 0.0 -2.362663521460e+01 
-3.040710125675e+01 -4.278690778657e-01 0.0 
-4.278690778657e-01 -4.884771526466e+01 0.0 
0.0 0.0 -2.337644495642e+01 
-3.110014713306e+01 -5.818327442787e-01 0.0 
-5.818327442787e-01 -4.911346243274e+01 0.0 
0.0 0.0 -2.366408286974e+01 
-3.033259474158e+01 -4.915506037408e-01 0.0 
-4.915506037408e-01 -4.884969684676e+01 0.0 
0.0 0.0 -2.335468747650e+01 
-3.118501658210e+01 -6.610892300970e-01 0.0 
-6.610892300970e-01 -4.913533340142e+01 0.0 
0.0 0.0 -2.369610499506e+01 
-3.026600312471e+01 -5.432172259813e-01 0.0 
-5.432172259813e-01 -4.884053273461e+01 0.0 
0.0 0.0 -2.333196075780e+01 
-3.645847862862e+01 4.303904432881e+00 0.0 
4.303904432881e+00 -5.336787565753e+01 0.0 
0.0 0.0 -2.654790628585e+01 
-3.137028586012e+01 -7.362800395461e-01 0.0 
-7.362800395461e-01 -4.916036018984e+01 0.0 
0.0 0.0 -2.375919381499e+01 
-3.829073115543e+01 2.425248987692e+00 0.0 
2.425248987692e+00 -5.117650148753e+01 0.0 
0.0 0.0 -2.644016979289e+01 
-3.020223558424e+01 -5.992184251136e-01 0.0 
-5.992184251136e-01 -4.879917435485e+01 0.0 
0.0 0.0 -2.330042298173e+01 
-3.154564969170e+01 -8.247066615488e-01 0.0 
-8.247066615488e-01 -4.919877394462e+01 0.0 
0.0 0.0 -2.382332709090e+01 
-3.016345708595e+01 -6.246456116218e-01 0.0 
-6.246456116218e-01 -4.882570043230e+01 0.0 
0.0 0.0 -2.329674725547e+01 
-3.176383511486e+01 -8.591039183751e-01 0.0 
-8.591039183751e-01 -4.925209455458e+01 0.0 
0.0 0.0 -2.390477890083e+01 
-3.017061130201e+01 -6.032649514403e-01 0.0 
-6.032649514403e-01 -4.887868578615e+01 0.0 
0.0 0.0 -2.331478912645e+01 
-3.210111773049e+01 -8.361200773797e-01 0.0 
-8.361200773797e-01 -4.931808072263e+01 0.0 
0.0 0.0 -2.402575953593e+01 
-3.319369554034e+01 2.893261817353e+00 0.0 
2.893261817353e+00 -4.672275871986e+01 0.0 
0.0 0.0 -2.357493627806e+01 
-3.024562277742e+01 -5.321527003432e-01 0.0 
-5.321527003432e-01 -4.893565594153e+01 0.0 
0.0 0.0 -2.335438361569e+01 
-3.253079504939e+01 -7.541863228367e-01 0.0 
-7.541863228367e-01 -4.939094486276e+01 0.0 
0.0 0.0 -2.417652197365e+01 
-3.042630951180e+01 -3.868821170128e-01 0.0 
-3.868821170128e-01 -4.903632404079e+01 0.0 
0.0 0.0 -2.343879006578e+01 
-3.305804036937e+01 -5.643415458986e-01 0.0 
-5.643415458986e-01 -4.945827277810e+01 0.0 
0.0 0.0 -2.435489394424e+01 
-3.075507853928e+01 -1.578584433449e-01 0.0 
-1.578584433449e-01 -4.914335170709e+01 0.0 
0.0 0.0 -2.356952907391e+01 
-3.392898674882e+01 -3.496962442160e-01 0.0 
-3.496962442160e-01 -4.969945540744e+01 0.0 
0.0 0.0 -2.468853264688e+01 
-3.130648984308e+01 2.642719132399e-01 0.0 
2.642719132399e-01 -4.959589867278e+01 0.0 
0.0 0.0 -2.387071655476e+01 
-3.454704520173e+01 2.694240046360e-01 0.0 
2.694240046360e-01 -4.984820297596e+01 0.0 
0.0 0.0 -2.491857445331e+01 
-3.622258633460e+01 9.192546040602e-01 0.0 
9.192546040602e-01 -5.045666772575e+01 0.0 
0.0 0.0 -2.560377621811e+01 
-3.216077587949e+01 9.306116292537e-01 0.0 
9.306116292537e-01 -4.997141074752e+01 0.0 
0.0 0.0 -2.423965598810e+01 
-4.065860134391e+01 4.672453167814e+00 0.0 
4.672453167814e+00 -5.441260497214e+01 0.0 
0.0 0.0 -2.812136189481e+01 
-3.348159841381e+01 2.033703792533e+00 0.0 
2.033703792533e+00 -5.118683181225e+01 0.0 
0.0 0.0 -2.500052906782e+01 
-3.597527824239e+01 3.385357485262e+00 0.0 
3.385357485262e+00 -4.435803168612e+01 0.0 
0.0 0.0 -2.369999297855e+01 
-3.030315283649e+01 1.429134168484e+00 0.0 
1.429134168484e+00 -4.943037569156e+01 0.0 
0.0 0.0 -2.352005855841e+01 
-3.064794000623e+01 -1.481797798057e+00 0.0 
-1.481797798057e+00 -4.741416582212e+01 0.0 
0.0 0.0 -2.301863174850e+01 
-3.268708971374e+01 1.044809815870e-01 0.0 
1.044809815870e-01 -5.355728551678e+01 0.0 
0.0 0.0 -2.547331256916e+01 
-2.835012019866e+01 -2.084730699471e-01 0.0 
-2.084730699471e-01 -4.345268034641e+01 0.0 
0.0 0.0 -2.114084016352e+01 
-3.584433307876e+01 5.540071407555e+00 0.0 
5.540071407555e+00 -4.735923693876e+01 0.0 
0.0 0.0 -2.456107100525e+01 
-3.983134940931e+01 2.332614263435e-01 0.0 
2.332614263435e-01 -7.031073363317e+01 0.0 
0.0 0.0 -3.264262491274e+01 
-3.913763423306e+01 -3.133173252861e-01 0.0 
-3.133173252861e-01 -6.845280385549e+01 0.0 
0.0 0.0 -3.187713142657e+01 
-3.933561641922e+01 -6.967584033554e-02 0.0 
-6.967584033554e-02 -6.849608433830e+01 0.0 
0.0 0.0 -3.194951022726e+01 
-3.911778096601e+01 -1.709958252061e-01 0.0 
-1.709958252061e-01 -6.822234666521e+01 0.0 
0.0 0.0 -3.180203828937e+01 
-3.937537711098e+01 -2.080457061827e-01 0.0 
-2.080457061827e-01 -6.834047395979e+01 0.0 
0.0 0.0 -3.191475532123e+01 
-3.914099311820e+01 -2.617392559168e-01 0.0 
-2.617392559168e-01 -6.826043446668e+01 0.0 
0.0 0.0 -3.182042827546e+01 
-3.945997420089e+01 -2.286370001781e-01 0.0 
-2.286370001781e-01 -6.838232188314e+01 0.0 
0.0 0.0 -3.195268882521e+01 
-3.916178523333e+01 -3.169871566399e-01 0.0 
-3.169871566399e-01 -6.819899525847e+01 0.0 
0.0 0.0 -3.180823414754e+01 
-3.969196631132e+01 -2.965497992109e-01 0.0 
-2.965497992109e-01 -6.840810081849e+01 0.0 
0.0 0.0 -3.203002013894e+01 
-3.921683493641e+01 -4.056023856242e-01 0.0 
-4.056023856242e-01 -6.821357192169e+01 0.0 
0.0 0.0 -3.182912205743e+01 
-3.984694687621e+01 -3.517177357491e-01 0.0 
-3.517177357491e-01 -6.843984830286e+01 0.0 
0.0 0.0 -3.208603855372e+01 
-3.928405085279e+01 -4.760145845202e-01 0.0 
-4.760145845202e-01 -6.820923777878e+01 0.0 
0.0 0.0 -3.184798658947e+01 
-4.013098867753e+01 -4.077002759078e-01 0.0 
-4.077002759078e-01 -6.850143470690e+01 0.0 
0.0 0.0 -3.218972701533e+01 
-4.580770079526e+01 3.530796725113e+00 0.0 
3.530796725113e+00 -7.280738882056e+01 0.0 
0.0 0.0 -3.518452688474e+01 
-3.939089511156e+01 -5.357436004789e-01 0.0 
-5.357436004789e-01 -6.828238330351e+01 0.0 
0.0 0.0 -3.190198352452e+01 
-4.037505115661e+01 -3.660553052866e-01 0.0 
-3.660553052866e-01 -6.854175633280e+01 0.0 
0.0 0.0 -3.227504224682e+01 
-4.294925371789e+01 2.363636862921e+00 0.0 
2.363636862921e+00 -6.615222495340e+01 0.0 
0.0 0.0 -3.233044360139e+01 
-3.952062763434e+01 -5.447333875700e-01 0.0 
-5.447333875700e-01 -6.817782432968e+01 0.0 
0.0 0.0 -3.190953558921e+01 
-4.076663671781e+01 -4.303325286612e-01 0.0 
-4.303325286612e-01 -6.854915049809e+01 0.0 
0.0 0.0 -3.239473616477e+01 
-4.704791498448e+01 2.085935857974e+00 0.0 
2.085935857974e+00 -7.074365427098e+01 0.0 
0.0 0.0 -3.493747077664e+01 
-3.971877673188e+01 -5.756328732679e-01 0.0 
-5.756328732679e-01 -6.826940370505e+01 0.0 
0.0 0.0 -3.199645413108e+01 
-4.114139857611e+01 -4.197639094390e-01 0.0 
-4.197639094390e-01 -6.863874512089e+01 0.0 
0.0 0.0 -3.253404310910e+01 
-3.998028479943e+01 -5.266060797521e-01 0.0 
-5.266060797521e-01 -6.842381048522e+01 0.0 
0.0 0.0 -3.212122858540e+01 
-4.164583275868e+01 -2.887913779644e-01 0.0 
-2.887913779644e-01 -6.875846532201e+01 0.0 
0.0 0.0 -3.272128942421e+01 
-4.033212864953e+01 -3.859345312528e-01 0.0 
-3.859345312528e-01 -6.852377286706e+01 0.0 
0.0 0.0 -3.225677045498e+01 
-4.937517359282e+01 3.684709051193e+00 0.0 
3.684709051193e+00 -7.386754333261e+01 0.0 
0.0 0.0 -3.657281507763e+01 
-4.231206638289e+01 -1.278707707407e-01 0.0 
-1.278707707407e-01 -6.888471889056e+01 0.0 
0.0 0.0 -3.295903558204e+01 
-4.081419301092e+01 -1.665204978810e-01 0.0 
-1.665204978810e-01 -6.871887343966e+01 0.0 
0.0 0.0 -3.245991993517e+01 
-4.146694532728e+01 2.074901524315e-01 0.0 
2.074901524315e-01 -6.907905101323e+01 0.0 
0.0 0.0 -3.276379890215e+01 
-4.301129104596e+01 1.170486446528e-01 0.0 
1.170486446528e-01 -6.905026668840e+01 0.0 
0.0 0.0 -3.321846732031e+01 
-4.229074289433e+01 7.315532676517e-01 0.0 
7.315532676517e-01 -6.921021974697e+01 0.0 
0.0 0.0 -3.305028879239e+01 
-4.371734298738e+01 6.162002861718e-01 0.0 
6.162002861718e-01 -6.918911404946e+01 0.0 
0.0 0.0 -3.347193711105e+01 
-4.349067627717e+01 1.556125246931e+00 0.0 
1.556125246931e+00 -7.071667548532e+01 0.0 
0.0 0.0 -3.386220552875e+01 
-4.516627057997e+01 8.487255023293e-01 0.0 
8.487255023293e-01 -6.978298732363e+01 0.0 
0.0 0.0 -3.408477737108e+01 
-4.512678306562e+01 2.888063016279e+00 0.0 
2.888063016279e+00 -6.434615059081e+01 0.0 
0.0 0.0 -3.244188009693e+01 
-3.960551505630e+01 1.396812536480e+00 0.0 
1.396812536480e+00 -6.803410892054e+01 0.0 
0.0 0.0 -3.189188719305e+01 
-3.923220063456e+01 -1.528250265958e+00 0.0 
-1.528250265958e+00 -7.020245993315e+01 0.0 
0.0 0.0 -3.243039817032e+01 
-3.715496759141e+01 7.186426553741e-02 0.0 
7.186426553741e-02 -6.398233389800e+01 0.0 
0.0 0.0 -2.994119044682e+01 
-4.158095270785e+01 -2.642743953291e-01 0.0 
-2.642743953291e-01 -7.405832597932e+01 0.0 
0.0 0.0 -3.429178360615e+01 
-4.486330255858e+01 4.274967353033e+00 0.0 
4.274967353033e+00 -6.651250142821e+01 0.0 
0.0 0.0 -3.301274119604e+01 
-4.687712983949e+01 3.888875761288e-01 0.0 
3.888875761288e-01 -8.675088797026e+01 0.0 
0.0 0.0 -3.968840534292e+01 
-4.773045973588e+01 -3.684729504179e-02 0.0 
-3.684729504179e-02 -8.796735613365e+01 0.0 
0.0 0.0 -4.030934476086e+01 
-4.766772556274e+01 -5.452339679064e-02 0.0 
-5.452339679064e-02 -8.793767233984e+01 0.0 
0.0 0.0 -4.028161937077e+01 
-4.762809973975e+01 -5.527540912213e-02 0.0 
-5.527540912213e-02 -8.796550742856e+01 0.0 
0.0 0.0 -4.027808215049e+01 
-4.781071196749e+01 -1.330922979403e-01 0.0 
-1.330922979403e-01 -8.802292195831e+01 0.0 
0.0 0.0 -4.035009017774e+01 
-4.787065096319e+01 -1.693153928670e-01 0.0 
-1.693153928670e-01 -8.812848647996e+01 0.0 
0.0 0.0 -4.039974123294e+01 
-4.794910829458e+01 -8.330925503845e-02 0.0 
-8.330925503845e-02 -8.819030143507e+01 0.0 
0.0 0.0 -4.044182291889e+01 
-4.820546034049e+01 -8.107570015393e-02 0.0 
-8.107570015393e-02 -8.807104101096e+01 0.0 
0.0 0.0 -4.048295040543e+01 
-4.808321771846e+01 -1.592229540192e-01 0.0 
-1.592229540192e-01 -8.798768743515e+01 0.0 
0.0 0.0 -4.042127154608e+01 
-4.837939156245e+01 -2.323410436835e-01 0.0 
-2.323410436835e-01 -8.812599706270e+01 0.0 
0.0 0.0 -4.055161658754e+01 
-4.828765864880e+01 -1.427247362889e-01 0.0 
-1.427247362889e-01 -8.813484243890e+01 0.0 
0.0 0.0 -4.052675032631e+01 
-4.869351967314e+01 -1.842578725246e-01 0.0 
-1.842578725246e-01 -8.815160206733e+01 0.0 
0.0 0.0 -4.065353652214e+01 
-5.450990130781e+01 3.260519521794e+00 0.0 
3.260519521794e+00 -9.221792137696e+01 0.0 
0.0 0.0 -4.361834680543e+01 
-4.853796758300e+01 -1.386910912030e-01 0.0 
-1.386910912030e-01 -8.811771881965e+01 0.0 
0.0 0.0 -4.059670592080e+01 
-5.458703326569e+01 1.699833671252e+00 0.0 
1.699833671252e+00 -9.009132236422e+01 0.0 
0.0 0.0 -4.300350668897e+01 
-4.940002343018e+01 -2.716562732583e-01 0.0 
-2.716562732583e-01 -8.832569801273e+01 0.0 
0.0 0.0 -4.091771643287e+01 
-4.880603391642e+01 -1.040414570300e-01 0.0 
-1.040414570300e-01 -8.821404943902e+01 0.0 
0.0 0.0 -4.070602500663e+01 
-4.939873045163e+01 -1.209202404502e-01 0.0 
-1.209202404502e-01 -8.817373474698e+01 0.0 
0.0 0.0 -4.087173955958e+01 
-4.915752542435e+01 -6.537992191913e-02 0.0 
-6.537992191913e-02 -8.812789081335e+01 0.0 
0.0 0.0 -4.078562487131e+01 
-4.999071724677e+01 -1.734214414034e-01 0.0 
-1.734214414034e-01 -8.833111479343e+01 0.0 
0.0 0.0 -4.109654961206e+01 
-4.961836739992e+01 7.809557783889e-02 0.0 
7.809557783889e-02 -8.841833904313e+01 0.0 
0.0 0.0 -4.101101193292e+01 
-5.074500877176e+01 2.336086009432e-03 0.0 
2.336086009432e-03 -8.855978681078e+01 0.0 
0.0 0.0 -4.139143867476e+01 
-5.198354624028e+01 2.165034019824e+00 0.0 
2.165034019824e+00 -8.568996386437e+01 0.0 
0.0 0.0 -4.090205303140e+01 
-5.017852437536e+01 3.127300249469e-01 0.0 
3.127300249469e-01 -8.866807909426e+01 0.0 
0.0 0.0 -4.125398104088e+01 
-5.148859909545e+01 3.068661244972e-01 0.0 
3.068661244972e-01 -8.869707456518e+01 0.0 
0.0 0.0 -4.165570209819e+01 
-5.084636386813e+01 5.952972411813e-01 0.0 
5.952972411813e-01 -8.879807968944e+01 0.0 
0.0 0.0 -4.149333306727e+01 
-5.239633956582e+01 5.683634943011e-01 0.0 
5.683634943011e-01 -8.894214153684e+01 0.0 
0.0 0.0 -4.200154433080e+01 
-5.340944492599e+01 9.879185507700e-01 0.0 
9.879185507700e-01 -8.937329713805e+01 0.0 
0.0 0.0 -4.243482261921e+01 
-5.164891824594e+01 9.868694203172e-01 0.0 
9.868694203172e-01 -8.920473015501e+01 0.0 
0.0 0.0 -4.185609452029e+01 
-5.262035065642e+01 1.626317777668e+00 0.0 
1.626317777668e+00 -8.996279861056e+01 0.0 
0.0 0.0 -4.237494478009e+01 
-5.763135543626e+01 3.070519501175e+00 0.0 
3.070519501175e+00 -9.345169342992e+01 0.0 
0.0 0.0 -4.492491465985e+01 
-5.357777641053e+01 2.472176069533e+00 0.0 
2.472176069533e+00 -8.418933795049e+01 0.0 
0.0 0.0 -4.093013430831e+01 
-4.700193470333e+01 1.278241607375e+00 0.0 
1.278241607375e+00 -8.804557662442e+01 0.0 
0.0 0.0 -4.011425339832e+01 
-4.722437000765e+01 -1.588101513598e+00 0.0 
-1.588101513598e+00 -8.673326473401e+01 0.0 
0.0 0.0 -3.978729042250e+01 
-4.916291737159e+01 -9.159498405065e-02 0.0 
-9.159498405065e-02 -9.255547302350e+01 0.0 
0.0 0.0 -4.211551711853e+01 
-4.515892318654e+01 -2.754220694525e-01 0.0 
-2.754220694525e-01 -8.240692376292e+01 0.0 
0.0 0.0 -3.786975408484e+01 
-5.347382285063e+01 3.617181142103e+00 0.0 
3.617181142103e+00 -8.573743929200e+01 0.0 
0.0 0.0 -4.136337864279e+01 

TENSORS element_materi_strain_total float
-1.169888984424e-03 2.204522282858e-03 0.0 
2.204522282858e-03 6.283153584040e-03 0.0 
0.0 0.0 0.0 
-1.282114578853e-03 2.127776171003e-03 0.0 
2.127776171003e-03 6.244011406042e-03 0.0 
0.0 0.0 0.0 
-2.435566064115e-04 1.755145398326e-03 0.0 
1.755145398326e-03 1.146032121326e-02 0.0 
0.0 0.0 0.0 
-2.368378522550e-04 1.501797309623e-04 0.0 
1.501797309623e-04 1.253834994173e-02 0.0 
0.0 0.0 0.0 
-8.489585455530e-04 1.433341252794e-04 0.0 
1.433341252794e-04 1.000219595623e-02 0.0 
0.0 0.0 0.0 
9.157634481169e-04 2.942441456206e-03 0.0 
2.942441456206e-03 -3.233782691811e-03 0.0 
0.0 0.0 0.0 
-7.824137376529e-04 1.132725373726e-04 0.0 
1.132725373726e-04 9.999599542241e-03 0.0 
0.0 0.0 0.0 
-1.197407129972e-03 2.576977608075e-03 0.0 
2.576977608075e-03 5.560938101303e-03 0.0 
0.0 0.0 0.0 
-8.456894715601e-04 4.491178973932e-05 0.0 
4.491178973932e-05 1.000707247818e-02 0.0 
0.0 0.0 0.0 
-2.284612406566e-04 3.162538531087e-04 0.0 
3.162538531087e-04 1.250225211529e-02 0.0 
0.0 0.0 0.0 
-1.570859058631e-05 -7.545075851799e-05 0.0 
-7.545075851799e-05 4.823310003260e-03 0.0 
0.0 0.0 0.0 
-1.190534862162e-03 2.193579769701e-03 0.0 
2.193579769701e-03 5.499072027377e-03 0.0 
0.0 0.0 0.0 
3.534795643523e-06 1.940803343784e-05 0.0 
1.940803343784e-05 7.143627045280e-03 0.0 
0.0 0.0 0.0 
-9.908237950941e-04 3.585710820477e-04 0.0 
3.585710820477e-04 1.031363410197e-02 0.0 
0.0 0.0 0.0 
3.037347837687e-06 -3.706036969392e-05 0.0 
-3.706036969392e-05 7.302483770103e-03 0.0 
0.0 0.0 0.0 
-1.436873418906e-04 2.597308357941e-04 0.0 
2.597308357941e-04 1.265992433855e-02 0.0 
0.0 0.0 0.0 
-9.485969360806e-04 1.582529396046e-04 0.0 
1.582529396046e-04 9.906072164598e-03 0.0 
0.0 0.0 0.0 
1.295963586636e-03 1.458813445463e-03 0.0 
1.458813445463e-03 -3.607601535016e-03 0.0 
0.0 0.0 0.0 
1.104870603525e-04 -8.425003525273e-05 0.0 
-8.425003525273e-05 1.408092766565e-03 0.0 
0.0 0.0 0.0 
2.271910940910e-05 -7.809801860122e-05 0.0 
-7.809801860122e-05 1.505915466663e-03 0.0 
0.0 0.0 0.0 
-2.765680481699e-04 2.719279976455e-04 0.0 
2.719279976455e-04 1.251005193798e-02 0.0 
0.0 0.0 0.0 
-1.267451634142e-03 1.442305577342e-03 0.0 
1.442305577342e-03 7.460722342819e-03 0.0 
0.0 0.0 0.0 
-1.407442753568e-03 1.689999291498e-03 0.0 
1.689999291498e-03 7.440980703350e-03 0.0 
0.0 0.0 0.0 
6.661726801434e-04 8.002647094084e-04 0.0 
8.002647094084e-04 6.220659281821e-03 0.0 
0.0 0.0 0.0 
-1.028085044644e-03 5.947396083164e-04 0.0 
5.947396083164e-04 1.056994946433e-02 0.0 
0.0 0.0 0.0 
-1.716666296681e-05 -1.101527593409e-04 0.0 
-1.101527593409e-04 5.044037483847e-03 0.0 
0.0 0.0 0.0 
-1.148296598608e-03 3.593981526183e-04 0.0 
3.593981526183e-04 9.479044114229e-03 0.0 
0.0 0.0 0.0 
1.166942830380e-04 2.347383723130e-03 0.0 
2.347383723130e-03 9.134879922617e-03 0.0 
0.0 0.0 0.0 
-1.158943235569e-03 6.088215332612e-04 0.0 
6.088215332612e-04 1.056898042799e-02 0.0 
0.0 0.0 0.0 
5.810347748707e-04 7.932106497578e-04 0.0 
7.932106497578e-04 6.470387086379e-03 0.0 
0.0 0.0 0.0 
9.045760522817e-04 -2.471351278734e-03 0.0 
-2.471351278734e-03 -2.164197497952e-03 0.0 
0.0 0.0 0.0 
8.397223530299e-05 -1.776087261307e-04 0.0 
-1.776087261307e-04 3.417783442519e-04 0.0 
0.0 0.0 0.0 
-4.119126312626e-04 1.800280087020e-03 0.0 
1.800280087020e-03 1.155064216800e-02 0.0 
0.0 0.0 0.0 
-7.397251558072e-06 -3.894650798589e-05 0.0 
-3.894650798589e-05 6.081549437913e-03 0.0 
0.0 0.0 0.0 
2.677170531786e-04 1.741632843032e-04 0.0 
1.741632843032e-04 6.729000999235e-03 0.0 
0.0 0.0 0.0 
4.534896976982e-05 1.046403023186e-04 0.0 
1.046403023186e-04 7.383019468730e-03 0.0 
0.0 0.0 0.0 
5.195283518100e-05 -3.242685635047e-05 0.0 
-3.242685635047e-05 7.374560544246e-03 0.0 
0.0 0.0 0.0 
5.055883983551e-04 1.664507947761e-03 0.0 
1.664507947761e-03 7.258785285158e-03 0.0 
0.0 0.0 0.0 
-7.905099944174e-04 -2.525705385038e-05 0.0 
-2.525705385038e-05 9.585645138688e-03 0.0 
0.0 0.0 0.0 
-7.560203274768e-04 7.327133937772e-05 0.0 
7.327133937772e-05 9.601558626313e-03 0.0 
0.0 0.0 0.0 
-1.435183765533e-03 1.205284497278e-03 0.0 
1.205284497278e-03 8.243033063815e-03 0.0 
0.0 0.0 0.0 
2.271994882430e-04 4.065640090857e-04 0.0 
4.065640090857e-04 6.797816933815e-03 0.0 
0.0 0.0 0.0 
-1.061740752921e-03 2.667776642851e-03 0.0 
2.667776642851e-03 3.980900085514e-03 0.0 
0.0 0.0 0.0 
-1.200821779880e-03 3.715931370933e-04 0.0 
3.715931370933e-04 9.522572490511e-03 0.0 
0.0 0.0 0.0 
-3.186958540756e-04 4.835469523398e-05 0.0 
4.835469523398e-05 1.235575301996e-02 0.0 
0.0 0.0 0.0 
-1.255646358261e-03 2.751729826147e-03 0.0 
2.751729826147e-03 3.988949705129e-03 0.0 
0.0 0.0 0.0 
9.201455876968e-04 -2.378821971599e-03 0.0 
-2.378821971599e-03 -2.855865903244e-03 0.0 
0.0 0.0 0.0 
-2.148793280558e-04 1.064048010701e-04 0.0 
1.064048010701e-04 1.237858735246e-02 0.0 
0.0 0.0 0.0 
-4.587952642330e-04 -2.100375706700e-03 0.0 
-2.100375706700e-03 -1.159003416113e-03 0.0 
0.0 0.0 0.0 
-1.052743312286e-03 2.614105166062e-04 0.0 
2.614105166062e-04 1.016117558161e-02 0.0 
0.0 0.0 0.0 
-1.430985648025e-03 1.431723772758e-03 0.0 
1.431723772758e-03 7.849657946987e-03 0.0 
0.0 0.0 0.0 
1.967942552983e-05 -8.690035672509e-05 0.0 
-8.690035672509e-05 1.842765575885e-03 0.0 
0.0 0.0 0.0 
1.822331959666e-03 -2.117259093525e-03 0.0 
-2.117259093525e-03 -2.753538338290e-03 0.0 
0.0 0.0 0.0 
-1.288651305151e-03 1.021159557270e-03 0.0 
1.021159557270e-03 8.119658279627e-03 0.0 
0.0 0.0 0.0 
-2.529825834333e-04 1.352819954262e-03 0.0 
1.352819954262e-03 1.204846439740e-02 0.0 
0.0 0.0 0.0 
-9.733329305406e-05 -2.085810850900e-04 0.0 
-2.085810850900e-04 2.465209203601e-03 0.0 
0.0 0.0 0.0 
-4.705239150415e-05 -8.301489996062e-05 0.0 
-8.301489996062e-05 1.929655209593e-03 0.0 
0.0 0.0 0.0 
4.023527437447e-06 -9.588439782316e-06 0.0 
-9.588439782316e-06 6.082355442779e-03 0.0 
0.0 0.0 0.0 
1.601915216261e-04 -1.650451772570e-04 0.0 
-1.650451772570e-04 1.008337029853e-03 0.0 
0.0 0.0 0.0 
-1.663792490372e-04 2.170738270538e-04 0.0 
2.170738270538e-04 1.266053278530e-02 0.0 
0.0 0.0 0.0 
-7.631991147494e-04 -1.973220396853e-03 0.0 
-1.973220396853e-03 -3.504267209971e-03 0.0 
0.0 0.0 0.0 
4.486879912320e-04 2.072522898125e-03 0.0 
2.072522898125e-03 7.794659845640e-03 0.0 
0.0 0.0 0.0 
-3.760421356337e-04 2.665377760213e-03 0.0 
2.665377760213e-03 5.234275053360e-03 0.0 
0.0 0.0 0.0 
1.684753800379e-03 -2.083212424462e-03 0.0 
-2.083212424462e-03 -2.327193062764e-03 0.0 
0.0 0.0 0.0 
2.259109485481e-05 -3.969907095625e-05 0.0 
-3.969907095625e-05 7.084918753719e-03 0.0 
0.0 0.0 0.0 
-1.313126044155e-03 1.192697030512e-03 0.0 
1.192697030512e-03 7.855332723365e-03 0.0 
0.0 0.0 0.0 
3.761551460011e-04 -7.826176658237e-04 0.0 
-7.826176658237e-04 -4.913658572531e-03 0.0 
0.0 0.0 0.0 
-4.271416473365e-04 1.893854480821e-03 0.0 
1.893854480821e-03 1.136932654413e-02 0.0 
0.0 0.0 0.0 
-4.547729574284e-04 -1.443315711227e-03 0.0 
-1.443315711227e-03 8.210980188215e-04 0.0 
0.0 0.0 0.0 
-1.120451554650e-04 2.149268145663e-03 0.0 
2.149268145663e-03 1.037971164051e-02 0.0 
0.0 0.0 0.0 
1.875334106960e-05 -1.431629372868e-04 0.0 
-1.431629372868e-04 5.220451081327e-03 0.0 
0.0 0.0 0.0 
0.0 8.876707938509e-04 0.0 
8.876707938509e-04 1.266077020084e-02 0.0 
0.0 0.0 0.0 
8.895056361302e-05 2.139022841763e-03 0.0 
2.139022841763e-03 8.820742607638e-03 0.0 
0.0 0.0 0.0 
4.217441482235e-04 -4.807443681448e-06 0.0 
-4.807443681448e-06 3.146482486260e-04 0.0 
0.0 0.0 0.0 
-1.220507877754e-04 -1.768938932527e-04 0.0 
-1.768938932527e-04 2.587932092700e-03 0.0 
0.0 0.0 0.0 
-3.183541934257e-04 6.357869986591e-04 0.0 
6.357869986591e-04 1.247456310770e-02 0.0 
0.0 0.0 0.0 
-4.384439123870e-04 1.472661435602e-03 0.0 
1.472661435602e-03 1.197125563891e-02 0.0 
0.0 0.0 0.0 
-1.102692658189e-03 2.951521607803e-03 0.0 
2.951521607803e-03 2.339274911031e-03 0.0 
0.0 0.0 0.0 
3.730143545577e-05 -1.738146879411e-04 0.0 
-1.738146879411e-04 1.086010542336e-03 0.0 
0.0 0.0 0.0 
-9.736957499672e-04 2.911815895836e-03 0.0 
2.911815895836e-03 2.337534353742e-03 0.0 
0.0 0.0 0.0 
-6.204198272622e-04 -1.683855440472e-03 0.0 
-1.683855440472e-03 8.591231437924e-04 0.0 
0.0 0.0 0.0 
-9.220652533120e-04 1.410130262079e-04 0.0 
1.410130262079e-04 9.916975080984e-03 0.0 
0.0 0.0 0.0 
-1.390651029639e-03 1.986971064762e-03 0.0 
1.986971064762e-03 6.962337179987e-03 0.0 
0.0 0.0 0.0 
-1.264542287181e-03 1.615989930625e-03 0.0 
1.615989930625e-03 6.990854750374e-03 0.0 
0.0 0.0 0.0 
-8.865044233768e-04 9.985002577712e-05 0.0 
9.985002577712e-05 1.022496988816e-02 0.0 
0.0 0.0 0.0 
-8.048843523811e-04 1.507015256056e-04 0.0 
1.507015256056e-04 1.022445061987e-02 0.0 
0.0 0.0 0.0 
-5.649376682015e-06 -9.023307774110e-05 0.0 
-9.023307774110e-05 5.437380872822e-03 0.0 
0.0 0.0 0.0 
-8.300498360647e-06 1.470638401168e-05 0.0 
1.470638401168e-05 5.913736199721e-03 0.0 
0.0 0.0 0.0 
-8.349881889281e-04 1.625548050323e-03 0.0 
1.625548050323e-03 1.052688099196e-02 0.0 
0.0 0.0 0.0 
-9.166080585609e-04 8.597517643193e-05 0.0 
8.597517643193e-05 9.990270849319e-03 0.0 
0.0 0.0 0.0 
-3.154080920784e-04 -2.364737982323e-04 0.0 
-2.364737982323e-04 5.232253304173e-04 0.0 
0.0 0.0 0.0 
-1.192403341473e-03 4.502082822693e-04 0.0 
4.502082822693e-04 9.880916596321e-03 0.0 
0.0 0.0 0.0 
-4.997138695613e-04 5.867517574714e-05 0.0 
5.867517574714e-05 1.152616095300e-02 0.0 
0.0 0.0 0.0 
-5.559318224319e-04 1.177744998190e-04 0.0 
1.177744998190e-04 1.146417396029e-02 0.0 
0.0 0.0 0.0 
-2.154552519830e-04 9.751259032043e-04 0.0 
9.751259032043e-04 1.263148497449e-02 0.0 
0.0 0.0 0.0 
2.452848279348e-04 1.774319844116e-03 0.0 
1.774319844116e-03 7.798374654322e-03 0.0 
0.0 0.0 0.0 
-9.953452830270e-04 1.570912866135e-04 0.0 
1.570912866135e-04 9.914690603851e-03 0.0 
0.0 0.0 0.0 
3.501877745804e-04 3.405753367152e-04 0.0 
3.405753367152e-04 6.832218416817e-03 0.0 
0.0 0.0 0.0 
-6.554549452411e-04 -3.144188039278e-06 0.0 
-3.144188039278e-06 1.058474511424e-02 0.0 
0.0 0.0 0.0 
-7.075895119804e-04 2.669170490672e-03 0.0 
2.669170490672e-03 5.839384764995e-03 0.0 
0.0 0.0 0.0 
-8.761686619627e-04 5.751336722906e-05 0.0 
5.751336722906e-05 9.801657200840e-03 0.0 
0.0 0.0 0.0 
1.835977447850e-06 1.644629767745e-05 0.0 
1.644629767745e-05 7.299139601491e-03 0.0 
0.0 0.0 0.0 
8.686253116699e-04 1.808550385129e-03 0.0 
1.808550385129e-03 6.196922051254e-03 0.0 
0.0 0.0 0.0 
3.921751607185e-04 1.982830834137e-03 0.0 
1.982830834137e-03 7.809282293654e-03 0.0 
0.0 0.0 0.0 
1.535321377364e-04 2.956109912437e-03 0.0 
2.956109912437e-03 3.512771052581e-03 0.0 
0.0 0.0 0.0 
-4.848066898410e-04 -2.925950602027e-03 0.0 
-2.925950602027e-03 -1.356899936345e-03 0.0 
0.0 0.0 0.0 
-1.425764671215e-06 -4.587483645635e-05 0.0 
-4.587483645635e-05 6.697212653128e-03 0.0 
0.0 0.0 0.0 
-4.834915128697e-04 1.304242065742e-04 0.0 
1.304242065742e-04 1.180826121404e-02 0.0 
0.0 0.0 0.0 
-1.054696616712e-03 -3.034972247224e-03 0.0 
-3.034972247224e-03 -2.090886432464e-03 0.0 
0.0 0.0 0.0 
5.275987789188e-05 3.853280105224e-06 0.0 
3.853280105224e-06 7.144036101483e-03 0.0 
0.0 0.0 0.0 
-7.549488317935e-04 1.625234283258e-03 0.0 
1.625234283258e-03 1.015109748761e-02 0.0 
0.0 0.0 0.0 
5.483031254756e-04 1.331166717523e-05 0.0 
1.331166717523e-05 9.612697389416e-05 0.0 
0.0 0.0 0.0 
7.731371590010e-04 2.664036755920e-03 0.0 
2.664036755920e-03 3.535271395100e-03 0.0 
0.0 0.0 0.0 
-1.351674805597e-03 6.918644524182e-04 0.0 
6.918644524182e-04 9.315805305852e-03 0.0 
0.0 0.0 0.0 
-9.219917570347e-05 -3.170159258772e-04 0.0 
-3.170159258772e-04 3.085362970101e-03 0.0 
0.0 0.0 0.0 
-5.556240781543e-04 2.614497776634e-03 0.0 
2.614497776634e-03 5.057529338770e-03 0.0 
0.0 0.0 0.0 
-3.174976033297e-04 2.744226980692e-03 0.0 
2.744226980692e-03 5.228284665567e-03 0.0 
0.0 0.0 0.0 
1.540369604298e-04 1.889760391224e-04 0.0 
1.889760391224e-04 6.969325752447e-03 0.0 
0.0 0.0 0.0 
-6.737648472186e-04 5.772451240415e-05 0.0 
5.772451240415e-05 1.045559938408e-02 0.0 
0.0 0.0 0.0 
-1.495585805529e-04 2.855891866012e-03 0.0 
2.855891866012e-03 4.387424041512e-03 0.0 
0.0 0.0 0.0 
-3.440431754186e-04 -8.333399081841e-04 0.0 
-8.333399081841e-04 1.110649559661e-03 0.0 
0.0 0.0 0.0 
-1.182775345471e-03 5.200695584051e-04 0.0 
5.200695584051e-04 9.759879677046e-03 0.0 
0.0 0.0 0.0 
-4.006328609764e-04 8.055064678472e-05 0.0 
8.055064678472e-05 1.183354820548e-02 0.0 
0.0 0.0 0.0 
-9.324096036145e-05 2.843962820144e-03 0.0 
2.843962820144e-03 4.387964613102e-03 0.0 
0.0 0.0 0.0 
-9.036051459038e-04 3.113423446304e-03 0.0 
3.113423446304e-03 5.084582428510e-04 0.0 
0.0 0.0 0.0 
-1.400280051696e-03 8.850948766000e-04 0.0 
8.850948766000e-04 8.782948042569e-03 0.0 
0.0 0.0 0.0 
-1.221535831485e-04 -2.851616843447e-04 0.0 
-2.851616843447e-04 3.054525481850e-03 0.0 
0.0 0.0 0.0 
-1.267622474390e-03 7.628006556807e-04 0.0 
7.628006556807e-04 8.616000285893e-03 0.0 
0.0 0.0 0.0 
-1.776912182621e-04 7.678977208168e-04 0.0 
7.678977208168e-04 1.254402229262e-02 0.0 
0.0 0.0 0.0 
6.384120798897e-06 3.403865709922e-03 0.0 
3.403865709922e-03 -7.782817573261e-04 0.0 
0.0 0.0 0.0 
2.015691063817e-05 -1.080255506011e-04 0.0 
-1.080255506011e-04 5.040781109456e-03 0.0 
0.0 0.0 0.0 
-2.151587803010e-04 1.938857965504e-04 0.0 
1.938857965504e-04 1.253964557669e-02 0.0 
0.0 0.0 0.0 
-9.689050225490e-04 1.985043918149e-03 0.0 
1.985043918149e-03 7.404838497822e-03 0.0 
0.0 0.0 0.0 
-1.421017068165e-03 1.011790732564e-03 0.0 
1.011790732564e-03 8.517498448321e-03 0.0 
0.0 0.0 0.0 
3.220624290987e-04 2.708782590455e-04 0.0 
2.708782590455e-04 6.730939134440e-03 0.0 
0.0 0.0 0.0 
-3.002138832642e-06 -4.925438181278e-05 0.0 
-4.925438181278e-05 7.156789802206e-03 0.0 
0.0 0.0 0.0 
2.563372599029e-05 -7.299796612145e-05 0.0 
-7.299796612145e-05 5.437841866462e-03 0.0 
0.0 0.0 0.0 
-1.066146874602e-03 1.971961059704e-03 0.0 
1.971961059704e-03 7.928021292389e-03 0.0 
0.0 0.0 0.0 
4.912955140666e-04 7.418169028998e-04 0.0 
7.418169028998e-04 6.837155614227e-03 0.0 
0.0 0.0 0.0 
-1.162275124274e-03 1.666823148828e-03 0.0 
1.666823148828e-03 7.797065186626e-03 0.0 
0.0 0.0 0.0 
-1.598653901183e-04 4.985350650620e-04 0.0 
4.985350650620e-04 1.256880493695e-02 0.0 
0.0 0.0 0.0 
-2.021798465169e-04 2.256530331002e-03 0.0 
2.256530331002e-03 1.051474694025e-02 0.0 
0.0 0.0 0.0 
-1.092977896742e-03 3.415865492613e-04 0.0 
3.415865492613e-04 1.031126636103e-02 0.0 
0.0 0.0 0.0 
-6.256355221071e-04 1.642577979227e-04 0.0 
1.642577979227e-04 1.107555860626e-02 0.0 
0.0 0.0 0.0 
-1.195292434709e-03 1.940952777758e-03 0.0 
1.940952777758e-03 7.785559300562e-03 0.0 
0.0 0.0 0.0 
-1.278392790698e-03 8.628183209558e-04 0.0 
8.628183209558e-04 8.343000597833e-03 0.0 
0.0 0.0 0.0 
-8.539085270363e-04 2.013392275091e-03 0.0 
2.013392275091e-03 7.578602580691e-03 0.0 
0.0 0.0 0.0 
4.103652775029e-04 2.871449967524e-03 0.0 
2.871449967524e-03 3.773407130972e-03 0.0 
0.0 0.0 0.0 
-8.105635349621e-04 2.661178146472e-05 0.0 
2.661178146472e-05 9.847881218771e-03 0.0 
0.0 0.0 0.0 
9.582645617441e-04 2.530740895078e-03 0.0 
2.530740895078e-03 3.550917054250e-03 0.0 
0.0 0.0 0.0 
-5.986768729904e-05 -1.263619654914e-04 0.0 
-1.263619654914e-04 4.241840674781e-04 0.0 
0.0 0.0 0.0 
-7.140463657063e-04 1.792919728394e-05 0.0 
1.792919728394e-05 1.014034042282e-02 0.0 
0.0 0.0 0.0 
1.100016041662e-04 -6.604569372469e-05 0.0 
-6.604569372469e-05 1.085112223026e-03 0.0 
0.0 0.0 0.0 
-1.374927845877e-03 7.792005526001e-04 0.0 
7.792005526001e-04 9.043719095408e-03 0.0 
0.0 0.0 0.0 
2.731239800002e-04 6.540005382375e-04 0.0 
6.540005382375e-04 6.806748999558e-03 0.0 
0.0 0.0 0.0 
5.907183253129e-05 3.002076812312e-03 0.0 
3.002076812312e-03 3.509503406626e-03 0.0 
0.0 0.0 0.0 
1.376104020512e-06 -2.194396249645e-05 0.0 
-2.194396249645e-05 5.674540331596e-03 0.0 
0.0 0.0 0.0 
-1.257336423649e-03 2.577332387758e-03 0.0 
2.577332387758e-03 4.779517553012e-03 0.0 
0.0 0.0 0.0 
8.444467078748e-04 1.944840372280e-03 0.0 
1.944840372280e-03 6.184649482117e-03 0.0 
0.0 0.0 0.0 
-7.367286874045e-04 2.601212551947e-05 0.0 
2.601212551947e-05 9.870873568419e-03 0.0 
0.0 0.0 0.0 
1.078017455427e-03 2.667691270816e-03 0.0 
2.667691270816e-03 2.622844049269e-03 0.0 
0.0 0.0 0.0 
1.405118531084e-06 -6.057035014620e-05 0.0 
-6.057035014620e-05 6.264503235263e-03 0.0 
0.0 0.0 0.0 
-6.619044994327e-04 -1.015789826332e-03 0.0 
-1.015789826332e-03 1.147960106955e-03 0.0 
0.0 0.0 0.0 
1.538165143256e-05 6.624327160161e-06 0.0 
6.624327160161e-06 6.691617921832e-03 0.0 
0.0 0.0 0.0 
-1.239866765247e-03 1.014709485336e-03 0.0 
1.014709485336e-03 9.305709060358e-03 0.0 
0.0 0.0 0.0 
5.597016649683e-05 -4.524541789574e-06 0.0 
-4.524541789574e-06 7.153373773132e-03 0.0 
0.0 0.0 0.0 
-7.130233814744e-04 1.340918417582e-05 0.0 
1.340918417582e-05 9.837501199576e-03 0.0 
0.0 0.0 0.0 
5.018957439631e-04 2.932991717778e-03 0.0 
2.932991717778e-03 2.815874375283e-03 0.0 
0.0 0.0 0.0 
-1.244027086826e-03 6.132709821948e-04 0.0 
6.132709821948e-04 9.102986905699e-03 0.0 
0.0 0.0 0.0 
-4.826639749611e-05 -7.870950884079e-05 0.0 
-7.870950884079e-05 4.828753901135e-03 0.0 
0.0 0.0 0.0 
-1.129981903371e-03 2.578123093418e-03 0.0 
2.578123093418e-03 4.777251352769e-03 0.0 
0.0 0.0 0.0 
1.281455424663e-03 2.441075840716e-03 0.0 
2.441075840716e-03 2.652628502488e-03 0.0 
0.0 0.0 0.0 
-6.148368166586e-04 9.552341921694e-05 0.0 
9.552341921694e-05 1.127487622971e-02 0.0 
0.0 0.0 0.0 
-7.529639388136e-04 5.004297618032e-05 0.0 
5.004297618032e-05 9.847555979894e-03 0.0 
0.0 0.0 0.0 
6.646854961112e-04 2.798500494899e-03 0.0 
2.798500494899e-03 3.137071619804e-03 0.0 
0.0 0.0 0.0 
-1.268080149087e-03 6.733676933356e-04 0.0 
6.733676933356e-04 8.861093644546e-03 0.0 
0.0 0.0 0.0 
-3.449081317516e-04 2.012351241139e-03 0.0 
2.012351241139e-03 9.685209124684e-03 0.0 
0.0 0.0 0.0 
-9.255884284198e-05 -3.278533262760e-04 0.0 
-3.278533262760e-04 3.354481506623e-03 0.0 
0.0 0.0 0.0 
1.113250298546e-04 2.202747798289e-03 0.0 
2.202747798289e-03 8.949716062213e-03 0.0 
0.0 0.0 0.0 
-1.788414469744e-04 2.305335512280e-03 0.0 
2.305335512280e-03 1.023048135075e-02 0.0 
0.0 0.0 0.0 
-9.323619830393e-04 2.625296881557e-03 0.0 
2.625296881557e-03 5.736174540725e-03 0.0 
0.0 0.0 0.0 
-8.176574341312e-05 -2.564289911198e-04 0.0 
-2.564289911198e-04 3.440190936437e-03 0.0 
0.0 0.0 0.0 
9.181856612404e-04 9.802693461042e-04 0.0 
9.802693461042e-04 5.825097388005e-03 0.0 
0.0 0.0 0.0 
-1.369172495895e-03 1.600028476439e-03 0.0 
1.600028476439e-03 8.086797793091e-03 0.0 
0.0 0.0 0.0 
-8.085380398096e-04 2.471222294522e-03 0.0 
2.471222294522e-03 4.972879528241e-03 0.0 
0.0 0.0 0.0 
-1.248347475743e-03 7.824707978267e-04 0.0 
7.824707978267e-04 9.340394827879e-03 0.0 
0.0 0.0 0.0 
5.681786804659e-04 2.739099174683e-03 0.0 
2.739099174683e-03 4.078854488389e-03 0.0 
0.0 0.0 0.0 
-1.505779011268e-04 3.746455921849e-04 0.0 
3.746455921849e-04 1.258504240596e-02 0.0 
0.0 0.0 0.0 
-8.313064513407e-04 1.405658556465e-03 0.0 
1.405658556465e-03 1.063648189660e-02 0.0 
0.0 0.0 0.0 
1.358549797770e-06 1.097905156945e-05 0.0 
1.097905156945e-05 6.502600480392e-03 0.0 
0.0 0.0 0.0 
-1.218334344211e-03 2.884697911715e-03 0.0 
2.884697911715e-03 3.196348644925e-03 0.0 
0.0 0.0 0.0 
1.615002761048e-03 2.280863083065e-03 0.0 
2.280863083065e-03 1.734560647320e-03 0.0 
0.0 0.0 0.0 
-7.265180573371e-04 1.573496327495e-03 0.0 
1.573496327495e-03 1.053844237271e-02 0.0 
0.0 0.0 0.0 
-2.654870014489e-03 2.244930747215e-03 0.0 
2.244930747215e-03 -2.507323346771e-03 0.0 
0.0 0.0 0.0 
-1.266528830333e-03 1.296768413211e-03 0.0 
1.296768413211e-03 8.092573885008e-03 0.0 
0.0 0.0 0.0 
1.078070104196e-03 5.435201625247e-04 0.0 
5.435201625247e-04 5.031914944634e-03 0.0 
0.0 0.0 0.0 
2.423593851870e-04 -1.511895327777e-04 0.0 
-1.511895327777e-04 6.606784393304e-04 0.0 
0.0 0.0 0.0 
-3.585258453401e-04 1.582393859917e-03 0.0 
1.582393859917e-03 1.174283638980e-02 0.0 
0.0 0.0 0.0 
-1.011160484966e-03 9.038664258119e-04 0.0 
9.038664258119e-04 1.071535610882e-02 0.0 
0.0 0.0 0.0 
7.291548784840e-04 -1.162890171567e-03 0.0 
-1.162890171567e-03 2.144920653583e-03 0.0 
0.0 0.0 0.0 
1.197285347998e-03 7.133262253826e-04 0.0 
7.133262253826e-04 5.020231290931e-03 0.0 
0.0 0.0 0.0 
-1.202675189833e-03 5.816059443664e-04 0.0 
5.816059443664e-04 1.008852343736e-02 0.0 
0.0 0.0 0.0 
-1.130044485252e-03 4.949400364482e-04 0.0 
4.949400364482e-04 1.047893726477e-02 0.0 
0.0 0.0 0.0 
4.945590064926e-04 6.973217672740e-04 0.0 
6.973217672740e-04 6.446808262457e-03 0.0 
0.0 0.0 0.0 
1.496712091087e-05 -1.164094676355e-03 0.0 
-1.164094676355e-03 2.004641754161e-03 0.0 
0.0 0.0 0.0 
-5.910900962899e-04 2.204459713214e-03 0.0 
2.204459713214e-03 7.158867739309e-03 0.0 
0.0 0.0 0.0 
-1.186307107872e-03 1.252718208098e-03 0.0 
1.252718208098e-03 9.210302045668e-03 0.0 
0.0 0.0 0.0 
-1.071229722902e-03 9.007689710134e-04 0.0 
9.007689710134e-04 1.096981669112e-02 0.0 
0.0 0.0 0.0 
-1.332681676286e-03 1.039016167079e-03 0.0 
1.039016167079e-03 9.599096072504e-03 0.0 
0.0 0.0 0.0 
-1.374541922789e-03 9.171265073798e-04 0.0 
9.171265073798e-04 9.341160457659e-03 0.0 
0.0 0.0 0.0 
1.221782369552e-03 1.689561027733e-03 0.0 
1.689561027733e-03 5.009536317636e-03 0.0 
0.0 0.0 0.0 
-5.411281382861e-04 1.917661902750e-03 0.0 
1.917661902750e-03 9.847887981895e-03 0.0 
0.0 0.0 0.0 
-8.154621198906e-04 2.108637316117e-03 0.0 
2.108637316117e-03 -3.187872729310e-03 0.0 
0.0 0.0 0.0 
-8.904653307213e-04 2.412985145074e-03 0.0 
2.412985145074e-03 5.710027208916e-03 0.0 
0.0 0.0 0.0 
-7.423545280025e-04 2.449134897103e-03 0.0 
2.449134897103e-03 5.875471135536e-03 0.0 
0.0 0.0 0.0 
-7.953419317364e-04 2.186784298309e-03 0.0 
2.186784298309e-03 7.554749124628e-03 0.0 
0.0 0.0 0.0 
-8.983394077786e-04 1.395527610325e-03 0.0 
1.395527610325e-03 1.095836355629e-02 0.0 
0.0 0.0 0.0 
1.970748477037e-03 2.426290790340e-03 0.0 
2.426290790340e-03 -3.317598372610e-03 0.0 
0.0 0.0 0.0 
1.110374546046e-03 3.308257386589e-04 0.0 
3.308257386589e-04 4.693304535304e-03 0.0 
0.0 0.0 0.0 
-7.730882883182e-04 -3.862954290465e-06 0.0 
-3.862954290465e-06 9.820705322283e-03 0.0 
0.0 0.0 0.0 
1.388216241384e-03 2.595093051041e-03 0.0 
2.595093051041e-03 1.691436903508e-03 0.0 
0.0 0.0 0.0 
1.099927611745e-03 1.219046691724e-04 0.0 
1.219046691724e-04 4.412600011458e-03 0.0 
0.0 0.0 0.0 
1.763205883871e-04 -1.101604129305e-04 0.0 
-1.101604129305e-04 4.186198840934e-04 0.0 
0.0 0.0 0.0 
-9.046650639994e-04 1.034273725625e-03 0.0 
1.034273725625e-03 1.100352982974e-02 0.0 
0.0 0.0 0.0 
3.142408744656e-04 -1.277354246645e-04 0.0 
-1.277354246645e-04 2.301492173451e-04 0.0 
0.0 0.0 0.0 
1.079968558106e-04 -1.236618435003e-04 0.0 
-1.236618435003e-04 7.206747501127e-04 0.0 
0.0 0.0 0.0 
-1.002805748398e-03 2.798937347942e-03 0.0 
2.798937347942e-03 3.191871900993e-03 0.0 
0.0 0.0 0.0 
-1.774204089662e-04 -1.156545300803e-03 0.0 
-1.156545300803e-03 1.777813666528e-03 0.0 
0.0 0.0 0.0 
-9.529947925875e-04 1.018548428711e-03 0.0 
1.018548428711e-03 1.126094767032e-02 0.0 
0.0 0.0 0.0 
-2.159817757834e-04 -1.277412877550e-03 0.0 
-1.277412877550e-03 1.526996091080e-03 0.0 
0.0 0.0 0.0 
1.040493778253e-04 3.265504894282e-03 0.0 
3.265504894282e-03 1.404587722217e-03 0.0 
0.0 0.0 0.0 
5.583447238089e-04 -2.629833209177e-03 0.0 
-2.629833209177e-03 -1.119270241718e-03 0.0 
0.0 0.0 0.0 
-5.467537451769e-04 -8.929969758416e-04 0.0 
-8.929969758416e-04 1.309455251530e-03 0.0 
0.0 0.0 0.0 
1.105957254230e-03 9.055171973339e-04 0.0 
9.055171973339e-04 5.383108091189e-03 0.0 
0.0 0.0 0.0 
-1.347259202592e-03 1.157387512918e-03 0.0 
1.157387512918e-03 9.300208969336e-03 0.0 
0.0 0.0 0.0 
3.738589140356e-05 2.234941833564e-05 0.0 
2.234941833564e-05 7.088327285879e-03 0.0 
0.0 0.0 0.0 
-7.687112236499e-04 9.268792911083e-04 0.0 
9.268792911083e-04 -4.564723809963e-03 0.0 
0.0 0.0 0.0 
4.795639449042e-04 3.188068007068e-03 0.0 
3.188068007068e-03 1.540437052818e-03 0.0 
0.0 0.0 0.0 
1.434417508387e-03 2.404996582392e-03 0.0 
2.404996582392e-03 2.233270117403e-03 0.0 
0.0 0.0 0.0 
-1.221398891772e-03 1.517053647950e-03 0.0 
1.517053647950e-03 7.674501117518e-03 0.0 
0.0 0.0 0.0 
1.247382141802e-03 4.936828292134e-04 0.0 
4.936828292134e-04 4.681970995172e-03 0.0 
0.0 0.0 0.0 
7.650988927144e-05 3.863918633166e-05 0.0 
3.863918633166e-05 7.160886529848e-03 0.0 
0.0 0.0 0.0 
-1.035287939029e-03 1.285818195665e-03 0.0 
1.285818195665e-03 1.069365103043e-02 0.0 
0.0 0.0 0.0 
1.895458656563e-03 2.232047558182e-03 0.0 
2.232047558182e-03 2.130622603123e-04 0.0 
0.0 0.0 0.0 
1.006824863273e-03 7.654424402282e-04 0.0 
7.654424402282e-04 5.384073022092e-03 0.0 
0.0 0.0 0.0 
-9.337115389418e-06 -3.375241740555e-05 0.0 
-3.375241740555e-05 5.256213688904e-03 0.0 
0.0 0.0 0.0 
-9.418518959470e-04 1.985830887211e-03 0.0 
1.985830887211e-03 8.101530212282e-03 0.0 
0.0 0.0 0.0 
-9.734122214284e-04 1.066111921298e-03 0.0 
1.066111921298e-03 1.072546591813e-02 0.0 
0.0 0.0 0.0 
2.103757437306e-04 2.076568102013e-03 0.0 
2.076568102013e-03 8.326216900677e-03 0.0 
0.0 0.0 0.0 
1.623950142617e-03 2.119847064012e-03 0.0 
2.119847064012e-03 2.274154809927e-03 0.0 
0.0 0.0 0.0 
9.662962116463e-06 3.138837191856e-03 0.0 
3.138837191856e-03 2.411965553541e-03 0.0 
0.0 0.0 0.0 
-1.262838740295e-03 1.153738691461e-03 0.0 
1.153738691461e-03 9.857350260257e-03 0.0 
0.0 0.0 0.0 
-1.642119476063e-04 8.852876173605e-04 0.0 
8.852876173605e-04 1.269300789241e-02 0.0 
0.0 0.0 0.0 
-4.894308880949e-04 2.316271858261e-03 0.0 
2.316271858261e-03 7.144373489000e-03 0.0 
0.0 0.0 0.0 
1.692048529819e-03 1.589105881741e-03 0.0 
1.589105881741e-03 3.195217126377e-03 0.0 
0.0 0.0 0.0 
-7.385742714326e-04 4.145558103949e-05 0.0 
4.145558103949e-05 1.022533798892e-02 0.0 
0.0 0.0 0.0 
-5.545053692728e-04 -1.832064729802e-03 0.0 
-1.832064729802e-03 4.405451105358e-04 0.0 
0.0 0.0 0.0 
-1.218390200830e-03 9.212075092505e-04 0.0 
9.212075092505e-04 9.616978522351e-03 0.0 
0.0 0.0 0.0 
1.609916560336e-03 2.673824327300e-03 0.0 
2.673824327300e-03 1.480479414764e-04 0.0 
0.0 0.0 0.0 
2.214547519580e-03 2.276311547332e-03 0.0 
2.276311547332e-03 -2.821916003405e-03 0.0 
0.0 0.0 0.0 
1.690244820977e-03 -2.294848451301e-03 0.0 
-2.294848451301e-03 -3.496106427217e-03 0.0 
0.0 0.0 0.0 
-8.240923664726e-04 1.002144082373e-03 0.0 
1.002144082373e-03 1.126252588549e-02 0.0 
0.0 0.0 0.0 
-1.271118936451e-03 1.264377379600e-03 0.0 
1.264377379600e-03 9.533567679795e-03 0.0 
0.0 0.0 0.0 
2.454847860047e-04 2.868033402239e-03 0.0 
2.868033402239e-03 3.775022067181e-03 0.0 
0.0 0.0 0.0 
-8.594425213004e-04 9.767423811868e-04 0.0 
9.767423811868e-04 1.150916470379e-02 0.0 
0.0 0.0 0.0 
-9.444815264128e-04 1.454022941155e-03 0.0 
1.454022941155e-03 1.062781060668e-02 0.0 
0.0 0.0 0.0 
-1.049234148122e-03 1.797443782493e-03 0.0 
1.797443782493e-03 8.583204096781e-03 0.0 
0.0 0.0 0.0 
9.343504468706e-05 9.474273530352e-05 0.0 
9.474273530352e-05 7.066710531737e-03 0.0 
0.0 0.0 0.0 
1.720355174105e-03 1.572725388609e-03 0.0 
1.572725388609e-03 3.082380543183e-03 0.0 
0.0 0.0 0.0 
-1.122226670118e-03 1.627308684092e-03 0.0 
1.627308684092e-03 9.020993924419e-03 0.0 
0.0 0.0 0.0 
6.618239056833e-04 2.576113488497e-03 0.0 
2.576113488497e-03 4.434177155748e-03 0.0 
0.0 0.0 0.0 
1.570520415409e-03 1.541755202583e-03 0.0 
1.541755202583e-03 3.783897244028e-03 0.0 
0.0 0.0 0.0 
2.320963477356e-03 2.056942483100e-03 0.0 
2.056942483100e-03 -2.063836596603e-03 0.0 
0.0 0.0 0.0 
-1.138578776020e-03 3.478431170271e-04 0.0 
3.478431170271e-04 9.885199940700e-03 0.0 
0.0 0.0 0.0 
1.878566848602e-03 1.749840531005e-03 0.0 
1.749840531005e-03 1.999956434005e-03 0.0 
0.0 0.0 0.0 
2.315765275708e-03 -8.565074007452e-04 0.0 
-8.565074007452e-04 -1.244824269866e-03 0.0 
0.0 0.0 0.0 
-9.137276046129e-04 1.238129166788e-03 0.0 
1.238129166788e-03 1.070159545807e-02 0.0 
0.0 0.0 0.0 
-3.977580266367e-03 3.676851684374e-04 0.0 
3.676851684374e-04 -3.051936930867e-03 0.0 
0.0 0.0 0.0 
-1.308077297239e-03 9.476078458751e-04 0.0 
9.476078458751e-04 9.886413542927e-03 0.0 
0.0 0.0 0.0 
2.043033322300e-03 2.182430167113e-03 0.0 
2.182430167113e-03 -2.550417054644e-04 0.0 
0.0 0.0 0.0 
7.145405588320e-04 3.029990886159e-03 0.0 
3.029990886159e-03 1.561266409242e-03 0.0 
0.0 0.0 0.0 
2.581379253658e-03 1.282661924014e-03 0.0 
1.282661924014e-03 -1.934318564057e-03 0.0 
0.0 0.0 0.0 
-1.096338389100e-03 1.256559376444e-03 0.0 
1.256559376444e-03 9.791346663408e-03 0.0 
0.0 0.0 0.0 
-2.217053629975e-04 -5.217107618736e-04 0.0 
-5.217107618736e-04 7.485461451024e-04 0.0 
0.0 0.0 0.0 
-9.302723015094e-04 2.191678006251e-03 0.0 
2.191678006251e-03 6.640530837556e-03 0.0 
0.0 0.0 0.0 
1.593444905686e-03 1.532295523048e-03 0.0 
1.532295523048e-03 3.703076860686e-03 0.0 
0.0 0.0 0.0 
-1.179597844896e-03 1.138940773502e-03 0.0 
1.138940773502e-03 9.554601556768e-03 0.0 
0.0 0.0 0.0 
-1.144084808589e-03 4.712801050881e-04 0.0 
4.712801050881e-04 1.016432236726e-02 0.0 
0.0 0.0 0.0 
1.929139754024e-03 1.914408762600e-03 0.0 
1.914408762600e-03 -4.133832777702e-03 0.0 
0.0 0.0 0.0 
2.600661987260e-03 -1.823190435739e-04 0.0 
-1.823190435739e-04 -1.350399844933e-03 0.0 
0.0 0.0 0.0 
1.975017070679e-03 -1.547853905353e-03 0.0 
-1.547853905353e-03 -1.392462722790e-03 0.0 
0.0 0.0 0.0 
-1.082737926648e-03 2.447771703821e-03 0.0 
2.447771703821e-03 6.517029732762e-03 0.0 
0.0 0.0 0.0 
-1.102968940951e-03 1.109877697462e-03 0.0 
1.109877697462e-03 1.071840162078e-02 0.0 
0.0 0.0 0.0 
-8.983361748837e-04 2.468260277509e-03 0.0 
2.468260277509e-03 6.598957088566e-03 0.0 
0.0 0.0 0.0 
2.006330738086e-03 1.829839962303e-03 0.0 
1.829839962303e-03 1.122616146696e-03 0.0 
0.0 0.0 0.0 
1.742758212588e-03 2.239111249802e-03 0.0 
2.239111249802e-03 1.335489455888e-03 0.0 
0.0 0.0 0.0 
2.012341643628e-03 1.550143125743e-03 0.0 
1.550143125743e-03 -3.017045975521e-03 0.0 
0.0 0.0 0.0 
8.154056684881e-04 2.522712304946e-03 0.0 
2.522712304946e-03 3.972760113316e-03 0.0 
0.0 0.0 0.0 
-3.555450143153e-04 3.173850826612e-03 0.0 
3.173850826612e-03 1.384225912150e-03 0.0 
0.0 0.0 0.0 
-2.418551664185e-04 1.539515829981e-03 0.0 
1.539515829981e-03 1.221828763081e-02 0.0 
0.0 0.0 0.0 
-2.537480503000e-04 1.813553114641e-03 0.0 
1.813553114641e-03 1.189416912063e-02 0.0 
0.0 0.0 0.0 
-3.020360485009e-04 2.318314537046e-03 0.0 
2.318314537046e-03 6.739742164667e-03 0.0 
0.0 0.0 0.0 
1.962817490839e-03 2.442394089522e-03 0.0 
2.442394089522e-03 -9.464840257057e-04 0.0 
0.0 0.0 0.0 
1.037576635348e-03 2.979272756082e-03 0.0 
2.979272756082e-03 4.710439194218e-04 0.0 
0.0 0.0 0.0 
-9.352346007682e-04 1.698092555544e-03 0.0 
1.698092555544e-03 8.816198518087e-03 0.0 
0.0 0.0 0.0 
1.735075292949e-03 2.501933481533e-03 0.0 
2.501933481533e-03 -3.034247994282e-04 0.0 
0.0 0.0 0.0 
2.413854098489e-03 -8.973027802230e-04 0.0 
-8.973027802230e-04 -1.496094199750e-03 0.0 
0.0 0.0 0.0 
-9.661381199979e-04 1.813465430894e-03 0.0 
1.813465430894e-03 8.132371178013e-03 0.0 
0.0 0.0 0.0 
-3.040716050983e-04 5.466022127965e-04 0.0 
5.466022127965e-04 1.256294852835e-02 0.0 
0.0 0.0 0.0 
1.714382952008e-03 2.437444160064e-03 0.0 
2.437444160064e-03 7.284088318815e-04 0.0 
0.0 0.0 0.0 
1.150401110813e-03 1.859523467473e-03 0.0 
1.859523467473e-03 4.989364746665e-03 0.0 
0.0 0.0 0.0 
3.437658431300e-04 3.297238084528e-03 0.0 
3.297238084528e-03 3.187736366494e-04 0.0 
0.0 0.0 0.0 
3.090886246540e-04 1.072697786485e-03 0.0 
1.072697786485e-03 7.440662536049e-03 0.0 
0.0 0.0 0.0 
1.402627426907e-03 2.954929888136e-03 0.0 
2.954929888136e-03 -3.744189370205e-04 0.0 
0.0 0.0 0.0 
-7.435691055246e-04 2.023156955330e-03 0.0 
2.023156955330e-03 7.776077066079e-03 0.0 
0.0 0.0 0.0 
2.517419968360e-03 1.617586474933e-03 0.0 
1.617586474933e-03 -3.817376497643e-03 0.0 
0.0 0.0 0.0 
1.674765835506e-03 6.245539826530e-04 0.0 
6.245539826530e-04 3.532817671119e-03 0.0 
0.0 0.0 0.0 
1.719469678745e-03 2.071822817272e-03 0.0 
2.071822817272e-03 1.949659549124e-03 0.0 
0.0 0.0 0.0 
2.061773030485e-03 -1.246703032433e-03 0.0 
-1.246703032433e-03 -6.956763740570e-04 0.0 
0.0 0.0 0.0 
-1.261014198722e-03 1.402635440129e-03 0.0 
1.402635440129e-03 9.191383711621e-03 0.0 
0.0 0.0 0.0 
-1.725172329030e-04 2.219435127728e-03 0.0 
2.219435127728e-03 1.123629972840e-02 0.0 
0.0 0.0 0.0 
2.047906436313e-03 1.981718476677e-03 0.0 
1.981718476677e-03 4.399731189639e-04 0.0 
0.0 0.0 0.0 
1.637174910829e-03 1.296470399051e-03 0.0 
1.296470399051e-03 3.736056649319e-03 0.0 
0.0 0.0 0.0 
4.954474137220e-04 3.131563961217e-03 0.0 
3.131563961217e-03 3.406957385585e-04 0.0 
0.0 0.0 0.0 
-8.790118516303e-04 4.668982877529e-04 0.0 
4.668982877529e-04 1.090605709828e-02 0.0 
0.0 0.0 0.0 
1.256690125721e-03 2.752703034455e-04 0.0 
2.752703034455e-04 4.392604668459e-03 0.0 
0.0 0.0 0.0 
-1.886219866595e-04 3.028051151511e-03 0.0 
3.028051151511e-03 3.338390825073e-03 0.0 
0.0 0.0 0.0 
-9.723506801831e-04 3.492743056071e-04 0.0 
3.492743056071e-04 1.076456366662e-02 0.0 
0.0 0.0 0.0 
-6.229463153562e-05 2.475213335962e-03 0.0 
2.475213335962e-03 1.036036668432e-02 0.0 
0.0 0.0 0.0 
1.078063886647e-03 4.030360784947e-04 0.0 
4.030360784947e-04 4.976068173105e-03 0.0 
0.0 0.0 0.0 
-2.150402304372e-04 2.096686994052e-03 0.0 
2.096686994052e-03 1.147925201983e-02 0.0 
0.0 0.0 0.0 
-1.058756980652e-03 4.646654983043e-04 0.0 
4.646654983043e-04 1.068847068680e-02 0.0 
0.0 0.0 0.0 
-8.303744159327e-04 1.684650025649e-03 0.0 
1.684650025649e-03 1.013986442785e-02 0.0 
0.0 0.0 0.0 
-6.696628045805e-04 3.024028153180e-03 0.0 
3.024028153180e-03 3.252759736188e-03 0.0 
0.0 0.0 0.0 
-1.344685724619e-03 1.304844118747e-03 0.0 
1.304844118747e-03 8.969655485164e-03 0.0 
0.0 0.0 0.0 
-1.082265324512e-03 1.486483107219e-03 0.0 
1.486483107219e-03 9.040878216099e-03 0.0 
0.0 0.0 0.0 
-1.163769040831e-03 1.479104459292e-03 0.0 
1.479104459292e-03 9.415560201612e-03 0.0 
0.0 0.0 0.0 
-2.621362465298e-04 2.469995723439e-03 0.0 
2.469995723439e-03 6.468734470136e-03 0.0 
0.0 0.0 0.0 
2.517991937423e-05 2.494910149473e-03 0.0 
2.494910149473e-03 9.728406517001e-03 0.0 
0.0 0.0 0.0 
-1.099072162073e-03 6.367398607864e-04 0.0 
6.367398607864e-04 1.036199955268e-02 0.0 
0.0 0.0 0.0 
-1.348043677057e-03 8.231468535669e-04 0.0 
8.231468535669e-04 9.607882572275e-03 0.0 
0.0 0.0 0.0 
1.933027648380e-03 1.867729435140e-03 0.0 
1.867729435140e-03 1.390657088191e-03 0.0 
0.0 0.0 0.0 
-3.962353676472e-04 -1.075013095573e-03 0.0 
-1.075013095573e-03 1.559925879348e-03 0.0 
0.0 0.0 0.0 
-1.397270887267e-03 1.034215927243e-03 0.0 
1.034215927243e-03 9.045504507752e-03 0.0 
0.0 0.0 0.0 
2.624177434352e-04 3.073013357328e-03 0.0 
3.073013357328e-03 2.552537089453e-03 0.0 
0.0 0.0 0.0 
-7.390634644378e-04 1.440792573872e-05 0.0 
1.440792573872e-05 9.858101932318e-03 0.0 
0.0 0.0 0.0 
1.602119445079e-03 -1.704430369534e-03 0.0 
-1.704430369534e-03 -6.252030488909e-04 0.0 
0.0 0.0 0.0 
1.945879984676e-03 2.023644287475e-03 0.0 
2.023644287475e-03 7.862763527284e-04 0.0 
0.0 0.0 0.0 
-8.485485264060e-04 1.197098722584e-03 0.0 
1.197098722584e-03 1.099951922692e-02 0.0 
0.0 0.0 0.0 
4.177082366921e-04 3.011104642693e-03 0.0 
3.011104642693e-03 2.559940541904e-03 0.0 
0.0 0.0 0.0 
-1.168426836028e-03 1.393250044593e-03 0.0 
1.393250044593e-03 8.838882705902e-03 0.0 
0.0 0.0 0.0 
1.642485958600e-03 1.294834995214e-03 0.0 
1.294834995214e-03 3.719717304556e-03 0.0 
0.0 0.0 0.0 
1.279086877243e-03 -4.867779342500e-04 0.0 
-4.867779342500e-04 2.973601792049e-03 0.0 
0.0 0.0 0.0 
1.857228703637e-04 2.290807178727e-03 0.0 
2.290807178727e-03 8.798279313754e-03 0.0 
0.0 0.0 0.0 
-1.391460772567e-03 1.369748260133e-03 0.0 
1.369748260133e-03 8.427552365456e-03 0.0 
0.0 0.0 0.0 
2.721894811931e-03 4.629395845158e-04 0.0 
4.629395845158e-04 -1.863384507928e-03 0.0 
0.0 0.0 0.0 
6.318258577902e-04 -1.374287773731e-03 0.0 
-1.374287773731e-03 1.737347992810e-03 0.0 
0.0 0.0 0.0 
-8.494696851842e-04 2.753377715349e-03 0.0 
2.753377715349e-03 4.932580506773e-03 0.0 
0.0 0.0 0.0 
-2.321162971826e-04 2.998262451970e-03 0.0 
2.998262451970e-03 3.341799941822e-03 0.0 
0.0 0.0 0.0 
-7.922389898816e-04 1.556630159865e-03 0.0 
1.556630159865e-03 1.088255323378e-02 0.0 
0.0 0.0 0.0 
-8.267901199527e-04 1.979977044814e-03 0.0 
1.979977044814e-03 8.304909126591e-03 0.0 
0.0 0.0 0.0 
-1.325072268705e-03 1.861253602653e-03 0.0 
1.861253602653e-03 7.646092622382e-03 0.0 
0.0 0.0 0.0 
-1.236704750953e-03 1.273226336027e-03 0.0 
1.273226336027e-03 8.647248821803e-03 0.0 
0.0 0.0 0.0 
3.132842638087e-04 1.666319020153e-03 0.0 
1.666319020153e-03 7.816894860799e-03 0.0 
0.0 0.0 0.0 
5.287778157101e-04 1.598553210596e-03 0.0 
1.598553210596e-03 7.281704792470e-03 0.0 
0.0 0.0 0.0 
-6.800615824200e-04 1.520261007615e-03 0.0 
1.520261007615e-03 1.088913906197e-02 0.0 
0.0 0.0 0.0 
-1.037651800578e-03 1.062763203793e-03 0.0 
1.062763203793e-03 1.099957915508e-02 0.0 
0.0 0.0 0.0 
1.233446583130e-03 -6.482547196044e-04 0.0 
-6.482547196044e-04 2.595035856423e-03 0.0 
0.0 0.0 0.0 
-5.308909667920e-04 2.625670003700e-03 0.0 
2.625670003700e-03 6.026347772423e-03 0.0 
0.0 0.0 0.0 
2.247534721591e-03 1.848472149673e-03 0.0 
1.848472149673e-03 -8.542421069059e-04 0.0 
0.0 0.0 0.0 
2.262053583471e-03 1.649074137453e-03 0.0 
1.649074137453e-03 -1.747134425389e-04 0.0 
0.0 0.0 0.0 
-6.761857200624e-04 2.152073290075e-03 0.0 
2.152073290075e-03 7.756701521682e-03 0.0 
0.0 0.0 0.0 
1.684861192917e-03 5.740327652888e-04 0.0 
5.740327652888e-04 3.363780120387e-03 0.0 
0.0 0.0 0.0 
2.274578010844e-04 -7.677604511709e-04 0.0 
-7.677604511709e-04 3.180733912229e-03 0.0 
0.0 0.0 0.0 
-7.000353899100e-04 1.322938977121e-03 0.0 
1.322938977121e-03 1.126314431708e-02 0.0 
0.0 0.0 0.0 
2.584642562481e-03 -3.255847436042e-04 0.0 
-3.255847436042e-04 -1.739920060780e-03 0.0 
0.0 0.0 0.0 
-5.526872717931e-06 2.585076995489e-03 0.0 
2.585076995489e-03 5.728707521142e-03 0.0 
0.0 0.0 0.0 
-1.038017581702e-03 1.635724957426e-03 0.0 
1.635724957426e-03 8.614182869520e-03 0.0 
0.0 0.0 0.0 
-1.332411595502e-04 2.680353567132e-03 0.0 
2.680353567132e-03 5.467233288391e-03 0.0 
0.0 0.0 0.0 
-2.459063408324e-04 1.968728677295e-03 0.0 
1.968728677295e-03 1.169647355038e-02 0.0 
0.0 0.0 0.0 
-2.348229364538e-04 1.684518130685e-03 0.0 
1.684518130685e-03 1.205404377016e-02 0.0 
0.0 0.0 0.0 
-4.759449155918e-04 1.577817961029e-03 0.0 
1.577817961029e-03 1.174415646619e-02 0.0 
0.0 0.0 0.0 
1.199314134544e-03 -4.398227378456e-04 0.0 
-4.398227378456e-04 3.109980324605e-03 0.0 
0.0 0.0 0.0 
-7.305398512246e-04 9.730403803271e-04 0.0 
9.730403803271e-04 1.150911125027e-02 0.0 
0.0 0.0 0.0 
-1.046509721304e-04 3.149673360247e-03 0.0 
3.149673360247e-03 2.411092752082e-03 0.0 
0.0 0.0 0.0 
2.216063404800e-03 1.512451220014e-03 0.0 
1.512451220014e-03 5.110206512684e-04 0.0 
0.0 0.0 0.0 
2.434346025923e-03 1.451492851459e-03 0.0 
1.451492851459e-03 -2.683139933430e-03 0.0 
0.0 0.0 0.0 
-1.070542100634e-03 2.202210448961e-03 0.0 
2.202210448961e-03 7.233531307346e-03 0.0 
0.0 0.0 0.0 
-1.088902326944e-03 2.699329812970e-04 0.0 
2.699329812970e-04 9.915916854936e-03 0.0 
0.0 0.0 0.0 
-9.447223896889e-04 4.674064694123e-04 0.0 
4.674064694123e-04 1.068795796486e-02 0.0 
0.0 0.0 0.0 
5.585359877096e-04 1.077754110211e-03 0.0 
1.077754110211e-03 6.906150037205e-03 0.0 
0.0 0.0 0.0 
-5.972273119406e-04 1.722952880130e-03 0.0 
1.722952880130e-03 1.040625762629e-02 0.0 
0.0 0.0 0.0 
-1.159451027461e-03 1.053194921208e-03 0.0 
1.053194921208e-03 9.872090848529e-03 0.0 
0.0 0.0 0.0 
-9.806430235405e-04 1.563998753986e-03 0.0 
1.563998753986e-03 9.261074144446e-03 0.0 
0.0 0.0 0.0 
2.679417036721e-03 1.468661372875e-03 0.0 
1.468661372875e-03 -3.145688110184e-03 0.0 
0.0 0.0 0.0 
-6.732782530249e-04 -1.159952530891e-03 0.0 
-1.159952530891e-03 6.349704988757e-04 0.0 
0.0 0.0 0.0 
1.120414191137e-03 2.491566176909e-03 0.0 
2.491566176909e-03 3.115112178821e-03 0.0 
0.0 0.0 0.0 
8.481134119109e-05 2.477570767588e-03 0.0 
2.477570767588e-03 6.017215019841e-03 0.0 
0.0 0.0 0.0 
1.006406502421e-03 2.384514227744e-03 0.0 
2.384514227744e-03 3.991523471728e-03 0.0 
0.0 0.0 0.0 
-8.020577782015e-04 3.095962423831e-03 0.0 
3.095962423831e-03 5.080963776340e-04 0.0 
0.0 0.0 0.0 
-7.020063039509e-04 5.261978880929e-05 0.0 
5.261978880929e-05 1.020982728083e-02 0.0 
0.0 0.0 0.0 
-3.504397516234e-04 -1.121872901776e-03 0.0 
-1.121872901776e-03 1.352455601735e-03 0.0 
0.0 0.0 0.0 
1.074069650226e-03 3.019695812503e-03 0.0 
3.019695812503e-03 7.666910027950e-04 0.0 
0.0 0.0 0.0 
0.0 1.122061593608e-03 0.0 
1.122061593608e-03 7.489854080751e-03 0.0 
0.0 0.0 0.0 
1.293008230526e-03 1.510769070634e-03 0.0 
1.510769070634e-03 4.950725628194e-03 0.0 
0.0 0.0 0.0 
-1.222339131320e-03 7.178982033399e-04 0.0 
7.178982033399e-04 9.620277516712e-03 0.0 
0.0 0.0 0.0 
2.490215230428e-04 -2.932166178570e-05 0.0 
-2.932166178570e-05 9.860966625237e-04 0.0 
0.0 0.0 0.0 
-3.977792762155e-04 2.387282617864e-03 0.0 
2.387282617864e-03 6.480722040976e-03 0.0 
0.0 0.0 0.0 
1.312546402255e-03 2.284261987358e-03 0.0 
2.284261987358e-03 3.143333085913e-03 0.0 
0.0 0.0 0.0 
-1.179418705149e-03 1.355577379580e-03 0.0 
1.355577379580e-03 9.779107235200e-03 0.0 
0.0 0.0 0.0 
-1.280306107968e-04 2.333373314544e-03 0.0 
2.333373314544e-03 1.095520949657e-02 0.0 
0.0 0.0 0.0 
-1.242935776171e-03 1.132806072920e-03 0.0 
1.132806072920e-03 8.988741613981e-03 0.0 
0.0 0.0 0.0 
-9.383740216030e-04 1.819704022881e-03 0.0 
1.819704022881e-03 8.800585246715e-03 0.0 
0.0 0.0 0.0 
3.594064742254e-04 -7.601803143399e-04 0.0 
-7.601803143399e-04 3.178860753414e-03 0.0 
0.0 0.0 0.0 
-7.713023737058e-04 1.163666964218e-03 0.0 
1.163666964218e-03 1.128030392692e-02 0.0 
0.0 0.0 0.0 
1.229584832989e-03 -2.980897582486e-04 0.0 
-2.980897582486e-04 3.467630175816e-03 0.0 
0.0 0.0 0.0 
-1.185229760663e-04 2.417151537944e-03 0.0 
2.417151537944e-03 1.066962137729e-02 0.0 
0.0 0.0 0.0 
0.0 1.940488701648e-03 0.0 
1.940488701648e-03 1.158619329415e-02 0.0 
0.0 0.0 0.0 
0.0 1.398539664517e-03 0.0 
1.398539664517e-03 1.230013178765e-02 0.0 
0.0 0.0 0.0 
0.0 1.662929677591e-03 0.0 
1.662929677591e-03 1.198301539942e-02 0.0 
0.0 0.0 0.0 
-9.998887267791e-04 1.451990479478e-03 0.0 
1.451990479478e-03 9.665877029567e-03 0.0 
0.0 0.0 0.0 
-8.996374697865e-04 1.178807995419e-03 0.0 
1.178807995419e-03 1.127887515627e-02 0.0 
0.0 0.0 0.0 
-5.578517027778e-04 1.692814862458e-03 0.0 
1.692814862458e-03 1.078828167411e-02 0.0 
0.0 0.0 0.0 
-2.619678114606e-04 2.625511252993e-03 0.0 
2.625511252993e-03 5.474396611940e-03 0.0 
0.0 0.0 0.0 
-6.113875468673e-04 2.473365515814e-03 0.0 
2.473365515814e-03 6.045860301403e-03 0.0 
0.0 0.0 0.0 
1.020494100386e-04 -7.128867307691e-04 0.0 
-7.128867307691e-04 3.129633713280e-03 0.0 
0.0 0.0 0.0 
-8.276261210737e-04 1.344691770346e-03 0.0 
1.344691770346e-03 1.126062384680e-02 0.0 
0.0 0.0 0.0 
-1.707413626162e-05 2.500701305803e-03 0.0 
2.500701305803e-03 1.004103539348e-02 0.0 
0.0 0.0 0.0 
-6.787357951039e-04 1.122962182217e-03 0.0 
1.122962182217e-03 1.153837655595e-02 0.0 
0.0 0.0 0.0 
1.437416801005e-03 1.515960759523e-03 0.0 
1.515960759523e-03 4.370129705805e-03 0.0 
0.0 0.0 0.0 
-8.047327082992e-04 1.133290179976e-03 0.0 
1.133290179976e-03 1.153755372601e-02 0.0 
0.0 0.0 0.0 
2.137378676859e-04 2.134559159574e-03 0.0 
2.134559159574e-03 7.388879485437e-03 0.0 
0.0 0.0 0.0 
1.819691122724e-04 2.561532475575e-03 0.0 
2.561532475575e-03 5.251312960335e-03 0.0 
0.0 0.0 0.0 
-1.066982724966e-03 1.925447112791e-03 0.0 
1.925447112791e-03 7.262505306547e-03 0.0 
0.0 0.0 0.0 
1.119481759506e-03 3.193580479129e-03 0.0 
3.193580479129e-03 -7.859286771080e-04 0.0 
0.0 0.0 0.0 
-1.999881682685e-04 9.272034154464e-04 0.0 
9.272034154464e-04 1.239436067979e-02 0.0 
0.0 0.0 0.0 
-7.956892603911e-06 2.771232985998e-03 0.0 
2.771232985998e-03 4.650899842210e-03 0.0 
0.0 0.0 0.0 
1.311243180080e-05 2.146856805455e-03 0.0 
2.146856805455e-03 9.189231078086e-03 0.0 
0.0 0.0 0.0 
1.970619639251e-04 -7.243592370168e-04 0.0 
-7.243592370168e-04 3.130819808040e-03 0.0 
0.0 0.0 0.0 
1.098637731041e-03 -2.079889263475e-03 0.0 
-2.079889263475e-03 -4.090187812128e-04 0.0 
0.0 0.0 0.0 
3.149117959234e-04 9.635246301690e-04 0.0 
9.635246301690e-04 6.865685933138e-03 0.0 
0.0 0.0 0.0 
7.795706609894e-04 3.010183942985e-03 0.0 
3.010183942985e-03 1.817771645153e-03 0.0 
0.0 0.0 0.0 
0.0 2.065862797651e-03 0.0 
2.065862797651e-03 1.136040903498e-02 0.0 
0.0 0.0 0.0 
-2.784003691073e-04 1.457939740712e-03 0.0 
1.457939740712e-03 1.192689068456e-02 0.0 
0.0 0.0 0.0 
-6.395152097183e-04 2.017282722999e-03 0.0 
2.017282722999e-03 8.004714672602e-03 0.0 
0.0 0.0 0.0 
-6.354602889498e-04 -5.628798117127e-04 0.0 
-5.628798117127e-04 6.656401822800e-04 0.0 
0.0 0.0 0.0 
0.0 2.254473684777e-03 0.0 
2.254473684777e-03 1.081834997692e-02 0.0 
0.0 0.0 0.0 
3.117105335779e-04 1.299390082764e-03 0.0 
1.299390082764e-03 7.089823492927e-03 0.0 
0.0 0.0 0.0 
1.594276650773e-03 -1.734462357686e-03 0.0 
-1.734462357686e-03 -4.638845764205e-04 0.0 
0.0 0.0 0.0 
1.484772344567e-03 1.307227452178e-03 0.0 
1.307227452178e-03 4.339158727056e-03 0.0 
0.0 0.0 0.0 
2.091154917090e-04 2.159810247937e-03 0.0 
2.159810247937e-03 8.514325335577e-03 0.0 
0.0 0.0 0.0 
-2.165705967631e-04 -6.245053401850e-05 0.0 
-6.245053401850e-05 1.869759646425e-04 0.0 
0.0 0.0 0.0 
9.763133014618e-05 2.670376123662e-03 0.0 
2.670376123662e-03 4.938757282690e-03 0.0 
0.0 0.0 0.0 
-7.521969513128e-04 1.873616887987e-03 0.0 
1.873616887987e-03 8.551145897122e-03 0.0 
0.0 0.0 0.0 
-4.892384694488e-04 2.169888077887e-03 0.0 
2.169888077887e-03 7.400435419736e-03 0.0 
0.0 0.0 0.0 
-8.557851186031e-04 1.853011281275e-03 0.0 
1.853011281275e-03 8.322846069204e-03 0.0 
0.0 0.0 0.0 
7.619760484689e-04 3.250157535229e-03 0.0 
3.250157535229e-03 4.318312015998e-04 0.0 
0.0 0.0 0.0 
0.0 2.360746972120e-03 0.0 
2.360746972120e-03 1.020220458493e-02 0.0 
0.0 0.0 0.0 
2.134816320761e-03 1.419607648264e-03 0.0 
1.419607648264e-03 1.186328405253e-03 0.0 
0.0 0.0 0.0 
1.938008442622e-03 4.099170187522e-04 0.0 
4.099170187522e-04 -3.882205591421e-03 0.0 
0.0 0.0 0.0 
1.718341452221e-04 9.489202558945e-05 0.0 
9.489202558945e-05 7.037996225953e-03 0.0 
0.0 0.0 0.0 
-2.232319425981e-04 -4.394885648318e-04 0.0 
-4.394885648318e-04 3.737152529375e-04 0.0 
0.0 0.0 0.0 
-1.208015030019e-03 1.448295228625e-03 0.0 
1.448295228625e-03 8.262937381809e-03 0.0 
0.0 0.0 0.0 
9.061282965277e-04 -2.304108811539e-03 0.0 
-2.304108811539e-03 -1.966843869043e-03 0.0 
0.0 0.0 0.0 
-1.266788750428e-03 8.664880553996e-04 0.0 
8.664880553996e-04 9.066203696586e-03 0.0 
0.0 0.0 0.0 
3.151980969291e-04 1.448318287632e-03 0.0 
1.448318287632e-03 7.649370726022e-03 0.0 
0.0 0.0 0.0 
0.0 2.355523461671e-03 0.0 
2.355523461671e-03 9.559296778360e-03 0.0 
0.0 0.0 0.0 
-1.099111548747e-03 1.359616180594e-03 0.0 
1.359616180594e-03 9.431837411300e-03 0.0 
0.0 0.0 0.0 
1.214422616380e-05 -2.341546737783e-03 0.0 
-2.341546737783e-03 -8.674985097825e-04 0.0 
0.0 0.0 0.0 
1.678761251510e-03 8.387592294612e-04 0.0 
8.387592294612e-04 -4.535276088934e-03 0.0 
0.0 0.0 0.0 
-5.159734164628e-05 -2.808383578264e-03 0.0 
-2.808383578264e-03 -1.002723177828e-03 0.0 
0.0 0.0 0.0 
4.907143730792e-04 2.292044462523e-05 0.0 
2.292044462523e-05 5.681509173645e-03 0.0 
0.0 0.0 0.0 
-1.102308995811e-03 3.273428665204e-04 0.0 
3.273428665204e-04 9.851701692311e-03 0.0 
0.0 0.0 0.0 
-1.312900168302e-03 7.472655866166e-04 0.0 
7.472655866166e-04 9.862714632138e-03 0.0 
0.0 0.0 0.0 
0.0 2.232476541411e-03 0.0 
2.232476541411e-03 8.946119038622e-03 0.0 
0.0 0.0 0.0 
-1.052054031553e-03 2.501045040494e-04 0.0 
2.501045040494e-04 9.878741360048e-03 0.0 
0.0 0.0 0.0 
-2.143905406362e-04 1.388520189509e-03 0.0 
1.388520189509e-03 1.235429000542e-02 0.0 
0.0 0.0 0.0 
3.268594571124e-04 2.128761863597e-03 0.0 
2.128761863597e-03 7.132258957739e-03 0.0 
0.0 0.0 0.0 
-9.251217622275e-04 3.573787649888e-04 0.0 
3.573787649888e-04 1.053842816532e-02 0.0 
0.0 0.0 0.0 
-4.077395530817e-04 2.860621114072e-03 0.0 
2.860621114072e-03 4.193264100197e-03 0.0 
0.0 0.0 0.0 
1.454490715807e-03 1.508799168372e-03 0.0 
1.508799168372e-03 4.311164021701e-03 0.0 
0.0 0.0 0.0 
1.824294336469e-03 2.321093785488e-03 0.0 
2.321093785488e-03 -1.936837405621e-03 0.0 
0.0 0.0 0.0 
0.0 1.989319126118e-03 0.0 
1.989319126118e-03 8.387164309326e-03 0.0 
0.0 0.0 0.0 
0.0 1.806499294985e-03 0.0 
1.806499294985e-03 1.179904637937e-02 0.0 
0.0 0.0 0.0 
0.0 1.525715204984e-03 0.0 
1.525715204984e-03 1.216126921532e-02 0.0 
0.0 0.0 0.0 
1.018741388420e-03 -4.329813429795e-04 0.0 
-4.329813429795e-04 3.488801648079e-03 0.0 
0.0 0.0 0.0 
5.064672355282e-06 -6.309887969301e-04 0.0 
-6.309887969301e-04 3.055841941150e-03 0.0 
0.0 0.0 0.0 
3.634583582666e-04 2.546444502863e-03 0.0 
2.546444502863e-03 5.252559619695e-03 0.0 
0.0 0.0 0.0 
1.044571917206e-03 -2.965343317659e-04 0.0 
-2.965343317659e-04 3.834415392628e-03 0.0 
0.0 0.0 0.0 
0.0 1.685894474884e-03 0.0 
1.685894474884e-03 7.940394398421e-03 0.0 
0.0 0.0 0.0 
1.358359034737e-03 2.713547066300e-03 0.0 
2.713547066300e-03 8.107542622635e-04 0.0 
0.0 0.0 0.0 
2.360319634810e-03 -6.484239914203e-04 0.0 
-6.484239914203e-04 -7.287222660711e-04 0.0 
0.0 0.0 0.0 
2.065829217463e-03 -9.491024574762e-04 0.0 
-9.491024574762e-04 -7.749618641439e-05 0.0 
0.0 0.0 0.0 
-8.662486535611e-04 3.647023017117e-04 0.0 
3.647023017117e-04 1.076246965475e-02 0.0 
0.0 0.0 0.0 
2.515457674437e-04 8.721541511451e-04 0.0 
8.721541511451e-04 7.376133542025e-03 0.0 
0.0 0.0 0.0 
-9.645032934831e-04 -2.447320826538e-03 0.0 
-2.447320826538e-03 -2.775562798407e-04 0.0 
0.0 0.0 0.0 
0.0 1.302205468802e-03 0.0 
1.302205468802e-03 7.585641374051e-03 0.0 
0.0 0.0 0.0 
1.712032871906e-03 -1.400561109894e-03 0.0 
-1.400561109894e-03 2.593849571841e-05 0.0 
0.0 0.0 0.0 
0.0 2.175377433154e-03 0.0 
2.175377433154e-03 1.110624266516e-02 0.0 
0.0 0.0 0.0 
-6.813648365034e-04 1.720673888731e-03 0.0 
1.720673888731e-03 1.078442647209e-02 0.0 
0.0 0.0 0.0 
4.914866529588e-04 -5.719028565442e-05 0.0 
-5.719028565442e-05 -4.745925090888e-05 0.0 
0.0 0.0 0.0 
4.641106518641e-04 2.631678811203e-03 0.0 
2.631678811203e-03 4.426894346854e-03 0.0 
0.0 0.0 0.0 
-7.536436242315e-04 9.387920895437e-04 0.0 
9.387920895437e-04 1.173996160550e-02 0.0 
0.0 0.0 0.0 
0.0 2.323711860158e-03 0.0 
2.323711860158e-03 1.051845830233e-02 0.0 
0.0 0.0 0.0 
-1.057993434252e-03 1.546411582098e-03 0.0 
1.546411582098e-03 9.653705418699e-03 0.0 
0.0 0.0 0.0 
5.005419636308e-04 2.074541496646e-03 0.0 
2.074541496646e-03 6.917921320640e-03 0.0 
0.0 0.0 0.0 
6.505614027885e-04 3.241766149766e-03 0.0 
3.241766149766e-03 -8.840111809296e-04 0.0 
0.0 0.0 0.0 
6.003466297662e-04 1.138546347065e-03 0.0 
1.138546347065e-03 6.481133657908e-03 0.0 
0.0 0.0 0.0 
1.399041158650e-03 -1.435213674190e-03 0.0 
-1.435213674190e-03 6.778030912276e-04 0.0 
0.0 0.0 0.0 
1.680594957983e-03 -1.355932436470e-03 0.0 
-1.355932436470e-03 -2.145001441978e-05 0.0 
0.0 0.0 0.0 
-1.526259665630e-03 -2.464890770259e-03 0.0 
-2.464890770259e-03 -3.918464493406e-04 0.0 
0.0 0.0 0.0 
0.0 2.370928274571e-03 0.0 
2.370928274571e-03 9.880553845872e-03 0.0 
0.0 0.0 0.0 
2.100976502078e-03 2.105931284369e-03 0.0 
2.105931284369e-03 -1.491388079414e-03 0.0 
0.0 0.0 0.0 
9.397903201143e-04 4.680473734689e-04 0.0 
4.680473734689e-04 5.305384880739e-03 0.0 
0.0 0.0 0.0 
-9.993182393871e-04 2.433127224287e-04 0.0 
2.433127224287e-04 1.036306923046e-02 0.0 
0.0 0.0 0.0 
2.570304912299e-04 -1.717407208742e-03 0.0 
-1.717407208742e-03 1.168818663883e-03 0.0 
0.0 0.0 0.0 
1.997644308539e-03 -1.191312829471e-03 0.0 
-1.191312829471e-03 -6.485365459311e-04 0.0 
0.0 0.0 0.0 
-1.013961675673e-03 1.673819275084e-03 0.0 
1.673819275084e-03 9.246375694967e-03 0.0 
0.0 0.0 0.0 
0.0 2.119395852420e-03 0.0 
2.119395852420e-03 8.661169025589e-03 0.0 
0.0 0.0 0.0 
3.030544446947e-05 -5.311926541529e-04 0.0 
-5.311926541529e-04 3.293985530055e-03 0.0 
0.0 0.0 0.0 
1.049408919285e-03 -7.459044429363e-05 0.0 
-7.459044429363e-05 4.179662765709e-03 0.0 
0.0 0.0 0.0 
-4.415725061380e-06 2.360780181114e-03 0.0 
2.360780181114e-03 6.333424895791e-03 0.0 
0.0 0.0 0.0 
1.561617808925e-03 1.242122517413e-04 0.0 
1.242122517413e-04 3.217668601022e-03 0.0 
0.0 0.0 0.0 
2.251039381151e-03 -6.025791678067e-04 0.0 
-6.025791678067e-04 -4.514864715522e-04 0.0 
0.0 0.0 0.0 
1.137518755131e-03 -2.485450338282e-04 0.0 
-2.485450338282e-04 3.638595752057e-03 0.0 
0.0 0.0 0.0 
-1.679739275400e-04 2.375471627923e-03 0.0 
2.375471627923e-03 6.731513678708e-03 0.0 
0.0 0.0 0.0 
-1.929494777300e-04 2.099590023111e-03 0.0 
2.099590023111e-03 8.274774297937e-03 0.0 
0.0 0.0 0.0 
1.302911157532e-03 1.503496573077e-03 0.0 
1.503496573077e-03 4.908107667589e-03 0.0 
0.0 0.0 0.0 
2.438171687298e-04 2.449215926301e-03 0.0 
2.449215926301e-03 5.591582426637e-03 0.0 
0.0 0.0 0.0 
4.604710238418e-04 -8.926118876165e-04 0.0 
-8.926118876165e-04 2.865204212998e-03 0.0 
0.0 0.0 0.0 
1.013925526501e-03 2.817013992106e-03 0.0 
2.817013992106e-03 1.844353503147e-03 0.0 
0.0 0.0 0.0 
6.400738315793e-05 -6.564692214102e-04 0.0 
-6.564692214102e-04 3.059333748480e-03 0.0 
0.0 0.0 0.0 
4.076007370584e-04 2.084513102692e-03 0.0 
2.084513102692e-03 7.139409726608e-03 0.0 
0.0 0.0 0.0 
1.789761187129e-03 1.296052988057e-03 0.0 
1.296052988057e-03 3.088000341703e-03 0.0 
0.0 0.0 0.0 
3.080918876015e-04 1.253859886408e-03 0.0 
1.253859886408e-03 7.538157790148e-03 0.0 
0.0 0.0 0.0 
-7.038369987994e-04 1.089060860397e-03 0.0 
1.089060860397e-03 1.178354758596e-02 0.0 
0.0 0.0 0.0 
9.839440903181e-05 -1.599860619355e-03 0.0 
-1.599860619355e-03 1.395099972522e-03 0.0 
0.0 0.0 0.0 
0.0 1.489434194218e-03 0.0 
1.489434194218e-03 7.717027805783e-03 0.0 
0.0 0.0 0.0 
6.008224188290e-04 1.273021264395e-03 0.0 
1.273021264395e-03 7.023395059593e-03 0.0 
0.0 0.0 0.0 
1.121259559688e-03 2.337966409208e-03 0.0 
2.337966409208e-03 3.611325430446e-03 0.0 
0.0 0.0 0.0 
-9.061541183276e-04 -1.583518984160e-03 0.0 
-1.583518984160e-03 4.475533332418e-04 0.0 
0.0 0.0 0.0 
2.741245839188e-04 7.160512300597e-04 0.0 
7.160512300597e-04 7.342579490465e-03 0.0 
0.0 0.0 0.0 
-7.365110804433e-04 1.292930842391e-03 0.0 
1.292930842391e-03 1.153955470432e-02 0.0 
0.0 0.0 0.0 
1.244517072749e-03 -1.736642899552e-03 0.0 
-1.736642899552e-03 2.812037849602e-04 0.0 
0.0 0.0 0.0 
0.0 9.372566890483e-04 0.0 
9.372566890483e-04 7.390055914660e-03 0.0 
0.0 0.0 0.0 
9.643817497467e-04 -2.528956197326e-04 0.0 
-2.528956197326e-04 3.996415319429e-03 0.0 
0.0 0.0 0.0 
-8.160401350401e-04 2.233010810921e-03 0.0 
2.233010810921e-03 6.772700478163e-03 0.0 
0.0 0.0 0.0 
-1.188294395660e-03 8.553359033015e-04 0.0 
8.553359033015e-04 9.898714753274e-03 0.0 
0.0 0.0 0.0 
1.779521613412e-03 1.298254865596e-03 0.0 
1.298254865596e-03 3.116775977784e-03 0.0 
0.0 0.0 0.0 
1.045200423483e-03 -6.293603731294e-04 0.0 
-6.293603731294e-04 2.995461356134e-03 0.0 
0.0 0.0 0.0 
1.567780232004e-03 4.063575413297e-04 0.0 
4.063575413297e-04 3.569034173100e-03 0.0 
0.0 0.0 0.0 
-1.144543749274e-03 9.421260170384e-04 0.0 
9.421260170384e-04 1.071057498262e-02 0.0 
0.0 0.0 0.0 
-1.066327912027e-03 1.753316905129e-03 0.0 
1.753316905129e-03 7.957793840175e-03 0.0 
0.0 0.0 0.0 
1.110672837306e-03 1.672605004767e-03 0.0 
1.672605004767e-03 5.504710597241e-03 0.0 
0.0 0.0 0.0 
-7.062140326572e-04 4.986273908957e-05 0.0 
4.986273908957e-05 1.054537027250e-02 0.0 
0.0 0.0 0.0 
3.022671922295e-04 -9.079533822953e-04 0.0 
-9.079533822953e-04 2.868399670137e-03 0.0 
0.0 0.0 0.0 
1.484057709639e-03 1.305880823974e-03 0.0 
1.305880823974e-03 4.336742386444e-03 0.0 
0.0 0.0 0.0 
1.015634871083e-03 -1.648909417947e-03 0.0 
-1.648909417947e-03 7.065264796016e-04 0.0 
0.0 0.0 0.0 
3.671093470561e-04 -3.240911636225e-04 0.0 
-3.240911636225e-04 4.596694346737e-03 0.0 
0.0 0.0 0.0 
-7.019473076764e-05 -1.623014605084e-04 0.0 
-1.623014605084e-04 6.710582548353e-05 0.0 
0.0 0.0 0.0 
6.996229422593e-04 2.866705373238e-03 0.0 
2.866705373238e-03 2.824987458145e-03 0.0 
0.0 0.0 0.0 
1.280834979003e-03 -1.725038345109e-03 0.0 
-1.725038345109e-03 7.413879814422e-05 0.0 
0.0 0.0 0.0 
2.738822308630e-04 -6.354707984239e-04 0.0 
-6.354707984239e-04 3.469464629735e-03 0.0 
0.0 0.0 0.0 
8.280900221136e-04 2.384215255020e-03 0.0 
2.384215255020e-03 4.419391942189e-03 0.0 
0.0 0.0 0.0 
1.151595212843e-03 -1.252762990030e-04 0.0 
-1.252762990030e-04 3.976594655159e-03 0.0 
0.0 0.0 0.0 
-9.429917723434e-04 2.546275511925e-04 0.0 
2.546275511925e-04 1.060529784405e-02 0.0 
0.0 0.0 0.0 
8.230951397559e-04 -1.944003619621e-03 0.0 
-1.944003619621e-03 3.159751817852e-04 0.0 
0.0 0.0 0.0 
0.0 7.835282471294e-04 0.0 
7.835282471294e-04 7.362093656493e-03 0.0 
0.0 0.0 0.0 
-7.204829640133e-04 1.971194454195e-03 0.0 
1.971194454195e-03 8.537631354093e-03 0.0 
0.0 0.0 0.0 
1.995397711159e-04 -5.196872232677e-04 0.0 
-5.196872232677e-04 3.739691482753e-03 0.0 
0.0 0.0 0.0 
-5.728759882336e-04 2.112466310971e-03 0.0 
2.112466310971e-03 7.991089555741e-03 0.0 
0.0 0.0 0.0 
1.624244064440e-04 -6.383667884211e-04 0.0 
-6.383667884211e-04 3.470513012958e-03 0.0 
0.0 0.0 0.0 
-5.169583309594e-04 -7.771619839520e-05 0.0 
-7.771619839520e-05 3.166575581333e-04 0.0 
0.0 0.0 0.0 
-1.269188556834e-03 8.737918397600e-04 0.0 
8.737918397600e-04 1.015603859479e-02 0.0 
0.0 0.0 0.0 
-1.195142094867e-04 -1.822081262949e-04 0.0 
-1.822081262949e-04 3.257882695827e-03 0.0 
0.0 0.0 0.0 
4.222190296073e-04 -9.919738726064e-06 0.0 
-9.919738726064e-06 -7.928650869571e-05 0.0 
0.0 0.0 0.0 
8.931783800570e-05 -4.778785208614e-04 0.0 
-4.778785208614e-04 3.637145205432e-03 0.0 
0.0 0.0 0.0 
1.044221593297e-03 2.946868300509e-05 0.0 
2.946868300509e-05 4.499261006151e-03 0.0 
0.0 0.0 0.0 
-4.259445379742e-04 3.091619018399e-04 0.0 
3.091619018399e-04 1.196000625603e-02 0.0 
0.0 0.0 0.0 
1.712553761385e-03 2.730146697820e-04 0.0 
2.730146697820e-04 2.951618659265e-03 0.0 
0.0 0.0 0.0 
1.708722124641e-03 3.477807806759e-04 0.0 
3.477807806759e-04 3.178149172291e-03 0.0 
0.0 0.0 0.0 
-1.327177417567e-03 6.210394041494e-04 0.0 
6.210394041494e-04 9.562816873780e-03 0.0 
0.0 0.0 0.0 
-1.047029228430e-03 1.487157078975e-04 0.0 
1.487157078975e-04 9.553257708639e-03 0.0 
0.0 0.0 0.0 
-2.247774810874e-04 1.128013786770e-03 0.0 
1.128013786770e-03 1.227124731031e-02 0.0 
0.0 0.0 0.0 
-3.892395031305e-04 2.248291640951e-03 0.0 
2.248291640951e-03 7.389801695014e-03 0.0 
0.0 0.0 0.0 
6.886402593937e-04 -3.027062045901e-05 0.0 
-3.027062045901e-05 -1.678700226615e-04 0.0 
0.0 0.0 0.0 
-3.007311256060e-04 -7.616324678860e-04 0.0 
-7.616324678860e-04 1.284543030676e-03 0.0 
0.0 0.0 0.0 
-8.254431839509e-04 -9.428839967937e-04 0.0 
-9.428839967937e-04 6.226023050888e-04 0.0 
0.0 0.0 0.0 
-5.233581973285e-05 -1.312754091773e-03 0.0 
-1.312754091773e-03 1.722346332088e-03 0.0 
0.0 0.0 0.0 
-3.891810845815e-04 2.012683661206e-03 0.0 
2.012683661206e-03 9.685215837259e-03 0.0 
0.0 0.0 0.0 
-4.865904344855e-04 2.668452409774e-04 0.0 
2.668452409774e-04 1.196528859323e-02 0.0 
0.0 0.0 0.0 
5.604887410036e-04 -5.541311160796e-07 0.0 
-5.541311160796e-07 5.474890005065e-03 0.0 
0.0 0.0 0.0 
-3.695429993977e-05 -9.395495442673e-04 0.0 
-9.395495442673e-04 2.256320122055e-03 0.0 
0.0 0.0 0.0 
2.515363791653e-04 -3.609306871373e-04 0.0 
-3.609306871373e-04 4.603374346713e-03 0.0 
0.0 0.0 0.0 
8.880491968446e-04 5.162321149567e-04 0.0 
5.162321149567e-04 5.556859536433e-03 0.0 
0.0 0.0 0.0 
2.597227615217e-03 4.111917666057e-04 0.0 
4.111917666057e-04 -3.618849398024e-03 0.0 
0.0 0.0 0.0 
-1.185952064562e-04 -1.565073705509e-04 0.0 
-1.565073705509e-04 3.257420382112e-03 0.0 
0.0 0.0 0.0 
-1.199869651248e-04 -9.288782193976e-05 0.0 
-9.288782193976e-05 2.711014365822e-03 0.0 
0.0 0.0 0.0 
2.166655800830e-04 5.571481344848e-04 0.0 
5.571481344848e-04 7.316212107480e-03 0.0 
0.0 0.0 0.0 
0.0 6.166945520396e-04 0.0 
6.166945520396e-04 7.323101417525e-03 0.0 
0.0 0.0 0.0 
-1.062732099729e-04 -1.510067337862e-04 0.0 
-1.510067337862e-04 3.597865188772e-03 0.0 
0.0 0.0 0.0 
1.065001051572e-04 -5.205476606338e-04 0.0 
-5.205476606338e-04 3.740364632158e-03 0.0 
0.0 0.0 0.0 
1.087677892191e-03 -4.737384696510e-04 0.0 
-4.737384696510e-04 3.360383149205e-03 0.0 
0.0 0.0 0.0 
8.469351020499e-04 7.069697258300e-04 0.0 
7.069697258300e-04 5.879739017363e-03 0.0 
0.0 0.0 0.0 
-4.134085091564e-04 -7.756960363812e-04 0.0 
-7.756960363812e-04 1.452026917991e-03 0.0 
0.0 0.0 0.0 
9.183507817085e-04 3.346369476329e-04 0.0 
3.346369476329e-04 5.272172576947e-03 0.0 
0.0 0.0 0.0 
2.941211851175e-04 -1.089080458065e-04 0.0 
-1.089080458065e-04 6.303638003082e-04 0.0 
0.0 0.0 0.0 
5.917073193107e-05 -5.844647857215e-04 0.0 
-5.844647857215e-04 3.390877052623e-03 0.0 
0.0 0.0 0.0 
2.865208581080e-04 -6.646599578732e-04 0.0 
-6.646599578732e-04 3.536129852863e-03 0.0 
0.0 0.0 0.0 
3.401559911360e-04 -3.662158829624e-05 0.0 
-3.662158829624e-05 2.465216949923e-04 0.0 
0.0 0.0 0.0 
-1.137737292887e-04 -9.716406229014e-05 0.0 
-9.716406229014e-05 3.440736137957e-03 0.0 
0.0 0.0 0.0 
-5.707535484831e-04 1.090339758331e-03 0.0 
1.090339758331e-03 1.178231780488e-02 0.0 
0.0 0.0 0.0 
6.657054308949e-04 -1.698538596440e-05 0.0 
-1.698538596440e-05 -1.591545180548e-04 0.0 
0.0 0.0 0.0 
-1.096784398526e-03 2.084416137565e-04 0.0 
2.084416137565e-04 9.545553098904e-03 0.0 
0.0 0.0 0.0 
-1.083986907250e-03 2.624875986256e-04 0.0 
2.624875986256e-04 9.485755430079e-03 0.0 
0.0 0.0 0.0 
1.522539136020e-03 6.771505211295e-04 0.0 
6.771505211295e-04 3.984271785098e-03 0.0 
0.0 0.0 0.0 
-1.132761033585e-04 -6.049891326317e-05 0.0 
-6.049891326317e-05 2.712206288525e-03 0.0 
0.0 0.0 0.0 
9.632359377865e-04 -1.640067142538e-03 0.0 
-1.640067142538e-03 9.039989575665e-04 0.0 
0.0 0.0 0.0 
2.104765842190e-04 3.198464231082e-03 0.0 
3.198464231082e-03 1.412830618231e-03 0.0 
0.0 0.0 0.0 
3.340952149058e-04 7.341756403800e-05 0.0 
7.341756403800e-05 6.250056650803e-03 0.0 
0.0 0.0 0.0 
-2.374368270264e-05 2.232903635909e-03 0.0 
2.232903635909e-03 9.712022931398e-03 0.0 
0.0 0.0 0.0 
-6.462185538826e-04 4.003054581459e-04 0.0 
4.003054581459e-04 1.172698081114e-02 0.0 
0.0 0.0 0.0 
-3.520267590827e-04 2.909538968615e-03 0.0 
2.909538968615e-03 4.186902914701e-03 0.0 
0.0 0.0 0.0 
-5.242648683192e-04 -6.067989290822e-04 0.0 
-6.067989290822e-04 9.533255884391e-04 0.0 
0.0 0.0 0.0 
-1.323707543625e-03 1.480126616863e-03 0.0 
1.480126616863e-03 8.620847962143e-03 0.0 
0.0 0.0 0.0 
-8.989119292112e-04 5.804487496740e-05 0.0 
5.804487496740e-05 9.559532564689e-03 0.0 
0.0 0.0 0.0 
-8.634659587839e-04 4.556098486291e-05 0.0 
4.556098486291e-05 9.532529566954e-03 0.0 
0.0 0.0 0.0 
4.537816008268e-04 -1.736395966924e-05 0.0 
-1.736395966924e-05 -8.794396530099e-05 0.0 
0.0 0.0 0.0 
2.942817717988e-04 -4.942055585390e-05 0.0 
-4.942055585390e-05 2.660170075144e-04 0.0 
0.0 0.0 0.0 
2.313410817982e-04 -5.529184409869e-05 0.0 
-5.529184409869e-05 6.520026438757e-04 0.0 
0.0 0.0 0.0 
-2.399472027572e-04 -7.854977602006e-04 0.0 
-7.854977602006e-04 1.923612571322e-03 0.0 
0.0 0.0 0.0 
5.121559247565e-04 -3.291010359394e-05 0.0 
-3.291010359394e-05 1.848826412818e-04 0.0 
0.0 0.0 0.0 
-1.005954621154e-04 -9.118781424622e-05 0.0 
-9.118781424622e-05 3.804068621823e-03 0.0 
0.0 0.0 0.0 
-1.245551340525e-03 -1.089489836450e-03 0.0 
-1.089489836450e-03 -1.891000728811e-03 0.0 
0.0 0.0 0.0 
-1.291109563755e-04 -8.341578133641e-04 0.0 
-8.341578133641e-04 2.215594136400e-03 0.0 
0.0 0.0 0.0 
-6.217562655009e-04 8.401551113684e-05 0.0 
8.401551113684e-05 1.088394207481e-02 0.0 
0.0 0.0 0.0 
-9.830450816594e-04 1.390966434439e-04 0.0 
1.390966434439e-04 9.519255017742e-03 0.0 
0.0 0.0 0.0 
-4.418440300613e-04 1.978036502938e-03 0.0 
1.978036502938e-03 1.014781750077e-02 0.0 
0.0 0.0 0.0 
9.719484168820e-04 -1.351236581689e-04 0.0 
-1.351236581689e-04 4.325308732774e-03 0.0 
0.0 0.0 0.0 
-6.615299605258e-04 5.915402356113e-05 0.0 
5.915402356113e-05 1.053324474750e-02 0.0 
0.0 0.0 0.0 
-1.250048515050e-04 -1.571044797163e-05 0.0 
-1.571044797163e-05 2.894838308615e-03 0.0 
0.0 0.0 0.0 
3.708842606771e-04 -6.477638861409e-05 0.0 
-6.477638861409e-05 5.950154805672e-04 0.0 
0.0 0.0 0.0 
0.0 5.830925607314e-04 0.0 
5.830925607314e-04 1.280619003998e-02 0.0 
0.0 0.0 0.0 
-1.678822509429e-04 6.510355836231e-04 0.0 
6.510355836231e-04 1.278456290257e-02 0.0 
0.0 0.0 0.0 
-8.993163911428e-04 2.687933686026e-04 0.0 
2.687933686026e-04 1.036102430115e-02 0.0 
0.0 0.0 0.0 
-9.540504548050e-04 7.662611359123e-05 0.0 
7.662611359123e-05 9.556830337824e-03 0.0 
0.0 0.0 0.0 
-1.184701080119e-04 -1.386502613135e-04 0.0 
-1.386502613135e-04 2.920425269492e-03 0.0 
0.0 0.0 0.0 
-1.407082782404e-04 4.535933253827e-04 0.0 
4.535933253827e-04 1.285026897712e-02 0.0 
0.0 0.0 0.0 
-1.314636798304e-04 -9.145694209069e-04 0.0 
-9.145694209069e-04 1.988185872870e-03 0.0 
0.0 0.0 0.0 
-1.030455150277e-03 1.897704908657e-04 0.0 
1.897704908657e-04 9.501002817736e-03 0.0 
0.0 0.0 0.0 
-9.905928662902e-04 1.120407959658e-04 0.0 
1.120407959658e-04 9.554078836826e-03 0.0 
0.0 0.0 0.0 
-1.278445406197e-03 9.787435691006e-04 0.0 
9.787435691006e-04 8.788270835429e-03 0.0 
0.0 0.0 0.0 
0.0 1.271964119557e-03 0.0 
1.271964119557e-03 1.241608546859e-02 0.0 
0.0 0.0 0.0 
-1.569486079017e-04 5.535093186880e-04 0.0 
5.535093186880e-04 1.282422557345e-02 0.0 
0.0 0.0 0.0 
4.919958064671e-04 -4.124683618332e-05 0.0 
-4.124683618332e-05 1.901973753706e-04 0.0 
0.0 0.0 0.0 
4.919709555327e-04 -1.467166808225e-05 0.0 
-1.467166808225e-05 -9.857844730343e-05 0.0 
0.0 0.0 0.0 
-4.385971928609e-04 -5.723109195244e-04 0.0 
-5.723109195244e-04 1.123505898459e-03 0.0 
0.0 0.0 0.0 
4.268293978626e-04 -6.429362576411e-04 0.0 
-6.429362576411e-04 3.532121688625e-03 0.0 
0.0 0.0 0.0 
-4.971237395957e-06 2.226489866264e-05 0.0 
2.226489866264e-05 6.938199700981e-03 0.0 
0.0 0.0 0.0 
-3.156272788522e-03 -1.952438581578e-03 0.0 
-1.952438581578e-03 -2.211664291405e-03 0.0 
0.0 0.0 0.0 
-4.789934093975e-04 1.462017307918e-05 0.0 
1.462017307918e-05 1.167863276732e-02 0.0 
0.0 0.0 0.0 
-1.492280653064e-03 -8.483081996712e-04 0.0 
-8.483081996712e-04 6.888675263441e-04 0.0 
0.0 0.0 0.0 
1.554519934025e-03 4.709327648620e-04 0.0 
4.709327648620e-04 3.786334451670e-03 0.0 
0.0 0.0 0.0 
-6.025172960660e-04 -5.713416493706e-04 0.0 
-5.713416493706e-04 7.322338359428e-05 0.0 
0.0 0.0 0.0 
-1.642930171968e-03 -2.067168789267e-03 0.0 
-2.067168789267e-03 -7.423357701701e-04 0.0 
0.0 0.0 0.0 
1.558388561325e-03 2.130227924417e-04 0.0 
2.130227924417e-04 3.484563008673e-03 0.0 
0.0 0.0 0.0 
6.057304174623e-05 -4.775828564114e-06 0.0 
-4.775828564114e-06 6.649616370269e-03 0.0 
0.0 0.0 0.0 
-6.634469632280e-04 4.834093333753e-05 0.0 
4.834093333753e-05 1.085535198936e-02 0.0 
0.0 0.0 0.0 
-1.164473513248e-03 1.753304841823e-03 0.0 
1.753304841823e-03 8.401677725183e-03 0.0 
0.0 0.0 0.0 
3.711982226444e-04 -3.049750532390e-05 0.0 
-3.049750532390e-05 2.329740707259e-04 0.0 
0.0 0.0 0.0 
1.744940004691e-04 -2.883252059859e-04 0.0 
-2.883252059859e-04 4.880768185920e-03 0.0 
0.0 0.0 0.0 
0.0 1.778400897607e-04 0.0 
1.778400897607e-04 1.288212151235e-02 0.0 
0.0 0.0 0.0 
-1.245879291696e-04 1.926093707992e-04 0.0 
1.926093707992e-04 1.289208289000e-02 0.0 
0.0 0.0 0.0 
-9.367298583419e-04 1.007884192743e-04 0.0 
1.007884192743e-04 9.523141018624e-03 0.0 
0.0 0.0 0.0 
1.503252286508e-03 7.191804601385e-04 0.0 
7.191804601385e-04 4.148637161147e-03 0.0 
0.0 0.0 0.0 
0.0 4.895959973870e-04 0.0 
4.895959973870e-04 1.284347248150e-02 0.0 
0.0 0.0 0.0 
5.572676136347e-04 2.006051623917e-03 0.0 
2.006051623917e-03 6.927568839511e-03 0.0 
0.0 0.0 0.0 
3.807665000410e-04 -2.945227074269e-05 0.0 
-2.945227074269e-05 5.710673820776e-04 0.0 
0.0 0.0 0.0 
5.337988803862e-04 -2.715280487258e-05 0.0 
-2.715280487258e-05 1.750721014995e-04 0.0 
0.0 0.0 0.0 
3.867574321617e-04 -1.197972377431e-05 0.0 
-1.197972377431e-05 2.325144731767e-04 0.0 
0.0 0.0 0.0 
-1.238764852036e-04 -1.502659732412e-05 0.0 
-1.502659732412e-05 3.263568813102e-03 0.0 
0.0 0.0 0.0 
4.798627945668e-06 -3.298950254146e-05 0.0 
-3.298950254146e-05 7.572274107790e-03 0.0 
0.0 0.0 0.0 
-2.091531979628e-04 -2.310637882488e-05 0.0 
-2.310637882488e-05 1.255172707254e-02 0.0 
0.0 0.0 0.0 
5.346699493860e-04 -7.414494837677e-06 0.0 
-7.414494837677e-06 -1.228103144902e-04 0.0 
0.0 0.0 0.0 
-1.023348727860e-04 -6.900731759565e-05 0.0 
-6.900731759565e-05 3.804036633738e-03 0.0 
0.0 0.0 0.0 
0.0 -6.791470791884e-06 0.0 
-6.791470791884e-06 7.610786040003e-03 0.0 
0.0 0.0 0.0 
1.490607423271e-05 -4.749743891567e-06 0.0 
-4.749743891567e-06 7.541398939600e-03 0.0 
0.0 0.0 0.0 
2.275708498496e-04 4.219804438594e-04 0.0 
4.219804438594e-04 7.311006765365e-03 0.0 
0.0 0.0 0.0 
-5.507512830905e-04 5.911945552392e-05 0.0 
5.911945552392e-05 1.131810236764e-02 0.0 
0.0 0.0 0.0 
-4.278873164139e-04 -2.538019473765e-05 0.0 
-2.538019473765e-05 1.186214209093e-02 0.0 
0.0 0.0 0.0 
0.0 -4.034063712084e-06 0.0 
-4.034063712084e-06 7.546757824532e-03 0.0 
0.0 0.0 0.0 
0.0 4.394192238593e-06 0.0 
4.394192238593e-06 7.535809123039e-03 0.0 
0.0 0.0 0.0 
-4.687068373610e-04 6.181231297593e-05 0.0 
6.181231297593e-05 1.168029410784e-02 0.0 
0.0 0.0 0.0 
7.334888048329e-04 1.899165710486e-05 0.0 
1.899165710486e-05 -2.111300855079e-04 0.0 
0.0 0.0 0.0 
-8.045185551688e-04 2.428194319391e-05 0.0 
2.428194319391e-05 9.511957683643e-03 0.0 
0.0 0.0 0.0 
-9.003937952318e-04 7.520889287316e-05 0.0 
7.520889287316e-05 9.540181212483e-03 0.0 
0.0 0.0 0.0 
5.123465060191e-04 -8.405464668716e-06 0.0 
-8.405464668716e-06 -1.068829190201e-04 0.0 
0.0 0.0 0.0 
0.0 1.203081310917e-04 0.0 
1.203081310917e-04 7.445688129597e-03 0.0 
0.0 0.0 0.0 
1.713834329011e-04 3.051713815209e-04 0.0 
3.051713815209e-04 7.319470458910e-03 0.0 
0.0 0.0 0.0 
0.0 2.639920833087e-04 0.0 
2.639920833087e-04 7.326025709949e-03 0.0 
0.0 0.0 0.0 
6.776675335181e-04 -3.129522717904e-06 0.0 
-3.129522717904e-06 -1.670895558812e-04 0.0 
0.0 0.0 0.0 
6.668798895404e-04 -1.090346005065e-05 0.0 
-1.090346005065e-05 -1.612451710195e-04 0.0 
0.0 0.0 0.0 
0.0 4.888843500275e-04 0.0 
4.888843500275e-04 7.309609738843e-03 0.0 
0.0 0.0 0.0 
0.0 3.627480863839e-04 0.0 
3.627480863839e-04 7.312292108361e-03 0.0 
0.0 0.0 0.0 
-5.896698042309e-04 -3.027956287455e-05 0.0 
-3.027956287455e-05 1.112852672912e-02 0.0 
0.0 0.0 0.0 
-7.506615811745e-04 1.120992317281e-05 0.0 
1.120992317281e-05 9.489404238373e-03 0.0 
0.0 0.0 0.0 
-5.119244565979e-04 -2.785941835098e-05 0.0 
-2.785941835098e-05 1.150007041284e-02 0.0 
0.0 0.0 0.0 
-6.852086496136e-04 -3.256661397273e-05 0.0 
-3.256661397273e-05 1.034740444316e-02 0.0 
0.0 0.0 0.0 
-7.251025920273e-04 3.198103347605e-06 0.0 
3.198103347605e-06 9.479918466550e-03 0.0 
0.0 0.0 0.0 
6.930550752393e-04 -2.502214820223e-05 0.0 
-2.502214820223e-05 -1.573360192140e-04 0.0 
0.0 0.0 0.0 
5.886629995524e-04 -3.388539061438e-05 0.0 
-3.388539061438e-05 -9.283459571940e-05 0.0 
0.0 0.0 0.0 
5.117721010555e-04 -4.820508287762e-05 0.0 
-4.820508287762e-05 -8.482128736131e-05 0.0 
0.0 0.0 0.0 
5.115723435976e-04 -5.656272025096e-05 0.0 
-5.656272025096e-05 -7.119451190374e-05 0.0 
0.0 0.0 0.0 
-9.419690046664e-05 -3.717184610091e-06 0.0 
-3.717184610091e-06 3.998437086852e-03 0.0 
0.0 0.0 0.0 
-1.100847257409e-04 -1.174194854139e-05 0.0 
-1.174194854139e-05 3.627887042706e-03 0.0 
0.0 0.0 0.0 
8.368917307444e-05 -3.212780058197e-05 0.0 
-3.212780058197e-05 7.346052294976e-05 0.0 
0.0 0.0 0.0 
-3.033740971492e-05 8.818771433692e-06 0.0 
8.818771433692e-06 5.105908030667e-03 0.0 
0.0 0.0 0.0 
-1.739622883790e-05 -5.926132049357e-05 0.0 
-5.926132049357e-05 1.087757610740e-04 0.0 
0.0 0.0 0.0 
0.0 1.017556168960e-03 0.0 
1.017556168960e-03 1.259944155338e-02 0.0 
0.0 0.0 0.0 
0.0 4.074379514151e-04 0.0 
4.074379514151e-04 1.285685288919e-02 0.0 
0.0 0.0 0.0 
0.0 6.860013189437e-04 0.0 
6.860013189437e-04 1.276137951025e-02 0.0 
0.0 0.0 0.0 
1.340530684992e-04 -7.348877649180e-06 0.0 
-7.348877649180e-06 1.239254372748e-03 0.0 
0.0 0.0 0.0 
-1.023665741688e-04 -1.466740297423e-05 0.0 
-1.466740297423e-05 2.512108964775e-03 0.0 
0.0 0.0 0.0 
0.0 3.201322036282e-04 0.0 
3.201322036282e-04 1.285873703770e-02 0.0 
0.0 0.0 0.0 
-6.729910006165e-06 1.814675459030e-05 0.0 
1.814675459030e-05 6.323446139221e-03 0.0 
0.0 0.0 0.0 
0.0 2.500203939903e-04 0.0 
2.500203939903e-04 1.290927017386e-02 0.0 
0.0 0.0 0.0 
-1.074081545294e-05 2.391294531640e-05 0.0 
2.391294531640e-05 6.745825680161e-03 0.0 
0.0 0.0 0.0 
-1.301626697270e-05 3.160827834823e-05 0.0 
3.160827834823e-05 7.172094488134e-03 0.0 
0.0 0.0 0.0 
-1.170059121681e-04 -7.210736181695e-05 0.0 
-7.210736181695e-05 3.440726811115e-03 0.0 
0.0 0.0 0.0 
-1.538495044036e-04 3.626475076569e-04 0.0 
3.626475076569e-04 1.285783742690e-02 0.0 
0.0 0.0 0.0 
-1.235093914734e-04 3.158385454445e-04 0.0 
3.158385454445e-04 1.287787190824e-02 0.0 
0.0 0.0 0.0 
-8.917245249651e-06 -3.802378669522e-05 0.0 
-3.802378669522e-05 6.505588502074e-03 0.0 
0.0 0.0 0.0 
-1.190341222534e-05 -3.496107911957e-05 0.0 
-3.496107911957e-05 6.941444455622e-03 0.0 
0.0 0.0 0.0 
6.135162173626e-05 -1.639158879355e-04 0.0 
-1.639158879355e-04 5.387838066506e-03 0.0 
0.0 0.0 0.0 
-9.481097121562e-04 -2.933492519420e-04 0.0 
-2.933492519420e-04 5.099474346637e-04 0.0 
0.0 0.0 0.0 
-2.132757731776e-05 -5.102431701426e-04 0.0 
-5.102431701426e-04 3.291285451442e-03 0.0 
0.0 0.0 0.0 
4.557193818404e-04 -5.847595279664e-05 0.0 
-5.847595279664e-05 2.096495181092e-04 0.0 
0.0 0.0 0.0 
2.654822027344e-04 1.044305276300e-05 0.0 
1.044305276300e-05 6.256604046017e-03 0.0 
0.0 0.0 0.0 
1.394618726676e-04 -5.956480899519e-04 0.0 
-5.956480899519e-04 3.392110200232e-03 0.0 
0.0 0.0 0.0 
1.510517470324e-04 -6.561709073972e-05 0.0 
-6.561709073972e-05 5.974987399873e-03 0.0 
0.0 0.0 0.0 
-1.977911399593e-04 -8.243847672901e-04 0.0 
-8.243847672901e-04 1.720830901033e-03 0.0 
0.0 0.0 0.0 
3.026022603692e-05 -1.777215821895e-04 0.0 
-1.777215821895e-04 7.154343253015e-04 0.0 
0.0 0.0 0.0 
7.505725362633e-05 -6.998862306292e-05 0.0 
-6.998862306292e-05 6.413420848214e-03 0.0 
0.0 0.0 0.0 
2.411578063666e-05 -4.677781369888e-04 0.0 
-4.677781369888e-04 3.635943677245e-03 0.0 
0.0 0.0 0.0 
-1.289848349505e-04 -9.786807488695e-05 0.0 
-9.786807488695e-05 3.078758166112e-03 0.0 
0.0 0.0 0.0 
9.590996724729e-05 -1.113166621048e-04 0.0 
-1.113166621048e-04 5.982589331035e-03 0.0 
0.0 0.0 0.0 
-3.204902824741e-04 1.661998987237e-04 0.0 
1.661998987237e-04 1.217382950575e-02 0.0 
0.0 0.0 0.0 
-1.244446411124e-04 -6.872116717658e-05 0.0 
-6.872116717658e-05 3.079309242007e-03 0.0 
0.0 0.0 0.0 
9.372579228932e-04 8.064115788537e-05 0.0 
8.064115788537e-05 4.732253914564e-03 0.0 
0.0 0.0 0.0 
6.007668213075e-04 -3.362607889050e-04 0.0 
-3.362607889050e-04 4.406382869877e-03 0.0 
0.0 0.0 0.0 
1.205706083776e-04 -1.338452013195e-04 0.0 
-1.338452013195e-04 5.382850401229e-03 0.0 
0.0 0.0 0.0 
6.694761822312e-05 -8.588251388738e-05 0.0 
-8.588251388738e-05 5.617325976838e-03 0.0 
0.0 0.0 0.0 
2.265593255398e-03 1.487093262716e-03 0.0 
1.487093262716e-03 3.319195499811e-04 0.0 
0.0 0.0 0.0 
-1.274702137568e-03 1.688011339026e-03 0.0 
1.688011339026e-03 8.229173135500e-03 0.0 
0.0 0.0 0.0 
7.069044896975e-04 2.430573258020e-03 0.0 
2.430573258020e-03 4.815060064929e-03 0.0 
0.0 0.0 0.0 
2.696326124598e-04 -2.546774590846e-04 0.0 
-2.546774590846e-04 4.875017993614e-03 0.0 
0.0 0.0 0.0 
4.957685318163e-05 -8.566579806800e-05 0.0 
-8.566579806800e-05 6.228268790630e-03 0.0 
0.0 0.0 0.0 
2.757514000296e-05 -4.285032588019e-05 0.0 
-4.285032588019e-05 5.841244670999e-03 0.0 
0.0 0.0 0.0 
-2.196829606158e-04 -1.374685873674e-03 0.0 
-1.374685873674e-03 1.543728722749e-03 0.0 
0.0 0.0 0.0 
-3.505684141936e-04 2.773525131914e-04 0.0 
2.773525131914e-04 1.214940175260e-02 0.0 
0.0 0.0 0.0 
-4.598372940704e-04 2.404353069453e-04 0.0 
2.404353069453e-04 1.180507411540e-02 0.0 
0.0 0.0 0.0 
-7.448838815527e-04 9.190989650385e-05 0.0 
9.190989650385e-05 1.006495336251e-02 0.0 
0.0 0.0 0.0 
3.557601359250e-04 -2.230142209483e-04 0.0 
-2.230142209483e-04 5.012000811134e-03 0.0 
0.0 0.0 0.0 
1.876954944242e-04 -1.910804139353e-04 0.0 
-1.910804139353e-04 5.136720812373e-03 0.0 
0.0 0.0 0.0 
-3.658101668668e-04 1.240553061448e-04 0.0 
1.240553061448e-04 1.218660864040e-02 0.0 
0.0 0.0 0.0 
-4.025238646156e-04 2.092490767776e-04 0.0 
2.092490767776e-04 1.199542324374e-02 0.0 
0.0 0.0 0.0 
5.761505630719e-04 -4.626079727661e-04 0.0 
-4.626079727661e-04 4.089152027983e-03 0.0 
0.0 0.0 0.0 
3.674437455659e-05 -5.792096536114e-05 0.0 
-5.792096536114e-05 6.654442591885e-03 0.0 
0.0 0.0 0.0 
-5.598441934717e-04 4.348697881744e-04 0.0 
4.348697881744e-04 1.172260992456e-02 0.0 
0.0 0.0 0.0 
1.642754576592e-06 -7.092237878230e-05 0.0 
-7.092237878230e-05 5.841218262286e-03 0.0 
0.0 0.0 0.0 
1.807325594121e-04 -5.459174388268e-06 0.0 
-5.459174388268e-06 6.560985673163e-03 0.0 
0.0 0.0 0.0 
-4.011142144240e-04 2.349267973072e-04 0.0 
2.349267973072e-04 1.215677443235e-02 0.0 
0.0 0.0 0.0 
-6.673292252526e-04 1.698804332407e-04 0.0 
1.698804332407e-04 1.125411017005e-02 0.0 
0.0 0.0 0.0 
8.840703676454e-04 -8.999039439231e-05 0.0 
-8.999039439231e-05 4.518249255269e-03 0.0 
0.0 0.0 0.0 
-1.103460085844e-04 -2.938972322921e-04 0.0 
-2.938972322921e-04 1.921847943437e-03 0.0 
0.0 0.0 0.0 
-2.646656438745e-04 -1.629340246874e-03 0.0 
-1.629340246874e-03 1.260212333900e-03 0.0 
0.0 0.0 0.0 
-2.096466036294e-04 -4.657458926176e-04 0.0 
-4.657458926176e-04 9.326582494380e-04 0.0 
0.0 0.0 0.0 
-9.534068287769e-04 -1.346851049021e-03 0.0 
-1.346851049021e-03 1.884157037968e-04 0.0 
0.0 0.0 0.0 
-4.335240342468e-04 1.647403382699e-04 0.0 
1.647403382699e-04 1.199982610544e-02 0.0 
0.0 0.0 0.0 
4.290798156936e-05 -1.494631720961e-05 0.0 
-1.494631720961e-05 6.448282838256e-03 0.0 
0.0 0.0 0.0 
-5.229818673188e-04 -7.991453509889e-04 0.0 
-7.991453509889e-04 3.472862523211e-04 0.0 
0.0 0.0 0.0 
-7.399460505060e-04 1.500786412205e-03 0.0 
1.500786412205e-03 1.122086447062e-02 0.0 
0.0 0.0 0.0 
-7.466307705353e-04 1.189007340508e-04 0.0 
1.189007340508e-04 1.026016722489e-02 0.0 
0.0 0.0 0.0 
1.568395962124e-04 -1.460683631528e-04 0.0 
-1.460683631528e-04 5.727165405488e-03 0.0 
0.0 0.0 0.0 
5.849751552001e-05 -4.610190546129e-05 0.0 
-4.610190546129e-05 6.026005155736e-03 0.0 
0.0 0.0 0.0 
7.484611930273e-04 -1.497385636199e-03 0.0 
-1.497385636199e-03 1.413373284058e-03 0.0 
0.0 0.0 0.0 
2.322969417690e-05 -8.669253406013e-05 0.0 
-8.669253406013e-05 6.032024232863e-03 0.0 
0.0 0.0 0.0 
-7.814244531376e-04 2.368855263119e-05 0.0 
2.368855263119e-05 1.006344317622e-02 0.0 
0.0 0.0 0.0 
1.320159662739e-03 1.331884365429e-03 0.0 
1.331884365429e-03 4.933263225234e-03 0.0 
0.0 0.0 0.0 
1.392022998157e-04 6.039900408908e-05 0.0 
6.039900408908e-05 6.836673892041e-03 0.0 
0.0 0.0 0.0 
-4.787467536405e-05 -1.498255616082e-04 0.0 
-1.498255616082e-04 1.855411988040e-03 0.0 
0.0 0.0 0.0 
2.808494009148e-04 8.287391501151e-05 0.0 
8.287391501151e-05 6.479842424624e-03 0.0 
0.0 0.0 0.0 
-5.999950266597e-04 1.562560034490e-04 0.0 
1.562560034490e-04 1.145381211608e-02 0.0 
0.0 0.0 0.0 
-1.011436636120e-04 -2.289243790916e-04 0.0 
-2.289243790916e-04 2.097261523928e-03 0.0 
0.0 0.0 0.0 
-3.423540701331e-05 -1.546807628975e-03 0.0 
-1.546807628975e-03 1.388402390345e-03 0.0 
0.0 0.0 0.0 
-1.704733518526e-05 -1.789146560086e-04 0.0 
-1.789146560086e-04 4.292619401404e-03 0.0 
0.0 0.0 0.0 
-7.248752751082e-04 2.242239725754e-04 0.0 
2.242239725754e-04 1.084406932592e-02 0.0 
0.0 0.0 0.0 
-2.134845078461e-05 -6.933273214733e-04 0.0 
-6.933273214733e-04 2.738087569843e-03 0.0 
0.0 0.0 0.0 
-5.329792894648e-04 1.345408612563e-04 0.0 
1.345408612563e-04 1.165178098190e-02 0.0 
0.0 0.0 0.0 
-6.679384879787e-04 1.115556540629e-04 0.0 
1.115556540629e-04 1.107365511640e-02 0.0 
0.0 0.0 0.0 
1.354390306589e-04 -4.132898883113e-04 0.0 
-4.132898883113e-04 3.994119597523e-03 0.0 
0.0 0.0 0.0 
2.311093342788e-05 -1.136222811912e-04 0.0 
-1.136222811912e-04 5.619357259667e-03 0.0 
0.0 0.0 0.0 
5.923395405016e-05 -1.221403615100e-04 0.0 
-1.221403615100e-04 5.802205915468e-03 0.0 
0.0 0.0 0.0 
-5.492463726023e-04 2.027021266807e-04 0.0 
2.027021266807e-04 1.144695393926e-02 0.0 
0.0 0.0 0.0 
-5.770358442958e-05 -3.579104902302e-04 0.0 
-3.579104902302e-04 1.574765201172e-03 0.0 
0.0 0.0 0.0 
4.567940077993e-05 -3.715448749961e-04 0.0 
-3.715448749961e-04 3.870414949699e-03 0.0 
0.0 0.0 0.0 
7.740833085410e-04 1.835206015760e-03 0.0 
1.835206015760e-03 6.664142506690e-03 0.0 
0.0 0.0 0.0 
-5.874360802357e-04 2.195424588651e-04 0.0 
2.195424588651e-04 1.161711216033e-02 0.0 
0.0 0.0 0.0 
1.658845000696e-06 -4.152027451561e-04 0.0 
-4.152027451561e-04 3.514343473303e-03 0.0 
0.0 0.0 0.0 
4.521088977456e-04 -3.952069121870e-04 0.0 
-3.952069121870e-04 4.416792717375e-03 0.0 
0.0 0.0 0.0 
3.835619438177e-04 1.063088677324e-04 0.0 
1.063088677324e-04 6.202315954621e-03 0.0 
0.0 0.0 0.0 
-6.074678230692e-04 2.148114074707e-04 0.0 
2.148114074707e-04 1.124866724638e-02 0.0 
0.0 0.0 0.0 
1.499416255035e-03 -7.046299272201e-04 0.0 
-7.046299272201e-04 -4.370264532184e-03 0.0 
0.0 0.0 0.0 
6.971212994644e-06 -2.796001211089e-04 0.0 
-2.796001211089e-04 8.428466754102e-04 0.0 
0.0 0.0 0.0 
2.769690975496e-03 4.201203113788e-04 0.0 
4.201203113788e-04 -2.973240192544e-03 0.0 
0.0 0.0 0.0 
8.852291020256e-05 -3.632796107652e-05 0.0 
-3.632796107652e-05 6.220596805834e-03 0.0 
0.0 0.0 0.0 
-6.682553123177e-04 2.224487465331e-04 0.0 
2.224487465331e-04 1.104832578844e-02 0.0 
0.0 0.0 0.0 
-2.881780967545e-05 -1.518209741744e-04 0.0 
-1.518209741744e-04 4.660549911923e-03 0.0 
0.0 0.0 0.0 
-7.636537071668e-04 1.620683411412e-04 0.0 
1.620683411412e-04 1.045719180950e-02 0.0 
0.0 0.0 0.0 
7.892709593211e-04 3.951861650286e-04 0.0 
3.951861650286e-04 5.574913014363e-03 0.0 
0.0 0.0 0.0 
8.144198655047e-05 -3.145295774158e-04 0.0 
-3.145295774158e-04 4.231921776517e-03 0.0 
0.0 0.0 0.0 
1.099609900928e-04 -8.109435070446e-05 0.0 
-8.109435070446e-05 5.795621806839e-03 0.0 
0.0 0.0 0.0 
-4.270977512588e-05 -2.488477294508e-04 0.0 
-2.488477294508e-04 1.914113442839e-03 0.0 
0.0 0.0 0.0 
2.283997090946e-04 7.406944628626e-05 0.0 
7.406944628626e-05 6.564268767902e-03 0.0 
0.0 0.0 0.0 
5.694836274195e-05 -4.130683073192e-04 0.0 
-4.130683073192e-04 3.994571612530e-03 0.0 
0.0 0.0 0.0 
-5.391772097807e-05 -1.910051852660e-04 0.0 
-1.910051852660e-04 2.091080162589e-03 0.0 
0.0 0.0 0.0 
-9.983425534044e-06 -3.625950589898e-04 0.0 
-3.625950589898e-04 3.869324067795e-03 0.0 
0.0 0.0 0.0 
-3.453357048022e-05 -5.664095702174e-04 0.0 
-5.664095702174e-04 2.958577050157e-03 0.0 
0.0 0.0 0.0 
-1.078062071777e-04 -7.715536751127e-04 0.0 
-7.715536751127e-04 2.205685481703e-03 0.0 
0.0 0.0 0.0 
6.723125331343e-06 -1.453213074461e-04 0.0 
-1.453213074461e-04 4.658960392007e-03 0.0 
0.0 0.0 0.0 
3.602293972242e-04 1.629474490142e-05 0.0 
1.629474490142e-05 -3.985098897330e-05 0.0 
0.0 0.0 0.0 
2.583464682397e-04 -3.785786155616e-05 0.0 
-3.785786155616e-05 1.268390038289e-05 0.0 
0.0 0.0 0.0 
1.115022901073e-04 -2.229479570366e-04 0.0 
-2.229479570366e-04 5.142064400997e-03 0.0 
0.0 0.0 0.0 
-3.745656337939e-05 -3.004568428720e-04 0.0 
-3.004568428720e-04 1.744527265960e-03 0.0 
0.0 0.0 0.0 
2.499540664247e-04 -2.687629370199e-04 0.0 
-2.687629370199e-04 5.019652368870e-03 0.0 
0.0 0.0 0.0 
3.432589785444e-04 -3.296929876452e-04 0.0 
-3.296929876452e-04 4.726973998747e-03 0.0 
0.0 0.0 0.0 
2.641008709556e-04 -8.638469979836e-04 0.0 
-8.638469979836e-04 2.850164165115e-03 0.0 
0.0 0.0 0.0 
7.112863574099e-04 -1.901647403537e-03 0.0 
-1.901647403537e-03 6.295217621182e-04 0.0 
0.0 0.0 0.0 
-5.511490876795e-04 3.771899301641e-04 0.0 
3.771899301641e-04 1.191861627425e-02 0.0 
0.0 0.0 0.0 
1.112034347200e-03 2.509335109088e-03 0.0 
2.509335109088e-03 -2.545931350780e-03 0.0 
0.0 0.0 0.0 
-4.897578132113e-05 -4.516593972922e-04 0.0 
-4.516593972922e-04 3.167576628437e-03 0.0 
0.0 0.0 0.0 
7.379904187563e-04 5.973692612515e-04 0.0 
5.973692612515e-04 5.869917856628e-03 0.0 
0.0 0.0 0.0 
-5.118527711923e-05 -2.345809907040e-04 0.0 
-2.345809907040e-04 1.513754430771e-03 0.0 
0.0 0.0 0.0 
-7.808250588200e-04 1.250749421934e-04 0.0 
1.250749421934e-04 1.067185500488e-02 0.0 
0.0 0.0 0.0 
-8.084843123950e-04 6.564674447288e-05 0.0 
6.564674447288e-05 1.026756519258e-02 0.0 
0.0 0.0 0.0 
-2.125475598608e-04 -6.689967049523e-04 0.0 
-6.689967049523e-04 1.432597641654e-03 0.0 
0.0 0.0 0.0 
5.101968622343e-04 1.467223287484e-04 0.0 
1.467223287484e-04 5.891144120215e-03 0.0 
0.0 0.0 0.0 
-7.405822142116e-04 3.276557720541e-04 0.0 
3.276557720541e-04 1.138086704802e-02 0.0 
0.0 0.0 0.0 
-1.360754151221e-04 -3.584387435206e-04 0.0 
-3.584387435206e-04 1.757178602867e-03 0.0 
0.0 0.0 0.0 
-5.281879247775e-04 4.709504954701e-04 0.0 
4.709504954701e-04 1.205309313964e-02 0.0 
0.0 0.0 0.0 
-4.402484059918e-04 5.036670834832e-04 0.0 
5.036670834832e-04 1.204745169724e-02 0.0 
0.0 0.0 0.0 
-9.794885445813e-05 -4.417732958364e-04 0.0 
-4.417732958364e-04 1.938984529980e-03 0.0 
0.0 0.0 0.0 
-5.537573866429e-04 2.806183585330e-03 0.0 
2.806183585330e-03 5.039114912744e-03 0.0 
0.0 0.0 0.0 
-1.547928718426e-04 -7.071999234052e-04 0.0 
-7.071999234052e-04 1.910876838630e-03 0.0 
0.0 0.0 0.0 
1.090168840756e-04 -1.634785812894e-04 0.0 
-1.634785812894e-04 5.556836276601e-03 0.0 
0.0 0.0 0.0 
3.826121831785e-05 -2.247362847226e-04 0.0 
-2.247362847226e-04 4.454004368119e-03 0.0 
0.0 0.0 0.0 
-6.053620080909e-04 1.285737293276e-03 0.0 
1.285737293276e-03 1.153981969304e-02 0.0 
0.0 0.0 0.0 
-4.758130749295e-04 4.116972910429e-04 0.0 
4.116972910429e-04 1.191430579996e-02 0.0 
0.0 0.0 0.0 
1.721447827792e-04 -2.131514982754e-04 0.0 
-2.131514982754e-04 5.296588691993e-03 0.0 
0.0 0.0 0.0 
2.577687565040e-04 -1.707373989575e-04 0.0 
-1.707373989575e-04 5.289593645966e-03 0.0 
0.0 0.0 0.0 
-3.123734917733e-04 -6.792906654979e-04 0.0 
-6.792906654979e-04 1.611883758521e-03 0.0 
0.0 0.0 0.0 
1.759861362420e-04 -1.235541137203e-04 0.0 
-1.235541137203e-04 5.550333037323e-03 0.0 
0.0 0.0 0.0 
-6.552104443107e-04 3.621635780678e-04 0.0 
3.621635780678e-04 1.137654658371e-02 0.0 
0.0 0.0 0.0 
-9.111973935827e-06 -2.261719119891e-04 0.0 
-2.261719119891e-04 4.454510974226e-03 0.0 
0.0 0.0 0.0 
-7.329732381914e-04 1.796236102666e-04 0.0 
1.796236102666e-04 1.105352809308e-02 0.0 
0.0 0.0 0.0 
-6.569957903465e-04 3.134731470674e-04 0.0 
3.134731470674e-04 1.157788281579e-02 0.0 
0.0 0.0 0.0 
1.831899453595e-03 1.630273104255e-03 0.0 
1.630273104255e-03 2.443801929328e-03 0.0 
0.0 0.0 0.0 
-5.035015088656e-04 3.330614580846e-04 0.0 
3.330614580846e-04 1.176829631850e-02 0.0 
0.0 0.0 0.0 
-2.776128322701e-05 -3.120917785467e-04 0.0 
-3.120917785467e-04 3.744452246710e-03 0.0 
0.0 0.0 0.0 
1.809231135286e-05 -3.147638252809e-04 0.0 
-3.147638252809e-04 4.232350115896e-03 0.0 
0.0 0.0 0.0 
-9.844717147756e-05 -4.616236602701e-04 0.0 
-4.616236602701e-04 2.832955529182e-03 0.0 
0.0 0.0 0.0 
2.701530670699e-04 -1.181895602795e-03 0.0 
-1.181895602795e-03 2.217001708791e-03 0.0 
0.0 0.0 0.0 
-6.628420315222e-04 2.865411484572e-04 0.0 
2.865411484572e-04 1.121652690558e-02 0.0 
0.0 0.0 0.0 
8.644206239024e-04 -7.764776751700e-04 0.0 
-7.764776751700e-04 2.925118182506e-03 0.0 
0.0 0.0 0.0 
-1.242614699154e-04 -5.989565609757e-04 0.0 
-5.989565609757e-04 2.099079219643e-03 0.0 
0.0 0.0 0.0 
-1.516290657062e-04 -4.510465275324e-04 0.0 
-4.510465275324e-04 1.107173447764e-03 0.0 
0.0 0.0 0.0 
-7.378683586290e-04 2.482539373238e-04 0.0 
2.482539373238e-04 1.122125082418e-02 0.0 
0.0 0.0 0.0 
-1.888055777205e-04 -6.638802768073e-04 0.0 
-6.638802768073e-04 2.109524663711e-03 0.0 
0.0 0.0 0.0 
3.394800776777e-04 1.624528666262e-04 0.0 
1.624528666262e-04 6.471721657624e-03 0.0 
0.0 0.0 0.0 
-5.951195264752e-04 2.777768076786e-04 0.0 
2.777768076786e-04 1.141528363644e-02 0.0 
0.0 0.0 0.0 
2.293703496050e-04 -9.576122265019e-05 0.0 
-9.576122265019e-05 5.719113145902e-03 0.0 
0.0 0.0 0.0 
3.128150462315e-04 1.119881061507e-03 0.0 
1.119881061507e-03 6.944413355966e-03 0.0 
0.0 0.0 0.0 
-3.941712190259e-05 -3.997827224506e-04 0.0 
-3.997827224506e-04 3.511562438343e-03 0.0 
0.0 0.0 0.0 
-1.857223114730e-04 -4.986430091118e-04 0.0 
-4.986430091118e-04 1.948284597597e-03 0.0 
0.0 0.0 0.0 
-3.164551875320e-04 -5.187777881478e-04 0.0 
-5.187777881478e-04 1.258923172835e-03 0.0 
0.0 0.0 0.0 
3.250033732232e-04 -2.270753581920e-04 0.0 
-2.270753581920e-04 5.162843939922e-03 0.0 
0.0 0.0 0.0 
-6.734711954663e-04 1.712060519262e-04 0.0 
1.712060519262e-04 1.087488938831e-02 0.0 
0.0 0.0 0.0 
-1.930055681365e-04 -3.499830316765e-04 0.0 
-3.499830316765e-04 8.630109312300e-04 0.0 
0.0 0.0 0.0 
-4.738800701776e-05 -6.532960528052e-04 0.0 
-6.532960528052e-04 2.732093029333e-03 0.0 
0.0 0.0 0.0 
2.450384813613e-05 -1.552162736366e-04 0.0 
-1.552162736366e-04 1.686170172496e-03 0.0 
0.0 0.0 0.0 
-7.948082811073e-04 1.845581184239e-04 0.0 
1.845581184239e-04 1.084889505125e-02 0.0 
0.0 0.0 0.0 
-5.717369041258e-05 -5.331100468447e-04 0.0 
-5.331100468447e-04 2.953614131032e-03 0.0 
0.0 0.0 0.0 
4.702926598195e-04 -2.791515825846e-04 0.0 
-2.791515825846e-04 4.718170896018e-03 0.0 
0.0 0.0 0.0 
-9.462026036966e-05 -4.223460042856e-04 0.0 
-4.223460042856e-04 2.828847059782e-03 0.0 
0.0 0.0 0.0 
-5.109852612738e-04 1.956903884310e-04 0.0 
1.956903884310e-04 1.181112752433e-02 0.0 
0.0 0.0 0.0 
-1.097415599354e-04 -6.977660117991e-04 0.0 
-6.977660117991e-04 2.425090831183e-03 0.0 
0.0 0.0 0.0 
5.147898668876e-04 -1.932099580730e-04 0.0 
-1.932099580730e-04 5.004757657475e-03 0.0 
0.0 0.0 0.0 
-2.695551909272e-04 -1.519911120743e-03 0.0 
-1.519911120743e-03 1.243101535240e-03 0.0 
0.0 0.0 0.0 
4.331740334920e-04 -2.738266696574e-04 0.0 
-2.738266696574e-04 4.857650526524e-03 0.0 
0.0 0.0 0.0 
-3.510192100986e-05 -2.576734155527e-04 0.0 
-2.576734155527e-04 4.095616167790e-03 0.0 
0.0 0.0 0.0 
3.250709509171e-04 -1.309487570416e-04 0.0 
-1.309487570416e-04 5.444299416164e-03 0.0 
0.0 0.0 0.0 
2.489302781665e-03 -4.289128573489e-05 0.0 
-4.289128573489e-05 -5.306514328010e-04 0.0 
0.0 0.0 0.0 
-4.777955801305e-05 -1.922561080852e-04 0.0 
-1.922561080852e-04 1.696670174194e-03 0.0 
0.0 0.0 0.0 
-7.657825623535e-04 7.706334722476e-05 0.0 
7.706334722476e-05 1.048839675653e-02 0.0 
0.0 0.0 0.0 
1.422259669696e-03 2.747605138325e-04 0.0 
2.747605138325e-04 3.816225314571e-03 0.0 
0.0 0.0 0.0 
-1.609861805107e-04 2.547674909536e-03 0.0 
2.547674909536e-03 5.734682648358e-03 0.0 
0.0 0.0 0.0 
-7.266349647918e-04 1.215739364431e-04 0.0 
1.215739364431e-04 1.087652653423e-02 0.0 
0.0 0.0 0.0 
-1.510495456225e-05 -1.823861791432e-03 0.0 
-1.823861791432e-03 9.821460945325e-04 0.0 
0.0 0.0 0.0 
-7.989039061729e-04 3.680619964317e-04 0.0 
3.680619964317e-04 1.097107632507e-02 0.0 
0.0 0.0 0.0 
3.237942757717e-05 -2.008268920456e-04 0.0 
-2.008268920456e-04 1.498034953241e-03 0.0 
0.0 0.0 0.0 
3.708322406872e-04 7.987819629821e-06 0.0 
7.987819629821e-06 5.987354527275e-03 0.0 
0.0 0.0 0.0 
1.406231689584e-03 5.322088226392e-04 0.0 
5.322088226392e-04 4.177217147390e-03 0.0 
0.0 0.0 0.0 
1.135306477474e-03 1.525734164036e-03 0.0 
1.525734164036e-03 5.524982139939e-03 0.0 
0.0 0.0 0.0 
-4.226186783965e-04 4.381779212456e-04 0.0 
4.381779212456e-04 1.225026861485e-02 0.0 
0.0 0.0 0.0 
8.722043576739e-04 -5.860974923161e-04 0.0 
-5.860974923161e-04 3.378509799428e-03 0.0 
0.0 0.0 0.0 
-1.764750339601e-04 -4.150332421113e-04 0.0 
-4.150332421113e-04 1.588634935892e-03 0.0 
0.0 0.0 0.0 
6.958379353212e-04 -3.673956753147e-04 0.0 
-3.673956753147e-04 4.202207308252e-03 0.0 
0.0 0.0 0.0 
4.492628670327e-04 1.994326280597e-04 0.0 
1.994326280597e-04 6.187500075856e-03 0.0 
0.0 0.0 0.0 
6.220796476353e-04 -1.757796398255e-03 0.0 
-1.757796398255e-03 9.229945398244e-04 0.0 
0.0 0.0 0.0 
2.329228105271e-04 -1.840824965182e-04 0.0 
-1.840824965182e-04 5.452933350213e-03 0.0 
0.0 0.0 0.0 
-6.635616640671e-04 2.361084136420e-04 0.0 
2.361084136420e-04 1.142038812781e-02 0.0 
0.0 0.0 0.0 
1.000703073989e-03 -2.061700637823e-03 0.0 
-2.061700637823e-03 -4.921779886302e-05 0.0 
0.0 0.0 0.0 
5.567723436906e-04 -3.217880174708e-04 0.0 
-3.217880174708e-04 4.537748569990e-03 0.0 
0.0 0.0 0.0 
-9.006704327282e-04 1.781763241632e-04 0.0 
1.781763241632e-04 1.042597216534e-02 0.0 
0.0 0.0 0.0 
-8.825012670277e-05 -2.908279840584e-04 0.0 
-2.908279840584e-04 2.299503698722e-03 0.0 
0.0 0.0 0.0 
-4.020833942442e-05 -7.884351144272e-04 0.0 
-7.884351144272e-04 2.500473618257e-03 0.0 
0.0 0.0 0.0 
1.476643220146e-04 2.369413934418e-03 0.0 
2.369413934418e-03 6.331414659072e-03 0.0 
0.0 0.0 0.0 
4.375236459442e-04 -1.696352354447e-04 0.0 
-1.696352354447e-04 5.153339060071e-03 0.0 
0.0 0.0 0.0 
-7.420572385808e-04 2.436612478685e-03 0.0 
2.436612478685e-03 6.743708397642e-03 0.0 
0.0 0.0 0.0 
4.175323181765e-04 2.420207465907e-03 0.0 
2.420207465907e-03 5.594947350806e-03 0.0 
0.0 0.0 0.0 
-7.286746915575e-04 3.672400988788e-04 0.0 
3.672400988788e-04 1.117582310184e-02 0.0 
0.0 0.0 0.0 
-7.201127305096e-04 1.713855069764e-04 0.0 
1.713855069764e-04 1.066627686211e-02 0.0 
0.0 0.0 0.0 
-8.455727692838e-04 2.775394515622e-04 0.0 
2.775394515622e-04 1.060185421881e-02 0.0 
0.0 0.0 0.0 
9.646748116543e-06 -2.739621455468e-04 0.0 
-2.739621455468e-04 4.098642088492e-03 0.0 
0.0 0.0 0.0 
6.510700663063e-04 1.765940973628e-04 0.0 
1.765940973628e-04 5.594407618209e-03 0.0 
0.0 0.0 0.0 
8.501704151140e-04 -4.065389565078e-04 0.0 
-4.065389565078e-04 3.851937282774e-03 0.0 
0.0 0.0 0.0 
-8.338077715579e-04 1.231962901451e-04 0.0 
1.231962901451e-04 1.046186648616e-02 0.0 
0.0 0.0 0.0 
-6.338196795797e-04 1.670673912608e-03 0.0 
1.670673912608e-03 1.116726129187e-02 0.0 
0.0 0.0 0.0 
9.336957051971e-04 1.685392364748e-03 0.0 
1.685392364748e-03 6.128260132935e-03 0.0 
0.0 0.0 0.0 
5.663211269455e-04 -2.090849515337e-04 0.0 
-2.090849515337e-04 4.846892254283e-03 0.0 
0.0 0.0 0.0 
-5.795462187577e-04 3.502620742081e-04 0.0 
3.502620742081e-04 1.157331525872e-02 0.0 
0.0 0.0 0.0 
2.058073294828e-04 -1.010119959397e-03 0.0 
-1.010119959397e-03 2.547782246287e-03 0.0 
0.0 0.0 0.0 
6.031162852449e-05 -9.156385633900e-04 0.0 
-9.156385633900e-04 2.541622404865e-03 0.0 
0.0 0.0 0.0 
-1.574938245010e-04 -5.922713185803e-04 0.0 
-5.922713185803e-04 1.597583673163e-03 0.0 
0.0 0.0 0.0 
8.012234450432e-04 -2.416439297977e-04 0.0 
-2.416439297977e-04 4.342430342157e-03 0.0 
0.0 0.0 0.0 
3.247373434512e-05 -7.659022613774e-04 0.0 
-7.659022613774e-04 2.806837068545e-03 0.0 
0.0 0.0 0.0 
-8.093692738974e-04 2.541349420822e-04 0.0 
2.541349420822e-04 1.101846293129e-02 0.0 
0.0 0.0 0.0 
-8.775715145213e-04 2.560854378601e-04 0.0 
2.560854378601e-04 1.081248841763e-02 0.0 
0.0 0.0 0.0 
1.949795244949e-03 9.977379457394e-04 0.0 
9.977379457394e-04 2.480717597791e-03 0.0 
0.0 0.0 0.0 
3.878195180551e-07 -9.889029332110e-04 0.0 
-9.889029332110e-04 2.263224729773e-03 0.0 
0.0 0.0 0.0 
2.333771333881e-03 1.613254176216e-03 0.0 
1.613254176216e-03 -4.303119663428e-04 0.0 
0.0 0.0 0.0 
-1.012320088623e-05 -8.338407889982e-04 0.0 
-8.338407889982e-04 2.507327834298e-03 0.0 
0.0 0.0 0.0 
1.434209833837e-04 -9.444378405819e-04 0.0 
-9.444378405819e-04 2.545570083091e-03 0.0 
0.0 0.0 0.0 
-2.383969283591e-04 -5.889578983375e-04 0.0 
-5.889578983375e-04 1.782060218826e-03 0.0 
0.0 0.0 0.0 
8.017991566629e-04 2.178090244066e-04 0.0 
2.178090244066e-04 5.289748747313e-03 0.0 
0.0 0.0 0.0 
8.308058829711e-04 -9.798399470392e-04 0.0 
-9.798399470392e-04 2.493792453370e-03 0.0 
0.0 0.0 0.0 
-5.718079552031e-04 2.924245813211e-04 0.0 
2.924245813211e-04 1.177330857391e-02 0.0 
0.0 0.0 0.0 
1.076286062295e-03 -8.658501454448e-04 0.0 
-8.658501454448e-04 2.477774695302e-03 0.0 
0.0 0.0 0.0 
8.708289783552e-04 -2.768774477877e-04 0.0 
-2.768774477877e-04 4.187380762749e-03 0.0 
0.0 0.0 0.0 
9.179242444466e-04 -6.125315678159e-04 0.0 
-6.125315678159e-04 3.290765017060e-03 0.0 
0.0 0.0 0.0 
1.009184821758e-03 2.256828607408e-03 0.0 
2.256828607408e-03 4.437586768580e-03 0.0 
0.0 0.0 0.0 
-1.229733083654e-04 -5.144174399403e-04 0.0 
-5.144174399403e-04 1.768961571413e-03 0.0 
0.0 0.0 0.0 
5.929154899016e-04 2.299521569512e-04 0.0 
2.299521569512e-04 5.875061716381e-03 0.0 
0.0 0.0 0.0 
4.972385620088e-04 2.683529199495e-04 0.0 
2.683529199495e-04 6.184254752679e-03 0.0 
0.0 0.0 0.0 
-9.354532018691e-05 2.147509666006e-03 0.0 
2.147509666006e-03 7.668328278795e-03 0.0 
0.0 0.0 0.0 
3.433238202235e-04 -1.014730818085e-03 0.0 
-1.014730818085e-03 2.547675014103e-03 0.0 
0.0 0.0 0.0 
9.099491845137e-04 -4.390059767477e-04 0.0 
-4.390059767477e-04 3.728377945583e-03 0.0 
0.0 0.0 0.0 
-7.274998958957e-04 2.900266025865e-04 0.0 
2.900266025865e-04 1.101402662228e-02 0.0 
0.0 0.0 0.0 
1.506223195915e-04 -8.544300109898e-04 0.0 
-8.544300109898e-04 2.849387288264e-03 0.0 
0.0 0.0 0.0 
2.719420298996e-04 2.674347905095e-03 0.0 
2.674347905095e-03 4.937108368199e-03 0.0 
0.0 0.0 0.0 
-9.634397277469e-05 -6.446105873990e-04 0.0 
-6.446105873990e-04 2.416805064434e-03 0.0 
0.0 0.0 0.0 
3.684402062725e-04 -1.977688235157e-03 0.0 
-1.977688235157e-03 6.432898854987e-04 0.0 
0.0 0.0 0.0 
3.904376001536e-04 -1.059117873113e-03 0.0 
-1.059117873113e-03 2.528300813884e-03 0.0 
0.0 0.0 0.0 
-1.552354779192e-04 -5.541381270923e-04 0.0 
-5.541381270923e-04 2.295803842884e-03 0.0 
0.0 0.0 0.0 
-8.753811338069e-05 -3.646878364053e-04 0.0 
-3.646878364053e-04 2.117951110202e-03 0.0 
0.0 0.0 0.0 
7.084416207830e-04 -6.978283225495e-04 0.0 
-6.978283225495e-04 3.305070580146e-03 0.0 
0.0 0.0 0.0 
7.111584161834e-04 -2.457939818036e-04 0.0 
-2.457939818036e-04 4.525191608706e-03 0.0 
0.0 0.0 0.0 
-1.300139058291e-04 2.106274438279e-03 0.0 
2.106274438279e-03 8.959487359463e-03 0.0 
0.0 0.0 0.0 
5.661231025689e-04 -3.187683938536e-05 0.0 
-3.187683938536e-05 -1.147593304072e-04 0.0 
0.0 0.0 0.0 
1.744951955356e-03 -6.149760532474e-04 0.0 
-6.149760532474e-04 1.593938919889e-03 0.0 
0.0 0.0 0.0 
1.284867631477e-03 -9.106236605750e-04 0.0 
-9.106236605750e-04 2.040402566167e-03 0.0 
0.0 0.0 0.0 
5.805404620485e-04 -1.029011386563e-03 0.0 
-1.029011386563e-03 2.522964668116e-03 0.0 
0.0 0.0 0.0 
-7.884232462685e-04 2.861371160363e-04 0.0 
2.861371160363e-04 1.080874959532e-02 0.0 
0.0 0.0 0.0 
8.922721214080e-04 -7.942307688901e-04 0.0 
-7.942307688901e-04 2.877623663639e-03 0.0 
0.0 0.0 0.0 
-9.984952386555e-05 -5.740801305925e-04 0.0 
-5.740801305925e-04 2.630024087239e-03 0.0 
0.0 0.0 0.0 
6.019770714774e-04 -1.047710289872e-03 0.0 
-1.047710289872e-03 2.505538658039e-03 0.0 
0.0 0.0 0.0 
-5.282619425782e-04 2.627856382909e-04 0.0 
2.627856382909e-04 1.161189745609e-02 0.0 
0.0 0.0 0.0 
-9.450926328058e-05 -5.308928604321e-04 0.0 
-5.308928604321e-04 2.623291108845e-03 0.0 
0.0 0.0 0.0 
-1.470643395201e-04 -3.309466805022e-04 0.0 
-3.309466805022e-04 1.019071054864e-03 0.0 
0.0 0.0 0.0 
-2.354581569476e-04 -4.706765031365e-04 0.0 
-4.706765031365e-04 1.426131261886e-03 0.0 
0.0 0.0 0.0 
5.098428807873e-04 -1.695849315248e-03 0.0 
-1.695849315248e-03 1.164397069630e-03 0.0 
0.0 0.0 0.0 
1.967147542496e-04 -1.111809753787e-03 0.0 
-1.111809753787e-03 2.261226878576e-03 0.0 
0.0 0.0 0.0 
1.515492380797e-03 -6.805918138695e-04 0.0 
-6.805918138695e-04 2.058466333156e-03 0.0 
0.0 0.0 0.0 
8.245033885337e-04 -9.738692104967e-04 0.0 
-9.738692104967e-04 2.497174246281e-03 0.0 
0.0 0.0 0.0 
-2.601513414692e-04 -1.756328060707e-03 0.0 
-1.756328060707e-03 8.810598170852e-04 0.0 
0.0 0.0 0.0 
-7.083297695820e-05 -3.918844173101e-04 0.0 
-3.918844173101e-04 1.413668965050e-03 0.0 
0.0 0.0 0.0 
-1.047417522643e-03 3.402625807160e-04 0.0 
3.402625807160e-04 1.053831101998e-02 0.0 
0.0 0.0 0.0 
-1.096079076737e-04 -5.014200398413e-04 0.0 
-5.014200398413e-04 2.287506492737e-03 0.0 
0.0 0.0 0.0 
9.129402566477e-04 1.652665218346e-04 0.0 
1.652665218346e-04 5.032329437725e-03 0.0 
0.0 0.0 0.0 
-7.306251259664e-06 2.120345440828e-03 0.0 
2.120345440828e-03 8.383017741807e-03 0.0 
0.0 0.0 0.0 
-1.237468034839e-03 1.063063966162e-03 0.0 
1.063063966162e-03 1.015866802475e-02 0.0 
0.0 0.0 0.0 
-6.009898558392e-04 6.578455834806e-04 0.0 
6.578455834806e-04 1.177957100703e-02 0.0 
0.0 0.0 0.0 
-2.035205390983e-04 2.086096449478e-03 0.0 
2.086096449478e-03 9.491605389994e-03 0.0 
0.0 0.0 0.0 
1.911494791633e-03 1.318566253005e-03 0.0 
1.318566253005e-03 2.490037670042e-03 0.0 
0.0 0.0 0.0 
-4.530842229655e-05 2.121388116556e-03 0.0 
2.121388116556e-03 8.016568200628e-03 0.0 
0.0 0.0 0.0 
6.758733392753e-05 -2.140647459349e-03 0.0 
-2.140647459349e-03 4.462587684615e-04 0.0 
0.0 0.0 0.0 
4.798634113055e-04 -9.157722130463e-04 0.0 
-9.157722130463e-04 2.877330666499e-03 0.0 
0.0 0.0 0.0 
1.418537312932e-03 2.239603144175e-03 0.0 
2.239603144175e-03 2.787759385212e-03 0.0 
0.0 0.0 0.0 
2.002286632480e-03 -1.599321852623e-03 0.0 
-1.599321852623e-03 -1.296098948857e-03 0.0 
0.0 0.0 0.0 
-2.354485183468e-04 -2.050291154596e-03 0.0 
-2.050291154596e-03 3.978350059393e-04 0.0 
0.0 0.0 0.0 
1.011492435457e-04 -7.937191998296e-04 0.0 
-7.937191998296e-04 2.810686513406e-03 0.0 
0.0 0.0 0.0 
1.003912706790e-03 -1.057984592626e-03 0.0 
-1.057984592626e-03 2.067896121578e-03 0.0 
0.0 0.0 0.0 
1.238753897621e-03 -8.731619460381e-04 0.0 
-8.731619460381e-04 2.091059876340e-03 0.0 
0.0 0.0 0.0 
-1.360891789131e-04 -4.539159160905e-04 0.0 
-4.539159160905e-04 2.482906317242e-03 0.0 
0.0 0.0 0.0 
1.099765830498e-03 -6.644146087238e-04 0.0 
-6.644146087238e-04 2.906609161910e-03 0.0 
0.0 0.0 0.0 
1.459342875420e-03 -8.638381790394e-04 0.0 
-8.638381790394e-04 1.639115778562e-03 0.0 
0.0 0.0 0.0 
1.900542335997e-03 -2.776464579147e-04 0.0 
-2.776464579147e-04 1.720538702533e-03 0.0 
0.0 0.0 0.0 
8.946808608878e-05 -1.082709814267e-03 0.0 
-1.082709814267e-03 2.257493495630e-03 0.0 
0.0 0.0 0.0 
1.431446373563e-03 9.314968953825e-04 0.0 
9.314968953825e-04 4.452814292295e-03 0.0 
0.0 0.0 0.0 
-8.214631492913e-04 3.379193699157e-04 0.0 
3.379193699157e-04 1.117951847356e-02 0.0 
0.0 0.0 0.0 
2.092664929002e-03 -7.858403106730e-05 0.0 
-7.858403106730e-05 1.304708461795e-03 0.0 
0.0 0.0 0.0 
7.557186967002e-04 2.822830823301e-04 0.0 
2.822830823301e-04 5.577800429649e-03 0.0 
0.0 0.0 0.0 
5.474359117896e-04 -2.243719869474e-03 0.0 
-2.243719869474e-03 -1.937747310576e-05 0.0 
0.0 0.0 0.0 
6.784722239996e-04 6.255793058713e-04 0.0 
6.255793058713e-04 6.171604931756e-03 0.0 
0.0 0.0 0.0 
1.297762436097e-03 -6.917884588257e-04 0.0 
-6.917884588257e-04 2.495764298216e-03 0.0 
0.0 0.0 0.0 
-2.248472602634e-04 2.112847561088e-03 0.0 
2.112847561088e-03 1.001695778118e-02 0.0 
0.0 0.0 0.0 
-8.310181138561e-04 1.836474581133e-03 0.0 
1.836474581133e-03 9.035475644483e-03 0.0 
0.0 0.0 0.0 
1.859194312224e-04 -1.868386563859e-03 0.0 
-1.868386563859e-03 9.877940756784e-04 0.0 
0.0 0.0 0.0 
-1.171927251300e-03 1.254368823065e-03 0.0 
1.254368823065e-03 1.011508282419e-02 0.0 
0.0 0.0 0.0 
-6.286798692453e-04 9.414479086863e-04 0.0 
9.414479086863e-04 1.173912763031e-02 0.0 
0.0 0.0 0.0 
1.481360917783e-03 -4.687363027965e-04 0.0 
-4.687363027965e-04 2.565991035103e-03 0.0 
0.0 0.0 0.0 
8.734270358941e-04 2.702657910029e-03 0.0 
2.702657910029e-03 3.149871067555e-03 0.0 
0.0 0.0 0.0 
-1.074033762606e-03 1.437880312679e-03 0.0 
1.437880312679e-03 1.002814122991e-02 0.0 
0.0 0.0 0.0 
-7.518776818505e-05 2.454036159913e-03 0.0 
2.454036159913e-03 6.021676073277e-03 0.0 
0.0 0.0 0.0 
-2.737460604741e-04 -1.890807743622e-03 0.0 
-1.890807743622e-03 9.030900964848e-04 0.0 
0.0 0.0 0.0 
-2.926463875905e-04 8.367476213223e-04 0.0 
8.367476213223e-04 1.237858869397e-02 0.0 
0.0 0.0 0.0 
-6.208940142312e-04 -1.468533632426e-03 0.0 
-1.468533632426e-03 1.141285512302e-03 0.0 
0.0 0.0 0.0 
7.451513931853e-04 1.501269994103e-03 0.0 
1.501269994103e-03 6.693297229169e-03 0.0 
0.0 0.0 0.0 
-3.924868152836e-04 3.834947119354e-04 0.0 
3.834947119354e-04 1.210304612594e-02 0.0 
0.0 0.0 0.0 
1.344735130296e-03 7.771884209553e-04 0.0 
7.771884209553e-04 4.596938433446e-03 0.0 
0.0 0.0 0.0 
-7.773801181603e-04 2.220359697424e-04 0.0 
2.220359697424e-04 1.063146534261e-02 0.0 
0.0 0.0 0.0 
-7.287533509336e-04 5.229952669890e-04 0.0 
5.229952669890e-04 1.166412603338e-02 0.0 
0.0 0.0 0.0 
1.654195978578e-03 -5.588003564660e-04 0.0 
-5.588003564660e-04 1.767845502809e-03 0.0 
0.0 0.0 0.0 
1.801616160291e-03 1.025621129857e-03 0.0 
1.025621129857e-03 3.126151902966e-03 0.0 
0.0 0.0 0.0 
-4.593615681036e-04 7.457527809400e-04 0.0 
7.457527809400e-04 1.208033723697e-02 0.0 
0.0 0.0 0.0 
6.487361105081e-04 -1.146292594793e-04 0.0 
-1.146292594793e-04 4.991709237786e-03 0.0 
0.0 0.0 0.0 
-8.277899752376e-04 4.343149252685e-04 0.0 
4.343149252685e-04 1.132796795355e-02 0.0 
0.0 0.0 0.0 
1.411001988130e-03 3.552292103821e-04 0.0 
3.552292103821e-04 4.077213351113e-03 0.0 
0.0 0.0 0.0 
3.318931673688e-04 -2.125460494265e-03 0.0 
-2.125460494265e-03 4.422331459524e-04 0.0 
0.0 0.0 0.0 
-8.270482872103e-04 5.435196937280e-04 0.0 
5.435196937280e-04 1.146146088130e-02 0.0 
0.0 0.0 0.0 
2.260790139808e-05 2.364523421174e-03 0.0 
2.364523421174e-03 9.522979479904e-03 0.0 
0.0 0.0 0.0 
5.616932546761e-04 3.820240967585e-04 0.0 
3.820240967585e-04 6.158229676078e-03 0.0 
0.0 0.0 0.0 
6.745208879928e-04 -8.703778171216e-04 0.0 
-8.703778171216e-04 2.869279791923e-03 0.0 
0.0 0.0 0.0 
-8.519000129356e-04 1.809143458925e-04 0.0 
1.809143458925e-04 1.063545313323e-02 0.0 
0.0 0.0 0.0 
-8.245990329103e-04 2.113765772440e-04 0.0 
2.113765772440e-04 1.042191802723e-02 0.0 
0.0 0.0 0.0 
1.040962714460e-03 -8.391922531536e-04 0.0 
-8.391922531536e-04 2.519907568134e-03 0.0 
0.0 0.0 0.0 
8.045583653287e-04 -1.293417096448e-04 0.0 
-1.293417096448e-04 4.664232218361e-03 0.0 
0.0 0.0 0.0 
8.734507826629e-04 8.852176304826e-06 0.0 
8.852176304826e-06 4.830595043789e-03 0.0 
0.0 0.0 0.0 
-9.962949714482e-05 -4.344113333079e-04 0.0 
-4.344113333079e-04 1.244327161852e-03 0.0 
0.0 0.0 0.0 
2.358798332453e-03 1.798878199432e-03 0.0 
1.798878199432e-03 -1.227965749697e-03 0.0 
0.0 0.0 0.0 
2.119953629860e-03 3.170982198995e-04 0.0 
3.170982198995e-04 1.612489649173e-03 0.0 
0.0 0.0 0.0 
1.870818135024e-03 -4.203729326394e-04 0.0 
-4.203729326394e-04 1.363601968128e-03 0.0 
0.0 0.0 0.0 
5.186935582913e-04 2.505228562200e-03 0.0 
2.505228562200e-03 4.805056016028e-03 0.0 
0.0 0.0 0.0 
-4.468582201006e-04 6.838564216233e-04 0.0 
6.838564216233e-04 1.228260771751e-02 0.0 
0.0 0.0 0.0 
-6.158710797065e-04 1.490116244126e-03 0.0 
1.490116244126e-03 1.122168426310e-02 0.0 
0.0 0.0 0.0 
-4.563834253574e-04 3.442594587924e-04 0.0 
3.442594587924e-04 1.210621391179e-02 0.0 
0.0 0.0 0.0 
-9.283117555465e-04 2.209162504659e-03 0.0 
2.209162504659e-03 7.384581115738e-03 0.0 
0.0 0.0 0.0 
-7.684570266027e-04 8.269686362626e-04 0.0 
8.269686362626e-04 1.144754910128e-02 0.0 
0.0 0.0 0.0 
6.507328929666e-04 -2.198446862163e-04 0.0 
-2.198446862163e-04 4.678878480029e-03 0.0 
0.0 0.0 0.0 
-4.097664294958e-04 6.017717795981e-04 0.0 
6.017717795981e-04 1.217312369743e-02 0.0 
0.0 0.0 0.0 
-9.201886991390e-04 5.601575615231e-04 0.0 
5.601575615231e-04 1.125282717222e-02 0.0 
0.0 0.0 0.0 
6.716638266691e-04 -8.726060794335e-04 0.0 
-8.726060794335e-04 2.891100241504e-03 0.0 
0.0 0.0 0.0 
2.212146431413e-03 6.240433325755e-04 0.0 
6.240433325755e-04 1.331771479179e-03 0.0 
0.0 0.0 0.0 
-7.164139327116e-04 5.620833115286e-04 0.0 
5.620833115286e-04 1.145892149691e-02 0.0 
0.0 0.0 0.0 
-6.011073310892e-04 6.069643187527e-04 0.0 
6.069643187527e-04 1.198382241697e-02 0.0 
0.0 0.0 0.0 
-6.440069628363e-04 4.484221909625e-04 0.0 
4.484221909625e-04 1.152495513877e-02 0.0 
0.0 0.0 0.0 
-7.257417933924e-04 4.585033035936e-04 0.0 
4.585033035936e-04 1.132480803209e-02 0.0 
0.0 0.0 0.0 
5.921732348086e-04 1.137750405861e-04 0.0 
1.137750405861e-04 5.666041098241e-03 0.0 
0.0 0.0 0.0 
7.684935451715e-04 1.611050940839e-03 0.0 
1.611050940839e-03 6.661813610714e-03 0.0 
0.0 0.0 0.0 
7.493271149905e-04 1.335507554128e-04 0.0 
1.335507554128e-04 5.348780276887e-03 0.0 
0.0 0.0 0.0 
7.472248821312e-04 -3.909125313921e-04 0.0 
-3.909125313921e-04 4.076748027937e-03 0.0 
0.0 0.0 0.0 
-1.280269696894e-03 1.107005206418e-03 0.0 
1.107005206418e-03 8.488480286762e-03 0.0 
0.0 0.0 0.0 
1.241235546166e-03 1.013196673595e-03 0.0 
1.013196673595e-03 5.054607464733e-03 0.0 
0.0 0.0 0.0 
-9.416051174106e-04 8.764828598655e-04 0.0 
8.764828598655e-04 1.097263513869e-02 0.0 
0.0 0.0 0.0 
-1.528457751224e-04 -4.176867288372e-04 0.0 
-4.176867288372e-04 2.126333840927e-03 0.0 
0.0 0.0 0.0 
1.964716195966e-03 -2.739884532789e-05 0.0 
-2.739884532789e-05 1.668989466652e-03 0.0 
0.0 0.0 0.0 
1.849452926001e-03 2.169467079681e-04 0.0 
2.169467079681e-04 2.567941044387e-03 0.0 
0.0 0.0 0.0 
1.646125098994e-03 1.063182837685e-03 0.0 
1.063182837685e-03 3.753097226375e-03 0.0 
0.0 0.0 0.0 
2.703082841380e-03 -3.236231332902e-04 0.0 
-3.236231332902e-04 -2.251837109486e-03 0.0 
0.0 0.0 0.0 
2.111961548824e-03 2.383136047419e-04 0.0 
2.383136047419e-04 1.397474170532e-03 0.0 
0.0 0.0 0.0 
1.480459099777e-03 1.108256113881e-03 0.0 
1.108256113881e-03 4.366065246070e-03 0.0 
0.0 0.0 0.0 
-1.132298556819e-03 1.558483898125e-03 0.0 
1.558483898125e-03 8.429231185190e-03 0.0 
0.0 0.0 0.0 
7.314533828657e-04 -7.076843688955e-04 0.0 
-7.076843688955e-04 3.245843495725e-03 0.0 
0.0 0.0 0.0 
-9.911775489012e-04 4.537581606263e-04 0.0 
4.537581606263e-04 1.090743628200e-02 0.0 
0.0 0.0 0.0 
-8.182667373544e-04 9.245430417198e-05 0.0 
9.245430417198e-05 9.802522743719e-03 0.0 
0.0 0.0 0.0 
-1.462304777752e-03 2.641739953025e-03 0.0 
2.641739953025e-03 1.661997214523e-03 0.0 
0.0 0.0 0.0 
7.158145182533e-04 -5.279757961949e-04 0.0 
-5.279757961949e-04 3.743104733873e-03 0.0 
0.0 0.0 0.0 
1.314843851113e-03 8.103933939610e-04 0.0 
8.103933939610e-04 4.758011499161e-03 0.0 
0.0 0.0 0.0 
-5.380750714088e-04 1.437650845543e-03 0.0 
1.437650845543e-03 1.150601420196e-02 0.0 
0.0 0.0 0.0 
1.953858054969e-03 1.014367599087e-03 0.0 
1.014367599087e-03 2.520766803575e-03 0.0 
0.0 0.0 0.0 
7.548828663757e-04 -5.460776590055e-04 0.0 
-5.460776590055e-04 3.649469031447e-03 0.0 
0.0 0.0 0.0 
-8.990471869140e-04 3.439156587456e-04 0.0 
3.439156587456e-04 1.097412242415e-02 0.0 
0.0 0.0 0.0 
-1.479089669640e-03 2.487355799244e-03 0.0 
2.487355799244e-03 3.210799659464e-03 0.0 
0.0 0.0 0.0 
1.410026984878e-03 9.555771993114e-04 0.0 
9.555771993114e-04 4.569695270349e-03 0.0 
0.0 0.0 0.0 
1.766768959536e-03 7.818001706204e-04 0.0 
7.818001706204e-04 3.211549624169e-03 0.0 
0.0 0.0 0.0 
-1.228877948067e-03 1.563995265782e-03 0.0 
1.563995265782e-03 8.814343012778e-03 0.0 
0.0 0.0 0.0 
7.274264841493e-04 -9.288525555637e-05 0.0 
-9.288525555637e-05 4.846784381705e-03 0.0 
0.0 0.0 0.0 
1.457415904387e-03 -2.097397731403e-03 0.0 
-2.097397731403e-03 -1.229897238854e-03 0.0 
0.0 0.0 0.0 
7.796448519846e-04 5.362417825007e-05 0.0 
5.362417825007e-05 5.050074845225e-03 0.0 
0.0 0.0 0.0 
7.289417825791e-04 4.422945118202e-04 0.0 
4.422945118202e-04 5.842871335666e-03 0.0 
0.0 0.0 0.0 
1.468976806704e-03 1.119626805193e-03 0.0 
1.119626805193e-03 4.424388451044e-03 0.0 
0.0 0.0 0.0 
-7.382250345647e-04 4.198101298632e-04 0.0 
4.198101298632e-04 1.152871018444e-02 0.0 
0.0 0.0 0.0 
3.567929054371e-04 2.059530954604e-03 0.0 
2.059530954604e-03 7.565904822904e-03 0.0 
0.0 0.0 0.0 
6.382109952749e-04 3.368809635065e-04 0.0 
3.368809635065e-04 5.856601101211e-03 0.0 
0.0 0.0 0.0 
-1.505116276657e-03 2.246564984005e-03 0.0 
2.246564984005e-03 4.717514565965e-03 0.0 
0.0 0.0 0.0 
-9.128786618352e-04 4.454722100875e-04 0.0 
4.454722100875e-04 1.112145797153e-02 0.0 
0.0 0.0 0.0 
5.811090772010e-04 1.863723115347e-03 0.0 
1.863723115347e-03 7.236210100998e-03 0.0 
0.0 0.0 0.0 
-6.268584217958e-04 5.478747026956e-04 0.0 
5.478747026956e-04 1.166082969839e-02 0.0 
0.0 0.0 0.0 
1.640752815946e-03 1.077055007917e-03 0.0 
1.077055007917e-03 3.805512122333e-03 0.0 
0.0 0.0 0.0 
2.065897163348e-03 6.412050484385e-04 0.0 
6.412050484385e-04 1.898551459451e-03 0.0 
0.0 0.0 0.0 
2.412882552767e-04 -4.346688927399e-04 0.0 
-4.346688927399e-04 4.102271168096e-03 0.0 
0.0 0.0 0.0 
2.481286346315e-03 6.787713086069e-04 0.0 
6.787713086069e-04 -4.231948412600e-03 0.0 
0.0 0.0 0.0 
-5.356220750782e-04 5.267884170440e-04 0.0 
5.267884170440e-04 1.185655038587e-02 0.0 
0.0 0.0 0.0 
-1.334033792167e-04 -3.345159896299e-04 0.0 
-3.345159896299e-04 2.305327295515e-03 0.0 
0.0 0.0 0.0 
-1.670284007115e-03 1.872606000230e-03 0.0 
1.872606000230e-03 6.206475276990e-03 0.0 
0.0 0.0 0.0 
2.027953020149e-04 2.103817937387e-03 0.0 
2.103817937387e-03 7.771155239854e-03 0.0 
0.0 0.0 0.0 
-3.546872602226e-04 4.705039154671e-04 0.0 
4.705039154671e-04 1.224585315200e-02 0.0 
0.0 0.0 0.0 
8.657518397608e-04 -2.435075503542e-03 0.0 
-2.435075503542e-03 -8.489934654797e-04 0.0 
0.0 0.0 0.0 
-9.583358487841e-05 2.287476942926e-03 0.0 
2.287476942926e-03 7.021100718386e-03 0.0 
0.0 0.0 0.0 
-8.026621647546e-04 5.719501005366e-04 0.0 
5.719501005366e-04 1.125108797207e-02 0.0 
0.0 0.0 0.0 
4.251996931663e-04 -6.566625364285e-04 0.0 
-6.566625364285e-04 3.595179030241e-03 0.0 
0.0 0.0 0.0 
2.371487763544e-03 -1.145090970656e-03 0.0 
-1.145090970656e-03 -2.120155676186e-03 0.0 
0.0 0.0 0.0 
9.650397449956e-04 2.836861534788e-03 0.0 
2.836861534788e-03 2.181536329794e-03 0.0 
0.0 0.0 0.0 
-1.582899847808e-04 -2.114189545735e-03 0.0 
-2.114189545735e-03 4.079586592209e-04 0.0 
0.0 0.0 0.0 
1.357456078630e-03 -2.065935378344e-03 0.0 
-2.065935378344e-03 -8.966258786671e-04 0.0 
0.0 0.0 0.0 
6.165661872688e-04 -2.302444338512e-03 0.0 
-2.302444338512e-03 -2.521374295653e-04 0.0 
0.0 0.0 0.0 
1.801810228204e-03 1.041579386716e-03 0.0 
1.041579386716e-03 3.172652094966e-03 0.0 
0.0 0.0 0.0 
-2.192577052331e-04 1.251729545080e-03 0.0 
1.251729545080e-03 1.246926136713e-02 0.0 
0.0 0.0 0.0 
-1.194105425394e-03 1.024653234497e-03 0.0 
1.024653234497e-03 7.318145753885e-03 0.0 
0.0 0.0 0.0 
4.498409948024e-04 9.254437744622e-05 0.0 
9.254437744622e-05 5.973129364731e-03 0.0 
0.0 0.0 0.0 
2.169347973366e-03 1.402264982363e-03 0.0 
1.402264982363e-03 1.061933485038e-03 0.0 
0.0 0.0 0.0 
-1.007466424007e-03 5.772483460856e-04 0.0 
5.772483460856e-04 1.103832696072e-02 0.0 
0.0 0.0 0.0 
2.850344306151e-03 5.320775594133e-04 0.0 
5.320775594133e-04 -3.800107741261e-03 0.0 
0.0 0.0 0.0 
5.901214075361e-04 5.045694349761e-04 0.0 
5.045694349761e-04 6.164767690239e-03 0.0 
0.0 0.0 0.0 
2.433529866450e-04 -2.426675505836e-03 0.0 
-2.426675505836e-03 -2.395484578488e-04 0.0 
0.0 0.0 0.0 
-1.260859179962e-04 -3.543704267285e-04 0.0 
-3.543704267285e-04 2.686607380785e-03 0.0 
0.0 0.0 0.0 
1.313272312820e-03 1.330203563582e-03 0.0 
1.330203563582e-03 4.943262621427e-03 0.0 
0.0 0.0 0.0 
1.438245312092e-03 -6.302111698294e-04 0.0 
-6.302111698294e-04 2.180822316111e-03 0.0 
0.0 0.0 0.0 
7.714607534997e-04 1.722250867798e-03 0.0 
1.722250867798e-03 6.678854516220e-03 0.0 
0.0 0.0 0.0 
1.313016140998e-04 2.784588002656e-03 0.0 
2.784588002656e-03 4.648673688315e-03 0.0 
0.0 0.0 0.0 
-9.877374354587e-04 8.619626650773e-04 0.0 
8.619626650773e-04 1.121557598691e-02 0.0 
0.0 0.0 0.0 
7.575426684820e-04 1.608109052820e-03 0.0 
1.608109052820e-03 6.676883936330e-03 0.0 
0.0 0.0 0.0 
-8.043683555119e-04 4.636298175150e-04 0.0 
4.636298175150e-04 1.111912159387e-02 0.0 
0.0 0.0 0.0 
-6.486907092056e-04 1.455435567814e-03 0.0 
1.455435567814e-03 1.150396828734e-02 0.0 
0.0 0.0 0.0 
-8.163814740605e-04 6.643076529888e-04 0.0 
6.643076529888e-04 1.157706276413e-02 0.0 
0.0 0.0 0.0 
-7.928185724013e-04 7.954539944667e-04 0.0 
7.954539944667e-04 1.167167751197e-02 0.0 
0.0 0.0 0.0 
1.797318847293e-03 2.737190803036e-03 0.0 
2.737190803036e-03 -1.596958274342e-03 0.0 
0.0 0.0 0.0 
4.273626605293e-04 -1.495814795548e-06 0.0 
-1.495814795548e-06 5.774895066667e-03 0.0 
0.0 0.0 0.0 
-7.918916695684e-04 6.936050109803e-04 0.0 
6.936050109803e-04 1.136196286525e-02 0.0 
0.0 0.0 0.0 
1.582222255545e-03 1.847777524351e-03 0.0 
1.847777524351e-03 3.159767280509e-03 0.0 
0.0 0.0 0.0 
-1.169229372672e-03 7.187096799160e-04 0.0 
7.187096799160e-04 7.873951035592e-03 0.0 
0.0 0.0 0.0 
5.527919872614e-04 1.686783020866e-03 0.0 
1.686783020866e-03 7.216647834511e-03 0.0 
0.0 0.0 0.0 
2.645019697957e-03 1.254735652454e-03 0.0 
1.254735652454e-03 -2.147301356341e-03 0.0 
0.0 0.0 0.0 
-1.035395270426e-04 -4.071918993581e-04 0.0 
-4.071918993581e-04 2.475975715382e-03 0.0 
0.0 0.0 0.0 
9.524154500811e-04 1.681189219233e-03 0.0 
1.681189219233e-03 6.076564678121e-03 0.0 
0.0 0.0 0.0 
7.719516127436e-05 -2.315661657140e-05 0.0 
-2.315661657140e-05 1.497589486596e-03 0.0 
0.0 0.0 0.0 
7.203389674473e-04 2.305246276452e-03 0.0 
2.305246276452e-03 5.214834794288e-03 0.0 
0.0 0.0 0.0 
1.281326771019e-03 1.169313630547e-03 0.0 
1.169313630547e-03 5.033581626678e-03 0.0 
0.0 0.0 0.0 
-6.339282625119e-04 8.927328770889e-04 0.0 
8.927328770889e-04 1.195568800983e-02 0.0 
0.0 0.0 0.0 
-5.782724327831e-04 1.047385042831e-03 0.0 
1.047385042831e-03 1.201384561024e-02 0.0 
0.0 0.0 0.0 
1.300902031428e-03 1.161631700959e-03 0.0 
1.161631700959e-03 4.967868494129e-03 0.0 
0.0 0.0 0.0 
-7.096132934455e-04 6.383357378152e-04 0.0 
6.383357378152e-04 1.178228197657e-02 0.0 
0.0 0.0 0.0 
1.928821260948e-03 1.714837552253e-03 0.0 
1.714837552253e-03 1.791932445901e-03 0.0 
0.0 0.0 0.0 
-1.560738589999e-04 2.087450248982e-03 0.0 
2.087450248982e-03 8.610482555660e-03 0.0 
0.0 0.0 0.0 
-1.187011475072e-03 5.505610108033e-04 0.0 
5.505610108033e-04 8.338093900914e-03 0.0 
0.0 0.0 0.0 
-4.546923278974e-04 1.821954141143e-03 0.0 
1.821954141143e-03 1.066163703531e-02 0.0 
0.0 0.0 0.0 
-1.193011374930e-03 4.515970892377e-04 0.0 
4.515970892377e-04 8.798145373283e-03 0.0 
0.0 0.0 0.0 
-1.169575904420e-03 4.066281026896e-04 0.0 
4.066281026896e-04 9.029331565752e-03 0.0 
0.0 0.0 0.0 
1.928610548024e-03 1.312259170081e-03 0.0 
1.312259170081e-03 2.434709967287e-03 0.0 
0.0 0.0 0.0 
-1.169026186263e-03 3.966992023924e-04 0.0 
3.966992023924e-04 9.255041640033e-03 0.0 
0.0 0.0 0.0 
9.325766668753e-04 2.051116344783e-03 0.0 
2.051116344783e-03 5.352403139281e-03 0.0 
0.0 0.0 0.0 
1.303465793836e-03 2.155025218756e-03 0.0 
2.155025218756e-03 3.637921727644e-03 0.0 
0.0 0.0 0.0 
1.977469354592e-03 3.546180657343e-04 0.0 
3.546180657343e-04 2.073241913985e-03 0.0 
0.0 0.0 0.0 
2.447399970160e-03 -1.178848278060e-03 0.0 
-1.178848278060e-03 -2.314685421370e-03 0.0 
0.0 0.0 0.0 
2.098616874710e-03 9.968963805402e-04 0.0 
9.968963805402e-04 1.844373568625e-03 0.0 
0.0 0.0 0.0 
-5.025696262400e-04 6.342110732710e-04 0.0 
6.342110732710e-04 1.198023100243e-02 0.0 
0.0 0.0 0.0 
-5.032487806593e-04 1.670187830789e-03 0.0 
1.670187830789e-03 1.116720299927e-02 0.0 
0.0 0.0 0.0 
5.076187275603e-04 -9.617027162039e-05 0.0 
-9.617027162039e-05 5.304331096764e-03 0.0 
0.0 0.0 0.0 
7.775925930933e-04 1.715741234890e-03 0.0 
1.715741234890e-03 6.646178794075e-03 0.0 
0.0 0.0 0.0 
1.690922337961e-03 -4.041528790832e-04 0.0 
-4.041528790832e-04 2.143992073575e-03 0.0 
0.0 0.0 0.0 
-6.704982454266e-04 8.053272060557e-04 0.0 
8.053272060557e-04 1.167004249232e-02 0.0 
0.0 0.0 0.0 
2.068827915392e-03 6.858935526388e-04 0.0 
6.858935526388e-04 2.023218786480e-03 0.0 
0.0 0.0 0.0 
3.138046154452e-04 5.618368750693e-06 0.0 
5.618368750693e-06 6.065827132107e-03 0.0 
0.0 0.0 0.0 
-6.982250934880e-04 6.785988902517e-04 0.0 
6.785988902517e-04 1.157497250317e-02 0.0 
0.0 0.0 0.0 
-8.951863125224e-04 8.280451314634e-04 0.0 
8.280451314634e-04 1.144790503080e-02 0.0 
0.0 0.0 0.0 
1.592213225027e-03 8.845947118397e-04 0.0 
8.845947118397e-04 3.952256645807e-03 0.0 
0.0 0.0 0.0 
2.054610507964e-03 1.346556696212e-03 0.0 
1.346556696212e-03 1.761041988339e-03 0.0 
0.0 0.0 0.0 
-1.254374064775e-04 2.098394098713e-03 0.0 
2.098394098713e-03 8.960012053221e-03 0.0 
0.0 0.0 0.0 
-8.280489971199e-04 1.745273064580e-03 0.0 
1.745273064580e-03 9.047806402885e-03 0.0 
0.0 0.0 0.0 
1.903069891207e-03 -1.961404960749e-03 0.0 
-1.961404960749e-03 -2.186361623824e-03 0.0 
0.0 0.0 0.0 
2.710746930787e-03 4.041013555330e-04 0.0 
4.041013555330e-04 -2.011509191174e-03 0.0 
0.0 0.0 0.0 
3.774057036690e-04 2.750096375837e-03 0.0 
2.750096375837e-03 4.078284148248e-03 0.0 
0.0 0.0 0.0 
-2.198417379932e-04 2.250702604732e-03 0.0 
2.250702604732e-03 7.026843121418e-03 0.0 
0.0 0.0 0.0 
2.163157459893e-04 1.314629834816e-05 0.0 
1.314629834816e-05 6.347943611061e-03 0.0 
0.0 0.0 0.0 
-9.146120059199e-04 6.885930305974e-04 0.0 
6.885930305974e-04 1.136299112457e-02 0.0 
0.0 0.0 0.0 
2.089160564219e-03 9.805711732782e-04 0.0 
9.805711732782e-04 1.816843519922e-03 0.0 
0.0 0.0 0.0 
-2.423888471607e-04 2.133201696860e-03 0.0 
2.133201696860e-03 7.958458670656e-03 0.0 
0.0 0.0 0.0 
1.212754719663e-03 1.035707629639e-03 0.0 
1.035707629639e-03 5.188815069178e-03 0.0 
0.0 0.0 0.0 
-6.281955382896e-04 4.992076327464e-04 0.0 
4.992076327464e-04 1.186027554748e-02 0.0 
0.0 0.0 0.0 
-2.420217831044e-04 2.108663885973e-03 0.0 
2.108663885973e-03 9.489288397424e-03 0.0 
0.0 0.0 0.0 
-9.570423768678e-04 5.842459019101e-04 0.0 
5.842459019101e-04 1.081665831272e-02 0.0 
0.0 0.0 0.0 
1.036169332039e-03 6.008606331679e-04 0.0 
6.008606331679e-04 5.284566019063e-03 0.0 
0.0 0.0 0.0 
1.919435594252e-03 7.102512052243e-04 0.0 
7.102512052243e-04 2.566757817979e-03 0.0 
0.0 0.0 0.0 
1.146790673699e-03 8.768121645144e-04 0.0 
8.768121645144e-04 5.203620781390e-03 0.0 
0.0 0.0 0.0 
5.471723073855e-04 2.382624404926e-03 0.0 
2.382624404926e-03 5.204239481833e-03 0.0 
0.0 0.0 0.0 
-5.647352699014e-04 7.277296406615e-04 0.0 
7.277296406615e-04 1.208245999551e-02 0.0 
0.0 0.0 0.0 
-3.105306894798e-04 2.103932403288e-03 0.0 
2.103932403288e-03 1.001758372638e-02 0.0 
0.0 0.0 0.0 
1.760410418447e-03 8.160881763954e-04 0.0 
8.160881763954e-04 3.325414612497e-03 0.0 
0.0 0.0 0.0 
2.819568672735e-03 4.943843489977e-04 0.0 
4.943843489977e-04 -2.862735432664e-03 0.0 
0.0 0.0 0.0 
4.481913847059e-04 2.061065914150e-03 0.0 
2.061065914150e-03 7.380697952416e-03 0.0 
0.0 0.0 0.0 
7.097055559153e-04 2.197475655510e-03 0.0 
2.197475655510e-03 5.627856322113e-03 0.0 
0.0 0.0 0.0 
2.030672543017e-03 1.358439240706e-03 0.0 
1.358439240706e-03 1.846889092461e-03 0.0 
0.0 0.0 0.0 
1.604900259663e-03 8.552678878978e-04 0.0 
8.552678878978e-04 3.838871560864e-03 0.0 
0.0 0.0 0.0 
9.563132960861e-04 2.675219539084e-04 0.0 
2.675219539084e-04 4.994165508363e-03 0.0 
0.0 0.0 0.0 
2.702805121253e-03 -4.798659539947e-04 0.0 
-4.798659539947e-04 -2.704170159291e-03 0.0 
0.0 0.0 0.0 
1.918458584781e-03 7.496631577677e-04 0.0 
7.496631577677e-04 2.684220401928e-03 0.0 
0.0 0.0 0.0 
-9.956319066706e-04 1.361065682648e-03 0.0 
1.361065682648e-03 1.003809613878e-02 0.0 
0.0 0.0 0.0 
1.601135451377e-04 -5.297224527411e-05 0.0 
-5.297224527411e-05 6.357472051586e-03 0.0 
0.0 0.0 0.0 
-8.877364207318e-04 1.538380926286e-03 0.0 
1.538380926286e-03 9.909866469112e-03 0.0 
0.0 0.0 0.0 
3.131343905287e-04 2.113095102300e-03 0.0 
2.113095102300e-03 7.558344133332e-03 0.0 
0.0 0.0 0.0 
-1.073978274776e-03 1.174725630132e-03 0.0 
1.174725630132e-03 1.012515090291e-02 0.0 
0.0 0.0 0.0 
-1.143449153289e-03 8.043766865804e-04 0.0 
8.043766865804e-04 1.016616167197e-02 0.0 
0.0 0.0 0.0 
-6.480840873729e-04 1.892648286599e-03 0.0 
1.892648286599e-03 8.801720131082e-03 0.0 
0.0 0.0 0.0 
9.561100427353e-04 1.555314898466e-03 0.0 
1.555314898466e-03 6.088635242957e-03 0.0 
0.0 0.0 0.0 
4.518690780422e-04 -8.175543893065e-05 0.0 
-8.175543893065e-05 5.488482349349e-03 0.0 
0.0 0.0 0.0 
-8.788307428210e-04 7.086509918905e-04 0.0 
7.086509918905e-04 1.114010044838e-02 0.0 
0.0 0.0 0.0 
-4.724305076473e-04 1.050412082747e-03 0.0 
1.050412082747e-03 1.201305006308e-02 0.0 
0.0 0.0 0.0 
-1.124842834400e-03 9.866082604769e-04 0.0 
9.866082604769e-04 1.016857815383e-02 0.0 
0.0 0.0 0.0 
2.339675144723e-03 9.920714529317e-04 0.0 
9.920714529317e-04 4.109243975952e-04 0.0 
0.0 0.0 0.0 
2.943662184454e-04 2.070792745497e-03 0.0 
2.070792745497e-03 7.995168666454e-03 0.0 
0.0 0.0 0.0 
-4.911055658461e-04 5.731157737072e-04 0.0 
5.731157737072e-04 1.217670297871e-02 0.0 
0.0 0.0 0.0 
1.098724946151e-03 2.210310757139e-03 0.0 
2.210310757139e-03 4.109796588193e-03 0.0 
0.0 0.0 0.0 
8.219924277402e-04 2.263910153712e-03 0.0 
2.263910153712e-03 4.874552006646e-03 0.0 
0.0 0.0 0.0 
2.219531084797e-03 9.767166167565e-04 0.0 
9.767166167565e-04 1.128231367692e-03 0.0 
0.0 0.0 0.0 
-8.593844039780e-04 8.500900365515e-04 0.0 
8.500900365515e-04 1.121658590527e-02 0.0 
0.0 0.0 0.0 
-5.000310324758e-04 2.446332503258e-03 0.0 
2.446332503258e-03 6.247094387604e-03 0.0 
0.0 0.0 0.0 
9.973240939134e-04 2.020442458591e-03 0.0 
2.020442458591e-03 5.123827220365e-03 0.0 
0.0 0.0 0.0 
-3.780996793343e-04 2.556797201493e-03 0.0 
2.556797201493e-03 6.231509060082e-03 0.0 
0.0 0.0 0.0 
1.138025859852e-03 1.518921806694e-03 0.0 
1.518921806694e-03 5.499048049268e-03 0.0 
0.0 0.0 0.0 
2.043020459610e-04 2.118728181561e-03 0.0 
2.118728181561e-03 8.423348989354e-03 0.0 
0.0 0.0 0.0 
2.204176856689e-03 5.759424932233e-04 0.0 
5.759424932233e-04 1.207728845521e-03 0.0 
0.0 0.0 0.0 
2.333564797390e-03 -6.369168548263e-04 0.0 
-6.369168548263e-04 -4.018214057291e-03 0.0 
0.0 0.0 0.0 
-5.042654576985e-04 1.251472680408e-03 0.0 
1.251472680408e-03 1.180395661167e-02 0.0 
0.0 0.0 0.0 
-7.051431013960e-04 2.229807100821e-03 0.0 
2.229807100821e-03 6.949321841476e-03 0.0 
0.0 0.0 0.0 
1.803390062796e-03 -9.863318004921e-05 0.0 
-9.863318004921e-05 2.312324275714e-03 0.0 
0.0 0.0 0.0 
3.958441114309e-04 2.096630334825e-03 0.0 
2.096630334825e-03 7.835646678373e-03 0.0 
0.0 0.0 0.0 
-1.005490146387e-03 7.142343569159e-04 0.0 
7.142343569159e-04 1.113988417034e-02 0.0 
0.0 0.0 0.0 
5.818569855216e-04 -8.813658438052e-05 0.0 
-8.813658438052e-05 5.171856672586e-03 0.0 
0.0 0.0 0.0 
1.598820674134e-03 1.991094908577e-03 0.0 
1.991094908577e-03 2.824103580233e-03 0.0 
0.0 0.0 0.0 
2.064875843760e-03 -2.901297195271e-04 0.0 
-2.901297195271e-04 -4.309632863437e-03 0.0 
0.0 0.0 0.0 
9.394291941289e-05 -5.596122315331e-05 0.0 
-5.596122315331e-05 6.652331882473e-03 0.0 
0.0 0.0 0.0 
5.231032790198e-05 2.275989127889e-03 0.0 
2.275989127889e-03 6.666174610563e-03 0.0 
0.0 0.0 0.0 
1.081732719335e-03 1.670720670011e-03 0.0 
1.670720670011e-03 5.564030472630e-03 0.0 
0.0 0.0 0.0 
1.833691250863e-05 2.160645721093e-03 0.0 
2.160645721093e-03 8.769473802347e-03 0.0 
0.0 0.0 0.0 
9.670257864420e-04 -6.404794450082e-05 0.0 
-6.404794450082e-05 -4.722011183912e-03 0.0 
0.0 0.0 0.0 
7.120651307151e-04 1.860846193835e-06 0.0 
1.860846193835e-06 5.157155467902e-03 0.0 
0.0 0.0 0.0 
1.537099330307e-03 2.480975335097e-03 0.0 
2.480975335097e-03 1.240058742945e-03 0.0 
0.0 0.0 0.0 
-1.091560164867e-03 5.928645900545e-04 0.0 
5.928645900545e-04 1.081611382890e-02 0.0 
0.0 0.0 0.0 
4.499499968587e-04 -5.245042669819e-04 0.0 
-5.245042669819e-04 3.995300075979e-03 0.0 
0.0 0.0 0.0 
2.234474778477e-03 9.912019332336e-04 0.0 
9.912019332336e-04 1.138692380952e-03 0.0 
0.0 0.0 0.0 
2.410763235594e-04 -5.992070853052e-05 0.0 
-5.992070853052e-05 6.076365827623e-03 0.0 
0.0 0.0 0.0 
7.981477196377e-04 2.164070375092e-03 0.0 
2.164070375092e-03 5.335989142804e-03 0.0 
0.0 0.0 0.0 
2.361263501772e-03 1.004423826424e-03 0.0 
1.004423826424e-03 4.010470624296e-04 0.0 
0.0 0.0 0.0 
-4.245012607929e-05 2.211406295246e-03 0.0 
2.211406295246e-03 7.332856093118e-03 0.0 
0.0 0.0 0.0 
1.739498233867e-03 -1.781283179020e-03 0.0 
-1.781283179020e-03 -4.039433212993e-03 0.0 
0.0 0.0 0.0 
1.503968412742e-05 2.115629580116e-03 0.0 
2.115629580116e-03 8.017073278653e-03 0.0 
0.0 0.0 0.0 
1.139429232164e-03 1.370526703277e-03 0.0 
1.370526703277e-03 5.521255610670e-03 0.0 
0.0 0.0 0.0 
-3.212485339452e-04 2.031458693896e-03 0.0 
2.031458693896e-03 1.043906515216e-02 0.0 
0.0 0.0 0.0 
2.132824652024e-05 2.105064983690e-03 0.0 
2.105064983690e-03 8.384992521459e-03 0.0 
0.0 0.0 0.0 
2.590078667012e-03 4.203435344219e-04 0.0 
4.203435344219e-04 -1.116270762264e-03 0.0 
0.0 0.0 0.0 
3.947204867198e-04 -1.639712359778e-04 0.0 
-1.639712359778e-04 5.315699165560e-03 0.0 
0.0 0.0 0.0 
-3.493952262604e-04 7.148513529644e-04 0.0 
7.148513529644e-04 1.228135154725e-02 0.0 
0.0 0.0 0.0 
3.486388333440e-04 1.859341683222e-03 0.0 
1.859341683222e-03 7.758649382684e-03 0.0 
0.0 0.0 0.0 
9.590998164881e-04 1.559569626588e-03 0.0 
1.559569626588e-03 6.094684515886e-03 0.0 
0.0 0.0 0.0 
1.795634814143e-03 1.657183565627e-03 0.0 
1.657183565627e-03 2.601807831704e-03 0.0 
0.0 0.0 0.0 
-6.570772695946e-06 2.152391502692e-03 0.0 
2.152391502692e-03 7.667289504682e-03 0.0 
0.0 0.0 0.0 
1.131139891448e-04 -2.159935949781e-05 0.0 
-2.159935949781e-05 6.404776753538e-03 0.0 
0.0 0.0 0.0 
-4.834933222608e-05 -1.766589268633e-04 0.0 
-1.766589268633e-04 4.292468319432e-03 0.0 
0.0 0.0 0.0 
1.449229917518e-04 2.127431967306e-03 0.0 
2.127431967306e-03 7.768069607790e-03 0.0 
0.0 0.0 0.0 
-8.837337765188e-04 5.784953142919e-04 0.0 
5.784953142919e-04 1.103778642907e-02 0.0 
0.0 0.0 0.0 
3.390371919130e-04 -7.013609932850e-05 0.0 
-7.013609932850e-05 5.785950071765e-03 0.0 
0.0 0.0 0.0 
6.299689278910e-04 3.798679405454e-05 0.0 
3.798679405454e-05 5.364284732832e-03 0.0 
0.0 0.0 0.0 
-7.387292691093e-04 4.312564227307e-06 0.0 
4.312564227307e-06 9.493351163759e-03 0.0 
0.0 0.0 0.0 
-7.277960876465e-04 7.734524481270e-06 0.0 
7.734524481270e-06 9.486149850170e-03 0.0 
0.0 0.0 0.0 
-1.068418678731e-03 1.353734804839e-03 0.0 
1.353734804839e-03 1.037098091204e-02 0.0 
0.0 0.0 0.0 
1.252616312410e-04 2.154366920332e-03 0.0 
2.154366920332e-03 7.386373993135e-03 0.0 
0.0 0.0 0.0 
3.433125603411e-04 -4.398342039002e-04 0.0 
-4.398342039002e-04 4.309911316376e-03 0.0 
0.0 0.0 0.0 
-7.283927537236e-04 1.855275680654e-03 0.0 
1.855275680654e-03 9.287486842467e-03 0.0 
0.0 0.0 0.0 
1.055808225813e-03 2.101617780331e-03 0.0 
2.101617780331e-03 4.612446801691e-03 0.0 
0.0 0.0 0.0 
8.404378907234e-04 9.726007516241e-04 0.0 
9.726007516241e-04 5.965226215508e-03 0.0 
0.0 0.0 0.0 
1.661953198781e-03 1.946558334334e-03 0.0 
1.946558334334e-03 2.559299458649e-03 0.0 
0.0 0.0 0.0 
-2.010783814995e-04 1.105606622451e-03 0.0 
1.105606622451e-03 1.256436306948e-02 0.0 
0.0 0.0 0.0 
-1.183846467611e-03 6.703973309291e-04 0.0 
6.703973309291e-04 9.865983576807e-03 0.0 
0.0 0.0 0.0 
9.809021999003e-04 2.143420391393e-03 0.0 
2.143420391393e-03 4.892020919365e-03 0.0 
0.0 0.0 0.0 
6.096407228784e-04 -4.727232135310e-04 0.0 
-4.727232135310e-04 3.985911405063e-03 0.0 
0.0 0.0 0.0 
2.533793615544e-03 1.125589481026e-03 0.0 
1.125589481026e-03 -1.123831571720e-03 0.0 
0.0 0.0 0.0 
5.394675082686e-04 -7.646823409809e-04 0.0 
-7.646823409809e-04 3.255824809711e-03 0.0 
0.0 0.0 0.0 
9.522035404097e-05 2.205768706560e-03 0.0 
2.205768706560e-03 7.018195926104e-03 0.0 
0.0 0.0 0.0 
-3.990583590350e-04 2.132579456826e-03 0.0 
2.132579456826e-03 7.669487544783e-03 0.0 
0.0 0.0 0.0 
-9.592844158753e-04 7.252470534036e-04 0.0 
7.252470534036e-04 1.091136160205e-02 0.0 
0.0 0.0 0.0 
-5.455755094090e-04 1.918291090036e-03 0.0 
1.918291090036e-03 9.071962093141e-03 0.0 
0.0 0.0 0.0 
-6.299202828740e-04 1.881957549135e-03 0.0 
1.881957549135e-03 9.552671049545e-03 0.0 
0.0 0.0 0.0 
2.331920148060e-04 -8.341005796050e-05 0.0 
-8.341005796050e-05 9.913906814638e-04 0.0 
0.0 0.0 0.0 
5.412060865935e-04 -7.562268986735e-04 0.0 
-7.562268986735e-04 3.213302240455e-03 0.0 
0.0 0.0 0.0 
-6.072709307949e-04 2.383616441858e-03 0.0 
2.383616441858e-03 6.931053910171e-03 0.0 
0.0 0.0 0.0 
-8.724807410064e-04 1.631494849822e-03 0.0 
1.631494849822e-03 9.497564654017e-03 0.0 
0.0 0.0 0.0 
-9.471108885403e-04 1.615347460487e-03 0.0 
1.615347460487e-03 9.895159234090e-03 0.0 
0.0 0.0 0.0 
9.157351274733e-04 1.415206798973e-03 0.0 
1.415206798973e-03 6.129050903338e-03 0.0 
0.0 0.0 0.0 
1.179633543069e-05 -1.443846252476e-05 0.0 
-1.443846252476e-05 1.699114886184e-03 0.0 
0.0 0.0 0.0 
2.450763497021e-03 -1.434430342830e-03 0.0 
-1.434430342830e-03 -3.060446514139e-03 0.0 
0.0 0.0 0.0 
2.863480410944e-04 2.343386725242e-03 0.0 
2.343386725242e-03 5.954959995450e-03 0.0 
0.0 0.0 0.0 
3.757703180580e-04 -7.867480281838e-04 0.0 
-7.867480281838e-04 3.218844199299e-03 0.0 
0.0 0.0 0.0 
-1.315465887548e-03 5.279817453795e-04 0.0 
5.279817453795e-04 9.005899828142e-03 0.0 
0.0 0.0 0.0 
-1.289348947977e-03 4.824171986607e-04 0.0 
4.824171986607e-04 9.243718509734e-03 0.0 
0.0 0.0 0.0 
-1.086576710713e-03 7.448510601039e-04 0.0 
7.448510601039e-04 1.090950024103e-02 0.0 
0.0 0.0 0.0 
1.401397902449e-03 2.761708274288e-03 0.0 
2.761708274288e-03 -7.148660385100e-04 0.0 
0.0 0.0 0.0 
4.669174353251e-04 -5.208634248454e-04 0.0 
-5.208634248454e-04 3.906503354754e-03 0.0 
0.0 0.0 0.0 
1.224942766427e-03 6.524581359957e-04 0.0 
6.524581359957e-04 4.782496684143e-03 0.0 
0.0 0.0 0.0 
2.780464892529e-03 -4.251046947758e-04 0.0 
-4.251046947758e-04 -3.280823102416e-03 0.0 
0.0 0.0 0.0 
2.939563772242e-05 2.220136196514e-03 0.0 
2.220136196514e-03 9.334185660311e-03 0.0 
0.0 0.0 0.0 
-6.785661669936e-04 7.613374234619e-04 0.0 
7.613374234619e-04 1.187910132359e-02 0.0 
0.0 0.0 0.0 
2.086626466440e-04 -5.506815010272e-04 0.0 
-5.506815010272e-04 3.829455088999e-03 0.0 
0.0 0.0 0.0 
3.841649101537e-04 -7.378739700603e-05 0.0 
-7.378739700603e-05 5.603704590779e-03 0.0 
0.0 0.0 0.0 
1.661992980637e-04 -8.756646028433e-05 0.0 
-8.756646028433e-05 6.819225869803e-04 0.0 
0.0 0.0 0.0 
1.263300471466e-03 4.153139255020e-04 0.0 
4.153139255020e-04 4.416245782154e-03 0.0 
0.0 0.0 0.0 
1.876651069097e-04 2.272136613510e-03 0.0 
2.272136613510e-03 6.666014738449e-03 0.0 
0.0 0.0 0.0 
2.243418734746e-04 -6.710466859450e-05 0.0 
-6.710466859450e-05 6.561641916965e-04 0.0 
0.0 0.0 0.0 
-5.662383497308e-04 7.778482376903e-04 0.0 
7.778482376903e-04 1.187740860037e-02 0.0 
0.0 0.0 0.0 
2.725577483740e-03 -5.828879111091e-04 0.0 
-5.828879111091e-04 -3.616448549815e-03 0.0 
0.0 0.0 0.0 
-9.046820107249e-04 1.716773934192e-03 0.0 
1.716773934192e-03 9.484723794653e-03 0.0 
0.0 0.0 0.0 
-3.071498877046e-04 2.185980535117e-03 0.0 
2.185980535117e-03 7.661877468885e-03 0.0 
0.0 0.0 0.0 
1.784148031037e-03 -2.208929318054e-04 0.0 
-2.208929318054e-04 1.994336894660e-03 0.0 
0.0 0.0 0.0 
1.334834153675e-03 -9.576593566563e-05 0.0 
-9.576593566563e-05 3.615398961278e-03 0.0 
0.0 0.0 0.0 
-5.269033474877e-04 9.074810470246e-04 0.0 
9.074810470246e-04 1.195467925125e-02 0.0 
0.0 0.0 0.0 
1.223070004923e-03 6.687892672745e-05 0.0 
6.687892672745e-05 4.157748526833e-03 0.0 
0.0 0.0 0.0 
5.569520607318e-04 2.273021240743e-03 0.0 
2.273021240743e-03 5.617288535814e-03 0.0 
0.0 0.0 0.0 
4.437767571095e-04 2.306237986453e-03 0.0 
2.306237986453e-03 5.959578939947e-03 0.0 
0.0 0.0 0.0 
-1.512474423937e-03 2.721250042618e-03 0.0 
2.721250042618e-03 9.385405681537e-04 0.0 
0.0 0.0 0.0 
2.600263324925e-03 -3.941217466842e-04 0.0 
-3.941217466842e-04 -3.864325236660e-03 0.0 
0.0 0.0 0.0 
1.779625286824e-04 2.105432102786e-03 0.0 
2.105432102786e-03 8.162268365159e-03 0.0 
0.0 0.0 0.0 
-1.221425514457e-03 8.200289821525e-04 0.0 
8.200289821525e-04 1.041731426446e-02 0.0 
0.0 0.0 0.0 
2.869479954146e-04 2.131919162212e-03 0.0 
2.131919162212e-03 7.984136015327e-03 0.0 
0.0 0.0 0.0 
1.279906431474e-03 2.795346516382e-03 0.0 
2.795346516382e-03 1.193921085237e-03 0.0 
0.0 0.0 0.0 
-7.726824025366e-04 1.362734751326e-03 0.0 
1.362734751326e-03 1.096360033532e-02 0.0 
0.0 0.0 0.0 
1.492033001504e-05 2.133566717367e-03 0.0 
2.133566717367e-03 8.771450919171e-03 0.0 
0.0 0.0 0.0 
-1.221554074863e-03 5.641836174975e-04 0.0 
5.641836174975e-04 9.334429519888e-03 0.0 
0.0 0.0 0.0 
1.465440275512e-04 2.121224750373e-03 0.0 
2.121224750373e-03 8.159754761819e-03 0.0 
0.0 0.0 0.0 
2.901880149107e-04 -1.356746713598e-04 0.0 
-1.356746713598e-04 5.614081576813e-03 0.0 
0.0 0.0 0.0 
3.266267152304e-04 2.178111546106e-03 0.0 
2.178111546106e-03 6.727099570920e-03 0.0 
0.0 0.0 0.0 
5.903763386352e-04 -6.144589059095e-04 0.0 
-6.144589059095e-04 3.587760101545e-03 0.0 
0.0 0.0 0.0 
5.708939304117e-04 -6.120103309654e-04 0.0 
-6.120103309654e-04 3.660618962706e-03 0.0 
0.0 0.0 0.0 
-6.375701851242e-04 1.262100724573e-03 0.0 
1.262100724573e-03 1.180380216414e-02 0.0 
0.0 0.0 0.0 
1.421404823590e-03 -2.741896922200e-04 0.0 
-2.741896922200e-04 3.084857226168e-03 0.0 
0.0 0.0 0.0 
-1.503722323187e-04 2.192126631217e-03 0.0 
2.192126631217e-03 7.335992634722e-03 0.0 
0.0 0.0 0.0 
1.487632240118e-03 1.773438349582e-03 0.0 
1.773438349582e-03 3.755145556862e-03 0.0 
0.0 0.0 0.0 
1.080132384270e-03 2.110253371301e-04 0.0 
2.110253371301e-04 4.712394669290e-03 0.0 
0.0 0.0 0.0 
1.258784449904e-03 2.040916194974e-03 0.0 
2.040916194974e-03 4.133654917831e-03 0.0 
0.0 0.0 0.0 
2.601795494131e-03 4.807542231902e-04 0.0 
4.807542231902e-04 -9.628691275179e-04 0.0 
0.0 0.0 0.0 
1.833143793976e-03 5.270969256371e-04 0.0 
5.270969256371e-04 2.908555005229e-03 0.0 
0.0 0.0 0.0 
2.475229126577e-03 1.041625320277e-03 0.0 
1.041625320277e-03 -3.822213545056e-04 0.0 
0.0 0.0 0.0 
-7.185667108401e-04 1.791965521910e-03 0.0 
1.791965521910e-03 9.296464292087e-03 0.0 
0.0 0.0 0.0 
2.465253426695e-03 4.595786207478e-04 0.0 
4.595786207478e-04 -2.917490339426e-04 0.0 
0.0 0.0 0.0 
-6.254004630997e-04 1.963712171354e-03 0.0 
1.963712171354e-03 8.791965530282e-03 0.0 
0.0 0.0 0.0 
9.408892266485e-04 1.426065206373e-03 0.0 
1.426065206373e-03 6.108611204176e-03 0.0 
0.0 0.0 0.0 
1.125608780371e-03 1.367760079130e-03 0.0 
1.367760079130e-03 5.542873350673e-03 0.0 
0.0 0.0 0.0 
1.381795206156e-03 2.108907210544e-03 0.0 
2.108907210544e-03 3.336188312725e-03 0.0 
0.0 0.0 0.0 
-1.025211752058e-03 7.442588186702e-04 0.0 
7.442588186702e-04 1.066937245651e-02 0.0 
0.0 0.0 0.0 
2.769334211954e-04 -5.247858035794e-05 0.0 
-5.247858035794e-05 5.889235118655e-03 0.0 
0.0 0.0 0.0 
2.019271044231e-04 -1.106166942747e-04 0.0 
-1.106166942747e-04 5.899057100738e-03 0.0 
0.0 0.0 0.0 
8.022541604580e-04 2.884757927614e-03 0.0 
2.884757927614e-03 -8.240765410804e-04 0.0 
0.0 0.0 0.0 
-4.494823181773e-04 2.005540953833e-03 0.0 
2.005540953833e-03 8.539926330178e-03 0.0 
0.0 0.0 0.0 
1.324421780899e-04 2.247496887809e-05 0.0 
2.247496887809e-05 6.634002071665e-03 0.0 
0.0 0.0 0.0 
-1.157392643068e-03 1.803256394791e-03 0.0 
1.803256394791e-03 7.181561981964e-03 0.0 
0.0 0.0 0.0 
2.381386530961e-04 -4.561472248469e-04 0.0 
-4.561472248469e-04 4.206752100884e-03 0.0 
0.0 0.0 0.0 
-1.763601268082e-03 2.776767762429e-03 0.0 
2.776767762429e-03 1.667968607160e-03 0.0 
0.0 0.0 0.0 
1.875959322204e-04 -3.383110850550e-05 0.0 
-3.383110850550e-05 6.158596454447e-03 0.0 
0.0 0.0 0.0 
2.571044578703e-03 1.118596185130e-03 0.0 
1.118596185130e-03 -1.223930148045e-03 0.0 
0.0 0.0 0.0 
-3.353390879868e-05 -1.078204080532e-04 0.0 
-1.078204080532e-04 4.454491622465e-03 0.0 
0.0 0.0 0.0 
1.046567061998e-03 1.824517786856e-03 0.0 
1.824517786856e-03 5.545791138321e-03 0.0 
0.0 0.0 0.0 
-1.161487724768e-03 7.753157680548e-04 0.0 
7.753157680548e-04 1.066591399629e-02 0.0 
0.0 0.0 0.0 
-1.099461103668e-03 7.742887351956e-04 0.0 
7.742887351956e-04 1.042275360799e-02 0.0 
0.0 0.0 0.0 
3.129275216367e-04 2.251796290015e-03 0.0 
2.251796290015e-03 6.334632613075e-03 0.0 
0.0 0.0 0.0 
-1.349687556626e-03 6.741142720332e-04 0.0 
6.741142720332e-04 8.532240809983e-03 0.0 
0.0 0.0 0.0 
-1.327141332167e-03 6.001820690051e-04 0.0 
6.001820690051e-04 8.775508580644e-03 0.0 
0.0 0.0 0.0 
1.306700980908e-04 -8.936292062841e-05 0.0 
-8.936292062841e-05 6.168095188610e-03 0.0 
0.0 0.0 0.0 
1.220593276328e-03 -4.285743587952e-05 0.0 
-4.285743587952e-05 3.842126844137e-03 0.0 
0.0 0.0 0.0 
1.681334976905e-03 -3.996905608213e-05 0.0 
-3.996905608213e-05 2.611482146871e-03 0.0 
0.0 0.0 0.0 
1.384264041742e-03 5.901085300157e-04 0.0 
5.901085300157e-04 4.393995535163e-03 0.0 
0.0 0.0 0.0 
1.980704436294e-03 4.246174491728e-04 0.0 
4.246174491728e-04 2.272326315024e-03 0.0 
0.0 0.0 0.0 
2.447877853532e-03 1.035799258028e-03 0.0 
1.035799258028e-03 -3.404885703523e-04 0.0 
0.0 0.0 0.0 
-1.172855858563e-03 4.764426723724e-04 0.0 
4.764426723724e-04 8.575099618858e-03 0.0 
0.0 0.0 0.0 
-1.267559088601e-03 6.946341624124e-04 0.0 
6.946341624124e-04 1.010961075603e-02 0.0 
0.0 0.0 0.0 
-7.388742471549e-04 4.421385435404e-06 0.0 
4.421385435404e-06 9.493536820355e-03 0.0 
0.0 0.0 0.0 
1.104774705358e-03 1.227330502226e-03 0.0 
1.227330502226e-03 5.562869138732e-03 0.0 
0.0 0.0 0.0 
1.533376673045e-03 1.881764830646e-03 0.0 
1.881764830646e-03 3.368310307062e-03 0.0 
0.0 0.0 0.0 
5.957943957151e-04 1.771469817467e-03 0.0 
1.771469817467e-03 7.199507030768e-03 0.0 
0.0 0.0 0.0 
2.278403950418e-05 -1.256899057598e-05 0.0 
-1.256899057598e-05 6.258081881978e-03 0.0 
0.0 0.0 0.0 
1.835920910609e-03 4.676909259844e-04 0.0 
4.676909259844e-04 2.729160346161e-03 0.0 
0.0 0.0 0.0 
1.035836760412e-04 -1.569939863099e-05 0.0 
-1.569939863099e-05 6.844892146900e-03 0.0 
0.0 0.0 0.0 
2.356285558045e-03 -2.106721262790e-05 0.0 
-2.106721262790e-05 -5.998414024189e-05 0.0 
0.0 0.0 0.0 
6.051680078847e-04 1.868405811569e-03 0.0 
1.868405811569e-03 7.197477712807e-03 0.0 
0.0 0.0 0.0 
4.493147273492e-04 2.209294922820e-03 0.0 
2.209294922820e-03 6.340255631434e-03 0.0 
0.0 0.0 0.0 
5.328006063208e-04 2.112749463716e-03 0.0 
2.112749463716e-03 6.472131722276e-03 0.0 
0.0 0.0 0.0 
8.836646793533e-04 6.722685590012e-04 0.0 
6.722685590012e-04 5.639365659019e-03 0.0 
0.0 0.0 0.0 
4.964596042314e-04 -1.217337567045e-03 0.0 
-1.217337567045e-03 2.154421419162e-03 0.0 
0.0 0.0 0.0 
-3.183803708898e-04 2.102021561508e-03 0.0 
2.102021561508e-03 7.962261577267e-03 0.0 
0.0 0.0 0.0 
1.844428711853e-03 1.286205972786e-04 0.0 
1.286205972786e-04 2.318204446342e-03 0.0 
0.0 0.0 0.0 
-4.837935024328e-04 2.076256034038e-03 0.0 
2.076256034038e-03 8.250009478543e-03 0.0 
0.0 0.0 0.0 
1.197507097270e-03 2.621703465650e-03 0.0 
2.621703465650e-03 2.211750764846e-03 0.0 
0.0 0.0 0.0 
7.108942713971e-04 2.037513361344e-03 0.0 
2.037513361344e-03 6.286343864434e-03 0.0 
0.0 0.0 0.0 
1.977089832835e-03 7.607810019448e-05 0.0 
7.607810019448e-05 1.945637998842e-03 0.0 
0.0 0.0 0.0 
4.806287972923e-04 -3.976804791714e-04 0.0 
-3.976804791714e-04 4.301971383309e-03 0.0 
0.0 0.0 0.0 
-5.425169394124e-04 2.008108291384e-03 0.0 
2.008108291384e-03 8.259376168169e-03 0.0 
0.0 0.0 0.0 
-9.180164499344e-04 3.382979553881e-03 0.0 
3.382979553881e-03 -5.629227626017e-04 0.0 
0.0 0.0 0.0 
1.379058715726e-03 1.720848149742e-03 0.0 
1.720848149742e-03 4.342712231290e-03 0.0 
0.0 0.0 0.0 
-1.010133256153e-03 3.057742756369e-03 0.0 
3.057742756369e-03 1.457180386615e-03 0.0 
0.0 0.0 0.0 
-9.924253925464e-05 -3.045544139709e-04 0.0 
-3.045544139709e-04 1.189024509274e-03 0.0 
0.0 0.0 0.0 
3.582800233048e-04 -4.305442016627e-04 0.0 
-4.305442016627e-04 4.201346961860e-03 0.0 
0.0 0.0 0.0 
-2.905874234902e-04 2.052063772451e-03 0.0 
2.052063772451e-03 9.161172696579e-03 0.0 
0.0 0.0 0.0 
-1.077685238637e-03 9.357310295421e-04 0.0 
9.357310295421e-04 1.044816353029e-02 0.0 
0.0 0.0 0.0 
-1.390394549114e-03 9.184462320426e-04 0.0 
9.184462320426e-04 8.033560511278e-03 0.0 
0.0 0.0 0.0 
0.0 1.137818191978e-03 0.0 
1.137818191978e-03 1.252575136428e-02 0.0 
0.0 0.0 0.0 
-1.624597768670e-03 2.763961694093e-03 0.0 
2.763961694093e-03 2.599671155348e-04 0.0 
0.0 0.0 0.0 
-1.350259872431e-03 7.923185955413e-04 0.0 
7.923185955413e-04 8.299158715155e-03 0.0 
0.0 0.0 0.0 
1.689105107506e-03 6.233591597341e-05 0.0 
6.233591597341e-05 2.895542956358e-03 0.0 
0.0 0.0 0.0 
1.413307441143e-04 -4.459859810037e-04 0.0 
-4.459859810037e-04 4.104788170926e-03 0.0 
0.0 0.0 0.0 
-1.400733262888e-03 1.183717776741e-03 0.0 
1.183717776741e-03 8.746851482870e-03 0.0 
0.0 0.0 0.0 
2.035763642629e-03 -6.965118789956e-04 0.0 
-6.965118789956e-04 5.214834107057e-04 0.0 
0.0 0.0 0.0 
1.317382876473e-03 -2.207416391677e-04 0.0 
-2.207416391677e-04 3.279644118261e-03 0.0 
0.0 0.0 0.0 
2.085502326752e-04 2.192389676084e-03 0.0 
2.192389676084e-03 7.019564352103e-03 0.0 
0.0 0.0 0.0 
1.255999087653e-03 1.689555780501e-03 0.0 
1.689555780501e-03 4.926823519759e-03 0.0 
0.0 0.0 0.0 
-4.789775817433e-04 1.859105634724e-03 0.0 
1.859105634724e-03 1.027477424187e-02 0.0 
0.0 0.0 0.0 
1.503825949713e-03 2.956045857983e-03 0.0 
2.956045857983e-03 -2.062892558794e-03 0.0 
0.0 0.0 0.0 
3.279131080940e-04 -5.354521068500e-04 0.0 
-5.354521068500e-04 3.826387426664e-03 0.0 
0.0 0.0 0.0 
1.675378002628e-04 -3.405792679177e-04 0.0 
-3.405792679177e-04 4.361138055552e-03 0.0 
0.0 0.0 0.0 
-3.756432229451e-05 -1.108497796968e-03 0.0 
-1.108497796968e-03 1.999631913852e-03 0.0 
0.0 0.0 0.0 
-1.201730514661e-03 5.380478423309e-04 0.0 
5.380478423309e-04 9.577857560422e-03 0.0 
0.0 0.0 0.0 
-1.197857102730e-03 9.935331460892e-04 0.0 
9.935331460892e-04 1.044065026693e-02 0.0 
0.0 0.0 0.0 
-1.100091940986e-05 -4.623437128250e-05 0.0 
-4.623437128250e-05 5.675148871944e-03 0.0 
0.0 0.0 0.0 
3.404676945720e-04 -8.392858053120e-05 0.0 
-8.392858053120e-05 6.028098159780e-04 0.0 
0.0 0.0 0.0 
1.906254351518e-04 -6.268698896576e-04 0.0 
-6.268698896576e-04 -4.581508953477e-03 0.0 
0.0 0.0 0.0 
-2.653463427915e-04 -9.636293476138e-04 0.0 
-9.636293476138e-04 1.539626600239e-03 0.0 
0.0 0.0 0.0 
8.564487853557e-05 -3.504455059015e-04 0.0 
-3.504455059015e-04 4.363296848536e-03 0.0 
0.0 0.0 0.0 
2.237613556475e-03 1.144492743479e-04 0.0 
1.144492743479e-04 6.901873548693e-04 0.0 
0.0 0.0 0.0 
1.984473913504e-03 -8.920325049567e-04 0.0 
-8.920325049567e-04 4.914212265206e-05 0.0 
0.0 0.0 0.0 
2.469654764020e-03 -1.679300548302e-04 0.0 
-1.679300548302e-04 -8.651402861635e-04 0.0 
0.0 0.0 0.0 
2.641932824901e-04 -3.450707936153e-04 0.0 
-3.450707936153e-04 4.479337592871e-03 0.0 
0.0 0.0 0.0 
-9.648420536669e-04 1.288861724145e-03 0.0 
1.288861724145e-03 1.038263856903e-02 0.0 
0.0 0.0 0.0 
1.065863832137e-04 -2.547973848403e-04 0.0 
-2.547973848403e-04 4.602673614497e-03 0.0 
0.0 0.0 0.0 
2.347991905372e-03 5.685954256032e-04 0.0 
5.685954256032e-04 6.152418966427e-04 0.0 
0.0 0.0 0.0 
-4.106178906518e-04 2.049154618259e-03 0.0 
2.049154618259e-03 8.534086089591e-03 0.0 
0.0 0.0 0.0 
-9.526814451043e-04 2.641012942249e-04 0.0 
2.641012942249e-04 1.016120670103e-02 0.0 
0.0 0.0 0.0 
9.135453277231e-04 1.810075969703e-03 0.0 
1.810075969703e-03 6.113027044136e-03 0.0 
0.0 0.0 0.0 
4.147472689087e-05 -2.642671106392e-04 0.0 
-2.642671106392e-04 4.604712221835e-03 0.0 
0.0 0.0 0.0 
1.642840450446e-04 -3.665057032593e-04 0.0 
-3.665057032593e-04 4.483860833417e-03 0.0 
0.0 0.0 0.0 
-1.513678421920e-03 1.287382021129e-03 0.0 
1.287382021129e-03 7.562595148596e-03 0.0 
0.0 0.0 0.0 
2.073832913512e-03 -1.971806090756e-04 0.0 
-1.971806090756e-04 9.980575460393e-04 0.0 
0.0 0.0 0.0 
5.775451049783e-05 -1.772287713700e-04 0.0 
-1.772287713700e-04 4.829048478899e-03 0.0 
0.0 0.0 0.0 
-6.157468424840e-04 4.775208476847e-05 0.0 
4.775208476847e-05 1.094838665798e-02 0.0 
0.0 0.0 0.0 
-6.664641243833e-04 4.250849362101e-05 0.0 
4.250849362101e-05 1.058764280352e-02 0.0 
0.0 0.0 0.0 
-1.428437507297e-03 1.091864481869e-03 0.0 
1.091864481869e-03 7.805997092639e-03 0.0 
0.0 0.0 0.0 
1.846902251630e-04 -2.654166525715e-04 0.0 
-2.654166525715e-04 4.740440974978e-03 0.0 
0.0 0.0 0.0 
1.393126441731e-03 -1.405102559804e-03 0.0 
-1.405102559804e-03 5.762800438935e-04 0.0 
0.0 0.0 0.0 
-3.612764987537e-04 3.211521930614e-03 0.0 
3.211521930614e-03 1.384743383601e-03 0.0 
0.0 0.0 0.0 
5.892388948106e-04 1.772431010715e-03 0.0 
1.772431010715e-03 7.219364695823e-03 0.0 
0.0 0.0 0.0 
-5.161311920577e-04 -1.269153705586e-03 0.0 
-1.269153705586e-03 1.378124840090e-03 0.0 
0.0 0.0 0.0 
1.486460860862e-03 -1.160347358193e-03 0.0 
-1.160347358193e-03 1.104328159234e-03 0.0 
0.0 0.0 0.0 
1.341262048685e-03 1.733212084331e-03 0.0 
1.733212084331e-03 4.462392059217e-03 0.0 
0.0 0.0 0.0 
-1.154231577388e-03 6.016692225496e-04 0.0 
6.016692225496e-04 8.124638540254e-03 0.0 
0.0 0.0 0.0 
8.239055963921e-06 -1.878312581799e-04 0.0 
-1.878312581799e-04 4.832450694561e-03 0.0 
0.0 0.0 0.0 
-8.042639197536e-05 -5.587744156208e-05 0.0 
-5.587744156208e-05 2.328378066834e-03 0.0 
0.0 0.0 0.0 
-1.285339617818e-03 5.472047669950e-04 0.0 
5.472047669950e-04 9.781816940882e-03 0.0 
0.0 0.0 0.0 
1.035479101796e-04 -2.855011078820e-04 0.0 
-2.855011078820e-04 4.744568378510e-03 0.0 
0.0 0.0 0.0 
1.587950784374e-03 -3.463257944385e-04 0.0 
-3.463257944385e-04 2.355459603821e-03 0.0 
0.0 0.0 0.0 
3.253211339871e-04 -5.531163956664e-04 0.0 
-5.531163956664e-04 3.912628356059e-03 0.0 
0.0 0.0 0.0 
6.430342387298e-05 2.590198652811e-03 0.0 
2.590198652811e-03 -2.240354993741e-03 0.0 
0.0 0.0 0.0 
-4.047528342437e-04 2.113036318686e-05 0.0 
2.113036318686e-05 1.201921363143e-02 0.0 
0.0 0.0 0.0 
1.696450416839e-03 -7.912896483755e-04 0.0 
-7.912896483755e-04 1.179990168207e-03 0.0 
0.0 0.0 0.0 
9.942531376557e-04 1.131353522090e-03 0.0 
1.131353522090e-03 5.832931680182e-03 0.0 
0.0 0.0 0.0 
6.279834656922e-04 2.049008650954e-03 0.0 
2.049008650954e-03 6.483121083879e-03 0.0 
0.0 0.0 0.0 
1.191545244472e-04 -1.934426926013e-04 0.0 
-1.934426926013e-04 4.985204511938e-03 0.0 
0.0 0.0 0.0 
5.528930376442e-05 -2.111810228748e-04 0.0 
-2.111810228748e-04 4.988727876061e-03 0.0 
0.0 0.0 0.0 
2.373353382671e-03 8.447813188383e-05 0.0 
8.447813188383e-05 2.157191120571e-04 0.0 
0.0 0.0 0.0 
-7.895574996779e-04 -1.217998748167e-03 0.0 
-1.217998748167e-03 9.786053390664e-04 0.0 
0.0 0.0 0.0 
2.783086337548e-04 3.020679948547e-03 0.0 
3.020679948547e-03 -2.327655201844e-03 0.0 
0.0 0.0 0.0 
6.640673514235e-05 -1.296251635872e-04 0.0 
-1.296251635872e-04 5.217698749258e-03 0.0 
0.0 0.0 0.0 
9.714036165909e-04 8.112864448148e-04 0.0 
8.112864448148e-04 5.644334928528e-03 0.0 
0.0 0.0 0.0 
8.020980897532e-04 -1.523226424542e-03 0.0 
-1.523226424542e-03 1.258558280009e-03 0.0 
0.0 0.0 0.0 
-2.446352448715e-04 2.081519830992e-03 0.0 
2.081519830992e-03 8.277496372241e-03 0.0 
0.0 0.0 0.0 
-1.053538581354e-03 2.053546098912e-03 0.0 
2.053546098912e-03 6.601314421498e-03 0.0 
0.0 0.0 0.0 
-5.385600019796e-04 1.964855114033e-03 0.0 
1.964855114033e-03 9.065413244908e-03 0.0 
0.0 0.0 0.0 
4.063672598935e-04 4.577630611736e-04 0.0 
4.577630611736e-04 6.810049723077e-03 0.0 
0.0 0.0 0.0 
-4.301973520421e-03 -1.190640626137e-04 0.0 
-1.190640626137e-04 -2.971310448073e-03 0.0 
0.0 0.0 0.0 
0.0 1.049446387478e-04 0.0 
1.049446387478e-04 1.290798166798e-02 0.0 
0.0 0.0 0.0 
0.0 -6.917018101567e-06 0.0 
-6.917018101567e-06 7.613524786570e-03 0.0 
0.0 0.0 0.0 
-7.088587464106e-04 -3.020502498634e-05 0.0 
-3.020502498634e-05 9.935704648551e-03 0.0 
0.0 0.0 0.0 
1.211245949934e-03 -1.112259980464e-03 0.0 
-1.112259980464e-03 1.606121039129e-03 0.0 
0.0 0.0 0.0 
4.374909661720e-04 2.134275135274e-03 0.0 
2.134275135274e-03 6.733586388611e-03 0.0 
0.0 0.0 0.0 
2.336218584117e-03 5.141552476031e-04 0.0 
5.141552476031e-04 4.794661961525e-04 0.0 
0.0 0.0 0.0 
5.683602840967e-05 -2.635396365051e-04 0.0 
-2.635396365051e-04 9.902228423218e-04 0.0 
0.0 0.0 0.0 
-1.881014134575e-03 2.920343218193e-03 0.0 
2.920343218193e-03 9.396504950299e-04 0.0 
0.0 0.0 0.0 
-3.688955015893e-04 3.135484353749e-04 0.0 
3.135484353749e-04 1.229347496930e-02 0.0 
0.0 0.0 0.0 
-1.148562195738e-03 1.175584705689e-03 0.0 
1.175584705689e-03 1.042756931556e-02 0.0 
0.0 0.0 0.0 
-1.282090584474e-03 4.528822266618e-04 0.0 
4.528822266618e-04 9.488815684729e-03 0.0 
0.0 0.0 0.0 
8.147064173114e-05 2.466006771444e-03 0.0 
2.466006771444e-03 9.415775102605e-03 0.0 
0.0 0.0 0.0 
-2.127070431657e-05 -4.499020593781e-05 0.0 
-4.499020593781e-05 1.926615598293e-03 0.0 
0.0 0.0 0.0 
1.185515778448e-04 2.389328864466e-03 0.0 
2.389328864466e-03 9.098046748446e-03 0.0 
0.0 0.0 0.0 
-1.034334518115e-03 1.115603104622e-03 0.0 
1.115603104622e-03 1.043697493239e-02 0.0 
0.0 0.0 0.0 
7.488677066307e-04 -1.174704820116e-03 0.0 
-1.174704820116e-03 2.098883348755e-03 0.0 
0.0 0.0 0.0 
5.514912825291e-04 2.181867369427e-03 0.0 
2.181867369427e-03 6.039521710829e-03 0.0 
0.0 0.0 0.0 
1.236252636354e-03 -1.142499394104e-03 0.0 
-1.142499394104e-03 1.616852540505e-03 0.0 
0.0 0.0 0.0 
-4.783351970187e-04 3.101597374112e-03 0.0 
3.101597374112e-03 2.338563127727e-03 0.0 
0.0 0.0 0.0 
9.095651226236e-04 -1.286401644594e-03 0.0 
-1.286401644594e-03 1.722921300954e-03 0.0 
0.0 0.0 0.0 
-8.702988234989e-04 1.461425047657e-03 0.0 
1.461425047657e-03 1.028688927435e-02 0.0 
0.0 0.0 0.0 
1.778778556849e-05 -6.336764155395e-05 0.0 
-6.336764155395e-05 6.456315689765e-03 0.0 
0.0 0.0 0.0 
1.774887471272e-03 -8.481331234348e-04 0.0 
-8.481331234348e-04 1.051801937020e-03 0.0 
0.0 0.0 0.0 
-3.616312399216e-04 2.015737545284e-03 0.0 
2.015737545284e-03 8.838218208840e-03 0.0 
0.0 0.0 0.0 
-1.482836006938e-03 -2.551496296804e-04 0.0 
-2.551496296804e-04 -4.442797754376e-03 0.0 
0.0 0.0 0.0 
2.195813035510e-03 -2.482421547889e-04 0.0 
-2.482421547889e-04 6.473872653212e-04 0.0 
0.0 0.0 0.0 
-9.781297400989e-04 1.229741984524e-03 0.0 
1.229741984524e-03 1.099469745037e-02 0.0 
0.0 0.0 0.0 
4.452553123275e-04 -1.174712634736e-03 0.0 
-1.174712634736e-03 2.214572331642e-03 0.0 
0.0 0.0 0.0 
4.699994369581e-04 -1.560105034091e-03 0.0 
-1.560105034091e-03 1.423425880592e-03 0.0 
0.0 0.0 0.0 
6.793519890287e-04 2.110734527113e-03 0.0 
2.110734527113e-03 6.050322271924e-03 0.0 
0.0 0.0 0.0 
1.017690685237e-03 -2.245320705896e-03 0.0 
-2.245320705896e-03 -1.169751250253e-03 0.0 
0.0 0.0 0.0 
-1.706895931786e-03 1.711237501267e-03 0.0 
1.711237501267e-03 6.978971814585e-03 0.0 
0.0 0.0 0.0 
-1.568042188152e-03 1.577062600604e-03 0.0 
1.577062600604e-03 7.248447989116e-03 0.0 
0.0 0.0 0.0 
2.710184806523e-04 -1.293165459868e-03 0.0 
-1.293165459868e-03 1.946317024947e-03 0.0 
0.0 0.0 0.0 
1.500997148872e-03 -1.546445679820e-04 0.0 
-1.546445679820e-04 2.937891915996e-03 0.0 
0.0 0.0 0.0 
1.321015730583e-03 2.002885841067e-03 0.0 
2.002885841067e-03 3.887225585943e-03 0.0 
0.0 0.0 0.0 
-3.449761411281e-04 2.038517871385e-03 0.0 
2.038517871385e-03 8.835564091388e-03 0.0 
0.0 0.0 0.0 
-3.644327962757e-04 1.786339236519e-03 0.0 
1.786339236519e-03 1.104652925867e-02 0.0 
0.0 0.0 0.0 
-1.122191129213e-03 7.734556585778e-04 0.0 
7.734556585778e-04 7.665648979764e-03 0.0 
0.0 0.0 0.0 
-5.536040290118e-04 1.212198685959e-06 0.0 
1.212198685959e-06 1.132254405956e-02 0.0 
0.0 0.0 0.0 
-1.095623132217e-04 2.132255499898e-03 0.0 
2.132255499898e-03 9.818356357473e-03 0.0 
0.0 0.0 0.0 
2.479249762293e-03 5.192060475872e-04 0.0 
5.192060475872e-04 -1.455766661678e-04 0.0 
0.0 0.0 0.0 
-8.691528738994e-04 3.007638051285e-03 0.0 
3.007638051285e-03 1.455316174393e-03 0.0 
0.0 0.0 0.0 
-1.224916577663e-03 2.147143556557e-03 0.0 
2.147143556557e-03 7.121026885996e-03 0.0 
0.0 0.0 0.0 
1.390864413045e-03 -4.151937518966e-04 0.0 
-4.151937518966e-04 2.727161911560e-03 0.0 
0.0 0.0 0.0 
-6.020985698337e-04 1.843744909869e-03 0.0 
1.843744909869e-03 9.557397644398e-03 0.0 
0.0 0.0 0.0 
1.612598957832e-03 -2.131116486347e-04 0.0 
-2.131116486347e-04 2.695223743773e-03 0.0 
0.0 0.0 0.0 
1.119346208382e-03 2.736376111032e-03 0.0 
2.736376111032e-03 -1.873570387792e-03 0.0 
0.0 0.0 0.0 
1.391769338107e-03 1.866298777089e-05 0.0 
1.866298777089e-05 3.514903687263e-03 0.0 
0.0 0.0 0.0 
-6.307823551391e-04 3.008057132281e-03 0.0 
3.008057132281e-03 3.251909429224e-03 0.0 
0.0 0.0 0.0 
1.446483363670e-03 1.796914138741e-03 0.0 
1.796914138741e-03 3.915997904807e-03 0.0 
0.0 0.0 0.0 
1.515109000694e-03 -3.612923142235e-05 0.0 
-3.612923142235e-05 3.250011890687e-03 0.0 
0.0 0.0 0.0 
7.578767577723e-04 2.086732918343e-03 0.0 
2.086732918343e-03 5.807321056955e-03 0.0 
0.0 0.0 0.0 
-6.653828408396e-04 7.114790031857e-05 0.0 
7.114790031857e-05 1.086237409997e-02 0.0 
0.0 0.0 0.0 
1.248262823090e-04 -1.273433138702e-03 0.0 
-1.273433138702e-03 1.944303266367e-03 0.0 
0.0 0.0 0.0 
-1.678986195506e-04 3.253295387240e-03 0.0 
3.253295387240e-03 3.565960141021e-04 0.0 
0.0 0.0 0.0 
1.396555556027e-03 1.263742111970e-04 0.0 
1.263742111970e-04 3.815803746962e-03 0.0 
0.0 0.0 0.0 
-6.799461199946e-04 2.796397518493e-03 0.0 
2.796397518493e-03 4.088616323642e-03 0.0 
0.0 0.0 0.0 
4.096421906494e-04 8.451071198448e-04 0.0 
8.451071198448e-04 -4.735850564033e-03 0.0 
0.0 0.0 0.0 
-2.566534282860e-04 7.514262754273e-05 0.0 
7.514262754273e-05 1.234893719117e-02 0.0 
0.0 0.0 0.0 
-3.734420422254e-04 6.826897167693e-05 0.0 
6.826897167693e-05 1.202106700095e-02 0.0 
0.0 0.0 0.0 
-4.530046252016e-04 -3.420617789471e-04 0.0 
-3.420617789471e-04 5.837175655592e-04 0.0 
0.0 0.0 0.0 
1.262296514978e-03 1.800515859002e-04 0.0 
1.800515859002e-04 4.098395459556e-03 0.0 
0.0 0.0 0.0 
-1.679635878310e-04 -1.076568326015e-03 0.0 
-1.076568326015e-03 1.760912495626e-03 0.0 
0.0 0.0 0.0 
-1.606643698514e-04 -9.852547228385e-04 0.0 
-9.852547228385e-04 2.000646024461e-03 0.0 
0.0 0.0 0.0 
-2.798662091414e-04 2.044286896963e-03 0.0 
2.044286896963e-03 9.161658852210e-03 0.0 
0.0 0.0 0.0 
8.641411656534e-04 1.980278533946e-03 0.0 
1.980278533946e-03 5.821282354483e-03 0.0 
0.0 0.0 0.0 
-1.802223558807e-04 2.084315140091e-03 0.0 
2.084315140091e-03 8.610981545216e-03 0.0 
0.0 0.0 0.0 
1.938509399278e-03 -6.391326960465e-04 0.0 
-6.391326960465e-04 7.214751589630e-04 0.0 
0.0 0.0 0.0 
-7.794063511517e-04 2.052046649817e-05 0.0 
2.052046649817e-05 9.505387621462e-03 0.0 
0.0 0.0 0.0 
1.761188920928e-04 3.037309070073e-04 0.0 
3.037309070073e-04 6.834256487954e-03 0.0 
0.0 0.0 0.0 
-3.051854747349e-04 -9.186725704097e-04 0.0 
-9.186725704097e-04 1.734773346342e-03 0.0 
0.0 0.0 0.0 
1.023650609076e-03 1.102149492359e-03 0.0 
1.102149492359e-03 5.642788470023e-03 0.0 
0.0 0.0 0.0 
1.190584643230e-03 1.947209126298e-03 0.0 
1.947209126298e-03 4.636830771068e-03 0.0 
0.0 0.0 0.0 
3.807216392393e-05 -1.180925441815e-04 0.0 
-1.180925441815e-04 1.427657178633e-03 0.0 
0.0 0.0 0.0 
-7.537385017522e-04 1.699053678793e-03 0.0 
1.699053678793e-03 9.741646048646e-03 0.0 
0.0 0.0 0.0 
2.250401261238e-03 2.041196563650e-04 0.0 
2.041196563650e-04 9.275102303814e-04 0.0 
0.0 0.0 0.0 
-7.420879084123e-04 -1.283881827278e-03 0.0 
-1.283881827278e-03 7.920926442690e-04 0.0 
0.0 0.0 0.0 
2.286318786745e-03 -4.335404414725e-04 0.0 
-4.335404414725e-04 -1.917933775564e-05 0.0 
0.0 0.0 0.0 
-1.454708179882e-05 9.604068461348e-06 0.0 
9.604068461348e-06 5.509399210252e-03 0.0 
0.0 0.0 0.0 
-9.592109991156e-04 1.526534345330e-03 0.0 
1.526534345330e-03 1.027287607033e-02 0.0 
0.0 0.0 0.0 
-4.112308744765e-04 -1.301914653887e-03 0.0 
-1.301914653887e-03 1.113757757174e-03 0.0 
0.0 0.0 0.0 
-6.029189835699e-05 -9.738267618684e-05 0.0 
-9.738267618684e-05 4.452551806470e-03 0.0 
0.0 0.0 0.0 
-4.444257973144e-04 1.959001919818e-03 0.0 
1.959001919818e-03 9.362440571696e-03 0.0 
0.0 0.0 0.0 
7.397338568800e-04 1.829493267270e-03 0.0 
1.829493267270e-03 6.727508758189e-03 0.0 
0.0 0.0 0.0 
5.795065618592e-04 -1.336903002923e-03 0.0 
-1.336903002923e-03 1.839992071736e-03 0.0 
0.0 0.0 0.0 
-9.540995976542e-05 -8.449458969084e-05 0.0 
-8.449458969084e-05 2.327746595700e-03 0.0 
0.0 0.0 0.0 
1.245729277485e-03 1.919635677997e-03 0.0 
1.919635677997e-03 4.437101885137e-03 0.0 
0.0 0.0 0.0 
-6.380881568898e-04 -3.004527961636e-05 0.0 
-3.004527961636e-05 1.073897933477e-02 0.0 
0.0 0.0 0.0 
-6.220985641134e-04 -1.798743373930e-03 0.0 
-1.798743373930e-03 3.931954997625e-04 0.0 
0.0 0.0 0.0 
-7.587246087049e-05 2.351382936186e-03 0.0 
2.351382936186e-03 9.884251020137e-03 0.0 
0.0 0.0 0.0 
-2.260870833641e-04 1.654291427810e-03 0.0 
1.654291427810e-03 1.165448850740e-02 0.0 
0.0 0.0 0.0 
-6.905099428337e-04 -1.595051093973e-05 0.0 
-1.595051093973e-05 1.018243019914e-02 0.0 
0.0 0.0 0.0 
-4.013240711561e-04 8.147393334460e-04 0.0 
8.147393334460e-04 1.238226688587e-02 0.0 
0.0 0.0 0.0 
-1.808691636459e-04 1.907310933832e-03 0.0 
1.907310933832e-03 1.123203053456e-02 0.0 
0.0 0.0 0.0 
1.978418203114e-03 -4.761005480389e-04 0.0 
-4.761005480389e-04 1.120713043118e-03 0.0 
0.0 0.0 0.0 
1.448579450665e-03 -1.119833894425e-03 0.0 
-1.119833894425e-03 1.104208541117e-03 0.0 
0.0 0.0 0.0 
5.440627547222e-04 1.456972050180e-03 0.0 
1.456972050180e-03 7.196693055412e-03 0.0 
0.0 0.0 0.0 
-1.262989911475e-03 3.624693158167e-04 0.0 
3.624693158167e-04 -4.327533516566e-03 0.0 
0.0 0.0 0.0 
-6.116433842440e-05 -1.397355096553e-05 0.0 
-1.397355096553e-05 2.116617631527e-03 0.0 
0.0 0.0 0.0 
-4.844775608093e-05 -3.302491111603e-05 0.0 
-3.302491111603e-05 4.559214629476e-03 0.0 
0.0 0.0 0.0 
3.543870854230e-04 -1.367687879144e-03 0.0 
-1.367687879144e-03 1.847336147312e-03 0.0 
0.0 0.0 0.0 
1.766767345694e-03 -1.105581719613e-03 0.0 
-1.105581719613e-03 5.357956331544e-04 0.0 
0.0 0.0 0.0 
-1.646589177893e-03 2.145181011177e-03 0.0 
2.145181011177e-03 5.425780898037e-03 0.0 
0.0 0.0 0.0 
-1.689547695698e-03 2.283606083862e-03 0.0 
2.283606083862e-03 6.141287155423e-03 0.0 
0.0 0.0 0.0 
-9.519034528969e-04 1.798975653710e-04 0.0 
1.798975653710e-04 1.022315917160e-02 0.0 
0.0 0.0 0.0 
2.169860992160e-03 -3.857787065211e-04 0.0 
-3.857787065211e-04 2.954122273258e-04 0.0 
0.0 0.0 0.0 
-1.250574886112e-04 -2.579085169792e-04 0.0 
-2.579085169792e-04 2.470242662696e-03 0.0 
0.0 0.0 0.0 
6.376187025059e-04 2.012663619503e-03 0.0 
2.012663619503e-03 6.784287103232e-03 0.0 
0.0 0.0 0.0 
1.081148915167e-04 1.365673704907e-04 0.0 
1.365673704907e-04 7.418702008116e-03 0.0 
0.0 0.0 0.0 
1.307969754913e-04 2.042159532366e-04 0.0 
2.042159532366e-04 7.353344100203e-03 0.0 
0.0 0.0 0.0 
1.520473181956e-03 -9.119822381231e-04 0.0 
-9.119822381231e-04 1.566619883719e-03 0.0 
0.0 0.0 0.0 
-1.007618550855e-03 2.206105022602e-04 0.0 
2.206105022602e-04 9.895523811950e-03 0.0 
0.0 0.0 0.0 
-1.424862115058e-03 -1.472822002693e-05 0.0 
-1.472822002693e-05 -3.834760331363e-03 0.0 
0.0 0.0 0.0 
-1.776413369251e-03 2.518297625465e-03 0.0 
2.518297625465e-03 3.980367322869e-03 0.0 
0.0 0.0 0.0 
9.862181978493e-04 -2.639387437878e-03 0.0 
-2.639387437878e-03 -1.926492281312e-03 0.0 
0.0 0.0 0.0 
-1.757142821801e-03 2.378741523622e-03 0.0 
2.378741523622e-03 4.732672990640e-03 0.0 
0.0 0.0 0.0 
1.102086025158e-03 1.872701847070e-03 0.0 
1.872701847070e-03 5.140732905794e-03 0.0 
0.0 0.0 0.0 
1.133013259366e-03 -1.384333863095e-03 0.0 
-1.384333863095e-03 1.239892758522e-03 0.0 
0.0 0.0 0.0 
1.710301352623e-03 -1.055193800818e-03 0.0 
-1.055193800818e-03 5.806333969245e-04 0.0 
0.0 0.0 0.0 
6.313192208738e-04 -2.675205318833e-03 0.0 
-2.675205318833e-03 -3.124986558194e-03 0.0 
0.0 0.0 0.0 
-3.257368916119e-04 9.513601492010e-05 0.0 
9.513601492010e-05 1.208483359671e-02 0.0 
0.0 0.0 0.0 
1.144030896554e-03 -1.372512041220e-03 0.0 
-1.372512041220e-03 1.136788328633e-03 0.0 
0.0 0.0 0.0 
-3.026967064907e-04 3.507701711402e-04 0.0 
3.507701711402e-04 1.228729810977e-02 0.0 
0.0 0.0 0.0 
-4.557830727812e-04 1.069307582742e-04 0.0 
1.069307582742e-04 1.180150585109e-02 0.0 
0.0 0.0 0.0 
-1.246740663912e-04 1.530067175763e-04 0.0 
1.530067175763e-04 1.289485395138e-02 0.0 
0.0 0.0 0.0 
2.044050044780e-07 -7.984971306070e-06 0.0 
-7.984971306070e-06 7.612504024522e-03 0.0 
0.0 0.0 0.0 
-7.002860416961e-04 3.419997372346e-05 0.0 
3.419997372346e-05 1.019408917232e-02 0.0 
0.0 0.0 0.0 
9.275964373592e-04 -1.288087808454e-03 0.0 
-1.288087808454e-03 1.643783537370e-03 0.0 
0.0 0.0 0.0 
-1.177115018694e-03 1.148814149352e-03 0.0 
1.148814149352e-03 6.922273849108e-03 0.0 
0.0 0.0 0.0 
1.017187211857e-03 -1.075051149393e-03 0.0 
-1.075051149393e-03 2.080302109410e-03 0.0 
0.0 0.0 0.0 
0.0 7.218993363859e-05 0.0 
7.218993363859e-05 7.477410723574e-03 0.0 
0.0 0.0 0.0 
-1.752883599893e-03 2.690448032167e-03 0.0 
2.690448032167e-03 2.436219113671e-03 0.0 
0.0 0.0 0.0 
-1.745013798241e-03 2.599158813634e-03 0.0 
2.599158813634e-03 3.221798926729e-03 0.0 
0.0 0.0 0.0 
8.972203261721e-04 1.313775233261e-03 0.0 
1.313775233261e-03 6.137220732429e-03 0.0 
0.0 0.0 0.0 
-8.931180603873e-04 1.281909998295e-04 0.0 
1.281909998295e-04 9.893455254674e-03 0.0 
0.0 0.0 0.0 
-2.760516834492e-04 2.400835142673e-04 0.0 
2.400835142673e-04 1.233311632855e-02 0.0 
0.0 0.0 0.0 
-4.594676657508e-04 1.977981493181e-03 0.0 
1.977981493181e-03 9.361262213466e-03 0.0 
0.0 0.0 0.0 
6.000046924790e-04 1.941780747703e-03 0.0 
1.941780747703e-03 7.216255005056e-03 0.0 
0.0 0.0 0.0 
-7.133109030485e-04 1.765143154352e-03 0.0 
1.765143154352e-03 1.039788292768e-02 0.0 
0.0 0.0 0.0 
-7.097526049300e-04 8.795969825693e-05 0.0 
8.795969825693e-05 1.028027020145e-02 0.0 
0.0 0.0 0.0 
1.754259470232e-04 -1.484837371355e-03 0.0 
-1.484837371355e-03 1.591944745273e-03 0.0 
0.0 0.0 0.0 
3.725699117900e-04 -1.487632387031e-03 0.0 
-1.487632387031e-03 1.591464280916e-03 0.0 
0.0 0.0 0.0 
-5.759022201257e-04 7.935801078319e-05 0.0 
7.935801078319e-05 1.112842351405e-02 0.0 
0.0 0.0 0.0 
5.368952311717e-04 1.923213199113e-03 0.0 
1.923213199113e-03 7.293210775561e-03 0.0 
0.0 0.0 0.0 
-1.134110178187e-03 2.822084334003e-04 0.0 
2.822084334003e-04 9.528080910251e-03 0.0 
0.0 0.0 0.0 
-7.278010354796e-04 1.421439408165e-05 0.0 
1.421439408165e-05 9.841942126100e-03 0.0 
0.0 0.0 0.0 
-7.195638065115e-04 2.279375115295e-05 0.0 
2.279375115295e-05 1.017753630928e-02 0.0 
0.0 0.0 0.0 
-7.592043541322e-04 3.309210254729e-05 0.0 
3.309210254729e-05 1.030138280363e-02 0.0 
0.0 0.0 0.0 
1.954118932072e-03 -1.393742180718e-03 0.0 
-1.393742180718e-03 -3.348565883761e-03 0.0 
0.0 0.0 0.0 
5.102728127127e-05 -1.367285140870e-03 0.0 
-1.367285140870e-03 1.729603330936e-03 0.0 
0.0 0.0 0.0 
-2.614990062724e-04 4.920681933708e-04 0.0 
4.920681933708e-04 1.258594948262e-02 0.0 
0.0 0.0 0.0 
-7.209611995934e-04 7.456244562342e-05 0.0 
7.456244562342e-05 1.069183962408e-02 0.0 
0.0 0.0 0.0 
3.192283090845e-04 1.842820319649e-03 0.0 
1.842820319649e-03 7.780156310892e-03 0.0 
0.0 0.0 0.0 
-5.301442393976e-04 1.864872076236e-03 0.0 
1.864872076236e-03 1.101802906338e-02 0.0 
0.0 0.0 0.0 
-7.964999947582e-04 1.762480209448e-03 0.0 
1.762480209448e-03 9.730225150143e-03 0.0 
0.0 0.0 0.0 
-5.183990394160e-04 8.514319320434e-04 0.0 
8.514319320434e-04 1.215395338582e-02 0.0 
0.0 0.0 0.0 
-5.615996769537e-05 -3.474823526054e-04 0.0 
-3.474823526054e-04 3.363110027804e-03 0.0 
0.0 0.0 0.0 
-1.039283113153e-04 -3.732659119798e-04 0.0 
-3.732659119798e-04 3.062896101527e-03 0.0 
0.0 0.0 0.0 
3.779453088633e-04 2.971758131707e-04 0.0 
2.971758131707e-04 6.400413857805e-03 0.0 
0.0 0.0 0.0 
2.939958768262e-04 -1.707426946021e-03 0.0 
-1.707426946021e-03 -3.645756077535e-03 0.0 
0.0 0.0 0.0 
-5.206923167389e-05 -9.965042273722e-05 0.0 
-9.965042273722e-05 2.224657326231e-03 0.0 
0.0 0.0 0.0 
0.0 2.307742865084e-03 0.0 
2.307742865084e-03 9.248373456917e-03 0.0 
0.0 0.0 0.0 
1.859102507353e-04 -2.240208209045e-05 0.0 
-2.240208209045e-05 9.946394688225e-04 0.0 
0.0 0.0 0.0 
-7.170490778777e-04 2.046848915634e-05 0.0 
2.046848915634e-05 9.845557767845e-03 0.0 
0.0 0.0 0.0 
7.571587945285e-04 1.102273009319e-03 0.0 
1.102273009319e-03 6.477847001349e-03 0.0 
0.0 0.0 0.0 
-2.278659036044e-04 -3.790086497304e-04 0.0 
-3.790086497304e-04 7.051940306730e-04 0.0 
0.0 0.0 0.0 
4.251240726603e-04 -8.929457255031e-05 0.0 
-8.929457255031e-05 1.950150719339e-04 0.0 
0.0 0.0 0.0 
-1.738228512739e-04 7.311575941892e-04 0.0 
7.311575941892e-04 1.275531457330e-02 0.0 
0.0 0.0 0.0 
-8.473029198958e-04 4.888906461272e-05 0.0 
4.888906461272e-05 9.526007748851e-03 0.0 
0.0 0.0 0.0 
-2.818028334168e-04 6.692233067827e-04 0.0 
6.692233067827e-04 1.247900856906e-02 0.0 
0.0 0.0 0.0 
5.666972575491e-04 1.280957627939e-03 0.0 
1.280957627939e-03 6.610157279039e-03 0.0 
0.0 0.0 0.0 
-8.365973925559e-04 1.995736926067e-05 0.0 
1.995736926067e-05 9.516069001013e-03 0.0 
0.0 0.0 0.0 
-1.267295118036e-03 5.890644386136e-04 0.0 
5.890644386136e-04 -3.759099654537e-03 0.0 
0.0 0.0 0.0 
-1.330495205082e-04 1.058651052364e-04 0.0 
1.058651052364e-04 1.263222684268e-02 0.0 
0.0 0.0 0.0 
1.362124527793e-05 -2.551311231403e-04 0.0 
-2.551311231403e-04 1.186454270534e-03 0.0 
0.0 0.0 0.0 
-2.966203609532e-04 5.526552131286e-04 0.0 
5.526552131286e-04 1.233219672210e-02 0.0 
0.0 0.0 0.0 
0.0 2.869947726130e-05 0.0 
2.869947726130e-05 7.526030781801e-03 0.0 
0.0 0.0 0.0 
-5.170071727868e-04 1.575630077190e-03 0.0 
1.575630077190e-03 1.145436381874e-02 0.0 
0.0 0.0 0.0 
2.322326505909e-03 -1.288235851052e-03 0.0 
-1.288235851052e-03 -3.081023218742e-03 0.0 
0.0 0.0 0.0 
-1.065129283387e-03 3.941831930151e-04 0.0 
3.941831930151e-04 1.017723457789e-02 0.0 
0.0 0.0 0.0 
-1.097436677379e-04 -2.338635968986e-04 0.0 
-2.338635968986e-04 3.429232899695e-03 0.0 
0.0 0.0 0.0 
6.618679639132e-04 1.898745187897e-03 0.0 
1.898745187897e-03 6.792774956117e-03 0.0 
0.0 0.0 0.0 
2.070545248241e-04 2.001444170093e-03 0.0 
2.001444170093e-03 8.304145339579e-03 0.0 
0.0 0.0 0.0 
-5.152368388937e-04 9.029552678001e-05 0.0 
9.029552678001e-05 1.152359598015e-02 0.0 
0.0 0.0 0.0 
2.646185269459e-04 1.840686029668e-03 0.0 
1.840686029668e-03 8.021629328788e-03 0.0 
0.0 0.0 0.0 
1.309825115860e-03 -1.265773284582e-03 0.0 
-1.265773284582e-03 -4.115977217370e-03 0.0 
0.0 0.0 0.0 
1.115124535367e-04 4.174463568523e-05 0.0 
4.174463568523e-05 7.095050753897e-03 0.0 
0.0 0.0 0.0 
1.782161055143e-03 -1.946495190687e-03 0.0 
-1.946495190687e-03 -1.749793489597e-03 0.0 
0.0 0.0 0.0 
1.224193060274e-04 -8.960507643288e-05 0.0 
-8.960507643288e-05 1.022649090124e-03 0.0 
0.0 0.0 0.0 
4.828629451112e-04 8.989654270092e-04 0.0 
8.989654270092e-04 6.890352367434e-03 0.0 
0.0 0.0 0.0 
-4.124173659549e-04 1.218164869620e-03 0.0 
1.218164869620e-03 1.222964025116e-02 0.0 
0.0 0.0 0.0 
-2.392099804832e-04 7.427235417561e-04 0.0 
7.427235417561e-04 1.254385576210e-02 0.0 
0.0 0.0 0.0 
-7.634741860000e-04 7.726191503864e-05 0.0 
7.726191503864e-05 9.840783118145e-03 0.0 
0.0 0.0 0.0 
-1.149205030128e-03 6.282393446648e-04 0.0 
6.282393446648e-04 1.012919197368e-02 0.0 
0.0 0.0 0.0 
-5.547486134782e-04 3.103599817891e-03 0.0 
3.103599817891e-03 2.338704539016e-03 0.0 
0.0 0.0 0.0 
-3.504508874940e-04 2.027338007800e-03 0.0 
2.027338007800e-03 1.115710035478e-02 0.0 
0.0 0.0 0.0 
-1.204861607708e-04 -1.816734469777e-04 0.0 
-1.816734469777e-04 2.918657507334e-03 0.0 
0.0 0.0 0.0 
4.395561516763e-04 2.868943948631e-03 0.0 
2.868943948631e-03 -9.202188496432e-04 0.0 
0.0 0.0 0.0 
7.287302370913e-04 1.936025243347e-03 0.0 
1.936025243347e-03 6.713490605740e-03 0.0 
0.0 0.0 0.0 
-7.629502290520e-04 8.944148937564e-06 0.0 
8.944148937564e-06 9.480445009220e-03 0.0 
0.0 0.0 0.0 
-3.862363689530e-04 1.183753389113e-03 0.0 
1.183753389113e-03 1.200900929149e-02 0.0 
0.0 0.0 0.0 
-1.025220495018e-04 -1.950677706171e-05 0.0 
-1.950677706171e-05 1.288691460330e-02 0.0 
0.0 0.0 0.0 
0.0 5.126102475078e-05 0.0 
5.126102475078e-05 1.292592815742e-02 0.0 
0.0 0.0 0.0 
7.543922828317e-04 3.059209172770e-05 0.0 
3.059209172770e-05 -1.957652249630e-04 0.0 
0.0 0.0 0.0 
6.161655868426e-04 -2.933324468941e-05 0.0 
-2.933324468941e-05 -1.773892018081e-04 0.0 
0.0 0.0 0.0 
-7.193162009506e-04 -2.704883368108e-05 0.0 
-2.704883368108e-05 9.519594835109e-03 0.0 
0.0 0.0 0.0 
-7.330807431669e-04 4.745275457416e-06 0.0 
4.745275457416e-06 9.469771159048e-03 0.0 
0.0 0.0 0.0 
0.0 -2.185024778081e-06 0.0 
-2.185024778081e-06 7.629404411807e-03 0.0 
0.0 0.0 0.0 
-4.370049556113e-06 2.587840631177e-05 0.0 
2.587840631177e-05 7.577647599183e-03 0.0 
0.0 0.0 0.0 
5.489315097824e-04 1.145518323592e-05 0.0 
1.145518323592e-05 9.531604755519e-05 0.0 
0.0 0.0 0.0 
-1.236673664690e-03 -4.073889641246e-04 0.0 
-4.073889641246e-04 -4.574444461186e-03 0.0 
0.0 0.0 0.0 
5.864008097967e-05 7.033590203608e-06 0.0 
7.033590203608e-06 6.824550127321e-03 0.0 
0.0 0.0 0.0 
2.490951177541e-04 2.233017863330e-03 0.0 
2.233017863330e-03 8.445150762875e-03 0.0 
0.0 0.0 0.0 
5.307591071113e-05 -2.470952154078e-04 0.0 
-2.470952154078e-04 1.364119616921e-03 0.0 
0.0 0.0 0.0 
1.756200307834e-04 6.590851006173e-05 0.0 
6.590851006173e-05 6.700121490842e-03 0.0 
0.0 0.0 0.0 
-3.413812758468e-05 -3.567377019955e-05 0.0 
-3.567377019955e-05 4.867674389882e-03 0.0 
0.0 0.0 0.0 
-8.692808022503e-05 -6.440707741452e-05 0.0 
-6.440707741452e-05 4.193934886950e-03 0.0 
0.0 0.0 0.0 
-6.754095869703e-04 1.016120278807e-04 0.0 
1.016120278807e-04 1.088148148252e-02 0.0 
0.0 0.0 0.0 
1.078083738792e-05 -2.365591763333e-03 0.0 
-2.365591763333e-03 -2.020163213182e-04 0.0 
0.0 0.0 0.0 
7.709939707854e-04 1.927785413511e-03 0.0 
1.927785413511e-03 6.300230623283e-03 0.0 
0.0 0.0 0.0 
9.315968914780e-05 -2.327669110910e-04 0.0 
-2.327669110910e-04 1.043773511033e-03 0.0 
0.0 0.0 0.0 
-4.762433718375e-05 -2.898327786035e-04 0.0 
-2.898327786035e-04 3.742382781995e-03 0.0 
0.0 0.0 0.0 
-2.910659722160e-04 1.915370739632e-03 0.0 
1.915370739632e-03 1.087917544924e-02 0.0 
0.0 0.0 0.0 
-3.295448705009e-04 -2.419651876859e-05 0.0 
-2.419651876859e-05 1.221371418343e-02 0.0 
0.0 0.0 0.0 
-6.230773990612e-05 -6.397144142595e-05 0.0 
-6.397144142595e-05 4.191928394855e-03 0.0 
0.0 0.0 0.0 
-6.963300145255e-04 6.619245023092e-06 0.0 
6.619245023092e-06 1.046957207186e-02 0.0 
0.0 0.0 0.0 
-3.086916616324e-05 2.293112298387e-03 0.0 
2.293112298387e-03 9.358682561281e-03 0.0 
0.0 0.0 0.0 
-5.834038486989e-04 1.881276647098e-03 0.0 
1.881276647098e-03 1.027209601554e-02 0.0 
0.0 0.0 0.0 
-6.926129044534e-04 1.817571450129e-03 0.0 
1.817571450129e-03 9.994161961674e-03 0.0 
0.0 0.0 0.0 
-7.997264556651e-04 2.263360829596e-05 0.0 
2.263360829596e-05 9.512300351079e-03 0.0 
0.0 0.0 0.0 
9.951725685962e-04 1.827552963408e-03 0.0 
1.827552963408e-03 5.660062800110e-03 0.0 
0.0 0.0 0.0 
-4.013114038194e-04 1.379429701877e-03 0.0 
1.379429701877e-03 1.176108713550e-02 0.0 
0.0 0.0 0.0 
-1.011906319246e-04 -1.692285322657e-04 0.0 
-1.692285322657e-04 2.236839522954e-03 0.0 
0.0 0.0 0.0 
-1.120243226893e-05 -2.743587725714e-04 0.0 
-2.743587725714e-04 3.401963507770e-04 0.0 
0.0 0.0 0.0 
-1.201913013802e-04 2.129222602737e-03 0.0 
2.129222602737e-03 9.296541578144e-03 0.0 
0.0 0.0 0.0 
1.074390889887e-03 1.229355851926e-03 0.0 
1.229355851926e-03 5.634241029618e-03 0.0 
0.0 0.0 0.0 
8.789555974698e-05 -2.311398011792e-03 0.0 
-2.311398011792e-03 -5.682072470600e-04 0.0 
0.0 0.0 0.0 
-6.186838679880e-04 3.597359079386e-05 0.0 
3.597359079386e-05 1.115163239442e-02 0.0 
0.0 0.0 0.0 
2.056267498451e-05 -2.748682525576e-06 0.0 
-2.748682525576e-06 7.162960000844e-03 0.0 
0.0 0.0 0.0 
1.394557904741e-04 2.137049876742e-03 0.0 
2.137049876742e-03 8.540056633283e-03 0.0 
0.0 0.0 0.0 
6.711151208472e-05 2.274315616191e-03 0.0 
2.274315616191e-03 9.012836897918e-03 0.0 
0.0 0.0 0.0 
-2.049603966969e-05 -5.527978119480e-05 0.0 
-5.527978119480e-05 5.256642778991e-03 0.0 
0.0 0.0 0.0 
2.209737592258e-04 2.500335578917e-03 0.0 
2.500335578917e-03 -3.621080452695e-03 0.0 
0.0 0.0 0.0 
-1.433586096992e-03 2.054841102400e-03 0.0 
2.054841102400e-03 5.417316299910e-03 0.0 
0.0 0.0 0.0 
-7.705577967756e-04 2.864564841058e-03 0.0 
2.864564841058e-03 4.091312930934e-03 0.0 
0.0 0.0 0.0 
-1.083138743981e-03 4.152681430492e-04 0.0 
4.152681430492e-04 1.020507592225e-02 0.0 
0.0 0.0 0.0 
9.294115977014e-04 1.968041059689e-03 0.0 
1.968041059689e-03 5.643375896002e-03 0.0 
0.0 0.0 0.0 
-3.087985063526e-04 3.867945390375e-04 0.0 
3.867945390375e-04 1.239823026479e-02 0.0 
0.0 0.0 0.0 
3.372281722873e-04 1.474723086302e-03 0.0 
1.474723086302e-03 7.217250350915e-03 0.0 
0.0 0.0 0.0 
-8.337212572203e-04 -1.673982257681e-03 0.0 
-1.673982257681e-03 3.200531282519e-04 0.0 
0.0 0.0 0.0 
-4.737416075921e-04 -7.548160989332e-04 0.0 
-7.548160989332e-04 6.796044176820e-04 0.0 
0.0 0.0 0.0 
-1.486369580058e-03 2.390473665569e-03 0.0 
2.390473665569e-03 3.968692559149e-03 0.0 
0.0 0.0 0.0 
-5.674736599772e-04 1.583491319883e-04 0.0 
1.583491319883e-04 1.126216792243e-02 0.0 
0.0 0.0 0.0 
-1.093874895441e-04 -3.186895008474e-04 0.0 
-3.186895008474e-04 2.676910273440e-03 0.0 
0.0 0.0 0.0 
-4.412357986826e-04 9.718682170505e-04 0.0 
9.718682170505e-04 1.219653222610e-02 0.0 
0.0 0.0 0.0 
1.292132821147e-04 -1.333260316252e-04 0.0 
-1.333260316252e-04 1.280406618165e-03 0.0 
0.0 0.0 0.0 
6.387249579394e-04 1.432718929366e-03 0.0 
1.432718929366e-03 6.682707384650e-03 0.0 
0.0 0.0 0.0 
-8.631202837818e-04 1.977057818631e-04 0.0 
1.977057818631e-04 1.021815847682e-02 0.0 
0.0 0.0 0.0 
1.806936783819e-04 2.066222024403e-03 0.0 
2.066222024403e-03 8.367604237862e-03 0.0 
0.0 0.0 0.0 
4.671918502983e-04 2.001140793388e-03 0.0 
2.001140793388e-03 7.391737267392e-03 0.0 
0.0 0.0 0.0 
-1.165985795169e-03 4.914145639388e-04 0.0 
4.914145639388e-04 1.018712237696e-02 0.0 
0.0 0.0 0.0 
4.306820523281e-04 5.912468349747e-04 0.0 
5.912468349747e-04 6.828741851169e-03 0.0 
0.0 0.0 0.0 
-3.543172125571e-04 1.130631292715e-03 0.0 
1.130631292715e-03 1.230835931494e-02 0.0 
0.0 0.0 0.0 
-2.149447991496e-04 1.056956762225e-04 0.0 
1.056956762225e-04 1.264930869661e-02 0.0 
0.0 0.0 0.0 
-1.457422631075e-03 2.575066253062e-03 0.0 
2.575066253062e-03 2.430072908983e-03 0.0 
0.0 0.0 0.0 
-4.053037611472e-04 8.676204655019e-04 0.0 
8.676204655019e-04 1.215256506775e-02 0.0 
0.0 0.0 0.0 
-5.896095206259e-05 2.212360970582e-03 0.0 
2.212360970582e-03 1.004639690930e-02 0.0 
0.0 0.0 0.0 
7.410382852864e-04 1.404060149213e-03 0.0 
1.404060149213e-03 6.690160324860e-03 0.0 
0.0 0.0 0.0 
5.649525870146e-04 2.016869797777e-03 0.0 
2.016869797777e-03 7.271211458457e-03 0.0 
0.0 0.0 0.0 
0.0 1.873902515450e-04 0.0 
1.873902515450e-04 7.395864749929e-03 0.0 
0.0 0.0 0.0 
-6.192165726021e-04 1.781136321241e-03 0.0 
1.781136321241e-03 9.998801617464e-03 0.0 
0.0 0.0 0.0 
-1.379753196750e-03 1.771850033558e-03 0.0 
1.771850033558e-03 -2.458441069493e-03 0.0 
0.0 0.0 0.0 
-8.872023157291e-05 3.188996610368e-03 0.0 
3.188996610368e-03 3.542746156795e-04 0.0 
0.0 0.0 0.0 
-5.664442321371e-04 1.857796675129e-03 0.0 
1.857796675129e-03 1.065586783421e-02 0.0 
0.0 0.0 0.0 
-1.006088742923e-03 4.699033381066e-04 0.0 
4.699033381066e-04 1.048275605683e-02 0.0 
0.0 0.0 0.0 
1.163252690461e-05 -4.538012690113e-05 0.0 
-4.538012690113e-05 6.874870697117e-03 0.0 
0.0 0.0 0.0 
3.586710033869e-04 2.024387070406e-03 0.0 
2.024387070406e-03 7.846682831634e-03 0.0 
0.0 0.0 0.0 
1.075956281320e-04 1.173887284911e-04 0.0 
1.173887284911e-04 7.032914820214e-03 0.0 
0.0 0.0 0.0 
-4.925611128408e-04 1.856571422467e-04 0.0 
1.856571422467e-04 1.164550240821e-02 0.0 
0.0 0.0 0.0 
1.855050033601e-04 1.966389731867e-03 0.0 
1.966389731867e-03 8.103321460557e-03 0.0 
0.0 0.0 0.0 
4.249534938057e-04 4.253126967455e-04 0.0 
4.253126967455e-04 6.429566234454e-03 0.0 
0.0 0.0 0.0 
4.868010224661e-04 5.153861892105e-04 0.0 
5.153861892105e-04 6.421260205735e-03 0.0 
0.0 0.0 0.0 
-1.150107821583e-04 -2.208483786557e-04 0.0 
-2.208483786557e-04 2.800973162609e-03 0.0 
0.0 0.0 0.0 
9.412838877942e-05 7.729374446843e-05 0.0 
7.729374446843e-05 7.463818233461e-03 0.0 
0.0 0.0 0.0 
-9.865845487008e-04 1.978634766610e-04 0.0 
1.978634766610e-04 9.853686421994e-03 0.0 
0.0 0.0 0.0 
-3.160797018816e-04 1.943629556185e-04 0.0 
1.943629556185e-04 1.233889487911e-02 0.0 
0.0 0.0 0.0 
-5.817888747769e-04 -8.835790958318e-04 0.0 
-8.835790958318e-04 8.764563999024e-04 0.0 
0.0 0.0 0.0 
-4.021369960867e-04 8.418061682603e-05 0.0 
8.418061682603e-05 1.209184104341e-02 0.0 
0.0 0.0 0.0 
-6.253425557468e-04 8.766121831048e-05 0.0 
8.766121831048e-05 1.118067830639e-02 0.0 
0.0 0.0 0.0 
3.648566444241e-04 8.860902737324e-06 0.0 
8.860902737324e-06 5.971160014411e-04 0.0 
0.0 0.0 0.0 
2.241726596559e-03 -1.561290471623e-03 0.0 
-1.561290471623e-03 -3.684663761382e-03 0.0 
0.0 0.0 0.0 
-4.821900030683e-04 1.906822359742e-03 0.0 
1.906822359742e-03 9.848156262398e-03 0.0 
0.0 0.0 0.0 
-1.767906062061e-04 5.776424905398e-04 0.0 
5.776424905398e-04 1.255540280391e-02 0.0 
0.0 0.0 0.0 
-2.919372271123e-04 8.575258529215e-05 0.0 
8.575258529215e-05 1.238876542642e-02 0.0 
0.0 0.0 0.0 
4.547339165255e-04 1.989694823605e-03 0.0 
1.989694823605e-03 7.760931548788e-03 0.0 
0.0 0.0 0.0 
-7.147811372107e-04 1.316522858701e-04 0.0 
1.316522858701e-04 1.047997601199e-02 0.0 
0.0 0.0 0.0 
2.665081665894e-04 -9.390000324292e-05 0.0 
-9.390000324292e-05 2.408999079051e-04 0.0 
0.0 0.0 0.0 
8.321032666849e-04 1.911049116807e-03 0.0 
1.911049116807e-03 -4.031242260256e-03 0.0 
0.0 0.0 0.0 
-2.492151677280e-05 -1.558441871340e-04 0.0 
-1.558441871340e-04 4.331780474685e-04 0.0 
0.0 0.0 0.0 
-4.667659801897e-04 -9.732340588225e-04 0.0 
-9.732340588225e-04 9.746637245722e-04 0.0 
0.0 0.0 0.0 
-1.336968629621e-03 3.347447196440e-03 0.0 
3.347447196440e-03 -1.815944732065e-03 0.0 
0.0 0.0 0.0 
-8.169223227283e-05 -2.482886165400e-04 0.0 
-2.482886165400e-04 3.692174810028e-03 0.0 
0.0 0.0 0.0 
3.129550216685e-05 6.160462833045e-06 0.0 
6.160462833045e-06 6.873772753812e-03 0.0 
0.0 0.0 0.0 
-4.398244120577e-04 1.609884380392e-03 0.0 
1.609884380392e-03 1.145883247078e-02 0.0 
0.0 0.0 0.0 
-1.218088935984e-03 6.643484814232e-04 0.0 
6.643484814232e-04 1.036403370785e-02 0.0 
0.0 0.0 0.0 
-6.927701650794e-05 -4.334762888471e-04 0.0 
-4.334762888471e-04 3.165071061507e-03 0.0 
0.0 0.0 0.0 
3.669847148988e-04 2.234950406526e-04 0.0 
2.234950406526e-04 6.425935397577e-03 0.0 
0.0 0.0 0.0 
7.850916509564e-04 9.374462782255e-04 0.0 
9.374462782255e-04 6.252973804852e-03 0.0 
0.0 0.0 0.0 
2.858532335854e-04 2.230910775635e-03 0.0 
2.230910775635e-03 8.490037332690e-03 0.0 
0.0 0.0 0.0 
-8.179263488739e-05 2.142342530389e-03 0.0 
2.142342530389e-03 9.585359478525e-03 0.0 
0.0 0.0 0.0 
-3.631435272649e-04 1.980373070476e-03 0.0 
1.980373070476e-03 1.014757693350e-02 0.0 
0.0 0.0 0.0 
-5.807763884784e-04 -6.834342771082e-04 0.0 
-6.834342771082e-04 8.512016843429e-04 0.0 
0.0 0.0 0.0 
6.344620344163e-04 -1.563034284501e-03 0.0 
-1.563034284501e-03 -4.082511743223e-03 0.0 
0.0 0.0 0.0 
4.699471949099e-05 -4.070555986173e-05 0.0 
-4.070555986173e-05 6.840271786205e-03 0.0 
0.0 0.0 0.0 
2.557262944551e-04 -2.231968123907e-05 0.0 
-2.231968123907e-05 6.241813905810e-04 0.0 
0.0 0.0 0.0 
2.594886093723e-04 7.472787837109e-06 0.0 
7.472787837109e-06 7.825232096548e-04 0.0 
0.0 0.0 0.0 
-7.402268568505e-04 3.135333607699e-03 0.0 
3.135333607699e-03 -5.164903308242e-04 0.0 
0.0 0.0 0.0 
3.211606692810e-06 -2.497527330622e-04 0.0 
-2.497527330622e-04 7.091208487193e-04 0.0 
0.0 0.0 0.0 
2.146499564393e-04 5.222778606166e-04 0.0 
5.222778606166e-04 6.832420549667e-03 0.0 
0.0 0.0 0.0 
-1.683937160293e-04 2.090572274104e-03 0.0 
2.090572274104e-03 1.074801850558e-02 0.0 
0.0 0.0 0.0 
-2.719141968781e-04 4.208777281344e-04 0.0 
4.208777281344e-04 1.240016373115e-02 0.0 
0.0 0.0 0.0 
1.206070606714e-04 2.154113281670e-03 0.0 
2.154113281670e-03 8.688140842632e-03 0.0 
0.0 0.0 0.0 
7.930674497381e-04 8.811610429344e-04 0.0 
8.811610429344e-04 5.976943198068e-03 0.0 
0.0 0.0 0.0 
-6.789146928620e-04 1.389176276179e-04 0.0 
1.389176276179e-04 1.069769843675e-02 0.0 
0.0 0.0 0.0 
0.0 7.894783549867e-04 0.0 
7.894783549867e-04 1.274498046880e-02 0.0 
0.0 0.0 0.0 
1.239779422986e-03 -2.450815110492e-03 0.0 
-2.450815110492e-03 -1.766878495884e-03 0.0 
0.0 0.0 0.0 
-8.226826913676e-04 3.339932825147e-05 0.0 
3.339932825147e-05 9.488872991560e-03 0.0 
0.0 0.0 0.0 
-6.644495764414e-04 -2.383608495882e-03 0.0 
-2.383608495882e-03 -1.573849614134e-05 0.0 
0.0 0.0 0.0 
2.261209024961e-04 -5.576249965229e-05 0.0 
-5.576249965229e-05 2.742367096911e-04 0.0 
0.0 0.0 0.0 
4.886184722808e-05 1.358494890206e-05 0.0 
1.358494890206e-05 7.530134412297e-03 0.0 
0.0 0.0 0.0 
-1.159476886407e-03 4.050157738528e-04 0.0 
4.050157738528e-04 9.828090360708e-03 0.0 
0.0 0.0 0.0 
2.234836970303e-04 -1.120961320804e-04 0.0 
-1.120961320804e-04 9.470433648289e-04 0.0 
0.0 0.0 0.0 
-9.872032169367e-05 -1.644472960689e-04 0.0 
-1.644472960689e-04 3.599732870825e-03 0.0 
0.0 0.0 0.0 
-2.577839708905e-04 2.158822249077e-03 0.0 
2.158822249077e-03 1.087938219697e-02 0.0 
0.0 0.0 0.0 
-3.829294608926e-04 5.316301292482e-04 0.0 
5.316301292482e-04 1.234082697064e-02 0.0 
0.0 0.0 0.0 
-2.241824762065e-04 1.250630303107e-03 0.0 
1.250630303107e-03 1.218440565370e-02 0.0 
0.0 0.0 0.0 
-9.980692129796e-05 -1.250343309388e-04 0.0 
-1.250343309388e-04 2.588305035776e-03 0.0 
0.0 0.0 0.0 
9.154461416025e-04 2.524646498456e-04 0.0 
2.524646498456e-04 -4.514316283273e-03 0.0 
0.0 0.0 0.0 
1.892926566645e-04 1.262589998468e-04 0.0 
1.262589998468e-04 6.986931097190e-03 0.0 
0.0 0.0 0.0 
-1.093911096843e-04 8.042337847014e-05 0.0 
8.042337847014e-05 1.291923546258e-02 0.0 
0.0 0.0 0.0 
-9.258903634124e-06 -1.164727995155e-05 0.0 
-1.164727995155e-05 7.623718018141e-03 0.0 
0.0 0.0 0.0 
-7.154535286451e-04 2.508646163446e-05 0.0 
2.508646163446e-05 9.775636007855e-03 0.0 
0.0 0.0 0.0 
5.496330495902e-04 9.823898553413e-04 0.0 
9.823898553413e-04 6.411472807645e-03 0.0 
0.0 0.0 0.0 
1.176270855816e-04 -1.239019686386e-04 0.0 
-1.239019686386e-04 1.041504128413e-03 0.0 
0.0 0.0 0.0 
-3.657197728169e-04 9.896061876108e-04 0.0 
9.896061876108e-04 1.219784145477e-02 0.0 
0.0 0.0 0.0 
1.937444731215e-04 -7.081277595963e-05 0.0 
-7.081277595963e-05 2.818566130527e-04 0.0 
0.0 0.0 0.0 
2.522819885842e-04 8.042700195000e-04 0.0 
8.042700195000e-04 6.880560769243e-03 0.0 
0.0 0.0 0.0 
-3.805946159967e-04 1.378413961722e-03 0.0 
1.378413961722e-03 1.208001845569e-02 0.0 
0.0 0.0 0.0 
5.074061765531e-04 1.156627050165e-03 0.0 
1.156627050165e-03 -4.740567431745e-03 0.0 
0.0 0.0 0.0 
1.386750850929e-04 2.149640732082e-03 0.0 
2.149640732082e-03 8.535512284121e-03 0.0 
0.0 0.0 0.0 
-5.488924659992e-04 8.338518254462e-05 0.0 
8.338518254462e-05 1.146093114953e-02 0.0 
0.0 0.0 0.0 
-1.388452969072e-04 4.251592359395e-04 0.0 
4.251592359395e-04 1.261720007722e-02 0.0 
0.0 0.0 0.0 
0.0 1.848102544006e-03 0.0 
1.848102544006e-03 8.191023061975e-03 0.0 
0.0 0.0 0.0 
-6.188759774123e-04 -1.539228747744e-05 0.0 
-1.539228747744e-05 1.094762883065e-02 0.0 
0.0 0.0 0.0 
-1.563697702534e-04 2.021585408928e-03 0.0 
2.021585408928e-03 1.102281808796e-02 0.0 
0.0 0.0 0.0 
-4.983302081687e-04 1.189256131589e-03 0.0 
1.189256131589e-03 1.201049248674e-02 0.0 
0.0 0.0 0.0 
-5.619808111665e-04 7.455127569540e-05 0.0 
7.455127569540e-05 1.117757471691e-02 0.0 
0.0 0.0 0.0 
-2.800750899674e-04 1.974648060739e-03 0.0 
1.974648060739e-03 1.070658336692e-02 0.0 
0.0 0.0 0.0 
-1.108278455743e-04 -2.284103216279e-04 0.0 
-2.284103216279e-04 3.076149038651e-03 0.0 
0.0 0.0 0.0 
-7.584478314306e-04 4.056871187338e-06 0.0 
4.056871187338e-06 9.483436737930e-03 0.0 
0.0 0.0 0.0 
2.809048711514e-04 2.166651541844e-03 0.0 
2.166651541844e-03 8.339148961223e-03 0.0 
0.0 0.0 0.0 
-1.418721998241e-04 7.162408772307e-05 0.0 
7.162408772307e-05 1.268267981842e-02 0.0 
0.0 0.0 0.0 
5.526061961911e-04 7.620283314276e-06 0.0 
7.620283314276e-06 -1.519144845831e-04 0.0 
0.0 0.0 0.0 
-7.241053214847e-04 9.521398056506e-06 0.0 
9.521398056506e-06 9.472065044958e-03 0.0 
0.0 0.0 0.0 
-7.661481072119e-06 -2.240340168718e-05 0.0 
-2.240340168718e-05 7.338398473410e-03 0.0 
0.0 0.0 0.0 
-7.778654233281e-05 -2.934198814167e-04 0.0 
-2.934198814167e-04 1.390444152113e-03 0.0 
0.0 0.0 0.0 
7.787308024638e-04 1.269315208754e-03 0.0 
1.269315208754e-03 6.573250811892e-03 0.0 
0.0 0.0 0.0 
-5.653669690621e-04 1.410567576360e-03 0.0 
1.410567576360e-03 1.175551577148e-02 0.0 
0.0 0.0 0.0 
-2.590174958810e-04 3.670220633190e-04 0.0 
3.670220633190e-04 1.260029206294e-02 0.0 
0.0 0.0 0.0 
5.766591406009e-05 -1.695497045415e-04 0.0 
-1.695497045415e-04 1.293237406402e-03 0.0 
0.0 0.0 0.0 
2.689703103216e-04 3.437810213960e-03 0.0 
3.437810213960e-03 -1.738363902432e-03 0.0 
0.0 0.0 0.0 
-7.528746686214e-05 2.077982865914e-05 0.0 
2.077982865914e-05 4.371261027287e-03 0.0 
0.0 0.0 0.0 
-4.375664684090e-04 9.717827264059e-05 0.0 
9.717827264059e-05 1.184315539210e-02 0.0 
0.0 0.0 0.0 
-4.538845676983e-03 -3.349296102941e-04 0.0 
-3.349296102941e-04 -2.641479787549e-03 0.0 
0.0 0.0 0.0 
-1.944902603427e-04 1.025548005699e-03 0.0 
1.025548005699e-03 1.237564511226e-02 0.0 
0.0 0.0 0.0 
-6.143658497096e-04 5.575323803453e-05 0.0 
5.575323803453e-05 1.083402668944e-02 0.0 
0.0 0.0 0.0 
-1.637003632379e-04 -2.348331837861e-03 0.0 
-2.348331837861e-03 -1.993968404670e-04 0.0 
0.0 0.0 0.0 
-6.770412454203e-04 7.663332454608e-05 0.0 
7.663332454608e-05 1.056929559006e-02 0.0 
0.0 0.0 0.0 
1.567016194717e-04 2.286625140903e-03 0.0 
2.286625140903e-03 8.873968977716e-03 0.0 
0.0 0.0 0.0 
-6.164234046302e-05 -6.422149974305e-05 0.0 
-6.422149974305e-05 4.563742713632e-03 0.0 
0.0 0.0 0.0 
-2.063717817439e-03 3.310535152625e-03 0.0 
3.310535152625e-03 2.577949972089e-04 0.0 
0.0 0.0 0.0 
-1.247845031345e-04 -2.591891983802e-04 0.0 
-2.591891983802e-04 2.812598598456e-03 0.0 
0.0 0.0 0.0 
-4.070123835886e-05 -2.265841777036e-04 0.0 
-2.265841777036e-04 3.983772049618e-03 0.0 
0.0 0.0 0.0 
-4.528864171871e-05 2.957788092899e-05 0.0 
2.957788092899e-05 4.742837393541e-03 0.0 
0.0 0.0 0.0 
4.094449355254e-04 1.934737001998e-03 0.0 
1.934737001998e-03 7.721082757677e-03 0.0 
0.0 0.0 0.0 
-8.467132564838e-05 -1.406857702754e-04 0.0 
-1.406857702754e-04 3.902763589581e-03 0.0 
0.0 0.0 0.0 
-5.226032291861e-05 -1.399154964254e-04 0.0 
-1.399154964254e-04 4.149337571206e-03 0.0 
0.0 0.0 0.0 
-1.171287489554e-05 -2.095260240146e-04 0.0 
-2.095260240146e-04 6.289345159805e-04 0.0 
0.0 0.0 0.0 
2.108205557603e-04 1.179755137945e-04 0.0 
1.179755137945e-04 6.711148495190e-03 0.0 
0.0 0.0 0.0 
-8.938001767833e-05 2.164885783462e-03 0.0 
2.164885783462e-03 9.300223645257e-03 0.0 
0.0 0.0 0.0 
8.754292973661e-04 3.094908842547e-03 0.0 
3.094908842547e-03 -2.054681619642e-03 0.0 
0.0 0.0 0.0 
-1.128918380365e-04 5.099948700600e-05 0.0 
5.099948700600e-05 1.267210625816e-02 0.0 
0.0 0.0 0.0 
-9.060695835506e-06 1.652988235942e-05 0.0 
1.652988235942e-05 7.326860975075e-03 0.0 
0.0 0.0 0.0 
-7.234376652877e-04 -1.733213048272e-05 0.0 
-1.733213048272e-05 9.798258981470e-03 0.0 
0.0 0.0 0.0 
-6.462903373160e-04 4.706012773885e-05 0.0 
4.706012773885e-05 1.083215631068e-02 0.0 
0.0 0.0 0.0 
-7.873252696822e-05 -1.603721618125e-04 0.0 
-1.603721618125e-04 3.904941038490e-03 0.0 
0.0 0.0 0.0 
-6.212518518867e-05 -1.929469588367e-04 0.0 
-1.929469588367e-04 3.968647124028e-03 0.0 
0.0 0.0 0.0 
-8.450554129602e-05 -1.174216525003e-04 0.0 
-1.174216525003e-04 4.137707740742e-03 0.0 
0.0 0.0 0.0 
8.373545649303e-04 1.295513437237e-03 0.0 
1.295513437237e-03 6.217523265424e-03 0.0 
0.0 0.0 0.0 
-4.398980532498e-04 -1.954305993694e-03 0.0 
-1.954305993694e-03 4.958860615838e-04 0.0 
0.0 0.0 0.0 
-1.748483438011e-04 2.219478867766e-03 0.0 
2.219478867766e-03 9.780590682940e-03 0.0 
0.0 0.0 0.0 
-6.926685632095e-04 3.860393763209e-05 0.0 
3.860393763209e-05 1.015641126701e-02 0.0 
0.0 0.0 0.0 
-3.692639015057e-04 9.610436262898e-04 0.0 
9.610436262898e-04 1.239162154996e-02 0.0 
0.0 0.0 0.0 
7.572808812284e-04 1.180113884811e-03 0.0 
1.180113884811e-03 6.203470002806e-03 0.0 
0.0 0.0 0.0 
-7.167654297925e-04 6.714022460537e-05 0.0 
6.714022460537e-05 1.057607529479e-02 0.0 
0.0 0.0 0.0 
-3.688043776185e-04 1.936451137783e-03 0.0 
1.936451137783e-03 1.051743337694e-02 0.0 
0.0 0.0 0.0 
4.193900661844e-04 1.962038190765e-03 0.0 
1.962038190765e-03 7.711079778719e-03 0.0 
0.0 0.0 0.0 
3.338056368978e-04 2.132624003567e-03 0.0 
2.132624003567e-03 8.224702969200e-03 0.0 
0.0 0.0 0.0 
-7.828051775890e-04 3.246734811216e-03 0.0 
3.246734811216e-03 -1.821701054236e-03 0.0 
0.0 0.0 0.0 
-4.475459146626e-04 1.948924953304e-03 0.0 
1.948924953304e-03 1.051629188957e-02 0.0 
0.0 0.0 0.0 
-2.991675201921e-04 2.111106100114e-03 0.0 
2.111106100114e-03 1.046691511189e-02 0.0 
0.0 0.0 0.0 
2.118459293865e-04 -1.692777574362e-04 0.0 
-1.692777574362e-04 5.902560486077e-04 0.0 
0.0 0.0 0.0 
-8.421834859185e-05 -2.081829505106e-04 0.0 
-2.081829505106e-04 3.700746706325e-03 0.0 
0.0 0.0 0.0 
-1.189923207556e-03 3.244759627710e-03 0.0 
3.244759627710e-03 -1.777791181718e-03 0.0 
0.0 0.0 0.0 
-4.275511528729e-04 2.008604056096e-03 0.0 
2.008604056096e-03 1.083159690545e-02 0.0 
0.0 0.0 0.0 
-6.940725995727e-04 9.756511889263e-07 0.0 
9.756511889263e-07 7.325927459066e-03 0.0 
0.0 0.0 0.0 
-7.015136303385e-04 1.151570847061e-05 0.0 
1.151570847061e-05 7.352899097743e-03 0.0 
0.0 0.0 0.0 
-6.545120156755e-04 5.339460406993e-06 0.0 
5.339460406993e-06 7.353347312858e-03 0.0 
0.0 0.0 0.0 
-6.890938514050e-04 -1.071941525866e-05 0.0 
-1.071941525866e-05 7.353542446191e-03 0.0 
0.0 0.0 0.0 
-6.532472535820e-04 -6.862271133908e-06 0.0 
-6.862271133908e-06 7.352886873810e-03 0.0 
0.0 0.0 0.0 
-6.799367484118e-04 -2.125361103552e-05 0.0 
-2.125361103552e-05 7.348856690210e-03 0.0 
0.0 0.0 0.0 
-6.456145170183e-04 -1.655435227014e-05 0.0 
-1.655435227014e-05 7.347779902438e-03 0.0 
0.0 0.0 0.0 
-6.717048062693e-04 -3.038692354242e-05 0.0 
-3.038692354242e-05 7.343848577955e-03 0.0 
0.0 0.0 0.0 
-6.319652230073e-04 -2.340407722677e-05 0.0 
-2.340407722677e-05 7.341861054853e-03 0.0 
0.0 0.0 0.0 
-6.626687679858e-04 -3.881440504071e-05 0.0 
-3.881440504071e-05 7.338276775843e-03 0.0 
0.0 0.0 0.0 
-6.130875282749e-04 -2.843123023740e-05 0.0 
-2.843123023740e-05 7.334724584390e-03 0.0 
0.0 0.0 0.0 
-6.520319710840e-04 -4.674344021878e-05 0.0 
-4.674344021878e-05 7.331667064590e-03 0.0 
0.0 0.0 0.0 
-5.893509028509e-04 -3.230776342307e-05 0.0 
-3.230776342307e-05 7.325822098527e-03 0.0 
0.0 0.0 0.0 
-6.393399402644e-04 -5.425818212836e-05 0.0 
-5.425818212836e-05 7.323669691268e-03 0.0 
0.0 0.0 0.0 
-5.608665450659e-04 -3.522605225097e-05 0.0 
-3.522605225097e-05 7.314676333581e-03 0.0 
0.0 0.0 0.0 
-6.246454871337e-04 -6.108794694823e-05 0.0 
-6.108794694823e-05 7.314335824201e-03 0.0 
0.0 0.0 0.0 
-5.276264203864e-04 -3.712302859462e-05 0.0 
-3.712302859462e-05 7.301244379599e-03 0.0 
0.0 0.0 0.0 
-8.204391742800e-04 5.178411008947e-04 0.0 
5.178411008947e-04 7.256324212268e-03 0.0 
0.0 0.0 0.0 
-6.083713241209e-04 -6.708093607158e-05 0.0 
-6.708093607158e-05 7.303808087394e-03 0.0 
0.0 0.0 0.0 
-4.896980788150e-04 -3.788002545962e-05 0.0 
-3.788002545962e-05 7.285503662885e-03 0.0 
0.0 0.0 0.0 
-1.036386886105e-03 3.860558395096e-04 0.0 
3.860558395096e-04 7.421656001451e-03 0.0 
0.0 0.0 0.0 
-5.911726887597e-04 -7.198068649882e-05 0.0 
-7.198068649882e-05 7.292357287017e-03 0.0 
0.0 0.0 0.0 
-4.473135819888e-04 -3.727960515809e-05 0.0 
-3.727960515809e-05 7.267534769912e-03 0.0 
0.0 0.0 0.0 
-5.737762292607e-04 -7.543059310572e-05 0.0 
-7.543059310572e-05 7.280225946651e-03 0.0 
0.0 0.0 0.0 
-4.009738281102e-04 -3.491427651707e-05 0.0 
-3.491427651707e-05 7.247327289167e-03 0.0 
0.0 0.0 0.0 
-5.572907662869e-04 -7.679169659596e-05 0.0 
-7.679169659596e-05 7.267690851715e-03 0.0 
0.0 0.0 0.0 
-3.834234093935e-04 2.701953340730e-04 0.0 
2.701953340730e-04 6.964571349143e-03 0.0 
0.0 0.0 0.0 
-3.513196493560e-04 -3.018830305985e-05 0.0 
-3.018830305985e-05 7.224899369019e-03 0.0 
0.0 0.0 0.0 
-5.435268291880e-04 -7.460086340426e-05 0.0 
-7.460086340426e-05 7.256123175509e-03 0.0 
0.0 0.0 0.0 
-2.996679269918e-04 -2.197994196140e-05 0.0 
-2.197994196140e-05 7.201504984770e-03 0.0 
0.0 0.0 0.0 
-5.368988868805e-04 -6.859929022370e-05 0.0 
-6.859929022370e-05 7.246410736778e-03 0.0 
0.0 0.0 0.0 
-2.484507526866e-04 -9.803639202084e-06 0.0 
-9.803639202084e-06 7.177394277156e-03 0.0 
0.0 0.0 0.0 
-5.397560900239e-04 -5.592907858244e-05 0.0 
-5.592907858244e-05 7.241131796510e-03 0.0 
0.0 0.0 0.0 
-2.023908827367e-04 9.182662557510e-06 0.0 
9.182662557510e-06 7.155021221846e-03 0.0 
0.0 0.0 0.0 
-5.619493134033e-04 -3.690554914426e-05 0.0 
-3.690554914426e-05 7.239815783002e-03 0.0 
0.0 0.0 0.0 
-1.681998929429e-04 3.608155782919e-05 0.0 
3.608155782919e-05 7.132091105405e-03 0.0 
0.0 0.0 0.0 
-6.044092743004e-04 1.109547405930e-06 0.0 
1.109547405930e-06 7.251136595083e-03 0.0 
0.0 0.0 0.0 
-1.415846210148e-03 9.551771570828e-04 0.0 
9.551771570828e-04 7.608634287340e-03 0.0 
0.0 0.0 0.0 
-6.955063361396e-04 4.889570016844e-05 0.0 
4.889570016844e-05 7.269246229304e-03 0.0 
0.0 0.0 0.0 
-1.584679708635e-04 8.019090089379e-05 0.0 
8.019090089379e-05 7.120964712436e-03 0.0 
0.0 0.0 0.0 
-7.843496671148e-04 1.664444124846e-04 0.0 
1.664444124846e-04 7.307922678251e-03 0.0 
0.0 0.0 0.0 
-1.899524853300e-04 1.500176104697e-04 0.0 
1.500176104697e-04 7.099460766477e-03 0.0 
0.0 0.0 0.0 
-3.104945333001e-04 2.941224891156e-04 0.0 
2.941224891156e-04 7.107322624129e-03 0.0 
0.0 0.0 0.0 
-1.239636451375e-03 3.689193655817e-04 0.0 
3.689193655817e-04 7.658972648077e-03 0.0 
0.0 0.0 0.0 
-7.467035975997e-04 -5.537413494561e-05 0.0 
-5.537413494561e-05 7.390632511397e-03 0.0 
0.0 0.0 0.0 
-7.088748706523e-04 6.369448272283e-05 0.0 
6.369448272283e-05 7.323207548751e-03 0.0 
0.0 0.0 0.0 
-7.079545288708e-04 -2.371380809011e-06 0.0 
-2.371380809011e-06 7.457250913074e-03 0.0 
0.0 0.0 0.0 
-7.476443914206e-04 1.213940684642e-05 0.0 
1.213940684642e-05 7.259441133546e-03 0.0 
0.0 0.0 0.0 
-1.465551438269e-03 1.001287658047e-03 0.0 
1.001287658047e-03 7.128676319238e-03 0.0 
0.0 0.0 0.0 
-7.087646426267e-04 -2.235795116971e-05 0.0 
-2.235795116971e-05 7.832676933528e-03 0.0 
0.0 0.0 0.0 
-7.015136303385e-04 -7.647149760739e-06 0.0 
-7.647149760739e-06 7.798182372260e-03 0.0 
0.0 0.0 0.0 
-7.078402756256e-04 -1.557148417051e-05 0.0 
-1.557148417051e-05 7.797405755432e-03 0.0 
0.0 0.0 0.0 
-6.890938514050e-04 -2.152563728436e-05 0.0 
-2.152563728436e-05 7.792381029468e-03 0.0 
0.0 0.0 0.0 
-7.044324840458e-04 -2.161729325706e-05 0.0 
-2.161729325706e-05 7.792453560881e-03 0.0 
0.0 0.0 0.0 
-6.799367484118e-04 -3.030486742618e-05 0.0 
-3.030486742618e-05 7.788249648521e-03 0.0 
0.0 0.0 0.0 
-7.014390068136e-04 -2.965960351145e-05 0.0 
-2.965960351145e-05 7.788593723887e-03 0.0 
0.0 0.0 0.0 
-6.717048062693e-04 -4.040254053887e-05 0.0 
-4.040254053887e-05 7.784628616392e-03 0.0 
0.0 0.0 0.0 
-6.993315281388e-04 -3.779593205324e-05 0.0 
-3.779593205324e-05 7.785711936041e-03 0.0 
0.0 0.0 0.0 
-6.626687679858e-04 -5.062923787795e-05 0.0 
-5.062923787795e-05 7.781039711730e-03 0.0 
0.0 0.0 0.0 
-6.980882965245e-04 -4.539213261946e-05 0.0 
-4.539213261946e-05 7.783407782697e-03 0.0 
0.0 0.0 0.0 
-6.520319710840e-04 -6.047035555234e-05 0.0 
-6.047035555234e-05 7.776939764029e-03 0.0 
0.0 0.0 0.0 
-6.973744399134e-04 -5.251932018623e-05 0.0 
-5.251932018623e-05 7.781111239512e-03 0.0 
0.0 0.0 0.0 
-6.393399402644e-04 -6.974950574389e-05 0.0 
-6.974950574389e-05 7.771537456622e-03 0.0 
0.0 0.0 0.0 
-6.970908364563e-04 -5.865382684042e-05 0.0 
-5.865382684042e-05 7.778285764025e-03 0.0 
0.0 0.0 0.0 
-6.246454871337e-04 -7.795293285065e-05 0.0 
-7.795293285065e-05 7.764686890395e-03 0.0 
0.0 0.0 0.0 
-9.614171185610e-04 4.865834896678e-04 0.0 
4.865834896678e-04 7.699751949054e-03 0.0 
0.0 0.0 0.0 
-6.973005906949e-04 -6.320793216355e-05 0.0 
-6.320793216355e-05 7.775000305313e-03 0.0 
0.0 0.0 0.0 
-6.083713241209e-04 -8.438126853597e-05 0.0 
-8.438126853597e-05 7.756737597411e-03 0.0 
0.0 0.0 0.0 
-7.843496671148e-04 4.011039080863e-04 0.0 
4.011039080863e-04 7.506608636748e-03 0.0 
0.0 0.0 0.0 
-6.995958449761e-04 -6.570598531101e-05 0.0 
-6.570598531101e-05 7.771776771564e-03 0.0 
0.0 0.0 0.0 
-5.911726887597e-04 -8.848374123249e-05 0.0 
-8.848374123249e-05 7.747814596146e-03 0.0 
0.0 0.0 0.0 
-1.086480612171e-03 3.808438621686e-04 0.0 
3.808438621686e-04 7.836757449958e-03 0.0 
0.0 0.0 0.0 
-7.045825769418e-04 -6.582295294101e-05 0.0 
-6.582295294101e-05 7.768854652483e-03 0.0 
0.0 0.0 0.0 
-5.737762292607e-04 -8.937298804983e-05 0.0 
-8.937298804983e-05 7.737729591250e-03 0.0 
0.0 0.0 0.0 
-7.130811126254e-04 -6.259736074882e-05 0.0 
-6.259736074882e-05 7.766332407114e-03 0.0 
0.0 0.0 0.0 
-5.572907662869e-04 -8.559941622285e-05 0.0 
-8.559941622285e-05 7.726403205431e-03 0.0 
0.0 0.0 0.0 
-7.269685465614e-04 -5.445675916517e-05 0.0 
-5.445675916517e-05 7.764568148039e-03 0.0 
0.0 0.0 0.0 
-5.435268291880e-04 -7.464049487896e-05 0.0 
-7.464049487896e-05 7.713302878853e-03 0.0 
0.0 0.0 0.0 
-1.191106123935e-03 6.978708237302e-04 0.0 
6.978708237302e-04 7.860657157376e-03 0.0 
0.0 0.0 0.0 
-7.473783555912e-04 -3.661634924508e-05 0.0 
-3.661634924508e-05 7.764891592758e-03 0.0 
0.0 0.0 0.0 
-5.368988868805e-04 -5.304229032128e-05 0.0 
-5.304229032128e-05 7.703205476614e-03 0.0 
0.0 0.0 0.0 
-7.821607848849e-04 -1.105539361931e-05 0.0 
-1.105539361931e-05 7.769185603525e-03 0.0 
0.0 0.0 0.0 
-5.397560900239e-04 -1.705963504641e-05 0.0 
-1.705963504641e-05 7.689125003064e-03 0.0 
0.0 0.0 0.0 
-5.619493134033e-04 4.037347746732e-05 0.0 
4.037347746732e-05 7.683836938496e-03 0.0 
0.0 0.0 0.0 
-8.268991651958e-04 3.546147653697e-05 0.0 
3.546147653697e-05 7.777084784336e-03 0.0 
0.0 0.0 0.0 
-6.044092743004e-04 1.308556869675e-04 0.0 
1.308556869675e-04 7.657585829639e-03 0.0 
0.0 0.0 0.0 
-8.998504381582e-04 9.248469953982e-05 0.0 
9.248469953982e-05 7.789164867897e-03 0.0 
0.0 0.0 0.0 
-6.955063361396e-04 2.798928723375e-04 0.0 
2.798928723375e-04 7.652640438601e-03 0.0 
0.0 0.0 0.0 
-9.480408990070e-04 2.085803477427e-04 0.0 
2.085803477427e-04 7.797123428326e-03 0.0 
0.0 0.0 0.0 
-1.125313149938e-03 4.685212462820e-04 0.0 
4.685212462820e-04 7.794650111884e-03 0.0 
0.0 0.0 0.0 
-6.898510422015e-04 -6.210341434562e-05 0.0 
-6.210341434562e-05 7.772207410497e-03 0.0 
0.0 0.0 0.0 
-7.256146796286e-04 4.846933368229e-05 0.0 
4.846933368229e-05 7.836228829041e-03 0.0 
0.0 0.0 0.0 
-7.079545288708e-04 -1.249927989240e-05 0.0 
-1.249927989240e-05 7.692688975328e-03 0.0 
0.0 0.0 0.0 
-7.079640173374e-04 8.813213901678e-07 0.0 
8.813213901678e-07 7.912246292170e-03 0.0 
0.0 0.0 0.0 
-1.036386886105e-03 7.721793337919e-04 0.0 
7.721793337919e-04 7.468760458413e-03 0.0 
0.0 0.0 0.0 
-7.087646426267e-04 -2.681376010020e-05 0.0 
-2.681376010020e-05 8.187274878553e-03 0.0 
0.0 0.0 0.0 
-7.202445400255e-04 -1.032732924785e-05 0.0 
-1.032732924785e-05 8.228959704575e-03 0.0 
0.0 0.0 0.0 
-7.078402756256e-04 -2.218795400641e-05 0.0 
-2.218795400641e-05 8.230114756389e-03 0.0 
0.0 0.0 0.0 
-7.217493886579e-04 -2.718852064665e-05 0.0 
-2.718852064665e-05 8.232764692943e-03 0.0 
0.0 0.0 0.0 
-7.044324840458e-04 -2.607069186734e-05 0.0 
-2.607069186734e-05 8.232499611038e-03 0.0 
0.0 0.0 0.0 
-7.246648083612e-04 -3.496568746665e-05 0.0 
-3.496568746665e-05 8.232876801655e-03 0.0 
0.0 0.0 0.0 
-7.014390068136e-04 -3.228064418571e-05 0.0 
-3.228064418571e-05 8.232107534983e-03 0.0 
0.0 0.0 0.0 
-7.279444620041e-04 -4.354141284244e-05 0.0 
-4.354141284244e-05 8.232694428964e-03 0.0 
0.0 0.0 0.0 
-6.993315281388e-04 -3.906603488512e-05 0.0 
-3.906603488512e-05 8.231128507383e-03 0.0 
0.0 0.0 0.0 
-7.340388076100e-04 -5.241165153356e-05 0.0 
-5.241165153356e-05 8.233516968499e-03 0.0 
0.0 0.0 0.0 
-6.980882965245e-04 -4.587097985273e-05 0.0 
-4.587097985273e-05 8.230745880496e-03 0.0 
0.0 0.0 0.0 
-7.414247972229e-04 -6.129714056200e-05 0.0 
-6.129714056200e-05 8.234788621114e-03 0.0 
0.0 0.0 0.0 
-6.973744399134e-04 -5.176317995567e-05 0.0 
-5.176317995567e-05 8.230102692709e-03 0.0 
0.0 0.0 0.0 
-7.524292760126e-04 -6.970934491363e-05 0.0 
-6.970934491363e-05 8.236623923880e-03 0.0 
0.0 0.0 0.0 
-6.970908364563e-04 -5.646457552685e-05 0.0 
-5.646457552685e-05 8.229112478544e-03 0.0 
0.0 0.0 0.0 
-1.070770688047e-03 3.956298067640e-04 0.0 
3.956298067640e-04 8.183081585128e-03 0.0 
0.0 0.0 0.0 
-7.639025825785e-04 -7.672702776969e-05 0.0 
-7.672702776969e-05 8.237834482583e-03 0.0 
0.0 0.0 0.0 
-1.132848994317e-03 3.022149898407e-04 0.0 
3.022149898407e-04 8.279725777373e-03 0.0 
0.0 0.0 0.0 
-6.973005906949e-04 -5.815468454657e-05 0.0 
-5.815468454657e-05 8.226105202294e-03 0.0 
0.0 0.0 0.0 
-7.793623511239e-04 -7.967320350299e-05 0.0 
-7.967320350299e-05 8.239987164102e-03 0.0 
0.0 0.0 0.0 
-6.995958449761e-04 -5.664517105201e-05 0.0 
-5.664517105201e-05 8.223487741243e-03 0.0 
0.0 0.0 0.0 
-7.994833841199e-04 -7.923140537252e-05 0.0 
-7.923140537252e-05 8.243241089243e-03 0.0 
0.0 0.0 0.0 
-7.045825769418e-04 -5.112297885540e-05 0.0 
-5.112297885540e-05 8.220604581117e-03 0.0 
0.0 0.0 0.0 
-8.236154134825e-04 -7.404641183820e-05 0.0 
-7.404641183820e-05 8.246837864848e-03 0.0 
0.0 0.0 0.0 
-9.480408990070e-04 3.589944386005e-04 0.0 
3.589944386005e-04 8.001755121474e-03 0.0 
0.0 0.0 0.0 
-7.130811126254e-04 -3.946107038731e-05 0.0 
-3.946107038731e-05 8.216138572902e-03 0.0 
0.0 0.0 0.0 
-8.539219071952e-04 -6.115667048534e-05 0.0 
-6.115667048534e-05 8.251020099798e-03 0.0 
0.0 0.0 0.0 
-7.269685465614e-04 -1.933227688953e-05 0.0 
-1.933227688953e-05 8.210424795247e-03 0.0 
0.0 0.0 0.0 
-8.922414935745e-04 -3.885342048950e-05 0.0 
-3.885342048950e-05 8.254875128683e-03 0.0 
0.0 0.0 0.0 
-7.473783555912e-04 1.473595137173e-05 0.0 
1.473595137173e-05 8.199616833981e-03 0.0 
0.0 0.0 0.0 
-9.341516747198e-04 5.420363297438e-06 0.0 
5.420363297438e-06 8.260930676677e-03 0.0 
0.0 0.0 0.0 
-7.821607848849e-04 6.519339277399e-05 0.0 
6.519339277399e-05 8.194727185691e-03 0.0 
0.0 0.0 0.0 
-9.987487219341e-04 5.991098867551e-05 0.0 
5.991098867551e-05 8.266359958116e-03 0.0 
0.0 0.0 0.0 
-1.037930610746e-03 1.626057698242e-04 0.0 
1.626057698242e-04 8.265659438750e-03 0.0 
0.0 0.0 0.0 
-8.268991651958e-04 1.425139939609e-04 0.0 
1.425139939609e-04 8.172781624816e-03 0.0 
0.0 0.0 0.0 
-1.191787542166e-03 5.290209641111e-04 0.0 
5.290209641111e-04 8.284219911800e-03 0.0 
0.0 0.0 0.0 
-8.998504381582e-04 2.575007110937e-04 0.0 
2.575007110937e-04 8.160058007505e-03 0.0 
0.0 0.0 0.0 
-1.144711065907e-03 3.840413140944e-04 0.0 
3.840413140944e-04 8.167856098886e-03 0.0 
0.0 0.0 0.0 
-7.284848220299e-04 -6.148135703551e-05 0.0 
-6.148135703551e-05 8.240161856235e-03 0.0 
0.0 0.0 0.0 
-6.969173703540e-04 4.726082610677e-05 0.0 
4.726082610677e-05 8.183563744697e-03 0.0 
0.0 0.0 0.0 
-7.169251549293e-04 -1.189811925779e-05 0.0 
-1.189811925779e-05 8.325860261364e-03 0.0 
0.0 0.0 0.0 
-7.079640173374e-04 -2.924955187467e-07 0.0 
-2.924955187467e-07 8.101335986316e-03 0.0 
0.0 0.0 0.0 
-1.086480612171e-03 5.985924138048e-04 0.0 
5.985924138048e-04 7.962968442281e-03 0.0 
0.0 0.0 0.0 
-7.306406899756e-04 -2.422515165770e-05 0.0 
-2.422515165770e-05 8.703734570872e-03 0.0 
0.0 0.0 0.0 
-7.202445400255e-04 -9.411008277965e-06 0.0 
-9.411008277965e-06 8.666640078185e-03 0.0 
0.0 0.0 0.0 
-7.312241112292e-04 -1.981867025664e-05 0.0 
-1.981867025664e-05 8.665453638961e-03 0.0 
0.0 0.0 0.0 
-7.217493886579e-04 -2.417141567351e-05 0.0 
-2.417141567351e-05 8.665514520403e-03 0.0 
0.0 0.0 0.0 
-7.390670972709e-04 -2.148987595578e-05 0.0 
-2.148987595578e-05 8.666122559745e-03 0.0 
0.0 0.0 0.0 
-7.246648083612e-04 -2.931262017469e-05 0.0 
-2.931262017469e-05 8.668714547796e-03 0.0 
0.0 0.0 0.0 
-7.493372831917e-04 -2.682641679175e-05 0.0 
-2.682641679175e-05 8.669641024367e-03 0.0 
0.0 0.0 0.0 
-7.279444620041e-04 -3.570564991208e-05 0.0 
-3.570564991208e-05 8.669224488980e-03 0.0 
0.0 0.0 0.0 
-7.588398531565e-04 -2.948666457803e-05 0.0 
-2.948666457803e-05 8.671721755234e-03 0.0 
0.0 0.0 0.0 
-7.340388076100e-04 -4.052090162397e-05 0.0 
-4.052090162397e-05 8.673075706466e-03 0.0 
0.0 0.0 0.0 
-7.752251782344e-04 -3.406146444132e-05 0.0 
-3.406146444132e-05 8.676638128360e-03 0.0 
0.0 0.0 0.0 
-7.414247972229e-04 -4.588862682763e-05 0.0 
-4.588862682763e-05 8.674107152909e-03 0.0 
0.0 0.0 0.0 
-7.914103188131e-04 -3.472638566896e-05 0.0 
-3.472638566896e-05 8.680822133309e-03 0.0 
0.0 0.0 0.0 
-1.129086759320e-03 3.129442562586e-04 0.0 
3.129442562586e-04 8.654901745263e-03 0.0 
0.0 0.0 0.0 
-7.524292760126e-04 -4.847457523836e-05 0.0 
-4.847457523836e-05 8.679053633498e-03 0.0 
0.0 0.0 0.0 
-8.154091894078e-04 -3.827121706144e-05 0.0 
-3.827121706144e-05 8.687341991021e-03 0.0 
0.0 0.0 0.0 
-1.037930610746e-03 2.904252440403e-04 0.0 
2.904252440403e-04 8.485279504371e-03 0.0 
0.0 0.0 0.0 
-7.639025825785e-04 -5.041451660207e-05 0.0 
-5.041451660207e-05 8.677352354291e-03 0.0 
0.0 0.0 0.0 
-8.389985895457e-04 -3.438548921602e-05 0.0 
-3.438548921602e-05 8.691100227397e-03 0.0 
0.0 0.0 0.0 
-1.153066841324e-03 2.590967149733e-04 0.0 
2.590967149733e-04 8.714744307049e-03 0.0 
0.0 0.0 0.0 
-7.793623511239e-04 -4.608206962716e-05 0.0 
-4.608206962716e-05 8.677898104465e-03 0.0 
0.0 0.0 0.0 
-8.695252840697e-04 -2.619758574568e-05 0.0 
-2.619758574568e-05 8.697394421349e-03 0.0 
0.0 0.0 0.0 
-7.994833841199e-04 -3.641012276127e-05 0.0 
-3.641012276127e-05 8.679159337273e-03 0.0 
0.0 0.0 0.0 
-9.045077311388e-04 -1.474240917732e-05 0.0 
-1.474240917732e-05 8.704172655382e-03 0.0 
0.0 0.0 0.0 
-8.236154134825e-04 -1.967505200176e-05 0.0 
-1.967505200176e-05 8.676687665683e-03 0.0 
0.0 0.0 0.0 
-1.207136171158e-03 4.188421807642e-04 0.0 
4.188421807642e-04 8.731661439375e-03 0.0 
0.0 0.0 0.0 
-9.441037401001e-04 5.804264060340e-06 0.0 
5.804264060340e-06 8.709681991741e-03 0.0 
0.0 0.0 0.0 
-8.539219071952e-04 8.215684849630e-06 0.0 
8.215684849630e-06 8.672299900730e-03 0.0 
0.0 0.0 0.0 
-8.922414935745e-04 4.959424843135e-05 0.0 
4.959424843135e-05 8.666395463056e-03 0.0 
0.0 0.0 0.0 
-9.910321244057e-04 3.753562342808e-05 0.0 
3.753562342808e-05 8.714765690000e-03 0.0 
0.0 0.0 0.0 
-9.341516747198e-04 1.131106454736e-04 0.0 
1.131106454736e-04 8.639135269961e-03 0.0 
0.0 0.0 0.0 
-1.049229375820e-03 7.692215705890e-05 0.0 
7.692215705890e-05 8.715518122157e-03 0.0 
0.0 0.0 0.0 
-9.987487219341e-04 2.094383651874e-04 0.0 
2.094383651874e-04 8.633832781854e-03 0.0 
0.0 0.0 0.0 
-1.075791135217e-03 1.598434066081e-04 0.0 
1.598434066081e-04 8.707938293281e-03 0.0 
0.0 0.0 0.0 
-1.175407490028e-03 3.153878197291e-04 0.0 
3.153878197291e-04 8.598121544479e-03 0.0 
0.0 0.0 0.0 
-7.018815507552e-04 -5.895627014654e-05 0.0 
-5.895627014654e-05 8.640993872505e-03 0.0 
0.0 0.0 0.0 
-7.393526728987e-04 4.987417305434e-05 0.0 
4.987417305434e-05 8.708100890992e-03 0.0 
0.0 0.0 0.0 
-7.169251549293e-04 -1.023288435533e-05 0.0 
-1.023288435533e-05 8.560584882218e-03 0.0 
0.0 0.0 0.0 
-7.249886904808e-04 3.651835000044e-06 0.0 
3.651835000044e-06 8.784295138174e-03 0.0 
0.0 0.0 0.0 
-1.132848994317e-03 4.617783957732e-04 0.0 
4.617783957732e-04 8.441091344507e-03 0.0 
0.0 0.0 0.0 
-7.306406899756e-04 -2.407317494588e-05 0.0 
-2.407317494588e-05 9.066248130943e-03 0.0 
0.0 0.0 0.0 
-7.251025920273e-04 -6.979338771703e-06 0.0 
-6.979338771703e-06 9.093519043760e-03 0.0 
0.0 0.0 0.0 
-7.312241112292e-04 -1.166525069836e-05 0.0 
-1.166525069836e-05 9.094091509243e-03 0.0 
0.0 0.0 0.0 
-7.388742471549e-04 -1.143585914443e-05 0.0 
-1.143585914443e-05 9.100869483310e-03 0.0 
0.0 0.0 0.0 
-7.390670972709e-04 -1.173213489501e-05 0.0 
-1.173213489501e-05 9.100923268694e-03 0.0 
0.0 0.0 0.0 
-7.506615811745e-04 -1.290118268116e-05 0.0 
-1.290118268116e-05 9.107887090521e-03 0.0 
0.0 0.0 0.0 
-7.493372831917e-04 -1.445651606167e-05 0.0 
-1.445651606167e-05 9.108234721932e-03 0.0 
0.0 0.0 0.0 
-7.629502290520e-04 -1.938800586273e-05 0.0 
-1.938800586273e-05 9.109725716381e-03 0.0 
0.0 0.0 0.0 
-7.588398531565e-04 -1.182938942574e-05 0.0 
-1.182938942574e-05 9.107413701689e-03 0.0 
0.0 0.0 0.0 
-7.794063511517e-04 -1.417937498827e-05 0.0 
-1.417937498827e-05 9.117491350410e-03 0.0 
0.0 0.0 0.0 
-7.752251782344e-04 -1.139538756054e-05 0.0 
-1.139538756054e-05 9.116378557075e-03 0.0 
0.0 0.0 0.0 
-8.045185551688e-04 -1.879774607760e-05 0.0 
-1.879774607760e-05 9.123094942502e-03 0.0 
0.0 0.0 0.0 
-1.152150456052e-03 2.703037862188e-04 0.0 
2.703037862188e-04 9.114232936621e-03 0.0 
0.0 0.0 0.0 
-7.914103188131e-04 -6.474571927063e-06 0.0 
-6.474571927063e-06 9.117465068391e-03 0.0 
0.0 0.0 0.0 
-1.148296598608e-03 2.237376116758e-04 0.0 
2.237376116758e-04 9.154570635674e-03 0.0 
0.0 0.0 0.0 
-8.226826913676e-04 -9.587034925676e-06 0.0 
-9.587034925676e-06 9.130992135237e-03 0.0 
0.0 0.0 0.0 
-8.154091894078e-04 -5.182751194473e-07 0.0 
-5.182751194473e-07 9.126321798337e-03 0.0 
0.0 0.0 0.0 
-8.634659587839e-04 -1.043958901679e-05 0.0 
-1.043958901679e-05 9.137713880728e-03 0.0 
0.0 0.0 0.0 
-8.389985895457e-04 1.133662442627e-05 0.0 
1.133662442627e-05 9.124470888060e-03 0.0 
0.0 0.0 0.0 
-9.003937952318e-04 4.311570496054e-06 0.0 
4.311570496054e-06 9.145144547639e-03 0.0 
0.0 0.0 0.0 
-8.695252840697e-04 2.762348382588e-05 0.0 
2.762348382588e-05 9.128761371022e-03 0.0 
0.0 0.0 0.0 
-9.367298583419e-04 2.187519602943e-05 0.0 
2.187519602943e-05 9.151737926115e-03 0.0 
0.0 0.0 0.0 
-1.075791135217e-03 2.662417467265e-04 0.0 
2.662417467265e-04 8.946703303564e-03 0.0 
0.0 0.0 0.0 
-9.045077311388e-04 5.181517375099e-05 0.0 
5.181517375099e-05 9.128992268057e-03 0.0 
0.0 0.0 0.0 
-9.830450816594e-04 4.735050850726e-05 0.0 
4.735050850726e-05 9.156096886101e-03 0.0 
0.0 0.0 0.0 
-9.441037401001e-04 8.751439253873e-05 0.0 
8.751439253873e-05 9.122895084595e-03 0.0 
0.0 0.0 0.0 
-1.030455150277e-03 8.821722589719e-05 0.0 
8.821722589719e-05 9.156705307721e-03 0.0 
0.0 0.0 0.0 
-1.083986907250e-03 1.487950077336e-04 0.0 
1.487950077336e-04 9.155593633581e-03 0.0 
0.0 0.0 0.0 
-9.910321244057e-04 1.391041690307e-04 0.0 
1.391041690307e-04 9.112028362142e-03 0.0 
0.0 0.0 0.0 
-1.049229375820e-03 2.053722007627e-04 0.0 
2.053722007627e-04 9.103107505627e-03 0.0 
0.0 0.0 0.0 
-1.193808774018e-03 3.503381275524e-04 0.0 
3.503381275524e-04 9.171719237961e-03 0.0 
0.0 0.0 0.0 
-1.166334087807e-03 2.737824504967e-04 0.0 
2.737824504967e-04 9.018508594420e-03 0.0 
0.0 0.0 0.0 
-7.395054926979e-04 -5.129189223012e-05 0.0 
-5.129189223012e-05 9.098195906672e-03 0.0 
0.0 0.0 0.0 
-7.189909057206e-04 5.794045308737e-05 0.0 
5.794045308737e-05 9.061413722218e-03 0.0 
0.0 0.0 0.0 
-7.330807431669e-04 9.808975040625e-07 0.0 
9.808975040625e-07 9.193614235329e-03 0.0 
0.0 0.0 0.0 
-7.249886904808e-04 7.820675261569e-06 0.0 
7.820675261569e-06 8.969772551076e-03 0.0 
0.0 0.0 0.0 
-1.153066841324e-03 3.825507904276e-04 0.0 
3.825507904276e-04 8.919954237000e-03 0.0 
0.0 0.0 0.0 

TENSORS element_materi_strain_plasti float
-6.466164772809e-04 8.245090744215e-04 0.0 
8.245090744215e-04 2.707374572581e-03 0.0 
0.0 0.0 -4.220722639049e-04 
-5.850828050599e-04 4.087408186800e-04 0.0 
4.087408186800e-04 2.442724633431e-03 0.0 
0.0 0.0 -4.303330772826e-04 
-1.282095494807e-03 4.001741098009e-04 0.0 
4.001741098009e-04 8.226379453025e-03 0.0 
0.0 0.0 -1.278236581085e-03 
-1.295884943363e-03 -1.217266030679e-04 0.0 
-1.217266030679e-04 8.480174258718e-03 0.0 
0.0 0.0 -1.255598393855e-03 
-9.118044046819e-04 2.773302772114e-04 0.0 
2.773302772114e-04 5.301634366726e-03 0.0 
0.0 0.0 -7.961861350945e-04 
2.510626383067e-04 3.899924767601e-04 0.0 
3.899924767601e-04 -1.017744063530e-06 0.0 
0.0 0.0 -1.071620975328e-04 
-8.944012644099e-04 3.000213301662e-04 0.0 
3.000213301662e-04 5.255597081572e-03 0.0 
0.0 0.0 -8.011023898636e-04 
-6.111001276048e-04 8.133198202813e-04 0.0 
8.133198202813e-04 2.541489709150e-03 0.0 
0.0 0.0 -4.045669272905e-04 
-9.178969371214e-04 -2.491713150355e-04 0.0 
-2.491713150355e-04 5.331335701126e-03 0.0 
0.0 0.0 -7.977904104816e-04 
-1.281432177268e-03 3.076617140319e-04 0.0 
3.076617140319e-04 8.397045163972e-03 0.0 
0.0 0.0 -1.253060141438e-03 
-1.093573439511e-03 5.627509268443e-05 0.0 
5.627509268443e-05 5.667510059544e-03 0.0 
0.0 0.0 -8.816510380685e-04 
-5.787511837025e-04 6.777709678412e-04 0.0 
6.777709678412e-04 2.088119972159e-03 0.0 
0.0 0.0 -3.735031833740e-04 
-1.326305648993e-03 1.334625464656e-04 0.0 
1.334625464656e-04 8.251440389062e-03 0.0 
0.0 0.0 -1.259187713256e-03 
-9.724653634380e-04 3.053641968768e-04 0.0 
3.053641968768e-04 5.663135226582e-03 0.0 
0.0 0.0 -8.526168115438e-04 
-1.330762641967e-03 -3.008650578863e-04 0.0 
-3.008650578863e-04 8.383102825445e-03 0.0 
0.0 0.0 -1.289538875031e-03 
-1.321345684109e-03 2.719191787034e-04 0.0 
2.719191787034e-04 8.617215783831e-03 0.0 
0.0 0.0 -1.285984941237e-03 
-9.140896497734e-04 7.519541139523e-05 0.0 
7.519541139523e-05 5.296976735505e-03 0.0 
0.0 0.0 -7.740676797406e-04 
0.0 0.0 0.0 
0.0 0.0 0.0 
0.0 0.0 0.0 
-3.519099227855e-04 -1.443334347486e-04 0.0 
-1.443334347486e-04 1.817532010240e-03 0.0 
0.0 0.0 -2.776016825098e-04 
-3.997644766498e-04 4.954726061119e-05 0.0 
4.954726061119e-05 1.673764597630e-03 0.0 
0.0 0.0 -3.031105466646e-04 
-1.276969282696e-03 -1.363061038713e-04 0.0 
-1.363061038713e-04 8.471794626493e-03 0.0 
0.0 0.0 -1.250388265701e-03 
-6.432162703731e-04 5.512102898043e-04 0.0 
5.512102898043e-04 2.885045796034e-03 0.0 
0.0 0.0 -4.811142067971e-04 
-6.884954101540e-04 3.994199898237e-04 0.0 
3.994199898237e-04 3.234457200495e-03 0.0 
0.0 0.0 -5.091556215902e-04 
-1.086615628820e-03 -2.931322765965e-04 0.0 
-2.931322765965e-04 7.458132473520e-03 0.0 
0.0 0.0 -1.210372970477e-03 
-1.022288100468e-03 3.987168263927e-04 0.0 
3.987168263927e-04 6.009421001038e-03 0.0 
0.0 0.0 -9.130988374533e-04 
-1.132573975630e-03 -2.410939857696e-04 0.0 
-2.410939857696e-04 6.073086075411e-03 0.0 
0.0 0.0 -9.179597371190e-04 
-8.591992327558e-04 1.320513177097e-04 0.0 
1.320513177097e-04 4.879471040969e-03 0.0 
0.0 0.0 -7.148082707961e-04 
-1.227939719405e-03 4.897213587292e-04 0.0 
4.897213587292e-04 8.231185118654e-03 0.0 
0.0 0.0 -1.266047838742e-03 
-1.043323281561e-03 -5.190539471628e-05 0.0 
-5.190539471628e-05 6.052750555350e-03 0.0 
0.0 0.0 -9.113908267906e-04 
-1.155289536852e-03 -1.768880545786e-05 0.0 
-1.768880545786e-05 7.700571454284e-03 0.0 
0.0 0.0 -1.237914324842e-03 
3.591818895870e-04 -1.087919908418e-03 0.0 
-1.087919908418e-03 2.306926407283e-04 0.0 
0.0 0.0 -2.528033701351e-04 
-5.253251415500e-05 -7.346267826167e-05 0.0 
-7.346267826167e-05 5.706227414438e-04 0.0 
0.0 0.0 -1.059755802940e-04 
-1.328657286874e-03 4.996781592111e-04 0.0 
4.996781592111e-04 8.531045122136e-03 0.0 
0.0 0.0 -1.261301343383e-03 
-1.246135843572e-03 -2.165566539215e-04 0.0 
-2.165566539215e-04 7.113329539199e-03 0.0 
0.0 0.0 -1.090200430068e-03 
-1.222640564805e-03 -5.172125954847e-04 0.0 
-5.172125954847e-04 8.023175699372e-03 0.0 
0.0 0.0 -1.254989870190e-03 
-1.362336754091e-03 1.038272021812e-04 0.0 
1.038272021812e-04 8.593232231463e-03 0.0 
0.0 0.0 -1.314886350686e-03 
-1.333817909252e-03 -6.741910836282e-04 0.0 
-6.741910836282e-04 8.572481383167e-03 0.0 
0.0 0.0 -1.314653105918e-03 
-1.152787385481e-03 3.395804623759e-04 0.0 
3.395804623759e-04 7.780236807800e-03 0.0 
0.0 0.0 -1.264739017786e-03 
-8.345100331917e-04 -3.032908507100e-04 0.0 
-3.032908507100e-04 4.793915913410e-03 0.0 
0.0 0.0 -7.380763454961e-04 
-8.314689275844e-04 3.674750294880e-04 0.0 
3.674750294880e-04 4.862282802739e-03 0.0 
0.0 0.0 -7.371174501546e-04 
-7.446435526587e-04 2.495366517639e-04 0.0 
2.495366517639e-04 3.730189536197e-03 0.0 
0.0 0.0 -5.794556523337e-04 
-1.240577876015e-03 -2.606603701506e-04 0.0 
-2.606603701506e-04 7.945807599574e-03 0.0 
0.0 0.0 -1.280756488215e-03 
-5.279799311040e-04 1.102170611227e-03 0.0 
1.102170611227e-03 1.773978523889e-03 0.0 
0.0 0.0 -3.207852484642e-04 
-8.673432961900e-04 2.038482856540e-04 0.0 
2.038482856540e-04 4.641456270313e-03 0.0 
0.0 0.0 -7.350059072715e-04 
-1.271467539957e-03 -7.879660805606e-05 0.0 
-7.879660805606e-05 8.302426141521e-03 0.0 
0.0 0.0 -1.212858513926e-03 
-5.775885694842e-04 8.848405614820e-04 0.0 
8.848405614820e-04 1.777381832978e-03 0.0 
0.0 0.0 -3.198426158856e-04 
2.130878448261e-04 -2.803383724960e-04 0.0 
-2.803383724960e-04 -1.640750498909e-05 0.0 
0.0 0.0 -8.429157421588e-05 
-1.252952730617e-03 9.194498370430e-05 0.0 
9.194498370430e-05 8.113365198973e-03 0.0 
0.0 0.0 -1.234743356787e-03 
1.618564024128e-06 -4.086337075162e-06 0.0 
-4.086337075162e-06 6.435399236605e-07 0.0 
0.0 0.0 -9.694731204806e-07 
-9.377652680597e-04 -7.279277581159e-05 0.0 
-7.279277581159e-05 5.473641853479e-03 0.0 
0.0 0.0 -8.229436299569e-04 
-7.184238485782e-04 3.283816114982e-04 0.0 
3.283816114982e-04 3.500159598670e-03 0.0 
0.0 0.0 -5.440916476828e-04 
-4.407403860860e-04 -1.000193585770e-04 0.0 
-1.000193585770e-04 2.276874889741e-03 0.0 
0.0 0.0 -3.443810396916e-04 
3.693556118723e-04 -1.150080954677e-03 0.0 
-1.150080954677e-03 2.564828416198e-04 0.0 
0.0 0.0 -2.682164800680e-04 
-6.981340931129e-04 4.826618162809e-04 0.0 
4.826618162809e-04 3.375109354798e-03 0.0 
0.0 0.0 -5.489460876789e-04 
-1.294047200749e-03 3.426820678350e-04 0.0 
3.426820678350e-04 8.360890520438e-03 0.0 
0.0 0.0 -1.282189168212e-03 
-6.426921289281e-04 -2.477141885566e-04 0.0 
-2.477141885566e-04 2.972149177427e-03 0.0 
0.0 0.0 -4.512233509908e-04 
-5.071100590753e-04 7.724547813732e-05 0.0 
7.724547813732e-05 2.167123717160e-03 0.0 
0.0 0.0 -3.694212080277e-04 
-1.248804674603e-03 1.204053078386e-04 0.0 
1.204053078386e-04 7.152497866114e-03 0.0 
0.0 0.0 -1.087734043504e-03 
-2.199405617637e-04 -6.207470745057e-05 0.0 
-6.207470745057e-05 1.342683867831e-03 0.0 
0.0 0.0 -2.189683579105e-04 
-1.315587936217e-03 -1.318704737137e-04 0.0 
-1.318704737137e-04 8.629398526663e-03 0.0 
0.0 0.0 -1.285320035817e-03 
0.0 0.0 0.0 
0.0 0.0 0.0 
0.0 0.0 0.0 
-1.104248090582e-03 6.042449065024e-04 0.0 
6.042449065024e-04 7.502345308807e-03 0.0 
0.0 0.0 -1.210824713543e-03 
-6.118289487359e-04 1.052783847498e-03 0.0 
1.052783847498e-03 3.133960488999e-03 0.0 
0.0 0.0 -5.497085007362e-04 
3.930006713422e-04 -1.150166211052e-03 0.0 
-1.150166211052e-03 2.323329664583e-04 0.0 
0.0 0.0 -2.680001304859e-04 
-1.319367167403e-03 -3.421260873299e-04 0.0 
-3.421260873299e-04 8.223808012733e-03 0.0 
0.0 0.0 -1.257478522087e-03 
-6.824305458781e-04 5.038519007458e-04 0.0 
5.038519007458e-04 3.122644429912e-03 0.0 
0.0 0.0 -5.137572693775e-04 
0.0 0.0 0.0 
0.0 0.0 0.0 
0.0 0.0 0.0 
-1.302579274791e-03 3.856077973971e-04 0.0 
3.856077973971e-04 8.474035595977e-03 0.0 
0.0 0.0 -1.261660853087e-03 
-3.055720632183e-04 -1.064577386819e-03 0.0 
-1.064577386819e-03 1.239084830307e-03 0.0 
0.0 0.0 -3.052032381971e-04 
-1.275451108923e-03 4.835577884085e-04 0.0 
4.835577884085e-04 8.123671911160e-03 0.0 
0.0 0.0 -1.282376455277e-03 
-1.145904955508e-03 -3.118374997867e-04 0.0 
-3.118374997867e-04 6.272168097955e-03 0.0 
0.0 0.0 -9.556290573178e-04 
-1.338499280800e-03 2.408371898962e-04 0.0 
2.408371898962e-04 8.775782511843e-03 0.0 
0.0 0.0 -1.338499280800e-03 
-1.192625588921e-03 4.461210467852e-04 0.0 
4.461210467852e-04 7.634783606740e-03 0.0 
0.0 0.0 -1.232909111256e-03 
-2.127254236185e-05 1.891430361426e-04 0.0 
1.891430361426e-04 5.160571140730e-04 0.0 
0.0 0.0 -1.295286970291e-04 
-6.935849542252e-04 2.344127444435e-05 0.0 
2.344127444435e-05 2.990888035910e-03 0.0 
0.0 0.0 -4.777371989943e-04 
-1.295701123542e-03 1.509088819434e-05 0.0 
1.509088819434e-05 8.469943460322e-03 0.0 
0.0 0.0 -1.262626981217e-03 
-1.324502073679e-03 3.744328644392e-04 0.0 
3.744328644392e-04 8.596934185840e-03 0.0 
0.0 0.0 -1.265352048664e-03 
-2.411922616665e-04 1.053006289260e-03 0.0 
1.053006289260e-03 1.157414957781e-03 0.0 
0.0 0.0 -3.599094611647e-04 
-2.769907565586e-04 -8.829481836090e-05 0.0 
-8.829481836090e-05 1.134623594574e-03 0.0 
0.0 0.0 -2.366757893512e-04 
-2.181753936334e-04 1.161392611074e-03 0.0 
1.161392611074e-03 1.149876313961e-03 0.0 
0.0 0.0 -3.564703237892e-04 
-2.758740996359e-04 -8.746279552454e-04 0.0 
-8.746279552454e-04 1.152039496951e-03 0.0 
0.0 0.0 -3.439500825601e-04 
-8.978965614641e-04 9.154439014956e-05 0.0 
9.154439014956e-05 5.029293334098e-03 0.0 
0.0 0.0 -7.918363975426e-04 
-6.733819819602e-04 4.712092501630e-04 0.0 
4.712092501630e-04 3.018715837704e-03 0.0 
0.0 0.0 -4.749402310763e-04 
-6.256408849580e-04 5.270574211380e-04 0.0 
5.270574211380e-04 2.559551606748e-03 0.0 
0.0 0.0 -4.438329512050e-04 
-9.725152992593e-04 -1.918915712341e-04 0.0 
-1.918915712341e-04 5.553894553160e-03 0.0 
0.0 0.0 -8.336771054075e-04 
-9.515395304919e-04 2.688463451821e-04 0.0 
2.688463451821e-04 5.521722972354e-03 0.0 
0.0 0.0 -8.358076868167e-04 
-1.183410575090e-03 -2.693387168119e-04 0.0 
-2.693387168119e-04 6.452199734420e-03 0.0 
0.0 0.0 -9.867109252839e-04 
-1.231001359755e-03 1.776752657648e-04 0.0 
1.776752657648e-04 6.972617785685e-03 0.0 
0.0 0.0 -1.058576829647e-03 
-1.159508113008e-03 2.069980553471e-04 0.0 
2.069980553471e-04 7.153965750682e-03 0.0 
0.0 0.0 -1.085941371602e-03 
-9.167398449037e-04 -2.379223024375e-04 0.0 
-2.379223024375e-04 5.214431434648e-03 0.0 
0.0 0.0 -7.983229688164e-04 
-9.629239381275e-05 -7.847678025284e-05 0.0 
-7.847678025284e-05 3.293444492904e-04 0.0 
0.0 0.0 -9.987945234756e-05 
-9.298280525189e-04 1.832074445445e-04 0.0 
1.832074445445e-04 5.072594773826e-03 0.0 
0.0 0.0 -7.928983479555e-04 
-1.152068192651e-03 -8.618068735251e-05 0.0 
-8.618068735251e-05 7.066072062095e-03 0.0 
0.0 0.0 -1.069439317440e-03 
-1.125567912536e-03 1.438213412546e-04 0.0 
1.438213412546e-04 7.130378012797e-03 0.0 
0.0 0.0 -1.046447409317e-03 
-1.354248964991e-03 2.488047583645e-04 0.0 
2.488047583645e-04 9.041954327214e-03 0.0 
0.0 0.0 -1.319970921405e-03 
-1.236862548615e-03 6.047335938228e-05 0.0 
6.047335938228e-05 8.106142459015e-03 0.0 
0.0 0.0 -1.294194962782e-03 
-9.013588349204e-04 -3.564785080674e-05 0.0 
-3.564785080674e-05 5.032133509131e-03 0.0 
0.0 0.0 -7.889745663688e-04 
-1.254766552398e-03 -3.118115606911e-04 0.0 
-3.118115606911e-04 8.236373731402e-03 0.0 
0.0 0.0 -1.263183913703e-03 
-9.880175404899e-04 -1.466486724576e-04 0.0 
-1.466486724576e-04 5.952185502159e-03 0.0 
0.0 0.0 -9.040008563810e-04 
-6.291314004619e-04 6.895076894316e-04 0.0 
6.895076894316e-04 3.149500208419e-03 0.0 
0.0 0.0 -5.198799001330e-04 
-8.730449846052e-04 -1.408519575968e-04 0.0 
-1.408519575968e-04 5.083535477325e-03 0.0 
0.0 0.0 -7.643292725053e-04 
-1.347992785810e-03 5.931491654167e-05 0.0 
5.931491654167e-05 8.400156878011e-03 0.0 
0.0 0.0 -1.287517816355e-03 
-8.262228282774e-04 1.447902815746e-04 0.0 
1.447902815746e-04 6.297334361413e-03 0.0 
0.0 0.0 -1.043751955586e-03 
-1.104569420112e-03 1.448019849648e-04 0.0 
1.448019849648e-04 7.556047747294e-03 0.0 
0.0 0.0 -1.209599240962e-03 
-4.538367894760e-04 9.757826283503e-04 0.0 
9.757826283503e-04 2.565554738313e-03 0.0 
0.0 0.0 -4.747543016519e-04 
2.029884590449e-04 -8.599336091252e-04 0.0 
-8.599336091252e-04 2.611091082078e-04 0.0 
0.0 0.0 -1.988989573940e-04 
-1.297459135418e-03 -2.747475562559e-04 0.0 
-2.747475562559e-04 7.787009671767e-03 0.0 
0.0 0.0 -1.189902873528e-03 
-1.189086276409e-03 1.093944519264e-04 0.0 
1.093944519264e-04 7.587261230545e-03 0.0 
0.0 0.0 -1.108790581071e-03 
7.624507231963e-05 -2.164748674539e-04 0.0 
-2.164748674539e-04 4.178589710884e-05 0.0 
0.0 0.0 -5.058470118363e-05 
-1.283662232086e-03 -3.116749921630e-04 0.0 
-3.116749921630e-04 8.203749873262e-03 0.0 
0.0 0.0 -1.285127980003e-03 
-1.117454671525e-03 5.890310527375e-04 0.0 
5.890310527375e-04 6.771147145683e-03 0.0 
0.0 0.0 -1.051491716222e-03 
2.129630744421e-04 -9.499020889305e-05 0.0 
-9.499020889305e-05 2.730652041404e-04 0.0 
0.0 0.0 -1.433710470045e-04 
-4.646091997464e-04 1.130911332871e-03 0.0 
1.130911332871e-03 3.315295093012e-03 0.0 
0.0 0.0 -6.309931931857e-04 
-8.659480951891e-04 9.706201231431e-05 0.0 
9.706201231431e-05 4.691930850523e-03 0.0 
0.0 0.0 -7.153918394734e-04 
-8.128195131981e-04 -2.696429011542e-04 0.0 
-2.696429011542e-04 3.582326768313e-03 0.0 
0.0 0.0 -5.772375537024e-04 
-5.795319369569e-04 9.930078575254e-04 0.0 
9.930078575254e-04 2.722691248666e-03 0.0 
0.0 0.0 -4.852398935310e-04 
-5.900753072712e-04 6.920056491215e-04 0.0 
6.920056491215e-04 3.182816884513e-03 0.0 
0.0 0.0 -5.471823052058e-04 
-1.301859315623e-03 -1.904737940513e-04 0.0 
-1.904737940513e-04 8.142812636608e-03 0.0 
0.0 0.0 -1.283833066805e-03 
-9.523212659311e-04 1.958273368285e-04 0.0 
1.958273368285e-04 5.865970295395e-03 0.0 
0.0 0.0 -8.766975940251e-04 
-5.541698138184e-04 1.190551615049e-03 0.0 
1.190551615049e-03 2.836925707114e-03 0.0 
0.0 0.0 -5.122473358773e-04 
-4.084206622420e-04 -7.278847424947e-04 0.0 
-7.278847424947e-04 1.354708172608e-03 0.0 
0.0 0.0 -2.295267891405e-04 
-9.046551402062e-04 3.103540058347e-04 0.0 
3.103540058347e-04 5.221480629983e-03 0.0 
0.0 0.0 -7.744920945421e-04 
-1.163420538902e-03 -6.301653344554e-05 0.0 
-6.301653344554e-05 7.412623996309e-03 0.0 
0.0 0.0 -1.129288753466e-03 
-5.271843801054e-04 7.884919210617e-04 0.0 
7.884919210617e-04 2.864417005275e-03 0.0 
0.0 0.0 -5.109724225979e-04 
5.534592465795e-05 9.039028363928e-04 0.0 
9.039028363928e-04 4.831251439840e-04 0.0 
0.0 0.0 -2.307733151323e-04 
-8.073832098114e-04 1.503125105248e-04 0.0 
1.503125105248e-04 4.217521397372e-03 0.0 
0.0 0.0 -6.470401313398e-04 
-8.043937078593e-04 -1.245165173277e-04 0.0 
-1.245165173277e-04 3.751204721582e-03 0.0 
0.0 0.0 -5.578851714504e-04 
-7.622885537649e-04 4.316670476422e-04 0.0 
4.316670476422e-04 3.890857300125e-03 0.0 
0.0 0.0 -6.167189930163e-04 
-1.313795093192e-03 3.745855682538e-04 0.0 
3.745855682538e-04 8.614675897131e-03 0.0 
0.0 0.0 -1.290671971449e-03 
1.991130479106e-04 9.381873505590e-04 0.0 
9.381873505590e-04 3.095528624407e-04 0.0 
0.0 0.0 -2.179996758648e-04 
-1.118912346163e-03 3.069253467211e-05 0.0 
3.069253467211e-05 5.953637467028e-03 0.0 
0.0 0.0 -9.216843799351e-04 
-1.302832962065e-03 2.769223245220e-04 0.0 
2.769223245220e-04 8.470819943817e-03 0.0 
0.0 0.0 -1.256690274141e-03 
-7.596340248727e-04 7.382796594352e-04 0.0 
7.382796594352e-04 4.031537584483e-03 0.0 
0.0 0.0 -6.588732905211e-04 
-7.779772953584e-04 1.836806670251e-04 0.0 
1.836806670251e-04 3.983301519145e-03 0.0 
0.0 0.0 -6.139229799761e-04 
-1.231803605678e-03 -5.782093166128e-05 0.0 
-5.782093166128e-05 8.028152931577e-03 0.0 
0.0 0.0 -1.254964138299e-03 
-1.328106245368e-03 -3.359343714767e-04 0.0 
-3.359343714767e-04 8.269862829300e-03 0.0 
0.0 0.0 -1.261070974318e-03 
-1.177616370787e-03 5.503788424212e-05 0.0 
5.503788424212e-05 6.447345049328e-03 0.0 
0.0 0.0 -9.873713238705e-04 
-7.975389004980e-04 3.851368616877e-04 0.0 
3.851368616877e-04 4.370903509068e-03 0.0 
0.0 0.0 -6.916138708610e-04 
-1.195768822005e-03 -1.347190958518e-04 0.0 
-1.347190958518e-04 8.136693957771e-03 0.0 
0.0 0.0 -1.270330610962e-03 
-7.600104695776e-04 6.621541633523e-04 0.0 
6.621541633523e-04 3.915062890853e-03 0.0 
0.0 0.0 -6.326048069937e-04 
-1.276977184880e-03 1.361446544635e-04 0.0 
1.361446544635e-04 8.444479482518e-03 0.0 
0.0 0.0 -1.283174495648e-03 
-1.281656246909e-03 5.918270400850e-04 0.0 
5.918270400850e-04 8.394460336114e-03 0.0 
0.0 0.0 -1.267437373369e-03 
-9.916900482218e-04 -1.353869196216e-04 0.0 
-1.353869196216e-04 5.594925371490e-03 0.0 
0.0 0.0 -8.543707170918e-04 
-1.059679930627e-03 2.378363673836e-04 0.0 
2.378363673836e-04 6.573353481791e-03 0.0 
0.0 0.0 -9.817831382938e-04 
-7.605699351815e-04 3.748556655775e-04 0.0 
3.748556655775e-04 3.967103975153e-03 0.0 
0.0 0.0 -6.293189184696e-04 
-7.420000060583e-04 4.704307559795e-04 0.0 
4.704307559795e-04 3.646692949105e-03 0.0 
0.0 0.0 -5.830241378053e-04 
-8.001161774359e-04 7.418992546282e-04 0.0 
7.418992546282e-04 4.429271101410e-03 0.0 
0.0 0.0 -7.211932326589e-04 
-4.509036314279e-04 9.161005774141e-04 0.0 
9.161005774141e-04 2.969896787124e-03 0.0 
0.0 0.0 -5.383041810906e-04 
-8.768683131663e-04 -1.698577199285e-04 0.0 
-1.698577199285e-04 5.218733852389e-03 0.0 
0.0 0.0 -7.693993191400e-04 
-3.984078038155e-04 7.031353492297e-04 0.0 
7.031353492297e-04 3.390130310364e-03 0.0 
0.0 0.0 -6.275039421266e-04 
-8.830553488541e-05 -1.169663280731e-04 0.0 
-1.169663280731e-04 3.137961635653e-04 0.0 
0.0 0.0 -9.663884086279e-05 
-9.202478516251e-04 -5.770930012148e-06 0.0 
-5.770930012148e-06 5.620779502953e-03 0.0 
0.0 0.0 -8.171079392438e-04 
-3.114395398576e-04 -3.263303537109e-05 0.0 
-3.263303537109e-05 1.213615237241e-03 0.0 
0.0 0.0 -2.373169254524e-04 
-8.400103073364e-04 1.183268532165e-04 0.0 
1.183268532165e-04 4.465364634510e-03 0.0 
0.0 0.0 -6.809683978454e-04 
-1.226720591274e-03 -2.033245432446e-04 0.0 
-2.033245432446e-04 7.901279716244e-03 0.0 
0.0 0.0 -1.284796145094e-03 
-5.032521871548e-04 1.323397128945e-03 0.0 
1.323397128945e-03 2.524146629484e-03 0.0 
0.0 0.0 -4.767992880414e-04 
-1.206015416419e-03 1.351161918146e-04 0.0 
1.351161918146e-04 6.706761080456e-03 0.0 
0.0 0.0 -1.021089721936e-03 
-5.854397783758e-04 6.900577011398e-04 0.0 
6.900577011398e-04 2.034319527358e-03 0.0 
0.0 0.0 -3.540742325023e-04 
-8.487428613626e-04 6.354315705334e-04 0.0 
6.354315705334e-04 6.259047629254e-03 0.0 
0.0 0.0 -1.044905595188e-03 
-9.023795236384e-04 1.774952439286e-05 0.0 
1.774952439286e-05 5.056579998417e-03 0.0 
0.0 0.0 -7.899655494116e-04 
-3.675306969511e-04 1.198984270489e-03 0.0 
1.198984270489e-03 2.958001668599e-03 0.0 
0.0 0.0 -5.931463391684e-04 
-1.266256333575e-03 -2.932543747909e-04 0.0 
-2.932543747909e-04 7.348938270472e-03 0.0 
0.0 0.0 -1.120963572432e-03 
-3.905834582402e-04 -4.908595614848e-04 0.0 
-4.908595614848e-04 1.232002034576e-03 0.0 
0.0 0.0 -2.722262904030e-04 
-1.289444217002e-03 1.239965470747e-04 0.0 
1.239965470747e-04 7.777003841897e-03 0.0 
0.0 0.0 -1.189111243166e-03 
-9.083262515729e-04 4.866804809917e-04 0.0 
4.866804809917e-04 4.963586243701e-03 0.0 
0.0 0.0 -7.711223959738e-04 
-1.340203078278e-03 -2.129693675799e-04 0.0 
-2.129693675799e-04 8.439560912258e-03 0.0 
0.0 0.0 -1.265987209193e-03 
-8.868772565118e-04 2.877464608834e-05 0.0 
2.877464608834e-05 5.056912107765e-03 0.0 
0.0 0.0 -7.842605076999e-04 
-4.245977401382e-04 1.301715382003e-03 0.0 
1.301715382003e-03 2.484999694538e-03 0.0 
0.0 0.0 -5.042822341261e-04 
-8.141088315077e-04 3.778227072886e-04 0.0 
3.778227072886e-04 4.370548075301e-03 0.0 
0.0 0.0 -6.840799553763e-04 
-1.128956121950e-03 -1.816355743224e-04 0.0 
-1.816355743224e-04 5.879621026637e-03 0.0 
0.0 0.0 -8.722824885218e-04 
-5.657686865338e-04 1.006813399921e-03 0.0 
1.006813399921e-03 2.114854539436e-03 0.0 
0.0 0.0 -3.514598124168e-04 
-2.840077947560e-04 7.374002385130e-04 0.0 
7.374002385130e-04 3.016923521918e-03 0.0 
0.0 0.0 -5.911455407098e-04 
-1.107826402130e-03 -1.895219266089e-04 0.0 
-1.895219266089e-04 6.838398808500e-03 0.0 
0.0 0.0 -1.016465148841e-03 
-8.846022414820e-04 1.673369808483e-04 0.0 
1.673369808483e-04 5.274165376609e-03 0.0 
0.0 0.0 -7.680022369673e-04 
-4.363801896578e-04 1.202422263910e-03 0.0 
1.202422263910e-03 2.876866297868e-03 0.0 
0.0 0.0 -5.666226778950e-04 
-8.017363352442e-04 3.924823248397e-04 0.0 
3.924823248397e-04 4.130177357856e-03 0.0 
0.0 0.0 -6.498546761489e-04 
-1.141214369151e-03 6.765310758862e-04 0.0 
6.765310758862e-04 7.271411604946e-03 0.0 
0.0 0.0 -1.136725521675e-03 
-8.548535662047e-04 -2.781485263044e-04 0.0 
-2.781485263044e-04 4.164865359686e-03 0.0 
0.0 0.0 -6.189190723244e-04 
-1.237707508229e-03 4.856674807990e-04 0.0 
4.856674807990e-04 7.956457412847e-03 0.0 
0.0 0.0 -1.285202198870e-03 
-1.271584492805e-03 4.859423083683e-04 0.0 
4.859423083683e-04 8.362652585957e-03 0.0 
0.0 0.0 -1.265486236287e-03 
-6.208228587870e-04 6.861521722427e-04 0.0 
6.861521722427e-04 2.794482215749e-03 0.0 
0.0 0.0 -4.595713030950e-04 
-8.601834141272e-04 -1.130024456241e-04 0.0 
-1.130024456241e-04 3.988529893684e-03 0.0 
0.0 0.0 -6.385407451345e-04 
-9.728705791535e-04 -2.427476520657e-04 0.0 
-2.427476520657e-04 7.014843591236e-03 0.0 
0.0 0.0 -1.152822474774e-03 
-7.582637832037e-04 3.173029778375e-04 0.0 
3.173029778375e-04 3.850177976745e-03 0.0 
0.0 0.0 -6.037256927378e-04 
-5.932602371824e-04 9.450171731982e-04 0.0 
9.450171731982e-04 2.345539596427e-03 0.0 
0.0 0.0 -4.251746348339e-04 
-8.883854653183e-04 4.319931064094e-04 0.0 
4.319931064094e-04 4.807571306798e-03 0.0 
0.0 0.0 -7.443430781256e-04 
-4.655628622191e-04 8.097546048135e-04 0.0 
8.097546048135e-04 3.367415080588e-03 0.0 
0.0 0.0 -6.011186688906e-04 
-1.309467600587e-03 2.274324864678e-04 0.0 
2.274324864678e-04 8.467271508597e-03 0.0 
0.0 0.0 -1.279059907835e-03 
-1.139712663312e-03 5.524271265546e-04 0.0 
5.524271265546e-04 6.895093066062e-03 0.0 
0.0 0.0 -1.060691896764e-03 
-1.282894195515e-03 1.713163621167e-04 0.0 
1.713163621167e-04 7.580646218946e-03 0.0 
0.0 0.0 -1.155968210243e-03 
-4.263760736077e-04 9.726189065638e-04 0.0 
9.726189065638e-04 1.483303861492e-03 0.0 
0.0 0.0 -3.328149423972e-04 
-1.567783780417e-04 7.459959337790e-04 0.0 
7.459959337790e-04 2.633807870816e-03 0.0 
0.0 0.0 -5.558335581882e-04 
-1.150277857659e-03 5.855176210150e-04 0.0 
5.855176210150e-04 7.056066340815e-03 0.0 
0.0 0.0 -1.089453766084e-03 
0.0 0.0 0.0 
0.0 0.0 0.0 
0.0 0.0 0.0 
-7.560981228119e-04 5.568058696449e-04 0.0 
5.568058696449e-04 3.796632807166e-03 0.0 
0.0 0.0 -6.073871274648e-04 
-8.851342185419e-04 -4.312210323728e-04 0.0 
-4.312210323728e-04 6.519433320506e-03 0.0 
0.0 0.0 -1.080675545910e-03 
-1.164869828715e-04 -1.456841600207e-04 0.0 
-1.456841600207e-04 9.923335266216e-04 0.0 
0.0 0.0 -1.605608400042e-04 
-1.274326596506e-03 6.277067703956e-04 0.0 
6.277067703956e-04 8.332587857653e-03 0.0 
0.0 0.0 -1.257517519450e-03 
-1.082557255636e-03 4.467183423513e-04 0.0 
4.467183423513e-04 6.398503814141e-03 0.0 
0.0 0.0 -9.749624431058e-04 
-5.927975267284e-04 -7.287134833264e-04 0.0 
-7.287134833264e-04 3.408230795765e-03 0.0 
0.0 0.0 -5.995223474422e-04 
-8.718953006962e-04 8.285847793953e-05 0.0 
8.285847793953e-05 6.481498684251e-03 0.0 
0.0 0.0 -1.082135573042e-03 
-9.644421873602e-04 1.848918456793e-04 0.0 
1.848918456793e-04 5.622214910538e-03 0.0 
0.0 0.0 -8.259898420369e-04 
-9.976541713563e-04 8.643209894895e-06 0.0 
8.643209894895e-06 5.944166007327e-03 0.0 
0.0 0.0 -8.838609275114e-04 
-1.149666595734e-03 -3.245227479459e-04 0.0 
-3.245227479459e-04 7.662117469895e-03 0.0 
0.0 0.0 -1.237791025003e-03 
-6.377976835771e-04 -6.114567573414e-04 0.0 
-6.114567573414e-04 2.689173763955e-03 0.0 
0.0 0.0 -4.583583101839e-04 
-7.880409547895e-04 7.989113980148e-04 0.0 
7.989113980148e-04 4.542855302031e-03 0.0 
0.0 0.0 -7.480401524272e-04 
-9.214234162491e-04 5.351887786335e-04 0.0 
5.351887786335e-04 5.111262659093e-03 0.0 
0.0 0.0 -7.988399675000e-04 
-1.125534786672e-03 7.028976634264e-05 0.0 
7.028976634264e-05 6.721724443554e-03 0.0 
0.0 0.0 -1.008548823165e-03 
-9.505406595461e-04 1.355801735478e-04 0.0 
1.355801735478e-04 5.273089753614e-03 0.0 
0.0 0.0 -8.035999206669e-04 
-8.920793708860e-04 1.354006487991e-04 0.0 
1.354006487991e-04 4.845817227354e-03 0.0 
0.0 0.0 -7.415510827328e-04 
-6.524274381720e-04 1.661117945530e-04 0.0 
1.661117945530e-04 5.489508378744e-03 0.0 
0.0 0.0 -9.414312740916e-04 
-1.133549865804e-03 2.632851943964e-04 0.0 
2.632851943964e-04 7.143578184647e-03 0.0 
0.0 0.0 -1.105110859848e-03 
0.0 0.0 0.0 
0.0 0.0 0.0 
0.0 0.0 0.0 
-5.963424256803e-04 8.235655420392e-04 0.0 
8.235655420392e-04 2.727118741511e-03 0.0 
0.0 0.0 -4.649757541953e-04 
-6.413935052421e-04 9.083237096948e-04 0.0 
9.083237096948e-04 3.060885376631e-03 0.0 
0.0 0.0 -5.249394872960e-04 
-7.860598654059e-04 4.409893248632e-04 0.0 
4.409893248632e-04 4.491993588337e-03 0.0 
0.0 0.0 -7.181710532390e-04 
-1.182550884137e-03 1.586567680609e-04 0.0 
1.586567680609e-04 7.254490089636e-03 0.0 
0.0 0.0 -1.095076276885e-03 
4.583279132942e-04 6.488863092727e-04 0.0 
6.488863092727e-04 -1.405418918228e-05 0.0 
0.0 0.0 -1.904030246194e-04 
-8.562318666799e-04 -4.982168400307e-04 0.0 
-4.982168400307e-04 6.277290697447e-03 0.0 
0.0 0.0 -1.043355442177e-03 
-8.774345447710e-04 -2.186708792855e-04 0.0 
-2.186708792855e-04 5.055368522856e-03 0.0 
0.0 0.0 -7.763349569542e-04 
-2.555112241128e-04 1.229664321452e-03 0.0 
1.229664321452e-03 2.574406854457e-03 0.0 
0.0 0.0 -5.576783925304e-04 
-8.394427967850e-04 -5.648718734432e-04 0.0 
-5.648718734432e-04 6.055308780542e-03 0.0 
0.0 0.0 -1.006238978475e-03 
-7.021339785738e-05 -2.257880490566e-04 0.0 
-2.257880490566e-04 5.234298020475e-04 0.0 
0.0 0.0 -1.250635456846e-04 
-1.135452312747e-03 4.797857508760e-04 0.0 
4.797857508760e-04 6.834881249119e-03 0.0 
0.0 0.0 -1.040010908530e-03 
8.624072222387e-05 -5.482403482058e-05 0.0 
-5.482403482058e-05 4.623552898900e-04 0.0 
0.0 0.0 -1.166360257537e-04 
-1.840491842350e-04 -5.445744923588e-05 0.0 
-5.445744923588e-05 7.493422687288e-04 0.0 
0.0 0.0 -1.819418517600e-04 
-3.913654307844e-04 1.191507394513e-03 0.0 
1.191507394513e-03 1.470311877001e-03 0.0 
0.0 0.0 -3.246947309473e-04 
-6.091026736672e-04 -6.117663185554e-04 0.0 
-6.117663185554e-04 2.275310364661e-03 0.0 
0.0 0.0 -3.935955730116e-04 
-1.177121720242e-03 9.986808741325e-05 0.0 
9.986808741325e-05 7.155425965963e-03 0.0 
0.0 0.0 -1.073797489760e-03 
-5.625078577902e-04 -9.911531115061e-04 0.0 
-9.911531115061e-04 2.166295973773e-03 0.0 
0.0 0.0 -3.637595386041e-04 
-2.431075708166e-04 1.562437016590e-03 0.0 
1.562437016590e-03 1.376800568989e-03 0.0 
0.0 0.0 -3.890718233399e-04 
1.128852675938e-04 -1.510947419960e-03 0.0 
-1.510947419960e-03 7.754974600039e-04 0.0 
0.0 0.0 -3.807354546848e-04 
-5.007957256990e-04 -4.054148446658e-04 0.0 
-4.054148446658e-04 1.463133010542e-03 0.0 
0.0 0.0 -2.670040094673e-04 
-9.159310068134e-04 1.166570594862e-04 0.0 
1.166570594862e-04 6.711157580750e-03 0.0 
0.0 0.0 -1.117524173959e-03 
-9.108885203266e-04 1.625635707661e-04 0.0 
1.625635707661e-04 5.002433540525e-03 0.0 
0.0 0.0 -7.687972329812e-04 
-1.323980336649e-03 7.113171737239e-05 0.0 
7.113171737239e-05 8.245489008711e-03 0.0 
0.0 0.0 -1.256743614961e-03 
0.0 0.0 0.0 
0.0 0.0 0.0 
0.0 0.0 0.0 
-3.330839468946e-04 1.604359709376e-03 0.0 
1.604359709376e-03 1.727019779997e-03 0.0 
0.0 0.0 -4.044045206172e-04 
-3.067142002033e-04 1.081368075103e-03 0.0 
1.081368075103e-03 3.044773964149e-03 0.0 
0.0 0.0 -6.230907113744e-04 
-7.160262700323e-04 6.408733665596e-04 0.0 
6.408733665596e-04 3.506266837881e-03 0.0 
0.0 0.0 -5.709397776106e-04 
-8.360378415299e-04 -1.180231066695e-05 0.0 
-1.180231066695e-05 6.234265106431e-03 0.0 
0.0 0.0 -1.045235091131e-03 
-1.333473067012e-03 -5.395820062031e-05 0.0 
-5.395820062031e-05 8.405361436706e-03 0.0 
0.0 0.0 -1.275930989368e-03 
-1.131889764436e-03 1.436010865761e-04 0.0 
1.436010865761e-04 6.812686989612e-03 0.0 
0.0 0.0 -1.029499106509e-03 
5.269662907404e-05 8.913991735483e-04 0.0 
8.913991735483e-04 1.741226620489e-03 0.0 
0.0 0.0 -4.564841486881e-04 
-9.276981546427e-04 -3.123244619600e-04 0.0 
-3.123244619600e-04 6.731635440410e-03 0.0 
0.0 0.0 -1.116166892424e-03 
-1.162987388940e-03 1.784362897977e-04 0.0 
1.784362897977e-04 6.231822734238e-03 0.0 
0.0 0.0 -9.512440159151e-04 
-8.362061665926e-04 3.771233097708e-04 0.0 
3.771233097708e-04 4.773003845214e-03 0.0 
0.0 0.0 -7.537083776970e-04 
-1.102280810414e-03 4.919717221224e-04 0.0 
4.919717221224e-04 6.560511914991e-03 0.0 
0.0 0.0 -1.003200534345e-03 
-1.172867451038e-03 2.356902410021e-04 0.0 
2.356902410021e-04 7.744999640819e-03 0.0 
0.0 0.0 -1.239730878702e-03 
-2.254924367537e-04 5.849015682570e-04 0.0 
5.849015682570e-04 3.115409937203e-03 0.0 
0.0 0.0 -6.206208101913e-04 
-3.928189268474e-04 1.275344444358e-03 0.0 
1.275344444358e-03 1.843263560049e-03 0.0 
0.0 0.0 -3.752687577596e-04 
-9.992253787165e-04 1.463025209614e-04 0.0 
1.463025209614e-04 5.687199852232e-03 0.0 
0.0 0.0 -8.662621843288e-04 
-1.349788229223e-03 3.426545086550e-04 0.0 
3.426545086550e-04 9.036920857709e-03 0.0 
0.0 0.0 -1.323568725688e-03 
-7.650406542385e-04 4.751592665984e-04 0.0 
4.751592665984e-04 4.601158149833e-03 0.0 
0.0 0.0 -7.453270327204e-04 
-3.775537039009e-04 2.220958575008e-04 0.0 
2.220958575008e-04 4.208109464666e-03 0.0 
0.0 0.0 -7.768443034385e-04 
-9.417507759690e-04 -3.219991258082e-05 0.0 
-3.219991258082e-05 5.716819141930e-03 0.0 
0.0 0.0 -8.293613651800e-04 
-1.509886751970e-04 -1.135282332652e-03 0.0 
-1.135282332652e-03 1.017427284165e-03 0.0 
0.0 0.0 -3.579782397794e-04 
-9.508294649731e-04 4.627212186017e-04 0.0 
4.627212186017e-04 5.212868888400e-03 0.0 
0.0 0.0 -8.060563724883e-04 
-7.773528700208e-05 1.427065922566e-03 0.0 
1.427065922566e-03 1.665502982993e-03 0.0 
0.0 0.0 -4.590591740919e-04 
3.797527258111e-04 1.020114754415e-03 0.0 
1.020114754415e-03 1.842831286956e-04 0.0 
0.0 0.0 -2.417296519314e-04 
4.052395816326e-04 -6.135338758200e-04 0.0 
-6.135338758200e-04 -1.137161459364e-06 0.0 
0.0 0.0 -1.731867515028e-04 
-1.167546277040e-03 4.626490460642e-04 0.0 
4.626490460642e-04 7.101376568989e-03 0.0 
0.0 0.0 -1.075985979751e-03 
-9.623797546726e-04 1.845333678616e-04 0.0 
1.845333678616e-04 5.429528329259e-03 0.0 
0.0 0.0 -8.312490730234e-04 
-5.046075129470e-04 1.194499845990e-03 0.0 
1.194499845990e-03 2.882799900291e-03 0.0 
0.0 0.0 -5.429493831729e-04 
-1.206327788760e-03 8.269099761282e-05 0.0 
8.269099761282e-05 7.415962584707e-03 0.0 
0.0 0.0 -1.109763131677e-03 
-1.142751356386e-03 1.744200963682e-04 0.0 
1.744200963682e-04 6.974478761757e-03 0.0 
0.0 0.0 -1.057773507355e-03 
-8.833943353455e-04 3.220642776102e-04 0.0 
3.220642776102e-04 5.046401869676e-03 0.0 
0.0 0.0 -7.887050335656e-04 
-1.278006429871e-03 -2.029556331096e-04 0.0 
-2.029556331096e-04 8.153709597249e-03 0.0 
0.0 0.0 -1.288412101370e-03 
-4.271610777015e-04 5.562024212731e-04 0.0 
5.562024212731e-04 4.316314637617e-03 0.0 
0.0 0.0 -8.078958932737e-04 
-9.266589239438e-04 2.700924202998e-04 0.0 
2.700924202998e-04 5.312918686649e-03 0.0 
0.0 0.0 -8.238265297874e-04 
-4.963470151794e-04 6.905692722870e-04 0.0 
6.905692722870e-04 3.767490595173e-03 0.0 
0.0 0.0 -6.656476441012e-04 
-4.749686160319e-04 1.532444199585e-04 0.0 
1.532444199585e-04 4.696915836540e-03 0.0 
0.0 0.0 -8.413031780454e-04 
2.625503227397e-04 1.238828002540e-03 0.0 
1.238828002540e-03 6.651443892644e-04 0.0 
0.0 0.0 -3.865807678710e-04 
-9.465847814334e-04 1.767858078852e-04 0.0 
1.767858078852e-04 5.036126749418e-03 0.0 
0.0 0.0 -7.898058234521e-04 
-1.895610884557e-04 4.026718807994e-04 0.0 
4.026718807994e-04 3.226201886936e-03 0.0 
0.0 0.0 -6.486359607860e-04 
1.616252847495e-04 -9.427764674384e-04 0.0 
-9.427764674384e-04 1.519153345857e-03 0.0 
0.0 0.0 -4.681053320140e-04 
-1.124321372716e-03 5.190781523116e-04 0.0 
5.190781523116e-04 6.737556221388e-03 0.0 
0.0 0.0 -1.032318248600e-03 
0.0 0.0 0.0 
0.0 0.0 0.0 
0.0 0.0 0.0 
-9.848011893069e-04 9.254887770331e-05 0.0 
9.254887770331e-05 5.522315715833e-03 0.0 
0.0 0.0 -8.386390795737e-04 
1.936986156422e-05 1.160151507078e-03 0.0 
1.160151507078e-03 1.716486351178e-03 0.0 
0.0 0.0 -4.870240021111e-04 
-2.325836748457e-04 1.289855956993e-03 0.0 
1.289855956993e-03 1.788704446122e-03 0.0 
0.0 0.0 -4.015254440178e-04 
4.595658441768e-04 4.744943126908e-04 0.0 
4.744943126908e-04 7.528832652437e-04 0.0 
0.0 0.0 -4.054414645912e-04 
-1.008402327414e-03 5.265744671369e-04 0.0 
5.265744671369e-04 5.786538932645e-03 0.0 
0.0 0.0 -8.965110541436e-04 
-2.494216096235e-04 -4.335362183750e-04 0.0 
-4.335362183750e-04 9.422411490062e-04 0.0 
0.0 0.0 -1.609926926485e-04 
-6.820720035477e-04 8.119732659470e-04 0.0 
8.119732659470e-04 3.361151585438e-03 0.0 
0.0 0.0 -5.613503766092e-04 
-5.249648680804e-04 4.982973278599e-04 0.0 
4.982973278599e-04 4.821038106347e-03 0.0 
0.0 0.0 -8.726802719924e-04 
-9.620382926610e-04 5.073054538474e-04 0.0 
5.073054538474e-04 5.367475776694e-03 0.0 
0.0 0.0 -8.336838631977e-04 
-9.866522304222e-04 1.405170818081e-04 0.0 
1.405170818081e-04 5.654603971252e-03 0.0 
0.0 0.0 -8.301023967811e-04 
2.987392461190e-04 2.567812312072e-04 0.0 
2.567812312072e-04 -6.027321301993e-05 0.0 
0.0 0.0 -1.021997284710e-04 
2.232246709604e-04 -1.918559463565e-04 0.0 
-1.918559463565e-04 1.424673883171e-03 0.0 
0.0 0.0 -4.706942212664e-04 
9.862482380878e-05 -1.372550038116e-03 0.0 
-1.372550038116e-03 1.318021718147e-03 0.0 
0.0 0.0 -4.311372127493e-04 
-6.563785485795e-04 5.486582363547e-04 0.0 
5.486582363547e-04 3.058796699974e-03 0.0 
0.0 0.0 -4.957039317942e-04 
-1.115649045089e-03 1.001564757614e-04 0.0 
1.001564757614e-04 6.632881085886e-03 0.0 
0.0 0.0 -1.000663671924e-03 
-6.796028561542e-04 5.568827768722e-04 0.0 
5.568827768722e-04 3.430251503350e-03 0.0 
0.0 0.0 -5.577786207633e-04 
-1.458115086374e-04 8.292196236090e-04 0.0 
8.292196236090e-04 2.768893991105e-03 0.0 
0.0 0.0 -6.151539951222e-04 
-1.886011553539e-04 1.051832417911e-03 0.0 
1.051832417911e-03 2.651380485181e-03 0.0 
0.0 0.0 -5.868308051845e-04 
4.119056616429e-04 4.824818133927e-04 0.0 
4.824818133927e-04 -5.163543584123e-05 0.0 
0.0 0.0 -1.544015253436e-04 
-5.103402652263e-04 1.016313603146e-03 0.0 
1.016313603146e-03 3.773155867782e-03 0.0 
0.0 0.0 -6.959382511914e-04 
-1.626884107157e-04 1.342060582958e-03 0.0 
1.342060582958e-03 1.124683386977e-03 0.0 
0.0 0.0 -3.635305771564e-04 
-1.332783064049e-03 3.949756871870e-04 0.0 
3.949756871870e-04 8.970989248616e-03 0.0 
0.0 0.0 -1.321446319728e-03 
-1.363423366848e-03 4.246461146743e-04 0.0 
4.246461146743e-04 8.919856195938e-03 0.0 
0.0 0.0 -1.318029376683e-03 
-7.707229978672e-04 8.349277957258e-04 0.0 
8.349277957258e-04 4.657152987880e-03 0.0 
0.0 0.0 -7.755312068111e-04 
8.477148352467e-05 1.389041319869e-03 0.0 
1.389041319869e-03 1.180405502280e-03 0.0 
0.0 0.0 -4.232985079168e-04 
-7.785189424599e-05 1.403831464932e-03 0.0 
1.403831464932e-03 1.344103223027e-03 0.0 
0.0 0.0 -3.659709354871e-04 
-9.354111606034e-04 6.403030867596e-04 0.0 
6.403030867596e-04 5.396292848320e-03 0.0 
0.0 0.0 -8.539191708180e-04 
9.999732188838e-05 1.139160073047e-03 0.0 
1.139160073047e-03 1.275333839354e-03 0.0 
0.0 0.0 -3.930530440640e-04 
2.202450365264e-04 -6.175447713642e-04 0.0 
-6.175447713642e-04 1.218766433543e-03 0.0 
0.0 0.0 -4.339875075689e-04 
-8.457389435740e-04 6.790973874792e-04 0.0 
6.790973874792e-04 4.708791579724e-03 0.0 
0.0 0.0 -7.563811545761e-04 
-1.327783261122e-03 1.214241298840e-04 0.0 
1.214241298840e-04 8.708921592335e-03 0.0 
0.0 0.0 -1.266640259566e-03 
-1.253349979010e-04 1.227176291700e-03 0.0 
1.227176291700e-03 2.155279357023e-03 0.0 
0.0 0.0 -5.226246958029e-04 
-6.857827131982e-04 6.109821481705e-04 0.0 
6.109821481705e-04 5.443563599872e-03 0.0 
0.0 0.0 -9.428115367421e-04 
1.005352414743e-05 1.485881480078e-03 0.0 
1.485881480078e-03 9.313511271753e-04 0.0 
0.0 0.0 -4.034591362812e-04 
-1.256876494634e-03 -1.116338181287e-04 0.0 
-1.116338181287e-04 8.512233064138e-03 0.0 
0.0 0.0 -1.322863172658e-03 
-5.368107279651e-05 1.667223674442e-03 0.0 
1.667223674442e-03 1.192784921883e-03 0.0 
0.0 0.0 -3.959736908235e-04 
-8.401524306230e-04 7.380205594863e-04 0.0 
7.380205594863e-04 4.834030021030e-03 0.0 
0.0 0.0 -7.835188407615e-04 
5.148731166168e-04 5.137437753511e-04 0.0 
5.137437753511e-04 -7.966675073375e-05 0.0 
0.0 0.0 -1.865170139499e-04 
-5.892765440231e-04 4.534415622219e-05 0.0 
4.534415622219e-05 5.187712345136e-03 0.0 
0.0 0.0 -9.211625808215e-04 
-2.619705547916e-04 9.063726296434e-04 0.0 
9.063726296434e-04 3.144147236726e-03 0.0 
0.0 0.0 -6.516619296807e-04 
5.136778266446e-05 -8.544458010471e-04 0.0 
-8.544458010471e-04 1.672478035934e-03 0.0 
0.0 0.0 -4.625367401933e-04 
-9.230469363571e-04 2.192959829449e-04 0.0 
2.192959829449e-04 5.165828729947e-03 0.0 
0.0 0.0 -7.963903837170e-04 
-1.338316942917e-03 5.052217518095e-04 0.0 
5.052217518095e-04 8.833234944730e-03 0.0 
0.0 0.0 -1.324865334549e-03 
-6.025361920258e-05 9.743864967892e-04 0.0 
9.743864967892e-04 2.246037318888e-03 0.0 
0.0 0.0 -5.510338386786e-04 
-4.966114613551e-04 2.324572275960e-05 0.0 
2.324572275960e-05 4.887340644677e-03 0.0 
0.0 0.0 -8.703234504572e-04 
-4.984372673971e-05 1.535578283139e-03 0.0 
1.535578283139e-03 1.001433575544e-03 0.0 
0.0 0.0 -3.453408408593e-04 
-1.068497402403e-03 3.485541216510e-04 0.0 
3.485541216510e-04 6.344714792472e-03 0.0 
0.0 0.0 -9.576894438039e-04 
-8.089599515326e-04 -1.073379708431e-04 0.0 
-1.073379708431e-04 5.996798576901e-03 0.0 
0.0 0.0 -1.008345180213e-03 
-4.736853950805e-04 1.081684251561e-03 0.0 
1.081684251561e-03 2.201297944192e-03 0.0 
0.0 0.0 -4.109515902261e-04 
-1.055848474588e-03 -6.244673246336e-05 0.0 
-6.244673246336e-05 6.209225770776e-03 0.0 
0.0 0.0 -9.257128893455e-04 
-1.318413144677e-03 5.597520288916e-04 0.0 
5.597520288916e-04 8.736177841961e-03 0.0 
0.0 0.0 -1.322580803729e-03 
-9.099621181087e-04 -7.844937670166e-05 0.0 
-7.844937670166e-05 6.486423483438e-03 0.0 
0.0 0.0 -1.075861678316e-03 
-1.339852007458e-03 4.885566376854e-04 0.0 
4.885566376854e-04 8.877779505668e-03 0.0 
0.0 0.0 -1.322091174222e-03 
-1.037601774292e-03 -4.998348071014e-05 0.0 
-4.998348071014e-05 6.134914618430e-03 0.0 
0.0 0.0 -9.196498359204e-04 
-1.117033596766e-03 2.433107206605e-04 0.0 
2.433107206605e-04 6.851288038562e-03 0.0 
0.0 0.0 -1.048263655743e-03 
-5.132028134043e-04 1.102114687126e-03 0.0 
1.102114687126e-03 1.849180492075e-03 0.0 
0.0 0.0 -3.491910591611e-04 
-8.752311967057e-04 2.096761775609e-04 0.0 
2.096761775609e-04 4.753971328354e-03 0.0 
0.0 0.0 -7.343713905235e-04 
-9.300305532746e-04 5.926935085268e-04 0.0 
5.926935085268e-04 5.253991145748e-03 0.0 
0.0 0.0 -8.263924940540e-04 
-9.692706598054e-04 2.261418497641e-04 0.0 
2.261418497641e-04 5.579447270465e-03 0.0 
0.0 0.0 -8.589723558544e-04 
-7.013973697775e-04 5.476600750058e-04 0.0 
5.476600750058e-04 4.307373761106e-03 0.0 
0.0 0.0 -7.101745248689e-04 
-1.306990612628e-03 5.041978193774e-04 0.0 
5.041978193774e-04 8.672501482610e-03 0.0 
0.0 0.0 -1.322334986692e-03 
-9.943643695485e-04 3.416073873728e-04 0.0 
3.416073873728e-04 5.867113055505e-03 0.0 
0.0 0.0 -8.810748613436e-04 
-9.323244271653e-04 9.613325556177e-05 0.0 
9.613325556177e-05 5.115490294310e-03 0.0 
0.0 0.0 -7.763708431881e-04 
-1.001832059306e-04 5.266866745758e-04 0.0 
5.266866745758e-04 2.724835239940e-03 0.0 
0.0 0.0 -5.843899590101e-04 
-5.790296725673e-04 -5.326125379185e-04 0.0 
-5.326125379185e-04 1.882091514832e-03 0.0 
0.0 0.0 -3.280768480529e-04 
-8.597084284199e-04 1.491840850699e-04 0.0 
1.491840850699e-04 4.593177939361e-03 0.0 
0.0 0.0 -7.069124235890e-04 
-4.246089693938e-04 1.428928262105e-03 0.0 
1.428928262105e-03 2.122954743528e-03 0.0 
0.0 0.0 -4.404772202000e-04 
-8.726090169173e-04 -3.101571305491e-05 0.0 
-3.101571305491e-05 5.309765821533e-03 0.0 
0.0 0.0 -7.696142143080e-04 
-7.647244692159e-05 -1.455292213990e-03 0.0 
-1.455292213990e-03 1.759408115361e-03 0.0 
0.0 0.0 -4.595640944490e-04 
-1.784270519959e-05 6.865399459054e-04 0.0 
6.865399459054e-04 2.226340647437e-03 0.0 
0.0 0.0 -5.202658224677e-04 
-1.156111700983e-03 5.188644452185e-04 0.0 
5.188644452185e-04 7.007873302369e-03 0.0 
0.0 0.0 -1.069052450572e-03 
-3.544111730508e-04 1.143529289652e-03 0.0 
1.143529289652e-03 2.186339618849e-03 0.0 
0.0 0.0 -4.372567615832e-04 
-8.838010647401e-04 5.805967859428e-04 0.0 
5.805967859428e-04 4.846530847442e-03 0.0 
0.0 0.0 -7.640689829422e-04 
-5.498264973309e-04 3.710435615581e-04 0.0 
3.710435615581e-04 5.012164832543e-03 0.0 
0.0 0.0 -9.014246907137e-04 
-6.358980608267e-04 -4.313104688366e-04 0.0 
-4.313104688366e-04 4.627036023584e-03 0.0 
0.0 0.0 -8.035328976187e-04 
-1.261046308643e-03 3.887646222973e-04 0.0 
3.887646222973e-04 8.565225437675e-03 0.0 
0.0 0.0 -1.324762665914e-03 
-7.961969453534e-04 2.495159098011e-04 0.0 
2.495159098011e-04 4.113140991581e-03 0.0 
0.0 0.0 -6.390224077203e-04 
3.053061856643e-04 2.267805296744e-04 0.0 
2.267805296744e-04 1.077273840324e-03 0.0 
0.0 0.0 -4.422638729430e-04 
-5.704666668683e-04 -1.178468115440e-03 0.0 
-1.178468115440e-03 3.201154498828e-03 0.0 
0.0 0.0 -5.691257024010e-04 
-5.951122843918e-04 8.042220484985e-04 0.0 
8.042220484985e-04 2.449547643677e-03 0.0 
0.0 0.0 -4.184705811166e-04 
-5.000320666269e-04 1.320407470952e-03 0.0 
1.320407470952e-03 2.143724443106e-03 0.0 
0.0 0.0 -4.141309408042e-04 
-1.196454144110e-03 1.993133203818e-04 0.0 
1.993133203818e-04 7.413315256709e-03 0.0 
0.0 0.0 -1.123886314723e-03 
-8.766172246535e-04 3.573442557890e-04 0.0 
3.573442557890e-04 5.175634424808e-03 0.0 
0.0 0.0 -8.161479701220e-04 
-7.263474599636e-04 3.526993364896e-04 0.0 
3.526993364896e-04 3.570072660402e-03 0.0 
0.0 0.0 -5.672387349321e-04 
-8.352265289735e-04 5.640695091739e-04 0.0 
5.640695091739e-04 4.443467777814e-03 0.0 
0.0 0.0 -7.023794137935e-04 
-1.258131779879e-03 1.361172827669e-04 0.0 
1.361172827669e-04 8.496942290822e-03 0.0 
0.0 0.0 -1.320675234999e-03 
-1.143815948478e-03 -2.922836025439e-06 0.0 
-2.922836025439e-06 7.935052382313e-03 0.0 
0.0 0.0 -1.258064670439e-03 
-1.185356167607e-03 5.772655224951e-04 0.0 
5.772655224951e-04 7.334174599953e-03 0.0 
0.0 0.0 -1.126590436115e-03 
-1.146342777142e-03 1.032030268662e-04 0.0 
1.032030268662e-04 6.902588040038e-03 0.0 
0.0 0.0 -1.037522200811e-03 
-6.004564824823e-04 -8.741253658515e-04 0.0 
-8.741253658515e-04 4.400886106663e-03 0.0 
0.0 0.0 -7.721428985420e-04 
-6.499827822082e-04 6.306060725170e-04 0.0 
6.306060725170e-04 3.517235102446e-03 0.0 
0.0 0.0 -5.842812205453e-04 
2.208852054121e-04 7.449773440899e-04 0.0 
7.449773440899e-04 1.272300042131e-03 0.0 
0.0 0.0 -4.203166018452e-04 
1.283124150736e-04 5.457702178093e-04 0.0 
5.457702178093e-04 1.800318710438e-03 0.0 
0.0 0.0 -4.843489805398e-04 
-8.229602156181e-04 4.179326389388e-04 0.0 
4.179326389388e-04 4.894594765891e-03 0.0 
0.0 0.0 -7.808727949117e-04 
-5.351512224978e-04 -3.319303625282e-04 0.0 
-3.319303625282e-04 5.022677570586e-03 0.0 
0.0 0.0 -8.900964085843e-04 
-8.296790490015e-04 -7.574227516101e-04 0.0 
-7.574227516101e-04 4.266073095582e-03 0.0 
0.0 0.0 -6.810091006415e-04 
-1.209161835961e-03 5.397487415350e-04 0.0 
5.397487415350e-04 7.456423275886e-03 0.0 
0.0 0.0 -1.134236807130e-03 
2.970140770782e-04 -5.886898203256e-04 0.0 
-5.886898203256e-04 1.178529551260e-03 0.0 
0.0 0.0 -4.395655422792e-04 
-6.321441937111e-04 6.212871376415e-04 0.0 
6.212871376415e-04 4.001931118120e-03 0.0 
0.0 0.0 -6.750378637491e-04 
-8.881105026694e-04 6.325939136900e-04 0.0 
6.325939136900e-04 4.979851951469e-03 0.0 
0.0 0.0 -7.913284153978e-04 
-6.067465934174e-04 6.691797761234e-04 0.0 
6.691797761234e-04 3.597583737962e-03 0.0 
0.0 0.0 -6.122259156574e-04 
-1.324329620218e-03 4.629903675986e-04 0.0 
4.629903675986e-04 8.904888157841e-03 0.0 
0.0 0.0 -1.320088186226e-03 
-1.359586791555e-03 4.788353102242e-04 0.0 
4.788353102242e-04 8.942288232093e-03 0.0 
0.0 0.0 -1.318462653075e-03 
-1.290025244180e-03 1.809732516489e-04 0.0 
1.809732516489e-04 8.380056929833e-03 0.0 
0.0 0.0 -1.256494544188e-03 
-6.742581298534e-04 -7.798202117693e-04 0.0 
-7.798202117693e-04 4.873866166937e-03 0.0 
0.0 0.0 -8.375255977276e-04 
-1.194824314076e-03 4.521929309845e-04 0.0 
4.521929309845e-04 7.360058874814e-03 0.0 
0.0 0.0 -1.112065035246e-03 
-4.430818055786e-04 1.485014206495e-03 0.0 
1.485014206495e-03 1.784679357047e-03 0.0 
0.0 0.0 -3.785953687517e-04 
2.729854799726e-05 3.936097668604e-04 0.0 
3.936097668604e-04 2.328364048534e-03 0.0 
0.0 0.0 -5.483018170244e-04 
5.295881833206e-04 7.121810223511e-04 0.0 
7.121810223511e-04 1.629388308909e-04 0.0 
0.0 0.0 -2.967972918049e-04 
-7.211884972610e-04 4.566068001278e-04 0.0 
4.566068001278e-04 3.698308171073e-03 0.0 
0.0 0.0 -5.936226173563e-04 
-9.121582442551e-04 9.143313993339e-05 0.0 
9.143313993339e-05 5.030258123682e-03 0.0 
0.0 0.0 -7.914980036671e-04 
-1.035929216748e-03 3.563880147614e-04 0.0 
3.563880147614e-04 6.090521981813e-03 0.0 
0.0 0.0 -9.214502702889e-04 
-1.168840555119e-03 -8.744363195648e-05 0.0 
-8.744363195648e-05 8.066384051930e-03 0.0 
0.0 0.0 -1.265403586923e-03 
-1.162609015209e-03 6.330590177409e-04 0.0 
6.330590177409e-04 7.197897661744e-03 0.0 
0.0 0.0 -1.117224974728e-03 
-9.919773035698e-04 4.807053877499e-04 0.0 
4.807053877499e-04 5.626646372679e-03 0.0 
0.0 0.0 -8.687609488834e-04 
-9.791621869581e-04 6.007006909595e-04 0.0 
6.007006909595e-04 5.670050972566e-03 0.0 
0.0 0.0 -8.891947744737e-04 
4.804557488344e-04 9.476988486698e-04 0.0 
9.476988486698e-04 9.767658471986e-05 0.0 
0.0 0.0 -2.477710000947e-04 
-2.208441256582e-04 -6.752013946383e-04 0.0 
-6.752013946383e-04 8.882775518556e-04 0.0 
0.0 0.0 -2.467363499356e-04 
-4.153429420500e-04 1.059032103328e-03 0.0 
1.059032103328e-03 3.417216683434e-03 0.0 
0.0 0.0 -6.594106982652e-04 
-6.669546155335e-04 5.596997560711e-04 0.0 
5.596997560711e-04 4.411048143991e-03 0.0 
0.0 0.0 -7.376142925499e-04 
-4.466823138591e-04 6.032870064143e-04 0.0 
6.032870064143e-04 3.840807050757e-03 0.0 
0.0 0.0 -6.931905564144e-04 
6.417191678250e-05 8.603242808997e-04 0.0 
8.603242808997e-04 4.417253736716e-04 0.0 
0.0 0.0 -2.168131244803e-04 
-9.528466809374e-04 9.473419018348e-05 0.0 
9.473419018348e-05 5.427141204722e-03 0.0 
0.0 0.0 -8.462285223656e-04 
-5.049741343807e-04 -8.812005228938e-04 0.0 
-8.812005228938e-04 1.770302560701e-03 0.0 
0.0 0.0 -2.972104253142e-04 
-2.017300964170e-04 1.588765395916e-03 0.0 
1.588765395916e-03 1.677129549565e-03 0.0 
0.0 0.0 -4.314049239902e-04 
-1.341153861134e-03 -7.479496163087e-05 0.0 
-7.479496163087e-05 8.257374884626e-03 0.0 
0.0 0.0 -1.341153861134e-03 
-6.757643640114e-04 6.444207577368e-05 0.0 
6.444207577368e-05 5.692433792017e-03 0.0 
0.0 0.0 -9.717687626070e-04 
-9.402714050330e-04 4.164454812488e-04 0.0 
4.164454812488e-04 5.059115903313e-03 0.0 
0.0 0.0 -7.790007367612e-04 
-1.996455075654e-04 1.120227626459e-04 0.0 
1.120227626459e-04 1.363834974093e-03 0.0 
0.0 0.0 -2.176483604987e-04 
-7.316139978666e-04 8.725598858698e-04 0.0 
8.725598858698e-04 4.250250205740e-03 0.0 
0.0 0.0 -7.126719623954e-04 
-3.416312472277e-04 6.071238986655e-04 0.0 
6.071238986655e-04 3.482434275960e-03 0.0 
0.0 0.0 -6.569982659716e-04 
-1.010067214733e-03 1.858710736428e-04 0.0 
1.858710736428e-04 5.842461225268e-03 0.0 
0.0 0.0 -8.940630110299e-04 
-1.333890643160e-03 5.791621130684e-04 0.0 
5.791621130684e-04 8.805315107962e-03 0.0 
0.0 0.0 -1.323832587333e-03 
-8.707338927728e-04 5.246940464045e-04 0.0 
5.246940464045e-04 4.704277736275e-03 0.0 
0.0 0.0 -7.366500567795e-04 
-9.271217876491e-04 3.071330387493e-04 0.0 
3.071330387493e-04 5.453258810761e-03 0.0 
0.0 0.0 -8.513774089097e-04 
-8.050460189817e-04 -4.209308180889e-04 0.0 
-4.209308180889e-04 4.202095383354e-03 0.0 
0.0 0.0 -6.837695253815e-04 
-1.187192617587e-03 5.026303496446e-04 0.0 
5.026303496446e-04 7.280339694805e-03 0.0 
0.0 0.0 -1.105258581891e-03 
-7.119244178252e-04 -3.438823351423e-04 0.0 
-3.438823351423e-04 5.099696206057e-03 0.0 
0.0 0.0 -8.691653677727e-04 
-1.316090240167e-03 5.389588138701e-04 0.0 
5.389588138701e-04 8.780826577697e-03 0.0 
0.0 0.0 -1.322174839672e-03 
-1.340103718614e-03 4.728281156223e-04 0.0 
4.728281156223e-04 8.628873091994e-03 0.0 
0.0 0.0 -1.340103718614e-03 
-1.341028575724e-03 3.568557509173e-04 0.0 
3.568557509173e-04 8.716110367900e-03 0.0 
0.0 0.0 -1.341028575724e-03 
-1.338044909071e-03 4.168385009661e-04 0.0 
4.168385009661e-04 8.630348436964e-03 0.0 
0.0 0.0 -1.338044909071e-03 
-1.019072052988e-03 5.681193801066e-04 0.0 
5.681193801066e-04 5.940654999783e-03 0.0 
0.0 0.0 -9.244680137507e-04 
-1.198675717763e-03 1.360258094172e-04 0.0 
1.360258094172e-04 7.335887667339e-03 0.0 
0.0 0.0 -1.103002250422e-03 
-1.198479165231e-03 6.200957679300e-04 0.0 
6.200957679300e-04 7.509008113829e-03 0.0 
0.0 0.0 -1.155914796392e-03 
-6.394343852437e-04 1.004430984718e-03 0.0 
1.004430984718e-03 3.542163334784e-03 0.0 
0.0 0.0 -6.147330147620e-04 
-6.675475430971e-04 9.277672711453e-04 0.0 
9.277672711453e-04 3.456421744926e-03 0.0 
0.0 0.0 -5.872917534094e-04 
-8.247859078912e-04 -6.922016390902e-04 0.0 
-6.922016390902e-04 4.077408079033e-03 0.0 
0.0 0.0 -6.436934073013e-04 
-1.217910302125e-03 1.553299834490e-04 0.0 
1.553299834490e-04 7.518311075799e-03 0.0 
0.0 0.0 -1.131852245309e-03 
-1.311936692750e-03 5.307865598084e-04 0.0 
5.307865598084e-04 8.695029491200e-03 0.0 
0.0 0.0 -1.322440284024e-03 
-1.214240069695e-03 4.882095922708e-04 0.0 
4.882095922708e-04 7.535305569948e-03 0.0 
0.0 0.0 -1.141180801552e-03 
-5.747438901480e-04 1.003283814169e-04 0.0 
1.003283814169e-04 5.194431951746e-03 0.0 
0.0 0.0 -9.063345769726e-04 
-1.227388762698e-03 1.265853976664e-04 0.0 
1.265853976664e-04 7.592479060989e-03 0.0 
0.0 0.0 -1.138864741757e-03 
-8.838474672112e-04 3.395282227197e-04 0.0 
3.395282227197e-04 6.126324240512e-03 0.0 
0.0 0.0 -9.903545940741e-04 
-6.357684789507e-04 9.653705253964e-04 0.0 
9.653705253964e-04 4.033111277517e-03 0.0 
0.0 0.0 -7.049739924763e-04 
-7.219643329354e-04 7.270984363887e-04 0.0 
7.270984363887e-04 3.640512255542e-03 0.0 
0.0 0.0 -5.967387615352e-04 
1.271449544166e-04 1.530874377193e-03 0.0 
1.530874377193e-03 7.660888374693e-04 0.0 
0.0 0.0 -3.828144822368e-04 
-1.311008186282e-03 3.440606395408e-04 0.0 
3.440606395408e-04 8.440809804770e-03 0.0 
0.0 0.0 -1.282213402295e-03 
-5.754210014705e-04 1.101723762793e-03 0.0 
1.101723762793e-03 3.231346314138e-03 0.0 
0.0 0.0 -5.792479259103e-04 
-1.176826657867e-03 4.517387013495e-04 0.0 
4.517387013495e-04 7.668341186852e-03 0.0 
0.0 0.0 -1.230767059693e-03 
-8.116549819174e-04 -3.660838800677e-04 0.0 
-3.660838800677e-04 4.013024169842e-03 0.0 
0.0 0.0 -6.465396845166e-04 
-1.917368362491e-04 -1.670915138255e-03 0.0 
-1.670915138255e-03 1.673857297907e-03 0.0 
0.0 0.0 -4.222915044375e-04 
-1.218810452461e-03 -6.182829621563e-05 0.0 
-6.182829621563e-05 7.834853919449e-03 0.0 
0.0 0.0 -1.284312900220e-03 
-3.227899414303e-04 1.463352553329e-03 0.0 
1.463352553329e-03 2.102017459643e-03 0.0 
0.0 0.0 -4.669824892858e-04 
-1.341987455608e-03 4.935381790995e-04 0.0 
4.935381790995e-04 8.595598521703e-03 0.0 
0.0 0.0 -1.341987455608e-03 
-1.324901016307e-03 3.587683922887e-04 0.0 
3.587683922887e-04 8.344464300183e-03 0.0 
0.0 0.0 -1.282654109251e-03 
-8.850522684098e-04 7.214064072268e-04 0.0 
7.214064072268e-04 5.245748206413e-03 0.0 
0.0 0.0 -8.462542048450e-04 
-8.057611890132e-05 -1.710152855484e-04 0.0 
-1.710152855484e-04 3.103213667799e-04 0.0 
0.0 0.0 -9.846224909082e-05 
-1.340954708392e-03 5.230440169069e-04 0.0 
5.230440169069e-04 8.529172830874e-03 0.0 
0.0 0.0 -1.340954708391e-03 
-1.218199846518e-03 4.994387147235e-06 0.0 
4.994387147235e-06 7.808383985296e-03 0.0 
0.0 0.0 -1.284661450484e-03 
-4.838292351495e-05 -1.134502527952e-03 0.0 
-1.134502527952e-03 1.589566893982e-03 0.0 
0.0 0.0 -4.253660281670e-04 
-6.012411031331e-04 -5.471211505199e-06 0.0 
-5.471211505199e-06 5.388600975266e-03 0.0 
0.0 0.0 -9.353130867196e-04 
-1.284222320321e-03 3.331079903689e-04 0.0 
3.331079903689e-04 8.551492227036e-03 0.0 
0.0 0.0 -1.323014926434e-03 
0.0 0.0 0.0 
0.0 0.0 0.0 
0.0 0.0 0.0 
-6.023691884067e-04 1.029224405588e-03 0.0 
1.029224405588e-03 3.627406800571e-03 0.0 
0.0 0.0 -6.425506931502e-04 
-9.361925531562e-04 6.770287321789e-04 0.0 
6.770287321789e-04 5.532046743254e-03 0.0 
0.0 0.0 -8.816033652580e-04 
-8.298014528126e-04 7.768529914015e-04 0.0 
7.768529914015e-04 4.954128457589e-03 0.0 
0.0 0.0 -8.109139232486e-04 
-8.897770840316e-04 6.877783995216e-04 0.0 
6.877783995216e-04 5.117343312454e-03 0.0 
0.0 0.0 -8.186613860469e-04 
-1.469792992645e-04 1.697477444243e-03 0.0 
1.697477444243e-03 1.268784698810e-03 0.0 
0.0 0.0 -3.960833248805e-04 
-1.341360672448e-03 5.109795992512e-04 0.0 
5.109795992512e-04 8.445730971081e-03 0.0 
0.0 0.0 -1.341360672448e-03 
-7.719693981543e-05 2.760009161414e-04 0.0 
2.760009161414e-04 2.850848330235e-03 0.0 
0.0 0.0 -6.123778370825e-04 
1.753729935007e-04 1.501404700023e-05 0.0 
1.501404700023e-05 -5.243892185943e-05 0.0 
0.0 0.0 -5.268603070342e-05 
-1.302465582654e-03 -2.496096405259e-04 0.0 
-2.496096405259e-04 8.365120953103e-03 0.0 
0.0 0.0 -1.272354826527e-03 
-1.485058388714e-04 -2.923397016935e-04 0.0 
-2.923397016935e-04 5.768067641682e-04 0.0 
0.0 0.0 -1.019437782286e-04 
-7.982614346128e-04 6.111031080938e-04 0.0 
6.111031080938e-04 4.181968739078e-03 0.0 
0.0 0.0 -6.678899790658e-04 
2.246133581427e-04 -6.808997986787e-04 0.0 
-6.808997986787e-04 1.445508393424e-04 0.0 
0.0 0.0 -1.582132274936e-04 
-8.489872345980e-04 4.667487785959e-04 0.0 
4.667487785959e-04 4.536973076965e-03 0.0 
0.0 0.0 -7.094882865497e-04 
-1.255369180247e-03 1.858612183136e-05 0.0 
1.858612183136e-05 8.476379217670e-03 0.0 
0.0 0.0 -1.321823097425e-03 
-1.341255375116e-03 4.796779653900e-04 0.0 
4.796779653900e-04 8.398188684786e-03 0.0 
0.0 0.0 -1.341255375116e-03 
-9.721290586981e-04 5.581628762271e-04 0.0 
5.581628762271e-04 5.522703984207e-03 0.0 
0.0 0.0 -8.613793510407e-04 
1.600321873614e-04 -6.162664284866e-04 0.0 
-6.162664284866e-04 1.802849776087e-04 0.0 
0.0 0.0 -1.458502135586e-04 
3.109225001716e-06 1.120621869491e-06 0.0 
1.120621869491e-06 -8.787071989581e-07 0.0 
0.0 0.0 -9.559362011818e-07 
1.535176122475e-04 -1.236399581379e-03 0.0 
-1.236399581379e-03 5.447751134409e-04 0.0 
0.0 0.0 -2.992683110093e-04 
-1.116873810569e-03 -5.374998991881e-04 0.0 
-5.374998991881e-04 7.110713391746e-03 0.0 
0.0 0.0 -1.121833217354e-03 
-9.101085565852e-04 1.581356444995e-04 0.0 
1.581356444995e-04 5.291968435283e-03 0.0 
0.0 0.0 -7.704300227928e-04 
-9.627171074924e-04 3.587877174801e-05 0.0 
3.587877174801e-05 5.332601127641e-03 0.0 
0.0 0.0 -8.109332722942e-04 
-1.342502730507e-03 4.025374877915e-04 0.0 
4.025374877915e-04 8.333596175980e-03 0.0 
0.0 0.0 -1.342502730507e-03 
-9.258687689408e-04 6.411213788910e-05 0.0 
6.411213788910e-05 5.298171403091e-03 0.0 
0.0 0.0 -7.720444664677e-04 
-1.356038484680e-03 3.810509766439e-04 0.0 
3.810509766439e-04 8.994012411350e-03 0.0 
0.0 0.0 -1.322852565091e-03 
-9.095582700075e-04 6.913502515422e-04 0.0 
6.913502515422e-04 6.199031272495e-03 0.0 
0.0 0.0 -1.020998643257e-03 
-1.011415993933e-03 3.149863478337e-04 0.0 
3.149863478337e-04 5.896378527379e-03 0.0 
0.0 0.0 -8.907448815977e-04 
-5.714615022677e-04 1.156558804127e-03 0.0 
1.156558804127e-03 2.460117787699e-03 0.0 
0.0 0.0 -4.477608806526e-04 
-6.254234584821e-04 4.541246643039e-04 0.0 
4.541246643039e-04 5.320880420055e-03 0.0 
0.0 0.0 -9.378661514434e-04 
3.838669366307e-04 1.236207229742e-03 0.0 
1.236207229742e-03 2.839536722242e-04 0.0 
0.0 0.0 -2.862088323664e-04 
-1.340754991027e-03 2.766872434976e-04 0.0 
2.766872434976e-04 8.283487658048e-03 0.0 
0.0 0.0 -1.340754991027e-03 
-1.339984467612e-03 4.682059719065e-04 0.0 
4.682059719065e-04 8.622431533437e-03 0.0 
0.0 0.0 -1.339984467612e-03 
-1.340417744004e-03 3.687782300389e-04 0.0 
3.687782300389e-04 8.691962583590e-03 0.0 
0.0 0.0 -1.340417744004e-03 
-7.614631425941e-04 -7.600693639472e-04 0.0 
-7.600693639472e-04 5.166067953467e-03 0.0 
0.0 0.0 -8.666500598261e-04 
-8.083534389449e-04 -6.157792834396e-04 0.0 
-6.157792834396e-04 3.875634950425e-03 0.0 
0.0 0.0 -6.062238016986e-04 
-5.875577080076e-04 6.263804956418e-04 0.0 
6.263804956418e-04 4.098789747432e-03 0.0 
0.0 0.0 -7.021192356133e-04 
-7.972896345738e-04 -3.252844081748e-04 0.0 
-3.252844081748e-04 5.374062371917e-03 0.0 
0.0 0.0 -8.981573260837e-04 
-1.339627896631e-03 1.538435656171e-04 0.0 
1.538435656171e-04 8.249387984378e-03 0.0 
0.0 0.0 -1.339627896631e-03 
-7.499431316128e-05 1.153135812952e-03 0.0 
1.153135812952e-03 1.745463721331e-03 0.0 
0.0 0.0 -4.287941800800e-04 
9.963389295363e-05 -4.974640475465e-04 0.0 
-4.974640475465e-04 1.806583108532e-03 0.0 
0.0 0.0 -4.991860405784e-04 
-4.325429609303e-05 -6.957715566116e-04 0.0 
-6.957715566116e-04 2.198402972482e-03 0.0 
0.0 0.0 -5.272458293186e-04 
-1.040852931917e-03 3.039409917234e-04 0.0 
3.039409917234e-04 6.156930146379e-03 0.0 
0.0 0.0 -9.279583942086e-04 
-1.296158163173e-03 -2.117115631842e-04 0.0 
-2.117115631842e-04 8.526713660580e-03 0.0 
0.0 0.0 -1.323537156312e-03 
5.620572206727e-05 -9.064776901539e-04 0.0 
-9.064776901539e-04 4.833799193028e-04 0.0 
0.0 0.0 -2.312509891586e-04 
-1.340775759057e-03 -3.546022348327e-06 0.0 
-3.546022348327e-06 8.220355043040e-03 0.0 
0.0 0.0 -1.340775759057e-03 
-1.115561951244e-04 -9.424028116119e-04 0.0 
-9.424028116119e-04 2.079879554815e-03 0.0 
0.0 0.0 -4.905422085546e-04 
-1.342877878941e-03 5.106164496302e-04 0.0 
5.106164496302e-04 8.578886692927e-03 0.0 
0.0 0.0 -1.342877878941e-03 
-1.213674372651e-03 2.426946528992e-04 0.0 
2.426946528992e-04 7.585431715108e-03 0.0 
0.0 0.0 -1.152765850879e-03 
7.551303923517e-04 -3.431961155864e-05 0.0 
-3.431961155864e-05 -8.356761588733e-06 0.0 
0.0 0.0 -1.964897908492e-04 
-5.576622204016e-04 1.038766121166e-03 0.0 
1.038766121166e-03 3.693734829533e-03 0.0 
0.0 0.0 -6.690559060524e-04 
-1.231945608432e-03 6.630499771306e-05 0.0 
6.630499771306e-05 7.672705385687e-03 0.0 
0.0 0.0 -1.146019594970e-03 
-1.341220131281e-03 5.159350734491e-04 0.0 
5.159350734491e-04 8.502743697499e-03 0.0 
0.0 0.0 -1.341220131281e-03 
-1.018091222593e-03 2.268797553762e-04 0.0 
2.268797553762e-04 5.997567393014e-03 0.0 
0.0 0.0 -9.220067723808e-04 
-9.140544266385e-04 6.590381545290e-04 0.0 
6.590381545290e-04 6.350398110146e-03 0.0 
0.0 0.0 -1.049000704964e-03 
1.948485511646e-04 1.206910249746e-03 0.0 
1.206910249746e-03 4.719329916516e-04 0.0 
0.0 0.0 -2.857635183498e-04 
-1.092933677572e-03 -5.430090234950e-06 0.0 
-5.430090234950e-06 7.417148133219e-03 0.0 
0.0 0.0 -1.228682347183e-03 
-2.597655749325e-04 -9.580958323714e-04 0.0 
-9.580958323714e-04 2.468405464320e-03 0.0 
0.0 0.0 -5.184025592846e-04 
-1.467448334793e-04 -1.253609516085e-03 0.0 
-1.253609516085e-03 2.277465230796e-03 0.0 
0.0 0.0 -5.242929400402e-04 
8.350711239016e-05 -5.741871043008e-04 0.0 
-5.741871043008e-04 2.364507936714e-04 0.0 
0.0 0.0 -1.371248168835e-04 
-1.341079611575e-03 4.984530224516e-04 0.0 
4.984530224516e-04 8.418558490732e-03 0.0 
0.0 0.0 -1.341079611575e-03 
3.309852724411e-04 1.022663251937e-03 0.0 
1.022663251937e-03 7.457111261596e-04 0.0 
0.0 0.0 -3.670041082731e-04 
-9.538216450079e-04 -4.415701274725e-04 0.0 
-4.415701274725e-04 6.798030040948e-03 0.0 
0.0 0.0 -1.110501492391e-03 
-9.815143922996e-04 -1.301923920288e-04 0.0 
-1.301923920288e-04 5.716261133104e-03 0.0 
0.0 0.0 -8.555322119248e-04 
-5.211778943541e-04 -1.357561140200e-03 0.0 
-1.357561140200e-03 2.381396269316e-03 0.0 
0.0 0.0 -4.411586999297e-04 
5.027865284570e-06 -1.162974144005e-03 0.0 
-1.162974144005e-03 1.893137919142e-03 0.0 
0.0 0.0 -4.964677435772e-04 
-9.740976170288e-04 2.668400150695e-04 0.0 
2.668400150695e-04 5.727433876448e-03 0.0 
0.0 0.0 -8.867075537039e-04 
-1.342259935407e-03 3.249478019742e-04 0.0 
3.249478019742e-04 8.304746317588e-03 0.0 
0.0 0.0 -1.342259935407e-03 
-8.513383339797e-04 -2.155531084130e-04 0.0 
-2.155531084130e-04 4.042684079104e-03 0.0 
0.0 0.0 -6.378868265889e-04 
-8.326579327741e-04 -6.269168235212e-04 0.0 
-6.269168235212e-04 5.839362625743e-03 0.0 
0.0 0.0 -9.693340058278e-04 
-7.491524898005e-04 8.473182538136e-04 0.0 
8.473182538136e-04 4.765927930056e-03 0.0 
0.0 0.0 -8.030799362305e-04 
-5.836032186753e-04 -5.383312615796e-04 0.0 
-5.383312615796e-04 5.022073810354e-03 0.0 
0.0 0.0 -8.811160271665e-04 
4.293152286993e-05 -8.173969837308e-04 0.0 
-8.173969837308e-04 2.098601697323e-03 0.0 
0.0 0.0 -5.326451291888e-04 
-7.517931783722e-04 -6.967384815080e-04 0.0 
-6.967384815080e-04 5.353981326588e-03 0.0 
0.0 0.0 -9.031726653527e-04 
-7.384492594484e-04 4.981620025079e-04 0.0 
4.981620025079e-04 4.715692557205e-03 0.0 
0.0 0.0 -7.729461360948e-04 
-9.594660891244e-04 3.310922572756e-04 0.0 
3.310922572756e-04 6.288208991268e-03 0.0 
0.0 0.0 -9.982497011217e-04 
-7.260155598219e-04 4.211913378779e-04 0.0 
4.211913378779e-04 5.817009197579e-03 0.0 
0.0 0.0 -1.003134534203e-03 
-6.776109950317e-04 9.016603010913e-04 0.0 
9.016603010913e-04 4.450317334473e-03 0.0 
0.0 0.0 -7.676694601592e-04 
-7.429113511031e-04 -5.174574473206e-04 0.0 
-5.174574473206e-04 3.948133648233e-03 0.0 
0.0 0.0 -6.551190094499e-04 
-2.218900255169e-04 1.098460281572e-03 0.0 
1.098460281572e-03 2.169381084645e-03 0.0 
0.0 0.0 -4.640097282922e-04 
-8.062369115313e-04 -2.975304159245e-04 0.0 
-2.975304159245e-04 3.811084005570e-03 0.0 
0.0 0.0 -6.091269606258e-04 
-8.824461864644e-04 3.062506020875e-04 0.0 
3.062506020875e-04 6.271794679198e-03 0.0 
0.0 0.0 -1.018204129641e-03 
-4.460788929649e-04 4.040748578588e-04 0.0 
4.040748578588e-04 4.503525698480e-03 0.0 
0.0 0.0 -8.365169925761e-04 
-1.261002707828e-03 -7.504870971913e-05 0.0 
-7.504870971913e-05 8.505176480558e-03 0.0 
0.0 0.0 -1.321929620191e-03 
-1.247677519614e-03 1.094732648068e-04 0.0 
1.094732648068e-04 7.850453942976e-03 0.0 
0.0 0.0 -1.174325249119e-03 
-5.404813862772e-04 -9.466285983316e-04 0.0 
-9.466285983316e-04 2.223885193950e-03 0.0 
0.0 0.0 -4.069995479128e-04 
-1.341047338368e-03 7.540167646977e-05 0.0 
7.540167646977e-05 8.197352777791e-03 0.0 
0.0 0.0 -1.341047338368e-03 
-1.130691151971e-03 -1.784363264906e-05 0.0 
-1.784363264906e-05 8.053842301100e-03 0.0 
0.0 0.0 -1.266414110344e-03 
-4.715184922734e-04 9.294387903624e-04 0.0 
9.294387903624e-04 3.876101003561e-03 0.0 
0.0 0.0 -7.237787631415e-04 
3.035840363914e-05 -4.057342954642e-04 0.0 
-4.057342954642e-04 2.137280708151e-04 0.0 
0.0 0.0 -1.046084890518e-04 
-1.265736625837e-03 -2.342234423567e-04 0.0 
-2.342234423567e-04 8.560274388960e-03 0.0 
0.0 0.0 -1.323469717371e-03 
-1.248103745975e-03 1.754263225543e-04 0.0 
1.754263225543e-04 7.767855351365e-03 0.0 
0.0 0.0 -1.167157861819e-03 
-2.143426304924e-04 -1.125447243117e-03 0.0 
-1.125447243117e-03 2.012406359622e-03 0.0 
0.0 0.0 -4.535238702637e-04 
-1.341709311524e-03 -1.537021795728e-04 0.0 
-1.537021795728e-04 8.247140811223e-03 0.0 
0.0 0.0 -1.341709311524e-03 
-8.340634901946e-04 -6.821178693031e-04 0.0 
-6.821178693031e-04 5.639816405277e-03 0.0 
0.0 0.0 -9.325599965574e-04 
-7.159156796781e-04 8.199594821406e-04 0.0 
8.199594821406e-04 3.747642167749e-03 0.0 
0.0 0.0 -6.229492605273e-04 
-9.690599654105e-04 4.302709909689e-04 0.0 
4.302709909689e-04 5.467189617691e-03 0.0 
0.0 0.0 -8.408860858065e-04 
-3.919357097026e-04 6.068237325883e-05 0.0 
6.068237325883e-05 4.381455962217e-03 0.0 
0.0 0.0 -8.054665293395e-04 
-6.923438558252e-04 -8.520265330426e-04 0.0 
-8.520265330426e-04 4.695093275442e-03 0.0 
0.0 0.0 -8.008683130455e-04 
-6.056515233478e-04 -4.164522829612e-04 0.0 
-4.164522829612e-04 5.267235237804e-03 0.0 
0.0 0.0 -9.181754741429e-04 
-1.093523269899e-03 7.798311719689e-05 0.0 
7.798311719689e-05 6.464920900132e-03 0.0 
0.0 0.0 -9.721028620036e-04 
-8.031200443167e-04 6.781379836070e-04 0.0 
6.781379836070e-04 4.309322447368e-03 0.0 
0.0 0.0 -6.945885048819e-04 
-7.991042375162e-04 4.855628797920e-04 0.0 
4.855628797920e-04 6.126908297853e-03 0.0 
0.0 0.0 -1.039409037654e-03 
-9.955657075652e-04 -4.803366383392e-06 0.0 
-4.803366383392e-06 6.069270927012e-03 0.0 
0.0 0.0 -8.839498032872e-04 
-7.742968154824e-04 -8.517460638285e-04 0.0 
-8.517460638285e-04 4.014337168077e-03 0.0 
0.0 0.0 -6.521967345917e-04 
-6.549358325978e-04 3.442178195061e-04 0.0 
3.442178195061e-04 5.516212137862e-03 0.0 
0.0 0.0 -9.664699797409e-04 
-3.659361313913e-04 -1.389777863593e-03 0.0 
-1.389777863593e-03 2.536314572587e-03 0.0 
0.0 0.0 -5.155438399970e-04 
-1.017459211522e-03 -2.035278755390e-04 0.0 
-2.035278755390e-04 5.749338419273e-03 0.0 
0.0 0.0 -9.093720595694e-04 
2.256137386907e-04 -1.163159502201e-04 0.0 
-1.163159502201e-04 1.137935582799e-04 0.0 
0.0 0.0 -4.585464485956e-05 
-3.462420398140e-04 1.018466210769e-03 0.0 
1.018466210769e-03 2.570297332312e-03 0.0 
0.0 0.0 -4.997308803768e-04 
-2.322903734365e-04 -1.457188189013e-03 0.0 
-1.457188189013e-03 2.158535862862e-03 0.0 
0.0 0.0 -4.875765080988e-04 
-8.614851687078e-04 -3.337722832802e-04 0.0 
-3.337722832802e-04 4.446512628758e-03 0.0 
0.0 0.0 -7.126562430121e-04 
-5.635163873739e-04 9.119017880977e-04 0.0 
9.119017880977e-04 4.220442908307e-03 0.0 
0.0 0.0 -7.595228636782e-04 
-7.920931595490e-04 -2.649669687123e-04 0.0 
-2.649669687123e-04 5.573841345894e-03 0.0 
0.0 0.0 -9.350600278798e-04 
-1.013052504013e-03 -8.823570252137e-05 0.0 
-8.823570252137e-05 6.008966805305e-03 0.0 
0.0 0.0 -8.962969588583e-04 
-3.359179918489e-04 -1.568493616469e-03 0.0 
-1.568493616469e-03 2.089144442065e-03 0.0 
0.0 0.0 -4.505554202764e-04 
-1.341827844788e-03 -1.871667057256e-04 0.0 
-1.871667057256e-04 8.296019085882e-03 0.0 
0.0 0.0 -1.341827844788e-03 
-9.219930325587e-04 3.393896039245e-04 0.0 
3.393896039245e-04 5.591653643792e-03 0.0 
0.0 0.0 -8.789935771182e-04 
-9.115582794458e-04 -2.493035172872e-04 0.0 
-2.493035172872e-04 4.677595953812e-03 0.0 
0.0 0.0 -7.413896480605e-04 
-8.652400327000e-04 3.890590998056e-04 0.0 
3.890590998056e-04 5.305115327796e-03 0.0 
0.0 0.0 -8.436662038215e-04 
-8.817818309206e-04 -6.648690080579e-04 0.0 
-6.648690080579e-04 4.510392914982e-03 0.0 
0.0 0.0 -7.098625721847e-04 
0.0 0.0 0.0 
0.0 0.0 0.0 
0.0 0.0 0.0 
-1.015724792628e-03 8.235652516452e-05 0.0 
8.235652516452e-05 5.775865579893e-03 0.0 
0.0 0.0 -8.733545218784e-04 
-8.401387806922e-04 6.123016035239e-05 0.0 
6.123016035239e-05 3.850164849745e-03 0.0 
0.0 0.0 -5.956302995864e-04 
2.119608216236e-04 1.827144702945e-05 0.0 
1.827144702945e-05 -6.337242555222e-05 0.0 
0.0 0.0 -6.368074117344e-05 
-9.031369501237e-04 -1.865236162329e-04 0.0 
-1.865236162329e-04 4.464828183770e-03 0.0 
0.0 0.0 -7.041275119738e-04 
-8.760607814048e-04 -2.015865901798e-04 0.0 
-2.015865901798e-04 6.047567037496e-03 0.0 
0.0 0.0 -1.001254648526e-03 
-1.205696135514e-03 2.785240829935e-04 0.0 
2.785240829935e-04 7.656838420364e-03 0.0 
0.0 0.0 -1.146946825052e-03 
-5.022948978825e-04 -4.626796724593e-04 0.0 
-4.626796724593e-04 4.761985454285e-03 0.0 
0.0 0.0 -8.532270185794e-04 
-5.545620008577e-04 -7.574531854601e-05 0.0 
-7.574531854601e-05 4.939516714005e-03 0.0 
0.0 0.0 -8.841559964380e-04 
-9.029537400273e-04 7.141549008008e-05 0.0 
7.141549008008e-05 4.945239925053e-03 0.0 
0.0 0.0 -7.495231765994e-04 
-8.844827213453e-04 6.847338950965e-05 0.0 
6.847338950965e-05 4.625730514937e-03 0.0 
0.0 0.0 -7.312625299844e-04 
-1.286320179804e-03 2.788583147739e-04 0.0 
2.788583147739e-04 8.406193484283e-03 0.0 
0.0 0.0 -1.286111585339e-03 
-8.045597696771e-04 4.385655444654e-04 0.0 
4.385655444654e-04 5.012857215938e-03 0.0 
0.0 0.0 -8.082854548548e-04 
6.621891051064e-04 -1.711434374491e-05 0.0 
-1.711434374491e-05 -4.360569155907e-05 0.0 
0.0 0.0 -9.362473743294e-05 
-4.298982998579e-04 -6.269550114416e-04 0.0 
-6.269550114416e-04 1.549337747066e-03 0.0 
0.0 0.0 -2.569639750501e-04 
-5.557804512661e-05 -2.649152406900e-04 0.0 
-2.649152406900e-04 2.900758507811e-04 0.0 
0.0 0.0 -1.004990595662e-04 
-6.031978273067e-04 -1.007320967644e-03 0.0 
-1.007320967644e-03 2.552633295107e-03 0.0 
0.0 0.0 -4.284133232656e-04 
-1.143923933864e-03 2.767605230601e-04 0.0 
2.767605230601e-04 7.311015416728e-03 0.0 
0.0 0.0 -1.134523071099e-03 
-1.214790267536e-03 -1.094816465951e-04 0.0 
-1.094816465951e-04 7.712260942966e-03 0.0 
0.0 0.0 -1.144649651339e-03 
-1.087508141976e-03 -1.587001134092e-04 0.0 
-1.587001134092e-04 6.822768700719e-03 0.0 
0.0 0.0 -1.087427768671e-03 
-6.685965332887e-04 -7.845956287838e-04 0.0 
-7.845956287838e-04 2.990542570396e-03 0.0 
0.0 0.0 -4.827803379924e-04 
-1.041668217069e-03 -5.600095855462e-04 0.0 
-5.600095855462e-04 5.820984951314e-03 0.0 
0.0 0.0 -9.063168105749e-04 
-1.002226704218e-03 -4.489969858519e-05 0.0 
-4.489969858519e-05 6.971386371707e-03 0.0 
0.0 0.0 -1.142106164841e-03 
5.911862038656e-04 5.961670165533e-05 0.0 
5.961670165533e-05 -1.764561884350e-04 0.0 
0.0 0.0 -1.777414351845e-04 
-8.306874199400e-04 -2.997045909462e-04 0.0 
-2.997045909462e-04 3.873272421704e-03 0.0 
0.0 0.0 -5.942115541274e-04 
-6.956533125248e-04 1.124846661467e-04 0.0 
1.124846661467e-04 3.135833764917e-03 0.0 
0.0 0.0 -4.980019828625e-04 
-1.307918774452e-03 -2.672149718263e-04 0.0 
-2.672149718263e-04 8.583156667318e-03 0.0 
0.0 0.0 -1.322396863610e-03 
-1.341641872583e-03 -2.574400453278e-04 0.0 
-2.574400453278e-04 8.313092341430e-03 0.0 
0.0 0.0 -1.341641872583e-03 
-9.100844780323e-04 -2.535656636935e-04 0.0 
-2.535656636935e-04 4.283598396940e-03 0.0 
0.0 0.0 -6.580288049735e-04 
-9.226849417219e-04 -5.822088138657e-04 0.0 
-5.822088138657e-04 4.742725005737e-03 0.0 
0.0 0.0 -7.385580096348e-04 
-7.259593438489e-04 -4.081287369355e-04 0.0 
-4.081287369355e-04 4.909588067259e-03 0.0 
0.0 0.0 -8.323457052078e-04 
-1.025384663725e-03 -1.558037465639e-06 0.0 
-1.558037465639e-06 7.232536331843e-03 0.0 
0.0 0.0 -1.177278300149e-03 
-5.185769804222e-04 -3.082242823645e-04 0.0 
-3.082242823645e-04 1.649765607481e-03 0.0 
0.0 0.0 -2.880367495917e-04 
-9.770068768367e-04 -9.822974250100e-05 0.0 
-9.822974250100e-05 6.742502940673e-03 0.0 
0.0 0.0 -1.104707344597e-03 
-8.864038043829e-05 -1.638440655004e-05 0.0 
-1.638440655004e-05 9.863844244366e-04 0.0 
0.0 0.0 -1.612556504808e-04 
-8.754272683905e-04 -6.018300858025e-04 0.0 
-6.018300858025e-04 4.312432546832e-03 0.0 
0.0 0.0 -6.724657308136e-04 
-8.826884309659e-04 -7.176448192389e-04 0.0 
-7.176448192389e-04 4.701849927849e-03 0.0 
0.0 0.0 -7.470513223635e-04 
-3.546308527174e-05 5.679765794383e-06 0.0 
5.679765794383e-06 2.993710717870e-04 0.0 
0.0 0.0 -1.131034227923e-04 
-8.541374211011e-04 1.051307269510e-04 0.0 
1.051307269510e-04 4.063038016891e-03 0.0 
0.0 0.0 -6.267591816330e-04 
-1.242827358992e-03 4.579768759709e-04 0.0 
4.579768759709e-04 7.784562517271e-03 0.0 
0.0 0.0 -1.176862138969e-03 
5.856171802454e-04 8.673890813667e-06 0.0 
8.673890813667e-06 6.976119991762e-06 0.0 
0.0 0.0 -9.786084279852e-05 
-8.702582028195e-04 1.105447853201e-04 0.0 
1.105447853201e-04 4.607072405037e-03 0.0 
0.0 0.0 -7.322753781719e-04 
-8.459002629386e-04 1.198690024363e-04 0.0 
1.198690024363e-04 4.870014320209e-03 0.0 
0.0 0.0 -7.130472889423e-04 
-6.411087712709e-04 -3.059567672411e-04 0.0 
-3.059567672411e-04 5.528224217795e-03 0.0 
0.0 0.0 -9.552000144736e-04 
-6.940260095912e-04 -2.019223501579e-04 0.0 
-2.019223501579e-04 3.181147651246e-03 0.0 
0.0 0.0 -4.943513106837e-04 
-3.551699552598e-04 -1.046898701828e-03 0.0 
-1.046898701828e-03 2.386678131376e-03 0.0 
0.0 0.0 -4.817493388239e-04 
-2.903941216122e-04 1.483074513055e-03 0.0 
1.483074513055e-03 1.457235103792e-03 0.0 
0.0 0.0 -3.398054741319e-04 
-1.199955943827e-03 -1.286515075727e-04 0.0 
-1.286515075727e-04 7.503949585872e-03 0.0 
0.0 0.0 -1.180895453064e-03 
-1.276254635442e-03 4.715115445783e-04 0.0 
4.715115445783e-04 8.059382999082e-03 0.0 
0.0 0.0 -1.286194385238e-03 
-1.186217889961e-03 -6.749121568718e-05 0.0 
-6.749121568718e-05 7.409362913807e-03 0.0 
0.0 0.0 -1.101088927253e-03 
-5.347000365982e-04 9.291634402025e-04 0.0 
9.291634402025e-04 2.503086312716e-03 0.0 
0.0 0.0 -4.457015571677e-04 
-3.190037393042e-04 -1.683187168607e-04 0.0 
-1.683187168607e-04 9.740026393817e-04 0.0 
0.0 0.0 -2.223875638571e-04 
-8.385442436261e-04 2.562372654306e-04 0.0 
2.562372654306e-04 4.497930936177e-03 0.0 
0.0 0.0 -6.999131133628e-04 
-8.425527780140e-04 3.452494000883e-05 0.0 
3.452494000883e-05 4.643700331840e-03 0.0 
0.0 0.0 -7.345111139194e-04 
-8.389403033821e-04 -1.305466340479e-06 0.0 
-1.305466340479e-06 4.908724598573e-03 0.0 
0.0 0.0 -7.144802219087e-04 
2.118993314013e-04 1.507058348733e-05 0.0 
1.507058348733e-05 -6.339593750257e-05 0.0 
0.0 0.0 -6.364431167088e-05 
-5.587289192583e-05 -6.452329894431e-06 0.0 
-6.452329894431e-06 2.977317204857e-04 0.0 
0.0 0.0 -1.036537836685e-04 
-1.659582098733e-04 -6.983629749951e-05 0.0 
-6.983629749951e-05 7.156238265913e-04 0.0 
0.0 0.0 -1.795416262981e-04 
-6.042827533109e-04 -3.178261870528e-04 0.0 
-3.178261870528e-04 2.298196668838e-03 0.0 
0.0 0.0 -3.820941496288e-04 
1.745656339544e-04 -6.881620967810e-06 0.0 
-6.881620967810e-06 5.205015129475e-04 0.0 
0.0 0.0 -1.430998070712e-04 
-9.621077650285e-04 9.743124488288e-05 0.0 
9.743124488288e-05 4.540703172736e-03 0.0 
0.0 0.0 -6.918148876825e-04 
0.0 0.0 0.0 
0.0 0.0 0.0 
0.0 0.0 0.0 
-6.636885702572e-04 -3.632840591834e-04 0.0 
-3.632840591834e-04 2.727769964994e-03 0.0 
0.0 0.0 -4.482372226011e-04 
-1.037073112810e-03 8.416167581821e-05 0.0 
8.416167581821e-05 6.231636848545e-03 0.0 
0.0 0.0 -9.582560723523e-04 
-8.428951159850e-04 8.320649882269e-05 0.0 
8.320649882269e-05 4.895786071823e-03 0.0 
0.0 0.0 -7.120344407548e-04 
-1.176195464104e-03 2.727173431630e-04 0.0 
2.727173431630e-04 7.571205441829e-03 0.0 
0.0 0.0 -1.169483110168e-03 
-8.724458015180e-04 -2.535481835564e-04 0.0 
-2.535481835564e-04 5.840199633402e-03 0.0 
0.0 0.0 -9.641449249716e-04 
-9.956049472303e-04 9.460602026458e-05 0.0 
9.460602026458e-05 5.823804297189e-03 0.0 
0.0 0.0 -8.988447104697e-04 
-7.453270263773e-04 1.666868432523e-04 0.0 
1.666868432523e-04 3.393805001824e-03 0.0 
0.0 0.0 -5.269378630653e-04 
-6.611997545445e-05 -3.806127284770e-05 0.0 
-3.806127284770e-05 9.766559638682e-04 0.0 
0.0 0.0 -1.602995255322e-04 
-1.340974968048e-03 1.475163558745e-04 0.0 
1.475163558745e-04 8.789407210591e-03 0.0 
0.0 0.0 -1.340974968048e-03 
-1.353375445294e-03 1.861681106883e-04 0.0 
1.861681106883e-04 9.067632799309e-03 0.0 
0.0 0.0 -1.320295381545e-03 
-9.653313430370e-04 3.172946590342e-04 0.0 
3.172946590342e-04 5.653212768820e-03 0.0 
0.0 0.0 -8.588387843224e-04 
-8.723549553050e-04 3.791940437681e-05 0.0 
3.791940437681e-05 4.638744233564e-03 0.0 
0.0 0.0 -7.326073368542e-04 
-7.433675000171e-04 -1.881116571238e-04 0.0 
-1.881116571238e-04 3.464526545461e-03 0.0 
0.0 0.0 -5.314511797787e-04 
-1.343039576571e-03 1.116238935560e-04 0.0 
1.116238935560e-04 9.058435864628e-03 0.0 
0.0 0.0 -1.322576402756e-03 
-6.088517818817e-04 -7.427980185432e-04 0.0 
-7.427980185432e-04 2.573085079122e-03 0.0 
0.0 0.0 -4.166600706249e-04 
-8.421343191380e-04 8.947296271354e-05 0.0 
8.947296271354e-05 4.867861189812e-03 0.0 
0.0 0.0 -7.125614225629e-04 
-8.442475580862e-04 6.688277321944e-05 0.0 
6.688277321944e-05 4.629764896323e-03 0.0 
0.0 0.0 -7.312775522649e-04 
-8.183075665077e-04 4.944600713478e-04 0.0 
4.944600713478e-04 4.297011605974e-03 0.0 
0.0 0.0 -6.755779900756e-04 
-1.341823989366e-03 3.176700121755e-04 0.0 
3.176700121755e-04 8.755155514573e-03 0.0 
0.0 0.0 -1.341823989366e-03 
-1.316183787817e-03 1.764356624828e-04 0.0 
1.764356624828e-04 9.061441417317e-03 0.0 
0.0 0.0 -1.322582685247e-03 
1.706419388007e-04 -6.581066488368e-06 0.0 
-6.581066488368e-06 5.083643028934e-04 0.0 
0.0 0.0 -1.414504174366e-04 
2.407344509661e-04 1.323517305793e-05 0.0 
1.323517305793e-05 -7.208659109850e-05 0.0 
0.0 0.0 -7.227765422896e-05 
-4.260081866660e-04 -1.856958100474e-04 0.0 
-1.856958100474e-04 1.223914747001e-03 0.0 
0.0 0.0 -2.229509930541e-04 
-8.539532720431e-04 -3.709598021116e-04 0.0 
-3.709598021116e-04 4.637819177533e-03 0.0 
0.0 0.0 -7.497705102653e-04 
-1.319228459702e-03 1.823496012509e-04 0.0 
1.823496012509e-04 8.037185883931e-03 0.0 
0.0 0.0 -1.224669017856e-03 
0.0 0.0 0.0 
0.0 0.0 0.0 
0.0 0.0 0.0 
-1.164534197096e-03 -1.984727069524e-04 0.0 
-1.984727069524e-04 7.327097077271e-03 0.0 
0.0 0.0 -1.092518628634e-03 
0.0 0.0 0.0 
0.0 0.0 0.0 
0.0 0.0 0.0 
-6.586480689669e-04 -2.893406478862e-05 0.0 
-2.893406478862e-05 5.445033550024e-03 0.0 
0.0 0.0 -9.493083249531e-04 
6.413544779552e-05 -3.379620450346e-04 0.0 
-3.379620450346e-04 1.394736970074e-04 0.0 
0.0 0.0 -8.691392457031e-05 
1.450430834232e-05 -8.616792963926e-05 0.0 
-8.616792963926e-05 3.294529381564e-05 0.0 
0.0 0.0 -2.033554378198e-05 
-6.338862404721e-04 -1.383285000905e-04 0.0 
-1.383285000905e-04 5.212576859225e-03 0.0 
0.0 0.0 -9.122568895951e-04 
-1.285900318349e-03 2.146352195215e-05 0.0 
2.146352195215e-05 7.759528202279e-03 0.0 
0.0 0.0 -1.192963836147e-03 
-1.029044917040e-03 -7.279636213487e-05 0.0 
-7.279636213487e-05 6.446740060124e-03 0.0 
0.0 0.0 -9.361271490834e-04 
-8.407421483093e-04 3.218859450769e-04 0.0 
3.218859450769e-04 4.639661762171e-03 0.0 
0.0 0.0 -7.268406435589e-04 
-3.072399208747e-05 -1.897210475410e-05 0.0 
-1.897210475410e-05 2.991997316549e-04 0.0 
0.0 0.0 -1.150610312432e-04 
-1.088521664505e-03 -4.986556758640e-04 0.0 
-4.986556758640e-04 6.052818965112e-03 0.0 
0.0 0.0 -9.349022313484e-04 
-1.337797817327e-03 2.888082420915e-05 0.0 
2.888082420915e-05 8.797778454419e-03 0.0 
0.0 0.0 -1.337797817327e-03 
-1.344206616167e-03 -8.091836582187e-05 0.0 
-8.091836582187e-05 9.064612422815e-03 0.0 
0.0 0.0 -1.322354755130e-03 
-8.386635614455e-04 6.856267782852e-05 0.0 
6.856267782852e-05 4.896920748213e-03 0.0 
0.0 0.0 -7.125764448434e-04 
-6.958258556128e-04 6.990936182405e-05 0.0 
6.990936182405e-05 5.692375670829e-03 0.0 
0.0 0.0 -9.863757069361e-04 
-1.341607717199e-03 1.551401879936e-04 0.0 
1.551401879936e-04 8.810609962061e-03 0.0 
0.0 0.0 -1.341607717199e-03 
-8.875903164710e-04 2.432432692731e-04 0.0 
2.432432692731e-04 6.412529175352e-03 0.0 
0.0 0.0 -1.046710270629e-03 
-7.224987108801e-05 2.416900893393e-05 0.0 
2.416900893393e-05 9.236508622773e-04 0.0 
0.0 0.0 -1.589907658001e-04 
1.844060408699e-04 -1.026478452949e-05 0.0 
-1.026478452949e-05 5.130263938471e-04 0.0 
0.0 0.0 -1.435574244405e-04 
-2.891409061342e-05 -3.272758998480e-05 0.0 
-3.272758998480e-05 3.203427987140e-04 0.0 
0.0 0.0 -1.200048127433e-04 
-8.246082063499e-04 1.600403801409e-04 0.0 
1.600403801409e-04 3.844559296729e-03 0.0 
0.0 0.0 -5.933358154923e-04 
-1.368440753648e-03 -2.847926622310e-04 0.0 
-2.847926622310e-04 8.814363085181e-03 0.0 
0.0 0.0 -1.322828574513e-03 
-1.280689091558e-03 -2.286632291646e-04 0.0 
-2.286632291646e-04 8.487923234130e-03 0.0 
0.0 0.0 -1.258329778789e-03 
2.520020944074e-04 -9.417495015486e-06 0.0 
-9.417495015486e-06 -7.547411903337e-05 0.0 
0.0 0.0 -7.565484658888e-05 
-9.449458894061e-04 -2.123271304103e-04 0.0 
-2.123271304103e-04 4.512069341782e-03 0.0 
0.0 0.0 -6.938761155152e-04 
-1.344798314370e-03 -1.247366253674e-04 0.0 
-1.247366253674e-04 8.595631148609e-03 0.0 
0.0 0.0 -1.344798314369e-03 
-1.373531731671e-03 -1.707869213026e-04 0.0 
-1.707869213026e-04 8.832402882049e-03 0.0 
0.0 0.0 -1.318785251170e-03 
-1.282177360506e-03 -3.124369979244e-04 0.0 
-3.124369979244e-04 8.610103347005e-03 0.0 
0.0 0.0 -1.321151187552e-03 
-1.113562773683e-03 2.219946434219e-04 0.0 
2.219946434219e-04 6.878878469590e-03 0.0 
0.0 0.0 -1.027148381742e-03 
-1.180769122149e-03 -2.135481498419e-04 0.0 
-2.135481498419e-04 7.573759840694e-03 0.0 
0.0 0.0 -1.125709525796e-03 
-1.338030260144e-03 -1.771563366243e-04 0.0 
-1.771563366243e-04 8.542675147626e-03 0.0 
0.0 0.0 -1.338030260144e-03 
-1.340754991027e-03 -2.390663127656e-04 0.0 
-2.390663127656e-04 8.545998822267e-03 0.0 
0.0 0.0 -1.340754991027e-03 
-1.152960594027e-03 1.859255734492e-04 0.0 
1.859255734492e-04 7.333872638941e-03 0.0 
0.0 0.0 -1.092518628634e-03 
6.040404689232e-04 9.568591753019e-05 0.0 
9.568591753019e-05 -6.408932826674e-05 0.0 
0.0 0.0 -9.235885521468e-05 
-8.216739313019e-04 1.642653897250e-05 0.0 
1.642653897250e-05 4.866544847831e-03 0.0 
0.0 0.0 -7.139539158865e-04 
-8.429301589013e-04 7.371775731573e-05 0.0 
7.371775731573e-05 4.924292125164e-03 0.0 
0.0 0.0 -7.133642253441e-04 
2.432336519054e-04 6.949879094711e-06 0.0 
6.949879094711e-06 -7.294262653964e-05 0.0 
0.0 0.0 -7.298186801390e-05 
-1.342313591240e-03 -2.893823135638e-04 0.0 
-2.893823135638e-04 8.501007321383e-03 0.0 
0.0 0.0 -1.342313591240e-03 
-1.327713446301e-03 -3.071447071229e-04 0.0 
-3.071447071229e-04 8.654446540322e-03 0.0 
0.0 0.0 -1.318355947622e-03 
-1.337959751097e-03 -3.069413126871e-04 0.0 
-3.069413126871e-04 8.377273660842e-03 0.0 
0.0 0.0 -1.337959751097e-03 
5.382873424725e-04 1.051034098534e-05 0.0 
1.051034098534e-05 3.447207322761e-05 0.0 
0.0 0.0 -9.875111991497e-05 
5.465365996427e-04 1.921140548757e-05 0.0 
1.921140548757e-05 3.586604406774e-05 0.0 
0.0 0.0 -1.001629653630e-04 
-1.340754991027e-03 -2.745211848364e-04 0.0 
-2.745211848364e-04 8.326750669152e-03 0.0 
0.0 0.0 -1.340754991027e-03 
-1.340396196526e-03 -3.177254258607e-04 0.0 
-3.177254258607e-04 8.348861196928e-03 0.0 
0.0 0.0 -1.340396196526e-03 
-1.100408733265e-03 -2.290747800904e-04 0.0 
-2.290747800904e-04 6.654648242085e-03 0.0 
0.0 0.0 -9.936726122374e-04 
-8.156679351147e-04 3.791493186346e-05 0.0 
3.791493186346e-05 4.866771241895e-03 0.0 
0.0 0.0 -7.124851972278e-04 
-1.126282978383e-03 -2.242329370711e-04 0.0 
-2.242329370711e-04 7.103431173965e-03 0.0 
0.0 0.0 -1.060142436171e-03 
-9.808195587630e-04 -2.230997408213e-04 0.0 
-2.230997408213e-04 5.708119715060e-03 0.0 
0.0 0.0 -8.626607521899e-04 
-7.941305620824e-04 1.551089981454e-05 0.0 
1.551089981454e-05 4.869359917574e-03 0.0 
0.0 0.0 -7.121912678902e-04 
7.040827403612e-04 7.380490456996e-06 0.0 
7.380490456996e-06 -3.505683220774e-05 0.0 
0.0 0.0 -9.491348420367e-05 
6.357527662839e-04 -8.824699617213e-05 0.0 
-8.824699617213e-05 3.733323429846e-05 0.0 
0.0 0.0 -1.068803031330e-04 
5.856552846093e-04 -8.204592747125e-05 0.0 
-8.204592747125e-05 2.270090481132e-05 0.0 
0.0 0.0 -9.934895370439e-05 
6.682124726064e-04 -5.433044528850e-05 0.0 
-5.433044528850e-05 2.762423436657e-05 0.0 
0.0 0.0 -1.574260069802e-04 
-9.875526380001e-04 1.999683647263e-04 0.0 
1.999683647263e-04 4.756922496595e-03 0.0 
0.0 0.0 -7.271325101417e-04 
-9.022422993743e-04 1.689219604000e-04 0.0 
1.689219604000e-04 4.293373185727e-03 0.0 
0.0 0.0 -6.600769387058e-04 
0.0 0.0 0.0 
0.0 0.0 0.0 
0.0 0.0 0.0 
-1.139432736752e-03 1.969596473993e-04 0.0 
1.969596473993e-04 6.092355855196e-03 0.0 
0.0 0.0 -9.221709323543e-04 
0.0 0.0 0.0 
0.0 0.0 0.0 
0.0 0.0 0.0 
-1.341471640605e-03 2.821656468085e-04 0.0 
2.821656468085e-04 8.748357117342e-03 0.0 
0.0 0.0 -1.341471640605e-03 
-1.340968685557e-03 1.312437350478e-04 0.0 
1.312437350478e-04 8.782913575074e-03 0.0 
0.0 0.0 -1.340968685557e-03 
-1.339320413496e-03 1.880713074898e-04 0.0 
1.880713074898e-04 8.789181418084e-03 0.0 
0.0 0.0 -1.339320413496e-03 
-2.891904725790e-04 2.036868385329e-04 0.0 
2.036868385329e-04 1.487086439737e-03 0.0 
0.0 0.0 -2.599136149544e-04 
-6.430141663801e-04 1.708121578067e-04 0.0 
1.708121578067e-04 2.925097320677e-03 0.0 
0.0 0.0 -4.607467809507e-04 
-1.337132911908e-03 8.989218137943e-05 0.0 
8.989218137943e-05 8.798780956337e-03 0.0 
0.0 0.0 -1.337132911908e-03 
-1.268709771428e-03 1.750290220288e-04 0.0 
1.750290220288e-04 7.410750387042e-03 0.0 
0.0 0.0 -1.124956933753e-03 
-1.344556937803e-03 5.420067643192e-05 0.0 
5.420067643192e-05 8.841140369170e-03 0.0 
0.0 0.0 -1.344556937803e-03 
-1.309963082983e-03 1.898374887779e-04 0.0 
1.898374887779e-04 7.848623061347e-03 0.0 
0.0 0.0 -1.192538251246e-03 
-1.338506523092e-03 2.196897297750e-04 0.0 
2.196897297750e-04 8.286254789378e-03 0.0 
0.0 0.0 -1.259905836238e-03 
-8.634449756302e-04 -2.267992264203e-04 0.0 
-2.267992264203e-04 4.063283112415e-03 0.0 
0.0 0.0 -6.267460875326e-04 
-1.354536289335e-03 7.630110527830e-05 0.0 
7.630110527830e-05 9.083283423121e-03 0.0 
0.0 0.0 -1.318101597465e-03 
-1.353127036110e-03 2.052350059942e-04 0.0 
2.052350059942e-04 9.070380165704e-03 0.0 
0.0 0.0 -1.321689849711e-03 
-1.286890123680e-03 -2.394731622084e-04 0.0 
-2.394731622084e-04 7.571755325092e-03 0.0 
0.0 0.0 -1.157495185000e-03 
-1.323365826624e-03 -2.403819852103e-04 0.0 
-2.403819852103e-04 8.033634754339e-03 0.0 
0.0 0.0 -1.225777420818e-03 
-1.161453211646e-03 -3.736884005785e-04 0.0 
-3.736884005785e-04 6.493225178424e-03 0.0 
0.0 0.0 -9.925156490314e-04 
0.0 0.0 0.0 
0.0 0.0 0.0 
0.0 0.0 0.0 
-8.671818712195e-04 -5.363828857818e-04 0.0 
-5.363828857818e-04 4.105500038503e-03 0.0 
0.0 0.0 -6.350241097613e-04 
1.538446466672e-04 -5.196602102228e-05 0.0 
-5.196602102228e-05 5.032465276658e-04 0.0 
0.0 0.0 -1.372732375194e-04 
-1.212742551210e-03 -4.759587518373e-04 0.0 
-4.759587518373e-04 7.564630454968e-03 0.0 
0.0 0.0 -1.177819030284e-03 
-8.605651419967e-04 -2.779235020759e-04 0.0 
-2.779235020759e-04 4.247159815615e-03 0.0 
0.0 0.0 -6.753691525988e-04 
-1.209845026625e-03 -3.828065324347e-05 0.0 
-3.828065324347e-05 7.089490121300e-03 0.0 
0.0 0.0 -1.099016898379e-03 
-5.359685570494e-04 -6.677092728244e-04 0.0 
-6.677092728244e-04 2.153205781578e-03 0.0 
0.0 0.0 -3.504775146279e-04 
-1.805242587165e-04 1.222080852242e-05 0.0 
1.222080852242e-05 7.550645308543e-04 0.0 
0.0 0.0 -1.735952156319e-04 
-1.264456075116e-03 -3.850163355986e-04 0.0 
-3.850163355986e-04 7.592925326403e-03 0.0 
0.0 0.0 -1.161668299909e-03 
-9.012428398998e-04 -5.241478665253e-04 0.0 
-5.241478665253e-04 4.532812848754e-03 0.0 
0.0 0.0 -7.012080445024e-04 
-8.068122859681e-04 1.121430841948e-04 0.0 
1.121430841948e-04 3.618999234990e-03 0.0 
0.0 0.0 -5.611363230934e-04 
-1.221373729773e-03 -3.971185644326e-04 0.0 
-3.971185644326e-04 7.158861497178e-03 0.0 
0.0 0.0 -1.096102707776e-03 
-1.225888037185e-03 2.356398892211e-04 0.0 
2.356398892211e-04 7.926332987898e-03 0.0 
0.0 0.0 -1.188907866872e-03 
-7.850590963075e-04 -2.211249008548e-04 0.0 
-2.211249008548e-04 3.627921543623e-03 0.0 
0.0 0.0 -5.602736785587e-04 
-9.153466014746e-04 -5.672710459790e-04 0.0 
-5.672710459790e-04 6.328544019957e-03 0.0 
0.0 0.0 -1.035646790376e-03 
-9.544485914901e-04 -2.692006228927e-04 0.0 
-2.692006228927e-04 5.706833288183e-03 0.0 
0.0 0.0 -9.181742748318e-04 
-1.151482432891e-03 -1.721733511891e-05 0.0 
-1.721733511891e-05 6.426989542900e-03 0.0 
0.0 0.0 -9.952786863929e-04 
-1.189685403522e-03 2.186394532171e-05 0.0 
2.186394532171e-05 6.656907816596e-03 0.0 
0.0 0.0 -1.024224580100e-03 
-2.906015399770e-05 6.908185225539e-04 0.0 
6.908185225539e-04 2.388123543614e-03 0.0 
0.0 0.0 -5.788817793163e-04 
-8.005376655691e-04 3.171132398136e-04 0.0 
3.171132398136e-04 4.241491794382e-03 0.0 
0.0 0.0 -6.651338130661e-04 
-5.426647513542e-04 5.869195559815e-04 0.0 
5.869195559815e-04 4.187651392435e-03 0.0 
0.0 0.0 -7.293057621918e-04 
-1.068839531754e-03 -1.396982746719e-04 0.0 
-1.396982746719e-04 5.983670003937e-03 0.0 
0.0 0.0 -9.378562126457e-04 
-1.253909417431e-03 -3.654180260376e-04 0.0 
-3.654180260376e-04 7.384129283890e-03 0.0 
0.0 0.0 -1.125100902632e-03 
-1.223048658493e-03 8.194922759041e-05 0.0 
8.194922759041e-05 6.885373196445e-03 0.0 
0.0 0.0 -1.053755873404e-03 
-5.843499511654e-04 -7.478811802874e-04 0.0 
-7.478811802874e-04 2.078474299742e-03 0.0 
0.0 0.0 -3.685493992842e-04 
-1.215420929976e-03 2.914568716421e-04 0.0 
2.914568716421e-04 7.912104441246e-03 0.0 
0.0 0.0 -1.183514100502e-03 
-1.184839979766e-03 2.716593684437e-04 0.0 
2.716593684437e-04 7.456605698874e-03 0.0 
0.0 0.0 -1.117084069417e-03 
-9.160676408920e-04 2.566629763440e-04 0.0 
2.566629763440e-04 5.389449650205e-03 0.0 
0.0 0.0 -8.110481619253e-04 
-1.072043250355e-03 -1.594447290691e-04 0.0 
-1.594447290691e-04 6.194419037886e-03 0.0 
0.0 0.0 -9.753747863247e-04 
-1.113512703567e-03 -7.830874303778e-05 0.0 
-7.830874303778e-05 6.209473753146e-03 0.0 
0.0 0.0 -9.665592132828e-04 
-1.247553885459e-03 -1.638883659802e-04 0.0 
-1.638883659802e-04 8.032779373469e-03 0.0 
0.0 0.0 -1.185362187646e-03 
-1.209218779800e-03 2.395415248872e-04 0.0 
2.395415248872e-04 7.733666527183e-03 0.0 
0.0 0.0 -1.150972777267e-03 
-9.235989750770e-04 -6.984337716094e-04 0.0 
-6.984337716094e-04 5.520417486699e-03 0.0 
0.0 0.0 -8.866930489607e-04 
-1.284523920474e-03 -3.501071659254e-04 0.0 
-3.501071659254e-04 7.805517890163e-03 0.0 
0.0 0.0 -1.190872049285e-03 
-1.177897572884e-03 3.138623603337e-04 0.0 
3.138623603337e-04 7.354283994280e-03 0.0 
0.0 0.0 -1.103416240745e-03 
-1.224145241381e-03 -2.616286438841e-04 0.0 
-2.616286438841e-04 6.885317791912e-03 0.0 
0.0 0.0 -1.053748284807e-03 
-1.251504070725e-03 -4.981478354757e-04 0.0 
-4.981478354757e-04 7.817749108824e-03 0.0 
0.0 0.0 -1.210017230578e-03 
-1.240161038229e-03 -1.265963501437e-04 0.0 
-1.265963501437e-04 7.971776447579e-03 0.0 
0.0 0.0 -1.181737430652e-03 
-1.104792332721e-03 -1.417124884619e-04 0.0 
-1.417124884619e-04 6.803117520475e-03 0.0 
0.0 0.0 -1.011817915138e-03 
-9.092260506378e-04 -6.128458239001e-04 0.0 
-6.128458239001e-04 6.116526816133e-03 0.0 
0.0 0.0 -9.985655989920e-04 
-5.244393316962e-04 -3.327701467074e-07 0.0 
-3.327701467074e-07 2.217192403788e-03 0.0 
0.0 0.0 -3.644364776638e-04 
-5.557520001356e-04 -9.492103982614e-04 0.0 
-9.492103982614e-04 1.854328414375e-03 0.0 
0.0 0.0 -3.414758422231e-04 
-2.976977379688e-04 -4.729019177062e-04 0.0 
-4.729019177062e-04 1.065430610337e-03 0.0 
0.0 0.0 -1.876370064529e-04 
-1.394869518500e-05 -5.836024776206e-04 0.0 
-5.836024776206e-04 3.988673203720e-04 0.0 
0.0 0.0 -1.649651250801e-04 
-1.208849354757e-03 -1.442002111852e-04 0.0 
-1.442002111852e-04 7.751975943977e-03 0.0 
0.0 0.0 -1.150998037120e-03 
-1.270626804187e-03 5.625887811154e-05 0.0 
5.625887811154e-05 7.521765115722e-03 0.0 
0.0 0.0 -1.156839719840e-03 
-1.128430539847e-04 -4.533921113002e-04 0.0 
-4.533921113002e-04 5.125802596057e-04 0.0 
0.0 0.0 -1.512448671109e-04 
-1.224260673069e-03 1.930240191298e-04 0.0 
1.930240191298e-04 7.672098389018e-03 0.0 
0.0 0.0 -1.160298666437e-03 
-9.269777591648e-04 2.462098102623e-04 0.0 
2.462098102623e-04 5.566246555216e-03 0.0 
0.0 0.0 -8.436798659344e-04 
-1.183821186611e-03 -4.510450975400e-04 0.0 
-4.510450975400e-04 6.938898886609e-03 0.0 
0.0 0.0 -1.067477449466e-03 
-1.234042430495e-03 4.386686661325e-05 0.0 
4.386686661325e-05 7.085000705368e-03 0.0 
0.0 0.0 -1.090430023688e-03 
-4.688031105262e-04 -9.449998288247e-04 0.0 
-9.449998288247e-04 2.708853865005e-03 0.0 
0.0 0.0 -5.090628918580e-04 
-1.241127751091e-03 -3.232486977457e-04 0.0 
-3.232486977457e-04 7.146083644213e-03 0.0 
0.0 0.0 -1.087955833448e-03 
-9.128116180444e-04 -2.432084876036e-04 0.0 
-2.432084876036e-04 5.398327604704e-03 0.0 
0.0 0.0 -8.100176300978e-04 
-7.075550094797e-04 -2.554204369628e-05 0.0 
-2.554204369628e-05 5.888227624213e-03 0.0 
0.0 0.0 -1.000388816061e-03 
-1.275643571196e-03 -3.853184117788e-05 0.0 
-3.853184117788e-05 7.999890426169e-03 0.0 
0.0 0.0 -1.242964905849e-03 
-4.891437223720e-04 4.195566496952e-05 0.0 
4.195566496952e-05 2.125578513997e-03 0.0 
0.0 0.0 -3.542437553904e-04 
-1.232067324065e-03 -4.786069064869e-04 0.0 
-4.786069064869e-04 7.807210147599e-03 0.0 
0.0 0.0 -1.215045542354e-03 
-1.132051344136e-03 -1.297668119058e-04 0.0 
-1.297668119058e-04 7.059354268222e-03 0.0 
0.0 0.0 -1.048288725887e-03 
-5.597857793192e-04 4.639966247623e-05 0.0 
4.639966247623e-05 2.420049368412e-03 0.0 
0.0 0.0 -3.930611257745e-04 
-5.609737831535e-04 -1.192047374110e-03 0.0 
-1.192047374110e-03 2.290088636828e-03 0.0 
0.0 0.0 -4.034900192350e-04 
-1.019435653485e-03 2.510797196313e-05 0.0 
2.510797196313e-05 5.114500101547e-03 0.0 
0.0 0.0 -7.909606353592e-04 
-1.046153520856e-03 2.672543322815e-04 0.0 
2.672543322815e-04 6.254372891690e-03 0.0 
0.0 0.0 -9.409807611877e-04 
-7.501439557546e-04 -2.986549649001e-04 0.0 
-2.986549649001e-04 3.375633566619e-03 0.0 
0.0 0.0 -5.429771841545e-04 
-1.160690986180e-03 -1.496920489451e-04 0.0 
-1.496920489451e-04 7.303854633305e-03 0.0 
0.0 0.0 -1.085119818393e-03 
-1.069476201499e-03 -1.757346183128e-04 0.0 
-1.757346183128e-04 6.567285104211e-03 0.0 
0.0 0.0 -9.816794289629e-04 
-9.579280571301e-04 -1.773255598002e-04 0.0 
-1.773255598002e-04 4.907486764764e-03 0.0 
0.0 0.0 -7.700930343086e-04 
-1.202171244896e-03 -3.172466399621e-04 0.0 
-3.172466399621e-04 6.703539097156e-03 0.0 
0.0 0.0 -1.021757709120e-03 
-1.211296574698e-03 -3.721899322367e-04 0.0 
-3.721899322367e-04 6.940479911899e-03 0.0 
0.0 0.0 -1.058696934625e-03 
-1.135291475184e-03 2.700006977273e-04 0.0 
2.700006977273e-04 6.997454425646e-03 0.0 
0.0 0.0 -1.050681058959e-03 
-4.173596233207e-04 -3.503884104976e-04 0.0 
-3.503884104976e-04 1.875894239502e-03 0.0 
0.0 0.0 -3.058749225436e-04 
-9.447771700352e-04 -1.262936496125e-04 0.0 
-1.262936496125e-04 4.694024374325e-03 0.0 
0.0 0.0 -7.328582426338e-04 
-9.670495794898e-04 5.137281078932e-04 0.0 
5.137281078932e-04 6.920842306521e-03 0.0 
0.0 0.0 -1.141128458404e-03 
-1.159905672637e-03 -1.212910240168e-04 0.0 
-1.212910240168e-04 7.261813298966e-03 0.0 
0.0 0.0 -1.078198857115e-03 
-8.846237530489e-04 -1.118837918711e-04 0.0 
-1.118837918711e-04 4.234828904613e-03 0.0 
0.0 0.0 -6.666835465145e-04 
-9.866099674588e-04 -6.396910670883e-04 0.0 
-6.396910670883e-04 5.776957758952e-03 0.0 
0.0 0.0 -9.153036164073e-04 
-1.180273166295e-03 -5.195576023231e-04 0.0 
-5.195576023231e-04 7.573511676705e-03 0.0 
0.0 0.0 -1.187586327529e-03 
-1.090487437882e-03 2.486631283317e-04 0.0 
2.486631283317e-04 6.750183946417e-03 0.0 
0.0 0.0 -1.013969106439e-03 
4.266683345687e-05 -1.829982136319e-05 0.0 
-1.829982136319e-05 -1.175196824510e-05 0.0 
0.0 0.0 -1.324922794790e-05 
-2.207289874608e-04 -3.235795152871e-04 0.0 
-3.235795152871e-04 1.003256593638e-03 0.0 
0.0 0.0 -1.835536028976e-04 
6.095472518787e-04 -2.844414826135e-05 0.0 
-2.844414826135e-05 2.461208838896e-04 0.0 
0.0 0.0 -3.667149153293e-04 
-1.247686431213e-03 1.804464591039e-05 0.0 
1.804464591039e-05 7.316811787833e-03 0.0 
0.0 0.0 -1.127837695838e-03 
-1.073532930030e-03 2.556328204713e-04 0.0 
2.556328204713e-04 6.504084694261e-03 0.0 
0.0 0.0 -9.775003154318e-04 
-1.065496431756e-03 -3.247503852032e-04 0.0 
-3.247503852032e-04 5.643495466523e-03 0.0 
0.0 0.0 -8.513051444990e-04 
-9.769664875946e-04 2.379062424114e-04 0.0 
2.379062424114e-04 5.801214914582e-03 0.0 
0.0 0.0 -8.745614812816e-04 
-1.019950067796e-03 -4.586219499737e-04 0.0 
-4.586219499737e-04 7.042194348422e-03 0.0 
0.0 0.0 -1.139196670502e-03 
-1.001595776578e-03 -1.032368991806e-04 0.0 
-1.032368991806e-04 5.128573561517e-03 0.0 
0.0 0.0 -7.988714448434e-04 
-1.198933731184e-03 -2.304563849884e-06 0.0 
-2.304563849884e-06 6.870961844438e-03 0.0 
0.0 0.0 -1.061632825506e-03 
-4.894390167554e-04 -2.936556089740e-04 0.0 
-2.936556089740e-04 2.281659796893e-03 0.0 
0.0 0.0 -3.615122310665e-04 
-1.252320573339e-03 -4.986115071304e-05 0.0 
-4.986115071304e-05 7.805865228042e-03 0.0 
0.0 0.0 -1.211531131004e-03 
-9.705690281363e-04 -5.093762920131e-04 0.0 
-5.093762920131e-04 4.972659776742e-03 0.0 
0.0 0.0 -7.673127347790e-04 
-5.395948498915e-04 -2.749809582872e-04 0.0 
-2.749809582872e-04 2.502960479934e-03 0.0 
0.0 0.0 -3.889166325194e-04 
-9.539878925134e-04 -4.665681980887e-04 0.0 
-4.665681980887e-04 4.746329446601e-03 0.0 
0.0 0.0 -7.311132045151e-04 
-7.861451495527e-04 -2.221214863257e-04 0.0 
-2.221214863257e-04 3.593397886981e-03 0.0 
0.0 0.0 -5.716673668464e-04 
-6.390151670991e-04 -6.536657789763e-04 0.0 
-6.536657789763e-04 2.791763486177e-03 0.0 
0.0 0.0 -4.452767020142e-04 
-1.072653987371e-03 2.886861907429e-05 0.0 
2.886861907429e-05 5.536656976787e-03 0.0 
0.0 0.0 -8.564950983273e-04 
2.053402963574e-04 2.693149737115e-05 0.0 
2.693149737115e-05 -6.111100134196e-05 0.0 
0.0 0.0 -6.181255500660e-05 
1.464512989776e-04 -5.911592787119e-06 0.0 
-5.911592787119e-06 -4.332551876097e-05 0.0 
0.0 0.0 -4.419676295000e-05 
-1.129321225881e-03 -4.366761249298e-04 0.0 
-4.366761249298e-04 6.278524906094e-03 0.0 
0.0 0.0 -9.636005660098e-04 
-4.459230001805e-04 -3.109429784165e-04 0.0 
-3.109429784165e-04 2.087500805873e-03 0.0 
0.0 0.0 -3.336449385292e-04 
-1.093345380725e-03 -5.267841385720e-04 0.0 
-5.267841385720e-04 6.263877748210e-03 0.0 
0.0 0.0 -9.724388998541e-04 
-1.043259012928e-03 -5.809617148742e-04 0.0 
-5.809617148742e-04 6.025832941714e-03 0.0 
0.0 0.0 -9.438473481109e-04 
-7.593501897991e-04 -4.626236543671e-04 0.0 
-4.626236543671e-04 3.770567817408e-03 0.0 
0.0 0.0 -6.177757646845e-04 
-3.406532554668e-04 -1.201349069570e-03 0.0 
-1.201349069570e-03 1.971960000255e-03 0.0 
0.0 0.0 -4.162223005415e-04 
-1.210770017431e-03 -8.268587528123e-05 0.0 
-8.268587528123e-05 7.661732423863e-03 0.0 
0.0 0.0 -1.137719822027e-03 
2.217423052273e-04 3.028948149786e-04 0.0 
3.028948149786e-04 -1.208394326890e-05 0.0 
0.0 0.0 -8.985358369644e-05 
-8.285748112363e-04 -1.587478080269e-04 0.0 
-1.587478080269e-04 3.819529826762e-03 0.0 
0.0 0.0 -6.004815939294e-04 
-1.049679539983e-03 -3.693865297615e-04 0.0 
-3.693865297615e-04 7.240151455212e-03 0.0 
0.0 0.0 -1.175533656463e-03 
-3.983359874590e-04 4.184586300730e-05 0.0 
4.184586300730e-05 1.714439103962e-03 0.0 
0.0 0.0 -2.977570873278e-04 
-1.020229649597e-03 -1.375914676709e-04 0.0 
-1.375914676709e-04 6.101662351483e-03 0.0 
0.0 0.0 -9.088859120638e-04 
-9.450324784717e-04 -1.832830397253e-04 0.0 
-1.832830397253e-04 5.623770961517e-03 0.0 
0.0 0.0 -8.416286270284e-04 
-4.351237697251e-04 -5.540829146340e-04 0.0 
-5.540829146340e-04 1.723099038299e-03 0.0 
0.0 0.0 -2.842394630762e-04 
-1.127395628762e-03 -5.008482085009e-04 0.0 
-5.008482085009e-04 7.317936875090e-03 0.0 
0.0 0.0 -1.158722036769e-03 
-1.133506044246e-03 -8.767361897690e-05 0.0 
-8.767361897690e-05 6.959505034578e-03 0.0 
0.0 0.0 -1.034898561726e-03 
-4.951489600236e-04 -4.786425625421e-05 0.0 
-4.786425625421e-05 2.022039619189e-03 0.0 
0.0 0.0 -3.364655670308e-04 
-1.234708714507e-03 -3.925269914934e-05 0.0 
-3.925269914934e-05 7.851562311589e-03 0.0 
0.0 0.0 -1.166520446339e-03 
-1.230308234664e-03 3.090146298482e-04 0.0 
3.090146298482e-04 7.789607374426e-03 0.0 
0.0 0.0 -1.169001632583e-03 
-5.233675107163e-04 -4.314455861334e-04 0.0 
-4.314455861334e-04 2.327927411805e-03 0.0 
0.0 0.0 -3.701904734684e-04 
-5.932851689167e-04 7.473876325445e-04 0.0 
7.473876325445e-04 2.806018980480e-03 0.0 
0.0 0.0 -4.801335248058e-04 
-5.599793527513e-04 -5.941268921314e-04 0.0 
-5.941268921314e-04 2.361270480637e-03 0.0 
0.0 0.0 -3.791106726259e-04 
-1.172251179922e-03 -4.180665988864e-04 0.0 
-4.180665988864e-04 6.718010438057e-03 0.0 
0.0 0.0 -1.029923508343e-03 
-1.041340644124e-03 -3.282174640750e-05 0.0 
-3.282174640750e-05 5.343281569417e-03 0.0 
0.0 0.0 -8.276368238623e-04 
-1.238338552957e-03 5.129188831147e-04 0.0 
5.129188831147e-04 7.705442663502e-03 0.0 
0.0 0.0 -1.169529464977e-03 
-1.205798657677e-03 3.040238914407e-04 0.0 
3.040238914407e-04 7.606656415098e-03 0.0 
0.0 0.0 -1.140030709108e-03 
-1.136504455291e-03 -4.715376891294e-04 0.0 
-4.715376891294e-04 6.495059726217e-03 0.0 
0.0 0.0 -1.001167767022e-03 
-1.120337032388e-03 -1.059796522353e-04 0.0 
-1.059796522353e-04 6.426005632212e-03 0.0 
0.0 0.0 -1.004093472296e-03 
-5.274441073591e-04 -2.397572524931e-04 0.0 
-2.397572524931e-04 1.862294635062e-03 0.0 
0.0 0.0 -3.158693332420e-04 
-1.161634108540e-03 -5.320117127017e-05 0.0 
-5.320117127017e-05 6.648981173758e-03 0.0 
0.0 0.0 -1.032853941699e-03 
-1.125917341076e-03 2.991763443149e-04 0.0 
2.991763443149e-04 6.905438798140e-03 0.0 
0.0 0.0 -1.037144748481e-03 
-1.044631038411e-03 -3.631995376833e-04 0.0 
-3.631995376833e-04 5.407625222663e-03 0.0 
0.0 0.0 -8.248712778174e-04 
-1.078523674622e-03 -1.304712665821e-04 0.0 
-1.304712665821e-04 6.557738951195e-03 0.0 
0.0 0.0 -9.752741834902e-04 
-1.159347625089e-03 -9.624416522510e-05 0.0 
-9.624416522510e-05 7.210996352120e-03 0.0 
0.0 0.0 -1.071415751597e-03 
-3.318515090644e-04 6.235225383972e-04 0.0 
6.235225383972e-04 3.802912303128e-03 0.0 
0.0 0.0 -7.435371925968e-04 
-1.181769783394e-03 2.863535825742e-04 0.0 
2.863535825742e-04 7.408927706841e-03 0.0 
0.0 0.0 -1.110258267496e-03 
-9.356896319010e-04 -4.816204734149e-05 0.0 
-4.816204734149e-05 4.523878489702e-03 0.0 
0.0 0.0 -6.965171720950e-04 
-1.013439798328e-03 -4.389789435164e-04 0.0 
-4.389789435164e-04 5.194362623047e-03 0.0 
0.0 0.0 -7.960639764766e-04 
-7.588476473929e-04 -1.047638361378e-04 0.0 
-1.047638361378e-04 3.390478407872e-03 0.0 
0.0 0.0 -5.342291996904e-04 
-6.729613587978e-04 -9.978092115441e-04 0.0 
-9.978092115441e-04 3.336051263368e-03 0.0 
0.0 0.0 -5.581583723280e-04 
-1.100329888420e-03 2.776105336716e-04 0.0 
2.776105336716e-04 6.705832396394e-03 0.0 
0.0 0.0 -1.007339817349e-03 
-7.155066052029e-04 -8.941200741794e-04 0.0 
-8.941200741794e-04 4.520636252880e-03 0.0 
0.0 0.0 -7.637833264599e-04 
-5.880444497108e-04 -5.324378047215e-04 0.0 
-5.324378047215e-04 2.570561499900e-03 0.0 
0.0 0.0 -4.077494273363e-04 
-3.167379964521e-04 -3.896430801043e-04 0.0 
-3.896430801043e-04 1.286713823890e-03 0.0 
0.0 0.0 -2.185673950299e-04 
-1.104743277708e-03 -1.081634182050e-04 0.0 
-1.081634182050e-04 6.759513962222e-03 0.0 
0.0 0.0 -1.005115000480e-03 
-6.259157449930e-04 -2.410202634238e-04 0.0 
-2.410202634238e-04 2.506664290233e-03 0.0 
0.0 0.0 -4.107160730352e-04 
-1.199872170886e-03 -1.045804178386e-04 0.0 
-1.045804178386e-04 7.736983325214e-03 0.0 
0.0 0.0 -1.218716866995e-03 
-1.124972404341e-03 2.718592290333e-04 0.0 
2.718592290333e-04 6.955187210285e-03 0.0 
0.0 0.0 -1.043883448597e-03 
-1.171061824699e-03 -7.858396141652e-05 0.0 
-7.858396141652e-05 6.870002089505e-03 0.0 
0.0 0.0 -1.070373463590e-03 
-1.223592225032e-03 -6.654680312814e-05 0.0 
-6.654680312814e-05 7.796071319491e-03 0.0 
0.0 0.0 -1.284729618418e-03 
-8.862225412837e-04 -4.776674958030e-04 0.0 
-4.776674958030e-04 4.314456893826e-03 0.0 
0.0 0.0 -6.637377122259e-04 
-5.666876201447e-04 -1.260874714856e-04 0.0 
-1.260874714856e-04 2.263003673050e-03 0.0 
0.0 0.0 -3.731618544809e-04 
-4.219134531154e-04 -1.222472695970e-04 0.0 
-1.222472695970e-04 1.397809828057e-03 0.0 
0.0 0.0 -2.496210768721e-04 
-1.097286575279e-03 -5.440934378647e-04 0.0 
-5.440934378647e-04 6.473058930747e-03 0.0 
0.0 0.0 -1.009908742814e-03 
-1.043727317765e-03 2.472408857258e-04 0.0 
2.472408857258e-04 6.306661261885e-03 0.0 
0.0 0.0 -9.473489374553e-04 
-2.695681844680e-04 -5.290039554231e-05 0.0 
-5.290039554231e-05 9.382689285882e-04 0.0 
0.0 0.0 -1.858848441742e-04 
-7.364560019705e-04 -6.036242025600e-04 0.0 
-6.036242025600e-04 3.440005901319e-03 0.0 
0.0 0.0 -5.400474096907e-04 
-4.035403746382e-04 -2.305403145177e-04 0.0 
-2.305403145177e-04 2.024884021199e-03 0.0 
0.0 0.0 -3.246070344129e-04 
-1.046680963677e-03 -1.140431221757e-04 0.0 
-1.140431221757e-04 6.307213054075e-03 0.0 
0.0 0.0 -9.387834224272e-04 
-7.632592856577e-04 -5.393132933556e-04 0.0 
-5.393132933556e-04 3.657861775186e-03 0.0 
0.0 0.0 -5.687878759048e-04 
-1.016724206552e-03 -2.154888859726e-04 0.0 
-2.154888859726e-04 5.955453979487e-03 0.0 
0.0 0.0 -9.467935652645e-04 
-7.568020148065e-04 -4.521860907560e-04 0.0 
-4.521860907560e-04 3.415229586271e-03 0.0 
0.0 0.0 -5.337555413938e-04 
-1.189199624854e-03 -1.376681473433e-04 0.0 
-1.376681473433e-04 7.515170933533e-03 0.0 
0.0 0.0 -1.114809527198e-03 
-6.923550043241e-04 -2.768469088006e-04 0.0 
-2.768469088006e-04 2.945508556802e-03 0.0 
0.0 0.0 -4.768663991247e-04 
-1.044644236131e-03 -5.895775659962e-04 0.0 
-5.895775659962e-04 6.433247658548e-03 0.0 
0.0 0.0 -1.018590841688e-03 
-5.377186267121e-04 -1.162421830740e-03 0.0 
-1.162421830740e-03 1.924594638442e-03 0.0 
0.0 0.0 -3.376433569222e-04 
-1.043635089924e-03 -5.925974921427e-04 0.0 
-5.925974921427e-04 6.227817584456e-03 0.0 
0.0 0.0 -9.812220007866e-04 
-9.943565397434e-04 -3.497380212248e-04 0.0 
-3.497380212248e-04 4.987357588882e-03 0.0 
0.0 0.0 -7.604224332210e-04 
-1.126398211161e-03 -1.231258313828e-04 0.0 
-1.231258313828e-04 6.641179692916e-03 0.0 
0.0 0.0 -1.041555045145e-03 
9.223743664251e-05 -1.553032727052e-04 0.0 
-1.553032727052e-04 2.018845935385e-03 0.0 
0.0 0.0 -5.350282927002e-04 
-4.513551852745e-04 7.961954421125e-05 0.0 
7.961954421125e-05 1.942718085049e-03 0.0 
0.0 0.0 -3.277310168338e-04 
-9.768870302484e-04 -1.535527430477e-04 0.0 
-1.535527430477e-04 5.889109902335e-03 0.0 
0.0 0.0 -8.787268422831e-04 
-6.833158998415e-04 -4.842839122641e-04 0.0 
-4.842839122641e-04 5.519329349180e-03 0.0 
0.0 0.0 -9.464297096767e-04 
-6.696248071327e-04 9.527190214271e-04 0.0 
9.527190214271e-04 3.942995259938e-03 0.0 
0.0 0.0 -6.776081642141e-04 
-1.047238839157e-03 -1.563485093405e-04 0.0 
-1.563485093405e-04 6.341652196106e-03 0.0 
0.0 0.0 -9.453210152248e-04 
-5.135632802951e-04 -1.406486370917e-03 0.0 
-1.406486370917e-03 1.993823835031e-03 0.0 
0.0 0.0 -3.758914132629e-04 
-1.070153882220e-03 3.026802387506e-04 0.0 
3.026802387506e-04 6.407668419037e-03 0.0 
0.0 0.0 -9.642804585795e-04 
-3.826150946160e-04 -2.687090143275e-04 0.0 
-2.687090143275e-04 1.814458781029e-03 0.0 
0.0 0.0 -2.947674122297e-04 
-1.169970312209e-03 -5.285152303079e-04 0.0 
-5.285152303079e-04 7.359319887074e-03 0.0 
0.0 0.0 -1.150402778756e-03 
-7.093705364921e-04 -3.773457786927e-04 0.0 
-3.773457786927e-04 5.766663180528e-03 0.0 
0.0 0.0 -9.834711240942e-04 
-7.789396793629e-04 4.773750927831e-05 0.0 
4.773750927831e-05 6.190226744614e-03 0.0 
0.0 0.0 -1.037051012011e-03 
-1.266259122541e-03 -6.932227906499e-05 0.0 
-6.932227906499e-05 8.127793637496e-03 0.0 
0.0 0.0 -1.204463612412e-03 
-7.768385389529e-04 -8.073428107716e-04 0.0 
-8.073428107716e-04 4.980090398291e-03 0.0 
0.0 0.0 -8.294769417472e-04 
-4.699473644088e-04 -6.813726004672e-05 0.0 
-6.813726004672e-05 1.813879272209e-03 0.0 
0.0 0.0 -3.081489256106e-04 
-9.161062287207e-04 -6.850931603516e-04 0.0 
-6.850931603516e-04 5.713761905663e-03 0.0 
0.0 0.0 -9.239488535170e-04 
-1.173047693050e-03 -1.052473736579e-04 0.0 
-1.052473736579e-04 7.508097487322e-03 0.0 
0.0 0.0 -1.189963100592e-03 
-4.497409859123e-04 -1.426160803811e-03 0.0 
-1.426160803811e-03 2.458822638814e-03 0.0 
0.0 0.0 -4.786098583285e-04 
-1.143974714499e-03 -4.976969720053e-04 0.0 
-4.976969720053e-04 6.710156245847e-03 0.0 
0.0 0.0 -1.038675661098e-03 
-1.132883010551e-03 -1.192006961438e-04 0.0 
-1.192006961438e-04 7.009605316192e-03 0.0 
0.0 0.0 -1.041631482750e-03 
-1.897791220570e-04 -1.328549867833e-03 0.0 
-1.328549867833e-03 1.573915984256e-03 0.0 
0.0 0.0 -3.880698300753e-04 
-9.832169528241e-04 -6.401107558717e-04 0.0 
-6.401107558717e-04 5.975097252107e-03 0.0 
0.0 0.0 -9.525765839929e-04 
-9.785039199354e-04 -1.168734358181e-04 0.0 
-1.168734358181e-04 5.790498942477e-03 0.0 
0.0 0.0 -8.663127257149e-04 
-5.996048706546e-04 -3.316912815730e-04 0.0 
-3.316912815730e-04 2.740125406625e-03 0.0 
0.0 0.0 -4.280652785065e-04 
-7.035123059792e-04 -6.874159131133e-04 0.0 
-6.874159131133e-04 3.217847307373e-03 0.0 
0.0 0.0 -5.113914792957e-04 
-7.105655773308e-04 4.972009427012e-04 0.0 
4.972009427012e-04 4.827811336805e-03 0.0 
0.0 0.0 -8.004334922225e-04 
-1.074750193164e-03 -1.697498961518e-04 0.0 
-1.697498961518e-04 6.403492678198e-03 0.0 
0.0 0.0 -1.012809740122e-03 
-7.035308576129e-04 5.382426947374e-04 0.0 
5.382426947374e-04 3.806026837703e-03 0.0 
0.0 0.0 -6.201901524263e-04 
-6.308101104936e-04 5.457451351616e-04 0.0 
5.457451351616e-04 4.514197146446e-03 0.0 
0.0 0.0 -7.649884091348e-04 
-1.098080609149e-03 3.025878807238e-04 0.0 
3.025878807238e-04 6.656267622990e-03 0.0 
0.0 0.0 -1.000670320419e-03 
-1.014704614523e-03 2.583884235807e-04 0.0 
2.583884235807e-04 6.049064620228e-03 0.0 
0.0 0.0 -9.110000341593e-04 
-1.009261189838e-03 2.792149560740e-04 0.0 
2.792149560740e-04 5.955274274962e-03 0.0 
0.0 0.0 -8.984003255416e-04 
-9.871449342436e-04 -7.213431481816e-05 0.0 
-7.213431481816e-05 4.924174820230e-03 0.0 
0.0 0.0 -7.627602282935e-04 
-1.065656897570e-03 -5.121112680600e-04 0.0 
-5.121112680600e-04 7.066736918301e-03 0.0 
0.0 0.0 -1.130631056169e-03 
-8.421677165309e-04 -7.268506017030e-04 0.0 
-7.268506017030e-04 5.443918430101e-03 0.0 
0.0 0.0 -8.953295484280e-04 
-9.945000348060e-04 -1.248826091764e-04 0.0 
-1.248826091764e-04 5.857149722276e-03 0.0 
0.0 0.0 -8.720525204519e-04 
-1.238633943108e-03 1.686741563001e-04 0.0 
1.686741563001e-04 7.876441362665e-03 0.0 
0.0 0.0 -1.193584144721e-03 
-8.522957180035e-04 9.316442431590e-05 0.0 
9.316442431590e-05 6.488948212224e-03 0.0 
0.0 0.0 -1.073433710836e-03 
-1.015779217143e-03 -2.144660185469e-04 0.0 
-2.144660185469e-04 6.157749518334e-03 0.0 
0.0 0.0 -9.841343610905e-04 
-1.152967284980e-03 2.909720530725e-04 0.0 
2.909720530725e-04 7.156656236309e-03 0.0 
0.0 0.0 -1.073677668998e-03 
-7.263162190416e-04 -8.886940194724e-04 0.0 
-8.886940194724e-04 3.588121008828e-03 0.0 
0.0 0.0 -5.862626530915e-04 
-7.235359723586e-04 -7.958794651799e-04 0.0 
-7.958794651799e-04 3.410683047674e-03 0.0 
0.0 0.0 -5.488365039436e-04 
-4.694757851361e-04 -5.127005261343e-04 0.0 
-5.127005261343e-04 1.922171349029e-03 0.0 
0.0 0.0 -3.130684191733e-04 
-9.104943950574e-04 -6.552016600707e-04 0.0 
-6.552016600707e-04 5.911258485735e-03 0.0 
0.0 0.0 -9.612598090090e-04 
-7.654832124176e-04 -7.002445478485e-04 0.0 
-7.002445478485e-04 3.645865785489e-03 0.0 
0.0 0.0 -5.775003002374e-04 
-1.075243583964e-03 -1.050257747268e-04 0.0 
-1.050257747268e-04 6.505297040680e-03 0.0 
0.0 0.0 -9.686535345556e-04 
-1.046091552134e-03 -1.046643629052e-04 0.0 
-1.046643629052e-04 6.253743570569e-03 0.0 
0.0 0.0 -9.322463471790e-04 
-3.156258732897e-04 -6.342992802895e-05 0.0 
-6.342992802895e-05 4.063447682096e-03 0.0 
0.0 0.0 -7.690363516573e-04 
-6.768678335791e-04 -4.944889426237e-04 0.0 
-4.944889426237e-04 2.924353115240e-03 0.0 
0.0 0.0 -4.860199686152e-04 
7.378566886558e-05 8.261792693270e-04 0.0 
8.261792693270e-04 1.831438910589e-03 0.0 
0.0 0.0 -5.148587792422e-04 
-7.140205863396e-04 -3.895142562213e-04 0.0 
-3.895142562213e-04 3.153467660833e-03 0.0 
0.0 0.0 -5.143448975765e-04 
-7.166082742774e-04 -4.898417450174e-04 0.0 
-4.898417450174e-04 3.345585253682e-03 0.0 
0.0 0.0 -5.517963299543e-04 
-5.453825262275e-04 -1.801577044467e-04 0.0 
-1.801577044467e-04 2.063785108327e-03 0.0 
0.0 0.0 -3.446931235564e-04 
-9.991919087570e-04 -5.159677692080e-04 0.0 
-5.159677692080e-04 6.812973713771e-03 0.0 
0.0 0.0 -1.101849228969e-03 
-6.361621297383e-04 -6.326273812119e-04 0.0 
-6.326273812119e-04 3.840813039186e-03 0.0 
0.0 0.0 -6.642957827475e-04 
-1.186458515100e-03 -1.053251154620e-04 0.0 
-1.053251154620e-04 7.463739247015e-03 0.0 
0.0 0.0 -1.107989045227e-03 
-5.978205852498e-04 -6.030872319160e-04 0.0 
-6.030872319160e-04 3.997835835114e-03 0.0 
0.0 0.0 -7.013039408444e-04 
-8.766496605348e-04 -2.938506230370e-04 0.0 
-2.938506230370e-04 5.643098139245e-03 0.0 
0.0 0.0 -9.268471029391e-04 
-7.458770769302e-04 -4.494771908485e-04 0.0 
-4.494771908485e-04 4.730820068739e-03 0.0 
0.0 0.0 -7.951651613512e-04 
-5.061128914291e-04 5.136368614140e-04 0.0 
5.136368614140e-04 4.289096613619e-03 0.0 
0.0 0.0 -7.567435594048e-04 
-4.924031779586e-04 -4.582157831525e-04 0.0 
-4.582157831525e-04 2.128157277405e-03 0.0 
0.0 0.0 -3.417109511102e-04 
-1.119466152649e-03 -1.285123435513e-04 0.0 
-1.285123435513e-04 7.241871223374e-03 0.0 
0.0 0.0 -1.161691925552e-03 
-1.157276862038e-03 -5.152756470004e-04 0.0 
-5.152756470004e-04 7.595110461611e-03 0.0 
0.0 0.0 -1.198716319349e-03 
-9.186810373389e-04 7.206447187045e-04 0.0 
7.206447187045e-04 5.929294122594e-03 0.0 
0.0 0.0 -9.650368815299e-04 
-7.024384046348e-04 -5.668947943432e-04 0.0 
-5.668947943432e-04 3.521466880882e-03 0.0 
0.0 0.0 -5.892385666867e-04 
-8.092329254756e-04 -3.679333936268e-04 0.0 
-3.679333936268e-04 5.184879506691e-03 0.0 
0.0 0.0 -8.609535187098e-04 
-1.070645862318e-03 2.880325294516e-04 0.0 
2.880325294516e-04 6.451710160525e-03 0.0 
0.0 0.0 -9.708520278613e-04 
-7.765899253724e-04 -7.845646391497e-04 0.0 
-7.845646391497e-04 3.835907640370e-03 0.0 
0.0 0.0 -6.148791393494e-04 
-5.560475869297e-04 7.086124654578e-04 0.0 
7.086124654578e-04 3.695652655845e-03 0.0 
0.0 0.0 -6.394234923164e-04 
-6.747584532598e-04 -5.770366254477e-04 0.0 
-5.770366254477e-04 3.009985049056e-03 0.0 
0.0 0.0 -4.739097840058e-04 
-4.381090568186e-04 -1.552304285074e-03 0.0 
-1.552304285074e-03 2.041510460725e-03 0.0 
0.0 0.0 -4.132304097957e-04 
-7.141863963918e-04 -9.568035345241e-04 0.0 
-9.568035345241e-04 3.752753679619e-03 0.0 
0.0 0.0 -6.236739531379e-04 
-6.528961987011e-04 -1.781186145787e-04 0.0 
-1.781186145787e-04 2.715857529516e-03 0.0 
0.0 0.0 -4.393534411964e-04 
-5.596275213697e-04 -3.829013705402e-04 0.0 
-3.829013705402e-04 2.536190508459e-03 0.0 
0.0 0.0 -3.988888273503e-04 
-7.947060353366e-04 -8.306305145241e-04 0.0 
-8.306305145241e-04 4.800715564885e-03 0.0 
0.0 0.0 -7.922809795675e-04 
-9.495117069836e-04 -2.555007117944e-04 0.0 
-2.555007117944e-04 5.904688651206e-03 0.0 
0.0 0.0 -9.554846610150e-04 
-1.106451546740e-03 6.547273223382e-04 0.0 
6.547273223382e-04 7.113693437201e-03 0.0 
0.0 0.0 -1.128610778606e-03 
5.517197538679e-04 6.942037793557e-07 0.0 
6.942037793557e-07 5.222913432921e-05 0.0 
0.0 0.0 -1.143255210630e-04 
-3.502562365249e-04 -5.244252159893e-04 0.0 
-5.244252159893e-04 3.531851922803e-03 0.0 
0.0 0.0 -6.818868151027e-04 
-4.968184483203e-04 -6.518828778024e-04 0.0 
-6.518828778024e-04 3.693766435261e-03 0.0 
0.0 0.0 -6.732431144785e-04 
-6.734388902022e-04 -6.179988430692e-04 0.0 
-6.179988430692e-04 3.684173063462e-03 0.0 
0.0 0.0 -6.268095852860e-04 
-1.038674892423e-03 2.849365380829e-04 0.0 
2.849365380829e-04 6.200994707550e-03 0.0 
0.0 0.0 -9.344164207832e-04 
-6.877399303223e-04 -5.371529877498e-04 0.0 
-5.371529877498e-04 4.282013621241e-03 0.0 
0.0 0.0 -7.295442444478e-04 
-7.236126278911e-04 -1.940798346154e-04 0.0 
-1.940798346154e-04 3.162977138653e-03 0.0 
0.0 0.0 -5.055050897130e-04 
-6.903954199582e-04 -9.883908706268e-04 0.0 
-9.883908706268e-04 3.912237901394e-03 0.0 
0.0 0.0 -6.611654675676e-04 
-1.160544064243e-03 2.681116606983e-04 0.0 
2.681116606983e-04 7.207667667947e-03 0.0 
0.0 0.0 -1.080452943103e-03 
-7.185620229440e-04 -5.086767079658e-04 0.0 
-5.086767079658e-04 3.228512561114e-03 0.0 
0.0 0.0 -5.025663706543e-04 
-3.033530584322e-04 -3.126589283008e-05 0.0 
-3.126589283008e-05 1.124202721504e-03 0.0 
0.0 0.0 -2.132551421006e-04 
-4.445863950683e-04 -1.098673452603e-04 0.0 
-1.098673452603e-04 1.624443337862e-03 0.0 
0.0 0.0 -2.784575373548e-04 
-4.556609783406e-04 -1.046441961485e-03 0.0 
-1.046441961485e-03 2.312897280805e-03 0.0 
0.0 0.0 -4.444240490352e-04 
-6.671697262521e-04 -6.094353393578e-04 0.0 
-6.094353393578e-04 3.102567689836e-03 0.0 
0.0 0.0 -5.239304829885e-04 
-4.604694554278e-04 -5.460587614430e-04 0.0 
-5.460587614430e-04 3.852686059404e-03 0.0 
0.0 0.0 -7.099160536912e-04 
-6.597409171735e-04 -9.847744191674e-04 0.0 
-9.847744191674e-04 4.070104714955e-03 0.0 
0.0 0.0 -6.984076724203e-04 
-4.347846215514e-04 -1.333971923402e-03 0.0 
-1.333971923402e-03 1.612936656771e-03 0.0 
0.0 0.0 -3.343205611582e-04 
-3.976613437580e-04 -3.897326152451e-04 0.0 
-3.897326152451e-04 1.671878635782e-03 0.0 
0.0 0.0 -2.765202162382e-04 
-1.033660003461e-03 -1.033996314703e-04 0.0 
-1.033996314703e-04 5.926247048388e-03 0.0 
0.0 0.0 -8.885078876198e-04 
-6.226964712633e-04 -4.829751825411e-04 0.0 
-4.829751825411e-04 2.780306463648e-03 0.0 
0.0 0.0 -4.363975895258e-04 
-9.598608129299e-04 -1.512388155027e-04 0.0 
-1.512388155027e-04 6.520728160314e-03 0.0 
0.0 0.0 -1.067401112627e-03 
-1.044199175907e-03 6.711789122637e-04 0.0 
6.711789122637e-04 6.814869566682e-03 0.0 
0.0 0.0 -1.093380752811e-03 
-1.033158695296e-03 1.201714905428e-04 0.0 
1.201714905428e-04 5.943900742884e-03 0.0 
0.0 0.0 -9.013836717722e-04 
-1.202438437016e-03 3.703852775580e-04 0.0 
3.703852775580e-04 7.497052002657e-03 0.0 
0.0 0.0 -1.126084317643e-03 
-1.147719962247e-03 6.494223347106e-04 0.0 
6.494223347106e-04 7.391690108111e-03 0.0 
0.0 0.0 -1.164310864388e-03 
-2.878547429469e-04 1.154238477974e-04 0.0 
1.154238477974e-04 3.877857573592e-03 0.0 
0.0 0.0 -7.408850503417e-04 
-9.791568623396e-04 6.928855181129e-04 0.0 
6.928855181129e-04 6.367692588182e-03 0.0 
0.0 0.0 -1.029042339204e-03 
-3.868820834042e-04 -1.598175067219e-03 0.0 
-1.598175067219e-03 1.640588266591e-03 0.0 
0.0 0.0 -3.684254322556e-04 
-7.608485108981e-04 -8.950598342909e-04 0.0 
-8.950598342909e-04 4.184728790858e-03 0.0 
0.0 0.0 -6.894573431515e-04 
-3.726378683448e-04 9.309707187506e-04 0.0 
9.309707187506e-04 3.521132831243e-03 0.0 
0.0 0.0 -6.879681371099e-04 
1.475700378225e-04 -1.082055056136e-03 0.0 
-1.082055056136e-03 1.153328364632e-03 0.0 
0.0 0.0 -4.001859895708e-04 
-2.322378270667e-04 -1.414305700121e-03 0.0 
-1.414305700121e-03 1.285051000812e-03 0.0 
0.0 0.0 -3.718692805502e-04 
-7.624977688682e-04 -3.873820506890e-04 0.0 
-3.873820506890e-04 3.581246965727e-03 0.0 
0.0 0.0 -5.804062017457e-04 
-5.687072458126e-04 -1.053499292402e-03 0.0 
-1.053499292402e-03 3.769545573336e-03 0.0 
0.0 0.0 -6.703429011759e-04 
-5.303660715231e-04 -9.834601585863e-04 0.0 
-9.834601585863e-04 3.928073668805e-03 0.0 
0.0 0.0 -7.070647534220e-04 
-6.858142190642e-04 -1.264292236945e-04 0.0 
-1.264292236945e-04 2.925987856864e-03 0.0 
0.0 0.0 -4.680152132766e-04 
-6.589899224581e-04 -5.005558218905e-04 0.0 
-5.005558218905e-04 4.450521373462e-03 0.0 
0.0 0.0 -7.666177146937e-04 
-4.231487579380e-04 -9.909487264928e-04 0.0 
-9.909487264928e-04 3.613001704936e-03 0.0 
0.0 0.0 -6.790125122095e-04 
-3.369199789232e-04 -3.555417311412e-04 0.0 
-3.555417311412e-04 3.718100603305e-03 0.0 
0.0 0.0 -7.183521444552e-04 
-6.803758157452e-04 -9.028741567956e-04 0.0 
-9.028741567956e-04 3.171875899076e-03 0.0 
0.0 0.0 -5.205443542100e-04 
-6.888642757158e-04 -2.049706033719e-04 0.0 
-2.049706033719e-04 5.802071078045e-03 0.0 
0.0 0.0 -9.921115096417e-04 
-1.107658319106e-03 -8.404497540785e-05 0.0 
-8.404497540785e-05 6.709473481144e-03 0.0 
0.0 0.0 -9.984673180475e-04 
-2.379293217191e-04 -2.443881819662e-04 0.0 
-2.443881819662e-04 3.409073247204e-03 0.0 
0.0 0.0 -6.904379518788e-04 
-1.046303389369e-03 -1.114400525399e-04 0.0 
-1.114400525399e-04 6.996162598283e-03 0.0 
0.0 0.0 -1.133495712197e-03 
-3.268910950442e-04 -1.748504239578e-03 0.0 
-1.748504239578e-03 1.649599373731e-03 0.0 
0.0 0.0 -3.849690761666e-04 
-1.105326955299e-03 -1.209562394880e-05 0.0 
-1.209562394880e-05 7.506917461540e-03 0.0 
0.0 0.0 -1.208505026952e-03 
-5.639712272191e-04 -5.345864669017e-04 0.0 
-5.345864669017e-04 4.155944038547e-03 0.0 
0.0 0.0 -7.381355003807e-04 
-1.181963174499e-03 7.139086798359e-04 0.0 
7.139086798359e-04 7.734753846791e-03 0.0 
0.0 0.0 -1.203459118631e-03 
-9.741416899861e-04 2.978325655321e-04 0.0 
2.978325655321e-04 5.872577927131e-03 0.0 
0.0 0.0 -9.144069900286e-04 
-4.654888822043e-04 -1.140967963864e-03 0.0 
-1.140967963864e-03 1.931638852762e-03 0.0 
0.0 0.0 -3.788569260404e-04 
-1.047582909248e-03 1.584393688340e-04 0.0 
1.584393688340e-04 6.105623494628e-03 0.0 
0.0 0.0 -9.292863832265e-04 
-1.220879085669e-03 4.419497771274e-04 0.0 
4.419497771274e-04 7.616026390278e-03 0.0 
0.0 0.0 -1.148369591821e-03 
-5.398601850951e-04 -4.406973068625e-04 0.0 
-4.406973068625e-04 4.330390544396e-03 0.0 
0.0 0.0 -7.747733155264e-04 
-3.603331338578e-04 8.676550475076e-04 0.0 
8.676550475076e-04 2.963522800416e-03 0.0 
0.0 0.0 -5.621395992319e-04 
-1.057553285601e-03 1.944669215669e-04 0.0 
1.944669215669e-04 6.263161490160e-03 0.0 
0.0 0.0 -9.572423940436e-04 
-7.057059362099e-04 9.012515937016e-04 0.0 
9.012515937016e-04 4.348665847300e-03 0.0 
0.0 0.0 -7.402445244775e-04 
-4.362988120307e-04 -1.127161443736e-03 0.0 
-1.127161443736e-03 1.552148016574e-03 0.0 
0.0 0.0 -3.359502462693e-04 
-1.283659217910e-03 4.297574681589e-04 0.0 
4.297574681589e-04 8.390487106861e-03 0.0 
0.0 0.0 -1.259077240559e-03 
-4.445080952730e-04 -7.847967672699e-04 0.0 
-7.847967672699e-04 1.460661056520e-03 0.0 
0.0 0.0 -3.199353184197e-04 
-1.015479846412e-03 -4.911816191571e-05 0.0 
-4.911816191571e-05 7.389564650234e-03 0.0 
0.0 0.0 -1.194426649262e-03 
-1.235108043989e-03 2.931339570481e-04 0.0 
2.931339570481e-04 7.856142431297e-03 0.0 
0.0 0.0 -1.175981821618e-03 
-7.472334457018e-04 -2.848888603521e-04 0.0 
-2.848888603521e-04 6.030064979728e-03 0.0 
0.0 0.0 -1.020516803968e-03 
-1.010840280569e-03 2.871682712165e-04 0.0 
2.871682712165e-04 5.990467797945e-03 0.0 
0.0 0.0 -9.041796124736e-04 
-1.188290086785e-03 -4.131460252783e-05 0.0 
-4.131460252783e-05 7.360236208895e-03 0.0 
0.0 0.0 -1.094228678348e-03 
-3.956150081579e-04 -8.444363927456e-04 0.0 
-8.444363927456e-04 3.798159061747e-03 0.0 
0.0 0.0 -7.154996274706e-04 
-4.250562518241e-04 -8.715186287138e-05 0.0 
-8.715186287138e-05 4.576837397274e-03 0.0 
0.0 0.0 -8.337527902170e-04 
-1.236732889268e-03 3.932687216903e-04 0.0 
3.932687216903e-04 7.932024372295e-03 0.0 
0.0 0.0 -1.191782302182e-03 
-1.016762164362e-03 -2.009947599505e-04 0.0 
-2.009947599505e-04 6.362580938042e-03 0.0 
0.0 0.0 -1.021464098896e-03 
-1.135162035509e-03 -5.768530929232e-05 0.0 
-5.768530929232e-05 6.910041935378e-03 0.0 
0.0 0.0 -1.028225029406e-03 
-7.343430317228e-04 -7.671896480507e-05 0.0 
-7.671896480507e-05 5.717453709460e-03 0.0 
0.0 0.0 -9.780777104595e-04 
-3.572725597686e-04 -1.352690279400e-03 0.0 
-1.352690279400e-03 1.583802329561e-03 0.0 
0.0 0.0 -3.505936111242e-04 
-1.159722748538e-03 -3.230530369319e-05 0.0 
-3.230530369319e-05 7.104974861712e-03 0.0 
0.0 0.0 -1.057861461704e-03 
-1.213686028729e-03 4.975227447854e-04 0.0 
4.975227447854e-04 8.277647080915e-03 0.0 
0.0 0.0 -1.268085107495e-03 
-1.141634375887e-03 -6.383832911746e-05 0.0 
-6.383832911746e-05 7.496062386317e-03 0.0 
0.0 0.0 -1.202195648613e-03 
-7.172722051064e-04 -5.438382500790e-04 0.0 
-5.438382500790e-04 4.116936776522e-03 0.0 
0.0 0.0 -6.923681691211e-04 
-1.013061704463e-03 -1.285173007321e-04 0.0 
-1.285173007321e-04 6.040176746182e-03 0.0 
0.0 0.0 -9.020111041354e-04 
-9.803558555424e-04 2.819126364211e-04 0.0 
2.819126364211e-04 5.747481973327e-03 0.0 
0.0 0.0 -8.677534307045e-04 
-6.277772364563e-04 -9.505441527148e-04 0.0 
-9.505441527148e-04 4.228315103377e-03 0.0 
0.0 0.0 -7.352749011056e-04 
-9.471295400473e-04 -2.290448642546e-04 0.0 
-2.290448642546e-04 6.104893151692e-03 0.0 
0.0 0.0 -9.927925938929e-04 
-9.496787292750e-04 -1.931802113086e-04 0.0 
-1.931802113086e-04 6.308676304585e-03 0.0 
0.0 0.0 -1.030113165296e-03 
-3.367468350593e-04 -4.171493311675e-04 0.0 
-4.171493311675e-04 1.462207300335e-03 0.0 
0.0 0.0 -2.466400652194e-04 
1.723252799300e-04 1.006036226683e-03 0.0 
1.006036226683e-03 1.258635118435e-03 0.0 
0.0 0.0 -4.508272210452e-04 
-2.636139264689e-04 -4.295683990350e-05 0.0 
-4.295683990350e-05 3.648292398008e-03 0.0 
0.0 0.0 -7.269793770173e-04 
-2.881552402748e-04 -7.723163841178e-04 0.0 
-7.723163841178e-04 3.494059092135e-03 0.0 
0.0 0.0 -6.875569550716e-04 
-5.987135522068e-04 9.581338196100e-04 0.0 
9.581338196100e-04 4.121697912248e-03 0.0 
0.0 0.0 -7.320784846625e-04 
-1.264443641134e-03 9.169602624826e-06 0.0 
9.169602624826e-06 8.228641212544e-03 0.0 
0.0 0.0 -1.225426844749e-03 
-1.225437596415e-03 5.454708430458e-04 0.0 
5.454708430458e-04 7.618255897701e-03 0.0 
0.0 0.0 -1.162686153705e-03 
-1.236580353686e-03 -8.584500076515e-05 0.0 
-8.584500076515e-05 7.903871079557e-03 0.0 
0.0 0.0 -1.173632101657e-03 
-7.521471418708e-04 4.524177914914e-04 0.0 
4.524177914914e-04 4.089944836528e-03 0.0 
0.0 0.0 -6.556197767577e-04 
-1.172411158405e-03 4.147315892345e-04 0.0 
4.147315892345e-04 7.176351707369e-03 0.0 
0.0 0.0 -1.082713561900e-03 
-9.808832725520e-04 -6.235651659416e-04 0.0 
-6.235651659416e-04 6.175367423925e-03 0.0 
0.0 0.0 -9.899156953211e-04 
-1.256868554146e-03 3.642260226585e-04 0.0 
3.642260226585e-04 8.010570571666e-03 0.0 
0.0 0.0 -1.198415070424e-03 
-1.131244473165e-03 -2.609112415896e-05 0.0 
-2.609112415896e-05 6.847199996424e-03 0.0 
0.0 0.0 -1.021631336281e-03 
-7.398403296460e-04 -9.100435650523e-04 0.0 
-9.100435650523e-04 4.351978419830e-03 0.0 
0.0 0.0 -7.266350563285e-04 
-1.966131980491e-04 1.343789576191e-04 0.0 
1.343789576191e-04 3.379385752975e-03 0.0 
0.0 0.0 -6.989458521267e-04 
-1.152804453403e-03 3.500950542230e-04 0.0 
3.500950542230e-04 7.051163395974e-03 0.0 
0.0 0.0 -1.060111126929e-03 
-1.235067592862e-03 -2.698356757779e-05 0.0 
-2.698356757779e-05 7.807694952398e-03 0.0 
0.0 0.0 -1.160283895044e-03 
-1.152447904070e-03 3.233521508878e-04 0.0 
3.233521508878e-04 7.106400049278e-03 0.0 
0.0 0.0 -1.066842251349e-03 
-1.126824314787e-03 3.260890582423e-04 0.0 
3.260890582423e-04 6.856832929645e-03 0.0 
0.0 0.0 -1.030428295937e-03 
-1.098624795041e-03 -1.306628866347e-04 0.0 
-1.306628866347e-04 7.036525786255e-03 0.0 
0.0 0.0 -1.124756152480e-03 
-9.788942539780e-04 1.410494860673e-05 0.0 
1.410494860673e-05 7.171321125896e-03 0.0 
0.0 0.0 -1.167530213646e-03 
-1.029227773633e-03 -1.448576550575e-04 0.0 
-1.448576550575e-04 6.777818390463e-03 0.0 
0.0 0.0 -1.096139997395e-03 
-8.853909467236e-04 -3.202143432842e-04 0.0 
-3.202143432842e-04 5.450131718365e-03 0.0 
0.0 0.0 -8.895595506238e-04 
-7.841401063913e-04 5.175313733597e-04 0.0 
5.175313733597e-04 4.039507771945e-03 0.0 
0.0 0.0 -6.419897747600e-04 
-7.984394936658e-04 -1.887921339689e-04 0.0 
-1.887921339689e-04 6.295485930606e-03 0.0 
0.0 0.0 -1.057160997780e-03 
-1.115933343197e-03 4.349000973092e-04 0.0 
4.349000973092e-04 6.664037002129e-03 0.0 
0.0 0.0 -1.010795753303e-03 
-5.956699057430e-04 -8.811439702695e-05 0.0 
-8.811439702695e-05 2.473036601140e-03 0.0 
0.0 0.0 -4.018221946533e-04 
-2.915622310354e-04 -5.737426198503e-04 0.0 
-5.737426198503e-04 3.731241780433e-03 0.0 
0.0 0.0 -7.241222962603e-04 
-4.504794563628e-04 -1.267768640868e-04 0.0 
-1.267768640868e-04 4.437238068048e-03 0.0 
0.0 0.0 -8.193994707270e-04 
-5.327307368017e-04 -1.017456922387e-04 0.0 
-1.017456922387e-04 5.084928060617e-03 0.0 
0.0 0.0 -8.986564694586e-04 
3.950181268846e-04 -2.404122539236e-04 0.0 
-2.404122539236e-04 7.824137722745e-04 0.0 
0.0 0.0 -4.157903644632e-04 
-2.054344188629e-04 -4.192766465647e-04 0.0 
-4.192766465647e-04 3.464515105753e-03 0.0 
0.0 0.0 -6.962026719631e-04 
-6.398120247413e-04 -1.116949900707e-04 0.0 
-1.116949900707e-04 5.588791715487e-03 0.0 
0.0 0.0 -9.636952012155e-04 
-8.444842612221e-04 6.249200502653e-04 0.0 
6.249200502653e-04 4.582153886631e-03 0.0 
0.0 0.0 -7.294090860402e-04 
-7.683331433156e-04 -4.669157271009e-04 0.0 
-4.669157271009e-04 4.555612432421e-03 0.0 
0.0 0.0 -7.579899565570e-04 
-1.071508205892e-03 -5.121927920590e-05 0.0 
-5.121927920590e-05 6.390736393491e-03 0.0 
0.0 0.0 -9.556638187253e-04 
-8.714266706773e-04 2.063026129845e-04 0.0 
2.063026129845e-04 5.095248433608e-03 0.0 
0.0 0.0 -7.638029664831e-04 
-6.864860403863e-05 6.865817311915e-04 0.0 
6.865817311915e-04 5.756289586921e-04 0.0 
0.0 0.0 -2.172772948515e-04 
-8.538627514522e-04 -7.550684867704e-04 0.0 
-7.550684867704e-04 5.254936553017e-03 0.0 
0.0 0.0 -8.580817703278e-04 
-8.031553766191e-04 9.023974365030e-05 0.0 
9.023974365030e-05 6.192888911591e-03 0.0 
0.0 0.0 -1.051835763028e-03 
-1.248237691654e-03 5.633939617195e-04 0.0 
5.633939617195e-04 7.887034516043e-03 0.0 
0.0 0.0 -1.196871286280e-03 
-3.729352427207e-04 2.857944806302e-04 0.0 
2.857944806302e-04 4.199383336330e-03 0.0 
0.0 0.0 -7.999758813884e-04 
-8.246860114036e-04 -3.906175878888e-04 0.0 
-3.906175878888e-04 5.000590526334e-03 0.0 
0.0 0.0 -8.237210115815e-04 
-1.081299147246e-03 -7.697289611938e-05 0.0 
-7.697289611938e-05 6.459732028031e-03 0.0 
0.0 0.0 -9.620958722924e-04 
-2.880056971411e-04 8.925028292911e-04 0.0 
8.925028292911e-04 1.145866698786e-03 0.0 
0.0 0.0 -3.038018182983e-04 
-7.446793118804e-04 1.621554593950e-04 0.0 
1.621554593950e-04 5.956534969945e-03 0.0 
0.0 0.0 -1.023361637732e-03 
-4.737891057000e-04 -2.200266757859e-04 0.0 
-2.200266757859e-04 4.791461031182e-03 0.0 
0.0 0.0 -8.619475031456e-04 
-8.828155885906e-04 2.614625346270e-04 0.0 
2.614625346270e-04 4.904715470600e-03 0.0 
0.0 0.0 -7.615729788896e-04 
-9.809961927394e-04 -5.936604313144e-04 0.0 
-5.936604313144e-04 6.379528294436e-03 0.0 
0.0 0.0 -1.027225276160e-03 
-1.932500912873e-05 -1.677380896941e-03 0.0 
-1.677380896941e-03 1.233986358287e-03 0.0 
0.0 0.0 -3.946419382404e-04 
-9.859370989770e-04 -5.573179193325e-04 0.0 
-5.573179193325e-04 6.591591148133e-03 0.0 
0.0 0.0 -1.064556537081e-03 
-1.075263487039e-03 -6.290518893134e-05 0.0 
-6.290518893134e-05 7.229861812646e-03 0.0 
0.0 0.0 -1.170878753521e-03 
-6.948674803166e-04 2.455637071473e-04 0.0 
2.455637071473e-04 5.729378568502e-03 0.0 
0.0 0.0 -9.948919501216e-04 
-1.162320360260e-03 -6.372562573002e-05 0.0 
-6.372562573002e-05 7.161310363851e-03 0.0 
0.0 0.0 -1.064574987933e-03 
-9.584753352366e-04 2.606905829813e-04 0.0 
2.606905829813e-04 6.727836890182e-03 0.0 
0.0 0.0 -1.082686220397e-03 
-1.082949588594e-03 -4.851124086325e-04 0.0 
-4.851124086325e-04 7.296469259281e-03 0.0 
0.0 0.0 -1.168035910845e-03 
-5.459113610208e-04 8.695894781593e-04 0.0 
8.695894781593e-04 1.682549247342e-03 0.0 
0.0 0.0 -2.917408095836e-04 
-1.104897704515e-03 -4.845952140229e-05 0.0 
-4.845952140229e-05 6.655011128943e-03 0.0 
0.0 0.0 -9.919185416031e-04 
-1.022193057884e-03 1.318252200891e-04 0.0 
1.318252200891e-04 7.257050403107e-03 0.0 
0.0 0.0 -1.173906618061e-03 
-1.179945511942e-03 3.471716249997e-04 0.0 
3.471716249997e-04 7.305593288174e-03 0.0 
0.0 0.0 -1.096489272820e-03 
-5.875834666640e-04 2.546818746217e-04 0.0 
2.546818746217e-04 5.224796690614e-03 0.0 
0.0 0.0 -9.297700869391e-04 
-2.515263867691e-04 -2.254429621664e-04 0.0 
-2.254429621664e-04 3.754254559254e-03 0.0 
0.0 0.0 -7.325247082200e-04 
-9.641389493889e-04 -2.217264104135e-04 0.0 
-2.217264104135e-04 5.113633075458e-03 0.0 
0.0 0.0 -8.069452076110e-04 
4.285236195004e-04 1.396212384085e-04 0.0 
1.396212384085e-04 -1.219952762883e-04 0.0 
0.0 0.0 -1.313692899480e-04 
-1.204146700831e-03 3.439641556613e-04 0.0 
3.439641556613e-04 7.554548687955e-03 0.0 
0.0 0.0 -1.132911322290e-03 
-6.253175333027e-04 -2.826075305287e-05 0.0 
-2.826075305287e-05 2.680000675139e-03 0.0 
0.0 0.0 -4.309687334850e-04 
-5.749579867921e-04 6.771703350766e-04 0.0 
6.771703350766e-04 2.115308728038e-03 0.0 
0.0 0.0 -3.582286249851e-04 
-9.529535044554e-04 3.072244071368e-04 0.0 
3.072244071368e-04 6.570888144221e-03 0.0 
0.0 0.0 -1.054483161448e-03 
-1.255167442230e-03 3.201007171124e-04 0.0 
3.201007171124e-04 8.070344212991e-03 0.0 
0.0 0.0 -1.206783194404e-03 
-8.215496895040e-05 -1.772999525451e-03 0.0 
-1.772999525451e-03 1.193950944070e-03 0.0 
0.0 0.0 -3.966701258844e-04 
-7.833558623484e-04 4.482971625863e-04 0.0 
4.482971625863e-04 5.133302818514e-03 0.0 
0.0 0.0 -8.358581584049e-04 
-1.123137751770e-03 3.572847673877e-04 0.0 
3.572847673877e-04 6.794615582447e-03 0.0 
0.0 0.0 -1.023814440555e-03 
-8.765385540671e-04 -7.492880491734e-04 0.0 
-7.492880491734e-04 4.884441485584e-03 0.0 
0.0 0.0 -7.840072721007e-04 
2.874574446344e-04 -1.091275984428e-03 0.0 
-1.091275984428e-03 9.021895657290e-04 0.0 
0.0 0.0 -4.027365510179e-04 
-3.368056399330e-04 1.320783307670e-03 0.0 
1.320783307670e-03 2.512908282168e-03 0.0 
0.0 0.0 -5.292697486782e-04 
-2.272190685037e-04 -1.261695231052e-03 0.0 
-1.261695231052e-03 1.204255834380e-03 0.0 
0.0 0.0 -3.563018015714e-04 
-5.481856080812e-06 -1.360265015014e-03 0.0 
-1.360265015014e-03 1.114057395476e-03 0.0 
0.0 0.0 -3.608158092454e-04 
-1.672715856143e-04 -1.512279546231e-03 0.0 
-1.512279546231e-03 1.180506359655e-03 0.0 
0.0 0.0 -3.382523083772e-04 
-4.805060594133e-04 2.668098062439e-04 0.0 
2.668098062439e-04 4.715407643663e-03 0.0 
0.0 0.0 -8.647910268431e-04 
-1.323581223665e-03 3.388354907586e-04 0.0 
3.388354907586e-04 9.015003947055e-03 0.0 
0.0 0.0 -1.324146187826e-03 
-6.144383844702e-04 5.601929244688e-04 0.0 
5.601929244688e-04 2.582601934857e-03 0.0 
0.0 0.0 -4.244337567297e-04 
-1.156564282164e-03 -1.287267705775e-04 0.0 
-1.287267705775e-04 7.284536477905e-03 0.0 
0.0 0.0 -1.153422328581e-03 
-1.335800596959e-04 5.879693086389e-04 0.0 
5.879693086389e-04 2.932124141139e-03 0.0 
0.0 0.0 -6.430507458085e-04 
-1.103593163525e-03 -2.311027910085e-05 0.0 
-2.311027910085e-05 6.594057391582e-03 0.0 
0.0 0.0 -9.856407671940e-04 
6.097401795475e-04 2.716157955159e-04 0.0 
2.716157955159e-04 -1.627804699296e-04 0.0 
0.0 0.0 -1.915541612648e-04 
-1.121189365028e-03 -4.313739104837e-04 0.0 
-4.313739104837e-04 7.519397857683e-03 0.0 
0.0 0.0 -1.206759618350e-03 
-1.369628119913e-04 -1.636536330447e-03 0.0 
-1.636536330447e-03 1.233538073419e-03 0.0 
0.0 0.0 -4.045577262616e-04 
-7.109907021558e-04 -5.092194229215e-05 0.0 
-5.092194229215e-05 3.143336407810e-03 0.0 
0.0 0.0 -4.995972236199e-04 
-7.610689947692e-04 3.254275537369e-04 0.0 
3.254275537369e-04 6.017676875730e-03 0.0 
0.0 0.0 -1.031547093314e-03 
-5.009347095537e-04 -8.784504666191e-04 0.0 
-8.784504666191e-04 4.097798542798e-03 0.0 
0.0 0.0 -7.436172176343e-04 
-9.490922030985e-04 8.355820245775e-05 0.0 
8.355820245775e-05 6.977686204134e-03 0.0 
0.0 0.0 -1.139062866688e-03 
-5.334594474911e-04 7.731459396832e-04 0.0 
7.731459396832e-04 3.293236008727e-03 0.0 
0.0 0.0 -5.762899171568e-04 
-1.157169932203e-03 5.876132975745e-05 0.0 
5.876132975745e-05 6.976179943537e-03 0.0 
0.0 0.0 -1.044446328659e-03 
-1.026845760321e-03 3.718808168871e-04 0.0 
3.718808168871e-04 7.294887320679e-03 0.0 
0.0 0.0 -1.198892520503e-03 
-1.098955546930e-03 3.331596057930e-04 0.0 
3.331596057930e-04 6.603659082882e-03 0.0 
0.0 0.0 -9.940794652285e-04 
-1.269540035819e-03 1.940023298487e-04 0.0 
1.940023298487e-04 7.944098741491e-03 0.0 
0.0 0.0 -1.194784139986e-03 
-1.184726223875e-03 -2.348624992813e-06 0.0 
-2.348624992813e-06 7.294407597930e-03 0.0 
0.0 0.0 -1.087318097122e-03 
-1.210012004909e-03 2.996776911562e-05 0.0 
2.996776911562e-05 7.486490191622e-03 0.0 
0.0 0.0 -1.116677092124e-03 
1.863822195981e-04 1.500592688013e-03 0.0 
1.500592688013e-03 6.610975863953e-04 0.0 
0.0 0.0 -3.632056311400e-04 
-1.142912226621e-03 -1.436249115933e-04 0.0 
-1.436249115933e-04 7.061947710655e-03 0.0 
0.0 0.0 -1.115908039155e-03 
-1.147672819159e-03 3.821528619329e-04 0.0 
3.821528619329e-04 6.988478452450e-03 0.0 
0.0 0.0 -1.053364550114e-03 
-4.264879333549e-04 6.971974912426e-04 0.0 
6.971974912426e-04 4.141626674137e-03 0.0 
0.0 0.0 -7.792489223127e-04 
-6.776919640089e-04 4.847017937331e-04 0.0 
4.847017937331e-04 3.056038122043e-03 0.0 
0.0 0.0 -4.908673385051e-04 
-1.078927379078e-03 1.409149927546e-05 0.0 
1.409149927546e-05 7.640444635147e-03 0.0 
0.0 0.0 -1.232292820449e-03 
3.227356576489e-04 7.350862602758e-04 0.0 
7.350862602758e-04 8.113095771019e-04 0.0 
0.0 0.0 -4.142712813041e-04 
-6.537509052586e-04 -4.383754105270e-04 0.0 
-4.383754105270e-04 2.983336896445e-03 0.0 
0.0 0.0 -4.655197245388e-04 
-9.005107576278e-04 4.600258062660e-04 0.0 
4.600258062660e-04 6.613923225017e-03 0.0 
0.0 0.0 -1.105063927110e-03 
-3.654007350969e-04 -1.479495410984e-04 0.0 
-1.479495410984e-04 1.815899396191e-03 0.0 
0.0 0.0 -2.939799329518e-04 
-5.977371900919e-04 5.010127079244e-04 0.0 
5.010127079244e-04 4.620714897895e-03 0.0 
0.0 0.0 -7.924235178053e-04 
-8.040024099011e-04 2.359492841355e-04 0.0 
2.359492841355e-04 6.229578808837e-03 0.0 
0.0 0.0 -1.059843925468e-03 
-1.255635553756e-03 7.173795077006e-05 0.0 
7.173795077006e-05 7.907591642771e-03 0.0 
0.0 0.0 -1.181155146799e-03 
-1.282202030770e-03 1.124926252761e-04 0.0 
1.124926252761e-04 8.112071435222e-03 0.0 
0.0 0.0 -1.210943746944e-03 
-7.487229487199e-04 -1.168956266195e-04 0.0 
-1.168956266195e-04 6.087931342050e-03 0.0 
0.0 0.0 -1.028825005900e-03 
-1.212248021085e-03 -1.436521725135e-05 0.0 
-1.436521725135e-05 7.552882477900e-03 0.0 
0.0 0.0 -1.123737208958e-03 
-2.386760142168e-04 7.145577053840e-04 0.0 
7.145577053840e-04 3.288051445445e-03 0.0 
0.0 0.0 -6.793824814286e-04 
-1.022910334669e-03 3.054988306638e-04 0.0 
3.054988306638e-04 6.728691543712e-03 0.0 
0.0 0.0 -1.062452857821e-03 
-7.369445152822e-04 4.219749857923e-04 0.0 
4.219749857923e-04 3.529735228100e-03 0.0 
0.0 0.0 -5.576509564599e-04 
-1.225600923705e-03 6.150358502408e-04 0.0 
6.150358502408e-04 7.637406645108e-03 0.0 
0.0 0.0 -1.181751882508e-03 
-8.003950005641e-04 3.733577663785e-04 0.0 
3.733577663785e-04 4.007249233080e-03 0.0 
0.0 0.0 -6.243763318321e-04 
-7.858165178840e-04 3.201249060732e-04 0.0 
3.201249060732e-04 4.232155620723e-03 0.0 
0.0 0.0 -6.577503189808e-04 
-3.421685830446e-04 4.506546569180e-04 0.0 
4.506546569180e-04 3.987712693438e-03 0.0 
0.0 0.0 -7.717627972493e-04 
-8.541855867529e-04 3.616408520390e-04 0.0 
3.616408520390e-04 4.495910448337e-03 0.0 
0.0 0.0 -6.911701761307e-04 
-6.466553023066e-04 3.566499724765e-04 0.0 
3.566499724765e-04 5.190189138744e-03 0.0 
0.0 0.0 -8.833033330409e-04 
-4.075558796588e-04 5.082935923898e-04 0.0 
5.082935923898e-04 3.946901844573e-03 0.0 
0.0 0.0 -7.209687761305e-04 
-3.183347553168e-04 -3.900876355230e-04 0.0 
-3.900876355230e-04 3.990865140146e-03 0.0 
0.0 0.0 -7.606211034647e-04 
4.197691498195e-04 -7.924817374046e-04 0.0 
-7.924817374046e-04 5.841418248199e-04 0.0 
0.0 0.0 -3.925496596906e-04 
-2.632176995851e-04 3.130804871778e-04 0.0 
3.130804871778e-04 3.673894068274e-03 0.0 
0.0 0.0 -7.353490689725e-04 
-1.228427596361e-03 3.654441690398e-04 0.0 
3.654441690398e-04 7.753036613507e-03 0.0 
0.0 0.0 -1.162517914204e-03 
-1.234586540092e-03 6.496817172604e-04 0.0 
6.496817172604e-04 7.840810725913e-03 0.0 
0.0 0.0 -1.195263893373e-03 
-1.079254607357e-03 -1.716834017040e-04 0.0 
-1.716834017040e-04 6.610697418479e-03 0.0 
0.0 0.0 -1.050100468764e-03 
-9.999924356562e-04 4.337068162590e-04 0.0 
4.337068162590e-04 7.101876474641e-03 0.0 
0.0 0.0 -1.170266998156e-03 
-4.393592797757e-04 -4.178536690016e-04 0.0 
-4.178536690016e-04 4.023524415681e-03 0.0 
0.0 0.0 -7.463264885205e-04 
-1.196792592392e-03 4.110574340668e-04 0.0 
4.110574340668e-04 7.430663622206e-03 0.0 
0.0 0.0 -1.119019617531e-03 
-3.103812770642e-04 1.366237006987e-04 0.0 
1.366237006987e-04 3.912213435347e-03 0.0 
0.0 0.0 -7.634232545038e-04 
-1.186941185396e-03 -1.093564622626e-04 0.0 
-1.093564622626e-04 7.299889317220e-03 0.0 
0.0 0.0 -1.144395376583e-03 
-1.175446045210e-03 3.743988593539e-04 0.0 
3.743988593539e-04 7.239811730626e-03 0.0 
0.0 0.0 -1.089631904438e-03 
-1.184480952279e-03 4.301367348574e-05 0.0 
4.301367348574e-05 7.231184503722e-03 0.0 
0.0 0.0 -1.080451501872e-03 
-6.366755747078e-04 1.541674785508e-04 0.0 
1.541674785508e-04 5.452650900242e-03 0.0 
0.0 0.0 -9.580909834143e-04 
-2.389238927474e-04 5.103421139426e-04 0.0 
5.103421139426e-04 3.464348160629e-03 0.0 
0.0 0.0 -7.073300717972e-04 
-1.091479932409e-03 3.053404772209e-04 0.0 
3.053404772209e-04 7.161436277653e-03 0.0 
0.0 0.0 -1.126038590206e-03 
-9.842000416471e-04 6.396846099915e-04 0.0 
6.396846099915e-04 5.813603015757e-03 0.0 
0.0 0.0 -9.169694165663e-04 
1.883793847700e-04 -1.613056327393e-03 0.0 
-1.613056327393e-03 7.099727485344e-04 0.0 
0.0 0.0 -3.670597958229e-04 
4.158840995285e-04 -1.069455846307e-04 0.0 
-1.069455846307e-04 9.093131002263e-04 0.0 
0.0 0.0 -4.209936697170e-04 
-5.253520320544e-04 1.113226159763e-03 0.0 
1.113226159763e-03 3.274387380493e-03 0.0 
0.0 0.0 -6.061407060701e-04 
-8.148800044768e-04 7.943320417803e-04 0.0 
7.943320417803e-04 5.072587073095e-03 0.0 
0.0 0.0 -8.384786063130e-04 
-1.230266496445e-03 -6.856974243120e-05 0.0 
-6.856974243120e-05 7.537797729461e-03 0.0 
0.0 0.0 -1.173545322487e-03 
-1.159784806983e-03 4.546774843699e-06 0.0 
4.546774843699e-06 7.042624556690e-03 0.0 
0.0 0.0 -1.051102540299e-03 
-2.045778073669e-04 -2.934353049160e-05 0.0 
-2.934353049160e-05 3.544788899175e-03 0.0 
0.0 0.0 -7.045205360201e-04 
-9.013823451461e-04 3.641498331546e-04 0.0 
3.641498331546e-04 5.853350218943e-03 0.0 
0.0 0.0 -9.344940742331e-04 
-8.532834150583e-04 1.785665259931e-04 0.0 
1.785665259931e-04 6.467721788847e-03 0.0 
0.0 0.0 -1.088599101970e-03 
-1.213199839846e-03 -4.701032574329e-05 0.0 
-4.701032574329e-05 7.611187462875e-03 0.0 
0.0 0.0 -1.130578931274e-03 
-1.163123546776e-03 3.469650352866e-04 0.0 
3.469650352866e-04 7.457428311297e-03 0.0 
0.0 0.0 -1.160781586281e-03 
-1.064121038643e-03 3.592685452389e-04 0.0 
3.592685452389e-04 6.295822569873e-03 0.0 
0.0 0.0 -9.517943393003e-04 
-9.431187375283e-04 -8.030312093776e-06 0.0 
-8.030312093776e-06 6.723807310886e-03 0.0 
0.0 0.0 -1.113435711030e-03 
-3.640285380992e-04 -2.251334255899e-04 0.0 
-2.251334255899e-04 4.276860424883e-03 0.0 
0.0 0.0 -7.971871449874e-04 
-8.575470034421e-04 -2.591277644309e-04 0.0 
-2.591277644309e-04 6.522660233149e-03 0.0 
0.0 0.0 -1.086118700983e-03 
-6.488096190532e-04 8.782975641900e-04 0.0 
8.782975641900e-04 4.555098411154e-03 0.0 
0.0 0.0 -7.951163407912e-04 
-1.259477151619e-03 2.377000778179e-05 0.0 
2.377000778179e-05 7.994105241717e-03 0.0 
0.0 0.0 -1.188704642750e-03 
-1.188566355983e-03 2.821785558319e-04 0.0 
2.821785558319e-04 7.789552889991e-03 0.0 
0.0 0.0 -1.200489323427e-03 
-5.291595357548e-04 1.464001696405e-04 0.0 
1.464001696405e-04 4.944674619640e-03 0.0 
0.0 0.0 -8.929891684399e-04 
5.077877396978e-04 3.026021049410e-04 0.0 
3.026021049410e-04 3.943566526323e-04 0.0 
0.0 0.0 -3.866333109986e-04 
-9.967575789130e-04 6.124990556396e-04 0.0 
6.124990556396e-04 6.815699392306e-03 0.0 
0.0 0.0 -1.113685640909e-03 
-6.605390437865e-04 4.261094964972e-04 0.0 
4.261094964972e-04 5.059149157301e-03 0.0 
0.0 0.0 -8.555605426019e-04 
-1.830081198130e-04 1.866635750844e-04 0.0 
1.866635750844e-04 3.368216116446e-03 0.0 
0.0 0.0 -6.765734244908e-04 
-5.817203437329e-04 -2.125841840423e-04 0.0 
-2.125841840423e-04 5.299242741235e-03 0.0 
0.0 0.0 -9.269463096178e-04 
-9.296871453603e-04 -5.069518437094e-04 0.0 
-5.069518437094e-04 6.554705833196e-03 0.0 
0.0 0.0 -1.072977024862e-03 
5.145493605139e-04 -6.481882605914e-04 0.0 
-6.481882605914e-04 5.138628621790e-04 0.0 
0.0 0.0 -3.958212347391e-04 
-4.207868633399e-04 1.388755270071e-04 0.0 
1.388755270071e-04 4.431893145968e-03 0.0 
0.0 0.0 -8.281205301186e-04 
-1.057518774056e-03 5.392644449481e-04 0.0 
5.392644449481e-04 6.206831668111e-03 0.0 
0.0 0.0 -9.596127204057e-04 
-1.238644968873e-03 -4.648423040969e-04 0.0 
-4.648423040969e-04 7.603472997752e-03 0.0 
0.0 0.0 -1.170838755190e-03 
-1.067041670428e-03 5.715302009941e-04 0.0 
5.715302009941e-04 6.356528225694e-03 0.0 
0.0 0.0 -9.876491701490e-04 
-9.841945622355e-04 6.610492595006e-04 0.0 
6.610492595006e-04 6.661208694162e-03 0.0 
0.0 0.0 -1.085374163265e-03 
-1.045085745863e-03 5.003784013052e-04 0.0 
5.003784013052e-04 6.049842854282e-03 0.0 
0.0 0.0 -9.316602363005e-04 
-1.022837492668e-03 4.381275546802e-04 0.0 
4.381275546802e-04 5.716010034056e-03 0.0 
0.0 0.0 -8.756372412555e-04 
-9.850681647526e-04 6.675723233926e-04 0.0 
6.675723233926e-04 5.952563133260e-03 0.0 
0.0 0.0 -9.447135688329e-04 
-9.326630633240e-04 3.930283305116e-04 0.0 
3.930283305116e-04 6.810995827980e-03 0.0 
0.0 0.0 -1.133505030480e-03 
-1.106660061021e-03 -5.521563816417e-04 0.0 
-5.521563816417e-04 6.894855264338e-03 0.0 
0.0 0.0 -1.084522140297e-03 
-1.120799229937e-03 3.838899692646e-04 0.0 
3.838899692646e-04 6.737454909863e-03 0.0 
0.0 0.0 -1.017300281410e-03 
-1.265839226480e-03 4.523982644349e-04 0.0 
4.523982644349e-04 8.063487692737e-03 0.0 
0.0 0.0 -1.212886757924e-03 
-1.030324522425e-03 4.628372417255e-04 0.0 
4.628372417255e-04 5.887641382241e-03 0.0 
0.0 0.0 -9.037302385344e-04 
2.653135269755e-05 8.001600084414e-05 0.0 
8.001600084414e-05 2.476344782206e-03 0.0 
0.0 0.0 -5.760585567884e-04 
-1.044239643313e-03 2.376498451470e-04 0.0 
2.376498451470e-04 7.187723140536e-03 0.0 
0.0 0.0 -1.146733564437e-03 
-1.253924981079e-03 -4.907598213233e-05 0.0 
-4.907598213233e-05 8.057805599269e-03 0.0 
0.0 0.0 -1.196744929305e-03 
-5.355464959753e-04 8.349410411799e-04 0.0 
8.349410411799e-04 4.335085481445e-03 0.0 
0.0 0.0 -7.869228524964e-04 
-6.233378135021e-04 8.291713004523e-04 0.0 
8.291713004523e-04 4.669146782253e-03 0.0 
0.0 0.0 -8.226527892688e-04 
-9.042297380501e-05 1.578503348626e-05 0.0 
1.578503348626e-05 3.015977975308e-03 0.0 
0.0 0.0 -6.402419685743e-04 
-1.145557266538e-03 4.246140586136e-04 0.0 
4.246140586136e-04 6.921583184568e-03 0.0 
0.0 0.0 -1.046609947212e-03 
-6.981713726155e-04 9.056832497172e-04 0.0 
9.056832497172e-04 3.852457966674e-03 0.0 
0.0 0.0 -6.500746975200e-04 
-6.825381544126e-04 6.942299752500e-04 0.0 
6.942299752500e-04 5.269578602974e-03 0.0 
0.0 0.0 -9.137630964162e-04 
-6.717413934869e-04 5.961928435860e-04 0.0 
5.961928435860e-04 3.907642713709e-03 0.0 
0.0 0.0 -6.476280927198e-04 
-8.299310340804e-04 4.003109170218e-04 0.0 
4.003109170218e-04 6.314977660297e-03 0.0 
0.0 0.0 -1.068254633495e-03 
-1.134995185088e-03 2.756692802088e-04 0.0 
2.756692802088e-04 7.594750376581e-03 0.0 
0.0 0.0 -1.211228670573e-03 
-1.360533559688e-04 -2.215574873168e-04 0.0 
-2.215574873168e-04 3.223027219763e-03 0.0 
0.0 0.0 -6.682047883386e-04 
4.373904628404e-04 -2.393257178328e-04 0.0 
-2.393257178328e-04 -1.132865459339e-04 0.0 
0.0 0.0 -1.389016786742e-04 
-1.258599255868e-03 5.175436206336e-04 0.0 
5.175436206336e-04 7.974357198458e-03 0.0 
0.0 0.0 -1.207184308065e-03 
-7.509449296831e-04 8.117398232865e-04 0.0 
8.117398232865e-04 4.141196512392e-03 0.0 
0.0 0.0 -6.853381776776e-04 
-4.357225566231e-04 -2.745654093134e-04 0.0 
-2.745654093134e-04 4.218247831069e-03 0.0 
0.0 0.0 -7.828151049093e-04 
-1.060590658414e-03 6.112856710438e-04 0.0 
6.112856710438e-04 7.289270463529e-03 0.0 
0.0 0.0 -1.177925372349e-03 
-1.133119087327e-03 1.716253131945e-05 0.0 
1.716253131945e-05 6.790529249754e-03 0.0 
0.0 0.0 -1.015069748350e-03 
-1.047918274143e-03 -5.722033483047e-04 0.0 
-5.722033483047e-04 6.640384232333e-03 0.0 
0.0 0.0 -1.055879354346e-03 
-3.002045645479e-04 4.799822856897e-04 0.0 
4.799822856897e-04 3.594772661625e-03 0.0 
0.0 0.0 -6.851017020021e-04 
1.437633437549e-04 -1.583243096343e-05 0.0 
-1.583243096343e-05 -4.287346076812e-05 0.0 
0.0 0.0 -4.323852128003e-05 
-1.294332022630e-03 -4.590388614896e-04 0.0 
-4.590388614896e-04 7.891763322768e-03 0.0 
0.0 0.0 -1.202131160132e-03 
-7.979241755136e-04 7.967983468878e-04 0.0 
7.967983468878e-04 5.189819245057e-03 0.0 
0.0 0.0 -8.660506973337e-04 
-7.515738742409e-04 1.099645178349e-04 0.0 
1.099645178349e-04 5.981619188890e-03 0.0 
0.0 0.0 -1.007142642412e-03 
-1.115772722662e-03 6.613759768766e-04 0.0 
6.613759768766e-04 7.287802445254e-03 0.0 
0.0 0.0 -1.157822513452e-03 
0.0 0.0 0.0 
0.0 0.0 0.0 
0.0 0.0 0.0 
-1.020410346766e-03 -1.741879484343e-04 0.0 
-1.741879484343e-04 6.569036879710e-03 0.0 
0.0 0.0 -1.058763633038e-03 
-1.044584882710e-04 9.374141262810e-04 0.0 
9.374141262810e-04 2.179572843365e-03 0.0 
0.0 0.0 -4.919579008500e-04 
-1.074016419554e-03 -9.865194451984e-06 0.0 
-9.865194451984e-06 6.344021920267e-03 0.0 
0.0 0.0 -9.498437721210e-04 
-9.305727240655e-04 -6.933921297842e-04 0.0 
-6.933921297842e-04 5.329347824549e-03 0.0 
0.0 0.0 -8.496012432876e-04 
-1.513106441094e-04 3.496683072490e-04 0.0 
3.496683072490e-04 3.137268859880e-03 0.0 
0.0 0.0 -6.709551114794e-04 
-1.200608795278e-03 -4.872905826385e-04 0.0 
-4.872905826385e-04 7.367763642178e-03 0.0 
0.0 0.0 -1.141635569211e-03 
-6.896908437113e-04 7.588366273899e-04 0.0 
7.588366273899e-04 5.123258515759e-03 0.0 
0.0 0.0 -8.859145181037e-04 
-3.682506920307e-05 4.047925217802e-04 0.0 
4.047925217802e-04 2.589749957424e-03 0.0 
0.0 0.0 -6.067458373204e-04 
-8.340011645670e-04 4.008480374015e-04 0.0 
4.008480374015e-04 5.557081142302e-03 0.0 
0.0 0.0 -8.989548790023e-04 
3.022096838876e-04 -3.038195152345e-04 0.0 
-3.038195152345e-04 -5.124151784209e-05 0.0 
0.0 0.0 -1.075577854481e-04 
-9.546355211556e-04 3.234338831530e-04 0.0 
3.234338831530e-04 6.429567223705e-03 0.0 
0.0 0.0 -1.026417656363e-03 
-8.158927749848e-04 -3.909777349408e-05 0.0 
-3.909777349408e-05 6.386420010715e-03 0.0 
0.0 0.0 -1.065496432940e-03 
-1.247055565640e-03 3.319997532961e-04 0.0 
3.319997532961e-04 7.921779384989e-03 0.0 
0.0 0.0 -1.233600908384e-03 
-1.025284337354e-03 2.945178670449e-04 0.0 
2.945178670449e-04 6.877652576001e-03 0.0 
0.0 0.0 -1.090749533212e-03 
2.434503745851e-04 -1.578934998957e-04 0.0 
-1.578934998957e-04 1.529841444305e-03 0.0 
0.0 0.0 -4.758149136988e-04 
-1.100855494631e-03 -5.513580386133e-04 0.0 
-5.513580386133e-04 6.680884096093e-03 0.0 
0.0 0.0 -1.047231727503e-03 
-1.252169978070e-03 3.748871630309e-04 0.0 
3.748871630309e-04 8.183246127380e-03 0.0 
0.0 0.0 -1.228155452712e-03 
-1.172998084832e-03 8.287498321717e-05 0.0 
8.287498321717e-05 7.902166307926e-03 0.0 
0.0 0.0 -1.267145247477e-03 
-8.845763971731e-04 3.343706134047e-05 0.0 
3.343706134047e-05 6.685188464531e-03 0.0 
0.0 0.0 -1.102242875413e-03 
-2.824655770355e-04 3.019818645340e-04 0.0 
3.019818645340e-04 3.719180698001e-03 0.0 
0.0 0.0 -7.127912709901e-04 
-8.914221389397e-04 3.576211756874e-04 0.0 
3.576211756874e-04 5.989320852496e-03 0.0 
0.0 0.0 -9.624716764950e-04 
-1.265622827008e-03 -3.602381928261e-05 0.0 
-3.602381928261e-05 7.525688479598e-03 0.0 
0.0 0.0 -1.164316760544e-03 
-1.026823558190e-03 -3.127358117122e-04 0.0 
-3.127358117122e-04 5.188290229651e-03 0.0 
0.0 0.0 -7.878971455476e-04 
-9.790335059978e-04 6.764140397440e-04 0.0 
6.764140397440e-04 6.506573428341e-03 0.0 
0.0 0.0 -1.057196955382e-03 
-1.092783271967e-03 3.587775336083e-04 0.0 
3.587775336083e-04 6.543365283594e-03 0.0 
0.0 0.0 -9.877098122506e-04 
-1.155871143424e-03 -5.200772835953e-04 0.0 
-5.200772835953e-04 7.131963810306e-03 0.0 
0.0 0.0 -1.112977059762e-03 
-1.053791982519e-03 -5.418051239347e-04 0.0 
-5.418051239347e-04 6.849369446006e-03 0.0 
0.0 0.0 -1.093234982489e-03 
-8.344751970142e-04 -5.063632387036e-06 0.0 
-5.063632387036e-06 4.624983012521e-03 0.0 
0.0 0.0 -7.313513689239e-04 
-8.293658591313e-04 3.666703434100e-05 0.0 
3.666703434100e-05 4.623218336322e-03 0.0 
0.0 0.0 -7.310574395863e-04 
-1.097030069405e-03 1.613810298079e-04 0.0 
1.613810298079e-04 6.539696336596e-03 0.0 
0.0 0.0 -9.927888931629e-04 
-9.125545325387e-04 7.100995827850e-04 0.0 
7.100995827850e-04 6.060357295598e-03 0.0 
0.0 0.0 -9.930598132463e-04 
-9.889474269995e-04 -6.231936758992e-04 0.0 
-6.231936758992e-04 5.582412655685e-03 0.0 
0.0 0.0 -8.780428295617e-04 
-1.024071250989e-03 2.871939654452e-04 0.0 
2.871939654452e-04 6.293682207182e-03 0.0 
0.0 0.0 -9.775429604618e-04 
-6.061110354643e-04 7.542189021973e-04 0.0 
7.542189021973e-04 4.796279324774e-03 0.0 
0.0 0.0 -8.502279965035e-04 
-1.039665177067e-03 6.008961477257e-05 0.0 
6.008961477257e-05 7.149947818513e-03 0.0 
0.0 0.0 -1.180288150054e-03 
-3.419429553988e-04 7.892463912468e-04 0.0 
7.892463912468e-04 3.645374748844e-03 0.0 
0.0 0.0 -7.154845226688e-04 
-1.354053466570e-03 2.682798114320e-04 0.0 
2.682798114320e-04 9.013564030942e-03 0.0 
0.0 0.0 -1.323793839065e-03 
-9.392924140877e-04 3.695422570173e-04 0.0 
3.695422570173e-04 5.310514062737e-03 0.0 
0.0 0.0 -8.119939454945e-04 
-5.728660710208e-04 4.262528038404e-04 0.0 
4.262528038404e-04 4.737723853376e-03 0.0 
0.0 0.0 -8.199314282332e-04 
-8.958346709753e-04 -3.297015998196e-04 0.0 
-3.297015998196e-04 5.260659561238e-03 0.0 
0.0 0.0 -8.523954645778e-04 
2.690092700999e-04 2.909500152897e-04 0.0 
2.909500152897e-04 1.354854423747e-03 0.0 
0.0 0.0 -4.479040077299e-04 
-8.117880315537e-04 -8.289707142058e-04 0.0 
-8.289707142058e-04 4.623452632362e-03 0.0 
0.0 0.0 -7.551671247638e-04 
-8.525904846397e-04 7.508503903319e-04 0.0 
7.508503903319e-04 5.621343722007e-03 0.0 
0.0 0.0 -9.293281999836e-04 
-8.758111121474e-04 7.483431883641e-04 0.0 
7.483431883641e-04 5.371889788881e-03 0.0 
0.0 0.0 -8.738309435711e-04 
-1.092742745582e-03 3.915524889603e-04 0.0 
3.915524889603e-04 6.485907170089e-03 0.0 
0.0 0.0 -9.814596669550e-04 
-1.035952161766e-03 6.611052853446e-04 0.0 
6.611052853446e-04 6.380857888035e-03 0.0 
0.0 0.0 -1.008022096355e-03 
-1.077652724168e-03 2.805726221407e-04 0.0 
2.805726221407e-04 6.715783923999e-03 0.0 
0.0 0.0 -1.040850218070e-03 
-2.023974518503e-04 -1.321133762499e-04 0.0 
-1.321133762499e-04 1.384394093772e-03 0.0 
0.0 0.0 -2.163717569139e-04 
-7.893601242255e-04 -4.562798916239e-04 0.0 
-4.562798916239e-04 4.381521976835e-03 0.0 
0.0 0.0 -7.209013985657e-04 
-7.313998078972e-04 5.086544562021e-04 0.0 
5.086544562021e-04 4.197814066076e-03 0.0 
0.0 0.0 -6.825522065409e-04 
-1.028318523239e-03 6.006171887521e-04 0.0 
6.006171887521e-04 6.085692307244e-03 0.0 
0.0 0.0 -9.521954671713e-04 
-1.067646735267e-03 2.331910673829e-04 0.0 
2.331910673829e-04 6.426373394987e-03 0.0 
0.0 0.0 -9.850634846466e-04 
-9.716546386639e-04 2.965949022534e-04 0.0 
2.965949022534e-04 6.988702290933e-03 0.0 
0.0 0.0 -1.160108757481e-03 
-4.472950566148e-04 1.734158785359e-04 0.0 
1.734158785359e-04 1.999281221139e-03 0.0 
0.0 0.0 -3.273996513303e-04 
5.013762340144e-04 -1.239269767564e-03 0.0 
-1.239269767564e-03 2.218446430556e-04 0.0 
0.0 0.0 -3.099518044586e-04 
-7.265319955109e-04 8.390462931927e-04 0.0 
8.390462931927e-04 4.877510016991e-03 0.0 
0.0 0.0 -8.305977116616e-04 
-8.244303094237e-04 -8.036957222691e-04 0.0 
-8.036957222691e-04 4.446645084886e-03 0.0 
0.0 0.0 -7.181358556540e-04 
-8.207218427826e-04 3.111449193766e-07 0.0 
3.111449193766e-07 4.297525914166e-03 0.0 
0.0 0.0 -6.554599841463e-04 
-8.454650530547e-04 2.288116945552e-05 0.0 
2.288116945552e-05 4.550895634799e-03 0.0 
0.0 0.0 -6.889204951115e-04 
-1.102411452052e-03 3.661135033764e-05 0.0 
3.661135033764e-05 6.536305471285e-03 0.0 
0.0 0.0 -9.793492904611e-04 
1.401876311920e-04 1.457319982698e-03 0.0 
1.457319982698e-03 8.276000244946e-04 0.0 
0.0 0.0 -3.371109590423e-04 
-9.056307504124e-04 -3.219601326285e-04 0.0 
-3.219601326285e-04 5.073216074597e-03 0.0 
0.0 0.0 -8.154759146177e-04 
-8.139515461008e-04 -3.444279104295e-04 0.0 
-3.444279104295e-04 6.262709696181e-03 0.0 
0.0 0.0 -1.049209916622e-03 
5.784646720155e-04 -2.798136268851e-04 0.0 
-2.798136268851e-04 4.491531344292e-05 0.0 
0.0 0.0 -2.671628509107e-04 
-1.269607203850e-03 4.300111845681e-04 0.0 
4.300111845681e-04 8.005085435650e-03 0.0 
0.0 0.0 -1.285586381397e-03 
-1.234701409080e-03 4.026661623699e-05 0.0 
4.026661623699e-05 7.724712803764e-03 0.0 
0.0 0.0 -1.152455342817e-03 
-9.332307083252e-04 -6.317385210980e-04 0.0 
-6.317385210980e-04 4.943755293323e-03 0.0 
0.0 0.0 -7.756113943005e-04 
-1.132361128818e-03 -1.347962173953e-04 0.0 
-1.347962173953e-04 6.852501733015e-03 0.0 
0.0 0.0 -1.078722419643e-03 
-1.782286125890e-04 -3.440225614963e-05 0.0 
-3.440225614963e-05 7.356149739106e-04 0.0 
0.0 0.0 -1.797547709840e-04 
-7.836878423569e-04 -4.420353483476e-04 0.0 
-4.420353483476e-04 6.015976224596e-03 0.0 
0.0 0.0 -1.012471576362e-03 
-7.618878641414e-04 4.386001518409e-04 0.0 
4.386001518409e-04 5.252415903850e-03 0.0 
0.0 0.0 -8.634366945984e-04 
-1.365202202974e-04 -1.663937919944e-05 0.0 
-1.663937919944e-05 7.240163383166e-04 0.0 
0.0 0.0 -1.788519809851e-04 
-1.221296204116e-03 3.897303876191e-04 0.0 
3.897303876191e-04 7.675470665632e-03 0.0 
0.0 0.0 -1.154859126927e-03 
6.541694671517e-04 -5.838497479074e-04 0.0 
-5.838497479074e-04 -1.165985658389e-04 0.0 
0.0 0.0 -2.303875291341e-04 
-1.022773715161e-03 2.649419741860e-04 0.0 
2.649419741860e-04 6.147018606592e-03 0.0 
0.0 0.0 -9.496453321265e-04 
-8.501477431051e-04 4.017489682252e-04 0.0 
4.017489682252e-04 5.430956065029e-03 0.0 
0.0 0.0 -8.712718144564e-04 
-3.870813166907e-04 -6.841434598879e-04 0.0 
-6.841434598879e-04 4.009053170529e-03 0.0 
0.0 0.0 -7.519815330289e-04 
-7.080628147866e-04 -2.630245850535e-04 0.0 
-2.630245850535e-04 5.293137348391e-03 0.0 
0.0 0.0 -9.052548162676e-04 
-1.248469741651e-03 4.216386458729e-04 0.0 
4.216386458729e-04 7.872413297340e-03 0.0 
0.0 0.0 -1.182898372388e-03 
-7.959805508824e-04 -1.903636579771e-04 0.0 
-1.903636579771e-04 5.775075989453e-03 0.0 
0.0 0.0 -9.716005391689e-04 
-7.058567601375e-04 8.071090420181e-04 0.0 
8.071090420181e-04 4.993912000440e-03 0.0 
0.0 0.0 -8.581765416018e-04 
-6.834773769761e-04 4.720321187624e-04 0.0 
4.720321187624e-04 4.941232986507e-03 0.0 
0.0 0.0 -8.279616112546e-04 
1.200725464497e-05 4.997720012563e-04 0.0 
4.997720012563e-04 2.980647594779e-04 0.0 
0.0 0.0 -1.328880060527e-04 
5.267325684764e-04 -1.507976047628e-04 0.0 
-1.507976047628e-04 -1.515568147922e-04 0.0 
0.0 0.0 -1.607896087218e-04 
-1.031637425544e-03 2.938257107745e-04 0.0 
2.938257107745e-04 7.016823171402e-03 0.0 
0.0 0.0 -1.118331045454e-03 
-1.047581819557e-03 3.855603907834e-05 0.0 
3.855603907834e-05 6.024362043911e-03 0.0 
0.0 0.0 -9.085367473448e-04 
-1.068580773740e-03 6.289177231850e-04 0.0 
6.289177231850e-04 7.124997701846e-03 0.0 
0.0 0.0 -1.148691026115e-03 
-2.168784888490e-04 1.398227562360e-03 0.0 
1.398227562360e-03 2.112550911132e-03 0.0 
0.0 0.0 -4.942977111402e-04 
-1.176051745943e-03 5.435901405529e-04 0.0 
5.435901405529e-04 7.176283028080e-03 0.0 
0.0 0.0 -1.097950598811e-03 
-1.105546950119e-03 2.883637130323e-04 0.0 
2.883637130323e-04 7.335184708628e-03 0.0 
0.0 0.0 -1.155407764312e-03 
-8.481473499091e-04 3.802854440166e-04 0.0 
3.802854440166e-04 4.634623972028e-03 0.0 
0.0 0.0 -7.179420443741e-04 
-1.053414342459e-03 6.334862389143e-04 0.0 
6.334862389143e-04 6.950110385841e-03 0.0 
0.0 0.0 -1.120992621467e-03 
-1.150488405997e-03 -5.115596481821e-04 0.0 
-5.115596481821e-04 6.921289775542e-03 0.0 
0.0 0.0 -1.075946734593e-03 
-8.430169137080e-04 7.309466471044e-04 0.0 
7.309466471044e-04 5.750606817071e-03 0.0 
0.0 0.0 -9.571162043194e-04 
-8.407412319889e-04 -3.923326874810e-04 0.0 
-3.923326874810e-04 4.820090656330e-03 0.0 
0.0 0.0 -7.866383436874e-04 
-8.661293961769e-04 -7.636305903076e-04 0.0 
-7.636305903076e-04 5.068827859701e-03 0.0 
0.0 0.0 -8.209012074946e-04 
-1.276631957823e-03 1.351613779989e-04 0.0 
1.351613779989e-04 8.067600813718e-03 0.0 
0.0 0.0 -1.204704583718e-03 
-6.220699559740e-04 -3.467517458205e-04 0.0 
-3.467517458205e-04 4.812375804049e-03 0.0 
0.0 0.0 -8.396599866114e-04 
-8.640312315529e-04 7.564773801915e-04 0.0 
7.564773801915e-04 5.496513579944e-03 0.0 
0.0 0.0 -9.015555482168e-04 
-5.139647083066e-04 6.286602551559e-04 0.0 
6.286602551559e-04 4.638431100819e-03 0.0 
0.0 0.0 -8.433600309793e-04 
-8.878790724241e-04 -1.375747034556e-04 0.0 
-1.375747034556e-04 6.258870962336e-03 0.0 
0.0 0.0 -1.038364586984e-03 
-4.800211114771e-04 4.132947089942e-04 0.0 
4.132947089942e-04 4.403087062058e-03 0.0 
0.0 0.0 -7.842421616061e-04 
1.708764263770e-04 1.828302604937e-04 0.0 
1.828302604937e-04 1.696323968062e-03 0.0 
0.0 0.0 -5.065804551108e-04 
-4.825363659521e-04 1.845931219475e-05 0.0 
1.845931219475e-05 4.680497453253e-03 0.0 
0.0 0.0 -8.561803240471e-04 
8.082119994225e-05 4.790974331332e-04 0.0 
4.790974331332e-04 2.023860804843e-03 0.0 
0.0 0.0 -5.426160209679e-04 
-1.033438603377e-03 6.383788790857e-04 0.0 
6.383788790857e-04 6.235509335954e-03 0.0 
0.0 0.0 -9.799122972177e-04 
1.114946380246e-04 -1.909482610686e-04 0.0 
-1.909482610686e-04 2.113077183239e-03 0.0 
0.0 0.0 -5.399485503623e-04 
-9.706412986079e-04 3.184758127263e-04 0.0 
3.184758127263e-04 6.013389094156e-03 0.0 
0.0 0.0 -9.420580210740e-04 
-9.265946290547e-04 -4.225709154864e-05 0.0 
-4.225709154864e-05 6.885841307398e-03 0.0 
0.0 0.0 -1.130549445556e-03 
-8.685442447111e-04 3.124266913747e-04 0.0 
3.124266913747e-04 6.514082051094e-03 0.0 
0.0 0.0 -1.096529089934e-03 
-4.417150057457e-04 8.260625217284e-04 0.0 
8.260625217284e-04 3.995231427087e-03 0.0 
0.0 0.0 -7.512528815036e-04 
-1.059191105034e-03 4.065855107728e-04 0.0 
4.065855107728e-04 6.228287830528e-03 0.0 
0.0 0.0 -9.460253849645e-04 
-1.179141908394e-03 -9.694575707592e-05 0.0 
-9.694575707592e-05 7.087490944073e-03 0.0 
0.0 0.0 -1.107441567342e-03 
-1.193835214950e-03 -4.719824871619e-04 0.0 
-4.719824871619e-04 7.155436910273e-03 0.0 
0.0 0.0 -1.104747680386e-03 
1.944125303692e-04 1.273132647232e-03 0.0 
1.273132647232e-03 5.121470870520e-04 0.0 
0.0 0.0 -3.028112646091e-04 
-9.836336619932e-04 6.878362883605e-04 0.0 
6.878362883605e-04 6.089006481299e-03 0.0 
0.0 0.0 -9.724793438395e-04 
-1.268204156625e-03 7.721982515826e-06 0.0 
7.721982515826e-06 7.786698253164e-03 0.0 
0.0 0.0 -1.205818386895e-03 
-6.870681417228e-04 7.008927199053e-04 0.0 
7.008927199053e-04 3.265237971609e-03 0.0 
0.0 0.0 -5.357889572170e-04 
-9.885170178391e-04 -5.948066208015e-04 0.0 
-5.948066208015e-04 5.380783060798e-03 0.0 
0.0 0.0 -8.409532000723e-04 
-7.799555259594e-05 6.230825562270e-04 0.0 
6.230825562270e-04 5.570487652900e-04 0.0 
0.0 0.0 -2.053085197260e-04 
-1.219579480668e-03 -6.033820998881e-05 0.0 
-6.033820998881e-05 7.313003609483e-03 0.0 
0.0 0.0 -1.136235114959e-03 
2.012100085966e-04 5.845223729044e-04 0.0 
5.845223729044e-04 1.434306137738e-03 0.0 
0.0 0.0 -4.785631936960e-04 
-1.042459381450e-03 3.192310209748e-05 0.0 
3.192310209748e-05 5.237687487302e-03 0.0 
0.0 0.0 -8.166178341775e-04 
-7.748148319910e-04 5.841265057534e-04 0.0 
5.841265057534e-04 5.931280080680e-03 0.0 
0.0 0.0 -1.008721701990e-03 
-1.070450976463e-03 4.786712554870e-05 0.0 
4.786712554870e-05 6.281594191104e-03 0.0 
0.0 0.0 -9.438854677472e-04 
-1.019990029507e-03 4.017679917675e-04 0.0 
4.017679917675e-04 5.968797618871e-03 0.0 
0.0 0.0 -9.108073647307e-04 
-7.821076712380e-04 7.813500369489e-04 0.0 
7.813500369489e-04 5.311710917371e-03 0.0 
0.0 0.0 -8.936906232635e-04 
-7.622603984916e-04 6.791341036292e-05 0.0 
6.791341036292e-05 3.813852506224e-03 0.0 
0.0 0.0 -5.884905393267e-04 
-7.846644250761e-04 7.808219167046e-05 0.0 
7.808219167046e-05 4.065403212213e-03 0.0 
0.0 0.0 -6.218825813656e-04 
-1.233191643352e-03 -4.261165376934e-04 0.0 
-4.261165376934e-04 7.382821542764e-03 0.0 
0.0 0.0 -1.133400347077e-03 
-7.515727621129e-04 -6.277168771854e-04 0.0 
-6.277168771854e-04 5.560136738189e-03 0.0 
0.0 0.0 -9.394087121358e-04 
-4.848945124793e-04 -6.056685510147e-04 0.0 
-6.056685510147e-04 4.517787566476e-03 0.0 
0.0 0.0 -8.164864906097e-04 
-7.633590365807e-04 1.747203192895e-05 0.0 
1.747203192895e-05 5.952051370355e-03 0.0 
0.0 0.0 -1.014986374720e-03 
-3.745762426959e-04 -1.208773656876e-05 0.0 
-1.208773656876e-05 4.169816033916e-03 0.0 
0.0 0.0 -7.915105747055e-04 
1.470981817100e-04 1.699633256222e-04 0.0 
1.699633256222e-04 1.922517798804e-03 0.0 
0.0 0.0 -5.119962057136e-04 
-7.251559287553e-04 3.584185138835e-04 0.0 
3.584185138835e-04 3.747261506519e-03 0.0 
0.0 0.0 -5.908395828668e-04 
-9.989176313813e-04 5.279041160422e-05 0.0 
5.279041160422e-05 5.610761613461e-03 0.0 
0.0 0.0 -8.442294783838e-04 
-8.140722277822e-04 1.153536144127e-05 0.0 
1.153536144127e-05 4.902728731460e-03 0.0 
0.0 0.0 -7.121995050294e-04 
-8.606102061483e-04 -1.123280902614e-04 0.0 
-1.123280902614e-04 6.585165240131e-03 0.0 
0.0 0.0 -1.093598669875e-03 
-3.829181500835e-04 3.755711815579e-04 0.0 
3.755711815579e-04 4.064228922124e-03 0.0 
0.0 0.0 -7.486350631497e-04 
-1.089919498544e-03 4.032533245885e-04 0.0 
4.032533245885e-04 7.584210826506e-03 0.0 
0.0 0.0 -1.233571955743e-03 
-1.258849103109e-03 1.203645015164e-04 0.0 
1.203645015164e-04 7.318640773608e-03 0.0 
0.0 0.0 -1.121177773779e-03 
-4.277541990728e-04 -3.591296022275e-04 0.0 
-3.591296022275e-04 4.511429067315e-03 0.0 
0.0 0.0 -8.252461108756e-04 
-1.288851597356e-03 -4.658297080141e-04 0.0 
-4.658297080141e-04 8.043612715449e-03 0.0 
0.0 0.0 -1.241472629463e-03 
3.242839641495e-05 -4.968694073408e-04 0.0 
-4.968694073408e-04 2.366486634827e-03 0.0 
0.0 0.0 -5.682622744621e-04 
-1.077966235092e-03 4.739436140623e-04 0.0 
4.739436140623e-04 7.389804662751e-03 0.0 
0.0 0.0 -1.204482468497e-03 
-7.429375265798e-04 4.078626067565e-04 0.0 
4.078626067565e-04 5.376339153074e-03 0.0 
0.0 0.0 -8.910665706739e-04 
-8.382327257171e-04 6.914183336446e-04 0.0 
6.914183336446e-04 5.885419181804e-03 0.0 
0.0 0.0 -9.848034212815e-04 
-9.867962554531e-04 -3.515709155634e-04 0.0 
-3.515709155634e-04 7.009894236266e-03 0.0 
0.0 0.0 -1.146785027167e-03 
-6.480751664788e-04 -1.064130565160e-03 0.0 
-1.064130565160e-03 3.485571623010e-03 0.0 
0.0 0.0 -5.958228065582e-04 
-9.264979844569e-04 7.226480241174e-04 0.0 
7.226480241174e-04 5.798649245259e-03 0.0 
0.0 0.0 -9.369464185080e-04 
-3.976862535672e-04 -5.140984221878e-04 0.0 
-5.140984221878e-04 4.248707874465e-03 0.0 
0.0 0.0 -7.886172400246e-04 
-9.126908566727e-04 3.597233129020e-04 0.0 
3.597233129020e-04 5.721921232905e-03 0.0 
0.0 0.0 -9.065670216064e-04 
-2.413614743732e-04 9.207248143764e-04 0.0 
9.207248143764e-04 2.576101931259e-03 0.0 
0.0 0.0 -5.268093404353e-04 
-8.396821970539e-04 6.672060837292e-04 0.0 
6.672060837292e-04 6.048287273264e-03 0.0 
0.0 0.0 -1.013229387512e-03 
-3.452329379355e-04 -1.792312499866e-04 0.0 
-1.792312499866e-04 3.927967745038e-03 0.0 
0.0 0.0 -7.548706880268e-04 
-9.599399109740e-04 -2.677314431030e-04 0.0 
-2.677314431030e-04 5.510906117541e-03 0.0 
0.0 0.0 -8.810281692460e-04 
-9.326422123301e-04 7.027170698306e-04 0.0 
7.027170698306e-04 5.663041666324e-03 0.0 
0.0 0.0 -9.091416541300e-04 
1.310354464969e-04 5.651438564875e-04 0.0 
5.651438564875e-04 1.741573510573e-04 0.0 
0.0 0.0 -1.307969132375e-04 
-6.049604556670e-04 5.771719455814e-04 0.0 
5.771719455814e-04 5.135535656328e-03 0.0 
0.0 0.0 -9.082496170556e-04 
-8.264119998562e-05 1.037717303205e-03 0.0 
1.037717303205e-03 8.249845298322e-04 0.0 
0.0 0.0 -3.181471413628e-04 
-3.486990110529e-04 1.618131580725e-05 0.0 
1.618131580725e-05 1.379681923450e-03 0.0 
0.0 0.0 -2.410360834028e-04 
-9.637368636999e-04 -2.534336696837e-04 0.0 
-2.534336696837e-04 5.310722216845e-03 0.0 
0.0 0.0 -8.438072171805e-04 
-1.086820871417e-03 2.926579608564e-04 0.0 
2.926579608564e-04 7.015412211803e-03 0.0 
0.0 0.0 -1.098354823938e-03 
-1.049951667635e-03 4.416530287396e-04 0.0 
4.416530287396e-04 6.131491265693e-03 0.0 
0.0 0.0 -9.387552692590e-04 
-7.056421761476e-04 1.432307568262e-04 0.0 
1.432307568262e-04 3.346065552913e-03 0.0 
0.0 0.0 -5.215302833573e-04 
-1.342322198460e-03 3.183613232645e-04 0.0 
3.183613232645e-04 8.773669276182e-03 0.0 
0.0 0.0 -1.342322198460e-03 
3.836307119602e-05 1.777435835148e-04 0.0 
1.777435835148e-04 5.796280456300e-05 0.0 
0.0 0.0 -4.128251818244e-05 
-7.274210317143e-04 1.629360554579e-04 0.0 
1.629360554579e-04 3.588533030425e-03 0.0 
0.0 0.0 -5.549805679787e-04 
-5.340066039334e-04 -2.072389055199e-04 0.0 
-2.072389055199e-04 4.712236291548e-03 0.0 
0.0 0.0 -8.472740691906e-04 
-9.827474692013e-04 -5.565690633406e-04 0.0 
-5.565690633406e-04 5.178751046310e-03 0.0 
0.0 0.0 -8.042584860449e-04 
-8.272148132873e-04 2.043748305373e-04 0.0 
2.043748305373e-04 4.358943672927e-03 0.0 
0.0 0.0 -6.733236465360e-04 
-1.391682779442e-04 -5.660980208305e-04 0.0 
-5.660980208305e-04 2.708178146588e-03 0.0 
0.0 0.0 -5.908717820549e-04 
-6.655440375533e-04 -6.952663529849e-04 0.0 
-6.952663529849e-04 5.066823485387e-03 0.0 
0.0 0.0 -8.733819075714e-04 
-8.196031050189e-04 3.838546333042e-04 0.0 
3.838546333042e-04 5.685766128825e-03 0.0 
0.0 0.0 -9.266779469803e-04 
-6.990167424859e-04 5.271708541357e-04 0.0 
5.271708541357e-04 5.638282256463e-03 0.0 
0.0 0.0 -9.734188451722e-04 
-1.186630910785e-03 6.460835059358e-04 0.0 
6.460835059358e-04 7.362442267771e-03 0.0 
0.0 0.0 -1.144302277022e-03 
2.969246869216e-04 1.115918954902e-03 0.0 
1.115918954902e-03 3.039667145196e-04 0.0 
0.0 0.0 -2.575248863319e-04 
-9.117889324076e-04 -2.951149434616e-04 0.0 
-2.951149434616e-04 4.877432515646e-03 0.0 
0.0 0.0 -7.784793977761e-04 
-1.012208946591e-03 -1.496092469439e-04 0.0 
-1.496092469439e-04 5.343186025449e-03 0.0 
0.0 0.0 -8.356154970834e-04 
-6.331046465697e-04 -9.049418944168e-04 0.0 
-9.049418944168e-04 2.758073297942e-03 0.0 
0.0 0.0 -4.544023106810e-04 
-8.924169308788e-04 4.058945008041e-04 0.0 
4.058945008041e-04 4.880366770900e-03 0.0 
0.0 0.0 -7.518103749233e-04 
-1.063894881261e-03 9.071629636426e-05 0.0 
9.071629636426e-05 6.191505659791e-03 0.0 
0.0 0.0 -9.362314798257e-04 
-1.205869425098e-03 -2.261798490425e-04 0.0 
-2.261798490425e-04 6.678201842620e-03 0.0 
0.0 0.0 -1.023451880212e-03 
-7.015472354662e-05 -2.565736168466e-05 0.0 
-2.565736168466e-05 9.612203433626e-04 0.0 
0.0 0.0 -1.605242656235e-04 
0.0 0.0 0.0 
0.0 0.0 0.0 
0.0 0.0 0.0 
-5.147384921578e-04 -7.536249502610e-04 0.0 
-7.536249502610e-04 1.966691460963e-03 0.0 
0.0 0.0 -3.233707900025e-04 
-1.027484224102e-03 -4.836123400480e-04 0.0 
-4.836123400480e-04 5.407088060702e-03 0.0 
0.0 0.0 -8.330087554115e-04 
-8.882847245791e-05 -4.537970764089e-04 0.0 
-4.537970764089e-04 2.924964268328e-03 0.0 
0.0 0.0 -6.322020076307e-04 
-9.059460685547e-05 -9.981933794838e-04 0.0 
-9.981933794838e-04 2.441338825064e-03 0.0 
0.0 0.0 -5.605319560360e-04 
1.602068840710e-04 -5.380164516261e-04 0.0 
-5.380164516261e-04 1.784200169895e-03 0.0 
0.0 0.0 -5.041580933422e-04 
-1.016808142495e-03 -1.850132427343e-04 0.0 
-1.850132427343e-04 5.546831112907e-03 0.0 
0.0 0.0 -8.721335634590e-04 
-1.089492890547e-03 5.256596706488e-04 0.0 
5.256596706488e-04 6.464473810732e-03 0.0 
0.0 0.0 -9.956198530692e-04 
-1.055480845035e-03 -8.073487003007e-05 0.0 
-8.073487003007e-05 5.564073531230e-03 0.0 
0.0 0.0 -8.643287579461e-04 
-7.969352206199e-05 1.392070136612e-04 0.0 
1.392070136612e-04 2.839214225501e-03 0.0 
0.0 0.0 -6.348607296063e-04 
-9.652452647080e-04 3.246353242036e-04 0.0 
3.246353242036e-04 6.148089658116e-03 0.0 
0.0 0.0 -9.699423737970e-04 
-9.336187348190e-04 2.571357999357e-04 0.0 
2.571357999357e-04 5.466318221896e-03 0.0 
0.0 0.0 -8.236220363599e-04 
-8.699149514131e-04 5.427467141130e-04 0.0 
5.427467141130e-04 6.422709640429e-03 0.0 
0.0 0.0 -1.076197569190e-03 
-1.067019444508e-03 -4.166446150284e-04 0.0 
-4.166446150284e-04 5.628158977285e-03 0.0 
0.0 0.0 -8.617642947636e-04 
-1.037211549759e-03 -5.241557810677e-04 0.0 
-5.241557810677e-04 5.613837274242e-03 0.0 
0.0 0.0 -8.694825820363e-04 
-6.540642588821e-04 2.339053685670e-04 0.0 
2.339053685670e-04 2.854376740045e-03 0.0 
0.0 0.0 -4.548485160793e-04 
-1.830897456311e-04 -6.409178638984e-04 0.0 
-6.409178638984e-04 3.204685697947e-03 0.0 
0.0 0.0 -6.598952468721e-04 
-1.092100602406e-03 -1.853786207342e-05 0.0 
-1.853786207342e-05 5.772593500168e-03 0.0 
0.0 0.0 -8.930692851043e-04 
-1.055598751707e-03 1.761127934755e-04 0.0 
1.761127934755e-04 6.440216787672e-03 0.0 
0.0 0.0 -9.615701295831e-04 
-1.001453888758e-03 1.848581000640e-04 0.0 
1.848581000640e-04 6.057549413992e-03 0.0 
0.0 0.0 -8.972249362023e-04 
-6.770179440789e-04 2.249366581215e-04 0.0 
2.249366581215e-04 3.121369932688e-03 0.0 
0.0 0.0 -4.879487645214e-04 
-1.064022376908e-03 -1.167841295241e-04 0.0 
-1.167841295241e-04 5.775583557860e-03 0.0 
0.0 0.0 -9.007118478549e-04 
-2.859853618183e-04 -1.273336407491e-03 0.0 
-1.273336407491e-03 2.641008784054e-03 0.0 
0.0 0.0 -5.517684601482e-04 
-1.131468898778e-04 1.392096794452e-03 0.0 
1.392096794452e-03 1.091258670637e-03 0.0 
0.0 0.0 -4.029896332773e-04 
-1.047918758114e-03 7.340593604257e-05 0.0 
7.340593604257e-05 7.456724692606e-03 0.0 
0.0 0.0 -1.202908440308e-03 
-5.627131210403e-04 -6.726340984242e-04 0.0 
-6.726340984242e-04 1.683903901649e-03 0.0 
0.0 0.0 -3.052185142707e-04 
-3.169146226738e-04 -8.080615281722e-04 0.0 
-8.080615281722e-04 2.922160059008e-03 0.0 
0.0 0.0 -5.822209219963e-04 
-5.594905133051e-04 2.180548040984e-04 0.0 
2.180548040984e-04 5.015163126878e-03 0.0 
0.0 0.0 -8.766521650092e-04 
-6.622241155769e-04 4.063560181711e-04 0.0 
4.063560181711e-04 3.270370974807e-03 0.0 
0.0 0.0 -5.239962781855e-04 
-1.100749507766e-03 -3.563808608849e-04 0.0 
-3.563808608849e-04 5.849825024464e-03 0.0 
0.0 0.0 -8.905656347129e-04 
-5.985345031535e-04 -2.223177207573e-04 0.0 
-2.223177207573e-04 2.732572505037e-03 0.0 
0.0 0.0 -4.282508963332e-04 
-9.076266712889e-04 3.184539997901e-05 0.0 
3.184539997901e-05 5.036430824459e-03 0.0 
0.0 0.0 -7.823486082854e-04 
-1.081370140730e-03 -4.558826803401e-04 0.0 
-4.558826803401e-04 5.841011814907e-03 0.0 
0.0 0.0 -8.981647654366e-04 
-4.858836919803e-04 -7.457674947231e-04 0.0 
-7.457674947231e-04 4.297440458521e-03 0.0 
0.0 0.0 -7.800125773855e-04 
-9.348538294518e-04 -6.697112536075e-04 0.0 
-6.697112536075e-04 5.140798604724e-03 0.0 
0.0 0.0 -8.126672281948e-04 
8.703935028516e-05 1.690415104804e-04 0.0 
1.690415104804e-04 1.245018223099e-05 0.0 
0.0 0.0 -4.263837107835e-05 
-1.241448931941e-03 -1.835319642593e-04 0.0 
-1.835319642593e-04 7.812891284508e-03 0.0 
0.0 0.0 -1.152567315725e-03 
-3.081364130084e-04 -9.550871966768e-04 0.0 
-9.550871966768e-04 3.298658843063e-03 0.0 
0.0 0.0 -6.514572604261e-04 
-9.718772757445e-04 1.979502564842e-04 0.0 
1.979502564842e-04 7.009305473662e-03 0.0 
0.0 0.0 -1.154039482800e-03 
-8.056057162638e-04 2.987492427290e-04 0.0 
2.987492427290e-04 5.959106481257e-03 0.0 
0.0 0.0 -9.821191134873e-04 
-1.105426206004e-03 -5.038601752530e-05 0.0 
-5.038601752530e-05 5.994681172748e-03 0.0 
0.0 0.0 -9.293965016571e-04 
-1.119004413752e-03 -3.820015781438e-04 0.0 
-3.820015781438e-04 6.058753668650e-03 0.0 
0.0 0.0 -9.268654845074e-04 
-3.123142997184e-05 -1.167065523526e-04 0.0 
-1.167065523526e-04 2.573595127563e-03 0.0 
0.0 0.0 -5.989583036242e-04 
-3.157644098559e-04 -6.245110788433e-04 0.0 
-6.245110788433e-04 1.110181514534e-03 0.0 
0.0 0.0 -2.862240160649e-04 
8.762727446402e-05 1.506685699699e-04 0.0 
1.506685699699e-04 5.297682451366e-06 0.0 
0.0 0.0 -3.982498153517e-05 
-1.139236581336e-03 9.449893671701e-06 0.0 
9.449893671701e-06 6.206332100994e-03 0.0 
0.0 0.0 -9.583065114985e-04 
-9.895576341864e-04 5.422021304530e-05 0.0 
5.422021304530e-05 6.999392542925e-03 0.0 
0.0 0.0 -1.148056181429e-03 
-4.775145294270e-04 -1.288589848279e-03 0.0 
-1.288589848279e-03 2.885723426917e-03 0.0 
0.0 0.0 -5.426247857783e-04 
-9.796725008080e-04 7.000708170444e-04 0.0 
7.000708170444e-04 6.228639819323e-03 0.0 
0.0 0.0 -1.000702849114e-03 
-6.472337897981e-04 7.799664963271e-04 0.0 
7.799664963271e-04 2.970737159620e-03 0.0 
0.0 0.0 -5.002094317253e-04 
-1.024167741003e-03 2.983156923563e-04 0.0 
2.983156923563e-04 6.439902929080e-03 0.0 
0.0 0.0 -1.005614027492e-03 
-1.230125729383e-03 -1.791987086205e-04 0.0 
-1.791987086205e-04 8.178224384408e-03 0.0 
0.0 0.0 -1.266534580134e-03 
0.0 0.0 0.0 
0.0 0.0 0.0 
0.0 0.0 0.0 
-1.341620833825e-03 -1.240232465015e-06 0.0 
-1.240232465015e-06 8.838044206909e-03 0.0 
0.0 0.0 -1.341620833825e-03 
-1.340051318819e-03 -7.855236063614e-05 0.0 
-7.855236063614e-05 8.625114056382e-03 0.0 
0.0 0.0 -1.340051318819e-03 
-8.980163173550e-04 -1.960905146637e-04 0.0 
-1.960905146637e-04 5.236321733421e-03 0.0 
0.0 0.0 -7.955197795907e-04 
-4.661383092836e-04 -1.098309243055e-03 0.0 
-1.098309243055e-03 3.461471777819e-03 0.0 
0.0 0.0 -6.428246066218e-04 
-8.082931774475e-04 3.508972968720e-04 0.0 
3.508972968720e-04 5.820381814417e-03 0.0 
0.0 0.0 -9.543595451430e-04 
-1.549769366622e-05 -2.109424872969e-04 0.0 
-2.109424872969e-04 2.675607327827e-03 0.0 
0.0 0.0 -6.041149214933e-04 
-2.283359273976e-04 -2.821495717667e-04 0.0 
-2.821495717667e-04 1.216165341166e-03 0.0 
0.0 0.0 -2.095884814006e-04 
5.244130076391e-06 5.299579131201e-04 0.0 
5.299579131201e-04 3.292147719476e-04 0.0 
0.0 0.0 -1.433395294388e-04 
-1.275023357737e-03 -5.993191991654e-05 0.0 
-5.993191991654e-05 8.163058981243e-03 0.0 
0.0 0.0 -1.209499414335e-03 
-1.082712059579e-03 1.205245821570e-04 0.0 
1.205245821570e-04 6.373245931173e-03 0.0 
0.0 0.0 -9.648175333861e-04 
-9.046820331639e-04 -1.080196974860e-06 0.0 
-1.080196974860e-06 4.867817697865e-03 0.0 
0.0 0.0 -7.224789237173e-04 
-1.279272833011e-03 4.773478504551e-04 0.0 
4.773478504551e-04 8.632757308161e-03 0.0 
0.0 0.0 -1.323661129950e-03 
-4.995343539176e-04 -2.062360200378e-04 0.0 
-2.062360200378e-04 2.288215934898e-03 0.0 
0.0 0.0 -3.615704333793e-04 
-1.305160647697e-03 4.322097678811e-04 0.0 
4.322097678811e-04 8.590809380930e-03 0.0 
0.0 0.0 -1.324908485340e-03 
-1.072336849723e-03 4.894356542548e-04 0.0 
4.894356542548e-04 6.310526310337e-03 0.0 
0.0 0.0 -9.670422101491e-04 
-6.106684104583e-04 -1.077307355153e-03 0.0 
-1.077307355153e-03 3.630162810958e-03 0.0 
0.0 0.0 -6.336394413500e-04 
-7.688592567693e-04 7.436159055388e-04 0.0 
7.436159055388e-04 5.436722305107e-03 0.0 
0.0 0.0 -9.212972352143e-04 
-4.366727405360e-04 -7.825680509829e-04 0.0 
-7.825680509829e-04 3.244703639757e-03 0.0 
0.0 0.0 -6.094834619596e-04 
-3.265911223950e-04 1.405912834574e-03 0.0 
1.405912834574e-03 1.452640584362e-03 0.0 
0.0 0.0 -3.649795199019e-04 
-4.990879049153e-04 -8.274194353689e-04 0.0 
-8.274194353689e-04 3.123468955199e-03 0.0 
0.0 0.0 -5.728018649490e-04 
-1.102176339442e-03 5.667634332671e-04 0.0 
5.667634332671e-04 6.620528006741e-03 0.0 
0.0 0.0 -1.023749757194e-03 
-1.274902778913e-03 -3.210380531188e-04 0.0 
-3.210380531188e-04 7.572738005346e-03 0.0 
0.0 0.0 -1.155390781228e-03 
-2.640863970045e-04 -6.506791704026e-04 0.0 
-6.506791704026e-04 3.044637194059e-03 0.0 
0.0 0.0 -6.181853003094e-04 
-1.037039327620e-03 6.760843031957e-04 0.0 
6.760843031957e-04 6.523249431128e-03 0.0 
0.0 0.0 -1.036271578259e-03 
0.0 0.0 0.0 
0.0 0.0 0.0 
0.0 0.0 0.0 
-1.285700230911e-04 -3.245101064007e-04 0.0 
-3.245101064007e-04 2.885767451406e-03 0.0 
0.0 0.0 -6.266282162577e-04 
-1.167206438241e-03 1.283137067331e-04 0.0 
1.283137067331e-04 7.080432372571e-03 0.0 
0.0 0.0 -1.066385360782e-03 
-6.379492421497e-04 -6.916022810517e-04 0.0 
-6.916022810517e-04 3.261870100237e-03 0.0 
0.0 0.0 -5.616069800515e-04 
-5.397721604140e-04 -1.270380268010e-03 0.0 
-1.270380268010e-03 2.784654802048e-03 0.0 
0.0 0.0 -5.052880831394e-04 
-7.290893412698e-04 3.613081104682e-04 0.0 
3.613081104682e-04 5.503308908361e-03 0.0 
0.0 0.0 -9.187611816440e-04 
1.265644672670e-04 -1.340381834312e-03 0.0 
-1.340381834312e-03 6.478378418571e-04 0.0 
0.0 0.0 -3.318867039103e-04 
-6.343393029067e-04 4.127806247347e-04 0.0 
4.127806247347e-04 2.352701282119e-03 0.0 
0.0 0.0 -3.867203691650e-04 
-5.980790938116e-04 3.108972139281e-04 0.0 
3.108972139281e-04 2.666414110552e-03 0.0 
0.0 0.0 -4.195921675762e-04 
-6.113097074720e-04 -7.505403763561e-04 0.0 
-7.505403763561e-04 2.857444945758e-03 0.0 
0.0 0.0 -4.973376392308e-04 
-5.765164058635e-04 -6.636526940974e-04 0.0 
-6.636526940974e-04 4.795423287764e-03 0.0 
0.0 0.0 -8.444178005646e-04 
-5.181015510014e-04 7.402765764373e-04 0.0 
7.402765764373e-04 4.473477357902e-03 0.0 
0.0 0.0 -8.147327860212e-04 
-1.021689517365e-03 3.040232263138e-04 0.0 
3.040232263138e-04 6.577677469830e-03 0.0 
0.0 0.0 -1.033897369924e-03 
-1.251489828841e-03 5.632464710330e-04 0.0 
5.632464710330e-04 7.903464121438e-03 0.0 
0.0 0.0 -1.224260864640e-03 
-6.076375545199e-04 4.683737268985e-04 0.0 
4.683737268985e-04 2.798103792701e-03 0.0 
0.0 0.0 -4.570814260163e-04 
-1.106194698900e-03 -2.340999049272e-04 0.0 
-2.340999049272e-04 6.875726326228e-03 0.0 
0.0 0.0 -1.028620860735e-03 
-1.222609548103e-03 6.000551956434e-04 0.0 
6.000551956434e-04 7.771092725331e-03 0.0 
0.0 0.0 -1.228414553209e-03 
4.319177178305e-05 1.565747196534e-04 0.0 
1.565747196534e-04 2.280131923741e-03 0.0 
0.0 0.0 -5.707601703556e-04 
-5.280303941059e-05 1.110289152965e-03 0.0 
1.110289152965e-03 8.099165551708e-04 0.0 
0.0 0.0 -3.244772210401e-04 
-6.896815476543e-04 4.595022377507e-04 0.0 
4.595022377507e-04 3.325524470953e-03 0.0 
0.0 0.0 -5.330167430730e-04 
-5.818026759286e-04 -7.746098819789e-04 0.0 
-7.746098819789e-04 4.581482398683e-03 0.0 
0.0 0.0 -8.082977034869e-04 
-1.084938189841e-03 6.476212573913e-04 0.0 
6.476212573913e-04 6.662130643566e-03 0.0 
0.0 0.0 -1.043024347135e-03 
-5.304647567233e-04 -3.288241115645e-04 0.0 
-3.288241115645e-04 4.511932891327e-03 0.0 
0.0 0.0 -8.108276944599e-04 
3.467916788336e-04 9.922084021829e-04 0.0 
9.922084021829e-04 1.937891863132e-04 0.0 
0.0 0.0 -2.316775136343e-04 
-6.676153210682e-04 -5.990024928293e-04 0.0 
-5.990024928293e-04 5.284713461811e-03 0.0 
0.0 0.0 -9.096068616062e-04 
-5.138764303910e-04 1.344859878066e-03 0.0 
1.344859878066e-03 1.832201827426e-03 0.0 
0.0 0.0 -3.508512830963e-04 
-4.693960867252e-04 2.899164946168e-04 0.0 
2.899164946168e-04 4.538651858574e-03 0.0 
0.0 0.0 -8.123573650817e-04 
-6.214317139949e-04 -2.381023826960e-04 0.0 
-2.381023826960e-04 5.000123203670e-03 0.0 
0.0 0.0 -8.756097305517e-04 
-7.629475729046e-04 6.967977887081e-04 0.0 
6.967977887081e-04 5.582110193462e-03 0.0 
0.0 0.0 -9.491391837787e-04 
-1.021932421091e-03 -1.375086625343e-04 0.0 
-1.375086625343e-04 6.258245616270e-03 0.0 
0.0 0.0 -9.494079867578e-04 
-6.355506189440e-04 -1.022411834394e-03 0.0 
-1.022411834394e-03 2.931807144820e-03 0.0 
0.0 0.0 -4.933620968966e-04 
6.896550266056e-05 1.225367383845e-03 0.0 
1.225367383845e-03 6.646895526308e-04 0.0 
0.0 0.0 -3.144235951249e-04 
-7.142483767440e-04 -1.644248298722e-04 0.0 
-1.644248298722e-04 5.495494976155e-03 0.0 
0.0 0.0 -9.415329344942e-04 
-5.361770105980e-04 1.152355576541e-03 0.0 
1.152355576541e-03 2.110820043480e-03 0.0 
0.0 0.0 -3.857152600925e-04 
0.0 0.0 0.0 
0.0 0.0 0.0 
0.0 0.0 0.0 
-1.255338616422e-03 1.860461172355e-04 0.0 
1.860461172355e-04 8.124850663151e-03 0.0 
0.0 0.0 -1.223389224544e-03 
-1.207848204117e-03 2.029693107177e-04 0.0 
2.029693107177e-04 7.752368092309e-03 0.0 
0.0 0.0 -1.157435638217e-03 
-8.808053059829e-05 -1.336699866714e-04 0.0 
-1.336699866714e-04 3.185750404010e-04 0.0 
0.0 0.0 -9.878336134402e-05 
-7.608266853486e-04 -5.406000089435e-04 0.0 
-5.406000089435e-04 5.776368912984e-03 0.0 
0.0 0.0 -9.758309632658e-04 
-5.833464932258e-04 -8.365325477788e-04 0.0 
-8.365325477788e-04 2.366888082298e-03 0.0 
0.0 0.0 -3.887237773309e-04 
-6.380037561636e-04 -4.574933655184e-04 0.0 
-4.574933655184e-04 2.507620922393e-03 0.0 
0.0 0.0 -4.195855280820e-04 
-1.094549564148e-03 6.711957006790e-04 0.0 
6.711957006790e-04 6.969957179569e-03 0.0 
0.0 0.0 -1.100737838324e-03 
-7.238835271569e-04 2.949238833770e-04 0.0 
2.949238833770e-04 5.642634368299e-03 0.0 
0.0 0.0 -9.467522836136e-04 
-1.039311302789e-03 6.802059572137e-04 0.0 
6.802059572137e-04 6.671189751840e-03 0.0 
0.0 0.0 -1.064854740548e-03 
-1.894001647684e-04 -8.697409082608e-04 0.0 
-8.697409082608e-04 2.974808611893e-03 0.0 
0.0 0.0 -6.238888496032e-04 
-8.115909482746e-04 3.390698231069e-05 0.0 
3.390698231069e-05 4.912143948729e-03 0.0 
0.0 0.0 -7.105917616147e-04 
-1.280305692054e-03 -3.247592506175e-04 0.0 
-3.247592506175e-04 7.975043847607e-03 0.0 
0.0 0.0 -1.281538364137e-03 
-5.868717402319e-04 -4.057488537009e-04 0.0 
-4.057488537009e-04 2.082970857728e-03 0.0 
0.0 0.0 -3.541816848729e-04 
-9.117200011925e-04 -1.598675323878e-04 0.0 
-1.598675323878e-04 6.764763677517e-03 0.0 
0.0 0.0 -1.121221582973e-03 
-5.590520355925e-04 3.309762878068e-04 0.0 
3.309762878068e-04 4.865889443216e-03 0.0 
0.0 0.0 -8.477100451819e-04 
-3.408380194667e-04 8.413428919704e-05 0.0 
8.413428919704e-05 1.600517951916e-03 0.0 
0.0 0.0 -2.892354545592e-04 
-1.075499676593e-03 6.132508001275e-04 0.0 
6.132508001275e-04 6.500844839128e-03 0.0 
0.0 0.0 -1.015166614560e-03 
-1.491725305372e-04 -7.955548992598e-05 0.0 
-7.955548992598e-05 3.115280814632e-03 0.0 
0.0 0.0 -6.628028861993e-04 
-1.315718485168e-04 -5.908276789213e-04 0.0 
-5.908276789213e-04 6.660589264853e-04 0.0 
0.0 0.0 -2.290658905579e-04 
-1.579860261374e-05 -4.063804822263e-04 0.0 
-4.063804822263e-04 2.360331977056e-03 0.0 
0.0 0.0 -5.632129589051e-04 
-1.187081976134e-03 1.736903763000e-04 0.0 
1.736903763000e-04 6.532498131095e-03 0.0 
0.0 0.0 -9.915417172310e-04 
-1.109173126604e-03 2.020871397918e-04 0.0 
2.020871397918e-04 6.702082758585e-03 0.0 
0.0 0.0 -1.020980360542e-03 
-4.812617878824e-04 -1.026396368797e-03 0.0 
-1.026396368797e-03 1.558368541222e-03 0.0 
0.0 0.0 -2.729600395538e-04 
-1.020281891755e-03 -1.851201749546e-04 0.0 
-1.851201749546e-04 5.386783464776e-03 0.0 
0.0 0.0 -8.076288038732e-04 
-1.089791995769e-03 6.678096790371e-04 0.0 
6.678096790371e-04 6.824575659747e-03 0.0 
0.0 0.0 -1.071782534217e-03 
-9.193547229402e-04 1.602334611530e-04 0.0 
1.602334611530e-04 6.776867929495e-03 0.0 
0.0 0.0 -1.109893377180e-03 
-5.608358153244e-04 -8.240965468318e-04 0.0 
-8.240965468318e-04 2.993251789866e-03 0.0 
0.0 0.0 -5.351738145117e-04 
-6.136579298705e-04 1.191680586993e-04 0.0 
1.191680586993e-04 2.664357051373e-03 0.0 
0.0 0.0 -4.333934152438e-04 
-5.989414354874e-04 6.742429676008e-04 0.0 
6.742429676008e-04 4.956197001293e-03 0.0 
0.0 0.0 -8.786267582723e-04 
-1.011039081455e-03 -2.136688597495e-04 0.0 
-2.136688597495e-04 6.164847278727e-03 0.0 
0.0 0.0 -9.278975173457e-04 
-2.430528072630e-05 -7.015609586409e-04 0.0 
-7.015609586409e-04 4.939718425864e-04 0.0 
0.0 0.0 -2.012856693686e-04 
-1.258632814515e-03 5.164131841311e-04 0.0 
5.164131841311e-04 8.325970250847e-03 0.0 
0.0 0.0 -1.269179263065e-03 
-1.319279019144e-03 4.296204971761e-04 0.0 
4.296204971761e-04 8.281943168671e-03 0.0 
0.0 0.0 -1.281197857596e-03 
-9.262453737932e-04 -1.856372937015e-04 0.0 
-1.856372937015e-04 5.467657039050e-03 0.0 
0.0 0.0 -8.387747867703e-04 
-1.294839307706e-03 7.871963389555e-06 0.0 
7.871963389555e-06 8.477109428305e-03 0.0 
0.0 0.0 -1.255037608383e-03 
-1.299621148244e-03 5.434080431767e-04 0.0 
5.434080431767e-04 8.249757004039e-03 0.0 
0.0 0.0 -1.285499913836e-03 
-2.377664936208e-04 -4.540001535470e-04 0.0 
-4.540001535470e-04 3.213325829595e-03 0.0 
0.0 0.0 -6.542748834104e-04 
-3.508305791302e-04 -1.119634461832e-03 0.0 
-1.119634461832e-03 3.128022697751e-03 0.0 
0.0 0.0 -6.153450468602e-04 
-1.170236808513e-03 2.917458807147e-05 0.0 
2.917458807147e-05 8.079333353292e-03 0.0 
0.0 0.0 -1.265535665854e-03 
0.0 0.0 0.0 
0.0 0.0 0.0 
0.0 0.0 0.0 
-5.539334103609e-04 1.733294296074e-04 0.0 
1.733294296074e-04 2.467698966066e-03 0.0 
0.0 0.0 -3.941707820484e-04 
-1.082833857300e-03 1.553689403231e-04 0.0 
1.553689403231e-04 5.370486721227e-03 0.0 
0.0 0.0 -8.329475646481e-04 
-6.135075657535e-04 -1.124689673499e-03 0.0 
-1.124689673499e-03 3.074168344220e-03 0.0 
0.0 0.0 -5.313546330462e-04 
-1.846585695015e-04 -7.875180783751e-04 0.0 
-7.875180783751e-04 2.568069228426e-03 0.0 
0.0 0.0 -5.546931404481e-04 
-5.968432958156e-04 5.557088425757e-04 0.0 
5.557088425757e-04 1.865682370622e-03 0.0 
0.0 0.0 -3.196518454468e-04 
-5.899426228830e-04 4.711635003752e-04 0.0 
4.711635003752e-04 2.207717411959e-03 0.0 
0.0 0.0 -3.528063275151e-04 
-9.460265979009e-04 -8.557345978762e-05 0.0 
-8.557345978762e-05 5.600872725538e-03 0.0 
0.0 0.0 -8.290026594306e-04 
-7.188891017228e-05 -7.212145557604e-04 0.0 
-7.212145557604e-04 2.661537409605e-03 0.0 
0.0 0.0 -5.962921515785e-04 
-6.690915239770e-04 -9.469087844434e-06 0.0 
-9.469087844434e-06 2.860475934858e-03 0.0 
0.0 0.0 -4.583473518421e-04 
-9.261983765854e-04 6.205491161324e-04 0.0 
6.205491161324e-04 6.527766796007e-03 0.0 
0.0 0.0 -1.077832113627e-03 
-1.322048612324e-03 -3.324926188937e-04 0.0 
-3.324926188937e-04 8.713395146875e-03 0.0 
0.0 0.0 -1.324978758543e-03 
-1.338720177887e-03 -4.085669882089e-04 0.0 
-4.085669882089e-04 8.670321911685e-03 0.0 
0.0 0.0 -1.320624918399e-03 
-3.849795069765e-04 -6.739500110508e-04 0.0 
-6.739500110508e-04 3.380834248484e-03 0.0 
0.0 0.0 -6.457427040837e-04 
-9.004898588244e-04 1.911488629734e-04 0.0 
1.911488629734e-04 5.018763151201e-03 0.0 
0.0 0.0 -7.877541558771e-04 
0.0 0.0 0.0 
0.0 0.0 0.0 
0.0 0.0 0.0 
-4.359472798887e-04 6.731301800727e-04 0.0 
6.731301800727e-04 1.407239997486e-03 0.0 
0.0 0.0 -3.106513839132e-04 
2.755733972267e-04 -1.401203893809e-03 0.0 
-1.401203893809e-03 4.875020493235e-04 0.0 
0.0 0.0 -3.270323342358e-04 
-5.716509711487e-04 6.241427470327e-04 0.0 
6.241427470327e-04 1.685665452150e-03 0.0 
0.0 0.0 -2.953478464511e-04 
-6.435501651802e-04 2.617971966709e-04 0.0 
2.617971966709e-04 5.324938194352e-03 0.0 
0.0 0.0 -9.116044729693e-04 
-3.892042169670e-04 -9.156083068677e-04 0.0 
-9.156083068677e-04 2.815259890772e-03 0.0 
0.0 0.0 -5.459662534218e-04 
-2.243152923797e-04 -1.093841073510e-03 0.0 
-1.093841073510e-03 2.791137140625e-03 0.0 
0.0 0.0 -5.879858557453e-04 
2.757241657395e-04 -4.810032012259e-04 0.0 
-4.810032012259e-04 1.809007699405e-05 0.0 
0.0 0.0 -1.259203897429e-04 
-1.236651515782e-03 5.783317831820e-05 0.0 
5.783317831820e-05 7.720546241133e-03 0.0 
0.0 0.0 -1.176327079312e-03 
-4.101458141136e-04 -1.240391896891e-03 0.0 
-1.240391896891e-03 2.995120791313e-03 0.0 
0.0 0.0 -5.792774345575e-04 
-1.250725797448e-03 2.916941522596e-04 0.0 
2.916941522596e-04 8.087181627586e-03 0.0 
0.0 0.0 -1.212957849656e-03 
-1.169197980018e-03 -1.036807665068e-04 0.0 
-1.036807665068e-04 7.436974066249e-03 0.0 
0.0 0.0 -1.117460450001e-03 
-1.345176874521e-03 9.425392127595e-05 0.0 
9.425392127595e-05 9.101263988686e-03 0.0 
0.0 0.0 -1.319418651152e-03 
-1.362446196829e-03 -6.566602865703e-05 0.0 
-6.566602865703e-05 8.851718670119e-03 0.0 
0.0 0.0 -1.324849633189e-03 
-9.396876737499e-04 1.580696553299e-04 0.0 
1.580696553299e-04 5.609093298548e-03 0.0 
0.0 0.0 -8.315138651140e-04 
-5.177493296675e-04 -1.164892507562e-03 0.0 
-1.164892507562e-03 3.321630420665e-03 0.0 
0.0 0.0 -6.063493599946e-04 
-5.551169256275e-04 5.845973941815e-04 0.0 
5.845973941815e-04 2.336169535734e-03 0.0 
0.0 0.0 -3.884917441798e-04 
-5.432002518243e-04 -7.156839301842e-04 0.0 
-7.156839301842e-04 3.555258553905e-03 0.0 
0.0 0.0 -6.367902913543e-04 
-1.343328350294e-03 -3.038078432126e-04 0.0 
-3.038078432126e-04 8.521823212692e-03 0.0 
0.0 0.0 -1.343328350294e-03 
-1.737665181201e-04 6.795203959292e-04 0.0 
6.795203959292e-04 8.236163112489e-04 0.0 
0.0 0.0 -2.785070541980e-04 
-2.927518060600e-04 7.425303816206e-04 0.0 
7.425303816206e-04 1.136932491594e-03 0.0 
0.0 0.0 -3.329621070679e-04 
-9.737974110450e-04 -6.386389399083e-05 0.0 
-6.386389399083e-05 7.060307194164e-03 0.0 
0.0 0.0 -1.156027955174e-03 
-8.805235058694e-04 6.847913926848e-05 0.0 
6.847913926848e-05 5.301659598337e-03 0.0 
0.0 0.0 -7.715229432315e-04 
-1.258879221168e-03 2.678324544629e-04 0.0 
2.678324544629e-04 8.150871359494e-03 0.0 
0.0 0.0 -1.219279742240e-03 
-1.080906081071e-03 2.827660258438e-04 0.0 
2.827660258438e-04 6.867060617251e-03 0.0 
0.0 0.0 -1.069611963270e-03 
-1.039924564934e-03 5.350617449269e-04 0.0 
5.350617449269e-04 7.190727662860e-03 0.0 
0.0 0.0 -1.175036385391e-03 
-1.173553033698e-03 2.219944962555e-04 0.0 
2.219944962555e-04 7.297927893888e-03 0.0 
0.0 0.0 -1.113576918908e-03 
-9.402009665324e-04 2.044311077690e-04 0.0 
2.044311077690e-04 5.536177417769e-03 0.0 
0.0 0.0 -8.542750875040e-04 
-5.858259911149e-04 -1.171742995146e-03 0.0 
-1.171742995146e-03 2.676462786012e-03 0.0 
0.0 0.0 -4.674384380614e-04 
-5.422750806607e-04 -8.975033256362e-04 0.0 
-8.975033256362e-04 2.600446559473e-03 0.0 
0.0 0.0 -4.715697005044e-04 
-1.061085808578e-03 2.019693127978e-04 0.0 
2.019693127978e-04 6.591258911724e-03 0.0 
0.0 0.0 -9.963059934037e-04 
-9.926320276344e-04 1.396335034036e-04 0.0 
1.396335034036e-04 7.047433757094e-03 0.0 
0.0 0.0 -1.142506377625e-03 
-8.640826483478e-04 1.602683523403e-04 0.0 
1.602683523403e-04 4.592644147598e-03 0.0 
0.0 0.0 -7.345222264051e-04 
-8.659076808803e-04 1.600457319012e-05 0.0 
1.600457319012e-05 5.296211653200e-03 0.0 
0.0 0.0 -7.676068998053e-04 
-9.151607957151e-04 -5.089667725815e-05 0.0 
-5.089667725815e-05 5.629549572959e-03 0.0 
0.0 0.0 -8.242303029217e-04 
-9.674728246486e-04 -2.123760912739e-04 0.0 
-2.123760912739e-04 5.717004610309e-03 0.0 
0.0 0.0 -8.467401457521e-04 
3.499479768906e-04 -3.973954247046e-04 0.0 
-3.973954247046e-04 -4.658979670494e-05 0.0 
0.0 0.0 -1.300106486510e-04 
-5.930015542773e-04 -7.839114719970e-04 0.0 
-7.839114719970e-04 2.465147057737e-03 0.0 
0.0 0.0 -4.335179088089e-04 
-1.317738620986e-03 2.278366908206e-04 0.0 
2.278366908206e-04 8.695066743648e-03 0.0 
0.0 0.0 -1.269310366786e-03 
-1.008653577782e-03 -1.784318379198e-04 0.0 
-1.784318379198e-04 6.114212471042e-03 0.0 
0.0 0.0 -9.150577043801e-04 
-1.235075525051e-03 3.722470533434e-04 0.0 
3.722470533434e-04 8.051470811527e-03 0.0 
0.0 0.0 -1.295322057178e-03 
-1.262105533747e-03 2.927877395666e-04 0.0 
2.927877395666e-04 8.092325804024e-03 0.0 
0.0 0.0 -1.215577547940e-03 
-1.074267791218e-03 2.611694470269e-04 0.0 
2.611694470269e-04 6.569995446378e-03 0.0 
0.0 0.0 -1.012565562176e-03 
-1.287214307820e-03 9.354055678567e-05 0.0 
9.354055678567e-05 8.149418825250e-03 0.0 
0.0 0.0 -1.214907066889e-03 
-8.465721316982e-04 -1.105505135888e-04 0.0 
-1.105505135888e-04 3.950044235392e-03 0.0 
0.0 0.0 -6.304496659280e-04 
-8.228220456719e-04 -1.151102242294e-04 0.0 
-1.151102242294e-04 3.762441621980e-03 0.0 
0.0 0.0 -5.666856080635e-04 
-1.213791714024e-03 -1.499272758312e-04 0.0 
-1.499272758312e-04 7.648587280659e-03 0.0 
0.0 0.0 -1.226851238141e-03 
0.0 0.0 0.0 
0.0 0.0 0.0 
0.0 0.0 0.0 
-5.508530862849e-04 -1.035100482519e-04 0.0 
-1.035100482519e-04 2.701800587875e-03 0.0 
0.0 0.0 -4.071640756073e-04 
-1.342405754833e-03 4.276126013738e-04 0.0 
4.276126013738e-04 8.356626582993e-03 0.0 
0.0 0.0 -1.342405754833e-03 
-2.369285988354e-04 -1.770299306038e-04 0.0 
-1.770299306038e-04 1.161644229230e-03 0.0 
0.0 0.0 -2.265802816212e-04 
-8.772316900263e-04 3.022985570029e-05 0.0 
3.022985570029e-05 5.030285682320e-03 0.0 
0.0 0.0 -7.870118106326e-04 
-1.087488399424e-03 -9.544139039346e-05 0.0 
-9.544139039346e-05 7.678102904648e-03 0.0 
0.0 0.0 -1.213461936786e-03 
-2.217204533164e-04 -1.125363679953e-04 0.0 
-1.125363679953e-04 8.293133150009e-04 0.0 
0.0 0.0 -1.562362318669e-04 
1.575931452750e-04 -1.091415967636e-04 0.0 
-1.091415967636e-04 4.514811203493e-04 0.0 
0.0 0.0 -1.320567747312e-04 
-1.342371808075e-03 1.025686952786e-04 0.0 
1.025686952786e-04 9.039344740884e-03 0.0 
0.0 0.0 -1.324389858384e-03 
-8.327656305072e-04 1.141712868856e-04 0.0 
1.141712868856e-04 4.641243707897e-03 0.0 
0.0 0.0 -7.294542769151e-04 
-1.288909957265e-03 4.016661537540e-04 0.0 
4.016661537540e-04 8.513544320093e-03 0.0 
0.0 0.0 -1.261418349269e-03 
-1.134288891980e-03 5.741233190870e-05 0.0 
5.741233190870e-05 7.407101021319e-03 0.0 
0.0 0.0 -1.231858344535e-03 
-8.347679035328e-04 -3.570531223968e-05 0.0 
-3.570531223968e-05 4.629434413509e-03 0.0 
0.0 0.0 -7.289279708929e-04 
0.0 0.0 0.0 
0.0 0.0 0.0 
0.0 0.0 0.0 
-1.305379233758e-03 -6.071779487898e-05 0.0 
-6.071779487898e-05 8.461113597457e-03 0.0 
0.0 0.0 -1.284140717546e-03 
-3.100289480378e-04 -3.270232557407e-04 0.0 
-3.270232557407e-04 1.355870936008e-03 0.0 
0.0 0.0 -2.433545560381e-04 
-1.282233343865e-03 2.781824875359e-04 0.0 
2.781824875359e-04 8.180219452641e-03 0.0 
0.0 0.0 -1.232184317627e-03 
-1.343095105526e-03 -2.432827260553e-04 0.0 
-2.432827260553e-04 8.545412507579e-03 0.0 
0.0 0.0 -1.343095105526e-03 
-1.292199045367e-03 2.524866178233e-04 0.0 
2.524866178233e-04 8.014541847179e-03 0.0 
0.0 0.0 -1.225700354592e-03 
4.686342162084e-04 -7.265370554805e-04 0.0 
-7.265370554805e-04 5.162950173445e-06 0.0 
0.0 0.0 -2.030559284494e-04 
-9.540260339352e-04 1.631930893359e-04 0.0 
1.631930893359e-04 5.653552826698e-03 0.0 
0.0 0.0 -8.279144014868e-04 
-8.950557039055e-04 -2.748800359507e-04 0.0 
-2.748800359507e-04 4.199615522516e-03 0.0 
0.0 0.0 -6.271989868224e-04 
-8.983235361331e-04 1.933150702715e-04 0.0 
1.933150702715e-04 6.546966492063e-03 0.0 
0.0 0.0 -1.077599360682e-03 
-1.273669225217e-03 1.720409005563e-04 0.0 
1.720409005563e-04 8.518730660981e-03 0.0 
0.0 0.0 -1.326997735404e-03 
-1.142899871982e-03 1.477724546960e-04 0.0 
1.477724546960e-04 7.166026161736e-03 0.0 
0.0 0.0 -1.061614915164e-03 
-1.285004601792e-03 2.929428446180e-04 0.0 
2.929428446180e-04 8.490810498827e-03 0.0 
0.0 0.0 -1.325870641008e-03 
0.0 0.0 0.0 
0.0 0.0 0.0 
0.0 0.0 0.0 
-1.297780734717e-03 -4.166830862430e-04 0.0 
-4.166830862430e-04 8.366714279713e-03 0.0 
0.0 0.0 -1.277656510522e-03 
2.368160629241e-04 -1.409681499125e-03 0.0 
-1.409681499125e-03 7.013780298968e-04 0.0 
0.0 0.0 -3.431348957073e-04 
-2.589194545670e-04 3.821483992917e-05 0.0 
3.821483992917e-05 1.124631262589e-03 0.0 
0.0 0.0 -2.298118214877e-04 
-1.194197405020e-03 -2.475227437211e-04 0.0 
-2.475227437211e-04 8.105636908586e-03 0.0 
0.0 0.0 -1.270335377537e-03 
-1.315524425911e-03 2.690035540339e-04 0.0 
2.690035540339e-04 8.643806800304e-03 0.0 
0.0 0.0 -1.270603359501e-03 
-1.320702306464e-03 4.960564232440e-05 0.0 
4.960564232440e-05 8.625092567998e-03 0.0 
0.0 0.0 -1.289850838753e-03 
-8.753308640926e-04 2.257063470840e-04 0.0 
2.257063470840e-04 5.095730312348e-03 0.0 
0.0 0.0 -7.762633204682e-04 
-9.835570351374e-04 3.967893708127e-04 0.0 
3.967893708127e-04 5.483942639045e-03 0.0 
0.0 0.0 -8.489529362435e-04 
-3.868195665134e-04 1.249245404028e-03 0.0 
1.249245404028e-03 1.493087960549e-03 0.0 
0.0 0.0 -3.390228113434e-04 
-1.290611125717e-03 4.069284773612e-04 0.0 
4.069284773612e-04 8.488337706707e-03 0.0 
0.0 0.0 -1.273041473476e-03 
-7.431920671866e-04 3.360733235591e-05 0.0 
3.360733235591e-05 3.408921231342e-03 0.0 
0.0 0.0 -5.357483711987e-04 
2.011032744506e-04 7.720499985605e-04 0.0 
7.720499985605e-04 2.146802318038e-04 0.0 
0.0 0.0 -1.781929312519e-04 
-9.370458151346e-04 5.508245939114e-04 0.0 
5.508245939114e-04 6.747683680752e-03 0.0 
0.0 0.0 -1.110141529071e-03 
-8.032989009541e-04 -1.045980115988e-05 0.0 
-1.045980115988e-05 4.870464455063e-03 0.0 
0.0 0.0 -7.096328662732e-04 
-1.279256756890e-03 4.600607687250e-04 0.0 
4.600607687250e-04 8.175326591168e-03 0.0 
0.0 0.0 -1.237729719596e-03 
-1.329072194852e-03 -1.834247142824e-04 0.0 
-1.834247142824e-04 8.977472730193e-03 0.0 
0.0 0.0 -1.321509982054e-03 
-1.343732204276e-03 7.562212797618e-06 0.0 
7.562212797618e-06 8.849786333364e-03 0.0 
0.0 0.0 -1.343732204276e-03 
6.465688167897e-04 1.663781779480e-05 0.0 
1.663781779480e-05 -3.978289505741e-05 0.0 
0.0 0.0 -8.420285294201e-05 
3.868700612373e-04 3.921670605925e-05 0.0 
3.921670605925e-05 -6.204561696291e-05 0.0 
0.0 0.0 -1.378576441850e-04 
-8.247124983758e-04 -1.687178518224e-04 0.0 
-1.687178518224e-04 4.737962601015e-03 0.0 
0.0 0.0 -7.318233512793e-04 
-8.319071836255e-04 2.758419797137e-05 0.0 
2.758419797137e-05 4.882188569804e-03 0.0 
0.0 0.0 -7.096011290571e-04 
-1.343732204276e-03 -2.755821224564e-05 0.0 
-2.755821224564e-05 8.606219025581e-03 0.0 
0.0 0.0 -1.343732204276e-03 
-1.349068194300e-03 1.748780922349e-04 0.0 
1.748780922349e-04 8.742452044457e-03 0.0 
0.0 0.0 -1.321509982054e-03 
2.267983165528e-04 1.503551410355e-04 0.0 
1.503551410355e-04 3.801820683437e-04 0.0 
0.0 0.0 -1.379425883790e-04 
0.0 0.0 0.0 
0.0 0.0 0.0 
0.0 0.0 0.0 
-1.304839210467e-03 -7.091443056662e-05 0.0 
-7.091443056662e-05 7.889011230752e-03 0.0 
0.0 0.0 -1.230181737024e-03 
-1.133789878205e-03 6.963372694564e-04 0.0 
6.963372694564e-04 7.661762773916e-03 0.0 
0.0 0.0 -1.209364118140e-03 
-3.105423637276e-04 -2.525564358258e-04 0.0 
-2.525564358258e-04 1.694140784916e-03 0.0 
0.0 0.0 -2.712674790923e-04 
-1.264304018708e-03 -4.229761773583e-04 0.0 
-4.229761773583e-04 7.912894217144e-03 0.0 
0.0 0.0 -1.240191881334e-03 
-1.104648569634e-03 -8.128511201330e-05 0.0 
-8.128511201330e-05 5.687324916732e-03 0.0 
0.0 0.0 -8.888375990210e-04 
-1.026907705388e-03 -2.214158958103e-04 0.0 
-2.214158958103e-04 5.060294452777e-03 0.0 
0.0 0.0 -7.610796297342e-04 
-1.050200639505e-03 1.276309243533e-04 0.0 
1.276309243533e-04 6.471471583772e-03 0.0 
0.0 0.0 -9.400782610458e-04 
-2.965318753647e-05 -1.331164902240e-03 0.0 
-1.331164902240e-03 9.056852696167e-04 0.0 
0.0 0.0 -3.754423208915e-04 
-8.088866268099e-04 2.301224893319e-04 0.0 
2.301224893319e-04 6.098327421906e-03 0.0 
0.0 0.0 -1.011657465016e-03 
-2.272445053013e-04 -9.535102935050e-05 0.0 
-9.535102935050e-05 1.388764162386e-03 0.0 
0.0 0.0 -2.181484037039e-04 
-9.136007493904e-04 -3.789003197154e-04 0.0 
-3.789003197154e-04 4.494388172482e-03 0.0 
0.0 0.0 -6.997415131527e-04 
-1.249092671204e-03 5.668738205519e-04 0.0 
5.668738205519e-04 7.979681115669e-03 0.0 
0.0 0.0 -1.240519096027e-03 
-1.238391952882e-03 -2.103174549131e-04 0.0 
-2.103174549131e-04 8.038627661496e-03 0.0 
0.0 0.0 -1.191726112421e-03 
-9.811853638777e-04 4.571159586099e-05 0.0 
4.571159586099e-05 4.872542694396e-03 0.0 
0.0 0.0 -7.690942022927e-04 
-9.767560317632e-04 -1.705867274286e-04 0.0 
-1.705867274286e-04 5.944945665690e-03 0.0 
0.0 0.0 -8.745659502648e-04 
-1.201104368766e-03 5.803220864547e-04 0.0 
5.803220864547e-04 7.939240582663e-03 0.0 
0.0 0.0 -1.217119345310e-03 
-1.179845702415e-03 2.452002266232e-04 0.0 
2.452002266232e-04 7.438662012216e-03 0.0 
0.0 0.0 -1.140944809982e-03 
-1.127959464392e-03 2.474309966313e-04 0.0 
2.474309966313e-04 7.001139959042e-03 0.0 
0.0 0.0 -1.076426999079e-03 
-8.393109454079e-04 2.446878724435e-05 0.0 
2.446878724435e-05 4.620539471492e-03 0.0 
0.0 0.0 -7.312123441678e-04 
-7.325714353874e-04 1.943037271299e-04 0.0 
1.943037271299e-04 5.805049329063e-03 0.0 
0.0 0.0 -9.763781674015e-04 
-1.278424948200e-03 4.732838707970e-04 0.0 
4.732838707970e-04 8.049805466019e-03 0.0 
0.0 0.0 -1.231404929774e-03 
-6.063671140810e-04 1.348850002822e-06 0.0 
1.348850002822e-06 2.558361798436e-03 0.0 
0.0 0.0 -4.167967844001e-04 
-7.171547725390e-05 -2.177777186911e-04 0.0 
-2.177777186911e-04 5.764019490181e-04 0.0 
0.0 0.0 -1.015157820784e-04 
-1.170824655935e-03 3.363594053323e-04 0.0 
3.363594053323e-04 7.539332247117e-03 0.0 
0.0 0.0 -1.185975225609e-03 
-9.133715629689e-04 2.312110862865e-04 0.0 
2.312110862865e-04 6.719277881344e-03 0.0 
0.0 0.0 -1.123538223191e-03 
1.132049243546e-04 -1.050372997865e-03 0.0 
-1.050372997865e-03 4.871548077874e-04 0.0 
0.0 0.0 -2.572970280609e-04 
-1.081558890546e-03 -1.399243451463e-04 0.0 
-1.399243451463e-04 6.772240372319e-03 0.0 
0.0 0.0 -9.893338170986e-04 
-1.329126769976e-03 -2.338155039388e-04 0.0 
-2.338155039388e-04 8.188960966632e-03 0.0 
0.0 0.0 -1.282739585886e-03 
-1.129882241773e-03 5.744296922873e-04 0.0 
5.744296922873e-04 7.355375345581e-03 0.0 
0.0 0.0 -1.182073443778e-03 
-1.178192896547e-03 4.553534655183e-04 0.0 
4.553534655183e-04 7.891430484162e-03 0.0 
0.0 0.0 -1.215129606110e-03 
-1.157436434489e-03 -2.420799146488e-04 0.0 
-2.420799146488e-04 6.201441230335e-03 0.0 
0.0 0.0 -9.537126495859e-04 
0.0 0.0 0.0 
0.0 0.0 0.0 
0.0 0.0 0.0 
-5.231800249051e-04 6.591753538455e-04 0.0 
6.591753538455e-04 1.847843507099e-03 0.0 
0.0 0.0 -3.212443691966e-04 
-5.564787132596e-04 8.940027195274e-04 0.0 
8.940027195274e-04 2.137708509351e-03 0.0 
0.0 0.0 -3.834349432650e-04 
-9.473774776597e-04 1.764703939582e-04 0.0 
1.764703939582e-04 5.384019631323e-03 0.0 
0.0 0.0 -8.471429939415e-04 
-7.614839710960e-04 6.584444641784e-04 0.0 
6.584444641784e-04 5.752238999582e-03 0.0 
0.0 0.0 -9.781602908260e-04 
-1.285624241878e-03 -4.326792981855e-05 0.0 
-4.326792981855e-05 8.288168648148e-03 0.0 
0.0 0.0 -1.236541257690e-03 
-1.217308294029e-03 1.640866066604e-04 0.0 
1.640866066604e-04 7.793774931469e-03 0.0 
0.0 0.0 -1.282325209426e-03 
-8.954075940437e-05 -8.680076304404e-04 0.0 
-8.680076304404e-04 7.337139848585e-04 0.0 
0.0 0.0 -2.760742394804e-04 
-3.009716750380e-04 -4.715458723185e-04 0.0 
-4.715458723185e-04 9.308600569539e-04 0.0 
0.0 0.0 -1.704796444516e-04 
-4.318023328758e-04 9.056222759074e-04 0.0 
9.056222759074e-04 1.421929475039e-03 0.0 
0.0 0.0 -2.747970858071e-04 
-1.085049996288e-03 3.161557202625e-04 0.0 
3.161557202625e-04 6.749947888276e-03 0.0 
0.0 0.0 -1.019242131223e-03 
-7.105673598930e-04 -3.560858813606e-04 0.0 
-3.560858813606e-04 3.243394900527e-03 0.0 
0.0 0.0 -4.953283059016e-04 
-1.294058250345e-03 1.194991635526e-04 0.0 
1.194991635526e-04 8.278027413572e-03 0.0 
0.0 0.0 -1.241298427557e-03 
-2.801916649698e-04 -2.169380665087e-04 0.0 
-2.169380665087e-04 1.598671665654e-03 0.0 
0.0 0.0 -2.623907620756e-04 
-1.097220766083e-03 2.014729423047e-04 0.0 
2.014729423047e-04 7.397517373048e-03 0.0 
0.0 0.0 -1.221152601860e-03 
-9.286181991470e-04 2.455314232276e-04 0.0 
2.455314232276e-04 5.488935049062e-03 0.0 
0.0 0.0 -8.343732341398e-04 
-1.223283272536e-03 3.593359299497e-04 0.0 
3.593359299497e-04 7.932879470025e-03 0.0 
0.0 0.0 -1.286815605725e-03 
-9.712654839318e-04 1.866157351704e-04 0.0 
1.866157351704e-04 6.891208363551e-03 0.0 
0.0 0.0 -1.111121968474e-03 
-9.581999826764e-04 8.182036761545e-05 0.0 
8.182036761545e-05 5.388937206970e-03 0.0 
0.0 0.0 -8.465141837044e-04 
-1.209961591988e-03 -2.976225161964e-04 0.0 
-2.976225161964e-04 8.170684166123e-03 0.0 
0.0 0.0 -1.269142588751e-03 
-1.323046623582e-03 3.793136222843e-04 0.0 
3.793136222843e-04 8.658663539059e-03 0.0 
0.0 0.0 -1.272727265576e-03 
-1.289749640490e-03 9.124365830308e-05 0.0 
9.124365830308e-05 8.709454540694e-03 0.0 
0.0 0.0 -1.271339345674e-03 
-1.626085801218e-04 8.571684415748e-04 0.0 
8.571684415748e-04 8.875192706734e-04 0.0 
0.0 0.0 -3.044868356389e-04 
-1.267095409920e-03 4.070899744542e-04 0.0 
4.070899744542e-04 8.089876134210e-03 0.0 
0.0 0.0 -1.218309553141e-03 
-1.282164121305e-03 5.174305312528e-04 0.0 
5.174305312528e-04 8.083053308233e-03 0.0 
0.0 0.0 -1.286645293131e-03 
-1.059215435768e-03 -2.009543418023e-05 0.0 
-2.009543418023e-05 7.573607372665e-03 0.0 
0.0 0.0 -1.211735819529e-03 
-9.987418032593e-04 6.142229130813e-04 0.0 
6.142229130813e-04 6.982246170553e-03 0.0 
0.0 0.0 -1.143254064081e-03 
-1.342665167303e-03 -2.857461739196e-04 0.0 
-2.857461739196e-04 8.440143907241e-03 0.0 
0.0 0.0 -1.342665167303e-03 
-1.126760089934e-03 6.437426727216e-04 0.0 
6.437426727216e-04 6.937086787485e-03 0.0 
0.0 0.0 -1.079065255302e-03 
0.0 0.0 0.0 
0.0 0.0 0.0 
0.0 0.0 0.0 
6.191816026709e-05 1.291205818517e-03 0.0 
1.291205818517e-03 7.179353342320e-04 0.0 
0.0 0.0 -3.342229262139e-04 
-1.235056862706e-03 2.777301788060e-04 0.0 
2.777301788060e-04 7.736779237008e-03 0.0 
0.0 0.0 -1.176936364471e-03 
-9.923017078165e-04 3.078956919309e-04 0.0 
3.078956919309e-04 5.849121224287e-03 0.0 
0.0 0.0 -8.884613587993e-04 
-1.298948170332e-03 -3.124306146209e-04 0.0 
-3.124306146209e-04 7.977511740223e-03 0.0 
0.0 0.0 -1.221994126432e-03 
-1.061095181676e-03 1.799058826279e-04 0.0 
1.799058826279e-04 7.334426391334e-03 0.0 
0.0 0.0 -1.177009544428e-03 
-1.289141827740e-03 -3.383964038360e-04 0.0 
-3.383964038360e-04 8.125835853115e-03 0.0 
0.0 0.0 -1.292249833993e-03 
-1.132172011691e-03 2.813138638496e-04 0.0 
2.813138638496e-04 7.272270790879e-03 0.0 
0.0 0.0 -1.085521458831e-03 
-1.247617681667e-03 2.986308671608e-04 0.0 
2.986308671608e-04 7.907076372021e-03 0.0 
0.0 0.0 -1.288973456333e-03 
-1.183175849056e-03 -4.290305750124e-04 0.0 
-4.290305750124e-04 7.735436170610e-03 0.0 
0.0 0.0 -1.233322439334e-03 
-1.175389870133e-03 -8.154118169286e-05 0.0 
-8.154118169286e-05 7.695545006504e-03 0.0 
0.0 0.0 -1.235043566395e-03 
-7.287005066558e-04 -2.363504694994e-04 0.0 
-2.363504694994e-04 3.412626924282e-03 0.0 
0.0 0.0 -5.104964012366e-04 
-1.311532395302e-03 -3.318821641935e-04 0.0 
-3.318821641935e-04 8.754426494470e-03 0.0 
0.0 0.0 -1.325641941534e-03 
-8.790480836699e-04 9.973280973964e-05 0.0 
9.973280973964e-05 5.256747279211e-03 0.0 
0.0 0.0 -7.662153309038e-04 
-1.249481013832e-03 -1.180321759362e-04 0.0 
-1.180321759362e-04 8.200814515591e-03 0.0 
0.0 0.0 -1.217406395242e-03 
-1.652940304057e-04 -5.197313760388e-04 0.0 
-5.197313760388e-04 7.163944105236e-04 0.0 
0.0 0.0 -2.361858771934e-04 
-1.199456095747e-03 -9.281141696113e-05 0.0 
-9.281141696113e-05 7.932283218576e-03 0.0 
0.0 0.0 -1.163202487293e-03 
-1.073812189916e-03 1.019150907596e-06 0.0 
1.019150907596e-06 6.842466406292e-03 0.0 
0.0 0.0 -9.926133712568e-04 
-8.677292434787e-05 -7.776541442063e-05 0.0 
-7.776541442063e-05 9.098025117225e-04 0.0 
0.0 0.0 -1.628620303624e-04 
5.265410319422e-04 -6.941530982861e-04 0.0 
-6.941530982861e-04 -3.231659341297e-05 0.0 
0.0 0.0 -2.118104736554e-04 
-1.137863848184e-03 6.727746037847e-04 0.0 
6.727746037847e-04 7.103743294949e-03 0.0 
0.0 0.0 -1.107581195644e-03 
-1.316054950297e-03 1.463718814179e-04 0.0 
1.463718814179e-04 8.450854861123e-03 0.0 
0.0 0.0 -1.285368862661e-03 
-1.275071184009e-03 -1.337709164893e-04 0.0 
-1.337709164893e-04 8.307471815085e-03 0.0 
0.0 0.0 -1.223917301752e-03 
-1.160153297854e-03 5.261040585439e-04 0.0 
5.261040585439e-04 7.939180437512e-03 0.0 
0.0 0.0 -1.264779455601e-03 
-9.786681000752e-04 2.797069543092e-04 0.0 
2.797069543092e-04 5.828399650514e-03 0.0 
0.0 0.0 -8.807565902733e-04 
6.088519586403e-05 -4.917250620978e-05 0.0 
-4.917250620978e-05 4.869793999348e-04 0.0 
0.0 0.0 -1.094929743475e-04 
6.111566355022e-05 5.640636810902e-05 0.0 
5.640636810902e-05 -1.157323767526e-05 0.0 
0.0 0.0 -2.123246823213e-05 
-1.420251948107e-04 8.764175524857e-05 0.0 
8.764175524857e-05 4.773240057954e-04 0.0 
0.0 0.0 -1.256389127973e-04 
-3.632499277279e-04 -7.837444408696e-04 0.0 
-7.837444408696e-04 1.194209396961e-03 0.0 
0.0 0.0 -2.225718436208e-04 
0.0 0.0 0.0 
0.0 0.0 0.0 
0.0 0.0 0.0 
-8.980038842560e-04 -6.868916122841e-05 0.0 
-6.868916122841e-05 4.504377363934e-03 0.0 
0.0 0.0 -6.753304527203e-04 
-1.294165048711e-03 6.161991819009e-05 0.0 
6.161991819009e-05 7.969168976077e-03 0.0 
0.0 0.0 -1.222305993939e-03 
-1.264474650052e-03 5.734696938905e-04 0.0 
5.734696938905e-04 8.077312517039e-03 0.0 
0.0 0.0 -1.222833113937e-03 
-1.006464770387e-03 3.394189907579e-05 0.0 
3.394189907579e-05 5.834781281692e-03 0.0 
0.0 0.0 -8.826313165011e-04 
-8.266334947460e-04 -5.354606523691e-04 0.0 
-5.354606523691e-04 3.869366937566e-03 0.0 
0.0 0.0 -5.988529843847e-04 
-1.198642937147e-03 -4.684662880526e-04 0.0 
-4.684662880526e-04 7.783754842457e-03 0.0 
0.0 0.0 -1.221067908166e-03 
-1.068035990990e-03 1.115403335333e-04 0.0 
1.115403335333e-04 7.531635864011e-03 0.0 
0.0 0.0 -1.208702654310e-03 
-1.208049507468e-03 4.869249044164e-04 0.0 
4.869249044164e-04 8.191633662499e-03 0.0 
0.0 0.0 -1.272252409145e-03 
-1.227816291176e-03 4.361504529360e-04 0.0 
4.361504529360e-04 7.755209047765e-03 0.0 
0.0 0.0 -1.237422270938e-03 
-1.191139084829e-03 6.619264216725e-04 0.0 
6.619264216725e-04 7.533865048847e-03 0.0 
0.0 0.0 -1.171232062679e-03 
-1.920899935495e-04 -3.005289282688e-04 0.0 
-3.005289282688e-04 6.978999469600e-04 0.0 
0.0 0.0 -2.167756943188e-04 
0.0 0.0 0.0 
0.0 0.0 0.0 
0.0 0.0 0.0 
-1.308655472056e-03 -3.526594848147e-04 0.0 
-3.526594848147e-04 8.026041467974e-03 0.0 
0.0 0.0 -1.223662873675e-03 
-1.521155326843e-04 1.616990335056e-05 0.0 
1.616990335056e-05 7.009749630609e-04 0.0 
0.0 0.0 -1.761523314621e-04 
-1.768246005743e-04 2.416090922495e-04 0.0 
2.416090922495e-04 1.018026141244e-03 0.0 
0.0 0.0 -1.933333333332e-04 
1.266269026244e-04 4.459901967828e-04 0.0 
4.459901967828e-04 1.149333659383e-04 0.0 
0.0 0.0 -1.035258293840e-04 
-1.677849962930e-04 -2.830770546558e-04 0.0 
-2.830770546558e-04 8.015651116380e-04 0.0 
0.0 0.0 -1.580296812506e-04 
-1.271854076500e-03 -2.557043152436e-04 0.0 
-2.557043152436e-04 7.945254530657e-03 0.0 
0.0 0.0 -1.288571152055e-03 
-1.306788030849e-03 4.109202426763e-04 0.0 
4.109202426763e-04 8.216249132470e-03 0.0 
0.0 0.0 -1.290113636706e-03 
-1.294468783320e-03 3.035835675296e-04 0.0 
3.035835675296e-04 8.293038568859e-03 0.0 
0.0 0.0 -1.236907757659e-03 
-1.272697522653e-03 4.000546130429e-04 0.0 
4.000546130429e-04 7.992915461605e-03 0.0 
0.0 0.0 -1.292605224168e-03 
-1.039048517881e-03 -2.511628389219e-04 0.0 
-2.511628389219e-04 7.217306455236e-03 0.0 
0.0 0.0 -1.176879138244e-03 
-9.963056410622e-04 2.982297539881e-04 0.0 
2.982297539881e-04 6.108837095234e-03 0.0 
0.0 0.0 -9.170130443517e-04 
-1.345069444888e-03 2.094806773474e-04 0.0 
2.094806773474e-04 8.819921791921e-03 0.0 
0.0 0.0 -1.345069444888e-03 
1.552293122710e-04 -1.587596842018e-03 0.0 
-1.587596842018e-03 7.594496357434e-04 0.0 
0.0 0.0 -3.920052634347e-04 
-7.958568066072e-04 2.655126968941e-05 0.0 
2.655126968941e-05 4.862635053177e-03 0.0 
0.0 0.0 -7.083073883397e-04 
-3.709027017310e-05 -1.154290083415e-03 0.0 
-1.154290083415e-03 8.071251517729e-04 0.0 
0.0 0.0 -3.300149492570e-04 
-8.078687300304e-05 2.766710122456e-05 0.0 
2.766710122456e-05 2.705585081320e-04 0.0 
0.0 0.0 -8.133070076957e-05 
-1.328088305276e-03 -2.091716352919e-04 0.0 
-2.091716352919e-04 8.801339781229e-03 0.0 
0.0 0.0 -1.323850096553e-03 
-9.077000763770e-04 9.794404475146e-05 0.0 
9.794404475146e-05 5.306610706151e-03 0.0 
0.0 0.0 -7.731261162940e-04 
-1.693805322071e-04 -2.625883935893e-05 0.0 
-2.625883935893e-05 1.305243597625e-03 0.0 
0.0 0.0 -2.115341463249e-04 
-9.189085389785e-04 8.964891235688e-05 0.0 
8.964891235688e-05 4.273021875062e-03 0.0 
0.0 0.0 -6.570498647039e-04 
-1.286146232063e-03 5.231039738263e-04 0.0 
5.231039738263e-04 8.474365430469e-03 0.0 
0.0 0.0 -1.276804206569e-03 
-1.288400651325e-03 -4.306470642738e-06 0.0 
-4.306470642738e-06 8.274343384212e-03 0.0 
0.0 0.0 -1.228616961883e-03 
-1.323624610775e-03 3.216369829918e-04 0.0 
3.216369829918e-04 8.408100187569e-03 0.0 
0.0 0.0 -1.289666537713e-03 
-6.585033223124e-04 -1.956809026779e-04 0.0 
-1.956809026779e-04 3.104860358543e-03 0.0 
0.0 0.0 -4.695399720401e-04 
0.0 0.0 0.0 
0.0 0.0 0.0 
0.0 0.0 0.0 
-1.295369683638e-03 -4.352781909349e-04 0.0 
-4.352781909349e-04 8.328377963407e-03 0.0 
0.0 0.0 -1.273144391159e-03 
-1.316384665971e-03 4.635940691717e-05 0.0 
4.635940691717e-05 9.091692367136e-03 0.0 
0.0 0.0 -1.325353038101e-03 
-1.373672636792e-03 -7.774901455504e-05 0.0 
-7.774901455504e-05 8.873813327291e-03 0.0 
0.0 0.0 -1.323783523096e-03 
-8.637809619907e-04 1.323503679534e-04 0.0 
1.323503679534e-04 5.089707097874e-03 0.0 
0.0 0.0 -7.673431308700e-04 
-1.131532193974e-03 -7.726473612601e-05 0.0 
-7.726473612601e-05 7.445464928452e-03 0.0 
0.0 0.0 -1.231867668451e-03 
-2.317572587520e-04 -1.314436244158e-04 0.0 
-1.314436244158e-04 1.130415722071e-03 0.0 
0.0 0.0 -2.324200178898e-04 
-1.299745087394e-03 4.291095854891e-04 0.0 
4.291095854891e-04 8.286657472724e-03 0.0 
0.0 0.0 -1.241575510934e-03 
-4.846130298420e-05 -4.886976193625e-05 0.0 
-4.886976193625e-05 2.622595636012e-04 0.0 
0.0 0.0 -9.162782597871e-05 
-1.263516092246e-03 -1.718330630488e-04 0.0 
-1.718330630488e-04 7.907025787409e-03 0.0 
0.0 0.0 -1.290713494763e-03 
-1.321680158597e-03 4.673078731777e-04 0.0 
4.673078731777e-04 8.597815189326e-03 0.0 
0.0 0.0 -1.268585396830e-03 
0.0 0.0 0.0 
0.0 0.0 0.0 
0.0 0.0 0.0 
-1.124591088079e-03 3.211880423142e-04 0.0 
3.211880423142e-04 7.458066064736e-03 0.0 
0.0 0.0 -1.178018281593e-03 
-1.107869427890e-03 -1.505180591586e-04 0.0 
-1.505180591586e-04 7.012739571933e-03 0.0 
0.0 0.0 -1.053859681778e-03 
-1.308771083341e-03 9.446579517484e-05 0.0 
9.446579517484e-05 8.493525012630e-03 0.0 
0.0 0.0 -1.289687241943e-03 
-1.346242744377e-03 2.039443759450e-04 0.0 
2.039443759450e-04 8.307404063276e-03 0.0 
0.0 0.0 -1.346242744377e-03 
-1.050842893348e-03 -2.891538303944e-04 0.0 
-2.891538303944e-04 6.421171579649e-03 0.0 
0.0 0.0 -9.627310317561e-04 
-1.303758961951e-03 4.903154082554e-04 0.0 
4.903154082554e-04 8.278630388455e-03 0.0 
0.0 0.0 -1.292510612804e-03 
-1.300990074097e-03 1.669276888751e-04 0.0 
1.669276888751e-04 8.244189692926e-03 0.0 
0.0 0.0 -1.236507170568e-03 
-1.088170666265e-03 3.228048852164e-05 0.0 
3.228048852164e-05 6.587667922864e-03 0.0 
0.0 0.0 -1.009625451247e-03 
-1.257890102395e-03 4.520446479729e-04 0.0 
4.520446479729e-04 7.985706155656e-03 0.0 
0.0 0.0 -1.247605899893e-03 
-7.721939041237e-04 -2.584607340664e-04 0.0 
-2.584607340664e-04 3.598089332548e-03 0.0 
0.0 0.0 -5.668522599723e-04 
-8.446801208318e-04 -1.785300824749e-05 0.0 
-1.785300824749e-05 4.608085736335e-03 0.0 
0.0 0.0 -7.287847301676e-04 
-1.179784032877e-03 5.549241153248e-04 0.0 
5.549241153248e-04 7.775803262496e-03 0.0 
0.0 0.0 -1.239219007812e-03 
-1.299529222104e-03 1.321426560981e-04 0.0 
1.321426560981e-04 8.646134742124e-03 0.0 
0.0 0.0 -1.286506427510e-03 
2.831255439194e-04 1.360672473440e-05 0.0 
1.360672473440e-05 -8.482055415176e-05 0.0 
0.0 0.0 -8.498785275758e-05 
-8.370484008237e-04 5.623912198418e-05 0.0 
5.623912198418e-05 4.626828224470e-03 0.0 
0.0 0.0 -7.284590636140e-04 
-1.335071484274e-03 -1.600713729454e-04 0.0 
-1.600713729454e-04 8.440371416104e-03 0.0 
0.0 0.0 -1.288082484959e-03 
-3.767414468585e-04 -4.451842935601e-05 0.0 
-4.451842935601e-05 1.577633672495e-03 0.0 
0.0 0.0 -2.765646858065e-04 
-1.088631360797e-03 4.564803545026e-05 0.0 
4.564803545026e-05 7.667059339477e-03 0.0 
0.0 0.0 -1.213252366005e-03 
-1.271794335805e-03 2.301245021833e-04 0.0 
2.301245021833e-04 8.183403677429e-03 0.0 
0.0 0.0 -1.225943235494e-03 
-1.312602819485e-03 -3.967668182090e-05 0.0 
-3.967668182090e-05 8.691988746778e-03 0.0 
0.0 0.0 -1.269037835114e-03 
-3.083660169777e-04 2.694773361529e-05 0.0 
2.694773361529e-05 1.528069924280e-03 0.0 
0.0 0.0 -2.647987373252e-04 
3.113151605038e-04 9.413576912784e-04 0.0 
9.413576912784e-04 1.991549585730e-04 0.0 
0.0 0.0 -2.187729081758e-04 
-1.068435724364e-03 3.124616463362e-04 0.0 
3.124616463362e-04 5.213213290896e-03 0.0 
0.0 0.0 -7.939471195916e-04 
-1.202568648909e-03 1.058847220047e-04 0.0 
1.058847220047e-04 7.572272609772e-03 0.0 
0.0 0.0 -1.120841203304e-03 
0.0 0.0 0.0 
0.0 0.0 0.0 
0.0 0.0 0.0 
-1.320199164535e-03 2.485994904543e-04 0.0 
2.485994904543e-04 8.472368730029e-03 0.0 
0.0 0.0 -1.292233508669e-03 
-1.037229848653e-03 5.491249721839e-05 0.0 
5.491249721839e-05 6.181123680978e-03 0.0 
0.0 0.0 -9.501928138396e-04 
-2.112219927373e-05 -1.374997492072e-03 0.0 
-1.374997492072e-03 9.175924767207e-04 0.0 
0.0 0.0 -3.842015474773e-04 
-1.012609583766e-03 8.895330680236e-05 0.0 
8.895330680236e-05 5.872726185200e-03 0.0 
0.0 0.0 -9.030544305944e-04 
-1.225691657466e-03 3.254133079920e-04 0.0 
3.254133079920e-04 8.211721301461e-03 0.0 
0.0 0.0 -1.271643562581e-03 
-1.073143154962e-03 -3.082428058209e-04 0.0 
-3.082428058209e-04 5.482950483311e-03 0.0 
0.0 0.0 -8.272804529250e-04 
-6.174923774094e-05 7.146524339847e-04 0.0 
7.146524339847e-04 8.420055416494e-05 0.0 
0.0 0.0 -9.621992753142e-06 
-7.676399437614e-04 -3.808740375144e-05 0.0 
-3.808740375144e-05 3.237219166554e-03 0.0 
0.0 0.0 -5.209635072927e-04 
-9.628338005869e-04 -8.201294567373e-05 0.0 
-8.201294567373e-05 4.764994978367e-03 0.0 
0.0 0.0 -7.319997505002e-04 
-1.071554526652e-03 3.282695898754e-04 0.0 
3.282695898754e-04 5.655927594763e-03 0.0 
0.0 0.0 -8.599999999992e-04 
-1.135384068353e-03 1.731479619930e-04 0.0 
1.731479619930e-04 7.715574497297e-03 0.0 
0.0 0.0 -1.232780192057e-03 
-9.798919804233e-04 -2.558628748534e-04 0.0 
-2.558628748534e-04 4.608642650891e-03 0.0 
0.0 0.0 -7.175509632692e-04 
-9.821029958470e-04 -3.508647879924e-05 0.0 
-3.508647879924e-05 4.890525845077e-03 0.0 
0.0 0.0 -7.596628988333e-04 
-1.837560013843e-04 -1.583099615282e-05 0.0 
-1.583099615282e-05 7.060885550868e-04 0.0 
0.0 0.0 -1.551230728613e-04 
-1.279400136320e-03 -1.566945304177e-04 0.0 
-1.566945304177e-04 7.936225660633e-03 0.0 
0.0 0.0 -1.240629869904e-03 
-1.185998620198e-03 6.438056067403e-04 0.0 
6.438056067403e-04 7.550199019485e-03 0.0 
0.0 0.0 -1.186362110037e-03 
2.427830448571e-04 7.191273176983e-04 0.0 
7.191273176983e-04 1.478022189351e-04 0.0 
0.0 0.0 -1.673936844824e-04 
-1.279430862365e-03 -6.414688066309e-05 0.0 
-6.414688066309e-05 8.547621756056e-03 0.0 
0.0 0.0 -1.290349483557e-03 
-1.338884708819e-03 1.031550988355e-04 0.0 
1.031550988355e-04 8.369469127644e-03 0.0 
0.0 0.0 -1.290356026000e-03 
-8.661241169029e-04 -1.497599566473e-04 0.0 
-1.497599566473e-04 5.210623571048e-03 0.0 
0.0 0.0 -7.639788432047e-04 
-1.031081386504e-03 4.454962226943e-05 0.0 
4.454962226943e-05 6.379322053578e-03 0.0 
0.0 0.0 -9.358343396975e-04 
-9.489099175762e-04 2.306915430345e-05 0.0 
2.306915430345e-05 4.686801294291e-03 0.0 
0.0 0.0 -7.108516105536e-04 
-9.490845872611e-04 -2.424415655702e-04 0.0 
-2.424415655702e-04 4.770889395299e-03 0.0 
0.0 0.0 -7.343037059241e-04 
-1.020778085259e-03 -1.236146397605e-04 0.0 
-1.236146397605e-04 5.063951457963e-03 0.0 
0.0 0.0 -7.498489858827e-04 
-1.029397936689e-03 2.088387744417e-04 0.0 
2.088387744417e-04 7.190812739883e-03 0.0 
0.0 0.0 -1.180929064624e-03 
-9.345291821784e-05 -1.000980982166e-03 0.0 
-1.000980982166e-03 8.249248585122e-04 0.0 
0.0 0.0 -3.134879744119e-04 
-1.217539983379e-03 3.641850333419e-04 0.0 
3.641850333419e-04 7.975823276789e-03 0.0 
0.0 0.0 -1.217816617926e-03 
-9.353852917844e-04 8.308411466891e-05 0.0 
8.308411466891e-05 5.379160797006e-03 0.0 
0.0 0.0 -8.376728236383e-04 
-1.321070874734e-03 1.232042406106e-04 0.0 
1.232042406106e-04 8.662379723599e-03 0.0 
0.0 0.0 -1.272153791098e-03 
-1.041736228558e-03 -1.048021857426e-04 0.0 
-1.048021857426e-04 7.166745997700e-03 0.0 
0.0 0.0 -1.181257232468e-03 
-9.798440822242e-04 -3.118370163861e-05 0.0 
-3.118370163861e-05 6.079525789277e-03 0.0 
0.0 0.0 -8.902468719969e-04 
-1.234647512165e-03 5.766899331800e-04 0.0 
5.766899331800e-04 7.752454878246e-03 0.0 
0.0 0.0 -1.201032862555e-03 
-1.158629351689e-03 4.496790680983e-04 0.0 
4.496790680983e-04 7.611289473110e-03 0.0 
0.0 0.0 -1.236767197193e-03 
-1.208868880085e-03 3.342350738492e-04 0.0 
3.342350738492e-04 8.181025928136e-03 0.0 
0.0 0.0 -1.270271405117e-03 
3.097542277649e-05 6.697677954974e-05 0.0 
6.697677954974e-05 7.281263968874e-06 0.0 
0.0 0.0 -1.639572289087e-05 
-1.241892221072e-03 3.317116238901e-04 0.0 
3.317116238901e-04 7.798927866879e-03 0.0 
0.0 0.0 -1.198686027802e-03 
-1.247779771289e-03 6.731204463031e-04 0.0 
6.731204463031e-04 8.074479962319e-03 0.0 
0.0 0.0 -1.227078865044e-03 
-6.925802389634e-05 -2.106877258132e-04 0.0 
-2.106877258132e-04 8.393317830722e-04 0.0 
0.0 0.0 -1.488313462956e-04 
-9.198582411310e-04 -2.516763361700e-04 0.0 
-2.516763361700e-04 4.361749592167e-03 0.0 
0.0 0.0 -6.841365946973e-04 
8.862067450557e-06 2.614979262087e-05 0.0 
2.614979262087e-05 5.345349754713e-06 0.0 
0.0 0.0 -6.088893087973e-06 
-1.270183579808e-03 3.785933793144e-04 0.0 
3.785933793144e-04 8.183372897712e-03 0.0 
0.0 0.0 -1.230789928678e-03 
-4.477659537340e-04 -7.950766361317e-05 0.0 
-7.950766361317e-05 2.497018706570e-03 0.0 
0.0 0.0 -3.822222222222e-04 
-4.784277234196e-04 3.924857303742e-05 0.0 
3.924857303742e-05 2.307222145021e-03 0.0 
0.0 0.0 -4.044444444444e-04 
-4.460717443213e-04 -1.760020650506e-05 0.0 
-1.760020650506e-05 2.620785785757e-03 0.0 
0.0 0.0 -3.822222222222e-04 
-4.776693350914e-04 -2.066498720173e-05 0.0 
-2.066498720173e-05 2.315002141673e-03 0.0 
0.0 0.0 -4.044444444444e-04 
-4.456300283789e-04 -1.937202289743e-05 0.0 
-1.937202289743e-05 2.625987173940e-03 0.0 
0.0 0.0 -3.822222222222e-04 
-4.779872738303e-04 -2.822274065139e-05 0.0 
-2.822274065139e-05 2.315244018536e-03 0.0 
0.0 0.0 -4.044444444444e-04 
-4.462656398459e-04 -2.485353904084e-05 0.0 
-2.485353904084e-05 2.625990326394e-03 0.0 
0.0 0.0 -3.822222222222e-04 
-4.792475399562e-04 -3.342896736660e-05 0.0 
-3.342896736660e-05 2.315783639058e-03 0.0 
0.0 0.0 -4.044444444444e-04 
-4.475123201517e-04 -3.007054614652e-05 0.0 
-3.007054614652e-05 2.626417310746e-03 0.0 
0.0 0.0 -3.822222222222e-04 
-4.811666376616e-04 -3.852533363394e-05 0.0 
-3.852533363394e-05 2.316598516972e-03 0.0 
0.0 0.0 -4.044444444444e-04 
-4.490437567545e-04 -3.458165382954e-05 0.0 
-3.458165382954e-05 2.627026792857e-03 0.0 
0.0 0.0 -3.822222222222e-04 
-4.837308784237e-04 -4.337502502547e-05 0.0 
-4.337502502547e-05 2.317420315081e-03 0.0 
0.0 0.0 -4.044444444444e-04 
-4.506871533574e-04 -3.830542708958e-05 0.0 
-3.830542708958e-05 2.627509373180e-03 0.0 
0.0 0.0 -3.822222222222e-04 
-4.863200757723e-04 -4.765112576718e-05 0.0 
-4.765112576718e-05 2.317829627755e-03 0.0 
0.0 0.0 -4.044444444444e-04 
-4.523276131299e-04 -4.048193732763e-05 0.0 
-4.048193732763e-05 2.627337923777e-03 0.0 
0.0 0.0 -3.822222222222e-04 
-4.889760674818e-04 -4.992492022024e-05 0.0 
-4.992492022024e-05 2.317964787574e-03 0.0 
0.0 0.0 -4.044444444444e-04 
-4.542310302707e-04 -4.078738031685e-05 0.0 
-4.078738031685e-05 2.626808748623e-03 0.0 
0.0 0.0 -3.822222222222e-04 
-6.056480292920e-04 1.728310757190e-04 0.0 
1.728310757190e-04 2.555848462997e-03 0.0 
0.0 0.0 -3.914586414276e-04 
-4.922399223678e-04 -5.021620544214e-05 0.0 
-5.021620544214e-05 2.317987519249e-03 0.0 
0.0 0.0 -4.044444444444e-04 
-4.565572455669e-04 -3.901111557492e-05 0.0 
-3.901111557492e-05 2.626026613918e-03 0.0 
0.0 0.0 -3.822222222222e-04 
-5.228769148866e-04 2.808757779245e-04 0.0 
2.808757779245e-04 2.304765565320e-03 0.0 
0.0 0.0 -4.044444444444e-04 
-4.963590350670e-04 -4.831763838804e-05 0.0 
-4.831763838804e-05 2.318011659797e-03 0.0 
0.0 0.0 -4.044444444444e-04 
-4.594267250742e-04 -3.511032177588e-05 0.0 
-3.511032177588e-05 2.625123327231e-03 0.0 
0.0 0.0 -3.822222222222e-04 
-5.009386741324e-04 -4.422694573305e-05 0.0 
-4.422694573305e-05 2.317812085855e-03 0.0 
0.0 0.0 -4.044444444444e-04 
-4.627936168678e-04 -2.842261320259e-05 0.0 
-2.842261320259e-05 2.623716732034e-03 0.0 
0.0 0.0 -3.822222222222e-04 
-5.056117799861e-04 -3.698061845559e-05 0.0 
-3.698061845559e-05 2.317065889197e-03 0.0 
0.0 0.0 -4.044444444444e-04 
-4.969269700224e-04 3.515730528913e-04 0.0 
3.515730528913e-04 2.377160801008e-03 0.0 
0.0 0.0 -3.692364192054e-04 
-4.666837396077e-04 -1.712937022343e-05 0.0 
-1.712937022343e-05 2.621232610088e-03 0.0 
0.0 0.0 -3.822222222222e-04 
-5.100907895199e-04 -2.260058306738e-05 0.0 
-2.260058306738e-05 2.316567452783e-03 0.0 
0.0 0.0 -4.044444444444e-04 
-4.723004396542e-04 -1.327751191981e-06 0.0 
-1.327751191981e-06 2.619762185472e-03 0.0 
0.0 0.0 -3.822222222222e-04 
-5.187011541432e-04 -5.611483876821e-06 0.0 
-5.611483876821e-06 2.316745085829e-03 0.0 
0.0 0.0 -4.044444444444e-04 
-4.791679399447e-04 1.929342974835e-05 0.0 
1.929342974835e-05 2.617894304883e-03 0.0 
0.0 0.0 -3.822222222222e-04 
-5.254608326116e-04 1.982980625916e-05 0.0 
1.982980625916e-05 2.317371002369e-03 0.0 
0.0 0.0 -4.044444444444e-04 
-4.887231501843e-04 4.328459530924e-05 0.0 
4.328459530924e-05 2.618567802256e-03 0.0 
0.0 0.0 -3.822222222222e-04 
-5.405598583973e-04 3.929786731890e-05 0.0 
3.929786731890e-05 2.316713537828e-03 0.0 
0.0 0.0 -4.044444444444e-04 
-4.967227937958e-04 7.689551929933e-05 0.0 
7.689551929933e-05 2.610977742846e-03 0.0 
0.0 0.0 -3.822222222222e-04 
-5.395854524473e-04 9.022698348543e-05 0.0 
9.022698348543e-05 2.315628932318e-03 0.0 
0.0 0.0 -4.044444444444e-04 
-5.147397320452e-04 3.920748264294e-04 0.0 
3.920748264294e-04 2.461392887946e-03 0.0 
0.0 0.0 -4.025697525387e-04 
-5.673385880599e-04 1.040653775258e-04 0.0 
1.040653775258e-04 2.310397031327e-03 0.0 
0.0 0.0 -4.044444444444e-04 
-5.120453362902e-04 1.146925732443e-04 0.0 
1.146925732443e-04 2.616352280690e-03 0.0 
0.0 0.0 -3.822222222222e-04 
-5.260367371211e-04 2.288711912235e-04 0.0 
2.288711912235e-04 2.301155937859e-03 0.0 
0.0 0.0 -4.044444444444e-04 
-5.167982323301e-04 1.764431880484e-04 0.0 
1.764431880484e-04 2.586781747074e-03 0.0 
0.0 0.0 -3.822222222222e-04 
-5.477388757432e-04 2.483443472200e-04 0.0 
2.483443472200e-04 2.612103741230e-03 0.0 
0.0 0.0 -3.822222222222e-04 
-4.760160655986e-04 3.456445525295e-04 0.0 
3.456445525295e-04 2.205986624406e-03 0.0 
0.0 0.0 -3.852563683472e-04 
-5.175702617414e-04 -3.703955333214e-04 0.0 
-3.703955333214e-04 2.521693289409e-03 0.0 
0.0 0.0 -3.933333333333e-04 
-4.117702287809e-04 3.510487114528e-04 0.0 
3.510487114528e-04 2.332080967614e-03 0.0 
0.0 0.0 -3.933333333333e-04 
-4.910475754552e-04 -4.353211321374e-05 0.0 
-4.353211321374e-05 2.483691270875e-03 0.0 
0.0 0.0 -4.155555555556e-04 
-4.370250234133e-04 3.548953741690e-05 0.0 
3.548953741690e-05 2.379928122617e-03 0.0 
0.0 0.0 -3.711111111111e-04 
-5.160949789211e-04 4.252800565549e-04 0.0 
4.252800565549e-04 2.291829436572e-03 0.0 
0.0 0.0 -3.711111111111e-04 
-5.545130018070e-04 -8.178037886237e-05 0.0 
-8.178037886237e-05 2.909623846630e-03 0.0 
0.0 0.0 -4.711111111111e-04 
-5.228721678640e-04 4.028587622300e-05 0.0 
4.028587622300e-05 3.096271718330e-03 0.0 
0.0 0.0 -4.488888888889e-04 
-5.533691474050e-04 -1.923275015253e-05 0.0 
-1.923275015253e-05 2.782205362795e-03 0.0 
0.0 0.0 -4.711111111111e-04 
-5.221137795359e-04 -1.919255201181e-05 0.0 
-1.919255201181e-05 3.085550305381e-03 0.0 
0.0 0.0 -4.488888888889e-04 
-5.530109392803e-04 -1.824425838804e-05 0.0 
-1.824425838804e-05 2.774559112815e-03 0.0 
0.0 0.0 -4.711111111111e-04 
-5.224317182748e-04 -2.502826317864e-05 0.0 
-2.502826317864e-05 3.085006659223e-03 0.0 
0.0 0.0 -4.488888888889e-04 
-5.547362962008e-04 -2.086138494889e-05 0.0 
-2.086138494889e-05 2.774413059491e-03 0.0 
0.0 0.0 -4.711111111111e-04 
-5.236919844007e-04 -2.854587035644e-05 0.0 
-2.854587035644e-05 3.085493683001e-03 0.0 
0.0 0.0 -4.488888888889e-04 
-5.568332374197e-04 -2.401854184227e-05 0.0 
-2.401854184227e-05 2.775119097809e-03 0.0 
0.0 0.0 -4.711111111111e-04 
-5.256110821061e-04 -3.168208470033e-05 0.0 
-3.168208470033e-05 3.086241768691e-03 0.0 
0.0 0.0 -4.488888888889e-04 
-5.598758616072e-04 -2.649602084230e-05 0.0 
-2.649602084230e-05 2.776179524696e-03 0.0 
0.0 0.0 -4.711111111111e-04 
-5.281753228681e-04 -3.429831362401e-05 0.0 
-3.429831362401e-05 3.087276348172e-03 0.0 
0.0 0.0 -4.488888888889e-04 
-5.637335880510e-04 -2.986966676234e-05 0.0 
-2.986966676234e-05 2.777348666577e-03 0.0 
0.0 0.0 -4.711111111111e-04 
-5.307645202168e-04 -3.678054343318e-05 0.0 
-3.678054343318e-05 3.087110497831e-03 0.0 
0.0 0.0 -4.488888888889e-04 
-5.672516091013e-04 -3.170316921858e-05 0.0 
-3.170316921858e-05 2.777585456228e-03 0.0 
0.0 0.0 -4.711111111111e-04 
-5.334205119262e-04 -3.725348252055e-05 0.0 
-3.725348252055e-05 3.086025479628e-03 0.0 
0.0 0.0 -4.488888888889e-04 
-6.732559192872e-04 1.069454178643e-04 0.0 
1.069454178643e-04 3.029509612801e-03 0.0 
0.0 0.0 -4.582426303855e-04 
-5.702546095882e-04 -3.020263056991e-05 0.0 
-3.020263056991e-05 2.777240536398e-03 0.0 
0.0 0.0 -4.711111111111e-04 
-5.366843668123e-04 -3.453855403530e-05 0.0 
-3.453855403530e-05 3.085220328545e-03 0.0 
0.0 0.0 -4.488888888889e-04 
-5.576127008399e-04 2.593782929634e-04 0.0 
2.593782929634e-04 2.842420570206e-03 0.0 
0.0 0.0 -4.360204081633e-04 
-5.755921041128e-04 -2.584209849049e-05 0.0 
-2.584209849049e-05 2.777326176010e-03 0.0 
0.0 0.0 -4.711111111111e-04 
-5.408034795114e-04 -2.962006398500e-05 0.0 
-2.962006398500e-05 3.084571096852e-03 0.0 
0.0 0.0 -4.488888888889e-04 
-5.797090102450e-04 2.287706001101e-04 0.0 
2.287706001101e-04 2.761834444076e-03 0.0 
0.0 0.0 -4.711111111111e-04 
-5.815224328378e-04 -2.044759247011e-05 0.0 
-2.044759247011e-05 2.777381230694e-03 0.0 
0.0 0.0 -4.711111111111e-04 
-5.453831185768e-04 -2.258268294197e-05 0.0 
-2.258268294197e-05 3.083167530034e-03 0.0 
0.0 0.0 -4.488888888889e-04 
-5.869514963865e-04 -1.328471433010e-05 0.0 
-1.328471433010e-05 2.776586963506e-03 0.0 
0.0 0.0 -4.711111111111e-04 
-5.500562244305e-04 -1.211537895153e-05 0.0 
-1.211537895153e-05 3.080223364949e-03 0.0 
0.0 0.0 -4.488888888889e-04 
-5.924946390174e-04 -2.438932199996e-06 0.0 
-2.438932199996e-06 2.774392434348e-03 0.0 
0.0 0.0 -4.711111111111e-04 
-5.545352339644e-04 4.923705994678e-06 0.0 
4.923705994678e-06 3.074068870883e-03 0.0 
0.0 0.0 -4.488888888889e-04 
-5.832002113226e-04 3.084013380276e-04 0.0 
3.084013380276e-04 2.928576946329e-03 0.0 
0.0 0.0 -4.693537414966e-04 
-5.957418463706e-04 2.457513506605e-05 0.0 
2.457513506605e-05 2.772161347741e-03 0.0 
0.0 0.0 -4.711111111111e-04 
-5.631455985877e-04 2.981682976181e-05 0.0 
2.981682976181e-05 3.075944045931e-03 0.0 
0.0 0.0 -4.488888888889e-04 
-6.088382110079e-04 4.080604098374e-05 0.0 
4.080604098374e-05 2.772254412647e-03 0.0 
0.0 0.0 -4.711111111111e-04 
-5.699052770561e-04 5.777344855823e-05 0.0 
5.777344855823e-05 3.067169222988e-03 0.0 
0.0 0.0 -4.488888888889e-04 
-5.850043028418e-04 9.074123042683e-05 0.0 
9.074123042683e-05 3.079028566329e-03 0.0 
0.0 0.0 -4.488888888889e-04 
-6.115132190535e-04 8.765179825616e-05 0.0 
8.765179825616e-05 2.771111166917e-03 0.0 
0.0 0.0 -4.711111111111e-04 
-5.840298968917e-04 1.336949722933e-04 0.0 
1.336949722933e-04 3.039780976699e-03 0.0 
0.0 0.0 -4.488888888889e-04 
-6.359355392830e-04 7.860855074454e-05 0.0 
7.860855074454e-05 2.767946632045e-03 0.0 
0.0 0.0 -4.711111111111e-04 
-6.117830325044e-04 2.038036979565e-04 0.0 
2.038036979565e-04 3.073336866825e-03 0.0 
0.0 0.0 -4.488888888889e-04 
-5.855262073870e-04 1.964620808073e-04 0.0 
1.964620808073e-04 2.752718067293e-03 0.0 
0.0 0.0 -4.711111111111e-04 
-5.381153397062e-04 2.290411015667e-04 0.0 
2.290411015667e-04 2.647470749537e-03 0.0 
0.0 0.0 -4.471315192744e-04 
-4.856995794812e-04 -3.712445804859e-04 0.0 
-3.712445804859e-04 2.886533165746e-03 0.0 
0.0 0.0 -4.600000000000e-04 
-5.915156838414e-04 3.511510416328e-04 0.0 
3.511510416328e-04 3.076032758812e-03 0.0 
0.0 0.0 -4.600000000000e-04 
-5.132697976774e-04 -4.266972038985e-05 0.0 
-4.266972038985e-05 2.924617726937e-03 0.0 
0.0 0.0 -4.377777777778e-04 
-5.653819698478e-04 3.554715819272e-05 0.0 
3.554715819272e-05 3.026667072190e-03 0.0 
0.0 0.0 -4.822222222222e-04 
-5.562102482200e-04 3.031448983604e-04 0.0 
3.031448983604e-04 2.748233394595e-03 0.0 
0.0 0.0 -4.377777777778e-04 
-5.989574462514e-04 -8.267193208917e-05 0.0 
-8.267193208917e-05 3.437613023720e-03 0.0 
0.0 0.0 -5.155555555556e-04 
-6.287787412402e-04 3.729317259218e-05 0.0 
3.729317259218e-05 3.247326925229e-03 0.0 
0.0 0.0 -5.377777777778e-04 
-5.978135918495e-04 -1.841914986540e-05 0.0 
-1.841914986540e-05 3.561201795145e-03 0.0 
0.0 0.0 -5.155555555556e-04 
-6.254961344599e-04 -1.930049853369e-05 0.0 
-1.930049853369e-05 3.253947423147e-03 0.0 
0.0 0.0 -5.377777777778e-04 
-5.974553837248e-04 -1.391156406088e-05 0.0 
-1.391156406088e-05 3.564621634950e-03 0.0 
0.0 0.0 -5.155555555556e-04 
-6.279936331018e-04 -1.935706142364e-05 0.0 
-1.935706142364e-05 3.255345558208e-03 0.0 
0.0 0.0 -5.377777777778e-04 
-5.991807406452e-04 -1.614264760927e-05 0.0 
-1.614264760927e-05 3.566069321236e-03 0.0 
0.0 0.0 -5.155555555556e-04 
-6.284144790130e-04 -2.147959664663e-05 0.0 
-2.147959664663e-05 3.255656571766e-03 0.0 
0.0 0.0 -5.377777777778e-04 
-6.012776818642e-04 -1.696499576587e-05 0.0 
-1.696499576587e-05 3.566126567533e-03 0.0 
0.0 0.0 -5.155555555556e-04 
-6.315481358764e-04 -2.174087039821e-05 0.0 
-2.174087039821e-05 3.256770810453e-03 0.0 
0.0 0.0 -5.377777777778e-04 
-6.043203060517e-04 -1.757798620874e-05 0.0 
-1.757798620874e-05 3.567144862765e-03 0.0 
0.0 0.0 -5.155555555556e-04 
-6.347436721796e-04 -2.174327211569e-05 0.0 
-2.174327211569e-05 3.258179294352e-03 0.0 
0.0 0.0 -5.377777777778e-04 
-6.081780324954e-04 -1.832425526294e-05 0.0 
-1.832425526294e-05 3.568559060354e-03 0.0 
0.0 0.0 -5.155555555556e-04 
-6.411680495803e-04 -2.482988994377e-05 0.0 
-2.482988994377e-05 3.259134830210e-03 0.0 
0.0 0.0 -5.377777777778e-04 
-6.116960535458e-04 -1.877149855028e-05 0.0 
-1.877149855028e-05 3.568744272090e-03 0.0 
0.0 0.0 -5.155555555556e-04 
-7.366276609701e-04 4.524951182865e-05 0.0 
4.524951182865e-05 3.507320200516e-03 0.0 
0.0 0.0 -5.247732426303e-04 
-6.420523831112e-04 -2.583218201805e-05 0.0 
-2.583218201805e-05 3.257046679515e-03 0.0 
0.0 0.0 -5.377777777778e-04 
-6.435781206746e-04 1.840534884814e-04 0.0 
1.840534884814e-04 3.241318968686e-03 0.0 
0.0 0.0 -5.377777777778e-04 
-6.146990540326e-04 -1.244484207344e-05 0.0 
-1.244484207344e-05 3.564885876854e-03 0.0 
0.0 0.0 -5.155555555556e-04 
-6.478721701654e-04 -1.639725233752e-05 0.0 
-1.639725233752e-05 3.256970335869e-03 0.0 
0.0 0.0 -5.377777777778e-04 
-6.200365485572e-04 -5.018436089581e-06 0.0 
-5.018436089581e-06 3.564885905457e-03 0.0 
0.0 0.0 -5.155555555556e-04 
-6.561429566816e-04 -9.551464893356e-06 0.0 
-9.551464893356e-06 3.257786223678e-03 0.0 
0.0 0.0 -5.377777777778e-04 
-6.259668772823e-04 2.319967205521e-06 0.0 
2.319967205521e-06 3.565031180513e-03 0.0 
0.0 0.0 -5.155555555556e-04 
-6.615288143992e-04 -3.165343597243e-06 0.0 
-3.165343597243e-06 3.256616812139e-03 0.0 
0.0 0.0 -5.377777777778e-04 
-6.169661166839e-04 2.164901621932e-04 0.0 
2.164901621932e-04 3.318852114050e-03 0.0 
0.0 0.0 -5.025510204081e-04 
-6.313959408309e-04 1.331766061821e-05 0.0 
1.331766061821e-05 3.562071063365e-03 0.0 
0.0 0.0 -5.155555555556e-04 
-6.676626850749e-04 8.412288321031e-06 0.0 
8.412288321031e-06 3.254047861299e-03 0.0 
0.0 0.0 -5.377777777778e-04 
-6.369390834618e-04 2.839501316983e-05 0.0 
2.839501316983e-05 3.557766628637e-03 0.0 
0.0 0.0 -5.155555555556e-04 
-6.757465811746e-04 2.011236031009e-05 0.0 
2.011236031009e-05 3.248279072062e-03 0.0 
0.0 0.0 -5.377777777778e-04 
-6.401862908150e-04 5.683403292324e-05 0.0 
5.683403292324e-05 3.544903684413e-03 0.0 
0.0 0.0 -5.155555555556e-04 
-6.710900969960e-04 7.145474225899e-05 0.0 
7.145474225899e-05 3.246321760371e-03 0.0 
0.0 0.0 -5.377777777778e-04 
-6.532826554523e-04 8.457965391973e-05 0.0 
8.457965391973e-05 3.553131858142e-03 0.0 
0.0 0.0 -5.155555555556e-04 
-7.020590348485e-04 7.312181654746e-05 0.0 
7.312181654746e-05 3.244705541191e-03 0.0 
0.0 0.0 -5.377777777778e-04 
-6.554115117610e-04 1.658740749447e-04 0.0 
1.658740749447e-04 3.237354480524e-03 0.0 
0.0 0.0 -5.377777777778e-04 
-6.559576634980e-04 1.237219721845e-04 0.0 
1.237219721845e-04 3.531755926188e-03 0.0 
0.0 0.0 -5.155555555556e-04 
-6.411111436525e-04 2.481500458011e-04 0.0 
2.481500458011e-04 3.407080026122e-03 0.0 
0.0 0.0 -5.358843537414e-04 
-6.803799837275e-04 1.624927648151e-04 0.0 
1.624927648151e-04 3.558426467577e-03 0.0 
0.0 0.0 -5.155555555556e-04 
-5.945151412269e-04 1.812873307433e-04 0.0 
1.812873307433e-04 3.113616278940e-03 0.0 
0.0 0.0 -5.136621315192e-04 
-6.672833179301e-04 -3.706793032750e-04 0.0 
-3.706793032750e-04 3.459056007774e-03 0.0 
0.0 0.0 -5.266666666667e-04 
-5.623773213514e-04 3.513666038768e-04 0.0 
3.513666038768e-04 3.271176697744e-03 0.0 
0.0 0.0 -5.266666666667e-04 
-6.406200246206e-04 -4.190627532401e-05 0.0 
-4.190627532401e-05 3.422026805713e-03 0.0 
0.0 0.0 -5.488888888889e-04 
-5.876041920701e-04 3.555034108668e-05 0.0 
3.555034108668e-05 3.319473246611e-03 0.0 
0.0 0.0 -5.044444444444e-04 
-6.130423435783e-04 2.369057836334e-04 0.0 
2.369057836334e-04 3.223253934296e-03 0.0 
0.0 0.0 -5.044444444444e-04 
-7.120623447180e-04 -8.888228388160e-05 0.0 
-8.888228388160e-05 3.852748437753e-03 0.0 
0.0 0.0 -6.044444444444e-04 
-6.732231856846e-04 3.548631982699e-05 0.0 
3.548631982699e-05 4.032087244247e-03 0.0 
0.0 0.0 -5.822222222222e-04 
-6.955393523700e-04 -2.756019485512e-05 0.0 
-2.756019485512e-05 3.717267839696e-03 0.0 
0.0 0.0 -6.044444444444e-04 
-6.699405789043e-04 -1.870355497797e-05 0.0 
-1.870355497797e-05 4.017496801865e-03 0.0 
0.0 0.0 -5.822222222222e-04 
-6.969243199369e-04 -6.918496173234e-06 0.0 
-6.918496173234e-06 3.707462619531e-03 0.0 
0.0 0.0 -6.044444444444e-04 
-6.724380775462e-04 -1.325710265715e-05 0.0 
-1.325710265715e-05 4.022403973257e-03 0.0 
0.0 0.0 -5.822222222222e-04 
-7.031503284102e-04 -1.402242021930e-05 0.0 
-1.402242021930e-05 3.711320333832e-03 0.0 
0.0 0.0 -6.044444444444e-04 
-6.728589234574e-04 -1.646685933992e-05 0.0 
-1.646685933992e-05 4.018646007482e-03 0.0 
0.0 0.0 -5.822222222222e-04 
-6.992489626615e-04 -7.571363959488e-06 0.0 
-7.571363959488e-06 3.708933191906e-03 0.0 
0.0 0.0 -6.044444444444e-04 
-6.759925803209e-04 -1.073738973976e-05 0.0 
-1.073738973976e-05 4.021950250257e-03 0.0 
0.0 0.0 -5.822222222222e-04 
-7.070575680629e-04 -7.158521352799e-06 0.0 
-7.158521352799e-06 3.711746084396e-03 0.0 
0.0 0.0 -6.044444444444e-04 
-6.791881166240e-04 -9.268059005098e-06 0.0 
-9.268059005098e-06 4.020971144871e-03 0.0 
0.0 0.0 -5.822222222222e-04 
-7.076120858666e-04 1.215276486099e-06 0.0 
1.215276486099e-06 3.712281244356e-03 0.0 
0.0 0.0 -6.044444444444e-04 
-7.999876507941e-04 1.388374683100e-05 0.0 
1.388374683100e-05 3.980152954303e-03 0.0 
0.0 0.0 -5.915759637188e-04 
-6.856124940247e-04 -4.086926393719e-06 0.0 
-4.086926393719e-06 4.027577169899e-03 0.0 
0.0 0.0 -5.822222222222e-04 
-7.178528616705e-04 -1.309284787321e-05 0.0 
-1.309284787321e-05 3.714901656250e-03 0.0 
0.0 0.0 -6.044444444444e-04 
-6.869874754798e-04 1.711534318409e-04 0.0 
1.711534318409e-04 3.792214840593e-03 0.0 
0.0 0.0 -5.693537414966e-04 
-6.864968275557e-04 -6.408579358671e-06 0.0 
-6.408579358671e-06 4.016159600688e-03 0.0 
0.0 0.0 -5.822222222222e-04 
-7.178783193932e-04 5.819993202574e-06 0.0 
5.819993202574e-06 3.708927247396e-03 0.0 
0.0 0.0 -6.044444444444e-04 
-7.079394544223e-04 1.566312145644e-04 0.0 
1.566312145644e-04 3.702391321003e-03 0.0 
0.0 0.0 -6.044444444444e-04 
-6.923166146099e-04 7.612225445440e-06 0.0 
7.612225445440e-06 4.017109289765e-03 0.0 
0.0 0.0 -5.822222222222e-04 
-7.279989213735e-04 2.036390614473e-05 0.0 
2.036390614473e-05 3.710913040149e-03 0.0 
0.0 0.0 -6.044444444444e-04 
-7.005874011261e-04 1.845814163449e-05 0.0 
1.845814163449e-05 4.020938657480e-03 0.0 
0.0 0.0 -5.822222222222e-04 
-7.354917532623e-04 2.057235382585e-05 0.0 
2.057235382585e-05 3.711839010969e-03 0.0 
0.0 0.0 -6.044444444444e-04 
-7.059732588437e-04 2.754521474697e-05 0.0 
2.754521474697e-05 4.015383430286e-03 0.0 
0.0 0.0 -5.822222222222e-04 
-7.002855080047e-04 1.990014593216e-04 0.0 
1.990014593216e-04 3.872918840521e-03 0.0 
0.0 0.0 -6.026870748299e-04 
-7.379521818036e-04 3.377279504907e-05 0.0 
3.377279504907e-05 3.707685656258e-03 0.0 
0.0 0.0 -6.044444444444e-04 
-7.121071295194e-04 4.529492266530e-05 0.0 
4.529492266530e-05 4.010298093341e-03 0.0 
0.0 0.0 -5.822222222222e-04 
-7.201910256190e-04 6.322353710792e-05 0.0 
6.322353710792e-05 4.009272868238e-03 0.0 
0.0 0.0 -5.822222222222e-04 
-7.467651792935e-04 5.478281511635e-05 0.0 
5.478281511635e-05 3.704632746345e-03 0.0 
0.0 0.0 -6.044444444444e-04 
-7.155345414404e-04 9.941872455418e-05 0.0 
9.941872455418e-05 3.968551508246e-03 0.0 
0.0 0.0 -5.822222222222e-04 
-7.657386443158e-04 4.703626451468e-05 0.0 
4.703626451468e-05 3.695451234596e-03 0.0 
0.0 0.0 -6.044444444444e-04 
-7.465034792929e-04 1.491483542401e-04 0.0 
1.491483542401e-04 4.023442400313e-03 0.0 
0.0 0.0 -5.822222222222e-04 
-7.198395015582e-04 1.725743928124e-04 0.0 
1.725743928124e-04 3.686227600280e-03 0.0 
0.0 0.0 -6.044444444444e-04 
-6.565140853496e-04 1.301780499699e-04 0.0 
1.301780499699e-04 3.583317050774e-03 0.0 
0.0 0.0 -5.804648526077e-04 
-6.267004692735e-04 -3.600267132829e-04 0.0 
-3.600267132829e-04 3.813319755553e-03 0.0 
0.0 0.0 -5.933333333333e-04 
-7.431964593305e-04 3.646450588748e-04 0.0 
3.646450588748e-04 4.021679577105e-03 0.0 
0.0 0.0 -5.933333333333e-04 
-6.628422468428e-04 -3.292224140382e-05 0.0 
-3.292224140382e-05 3.861928425764e-03 0.0 
0.0 0.0 -5.711111111111e-04 
-7.088162572225e-04 5.311123185713e-05 0.0 
5.311123185713e-05 3.959617699405e-03 0.0 
0.0 0.0 -6.155555555556e-04 
-6.769114540080e-04 1.825624503540e-04 0.0 
1.825624503540e-04 3.695515009073e-03 0.0 
0.0 0.0 -5.711111111111e-04 
-7.565067891625e-04 -1.155535297541e-04 0.0 
-1.155535297541e-04 4.407218847534e-03 0.0 
0.0 0.0 -6.488888888889e-04 
-7.530504053033e-04 -7.571813069496e-06 0.0 
-7.571813069496e-06 4.174991140514e-03 0.0 
0.0 0.0 -6.711111111111e-04 
-7.399837968145e-04 -1.387977928634e-05 0.0 
-1.387977928634e-05 4.486504988785e-03 0.0 
0.0 0.0 -6.488888888889e-04 
-7.729838338639e-04 -1.329064737435e-05 0.0 
-1.329064737435e-05 4.184890785187e-03 0.0 
0.0 0.0 -6.711111111111e-04 
-7.413687643813e-04 -3.949381470416e-07 0.0 
-3.949381470416e-07 4.494790911899e-03 0.0 
0.0 0.0 -6.488888888889e-04 
-7.742938489980e-04 3.545636067961e-06 0.0 
3.545636067961e-06 4.195489456373e-03 0.0 
0.0 0.0 -6.711111111111e-04 
-7.475947728547e-04 -1.447276125001e-05 0.0 
-1.447276125001e-05 4.508658415556e-03 0.0 
0.0 0.0 -6.488888888889e-04 
-7.647771457920e-04 -2.472289036545e-05 0.0 
-2.472289036545e-05 4.185138013304e-03 0.0 
0.0 0.0 -6.711111111111e-04 
-7.436934071060e-04 3.939866511849e-06 0.0 
3.939866511849e-06 4.492058634297e-03 0.0 
0.0 0.0 -6.488888888889e-04 
-7.721102977711e-04 1.191369759528e-05 0.0 
1.191369759528e-05 4.191715436034e-03 0.0 
0.0 0.0 -6.711111111111e-04 
-7.515020125074e-04 1.948179168996e-06 0.0 
1.948179168996e-06 4.504635429055e-03 0.0 
0.0 0.0 -6.488888888889e-04 
-7.788311265265e-04 -5.657460917598e-06 0.0 
-5.657460917598e-06 4.190705067530e-03 0.0 
0.0 0.0 -6.711111111111e-04 
-8.662964799625e-04 -2.454914467333e-05 0.0 
-2.454914467333e-05 4.459732268515e-03 0.0 
0.0 0.0 -6.580807474504e-04 
-7.520565303110e-04 1.109064528774e-05 0.0 
1.109064528774e-05 4.498175075181e-03 0.0 
0.0 0.0 -6.488888888889e-04 
-8.155020730708e-04 1.528373870012e-04 0.0 
1.528373870012e-04 4.186625771973e-03 0.0 
0.0 0.0 -6.711111111111e-04 
-7.586605293786e-04 2.791301751342e-05 0.0 
2.791301751342e-05 4.190794983268e-03 0.0 
0.0 0.0 -6.711111111111e-04 
-7.622973061150e-04 1.699730231297e-05 0.0 
1.699730231297e-05 4.505906138033e-03 0.0 
0.0 0.0 -6.488888888889e-04 
-7.955711925846e-04 8.033031112464e-08 0.0 
8.033031112464e-08 4.188331241414e-03 0.0 
0.0 0.0 -6.711111111111e-04 
-7.623227638377e-04 3.400576865185e-05 0.0 
3.400576865185e-05 4.489689491926e-03 0.0 
0.0 0.0 -6.488888888889e-04 
-8.006770446683e-04 3.868285750203e-05 0.0 
3.868285750203e-05 4.189917974469e-03 0.0 
0.0 0.0 -6.711111111111e-04 
-7.724433658179e-04 4.171040082635e-05 0.0 
4.171040082635e-05 4.499618609463e-03 0.0 
0.0 0.0 -6.488888888889e-04 
-7.971982277132e-04 4.334547048389e-05 0.0 
4.334547048389e-05 4.190772542348e-03 0.0 
0.0 0.0 -6.711111111111e-04 
-7.512535823419e-04 1.572109300169e-04 0.0 
1.572109300169e-04 4.272969555894e-03 0.0 
0.0 0.0 -6.358585252281e-04 
-7.799361977067e-04 4.942380984451e-05 0.0 
4.942380984451e-05 4.500436321571e-03 0.0 
0.0 0.0 -6.488888888889e-04 
-8.019717863413e-04 4.151088876834e-05 0.0 
4.151088876834e-05 4.184126944351e-03 0.0 
0.0 0.0 -6.711111111111e-04 
-7.823966262481e-04 7.184392993936e-05 0.0 
7.184392993936e-05 4.484862014071e-03 0.0 
0.0 0.0 -6.488888888889e-04 
-8.006840076862e-04 7.791811278218e-05 0.0 
7.791811278218e-05 4.176001510022e-03 0.0 
0.0 0.0 -6.711111111111e-04 
-8.039640851074e-04 1.263508000003e-04 0.0 
1.263508000003e-04 4.174705869658e-03 0.0 
0.0 0.0 -6.711111111111e-04 
-7.912096237380e-04 1.071509718730e-04 0.0 
1.071509718730e-04 4.477799006040e-03 0.0 
0.0 0.0 -6.488888888889e-04 
-8.101830887602e-04 1.288493200629e-04 0.0 
1.288493200629e-04 4.489610393156e-03 0.0 
0.0 0.0 -6.488888888889e-04 
-7.617757652904e-04 1.684528749010e-04 0.0 
1.684528749010e-04 4.355354044839e-03 0.0 
0.0 0.0 -6.691918585615e-04 
-7.171747419539e-04 1.190543822742e-04 0.0 
1.190543822742e-04 4.056731334660e-03 0.0 
0.0 0.0 -6.469696363393e-04 
-8.025731129306e-04 -3.241456630719e-04 0.0 
-3.241456630719e-04 4.358910586267e-03 0.0 
0.0 0.0 -6.600000000000e-04 
-7.344440083408e-04 3.911518351984e-04 0.0 
3.911518351984e-04 4.236731495882e-03 0.0 
0.0 0.0 -6.600000000000e-04 
-8.045282767906e-04 1.783825891024e-05 0.0 
1.783825891024e-05 4.360632635982e-03 0.0 
0.0 0.0 -6.822222222222e-04 
-7.310384794447e-04 6.338117589491e-05 0.0 
6.338117589491e-05 4.247438367621e-03 0.0 
0.0 0.0 -6.377777777778e-04 
-7.412727877556e-04 1.381235162240e-04 0.0 
1.381235162240e-04 4.183483937710e-03 0.0 
0.0 0.0 -6.377777777778e-04 

SCALARS element_materi_plasti_kappa_shear float
LOOKUP_TABLE default
2.048251484052e-03
1.753493670412e-03
5.503175940454e-03
5.633931869583e-03
3.565227349428e-03
4.312193749307e-04
3.536826958687e-03
1.942063469917e-03
3.582504689508e-03
5.588174946624e-03
3.844209359202e-03
1.631469581520e-03
5.512057153720e-03
3.809200862045e-03
5.604521952288e-03
5.734301458091e-03
3.547028291065e-03
0.0
1.240065727301e-03
1.171297693899e-03
5.622446392520e-03
2.066758337528e-03
2.250687853245e-03
4.978061567755e-03
4.048291547957e-03
4.106723662793e-03
3.275000549148e-03
5.494131578830e-03
4.059702375831e-03
5.136982028010e-03
1.134770329222e-03
3.832632936293e-04
5.695120532744e-03
4.786861567557e-03
5.372391993924e-03
5.735141668293e-03
5.753517229623e-03
5.201200685639e-03
3.236338684528e-03
3.281036968799e-03
2.549446708275e-03
5.321786045187e-03
1.684174276636e-03
3.149604634892e-03
5.511212370387e-03
1.565690788834e-03
3.220151479937e-04
5.403179619290e-03
4.290285994583e-06
3.669652725762e-03
2.409350294786e-03
1.545192749097e-03
1.201581906209e-03
2.359715905779e-03
5.581390730101e-03
2.049040073899e-03
1.507776831990e-03
4.806180650684e-03
9.040347839122e-04
5.734539432202e-03
0.0
5.036447355686e-03
2.389363153128e-03
1.200719454992e-03
5.502622384469e-03
2.208078500699e-03
0.0
5.645939813077e-03
1.388688876148e-03
5.450080675048e-03
4.240450452081e-03
5.844447616816e-03
5.127619557211e-03
3.940968838014e-04
2.067872878458e-03
5.628694369718e-03
5.723406412390e-03
1.349407449673e-03
8.084468878613e-04
1.429030436915e-03
1.215963319167e-03
3.393097464491e-03
2.129508046084e-03
1.864830702236e-03
3.733526205207e-03
3.714125906962e-03
4.361075697200e-03
4.690746124938e-03
4.783172209268e-03
3.514212606547e-03
2.589608648574e-04
3.431550400288e-03
4.721859888672e-03
4.746077057757e-03
5.997543046696e-03
5.411150761547e-03
3.393913313148e-03
5.491004293201e-03
3.985594967259e-03
2.258571385844e-03
3.410992711845e-03
5.611034212900e-03
4.179507938013e-03
5.032886742806e-03
2.003062331599e-03
8.956760759698e-04
5.221382607798e-03
5.045193140480e-03
2.261908350145e-04
5.486842463624e-03
4.573653062054e-03
3.479980613032e-04
2.502076270832e-03
3.167763418157e-03
2.487000496226e-03
2.126059688753e-03
2.273861626040e-03
5.451016480833e-03
3.919789090778e-03
2.281181173819e-03
1.213076248653e-03
3.513689619667e-03
4.941959880695e-03
2.106608397091e-03
9.726897685994e-04
2.859921274722e-03
2.565005698292e-03
2.680460766149e-03
5.737782286007e-03
9.785758943601e-04
4.027728111069e-03
5.636355074510e-03
2.835365156538e-03
2.709046400113e-03
5.353249069116e-03
5.532349028915e-03
4.348743351020e-03
2.978900291729e-03
5.411429688504e-03
2.744221608962e-03
5.616125922486e-03
5.613692443858e-03
3.766204035722e-03
4.391065799997e-03
2.718404295077e-03
2.533253388883e-03
3.087137023846e-03
2.200470782986e-03
3.492820352654e-03
2.363376362537e-03
2.621382727248e-04
3.747049311015e-03
8.605114628174e-04
3.020514546332e-03
5.290806449770e-03
2.186313469297e-03
4.518027699077e-03
1.606142966517e-03
4.209701847448e-03
3.408465456370e-03
2.321856290079e-03
4.941287181334e-03
1.029170670083e-03
5.207270841350e-03
3.386399557435e-03
5.629077659096e-03
3.402534046100e-03
2.143777464895e-03
2.980585492464e-03
3.978529564445e-03
1.797981043136e-03
2.131947395522e-03
4.565545625096e-03
3.526561441315e-03
2.292273163024e-03
2.831954602171e-03
4.902639283245e-03
2.846109516762e-03
5.344131269157e-03
5.581762834167e-03
2.045482988632e-03
2.739998364567e-03
4.670836610536e-03
2.636378907130e-03
1.901753547338e-03
3.276383508295e-03
2.394214224877e-03
5.640432630144e-03
4.649191975422e-03
5.084010659974e-03
1.450852845402e-03
1.891185196908e-03
4.756649167095e-03
0.0
2.645910748192e-03
4.353987082835e-03
6.693198157630e-04
5.577145383260e-03
4.311674069402e-03
2.424063329831e-03
4.308254875087e-03
3.768016172911e-03
3.975429040763e-03
5.123403257528e-03
1.968551576487e-03
3.168679698929e-03
3.489417411141e-03
4.497775965736e-03
3.554143506731e-03
3.272990497602e-03
3.636148199777e-03
4.777873359821e-03
0.0
2.054332000673e-03
2.292338041600e-03
3.059823040950e-03
4.848669964181e-03
7.411939793981e-04
4.203239612195e-03
3.403528574950e-03
2.120618832016e-03
4.069098148087e-03
4.246264766717e-04
4.599464078276e-03
3.476148306084e-04
5.410341703710e-04
1.592193211171e-03
1.719248331945e-03
4.782293510667e-03
1.815734887217e-03
1.844404593867e-03
1.618505664870e-03
1.146822852731e-03
4.464359441945e-03
3.377702223347e-03
5.506088258921e-03
0.0
2.009805297429e-03
2.302243100894e-03
2.481153461484e-03
4.143768537590e-03
5.606441244158e-03
4.559795208237e-03
1.455328493326e-03
4.488396010045e-03
4.213382192652e-03
3.236971907541e-03
4.423237357451e-03
5.173514376653e-03
2.134179776736e-03
1.811135889082e-03
3.825403090103e-03
5.999008670889e-03
3.128792099484e-03
2.778892560238e-03
3.812433277429e-03
1.356034459876e-03
3.547869395678e-03
1.821956586395e-03
1.071898620409e-03
6.878759182499e-04
4.770342255613e-03
3.657761913000e-03
2.301185800403e-03
4.951131887675e-03
4.665409177491e-03
3.411799966359e-03
5.452188912108e-03
2.908585602061e-03
3.583300261965e-03
2.605219249823e-03
3.100950466365e-03
1.347698524684e-03
3.414342947476e-03
2.155049212513e-03
1.385737165103e-03
4.542488046730e-03
0.0
3.716563633638e-03
1.636449720064e-03
1.774524551335e-03
8.033729531877e-04
3.926631031118e-03
7.929613934373e-04
2.439400741018e-03
3.230296274809e-03
3.653257839111e-03
3.792551444783e-03
3.394897168044e-04
9.779464977480e-04
1.639638944485e-03
2.170597973029e-03
4.441924025952e-03
2.403845489855e-03
2.012179680430e-03
2.055407645936e-03
5.690441180567e-04
2.724975474439e-03
1.566269675286e-03
5.958720739140e-03
5.939193914372e-03
3.244445123059e-03
1.612814842720e-03
1.675996184199e-03
3.688319290740e-03
1.425607672630e-03
1.036406456605e-03
3.253099720127e-03
5.778400585500e-03
1.895871873376e-03
3.666527252036e-03
1.635469508028e-03
5.660443835014e-03
1.865154342382e-03
3.342266076335e-03
6.537557986608e-04
3.435463054255e-03
2.276354288028e-03
1.404210939028e-03
3.486331641573e-03
5.890375541845e-03
1.783256592408e-03
3.221814678744e-03
1.690872941280e-03
4.262668196764e-03
3.989554513863e-03
1.870987437432e-03
4.157903845114e-03
5.833143474624e-03
4.319705339619e-03
5.914245466119e-03
4.107732014025e-03
4.587246752330e-03
1.718940221779e-03
3.216971996294e-03
3.590070658515e-03
3.756282744682e-03
2.945710028404e-03
5.788099092437e-03
3.944002213719e-03
3.448909530710e-03
1.863265499764e-03
1.455277505311e-03
3.108638757878e-03
2.053960887931e-03
3.540174196265e-03
1.877423184664e-03
1.615583361797e-03
4.717172209803e-03
1.879339039984e-03
3.325468032698e-03
3.338062058546e-03
3.118061036031e-03
5.704944762881e-03
2.801276760200e-03
7.929235320681e-04
2.475643465383e-03
1.888885188254e-03
2.000012791094e-03
4.954048188006e-03
3.495259464146e-03
2.461309541375e-03
3.062435080318e-03
5.651875251926e-03
5.274977967438e-03
4.935750800823e-03
4.617112825186e-03
3.065607714073e-03
2.469090313365e-03
1.133689513580e-03
1.302424423879e-03
3.315397022365e-03
3.332601828915e-03
2.997347446124e-03
5.010744987465e-03
1.001431061527e-03
2.758819764694e-03
3.419306053386e-03
2.519448693487e-03
5.922741708314e-03
5.955236189705e-03
5.576307705796e-03
3.343577244616e-03
4.936203495640e-03
1.952709186338e-03
1.572206337786e-03
8.348386301078e-04
2.556685105345e-03
3.397790353165e-03
4.097341444589e-03
5.360765443340e-03
4.855340331116e-03
3.816589750238e-03
3.860243568889e-03
1.042497557085e-03
9.358115372942e-04
2.519797185523e-03
3.004979550758e-03
2.619929927174e-03
9.216036177595e-04
3.654326841485e-03
1.535889856870e-03
1.965274985910e-03
5.542217875605e-03
3.765591558978e-03
3.443419406157e-03
9.148022967595e-04
3.000502477848e-03
2.382905503139e-03
3.927650911988e-03
5.879566310260e-03
3.223720713770e-03
3.674901719203e-03
2.887355925381e-03
4.891146742092e-03
3.418978839809e-03
5.856068981647e-03
5.774980459743e-03
5.817447372982e-03
5.770330115021e-03
4.031402203216e-03
4.901935106937e-03
5.053219238746e-03
2.608302338338e-03
2.534090737438e-03
2.864377718296e-03
5.021604322951e-03
5.804877108405e-03
5.054229152364e-03
3.432032663523e-03
5.068372728808e-03
4.092526629085e-03
2.882253780089e-03
2.587573265554e-03
1.635529725768e-03
5.632439227330e-03
2.459501711046e-03
5.142282866551e-03
2.763464966763e-03
2.028101785968e-03
5.246511047736e-03
2.055425638514e-03
5.758655944435e-03
5.581996474530e-03
3.601464432629e-03
2.874317802878e-04
5.722474487266e-03
5.230794359339e-03
1.560316552400e-03
3.558601806016e-03
5.699626342238e-03
0.0
2.660857434825e-03
3.779907730678e-03
3.423227498078e-03
3.515796245568e-03
1.920364726314e-03
5.673636790495e-03
1.884624729070e-03
1.324523675438e-04
5.578498981548e-03
5.002872014388e-04
2.903489307071e-03
7.102088304152e-04
3.105385424469e-03
5.637939698663e-03
5.643493109987e-03
3.759896198982e-03
6.466604743843e-04
2.581016059897e-06
1.306561031608e-03
4.781936084338e-03
3.544667014514e-03
3.591768567502e-03
5.600982036969e-03
3.550458207037e-03
5.978204257671e-03
4.194064998041e-03
3.966369650588e-03
2.069110227023e-03
3.555873876722e-03
1.287977702152e-03
5.563443599679e-03
5.770828452205e-03
5.803925315002e-03
3.535689664887e-03
2.718540240995e-03
2.810036151372e-03
3.607200195359e-03
5.538358032675e-03
1.640374573165e-03
1.295740147429e-03
1.612091026105e-03
4.134625190794e-03
5.683102620147e-03
9.751937677048e-04
5.520122581297e-03
1.677390207142e-03
5.751046272795e-03
5.068488904679e-03
5.986160827208e-04
2.695519082935e-03
5.116907936890e-03
5.706785168037e-03
4.029434435152e-03
4.284615340903e-03
1.266337359964e-03
4.952953356985e-03
1.912176692629e-03
1.970550124934e-03
6.041211163241e-04
5.656733513692e-03
1.182133657821e-03
4.542952953280e-03
3.833323984522e-03
2.139158319596e-03
1.714726693588e-03
3.853402172132e-03
5.579172664692e-03
2.774393020232e-03
3.942313972036e-03
3.310099650091e-03
3.368941039505e-03
1.606723124076e-03
3.637032700867e-03
3.197994162511e-03
4.208731222359e-03
3.883013032915e-03
3.120071939876e-03
2.732828783826e-03
1.823514764933e-03
2.627670573605e-03
4.181475254094e-03
3.004073412555e-03
5.656674172997e-03
5.232907453581e-03
1.823811427345e-03
5.507514049442e-03
5.342333532244e-03
2.747952667688e-03
4.382088383837e-04
5.694608369003e-03
5.185125812822e-03
1.765229900576e-03
5.538258443366e-03
3.827720443377e-03
2.679180912128e-03
3.704599732640e-03
2.883358424601e-03
3.255701293151e-03
3.509234741566e-03
4.329946724555e-03
2.998532943868e-03
4.098742247155e-03
4.047052255275e-03
2.859932710936e-03
3.672333583242e-03
2.211642543694e-03
3.881327088903e-03
2.317754686702e-04
2.007422663305e-03
2.062503183499e-03
3.040900024033e-03
2.964066277893e-03
3.726763647670e-03
4.021852142269e-03
2.125448120930e-03
5.567560434823e-03
3.763638072718e-03
3.188675817690e-03
3.577463415310e-03
3.136039882304e-03
0.0
3.881554513065e-03
2.640906468370e-03
1.601175916693e-04
3.049084665278e-03
4.039018151325e-03
5.107511769800e-03
3.179382722343e-03
3.272183804054e-03
3.333812579699e-03
3.138774507407e-03
5.602858950169e-03
3.388266387592e-03
4.889835681516e-04
1.262830355438e-03
3.403732711760e-04
2.039797041705e-03
4.886593675055e-03
5.135074580473e-03
4.569733804699e-03
2.205347307067e-03
3.963428270317e-03
4.644691033612e-03
4.480010223363e-04
2.667099209261e-03
2.160248377513e-03
5.721042981994e-03
5.580105102775e-03
2.939481999310e-03
3.271315706566e-03
3.310083848978e-03
4.812160421875e-03
1.230172725071e-03
4.495251994924e-03
6.428633528680e-04
2.999374668151e-03
3.265631012540e-03
2.192679874259e-04
2.777613716051e-03
5.213183738870e-03
4.661553375830e-04
3.125223871850e-03
3.264611202798e-03
3.668691180679e-03
2.191299816666e-03
1.929490898902e-03
1.801992614561e-03
5.021357309615e-03
5.413378247578e-03
4.938730896674e-03
1.962629389648e-03
7.396549693111e-04
3.052559415623e-03
3.136955965337e-03
3.283077438816e-03
1.598687307509e-04
2.193472717883e-04
5.176799582362e-04
1.646399827615e-03
4.476010659487e-04
3.103497725519e-03
0.0
1.933359932912e-03
4.174873570305e-03
3.277162825819e-03
5.055738530347e-03
3.910516641519e-03
3.910699350519e-03
2.335203039295e-03
6.321407009922e-04
5.850638891353e-03
6.009929428425e-03
3.804106063636e-03
3.142498704503e-03
2.378074668671e-03
6.000434500276e-03
1.932646254916e-03
3.261134435714e-03
3.129035808385e-03
2.954670140417e-03
5.838142907149e-03
5.995969196951e-03
4.354125543212e-04
1.813212541407e-04
9.186762200650e-04
3.162862848184e-03
5.377931686408e-03
0.0
4.886021985717e-03
0.0
3.610910406558e-03
3.669816600871e-04
9.031669178811e-05
3.461382625694e-03
5.195804270535e-03
4.290192669085e-03
3.148248508174e-03
2.197475915269e-04
4.109795966881e-03
5.851848957564e-03
6.003781657386e-03
3.276367122740e-03
3.775548124396e-03
5.863438389457e-03
4.268339267121e-03
6.020741917649e-04
4.453789533022e-04
2.347376138707e-04
2.636386499780e-03
5.872831094669e-03
5.638106297545e-03
1.897411018069e-04
3.087998710897e-03
5.740465009782e-03
5.879140074132e-03
5.731117611362e-03
4.595061384764e-03
5.043133831470e-03
5.707378045359e-03
5.713124045283e-03
4.886059613206e-03
4.831364360602e-04
3.253485872106e-03
3.293767224568e-03
1.826916767147e-04
5.690406926254e-03
5.768685902519e-03
5.617484584069e-03
4.524110312699e-04
4.596449148217e-04
5.588283914655e-03
5.603110956582e-03
4.452788727497e-03
3.251601896083e-03
4.737759423841e-03
3.834702661819e-03
3.246459497800e-03
5.228246461019e-04
4.912700086981e-04
4.440043287774e-04
5.321378525866e-04
3.250169139528e-03
2.937145446359e-03
0.0
4.118703550062e-03
0.0
5.832195033359e-03
5.846499430745e-03
5.850716816551e-03
1.037380994288e-03
2.016748291347e-03
5.852662976723e-03
4.973191529565e-03
5.880964851940e-03
5.257570989653e-03
5.538666694917e-03
2.787880833422e-03
6.016271676808e-03
6.012463975420e-03
5.083244388473e-03
5.379690173722e-03
4.387421699504e-03
0.0
2.857162677749e-03
4.252814149356e-04
5.079913712272e-03
2.910266083999e-03
4.760106554014e-03
1.643649883448e-03
5.383120855226e-04
5.098955867833e-03
3.125495581336e-03
2.489884669676e-03
4.818967528395e-03
5.278656552725e-03
2.495305030192e-03
4.255398696545e-03
3.844899893988e-03
4.331079183945e-03
4.483284984887e-03
1.722961733981e-03
2.890176896868e-03
2.847631786202e-03
4.036906121347e-03
4.963877593991e-03
4.634026856991e-03
1.657361628813e-03
5.268660436221e-03
4.977116357189e-03
3.619668627054e-03
4.170717328187e-03
4.186883659402e-03
5.342654512253e-03
5.152017188017e-03
3.775019514809e-03
5.233037882857e-03
4.914729909785e-03
4.640974992131e-03
5.247897151359e-03
5.303240859678e-03
4.541244193091e-03
4.128098936937e-03
1.538774070067e-03
1.637170348017e-03
8.927698521496e-04
6.525183474627e-04
5.158931490191e-03
5.044076979222e-03
5.868956833529e-04
5.121589647054e-03
3.733179451095e-03
4.678226682694e-03
4.762287906690e-03
2.074136809097e-03
4.809627862755e-03
3.622602601676e-03
3.895447150765e-03
5.345962366384e-03
1.472811966339e-03
5.235843009349e-03
4.707105507548e-03
1.674998648871e-03
1.997272543898e-03
3.477442011437e-03
4.193455430159e-03
2.343630985594e-03
4.867641149368e-03
4.387482060233e-03
3.338211884839e-03
4.524321097962e-03
4.677832988922e-03
4.679006337696e-03
1.339663578638e-03
3.198638979897e-03
4.633717260275e-03
4.840387351562e-03
2.897016443790e-03
3.936845676204e-03
5.082736818756e-03
4.511744960806e-03
3.674133562233e-05
7.677090780190e-04
5.119753373391e-04
4.910516809545e-03
4.354991661180e-03
3.826914815962e-03
3.891439679493e-03
4.711856603341e-03
3.483739004670e-03
4.620031677450e-03
1.591598461033e-03
5.218249190632e-03
3.412412426767e-03
1.736686848489e-03
3.262202328444e-03
2.478917580480e-03
2.035103586398e-03
3.755154455874e-03
1.564516804578e-04
1.127981756129e-04
4.252374733298e-03
1.464746990371e-03
4.246030270520e-03
4.094375942875e-03
2.616673579752e-03
1.812766898726e-03
5.102254688752e-03
3.465488540583e-04
2.625027282395e-03
4.837002714089e-03
1.192572476611e-03
4.082383260840e-03
3.767466409166e-03
1.326156531730e-03
4.910591653427e-03
4.645125771511e-03
1.410538395916e-03
5.226535373693e-03
5.199234746316e-03
1.660825990561e-03
2.070362284012e-03
1.741360747490e-03
4.534233564243e-03
3.626195608604e-03
5.169455195403e-03
5.078103462266e-03
4.392922361779e-03
4.325015664707e-03
1.344427675979e-03
4.473065100284e-03
4.621187335039e-03
3.681381110047e-03
4.381240135388e-03
4.808400950473e-03
2.590644772933e-03
4.947620929573e-03
3.085734269789e-03
3.550246213813e-03
2.335827574008e-03
2.490782004144e-03
4.488879741826e-03
3.165999505287e-03
1.852051741299e-03
9.795830009428e-04
4.513242120104e-03
1.766306002376e-03
5.166203144739e-03
4.649805208552e-03
4.614388070238e-03
5.225667178668e-03
2.979037457551e-03
1.585841628710e-03
1.011992460365e-03
4.379665078225e-03
4.223445145250e-03
6.765581779648e-04
2.432707948999e-03
1.398956561073e-03
4.216513153533e-03
2.555838114567e-03
4.011146820245e-03
2.390150431536e-03
5.006027676208e-03
2.059652164516e-03
4.350001019912e-03
1.794811250637e-03
4.222069039724e-03
3.406036415107e-03
4.462021920913e-03
1.339917336666e-03
1.350299010952e-03
3.939048831294e-03
3.691324572909e-03
2.830557802011e-03
4.239747352825e-03
1.991260803131e-03
4.297758287115e-03
1.272590086592e-03
4.947061823839e-03
3.839114394118e-03
4.100469873386e-03
5.406352818554e-03
3.435279919526e-03
1.276251192001e-03
3.890812531652e-03
5.018055530162e-03
2.209550982896e-03
4.531906710769e-03
4.676467859059e-03
1.712191406574e-03
4.059355262125e-03
3.877866350654e-03
1.909658390552e-03
2.315039142321e-03
3.261954618660e-03
4.303145841247e-03
2.635421671348e-03
3.059028444222e-03
4.459399445595e-03
4.056901073063e-03
3.999117941319e-03
3.350783493908e-03
4.741842824469e-03
3.716486713275e-03
3.922920566098e-03
5.252343855285e-03
4.304735037625e-03
4.138095280470e-03
4.783696522489e-03
2.607621039471e-03
2.469838949813e-03
1.432823964346e-03
4.007204605408e-03
2.590823974833e-03
4.347452842024e-03
4.183394403681e-03
2.669547662572e-03
2.085784252471e-03
1.474019061621e-03
2.212107321881e-03
2.350809507915e-03
1.463075537230e-03
4.569504511566e-03
2.669001313969e-03
4.972812165115e-03
2.750604982809e-03
3.790160523716e-03
3.207941504412e-03
2.889645016640e-03
1.541106990513e-03
4.841361927258e-03
5.091339779464e-03
4.032052527629e-03
2.472525954974e-03
3.495149155929e-03
4.324118500003e-03
2.732643322525e-03
2.578422691737e-03
2.150698556139e-03
2.106845042594e-03
2.726649439388e-03
1.894721435353e-03
1.784390543315e-03
3.334917325845e-03
3.967235808941e-03
4.797201624805e-03
4.779022984785e-04
2.400918837851e-03
2.556449603619e-03
2.577694805080e-03
4.159825931864e-03
2.931072335017e-03
2.192293877224e-03
2.827325159198e-03
4.815904702500e-03
2.276675714296e-03
8.000720813987e-04
1.154840506689e-03
1.907795704095e-03
2.221538328191e-03
2.622719745119e-03
2.913483858148e-03
1.764083930753e-03
1.225103944880e-03
3.978408581491e-03
1.973233867528e-03
4.352924711069e-03
4.600918209764e-03
3.992519858041e-03
5.014455028265e-03
4.977573847805e-03
2.548565445421e-03
4.312209701199e-03
1.977881610171e-03
2.972886214248e-03
2.522487306746e-03
1.343329153242e-03
1.686644144900e-03
2.487335316614e-03
2.744769011227e-03
2.804656212940e-03
2.029273826370e-03
3.023258905964e-03
2.603498899914e-03
2.484258941744e-03
2.359041018273e-03
3.843548607210e-03
4.482822863784e-03
2.260889845850e-03
4.670023540639e-03
2.097337949930e-03
5.002347225511e-03
2.827679967364e-03
5.203491602561e-03
3.947077556837e-03
1.774963125665e-03
4.099246498151e-03
5.100371074435e-03
2.915547663855e-03
2.161634842982e-03
4.202460859535e-03
3.063723291001e-03
1.589122566935e-03
5.594818322494e-03
1.323577671794e-03
4.905374215111e-03
5.240056690777e-03
4.004250475148e-03
4.022036132739e-03
4.908739948371e-03
2.656489500895e-03
3.014023661640e-03
5.295279977407e-03
4.266560699203e-03
4.614700973159e-03
3.798037729663e-03
1.755388368310e-03
4.742604083367e-03
5.518069405150e-03
5.004957839638e-03
2.836493463262e-03
4.042556476747e-03
3.862526569830e-03
2.990307102709e-03
4.091149418794e-03
4.218450148723e-03
1.096098833511e-03
1.326857373094e-03
2.403878583947e-03
2.433427464003e-03
2.925956778214e-03
5.469614393342e-03
5.117047102826e-03
5.259865256129e-03
2.804866215072e-03
4.812380906171e-03
4.181034339560e-03
5.346185944049e-03
4.575117160927e-03
3.073764877658e-03
2.227900412936e-03
4.723026116701e-03
5.199457669429e-03
4.754736712479e-03
4.593382364392e-03
4.706207203460e-03
4.760938801400e-03
4.529156841862e-03
3.673004527565e-03
2.793183285108e-03
4.176641122849e-03
4.482872570103e-03
1.720752477746e-03
2.523073950019e-03
2.936964334964e-03
3.355527503238e-03
6.764221038374e-04
2.312131514981e-03
3.694823953479e-03
3.162738673778e-03
3.106094428709e-03
4.275586722866e-03
3.420444478414e-03
8.056313501550e-04
3.608028323112e-03
4.113825723424e-03
5.289575565494e-03
2.786040332148e-03
3.385556211389e-03
4.320502265356e-03
1.220460717409e-03
3.955179298540e-03
3.165570628649e-03
3.317308554295e-03
4.304146306300e-03
1.881742204703e-03
4.432932293431e-03
4.823215265074e-03
3.806542070162e-03
4.778108728743e-03
4.481570645652e-03
4.886746565618e-03
1.498086320626e-03
4.448193879400e-03
4.826216477314e-03
4.887560636574e-03
3.468158111994e-03
2.473653699252e-03
3.471604947544e-03
3.515654411098e-04
5.048129172683e-03
1.854985291829e-03
1.640845901064e-03
4.384273219759e-03
5.379705512614e-03
1.962931709496e-03
3.460402464098e-03
4.556944250926e-03
3.383719843055e-03
1.271639043889e-03
2.155596217495e-03
1.530379692595e-03
1.562946298421e-03
1.725992673060e-03
3.128123404018e-03
5.978757202265e-03
1.878932715142e-03
4.874265144994e-03
2.021312508689e-03
4.410645559788e-03
5.446402050903e-04
5.032053835528e-03
1.857540691758e-03
2.167450437020e-03
4.007316872521e-03
2.865792508923e-03
4.633094935503e-03
2.352487737097e-03
4.663962013380e-03
4.869204411424e-03
4.429689118342e-03
5.301599282418e-03
4.867555126114e-03
4.994292368551e-03
1.585731642834e-03
4.731482311295e-03
4.686031286375e-03
2.832067385881e-03
2.158927091379e-03
5.079003029780e-03
9.596911832810e-04
2.094098399874e-03
4.422688948064e-03
1.248071604353e-03
3.111224166074e-03
4.143397073039e-03
5.269510986050e-03
5.404504160547e-03
4.032131518505e-03
5.035214563043e-03
2.288963266599e-03
4.497236254835e-03
2.449891336582e-03
5.141368132138e-03
2.751749660152e-03
2.878729614698e-03
2.670941398415e-03
3.064327322831e-03
3.458691017845e-03
2.658280149013e-03
2.653753714281e-03
9.811593336372e-04
2.441082358799e-03
5.179437752949e-03
5.268578940823e-03
4.434728242993e-03
4.747389467129e-03
2.702179599475e-03
4.975773677779e-03
2.582283479392e-03
4.888861475009e-03
4.848446586374e-03
4.829227704648e-03
3.615324373437e-03
2.341624150185e-03
4.784583869030e-03
3.957491419921e-03
1.700601644229e-03
7.020950745825e-04
2.481218771102e-03
3.497363371298e-03
5.046415826891e-03
4.704605430921e-03
2.322695645322e-03
3.926363227239e-03
4.300034730448e-03
5.071297943610e-03
4.988482903574e-03
4.232489050894e-03
4.476485377380e-03
2.821806331728e-03
4.336206174646e-03
3.171626869689e-03
5.322298740710e-03
5.194634648291e-03
3.273686732189e-03
5.984151931342e-04
4.585743008913e-03
3.386888275758e-03
2.214504551746e-03
3.505745048799e-03
4.392421827443e-03
8.649412715447e-04
2.929672516780e-03
4.200855765301e-03
5.106738436651e-03
4.301405107970e-03
4.492473167653e-03
4.094600791655e-03
3.873742424529e-03
4.049253002460e-03
4.546913092459e-03
4.646225374320e-03
4.523702894857e-03
5.390087395958e-03
3.985020216099e-03
1.618655921058e-03
4.788488793259e-03
5.359924628782e-03
3.005660619524e-03
3.223226449347e-03
1.971525089256e-03
4.648699280585e-03
2.766011387022e-03
3.573201295524e-03
2.703531881720e-03
4.214659544868e-03
5.069771484117e-03
2.121431133427e-03
4.058193802695e-04
5.341003982022e-03
2.920796651996e-03
2.806031036896e-03
4.893352200413e-03
4.541058644014e-03
4.477853504311e-03
2.415871683082e-03
1.091173224408e-04
5.297107160487e-03
3.566992170965e-03
3.964772993216e-03
4.908749566295e-03
0.0
4.396335016970e-03
1.721264210827e-03
4.247426129010e-03
3.657351708374e-03
2.094475387503e-03
4.954039962137e-03
3.497476297263e-03
1.752352387144e-03
3.730384878291e-03
3.763523260525e-04
4.296335070821e-03
4.232332728486e-03
5.300157964833e-03
4.591233936654e-03
1.028298279476e-03
4.511210016349e-03
5.453521427974e-03
5.267588892161e-03
4.434702429965e-03
2.462650568201e-03
4.009248660887e-03
5.046804183108e-03
3.535212461732e-03
4.396897747975e-03
4.393389450935e-03
4.800902351973e-03
4.606296382436e-03
3.122680214006e-03
3.120274423476e-03
4.382256899136e-03
4.111044512030e-03
3.813633009546e-03
4.221320453715e-03
3.279774802709e-03
4.769766446077e-03
2.542727818687e-03
5.983048558159e-03
3.591210545370e-03
3.168624506568e-03
3.557292247720e-03
9.531416278352e-04
3.230009085735e-03
3.834311612934e-03
3.683361306900e-03
4.361379102542e-03
4.324884584529e-03
4.497716242812e-03
9.296305416927e-04
3.000738260246e-03
2.877206011432e-03
4.129391706328e-03
4.309346871824e-03
4.660717579237e-03
1.390083491195e-03
1.337430359801e-03
3.372007376568e-03
3.118387867984e-03
2.908488767762e-03
3.071482520293e-03
4.375276169837e-03
1.579296571718e-03
3.441254145347e-03
4.169540997438e-03
5.233780527266e-04
5.376588438414e-03
5.149299469470e-03
3.407577951504e-03
4.596633708749e-03
5.291684185247e-04
4.017860612446e-03
3.529401166009e-03
5.097626183355e-04
5.132298664917e-03
7.847782572497e-04
4.127046447011e-03
3.654659147826e-03
2.736631618381e-03
3.532903553380e-03
5.264031271081e-03
3.850209962935e-03
3.431861875086e-03
3.323620881928e-03
5.457679815637e-04
4.250590229058e-04
4.681238603658e-03
4.043631383605e-03
4.795280597812e-03
2.001212315519e-03
4.830518942522e-03
4.896214853729e-03
3.151597474926e-03
4.683508434643e-03
4.666996016599e-03
3.909137558089e-03
3.276352252530e-03
3.497938959203e-03
5.375951367089e-03
3.220959364287e-03
3.760026043850e-03
3.137860209432e-03
4.172566943858e-03
2.940253828480e-03
1.143043258969e-03
3.094440534048e-03
1.421741084883e-03
4.229813709731e-03
1.395709131982e-03
4.036588971796e-03
4.570721815773e-03
4.340933322801e-03
2.781057843546e-03
4.194893651729e-03
4.753168581798e-03
4.818117472809e-03
1.337755850323e-03
4.137746118188e-03
5.209940225679e-03
2.346590375691e-03
3.683805328026e-03
7.449910221542e-04
4.902778118811e-03
1.132231217255e-03
3.562582783365e-03
3.984078078079e-03
4.208916939956e-03
4.023939684233e-03
3.635866043279e-03
2.594201963328e-03
2.755506096816e-03
4.964224152630e-03
3.752359726194e-03
3.049378824758e-03
3.951824469440e-03
2.751998479851e-03
1.270610342763e-03
2.569385874887e-03
3.772607831583e-03
3.271605333460e-03
4.369076492911e-03
2.705575969413e-03
5.066065955323e-03
4.914430261524e-03
2.994647378897e-03
5.394625854804e-03
1.628019428153e-03
4.948546199405e-03
3.599675338089e-03
3.985333370223e-03
4.676994841526e-03
2.599416272208e-03
3.952410327413e-03
2.849041735521e-03
3.845590045576e-03
1.946537266926e-03
4.082691990806e-03
2.599671966463e-03
3.723013565829e-03
3.865662068831e-03
5.887470109934e-04
3.453775351858e-03
1.200495782290e-03
9.684342886303e-04
3.597379235346e-03
4.690298881192e-03
4.138119897075e-03
2.292437587727e-03
5.849140828973e-03
1.853697180041e-04
2.448985812848e-03
3.130150269505e-03
3.550843563428e-03
2.957877931277e-03
1.876075245636e-03
3.442132234492e-03
3.806568376354e-03
3.777536702449e-03
4.965844843458e-03
1.161492389179e-03
3.317749060185e-03
3.622478808600e-03
2.112089838123e-03
3.317999481308e-03
4.153535609678e-03
4.505816054949e-03
6.237202834362e-04
0.0
1.573012222717e-03
3.691965033318e-03
1.969230988537e-03
1.898292932230e-03
1.294352397267e-03
3.753016074333e-03
4.366198405172e-03
3.768697917664e-03
1.871438903480e-03
4.121048902823e-03
3.672677354322e-03
4.305538666813e-03
3.830322098392e-03
3.828543141580e-03
1.984443132618e-03
2.202423137923e-03
3.907189118964e-03
4.304428646692e-03
4.049985857339e-03
2.152295599124e-03
3.904305982153e-03
2.181745308855e-03
1.601820863611e-03
4.956049478681e-03
1.401476559850e-03
2.111889315513e-03
3.321047263052e-03
2.268346872781e-03
3.969667780703e-03
1.889119106674e-03
3.396365532197e-03
3.971070620537e-03
2.946304068913e-03
3.537025974587e-03
1.811375157662e-04
5.205294236013e-03
2.387586220924e-03
4.665614783562e-03
3.968807703245e-03
4.049703598051e-03
4.107544981389e-03
1.695791505847e-03
1.026663475019e-03
1.642477002779e-04
4.189723483469e-03
4.659166707092e-03
2.346343365980e-03
4.226192121581e-03
2.191228217425e-03
4.314363055978e-03
5.445403603490e-03
0.0
5.877232482387e-03
5.753927133567e-03
3.517916756623e-03
2.567108847699e-03
3.885798105456e-03
1.761253100682e-03
8.753437067106e-04
5.824479928858e-04
5.430593790634e-03
4.272773126407e-03
3.281421806576e-03
5.755399577457e-03
1.584674166795e-03
5.735458500835e-03
4.260634587508e-03
2.681067374150e-03
3.703032091483e-03
2.313425682848e-03
1.747876205062e-03
2.269306335304e-03
4.472296584069e-03
5.084185534072e-03
2.122483088170e-03
4.416764738030e-03
0.0
1.927997949303e-03
4.734679441239e-03
2.334640526172e-03
2.293466231138e-03
3.672079540127e-03
1.427206149762e-03
1.708336649171e-03
1.861547325864e-03
2.108699433633e-03
3.250126257064e-03
3.062054677212e-03
4.401537229797e-03
5.307742241174e-03
1.980497234217e-03
4.592105580898e-03
5.228738582180e-03
1.508615138678e-03
1.258398003978e-03
2.320259230208e-03
3.145384584978e-03
4.507488684930e-03
3.013439603112e-03
1.036494360999e-03
3.559288459622e-03
1.877421539577e-03
3.009312651742e-03
3.329936939808e-03
3.782961951353e-03
4.184693822016e-03
2.263846250652e-03
1.320964814853e-03
3.656275706453e-03
1.881021925859e-03
0.0
5.409655559408e-03
5.162683398980e-03
2.729094268368e-04
3.875711687704e-03
1.849949503547e-03
1.815075747793e-03
4.705943890402e-03
3.753312262213e-03
4.510634549489e-03
2.148267383418e-03
3.276008673573e-03
5.353793394855e-03
1.533498694127e-03
4.496561684191e-03
3.235629882711e-03
1.109441694527e-03
4.399839461738e-03
2.050705679004e-03
7.682699673756e-04
1.606426913977e-03
4.404965734730e-03
4.489139406804e-03
1.520865044627e-03
3.643992042794e-03
4.612769071813e-03
4.502280914076e-03
2.204419621287e-03
1.846579794431e-03
3.359329712729e-03
4.124746711535e-03
7.891390788467e-04
5.560751100390e-03
5.548964266607e-03
3.671227968295e-03
5.630388145665e-03
5.535998868057e-03
2.170965590618e-03
2.370185578734e-03
5.368043001177e-03
0.0
1.709110066567e-03
3.659126116834e-03
2.387294836944e-03
1.879148258664e-03
1.458848135816e-03
1.621284849436e-03
3.747506275773e-03
1.892131702059e-03
1.979788942566e-03
4.392042265884e-03
5.804343183406e-03
5.787944820255e-03
2.351876001022e-03
3.390799711467e-03
0.0
1.230366790518e-03
1.463542949792e-03
1.380432272447e-03
3.535543274713e-03
2.106380670562e-03
2.153393122630e-03
5.222734221172e-04
5.154439084150e-03
2.367565598648e-03
5.388275058918e-03
4.954992804617e-03
6.024570796398e-03
5.886693922548e-03
3.753433328928e-03
2.527170991278e-03
1.725379432797e-03
2.498420104998e-03
5.703744763384e-03
9.120404607056e-04
1.119100263323e-03
4.692417281221e-03
3.538901703328e-03
5.427938698995e-03
4.594213998741e-03
4.821231617115e-03
4.878843592402e-03
3.720203756123e-03
2.190074141244e-03
2.006325653896e-03
4.404135688044e-03
4.687878422867e-03
3.117837671459e-03
3.529702774384e-03
3.752961490192e-03
3.830800216791e-03
4.743220089301e-04
1.891519218784e-03
5.771465514508e-03
4.089532321688e-03
5.391930956668e-03
5.395352371543e-03
4.403465603732e-03
5.428295798469e-03
2.711349306453e-03
2.579117857356e-03
5.122665484976e-03
0.0
1.840758435860e-03
5.616042079043e-03
8.237432765106e-04
3.385098086166e-03
5.098464473505e-03
5.994795909040e-04
3.983112400915e-04
5.989580935828e-03
3.133104392698e-03
5.665785838847e-03
4.960111850706e-03
3.124857482388e-03
0.0
5.632893496604e-03
9.982363891210e-04
5.455855807356e-03
5.714313673249e-03
5.360106047106e-03
8.140468256158e-04
3.782530279231e-03
2.880362090628e-03
4.355508239889e-03
5.671711904199e-03
4.776155304540e-03
5.663484683731e-03
0.0
5.589551347142e-03
1.512890600852e-03
7.914478455334e-04
5.397054391262e-03
5.743402050252e-03
5.733536642357e-03
3.426595864351e-03
3.717007925183e-03
1.646038233533e-03
5.655472529231e-03
2.339881504149e-03
8.036133470504e-04
4.521262599813e-03
3.249064134649e-03
5.466053350078e-03
5.951132079152e-03
5.885235530218e-03
4.854921181183e-04
3.182268852090e-04
3.189601210708e-03
3.264417416490e-03
5.744673122169e-03
5.821030348919e-03
4.049503436329e-04
0.0
5.287127657436e-03
5.147388720085e-03
1.173728759617e-03
5.308389383186e-03
3.861412420017e-03
3.447396140137e-03
4.313090326591e-03
1.487039342624e-03
4.054223007771e-03
9.352616087626e-04
3.085786119638e-03
5.355845819130e-03
5.346807489972e-03
3.320434685778e-03
3.970741636665e-03
5.313594699531e-03
4.970757498224e-03
4.685070856500e-03
3.121604600955e-03
3.851714109814e-03
5.392942080288e-03
1.774965986013e-03
4.406585063081e-04
5.044417363226e-03
4.474595389771e-03
1.114377206921e-03
4.510176921097e-03
5.486912845254e-03
4.947561165270e-03
5.266766084571e-03
4.198063581823e-03
0.0
1.470518372103e-03
1.753101937549e-03
3.631135606701e-03
3.881045925371e-03
5.513487264780e-03
5.223998920856e-03
1.020852490991e-03
8.247746946980e-04
1.369961284446e-03
4.515742145024e-03
2.251628283076e-03
5.512574297706e-03
1.101239483144e-03
4.944710226892e-03
3.686457503037e-03
5.316904859013e-03
4.584108386174e-03
3.633631005452e-03
5.441228742427e-03
5.760973095862e-03
5.768457653903e-03
1.076429508706e-03
5.403578302253e-03
5.433000637951e-03
5.028809833893e-03
4.690494387880e-03
5.655330995816e-03
4.686381379503e-03
0.0
1.396280660218e-03
5.170660034106e-03
3.932337476204e-03
5.342833454285e-03
4.884276764452e-03
5.447158665414e-03
4.847067005331e-03
5.305854444718e-03
5.181492536697e-03
5.139590615884e-03
2.342515450525e-03
5.825123485814e-03
3.511800923746e-03
5.448173838807e-03
7.428025292534e-04
5.262596336557e-03
4.547206860874e-03
6.035790654862e-04
8.086025518277e-04
4.796988799160e-03
5.631992981559e-03
5.519397513834e-03
5.310091205385e-03
3.912116890080e-03
3.336829723450e-04
7.216677684814e-05
3.636648382109e-04
1.164636641950e-03
0.0
3.057585890836e-03
5.327921971227e-03
5.411971840112e-03
3.914684461503e-03
2.701530490713e-03
5.213565150943e-03
5.007366373899e-03
5.467264405238e-03
5.207424473042e-03
5.074998992932e-03
6.015575377216e-04
0.0
5.376601054342e-03
4.998770260557e-04
7.354796995695e-04
4.650576109338e-04
6.246802752465e-04
5.332466837785e-03
5.508668632613e-03
5.527152150685e-03
5.370182133116e-03
4.813648012505e-03
4.090345476850e-03
5.872497858860e-03
1.688844706779e-03
3.242062731608e-03
1.296527781915e-03
2.048831776387e-04
5.850745223492e-03
3.550974671321e-03
8.641995463890e-04
2.926275799080e-03
5.656777809006e-03
5.503877635999e-03
5.618051296971e-03
2.129346423962e-03
0.0
5.566911874099e-03
6.011875443670e-03
5.902551827901e-03
3.412317331757e-03
4.981747800379e-03
7.975484814361e-04
5.534656444521e-03
1.991551371557e-04
5.305266967479e-03
5.730842396305e-03
0.0
4.981060490428e-03
4.675346069498e-03
5.654646432844e-03
5.577265656584e-03
4.298496663279e-03
5.550848395389e-03
5.494928221657e-03
4.409266495861e-03
5.352947711999e-03
2.479552746464e-03
3.115289873894e-03
5.217348424536e-03
5.739897385503e-03
2.130598970231e-04
3.124201721815e-03
5.632614020689e-03
1.101480850632e-03
5.091661295346e-03
5.450633370530e-03
5.763755232995e-03
1.048262864143e-03
9.819337037052e-04
3.563851573438e-03
5.043841388328e-03
0.0
5.651156742465e-03
4.142985444651e-03
1.530326117569e-03
3.945008028744e-03
5.471691496627e-03
3.728983518662e-03
7.201570540939e-04
2.244711810372e-03
3.243419354848e-03
3.838568504311e-03
5.141366330764e-03
3.163902532595e-03
3.328394715870e-03
5.059368158880e-04
5.311799105867e-03
5.084872395273e-03
7.504975414656e-04
5.677168446605e-03
5.592115835300e-03
3.482521557627e-03
4.251403145156e-03
3.187364706085e-03
3.251257493807e-03
3.439701907309e-03
4.794833467625e-03
1.169016289084e-03
5.320349723071e-03
3.618781519640e-03
5.751198579347e-03
4.781103524799e-03
4.050232424031e-03
5.211038119852e-03
5.105861927613e-03
5.449330151016e-03
7.104254593755e-05
5.217846714948e-03
5.418217703554e-03
5.880291415762e-04
2.994215514378e-03
2.729319316383e-05
5.459819003965e-03
1.683449326718e-03
1.587854795547e-03
1.752598431419e-03
1.591766725302e-03
1.755487976330e-03
1.592117775931e-03
1.755748046157e-03
1.592908272950e-03
1.756447334746e-03
1.594070061262e-03
1.757338428947e-03
1.595439880483e-03
1.758184168094e-03
1.596577541790e-03
1.758623494902e-03
1.597525668631e-03
1.758893612162e-03
1.775142239223e-03
1.598533292336e-03
1.759097363679e-03
1.623922942480e-03
1.599734639697e-03
1.759352779785e-03
1.600889530669e-03
1.759429545330e-03
1.601695349042e-03
1.661375170989e-03
1.759017839227e-03
1.602504728646e-03
1.759776800456e-03
1.605089372780e-03
1.760876941343e-03
1.607636798844e-03
1.764585957995e-03
1.612270932848e-03
1.763785538860e-03
1.613389646122e-03
1.731789320293e-03
1.619837371080e-03
1.773607484692e-03
1.614639726010e-03
1.763145728161e-03
1.795737480388e-03
1.561865745593e-03
1.759407810678e-03
1.617423548206e-03
1.696652227122e-03
1.608070457612e-03
1.637166809082e-03
1.978075538529e-03
2.068879625806e-03
1.902590828716e-03
2.062161995598e-03
1.898060516849e-03
2.062005351751e-03
1.898519902904e-03
2.062707203719e-03
1.899593226571e-03
2.063756227685e-03
1.901151117505e-03
2.065159394734e-03
1.903035017397e-03
2.065878819387e-03
1.904260045321e-03
2.066054267018e-03
2.081255348113e-03
1.904941591621e-03
2.066518291686e-03
1.946229207625e-03
1.906538266237e-03
2.067300682488e-03
1.912400718489e-03
1.908299225307e-03
2.067775509969e-03
1.909424505434e-03
2.067392831623e-03
1.909798919589e-03
2.065159627985e-03
2.019164063614e-03
1.909657238486e-03
2.069050084578e-03
1.913990891757e-03
2.066625557090e-03
2.079233419176e-03
1.915722788534e-03
2.058653760931e-03
1.921030618245e-03
2.092125439694e-03
1.905326932506e-03
1.827911328399e-03
1.974792546786e-03
2.109959634287e-03
1.963899074007e-03
2.050594123143e-03
1.898921720586e-03
2.308296873625e-03
2.212383277902e-03
2.377889872021e-03
2.214994051217e-03
2.379726867620e-03
2.216547427580e-03
2.381089610341e-03
2.216872246426e-03
2.381752235969e-03
2.218454871060e-03
2.383250492322e-03
2.220224400099e-03
2.385222509952e-03
2.222734674364e-03
2.386383023483e-03
2.391862537500e-03
2.221806440899e-03
2.220677278307e-03
2.385011920154e-03
2.223422370937e-03
2.386582139412e-03
2.226346237541e-03
2.388440069183e-03
2.227280475162e-03
2.250484607725e-03
2.388398609737e-03
2.227668810492e-03
2.387714431866e-03
2.226868736979e-03
2.381778775207e-03
2.225381309291e-03
2.391304783019e-03
2.233950156438e-03
2.220516966315e-03
2.381499207426e-03
2.320752866227e-03
2.406602035383e-03
2.125680874572e-03
2.371949036351e-03
2.230910756870e-03
2.319921770893e-03
2.232416445766e-03
2.197022376616e-03
2.606499819159e-03
2.690961257714e-03
2.522000530317e-03
2.681395089224e-03
2.516611695707e-03
2.684936923134e-03
2.520724084807e-03
2.682910389250e-03
2.518155025397e-03
2.685720127669e-03
2.522107693972e-03
2.686100147812e-03
2.522572435250e-03
2.701698277203e-03
2.691814660839e-03
2.527183984821e-03
2.558519512118e-03
2.685492272813e-03
2.523715955889e-03
2.521830125806e-03
2.687781338981e-03
2.527976907291e-03
2.692519047907e-03
2.530769531241e-03
2.691005186238e-03
2.620190236794e-03
2.529256469091e-03
2.690152839742e-03
2.692355677766e-03
2.530525369073e-03
2.668560171641e-03
2.530830175599e-03
2.711856376190e-03
2.517118108963e-03
2.429701944538e-03
2.579121291386e-03
2.733210654048e-03
2.586513323000e-03
2.669335382215e-03
2.501112406734e-03
2.952964194819e-03
2.821859864007e-03
2.991596827692e-03
2.833511162691e-03
2.996758346163e-03
2.839990296122e-03
3.006645179008e-03
2.831291115803e-03
2.995872769527e-03
2.837184649027e-03
3.005449104704e-03
2.838583631022e-03
3.016774272030e-03
3.001904421592e-03
2.851312415787e-03
2.832771918756e-03
3.009442756207e-03
2.842210225621e-03
3.000234049433e-03
2.844919680408e-03
3.009082672670e-03
2.844437144164e-03
2.872310885887e-03
3.011912840164e-03
2.842005763748e-03
3.004113999591e-03
2.837696132236e-03
2.839675268707e-03
3.003734450339e-03
3.017107183080e-03
2.932857225621e-03
2.738763543566e-03
2.957508157439e-03
2.875589959643e-03
2.947488772035e-03
2.848489924599e-03
2.817296966531e-03

SCALARS element_materi_plasti_phimob float
LOOKUP_TABLE default
9.389445820343e+00
1.071801593547e+01
1.944634992655e+01
1.891663465427e+01
1.272619423735e+01
2.811873602037e+01
1.282500885445e+01
1.450627327880e+01
1.283073557741e+01
1.888195624889e+01
1.968637021123e+01
1.153641844742e+01
2.056480669122e+01
1.383737055754e+01
2.056482058579e+01
1.914514196531e+01
1.225941916311e+01
2.590076095646e+01
9.797767571587e+00
9.660131189449e+00
1.885577337237e+01
6.549772403532e-01
6.021527108181e+00
2.190331556174e+01
1.492150414610e+01
1.989425568036e+01
1.038486763410e+01
2.103733265190e+01
1.489851214963e+01
2.177689233058e+01
2.118681773894e+01
-1.905132483006e+01
1.935034085562e+01
2.032429855522e+01
2.103900671046e+01
2.075994330545e+01
2.071628988787e+01
2.170166461812e+01
1.100767539126e+01
1.113391481611e+01
6.351927700352e+00
2.095852174186e+01
1.594359874543e+01
1.030268814375e+01
1.863104913266e+01
1.835253403847e+01
2.512611289458e+01
1.872723293745e+01
1.575394290573e+01
1.314078408351e+01
6.034744297758e+00
1.214082682967e+01
2.612481823862e+01
2.297750903096e+00
1.924524465059e+01
1.490921254929e+01
1.233853264597e+01
2.037443108767e+01
5.171955769074e+00
1.912680405217e+01
1.221277508571e+01
2.156102535182e+01
1.713594738046e+01
2.537843657850e+01
2.060384085974e+01
6.750375234962e-01
1.616754806758e+01
1.939030621094e+01
7.426780434250e+00
2.014773044979e+01
2.008233879751e+01
1.965325721886e+01
2.071426185589e+01
-1.017321105175e+01
1.529723265295e+01
1.892355954850e+01
1.917167892457e+01
1.953355868411e+01
4.082009019589e+00
1.867562509611e+01
8.420019380085e+00
1.219271966733e+01
7.348121000212e+00
1.201877567887e+00
1.359030159499e+01
1.364255794615e+01
2.012327338672e+01
2.028251385175e+01
1.797160557626e+01
1.259207195521e+01
-2.094739561650e+01
1.214737555663e+01
1.728067330723e+01
1.709210479233e+01
1.942556976296e+01
2.128626909047e+01
1.206018750894e+01
2.135544203894e+01
1.506700271847e+01
1.663985563616e+01
1.184922463047e+01
2.060718290358e+01
2.241817361987e+01
2.149390910322e+01
2.276136819164e+01
1.724164442861e+01
2.048773620556e+01
1.774606858579e+01
1.970226129010e+01
2.057086526990e+01
1.773681477149e+01
-2.310621093835e+01
2.302768396234e+01
1.041189953211e+01
1.710984937515e+01
1.593819343394e+01
1.905057659903e+01
2.090040441502e+01
1.464913653283e+01
1.940778097875e+01
4.277131457744e+00
1.217474790992e+01
1.783014471370e+01
2.090706567726e+01
2.215808506487e+01
8.367699370627e+00
1.696004821092e+01
5.958216869224e+00
1.919073713310e+01
2.600084830749e+01
1.995049618555e+01
1.893946018345e+01
1.305931605723e+01
7.326944025940e+00
2.119183272728e+01
2.055482639513e+01
2.020779368629e+01
1.361798393667e+01
2.161113660092e+01
1.083107807163e+01
1.906849462599e+01
1.997240705025e+01
1.373536049027e+01
1.623725077406e+01
1.181648645237e+01
4.276217959695e+00
1.459384337548e+01
2.307508138942e+01
1.223245940491e+01
2.409149243856e+01
-2.208612814646e+01
1.362630848349e+01
5.657255323891e+00
9.466306934354e+00
2.107160156174e+01
2.147478190575e+01
2.022834437118e+01
1.694122353691e+01
2.231814637638e+01
1.251318277249e+01
2.460765709775e+01
2.041773433369e+01
4.761147671164e+00
2.051018902534e+01
1.262501565647e+01
2.076270302767e+01
1.244702381780e+01
2.321017331446e+01
8.910237330829e+00
1.975138614213e+01
1.472717921475e+01
2.551056150938e+01
1.669257353660e+01
1.237705901426e+01
2.318150198858e+01
7.506177650967e+00
1.904572679803e+01
1.777266871204e+01
2.091244253381e+01
2.014088795543e+01
1.596396815749e+01
1.776638702398e+01
2.246912146087e+01
9.317993208275e+00
1.372315997251e+01
1.147214056042e+01
2.296843160448e+01
1.908187713561e+01
1.748356346745e+01
2.045835893657e+01
1.941508709870e+01
2.687081974430e+01
1.794640868458e+01
1.045230221617e+01
8.122012966759e+00
2.277112482885e+01
-1.894348316695e+00
1.915565432577e+01
1.602575181490e+01
2.130213205019e+01
2.309239003880e+01
1.344228194370e+01
1.442350744084e+01
2.153776590262e+01
1.671786532733e+01
1.592046345495e+01
1.374115756670e+01
1.643532818265e+01
1.338612439662e+01
1.160950163476e+01
2.338808695305e+01
1.867937342478e+01
1.272185401020e+01
1.279265131607e+01
1.377037642740e+01
1.512427683117e+01
1.775425281307e+01
3.014283731192e+01
2.283897905118e+01
1.219768568268e+01
2.604941185187e+01
2.281359245370e+01
-1.541445820136e+01
1.690616001867e+01
-2.123560193380e+01
-2.792827983688e+00
1.725494124653e+01
1.429511145289e+01
1.723725028722e+01
1.327056886958e+01
2.323396208990e+01
1.936739493156e+01
6.533038124683e+00
2.288410176175e+01
1.282717951286e+01
2.065459748866e+01
1.087899910049e+01
2.461815514226e+01
2.550732302417e+01
7.540654670627e+00
2.321503339736e+01
2.078663438270e+01
1.701513481947e+01
2.879749042807e+01
2.263367679743e+01
2.002790942788e+01
1.498218947630e+01
1.650787007684e+01
2.111412075372e+01
2.619557403897e+01
2.367480673916e+01
1.473691812293e+01
1.944079088168e+01
1.672492509103e+01
2.515360843949e+01
1.386893265483e+01
8.480377177478e+00
1.323630348080e+01
2.785701705030e+01
3.037304369713e+01
2.718395365207e+01
1.728401895000e+01
1.434674753098e+01
2.146182738800e+01
1.758959529769e+01
1.749306329298e+01
1.496780029391e+01
2.066470961959e+01
2.506752346732e+01
1.506189176616e+01
2.268386564520e+01
2.454369647163e+01
3.036487758743e+01
1.204710097322e+01
2.655459535356e+01
2.769038297145e+01
1.701091339347e+01
5.872542379538e+00
1.393156881822e+01
2.866953623766e+01
2.605625946571e+01
3.032180508452e+01
1.540511470346e+01
-4.781214988422e+00
1.139042686985e+01
2.449002411856e+01
1.417081131173e+01
1.351541289064e+01
2.983910552710e+01
2.947606409008e+01
2.644965701075e+01
1.364074604067e+01
1.651124452712e+01
1.434810396884e+01
2.716672935468e+01
2.677418407031e+01
2.811262500466e+01
2.277304312537e+01
2.139166099688e+01
1.956535752956e+01
1.969584971687e+01
1.742187629604e+01
2.917934428962e+01
2.732918216445e+01
1.578145471079e+01
2.908853115358e+01
2.891187297282e+01
1.452185592647e+01
1.901735870181e+01
2.740964203383e+01
2.317787143809e+01
2.402490106453e+01
2.130368393078e+01
2.795895196389e+01
1.576256981759e+01
3.092093820765e+01
2.443014841899e+01
2.607677422956e+01
2.721365906850e+01
1.399921695063e+01
2.015434570369e+01
2.794661769101e+01
2.457206950819e+01
2.442065645891e+01
1.567173079307e+01
2.324181398275e+01
2.207604801603e+01
1.518880996252e+01
2.070493709789e+01
2.279230631370e+01
1.991413012378e+01
1.502342910833e+01
1.778387027893e+01
2.079176512065e+01
1.237661450760e+01
1.480280440683e+01
1.525582765549e+01
1.810240009244e+01
2.101796052156e+01
1.445061040693e+01
1.240704289438e+01
2.733278983186e+01
1.070813089302e+01
1.089022655356e+01
2.300002135292e+01
1.246427701561e+01
2.477281392903e+01
2.811329099882e+01
1.734119439928e+01
2.440933325598e+01
1.336434943634e+01
2.450345716606e+01
2.339528602525e+01
2.130510306443e+01
9.716154846242e+00
3.044737001929e+01
2.071384440856e+01
1.785982473205e+01
2.048277651085e+01
1.817459695824e+01
1.603555605421e+01
9.370961758977e+00
1.143945979467e+01
2.145545513771e+01
2.181385897335e+01
1.817234582120e+01
1.687836984209e+01
2.314982831959e+01
1.716853415105e+01
2.995979652902e+01
2.919452588399e+01
1.614451614588e+01
2.445991844729e+01
1.956521740866e+01
1.805470131068e+01
2.920256427541e+01
1.962501732755e+01
1.459754733973e+01
1.940309688975e+01
1.975159044014e+01
1.964089050079e+01
1.913115355967e+01
2.305883348503e+01
1.764371275913e+01
2.206734413687e+01
2.829922117147e+01
2.954867156521e+01
1.214275429203e+01
1.202927408031e+01
1.508186166342e+01
2.179930793905e+01
1.838140491523e+01
1.463038083788e+01
1.592981294532e+01
3.087132972603e+01
1.892884499699e-02
2.414852281134e+01
1.980900567328e+01
2.370985527257e+01
2.301303089908e+01
1.385293619330e+01
9.539969713591e+00
2.651305428382e+01
2.070199375446e+01
2.351640910116e+01
1.230817460182e+01
6.016507727010e+00
1.671218687315e+01
2.497023458559e+01
1.551528169856e+01
2.037042315146e+01
1.200933415645e+01
1.602668395228e+01
2.012983262349e+01
1.766993037104e+01
2.322717043306e+01
2.046780505295e+01
2.037085255364e+01
1.994396163786e+01
2.012383653477e+01
1.614039421171e+01
1.762927504968e+01
1.859100874560e+01
1.774135179164e+01
1.497966257331e+01
1.880298025081e+01
1.802173950104e+01
2.087742541025e+01
1.798504293722e+01
2.400389699135e+01
1.794018547973e+01
2.041959572099e+01
1.999957201822e+01
1.096546438175e+01
2.709893572599e+01
1.915096516017e+01
1.965274316453e+01
2.039452715642e+01
1.926958944424e+01
2.269835895136e+01
2.120396673401e+01
2.496317292773e+01
2.048940803489e+01
1.930331421068e+01
1.668180987571e+01
-1.810504083932e+01
2.068605961382e+01
2.126513542870e+01
2.538196102138e+01
2.402393969043e+01
2.139257412649e+01
-5.557581689199e+01
1.982640863895e+01
1.665518295971e+01
1.679551083789e+01
1.572204661708e+01
2.594411022594e+01
2.083922163076e+01
2.741769251048e+01
2.762488124276e+01
2.097126289132e+01
-1.904864654558e+01
1.100429425776e+01
2.228667664336e+01
1.050585614247e+01
2.139917239309e+01
2.091684779913e+01
1.508173668296e+01
1.661222807605e+01
2.742416846274e+01
1.700435331087e+01
2.148611198215e+01
1.209897188024e+01
1.308234962624e+01
2.092645922036e+01
1.217059043912e+01
1.955436846509e+01
2.074137003454e+01
1.458413143052e+01
1.878752134313e+01
2.396835958292e+01
2.802551184622e+01
2.087885463594e+01
2.024061585971e+01
2.003674615705e+01
2.257219411573e+01
1.802570512289e+01
2.121556830038e+01
2.272010885012e+01
2.080844110258e+01
2.771005322468e+01
2.819097733379e+01
2.681515958851e+01
1.524208595473e+01
2.122355942677e+01
1.049714865809e+01
2.073098420041e+01
2.555495189762e+01
2.060176432388e+01
1.857818441495e+01
8.999999999681e+01
2.147324364142e+01
1.793399209791e+01
2.077728825881e+01
1.626163108251e+01
2.135294938293e+01
2.563659903081e+01
2.174412344751e+01
2.411719541829e+01
2.490164747147e+01
1.246729989820e+01
2.088589152259e+01
2.942360049956e+01
2.245725986342e+01
1.391472404155e+01
1.825603976912e+01
2.624294050664e+01
1.610800862389e+01
2.091092718563e+01
1.848111385007e+01
2.268754008360e+01
1.901395128040e+01
2.406907254680e+01
2.714586220018e+01
2.290035566662e+01
1.851746097904e+01
1.896173660467e+01
2.348323838280e+01
2.016018835774e+01
2.039988710855e+01
2.618966464560e+01
1.838375546914e+01
2.111293404221e+01
2.509298495725e+01
2.135460710562e+01
1.823435056928e+01
1.705547779429e+01
2.076645087304e+01
2.185452810994e+01
2.372036989869e+01
1.752416551525e+00
2.117698490885e+01
1.828092668307e+01
2.360619661477e+01
2.067347037356e+01
2.246351179050e+01
1.338076365996e+01
1.383994114323e+01
2.517636316260e+01
2.260511567183e+01
2.407369457803e+01
1.600500010312e+01
1.296216022772e+01
2.299427440378e+01
1.490147401169e+01
1.969734362497e+01
2.396588276685e+01
2.224293255148e+01
2.090597728708e+01
-5.464067236945e+01
2.465853452301e+01
2.337303376432e+01
1.994374913868e+01
2.252871915423e+01
2.300121829722e+01
1.471490486902e+01
2.135929811278e+01
2.065037273365e+01
1.688543463110e+01
1.980701607685e+01
1.696074401142e+01
1.949187362561e+01
-4.519187672894e+01
1.446585027262e+01
1.729979000743e+01
-5.670220574057e+01
1.918333218657e+01
2.272217782522e+01
1.801529400936e+01
2.454619311146e+01
2.455907414429e+01
1.138630616049e+01
1.021378065741e+01
1.918552833028e+01
1.740560331415e+01
8.999999999681e+01
6.412493265787e+00
-1.025188505923e+01
1.586399871662e+01
1.908052840565e+01
1.798516325714e+01
2.162688722480e+01
1.637264550869e+01
2.057661960939e+01
2.234193199473e+01
2.948166532421e+01
1.723491319804e+01
1.555989613998e+01
2.111696042340e+01
2.062995298960e+01
1.803186197311e+01
1.942672071678e+01
2.283066288703e+01
2.225107354149e+01
8.188515061401e+00
2.241318829502e+01
-1.193012185770e+00
1.886472451145e+01
2.011697762962e+01
-1.691759778843e+01
1.756461325439e+01
1.830048110851e+01
8.999999999681e+01
1.015508833265e+01
1.030971781845e+01
2.394966845889e+01
1.558337773044e+01
2.221238109352e+01
2.447496379442e+01
2.117980268085e+01
2.057324133918e+01
1.750235828251e+01
2.045974847872e+01
-8.536040168321e-01
1.200372966451e+01
1.046687055079e+01
1.055873654598e+01
-5.591617685332e+01
-1.758221166062e+01
-1.770642710277e+00
1.288739407262e+01
-1.699538092112e+01
1.845023278675e+01
2.934361014224e+00
1.530909692417e+01
1.583202039118e+01
1.034556375528e+01
1.910986365271e+01
2.254027806626e+01
1.490894365367e+01
1.616793268496e+01
-5.025760113469e-01
1.954802240585e+01
1.939697083485e+01
1.395743038383e+01
1.036940345538e+01
1.627096286483e+01
1.938455015811e+01
1.446441534811e+01
1.029238324387e+01
1.023515315007e+01
9.590462338243e+00
1.987222771246e+01
1.936079500851e+01
-1.754981114996e+01
8.999999999681e+01
2.717754413737e+00
2.063801082688e+01
2.053080198745e+01
9.613572175045e+00
1.754681284971e+01
-3.411158132882e+00
2.405493062494e+01
-3.134827258271e+01
1.329551638401e+01
2.409932180863e+01
2.062685078070e+01
1.574109099962e+01
1.359128782419e+01
-1.648456352208e+01
2.044966725758e+01
1.945935738331e+01
1.937978720778e+01
1.040276717538e+01
2.389791007142e+01
1.952436216498e+01
2.160382515674e+01
-8.894232425677e-01
-1.713129425993e+01
-1.695544202767e+01
1.715022805625e+01
2.067864127744e+01
1.893361996793e+01
8.898079920668e+01
1.834600751730e+01
2.056277022022e+01
2.072376651609e+01
2.106611987147e+01
1.685447691863e+01
1.786542437652e+01
2.055011698405e+01
2.055948293466e+01
1.754648050130e+01
8.999999999681e+01
1.053858997270e+01
1.050052082639e+01
8.995270145500e+01
2.057721279251e+01
2.102975659821e+01
2.058086994871e+01
8.999999999681e+01
8.999999999681e+01
2.061050545317e+01
2.059682438167e+01
1.646589432597e+01
1.060537407123e+01
1.720805038869e+01
1.438813606605e+01
1.063026361301e+01
8.999999999681e+01
-6.107497979038e+01
-6.169647270391e+01
8.999999999681e+01
1.869125744405e+01
1.797679948672e+01
-5.644319698918e+01
1.986429871443e+01
-5.642805680504e+01
1.971534281123e+01
1.949725955770e+01
1.957587523163e+01
7.885161910955e+00
1.487615441943e+01
1.947576050424e+01
2.040094660216e+01
1.949709460045e+01
2.049772151062e+01
2.055508635562e+01
1.758202556408e+01
1.936928802826e+01
1.939145205952e+01
2.043845681880e+01
2.052238538802e+01
2.029252630354e+01
-2.724755074540e+01
1.826298887513e+01
-1.854642650799e+01
2.104060646625e+01
1.921455563723e+01
2.070254735208e+01
1.183770397163e+01
-4.553151112726e+00
2.063207549054e+01
1.885481201352e+01
1.680308002929e+01
2.058625374425e+01
1.838920723787e+01
1.669369438395e+01
2.243227594884e+01
2.155279822433e+01
2.044347652174e+01
2.038690879237e+01
2.812061190567e+01
1.179687863630e+01
2.243142632601e+01
2.070816976222e+01
2.053463050557e+01
2.036566444334e+01
1.394766604148e+01
1.832853180373e+01
1.775214386692e+01
1.322465925147e+01
2.100642070583e+01
2.055635421425e+01
1.839351409527e+01
1.808246272298e+01
2.140369671411e+01
2.056809857727e+01
1.755216246971e+01
2.028835990015e+01
2.088638842177e+01
1.832594213923e+01
1.658353953693e+01
2.229467259850e+01
1.213702796379e+01
1.367743228934e+01
-1.553570013470e+00
-3.113287271388e+00
1.806450234805e+01
2.053902278924e+01
-1.339099802173e+01
1.837203220756e+01
1.384226390644e+01
2.067297330999e+01
2.049041258541e+01
2.119237767558e+01
2.041792538640e+01
1.317946843545e+01
2.352183938385e+01
2.080115257637e+01
1.190495055505e+01
2.111896839665e+01
1.703587101054e+01
1.313231405763e+01
1.585434331154e+01
1.930430222441e+01
1.557863309350e+01
1.727047612751e+01
1.744197867645e+01
1.620491970015e+01
1.972063082982e+01
2.029565173263e+01
2.044556163381e+01
1.706908196132e+01
9.761772729052e+00
1.919441903462e+01
2.220759859895e+01
1.733625841601e+01
1.854267907021e+01
2.112848896252e+01
2.129263097164e+01
1.660815607500e+01
2.493660316285e+01
-1.614780033206e+00
3.019176918933e+01
2.061603528238e+01
1.612739088949e+01
1.955022520043e+01
1.445674386489e+01
2.212327657835e+01
1.968029317979e+01
2.055057635962e+01
1.233347712710e+01
2.100680224249e+01
1.943356986585e+01
1.331906143445e+01
1.897753816647e+01
1.748359243674e+01
1.507773752555e+01
1.968881350631e+01
-5.519907207802e+01
-5.503215129096e+01
2.036083101559e+01
1.122239738748e+01
2.072794784746e+01
2.090501028284e+01
1.938441953307e+01
2.096147376846e+01
1.788439644823e+01
2.804163178695e+01
1.773648120324e+01
2.202551528446e+01
9.057119133847e+00
1.510001412784e+01
1.383099300553e+01
8.176362372563e+00
2.154344057700e+01
1.677591403259e+01
1.090746839907e+01
1.812903156621e+01
1.818275086065e+01
1.250631322122e+01
1.889011072094e+01
1.288878470688e+01
2.048872351859e+01
1.967750666393e+01
1.833316133856e+01
1.792799937142e+01
2.059185020058e+01
2.080909789310e+01
9.728911823876e+00
2.065549331009e+01
1.682629180828e+01
1.951085210388e+01
1.608906306716e+01
1.721526905783e+01
2.569762542142e+01
1.765796122740e+01
1.872743885612e+01
1.947060548021e+01
1.664848509005e+01
1.899235754144e+01
1.648998084577e+01
2.202286722659e+01
1.379149056634e+01
2.547474851322e+00
1.644316463616e+01
1.380203951614e+01
2.117028900156e+01
1.694908295306e+01
2.084344150050e+01
2.124598742952e+01
1.833701009742e+01
1.233864912827e+01
5.259356569322e+00
2.098059334271e+01
1.572983391971e+01
-2.159928218612e+00
1.694919402466e+01
1.103827283319e+01
1.553123614885e+01
1.717585934076e+01
2.125313251353e+01
1.657298888594e+01
1.772647910983e+01
1.579890211405e+01
2.144323463184e+01
1.277377320390e+01
2.119723028888e+01
1.909724355918e+01
2.103161967954e+01
2.854151401975e+01
1.079338980576e+01
1.459485741045e+01
2.365278133303e+01
1.821097553750e+01
1.568937964902e+01
1.600092110245e+01
1.582601307550e+01
9.764230769656e+00
2.125132803357e+01
2.360609684125e+01
2.306812263927e+01
1.848508039180e+01
2.213501941025e+01
9.354296925769e+00
2.177409230917e+01
2.143624090469e+01
2.040554861891e+01
2.080709660187e+01
1.691112563137e+01
2.262796643777e+01
2.145994241127e+01
1.420695461412e+01
1.426411152434e+01
1.667376893547e+01
1.997491785135e+01
2.126551433472e+01
1.515528211998e+01
2.116699702211e+01
1.634969339433e+01
1.513331622961e+01
1.477520221486e+01
1.925131049940e+01
2.182406910781e+01
2.214398189985e+01
1.442787168843e+01
1.877211400721e+01
2.258440136563e+01
2.154732881955e+01
1.726100349039e+01
1.885331566637e+01
1.776824999726e+01
9.927725366134e+00
2.207434684990e+01
1.788420749055e+01
1.592307714513e+01
1.534981484030e+01
2.569277693121e+01
1.685250154492e+01
2.899173413794e+01
1.705539817371e+01
1.832972801811e+01
1.109884534245e+01
2.214166064224e+01
2.183981139562e+01
1.761777879145e+01
2.275229447211e+01
2.227091129953e+01
2.230853663191e+01
2.334271048760e+01
1.133197880550e+01
2.173796611117e+01
2.156212593473e+01
1.904959673653e+01
1.958317895033e+01
2.233763090478e+01
1.597386362882e+01
1.880103651890e+01
2.125752629129e+01
1.563097049733e+01
1.888971788474e+01
1.990941236637e+01
1.457197960710e+01
1.347215102507e+01
2.159833799586e+01
2.188123658765e+01
1.957692940804e+01
-5.825367340518e+01
2.503707348924e+01
2.347075036843e+01
2.077759938018e+01
1.540172034759e+01
2.215503753529e+01
1.623899177906e+01
2.089638958058e+01
1.737584004994e+01
1.614792695928e+01
1.527221636948e+00
7.486958278470e+00
1.982655201890e+01
1.841673787326e+01
2.421783354273e+01
2.178138595354e+01
1.226872317364e+01
8.026949997287e+00
1.450871943213e+01
1.454928978338e+01
2.240504930086e+01
1.985372381453e+01
1.515027409329e+01
1.774974415202e+01
1.939934211556e+01
2.585265492721e+01
1.947496649829e+01
1.646934060915e+01
2.054992218437e+01
2.491374139279e+01
2.737984545136e+01
1.213900454721e+01
1.833372103560e+01
2.234883463139e+01
2.315527716289e+01
1.522871226877e+01
2.285363299291e+01
2.388523172591e+01
2.547482231954e+01
1.768981351921e+01
2.372125817186e+01
1.629697523101e+01
2.622515149259e+01
2.205841396629e+01
2.000012919591e+01
2.192412770029e+01
2.348265288562e+01
1.946788281461e+01
1.688438119312e+01
1.767609876048e+01
1.581984554951e+01
1.799067134420e+01
2.402810478405e+01
2.450235662258e+01
1.646522566230e+01
1.862248654031e+01
1.324331565511e+01
1.892673641225e+01
9.042003463591e+00
2.214907588403e+01
1.826803203623e+01
2.345453821396e+01
1.494214768553e+01
1.739874494508e+01
2.449148284849e+01
2.504542240196e+01
1.835885569998e+01
2.178130699894e+01
1.664524430669e+01
2.365361415037e+01
1.866992978127e+01
1.697470010479e+01
2.069192664649e+01
2.166971747416e+01
2.133058828493e+01
1.489371922481e+01
1.425554478506e+01
2.253974279112e+01
2.213623374932e+01
2.230987629213e+01
5.318686271676e+00
2.978949990499e+01
2.623797033703e+01
2.526420787868e+01
2.142569162080e+01
1.861072968599e+01
1.842078164325e+01
1.822658484028e+01
1.382151698937e+01
1.729511421121e+01
2.173454686035e+01
1.843715940055e+01
1.651746157825e+01
2.133266771152e+01
2.674541650446e+01
1.703823975609e+01
1.805508631645e+01
1.714698386635e+01
1.670413387896e+01
2.171524393722e+01
2.219817458765e+01
2.203832063590e+01
2.191219568319e+01
8.657683238583e+00
2.322257556803e+01
1.647294897394e+01
1.335994693716e+01
2.553903605010e+01
2.508708422129e+01
2.445997097410e+01
3.017817652929e+01
2.618621815965e+01
2.391998875933e+01
1.308515061576e+01
2.167080377086e+01
1.560512704277e+01
1.191626978757e+01
2.436325470831e+01
2.173641929858e+01
2.338140816397e+01
1.864365863677e+01
2.562107324436e+01
2.185195638331e+01
1.577024581827e+01
1.936690978180e+01
2.365393596887e+01
2.479535020188e+01
1.373898647331e+01
2.194298553397e+01
2.443784945550e+01
2.207785206583e+01
2.201851337653e+01
2.385827995474e+01
1.709478076092e+01
2.108276551622e+01
2.180451866357e+01
1.403403940341e+01
1.615073778927e+01
2.182891137746e+01
1.745568401662e+01
2.439733731054e+01
2.604597634818e+01
2.023306101978e+01
3.043753410242e+01
1.783475766569e+01
1.419133711020e+01
7.156766240279e+00
2.053837626765e+01
1.851383428252e+01
2.145377825093e+01
1.890382303412e+01
1.658132924094e+01
2.070770460527e+01
2.829417333540e+01
2.489661042263e+01
1.340918822601e+01
2.441698979624e+01
2.016942237185e+01
2.498093692235e+01
1.948172076717e+01
-1.162065610686e+01
2.142148272140e+01
2.726496456168e+01
1.603152344813e+01
3.101496915146e+01
2.174316565588e+01
1.729879796379e+01
1.575446368389e+01
2.346659786838e+01
2.378075920244e+01
2.221500613381e+01
2.121968337907e+01
1.684529651195e+01
2.215271123150e+01
1.621521320137e+01
1.862894931197e+01
1.729466967953e+01
1.761535604533e+01
2.909297196371e+01
2.134693021213e+01
1.694149444371e+01
2.484382088824e+01
-6.334338836100e+00
2.176472457329e+01
3.080539685993e+01
1.515356569128e+01
2.260382659487e+01
9.980467195310e+00
2.221709399113e+01
2.334693803026e+01
1.825270470088e+01
1.855596631918e+01
2.341462435960e+01
1.769250796211e+01
2.640174712094e+01
1.935940524581e+01
8.537914065041e-01
1.894124867546e+01
5.766262191281e+00
7.482611202167e+00
2.575019844257e+01
9.080464182433e+00
2.270070276288e+01
2.446750958219e+01
2.556812587202e+01
2.896082070240e+01
2.632885383337e+01
1.810938160988e+01
1.880887023321e+01
2.147412919292e+01
2.222197951790e+01
2.472650149669e+01
1.767300839112e+01
2.601893171527e+01
2.110799276283e+01
1.735828858998e+01
1.723877455440e+01
2.418704523596e+01
2.647144948827e+01
1.971614140569e+01
1.671038359815e+01
2.653755705371e+01
3.017246522990e+01
2.149306966384e+01
1.803950618711e+01
2.092648153400e+01
1.688319644744e+01
2.640755222075e+01
1.850924578060e+01
2.314512445952e+01
1.778523250936e+01
1.950302006729e+01
1.556931536646e+01
2.269818853018e+01
2.539054941687e+01
2.297051098815e+01
2.138170973954e+01
1.831569396496e+01
1.946844604790e+01
2.474940081655e+01
3.079819309163e+01
2.134637732921e+01
2.203596483736e+01
2.659793665931e+01
2.424205036913e+01
2.248299235502e+01
2.956429237733e+01
2.535560527583e+01
1.639475778288e+01
2.080821652439e+01
1.700098167597e+01
2.087156809524e+01
1.576226560799e+01
1.444696920410e+01
1.741398887819e+01
2.260130911933e+01
2.136729095777e+01
1.650103306785e+01
1.859572802052e+01
1.510769878025e+01
2.806531055302e+01
2.107957571305e+01
1.838845482309e+01
2.335876971616e+01
2.233202459074e+01
2.719464841502e+01
1.689416613233e+01
1.593306039907e+01
2.276588970327e+01
1.765947330277e+01
2.303926230678e+01
2.100978134393e+01
2.675926864239e+01
2.880416283424e+01
1.861291257595e+01
1.481531456978e+01
2.500994747180e+01
2.130674177219e+01
1.644637711925e+01
2.163417657420e+01
2.555505135042e+01
2.917640207894e+01
2.076384345036e+01
1.936907504615e+01
2.296153377720e+01
2.020248114138e+01
1.997423979226e+01
2.194710543648e+01
2.744593488449e+01
1.550537977723e+01
2.097282548330e+01
2.710724414899e+01
2.095356035497e+01
2.216904024411e+01
2.796693453686e+01
1.924834759655e+01
2.747250925123e+01
1.982909529538e+01
2.304640519779e+01
1.949752798532e+01
2.007575473350e+01
2.938452825501e+01
2.119692891702e+01
1.866500214106e+01
2.145379614295e+01
2.263946257027e+01
2.582184229954e+01
1.955458898731e+01
2.072842311448e+01
1.921820214983e+01
2.024374222932e+01
1.609086865368e+01
2.113885367746e+01
2.176360181817e+01
1.066527265978e+01
1.067626069257e+01
1.672522316251e+01
1.997610225166e+01
2.074899644257e+01
1.758877304887e+01
2.303889394306e+01
2.232104326304e+01
2.543170007715e+01
1.947739894914e+01
1.304220788921e+01
2.299832758448e+01
2.147280460947e+01
3.003853283040e+01
2.098060626810e+01
1.968965616811e+01
1.750242665180e+01
1.602899894230e+01
1.804634917322e+01
1.818035667037e+01
5.835613777653e+00
2.093744864488e+01
1.597040975844e+01
1.682883096115e+01
1.709215288692e+01
2.249252403663e+01
1.129704797881e+01
2.838414667612e+01
2.031406902689e+01
2.029603284887e+01
7.875443083765e+00
9.231152993597e+00
1.598125450391e+01
2.759632312728e+01
2.096672428030e+01
2.313602844496e+01
3.023502687130e+01
2.075865967165e+01
1.796829907371e+01
1.997735085816e+01
2.121249874693e+01
-2.366407700929e+00
2.322636562773e+01
2.013194803024e+01
-2.184839866573e+00
1.802746350623e+01
2.939965923131e+01
1.695534341437e+01
1.799943581442e+01
2.487179308781e+01
2.350091641839e+01
1.831124970488e+01
2.317400641593e+01
2.135417102675e+01
2.113422366521e+01
2.799588683123e+01
3.004013270419e+01
2.065842872252e+01
1.499362138253e+01
2.101221062934e+01
2.643156350527e+01
1.776983601816e+01
2.031194259111e+01
1.020051351341e+01
2.047167383682e+01
2.099325354970e+01
2.060908960411e+01
2.128021767623e+01
2.125199697516e+01
1.857935301802e+01
2.378757143520e+01
1.857825290466e+01
2.431874435992e+01
2.280201982033e+01
2.397719554551e+01
2.938215126098e+01
2.499118510471e+01
2.889094491738e+01
1.746724688626e+01
2.840506072491e+01
1.757990031241e+01
2.259046547164e+01
2.298659007089e+01
2.440685569594e+01
1.552839808931e+01
2.099700196399e+01
2.083170764462e+01
2.415506436305e+01
1.803893272315e+01
2.077688901106e+01
7.805857955660e+00
2.033608087180e+01
2.633831395730e+01
2.082830982492e+01
2.984444981218e+01
1.934103916318e+01
2.284398339462e+01
1.549103436662e+01
1.497109190200e+01
2.046514198607e+01
4.544152313854e+00
6.294563951837e+00
2.071772953802e+01
2.311893235513e+01
2.447163767121e+01
2.356446932148e+01
2.559019393972e+01
2.902288661000e+01
3.400394071980e+00
1.376961486602e+01
1.068643471787e+01
2.293614843993e+01
2.493055179425e+01
2.185509087760e+01
2.045309317941e+01
2.499662688691e+01
2.075466962570e+01
2.755252487086e+01
2.191971280653e+01
2.111594766513e+01
2.134513390604e+01
2.234403680673e+01
2.023574849767e+01
1.808990606731e+01
2.503166934827e+01
1.762924548631e+01
2.599629912842e+01
2.192759706142e+01
2.563995965211e+01
2.116004193849e+01
1.742228134786e+01
2.751452916931e+01
2.384504395772e+01
2.086330390807e+01
5.094325887026e+00
2.071431693966e+01
1.907318613587e+01
1.554675570993e+01
1.005792935886e+00
1.978741351267e+01
3.276679388187e+01
2.608394640725e+00
2.454904516761e+01
1.989446722922e+01
1.025091576266e+01
2.638033133392e+01
2.338649770102e+01
2.028011869221e+01
2.341561250137e+01
1.878329635358e+01
2.871446752051e+01
2.040768302199e+01
2.011291186025e+01
1.606155854093e+01
1.125581071665e+01
1.556456879278e+01
2.018125897871e+01
-1.020687777070e+00
1.421934818793e+01
1.063357309520e+01
1.985132959225e+01
2.684318336314e+01
2.597223861905e+01
2.832214514774e+01
2.052309896459e+01
1.668128999575e+01
2.003780422423e+01
2.754310412492e+01
1.818722968590e+01
1.322390828533e+01
2.249441080371e+01
1.984043654750e+01
2.022374269953e+01
-1.057620782997e+00
2.606891867332e+01
1.999109712896e+01
1.602496026984e+01
1.508555390804e+01
-5.088983730233e-01
2.038200457049e+01
2.374591659208e+01
2.111094997994e+01
2.185131827963e+01
9.724637296540e+00
2.432287973291e+01
2.385260814992e+01
-2.812719466426e+00
1.985483522769e+01
1.423704622533e+01
1.197217363391e+01
2.015475249667e+01
2.422094171758e+01
2.049603446503e+01
2.197973493792e+01
1.814810065183e+01
2.471834296737e+01
2.267104269905e+01
2.174555588989e+01
2.028286910088e+01
2.011420703661e+01
2.770162484559e+01
4.068113470555e+00
2.832530945176e+01
2.021036953340e+01
2.259904497334e+01
2.136993379978e+01
1.858517452057e+01
8.161903836987e+00
1.816292036850e+01
2.143836553715e+01
6.326852240642e+00
1.947536290772e+01
2.055625111602e+01
1.287504014109e+01
2.304965251205e+01
2.111112605761e+01
2.753642175114e+01
2.595617873534e+00
2.874921908721e+01
1.855280305575e+01
1.615994467794e+01
1.057376075042e+01
2.111083192784e+01
1.255081864828e+01
2.126827491202e+01
1.612747859185e+01
2.136747696925e+01
2.134331266690e+01
2.332486476857e+01
2.022086304800e+01
2.200456116561e+01
1.721822579159e+01
2.049002786906e+01
2.531291176338e+01
1.856287515115e+01
9.146602488414e+00
2.684177769906e+01
1.732457549519e+01
1.991947724522e+01
1.973107533309e+01
2.188011406351e+01
2.162399489298e+01
7.526866669660e+00
2.842218546153e+00
1.866573542257e+01
2.391763344016e+01
2.394832218966e+01
1.866206267094e+01
1.915577320428e+01
-1.133042873875e+01
1.685290334536e+01
1.999677680222e+01
2.842532263926e+01
2.021592007617e+01
1.006523020980e+01
2.361241372895e+01
1.810630638969e+01
2.438214012228e+01
2.581041618983e+01
2.357651590900e+01
1.931627239130e+01
2.436586446343e+01
2.401947499451e+01
2.203370397670e+01
1.570966208367e+01
1.771370959373e+01
2.264762939784e+01
2.363764442461e+01
1.735711201188e+01
1.642101730914e+01
1.865440879960e+01
1.814221226793e+01
-2.194768573479e+01
2.321781405620e+01
1.384322380929e+01
1.476223250486e+01
1.901386287573e+01
2.242183335486e+01
1.910600283914e+01
2.563593330384e+01
1.057373173461e+01
2.091773425754e+01
1.185163790033e+01
2.271512114794e+01
2.353576694395e+01
8.716965284497e+00
1.756972295119e+01
2.693650301042e+01
2.662705903753e-01
2.749359854651e+01
2.011004681257e+01
1.727682252816e+01
8.535220211803e+00
1.918813964445e+01
1.858722588616e+01
2.211896166961e+01
2.044432231318e+01
1.423445185338e+01
2.354664086804e+01
1.549228690393e+01
5.107876777001e+00
2.047466642949e+01
1.943553030935e+01
1.379448018286e+01
1.887812239392e+01
1.965678224345e+01
2.593182467463e+01
2.389634150147e+01
2.186198264970e+01
9.231708375840e+00
1.336926564401e+01
1.946856531318e+01
1.927627323878e+01
2.549999360141e+01
1.650013440764e+01
1.974914207859e+01
1.346576252028e+01
2.660767142442e+01
1.489910913501e+01
2.181221155386e+01
2.083523905978e+01
2.094712679319e+01
2.433159741064e+01
1.201561651800e+01
8.517711395889e+00
2.228238402325e+01
2.200496329489e+01
1.993025911400e+01
2.313157522080e+01
2.294169521420e+01
2.487807781420e+01
2.339561462252e+01
1.827751940615e+01
2.278865740137e+01
1.857212362713e+01
1.773629823905e+01
1.937743285344e+01
2.065028246617e+01
1.384622936527e+01
2.198666694001e+01
-1.207275736770e+01
2.249900965116e+01
2.057508969303e+01
2.496651196015e+01
2.291493117695e+01
2.249187194846e+01
1.225282152516e+01
1.863828404780e+01
1.865384598419e+01
2.185416679619e+01
1.839763073422e+01
1.402543484196e+01
1.788427856472e+01
1.911011437566e+01
1.641214061516e+01
2.167850397665e+01
1.020196087419e+01
1.242574388195e+01
1.370825478897e+01
1.408759845793e+01
2.765594733144e+01
1.677856177230e+01
1.903560468970e+01
1.522855584580e+01
2.142943764970e+01
1.911941765546e+01
1.766028736658e+01
1.855762923029e+01
1.784445405874e+01
1.725077994937e+01
2.131803210884e+01
1.797506295727e+01
1.387461715867e+01
2.093474279029e+01
5.062846792485e+00
1.243303498653e+01
2.222469448476e+01
-6.415005448103e+00
-2.107877112003e+01
1.940793442360e+01
1.042528490928e+01
1.894240793928e+01
2.179045856023e+01
1.041983610014e+01
8.978918792778e+00
1.909084997722e+01
5.415151659458e+00
1.872785828775e+01
2.056702706129e+01
1.895413778804e+01
2.833758589838e+01
1.348212466508e+01
1.787927036249e+01
2.188398626673e+01
2.132618577948e+01
1.725661562105e+01
2.141674388614e+01
2.514326236536e+01
2.079656418169e+01
2.601546223695e+01
4.500137948833e+00
2.163236838637e+01
1.909793670955e+01
1.915866221250e+01
1.223744530751e+01
1.366818267880e+01
2.104910594983e+01
1.956866888535e+01
1.627272480307e+01
2.501685247500e+01
2.207440760349e+01
1.051096134714e+01
1.885778336396e+01
1.935452927574e+01
1.947998093127e+01
8.999999999681e+01
-5.102346394315e+01
1.090318068045e+01
1.063855743542e+01
2.055877002773e+01
2.059632005079e+01
-2.102687221340e+01
9.793645617274e+00
2.065353312599e+01
2.107634353336e+01
8.313358310890e+00
2.088693935233e+01
1.965385317231e+01
1.900544811143e+01
1.579491839091e+01
1.487635913462e+01
2.214767792267e+01
4.658230945784e+00
1.849620870438e+01
1.937581168408e+01
1.843821959806e+01
1.885461003861e+01
1.469787778834e+01
2.042894817180e+01
1.877213032024e+01
1.825858164149e+01
1.053326232671e+01
2.276956891860e+01
1.889948739246e+01
1.385496069895e+01
-2.031632026852e+01
1.998723822584e+01
2.284666455062e+01
1.475450594803e+01
1.644393677806e+01
2.059778915917e+01
2.067752546582e+01
2.073716091747e+01
1.996091931187e+01
2.296063756287e+01
1.295841868008e+01
1.933323008388e+01
1.339524445350e+01
2.253153645571e+01
1.875415281961e+01
2.135566619424e+01
4.192929363628e+00
-3.870397568444e+00
1.700997850721e+01
1.668260769649e+01
1.584697033656e+01
1.879849533472e+01
8.174605493640e+00
2.193415549453e+01
1.347966278303e+01
2.108283688453e+01
2.146472986836e+01
1.337576050990e+01
2.147917884303e+01
1.911685163056e+01
1.903055042566e+01
2.105342788777e+01
1.861394278174e+01
2.040701641137e+01
2.218785097424e+01
2.167599413860e+01
2.058138439791e+01
1.822009204030e+01
8.081654736731e+00
2.244367236170e+01
1.893070019042e+01
1.446440572044e+01
2.052344832953e+01
2.130619507096e+01
2.073443911900e+01
1.743575943530e+01
2.114558389502e+01
2.140500646001e+01
2.153106883657e+01
1.610317277685e+01
2.077021935719e+01
1.200468293483e+01
1.860635034640e+01
-3.352405622381e+00
1.819011692153e+01
1.648995454315e+01
-7.661634531032e-01
2.786275451565e+01
1.865533614989e+01
1.910971658076e+01
1.870039265000e+01
2.166876044134e+01
1.461966454212e+01
-2.024839826606e+01
2.287283385291e+01
-1.650050112193e+01
2.589079467051e+00
2.976145057204e+01
1.824765093900e+01
2.055978058440e+01
1.897341830959e+01
1.438563101855e+01
1.757710890697e+01
2.127747620478e+01
2.217675625368e+01
2.143323886038e+01
2.020826330139e+01
1.912541038023e+01
-4.523116832200e+00
2.012190834881e+01
2.065764640836e+01
-2.051618109519e+00
2.510402207178e+00
2.596791871850e+01
-7.300235267089e+00
2.101603882750e+01
2.000171336263e+01
1.878951558568e+01
2.106002895627e+01
2.221034054831e+01
1.526988040646e+01
1.963877838349e+01
2.320076128489e+01
1.034307176013e+01
1.071762359223e+01
-1.964926417894e+01
2.069202950815e+01
1.219937849031e+01
4.801428911735e+00
1.812284413365e+01
1.973463395481e+01
1.868233329125e+01
1.927659884656e+01
1.522832590733e+01
1.945881490787e+01
2.100936242695e+01
1.937453503132e+01
2.065656610324e+01
1.217094022732e+01
2.167445934724e+01
4.265414677238e+00
1.885264418958e+01
-2.241596727647e+01
2.113109320096e+01
1.916771110063e+01
1.797569167983e+01
2.079415512626e+01
1.707008281813e+01
1.913686957021e+01
2.086101230899e+01
1.601652829233e+01
1.990147301646e+01
1.882623205304e+01
1.654655861169e+01
1.949437095420e+01
1.672628051528e+01
1.055118727153e+01
2.129455855807e+01
1.912973334097e+01
8.868236371752e+01
1.064840810024e+01
2.055122243356e+01
7.597834365604e+00
2.232066312677e+01
1.881062238745e+01
1.902691841739e+01
7.636081577327e+00
2.603396318197e+01
1.927174718862e+01
1.785593712228e+01
7.377375914522e+00
1.923698149740e+01
1.574610699897e+01
1.324670686923e+01
1.498600080512e+01
2.117914138149e+01
1.941067285689e+01
3.499586537224e+01
1.621355284173e+01
1.884863221533e+01
1.950200792098e+01
2.157731475888e+01
1.864566497700e+01
1.891144002119e+01
-7.785561385861e+00
2.101590056935e+01
2.002882393158e+01
2.738144338176e+01
1.912359552356e+01
2.054676161403e+01
1.226625591186e+01
1.571738693712e+01
1.856921300148e+01
1.869880571446e+01
1.899555284240e+01
2.235622666750e+01
8.476858238702e+00
2.000692081851e+01
1.369027015987e+01
1.906776735937e+01
2.216910607402e+01
1.493883468617e+01
1.921334756955e+01
2.158944215495e+01
2.158167700077e+01
2.701550159082e+01
1.919840381653e+01
1.950514188892e+01
-5.966753590562e+00
1.826046156375e+01
2.481400412321e+01
1.937106202848e+01
-4.555107399114e+01
-4.384922410723e+01
-4.569039527522e+01
-4.430837377772e+01
-4.563887225324e+01
-4.469121949841e+01
-4.596759912910e+01
-4.505584356278e+01
-4.661801956391e+01
-4.547361257112e+01
-4.754074355233e+01
-4.598121432915e+01
-4.871231942832e+01
-4.656988356136e+01
-5.013019541600e+01
-4.723009680558e+01
-5.180803377228e+01
-3.203578838138e+01
-4.795974563938e+01
-5.372975676873e+01
-3.016766316749e+01
-4.872670704211e+01
-5.561818919457e+01
-4.946543154684e+01
-5.634577206190e+01
-5.009335958044e+01
-6.373163990192e+01
-5.656544298517e+01
-5.049551493245e+01
-5.669489003538e+01
-5.077973940634e+01
-5.680928507932e+01
-5.073837760801e+01
-5.681218700322e+01
-5.071416558667e+01
-5.694107944102e+01
-4.938097185331e+01
-1.076275372008e+01
-4.703968705214e+01
-5.649755425779e+01
-4.117856610361e+01
-5.604189096994e+01
-5.068917885914e+01
-2.639432520379e+01
-4.232064094882e+01
-4.190581545686e+01
-3.948415379044e+01
-4.694154303690e+01
-9.397712863053e+00
-1.659709750913e+01
-1.855188594744e+01
-1.863422376872e+01
-1.875446401662e+01
-1.871174770887e+01
-1.872538127740e+01
-1.864929421498e+01
-1.867940546548e+01
-1.858458433552e+01
-1.863340852386e+01
-1.852382367522e+01
-1.858001382364e+01
-1.846250596322e+01
-1.853569987003e+01
-1.840493932798e+01
-1.849014357257e+01
-1.155043482598e+01
-1.834264734344e+01
-1.842512662411e+01
-1.944806485585e+01
-1.827407746175e+01
-1.834757167088e+01
-1.510510180914e+01
-1.820470400493e+01
-1.827089283268e+01
-1.814596706302e+01
-1.820517811363e+01
-1.811253948994e+01
-1.816622781431e+01
-9.295016269150e+00
-1.807789556635e+01
-1.800906969493e+01
-1.807985674061e+01
-1.795788434599e+01
-1.756017590403e+01
-1.806033218737e+01
-1.752075039498e+01
-1.802582927540e+01
-1.581883041036e+01
-1.757691060082e+01
-1.823209650724e+01
-1.854642020845e+01
-1.627847415124e+01
-2.419895384446e+01
-1.286433996080e+01
-1.213642076797e+01
-4.447474593660e+00
-3.599018442373e+00
-3.589539273520e+00
-3.569208945111e+00
-3.580232664176e+00
-3.553643530026e+00
-3.563876573066e+00
-3.543582574665e+00
-3.554612363116e+00
-3.534231294014e+00
-3.541120699460e+00
-3.524443231660e+00
-3.521104056575e+00
-3.525178633684e+00
-3.509774253826e+00
-1.512865903654e+00
-3.545255910158e+00
-3.500748056787e+00
-3.518047477679e+00
-3.553575696335e+00
-3.492210539012e+00
-3.565730444651e+00
-3.462957631399e+00
-3.600098692009e+00
-4.973977059199e+00
-3.448509556390e+00
-3.654181943480e+00
-3.433158934285e+00
-3.737964055407e+00
-3.445912839045e+00
-3.788630085222e+00
-3.293894949890e+00
-3.833114272324e+00
-3.783305344072e+00
-3.220927782243e+00
-1.542751887580e+00
-2.663161044542e+00
-6.589549073900e+00
-3.091375997751e+00
-4.378382586754e+00
-1.382500223589e+00
-6.652477604774e+00
-3.791625231443e+00
4.319911375244e+00
3.797371645970e+00
3.774201973233e+00
3.716961891979e+00
3.711648915516e+00
3.727082352134e+00
3.711090196883e+00
3.701657961639e+00
3.677835911537e+00
3.697835676409e+00
3.661114747199e+00
3.684895810163e+00
3.631345790968e+00
4.316371668958e+00
3.692457879862e+00
3.600017915609e+00
2.372007450485e+00
3.630780044575e+00
3.531364494931e+00
3.269267505214e+00
3.627586731527e+00
3.494350467657e+00
3.633540631817e+00
3.442882286135e+00
3.601792859641e+00
4.088840684907e+00
3.365061413825e+00
3.580351093649e+00
3.589171805198e+00
3.297169027906e+00
3.495248351674e+00
3.226891890135e+00
3.840469414306e+00
3.185700807810e+00
1.377851581926e+00
3.594839978000e+00
4.432081167127e+00
2.483277861305e+00
5.239177772836e+00
2.479835351034e+00
7.886792379894e+00
8.045400340635e+00
8.048252552047e+00
8.061306383837e+00
8.046188486720e+00
8.062215063528e+00
8.064400772350e+00
7.994850153437e+00
7.994338630104e+00
7.980962516557e+00
7.997330045695e+00
7.937112688484e+00
8.099906919886e+00
7.953442536447e+00
7.519099892568e+00
7.867877049667e+00
7.934136682696e+00
7.830741069159e+00
7.857633315420e+00
7.775755600954e+00
7.855131814365e+00
7.712484389527e+00
6.861880338247e+00
7.828230648026e+00
7.630706533391e+00
7.757755356142e+00
7.551588272201e+00
7.506459717656e+00
7.736981227054e+00
7.784777246289e+00
7.907643793084e+00
6.246655268045e+00
8.196651521463e+00
7.850916322310e+00
8.884973867379e+00
7.051763395414e+00
6.748318622426e+00


