# vtk DataFile Version 2.0
Calculation C:\Users\johan\Documents\GitHub\TOCHNOG\standsicherheit_phiC at time 1.100000000000e+01 
ASCII
DATASET UNSTRUCTURED_GRID
Field FieldData 1
Time 1 1 double
1.100000000000e+01

POINTS 1028 float
0.0 0.0 0.0 
5.000000000000e+01 -1.000000000000e+01 0.0 
0.0 -2.000000000000e+01 0.0 
5.000000000000e+01 -2.000000000000e+01 0.0 
0.0 -9.999999999991e-01 0.0 
0.0 -1.999999999998e+00 0.0 
0.0 -2.999999999997e+00 0.0 
0.0 -3.999999999994e+00 0.0 
0.0 -4.999999999991e+00 0.0 
0.0 -5.999999999988e+00 0.0 
0.0 -6.999999999985e+00 0.0 
0.0 -7.999999999982e+00 0.0 
0.0 -8.999999999983e+00 0.0 
0.0 -9.999999999985e+00 0.0 
0.0 -1.099999999999e+01 0.0 
0.0 -1.199999999999e+01 0.0 
0.0 -1.299999999999e+01 0.0 
0.0 -1.399999999999e+01 0.0 
0.0 -1.499999999999e+01 0.0 
0.0 -1.599999999999e+01 0.0 
0.0 -1.700000000000e+01 0.0 
0.0 -1.800000000000e+01 0.0 
0.0 -1.900000000000e+01 0.0 
4.900000000001e+01 -2.000000000000e+01 0.0 
4.800000000001e+01 -2.000000000000e+01 0.0 
4.700000000002e+01 -2.000000000000e+01 0.0 
4.600000000003e+01 -2.000000000000e+01 0.0 
4.500000000004e+01 -2.000000000000e+01 0.0 
4.400000000004e+01 -2.000000000000e+01 0.0 
4.300000000005e+01 -2.000000000000e+01 0.0 
4.200000000006e+01 -2.000000000000e+01 0.0 
4.100000000006e+01 -2.000000000000e+01 0.0 
4.000000000007e+01 -2.000000000000e+01 0.0 
3.900000000008e+01 -2.000000000000e+01 0.0 
3.800000000009e+01 -2.000000000000e+01 0.0 
3.700000000009e+01 -2.000000000000e+01 0.0 
3.600000000010e+01 -2.000000000000e+01 0.0 
3.500000000011e+01 -2.000000000000e+01 0.0 
3.400000000011e+01 -2.000000000000e+01 0.0 
3.300000000012e+01 -2.000000000000e+01 0.0 
3.200000000013e+01 -2.000000000000e+01 0.0 
3.100000000013e+01 -2.000000000000e+01 0.0 
3.000000000013e+01 -2.000000000000e+01 0.0 
2.900000000013e+01 -2.000000000000e+01 0.0 
2.800000000013e+01 -2.000000000000e+01 0.0 
2.700000000013e+01 -2.000000000000e+01 0.0 
2.600000000013e+01 -2.000000000000e+01 0.0 
2.500000000013e+01 -2.000000000000e+01 0.0 
2.400000000013e+01 -2.000000000000e+01 0.0 
2.300000000013e+01 -2.000000000000e+01 0.0 
2.200000000013e+01 -2.000000000000e+01 0.0 
2.100000000013e+01 -2.000000000000e+01 0.0 
2.000000000013e+01 -2.000000000000e+01 0.0 
1.900000000013e+01 -2.000000000000e+01 0.0 
1.800000000013e+01 -2.000000000000e+01 0.0 
1.700000000012e+01 -2.000000000000e+01 0.0 
1.600000000011e+01 -2.000000000000e+01 0.0 
1.500000000011e+01 -2.000000000000e+01 0.0 
1.400000000010e+01 -2.000000000000e+01 0.0 
1.300000000009e+01 -2.000000000000e+01 0.0 
1.200000000009e+01 -2.000000000000e+01 0.0 
1.100000000008e+01 -2.000000000000e+01 0.0 
1.000000000007e+01 -2.000000000000e+01 0.0 
9.000000000064e+00 -2.000000000000e+01 0.0 
8.000000000057e+00 -2.000000000000e+01 0.0 
7.000000000050e+00 -2.000000000000e+01 0.0 
6.000000000043e+00 -2.000000000000e+01 0.0 
5.000000000036e+00 -2.000000000000e+01 0.0 
4.000000000028e+00 -2.000000000000e+01 0.0 
3.000000000021e+00 -2.000000000000e+01 0.0 
2.000000000014e+00 -2.000000000000e+01 0.0 
1.000000000007e+00 -2.000000000000e+01 0.0 
5.000000000000e+01 -1.100000000000e+01 0.0 
5.000000000000e+01 -1.200000000000e+01 0.0 
5.000000000000e+01 -1.300000000000e+01 0.0 
5.000000000000e+01 -1.400000000000e+01 0.0 
5.000000000000e+01 -1.500000000000e+01 0.0 
5.000000000000e+01 -1.600000000000e+01 0.0 
5.000000000000e+01 -1.700000000000e+01 0.0 
5.000000000000e+01 -1.800000000000e+01 0.0 
5.000000000000e+01 -1.900000000000e+01 0.0 
2.000000000000e+01 0.0 0.0 
3.500000000000e+01 -1.000000000000e+01 0.0 
2.150000000000e+01 -1.000000000000e+00 0.0 
2.300000000000e+01 -2.000000000000e+00 0.0 
2.450000000000e+01 -3.000000000000e+00 0.0 
2.600000000000e+01 -4.000000000000e+00 0.0 
2.750000000000e+01 -5.000000000000e+00 0.0 
2.900000000000e+01 -6.000000000000e+00 0.0 
3.050000000000e+01 -7.000000000000e+00 0.0 
3.200000000000e+01 -8.000000000000e+00 0.0 
3.350000000000e+01 -9.000000000000e+00 0.0 
4.900000000000e+01 -1.000000000000e+01 0.0 
4.800000000000e+01 -1.000000000000e+01 0.0 
4.700000000000e+01 -1.000000000000e+01 0.0 
4.600000000000e+01 -1.000000000000e+01 0.0 
4.500000000000e+01 -1.000000000000e+01 0.0 
4.400000000000e+01 -1.000000000000e+01 0.0 
4.300000000000e+01 -1.000000000000e+01 0.0 
4.200000000000e+01 -1.000000000000e+01 0.0 
4.100000000000e+01 -1.000000000000e+01 0.0 
4.000000000000e+01 -1.000000000000e+01 0.0 
3.900000000000e+01 -1.000000000000e+01 0.0 
3.800000000000e+01 -1.000000000000e+01 0.0 
3.700000000000e+01 -1.000000000000e+01 0.0 
3.600000000000e+01 -1.000000000000e+01 0.0 
1.900000000000e+01 0.0 0.0 
1.800000000000e+01 0.0 0.0 
1.700000000000e+01 0.0 0.0 
1.600000000000e+01 0.0 0.0 
1.500000000000e+01 0.0 0.0 
1.400000000000e+01 0.0 0.0 
1.300000000000e+01 0.0 0.0 
1.200000000000e+01 0.0 0.0 
1.100000000000e+01 0.0 0.0 
1.000000000000e+01 0.0 0.0 
9.000000000000e+00 0.0 0.0 
8.000000000000e+00 0.0 0.0 
7.000000000000e+00 0.0 0.0 
6.000000000000e+00 0.0 0.0 
5.000000000000e+00 0.0 0.0 
4.000000000000e+00 0.0 0.0 
3.000000000000e+00 0.0 0.0 
2.000000000000e+00 0.0 0.0 
1.000000000000e+00 0.0 0.0 
2.075000000000e+01 -5.000000000006e-01 0.0 
2.225000000000e+01 -1.500000000000e+00 0.0 
2.375000000000e+01 -2.500000000000e+00 0.0 
2.525000000000e+01 -3.500000000000e+00 0.0 
2.675000000000e+01 -4.500000000000e+00 0.0 
2.825000000000e+01 -5.500000000000e+00 0.0 
2.975000000000e+01 -6.500000000000e+00 0.0 
3.125000000000e+01 -7.500000000000e+00 0.0 
3.275000000000e+01 -8.500000000000e+00 0.0 
3.425000000000e+01 -9.500000000000e+00 0.0 
2.226951693683e+01 -2.403913980114e+00 0.0 
1.650149491944e+01 -1.913490915758e+01 0.0 
1.050042386896e+01 -8.504605092970e-01 0.0 
1.553146524712e+01 -8.281255032105e-01 0.0 
1.150000000008e+01 -1.913397459621e+01 0.0 
2.530060260647e+01 -4.428336431260e+00 0.0 
8.651114563942e-01 -1.052096295641e+01 0.0 
2.050000000013e+01 -1.913397459622e+01 0.0 
2.819198729811e+01 -6.399519052838e+00 0.0 
2.445670302931e+01 -1.915649188023e+01 0.0 
3.117591465718e+01 -8.394293040695e+00 0.0 
7.465053044742e+00 -1.920411160581e+01 0.0 
6.398295709691e+00 -8.230098819370e-01 0.0 
2.849659607461e+01 -1.914296187762e+01 0.0 
3.418732642882e+01 -1.040265792588e+01 0.0 
8.386450935063e-01 -6.533605142809e+00 0.0 
9.178661865596e-01 -1.329769195597e+01 0.0 
3.149448624493e+01 -1.910466733764e+01 0.0 
3.552916747426e+01 -1.914628590759e+01 0.0 
4.449210346537e+01 -1.914359085008e+01 0.0 
4.140975975145e+01 -1.906941860733e+01 0.0 
3.847475958753e+01 -1.916622382724e+01 0.0 
3.653774794640e+01 -1.088712800241e+01 0.0 
4.047886341787e+01 -1.090139014048e+01 0.0 
4.348006339825e+01 -1.092792621489e+01 0.0 
4.919519968029e+01 -1.451526755068e+01 0.0 
4.500000000032e+00 -1.913397459621e+01 0.0 
1.856136921614e+01 -8.212235170404e-01 0.0 
3.499895312306e+00 -8.661165539723e-01 0.0 
9.076088696565e-01 -1.642306201891e+01 0.0 
4.655174095477e+01 -1.086183387525e+01 0.0 
9.430688970604e-01 -3.496112672958e+00 0.0 
3.353992337063e+01 -1.901202090820e+01 0.0 
2.249746016977e+01 -1.921262287282e+01 0.0 
2.650122741777e+01 -1.916123026018e+01 0.0 
1.863571384842e+01 -1.908325534840e+01 0.0 
1.450089971693e+01 -1.917691901860e+01 0.0 
1.350044695317e+01 -8.659695299584e-01 0.0 
3.849987469880e+01 -1.084154983397e+01 0.0 
9.454419857884e+00 -1.900818879936e+01 0.0 
4.917398660523e+01 -1.645692866081e+01 0.0 
8.500000000000e+00 -8.660254037844e-01 0.0 
8.660319230785e-01 -8.500111697188e+00 0.0 
4.649022621545e+01 -1.930506220113e+01 0.0 
2.667688107845e+01 -5.420288124331e+00 0.0 
2.379251615665e+01 -3.412225477429e+00 0.0 
2.966631491830e+01 -7.389030232731e+00 0.0 
3.267915035995e+01 -9.396934932445e+00 0.0 
2.074836922338e+01 -1.320054020319e+00 0.0 
4.915985743621e+01 -1.261973384855e+01 0.0 
2.527129768623e+00 -1.931592414663e+01 0.0 
1.538676247410e+00 -8.436956619311e-01 0.0 
4.908096641539e+01 -1.842484004551e+01 0.0 
3.478612492673e+01 -1.090889364140e+01 0.0 
3.409757055860e+01 -1.131991530427e+01 0.0 
3.501895309466e+01 -1.177687842717e+01 0.0 
3.407758073088e+01 -1.224293381580e+01 0.0 
3.484541875390e+01 -1.277051428430e+01 0.0 
3.400322025842e+01 -1.319022775640e+01 0.0 
3.321672625034e+01 -1.266779191233e+01 0.0 
3.315244139236e+01 -1.360984106532e+01 0.0 
3.236335186892e+01 -1.308463225210e+01 0.0 
3.478337442841e+01 -1.372341158982e+01 0.0 
3.230105923633e+01 -1.403023731610e+01 0.0 
3.150954055289e+01 -1.350301767700e+01 0.0 
3.144604792090e+01 -1.444931742516e+01 0.0 
3.065653897123e+01 -1.392357262981e+01 0.0 
3.071897610812e+01 -1.297447031198e+01 0.0 
2.986790411740e+01 -1.339226181535e+01 0.0 
2.993181466745e+01 -1.244703272398e+01 0.0 
2.908023061869e+01 -1.286254537734e+01 0.0 
2.901619051372e+01 -1.380881655279e+01 0.0 
2.822986160390e+01 -1.327695262116e+01 0.0 
2.829453476870e+01 -1.233265343811e+01 0.0 
2.744542905518e+01 -1.274510491105e+01 0.0 
2.751120089246e+01 -1.180368086886e+01 0.0 
2.666218649885e+01 -1.221619339205e+01 0.0 
2.672371209234e+01 -1.127125228527e+01 0.0 
2.587763216302e+01 -1.168539979114e+01 0.0 
2.581165585299e+01 -1.262994410089e+01 0.0 
2.502890882577e+01 -1.209827323619e+01 0.0 
2.509631327757e+01 -1.115492410304e+01 0.0 
2.424662989877e+01 -1.156630981079e+01 0.0 
2.431704046904e+01 -1.062389179334e+01 0.0 
2.346445438728e+01 -1.103427680694e+01 0.0 
2.339382552877e+01 -1.197964871788e+01 0.0 
2.260936050780e+01 -1.144513277642e+01 0.0 
2.268075012022e+01 -1.049911928216e+01 0.0 
2.182525737661e+01 -1.090920811464e+01 0.0 
2.189682319817e+01 -9.961716944568e+00 0.0 
2.104174127792e+01 -1.037266986667e+01 0.0 
2.111304367575e+01 -9.424179358711e+00 0.0 
2.025306185381e+01 -9.832727364719e+00 0.0 
2.018141124247e+01 -1.079140628871e+01 0.0 
1.938594498257e+01 -1.025147354112e+01 0.0 
1.946106490453e+01 -9.288010758448e+00 0.0 
1.858929958352e+01 -9.706319802516e+00 0.0 
1.851540991219e+01 -1.067205988724e+01 0.0 
1.771485303178e+01 -1.012504443115e+01 0.0 
1.764134552256e+01 -1.109360378538e+01 0.0 
1.683745148095e+01 -1.054496365337e+01 0.0 
1.691852964353e+01 -9.582555261178e+00 0.0 
1.603603813062e+01 -1.000160132379e+01 0.0 
1.595824239350e+01 -1.096750698862e+01 0.0 
1.515080624291e+01 -1.041639501931e+01 0.0 
1.523171602559e+01 -9.451711491453e+00 0.0 
1.434621060709e+01 -9.871956467464e+00 0.0 
1.426777178765e+01 -1.083749501371e+01 0.0 
1.345775282374e+01 -1.028803175500e+01 0.0 
1.354103873368e+01 -9.324918457162e+00 0.0 
1.265072018622e+01 -9.742612837270e+00 0.0 
1.257285762070e+01 -1.071557782384e+01 0.0 
1.175874815690e+01 -1.015972324288e+01 0.0 
1.184203019714e+01 -9.193604071377e+00 0.0 
1.094927709905e+01 -9.612103238656e+00 0.0 
1.086938022910e+01 -1.058685085646e+01 0.0 
1.005424098961e+01 -1.002939116380e+01 0.0 
9.977974613295e+00 -1.101324897989e+01 0.0 
1.012915646404e+01 -9.051815821181e+00 0.0 
9.237127782494e+00 -9.471239055559e+00 0.0 
9.308426593771e+00 -8.483376461131e+00 0.0 
8.418806073345e+00 -8.910712374517e+00 0.0 
2.253688464062e+01 -1.239459402279e+01 0.0 
8.495126726666e+00 -7.921646665254e+00 0.0 
9.389727383206e+00 -7.512103628377e+00 0.0 
7.601560812974e+00 -8.349460349344e+00 0.0 
7.525680547759e+00 -9.339736686940e+00 0.0 
7.677888324502e+00 -7.359727833346e+00 0.0 
6.782001206724e+00 -7.788454494773e+00 0.0 
6.858778622885e+00 -6.797338062822e+00 0.0 
2.196596590865e+01 -8.979025665442e+00 0.0 
2.816540108272e+01 -1.422634142353e+01 0.0 
5.961601194403e+00 -7.226824010712e+00 0.0 
6.038171749656e+00 -6.234825887079e+00 0.0 
6.936257279557e+00 -5.805287640737e+00 0.0 
6.115068918323e+00 -5.242109758768e+00 0.0 
3.564391741903e+01 -1.329240553876e+01 0.0 
3.558115605778e+01 -1.425902892003e+01 0.0 
3.645445282201e+01 -1.381970786460e+01 0.0 
3.639744204358e+01 -1.479198128612e+01 0.0 
3.727266909778e+01 -1.435399586226e+01 0.0 
5.216667013081e+00 -5.671788584287e+00 0.0 
3.220697293295e+01 -1.499594545107e+01 0.0 
3.551112158269e+01 -1.523479869250e+01 0.0 
2.836056961467e+01 -1.139032434851e+01 0.0 
2.516730388602e+01 -1.021382726837e+01 0.0 
1.844436907403e+01 -1.164097215196e+01 0.0 
5.885434318740e+00 -8.218694781467e+00 0.0 
5.064071066867e+00 -7.656614643901e+00 0.0 
4.988089103470e+00 -8.649722082718e+00 0.0 
1.079421050408e+01 -1.157014985435e+01 0.0 
9.902420005256e+00 -1.199903342656e+01 0.0 
1.071994252214e+01 -1.255727909771e+01 0.0 
9.826974788171e+00 -1.298659581767e+01 0.0 
1.064607883789e+01 -1.354595476388e+01 0.0 
9.751541265343e+00 -1.397556905071e+01 0.0 
8.932296185869e+00 -1.341553353988e+01 0.0 
8.856399248106e+00 -1.440570715508e+01 0.0 
8.036186803543e+00 -1.384470558472e+01 0.0 
1.057112875118e+01 -1.453516759081e+01 0.0 
1.146582585687e+01 -1.410539926903e+01 0.0 
7.959894480382e+00 -1.483563350928e+01 0.0 
7.138792279156e+00 -1.427465094140e+01 0.0 
7.062506792418e+00 -1.526615385482e+01 0.0 
6.240693558277e+00 -1.470508863040e+01 0.0 
6.316957575451e+00 -1.371212581281e+01 0.0 
5.418183007107e+00 -1.414253605022e+01 0.0 
5.494748364428e+00 -1.314886770603e+01 0.0 
1.756825565873e+01 -1.206433872514e+01 0.0 
1.837565773345e+01 -1.261356468266e+01 0.0 
1.749574831391e+01 -1.303769280014e+01 0.0 
1.830539187332e+01 -1.358828364284e+01 0.0 
1.742278925170e+01 -1.401367746928e+01 0.0 
1.823303007798e+01 -1.456432294258e+01 0.0 
1.734941694138e+01 -1.499213734361e+01 0.0 
1.653760041637e+01 -1.443920312098e+01 0.0 
3.056237977307e+01 -1.487132260174e+01 0.0 
1.866469084762e+01 -8.742953000418e+00 0.0 
1.953669694916e+01 -8.326038909849e+00 0.0 
1.874194303780e+01 -7.780688158966e+00 0.0 
1.961032016741e+01 -7.366854697285e+00 0.0 
1.881715755159e+01 -6.821102209649e+00 0.0 
1.968369797150e+01 -6.407747217358e+00 0.0 
1.889237123259e+01 -5.858375520026e+00 0.0 
1.802038875366e+01 -6.276202618170e+00 0.0 
1.809793837984e+01 -5.307629520489e+00 0.0 
1.721985207997e+01 -5.728242054488e+00 0.0 
1.729850893523e+01 -4.756990819347e+00 0.0 
1.641745664240e+01 -5.174636548624e+00 0.0 
2.495978509456e+01 -1.304406404294e+01 0.0 
1.911567814831e+01 -1.413854250293e+01 0.0 
1.904387332608e+01 -1.511463127723e+01 0.0 
1.992115934240e+01 -1.468788025898e+01 0.0 
7.013706899628e+00 -4.812582868662e+00 0.0 
5.342091874585e+00 -1.513658157269e+01 0.0 
1.139098043784e+01 -1.509488509480e+01 0.0 
1.228151810610e+01 -1.465617481983e+01 0.0 
1.646373110164e+01 -1.541993323337e+01 0.0 
5.293328636712e+00 -4.678385108584e+00 0.0 
1.975965862987e+01 -5.448124345648e+00 0.0 
2.054318374236e+01 -5.992561293251e+00 0.0 
3.721453439063e+01 -1.533216152738e+01 0.0 
3.809302733893e+01 -1.489235527381e+01 0.0 
1.220852788900e+01 -1.565304565230e+01 0.0 
4.394120899730e+00 -5.108397613210e+00 0.0 
8.779354620288e+00 -1.539524721159e+01 0.0 
1.817791047702e+01 -4.338570146253e+00 0.0 
4.518860013839e+00 -1.457343189307e+01 0.0 
4.442712140414e+00 -1.556841391069e+01 0.0 
8.115343466391e+00 -1.285760324283e+01 0.0 
1.985334703171e+01 -1.566478400426e+01 0.0 
2.071953850276e+01 -1.522074243119e+01 0.0 
1.634012953883e+01 -6.154777738301e+00 0.0 
1.553479994708e+01 -5.593730508879e+00 0.0 
1.561265946942e+01 -4.617761762647e+00 0.0 
1.470674212978e+01 -5.064576488228e+00 0.0 
1.464498299883e+01 -6.026514471420e+00 0.0 
1.383271561817e+01 -5.467796261169e+00 0.0 
1.389241253067e+01 -4.504338666645e+00 0.0 
1.301868735463e+01 -4.907185188626e+00 0.0 
1.294514184846e+01 -5.888160903592e+00 0.0 
1.212955968622e+01 -5.328262335277e+00 0.0 
1.220721122383e+01 -4.341264976687e+00 0.0 
1.131324345897e+01 -4.766773516508e+00 0.0 
5.266597955397e+00 -1.613148974258e+01 0.0 
1.737805990867e+01 -3.786677807525e+00 0.0 
3.078438094513e+01 -1.203225297748e+01 0.0 
1.131569882285e+01 -1.608511932110e+01 0.0 
1.728478341782e+01 -1.596017432313e+01 0.0 
3.803465906019e+01 -1.587509751228e+01 0.0 
3.891681276677e+01 -1.543395196905e+01 0.0 
3.897340985302e+01 -1.444710288980e+01 0.0 
3.980095968193e+01 -1.499059496613e+01 0.0 
3.974334598189e+01 -1.597921884150e+01 0.0 
4.062964983717e+01 -1.553518690417e+01 0.0 
4.068729602479e+01 -1.454434445295e+01 0.0 
4.151772679790e+01 -1.508974196007e+01 0.0 
4.157505195739e+01 -1.409694289912e+01 0.0 
4.240699932656e+01 -1.464347955968e+01 0.0 
4.234898051011e+01 -1.563721375790e+01 0.0 
4.323934606035e+01 -1.519082036405e+01 0.0 
4.329740528208e+01 -1.419587509788e+01 0.0 
4.413056841369e+01 -1.474359631875e+01 0.0 
4.418850110108e+01 -1.374786684042e+01 0.0 
4.502219770667e+01 -1.429605103525e+01 0.0 
4.496411937907e+01 -1.529215882720e+01 0.0 
4.490027319897e+00 -4.154167794594e+00 0.0 
1.565080385988e+01 -1.486411982419e+01 0.0 
1.557610691279e+01 -1.584855627870e+01 0.0 
4.195350646612e+00 -8.089117689096e+00 0.0 
4.124027797830e+00 -9.082831955007e+00 0.0 
4.917944318925e+00 -9.643530901533e+00 0.0 
4.020105689502e+00 -1.007439673661e+01 0.0 
4.587185899277e+01 -1.484039992728e+01 0.0 
4.580078661551e+01 -1.584043391042e+01 0.0 
2.061956522375e+01 -5.046701343981e+00 0.0 
2.139572955529e+01 -5.579553449826e+00 0.0 
3.715344357292e+01 -1.631485124583e+01 0.0 
3.618886196443e+00 -1.500471207167e+01 0.0 
3.695606940204e+00 -1.400939692294e+01 0.0 
2.438890661143e+01 -9.686110599723e+00 0.0 
2.523267572778e+01 -9.276766000622e+00 0.0 
2.446094171539e+01 -8.751904591412e+00 0.0 
2.529089822738e+01 -8.321495612547e+00 0.0 
2.606882688827e+01 -8.864724051119e+00 0.0 
2.452116646430e+01 -7.792756462004e+00 0.0 
1.235543269617e+01 -1.365845617339e+01 0.0 
4.318116874181e+01 -1.618567469992e+01 0.0 
7.835066111909e+00 -5.376366223896e+00 0.0 
7.905687335704e+00 -4.382539065697e+00 0.0 
3.542640009567e+00 -1.600035116542e+01 0.0 
1.572431503071e+01 -1.388358386695e+01 0.0 
2.574684696680e+01 -1.357896141127e+01 0.0 
2.488842657651e+01 -1.399674354505e+01 0.0 
2.568301775611e+01 -1.453552048595e+01 0.0 
2.481535572009e+01 -1.495542756508e+01 0.0 
2.561729699688e+01 -1.549784648532e+01 0.0 
2.474623061296e+01 -1.592058894178e+01 0.0 
2.394234041695e+01 -1.537572575827e+01 0.0 
2.065825452567e+01 -1.621899055217e+01 0.0 
2.387180528935e+01 -1.634552264687e+01 0.0 
4.585364400844e+01 -1.383912334080e+01 0.0 
1.998744432052e+01 -1.370317155541e+01 0.0 
1.205356951443e+01 -6.313580285498e+00 0.0 
5.396543905849e+00 -3.731818611283e+00 0.0 
1.139652573295e+01 -3.745819399350e+00 0.0 
3.574124306703e+00 -4.551456826011e+00 0.0 
3.494140761930e+00 -5.539787055649e+00 0.0 
1.213651452413e+01 -1.664505033022e+01 0.0 
2.555045568519e+01 -1.646529356744e+01 0.0 
2.641671114986e+01 -1.603899382371e+01 0.0 
2.612920721894e+01 -7.906435260873e+00 0.0 
2.690339829698e+01 -8.456969591431e+00 0.0 
1.978024383368e+01 -1.664410216353e+01 0.0 
3.732829979082e+01 -1.336926601859e+01 0.0 
4.074336584605e+01 -1.355133328401e+01 0.0 
4.163204691081e+01 -1.310280943992e+01 0.0 
3.773826114429e+00 -3.493444309145e+00 0.0 
1.228783001032e+01 -3.374822835872e+00 0.0 
4.057110462520e+01 -1.652588478000e+01 0.0 
2.132535497898e+01 -6.523623360525e+00 0.0 
2.216932532211e+01 -6.110044769206e+00 0.0 
1.825781152128e+01 -3.370146817147e+00 0.0 
1.745679445888e+01 -2.812942552063e+00 0.0 
4.666517057280e+01 -1.539981381543e+01 0.0 
4.660575894464e+01 -1.639014410186e+01 0.0 
4.838230979954e+00 -1.063643436446e+01 0.0 
3.938942630206e+00 -1.106778981745e+01 0.0 
1.302967218620e+01 -1.621373452436e+01 0.0 
1.049548003190e+01 -4.204825123240e+00 0.0 
4.573571907195e+01 -1.683820511148e+01 0.0 
1.483686335807e+01 -1.430849689310e+01 0.0 
1.490982658890e+01 -1.332679386284e+01 0.0 
3.190805600162e+00 -9.510968358545e+00 0.0 
2.146625721848e+01 -4.642437303115e+00 0.0 
2.069866208266e+01 -4.111852942193e+00 0.0 
1.286859345584e+01 -6.873252723348e+00 0.0 
1.041794493184e+01 -5.194814260291e+00 0.0 
2.671081808965e+00 -4.976806516331e+00 0.0 
1.295786792925e+01 -1.720506531799e+01 0.0 
3.968438206511e+01 -1.696869067241e+01 0.0 
2.308550456051e+01 -1.579963151273e+01 0.0 
2.315593682844e+01 -1.482967445235e+01 0.0 
2.299471449450e+01 -1.677069968132e+01 0.0 
1.057344714696e+01 -3.214252277840e+00 0.0 
1.124057603753e+01 -1.707713739755e+01 0.0 
2.718402535754e+00 -1.543629882103e+01 0.0 
2.638549692805e+01 -1.696744916809e+01 0.0 
2.723416349007e+01 -1.658104204545e+01 0.0 
2.210193351704e+01 -7.046769643417e+00 0.0 
2.295180925161e+01 -6.657397605239e+00 0.0 
2.301355235833e+01 -5.709111896800e+00 0.0 
2.379052718281e+01 -6.254965406962e+00 0.0 
3.243528601237e+01 -1.214181853533e+01 0.0 
2.287977995457e+01 -7.583722368300e+00 0.0 
2.999876029544e+01 -1.150837653096e+01 0.0 
3.084435366963e+01 -1.109693775882e+01 0.0 
3.006650579669e+01 -1.057778994262e+01 0.0 
2.683802665066e+01 -9.386863216633e+00 0.0 
2.768641973621e+01 -8.988883915666e+00 0.0 
2.040296980397e+01 -7.903629133404e+00 0.0 
1.925235024054e+01 -1.218872783130e+01 0.0 
5.735667000424e+00 -1.020577277283e+01 0.0 
6.396559909872e+00 -1.272326295703e+01 0.0 
1.161199420714e+01 -1.212812778229e+01 0.0 
4.229046132615e+01 -1.663084237572e+01 0.0 
4.312275399692e+01 -1.718087491556e+01 0.0 
4.335502068163e+01 -1.320039231514e+01 0.0 
4.424630298089e+01 -1.275160688731e+01 0.0 
7.090116643816e+00 -3.818998061530e+00 0.0 
7.989472176569e+00 -3.389238711200e+00 0.0 
9.085824861778e+00 -1.144036167408e+01 0.0 
1.041972423731e+01 -1.651614080893e+01 0.0 
3.797525112640e+01 -1.686052038746e+01 0.0 
3.709114253394e+01 -1.730125999865e+01 0.0 
3.626966748340e+01 -1.675477052919e+01 0.0 
1.385164591440e+01 -1.677597757552e+01 0.0 
1.787152588784e+01 -8.198993896093e+00 0.0 
1.668849729812e+01 -1.248560611628e+01 0.0 
1.659546177905e+01 -3.232482605530e+00 0.0 
2.332214717345e+01 -1.292598167641e+01 0.0 
7.168238450786e+00 -2.824711686516e+00 0.0 
2.894878403906e+01 -1.475427524446e+01 0.0 
2.646763248247e+00 -1.643270107952e+01 0.0 
3.467431944285e+00 -1.699648837348e+01 0.0 
2.059475877282e+01 -1.719473628526e+01 0.0 
3.333868355437e+01 -1.080596971682e+01 0.0 
2.246451062637e+01 -1.334557761546e+01 0.0 
2.167821896388e+01 -1.280847834858e+01 0.0 
3.089653185767e+01 -1.017198487212e+01 0.0 
3.012604365669e+01 -9.657298805968e+00 0.0 
2.929627299435e+01 -1.006100135274e+01 0.0 
2.936201435219e+01 -9.136748899251e+00 0.0 
1.198219052702e+01 -7.291887238230e+00 0.0 
1.116702076035e+01 -6.731976101053e+00 0.0 
2.551388807505e+01 -1.746927036981e+01 0.0 
2.378639090370e+01 -1.728678807149e+01 0.0 
2.718543627188e+01 -1.748668016909e+01 0.0 
2.804681050301e+01 -1.712626668293e+01 0.0 
1.970737034667e+01 -1.762317646822e+01 0.0 
1.889535776135e+01 -1.707158098231e+01 0.0 
2.593777711283e+00 -5.971157087874e+00 0.0 
2.773468281110e+01 -8.067164273938e+00 0.0 
4.051205884347e+01 -1.751819982458e+01 0.0 
3.166903145421e+01 -1.068032992414e+01 0.0 
1.033042452886e+01 -1.748285844336e+01 0.0 
9.519274604626e+00 -1.694349240233e+01 0.0 
1.668308673328e+01 -2.255861778986e+00 0.0 
1.570531902832e+01 -2.676795860126e+00 0.0 
4.655826903379e+01 -1.736656245706e+01 0.0 
2.384148070773e+01 -5.328744256413e+00 0.0 
2.460255123641e+01 -5.852182672816e+00 0.0 
2.306638135119e+01 -4.798935440613e+00 0.0 
8.467720450578e-01 -1.849576263072e+01 0.0 
4.849657322345e+01 -1.084860705506e+01 0.0 
2.565860899507e+00 -1.742859793981e+01 0.0 
2.764418872564e+01 -9.927142821799e+00 0.0 
4.565165880064e+01 -1.785336695404e+01 0.0 
2.162231831329e+01 -1.376528337468e+01 0.0 
2.360646352969e+01 -9.136041963102e+00 0.0 
1.392738739903e+01 -1.578285505772e+01 0.0 
4.756405947478e+01 -1.683706841809e+01 0.0 
4.740895034054e+01 -1.793766756892e+01 0.0 
4.080779328826e+01 -1.257387192544e+01 0.0 
4.168907939671e+01 -1.210739129181e+01 0.0 
3.991197722154e+01 -1.300815793917e+01 0.0 
1.905536506762e+01 -3.940076697685e+00 0.0 
1.923879596617e+01 -2.875000734166e+00 0.0 
4.401386745746e+01 -1.673483229438e+01 0.0 
4.247233362525e+00 -7.094581653070e+00 0.0 
3.286051630211e+00 -7.635300020553e+00 0.0 
9.609533347623e+00 -4.594311677967e+00 0.0 
9.523554636369e+00 -5.595597029530e+00 0.0 
5.660336628893e+00 -1.119290329628e+01 0.0 
6.558070063295e+00 -1.076385809362e+01 0.0 
2.809866407414e+01 -1.518037766799e+01 0.0 
2.888868674504e+01 -1.570360690070e+01 0.0 
2.654431550819e+01 -1.411217777162e+01 0.0 
1.402158265969e+01 -1.375404617952e+01 0.0 
1.409592494026e+01 -1.277071998942e+01 0.0 
1.499355196178e+01 -1.235270737023e+01 0.0 
4.221535326155e+01 -1.759335617494e+01 0.0 
4.305583287033e+01 -1.822663146802e+01 0.0 
1.280748808359e+01 -7.834332838285e+00 0.0 
1.368988389326e+01 -7.420529606172e+00 0.0 
1.110091796060e+01 -7.683966794328e+00 0.0 
3.963446145980e+01 -1.794331310122e+01 0.0 
3.423932362213e+00 -1.796415590455e+01 0.0 
4.280814572302e+00 -1.752272834860e+01 0.0 
8.050136380041e+00 -2.421582378631e+00 0.0 
8.888674091650e+00 -2.984264211327e+00 0.0 
2.152839430898e+01 -3.732609965436e+00 0.0 
2.077799585292e+01 -3.183896021866e+00 0.0 
3.618719395821e+01 -1.770276572576e+01 0.0 
3.538165138340e+01 -1.718709995539e+01 0.0 
3.702925326420e+01 -1.828844288807e+01 0.0 
1.756739438711e+00 -5.353284859169e+00 0.0 
2.233710191104e+01 -1.527265621324e+01 0.0 
1.389483555057e+01 -1.771797164730e+01 0.0 
1.475634224300e+01 -1.728357428390e+01 0.0 
1.298797563052e+01 -1.825968924755e+01 0.0 
2.145331271866e+01 -1.673705379077e+01 0.0 
2.133282821169e+01 -1.769400773673e+01 0.0 
2.292139194136e+01 -1.774915400288e+01 0.0 
1.750750053243e+01 -1.861475593469e+00 0.0 
4.830478841772e+01 -1.752611802221e+01 0.0 
4.341203507805e+01 -1.220326745522e+01 0.0 
1.685254151866e+01 -1.443085301632e+00 0.0 
4.431538535165e+01 -1.171841387375e+01 0.0 
4.511308610496e+01 -1.229557320599e+01 0.0 
4.510133242889e+01 -1.123680627466e+01 0.0 
1.846818030617e+00 -4.410877617069e+00 0.0 
3.995468694584e+01 -1.186571542989e+01 0.0 
3.901387459804e+01 -1.242507616755e+01 0.0 
8.966735877533e+00 -1.837818700423e+00 0.0 
4.049310011091e+01 -1.848269508791e+01 0.0 
7.278862053803e+00 -1.918523922691e+00 0.0 
6.429715522129e+00 -2.316676521184e+00 0.0 
9.443505505022e+00 -1.792198868094e+01 0.0 
8.620386951051e+00 -1.737590365556e+01 0.0 
8.571868171503e+00 -1.834436667826e+01 0.0 
7.758629848526e+00 -1.775677907213e+01 0.0 
7.806648388584e+00 -1.680761266021e+01 0.0 
6.908555145436e+00 -1.723746463044e+01 0.0 
4.251709122090e+01 -1.156937480156e+01 0.0 
6.931136405615e+00 -1.832465719263e+01 0.0 
6.015545461353e+00 -1.768865355295e+01 0.0 
5.960535926343e+00 -1.872011001764e+01 0.0 
3.023253444786e+01 -8.761960642196e+00 0.0 
2.454622702599e+01 -6.749421992767e+00 0.0 
2.537499741604e+01 -6.347634963783e+00 0.0 
2.544077378460e+01 -5.431358513649e+00 0.0 
2.801367161747e+01 -1.820907270221e+01 0.0 
2.884507806914e+01 -1.762032095326e+01 0.0 
1.821474531936e+00 -1.588901260460e+01 0.0 
1.821006262604e+00 -1.489370287756e+01 0.0 
4.599962488908e+01 -1.176478780598e+01 0.0 
4.705457470007e+01 -1.172182804229e+01 0.0 
4.667668314802e+01 -1.263464558483e+01 0.0 
4.759648056504e+01 -1.252380987933e+01 0.0 
4.728041618103e+01 -1.341928568376e+01 0.0 
4.825209352360e+01 -1.330491640804e+01 0.0 
4.778118233428e+01 -1.420151961695e+01 0.0 
2.388192727579e+01 -1.826934810142e+01 0.0 
2.381714684947e+01 -4.385917965223e+00 0.0 
3.172733219247e+01 -9.758744265248e+00 0.0 
1.882012070658e+01 -1.805540597212e+01 0.0 
1.805667505243e+01 -1.742221226236e+01 0.0 
2.852599958080e+01 -8.597196079481e+00 0.0 
2.856486123437e+01 -7.661382718527e+00 0.0 
1.111792842875e+01 -1.818223852980e+01 0.0 
2.203322722466e+01 -7.986646678802e+00 0.0 
3.955703676900e+01 -1.903246763601e+01 0.0 
1.944842206513e+01 -8.038750575182e-01 0.0 
1.909882767783e+01 -1.746322740933e+00 0.0 
2.281147422941e+01 -8.525912918334e+00 0.0 
2.850633001468e+01 -9.533271335986e+00 0.0 
2.532883344309e+01 -7.308951659710e+00 0.0 
2.620475466461e+01 -6.979208585400e+00 0.0 
1.396278270396e+01 -1.475095389807e+01 0.0 
9.791001166724e+00 -2.554159793552e+00 0.0 
2.229293380421e+01 -4.269762271052e+00 0.0 
4.677238984118e+01 -1.430071795514e+01 0.0 
2.228658385918e+01 -3.344747535984e+00 0.0 
8.940223674553e-01 -1.543595733415e+01 0.0 
2.118566862474e+01 -8.435876987696e+00 0.0 
2.678325936437e+01 -1.032621195706e+01 0.0 
2.223400220487e+01 -5.179046761770e+00 0.0 
2.375370625384e+01 -7.251580562134e+00 0.0 
3.156971327386e+01 -1.255534750737e+01 0.0 
3.328226391312e+01 -1.172914813316e+01 0.0 
3.250948774219e+01 -1.120157009348e+01 0.0 
2.032993445717e+01 -8.867880112202e+00 0.0 
2.697226974856e+01 -7.536633082045e+00 0.0 
2.707377810386e+01 -6.590835263295e+00 0.0 
2.914099246827e+01 -1.191678458549e+01 0.0 
3.544824072239e+01 -1.621126558525e+01 0.0 
3.456511855436e+01 -1.665054783843e+01 0.0 
3.448395810225e+01 -1.759117813016e+01 0.0 
3.368378673938e+01 -1.708037781328e+01 0.0 
3.375560452567e+01 -1.610973066913e+01 0.0 
3.288001547988e+01 -1.654324255651e+01 0.0 
3.282475929147e+01 -1.749725654692e+01 0.0 
3.199880906313e+01 -1.697294088625e+01 0.0 
3.197001272932e+01 -1.811667776864e+01 0.0 
3.111884713021e+01 -1.742166785755e+01 0.0 
3.120418962865e+01 -1.642155709385e+01 0.0 
3.034666704371e+01 -1.683123833816e+01 0.0 
3.026224379976e+01 -1.772592851714e+01 0.0 
3.046632362943e+01 -1.582232843075e+01 0.0 
1.961344017324e+01 -1.857459447985e+01 0.0 
2.274975894774e+01 -9.532738811922e+00 0.0 
1.833923246887e+01 -2.396746883672e+00 0.0 
1.988859500848e+01 -2.249244376594e+00 0.0 
2.758045562861e+01 -1.086434261689e+01 0.0 
3.247300178163e+01 -1.909930104252e+01 0.0 
3.461947482503e+01 -1.911879848019e+01 0.0 
2.047161538662e+01 -6.941478180358e+00 0.0 
2.750230940214e+01 -1.915490590764e+01 0.0 
3.165081350803e+01 -1.161860780120e+01 0.0 
1.897456727641e+01 -4.889634688522e+00 0.0 
2.549338539756e+01 -1.914858252089e+01 0.0 
3.462873135081e+01 -1.567482276144e+01 0.0 
3.384432415243e+01 -1.512280684518e+01 0.0 
3.471433767690e+01 -1.469086942990e+01 0.0 
3.651470373046e+01 -1.918207952149e+01 0.0 
3.901742690249e+01 -1.345028556517e+01 0.0 
2.153224102692e+01 -1.920169709333e+01 0.0 
1.918382939341e+01 -1.316226275662e+01 0.0 
2.005389162382e+01 -1.271962165174e+01 0.0 
2.011472087878e+01 -1.175029352900e+01 0.0 
3.210679478412e+01 -1.598038618242e+01 0.0 
1.752175226543e+01 -1.914713022656e+01 0.0 
1.696897240059e+01 -1.832772588765e+01 0.0 
1.599682523337e+01 -1.832599992024e+01 0.0 
1.644507199462e+01 -1.743697981535e+01 0.0 
1.549987712903e+01 -1.915192375101e+01 0.0 
3.050250861901e+01 -1.918943550234e+01 0.0 
2.949944061527e+01 -1.922950455235e+01 0.0 
1.375892575273e+01 -6.447160534926e+00 0.0 
1.457223670180e+01 -7.006709243857e+00 0.0 
1.450818793236e+01 -7.965943451779e+00 0.0 
1.538804712402e+01 -7.553409623699e+00 0.0 
1.545817644768e+01 -6.580929593419e+00 0.0 
1.626506893751e+01 -7.129032608911e+00 0.0 
1.619833811522e+01 -8.086588580887e+00 0.0 
1.714448609609e+01 -6.697429609777e+00 0.0 
2.887616543568e+01 -1.668015232137e+01 0.0 
1.349814589130e+01 -1.918225301544e+01 0.0 
1.153887772210e+01 -1.311384581217e+01 0.0 
1.242708159886e+01 -1.267046795531e+01 0.0 
1.249799674267e+01 -1.169005616014e+01 0.0 
6.631723893693e+00 -9.774184881867e+00 0.0 
7.451471631867e+00 -1.033148796006e+01 0.0 
7.377795355458e+00 -1.132196345268e+01 0.0 
5.810931797536e+00 -9.211654212252e+00 0.0 
2.402683899133e+01 -1.441378562320e+01 0.0 
1.249768692036e+01 -1.917388426624e+01 0.0 
1.580373499437e+01 -1.290751860664e+01 0.0 
8.344650507834e+00 -9.898403995170e+00 0.0 
3.750622115305e+01 -1.086526401533e+01 0.0 
3.699391251667e+01 -1.171695900794e+01 0.0 
3.606517829518e+01 -1.173717504500e+01 0.0 
3.650257641795e+01 -1.270047380221e+01 0.0 
3.808951488918e+01 -1.183518714175e+01 0.0 
4.760380962420e+00 -1.162484888315e+01 0.0 
3.861210370848e+00 -1.205657631736e+01 0.0 
3.038284309476e+00 -1.149851280664e+01 0.0 
2.961598794889e+00 -1.248856794980e+01 0.0 
2.138953225512e+00 -1.193212674534e+01 0.0 
2.227383593457e+00 -1.096258903918e+01 0.0 
2.043265419276e+00 -1.292158472959e+01 0.0 
1.252449446028e+00 -1.225502002753e+01 0.0 
3.949985210740e+01 -1.086594001795e+01 0.0 
1.453499444792e+01 -8.768805922472e-01 0.0 
1.403518950933e+01 -1.749965556633e+00 0.0 
1.300715031023e+01 -1.714737233040e+00 0.0 
1.350929389899e+01 -2.527443911291e+00 0.0 
1.449600910711e+01 -2.595486162864e+00 0.0 
1.395693872901e+01 -3.484211041558e+00 0.0 
1.495105865208e+01 -3.364609636216e+00 0.0 
1.508822528740e+01 -1.766586020494e+00 0.0 
1.250223858430e+01 -8.634590186802e-01 0.0 
1.200279523409e+01 -1.709044504992e+00 0.0 
1.150086239419e+01 -8.592789190668e-01 0.0 
1.101482754194e+01 -1.677730591922e+00 0.0 
1.148018564526e+01 -2.659323866909e+00 0.0 
8.800552119754e+00 -3.989875954728e+00 0.0 
3.452790439430e+00 -1.901136170646e+01 0.0 
8.658451825200e-01 -9.503462241795e+00 0.0 
1.694787786797e+00 -9.000589234502e+00 0.0 
1.703436717094e+00 -8.038819004041e+00 0.0 
2.594197971110e+00 -8.563955242845e+00 0.0 
1.630513735412e+00 -9.907244747511e+00 0.0 
8.566859292791e-01 -7.512203837972e+00 0.0 
1.685461277022e+00 -7.164280248030e+00 0.0 
2.506394468801e+00 -8.623386730818e-01 0.0 
2.007475081581e+00 -1.727729545205e+00 0.0 
9.211534699767e-01 -1.628791366312e+00 0.0 
1.500000000020e+00 -2.598063549486e+00 0.0 
2.482078929963e+00 -2.553580088725e+00 0.0 
2.999795253092e+00 -1.732169015019e+00 0.0 
3.999712607169e+00 -1.728832897453e+00 0.0 
4.499752199340e+00 -8.656478679175e-01 0.0 
4.964377774841e+00 -1.730129617941e+00 0.0 
4.425017908337e+00 -2.597541756243e+00 0.0 
5.446573195014e+00 -8.410144840023e-01 0.0 
4.915722346614e+01 -1.550640962770e+01 0.0 
4.826794919243e+01 -1.600000000000e+01 0.0 
1.053139533193e+01 -1.911782884365e+01 0.0 
4.156049861949e+01 -1.095160998589e+01 0.0 
9.494526624416e+00 -8.650570090219e-01 0.0 
4.555762166964e+01 -1.897098103585e+01 0.0 
4.250656411371e+01 -1.914387356218e+01 0.0 
4.350906466345e+01 -1.917234727395e+01 0.0 
8.759665722424e-01 -1.746422130609e+01 0.0 
1.698936011838e+00 -1.795012186674e+01 0.0 
4.742476811029e+01 -1.900090177972e+01 0.0 
7.749196752349e+00 -6.368049313489e+00 0.0 
3.361572113416e+01 -1.798765193915e+01 0.0 
4.484660149212e+01 -1.728661231383e+01 0.0 
1.984038172228e+01 -4.502575320116e+00 0.0 
1.035080352627e+01 -6.166639575753e+00 0.0 
2.753558010652e+00 -1.444909521181e+01 0.0 
7.217069543032e+00 -1.328635391078e+01 0.0 
4.364336727739e+00 -1.655585677381e+01 0.0 
4.595208426108e+00 -1.357919665443e+01 0.0 
6.164967006980e+00 -1.569873454630e+01 0.0 
1.487855768353e+01 -1.826523774028e+01 0.0 
2.791876456372e+00 -4.019632415181e+00 0.0 
4.246464893515e+01 -1.364898659620e+01 0.0 
4.503855590351e+01 -1.329552780944e+01 0.0 
4.407239109604e+01 -1.573900004093e+01 0.0 
5.141054449252e+00 -6.664290382472e+00 0.0 
3.141083947149e+00 -1.055790764912e+01 0.0 
6.196463198741e+00 -4.256497932609e+00 0.0 
2.599618716181e+01 -1.836893455464e+01 0.0 
2.923057372337e+01 -1.098461757645e+01 0.0 
1.168343877486e+01 -1.114079645041e+01 0.0 
6.706222096238e+00 -8.780364234441e+00 0.0 
8.567858614669e+00 -6.943121440850e+00 0.0 
1.123755132901e+01 -5.753525820030e+00 0.0 
2.353456234423e+01 -1.008536320953e+01 0.0 
9.162073319168e+00 -1.045593739109e+01 0.0 
9.676343469685e+00 -1.496493008366e+01 0.0 
4.490637882905e+01 -1.628778970202e+01 0.0 
7.398129387772e+00 -9.639977982323e-01 0.0 
1.049641705805e+01 -1.552503975272e+01 0.0 
9.010356286268e+00 -1.242805042052e+01 0.0 
3.985573925497e+01 -1.399863651620e+01 0.0 
1.816196318262e+01 -1.554066497931e+01 0.0 
1.306332244168e+01 -3.963646550326e+00 0.0 
4.145850903932e+01 -1.608094559275e+01 0.0 
3.794664933633e+01 -1.779020121986e+01 0.0 
3.819614412903e+01 -1.290749321016e+01 0.0 
6.270014188119e+00 -3.255093186826e+00 0.0 
4.251165370388e+01 -1.263870364997e+01 0.0 
1.207347709171e+01 -1.763942826023e+01 0.0 
3.633240829927e+01 -1.577330481104e+01 0.0 
4.319052668832e+00 -6.101812561904e+00 0.0 
1.676492415806e+01 -1.151547901392e+01 0.0 
2.594059220037e+01 -1.074225223009e+01 0.0 
3.340750911501e+01 -9.898764354137e+00 0.0 
4.397619591281e+01 -1.769773736461e+01 0.0 
2.175611595028e+01 -1.185718747128e+01 0.0 
1.641818733106e+01 -1.640685203215e+01 0.0 
1.661211421753e+01 -1.346121366338e+01 0.0 
3.428853504935e+00 -6.551993389271e+00 0.0 
8.700728832502e+00 -1.638460872825e+01 0.0 
1.931369795309e+01 -1.121629383702e+01 0.0 
4.139798872363e+01 -1.706922153459e+01 0.0 
2.647837478700e+01 -1.507353829290e+01 0.0 
1.779469616424e+01 -9.161615782908e+00 0.0 
3.885879219319e+01 -1.642026488918e+01 0.0 
1.338194936770e+01 -1.125916521471e+01 0.0 
1.897071181111e+01 -1.609204322578e+01 0.0 
2.844308548793e+01 -1.046221003096e+01 0.0 
2.659854702194e+01 -1.316109415760e+01 0.0 
2.979604503271e+01 -1.433296157755e+01 0.0 
2.417694041347e+01 -1.251231397779e+01 0.0 
1.807401327411e+00 -1.388891148480e+01 0.0 
9.599810618782e+00 -1.595439365034e+01 0.0 
1.652144692160e+01 -4.205392788472e+00 0.0 
2.367839450246e+01 -8.188385218643e+00 0.0 
3.814894930468e+01 -1.390748338767e+01 0.0 
2.466448215774e+01 -1.685878545680e+01 0.0 
4.134044524611e+01 -1.806610045954e+01 0.0 
2.600511411958e+01 -9.801774120648e+00 0.0 
7.882158050716e+00 -1.582364037353e+01 0.0 
3.881607873422e+01 -1.737970515013e+01 0.0 
8.270182347708e+00 -1.088622154920e+01 0.0 
8.672520392520e-01 -4.532984309881e+00 0.0 
1.993447205337e+01 -3.579061902667e+00 0.0 
1.794616079549e+01 -7.238038888498e+00 0.0 
2.097277068165e+01 -1.132450168636e+01 0.0 
8.194803300681e+00 -1.187214224265e+01 0.0 
3.522279404911e+01 -1.823342818178e+01 0.0 
6.984481050295e+00 -1.625271465557e+01 0.0 
1.309433007797e+01 -1.521718594215e+01 0.0 
2.150246167611e+01 -1.885399038185e+00 0.0 
3.250689370209e+01 -1.028789870535e+01 0.0 
6.085886272238e+00 -1.668342132851e+01 0.0 
1.588455661727e+01 -1.193498985921e+01 0.0 
1.809323400821e+01 -1.651110084195e+01 0.0 
1.348885082381e+00 -1.136065576512e+01 0.0 
2.497670221995e+01 -1.834631276173e+01 0.0 
2.937062818424e+01 -8.233711194470e+00 0.0 
5.185823744469e+00 -1.711566910207e+01 0.0 
1.477497877209e+01 -1.530177014512e+01 0.0 
2.125346158933e+01 -7.473003997367e+00 0.0 
4.751561118290e+01 -1.084897772632e+01 0.0 
5.056026576843e+00 -1.825750475525e+01 0.0 
1.473948554523e+01 -1.634577436309e+01 0.0 
2.410566630936e+01 -1.345970002612e+01 0.0 
1.507337507513e+01 -1.138527895328e+01 0.0 
3.189857338687e+01 -8.887781229006e+00 0.0 
7.298712468334e+00 -1.230231046246e+01 0.0 
2.738235495295e+01 -1.368931690364e+01 0.0 
3.750141041969e+01 -1.920449893070e+01 0.0 
1.557271965640e+01 -1.683317951731e+01 0.0 
3.393731848929e+01 -1.413034777044e+01 0.0 
6.482156824153e+00 -1.174575135362e+01 0.0 
2.077971718439e+01 -1.421279621836e+01 0.0 
3.455084320178e+00 -2.562590040585e+00 0.0 
3.099056096250e+01 -9.270280416035e+00 0.0 
5.580176125418e+00 -1.217387969259e+01 0.0 
1.707247630389e+01 -7.660651981710e+00 0.0 
1.418658814174e+01 -1.180390575393e+01 0.0 
2.049103025389e+01 -1.811296706038e+01 0.0 
4.680386172316e+00 -1.260396879301e+01 0.0 
1.699679896554e+01 -8.624561788199e+00 0.0 
3.779470168555e+00 -1.303424899720e+01 0.0 
3.036589870126e+01 -7.879832518349e+00 0.0 
3.306993001774e+01 -1.457671062095e+01 0.0 
2.840150110165e+00 -1.346530088269e+01 0.0 
2.732011135052e+01 -1.464591214560e+01 0.0 
5.423639259568e+00 -2.659711955016e+00 0.0 
2.324455961696e+01 -1.387269388211e+01 0.0 
1.752768355571e+00 -1.693128613594e+01 0.0 
1.020244783051e+01 -8.076834012808e+00 0.0 
1.330873875224e+01 -1.222417528206e+01 0.0 
3.297727364880e+01 -1.555480372087e+01 0.0 
2.890929955439e+01 -6.868664170731e+00 0.0 
1.323294664622e+01 -1.320754260334e+01 0.0 
2.726532861246e+01 -1.560593120806e+01 0.0 
2.240020643398e+01 -1.429299177247e+01 0.0 
2.090445823633e+01 -1.228128621332e+01 0.0 
1.315809881502e+01 -1.420739326938e+01 0.0 
2.781328038068e+01 -7.181956082300e+00 0.0 
8.614200829057e+00 -5.936933226306e+00 0.0 
8.714765730069e+00 -4.979270529687e+00 0.0 
1.611881701099e+01 -9.041973294003e+00 0.0 
2.806830314340e+01 -1.614622947108e+01 0.0 
2.084435391396e+00 -3.385085422913e+00 0.0 
3.133211811152e+01 -1.542347619750e+01 0.0 
9.693114650768e+00 -3.590281506442e+00 0.0 
1.531883592202e+01 -8.504584946143e+00 0.0 
2.151589117094e+01 -1.578915763018e+01 0.0 
4.918943882696e+01 -1.355538828056e+01 0.0 
1.443236615188e+01 -8.918701794549e+00 0.0 
8.276250966452e-01 -5.537685192197e+00 0.0 
1.362790867918e+01 -8.374718262212e+00 0.0 
2.083767477370e+01 -1.324843956035e+01 0.0 
1.273834678703e+01 -8.790890389337e+00 0.0 
1.192275845670e+01 -8.242261327467e+00 0.0 
4.477236023583e+01 -1.824312396664e+01 0.0 
1.102989384254e+01 -8.649855800911e+00 0.0 
4.849096516045e+01 -1.917293752213e+01 0.0 
1.588996752238e+00 -1.910230934687e+01 0.0 
4.904245197583e+01 -1.159839008158e+01 0.0 
2.753852929608e+01 -5.782128488093e+00 0.0 
1.756133602833e+01 -8.306130313187e-01 0.0 
2.615423700951e+01 -6.153865090092e+00 0.0 
1.028818761294e+01 -7.122020845892e+00 0.0 
2.970818901196e+01 -1.527821347593e+01 0.0 
4.801461623449e+01 -1.164472570985e+01 0.0 
9.455722100419e+00 -6.546069291118e+00 0.0 
3.089099236677e+01 -1.835339328261e+01 0.0 
2.350000000013e+01 -1.920825896750e+01 0.0 
4.830620531887e+01 -1.506626155470e+01 0.0 
1.725381944701e+01 -1.688794487850e+01 0.0 
2.156246225273e+01 -1.475893794002e+01 0.0 
4.919319648787e+01 -1.742767505896e+01 0.0 
4.437935623576e+01 -1.077662927266e+01 0.0 
1.001520521978e+01 -1.652692675208e+00 0.0 
9.067160240050e-01 -1.441937727541e+01 0.0 
2.603365149390e+01 -4.755996613848e+00 0.0 
2.458344439002e+01 -4.873645517696e+00 0.0 
2.304312390142e+01 -3.836552768096e+00 0.0 
2.546923202198e+00 -6.902480355749e+00 0.0 
1.251534969393e+01 -2.490989965776e+00 0.0 
2.454061833377e+01 -3.933354231935e+00 0.0 
1.788186558740e+01 -1.827424884923e+01 0.0 
4.090785243552e+01 -1.166553231904e+01 0.0 
2.230128851568e+01 -1.623015738726e+01 0.0 
2.302362347568e+01 -2.916239960270e+00 0.0 
3.878119254461e+01 -1.830091164002e+01 0.0 
2.210081359958e+01 -1.829238229150e+01 0.0 
8.443704882233e+00 -1.921993252862e+01 0.0 
2.218405824691e+01 -1.724557581508e+01 0.0 
2.151157503963e+01 -2.790636689331e+00 0.0 
3.741658958955e+01 -1.250400191722e+01 0.0 
2.697247663737e+01 -1.838290202309e+01 0.0 
4.743362342862e+01 -1.585850773010e+01 0.0 
6.671345075358e+00 -1.924977576322e+01 0.0 
3.900825404537e+01 -1.157220003875e+01 0.0 
4.649692961375e+01 -1.836335837481e+01 0.0 
1.578831424832e+01 -3.678284023361e+00 0.0 
4.814208768888e+01 -1.841249298770e+01 0.0 
2.964123298315e+01 -1.625739458193e+01 0.0 
4.580760351902e+01 -1.284294554687e+01 0.0 
3.561520879615e+01 -1.245548941949e+01 0.0 
2.555418095658e+00 -1.841101588290e+01 0.0 
3.288468366144e+01 -1.834258164109e+01 0.0 
2.065894391445e+01 -2.240688571739e+00 0.0 
4.739171429915e+01 -1.496536413446e+01 0.0 
3.478086729185e+00 -8.576434653209e+00 0.0 
1.606010630246e+01 -1.588421807951e+00 0.0 
1.018329200594e+01 -1.834320874317e+01 0.0 
2.957213339430e+01 -1.720496954591e+01 0.0 
4.142712790164e+00 -1.837794506222e+01 0.0 
6.698721532573e-01 -2.499999999997e+00 0.0 
8.037039123140e+00 -1.571229354954e+00 0.0 
1.203541361428e+01 -1.847784298001e+01 0.0 
2.899968332038e+01 -1.848264722179e+01 0.0 
1.469229460948e+01 -4.219485753730e+00 0.0 
4.049590781957e+01 -1.932812501995e+01 0.0 
1.996211678340e+01 -1.506329754720e+00 0.0 
4.250588298353e+01 -1.067383247529e+01 0.0 
5.831497011152e+00 -1.635396227234e+00 0.0 
5.317606125670e+00 -1.923927974868e+01 0.0 
4.208546426993e+01 -1.842830665025e+01 0.0 
2.327553405011e+00 -9.459409929662e+00 0.0 
3.568351902251e+01 -1.096637218582e+01 0.0 
1.682104374890e+00 -6.231413350963e+00 0.0 
2.451812238018e+01 -1.766524914339e+01 0.0 
1.058003429638e+01 -2.391839617098e+00 0.0 
4.399988753123e+01 -1.851998776342e+01 0.0 
1.400000000010e+01 -1.852293523028e+01 0.0 
3.604719565984e+01 -1.850662876800e+01 0.0 
1.951297136734e+01 -1.938092349694e+01 0.0 
1.821365318472e+01 -1.531276353287e+00 0.0 
2.298031859732e+01 -1.854635324722e+01 0.0 
1.552168066204e+01 -1.764280741977e+01 0.0 
4.572957713638e+01 -1.073347898229e+01 0.0 
3.429637429624e+01 -1.838861552790e+01 0.0 
2.427434426052e+00 -7.705577451869e+00 0.0 
4.662792031485e+00 -3.359424455416e+00 0.0 
4.926794919243e+01 -1.926794919243e+01 0.0 
7.320508075690e-01 -7.320508075688e-01 0.0 
4.926794919243e+01 -1.073205080757e+01 0.0 
7.320508075705e-01 -1.926794919243e+01 0.0 
2.917460242467e+00 -3.202866455310e+00 0.0 
4.838200575963e+01 -1.232674147454e+01 0.0 
2.998445708009e+01 -1.854403752148e+01 0.0 
5.949940090766e-01 -1.152762038165e+01 0.0 
4.844763495759e+01 -1.678092548787e+01 0.0 
1.301685480160e+01 -3.170056592566e+00 0.0 
1.650046335855e+01 -6.731535384067e-01 0.0 
4.854881540991e+01 -1.405224059779e+01 0.0 
2.119545114693e+01 -1.846813384545e+01 0.0 
3.797852849897e+01 -1.857978513215e+01 0.0 
4.649823708745e+01 -1.338351810816e+01 0.0 
2.012685900976e+01 -2.889659035009e+00 0.0 
2.953271913273e+01 -1.791558075192e+01 0.0 
2.408509097292e+00 -1.021949208421e+01 0.0 
2.642589566221e+01 -1.773216561448e+01 0.0 
1.730010270775e+01 -1.763165076721e+01 0.0 
2.017406551304e+01 -8.513536440582e-01 0.0 
5.254761581934e-01 -1.249999999999e+01 0.0 
6.640448215642e+00 -1.545337834885e+00 0.0 
7.843361506349e+00 -1.852719839527e+01 0.0 
1.588442191088e+00 -1.066158564320e+01 0.0 

CELLS 1919 7676 
3 179 649 925 
3 649 179 927 
3 659 152 670 
3 772 537 961 
3 539 599 765 
3 629 542 668 
3 159 581 583 
3 179 606 927 
3 581 159 599 
3 532 767 961 
3 151 726 727 
3 606 179 941 
3 771 923 967 
3 588 719 809 
3 923 185 967 
3 178 772 961 
3 587 158 728 
3 542 629 667 
3 166 586 908 
3 586 166 846 
3 767 532 920 
3 897 143 903 
3 624 897 903 
3 574 573 783 
3 273 429 718 
3 726 151 835 
3 105 82 988 
3 618 144 860 
3 271 273 718 
3 783 573 993 
3 523 733 735 
3 176 589 766 
3 659 670 968 
3 19 164 639 
3 174 593 595 
3 602 66 959 
3 66 602 985 
3 621 170 665 
3 585 96 938 
3 96 585 999 
3 861 603 887 
3 139 625 764 
3 942 140 946 
3 82 188 988 
3 580 187 937 
3 619 942 946 
3 733 523 736 
3 187 580 963 
3 729 730 736 
3 719 588 960 
3 181 624 861 
3 571 586 846 
3 349 962 980 
3 181 861 887 
3 671 153 851 
3 944 516 989 
3 571 846 915 
3 164 609 639 
3 432 760 878 
3 767 178 961 
3 138 972 1013 
3 952 578 954 
3 398 426 632 
3 962 735 980 
3 743 562 967 
3 624 181 897 
3 972 582 1013 
3 152 659 932 
3 459 420 741 
3 148 607 673 
3 835 778 889 
3 33 32 627 
3 618 860 990 
3 4 5 753 
3 750 944 989 
3 590 155 841 
3 671 851 1000 
3 638 943 950 
3 760 432 1002 
3 943 180 950 
3 420 433 741 
3 158 587 948 
3 143 649 903 
3 649 143 925 
3 599 539 811 
3 581 599 811 
3 610 835 940 
3 18 19 639 
3 664 661 909 
3 539 765 948 
3 766 589 939 
3 190 717 988 
3 763 934 958 
3 958 934 970 
3 156 33 627 
3 665 170 995 
3 587 728 960 
3 764 625 973 
3 184 616 913 
3 632 426 633 
3 765 599 983 
3 185 743 967 
3 346 912 936 
3 577 952 954 
3 467 465 643 
3 730 733 736 
3 770 771 893 
3 536 763 958 
3 138 729 736 
3 866 161 985 
3 311 664 909 
3 4 753 1004 
3 534 630 666 
3 501 817 855 
3 545 747 971 
3 605 632 633 
3 400 398 632 
3 174 595 953 
3 616 184 1008 
3 604 400 632 
3 635 565 910 
3 188 190 988 
3 763 536 1011 
3 400 604 643 
3 955 854 969 
3 620 870 879 
3 747 545 1001 
3 870 145 879 
3 155 590 981 
3 567 955 969 
3 726 835 889 
3 537 772 963 
3 474 531 631 
3 145 603 879 
3 593 174 973 
3 771 528 923 
3 610 778 835 
3 631 531 831 
3 575 703 993 
3 507 623 631 
3 557 768 769 
3 607 148 979 
3 809 719 956 
3 416 388 637 
3 623 474 631 
3 603 145 887 
3 531 669 831 
3 643 469 838 
3 159 583 938 
3 630 265 666 
3 589 176 977 
3 924 930 1008 
3 754 166 908 
3 182 620 855 
3 703 575 712 
3 604 467 643 
3 639 610 940 
3 606 140 942 
3 912 572 936 
3 165 611 612 
3 626 265 630 
3 609 164 893 
3 459 635 910 
3 771 530 893 
3 646 519 674 
3 161 866 975 
3 924 529 930 
3 465 469 643 
3 817 182 855 
3 151 727 1024 
3 140 606 941 
3 265 626 640 
3 388 439 637 
3 611 165 999 
3 469 630 838 
3 620 182 870 
3 513 702 907 
3 747 448 971 
3 144 618 933 
3 673 607 957 
3 605 633 927 
3 448 747 987 
3 690 820 874 
3 623 507 861 
3 606 605 927 
3 646 501 855 
3 630 534 838 
3 154 767 920 
3 277 686 896 
3 164 770 893 
3 619 180 943 
3 475 640 864 
3 661 686 909 
3 81 106 628 
3 507 603 861 
3 863 535 867 
3 759 891 984 
3 774 167 1000 
3 272 197 679 
3 894 253 921 
3 383 863 867 
3 717 190 966 
3 718 429 956 
3 573 575 993 
3 904 795 931 
3 641 212 669 
3 471 361 674 
3 278 272 679 
3 468 646 674 
3 519 646 855 
3 417 877 917 
3 702 551 907 
3 628 162 629 
3 633 649 927 
3 633 426 648 
3 531 641 669 
3 686 656 896 
3 542 541 847 
3 535 634 853 
3 585 611 999 
3 640 626 864 
3 331 853 902 
3 591 801 1025 
3 677 278 679 
3 801 147 1025 
3 759 760 891 
3 180 619 946 
3 904 547 905 
3 651 278 677 
3 547 546 905 
3 527 636 642 
3 353 734 806 
3 565 742 910 
3 820 383 874 
3 519 471 674 
3 562 743 975 
3 106 162 628 
3 436 466 642 
3 226 265 640 
3 624 623 861 
3 634 535 863 
3 602 866 985 
3 888 277 896 
3 335 317 672 
3 383 867 874 
3 835 151 940 
3 669 279 831 
3 678 679 875 
3 578 952 997 
3 226 640 647 
3 466 527 642 
3 196 468 644 
3 627 32 981 
3 212 641 816 
3 685 228 824 
3 612 611 613 
3 741 433 945 
3 468 645 646 
3 435 335 672 
3 541 675 776 
3 523 735 962 
3 278 651 813 
3 361 644 674 
3 400 643 838 
3 651 490 813 
3 686 277 909 
3 279 650 792 
3 146 600 959 
3 476 685 824 
3 204 470 650 
3 534 666 797 
3 476 684 685 
3 318 334 675 
3 716 157 717 
3 230 227 647 
3 347 698 699 
3 678 888 896 
3 106 107 162 
3 468 194 645 
3 317 315 672 
3 391 436 642 
3 320 318 675 
3 199 196 644 
3 589 635 939 
3 427 517 648 
3 476 683 684 
3 644 468 674 
3 716 717 718 
3 437 542 667 
3 347 699 701 
3 348 351 698 
3 633 648 649 
3 678 875 888 
3 426 427 648 
3 313 230 647 
3 640 475 647 
3 437 541 542 
3 666 222 797 
3 566 636 638 
3 37 153 671 
3 39 167 670 
3 213 212 816 
3 334 317 335 
3 390 391 449 
3 205 204 650 
3 334 335 390 
3 347 348 698 
3 279 792 831 
3 768 557 986 
3 672 475 864 
3 877 533 917 
3 566 449 636 
3 171 57 691 
3 390 335 391 
3 210 279 669 
3 437 341 541 
3 713 406 821 
3 227 226 647 
3 351 695 698 
3 470 361 471 
3 42 692 693 
3 315 313 475 
3 476 304 683 
3 450 449 566 
3 681 366 804 
3 853 634 902 
3 466 467 525 
3 540 681 804 
3 169 45 673 
3 443 535 853 
3 41 152 692 
3 809 429 839 
3 664 311 929 
3 527 525 619 
3 472 471 504 
3 204 361 470 
3 204 202 361 
3 280 816 842 
3 144 47 676 
3 271 718 966 
3 645 501 646 
3 475 313 647 
3 546 742 905 
3 504 519 620 
3 466 465 467 
3 165 612 865 
3 351 694 695 
3 315 475 672 
3 655 677 678 
3 436 465 466 
3 470 471 472 
3 304 306 683 
3 479 706 793 
3 50 168 682 
3 507 505 603 
3 319 321 701 
3 560 894 921 
3 526 605 606 
3 525 467 526 
3 661 658 686 
3 210 208 279 
3 517 623 624 
3 472 504 505 
3 54 170 687 
3 170 621 947 
3 658 656 686 
3 678 677 679 
3 706 246 793 
3 398 399 426 
3 318 317 334 
3 316 315 317 
3 212 210 669 
3 493 713 821 
3 261 707 708 
3 654 652 655 
3 321 347 701 
3 395 280 396 
3 650 470 792 
3 397 396 398 
3 152 40 670 
3 167 38 671 
3 167 774 968 
3 479 705 706 
3 490 392 813 
3 466 525 527 
3 314 313 315 
3 541 341 675 
3 427 474 517 
3 715 716 719 
3 681 809 839 
3 691 689 783 
3 662 661 664 
3 196 194 468 
3 203 202 204 
3 341 320 675 
3 738 740 741 
3 265 224 666 
3 218 216 280 
3 224 222 666 
3 135 854 955 
3 612 613 614 
3 742 546 910 
3 391 435 436 
3 57 56 691 
3 325 327 417 
3 189 501 645 
3 166 754 976 
3 816 641 842 
3 226 224 265 
3 202 199 644 
3 148 43 693 
3 504 471 519 
3 208 205 650 
3 261 708 714 
3 652 651 677 
3 479 704 705 
3 44 148 673 
3 41 40 152 
3 37 36 153 
3 39 38 167 
3 201 199 202 
3 655 652 677 
3 660 658 661 
3 398 396 399 
3 426 399 427 
3 710 707 794 
3 654 655 656 
3 46 169 676 
3 569 490 651 
3 683 417 684 
3 569 651 652 
3 410 408 711 
3 218 280 395 
3 517 474 623 
3 390 449 450 
3 156 627 951 
3 397 398 400 
3 791 510 860 
3 707 261 794 
3 352 355 694 
3 171 691 783 
3 436 464 465 
3 42 41 692 
3 167 671 1000 
3 209 208 210 
3 738 739 740 
3 44 43 148 
3 136 687 688 
3 351 352 694 
3 306 325 683 
3 142 51 682 
3 114 137 739 
3 395 396 397 
3 207 205 208 
3 211 210 212 
3 279 208 650 
3 449 391 642 
3 46 45 169 
3 312 230 313 
3 438 437 667 
3 600 146 1026 
3 739 137 740 
3 506 505 507 
3 733 734 735 
3 620 519 855 
3 136 55 687 
3 48 47 144 
3 361 202 644 
3 730 732 733 
3 579 438 667 
3 733 732 734 
3 823 521 836 
3 715 157 716 
3 191 189 645 
3 50 49 168 
3 173 715 719 
3 153 36 680 
3 413 410 711 
3 540 588 681 
3 526 604 605 
3 325 417 683 
3 541 776 847 
3 52 51 142 
3 40 39 670 
3 38 37 671 
3 479 287 704 
3 282 284 710 
3 218 395 797 
3 287 289 704 
3 54 53 170 
3 391 335 435 
3 698 697 699 
3 695 696 697 
3 430 540 804 
3 58 171 703 
3 730 731 732 
3 56 55 136 
3 694 559 695 
3 43 42 693 
3 660 661 662 
3 113 114 739 
3 395 534 797 
3 489 392 490 
3 45 44 673 
3 201 202 203 
3 456 413 457 
3 450 566 567 
3 689 688 690 
3 451 558 559 
3 695 559 696 
3 729 172 730 
3 47 46 676 
3 675 334 776 
3 443 491 535 
3 540 587 588 
3 777 509 796 
3 695 697 698 
3 203 204 205 
3 51 50 682 
3 284 386 710 
3 295 331 401 
3 215 213 216 
3 554 447 555 
3 699 697 700 
3 704 401 705 
3 216 213 816 
3 552 409 826 
3 325 326 327 
3 217 216 218 
3 254 256 714 
3 436 435 464 
3 282 710 794 
3 457 413 711 
3 281 304 476 
3 56 136 691 
3 568 490 569 
3 452 777 796 
3 55 54 687 
3 136 688 689 
3 223 222 224 
3 730 172 731 
3 59 703 712 
3 653 652 654 
3 355 451 694 
3 58 57 171 
3 289 295 704 
3 427 473 474 
3 194 191 645 
3 281 476 824 
3 285 479 793 
3 447 406 713 
3 679 197 875 
3 506 631 831 
3 327 345 346 
3 614 613 615 
3 256 261 714 
3 306 308 325 
3 451 508 558 
3 478 300 779 
3 112 113 737 
3 465 464 469 
3 451 559 694 
3 707 549 708 
3 221 219 222 
3 295 401 704 
3 430 538 540 
3 355 418 451 
3 59 58 703 
3 207 208 209 
3 477 548 549 
3 209 210 211 
3 477 549 707 
3 737 113 739 
3 193 191 194 
3 746 745 747 
3 147 119 761 
3 386 441 477 
3 295 330 331 
3 775 445 800 
3 555 713 857 
3 555 447 713 
3 189 149 501 
3 173 103 715 
3 570 680 873 
3 211 212 213 
3 119 120 761 
3 565 485 742 
3 731 737 738 
3 547 904 931 
3 463 513 907 
3 543 775 800 
3 340 823 836 
3 264 262 773 
3 302 300 478 
3 443 454 491 
3 360 341 437 
3 177 745 746 
3 150 749 750 
3 139 60 712 
3 60 59 712 
3 745 744 748 
3 477 441 548 
3 285 287 479 
3 491 573 574 
3 485 404 742 
3 338 423 443 
3 759 757 760 
3 386 477 710 
3 708 549 709 
3 163 756 757 
3 177 744 745 
3 489 490 568 
3 120 121 758 
3 104 157 715 
3 104 105 157 
3 406 310 821 
3 150 10 749 
3 451 418 508 
3 636 449 642 
3 596 594 597 
3 676 169 791 
3 480 374 807 
3 526 467 604 
3 589 565 635 
3 472 505 506 
3 100 158 765 
3 99 100 765 
3 120 758 761 
3 758 757 759 
3 752 754 755 
3 328 269 403 
3 163 751 756 
3 744 141 748 
3 138 110 729 
3 269 264 773 
3 617 615 637 
3 102 103 173 
3 513 608 702 
3 289 294 295 
3 614 615 616 
3 10 11 749 
3 752 755 756 
3 30 29 768 
3 155 30 768 
3 540 538 587 
3 158 101 728 
3 749 746 750 
3 28 154 769 
3 403 269 773 
3 103 104 715 
3 102 173 728 
3 504 620 879 
3 36 35 680 
3 768 29 769 
3 163 757 758 
3 121 163 758 
3 564 485 565 
3 708 709 845 
3 770 528 771 
3 109 110 138 
3 175 762 763 
3 111 172 729 
3 446 406 447 
3 111 112 172 
3 110 111 729 
3 553 447 554 
3 499 562 563 
3 616 615 617 
3 792 506 831 
3 751 752 756 
3 301 302 781 
3 25 24 772 
3 178 25 772 
3 101 102 728 
3 382 310 406 
3 29 28 769 
3 456 457 572 
3 752 753 754 
3 751 186 752 
3 752 186 753 
3 11 12 177 
3 185 69 743 
3 80 79 187 
3 123 186 751 
3 13 141 744 
3 70 69 185 
3 68 161 743 
3 61 139 764 
3 76 160 762 
3 78 77 175 
3 69 68 743 
3 68 67 161 
3 175 77 762 
3 123 124 186 
3 97 98 159 
3 100 101 158 
3 163 122 751 
3 65 64 146 
3 174 62 764 
3 63 62 174 
3 122 123 751 
3 121 122 163 
3 61 60 139 
3 62 61 764 
3 76 75 160 
3 94 95 165 
3 77 76 762 
3 74 73 184 
3 92 93 529 
3 118 119 147 
3 116 117 176 
3 115 116 766 
3 114 115 137 
3 13 14 141 
3 12 13 744 
3 116 176 766 
3 16 17 151 
3 137 115 766 
3 34 33 156 
3 28 27 154 
3 31 30 155 
3 6 7 166 
3 9 10 150 
3 27 26 767 
3 19 20 164 
3 26 25 178 
3 20 21 770 
3 21 22 528 
3 177 12 744 
3 154 27 767 
3 26 178 767 
3 164 20 770 
3 21 528 770 
3 393 394 778 
3 172 112 737 
3 284 385 386 
3 758 759 761 
3 596 597 598 
3 477 707 710 
3 359 343 780 
3 328 403 404 
3 891 592 984 
3 499 563 780 
3 386 387 441 
3 177 746 749 
3 343 405 780 
3 536 537 580 
3 11 177 749 
3 331 330 338 
3 293 291 344 
3 393 342 394 
3 461 393 778 
3 312 313 314 
3 506 507 631 
3 222 219 797 
3 301 300 302 
3 405 498 499 
3 609 461 610 
3 452 546 547 
3 524 445 532 
3 440 389 445 
3 585 584 611 
3 299 297 300 
3 342 301 781 
3 536 524 537 
3 440 524 536 
3 344 291 803 
3 499 530 562 
3 402 374 480 
3 609 610 639 
3 600 598 601 
3 532 445 775 
3 379 377 380 
3 295 294 330 
3 339 421 422 
3 358 444 452 
3 564 565 589 
3 731 172 737 
3 440 445 524 
3 499 498 530 
3 738 737 739 
3 657 656 658 
3 583 483 584 
3 329 343 359 
3 405 461 498 
3 508 509 560 
3 498 461 609 
3 583 584 585 
3 325 308 326 
3 600 601 602 
3 571 453 586 
3 595 594 596 
3 388 380 389 
3 422 453 516 
3 452 547 777 
3 724 722 725 
3 376 378 482 
3 263 267 282 
3 439 389 440 
3 379 388 416 
3 548 441 720 
3 610 461 778 
3 405 393 461 
3 388 389 439 
3 381 333 419 
3 441 387 442 
3 414 500 576 
3 380 787 800 
3 386 385 387 
3 293 344 779 
3 593 521 594 
3 379 380 388 
3 522 438 579 
3 496 591 592 
3 322 320 341 
3 405 499 780 
3 378 377 379 
3 726 724 727 
3 482 483 581 
3 443 423 454 
3 720 442 721 
3 343 393 405 
3 422 421 453 
3 596 598 600 
3 441 442 720 
3 516 453 571 
3 442 387 789 
3 282 283 284 
3 268 264 269 
3 723 724 726 
3 118 147 801 
3 176 117 801 
3 394 342 781 
3 339 381 421 
3 299 300 301 
3 300 297 779 
3 256 260 261 
3 355 356 418 
3 402 480 481 
3 668 542 1018 
3 284 384 385 
3 491 454 573 
3 421 381 432 
3 482 378 483 
3 581 483 583 
3 484 404 485 
3 520 487 521 
3 373 371 374 
3 339 333 381 
3 556 480 825 
3 481 480 556 
3 276 333 339 
3 605 604 632 
3 270 269 328 
3 343 342 393 
3 721 722 723 
3 569 652 653 
3 402 481 543 
3 329 301 342 
3 299 301 329 
3 328 404 484 
3 329 342 343 
3 373 374 375 
3 723 722 724 
3 376 377 378 
3 375 374 402 
3 228 229 824 
3 787 543 800 
3 387 448 789 
3 721 442 722 
3 384 283 544 
3 258 255 259 
3 376 375 377 
3 250 252 285 
3 268 270 276 
3 496 485 564 
3 373 375 376 
3 268 269 270 
3 593 594 595 
3 380 377 787 
3 329 359 782 
3 136 689 691 
3 387 385 448 
3 276 270 333 
3 484 485 496 
3 298 297 299 
3 379 416 786 
3 496 564 591 
3 282 267 283 
3 586 453 784 
3 376 482 785 
3 284 283 384 
3 297 293 779 
3 384 544 545 
3 445 389 800 
3 267 264 268 
3 292 296 340 
3 452 444 546 
3 296 293 297 
3 725 722 789 
3 298 299 782 
3 699 700 881 
3 453 421 784 
3 584 483 786 
3 446 447 553 
3 396 280 842 
3 378 379 786 
3 358 452 796 
3 370 372 430 
3 421 432 784 
3 597 594 823 
3 382 406 446 
3 327 326 345 
3 481 556 557 
3 285 286 287 
3 419 333 790 
3 290 288 291 
3 520 521 593 
3 508 418 509 
3 299 329 782 
3 377 375 787 
3 352 354 355 
3 292 291 293 
3 538 431 539 
3 422 516 822 
3 263 264 267 
3 215 216 217 
3 296 297 298 
3 427 399 473 
3 217 218 219 
3 372 371 373 
3 483 378 786 
3 430 431 538 
3 722 442 789 
3 460 362 487 
3 287 288 289 
3 482 581 811 
3 659 658 660 
3 346 345 414 
3 292 293 296 
3 375 402 787 
3 256 258 260 
3 260 262 263 
3 328 484 790 
3 289 290 294 
3 263 282 794 
3 372 373 785 
3 430 372 431 
3 232 234 281 
3 773 262 795 
3 314 315 316 
3 263 262 264 
3 260 258 262 
3 270 328 790 
3 338 362 423 
3 251 249 253 
3 402 543 787 
3 247 249 250 
3 289 288 290 
3 285 252 286 
3 221 222 223 
3 333 270 790 
3 460 487 520 
3 460 520 625 
3 407 409 552 
3 256 255 258 
3 287 286 288 
3 373 376 785 
3 261 260 794 
3 395 397 534 
3 267 268 788 
3 418 356 796 
3 254 255 256 
3 268 276 788 
3 339 422 814 
3 286 252 486 
3 290 291 292 
3 425 462 463 
3 117 118 801 
3 243 241 244 
3 247 245 248 
3 254 253 255 
3 431 372 785 
3 250 251 252 
3 283 267 788 
3 251 253 254 
3 389 380 800 
3 544 283 788 
3 496 592 810 
3 790 484 810 
3 509 418 796 
3 258 259 795 
3 243 245 246 
3 250 249 251 
3 358 420 444 
3 419 790 810 
3 681 588 809 
3 788 276 814 
3 338 330 362 
3 411 424 425 
3 195 194 196 
3 434 368 455 
3 463 512 513 
3 229 232 824 
3 409 411 826 
3 356 357 358 
3 254 714 798 
3 225 224 226 
3 348 350 351 
3 420 357 433 
3 260 263 794 
3 247 248 249 
3 246 245 247 
3 544 788 814 
3 250 285 793 
3 243 244 245 
3 239 241 242 
3 262 258 795 
3 309 307 310 
3 370 371 372 
3 239 237 240 
3 423 362 460 
3 355 354 356 
3 573 454 575 
3 246 247 793 
3 513 607 608 
3 206 205 207 
3 356 358 796 
3 198 196 199 
3 488 392 489 
3 246 706 829 
3 469 626 630 
3 200 199 201 
3 280 216 816 
3 358 357 420 
3 590 561 627 
3 444 420 459 
3 621 515 622 
3 775 543 818 
3 332 310 382 
3 785 482 811 
3 369 368 434 
3 242 241 243 
3 281 303 304 
3 518 455 561 
3 292 340 799 
3 367 369 370 
3 446 553 634 
3 356 354 357 
3 367 365 368 
3 676 791 860 
3 460 625 812 
3 251 254 798 
3 431 785 811 
3 539 431 811 
3 247 250 793 
3 294 290 799 
3 330 294 802 
3 484 496 810 
3 316 317 318 
3 235 237 238 
3 239 240 241 
3 219 218 797 
3 518 561 590 
3 654 656 657 
3 543 481 818 
3 474 473 531 
3 364 336 392 
3 290 292 799 
3 556 825 841 
3 337 365 366 
3 252 251 798 
3 235 233 236 
3 367 368 369 
3 434 455 518 
3 374 371 807 
3 370 369 371 
3 521 487 836 
3 514 428 515 
3 487 362 802 
3 291 288 803 
3 603 505 879 
3 309 332 363 
3 274 272 278 
3 276 339 814 
3 238 237 239 
3 555 857 869 
3 304 305 306 
3 321 323 347 
3 235 236 237 
3 306 307 308 
3 472 506 792 
3 486 252 798 
3 366 681 839 
3 599 159 983 
3 84 126 135 
3 288 286 803 
3 332 382 383 
3 653 654 774 
3 281 234 303 
3 286 486 803 
3 370 430 804 
3 85 127 180 
3 309 310 332 
3 305 303 493 
3 470 472 792 
3 294 799 802 
3 351 350 352 
3 362 330 802 
3 454 423 812 
3 308 307 309 
3 371 369 807 
3 415 413 456 
3 423 460 812 
3 86 128 140 
3 366 367 804 
3 576 500 577 
3 369 434 807 
3 306 305 307 
3 234 233 235 
3 876 548 880 
3 360 437 438 
3 480 807 825 
3 814 422 822 
3 87 129 179 
3 412 410 413 
3 481 557 818 
3 352 353 354 
3 214 213 215 
3 366 365 367 
3 845 709 850 
3 347 323 348 
3 469 464 626 
3 433 357 806 
3 352 350 353 
3 354 353 806 
3 304 303 305 
3 680 35 873 
3 88 130 143 
3 594 521 823 
3 231 230 312 
3 275 337 839 
3 322 341 360 
3 575 454 812 
3 357 354 806 
3 545 544 822 
3 326 308 805 
3 243 246 829 
3 414 428 500 
3 397 400 838 
3 274 278 813 
3 514 515 621 
3 367 370 804 
3 654 657 774 
3 365 364 828 
3 364 392 488 
3 334 390 776 
3 597 823 843 
3 337 364 365 
3 228 685 849 
3 89 131 181 
3 514 621 665 
3 319 318 320 
3 544 814 822 
3 414 345 428 
3 166 7 846 
3 220 219 221 
3 309 363 805 
3 488 489 808 
3 489 568 570 
3 308 309 805 
3 455 368 828 
3 229 227 230 
3 411 425 826 
3 90 132 145 
3 660 662 663 
3 91 133 182 
3 134 91 817 
3 232 281 824 
3 82 134 149 
3 502 257 503 
3 223 224 225 
3 235 238 815 
3 348 323 349 
3 232 233 234 
3 434 518 825 
3 657 658 659 
3 340 296 843 
3 500 428 514 
3 242 243 829 
3 364 488 828 
3 234 235 815 
3 598 597 852 
3 368 365 828 
3 392 336 813 
3 310 307 821 
3 229 231 232 
3 425 424 462 
3 203 205 206 
3 348 349 350 
3 319 320 321 
3 534 397 838 
3 211 213 214 
3 601 598 856 
3 337 336 364 
3 232 231 233 
3 407 552 832 
3 363 332 820 
3 807 434 825 
3 463 462 512 
3 429 275 839 
3 535 491 867 
3 303 234 815 
3 332 383 820 
3 217 219 220 
3 561 455 844 
3 513 512 607 
3 305 493 821 
3 321 320 322 
3 415 456 458 
3 220 257 495 
3 229 230 231 
3 307 305 821 
3 338 443 853 
3 321 322 323 
3 493 303 815 
3 198 199 200 
3 601 856 862 
3 200 201 311 
3 412 413 415 
3 195 196 198 
3 192 191 193 
3 206 207 266 
3 515 428 830 
3 823 340 843 
3 275 336 337 
3 489 570 808 
3 193 194 195 
3 312 314 492 
3 415 458 511 
3 825 518 841 
3 221 223 819 
3 220 221 257 
3 231 312 827 
3 336 274 813 
3 473 399 842 
3 502 503 533 
3 399 396 842 
3 345 326 830 
3 511 578 618 
3 236 233 827 
3 360 438 494 
3 568 569 851 
3 531 473 641 
3 869 242 882 
3 511 458 578 
3 275 274 336 
3 799 340 836 
3 225 226 227 
3 494 438 522 
3 862 563 866 
3 214 215 324 
3 327 346 877 
3 462 424 510 
3 522 579 582 
3 802 799 836 
3 435 672 864 
3 273 275 429 
3 344 850 871 
3 233 231 827 
3 598 852 856 
3 495 257 502 
3 312 492 827 
3 214 324 407 
3 494 522 523 
3 409 410 411 
3 326 805 830 
3 608 607 979 
3 411 412 424 
3 319 701 848 
3 296 298 843 
3 518 590 841 
3 665 142 883 
3 428 345 830 
3 228 227 229 
3 407 408 409 
3 780 563 862 
3 724 725 859 
3 411 410 412 
3 337 366 839 
3 597 843 852 
3 487 802 836 
3 94 165 865 
3 529 93 865 
3 198 200 277 
3 409 408 410 
3 478 779 871 
3 206 266 497 
3 503 257 819 
3 690 874 998 
3 225 227 228 
3 34 156 873 
3 190 189 191 
3 257 221 819 
3 344 803 850 
3 316 318 319 
3 486 798 845 
3 407 324 408 
3 209 211 832 
3 273 274 275 
3 497 266 550 
3 497 550 551 
3 755 754 908 
3 798 714 845 
3 641 473 842 
3 201 203 833 
3 311 201 833 
3 622 515 858 
3 7 8 846 
3 349 323 837 
3 215 217 834 
3 714 708 845 
3 91 182 817 
3 149 134 817 
3 273 272 274 
3 390 450 776 
3 850 709 871 
3 383 382 863 
3 323 322 837 
3 144 676 860 
3 828 488 844 
3 549 548 876 
3 843 298 852 
3 760 757 878 
3 446 634 863 
3 324 215 834 
3 756 755 878 
3 455 828 844 
3 322 360 837 
3 203 206 833 
3 211 214 832 
3 239 242 869 
3 705 401 898 
3 488 808 844 
3 401 331 902 
3 220 495 834 
3 217 220 834 
3 126 83 854 
3 360 494 837 
3 412 415 840 
3 192 193 197 
3 415 511 840 
3 464 435 864 
3 656 655 896 
3 510 424 840 
3 501 149 817 
3 424 412 840 
3 298 782 852 
3 711 408 868 
3 486 845 850 
3 803 486 850 
3 569 653 851 
3 706 705 895 
3 214 407 832 
3 685 684 901 
3 331 338 853 
3 819 223 849 
3 848 701 881 
3 713 493 857 
3 492 314 848 
3 206 497 833 
3 492 848 881 
3 266 207 872 
3 515 830 858 
3 830 805 858 
3 223 225 849 
3 271 272 273 
3 852 782 856 
3 782 359 856 
3 450 567 847 
3 266 872 890 
3 601 862 866 
3 517 624 903 
3 478 876 880 
3 135 126 854 
3 856 359 862 
3 316 319 848 
3 727 724 859 
3 877 346 936 
3 271 197 272 
3 192 197 271 
3 324 834 868 
3 90 145 870 
3 182 133 870 
3 359 780 862 
3 898 401 902 
3 555 869 882 
3 382 446 863 
3 815 238 857 
3 314 316 848 
3 133 90 870 
3 190 191 192 
3 93 94 865 
3 805 363 858 
3 225 228 849 
3 514 665 883 
3 498 609 893 
3 493 815 857 
3 602 601 866 
3 881 700 885 
3 577 500 883 
3 834 495 868 
3 457 711 892 
3 491 574 867 
3 255 253 894 
3 832 552 872 
3 857 238 869 
3 209 832 872 
3 626 464 864 
3 572 457 900 
3 238 239 869 
3 779 344 871 
3 207 209 872 
3 969 183 982 
3 684 417 917 
3 638 135 955 
3 419 810 891 
3 478 871 876 
3 425 463 899 
3 197 193 875 
3 89 181 887 
3 35 34 873 
3 83 125 183 
3 145 132 887 
3 554 555 882 
3 548 720 880 
3 505 504 879 
3 911 696 914 
3 895 705 898 
3 408 324 868 
3 417 327 877 
3 662 964 974 
3 776 450 847 
3 709 549 876 
3 880 720 884 
3 773 795 904 
3 188 149 189 
3 193 195 875 
3 18 639 940 
3 757 756 878 
3 582 579 926 
3 742 404 905 
3 720 721 884 
3 236 885 906 
3 697 696 911 
3 701 699 881 
3 302 478 880 
3 198 277 888 
3 884 721 886 
3 236 827 885 
3 872 552 890 
3 588 587 960 
3 346 414 912 
3 721 723 886 
3 302 880 884 
3 88 143 897 
3 240 237 906 
3 886 723 889 
3 160 75 913 
3 74 184 913 
3 181 131 897 
3 781 302 884 
3 559 558 916 
3 638 636 943 
3 500 514 883 
3 546 444 910 
3 916 558 918 
3 901 684 917 
3 132 89 887 
3 723 726 889 
3 9 150 915 
3 188 189 190 
3 781 884 886 
3 242 829 882 
3 871 709 876 
3 629 668 982 
3 937 175 1011 
3 244 241 914 
3 820 690 935 
3 457 892 900 
3 394 781 886 
3 394 886 889 
3 885 700 906 
3 459 741 991 
3 668 969 982 
3 778 394 889 
3 867 574 874 
3 508 560 919 
3 552 826 890 
3 649 648 903 
3 550 266 890 
3 625 139 978 
3 107 108 926 
3 24 23 922 
3 71 70 923 
3 73 72 924 
3 248 245 918 
3 711 868 892 
3 827 492 885 
3 810 592 891 
3 83 183 854 
3 775 818 920 
3 195 198 888 
3 82 149 188 
3 48 144 933 
3 846 8 915 
3 168 49 933 
3 875 195 888 
3 253 249 921 
3 868 495 892 
3 248 918 919 
3 527 619 943 
3 919 560 921 
3 277 200 909 
3 530 498 893 
3 244 914 916 
3 550 890 899 
3 926 108 1013 
3 240 906 911 
3 655 678 896 
3 259 255 894 
3 560 509 928 
3 495 502 892 
3 734 353 980 
3 87 179 925 
3 143 130 925 
3 259 928 931 
3 554 882 895 
3 819 849 901 
3 890 826 899 
3 659 660 932 
3 131 88 897 
3 762 160 934 
3 607 512 957 
3 492 881 885 
3 135 638 950 
3 648 517 903 
3 829 706 895 
3 497 551 929 
3 882 829 895 
3 542 847 1018 
3 553 554 898 
3 619 525 942 
3 849 685 901 
3 554 895 898 
3 892 502 900 
3 416 637 1017 
3 795 259 931 
3 566 638 955 
3 553 898 902 
3 526 606 942 
3 926 579 996 
3 187 79 937 
3 78 175 937 
3 740 137 939 
3 634 553 902 
3 403 904 905 
3 403 773 904 
3 899 463 907 
3 502 533 900 
3 826 425 899 
3 240 911 914 
3 96 97 938 
3 174 764 973 
3 404 403 905 
3 363 820 935 
3 503 819 901 
3 586 784 908 
3 311 833 929 
3 237 236 906 
3 738 741 945 
3 700 697 911 
3 17 18 940 
3 200 311 909 
3 444 459 910 
3 727 859 1010 
3 551 550 907 
3 414 576 912 
3 894 560 928 
3 915 150 989 
3 503 901 917 
3 75 74 913 
3 732 731 945 
3 791 169 957 
3 670 167 968 
3 184 924 1008 
3 627 561 951 
3 692 152 932 
3 241 240 914 
3 244 916 918 
3 688 687 947 
3 162 107 926 
3 8 9 915 
3 727 1010 1024 
3 259 894 928 
3 696 559 916 
3 86 140 941 
3 179 129 941 
3 587 538 948 
3 906 700 911 
3 822 516 944 
3 456 572 949 
3 146 64 953 
3 63 174 953 
3 245 244 918 
3 173 719 960 
3 582 926 1013 
3 85 180 946 
3 735 734 980 
3 140 128 946 
3 533 503 917 
3 558 508 919 
3 914 696 916 
3 736 523 972 
3 580 937 1011 
3 918 558 919 
3 532 775 920 
3 440 536 958 
3 772 24 922 
3 70 185 923 
3 184 73 924 
3 248 919 921 
3 130 87 925 
3 249 248 921 
3 66 65 959 
3 84 135 950 
3 180 127 950 
3 622 858 935 
3 765 158 948 
3 537 524 961 
3 550 899 907 
3 576 577 954 
3 662 664 964 
3 613 611 965 
3 928 777 931 
3 509 777 928 
3 934 160 1014 
3 949 576 954 
3 157 105 988 
3 529 865 930 
3 612 614 930 
3 611 584 965 
3 494 523 962 
3 777 547 931 
3 557 769 992 
3 786 416 965 
3 142 665 995 
3 660 663 932 
3 833 497 929 
3 844 808 951 
3 448 385 971 
3 384 545 971 
3 625 520 973 
3 138 736 972 
3 571 915 989 
3 49 48 933 
3 6 166 976 
3 865 612 930 
3 689 690 998 
3 564 589 977 
3 147 761 984 
3 31 155 981 
3 99 765 983 
3 841 155 986 
3 688 947 1022 
3 159 98 983 
3 162 926 996 
3 772 922 963 
3 419 891 1002 
3 557 556 986 
3 67 66 985 
3 657 659 968 
3 349 837 962 
3 719 716 956 
3 747 745 987 
3 572 912 949 
3 52 142 995 
3 763 762 934 
3 170 53 995 
3 523 522 972 
3 600 602 959 
3 350 349 980 
3 755 908 1007 
3 171 783 993 
3 680 570 994 
3 590 627 981 
3 583 585 938 
3 190 192 966 
3 636 527 943 
3 692 932 1009 
3 750 746 1001 
3 567 969 1018 
3 912 576 949 
3 95 96 999 
3 570 568 994 
3 3 80 1003 
3 23 3 1003 
3 124 0 1004 
3 0 4 1004 
3 72 1 1005 
3 1 92 1005 
3 2 71 1006 
3 22 2 1006 
3 753 186 1004 
3 109 138 1013 
3 866 563 975 
3 511 618 990 
3 432 381 1002 
3 596 600 1026 
3 16 151 1024 
3 141 14 1010 
3 637 615 1017 
3 806 734 1012 
3 572 900 936 
3 891 760 1002 
3 789 448 1020 
3 932 663 1009 
3 79 78 937 
3 859 141 1010 
3 614 616 1008 
3 510 791 1021 
3 964 702 974 
3 929 551 964 
3 97 159 938 
3 533 877 936 
3 851 653 1000 
3 516 571 989 
3 137 766 939 
3 462 510 1021 
3 858 363 935 
3 734 732 1012 
3 617 934 1014 
3 743 161 975 
3 510 840 990 
3 860 510 990 
3 151 17 940 
3 628 629 982 
3 129 86 941 
3 525 526 942 
3 716 718 956 
3 900 533 936 
3 818 557 992 
3 687 170 947 
3 731 738 945 
3 740 939 991 
3 128 85 946 
3 637 439 970 
3 545 822 944 
3 808 570 1016 
3 908 784 1007 
3 621 622 947 
3 538 539 948 
3 682 168 952 
3 458 456 949 
3 718 717 966 
3 712 575 978 
3 570 873 1016 
3 922 187 963 
3 127 84 950 
3 561 844 951 
3 169 673 957 
3 947 622 1022 
3 458 949 954 
3 64 63 953 
3 664 929 964 
3 81 628 1023 
3 567 566 955 
3 663 662 974 
3 429 809 956 
3 530 771 967 
3 578 458 954 
3 146 953 1026 
3 439 440 958 
3 142 682 1015 
3 812 625 978 
3 575 812 978 
3 944 750 1001 
3 65 146 959 
3 728 173 960 
3 524 532 961 
3 741 740 991 
3 536 580 1011 
3 617 637 970 
3 753 5 976 
3 837 494 962 
3 551 702 964 
3 155 768 986 
3 580 537 963 
3 883 142 1015 
3 584 786 965 
3 176 801 977 
3 667 629 996 
3 801 591 977 
3 635 459 991 
3 125 81 1023 
3 448 987 1020 
3 562 530 967 
3 774 657 968 
3 192 271 966 
3 385 384 971 
3 520 593 973 
3 574 783 998 
3 952 168 997 
3 791 957 1021 
3 702 608 974 
3 939 635 991 
3 522 582 972 
3 563 562 975 
3 754 753 976 
3 5 6 976 
3 854 183 969 
3 591 564 977 
3 139 712 978 
3 148 693 979 
3 920 818 992 
3 168 933 997 
3 874 574 998 
3 965 416 1017 
3 32 31 981 
3 353 350 980 
3 98 99 983 
3 732 945 1012 
3 761 759 984 
3 161 67 985 
3 717 157 988 
3 878 755 1007 
3 745 748 987 
3 979 693 1009 
3 556 841 986 
3 153 680 994 
3 150 750 989 
3 579 667 996 
3 953 595 1026 
3 922 23 1003 
3 71 923 1006 
3 924 72 1005 
3 783 689 998 
3 432 878 1007 
3 951 808 1016 
3 147 984 1025 
3 703 171 993 
3 851 153 994 
3 629 162 996 
3 840 511 990 
3 439 958 970 
3 769 154 992 
3 53 52 995 
3 160 913 1014 
3 693 692 1009 
3 568 851 994 
3 934 617 970 
3 979 1009 1019 
3 746 747 1001 
3 165 95 999 
3 618 578 997 
3 80 187 1003 
3 186 124 1004 
3 92 529 1005 
3 528 22 1006 
3 381 419 1002 
3 690 688 1022 
3 653 774 1000 
3 154 920 992 
3 784 432 1007 
3 969 668 1018 
3 14 15 1010 
3 175 763 1011 
3 108 109 1013 
3 873 156 1016 
3 616 617 1014 
3 433 806 1012 
3 615 613 1017 
3 933 618 997 
3 1010 15 1024 
3 183 125 1023 
3 545 944 1001 
3 725 789 1020 
3 15 16 1024 
3 577 883 1015 
3 748 141 1027 
3 859 725 1027 
3 592 591 1025 
3 595 596 1026 
3 512 462 1021 
3 847 567 1018 
3 187 922 1003 
3 923 528 1006 
3 529 924 1005 
3 913 616 1014 
3 1020 748 1027 
3 725 1020 1027 
3 141 859 1027 
3 622 935 1022 
3 945 433 1012 
3 957 512 1021 
3 930 614 1008 
3 156 951 1016 
3 935 690 1022 
3 613 965 1017 
3 663 974 1019 
3 952 577 1015 
3 682 952 1015 
3 982 183 1023 
3 974 608 1019 
3 608 979 1019 
3 984 592 1025 
3 987 748 1020 
3 628 982 1023 
3 1009 663 1019 

CELL_TYPES 1919
5
5
5
5
5
5
5
5
5
5
5
5
5
5
5
5
5
5
5
5
5
5
5
5
5
5
5
5
5
5
5
5
5
5
5
5
5
5
5
5
5
5
5
5
5
5
5
5
5
5
5
5
5
5
5
5
5
5
5
5
5
5
5
5
5
5
5
5
5
5
5
5
5
5
5
5
5
5
5
5
5
5
5
5
5
5
5
5
5
5
5
5
5
5
5
5
5
5
5
5
5
5
5
5
5
5
5
5
5
5
5
5
5
5
5
5
5
5
5
5
5
5
5
5
5
5
5
5
5
5
5
5
5
5
5
5
5
5
5
5
5
5
5
5
5
5
5
5
5
5
5
5
5
5
5
5
5
5
5
5
5
5
5
5
5
5
5
5
5
5
5
5
5
5
5
5
5
5
5
5
5
5
5
5
5
5
5
5
5
5
5
5
5
5
5
5
5
5
5
5
5
5
5
5
5
5
5
5
5
5
5
5
5
5
5
5
5
5
5
5
5
5
5
5
5
5
5
5
5
5
5
5
5
5
5
5
5
5
5
5
5
5
5
5
5
5
5
5
5
5
5
5
5
5
5
5
5
5
5
5
5
5
5
5
5
5
5
5
5
5
5
5
5
5
5
5
5
5
5
5
5
5
5
5
5
5
5
5
5
5
5
5
5
5
5
5
5
5
5
5
5
5
5
5
5
5
5
5
5
5
5
5
5
5
5
5
5
5
5
5
5
5
5
5
5
5
5
5
5
5
5
5
5
5
5
5
5
5
5
5
5
5
5
5
5
5
5
5
5
5
5
5
5
5
5
5
5
5
5
5
5
5
5
5
5
5
5
5
5
5
5
5
5
5
5
5
5
5
5
5
5
5
5
5
5
5
5
5
5
5
5
5
5
5
5
5
5
5
5
5
5
5
5
5
5
5
5
5
5
5
5
5
5
5
5
5
5
5
5
5
5
5
5
5
5
5
5
5
5
5
5
5
5
5
5
5
5
5
5
5
5
5
5
5
5
5
5
5
5
5
5
5
5
5
5
5
5
5
5
5
5
5
5
5
5
5
5
5
5
5
5
5
5
5
5
5
5
5
5
5
5
5
5
5
5
5
5
5
5
5
5
5
5
5
5
5
5
5
5
5
5
5
5
5
5
5
5
5
5
5
5
5
5
5
5
5
5
5
5
5
5
5
5
5
5
5
5
5
5
5
5
5
5
5
5
5
5
5
5
5
5
5
5
5
5
5
5
5
5
5
5
5
5
5
5
5
5
5
5
5
5
5
5
5
5
5
5
5
5
5
5
5
5
5
5
5
5
5
5
5
5
5
5
5
5
5
5
5
5
5
5
5
5
5
5
5
5
5
5
5
5
5
5
5
5
5
5
5
5
5
5
5
5
5
5
5
5
5
5
5
5
5
5
5
5
5
5
5
5
5
5
5
5
5
5
5
5
5
5
5
5
5
5
5
5
5
5
5
5
5
5
5
5
5
5
5
5
5
5
5
5
5
5
5
5
5
5
5
5
5
5
5
5
5
5
5
5
5
5
5
5
5
5
5
5
5
5
5
5
5
5
5
5
5
5
5
5
5
5
5
5
5
5
5
5
5
5
5
5
5
5
5
5
5
5
5
5
5
5
5
5
5
5
5
5
5
5
5
5
5
5
5
5
5
5
5
5
5
5
5
5
5
5
5
5
5
5
5
5
5
5
5
5
5
5
5
5
5
5
5
5
5
5
5
5
5
5
5
5
5
5
5
5
5
5
5
5
5
5
5
5
5
5
5
5
5
5
5
5
5
5
5
5
5
5
5
5
5
5
5
5
5
5
5
5
5
5
5
5
5
5
5
5
5
5
5
5
5
5
5
5
5
5
5
5
5
5
5
5
5
5
5
5
5
5
5
5
5
5
5
5
5
5
5
5
5
5
5
5
5
5
5
5
5
5
5
5
5
5
5
5
5
5
5
5
5
5
5
5
5
5
5
5
5
5
5
5
5
5
5
5
5
5
5
5
5
5
5
5
5
5
5
5
5
5
5
5
5
5
5
5
5
5
5
5
5
5
5
5
5
5
5
5
5
5
5
5
5
5
5
5
5
5
5
5
5
5
5
5
5
5
5
5
5
5
5
5
5
5
5
5
5
5
5
5
5
5
5
5
5
5
5
5
5
5
5
5
5
5
5
5
5
5
5
5
5
5
5
5
5
5
5
5
5
5
5
5
5
5
5
5
5
5
5
5
5
5
5
5
5
5
5
5
5
5
5
5
5
5
5
5
5
5
5
5
5
5
5
5
5
5
5
5
5
5
5
5
5
5
5
5
5
5
5
5
5
5
5
5
5
5
5
5
5
5
5
5
5
5
5
5
5
5
5
5
5
5
5
5
5
5
5
5
5
5
5
5
5
5
5
5
5
5
5
5
5
5
5
5
5
5
5
5
5
5
5
5
5
5
5
5
5
5
5
5
5
5
5
5
5
5
5
5
5
5
5
5
5
5
5
5
5
5
5
5
5
5
5
5
5
5
5
5
5
5
5
5
5
5
5
5
5
5
5
5
5
5
5
5
5
5
5
5
5
5
5
5
5
5
5
5
5
5
5
5
5
5
5
5
5
5
5
5
5
5
5
5
5
5
5
5
5
5
5
5
5
5
5
5
5
5
5
5
5
5
5
5
5
5
5
5
5
5
5
5
5
5
5
5
5
5
5
5
5
5
5
5
5
5
5
5
5
5
5
5
5
5
5
5
5
5
5
5
5
5
5
5
5
5
5
5
5
5
5
5
5
5
5
5
5
5
5
5
5
5
5
5
5
5
5
5
5
5
5
5
5
5
5
5
5
5
5
5
5
5
5
5
5
5
5
5
5
5
5
5
5
5
5
5
5
5
5
5
5
5
5
5
5
5
5
5
5
5
5
5
5
5
5
5
5
5
5
5
5
5
5
5
5
5
5
5
5
5
5
5
5
5
5
5
5
5
5
5
5
5
5
5
5
5
5
5
5
5
5
5
5
5
5
5
5
5
5
5
5
5
5
5
5
5
5
5
5
5
5
5
5
5
5
5
5
5
5
5
5
5
5
5
5
5
5
5
5
5
5
5
5
5
5
5
5
5
5
5
5
5
5
5
5
5
5
5
5
5
5
5
5
5
5
5
5
5
5
5
5
5
5
5
5
5
5
5
5
5
5
5
5
5
5
5
5
5
5
5
5
5
5
5
5
5
5
5
5
5
5
5
5
5
5
5
5
5
5
5
5
5
5
5
5
5
5
5
5
5
5
5
5
5
5
5
5
5
5
5
5
5
5
5
5
5
5
5
5
5
5
5
5
5
5
5
5
5
5
5
5
5
5
5
5
5
5
5
5
5
5
5
5
5
5
5
5
5
5
5
5
5
5
5
5
5
5
5
5
5
5
5
5
5
5
5
5
5
5
5
5
5
5
5
5
5
5
5
5
5
5
5
5
5
5
5
5
5
5
5
5
5
5
5
5
5
5
5
5
5
5
5
5
5
5
5
5
5
5
5
5
5
5
5
5
5
5
5
5
5
5
5
5
5
5
5
5
5
5
5
5
5
5
5
5
5
5
5
5
5
5
5
5
5
5
5
5
5
5
5
5
5
5
5
5
5
5
5
5
5
5
5
5
5
5
5
5
5
5
5
5
5
5
5
5
5
5
5
5
5
5
5
5
5
5
5
5
5
5
5
5
5
5
5
5
5
5
5
5
5
5
5
5
5
5
5
5
5
5
5
5
5
5
5
5
5
5
5
5
5
5
5
5
5
5
5
5
5
5
5
5
5
5
5
5
5
5
5
5
5
5
5
5
5
5
5
5
5
5
5
5
5
5
5
5
5
5
5
5
5
5
5
5
5
5
5
5
5
5
5
5
5
5
5
5
5
5
5
5
5
5
5
5
5
5
5
5
5
5
5
5
5
5
5
5
5
5
5
5
5
5
5
5
5
5
5
5
5
5
5
5
5
5
5
5
5
5
5
5
5
5
5
5
5
5
5
5
5
5
5
5
5
5
5
5
5
5
5
5
5
5
5
5
5
5
5
5
5
5
5
5
5
5
5
5
5
5
5
5
5
5
5
5
5
5
5
5
5
5
5
5
5
5
5
5
5
5
5
5
5
5
5
5
5
5
5
5
5
5
5
5
5
5
5
5
5
5
5
5
5
5
5
5
5
5
5
5
5
5
5
5
5
5
5
5
5
5
5
5
5
5
5
5
5
5
5
5
5
5
5
5
5
5
5
5
5
5
5
5
5
5
5
5
5
5
5
5
5
5
5
5
5
5
5
5
5
5
5
5
5
5
5
5
5
5
5
5
5
5
5
5
5
5
5
5
5

POINT_DATA 1028

VECTORS coord float
0.0 0.0 0.0 
5.000000000000e+01 -1.000000000000e+01 0.0 
0.0 -2.000000000000e+01 0.0 
5.000000000000e+01 -2.000000000000e+01 0.0 
0.0 -9.999999999991e-01 0.0 
0.0 -1.999999999998e+00 0.0 
0.0 -2.999999999997e+00 0.0 
0.0 -3.999999999994e+00 0.0 
0.0 -4.999999999991e+00 0.0 
0.0 -5.999999999988e+00 0.0 
0.0 -6.999999999985e+00 0.0 
0.0 -7.999999999982e+00 0.0 
0.0 -8.999999999983e+00 0.0 
0.0 -9.999999999985e+00 0.0 
0.0 -1.099999999999e+01 0.0 
0.0 -1.199999999999e+01 0.0 
0.0 -1.299999999999e+01 0.0 
0.0 -1.399999999999e+01 0.0 
0.0 -1.499999999999e+01 0.0 
0.0 -1.599999999999e+01 0.0 
0.0 -1.700000000000e+01 0.0 
0.0 -1.800000000000e+01 0.0 
0.0 -1.900000000000e+01 0.0 
4.900000000001e+01 -2.000000000000e+01 0.0 
4.800000000001e+01 -2.000000000000e+01 0.0 
4.700000000002e+01 -2.000000000000e+01 0.0 
4.600000000003e+01 -2.000000000000e+01 0.0 
4.500000000004e+01 -2.000000000000e+01 0.0 
4.400000000004e+01 -2.000000000000e+01 0.0 
4.300000000005e+01 -2.000000000000e+01 0.0 
4.200000000006e+01 -2.000000000000e+01 0.0 
4.100000000006e+01 -2.000000000000e+01 0.0 
4.000000000007e+01 -2.000000000000e+01 0.0 
3.900000000008e+01 -2.000000000000e+01 0.0 
3.800000000009e+01 -2.000000000000e+01 0.0 
3.700000000009e+01 -2.000000000000e+01 0.0 
3.600000000010e+01 -2.000000000000e+01 0.0 
3.500000000011e+01 -2.000000000000e+01 0.0 
3.400000000011e+01 -2.000000000000e+01 0.0 
3.300000000012e+01 -2.000000000000e+01 0.0 
3.200000000013e+01 -2.000000000000e+01 0.0 
3.100000000013e+01 -2.000000000000e+01 0.0 
3.000000000013e+01 -2.000000000000e+01 0.0 
2.900000000013e+01 -2.000000000000e+01 0.0 
2.800000000013e+01 -2.000000000000e+01 0.0 
2.700000000013e+01 -2.000000000000e+01 0.0 
2.600000000013e+01 -2.000000000000e+01 0.0 
2.500000000013e+01 -2.000000000000e+01 0.0 
2.400000000013e+01 -2.000000000000e+01 0.0 
2.300000000013e+01 -2.000000000000e+01 0.0 
2.200000000013e+01 -2.000000000000e+01 0.0 
2.100000000013e+01 -2.000000000000e+01 0.0 
2.000000000013e+01 -2.000000000000e+01 0.0 
1.900000000013e+01 -2.000000000000e+01 0.0 
1.800000000013e+01 -2.000000000000e+01 0.0 
1.700000000012e+01 -2.000000000000e+01 0.0 
1.600000000011e+01 -2.000000000000e+01 0.0 
1.500000000011e+01 -2.000000000000e+01 0.0 
1.400000000010e+01 -2.000000000000e+01 0.0 
1.300000000009e+01 -2.000000000000e+01 0.0 
1.200000000009e+01 -2.000000000000e+01 0.0 
1.100000000008e+01 -2.000000000000e+01 0.0 
1.000000000007e+01 -2.000000000000e+01 0.0 
9.000000000064e+00 -2.000000000000e+01 0.0 
8.000000000057e+00 -2.000000000000e+01 0.0 
7.000000000050e+00 -2.000000000000e+01 0.0 
6.000000000043e+00 -2.000000000000e+01 0.0 
5.000000000036e+00 -2.000000000000e+01 0.0 
4.000000000028e+00 -2.000000000000e+01 0.0 
3.000000000021e+00 -2.000000000000e+01 0.0 
2.000000000014e+00 -2.000000000000e+01 0.0 
1.000000000007e+00 -2.000000000000e+01 0.0 
5.000000000000e+01 -1.100000000000e+01 0.0 
5.000000000000e+01 -1.200000000000e+01 0.0 
5.000000000000e+01 -1.300000000000e+01 0.0 
5.000000000000e+01 -1.400000000000e+01 0.0 
5.000000000000e+01 -1.500000000000e+01 0.0 
5.000000000000e+01 -1.600000000000e+01 0.0 
5.000000000000e+01 -1.700000000000e+01 0.0 
5.000000000000e+01 -1.800000000000e+01 0.0 
5.000000000000e+01 -1.900000000000e+01 0.0 
2.000000000000e+01 0.0 0.0 
3.500000000000e+01 -1.000000000000e+01 0.0 
2.150000000000e+01 -1.000000000000e+00 0.0 
2.300000000000e+01 -2.000000000000e+00 0.0 
2.450000000000e+01 -3.000000000000e+00 0.0 
2.600000000000e+01 -4.000000000000e+00 0.0 
2.750000000000e+01 -5.000000000000e+00 0.0 
2.900000000000e+01 -6.000000000000e+00 0.0 
3.050000000000e+01 -7.000000000000e+00 0.0 
3.200000000000e+01 -8.000000000000e+00 0.0 
3.350000000000e+01 -9.000000000000e+00 0.0 
4.900000000000e+01 -1.000000000000e+01 0.0 
4.800000000000e+01 -1.000000000000e+01 0.0 
4.700000000000e+01 -1.000000000000e+01 0.0 
4.600000000000e+01 -1.000000000000e+01 0.0 
4.500000000000e+01 -1.000000000000e+01 0.0 
4.400000000000e+01 -1.000000000000e+01 0.0 
4.300000000000e+01 -1.000000000000e+01 0.0 
4.200000000000e+01 -1.000000000000e+01 0.0 
4.100000000000e+01 -1.000000000000e+01 0.0 
4.000000000000e+01 -1.000000000000e+01 0.0 
3.900000000000e+01 -1.000000000000e+01 0.0 
3.800000000000e+01 -1.000000000000e+01 0.0 
3.700000000000e+01 -1.000000000000e+01 0.0 
3.600000000000e+01 -1.000000000000e+01 0.0 
1.900000000000e+01 0.0 0.0 
1.800000000000e+01 0.0 0.0 
1.700000000000e+01 0.0 0.0 
1.600000000000e+01 0.0 0.0 
1.500000000000e+01 0.0 0.0 
1.400000000000e+01 0.0 0.0 
1.300000000000e+01 0.0 0.0 
1.200000000000e+01 0.0 0.0 
1.100000000000e+01 0.0 0.0 
1.000000000000e+01 0.0 0.0 
9.000000000000e+00 0.0 0.0 
8.000000000000e+00 0.0 0.0 
7.000000000000e+00 0.0 0.0 
6.000000000000e+00 0.0 0.0 
5.000000000000e+00 0.0 0.0 
4.000000000000e+00 0.0 0.0 
3.000000000000e+00 0.0 0.0 
2.000000000000e+00 0.0 0.0 
1.000000000000e+00 0.0 0.0 
2.075000000000e+01 -5.000000000006e-01 0.0 
2.225000000000e+01 -1.500000000000e+00 0.0 
2.375000000000e+01 -2.500000000000e+00 0.0 
2.525000000000e+01 -3.500000000000e+00 0.0 
2.675000000000e+01 -4.500000000000e+00 0.0 
2.825000000000e+01 -5.500000000000e+00 0.0 
2.975000000000e+01 -6.500000000000e+00 0.0 
3.125000000000e+01 -7.500000000000e+00 0.0 
3.275000000000e+01 -8.500000000000e+00 0.0 
3.425000000000e+01 -9.500000000000e+00 0.0 
2.226951693683e+01 -2.403913980114e+00 0.0 
1.650149491944e+01 -1.913490915758e+01 0.0 
1.050042386896e+01 -8.504605092970e-01 0.0 
1.553146524712e+01 -8.281255032105e-01 0.0 
1.150000000008e+01 -1.913397459621e+01 0.0 
2.530060260647e+01 -4.428336431260e+00 0.0 
8.651114563942e-01 -1.052096295641e+01 0.0 
2.050000000013e+01 -1.913397459622e+01 0.0 
2.819198729811e+01 -6.399519052838e+00 0.0 
2.445670302931e+01 -1.915649188023e+01 0.0 
3.117591465718e+01 -8.394293040695e+00 0.0 
7.465053044742e+00 -1.920411160581e+01 0.0 
6.398295709691e+00 -8.230098819370e-01 0.0 
2.849659607461e+01 -1.914296187762e+01 0.0 
3.418732642882e+01 -1.040265792588e+01 0.0 
8.386450935063e-01 -6.533605142809e+00 0.0 
9.178661865596e-01 -1.329769195597e+01 0.0 
3.149448624493e+01 -1.910466733764e+01 0.0 
3.552916747426e+01 -1.914628590759e+01 0.0 
4.449210346537e+01 -1.914359085008e+01 0.0 
4.140975975145e+01 -1.906941860733e+01 0.0 
3.847475958753e+01 -1.916622382724e+01 0.0 
3.653774794640e+01 -1.088712800241e+01 0.0 
4.047886341787e+01 -1.090139014048e+01 0.0 
4.348006339825e+01 -1.092792621489e+01 0.0 
4.919519968029e+01 -1.451526755068e+01 0.0 
4.500000000032e+00 -1.913397459621e+01 0.0 
1.856136921614e+01 -8.212235170404e-01 0.0 
3.499895312306e+00 -8.661165539723e-01 0.0 
9.076088696565e-01 -1.642306201891e+01 0.0 
4.655174095477e+01 -1.086183387525e+01 0.0 
9.430688970604e-01 -3.496112672958e+00 0.0 
3.353992337063e+01 -1.901202090820e+01 0.0 
2.249746016977e+01 -1.921262287282e+01 0.0 
2.650122741777e+01 -1.916123026018e+01 0.0 
1.863571384842e+01 -1.908325534840e+01 0.0 
1.450089971693e+01 -1.917691901860e+01 0.0 
1.350044695317e+01 -8.659695299584e-01 0.0 
3.849987469880e+01 -1.084154983397e+01 0.0 
9.454419857884e+00 -1.900818879936e+01 0.0 
4.917398660523e+01 -1.645692866081e+01 0.0 
8.500000000000e+00 -8.660254037844e-01 0.0 
8.660319230785e-01 -8.500111697188e+00 0.0 
4.649022621545e+01 -1.930506220113e+01 0.0 
2.667688107845e+01 -5.420288124331e+00 0.0 
2.379251615665e+01 -3.412225477429e+00 0.0 
2.966631491830e+01 -7.389030232731e+00 0.0 
3.267915035995e+01 -9.396934932445e+00 0.0 
2.074836922338e+01 -1.320054020319e+00 0.0 
4.915985743621e+01 -1.261973384855e+01 0.0 
2.527129768623e+00 -1.931592414663e+01 0.0 
1.538676247410e+00 -8.436956619311e-01 0.0 
4.908096641539e+01 -1.842484004551e+01 0.0 
3.478612492673e+01 -1.090889364140e+01 0.0 
3.409757055860e+01 -1.131991530427e+01 0.0 
3.501895309466e+01 -1.177687842717e+01 0.0 
3.407758073088e+01 -1.224293381580e+01 0.0 
3.484541875390e+01 -1.277051428430e+01 0.0 
3.400322025842e+01 -1.319022775640e+01 0.0 
3.321672625034e+01 -1.266779191233e+01 0.0 
3.315244139236e+01 -1.360984106532e+01 0.0 
3.236335186892e+01 -1.308463225210e+01 0.0 
3.478337442841e+01 -1.372341158982e+01 0.0 
3.230105923633e+01 -1.403023731610e+01 0.0 
3.150954055289e+01 -1.350301767700e+01 0.0 
3.144604792090e+01 -1.444931742516e+01 0.0 
3.065653897123e+01 -1.392357262981e+01 0.0 
3.071897610812e+01 -1.297447031198e+01 0.0 
2.986790411740e+01 -1.339226181535e+01 0.0 
2.993181466745e+01 -1.244703272398e+01 0.0 
2.908023061869e+01 -1.286254537734e+01 0.0 
2.901619051372e+01 -1.380881655279e+01 0.0 
2.822986160390e+01 -1.327695262116e+01 0.0 
2.829453476870e+01 -1.233265343811e+01 0.0 
2.744542905518e+01 -1.274510491105e+01 0.0 
2.751120089246e+01 -1.180368086886e+01 0.0 
2.666218649885e+01 -1.221619339205e+01 0.0 
2.672371209234e+01 -1.127125228527e+01 0.0 
2.587763216302e+01 -1.168539979114e+01 0.0 
2.581165585299e+01 -1.262994410089e+01 0.0 
2.502890882577e+01 -1.209827323619e+01 0.0 
2.509631327757e+01 -1.115492410304e+01 0.0 
2.424662989877e+01 -1.156630981079e+01 0.0 
2.431704046904e+01 -1.062389179334e+01 0.0 
2.346445438728e+01 -1.103427680694e+01 0.0 
2.339382552877e+01 -1.197964871788e+01 0.0 
2.260936050780e+01 -1.144513277642e+01 0.0 
2.268075012022e+01 -1.049911928216e+01 0.0 
2.182525737661e+01 -1.090920811464e+01 0.0 
2.189682319817e+01 -9.961716944568e+00 0.0 
2.104174127792e+01 -1.037266986667e+01 0.0 
2.111304367575e+01 -9.424179358711e+00 0.0 
2.025306185381e+01 -9.832727364719e+00 0.0 
2.018141124247e+01 -1.079140628871e+01 0.0 
1.938594498257e+01 -1.025147354112e+01 0.0 
1.946106490453e+01 -9.288010758448e+00 0.0 
1.858929958352e+01 -9.706319802516e+00 0.0 
1.851540991219e+01 -1.067205988724e+01 0.0 
1.771485303178e+01 -1.012504443115e+01 0.0 
1.764134552256e+01 -1.109360378538e+01 0.0 
1.683745148095e+01 -1.054496365337e+01 0.0 
1.691852964353e+01 -9.582555261178e+00 0.0 
1.603603813062e+01 -1.000160132379e+01 0.0 
1.595824239350e+01 -1.096750698862e+01 0.0 
1.515080624291e+01 -1.041639501931e+01 0.0 
1.523171602559e+01 -9.451711491453e+00 0.0 
1.434621060709e+01 -9.871956467464e+00 0.0 
1.426777178765e+01 -1.083749501371e+01 0.0 
1.345775282374e+01 -1.028803175500e+01 0.0 
1.354103873368e+01 -9.324918457162e+00 0.0 
1.265072018622e+01 -9.742612837270e+00 0.0 
1.257285762070e+01 -1.071557782384e+01 0.0 
1.175874815690e+01 -1.015972324288e+01 0.0 
1.184203019714e+01 -9.193604071377e+00 0.0 
1.094927709905e+01 -9.612103238656e+00 0.0 
1.086938022910e+01 -1.058685085646e+01 0.0 
1.005424098961e+01 -1.002939116380e+01 0.0 
9.977974613295e+00 -1.101324897989e+01 0.0 
1.012915646404e+01 -9.051815821181e+00 0.0 
9.237127782494e+00 -9.471239055559e+00 0.0 
9.308426593771e+00 -8.483376461131e+00 0.0 
8.418806073345e+00 -8.910712374517e+00 0.0 
2.253688464062e+01 -1.239459402279e+01 0.0 
8.495126726666e+00 -7.921646665254e+00 0.0 
9.389727383206e+00 -7.512103628377e+00 0.0 
7.601560812974e+00 -8.349460349344e+00 0.0 
7.525680547759e+00 -9.339736686940e+00 0.0 
7.677888324502e+00 -7.359727833346e+00 0.0 
6.782001206724e+00 -7.788454494773e+00 0.0 
6.858778622885e+00 -6.797338062822e+00 0.0 
2.196596590865e+01 -8.979025665442e+00 0.0 
2.816540108272e+01 -1.422634142353e+01 0.0 
5.961601194403e+00 -7.226824010712e+00 0.0 
6.038171749656e+00 -6.234825887079e+00 0.0 
6.936257279557e+00 -5.805287640737e+00 0.0 
6.115068918323e+00 -5.242109758768e+00 0.0 
3.564391741903e+01 -1.329240553876e+01 0.0 
3.558115605778e+01 -1.425902892003e+01 0.0 
3.645445282201e+01 -1.381970786460e+01 0.0 
3.639744204358e+01 -1.479198128612e+01 0.0 
3.727266909778e+01 -1.435399586226e+01 0.0 
5.216667013081e+00 -5.671788584287e+00 0.0 
3.220697293295e+01 -1.499594545107e+01 0.0 
3.551112158269e+01 -1.523479869250e+01 0.0 
2.836056961467e+01 -1.139032434851e+01 0.0 
2.516730388602e+01 -1.021382726837e+01 0.0 
1.844436907403e+01 -1.164097215196e+01 0.0 
5.885434318740e+00 -8.218694781467e+00 0.0 
5.064071066867e+00 -7.656614643901e+00 0.0 
4.988089103470e+00 -8.649722082718e+00 0.0 
1.079421050408e+01 -1.157014985435e+01 0.0 
9.902420005256e+00 -1.199903342656e+01 0.0 
1.071994252214e+01 -1.255727909771e+01 0.0 
9.826974788171e+00 -1.298659581767e+01 0.0 
1.064607883789e+01 -1.354595476388e+01 0.0 
9.751541265343e+00 -1.397556905071e+01 0.0 
8.932296185869e+00 -1.341553353988e+01 0.0 
8.856399248106e+00 -1.440570715508e+01 0.0 
8.036186803543e+00 -1.384470558472e+01 0.0 
1.057112875118e+01 -1.453516759081e+01 0.0 
1.146582585687e+01 -1.410539926903e+01 0.0 
7.959894480382e+00 -1.483563350928e+01 0.0 
7.138792279156e+00 -1.427465094140e+01 0.0 
7.062506792418e+00 -1.526615385482e+01 0.0 
6.240693558277e+00 -1.470508863040e+01 0.0 
6.316957575451e+00 -1.371212581281e+01 0.0 
5.418183007107e+00 -1.414253605022e+01 0.0 
5.494748364428e+00 -1.314886770603e+01 0.0 
1.756825565873e+01 -1.206433872514e+01 0.0 
1.837565773345e+01 -1.261356468266e+01 0.0 
1.749574831391e+01 -1.303769280014e+01 0.0 
1.830539187332e+01 -1.358828364284e+01 0.0 
1.742278925170e+01 -1.401367746928e+01 0.0 
1.823303007798e+01 -1.456432294258e+01 0.0 
1.734941694138e+01 -1.499213734361e+01 0.0 
1.653760041637e+01 -1.443920312098e+01 0.0 
3.056237977307e+01 -1.487132260174e+01 0.0 
1.866469084762e+01 -8.742953000418e+00 0.0 
1.953669694916e+01 -8.326038909849e+00 0.0 
1.874194303780e+01 -7.780688158966e+00 0.0 
1.961032016741e+01 -7.366854697285e+00 0.0 
1.881715755159e+01 -6.821102209649e+00 0.0 
1.968369797150e+01 -6.407747217358e+00 0.0 
1.889237123259e+01 -5.858375520026e+00 0.0 
1.802038875366e+01 -6.276202618170e+00 0.0 
1.809793837984e+01 -5.307629520489e+00 0.0 
1.721985207997e+01 -5.728242054488e+00 0.0 
1.729850893523e+01 -4.756990819347e+00 0.0 
1.641745664240e+01 -5.174636548624e+00 0.0 
2.495978509456e+01 -1.304406404294e+01 0.0 
1.911567814831e+01 -1.413854250293e+01 0.0 
1.904387332608e+01 -1.511463127723e+01 0.0 
1.992115934240e+01 -1.468788025898e+01 0.0 
7.013706899628e+00 -4.812582868662e+00 0.0 
5.342091874585e+00 -1.513658157269e+01 0.0 
1.139098043784e+01 -1.509488509480e+01 0.0 
1.228151810610e+01 -1.465617481983e+01 0.0 
1.646373110164e+01 -1.541993323337e+01 0.0 
5.293328636712e+00 -4.678385108584e+00 0.0 
1.975965862987e+01 -5.448124345648e+00 0.0 
2.054318374236e+01 -5.992561293251e+00 0.0 
3.721453439063e+01 -1.533216152738e+01 0.0 
3.809302733893e+01 -1.489235527381e+01 0.0 
1.220852788900e+01 -1.565304565230e+01 0.0 
4.394120899730e+00 -5.108397613210e+00 0.0 
8.779354620288e+00 -1.539524721159e+01 0.0 
1.817791047702e+01 -4.338570146253e+00 0.0 
4.518860013839e+00 -1.457343189307e+01 0.0 
4.442712140414e+00 -1.556841391069e+01 0.0 
8.115343466391e+00 -1.285760324283e+01 0.0 
1.985334703171e+01 -1.566478400426e+01 0.0 
2.071953850276e+01 -1.522074243119e+01 0.0 
1.634012953883e+01 -6.154777738301e+00 0.0 
1.553479994708e+01 -5.593730508879e+00 0.0 
1.561265946942e+01 -4.617761762647e+00 0.0 
1.470674212978e+01 -5.064576488228e+00 0.0 
1.464498299883e+01 -6.026514471420e+00 0.0 
1.383271561817e+01 -5.467796261169e+00 0.0 
1.389241253067e+01 -4.504338666645e+00 0.0 
1.301868735463e+01 -4.907185188626e+00 0.0 
1.294514184846e+01 -5.888160903592e+00 0.0 
1.212955968622e+01 -5.328262335277e+00 0.0 
1.220721122383e+01 -4.341264976687e+00 0.0 
1.131324345897e+01 -4.766773516508e+00 0.0 
5.266597955397e+00 -1.613148974258e+01 0.0 
1.737805990867e+01 -3.786677807525e+00 0.0 
3.078438094513e+01 -1.203225297748e+01 0.0 
1.131569882285e+01 -1.608511932110e+01 0.0 
1.728478341782e+01 -1.596017432313e+01 0.0 
3.803465906019e+01 -1.587509751228e+01 0.0 
3.891681276677e+01 -1.543395196905e+01 0.0 
3.897340985302e+01 -1.444710288980e+01 0.0 
3.980095968193e+01 -1.499059496613e+01 0.0 
3.974334598189e+01 -1.597921884150e+01 0.0 
4.062964983717e+01 -1.553518690417e+01 0.0 
4.068729602479e+01 -1.454434445295e+01 0.0 
4.151772679790e+01 -1.508974196007e+01 0.0 
4.157505195739e+01 -1.409694289912e+01 0.0 
4.240699932656e+01 -1.464347955968e+01 0.0 
4.234898051011e+01 -1.563721375790e+01 0.0 
4.323934606035e+01 -1.519082036405e+01 0.0 
4.329740528208e+01 -1.419587509788e+01 0.0 
4.413056841369e+01 -1.474359631875e+01 0.0 
4.418850110108e+01 -1.374786684042e+01 0.0 
4.502219770667e+01 -1.429605103525e+01 0.0 
4.496411937907e+01 -1.529215882720e+01 0.0 
4.490027319897e+00 -4.154167794594e+00 0.0 
1.565080385988e+01 -1.486411982419e+01 0.0 
1.557610691279e+01 -1.584855627870e+01 0.0 
4.195350646612e+00 -8.089117689096e+00 0.0 
4.124027797830e+00 -9.082831955007e+00 0.0 
4.917944318925e+00 -9.643530901533e+00 0.0 
4.020105689502e+00 -1.007439673661e+01 0.0 
4.587185899277e+01 -1.484039992728e+01 0.0 
4.580078661551e+01 -1.584043391042e+01 0.0 
2.061956522375e+01 -5.046701343981e+00 0.0 
2.139572955529e+01 -5.579553449826e+00 0.0 
3.715344357292e+01 -1.631485124583e+01 0.0 
3.618886196443e+00 -1.500471207167e+01 0.0 
3.695606940204e+00 -1.400939692294e+01 0.0 
2.438890661143e+01 -9.686110599723e+00 0.0 
2.523267572778e+01 -9.276766000622e+00 0.0 
2.446094171539e+01 -8.751904591412e+00 0.0 
2.529089822738e+01 -8.321495612547e+00 0.0 
2.606882688827e+01 -8.864724051119e+00 0.0 
2.452116646430e+01 -7.792756462004e+00 0.0 
1.235543269617e+01 -1.365845617339e+01 0.0 
4.318116874181e+01 -1.618567469992e+01 0.0 
7.835066111909e+00 -5.376366223896e+00 0.0 
7.905687335704e+00 -4.382539065697e+00 0.0 
3.542640009567e+00 -1.600035116542e+01 0.0 
1.572431503071e+01 -1.388358386695e+01 0.0 
2.574684696680e+01 -1.357896141127e+01 0.0 
2.488842657651e+01 -1.399674354505e+01 0.0 
2.568301775611e+01 -1.453552048595e+01 0.0 
2.481535572009e+01 -1.495542756508e+01 0.0 
2.561729699688e+01 -1.549784648532e+01 0.0 
2.474623061296e+01 -1.592058894178e+01 0.0 
2.394234041695e+01 -1.537572575827e+01 0.0 
2.065825452567e+01 -1.621899055217e+01 0.0 
2.387180528935e+01 -1.634552264687e+01 0.0 
4.585364400844e+01 -1.383912334080e+01 0.0 
1.998744432052e+01 -1.370317155541e+01 0.0 
1.205356951443e+01 -6.313580285498e+00 0.0 
5.396543905849e+00 -3.731818611283e+00 0.0 
1.139652573295e+01 -3.745819399350e+00 0.0 
3.574124306703e+00 -4.551456826011e+00 0.0 
3.494140761930e+00 -5.539787055649e+00 0.0 
1.213651452413e+01 -1.664505033022e+01 0.0 
2.555045568519e+01 -1.646529356744e+01 0.0 
2.641671114986e+01 -1.603899382371e+01 0.0 
2.612920721894e+01 -7.906435260873e+00 0.0 
2.690339829698e+01 -8.456969591431e+00 0.0 
1.978024383368e+01 -1.664410216353e+01 0.0 
3.732829979082e+01 -1.336926601859e+01 0.0 
4.074336584605e+01 -1.355133328401e+01 0.0 
4.163204691081e+01 -1.310280943992e+01 0.0 
3.773826114429e+00 -3.493444309145e+00 0.0 
1.228783001032e+01 -3.374822835872e+00 0.0 
4.057110462520e+01 -1.652588478000e+01 0.0 
2.132535497898e+01 -6.523623360525e+00 0.0 
2.216932532211e+01 -6.110044769206e+00 0.0 
1.825781152128e+01 -3.370146817147e+00 0.0 
1.745679445888e+01 -2.812942552063e+00 0.0 
4.666517057280e+01 -1.539981381543e+01 0.0 
4.660575894464e+01 -1.639014410186e+01 0.0 
4.838230979954e+00 -1.063643436446e+01 0.0 
3.938942630206e+00 -1.106778981745e+01 0.0 
1.302967218620e+01 -1.621373452436e+01 0.0 
1.049548003190e+01 -4.204825123240e+00 0.0 
4.573571907195e+01 -1.683820511148e+01 0.0 
1.483686335807e+01 -1.430849689310e+01 0.0 
1.490982658890e+01 -1.332679386284e+01 0.0 
3.190805600162e+00 -9.510968358545e+00 0.0 
2.146625721848e+01 -4.642437303115e+00 0.0 
2.069866208266e+01 -4.111852942193e+00 0.0 
1.286859345584e+01 -6.873252723348e+00 0.0 
1.041794493184e+01 -5.194814260291e+00 0.0 
2.671081808965e+00 -4.976806516331e+00 0.0 
1.295786792925e+01 -1.720506531799e+01 0.0 
3.968438206511e+01 -1.696869067241e+01 0.0 
2.308550456051e+01 -1.579963151273e+01 0.0 
2.315593682844e+01 -1.482967445235e+01 0.0 
2.299471449450e+01 -1.677069968132e+01 0.0 
1.057344714696e+01 -3.214252277840e+00 0.0 
1.124057603753e+01 -1.707713739755e+01 0.0 
2.718402535754e+00 -1.543629882103e+01 0.0 
2.638549692805e+01 -1.696744916809e+01 0.0 
2.723416349007e+01 -1.658104204545e+01 0.0 
2.210193351704e+01 -7.046769643417e+00 0.0 
2.295180925161e+01 -6.657397605239e+00 0.0 
2.301355235833e+01 -5.709111896800e+00 0.0 
2.379052718281e+01 -6.254965406962e+00 0.0 
3.243528601237e+01 -1.214181853533e+01 0.0 
2.287977995457e+01 -7.583722368300e+00 0.0 
2.999876029544e+01 -1.150837653096e+01 0.0 
3.084435366963e+01 -1.109693775882e+01 0.0 
3.006650579669e+01 -1.057778994262e+01 0.0 
2.683802665066e+01 -9.386863216633e+00 0.0 
2.768641973621e+01 -8.988883915666e+00 0.0 
2.040296980397e+01 -7.903629133404e+00 0.0 
1.925235024054e+01 -1.218872783130e+01 0.0 
5.735667000424e+00 -1.020577277283e+01 0.0 
6.396559909872e+00 -1.272326295703e+01 0.0 
1.161199420714e+01 -1.212812778229e+01 0.0 
4.229046132615e+01 -1.663084237572e+01 0.0 
4.312275399692e+01 -1.718087491556e+01 0.0 
4.335502068163e+01 -1.320039231514e+01 0.0 
4.424630298089e+01 -1.275160688731e+01 0.0 
7.090116643816e+00 -3.818998061530e+00 0.0 
7.989472176569e+00 -3.389238711200e+00 0.0 
9.085824861778e+00 -1.144036167408e+01 0.0 
1.041972423731e+01 -1.651614080893e+01 0.0 
3.797525112640e+01 -1.686052038746e+01 0.0 
3.709114253394e+01 -1.730125999865e+01 0.0 
3.626966748340e+01 -1.675477052919e+01 0.0 
1.385164591440e+01 -1.677597757552e+01 0.0 
1.787152588784e+01 -8.198993896093e+00 0.0 
1.668849729812e+01 -1.248560611628e+01 0.0 
1.659546177905e+01 -3.232482605530e+00 0.0 
2.332214717345e+01 -1.292598167641e+01 0.0 
7.168238450786e+00 -2.824711686516e+00 0.0 
2.894878403906e+01 -1.475427524446e+01 0.0 
2.646763248247e+00 -1.643270107952e+01 0.0 
3.467431944285e+00 -1.699648837348e+01 0.0 
2.059475877282e+01 -1.719473628526e+01 0.0 
3.333868355437e+01 -1.080596971682e+01 0.0 
2.246451062637e+01 -1.334557761546e+01 0.0 
2.167821896388e+01 -1.280847834858e+01 0.0 
3.089653185767e+01 -1.017198487212e+01 0.0 
3.012604365669e+01 -9.657298805968e+00 0.0 
2.929627299435e+01 -1.006100135274e+01 0.0 
2.936201435219e+01 -9.136748899251e+00 0.0 
1.198219052702e+01 -7.291887238230e+00 0.0 
1.116702076035e+01 -6.731976101053e+00 0.0 
2.551388807505e+01 -1.746927036981e+01 0.0 
2.378639090370e+01 -1.728678807149e+01 0.0 
2.718543627188e+01 -1.748668016909e+01 0.0 
2.804681050301e+01 -1.712626668293e+01 0.0 
1.970737034667e+01 -1.762317646822e+01 0.0 
1.889535776135e+01 -1.707158098231e+01 0.0 
2.593777711283e+00 -5.971157087874e+00 0.0 
2.773468281110e+01 -8.067164273938e+00 0.0 
4.051205884347e+01 -1.751819982458e+01 0.0 
3.166903145421e+01 -1.068032992414e+01 0.0 
1.033042452886e+01 -1.748285844336e+01 0.0 
9.519274604626e+00 -1.694349240233e+01 0.0 
1.668308673328e+01 -2.255861778986e+00 0.0 
1.570531902832e+01 -2.676795860126e+00 0.0 
4.655826903379e+01 -1.736656245706e+01 0.0 
2.384148070773e+01 -5.328744256413e+00 0.0 
2.460255123641e+01 -5.852182672816e+00 0.0 
2.306638135119e+01 -4.798935440613e+00 0.0 
8.467720450578e-01 -1.849576263072e+01 0.0 
4.849657322345e+01 -1.084860705506e+01 0.0 
2.565860899507e+00 -1.742859793981e+01 0.0 
2.764418872564e+01 -9.927142821799e+00 0.0 
4.565165880064e+01 -1.785336695404e+01 0.0 
2.162231831329e+01 -1.376528337468e+01 0.0 
2.360646352969e+01 -9.136041963102e+00 0.0 
1.392738739903e+01 -1.578285505772e+01 0.0 
4.756405947478e+01 -1.683706841809e+01 0.0 
4.740895034054e+01 -1.793766756892e+01 0.0 
4.080779328826e+01 -1.257387192544e+01 0.0 
4.168907939671e+01 -1.210739129181e+01 0.0 
3.991197722154e+01 -1.300815793917e+01 0.0 
1.905536506762e+01 -3.940076697685e+00 0.0 
1.923879596617e+01 -2.875000734166e+00 0.0 
4.401386745746e+01 -1.673483229438e+01 0.0 
4.247233362525e+00 -7.094581653070e+00 0.0 
3.286051630211e+00 -7.635300020553e+00 0.0 
9.609533347623e+00 -4.594311677967e+00 0.0 
9.523554636369e+00 -5.595597029530e+00 0.0 
5.660336628893e+00 -1.119290329628e+01 0.0 
6.558070063295e+00 -1.076385809362e+01 0.0 
2.809866407414e+01 -1.518037766799e+01 0.0 
2.888868674504e+01 -1.570360690070e+01 0.0 
2.654431550819e+01 -1.411217777162e+01 0.0 
1.402158265969e+01 -1.375404617952e+01 0.0 
1.409592494026e+01 -1.277071998942e+01 0.0 
1.499355196178e+01 -1.235270737023e+01 0.0 
4.221535326155e+01 -1.759335617494e+01 0.0 
4.305583287033e+01 -1.822663146802e+01 0.0 
1.280748808359e+01 -7.834332838285e+00 0.0 
1.368988389326e+01 -7.420529606172e+00 0.0 
1.110091796060e+01 -7.683966794328e+00 0.0 
3.963446145980e+01 -1.794331310122e+01 0.0 
3.423932362213e+00 -1.796415590455e+01 0.0 
4.280814572302e+00 -1.752272834860e+01 0.0 
8.050136380041e+00 -2.421582378631e+00 0.0 
8.888674091650e+00 -2.984264211327e+00 0.0 
2.152839430898e+01 -3.732609965436e+00 0.0 
2.077799585292e+01 -3.183896021866e+00 0.0 
3.618719395821e+01 -1.770276572576e+01 0.0 
3.538165138340e+01 -1.718709995539e+01 0.0 
3.702925326420e+01 -1.828844288807e+01 0.0 
1.756739438711e+00 -5.353284859169e+00 0.0 
2.233710191104e+01 -1.527265621324e+01 0.0 
1.389483555057e+01 -1.771797164730e+01 0.0 
1.475634224300e+01 -1.728357428390e+01 0.0 
1.298797563052e+01 -1.825968924755e+01 0.0 
2.145331271866e+01 -1.673705379077e+01 0.0 
2.133282821169e+01 -1.769400773673e+01 0.0 
2.292139194136e+01 -1.774915400288e+01 0.0 
1.750750053243e+01 -1.861475593469e+00 0.0 
4.830478841772e+01 -1.752611802221e+01 0.0 
4.341203507805e+01 -1.220326745522e+01 0.0 
1.685254151866e+01 -1.443085301632e+00 0.0 
4.431538535165e+01 -1.171841387375e+01 0.0 
4.511308610496e+01 -1.229557320599e+01 0.0 
4.510133242889e+01 -1.123680627466e+01 0.0 
1.846818030617e+00 -4.410877617069e+00 0.0 
3.995468694584e+01 -1.186571542989e+01 0.0 
3.901387459804e+01 -1.242507616755e+01 0.0 
8.966735877533e+00 -1.837818700423e+00 0.0 
4.049310011091e+01 -1.848269508791e+01 0.0 
7.278862053803e+00 -1.918523922691e+00 0.0 
6.429715522129e+00 -2.316676521184e+00 0.0 
9.443505505022e+00 -1.792198868094e+01 0.0 
8.620386951051e+00 -1.737590365556e+01 0.0 
8.571868171503e+00 -1.834436667826e+01 0.0 
7.758629848526e+00 -1.775677907213e+01 0.0 
7.806648388584e+00 -1.680761266021e+01 0.0 
6.908555145436e+00 -1.723746463044e+01 0.0 
4.251709122090e+01 -1.156937480156e+01 0.0 
6.931136405615e+00 -1.832465719263e+01 0.0 
6.015545461353e+00 -1.768865355295e+01 0.0 
5.960535926343e+00 -1.872011001764e+01 0.0 
3.023253444786e+01 -8.761960642196e+00 0.0 
2.454622702599e+01 -6.749421992767e+00 0.0 
2.537499741604e+01 -6.347634963783e+00 0.0 
2.544077378460e+01 -5.431358513649e+00 0.0 
2.801367161747e+01 -1.820907270221e+01 0.0 
2.884507806914e+01 -1.762032095326e+01 0.0 
1.821474531936e+00 -1.588901260460e+01 0.0 
1.821006262604e+00 -1.489370287756e+01 0.0 
4.599962488908e+01 -1.176478780598e+01 0.0 
4.705457470007e+01 -1.172182804229e+01 0.0 
4.667668314802e+01 -1.263464558483e+01 0.0 
4.759648056504e+01 -1.252380987933e+01 0.0 
4.728041618103e+01 -1.341928568376e+01 0.0 
4.825209352360e+01 -1.330491640804e+01 0.0 
4.778118233428e+01 -1.420151961695e+01 0.0 
2.388192727579e+01 -1.826934810142e+01 0.0 
2.381714684947e+01 -4.385917965223e+00 0.0 
3.172733219247e+01 -9.758744265248e+00 0.0 
1.882012070658e+01 -1.805540597212e+01 0.0 
1.805667505243e+01 -1.742221226236e+01 0.0 
2.852599958080e+01 -8.597196079481e+00 0.0 
2.856486123437e+01 -7.661382718527e+00 0.0 
1.111792842875e+01 -1.818223852980e+01 0.0 
2.203322722466e+01 -7.986646678802e+00 0.0 
3.955703676900e+01 -1.903246763601e+01 0.0 
1.944842206513e+01 -8.038750575182e-01 0.0 
1.909882767783e+01 -1.746322740933e+00 0.0 
2.281147422941e+01 -8.525912918334e+00 0.0 
2.850633001468e+01 -9.533271335986e+00 0.0 
2.532883344309e+01 -7.308951659710e+00 0.0 
2.620475466461e+01 -6.979208585400e+00 0.0 
1.396278270396e+01 -1.475095389807e+01 0.0 
9.791001166724e+00 -2.554159793552e+00 0.0 
2.229293380421e+01 -4.269762271052e+00 0.0 
4.677238984118e+01 -1.430071795514e+01 0.0 
2.228658385918e+01 -3.344747535984e+00 0.0 
8.940223674553e-01 -1.543595733415e+01 0.0 
2.118566862474e+01 -8.435876987696e+00 0.0 
2.678325936437e+01 -1.032621195706e+01 0.0 
2.223400220487e+01 -5.179046761770e+00 0.0 
2.375370625384e+01 -7.251580562134e+00 0.0 
3.156971327386e+01 -1.255534750737e+01 0.0 
3.328226391312e+01 -1.172914813316e+01 0.0 
3.250948774219e+01 -1.120157009348e+01 0.0 
2.032993445717e+01 -8.867880112202e+00 0.0 
2.697226974856e+01 -7.536633082045e+00 0.0 
2.707377810386e+01 -6.590835263295e+00 0.0 
2.914099246827e+01 -1.191678458549e+01 0.0 
3.544824072239e+01 -1.621126558525e+01 0.0 
3.456511855436e+01 -1.665054783843e+01 0.0 
3.448395810225e+01 -1.759117813016e+01 0.0 
3.368378673938e+01 -1.708037781328e+01 0.0 
3.375560452567e+01 -1.610973066913e+01 0.0 
3.288001547988e+01 -1.654324255651e+01 0.0 
3.282475929147e+01 -1.749725654692e+01 0.0 
3.199880906313e+01 -1.697294088625e+01 0.0 
3.197001272932e+01 -1.811667776864e+01 0.0 
3.111884713021e+01 -1.742166785755e+01 0.0 
3.120418962865e+01 -1.642155709385e+01 0.0 
3.034666704371e+01 -1.683123833816e+01 0.0 
3.026224379976e+01 -1.772592851714e+01 0.0 
3.046632362943e+01 -1.582232843075e+01 0.0 
1.961344017324e+01 -1.857459447985e+01 0.0 
2.274975894774e+01 -9.532738811922e+00 0.0 
1.833923246887e+01 -2.396746883672e+00 0.0 
1.988859500848e+01 -2.249244376594e+00 0.0 
2.758045562861e+01 -1.086434261689e+01 0.0 
3.247300178163e+01 -1.909930104252e+01 0.0 
3.461947482503e+01 -1.911879848019e+01 0.0 
2.047161538662e+01 -6.941478180358e+00 0.0 
2.750230940214e+01 -1.915490590764e+01 0.0 
3.165081350803e+01 -1.161860780120e+01 0.0 
1.897456727641e+01 -4.889634688522e+00 0.0 
2.549338539756e+01 -1.914858252089e+01 0.0 
3.462873135081e+01 -1.567482276144e+01 0.0 
3.384432415243e+01 -1.512280684518e+01 0.0 
3.471433767690e+01 -1.469086942990e+01 0.0 
3.651470373046e+01 -1.918207952149e+01 0.0 
3.901742690249e+01 -1.345028556517e+01 0.0 
2.153224102692e+01 -1.920169709333e+01 0.0 
1.918382939341e+01 -1.316226275662e+01 0.0 
2.005389162382e+01 -1.271962165174e+01 0.0 
2.011472087878e+01 -1.175029352900e+01 0.0 
3.210679478412e+01 -1.598038618242e+01 0.0 
1.752175226543e+01 -1.914713022656e+01 0.0 
1.696897240059e+01 -1.832772588765e+01 0.0 
1.599682523337e+01 -1.832599992024e+01 0.0 
1.644507199462e+01 -1.743697981535e+01 0.0 
1.549987712903e+01 -1.915192375101e+01 0.0 
3.050250861901e+01 -1.918943550234e+01 0.0 
2.949944061527e+01 -1.922950455235e+01 0.0 
1.375892575273e+01 -6.447160534926e+00 0.0 
1.457223670180e+01 -7.006709243857e+00 0.0 
1.450818793236e+01 -7.965943451779e+00 0.0 
1.538804712402e+01 -7.553409623699e+00 0.0 
1.545817644768e+01 -6.580929593419e+00 0.0 
1.626506893751e+01 -7.129032608911e+00 0.0 
1.619833811522e+01 -8.086588580887e+00 0.0 
1.714448609609e+01 -6.697429609777e+00 0.0 
2.887616543568e+01 -1.668015232137e+01 0.0 
1.349814589130e+01 -1.918225301544e+01 0.0 
1.153887772210e+01 -1.311384581217e+01 0.0 
1.242708159886e+01 -1.267046795531e+01 0.0 
1.249799674267e+01 -1.169005616014e+01 0.0 
6.631723893693e+00 -9.774184881867e+00 0.0 
7.451471631867e+00 -1.033148796006e+01 0.0 
7.377795355458e+00 -1.132196345268e+01 0.0 
5.810931797536e+00 -9.211654212252e+00 0.0 
2.402683899133e+01 -1.441378562320e+01 0.0 
1.249768692036e+01 -1.917388426624e+01 0.0 
1.580373499437e+01 -1.290751860664e+01 0.0 
8.344650507834e+00 -9.898403995170e+00 0.0 
3.750622115305e+01 -1.086526401533e+01 0.0 
3.699391251667e+01 -1.171695900794e+01 0.0 
3.606517829518e+01 -1.173717504500e+01 0.0 
3.650257641795e+01 -1.270047380221e+01 0.0 
3.808951488918e+01 -1.183518714175e+01 0.0 
4.760380962420e+00 -1.162484888315e+01 0.0 
3.861210370848e+00 -1.205657631736e+01 0.0 
3.038284309476e+00 -1.149851280664e+01 0.0 
2.961598794889e+00 -1.248856794980e+01 0.0 
2.138953225512e+00 -1.193212674534e+01 0.0 
2.227383593457e+00 -1.096258903918e+01 0.0 
2.043265419276e+00 -1.292158472959e+01 0.0 
1.252449446028e+00 -1.225502002753e+01 0.0 
3.949985210740e+01 -1.086594001795e+01 0.0 
1.453499444792e+01 -8.768805922472e-01 0.0 
1.403518950933e+01 -1.749965556633e+00 0.0 
1.300715031023e+01 -1.714737233040e+00 0.0 
1.350929389899e+01 -2.527443911291e+00 0.0 
1.449600910711e+01 -2.595486162864e+00 0.0 
1.395693872901e+01 -3.484211041558e+00 0.0 
1.495105865208e+01 -3.364609636216e+00 0.0 
1.508822528740e+01 -1.766586020494e+00 0.0 
1.250223858430e+01 -8.634590186802e-01 0.0 
1.200279523409e+01 -1.709044504992e+00 0.0 
1.150086239419e+01 -8.592789190668e-01 0.0 
1.101482754194e+01 -1.677730591922e+00 0.0 
1.148018564526e+01 -2.659323866909e+00 0.0 
8.800552119754e+00 -3.989875954728e+00 0.0 
3.452790439430e+00 -1.901136170646e+01 0.0 
8.658451825200e-01 -9.503462241795e+00 0.0 
1.694787786797e+00 -9.000589234502e+00 0.0 
1.703436717094e+00 -8.038819004041e+00 0.0 
2.594197971110e+00 -8.563955242845e+00 0.0 
1.630513735412e+00 -9.907244747511e+00 0.0 
8.566859292791e-01 -7.512203837972e+00 0.0 
1.685461277022e+00 -7.164280248030e+00 0.0 
2.506394468801e+00 -8.623386730818e-01 0.0 
2.007475081581e+00 -1.727729545205e+00 0.0 
9.211534699767e-01 -1.628791366312e+00 0.0 
1.500000000020e+00 -2.598063549486e+00 0.0 
2.482078929963e+00 -2.553580088725e+00 0.0 
2.999795253092e+00 -1.732169015019e+00 0.0 
3.999712607169e+00 -1.728832897453e+00 0.0 
4.499752199340e+00 -8.656478679175e-01 0.0 
4.964377774841e+00 -1.730129617941e+00 0.0 
4.425017908337e+00 -2.597541756243e+00 0.0 
5.446573195014e+00 -8.410144840023e-01 0.0 
4.915722346614e+01 -1.550640962770e+01 0.0 
4.826794919243e+01 -1.600000000000e+01 0.0 
1.053139533193e+01 -1.911782884365e+01 0.0 
4.156049861949e+01 -1.095160998589e+01 0.0 
9.494526624416e+00 -8.650570090219e-01 0.0 
4.555762166964e+01 -1.897098103585e+01 0.0 
4.250656411371e+01 -1.914387356218e+01 0.0 
4.350906466345e+01 -1.917234727395e+01 0.0 
8.759665722424e-01 -1.746422130609e+01 0.0 
1.698936011838e+00 -1.795012186674e+01 0.0 
4.742476811029e+01 -1.900090177972e+01 0.0 
7.749196752349e+00 -6.368049313489e+00 0.0 
3.361572113416e+01 -1.798765193915e+01 0.0 
4.484660149212e+01 -1.728661231383e+01 0.0 
1.984038172228e+01 -4.502575320116e+00 0.0 
1.035080352627e+01 -6.166639575753e+00 0.0 
2.753558010652e+00 -1.444909521181e+01 0.0 
7.217069543032e+00 -1.328635391078e+01 0.0 
4.364336727739e+00 -1.655585677381e+01 0.0 
4.595208426108e+00 -1.357919665443e+01 0.0 
6.164967006980e+00 -1.569873454630e+01 0.0 
1.487855768353e+01 -1.826523774028e+01 0.0 
2.791876456372e+00 -4.019632415181e+00 0.0 
4.246464893515e+01 -1.364898659620e+01 0.0 
4.503855590351e+01 -1.329552780944e+01 0.0 
4.407239109604e+01 -1.573900004093e+01 0.0 
5.141054449252e+00 -6.664290382472e+00 0.0 
3.141083947149e+00 -1.055790764912e+01 0.0 
6.196463198741e+00 -4.256497932609e+00 0.0 
2.599618716181e+01 -1.836893455464e+01 0.0 
2.923057372337e+01 -1.098461757645e+01 0.0 
1.168343877486e+01 -1.114079645041e+01 0.0 
6.706222096238e+00 -8.780364234441e+00 0.0 
8.567858614669e+00 -6.943121440850e+00 0.0 
1.123755132901e+01 -5.753525820030e+00 0.0 
2.353456234423e+01 -1.008536320953e+01 0.0 
9.162073319168e+00 -1.045593739109e+01 0.0 
9.676343469685e+00 -1.496493008366e+01 0.0 
4.490637882905e+01 -1.628778970202e+01 0.0 
7.398129387772e+00 -9.639977982323e-01 0.0 
1.049641705805e+01 -1.552503975272e+01 0.0 
9.010356286268e+00 -1.242805042052e+01 0.0 
3.985573925497e+01 -1.399863651620e+01 0.0 
1.816196318262e+01 -1.554066497931e+01 0.0 
1.306332244168e+01 -3.963646550326e+00 0.0 
4.145850903932e+01 -1.608094559275e+01 0.0 
3.794664933633e+01 -1.779020121986e+01 0.0 
3.819614412903e+01 -1.290749321016e+01 0.0 
6.270014188119e+00 -3.255093186826e+00 0.0 
4.251165370388e+01 -1.263870364997e+01 0.0 
1.207347709171e+01 -1.763942826023e+01 0.0 
3.633240829927e+01 -1.577330481104e+01 0.0 
4.319052668832e+00 -6.101812561904e+00 0.0 
1.676492415806e+01 -1.151547901392e+01 0.0 
2.594059220037e+01 -1.074225223009e+01 0.0 
3.340750911501e+01 -9.898764354137e+00 0.0 
4.397619591281e+01 -1.769773736461e+01 0.0 
2.175611595028e+01 -1.185718747128e+01 0.0 
1.641818733106e+01 -1.640685203215e+01 0.0 
1.661211421753e+01 -1.346121366338e+01 0.0 
3.428853504935e+00 -6.551993389271e+00 0.0 
8.700728832502e+00 -1.638460872825e+01 0.0 
1.931369795309e+01 -1.121629383702e+01 0.0 
4.139798872363e+01 -1.706922153459e+01 0.0 
2.647837478700e+01 -1.507353829290e+01 0.0 
1.779469616424e+01 -9.161615782908e+00 0.0 
3.885879219319e+01 -1.642026488918e+01 0.0 
1.338194936770e+01 -1.125916521471e+01 0.0 
1.897071181111e+01 -1.609204322578e+01 0.0 
2.844308548793e+01 -1.046221003096e+01 0.0 
2.659854702194e+01 -1.316109415760e+01 0.0 
2.979604503271e+01 -1.433296157755e+01 0.0 
2.417694041347e+01 -1.251231397779e+01 0.0 
1.807401327411e+00 -1.388891148480e+01 0.0 
9.599810618782e+00 -1.595439365034e+01 0.0 
1.652144692160e+01 -4.205392788472e+00 0.0 
2.367839450246e+01 -8.188385218643e+00 0.0 
3.814894930468e+01 -1.390748338767e+01 0.0 
2.466448215774e+01 -1.685878545680e+01 0.0 
4.134044524611e+01 -1.806610045954e+01 0.0 
2.600511411958e+01 -9.801774120648e+00 0.0 
7.882158050716e+00 -1.582364037353e+01 0.0 
3.881607873422e+01 -1.737970515013e+01 0.0 
8.270182347708e+00 -1.088622154920e+01 0.0 
8.672520392520e-01 -4.532984309881e+00 0.0 
1.993447205337e+01 -3.579061902667e+00 0.0 
1.794616079549e+01 -7.238038888498e+00 0.0 
2.097277068165e+01 -1.132450168636e+01 0.0 
8.194803300681e+00 -1.187214224265e+01 0.0 
3.522279404911e+01 -1.823342818178e+01 0.0 
6.984481050295e+00 -1.625271465557e+01 0.0 
1.309433007797e+01 -1.521718594215e+01 0.0 
2.150246167611e+01 -1.885399038185e+00 0.0 
3.250689370209e+01 -1.028789870535e+01 0.0 
6.085886272238e+00 -1.668342132851e+01 0.0 
1.588455661727e+01 -1.193498985921e+01 0.0 
1.809323400821e+01 -1.651110084195e+01 0.0 
1.348885082381e+00 -1.136065576512e+01 0.0 
2.497670221995e+01 -1.834631276173e+01 0.0 
2.937062818424e+01 -8.233711194470e+00 0.0 
5.185823744469e+00 -1.711566910207e+01 0.0 
1.477497877209e+01 -1.530177014512e+01 0.0 
2.125346158933e+01 -7.473003997367e+00 0.0 
4.751561118290e+01 -1.084897772632e+01 0.0 
5.056026576843e+00 -1.825750475525e+01 0.0 
1.473948554523e+01 -1.634577436309e+01 0.0 
2.410566630936e+01 -1.345970002612e+01 0.0 
1.507337507513e+01 -1.138527895328e+01 0.0 
3.189857338687e+01 -8.887781229006e+00 0.0 
7.298712468334e+00 -1.230231046246e+01 0.0 
2.738235495295e+01 -1.368931690364e+01 0.0 
3.750141041969e+01 -1.920449893070e+01 0.0 
1.557271965640e+01 -1.683317951731e+01 0.0 
3.393731848929e+01 -1.413034777044e+01 0.0 
6.482156824153e+00 -1.174575135362e+01 0.0 
2.077971718439e+01 -1.421279621836e+01 0.0 
3.455084320178e+00 -2.562590040585e+00 0.0 
3.099056096250e+01 -9.270280416035e+00 0.0 
5.580176125418e+00 -1.217387969259e+01 0.0 
1.707247630389e+01 -7.660651981710e+00 0.0 
1.418658814174e+01 -1.180390575393e+01 0.0 
2.049103025389e+01 -1.811296706038e+01 0.0 
4.680386172316e+00 -1.260396879301e+01 0.0 
1.699679896554e+01 -8.624561788199e+00 0.0 
3.779470168555e+00 -1.303424899720e+01 0.0 
3.036589870126e+01 -7.879832518349e+00 0.0 
3.306993001774e+01 -1.457671062095e+01 0.0 
2.840150110165e+00 -1.346530088269e+01 0.0 
2.732011135052e+01 -1.464591214560e+01 0.0 
5.423639259568e+00 -2.659711955016e+00 0.0 
2.324455961696e+01 -1.387269388211e+01 0.0 
1.752768355571e+00 -1.693128613594e+01 0.0 
1.020244783051e+01 -8.076834012808e+00 0.0 
1.330873875224e+01 -1.222417528206e+01 0.0 
3.297727364880e+01 -1.555480372087e+01 0.0 
2.890929955439e+01 -6.868664170731e+00 0.0 
1.323294664622e+01 -1.320754260334e+01 0.0 
2.726532861246e+01 -1.560593120806e+01 0.0 
2.240020643398e+01 -1.429299177247e+01 0.0 
2.090445823633e+01 -1.228128621332e+01 0.0 
1.315809881502e+01 -1.420739326938e+01 0.0 
2.781328038068e+01 -7.181956082300e+00 0.0 
8.614200829057e+00 -5.936933226306e+00 0.0 
8.714765730069e+00 -4.979270529687e+00 0.0 
1.611881701099e+01 -9.041973294003e+00 0.0 
2.806830314340e+01 -1.614622947108e+01 0.0 
2.084435391396e+00 -3.385085422913e+00 0.0 
3.133211811152e+01 -1.542347619750e+01 0.0 
9.693114650768e+00 -3.590281506442e+00 0.0 
1.531883592202e+01 -8.504584946143e+00 0.0 
2.151589117094e+01 -1.578915763018e+01 0.0 
4.918943882696e+01 -1.355538828056e+01 0.0 
1.443236615188e+01 -8.918701794549e+00 0.0 
8.276250966452e-01 -5.537685192197e+00 0.0 
1.362790867918e+01 -8.374718262212e+00 0.0 
2.083767477370e+01 -1.324843956035e+01 0.0 
1.273834678703e+01 -8.790890389337e+00 0.0 
1.192275845670e+01 -8.242261327467e+00 0.0 
4.477236023583e+01 -1.824312396664e+01 0.0 
1.102989384254e+01 -8.649855800911e+00 0.0 
4.849096516045e+01 -1.917293752213e+01 0.0 
1.588996752238e+00 -1.910230934687e+01 0.0 
4.904245197583e+01 -1.159839008158e+01 0.0 
2.753852929608e+01 -5.782128488093e+00 0.0 
1.756133602833e+01 -8.306130313187e-01 0.0 
2.615423700951e+01 -6.153865090092e+00 0.0 
1.028818761294e+01 -7.122020845892e+00 0.0 
2.970818901196e+01 -1.527821347593e+01 0.0 
4.801461623449e+01 -1.164472570985e+01 0.0 
9.455722100419e+00 -6.546069291118e+00 0.0 
3.089099236677e+01 -1.835339328261e+01 0.0 
2.350000000013e+01 -1.920825896750e+01 0.0 
4.830620531887e+01 -1.506626155470e+01 0.0 
1.725381944701e+01 -1.688794487850e+01 0.0 
2.156246225273e+01 -1.475893794002e+01 0.0 
4.919319648787e+01 -1.742767505896e+01 0.0 
4.437935623576e+01 -1.077662927266e+01 0.0 
1.001520521978e+01 -1.652692675208e+00 0.0 
9.067160240050e-01 -1.441937727541e+01 0.0 
2.603365149390e+01 -4.755996613848e+00 0.0 
2.458344439002e+01 -4.873645517696e+00 0.0 
2.304312390142e+01 -3.836552768096e+00 0.0 
2.546923202198e+00 -6.902480355749e+00 0.0 
1.251534969393e+01 -2.490989965776e+00 0.0 
2.454061833377e+01 -3.933354231935e+00 0.0 
1.788186558740e+01 -1.827424884923e+01 0.0 
4.090785243552e+01 -1.166553231904e+01 0.0 
2.230128851568e+01 -1.623015738726e+01 0.0 
2.302362347568e+01 -2.916239960270e+00 0.0 
3.878119254461e+01 -1.830091164002e+01 0.0 
2.210081359958e+01 -1.829238229150e+01 0.0 
8.443704882233e+00 -1.921993252862e+01 0.0 
2.218405824691e+01 -1.724557581508e+01 0.0 
2.151157503963e+01 -2.790636689331e+00 0.0 
3.741658958955e+01 -1.250400191722e+01 0.0 
2.697247663737e+01 -1.838290202309e+01 0.0 
4.743362342862e+01 -1.585850773010e+01 0.0 
6.671345075358e+00 -1.924977576322e+01 0.0 
3.900825404537e+01 -1.157220003875e+01 0.0 
4.649692961375e+01 -1.836335837481e+01 0.0 
1.578831424832e+01 -3.678284023361e+00 0.0 
4.814208768888e+01 -1.841249298770e+01 0.0 
2.964123298315e+01 -1.625739458193e+01 0.0 
4.580760351902e+01 -1.284294554687e+01 0.0 
3.561520879615e+01 -1.245548941949e+01 0.0 
2.555418095658e+00 -1.841101588290e+01 0.0 
3.288468366144e+01 -1.834258164109e+01 0.0 
2.065894391445e+01 -2.240688571739e+00 0.0 
4.739171429915e+01 -1.496536413446e+01 0.0 
3.478086729185e+00 -8.576434653209e+00 0.0 
1.606010630246e+01 -1.588421807951e+00 0.0 
1.018329200594e+01 -1.834320874317e+01 0.0 
2.957213339430e+01 -1.720496954591e+01 0.0 
4.142712790164e+00 -1.837794506222e+01 0.0 
6.698721532573e-01 -2.499999999997e+00 0.0 
8.037039123140e+00 -1.571229354954e+00 0.0 
1.203541361428e+01 -1.847784298001e+01 0.0 
2.899968332038e+01 -1.848264722179e+01 0.0 
1.469229460948e+01 -4.219485753730e+00 0.0 
4.049590781957e+01 -1.932812501995e+01 0.0 
1.996211678340e+01 -1.506329754720e+00 0.0 
4.250588298353e+01 -1.067383247529e+01 0.0 
5.831497011152e+00 -1.635396227234e+00 0.0 
5.317606125670e+00 -1.923927974868e+01 0.0 
4.208546426993e+01 -1.842830665025e+01 0.0 
2.327553405011e+00 -9.459409929662e+00 0.0 
3.568351902251e+01 -1.096637218582e+01 0.0 
1.682104374890e+00 -6.231413350963e+00 0.0 
2.451812238018e+01 -1.766524914339e+01 0.0 
1.058003429638e+01 -2.391839617098e+00 0.0 
4.399988753123e+01 -1.851998776342e+01 0.0 
1.400000000010e+01 -1.852293523028e+01 0.0 
3.604719565984e+01 -1.850662876800e+01 0.0 
1.951297136734e+01 -1.938092349694e+01 0.0 
1.821365318472e+01 -1.531276353287e+00 0.0 
2.298031859732e+01 -1.854635324722e+01 0.0 
1.552168066204e+01 -1.764280741977e+01 0.0 
4.572957713638e+01 -1.073347898229e+01 0.0 
3.429637429624e+01 -1.838861552790e+01 0.0 
2.427434426052e+00 -7.705577451869e+00 0.0 
4.662792031485e+00 -3.359424455416e+00 0.0 
4.926794919243e+01 -1.926794919243e+01 0.0 
7.320508075690e-01 -7.320508075688e-01 0.0 
4.926794919243e+01 -1.073205080757e+01 0.0 
7.320508075705e-01 -1.926794919243e+01 0.0 
2.917460242467e+00 -3.202866455310e+00 0.0 
4.838200575963e+01 -1.232674147454e+01 0.0 
2.998445708009e+01 -1.854403752148e+01 0.0 
5.949940090766e-01 -1.152762038165e+01 0.0 
4.844763495759e+01 -1.678092548787e+01 0.0 
1.301685480160e+01 -3.170056592566e+00 0.0 
1.650046335855e+01 -6.731535384067e-01 0.0 
4.854881540991e+01 -1.405224059779e+01 0.0 
2.119545114693e+01 -1.846813384545e+01 0.0 
3.797852849897e+01 -1.857978513215e+01 0.0 
4.649823708745e+01 -1.338351810816e+01 0.0 
2.012685900976e+01 -2.889659035009e+00 0.0 
2.953271913273e+01 -1.791558075192e+01 0.0 
2.408509097292e+00 -1.021949208421e+01 0.0 
2.642589566221e+01 -1.773216561448e+01 0.0 
1.730010270775e+01 -1.763165076721e+01 0.0 
2.017406551304e+01 -8.513536440582e-01 0.0 
5.254761581934e-01 -1.249999999999e+01 0.0 
6.640448215642e+00 -1.545337834885e+00 0.0 
7.843361506349e+00 -1.852719839527e+01 0.0 
1.588442191088e+00 -1.066158564320e+01 0.0 

SCALARS node_number int
LOOKUP_TABLE default
1
2
3
4
5
6
7
8
9
10
11
12
13
14
15
16
17
18
19
20
21
22
23
24
25
26
27
28
29
30
31
32
33
34
35
36
37
38
39
40
41
42
43
44
45
46
47
48
49
50
51
52
53
54
55
56
57
58
59
60
61
62
63
64
65
66
67
68
69
70
71
72
73
74
75
76
77
78
79
80
81
82
84
85
86
87
88
89
90
91
92
93
104
105
106
107
108
109
110
111
112
113
114
115
116
117
118
119
120
121
122
123
124
125
126
127
128
129
130
131
132
133
134
135
136
362
363
364
365
366
367
368
369
370
371
372
373
374
375
376
377
378
379
380
381
382
383
384
385
386
387
388
389
390
391
392
393
394
395
396
397
398
399
400
401
402
403
404
405
406
407
408
409
410
411
412
413
414
415
416
417
418
419
420
421
422
423
424
425
426
427
428
429
430
431
432
433
434
435
436
437
438
439
440
441
442
443
444
445
446
447
448
449
450
451
452
453
454
455
456
457
458
459
460
461
462
463
464
465
466
467
468
469
470
471
472
473
474
475
476
477
478
479
480
481
482
483
484
485
486
487
488
489
490
491
492
493
494
495
496
497
498
499
500
501
502
503
504
505
506
507
508
509
510
511
512
513
514
515
516
517
518
519
520
521
522
523
524
525
526
527
528
529
530
531
532
533
534
535
536
537
538
539
540
541
542
543
544
545
546
547
548
549
550
551
552
553
554
555
556
557
558
559
560
561
562
563
564
565
566
567
568
569
570
571
572
573
574
575
576
577
578
579
580
581
582
583
584
585
586
587
588
589
590
591
592
593
594
595
596
597
598
599
600
601
602
603
604
605
606
607
608
609
610
611
612
613
614
615
616
617
618
619
620
621
622
623
624
625
626
627
628
629
630
631
632
633
634
635
636
637
638
639
640
641
642
643
644
645
646
647
648
649
650
651
652
653
654
655
656
657
658
659
660
661
662
663
664
665
666
667
668
669
670
671
672
673
674
675
676
677
678
679
680
681
682
683
684
685
686
687
688
689
690
691
692
693
694
695
696
697
698
699
700
701
702
703
704
705
706
707
708
709
710
711
712
713
714
715
716
717
718
719
720
721
722
723
724
725
726
727
728
729
730
731
732
733
734
735
736
737
738
739
740
741
742
743
744
745
746
747
748
749
750
751
752
753
754
755
756
757
758
759
760
761
762
763
764
765
766
767
768
769
770
771
772
773
774
775
776
777
778
779
780
781
782
783
784
785
786
787
788
789
790
791
792
793
794
795
796
797
798
799
800
801
802
803
804
805
806
807
808
809
810
811
812
813
814
815
816
817
818
819
820
821
822
823
824
825
826
827
828
829
830
831
832
833
834
835
836
837
838
839
840
841
842
843
844
845
846
847
848
849
850
851
852
853
854
855
856
857
858
859
860
861
862
863
864
865
866
867
868
869
870
871
872
873
874
875
876
877
878
879
880
881
882
883
884
885
886
887
888
889
890
891
892
893
894
895
896
897
898
899
900
901
902
903
904
905
906
907
908
909
910
911
912
913
914
915
916
917
918
919
920
921
922
923
924
925
926
927
928
929
930
931
932
933
934
935
936
937
938
939
940
941
942
943
944
945
946
947
948
949
950
951
952
953
954
955
956
957
958
959
960
961
962
963
964
965
966
967
968
969
970
971
972
973
974
975
976
977
978
979
980
981
982
983
984
985
986
987
988
989
990
991
992
993
994
995
996
997
998
999
1000
1001
1002
1003
1004
1005
1006
1007
1008
1009
1010
1011
1012
1013
1014
1015
1016
1017
1018
1019
1020
1021
1022
1023
1024
1025
1026
1027
1028
1029
1030
1031
1032
1033
1034
1035
1036
1037
1038
1039
1040
1041
1042
1043
1044
1045
1046
1047
1048
1049
1050
1051
1052
1053
1054
1055
1056
1057
1058
1059
1060
1061
1062
1063
1064
1065
1066
1067
1068
1069
1070
1071
1072
1073
1074
1075
1076
1077
1078
1079
1080
1081
1082
1083
1084
1085
1086
1087
1088
1089
1090
1091
1092
1093
1094
1095
1096
1097
1098
1099
1100
1101
1102
1103
1104
1105
1106
1107
1108
1109
1110
1111
1112
1113
1114
1115
1116
1117
1118
1119
1120
1121
1122
1123
1124
1125
1126
1127
1128
1129
1130
1131
1132
1133
1134
1135
1136
1137
1138
1139
1140
1141
1142
1143
1144
1145
1146
1147
1148
1149
1150
1151
1152
1153
1154
1155
1156
1157
1158
1159
1160
1161
1162
1163
1164
1165
1166
1167
1168
1169
1170
1171
1172
1173
1174
1175
1176
1177
1178
1179
1180
1181
1182
1183
1184
1185
1186
1187
1188
1189
1190
1191
1192
1193
1194
1195
1196
1197
1198
1199
1200
1201
1202
1203
1204
1205
1206
1207
1208
1209
1210
1211
1212
1213
1214
1215
1216
1217
1218
1219
1220
1221
1222
1223
1224
1225
1226
1227
1228
1229
1230
1231
1232
1233
1234
1235
1236
1237
1238
1239
1240
1241
1242
1243
1244
1245
1246
1247
1248
1249
1250
1251
1252
1253
1254
1255
1256
1257
1258
1259
1260
1261
1262
1263
1264

VECTORS node_mesh_deformation float
0.0 7.705712899824e-02 0.0 
0.000000000000e+00 1.619301636483e-01 0.0 
0.0 0.000000000000e+00 0.0 
0.000000000000e+00 0.000000000000e+00 0.0 
0.0 7.699560776601e-02 0.0 
0.0 7.656023506098e-02 0.0 
0.0 7.575567795596e-02 0.0 
0.0 7.458144410849e-02 0.0 
0.0 7.302749451514e-02 0.0 
0.0 7.110118510591e-02 0.0 
0.0 6.880140000976e-02 0.0 
0.0 6.612113202576e-02 0.0 
0.0 6.305464199066e-02 0.0 
0.0 5.959038761495e-02 0.0 
0.0 5.570954044955e-02 0.0 
0.0 5.139855567224e-02 0.0 
0.0 4.665111131545e-02 0.0 
0.0 4.147832988395e-02 0.0 
0.0 3.582433282281e-02 0.0 
0.0 2.968488130474e-02 0.0 
0.0 2.304982546096e-02 0.0 
0.0 1.589412301831e-02 0.0 
0.0 8.200447017227e-03 0.0 
0.000000000000e+00 0.000000000000e+00 0.0 
0.000000000000e+00 0.000000000000e+00 0.0 
0.000000000000e+00 0.000000000000e+00 0.0 
0.000000000000e+00 0.000000000000e+00 0.0 
0.000000000000e+00 0.000000000000e+00 0.0 
0.000000000000e+00 0.000000000000e+00 0.0 
0.000000000000e+00 0.000000000000e+00 0.0 
0.000000000000e+00 0.000000000000e+00 0.0 
0.000000000000e+00 0.000000000000e+00 0.0 
0.000000000000e+00 0.000000000000e+00 0.0 
0.000000000000e+00 0.000000000000e+00 0.0 
0.000000000000e+00 0.000000000000e+00 0.0 
0.000000000000e+00 0.000000000000e+00 0.0 
0.000000000000e+00 0.000000000000e+00 0.0 
0.000000000000e+00 0.000000000000e+00 0.0 
0.000000000000e+00 0.000000000000e+00 0.0 
0.000000000000e+00 0.000000000000e+00 0.0 
0.000000000000e+00 0.000000000000e+00 0.0 
0.000000000000e+00 0.000000000000e+00 0.0 
0.000000000000e+00 0.000000000000e+00 0.0 
0.000000000000e+00 0.000000000000e+00 0.0 
0.000000000000e+00 0.000000000000e+00 0.0 
0.000000000000e+00 0.000000000000e+00 0.0 
0.000000000000e+00 0.000000000000e+00 0.0 
0.000000000000e+00 0.000000000000e+00 0.0 
0.000000000000e+00 0.000000000000e+00 0.0 
0.000000000000e+00 0.000000000000e+00 0.0 
0.000000000000e+00 0.000000000000e+00 0.0 
0.000000000000e+00 0.000000000000e+00 0.0 
0.000000000000e+00 0.000000000000e+00 0.0 
0.000000000000e+00 0.000000000000e+00 0.0 
0.000000000000e+00 0.000000000000e+00 0.0 
0.000000000000e+00 0.000000000000e+00 0.0 
0.000000000000e+00 0.000000000000e+00 0.0 
0.000000000000e+00 0.000000000000e+00 0.0 
0.000000000000e+00 0.000000000000e+00 0.0 
0.000000000000e+00 0.000000000000e+00 0.0 
0.000000000000e+00 0.000000000000e+00 0.0 
0.000000000000e+00 0.000000000000e+00 0.0 
0.000000000000e+00 0.000000000000e+00 0.0 
0.000000000000e+00 0.000000000000e+00 0.0 
0.000000000000e+00 0.000000000000e+00 0.0 
0.000000000000e+00 0.000000000000e+00 0.0 
0.000000000000e+00 0.000000000000e+00 0.0 
0.000000000000e+00 0.000000000000e+00 0.0 
0.000000000000e+00 0.000000000000e+00 0.0 
0.000000000000e+00 0.000000000000e+00 0.0 
0.000000000000e+00 0.000000000000e+00 0.0 
0.000000000000e+00 0.000000000000e+00 0.0 
0.000000000000e+00 1.474573325499e-01 0.0 
0.000000000000e+00 1.325532859581e-01 0.0 
0.000000000000e+00 1.172330928993e-01 0.0 
0.000000000000e+00 1.015199926121e-01 0.0 
0.000000000000e+00 8.542361238100e-02 0.0 
0.000000000000e+00 6.896998729164e-02 0.0 
0.000000000000e+00 5.217885409463e-02 0.0 
0.000000000000e+00 3.507301207927e-02 0.0 
0.000000000000e+00 1.767782576671e-02 0.0 
-1.007311723378e-02 1.017593677183e-01 0.0 
1.677606319735e-02 1.504589543084e-01 0.0 
-7.137665880848e-03 1.102555206678e-01 0.0 
-4.181683188655e-03 1.196256093862e-01 0.0 
-8.599237770710e-04 1.289409507842e-01 0.0 
2.697394044539e-03 1.375125957622e-01 0.0 
6.311055474093e-03 1.448673076414e-01 0.0 
9.811375335641e-03 1.506415868533e-01 0.0 
1.297492864591e-02 1.544437371810e-01 0.0 
1.554977543702e-02 1.559670237723e-01 0.0 
1.714860304854e-02 1.548016455220e-01 0.0 
1.098416031262e-03 1.620011623683e-01 0.0 
2.132356939107e-03 1.619917502375e-01 0.0 
3.174378517592e-03 1.620276015399e-01 0.0 
4.218981281994e-03 1.620773382542e-01 0.0 
5.261208561024e-03 1.620956675349e-01 0.0 
6.292208003480e-03 1.620992166082e-01 0.0 
7.312115154839e-03 1.620369101590e-01 0.0 
8.310773972681e-03 1.618869092023e-01 0.0 
9.294881987024e-03 1.615870372837e-01 0.0 
1.026753048544e-02 1.611025979329e-01 0.0 
1.122469333372e-02 1.603040676929e-01 0.0 
1.220784204216e-02 1.590793644108e-01 0.0 
1.329913214594e-02 1.572702564715e-01 0.0 
1.466595813601e-02 1.546260571888e-01 0.0 
-9.104947342347e-03 9.706721471272e-02 0.0 
-7.869655509193e-03 9.315460384033e-02 0.0 
-6.595506791648e-03 8.991888795580e-02 0.0 
-5.384110018548e-03 8.727667738992e-02 0.0 
-4.306560900472e-03 8.513469013471e-02 0.0 
-3.347677131345e-03 8.338452849608e-02 0.0 
-2.510902349439e-03 8.196296982931e-02 0.0 
-1.804294364554e-03 8.081630593605e-02 0.0 
-1.216957073144e-03 7.990147963109e-02 0.0 
-7.413458301926e-04 7.918628292590e-02 0.0 
-3.797631215292e-04 7.861312577532e-02 0.0 
-9.407344319090e-05 7.819012270535e-02 0.0 
1.181653740510e-04 7.784523198069e-02 0.0 
2.343255266579e-04 7.757955854776e-02 0.0 
2.800517507415e-04 7.739119293635e-02 0.0 
2.852266431153e-04 7.725732202436e-02 0.0 
2.556350050704e-04 7.716129163149e-02 0.0 
1.977195666669e-04 7.709916098011e-02 0.0 
9.767148252360e-05 7.705766947382e-02 0.0 
-8.534877167204e-03 1.058177276601e-01 0.0 
-5.687717500432e-03 1.148946037698e-01 0.0 
-2.533907920736e-03 1.243449257127e-01 0.0 
9.279512283165e-04 1.333541635150e-01 0.0 
4.546958013826e-03 1.414066793047e-01 0.0 
8.128515102126e-03 1.480303238191e-01 0.0 
1.147703076620e-02 1.528066330180e-01 0.0 
1.437382935139e-02 1.555076294660e-01 0.0 
1.652764208847e-02 1.557440145771e-01 0.0 
1.737175625883e-02 1.530796651444e-01 0.0 
-1.446491455329e-03 1.131062742772e-01 0.0 
3.149280091545e-03 8.110717027176e-03 0.0 
-2.582916611882e-04 7.927860381797e-02 0.0 
-2.970039142475e-03 8.580851422299e-02 0.0 
1.950952922783e-03 7.528081122846e-03 0.0 
5.852193055798e-03 1.292606039125e-01 0.0 
6.323947360672e-04 5.763397457272e-02 0.0 
4.191788415440e-03 8.934608485461e-03 0.0 
1.283801790734e-02 1.406723700921e-01 0.0 
4.907647531709e-03 9.790420911269e-03 0.0 
1.815579124748e-02 1.456621646406e-01 0.0 
1.068746994851e-03 6.720589337537e-03 0.0 
4.605774242883e-04 7.755488690122e-02 0.0 
5.357384331333e-03 1.135711639198e-02 0.0 
1.926899490728e-02 1.405793175462e-01 0.0 
4.476863289836e-04 6.992523001678e-02 0.0 
6.577046891283e-04 4.518703995923e-02 0.0 
5.366945838880e-03 1.304287321755e-02 0.0 
4.128145247194e-03 1.379712436262e-02 0.0 
1.173228583305e-03 1.507566919697e-02 0.0 
2.229833721138e-03 1.618275285046e-02 0.0 
3.009459823524e-03 1.413891863946e-02 0.0 
1.570506072925e-02 1.432110295289e-01 0.0 
1.024734697334e-02 1.483076936243e-01 0.0 
6.893019297515e-03 1.486596201205e-01 0.0 
7.176082377214e-04 9.327620303926e-02 0.0 
6.362067304257e-04 7.199207759680e-03 0.0 
-5.453876606708e-03 9.479179667708e-02 0.0 
3.904885161887e-04 7.712424037316e-02 0.0 
4.534514885904e-04 2.694620263914e-02 0.0 
3.609974012086e-03 1.495965866393e-01 0.0 
2.773231712907e-04 7.523632175290e-02 0.0 
5.416145797028e-03 1.523048089732e-02 0.0 
4.245025021600e-03 8.600895969909e-03 0.0 
5.137532556425e-03 1.039352034227e-02 0.0 
3.921873251606e-03 9.003506952769e-03 0.0 
2.510401647424e-03 7.445972157594e-03 0.0 
-1.568277835680e-03 8.227155633718e-02 0.0 
1.266851571135e-02 1.475491629387e-01 0.0 
1.742662516133e-03 8.437868300465e-03 0.0 
5.564061714480e-04 6.133524521987e-02 0.0 
2.285458597324e-04 7.819225246580e-02 0.0 
5.723098970719e-04 6.464041646806e-02 0.0 
5.770655715267e-04 1.228367450995e-02 0.0 
9.565141291354e-03 1.350153449403e-01 0.0 
2.110913787163e-03 1.215096881480e-01 0.0 
1.581654592543e-02 1.441282606661e-01 0.0 
1.947643541339e-02 1.446611884903e-01 0.0 
-5.046382617312e-03 1.050617296160e-01 0.0 
8.441552176279e-04 1.231204774904e-01 0.0 
2.911191507269e-04 5.677264431171e-03 0.0 
1.759084333226e-04 7.703502592604e-02 0.0 
3.111499984882e-04 2.771239012726e-02 0.0 
1.902096187823e-02 1.365084039771e-01 0.0 
2.070718158838e-02 1.277500938335e-01 0.0 
1.954021259214e-02 1.251296799297e-01 0.0 
2.121983937597e-02 1.149711605423e-01 0.0 
2.002056188556e-02 1.102409598377e-01 0.0 
2.109887949997e-02 1.015112836525e-01 0.0 
2.236435712507e-02 1.058714019972e-01 0.0 
2.182761175344e-02 9.292195168712e-02 0.0 
2.311842387319e-02 9.715807482785e-02 0.0 
1.957042363235e-02 9.621217635090e-02 0.0 
2.218846459289e-02 8.456729258809e-02 0.0 
2.349918502793e-02 8.873365696958e-02 0.0 
2.219061472907e-02 7.652346601416e-02 0.0 
2.351479028522e-02 8.064625273529e-02 0.0 
2.449876607499e-02 9.223993662141e-02 0.0 
2.453204277523e-02 8.419330582728e-02 0.0 
2.516733521172e-02 9.508362938523e-02 0.0 
2.521995720392e-02 8.710120120601e-02 0.0 
2.423126674564e-02 7.656882718440e-02 0.0 
2.494327153984e-02 7.958114797010e-02 0.0 
2.557765943977e-02 8.942791719663e-02 0.0 
2.532554063845e-02 8.203946741979e-02 0.0 
2.560939582369e-02 9.119867681482e-02 0.0 
2.538557015398e-02 8.395086109670e-02 0.0 
2.533006646653e-02 9.246600217258e-02 0.0 
2.514096798089e-02 8.539853603908e-02 0.0 
2.486894916139e-02 7.716591344279e-02 0.0 
2.466427689984e-02 7.881635044260e-02 0.0 
2.461215081151e-02 8.641817259639e-02 0.0 
2.417773630708e-02 8.005957694972e-02 0.0 
2.382138404086e-02 8.705609624104e-02 0.0 
2.343204414547e-02 8.093694460479e-02 0.0 
2.349394019108e-02 7.413947903663e-02 0.0 
2.280073320141e-02 7.527405334756e-02 0.0 
2.244942144501e-02 8.150776881976e-02 0.0 
2.187760933786e-02 7.612120396912e-02 0.0 
2.125734634277e-02 8.181628924076e-02 0.0 
2.075307763512e-02 7.671931024414e-02 0.0 
1.988758199525e-02 8.189566288674e-02 0.0 
1.944892177681e-02 7.710969923495e-02 0.0 
2.005859698445e-02 7.197988775643e-02 0.0 
1.882900138513e-02 7.265974528890e-02 0.0 
1.799600658356e-02 7.734411127294e-02 0.0 
1.745920702331e-02 7.320524454966e-02 0.0 
1.805069375108e-02 6.855214975796e-02 0.0 
1.676998308858e-02 6.940171583938e-02 0.0 
1.714051724708e-02 6.474321310317e-02 0.0 
1.595543892603e-02 6.587919523674e-02 0.0 
1.540068117207e-02 7.012442657256e-02 0.0 
1.468217860803e-02 6.688223218278e-02 0.0 
1.504258525109e-02 6.258595153538e-02 0.0 
1.386368069832e-02 6.387927726657e-02 0.0 
1.334038824050e-02 6.782191556651e-02 0.0 
1.263067621944e-02 6.505898811317e-02 0.0 
1.297767824305e-02 6.103473746190e-02 0.0 
1.184142759942e-02 6.246994796946e-02 0.0 
1.136641638477e-02 6.618020367787e-02 0.0 
1.067876527480e-02 6.381681991153e-02 0.0 
1.100471773397e-02 5.996095571123e-02 0.0 
9.930809861839e-03 6.155952180843e-02 0.0 
9.506952491254e-03 6.511379779244e-02 0.0 
8.854588081173e-03 6.305682385767e-02 0.0 
9.144806887186e-03 5.933869028294e-02 0.0 
8.151353437846e-03 6.106040832438e-02 0.0 
8.324037377449e-03 5.716393853113e-02 0.0 
7.774098714805e-03 6.452692384863e-02 0.0 
7.160954310105e-03 6.270595484116e-02 0.0 
6.720350758906e-03 6.595811780966e-02 0.0 
6.192462706474e-03 6.428469751371e-02 0.0 
2.259210616640e-02 6.862320279365e-02 0.0 
5.726897362029e-03 6.730715882032e-02 0.0 
6.136163668392e-03 6.878255909765e-02 0.0 
5.265620489019e-03 6.579206504256e-02 0.0 
5.612845411398e-03 6.260695865000e-02 0.0 
4.793202482285e-03 6.859034748829e-02 0.0 
4.390923474711e-03 6.722259404639e-02 0.0 
3.931949434388e-03 6.980589581778e-02 0.0 
2.004894687346e-02 8.729826739842e-02 0.0 
2.361463014487e-02 6.935971847894e-02 0.0 
3.579583163512e-03 6.857633407710e-02 0.0 
3.153456240296e-03 7.094914080157e-02 0.0 
3.391039687811e-03 7.202350709796e-02 0.0 
2.666621670894e-03 7.295799227070e-02 0.0 
1.852239420126e-02 1.048550722582e-01 0.0 
1.782485770494e-02 9.019330615150e-02 0.0 
1.686733792786e-02 9.872076504023e-02 0.0 
1.591772783654e-02 8.359645363597e-02 0.0 
1.507987700986e-02 9.184281943056e-02 0.0 
2.460704690712e-03 7.201451123786e-02 0.0 
2.055598057301e-02 7.139933959513e-02 0.0 
1.645933338668e-02 7.522423141922e-02 0.0 
2.551278356567e-02 9.894592008806e-02 0.0 
2.393561394718e-02 9.366637445443e-02 0.0 
1.819572457984e-02 6.346478525267e-02 0.0 
3.929657117776e-03 6.583143758387e-02 0.0 
3.163238181211e-03 6.731746243256e-02 0.0 
3.418560940872e-03 6.440556212801e-02 0.0 
9.209302576437e-03 5.517396886913e-02 0.0 
8.281688755543e-03 5.283558652609e-02 0.0 
9.031446373561e-03 5.055692412554e-02 0.0 
8.016797233399e-03 4.805785382684e-02 0.0 
8.604569737004e-03 4.547884381376e-02 0.0 
7.526292796607e-03 4.281446261028e-02 0.0 
7.019519436906e-03 4.556262371483e-02 0.0 
6.485618217720e-03 4.014067025343e-02 0.0 
6.050558191202e-03 4.305168208343e-02 0.0 
7.927418710061e-03 3.992649522602e-02 0.0 
9.089504895021e-03 4.276043477520e-02 0.0 
5.492842461008e-03 3.744586789233e-02 0.0 
5.119796735156e-03 4.050679160010e-02 0.0 
4.557005567419e-03 3.471038764875e-02 0.0 
4.236745145529e-03 3.791712267578e-02 0.0 
4.656768383778e-03 4.343503854045e-02 0.0 
3.822515794239e-03 4.098768435898e-02 0.0 
4.123894590268e-03 4.623328270788e-02 0.0 
1.708205698696e-02 5.964199295970e-02 0.0 
1.788260742065e-02 5.792127242782e-02 0.0 
1.658402561663e-02 5.408167636565e-02 0.0 
1.709585566812e-02 5.190872390185e-02 0.0 
1.563709330530e-02 4.804488609634e-02 0.0 
1.582968255249e-02 4.541719064617e-02 0.0 
1.423459990465e-02 4.151694491564e-02 0.0 
1.414216712212e-02 4.435963657956e-02 0.0 
2.184656076065e-02 6.870952914444e-02 0.0 
1.643245498441e-02 7.744033128835e-02 0.0 
1.670647992729e-02 8.161976258603e-02 0.0 
1.498398663905e-02 8.127650936964e-02 0.0 
1.497568183009e-02 8.548503880381e-02 0.0 
1.313082721243e-02 8.470887720974e-02 0.0 
1.281868834766e-02 8.896661457843e-02 0.0 
1.088348856156e-02 8.777234062018e-02 0.0 
1.128324470275e-02 8.390117896615e-02 0.0 
8.978588135562e-03 8.658626321437e-02 0.0 
9.463905967564e-03 8.311348559828e-02 0.0 
7.148982092755e-03 8.544358332511e-02 0.0 
7.707473470283e-03 8.238726473155e-02 0.0 
2.408914738165e-02 7.082540060488e-02 0.0 
1.738590371358e-02 4.949909576919e-02 0.0 
1.577045259329e-02 4.252643778532e-02 0.0 
1.741797142997e-02 4.681421360999e-02 0.0 
2.788712632031e-03 7.388146585538e-02 0.0 
3.408655320327e-03 3.527025530160e-02 0.0 
8.196339372521e-03 3.688009573020e-02 0.0 
9.447556210462e-03 3.993696970230e-02 0.0 
1.262970620574e-02 3.776681053912e-02 0.0 
2.040377819330e-03 7.381635242922e-02 0.0 
1.025557396524e-02 9.208730780903e-02 0.0 
1.224313000467e-02 9.371331930886e-02 0.0 
1.392162574883e-02 7.630108200956e-02 0.0 
1.323071262273e-02 8.436439001074e-02 0.0 
8.304762776948e-03 3.366726077079e-02 0.0 
1.855695543286e-03 7.299429969490e-02 0.0 
5.752930158385e-03 3.424129038442e-02 0.0 
6.350417521421e-03 8.891492520116e-02 0.0 
3.033055740603e-03 3.848260899910e-02 0.0 
2.642178200783e-03 3.256274510191e-02 0.0 
6.432110893739e-03 4.816979760837e-02 0.0 
1.542750964934e-02 3.933813940299e-02 0.0 
1.719737463548e-02 4.393831248517e-02 0.0 
9.755674534844e-03 8.000254701441e-02 0.0 
8.075825496906e-03 7.966159640485e-02 0.0 
6.057860845543e-03 8.173668859683e-02 0.0 
6.557814745911e-03 7.926418951746e-02 0.0 
8.283268102296e-03 7.716858149309e-02 0.0 
6.802597377462e-03 7.718488944780e-02 0.0 
5.130462992714e-03 7.903115069987e-02 0.0 
5.448710860000e-03 7.723625561699e-02 0.0 
6.917013445191e-03 7.524128983423e-02 0.0 
5.637755918707e-03 7.555718150271e-02 0.0 
4.237718804028e-03 7.733581856342e-02 0.0 
4.492723222096e-03 7.588665246501e-02 0.0 
2.887763165533e-03 2.906143277285e-02 0.0 
4.557127569221e-03 8.742178006374e-02 0.0 
2.476263818751e-02 1.034979787103e-01 0.0 
7.033268059027e-03 3.049537173552e-02 0.0 
1.240576406715e-02 3.458301397595e-02 0.0 
1.188952836414e-02 6.846769673029e-02 0.0 
1.136065063022e-02 7.639167349951e-02 0.0 
1.233051291103e-02 9.238327198344e-02 0.0 
1.063482865075e-02 8.423459402266e-02 0.0 
9.511642928835e-03 6.800349733385e-02 0.0 
8.962870632509e-03 7.576294839999e-02 0.0 
9.777499836979e-03 9.196094781357e-02 0.0 
8.275832002134e-03 8.341062886985e-02 0.0 
8.845886672255e-03 9.951869612266e-02 0.0 
7.499301536441e-03 9.091884525592e-02 0.0 
6.821397781486e-03 7.461624291848e-02 0.0 
6.190136288140e-03 8.212962177071e-02 0.0 
6.671130793585e-03 9.829531480286e-02 0.0 
5.485846969073e-03 8.952758888408e-02 0.0 
5.815596627691e-03 1.055299774409e-01 0.0 
4.731049054421e-03 9.680702779256e-02 0.0 
4.358291962497e-03 8.061509999465e-02 0.0 
1.531605267877e-03 7.453292680917e-02 0.0 
1.263902486279e-02 4.082239109588e-02 0.0 
1.103869913982e-02 3.413186703045e-02 0.0 
2.711004605235e-03 6.601308056126e-02 0.0 
2.894481182899e-03 6.292983226427e-02 0.0 
3.595701613267e-03 6.109928153695e-02 0.0 
2.965200149609e-03 5.946053256319e-02 0.0 
3.684270030099e-03 8.802869085314e-02 0.0 
3.310481323112e-03 7.159229349789e-02 0.0 
9.375135326700e-03 9.690357261441e-02 0.0 
1.137680668811e-02 9.900133583861e-02 0.0 
1.215951112482e-02 6.051204504144e-02 0.0 
2.294488689220e-03 3.591206400371e-02 0.0 
2.579484837301e-03 4.155631832685e-02 0.0 
2.286685937444e-02 9.367402289914e-02 0.0 
2.262974179092e-02 1.005234988219e-01 0.0 
2.131692991506e-02 9.993329938608e-02 0.0 
2.064229872751e-02 1.071387571012e-01 0.0 
2.203828643207e-02 1.079325460768e-01 0.0 
1.909552330341e-02 1.059520925704e-01 0.0 
1.029181601720e-02 4.570813452719e-02 0.0 
5.445807514604e-03 6.563658391882e-02 0.0 
3.544985840167e-03 7.308720163629e-02 0.0 
2.813077533149e-03 7.479950522718e-02 0.0 
1.945468598157e-03 2.978292864393e-02 0.0 
1.383139201602e-02 4.699141291032e-02 0.0 
2.394740046349e-02 6.853841117671e-02 0.0 
2.287657364706e-02 6.239431070345e-02 0.0 
2.236283531780e-02 5.946987127160e-02 0.0 
2.101251274187e-02 5.351942918207e-02 0.0 
2.009821318028e-02 4.995625191032e-02 0.0 
1.847929823489e-02 4.419414879655e-02 0.0 
1.947054934397e-02 4.791313837139e-02 0.0 
1.476145054277e-02 3.577730081908e-02 0.0 
1.669110401486e-02 3.871657753843e-02 0.0 
4.005558539539e-03 1.041186506870e-01 0.0 
1.888088937461e-02 5.386286947873e-02 0.0 
6.898935620473e-03 7.343466178664e-02 0.0 
1.631793647240e-03 7.520352086998e-02 0.0 
3.154557812335e-03 7.749666236975e-02 0.0 
1.341776128778e-03 7.387243086869e-02 0.0 
1.597847762801e-03 7.213049411232e-02 0.0 
6.873253501782e-03 2.691406308487e-02 0.0 
1.713460441471e-02 3.998979729901e-02 0.0 
1.883614467674e-02 4.590650207122e-02 0.0 
1.960383627700e-02 1.149282597507e-01 0.0 
2.106763605687e-02 1.158983426673e-01 0.0 
1.288324393157e-02 3.134612373703e-02 0.0 
1.562062079184e-02 1.073063197295e-01 0.0 
1.019673659754e-02 1.078882538781e-01 0.0 
9.091348844500e-03 1.153016426346e-01 0.0 
1.086362170100e-03 7.535034261357e-02 0.0 
2.774295473133e-03 7.875733324697e-02 0.0 
7.729159874749e-03 5.930283537448e-02 0.0 
1.418146312922e-02 9.534850713171e-02 0.0 
1.335327093727e-02 1.010494322557e-01 0.0 
3.440077939572e-03 9.088128521855e-02 0.0 
1.722707519949e-03 8.905147301329e-02 0.0 
2.753721352441e-03 7.889142892311e-02 0.0 
2.391053784002e-03 6.243836376760e-02 0.0 
3.671420482796e-03 5.739636715906e-02 0.0 
2.985916966610e-03 5.557588502368e-02 0.0 
8.222846992103e-03 3.024319329474e-02 0.0 
3.494079356235e-03 7.621357339367e-02 0.0 
2.775290131325e-03 5.486301433605e-02 0.0 
1.242797869806e-02 4.364832130115e-02 0.0 
1.333196188317e-02 4.942860487573e-02 0.0 
2.276114413333e-03 6.142758869643e-02 0.0 
8.168544337725e-03 1.022914103547e-01 0.0 
6.164725806972e-03 9.973471542626e-02 0.0 
8.210345008900e-03 7.287646951145e-02 0.0 
4.608711041143e-03 7.452730070009e-02 0.0 
1.095780560186e-03 7.312131004988e-02 0.0 
6.489679102886e-03 2.311380918909e-02 0.0 
7.913610321239e-03 5.153352388195e-02 0.0 
1.778193538906e-02 4.262876442637e-02 0.0 
2.013428216126e-02 5.123512329076e-02 0.0 
1.477999666900e-02 3.353592144765e-02 0.0 
2.331420018502e-03 7.756200306136e-02 0.0 
5.605452063294e-03 2.358101629664e-02 0.0 
1.617895973741e-03 3.327022500674e-02 0.0 
1.559030504702e-02 3.579622507642e-02 0.0 
1.722437484972e-02 4.135587126102e-02 0.0 
1.604712324788e-02 9.691215784503e-02 0.0 
1.533112475120e-02 1.029661589766e-01 0.0 
1.221429159536e-02 1.073595437705e-01 0.0 
1.421724380195e-02 1.096618945198e-01 0.0 
2.333291973280e-02 1.095335387695e-01 0.0 
1.786501608699e-02 9.828860103110e-02 0.0 
2.508640767883e-02 1.056352483849e-01 0.0 
2.430133789099e-02 1.144048968423e-01 0.0 
2.426268540313e-02 1.158434346567e-01 0.0 
2.317415808938e-02 1.084229364013e-01 0.0 
2.226763316974e-02 1.166059671323e-01 0.0 
1.676162181175e-02 8.623620469781e-02 0.0 
1.909481333433e-02 6.201161502876e-02 0.0 
4.344992481356e-03 5.916371507494e-02 0.0 
4.943816199721e-03 4.846891946920e-02 0.0 
1.005135651677e-02 5.307751105120e-02 0.0 
5.823129881101e-03 5.801460043108e-02 0.0 
4.421553300887e-03 4.884565543509e-02 0.0 
6.922816599570e-03 1.141039958739e-01 0.0 
5.971947810266e-03 1.211561231877e-01 0.0 
2.151903629875e-03 7.538599548593e-02 0.0 
2.061696391833e-03 7.616351081649e-02 0.0 
7.483127953989e-03 5.500709026195e-02 0.0 
5.836103851303e-03 2.732847240553e-02 0.0 
9.977778848771e-03 5.234172405709e-02 0.0 
9.781348976702e-03 4.449952203176e-02 0.0 
1.211536962817e-02 5.256388079301e-02 0.0 
7.916056606552e-03 2.659037714790e-02 0.0 
1.480429671263e-02 7.745316109279e-02 0.0 
1.588552477919e-02 5.606059671748e-02 0.0 
2.916153681252e-03 8.610521954624e-02 0.0 
2.297307843599e-02 6.694781771386e-02 0.0 
1.519466512364e-03 7.653796450046e-02 0.0 
2.255147425838e-02 6.572903899934e-02 0.0 
1.328675555531e-03 2.692899743025e-02 0.0 
1.536423192663e-03 2.315223754757e-02 0.0 
1.179541662194e-02 2.729956409810e-02 0.0 
2.126199725731e-02 1.309072627553e-01 0.0 
2.181809255498e-02 6.156116736175e-02 0.0 
2.150851856947e-02 6.350110544213e-02 0.0 
2.308181683345e-02 1.248942715884e-01 0.0 
2.268020426534e-02 1.256481867606e-01 0.0 
2.390309684485e-02 1.166809973118e-01 0.0 
2.196218544325e-02 1.258896565000e-01 0.0 
7.984613696413e-03 7.097301229389e-02 0.0 
6.756316894364e-03 7.176124180232e-02 0.0 
1.333176478010e-02 2.925550976490e-02 0.0 
1.335165361191e-02 2.934942264447e-02 0.0 
1.363162219855e-02 3.088890601023e-02 0.0 
1.525015712324e-02 3.619802832232e-02 0.0 
9.799323409723e-03 2.285086327848e-02 0.0 
1.098605831617e-02 2.706354434215e-02 0.0 
1.271730856009e-03 7.121342953639e-02 0.0 
1.973172085380e-02 1.243073737090e-01 0.0 
6.063263076499e-03 4.258468777054e-02 0.0 
2.314652340266e-02 1.235568740657e-01 0.0 
4.471250271882e-03 2.042892256002e-02 0.0 
4.731157503528e-03 2.415507346549e-02 0.0 
2.096818780295e-04 8.746173723983e-02 0.0 
1.486472688171e-03 8.468841283233e-02 0.0 
1.905765914294e-03 4.590872066633e-02 0.0 
1.074627690434e-02 1.141949575748e-01 0.0 
1.267780076009e-02 1.168917007457e-01 0.0 
8.743003257759e-03 1.112410156163e-01 0.0 
1.996261202850e-04 1.216565975338e-02 0.0 
1.580179607110e-03 1.497282815524e-01 0.0 
9.947246507958e-04 2.008814863273e-02 0.0 
2.409923409538e-02 1.085234282305e-01 0.0 
2.073889688070e-03 3.753520266342e-02 0.0 
2.052168710082e-02 5.655976520517e-02 0.0 
2.154841493191e-02 9.347130172499e-02 0.0 
9.643391883317e-03 3.360165203100e-02 0.0 
1.533750576840e-03 5.493405680864e-02 0.0 
1.149485044110e-03 3.613138426873e-02 0.0 
1.024239208088e-02 1.232276273999e-01 0.0 
9.077411584187e-03 1.307072106303e-01 0.0 
1.151718140226e-02 1.159555112164e-01 0.0 
5.353205282528e-03 9.284011220988e-02 0.0 
1.744429868829e-03 9.542649420832e-02 0.0 
4.178821041720e-03 5.649997544512e-02 0.0 
2.469301425247e-03 6.871598436268e-02 0.0 
2.019020182441e-03 6.724031998924e-02 0.0 
3.616981507255e-03 7.512594320546e-02 0.0 
4.574900533028e-03 7.329326091848e-02 0.0 
4.388262939141e-03 5.524803874626e-02 0.0 
5.114254959790e-03 5.714331642158e-02 0.0 
2.158435234172e-02 5.875240691426e-02 0.0 
2.016588119144e-02 5.455843073130e-02 0.0 
2.349464633373e-02 6.582999614168e-02 0.0 
1.202786784093e-02 4.627433115418e-02 0.0 
1.267690627686e-02 5.169252744372e-02 0.0 
1.387426557434e-02 5.470927623914e-02 0.0 
4.547509901514e-03 4.167751648845e-02 0.0 
3.046569299109e-03 3.092615173125e-02 0.0 
9.279707638678e-03 7.022341014261e-02 0.0 
9.598033265814e-03 7.235610075479e-02 0.0 
7.640082376463e-03 6.925031612222e-02 0.0 
5.868481392746e-03 3.512295521507e-02 0.0 
1.099744878313e-03 1.622117389076e-02 0.0 
1.637645099689e-03 1.949141653528e-02 0.0 
1.338686892657e-03 7.715506381282e-02 0.0 
1.871565941576e-03 7.694268413857e-02 0.0 
4.681990734262e-03 1.051358862661e-01 0.0 
2.641091886449e-03 1.022218697705e-01 0.0 
9.367979537259e-03 3.733383109791e-02 0.0 
1.174241949754e-02 4.482507411359e-02 0.0 
6.785481073507e-03 2.832460777402e-02 0.0 
7.736268074854e-04 7.241635184998e-02 0.0 
1.851393889718e-02 4.601071302010e-02 0.0 
6.013719875845e-03 1.948239937862e-02 0.0 
7.530441799311e-03 2.314111876536e-02 0.0 
4.358629785392e-03 1.495966022951e-02 0.0 
1.386028047859e-02 3.216670578026e-02 0.0 
1.049449119567e-02 2.330691453609e-02 0.0 
1.109051260342e-02 2.395177116179e-02 0.0 
-1.242012190797e-03 9.024809434077e-02 0.0 
8.584640022562e-04 4.320448034013e-02 0.0 
6.985058511852e-03 1.295393079761e-01 0.0 
-2.195653521458e-03 8.864916931640e-02 0.0 
5.980095639558e-03 1.369238541622e-01 0.0 
5.067165324981e-03 1.281786364115e-01 0.0 
5.142580079585e-03 1.441047806708e-01 0.0 
6.714710930651e-04 7.401637675326e-02 0.0 
1.132286470514e-02 1.336092088259e-01 0.0 
1.284505019775e-02 1.242504427613e-01 0.0 
8.804405666414e-04 7.795060212954e-02 0.0 
3.997890222678e-03 2.614934215045e-02 0.0 
9.653207997937e-04 7.729609531106e-02 0.0 
1.133514173529e-03 7.681269803338e-02 0.0 
3.411270366890e-03 1.698448071992e-02 0.0 
3.720382451871e-03 2.092281727769e-02 0.0 
2.468281997174e-03 1.365903687957e-02 0.0 
2.877154215921e-03 1.804289436740e-02 0.0 
3.875944089613e-03 2.483139486032e-02 0.0 
3.005139488316e-03 2.171327346627e-02 0.0 
8.019839445829e-03 1.390275345320e-01 0.0 
1.965050054404e-03 1.368631997415e-02 0.0 
2.218584267952e-03 1.838519348193e-02 0.0 
1.289335353219e-03 1.053404550208e-02 0.0 
2.030512889641e-02 1.352939454823e-01 0.0 
1.595630070883e-02 1.118791834421e-01 0.0 
1.441932843800e-02 1.195925993994e-01 0.0 
1.057553644923e-02 1.251350208201e-01 0.0 
1.039846208758e-02 2.298101441388e-02 0.0 
1.316088687412e-02 3.112475968236e-02 0.0 
1.006756303320e-03 3.041745925999e-02 0.0 
1.154798238890e-03 3.648074159161e-02 0.0 
4.154534473543e-03 1.362132473050e-01 0.0 
3.043377272554e-03 1.368178818711e-01 0.0 
3.363661355372e-03 1.229570446242e-01 0.0 
2.426205503312e-03 1.246367366047e-01 0.0 
2.643671387439e-03 1.107449804088e-01 0.0 
1.698149130604e-03 1.125154471867e-01 0.0 
2.042450900468e-03 9.833588361205e-02 0.0 
9.226665263618e-03 1.927469033951e-02 0.0 
6.725883013299e-03 1.179780841088e-01 0.0 
2.149194199253e-02 1.344783316328e-01 0.0 
7.800237933324e-03 1.851984230191e-02 0.0 
9.360620250831e-03 2.361400508079e-02 0.0 
2.096986336794e-02 1.252681525486e-01 0.0 
1.788361627624e-02 1.334577531738e-01 0.0 
3.709995157847e-03 1.524582706436e-02 0.0 
1.825860320499e-02 9.241321954754e-02 0.0 
3.040650900289e-03 1.658080743030e-02 0.0 
-6.208951941431e-03 9.866953015076e-02 0.0 
-2.323880983088e-03 9.628670447185e-02 0.0 
1.991419687608e-02 9.322409744879e-02 0.0 
2.323556829684e-02 1.169323589443e-01 0.0 
1.780478963963e-02 1.136575422844e-01 0.0 
1.656682497557e-02 1.215373675085e-01 0.0 
1.103238079511e-02 4.030401426094e-02 0.0 
1.529557838085e-03 7.778766212976e-02 0.0 
6.720653674066e-03 1.081734934273e-01 0.0 
2.982427108648e-03 9.675452431802e-02 0.0 
2.812221958301e-03 1.108461857446e-01 0.0 
5.283136188160e-04 3.321576281913e-02 0.0 
1.845323628796e-02 8.687236015180e-02 0.0 
2.459509069497e-02 1.006385675592e-01 0.0 
1.021258297300e-02 1.048202553983e-01 0.0 
1.735832489301e-02 1.045575956381e-01 0.0 
2.410992420282e-02 1.007011447174e-01 0.0 
2.219207489232e-02 1.186026718925e-01 0.0 
2.279138357144e-02 1.216870360263e-01 0.0 
1.834756583061e-02 8.187967096386e-02 0.0 
1.828286460396e-02 1.230678961099e-01 0.0 
1.466530903572e-02 1.304398171941e-01 0.0 
2.550680102559e-02 9.731095786122e-02 0.0 
1.442827639210e-02 6.010159874887e-02 0.0 
1.414672344914e-02 5.214024044255e-02 0.0 
1.108279519196e-02 3.765668342430e-02 0.0 
1.350542964518e-02 4.452279571046e-02 0.0 
1.646238503351e-02 5.898393755440e-02 0.0 
1.589999634461e-02 5.123107557339e-02 0.0 
1.251657513036e-02 3.734840978373e-02 0.0 
1.498015753381e-02 4.380831186061e-02 0.0 
1.028620785832e-02 2.755934803242e-02 0.0 
1.360130492581e-02 3.642983031437e-02 0.0 
1.729339628260e-02 5.009444678745e-02 0.0 
1.615926626746e-02 4.325231965515e-02 0.0 
1.251076762692e-02 3.131297390016e-02 0.0 
1.946934664584e-02 5.649614842871e-02 0.0 
6.260451488401e-03 1.410039592547e-02 0.0 
2.151255846438e-02 8.746896538774e-02 0.0 
2.491062686865e-04 9.252431604575e-02 0.0 
-7.733594580976e-04 9.929169741503e-02 0.0 
2.520720505769e-02 1.000343854923e-01 0.0 
5.202472568051e-03 1.350587520992e-02 0.0 
4.559764682377e-03 1.394614324386e-02 0.0 
1.470748140976e-02 9.017903122636e-02 0.0 
5.255666877428e-03 1.083122508243e-02 0.0 
2.397212532135e-02 1.123884078907e-01 0.0 
8.257556519116e-03 9.050686651959e-02 0.0 
5.098390574769e-03 1.020844598530e-02 0.0 
1.664815932286e-02 6.697648424952e-02 0.0 
1.872693442591e-02 7.353919138202e-02 0.0 
1.845308588977e-02 8.181159606569e-02 0.0 
3.652394267483e-03 1.346277333174e-02 0.0 
1.281015402572e-02 1.082715256220e-01 0.0 
4.083804867577e-03 8.470421156179e-03 0.0 
1.849176368865e-02 5.599359937679e-02 0.0 
1.980052953834e-02 6.043239471968e-02 0.0 
2.017950864051e-02 6.644637786742e-02 0.0 
1.815681456211e-02 5.776565321401e-02 0.0 
3.365834946813e-03 8.153585763001e-03 0.0 
5.994970079556e-03 1.540262380938e-02 0.0 
5.526257736577e-03 1.511295788299e-02 0.0 
8.284050802786e-03 2.267693049118e-02 0.0 
2.842466927092e-03 7.817307500403e-03 0.0 
4.992538993914e-03 1.145906158567e-02 0.0 
4.819300244602e-03 1.055643949320e-02 0.0 
8.312471612491e-03 7.494223662070e-02 0.0 
9.804431695217e-03 7.465450449421e-02 0.0 
1.104402423988e-02 7.183578912070e-02 0.0 
1.134774183763e-02 7.441513143484e-02 0.0 
9.862173599950e-03 7.720232433177e-02 0.0 
1.149759710803e-02 7.726228408646e-02 0.0 
1.290515365969e-02 7.420706264449e-02 0.0 
1.147525082845e-02 8.042517983409e-02 0.0 
1.696806451866e-02 4.281525517771e-02 0.0 
2.284539811500e-03 7.304570268925e-03 0.0 
9.709065966721e-03 4.816705390341e-02 0.0 
1.082436839572e-02 5.094326555691e-02 0.0 
1.105670833507e-02 5.568236266833e-02 0.0 
4.994968329594e-03 6.089536997538e-02 0.0 
5.822665208030e-03 5.901817260861e-02 0.0 
5.883337784555e-03 5.502123608911e-02 0.0 
4.189152143376e-03 6.269848780170e-02 0.0 
2.159522438204e-02 5.663960877352e-02 0.0 
2.063142221189e-03 7.271850972902e-03 0.0 
1.462879748197e-02 5.266392579821e-02 0.0 
6.507603478981e-03 6.087509531880e-02 0.0 
1.410868237828e-02 1.456983066834e-01 0.0 
1.586421113992e-02 1.319217711484e-01 0.0 
1.757512549989e-02 1.292222483577e-01 0.0 
1.719658468567e-02 1.159103477006e-01 0.0 
1.410739216927e-02 1.321469219900e-01 0.0 
3.656846240889e-03 5.329665279813e-02 0.0 
2.928966218730e-03 5.129375103032e-02 0.0 
2.292806611722e-03 5.370250023234e-02 0.0 
2.211238458768e-03 4.923040184331e-02 0.0 
1.601047254136e-03 5.175255223302e-02 0.0 
1.661522323706e-03 5.589937672015e-02 0.0 
1.495915317677e-03 4.709895472812e-02 0.0 
9.256091916796e-04 5.026553533123e-02 0.0 
1.142010007090e-02 1.482099057777e-01 0.0 
-2.180568785992e-03 8.386966993073e-02 0.0 
-2.122117662982e-04 8.250877443907e-02 0.0 
5.285817356615e-05 8.113643446716e-02 0.0 
1.374398338891e-03 8.109081429536e-02 0.0 
1.416279022386e-03 8.249483542690e-02 0.0 
3.214183029213e-03 8.062439720329e-02 0.0 
3.090134351643e-03 8.240926379464e-02 0.0 
-5.511118262760e-04 8.430736532525e-02 0.0 
-1.044325762892e-03 8.103978100271e-02 0.0 
3.170496312723e-04 8.006129919467e-02 0.0 
-6.068692448373e-04 8.005084918211e-02 0.0 
4.766827883795e-04 7.923909882441e-02 0.0 
1.682301104434e-03 7.881998920372e-02 0.0 
2.765883024404e-03 7.568032496587e-02 0.0 
5.640396310831e-04 8.173678899620e-03 0.0 
6.116750876899e-04 6.136712011874e-02 0.0 
1.166895457537e-03 6.306816294245e-02 0.0 
1.078594362711e-03 6.602842912918e-02 0.0 
1.729618034924e-03 6.449913319038e-02 0.0 
1.168775364145e-03 5.993837112509e-02 0.0 
5.148689432687e-04 6.748126464959e-02 0.0 
9.777826112163e-04 6.840541644370e-02 0.0 
2.950567616407e-04 7.705911399242e-02 0.0 
3.254868341651e-04 7.675069318830e-02 0.0 
1.376917940905e-04 7.677099108144e-02 0.0 
3.337711173172e-04 7.615867684173e-02 0.0 
5.393479072344e-04 7.621146075260e-02 0.0 
4.836007922915e-04 7.678746949844e-02 0.0 
6.203480983955e-04 7.686430595554e-02 0.0 
4.550431832895e-04 7.722791088901e-02 0.0 
7.322011272057e-04 7.697501710495e-02 0.0 
9.454499937043e-04 7.630759860986e-02 0.0 
4.817201113898e-04 7.736856092304e-02 0.0 
6.671939588330e-04 7.713673094932e-02 0.0 
1.282212222442e-03 6.896944056833e-02 0.0 
1.757185871112e-03 7.584278497980e-03 0.0 
9.034292323030e-03 1.480051061078e-01 0.0 
3.850327767729e-05 7.867015539928e-02 0.0 
1.096406225770e-03 1.813148856818e-02 0.0 
1.727052054186e-03 1.497217365245e-02 0.0 
1.379159496011e-03 1.453647796158e-02 0.0 
3.302319752321e-04 1.979887140547e-02 0.0 
5.357727498465e-04 1.628460569344e-02 0.0 
5.858177147431e-04 1.764430554817e-02 0.0 
4.207203632469e-03 7.101865467140e-02 0.0 
1.007727648511e-02 3.084864898763e-02 0.0 
3.044493919560e-03 4.719780332718e-02 0.0 
7.359662629771e-03 9.483286911771e-02 0.0 
5.616785474416e-03 7.253807807499e-02 0.0 
1.834963057744e-03 3.907067026469e-02 0.0 
5.529432204285e-03 4.581243761305e-02 0.0 
2.170759251705e-03 2.620233847520e-02 0.0 
3.333934827339e-03 4.392397855628e-02 0.0 
3.686020207271e-03 3.191457458214e-02 0.0 
5.199725046321e-03 1.533757738229e-02 0.0 
9.302196515506e-04 7.461074345218e-02 0.0 
7.884328693791e-03 1.068946078751e-01 0.0 
4.993249827045e-03 1.126972213193e-01 0.0 
4.948426283754e-03 7.317736184395e-02 0.0 
2.842460297390e-03 6.985111567414e-02 0.0 
2.337912157877e-03 5.756214368696e-02 0.0 
2.148102328852e-03 7.459827635023e-02 0.0 
9.305858850375e-03 1.955205746691e-02 0.0 
2.506720399924e-02 1.072277029383e-01 0.0 
1.012067187682e-02 5.754610510624e-02 0.0 
4.749753593992e-03 6.425802029800e-02 0.0 
5.130087596060e-03 6.992278864876e-02 0.0 
5.693215292652e-03 7.398850486823e-02 0.0 
2.278380357276e-02 8.738131426248e-02 0.0 
7.417210082641e-03 5.906292804347e-02 0.0 
6.811915192531e-03 3.709347910304e-02 0.0 
3.800642792740e-03 6.408865177729e-02 0.0 
4.399688413024e-04 7.779029930284e-02 0.0 
7.003578812789e-03 3.388337339934e-02 0.0 
7.353070225498e-03 5.050790563993e-02 0.0 
1.129755245634e-02 1.002578131917e-01 0.0 
1.408390208541e-02 3.844439756091e-02 0.0 
3.897487297072e-03 7.880059467170e-02 0.0 
7.350965351208e-03 6.702537535730e-02 0.0 
7.624231534486e-03 3.698996847410e-02 0.0 
1.423039255670e-02 1.158156226905e-01 0.0 
1.604989328655e-03 7.590570376426e-02 0.0 
8.036302284950e-03 1.227321239736e-01 0.0 
5.152723510834e-03 1.961489429531e-02 0.0 
1.433695519957e-02 6.815983458772e-02 0.0 
2.180770018174e-03 7.103804278747e-02 0.0 
1.612718186187e-02 6.119066059066e-02 0.0 
2.476336282172e-02 9.325781108321e-02 0.0 
1.964877997537e-02 1.429249228352e-01 0.0 
3.192894138785e-03 4.010243418211e-02 0.0 
2.196710790010e-02 7.003635257574e-02 0.0 
1.070238842611e-02 3.064501820059e-02 0.0 
1.522543484115e-02 5.044992784614e-02 0.0 
1.842811598194e-03 6.997434978146e-02 0.0 
4.828829134317e-03 2.784560731538e-02 0.0 
1.919592683193e-02 6.756000308472e-02 0.0 
6.055701895129e-03 5.042592887809e-02 0.0 
2.151743138474e-02 5.607410040927e-02 0.0 
1.599105349799e-02 7.363405575070e-02 0.0 
9.868527402936e-03 6.019077367511e-02 0.0 
1.203461983926e-02 5.832537671044e-02 0.0 
1.364015432182e-02 3.505578585479e-02 0.0 
2.473973039626e-02 1.081223017264e-01 0.0 
2.477375670951e-02 7.508271211610e-02 0.0 
2.320671669409e-02 7.304381641110e-02 0.0 
2.393072230605e-02 7.267110556772e-02 0.0 
1.252185925227e-03 4.211768753464e-02 0.0 
5.877117413903e-03 3.087900076615e-02 0.0 
5.443347222528e-03 8.444642082280e-02 0.0 
1.973006449301e-02 9.920010848954e-02 0.0 
1.400749363191e-02 1.000931389125e-01 0.0 
1.536551484612e-02 3.471277017542e-02 0.0 
4.360355437221e-03 3.345166462004e-02 0.0 
2.373212108843e-02 1.007685303532e-01 0.0 
4.763596777709e-03 3.137303104083e-02 0.0 
7.903590343112e-03 4.425445840234e-02 0.0 
6.658158404871e-03 5.705895493654e-02 0.0 
3.230045331225e-04 7.380702721550e-02 0.0 
4.209656038064e-03 9.724856295080e-02 0.0 
1.322915188960e-02 8.086797290382e-02 0.0 
2.111456686904e-02 7.113374345952e-02 0.0 
6.635385813825e-03 5.283060958839e-02 0.0 
8.163281551340e-03 2.821409671161e-02 0.0 
3.848534710718e-03 2.845569654358e-02 0.0 
9.635051251069e-03 3.687866428731e-02 0.0 
-3.177294534872e-03 1.089382478145e-01 0.0 
2.162726349507e-02 1.329067559741e-01 0.0 
3.015560743004e-03 2.547511219922e-02 0.0 
1.503319282399e-02 5.786234963096e-02 0.0 
1.186804577205e-02 3.102432366093e-02 0.0 
1.005865754135e-03 5.422114696159e-02 0.0 
9.166941303221e-03 1.913029753781e-02 0.0 
1.931688520107e-02 1.342971893181e-01 0.0 
2.269997321901e-03 2.242498194519e-02 0.0 
1.114548258469e-02 3.731138203483e-02 0.0 
1.654304017554e-02 9.131558090071e-02 0.0 
2.602112336184e-03 1.497366930406e-01 0.0 
1.431452087868e-03 1.409674849837e-02 0.0 
9.410912902435e-03 3.010752740874e-02 0.0 
2.307609913973e-02 6.488717481853e-02 0.0 
1.404773461899e-02 5.950743336833e-02 0.0 
1.898568760920e-02 1.453987729497e-01 0.0 
5.785243756049e-03 5.064315440786e-02 0.0 
2.436418043468e-02 7.253169430082e-02 0.0 
3.203449592014e-03 1.331573529957e-02 0.0 
9.098593287106e-03 2.696114755862e-02 0.0 
2.027398050334e-02 8.801673382800e-02 0.0 
5.099512841012e-03 5.300869100461e-02 0.0 
1.905523431157e-02 5.166465128019e-02 0.0 
7.444460291741e-04 7.625580599633e-02 0.0 
2.106188922887e-02 1.351601497670e-01 0.0 
4.314972492935e-03 5.094008448438e-02 0.0 
1.314656698234e-02 7.738313109635e-02 0.0 
1.299833738194e-02 5.658495033050e-02 0.0 
8.470803200588e-03 1.882687720483e-02 0.0 
3.544456945946e-03 4.881616273687e-02 0.0 
1.446344831232e-02 7.394308256527e-02 0.0 
2.792893728016e-03 4.663566795248e-02 0.0 
1.710542354416e-02 1.448772134771e-01 0.0 
2.058299441469e-02 7.938170258853e-02 0.0 
2.039142973013e-03 4.438751577681e-02 0.0 
2.270567686130e-02 6.255543649205e-02 0.0 
1.147727728364e-03 7.637651837833e-02 0.0 
2.186242290853e-02 5.934581367905e-02 0.0 
7.793972528625e-04 2.354105302531e-02 0.0 
7.205894191600e-03 6.759553145771e-02 0.0 
1.192643937119e-02 5.378531062609e-02 0.0 
1.862000240047e-02 6.547659227752e-02 0.0 
1.430619645545e-02 1.426932081392e-01 0.0 
1.149788966526e-02 4.870986503809e-02 0.0 
2.034481682401e-02 5.220602036953e-02 0.0 
2.048854484638e-02 5.413107657023e-02 0.0 
2.096035786507e-02 6.510780611936e-02 0.0 
1.073449370206e-02 4.307201383043e-02 0.0 
1.657527388578e-02 1.317174661644e-01 0.0 
4.384128942819e-03 7.222676922224e-02 0.0 
3.620858163767e-03 7.409697600268e-02 0.0 
1.396780861823e-02 7.075164994162e-02 0.0 
1.881361487077e-02 4.774777061218e-02 0.0 
5.846548206963e-04 7.538295048153e-02 0.0 
2.015308142798e-02 6.358768303814e-02 0.0 
2.597570885207e-03 7.661130601527e-02 0.0 
1.250969298460e-02 7.131449453980e-02 0.0 
1.659452081929e-02 4.043671419899e-02 0.0 
7.725827727398e-04 1.085589357190e-01 0.0 
1.199006766736e-02 6.864564242729e-02 0.0 
3.763212846081e-04 7.204284649280e-02 0.0 
1.062553043388e-02 6.946198877294e-02 0.0 
2.027268789253e-02 5.859059988690e-02 0.0 
1.011289516190e-02 6.720814716528e-02 0.0 
8.858951724854e-03 6.823473658993e-02 0.0 
2.141811989937e-03 3.076021936640e-02 0.0 
8.353541438032e-03 6.633847422238e-02 0.0 
2.878919393652e-04 1.462608593391e-02 0.0 
2.342021384381e-04 7.432067208487e-03 0.0 
9.872319634141e-04 1.386096319301e-01 0.0 
1.047453884907e-02 1.398244406026e-01 0.0 
-4.584020087812e-03 9.117657319850e-02 0.0 
1.331011194072e-02 1.263815668203e-01 0.0 
6.492285074847e-03 7.024604962201e-02 0.0 
2.118674228310e-02 6.152520566656e-02 0.0 
2.052800227865e-03 1.379396126449e-01 0.0 
5.403335869506e-03 7.122637689160e-02 0.0 
9.418947154170e-03 2.333596915347e-02 0.0 
4.447164368493e-03 8.907158544059e-03 0.0 
1.428048024756e-03 8.436098311011e-02 0.0 
1.024987600977e-02 2.748552297932e-02 0.0 
1.890282386204e-02 4.888331484121e-02 0.0 
4.238916856423e-04 4.489562756004e-02 0.0 
5.915390475579e-03 1.508728648239e-01 0.0 
6.181887487831e-04 7.858565442367e-02 0.0 
6.019260263563e-04 3.917418997858e-02 0.0 
6.813969397477e-03 1.336510523146e-01 0.0 
8.529360556270e-03 1.215025838651e-01 0.0 
4.634482731724e-03 1.144860616759e-01 0.0 
1.428959378079e-03 6.909198844722e-02 0.0 
1.401630521654e-03 7.993580451999e-02 0.0 
4.055393340970e-03 1.253899682733e-01 0.0 
6.586342248816e-03 1.619109246513e-02 0.0 
9.996631940844e-03 1.371254699056e-01 0.0 
1.601168151128e-02 3.765717045971e-02 0.0 
3.593738599577e-04 1.172524781865e-01 0.0 
5.546111829076e-03 2.880467597598e-02 0.0 
8.469849985421e-03 1.798356947141e-02 0.0 
1.214602231860e-03 6.613706653592e-03 0.0 
1.263363951837e-02 2.821418121307e-02 0.0 
7.632577704015e-04 1.072555111656e-01 0.0 
1.549759083331e-02 1.207979502108e-01 0.0 
9.389688430606e-03 2.004597782646e-02 0.0 
1.962696053354e-03 7.132509148124e-02 0.0 
8.659857257296e-04 6.308394076644e-03 0.0 
1.252412246190e-02 1.372261585748e-01 0.0 
1.286077509249e-03 2.874241784749e-02 0.0 
3.954829137477e-03 8.360512242466e-02 0.0 
6.446126194319e-04 2.791138990480e-02 0.0 
1.834401426877e-02 4.936408540362e-02 0.0 
4.249210673429e-03 1.197494977520e-01 0.0 
1.871642235736e-02 1.171972271605e-01 0.0 
6.474191035122e-04 1.284025150769e-02 0.0 
8.836302893634e-03 2.496182008196e-02 0.0 
-1.134472628873e-03 1.032860318303e-01 0.0 
2.240875411601e-03 8.600143832795e-02 0.0 
2.333599158076e-03 6.449622277203e-02 0.0 
-1.381552402265e-03 8.650639876471e-02 0.0 
3.059333430086e-03 1.382812229733e-02 0.0 
1.486153545224e-02 3.729030051819e-02 0.0 
1.086738790526e-03 1.312521446337e-02 0.0 
1.428579160233e-04 7.620679805324e-02 0.0 
7.330655770428e-04 7.773527525907e-02 0.0 
3.486235789287e-03 1.300083879447e-02 0.0 
8.969314020842e-03 2.023066860160e-02 0.0 
4.865756675125e-03 8.071254614419e-02 0.0 
1.873248036084e-03 1.162294433747e-02 0.0 
-3.731203348234e-03 1.005704672157e-01 0.0 
7.925185273038e-03 1.522489006496e-01 0.0 
7.768557456753e-04 7.715399235718e-02 0.0 
6.879257711034e-04 6.359644030997e-03 0.0 
3.223320373657e-03 2.732972061071e-02 0.0 
1.642328617296e-03 6.154131848776e-02 0.0 
1.744014453279e-02 1.393000914963e-01 0.0 
8.578304739646e-04 7.062546613676e-02 0.0 
1.211132194626e-02 2.615996788725e-02 0.0 
1.358966351425e-03 7.839558428728e-02 0.0 
2.158627483432e-03 2.591738387297e-02 0.0 
4.138382667552e-03 1.297194815267e-02 0.0 
6.567457057216e-03 2.430427359398e-02 0.0 
2.836803187947e-03 6.249887937020e-03 0.0 
-2.674694303067e-03 9.295121675445e-02 0.0 
7.604582631537e-03 1.581417628842e-02 0.0 
7.154076493553e-03 2.061256510716e-02 0.0 
4.487698408283e-03 1.514915880774e-01 0.0 
7.989305559995e-03 2.520060676599e-02 0.0 
1.497899131437e-03 6.698732573474e-02 0.0 
1.277993866745e-03 7.556613371589e-02 0.0 
1.231633282615e-04 1.296157857761e-02 0.0 
7.647974719382e-05 7.701711002028e-02 0.0 
7.657320102226e-04 1.513950587397e-01 0.0 
9.315716599323e-05 6.060445067071e-03 0.0 
7.733278844846e-04 7.561223772518e-02 0.0 
1.639176718363e-03 1.276172034994e-01 0.0 
8.575980071768e-03 2.007111259099e-02 0.0 
4.364283982344e-04 5.350034210390e-02 0.0 
9.791302790063e-04 5.587415419019e-02 0.0 
2.524548139711e-03 7.978401609080e-02 0.0 
-4.140212381181e-03 8.816738254098e-02 0.0 
1.344878271802e-03 1.007008860442e-01 0.0 
7.322893677227e-03 1.576464838147e-02 0.0 
5.182661426829e-03 2.386779293966e-02 0.0 
3.439489668146e-03 1.113092562055e-01 0.0 
1.617096163510e-03 9.945054538040e-02 0.0 
1.173071500341e-02 2.805400236186e-02 0.0 
1.757638283222e-03 5.881486060322e-02 0.0 
1.238281791246e-02 2.722966419719e-02 0.0 
8.253923655218e-03 2.145160852534e-02 0.0 
-6.560396890595e-03 1.022983072948e-01 0.0 
3.912520016982e-04 4.908805619932e-02 0.0 
7.675513091820e-04 7.734741756086e-02 0.0 
2.003962143236e-03 1.215550066120e-02 0.0 
1.165305605707e-03 5.707511052802e-02 0.0 

VECTORS node_bounda_dof_materi_velocity_x float
1.000000000000e+00 0.0 0.0 
1.000000000000e+00 0.0 0.0 
1.000000000000e+00 0.0 0.0 
1.000000000000e+00 0.0 0.0 
1.000000000000e+00 0.0 0.0 
1.000000000000e+00 0.0 0.0 
1.000000000000e+00 0.0 0.0 
1.000000000000e+00 0.0 0.0 
1.000000000000e+00 0.0 0.0 
1.000000000000e+00 0.0 0.0 
1.000000000000e+00 0.0 0.0 
1.000000000000e+00 0.0 0.0 
1.000000000000e+00 0.0 0.0 
1.000000000000e+00 0.0 0.0 
1.000000000000e+00 0.0 0.0 
1.000000000000e+00 0.0 0.0 
1.000000000000e+00 0.0 0.0 
1.000000000000e+00 0.0 0.0 
1.000000000000e+00 0.0 0.0 
1.000000000000e+00 0.0 0.0 
1.000000000000e+00 0.0 0.0 
1.000000000000e+00 0.0 0.0 
1.000000000000e+00 0.0 0.0 
1.000000000000e+00 0.0 0.0 
1.000000000000e+00 0.0 0.0 
1.000000000000e+00 0.0 0.0 
1.000000000000e+00 0.0 0.0 
1.000000000000e+00 0.0 0.0 
1.000000000000e+00 0.0 0.0 
1.000000000000e+00 0.0 0.0 
1.000000000000e+00 0.0 0.0 
1.000000000000e+00 0.0 0.0 
1.000000000000e+00 0.0 0.0 
1.000000000000e+00 0.0 0.0 
1.000000000000e+00 0.0 0.0 
1.000000000000e+00 0.0 0.0 
1.000000000000e+00 0.0 0.0 
1.000000000000e+00 0.0 0.0 
1.000000000000e+00 0.0 0.0 
1.000000000000e+00 0.0 0.0 
1.000000000000e+00 0.0 0.0 
1.000000000000e+00 0.0 0.0 
1.000000000000e+00 0.0 0.0 
1.000000000000e+00 0.0 0.0 
1.000000000000e+00 0.0 0.0 
1.000000000000e+00 0.0 0.0 
1.000000000000e+00 0.0 0.0 
1.000000000000e+00 0.0 0.0 
1.000000000000e+00 0.0 0.0 
1.000000000000e+00 0.0 0.0 
1.000000000000e+00 0.0 0.0 
1.000000000000e+00 0.0 0.0 
1.000000000000e+00 0.0 0.0 
1.000000000000e+00 0.0 0.0 
1.000000000000e+00 0.0 0.0 
1.000000000000e+00 0.0 0.0 
1.000000000000e+00 0.0 0.0 
1.000000000000e+00 0.0 0.0 
1.000000000000e+00 0.0 0.0 
1.000000000000e+00 0.0 0.0 
1.000000000000e+00 0.0 0.0 
1.000000000000e+00 0.0 0.0 
1.000000000000e+00 0.0 0.0 
1.000000000000e+00 0.0 0.0 
1.000000000000e+00 0.0 0.0 
1.000000000000e+00 0.0 0.0 
1.000000000000e+00 0.0 0.0 
1.000000000000e+00 0.0 0.0 
1.000000000000e+00 0.0 0.0 
1.000000000000e+00 0.0 0.0 
1.000000000000e+00 0.0 0.0 
1.000000000000e+00 0.0 0.0 
1.000000000000e+00 0.0 0.0 
1.000000000000e+00 0.0 0.0 
1.000000000000e+00 0.0 0.0 
1.000000000000e+00 0.0 0.0 
1.000000000000e+00 0.0 0.0 
1.000000000000e+00 0.0 0.0 
1.000000000000e+00 0.0 0.0 
1.000000000000e+00 0.0 0.0 
1.000000000000e+00 0.0 0.0 
0.0 0.0 0.0 
0.0 0.0 0.0 
0.0 0.0 0.0 
0.0 0.0 0.0 
0.0 0.0 0.0 
0.0 0.0 0.0 
0.0 0.0 0.0 
0.0 0.0 0.0 
0.0 0.0 0.0 
0.0 0.0 0.0 
0.0 0.0 0.0 
0.0 0.0 0.0 
0.0 0.0 0.0 
0.0 0.0 0.0 
0.0 0.0 0.0 
0.0 0.0 0.0 
0.0 0.0 0.0 
0.0 0.0 0.0 
0.0 0.0 0.0 
0.0 0.0 0.0 
0.0 0.0 0.0 
0.0 0.0 0.0 
0.0 0.0 0.0 
0.0 0.0 0.0 
0.0 0.0 0.0 
0.0 0.0 0.0 
0.0 0.0 0.0 
0.0 0.0 0.0 
0.0 0.0 0.0 
0.0 0.0 0.0 
0.0 0.0 0.0 
0.0 0.0 0.0 
0.0 0.0 0.0 
0.0 0.0 0.0 
0.0 0.0 0.0 
0.0 0.0 0.0 
0.0 0.0 0.0 
0.0 0.0 0.0 
0.0 0.0 0.0 
0.0 0.0 0.0 
0.0 0.0 0.0 
0.0 0.0 0.0 
0.0 0.0 0.0 
0.0 0.0 0.0 
0.0 0.0 0.0 
0.0 0.0 0.0 
0.0 0.0 0.0 
0.0 0.0 0.0 
0.0 0.0 0.0 
0.0 0.0 0.0 
0.0 0.0 0.0 
0.0 0.0 0.0 
0.0 0.0 0.0 
0.0 0.0 0.0 
0.0 0.0 0.0 
0.0 0.0 0.0 
0.0 0.0 0.0 
0.0 0.0 0.0 
0.0 0.0 0.0 
0.0 0.0 0.0 
0.0 0.0 0.0 
0.0 0.0 0.0 
0.0 0.0 0.0 
0.0 0.0 0.0 
0.0 0.0 0.0 
0.0 0.0 0.0 
0.0 0.0 0.0 
0.0 0.0 0.0 
0.0 0.0 0.0 
0.0 0.0 0.0 
0.0 0.0 0.0 
0.0 0.0 0.0 
0.0 0.0 0.0 
0.0 0.0 0.0 
0.0 0.0 0.0 
0.0 0.0 0.0 
0.0 0.0 0.0 
0.0 0.0 0.0 
0.0 0.0 0.0 
0.0 0.0 0.0 
0.0 0.0 0.0 
0.0 0.0 0.0 
0.0 0.0 0.0 
0.0 0.0 0.0 
0.0 0.0 0.0 
0.0 0.0 0.0 
0.0 0.0 0.0 
0.0 0.0 0.0 
0.0 0.0 0.0 
0.0 0.0 0.0 
0.0 0.0 0.0 
0.0 0.0 0.0 
0.0 0.0 0.0 
0.0 0.0 0.0 
0.0 0.0 0.0 
0.0 0.0 0.0 
0.0 0.0 0.0 
0.0 0.0 0.0 
0.0 0.0 0.0 
0.0 0.0 0.0 
0.0 0.0 0.0 
0.0 0.0 0.0 
0.0 0.0 0.0 
0.0 0.0 0.0 
0.0 0.0 0.0 
0.0 0.0 0.0 
0.0 0.0 0.0 
0.0 0.0 0.0 
0.0 0.0 0.0 
0.0 0.0 0.0 
0.0 0.0 0.0 
0.0 0.0 0.0 
0.0 0.0 0.0 
0.0 0.0 0.0 
0.0 0.0 0.0 
0.0 0.0 0.0 
0.0 0.0 0.0 
0.0 0.0 0.0 
0.0 0.0 0.0 
0.0 0.0 0.0 
0.0 0.0 0.0 
0.0 0.0 0.0 
0.0 0.0 0.0 
0.0 0.0 0.0 
0.0 0.0 0.0 
0.0 0.0 0.0 
0.0 0.0 0.0 
0.0 0.0 0.0 
0.0 0.0 0.0 
0.0 0.0 0.0 
0.0 0.0 0.0 
0.0 0.0 0.0 
0.0 0.0 0.0 
0.0 0.0 0.0 
0.0 0.0 0.0 
0.0 0.0 0.0 
0.0 0.0 0.0 
0.0 0.0 0.0 
0.0 0.0 0.0 
0.0 0.0 0.0 
0.0 0.0 0.0 
0.0 0.0 0.0 
0.0 0.0 0.0 
0.0 0.0 0.0 
0.0 0.0 0.0 
0.0 0.0 0.0 
0.0 0.0 0.0 
0.0 0.0 0.0 
0.0 0.0 0.0 
0.0 0.0 0.0 
0.0 0.0 0.0 
0.0 0.0 0.0 
0.0 0.0 0.0 
0.0 0.0 0.0 
0.0 0.0 0.0 
0.0 0.0 0.0 
0.0 0.0 0.0 
0.0 0.0 0.0 
0.0 0.0 0.0 
0.0 0.0 0.0 
0.0 0.0 0.0 
0.0 0.0 0.0 
0.0 0.0 0.0 
0.0 0.0 0.0 
0.0 0.0 0.0 
0.0 0.0 0.0 
0.0 0.0 0.0 
0.0 0.0 0.0 
0.0 0.0 0.0 
0.0 0.0 0.0 
0.0 0.0 0.0 
0.0 0.0 0.0 
0.0 0.0 0.0 
0.0 0.0 0.0 
0.0 0.0 0.0 
0.0 0.0 0.0 
0.0 0.0 0.0 
0.0 0.0 0.0 
0.0 0.0 0.0 
0.0 0.0 0.0 
0.0 0.0 0.0 
0.0 0.0 0.0 
0.0 0.0 0.0 
0.0 0.0 0.0 
0.0 0.0 0.0 
0.0 0.0 0.0 
0.0 0.0 0.0 
0.0 0.0 0.0 
0.0 0.0 0.0 
0.0 0.0 0.0 
0.0 0.0 0.0 
0.0 0.0 0.0 
0.0 0.0 0.0 
0.0 0.0 0.0 
0.0 0.0 0.0 
0.0 0.0 0.0 
0.0 0.0 0.0 
0.0 0.0 0.0 
0.0 0.0 0.0 
0.0 0.0 0.0 
0.0 0.0 0.0 
0.0 0.0 0.0 
0.0 0.0 0.0 
0.0 0.0 0.0 
0.0 0.0 0.0 
0.0 0.0 0.0 
0.0 0.0 0.0 
0.0 0.0 0.0 
0.0 0.0 0.0 
0.0 0.0 0.0 
0.0 0.0 0.0 
0.0 0.0 0.0 
0.0 0.0 0.0 
0.0 0.0 0.0 
0.0 0.0 0.0 
0.0 0.0 0.0 
0.0 0.0 0.0 
0.0 0.0 0.0 
0.0 0.0 0.0 
0.0 0.0 0.0 
0.0 0.0 0.0 
0.0 0.0 0.0 
0.0 0.0 0.0 
0.0 0.0 0.0 
0.0 0.0 0.0 
0.0 0.0 0.0 
0.0 0.0 0.0 
0.0 0.0 0.0 
0.0 0.0 0.0 
0.0 0.0 0.0 
0.0 0.0 0.0 
0.0 0.0 0.0 
0.0 0.0 0.0 
0.0 0.0 0.0 
0.0 0.0 0.0 
0.0 0.0 0.0 
0.0 0.0 0.0 
0.0 0.0 0.0 
0.0 0.0 0.0 
0.0 0.0 0.0 
0.0 0.0 0.0 
0.0 0.0 0.0 
0.0 0.0 0.0 
0.0 0.0 0.0 
0.0 0.0 0.0 
0.0 0.0 0.0 
0.0 0.0 0.0 
0.0 0.0 0.0 
0.0 0.0 0.0 
0.0 0.0 0.0 
0.0 0.0 0.0 
0.0 0.0 0.0 
0.0 0.0 0.0 
0.0 0.0 0.0 
0.0 0.0 0.0 
0.0 0.0 0.0 
0.0 0.0 0.0 
0.0 0.0 0.0 
0.0 0.0 0.0 
0.0 0.0 0.0 
0.0 0.0 0.0 
0.0 0.0 0.0 
0.0 0.0 0.0 
0.0 0.0 0.0 
0.0 0.0 0.0 
0.0 0.0 0.0 
0.0 0.0 0.0 
0.0 0.0 0.0 
0.0 0.0 0.0 
0.0 0.0 0.0 
0.0 0.0 0.0 
0.0 0.0 0.0 
0.0 0.0 0.0 
0.0 0.0 0.0 
0.0 0.0 0.0 
0.0 0.0 0.0 
0.0 0.0 0.0 
0.0 0.0 0.0 
0.0 0.0 0.0 
0.0 0.0 0.0 
0.0 0.0 0.0 
0.0 0.0 0.0 
0.0 0.0 0.0 
0.0 0.0 0.0 
0.0 0.0 0.0 
0.0 0.0 0.0 
0.0 0.0 0.0 
0.0 0.0 0.0 
0.0 0.0 0.0 
0.0 0.0 0.0 
0.0 0.0 0.0 
0.0 0.0 0.0 
0.0 0.0 0.0 
0.0 0.0 0.0 
0.0 0.0 0.0 
0.0 0.0 0.0 
0.0 0.0 0.0 
0.0 0.0 0.0 
0.0 0.0 0.0 
0.0 0.0 0.0 
0.0 0.0 0.0 
0.0 0.0 0.0 
0.0 0.0 0.0 
0.0 0.0 0.0 
0.0 0.0 0.0 
0.0 0.0 0.0 
0.0 0.0 0.0 
0.0 0.0 0.0 
0.0 0.0 0.0 
0.0 0.0 0.0 
0.0 0.0 0.0 
0.0 0.0 0.0 
0.0 0.0 0.0 
0.0 0.0 0.0 
0.0 0.0 0.0 
0.0 0.0 0.0 
0.0 0.0 0.0 
0.0 0.0 0.0 
0.0 0.0 0.0 
0.0 0.0 0.0 
0.0 0.0 0.0 
0.0 0.0 0.0 
0.0 0.0 0.0 
0.0 0.0 0.0 
0.0 0.0 0.0 
0.0 0.0 0.0 
0.0 0.0 0.0 
0.0 0.0 0.0 
0.0 0.0 0.0 
0.0 0.0 0.0 
0.0 0.0 0.0 
0.0 0.0 0.0 
0.0 0.0 0.0 
0.0 0.0 0.0 
0.0 0.0 0.0 
0.0 0.0 0.0 
0.0 0.0 0.0 
0.0 0.0 0.0 
0.0 0.0 0.0 
0.0 0.0 0.0 
0.0 0.0 0.0 
0.0 0.0 0.0 
0.0 0.0 0.0 
0.0 0.0 0.0 
0.0 0.0 0.0 
0.0 0.0 0.0 
0.0 0.0 0.0 
0.0 0.0 0.0 
0.0 0.0 0.0 
0.0 0.0 0.0 
0.0 0.0 0.0 
0.0 0.0 0.0 
0.0 0.0 0.0 
0.0 0.0 0.0 
0.0 0.0 0.0 
0.0 0.0 0.0 
0.0 0.0 0.0 
0.0 0.0 0.0 
0.0 0.0 0.0 
0.0 0.0 0.0 
0.0 0.0 0.0 
0.0 0.0 0.0 
0.0 0.0 0.0 
0.0 0.0 0.0 
0.0 0.0 0.0 
0.0 0.0 0.0 
0.0 0.0 0.0 
0.0 0.0 0.0 
0.0 0.0 0.0 
0.0 0.0 0.0 
0.0 0.0 0.0 
0.0 0.0 0.0 
0.0 0.0 0.0 
0.0 0.0 0.0 
0.0 0.0 0.0 
0.0 0.0 0.0 
0.0 0.0 0.0 
0.0 0.0 0.0 
0.0 0.0 0.0 
0.0 0.0 0.0 
0.0 0.0 0.0 
0.0 0.0 0.0 
0.0 0.0 0.0 
0.0 0.0 0.0 
0.0 0.0 0.0 
0.0 0.0 0.0 
0.0 0.0 0.0 
0.0 0.0 0.0 
0.0 0.0 0.0 
0.0 0.0 0.0 
0.0 0.0 0.0 
0.0 0.0 0.0 
0.0 0.0 0.0 
0.0 0.0 0.0 
0.0 0.0 0.0 
0.0 0.0 0.0 
0.0 0.0 0.0 
0.0 0.0 0.0 
0.0 0.0 0.0 
0.0 0.0 0.0 
0.0 0.0 0.0 
0.0 0.0 0.0 
0.0 0.0 0.0 
0.0 0.0 0.0 
0.0 0.0 0.0 
0.0 0.0 0.0 
0.0 0.0 0.0 
0.0 0.0 0.0 
0.0 0.0 0.0 
0.0 0.0 0.0 
0.0 0.0 0.0 
0.0 0.0 0.0 
0.0 0.0 0.0 
0.0 0.0 0.0 
0.0 0.0 0.0 
0.0 0.0 0.0 
0.0 0.0 0.0 
0.0 0.0 0.0 
0.0 0.0 0.0 
0.0 0.0 0.0 
0.0 0.0 0.0 
0.0 0.0 0.0 
0.0 0.0 0.0 
0.0 0.0 0.0 
0.0 0.0 0.0 
0.0 0.0 0.0 
0.0 0.0 0.0 
0.0 0.0 0.0 
0.0 0.0 0.0 
0.0 0.0 0.0 
0.0 0.0 0.0 
0.0 0.0 0.0 
0.0 0.0 0.0 
0.0 0.0 0.0 
0.0 0.0 0.0 
0.0 0.0 0.0 
0.0 0.0 0.0 
0.0 0.0 0.0 
0.0 0.0 0.0 
0.0 0.0 0.0 
0.0 0.0 0.0 
0.0 0.0 0.0 
0.0 0.0 0.0 
0.0 0.0 0.0 
0.0 0.0 0.0 
0.0 0.0 0.0 
0.0 0.0 0.0 
0.0 0.0 0.0 
0.0 0.0 0.0 
0.0 0.0 0.0 
0.0 0.0 0.0 
0.0 0.0 0.0 
0.0 0.0 0.0 
0.0 0.0 0.0 
0.0 0.0 0.0 
0.0 0.0 0.0 
0.0 0.0 0.0 
0.0 0.0 0.0 
0.0 0.0 0.0 
0.0 0.0 0.0 
0.0 0.0 0.0 
0.0 0.0 0.0 
0.0 0.0 0.0 
0.0 0.0 0.0 
0.0 0.0 0.0 
0.0 0.0 0.0 
0.0 0.0 0.0 
0.0 0.0 0.0 
0.0 0.0 0.0 
0.0 0.0 0.0 
0.0 0.0 0.0 
0.0 0.0 0.0 
0.0 0.0 0.0 
0.0 0.0 0.0 
0.0 0.0 0.0 
0.0 0.0 0.0 
0.0 0.0 0.0 
0.0 0.0 0.0 
0.0 0.0 0.0 
0.0 0.0 0.0 
0.0 0.0 0.0 
0.0 0.0 0.0 
0.0 0.0 0.0 
0.0 0.0 0.0 
0.0 0.0 0.0 
0.0 0.0 0.0 
0.0 0.0 0.0 
0.0 0.0 0.0 
0.0 0.0 0.0 
0.0 0.0 0.0 
0.0 0.0 0.0 
0.0 0.0 0.0 
0.0 0.0 0.0 
0.0 0.0 0.0 
0.0 0.0 0.0 
0.0 0.0 0.0 
0.0 0.0 0.0 
0.0 0.0 0.0 
0.0 0.0 0.0 
0.0 0.0 0.0 
0.0 0.0 0.0 
0.0 0.0 0.0 
0.0 0.0 0.0 
0.0 0.0 0.0 
0.0 0.0 0.0 
0.0 0.0 0.0 
0.0 0.0 0.0 
0.0 0.0 0.0 
0.0 0.0 0.0 
0.0 0.0 0.0 
0.0 0.0 0.0 
0.0 0.0 0.0 
0.0 0.0 0.0 
0.0 0.0 0.0 
0.0 0.0 0.0 
0.0 0.0 0.0 
0.0 0.0 0.0 
0.0 0.0 0.0 
0.0 0.0 0.0 
0.0 0.0 0.0 
0.0 0.0 0.0 
0.0 0.0 0.0 
0.0 0.0 0.0 
0.0 0.0 0.0 
0.0 0.0 0.0 
0.0 0.0 0.0 
0.0 0.0 0.0 
0.0 0.0 0.0 
0.0 0.0 0.0 
0.0 0.0 0.0 
0.0 0.0 0.0 
0.0 0.0 0.0 
0.0 0.0 0.0 
0.0 0.0 0.0 
0.0 0.0 0.0 
0.0 0.0 0.0 
0.0 0.0 0.0 
0.0 0.0 0.0 
0.0 0.0 0.0 
0.0 0.0 0.0 
0.0 0.0 0.0 
0.0 0.0 0.0 
0.0 0.0 0.0 
0.0 0.0 0.0 
0.0 0.0 0.0 
0.0 0.0 0.0 
0.0 0.0 0.0 
0.0 0.0 0.0 
0.0 0.0 0.0 
0.0 0.0 0.0 
0.0 0.0 0.0 
0.0 0.0 0.0 
0.0 0.0 0.0 
0.0 0.0 0.0 
0.0 0.0 0.0 
0.0 0.0 0.0 
0.0 0.0 0.0 
0.0 0.0 0.0 
0.0 0.0 0.0 
0.0 0.0 0.0 
0.0 0.0 0.0 
0.0 0.0 0.0 
0.0 0.0 0.0 
0.0 0.0 0.0 
0.0 0.0 0.0 
0.0 0.0 0.0 
0.0 0.0 0.0 
0.0 0.0 0.0 
0.0 0.0 0.0 
0.0 0.0 0.0 
0.0 0.0 0.0 
0.0 0.0 0.0 
0.0 0.0 0.0 
0.0 0.0 0.0 
0.0 0.0 0.0 
0.0 0.0 0.0 
0.0 0.0 0.0 
0.0 0.0 0.0 
0.0 0.0 0.0 
0.0 0.0 0.0 
0.0 0.0 0.0 
0.0 0.0 0.0 
0.0 0.0 0.0 
0.0 0.0 0.0 
0.0 0.0 0.0 
0.0 0.0 0.0 
0.0 0.0 0.0 
0.0 0.0 0.0 
0.0 0.0 0.0 
0.0 0.0 0.0 
0.0 0.0 0.0 
0.0 0.0 0.0 
0.0 0.0 0.0 
0.0 0.0 0.0 
0.0 0.0 0.0 
0.0 0.0 0.0 
0.0 0.0 0.0 
0.0 0.0 0.0 
0.0 0.0 0.0 
0.0 0.0 0.0 
0.0 0.0 0.0 
0.0 0.0 0.0 
0.0 0.0 0.0 
0.0 0.0 0.0 
0.0 0.0 0.0 
0.0 0.0 0.0 
0.0 0.0 0.0 
0.0 0.0 0.0 
0.0 0.0 0.0 
0.0 0.0 0.0 
0.0 0.0 0.0 
0.0 0.0 0.0 
0.0 0.0 0.0 
0.0 0.0 0.0 
0.0 0.0 0.0 
0.0 0.0 0.0 
0.0 0.0 0.0 
0.0 0.0 0.0 
0.0 0.0 0.0 
0.0 0.0 0.0 
0.0 0.0 0.0 
0.0 0.0 0.0 
0.0 0.0 0.0 
0.0 0.0 0.0 
0.0 0.0 0.0 
0.0 0.0 0.0 
0.0 0.0 0.0 
0.0 0.0 0.0 
0.0 0.0 0.0 
0.0 0.0 0.0 
0.0 0.0 0.0 
0.0 0.0 0.0 
0.0 0.0 0.0 
0.0 0.0 0.0 
0.0 0.0 0.0 
0.0 0.0 0.0 
0.0 0.0 0.0 
0.0 0.0 0.0 
0.0 0.0 0.0 
0.0 0.0 0.0 
0.0 0.0 0.0 
0.0 0.0 0.0 
0.0 0.0 0.0 
0.0 0.0 0.0 
0.0 0.0 0.0 
0.0 0.0 0.0 
0.0 0.0 0.0 
0.0 0.0 0.0 
0.0 0.0 0.0 
0.0 0.0 0.0 
0.0 0.0 0.0 
0.0 0.0 0.0 
0.0 0.0 0.0 
0.0 0.0 0.0 
0.0 0.0 0.0 
0.0 0.0 0.0 
0.0 0.0 0.0 
0.0 0.0 0.0 
0.0 0.0 0.0 
0.0 0.0 0.0 
0.0 0.0 0.0 
0.0 0.0 0.0 
0.0 0.0 0.0 
0.0 0.0 0.0 
0.0 0.0 0.0 
0.0 0.0 0.0 
0.0 0.0 0.0 
0.0 0.0 0.0 
0.0 0.0 0.0 
0.0 0.0 0.0 
0.0 0.0 0.0 
0.0 0.0 0.0 
0.0 0.0 0.0 
0.0 0.0 0.0 
0.0 0.0 0.0 
0.0 0.0 0.0 
0.0 0.0 0.0 
0.0 0.0 0.0 
0.0 0.0 0.0 
0.0 0.0 0.0 
0.0 0.0 0.0 
0.0 0.0 0.0 
0.0 0.0 0.0 
0.0 0.0 0.0 
0.0 0.0 0.0 
0.0 0.0 0.0 
0.0 0.0 0.0 
0.0 0.0 0.0 
0.0 0.0 0.0 
0.0 0.0 0.0 
0.0 0.0 0.0 
0.0 0.0 0.0 
0.0 0.0 0.0 
0.0 0.0 0.0 
0.0 0.0 0.0 
0.0 0.0 0.0 
0.0 0.0 0.0 
0.0 0.0 0.0 
0.0 0.0 0.0 
0.0 0.0 0.0 
0.0 0.0 0.0 
0.0 0.0 0.0 
0.0 0.0 0.0 
0.0 0.0 0.0 
0.0 0.0 0.0 
0.0 0.0 0.0 
0.0 0.0 0.0 
0.0 0.0 0.0 
0.0 0.0 0.0 
0.0 0.0 0.0 
0.0 0.0 0.0 
0.0 0.0 0.0 
0.0 0.0 0.0 
0.0 0.0 0.0 
0.0 0.0 0.0 
0.0 0.0 0.0 
0.0 0.0 0.0 
0.0 0.0 0.0 
0.0 0.0 0.0 
0.0 0.0 0.0 
0.0 0.0 0.0 
0.0 0.0 0.0 
0.0 0.0 0.0 
0.0 0.0 0.0 
0.0 0.0 0.0 
0.0 0.0 0.0 
0.0 0.0 0.0 
0.0 0.0 0.0 
0.0 0.0 0.0 
0.0 0.0 0.0 
0.0 0.0 0.0 
0.0 0.0 0.0 
0.0 0.0 0.0 
0.0 0.0 0.0 
0.0 0.0 0.0 
0.0 0.0 0.0 
0.0 0.0 0.0 
0.0 0.0 0.0 
0.0 0.0 0.0 
0.0 0.0 0.0 
0.0 0.0 0.0 
0.0 0.0 0.0 
0.0 0.0 0.0 
0.0 0.0 0.0 
0.0 0.0 0.0 
0.0 0.0 0.0 
0.0 0.0 0.0 
0.0 0.0 0.0 
0.0 0.0 0.0 
0.0 0.0 0.0 
0.0 0.0 0.0 
0.0 0.0 0.0 
0.0 0.0 0.0 
0.0 0.0 0.0 
0.0 0.0 0.0 
0.0 0.0 0.0 
0.0 0.0 0.0 
0.0 0.0 0.0 
0.0 0.0 0.0 
0.0 0.0 0.0 
0.0 0.0 0.0 
0.0 0.0 0.0 
0.0 0.0 0.0 
0.0 0.0 0.0 
0.0 0.0 0.0 
0.0 0.0 0.0 
0.0 0.0 0.0 
0.0 0.0 0.0 
0.0 0.0 0.0 
0.0 0.0 0.0 
0.0 0.0 0.0 
0.0 0.0 0.0 
0.0 0.0 0.0 
0.0 0.0 0.0 
0.0 0.0 0.0 
0.0 0.0 0.0 
0.0 0.0 0.0 
0.0 0.0 0.0 
0.0 0.0 0.0 
0.0 0.0 0.0 
0.0 0.0 0.0 
0.0 0.0 0.0 
0.0 0.0 0.0 
0.0 0.0 0.0 
0.0 0.0 0.0 
0.0 0.0 0.0 
0.0 0.0 0.0 
0.0 0.0 0.0 
0.0 0.0 0.0 
0.0 0.0 0.0 
0.0 0.0 0.0 
0.0 0.0 0.0 
0.0 0.0 0.0 
0.0 0.0 0.0 
0.0 0.0 0.0 
0.0 0.0 0.0 
0.0 0.0 0.0 
0.0 0.0 0.0 
0.0 0.0 0.0 
0.0 0.0 0.0 
0.0 0.0 0.0 
0.0 0.0 0.0 
0.0 0.0 0.0 
0.0 0.0 0.0 
0.0 0.0 0.0 
0.0 0.0 0.0 
0.0 0.0 0.0 
0.0 0.0 0.0 
0.0 0.0 0.0 
0.0 0.0 0.0 
0.0 0.0 0.0 
0.0 0.0 0.0 
0.0 0.0 0.0 
0.0 0.0 0.0 
0.0 0.0 0.0 
0.0 0.0 0.0 
0.0 0.0 0.0 
0.0 0.0 0.0 
0.0 0.0 0.0 
0.0 0.0 0.0 
0.0 0.0 0.0 
0.0 0.0 0.0 
0.0 0.0 0.0 
0.0 0.0 0.0 
0.0 0.0 0.0 
0.0 0.0 0.0 
0.0 0.0 0.0 
0.0 0.0 0.0 
0.0 0.0 0.0 
0.0 0.0 0.0 
0.0 0.0 0.0 
0.0 0.0 0.0 
0.0 0.0 0.0 
0.0 0.0 0.0 
0.0 0.0 0.0 
0.0 0.0 0.0 
0.0 0.0 0.0 
0.0 0.0 0.0 
0.0 0.0 0.0 
0.0 0.0 0.0 
0.0 0.0 0.0 
0.0 0.0 0.0 
0.0 0.0 0.0 
0.0 0.0 0.0 
0.0 0.0 0.0 
0.0 0.0 0.0 
0.0 0.0 0.0 
0.0 0.0 0.0 
0.0 0.0 0.0 
0.0 0.0 0.0 
0.0 0.0 0.0 
0.0 0.0 0.0 
0.0 0.0 0.0 
0.0 0.0 0.0 
0.0 0.0 0.0 
0.0 0.0 0.0 
0.0 0.0 0.0 
0.0 0.0 0.0 
0.0 0.0 0.0 
0.0 0.0 0.0 
0.0 0.0 0.0 
0.0 0.0 0.0 
0.0 0.0 0.0 
0.0 0.0 0.0 
0.0 0.0 0.0 
0.0 0.0 0.0 
0.0 0.0 0.0 
0.0 0.0 0.0 
0.0 0.0 0.0 
0.0 0.0 0.0 
0.0 0.0 0.0 
0.0 0.0 0.0 
0.0 0.0 0.0 
0.0 0.0 0.0 
0.0 0.0 0.0 
0.0 0.0 0.0 
0.0 0.0 0.0 
0.0 0.0 0.0 
0.0 0.0 0.0 
0.0 0.0 0.0 
0.0 0.0 0.0 
0.0 0.0 0.0 
0.0 0.0 0.0 
0.0 0.0 0.0 
0.0 0.0 0.0 
0.0 0.0 0.0 
0.0 0.0 0.0 
0.0 0.0 0.0 
0.0 0.0 0.0 
0.0 0.0 0.0 
0.0 0.0 0.0 
0.0 0.0 0.0 
0.0 0.0 0.0 
0.0 0.0 0.0 
0.0 0.0 0.0 
0.0 0.0 0.0 
0.0 0.0 0.0 
0.0 0.0 0.0 
0.0 0.0 0.0 
0.0 0.0 0.0 
0.0 0.0 0.0 
0.0 0.0 0.0 
0.0 0.0 0.0 
0.0 0.0 0.0 
0.0 0.0 0.0 
0.0 0.0 0.0 
0.0 0.0 0.0 
0.0 0.0 0.0 
0.0 0.0 0.0 
0.0 0.0 0.0 
0.0 0.0 0.0 
0.0 0.0 0.0 
0.0 0.0 0.0 
0.0 0.0 0.0 
0.0 0.0 0.0 
0.0 0.0 0.0 
0.0 0.0 0.0 
0.0 0.0 0.0 
0.0 0.0 0.0 
0.0 0.0 0.0 
0.0 0.0 0.0 
0.0 0.0 0.0 
0.0 0.0 0.0 
0.0 0.0 0.0 
0.0 0.0 0.0 
0.0 0.0 0.0 
0.0 0.0 0.0 
0.0 0.0 0.0 
0.0 0.0 0.0 
0.0 0.0 0.0 
0.0 0.0 0.0 
0.0 0.0 0.0 
0.0 0.0 0.0 
0.0 0.0 0.0 
0.0 0.0 0.0 
0.0 0.0 0.0 
0.0 0.0 0.0 
0.0 0.0 0.0 
0.0 0.0 0.0 
0.0 0.0 0.0 
0.0 0.0 0.0 
0.0 0.0 0.0 
0.0 0.0 0.0 
0.0 0.0 0.0 
0.0 0.0 0.0 
0.0 0.0 0.0 
0.0 0.0 0.0 

VECTORS node_bounda_dof_materi_velocity_y float
0.0 0.0 0.0 
0.0 0.0 0.0 
0.0 1.000000000000e+00 0.0 
0.0 1.000000000000e+00 0.0 
0.0 0.0 0.0 
0.0 0.0 0.0 
0.0 0.0 0.0 
0.0 0.0 0.0 
0.0 0.0 0.0 
0.0 0.0 0.0 
0.0 0.0 0.0 
0.0 0.0 0.0 
0.0 0.0 0.0 
0.0 0.0 0.0 
0.0 0.0 0.0 
0.0 0.0 0.0 
0.0 0.0 0.0 
0.0 0.0 0.0 
0.0 0.0 0.0 
0.0 0.0 0.0 
0.0 0.0 0.0 
0.0 0.0 0.0 
0.0 0.0 0.0 
0.0 1.000000000000e+00 0.0 
0.0 1.000000000000e+00 0.0 
0.0 1.000000000000e+00 0.0 
0.0 1.000000000000e+00 0.0 
0.0 1.000000000000e+00 0.0 
0.0 1.000000000000e+00 0.0 
0.0 1.000000000000e+00 0.0 
0.0 1.000000000000e+00 0.0 
0.0 1.000000000000e+00 0.0 
0.0 1.000000000000e+00 0.0 
0.0 1.000000000000e+00 0.0 
0.0 1.000000000000e+00 0.0 
0.0 1.000000000000e+00 0.0 
0.0 1.000000000000e+00 0.0 
0.0 1.000000000000e+00 0.0 
0.0 1.000000000000e+00 0.0 
0.0 1.000000000000e+00 0.0 
0.0 1.000000000000e+00 0.0 
0.0 1.000000000000e+00 0.0 
0.0 1.000000000000e+00 0.0 
0.0 1.000000000000e+00 0.0 
0.0 1.000000000000e+00 0.0 
0.0 1.000000000000e+00 0.0 
0.0 1.000000000000e+00 0.0 
0.0 1.000000000000e+00 0.0 
0.0 1.000000000000e+00 0.0 
0.0 1.000000000000e+00 0.0 
0.0 1.000000000000e+00 0.0 
0.0 1.000000000000e+00 0.0 
0.0 1.000000000000e+00 0.0 
0.0 1.000000000000e+00 0.0 
0.0 1.000000000000e+00 0.0 
0.0 1.000000000000e+00 0.0 
0.0 1.000000000000e+00 0.0 
0.0 1.000000000000e+00 0.0 
0.0 1.000000000000e+00 0.0 
0.0 1.000000000000e+00 0.0 
0.0 1.000000000000e+00 0.0 
0.0 1.000000000000e+00 0.0 
0.0 1.000000000000e+00 0.0 
0.0 1.000000000000e+00 0.0 
0.0 1.000000000000e+00 0.0 
0.0 1.000000000000e+00 0.0 
0.0 1.000000000000e+00 0.0 
0.0 1.000000000000e+00 0.0 
0.0 1.000000000000e+00 0.0 
0.0 1.000000000000e+00 0.0 
0.0 1.000000000000e+00 0.0 
0.0 1.000000000000e+00 0.0 
0.0 0.0 0.0 
0.0 0.0 0.0 
0.0 0.0 0.0 
0.0 0.0 0.0 
0.0 0.0 0.0 
0.0 0.0 0.0 
0.0 0.0 0.0 
0.0 0.0 0.0 
0.0 0.0 0.0 
0.0 0.0 0.0 
0.0 0.0 0.0 
0.0 0.0 0.0 
0.0 0.0 0.0 
0.0 0.0 0.0 
0.0 0.0 0.0 
0.0 0.0 0.0 
0.0 0.0 0.0 
0.0 0.0 0.0 
0.0 0.0 0.0 
0.0 0.0 0.0 
0.0 0.0 0.0 
0.0 0.0 0.0 
0.0 0.0 0.0 
0.0 0.0 0.0 
0.0 0.0 0.0 
0.0 0.0 0.0 
0.0 0.0 0.0 
0.0 0.0 0.0 
0.0 0.0 0.0 
0.0 0.0 0.0 
0.0 0.0 0.0 
0.0 0.0 0.0 
0.0 0.0 0.0 
0.0 0.0 0.0 
0.0 0.0 0.0 
0.0 0.0 0.0 
0.0 0.0 0.0 
0.0 0.0 0.0 
0.0 0.0 0.0 
0.0 0.0 0.0 
0.0 0.0 0.0 
0.0 0.0 0.0 
0.0 0.0 0.0 
0.0 0.0 0.0 
0.0 0.0 0.0 
0.0 0.0 0.0 
0.0 0.0 0.0 
0.0 0.0 0.0 
0.0 0.0 0.0 
0.0 0.0 0.0 
0.0 0.0 0.0 
0.0 0.0 0.0 
0.0 0.0 0.0 
0.0 0.0 0.0 
0.0 0.0 0.0 
0.0 0.0 0.0 
0.0 0.0 0.0 
0.0 0.0 0.0 
0.0 0.0 0.0 
0.0 0.0 0.0 
0.0 0.0 0.0 
0.0 0.0 0.0 
0.0 0.0 0.0 
0.0 0.0 0.0 
0.0 0.0 0.0 
0.0 0.0 0.0 
0.0 0.0 0.0 
0.0 0.0 0.0 
0.0 0.0 0.0 
0.0 0.0 0.0 
0.0 0.0 0.0 
0.0 0.0 0.0 
0.0 0.0 0.0 
0.0 0.0 0.0 
0.0 0.0 0.0 
0.0 0.0 0.0 
0.0 0.0 0.0 
0.0 0.0 0.0 
0.0 0.0 0.0 
0.0 0.0 0.0 
0.0 0.0 0.0 
0.0 0.0 0.0 
0.0 0.0 0.0 
0.0 0.0 0.0 
0.0 0.0 0.0 
0.0 0.0 0.0 
0.0 0.0 0.0 
0.0 0.0 0.0 
0.0 0.0 0.0 
0.0 0.0 0.0 
0.0 0.0 0.0 
0.0 0.0 0.0 
0.0 0.0 0.0 
0.0 0.0 0.0 
0.0 0.0 0.0 
0.0 0.0 0.0 
0.0 0.0 0.0 
0.0 0.0 0.0 
0.0 0.0 0.0 
0.0 0.0 0.0 
0.0 0.0 0.0 
0.0 0.0 0.0 
0.0 0.0 0.0 
0.0 0.0 0.0 
0.0 0.0 0.0 
0.0 0.0 0.0 
0.0 0.0 0.0 
0.0 0.0 0.0 
0.0 0.0 0.0 
0.0 0.0 0.0 
0.0 0.0 0.0 
0.0 0.0 0.0 
0.0 0.0 0.0 
0.0 0.0 0.0 
0.0 0.0 0.0 
0.0 0.0 0.0 
0.0 0.0 0.0 
0.0 0.0 0.0 
0.0 0.0 0.0 
0.0 0.0 0.0 
0.0 0.0 0.0 
0.0 0.0 0.0 
0.0 0.0 0.0 
0.0 0.0 0.0 
0.0 0.0 0.0 
0.0 0.0 0.0 
0.0 0.0 0.0 
0.0 0.0 0.0 
0.0 0.0 0.0 
0.0 0.0 0.0 
0.0 0.0 0.0 
0.0 0.0 0.0 
0.0 0.0 0.0 
0.0 0.0 0.0 
0.0 0.0 0.0 
0.0 0.0 0.0 
0.0 0.0 0.0 
0.0 0.0 0.0 
0.0 0.0 0.0 
0.0 0.0 0.0 
0.0 0.0 0.0 
0.0 0.0 0.0 
0.0 0.0 0.0 
0.0 0.0 0.0 
0.0 0.0 0.0 
0.0 0.0 0.0 
0.0 0.0 0.0 
0.0 0.0 0.0 
0.0 0.0 0.0 
0.0 0.0 0.0 
0.0 0.0 0.0 
0.0 0.0 0.0 
0.0 0.0 0.0 
0.0 0.0 0.0 
0.0 0.0 0.0 
0.0 0.0 0.0 
0.0 0.0 0.0 
0.0 0.0 0.0 
0.0 0.0 0.0 
0.0 0.0 0.0 
0.0 0.0 0.0 
0.0 0.0 0.0 
0.0 0.0 0.0 
0.0 0.0 0.0 
0.0 0.0 0.0 
0.0 0.0 0.0 
0.0 0.0 0.0 
0.0 0.0 0.0 
0.0 0.0 0.0 
0.0 0.0 0.0 
0.0 0.0 0.0 
0.0 0.0 0.0 
0.0 0.0 0.0 
0.0 0.0 0.0 
0.0 0.0 0.0 
0.0 0.0 0.0 
0.0 0.0 0.0 
0.0 0.0 0.0 
0.0 0.0 0.0 
0.0 0.0 0.0 
0.0 0.0 0.0 
0.0 0.0 0.0 
0.0 0.0 0.0 
0.0 0.0 0.0 
0.0 0.0 0.0 
0.0 0.0 0.0 
0.0 0.0 0.0 
0.0 0.0 0.0 
0.0 0.0 0.0 
0.0 0.0 0.0 
0.0 0.0 0.0 
0.0 0.0 0.0 
0.0 0.0 0.0 
0.0 0.0 0.0 
0.0 0.0 0.0 
0.0 0.0 0.0 
0.0 0.0 0.0 
0.0 0.0 0.0 
0.0 0.0 0.0 
0.0 0.0 0.0 
0.0 0.0 0.0 
0.0 0.0 0.0 
0.0 0.0 0.0 
0.0 0.0 0.0 
0.0 0.0 0.0 
0.0 0.0 0.0 
0.0 0.0 0.0 
0.0 0.0 0.0 
0.0 0.0 0.0 
0.0 0.0 0.0 
0.0 0.0 0.0 
0.0 0.0 0.0 
0.0 0.0 0.0 
0.0 0.0 0.0 
0.0 0.0 0.0 
0.0 0.0 0.0 
0.0 0.0 0.0 
0.0 0.0 0.0 
0.0 0.0 0.0 
0.0 0.0 0.0 
0.0 0.0 0.0 
0.0 0.0 0.0 
0.0 0.0 0.0 
0.0 0.0 0.0 
0.0 0.0 0.0 
0.0 0.0 0.0 
0.0 0.0 0.0 
0.0 0.0 0.0 
0.0 0.0 0.0 
0.0 0.0 0.0 
0.0 0.0 0.0 
0.0 0.0 0.0 
0.0 0.0 0.0 
0.0 0.0 0.0 
0.0 0.0 0.0 
0.0 0.0 0.0 
0.0 0.0 0.0 
0.0 0.0 0.0 
0.0 0.0 0.0 
0.0 0.0 0.0 
0.0 0.0 0.0 
0.0 0.0 0.0 
0.0 0.0 0.0 
0.0 0.0 0.0 
0.0 0.0 0.0 
0.0 0.0 0.0 
0.0 0.0 0.0 
0.0 0.0 0.0 
0.0 0.0 0.0 
0.0 0.0 0.0 
0.0 0.0 0.0 
0.0 0.0 0.0 
0.0 0.0 0.0 
0.0 0.0 0.0 
0.0 0.0 0.0 
0.0 0.0 0.0 
0.0 0.0 0.0 
0.0 0.0 0.0 
0.0 0.0 0.0 
0.0 0.0 0.0 
0.0 0.0 0.0 
0.0 0.0 0.0 
0.0 0.0 0.0 
0.0 0.0 0.0 
0.0 0.0 0.0 
0.0 0.0 0.0 
0.0 0.0 0.0 
0.0 0.0 0.0 
0.0 0.0 0.0 
0.0 0.0 0.0 
0.0 0.0 0.0 
0.0 0.0 0.0 
0.0 0.0 0.0 
0.0 0.0 0.0 
0.0 0.0 0.0 
0.0 0.0 0.0 
0.0 0.0 0.0 
0.0 0.0 0.0 
0.0 0.0 0.0 
0.0 0.0 0.0 
0.0 0.0 0.0 
0.0 0.0 0.0 
0.0 0.0 0.0 
0.0 0.0 0.0 
0.0 0.0 0.0 
0.0 0.0 0.0 
0.0 0.0 0.0 
0.0 0.0 0.0 
0.0 0.0 0.0 
0.0 0.0 0.0 
0.0 0.0 0.0 
0.0 0.0 0.0 
0.0 0.0 0.0 
0.0 0.0 0.0 
0.0 0.0 0.0 
0.0 0.0 0.0 
0.0 0.0 0.0 
0.0 0.0 0.0 
0.0 0.0 0.0 
0.0 0.0 0.0 
0.0 0.0 0.0 
0.0 0.0 0.0 
0.0 0.0 0.0 
0.0 0.0 0.0 
0.0 0.0 0.0 
0.0 0.0 0.0 
0.0 0.0 0.0 
0.0 0.0 0.0 
0.0 0.0 0.0 
0.0 0.0 0.0 
0.0 0.0 0.0 
0.0 0.0 0.0 
0.0 0.0 0.0 
0.0 0.0 0.0 
0.0 0.0 0.0 
0.0 0.0 0.0 
0.0 0.0 0.0 
0.0 0.0 0.0 
0.0 0.0 0.0 
0.0 0.0 0.0 
0.0 0.0 0.0 
0.0 0.0 0.0 
0.0 0.0 0.0 
0.0 0.0 0.0 
0.0 0.0 0.0 
0.0 0.0 0.0 
0.0 0.0 0.0 
0.0 0.0 0.0 
0.0 0.0 0.0 
0.0 0.0 0.0 
0.0 0.0 0.0 
0.0 0.0 0.0 
0.0 0.0 0.0 
0.0 0.0 0.0 
0.0 0.0 0.0 
0.0 0.0 0.0 
0.0 0.0 0.0 
0.0 0.0 0.0 
0.0 0.0 0.0 
0.0 0.0 0.0 
0.0 0.0 0.0 
0.0 0.0 0.0 
0.0 0.0 0.0 
0.0 0.0 0.0 
0.0 0.0 0.0 
0.0 0.0 0.0 
0.0 0.0 0.0 
0.0 0.0 0.0 
0.0 0.0 0.0 
0.0 0.0 0.0 
0.0 0.0 0.0 
0.0 0.0 0.0 
0.0 0.0 0.0 
0.0 0.0 0.0 
0.0 0.0 0.0 
0.0 0.0 0.0 
0.0 0.0 0.0 
0.0 0.0 0.0 
0.0 0.0 0.0 
0.0 0.0 0.0 
0.0 0.0 0.0 
0.0 0.0 0.0 
0.0 0.0 0.0 
0.0 0.0 0.0 
0.0 0.0 0.0 
0.0 0.0 0.0 
0.0 0.0 0.0 
0.0 0.0 0.0 
0.0 0.0 0.0 
0.0 0.0 0.0 
0.0 0.0 0.0 
0.0 0.0 0.0 
0.0 0.0 0.0 
0.0 0.0 0.0 
0.0 0.0 0.0 
0.0 0.0 0.0 
0.0 0.0 0.0 
0.0 0.0 0.0 
0.0 0.0 0.0 
0.0 0.0 0.0 
0.0 0.0 0.0 
0.0 0.0 0.0 
0.0 0.0 0.0 
0.0 0.0 0.0 
0.0 0.0 0.0 
0.0 0.0 0.0 
0.0 0.0 0.0 
0.0 0.0 0.0 
0.0 0.0 0.0 
0.0 0.0 0.0 
0.0 0.0 0.0 
0.0 0.0 0.0 
0.0 0.0 0.0 
0.0 0.0 0.0 
0.0 0.0 0.0 
0.0 0.0 0.0 
0.0 0.0 0.0 
0.0 0.0 0.0 
0.0 0.0 0.0 
0.0 0.0 0.0 
0.0 0.0 0.0 
0.0 0.0 0.0 
0.0 0.0 0.0 
0.0 0.0 0.0 
0.0 0.0 0.0 
0.0 0.0 0.0 
0.0 0.0 0.0 
0.0 0.0 0.0 
0.0 0.0 0.0 
0.0 0.0 0.0 
0.0 0.0 0.0 
0.0 0.0 0.0 
0.0 0.0 0.0 
0.0 0.0 0.0 
0.0 0.0 0.0 
0.0 0.0 0.0 
0.0 0.0 0.0 
0.0 0.0 0.0 
0.0 0.0 0.0 
0.0 0.0 0.0 
0.0 0.0 0.0 
0.0 0.0 0.0 
0.0 0.0 0.0 
0.0 0.0 0.0 
0.0 0.0 0.0 
0.0 0.0 0.0 
0.0 0.0 0.0 
0.0 0.0 0.0 
0.0 0.0 0.0 
0.0 0.0 0.0 
0.0 0.0 0.0 
0.0 0.0 0.0 
0.0 0.0 0.0 
0.0 0.0 0.0 
0.0 0.0 0.0 
0.0 0.0 0.0 
0.0 0.0 0.0 
0.0 0.0 0.0 
0.0 0.0 0.0 
0.0 0.0 0.0 
0.0 0.0 0.0 
0.0 0.0 0.0 
0.0 0.0 0.0 
0.0 0.0 0.0 
0.0 0.0 0.0 
0.0 0.0 0.0 
0.0 0.0 0.0 
0.0 0.0 0.0 
0.0 0.0 0.0 
0.0 0.0 0.0 
0.0 0.0 0.0 
0.0 0.0 0.0 
0.0 0.0 0.0 
0.0 0.0 0.0 
0.0 0.0 0.0 
0.0 0.0 0.0 
0.0 0.0 0.0 
0.0 0.0 0.0 
0.0 0.0 0.0 
0.0 0.0 0.0 
0.0 0.0 0.0 
0.0 0.0 0.0 
0.0 0.0 0.0 
0.0 0.0 0.0 
0.0 0.0 0.0 
0.0 0.0 0.0 
0.0 0.0 0.0 
0.0 0.0 0.0 
0.0 0.0 0.0 
0.0 0.0 0.0 
0.0 0.0 0.0 
0.0 0.0 0.0 
0.0 0.0 0.0 
0.0 0.0 0.0 
0.0 0.0 0.0 
0.0 0.0 0.0 
0.0 0.0 0.0 
0.0 0.0 0.0 
0.0 0.0 0.0 
0.0 0.0 0.0 
0.0 0.0 0.0 
0.0 0.0 0.0 
0.0 0.0 0.0 
0.0 0.0 0.0 
0.0 0.0 0.0 
0.0 0.0 0.0 
0.0 0.0 0.0 
0.0 0.0 0.0 
0.0 0.0 0.0 
0.0 0.0 0.0 
0.0 0.0 0.0 
0.0 0.0 0.0 
0.0 0.0 0.0 
0.0 0.0 0.0 
0.0 0.0 0.0 
0.0 0.0 0.0 
0.0 0.0 0.0 
0.0 0.0 0.0 
0.0 0.0 0.0 
0.0 0.0 0.0 
0.0 0.0 0.0 
0.0 0.0 0.0 
0.0 0.0 0.0 
0.0 0.0 0.0 
0.0 0.0 0.0 
0.0 0.0 0.0 
0.0 0.0 0.0 
0.0 0.0 0.0 
0.0 0.0 0.0 
0.0 0.0 0.0 
0.0 0.0 0.0 
0.0 0.0 0.0 
0.0 0.0 0.0 
0.0 0.0 0.0 
0.0 0.0 0.0 
0.0 0.0 0.0 
0.0 0.0 0.0 
0.0 0.0 0.0 
0.0 0.0 0.0 
0.0 0.0 0.0 
0.0 0.0 0.0 
0.0 0.0 0.0 
0.0 0.0 0.0 
0.0 0.0 0.0 
0.0 0.0 0.0 
0.0 0.0 0.0 
0.0 0.0 0.0 
0.0 0.0 0.0 
0.0 0.0 0.0 
0.0 0.0 0.0 
0.0 0.0 0.0 
0.0 0.0 0.0 
0.0 0.0 0.0 
0.0 0.0 0.0 
0.0 0.0 0.0 
0.0 0.0 0.0 
0.0 0.0 0.0 
0.0 0.0 0.0 
0.0 0.0 0.0 
0.0 0.0 0.0 
0.0 0.0 0.0 
0.0 0.0 0.0 
0.0 0.0 0.0 
0.0 0.0 0.0 
0.0 0.0 0.0 
0.0 0.0 0.0 
0.0 0.0 0.0 
0.0 0.0 0.0 
0.0 0.0 0.0 
0.0 0.0 0.0 
0.0 0.0 0.0 
0.0 0.0 0.0 
0.0 0.0 0.0 
0.0 0.0 0.0 
0.0 0.0 0.0 
0.0 0.0 0.0 
0.0 0.0 0.0 
0.0 0.0 0.0 
0.0 0.0 0.0 
0.0 0.0 0.0 
0.0 0.0 0.0 
0.0 0.0 0.0 
0.0 0.0 0.0 
0.0 0.0 0.0 
0.0 0.0 0.0 
0.0 0.0 0.0 
0.0 0.0 0.0 
0.0 0.0 0.0 
0.0 0.0 0.0 
0.0 0.0 0.0 
0.0 0.0 0.0 
0.0 0.0 0.0 
0.0 0.0 0.0 
0.0 0.0 0.0 
0.0 0.0 0.0 
0.0 0.0 0.0 
0.0 0.0 0.0 
0.0 0.0 0.0 
0.0 0.0 0.0 
0.0 0.0 0.0 
0.0 0.0 0.0 
0.0 0.0 0.0 
0.0 0.0 0.0 
0.0 0.0 0.0 
0.0 0.0 0.0 
0.0 0.0 0.0 
0.0 0.0 0.0 
0.0 0.0 0.0 
0.0 0.0 0.0 
0.0 0.0 0.0 
0.0 0.0 0.0 
0.0 0.0 0.0 
0.0 0.0 0.0 
0.0 0.0 0.0 
0.0 0.0 0.0 
0.0 0.0 0.0 
0.0 0.0 0.0 
0.0 0.0 0.0 
0.0 0.0 0.0 
0.0 0.0 0.0 
0.0 0.0 0.0 
0.0 0.0 0.0 
0.0 0.0 0.0 
0.0 0.0 0.0 
0.0 0.0 0.0 
0.0 0.0 0.0 
0.0 0.0 0.0 
0.0 0.0 0.0 
0.0 0.0 0.0 
0.0 0.0 0.0 
0.0 0.0 0.0 
0.0 0.0 0.0 
0.0 0.0 0.0 
0.0 0.0 0.0 
0.0 0.0 0.0 
0.0 0.0 0.0 
0.0 0.0 0.0 
0.0 0.0 0.0 
0.0 0.0 0.0 
0.0 0.0 0.0 
0.0 0.0 0.0 
0.0 0.0 0.0 
0.0 0.0 0.0 
0.0 0.0 0.0 
0.0 0.0 0.0 
0.0 0.0 0.0 
0.0 0.0 0.0 
0.0 0.0 0.0 
0.0 0.0 0.0 
0.0 0.0 0.0 
0.0 0.0 0.0 
0.0 0.0 0.0 
0.0 0.0 0.0 
0.0 0.0 0.0 
0.0 0.0 0.0 
0.0 0.0 0.0 
0.0 0.0 0.0 
0.0 0.0 0.0 
0.0 0.0 0.0 
0.0 0.0 0.0 
0.0 0.0 0.0 
0.0 0.0 0.0 
0.0 0.0 0.0 
0.0 0.0 0.0 
0.0 0.0 0.0 
0.0 0.0 0.0 
0.0 0.0 0.0 
0.0 0.0 0.0 
0.0 0.0 0.0 
0.0 0.0 0.0 
0.0 0.0 0.0 
0.0 0.0 0.0 
0.0 0.0 0.0 
0.0 0.0 0.0 
0.0 0.0 0.0 
0.0 0.0 0.0 
0.0 0.0 0.0 
0.0 0.0 0.0 
0.0 0.0 0.0 
0.0 0.0 0.0 
0.0 0.0 0.0 
0.0 0.0 0.0 
0.0 0.0 0.0 
0.0 0.0 0.0 
0.0 0.0 0.0 
0.0 0.0 0.0 
0.0 0.0 0.0 
0.0 0.0 0.0 
0.0 0.0 0.0 
0.0 0.0 0.0 
0.0 0.0 0.0 
0.0 0.0 0.0 
0.0 0.0 0.0 
0.0 0.0 0.0 
0.0 0.0 0.0 
0.0 0.0 0.0 
0.0 0.0 0.0 
0.0 0.0 0.0 
0.0 0.0 0.0 
0.0 0.0 0.0 
0.0 0.0 0.0 
0.0 0.0 0.0 
0.0 0.0 0.0 
0.0 0.0 0.0 
0.0 0.0 0.0 
0.0 0.0 0.0 
0.0 0.0 0.0 
0.0 0.0 0.0 
0.0 0.0 0.0 
0.0 0.0 0.0 
0.0 0.0 0.0 
0.0 0.0 0.0 
0.0 0.0 0.0 
0.0 0.0 0.0 
0.0 0.0 0.0 
0.0 0.0 0.0 
0.0 0.0 0.0 
0.0 0.0 0.0 
0.0 0.0 0.0 
0.0 0.0 0.0 
0.0 0.0 0.0 
0.0 0.0 0.0 
0.0 0.0 0.0 
0.0 0.0 0.0 
0.0 0.0 0.0 
0.0 0.0 0.0 
0.0 0.0 0.0 
0.0 0.0 0.0 
0.0 0.0 0.0 
0.0 0.0 0.0 
0.0 0.0 0.0 
0.0 0.0 0.0 
0.0 0.0 0.0 
0.0 0.0 0.0 
0.0 0.0 0.0 
0.0 0.0 0.0 
0.0 0.0 0.0 
0.0 0.0 0.0 
0.0 0.0 0.0 
0.0 0.0 0.0 
0.0 0.0 0.0 
0.0 0.0 0.0 
0.0 0.0 0.0 
0.0 0.0 0.0 
0.0 0.0 0.0 
0.0 0.0 0.0 
0.0 0.0 0.0 
0.0 0.0 0.0 
0.0 0.0 0.0 
0.0 0.0 0.0 
0.0 0.0 0.0 
0.0 0.0 0.0 
0.0 0.0 0.0 
0.0 0.0 0.0 
0.0 0.0 0.0 
0.0 0.0 0.0 
0.0 0.0 0.0 
0.0 0.0 0.0 
0.0 0.0 0.0 
0.0 0.0 0.0 
0.0 0.0 0.0 
0.0 0.0 0.0 
0.0 0.0 0.0 
0.0 0.0 0.0 
0.0 0.0 0.0 
0.0 0.0 0.0 
0.0 0.0 0.0 
0.0 0.0 0.0 
0.0 0.0 0.0 
0.0 0.0 0.0 
0.0 0.0 0.0 
0.0 0.0 0.0 
0.0 0.0 0.0 
0.0 0.0 0.0 
0.0 0.0 0.0 
0.0 0.0 0.0 
0.0 0.0 0.0 
0.0 0.0 0.0 
0.0 0.0 0.0 
0.0 0.0 0.0 
0.0 0.0 0.0 
0.0 0.0 0.0 
0.0 0.0 0.0 
0.0 0.0 0.0 
0.0 0.0 0.0 
0.0 0.0 0.0 
0.0 0.0 0.0 
0.0 0.0 0.0 
0.0 0.0 0.0 
0.0 0.0 0.0 
0.0 0.0 0.0 
0.0 0.0 0.0 
0.0 0.0 0.0 
0.0 0.0 0.0 
0.0 0.0 0.0 
0.0 0.0 0.0 
0.0 0.0 0.0 
0.0 0.0 0.0 
0.0 0.0 0.0 
0.0 0.0 0.0 
0.0 0.0 0.0 
0.0 0.0 0.0 
0.0 0.0 0.0 
0.0 0.0 0.0 
0.0 0.0 0.0 
0.0 0.0 0.0 
0.0 0.0 0.0 
0.0 0.0 0.0 
0.0 0.0 0.0 
0.0 0.0 0.0 
0.0 0.0 0.0 
0.0 0.0 0.0 
0.0 0.0 0.0 
0.0 0.0 0.0 
0.0 0.0 0.0 
0.0 0.0 0.0 
0.0 0.0 0.0 
0.0 0.0 0.0 
0.0 0.0 0.0 
0.0 0.0 0.0 
0.0 0.0 0.0 
0.0 0.0 0.0 
0.0 0.0 0.0 
0.0 0.0 0.0 
0.0 0.0 0.0 
0.0 0.0 0.0 
0.0 0.0 0.0 
0.0 0.0 0.0 
0.0 0.0 0.0 
0.0 0.0 0.0 
0.0 0.0 0.0 
0.0 0.0 0.0 
0.0 0.0 0.0 
0.0 0.0 0.0 
0.0 0.0 0.0 
0.0 0.0 0.0 
0.0 0.0 0.0 
0.0 0.0 0.0 
0.0 0.0 0.0 
0.0 0.0 0.0 
0.0 0.0 0.0 
0.0 0.0 0.0 
0.0 0.0 0.0 
0.0 0.0 0.0 
0.0 0.0 0.0 
0.0 0.0 0.0 
0.0 0.0 0.0 
0.0 0.0 0.0 
0.0 0.0 0.0 
0.0 0.0 0.0 
0.0 0.0 0.0 
0.0 0.0 0.0 
0.0 0.0 0.0 
0.0 0.0 0.0 
0.0 0.0 0.0 
0.0 0.0 0.0 
0.0 0.0 0.0 
0.0 0.0 0.0 
0.0 0.0 0.0 
0.0 0.0 0.0 
0.0 0.0 0.0 
0.0 0.0 0.0 
0.0 0.0 0.0 
0.0 0.0 0.0 
0.0 0.0 0.0 
0.0 0.0 0.0 
0.0 0.0 0.0 
0.0 0.0 0.0 
0.0 0.0 0.0 
0.0 0.0 0.0 
0.0 0.0 0.0 
0.0 0.0 0.0 
0.0 0.0 0.0 
0.0 0.0 0.0 
0.0 0.0 0.0 
0.0 0.0 0.0 
0.0 0.0 0.0 
0.0 0.0 0.0 
0.0 0.0 0.0 
0.0 0.0 0.0 
0.0 0.0 0.0 
0.0 0.0 0.0 
0.0 0.0 0.0 
0.0 0.0 0.0 
0.0 0.0 0.0 
0.0 0.0 0.0 
0.0 0.0 0.0 
0.0 0.0 0.0 
0.0 0.0 0.0 
0.0 0.0 0.0 
0.0 0.0 0.0 
0.0 0.0 0.0 
0.0 0.0 0.0 
0.0 0.0 0.0 
0.0 0.0 0.0 
0.0 0.0 0.0 
0.0 0.0 0.0 
0.0 0.0 0.0 
0.0 0.0 0.0 
0.0 0.0 0.0 
0.0 0.0 0.0 
0.0 0.0 0.0 
0.0 0.0 0.0 
0.0 0.0 0.0 
0.0 0.0 0.0 
0.0 0.0 0.0 
0.0 0.0 0.0 
0.0 0.0 0.0 
0.0 0.0 0.0 
0.0 0.0 0.0 
0.0 0.0 0.0 
0.0 0.0 0.0 
0.0 0.0 0.0 
0.0 0.0 0.0 
0.0 0.0 0.0 
0.0 0.0 0.0 
0.0 0.0 0.0 
0.0 0.0 0.0 
0.0 0.0 0.0 
0.0 0.0 0.0 
0.0 0.0 0.0 
0.0 0.0 0.0 
0.0 0.0 0.0 
0.0 0.0 0.0 
0.0 0.0 0.0 
0.0 0.0 0.0 
0.0 0.0 0.0 
0.0 0.0 0.0 
0.0 0.0 0.0 
0.0 0.0 0.0 
0.0 0.0 0.0 
0.0 0.0 0.0 
0.0 0.0 0.0 
0.0 0.0 0.0 
0.0 0.0 0.0 
0.0 0.0 0.0 
0.0 0.0 0.0 
0.0 0.0 0.0 
0.0 0.0 0.0 
0.0 0.0 0.0 
0.0 0.0 0.0 
0.0 0.0 0.0 
0.0 0.0 0.0 
0.0 0.0 0.0 
0.0 0.0 0.0 
0.0 0.0 0.0 
0.0 0.0 0.0 
0.0 0.0 0.0 
0.0 0.0 0.0 
0.0 0.0 0.0 
0.0 0.0 0.0 
0.0 0.0 0.0 
0.0 0.0 0.0 
0.0 0.0 0.0 
0.0 0.0 0.0 
0.0 0.0 0.0 
0.0 0.0 0.0 
0.0 0.0 0.0 
0.0 0.0 0.0 
0.0 0.0 0.0 
0.0 0.0 0.0 
0.0 0.0 0.0 
0.0 0.0 0.0 
0.0 0.0 0.0 
0.0 0.0 0.0 
0.0 0.0 0.0 
0.0 0.0 0.0 
0.0 0.0 0.0 
0.0 0.0 0.0 
0.0 0.0 0.0 
0.0 0.0 0.0 
0.0 0.0 0.0 
0.0 0.0 0.0 
0.0 0.0 0.0 
0.0 0.0 0.0 
0.0 0.0 0.0 

SCALARS node_boundary float
LOOKUP_TABLE default
1.000000000000e+00 
1.000000000000e+00 
1.000000000000e+00 
1.000000000000e+00 
1.000000000000e+00 
1.000000000000e+00 
1.000000000000e+00 
1.000000000000e+00 
1.000000000000e+00 
1.000000000000e+00 
1.000000000000e+00 
1.000000000000e+00 
1.000000000000e+00 
1.000000000000e+00 
1.000000000000e+00 
1.000000000000e+00 
1.000000000000e+00 
1.000000000000e+00 
1.000000000000e+00 
1.000000000000e+00 
1.000000000000e+00 
1.000000000000e+00 
1.000000000000e+00 
1.000000000000e+00 
1.000000000000e+00 
1.000000000000e+00 
1.000000000000e+00 
1.000000000000e+00 
1.000000000000e+00 
1.000000000000e+00 
1.000000000000e+00 
1.000000000000e+00 
1.000000000000e+00 
1.000000000000e+00 
1.000000000000e+00 
1.000000000000e+00 
1.000000000000e+00 
1.000000000000e+00 
1.000000000000e+00 
1.000000000000e+00 
1.000000000000e+00 
1.000000000000e+00 
1.000000000000e+00 
1.000000000000e+00 
1.000000000000e+00 
1.000000000000e+00 
1.000000000000e+00 
1.000000000000e+00 
1.000000000000e+00 
1.000000000000e+00 
1.000000000000e+00 
1.000000000000e+00 
1.000000000000e+00 
1.000000000000e+00 
1.000000000000e+00 
1.000000000000e+00 
1.000000000000e+00 
1.000000000000e+00 
1.000000000000e+00 
1.000000000000e+00 
1.000000000000e+00 
1.000000000000e+00 
1.000000000000e+00 
1.000000000000e+00 
1.000000000000e+00 
1.000000000000e+00 
1.000000000000e+00 
1.000000000000e+00 
1.000000000000e+00 
1.000000000000e+00 
1.000000000000e+00 
1.000000000000e+00 
1.000000000000e+00 
1.000000000000e+00 
1.000000000000e+00 
1.000000000000e+00 
1.000000000000e+00 
1.000000000000e+00 
1.000000000000e+00 
1.000000000000e+00 
1.000000000000e+00 
1.000000000000e+00 
1.000000000000e+00 
1.000000000000e+00 
1.000000000000e+00 
1.000000000000e+00 
1.000000000000e+00 
1.000000000000e+00 
1.000000000000e+00 
1.000000000000e+00 
1.000000000000e+00 
1.000000000000e+00 
1.000000000000e+00 
1.000000000000e+00 
1.000000000000e+00 
1.000000000000e+00 
1.000000000000e+00 
1.000000000000e+00 
1.000000000000e+00 
1.000000000000e+00 
1.000000000000e+00 
1.000000000000e+00 
1.000000000000e+00 
1.000000000000e+00 
1.000000000000e+00 
1.000000000000e+00 
1.000000000000e+00 
1.000000000000e+00 
1.000000000000e+00 
1.000000000000e+00 
1.000000000000e+00 
1.000000000000e+00 
1.000000000000e+00 
1.000000000000e+00 
1.000000000000e+00 
1.000000000000e+00 
1.000000000000e+00 
1.000000000000e+00 
1.000000000000e+00 
1.000000000000e+00 
1.000000000000e+00 
1.000000000000e+00 
1.000000000000e+00 
1.000000000000e+00 
1.000000000000e+00 
1.000000000000e+00 
1.000000000000e+00 
1.000000000000e+00 
1.000000000000e+00 
1.000000000000e+00 
1.000000000000e+00 
1.000000000000e+00 
1.000000000000e+00 
1.000000000000e+00 
1.000000000000e+00 
0.0
0.0
0.0
0.0
0.0
0.0
0.0
0.0
0.0
0.0
0.0
0.0
0.0
0.0
0.0
0.0
0.0
0.0
0.0
0.0
0.0
0.0
0.0
0.0
0.0
0.0
0.0
0.0
0.0
0.0
0.0
0.0
0.0
0.0
0.0
0.0
0.0
0.0
0.0
0.0
0.0
0.0
0.0
0.0
0.0
0.0
0.0
0.0
0.0
0.0
0.0
0.0
0.0
0.0
0.0
0.0
0.0
0.0
0.0
0.0
0.0
0.0
0.0
0.0
0.0
0.0
0.0
0.0
0.0
0.0
0.0
0.0
0.0
0.0
0.0
0.0
0.0
0.0
0.0
0.0
0.0
0.0
0.0
0.0
0.0
0.0
0.0
0.0
0.0
0.0
0.0
0.0
0.0
0.0
0.0
0.0
0.0
0.0
0.0
0.0
0.0
0.0
0.0
0.0
0.0
0.0
0.0
0.0
0.0
0.0
0.0
0.0
0.0
0.0
0.0
0.0
0.0
0.0
0.0
0.0
0.0
0.0
0.0
0.0
0.0
0.0
0.0
0.0
0.0
0.0
0.0
0.0
0.0
0.0
0.0
0.0
0.0
0.0
0.0
0.0
0.0
0.0
0.0
0.0
0.0
0.0
0.0
0.0
0.0
0.0
0.0
0.0
0.0
0.0
0.0
0.0
0.0
0.0
0.0
0.0
0.0
0.0
0.0
0.0
0.0
0.0
0.0
0.0
0.0
0.0
0.0
0.0
0.0
0.0
0.0
0.0
0.0
0.0
0.0
0.0
0.0
0.0
0.0
0.0
0.0
0.0
0.0
0.0
0.0
0.0
0.0
0.0
0.0
0.0
0.0
0.0
0.0
0.0
0.0
0.0
0.0
0.0
0.0
0.0
0.0
0.0
0.0
0.0
0.0
0.0
0.0
0.0
0.0
0.0
0.0
0.0
0.0
0.0
0.0
0.0
0.0
0.0
0.0
0.0
0.0
0.0
0.0
0.0
0.0
0.0
0.0
0.0
0.0
0.0
0.0
0.0
0.0
0.0
0.0
0.0
0.0
0.0
0.0
0.0
0.0
0.0
0.0
0.0
0.0
0.0
0.0
0.0
0.0
0.0
0.0
0.0
0.0
0.0
0.0
0.0
0.0
0.0
0.0
0.0
0.0
0.0
0.0
0.0
0.0
0.0
0.0
0.0
0.0
0.0
0.0
0.0
0.0
0.0
0.0
0.0
0.0
0.0
0.0
0.0
0.0
0.0
0.0
0.0
0.0
0.0
0.0
0.0
0.0
0.0
0.0
0.0
0.0
0.0
0.0
0.0
0.0
0.0
0.0
0.0
0.0
0.0
0.0
0.0
0.0
0.0
0.0
0.0
0.0
0.0
0.0
0.0
0.0
0.0
0.0
0.0
0.0
0.0
0.0
0.0
0.0
0.0
0.0
0.0
0.0
0.0
0.0
0.0
0.0
0.0
0.0
0.0
0.0
0.0
0.0
0.0
0.0
0.0
0.0
0.0
0.0
0.0
0.0
0.0
0.0
0.0
0.0
0.0
0.0
0.0
0.0
0.0
0.0
0.0
0.0
0.0
0.0
0.0
0.0
0.0
0.0
0.0
0.0
0.0
0.0
0.0
0.0
0.0
0.0
0.0
0.0
0.0
0.0
0.0
0.0
0.0
0.0
0.0
0.0
0.0
0.0
0.0
0.0
0.0
0.0
0.0
0.0
0.0
0.0
0.0
0.0
0.0
0.0
0.0
0.0
0.0
0.0
0.0
0.0
0.0
0.0
0.0
0.0
0.0
0.0
0.0
0.0
0.0
0.0
0.0
0.0
0.0
0.0
0.0
0.0
0.0
0.0
0.0
0.0
0.0
0.0
0.0
0.0
0.0
0.0
0.0
0.0
0.0
0.0
0.0
0.0
0.0
0.0
0.0
0.0
0.0
0.0
0.0
0.0
0.0
0.0
0.0
0.0
0.0
0.0
0.0
0.0
0.0
0.0
0.0
0.0
0.0
0.0
0.0
0.0
0.0
0.0
0.0
0.0
0.0
0.0
0.0
0.0
0.0
0.0
0.0
0.0
0.0
0.0
0.0
0.0
0.0
0.0
0.0
0.0
0.0
0.0
0.0
0.0
0.0
0.0
0.0
0.0
0.0
0.0
0.0
0.0
0.0
0.0
0.0
0.0
0.0
0.0
0.0
0.0
0.0
0.0
0.0
0.0
0.0
0.0
0.0
0.0
0.0
0.0
0.0
0.0
0.0
0.0
0.0
0.0
0.0
0.0
0.0
0.0
0.0
0.0
0.0
0.0
0.0
0.0
0.0
0.0
0.0
0.0
0.0
0.0
0.0
0.0
0.0
0.0
0.0
0.0
0.0
0.0
0.0
0.0
0.0
0.0
0.0
0.0
0.0
0.0
0.0
0.0
0.0
0.0
0.0
0.0
0.0
0.0
0.0
0.0
0.0
0.0
0.0
0.0
0.0
0.0
0.0
0.0
0.0
0.0
0.0
0.0
0.0
0.0
0.0
0.0
0.0
0.0
0.0
0.0
0.0
0.0
0.0
0.0
0.0
0.0
0.0
0.0
0.0
0.0
0.0
0.0
0.0
0.0
0.0
0.0
0.0
0.0
0.0
0.0
0.0
0.0
0.0
0.0
0.0
0.0
0.0
0.0
0.0
0.0
0.0
0.0
0.0
0.0
0.0
0.0
0.0
0.0
0.0
0.0
0.0
0.0
0.0
0.0
0.0
0.0
0.0
0.0
0.0
0.0
0.0
0.0
0.0
0.0
0.0
0.0
0.0
0.0
0.0
0.0
0.0
0.0
0.0
0.0
0.0
0.0
0.0
0.0
0.0
0.0
0.0
0.0
0.0
0.0
0.0
0.0
0.0
0.0
0.0
0.0
0.0
0.0
0.0
0.0
0.0
0.0
0.0
0.0
0.0
0.0
0.0
0.0
0.0
0.0
0.0
0.0
0.0
0.0
0.0
0.0
0.0
0.0
0.0
0.0
0.0
0.0
0.0
0.0
0.0
0.0
0.0
0.0
0.0
0.0
0.0
0.0
0.0
0.0
0.0
0.0
0.0
0.0
0.0
0.0
0.0
0.0
0.0
0.0
0.0
0.0
0.0
0.0
0.0
0.0
0.0
0.0
0.0
0.0
0.0
0.0
0.0
0.0
0.0
0.0
0.0
0.0
0.0
0.0
0.0
0.0
0.0
0.0
0.0
0.0
0.0
0.0
0.0
0.0
0.0
0.0
0.0
0.0
0.0
0.0
0.0
0.0
0.0
0.0
0.0
0.0
0.0
0.0
0.0
0.0
0.0
0.0
0.0
0.0
0.0
0.0
0.0
0.0
0.0
0.0
0.0
0.0
0.0
0.0
0.0
0.0
0.0
0.0
0.0
0.0
0.0
0.0
0.0
0.0
0.0
0.0
0.0
0.0
0.0
0.0
0.0
0.0
0.0
0.0
0.0
0.0
0.0
0.0
0.0
0.0
0.0
0.0
0.0
0.0
0.0
0.0
0.0
0.0
0.0
0.0
0.0
0.0
0.0
0.0
0.0
0.0
0.0
0.0
0.0
0.0
0.0
0.0
0.0
0.0
0.0
0.0
0.0
0.0
0.0
0.0
0.0
0.0
0.0
0.0
0.0
0.0
0.0
0.0
0.0
0.0
0.0
0.0
0.0
0.0
0.0
0.0
0.0
0.0
0.0
0.0
0.0
0.0
0.0
0.0
0.0
0.0
0.0
0.0
0.0
0.0
0.0
0.0
0.0
0.0
0.0
0.0
0.0
0.0
0.0
0.0
0.0
0.0
0.0
0.0
0.0
0.0
0.0
0.0
0.0
0.0
0.0
0.0
0.0
0.0
0.0
0.0
0.0
0.0
0.0
0.0
0.0
0.0
0.0
0.0
0.0
0.0
0.0
0.0
0.0
0.0
0.0
0.0

VECTORS node_force_gravity float
0.0 -1.962000000000e+01 0.0 
0.0 -1.962000000000e+01 0.0 
0.0 -1.962000000000e+01 0.0 
0.0 -1.962000000000e+01 0.0 
0.0 -1.962000000000e+01 0.0 
0.0 -1.962000000000e+01 0.0 
0.0 -1.962000000000e+01 0.0 
0.0 -1.962000000000e+01 0.0 
0.0 -1.962000000000e+01 0.0 
0.0 -1.962000000000e+01 0.0 
0.0 -1.962000000000e+01 0.0 
0.0 -1.962000000000e+01 0.0 
0.0 -1.962000000000e+01 0.0 
0.0 -1.962000000000e+01 0.0 
0.0 -1.962000000000e+01 0.0 
0.0 -1.962000000000e+01 0.0 
0.0 -1.962000000000e+01 0.0 
0.0 -1.962000000000e+01 0.0 
0.0 -1.962000000000e+01 0.0 
0.0 -1.962000000000e+01 0.0 
0.0 -1.962000000000e+01 0.0 
0.0 -1.962000000000e+01 0.0 
0.0 -1.962000000000e+01 0.0 
0.0 -1.962000000000e+01 0.0 
0.0 -1.962000000000e+01 0.0 
0.0 -1.962000000000e+01 0.0 
0.0 -1.962000000000e+01 0.0 
0.0 -1.962000000000e+01 0.0 
0.0 -1.962000000000e+01 0.0 
0.0 -1.962000000000e+01 0.0 
0.0 -1.962000000000e+01 0.0 
0.0 -1.962000000000e+01 0.0 
0.0 -1.962000000000e+01 0.0 
0.0 -1.962000000000e+01 0.0 
0.0 -1.962000000000e+01 0.0 
0.0 -1.962000000000e+01 0.0 
0.0 -1.962000000000e+01 0.0 
0.0 -1.962000000000e+01 0.0 
0.0 -1.962000000000e+01 0.0 
0.0 -1.962000000000e+01 0.0 
0.0 -1.962000000000e+01 0.0 
0.0 -1.962000000000e+01 0.0 
0.0 -1.962000000000e+01 0.0 
0.0 -1.962000000000e+01 0.0 
0.0 -1.962000000000e+01 0.0 
0.0 -1.962000000000e+01 0.0 
0.0 -1.962000000000e+01 0.0 
0.0 -1.962000000000e+01 0.0 
0.0 -1.962000000000e+01 0.0 
0.0 -1.962000000000e+01 0.0 
0.0 -1.962000000000e+01 0.0 
0.0 -1.962000000000e+01 0.0 
0.0 -1.962000000000e+01 0.0 
0.0 -1.962000000000e+01 0.0 
0.0 -1.962000000000e+01 0.0 
0.0 -1.962000000000e+01 0.0 
0.0 -1.962000000000e+01 0.0 
0.0 -1.962000000000e+01 0.0 
0.0 -1.962000000000e+01 0.0 
0.0 -1.962000000000e+01 0.0 
0.0 -1.962000000000e+01 0.0 
0.0 -1.962000000000e+01 0.0 
0.0 -1.962000000000e+01 0.0 
0.0 -1.962000000000e+01 0.0 
0.0 -1.962000000000e+01 0.0 
0.0 -1.962000000000e+01 0.0 
0.0 -1.962000000000e+01 0.0 
0.0 -1.962000000000e+01 0.0 
0.0 -1.962000000000e+01 0.0 
0.0 -1.962000000000e+01 0.0 
0.0 -1.962000000000e+01 0.0 
0.0 -1.962000000000e+01 0.0 
0.0 -1.962000000000e+01 0.0 
0.0 -1.962000000000e+01 0.0 
0.0 -1.962000000000e+01 0.0 
0.0 -1.962000000000e+01 0.0 
0.0 -1.962000000000e+01 0.0 
0.0 -1.962000000000e+01 0.0 
0.0 -1.962000000000e+01 0.0 
0.0 -1.962000000000e+01 0.0 
0.0 -1.962000000000e+01 0.0 
0.0 -1.962000000000e+01 0.0 
0.0 -1.962000000000e+01 0.0 
0.0 -1.962000000000e+01 0.0 
0.0 -1.962000000000e+01 0.0 
0.0 -1.962000000000e+01 0.0 
0.0 -1.962000000000e+01 0.0 
0.0 -1.962000000000e+01 0.0 
0.0 -1.962000000000e+01 0.0 
0.0 -1.962000000000e+01 0.0 
0.0 -1.962000000000e+01 0.0 
0.0 -1.962000000000e+01 0.0 
0.0 -1.962000000000e+01 0.0 
0.0 -1.962000000000e+01 0.0 
0.0 -1.962000000000e+01 0.0 
0.0 -1.962000000000e+01 0.0 
0.0 -1.962000000000e+01 0.0 
0.0 -1.962000000000e+01 0.0 
0.0 -1.962000000000e+01 0.0 
0.0 -1.962000000000e+01 0.0 
0.0 -1.962000000000e+01 0.0 
0.0 -1.962000000000e+01 0.0 
0.0 -1.962000000000e+01 0.0 
0.0 -1.962000000000e+01 0.0 
0.0 -1.962000000000e+01 0.0 
0.0 -1.962000000000e+01 0.0 
0.0 -1.962000000000e+01 0.0 
0.0 -1.962000000000e+01 0.0 
0.0 -1.962000000000e+01 0.0 
0.0 -1.962000000000e+01 0.0 
0.0 -1.962000000000e+01 0.0 
0.0 -1.962000000000e+01 0.0 
0.0 -1.962000000000e+01 0.0 
0.0 -1.962000000000e+01 0.0 
0.0 -1.962000000000e+01 0.0 
0.0 -1.962000000000e+01 0.0 
0.0 -1.962000000000e+01 0.0 
0.0 -1.962000000000e+01 0.0 
0.0 -1.962000000000e+01 0.0 
0.0 -1.962000000000e+01 0.0 
0.0 -1.962000000000e+01 0.0 
0.0 -1.962000000000e+01 0.0 
0.0 -1.962000000000e+01 0.0 
0.0 -1.962000000000e+01 0.0 
0.0 -1.962000000000e+01 0.0 
0.0 -1.962000000000e+01 0.0 
0.0 -1.962000000000e+01 0.0 
0.0 -1.962000000000e+01 0.0 
0.0 -1.962000000000e+01 0.0 
0.0 -1.962000000000e+01 0.0 
0.0 -1.962000000000e+01 0.0 
0.0 -1.962000000000e+01 0.0 
0.0 -1.962000000000e+01 0.0 
0.0 -1.962000000000e+01 0.0 
0.0 -1.962000000000e+01 0.0 
0.0 -1.962000000000e+01 0.0 
0.0 -1.962000000000e+01 0.0 
0.0 -1.962000000000e+01 0.0 
0.0 -1.962000000000e+01 0.0 
0.0 -1.962000000000e+01 0.0 
0.0 -1.962000000000e+01 0.0 
0.0 -1.962000000000e+01 0.0 
0.0 -1.962000000000e+01 0.0 
0.0 -1.962000000000e+01 0.0 
0.0 -1.962000000000e+01 0.0 
0.0 -1.962000000000e+01 0.0 
0.0 -1.962000000000e+01 0.0 
0.0 -1.962000000000e+01 0.0 
0.0 -1.962000000000e+01 0.0 
0.0 -1.962000000000e+01 0.0 
0.0 -1.962000000000e+01 0.0 
0.0 -1.962000000000e+01 0.0 
0.0 -1.962000000000e+01 0.0 
0.0 -1.962000000000e+01 0.0 
0.0 -1.962000000000e+01 0.0 
0.0 -1.962000000000e+01 0.0 
0.0 -1.962000000000e+01 0.0 
0.0 -1.962000000000e+01 0.0 
0.0 -1.962000000000e+01 0.0 
0.0 -1.962000000000e+01 0.0 
0.0 -1.962000000000e+01 0.0 
0.0 -1.962000000000e+01 0.0 
0.0 -1.962000000000e+01 0.0 
0.0 -1.962000000000e+01 0.0 
0.0 -1.962000000000e+01 0.0 
0.0 -1.962000000000e+01 0.0 
0.0 -1.962000000000e+01 0.0 
0.0 -1.962000000000e+01 0.0 
0.0 -1.962000000000e+01 0.0 
0.0 -1.962000000000e+01 0.0 
0.0 -1.962000000000e+01 0.0 
0.0 -1.962000000000e+01 0.0 
0.0 -1.962000000000e+01 0.0 
0.0 -1.962000000000e+01 0.0 
0.0 -1.962000000000e+01 0.0 
0.0 -1.962000000000e+01 0.0 
0.0 -1.962000000000e+01 0.0 
0.0 -1.962000000000e+01 0.0 
0.0 -1.962000000000e+01 0.0 
0.0 -1.962000000000e+01 0.0 
0.0 -1.962000000000e+01 0.0 
0.0 -1.962000000000e+01 0.0 
0.0 -1.962000000000e+01 0.0 
0.0 -1.962000000000e+01 0.0 
0.0 -1.962000000000e+01 0.0 
0.0 -1.962000000000e+01 0.0 
0.0 -1.962000000000e+01 0.0 
0.0 -1.962000000000e+01 0.0 
0.0 -1.962000000000e+01 0.0 
0.0 -1.962000000000e+01 0.0 
0.0 -1.962000000000e+01 0.0 
0.0 -1.962000000000e+01 0.0 
0.0 -1.962000000000e+01 0.0 
0.0 -1.962000000000e+01 0.0 
0.0 -1.962000000000e+01 0.0 
0.0 -1.962000000000e+01 0.0 
0.0 -1.962000000000e+01 0.0 
0.0 -1.962000000000e+01 0.0 
0.0 -1.962000000000e+01 0.0 
0.0 -1.962000000000e+01 0.0 
0.0 -1.962000000000e+01 0.0 
0.0 -1.962000000000e+01 0.0 
0.0 -1.962000000000e+01 0.0 
0.0 -1.962000000000e+01 0.0 
0.0 -1.962000000000e+01 0.0 
0.0 -1.962000000000e+01 0.0 
0.0 -1.962000000000e+01 0.0 
0.0 -1.962000000000e+01 0.0 
0.0 -1.962000000000e+01 0.0 
0.0 -1.962000000000e+01 0.0 
0.0 -1.962000000000e+01 0.0 
0.0 -1.962000000000e+01 0.0 
0.0 -1.962000000000e+01 0.0 
0.0 -1.962000000000e+01 0.0 
0.0 -1.962000000000e+01 0.0 
0.0 -1.962000000000e+01 0.0 
0.0 -1.962000000000e+01 0.0 
0.0 -1.962000000000e+01 0.0 
0.0 -1.962000000000e+01 0.0 
0.0 -1.962000000000e+01 0.0 
0.0 -1.962000000000e+01 0.0 
0.0 -1.962000000000e+01 0.0 
0.0 -1.962000000000e+01 0.0 
0.0 -1.962000000000e+01 0.0 
0.0 -1.962000000000e+01 0.0 
0.0 -1.962000000000e+01 0.0 
0.0 -1.962000000000e+01 0.0 
0.0 -1.962000000000e+01 0.0 
0.0 -1.962000000000e+01 0.0 
0.0 -1.962000000000e+01 0.0 
0.0 -1.962000000000e+01 0.0 
0.0 -1.962000000000e+01 0.0 
0.0 -1.962000000000e+01 0.0 
0.0 -1.962000000000e+01 0.0 
0.0 -1.962000000000e+01 0.0 
0.0 -1.962000000000e+01 0.0 
0.0 -1.962000000000e+01 0.0 
0.0 -1.962000000000e+01 0.0 
0.0 -1.962000000000e+01 0.0 
0.0 -1.962000000000e+01 0.0 
0.0 -1.962000000000e+01 0.0 
0.0 -1.962000000000e+01 0.0 
0.0 -1.962000000000e+01 0.0 
0.0 -1.962000000000e+01 0.0 
0.0 -1.962000000000e+01 0.0 
0.0 -1.962000000000e+01 0.0 
0.0 -1.962000000000e+01 0.0 
0.0 -1.962000000000e+01 0.0 
0.0 -1.962000000000e+01 0.0 
0.0 -1.962000000000e+01 0.0 
0.0 -1.962000000000e+01 0.0 
0.0 -1.962000000000e+01 0.0 
0.0 -1.962000000000e+01 0.0 
0.0 -1.962000000000e+01 0.0 
0.0 -1.962000000000e+01 0.0 
0.0 -1.962000000000e+01 0.0 
0.0 -1.962000000000e+01 0.0 
0.0 -1.962000000000e+01 0.0 
0.0 -1.962000000000e+01 0.0 
0.0 -1.962000000000e+01 0.0 
0.0 -1.962000000000e+01 0.0 
0.0 -1.962000000000e+01 0.0 
0.0 -1.962000000000e+01 0.0 
0.0 -1.962000000000e+01 0.0 
0.0 -1.962000000000e+01 0.0 
0.0 -1.962000000000e+01 0.0 
0.0 -1.962000000000e+01 0.0 
0.0 -1.962000000000e+01 0.0 
0.0 -1.962000000000e+01 0.0 
0.0 -1.962000000000e+01 0.0 
0.0 -1.962000000000e+01 0.0 
0.0 -1.962000000000e+01 0.0 
0.0 -1.962000000000e+01 0.0 
0.0 -1.962000000000e+01 0.0 
0.0 -1.962000000000e+01 0.0 
0.0 -1.962000000000e+01 0.0 
0.0 -1.962000000000e+01 0.0 
0.0 -1.962000000000e+01 0.0 
0.0 -1.962000000000e+01 0.0 
0.0 -1.962000000000e+01 0.0 
0.0 -1.962000000000e+01 0.0 
0.0 -1.962000000000e+01 0.0 
0.0 -1.962000000000e+01 0.0 
0.0 -1.962000000000e+01 0.0 
0.0 -1.962000000000e+01 0.0 
0.0 -1.962000000000e+01 0.0 
0.0 -1.962000000000e+01 0.0 
0.0 -1.962000000000e+01 0.0 
0.0 -1.962000000000e+01 0.0 
0.0 -1.962000000000e+01 0.0 
0.0 -1.962000000000e+01 0.0 
0.0 -1.962000000000e+01 0.0 
0.0 -1.962000000000e+01 0.0 
0.0 -1.962000000000e+01 0.0 
0.0 -1.962000000000e+01 0.0 
0.0 -1.962000000000e+01 0.0 
0.0 -1.962000000000e+01 0.0 
0.0 -1.962000000000e+01 0.0 
0.0 -1.962000000000e+01 0.0 
0.0 -1.962000000000e+01 0.0 
0.0 -1.962000000000e+01 0.0 
0.0 -1.962000000000e+01 0.0 
0.0 -1.962000000000e+01 0.0 
0.0 -1.962000000000e+01 0.0 
0.0 -1.962000000000e+01 0.0 
0.0 -1.962000000000e+01 0.0 
0.0 -1.962000000000e+01 0.0 
0.0 -1.962000000000e+01 0.0 
0.0 -1.962000000000e+01 0.0 
0.0 -1.962000000000e+01 0.0 
0.0 -1.962000000000e+01 0.0 
0.0 -1.962000000000e+01 0.0 
0.0 -1.962000000000e+01 0.0 
0.0 -1.962000000000e+01 0.0 
0.0 -1.962000000000e+01 0.0 
0.0 -1.962000000000e+01 0.0 
0.0 -1.962000000000e+01 0.0 
0.0 -1.962000000000e+01 0.0 
0.0 -1.962000000000e+01 0.0 
0.0 -1.962000000000e+01 0.0 
0.0 -1.962000000000e+01 0.0 
0.0 -1.962000000000e+01 0.0 
0.0 -1.962000000000e+01 0.0 
0.0 -1.962000000000e+01 0.0 
0.0 -1.962000000000e+01 0.0 
0.0 -1.962000000000e+01 0.0 
0.0 -1.962000000000e+01 0.0 
0.0 -1.962000000000e+01 0.0 
0.0 -1.962000000000e+01 0.0 
0.0 -1.962000000000e+01 0.0 
0.0 -1.962000000000e+01 0.0 
0.0 -1.962000000000e+01 0.0 
0.0 -1.962000000000e+01 0.0 
0.0 -1.962000000000e+01 0.0 
0.0 -1.962000000000e+01 0.0 
0.0 -1.962000000000e+01 0.0 
0.0 -1.962000000000e+01 0.0 
0.0 -1.962000000000e+01 0.0 
0.0 -1.962000000000e+01 0.0 
0.0 -1.962000000000e+01 0.0 
0.0 -1.962000000000e+01 0.0 
0.0 -1.962000000000e+01 0.0 
0.0 -1.962000000000e+01 0.0 
0.0 -1.962000000000e+01 0.0 
0.0 -1.962000000000e+01 0.0 
0.0 -1.962000000000e+01 0.0 
0.0 -1.962000000000e+01 0.0 
0.0 -1.962000000000e+01 0.0 
0.0 -1.962000000000e+01 0.0 
0.0 -1.962000000000e+01 0.0 
0.0 -1.962000000000e+01 0.0 
0.0 -1.962000000000e+01 0.0 
0.0 -1.962000000000e+01 0.0 
0.0 -1.962000000000e+01 0.0 
0.0 -1.962000000000e+01 0.0 
0.0 -1.962000000000e+01 0.0 
0.0 -1.962000000000e+01 0.0 
0.0 -1.962000000000e+01 0.0 
0.0 -1.962000000000e+01 0.0 
0.0 -1.962000000000e+01 0.0 
0.0 -1.962000000000e+01 0.0 
0.0 -1.962000000000e+01 0.0 
0.0 -1.962000000000e+01 0.0 
0.0 -1.962000000000e+01 0.0 
0.0 -1.962000000000e+01 0.0 
0.0 -1.962000000000e+01 0.0 
0.0 -1.962000000000e+01 0.0 
0.0 -1.962000000000e+01 0.0 
0.0 -1.962000000000e+01 0.0 
0.0 -1.962000000000e+01 0.0 
0.0 -1.962000000000e+01 0.0 
0.0 -1.962000000000e+01 0.0 
0.0 -1.962000000000e+01 0.0 
0.0 -1.962000000000e+01 0.0 
0.0 -1.962000000000e+01 0.0 
0.0 -1.962000000000e+01 0.0 
0.0 -1.962000000000e+01 0.0 
0.0 -1.962000000000e+01 0.0 
0.0 -1.962000000000e+01 0.0 
0.0 -1.962000000000e+01 0.0 
0.0 -1.962000000000e+01 0.0 
0.0 -1.962000000000e+01 0.0 
0.0 -1.962000000000e+01 0.0 
0.0 -1.962000000000e+01 0.0 
0.0 -1.962000000000e+01 0.0 
0.0 -1.962000000000e+01 0.0 
0.0 -1.962000000000e+01 0.0 
0.0 -1.962000000000e+01 0.0 
0.0 -1.962000000000e+01 0.0 
0.0 -1.962000000000e+01 0.0 
0.0 -1.962000000000e+01 0.0 
0.0 -1.962000000000e+01 0.0 
0.0 -1.962000000000e+01 0.0 
0.0 -1.962000000000e+01 0.0 
0.0 -1.962000000000e+01 0.0 
0.0 -1.962000000000e+01 0.0 
0.0 -1.962000000000e+01 0.0 
0.0 -1.962000000000e+01 0.0 
0.0 -1.962000000000e+01 0.0 
0.0 -1.962000000000e+01 0.0 
0.0 -1.962000000000e+01 0.0 
0.0 -1.962000000000e+01 0.0 
0.0 -1.962000000000e+01 0.0 
0.0 -1.962000000000e+01 0.0 
0.0 -1.962000000000e+01 0.0 
0.0 -1.962000000000e+01 0.0 
0.0 -1.962000000000e+01 0.0 
0.0 -1.962000000000e+01 0.0 
0.0 -1.962000000000e+01 0.0 
0.0 -1.962000000000e+01 0.0 
0.0 -1.962000000000e+01 0.0 
0.0 -1.962000000000e+01 0.0 
0.0 -1.962000000000e+01 0.0 
0.0 -1.962000000000e+01 0.0 
0.0 -1.962000000000e+01 0.0 
0.0 -1.962000000000e+01 0.0 
0.0 -1.962000000000e+01 0.0 
0.0 -1.962000000000e+01 0.0 
0.0 -1.962000000000e+01 0.0 
0.0 -1.962000000000e+01 0.0 
0.0 -1.962000000000e+01 0.0 
0.0 -1.962000000000e+01 0.0 
0.0 -1.962000000000e+01 0.0 
0.0 -1.962000000000e+01 0.0 
0.0 -1.962000000000e+01 0.0 
0.0 -1.962000000000e+01 0.0 
0.0 -1.962000000000e+01 0.0 
0.0 -1.962000000000e+01 0.0 
0.0 -1.962000000000e+01 0.0 
0.0 -1.962000000000e+01 0.0 
0.0 -1.962000000000e+01 0.0 
0.0 -1.962000000000e+01 0.0 
0.0 -1.962000000000e+01 0.0 
0.0 -1.962000000000e+01 0.0 
0.0 -1.962000000000e+01 0.0 
0.0 -1.962000000000e+01 0.0 
0.0 -1.962000000000e+01 0.0 
0.0 -1.962000000000e+01 0.0 
0.0 -1.962000000000e+01 0.0 
0.0 -1.962000000000e+01 0.0 
0.0 -1.962000000000e+01 0.0 
0.0 -1.962000000000e+01 0.0 
0.0 -1.962000000000e+01 0.0 
0.0 -1.962000000000e+01 0.0 
0.0 -1.962000000000e+01 0.0 
0.0 -1.962000000000e+01 0.0 
0.0 -1.962000000000e+01 0.0 
0.0 -1.962000000000e+01 0.0 
0.0 -1.962000000000e+01 0.0 
0.0 -1.962000000000e+01 0.0 
0.0 -1.962000000000e+01 0.0 
0.0 -1.962000000000e+01 0.0 
0.0 -1.962000000000e+01 0.0 
0.0 -1.962000000000e+01 0.0 
0.0 -1.962000000000e+01 0.0 
0.0 -1.962000000000e+01 0.0 
0.0 -1.962000000000e+01 0.0 
0.0 -1.962000000000e+01 0.0 
0.0 -1.962000000000e+01 0.0 
0.0 -1.962000000000e+01 0.0 
0.0 -1.962000000000e+01 0.0 
0.0 -1.962000000000e+01 0.0 
0.0 -1.962000000000e+01 0.0 
0.0 -1.962000000000e+01 0.0 
0.0 -1.962000000000e+01 0.0 
0.0 -1.962000000000e+01 0.0 
0.0 -1.962000000000e+01 0.0 
0.0 -1.962000000000e+01 0.0 
0.0 -1.962000000000e+01 0.0 
0.0 -1.962000000000e+01 0.0 
0.0 -1.962000000000e+01 0.0 
0.0 -1.962000000000e+01 0.0 
0.0 -1.962000000000e+01 0.0 
0.0 -1.962000000000e+01 0.0 
0.0 -1.962000000000e+01 0.0 
0.0 -1.962000000000e+01 0.0 
0.0 -1.962000000000e+01 0.0 
0.0 -1.962000000000e+01 0.0 
0.0 -1.962000000000e+01 0.0 
0.0 -1.962000000000e+01 0.0 
0.0 -1.962000000000e+01 0.0 
0.0 -1.962000000000e+01 0.0 
0.0 -1.962000000000e+01 0.0 
0.0 -1.962000000000e+01 0.0 
0.0 -1.962000000000e+01 0.0 
0.0 -1.962000000000e+01 0.0 
0.0 -1.962000000000e+01 0.0 
0.0 -1.962000000000e+01 0.0 
0.0 -1.962000000000e+01 0.0 
0.0 -1.962000000000e+01 0.0 
0.0 -1.962000000000e+01 0.0 
0.0 -1.962000000000e+01 0.0 
0.0 -1.962000000000e+01 0.0 
0.0 -1.962000000000e+01 0.0 
0.0 -1.962000000000e+01 0.0 
0.0 -1.962000000000e+01 0.0 
0.0 -1.962000000000e+01 0.0 
0.0 -1.962000000000e+01 0.0 
0.0 -1.962000000000e+01 0.0 
0.0 -1.962000000000e+01 0.0 
0.0 -1.962000000000e+01 0.0 
0.0 -1.962000000000e+01 0.0 
0.0 -1.962000000000e+01 0.0 
0.0 -1.962000000000e+01 0.0 
0.0 -1.962000000000e+01 0.0 
0.0 -1.962000000000e+01 0.0 
0.0 -1.962000000000e+01 0.0 
0.0 -1.962000000000e+01 0.0 
0.0 -1.962000000000e+01 0.0 
0.0 -1.962000000000e+01 0.0 
0.0 -1.962000000000e+01 0.0 
0.0 -1.962000000000e+01 0.0 
0.0 -1.962000000000e+01 0.0 
0.0 -1.962000000000e+01 0.0 
0.0 -1.962000000000e+01 0.0 
0.0 -1.962000000000e+01 0.0 
0.0 -1.962000000000e+01 0.0 
0.0 -1.962000000000e+01 0.0 
0.0 -1.962000000000e+01 0.0 
0.0 -1.962000000000e+01 0.0 
0.0 -1.962000000000e+01 0.0 
0.0 -1.962000000000e+01 0.0 
0.0 -1.962000000000e+01 0.0 
0.0 -1.962000000000e+01 0.0 
0.0 -1.962000000000e+01 0.0 
0.0 -1.962000000000e+01 0.0 
0.0 -1.962000000000e+01 0.0 
0.0 -1.962000000000e+01 0.0 
0.0 -1.962000000000e+01 0.0 
0.0 -1.962000000000e+01 0.0 
0.0 -1.962000000000e+01 0.0 
0.0 -1.962000000000e+01 0.0 
0.0 -1.962000000000e+01 0.0 
0.0 -1.962000000000e+01 0.0 
0.0 -1.962000000000e+01 0.0 
0.0 -1.962000000000e+01 0.0 
0.0 -1.962000000000e+01 0.0 
0.0 -1.962000000000e+01 0.0 
0.0 -1.962000000000e+01 0.0 
0.0 -1.962000000000e+01 0.0 
0.0 -1.962000000000e+01 0.0 
0.0 -1.962000000000e+01 0.0 
0.0 -1.962000000000e+01 0.0 
0.0 -1.962000000000e+01 0.0 
0.0 -1.962000000000e+01 0.0 
0.0 -1.962000000000e+01 0.0 
0.0 -1.962000000000e+01 0.0 
0.0 -1.962000000000e+01 0.0 
0.0 -1.962000000000e+01 0.0 
0.0 -1.962000000000e+01 0.0 
0.0 -1.962000000000e+01 0.0 
0.0 -1.962000000000e+01 0.0 
0.0 -1.962000000000e+01 0.0 
0.0 -1.962000000000e+01 0.0 
0.0 -1.962000000000e+01 0.0 
0.0 -1.962000000000e+01 0.0 
0.0 -1.962000000000e+01 0.0 
0.0 -1.962000000000e+01 0.0 
0.0 -1.962000000000e+01 0.0 
0.0 -1.962000000000e+01 0.0 
0.0 -1.962000000000e+01 0.0 
0.0 -1.962000000000e+01 0.0 
0.0 -1.962000000000e+01 0.0 
0.0 -1.962000000000e+01 0.0 
0.0 -1.962000000000e+01 0.0 
0.0 -1.962000000000e+01 0.0 
0.0 -1.962000000000e+01 0.0 
0.0 -1.962000000000e+01 0.0 
0.0 -1.962000000000e+01 0.0 
0.0 -1.962000000000e+01 0.0 
0.0 -1.962000000000e+01 0.0 
0.0 -1.962000000000e+01 0.0 
0.0 -1.962000000000e+01 0.0 
0.0 -1.962000000000e+01 0.0 
0.0 -1.962000000000e+01 0.0 
0.0 -1.962000000000e+01 0.0 
0.0 -1.962000000000e+01 0.0 
0.0 -1.962000000000e+01 0.0 
0.0 -1.962000000000e+01 0.0 
0.0 -1.962000000000e+01 0.0 
0.0 -1.962000000000e+01 0.0 
0.0 -1.962000000000e+01 0.0 
0.0 -1.962000000000e+01 0.0 
0.0 -1.962000000000e+01 0.0 
0.0 -1.962000000000e+01 0.0 
0.0 -1.962000000000e+01 0.0 
0.0 -1.962000000000e+01 0.0 
0.0 -1.962000000000e+01 0.0 
0.0 -1.962000000000e+01 0.0 
0.0 -1.962000000000e+01 0.0 
0.0 -1.962000000000e+01 0.0 
0.0 -1.962000000000e+01 0.0 
0.0 -1.962000000000e+01 0.0 
0.0 -1.962000000000e+01 0.0 
0.0 -1.962000000000e+01 0.0 
0.0 -1.962000000000e+01 0.0 
0.0 -1.962000000000e+01 0.0 
0.0 -1.962000000000e+01 0.0 
0.0 -1.962000000000e+01 0.0 
0.0 -1.962000000000e+01 0.0 
0.0 -1.962000000000e+01 0.0 
0.0 -1.962000000000e+01 0.0 
0.0 -1.962000000000e+01 0.0 
0.0 -1.962000000000e+01 0.0 
0.0 -1.962000000000e+01 0.0 
0.0 -1.962000000000e+01 0.0 
0.0 -1.962000000000e+01 0.0 
0.0 -1.962000000000e+01 0.0 
0.0 -1.962000000000e+01 0.0 
0.0 -1.962000000000e+01 0.0 
0.0 -1.962000000000e+01 0.0 
0.0 -1.962000000000e+01 0.0 
0.0 -1.962000000000e+01 0.0 
0.0 -1.962000000000e+01 0.0 
0.0 -1.962000000000e+01 0.0 
0.0 -1.962000000000e+01 0.0 
0.0 -1.962000000000e+01 0.0 
0.0 -1.962000000000e+01 0.0 
0.0 -1.962000000000e+01 0.0 
0.0 -1.962000000000e+01 0.0 
0.0 -1.962000000000e+01 0.0 
0.0 -1.962000000000e+01 0.0 
0.0 -1.962000000000e+01 0.0 
0.0 -1.962000000000e+01 0.0 
0.0 -1.962000000000e+01 0.0 
0.0 -1.962000000000e+01 0.0 
0.0 -1.962000000000e+01 0.0 
0.0 -1.962000000000e+01 0.0 
0.0 -1.962000000000e+01 0.0 
0.0 -1.962000000000e+01 0.0 
0.0 -1.962000000000e+01 0.0 
0.0 -1.962000000000e+01 0.0 
0.0 -1.962000000000e+01 0.0 
0.0 -1.962000000000e+01 0.0 
0.0 -1.962000000000e+01 0.0 
0.0 -1.962000000000e+01 0.0 
0.0 -1.962000000000e+01 0.0 
0.0 -1.962000000000e+01 0.0 
0.0 -1.962000000000e+01 0.0 
0.0 -1.962000000000e+01 0.0 
0.0 -1.962000000000e+01 0.0 
0.0 -1.962000000000e+01 0.0 
0.0 -1.962000000000e+01 0.0 
0.0 -1.962000000000e+01 0.0 
0.0 -1.962000000000e+01 0.0 
0.0 -1.962000000000e+01 0.0 
0.0 -1.962000000000e+01 0.0 
0.0 -1.962000000000e+01 0.0 
0.0 -1.962000000000e+01 0.0 
0.0 -1.962000000000e+01 0.0 
0.0 -1.962000000000e+01 0.0 
0.0 -1.962000000000e+01 0.0 
0.0 -1.962000000000e+01 0.0 
0.0 -1.962000000000e+01 0.0 
0.0 -1.962000000000e+01 0.0 
0.0 -1.962000000000e+01 0.0 
0.0 -1.962000000000e+01 0.0 
0.0 -1.962000000000e+01 0.0 
0.0 -1.962000000000e+01 0.0 
0.0 -1.962000000000e+01 0.0 
0.0 -1.962000000000e+01 0.0 
0.0 -1.962000000000e+01 0.0 
0.0 -1.962000000000e+01 0.0 
0.0 -1.962000000000e+01 0.0 
0.0 -1.962000000000e+01 0.0 
0.0 -1.962000000000e+01 0.0 
0.0 -1.962000000000e+01 0.0 
0.0 -1.962000000000e+01 0.0 
0.0 -1.962000000000e+01 0.0 
0.0 -1.962000000000e+01 0.0 
0.0 -1.962000000000e+01 0.0 
0.0 -1.962000000000e+01 0.0 
0.0 -1.962000000000e+01 0.0 
0.0 -1.962000000000e+01 0.0 
0.0 -1.962000000000e+01 0.0 
0.0 -1.962000000000e+01 0.0 
0.0 -1.962000000000e+01 0.0 
0.0 -1.962000000000e+01 0.0 
0.0 -1.962000000000e+01 0.0 
0.0 -1.962000000000e+01 0.0 
0.0 -1.962000000000e+01 0.0 
0.0 -1.962000000000e+01 0.0 
0.0 -1.962000000000e+01 0.0 
0.0 -1.962000000000e+01 0.0 
0.0 -1.962000000000e+01 0.0 
0.0 -1.962000000000e+01 0.0 
0.0 -1.962000000000e+01 0.0 
0.0 -1.962000000000e+01 0.0 
0.0 -1.962000000000e+01 0.0 
0.0 -1.962000000000e+01 0.0 
0.0 -1.962000000000e+01 0.0 
0.0 -1.962000000000e+01 0.0 
0.0 -1.962000000000e+01 0.0 
0.0 -1.962000000000e+01 0.0 
0.0 -1.962000000000e+01 0.0 
0.0 -1.962000000000e+01 0.0 
0.0 -1.962000000000e+01 0.0 
0.0 -1.962000000000e+01 0.0 
0.0 -1.962000000000e+01 0.0 
0.0 -1.962000000000e+01 0.0 
0.0 -1.962000000000e+01 0.0 
0.0 -1.962000000000e+01 0.0 
0.0 -1.962000000000e+01 0.0 
0.0 -1.962000000000e+01 0.0 
0.0 -1.962000000000e+01 0.0 
0.0 -1.962000000000e+01 0.0 
0.0 -1.962000000000e+01 0.0 
0.0 -1.962000000000e+01 0.0 
0.0 -1.962000000000e+01 0.0 
0.0 -1.962000000000e+01 0.0 
0.0 -1.962000000000e+01 0.0 
0.0 -1.962000000000e+01 0.0 
0.0 -1.962000000000e+01 0.0 
0.0 -1.962000000000e+01 0.0 
0.0 -1.962000000000e+01 0.0 
0.0 -1.962000000000e+01 0.0 
0.0 -1.962000000000e+01 0.0 
0.0 -1.962000000000e+01 0.0 
0.0 -1.962000000000e+01 0.0 
0.0 -1.962000000000e+01 0.0 
0.0 -1.962000000000e+01 0.0 
0.0 -1.962000000000e+01 0.0 
0.0 -1.962000000000e+01 0.0 
0.0 -1.962000000000e+01 0.0 
0.0 -1.962000000000e+01 0.0 
0.0 -1.962000000000e+01 0.0 
0.0 -1.962000000000e+01 0.0 
0.0 -1.962000000000e+01 0.0 
0.0 -1.962000000000e+01 0.0 
0.0 -1.962000000000e+01 0.0 
0.0 -1.962000000000e+01 0.0 
0.0 -1.962000000000e+01 0.0 
0.0 -1.962000000000e+01 0.0 
0.0 -1.962000000000e+01 0.0 
0.0 -1.962000000000e+01 0.0 
0.0 -1.962000000000e+01 0.0 
0.0 -1.962000000000e+01 0.0 
0.0 -1.962000000000e+01 0.0 
0.0 -1.962000000000e+01 0.0 
0.0 -1.962000000000e+01 0.0 
0.0 -1.962000000000e+01 0.0 
0.0 -1.962000000000e+01 0.0 
0.0 -1.962000000000e+01 0.0 
0.0 -1.962000000000e+01 0.0 
0.0 -1.962000000000e+01 0.0 
0.0 -1.962000000000e+01 0.0 
0.0 -1.962000000000e+01 0.0 
0.0 -1.962000000000e+01 0.0 
0.0 -1.962000000000e+01 0.0 
0.0 -1.962000000000e+01 0.0 
0.0 -1.962000000000e+01 0.0 
0.0 -1.962000000000e+01 0.0 
0.0 -1.962000000000e+01 0.0 
0.0 -1.962000000000e+01 0.0 
0.0 -1.962000000000e+01 0.0 
0.0 -1.962000000000e+01 0.0 
0.0 -1.962000000000e+01 0.0 
0.0 -1.962000000000e+01 0.0 
0.0 -1.962000000000e+01 0.0 
0.0 -1.962000000000e+01 0.0 
0.0 -1.962000000000e+01 0.0 
0.0 -1.962000000000e+01 0.0 
0.0 -1.962000000000e+01 0.0 
0.0 -1.962000000000e+01 0.0 
0.0 -1.962000000000e+01 0.0 
0.0 -1.962000000000e+01 0.0 
0.0 -1.962000000000e+01 0.0 
0.0 -1.962000000000e+01 0.0 
0.0 -1.962000000000e+01 0.0 
0.0 -1.962000000000e+01 0.0 
0.0 -1.962000000000e+01 0.0 
0.0 -1.962000000000e+01 0.0 
0.0 -1.962000000000e+01 0.0 
0.0 -1.962000000000e+01 0.0 
0.0 -1.962000000000e+01 0.0 
0.0 -1.962000000000e+01 0.0 
0.0 -1.962000000000e+01 0.0 
0.0 -1.962000000000e+01 0.0 
0.0 -1.962000000000e+01 0.0 
0.0 -1.962000000000e+01 0.0 
0.0 -1.962000000000e+01 0.0 
0.0 -1.962000000000e+01 0.0 
0.0 -1.962000000000e+01 0.0 
0.0 -1.962000000000e+01 0.0 
0.0 -1.962000000000e+01 0.0 
0.0 -1.962000000000e+01 0.0 
0.0 -1.962000000000e+01 0.0 
0.0 -1.962000000000e+01 0.0 
0.0 -1.962000000000e+01 0.0 
0.0 -1.962000000000e+01 0.0 
0.0 -1.962000000000e+01 0.0 
0.0 -1.962000000000e+01 0.0 
0.0 -1.962000000000e+01 0.0 
0.0 -1.962000000000e+01 0.0 
0.0 -1.962000000000e+01 0.0 
0.0 -1.962000000000e+01 0.0 
0.0 -1.962000000000e+01 0.0 
0.0 -1.962000000000e+01 0.0 
0.0 -1.962000000000e+01 0.0 
0.0 -1.962000000000e+01 0.0 
0.0 -1.962000000000e+01 0.0 
0.0 -1.962000000000e+01 0.0 
0.0 -1.962000000000e+01 0.0 
0.0 -1.962000000000e+01 0.0 
0.0 -1.962000000000e+01 0.0 
0.0 -1.962000000000e+01 0.0 
0.0 -1.962000000000e+01 0.0 
0.0 -1.962000000000e+01 0.0 
0.0 -1.962000000000e+01 0.0 
0.0 -1.962000000000e+01 0.0 
0.0 -1.962000000000e+01 0.0 
0.0 -1.962000000000e+01 0.0 
0.0 -1.962000000000e+01 0.0 
0.0 -1.962000000000e+01 0.0 
0.0 -1.962000000000e+01 0.0 
0.0 -1.962000000000e+01 0.0 
0.0 -1.962000000000e+01 0.0 
0.0 -1.962000000000e+01 0.0 
0.0 -1.962000000000e+01 0.0 
0.0 -1.962000000000e+01 0.0 
0.0 -1.962000000000e+01 0.0 
0.0 -1.962000000000e+01 0.0 
0.0 -1.962000000000e+01 0.0 
0.0 -1.962000000000e+01 0.0 
0.0 -1.962000000000e+01 0.0 
0.0 -1.962000000000e+01 0.0 
0.0 -1.962000000000e+01 0.0 
0.0 -1.962000000000e+01 0.0 
0.0 -1.962000000000e+01 0.0 
0.0 -1.962000000000e+01 0.0 
0.0 -1.962000000000e+01 0.0 
0.0 -1.962000000000e+01 0.0 
0.0 -1.962000000000e+01 0.0 
0.0 -1.962000000000e+01 0.0 
0.0 -1.962000000000e+01 0.0 
0.0 -1.962000000000e+01 0.0 
0.0 -1.962000000000e+01 0.0 
0.0 -1.962000000000e+01 0.0 
0.0 -1.962000000000e+01 0.0 
0.0 -1.962000000000e+01 0.0 
0.0 -1.962000000000e+01 0.0 
0.0 -1.962000000000e+01 0.0 
0.0 -1.962000000000e+01 0.0 
0.0 -1.962000000000e+01 0.0 
0.0 -1.962000000000e+01 0.0 
0.0 -1.962000000000e+01 0.0 
0.0 -1.962000000000e+01 0.0 
0.0 -1.962000000000e+01 0.0 
0.0 -1.962000000000e+01 0.0 
0.0 -1.962000000000e+01 0.0 
0.0 -1.962000000000e+01 0.0 
0.0 -1.962000000000e+01 0.0 
0.0 -1.962000000000e+01 0.0 
0.0 -1.962000000000e+01 0.0 
0.0 -1.962000000000e+01 0.0 
0.0 -1.962000000000e+01 0.0 
0.0 -1.962000000000e+01 0.0 
0.0 -1.962000000000e+01 0.0 
0.0 -1.962000000000e+01 0.0 
0.0 -1.962000000000e+01 0.0 
0.0 -1.962000000000e+01 0.0 
0.0 -1.962000000000e+01 0.0 
0.0 -1.962000000000e+01 0.0 
0.0 -1.962000000000e+01 0.0 
0.0 -1.962000000000e+01 0.0 
0.0 -1.962000000000e+01 0.0 
0.0 -1.962000000000e+01 0.0 
0.0 -1.962000000000e+01 0.0 
0.0 -1.962000000000e+01 0.0 
0.0 -1.962000000000e+01 0.0 
0.0 -1.962000000000e+01 0.0 
0.0 -1.962000000000e+01 0.0 
0.0 -1.962000000000e+01 0.0 
0.0 -1.962000000000e+01 0.0 
0.0 -1.962000000000e+01 0.0 
0.0 -1.962000000000e+01 0.0 
0.0 -1.962000000000e+01 0.0 
0.0 -1.962000000000e+01 0.0 
0.0 -1.962000000000e+01 0.0 
0.0 -1.962000000000e+01 0.0 
0.0 -1.962000000000e+01 0.0 
0.0 -1.962000000000e+01 0.0 
0.0 -1.962000000000e+01 0.0 
0.0 -1.962000000000e+01 0.0 
0.0 -1.962000000000e+01 0.0 
0.0 -1.962000000000e+01 0.0 
0.0 -1.962000000000e+01 0.0 
0.0 -1.962000000000e+01 0.0 
0.0 -1.962000000000e+01 0.0 
0.0 -1.962000000000e+01 0.0 
0.0 -1.962000000000e+01 0.0 
0.0 -1.962000000000e+01 0.0 
0.0 -1.962000000000e+01 0.0 
0.0 -1.962000000000e+01 0.0 
0.0 -1.962000000000e+01 0.0 
0.0 -1.962000000000e+01 0.0 
0.0 -1.962000000000e+01 0.0 
0.0 -1.962000000000e+01 0.0 
0.0 -1.962000000000e+01 0.0 
0.0 -1.962000000000e+01 0.0 
0.0 -1.962000000000e+01 0.0 
0.0 -1.962000000000e+01 0.0 
0.0 -1.962000000000e+01 0.0 
0.0 -1.962000000000e+01 0.0 
0.0 -1.962000000000e+01 0.0 
0.0 -1.962000000000e+01 0.0 
0.0 -1.962000000000e+01 0.0 
0.0 -1.962000000000e+01 0.0 
0.0 -1.962000000000e+01 0.0 
0.0 -1.962000000000e+01 0.0 
0.0 -1.962000000000e+01 0.0 
0.0 -1.962000000000e+01 0.0 
0.0 -1.962000000000e+01 0.0 
0.0 -1.962000000000e+01 0.0 
0.0 -1.962000000000e+01 0.0 
0.0 -1.962000000000e+01 0.0 
0.0 -1.962000000000e+01 0.0 
0.0 -1.962000000000e+01 0.0 
0.0 -1.962000000000e+01 0.0 
0.0 -1.962000000000e+01 0.0 
0.0 -1.962000000000e+01 0.0 
0.0 -1.962000000000e+01 0.0 
0.0 -1.962000000000e+01 0.0 
0.0 -1.962000000000e+01 0.0 
0.0 -1.962000000000e+01 0.0 
0.0 -1.962000000000e+01 0.0 
0.0 -1.962000000000e+01 0.0 
0.0 -1.962000000000e+01 0.0 
0.0 -1.962000000000e+01 0.0 
0.0 -1.962000000000e+01 0.0 
0.0 -1.962000000000e+01 0.0 
0.0 -1.962000000000e+01 0.0 
0.0 -1.962000000000e+01 0.0 
0.0 -1.962000000000e+01 0.0 
0.0 -1.962000000000e+01 0.0 
0.0 -1.962000000000e+01 0.0 
0.0 -1.962000000000e+01 0.0 
0.0 -1.962000000000e+01 0.0 
0.0 -1.962000000000e+01 0.0 
0.0 -1.962000000000e+01 0.0 
0.0 -1.962000000000e+01 0.0 
0.0 -1.962000000000e+01 0.0 
0.0 -1.962000000000e+01 0.0 
0.0 -1.962000000000e+01 0.0 
0.0 -1.962000000000e+01 0.0 
0.0 -1.962000000000e+01 0.0 
0.0 -1.962000000000e+01 0.0 
0.0 -1.962000000000e+01 0.0 
0.0 -1.962000000000e+01 0.0 
0.0 -1.962000000000e+01 0.0 
0.0 -1.962000000000e+01 0.0 
0.0 -1.962000000000e+01 0.0 
0.0 -1.962000000000e+01 0.0 
0.0 -1.962000000000e+01 0.0 
0.0 -1.962000000000e+01 0.0 
0.0 -1.962000000000e+01 0.0 
0.0 -1.962000000000e+01 0.0 
0.0 -1.962000000000e+01 0.0 
0.0 -1.962000000000e+01 0.0 
0.0 -1.962000000000e+01 0.0 
0.0 -1.962000000000e+01 0.0 
0.0 -1.962000000000e+01 0.0 
0.0 -1.962000000000e+01 0.0 
0.0 -1.962000000000e+01 0.0 
0.0 -1.962000000000e+01 0.0 
0.0 -1.962000000000e+01 0.0 
0.0 -1.962000000000e+01 0.0 
0.0 -1.962000000000e+01 0.0 
0.0 -1.962000000000e+01 0.0 
0.0 -1.962000000000e+01 0.0 
0.0 -1.962000000000e+01 0.0 
0.0 -1.962000000000e+01 0.0 
0.0 -1.962000000000e+01 0.0 
0.0 -1.962000000000e+01 0.0 
0.0 -1.962000000000e+01 0.0 
0.0 -1.962000000000e+01 0.0 
0.0 -1.962000000000e+01 0.0 
0.0 -1.962000000000e+01 0.0 
0.0 -1.962000000000e+01 0.0 
0.0 -1.962000000000e+01 0.0 
0.0 -1.962000000000e+01 0.0 
0.0 -1.962000000000e+01 0.0 
0.0 -1.962000000000e+01 0.0 
0.0 -1.962000000000e+01 0.0 
0.0 -1.962000000000e+01 0.0 
0.0 -1.962000000000e+01 0.0 
0.0 -1.962000000000e+01 0.0 
0.0 -1.962000000000e+01 0.0 
0.0 -1.962000000000e+01 0.0 
0.0 -1.962000000000e+01 0.0 
0.0 -1.962000000000e+01 0.0 
0.0 -1.962000000000e+01 0.0 
0.0 -1.962000000000e+01 0.0 
0.0 -1.962000000000e+01 0.0 
0.0 -1.962000000000e+01 0.0 
0.0 -1.962000000000e+01 0.0 
0.0 -1.962000000000e+01 0.0 
0.0 -1.962000000000e+01 0.0 
0.0 -1.962000000000e+01 0.0 
0.0 -1.962000000000e+01 0.0 
0.0 -1.962000000000e+01 0.0 
0.0 -1.962000000000e+01 0.0 
0.0 -1.962000000000e+01 0.0 
0.0 -1.962000000000e+01 0.0 
0.0 -1.962000000000e+01 0.0 
0.0 -1.962000000000e+01 0.0 
0.0 -1.962000000000e+01 0.0 
0.0 -1.962000000000e+01 0.0 
0.0 -1.962000000000e+01 0.0 
0.0 -1.962000000000e+01 0.0 
0.0 -1.962000000000e+01 0.0 
0.0 -1.962000000000e+01 0.0 
0.0 -1.962000000000e+01 0.0 
0.0 -1.962000000000e+01 0.0 
0.0 -1.962000000000e+01 0.0 
0.0 -1.962000000000e+01 0.0 
0.0 -1.962000000000e+01 0.0 
0.0 -1.962000000000e+01 0.0 
0.0 -1.962000000000e+01 0.0 
0.0 -1.962000000000e+01 0.0 
0.0 -1.962000000000e+01 0.0 
0.0 -1.962000000000e+01 0.0 
0.0 -1.962000000000e+01 0.0 
0.0 -1.962000000000e+01 0.0 
0.0 -1.962000000000e+01 0.0 
0.0 -1.962000000000e+01 0.0 
0.0 -1.962000000000e+01 0.0 
0.0 -1.962000000000e+01 0.0 

VECTORS node_rhside_materi_fixed float
-7.475161015418e-01 0.0 0.0 
1.010268953481e+01 0.0 0.0 
-8.159981108989e+01 -1.952550095957e+02 0.0 
4.190913500760e+01 -1.013436253822e+02 0.0 
-5.718112600686e+00 0.0 0.0 
-1.368724082679e+01 0.0 0.0 
-2.007707945580e+01 0.0 0.0 
-2.822301968112e+01 0.0 0.0 
-3.524043697507e+01 0.0 0.0 
-4.256733843029e+01 0.0 0.0 
-4.994359641599e+01 0.0 0.0 
-5.738341245435e+01 0.0 0.0 
-6.495965796004e+01 0.0 0.0 
-7.264458002634e+01 0.0 0.0 
-8.100403216990e+01 0.0 0.0 
-8.948573484447e+01 0.0 0.0 
-9.770697146956e+01 0.0 0.0 
-1.068570097598e+02 0.0 0.0 
-1.160864053904e+02 0.0 0.0 
-1.256266303989e+02 0.0 0.0 
-1.354775473693e+02 0.0 0.0 
-1.455995946912e+02 0.0 0.0 
-1.562740254894e+02 0.0 0.0 
1.173202132253e+00 -2.014168298969e+02 0.0 
2.047079455927e+00 -2.029543449524e+02 0.0 
5.469924705789e+00 -2.022747268404e+02 0.0 
4.454839204770e+00 -2.027390368885e+02 0.0 
7.837970848735e+00 -2.042958469972e+02 0.0 
9.246757427275e+00 -2.043076745640e+02 0.0 
1.089066726539e+01 -2.062558349422e+02 0.0 
1.305486060585e+01 -2.083166877368e+02 0.0 
1.685888374295e+01 -2.096072835005e+02 0.0 
1.662101370611e+01 -2.123218849839e+02 0.0 
2.130470686557e+01 -2.169233732831e+02 0.0 
2.364824257700e+01 -2.199010048844e+02 0.0 
2.602322868431e+01 -2.257588927109e+02 0.0 
2.843906071766e+01 -2.309207156464e+02 0.0 
3.102704882914e+01 -2.373411614162e+02 0.0 
3.294713174440e+01 -2.449423890720e+02 0.0 
3.578409368374e+01 -2.525082867293e+02 0.0 
3.687145274452e+01 -2.606860589465e+02 0.0 
3.793373479378e+01 -2.691309418883e+02 0.0 
3.846911902404e+01 -2.773562327733e+02 0.0 
3.842828054231e+01 -2.858041963005e+02 0.0 
3.870543836265e+01 -2.946763565348e+02 0.0 
3.808602818435e+01 -3.028221526174e+02 0.0 
3.744022102948e+01 -3.107936303837e+02 0.0 
3.650585846654e+01 -3.186636227661e+02 0.0 
3.510116747623e+01 -3.259402137156e+02 0.0 
3.368723352807e+01 -3.327346152004e+02 0.0 
3.210091825748e+01 -3.392293606351e+02 0.0 
3.054309163383e+01 -3.454177279744e+02 0.0 
2.857420232066e+01 -3.508369519073e+02 0.0 
2.686001737300e+01 -3.556384652494e+02 0.0 
2.491813144632e+01 -3.607785812211e+02 0.0 
2.309939996298e+01 -3.646312864015e+02 0.0 
2.129598654957e+01 -3.685164797733e+02 0.0 
1.937978994822e+01 -3.718069158330e+02 0.0 
1.769317798923e+01 -3.747463088066e+02 0.0 
1.601907021611e+01 -3.773673366997e+02 0.0 
1.432769143482e+01 -3.796672479353e+02 0.0 
1.282987569832e+01 -3.815859598201e+02 0.0 
1.143876746250e+01 -3.836143158858e+02 0.0 
9.951678373543e+00 -3.848954141029e+02 0.0 
8.683929151099e+00 -3.860080860974e+02 0.0 
7.377247605502e+00 -3.868674999882e+02 0.0 
6.368161010429e+00 -3.884801568630e+02 0.0 
4.999490647259e+00 -3.883824697898e+02 0.0 
3.969622658834e+00 -3.895516464620e+02 0.0 
3.109455353312e+00 -3.895110576719e+02 0.0 
2.017349638058e+00 -3.899524694281e+02 0.0 
8.939317889893e-01 -3.900216303046e+02 0.0 
2.457393162855e+01 0.0 0.0 
3.299218089984e+01 0.0 0.0 
4.084927782225e+01 0.0 0.0 
4.829305800819e+01 0.0 0.0 
5.552860215254e+01 0.0 0.0 
6.278289979818e+01 0.0 0.0 
6.916035059890e+01 0.0 0.0 
7.472214364104e+01 0.0 0.0 
8.148725164000e+01 0.0 0.0 
0.0 0.0 0.0 
0.0 0.0 0.0 
0.0 0.0 0.0 
0.0 0.0 0.0 
0.0 0.0 0.0 
0.0 0.0 0.0 
0.0 0.0 0.0 
0.0 0.0 0.0 
0.0 0.0 0.0 
0.0 0.0 0.0 
0.0 0.0 0.0 
0.0 0.0 0.0 
0.0 0.0 0.0 
0.0 0.0 0.0 
0.0 0.0 0.0 
0.0 0.0 0.0 
0.0 0.0 0.0 
0.0 0.0 0.0 
0.0 0.0 0.0 
0.0 0.0 0.0 
0.0 0.0 0.0 
0.0 0.0 0.0 
0.0 0.0 0.0 
0.0 0.0 0.0 
0.0 0.0 0.0 
0.0 0.0 0.0 
0.0 0.0 0.0 
0.0 0.0 0.0 
0.0 0.0 0.0 
0.0 0.0 0.0 
0.0 0.0 0.0 
0.0 0.0 0.0 
0.0 0.0 0.0 
0.0 0.0 0.0 
0.0 0.0 0.0 
0.0 0.0 0.0 
0.0 0.0 0.0 
0.0 0.0 0.0 
0.0 0.0 0.0 
0.0 0.0 0.0 
0.0 0.0 0.0 
0.0 0.0 0.0 
0.0 0.0 0.0 
0.0 0.0 0.0 
0.0 0.0 0.0 
0.0 0.0 0.0 
0.0 0.0 0.0 
0.0 0.0 0.0 
0.0 0.0 0.0 
0.0 0.0 0.0 
0.0 0.0 0.0 
0.0 0.0 0.0 
0.0 0.0 0.0 
0.0 0.0 0.0 
0.0 0.0 0.0 
0.0 0.0 0.0 
0.0 0.0 0.0 
0.0 0.0 0.0 
0.0 0.0 0.0 
0.0 0.0 0.0 
0.0 0.0 0.0 
0.0 0.0 0.0 
0.0 0.0 0.0 
0.0 0.0 0.0 
0.0 0.0 0.0 
0.0 0.0 0.0 
0.0 0.0 0.0 
0.0 0.0 0.0 
0.0 0.0 0.0 
0.0 0.0 0.0 
0.0 0.0 0.0 
0.0 0.0 0.0 
0.0 0.0 0.0 
0.0 0.0 0.0 
0.0 0.0 0.0 
0.0 0.0 0.0 
0.0 0.0 0.0 
0.0 0.0 0.0 
0.0 0.0 0.0 
0.0 0.0 0.0 
0.0 0.0 0.0 
0.0 0.0 0.0 
0.0 0.0 0.0 
0.0 0.0 0.0 
0.0 0.0 0.0 
0.0 0.0 0.0 
0.0 0.0 0.0 
0.0 0.0 0.0 
0.0 0.0 0.0 
0.0 0.0 0.0 
0.0 0.0 0.0 
0.0 0.0 0.0 
0.0 0.0 0.0 
0.0 0.0 0.0 
0.0 0.0 0.0 
0.0 0.0 0.0 
0.0 0.0 0.0 
0.0 0.0 0.0 
0.0 0.0 0.0 
0.0 0.0 0.0 
0.0 0.0 0.0 
0.0 0.0 0.0 
0.0 0.0 0.0 
0.0 0.0 0.0 
0.0 0.0 0.0 
0.0 0.0 0.0 
0.0 0.0 0.0 
0.0 0.0 0.0 
0.0 0.0 0.0 
0.0 0.0 0.0 
0.0 0.0 0.0 
0.0 0.0 0.0 
0.0 0.0 0.0 
0.0 0.0 0.0 
0.0 0.0 0.0 
0.0 0.0 0.0 
0.0 0.0 0.0 
0.0 0.0 0.0 
0.0 0.0 0.0 
0.0 0.0 0.0 
0.0 0.0 0.0 
0.0 0.0 0.0 
0.0 0.0 0.0 
0.0 0.0 0.0 
0.0 0.0 0.0 
0.0 0.0 0.0 
0.0 0.0 0.0 
0.0 0.0 0.0 
0.0 0.0 0.0 
0.0 0.0 0.0 
0.0 0.0 0.0 
0.0 0.0 0.0 
0.0 0.0 0.0 
0.0 0.0 0.0 
0.0 0.0 0.0 
0.0 0.0 0.0 
0.0 0.0 0.0 
0.0 0.0 0.0 
0.0 0.0 0.0 
0.0 0.0 0.0 
0.0 0.0 0.0 
0.0 0.0 0.0 
0.0 0.0 0.0 
0.0 0.0 0.0 
0.0 0.0 0.0 
0.0 0.0 0.0 
0.0 0.0 0.0 
0.0 0.0 0.0 
0.0 0.0 0.0 
0.0 0.0 0.0 
0.0 0.0 0.0 
0.0 0.0 0.0 
0.0 0.0 0.0 
0.0 0.0 0.0 
0.0 0.0 0.0 
0.0 0.0 0.0 
0.0 0.0 0.0 
0.0 0.0 0.0 
0.0 0.0 0.0 
0.0 0.0 0.0 
0.0 0.0 0.0 
0.0 0.0 0.0 
0.0 0.0 0.0 
0.0 0.0 0.0 
0.0 0.0 0.0 
0.0 0.0 0.0 
0.0 0.0 0.0 
0.0 0.0 0.0 
0.0 0.0 0.0 
0.0 0.0 0.0 
0.0 0.0 0.0 
0.0 0.0 0.0 
0.0 0.0 0.0 
0.0 0.0 0.0 
0.0 0.0 0.0 
0.0 0.0 0.0 
0.0 0.0 0.0 
0.0 0.0 0.0 
0.0 0.0 0.0 
0.0 0.0 0.0 
0.0 0.0 0.0 
0.0 0.0 0.0 
0.0 0.0 0.0 
0.0 0.0 0.0 
0.0 0.0 0.0 
0.0 0.0 0.0 
0.0 0.0 0.0 
0.0 0.0 0.0 
0.0 0.0 0.0 
0.0 0.0 0.0 
0.0 0.0 0.0 
0.0 0.0 0.0 
0.0 0.0 0.0 
0.0 0.0 0.0 
0.0 0.0 0.0 
0.0 0.0 0.0 
0.0 0.0 0.0 
0.0 0.0 0.0 
0.0 0.0 0.0 
0.0 0.0 0.0 
0.0 0.0 0.0 
0.0 0.0 0.0 
0.0 0.0 0.0 
0.0 0.0 0.0 
0.0 0.0 0.0 
0.0 0.0 0.0 
0.0 0.0 0.0 
0.0 0.0 0.0 
0.0 0.0 0.0 
0.0 0.0 0.0 
0.0 0.0 0.0 
0.0 0.0 0.0 
0.0 0.0 0.0 
0.0 0.0 0.0 
0.0 0.0 0.0 
0.0 0.0 0.0 
0.0 0.0 0.0 
0.0 0.0 0.0 
0.0 0.0 0.0 
0.0 0.0 0.0 
0.0 0.0 0.0 
0.0 0.0 0.0 
0.0 0.0 0.0 
0.0 0.0 0.0 
0.0 0.0 0.0 
0.0 0.0 0.0 
0.0 0.0 0.0 
0.0 0.0 0.0 
0.0 0.0 0.0 
0.0 0.0 0.0 
0.0 0.0 0.0 
0.0 0.0 0.0 
0.0 0.0 0.0 
0.0 0.0 0.0 
0.0 0.0 0.0 
0.0 0.0 0.0 
0.0 0.0 0.0 
0.0 0.0 0.0 
0.0 0.0 0.0 
0.0 0.0 0.0 
0.0 0.0 0.0 
0.0 0.0 0.0 
0.0 0.0 0.0 
0.0 0.0 0.0 
0.0 0.0 0.0 
0.0 0.0 0.0 
0.0 0.0 0.0 
0.0 0.0 0.0 
0.0 0.0 0.0 
0.0 0.0 0.0 
0.0 0.0 0.0 
0.0 0.0 0.0 
0.0 0.0 0.0 
0.0 0.0 0.0 
0.0 0.0 0.0 
0.0 0.0 0.0 
0.0 0.0 0.0 
0.0 0.0 0.0 
0.0 0.0 0.0 
0.0 0.0 0.0 
0.0 0.0 0.0 
0.0 0.0 0.0 
0.0 0.0 0.0 
0.0 0.0 0.0 
0.0 0.0 0.0 
0.0 0.0 0.0 
0.0 0.0 0.0 
0.0 0.0 0.0 
0.0 0.0 0.0 
0.0 0.0 0.0 
0.0 0.0 0.0 
0.0 0.0 0.0 
0.0 0.0 0.0 
0.0 0.0 0.0 
0.0 0.0 0.0 
0.0 0.0 0.0 
0.0 0.0 0.0 
0.0 0.0 0.0 
0.0 0.0 0.0 
0.0 0.0 0.0 
0.0 0.0 0.0 
0.0 0.0 0.0 
0.0 0.0 0.0 
0.0 0.0 0.0 
0.0 0.0 0.0 
0.0 0.0 0.0 
0.0 0.0 0.0 
0.0 0.0 0.0 
0.0 0.0 0.0 
0.0 0.0 0.0 
0.0 0.0 0.0 
0.0 0.0 0.0 
0.0 0.0 0.0 
0.0 0.0 0.0 
0.0 0.0 0.0 
0.0 0.0 0.0 
0.0 0.0 0.0 
0.0 0.0 0.0 
0.0 0.0 0.0 
0.0 0.0 0.0 
0.0 0.0 0.0 
0.0 0.0 0.0 
0.0 0.0 0.0 
0.0 0.0 0.0 
0.0 0.0 0.0 
0.0 0.0 0.0 
0.0 0.0 0.0 
0.0 0.0 0.0 
0.0 0.0 0.0 
0.0 0.0 0.0 
0.0 0.0 0.0 
0.0 0.0 0.0 
0.0 0.0 0.0 
0.0 0.0 0.0 
0.0 0.0 0.0 
0.0 0.0 0.0 
0.0 0.0 0.0 
0.0 0.0 0.0 
0.0 0.0 0.0 
0.0 0.0 0.0 
0.0 0.0 0.0 
0.0 0.0 0.0 
0.0 0.0 0.0 
0.0 0.0 0.0 
0.0 0.0 0.0 
0.0 0.0 0.0 
0.0 0.0 0.0 
0.0 0.0 0.0 
0.0 0.0 0.0 
0.0 0.0 0.0 
0.0 0.0 0.0 
0.0 0.0 0.0 
0.0 0.0 0.0 
0.0 0.0 0.0 
0.0 0.0 0.0 
0.0 0.0 0.0 
0.0 0.0 0.0 
0.0 0.0 0.0 
0.0 0.0 0.0 
0.0 0.0 0.0 
0.0 0.0 0.0 
0.0 0.0 0.0 
0.0 0.0 0.0 
0.0 0.0 0.0 
0.0 0.0 0.0 
0.0 0.0 0.0 
0.0 0.0 0.0 
0.0 0.0 0.0 
0.0 0.0 0.0 
0.0 0.0 0.0 
0.0 0.0 0.0 
0.0 0.0 0.0 
0.0 0.0 0.0 
0.0 0.0 0.0 
0.0 0.0 0.0 
0.0 0.0 0.0 
0.0 0.0 0.0 
0.0 0.0 0.0 
0.0 0.0 0.0 
0.0 0.0 0.0 
0.0 0.0 0.0 
0.0 0.0 0.0 
0.0 0.0 0.0 
0.0 0.0 0.0 
0.0 0.0 0.0 
0.0 0.0 0.0 
0.0 0.0 0.0 
0.0 0.0 0.0 
0.0 0.0 0.0 
0.0 0.0 0.0 
0.0 0.0 0.0 
0.0 0.0 0.0 
0.0 0.0 0.0 
0.0 0.0 0.0 
0.0 0.0 0.0 
0.0 0.0 0.0 
0.0 0.0 0.0 
0.0 0.0 0.0 
0.0 0.0 0.0 
0.0 0.0 0.0 
0.0 0.0 0.0 
0.0 0.0 0.0 
0.0 0.0 0.0 
0.0 0.0 0.0 
0.0 0.0 0.0 
0.0 0.0 0.0 
0.0 0.0 0.0 
0.0 0.0 0.0 
0.0 0.0 0.0 
0.0 0.0 0.0 
0.0 0.0 0.0 
0.0 0.0 0.0 
0.0 0.0 0.0 
0.0 0.0 0.0 
0.0 0.0 0.0 
0.0 0.0 0.0 
0.0 0.0 0.0 
0.0 0.0 0.0 
0.0 0.0 0.0 
0.0 0.0 0.0 
0.0 0.0 0.0 
0.0 0.0 0.0 
0.0 0.0 0.0 
0.0 0.0 0.0 
0.0 0.0 0.0 
0.0 0.0 0.0 
0.0 0.0 0.0 
0.0 0.0 0.0 
0.0 0.0 0.0 
0.0 0.0 0.0 
0.0 0.0 0.0 
0.0 0.0 0.0 
0.0 0.0 0.0 
0.0 0.0 0.0 
0.0 0.0 0.0 
0.0 0.0 0.0 
0.0 0.0 0.0 
0.0 0.0 0.0 
0.0 0.0 0.0 
0.0 0.0 0.0 
0.0 0.0 0.0 
0.0 0.0 0.0 
0.0 0.0 0.0 
0.0 0.0 0.0 
0.0 0.0 0.0 
0.0 0.0 0.0 
0.0 0.0 0.0 
0.0 0.0 0.0 
0.0 0.0 0.0 
0.0 0.0 0.0 
0.0 0.0 0.0 
0.0 0.0 0.0 
0.0 0.0 0.0 
0.0 0.0 0.0 
0.0 0.0 0.0 
0.0 0.0 0.0 
0.0 0.0 0.0 
0.0 0.0 0.0 
0.0 0.0 0.0 
0.0 0.0 0.0 
0.0 0.0 0.0 
0.0 0.0 0.0 
0.0 0.0 0.0 
0.0 0.0 0.0 
0.0 0.0 0.0 
0.0 0.0 0.0 
0.0 0.0 0.0 
0.0 0.0 0.0 
0.0 0.0 0.0 
0.0 0.0 0.0 
0.0 0.0 0.0 
0.0 0.0 0.0 
0.0 0.0 0.0 
0.0 0.0 0.0 
0.0 0.0 0.0 
0.0 0.0 0.0 
0.0 0.0 0.0 
0.0 0.0 0.0 
0.0 0.0 0.0 
0.0 0.0 0.0 
0.0 0.0 0.0 
0.0 0.0 0.0 
0.0 0.0 0.0 
0.0 0.0 0.0 
0.0 0.0 0.0 
0.0 0.0 0.0 
0.0 0.0 0.0 
0.0 0.0 0.0 
0.0 0.0 0.0 
0.0 0.0 0.0 
0.0 0.0 0.0 
0.0 0.0 0.0 
0.0 0.0 0.0 
0.0 0.0 0.0 
0.0 0.0 0.0 
0.0 0.0 0.0 
0.0 0.0 0.0 
0.0 0.0 0.0 
0.0 0.0 0.0 
0.0 0.0 0.0 
0.0 0.0 0.0 
0.0 0.0 0.0 
0.0 0.0 0.0 
0.0 0.0 0.0 
0.0 0.0 0.0 
0.0 0.0 0.0 
0.0 0.0 0.0 
0.0 0.0 0.0 
0.0 0.0 0.0 
0.0 0.0 0.0 
0.0 0.0 0.0 
0.0 0.0 0.0 
0.0 0.0 0.0 
0.0 0.0 0.0 
0.0 0.0 0.0 
0.0 0.0 0.0 
0.0 0.0 0.0 
0.0 0.0 0.0 
0.0 0.0 0.0 
0.0 0.0 0.0 
0.0 0.0 0.0 
0.0 0.0 0.0 
0.0 0.0 0.0 
0.0 0.0 0.0 
0.0 0.0 0.0 
0.0 0.0 0.0 
0.0 0.0 0.0 
0.0 0.0 0.0 
0.0 0.0 0.0 
0.0 0.0 0.0 
0.0 0.0 0.0 
0.0 0.0 0.0 
0.0 0.0 0.0 
0.0 0.0 0.0 
0.0 0.0 0.0 
0.0 0.0 0.0 
0.0 0.0 0.0 
0.0 0.0 0.0 
0.0 0.0 0.0 
0.0 0.0 0.0 
0.0 0.0 0.0 
0.0 0.0 0.0 
0.0 0.0 0.0 
0.0 0.0 0.0 
0.0 0.0 0.0 
0.0 0.0 0.0 
0.0 0.0 0.0 
0.0 0.0 0.0 
0.0 0.0 0.0 
0.0 0.0 0.0 
0.0 0.0 0.0 
0.0 0.0 0.0 
0.0 0.0 0.0 
0.0 0.0 0.0 
0.0 0.0 0.0 
0.0 0.0 0.0 
0.0 0.0 0.0 
0.0 0.0 0.0 
0.0 0.0 0.0 
0.0 0.0 0.0 
0.0 0.0 0.0 
0.0 0.0 0.0 
0.0 0.0 0.0 
0.0 0.0 0.0 
0.0 0.0 0.0 
0.0 0.0 0.0 
0.0 0.0 0.0 
0.0 0.0 0.0 
0.0 0.0 0.0 
0.0 0.0 0.0 
0.0 0.0 0.0 
0.0 0.0 0.0 
0.0 0.0 0.0 
0.0 0.0 0.0 
0.0 0.0 0.0 
0.0 0.0 0.0 
0.0 0.0 0.0 
0.0 0.0 0.0 
0.0 0.0 0.0 
0.0 0.0 0.0 
0.0 0.0 0.0 
0.0 0.0 0.0 
0.0 0.0 0.0 
0.0 0.0 0.0 
0.0 0.0 0.0 
0.0 0.0 0.0 
0.0 0.0 0.0 
0.0 0.0 0.0 
0.0 0.0 0.0 
0.0 0.0 0.0 
0.0 0.0 0.0 
0.0 0.0 0.0 
0.0 0.0 0.0 
0.0 0.0 0.0 
0.0 0.0 0.0 
0.0 0.0 0.0 
0.0 0.0 0.0 
0.0 0.0 0.0 
0.0 0.0 0.0 
0.0 0.0 0.0 
0.0 0.0 0.0 
0.0 0.0 0.0 
0.0 0.0 0.0 
0.0 0.0 0.0 
0.0 0.0 0.0 
0.0 0.0 0.0 
0.0 0.0 0.0 
0.0 0.0 0.0 
0.0 0.0 0.0 
0.0 0.0 0.0 
0.0 0.0 0.0 
0.0 0.0 0.0 
0.0 0.0 0.0 
0.0 0.0 0.0 
0.0 0.0 0.0 
0.0 0.0 0.0 
0.0 0.0 0.0 
0.0 0.0 0.0 
0.0 0.0 0.0 
0.0 0.0 0.0 
0.0 0.0 0.0 
0.0 0.0 0.0 
0.0 0.0 0.0 
0.0 0.0 0.0 
0.0 0.0 0.0 
0.0 0.0 0.0 
0.0 0.0 0.0 
0.0 0.0 0.0 
0.0 0.0 0.0 
0.0 0.0 0.0 
0.0 0.0 0.0 
0.0 0.0 0.0 
0.0 0.0 0.0 
0.0 0.0 0.0 
0.0 0.0 0.0 
0.0 0.0 0.0 
0.0 0.0 0.0 
0.0 0.0 0.0 
0.0 0.0 0.0 
0.0 0.0 0.0 
0.0 0.0 0.0 
0.0 0.0 0.0 
0.0 0.0 0.0 
0.0 0.0 0.0 
0.0 0.0 0.0 
0.0 0.0 0.0 
0.0 0.0 0.0 
0.0 0.0 0.0 
0.0 0.0 0.0 
0.0 0.0 0.0 
0.0 0.0 0.0 
0.0 0.0 0.0 
0.0 0.0 0.0 
0.0 0.0 0.0 
0.0 0.0 0.0 
0.0 0.0 0.0 
0.0 0.0 0.0 
0.0 0.0 0.0 
0.0 0.0 0.0 
0.0 0.0 0.0 
0.0 0.0 0.0 
0.0 0.0 0.0 
0.0 0.0 0.0 
0.0 0.0 0.0 
0.0 0.0 0.0 
0.0 0.0 0.0 
0.0 0.0 0.0 
0.0 0.0 0.0 
0.0 0.0 0.0 
0.0 0.0 0.0 
0.0 0.0 0.0 
0.0 0.0 0.0 
0.0 0.0 0.0 
0.0 0.0 0.0 
0.0 0.0 0.0 
0.0 0.0 0.0 
0.0 0.0 0.0 
0.0 0.0 0.0 
0.0 0.0 0.0 
0.0 0.0 0.0 
0.0 0.0 0.0 
0.0 0.0 0.0 
0.0 0.0 0.0 
0.0 0.0 0.0 
0.0 0.0 0.0 
0.0 0.0 0.0 
0.0 0.0 0.0 
0.0 0.0 0.0 
0.0 0.0 0.0 
0.0 0.0 0.0 
0.0 0.0 0.0 
0.0 0.0 0.0 
0.0 0.0 0.0 
0.0 0.0 0.0 
0.0 0.0 0.0 
0.0 0.0 0.0 
0.0 0.0 0.0 
0.0 0.0 0.0 
0.0 0.0 0.0 
0.0 0.0 0.0 
0.0 0.0 0.0 
0.0 0.0 0.0 
0.0 0.0 0.0 
0.0 0.0 0.0 
0.0 0.0 0.0 
0.0 0.0 0.0 
0.0 0.0 0.0 
0.0 0.0 0.0 
0.0 0.0 0.0 
0.0 0.0 0.0 
0.0 0.0 0.0 
0.0 0.0 0.0 
0.0 0.0 0.0 
0.0 0.0 0.0 
0.0 0.0 0.0 
0.0 0.0 0.0 
0.0 0.0 0.0 
0.0 0.0 0.0 
0.0 0.0 0.0 
0.0 0.0 0.0 
0.0 0.0 0.0 
0.0 0.0 0.0 
0.0 0.0 0.0 
0.0 0.0 0.0 
0.0 0.0 0.0 
0.0 0.0 0.0 
0.0 0.0 0.0 
0.0 0.0 0.0 
0.0 0.0 0.0 
0.0 0.0 0.0 
0.0 0.0 0.0 
0.0 0.0 0.0 
0.0 0.0 0.0 
0.0 0.0 0.0 
0.0 0.0 0.0 
0.0 0.0 0.0 
0.0 0.0 0.0 
0.0 0.0 0.0 
0.0 0.0 0.0 
0.0 0.0 0.0 
0.0 0.0 0.0 
0.0 0.0 0.0 
0.0 0.0 0.0 
0.0 0.0 0.0 
0.0 0.0 0.0 
0.0 0.0 0.0 
0.0 0.0 0.0 
0.0 0.0 0.0 
0.0 0.0 0.0 
0.0 0.0 0.0 
0.0 0.0 0.0 
0.0 0.0 0.0 
0.0 0.0 0.0 
0.0 0.0 0.0 
0.0 0.0 0.0 
0.0 0.0 0.0 
0.0 0.0 0.0 
0.0 0.0 0.0 
0.0 0.0 0.0 
0.0 0.0 0.0 
0.0 0.0 0.0 
0.0 0.0 0.0 
0.0 0.0 0.0 
0.0 0.0 0.0 
0.0 0.0 0.0 
0.0 0.0 0.0 
0.0 0.0 0.0 
0.0 0.0 0.0 
0.0 0.0 0.0 
0.0 0.0 0.0 
0.0 0.0 0.0 
0.0 0.0 0.0 
0.0 0.0 0.0 
0.0 0.0 0.0 
0.0 0.0 0.0 
0.0 0.0 0.0 
0.0 0.0 0.0 
0.0 0.0 0.0 
0.0 0.0 0.0 
0.0 0.0 0.0 
0.0 0.0 0.0 
0.0 0.0 0.0 
0.0 0.0 0.0 
0.0 0.0 0.0 
0.0 0.0 0.0 
0.0 0.0 0.0 
0.0 0.0 0.0 
0.0 0.0 0.0 
0.0 0.0 0.0 
0.0 0.0 0.0 
0.0 0.0 0.0 
0.0 0.0 0.0 
0.0 0.0 0.0 
0.0 0.0 0.0 
0.0 0.0 0.0 
0.0 0.0 0.0 
0.0 0.0 0.0 
0.0 0.0 0.0 
0.0 0.0 0.0 
0.0 0.0 0.0 
0.0 0.0 0.0 
0.0 0.0 0.0 
0.0 0.0 0.0 
0.0 0.0 0.0 
0.0 0.0 0.0 
0.0 0.0 0.0 
0.0 0.0 0.0 
0.0 0.0 0.0 
0.0 0.0 0.0 
0.0 0.0 0.0 
0.0 0.0 0.0 
0.0 0.0 0.0 
0.0 0.0 0.0 
0.0 0.0 0.0 
0.0 0.0 0.0 
0.0 0.0 0.0 
0.0 0.0 0.0 
0.0 0.0 0.0 
0.0 0.0 0.0 
0.0 0.0 0.0 
0.0 0.0 0.0 
0.0 0.0 0.0 
0.0 0.0 0.0 
0.0 0.0 0.0 
0.0 0.0 0.0 
0.0 0.0 0.0 
0.0 0.0 0.0 
0.0 0.0 0.0 
0.0 0.0 0.0 
0.0 0.0 0.0 
0.0 0.0 0.0 
0.0 0.0 0.0 
0.0 0.0 0.0 
0.0 0.0 0.0 
0.0 0.0 0.0 
0.0 0.0 0.0 
0.0 0.0 0.0 
0.0 0.0 0.0 
0.0 0.0 0.0 
0.0 0.0 0.0 
0.0 0.0 0.0 
0.0 0.0 0.0 
0.0 0.0 0.0 
0.0 0.0 0.0 
0.0 0.0 0.0 
0.0 0.0 0.0 
0.0 0.0 0.0 
0.0 0.0 0.0 
0.0 0.0 0.0 
0.0 0.0 0.0 
0.0 0.0 0.0 
0.0 0.0 0.0 
0.0 0.0 0.0 
0.0 0.0 0.0 
0.0 0.0 0.0 
0.0 0.0 0.0 
0.0 0.0 0.0 
0.0 0.0 0.0 
0.0 0.0 0.0 
0.0 0.0 0.0 
0.0 0.0 0.0 
0.0 0.0 0.0 
0.0 0.0 0.0 
0.0 0.0 0.0 
0.0 0.0 0.0 
0.0 0.0 0.0 
0.0 0.0 0.0 
0.0 0.0 0.0 
0.0 0.0 0.0 
0.0 0.0 0.0 
0.0 0.0 0.0 
0.0 0.0 0.0 
0.0 0.0 0.0 
0.0 0.0 0.0 
0.0 0.0 0.0 
0.0 0.0 0.0 
0.0 0.0 0.0 
0.0 0.0 0.0 
0.0 0.0 0.0 
0.0 0.0 0.0 
0.0 0.0 0.0 
0.0 0.0 0.0 
0.0 0.0 0.0 
0.0 0.0 0.0 
0.0 0.0 0.0 
0.0 0.0 0.0 
0.0 0.0 0.0 
0.0 0.0 0.0 
0.0 0.0 0.0 
0.0 0.0 0.0 
0.0 0.0 0.0 
0.0 0.0 0.0 
0.0 0.0 0.0 
0.0 0.0 0.0 
0.0 0.0 0.0 
0.0 0.0 0.0 
0.0 0.0 0.0 
0.0 0.0 0.0 
0.0 0.0 0.0 
0.0 0.0 0.0 
0.0 0.0 0.0 
0.0 0.0 0.0 
0.0 0.0 0.0 
0.0 0.0 0.0 
0.0 0.0 0.0 
0.0 0.0 0.0 
0.0 0.0 0.0 
0.0 0.0 0.0 
0.0 0.0 0.0 
0.0 0.0 0.0 
0.0 0.0 0.0 
0.0 0.0 0.0 
0.0 0.0 0.0 
0.0 0.0 0.0 
0.0 0.0 0.0 
0.0 0.0 0.0 
0.0 0.0 0.0 
0.0 0.0 0.0 
0.0 0.0 0.0 
0.0 0.0 0.0 
0.0 0.0 0.0 
0.0 0.0 0.0 
0.0 0.0 0.0 
0.0 0.0 0.0 
0.0 0.0 0.0 
0.0 0.0 0.0 
0.0 0.0 0.0 
0.0 0.0 0.0 
0.0 0.0 0.0 
0.0 0.0 0.0 
0.0 0.0 0.0 
0.0 0.0 0.0 
0.0 0.0 0.0 
0.0 0.0 0.0 
0.0 0.0 0.0 
0.0 0.0 0.0 
0.0 0.0 0.0 
0.0 0.0 0.0 
0.0 0.0 0.0 
0.0 0.0 0.0 
0.0 0.0 0.0 
0.0 0.0 0.0 
0.0 0.0 0.0 
0.0 0.0 0.0 
0.0 0.0 0.0 
0.0 0.0 0.0 
0.0 0.0 0.0 
0.0 0.0 0.0 
0.0 0.0 0.0 
0.0 0.0 0.0 
0.0 0.0 0.0 
0.0 0.0 0.0 
0.0 0.0 0.0 
0.0 0.0 0.0 
0.0 0.0 0.0 
0.0 0.0 0.0 
0.0 0.0 0.0 
0.0 0.0 0.0 
0.0 0.0 0.0 
0.0 0.0 0.0 
0.0 0.0 0.0 
0.0 0.0 0.0 
0.0 0.0 0.0 
0.0 0.0 0.0 
0.0 0.0 0.0 
0.0 0.0 0.0 
0.0 0.0 0.0 

VECTORS node_materi_velocity float
0.0 -1.783975906930e-04 0.0 
0.0 1.005076816043e-02 0.0 
0.0 0.0 0.0 
0.0 0.0 0.0 
0.0 -1.679400135602e-04 0.0 
0.0 -1.576561906308e-04 0.0 
0.0 -1.473472808019e-04 0.0 
0.0 -1.369110036931e-04 0.0 
0.0 -1.262141185587e-04 0.0 
0.0 -1.151859505988e-04 0.0 
0.0 -1.038130779536e-04 0.0 
0.0 -9.212847652509e-05 0.0 
0.0 -8.024014506760e-05 0.0 
0.0 -6.830532807619e-05 0.0 
0.0 -5.655741718320e-05 0.0 
0.0 -4.526452374469e-05 0.0 
0.0 -3.463335159723e-05 0.0 
0.0 -2.471480564105e-05 0.0 
0.0 -1.609867128805e-05 0.0 
0.0 -8.986470785955e-06 0.0 
0.0 -3.580060455564e-06 0.0 
0.0 -2.155892412118e-07 0.0 
0.0 8.626757628844e-07 0.0 
0.0 0.0 0.0 
0.0 0.0 0.0 
0.0 0.0 0.0 
0.0 0.0 0.0 
0.0 0.0 0.0 
0.0 0.0 0.0 
0.0 0.0 0.0 
0.0 0.0 0.0 
0.0 0.0 0.0 
0.0 0.0 0.0 
0.0 0.0 0.0 
0.0 0.0 0.0 
0.0 0.0 0.0 
0.0 0.0 0.0 
0.0 0.0 0.0 
0.0 0.0 0.0 
0.0 0.0 0.0 
0.0 0.0 0.0 
0.0 0.0 0.0 
0.0 0.0 0.0 
0.0 0.0 0.0 
0.0 0.0 0.0 
0.0 0.0 0.0 
0.0 0.0 0.0 
0.0 0.0 0.0 
0.0 0.0 0.0 
0.0 0.0 0.0 
0.0 0.0 0.0 
0.0 0.0 0.0 
0.0 0.0 0.0 
0.0 0.0 0.0 
0.0 0.0 0.0 
0.0 0.0 0.0 
0.0 0.0 0.0 
0.0 0.0 0.0 
0.0 0.0 0.0 
0.0 0.0 0.0 
0.0 0.0 0.0 
0.0 0.0 0.0 
0.0 0.0 0.0 
0.0 0.0 0.0 
0.0 0.0 0.0 
0.0 0.0 0.0 
0.0 0.0 0.0 
0.0 0.0 0.0 
0.0 0.0 0.0 
0.0 0.0 0.0 
0.0 0.0 0.0 
0.0 0.0 0.0 
0.0 9.040905054300e-03 0.0 
0.0 8.018888576049e-03 0.0 
0.0 6.994391210707e-03 0.0 
0.0 5.969101877019e-03 0.0 
0.0 4.946139271698e-03 0.0 
0.0 3.928654488506e-03 0.0 
0.0 2.920741389752e-03 0.0 
0.0 1.927282759768e-03 0.0 
0.0 9.530970256785e-04 0.0 
2.571407730880e-04 -2.178378540932e-04 0.0 
1.430245937544e-03 5.763727384081e-03 0.0 
2.660644817005e-04 -1.848961401768e-04 0.0 
2.736933553047e-04 -1.338710072291e-04 0.0 
2.816955458791e-04 -5.524316588196e-05 0.0 
2.926455723050e-04 6.747392866049e-05 0.0 
3.097925977759e-04 2.560159998294e-04 0.0 
3.468682583151e-04 5.478616002603e-04 0.0 
4.403853302042e-04 1.010984641925e-03 0.0 
7.037327069792e-04 1.759042894322e-03 0.0 
1.714785068162e-03 3.041687042114e-03 0.0 
1.439702360532e-04 1.009780376185e-02 0.0 
2.360419760277e-04 1.004960502964e-02 0.0 
3.384130064295e-04 1.004514169952e-02 0.0 
4.429096620471e-04 1.005540468663e-02 0.0 
5.471282298569e-04 1.003367192781e-02 0.0 
6.373049837141e-04 1.002669194203e-02 0.0 
7.080463849603e-04 9.984076593626e-03 0.0 
7.634131893688e-04 9.927543825668e-03 0.0 
7.814006093622e-04 9.807130481550e-03 0.0 
7.705248634273e-04 9.649637714988e-03 0.0 
7.219480560508e-04 9.385199044130e-03 0.0 
6.543951455931e-04 8.975091523331e-03 0.0 
6.231664627921e-04 8.369515180590e-03 0.0 
7.519194708681e-04 7.466552746598e-03 0.0 
2.614775040256e-04 -2.355172249238e-04 0.0 
2.663274763035e-04 -2.490431660142e-04 0.0 
2.698363376490e-04 -2.576800973565e-04 0.0 
2.714573304427e-04 -2.617480618108e-04 0.0 
2.700584148902e-04 -2.624559143621e-04 0.0 
2.657910625274e-04 -2.600008591795e-04 0.0 
2.586574013543e-04 -2.550312180029e-04 0.0 
2.487686748017e-04 -2.484416658196e-04 0.0 
2.363680493388e-04 -2.407308313061e-04 0.0 
2.216549243665e-04 -2.323482861380e-04 0.0 
2.048485897962e-04 -2.238707322596e-04 0.0 
1.863116262564e-04 -2.154553729791e-04 0.0 
1.661846084249e-04 -2.075321011231e-04 0.0 
1.447355119022e-04 -2.002448260259e-04 0.0 
1.222095323389e-04 -1.939008350438e-04 0.0 
9.881383161327e-05 -1.885196813567e-04 0.0 
7.470762491820e-05 -1.841980942844e-04 0.0 
5.009358845009e-05 -1.810603481501e-04 0.0 
2.514803536483e-05 -1.791823505930e-04 0.0 
2.621021798929e-04 -2.030806423096e-04 0.0 
2.699397652723e-04 -1.621344653998e-04 0.0 
2.776706930583e-04 -9.872646342900e-05 0.0 
2.864813421362e-04 -1.229298711261e-06 0.0 
2.985538221473e-04 1.503462440450e-04 0.0 
3.240783362862e-04 3.870371132178e-04 0.0 
3.826067562957e-04 7.520687509547e-04 0.0 
5.376475157480e-04 1.339761401545e-03 0.0 
1.021241422379e-03 2.298926454792e-03 0.0 
1.856581135310e-03 4.404582454648e-03 0.0 
2.903117582311e-04 -1.631103944261e-04 0.0 
9.119895217128e-05 6.268601352400e-06 0.0 
2.241279194829e-04 -2.310960345994e-04 0.0 
2.739147704977e-04 -2.616800011960e-04 0.0 
4.562004926411e-05 1.693610581284e-06 0.0 
3.310707488284e-04 -4.751704492771e-07 0.0 
1.811799240082e-05 -6.250071617099e-05 0.0 
1.577099433247e-04 1.878243530849e-05 0.0 
4.391292633129e-04 3.681107676517e-04 0.0 
2.597974364970e-04 4.899874710594e-05 0.0 
8.784807594314e-04 1.311390294694e-03 0.0 
2.251415570669e-05 1.102128159736e-06 0.0 
1.485453571990e-04 -1.954794061271e-04 0.0 
4.258954010415e-04 1.290315512080e-04 0.0 
1.874606211838e-03 4.024288393305e-03 0.0 
1.874543241329e-05 -1.096372435121e-04 0.0 
1.614012498206e-05 -3.166069002756e-05 0.0 
5.728581114643e-04 2.566592746920e-04 0.0 
5.988756361811e-04 4.812033492892e-04 0.0 
1.884751205579e-04 7.961956380428e-04 0.0 
3.688789151336e-04 8.139226259284e-04 0.0 
4.862646065311e-04 6.315251947089e-04 0.0 
1.457299459297e-03 7.043660679748e-03 0.0 
9.522599895993e-04 8.844709437621e-03 0.0 
7.142252169866e-04 9.076086300769e-03 0.0 
9.396725217190e-05 5.441629735852e-03 0.0 
1.303476301602e-05 1.023899488252e-06 0.0 
2.752698286538e-04 -2.435737872011e-04 0.0 
8.364768062325e-05 -1.773852272430e-04 0.0 
9.857612947082e-06 -6.545897363656e-06 0.0 
3.943218389208e-04 9.176288404263e-03 0.0 
2.142502835419e-05 -1.428008798650e-04 0.0 
6.878986207393e-04 4.121900567838e-04 0.0 
1.884050601853e-04 2.841818523822e-05 0.0 
3.320850259037e-04 7.864460143136e-05 0.0 
1.289190158832e-04 1.215044302046e-05 0.0 
6.574034028197e-05 3.273813215857e-06 0.0 
2.608675416739e-04 -2.547572410021e-04 0.0 
1.092977025466e-03 8.366948159174e-03 0.0 
3.848830975723e-05 1.214367282755e-06 0.0 
7.995422657043e-05 3.465835783910e-03 0.0 
1.900623283139e-04 -2.127591027547e-04 0.0 
1.908012260204e-05 -8.665806128228e-05 0.0 
9.197950287884e-05 6.539794468905e-04 0.0 
3.714073140766e-04 1.345436875469e-04 0.0 
3.068974254813e-04 -9.878428398648e-05 0.0 
5.779816910183e-04 7.198450497022e-04 0.0 
1.549262495498e-03 2.387240305348e-03 0.0 
2.757799736816e-04 -2.042976437147e-04 0.0 
1.013306114440e-04 7.385653450579e-03 0.0 
5.761569052834e-06 8.324886283146e-07 0.0 
3.717011269667e-05 -1.711494305940e-04 0.0 
4.772324975854e-05 1.507976449630e-03 0.0 
2.006382006577e-03 4.743427493557e-03 0.0 
2.177766081056e-03 3.656883450150e-03 0.0 
2.253814348852e-03 4.509852516315e-03 0.0 
2.357832226226e-03 3.309500767130e-03 0.0 
2.406601949723e-03 3.787950452065e-03 0.0 
2.422050542481e-03 2.903871928354e-03 0.0 
2.337498542074e-03 2.477845645070e-03 0.0 
2.357439903588e-03 2.199282189252e-03 0.0 
2.258337792278e-03 1.852842578490e-03 0.0 
2.416322725951e-03 3.233329651196e-03 0.0 
2.243532889040e-03 1.650089944220e-03 0.0 
2.143713069815e-03 1.373466372876e-03 0.0 
2.095856632658e-03 1.225181548079e-03 0.0 
2.004230571749e-03 1.009272548883e-03 0.0 
1.997788514589e-03 1.096832047748e-03 0.0 
1.874786462872e-03 7.947704806899e-04 0.0 
1.823880562917e-03 8.389905823012e-04 0.0 
1.721812308039e-03 5.948630874103e-04 0.0 
1.737594012235e-03 5.688423512976e-04 0.0 
1.606706846203e-03 4.146542685772e-04 0.0 
1.558055369125e-03 4.182048740780e-04 0.0 
1.465926792455e-03 2.778780478523e-04 0.0 
1.394501253521e-03 2.685742301531e-04 0.0 
1.324415136111e-03 1.613704133090e-04 0.0 
1.238305165057e-03 1.454116281339e-04 0.0 
1.188177962533e-03 6.498895704816e-05 0.0 
1.242561785574e-03 8.579665260747e-05 0.0 
1.125044789434e-03 9.672356538853e-06 0.0 
1.062334558803e-03 -1.211926054007e-05 0.0 
1.014600179956e-03 -5.196680074482e-05 0.0 
9.488785326552e-04 -7.263916007078e-05 0.0 
9.133487756834e-04 -1.007200626462e-04 0.0 
9.564872864901e-04 -7.592965715452e-05 0.0 
8.673452488851e-04 -1.157398538446e-04 0.0 
8.217978507038e-04 -1.386586517859e-04 0.0 
7.856568708282e-04 -1.469999692663e-04 0.0 
7.400523994421e-04 -1.678153662611e-04 0.0 
7.117150201820e-04 -1.710922013429e-04 0.0 
6.676832617882e-04 -1.898225366316e-04 0.0 
6.449201903944e-04 -1.893795967615e-04 0.0 
6.758047876595e-04 -1.672670931281e-04 0.0 
6.149850229652e-04 -1.828309197736e-04 0.0 
5.849427163331e-04 -2.030022713644e-04 0.0 
5.597480436080e-04 -1.944533475073e-04 0.0 
5.792275876866e-04 -1.719171669989e-04 0.0 
5.290644985813e-04 -1.821584114106e-04 0.0 
5.391450000739e-04 -1.580606510594e-04 0.0 
4.942585123012e-04 -1.673511439963e-04 0.0 
4.834940034280e-04 -1.895088064308e-04 0.0 
4.528393880026e-04 -1.740674590929e-04 0.0 
4.566664901443e-04 -1.510502339217e-04 0.0 
4.194126825064e-04 -1.575105146552e-04 0.0 
4.144080503520e-04 -1.788613272748e-04 0.0 
3.846760634381e-04 -1.620140140003e-04 0.0 
3.845149290174e-04 -1.404226107830e-04 0.0 
3.532259661601e-04 -1.449100484135e-04 0.0 
3.522384860019e-04 -1.650119395596e-04 0.0 
3.237346937079e-04 -1.479694487144e-04 0.0 
3.211004233473e-04 -1.278676601091e-04 0.0 
2.943491075747e-04 -1.312381719341e-04 0.0 
2.958318794021e-04 -1.499359701104e-04 0.0 
2.688780983202e-04 -1.334665956177e-04 0.0 
2.647838008247e-04 -1.150404342967e-04 0.0 
2.415504050808e-04 -1.177073846321e-04 0.0 
2.353891434855e-04 -9.979935603895e-05 0.0 
2.442370265481e-04 -1.349737367683e-04 0.0 
2.189746766444e-04 -1.196557680300e-04 0.0 
2.206919641567e-04 -1.359619326161e-04 0.0 
1.970971492150e-04 -1.211048357195e-04 0.0 
8.905427124751e-04 -8.791317316113e-05 0.0 
1.984342354806e-04 -1.364541835751e-04 0.0 
2.205451199404e-04 -1.512532980363e-04 0.0 
1.759786296056e-04 -1.222297289999e-04 0.0 
1.733334084192e-04 -1.071741438062e-04 0.0 
1.770523179968e-04 -1.366700707060e-04 0.0 
1.554799125170e-04 -1.231772971486e-04 0.0 
1.564996508817e-04 -1.368146821459e-04 0.0 
6.788181104194e-04 -1.829681214295e-04 0.0 
1.590377704993e-03 4.028537234216e-04 0.0 
1.355711751168e-04 -1.241539728172e-04 0.0 
1.366777575336e-04 -1.370680725666e-04 0.0 
1.568650449314e-04 -1.497184593504e-04 0.0 
1.374809981935e-04 -1.493034210513e-04 0.0 
2.362118534272e-03 4.111232052641e-03 0.0 
2.329635879763e-03 3.433961060471e-03 0.0 
2.245466989969e-03 4.279561275428e-03 0.0 
2.178792884725e-03 3.508367097188e-03 0.0 
2.080206720373e-03 4.281135528959e-03 0.0 
1.174693031324e-04 -1.376173303181e-04 0.0 
2.129030330740e-03 1.408829592145e-03 0.0 
2.193285161840e-03 2.785175952310e-03 0.0 
1.450253672518e-03 4.167564946333e-04 0.0 
9.713611667932e-04 -2.760742885852e-05 0.0 
5.872350826685e-04 -1.458590709727e-04 0.0 
1.337553361265e-04 -1.106608646965e-04 0.0 
1.144921197158e-04 -1.125045988606e-04 0.0 
1.121039355799e-04 -9.923334754165e-05 0.0 
2.565925010183e-04 -9.605349209301e-05 0.0 
2.253317784186e-04 -8.176954983047e-05 0.0 
2.436630783952e-04 -7.706904704212e-05 0.0 
2.110238061133e-04 -6.412484039294e-05 0.0 
2.256663346470e-04 -5.872426071623e-05 0.0 
1.923057203594e-04 -4.744508021661e-05 0.0 
1.802674328946e-04 -5.259732140142e-05 0.0 
1.614673262292e-04 -3.760266391299e-05 0.0 
1.516143145644e-04 -4.246787527821e-05 0.0 
2.025208039839e-04 -4.168767738983e-05 0.0 
2.388088926845e-04 -5.252364103648e-05 0.0 
1.332829180825e-04 -2.914301704236e-05 0.0 
1.252131275849e-04 -3.369942874485e-05 0.0 
1.078191370251e-04 -2.201412730609e-05 0.0 
1.011785802304e-04 -2.622462453375e-05 0.0 
1.152435687882e-04 -3.806565264702e-05 0.0 
9.245992684631e-05 -3.039420630867e-05 0.0 
1.036751930535e-04 -4.230070690212e-05 0.0 
5.377778246257e-04 -1.313513722195e-04 0.0 
5.813153004205e-04 -1.173179858824e-04 0.0 
5.230883213631e-04 -1.031430297920e-04 0.0 
5.592129274985e-04 -8.776160905273e-05 0.0 
4.936278653225e-04 -7.484314649843e-05 0.0 
5.196286557448e-04 -5.894350800057e-05 0.0 
4.485451808787e-04 -4.802844190205e-05 0.0 
4.304747586137e-04 -6.212477808234e-05 0.0 
1.920549580129e-03 8.930605228821e-04 0.0 
5.314292934986e-04 -2.127851394417e-04 0.0 
5.467294396797e-04 -2.182110455898e-04 0.0 
4.970378265488e-04 -2.266137747235e-04 0.0 
5.035832757270e-04 -2.283701380234e-04 0.0 
4.592796729765e-04 -2.359704346782e-04 0.0 
4.585841236004e-04 -2.338211521696e-04 0.0 
4.205973136114e-04 -2.412753103487e-04 0.0 
4.206076397343e-04 -2.411746317446e-04 0.0 
3.876270565241e-04 -2.466043186342e-04 0.0 
3.865717360302e-04 -2.444842688767e-04 0.0 
3.588725230196e-04 -2.501520582008e-04 0.0 
3.564769491626e-04 -2.462330674413e-04 0.0 
1.151781214561e-03 3.465352533321e-05 0.0 
5.941705786634e-04 -6.951452022292e-05 0.0 
5.418048677232e-04 -4.094279890999e-05 0.0 
6.260252092867e-04 -4.837905103764e-05 0.0 
1.570579752261e-04 -1.618032067346e-04 0.0 
7.954416193110e-05 -1.992766333895e-05 0.0 
2.103576607027e-04 -3.532557293666e-05 0.0 
2.500131321406e-04 -4.561371265072e-05 0.0 
3.818736598361e-04 -3.782384275452e-05 0.0 
1.187382638613e-04 -1.492951484456e-04 0.0 
4.145981361912e-04 -2.352333778092e-04 0.0 
4.505446641560e-04 -2.247490663259e-04 0.0 
1.979009736615e-03 3.440757660111e-03 0.0 
1.880157214001e-03 4.138985453807e-03 0.0 
2.151349708262e-04 -2.840064233179e-05 0.0 
9.871921766868e-05 -1.386184581612e-04 0.0 
1.390413479598e-04 -2.438910473498e-05 0.0 
3.564594561323e-04 -2.491062843392e-04 0.0 
7.176734202085e-05 -2.387214121991e-05 0.0 
6.031680576178e-05 -1.468367134097e-05 0.0 
1.668332167396e-04 -5.718252154448e-05 0.0 
5.580509973088e-04 -2.090322692163e-05 0.0 
6.538284992929e-04 -2.498660571518e-05 0.0 
3.805770537361e-04 -2.377077278561e-04 0.0 
3.497650996334e-04 -2.383497043245e-04 0.0 
3.298697393673e-04 -2.466549701407e-04 0.0 
3.226058971873e-04 -2.375364360306e-04 0.0 
3.391080272559e-04 -2.271882640403e-04 0.0 
3.114910643331e-04 -2.258983667153e-04 0.0 
2.981288164623e-04 -2.357044103161e-04 0.0 
2.866948714588e-04 -2.237980586348e-04 0.0 
2.974331421974e-04 -2.121937671671e-04 0.0 
2.726131836328e-04 -2.099129043965e-04 0.0 
2.644670463315e-04 -2.209732684997e-04 0.0 
2.500870196132e-04 -2.070949749498e-04 0.0 
6.510299868540e-05 -1.125608008738e-05 0.0 
3.332585788552e-04 -2.533139804401e-04 0.0 
1.909278930175e-03 1.165442499713e-03 0.0 
1.762565448469e-04 -2.060746279789e-05 0.0 
3.889145481169e-04 -2.469005130362e-05 0.0 
1.744836220587e-03 3.252322061648e-03 0.0 
1.656734444152e-03 3.882413850159e-03 0.0 
1.720537724169e-03 4.843008657601e-03 0.0 
1.520096650838e-03 4.510836872208e-03 0.0 
1.419440996327e-03 3.538440331652e-03 0.0 
1.309312153645e-03 4.110048523597e-03 0.0 
1.354036195133e-03 5.119140230792e-03 0.0 
1.173491860165e-03 4.666717385092e-03 0.0 
1.178453337976e-03 5.694539700813e-03 0.0 
1.026934570629e-03 5.201042419510e-03 0.0 
9.876088633986e-04 4.177478843102e-03 0.0 
8.680308718668e-04 4.683636106461e-03 0.0 
8.807450313830e-04 5.712991468019e-03 0.0 
7.444033059722e-04 5.175045195163e-03 0.0 
7.415440474140e-04 6.204336060977e-03 0.0 
6.221665141775e-04 5.653374735581e-03 0.0 
6.054731880653e-04 4.627906138689e-03 0.0 
1.008567474171e-04 -1.495431475190e-04 0.0 
3.707850259593e-04 -5.020089354944e-05 0.0 
3.202289857873e-04 -2.859317447740e-05 0.0 
9.413834135025e-05 -1.020805844192e-04 0.0 
9.146018986347e-05 -8.905759382439e-05 0.0 
1.088236250264e-04 -8.571389381874e-05 0.0 
8.719817826644e-05 -7.586958374199e-05 0.0 
4.970901888322e-04 5.102275147128e-03 0.0 
4.697010283065e-04 4.077808376745e-03 0.0 
4.026060141836e-04 -2.221647723088e-04 0.0 
4.351727000058e-04 -2.075731538598e-04 0.0 
1.770569044077e-03 2.644101166541e-03 0.0 
5.319148902747e-05 -1.842272252661e-05 0.0 
6.205271515890e-05 -2.800127810457e-05 0.0 
8.621026726601e-04 -8.611878313865e-05 0.0 
8.605016896415e-04 -3.539444335379e-05 0.0 
7.620425086880e-04 -9.141311677588e-05 0.0 
7.368611234998e-04 -3.501103110757e-05 0.0 
8.408013756219e-04 3.612880656780e-05 0.0 
6.535662242520e-04 -8.923836121260e-05 0.0 
2.781521212063e-04 -6.515438231729e-05 0.0 
8.027586000037e-04 3.665271166462e-03 0.0 
1.765273842548e-04 -1.631249820085e-04 0.0 
1.758637944118e-04 -1.748839360831e-04 0.0 
4.347842184887e-05 -1.045821230111e-05 0.0 
4.092729615653e-04 -7.456332006739e-05 0.0 
1.253145635543e-03 1.073866305475e-04 0.0 
1.136807242265e-03 5.981065089754e-05 0.0 
1.214614804268e-03 1.263541793765e-04 0.0 
1.075980974957e-03 8.182617199460e-05 0.0 
1.122759812938e-03 1.388032976564e-04 0.0 
9.673363632759e-04 9.739286314404e-05 0.0 
9.392038250137e-04 5.257160523656e-05 0.0 
5.652857502822e-04 5.539540427554e-07 0.0 
8.182924457248e-04 6.901287872558e-05 0.0 
5.119012169047e-04 6.131168398678e-03 0.0 
6.708427993231e-04 -7.930168601308e-05 0.0 
2.808222071001e-04 -1.971235799977e-04 0.0 
1.209307669102e-04 -1.600646262683e-04 0.0 
2.443285579379e-04 -2.179895908515e-04 0.0 
8.034950657800e-05 -1.401561684092e-04 0.0 
7.849867791375e-05 -1.288953000046e-04 0.0 
1.741038691606e-04 -1.433910648012e-05 0.0 
9.764222180457e-04 1.408695001997e-04 0.0 
1.150363187134e-03 1.966950115753e-04 0.0 
6.966345301919e-04 4.344177922880e-05 0.0 
8.022737610392e-04 1.335867798335e-04 0.0 
4.662439941938e-04 9.537011360326e-07 0.0 
2.059989899149e-03 5.185091999808e-03 0.0 
1.315564079928e-03 6.152381709305e-03 0.0 
1.118482414198e-03 6.733265108127e-03 0.0 
8.522120512597e-05 -1.523185092620e-04 0.0 
2.575618219761e-04 -2.302264915957e-04 0.0 
1.177184977167e-03 3.130995606418e-03 0.0 
4.919362559281e-04 -2.107821490424e-04 0.0 
4.737039495922e-04 -1.887979134582e-04 0.0 
3.286972338389e-04 -2.494853894714e-04 0.0 
3.109095937662e-04 -2.546718392666e-04 0.0 
3.810404630906e-04 4.533817720479e-03 0.0 
3.455430377982e-04 3.525300856293e-03 0.0 
1.041475630209e-04 -7.214422840680e-05 0.0 
8.249335185294e-05 -6.290010536869e-05 0.0 
2.160167151937e-04 -2.101816776177e-05 0.0 
2.295534947828e-04 -2.039586649363e-04 0.0 
4.106296987238e-04 3.065972528698e-03 0.0 
3.558127602991e-04 -6.132930243350e-05 0.0 
3.860591001988e-04 -8.525921301740e-05 0.0 
6.966589175273e-05 -7.981044553433e-05 0.0 
3.844176599790e-04 -2.014335912633e-04 0.0 
3.603961772781e-04 -2.171608170883e-04 0.0 
3.076077216564e-04 -1.985461168309e-04 0.0 
2.337655292442e-04 -1.925039774455e-04 0.0 
6.003344066859e-05 -1.315641222371e-04 0.0 
1.668519926451e-04 -8.254983102556e-06 0.0 
1.222640427941e-03 2.603563542348e-03 0.0 
8.088895286143e-04 3.485557936850e-05 0.0 
8.995701980713e-04 1.061132805666e-05 0.0 
6.784318660115e-04 5.019294556449e-05 0.0 
2.264196572080e-04 -2.140809810887e-04 0.0 
1.369797350312e-04 -9.094573683525e-06 0.0 
3.675212580970e-05 -1.389979502293e-05 0.0 
9.703686237719e-04 1.830939735183e-04 0.0 
1.153655591718e-03 2.513801858788e-04 0.0 
5.400646532910e-04 -1.924650075827e-04 0.0 
5.211970311880e-04 -1.641598494099e-04 0.0 
4.477898073487e-04 -1.558017861802e-04 0.0 
4.909351237954e-04 -1.229882328198e-04 0.0 
2.179434791802e-03 2.034280184698e-03 0.0 
5.983300837044e-04 -1.681174132167e-04 0.0 
1.701237428630e-03 8.698626190218e-04 0.0 
1.745345834008e-03 1.213090472603e-03 0.0 
1.512515161251e-03 8.878057237122e-04 0.0 
9.629470153944e-04 1.280340600787e-04 0.0 
9.313945838767e-04 2.531244987973e-04 0.0 
5.540884732678e-04 -2.176778504949e-04 0.0 
6.386869962373e-04 -1.301606460123e-04 0.0 
1.266200450840e-04 -8.259378124043e-05 0.0 
1.271673961363e-04 -5.118175220763e-05 0.0 
2.778699524159e-04 -9.135956095911e-05 0.0 
8.820841645275e-04 3.172178511642e-03 0.0 
6.793487936163e-04 2.665393980239e-03 0.0 
8.514143529864e-04 6.745418689827e-03 0.0 
7.104600090735e-04 7.232462856030e-03 0.0 
1.576264192495e-04 -1.730635155824e-04 0.0 
1.761764215071e-04 -1.858229096701e-04 0.0 
2.066309587624e-04 -8.570816759459e-05 0.0 
1.415592180432e-04 -1.414236274151e-05 0.0 
1.503952058584e-03 2.408806640458e-03 0.0 
1.455886572598e-03 1.886017686672e-03 0.0 
1.727107179809e-03 2.079300308548e-03 0.0 
2.118619415169e-04 -1.332326708473e-05 0.0 
4.839954532422e-04 -2.195732359653e-04 0.0 
4.870118623388e-04 -1.159140951971e-04 0.0 
3.132932661821e-04 -2.559936971227e-04 0.0 
9.716931126265e-04 -4.727924837900e-05 0.0 
1.592145467053e-04 -1.835538571679e-04 0.0 
1.679777216480e-03 5.294263448454e-04 0.0 
2.907513090705e-05 -7.060900820989e-06 0.0 
3.309657272439e-05 -4.406191532147e-06 0.0 
4.515304039433e-04 1.774695214499e-05 0.0 
1.985234480395e-03 2.927891715661e-03 0.0 
8.869419262845e-04 -5.730927767466e-05 0.0 
8.193557127425e-04 -9.123728950140e-05 0.0 
1.513738129481e-03 1.233369360788e-03 0.0 
1.262768938703e-03 8.907377057606e-04 0.0 
1.291938783342e-03 6.261143844499e-04 0.0 
1.051631241752e-03 6.312304203405e-04 0.0 
2.881243187026e-04 -1.826973449955e-04 0.0 
2.622318282312e-04 -1.815829923949e-04 0.0 
7.715632089289e-04 1.298379433901e-04 0.0 
6.595545752529e-04 7.339706917713e-05 0.0 
9.265512874765e-04 2.136390501247e-04 0.0 
1.120947129710e-03 2.946457016132e-04 0.0 
3.527752382191e-04 1.448617572526e-05 0.0 
3.758614813652e-04 1.981486403873e-06 0.0 
5.820031795082e-05 -1.202092184489e-04 0.0 
7.456942958120e-04 2.626165935871e-04 0.0 
9.557609453850e-04 2.184772832139e-03 0.0 
1.765762991147e-03 1.656255045819e-03 0.0 
1.054883886572e-04 -5.075522457106e-06 0.0 
1.111243970504e-04 -9.235924518504e-06 0.0 
2.958062483850e-04 -2.583545358383e-04 0.0 
2.951243987460e-04 -2.572190218006e-04 0.0 
2.849666298679e-04 2.543520931893e-03 0.0 
4.159228814574e-04 -1.116611579487e-04 0.0 
4.514296086308e-04 -6.947765668628e-05 0.0 
3.865697075384e-04 -1.460026824413e-04 0.0 
4.068911874615e-06 7.812878880327e-07 0.0 
1.850508570757e-04 9.206489558796e-03 0.0 
2.098040451601e-05 -2.178565753214e-06 0.0 
1.115995404896e-03 2.545705901946e-04 0.0 
3.187582382972e-04 2.053334623485e-03 0.0 
8.016223829190e-04 -5.949928965931e-05 0.0 
7.655621983248e-04 -1.311882881855e-04 0.0 
2.629200055909e-04 -2.892619095859e-05 0.0 
2.240554503565e-04 3.078627557829e-03 0.0 
1.741306762090e-04 1.982200035799e-03 0.0 
1.203753620149e-03 7.181532527239e-03 0.0 
1.013845533222e-03 7.769384873876e-03 0.0 
1.430577940543e-03 6.556719959661e-03 0.0 
3.498570322280e-04 -2.422098946891e-04 0.0 
3.176037488925e-04 -2.382503086889e-04 0.0 
6.255290970519e-04 3.138980539876e-03 0.0 
9.563335420736e-05 -1.146433021599e-04 0.0 
7.354684851813e-05 -1.034026932841e-04 0.0 
2.130520774994e-04 -1.902398112318e-04 0.0 
2.157681274660e-04 -1.779680514840e-04 0.0 
1.207852120568e-04 -6.861434309778e-05 0.0 
1.443696079958e-04 -7.953915448036e-05 0.0 
1.504487948295e-03 3.796321813984e-04 0.0 
1.547155146083e-03 4.770255302095e-04 0.0 
1.352070757062e-03 1.921172381055e-04 0.0 
3.380905573209e-04 -7.100124352679e-05 0.0 
3.617563086151e-04 -9.421641564658e-05 0.0 
4.065202169072e-04 -1.099437981970e-04 0.0 
7.140328871322e-04 2.221821066883e-03 0.0 
4.856814419721e-04 1.642457216946e-03 0.0 
3.163212721048e-04 -1.834525719936e-04 0.0 
3.369848403669e-04 -1.993508880207e-04 0.0 
2.668794796063e-04 -1.670208245915e-04 0.0 
9.345741091352e-04 1.722298055990e-03 0.0 
2.282308486488e-05 -6.255269382847e-07 0.0 
3.482995190657e-05 -2.222004944384e-06 0.0 
1.773799573849e-04 -1.954322764063e-04 0.0 
1.938261611620e-04 -1.985413335690e-04 0.0 
3.423315111948e-04 -1.943488892023e-04 0.0 
3.247805735475e-04 -2.109745498289e-04 0.0 
1.359798955093e-03 1.434704061442e-03 0.0 
1.618403291453e-03 1.581598632397e-03 0.0 
1.032514362675e-03 1.164137407990e-03 0.0 
3.943932859955e-05 -1.245565128935e-04 0.0 
7.869239503074e-04 2.657031880421e-06 0.0 
1.584179831976e-04 -2.599313669414e-06 0.0 
2.071599690785e-04 -6.488766613262e-06 0.0 
1.095961344255e-04 4.104003436882e-07 0.0 
5.636499243082e-04 2.145237479035e-05 0.0 
4.244290767054e-04 3.156623061327e-05 0.0 
5.100518483238e-04 5.497242130867e-05 0.0 
2.921730000472e-04 -2.547493016038e-04 0.0 
1.272807391027e-04 2.391962503844e-03 0.0 
7.946209312037e-04 7.774510271237e-03 0.0 
2.842771617302e-04 -2.585128037996e-04 0.0 
6.631479361842e-04 8.291529314779e-03 0.0 
5.868510145491e-04 7.710525614925e-03 0.0 
5.598397646524e-04 8.788657798719e-03 0.0 
4.161841867343e-05 -1.350176312332e-04 0.0 
1.223742703600e-03 7.760599877395e-03 0.0 
1.514346655632e-03 6.912244705378e-03 0.0 
1.954433850526e-04 -2.092495558189e-04 0.0 
6.491372575077e-04 1.302985976638e-03 0.0 
1.627125534955e-04 -1.928682747458e-04 0.0 
1.444426613204e-04 -1.820766353170e-04 0.0 
7.781752274988e-05 -2.468898129293e-06 0.0 
8.470149790823e-05 -5.359325672319e-06 0.0 
5.469984095287e-05 -3.697566011761e-07 0.0 
6.372701066776e-05 -2.538135227514e-06 0.0 
8.839661981313e-05 -8.714102713333e-06 0.0 
6.667121471644e-05 -5.137039851161e-06 0.0 
8.571460046933e-04 8.384099610644e-03 0.0 
4.210055823388e-05 -2.013867785730e-07 0.0 
4.790091872474e-05 -2.375305695029e-06 0.0 
2.695883926239e-05 4.642614430997e-07 0.0 
9.817842766283e-04 9.125372063088e-04 0.0 
5.393689957857e-04 -8.198040240795e-05 0.0 
4.937843705746e-04 -1.410239898141e-05 0.0 
4.023115423074e-04 1.069635739944e-06 0.0 
7.770683514168e-04 2.130456687948e-04 0.0 
1.057702723823e-03 3.262058825377e-04 0.0 
2.240330064531e-05 -1.010819767109e-05 0.0 
2.666190960132e-05 -1.753398697434e-05 0.0 
4.703512727405e-04 8.257094026639e-03 0.0 
3.486532579155e-04 8.302377093212e-03 0.0 
4.021075235390e-04 7.370207502012e-03 0.0 
2.908382321205e-04 7.484890634992e-03 0.0 
3.305827877371e-04 6.566430582560e-03 0.0 
2.117050379411e-04 6.683083624732e-03 0.0 
2.654383455832e-04 5.763634078273e-03 0.0 
4.631933868694e-04 6.736850587115e-05 0.0 
3.541032837241e-04 -1.041745930634e-04 0.0 
1.502438873086e-03 1.685945706498e-03 0.0 
2.638591201736e-04 1.233689087271e-05 0.0 
3.038071449794e-04 3.299065740918e-06 0.0 
8.763589824927e-04 4.167425990868e-04 0.0 
6.626346518117e-04 4.298999985024e-04 0.0 
8.775050715354e-05 -7.839121366752e-07 0.0 
6.087851352137e-04 -1.910642655469e-04 0.0 
4.994986341776e-04 7.813842153904e-04 0.0 
2.722581357570e-04 -2.294976679610e-04 0.0 
2.906285866196e-04 -2.376061179491e-04 0.0 
6.775114388031e-04 -1.659549079507e-04 0.0 
1.097314490257e-03 4.180865239170e-04 0.0 
6.066581229798e-04 -2.773581109747e-05 0.0 
5.645051141246e-04 6.004127562587e-05 0.0 
3.055724452098e-04 -4.900240714445e-05 0.0 
2.104747196460e-04 -2.114784189209e-04 0.0 
3.627059414975e-04 -1.730893063156e-04 0.0 
3.900642605397e-04 5.661127842295e-03 0.0 
3.214135103737e-04 -1.670434554215e-04 0.0 
1.192264062942e-05 -1.291615104427e-05 0.0 
6.117068102194e-04 -2.030247670466e-04 0.0 
1.113756872451e-03 1.333132507824e-04 0.0 
4.133541267818e-04 -1.816080522754e-04 0.0 
5.837246869269e-04 -1.309280995600e-04 0.0 
2.100846967292e-03 1.497194700920e-03 0.0 
2.215659998796e-03 2.730010893876e-03 0.0 
2.003219848146e-03 2.188127360768e-03 0.0 
6.030928689116e-04 -2.063607887930e-04 0.0 
6.453157113250e-04 1.484783681491e-04 0.0 
4.986021793380e-04 1.732460441114e-04 0.0 
1.636139179612e-03 6.091768754221e-04 0.0 
1.955904709664e-03 2.171278700105e-03 0.0 
1.837510493281e-03 1.649255124479e-03 0.0 
1.460293296698e-03 1.169045615160e-03 0.0 
1.664686825050e-03 1.220784994279e-03 0.0 
1.998540626730e-03 1.632371531180e-03 0.0 
1.818518982727e-03 1.209347662730e-03 0.0 
1.454459074367e-03 8.863520581827e-04 0.0 
1.603430279272e-03 8.778467493422e-04 0.0 
1.126559110330e-03 5.686948400193e-04 0.0 
1.357186918116e-03 6.219121465148e-04 0.0 
1.698520811121e-03 8.307221873929e-04 0.0 
1.477594465101e-03 6.034217859283e-04 0.0 
1.157946408288e-03 4.524868741228e-04 0.0 
1.751538651020e-03 7.612879579929e-04 0.0 
2.220592418964e-04 1.836721436074e-05 0.0 
7.573409260025e-04 -1.556591937124e-04 0.0 
3.048978919446e-04 -2.480265406944e-04 0.0 
3.006444523668e-04 -2.255011333384e-04 0.0 
1.274868783664e-03 2.599121367380e-04 0.0 
6.087133380785e-04 3.117435272609e-04 0.0 
6.248148526793e-04 4.361113723533e-04 0.0 
5.017771272546e-04 -2.235985939815e-04 0.0 
3.757910473302e-04 1.007701957860e-04 0.0 
1.973871958410e-03 1.606538117964e-03 0.0 
3.832618249008e-04 -2.430841469614e-04 0.0 
2.982617795294e-04 6.327544514405e-05 0.0 
2.128261471770e-03 2.155442241973e-03 0.0 
2.238871891358e-03 2.061151119281e-03 0.0 
2.322635287382e-03 2.691794621514e-03 0.0 
5.557641670785e-04 5.176019289357e-04 0.0 
1.674249989458e-03 5.853822828900e-03 0.0 
1.662242064617e-04 2.209422175081e-05 0.0 
6.260368723924e-04 -1.000103081823e-04 0.0 
6.923731474882e-04 -1.109255304350e-04 0.0 
6.926262139988e-04 -1.407912971742e-04 0.0 
1.915867358771e-03 1.149357430629e-03 0.0 
1.033342917919e-04 7.704221608384e-06 0.0 
1.809559655970e-04 6.817741000062e-06 0.0 
1.583833227118e-04 4.128720645809e-06 0.0 
2.458825559236e-04 -1.506671687451e-06 0.0 
7.805572826426e-05 4.828683333695e-06 0.0 
4.848738399338e-04 1.889977653988e-04 0.0 
4.240620676822e-04 1.454484799846e-04 0.0 
3.248071832619e-04 -2.136757941718e-04 0.0 
3.551227933329e-04 -2.141834723766e-04 0.0 
3.690909688568e-04 -1.991023075766e-04 0.0 
3.885393093971e-04 -2.136742903887e-04 0.0 
3.699076693718e-04 -2.273050559352e-04 0.0 
4.040101629368e-04 -2.262628735658e-04 0.0 
4.251032988974e-04 -2.119626524615e-04 0.0 
4.148269934745e-04 -2.358495769358e-04 0.0 
1.338317310043e-03 4.119639858409e-04 0.0 
5.735982518257e-05 2.886180286468e-06 0.0 
2.613581643808e-04 -7.150820591652e-05 0.0 
2.990393795424e-04 -8.587637958219e-05 0.0 
3.131094873580e-04 -1.069998271917e-04 0.0 
1.497617977724e-04 -9.427430968557e-05 0.0 
1.687297047801e-04 -9.174732196721e-05 0.0 
1.618113157647e-04 -7.629690270587e-05 0.0 
1.308910482434e-04 -9.674501394290e-05 0.0 
1.018239654499e-03 2.918901624913e-05 0.0 
4.986233348927e-05 2.029465922412e-06 0.0 
4.361273802193e-04 -1.003191560895e-04 0.0 
1.936995745128e-04 -1.051832479300e-04 0.0 
1.234232748633e-03 7.829503834395e-03 0.0 
1.774335030721e-03 6.571884069054e-03 0.0 
2.031985700143e-03 5.690935095138e-03 0.0 
2.175299737686e-03 5.233275675059e-03 0.0 
1.559075597221e-03 7.146233511720e-03 0.0 
9.818393195785e-05 -5.889596588723e-05 0.0 
7.677254551829e-05 -5.039194428275e-05 0.0 
6.176169139618e-05 -5.481901907664e-05 0.0 
5.662480849488e-05 -4.302388932034e-05 0.0 
4.211265027739e-05 -4.780958466852e-05 0.0 
4.612801804144e-05 -5.936940213159e-05 0.0 
3.745117625952e-05 -3.663530714440e-05 0.0 
2.401208964155e-05 -4.295590404426e-05 0.0 
1.019780797633e-03 8.678718187361e-03 0.0 
2.689162848571e-04 -2.597047545952e-04 0.0 
2.690420658974e-04 -2.542454814819e-04 0.0 
2.576681680521e-04 -2.474874161524e-04 0.0 
2.687399765864e-04 -2.468184453927e-04 0.0 
2.815782462708e-04 -2.527609138183e-04 0.0 
2.851874465460e-04 -2.442356927458e-04 0.0 
2.973861450890e-04 -2.509921954708e-04 0.0 
2.785868313019e-04 -2.587959614295e-04 0.0 
2.507825819855e-04 -2.479687641726e-04 0.0 
2.447974828873e-04 -2.391927141975e-04 0.0 
2.384407405238e-04 -2.399286385826e-04 0.0 
2.302969198775e-04 -2.303315458088e-04 0.0 
2.397616443678e-04 -2.279096451575e-04 0.0 
1.939596963007e-04 -1.879811199042e-04 0.0 
1.137640318136e-05 1.088305279515e-06 0.0 
1.872387567921e-05 -7.465227145031e-05 0.0 
3.710425735701e-05 -8.192970797710e-05 0.0 
3.780676111367e-05 -9.349864538186e-05 0.0 
5.736506392262e-05 -8.951568464202e-05 0.0 
3.494224892419e-05 -7.089444319385e-05 0.0 
1.906431593007e-05 -9.834153879405e-05 0.0 
3.761553632905e-05 -1.037889141424e-04 0.0 
6.026887919810e-05 -1.735335411182e-04 0.0 
4.701211051092e-05 -1.631862070576e-04 0.0 
2.170249099383e-05 -1.619716790405e-04 0.0 
3.450107887064e-05 -1.531137442862e-04 0.0 
5.699021274718e-05 -1.562534609764e-04 0.0 
6.996981687503e-05 -1.665183412279e-04 0.0 
9.274744502645e-05 -1.712516856273e-04 0.0 
1.066716634647e-04 -1.825114022829e-04 0.0 
1.142618314469e-04 -1.769282575421e-04 0.0 
1.006141259134e-04 -1.650286429732e-04 0.0 
1.279419921792e-04 -1.885777102857e-04 0.0 
9.208440142013e-05 4.429463806636e-03 0.0 
1.807158042389e-04 3.926173792520e-03 0.0 
3.993702639700e-05 1.286215128771e-06 0.0 
8.854520820981e-04 8.937808106284e-03 0.0 
2.078022250096e-04 -2.217295231697e-04 0.0 
1.744128089940e-04 9.648000420511e-04 0.0 
2.848101855675e-04 7.697717530254e-04 0.0 
2.241963739889e-04 7.588940415702e-04 0.0 
6.954562389291e-06 -1.786012205763e-06 0.0 
1.110168857850e-05 -4.034785987699e-07 0.0 
9.256900489330e-05 9.458873514564e-04 0.0 
1.768960735733e-04 -1.502930432855e-04 0.0 
1.257391837380e-03 8.394119402286e-04 0.0 
4.618509452316e-04 2.603689448140e-03 0.0 
3.744779033007e-04 -2.334604846820e-04 0.0 
2.382550142395e-04 -1.799878314425e-04 0.0 
4.327326317359e-05 -2.229146636738e-05 0.0 
1.400591881998e-04 -4.693960304582e-05 0.0 
4.785215469196e-05 -7.375467671188e-06 0.0 
8.195195199619e-05 -3.458553622684e-05 0.0 
8.509149162350e-05 -1.608905571937e-05 0.0 
1.414793661027e-04 2.207059135214e-06 0.0 
6.297145356848e-05 -1.422870052324e-04 0.0 
1.008005281801e-03 6.235125403828e-03 0.0 
6.171547252198e-04 6.683932349312e-03 0.0 
7.082747090864e-04 4.151017838433e-03 0.0 
1.161884020570e-04 -1.253434384920e-04 0.0 
6.656722603328e-05 -6.660909556988e-05 0.0 
1.385155389019e-04 -1.607715336691e-04 0.0 
5.709040618883e-04 1.169387320348e-04 0.0 
1.492878593634e-03 6.232546676240e-04 0.0 
2.886630434036e-04 -1.115114133482e-04 0.0 
1.533625147232e-04 -1.089353479911e-04 0.0 
1.981015503794e-04 -1.507866094872e-04 0.0 
2.563129516399e-04 -1.950524637273e-04 0.0 
8.474387605697e-04 -1.196645678690e-04 0.0 
2.144051165251e-04 -1.027894977101e-04 0.0 
1.692432460351e-04 -3.233748551255e-05 0.0 
5.537549181537e-04 3.610358440063e-03 0.0 
1.683074167397e-04 -2.022415114619e-04 0.0 
1.743920048903e-04 -2.661956379651e-05 0.0 
1.953385178851e-04 -6.880107836878e-05 0.0 
1.523068464999e-03 5.521219345247e-03 0.0 
4.622141146100e-04 -3.277160278429e-05 0.0 
2.764359001381e-04 -2.329650131112e-04 0.0 
1.094887181341e-03 3.659868022559e-03 0.0 
1.177127562561e-03 1.655790432378e-03 0.0 
1.793483747060e-03 6.087035870843e-03 0.0 
1.400607325941e-04 -1.716674945759e-04 0.0 
9.454131635889e-04 7.284655043869e-03 0.0 
1.273069598678e-04 -4.085855203922e-06 0.0 
2.004832156657e-03 2.774105187027e-03 0.0 
9.721671542298e-05 -1.268732489310e-04 0.0 
4.962374553805e-04 -1.424824880190e-04 0.0 
1.096420343736e-03 4.776757776545e-05 0.0 
1.806031955590e-03 3.086276850742e-03 0.0 
4.953094713129e-04 2.179644591708e-03 0.0 
8.137585543198e-04 -1.209152352365e-04 0.0 
3.207604507658e-04 -1.728542018383e-05 0.0 
4.653717967156e-04 -8.865102037507e-05 0.0 
7.703295942212e-05 -1.169751881853e-04 0.0 
1.133039041994e-04 -1.348349372713e-05 0.0 
6.337076107742e-04 -1.582818394367e-04 0.0 
9.383760891322e-04 2.682913740715e-03 0.0 
1.281190419263e-03 1.991327899719e-04 0.0 
5.100581876769e-04 -2.028037063832e-04 0.0 
1.488593331497e-03 2.965967966026e-03 0.0 
3.487933423121e-04 -1.234611213151e-04 0.0 
4.688037356168e-04 -1.635942121406e-05 0.0 
1.294297835472e-03 4.177353429222e-04 0.0 
1.363791772739e-03 1.776430602070e-04 0.0 
1.846955856597e-03 7.329565580478e-04 0.0 
1.051954303653e-03 -2.617058969545e-05 0.0 
3.011346566084e-05 -2.649966952114e-05 0.0 
1.420338613676e-04 -1.939940202449e-05 0.0 
3.340538884713e-04 -2.522261613696e-04 0.0 
6.750304987599e-04 -1.347473703047e-04 0.0 
1.903551654246e-03 5.078615097647e-03 0.0 
8.141985256351e-04 1.020263518925e-04 0.0 
6.979769327094e-04 1.730570279712e-03 0.0 
9.769055088018e-04 3.753599468837e-05 0.0 
1.120558721248e-04 -1.775077295558e-05 0.0 
1.226627815555e-03 2.117484494088e-03 0.0 
1.877353781972e-04 -8.896021574169e-05 0.0 
1.953782951836e-05 -1.317867603785e-04 0.0 
3.401808153867e-04 -2.295558360863e-04 0.0 
4.534049822575e-04 -2.323015669007e-04 0.0 
7.421537554927e-04 -1.469741261504e-04 0.0 
1.788792471727e-04 -7.283206859301e-05 0.0 
1.140686642808e-03 9.596083924228e-04 0.0 
8.817861875495e-05 -1.238161037684e-05 0.0 
2.580737229847e-04 -3.768271341919e-05 0.0 
2.832475458374e-04 -1.862384252406e-04 0.0 
1.777210742935e-03 2.253640204575e-03 0.0 
6.735504521116e-05 -8.101857376736e-06 0.0 
4.517383901192e-04 -1.262140613150e-04 0.0 
3.876758760781e-04 -1.127057722956e-05 0.0 
2.727830439217e-05 -5.321789733436e-05 0.0 
5.082917662628e-04 8.897848826456e-05 0.0 
8.007853163919e-04 6.290437464858e-04 0.0 
4.948591539413e-05 -4.767266766415e-06 0.0 
3.151707709551e-04 -3.925553902449e-05 0.0 
5.517636307377e-04 -2.096988427458e-04 0.0 
2.903852279410e-04 9.189741201592e-03 0.0 
2.996426240517e-05 -6.436362376484e-08 0.0 
2.623105219964e-04 -1.968138357358e-05 0.0 
1.054864720422e-03 1.915861621484e-06 0.0 
4.172689878715e-04 -1.342706419623e-04 0.0 
1.142294098291e-03 1.737583379213e-03 0.0 
1.522941305315e-04 -6.128692929136e-05 0.0 
1.482187719071e-03 2.840479296772e-04 0.0 
5.060629144071e-04 5.556010742317e-04 0.0 
2.609798321804e-04 -1.120793148652e-05 0.0 
2.381973842074e-03 2.500304401121e-03 0.0 
1.369346027090e-04 -6.508582682165e-05 0.0 
7.146585288400e-04 -5.583583597797e-05 0.0 
7.899774160638e-05 -1.601811229132e-04 0.0 
1.215944740394e-03 1.248662263634e-03 0.0 
1.131481382755e-04 -5.507403416851e-05 0.0 
4.417548389917e-04 -2.239108020373e-04 0.0 
3.772729045829e-04 -1.175882314315e-04 0.0 
3.218014263566e-04 2.358273696157e-05 0.0 
9.080516376035e-05 -4.629745411378e-05 0.0 
4.653858427407e-04 -2.084043487232e-04 0.0 
6.994194557142e-05 -3.869181848135e-05 0.0 
6.963094174126e-04 9.557215222368e-04 0.0 
2.276873541110e-03 1.883451162802e-03 0.0 
4.994858028068e-05 -3.210402651269e-05 0.0 
1.437487391197e-03 2.834914635650e-04 0.0 
1.223728991207e-04 -1.710001945742e-04 0.0 
9.541144847567e-04 -1.754252327544e-05 0.0 
1.669347182252e-05 -4.139853512439e-06 0.0 
2.440522322827e-04 -1.513233990933e-04 0.0 
3.379411118150e-04 -1.015192198676e-04 0.0 
2.097424243475e-03 1.550699782424e-03 0.0 
4.919083407948e-04 5.189890185465e-04 0.0 
3.194959674986e-04 -7.925485697581e-05 0.0 
1.328720290018e-03 2.734998910261e-04 0.0 
8.541050413488e-04 -2.647321307863e-05 0.0 
7.549567964046e-04 -1.185931868914e-04 0.0 
2.928611732582e-04 -5.759102958991e-05 0.0 
5.789382726123e-04 2.853283255354e-04 0.0 
1.960648692369e-04 -1.642135824150e-04 0.0 
1.950910287069e-04 -1.765376607882e-04 0.0 
4.418623570403e-04 -1.945098907013e-04 0.0 
1.350366451069e-03 3.465878672479e-04 0.0 
4.735202178020e-05 -1.464571755431e-04 0.0 
1.947103749459e-03 1.037830356134e-03 0.0 
2.108990031823e-04 -2.012311881990e-04 0.0 
4.039620543796e-04 -1.976106555983e-04 0.0 
6.713201567968e-04 1.416658427796e-06 0.0 
9.765034641429e-05 6.425491928740e-03 0.0 
3.793610659694e-04 -1.816675396408e-04 0.0 
1.855946034027e-05 -1.208117187762e-04 0.0 
3.467682664273e-04 -1.832534574308e-04 0.0 
7.465260280902e-04 -8.743059479363e-05 0.0 
3.221506672855e-04 -1.665401865753e-04 0.0 
2.936345442086e-04 -1.671680582944e-04 0.0 
3.365171912211e-04 1.659701811138e-03 0.0 
2.694401212791e-04 -1.508412633420e-04 0.0 
4.606758765399e-05 7.830645747113e-04 0.0 
4.616702795682e-06 1.201796090973e-06 0.0 
1.146664082846e-04 8.434169556388e-03 0.0 
3.834285519371e-04 2.591681804883e-04 0.0 
2.769350508221e-04 -2.543045077547e-04 0.0 
4.628011716227e-04 6.626562100795e-05 0.0 
2.421456866438e-04 -1.663987033049e-04 0.0 
1.737065054067e-03 6.519425437708e-04 0.0 
2.390122455728e-04 8.386109266869e-03 0.0 
2.185026555769e-04 -1.652827703547e-04 0.0 
9.376218745466e-04 3.961253254380e-04 0.0 
2.147551236876e-04 3.563536786624e-05 0.0 
1.930554373035e-04 4.877300763214e-03 0.0 
3.189639786645e-04 -6.930785185498e-06 0.0 
7.532556694016e-04 -2.760288020310e-05 0.0 
6.279482073093e-05 2.492876412230e-03 0.0 
6.206791355516e-04 9.246658790842e-03 0.0 
2.142445637831e-04 -2.208407608933e-04 0.0 
1.412819211165e-05 -2.111242653990e-05 0.0 
3.362116217810e-04 6.863357764189e-05 0.0 
3.738959909213e-04 -6.020627176960e-05 0.0 
3.350404906942e-04 -1.393034598956e-04 0.0 
5.701417661508e-05 -1.092871151989e-04 0.0 
2.549273914281e-04 -2.387771227589e-04 0.0 
3.185815044972e-04 -5.544249357654e-05 0.0 
2.095445912099e-04 9.708756124090e-06 0.0 
1.055538439809e-03 8.133514815804e-03 0.0 
6.906431970897e-04 2.574575437251e-05 0.0 
2.984292397737e-04 -1.347989490270e-04 0.0 
8.832028681017e-04 1.339650048688e-03 0.0 
3.641087646263e-04 4.044514224230e-05 0.0 
2.601781380573e-05 9.800692168778e-07 0.0 
5.455917099870e-04 3.951393434353e-05 0.0 
3.078706779139e-04 -1.896044786176e-04 0.0 
1.895810349634e-03 6.068961399648e-03 0.0 
6.338421983673e-04 1.487100561654e-04 0.0 
2.754097380110e-04 4.068819642672e-03 0.0 
1.815035955783e-05 9.704356921581e-07 0.0 
1.294581091278e-03 7.800451033766e-03 0.0 
1.988530045615e-04 1.559076985898e-03 0.0 
3.133901237774e-04 -2.531401644179e-04 0.0 
9.929046039447e-05 1.518678244101e-03 0.0 
1.541917475357e-03 5.569645019141e-04 0.0 
5.112690178809e-04 7.154103430276e-03 0.0 
2.297034719782e-03 4.671314022854e-03 0.0 
1.319635396732e-05 5.747387232227e-07 0.0 
1.048261776581e-03 6.065916945397e-04 0.0 
2.971304662158e-04 -2.095496821601e-04 0.0 
3.023769647952e-04 4.980992393002e-03 0.0 
7.729257290305e-05 -9.264089913555e-05 0.0 
2.830100537739e-04 -2.601850852542e-04 0.0 
7.028533767557e-05 -4.464634067808e-07 0.0 
1.271460680797e-03 4.465303960372e-04 0.0 
2.244828499525e-05 2.627914174312e-07 0.0 
1.544538160175e-05 -1.528428106175e-04 0.0 
1.786452591945e-04 -2.026344163441e-04 0.0 
8.454659522944e-05 4.367142005615e-07 0.0 
7.430115127359e-04 2.372891072075e-04 0.0 
3.074904088079e-04 -2.443030012833e-04 0.0 
3.109005558195e-04 5.659280384579e-04 0.0 
2.834600105379e-04 -2.219436962524e-04 0.0 
7.823878766771e-04 9.285761804124e-03 0.0 
1.333823859508e-04 -1.838047226417e-04 0.0 
1.408883268012e-05 1.001464523027e-06 0.0 
5.193912219575e-04 1.422259318487e-03 0.0 
5.062984267343e-05 -7.787266376175e-05 0.0 
1.815556029753e-03 5.920232957061e-03 0.0 
3.767135604937e-05 -1.145388886735e-04 0.0 
6.410524473259e-04 9.215941697847e-05 0.0 
2.241263969482e-04 -2.207487518916e-04 0.0 
3.437287471231e-04 1.382811763377e-03 0.0 
1.079550272171e-04 2.112590612359e-06 0.0 
9.616013196640e-04 9.071905649050e-04 0.0 
9.912939535027e-05 1.087569696173e-05 0.0 
2.873476592398e-04 -2.484423316189e-04 0.0 
3.527341499993e-04 4.773859666075e-05 0.0 
2.026053231907e-04 -1.408466104799e-06 0.0 
4.842740769156e-04 9.304822077907e-03 0.0 
1.055034820529e-03 7.589232526444e-04 0.0 
5.413173823245e-05 -9.938187840739e-05 0.0 
1.050572304874e-04 -1.588748016124e-04 0.0 
1.941615169508e-05 6.943687193895e-04 0.0 
1.777831746583e-05 -1.711180754976e-04 0.0 
8.705765507972e-05 9.324086537019e-03 0.0 
1.784713966870e-06 9.253862823400e-07 0.0 
6.628680227866e-05 -1.513068764225e-04 0.0 
1.955127876989e-04 7.686638157564e-03 0.0 
7.836604793520e-04 2.880725291666e-04 0.0 
1.188195514024e-05 -5.065983519389e-05 0.0 
1.414320539791e-04 3.138376420411e-03 0.0 
2.676069788387e-04 -2.385198521322e-04 0.0 
2.752470673884e-04 -2.603195279519e-04 0.0 
1.734682004023e-04 5.916189687122e-03 0.0 
2.930969094679e-04 2.942936988885e-05 0.0 
8.152299072339e-04 1.049417110103e-03 0.0 
4.279902363629e-04 6.602202043743e-03 0.0 
3.174809923242e-04 -2.231639692930e-04 0.0 
1.014404576610e-03 3.517454539179e-04 0.0 
5.128324881831e-05 -6.877714593224e-05 0.0 
7.851631656600e-04 1.609665902493e-04 0.0 
2.562046004479e-04 2.553846383813e-06 0.0 
2.701941827460e-04 -2.156956576766e-04 0.0 
9.905490848522e-06 -3.989157292972e-05 0.0 
1.507300922750e-04 -1.909113083494e-04 0.0 
4.350633858670e-05 6.253638937334e-08 0.0 
3.315503098037e-05 -6.183504596617e-05 0.0 

VECTORS node_materi_displacement float
0.0 7.705712899824e-02 0.0 
0.0 1.619301636483e-01 0.0 
0.0 0.0 0.0 
0.0 0.0 0.0 
0.0 7.699560776601e-02 0.0 
0.0 7.656023506098e-02 0.0 
0.0 7.575567795596e-02 0.0 
0.0 7.458144410849e-02 0.0 
0.0 7.302749451514e-02 0.0 
0.0 7.110118510591e-02 0.0 
0.0 6.880140000976e-02 0.0 
0.0 6.612113202576e-02 0.0 
0.0 6.305464199066e-02 0.0 
0.0 5.959038761495e-02 0.0 
0.0 5.570954044955e-02 0.0 
0.0 5.139855567224e-02 0.0 
0.0 4.665111131545e-02 0.0 
0.0 4.147832988395e-02 0.0 
0.0 3.582433282281e-02 0.0 
0.0 2.968488130474e-02 0.0 
0.0 2.304982546096e-02 0.0 
0.0 1.589412301831e-02 0.0 
0.0 8.200447017228e-03 0.0 
0.0 0.0 0.0 
0.0 0.0 0.0 
0.0 0.0 0.0 
0.0 0.0 0.0 
0.0 0.0 0.0 
0.0 0.0 0.0 
0.0 0.0 0.0 
0.0 0.0 0.0 
0.0 0.0 0.0 
0.0 0.0 0.0 
0.0 0.0 0.0 
0.0 0.0 0.0 
0.0 0.0 0.0 
0.0 0.0 0.0 
0.0 0.0 0.0 
0.0 0.0 0.0 
0.0 0.0 0.0 
0.0 0.0 0.0 
0.0 0.0 0.0 
0.0 0.0 0.0 
0.0 0.0 0.0 
0.0 0.0 0.0 
0.0 0.0 0.0 
0.0 0.0 0.0 
0.0 0.0 0.0 
0.0 0.0 0.0 
0.0 0.0 0.0 
0.0 0.0 0.0 
0.0 0.0 0.0 
0.0 0.0 0.0 
0.0 0.0 0.0 
0.0 0.0 0.0 
0.0 0.0 0.0 
0.0 0.0 0.0 
0.0 0.0 0.0 
0.0 0.0 0.0 
0.0 0.0 0.0 
0.0 0.0 0.0 
0.0 0.0 0.0 
0.0 0.0 0.0 
0.0 0.0 0.0 
0.0 0.0 0.0 
0.0 0.0 0.0 
0.0 0.0 0.0 
0.0 0.0 0.0 
0.0 0.0 0.0 
0.0 0.0 0.0 
0.0 0.0 0.0 
0.0 0.0 0.0 
0.0 1.474573325499e-01 0.0 
0.0 1.325532859581e-01 0.0 
0.0 1.172330928993e-01 0.0 
0.0 1.015199926121e-01 0.0 
0.0 8.542361238100e-02 0.0 
0.0 6.896998729164e-02 0.0 
0.0 5.217885409464e-02 0.0 
0.0 3.507301207927e-02 0.0 
0.0 1.767782576671e-02 0.0 
-1.007311723378e-02 1.017593677183e-01 0.0 
1.677606319735e-02 1.504589543084e-01 0.0 
-7.137665880847e-03 1.102555206678e-01 0.0 
-4.181683188655e-03 1.196256093862e-01 0.0 
-8.599237770717e-04 1.289409507842e-01 0.0 
2.697394044538e-03 1.375125957622e-01 0.0 
6.311055474093e-03 1.448673076414e-01 0.0 
9.811375335641e-03 1.506415868533e-01 0.0 
1.297492864591e-02 1.544437371810e-01 0.0 
1.554977543703e-02 1.559670237723e-01 0.0 
1.714860304854e-02 1.548016455220e-01 0.0 
1.098416031262e-03 1.620011623683e-01 0.0 
2.132356939104e-03 1.619917502375e-01 0.0 
3.174378517595e-03 1.620276015399e-01 0.0 
4.218981281994e-03 1.620773382542e-01 0.0 
5.261208561021e-03 1.620956675349e-01 0.0 
6.292208003480e-03 1.620992166082e-01 0.0 
7.312115154842e-03 1.620369101590e-01 0.0 
8.310773972683e-03 1.618869092023e-01 0.0 
9.294881987028e-03 1.615870372837e-01 0.0 
1.026753048543e-02 1.611025979329e-01 0.0 
1.122469333372e-02 1.603040676929e-01 0.0 
1.220784204216e-02 1.590793644108e-01 0.0 
1.329913214594e-02 1.572702564715e-01 0.0 
1.466595813601e-02 1.546260571888e-01 0.0 
-9.104947342349e-03 9.706721471272e-02 0.0 
-7.869655509193e-03 9.315460384033e-02 0.0 
-6.595506791647e-03 8.991888795580e-02 0.0 
-5.384110018549e-03 8.727667738992e-02 0.0 
-4.306560900473e-03 8.513469013471e-02 0.0 
-3.347677131345e-03 8.338452849608e-02 0.0 
-2.510902349439e-03 8.196296982931e-02 0.0 
-1.804294364554e-03 8.081630593605e-02 0.0 
-1.216957073144e-03 7.990147963109e-02 0.0 
-7.413458301917e-04 7.918628292590e-02 0.0 
-3.797631215293e-04 7.861312577532e-02 0.0 
-9.407344319090e-05 7.819012270535e-02 0.0 
1.181653740507e-04 7.784523198069e-02 0.0 
2.343255266581e-04 7.757955854776e-02 0.0 
2.800517507414e-04 7.739119293635e-02 0.0 
2.852266431156e-04 7.725732202436e-02 0.0 
2.556350050703e-04 7.716129163149e-02 0.0 
1.977195666667e-04 7.709916098011e-02 0.0 
9.767148252357e-05 7.705766947382e-02 0.0 
-8.534877167205e-03 1.058177276601e-01 0.0 
-5.687717500434e-03 1.148946037698e-01 0.0 
-2.533907920736e-03 1.243449257127e-01 0.0 
9.279512283180e-04 1.333541635150e-01 0.0 
4.546958013825e-03 1.414066793047e-01 0.0 
8.128515102127e-03 1.480303238191e-01 0.0 
1.147703076620e-02 1.528066330180e-01 0.0 
1.437382935139e-02 1.555076294660e-01 0.0 
1.652764208847e-02 1.557440145771e-01 0.0 
1.737175625882e-02 1.530796651444e-01 0.0 
-1.446491455330e-03 1.131062742772e-01 0.0 
3.149280091545e-03 8.110717027175e-03 0.0 
-2.582916611876e-04 7.927860381797e-02 0.0 
-2.970039142475e-03 8.580851422299e-02 0.0 
1.950952922783e-03 7.528081122847e-03 0.0 
5.852193055799e-03 1.292606039125e-01 0.0 
6.323947360672e-04 5.763397457272e-02 0.0 
4.191788415441e-03 8.934608485462e-03 0.0 
1.283801790734e-02 1.406723700921e-01 0.0 
4.907647531710e-03 9.790420911269e-03 0.0 
1.815579124748e-02 1.456621646406e-01 0.0 
1.068746994851e-03 6.720589337535e-03 0.0 
4.605774242882e-04 7.755488690122e-02 0.0 
5.357384331334e-03 1.135711639198e-02 0.0 
1.926899490728e-02 1.405793175462e-01 0.0 
4.476863289837e-04 6.992523001678e-02 0.0 
6.577046891283e-04 4.518703995923e-02 0.0 
5.366945838880e-03 1.304287321755e-02 0.0 
4.128145247190e-03 1.379712436262e-02 0.0 
1.173228583303e-03 1.507566919698e-02 0.0 
2.229833721140e-03 1.618275285046e-02 0.0 
3.009459823520e-03 1.413891863946e-02 0.0 
1.570506072925e-02 1.432110295289e-01 0.0 
1.024734697334e-02 1.483076936243e-01 0.0 
6.893019297518e-03 1.486596201205e-01 0.0 
7.176082377183e-04 9.327620303927e-02 0.0 
6.362067304255e-04 7.199207759679e-03 0.0 
-5.453876606709e-03 9.479179667708e-02 0.0 
3.904885161886e-04 7.712424037316e-02 0.0 
4.534514885904e-04 2.694620263914e-02 0.0 
3.609974012085e-03 1.495965866393e-01 0.0 
2.773231712907e-04 7.523632175290e-02 0.0 
5.416145797026e-03 1.523048089732e-02 0.0 
4.245025021599e-03 8.600895969910e-03 0.0 
5.137532556426e-03 1.039352034226e-02 0.0 
3.921873251605e-03 9.003506952770e-03 0.0 
2.510401647423e-03 7.445972157595e-03 0.0 
-1.568277835681e-03 8.227155633718e-02 0.0 
1.266851571134e-02 1.475491629387e-01 0.0 
1.742662516133e-03 8.437868300463e-03 0.0 
5.564061714505e-04 6.133524521987e-02 0.0 
2.285458597330e-04 7.819225246580e-02 0.0 
5.723098970719e-04 6.464041646806e-02 0.0 
5.770655715289e-04 1.228367450995e-02 0.0 
9.565141291355e-03 1.350153449403e-01 0.0 
2.110913787164e-03 1.215096881480e-01 0.0 
1.581654592543e-02 1.441282606661e-01 0.0 
1.947643541339e-02 1.446611884903e-01 0.0 
-5.046382617314e-03 1.050617296160e-01 0.0 
8.441552176263e-04 1.231204774904e-01 0.0 
2.911191507268e-04 5.677264431171e-03 0.0 
1.759084333226e-04 7.703502592604e-02 0.0 
3.111499984908e-04 2.771239012726e-02 0.0 
1.902096187823e-02 1.365084039771e-01 0.0 
2.070718158838e-02 1.277500938335e-01 0.0 
1.954021259214e-02 1.251296799297e-01 0.0 
2.121983937597e-02 1.149711605423e-01 0.0 
2.002056188556e-02 1.102409598377e-01 0.0 
2.109887949997e-02 1.015112836525e-01 0.0 
2.236435712507e-02 1.058714019972e-01 0.0 
2.182761175345e-02 9.292195168712e-02 0.0 
2.311842387319e-02 9.715807482785e-02 0.0 
1.957042363234e-02 9.621217635090e-02 0.0 
2.218846459289e-02 8.456729258809e-02 0.0 
2.349918502793e-02 8.873365696958e-02 0.0 
2.219061472907e-02 7.652346601416e-02 0.0 
2.351479028522e-02 8.064625273529e-02 0.0 
2.449876607500e-02 9.223993662141e-02 0.0 
2.453204277523e-02 8.419330582728e-02 0.0 
2.516733521172e-02 9.508362938523e-02 0.0 
2.521995720392e-02 8.710120120601e-02 0.0 
2.423126674564e-02 7.656882718440e-02 0.0 
2.494327153984e-02 7.958114797010e-02 0.0 
2.557765943977e-02 8.942791719663e-02 0.0 
2.532554063845e-02 8.203946741979e-02 0.0 
2.560939582369e-02 9.119867681482e-02 0.0 
2.538557015398e-02 8.395086109670e-02 0.0 
2.533006646653e-02 9.246600217258e-02 0.0 
2.514096798089e-02 8.539853603908e-02 0.0 
2.486894916139e-02 7.716591344279e-02 0.0 
2.466427689984e-02 7.881635044260e-02 0.0 
2.461215081151e-02 8.641817259639e-02 0.0 
2.417773630708e-02 8.005957694972e-02 0.0 
2.382138404086e-02 8.705609624103e-02 0.0 
2.343204414547e-02 8.093694460479e-02 0.0 
2.349394019108e-02 7.413947903663e-02 0.0 
2.280073320141e-02 7.527405334756e-02 0.0 
2.244942144501e-02 8.150776881976e-02 0.0 
2.187760933786e-02 7.612120396912e-02 0.0 
2.125734634277e-02 8.181628924076e-02 0.0 
2.075307763512e-02 7.671931024414e-02 0.0 
1.988758199525e-02 8.189566288674e-02 0.0 
1.944892177682e-02 7.710969923495e-02 0.0 
2.005859698445e-02 7.197988775643e-02 0.0 
1.882900138513e-02 7.265974528891e-02 0.0 
1.799600658356e-02 7.734411127294e-02 0.0 
1.745920702331e-02 7.320524454966e-02 0.0 
1.805069375108e-02 6.855214975796e-02 0.0 
1.676998308858e-02 6.940171583938e-02 0.0 
1.714051724708e-02 6.474321310317e-02 0.0 
1.595543892603e-02 6.587919523674e-02 0.0 
1.540068117207e-02 7.012442657256e-02 0.0 
1.468217860803e-02 6.688223218278e-02 0.0 
1.504258525109e-02 6.258595153538e-02 0.0 
1.386368069832e-02 6.387927726657e-02 0.0 
1.334038824050e-02 6.782191556651e-02 0.0 
1.263067621944e-02 6.505898811317e-02 0.0 
1.297767824305e-02 6.103473746190e-02 0.0 
1.184142759942e-02 6.246994796946e-02 0.0 
1.136641638477e-02 6.618020367787e-02 0.0 
1.067876527480e-02 6.381681991153e-02 0.0 
1.100471773397e-02 5.996095571123e-02 0.0 
9.930809861839e-03 6.155952180843e-02 0.0 
9.506952491253e-03 6.511379779244e-02 0.0 
8.854588081172e-03 6.305682385768e-02 0.0 
9.144806887186e-03 5.933869028294e-02 0.0 
8.151353437847e-03 6.106040832438e-02 0.0 
8.324037377450e-03 5.716393853113e-02 0.0 
7.774098714804e-03 6.452692384863e-02 0.0 
7.160954310105e-03 6.270595484116e-02 0.0 
6.720350758906e-03 6.595811780966e-02 0.0 
6.192462706474e-03 6.428469751371e-02 0.0 
2.259210616640e-02 6.862320279366e-02 0.0 
5.726897362030e-03 6.730715882032e-02 0.0 
6.136163668392e-03 6.878255909765e-02 0.0 
5.265620489019e-03 6.579206504256e-02 0.0 
5.612845411398e-03 6.260695865000e-02 0.0 
4.793202482286e-03 6.859034748829e-02 0.0 
4.390923474711e-03 6.722259404639e-02 0.0 
3.931949434388e-03 6.980589581778e-02 0.0 
2.004894687346e-02 8.729826739842e-02 0.0 
2.361463014487e-02 6.935971847894e-02 0.0 
3.579583163513e-03 6.857633407710e-02 0.0 
3.153456240296e-03 7.094914080157e-02 0.0 
3.391039687811e-03 7.202350709796e-02 0.0 
2.666621670894e-03 7.295799227070e-02 0.0 
1.852239420126e-02 1.048550722582e-01 0.0 
1.782485770495e-02 9.019330615150e-02 0.0 
1.686733792786e-02 9.872076504023e-02 0.0 
1.591772783655e-02 8.359645363597e-02 0.0 
1.507987700986e-02 9.184281943056e-02 0.0 
2.460704690712e-03 7.201451123786e-02 0.0 
2.055598057301e-02 7.139933959513e-02 0.0 
1.645933338669e-02 7.522423141922e-02 0.0 
2.551278356567e-02 9.894592008806e-02 0.0 
2.393561394719e-02 9.366637445443e-02 0.0 
1.819572457984e-02 6.346478525267e-02 0.0 
3.929657117776e-03 6.583143758387e-02 0.0 
3.163238181211e-03 6.731746243256e-02 0.0 
3.418560940873e-03 6.440556212801e-02 0.0 
9.209302576437e-03 5.517396886913e-02 0.0 
8.281688755543e-03 5.283558652609e-02 0.0 
9.031446373561e-03 5.055692412554e-02 0.0 
8.016797233398e-03 4.805785382684e-02 0.0 
8.604569737005e-03 4.547884381376e-02 0.0 
7.526292796606e-03 4.281446261028e-02 0.0 
7.019519436906e-03 4.556262371483e-02 0.0 
6.485618217720e-03 4.014067025343e-02 0.0 
6.050558191202e-03 4.305168208343e-02 0.0 
7.927418710062e-03 3.992649522603e-02 0.0 
9.089504895020e-03 4.276043477520e-02 0.0 
5.492842461008e-03 3.744586789232e-02 0.0 
5.119796735156e-03 4.050679160010e-02 0.0 
4.557005567419e-03 3.471038764875e-02 0.0 
4.236745145529e-03 3.791712267578e-02 0.0 
4.656768383778e-03 4.343503854045e-02 0.0 
3.822515794239e-03 4.098768435898e-02 0.0 
4.123894590269e-03 4.623328270788e-02 0.0 
1.708205698696e-02 5.964199295970e-02 0.0 
1.788260742065e-02 5.792127242782e-02 0.0 
1.658402561663e-02 5.408167636565e-02 0.0 
1.709585566812e-02 5.190872390185e-02 0.0 
1.563709330530e-02 4.804488609634e-02 0.0 
1.582968255249e-02 4.541719064617e-02 0.0 
1.423459990466e-02 4.151694491564e-02 0.0 
1.414216712212e-02 4.435963657955e-02 0.0 
2.184656076065e-02 6.870952914444e-02 0.0 
1.643245498441e-02 7.744033128835e-02 0.0 
1.670647992729e-02 8.161976258603e-02 0.0 
1.498398663905e-02 8.127650936964e-02 0.0 
1.497568183009e-02 8.548503880381e-02 0.0 
1.313082721242e-02 8.470887720974e-02 0.0 
1.281868834766e-02 8.896661457843e-02 0.0 
1.088348856156e-02 8.777234062018e-02 0.0 
1.128324470275e-02 8.390117896615e-02 0.0 
8.978588135562e-03 8.658626321437e-02 0.0 
9.463905967566e-03 8.311348559828e-02 0.0 
7.148982092755e-03 8.544358332511e-02 0.0 
7.707473470282e-03 8.238726473155e-02 0.0 
2.408914738165e-02 7.082540060488e-02 0.0 
1.738590371358e-02 4.949909576919e-02 0.0 
1.577045259329e-02 4.252643778532e-02 0.0 
1.741797142997e-02 4.681421360999e-02 0.0 
2.788712632031e-03 7.388146585538e-02 0.0 
3.408655320327e-03 3.527025530160e-02 0.0 
8.196339372522e-03 3.688009573020e-02 0.0 
9.447556210463e-03 3.993696970230e-02 0.0 
1.262970620574e-02 3.776681053912e-02 0.0 
2.040377819330e-03 7.381635242922e-02 0.0 
1.025557396524e-02 9.208730780903e-02 0.0 
1.224313000467e-02 9.371331930886e-02 0.0 
1.392162574883e-02 7.630108200956e-02 0.0 
1.323071262273e-02 8.436439001074e-02 0.0 
8.304762776949e-03 3.366726077079e-02 0.0 
1.855695543286e-03 7.299429969490e-02 0.0 
5.752930158384e-03 3.424129038442e-02 0.0 
6.350417521421e-03 8.891492520116e-02 0.0 
3.033055740603e-03 3.848260899910e-02 0.0 
2.642178200783e-03 3.256274510191e-02 0.0 
6.432110893739e-03 4.816979760837e-02 0.0 
1.542750964933e-02 3.933813940299e-02 0.0 
1.719737463547e-02 4.393831248517e-02 0.0 
9.755674534843e-03 8.000254701441e-02 0.0 
8.075825496906e-03 7.966159640485e-02 0.0 
6.057860845543e-03 8.173668859684e-02 0.0 
6.557814745911e-03 7.926418951746e-02 0.0 
8.283268102296e-03 7.716858149309e-02 0.0 
6.802597377462e-03 7.718488944779e-02 0.0 
5.130462992713e-03 7.903115069987e-02 0.0 
5.448710859999e-03 7.723625561699e-02 0.0 
6.917013445192e-03 7.524128983423e-02 0.0 
5.637755918707e-03 7.555718150271e-02 0.0 
4.237718804028e-03 7.733581856342e-02 0.0 
4.492723222096e-03 7.588665246501e-02 0.0 
2.887763165533e-03 2.906143277285e-02 0.0 
4.557127569222e-03 8.742178006374e-02 0.0 
2.476263818751e-02 1.034979787103e-01 0.0 
7.033268059028e-03 3.049537173552e-02 0.0 
1.240576406714e-02 3.458301397595e-02 0.0 
1.188952836415e-02 6.846769673029e-02 0.0 
1.136065063022e-02 7.639167349951e-02 0.0 
1.233051291103e-02 9.238327198344e-02 0.0 
1.063482865075e-02 8.423459402266e-02 0.0 
9.511642928834e-03 6.800349733385e-02 0.0 
8.962870632509e-03 7.576294839998e-02 0.0 
9.777499836982e-03 9.196094781357e-02 0.0 
8.275832002137e-03 8.341062886985e-02 0.0 
8.845886672255e-03 9.951869612266e-02 0.0 
7.499301536441e-03 9.091884525592e-02 0.0 
6.821397781489e-03 7.461624291848e-02 0.0 
6.190136288142e-03 8.212962177071e-02 0.0 
6.671130793584e-03 9.829531480286e-02 0.0 
5.485846969074e-03 8.952758888408e-02 0.0 
5.815596627689e-03 1.055299774409e-01 0.0 
4.731049054421e-03 9.680702779256e-02 0.0 
4.358291962499e-03 8.061509999465e-02 0.0 
1.531605267877e-03 7.453292680917e-02 0.0 
1.263902486279e-02 4.082239109588e-02 0.0 
1.103869913982e-02 3.413186703045e-02 0.0 
2.711004605235e-03 6.601308056126e-02 0.0 
2.894481182899e-03 6.292983226427e-02 0.0 
3.595701613267e-03 6.109928153695e-02 0.0 
2.965200149608e-03 5.946053256319e-02 0.0 
3.684270030102e-03 8.802869085314e-02 0.0 
3.310481323112e-03 7.159229349789e-02 0.0 
9.375135326701e-03 9.690357261441e-02 0.0 
1.137680668811e-02 9.900133583861e-02 0.0 
1.215951112482e-02 6.051204504144e-02 0.0 
2.294488689220e-03 3.591206400371e-02 0.0 
2.579484837302e-03 4.155631832686e-02 0.0 
2.286685937444e-02 9.367402289914e-02 0.0 
2.262974179092e-02 1.005234988219e-01 0.0 
2.131692991506e-02 9.993329938608e-02 0.0 
2.064229872751e-02 1.071387571012e-01 0.0 
2.203828643207e-02 1.079325460768e-01 0.0 
1.909552330341e-02 1.059520925704e-01 0.0 
1.029181601720e-02 4.570813452719e-02 0.0 
5.445807514605e-03 6.563658391882e-02 0.0 
3.544985840167e-03 7.308720163629e-02 0.0 
2.813077533148e-03 7.479950522718e-02 0.0 
1.945468598157e-03 2.978292864393e-02 0.0 
1.383139201602e-02 4.699141291032e-02 0.0 
2.394740046349e-02 6.853841117670e-02 0.0 
2.287657364706e-02 6.239431070345e-02 0.0 
2.236283531780e-02 5.946987127160e-02 0.0 
2.101251274187e-02 5.351942918207e-02 0.0 
2.009821318028e-02 4.995625191032e-02 0.0 
1.847929823489e-02 4.419414879655e-02 0.0 
1.947054934397e-02 4.791313837139e-02 0.0 
1.476145054277e-02 3.577730081909e-02 0.0 
1.669110401486e-02 3.871657753843e-02 0.0 
4.005558539543e-03 1.041186506870e-01 0.0 
1.888088937461e-02 5.386286947873e-02 0.0 
6.898935620473e-03 7.343466178664e-02 0.0 
1.631793647240e-03 7.520352086998e-02 0.0 
3.154557812335e-03 7.749666236975e-02 0.0 
1.341776128778e-03 7.387243086869e-02 0.0 
1.597847762801e-03 7.213049411232e-02 0.0 
6.873253501782e-03 2.691406308487e-02 0.0 
1.713460441471e-02 3.998979729901e-02 0.0 
1.883614467674e-02 4.590650207122e-02 0.0 
1.960383627700e-02 1.149282597507e-01 0.0 
2.106763605687e-02 1.158983426673e-01 0.0 
1.288324393157e-02 3.134612373703e-02 0.0 
1.562062079184e-02 1.073063197295e-01 0.0 
1.019673659754e-02 1.078882538781e-01 0.0 
9.091348844502e-03 1.153016426346e-01 0.0 
1.086362170100e-03 7.535034261357e-02 0.0 
2.774295473133e-03 7.875733324697e-02 0.0 
7.729159874750e-03 5.930283537448e-02 0.0 
1.418146312922e-02 9.534850713171e-02 0.0 
1.335327093727e-02 1.010494322557e-01 0.0 
3.440077939574e-03 9.088128521856e-02 0.0 
1.722707519949e-03 8.905147301329e-02 0.0 
2.753721352441e-03 7.889142892311e-02 0.0 
2.391053784001e-03 6.243836376760e-02 0.0 
3.671420482796e-03 5.739636715906e-02 0.0 
2.985916966610e-03 5.557588502368e-02 0.0 
8.222846992103e-03 3.024319329474e-02 0.0 
3.494079356235e-03 7.621357339367e-02 0.0 
2.775290131326e-03 5.486301433605e-02 0.0 
1.242797869806e-02 4.364832130115e-02 0.0 
1.333196188317e-02 4.942860487573e-02 0.0 
2.276114413333e-03 6.142758869643e-02 0.0 
8.168544337725e-03 1.022914103547e-01 0.0 
6.164725806972e-03 9.973471542626e-02 0.0 
8.210345008899e-03 7.287646951145e-02 0.0 
4.608711041144e-03 7.452730070009e-02 0.0 
1.095780560186e-03 7.312131004988e-02 0.0 
6.489679102886e-03 2.311380918909e-02 0.0 
7.913610321242e-03 5.153352388195e-02 0.0 
1.778193538906e-02 4.262876442637e-02 0.0 
2.013428216126e-02 5.123512329076e-02 0.0 
1.477999666900e-02 3.353592144765e-02 0.0 
2.331420018501e-03 7.756200306136e-02 0.0 
5.605452063294e-03 2.358101629664e-02 0.0 
1.617895973741e-03 3.327022500674e-02 0.0 
1.559030504702e-02 3.579622507643e-02 0.0 
1.722437484972e-02 4.135587126102e-02 0.0 
1.604712324788e-02 9.691215784503e-02 0.0 
1.533112475120e-02 1.029661589766e-01 0.0 
1.221429159536e-02 1.073595437705e-01 0.0 
1.421724380195e-02 1.096618945198e-01 0.0 
2.333291973280e-02 1.095335387695e-01 0.0 
1.786501608699e-02 9.828860103110e-02 0.0 
2.508640767883e-02 1.056352483849e-01 0.0 
2.430133789099e-02 1.144048968423e-01 0.0 
2.426268540313e-02 1.158434346567e-01 0.0 
2.317415808938e-02 1.084229364013e-01 0.0 
2.226763316974e-02 1.166059671323e-01 0.0 
1.676162181175e-02 8.623620469781e-02 0.0 
1.909481333433e-02 6.201161502876e-02 0.0 
4.344992481356e-03 5.916371507494e-02 0.0 
4.943816199721e-03 4.846891946920e-02 0.0 
1.005135651676e-02 5.307751105120e-02 0.0 
5.823129881103e-03 5.801460043108e-02 0.0 
4.421553300884e-03 4.884565543509e-02 0.0 
6.922816599569e-03 1.141039958739e-01 0.0 
5.971947810264e-03 1.211561231877e-01 0.0 
2.151903629875e-03 7.538599548593e-02 0.0 
2.061696391832e-03 7.616351081649e-02 0.0 
7.483127953990e-03 5.500709026195e-02 0.0 
5.836103851303e-03 2.732847240553e-02 0.0 
9.977778848775e-03 5.234172405709e-02 0.0 
9.781348976700e-03 4.449952203176e-02 0.0 
1.211536962817e-02 5.256388079301e-02 0.0 
7.916056606551e-03 2.659037714790e-02 0.0 
1.480429671263e-02 7.745316109279e-02 0.0 
1.588552477919e-02 5.606059671748e-02 0.0 
2.916153681253e-03 8.610521954624e-02 0.0 
2.297307843599e-02 6.694781771386e-02 0.0 
1.519466512364e-03 7.653796450046e-02 0.0 
2.255147425838e-02 6.572903899934e-02 0.0 
1.328675555531e-03 2.692899743025e-02 0.0 
1.536423192663e-03 2.315223754757e-02 0.0 
1.179541662194e-02 2.729956409810e-02 0.0 
2.126199725731e-02 1.309072627553e-01 0.0 
2.181809255498e-02 6.156116736175e-02 0.0 
2.150851856947e-02 6.350110544213e-02 0.0 
2.308181683345e-02 1.248942715884e-01 0.0 
2.268020426534e-02 1.256481867606e-01 0.0 
2.390309684485e-02 1.166809973118e-01 0.0 
2.196218544325e-02 1.258896565000e-01 0.0 
7.984613696413e-03 7.097301229389e-02 0.0 
6.756316894364e-03 7.176124180232e-02 0.0 
1.333176478010e-02 2.925550976490e-02 0.0 
1.335165361191e-02 2.934942264447e-02 0.0 
1.363162219855e-02 3.088890601023e-02 0.0 
1.525015712324e-02 3.619802832233e-02 0.0 
9.799323409723e-03 2.285086327848e-02 0.0 
1.098605831617e-02 2.706354434215e-02 0.0 
1.271730856009e-03 7.121342953639e-02 0.0 
1.973172085380e-02 1.243073737090e-01 0.0 
6.063263076496e-03 4.258468777054e-02 0.0 
2.314652340266e-02 1.235568740657e-01 0.0 
4.471250271883e-03 2.042892256002e-02 0.0 
4.731157503528e-03 2.415507346549e-02 0.0 
2.096818780303e-04 8.746173723983e-02 0.0 
1.486472688172e-03 8.468841283233e-02 0.0 
1.905765914295e-03 4.590872066633e-02 0.0 
1.074627690434e-02 1.141949575748e-01 0.0 
1.267780076009e-02 1.168917007457e-01 0.0 
8.743003257759e-03 1.112410156163e-01 0.0 
1.996261202850e-04 1.216565975338e-02 0.0 
1.580179607107e-03 1.497282815524e-01 0.0 
9.947246507959e-04 2.008814863273e-02 0.0 
2.409923409538e-02 1.085234282305e-01 0.0 
2.073889688068e-03 3.753520266342e-02 0.0 
2.052168710082e-02 5.655976520517e-02 0.0 
2.154841493191e-02 9.347130172499e-02 0.0 
9.643391883317e-03 3.360165203100e-02 0.0 
1.533750576842e-03 5.493405680864e-02 0.0 
1.149485044112e-03 3.613138426873e-02 0.0 
1.024239208088e-02 1.232276273999e-01 0.0 
9.077411584186e-03 1.307072106303e-01 0.0 
1.151718140226e-02 1.159555112164e-01 0.0 
5.353205282529e-03 9.284011220988e-02 0.0 
1.744429868829e-03 9.542649420832e-02 0.0 
4.178821041720e-03 5.649997544512e-02 0.0 
2.469301425247e-03 6.871598436268e-02 0.0 
2.019020182441e-03 6.724031998924e-02 0.0 
3.616981507254e-03 7.512594320546e-02 0.0 
4.574900533028e-03 7.329326091848e-02 0.0 
4.388262939141e-03 5.524803874626e-02 0.0 
5.114254959790e-03 5.714331642158e-02 0.0 
2.158435234172e-02 5.875240691426e-02 0.0 
2.016588119144e-02 5.455843073130e-02 0.0 
2.349464633373e-02 6.582999614168e-02 0.0 
1.202786784093e-02 4.627433115418e-02 0.0 
1.267690627686e-02 5.169252744372e-02 0.0 
1.387426557434e-02 5.470927623914e-02 0.0 
4.547509901516e-03 4.167751648845e-02 0.0 
3.046569299107e-03 3.092615173125e-02 0.0 
9.279707638678e-03 7.022341014261e-02 0.0 
9.598033265814e-03 7.235610075479e-02 0.0 
7.640082376463e-03 6.925031612222e-02 0.0 
5.868481392746e-03 3.512295521507e-02 0.0 
1.099744878313e-03 1.622117389076e-02 0.0 
1.637645099689e-03 1.949141653528e-02 0.0 
1.338686892657e-03 7.715506381282e-02 0.0 
1.871565941576e-03 7.694268413857e-02 0.0 
4.681990734264e-03 1.051358862661e-01 0.0 
2.641091886448e-03 1.022218697705e-01 0.0 
9.367979537258e-03 3.733383109791e-02 0.0 
1.174241949754e-02 4.482507411359e-02 0.0 
6.785481073509e-03 2.832460777402e-02 0.0 
7.736268074853e-04 7.241635184998e-02 0.0 
1.851393889717e-02 4.601071302010e-02 0.0 
6.013719875845e-03 1.948239937862e-02 0.0 
7.530441799311e-03 2.314111876536e-02 0.0 
4.358629785392e-03 1.495966022951e-02 0.0 
1.386028047859e-02 3.216670578026e-02 0.0 
1.049449119567e-02 2.330691453609e-02 0.0 
1.109051260342e-02 2.395177116180e-02 0.0 
-1.242012190798e-03 9.024809434077e-02 0.0 
8.584640022597e-04 4.320448034013e-02 0.0 
6.985058511851e-03 1.295393079761e-01 0.0 
-2.195653521458e-03 8.864916931640e-02 0.0 
5.980095639556e-03 1.369238541622e-01 0.0 
5.067165324980e-03 1.281786364115e-01 0.0 
5.142580079586e-03 1.441047806708e-01 0.0 
6.714710930650e-04 7.401637675326e-02 0.0 
1.132286470514e-02 1.336092088259e-01 0.0 
1.284505019775e-02 1.242504427613e-01 0.0 
8.804405666412e-04 7.795060212954e-02 0.0 
3.997890222680e-03 2.614934215045e-02 0.0 
9.653207997933e-04 7.729609531106e-02 0.0 
1.133514173529e-03 7.681269803338e-02 0.0 
3.411270366889e-03 1.698448071992e-02 0.0 
3.720382451870e-03 2.092281727769e-02 0.0 
2.468281997175e-03 1.365903687957e-02 0.0 
2.877154215921e-03 1.804289436740e-02 0.0 
3.875944089613e-03 2.483139486032e-02 0.0 
3.005139488316e-03 2.171327346627e-02 0.0 
8.019839445826e-03 1.390275345320e-01 0.0 
1.965050054404e-03 1.368631997415e-02 0.0 
2.218584267952e-03 1.838519348193e-02 0.0 
1.289335353218e-03 1.053404550208e-02 0.0 
2.030512889641e-02 1.352939454823e-01 0.0 
1.595630070883e-02 1.118791834421e-01 0.0 
1.441932843800e-02 1.195925993994e-01 0.0 
1.057553644923e-02 1.251350208201e-01 0.0 
1.039846208757e-02 2.298101441388e-02 0.0 
1.316088687412e-02 3.112475968236e-02 0.0 
1.006756303320e-03 3.041745925999e-02 0.0 
1.154798238890e-03 3.648074159161e-02 0.0 
4.154534473543e-03 1.362132473050e-01 0.0 
3.043377272552e-03 1.368178818711e-01 0.0 
3.363661355373e-03 1.229570446242e-01 0.0 
2.426205503309e-03 1.246367366047e-01 0.0 
2.643671387437e-03 1.107449804088e-01 0.0 
1.698149130602e-03 1.125154471867e-01 0.0 
2.042450900465e-03 9.833588361205e-02 0.0 
9.226665263618e-03 1.927469033951e-02 0.0 
6.725883013298e-03 1.179780841088e-01 0.0 
2.149194199253e-02 1.344783316328e-01 0.0 
7.800237933326e-03 1.851984230191e-02 0.0 
9.360620250831e-03 2.361400508080e-02 0.0 
2.096986336794e-02 1.252681525486e-01 0.0 
1.788361627624e-02 1.334577531738e-01 0.0 
3.709995157846e-03 1.524582706436e-02 0.0 
1.825860320499e-02 9.241321954754e-02 0.0 
3.040650900292e-03 1.658080743030e-02 0.0 
-6.208951941433e-03 9.866953015076e-02 0.0 
-2.323880983090e-03 9.628670447185e-02 0.0 
1.991419687608e-02 9.322409744879e-02 0.0 
2.323556829685e-02 1.169323589443e-01 0.0 
1.780478963963e-02 1.136575422844e-01 0.0 
1.656682497557e-02 1.215373675085e-01 0.0 
1.103238079511e-02 4.030401426094e-02 0.0 
1.529557838084e-03 7.778766212976e-02 0.0 
6.720653674065e-03 1.081734934273e-01 0.0 
2.982427108648e-03 9.675452431802e-02 0.0 
2.812221958300e-03 1.108461857446e-01 0.0 
5.283136188160e-04 3.321576281913e-02 0.0 
1.845323628796e-02 8.687236015180e-02 0.0 
2.459509069497e-02 1.006385675592e-01 0.0 
1.021258297300e-02 1.048202553983e-01 0.0 
1.735832489301e-02 1.045575956381e-01 0.0 
2.410992420282e-02 1.007011447174e-01 0.0 
2.219207489231e-02 1.186026718925e-01 0.0 
2.279138357144e-02 1.216870360263e-01 0.0 
1.834756583061e-02 8.187967096386e-02 0.0 
1.828286460396e-02 1.230678961099e-01 0.0 
1.466530903572e-02 1.304398171941e-01 0.0 
2.550680102559e-02 9.731095786122e-02 0.0 
1.442827639210e-02 6.010159874886e-02 0.0 
1.414672344914e-02 5.214024044255e-02 0.0 
1.108279519196e-02 3.765668342430e-02 0.0 
1.350542964518e-02 4.452279571046e-02 0.0 
1.646238503351e-02 5.898393755440e-02 0.0 
1.589999634461e-02 5.123107557339e-02 0.0 
1.251657513036e-02 3.734840978373e-02 0.0 
1.498015753381e-02 4.380831186060e-02 0.0 
1.028620785832e-02 2.755934803241e-02 0.0 
1.360130492581e-02 3.642983031437e-02 0.0 
1.729339628260e-02 5.009444678745e-02 0.0 
1.615926626746e-02 4.325231965514e-02 0.0 
1.251076762693e-02 3.131297390016e-02 0.0 
1.946934664584e-02 5.649614842871e-02 0.0 
6.260451488402e-03 1.410039592547e-02 0.0 
2.151255846438e-02 8.746896538774e-02 0.0 
2.491062686863e-04 9.252431604575e-02 0.0 
-7.733594580972e-04 9.929169741503e-02 0.0 
2.520720505769e-02 1.000343854923e-01 0.0 
5.202472568050e-03 1.350587520992e-02 0.0 
4.559764682375e-03 1.394614324386e-02 0.0 
1.470748140976e-02 9.017903122636e-02 0.0 
5.255666877429e-03 1.083122508243e-02 0.0 
2.397212532135e-02 1.123884078907e-01 0.0 
8.257556519116e-03 9.050686651959e-02 0.0 
5.098390574771e-03 1.020844598530e-02 0.0 
1.664815932286e-02 6.697648424952e-02 0.0 
1.872693442592e-02 7.353919138202e-02 0.0 
1.845308588977e-02 8.181159606570e-02 0.0 
3.652394267486e-03 1.346277333174e-02 0.0 
1.281015402572e-02 1.082715256220e-01 0.0 
4.083804867577e-03 8.470421156178e-03 0.0 
1.849176368865e-02 5.599359937679e-02 0.0 
1.980052953834e-02 6.043239471968e-02 0.0 
2.017950864051e-02 6.644637786742e-02 0.0 
1.815681456211e-02 5.776565321400e-02 0.0 
3.365834946813e-03 8.153585763002e-03 0.0 
5.994970079555e-03 1.540262380938e-02 0.0 
5.526257736577e-03 1.511295788299e-02 0.0 
8.284050802785e-03 2.267693049117e-02 0.0 
2.842466927091e-03 7.817307500404e-03 0.0 
4.992538993913e-03 1.145906158567e-02 0.0 
4.819300244603e-03 1.055643949320e-02 0.0 
8.312471612492e-03 7.494223662070e-02 0.0 
9.804431695218e-03 7.465450449421e-02 0.0 
1.104402423988e-02 7.183578912070e-02 0.0 
1.134774183763e-02 7.441513143484e-02 0.0 
9.862173599950e-03 7.720232433177e-02 0.0 
1.149759710803e-02 7.726228408646e-02 0.0 
1.290515365970e-02 7.420706264449e-02 0.0 
1.147525082845e-02 8.042517983409e-02 0.0 
1.696806451866e-02 4.281525517771e-02 0.0 
2.284539811499e-03 7.304570268927e-03 0.0 
9.709065966720e-03 4.816705390341e-02 0.0 
1.082436839572e-02 5.094326555691e-02 0.0 
1.105670833506e-02 5.568236266833e-02 0.0 
4.994968329595e-03 6.089536997538e-02 0.0 
5.822665208030e-03 5.901817260861e-02 0.0 
5.883337784555e-03 5.502123608911e-02 0.0 
4.189152143376e-03 6.269848780170e-02 0.0 
2.159522438204e-02 5.663960877352e-02 0.0 
2.063142221189e-03 7.271850972904e-03 0.0 
1.462879748197e-02 5.266392579820e-02 0.0 
6.507603478981e-03 6.087509531880e-02 0.0 
1.410868237828e-02 1.456983066834e-01 0.0 
1.586421113992e-02 1.319217711484e-01 0.0 
1.757512549989e-02 1.292222483577e-01 0.0 
1.719658468567e-02 1.159103477006e-01 0.0 
1.410739216927e-02 1.321469219900e-01 0.0 
3.656846240889e-03 5.329665279813e-02 0.0 
2.928966218730e-03 5.129375103032e-02 0.0 
2.292806611722e-03 5.370250023234e-02 0.0 
2.211238458768e-03 4.923040184331e-02 0.0 
1.601047254135e-03 5.175255223302e-02 0.0 
1.661522323706e-03 5.589937672015e-02 0.0 
1.495915317677e-03 4.709895472812e-02 0.0 
9.256091916795e-04 5.026553533123e-02 0.0 
1.142010007090e-02 1.482099057777e-01 0.0 
-2.180568785991e-03 8.386966993073e-02 0.0 
-2.122117662979e-04 8.250877443907e-02 0.0 
5.285817356632e-05 8.113643446716e-02 0.0 
1.374398338892e-03 8.109081429536e-02 0.0 
1.416279022387e-03 8.249483542690e-02 0.0 
3.214183029213e-03 8.062439720329e-02 0.0 
3.090134351644e-03 8.240926379464e-02 0.0 
-5.511118262759e-04 8.430736532525e-02 0.0 
-1.044325762893e-03 8.103978100271e-02 0.0 
3.170496312718e-04 8.006129919467e-02 0.0 
-6.068692448374e-04 8.005084918211e-02 0.0 
4.766827883799e-04 7.923909882441e-02 0.0 
1.682301104434e-03 7.881998920372e-02 0.0 
2.765883024403e-03 7.568032496587e-02 0.0 
5.640396310829e-04 8.173678899621e-03 0.0 
6.116750876898e-04 6.136712011873e-02 0.0 
1.166895457537e-03 6.306816294245e-02 0.0 
1.078594362711e-03 6.602842912918e-02 0.0 
1.729618034924e-03 6.449913319038e-02 0.0 
1.168775364145e-03 5.993837112509e-02 0.0 
5.148689432686e-04 6.748126464959e-02 0.0 
9.777826112164e-04 6.840541644370e-02 0.0 
2.950567616406e-04 7.705911399242e-02 0.0 
3.254868341651e-04 7.675069318830e-02 0.0 
1.376917940905e-04 7.677099108144e-02 0.0 
3.337711173172e-04 7.615867684173e-02 0.0 
5.393479072342e-04 7.621146075260e-02 0.0 
4.836007922913e-04 7.678746949844e-02 0.0 
6.203480983955e-04 7.686430595554e-02 0.0 
4.550431832896e-04 7.722791088901e-02 0.0 
7.322011272054e-04 7.697501710495e-02 0.0 
9.454499937047e-04 7.630759860986e-02 0.0 
4.817201113897e-04 7.736856092304e-02 0.0 
6.671939588319e-04 7.713673094932e-02 0.0 
1.282212222442e-03 6.896944056833e-02 0.0 
1.757185871111e-03 7.584278497980e-03 0.0 
9.034292323030e-03 1.480051061078e-01 0.0 
3.850327767741e-05 7.867015539928e-02 0.0 
1.096406225767e-03 1.813148856818e-02 0.0 
1.727052054186e-03 1.497217365245e-02 0.0 
1.379159496010e-03 1.453647796158e-02 0.0 
3.302319752321e-04 1.979887140547e-02 0.0 
5.357727498465e-04 1.628460569344e-02 0.0 
5.858177147416e-04 1.764430554817e-02 0.0 
4.207203632469e-03 7.101865467140e-02 0.0 
1.007727648511e-02 3.084864898762e-02 0.0 
3.044493919558e-03 4.719780332718e-02 0.0 
7.359662629769e-03 9.483286911771e-02 0.0 
5.616785474417e-03 7.253807807499e-02 0.0 
1.834963057744e-03 3.907067026469e-02 0.0 
5.529432204285e-03 4.581243761305e-02 0.0 
2.170759251704e-03 2.620233847521e-02 0.0 
3.333934827339e-03 4.392397855628e-02 0.0 
3.686020207271e-03 3.191457458214e-02 0.0 
5.199725046321e-03 1.533757738229e-02 0.0 
9.302196515506e-04 7.461074345218e-02 0.0 
7.884328693788e-03 1.068946078751e-01 0.0 
4.993249827046e-03 1.126972213193e-01 0.0 
4.948426283752e-03 7.317736184395e-02 0.0 
2.842460297390e-03 6.985111567414e-02 0.0 
2.337912157877e-03 5.756214368696e-02 0.0 
2.148102328852e-03 7.459827635023e-02 0.0 
9.305858850376e-03 1.955205746691e-02 0.0 
2.506720399924e-02 1.072277029383e-01 0.0 
1.012067187682e-02 5.754610510624e-02 0.0 
4.749753593992e-03 6.425802029800e-02 0.0 
5.130087596060e-03 6.992278864876e-02 0.0 
5.693215292653e-03 7.398850486823e-02 0.0 
2.278380357276e-02 8.738131426248e-02 0.0 
7.417210082641e-03 5.906292804347e-02 0.0 
6.811915192531e-03 3.709347910304e-02 0.0 
3.800642792741e-03 6.408865177729e-02 0.0 
4.399688413026e-04 7.779029930284e-02 0.0 
7.003578812789e-03 3.388337339934e-02 0.0 
7.353070225498e-03 5.050790563993e-02 0.0 
1.129755245634e-02 1.002578131917e-01 0.0 
1.408390208542e-02 3.844439756091e-02 0.0 
3.897487297073e-03 7.880059467170e-02 0.0 
7.350965351209e-03 6.702537535730e-02 0.0 
7.624231534483e-03 3.698996847410e-02 0.0 
1.423039255670e-02 1.158156226905e-01 0.0 
1.604989328655e-03 7.590570376426e-02 0.0 
8.036302284950e-03 1.227321239736e-01 0.0 
5.152723510834e-03 1.961489429531e-02 0.0 
1.433695519957e-02 6.815983458772e-02 0.0 
2.180770018174e-03 7.103804278747e-02 0.0 
1.612718186187e-02 6.119066059066e-02 0.0 
2.476336282172e-02 9.325781108321e-02 0.0 
1.964877997537e-02 1.429249228352e-01 0.0 
3.192894138781e-03 4.010243418211e-02 0.0 
2.196710790010e-02 7.003635257574e-02 0.0 
1.070238842611e-02 3.064501820059e-02 0.0 
1.522543484115e-02 5.044992784614e-02 0.0 
1.842811598194e-03 6.997434978146e-02 0.0 
4.828829134317e-03 2.784560731538e-02 0.0 
1.919592683193e-02 6.756000308472e-02 0.0 
6.055701895130e-03 5.042592887809e-02 0.0 
2.151743138475e-02 5.607410040927e-02 0.0 
1.599105349799e-02 7.363405575070e-02 0.0 
9.868527402937e-03 6.019077367511e-02 0.0 
1.203461983926e-02 5.832537671044e-02 0.0 
1.364015432182e-02 3.505578585479e-02 0.0 
2.473973039626e-02 1.081223017264e-01 0.0 
2.477375670952e-02 7.508271211610e-02 0.0 
2.320671669409e-02 7.304381641110e-02 0.0 
2.393072230605e-02 7.267110556772e-02 0.0 
1.252185925227e-03 4.211768753464e-02 0.0 
5.877117413903e-03 3.087900076615e-02 0.0 
5.443347222529e-03 8.444642082280e-02 0.0 
1.973006449301e-02 9.920010848954e-02 0.0 
1.400749363191e-02 1.000931389125e-01 0.0 
1.536551484612e-02 3.471277017542e-02 0.0 
4.360355437224e-03 3.345166462004e-02 0.0 
2.373212108843e-02 1.007685303532e-01 0.0 
4.763596777708e-03 3.137303104083e-02 0.0 
7.903590343110e-03 4.425445840234e-02 0.0 
6.658158404872e-03 5.705895493654e-02 0.0 
3.230045331225e-04 7.380702721550e-02 0.0 
4.209656038062e-03 9.724856295080e-02 0.0 
1.322915188960e-02 8.086797290382e-02 0.0 
2.111456686904e-02 7.113374345952e-02 0.0 
6.635385813825e-03 5.283060958839e-02 0.0 
8.163281551337e-03 2.821409671161e-02 0.0 
3.848534710718e-03 2.845569654358e-02 0.0 
9.635051251068e-03 3.687866428731e-02 0.0 
-3.177294534871e-03 1.089382478145e-01 0.0 
2.162726349507e-02 1.329067559741e-01 0.0 
3.015560743004e-03 2.547511219923e-02 0.0 
1.503319282399e-02 5.786234963096e-02 0.0 
1.186804577205e-02 3.102432366093e-02 0.0 
1.005865754135e-03 5.422114696159e-02 0.0 
9.166941303222e-03 1.913029753781e-02 0.0 
1.931688520108e-02 1.342971893181e-01 0.0 
2.269997321901e-03 2.242498194519e-02 0.0 
1.114548258469e-02 3.731138203484e-02 0.0 
1.654304017554e-02 9.131558090071e-02 0.0 
2.602112336185e-03 1.497366930406e-01 0.0 
1.431452087868e-03 1.409674849837e-02 0.0 
9.410912902435e-03 3.010752740874e-02 0.0 
2.307609913973e-02 6.488717481853e-02 0.0 
1.404773461899e-02 5.950743336833e-02 0.0 
1.898568760920e-02 1.453987729497e-01 0.0 
5.785243756049e-03 5.064315440786e-02 0.0 
2.436418043468e-02 7.253169430082e-02 0.0 
3.203449592018e-03 1.331573529957e-02 0.0 
9.098593287107e-03 2.696114755862e-02 0.0 
2.027398050334e-02 8.801673382800e-02 0.0 
5.099512841012e-03 5.300869100461e-02 0.0 
1.905523431157e-02 5.166465128019e-02 0.0 
7.444460291743e-04 7.625580599633e-02 0.0 
2.106188922887e-02 1.351601497670e-01 0.0 
4.314972492935e-03 5.094008448438e-02 0.0 
1.314656698233e-02 7.738313109635e-02 0.0 
1.299833738194e-02 5.658495033050e-02 0.0 
8.470803200586e-03 1.882687720483e-02 0.0 
3.544456945946e-03 4.881616273687e-02 0.0 
1.446344831232e-02 7.394308256527e-02 0.0 
2.792893728016e-03 4.663566795248e-02 0.0 
1.710542354415e-02 1.448772134771e-01 0.0 
2.058299441469e-02 7.938170258853e-02 0.0 
2.039142973013e-03 4.438751577681e-02 0.0 
2.270567686130e-02 6.255543649205e-02 0.0 
1.147727728364e-03 7.637651837833e-02 0.0 
2.186242290853e-02 5.934581367905e-02 0.0 
7.793972528624e-04 2.354105302531e-02 0.0 
7.205894191600e-03 6.759553145771e-02 0.0 
1.192643937120e-02 5.378531062609e-02 0.0 
1.862000240047e-02 6.547659227752e-02 0.0 
1.430619645545e-02 1.426932081392e-01 0.0 
1.149788966526e-02 4.870986503809e-02 0.0 
2.034481682402e-02 5.220602036953e-02 0.0 
2.048854484638e-02 5.413107657023e-02 0.0 
2.096035786507e-02 6.510780611936e-02 0.0 
1.073449370206e-02 4.307201383043e-02 0.0 
1.657527388578e-02 1.317174661644e-01 0.0 
4.384128942819e-03 7.222676922224e-02 0.0 
3.620858163767e-03 7.409697600269e-02 0.0 
1.396780861823e-02 7.075164994162e-02 0.0 
1.881361487077e-02 4.774777061218e-02 0.0 
5.846548206963e-04 7.538295048153e-02 0.0 
2.015308142799e-02 6.358768303814e-02 0.0 
2.597570885207e-03 7.661130601527e-02 0.0 
1.250969298460e-02 7.131449453980e-02 0.0 
1.659452081928e-02 4.043671419899e-02 0.0 
7.725827727430e-04 1.085589357190e-01 0.0 
1.199006766736e-02 6.864564242729e-02 0.0 
3.763212846081e-04 7.204284649280e-02 0.0 
1.062553043388e-02 6.946198877294e-02 0.0 
2.027268789253e-02 5.859059988690e-02 0.0 
1.011289516190e-02 6.720814716528e-02 0.0 
8.858951724853e-03 6.823473658993e-02 0.0 
2.141811989937e-03 3.076021936640e-02 0.0 
8.353541438032e-03 6.633847422238e-02 0.0 
2.878919393662e-04 1.462608593391e-02 0.0 
2.342021384380e-04 7.432067208486e-03 0.0 
9.872319634156e-04 1.386096319301e-01 0.0 
1.047453884907e-02 1.398244406026e-01 0.0 
-4.584020087811e-03 9.117657319850e-02 0.0 
1.331011194071e-02 1.263815668203e-01 0.0 
6.492285074847e-03 7.024604962201e-02 0.0 
2.118674228310e-02 6.152520566656e-02 0.0 
2.052800227864e-03 1.379396126449e-01 0.0 
5.403335869506e-03 7.122637689160e-02 0.0 
9.418947154170e-03 2.333596915347e-02 0.0 
4.447164368494e-03 8.907158544057e-03 0.0 
1.428048024755e-03 8.436098311011e-02 0.0 
1.024987600977e-02 2.748552297932e-02 0.0 
1.890282386204e-02 4.888331484121e-02 0.0 
4.238916856408e-04 4.489562756004e-02 0.0 
5.915390475582e-03 1.508728648239e-01 0.0 
6.181887487825e-04 7.858565442367e-02 0.0 
6.019260263564e-04 3.917418997858e-02 0.0 
6.813969397479e-03 1.336510523146e-01 0.0 
8.529360556270e-03 1.215025838651e-01 0.0 
4.634482731723e-03 1.144860616759e-01 0.0 
1.428959378079e-03 6.909198844722e-02 0.0 
1.401630521655e-03 7.993580451999e-02 0.0 
4.055393340970e-03 1.253899682733e-01 0.0 
6.586342248817e-03 1.619109246513e-02 0.0 
9.996631940841e-03 1.371254699056e-01 0.0 
1.601168151128e-02 3.765717045971e-02 0.0 
3.593738599575e-04 1.172524781865e-01 0.0 
5.546111829074e-03 2.880467597598e-02 0.0 
8.469849985422e-03 1.798356947141e-02 0.0 
1.214602231861e-03 6.613706653593e-03 0.0 
1.263363951837e-02 2.821418121307e-02 0.0 
7.632577704010e-04 1.072555111656e-01 0.0 
1.549759083332e-02 1.207979502108e-01 0.0 
9.389688430606e-03 2.004597782646e-02 0.0 
1.962696053356e-03 7.132509148124e-02 0.0 
8.659857257296e-04 6.308394076643e-03 0.0 
1.252412246189e-02 1.372261585748e-01 0.0 
1.286077509246e-03 2.874241784749e-02 0.0 
3.954829137476e-03 8.360512242466e-02 0.0 
6.446126194294e-04 2.791138990480e-02 0.0 
1.834401426877e-02 4.936408540362e-02 0.0 
4.249210673429e-03 1.197494977520e-01 0.0 
1.871642235736e-02 1.171972271605e-01 0.0 
6.474191035122e-04 1.284025150769e-02 0.0 
8.836302893632e-03 2.496182008196e-02 0.0 
-1.134472628874e-03 1.032860318303e-01 0.0 
2.240875411600e-03 8.600143832795e-02 0.0 
2.333599158076e-03 6.449622277203e-02 0.0 
-1.381552402265e-03 8.650639876470e-02 0.0 
3.059333430085e-03 1.382812229733e-02 0.0 
1.486153545224e-02 3.729030051819e-02 0.0 
1.086738790526e-03 1.312521446337e-02 0.0 
1.428579160233e-04 7.620679805324e-02 0.0 
7.330655770433e-04 7.773527525907e-02 0.0 
3.486235789288e-03 1.300083879447e-02 0.0 
8.969314020842e-03 2.023066860159e-02 0.0 
4.865756675125e-03 8.071254614419e-02 0.0 
1.873248036083e-03 1.162294433747e-02 0.0 
-3.731203348236e-03 1.005704672157e-01 0.0 
7.925185273037e-03 1.522489006496e-01 0.0 
7.768557456753e-04 7.715399235718e-02 0.0 
6.879257711038e-04 6.359644030997e-03 0.0 
3.223320373658e-03 2.732972061070e-02 0.0 
1.642328617296e-03 6.154131848776e-02 0.0 
1.744014453279e-02 1.393000914963e-01 0.0 
8.578304739646e-04 7.062546613676e-02 0.0 
1.211132194626e-02 2.615996788725e-02 0.0 
1.358966351425e-03 7.839558428728e-02 0.0 
2.158627483431e-03 2.591738387297e-02 0.0 
4.138382667553e-03 1.297194815268e-02 0.0 
6.567457057214e-03 2.430427359399e-02 0.0 
2.836803187946e-03 6.249887937022e-03 0.0 
-2.674694303068e-03 9.295121675445e-02 0.0 
7.604582631536e-03 1.581417628842e-02 0.0 
7.154076493552e-03 2.061256510716e-02 0.0 
4.487698408282e-03 1.514915880774e-01 0.0 
7.989305559992e-03 2.520060676599e-02 0.0 
1.497899131437e-03 6.698732573474e-02 0.0 
1.277993866745e-03 7.556613371589e-02 0.0 
1.231633282616e-04 1.296157857761e-02 0.0 
7.647974719379e-05 7.701711002028e-02 0.0 
7.657320102203e-04 1.513950587397e-01 0.0 
9.315716599323e-05 6.060445067070e-03 0.0 
7.733278844848e-04 7.561223772518e-02 0.0 
1.639176718360e-03 1.276172034994e-01 0.0 
8.575980071768e-03 2.007111259099e-02 0.0 
4.364283982344e-04 5.350034210390e-02 0.0 
9.791302790040e-04 5.587415419018e-02 0.0 
2.524548139710e-03 7.978401609080e-02 0.0 
-4.140212381181e-03 8.816738254098e-02 0.0 
1.344878271804e-03 1.007008860442e-01 0.0 
7.322893677225e-03 1.576464838147e-02 0.0 
5.182661426829e-03 2.386779293966e-02 0.0 
3.439489668149e-03 1.113092562055e-01 0.0 
1.617096163510e-03 9.945054538040e-02 0.0 
1.173071500341e-02 2.805400236186e-02 0.0 
1.757638283222e-03 5.881486060321e-02 0.0 
1.238281791246e-02 2.722966419719e-02 0.0 
8.253923655218e-03 2.145160852534e-02 0.0 
-6.560396890596e-03 1.022983072948e-01 0.0 
3.912520016982e-04 4.908805619932e-02 0.0 
7.675513091819e-04 7.734741756086e-02 0.0 
2.003962143235e-03 1.215550066120e-02 0.0 
1.165305605708e-03 5.707511052802e-02 0.0 

TENSORS node_materi_stress float
-2.132992122165e+00 1.422052634490e-02 0.0 
1.422052634490e-02 -8.544141854853e+00 0.0 
0.0 0.0 -3.121393468186e+00 
-2.071645967916e+01 1.215291313841e-01 0.0 
1.215291313841e-01 -8.831120109749e+00 0.0 
0.0 0.0 -8.464273936671e+00 
-1.621841267368e+02 3.077240835782e-02 0.0 
3.077240835782e-02 -3.819832718363e+02 0.0 
0.0 0.0 -1.628502195719e+02 
-8.338663081152e+01 9.651875983158e-01 0.0 
9.651875983158e-01 -1.925091804564e+02 0.0 
0.0 0.0 -8.236874338039e+01 
-6.627953670641e+00 -3.000629250734e-01 0.0 
-3.000629250734e-01 -2.078805893564e+01 0.0 
0.0 0.0 -8.036972631939e+00 
-1.370188845469e+01 -6.652362776210e-01 0.0 
-6.652362776210e-01 -4.045354581892e+01 0.0 
0.0 0.0 -1.584663028208e+01 
-2.033766108343e+01 -5.399078638983e-01 0.0 
-5.399078638983e-01 -5.875017120051e+01 0.0 
0.0 0.0 -2.332634968518e+01 
-2.806419442908e+01 -5.124849533606e-01 0.0 
-5.124849533606e-01 -7.973044569641e+01 0.0 
0.0 0.0 -3.193839203765e+01 
-3.525975368040e+01 -3.894172153565e-01 0.0 
-3.894172153565e-01 -9.986657665543e+01 0.0 
0.0 0.0 -4.013789910075e+01 
-4.264835407020e+01 -3.665378922251e-01 0.0 
-3.665378922251e-01 -1.197172919091e+02 0.0 
0.0 0.0 -4.830969379380e+01 
-4.999554988839e+01 -3.894044957444e-01 0.0 
-3.894044957444e-01 -1.395482877541e+02 0.0 
0.0 0.0 -5.646315129274e+01 
-5.738114678108e+01 -3.350945155040e-01 0.0 
-3.350945155040e-01 -1.593278119184e+02 0.0 
0.0 0.0 -6.461268760984e+01 
-6.497639167537e+01 -3.075637203676e-01 0.0 
-3.075637203676e-01 -1.790546073564e+02 0.0 
0.0 0.0 -7.280929970952e+01 
-7.274127341076e+01 -3.483105495843e-01 0.0 
-3.483105495843e-01 -1.989036733679e+02 0.0 
0.0 0.0 -8.109348403360e+01 
-8.089600006743e+01 -4.796794639497e-01 0.0 
-4.796794639497e-01 -2.191552530183e+02 0.0 
0.0 0.0 -8.961537592571e+01 
-8.941498175727e+01 -4.784363427343e-01 0.0 
-4.784363427343e-01 -2.386620977907e+02 0.0 
0.0 0.0 -9.802312386438e+01 
-9.747367191402e+01 -5.867410077027e-01 0.0 
-5.867410077027e-01 -2.563761414772e+02 0.0 
0.0 0.0 -1.057549440174e+02 
-1.063085957376e+02 -1.256285942809e-01 0.0 
-1.256285942809e-01 -2.757442396925e+02 0.0 
0.0 0.0 -1.142158506290e+02 
-1.158050139807e+02 -7.278736988842e-02 0.0 
-7.278736988842e-02 -2.954948812994e+02 0.0 
0.0 0.0 -1.229899685840e+02 
-1.253507897096e+02 -4.061907105856e-02 0.0 
-4.061907105856e-02 -3.145511415048e+02 0.0 
0.0 0.0 -1.315705793643e+02 
-1.352346330708e+02 1.221134503608e-02 0.0 
1.221134503608e-02 -3.336396255346e+02 0.0 
0.0 0.0 -1.402622775816e+02 
-1.455124633504e+02 6.262636797904e-03 0.0 
6.262636797904e-03 -3.527754515161e+02 0.0 
0.0 0.0 -1.490863744599e+02 
-1.555471880779e+02 -5.530119971650e-02 0.0 
-5.530119971650e-02 -3.709287552947e+02 0.0 
0.0 0.0 -1.575427830118e+02 
-8.362729618346e+01 1.524717687245e+00 0.0 
1.524717687245e+00 -1.937742980294e+02 0.0 
0.0 0.0 -8.282047826385e+01 
-8.314495663734e+01 2.756305285400e+00 0.0 
2.756305285400e+00 -1.928239690663e+02 0.0 
0.0 0.0 -8.239067771108e+01 
-8.341304502987e+01 4.367211886135e+00 0.0 
4.367211886135e+00 -1.933108067729e+02 0.0 
0.0 0.0 -8.261715554083e+01 
-8.349409477531e+01 5.444366366042e+00 0.0 
5.444366366042e+00 -1.936815185493e+02 0.0 
0.0 0.0 -8.275268399737e+01 
-8.379481316293e+01 7.089028229291e+00 0.0 
7.089028229291e+00 -1.936107580291e+02 0.0 
0.0 0.0 -8.282167135760e+01 
-8.440097589580e+01 8.813421212435e+00 0.0 
8.813421212435e+00 -1.950265065893e+02 0.0 
0.0 0.0 -8.342824474554e+01 
-8.545429061497e+01 1.074119844668e+01 0.0 
1.074119844668e+01 -1.965809459403e+02 0.0 
0.0 0.0 -8.421057096657e+01 
-8.585247783961e+01 1.292767525977e+01 0.0 
1.292767525977e+01 -1.978403110006e+02 0.0 
0.0 0.0 -8.470783665207e+01 
-8.729101235321e+01 1.525072922868e+01 0.0 
1.525072922868e+01 -2.007328581539e+02 0.0 
0.0 0.0 -8.600716115212e+01 
-8.814990324557e+01 1.729035223583e+01 0.0 
1.729035223583e+01 -2.032950895273e+02 0.0 
0.0 0.0 -8.703349783186e+01 
-8.975633464208e+01 1.978314400355e+01 0.0 
1.978314400355e+01 -2.059102178342e+02 0.0 
0.0 0.0 -8.829996574287e+01 
-9.156255051291e+01 2.238848638343e+01 0.0 
2.238848638343e+01 -2.105913549698e+02 0.0 
0.0 0.0 -9.024617164482e+01 
-9.421267301351e+01 2.494927281991e+01 0.0 
2.494927281991e+01 -2.162310932510e+02 0.0 
0.0 0.0 -9.273312987936e+01 
-9.598672537356e+01 2.735566452137e+01 0.0 
2.735566452137e+01 -2.214143446614e+02 0.0 
0.0 0.0 -9.482032101050e+01 
-9.880383034173e+01 2.960636506293e+01 0.0 
2.960636506293e+01 -2.275549559951e+02 0.0 
0.0 0.0 -9.750763590104e+01 
-1.010508437689e+02 3.141801995854e+01 0.0 
3.141801995854e+01 -2.339766533612e+02 0.0 
0.0 0.0 -1.001082491390e+02 
-1.043640195166e+02 3.319567207279e+01 0.0 
3.319567207279e+01 -2.417896244911e+02 0.0 
0.0 0.0 -1.034460932023e+02 
-1.082559317111e+02 3.468998244165e+01 0.0 
3.468998244165e+01 -2.511210540119e+02 0.0 
0.0 0.0 -1.074130957169e+02 
-1.116930798309e+02 3.578497238450e+01 0.0 
3.578497238450e+01 -2.601305323734e+02 0.0 
0.0 0.0 -1.111470836613e+02 
-1.152266837535e+02 3.649758206411e+01 0.0 
3.649758206411e+01 -2.692411788316e+02 0.0 
0.0 0.0 -1.149403587755e+02 
-1.184901668730e+02 3.667592923019e+01 0.0 
3.667592923019e+01 -2.779012308990e+02 0.0 
0.0 0.0 -1.185174193316e+02 
-1.220768058324e+02 3.669379903247e+01 0.0 
3.669379903247e+01 -2.864185625421e+02 0.0 
0.0 0.0 -1.221486105123e+02 
-1.253718250929e+02 3.627713199640e+01 0.0 
3.627713199640e+01 -2.948932836352e+02 0.0 
0.0 0.0 -1.256795326184e+02 
-1.286503290953e+02 3.559838011769e+01 0.0 
3.559838011769e+01 -3.030161852701e+02 0.0 
0.0 0.0 -1.290999543096e+02 
-1.319437964622e+02 3.467475887989e+01 0.0 
3.467475887989e+01 -3.110390247610e+02 0.0 
0.0 0.0 -1.324948463670e+02 
-1.351710449662e+02 3.361361030861e+01 0.0 
3.361361030861e+01 -3.187321103770e+02 0.0 
0.0 0.0 -1.357709466030e+02 
-1.380134756540e+02 3.228404730891e+01 0.0 
3.228404730891e+01 -3.258179151028e+02 0.0 
0.0 0.0 -1.387494172270e+02 
-1.407156761853e+02 3.081882976749e+01 0.0 
3.081882976749e+01 -3.323318980277e+02 0.0 
0.0 0.0 -1.415142722639e+02 
-1.430916644877e+02 2.918771566413e+01 0.0 
2.918771566413e+01 -3.381795133888e+02 0.0 
0.0 0.0 -1.439813533629e+02 
-1.459515227338e+02 2.773725528969e+01 0.0 
2.773725528969e+01 -3.442575166976e+02 0.0 
0.0 0.0 -1.466627118294e+02 
-1.476488188382e+02 2.568698473515e+01 0.0 
2.568698473515e+01 -3.491764106254e+02 0.0 
0.0 0.0 -1.486475688391e+02 
-1.491974084123e+02 2.402785861087e+01 0.0 
2.402785861087e+01 -3.528754433159e+02 0.0 
0.0 0.0 -1.502218555185e+02 
-1.511432350122e+02 2.217555349673e+01 0.0 
2.217555349673e+01 -3.572545362635e+02 0.0 
0.0 0.0 -1.521193313827e+02 
-1.528657450562e+02 2.047914675301e+01 0.0 
2.047914675301e+01 -3.611675063967e+02 0.0 
0.0 0.0 -1.538099754359e+02 
-1.543804461874e+02 1.875685804840e+01 0.0 
1.875685804840e+01 -3.646491900113e+02 0.0 
0.0 0.0 -1.553088908596e+02 
-1.557637102357e+02 1.709835214221e+01 0.0 
1.709835214221e+01 -3.676696049256e+02 0.0 
0.0 0.0 -1.566299945484e+02 
-1.568829073256e+02 1.548007738914e+01 0.0 
1.548007738914e+01 -3.702840116332e+02 0.0 
0.0 0.0 -1.577500756876e+02 
-1.577892712170e+02 1.387867228913e+01 0.0 
1.387867228913e+01 -3.723277006213e+02 0.0 
0.0 0.0 -1.586350915515e+02 
-1.585078141703e+02 1.243804344127e+01 0.0 
1.243804344127e+01 -3.739789794623e+02 0.0 
0.0 0.0 -1.593460380898e+02 
-1.590451492600e+02 1.094298819290e+01 0.0 
1.094298819290e+01 -3.752858179465e+02 0.0 
0.0 0.0 -1.598992901619e+02 
-1.599605047364e+02 9.736894058495e+00 0.0 
9.736894058495e+00 -3.770260785967e+02 0.0 
0.0 0.0 -1.606959749999e+02 
-1.609909184860e+02 8.373527773081e+00 0.0 
8.373527773081e+00 -3.790465063689e+02 0.0 
0.0 0.0 -1.616112274565e+02 
-1.615372789987e+02 7.305476773296e+00 0.0 
7.305476773296e+00 -3.802042885633e+02 0.0 
0.0 0.0 -1.621224702686e+02 
-1.605050649901e+02 6.013006379403e+00 0.0 
6.013006379403e+00 -3.787455971188e+02 0.0 
0.0 0.0 -1.613751986327e+02 
-1.620759868245e+02 4.823098967647e+00 0.0 
4.823098967647e+00 -3.813444667508e+02 0.0 
0.0 0.0 -1.626261360726e+02 
-1.618479189250e+02 3.834985418342e+00 0.0 
3.834985418342e+00 -3.810766279194e+02 0.0 
0.0 0.0 -1.624773640533e+02 
-1.623805895961e+02 3.082836049360e+00 0.0 
3.082836049360e+00 -3.819774714687e+02 0.0 
0.0 0.0 -1.629074183194e+02 
-1.627747246066e+02 1.875052290944e+00 0.0 
1.875052290944e+00 -3.828379808569e+02 0.0 
0.0 0.0 -1.632838116391e+02 
-1.627603901986e+02 1.088694261979e+00 0.0 
1.088694261979e+00 -3.828888729575e+02 0.0 
0.0 0.0 -1.632947789468e+02 
-2.535200847449e+01 2.232462624263e-01 0.0 
2.232462624263e-01 -2.050318487828e+01 0.0 
0.0 0.0 -1.335655800583e+01 
-3.321225294617e+01 3.458668930303e-01 0.0 
3.458668930303e-01 -4.013554902109e+01 0.0 
0.0 0.0 -2.160434059018e+01 
-4.105570387496e+01 3.913861631406e-01 0.0 
3.913861631406e-01 -5.974007774753e+01 0.0 
0.0 0.0 -2.983873448675e+01 
-4.841638415720e+01 4.824417594746e-01 0.0 
4.824417594746e-01 -7.907395095563e+01 0.0 
0.0 0.0 -3.784710053385e+01 
-5.561224659450e+01 5.005061081607e-01 0.0 
5.005061081607e-01 -9.900571743917e+01 0.0 
0.0 0.0 -4.598538921010e+01 
-6.272676172425e+01 6.119913633813e-01 0.0 
6.119913633813e-01 -1.192262033105e+02 0.0 
0.0 0.0 -5.418588951042e+01 
-6.907774760733e+01 6.280915634008e-01 0.0 
6.280915634008e-01 -1.393735170556e+02 0.0 
0.0 0.0 -6.213537939888e+01 
-7.488494842201e+01 7.820748699681e-01 0.0 
7.820748699681e-01 -1.594767668187e+02 0.0 
0.0 0.0 -6.990851457222e+01 
-8.098888077689e+01 8.653266992908e-01 0.0 
8.653266992908e-01 -1.805138257173e+02 0.0 
0.0 0.0 -7.805081194825e+01 
-1.711899238529e+01 5.156469780436e+00 0.0 
5.156469780436e+00 -6.945920373082e+00 0.0 
0.0 0.0 -7.201928727462e+00 
-4.242673604590e+01 1.534689863302e+01 0.0 
1.534689863302e+01 -2.194653778452e+01 0.0 
0.0 0.0 -1.891198214913e+01 
-2.175312848867e+01 1.279515738912e+01 0.0 
1.279515738912e+01 -1.472994606947e+01 0.0 
0.0 0.0 -1.058078170625e+01 
-2.530419121038e+01 1.615832191552e+01 0.0 
1.615832191552e+01 -1.883910185043e+01 0.0 
0.0 0.0 -1.284298791824e+01 
-2.704877154543e+01 1.776037944747e+01 0.0 
1.776037944747e+01 -2.033798659169e+01 0.0 
0.0 0.0 -1.381602744114e+01 
-2.732632534635e+01 1.834033167349e+01 0.0 
1.834033167349e+01 -2.014939190567e+01 0.0 
0.0 0.0 -1.384271517561e+01 
-2.780656708029e+01 1.867462446137e+01 0.0 
1.867462446137e+01 -2.093952046868e+01 0.0 
0.0 0.0 -1.422382626469e+01 
-2.829997186968e+01 1.893771840301e+01 0.0 
1.893771840301e+01 -2.150423150547e+01 0.0 
0.0 0.0 -1.454126101254e+01 
-2.876096356473e+01 1.921051118808e+01 0.0 
1.921051118808e+01 -2.203934051082e+01 0.0 
0.0 0.0 -1.484009122266e+01 
-2.949378576077e+01 1.946181745072e+01 0.0 
1.946181745072e+01 -2.222357260045e+01 0.0 
0.0 0.0 -1.511520750836e+01 
-3.270994504956e+01 2.009482822868e+01 0.0 
2.009482822868e+01 -2.247366412435e+01 0.0 
0.0 0.0 -1.615508275217e+01 
-2.004039328285e+01 -4.053752787746e-02 0.0 
-4.053752787746e-02 -7.371543639510e+00 0.0 
0.0 0.0 -7.823581076709e+00 
-2.010284020953e+01 6.290109231107e-02 0.0 
6.290109231107e-02 -8.123011114995e+00 0.0 
0.0 0.0 -8.067755397357e+00 
-2.008572072831e+01 -8.655094951743e-02 0.0 
-8.655094951743e-02 -8.164651786737e+00 0.0 
0.0 0.0 -8.075111754515e+00 
-1.991491444244e+01 -4.459587517947e-02 0.0 
-4.459587517947e-02 -7.509931862339e+00 0.0 
0.0 0.0 -7.827453891433e+00 
-2.115270657547e+01 -7.911555017766e-02 0.0 
-7.911555017766e-02 -1.010326952361e+01 0.0 
0.0 0.0 -8.976792829726e+00 
-2.014158508160e+01 -1.550930574917e-01 0.0 
-1.550930574917e-01 -8.121099546925e+00 0.0 
0.0 0.0 -8.078805388556e+00 
-2.000760836550e+01 -2.178212903686e-02 0.0 
-2.178212903686e-02 -7.746247326628e+00 0.0 
0.0 0.0 -7.926156707638e+00 
-1.996321618403e+01 -2.109993626922e-01 0.0 
-2.109993626922e-01 -8.037461310355e+00 0.0 
0.0 0.0 -8.000203248317e+00 
-2.028610110242e+01 -2.834943299269e-02 0.0 
-2.834943299269e-02 -8.999484501860e+00 0.0 
0.0 0.0 -8.385675681284e+00 
-2.034136446815e+01 -4.622917099357e-02 0.0 
-4.622917099357e-02 -8.681997210948e+00 0.0 
0.0 0.0 -8.307008503728e+00 
-2.084243050453e+01 2.702252855479e-01 0.0 
2.702252855479e-01 -8.540350301250e+00 0.0 
0.0 0.0 -8.414834241735e+00 
-2.231138968761e+01 8.762842951083e-01 0.0 
8.762842951083e-01 -8.785628549393e+00 0.0 
0.0 0.0 -8.929105471102e+00 
-2.601340864563e+01 2.366138791009e+00 0.0 
2.366138791009e+00 -9.721046758588e+00 0.0 
0.0 0.0 -1.032033662127e+01 
-3.404706356315e+01 6.806290540512e+00 0.0 
6.806290540512e+00 -1.259396887614e+01 0.0 
0.0 0.0 -1.359230973179e+01 
-1.900231911181e+01 2.025471449157e+00 0.0 
2.025471449157e+00 -6.324837520288e+00 0.0 
0.0 0.0 -7.512046831246e+00 
-2.127527392732e+01 3.664390067571e-01 0.0 
3.664390067571e-01 -7.189455872971e+00 0.0 
0.0 0.0 -8.456289667683e+00 
-2.146991572268e+01 -5.324135868785e-01 0.0 
-5.324135868785e-01 -6.973207862814e+00 0.0 
0.0 0.0 -8.433355583395e+00 
-2.022607728760e+01 -5.696357733867e-01 0.0 
-5.696357733867e-01 -7.026407983486e+00 0.0 
0.0 0.0 -8.075887697061e+00 
-1.826945448424e+01 -7.101547773449e-01 0.0 
-7.101547773449e-01 -8.036012403769e+00 0.0 
0.0 0.0 -7.814418521453e+00 
-1.655480414485e+01 -8.694435190921e-01 0.0 
-8.694435190921e-01 -8.458095174839e+00 0.0 
0.0 0.0 -7.430853142819e+00 
-1.475131411314e+01 -8.763389519059e-01 0.0 
-8.763389519059e-01 -8.401224816238e+00 0.0 
0.0 0.0 -6.871253739773e+00 
-1.295780734583e+01 -8.194216021851e-01 0.0 
-8.194216021851e-01 -8.301459504548e+00 0.0 
0.0 0.0 -6.302528714863e+00 
-1.123413888340e+01 -7.737885297516e-01 0.0 
-7.737885297516e-01 -8.282295801347e+00 0.0 
0.0 0.0 -5.778234786355e+00 
-9.680908907699e+00 -6.923754520104e-01 0.0 
-6.923754520104e-01 -8.305520981481e+00 0.0 
0.0 0.0 -5.319875357678e+00 
-8.162706057631e+00 -5.669783778689e-01 0.0 
-5.669783778689e-01 -8.407609374529e+00 0.0 
0.0 0.0 -4.896770453293e+00 
-7.151900312934e+00 -6.106348773904e-01 0.0 
-6.106348773904e-01 -8.981386769164e+00 0.0 
0.0 0.0 -4.776655369298e+00 
-5.738070798385e+00 -6.435076153701e-01 0.0 
-6.435076153701e-01 -8.670046713833e+00 0.0 
0.0 0.0 -4.254324995906e+00 
-4.444251627733e+00 -4.973905762121e-01 0.0 
-4.973905762121e-01 -7.920928177533e+00 0.0 
0.0 0.0 -3.627778871129e+00 
-3.495756315891e+00 -3.917947640744e-01 0.0 
-3.917947640744e-01 -8.049457391569e+00 0.0 
0.0 0.0 -3.386526595785e+00 
-2.794507170707e+00 -3.229701913218e-01 0.0 
-3.229701913218e-01 -8.322631823066e+00 0.0 
0.0 0.0 -3.260893300564e+00 
-2.208164126631e+00 -2.132178778774e-01 0.0 
-2.132178778774e-01 -8.356680156927e+00 0.0 
0.0 0.0 -3.094837199185e+00 
-1.749349786127e+00 -1.954385825932e-01 0.0 
-1.954385825932e-01 -7.942017489750e+00 0.0 
0.0 0.0 -2.830302886654e+00 
-1.503954423895e+00 1.027663220219e-02 0.0 
1.027663220219e-02 -7.337094717801e+00 0.0 
0.0 0.0 -2.560731016898e+00 
-1.858411748554e+01 9.609310241330e+00 0.0 
9.609310241330e+00 -1.046226579378e+01 0.0 
0.0 0.0 -8.406314030586e+00 
-2.384790298298e+01 1.481502953443e+01 0.0 
1.481502953443e+01 -1.737144481928e+01 0.0 
0.0 0.0 -1.196580434068e+01 
-2.627140182150e+01 1.706819575915e+01 0.0 
1.706819575915e+01 -1.969841441402e+01 0.0 
0.0 0.0 -1.339094487065e+01 
-2.747629446376e+01 1.814409141397e+01 0.0 
1.814409141397e+01 -2.074443783514e+01 0.0 
0.0 0.0 -1.406621968967e+01 
-2.837684504254e+01 1.907096045092e+01 0.0 
1.907096045092e+01 -2.094069888208e+01 0.0 
0.0 0.0 -1.439526317739e+01 
-2.849231126028e+01 1.930476632483e+01 0.0 
1.930476632483e+01 -2.136372212769e+01 0.0 
0.0 0.0 -1.455681001639e+01 
-2.847631746481e+01 1.907399751859e+01 0.0 
1.907399751859e+01 -2.183419339986e+01 0.0 
0.0 0.0 -1.469315325940e+01 
-2.890054311351e+01 1.923417061826e+01 0.0 
1.923417061826e+01 -2.210880881426e+01 0.0 
0.0 0.0 -1.490280557833e+01 
-3.043401742525e+01 1.966882819679e+01 0.0 
1.966882819679e+01 -2.222207442381e+01 0.0 
0.0 0.0 -1.539682755472e+01 
-3.841034824014e+01 2.022839342881e+01 0.0 
2.022839342881e+01 -2.277615129393e+01 0.0 
0.0 0.0 -1.795594986022e+01 
-2.379520523576e+01 1.396322962175e+01 0.0 
1.396322962175e+01 -2.483094409402e+01 0.0 
0.0 0.0 -1.418784479894e+01 
-1.460004587630e+02 2.079742059813e+01 0.0 
2.079742059813e+01 -3.514118888536e+02 0.0 
0.0 0.0 -1.488237042850e+02 
-1.248058941888e+01 -1.276926272049e+00 0.0 
-1.276926272049e+00 -1.683527552403e+01 0.0 
0.0 0.0 -8.782059507728e+00 
-1.914347381974e+01 -1.049391330050e+00 0.0 
-1.049391330050e+00 -1.600275502110e+01 0.0 
0.0 0.0 -1.053077638282e+01 
-1.524447859841e+02 1.275740483718e+01 0.0 
1.275740483718e+01 -3.652229122267e+02 0.0 
0.0 0.0 -1.549003094632e+02 
-2.764094900401e+01 1.794155663398e+01 0.0 
1.794155663398e+01 -2.884555999130e+01 0.0 
0.0 0.0 -1.654595269859e+01 
-7.707986680251e+01 1.395282272094e-02 0.0 
1.395282272094e-02 -2.097688904033e+02 0.0 
0.0 0.0 -8.565462716175e+01 
-1.377970986619e+02 2.742402021080e+01 0.0 
2.742402021080e+01 -3.322917587477e+02 0.0 
0.0 0.0 -1.406266572229e+02 
-2.954167896379e+01 1.954812947375e+01 0.0 
1.954812947375e+01 -3.050567487328e+01 0.0 
0.0 0.0 -1.761420615112e+01 
-1.284024918850e+02 3.324713130008e+01 0.0 
3.324713130008e+01 -3.070499731703e+02 0.0 
0.0 0.0 -1.302357395166e+02 
-3.211135792493e+01 2.070143971753e+01 0.0 
2.070143971753e+01 -3.256159994036e+01 0.0 
0.0 0.0 -1.900188735958e+01 
-1.563322459293e+02 7.528099324535e+00 0.0 
7.528099324535e+00 -3.721963364173e+02 0.0 
0.0 0.0 -1.581585747040e+02 
-7.762337467508e+00 -8.430605329495e-01 0.0 
-8.430605329495e-01 -1.621204936472e+01 0.0 
0.0 0.0 -7.201999676820e+00 
-1.167211624731e+02 3.585644340463e+01 0.0 
3.585644340463e+01 -2.740986009527e+02 0.0 
0.0 0.0 -1.168459290277e+02 
-4.371514692195e+01 1.995722523419e+01 0.0 
1.995722523419e+01 -3.433924992575e+01 0.0 
0.0 0.0 -2.301631905431e+01 
-4.666332420127e+01 -3.275082791509e-01 0.0 
-3.275082791509e-01 -1.305701749677e+02 0.0 
0.0 0.0 -5.277004975070e+01 
-1.003478775878e+02 2.377396878470e-01 0.0 
2.377396878470e-01 -2.630522402784e+02 0.0 
0.0 0.0 -1.086200353599e+02 
-1.079472270150e+02 3.449042192674e+01 0.0 
3.449042192674e+01 -2.469716492010e+02 0.0 
0.0 0.0 -1.060756628648e+02 
-9.702365880529e+01 2.764554083643e+01 0.0 
2.764554083643e+01 -2.159119902631e+02 0.0 
0.0 0.0 -9.348069472051e+01 
-8.331086919841e+01 7.813489904271e+00 0.0 
7.813489904271e+00 -1.863887116196e+02 0.0 
0.0 0.0 -8.050987424539e+01 
-8.604637964072e+01 1.343498515836e+01 0.0 
1.343498515836e+01 -1.889307497064e+02 0.0 
0.0 0.0 -8.209313880414e+01 
-9.093587900016e+01 2.071088843930e+01 0.0 
2.071088843930e+01 -2.004855004742e+02 0.0 
0.0 0.0 -8.702641384229e+01 
-3.639167247364e+01 6.244302646533e+00 0.0 
6.244302646533e+00 -2.105255396861e+01 0.0 
0.0 0.0 -1.683326793268e+01 
-2.620607762786e+01 3.333344450564e-01 0.0 
3.333344450564e-01 -1.765000316364e+01 0.0 
0.0 0.0 -1.275682423745e+01 
-2.551947539972e+01 1.485213975380e-01 0.0 
1.485213975380e-01 -1.879324206817e+01 0.0 
0.0 0.0 -1.289381524037e+01 
-5.219734400756e+01 5.225156506709e-01 0.0 
5.225156506709e-01 -8.911855318336e+01 0.0 
0.0 0.0 -4.199476915728e+01 
-1.569270346030e+02 4.395072800764e+00 0.0 
4.395072800764e+00 -3.732439789994e+02 0.0 
0.0 0.0 -1.586513040807e+02 
-1.994892164085e+01 1.484656344279e+00 0.0 
1.484656344279e+00 -1.459722192104e+01 0.0 
0.0 0.0 -1.036410694228e+01 
-5.911932805569e+00 -4.787669271556e-01 0.0 
-4.787669271556e-01 -1.724040900760e+01 0.0 
0.0 0.0 -6.934702830522e+00 
-1.299006065729e+02 6.143461775718e-01 0.0 
6.143461775718e-01 -3.234176794714e+02 0.0 
0.0 0.0 -1.355954858133e+02 
-2.370528018379e+01 -9.835460617635e-02 0.0 
-9.835460617635e-02 -1.647241262534e+01 0.0 
0.0 0.0 -1.165330784274e+01 
-2.412787005992e+01 -3.666034457531e-01 0.0 
-3.666034457531e-01 -6.919657743011e+01 0.0 
0.0 0.0 -2.759733424701e+01 
-1.011162059411e+02 3.119562741412e+01 0.0 
3.119562741412e+01 -2.266483366256e+02 0.0 
0.0 0.0 -9.792936277003e+01 
-1.340372050389e+02 3.076033738263e+01 0.0 
3.076033738263e+01 -3.217234266958e+02 0.0 
0.0 0.0 -1.363281895204e+02 
-1.226676122358e+02 3.508879369562e+01 0.0 
3.508879369562e+01 -2.911279147793e+02 0.0 
0.0 0.0 -1.237386581045e+02 
-1.410873476779e+02 2.426380777838e+01 0.0 
2.426380777838e+01 -3.410714378140e+02 0.0 
0.0 0.0 -1.442476356476e+02 
-1.494287930055e+02 1.751769113564e+01 0.0 
1.751769113564e+01 -3.586205871949e+02 0.0 
0.0 0.0 -1.520148140601e+02 
-1.670366901828e+01 -1.509691850263e+00 0.0 
-1.509691850263e+00 -1.716553411343e+01 0.0 
0.0 0.0 -1.014996256373e+01 
-2.855615212897e+01 1.520833730964e+00 0.0 
1.520833730964e+00 -1.754442069766e+01 0.0 
0.0 0.0 -1.343017184799e+01 
-1.525517737444e+02 9.850365452283e+00 0.0 
9.850365452283e+00 -3.658547009529e+02 0.0 
0.0 0.0 -1.551219424092e+02 
-6.571518011114e+01 8.422849542984e-01 0.0 
8.422849542984e-01 -1.288013087841e+02 0.0 
0.0 0.0 -5.795494666858e+01 
-1.006729007460e+01 -1.125454251660e+00 0.0 
-1.125454251660e+00 -1.709636005726e+01 0.0 
0.0 0.0 -8.149963839064e+00 
-6.114980855795e+01 -1.677870099080e-01 0.0 
-1.677870099080e-01 -1.693150324919e+02 0.0 
0.0 0.0 -6.873945231494e+01 
-8.305854340907e+01 4.752025266185e+00 0.0 
4.752025266185e+00 -1.882064854975e+02 0.0 
0.0 0.0 -8.097950867199e+01 
-2.884665026038e+01 1.889012991127e+01 0.0 
1.889012991127e+01 -3.160830422978e+01 0.0 
0.0 0.0 -1.773648634705e+01 
-2.616483369506e+01 1.648582121473e+01 0.0 
1.648582121473e+01 -2.768372719326e+01 0.0 
0.0 0.0 -1.575456826650e+01 
-3.065018282706e+01 2.002844612157e+01 0.0 
2.002844612157e+01 -3.210548933774e+01 0.0 
0.0 0.0 -1.842670164944e+01 
-3.527942853274e+01 2.135163109953e+01 0.0 
2.135163109953e+01 -3.274529457209e+01 0.0 
0.0 0.0 -2.000741693145e+01 
-2.002537249978e+01 9.637523616502e+00 0.0 
9.637523616502e+00 -1.780414596357e+01 0.0 
0.0 0.0 -1.099812357269e+01 
-3.792936846334e+01 1.515709546171e-01 0.0 
1.515709546171e-01 -5.145575361184e+01 0.0 
0.0 0.0 -2.641553662256e+01 
-1.590591920717e+02 2.441959388047e+00 0.0 
2.441959388047e+00 -3.770621668834e+02 0.0 
0.0 0.0 -1.604364076865e+02 
-5.017052571371e+00 -2.791109766019e-01 0.0 
-2.791109766019e-01 -1.639383005486e+01 0.0 
0.0 0.0 -6.379130529348e+00 
-7.752120961468e+01 1.129169207869e+00 0.0 
1.129169207869e+00 -1.687460866386e+02 0.0 
0.0 0.0 -7.348018887599e+01 
-4.520962633737e+01 1.664649698134e+01 0.0 
1.664649698134e+01 -3.574013295344e+01 0.0 
0.0 0.0 -2.388492778724e+01 
-4.890556143086e+01 2.011361718801e+01 0.0 
2.011361718801e+01 -5.432357235559e+01 0.0 
0.0 0.0 -3.056874013594e+01 
-5.171423175658e+01 1.731112943126e+01 0.0 
1.731112943126e+01 -5.496955903416e+01 0.0 
0.0 0.0 -3.160513723722e+01 
-5.643788574468e+01 2.146646606885e+01 0.0 
2.146646606885e+01 -7.616175311034e+01 0.0 
0.0 0.0 -3.937989165651e+01 
-5.968874592121e+01 1.947189442590e+01 0.0 
1.947189442590e+01 -7.955783864580e+01 0.0 
0.0 0.0 -4.137397537010e+01 
-6.384589607611e+01 2.247370953442e+01 0.0 
2.247370953442e+01 -9.782467288225e+01 0.0 
0.0 0.0 -4.810117068751e+01 
-6.054125860937e+01 2.371158749297e+01 0.0 
2.371158749297e+01 -9.504014924199e+01 0.0 
0.0 0.0 -4.627442235541e+01 
-6.783627410998e+01 2.456955167260e+01 0.0 
2.456955167260e+01 -1.159890305770e+02 0.0 
0.0 0.0 -5.474759140608e+01 
-6.435555404652e+01 2.531494441131e+01 0.0 
2.531494441131e+01 -1.134324043225e+02 0.0 
0.0 0.0 -5.293638751070e+01 
-6.739158420395e+01 2.092178622782e+01 0.0 
2.092178622782e+01 -1.021184313319e+02 0.0 
0.0 0.0 -5.045300466076e+01 
-7.165782545016e+01 2.610297072154e+01 0.0 
2.610297072154e+01 -1.339629490597e+02 0.0 
0.0 0.0 -6.128623235297e+01 
-6.815881768768e+01 2.643507506613e+01 0.0 
2.643507506613e+01 -1.315380007879e+02 0.0 
0.0 0.0 -5.950904554266e+01 
-7.547033162541e+01 2.721792285528e+01 0.0 
2.721792285528e+01 -1.517698630487e+02 0.0 
0.0 0.0 -6.777205840225e+01 
-7.200423333423e+01 2.722555197862e+01 0.0 
2.722555197862e+01 -1.493467955631e+02 0.0 
0.0 0.0 -6.600530866919e+01 
-6.468927999677e+01 2.647150133920e+01 0.0 
2.647150133920e+01 -1.297181560095e+02 0.0 
0.0 0.0 -5.792223080187e+01 
-6.852932267388e+01 2.694295424942e+01 0.0 
2.694295424942e+01 -1.473657916752e+02 0.0 
0.0 0.0 -6.436853430472e+01 
-6.129187955520e+01 2.619737050804e+01 0.0 
2.619737050804e+01 -1.281481704648e+02 0.0 
0.0 0.0 -5.643201500599e+01 
-6.511838405152e+01 2.638911890126e+01 0.0 
2.638911890126e+01 -1.456204372124e+02 0.0 
0.0 0.0 -6.282164637919e+01 
-7.246047383066e+01 2.717679083698e+01 0.0 
2.717679083698e+01 -1.645880172157e+02 0.0 
0.0 0.0 -7.071454731391e+01 
-6.904213948401e+01 2.637580270856e+01 0.0 
2.637580270856e+01 -1.626357960908e+02 0.0 
0.0 0.0 -6.910338067245e+01 
-6.176553311856e+01 2.557892064454e+01 0.0 
2.557892064454e+01 -1.439625637530e+02 0.0 
0.0 0.0 -6.131842906145e+01 
-6.565118741765e+01 2.535336576591e+01 0.0 
2.535336576591e+01 -1.606565538255e+02 0.0 
0.0 0.0 -6.749232237296e+01 
-5.856143492323e+01 2.453513522343e+01 0.0 
2.453513522343e+01 -1.422794530916e+02 0.0 
0.0 0.0 -5.985226640444e+01 
-6.239786670811e+01 2.411989227368e+01 0.0 
2.411989227368e+01 -1.586255750914e+02 0.0 
0.0 0.0 -6.590703253984e+01 
-5.551899135387e+01 2.328497928474e+01 0.0 
2.328497928474e+01 -1.404562133883e+02 0.0 
0.0 0.0 -5.839256142265e+01 
-5.927217408902e+01 2.271481341326e+01 0.0 
2.271481341326e+01 -1.564224171400e+02 0.0 
0.0 0.0 -6.430837736871e+01 
-6.639802700822e+01 2.360094722052e+01 0.0 
2.360094722052e+01 -1.744582054687e+02 0.0 
0.0 0.0 -7.185686974307e+01 
-6.318321935229e+01 2.206342230912e+01 0.0 
2.206342230912e+01 -1.718244718556e+02 0.0 
0.0 0.0 -7.010230736236e+01 
-5.626982408371e+01 2.118059360658e+01 0.0 
2.118059360658e+01 -1.539736398812e+02 0.0 
0.0 0.0 -6.267303918947e+01 
-6.009402554257e+01 2.039902625081e+01 0.0 
2.039902625081e+01 -1.689291463512e+02 0.0 
0.0 0.0 -6.830695156812e+01 
-5.341340593373e+01 1.951725780699e+01 0.0 
1.951725780699e+01 -1.512458514452e+02 0.0 
0.0 0.0 -6.099777721368e+01 
-5.713823346740e+01 1.860735550879e+01 0.0 
1.860735550879e+01 -1.656997496584e+02 0.0 
0.0 0.0 -6.645139493773e+01 
-6.412716823461e+01 1.958388407176e+01 0.0 
1.958388407176e+01 -1.833387144619e+02 0.0 
0.0 0.0 -7.383976480895e+01 
-6.108510314300e+01 1.770697942760e+01 0.0 
1.770697942760e+01 -1.796128769457e+02 0.0 
0.0 0.0 -7.180939402660e+01 
-5.429103189914e+01 1.670962596369e+01 0.0 
1.670962596369e+01 -1.620375939707e+02 0.0 
0.0 0.0 -6.449858776095e+01 
-5.816009240557e+01 1.574309437474e+01 0.0 
1.574309437474e+01 -1.754802122370e+02 0.0 
0.0 0.0 -6.969209139276e+01 
-5.156520401820e+01 1.473060799447e+01 0.0 
1.473060799447e+01 -1.579412656167e+02 0.0 
0.0 0.0 -6.245194089048e+01 
-5.538332755041e+01 1.370811650928e+01 0.0 
1.370811650928e+01 -1.709379068970e+02 0.0 
0.0 0.0 -6.749637033421e+01 
-4.900438139740e+01 1.268356519307e+01 0.0 
1.268356519307e+01 -1.533873525969e+02 0.0 
0.0 0.0 -6.031752019830e+01 
-5.273294326799e+01 1.162151928086e+01 0.0 
1.162151928086e+01 -1.658592576988e+02 0.0 
0.0 0.0 -6.517766029005e+01 
-5.943906153033e+01 1.276330652127e+01 0.0 
1.276330652127e+01 -1.834113336315e+02 0.0 
0.0 0.0 -7.245511854855e+01 
-5.671581956298e+01 1.068950139696e+01 0.0 
1.068950139696e+01 -1.778744050258e+02 0.0 
0.0 0.0 -6.997706737664e+01 
-5.023056257700e+01 9.544884504523e+00 0.0 
9.544884504523e+00 -1.602593090432e+02 0.0 
0.0 0.0 -6.274696148605e+01 
-5.410735355655e+01 8.632333629092e+00 0.0 
8.632333629092e+00 -1.717542394818e+02 0.0 
0.0 0.0 -6.735847791149e+01 
-6.091579376284e+01 9.872739652293e+00 0.0 
9.872739652293e+00 -1.894833563163e+02 0.0 
0.0 0.0 -7.471974502373e+01 
-5.818955728428e+01 7.865437266968e+00 0.0 
7.865437266968e+00 -1.828640214438e+02 0.0 
0.0 0.0 -7.191607361841e+01 
-6.531098303980e+01 9.176597028998e+00 0.0 
9.176597028998e+00 -2.007122721480e+02 0.0 
0.0 0.0 -7.940697655635e+01 
-6.246137484564e+01 7.230662726764e+00 0.0 
7.230662726764e+00 -1.936446190522e+02 0.0 
0.0 0.0 -7.643179816934e+01 
-5.560106975513e+01 5.949121685901e+00 0.0 
5.949121685901e+00 -1.757967929830e+02 0.0 
0.0 0.0 -6.901935882144e+01 
-5.973466440746e+01 5.389817460146e+00 0.0 
5.389817460146e+00 -1.861333912819e+02 0.0 
0.0 0.0 -7.336041670682e+01 
-6.688881648357e+01 6.710940740766e+00 0.0 
6.710940740766e+00 -2.041058200603e+02 0.0 
0.0 0.0 -8.089839096317e+01 
-6.400139510236e+01 4.951853467981e+00 0.0 
4.951853467981e+00 -1.961668355271e+02 0.0 
0.0 0.0 -7.765046918883e+01 
-5.709911322798e+01 3.681777409079e+00 0.0 
3.681777409079e+00 -1.781715139883e+02 0.0 
0.0 0.0 -7.018118816488e+01 
-6.122253517927e+01 3.337933086587e+00 0.0 
3.337933086587e+00 -1.878608105775e+02 0.0 
0.0 0.0 -7.432500372702e+01 
-6.840600453029e+01 4.620523013549e+00 0.0 
4.620523013549e+00 -2.060031490670e+02 0.0 
0.0 0.0 -8.192274607920e+01 
-6.546233594388e+01 3.098983921521e+00 0.0 
3.098983921521e+00 -1.973603793759e+02 0.0 
0.0 0.0 -7.844681459593e+01 
-5.849671221636e+01 1.888119103044e+00 0.0 
1.888119103044e+00 -1.791548959470e+02 0.0 
0.0 0.0 -7.089548244899e+01 
-6.257202270827e+01 1.750254626629e+00 0.0 
1.750254626629e+00 -1.883810108420e+02 0.0 
0.0 0.0 -7.488591006508e+01 
-6.984114556918e+01 2.952750201832e+00 0.0 
2.952750201832e+00 -2.068062266280e+02 0.0 
0.0 0.0 -8.259421165914e+01 
-6.674230866480e+01 1.693789708893e+00 0.0 
1.693789708893e+00 -1.974956932300e+02 0.0 
0.0 0.0 -7.887140056844e+01 
-5.967954420222e+01 5.810404614901e-01 0.0 
5.810404614901e-01 -1.790039854538e+02 0.0 
0.0 0.0 -7.120505889680e+01 
-6.366034961344e+01 6.090376227594e-01 0.0 
6.090376227594e-01 -1.878681800084e+02 0.0 
0.0 0.0 -7.505855888656e+01 
-7.101972051942e+01 1.695330019939e+00 0.0 
1.695330019939e+00 -2.065944396245e+02 0.0 
0.0 0.0 -8.288424804317e+01 
-6.772421059592e+01 6.896294938866e-01 0.0 
6.896294938866e-01 -1.966938255519e+02 0.0 
0.0 0.0 -7.892541084434e+01 
-7.536050016513e+01 1.734441395925e+00 0.0 
1.734441395925e+00 -2.156074879657e+02 0.0 
0.0 0.0 -8.689039643926e+01 
-6.050330066487e+01 -2.942752981005e-01 0.0 
-2.942752981005e-01 -1.777896810245e+02 0.0 
0.0 0.0 -7.108789450680e+01 
-6.438746530556e+01 -1.329127086354e-01 0.0 
-1.329127086354e-01 -1.864757111680e+02 0.0 
0.0 0.0 -7.485895294206e+01 
-5.727290650592e+01 -1.005092135818e+00 0.0 
-1.005092135818e+00 -1.673524018199e+02 0.0 
0.0 0.0 -6.698759249773e+01 
-6.101533965039e+01 -7.682467521384e-01 0.0 
-7.682467521384e-01 -1.760111301047e+02 0.0 
0.0 0.0 -7.070794092652e+01 
-6.838929783275e+01 1.877854840365e+01 0.0 
1.877854840365e+01 -1.972311320683e+02 0.0 
0.0 0.0 -7.928612897031e+01 
-5.398490692964e+01 -1.510316676830e+00 0.0 
-1.510316676830e+00 -1.567069965636e+02 0.0 
0.0 0.0 -6.280757104796e+01 
-5.056078242963e+01 -1.767599229349e+00 0.0 
-1.767599229349e+00 -1.483287580435e+02 0.0 
0.0 0.0 -5.926686214194e+01 
-5.758595769248e+01 -1.216584135661e+00 0.0 
-1.216584135661e+00 -1.653597485894e+02 0.0 
0.0 0.0 -6.648371188458e+01 
-6.486730525247e+01 -5.190446061989e-01 0.0 
-5.190446061989e-01 -1.847880510916e+02 0.0 
0.0 0.0 -7.449660690324e+01 
-5.059549885105e+01 -1.826511563230e+00 0.0 
-1.826511563230e+00 -1.458815927551e+02 0.0 
0.0 0.0 -5.854312748185e+01 
-5.407833967304e+01 -1.501786591528e+00 0.0 
-1.501786591528e+00 -1.545461411670e+02 0.0 
0.0 0.0 -6.218734425201e+01 
-4.710949423862e+01 -1.987577469604e+00 0.0 
-1.987577469604e+00 -1.349379672413e+02 0.0 
0.0 0.0 -5.421423844396e+01 
-4.542391296212e+01 1.381014317820e+01 0.0 
1.381014317820e+01 -1.400985740671e+02 0.0 
0.0 0.0 -5.525674610876e+01 
-7.657239668705e+01 2.724549995530e+01 0.0 
2.724549995530e+01 -1.814224857842e+02 0.0 
0.0 0.0 -7.699846474139e+01 
-5.048104032346e+01 -1.644008910962e+00 0.0 
-1.644008910962e+00 -1.436149292974e+02 0.0 
0.0 0.0 -5.782879088624e+01 
-4.349662461046e+01 -1.981137860944e+00 0.0 
-1.981137860944e+00 -1.238896724074e+02 0.0 
0.0 0.0 -4.981588910535e+01 
-4.034261010570e+01 -2.330340084620e+00 0.0 
-2.330340084620e+00 -1.152382027474e+02 0.0 
0.0 0.0 -4.627424385594e+01 
-3.672421845103e+01 -2.203238167522e+00 0.0 
-2.203238167522e+00 -1.041230236200e+02 0.0 
0.0 0.0 -4.185417262131e+01 
-6.327556740895e+01 1.779828968417e+01 0.0 
1.779828968417e+01 -8.532474489816e+01 0.0 
0.0 0.0 -4.418009369214e+01 
-7.020739449349e+01 1.921965265995e+01 0.0 
1.921965265995e+01 -1.076364477897e+02 0.0 
0.0 0.0 -5.295315268495e+01 
-6.543894174465e+01 1.574389482996e+01 0.0 
1.574389482996e+01 -9.097993418285e+01 0.0 
0.0 0.0 -4.652566277825e+01 
-7.262351875368e+01 1.772403809135e+01 0.0 
1.772403809135e+01 -1.139658552188e+02 0.0 
0.0 0.0 -5.557681219174e+01 
-6.793676472368e+01 1.428253087706e+01 0.0 
1.428253087706e+01 -9.894729320197e+01 0.0 
0.0 0.0 -4.966521737770e+01 
-3.978792064774e+01 -1.831714359219e+00 0.0 
-1.831714359219e+00 -1.127380678140e+02 0.0 
0.0 0.0 -4.535779653853e+01 
-7.887012338693e+01 2.693388492866e+01 0.0 
2.693388492866e+01 -1.549037641047e+02 0.0 
0.0 0.0 -6.973216624750e+01 
-7.692051028720e+01 2.078533056036e+01 0.0 
2.078533056036e+01 -1.298955846844e+02 0.0 
0.0 0.0 -6.164482849149e+01 
-5.483649070416e+01 2.479319358580e+01 0.0 
2.479319358580e+01 -1.253584655874e+02 0.0 
0.0 0.0 -5.365848688748e+01 
-4.989538045772e+01 2.037013450029e+01 0.0 
2.037013450029e+01 -1.362011077871e+02 0.0 
0.0 0.0 -5.542894647345e+01 
-6.828655240896e+01 1.119742848042e+01 0.0 
1.119742848042e+01 -2.073125338836e+02 0.0 
0.0 0.0 -8.227972588777e+01 
-5.764344238940e+01 -1.168983834819e+00 0.0 
-1.168983834819e+00 -1.632335315529e+02 0.0 
0.0 0.0 -6.586309218269e+01 
-5.394357505605e+01 -1.306600174987e+00 0.0 
-1.306600174987e+00 -1.523306279254e+02 0.0 
0.0 0.0 -6.148226089442e+01 
-6.122791788547e+01 -8.387970666123e-01 0.0 
-8.387970666123e-01 -1.719644006483e+02 0.0 
0.0 0.0 -6.955769556012e+01 
-7.884630317927e+01 2.841939632057e+00 0.0 
2.841939632057e+00 -2.253944906259e+02 0.0 
0.0 0.0 -9.087223814155e+01 
-8.342016300480e+01 2.820580041773e+00 0.0 
2.820580041773e+00 -2.345000244834e+02 0.0 
0.0 0.0 -9.497605624646e+01 
-8.712469971898e+01 4.018274712586e+00 0.0 
4.018274712586e+00 -2.441830090479e+02 0.0 
0.0 0.0 -9.899231263005e+01 
-9.190726487559e+01 3.924045744343e+00 0.0 
3.924045744343e+00 -2.533377805736e+02 0.0 
0.0 0.0 -1.031735136348e+02 
-9.585535627586e+01 5.201915057652e+00 0.0 
5.201915057652e+00 -2.629270764347e+02 0.0 
0.0 0.0 -1.072347298132e+02 
-1.008227085800e+02 5.019561039866e+00 0.0 
5.019561039866e+00 -2.721107231964e+02 0.0 
0.0 0.0 -1.114800295329e+02 
-9.669062705814e+01 3.819320253438e+00 0.0 
3.819320253438e+00 -2.623611420564e+02 0.0 
0.0 0.0 -1.073155307344e+02 
-1.057777159204e+02 4.820276127456e+00 0.0 
4.820276127456e+00 -2.811572787369e+02 0.0 
0.0 0.0 -1.156804983972e+02 
-1.014656403758e+02 3.690762982689e+00 0.0 
3.690762982689e+00 -2.712734948550e+02 0.0 
0.0 0.0 -1.114217405692e+02 
-1.050297834280e+02 6.365737431313e+00 0.0 
6.365737431313e+00 -2.816061120112e+02 0.0 
0.0 0.0 -1.155907686318e+02 
-9.985296201034e+01 6.627342766192e+00 0.0 
6.627342766192e+00 -2.722023168770e+02 0.0 
0.0 0.0 -1.112165836662e+02 
-1.107111386905e+02 4.589634256932e+00 0.0 
4.589634256932e+00 -2.900778359330e+02 0.0 
0.0 0.0 -1.198366923870e+02 
-1.062220804112e+02 3.521723224367e+00 0.0 
3.521723224367e+00 -2.800787681335e+02 0.0 
0.0 0.0 -1.154902545634e+02 
-1.156197154471e+02 4.312868322900e+00 0.0 
4.312868322900e+00 -2.988845819732e+02 0.0 
0.0 0.0 -1.239512892261e+02 
-1.109548745836e+02 3.304001733560e+00 0.0 
3.304001733560e+00 -2.887888399168e+02 0.0 
0.0 0.0 -1.195231143501e+02 
-1.017693661649e+02 2.590307101826e+00 0.0 
2.590307101826e+00 -2.698572510536e+02 0.0 
0.0 0.0 -1.110879851655e+02 
-1.063174552572e+02 2.425159237302e+00 0.0 
2.425159237302e+00 -2.784814503324e+02 0.0 
0.0 0.0 -1.150396716769e+02 
-9.737043404447e+01 1.810211318185e+00 0.0 
1.810211318185e+00 -2.595223830932e+02 0.0 
0.0 0.0 -1.066678451413e+02 
-7.297600929958e+01 1.055876034948e+01 0.0 
1.055876034948e+01 -2.186438401759e+02 0.0 
0.0 0.0 -8.708595484265e+01 
-7.620237344607e+01 1.259189069345e+01 0.0 
1.259189069345e+01 -2.252412766568e+02 0.0 
0.0 0.0 -9.003309503087e+01 
-8.117570933968e+01 1.199421668407e+01 0.0 
1.199421668407e+01 -2.366512348110e+02 0.0 
0.0 0.0 -9.494808324521e+01 
-8.465980164804e+01 1.404275929914e+01 0.0 
1.404275929914e+01 -2.432529814595e+02 0.0 
0.0 0.0 -9.797383493227e+01 
-8.991593691374e+01 1.347891262932e+01 0.0 
1.347891262932e+01 -2.547243830225e+02 0.0 
0.0 0.0 -1.029920959809e+02 
-9.364663884587e+01 1.554391492368e+01 0.0 
1.554391492368e+01 -2.613109787166e+02 0.0 
0.0 0.0 -1.060872852687e+02 
-9.917681676042e+01 1.500144864077e+01 0.0 
1.500144864077e+01 -2.728025637409e+02 0.0 
0.0 0.0 -1.111938141504e+02 
-9.530360168659e+01 1.296083658490e+01 0.0 
1.296083658490e+01 -2.658286975781e+02 0.0 
0.0 0.0 -1.079396897794e+02 
-7.934623287321e+01 2.806257817958e+01 0.0 
2.806257817958e+01 -1.692874971405e+02 0.0 
0.0 0.0 -7.419011900410e+01 
-4.784741914450e+01 7.485806668244e+00 0.0 
7.485806668244e+00 -1.541139970272e+02 0.0 
0.0 0.0 -6.018842485151e+01 
-4.430075657867e+01 8.507878176253e+00 0.0 
8.507878176253e+00 -1.427240674308e+02 0.0 
0.0 0.0 -5.570744720284e+01 
-4.215177768370e+01 6.442017050959e+00 0.0 
6.442017050959e+00 -1.365802462798e+02 0.0 
0.0 0.0 -5.321960718905e+01 
-3.896770560287e+01 7.583194336686e+00 0.0 
7.583194336686e+00 -1.253249140614e+02 0.0 
0.0 0.0 -4.888778589929e+01 
-3.703930507132e+01 5.518856556007e+00 0.0 
5.518856556007e+00 -1.191490244074e+02 0.0 
0.0 0.0 -4.645649884361e+01 
-3.426274238870e+01 6.802031806099e+00 0.0 
6.802031806099e+00 -1.080603716588e+02 0.0 
0.0 0.0 -4.229693421426e+01 
-3.252872273789e+01 4.751786638329e+00 0.0 
4.751786638329e+00 -1.017711711548e+02 0.0 
0.0 0.0 -3.988996816782e+01 
-3.521417707754e+01 3.549241864423e+00 0.0 
3.549241864423e+00 -1.123152803416e+02 0.0 
0.0 0.0 -4.385883722574e+01 
-3.090316988712e+01 2.818326740955e+00 0.0 
2.818326740955e+00 -9.477747280789e+01 0.0 
0.0 0.0 -3.730419280850e+01 
-3.346817440581e+01 1.727333792885e+00 0.0 
1.727333792885e+00 -1.047909663200e+02 0.0 
0.0 0.0 -4.107774221773e+01 
-2.931776555421e+01 1.050969064473e+00 0.0 
1.050969064473e+00 -8.704474757960e+01 0.0 
0.0 0.0 -3.450875394014e+01 
-3.173106767266e+01 1.130957888380e-01 0.0 
1.130957888380e-01 -9.652286655671e+01 0.0 
0.0 0.0 -3.807618026881e+01 
-7.058807589486e+01 2.302931352606e+01 0.0 
2.302931352606e+01 -1.897807432860e+02 0.0 
0.0 0.0 -7.771064575426e+01 
-8.825202096991e+01 1.612921981551e+01 0.0 
1.612921981551e+01 -2.494122035921e+02 0.0 
0.0 0.0 -1.008992673686e+02 
-9.750618368943e+01 1.764600330359e+01 0.0 
1.764600330359e+01 -2.675023034464e+02 0.0 
0.0 0.0 -1.091025461407e+02 
-9.192710273332e+01 1.821814711747e+01 0.0 
1.821814711747e+01 -2.550933709371e+02 0.0 
0.0 0.0 -1.037061421011e+02 
-3.373865033168e+01 -2.503154369835e+00 0.0 
-2.503154369835e+00 -9.550382665633e+01 0.0 
0.0 0.0 -3.837274309640e+01 
-1.156593665789e+02 3.026687490016e+00 0.0 
3.026687490016e+00 -2.974253437189e+02 0.0 
0.0 0.0 -1.235254130893e+02 
-1.093163122179e+02 7.857403854405e+00 0.0 
7.857403854405e+00 -2.908084866109e+02 0.0 
0.0 0.0 -1.196374396486e+02 
-1.039172597387e+02 8.184881067157e+00 0.0 
8.184881067157e+00 -2.811213311050e+02 0.0 
0.0 0.0 -1.151115772531e+02 
-1.048433788479e+02 1.447992086739e+01 0.0 
1.447992086739e+01 -2.839544069210e+02 0.0 
0.0 0.0 -1.162393357307e+02 
-3.301416175874e+01 -1.957669106106e+00 0.0 
-1.957669106106e+00 -9.309767232187e+01 0.0 
0.0 0.0 -3.743355022419e+01 
-3.022723853047e+01 6.222750798704e+00 0.0 
6.222750798704e+00 -9.095382721299e+01 0.0 
0.0 0.0 -3.595431972304e+01 
-3.181856439518e+01 8.312866367372e+00 0.0 
8.312866367372e+00 -9.645772323906e+01 0.0 
0.0 0.0 -3.808288629027e+01 
-7.475450681716e+01 1.640787606859e+01 0.0 
1.640787606859e+01 -1.212614835671e+02 0.0 
0.0 0.0 -5.840479711527e+01 
-7.002977122804e+01 1.313397781056e+01 0.0 
1.313397781056e+01 -1.072405450992e+02 0.0 
0.0 0.0 -5.278109489817e+01 
-1.137225294534e+02 9.472811849112e+00 0.0 
9.472811849112e+00 -2.997256985479e+02 0.0 
0.0 0.0 -1.236344684004e+02 
-3.604318851911e+01 -1.628872528223e+00 0.0 
-1.628872528223e+00 -1.016924668104e+02 0.0 
0.0 0.0 -4.092069659885e+01 
-1.152709017498e+02 5.790178200770e+00 0.0 
5.790178200770e+00 -2.998632657478e+02 0.0 
0.0 0.0 -1.241402502493e+02 
-2.722827322400e+01 2.263221612607e+00 0.0 
2.263221612607e+00 -7.734749269707e+01 0.0 
0.0 0.0 -3.097272977632e+01 
-1.108494496731e+02 2.195968493254e+00 0.0 
2.195968493254e+00 -2.870518598252e+02 0.0 
0.0 0.0 -1.189703928495e+02 
-1.203087140108e+02 2.687262207690e+00 0.0 
2.687262207690e+00 -3.059843037265e+02 0.0 
0.0 0.0 -1.274879053212e+02 
-9.262506369041e+01 2.771321532883e+00 0.0 
2.771321532883e+00 -2.524050721587e+02 0.0 
0.0 0.0 -1.031090407547e+02 
-1.014644321232e+02 1.977071568196e+01 0.0 
1.977071568196e+01 -2.733128911258e+02 0.0 
0.0 0.0 -1.120331969747e+02 
-9.569779235460e+01 2.027103228118e+01 0.0 
2.027103228118e+01 -2.603631701531e+02 0.0 
0.0 0.0 -1.064182887523e+02 
-3.634437732859e+01 9.262395627132e-01 0.0 
9.262395627132e-01 -1.146199261897e+02 0.0 
0.0 0.0 -4.488929105548e+01 
-3.440917497141e+01 -4.638996178606e-01 0.0 
-4.638996178606e-01 -1.059475207733e+02 0.0 
0.0 0.0 -4.170700872341e+01 
-3.000740492866e+01 -1.149683136555e+00 0.0 
-1.149683136555e+00 -8.796964222475e+01 0.0 
0.0 0.0 -3.499311414602e+01 
-3.282101790201e+01 -1.621778264859e+00 0.0 
-1.621778264859e+00 -9.748464153344e+01 0.0 
0.0 0.0 -3.869169783064e+01 
-3.736433223423e+01 -9.254841558760e-01 0.0 
-9.254841558760e-01 -1.154504566482e+02 0.0 
0.0 0.0 -4.544443666472e+01 
-3.521644661126e+01 -2.011089413960e+00 0.0 
-2.011089413960e+00 -1.058353299460e+02 0.0 
0.0 0.0 -4.191553296719e+01 
-3.051388909177e+01 -2.623009205728e+00 0.0 
-2.623009205728e+00 -8.741779170502e+01 0.0 
0.0 0.0 -3.497950423904e+01 
-3.291896173777e+01 -2.724847659431e+00 0.0 
-2.724847659431e+00 -9.580749111461e+01 0.0 
0.0 0.0 -3.821793585571e+01 
-3.804586056636e+01 -2.144491795505e+00 0.0 
-2.144491795505e+00 -1.146100126258e+02 0.0 
0.0 0.0 -4.539676195764e+01 
-3.552476341325e+01 -2.771993469207e+00 0.0 
-2.771993469207e+00 -1.043533647751e+02 0.0 
0.0 0.0 -4.156343845649e+01 
-3.042485786229e+01 -3.145124698359e+00 0.0 
-3.145124698359e+00 -8.523028927451e+01 0.0 
0.0 0.0 -3.429654414104e+01 
-3.276166944048e+01 -3.092719821520e+00 0.0 
-3.092719821520e+00 -9.366708516247e+01 0.0 
0.0 0.0 -3.752862638089e+01 
-1.253030650980e+02 3.578982020347e+00 0.0 
3.578982020347e+00 -3.162111945994e+02 0.0 
0.0 0.0 -1.320542779092e+02 
-2.584828824007e+01 5.684692006851e-01 0.0 
5.684692006851e-01 -6.935367855706e+01 0.0 
0.0 0.0 -2.816059003914e+01 
-5.751629400833e+01 2.574466269411e+01 0.0 
2.574466269411e+01 -1.101628304438e+02 0.0 
0.0 0.0 -4.990373733565e+01 
-1.192291208729e+02 9.038450562840e+00 0.0 
9.038450562840e+00 -3.093188948619e+02 0.0 
0.0 0.0 -1.281644047204e+02 
-1.089029954086e+02 1.654232607087e+01 0.0 
1.654232607087e+01 -2.906881293484e+02 0.0 
0.0 0.0 -1.194773374271e+02 
-7.659715893266e+01 1.532352565657e+01 0.0 
1.532352565657e+01 -1.293229119226e+02 0.0 
0.0 0.0 -6.137602125658e+01 
-7.194229781124e+01 1.226009208657e+01 0.0 
1.226009208657e+01 -1.162055289767e+02 0.0 
0.0 0.0 -5.604434803639e+01 
-6.475424445250e+01 9.869094737055e+00 0.0 
9.869094737055e+00 -9.430834194071e+01 0.0 
0.0 0.0 -4.731877591796e+01 
-6.691944383438e+01 9.335210005792e+00 0.0 
9.335210005792e+00 -1.041302424107e+02 0.0 
0.0 0.0 -5.091490587353e+01 
-7.368505802920e+01 1.159962243470e+01 0.0 
1.159962243470e+01 -1.257297340816e+02 0.0 
0.0 0.0 -5.942443763324e+01 
-6.896108857590e+01 8.937088107415e+00 0.0 
8.937088107415e+00 -1.141797202757e+02 0.0 
0.0 0.0 -5.454224265548e+01 
-6.163525744614e+01 6.779432421296e+00 0.0 
6.779432421296e+00 -9.294740778501e+01 0.0 
0.0 0.0 -4.597479956934e+01 
-6.407594230505e+01 6.620741748217e+00 0.0 
6.620741748217e+00 -1.033421668629e+02 0.0 
0.0 0.0 -4.982543275038e+01 
-5.631038302627e+01 4.676260474212e+00 0.0 
4.676260474212e+00 -8.249755358066e+01 0.0 
0.0 0.0 -4.124238098208e+01 
-5.914305716436e+01 4.712974451162e+00 0.0 
4.712974451162e+00 -9.313267435329e+01 0.0 
0.0 0.0 -4.528271945530e+01 
-6.642362705390e+01 6.474888586006e+00 0.0 
6.474888586006e+00 -1.138614238330e+02 0.0 
0.0 0.0 -5.368551526608e+01 
-6.187083935102e+01 4.730910862161e+00 0.0 
4.730910862161e+00 -1.038945960112e+02 0.0 
0.0 0.0 -4.932963060868e+01 
-5.426347265456e+01 3.210894045144e+00 0.0 
3.210894045144e+00 -8.346817729720e+01 0.0 
0.0 0.0 -4.091949498553e+01 
-5.735913339856e+01 3.333608949224e+00 0.0 
3.333608949224e+00 -9.429564789876e+01 0.0 
0.0 0.0 -4.509643438920e+01 
-4.953191418556e+01 2.105553660565e+00 0.0 
2.105553660565e+00 -7.409078363494e+01 0.0 
0.0 0.0 -3.668680934615e+01 
-5.297906000505e+01 2.277619741537e+00 0.0 
2.277619741537e+00 -8.487749712168e+01 0.0 
0.0 0.0 -4.095696713802e+01 
-6.037726010186e+01 3.307191106750e+00 0.0 
3.307191106750e+00 -1.052160137222e+02 0.0 
0.0 0.0 -4.927798214723e+01 
-2.951136358382e+01 -1.661839428062e+00 0.0 
-1.661839428062e+00 -8.257089234262e+01 0.0 
0.0 0.0 -3.322467677793e+01 
-1.008111578340e+02 1.247380894645e+01 0.0 
1.247380894645e+01 -2.766251391350e+02 0.0 
0.0 0.0 -1.128308890907e+02 
-1.106711804054e+02 1.396339707306e+01 0.0 
1.396339707306e+01 -2.949058988783e+02 0.0 
0.0 0.0 -1.212731237851e+02 
-5.756175308037e+01 -8.717324406837e-01 0.0 
-8.717324406837e-01 -1.616109777902e+02 0.0 
0.0 0.0 -6.535181926118e+01 
-6.473466879003e+01 -5.066106189569e-01 0.0 
-5.066106189569e-01 -1.804288074419e+02 0.0 
0.0 0.0 -7.314904286959e+01 
-6.874781988798e+01 -4.234494043769e-01 0.0 
-4.234494043769e-01 -1.914527363898e+02 0.0 
0.0 0.0 -7.766016688334e+01 
-7.264819041515e+01 -1.896695902852e-01 0.0 
-1.896695902852e-01 -2.002717558634e+02 0.0 
0.0 0.0 -8.147598388355e+01 
-5.626840780313e+01 2.268964024821e+00 0.0 
2.268964024821e+00 -9.571213497593e+01 0.0 
0.0 0.0 -4.519416283372e+01 
-6.326122893765e+01 3.126986331130e+00 0.0 
3.126986331130e+00 -1.162052007536e+02 0.0 
0.0 0.0 -5.343992890738e+01 
-2.829160054870e+01 7.961379617365e+00 0.0 
7.961379617365e+00 -7.966060932266e+01 0.0 
0.0 0.0 -3.198566296141e+01 
-2.977705225890e+01 1.001397338365e+01 0.0 
1.001397338365e+01 -8.432262155049e+01 0.0 
0.0 0.0 -3.382990214282e+01 
-8.087689946201e+01 1.838351873577e+01 0.0 
1.838351873577e+01 -1.434112383825e+02 0.0 
0.0 0.0 -6.688644135335e+01 
-1.153502746900e+02 1.915054701529e+00 0.0 
1.915054701529e+00 -2.956104026555e+02 0.0 
0.0 0.0 -1.228882032037e+02 
-1.061096597130e+02 1.496582366323e+00 0.0 
1.496582366323e+00 -2.766134030516e+02 0.0 
0.0 0.0 -1.144169188294e+02 
-4.729829698542e+01 1.871830164279e+01 0.0 
1.871830164279e+01 -1.336390792171e+02 0.0 
0.0 0.0 -5.388121286075e+01 
-4.412778677646e+01 1.961061232511e+01 0.0 
1.961061232511e+01 -1.184529209853e+02 0.0 
0.0 0.0 -4.837421232853e+01 
-4.182063758476e+01 1.802003365626e+01 0.0 
1.802003365626e+01 -1.160143380150e+02 0.0 
0.0 0.0 -4.695049267992e+01 
-3.899618014880e+01 1.890032266026e+01 0.0 
1.890032266026e+01 -1.004022633176e+02 0.0 
0.0 0.0 -4.141953303993e+01 
-4.115118578633e+01 2.033799916768e+01 0.0 
2.033799916768e+01 -1.025716147154e+02 0.0 
0.0 0.0 -4.271684015051e+01 
-3.698948322920e+01 1.741454029483e+01 0.0 
1.741454029483e+01 -9.802137494658e+01 0.0 
0.0 0.0 -4.010325745274e+01 
-9.459277104590e+01 6.856689217448e+00 0.0 
6.856689217448e+00 -2.624399180450e+02 0.0 
0.0 0.0 -1.067098067273e+02 
-6.871740615744e+01 6.297637509749e+00 0.0 
6.297637509749e+00 -1.246016449835e+02 0.0 
0.0 0.0 -5.759571534228e+01 
-3.731975604437e+01 -2.656493417478e+00 0.0 
-2.656493417478e+00 -1.066749323357e+02 0.0 
0.0 0.0 -4.279840651402e+01 
-3.099970799133e+01 -2.765923076888e+00 0.0 
-2.765923076888e+00 -8.702589782158e+01 0.0 
0.0 0.0 -3.500768174387e+01 
-1.248889242281e+02 2.292427815718e+00 0.0 
2.292427815718e+00 -3.145204528558e+02 0.0 
0.0 0.0 -1.314228131252e+02 
-9.150646358983e+01 1.098126655833e+01 0.0 
1.098126655833e+01 -2.584011897492e+02 0.0 
0.0 0.0 -1.045722960017e+02 
-7.397124331840e+01 2.457428878203e+01 0.0 
2.457428878203e+01 -1.926034451262e+02 0.0 
0.0 0.0 -7.957240653337e+01 
-7.845797560657e+01 2.409861337874e+01 0.0 
2.409861337874e+01 -2.078935457291e+02 0.0 
0.0 0.0 -8.550545640071e+01 
-8.197965941683e+01 2.567257728178e+01 0.0 
2.567257728178e+01 -2.109453976038e+02 0.0 
0.0 0.0 -8.747751710619e+01 
-8.678994029967e+01 2.530153453869e+01 0.0 
2.530153453869e+01 -2.262126694305e+02 0.0 
0.0 0.0 -9.350078291904e+01 
-9.038489400730e+01 2.692777001790e+01 0.0 
2.692777001790e+01 -2.294518273572e+02 0.0 
0.0 0.0 -9.555101640936e+01 
-9.551598394303e+01 2.668012825386e+01 0.0 
2.668012825386e+01 -2.445968670107e+02 0.0 
0.0 0.0 -1.016338552861e+02 
-9.185930345984e+01 2.491697334159e+01 0.0 
2.491697334159e+01 -2.409978834790e+02 0.0 
0.0 0.0 -9.945715608166e+01 
-1.054958916798e+02 2.190793432714e+01 0.0 
2.190793432714e+01 -2.787138343627e+02 0.0 
0.0 0.0 -1.148629178128e+02 
-1.009476471534e+02 2.644808654365e+01 0.0 
2.644808654365e+01 -2.592800773342e+02 0.0 
0.0 0.0 -1.076683173463e+02 
-4.874004631367e+01 1.404467129302e+00 0.0 
1.404467129302e+00 -7.531916270901e+01 0.0 
0.0 0.0 -3.681776270680e+01 
-8.291302013382e+01 1.671842982928e+01 0.0 
1.671842982928e+01 -2.369131560456e+02 0.0 
0.0 0.0 -9.554785285383e+01 
-4.106655793164e+01 -2.162039155634e+00 0.0 
-2.162039155634e+00 -1.234259724375e+02 0.0 
0.0 0.0 -4.894775911075e+01 
-2.628956089037e+01 -1.860001913014e+00 0.0 
-1.860001913014e+00 -7.370561610442e+01 0.0 
0.0 0.0 -2.959855309844e+01 
-2.730102901074e+01 -3.243388203018e+00 0.0 
-3.243388203018e+00 -7.386186553282e+01 0.0 
0.0 0.0 -2.994886836307e+01 
-3.204953360146e+01 -1.394081650444e+00 0.0 
-1.394081650444e+00 -9.034223890267e+01 0.0 
0.0 0.0 -3.631753175124e+01 
-3.911739373504e+01 -1.317233437119e+00 0.0 
-1.317233437119e+00 -1.102460982634e+02 0.0 
0.0 0.0 -4.440904759954e+01 
-1.239749693127e+02 1.071907210653e+01 0.0 
1.071907210653e+01 -3.182053425163e+02 0.0 
0.0 0.0 -1.322540935487e+02 
-9.910749550857e+01 2.839270441080e+01 0.0 
2.839270441080e+01 -2.479597284419e+02 0.0 
0.0 0.0 -1.037201671851e+02 
-9.386960538284e+01 2.841112384735e+01 0.0 
2.841112384735e+01 -2.323834244759e+02 0.0 
0.0 0.0 -9.747590895764e+01 
-3.644832688324e+01 1.964372474487e+01 0.0 
1.964372474487e+01 -8.441430932300e+01 0.0 
0.0 0.0 -3.585879086187e+01 
-3.837397178730e+01 2.086489502040e+01 0.0 
2.086489502040e+01 -8.618348025368e+01 0.0 
0.0 0.0 -3.696723561230e+01 
-1.115916957495e+02 2.142529699837e+01 0.0 
2.142529699837e+01 -2.914760861796e+02 0.0 
0.0 0.0 -1.205203345787e+02 
-6.028921504209e+01 1.186156806867e+01 0.0 
1.186156806867e+01 -7.632555532150e+01 0.0 
0.0 0.0 -4.058443110908e+01 
-5.336171864637e+01 4.631546603719e+00 0.0 
4.631546603719e+00 -7.200032706911e+01 0.0 
0.0 0.0 -3.720861371464e+01 
-4.757389929372e+01 2.842234197292e+00 0.0 
2.842234197292e+00 -6.191263465094e+01 0.0 
0.0 0.0 -3.244596018340e+01 
-2.460162410650e+01 -1.282841822641e+00 0.0 
-1.282841822641e+00 -6.892101773801e+01 0.0 
0.0 0.0 -2.765679255335e+01 
-2.563539285761e+01 -3.255567745855e+00 0.0 
-3.255567745855e+00 -6.625215653442e+01 0.0 
0.0 0.0 -2.716626481761e+01 
-7.535174399036e+01 1.102203324757e+01 0.0 
1.102203324757e+01 -1.356006635055e+02 0.0 
0.0 0.0 -6.288572224875e+01 
-3.350172765418e+01 1.038358156726e+01 0.0 
1.038358156726e+01 -1.011478610991e+02 0.0 
0.0 0.0 -3.999487662599e+01 
-3.137925706798e+01 1.202713494009e+01 0.0 
1.202713494009e+01 -8.828008846421e+01 0.0 
0.0 0.0 -3.549780365966e+01 
-2.419767686625e+01 1.971846358879e+00 0.0 
1.971846358879e+00 -5.979788921973e+01 0.0 
0.0 0.0 -2.479866982579e+01 
-2.293256456109e+01 2.945197779464e-01 0.0 
2.945197779464e-01 -5.154045270853e+01 0.0 
0.0 0.0 -2.194190518088e+01 
-5.950794979595e+01 2.028445237020e+00 0.0 
2.028445237020e+00 -1.064033535439e+02 0.0 
0.0 0.0 -4.937339100195e+01 
-6.620677159091e+01 2.772322397380e+00 0.0 
2.772322397380e+00 -1.268199340716e+02 0.0 
0.0 0.0 -5.750801169876e+01 
-7.667609109171e+01 1.066866626016e-01 0.0 
1.066866626016e-01 -2.109330140040e+02 0.0 
0.0 0.0 -8.588273152870e+01 
-8.060582281613e+01 2.784712388734e-01 0.0 
2.784712388734e-01 -2.196553510488e+02 0.0 
0.0 0.0 -8.967835215948e+01 
-1.182774691683e+02 1.121396810106e+01 0.0 
1.121396810106e+01 -3.083709084625e+02 0.0 
0.0 0.0 -1.275945132892e+02 
-2.981603553582e+01 -3.188694743458e+00 0.0 
-3.188694743458e+00 -8.280391661482e+01 0.0 
0.0 0.0 -3.338598564519e+01 
-6.985200233414e+01 4.074590451886e+00 0.0 
4.074590451886e+00 -1.368370686722e+02 0.0 
0.0 0.0 -6.160672130190e+01 
-9.685516749194e+01 1.055135871256e+01 0.0 
1.055135871256e+01 -2.688799484402e+02 0.0 
0.0 0.0 -1.093205347796e+02 
-8.782318442573e+01 9.095864177653e+00 0.0 
9.095864177653e+00 -2.505689530828e+02 0.0 
0.0 0.0 -1.011176412526e+02 
-6.858527070818e+01 -4.126802300454e-01 0.0 
-4.126802300454e-01 -1.891477925661e+02 0.0 
0.0 0.0 -7.691991898228e+01 
-2.681626072791e+01 9.922416336429e+00 0.0 
9.922416336429e+00 -6.787897238425e+01 0.0 
0.0 0.0 -2.800856993365e+01 
-2.541903388640e+01 7.863936432413e+00 0.0 
7.863936432413e+00 -6.325029352389e+01 0.0 
0.0 0.0 -2.620079822309e+01 
-4.360376916537e+01 -1.369307580035e+00 0.0 
-1.369307580035e+00 -1.334097852182e+02 0.0 
0.0 0.0 -5.270406631507e+01 
-3.545989533795e+01 -3.001136181022e+00 0.0 
-3.001136181022e+00 -1.023103758207e+02 0.0 
0.0 0.0 -4.093108134758e+01 
-3.512632789010e+01 -1.023691195487e+00 0.0 
-1.023691195487e+00 -9.892882765456e+01 0.0 
0.0 0.0 -3.981654666340e+01 
-1.287795071193e+02 1.251278884273e+01 0.0 
1.251278884273e+01 -3.266863382846e+02 0.0 
0.0 0.0 -1.362397536212e+02 
-7.954744092487e+01 1.367164223589e+01 0.0 
1.367164223589e+01 -1.473181522169e+02 0.0 
0.0 0.0 -6.765967794252e+01 
-9.726191763046e+01 2.458491804341e+01 0.0 
2.458491804341e+01 -2.553115893949e+02 0.0 
0.0 0.0 -1.053720521076e+02 
-8.813204507294e+01 2.310607992485e+01 0.0 
2.310607992485e+01 -2.370283246486e+02 0.0 
0.0 0.0 -9.714811091647e+01 
-1.068871840129e+02 2.620282159629e+01 0.0 
2.620282159629e+01 -2.736939585960e+02 0.0 
0.0 0.0 -1.137743427827e+02 
-2.467142930680e+01 -3.093749881827e+00 0.0 
-3.093749881827e+00 -6.332845345566e+01 0.0 
0.0 0.0 -2.599996482874e+01 
-1.297182266158e+02 1.018608782283e+01 0.0 
1.018608782283e+01 -3.280115267387e+02 0.0 
0.0 0.0 -1.369189260063e+02 
-1.198012883193e+02 1.562373096976e+00 0.0 
1.562373096976e+00 -3.041782218615e+02 0.0 
0.0 0.0 -1.267938530542e+02 
-1.021784229806e+02 2.988392338761e+01 0.0 
2.988392338761e+01 -2.502525392353e+02 0.0 
0.0 0.0 -1.053292886648e+02 
-9.722636937977e+01 2.974157131079e+01 0.0 
2.974157131079e+01 -2.352247795561e+02 0.0 
0.0 0.0 -9.933534468075e+01 
-3.526448226035e+01 1.238989876840e+01 0.0 
1.238989876840e+01 -1.051601858375e+02 0.0 
0.0 0.0 -4.172740042937e+01 
-3.309872565476e+01 1.394113014686e+01 0.0 
1.394113014686e+01 -9.181419001244e+01 0.0 
0.0 0.0 -3.707387470016e+01 
-2.972831963612e+01 1.375176104371e+01 0.0 
1.375176104371e+01 -7.484164199683e+01 0.0 
0.0 0.0 -3.097098848989e+01 
-3.129173636247e+01 1.541663309261e+01 0.0 
1.541663309261e+01 -7.768664681122e+01 0.0 
0.0 0.0 -3.229351495211e+01 
-5.696060615417e+01 2.453616309903e+01 0.0 
2.453616309903e+01 -9.293864963675e+01 0.0 
0.0 0.0 -4.456977673728e+01 
-3.724114578073e+01 1.435268833048e+01 0.0 
1.435268833048e+01 -1.089355084940e+02 0.0 
0.0 0.0 -4.345299628243e+01 
-5.422069514651e+01 2.543869843395e+01 0.0 
2.543869843395e+01 -1.089415039310e+02 0.0 
0.0 0.0 -4.854865972326e+01 
-5.044490597126e+01 2.493918866497e+01 0.0 
2.493918866497e+01 -9.068066213660e+01 0.0 
0.0 0.0 -4.193767043236e+01 
-4.751291712520e+01 2.454363693139e+01 0.0 
2.454363693139e+01 -8.997378426259e+01 0.0 
0.0 0.0 -4.084601041634e+01 
-4.339944218417e+01 2.165806093052e+01 0.0 
2.165806093052e+01 -1.042236896813e+02 0.0 
0.0 0.0 -4.388693955964e+01 
-4.037198955896e+01 2.198645887859e+01 0.0 
2.198645887859e+01 -8.738825043197e+01 0.0 
0.0 0.0 -3.792807199728e+01 
-4.097241107630e+01 9.683325275394e+00 0.0 
9.683325275394e+00 -1.307751971889e+02 0.0 
0.0 0.0 -5.112428247956e+01 
-7.136740834713e+01 1.326069800598e+01 0.0 
1.326069800598e+01 -2.133923968971e+02 0.0 
0.0 0.0 -8.502794157326e+01 
-7.268947634992e+01 -8.061671744406e-02 0.0 
-8.061671744406e-02 -2.022638502434e+02 0.0 
0.0 0.0 -8.208599797801e+01 
-9.299494029291e+01 1.867830071620e+00 0.0 
1.867830071620e+00 -2.509197974739e+02 0.0 
0.0 0.0 -1.027744213301e+02 
-8.234848846432e+01 4.112595204862e+00 0.0 
4.112595204862e+00 -2.348461517776e+02 0.0 
0.0 0.0 -9.475839207257e+01 
-7.281171738963e+01 8.233339686843e+00 0.0 
8.233339686843e+00 -1.347149140027e+02 0.0 
0.0 0.0 -6.185798941768e+01 
-7.476353273118e+01 7.838637589830e+00 0.0 
7.838637589830e+00 -1.455519980924e+02 0.0 
0.0 0.0 -6.569465924707e+01 
-4.597110912753e+01 1.858124618255e+00 0.0 
1.858124618255e+00 -6.329722513900e+01 0.0 
0.0 0.0 -3.238050027996e+01 
-4.125340466950e+01 1.084220582906e+00 0.0 
1.084220582906e+00 -5.404124347174e+01 0.0 
0.0 0.0 -2.818839444237e+01 
-2.731159256291e+01 -2.470772946341e+00 0.0 
-2.470772946341e+00 -7.574268560311e+01 0.0 
0.0 0.0 -3.051628344981e+01 
-2.477951704463e+01 -2.665728070847e+00 0.0 
-2.665728070847e+00 -6.732299291590e+01 0.0 
0.0 0.0 -2.723075298816e+01 
-7.975181417818e+01 1.791566767828e+00 0.0 
1.791566767828e+00 -2.245657234901e+02 0.0 
0.0 0.0 -9.089526130049e+01 
-1.246670331487e+02 8.562761459795e+00 0.0 
8.562761459795e+00 -3.186741721299e+02 0.0 
0.0 0.0 -1.326023615836e+02 
-8.218090189376e+01 1.731302646380e+01 0.0 
1.731302646380e+01 -1.510358921326e+02 0.0 
0.0 0.0 -6.956503820790e+01 
-8.612941698773e+01 2.032763971442e+01 0.0 
2.032763971442e+01 -1.652027131100e+02 0.0 
0.0 0.0 -7.499963902932e+01 
-8.484601793277e+01 2.134166557531e+01 0.0 
2.134166557531e+01 -1.581759981471e+02 0.0 
0.0 0.0 -7.250660482396e+01 
-1.228108510857e+02 1.306717884947e+01 0.0 
1.306717884947e+01 -3.164325992267e+02 0.0 
0.0 0.0 -1.313730350937e+02 
-4.559668570462e+01 5.496097045252e+00 0.0 
5.496097045252e+00 -1.474529507889e+02 0.0 
0.0 0.0 -5.751489094806e+01 
-7.780735477433e+01 1.000523515743e+01 0.0 
1.000523515743e+01 -2.296037192337e+02 0.0 
0.0 0.0 -9.182332220242e+01 
-2.447381168170e+01 -7.399335596399e-01 0.0 
-7.399335596399e-01 -6.072142554045e+01 0.0 
0.0 0.0 -2.515857116664e+01 
-7.162982973242e+01 2.064452317951e+01 0.0 
2.064452317951e+01 -2.010696262549e+02 0.0 
0.0 0.0 -8.140983679619e+01 
-2.102530601311e+01 -2.222699149360e+00 0.0 
-2.222699149360e+00 -5.616915469289e+01 0.0 
0.0 0.0 -2.275833821180e+01 
-7.995862176345e+01 2.806155746611e+01 0.0 
2.806155746611e+01 -1.836749877456e+02 0.0 
0.0 0.0 -7.869008285272e+01 
-1.295539047506e+02 1.817336840512e+00 0.0 
1.817336840512e+00 -3.231074228307e+02 0.0 
0.0 0.0 -1.353983982744e+02 
-1.347290716801e+02 2.618443116137e+00 0.0 
2.618443116137e+00 -3.332156385701e+02 0.0 
0.0 0.0 -1.399834130750e+02 
-1.157345686548e+02 2.362127296133e+01 0.0 
2.362127296133e+01 -2.967703610662e+02 0.0 
0.0 0.0 -1.233514789163e+02 
-4.635597746957e+01 2.189006936039e+01 0.0 
2.189006936039e+01 -5.376041829693e+01 0.0 
0.0 0.0 -2.963491872995e+01 
-7.619813295700e+01 1.995153664964e+01 0.0 
1.995153664964e+01 -2.149317980301e+02 0.0 
0.0 0.0 -8.693897929613e+01 
-7.289319465789e+01 1.799784220207e+01 0.0 
1.799784220207e+01 -2.106505340118e+02 0.0 
0.0 0.0 -8.466311860090e+01 
-4.372166870628e+01 2.390100408126e+01 0.0 
2.390100408126e+01 -7.162003249456e+01 0.0 
0.0 0.0 -3.420251036025e+01 
-4.129052710868e+01 2.342963728762e+01 0.0 
2.342963728762e+01 -7.109465590453e+01 0.0 
0.0 0.0 -3.331555490396e+01 
-4.486988095035e+01 2.385148298194e+01 0.0 
2.385148298194e+01 -8.917312450942e+01 0.0 
0.0 0.0 -3.981290163793e+01 
-3.929204590488e+01 2.277975466252e+01 0.0 
2.277975466252e+01 -7.060502791482e+01 0.0 
0.0 0.0 -3.256912214591e+01 
-4.692490312189e+01 -1.371262712118e+00 0.0 
-1.371262712118e+00 -1.421956398017e+02 0.0 
0.0 0.0 -5.633616287708e+01 
-4.417684345074e+01 -2.075444715871e+00 0.0 
-2.075444715871e+00 -1.320010544937e+02 0.0 
0.0 0.0 -5.245336938333e+01 
-1.088384054926e+02 3.034882838039e+01 0.0 
3.034882838039e+01 -2.676701261478e+02 0.0 
0.0 0.0 -1.125525594921e+02 
-1.102800740315e+02 2.815460113025e+01 0.0 
2.815460113025e+01 -2.773095455220e+02 0.0 
0.0 0.0 -1.158768858661e+02 
-1.054426156809e+02 3.151106707209e+01 0.0 
3.151106707209e+01 -2.535920672499e+02 0.0 
0.0 0.0 -1.073104048792e+02 
-1.007429303676e+02 3.110723629368e+01 0.0 
3.110723629368e+01 -2.385321572681e+02 0.0 
0.0 0.0 -1.013825262907e+02 
-1.221975601297e+02 2.315949200722e+01 0.0 
2.315949200722e+01 -3.094703823513e+02 0.0 
0.0 0.0 -1.291003827443e+02 
-1.176413948250e+02 2.089245565503e+01 0.0 
2.089245565503e+01 -3.035602476497e+02 0.0 
0.0 0.0 -1.259604927424e+02 
-4.196276355966e+01 -9.178856552245e-01 0.0 
-9.178856552245e-01 -1.182820096555e+02 0.0 
0.0 0.0 -4.767343196453e+01 
-3.585514310965e+01 2.112628798792e+01 0.0 
2.112628798792e+01 -6.931236017156e+01 0.0 
0.0 0.0 -3.115025098436e+01 
-8.096209018107e+01 1.297785015155e+01 0.0 
1.297785015155e+01 -1.569932174394e+02 0.0 
0.0 0.0 -7.098659228613e+01 
-4.656910526946e+01 2.404461665661e+01 0.0 
2.404461665661e+01 -7.195499980035e+01 0.0 
0.0 0.0 -3.515723152094e+01 
-1.351315099840e+02 9.559633466559e+00 0.0 
9.559633466559e+00 -3.368843068202e+02 0.0 
0.0 0.0 -1.412047450412e+02 
-1.300913872438e+02 8.071068265018e+00 0.0 
8.071068265018e+00 -3.278770693049e+02 0.0 
0.0 0.0 -1.369905369646e+02 
-2.201702354301e+01 -8.390304171428e-01 0.0 
-8.390304171428e-01 -4.259934499444e+01 0.0 
0.0 0.0 -1.898491056124e+01 
-2.292923835511e+01 -1.821839840979e+00 0.0 
-1.821839840979e+00 -5.080261245051e+01 0.0 
0.0 0.0 -2.171955524169e+01 
-7.255838441094e+01 3.542364463701e+00 0.0 
3.542364463701e+00 -1.478034844812e+02 0.0 
0.0 0.0 -6.570856066763e+01 
-2.865900043469e+01 1.540026228600e+01 0.0 
1.540026228600e+01 -6.062844878875e+01 0.0 
0.0 0.0 -2.638623476703e+01 
-2.986415890535e+01 1.669975150675e+01 0.0 
1.669975150675e+01 -6.236845379111e+01 0.0 
0.0 0.0 -2.726978380894e+01 
-2.725729794913e+01 1.384765047375e+01 0.0 
1.384765047375e+01 -5.832923124927e+01 0.0 
0.0 0.0 -2.527595875952e+01 
-1.505040508409e+02 7.301718309803e-01 0.0 
7.301718309803e-01 -3.615644121449e+02 0.0 
0.0 0.0 -1.532205388957e+02 
-2.346477251474e+01 1.220780076896e-01 0.0 
1.220780076896e-01 -1.584835988747e+01 0.0 
0.0 0.0 -1.139393972066e+01 
-1.396392167276e+02 2.038877407912e+00 0.0 
2.038877407912e+00 -3.419186327368e+02 0.0 
0.0 0.0 -1.440673548393e+02 
-4.581936264653e+01 2.287565180409e+01 0.0 
2.287565180409e+01 -1.056108344129e+02 0.0 
0.0 0.0 -4.502905911784e+01 
-7.604807857001e+01 4.971798509709e+00 0.0 
4.971798509709e+00 -1.580475498695e+02 0.0 
0.0 0.0 -6.982868853186e+01 
-8.107943592833e+01 1.930523096107e+01 0.0 
1.930523096107e+01 -2.284788849894e+02 0.0 
0.0 0.0 -9.246749627533e+01 
-4.472622929832e+01 1.691241595162e+01 0.0 
1.691241595162e+01 -1.304042738526e+02 0.0 
0.0 0.0 -5.213915094527e+01 
-1.124969561282e+02 1.168248849044e+01 0.0 
1.168248849044e+01 -2.981859097161e+02 0.0 
0.0 0.0 -1.228048597533e+02 
-6.883014140116e+01 2.287448576254e+00 0.0 
2.287448576254e+00 -1.366561901292e+02 0.0 
0.0 0.0 -6.124589945910e+01 
-7.528476791312e+01 2.790374227203e+00 0.0 
2.790374227203e+00 -1.593041247565e+02 0.0 
0.0 0.0 -6.997666780088e+01 
-4.394568106050e+01 2.612921844782e+00 0.0 
2.612921844782e+00 -5.132619189627e+01 0.0 
0.0 0.0 -2.818156188703e+01 
-3.785049189352e+01 1.405881241097e+00 0.0 
1.405881241097e+00 -4.117588981323e+01 0.0 
0.0 0.0 -2.330791451203e+01 
-4.993843611877e+01 4.587353756514e+00 0.0 
4.587353756514e+00 -6.100650848124e+01 0.0 
0.0 0.0 -3.288348338000e+01 
-2.539376703946e+01 3.825986438486e+00 0.0 
3.825986438486e+00 -6.721281194787e+01 0.0 
0.0 0.0 -2.738197369620e+01 
-2.246960586539e+01 3.969756612014e+00 0.0 
3.969756612014e+00 -4.831497322793e+01 0.0 
0.0 0.0 -2.083537372800e+01 
-7.091223633549e+01 5.972361296367e+00 0.0 
5.972361296367e+00 -1.353596535884e+02 0.0 
0.0 0.0 -6.148156697716e+01 
-5.009569251321e+01 -1.264945994796e+00 0.0 
-1.264945994796e+00 -1.413782998310e+02 0.0 
0.0 0.0 -5.704219770326e+01 
-5.409330615588e+01 -9.550633045689e-01 0.0 
-9.550633045689e-01 -1.520915432659e+02 0.0 
0.0 0.0 -6.145545482655e+01 
-3.215372661217e+01 -3.074836148705e+00 0.0 
-3.074836148705e+00 -9.083009540034e+01 0.0 
0.0 0.0 -3.649514660375e+01 
-3.810072207069e+01 -2.829799014878e+00 0.0 
-2.829799014878e+00 -1.102651627542e+02 0.0 
0.0 0.0 -4.410976544747e+01 
-8.065671158935e+01 5.497206626017e-01 0.0 
5.497206626017e-01 -2.215465063427e+02 0.0 
0.0 0.0 -9.026096537961e+01 
-7.655071932205e+01 4.130403197412e-01 0.0 
4.130403197412e-01 -2.128751651762e+02 0.0 
0.0 0.0 -8.642776534949e+01 
-8.434507583625e+01 2.825961032532e+01 0.0 
2.825961032532e+01 -2.003537891808e+02 0.0 
0.0 0.0 -8.500965950512e+01 
-8.766240832768e+01 2.914221653874e+01 0.0 
2.914221653874e+01 -2.029034829535e+02 0.0 
0.0 0.0 -8.676976738435e+01 
-7.741043133129e+01 2.598526528028e+01 0.0 
2.598526528028e+01 -1.952304589376e+02 0.0 
0.0 0.0 -8.139226708066e+01 
-9.304085605491e+01 8.741165599934e+00 0.0 
8.741165599934e+00 -2.607849622346e+02 0.0 
0.0 0.0 -1.057477454869e+02 
-8.427558056046e+01 7.333447959154e+00 0.0 
7.333447959154e+00 -2.423957462827e+02 0.0 
0.0 0.0 -9.760139805293e+01 
-7.936336714151e+01 7.680723335051e+00 0.0 
7.680723335051e+00 -2.323707543845e+02 0.0 
0.0 0.0 -9.312023645780e+01 
-7.811852812297e+01 9.871625507921e+00 0.0 
9.871625507921e+00 -1.554010709636e+02 0.0 
0.0 0.0 -6.965587972597e+01 
-8.054129089444e+01 9.281686557338e+00 0.0 
9.281686557338e+00 -1.686893104599e+02 0.0 
0.0 0.0 -7.436918040630e+01 
-4.952213723122e+01 -4.175907052155e-01 0.0 
-4.175907052155e-01 -1.518880695444e+02 0.0 
0.0 0.0 -6.002306203270e+01 
-4.601271170352e+01 -3.071265898171e-01 0.0 
-3.071265898171e-01 -1.428970260527e+02 0.0 
0.0 0.0 -5.627292132688e+01 
-5.028100688997e+01 -1.302296343583e+00 0.0 
-1.302296343583e+00 -1.506511778319e+02 0.0 
0.0 0.0 -5.987965541656e+01 
-8.463756308394e+01 1.564917124649e+01 0.0 
1.564917124649e+01 -1.689657775865e+02 0.0 
0.0 0.0 -7.568100220113e+01 
-1.446967924192e+02 2.860822767939e+00 0.0 
2.860822767939e+00 -3.516238923238e+02 0.0 
0.0 0.0 -1.484962054229e+02 
-1.399565102184e+02 3.546345531885e+00 0.0 
3.546345531885e+00 -3.431551371609e+02 0.0 
0.0 0.0 -1.445334942138e+02 
-1.887916086967e+01 -2.250347944173e+00 0.0 
-2.250347944173e+00 -4.795128611406e+01 0.0 
0.0 0.0 -1.964913409512e+01 
-2.232222305302e+01 -2.694884297256e+00 0.0 
-2.694884297256e+00 -5.872935252212e+01 0.0 
0.0 0.0 -2.391547267254e+01 
-2.457618703609e+01 1.017320512574e+01 0.0 
1.017320512574e+01 -5.197944611594e+01 0.0 
0.0 0.0 -2.256668994561e+01 
-2.326867985724e+01 8.123694556990e+00 0.0 
8.123694556990e+00 -4.777704469293e+01 0.0 
0.0 0.0 -2.091371736505e+01 
-8.960135575687e+01 2.316489773245e+01 0.0 
2.316489773245e+01 -1.795767131483e+02 0.0 
0.0 0.0 -8.035342067154e+01 
-8.878791019543e+01 2.418414398486e+01 0.0 
2.418414398486e+01 -1.739726191549e+02 0.0 
0.0 0.0 -7.842815880511e+01 
-9.107564777743e+01 2.246914556079e+01 0.0 
2.246914556079e+01 -1.885611952541e+02 0.0 
0.0 0.0 -8.349105290946e+01 
-3.757959300461e+01 -7.254825418433e-01 0.0 
-7.254825418433e-01 -1.057207881842e+02 0.0 
0.0 0.0 -4.259011435664e+01 
-9.347902668384e+01 2.263685045590e+01 0.0 
2.263685045590e+01 -2.509943757107e+02 0.0 
0.0 0.0 -1.029420207184e+02 
-1.332050321532e+02 1.443992910690e+01 0.0 
1.443992910690e+01 -3.337341945044e+02 0.0 
0.0 0.0 -1.396817679973e+02 
-1.269070968894e+02 1.505304938694e+01 0.0 
1.505304938694e+01 -3.234124067510e+02 0.0 
0.0 0.0 -1.346958510921e+02 
-1.406573818301e+02 1.394313112214e+01 0.0 
1.394313112214e+01 -3.461853351397e+02 0.0 
0.0 0.0 -1.456528150909e+02 
-1.093730959934e+02 2.403889461107e+01 0.0 
2.403889461107e+01 -2.835148952933e+02 0.0 
0.0 0.0 -1.174663973860e+02 
-1.195913605269e+02 2.566867894741e+01 0.0 
2.566867894741e+01 -3.012725287235e+02 0.0 
0.0 0.0 -1.258591667751e+02 
-1.168918803630e+02 2.792614777788e+01 0.0 
2.792614777788e+01 -2.916507491919e+02 0.0 
0.0 0.0 -1.221627888665e+02 
-2.068910960773e+01 1.574028857625e-01 0.0 
1.574028857625e-01 -3.421815169439e+01 0.0 
0.0 0.0 -1.607217839064e+01 
-7.284823142648e+01 1.830518837321e+00 0.0 
1.830518837321e+00 -1.518769921000e+02 0.0 
0.0 0.0 -6.701756705793e+01 
-3.669745638030e+01 8.091340407465e-01 0.0 
8.091340407465e-01 -4.239469915300e+01 0.0 
0.0 0.0 -2.332764665999e+01 
-2.077446295679e+01 -5.667498440801e-01 0.0 
-5.667498440801e-01 -2.725019963026e+01 0.0 
0.0 0.0 -1.414778956707e+01 
-3.208100326062e+01 3.508573516418e-01 0.0 
3.508573516418e-01 -3.349302242091e+01 0.0 
0.0 0.0 -1.927220770446e+01 
-3.661520110949e+01 5.820236301554e-01 0.0 
5.820236301554e-01 -4.482080719808e+01 0.0 
0.0 0.0 -2.403080249227e+01 
-2.723081040937e+01 1.401130860228e-01 0.0 
1.401130860228e-01 -2.348472820360e+01 0.0 
0.0 0.0 -1.481466158389e+01 
-3.058184487189e+01 -7.384756180585e-01 0.0 
-7.384756180585e-01 -8.623217812880e+01 0.0 
0.0 0.0 -3.464420690021e+01 
-3.815349216146e+01 2.252456751516e+00 0.0 
2.252456751516e+00 -3.711518308421e+01 0.0 
0.0 0.0 -2.218060257370e+01 
-4.662042124637e+01 4.907954597398e+00 0.0 
4.907954597398e+00 -5.060542843023e+01 0.0 
0.0 0.0 -2.876775490298e+01 
-1.593383086480e+01 -2.150753641384e+00 0.0 
-2.150753641384e+00 -3.623313207941e+01 0.0 
0.0 0.0 -1.536070214204e+01 
-8.508111793026e+01 1.457911855838e+01 0.0 
1.457911855838e+01 -1.780229633950e+02 0.0 
0.0 0.0 -7.853122439756e+01 
-1.499763845576e+01 -1.744579120079e+00 0.0 
-1.744579120079e+00 -3.767641297185e+01 0.0 
0.0 0.0 -1.540078457114e+01 
-1.735518166029e+01 -1.686284019110e+00 0.0 
-1.686284019110e+00 -4.564389343239e+01 0.0 
0.0 0.0 -1.849972252781e+01 
-1.406367221691e+02 8.924716716078e+00 0.0 
8.924716716078e+00 -3.461905780316e+02 0.0 
0.0 0.0 -1.456481900602e+02 
-1.353759647177e+02 7.514045863460e+00 0.0 
7.514045863460e+00 -3.368092956176e+02 0.0 
0.0 0.0 -1.412555781006e+02 
-1.456430059480e+02 8.275434983379e+00 0.0 
8.275434983379e+00 -3.545377688569e+02 0.0 
0.0 0.0 -1.496542324415e+02 
-1.403159131476e+02 6.890132438018e+00 0.0 
6.890132438018e+00 -3.449887781734e+02 0.0 
0.0 0.0 -1.451914073963e+02 
-1.302850827505e+02 6.241700849859e+00 0.0 
6.241700849859e+00 -3.271917337684e+02 0.0 
0.0 0.0 -1.368430449557e+02 
-1.355260621750e+02 5.725631247944e+00 0.0 
5.725631247944e+00 -3.362312470695e+02 0.0 
0.0 0.0 -1.411271927734e+02 
-3.198247381647e+01 6.029120933896e-01 0.0 
6.029120933896e-01 -3.126057158763e+01 0.0 
0.0 0.0 -1.857291362123e+01 
-1.470827627661e+02 6.455908988441e+00 0.0 
6.455908988441e+00 -3.564699464059e+02 0.0 
0.0 0.0 -1.506658127516e+02 
-1.409496652358e+02 5.135010956256e+00 0.0 
5.135010956256e+00 -3.454068519689e+02 0.0 
0.0 0.0 -1.455069551614e+02 
-1.522243182983e+02 5.705574218423e+00 0.0 
5.705574218423e+00 -3.657060075996e+02 0.0 
0.0 0.0 -1.549790977693e+02 
-3.586658391997e+01 2.205432336832e+01 0.0 
2.205432336832e+01 -5.213888118835e+01 0.0 
0.0 0.0 -2.600163953250e+01 
-3.284250200194e+01 1.699341680852e+01 0.0 
1.699341680852e+01 -7.987333114358e+01 0.0 
0.0 0.0 -3.341474994366e+01 
-3.109873171748e+01 1.788333493658e+01 0.0 
1.788333493658e+01 -6.411415565821e+01 0.0 
0.0 0.0 -2.816386621271e+01 
-2.887702967361e+01 1.786663880057e+01 0.0 
1.786663880057e+01 -4.522068527547e+01 0.0 
0.0 0.0 -2.182931448472e+01 
-1.098709123824e+02 3.331350031685e+01 0.0 
3.331350031685e+01 -2.597035489128e+02 0.0 
0.0 0.0 -1.104723383886e+02 
-1.031120217116e+02 3.205928158041e+01 0.0 
3.205928158041e+01 -2.404555445577e+02 0.0 
0.0 0.0 -1.026702698808e+02 
-1.245723464474e+02 1.122977268343e+00 0.0 
1.122977268343e+00 -3.132651685808e+02 0.0 
0.0 0.0 -1.309512545085e+02 
-1.149954847462e+02 9.086274553255e-01 0.0 
9.086274553255e-01 -2.941440853771e+02 0.0 
0.0 0.0 -1.223418710370e+02 
-3.170844241729e+01 2.209479952326e-01 0.0 
2.209479952326e-01 -3.460731794260e+01 0.0 
0.0 0.0 -1.949472810797e+01 
-3.096294192177e+01 1.985713643477e-01 0.0 
1.985713643477e-01 -3.356646657843e+01 0.0 
0.0 0.0 -1.895882255006e+01 
-3.850266610784e+01 3.539494953462e-01 0.0 
3.539494953462e-01 -5.141573173571e+01 0.0 
0.0 0.0 -2.657551935306e+01 
-3.717052383125e+01 3.474753780312e-01 0.0 
3.474753780312e-01 -4.897013399903e+01 0.0 
0.0 0.0 -2.544219734908e+01 
-4.445673716010e+01 5.665774945755e-01 0.0 
5.665774945755e-01 -6.700328852767e+01 0.0 
0.0 0.0 -3.303800770633e+01 
-4.316181897803e+01 4.768426900813e-01 0.0 
4.768426900813e-01 -6.426629729530e+01 0.0 
0.0 0.0 -3.182843488200e+01 
-5.039935818934e+01 9.740982316113e-01 0.0 
9.740982316113e-01 -8.276717598101e+01 0.0 
0.0 0.0 -3.954996025110e+01 
-1.203933251089e+02 3.030441876263e+01 0.0 
3.030441876263e+01 -2.951968474841e+02 0.0 
0.0 0.0 -1.242770517779e+02 
-2.684362048415e+01 1.567281942401e+01 0.0 
1.567281942401e+01 -4.398582723515e+01 0.0 
0.0 0.0 -2.084883431579e+01 
-3.972658734666e+01 2.285796812767e+01 0.0 
2.285796812767e+01 -5.259081103023e+01 0.0 
0.0 0.0 -2.729521951307e+01 
-1.284770355160e+02 2.258060281752e+01 0.0 
2.258060281752e+01 -3.214348140578e+02 0.0 
0.0 0.0 -1.345735548721e+02 
-1.229996349420e+02 2.019669734981e+01 0.0 
2.019669734981e+01 -3.139021496278e+02 0.0 
0.0 0.0 -1.306705353709e+02 
-3.739956555372e+01 2.193187035387e+01 0.0 
2.193187035387e+01 -6.990990256895e+01 0.0 
0.0 0.0 -3.179284043680e+01 
-3.328414765619e+01 2.083945082989e+01 0.0 
2.083945082989e+01 -5.129855385430e+01 0.0 
0.0 0.0 -2.497481045315e+01 
-1.418033865594e+02 1.124948127013e+01 0.0 
1.124948127013e+01 -3.484135545025e+02 0.0 
0.0 0.0 -1.466650823186e+02 
-3.992603922816e+01 1.301472757742e+01 0.0 
1.301472757742e+01 -1.223494658018e+02 0.0 
0.0 0.0 -4.828265150898e+01 
-8.875374359075e+01 1.770354803377e+01 0.0 
1.770354803377e+01 -1.933558040427e+02 0.0 
0.0 0.0 -8.423286429004e+01 
-1.842740418688e+01 3.839198890957e+00 0.0 
3.839198890957e+00 -1.344568304232e+01 0.0 
0.0 0.0 -9.523631747861e+00 
-2.039525110582e+01 3.340411077484e+00 0.0 
3.340411077484e+00 -2.950467338885e+01 0.0 
0.0 0.0 -1.468227200324e+01 
-4.217611248164e+01 1.498339234727e+01 0.0 
1.498339234727e+01 -1.263627720403e+02 0.0 
0.0 0.0 -5.016166535659e+01 
-4.256404804384e+01 2.300342069680e+01 0.0 
2.300342069680e+01 -8.835750845627e+01 0.0 
0.0 0.0 -3.887646695003e+01 
-3.454718407708e+01 1.832563765742e+01 0.0 
1.832563765742e+01 -8.194448310558e+01 0.0 
0.0 0.0 -3.454750015480e+01 
-3.286376522876e+01 1.919867537936e+01 0.0 
1.919867537936e+01 -6.650079174895e+01 0.0 
0.0 0.0 -2.940936709331e+01 
-1.024142003281e+02 1.019940587238e+01 0.0 
1.019940587238e+01 -2.793985775025e+02 0.0 
0.0 0.0 -1.141438333492e+02 
-2.066855989692e+01 -2.788525653665e+00 0.0 
-2.788525653665e+00 -5.099681592529e+01 0.0 
0.0 0.0 -2.109961274667e+01 
-2.598850718536e+01 1.213553929709e+01 0.0 
1.213553929709e+01 -5.560996513179e+01 0.0 
0.0 0.0 -2.407954169515e+01 
-5.183704048959e+01 1.233267280963e+00 0.0 
1.233267280963e+00 -8.506531467257e+01 0.0 
0.0 0.0 -4.067070654865e+01 
-2.444473735183e+01 1.271938025573e+01 0.0 
1.271938025573e+01 -3.988514604766e+01 0.0 
0.0 0.0 -1.889896501985e+01 
-1.201404550447e+02 5.016342703490e-01 0.0 
5.016342703490e-01 -3.042567326817e+02 0.0 
0.0 0.0 -1.269191563179e+02 
-4.313750885772e+01 1.178593119896e+01 0.0 
1.178593119896e+01 -1.356811396669e+02 0.0 
0.0 0.0 -5.324559455738e+01 
-4.915415951397e+01 2.246957484347e+01 0.0 
2.246957484347e+01 -1.223037367888e+02 0.0 
0.0 0.0 -5.103736889083e+01 
-2.824302341378e+01 1.190804332325e+01 0.0 
1.190804332325e+01 -7.168488534971e+01 0.0 
0.0 0.0 -2.957837262905e+01 
-3.504292552052e+01 1.578392058191e+01 0.0 
1.578392058191e+01 -9.525075297500e+01 0.0 
0.0 0.0 -3.868810354866e+01 
-6.085553580095e+01 2.570903520536e+01 0.0 
2.570903520536e+01 -1.115761137098e+02 0.0 
0.0 0.0 -5.132949485322e+01 
-5.297782450595e+01 2.282538995854e+01 0.0 
2.282538995854e+01 -7.395110055123e+01 0.0 
0.0 0.0 -3.767867751715e+01 
-4.989408288632e+01 2.368735618283e+01 0.0 
2.368735618283e+01 -7.277092324376e+01 0.0 
0.0 0.0 -3.639950183902e+01 
-4.657727908693e+01 1.060525480274e+01 0.0 
1.060525480274e+01 -1.482890186011e+02 0.0 
0.0 0.0 -5.805988930641e+01 
-3.420712430696e+01 2.014824213139e+01 0.0 
2.014824213139e+01 -6.800265898031e+01 0.0 
0.0 0.0 -3.026293498618e+01 
-3.081898264146e+01 1.951720082973e+01 0.0 
1.951720082973e+01 -4.761980814236e+01 0.0 
0.0 0.0 -2.313163723514e+01 
-5.795578645681e+01 2.562450422649e+01 0.0 
2.562450422649e+01 -1.267019547453e+02 0.0 
0.0 0.0 -5.499732236063e+01 
-8.311201650247e+01 2.236508141429e+01 0.0 
2.236508141429e+01 -1.519686096495e+02 0.0 
0.0 0.0 -7.012418784559e+01 
-8.688920894814e+01 2.491812910435e+01 0.0 
2.491812910435e+01 -1.681447736348e+02 0.0 
0.0 0.0 -7.611019477487e+01 
-9.229133366770e+01 2.663085519074e+01 0.0 
2.663085519074e+01 -1.892716037666e+02 0.0 
0.0 0.0 -8.406888123030e+01 
-9.080938967844e+01 2.721631794751e+01 0.0 
2.721631794751e+01 -1.847284425280e+02 0.0 
0.0 0.0 -8.226134966194e+01 
-8.475885800008e+01 2.574505910336e+01 0.0 
2.574505910336e+01 -1.633764760989e+02 0.0 
0.0 0.0 -7.404060022970e+01 
-8.867520212820e+01 2.772344872801e+01 0.0 
2.772344872801e+01 -1.803471004658e+02 0.0 
0.0 0.0 -8.030669077820e+01 
-9.464120420696e+01 2.917275271259e+01 0.0 
2.917275271259e+01 -2.011573432705e+02 0.0 
0.0 0.0 -8.833956424323e+01 
-9.298531011986e+01 2.944405203139e+01 0.0 
2.944405203139e+01 -1.980206209527e+02 0.0 
0.0 0.0 -8.690177932178e+01 
-1.003574841431e+02 3.159031956061e+01 0.0 
3.159031956061e+01 -2.218978633030e+02 0.0 
0.0 0.0 -9.627660423383e+01 
-9.725249884012e+01 3.100218138841e+01 0.0 
3.100218138841e+01 -2.150989596949e+02 0.0 
0.0 0.0 -9.330543756052e+01 
-8.996898007968e+01 2.933108072424e+01 0.0 
2.933108072424e+01 -1.937391445356e+02 0.0 
0.0 0.0 -8.471243738458e+01 
-9.403209562679e+01 3.038997320267e+01 0.0 
3.038997320267e+01 -2.101244144006e+02 0.0 
0.0 0.0 -9.084695300822e+01 
-1.011319593054e+02 3.217487175967e+01 0.0 
3.217487175967e+01 -2.298144730223e+02 0.0 
0.0 0.0 -9.888392969833e+01 
-8.675342483903e+01 2.912182565874e+01 0.0 
2.912182565874e+01 -1.897092856532e+02 0.0 
0.0 0.0 -8.253881314768e+01 
-1.332853885728e+02 2.485273245368e+01 0.0 
2.485273245368e+01 -3.270549278119e+02 0.0 
0.0 0.0 -1.377020949154e+02 
-4.794186703827e+01 1.577286789821e+01 0.0 
1.577286789821e+01 -1.442497143861e+02 0.0 
0.0 0.0 -5.725747442732e+01 
-2.191688380177e+01 1.654585846905e+00 0.0 
1.654585846905e+00 -4.232318051186e+01 0.0 
0.0 0.0 -1.887201929409e+01 
-2.127957470632e+01 5.488442742526e+00 0.0 
5.488442742526e+00 -3.611749092581e+01 0.0 
0.0 0.0 -1.681911968964e+01 
-5.189985800225e+01 2.372315397261e+01 0.0 
2.372315397261e+01 -1.239190183213e+02 0.0 
0.0 0.0 -5.234566289706e+01 
-1.046999822008e+02 3.325913698254e+01 0.0 
3.325913698254e+01 -2.380774122355e+02 0.0 
0.0 0.0 -1.024332183309e+02 
-9.946365210019e+01 2.964349427967e+01 0.0 
2.964349427967e+01 -2.217733386456e+02 0.0 
0.0 0.0 -9.597109722373e+01 
-3.605240683457e+01 8.901026857845e+00 0.0 
8.901026857845e+00 -1.135026956450e+02 0.0 
0.0 0.0 -4.446653074387e+01 
-1.196799149549e+02 3.564625161638e+01 0.0 
3.564625161638e+01 -2.824272475682e+02 0.0 
0.0 0.0 -1.202321487569e+02 
-5.372277736472e+01 2.493908111051e+01 0.0 
2.493908111051e+01 -9.164685852866e+01 0.0 
0.0 0.0 -4.321089076802e+01 
-2.867754791713e+01 4.189307928283e+00 0.0 
4.189307928283e+00 -8.450795146142e+01 0.0 
0.0 0.0 -3.355564981356e+01 
-1.256048571366e+02 3.432867678043e+01 0.0 
3.432867678043e+01 -2.991938700441e+02 0.0 
0.0 0.0 -1.270396181542e+02 
-8.091501297466e+01 2.344046560918e+01 0.0 
2.344046560918e+01 -1.464236052623e+02 0.0 
0.0 0.0 -6.780158547108e+01 
-7.820192436650e+01 2.450247895001e+01 0.0 
2.450247895001e+01 -1.414651006767e+02 0.0 
0.0 0.0 -6.550010751297e+01 
-7.433040305493e+01 2.211982544035e+01 0.0 
2.211982544035e+01 -1.242863386816e+02 0.0 
0.0 0.0 -5.918502252096e+01 
-9.524782096284e+01 2.553454283415e+01 0.0 
2.553454283415e+01 -2.104400461562e+02 0.0 
0.0 0.0 -9.130636013570e+01 
-5.626750094135e+01 7.313505311602e+00 0.0 
7.313505311602e+00 -7.232701886097e+01 0.0 
0.0 0.0 -3.817835594069e+01 
-1.363571805623e+02 2.941430866196e+01 0.0 
2.941430866196e+01 -3.274225981655e+02 0.0 
0.0 0.0 -1.387339336183e+02 
-7.952990157558e+01 1.466329076144e+01 0.0 
1.466329076144e+01 -2.313564309230e+02 0.0 
0.0 0.0 -9.286589974958e+01 
-7.451735004561e+01 1.531052818845e+01 0.0 
1.531052818845e+01 -2.188917184605e+02 0.0 
0.0 0.0 -8.762272055183e+01 
-6.668763003873e+01 1.399157128358e+01 0.0 
1.399157128358e+01 -2.010526583269e+02 0.0 
0.0 0.0 -7.992208650970e+01 
-8.593325134442e+01 2.799144695933e+01 0.0 
2.799144695933e+01 -1.762740728053e+02 0.0 
0.0 0.0 -7.826219724492e+01 
-1.440924386469e+02 2.244147655043e+01 0.0 
2.244147655043e+01 -3.473189239383e+02 0.0 
0.0 0.0 -1.470234087756e+02 
-1.353089971135e+02 2.012611391582e+01 0.0 
2.012611391582e+01 -3.349848521594e+02 0.0 
0.0 0.0 -1.406881547819e+02 
-1.370577088603e+02 1.866014323039e+01 0.0 
1.866014323039e+01 -3.385140353495e+02 0.0 
0.0 0.0 -1.422715232629e+02 
-1.260859145347e+02 1.783846253730e+01 0.0 
1.783846253730e+01 -3.208648381379e+02 0.0 
0.0 0.0 -1.336852258018e+02 
-1.476034714017e+02 1.905628371957e+01 0.0 
1.905628371957e+01 -3.550370077414e+02 0.0 
0.0 0.0 -1.503921437429e+02 
-1.111656989478e+02 3.541702140452e+01 0.0 
3.541702140452e+01 -2.571589176631e+02 0.0 
0.0 0.0 -1.100973849833e+02 
-1.142241549388e+02 3.592299528376e+01 0.0 
3.592299528376e+01 -2.663778437411e+02 0.0 
0.0 0.0 -1.137805996040e+02 
-4.038432492844e+01 -1.246381692286e+00 0.0 
-1.246381692286e+00 -1.244378968064e+02 0.0 
0.0 0.0 -4.904666652044e+01 
-4.264913797795e+01 -3.812113473879e-02 0.0 
-3.812113473879e-02 -1.337801615805e+02 0.0 
0.0 0.0 -5.252878986754e+01 
-4.839642817053e+01 1.002924367541e+00 0.0 
1.002924367541e+00 -1.519076568320e+02 0.0 
0.0 0.0 -5.969122550075e+01 
-4.485419240677e+01 1.380784609607e+00 0.0 
1.380784609607e+00 -1.424389006307e+02 0.0 
0.0 0.0 -5.578792791124e+01 
-3.938892126615e+01 3.803448233173e-01 0.0 
3.803448233173e-01 -1.242895016441e+02 0.0 
0.0 0.0 -4.870352687309e+01 
-4.144987287563e+01 1.892749682633e+00 0.0 
1.892749682633e+00 -1.326549466544e+02 0.0 
0.0 0.0 -5.183144585900e+01 
-4.704602302983e+01 2.983914670143e+00 0.0 
2.983914670143e+00 -1.505066225878e+02 0.0 
0.0 0.0 -5.886579368529e+01 
-3.820414195990e+01 2.598273157628e+00 0.0 
2.598273157628e+00 -1.225788444342e+02 0.0 
0.0 0.0 -4.783489591823e+01 
-9.556318662218e+01 3.047551649919e+01 0.0 
3.047551649919e+01 -2.220833012544e+02 0.0 
0.0 0.0 -9.489394636298e+01 
-1.506783397144e+02 1.582017729828e+01 0.0 
1.582017729828e+01 -3.614490457841e+02 0.0 
0.0 0.0 -1.532382156496e+02 
-9.085808746366e+01 5.370237871934e+00 0.0 
5.370237871934e+00 -2.535312243198e+02 0.0 
0.0 0.0 -1.029167935350e+02 
-8.582488537447e+01 5.529393257081e+00 0.0 
5.529393257081e+00 -2.438189583773e+02 0.0 
0.0 0.0 -9.849315312554e+01 
-7.758813575432e+01 4.217743766680e+00 0.0 
4.217743766680e+00 -2.252956131888e+02 0.0 
0.0 0.0 -9.046512468294e+01 
-6.877043206192e+01 -2.779769450534e-01 0.0 
-2.779769450534e-01 -1.935735632195e+02 0.0 
0.0 0.0 -7.830319858442e+01 
-7.246260661291e+01 2.465799979707e-01 0.0 
2.465799979707e-01 -2.041214951159e+02 0.0 
0.0 0.0 -8.257523051863e+01 
-8.037816108319e+01 1.052605680207e+00 0.0 
1.052605680207e+00 -2.232926448870e+02 0.0 
0.0 0.0 -9.070124179106e+01 
-6.501635726449e+01 -6.412962423813e-01 0.0 
-6.412962423813e-01 -1.828414639409e+02 0.0 
0.0 0.0 -7.395734636163e+01 
-8.316290265015e+01 2.359180147210e+01 0.0 
2.359180147210e+01 -2.226968803692e+02 0.0 
0.0 0.0 -9.135793490581e+01 
-1.517835856613e+02 1.437783687790e+01 0.0 
1.437783687790e+01 -3.636373020674e+02 0.0 
0.0 0.0 -1.542262663186e+02 
-8.276183112974e+01 9.521755393163e+00 0.0 
9.521755393163e+00 -2.402306525445e+02 0.0 
0.0 0.0 -9.649774510229e+01 
-6.839107168412e+01 5.519826517928e-02 0.0 
5.519826517928e-02 -1.952821570114e+02 0.0 
0.0 0.0 -7.870196860866e+01 
-3.186882316264e+01 3.223856266737e+00 0.0 
3.223856266737e+00 -1.885044983388e+01 0.0 
0.0 0.0 -1.481578189896e+01 
-4.494671568018e+01 8.083783994902e+00 0.0 
8.083783994902e+00 -3.947751742450e+01 0.0 
0.0 0.0 -2.492726993141e+01 
-4.919159411195e+01 1.269523864349e+01 0.0 
1.269523864349e+01 -4.485919277050e+01 0.0 
0.0 0.0 -2.781523606474e+01 
-5.645695049927e+01 1.325650949823e+01 0.0 
1.325650949823e+01 -6.457201647377e+01 0.0 
0.0 0.0 -3.590869009191e+01 
-4.258004040550e+01 5.378255180066e+00 0.0 
5.378255180066e+00 -3.889288890474e+01 0.0 
0.0 0.0 -2.404187879307e+01 
-8.473589364929e+01 6.486991827667e-01 0.0 
6.486991827667e-01 -2.301926181825e+02 0.0 
0.0 0.0 -9.407855354953e+01 
-8.879274206936e+01 6.844084741672e-01 0.0 
6.844084741672e-01 -2.387818561937e+02 0.0 
0.0 0.0 -9.787237947892e+01 
-8.454851030171e+01 3.095875678644e-01 0.0 
3.095875678644e-01 -2.283216007156e+02 0.0 
0.0 0.0 -9.346103330519e+01 
-9.286094750364e+01 6.522513421960e-01 0.0 
6.522513421960e-01 -2.473049607449e+02 0.0 
0.0 0.0 -1.016497724746e+02 
-8.830637426910e+01 3.501187453653e-01 0.0 
3.501187453653e-01 -2.364136174959e+02 0.0 
0.0 0.0 -9.701599752952e+01 
-8.077494108490e+01 1.320135902243e-01 0.0 
1.320135902243e-01 -2.187286993620e+02 0.0 
0.0 0.0 -8.945109213408e+01 
-9.678729728738e+01 5.558847857411e-01 0.0 
5.558847857411e-01 -2.554274174735e+02 0.0 
0.0 0.0 -1.052644144283e+02 
-9.143767485643e+01 1.916324800947e-01 0.0 
1.916324800947e-01 -2.432352349878e+02 0.0 
0.0 0.0 -1.000018729533e+02 
-2.717536947478e+01 9.079228642562e-01 0.0 
9.079228642562e-01 -1.732601390298e+01 0.0 
0.0 0.0 -1.295041501333e+01 
-1.800106932683e+01 -1.379620589297e+00 0.0 
-1.379620589297e+00 -1.713907950687e+01 0.0 
0.0 0.0 -1.053190445631e+01 
-1.970523775316e+01 -2.378218918320e+00 0.0 
-2.378218918320e+00 -3.379937335363e+01 0.0 
0.0 0.0 -1.577932615753e+01 
-1.896241943121e+01 -2.406015402646e+00 0.0 
-2.406015402646e+00 -3.348458904899e+01 0.0 
0.0 0.0 -1.546265200724e+01 
-2.220258915965e+01 -2.903147484480e+00 0.0 
-2.903147484480e+00 -4.932499787786e+01 0.0 
0.0 0.0 -2.105827611125e+01 
-2.258296813406e+01 -2.573307415713e+00 0.0 
-2.573307415713e+00 -5.028695592078e+01 0.0 
0.0 0.0 -2.146097721645e+01 
-2.594786493319e+01 -2.795040885887e+00 0.0 
-2.795040885887e+00 -6.726003373752e+01 0.0 
0.0 0.0 -2.756236960121e+01 
-2.547266099059e+01 -2.196461188626e+00 0.0 
-2.196461188626e+00 -6.442623471028e+01 0.0 
0.0 0.0 -2.656966871026e+01 
-2.033461825053e+01 -2.009393700175e+00 0.0 
-2.009393700175e+00 -3.366042055924e+01 0.0 
0.0 0.0 -1.593893799332e+01 
-1.527363470987e+01 -1.480478564179e+00 0.0 
-1.480478564179e+00 -1.700311171260e+01 0.0 
0.0 0.0 -9.673729829997e+00 
-1.793203278339e+01 -2.429720483184e+00 0.0 
-2.429720483184e+00 -3.352470731029e+01 0.0 
0.0 0.0 -1.517378237581e+01 
-1.377248329572e+01 -1.432673912332e+00 0.0 
-1.432673912332e+00 -1.684990042779e+01 0.0 
0.0 0.0 -9.181916442197e+00 
-1.689106550791e+01 -2.385373688493e+00 0.0 
-2.385373688493e+00 -3.309419869378e+01 0.0 
0.0 0.0 -1.473042870424e+01 
-2.179633012899e+01 -3.028688780403e+00 0.0 
-3.028688780403e+00 -5.200940215253e+01 0.0 
0.0 0.0 -2.174171968446e+01 
-2.852975524240e+01 -2.927822503543e+00 0.0 
-2.927822503543e+00 -7.894254479190e+01 0.0 
0.0 0.0 -3.184169001029e+01 
-1.558370460727e+02 3.173407675837e+00 0.0 
3.173407675837e+00 -3.713777684341e+02 0.0 
0.0 0.0 -1.577644443520e+02 
-6.871896890358e+01 -1.356975925982e-01 0.0 
-1.356975925982e-01 -1.888424440513e+02 0.0 
0.0 0.0 -7.686842388647e+01 
-6.483635769222e+01 -3.815029458509e-01 0.0 
-3.815029458509e-01 -1.793474579822e+02 0.0 
0.0 0.0 -7.285514470231e+01 
-5.767915704194e+01 -5.140730268074e-01 0.0 
-5.140730268074e-01 -1.603657923627e+02 0.0 
0.0 0.0 -6.501348482138e+01 
-6.139759665987e+01 -5.326717623255e-01 0.0 
-5.326717623255e-01 -1.706030045365e+02 0.0 
0.0 0.0 -6.920018035890e+01 
-7.161681043674e+01 -2.392963694466e-01 0.0 
-2.392963694466e-01 -1.966085019505e+02 0.0 
0.0 0.0 -8.006759371617e+01 
-5.378746464350e+01 -3.162589025672e-01 0.0 
-3.162589025672e-01 -1.498883342338e+02 0.0 
0.0 0.0 -6.070273966320e+01 
-5.114861292767e+01 -6.339610158643e-01 0.0 
-6.339610158643e-01 -1.428334470872e+02 0.0 
0.0 0.0 -5.779461800447e+01 
-5.467462021545e+00 -2.982260468951e-01 0.0 
-2.982260468951e-01 -1.721525432820e+01 0.0 
0.0 0.0 -6.792702234676e+00 
-1.133953744533e+01 -4.272287906779e-01 0.0 
-4.272287906779e-01 -3.384838408445e+01 0.0 
0.0 0.0 -1.326033673202e+01 
-1.066149133288e+01 -3.592708692628e-01 0.0 
-3.592708692628e-01 -3.219155298930e+01 0.0 
0.0 0.0 -1.249038008437e+01 
-1.732611798237e+01 -5.102669211613e-01 0.0 
-5.102669211613e-01 -5.068914554640e+01 0.0 
0.0 0.0 -2.000457905863e+01 
-1.759043681249e+01 -7.421761680890e-01 0.0 
-7.421761680890e-01 -5.034349827025e+01 0.0 
0.0 0.0 -1.998018052482e+01 
-1.185039377641e+01 -7.096553664818e-01 0.0 
-7.096553664818e-01 -3.416030350253e+01 0.0 
0.0 0.0 -1.353039073273e+01 
-1.214227054310e+01 -9.737786292255e-01 0.0 
-9.737786292255e-01 -3.415565564067e+01 0.0 
0.0 0.0 -1.362303194509e+01 
-6.405018861791e+00 -5.903981501297e-01 0.0 
-5.903981501297e-01 -1.707775557705e+01 0.0 
0.0 0.0 -7.039410936301e+00 
-1.248877276568e+01 -1.117349173101e+00 0.0 
-1.117349173101e+00 -3.401306940992e+01 0.0 
0.0 0.0 -1.371191752775e+01 
-1.832910962311e+01 -1.376588946782e+00 0.0 
-1.376588946782e+00 -5.114214946194e+01 0.0 
0.0 0.0 -2.044137772551e+01 
-6.920425545492e+00 -6.958968786392e-01 0.0 
-6.958968786392e-01 -1.649206197423e+01 0.0 
0.0 0.0 -7.035483275877e+00 
-5.934488506081e+01 6.760848243170e-01 0.0 
6.760848243170e-01 -1.092763160701e+02 0.0 
0.0 0.0 -5.018636033929e+01 
-6.302578671527e+01 1.385440288053e+00 0.0 
1.385440288053e+00 -1.202509187714e+02 0.0 
0.0 0.0 -5.458301164599e+01 
-1.530029447220e+02 1.149242126441e+01 0.0 
1.149242126441e+01 -3.664150220005e+02 0.0 
0.0 0.0 -1.554253900168e+02 
-2.647278897633e+01 4.148567768021e-01 0.0 
4.148567768021e-01 -1.923349037816e+01 0.0 
0.0 0.0 -1.331188380635e+01 
-1.124794401337e+01 -1.215168860176e+00 0.0 
-1.215168860176e+00 -1.713807872033e+01 0.0 
0.0 0.0 -8.499970463950e+00 
-8.192890685185e+01 5.913997663822e+00 0.0 
5.913997663822e+00 -1.822738102091e+02 0.0 
0.0 0.0 -7.886081511829e+01 
-8.529504000003e+01 1.134403282302e+01 0.0 
1.134403282302e+01 -1.888077499871e+02 0.0 
0.0 0.0 -8.183083699614e+01 
-8.431741616412e+01 9.428303382812e+00 0.0 
9.428303382812e+00 -1.877876410278e+02 0.0 
0.0 0.0 -8.123151715756e+01 
-1.401041977972e+02 6.557529453280e-01 0.0 
6.557529453280e-01 -3.427274309541e+02 0.0 
0.0 0.0 -1.444494886254e+02 
-1.451315753456e+02 1.405926848851e+00 0.0 
1.405926848851e+00 -3.519944840260e+02 0.0 
0.0 0.0 -1.487378178115e+02 
-8.112685501226e+01 3.246884695648e+00 0.0 
3.246884695648e+00 -1.820325788940e+02 0.0 
0.0 0.0 -7.854783017187e+01 
-4.383504871533e+01 -2.314103753635e+00 0.0 
-2.314103753635e+00 -1.262761439450e+02 0.0 
0.0 0.0 -5.063335779811e+01 
-9.664420492067e+01 2.905958014093e+01 0.0 
2.905958014093e+01 -2.055115773339e+02 0.0 
0.0 0.0 -9.024673467636e+01 
-7.315684906386e+01 5.522593971699e+00 0.0 
5.522593971699e+00 -1.462971166813e+02 0.0 
0.0 0.0 -6.543618972355e+01 
-2.691000479807e+01 5.870084428766e+00 0.0 
5.870084428766e+00 -7.414663796460e+01 0.0 
0.0 0.0 -2.991699282880e+01 
-4.127862294594e+01 -2.554837159546e+00 0.0 
-2.554837159546e+00 -1.214201379420e+02 0.0 
0.0 0.0 -4.840962826637e+01 
-1.104820561324e+02 1.247526066393e+00 0.0 
1.247526066393e+00 -2.852165324006e+02 0.0 
0.0 0.0 -1.183095765599e+02 
-9.721406921118e+01 2.703057503024e+00 0.0 
2.703057503024e+00 -2.611919561098e+02 0.0 
0.0 0.0 -1.071218075963e+02 
-1.299864204088e+02 3.120749239265e+00 0.0 
3.120749239265e+00 -3.246971763751e+02 0.0 
0.0 0.0 -1.360050790352e+02 
-1.017424742336e+02 1.691003081485e+00 0.0 
1.691003081485e+00 -2.680976308335e+02 0.0 
0.0 0.0 -1.105520315201e+02 
-1.204971581660e+02 3.979347156040e+00 0.0 
3.979347156040e+00 -3.075999930210e+02 0.0 
0.0 0.0 -1.280291453561e+02 
-1.378966620130e+02 1.669720690425e+01 0.0 
1.669720690425e+01 -3.409714390367e+02 0.0 
0.0 0.0 -1.432604303149e+02 
-2.836651860572e+01 -1.015219647965e+00 0.0 
-1.015219647965e+00 -7.961337697083e+01 0.0 
0.0 0.0 -3.199396867296e+01 
-5.101511868779e+01 3.030639711664e+00 0.0 
3.030639711664e+00 -7.260604503619e+01 0.0 
0.0 0.0 -3.668634911719e+01 
-4.506522480289e+01 1.282072928871e+00 0.0 
1.282072928871e+00 -6.482379997497e+01 0.0 
0.0 0.0 -3.256670743336e+01 
-6.452129772323e+01 4.648199795235e+00 0.0 
4.648199795235e+00 -1.147519760826e+02 0.0 
0.0 0.0 -5.338198214175e+01 
-4.671295538858e+01 -1.612745192958e+00 0.0 
-1.612745192958e+00 -1.325470159147e+02 0.0 
0.0 0.0 -5.337799139097e+01 
-7.676496073774e+01 3.276259453012e-02 0.0 
3.276259453012e-02 -2.097384537068e+02 0.0 
0.0 0.0 -8.555102433336e+01 
-3.001659924755e+01 -2.240428908024e+00 0.0 
-2.240428908024e+00 -8.444185005750e+01 0.0 
0.0 0.0 -3.393753479151e+01 
-1.163510917654e+02 3.262221117912e+01 0.0 
3.262221117912e+01 -2.804463044318e+02 0.0 
0.0 0.0 -1.186392188591e+02 
-5.117209188586e+01 2.480848531241e+01 0.0 
2.480848531241e+01 -1.078610304200e+02 0.0 
0.0 0.0 -4.730993669175e+01 
-7.430709724164e+01 2.876749582110e+00 0.0 
2.876749582110e+00 -2.161517938120e+02 0.0 
0.0 0.0 -8.673766731609e+01 
-6.128680353984e+01 -9.220085942387e-01 0.0 
-9.220085942387e-01 -1.740995681971e+02 0.0 
0.0 0.0 -7.021591152108e+01 
-4.725675557421e+01 -2.132812447729e+00 0.0 
-2.132812447729e+00 -1.373557204338e+02 0.0 
0.0 0.0 -5.498374280240e+01 
-3.834879431410e+01 -2.692173504060e+00 0.0 
-2.692173504060e+00 -1.130260197770e+02 0.0 
0.0 0.0 -4.501244422733e+01 
-5.066198164104e+01 1.770762859089e+01 0.0 
1.770762859089e+01 -1.480762409020e+02 0.0 
0.0 0.0 -5.922146676291e+01 
-7.188045320885e+01 8.071524747874e-01 0.0 
8.071524747874e-01 -2.055582390585e+02 0.0 
0.0 0.0 -8.283160768020e+01 
-1.101619948979e+02 6.090396993659e+00 0.0 
6.090396993659e+00 -2.908061104670e+02 0.0 
0.0 0.0 -1.198904316095e+02 
-6.710319901162e+01 4.447385803093e+00 0.0 
4.447385803093e+00 -1.257041551089e+02 0.0 
0.0 0.0 -5.744220623615e+01 
-9.613533009525e+00 -1.156770185939e+00 0.0 
-1.156770185939e+00 -1.908746266447e+01 0.0 
0.0 0.0 -8.495597533320e+00 
-1.146434838067e+02 7.494002010483e+00 0.0 
7.494002010483e+00 -3.002050622107e+02 0.0 
0.0 0.0 -1.240545638052e+02 
-8.801799517602e+01 2.803830274182e+00 0.0 
2.803830274182e+00 -2.434985121965e+02 0.0 
0.0 0.0 -9.905495221175e+01 
-5.907305299015e+01 6.975795592262e+00 0.0 
6.975795592262e+00 -8.266533109920e+01 0.0 
0.0 0.0 -4.212151522681e+01 
-1.031514664817e+02 1.708892072834e+01 0.0 
1.708892072834e+01 -2.793582252864e+02 0.0 
0.0 0.0 -1.143529075305e+02 
-2.853193047177e+01 -3.018596161417e+00 0.0 
-3.018596161417e+00 -7.748703576758e+01 0.0 
0.0 0.0 -3.140568987180e+01 
-7.094892242605e+01 8.562836413421e+00 0.0 
8.562836413421e+00 -1.244210106124e+02 0.0 
0.0 0.0 -5.821097991154e+01 
-8.663495700759e+01 1.913041191657e+01 0.0 
1.913041191657e+01 -1.718327627134e+02 0.0 
0.0 0.0 -7.714031591630e+01 
-5.346485411919e+01 8.108812278637e+00 0.0 
8.108812278637e+00 -6.224957811589e+01 0.0 
0.0 0.0 -3.431432967053e+01 
-2.353854811262e+01 -2.098561216549e+00 0.0 
-2.098561216549e+00 -6.478306878552e+01 0.0 
0.0 0.0 -2.609648506944e+01 
-4.195750114739e+01 1.583533399034e+00 0.0 
1.583533399034e+00 -5.211925656413e+01 0.0 
0.0 0.0 -2.782302731346e+01 
-1.347514813183e+02 1.185882228360e+01 0.0 
1.185882228360e+01 -3.364492603636e+02 0.0 
0.0 0.0 -1.409602225046e+02 
-7.906789935902e+01 1.951946364761e+01 0.0 
1.951946364761e+01 -1.362195965448e+02 0.0 
0.0 0.0 -6.418624877114e+01 
-4.297450702999e+01 -1.467753482736e+00 0.0 
-1.467753482736e+00 -1.214230813117e+02 0.0 
0.0 0.0 -4.891927650252e+01 
-6.987041250579e+01 8.591279910775e+00 0.0 
8.591279910775e+00 -2.115904799036e+02 0.0 
0.0 0.0 -8.403826772281e+01 
-5.263423456811e+01 2.188775849362e+01 0.0 
2.188775849362e+01 -1.384475871398e+02 0.0 
0.0 0.0 -5.692454651236e+01 
-3.852954981344e+01 2.132315358131e+01 0.0 
2.132315358131e+01 -3.268971935765e+01 0.0 
0.0 0.0 -2.096578075133e+01 
-7.631635288160e+01 7.089741110275e+00 0.0 
7.089741110275e+00 -1.556846503290e+02 0.0 
0.0 0.0 -6.920030096318e+01 
-6.526731901960e+01 1.683099993152e+01 0.0 
1.683099993152e+01 -1.930010282627e+02 0.0 
0.0 0.0 -7.708050418470e+01 
-1.148905045815e+02 1.603888989129e+01 0.0 
1.603888989129e+01 -3.020027169527e+02 0.0 
0.0 0.0 -1.246679664603e+02 
-8.628359109973e+01 1.146215597730e+01 0.0 
1.146215597730e+01 -2.476911463528e+02 0.0 
0.0 0.0 -9.979242123577e+01 
-4.626080567157e+01 -1.133653870606e+00 0.0 
-1.133653870606e+00 -1.302499774599e+02 0.0 
0.0 0.0 -5.255323493945e+01 
-1.251644370881e+02 6.705517201662e+00 0.0 
6.705517201662e+00 -3.184632507320e+02 0.0 
0.0 0.0 -1.326883063460e+02 
-6.376114473072e+01 1.193045264294e+01 0.0 
1.193045264294e+01 -1.955714962963e+02 0.0 
0.0 0.0 -7.739979230810e+01 
-7.698965223716e+01 1.045461731565e+01 0.0 
1.045461731565e+01 -1.456831207150e+02 0.0 
0.0 0.0 -6.640183188564e+01 
-8.549331223476e+01 2.710644210496e+01 0.0 
2.710644210496e+01 -2.138141980199e+02 0.0 
0.0 0.0 -8.939225307640e+01 
-5.162186409585e+01 6.638303079497e+00 0.0 
6.638303079497e+00 -1.651179220159e+02 0.0 
0.0 0.0 -6.462193583353e+01 
-7.808118961711e+01 1.442927777465e+01 0.0 
1.442927777465e+01 -1.379301977357e+02 0.0 
0.0 0.0 -6.440341620585e+01 
-7.292337432567e+01 4.379425963455e+00 0.0 
4.379425963455e+00 -2.156570733460e+02 0.0 
0.0 0.0 -8.617413430149e+01 
-1.072941595368e+02 1.922496179171e+01 0.0 
1.922496179171e+01 -2.855955139322e+02 0.0 
0.0 0.0 -1.174669020407e+02 
-4.838707829092e+01 2.393849527771e+01 0.0 
2.393849527771e+01 -1.068038446813e+02 0.0 
0.0 0.0 -4.615727689165e+01 
-6.969729423439e+01 2.500306564683e+01 0.0 
2.500306564683e+01 -1.768506279704e+02 0.0 
0.0 0.0 -7.356437666145e+01 
-7.589698374105e+01 2.774475349688e+01 0.0 
2.774475349688e+01 -1.667131186391e+02 0.0 
0.0 0.0 -7.238303071403e+01 
-6.729434032416e+01 2.136216258671e+01 0.0 
2.136216258671e+01 -1.867018862708e+02 0.0 
0.0 0.0 -7.579886797850e+01 
-1.057184409328e+02 6.501151937506e-01 0.0 
6.501151937506e-01 -2.748417429280e+02 0.0 
0.0 0.0 -1.137680551582e+02 
-1.199228896889e+02 7.118988010329e+00 0.0 
7.118988010329e+00 -3.094178983390e+02 0.0 
0.0 0.0 -1.284022364083e+02 
-2.770014522422e+01 -4.235906309853e-01 0.0 
-4.235906309853e-01 -7.867950726058e+01 0.0 
0.0 0.0 -3.151389574544e+01 
-3.952869300254e+01 1.628089221875e+01 0.0 
1.628089221875e+01 -1.128476046570e+02 0.0 
0.0 0.0 -4.531288929787e+01 
-6.242396086279e+01 1.068112470814e+01 0.0 
1.068112470814e+01 -8.490964972168e+01 0.0 
0.0 0.0 -4.380008317534e+01 
-1.044206125176e+02 2.822735327831e+01 0.0 
2.822735327831e+01 -2.626127978625e+02 0.0 
0.0 0.0 -1.097100231140e+02 
-8.219111420857e+01 1.210295241800e+01 0.0 
1.210295241800e+01 -1.668651358928e+02 0.0 
0.0 0.0 -7.431687503040e+01 
-4.656483789881e+01 2.110580459725e+01 0.0 
2.110580459725e+01 -1.205298764398e+02 0.0 
0.0 0.0 -4.972841430158e+01 
-1.203388812525e+02 5.450387727801e+00 0.0 
5.450387727801e+00 -3.087570035279e+02 0.0 
0.0 0.0 -1.283287654341e+02 
-8.313350916775e+01 1.638036551575e+01 0.0 
1.638036551575e+01 -1.591755299979e+02 0.0 
0.0 0.0 -7.229271174969e+01 
-7.611124516796e+01 9.327845683970e-01 0.0 
9.327845683970e-01 -2.144438904306e+02 0.0 
0.0 0.0 -8.676654067955e+01 
-3.223960782025e+01 -3.598528246016e-01 0.0 
-3.598528246016e-01 -9.134604739980e+01 0.0 
0.0 0.0 -3.667569656601e+01 
-2.440375248382e+01 5.934733658027e+00 0.0 
5.934733658027e+00 -5.793690590794e+01 0.0 
0.0 0.0 -2.430219751753e+01 
-4.012541286296e+01 4.457947025764e+00 0.0 
4.457947025764e+00 -1.298643820883e+02 0.0 
0.0 0.0 -5.059693848539e+01 
-6.227970478437e+01 1.482198012517e+01 0.0 
1.482198012517e+01 -1.884184947887e+02 0.0 
0.0 0.0 -7.480945987192e+01 
-8.418383661285e+01 1.847627733724e+00 0.0 
1.847627733724e+00 -2.334783111800e+02 0.0 
0.0 0.0 -9.489864433786e+01 
-9.422066709138e+01 2.642112166873e+01 0.0 
2.642112166873e+01 -1.982187355193e+02 0.0 
0.0 0.0 -8.733182078322e+01 
-1.253729292320e+02 5.055849823818e+00 0.0 
5.055849823818e+00 -3.175263034982e+02 0.0 
0.0 0.0 -1.324697698190e+02 
-1.081338521576e+02 9.872782398676e+00 0.0 
9.872782398676e+00 -2.897910583572e+02 0.0 
0.0 0.0 -1.189774731544e+02 
-2.207622897465e+01 1.200669167591e+01 0.0 
1.200669167591e+01 -2.215763758048e+01 0.0 
0.0 0.0 -1.287015996654e+01 
-4.261509477684e+01 2.281403305846e+01 0.0 
2.281403305846e+01 -5.271089063377e+01 0.0 
0.0 0.0 -2.819779562318e+01 
-1.303789611651e+02 4.602774634369e+00 0.0 
4.602774634369e+00 -3.262734674442e+02 0.0 
0.0 0.0 -1.365957285828e+02 
-7.456212945363e+01 8.097499495868e+00 0.0 
8.097499495868e+00 -2.221356817552e+02 0.0 
0.0 0.0 -8.860934336265e+01 
-1.130376596095e+02 1.863816671146e+01 0.0 
1.863816671146e+01 -2.970836849549e+02 0.0 
0.0 0.0 -1.226364033693e+02 
-8.359108032739e+01 1.048705481609e-01 0.0 
1.048705481609e-01 -2.249679030520e+02 0.0 
0.0 0.0 -9.216769501381e+01 
-1.186852030869e+02 3.176650129379e+01 0.0 
3.176650129379e+01 -2.879799056709e+02 0.0 
0.0 0.0 -1.215995326273e+02 
-3.443093513185e+01 2.142372416670e+01 0.0 
2.142372416670e+01 -5.182411384985e+01 0.0 
0.0 0.0 -2.547651469451e+01 
-1.353839704330e+02 4.075719841193e+00 0.0 
4.075719841193e+00 -3.352358432481e+02 0.0 
0.0 0.0 -1.407859441043e+02 
-1.065307997928e+02 1.205298684149e+01 0.0 
1.205298684149e+01 -2.874403679033e+02 0.0 
0.0 0.0 -1.177913503088e+02 
-3.792914957385e+01 1.098073424059e+01 0.0 
1.098073424059e+01 -1.182182696651e+02 0.0 
0.0 0.0 -4.644422577168e+01 
-2.374365236316e+01 3.715477461025e-02 0.0 
3.715477461025e-02 -1.664826563343e+01 0.0 
0.0 0.0 -1.171757539898e+01 
-1.471746451140e+02 4.489284062570e+00 0.0 
4.489284062570e+00 -3.564085240536e+02 0.0 
0.0 0.0 -1.506749507503e+02 
-1.167839551586e+02 1.355534753555e+01 0.0 
1.355534753555e+01 -3.059085502319e+02 0.0 
0.0 0.0 -1.264077516172e+02 
-7.499019927629e+01 2.242292763129e+01 0.0 
2.242292763129e+01 -2.046022326434e+02 0.0 
0.0 0.0 -8.347772957590e+01 
-7.143239280627e+01 6.292484430579e+00 0.0 
6.292484430579e+00 -2.142557170712e+02 0.0 
0.0 0.0 -8.530643296325e+01 
-3.336789913080e+01 2.102597733143e+01 0.0 
2.102597733143e+01 -3.255056299780e+01 0.0 
0.0 0.0 -1.937553863858e+01 
-8.861419027623e+01 1.878170237805e+00 0.0 
1.878170237805e+00 -2.422837899921e+02 0.0 
0.0 0.0 -9.886939408050e+01 
-7.310846641117e+01 2.623025969055e+01 0.0 
2.623025969055e+01 -1.791396609893e+02 0.0 
0.0 0.0 -7.527443822014e+01 
-9.305006390192e+01 2.312639030452e+01 0.0 
2.312639030452e+01 -2.054859308074e+02 0.0 
0.0 0.0 -8.916079841279e+01 
-1.208809906917e+02 1.549652082394e+01 0.0 
1.549652082394e+01 -3.126163928534e+02 0.0 
0.0 0.0 -1.296492150635e+02 
-7.124523060198e+01 2.346311382995e+01 0.0 
2.346311382995e+01 -1.194727008172e+02 0.0 
0.0 0.0 -5.681537942574e+01 
-8.461978657085e+01 1.137774085343e+00 0.0 
1.137774085343e+00 -2.319770145006e+02 0.0 
0.0 0.0 -9.457904032142e+01 
-8.635095190968e+01 1.874362820531e+01 0.0 
1.874362820531e+01 -2.419229070695e+02 0.0 
0.0 0.0 -9.808215769376e+01 
-1.793063342672e+01 -1.055410743951e+00 0.0 
-1.055410743951e+00 -5.046572826209e+01 0.0 
0.0 0.0 -2.011890850664e+01 
-3.748186580688e+01 2.253007797752e+01 0.0 
2.253007797752e+01 -5.226067580020e+01 0.0 
0.0 0.0 -2.652276248212e+01 
-8.884636139774e+01 1.184100188553e+00 0.0 
1.184100188553e+00 -2.406030935916e+02 0.0 
0.0 0.0 -9.843483649680e+01 
-4.348026807247e+01 3.621939813709e+00 0.0 
3.621939813709e+00 -1.403202840128e+02 0.0 
0.0 0.0 -5.474016562557e+01 
-7.608731521849e+01 5.962647248410e+00 0.0 
5.962647248410e+00 -2.241741217113e+02 0.0 
0.0 0.0 -8.967843107892e+01 
-1.261167819434e+02 2.538192614552e+01 0.0 
2.538192614552e+01 -3.143046035675e+02 0.0 
0.0 0.0 -1.317264156533e+02 
-9.306926085489e+01 1.173682197812e+00 0.0 
1.173682197812e+00 -2.492064617399e+02 0.0 
0.0 0.0 -1.022827167784e+02 
-4.927944639924e+01 4.743712810627e+00 0.0 
4.743712810627e+00 -1.580417463800e+02 0.0 
0.0 0.0 -6.179635783377e+01 
-9.727594507111e+01 1.097000747877e+00 0.0 
1.097000747877e+00 -2.577392545452e+02 0.0 
0.0 0.0 -1.061045598849e+02 
-3.127846250470e+01 2.031058249275e+01 0.0 
2.031058249275e+01 -3.237928316341e+01 0.0 
0.0 0.0 -1.869732370043e+01 
-7.508950415106e+01 2.545237749186e+01 0.0 
2.545237749186e+01 -1.372746952109e+02 0.0 
0.0 0.0 -6.330925980859e+01 
-1.014897447313e+02 9.524614882700e-01 0.0 
9.524614882700e-01 -2.661905502480e+02 0.0 
0.0 0.0 -1.099040884938e+02 
-8.089451736818e+01 2.720870237392e+01 0.0 
2.720870237392e+01 -1.978011567815e+02 0.0 
0.0 0.0 -8.320870224490e+01 
-1.924158902271e+01 -1.567182198632e+00 0.0 
-1.567182198632e+00 -5.281568076878e+01 0.0 
0.0 0.0 -2.121718093745e+01 
-7.962695032462e+01 2.182521004531e+01 0.0 
2.182521004531e+01 -2.189274333860e+02 0.0 
0.0 0.0 -8.916631511317e+01 
-1.346239559095e+02 1.258669112643e+00 0.0 
1.258669112643e+00 -3.324926972923e+02 0.0 
0.0 0.0 -1.397349959606e+02 
-5.370022671166e+01 -1.179211305552e+00 0.0 
-1.179211305552e+00 -1.589376254931e+02 0.0 
0.0 0.0 -6.339135566144e+01 
-8.085938570670e+01 5.705967443170e+00 0.0 
5.705967443170e+00 -2.339629421816e+02 0.0 
0.0 0.0 -9.404669836649e+01 
-8.202923313771e+01 2.646455976070e+01 0.0 
2.646455976070e+01 -1.588962326182e+02 0.0 
0.0 0.0 -7.187763972677e+01 
-3.000996285209e+01 1.964123579932e+01 0.0 
1.964123579932e+01 -3.146820210348e+01 0.0 
0.0 0.0 -1.804344948667e+01 
-8.935151226914e+01 7.068564920718e+00 0.0 
7.068564920718e+00 -2.524092488445e+02 0.0 
0.0 0.0 -1.021282283341e+02 
-8.897443437699e+01 2.837019064976e+01 0.0 
2.837019064976e+01 -2.165970897553e+02 0.0 
0.0 0.0 -9.127145723970e+01 
-8.453889987331e+01 2.124641978985e+01 0.0 
2.124641978985e+01 -2.328200644378e+02 0.0 
0.0 0.0 -9.480768929334e+01 
-6.972968765407e+01 1.602516699266e+01 0.0 
1.602516699266e+01 -2.060533399603e+02 0.0 
0.0 0.0 -8.233490828432e+01 
-9.843641536535e+01 8.463147530435e+00 0.0 
8.463147530435e+00 -2.710531207533e+02 0.0 
0.0 0.0 -1.104468608356e+02 
-3.228655995404e+01 2.030749064064e+01 0.0 
2.030749064064e+01 -5.064889525045e+01 0.0 
0.0 0.0 -2.448063656135e+01 
-4.079766605448e+01 -2.619326789458e+00 0.0 
-2.619326789458e+00 -1.179609324140e+02 0.0 
0.0 0.0 -4.722757954055e+01 
-3.460109837744e+01 -2.877499526807e+00 0.0 
-2.877499526807e+00 -9.859596545770e+01 0.0 
0.0 0.0 -3.955911915054e+01 
-5.312470467995e+01 4.147519006718e+00 0.0 
4.147519006718e+00 -1.682792778998e+02 0.0 
0.0 0.0 -6.602119477393e+01 
-9.238847263410e+01 2.948812583586e+01 0.0 
2.948812583586e+01 -2.193255428116e+02 0.0 
0.0 0.0 -9.311420463371e+01 
-2.354446653956e+01 -6.410900753339e-01 0.0 
-6.410900753339e-01 -6.709794483332e+01 0.0 
0.0 0.0 -2.679272341186e+01 
-8.279298445507e+01 2.816676571702e+01 0.0 
2.816676571702e+01 -1.725545015699e+02 0.0 
0.0 0.0 -7.620424580750e+01 
-2.633371996599e+01 -3.039745494357e+00 0.0 
-3.039745494357e+00 -7.095511365154e+01 0.0 
0.0 0.0 -2.878665008526e+01 
-5.074110830682e+01 2.493345991106e+00 0.0 
2.493345991106e+00 -1.603233204171e+02 0.0 
0.0 0.0 -6.291932861718e+01 
-9.947289299403e+01 2.231691376056e+01 0.0 
2.231691376056e+01 -2.652394969876e+02 0.0 
0.0 0.0 -1.090137169945e+02 
-4.541884369613e+01 4.365364630745e-01 0.0 
4.365364630745e-01 -7.057631339685e+01 0.0 
0.0 0.0 -3.439854712789e+01 
-5.456384613014e+01 2.130891607035e+00 0.0 
2.130891607035e+00 -1.698563938904e+02 0.0 
0.0 0.0 -6.692607200616e+01 
-3.945733495791e+01 -3.630746365257e-01 0.0 
-3.630746365257e-01 -1.110699985216e+02 0.0 
0.0 0.0 -4.475820004384e+01 
-5.203680181540e+01 7.543191883468e-01 0.0 
7.543191883468e-01 -1.610722381933e+02 0.0 
0.0 0.0 -6.353271200261e+01 
-7.772866839359e+01 1.731084679882e+01 0.0 
1.731084679882e+01 -2.238508086063e+02 0.0 
0.0 0.0 -9.007384309998e+01 
-5.581482015129e+01 6.272898017033e-01 0.0 
6.272898017033e-01 -1.701240306096e+02 0.0 
0.0 0.0 -6.738165522827e+01 
-5.310203474934e+01 -4.416659415452e-01 0.0 
-4.416659415452e-01 -1.606385179758e+02 0.0 
0.0 0.0 -6.372216581754e+01 
-7.868332342670e+01 6.581182957638e+00 0.0 
6.581182957638e+00 -1.670621658724e+02 0.0 
0.0 0.0 -7.332364678972e+01 
-5.675759699811e+01 -4.004541729215e-01 0.0 
-4.004541729215e-01 -1.692322906821e+02 0.0 
0.0 0.0 -6.739696630406e+01 
-8.223115491823e+01 1.954411650764e+00 0.0 
1.954411650764e+00 -1.854584765300e+02 0.0 
0.0 0.0 -7.990688943448e+01 
-1.567938900278e+02 1.501221804679e+00 0.0 
1.501221804679e+00 -3.729657872715e+02 0.0 
0.0 0.0 -1.585279031898e+02 
-2.994143858670e+01 1.674940042548e-01 0.0 
1.674940042548e-01 -3.150749845509e+01 0.0 
0.0 0.0 -1.803468111254e+01 
-2.870854874828e+01 1.932440262829e+01 0.0 
1.932440262829e+01 -2.764873616403e+01 0.0 
0.0 0.0 -1.650718547369e+01 
-2.059537732097e+01 3.382840686239e-02 0.0 
3.382840686239e-02 -1.662621307375e+01 0.0 
0.0 0.0 -1.103102964785e+01 
-3.049923995957e+01 1.862445727285e+01 0.0 
1.862445727285e+01 -5.124824412323e+01 0.0 
0.0 0.0 -2.412424522484e+01 
-4.731938682430e+01 -1.948093281120e+00 0.0 
-1.948093281120e+00 -1.402119887723e+02 0.0 
0.0 0.0 -5.585941267899e+01 
-8.334432500185e+01 2.868557616135e+01 0.0 
2.868557616135e+01 -1.863078237076e+02 0.0 
0.0 0.0 -8.049564461282e+01 
-3.031771588572e+01 9.998140230324e-02 0.0 
9.998140230324e-02 -3.222833034477e+01 0.0 
0.0 0.0 -1.836381386915e+01 
-4.421009246323e+01 -2.399893500971e+00 0.0 
-2.399893500971e+00 -1.293520316943e+02 0.0 
0.0 0.0 -5.166863724727e+01 
-1.042842437284e+02 3.304627672680e+01 0.0 
3.304627672680e+01 -2.366191409085e+02 0.0 
0.0 0.0 -1.018710153911e+02 
-1.315559763236e+02 3.221935123518e+01 0.0 
3.221935123518e+01 -3.148009690674e+02 0.0 
0.0 0.0 -1.335070836173e+02 
-5.610373360800e+01 9.983525975197e-01 0.0 
9.983525975197e-01 -9.941346954955e+01 0.0 
0.0 0.0 -4.625516094726e+01 
-1.187539454361e+02 1.801504951468e+01 0.0 
1.801504951468e+01 -3.076557321320e+02 0.0 
0.0 0.0 -1.275229032704e+02 
-8.996960072928e+01 2.074986196587e+01 0.0 
2.074986196587e+01 -2.467801259306e+02 0.0 
0.0 0.0 -1.006249179980e+02 
-7.125451631396e+01 9.522458886303e-01 0.0 
9.522458886303e-01 -1.474054121288e+02 0.0 
0.0 0.0 -6.519797853281e+01 
-2.360810143997e+01 2.101932036181e-01 0.0 
2.101932036181e-01 -1.521899935750e+01 0.0 
0.0 0.0 -1.124813023924e+01 
-1.604372537022e+01 -2.219392320256e+00 0.0 
-2.219392320256e+00 -3.304963219302e+01 0.0 
0.0 0.0 -1.445103444446e+01 
-1.105697311468e+02 3.646263490516e-01 0.0 
3.646263490516e-01 -2.847412472653e+02 0.0 
0.0 0.0 -1.181932935236e+02 
-2.782429238614e+01 1.855264746857e+01 0.0 
1.855264746857e+01 -2.651345891409e+01 0.0 
0.0 0.0 -1.590132539007e+01 
-2.794676337516e+01 1.678203615581e+01 0.0 
1.678203615581e+01 -4.524806195411e+01 0.0 
0.0 0.0 -2.155844759878e+01 
-2.570663042366e+01 1.435547727154e+01 0.0 
1.435547727154e+01 -4.215654788370e+01 0.0 
0.0 0.0 -1.995895349221e+01 
-4.876842670050e+01 -8.440058641063e-01 0.0 
-8.440058641063e-01 -1.372323814203e+02 0.0 
0.0 0.0 -5.540024243623e+01 
-2.175595049811e+01 -2.999369590761e+00 0.0 
-2.999369590761e+00 -4.910404648424e+01 0.0 
0.0 0.0 -2.085799909471e+01 
-2.698808356117e+01 1.725417641095e+01 0.0 
1.725417641095e+01 -2.858961792999e+01 0.0 
0.0 0.0 -1.627331044735e+01 
-1.330956415168e+02 2.153585739086e+01 0.0 
2.153585739086e+01 -3.301049221057e+02 0.0 
0.0 0.0 -1.385601690868e+02 
-3.475474549778e+01 1.403284367128e+00 0.0 
1.403284367128e+00 -3.319793730378e+01 0.0 
0.0 0.0 -1.998580484047e+01 
-1.030274082724e+02 2.428695099262e+01 0.0 
2.428695099262e+01 -2.693001251357e+02 0.0 
0.0 0.0 -1.112982600224e+02 
-2.505452360590e+01 1.535944976290e+01 0.0 
1.535944976290e+01 -2.646055308535e+01 0.0 
0.0 0.0 -1.505452300738e+01 
-8.748842905857e+01 1.840617875087e+01 0.0 
1.840617875087e+01 -1.803366989675e+02 0.0 
0.0 0.0 -7.994753840783e+01 
-1.247677666495e+02 2.810615477308e+01 0.0 
2.810615477308e+01 -3.079184291053e+02 0.0 
0.0 0.0 -1.294058587264e+02 
-1.554638804425e+02 8.764368644090e+00 0.0 
8.764368644090e+00 -3.708402394871e+02 0.0 
0.0 0.0 -1.574912359789e+02 
-1.131975868845e+02 2.600311368621e+01 0.0 
2.600311368621e+01 -2.879395735371e+02 0.0 
0.0 0.0 -1.199411481265e+02 
-2.310310012982e+01 1.079344264924e+01 0.0 
1.079344264924e+01 -3.667502686342e+01 0.0 
0.0 0.0 -1.753343809797e+01 
-5.208271706440e+01 9.480348272009e+00 0.0 
9.480348272009e+00 -5.559057696090e+01 0.0 
0.0 0.0 -3.190198820759e+01 
-1.138048213287e+02 3.328993963013e+01 0.0 
3.328993963013e+01 -2.720877479191e+02 0.0 
0.0 0.0 -1.153677707743e+02 
-6.217155740299e+01 1.786059098355e+00 0.0 
1.786059098355e+00 -1.154311180590e+02 0.0 
0.0 0.0 -5.288080263861e+01 
-1.571697390924e+02 6.517664593174e+00 0.0 
6.517664593174e+00 -3.736220381729e+02 0.0 
0.0 0.0 -1.588375331796e+02 
-3.693567258140e+01 2.669000885554e+00 0.0 
2.669000885554e+00 -3.151834700583e+01 0.0 
0.0 0.0 -2.013620587617e+01 
-7.807750585688e+01 4.157781529742e+00 0.0 
4.157781529742e+00 -1.688762240417e+02 0.0 
0.0 0.0 -7.368611896958e+01 
-2.608852900451e+01 -1.553925663999e+00 0.0 
-1.553925663999e+00 -7.029548882686e+01 0.0 
0.0 0.0 -2.851520534941e+01 
-7.749943580856e+01 2.054596931252e+00 0.0 
2.054596931252e+00 -1.687064865495e+02 0.0 
0.0 0.0 -7.346177670742e+01 
-9.098120083516e+01 2.989136722997e+01 0.0 
2.989136722997e+01 -2.061840188043e+02 0.0 
0.0 0.0 -8.874956589185e+01 
-4.108667155261e+01 6.619086097581e-01 0.0 
6.619086097581e-01 -5.631003477152e+01 0.0 
0.0 0.0 -2.881901189724e+01 
-5.644961692241e+01 1.616836242276e+01 0.0 
1.616836242276e+01 -6.539512316844e+01 0.0 
0.0 0.0 -3.615342202726e+01 
-1.499767383566e+02 2.212758523969e+00 0.0 
2.212758523969e+00 -3.606352835380e+02 0.0 
0.0 0.0 -1.527836065684e+02 
-9.956231870238e+01 3.094979172592e+01 0.0 
3.094979172592e+01 -2.185962508224e+02 0.0 
0.0 0.0 -9.504757085744e+01 
-2.151110940305e+01 8.166381706251e+00 0.0 
8.166381706251e+00 -3.269537737339e+01 0.0 
0.0 0.0 -1.586194603293e+01 
-5.636696027169e+01 1.245207292620e+00 0.0 
1.245207292620e+00 -9.837273035335e+01 0.0 
0.0 0.0 -4.602190718751e+01 
-6.117024095029e+01 -5.997076773666e-01 0.0 
-5.997076773666e-01 -1.707819119768e+02 0.0 
0.0 0.0 -6.918564587813e+01 
-2.067358865324e+01 -1.361367265987e+00 0.0 
-1.361367265987e+00 -3.056856936610e+01 0.0 
0.0 0.0 -1.516508717676e+01 
-1.445195608035e+02 1.011173620906e+01 0.0 
1.011173620906e+01 -3.527909260402e+02 0.0 
0.0 0.0 -1.487931460531e+02 
-9.811760154152e+01 3.122142136128e+01 0.0 
3.122142136128e+01 -2.249559426403e+02 0.0 
0.0 0.0 -9.652206325455e+01 
-1.487244756306e+02 3.591005303104e+00 0.0 
3.591005303104e+00 -3.589363589845e+02 0.0 
0.0 0.0 -1.518982503845e+02 
-1.714476593686e+01 -3.805597791327e-01 0.0 
-3.805597791327e-01 -4.999766361097e+01 0.0 
0.0 0.0 -1.974272886435e+01 
-1.375401798260e+01 -1.879764899108e+00 0.0 
-1.879764899108e+00 -3.119637572323e+01 0.0 
0.0 0.0 -1.316703660159e+01 
-1.441464929275e+02 1.284458704193e+01 0.0 
1.284458704193e+01 -3.521308666470e+02 0.0 
0.0 0.0 -1.484832078724e+02 
-1.095666932713e+02 3.396044416875e+01 0.0 
3.396044416875e+01 -2.554181342306e+02 0.0 
0.0 0.0 -1.090954482506e+02 
-2.884037960850e+01 -2.126724039157e+00 0.0 
-2.126724039157e+00 -8.001352949429e+01 0.0 
0.0 0.0 -3.225617273083e+01 
-8.849359162887e+01 1.598092039503e+01 0.0 
1.598092039503e+01 -1.970786833165e+02 0.0 
0.0 0.0 -8.527168248360e+01 
-1.951857474271e+01 6.163393155499e+00 0.0 
6.163393155499e+00 -2.328223135494e+01 0.0 
0.0 0.0 -1.252204581434e+01 
-2.311048468380e+01 -2.595184636904e-02 0.0 
-2.595184636904e-02 -1.316139635915e+01 0.0 
0.0 0.0 -1.048156431289e+01 
-1.261542519759e+01 -1.205204461424e+00 0.0 
-1.205204461424e+00 -3.239822759313e+01 0.0 
0.0 0.0 -1.327986544189e+01 
-1.575820542771e+02 5.341580071413e+00 0.0 
5.341580071413e+00 -3.742471242906e+02 0.0 
0.0 0.0 -1.591487535703e+02 
-8.235511003511e+01 1.106836815522e+01 0.0 
1.106836815522e+01 -1.736445792413e+02 0.0 
0.0 0.0 -7.639990678292e+01 
-6.816890185746e+01 -4.569461478739e-01 0.0 
-4.569461478739e-01 -1.879425169862e+02 0.0 
0.0 0.0 -7.643342565309e+01 
-4.281613167735e+01 1.158265093946e+01 0.0 
1.158265093946e+01 -2.772831711034e+01 0.0 
0.0 0.0 -2.076333463631e+01 
-4.434030141966e+01 -6.927336113435e-01 0.0 
-6.927336113435e-01 -1.245072867542e+02 0.0 
0.0 0.0 -5.025427645216e+01 
-1.124504280785e+02 2.962565646190e+01 0.0 
2.962565646190e+01 -2.786444037473e+02 0.0 
0.0 0.0 -1.169284495478e+02 
-2.000487814674e+01 -2.850234950685e+00 0.0 
-2.850234950685e+00 -4.630058675589e+01 0.0 
0.0 0.0 -1.949163947079e+01 
-8.086862491534e+01 8.082907675055e+00 0.0 
8.082907675055e+00 -1.735366886737e+02 0.0 
0.0 0.0 -7.592159407670e+01 
-1.422097802728e+02 1.578914749811e+01 0.0 
1.578914749811e+01 -3.483369015000e+02 0.0 
0.0 0.0 -1.467640045318e+02 
-9.372248300737e+01 2.505854304324e+01 0.0 
2.505854304324e+01 -1.985863414036e+02 0.0 
0.0 0.0 -8.729264732328e+01 
-1.428004371466e+02 2.647978709284e+01 0.0 
2.647978709284e+01 -3.419799657623e+02 0.0 
0.0 0.0 -1.450341208727e+02 
-2.063464471093e+01 1.138565152674e+00 0.0 
1.138565152674e+00 -2.762852608530e+01 0.0 
0.0 0.0 -1.418080554579e+01 
-1.255408717153e+02 2.999077478377e+01 0.0 
2.999077478377e+01 -3.066787152268e+02 0.0 
0.0 0.0 -1.292658760826e+02 
-1.297179609173e+02 1.667334374081e+01 0.0 
1.667334374081e+01 -3.275711112823e+02 0.0 
0.0 0.0 -1.367867216599e+02 
-2.328101667696e+01 -1.679408711746e-01 0.0 
-1.679408711746e-01 -1.499795732054e+01 0.0 
0.0 0.0 -1.108369219925e+01 
-9.661122423779e+01 2.825924013249e+01 0.0 
2.825924013249e+01 -2.079972162037e+02 0.0 
0.0 0.0 -9.098253213243e+01 
-5.478994758819e+01 -7.879782877803e-01 0.0 
-7.879782877803e-01 -1.530374378796e+02 0.0 
0.0 0.0 -6.194821564034e+01 
-2.381931685417e+01 -1.437779136994e+00 0.0 
-1.437779136994e+00 -6.612927943780e+01 0.0 
0.0 0.0 -2.658457888759e+01 
-8.254005964184e+01 1.063051713105e+00 0.0 
1.063051713105e+00 -1.874273577892e+02 0.0 
0.0 0.0 -8.059022522930e+01 
-4.259753800812e+00 -6.446147780369e-02 0.0 
-6.446147780369e-02 -1.415875425227e+01 0.0 
0.0 0.0 -5.437903490590e+00 
-2.275742103581e+01 3.551216297603e-02 0.0 
3.551216297603e-02 -1.385574700985e+01 0.0 
0.0 0.0 -1.058395041370e+01 
-1.592121868091e+02 5.200708233980e-01 0.0 
5.200708233980e-01 -3.771582861486e+02 0.0 
0.0 0.0 -1.605111418873e+02 
-2.249892298723e+01 -1.004640363973e+00 0.0 
-1.004640363973e+00 -6.318196756833e+01 0.0 
0.0 0.0 -2.530426716667e+01 
-3.591084059037e+01 2.929866176242e-01 0.0 
2.929866176242e-01 -4.587236108936e+01 0.0 
0.0 0.0 -2.413496050392e+01 
-1.076566530015e+02 3.390953150012e+01 0.0 
3.390953150012e+01 -2.479709656122e+02 0.0 
0.0 0.0 -1.062882855841e+02 
-8.569212837151e+01 2.334527426037e-02 0.0 
2.334527426037e-02 -2.299701951608e+02 0.0 
0.0 0.0 -9.429869705970e+01 
-6.786448294232e+01 1.670262966566e+00 0.0 
1.670262966566e+00 -1.357221945385e+02 0.0 
0.0 0.0 -6.067600324425e+01 
-2.473067523538e+01 -3.149462532456e+00 0.0 
-3.149462532456e+00 -6.153588163430e+01 0.0 
0.0 0.0 -2.547996706091e+01 
-2.019326666045e+01 -7.032784091101e-01 0.0 
-7.032784091101e-01 -1.433836942730e+01 0.0 
0.0 0.0 -1.037676346386e+01 
-4.946040268859e+01 7.399589310810e-01 0.0 
7.399589310810e-01 -8.095584158481e+01 0.0 
0.0 0.0 -3.872487328202e+01 
-1.286998461517e+02 2.707881371753e+01 0.0 
2.707881371753e+01 -3.168748767554e+02 0.0 
0.0 0.0 -1.332724168721e+02 
-9.019166576991e+01 2.085089847757e+01 0.0 
2.085089847757e+01 -1.896012295085e+02 0.0 
0.0 0.0 -8.353786858351e+01 
-4.511402017674e+01 7.476611691667e-01 0.0 
7.476611691667e-01 -6.717208175202e+01 0.0 
0.0 0.0 -3.328583057863e+01 
-2.271102672373e+01 6.306630979196e+00 0.0 
6.306630979196e+00 -4.482824339255e+01 0.0 
0.0 0.0 -1.986178103488e+01 
-1.041463639587e+02 3.270501679642e+01 0.0 
3.270501679642e+01 -2.404166805487e+02 0.0 
0.0 0.0 -1.029689133522e+02 
-7.429656808303e+01 -1.186000577127e-01 0.0 
-1.186000577127e-01 -2.027749688463e+02 0.0 
0.0 0.0 -8.272146107879e+01 
-1.093195967928e+02 3.168561011829e+01 0.0 
3.168561011829e+01 -2.648317936456e+02 0.0 
0.0 0.0 -1.118454171315e+02 
-1.270315059392e+02 1.954444421741e+01 0.0 
1.954444421741e+01 -3.214273956344e+02 0.0 
0.0 0.0 -1.341376704721e+02 
-1.806333775685e+01 6.955091600613e+00 0.0 
6.955091600613e+00 -1.257512270950e+01 0.0 
0.0 0.0 -9.058617117014e+00 
-9.301799822796e+01 4.778400153350e-02 0.0 
4.778400153350e-02 -2.468179482417e+02 0.0 
0.0 0.0 -1.015507839409e+02 
-1.254517076560e+01 -1.258976369574e+00 0.0 
-1.258976369574e+00 -3.034758966339e+01 0.0 
0.0 0.0 -1.256937967820e+01 
-1.488123648568e+02 7.660664598419e+00 0.0 
7.660664598419e+00 -3.597160952648e+02 0.0 
0.0 0.0 -1.521585380365e+02 
-7.770672199761e+01 3.043091987814e-02 0.0 
3.043091987814e-02 -2.112246406131e+02 0.0 
0.0 0.0 -8.627940878322e+01 

TENSORS node_materi_strain_total float
1.010723800327e-04 1.482430677808e-07 0.0 
1.482430677808e-07 5.836432417361e-05 0.0 
0.0 0.0 0.0 
-1.072212704857e-03 -2.505055723219e-05 0.0 
-2.505055723219e-05 1.446752537754e-02 0.0 
0.0 0.0 0.0 
6.362752764555e-05 5.138248948273e-05 0.0 
5.138248948273e-05 8.239584468536e-03 0.0 
0.0 0.0 0.0 
-8.412211761005e-05 3.505609794830e-05 0.0 
3.505609794830e-05 1.769183568843e-02 0.0 
0.0 0.0 0.0 
1.247109371780e-04 -8.117853459144e-06 0.0 
-8.117853459144e-06 2.524790005731e-04 0.0 
0.0 0.0 0.0 
1.781931793550e-04 5.726673460029e-06 0.0 
5.726673460029e-06 6.326761751007e-04 0.0 
0.0 0.0 0.0 
2.559950880954e-04 5.299672175839e-06 0.0 
5.299672175839e-06 9.802719461991e-04 0.0 
0.0 0.0 0.0 
3.323426576423e-04 2.835470735196e-06 0.0 
2.835470735196e-06 1.369952031865e-03 0.0 
0.0 0.0 0.0 
4.122903898045e-04 1.139870834995e-06 0.0 
1.139870834995e-06 1.746022586279e-03 0.0 
0.0 0.0 0.0 
4.934034361823e-04 1.157036901920e-06 0.0 
1.157036901920e-06 2.117278949983e-03 0.0 
0.0 0.0 0.0 
5.670057117801e-04 2.675828548725e-06 0.0 
2.675828548725e-06 2.492191764535e-03 0.0 
0.0 0.0 0.0 
6.308509649842e-04 3.492946173969e-06 0.0 
3.492946173969e-06 2.873970291015e-03 0.0 
0.0 0.0 0.0 
6.836171738771e-04 5.840229661302e-06 0.0 
5.840229661302e-06 3.264373246611e-03 0.0 
0.0 0.0 0.0 
7.186233263844e-04 1.133531311497e-05 0.0 
1.133531311497e-05 3.671358532161e-03 0.0 
0.0 0.0 0.0 
7.321528128276e-04 2.096609017241e-05 0.0 
2.096609017241e-05 4.104552762386e-03 0.0 
0.0 0.0 0.0 
7.388670255151e-04 2.492451747636e-05 0.0 
2.492451747636e-05 4.533785552928e-03 0.0 
0.0 0.0 0.0 
7.282677471666e-04 3.569818902238e-05 0.0 
3.569818902238e-05 4.935115924106e-03 0.0 
0.0 0.0 0.0 
6.880402390384e-04 2.298709830582e-05 0.0 
2.298709830582e-05 5.395979969418e-03 0.0 
0.0 0.0 0.0 
6.257511436769e-04 2.588379555009e-05 0.0 
2.588379555009e-05 5.885145354624e-03 0.0 
0.0 0.0 0.0 
5.429892902912e-04 2.956006961733e-05 0.0 
2.956006961733e-05 6.375061289754e-03 0.0 
0.0 0.0 0.0 
4.364478489514e-04 3.155439959457e-05 0.0 
3.155439959457e-05 6.885910425851e-03 0.0 
0.0 0.0 0.0 
3.058559349435e-04 3.843165798195e-05 0.0 
3.843165798195e-05 7.417053359568e-03 0.0 
0.0 0.0 0.0 
1.771870663924e-04 4.409457802285e-05 0.0 
4.409457802285e-05 7.934885896569e-03 0.0 
0.0 0.0 0.0 
-6.107852646231e-05 1.289197977548e-04 0.0 
1.289197977548e-04 1.769602138369e-02 0.0 
0.0 0.0 0.0 
-6.791562097841e-05 2.373541571975e-04 0.0 
2.373541571975e-04 1.767224334648e-02 0.0 
0.0 0.0 0.0 
-7.020426645650e-05 3.465113223760e-04 0.0 
3.465113223760e-04 1.766738591177e-02 0.0 
0.0 0.0 0.0 
-6.902630567425e-05 4.869086313038e-04 0.0 
4.869086313038e-04 1.764579615609e-02 0.0 
0.0 0.0 0.0 
-8.941728320759e-05 6.101830465912e-04 0.0 
6.101830465912e-04 1.761188563831e-02 0.0 
0.0 0.0 0.0 
-8.460826411238e-05 7.643674290624e-04 0.0 
7.643674290624e-04 1.758352962785e-02 0.0 
0.0 0.0 0.0 
-9.818342663618e-05 9.323824891377e-04 0.0 
9.323824891377e-04 1.752547917278e-02 0.0 
0.0 0.0 0.0 
-1.030173349275e-04 1.115636677170e-03 0.0 
1.115636677170e-03 1.743967522231e-02 0.0 
0.0 0.0 0.0 
-1.097251755737e-04 1.300256058049e-03 0.0 
1.300256058049e-03 1.734853641669e-02 0.0 
0.0 0.0 0.0 
-9.883475208224e-05 1.512203483795e-03 0.0 
1.512203483795e-03 1.721190971324e-02 0.0 
0.0 0.0 0.0 
-1.290408780549e-04 1.711096745883e-03 0.0 
1.711096745883e-03 1.704879719391e-02 0.0 
0.0 0.0 0.0 
-1.163503329554e-04 1.937928230325e-03 0.0 
1.937928230325e-03 1.684999589345e-02 0.0 
0.0 0.0 0.0 
-1.194541364441e-04 2.162217302424e-03 0.0 
2.162217302424e-03 1.659787492407e-02 0.0 
0.0 0.0 0.0 
-1.044632632201e-04 2.369402813398e-03 0.0 
2.369402813398e-03 1.630724969917e-02 0.0 
0.0 0.0 0.0 
-1.074399493965e-04 2.560641989989e-03 0.0 
2.560641989989e-03 1.598380545570e-02 0.0 
0.0 0.0 0.0 
-8.772393703412e-05 2.727878263153e-03 0.0 
2.727878263153e-03 1.560714444156e-02 0.0 
0.0 0.0 0.0 
-8.660199221988e-05 2.875679004730e-03 0.0 
2.875679004730e-03 1.520773107155e-02 0.0 
0.0 0.0 0.0 
-6.677930972288e-05 3.007284773625e-03 0.0 
3.007284773625e-03 1.478383386567e-02 0.0 
0.0 0.0 0.0 
-4.716094040399e-05 3.099230220352e-03 0.0 
3.099230220352e-03 1.435616473542e-02 0.0 
0.0 0.0 0.0 
-2.506574658275e-05 3.160623265338e-03 0.0 
3.160623265338e-03 1.392069327008e-02 0.0 
0.0 0.0 0.0 
1.014733652586e-06 3.187047617102e-03 0.0 
3.187047617102e-03 1.347253084601e-02 0.0 
0.0 0.0 0.0 
9.133654878276e-06 3.179593918259e-03 0.0 
3.179593918259e-03 1.303467806090e-02 0.0 
0.0 0.0 0.0 
2.633816750179e-05 3.145630794471e-03 0.0 
3.145630794471e-03 1.260400457806e-02 0.0 
0.0 0.0 0.0 
3.828061524317e-05 3.084378253542e-03 0.0 
3.084378253542e-03 1.219052127535e-02 0.0 
0.0 0.0 0.0 
4.630720037439e-05 3.004502976933e-03 0.0 
3.004502976933e-03 1.180173721460e-02 0.0 
0.0 0.0 0.0 
5.717648454318e-05 2.910742087061e-03 0.0 
2.910742087061e-03 1.143300595136e-02 0.0 
0.0 0.0 0.0 
5.922197518419e-05 2.795043294907e-03 0.0 
2.795043294907e-03 1.108707228210e-02 0.0 
0.0 0.0 0.0 
7.547915783168e-05 2.668705208876e-03 0.0 
2.668705208876e-03 1.076504225494e-02 0.0 
0.0 0.0 0.0 
7.377632347024e-05 2.526670752397e-03 0.0 
2.526670752397e-03 1.046014955894e-02 0.0 
0.0 0.0 0.0 
6.303422824017e-05 2.385981747130e-03 0.0 
2.385981747130e-03 1.021181015581e-02 0.0 
0.0 0.0 0.0 
8.272892399774e-05 2.243464485027e-03 0.0 
2.243464485027e-03 9.942254304528e-03 0.0 
0.0 0.0 0.0 
8.812045221955e-05 2.087890818190e-03 0.0 
2.087890818190e-03 9.686072117243e-03 0.0 
0.0 0.0 0.0 
8.587992395411e-05 1.921858006996e-03 0.0 
1.921858006996e-03 9.466951989861e-03 0.0 
0.0 0.0 0.0 
8.230302880633e-05 1.770723286243e-03 0.0 
1.770723286243e-03 9.296855797003e-03 0.0 
0.0 0.0 0.0 
8.408801930537e-05 1.624639390010e-03 0.0 
1.624639390010e-03 9.132483556775e-03 0.0 
0.0 0.0 0.0 
6.989878069848e-05 1.476548519816e-03 0.0 
1.476548519816e-03 8.989589312078e-03 0.0 
0.0 0.0 0.0 
8.114155552226e-05 1.340565682375e-03 0.0 
1.340565682375e-03 8.867487809709e-03 0.0 
0.0 0.0 0.0 
6.911796908497e-05 1.202616781205e-03 0.0 
1.202616781205e-03 8.747180689231e-03 0.0 
0.0 0.0 0.0 
7.844477697216e-05 1.074600347464e-03 0.0 
1.074600347464e-03 8.644321134463e-03 0.0 
0.0 0.0 0.0 
6.792359862510e-05 9.493265153558e-04 0.0 
9.493265153558e-04 8.551732150277e-03 0.0 
0.0 0.0 0.0 
5.691723380445e-05 8.363013512625e-04 0.0 
8.363013512625e-04 8.494014046188e-03 0.0 
0.0 0.0 0.0 
5.754029758724e-05 7.310561826017e-04 0.0 
7.310561826017e-04 8.461731767879e-03 0.0 
0.0 0.0 0.0 
6.146767646172e-05 6.278172325645e-04 0.0 
6.278172325645e-04 8.425561406383e-03 0.0 
0.0 0.0 0.0 
6.942715023012e-05 5.156089261679e-04 0.0 
5.156089261679e-04 8.307723202385e-03 0.0 
0.0 0.0 0.0 
5.685244360309e-05 4.198967635879e-04 0.0 
4.198967635879e-04 8.337740754038e-03 0.0 
0.0 0.0 0.0 
4.837268078680e-05 3.326778081058e-04 0.0 
3.326778081058e-04 8.290111782421e-03 0.0 
0.0 0.0 0.0 
4.204375858234e-05 2.468966004286e-04 0.0 
2.468966004286e-04 8.282325834765e-03 0.0 
0.0 0.0 0.0 
4.468394102893e-05 1.708455039497e-04 0.0 
1.708455039497e-04 8.288283097669e-03 0.0 
0.0 0.0 0.0 
4.358101573887e-05 9.393758685824e-05 0.0 
9.393758685824e-05 8.278891322096e-03 0.0 
0.0 0.0 0.0 
-1.039158222887e-03 -1.992454918438e-05 0.0 
-1.992454918438e-05 1.470981936820e-02 0.0 
0.0 0.0 0.0 
-1.019090145298e-03 -1.449657198813e-05 0.0 
-1.449657198813e-05 1.513134218596e-02 0.0 
0.0 0.0 0.0 
-9.807197379725e-04 -9.328877543946e-06 0.0 
-9.328877543946e-06 1.553247103138e-02 0.0 
0.0 0.0 0.0 
-9.231934183917e-04 -4.363479265653e-06 0.0 
-4.363479265653e-06 1.591043093144e-02 0.0 
0.0 0.0 0.0 
-8.416412165765e-04 2.717817698562e-06 0.0 
2.717817698562e-06 1.627727516532e-02 0.0 
0.0 0.0 0.0 
-7.320715462174e-04 8.451938637907e-06 0.0 
8.451938637907e-06 1.662321252003e-02 0.0 
0.0 0.0 0.0 
-5.968509281069e-04 1.478225076061e-05 0.0 
1.478225076061e-05 1.694432913287e-02 0.0 
0.0 0.0 0.0 
-4.254119152190e-04 2.210383398201e-05 0.0 
2.210383398201e-05 1.724266171610e-02 0.0 
0.0 0.0 0.0 
-2.459677168865e-04 2.454566448308e-05 0.0 
2.454566448308e-05 1.752555606297e-02 0.0 
0.0 0.0 0.0 
-8.476056492465e-04 4.630979760060e-04 0.0 
4.630979760060e-04 5.222852625509e-04 0.0 
0.0 0.0 0.0 
-2.046711323679e-03 1.337207793144e-03 0.0 
1.337207793144e-03 1.412461900832e-02 0.0 
0.0 0.0 0.0 
-9.663527044996e-04 1.129891993109e-03 0.0 
1.129891993109e-03 1.307294849479e-03 0.0 
0.0 0.0 0.0 
-1.084193713556e-03 1.433568497243e-03 0.0 
1.433568497243e-03 2.575501113983e-03 0.0 
0.0 0.0 0.0 
-1.154406801918e-03 1.573100002575e-03 0.0 
1.573100002575e-03 3.946895151556e-03 0.0 
0.0 0.0 0.0 
-1.188573223582e-03 1.623188440337e-03 0.0 
1.623188440337e-03 5.291780997163e-03 0.0 
0.0 0.0 0.0 
-1.195768814207e-03 1.654794712007e-03 0.0 
1.654794712007e-03 6.664450170966e-03 0.0 
0.0 0.0 0.0 
-1.198634611921e-03 1.658496971466e-03 0.0 
1.658496971466e-03 8.063357563827e-03 0.0 
0.0 0.0 0.0 
-1.213888299649e-03 1.686551142220e-03 0.0 
1.686551142220e-03 9.447054871147e-03 0.0 
0.0 0.0 0.0 
-1.252748233652e-03 1.709876762594e-03 0.0 
1.709876762594e-03 1.085311309117e-02 0.0 
0.0 0.0 0.0 
-1.440460020378e-03 1.760944475251e-03 0.0 
1.760944475251e-03 1.232945327791e-02 0.0 
0.0 0.0 0.0 
-1.065976516019e-03 1.233189069037e-05 0.0 
1.233189069037e-05 1.446579110050e-02 0.0 
0.0 0.0 0.0 
-1.039247943925e-03 1.457980458319e-05 0.0 
1.457980458319e-05 1.445180382410e-02 0.0 
0.0 0.0 0.0 
-1.044260320742e-03 -2.523273658675e-06 0.0 
-2.523273658675e-06 1.445128414439e-02 0.0 
0.0 0.0 0.0 
-1.050129067239e-03 -5.910034382586e-06 0.0 
-5.910034382586e-06 1.444635856405e-02 0.0 
0.0 0.0 0.0 
-1.047103130399e-03 -1.854677989660e-06 0.0 
-1.854677989660e-06 1.449602207642e-02 0.0 
0.0 0.0 0.0 
-1.043630641795e-03 -8.509899760630e-06 0.0 
-8.509899760630e-06 1.445681312662e-02 0.0 
0.0 0.0 0.0 
-1.035727869535e-03 -1.086076094361e-05 0.0 
-1.086076094361e-05 1.444203187775e-02 0.0 
0.0 0.0 0.0 
-1.027225091685e-03 -8.609733222974e-06 0.0 
-8.609733222974e-06 1.444815364695e-02 0.0 
0.0 0.0 0.0 
-1.032239153313e-03 -3.287764389800e-06 0.0 
-3.287764389800e-06 1.446855418844e-02 0.0 
0.0 0.0 0.0 
-1.050125143859e-03 1.725874247036e-06 0.0 
1.725874247036e-06 1.446886629779e-02 0.0 
0.0 0.0 0.0 
-1.070722032854e-03 2.826061968886e-05 0.0 
2.826061968886e-05 1.446962913857e-02 0.0 
0.0 0.0 0.0 
-1.163554353613e-03 7.565594027615e-05 0.0 
7.565594027615e-05 1.448717219179e-02 0.0 
0.0 0.0 0.0 
-1.354709126743e-03 2.068293093443e-04 0.0 
2.068293093443e-04 1.452835017826e-02 0.0 
0.0 0.0 0.0 
-1.765696690678e-03 5.936035327142e-04 0.0 
5.936035327142e-04 1.459154598907e-02 0.0 
0.0 0.0 0.0 
-9.919324552936e-04 1.675904767561e-04 0.0 
1.675904767561e-04 5.818697502677e-04 0.0 
0.0 0.0 0.0 
-1.115425710133e-03 2.939666240477e-05 0.0 
2.939666240477e-05 6.093606137619e-04 0.0 
0.0 0.0 0.0 
-1.116680063738e-03 -4.271459067059e-05 0.0 
-4.271459067059e-05 5.871500013479e-04 0.0 
0.0 0.0 0.0 
-1.034701391982e-03 -5.981180603794e-05 0.0 
-5.981180603794e-05 5.457072777437e-04 0.0 
0.0 0.0 0.0 
-9.093393996613e-04 -7.699657554620e-05 0.0 
-7.699657554620e-05 4.991002325718e-04 0.0 
0.0 0.0 0.0 
-8.018213589126e-04 -7.842096030307e-05 0.0 
-7.842096030307e-05 4.571465219447e-04 0.0 
0.0 0.0 0.0 
-6.905936305881e-04 -7.566979212390e-05 0.0 
-7.566979212390e-05 4.102086115902e-04 0.0 
0.0 0.0 0.0 
-5.785156214473e-04 -7.168705728555e-05 0.0 
-7.168705728555e-05 3.613157635090e-04 0.0 
0.0 0.0 0.0 
-4.731544602040e-04 -6.893842376604e-05 0.0 
-6.893842376604e-05 3.164055191341e-04 0.0 
0.0 0.0 0.0 
-3.738595321548e-04 -6.395309709345e-05 0.0 
-6.395309709345e-05 2.730940718523e-04 0.0 
0.0 0.0 0.0 
-2.792613372077e-04 -5.727053835194e-05 0.0 
-5.727053835194e-05 2.373854322377e-04 0.0 
0.0 0.0 0.0 
-2.163100076723e-04 -5.059599063880e-05 0.0 
-5.059599063880e-05 2.130582439771e-04 0.0 
0.0 0.0 0.0 
-1.334230620896e-04 -4.116593510563e-05 0.0 
-4.116593510563e-05 1.739119794582e-04 0.0 
0.0 0.0 0.0 
-5.958217133728e-05 -3.846407907626e-05 0.0 
-3.846407907626e-05 1.363579055800e-04 0.0 
0.0 0.0 0.0 
-5.652050569312e-06 -3.615469569118e-05 0.0 
-3.615469569118e-05 1.141802401215e-04 0.0 
0.0 0.0 0.0 
2.968503898693e-05 -2.718221947135e-05 0.0 
-2.718221947135e-05 1.010918895880e-04 0.0 
0.0 0.0 0.0 
6.106034440615e-05 -1.565732440449e-05 0.0 
-1.565732440449e-05 8.730675135908e-05 0.0 
0.0 0.0 0.0 
9.343196092182e-05 -3.175647737625e-06 0.0 
-3.175647737625e-06 6.600357236741e-05 0.0 
0.0 0.0 0.0 
1.062848142058e-04 3.237613445625e-06 0.0 
3.237613445625e-06 5.117767765839e-05 0.0 
0.0 0.0 0.0 
-8.720085298028e-04 8.430947994651e-04 0.0 
8.430947994651e-04 7.892545275993e-04 0.0 
0.0 0.0 0.0 
-1.038635919234e-03 1.315969472156e-03 0.0 
1.315969472156e-03 1.926690716231e-03 0.0 
0.0 0.0 0.0 
-1.121317933099e-03 1.520810455170e-03 0.0 
1.520810455170e-03 3.257789222222e-03 0.0 
0.0 0.0 0.0 
-1.170909423340e-03 1.613486701508e-03 0.0 
1.613486701508e-03 4.643709163922e-03 0.0 
0.0 0.0 0.0 
-1.223262904851e-03 1.669994089791e-03 0.0 
1.669994089791e-03 6.004077499585e-03 0.0 
0.0 0.0 0.0 
-1.204108662756e-03 1.697548912531e-03 0.0 
1.697548912531e-03 7.379984273589e-03 0.0 
0.0 0.0 0.0 
-1.202984384354e-03 1.679473198049e-03 0.0 
1.679473198049e-03 8.755164558383e-03 0.0 
0.0 0.0 0.0 
-1.217865157432e-03 1.699476536158e-03 0.0 
1.699476536158e-03 1.014717159044e-02 0.0 
0.0 0.0 0.0 
-1.307686958215e-03 1.733728005526e-03 0.0 
1.733728005526e-03 1.158250594838e-02 0.0 
0.0 0.0 0.0 
-1.773770987859e-03 1.782971699620e-03 0.0 
1.782971699620e-03 1.316948251323e-02 0.0 
0.0 0.0 0.0 
-8.392064811018e-04 1.211630297715e-03 0.0 
1.211630297715e-03 2.338610704500e-03 0.0 
0.0 0.0 0.0 
2.498151868598e-04 1.795244730454e-03 0.0 
1.795244730454e-03 9.113985490911e-03 0.0 
0.0 0.0 0.0 
-3.204678737447e-04 -1.163295893157e-04 0.0 
-1.163295893157e-04 3.882438632844e-04 0.0 
0.0 0.0 0.0 
-7.450703169215e-04 -1.055069140941e-04 0.0 
-1.055069140941e-04 5.654744965667e-04 0.0 
0.0 0.0 0.0 
2.130787686551e-04 1.116060253869e-03 0.0 
1.116060253869e-03 8.448030028447e-03 0.0 
0.0 0.0 0.0 
-9.739879919196e-04 1.567803203005e-03 0.0 
1.567803203005e-03 5.031367359205e-03 0.0 
0.0 0.0 0.0 
7.311644027915e-04 -2.956579612892e-06 0.0 
-2.956579612892e-06 3.900983642251e-03 0.0 
0.0 0.0 0.0 
2.457237505663e-04 2.383310150979e-03 0.0 
2.383310150979e-03 1.001669420689e-02 0.0 
0.0 0.0 0.0 
-1.039725781364e-03 1.678266490733e-03 0.0 
1.678266490733e-03 7.648764752326e-03 0.0 
0.0 0.0 0.0 
1.611652944125e-04 2.883371476588e-03 0.0 
2.883371476588e-03 1.136670942047e-02 0.0 
0.0 0.0 0.0 
-1.143469305339e-03 1.795850400321e-03 0.0 
1.795850400321e-03 1.045025131181e-02 0.0 
0.0 0.0 0.0 
1.713139035818e-04 6.585928995243e-04 0.0 
6.585928995243e-04 8.213846443995e-03 0.0 
0.0 0.0 0.0 
-4.499211554819e-05 -6.894357237502e-05 0.0 
-6.894357237502e-05 2.576749266999e-04 0.0 
0.0 0.0 0.0 
1.058199346280e-05 3.110559525142e-03 0.0 
3.110559525142e-03 1.307035184369e-02 0.0 
0.0 0.0 0.0 
-1.799893440470e-03 1.737523386118e-03 0.0 
1.737523386118e-03 1.348905790831e-02 0.0 
0.0 0.0 0.0 
5.360216726978e-04 -2.500669609014e-05 0.0 
-2.500669609014e-05 2.321243555537e-03 0.0 
0.0 0.0 0.0 
7.150131005909e-04 2.723624429906e-05 0.0 
2.723624429906e-05 5.093917916015e-03 0.0 
0.0 0.0 0.0 
-1.564086107784e-04 2.984352039390e-03 0.0 
2.984352039390e-03 1.442766939811e-02 0.0 
0.0 0.0 0.0 
-3.073826804593e-04 2.404628524161e-03 0.0 
2.404628524161e-03 1.608796618170e-02 0.0 
0.0 0.0 0.0 
-2.483124000134e-04 6.683747621044e-04 0.0 
6.683747621044e-04 1.750462146122e-02 0.0 
0.0 0.0 0.0 
-3.422514546814e-04 1.169765126621e-03 0.0 
1.169765126621e-03 1.730374954038e-02 0.0 
0.0 0.0 0.0 
-3.439813067772e-04 1.784019895783e-03 0.0 
1.784019895783e-03 1.689035149138e-02 0.0 
0.0 0.0 0.0 
-1.693264900033e-03 5.469046005302e-04 0.0 
5.469046005302e-04 1.474743559050e-02 0.0 
0.0 0.0 0.0 
-1.164952402358e-03 3.469967408601e-05 0.0 
3.469967408601e-05 1.469755975494e-02 0.0 
0.0 0.0 0.0 
-1.090850563602e-03 6.665105307331e-06 0.0 
6.665105307331e-06 1.470490041839e-02 0.0 
0.0 0.0 0.0 
-8.868227412365e-04 2.795808970876e-05 0.0 
2.795808970876e-05 1.610161608658e-02 0.0 
0.0 0.0 0.0 
1.517188373716e-04 3.753643271910e-04 0.0 
3.753643271910e-04 8.084015455469e-03 0.0 
0.0 0.0 0.0 
-8.255371192104e-04 1.195237359060e-04 0.0 
1.195237359060e-04 6.670839357357e-04 0.0 
0.0 0.0 0.0 
8.123247401145e-05 -3.873078665088e-05 0.0 
-3.873078665088e-05 2.215765891082e-04 0.0 
0.0 0.0 0.0 
4.955310484498e-04 5.266404970497e-05 0.0 
5.266404970497e-05 6.611432960130e-03 0.0 
0.0 0.0 0.0 
-1.052678639021e-03 1.282340908741e-06 0.0 
1.282340908741e-06 1.463908532602e-02 0.0 
0.0 0.0 0.0 
2.907049445740e-04 -3.063311233265e-05 0.0 
-3.063311233265e-05 1.174922834192e-03 0.0 
0.0 0.0 0.0 
-2.814206413273e-04 2.706262070734e-03 0.0 
2.706262070734e-03 1.529920435697e-02 0.0 
0.0 0.0 0.0 
1.991566352157e-04 2.672666064242e-03 0.0 
2.672666064242e-03 1.069103848365e-02 0.0 
0.0 0.0 0.0 
9.099879392109e-05 3.043544791963e-03 0.0 
3.043544791963e-03 1.218851782114e-02 0.0 
0.0 0.0 0.0 
2.724838625643e-04 2.109109036829e-03 0.0 
2.109109036829e-03 9.515921472599e-03 0.0 
0.0 0.0 0.0 
2.207706249798e-04 1.509994023700e-03 0.0 
1.509994023700e-03 8.811220629232e-03 0.0 
0.0 0.0 0.0 
-5.721343944555e-04 -1.295893564615e-04 0.0 
-1.295893564615e-04 5.090721280976e-04 0.0 
0.0 0.0 0.0 
-1.308244730272e-03 1.389263994971e-04 0.0 
1.389263994971e-04 1.471501612206e-02 0.0 
0.0 0.0 0.0 
2.192261388464e-04 8.587864166450e-04 0.0 
8.587864166450e-04 8.199324977526e-03 0.0 
0.0 0.0 0.0 
-6.778544408200e-04 5.784250183818e-05 0.0 
5.784250183818e-05 1.678110758562e-02 0.0 
0.0 0.0 0.0 
-1.655009230000e-04 -1.049503947906e-04 0.0 
-1.049503947906e-04 3.298135564755e-04 0.0 
0.0 0.0 0.0 
6.600877700146e-04 -1.777728226104e-05 0.0 
-1.777728226104e-05 3.070160077375e-03 0.0 
0.0 0.0 0.0 
-1.880700491524e-04 4.066209543333e-04 0.0 
4.066209543333e-04 1.758763643269e-02 0.0 
0.0 0.0 0.0 
-9.770743503868e-04 1.629576762114e-03 0.0 
1.629576762114e-03 6.333325796306e-03 0.0 
0.0 0.0 0.0 
-9.096354551975e-04 1.432492921149e-03 0.0 
1.432492921149e-03 3.655152563385e-03 0.0 
0.0 0.0 0.0 
-1.068550467175e-03 1.732047866146e-03 0.0 
1.732047866146e-03 9.012831973016e-03 0.0 
0.0 0.0 0.0 
-1.327703501637e-03 1.846944110037e-03 0.0 
1.846944110037e-03 1.192610301505e-02 0.0 
0.0 0.0 0.0 
-7.877546312230e-04 8.279746056380e-04 0.0 
8.279746056380e-04 1.153127919236e-03 0.0 
0.0 0.0 0.0 
-9.989871403008e-04 9.047404724731e-06 0.0 
9.047404724731e-06 1.536777505988e-02 0.0 
0.0 0.0 0.0 
1.152907418805e-04 2.052866704211e-04 0.0 
2.052866704211e-04 8.139309536199e-03 0.0 
0.0 0.0 0.0 
1.245513466235e-04 -9.557102052968e-06 0.0 
-9.557102052968e-06 1.855743264845e-04 0.0 
0.0 0.0 0.0 
-3.403035270858e-04 9.779446237156e-05 0.0 
9.779446237156e-05 1.736901279333e-02 0.0 
0.0 0.0 0.0 
-1.843936459806e-03 1.448068364015e-03 0.0 
1.448068364015e-03 1.409943640357e-02 0.0 
0.0 0.0 0.0 
-1.588954697202e-03 1.745663226000e-03 0.0 
1.745663226000e-03 1.363750267903e-02 0.0 
0.0 0.0 0.0 
-1.737430479862e-03 1.511163722398e-03 0.0 
1.511163722398e-03 1.433383660519e-02 0.0 
0.0 0.0 0.0 
-1.484447214489e-03 1.856371588876e-03 0.0 
1.856371588876e-03 1.383180430818e-02 0.0 
0.0 0.0 0.0 
-1.589281577622e-03 1.687626745799e-03 0.0 
1.687626745799e-03 1.443786612398e-02 0.0 
0.0 0.0 0.0 
-1.370664688530e-03 1.944006094621e-03 0.0 
1.944006094621e-03 1.402937288175e-02 0.0 
0.0 0.0 0.0 
-1.241011146942e-03 2.051432654888e-03 0.0 
2.051432654888e-03 1.338411429853e-02 0.0 
0.0 0.0 0.0 
-1.137709948403e-03 2.124852014217e-03 0.0 
2.124852014217e-03 1.362427350657e-02 0.0 
0.0 0.0 0.0 
-9.941293576288e-04 2.191148039178e-03 0.0 
2.191148039178e-03 1.295138080662e-02 0.0 
0.0 0.0 0.0 
-1.464041568735e-03 1.808477922984e-03 0.0 
1.808477922984e-03 1.460557310858e-02 0.0 
0.0 0.0 0.0 
-9.017185191139e-04 2.256864636716e-03 0.0 
2.256864636716e-03 1.322351507070e-02 0.0 
0.0 0.0 0.0 
-7.532096430071e-04 2.287874550728e-03 0.0 
2.287874550728e-03 1.253584367145e-02 0.0 
0.0 0.0 0.0 
-6.691924337447e-04 2.354470310170e-03 0.0 
2.354470310170e-03 1.282964090360e-02 0.0 
0.0 0.0 0.0 
-5.230845612796e-04 2.356059664882e-03 0.0 
2.356059664882e-03 1.214073727667e-02 0.0 
0.0 0.0 0.0 
-5.905307427279e-04 2.292474184890e-03 0.0 
2.292474184890e-03 1.181904011236e-02 0.0 
0.0 0.0 0.0 
-3.645518742261e-04 2.333485903314e-03 0.0 
2.333485903314e-03 1.143013590799e-02 0.0 
0.0 0.0 0.0 
-4.244519497025e-04 2.270151478144e-03 0.0 
2.270151478144e-03 1.108843461426e-02 0.0 
0.0 0.0 0.0 
-2.025542558243e-04 2.286296369325e-03 0.0 
2.286296369325e-03 1.070804721263e-02 0.0 
0.0 0.0 0.0 
-1.549356652314e-04 2.354173356745e-03 0.0 
2.354173356745e-03 1.107055692627e-02 0.0 
0.0 0.0 0.0 
2.227749236750e-06 2.284265360249e-03 0.0 
2.284265360249e-03 1.035800916955e-02 0.0 
0.0 0.0 0.0 
-4.196781953862e-05 2.216230278388e-03 0.0 
2.216230278388e-03 9.980353140599e-03 0.0 
0.0 0.0 0.0 
1.570417749447e-04 2.196266402885e-03 0.0 
2.196266402885e-03 9.646111898081e-03 0.0 
0.0 0.0 0.0 
1.093179300231e-04 2.126550141507e-03 0.0 
2.126550141507e-03 9.258974006738e-03 0.0 
0.0 0.0 0.0 
3.024192362477e-04 2.089853667581e-03 0.0 
2.089853667581e-03 8.943181198440e-03 0.0 
0.0 0.0 0.0 
2.468641371769e-04 2.018105668878e-03 0.0 
2.018105668878e-03 8.547559768203e-03 0.0 
0.0 0.0 0.0 
4.352513845579e-04 1.968125556376e-03 0.0 
1.968125556376e-03 8.253538782036e-03 0.0 
0.0 0.0 0.0 
4.724323782333e-04 2.044364011607e-03 0.0 
2.044364011607e-03 8.665340161084e-03 0.0 
0.0 0.0 0.0 
5.989538981383e-04 1.911836963759e-03 0.0 
1.911836963759e-03 7.998039433491e-03 0.0 
0.0 0.0 0.0 
5.541443127992e-04 1.835788260573e-03 0.0 
1.835788260573e-03 7.581919378176e-03 0.0 
0.0 0.0 0.0 
7.111167689422e-04 1.768138495099e-03 0.0 
1.768138495099e-03 7.350153067713e-03 0.0 
0.0 0.0 0.0 
6.566557085718e-04 1.692141033399e-03 0.0 
1.692141033399e-03 6.931020192926e-03 0.0 
0.0 0.0 0.0 
8.068254596815e-04 1.613584708770e-03 0.0 
1.613584708770e-03 6.723147304569e-03 0.0 
0.0 0.0 0.0 
8.413498869260e-04 1.697830059226e-03 0.0 
1.697830059226e-03 7.157421797171e-03 0.0 
0.0 0.0 0.0 
9.290445722853e-04 1.534884780491e-03 0.0 
1.534884780491e-03 6.557726102042e-03 0.0 
0.0 0.0 0.0 
8.844067393245e-04 1.448376979861e-03 0.0 
1.448376979861e-03 6.118393710434e-03 0.0 
0.0 0.0 0.0 
9.984986674905e-04 1.364048874050e-03 0.0 
1.364048874050e-03 5.983684182187e-03 0.0 
0.0 0.0 0.0 
9.424091539556e-04 1.275078170599e-03 0.0 
1.275078170599e-03 5.540985247397e-03 0.0 
0.0 0.0 0.0 
1.048437647357e-03 1.188033589121e-03 0.0 
1.188033589121e-03 5.438487123323e-03 0.0 
0.0 0.0 0.0 
9.792208797275e-04 1.098072954054e-03 0.0 
1.098072954054e-03 4.994257260026e-03 0.0 
0.0 0.0 0.0 
1.077190718534e-03 1.007449005192e-03 0.0 
1.007449005192e-03 4.921313318694e-03 0.0 
0.0 0.0 0.0 
1.126594554445e-03 1.106046522889e-03 0.0 
1.106046522889e-03 5.371653545042e-03 0.0 
0.0 0.0 0.0 
1.147827552784e-03 9.259376336524e-04 0.0 
9.259376336524e-04 4.882152928570e-03 0.0 
0.0 0.0 0.0 
1.083391080779e-03 8.268487382862e-04 0.0 
8.268487382862e-04 4.435699515530e-03 0.0 
0.0 0.0 0.0 
1.147355558135e-03 7.474633086569e-04 0.0 
7.474633086569e-04 4.423961067797e-03 0.0 
0.0 0.0 0.0 
1.195385998732e-03 8.547023891687e-04 0.0 
8.547023891687e-04 4.875019777346e-03 0.0 
0.0 0.0 0.0 
1.188889420472e-03 6.807853359237e-04 0.0 
6.807853359237e-04 4.442080879399e-03 0.0 
0.0 0.0 0.0 
1.221057013114e-03 7.942048898284e-04 0.0 
7.942048898284e-04 4.896884229510e-03 0.0 
0.0 0.0 0.0 
1.210149068943e-03 6.259933738655e-04 0.0 
6.259933738655e-04 4.487007276718e-03 0.0 
0.0 0.0 0.0 
1.162280985621e-03 5.148287822909e-04 0.0 
5.148287822909e-04 4.044385054335e-03 0.0 
0.0 0.0 0.0 
1.180279756967e-03 4.669580201424e-04 0.0 
4.669580201424e-04 4.109815147133e-03 0.0 
0.0 0.0 0.0 
1.213675933717e-03 5.812797556785e-04 0.0 
5.812797556785e-04 4.554922584827e-03 0.0 
0.0 0.0 0.0 
1.182226770194e-03 4.289829994680e-04 0.0 
4.289829994680e-04 4.194589862384e-03 0.0 
0.0 0.0 0.0 
1.132918554983e-03 3.186609582908e-04 0.0 
3.186609582908e-04 3.763143953459e-03 0.0 
0.0 0.0 0.0 
1.134945527564e-03 2.899898006440e-04 0.0 
2.899898006440e-04 3.864393692821e-03 0.0 
0.0 0.0 0.0 
1.170694556636e-03 4.009347613133e-04 0.0 
4.009347613133e-04 4.298839009270e-03 0.0 
0.0 0.0 0.0 
1.124944580322e-03 2.698443378343e-04 0.0 
2.698443378343e-04 3.981808283623e-03 0.0 
0.0 0.0 0.0 
1.074118712384e-03 1.646504529655e-04 0.0 
1.646504529655e-04 3.561121938305e-03 0.0 
0.0 0.0 0.0 
1.067038334164e-03 1.534430934058e-04 0.0 
1.534430934058e-04 3.689445737460e-03 0.0 
0.0 0.0 0.0 
1.105148594472e-03 2.573935529929e-04 0.0 
2.573935529929e-04 4.115463464361e-03 0.0 
0.0 0.0 0.0 
1.051346443345e-03 1.479708900502e-04 0.0 
1.479708900502e-04 3.829354414564e-03 0.0 
0.0 0.0 0.0 
9.992100916518e-04 5.213271951059e-05 0.0 
5.213271951059e-05 3.417388881874e-03 0.0 
0.0 0.0 0.0 
9.886132410298e-04 5.479999188979e-05 0.0 
5.479999188979e-05 3.562892191778e-03 0.0 
0.0 0.0 0.0 
1.028823716674e-03 1.480985576376e-04 0.0 
1.480985576376e-04 3.981201938883e-03 0.0 
0.0 0.0 0.0 
9.720268372118e-04 6.128959391392e-05 0.0 
6.128959391392e-05 3.717320212814e-03 0.0 
0.0 0.0 0.0 
1.000194947201e-03 1.511878559662e-04 0.0 
1.511878559662e-04 4.141957046015e-03 0.0 
0.0 0.0 0.0 
9.187319523633e-04 -2.319349570207e-05 0.0 
-2.319349570207e-05 3.309312920909e-03 0.0 
0.0 0.0 0.0 
9.094077947485e-04 -1.025530315823e-05 0.0 
-1.025530315823e-05 3.467026098049e-03 0.0 
0.0 0.0 0.0 
8.439889949708e-04 -8.455105431233e-05 0.0 
-8.455105431233e-05 3.067984627066e-03 0.0 
0.0 0.0 0.0 
8.427295012039e-04 -6.570720861747e-05 0.0 
-6.570720861747e-05 3.229254463689e-03 0.0 
0.0 0.0 0.0 
9.436902387869e-04 1.628148499798e-03 0.0 
1.628148499798e-03 7.005095892524e-03 0.0 
0.0 0.0 0.0 
7.678384879827e-04 -1.287461999456e-04 0.0 
-1.287461999456e-04 2.839106102245e-03 0.0 
0.0 0.0 0.0 
7.565006828661e-04 -1.497795855796e-04 0.0 
-1.497795855796e-04 2.686503858594e-03 0.0 
0.0 0.0 0.0 
7.746236755744e-04 -1.054397355336e-04 0.0 
-1.054397355336e-04 3.001767041315e-03 0.0 
0.0 0.0 0.0 
8.370362689641e-04 -4.531557732562e-05 0.0 
-4.531557732562e-05 3.398418632045e-03 0.0 
0.0 0.0 0.0 
6.924117312205e-04 -1.575042565366e-04 0.0 
-1.575042565366e-04 2.618192074772e-03 0.0 
0.0 0.0 0.0 
7.068590999651e-04 -1.307228385091e-04 0.0 
-1.307228385091e-04 2.781652555969e-03 0.0 
0.0 0.0 0.0 
6.185576557962e-04 -1.712189242784e-04 0.0 
-1.712189242784e-04 2.404497510252e-03 0.0 
0.0 0.0 0.0 
8.508058014177e-04 1.195329128208e-03 0.0 
1.195329128208e-03 5.098173165560e-03 0.0 
0.0 0.0 0.0 
3.407164166839e-05 2.358974703990e-03 0.0 
2.358974703990e-03 1.074087566191e-02 0.0 
0.0 0.0 0.0 
6.404234437561e-04 -1.420772765549e-04 0.0 
-1.420772765549e-04 2.567603567513e-03 0.0 
0.0 0.0 0.0 
5.485538142067e-04 -1.721643533703e-04 0.0 
-1.721643533703e-04 2.195370144470e-03 0.0 
0.0 0.0 0.0 
5.150792098006e-04 -2.005741901834e-04 0.0 
-2.005741901834e-04 2.036736913943e-03 0.0 
0.0 0.0 0.0 
4.455480148327e-04 -1.908159567754e-04 0.0 
-1.908159567754e-04 1.830514281901e-03 0.0 
0.0 0.0 0.0 
-1.645597525725e-03 1.532805260739e-03 0.0 
1.532805260739e-03 1.491913422038e-02 0.0 
0.0 0.0 0.0 
-1.493141536676e-03 1.666119813058e-03 0.0 
1.666119813058e-03 1.509722063705e-02 0.0 
0.0 0.0 0.0 
-1.634983148056e-03 1.360232596462e-03 0.0 
1.360232596462e-03 1.534232238973e-02 0.0 
0.0 0.0 0.0 
-1.477777099632e-03 1.534872904399e-03 0.0 
1.534872904399e-03 1.552675215152e-02 0.0 
0.0 0.0 0.0 
-1.582006532411e-03 1.233210247233e-03 0.0 
1.233210247233e-03 1.569804229841e-02 0.0 
0.0 0.0 0.0 
4.841828157273e-04 -1.624513750248e-04 0.0 
-1.624513750248e-04 1.987641936451e-03 0.0 
0.0 0.0 0.0 
-7.915668659019e-04 2.330333103086e-03 0.0 
2.330333103086e-03 1.348788557779e-02 0.0 
0.0 0.0 0.0 
-1.323604701175e-03 1.803044079450e-03 0.0 
1.803044079450e-03 1.528343827147e-02 0.0 
0.0 0.0 0.0 
-1.053191462963e-04 2.149362490695e-03 0.0 
2.149362490695e-03 9.615939499338e-03 0.0 
0.0 0.0 0.0 
4.788511798743e-04 1.765992052673e-03 0.0 
1.765992052673e-03 7.178613438603e-03 0.0 
0.0 0.0 0.0 
1.212048759796e-03 9.686229992321e-04 0.0 
9.686229992321e-04 5.339121025405e-03 0.0 
0.0 0.0 0.0 
7.170283878940e-04 -1.038504845247e-04 0.0 
-1.038504845247e-04 2.949220365648e-03 0.0 
0.0 0.0 0.0 
6.578943066657e-04 -1.126062159873e-04 0.0 
-1.126062159873e-04 2.734383037640e-03 0.0 
0.0 0.0 0.0 
7.231179121762e-04 -7.831218219756e-05 0.0 
-7.831218219756e-05 3.120817900325e-03 0.0 
0.0 0.0 0.0 
1.042731936554e-03 2.466687709984e-04 0.0 
2.466687709984e-04 4.418175716094e-03 0.0 
0.0 0.0 0.0 
1.002064988278e-03 2.448737912272e-04 0.0 
2.448737912272e-04 4.583654839940e-03 0.0 
0.0 0.0 0.0 
1.028961298130e-03 3.484559089723e-04 0.0 
3.484559089723e-04 4.872628141881e-03 0.0 
0.0 0.0 0.0 
9.766978472612e-04 3.402902256094e-04 0.0 
3.402902256094e-04 5.042108404378e-03 0.0 
0.0 0.0 0.0 
9.866116503262e-04 4.509843152938e-04 0.0 
4.509843152938e-04 5.344110490789e-03 0.0 
0.0 0.0 0.0 
9.237383560533e-04 4.354543148400e-04 0.0 
4.354543148400e-04 5.517654490139e-03 0.0 
0.0 0.0 0.0 
9.209877372848e-04 3.307949443594e-04 0.0 
3.307949443594e-04 5.219418199078e-03 0.0 
0.0 0.0 0.0 
8.579117441920e-04 4.173974782179e-04 0.0 
4.173974782179e-04 5.699074106292e-03 0.0 
0.0 0.0 0.0 
8.629403043042e-04 3.190454873689e-04 0.0 
3.190454873689e-04 5.403328790968e-03 0.0 
0.0 0.0 0.0 
9.157684543971e-04 5.523318642260e-04 0.0 
5.523318642260e-04 5.832620367546e-03 0.0 
0.0 0.0 0.0 
9.851658503459e-04 5.739342520961e-04 0.0 
5.739342520961e-04 5.663880437509e-03 0.0 
0.0 0.0 0.0 
7.905628781981e-04 3.964384075067e-04 0.0 
3.964384075067e-04 5.886807073187e-03 0.0 
0.0 0.0 0.0 
8.034988143322e-04 3.043294993725e-04 0.0 
3.043294993725e-04 5.593265532850e-03 0.0 
0.0 0.0 0.0 
7.226817342411e-04 3.723957815554e-04 0.0 
3.723957815554e-04 6.081048794894e-03 0.0 
0.0 0.0 0.0 
7.436106945204e-04 2.852157602966e-04 0.0 
2.852157602966e-04 5.788403898099e-03 0.0 
0.0 0.0 0.0 
8.080063612580e-04 2.238965150201e-04 0.0 
2.238965150201e-04 5.311716916196e-03 0.0 
0.0 0.0 0.0 
7.569374772589e-04 2.097540036524e-04 0.0 
2.097540036524e-04 5.506250486277e-03 0.0 
0.0 0.0 0.0 
8.055705259784e-04 1.557099745604e-04 0.0 
1.557099745604e-04 5.042729605866e-03 0.0 
0.0 0.0 0.0 
1.222377969448e-03 9.132842664628e-04 0.0 
9.132842664628e-04 5.365004965068e-03 0.0 
0.0 0.0 0.0 
1.197964777416e-03 1.089060735052e-03 0.0 
1.089060735052e-03 5.816634118263e-03 0.0 
0.0 0.0 0.0 
1.193242616770e-03 1.037501421663e-03 0.0 
1.037501421663e-03 5.846091471669e-03 0.0 
0.0 0.0 0.0 
1.152946249433e-03 1.214486841519e-03 0.0 
1.214486841519e-03 6.306410916103e-03 0.0 
0.0 0.0 0.0 
1.132994106945e-03 1.165756216816e-03 0.0 
1.165756216816e-03 6.340998338926e-03 0.0 
0.0 0.0 0.0 
1.076509028184e-03 1.344178785418e-03 0.0 
1.344178785418e-03 6.809719484749e-03 0.0 
0.0 0.0 0.0 
1.040636503760e-03 1.297485778099e-03 0.0 
1.297485778099e-03 6.849434703420e-03 0.0 
0.0 0.0 0.0 
1.095514686210e-03 1.121504067396e-03 0.0 
1.121504067396e-03 6.401506300727e-03 0.0 
0.0 0.0 0.0 
-4.497089514093e-04 2.429202195607e-03 0.0 
2.429202195607e-03 1.245009341982e-02 0.0 
0.0 0.0 0.0 
1.068456787691e-03 6.483510146473e-04 0.0 
6.483510146473e-04 3.984810677471e-03 0.0 
0.0 0.0 0.0 
9.872990233418e-04 7.369113421333e-04 0.0 
7.369113421333e-04 3.999392450337e-03 0.0 
0.0 0.0 0.0 
9.578416184510e-04 5.584847631257e-04 0.0 
5.584847631257e-04 3.556225104991e-03 0.0 
0.0 0.0 0.0 
8.582367228321e-04 6.570738475441e-04 0.0 
6.570738475441e-04 3.573400983838e-03 0.0 
0.0 0.0 0.0 
8.142505475646e-04 4.793469308564e-04 0.0 
4.793469308564e-04 3.138146663352e-03 0.0 
0.0 0.0 0.0 
6.942373989420e-04 5.900344732137e-04 0.0 
5.900344732137e-04 3.158719990840e-03 0.0 
0.0 0.0 0.0 
6.348253294872e-04 4.136940527185e-04 0.0 
4.136940527185e-04 2.730309030032e-03 0.0 
0.0 0.0 0.0 
7.475630894005e-04 3.103411755549e-04 0.0 
3.103411755549e-04 2.741882324433e-03 0.0 
0.0 0.0 0.0 
5.516478822791e-04 2.482074831644e-04 0.0 
2.482074831644e-04 2.342504690053e-03 0.0 
0.0 0.0 0.0 
6.596127458765e-04 1.533235381222e-04 0.0 
1.533235381222e-04 2.386033812993e-03 0.0 
0.0 0.0 0.0 
4.475459755105e-04 9.546565624558e-05 0.0 
9.546565624558e-05 1.997603332667e-03 0.0 
0.0 0.0 0.0 
5.517485260923e-04 1.394780831152e-05 0.0 
1.394780831152e-05 2.069003909081e-03 0.0 
0.0 0.0 0.0 
6.171426320873e-04 1.995060043095e-03 0.0 
1.995060043095e-03 8.424186528393e-03 0.0 
0.0 0.0 0.0 
1.094360726269e-03 1.395342976948e-03 0.0 
1.395342976948e-03 6.794942485662e-03 0.0 
0.0 0.0 0.0 
1.002630310241e-03 1.527935281104e-03 0.0 
1.527935281104e-03 7.305943240009e-03 0.0 
0.0 0.0 0.0 
1.019531663355e-03 1.577389266711e-03 0.0 
1.577389266711e-03 7.305795804347e-03 0.0 
0.0 0.0 0.0 
3.999886729447e-04 -2.166763353979e-04 0.0 
-2.166763353979e-04 1.675818647989e-03 0.0 
0.0 0.0 0.0 
6.844338147491e-04 2.609950907716e-04 0.0 
2.609950907716e-04 5.988003318764e-03 0.0 
0.0 0.0 0.0 
8.951839137804e-04 6.802593147078e-04 0.0 
6.802593147078e-04 6.166580771862e-03 0.0 
0.0 0.0 0.0 
9.701685262561e-04 7.075742946483e-04 0.0 
7.075742946483e-04 6.001841603998e-03 0.0 
0.0 0.0 0.0 
9.876194004383e-04 1.254546411125e-03 0.0 
1.254546411125e-03 6.918974158335e-03 0.0 
0.0 0.0 0.0 
3.839922906023e-04 -1.711545101617e-04 0.0 
-1.711545101617e-04 1.627793602653e-03 0.0 
0.0 0.0 0.0 
4.936945966686e-04 5.391136977590e-04 0.0 
5.391136977590e-04 2.755612947577e-03 0.0 
0.0 0.0 0.0 
5.415466358470e-04 7.204063425597e-04 0.0 
7.204063425597e-04 3.218559821463e-03 0.0 
0.0 0.0 0.0 
-1.417495192435e-03 1.418902784002e-03 0.0 
1.418902784002e-03 1.589198048507e-02 0.0 
0.0 0.0 0.0 
-1.493345256658e-03 1.133996554848e-03 0.0 
1.133996554848e-03 1.600017651437e-02 0.0 
0.0 0.0 0.0 
8.599756319939e-04 8.190297769943e-04 0.0 
8.190297769943e-04 6.520739330361e-03 0.0 
0.0 0.0 0.0 
4.256645275964e-04 -1.435961599374e-04 0.0 
-1.435961599374e-04 1.782703422748e-03 0.0 
0.0 0.0 0.0 
7.673163761369e-04 5.005972941178e-04 0.0 
5.005972941178e-04 6.195792651627e-03 0.0 
0.0 0.0 0.0 
3.208058575845e-04 2.024688934680e-04 0.0 
2.024688934680e-04 1.954263573048e-03 0.0 
0.0 0.0 0.0 
7.067406465608e-04 1.910575836662e-04 0.0 
1.910575836662e-04 5.704586204731e-03 0.0 
0.0 0.0 0.0 
6.261121548567e-04 2.320640047205e-04 0.0 
2.320640047205e-04 6.190492140923e-03 0.0 
0.0 0.0 0.0 
9.090957136845e-04 2.395248368131e-04 0.0 
2.395248368131e-04 4.937099567686e-03 0.0 
0.0 0.0 0.0 
9.147422922905e-04 1.714133449974e-03 0.0 
1.714133449974e-03 7.824535141729e-03 0.0 
0.0 0.0 0.0 
9.296793129198e-04 1.756042933510e-03 0.0 
1.756042933510e-03 7.837365904292e-03 0.0 
0.0 0.0 0.0 
7.412184089453e-04 8.225634488975e-05 0.0 
8.225634488975e-05 2.457631938338e-03 0.0 
0.0 0.0 0.0 
6.310327043598e-04 -4.243270305190e-05 0.0 
-4.243270305190e-05 2.162207688659e-03 0.0 
0.0 0.0 0.0 
4.303848431984e-04 -1.001086653553e-04 0.0 
-1.001086653553e-04 1.799107590787e-03 0.0 
0.0 0.0 0.0 
5.098127760641e-04 -1.398672324530e-04 0.0 
-1.398672324530e-04 1.907205370118e-03 0.0 
0.0 0.0 0.0 
6.986296413584e-04 -7.942485466430e-05 0.0 
-7.942485466430e-05 2.265963754264e-03 0.0 
0.0 0.0 0.0 
5.830961983054e-04 -1.693766394955e-04 0.0 
-1.693766394955e-04 2.011756625839e-03 0.0 
0.0 0.0 0.0 
3.940978468545e-04 -2.177908481573e-04 0.0 
-2.177908481573e-04 1.657022005745e-03 0.0 
0.0 0.0 0.0 
4.631389966869e-04 -2.324091281459e-04 0.0 
-2.324091281459e-04 1.777553179868e-03 0.0 
0.0 0.0 0.0 
6.396395053216e-04 -1.824152409817e-04 0.0 
-1.824152409817e-04 2.135562881361e-03 0.0 
0.0 0.0 0.0 
5.263513648787e-04 -2.380678947769e-04 0.0 
-2.380678947769e-04 1.907549111503e-03 0.0 
0.0 0.0 0.0 
3.434728645338e-04 -2.722630144489e-04 0.0 
-2.722630144489e-04 1.558552070837e-03 0.0 
0.0 0.0 0.0 
4.153880884770e-04 -2.685368366307e-04 0.0 
-2.685368366307e-04 1.690925384579e-03 0.0 
0.0 0.0 0.0 
5.879087855450e-04 3.081486734018e-04 0.0 
3.081486734018e-04 6.484605489572e-03 0.0 
0.0 0.0 0.0 
2.016580594077e-04 5.207072400503e-05 0.0 
5.207072400503e-05 1.624610847703e-03 0.0 
0.0 0.0 0.0 
-6.640075675132e-04 2.230468883804e-03 0.0 
2.230468883804e-03 1.150311625966e-02 0.0 
0.0 0.0 0.0 
7.756500019376e-04 7.832982850076e-04 0.0 
7.832982850076e-04 6.685445555432e-03 0.0 
0.0 0.0 0.0 
9.139866711952e-04 1.433234934806e-03 0.0 
1.433234934806e-03 7.371148366060e-03 0.0 
0.0 0.0 0.0 
-1.318498256320e-03 1.324898477847e-03 0.0 
1.324898477847e-03 1.620709151131e-02 0.0 
0.0 0.0 0.0 
-1.376876387928e-03 1.059323498187e-03 0.0 
1.059323498187e-03 1.626303334402e-02 0.0 
0.0 0.0 0.0 
-1.508921169690e-03 8.546146410942e-04 0.0 
8.546146410942e-04 1.602141237266e-02 0.0 
0.0 0.0 0.0 
-1.387827825204e-03 8.079328685600e-04 0.0 
8.079328685600e-04 1.624622794521e-02 0.0 
0.0 0.0 0.0 
-1.236951079753e-03 1.001573326012e-03 0.0 
1.001573326012e-03 1.649515783757e-02 0.0 
0.0 0.0 0.0 
-1.252042405564e-03 7.727969998421e-04 0.0 
7.727969998421e-04 1.645317342211e-02 0.0 
0.0 0.0 0.0 
-1.359833440722e-03 5.867163741445e-04 0.0 
5.867163741445e-04 1.616505777657e-02 0.0 
0.0 0.0 0.0 
-1.236833683981e-03 5.730571167746e-04 0.0 
5.730571167746e-04 1.635860032329e-02 0.0 
0.0 0.0 0.0 
-1.306428133337e-03 4.044815287782e-04 0.0 
4.044815287782e-04 1.603227847788e-02 0.0 
0.0 0.0 0.0 
-1.202040516563e-03 4.088227498460e-04 0.0 
4.088227498460e-04 1.622283599134e-02 0.0 
0.0 0.0 0.0 
-1.104375235881e-03 5.604538576201e-04 0.0 
5.604538576201e-04 1.654342899688e-02 0.0 
0.0 0.0 0.0 
-1.087768623405e-03 4.088600239526e-04 0.0 
4.088600239526e-04 1.640573331901e-02 0.0 
0.0 0.0 0.0 
-1.159156158620e-03 2.800236294175e-04 0.0 
2.800236294175e-04 1.605787774797e-02 0.0 
0.0 0.0 0.0 
-1.064503756910e-03 2.869527704280e-04 0.0 
2.869527704280e-04 1.624483662880e-02 0.0 
0.0 0.0 0.0 
-1.117479714684e-03 1.830161944975e-04 0.0 
1.830161944975e-04 1.587534954668e-02 0.0 
0.0 0.0 0.0 
-1.041032985577e-03 1.928555145979e-04 0.0 
1.928555145979e-04 1.606706780526e-02 0.0 
0.0 0.0 0.0 
-9.614494342699e-04 2.857617420922e-04 0.0 
2.857617420922e-04 1.642544534968e-02 0.0 
0.0 0.0 0.0 
3.310387123872e-04 -1.443725121494e-04 0.0 
-1.443725121494e-04 1.432791724646e-03 0.0 
0.0 0.0 0.0 
1.041684219432e-03 1.081480440782e-03 0.0 
1.081480440782e-03 6.486364085312e-03 0.0 
0.0 0.0 0.0 
9.169709782401e-04 1.214665314993e-03 0.0 
1.214665314993e-03 7.017430051712e-03 0.0 
0.0 0.0 0.0 
6.713608115200e-04 -8.717730098362e-05 0.0 
-8.717730098362e-05 2.914891159297e-03 0.0 
0.0 0.0 0.0 
7.293452274135e-04 -5.662009090449e-05 0.0 
-5.662009090449e-05 3.290862471166e-03 0.0 
0.0 0.0 0.0 
7.716389655506e-04 -3.567020566790e-05 0.0 
-3.567020566790e-05 3.518513386043e-03 0.0 
0.0 0.0 0.0 
7.672442633125e-04 -1.763069108779e-05 0.0 
-1.763069108779e-05 3.700141682795e-03 0.0 
0.0 0.0 0.0 
-9.575079938811e-04 1.931778247097e-04 0.0 
1.931778247097e-04 1.625255487243e-02 0.0 
0.0 0.0 0.0 
-8.541944551040e-04 2.732685406547e-04 0.0 
2.732685406547e-04 1.660082018674e-02 0.0 
0.0 0.0 0.0 
3.199638754383e-04 6.897199863032e-04 0.0 
6.897199863032e-04 2.822847250147e-03 0.0 
0.0 0.0 0.0 
3.510908654920e-04 8.695995436787e-04 0.0 
8.695995436787e-04 3.325353857631e-03 0.0 
0.0 0.0 0.0 
-1.212727880670e-03 1.591144654916e-03 0.0 
1.591144654916e-03 1.607980876974e-02 0.0 
0.0 0.0 0.0 
6.565050784471e-04 1.661336463104e-04 0.0 
1.661336463104e-04 5.909083859436e-03 0.0 
0.0 0.0 0.0 
7.217851680752e-04 1.323014584936e-04 0.0 
1.323014584936e-04 5.433567482779e-03 0.0 
0.0 0.0 0.0 
5.699589205449e-04 1.622939038631e-03 0.0 
1.622939038631e-03 6.524961042870e-03 0.0 
0.0 0.0 0.0 
3.672692788323e-04 1.701008004461e-03 0.0 
1.701008004461e-03 6.789605894665e-03 0.0 
0.0 0.0 0.0 
4.448895757903e-04 1.561101656596e-03 0.0 
1.561101656596e-03 6.131041874418e-03 0.0 
0.0 0.0 0.0 
2.095634050643e-04 1.640348909605e-03 0.0 
1.640348909605e-03 6.411054588378e-03 0.0 
0.0 0.0 0.0 
1.330281651156e-04 1.767419917304e-03 0.0 
1.767419917304e-03 7.101465216032e-03 0.0 
0.0 0.0 0.0 
2.712559251929e-04 1.504558225054e-03 0.0 
1.504558225054e-03 5.739840191732e-03 0.0 
0.0 0.0 0.0 
1.050055414275e-03 5.934457139760e-04 0.0 
5.934457139760e-04 5.500925340145e-03 0.0 
0.0 0.0 0.0 
-9.639607981457e-04 5.432462699005e-04 0.0 
5.432462699005e-04 1.671767739129e-02 0.0 
0.0 0.0 0.0 
4.746689334999e-04 -2.260079155949e-04 0.0 
-2.260079155949e-04 1.883034438432e-03 0.0 
0.0 0.0 0.0 
3.465292974945e-04 -2.373343333227e-04 0.0 
-2.373343333227e-04 1.527333992061e-03 0.0 
0.0 0.0 0.0 
5.671680601354e-04 1.980931677833e-04 0.0 
1.980931677833e-04 6.400734165314e-03 0.0 
0.0 0.0 0.0 
1.132383089564e-03 9.515743330013e-04 0.0 
9.515743330013e-04 5.978170238216e-03 0.0 
0.0 0.0 0.0 
4.855712432656e-04 2.127992693879e-03 0.0 
2.127992693879e-03 9.087357045640e-03 0.0 
0.0 0.0 0.0 
6.113772082259e-04 2.087317487934e-03 0.0 
2.087317487934e-03 8.859959374778e-03 0.0 
0.0 0.0 0.0 
4.771200814474e-04 2.222670299445e-03 0.0 
2.222670299445e-03 9.518713228012e-03 0.0 
0.0 0.0 0.0 
5.829690598732e-04 2.191939997082e-03 0.0 
2.191939997082e-03 9.304175004237e-03 0.0 
0.0 0.0 0.0 
4.482335175909e-04 2.331037386940e-03 0.0 
2.331037386940e-03 9.959023035900e-03 0.0 
0.0 0.0 0.0 
5.303913330251e-04 2.310816201002e-03 0.0 
2.310816201002e-03 9.758298005737e-03 0.0 
0.0 0.0 0.0 
6.589686496105e-04 2.159729593066e-03 0.0 
2.159729593066e-03 9.130443138403e-03 0.0 
0.0 0.0 0.0 
8.155030833729e-04 1.902533567599e-03 0.0 
1.902533567599e-03 8.362301549279e-03 0.0 
0.0 0.0 0.0 
5.806624020657e-04 2.290374017009e-03 0.0 
2.290374017009e-03 9.603940741472e-03 0.0 
0.0 0.0 0.0 
-1.023517869065e-03 1.258072389152e-04 0.0 
1.258072389152e-04 1.587589887916e-02 0.0 
0.0 0.0 0.0 
1.093789737546e-03 1.448374689552e-03 0.0 
1.448374689552e-03 6.800744966101e-03 0.0 
0.0 0.0 0.0 
6.847822649029e-04 -1.845978201593e-04 0.0 
-1.845978201593e-04 2.270336994684e-03 0.0 
0.0 0.0 0.0 
2.833052670973e-04 -1.691712203523e-04 0.0 
-1.691712203523e-04 1.275200253361e-03 0.0 
0.0 0.0 0.0 
2.263440554327e-04 -2.810242355797e-04 0.0 
-2.810242355797e-04 1.340339390021e-03 0.0 
0.0 0.0 0.0 
3.741593964961e-04 -1.175886874682e-04 0.0 
-1.175886874682e-04 1.572872899382e-03 0.0 
0.0 0.0 0.0 
4.623337633934e-04 -1.124892510878e-04 0.0 
-1.124892510878e-04 1.941075282707e-03 0.0 
0.0 0.0 0.0 
7.195351531054e-04 9.281599328102e-04 0.0 
9.281599328102e-04 7.053882122173e-03 0.0 
0.0 0.0 0.0 
3.980294202309e-04 2.458074122371e-03 0.0 
2.458074122371e-03 1.041047655088e-02 0.0 
0.0 0.0 0.0 
3.113698254259e-04 2.459687198831e-03 0.0 
2.459687198831e-03 1.062025399698e-02 0.0 
0.0 0.0 0.0 
-5.282127842878e-05 1.712758682831e-03 0.0 
1.712758682831e-03 6.754745760524e-03 0.0 
0.0 0.0 0.0 
-1.252281636556e-04 1.811323823597e-03 0.0 
1.811323823597e-03 7.462136408050e-03 0.0 
0.0 0.0 0.0 
7.780328600882e-04 1.858356572829e-03 0.0 
1.858356572829e-03 8.354402171090e-03 0.0 
0.0 0.0 0.0 
-1.695223480248e-03 1.027254169447e-03 0.0 
1.027254169447e-03 1.549418542777e-02 0.0 
0.0 0.0 0.0 
-1.400011344878e-03 4.008287550853e-04 0.0 
4.008287550853e-04 1.583604036887e-02 0.0 
0.0 0.0 0.0 
-1.309529891365e-03 2.472314204932e-04 0.0 
2.472314204932e-04 1.566105345528e-02 0.0 
0.0 0.0 0.0 
2.794879815315e-04 -1.182879932338e-04 0.0 
-1.182879932338e-04 1.179430504063e-03 0.0 
0.0 0.0 0.0 
1.427211490507e-04 -2.797500342620e-04 0.0 
-2.797500342620e-04 1.229171003513e-03 0.0 
0.0 0.0 0.0 
-1.081891502026e-03 9.519483136143e-04 0.0 
9.519483136143e-04 1.670522369153e-02 0.0 
0.0 0.0 0.0 
5.618237939616e-04 9.009867293668e-04 0.0 
9.009867293668e-04 3.721220951219e-03 0.0 
0.0 0.0 0.0 
3.563512882923e-04 1.043952421121e-03 0.0 
1.043952421121e-03 3.870959972130e-03 0.0 
0.0 0.0 0.0 
4.721801820360e-05 1.756259511416e-04 0.0 
1.756259511416e-04 1.578159406365e-03 0.0 
0.0 0.0 0.0 
-8.378460368702e-05 2.660186628101e-05 0.0 
2.660186628101e-05 1.265126995506e-03 0.0 
0.0 0.0 0.0 
-8.692450019080e-04 1.853082708609e-04 0.0 
1.853082708609e-04 1.643158775677e-02 0.0 
0.0 0.0 0.0 
-7.470174268062e-04 2.470699066351e-04 0.0 
2.470699066351e-04 1.676487998027e-02 0.0 
0.0 0.0 0.0 
8.023301272412e-04 8.150839425479e-06 0.0 
8.150839425479e-06 3.929717357076e-03 0.0 
0.0 0.0 0.0 
7.865266197109e-04 1.862334178598e-05 0.0 
1.862334178598e-05 4.115142333039e-03 0.0 
0.0 0.0 0.0 
8.094567390224e-04 9.694449262561e-04 0.0 
9.694449262561e-04 6.899167796494e-03 0.0 
0.0 0.0 0.0 
3.087831166022e-04 -2.768505971243e-04 0.0 
-2.768505971243e-04 1.481036019617e-03 0.0 
0.0 0.0 0.0 
-7.116614620818e-04 3.536048530675e-04 0.0 
3.536048530675e-04 1.691557390661e-02 0.0 
0.0 0.0 0.0 
1.079145588178e-03 9.160269043545e-04 0.0 
9.160269043545e-04 6.081572731487e-03 0.0 
0.0 0.0 0.0 
1.151488633893e-03 7.889059501600e-04 0.0 
7.889059501600e-04 5.582334599243e-03 0.0 
0.0 0.0 0.0 
7.316571265089e-04 -2.864293854194e-05 0.0 
-2.864293854194e-05 3.467631679216e-03 0.0 
0.0 0.0 0.0 
1.024956796637e-04 8.633649661207e-04 0.0 
8.633649661207e-04 2.942667757855e-03 0.0 
0.0 0.0 0.0 
6.596265955178e-05 6.838185347662e-04 0.0 
6.838185347662e-04 2.436697061244e-03 0.0 
0.0 0.0 0.0 
7.894891194692e-04 -1.149689183063e-04 0.0 
-1.149689183063e-04 2.508565771521e-03 0.0 
0.0 0.0 0.0 
4.758585192295e-04 -2.586089470826e-04 0.0 
-2.586089470826e-04 1.829828724440e-03 0.0 
0.0 0.0 0.0 
4.112533613077e-04 -8.789850562879e-05 0.0 
-8.789850562879e-05 1.730815517116e-03 0.0 
0.0 0.0 0.0 
6.484282839264e-04 1.088090066470e-03 0.0 
1.088090066470e-03 7.447520344219e-03 0.0 
0.0 0.0 0.0 
-1.028194079654e-03 1.181082710005e-03 0.0 
1.181082710005e-03 1.671309367531e-02 0.0 
0.0 0.0 0.0 
7.017196580688e-04 2.125601933845e-03 0.0 
2.125601933845e-03 9.000786631477e-03 0.0 
0.0 0.0 0.0 
7.800936150424e-04 2.002542331494e-03 0.0 
2.002542331494e-03 8.517721236664e-03 0.0 
0.0 0.0 0.0 
6.025639418229e-04 2.266941195492e-03 0.0 
2.266941195492e-03 9.488800789852e-03 0.0 
0.0 0.0 0.0 
1.223295869199e-04 -2.709348505963e-04 0.0 
-2.709348505963e-04 1.146895724987e-03 0.0 
0.0 0.0 0.0 
6.227897405970e-04 8.817106304202e-04 0.0 
8.817106304202e-04 7.229196124620e-03 0.0 
0.0 0.0 0.0 
6.045594942904e-04 1.346743758892e-04 0.0 
1.346743758892e-04 6.119862363370e-03 0.0 
0.0 0.0 0.0 
2.638516084008e-04 2.594230405095e-03 0.0 
2.594230405095e-03 1.105381366976e-02 0.0 
0.0 0.0 0.0 
1.805891802185e-04 2.577181057306e-03 0.0 
2.577181057306e-03 1.128236031042e-02 0.0 
0.0 0.0 0.0 
5.585239057419e-04 1.075941505390e-03 0.0 
1.075941505390e-03 4.262082842948e-03 0.0 
0.0 0.0 0.0 
3.423591037330e-04 1.206199712961e-03 0.0 
1.206199712961e-03 4.460985854841e-03 0.0 
0.0 0.0 0.0 
1.063853534192e-04 1.193250325403e-03 0.0 
1.193250325403e-03 4.090133861070e-03 0.0 
0.0 0.0 0.0 
8.351741547430e-05 1.341472958548e-03 0.0 
1.341472958548e-03 4.721130496231e-03 0.0 
0.0 0.0 0.0 
-1.081767999177e-03 2.124220895034e-03 0.0 
2.124220895034e-03 1.268607223784e-02 0.0 
0.0 0.0 0.0 
5.360426774551e-04 1.243435013155e-03 0.0 
1.243435013155e-03 4.848597687692e-03 0.0 
0.0 0.0 0.0 
-4.948692243841e-04 2.204219173256e-03 0.0 
2.204219173256e-03 1.075697540585e-02 0.0 
0.0 0.0 0.0 
-7.410249650332e-04 2.160627245820e-03 0.0 
2.160627245820e-03 1.119208288185e-02 0.0 
0.0 0.0 0.0 
-5.813517757950e-04 2.127482597342e-03 0.0 
2.127482597342e-03 1.043396484688e-02 0.0 
0.0 0.0 0.0 
3.884985948209e-05 1.877666156992e-03 0.0 
1.877666156992e-03 7.802778596006e-03 0.0 
0.0 0.0 0.0 
-2.147804029607e-04 1.904773277711e-03 0.0 
1.904773277711e-03 8.187279817345e-03 0.0 
0.0 0.0 0.0 
8.784846068715e-04 8.386542438446e-04 0.0 
8.386542438446e-04 4.045832341200e-03 0.0 
0.0 0.0 0.0 
1.182949833800e-03 1.147471893236e-03 0.0 
1.147471893236e-03 5.812430430178e-03 0.0 
0.0 0.0 0.0 
8.154863565853e-04 -6.734387179994e-06 0.0 
-6.734387179994e-06 3.749506252810e-03 0.0 
0.0 0.0 0.0 
8.478998733852e-04 1.605995753481e-04 0.0 
1.605995753481e-04 4.853544691238e-03 0.0 
0.0 0.0 0.0 
1.075942616956e-03 3.568233201389e-04 0.0 
3.568233201389e-04 4.711472804286e-03 0.0 
0.0 0.0 0.0 
-9.495795181138e-04 7.116640246702e-04 0.0 
7.116640246702e-04 1.682579025782e-02 0.0 
0.0 0.0 0.0 
-7.874612719752e-04 6.748170812219e-04 0.0 
6.748170812219e-04 1.699467519754e-02 0.0 
0.0 0.0 0.0 
-1.181628294573e-03 1.656046597716e-04 0.0 
1.656046597716e-04 1.567436545430e-02 0.0 
0.0 0.0 0.0 
-1.127833948544e-03 9.441824824843e-05 0.0 
9.441824824843e-05 1.547341320127e-02 0.0 
0.0 0.0 0.0 
2.768416192278e-04 -2.149981632522e-04 0.0 
-2.149981632522e-04 1.319179418730e-03 0.0 
0.0 0.0 0.0 
2.066301403902e-04 -2.271504321009e-04 0.0 
-2.271504321009e-04 1.177340217656e-03 0.0 
0.0 0.0 0.0 
9.666715445870e-04 1.555334797577e-04 0.0 
1.555334797577e-04 4.311246356175e-03 0.0 
0.0 0.0 0.0 
6.861002859057e-04 7.443032853172e-04 0.0 
7.443032853172e-04 6.857784041425e-03 0.0 
0.0 0.0 0.0 
-1.093778122053e-03 1.500382238716e-03 0.0 
1.500382238716e-03 1.639723693530e-02 0.0 
0.0 0.0 0.0 
-9.657231820377e-04 1.760314933615e-03 0.0 
1.760314933615e-03 1.625590541079e-02 0.0 
0.0 0.0 0.0 
-1.068985390841e-03 1.847951669120e-03 0.0 
1.847951669120e-03 1.589282669368e-02 0.0 
0.0 0.0 0.0 
7.462180301810e-04 1.132937898318e-03 0.0 
1.132937898318e-03 7.294318951874e-03 0.0 
0.0 0.0 0.0 
1.032026793012e-03 4.763945341165e-04 0.0 
4.763945341165e-04 3.571229350007e-03 0.0 
0.0 0.0 0.0 
1.214490436141e-03 8.656833420922e-04 0.0 
8.656833420922e-04 5.415414820233e-03 0.0 
0.0 0.0 0.0 
5.809957925653e-05 -6.946980887555e-05 0.0 
-6.946980887555e-05 1.345991528837e-03 0.0 
0.0 0.0 0.0 
8.472462199951e-04 1.789577153723e-03 0.0 
1.789577153723e-03 7.600685796198e-03 0.0 
0.0 0.0 0.0 
1.502261080389e-04 -1.944700624840e-04 0.0 
-1.944700624840e-04 9.701002376324e-04 0.0 
0.0 0.0 0.0 
-1.138325170534e-04 2.431289446107e-03 0.0 
2.431289446107e-03 1.143192201535e-02 0.0 
0.0 0.0 0.0 
5.081919285878e-04 1.577722030053e-04 0.0 
1.577722030053e-04 6.617189837779e-03 0.0 
0.0 0.0 0.0 
4.575256626301e-04 2.269481283290e-04 0.0 
2.269481283290e-04 6.904575721974e-03 0.0 
0.0 0.0 0.0 
6.656665500055e-04 2.048083786305e-03 0.0 
2.048083786305e-03 8.887239785172e-03 0.0 
0.0 0.0 0.0 
-1.452471200708e-03 1.902849429599e-03 0.0 
1.902849429599e-03 1.292237517212e-02 0.0 
0.0 0.0 0.0 
9.299108615791e-04 1.730535235008e-03 0.0 
1.730535235008e-03 7.463504018098e-03 0.0 
0.0 0.0 0.0 
1.018645814839e-03 1.560706032334e-03 0.0 
1.560706032334e-03 6.894693065870e-03 0.0 
0.0 0.0 0.0 
-8.276271146987e-04 2.073287555430e-03 0.0 
2.073287555430e-03 1.088159859836e-02 0.0 
0.0 0.0 0.0 
-6.941014742178e-04 2.032526066990e-03 0.0 
2.032526066990e-03 1.013464715935e-02 0.0 
0.0 0.0 0.0 
-4.413683535845e-04 2.068878454810e-03 0.0 
2.068878454810e-03 9.686526431093e-03 0.0 
0.0 0.0 0.0 
-5.863008676551e-04 1.976145998913e-03 0.0 
1.976145998913e-03 9.386621186983e-03 0.0 
0.0 0.0 0.0 
8.165205234695e-04 -1.163502617129e-04 0.0 
-1.163502617129e-04 2.642318471002e-03 0.0 
0.0 0.0 0.0 
7.187271273854e-04 -1.783210048010e-04 0.0 
-1.783210048010e-04 2.407734971959e-03 0.0 
0.0 0.0 0.0 
3.174079481494e-04 2.631247223149e-03 0.0 
2.631247223149e-03 1.091552110047e-02 0.0 
0.0 0.0 0.0 
4.842452891917e-04 2.450997185012e-03 0.0 
2.450997185012e-03 1.008173550060e-02 0.0 
0.0 0.0 0.0 
1.573788732251e-04 2.728278518910e-03 0.0 
2.728278518910e-03 1.169576983043e-02 0.0 
0.0 0.0 0.0 
6.658921502891e-05 2.695747754016e-03 0.0 
2.695747754016e-03 1.195319674174e-02 0.0 
0.0 0.0 0.0 
6.149352855786e-04 2.005658406340e-03 0.0 
2.005658406340e-03 8.888153197128e-03 0.0 
0.0 0.0 0.0 
7.287236702275e-04 1.810107656851e-03 0.0 
1.810107656851e-03 8.366737480903e-03 0.0 
0.0 0.0 0.0 
4.911800524573e-04 -8.243149470012e-05 0.0 
-8.243149470012e-05 2.091056626829e-03 0.0 
0.0 0.0 0.0 
-4.113073331193e-04 1.832104255240e-03 0.0 
1.832104255240e-03 7.877296158752e-03 0.0 
0.0 0.0 0.0 
-8.550279472423e-04 1.119666534103e-03 0.0 
1.119666534103e-03 1.692660661031e-02 0.0 
0.0 0.0 0.0 
-9.914283761171e-04 2.085463178980e-03 0.0 
2.085463178980e-03 1.164980701032e-02 0.0 
0.0 0.0 0.0 
5.208117701374e-04 8.263974519134e-04 0.0 
8.263974519134e-04 7.394370669618e-03 0.0 
0.0 0.0 0.0 
5.960079160538e-04 7.013031769626e-04 0.0 
7.013031769626e-04 7.046367544955e-03 0.0 
0.0 0.0 0.0 
-2.531006081268e-04 -7.595170337321e-05 0.0 
-7.595170337321e-05 1.009638080019e-03 0.0 
0.0 0.0 0.0 
-1.023451028264e-04 -1.688237789362e-04 0.0 
-1.688237789362e-04 1.091623021903e-03 0.0 
0.0 0.0 0.0 
-5.889909419316e-04 3.078831235852e-04 0.0 
3.078831235852e-04 1.707414474114e-02 0.0 
0.0 0.0 0.0 
-1.996690238047e-04 1.334573982353e-03 0.0 
1.334573982353e-03 4.367212662982e-03 0.0 
0.0 0.0 0.0 
-2.309328037762e-04 1.451306479010e-03 0.0 
1.451306479010e-03 5.020316211827e-03 0.0 
0.0 0.0 0.0 
-1.732276060259e-04 1.199180355208e-03 0.0 
1.199180355208e-03 3.724539889129e-03 0.0 
0.0 0.0 0.0 
2.353269633026e-04 6.564317380741e-05 0.0 
6.564317380741e-05 7.665062720037e-03 0.0 
0.0 0.0 0.0 
-1.046701322254e-03 9.099661969496e-06 0.0 
9.099661969496e-06 1.463144257179e-02 0.0 
0.0 0.0 0.0 
3.927342805127e-04 1.778044947399e-04 0.0 
1.778044947399e-04 7.128037363308e-03 0.0 
0.0 0.0 0.0 
-7.157072787058e-05 1.982688475858e-03 0.0 
1.982688475858e-03 8.530127665919e-03 0.0 
0.0 0.0 0.0 
-5.299801797929e-04 4.327162372158e-04 0.0 
4.327162372158e-04 1.720794571508e-02 0.0 
0.0 0.0 0.0 
9.858877228615e-04 1.674211688269e-03 0.0 
1.674211688269e-03 7.371077404431e-03 0.0 
0.0 0.0 0.0 
6.423842446367e-04 1.469739818334e-03 0.0 
1.469739818334e-03 5.883807392763e-03 0.0 
0.0 0.0 0.0 
8.928454950764e-04 1.008105207563e-03 0.0 
1.008105207563e-03 6.750887562586e-03 0.0 
0.0 0.0 0.0 
-6.497384639973e-04 1.898554676535e-04 0.0 
1.898554676535e-04 1.690906381215e-02 0.0 
0.0 0.0 0.0 
-4.647997460284e-04 2.482414417058e-04 0.0 
2.482414417058e-04 1.723615754114e-02 0.0 
0.0 0.0 0.0 
-1.357210013925e-03 2.312457743589e-04 0.0 
2.312457743589e-04 1.545198716969e-02 0.0 
0.0 0.0 0.0 
-1.259108409876e-03 1.128596595133e-04 0.0 
1.128596595133e-04 1.523464935602e-02 0.0 
0.0 0.0 0.0 
-1.476897253478e-03 3.991641597094e-04 0.0 
3.991641597094e-04 1.561950547566e-02 0.0 
0.0 0.0 0.0 
1.708468080930e-04 3.330643174569e-04 0.0 
3.330643174569e-04 1.944109765426e-03 0.0 
0.0 0.0 0.0 
-1.489940567039e-04 3.432313346702e-04 0.0 
3.432313346702e-04 1.539789034718e-03 0.0 
0.0 0.0 0.0 
-8.192769649332e-04 5.156183903986e-04 0.0 
5.156183903986e-04 1.688447330071e-02 0.0 
0.0 0.0 0.0 
6.010752061041e-04 -1.116311392071e-04 0.0 
-1.116311392071e-04 2.525126677636e-03 0.0 
0.0 0.0 0.0 
6.249351264349e-04 -7.540584703805e-05 0.0 
-7.540584703805e-05 2.732910337028e-03 0.0 
0.0 0.0 0.0 
3.757177340898e-04 -2.662766657258e-04 0.0 
-2.662766657258e-04 1.612934937739e-03 0.0 
0.0 0.0 0.0 
5.225386158244e-04 -2.436675732384e-04 0.0 
-2.436675732384e-04 1.963352003567e-03 0.0 
0.0 0.0 0.0 
8.346861486233e-04 4.638899721797e-05 0.0 
4.638899721797e-05 4.167906703241e-03 0.0 
0.0 0.0 0.0 
8.572101548280e-04 3.499449484940e-05 0.0 
3.499449484940e-05 3.986835445265e-03 0.0 
0.0 0.0 0.0 
5.518390333847e-05 2.447399826057e-03 0.0 
2.447399826057e-03 1.112898950843e-02 0.0 
0.0 0.0 0.0 
-8.092390621078e-05 2.525954562646e-03 0.0 
2.525954562646e-03 1.180453020556e-02 0.0 
0.0 0.0 0.0 
3.446399498161e-04 2.249655952180e-03 0.0 
2.249655952180e-03 9.764599874030e-03 0.0 
0.0 0.0 0.0 
1.100312325488e-03 7.578554476940e-04 0.0 
7.578554476940e-04 5.700839391596e-03 0.0 
0.0 0.0 0.0 
1.153937506762e-03 6.356980833524e-04 0.0 
6.356980833524e-04 5.213982948192e-03 0.0 
0.0 0.0 0.0 
1.191903200689e-03 6.650597227346e-04 0.0 
6.650597227346e-04 5.103692072220e-03 0.0 
0.0 0.0 0.0 
-7.389338082057e-04 8.504550147239e-04 0.0 
8.504550147239e-04 1.706474106304e-02 0.0 
0.0 0.0 0.0 
-5.390598700486e-04 8.035215426806e-04 0.0 
8.035215426806e-04 1.724794020216e-02 0.0 
0.0 0.0 0.0 
9.098367785379e-04 -3.429294199511e-05 0.0 
-3.429294199511e-05 2.891071281669e-03 0.0 
0.0 0.0 0.0 
8.885424697328e-04 -2.401499047591e-05 0.0 
-2.401499047591e-05 2.765200770830e-03 0.0 
0.0 0.0 0.0 
8.331102713706e-04 -1.107937569331e-04 0.0 
-1.107937569331e-04 2.777899410308e-03 0.0 
0.0 0.0 0.0 
-7.677081676640e-04 1.353110699683e-03 0.0 
1.353110699683e-03 1.690674355977e-02 0.0 
0.0 0.0 0.0 
3.326720306854e-04 2.563935077084e-04 0.0 
2.563935077084e-04 7.419315755080e-03 0.0 
0.0 0.0 0.0 
3.898562812502e-04 3.000975234084e-04 0.0 
3.000975234084e-04 7.200776301659e-03 0.0 
0.0 0.0 0.0 
6.250589408446e-05 -2.015278037686e-04 0.0 
-2.015278037686e-04 8.394153570473e-04 0.0 
0.0 0.0 0.0 
1.247321571756e-04 -2.371257021752e-04 0.0 
-2.371257021752e-04 1.039014989044e-03 0.0 
0.0 0.0 0.0 
-1.799555716567e-04 8.812875281431e-04 0.0 
8.812875281431e-04 2.557785450336e-03 0.0 
0.0 0.0 0.0 
-2.024673092846e-04 6.955659156749e-04 0.0 
6.955659156749e-04 2.040510118649e-03 0.0 
0.0 0.0 0.0 
-8.029743432453e-04 2.007735795837e-03 0.0 
2.007735795837e-03 1.605033218938e-02 0.0 
0.0 0.0 0.0 
-8.982160255351e-04 2.095951244229e-03 0.0 
2.095951244229e-03 1.565466822963e-02 0.0 
0.0 0.0 0.0 
-6.554470704415e-04 1.947258407066e-03 0.0 
1.947258407066e-03 1.641486226957e-02 0.0 
0.0 0.0 0.0 
4.359078721176e-04 -5.609942579890e-05 0.0 
-5.609942579890e-05 1.855991027771e-03 0.0 
0.0 0.0 0.0 
8.200966785210e-04 1.964889265827e-03 0.0 
1.964889265827e-03 8.426148135513e-03 0.0 
0.0 0.0 0.0 
5.639177876154e-04 1.257516809097e-03 0.0 
1.257516809097e-03 7.846252445347e-03 0.0 
0.0 0.0 0.0 
6.744547230874e-04 1.313382724351e-03 0.0 
1.313382724351e-03 7.706759755680e-03 0.0 
0.0 0.0 0.0 
4.351196307818e-04 1.213276398062e-03 0.0 
1.213276398062e-03 8.081369388536e-03 0.0 
0.0 0.0 0.0 
7.064513654406e-04 2.082356489227e-03 0.0 
2.082356489227e-03 8.898797039637e-03 0.0 
0.0 0.0 0.0 
5.396038921463e-04 2.221112359536e-03 0.0 
2.221112359536e-03 9.408467277491e-03 0.0 
0.0 0.0 0.0 
4.593718668558e-04 2.423436334801e-03 0.0 
2.423436334801e-03 9.996531368582e-03 0.0 
0.0 0.0 0.0 
-4.012747017003e-04 7.250212688425e-06 0.0 
7.250212688425e-06 9.115622411472e-04 0.0 
0.0 0.0 0.0 
-5.029672726072e-04 1.502467524792e-04 0.0 
1.502467524792e-04 1.713721168318e-02 0.0 
0.0 0.0 0.0 
-1.158785169132e-03 6.933424732606e-05 0.0 
6.933424732606e-05 1.523755339277e-02 0.0 
0.0 0.0 0.0 
-5.707503720818e-04 -6.489056684585e-05 0.0 
-6.489056684585e-05 7.609847147824e-04 0.0 
0.0 0.0 0.0 
-1.101265425282e-03 3.019958313663e-05 0.0 
3.019958313663e-05 1.502755459239e-02 0.0 
0.0 0.0 0.0 
-1.088449781991e-03 4.958736239144e-05 0.0 
4.958736239144e-05 1.526489464200e-02 0.0 
0.0 0.0 0.0 
-1.070915005829e-03 9.923745370633e-06 0.0 
9.923745370633e-06 1.479551521280e-02 0.0 
0.0 0.0 0.0 
3.569002549418e-04 -5.902125661711e-05 0.0 
-5.902125661711e-05 1.494433668913e-03 0.0 
0.0 0.0 0.0 
-1.376413314664e-03 1.898908350859e-04 0.0 
1.898908350859e-04 1.516217605954e-02 0.0 
0.0 0.0 0.0 
-1.543233130322e-03 4.176127490284e-04 0.0 
4.176127490284e-04 1.539987440483e-02 0.0 
0.0 0.0 0.0 
-5.298658760763e-05 -1.847558468677e-04 0.0 
-1.847558468677e-04 6.440691747968e-04 0.0 
0.0 0.0 0.0 
-5.579888696552e-04 1.265248993635e-03 0.0 
1.265248993635e-03 1.711106591145e-02 0.0 
0.0 0.0 0.0 
2.534599585913e-05 -1.576301919802e-04 0.0 
-1.576301919802e-04 6.461115073218e-04 0.0 
0.0 0.0 0.0 
1.027368879955e-04 -1.545138752060e-04 0.0 
-1.545138752060e-04 7.710242376731e-04 0.0 
0.0 0.0 0.0 
4.440000284035e-04 7.808152567950e-04 0.0 
7.808152567950e-04 7.586068456242e-03 0.0 
0.0 0.0 0.0 
5.117738186861e-04 6.505433616640e-04 0.0 
6.505433616640e-04 7.232790350388e-03 0.0 
0.0 0.0 0.0 
3.467296321772e-04 7.138489821213e-04 0.0 
7.138489821213e-04 7.764044260923e-03 0.0 
0.0 0.0 0.0 
4.172571597633e-04 6.040255460381e-04 0.0 
6.040255460381e-04 7.413293254191e-03 0.0 
0.0 0.0 0.0 
5.692626463397e-04 5.384582929493e-04 0.0 
5.384582929493e-04 6.895673420214e-03 0.0 
0.0 0.0 0.0 
4.875884288595e-04 4.994450249780e-04 0.0 
4.994450249780e-04 7.106056139322e-03 0.0 
0.0 0.0 0.0 
-1.165824290058e-03 4.492457473356e-05 0.0 
4.492457473356e-05 1.499976353614e-02 0.0 
0.0 0.0 0.0 
3.159204251353e-04 5.683370424859e-04 0.0 
5.683370424859e-04 7.704060915287e-03 0.0 
0.0 0.0 0.0 
3.998471708083e-04 4.472707393273e-04 0.0 
4.472707393273e-04 7.328502974701e-03 0.0 
0.0 0.0 0.0 
2.359675753666e-04 4.994188158931e-04 0.0 
4.994188158931e-04 7.927438426977e-03 0.0 
0.0 0.0 0.0 
-8.580661465877e-04 1.913405839625e-03 0.0 
1.913405839625e-03 9.889220239566e-03 0.0 
0.0 0.0 0.0 
4.295431234735e-05 1.474291588429e-03 0.0 
1.474291588429e-03 5.363617372815e-03 0.0 
0.0 0.0 0.0 
-2.608966801792e-04 1.551210626182e-03 0.0 
1.551210626182e-03 5.706938622147e-03 0.0 
0.0 0.0 0.0 
-6.172020833403e-04 1.568521510600e-03 0.0 
1.568521510600e-03 5.446789569778e-03 0.0 
0.0 0.0 0.0 
5.685299463254e-05 2.889877461047e-03 0.0 
2.889877461047e-03 1.242103473702e-02 0.0 
0.0 0.0 0.0 
-3.523674503741e-05 2.789393494255e-03 0.0 
2.789393494255e-03 1.257911213282e-02 0.0 
0.0 0.0 0.0 
5.525271087401e-04 9.786720338602e-05 0.0 
9.786720338602e-05 6.349042253763e-03 0.0 
0.0 0.0 0.0 
6.344408988045e-04 8.100317780401e-05 0.0 
8.100317780401e-05 5.856890298525e-03 0.0 
0.0 0.0 0.0 
-1.064103315660e-03 2.274219678473e-05 0.0 
2.274219678473e-05 1.503502232616e-02 0.0 
0.0 0.0 0.0 
-1.043118228398e-03 1.308388142746e-05 0.0 
1.308388142746e-05 1.500448549743e-02 0.0 
0.0 0.0 0.0 
-1.037884772546e-03 4.657458333643e-05 0.0 
4.657458333643e-05 1.538383412458e-02 0.0 
0.0 0.0 0.0 
-1.020390688773e-03 2.655892373871e-05 0.0 
2.655892373871e-05 1.532822679125e-02 0.0 
0.0 0.0 0.0 
-9.959264550014e-04 6.426957902209e-05 0.0 
6.426957902209e-05 1.569584375373e-02 0.0 
0.0 0.0 0.0 
-9.796798359730e-04 3.424375503672e-05 0.0 
3.424375503672e-05 1.563123267869e-02 0.0 
0.0 0.0 0.0 
-9.374518227382e-04 6.967577475199e-05 0.0 
6.967577475199e-05 1.599272141146e-02 0.0 
0.0 0.0 0.0 
3.344550651910e-04 2.639413242013e-03 0.0 
2.639413242013e-03 1.064666432866e-02 0.0 
0.0 0.0 0.0 
-5.201026811807e-04 1.362938249074e-03 0.0 
1.362938249074e-03 4.005868182229e-03 0.0 
0.0 0.0 0.0 
-1.078643798220e-03 1.982999108063e-03 0.0 
1.982999108063e-03 1.137409391556e-02 0.0 
0.0 0.0 0.0 
5.391025235096e-04 1.951447023499e-03 0.0 
1.951447023499e-03 8.904570362778e-03 0.0 
0.0 0.0 0.0 
6.622532455315e-04 1.748685729860e-03 0.0 
1.748685729860e-03 8.373511211719e-03 0.0 
0.0 0.0 0.0 
-4.888803113583e-04 1.901782144462e-03 0.0 
1.901782144462e-03 8.620990538495e-03 0.0 
0.0 0.0 0.0 
-7.259542450726e-04 1.811556848622e-03 0.0 
1.811556848622e-03 8.391973268132e-03 0.0 
0.0 0.0 0.0 
4.155363657832e-04 9.819342616115e-04 0.0 
9.819342616115e-04 7.857342075358e-03 0.0 
0.0 0.0 0.0 
7.224626185486e-04 1.128779451179e-03 0.0 
1.128779451179e-03 4.667677808937e-03 0.0 
0.0 0.0 0.0 
-3.915915619591e-04 1.532772659906e-03 0.0 
1.532772659906e-03 1.706737954069e-02 0.0 
0.0 0.0 0.0 
-7.620254337977e-04 3.299205956909e-04 0.0 
3.299205956909e-04 6.896819986525e-04 0.0 
0.0 0.0 0.0 
-4.888999251087e-04 2.952712487102e-04 0.0 
2.952712487102e-04 1.039241175615e-03 0.0 
0.0 0.0 0.0 
6.911317601048e-04 1.299983549691e-03 0.0 
1.299983549691e-03 5.252700323969e-03 0.0 
0.0 0.0 0.0 
-3.220742824234e-04 1.994235240086e-03 0.0 
1.994235240086e-03 8.936667786823e-03 0.0 
0.0 0.0 0.0 
2.541122122964e-06 1.592786967631e-03 0.0 
1.592786967631e-03 6.044129699605e-03 0.0 
0.0 0.0 0.0 
-2.936703067971e-04 1.665380213716e-03 0.0 
1.665380213716e-03 6.447197447777e-03 0.0 
0.0 0.0 0.0 
1.015803477078e-03 8.842728900072e-04 0.0 
8.842728900072e-04 6.212897370026e-03 0.0 
0.0 0.0 0.0 
3.984039773212e-05 -2.429422255636e-04 0.0 
-2.429422255636e-04 9.206917145298e-04 0.0 
0.0 0.0 0.0 
-1.686668863121e-04 1.050619844444e-03 0.0 
1.050619844444e-03 3.120899621867e-03 0.0 
0.0 0.0 0.0 
-9.613049821771e-04 1.211611214125e-04 0.0 
1.211611214125e-04 1.604634247473e-02 0.0 
0.0 0.0 0.0 
-4.811590312460e-04 1.102617387615e-03 0.0 
1.102617387615e-03 2.738790400326e-03 0.0 
0.0 0.0 0.0 
5.892117670439e-04 4.527056456264e-05 0.0 
4.527056456264e-05 6.109445066143e-03 0.0 
0.0 0.0 0.0 
8.746262448672e-04 1.019818400882e-03 0.0 
1.019818400882e-03 4.554338651811e-03 0.0 
0.0 0.0 0.0 
1.604616373017e-04 1.947422087317e-03 0.0 
1.947422087317e-03 8.166970171291e-03 0.0 
0.0 0.0 0.0 
1.151148370090e-04 1.034842563517e-03 0.0 
1.034842563517e-03 3.495250278255e-03 0.0 
0.0 0.0 0.0 
3.135665894470e-04 1.363404766902e-03 0.0 
1.363404766902e-03 5.093131204432e-03 0.0 
0.0 0.0 0.0 
-8.313155005655e-04 2.226586221994e-03 0.0 
2.226586221994e-03 1.223731880508e-02 0.0 
0.0 0.0 0.0 
-1.335887154361e-03 1.974635341691e-03 0.0 
1.974635341691e-03 1.315620165125e-02 0.0 
0.0 0.0 0.0 
-1.176537314162e-03 2.055008376562e-03 0.0 
2.055008376562e-03 1.242319680864e-02 0.0 
0.0 0.0 0.0 
9.937981625202e-04 9.177387815169e-04 0.0 
9.177387815169e-04 4.479186170374e-03 0.0 
0.0 0.0 0.0 
-3.441456745245e-04 1.751383102257e-03 0.0 
1.751383102257e-03 7.160099428908e-03 0.0 
0.0 0.0 0.0 
-6.696067903461e-04 1.693052711394e-03 0.0 
1.693052711394e-03 6.894034519850e-03 0.0 
0.0 0.0 0.0 
-2.596054082076e-04 2.221219179968e-03 0.0 
2.221219179968e-03 1.035130309910e-02 0.0 
0.0 0.0 0.0 
-1.125912952617e-03 1.940718455010e-03 0.0 
1.940718455010e-03 1.547198528584e-02 0.0 
0.0 0.0 0.0 
-9.369631910839e-04 2.163824156810e-03 0.0 
2.163824156810e-03 1.519432413280e-02 0.0 
0.0 0.0 0.0 
-7.132200243657e-04 2.307977807545e-03 0.0 
2.307977807545e-03 1.537205781430e-02 0.0 
0.0 0.0 0.0 
-7.444005265411e-04 2.360845380844e-03 0.0 
2.360845380844e-03 1.488939422614e-02 0.0 
0.0 0.0 0.0 
-9.306387406473e-04 2.232466016084e-03 0.0 
2.232466016084e-03 1.467556467702e-02 0.0 
0.0 0.0 0.0 
-7.246620805188e-04 2.399595759746e-03 0.0 
2.399595759746e-03 1.434564538072e-02 0.0 
0.0 0.0 0.0 
-5.488540158125e-04 2.533655499115e-03 0.0 
2.533655499115e-03 1.459040908819e-02 0.0 
0.0 0.0 0.0 
-5.212073812624e-04 2.551796166907e-03 0.0 
2.551796166907e-03 1.402028330790e-02 0.0 
0.0 0.0 0.0 
-3.549860342863e-04 2.732005580307e-03 0.0 
2.732005580307e-03 1.434790929090e-02 0.0 
0.0 0.0 0.0 
-3.411894573437e-04 2.679480114403e-03 0.0 
2.679480114403e-03 1.368361451323e-02 0.0 
0.0 0.0 0.0 
-4.547080701050e-04 2.543497080130e-03 0.0 
2.543497080130e-03 1.339507066668e-02 0.0 
0.0 0.0 0.0 
-2.831617609434e-04 2.634592107875e-03 0.0 
2.634592107875e-03 1.307072194166e-02 0.0 
0.0 0.0 0.0 
-2.005265382367e-04 2.785456484806e-03 0.0 
2.785456484806e-03 1.334339503324e-02 0.0 
0.0 0.0 0.0 
-3.676047378992e-04 2.522883097512e-03 0.0 
2.522883097512e-03 1.275749325320e-02 0.0 
0.0 0.0 0.0 
3.929948676162e-04 2.151662616307e-03 0.0 
2.151662616307e-03 9.430547525986e-03 0.0 
0.0 0.0 0.0 
8.070250571215e-04 1.368219189775e-03 0.0 
1.368219189775e-03 5.682265059479e-03 0.0 
0.0 0.0 0.0 
-2.573348548018e-04 1.473061207195e-04 0.0 
1.473061207195e-04 1.191920515472e-03 0.0 
0.0 0.0 0.0 
-3.911065833001e-04 4.944776836753e-04 0.0 
4.944776836753e-04 1.387023291012e-03 0.0 
0.0 0.0 0.0 
3.559493247805e-05 2.056984357085e-03 0.0 
2.056984357085e-03 8.887163007685e-03 0.0 
0.0 0.0 0.0 
-2.015770811749e-04 2.883816111209e-03 0.0 
2.883816111209e-03 1.485522686540e-02 0.0 
0.0 0.0 0.0 
-3.052162217681e-04 2.569164652143e-03 0.0 
2.569164652143e-03 1.575445285277e-02 0.0 
0.0 0.0 0.0 
7.278739248767e-04 7.715705982380e-04 0.0 
7.715705982380e-04 3.625791091746e-03 0.0 
0.0 0.0 0.0 
4.910152467164e-05 3.088781105714e-03 0.0 
3.088781105714e-03 1.262107965106e-02 0.0 
0.0 0.0 0.0 
-9.168125648862e-04 2.160139686288e-03 0.0 
2.160139686288e-03 1.194864197004e-02 0.0 
0.0 0.0 0.0 
4.187862583708e-04 3.647630417378e-04 0.0 
3.647630417378e-04 2.335395715801e-03 0.0 
0.0 0.0 0.0 
1.260766470425e-04 2.970574328487e-03 0.0 
2.970574328487e-03 1.177274349253e-02 0.0 
0.0 0.0 0.0 
-1.135936677108e-03 2.035113058032e-03 0.0 
2.035113058032e-03 1.499454526762e-02 0.0 
0.0 0.0 0.0 
-1.100202051747e-03 2.122905694555e-03 0.0 
2.122905694555e-03 1.445719915645e-02 0.0 
0.0 0.0 0.0 
-1.310264316736e-03 1.918419328304e-03 0.0 
1.918419328304e-03 1.479583765136e-02 0.0 
0.0 0.0 0.0 
-3.358761492053e-04 2.206031878366e-03 0.0 
2.206031878366e-03 1.640788704564e-02 0.0 
0.0 0.0 0.0 
-1.570503823512e-03 6.339951754034e-04 0.0 
6.339951754034e-04 1.574086586661e-02 0.0 
0.0 0.0 0.0 
2.058048842007e-04 2.545091969247e-03 0.0 
2.545091969247e-03 1.038861771919e-02 0.0 
0.0 0.0 0.0 
1.154504019293e-03 1.268393985475e-03 0.0 
1.268393985475e-03 6.297240906409e-03 0.0 
0.0 0.0 0.0 
1.134455995513e-03 1.326158849258e-03 0.0 
1.326158849258e-03 6.310534188157e-03 0.0 
0.0 0.0 0.0 
1.145547801138e-03 1.212337239978e-03 0.0 
1.212337239978e-03 5.834366265263e-03 0.0 
0.0 0.0 0.0 
-6.630150178499e-04 2.423189900732e-03 0.0 
2.423189900732e-03 1.374768040566e-02 0.0 
0.0 0.0 0.0 
2.519428052767e-04 1.947487901777e-03 0.0 
1.947487901777e-03 9.304859531451e-03 0.0 
0.0 0.0 0.0 
4.626487334491e-04 1.742910198098e-03 0.0 
1.742910198098e-03 8.698912438405e-03 0.0 
0.0 0.0 0.0 
4.533701600556e-04 1.610709005284e-03 0.0 
1.610709005284e-03 8.526029651589e-03 0.0 
0.0 0.0 0.0 
6.471848613269e-04 1.546251430707e-03 0.0 
1.546251430707e-03 8.081626149536e-03 0.0 
0.0 0.0 0.0 
2.446529340489e-04 1.651359716094e-03 0.0 
1.651359716094e-03 8.942770937167e-03 0.0 
0.0 0.0 0.0 
-9.096161763195e-05 3.068236232186e-03 0.0 
3.068236232186e-03 1.399415556412e-02 0.0 
0.0 0.0 0.0 
-3.926177944835e-05 3.111558546781e-03 0.0 
3.111558546781e-03 1.355053981788e-02 0.0 
0.0 0.0 0.0 
7.508854378448e-04 -1.040206155387e-04 0.0 
-1.040206155387e-04 2.381746739701e-03 0.0 
0.0 0.0 0.0 
8.550351714132e-04 -2.056035497498e-06 0.0 
-2.056035497498e-06 2.650058596747e-03 0.0 
0.0 0.0 0.0 
9.780263436216e-04 8.735348896729e-05 0.0 
8.735348896729e-05 3.044830491748e-03 0.0 
0.0 0.0 0.0 
9.472097158256e-04 1.195988114855e-04 0.0 
1.195988114855e-04 2.943881518594e-03 0.0 
0.0 0.0 0.0 
8.065354629604e-04 3.275504155927e-05 0.0 
3.275504155927e-05 2.547019133442e-03 0.0 
0.0 0.0 0.0 
8.997187863478e-04 1.650699365332e-04 0.0 
1.650699365332e-04 2.856270556249e-03 0.0 
0.0 0.0 0.0 
1.023939760621e-03 2.577331166792e-04 0.0 
2.577331166792e-04 3.263821787588e-03 0.0 
0.0 0.0 0.0 
8.341473570750e-04 2.272671105968e-04 0.0 
2.272671105968e-04 2.786097254127e-03 0.0 
0.0 0.0 0.0 
-5.634713080721e-05 2.641042574030e-03 0.0 
2.641042574030e-03 1.219272852432e-02 0.0 
0.0 0.0 0.0 
2.223880032240e-04 1.375391645875e-03 0.0 
1.375391645875e-03 8.681701536965e-03 0.0 
0.0 0.0 0.0 
1.045578435421e-03 4.654468299320e-04 0.0 
4.654468299320e-04 5.178695741952e-03 0.0 
0.0 0.0 0.0 
1.097832734659e-03 4.791996748048e-04 0.0 
4.791996748048e-04 5.020250524589e-03 0.0 
0.0 0.0 0.0 
1.115965288193e-03 3.668222285963e-04 0.0 
3.668222285963e-04 4.559230532577e-03 0.0 
0.0 0.0 0.0 
8.275760541988e-04 -2.531772441038e-05 0.0 
-2.531772441038e-05 3.572689079395e-03 0.0 
0.0 0.0 0.0 
8.778613036786e-04 2.079917495272e-05 0.0 
2.079917495272e-05 3.808875539331e-03 0.0 
0.0 0.0 0.0 
8.956968560156e-04 9.045769055853e-05 0.0 
9.045769055853e-05 4.232499001384e-03 0.0 
0.0 0.0 0.0 
7.752171048889e-04 -5.788502204642e-05 0.0 
-5.788502204642e-05 3.344043829035e-03 0.0 
0.0 0.0 0.0 
7.104623608967e-04 2.044287171388e-03 0.0 
2.044287171388e-03 8.668352854357e-03 0.0 
0.0 0.0 0.0 
2.133401937797e-04 1.241849037465e-03 0.0 
1.241849037465e-03 8.563416958730e-03 0.0 
0.0 0.0 0.0 
1.190355675424e-03 8.246294019689e-04 0.0 
8.246294019689e-04 5.488000148119e-03 0.0 
0.0 0.0 0.0 
8.955640513397e-04 5.176538119324e-06 0.0 
5.176538119324e-06 3.634525749610e-03 0.0 
0.0 0.0 0.0 
-1.480154497058e-03 2.769213509560e-04 0.0 
2.769213509560e-04 1.474984454090e-02 0.0 
0.0 0.0 0.0 
-1.732078460300e-03 7.076946389052e-04 0.0 
7.076946389052e-04 1.504739011615e-02 0.0 
0.0 0.0 0.0 
-1.851482640835e-03 1.090426432142e-03 0.0 
1.090426432142e-03 1.485004130277e-02 0.0 
0.0 0.0 0.0 
-1.767304176900e-03 1.139442662034e-03 0.0 
1.139442662034e-03 1.514810725783e-02 0.0 
0.0 0.0 0.0 
-1.600261002871e-03 4.518922305851e-04 0.0 
4.518922305851e-04 1.514641744155e-02 0.0 
0.0 0.0 0.0 
8.104116204751e-04 5.424036270802e-05 0.0 
5.424036270802e-05 4.352977031039e-03 0.0 
0.0 0.0 0.0 
7.862495999694e-04 5.762808695445e-05 0.0 
5.762808695445e-05 4.540804930132e-03 0.0 
0.0 0.0 0.0 
7.721420772518e-04 2.727688270652e-05 0.0 
2.727688270652e-05 4.302440577146e-03 0.0 
0.0 0.0 0.0 
7.624976470226e-04 5.492005740978e-05 0.0 
5.492005740978e-05 4.730773317266e-03 0.0 
0.0 0.0 0.0 
7.587050247949e-04 2.467312534709e-05 0.0 
2.467312534709e-05 4.479895406599e-03 0.0 
0.0 0.0 0.0 
7.593130993734e-04 5.246306863280e-06 0.0 
5.246306863280e-06 4.088407163662e-03 0.0 
0.0 0.0 0.0 
7.402714805030e-04 4.372601629392e-05 0.0 
4.372601629392e-05 4.914457422570e-03 0.0 
0.0 0.0 0.0 
7.440715712219e-04 2.033901166746e-05 0.0 
2.033901166746e-05 4.633672784614e-03 0.0 
0.0 0.0 0.0 
-1.228612789627e-03 7.207127563603e-05 0.0 
7.207127563603e-05 1.470350114262e-02 0.0 
0.0 0.0 0.0 
-6.513878349400e-04 -1.236255127201e-04 0.0 
-1.236255127201e-04 5.451476410253e-04 0.0 
0.0 0.0 0.0 
-3.421085163850e-04 -2.009452819844e-04 0.0 
-2.009452819844e-04 7.458665521283e-04 0.0 
0.0 0.0 0.0 
-2.997470106846e-04 -2.127946124765e-04 0.0 
-2.127946124765e-04 7.084072507657e-04 0.0 
0.0 0.0 0.0 
-9.651708715445e-05 -2.537166181570e-04 0.0 
-2.537166181570e-04 9.820183690804e-04 0.0 
0.0 0.0 0.0 
-1.005393120729e-04 -2.132989510028e-04 0.0 
-2.132989510028e-04 1.024856426527e-03 0.0 
0.0 0.0 0.0 
1.469358871451e-04 -2.409720244325e-04 0.0 
-2.409720244325e-04 1.302676881021e-03 0.0 
0.0 0.0 0.0 
1.014812801219e-04 -2.030368141070e-04 0.0 
-2.030368141070e-04 1.291523675415e-03 0.0 
0.0 0.0 0.0 
-3.835762618875e-04 -1.798172520459e-04 0.0 
-1.798172520459e-04 7.752104215381e-04 0.0 
0.0 0.0 0.0 
-4.865464737596e-04 -1.294682068111e-04 0.0 
-1.294682068111e-04 4.661182937356e-04 0.0 
0.0 0.0 0.0 
-2.383670892916e-04 -2.093385613488e-04 0.0 
-2.093385613488e-04 6.778255332944e-04 0.0 
0.0 0.0 0.0 
-3.976560972498e-04 -1.233268138207e-04 0.0 
-1.233268138207e-04 4.241367423485e-04 0.0 
0.0 0.0 0.0 
-1.841001035329e-04 -2.065731716501e-04 0.0 
-2.065731716501e-04 6.405167337457e-04 0.0 
0.0 0.0 0.0 
-2.989275306969e-07 -2.603282856777e-04 0.0 
-2.603282856777e-04 9.708628447625e-04 0.0 
0.0 0.0 0.0 
2.837030897391e-04 -2.538609089805e-04 0.0 
-2.538609089805e-04 1.393196563451e-03 0.0 
0.0 0.0 0.0 
1.599889860947e-04 2.840455229151e-04 0.0 
2.840455229151e-04 7.993340221415e-03 0.0 
0.0 0.0 0.0 
7.034731220183e-04 -9.420745918919e-06 0.0 
-9.420745918919e-06 3.463663130907e-03 0.0 
0.0 0.0 0.0 
6.859551476989e-04 -2.368125559679e-05 0.0 
-2.368125559679e-05 3.271047480185e-03 0.0 
0.0 0.0 0.0 
6.397687455032e-04 -3.562074918363e-05 0.0 
-3.562074918363e-05 2.894261435236e-03 0.0 
0.0 0.0 0.0 
6.718505940657e-04 -4.877744834861e-05 0.0 
-4.877744834861e-05 3.095586668419e-03 0.0 
0.0 0.0 0.0 
7.218128366709e-04 -1.027095759647e-05 0.0 
-1.027095759647e-05 3.624256809486e-03 0.0 
0.0 0.0 0.0 
6.026392597113e-04 -2.050923115246e-05 0.0 
-2.050923115246e-05 2.690724766435e-03 0.0 
0.0 0.0 0.0 
5.801002176586e-04 -4.358120354615e-05 0.0 
-4.358120354615e-05 2.552664491738e-03 0.0 
0.0 0.0 0.0 
1.085384543224e-04 -2.698049006920e-05 0.0 
-2.698049006920e-05 2.080267008239e-04 0.0 
0.0 0.0 0.0 
1.637821209977e-04 -4.458490363282e-05 0.0 
-4.458490363282e-05 4.997859555944e-04 0.0 
0.0 0.0 0.0 
1.584641965513e-04 -2.249524657026e-05 0.0 
-2.249524657026e-05 4.668260727811e-04 0.0 
0.0 0.0 0.0 
2.197064903484e-04 -3.934457904435e-05 0.0 
-3.934457904435e-05 8.260049583473e-04 0.0 
0.0 0.0 0.0 
2.124122367430e-04 -6.834056048264e-05 0.0 
-6.834056048264e-05 8.214123114106e-04 0.0 
0.0 0.0 0.0 
1.494454448496e-04 -6.122396873200e-05 0.0 
-6.122396873200e-05 5.092104602014e-04 0.0 
0.0 0.0 0.0 
1.279937729754e-04 -7.881231701011e-05 0.0 
-7.881231701011e-05 5.197451943165e-04 0.0 
0.0 0.0 0.0 
5.161586910174e-05 -5.228133531359e-05 0.0 
-5.228133531359e-05 2.320680526484e-04 0.0 
0.0 0.0 0.0 
1.050107066383e-04 -9.873904522134e-05 0.0 
-9.873904522134e-05 5.296308978447e-04 0.0 
0.0 0.0 0.0 
1.895053558676e-04 -1.139209605303e-04 0.0 
-1.139209605303e-04 8.492606711304e-04 0.0 
0.0 0.0 0.0 
1.329673031366e-05 -6.287982996966e-05 0.0 
-6.287982996966e-05 2.392141488965e-04 0.0 
0.0 0.0 0.0 
-7.934082017421e-04 4.432300255843e-05 0.0 
4.432300255843e-05 1.645869722223e-02 0.0 
0.0 0.0 0.0 
-7.358703711131e-04 1.087437182502e-04 0.0 
1.087437182502e-04 1.664810127731e-02 0.0 
0.0 0.0 0.0 
2.070704220360e-04 9.940319009960e-04 0.0 
9.940319009960e-04 8.353140893264e-03 0.0 
0.0 0.0 0.0 
-1.134783932919e-03 2.318598089853e-05 0.0 
2.318598089853e-05 1.472265050994e-02 0.0 
0.0 0.0 0.0 
-2.360191072249e-04 -1.043020216764e-04 0.0 
-1.043020216764e-04 3.586424306281e-04 0.0 
0.0 0.0 0.0 
-2.698463291531e-04 5.120294487829e-04 0.0 
5.120294487829e-04 1.749588479495e-02 0.0 
0.0 0.0 0.0 
-2.972997769247e-04 9.771656868101e-04 0.0 
9.771656868101e-04 1.740913156298e-02 0.0 
0.0 0.0 0.0 
-2.601264988960e-04 8.218098941013e-04 0.0 
8.218098941013e-04 1.747034289048e-02 0.0 
0.0 0.0 0.0 
3.769127039224e-04 6.125935187345e-05 0.0 
6.125935187345e-05 7.134828630685e-03 0.0 
0.0 0.0 0.0 
3.191429611048e-04 1.238007664160e-04 0.0 
1.238007664160e-04 7.397084451164e-03 0.0 
0.0 0.0 0.0 
-2.305342551884e-04 2.843675052514e-04 0.0 
2.843675052514e-04 1.753084098370e-02 0.0 
0.0 0.0 0.0 
5.913138063783e-04 -1.988429275738e-04 0.0 
-1.988429275738e-04 2.245052531285e-03 0.0 
0.0 0.0 0.0 
-5.478283160729e-04 2.523965480971e-03 0.0 
2.523965480971e-03 1.508895984575e-02 0.0 
0.0 0.0 0.0 
-6.720956219215e-04 4.799263031532e-04 0.0 
4.799263031532e-04 1.704444412198e-02 0.0 
0.0 0.0 0.0 
2.603194267165e-04 5.083626695148e-04 0.0 
5.083626695148e-04 2.365124972500e-03 0.0 
0.0 0.0 0.0 
6.200186643248e-04 -2.202239481535e-04 0.0 
-2.202239481535e-04 2.183919311031e-03 0.0 
0.0 0.0 0.0 
6.796411875252e-04 1.094425272144e-04 0.0 
1.094425272144e-04 5.638455222583e-03 0.0 
0.0 0.0 0.0 
8.591056891264e-04 2.336564629376e-04 0.0 
2.336564629376e-04 5.122320060415e-03 0.0 
0.0 0.0 0.0 
5.213177724948e-04 2.692625048404e-04 0.0 
2.692625048404e-04 6.688777295237e-03 0.0 
0.0 0.0 0.0 
7.632480624880e-04 1.465821372425e-04 0.0 
1.465821372425e-04 5.236484574044e-03 0.0 
0.0 0.0 0.0 
6.546223588000e-04 3.431766703563e-04 0.0 
3.431766703563e-04 6.281048364732e-03 0.0 
0.0 0.0 0.0 
4.628578392045e-04 1.458625212326e-03 0.0 
1.458625212326e-03 8.311087589065e-03 0.0 
0.0 0.0 0.0 
3.277355040297e-04 -9.034465611383e-05 0.0 
-9.034465611383e-05 1.374052299512e-03 0.0 
0.0 0.0 0.0 
-1.241954214709e-03 2.658227600718e-04 0.0 
2.658227600718e-04 1.586198514310e-02 0.0 
0.0 0.0 0.0 
-1.082173155848e-03 1.143929396207e-04 0.0 
1.143929396207e-04 1.568228168986e-02 0.0 
0.0 0.0 0.0 
-9.658546075031e-04 4.011639131485e-04 0.0 
4.011639131485e-04 1.658190634442e-02 0.0 
0.0 0.0 0.0 
5.757840998068e-04 -1.421951457445e-04 0.0 
-1.421951457445e-04 2.357380162746e-03 0.0 
0.0 0.0 0.0 
7.637975629826e-04 -3.931234500234e-06 0.0 
-3.931234500234e-06 3.896967829321e-03 0.0 
0.0 0.0 0.0 
3.346258256388e-04 -1.967152401148e-04 0.0 
-1.967152401148e-04 1.472390745828e-03 0.0 
0.0 0.0 0.0 
2.012753073934e-04 2.829420099061e-03 0.0 
2.829420099061e-03 1.156775145243e-02 0.0 
0.0 0.0 0.0 
-3.378969843653e-04 2.150082449292e-03 0.0 
2.150082449292e-03 1.001186134516e-02 0.0 
0.0 0.0 0.0 
1.077510847056e-03 2.502511340301e-04 0.0 
2.502511340301e-04 4.261551026108e-03 0.0 
0.0 0.0 0.0 
7.769289026183e-04 -8.132121661035e-05 0.0 
-8.132121661035e-05 3.170812857053e-03 0.0 
0.0 0.0 0.0 
6.727089821312e-04 -1.825333032879e-04 0.0 
-1.825333032879e-04 2.461608107015e-03 0.0 
0.0 0.0 0.0 
5.790812676153e-04 -2.319560066929e-04 0.0 
-2.319560066929e-04 2.045901398625e-03 0.0 
0.0 0.0 0.0 
7.415886758312e-04 1.537096401971e-03 0.0 
1.537096401971e-03 6.298885170853e-03 0.0 
0.0 0.0 0.0 
9.505268986203e-04 7.060437124404e-05 0.0 
7.060437124404e-05 3.881510416588e-03 0.0 
0.0 0.0 0.0 
8.427715503976e-04 5.286613639605e-04 0.0 
5.286613639605e-04 6.010126385945e-03 0.0 
0.0 0.0 0.0 
-8.394031002132e-04 3.840605519688e-04 0.0 
3.840605519688e-04 1.675197555780e-02 0.0 
0.0 0.0 0.0 
-1.035010574657e-04 -9.140784679668e-05 0.0 
-9.140784679668e-05 3.348033496474e-04 0.0 
0.0 0.0 0.0 
8.161795577066e-04 6.510667682161e-04 0.0 
6.510667682161e-04 6.337432996780e-03 0.0 
0.0 0.0 0.0 
9.570356358464e-04 2.428707673940e-04 0.0 
2.428707673940e-04 4.756982396739e-03 0.0 
0.0 0.0 0.0 
-1.471621587908e-03 6.062248355772e-04 0.0 
6.062248355772e-04 1.596018750586e-02 0.0 
0.0 0.0 0.0 
9.677834023263e-04 1.478078160669e-03 0.0 
1.478078160669e-03 7.326178753072e-03 0.0 
0.0 0.0 0.0 
2.615690475232e-04 -2.627609077502e-04 0.0 
-2.627609077502e-04 1.447620677308e-03 0.0 
0.0 0.0 0.0 
-1.105555846617e-03 7.415889300317e-04 0.0 
7.415889300317e-04 1.664517275983e-02 0.0 
0.0 0.0 0.0 
-8.279033776709e-04 1.661393091446e-03 0.0 
1.661393091446e-03 1.656034536261e-02 0.0 
0.0 0.0 0.0 
-1.656044423216e-03 6.900261225430e-04 0.0 
6.900261225430e-04 1.551358398088e-02 0.0 
0.0 0.0 0.0 
2.196732275856e-04 -1.843901276438e-04 0.0 
-1.843901276438e-04 1.115102262428e-03 0.0 
0.0 0.0 0.0 
-1.231645484185e-03 1.397570319110e-04 0.0 
1.397570319110e-04 1.545769350172e-02 0.0 
0.0 0.0 0.0 
5.370035029597e-04 1.030031979695e-03 0.0 
1.030031979695e-03 7.608770432237e-03 0.0 
0.0 0.0 0.0 
-1.290602790721e-03 1.691430032889e-03 0.0 
1.691430032889e-03 1.571128272678e-02 0.0 
0.0 0.0 0.0 
5.173781128526e-04 -1.327484079424e-04 0.0 
-1.327484079424e-04 2.148452354388e-03 0.0 
0.0 0.0 0.0 
1.227395741670e-03 7.433296817084e-04 0.0 
7.433296817084e-04 4.944651628526e-03 0.0 
0.0 0.0 0.0 
3.704130295843e-04 1.897293116762e-03 0.0 
1.897293116762e-03 7.853063141085e-03 0.0 
0.0 0.0 0.0 
-1.514525003116e-03 1.843475283808e-03 0.0 
1.843475283808e-03 1.272117873657e-02 0.0 
0.0 0.0 0.0 
-6.247533472399e-04 6.184565745132e-04 0.0 
6.184565745132e-04 1.714466381404e-02 0.0 
0.0 0.0 0.0 
1.022724715143e-03 1.458478169426e-03 0.0 
1.458478169426e-03 6.433615956295e-03 0.0 
0.0 0.0 0.0 
8.439448431724e-04 1.393384941463e-03 0.0 
1.393384941463e-03 7.462372204273e-03 0.0 
0.0 0.0 0.0 
1.170857445361e-03 9.918805909078e-04 0.0 
9.918805909078e-04 5.900580831363e-03 0.0 
0.0 0.0 0.0 
5.457505241286e-04 -1.003163123346e-04 0.0 
-1.003163123346e-04 2.315849392892e-03 0.0 
0.0 0.0 0.0 
6.496594218825e-04 5.780533520614e-04 0.0 
5.780533520614e-04 6.709361051954e-03 0.0 
0.0 0.0 0.0 
1.180911045381e-03 1.033157707005e-03 0.0 
1.033157707005e-03 5.340558052430e-03 0.0 
0.0 0.0 0.0 
-9.180592080093e-04 9.044818968575e-04 0.0 
9.044818968575e-04 1.689617005615e-02 0.0 
0.0 0.0 0.0 
3.380028463131e-04 2.346588973481e-03 0.0 
2.346588973481e-03 1.018738348385e-02 0.0 
0.0 0.0 0.0 
1.125825278266e-03 5.744963184532e-04 0.0 
5.744963184532e-04 4.001082057671e-03 0.0 
0.0 0.0 0.0 
-1.184730962072e-03 1.247856181992e-03 0.0 
1.247856181992e-03 1.647771885883e-02 0.0 
0.0 0.0 0.0 
1.147643432159e-03 3.804580690889e-04 0.0 
3.804580690889e-04 4.420284698761e-03 0.0 
0.0 0.0 0.0 
8.794086241916e-04 1.666661417996e-03 0.0 
1.666661417996e-03 7.830556676067e-03 0.0 
0.0 0.0 0.0 
-1.963407722952e-04 2.075511047981e-03 0.0 
2.075511047981e-03 9.269843542255e-03 0.0 
0.0 0.0 0.0 
3.339469583350e-04 2.165780006889e-03 0.0 
2.165780006889e-03 9.349013797282e-03 0.0 
0.0 0.0 0.0 
-3.084186551279e-04 2.402812864851e-03 0.0 
2.402812864851e-03 1.176915360646e-02 0.0 
0.0 0.0 0.0 
7.365833047894e-04 1.851313735997e-03 0.0 
1.851313735997e-03 7.780552791172e-03 0.0 
0.0 0.0 0.0 
6.980708804605e-04 6.498580445046e-05 0.0 
6.498580445046e-05 5.378054096223e-03 0.0 
0.0 0.0 0.0 
7.329079624773e-04 6.182738120913e-04 0.0 
6.182738120913e-04 6.520200163368e-03 0.0 
0.0 0.0 0.0 
3.256987374867e-04 -3.642331954325e-05 0.0 
-3.642331954325e-05 1.694084914436e-03 0.0 
0.0 0.0 0.0 
5.013226072413e-04 1.410805290401e-03 0.0 
1.410805290401e-03 5.482882589519e-03 0.0 
0.0 0.0 0.0 
-1.609250711762e-03 9.230960537301e-04 0.0 
9.230960537301e-04 1.577330165022e-02 0.0 
0.0 0.0 0.0 
4.517892581259e-04 2.443112751237e-03 0.0 
2.443112751237e-03 1.021110364139e-02 0.0 
0.0 0.0 0.0 
-6.774168820102e-04 1.052267963763e-03 0.0 
1.052267963763e-03 1.711236341319e-02 0.0 
0.0 0.0 0.0 
2.721992156219e-04 1.830977424772e-03 0.0 
1.830977424772e-03 7.468164949870e-03 0.0 
0.0 0.0 0.0 
6.923695592486e-04 4.695932525829e-04 0.0 
4.695932525829e-04 6.385565287401e-03 0.0 
0.0 0.0 0.0 
-9.417644965777e-04 1.420816751496e-03 0.0 
1.420816751496e-03 1.666526021538e-02 0.0 
0.0 0.0 0.0 
9.247387651041e-04 8.102541622716e-05 0.0 
8.102541622716e-05 4.054030080117e-03 0.0 
0.0 0.0 0.0 
3.820909705835e-04 -2.949737255884e-05 0.0 
-2.949737255884e-05 1.586702142657e-03 0.0 
0.0 0.0 0.0 
-5.155921921759e-06 5.130659670671e-04 0.0 
5.130659670671e-04 1.997113669084e-03 0.0 
0.0 0.0 0.0 
9.063304210876e-04 3.875819125030e-04 0.0 
3.875819125030e-04 3.151683710160e-03 0.0 
0.0 0.0 0.0 
1.084421630973e-03 1.284566666959e-03 0.0 
1.284566666959e-03 5.889298913718e-03 0.0 
0.0 0.0 0.0 
9.294475971609e-04 1.595744313209e-04 0.0 
1.595744313209e-04 4.487849779958e-03 0.0 
0.0 0.0 0.0 
-6.008824067274e-04 2.294126856105e-03 0.0 
2.294126856105e-03 1.580457723177e-02 0.0 
0.0 0.0 0.0 
6.173965520174e-04 4.362842716641e-04 0.0 
4.362842716641e-04 6.583155688003e-03 0.0 
0.0 0.0 0.0 
9.399293319794e-04 8.521986491126e-04 0.0 
8.521986491126e-04 6.363460177016e-03 0.0 
0.0 0.0 0.0 
-7.986433183872e-04 1.044353109807e-03 0.0 
1.044353109807e-03 1.719516148977e-03 0.0 
0.0 0.0 0.0 
-1.247118739870e-03 1.981788802527e-03 0.0 
1.981788802527e-03 1.215901943195e-02 0.0 
0.0 0.0 0.0 
5.422629153107e-04 3.968003974488e-04 0.0 
3.968003974488e-04 6.788364610378e-03 0.0 
0.0 0.0 0.0 
1.217106399451e-03 7.010282692383e-04 0.0 
7.010282692383e-04 5.014502721614e-03 0.0 
0.0 0.0 0.0 
8.280984308482e-04 1.616009858432e-03 0.0 
1.616009858432e-03 7.851657438090e-03 0.0 
0.0 0.0 0.0 
7.520367484616e-04 8.627667945578e-06 0.0 
8.627667945578e-06 4.224538061902e-03 0.0 
0.0 0.0 0.0 
2.549179507932e-04 2.748475142080e-03 0.0 
2.748475142080e-03 1.113863652006e-02 0.0 
0.0 0.0 0.0 
-7.774611282933e-04 1.861986869995e-03 0.0 
1.861986869995e-03 9.134134210617e-03 0.0 
0.0 0.0 0.0 
4.668605294001e-04 3.509325762595e-04 0.0 
3.509325762595e-04 7.005179650076e-03 0.0 
0.0 0.0 0.0 
9.746258952641e-04 1.048138770132e-03 0.0 
1.048138770132e-03 6.607900244126e-03 0.0 
0.0 0.0 0.0 
7.366490766674e-04 9.526182174303e-04 0.0 
9.526182174303e-04 4.129077354041e-03 0.0 
0.0 0.0 0.0 
-1.042187185590e-03 5.109595103782e-06 0.0 
5.109595103782e-06 1.463395111715e-02 0.0 
0.0 0.0 0.0 
3.014036962568e-04 3.924074505418e-04 0.0 
3.924074505418e-04 7.608162525635e-03 0.0 
0.0 0.0 0.0 
8.309010997096e-04 1.175893831650e-03 0.0 
1.175893831650e-03 7.155271796095e-03 0.0 
0.0 0.0 0.0 
7.356092656167e-04 1.942721153659e-03 0.0 
1.942721153659e-03 8.220060430202e-03 0.0 
0.0 0.0 0.0 
1.201990287620e-03 5.448827320903e-04 0.0 
5.448827320903e-04 4.642142499588e-03 0.0 
0.0 0.0 0.0 
-1.211270261534e-03 1.817492475618e-03 0.0 
1.817492475618e-03 1.117834510514e-02 0.0 
0.0 0.0 0.0 
8.896157814375e-04 1.617772299704e-04 0.0 
1.617772299704e-04 4.669382559313e-03 0.0 
0.0 0.0 0.0 
1.854996178724e-04 2.270932334446e-03 0.0 
2.270932334446e-03 1.004256588212e-02 0.0 
0.0 0.0 0.0 
-3.319907972305e-04 2.005169875096e-03 0.0 
2.005169875096e-03 1.667076116235e-02 0.0 
0.0 0.0 0.0 
7.511824142197e-04 1.341421602288e-03 0.0 
1.341421602288e-03 7.562577273797e-03 0.0 
0.0 0.0 0.0 
-1.248928476026e-03 2.029883952187e-03 0.0 
2.029883952187e-03 1.424262156602e-02 0.0 
0.0 0.0 0.0 
8.642535142016e-04 9.731277659879e-05 0.0 
9.731277659879e-05 4.413306048209e-03 0.0 
0.0 0.0 0.0 
1.015807069459e-03 1.623814337227e-03 0.0 
1.623814337227e-03 7.322269905709e-03 0.0 
0.0 0.0 0.0 
2.035776730661e-04 -9.455939404614e-05 0.0 
-9.455939404614e-05 8.289357039791e-04 0.0 
0.0 0.0 0.0 
-9.498432906116e-04 1.955028963107e-03 0.0 
1.955028963107e-03 1.063378115152e-02 0.0 
0.0 0.0 0.0 
8.311949009623e-04 1.009586660780e-04 0.0 
1.009586660780e-04 4.598230255770e-03 0.0 
0.0 0.0 0.0 
9.752309344379e-04 3.141833985562e-04 0.0 
3.141833985562e-04 3.195832493633e-03 0.0 
0.0 0.0 0.0 
1.176944546952e-03 5.164991480142e-04 0.0 
5.164991480142e-04 4.748430234141e-03 0.0 
0.0 0.0 0.0 
4.932714126075e-04 2.206150856575e-03 0.0 
2.206150856575e-03 9.412699455805e-03 0.0 
0.0 0.0 0.0 
7.977568515461e-04 1.006990307218e-04 0.0 
1.006990307218e-04 4.787458120365e-03 0.0 
0.0 0.0 0.0 
1.084192452792e-03 4.104283579098e-04 0.0 
4.104283579098e-04 3.614830671141e-03 0.0 
0.0 0.0 0.0 
7.642956231333e-04 9.540108844321e-05 0.0 
9.540108844321e-05 4.979566764827e-03 0.0 
0.0 0.0 0.0 
-1.089619014617e-03 1.757545844820e-03 0.0 
1.757545844820e-03 9.722665957376e-03 0.0 
0.0 0.0 0.0 
-1.021187316451e-03 2.200795399821e-03 0.0 
2.200795399821e-03 1.386642170802e-02 0.0 
0.0 0.0 0.0 
7.320900468546e-04 8.261701862275e-05 0.0 
8.261701862275e-05 5.172990643042e-03 0.0 
0.0 0.0 0.0 
1.992805192572e-04 2.354999766886e-03 0.0 
2.354999766886e-03 1.044580892967e-02 0.0 
0.0 0.0 0.0 
1.737522562249e-04 -1.457345792863e-04 0.0 
-1.457345792863e-04 8.898761438878e-04 0.0 
0.0 0.0 0.0 
8.260424817504e-04 1.890718626541e-03 0.0 
1.890718626541e-03 8.053400220301e-03 0.0 
0.0 0.0 0.0 
4.470527844049e-04 1.135698352279e-04 0.0 
1.135698352279e-04 6.861343570766e-03 0.0 
0.0 0.0 0.0 
8.411079631376e-04 -1.001720477048e-04 0.0 
-1.001720477048e-04 2.918092145840e-03 0.0 
0.0 0.0 0.0 
1.141920514073e-03 4.954120346233e-04 0.0 
4.954120346233e-04 4.874535309261e-03 0.0 
0.0 0.0 0.0 
-8.803869678373e-04 2.290551420734e-03 0.0 
2.290551420734e-03 1.410490379254e-02 0.0 
0.0 0.0 0.0 
-1.039952802501e-03 1.691629021425e-03 0.0 
1.691629021425e-03 8.315302254163e-03 0.0 
0.0 0.0 0.0 
1.106614171481e-03 6.127297475782e-04 0.0 
6.127297475782e-04 5.348016916159e-03 0.0 
0.0 0.0 0.0 
1.982666268588e-04 2.455962334442e-03 0.0 
2.455962334442e-03 1.085895863679e-02 0.0 
0.0 0.0 0.0 
8.892893100836e-04 1.843820689953e-03 0.0 
1.843820689953e-03 7.935282470359e-03 0.0 
0.0 0.0 0.0 
1.090936665626e-03 1.389215321618e-03 0.0 
1.389215321618e-03 6.352722967282e-03 0.0 
0.0 0.0 0.0 
1.040870437627e-03 7.326701866562e-04 0.0 
7.326701866562e-04 5.844224474914e-03 0.0 
0.0 0.0 0.0 
-6.815376678187e-04 1.768612730866e-03 0.0 
1.768612730866e-03 7.687385118508e-03 0.0 
0.0 0.0 0.0 
5.586072638247e-04 -2.228480757286e-04 0.0 
-2.228480757286e-04 2.096175699762e-03 0.0 
0.0 0.0 0.0 
4.290905050821e-04 -2.484181980806e-04 0.0 
-2.484181980806e-04 1.742627584252e-03 0.0 
0.0 0.0 0.0 
1.117028474199e-03 3.584730084221e-04 0.0 
3.584730084221e-04 3.680065752699e-03 0.0 
0.0 0.0 0.0 
6.233149323650e-05 2.554213950208e-03 0.0 
2.554213950208e-03 1.153695125838e-02 0.0 
0.0 0.0 0.0 
2.776887480398e-04 -6.705886592896e-05 0.0 
-6.705886592896e-05 1.139352974566e-03 0.0 
0.0 0.0 0.0 
-5.710581632705e-04 2.437081907955e-03 0.0 
2.437081907955e-03 1.311286355967e-02 0.0 
0.0 0.0 0.0 
2.135064486308e-04 -2.683155625202e-04 0.0 
-2.683155625202e-04 1.263519511022e-03 0.0 
0.0 0.0 0.0 
1.054830949445e-03 2.153506479422e-04 0.0 
2.153506479422e-04 3.348321759861e-03 0.0 
0.0 0.0 0.0 
8.310769620823e-04 1.936804317461e-03 0.0 
1.936804317461e-03 8.385591353214e-03 0.0 
0.0 0.0 0.0 
-9.556880798400e-04 1.378350195410e-05 0.0 
1.378350195410e-05 1.574861718279e-02 0.0 
0.0 0.0 0.0 
1.070722706886e-03 1.850376472434e-04 0.0 
1.850376472434e-04 3.447754392016e-03 0.0 
0.0 0.0 0.0 
4.603248497230e-04 -2.690433455932e-05 0.0 
-2.690433455932e-05 1.955063181702e-03 0.0 
0.0 0.0 0.0 
9.955660646098e-04 6.636715324014e-05 0.0 
6.636715324014e-05 3.157728982105e-03 0.0 
0.0 0.0 0.0 
1.068566534341e-03 1.500944072581e-03 0.0 
1.500944072581e-03 6.828514761325e-03 0.0 
0.0 0.0 0.0 
1.002066653747e-03 5.570285086093e-05 0.0 
5.570285086093e-05 3.282976473758e-03 0.0 
0.0 0.0 0.0 
9.208378505193e-04 -3.644791174545e-05 0.0 
-3.644791174545e-05 3.023396586956e-03 0.0 
0.0 0.0 0.0 
-4.702477025889e-04 5.676012830965e-04 0.0 
5.676012830965e-04 1.729783212402e-02 0.0 
0.0 0.0 0.0 
9.231778226261e-04 -3.211304334646e-05 0.0 
-3.211304334646e-05 3.162473840461e-03 0.0 
0.0 0.0 0.0 
-1.913372571029e-04 1.628430550203e-04 0.0 
1.628430550203e-04 1.758210567547e-02 0.0 
0.0 0.0 0.0 
1.508096763803e-04 1.270970146727e-04 0.0 
1.270970146727e-04 8.003237075076e-03 0.0 
0.0 0.0 0.0 
-1.034584739533e-03 -2.991418908016e-06 0.0 
-2.991418908016e-06 1.495670621697e-02 0.0 
0.0 0.0 0.0 
-1.070797078544e-03 1.685841551363e-03 0.0 
1.685841551363e-03 7.035849765966e-03 0.0 
0.0 0.0 0.0 
-8.263148516041e-04 4.618776938752e-06 0.0 
4.618776938752e-06 6.581733665620e-04 0.0 
0.0 0.0 0.0 
-5.448352795214e-04 1.605416710061e-03 0.0 
1.605416710061e-03 6.141834181951e-03 0.0 
0.0 0.0 0.0 
7.415756868726e-04 -1.664131003506e-04 0.0 
-1.664131003506e-04 2.544553298896e-03 0.0 
0.0 0.0 0.0 
-2.507270002926e-04 2.486327355941e-03 0.0 
2.486327355941e-03 1.210363142500e-02 0.0 
0.0 0.0 0.0 
-1.034664993012e-03 1.292350635815e-05 0.0 
1.292350635815e-05 1.497573195240e-02 0.0 
0.0 0.0 0.0 
6.485898340312e-04 -2.029288796232e-04 0.0 
-2.029288796232e-04 2.319861112348e-03 0.0 
0.0 0.0 0.0 
-2.058601135576e-04 2.864580763585e-03 0.0 
2.864580763585e-03 1.389036256761e-02 0.0 
0.0 0.0 0.0 
1.681111451897e-04 2.783963281003e-03 0.0 
2.783963281003e-03 1.102665329762e-02 0.0 
0.0 0.0 0.0 
-8.533491495703e-04 8.056769467252e-05 0.0 
8.056769467252e-05 1.629571272792e-02 0.0 
0.0 0.0 0.0 
7.497241141917e-04 1.568031963567e-03 0.0 
1.568031963567e-03 7.901082118267e-03 0.0 
0.0 0.0 0.0 
9.240445809442e-04 1.801122769910e-03 0.0 
1.801122769910e-03 7.870195429256e-03 0.0 
0.0 0.0 0.0 
-5.321004727644e-04 7.279584363280e-05 0.0 
7.279584363280e-05 1.707232349159e-02 0.0 
0.0 0.0 0.0 
-1.066363288341e-03 -9.591111701401e-06 0.0 
-9.591111701401e-06 1.461590984201e-02 0.0 
0.0 0.0 0.0 
-1.348641354017e-04 -1.919206546852e-04 0.0 
-1.919206546852e-04 6.148520475634e-04 0.0 
0.0 0.0 0.0 
6.607545113270e-04 3.698503806080e-05 0.0 
3.698503806080e-05 5.617706585501e-03 0.0 
0.0 0.0 0.0 
-1.043042234969e-03 1.611514139779e-03 0.0 
1.611514139779e-03 5.633081309437e-03 0.0 
0.0 0.0 0.0 
-5.536744083743e-04 1.454732116111e-03 0.0 
1.454732116111e-03 4.675303591278e-03 0.0 
0.0 0.0 0.0 
-5.011236610727e-04 1.243376473689e-03 0.0 
1.243376473689e-03 3.355095507290e-03 0.0 
0.0 0.0 0.0 
5.632998802880e-04 -7.163356197582e-05 0.0 
-7.163356197582e-05 2.447425596956e-03 0.0 
0.0 0.0 0.0 
-6.851823379796e-05 -2.562640278434e-04 0.0 
-2.562640278434e-04 9.502234110306e-04 0.0 
0.0 0.0 0.0 
-9.268823437188e-04 1.499792001507e-03 0.0 
1.499792001507e-03 4.332771264021e-03 0.0 
0.0 0.0 0.0 
4.659814612834e-04 1.857276723689e-03 0.0 
1.857276723689e-03 8.854031021205e-03 0.0 
0.0 0.0 0.0 
-1.267637445600e-03 9.795299664055e-05 0.0 
9.795299664055e-05 1.506088836534e-02 0.0 
0.0 0.0 0.0 
7.209542338629e-04 2.100288353379e-03 0.0 
2.100288353379e-03 8.928429139625e-03 0.0 
0.0 0.0 0.0 
-8.651717249903e-04 1.334604176919e-03 0.0 
1.334604176919e-03 2.983743364931e-03 0.0 
0.0 0.0 0.0 
-6.579796707809e-04 1.587888805134e-03 0.0 
1.587888805134e-03 1.681352734696e-02 0.0 
0.0 0.0 0.0 
3.982176854206e-04 2.439189282889e-03 0.0 
2.439189282889e-03 1.003005333878e-02 0.0 
0.0 0.0 0.0 
1.718919803004e-04 7.509241128874e-04 0.0 
7.509241128874e-04 8.253871150137e-03 0.0 
0.0 0.0 0.0 
5.886943377451e-04 2.252109453636e-03 0.0 
2.252109453636e-03 9.440682883828e-03 0.0 
0.0 0.0 0.0 
-4.876823728304e-04 9.339694238100e-04 0.0 
9.339694238100e-04 2.157516671631e-03 0.0 
0.0 0.0 0.0 
-1.732905733939e-03 7.998348136559e-04 0.0 
7.998348136559e-04 1.531327136021e-02 0.0 
0.0 0.0 0.0 
1.295085260515e-04 2.880434492756e-03 0.0 
2.880434492756e-03 1.199816501123e-02 0.0 
0.0 0.0 0.0 
-7.979080912514e-04 1.532541128629e-04 0.0 
1.532541128629e-04 1.657633912384e-02 0.0 
0.0 0.0 0.0 
1.545708892405e-04 5.944009680215e-04 0.0 
5.944009680215e-04 8.200473651280e-03 0.0 
0.0 0.0 0.0 
-1.438662500929e-03 2.304711859570e-04 0.0 
2.304711859570e-04 1.505005668823e-02 0.0 
0.0 0.0 0.0 
-3.819794843172e-04 3.660728410473e-04 0.0 
3.660728410473e-04 1.735631505378e-02 0.0 
0.0 0.0 0.0 
2.067033962384e-04 -1.409162595456e-04 0.0 
-1.409162595456e-04 1.442972872085e-03 0.0 
0.0 0.0 0.0 
-3.493538330283e-04 1.871471757869e-04 0.0 
1.871471757869e-04 1.736840394561e-02 0.0 
0.0 0.0 0.0 
-1.981969265811e-04 2.589317358532e-03 0.0 
2.589317358532e-03 1.245093373679e-02 0.0 
0.0 0.0 0.0 
-1.057991078674e-03 7.213233612360e-05 0.0 
7.213233612360e-05 1.549550424704e-02 0.0 
0.0 0.0 0.0 
-1.747336451607e-03 1.407638624840e-03 0.0 
1.407638624840e-03 1.476188774987e-02 0.0 
0.0 0.0 0.0 
2.479625792176e-04 1.960540864854e-04 0.0 
1.960540864854e-04 7.656898402278e-03 0.0 
0.0 0.0 0.0 
-4.011007034536e-04 2.669972158759e-03 0.0 
2.669972158759e-03 1.485096480877e-02 0.0 
0.0 0.0 0.0 
-4.878990062438e-04 7.157520066663e-04 0.0 
7.157520066663e-04 1.596379097356e-03 0.0 
0.0 0.0 0.0 
-8.862226716172e-04 1.265102263791e-04 0.0 
1.265102263791e-04 1.628431740172e-02 0.0 
0.0 0.0 0.0 
6.893862015967e-04 -6.161475028081e-05 0.0 
-6.161475028081e-05 3.096495845318e-03 0.0 
0.0 0.0 0.0 
-4.704811072921e-04 -1.295141718938e-04 0.0 
-1.295141718938e-04 7.723964566892e-04 0.0 
0.0 0.0 0.0 
3.632405852819e-04 8.954325504993e-04 0.0 
8.954325504993e-04 7.870506155199e-03 0.0 
0.0 0.0 0.0 
-1.473883769604e-04 2.705055766929e-03 0.0 
2.705055766929e-03 1.278884147976e-02 0.0 
0.0 0.0 0.0 
2.661137013227e-04 3.298686037694e-04 0.0 
3.298686037694e-04 7.649851508510e-03 0.0 
0.0 0.0 0.0 
2.177374284513e-04 -1.943608647395e-05 0.0 
-1.943608647395e-05 8.115128234005e-04 0.0 
0.0 0.0 0.0 
-5.182341502186e-05 -1.549281201705e-04 0.0 
-1.549281201705e-04 5.397936237113e-04 0.0 
0.0 0.0 0.0 
3.696309723630e-04 1.118578224267e-03 0.0 
1.118578224267e-03 8.111445918698e-03 0.0 
0.0 0.0 0.0 
-4.136454393749e-05 2.946744441135e-03 0.0 
2.946744441135e-03 1.303268992866e-02 0.0 
0.0 0.0 0.0 
3.030413265266e-04 -1.770255738991e-04 0.0 
-1.770255738991e-04 1.580712338065e-03 0.0 
0.0 0.0 0.0 
-2.798226336929e-04 1.382704994076e-03 0.0 
1.382704994076e-03 1.724405853096e-02 0.0 
0.0 0.0 0.0 
-6.065120351522e-04 5.287512709844e-04 0.0 
5.287512709844e-04 1.083543364156e-03 0.0 
0.0 0.0 0.0 
-1.082955297949e-03 8.427346764680e-07 0.0 
8.427346764680e-07 1.457758683358e-02 0.0 
0.0 0.0 0.0 
6.187286246440e-05 -1.137469249355e-04 0.0 
-1.137469249355e-04 5.168441035723e-04 0.0 
0.0 0.0 0.0 
1.445182647043e-04 4.370149221873e-04 0.0 
4.370149221873e-04 8.142519713822e-03 0.0 
0.0 0.0 0.0 
-5.242060398249e-04 9.714810688611e-04 0.0 
9.714810688611e-04 1.723833396396e-02 0.0 
0.0 0.0 0.0 
7.146382307346e-04 -2.099546697560e-05 0.0 
-2.099546697560e-05 3.443977448664e-03 0.0 
0.0 0.0 0.0 
-1.902734041924e-03 1.017684699000e-03 0.0 
1.017684699000e-03 1.454900524163e-02 0.0 
0.0 0.0 0.0 
5.101548171021e-04 -5.088142622289e-05 0.0 
-5.088142622289e-05 2.206442204678e-03 0.0 
0.0 0.0 0.0 
3.799976412607e-04 2.587453483465e-03 0.0 
2.587453483465e-03 1.057702039097e-02 0.0 
0.0 0.0 0.0 
-3.007851819243e-05 -2.414160492781e-04 0.0 
-2.414160492781e-04 8.552137500888e-04 0.0 
0.0 0.0 0.0 
-4.384399043246e-04 6.932640902939e-04 0.0 
6.932640902939e-04 1.734155568572e-02 0.0 
0.0 0.0 0.0 
3.875154884456e-04 1.365312811999e-03 0.0 
1.365312811999e-03 8.352943997636e-03 0.0 
0.0 0.0 0.0 
-5.631260908580e-04 2.176380399205e-03 0.0 
2.176380399205e-03 1.615887962366e-02 0.0 
0.0 0.0 0.0 
1.906651570665e-04 2.295497288111e-03 0.0 
2.295497288111e-03 9.928942707951e-03 0.0 
0.0 0.0 0.0 
-5.437630289839e-04 1.157089666136e-04 0.0 
1.157089666136e-04 8.543007852791e-04 0.0 
0.0 0.0 0.0 
3.139942449919e-04 2.594356183931e-03 0.0 
2.594356183931e-03 1.048140023784e-02 0.0 
0.0 0.0 0.0 
6.028890532819e-04 1.460655858456e-03 0.0 
1.460655858456e-03 8.034137287329e-03 0.0 
0.0 0.0 0.0 
-1.058431676883e-03 8.703195647132e-06 0.0 
8.703195647132e-06 1.461013938087e-02 0.0 
0.0 0.0 0.0 
-4.880973218268e-04 2.469166149907e-03 0.0 
2.469166149907e-03 1.547073137163e-02 0.0 
0.0 0.0 0.0 
6.177036372510e-04 -5.444384692628e-05 0.0 
-5.444384692628e-05 2.751070854180e-03 0.0 
0.0 0.0 0.0 
2.516848911395e-04 -1.469580587694e-04 0.0 
-1.469580587694e-04 1.133204752115e-03 0.0 
0.0 0.0 0.0 
-1.544943126768e-04 7.827882424316e-05 0.0 
7.827882424316e-05 1.761605026703e-02 0.0 
0.0 0.0 0.0 
1.121401145320e-04 -7.679666584436e-06 0.0 
-7.679666584436e-06 1.419606711792e-04 0.0 
0.0 0.0 0.0 
-1.061862493400e-03 -7.883604737581e-06 0.0 
-7.883604737581e-06 1.458854349103e-02 0.0 
0.0 0.0 0.0 
1.137144665277e-04 6.572827235629e-05 0.0 
6.572827235629e-05 8.112778022743e-03 0.0 
0.0 0.0 0.0 
2.621808807916e-04 -8.890698489556e-05 0.0 
-8.890698489556e-05 1.068487859453e-03 0.0 
0.0 0.0 0.0 
-1.016895233916e-03 1.236002709279e-05 0.0 
1.236002709279e-05 1.525882198752e-02 0.0 
0.0 0.0 0.0 
-1.138870981188e-04 2.934233055928e-03 0.0 
2.934233055928e-03 1.349805661748e-02 0.0 
0.0 0.0 0.0 
7.419679752633e-04 6.819289339400e-06 0.0 
6.819289339400e-06 4.337516653360e-03 0.0 
0.0 0.0 0.0 
-6.257971226837e-04 1.143317772739e-04 0.0 
1.143317772739e-04 1.689659620881e-02 0.0 
0.0 0.0 0.0 
8.357792499678e-05 -2.667367462548e-04 0.0 
-2.667367462548e-04 1.169910196096e-03 0.0 
0.0 0.0 0.0 
-8.414249661665e-04 -6.213809703787e-05 0.0 
-6.213809703787e-05 5.841226365024e-04 0.0 
0.0 0.0 0.0 
-9.281243275745e-04 4.371426035528e-05 0.0 
4.371426035528e-05 1.595458115841e-02 0.0 
0.0 0.0 0.0 
3.882576478010e-04 2.364848630943e-03 0.0 
2.364848630943e-03 9.837394021630e-03 0.0 
0.0 0.0 0.0 
-5.841523412452e-04 1.798813967095e-03 0.0 
1.798813967095e-03 1.668979819945e-02 0.0 
0.0 0.0 0.0 
-1.021604062402e-03 8.462550603186e-05 0.0 
8.462550603186e-05 1.570732480022e-02 0.0 
0.0 0.0 0.0 
-2.398696446099e-04 5.232464366725e-04 0.0 
5.232464366725e-04 1.717868037354e-03 0.0 
0.0 0.0 0.0 
-1.084274201029e-04 2.839352104800e-03 0.0 
2.839352104800e-03 1.305552614436e-02 0.0 
0.0 0.0 0.0 
7.440558364754e-04 -1.163817426552e-05 0.0 
-1.163817426552e-05 3.748135092764e-03 0.0 
0.0 0.0 0.0 
2.054612951565e-04 2.738335135167e-03 0.0 
2.738335135167e-03 1.146759089970e-02 0.0 
0.0 0.0 0.0 
5.985272332108e-04 1.689867707536e-03 0.0 
1.689867707536e-03 8.375531511327e-03 0.0 
0.0 0.0 0.0 
-7.726205975131e-04 5.939161122077e-04 0.0 
5.939161122077e-04 7.414562741857e-04 0.0 
0.0 0.0 0.0 
7.342015100934e-04 1.368954376364e-05 0.0 
1.368954376364e-05 4.716983305696e-03 0.0 
0.0 0.0 0.0 
1.888717865639e-06 -1.240327386975e-04 0.0 
-1.240327386975e-04 4.989341849904e-04 0.0 
0.0 0.0 0.0 
2.828784794350e-04 6.542566644795e-04 0.0 
6.542566644795e-04 7.867145739043e-03 0.0 
0.0 0.0 0.0 
7.433268082957e-04 -4.041760274212e-06 0.0 
-4.041760274212e-06 3.928876297602e-03 0.0 
0.0 0.0 0.0 

TENSORS node_materi_strain_plasti float
-1.741775845201e-05 -2.168405097555e-06 0.0 
-2.168405097555e-06 1.395813736689e-04 0.0 
0.0 0.0 -3.282868849617e-05 
-7.310688473431e-04 -7.116616390430e-05 0.0 
-7.116616390430e-05 4.756014016849e-03 0.0 
0.0 0.0 -7.207122401682e-04 
-1.326721611229e-03 9.743109485010e-05 0.0 
9.743109485010e-05 8.921087027136e-03 0.0 
0.0 0.0 -1.332621093165e-03 
-1.328526300077e-03 -9.718698781146e-05 0.0 
-9.718698781146e-05 8.927311597372e-03 0.0 
0.0 0.0 -1.332621093165e-03 
-8.193859278095e-05 3.577520009443e-05 0.0 
3.577520009443e-05 3.368763971303e-04 0.0 
0.0 0.0 -8.453455331315e-05 
-1.695924659270e-04 1.267609683744e-04 0.0 
1.267609683744e-04 8.452299049113e-04 0.0 
0.0 0.0 -1.619080202416e-04 
-2.296336673595e-04 1.041833740940e-04 0.0 
1.041833740940e-04 1.224476071287e-03 0.0 
0.0 0.0 -2.266090766362e-04 
-2.971855348456e-04 9.450166671956e-05 0.0 
9.450166671956e-05 1.745895085854e-03 0.0 
0.0 0.0 -2.937643997455e-04 
-3.715291688780e-04 6.977872566512e-05 0.0 
6.977872566512e-05 2.214517262813e-03 0.0 
0.0 0.0 -3.610469555860e-04 
-4.249688263072e-04 6.584730845620e-05 0.0 
6.584730845620e-05 2.664484643095e-03 0.0 
0.0 0.0 -4.277228197774e-04 
-4.875317281637e-04 7.284843635981e-05 0.0 
7.284843635981e-05 3.123402469253e-03 0.0 
0.0 0.0 -4.940119848999e-04 
-5.560650258811e-04 6.506894170197e-05 0.0 
6.506894170197e-05 3.586726731214e-03 0.0 
0.0 0.0 -5.601824523721e-04 
-6.219544696599e-04 6.499150418632e-05 0.0 
6.499150418632e-05 4.044891981262e-03 0.0 
0.0 0.0 -6.267196139102e-04 
-6.989301157160e-04 8.304445482454e-05 0.0 
8.304445482454e-05 4.516508974108e-03 0.0 
0.0 0.0 -6.936951881209e-04 
-7.842461813792e-04 1.250766207628e-04 0.0 
1.250766207628e-04 5.027932232893e-03 0.0 
0.0 0.0 -7.607197531558e-04 
-8.342478146059e-04 1.327780010267e-04 0.0 
1.327780010267e-04 5.490101288132e-03 0.0 
0.0 0.0 -8.270758575053e-04 
-8.797786789151e-04 1.730981527132e-04 0.0 
1.730981527132e-04 5.870913224211e-03 0.0 
0.0 0.0 -8.903361771249e-04 
-9.530636179411e-04 6.774981962034e-05 0.0 
6.774981962034e-05 6.360455625450e-03 0.0 
0.0 0.0 -9.558084330571e-04 
-1.021468397639e-03 6.438406854751e-05 0.0 
6.438406854751e-05 6.838909130197e-03 0.0 
0.0 0.0 -1.024523475697e-03 
-1.087303877607e-03 6.616077821815e-05 0.0 
6.616077821815e-05 7.302617105742e-03 0.0 
0.0 0.0 -1.091244731156e-03 
-1.157611465321e-03 6.099216604955e-05 0.0 
6.099216604955e-05 7.775325521779e-03 0.0 
0.0 0.0 -1.158330123333e-03 
-1.229956863987e-03 7.577779225227e-05 0.0 
7.577779225227e-05 8.251739665694e-03 0.0 
0.0 0.0 -1.226073836101e-03 
-1.285597262298e-03 9.777469732990e-05 0.0 
9.777469732990e-05 8.717344745921e-03 0.0 
0.0 0.0 -1.289832767750e-03 
-1.328056332164e-03 -6.444803612954e-06 0.0 
-6.444803612954e-06 8.942057407760e-03 0.0 
0.0 0.0 -1.336902025401e-03 
-1.335490548137e-03 -3.051268407675e-06 0.0 
-3.051268407675e-06 8.928554519845e-03 0.0 
0.0 0.0 -1.332945767435e-03 
-1.336130347494e-03 -6.396074884473e-05 0.0 
-6.396074884473e-05 8.918857970665e-03 0.0 
0.0 0.0 -1.334903170087e-03 
-1.339230604727e-03 3.012709249355e-05 0.0 
3.012709249355e-05 8.923856553285e-03 0.0 
0.0 0.0 -1.334459899807e-03 
-1.337146058389e-03 -8.398799894841e-06 0.0 
-8.398799894841e-06 8.911324906834e-03 0.0 
0.0 0.0 -1.332067731643e-03 
-1.335355832928e-03 1.075181302778e-06 0.0 
1.075181302778e-06 8.911332561918e-03 0.0 
0.0 0.0 -1.335050935171e-03 
-1.325449513940e-03 2.957247518010e-06 0.0 
2.957247518010e-06 8.920139941522e-03 0.0 
0.0 0.0 -1.335055123498e-03 
-1.337345353037e-03 -9.523690686145e-06 0.0 
-9.523690686145e-06 8.921732771433e-03 0.0 
0.0 0.0 -1.333530254363e-03 
-1.334717977068e-03 -4.294761687244e-05 0.0 
-4.294761687244e-05 8.930458145260e-03 0.0 
0.0 0.0 -1.336259905589e-03 
-1.337792100019e-03 2.741258004608e-05 0.0 
2.741258004608e-05 8.934606220421e-03 0.0 
0.0 0.0 -1.335712483792e-03 
-1.336136187727e-03 -6.884802183735e-06 0.0 
-6.884802183735e-06 8.921957108707e-03 0.0 
0.0 0.0 -1.333313947604e-03 
-1.338126723765e-03 -4.814512478224e-06 0.0 
-4.814512478224e-06 8.924502617003e-03 0.0 
0.0 0.0 -1.335862559377e-03 
-1.327324523368e-03 -1.060172701728e-07 0.0 
-1.060172701728e-07 8.942333996565e-03 0.0 
0.0 0.0 -1.336097458551e-03 
-1.338609928482e-03 -2.842890241062e-06 0.0 
-2.842890241062e-06 8.932107808072e-03 0.0 
0.0 0.0 -1.335235043394e-03 
-1.329400644355e-03 -1.048596426291e-05 0.0 
-1.048596426291e-05 8.921074213048e-03 0.0 
0.0 0.0 -1.334297546486e-03 
-1.338340837827e-03 9.966400157395e-06 0.0 
9.966400157395e-06 8.903421378777e-03 0.0 
0.0 0.0 -1.332308435384e-03 
-1.339067962771e-03 -2.558483156537e-06 0.0 
-2.558483156537e-06 8.895896267544e-03 0.0 
0.0 0.0 -1.332019584455e-03 
-1.327125647707e-03 1.639257363243e-06 0.0 
1.639257363243e-06 8.917700513123e-03 0.0 
0.0 0.0 -1.333392124151e-03 
-1.334568721853e-03 -4.268105943771e-06 0.0 
-4.268105943771e-06 8.928545997729e-03 0.0 
0.0 0.0 -1.334727449481e-03 
-1.336827804858e-03 -5.001027102468e-06 0.0 
-5.001027102468e-06 8.928021219147e-03 0.0 
0.0 0.0 -1.336576889699e-03 
-1.337235537648e-03 1.693416763897e-05 0.0 
1.693416763897e-05 8.930023700079e-03 0.0 
0.0 0.0 -1.335888391555e-03 
-1.331872643832e-03 -1.070662442934e-06 0.0 
-1.070662442934e-06 8.931108733201e-03 0.0 
0.0 0.0 -1.334783226448e-03 
-1.335383687196e-03 3.225376233207e-06 0.0 
3.225376233207e-06 8.925108831379e-03 0.0 
0.0 0.0 -1.335053869153e-03 
-1.335647092677e-03 -1.629379981324e-06 0.0 
-1.629379981324e-06 8.920485307702e-03 0.0 
0.0 0.0 -1.334960189349e-03 
-1.336340449165e-03 -1.285585314745e-06 0.0 
-1.285585314745e-06 8.933772799625e-03 0.0 
0.0 0.0 -1.334889991128e-03 
-1.330589077276e-03 -4.874946038580e-06 0.0 
-4.874946038580e-06 8.935469598915e-03 0.0 
0.0 0.0 -1.335774086633e-03 
-1.341165284707e-03 -5.814943729732e-06 0.0 
-5.814943729732e-06 8.933862901487e-03 0.0 
0.0 0.0 -1.336605656894e-03 
-1.330240946256e-03 -4.520075279764e-06 0.0 
-4.520075279764e-06 8.938118272604e-03 0.0 
0.0 0.0 -1.336508443943e-03 
-1.338673330008e-03 -5.862543655786e-06 0.0 
-5.862543655786e-06 8.942517447788e-03 0.0 
0.0 0.0 -1.335343284290e-03 
-1.336600650314e-03 -3.582742261955e-05 0.0 
-3.582742261955e-05 8.951381047284e-03 0.0 
0.0 0.0 -1.337998490269e-03 
-1.341076503417e-03 3.451828262938e-05 0.0 
3.451828262938e-05 8.946627943271e-03 0.0 
0.0 0.0 -1.337247094005e-03 
-1.334448453648e-03 1.095281049642e-05 0.0 
1.095281049642e-05 8.923080866366e-03 0.0 
0.0 0.0 -1.333783489999e-03 
-1.333263826440e-03 -4.659210695460e-08 0.0 
-4.659210695460e-08 8.908320836892e-03 0.0 
0.0 0.0 -1.334548731617e-03 
-1.334150017560e-03 -8.272198035497e-06 0.0 
-8.272198035497e-06 8.929832025163e-03 0.0 
0.0 0.0 -1.334619746794e-03 
-1.331619300726e-03 -1.909948370356e-06 0.0 
-1.909948370356e-06 8.928586538444e-03 0.0 
0.0 0.0 -1.335242115105e-03 
-1.340870630612e-03 -1.061733168398e-05 0.0 
-1.061733168398e-05 8.926675419192e-03 0.0 
0.0 0.0 -1.335691437541e-03 
-1.329659514104e-03 -2.082049369218e-06 0.0 
-2.082049369218e-06 8.934711562866e-03 0.0 
0.0 0.0 -1.335646478247e-03 
-1.339117702311e-03 -4.029677061749e-07 0.0 
-4.029677061749e-07 8.924836081587e-03 0.0 
0.0 0.0 -1.334931242407e-03 
-1.328302087749e-03 -6.726834891381e-06 0.0 
-6.726834891381e-06 8.915098302923e-03 0.0 
0.0 0.0 -1.334100791702e-03 
-1.338339244626e-03 1.868410609582e-06 0.0 
1.868410609582e-06 8.913909047127e-03 0.0 
0.0 0.0 -1.332237298415e-03 
-1.340573467967e-03 -1.512560094748e-05 0.0 
-1.512560094748e-05 8.916790452845e-03 0.0 
0.0 0.0 -1.333749945600e-03 
-1.332872318884e-03 1.070088453610e-05 0.0 
1.070088453610e-05 8.939654193892e-03 0.0 
0.0 0.0 -1.336652505695e-03 
-1.326343527950e-03 -1.064817557575e-05 0.0 
-1.064817557575e-05 8.953327537606e-03 0.0 
0.0 0.0 -1.337094627689e-03 
-1.334975160234e-03 -1.103658676067e-05 0.0 
-1.103658676067e-05 8.887287544370e-03 0.0 
0.0 0.0 -1.328990728106e-03 
-1.326727222271e-03 3.789706117035e-06 0.0 
3.789706117035e-06 8.937395178325e-03 0.0 
0.0 0.0 -1.335900064369e-03 
-1.338702731113e-03 6.248103656103e-07 0.0 
6.248103656103e-07 8.926718973225e-03 0.0 
0.0 0.0 -1.332523500780e-03 
-1.338833780446e-03 -4.056504769858e-05 0.0 
-4.056504769858e-05 8.921997078910e-03 0.0 
0.0 0.0 -1.335219049675e-03 
-1.336003357241e-03 1.668194413567e-05 0.0 
1.668194413567e-05 8.951047853454e-03 0.0 
0.0 0.0 -1.336566422126e-03 
-1.338588357839e-03 -8.318316931957e-07 0.0 
-8.318316931957e-07 8.955066587464e-03 0.0 
0.0 0.0 -1.335855682064e-03 
-7.644479361829e-04 -7.854511718931e-05 0.0 
-7.854511718931e-05 4.967324475694e-03 0.0 
0.0 0.0 -7.648954205800e-04 
-8.429692067442e-04 -8.894340543483e-05 0.0 
-8.894340543483e-05 5.465473064469e-03 0.0 
0.0 0.0 -8.298981322982e-04 
-9.045101262401e-04 -8.649802336560e-05 0.0 
-8.649802336560e-05 5.927599153875e-03 0.0 
0.0 0.0 -8.959277352460e-04 
-9.682355907570e-04 -9.235019684024e-05 0.0 
-9.235019684024e-05 6.375436758553e-03 0.0 
0.0 0.0 -9.610467530554e-04 
-1.034301386645e-03 -8.131875668406e-05 0.0 
-8.131875668406e-05 6.841207604472e-03 0.0 
0.0 0.0 -1.026987810050e-03 
-1.084652817885e-03 -8.917462571028e-05 0.0 
-8.917462571028e-05 7.307643626561e-03 0.0 
0.0 0.0 -1.092790196867e-03 
-1.153469442186e-03 -7.930470280158e-05 0.0 
-7.930470280158e-05 7.768901773096e-03 0.0 
0.0 0.0 -1.158290425478e-03 
-1.218602686822e-03 -9.135197616377e-05 0.0 
-9.135197616377e-05 8.209166370611e-03 0.0 
0.0 0.0 -1.224481705251e-03 
-1.280117147855e-03 -1.008986322443e-04 0.0 
-1.008986322443e-04 8.709401710635e-03 0.0 
0.0 0.0 -1.288782062784e-03 
-1.752208263150e-05 3.240785673635e-05 0.0 
3.240785673635e-05 1.037696529891e-04 0.0 
0.0 0.0 -2.939528373048e-05 
-7.246318054374e-04 1.428648989764e-05 0.0 
1.428648989764e-05 4.712159024013e-03 0.0 
0.0 0.0 -7.158658194789e-04 
-1.068839245990e-04 4.195670543775e-05 0.0 
4.195670543775e-05 4.592598232628e-04 0.0 
0.0 0.0 -1.088012745759e-04 
-1.837805977244e-04 6.636119579704e-05 0.0 
6.636119579704e-05 9.280212819520e-04 0.0 
0.0 0.0 -1.795578361538e-04 
-2.541701604252e-04 6.773423425563e-05 0.0 
6.773423425563e-05 1.406381745625e-03 0.0 
0.0 0.0 -2.466011808795e-04 
-3.308726835263e-04 6.738605726992e-05 0.0 
6.738605726992e-05 1.832720200709e-03 0.0 
0.0 0.0 -3.108790080757e-04 
-3.964115229650e-04 7.265451737656e-05 0.0 
7.265451737656e-05 2.303753556439e-03 0.0 
0.0 0.0 -3.778135794433e-04 
-4.516675705781e-04 3.445608641046e-05 0.0 
3.445608641046e-05 2.777117745363e-03 0.0 
0.0 0.0 -4.454545662751e-04 
-5.195439966860e-04 4.328034517296e-05 0.0 
4.328034517296e-05 3.247818275896e-03 0.0 
0.0 0.0 -5.121313000160e-04 
-5.855984779945e-04 4.637183372918e-05 0.0 
4.637183372918e-05 3.709926365435e-03 0.0 
0.0 0.0 -5.789936928845e-04 
-6.515674995910e-04 3.878539086301e-05 0.0 
3.878539086301e-05 4.181659367024e-03 0.0 
0.0 0.0 -6.458622116531e-04 
-7.239366116732e-04 3.169028621283e-05 0.0 
3.169028621283e-05 4.738774373323e-03 0.0 
0.0 0.0 -7.167504868538e-04 
-7.146899977055e-04 1.825675316579e-05 0.0 
1.825675316579e-05 4.744500994597e-03 0.0 
0.0 0.0 -7.184827375020e-04 
-7.220195667396e-04 9.955617265671e-06 0.0 
9.955617265671e-06 4.744209281667e-03 0.0 
0.0 0.0 -7.186786903937e-04 
-7.195167507077e-04 -4.090117067397e-06 0.0 
-4.090117067397e-06 4.727960284404e-03 0.0 
0.0 0.0 -7.169675978895e-04 
-7.157118783183e-04 1.000400605147e-05 0.0 
1.000400605147e-05 4.806352240840e-03 0.0 
0.0 0.0 -7.238546058846e-04 
-7.167757422874e-04 9.862997110641e-06 0.0 
9.862997110641e-06 4.746941185892e-03 0.0 
0.0 0.0 -7.185860072230e-04 
-7.057318175599e-04 -1.794595285416e-05 0.0 
-1.794595285416e-05 4.734223114170e-03 0.0 
0.0 0.0 -7.170630917064e-04 
-7.078445996438e-04 1.935375642070e-05 0.0 
1.935375642070e-05 4.754253872235e-03 0.0 
0.0 0.0 -7.174139623878e-04 
-7.216541372050e-04 -1.661627060867e-06 0.0 
-1.661627060867e-06 4.777425000757e-03 0.0 
0.0 0.0 -7.207851870574e-04 
-7.266636292901e-04 1.146480479962e-05 0.0 
1.146480479962e-05 4.774807952892e-03 0.0 
0.0 0.0 -7.195160023472e-04 
-7.122931693663e-04 9.682189882747e-06 0.0 
9.682189882747e-06 4.766361153699e-03 0.0 
0.0 0.0 -7.186294792877e-04 
-7.223758526161e-04 -5.773972664843e-07 0.0 
-5.773972664843e-07 4.760731689836e-03 0.0 
0.0 0.0 -7.186194644340e-04 
-7.139375811903e-04 3.527894913646e-06 0.0 
3.527894913646e-06 4.752952638331e-03 0.0 
0.0 0.0 -7.192946965590e-04 
-7.137439540073e-04 7.450038406374e-06 0.0 
7.450038406374e-06 4.760593446241e-03 0.0 
0.0 0.0 -7.207925953812e-04 
-2.592440264177e-05 -1.590076434165e-05 0.0 
-1.590076434165e-05 1.361807839618e-04 0.0 
0.0 0.0 -2.981554499673e-05 
-3.446067835928e-05 -4.722769695024e-06 0.0 
-4.722769695024e-06 1.514232641040e-04 0.0 
0.0 0.0 -3.001360406192e-05 
-1.576164107189e-05 6.855840384423e-06 0.0 
6.855840384423e-06 1.420727738414e-04 0.0 
0.0 0.0 -2.891678940537e-05 
-1.058332407332e-05 -2.088674468884e-05 0.0 
-2.088674468884e-05 1.367187831327e-04 0.0 
0.0 0.0 -2.889836327124e-05 
-3.364373544555e-05 -3.089965635262e-05 0.0 
-3.089965635262e-05 1.595260388365e-04 0.0 
0.0 0.0 -3.040745255895e-05 
-4.176671741939e-05 -6.138377296836e-06 0.0 
-6.138377296836e-06 1.798263625009e-04 0.0 
0.0 0.0 -3.068777868300e-05 
-3.824342451589e-05 5.591674158897e-07 0.0 
5.591674158897e-07 1.791426173783e-04 0.0 
0.0 0.0 -3.058835961954e-05 
-3.226360630243e-05 -1.341036859016e-06 0.0 
-1.341036859016e-06 1.722310666212e-04 0.0 
0.0 0.0 -3.053879953887e-05 
-3.075195274388e-05 -3.753502375142e-06 0.0 
-3.753502375142e-06 1.736984769829e-04 0.0 
0.0 0.0 -3.044251428418e-05 
-2.638860610350e-05 -7.894449171776e-06 0.0 
-7.894449171776e-06 1.709687444737e-04 0.0 
0.0 0.0 -3.048531495051e-05 
-2.681419529698e-05 -1.626482453994e-05 0.0 
-1.626482453994e-05 1.776638784057e-04 0.0 
0.0 0.0 -3.060061046523e-05 
-4.178895109067e-05 4.651397470064e-06 0.0 
4.651397470064e-06 1.936858804511e-04 0.0 
0.0 0.0 -3.133350520012e-05 
-3.584663091306e-05 2.920944978623e-05 0.0 
2.920944978623e-05 1.814285478668e-04 0.0 
0.0 0.0 -3.101487170496e-05 
-1.892508329037e-05 9.286208390908e-06 0.0 
9.286208390908e-06 1.578481945027e-04 0.0 
0.0 0.0 -3.010388419214e-05 
-2.660519595212e-05 -4.398298942796e-06 0.0 
-4.398298942796e-06 1.591906609278e-04 0.0 
0.0 0.0 -3.041972112533e-05 
-4.134075465171e-05 1.617060886407e-06 0.0 
1.617060886407e-06 1.756452327158e-04 0.0 
0.0 0.0 -3.060566238437e-05 
-4.636580504519e-05 5.643116689764e-06 0.0 
5.643116689764e-06 1.798643178415e-04 0.0 
0.0 0.0 -3.058114983003e-05 
-3.066571027206e-05 2.752472550757e-05 0.0 
2.752472550757e-05 1.500341931888e-04 0.0 
0.0 0.0 -3.041506914824e-05 
-1.475246436927e-05 4.693943976204e-06 0.0 
4.693943976204e-06 1.322021267256e-04 0.0 
0.0 0.0 -2.944997384815e-05 
-6.112648154112e-05 2.057582376636e-05 0.0 
2.057582376636e-05 2.373049901764e-04 0.0 
0.0 0.0 -7.119425116786e-05 
-1.546216371726e-04 6.400049167798e-05 0.0 
6.400049167798e-05 7.010998205819e-04 0.0 
0.0 0.0 -1.457676002711e-04 
-2.180259668060e-04 8.313364542154e-05 0.0 
8.313364542154e-05 1.168903010383e-03 0.0 
0.0 0.0 -2.130143027807e-04 
-2.888761379291e-04 8.199755792821e-05 0.0 
8.199755792821e-05 1.646730006385e-03 0.0 
0.0 0.0 -2.801731950103e-04 
-3.556189171031e-04 3.435503475517e-05 0.0 
3.435503475517e-05 2.100711759406e-03 0.0 
0.0 0.0 -3.440931072323e-04 
-4.072044444476e-04 4.893832875794e-05 0.0 
4.893832875794e-05 2.564834203635e-03 0.0 
0.0 0.0 -4.108392228286e-04 
-4.870759962323e-04 5.278682620990e-05 0.0 
5.278682620990e-05 3.019866235023e-03 0.0 
0.0 0.0 -4.786325096809e-04 
-5.502705052573e-04 6.503016515131e-05 0.0 
6.503016515131e-05 3.480762125304e-03 0.0 
0.0 0.0 -5.455426008747e-04 
-6.168300014571e-04 5.819245694313e-05 0.0 
5.819245694313e-05 3.947567695400e-03 0.0 
0.0 0.0 -6.123661653548e-04 
-6.803367916735e-04 5.968853824490e-05 0.0 
5.968853824490e-05 4.423975349782e-03 0.0 
0.0 0.0 -6.792803300743e-04 
-1.935964666812e-04 2.967460992406e-06 0.0 
2.967460992406e-06 9.892888486110e-04 0.0 
0.0 0.0 -1.870278901045e-04 
-1.298255034363e-03 -1.439677610189e-05 0.0 
-1.439677610189e-05 8.770849623045e-03 0.0 
0.0 0.0 -1.303388942653e-03 
-5.711706292197e-05 -1.132529147629e-05 0.0 
-1.132529147629e-05 2.965576224762e-04 0.0 
0.0 0.0 -5.718844814379e-05 
-5.424579011879e-05 -2.911933097956e-05 0.0 
-2.911933097956e-05 2.725297638318e-04 0.0 
0.0 0.0 -5.560925106412e-05 
-1.303094143304e-03 2.083700262778e-05 0.0 
2.083700262778e-05 8.775603321897e-03 0.0 
0.0 0.0 -1.303360877099e-03 
-3.337502689384e-04 2.573658945222e-05 0.0 
2.573658945222e-05 1.945399262405e-03 0.0 
0.0 0.0 -3.213286234882e-04 
-7.420382513691e-04 -8.331648497414e-06 0.0 
-8.331648497414e-06 4.783425200817e-03 0.0 
0.0 0.0 -7.300567563597e-04 
-1.300502925116e-03 1.312346542061e-05 0.0 
1.312346542061e-05 8.760360600138e-03 0.0 
0.0 0.0 -1.300998267065e-03 
-4.558051091763e-04 -3.180946065222e-05 0.0 
-3.180946065222e-05 2.815581106164e-03 0.0 
0.0 0.0 -4.497936382440e-04 
-1.301730818783e-03 3.906861163019e-06 0.0 
3.906861163019e-06 8.781071212001e-03 0.0 
0.0 0.0 -1.304014651794e-03 
-5.931132187702e-04 3.451249603910e-06 0.0 
3.451249603910e-06 3.770920661498e-03 0.0 
0.0 0.0 -5.857980290939e-04 
-1.294626432424e-03 1.231524946246e-05 0.0 
1.231524946246e-05 8.803233335001e-03 0.0 
0.0 0.0 -1.307658508868e-03 
-5.100449476861e-05 8.243347627880e-06 0.0 
8.243347627880e-06 2.661035943334e-04 0.0 
0.0 0.0 -5.457498774670e-05 
-1.304712708061e-03 6.002193481843e-06 0.0 
6.002193481843e-06 8.782841008775e-03 0.0 
0.0 0.0 -1.304481600125e-03 
-7.263025570844e-04 1.579439830823e-05 0.0 
1.579439830823e-05 4.732739805173e-03 0.0 
0.0 0.0 -7.203075318094e-04 
-4.572752679378e-04 6.754709539201e-06 0.0 
6.754709539201e-06 2.913924238746e-03 0.0 
0.0 0.0 -4.640473930190e-04 
-9.144584483085e-04 1.326427603797e-05 0.0 
1.326427603797e-05 6.048992087784e-03 0.0 
0.0 0.0 -9.125512086551e-04 
-1.295486455605e-03 -9.635721854306e-06 0.0 
-9.635721854306e-06 8.767400550756e-03 0.0 
0.0 0.0 -1.301280071178e-03 
-1.304620553661e-03 1.736330334078e-05 0.0 
1.736330334078e-05 8.785218481020e-03 0.0 
0.0 0.0 -1.304294760550e-03 
-1.308798115864e-03 -1.758872586471e-05 0.0 
-1.758872586471e-05 8.782113468746e-03 0.0 
0.0 0.0 -1.303238611778e-03 
-1.297364651419e-03 1.079949245934e-05 0.0 
1.079949245934e-05 8.741492182536e-03 0.0 
0.0 0.0 -1.297727402575e-03 
-1.310467176952e-03 -2.184753791197e-05 0.0 
-2.184753791197e-05 8.795852425490e-03 0.0 
0.0 0.0 -1.305306183856e-03 
-7.504043158260e-04 1.146340899481e-05 0.0 
1.146340899481e-05 4.928957716144e-03 0.0 
0.0 0.0 -7.522011426764e-04 
-7.523353912947e-04 1.162137769558e-05 0.0 
1.162137769558e-05 4.926512636401e-03 0.0 
0.0 0.0 -7.529849494387e-04 
-7.546537283985e-04 -1.241349829193e-05 0.0 
-1.241349829193e-05 4.950472109635e-03 0.0 
0.0 0.0 -7.580270452736e-04 
-9.976077557881e-04 -3.465320003210e-05 0.0 
-3.465320003210e-05 6.602229680106e-03 0.0 
0.0 0.0 -9.950081682429e-04 
-1.300592036334e-03 -1.108396441712e-05 0.0 
-1.108396441712e-05 8.788475349475e-03 0.0 
0.0 0.0 -1.302874185639e-03 
-4.947082956206e-05 -1.829296119633e-05 0.0 
-1.829296119633e-05 2.690780974868e-04 0.0 
0.0 0.0 -5.461765089471e-05 
-6.582489508632e-05 5.524694071877e-06 0.0 
5.524694071877e-06 3.064286723343e-04 0.0 
0.0 0.0 -5.841730026857e-05 
-1.120911548220e-03 -1.158571369170e-06 0.0 
-1.158571369170e-06 7.515613535503e-03 0.0 
0.0 0.0 -1.122886395833e-03 
-7.582082522979e-04 1.961281355472e-05 0.0 
1.961281355472e-05 4.902933380827e-03 0.0 
0.0 0.0 -7.500338828344e-04 
-2.694321437334e-04 2.278372598568e-06 0.0 
2.278372598568e-06 1.494554554088e-03 0.0 
0.0 0.0 -2.594501920933e-04 
-1.298427704971e-03 5.282056354371e-06 0.0 
5.282056354371e-06 8.696713485831e-03 0.0 
0.0 0.0 -1.293200138473e-03 
-1.306703206650e-03 1.354031549594e-05 0.0 
1.354031549594e-05 8.802982423650e-03 0.0 
0.0 0.0 -1.307307853467e-03 
-1.306558631645e-03 5.032010017815e-06 0.0 
5.032010017815e-06 8.775985095811e-03 0.0 
0.0 0.0 -1.304733450272e-03 
-1.299335994773e-03 1.249139207265e-05 0.0 
1.249139207265e-05 8.749655727550e-03 0.0 
0.0 0.0 -1.297928233296e-03 
-1.308929768589e-03 -1.641174944340e-05 0.0 
-1.641174944340e-05 8.785621003878e-03 0.0 
0.0 0.0 -1.305578568836e-03 
-6.266603041313e-05 2.501207789146e-06 0.0 
2.501207789146e-06 3.071735198218e-04 0.0 
0.0 0.0 -5.851952868525e-05 
-7.474245186294e-04 1.424161896041e-05 0.0 
1.424161896041e-05 4.916877911110e-03 0.0 
0.0 0.0 -7.500980793754e-04 
-1.296702677324e-03 1.017615489424e-05 0.0 
1.017615489424e-05 8.704965271547e-03 0.0 
0.0 0.0 -1.293180865222e-03 
-1.128899365850e-03 -3.031105506869e-05 0.0 
-3.031105506869e-05 7.537413441575e-03 0.0 
0.0 0.0 -1.123598490052e-03 
-5.732050020506e-05 -1.482205262673e-05 0.0 
-1.482205262673e-05 2.925850224953e-04 0.0 
0.0 0.0 -5.798785095130e-05 
-5.914251289981e-04 -6.471482804683e-06 0.0 
-6.471482804683e-06 3.820964198355e-03 0.0 
0.0 0.0 -5.937437734062e-04 
-1.319868342544e-03 -1.044247080549e-05 0.0 
-1.044247080549e-05 8.859569502417e-03 0.0 
0.0 0.0 -1.311981303940e-03 
-4.039407312574e-04 -1.513566039236e-05 0.0 
-1.513566039236e-05 2.425755132441e-03 0.0 
0.0 0.0 -3.897472533596e-04 
-2.622920170020e-04 7.443498411071e-06 0.0 
7.443498411071e-06 1.467365751784e-03 0.0 
0.0 0.0 -2.548795656134e-04 
-5.270389969687e-04 -7.501595445509e-06 0.0 
-7.501595445509e-06 3.294996993381e-03 0.0 
0.0 0.0 -5.178568985205e-04 
-6.568994839779e-04 -7.061170510206e-06 0.0 
-7.061170510206e-06 4.237934581571e-03 0.0 
0.0 0.0 -6.527703211191e-04 
-1.172487669236e-04 -1.455488225107e-05 0.0 
-1.455488225107e-05 4.809709659116e-04 0.0 
0.0 0.0 -1.118557093815e-04 
-8.696005125465e-04 -8.177489350844e-06 0.0 
-8.177489350844e-06 5.725890687358e-03 0.0 
0.0 0.0 -8.684787984471e-04 
-1.317974587429e-03 -1.269961975263e-05 0.0 
-1.269961975263e-05 8.865515668911e-03 0.0 
0.0 0.0 -1.313906642692e-03 
-5.185989643575e-05 2.926503183839e-05 0.0 
2.926503183839e-05 2.746618289318e-04 0.0 
0.0 0.0 -5.836448670120e-05 
-1.244012605559e-03 -1.337379541716e-07 0.0 
-1.337379541716e-07 8.417025004517e-03 0.0 
0.0 0.0 -1.253930875827e-03 
-7.490231005430e-04 1.074391793069e-05 0.0 
1.074391793069e-05 4.928373640173e-03 0.0 
0.0 0.0 -7.532271817479e-04 
-7.806985373677e-04 4.966139412133e-06 0.0 
4.966139412133e-06 5.109831204569e-03 0.0 
0.0 0.0 -7.809350190597e-04 
-8.062001814621e-04 2.173167671072e-05 0.0 
2.173167671072e-05 5.343609321704e-03 0.0 
0.0 0.0 -8.115578932774e-04 
-8.489268176994e-04 -8.110940848576e-06 0.0 
-8.110940848576e-06 5.566485028911e-03 0.0 
0.0 0.0 -8.428390908522e-04 
-8.804673106023e-04 1.251244415493e-07 0.0 
1.251244415493e-07 5.795279077470e-03 0.0 
0.0 0.0 -8.784658474099e-04 
-9.121627378672e-04 -7.430796722976e-06 0.0 
-7.430796722976e-06 6.000836909728e-03 0.0 
0.0 0.0 -9.060409163497e-04 
-8.756777626729e-04 -7.143189004736e-06 0.0 
-7.143189004736e-06 5.761383353658e-03 0.0 
0.0 0.0 -8.711257577414e-04 
-9.375016757268e-04 -9.018261483612e-06 0.0 
-9.018261483612e-06 6.200512371454e-03 0.0 
0.0 0.0 -9.341442283280e-04 
-9.034456709669e-04 -5.627619604464e-06 0.0 
-5.627619604464e-06 5.955351813444e-03 0.0 
0.0 0.0 -8.989774131092e-04 
-9.375397006910e-04 -9.487100187210e-06 0.0 
-9.487100187210e-06 6.248793060300e-03 0.0 
0.0 0.0 -9.415083590319e-04 
-9.651447206159e-04 -1.078565163388e-05 0.0 
-1.078565163388e-05 6.396664073005e-03 0.0 
0.0 0.0 -9.622976032585e-04 
-9.304266532056e-04 -6.330576673735e-06 0.0 
-6.330576673735e-06 6.148924780633e-03 0.0 
0.0 0.0 -9.268639294333e-04 
-9.923459703203e-04 -8.832674575544e-06 0.0 
-8.832674575544e-06 6.591396283472e-03 0.0 
0.0 0.0 -9.903372159162e-04 
-9.579486406670e-04 -6.976346530340e-06 0.0 
-6.976346530340e-06 6.343540435811e-03 0.0 
0.0 0.0 -9.547708836903e-04 
-8.957338589247e-04 -3.445195682080e-06 0.0 
-3.445195682080e-06 5.904490313780e-03 0.0 
0.0 0.0 -8.916807130883e-04 
-9.234034349690e-04 -3.140263271668e-06 0.0 
-3.140263271668e-06 6.097553141781e-03 0.0 
0.0 0.0 -9.194532194038e-04 
-8.597658352201e-04 -5.745984388473e-07 0.0 
-5.745984388473e-07 5.659471370407e-03 0.0 
0.0 0.0 -8.565021464485e-04 
-8.876676417698e-04 -1.521204235365e-06 0.0 
-1.521204235365e-06 5.852313305850e-03 0.0 
0.0 0.0 -8.841639842141e-04 
-9.508204613182e-04 -2.297031587580e-06 0.0 
-2.297031587580e-06 6.292146332209e-03 0.0 
0.0 0.0 -9.471984275390e-04 
-9.148993498348e-04 -3.275082318969e-06 0.0 
-3.275082318969e-06 6.045345094116e-03 0.0 
0.0 0.0 -9.118195294070e-04 
-8.520584533063e-04 -1.219021611579e-06 0.0 
-1.219021611579e-06 5.605756351829e-03 0.0 
0.0 0.0 -8.488396520500e-04 
-8.789321886970e-04 -2.050593653240e-06 0.0 
-2.050593653240e-06 5.797286878756e-03 0.0 
0.0 0.0 -8.764089341820e-04 
-8.161164546335e-04 3.435109532417e-07 0.0 
3.435109532417e-07 5.359457664966e-03 0.0 
0.0 0.0 -8.135623229517e-04 
-8.427829602136e-04 -1.073992276177e-06 0.0 
-1.073992276177e-06 5.550412011619e-03 0.0 
0.0 0.0 -8.410744910442e-04 
-7.803403629458e-04 1.482617335675e-07 0.0 
1.482617335675e-07 5.112144953619e-03 0.0 
0.0 0.0 -7.781617608290e-04 
-8.069161494671e-04 -9.832122125661e-07 0.0 
-9.832122125661e-07 5.303670065228e-03 0.0 
0.0 0.0 -8.056965831182e-04 
-8.693622760752e-04 -2.102828341514e-06 0.0 
-2.102828341514e-06 5.742393281941e-03 0.0 
0.0 0.0 -8.686949506212e-04 
-8.339431778097e-04 -6.526060623787e-07 0.0 
-6.526060623787e-07 5.495228078517e-03 0.0 
0.0 0.0 -8.332427817419e-04 
-7.711323033225e-04 2.736293389706e-07 0.0 
2.736293389706e-07 5.056666474078e-03 0.0 
0.0 0.0 -7.703313069557e-04 
-7.984646574761e-04 4.457733912307e-07 0.0 
4.457733912307e-07 5.248286890054e-03 0.0 
0.0 0.0 -7.977945042040e-04 
-7.355637814563e-04 1.290713586140e-06 0.0 
1.290713586140e-06 4.810484252267e-03 0.0 
0.0 0.0 -7.349073124327e-04 
-7.625544307913e-04 1.894462684371e-06 0.0 
1.894462684371e-06 4.999988831075e-03 0.0 
0.0 0.0 -7.622392297106e-04 
-8.257237067376e-04 1.120212681232e-06 0.0 
1.120212681232e-06 5.439584299338e-03 0.0 
0.0 0.0 -8.253152238873e-04 
-7.900934727742e-04 5.597935307128e-07 0.0 
5.597935307128e-07 5.191568262959e-03 0.0 
0.0 0.0 -7.896995018144e-04 
-7.266613947027e-04 4.187926819656e-07 0.0 
4.187926819656e-07 4.748654817893e-03 0.0 
0.0 0.0 -7.264132926704e-04 
-7.549260771137e-04 -7.052768559210e-07 0.0 
-7.052768559210e-07 4.942867002026e-03 0.0 
0.0 0.0 -7.539848323805e-04 
-6.914939078144e-04 -3.149044509645e-06 0.0 
-3.149044509645e-06 4.497991263929e-03 0.0 
0.0 0.0 -6.903858661722e-04 
-7.195945743335e-04 -6.350033787306e-09 0.0 
-6.350033787306e-09 4.694794432778e-03 0.0 
0.0 0.0 -7.182351804274e-04 
-6.554914090723e-04 -2.338725356815e-06 0.0 
-2.338725356815e-06 4.247612436471e-03 0.0 
0.0 0.0 -6.542402593883e-04 
-6.835277346368e-04 5.013350339296e-07 0.0 
5.013350339296e-07 4.443250069824e-03 0.0 
0.0 0.0 -6.821763112594e-04 
-7.475539329935e-04 -2.134179080116e-07 0.0 
-2.134179080116e-07 4.889262543532e-03 0.0 
0.0 0.0 -7.460902125261e-04 
-7.115638396740e-04 -9.716415015815e-07 0.0 
-9.716415015815e-07 4.638756710994e-03 0.0 
0.0 0.0 -7.100832486075e-04 
-6.472258987921e-04 -7.491708783303e-07 0.0 
-7.491708783303e-07 4.191362599469e-03 0.0 
0.0 0.0 -6.458624074531e-04 
-6.748538623222e-04 -1.344545062227e-06 0.0 
-1.344545062227e-06 4.385359401490e-03 0.0 
0.0 0.0 -6.737786430284e-04 
-7.391037565522e-04 -1.870094726741e-06 0.0 
-1.870094726741e-06 4.833803711944e-03 0.0 
0.0 0.0 -7.381473126730e-04 
-7.024920060125e-04 -1.771787760444e-06 0.0 
-1.771787760444e-06 4.579736205562e-03 0.0 
0.0 0.0 -7.017500108595e-04 
-7.668451599419e-04 -2.200372036206e-06 0.0 
-2.200372036206e-06 5.029184891420e-03 0.0 
0.0 0.0 -7.662494016216e-04 
-7.304037803270e-04 -1.328124908049e-06 0.0 
-1.328124908049e-06 4.775158829539e-03 0.0 
0.0 0.0 -7.297828278826e-04 
-6.661738894366e-04 -1.523527641000e-06 0.0 
-1.523527641000e-06 4.327585164653e-03 0.0 
0.0 0.0 -6.655364893108e-04 
-6.940255140087e-04 -3.189861403841e-07 0.0 
-3.189861403841e-07 4.522445273198e-03 0.0 
0.0 0.0 -6.934067383651e-04 
-7.582740677644e-04 -6.702170425335e-07 0.0 
-6.702170425335e-07 4.970550121083e-03 0.0 
0.0 0.0 -7.577868799165e-04 
-7.219132454205e-04 -3.552688472856e-07 0.0 
-3.552688472856e-07 4.715591284681e-03 0.0 
0.0 0.0 -7.212202614536e-04 
-6.579749567302e-04 -8.528343254354e-07 0.0 
-8.528343254354e-07 4.269380617603e-03 0.0 
0.0 0.0 -6.571136838490e-04 
-6.854396942303e-04 1.404532946377e-06 0.0 
1.404532946377e-06 4.463099019341e-03 0.0 
0.0 0.0 -6.848379476561e-04 
-7.499209568980e-04 9.788669448492e-07 0.0 
9.788669448492e-07 4.910836491420e-03 0.0 
0.0 0.0 -7.491645792950e-04 
-7.130866886284e-04 2.531462605044e-06 0.0 
2.531462605044e-06 4.656380230421e-03 0.0 
0.0 0.0 -7.127097857715e-04 
-6.490463142765e-04 2.026928070065e-06 0.0 
2.026928070065e-06 4.209801950481e-03 0.0 
0.0 0.0 -6.486049398320e-04 
-6.764658608434e-04 3.508718195911e-06 0.0 
3.508718195911e-06 4.404145734277e-03 0.0 
0.0 0.0 -6.763006240845e-04 
-7.410587565243e-04 2.977071001507e-06 0.0 
2.977071001507e-06 4.853988703533e-03 0.0 
0.0 0.0 -7.409416231994e-04 
-7.040690402047e-04 2.351563892176e-06 0.0 
2.351563892176e-06 4.597607851949e-03 0.0 
0.0 0.0 -7.042275185679e-04 
-6.395068044753e-04 3.551759029564e-06 0.0 
3.551759029564e-06 4.148883800447e-03 0.0 
0.0 0.0 -6.398389559308e-04 
-6.666949009552e-04 4.033462501281e-06 0.0 
4.033462501281e-06 4.341905952590e-03 0.0 
0.0 0.0 -6.674633383154e-04 
-7.319239687129e-04 2.339911819107e-06 0.0 
2.339911819107e-06 4.794577675996e-03 0.0 
0.0 0.0 -7.324886333286e-04 
-6.941465830902e-04 3.043408887489e-06 0.0 
3.043408887489e-06 4.534944571325e-03 0.0 
0.0 0.0 -6.954027321054e-04 
-7.599625173412e-04 1.739203305399e-06 0.0 
1.739203305399e-06 4.991507953981e-03 0.0 
0.0 0.0 -7.608997874520e-04 
-6.288087524292e-04 4.620726933277e-06 0.0 
4.620726933277e-06 4.080538413552e-03 0.0 
0.0 0.0 -6.302092384919e-04 
-6.562200550336e-04 2.527596513670e-06 0.0 
2.527596513670e-06 4.273760246295e-03 0.0 
0.0 0.0 -6.580989212857e-04 
-5.905021683275e-04 5.113861583814e-06 0.0 
5.113861583814e-06 3.817210818870e-03 0.0 
0.0 0.0 -5.925517106747e-04 
-6.180070563345e-04 1.748353135706e-06 0.0 
1.748353135706e-06 4.012241935297e-03 0.0 
0.0 0.0 -6.207111136070e-04 
-8.536335610934e-04 1.348609631281e-06 0.0 
1.348609631281e-06 5.632618076260e-03 0.0 
0.0 0.0 -8.529317679587e-04 
-5.517808621482e-04 4.295824092658e-06 0.0 
4.295824092658e-06 3.553884541992e-03 0.0 
0.0 0.0 -5.549884598765e-04 
-5.256512596246e-04 6.824695261283e-06 0.0 
6.824695261283e-06 3.365117692799e-03 0.0 
0.0 0.0 -5.276250340903e-04 
-5.798411198689e-04 -4.887552614940e-09 0.0 
-4.887552614940e-09 3.751124839276e-03 0.0 
0.0 0.0 -5.833260987948e-04 
-6.468648656295e-04 -6.634229100997e-07 0.0 
-6.634229100997e-07 4.212613913655e-03 0.0 
0.0 0.0 -6.493616581942e-04 
-5.137698154976e-04 1.586824553316e-06 0.0 
1.586824553316e-06 3.290773483107e-03 0.0 
0.0 0.0 -5.173870653820e-04 
-5.418307247046e-04 -1.136001153201e-06 0.0 
-1.136001153201e-06 3.490016299043e-03 0.0 
0.0 0.0 -5.459094278256e-04 
-4.770030151011e-04 2.075579507861e-06 0.0 
2.075579507861e-06 3.029794249274e-03 0.0 
0.0 0.0 -4.798161731008e-04 
-6.265889875599e-04 -3.099894472577e-06 0.0 
-3.099894472577e-06 4.044775427509e-03 0.0 
0.0 0.0 -6.252159162693e-04 
-9.779259260500e-04 -4.603917606284e-06 0.0 
-4.603917606284e-06 6.486620776824e-03 0.0 
0.0 0.0 -9.750716696758e-04 
-5.048311626822e-04 8.069914569194e-07 0.0 
8.069914569194e-07 3.230775089179e-03 0.0 
0.0 0.0 -5.084495576641e-04 
-4.414277464692e-04 -9.314775103438e-07 0.0 
-9.314775103438e-07 2.769397101649e-03 0.0 
0.0 0.0 -4.423119711188e-04 
-4.126781969751e-04 2.777234300749e-06 0.0 
2.777234300749e-06 2.568725273303e-03 0.0 
0.0 0.0 -4.136824817550e-04 
-3.752383636154e-04 2.627021531192e-07 0.0 
2.627021531192e-07 2.307149796782e-03 0.0 
0.0 0.0 -3.761903503575e-04 
-9.032923406135e-04 -1.942635711141e-05 0.0 
-1.942635711141e-05 6.054768473392e-03 0.0 
0.0 0.0 -9.126358703463e-04 
-9.750351070606e-04 8.331650578495e-07 0.0 
8.331650578495e-07 6.501449499714e-03 0.0 
0.0 0.0 -9.772611937912e-04 
-9.426936007590e-04 -8.476577603227e-06 0.0 
-8.476577603227e-06 6.285634427722e-03 0.0 
0.0 0.0 -9.468612964576e-04 
-1.013350986754e-03 -2.420793703352e-06 0.0 
-2.420793703352e-06 6.752430832338e-03 0.0 
0.0 0.0 -1.012955122490e-03 
-9.819905249802e-04 -9.218190891258e-06 0.0 
-9.218190891258e-06 6.546568860747e-03 0.0 
0.0 0.0 -9.835180958883e-04 
-4.033189249180e-04 -7.405594451594e-06 0.0 
-7.405594451594e-06 2.507023825451e-03 0.0 
0.0 0.0 -4.047791634435e-04 
-1.026297749493e-03 -7.873848128138e-06 0.0 
-7.873848128138e-06 6.842470359288e-03 0.0 
0.0 0.0 -1.026687169009e-03 
-1.041976492742e-03 3.297528438882e-06 0.0 
3.297528438882e-06 6.953471480802e-03 0.0 
0.0 0.0 -1.042264213861e-03 
-7.894126093117e-04 1.238093184261e-06 0.0 
1.238093184261e-06 5.169984540206e-03 0.0 
0.0 0.0 -7.861871271282e-04 
-7.083334352115e-04 1.160791963816e-06 0.0 
1.160791963816e-06 4.619009573669e-03 0.0 
0.0 0.0 -7.076088937226e-04 
-8.034448321061e-04 -3.641604808727e-06 0.0 
-3.641604808727e-06 5.283437919380e-03 0.0 
0.0 0.0 -8.027518904046e-04 
-5.699317647336e-04 -5.077104347375e-06 0.0 
-5.077104347375e-06 3.690391390143e-03 0.0 
0.0 0.0 -5.745905038755e-04 
-5.325923514100e-04 1.264931689698e-06 0.0 
1.264931689698e-06 3.434700451156e-03 0.0 
0.0 0.0 -5.371338854166e-04 
-6.021414154153e-04 -1.123287284899e-05 0.0 
-1.123287284899e-05 3.895898666929e-03 0.0 
0.0 0.0 -6.033452624549e-04 
-7.975586205945e-04 7.346724403243e-07 0.0 
7.346724403243e-07 5.250837552224e-03 0.0 
0.0 0.0 -7.980428604176e-04 
-8.260589898795e-04 8.470418804301e-07 0.0 
8.470418804301e-07 5.449813526142e-03 0.0 
0.0 0.0 -8.266132305475e-04 
-8.633840041631e-04 4.108677630606e-07 0.0 
4.108677630606e-07 5.709024598085e-03 0.0 
0.0 0.0 -8.638188500004e-04 
-8.921637692903e-04 4.125221994128e-07 0.0 
4.125221994128e-07 5.908664068470e-03 0.0 
0.0 0.0 -8.924533907576e-04 
-9.293171742377e-04 3.033539280217e-07 0.0 
3.033539280217e-07 6.168083546013e-03 0.0 
0.0 0.0 -9.297164513315e-04 
-9.582709124814e-04 8.513827699030e-07 0.0 
8.513827699030e-07 6.368400937687e-03 0.0 
0.0 0.0 -9.583747859490e-04 
-9.209100768105e-04 -4.256218772049e-07 0.0 
-4.256218772049e-07 6.108351576790e-03 0.0 
0.0 0.0 -9.210728288235e-04 
-9.873571107966e-04 -7.195723232421e-07 0.0 
-7.195723232421e-07 6.568673837727e-03 0.0 
0.0 0.0 -9.870277070005e-04 
-9.496224461858e-04 -1.641275595005e-06 0.0 
-1.641275595005e-06 6.308003890192e-03 0.0 
0.0 0.0 -9.497007337289e-04 
-9.952004913146e-04 1.269240357772e-06 0.0 
1.269240357772e-06 6.627713601016e-03 0.0 
0.0 0.0 -9.956835613869e-04 
-9.665012269537e-04 -8.709086142768e-07 0.0 
-8.709086142768e-07 6.427165842683e-03 0.0 
0.0 0.0 -9.668198671257e-04 
-1.015999965498e-03 -2.659789521436e-06 0.0 
-2.659789521436e-06 6.768164853944e-03 0.0 
0.0 0.0 -1.015681523326e-03 
-9.780689760981e-04 -1.773026811924e-06 0.0 
-1.773026811924e-06 6.507705614272e-03 0.0 
0.0 0.0 -9.783260305705e-04 
-1.043750394909e-03 -2.772279525269e-06 0.0 
-2.772279525269e-06 6.967527210065e-03 0.0 
0.0 0.0 -1.044362401637e-03 
-1.005977853166e-03 -2.262113223712e-06 0.0 
-2.262113223712e-06 6.706658029639e-03 0.0 
0.0 0.0 -1.007007767922e-03 
-9.404749716457e-04 -1.193534276240e-06 0.0 
-1.193534276240e-06 6.246239019973e-03 0.0 
0.0 0.0 -9.408676861799e-04 
-9.684909118554e-04 -8.529271608852e-07 0.0 
-8.529271608852e-07 6.444829778042e-03 0.0 
0.0 0.0 -9.695029660748e-04 
-9.037723104014e-04 -2.350012697862e-06 0.0 
-2.350012697862e-06 5.986848649888e-03 0.0 
0.0 0.0 -9.035672079865e-04 
-8.314464570683e-04 -3.616594317120e-06 0.0 
-3.616594317120e-06 5.479880314984e-03 0.0 
0.0 0.0 -8.309624794500e-04 
-8.682753299777e-04 -4.472916759998e-06 0.0 
-4.472916759998e-06 5.735257211893e-03 0.0 
0.0 0.0 -8.675775700443e-04 
-8.962132157839e-04 -3.994715245343e-06 0.0 
-3.994715245343e-06 5.931796623670e-03 0.0 
0.0 0.0 -8.958500940740e-04 
-9.334915543321e-04 -5.104595478868e-06 0.0 
-5.104595478868e-06 6.188168080628e-03 0.0 
0.0 0.0 -9.325549191312e-04 
-9.611906856985e-04 -4.832422115400e-06 0.0 
-4.832422115400e-06 6.384949120317e-03 0.0 
0.0 0.0 -9.609176734917e-04 
-9.993166695242e-04 -5.921015935425e-06 0.0 
-5.921015935425e-06 6.642197475408e-03 0.0 
0.0 0.0 -9.976363410588e-04 
-1.026869107811e-03 -5.279541534961e-06 0.0 
-5.279541534961e-06 6.837737939095e-03 0.0 
0.0 0.0 -1.026032504441e-03 
-9.888890578615e-04 -3.536873257987e-06 0.0 
-3.536873257987e-06 6.582021445560e-03 0.0 
0.0 0.0 -9.892761093609e-04 
-1.020948249731e-03 -5.775826579321e-06 0.0 
-5.775826579321e-06 6.785097853957e-03 0.0 
0.0 0.0 -1.018102500310e-03 
-6.106564943980e-04 -8.377932010446e-07 0.0 
-8.377932010446e-07 3.937861241286e-03 0.0 
0.0 0.0 -6.095594541484e-04 
-5.829707017919e-04 -8.761996171912e-07 0.0 
-8.761996171912e-07 3.743841342214e-03 0.0 
0.0 0.0 -5.816898710390e-04 
-5.468224651884e-04 3.532374184935e-07 0.0 
3.532374184935e-07 3.491149788400e-03 0.0 
0.0 0.0 -5.454521931755e-04 
-5.191424428682e-04 -2.726566040463e-07 0.0 
-2.726566040463e-07 3.297674531074e-03 0.0 
0.0 0.0 -5.176388733440e-04 
-4.833226440277e-04 2.092058671685e-06 0.0 
2.092058671685e-06 3.045002640289e-03 0.0 
0.0 0.0 -4.814163979944e-04 
-4.557758029646e-04 1.050100036914e-06 0.0 
1.050100036914e-06 2.852852491029e-03 0.0 
0.0 0.0 -4.537165770244e-04 
-4.203756978464e-04 3.745088126594e-06 0.0 
3.745088126594e-06 2.598843361212e-03 0.0 
0.0 0.0 -4.172264234068e-04 
-4.466735727578e-04 5.480427943032e-06 0.0 
5.480427943032e-06 2.790981770740e-03 0.0 
0.0 0.0 -4.450327826477e-04 
-3.836326554131e-04 7.904997896630e-06 0.0 
7.904997896630e-06 2.342835906920e-03 0.0 
0.0 0.0 -3.805252178390e-04 
-4.084193757355e-04 7.242552144220e-06 0.0 
7.242552144220e-06 2.535005811079e-03 0.0 
0.0 0.0 -4.085362445790e-04 
-3.461331758914e-04 8.763341315909e-06 0.0 
8.763341315909e-06 2.084280570054e-03 0.0 
0.0 0.0 -3.437934912881e-04 
-3.698709012629e-04 8.292346557788e-06 0.0 
8.292346557788e-06 2.277114687721e-03 0.0 
0.0 0.0 -3.717096690223e-04 
-8.965032625882e-04 -1.627591660555e-06 0.0 
-1.627591660555e-06 5.934603885101e-03 0.0 
0.0 0.0 -8.963565068603e-04 
-9.708908500796e-04 -5.045480792171e-06 0.0 
-5.045480792171e-06 6.444533853224e-03 0.0 
0.0 0.0 -9.691568884624e-04 
-1.036699855876e-03 -2.770010414097e-06 0.0 
-2.770010414097e-06 6.900219655108e-03 0.0 
0.0 0.0 -1.034312087004e-03 
-1.006639220865e-03 -3.033633605210e-06 0.0 
-3.033633605210e-06 6.698197690662e-03 0.0 
0.0 0.0 -1.005320805676e-03 
-3.491849021405e-04 5.274199755838e-07 0.0 
5.274199755838e-07 2.108115059856e-03 0.0 
0.0 0.0 -3.475522021424e-04 
-1.033063842021e-03 -2.635650059534e-06 0.0 
-2.635650059534e-06 6.905166544597e-03 0.0 
0.0 0.0 -1.035773625862e-03 
-1.032236772368e-03 -1.431372014474e-06 0.0 
-1.431372014474e-06 6.887149851833e-03 0.0 
0.0 0.0 -1.032922975483e-03 
-1.003745583219e-03 -3.564129010650e-06 0.0 
-3.564129010650e-06 6.683661322661e-03 0.0 
0.0 0.0 -1.003739924893e-03 
-1.054629030311e-03 -7.601280978034e-07 0.0 
-7.601280978034e-07 7.036563315422e-03 0.0 
0.0 0.0 -1.054598834243e-03 
-3.382801587767e-04 -2.979708598332e-06 0.0 
-2.979708598332e-06 2.049061231215e-03 0.0 
0.0 0.0 -3.392587823741e-04 
-3.925929468368e-04 -3.827429239537e-07 0.0 
-3.827429239537e-07 2.409736501278e-03 0.0 
0.0 0.0 -3.899405068163e-04 
-4.274717193387e-04 -8.415189164508e-08 0.0 
-8.415189164508e-08 2.658832617141e-03 0.0 
0.0 0.0 -4.261104576107e-04 
-1.049394948444e-03 -6.226283885142e-06 0.0 
-6.226283885142e-06 7.001982288460e-03 0.0 
0.0 0.0 -1.048874596840e-03 
-1.017918189327e-03 -8.563044135217e-06 0.0 
-8.563044135217e-06 6.794247194180e-03 0.0 
0.0 0.0 -1.019458214591e-03 
-1.069216758149e-03 -3.894499857361e-06 0.0 
-3.894499857361e-06 7.146438403505e-03 0.0 
0.0 0.0 -1.070157681403e-03 
-3.646275857635e-04 -4.854414982703e-06 0.0 
-4.854414982703e-06 2.250210390791e-03 0.0 
0.0 0.0 -3.675747464493e-04 
-1.054357939260e-03 -2.436299897868e-06 0.0 
-2.436299897868e-06 7.029823091953e-03 0.0 
0.0 0.0 -1.052997445444e-03 
-3.197645753905e-04 1.264604075079e-05 0.0 
1.264604075079e-05 1.895364248012e-03 0.0 
0.0 0.0 -3.160508651072e-04 
-9.953050425208e-04 1.480628501678e-06 0.0 
1.480628501678e-06 6.643084749548e-03 0.0 
0.0 0.0 -9.982306137915e-04 
-1.060585647238e-03 -1.664106558620e-06 0.0 
-1.664106558620e-06 7.103829563321e-03 0.0 
0.0 0.0 -1.064501221861e-03 
-8.833816014428e-04 -1.312725406902e-06 0.0 
-1.312725406902e-06 5.848632048973e-03 0.0 
0.0 0.0 -8.838659695519e-04 
-1.072126527592e-03 1.342848407699e-06 0.0 
1.342848407699e-06 7.156046509616e-03 0.0 
0.0 0.0 -1.070909199420e-03 
-1.040873144494e-03 -1.559728385230e-06 0.0 
-1.559728385230e-06 6.945723517804e-03 0.0 
0.0 0.0 -1.041442769611e-03 
-4.361432558223e-04 3.964498909213e-06 0.0 
3.964498909213e-06 2.732385665183e-03 0.0 
0.0 0.0 -4.368024751037e-04 
-4.014490958451e-04 -4.456139007959e-06 0.0 
-4.456139007959e-06 2.476345149205e-03 0.0 
0.0 0.0 -4.000028750317e-04 
-3.379276697082e-04 -9.389203744038e-07 0.0 
-9.389203744038e-07 2.030025360652e-03 0.0 
0.0 0.0 -3.362177140684e-04 
-3.635969428548e-04 1.373767669615e-06 0.0 
1.373767669615e-06 2.244616072891e-03 0.0 
0.0 0.0 -3.646174584383e-04 
-4.300938244296e-04 1.567544356571e-06 0.0 
1.567544356571e-06 2.681550340782e-03 0.0 
0.0 0.0 -4.284477484795e-04 
-3.889085083712e-04 9.835552762117e-06 0.0 
9.835552762117e-06 2.418297915731e-03 0.0 
0.0 0.0 -3.914172224959e-04 
-3.204770754165e-04 1.907323267821e-05 0.0 
1.907323267821e-05 1.962571053020e-03 0.0 
0.0 0.0 -3.275549428413e-04 
-3.502907991613e-04 7.488671343041e-06 0.0 
7.488671343041e-06 2.156719423536e-03 0.0 
0.0 0.0 -3.541853722931e-04 
-4.167106155497e-04 6.881429257356e-06 0.0 
6.881429257356e-06 2.610903268491e-03 0.0 
0.0 0.0 -4.192720002935e-04 
-3.788914181042e-04 4.343078442166e-06 0.0 
4.343078442166e-06 2.349536149817e-03 0.0 
0.0 0.0 -3.818909459020e-04 
-3.084459074470e-04 6.289188176845e-07 0.0 
6.289188176845e-07 1.890259859558e-03 0.0 
0.0 0.0 -3.163726278224e-04 
-3.419617535017e-04 -1.002237531295e-06 0.0 
-1.002237531295e-06 2.083935112305e-03 0.0 
0.0 0.0 -3.442135738104e-04 
-1.099071483736e-03 -4.059536723363e-06 0.0 
-4.059536723363e-06 7.365286043721e-03 0.0 
0.0 0.0 -1.101875158976e-03 
-2.778270531889e-04 5.606786557982e-06 0.0 
5.606786557982e-06 1.634146459113e-03 0.0 
0.0 0.0 -2.790856233436e-04 
-8.331232600789e-04 -1.470432704238e-06 0.0 
-1.470432704238e-06 5.468049203594e-03 0.0 
0.0 0.0 -8.288706041983e-04 
-1.097753538925e-03 -6.819421047775e-08 0.0 
-6.819421047775e-08 7.345996197340e-03 0.0 
0.0 0.0 -1.099012274073e-03 
-1.093116720620e-03 -8.666493399983e-07 0.0 
-8.666493399983e-07 7.286837829642e-03 0.0 
0.0 0.0 -1.090660416876e-03 
-1.084365567575e-03 -6.280824779061e-06 0.0 
-6.280824779061e-06 7.252032631151e-03 0.0 
0.0 0.0 -1.085032576515e-03 
-1.054657705810e-03 -6.435631966227e-06 0.0 
-6.435631966227e-06 7.045218181684e-03 0.0 
0.0 0.0 -1.055603631703e-03 
-9.875851288997e-04 -1.413805567798e-06 0.0 
-1.413805567798e-06 6.584177510452e-03 0.0 
0.0 0.0 -9.897378988699e-04 
-1.026769546168e-03 -2.237330550631e-06 0.0 
-2.237330550631e-06 6.840866959104e-03 0.0 
0.0 0.0 -1.026001677571e-03 
-1.092973095107e-03 -7.454569989656e-06 0.0 
-7.454569989656e-06 7.301089234385e-03 0.0 
0.0 0.0 -1.091942449670e-03 
-1.064751991023e-03 -3.501272267757e-06 0.0 
-3.501272267757e-06 7.095620902661e-03 0.0 
0.0 0.0 -1.062342898562e-03 
-9.988564979816e-04 -1.668871402208e-06 0.0 
-1.668871402208e-06 6.635005463114e-03 0.0 
0.0 0.0 -9.962627399151e-04 
-1.034436478479e-03 -1.481002808329e-06 0.0 
-1.481002808329e-06 6.886326563749e-03 0.0 
0.0 0.0 -1.032646955902e-03 
-9.669903561008e-04 -1.588757973742e-06 0.0 
-1.588757973742e-06 6.424013170772e-03 0.0 
0.0 0.0 -9.664557332607e-04 
-1.003700280699e-03 7.299281572317e-07 0.0 
7.299281572317e-07 6.676052297610e-03 0.0 
0.0 0.0 -1.002889032254e-03 
-1.069539961128e-03 -1.406306334187e-06 0.0 
-1.406306334187e-06 7.137459283332e-03 0.0 
0.0 0.0 -1.069134413525e-03 
-1.040251277345e-03 -2.304501535936e-06 0.0 
-2.304501535936e-06 6.929939891367e-03 0.0 
0.0 0.0 -1.039387411609e-03 
-9.757356294361e-04 3.492291009929e-06 0.0 
3.492291009929e-06 6.469291385121e-03 0.0 
0.0 0.0 -9.730575354659e-04 
-1.011311036558e-03 -3.920010342678e-06 0.0 
-3.920010342678e-06 6.721391753202e-03 0.0 
0.0 0.0 -1.009574527126e-03 
-9.473976655286e-04 1.069754497063e-06 0.0 
1.069754497063e-06 6.259448801403e-03 0.0 
0.0 0.0 -9.431603702596e-04 
-9.787243902099e-04 -9.076392670537e-06 0.0 
-9.076392670537e-06 6.505694726987e-03 0.0 
0.0 0.0 -9.796061197752e-04 
-1.045613844249e-03 -1.722974318839e-06 0.0 
-1.722974318839e-06 6.974649094867e-03 0.0 
0.0 0.0 -1.046101832713e-03 
-2.943775444909e-04 -6.928567679433e-07 0.0 
-6.928567679433e-07 1.805789486149e-03 0.0 
0.0 0.0 -3.035957800550e-04 
-1.017758437713e-03 8.339975111662e-07 0.0 
8.339975111662e-07 6.780275813963e-03 0.0 
0.0 0.0 -1.017732614895e-03 
-1.085695951343e-03 9.008470653871e-06 0.0 
9.008470653871e-06 7.238624846316e-03 0.0 
0.0 0.0 -1.083831836677e-03 
-5.709103913775e-04 -2.325431224873e-05 0.0 
-2.325431224873e-05 3.664168357293e-03 0.0 
0.0 0.0 -5.671321338944e-04 
-6.324387949388e-04 -2.542767452312e-05 0.0 
-2.542767452312e-05 4.079572971033e-03 0.0 
0.0 0.0 -6.325382687906e-04 
-6.703304024063e-04 2.057485422859e-06 0.0 
2.057485422859e-06 4.353279279577e-03 0.0 
0.0 0.0 -6.695659616924e-04 
-6.965174910300e-04 -2.385319859479e-06 0.0 
-2.385319859479e-06 4.560833435242e-03 0.0 
0.0 0.0 -6.986863204145e-04 
-1.013217864429e-03 -6.931448216259e-06 0.0 
-6.931448216259e-06 6.760757040862e-03 0.0 
0.0 0.0 -1.015477767897e-03 
-1.085754476307e-03 4.526117246910e-06 0.0 
4.526117246910e-06 7.228792746516e-03 0.0 
0.0 0.0 -1.082739357160e-03 
-3.632786350414e-04 -5.324944035339e-07 0.0 
-5.324944035339e-07 2.218076515491e-03 0.0 
0.0 0.0 -3.630904347118e-04 
-3.989196443091e-04 3.443700858761e-06 0.0 
3.443700858761e-06 2.465366928233e-03 0.0 
0.0 0.0 -3.987635198617e-04 
-1.114604240908e-03 -4.187271034228e-06 0.0 
-4.187271034228e-06 7.457266297093e-03 0.0 
0.0 0.0 -1.114382729655e-03 
-1.023827423401e-03 3.244776891222e-07 0.0 
3.244776891222e-07 6.846372715936e-03 0.0 
0.0 0.0 -1.027045364000e-03 
-9.591711885291e-04 5.195306824493e-06 0.0 
5.195306824493e-06 6.383348184143e-03 0.0 
0.0 0.0 -9.609938998495e-04 
-6.727539858769e-04 1.372459178947e-06 0.0 
1.372459178947e-06 4.373266699252e-03 0.0 
0.0 0.0 -6.721935305596e-04 
-6.457182263888e-04 2.843205903179e-06 0.0 
2.843205903179e-06 4.180265241662e-03 0.0 
0.0 0.0 -6.449639573754e-04 
-6.090109741668e-04 -1.269187225444e-06 0.0 
-1.269187225444e-06 3.932858286179e-03 0.0 
0.0 0.0 -6.093131083769e-04 
-5.816903259702e-04 4.641891431308e-06 0.0 
4.641891431308e-06 3.732340485873e-03 0.0 
0.0 0.0 -5.812298138028e-04 
-6.200283683434e-04 9.586645545085e-06 0.0 
9.586645545085e-06 3.992414838426e-03 0.0 
0.0 0.0 -6.173664885638e-04 
-5.434193891668e-04 -9.403867661893e-06 0.0 
-9.403867661893e-06 3.478668698049e-03 0.0 
0.0 0.0 -5.448148816535e-04 
-9.373928058819e-04 -1.601369738949e-06 0.0 
-1.601369738949e-06 6.221929865538e-03 0.0 
0.0 0.0 -9.373051277721e-04 
-1.105789133782e-03 -5.097961888882e-06 0.0 
-5.097961888882e-06 7.391609738888e-03 0.0 
0.0 0.0 -1.105708206284e-03 
-3.854345613970e-04 8.443027839789e-06 0.0 
8.443027839789e-06 2.371646984252e-03 0.0 
0.0 0.0 -3.852871208612e-04 
-3.201910169613e-04 4.758000015150e-06 0.0 
4.758000015150e-06 1.911169802832e-03 0.0 
0.0 0.0 -3.193625892355e-04 
-1.092402492624e-03 -1.167819157839e-06 0.0 
-1.167819157839e-06 7.309660398486e-03 0.0 
0.0 0.0 -1.093300181677e-03 
-9.522712570359e-04 -2.708707743087e-07 0.0 
-2.708707743087e-07 6.324723503682e-03 0.0 
0.0 0.0 -9.522822042369e-04 
-9.318364452749e-04 -3.558001127055e-06 0.0 
-3.558001127055e-06 6.182417451607e-03 0.0 
0.0 0.0 -9.319735432435e-04 
-9.592391997822e-04 -2.458009781570e-06 0.0 
-2.458009781570e-06 6.375907434676e-03 0.0 
0.0 0.0 -9.598347391831e-04 
-9.950739296231e-04 -4.572796618561e-06 0.0 
-4.572796618561e-06 6.625947379230e-03 0.0 
0.0 0.0 -9.957130113267e-04 
-1.022389104434e-03 -1.719325875493e-06 0.0 
-1.719325875493e-06 6.820013246431e-03 0.0 
0.0 0.0 -1.023751803962e-03 
-1.059370439720e-03 -5.405362556181e-06 0.0 
-5.405362556181e-06 7.072199763534e-03 0.0 
0.0 0.0 -1.059873349132e-03 
-1.087678763415e-03 -2.923161999976e-06 0.0 
-2.923161999976e-06 7.265128234670e-03 0.0 
0.0 0.0 -1.087854580038e-03 
-1.051303081443e-03 5.171402569037e-07 0.0 
5.171402569037e-07 7.018896459243e-03 0.0 
0.0 0.0 -1.051791170495e-03 
-1.103769166382e-03 7.691851827817e-06 0.0 
7.691851827817e-06 7.404894528321e-03 0.0 
0.0 0.0 -1.107463318235e-03 
-1.117712624745e-03 -3.586966882227e-06 0.0 
-3.586966882227e-06 7.467456065744e-03 0.0 
0.0 0.0 -1.115916943430e-03 
-9.389683298366e-04 8.173508751319e-06 0.0 
8.173508751319e-06 6.277342985551e-03 0.0 
0.0 0.0 -9.487150400336e-04 
-9.410739694122e-04 -1.111791304632e-06 0.0 
-1.111791304632e-06 6.241243045591e-03 0.0 
0.0 0.0 -9.398448712237e-04 
-4.457204000866e-04 5.557813324707e-06 0.0 
5.557813324707e-06 2.807268937135e-03 0.0 
0.0 0.0 -4.474652294669e-04 
-2.787239558753e-04 -1.594210911560e-05 0.0 
-1.594210911560e-05 1.590980471387e-03 0.0 
0.0 0.0 -2.752498982733e-04 
-2.801629165478e-04 1.388173637085e-07 0.0 
1.388173637085e-07 1.614413284500e-03 0.0 
0.0 0.0 -2.770275614452e-04 
-3.257086370933e-04 6.463444473936e-06 0.0 
6.463444473936e-06 1.982032803988e-03 0.0 
0.0 0.0 -3.299748606085e-04 
-3.924316838371e-04 3.341960258316e-06 0.0 
3.341960258316e-06 2.447443434601e-03 0.0 
0.0 0.0 -3.961554456411e-04 
-1.134349550786e-03 -1.652632845499e-06 0.0 
-1.652632845499e-06 7.607275251226e-03 0.0 
0.0 0.0 -1.136360603439e-03 
-1.125800754315e-03 -5.253853129318e-06 0.0 
-5.253853129318e-06 7.520991050392e-03 0.0 
0.0 0.0 -1.124065295910e-03 
-1.096791908378e-03 -5.220402544509e-06 0.0 
-5.220402544509e-06 7.320289406061e-03 0.0 
0.0 0.0 -1.095615423988e-03 
-5.557080703907e-04 2.060507655015e-05 0.0 
2.060507655015e-05 3.553838567094e-03 0.0 
0.0 0.0 -5.539799138139e-04 
-5.938414920039e-04 6.065843658319e-06 0.0 
6.065843658319e-06 3.806784454423e-03 0.0 
0.0 0.0 -5.905304635153e-04 
-1.132061157024e-03 2.994999273335e-06 0.0 
2.994999273335e-06 7.609332849678e-03 0.0 
0.0 0.0 -1.136278651916e-03 
-9.052603845710e-04 -1.496793008782e-06 0.0 
-1.496793008782e-06 6.089428360264e-03 0.0 
0.0 0.0 -9.177848451843e-04 
-9.302886435712e-04 -1.143901140706e-06 0.0 
-1.143901140706e-06 6.175006027383e-03 0.0 
0.0 0.0 -9.302130594432e-04 
-8.986318941469e-04 1.808913455713e-06 0.0 
1.808913455713e-06 5.958837749668e-03 0.0 
0.0 0.0 -9.001900590098e-04 
-2.448154097378e-04 -1.421673720988e-05 0.0 
-1.421673720988e-05 1.469020257813e-03 0.0 
0.0 0.0 -2.595221258752e-04 
-2.425141975508e-04 4.798340757522e-06 0.0 
4.798340757522e-06 1.427444744679e-03 0.0 
0.0 0.0 -2.525597767350e-04 
-1.129866785975e-03 -6.589135683467e-06 0.0 
-6.589135683467e-06 7.556758245339e-03 0.0 
0.0 0.0 -1.128363834889e-03 
-4.625030533362e-04 2.152653740952e-06 0.0 
2.152653740952e-06 2.905591162520e-03 0.0 
0.0 0.0 -4.615872697407e-04 
-4.348533942840e-04 3.201452625993e-06 0.0 
3.201452625993e-06 2.712395630356e-03 0.0 
0.0 0.0 -4.342639779644e-04 
-2.556862254963e-04 9.465200077415e-06 0.0 
9.465200077415e-06 1.446637132956e-03 0.0 
0.0 0.0 -2.508181872060e-04 
-2.123142658658e-04 2.153637717968e-06 0.0 
2.153637717968e-06 1.175585796085e-03 0.0 
0.0 0.0 -2.143868084631e-04 
-1.042731456099e-03 1.901936730490e-05 0.0 
1.901936730490e-05 6.995442815012e-03 0.0 
0.0 0.0 -1.051814883004e-03 
-1.110984337992e-03 1.360393105757e-05 0.0 
1.360393105757e-05 7.468547826848e-03 0.0 
0.0 0.0 -1.117859435171e-03 
-7.312716402703e-04 -2.190675999985e-06 0.0 
-2.190675999985e-06 4.814374156657e-03 0.0 
0.0 0.0 -7.356929296387e-04 
-7.645892286358e-04 -1.102166449944e-05 0.0 
-1.102166449944e-05 5.018862629850e-03 0.0 
0.0 0.0 -7.648299719236e-04 
-1.105578814045e-03 -4.864618337799e-06 0.0 
-4.864618337799e-06 7.407304501986e-03 0.0 
0.0 0.0 -1.107558395918e-03 
-3.066920262704e-04 -9.941053824371e-07 0.0 
-9.941053824371e-07 1.825477502809e-03 0.0 
0.0 0.0 -3.060794667268e-04 
-1.146252104278e-03 9.473611415339e-07 0.0 
9.473611415339e-07 7.693660702169e-03 0.0 
0.0 0.0 -1.149181664990e-03 
-9.819770468004e-04 3.151631864524e-06 0.0 
3.151631864524e-06 6.525650668115e-03 0.0 
0.0 0.0 -9.807908033776e-04 
-9.159380280943e-04 1.195442860158e-06 0.0 
1.195442860158e-06 6.068082639928e-03 0.0 
0.0 0.0 -9.152404036620e-04 
-6.511413906153e-04 1.424536279066e-05 0.0 
1.424536279066e-05 4.294241389317e-03 0.0 
0.0 0.0 -6.604623333687e-04 
-3.374810340453e-04 6.844433927075e-06 0.0 
6.844433927075e-06 2.031763814607e-03 0.0 
0.0 0.0 -3.366432492119e-04 
-3.027001806186e-04 4.554754580680e-06 0.0 
4.554754580680e-06 1.781580953442e-03 0.0 
0.0 0.0 -3.009099309908e-04 
-4.837618896288e-04 7.408810593364e-06 0.0 
7.408810593364e-06 3.065907824055e-03 0.0 
0.0 0.0 -4.845585894574e-04 
-3.706525314116e-04 2.979043878536e-06 0.0 
2.979043878536e-06 2.283251894813e-03 0.0 
0.0 0.0 -3.723415964733e-04 
-3.535775650443e-04 1.642795960159e-06 0.0 
1.642795960159e-06 2.183712345689e-03 0.0 
0.0 0.0 -3.583452993329e-04 
-1.171956394673e-03 7.296733533155e-06 0.0 
7.296733533155e-06 7.865937936914e-03 0.0 
0.0 0.0 -1.173829981771e-03 
-1.155496536768e-03 -7.585900876937e-06 0.0 
-7.585900876937e-06 7.757441294242e-03 0.0 
0.0 0.0 -1.157575248917e-03 
-1.081331483118e-03 -1.018192650105e-05 0.0 
-1.018192650105e-05 7.219793718708e-03 0.0 
0.0 0.0 -1.080172819833e-03 
-1.016976595983e-03 3.080934608949e-08 0.0 
3.080934608949e-08 6.767850029250e-03 0.0 
0.0 0.0 -1.015677837919e-03 
-1.139278177336e-03 -7.940019038880e-06 0.0 
-7.940019038880e-06 7.665797132760e-03 0.0 
0.0 0.0 -1.144955025780e-03 
-2.327287223155e-04 -5.619721676057e-06 0.0 
-5.619721676057e-06 1.369838176642e-03 0.0 
0.0 0.0 -2.399185640008e-04 
-1.167065302037e-03 -2.167295117523e-06 0.0 
-2.167295117523e-06 7.816099518397e-03 0.0 
0.0 0.0 -1.165794428787e-03 
-1.057599608467e-03 -1.462585030790e-06 0.0 
-1.462585030790e-06 7.053925433098e-03 0.0 
0.0 0.0 -1.056136825731e-03 
-1.166821884924e-03 8.580756338020e-06 0.0 
8.580756338020e-06 7.754116842770e-03 0.0 
0.0 0.0 -1.157598467365e-03 
-1.133408506306e-03 -8.435792570661e-07 0.0 
-8.435792570661e-07 7.569033753462e-03 0.0 
0.0 0.0 -1.131219827106e-03 
-4.984456519411e-04 4.300557589802e-06 0.0 
4.300557589802e-06 3.150357815837e-03 0.0 
0.0 0.0 -4.968499830348e-04 
-4.727344614058e-04 -4.063132868483e-06 0.0 
-4.063132868483e-06 2.963684111716e-03 0.0 
0.0 0.0 -4.705806478706e-04 
-4.091383170965e-04 2.862069894870e-06 0.0 
2.862069894870e-06 2.529363987017e-03 0.0 
0.0 0.0 -4.078257031896e-04 
-4.471058786427e-04 1.072951437622e-05 0.0 
1.072951437622e-05 2.788633828474e-03 0.0 
0.0 0.0 -4.438024830152e-04 
-8.440631779025e-04 -4.493147098221e-06 0.0 
-4.493147098221e-06 5.518369027804e-03 0.0 
0.0 0.0 -8.361670615231e-04 
-5.357092529258e-04 -9.292843076396e-07 0.0 
-9.292843076396e-07 3.402933662769e-03 0.0 
0.0 0.0 -5.333915535664e-04 
-7.972227851670e-04 -9.360487059460e-07 0.0 
-9.360487059460e-07 5.222669072684e-03 0.0 
0.0 0.0 -7.939299641313e-04 
-7.702508874020e-04 -1.538210288726e-06 0.0 
-1.538210288726e-06 5.031866795854e-03 0.0 
0.0 0.0 -7.665196690739e-04 
-7.355056886190e-04 7.347932432809e-07 0.0 
7.347932432809e-07 4.791036993934e-03 0.0 
0.0 0.0 -7.319524942586e-04 
-6.561872916337e-04 1.268419360751e-06 0.0 
1.268419360751e-06 4.239606973166e-03 0.0 
0.0 0.0 -6.527873785750e-04 
-6.291613184761e-04 -1.439650198993e-06 0.0 
-1.439650198993e-06 4.053875822961e-03 0.0 
0.0 0.0 -6.261871041946e-04 
-5.548406946331e-04 -1.134560045706e-06 0.0 
-1.134560045706e-06 3.546628030902e-03 0.0 
0.0 0.0 -5.534964465553e-04 
-8.399940984114e-04 -3.577201231008e-06 0.0 
-3.577201231008e-06 5.537581821643e-03 0.0 
0.0 0.0 -8.390310526140e-04 
-7.058409553932e-04 5.047899969827e-07 0.0 
5.047899969827e-07 4.614117323526e-03 0.0 
0.0 0.0 -7.069621042110e-04 
-8.747594299032e-04 -2.558061717916e-06 0.0 
-2.558061717916e-06 5.788017369400e-03 0.0 
0.0 0.0 -8.751042800696e-04 
-8.345970192924e-04 7.968047685425e-07 0.0 
7.968047685425e-07 5.508873449258e-03 0.0 
0.0 0.0 -8.350146568664e-04 
-1.135366159085e-03 -3.784163045625e-06 0.0 
-3.784163045625e-06 7.595187475630e-03 0.0 
0.0 0.0 -1.135109731873e-03 
-1.173430748718e-03 -9.063019793229e-06 0.0 
-9.063019793229e-06 7.855172062360e-03 0.0 
0.0 0.0 -1.171938512032e-03 
-9.103494794308e-04 9.134385712317e-06 0.0 
9.134385712317e-06 6.008446285683e-03 0.0 
0.0 0.0 -9.065739516476e-04 
-8.719468559850e-04 9.049287930877e-07 0.0 
9.049287930877e-07 5.790867004059e-03 0.0 
0.0 0.0 -8.764137937918e-04 
-2.822142401262e-04 -1.729015805274e-06 0.0 
-1.729015805274e-06 1.647043850495e-03 0.0 
0.0 0.0 -2.813159824896e-04 
-2.590672524343e-04 7.758668078462e-06 0.0 
7.758668078462e-06 1.453070456664e-03 0.0 
0.0 0.0 -2.532569443854e-04 
-7.885436432884e-04 5.287197585391e-07 0.0 
5.287197585391e-07 5.190389624089e-03 0.0 
0.0 0.0 -7.894497706086e-04 
-1.129157536929e-03 4.394584270014e-06 0.0 
4.394584270014e-06 7.545263270116e-03 0.0 
0.0 0.0 -1.127529358476e-03 
-1.150499129859e-03 -1.601096256567e-07 0.0 
-1.601096256567e-07 7.703368893988e-03 0.0 
0.0 0.0 -1.150095860580e-03 
-1.180515255213e-03 -2.827683268668e-06 0.0 
-2.827683268668e-06 7.908952217123e-03 0.0 
0.0 0.0 -1.179372829571e-03 
-1.142938913333e-03 -3.318694813183e-06 0.0 
-3.318694813183e-06 7.657003561438e-03 0.0 
0.0 0.0 -1.143369325256e-03 
-1.140111309187e-03 8.981293941600e-07 0.0 
8.981293941600e-07 7.659653688633e-03 0.0 
0.0 0.0 -1.144273392007e-03 
-5.742583376343e-04 1.322470559691e-07 0.0 
1.322470559691e-07 3.685291735877e-03 0.0 
0.0 0.0 -5.733740095480e-04 
-8.593234151620e-04 -2.874076437017e-06 0.0 
-2.874076437017e-06 5.675695790787e-03 0.0 
0.0 0.0 -8.590966742019e-04 
-2.435677437140e-04 -1.068446741351e-05 0.0 
-1.068446741351e-05 1.382271228051e-03 0.0 
0.0 0.0 -2.423215009416e-04 
-8.888171571715e-04 7.702896637559e-07 0.0 
7.702896637559e-07 5.879388839658e-03 0.0 
0.0 0.0 -8.884627649733e-04 
-2.162237035633e-04 -3.672272412215e-06 0.0 
-3.672272412215e-06 1.184819371308e-03 0.0 
0.0 0.0 -2.162536877156e-04 
-1.014212058360e-03 -1.424401912226e-06 0.0 
-1.424401912226e-06 6.732806316095e-03 0.0 
0.0 0.0 -1.010319580236e-03 
-1.121146682577e-03 5.393536552768e-07 0.0 
5.393536552768e-07 7.512550218556e-03 0.0 
0.0 0.0 -1.122815839103e-03 
-1.157064342210e-03 3.278319431589e-08 0.0 
3.278319431589e-08 7.769042756358e-03 0.0 
0.0 0.0 -1.159213750608e-03 
-1.166424981014e-03 1.813592645850e-06 0.0 
1.813592645850e-06 7.856112587899e-03 0.0 
0.0 0.0 -1.171959308352e-03 
-7.504080630279e-04 1.142017006419e-05 0.0 
1.142017006419e-05 4.900584458038e-03 0.0 
0.0 0.0 -7.470952864203e-04 
-9.172347539121e-04 2.804117413079e-06 0.0 
2.804117413079e-06 6.075069916316e-03 0.0 
0.0 0.0 -9.162722660995e-04 
-8.822868772852e-04 1.786082975063e-06 0.0 
1.786082975063e-06 5.828052429250e-03 0.0 
0.0 0.0 -8.808726170640e-04 
-7.075025449256e-04 3.734403441955e-06 0.0 
3.734403441955e-06 4.602949033639e-03 0.0 
0.0 0.0 -7.048691535495e-04 
-6.736902723486e-04 3.915004124879e-06 0.0 
3.915004124879e-06 4.364959797177e-03 0.0 
0.0 0.0 -6.707530558731e-04 
-7.003926698376e-04 3.499859416378e-06 0.0 
3.499859416378e-06 4.548937086678e-03 0.0 
0.0 0.0 -6.972958566626e-04 
-6.396081130526e-04 3.801189656251e-06 0.0 
3.801189656251e-06 4.126284090508e-03 0.0 
0.0 0.0 -6.359606378414e-04 
-5.113814833482e-04 4.985013341250e-06 0.0 
4.985013341250e-06 3.258506878652e-03 0.0 
0.0 0.0 -5.122594947013e-04 
-4.735906672379e-04 3.101741148840e-06 0.0 
3.101741148840e-06 2.998270021668e-03 0.0 
0.0 0.0 -4.750188804659e-04 
-1.196527535369e-03 2.030860363359e-06 0.0 
2.030860363359e-06 8.017120294099e-03 0.0 
0.0 0.0 -1.192042136895e-03 
-1.179471908673e-03 2.186350744697e-05 0.0 
2.186350744697e-05 7.917990259976e-03 0.0 
0.0 0.0 -1.178660172201e-03 
-1.197525366512e-03 -5.361254675002e-06 0.0 
-5.361254675002e-06 8.017772106938e-03 0.0 
0.0 0.0 -1.193029175878e-03 
-1.157007599871e-03 -4.254495392830e-07 0.0 
-4.254495392830e-07 7.831852404544e-03 0.0 
0.0 0.0 -1.168165168231e-03 
-1.184219832489e-03 -2.995135238667e-06 0.0 
-2.995135238667e-06 8.054139615854e-03 0.0 
0.0 0.0 -1.200910491468e-03 
-1.156433585434e-03 -1.143666503542e-06 0.0 
-1.143666503542e-06 7.807020133364e-03 0.0 
0.0 0.0 -1.164168769488e-03 
-4.264796299705e-04 -5.762809161324e-06 0.0 
-5.762809161324e-06 2.638842137297e-03 0.0 
0.0 0.0 -4.227350873389e-04 
-5.681760473818e-04 2.318592575023e-06 0.0 
2.318592575023e-06 3.626581176623e-03 0.0 
0.0 0.0 -5.646260317871e-04 
-1.184636686047e-03 -1.016095806196e-05 0.0 
-1.016095806196e-05 8.009054334469e-03 0.0 
0.0 0.0 -1.194151889699e-03 
-7.414862310133e-04 3.192804147293e-06 0.0 
3.192804147293e-06 4.838396811126e-03 0.0 
0.0 0.0 -7.390869131010e-04 
-1.198370689590e-03 -4.208230376702e-06 0.0 
-4.208230376702e-06 8.000236790466e-03 0.0 
0.0 0.0 -1.192835421428e-03 
-1.157965586969e-03 3.621187988871e-06 0.0 
3.621187988871e-06 7.751872966735e-03 0.0 
0.0 0.0 -1.156047193884e-03 
-1.679677723563e-04 -6.471467775008e-06 0.0 
-6.471467775008e-06 9.157850137993e-04 0.0 
0.0 0.0 -1.776502893165e-04 
-2.010012491603e-04 -2.186198543596e-05 0.0 
-2.186198543596e-05 1.109886420371e-03 0.0 
0.0 0.0 -2.034953494974e-04 
-1.179928424182e-03 1.756406795450e-06 0.0 
1.756406795450e-06 7.951460578279e-03 0.0 
0.0 0.0 -1.184588873336e-03 
-3.838885301584e-04 -2.308315346311e-07 0.0 
-2.308315346311e-07 2.344842445821e-03 0.0 
0.0 0.0 -3.811925308841e-04 
-4.219559892700e-04 7.989363516707e-06 0.0 
7.989363516707e-06 2.586701229719e-03 0.0 
0.0 0.0 -4.158690271831e-04 
-3.474814854535e-04 -1.898705035342e-06 0.0 
-1.898705035342e-06 2.092244309525e-03 0.0 
0.0 0.0 -3.459699425273e-04 
-1.258412294817e-03 4.723230244906e-06 0.0 
4.723230244906e-06 8.451854294521e-03 0.0 
0.0 0.0 -1.258310293365e-03 
-7.484881504012e-04 -2.960864060537e-06 0.0 
-2.960864060537e-06 4.893199602045e-03 0.0 
0.0 0.0 -7.479256703001e-04 
-1.180456674817e-03 2.203572108480e-06 0.0 
2.203572108480e-06 7.969948982011e-03 0.0 
0.0 0.0 -1.189418985649e-03 
-6.915459890032e-04 2.639723401819e-07 0.0 
2.639723401819e-07 4.488659587492e-03 0.0 
0.0 0.0 -6.884682336192e-04 
-1.207477073685e-03 3.654066082090e-06 0.0 
3.654066082090e-06 8.169097270233e-03 0.0 
0.0 0.0 -1.216510697198e-03 
-9.459891485395e-04 2.183343284727e-06 0.0 
2.183343284727e-06 6.276634781059e-03 0.0 
0.0 0.0 -9.449116413281e-04 
-6.354655665352e-04 7.994205054170e-06 0.0 
7.994205054170e-06 4.117898953292e-03 0.0 
0.0 0.0 -6.353966017694e-04 
-1.078683645923e-03 -8.754256551620e-06 0.0 
-8.754256551620e-06 7.202760317134e-03 0.0 
0.0 0.0 -1.078177493492e-03 
-1.141578224774e-03 -1.678015124370e-05 0.0 
-1.678015124370e-05 7.703318796330e-03 0.0 
0.0 0.0 -1.149140729088e-03 
-1.226390364052e-03 1.281801736300e-05 0.0 
1.281801736300e-05 8.221773688785e-03 0.0 
0.0 0.0 -1.221625961084e-03 
-8.548571335586e-04 9.585095622205e-06 0.0 
9.585095622205e-06 5.710330831809e-03 0.0 
0.0 0.0 -8.638707813346e-04 
-8.315226367926e-04 -1.796676276349e-05 0.0 
-1.796676276349e-05 5.471080815741e-03 0.0 
0.0 0.0 -8.327709333130e-04 
-8.913153694948e-04 3.187001622894e-06 0.0 
3.187001622894e-06 5.908304703834e-03 0.0 
0.0 0.0 -8.925140200429e-04 
-2.901697666163e-04 2.957652242807e-06 0.0 
2.957652242807e-06 1.700907778148e-03 0.0 
0.0 0.0 -2.887053311254e-04 
-2.259876589125e-04 -1.628476741887e-06 0.0 
-1.628476741887e-06 1.207242233754e-03 0.0 
0.0 0.0 -2.186270541161e-04 
-1.144042553285e-03 -3.972510573065e-06 0.0 
-3.972510573065e-06 7.644643748638e-03 0.0 
0.0 0.0 -1.142090266074e-03 
-5.015691225624e-04 -4.004972649539e-06 0.0 
-4.004972649539e-06 3.172327891301e-03 0.0 
0.0 0.0 -5.006138788623e-04 
-5.490396028458e-04 1.473261204918e-05 0.0 
1.473261204918e-05 3.431798845594e-03 0.0 
0.0 0.0 -5.359218444892e-04 
-3.334097721275e-04 4.182676571345e-07 0.0 
4.182676571345e-07 2.008435002854e-03 0.0 
0.0 0.0 -3.328711069468e-04 
-3.967994371980e-04 3.163349435490e-06 0.0 
3.163349435490e-06 2.463726324997e-03 0.0 
0.0 0.0 -3.985542937016e-04 
-7.704918098593e-04 -2.506920415004e-06 0.0 
-2.506920415004e-06 5.073323433467e-03 0.0 
0.0 0.0 -7.728092966600e-04 
-7.429755971663e-04 -1.604665723007e-06 0.0 
-1.604665723007e-06 4.873825415622e-03 0.0 
0.0 0.0 -7.441750962829e-04 
-1.041105417575e-03 -3.532804275431e-06 0.0 
-3.532804275431e-06 6.930458439110e-03 0.0 
0.0 0.0 -1.038692069610e-03 
-1.077691050121e-03 5.915919111295e-07 0.0 
5.915919111295e-07 7.178307862229e-03 0.0 
0.0 0.0 -1.074129358999e-03 
-9.680145315127e-04 -4.800744221103e-06 0.0 
-4.800744221103e-06 6.431374472253e-03 0.0 
0.0 0.0 -9.675620497173e-04 
-9.449072701309e-04 5.755247328017e-07 0.0 
5.755247328017e-07 6.268683015175e-03 0.0 
0.0 0.0 -9.439558448496e-04 
-8.793469056983e-04 2.651871179733e-07 0.0 
2.651871179733e-07 5.812169911194e-03 0.0 
0.0 0.0 -8.783802297791e-04 
-8.506353188412e-04 -1.205932606195e-06 0.0 
-1.205932606195e-06 5.614865789540e-03 0.0 
0.0 0.0 -8.502765121186e-04 
-1.205371287344e-03 -1.017172525851e-05 0.0 
-1.017172525851e-05 8.044519540676e-03 0.0 
0.0 0.0 -1.199867006878e-03 
-1.246871842620e-03 -1.782584577396e-06 0.0 
-1.782584577396e-06 8.370823131876e-03 0.0 
0.0 0.0 -1.242728214876e-03 
-5.491066158242e-04 3.796504913795e-06 0.0 
3.796504913795e-06 3.515286504074e-03 0.0 
0.0 0.0 -5.488632449009e-04 
-5.218883337208e-04 5.205294616476e-06 0.0 
5.205294616476e-06 3.322312941731e-03 0.0 
0.0 0.0 -5.212126360957e-04 
-5.377854580404e-04 4.143852354807e-06 0.0 
4.143852354807e-06 3.445251353484e-03 0.0 
0.0 0.0 -5.390128571062e-04 
-1.214529256448e-03 -6.301616693017e-06 0.0 
-6.301616693017e-06 8.215301645721e-03 0.0 
0.0 0.0 -1.223056365294e-03 
-1.220614911318e-03 1.691106897417e-05 0.0 
1.691106897417e-05 8.234319209605e-03 0.0 
0.0 0.0 -1.224004481682e-03 
-1.202636442924e-03 -1.450484537668e-05 0.0 
-1.450484537668e-05 8.019827799738e-03 0.0 
0.0 0.0 -1.195820777905e-03 
-1.923031463658e-04 -1.299529721394e-05 0.0 
-1.299529721394e-05 1.005842812599e-03 0.0 
0.0 0.0 -1.880780275778e-04 
-2.380587333974e-04 -7.138126159431e-06 0.0 
-7.138126159431e-06 1.256954979671e-03 0.0 
0.0 0.0 -2.247092568812e-04 
-2.809188805545e-04 -7.804988416232e-07 0.0 
-7.804988416232e-07 1.601881524077e-03 0.0 
0.0 0.0 -2.751197234063e-04 
-2.390831316058e-04 -1.697522519497e-05 0.0 
-1.697522519497e-05 1.345355817379e-03 0.0 
0.0 0.0 -2.407125716443e-04 
-1.208745358060e-03 2.226513834324e-07 0.0 
2.226513834324e-07 8.094728759758e-03 0.0 
0.0 0.0 -1.207258722210e-03 
-1.173002429905e-03 -1.580225166771e-08 0.0 
-1.580225166771e-08 7.865013445176e-03 0.0 
0.0 0.0 -1.172631524865e-03 
-1.245587066994e-03 -1.350830728572e-07 0.0 
-1.350830728572e-07 8.403006214559e-03 0.0 
0.0 0.0 -1.247471551777e-03 
-3.784912276641e-04 1.355145565503e-05 0.0 
1.355145565503e-05 2.351827936340e-03 0.0 
0.0 0.0 -3.801539159394e-04 
-1.045351836581e-03 6.057785964150e-06 0.0 
6.057785964150e-06 6.969505785323e-03 0.0 
0.0 0.0 -1.045322365442e-03 
-1.205298536187e-03 1.211257299848e-05 0.0 
1.211257299848e-05 8.100207033565e-03 0.0 
0.0 0.0 -1.207899217314e-03 
-1.178583019777e-03 1.757022163116e-05 0.0 
1.757022163116e-05 7.916687945301e-03 0.0 
0.0 0.0 -1.178012378629e-03 
-1.242442001561e-03 9.743401619654e-06 0.0 
9.743401619654e-06 8.382783963078e-03 0.0 
0.0 0.0 -1.244624083072e-03 
-1.137070212873e-03 -2.028754131548e-06 0.0 
-2.028754131548e-06 7.646903784891e-03 0.0 
0.0 0.0 -1.142102124289e-03 
-1.209034666392e-03 -7.012965144966e-06 0.0 
-7.012965144966e-06 8.081623741308e-03 0.0 
0.0 0.0 -1.205428683694e-03 
-1.206763234680e-03 6.340388102842e-06 0.0 
6.340388102842e-06 8.101632159503e-03 0.0 
0.0 0.0 -1.209323031234e-03 
-1.526588308959e-04 -1.278274148865e-05 0.0 
-1.278274148865e-05 7.096255753314e-04 0.0 
0.0 0.0 -1.515181680101e-04 
-1.197635794990e-03 -1.679642684382e-05 0.0 
-1.679642684382e-05 8.038463106290e-03 0.0 
0.0 0.0 -1.199992767657e-03 
-8.372255126924e-04 -1.581405743943e-06 0.0 
-1.581405743943e-06 5.516497338344e-03 0.0 
0.0 0.0 -8.371571859873e-04 
-1.098991945020e-04 -3.154449405114e-05 0.0 
-3.154449405114e-05 5.330743413542e-04 0.0 
0.0 0.0 -1.134605161963e-04 
-7.981850025034e-04 -4.161080113050e-07 0.0 
-4.161080113050e-07 5.308479178574e-03 0.0 
0.0 0.0 -8.070151920887e-04 
-8.429634412097e-04 -1.709371110710e-06 0.0 
-1.709371110710e-06 5.581100165216e-03 0.0 
0.0 0.0 -8.451615393777e-04 
-7.696584184699e-04 -4.438777502690e-06 0.0 
-4.438777502690e-06 5.046252634616e-03 0.0 
0.0 0.0 -7.748096441827e-04 
-3.107010397172e-04 9.959927229254e-06 0.0 
9.959927229254e-06 1.894638977858e-03 0.0 
0.0 0.0 -3.155299188714e-04 
-8.095068364426e-04 -1.064416675752e-05 0.0 
-1.064416675752e-05 5.359424365734e-03 0.0 
0.0 0.0 -8.174106193842e-04 
-8.516632903957e-04 -1.548663215885e-05 0.0 
-1.548663215885e-05 5.659882039523e-03 0.0 
0.0 0.0 -8.556612431672e-04 
-1.454483653541e-04 3.285604104571e-06 0.0 
3.285604104571e-06 7.139538730243e-04 0.0 
0.0 0.0 -1.421329337195e-04 
-1.249632985061e-03 3.450770483264e-06 0.0 
3.450770483264e-06 8.450128189206e-03 0.0 
0.0 0.0 -1.259301554906e-03 
-1.652376678941e-04 -1.286666981347e-05 0.0 
-1.286666981347e-05 7.455520390208e-04 0.0 
0.0 0.0 -1.556443337539e-04 
-1.771144640534e-04 -1.673852043297e-05 0.0 
-1.673852043297e-05 9.409763732996e-04 0.0 
0.0 0.0 -1.806578101979e-04 
-1.211541890789e-03 1.467961613660e-05 0.0 
1.467961613660e-05 8.216069586299e-03 0.0 
0.0 0.0 -1.221214701962e-03 
-1.182137557378e-03 -1.347893005179e-06 0.0 
-1.347893005179e-06 7.946617508211e-03 0.0 
0.0 0.0 -1.184344882880e-03 
-1.248636598491e-03 -6.710766209712e-06 0.0 
-6.710766209712e-06 8.399111666310e-03 0.0 
0.0 0.0 -1.247726601234e-03 
-1.216304493113e-03 1.376146948645e-05 0.0 
1.376146948645e-05 8.121468603000e-03 0.0 
0.0 0.0 -1.211018817991e-03 
-1.146160367712e-03 -4.978228076882e-06 0.0 
-4.978228076882e-06 7.680298396241e-03 0.0 
0.0 0.0 -1.147066289601e-03 
-1.174333499691e-03 6.447300312304e-06 0.0 
6.447300312304e-06 7.890872304648e-03 0.0 
0.0 0.0 -1.176490610025e-03 
-8.022613359354e-04 -1.465561338708e-05 0.0 
-1.465561338708e-05 5.265642214057e-03 0.0 
0.0 0.0 -7.985989294648e-04 
-1.243628943204e-03 1.764986030872e-05 0.0 
1.764986030872e-05 8.400828657624e-03 0.0 
0.0 0.0 -1.249018369598e-03 
-1.202560827820e-03 4.472912903620e-06 0.0 
4.472912903620e-06 8.095627160272e-03 0.0 
0.0 0.0 -1.207442871744e-03 
-1.280707394095e-03 9.871433926358e-06 0.0 
9.871433926358e-06 8.646120131381e-03 0.0 
0.0 0.0 -1.277927415301e-03 
-6.139046463498e-04 4.062295408135e-06 0.0 
4.062295408135e-06 3.949909662933e-03 0.0 
0.0 0.0 -6.108003466767e-04 
-4.855763441254e-04 3.057596715552e-06 0.0 
3.057596715552e-06 3.031592722143e-03 0.0 
0.0 0.0 -4.789358348571e-04 
-4.592668061051e-04 2.643196690481e-06 0.0 
2.643196690481e-06 2.831145132009e-03 0.0 
0.0 0.0 -4.527251363391e-04 
-3.939664762502e-04 4.015896243424e-05 0.0 
4.015896243424e-05 2.394779108390e-03 0.0 
0.0 0.0 -3.875663759467e-04 
-1.235451159508e-03 5.414867173194e-06 0.0 
5.414867173194e-06 8.338545045283e-03 0.0 
0.0 0.0 -1.240180566941e-03 
-1.197541601819e-03 2.184484790423e-05 0.0 
2.184484790423e-05 8.058909055166e-03 0.0 
0.0 0.0 -1.200590015451e-03 
-1.087867486780e-03 1.085013592512e-06 0.0 
1.085013592512e-06 7.270465583492e-03 0.0 
0.0 0.0 -1.087555896896e-03 
-1.022984886136e-03 4.510930018261e-06 0.0 
4.510930018261e-06 6.802736585016e-03 0.0 
0.0 0.0 -1.020738973070e-03 
-8.163996236660e-04 7.186741062483e-06 0.0 
7.186741062483e-06 5.339991771102e-03 0.0 
0.0 0.0 -8.108182148135e-04 
-8.104965103200e-04 -8.251273631999e-06 0.0 
-8.251273631999e-06 5.308853861974e-03 0.0 
0.0 0.0 -8.077352941366e-04 
-8.720514006204e-04 3.179792081286e-05 0.0 
3.179792081286e-05 5.733381675574e-03 0.0 
0.0 0.0 -8.678526801547e-04 
-8.648510791427e-04 -7.111218047989e-06 0.0 
-7.111218047989e-06 5.661166370703e-03 0.0 
0.0 0.0 -8.609153521579e-04 
-9.263549734801e-04 3.033239231777e-05 0.0 
3.033239231777e-05 6.105443762298e-03 0.0 
0.0 0.0 -9.200517378055e-04 
-9.083479877115e-04 -1.416522287398e-05 0.0 
-1.416522287398e-05 6.036653926986e-03 0.0 
0.0 0.0 -9.108947733944e-04 
-9.698621139042e-04 -2.949214397531e-05 0.0 
-2.949214397531e-05 6.467199866666e-03 0.0 
0.0 0.0 -9.726914458129e-04 
-1.247222366311e-03 2.606056517107e-05 0.0 
2.606056517107e-05 8.375150940582e-03 0.0 
0.0 0.0 -1.245087786853e-03 
-3.186375953883e-04 9.254464651470e-06 0.0 
9.254464651470e-06 1.904578218722e-03 0.0 
0.0 0.0 -3.180830487989e-04 
-6.795655702328e-04 3.950407328816e-06 0.0 
3.950407328816e-06 4.416747400763e-03 0.0 
0.0 0.0 -6.783069842581e-04 
-1.217523867403e-03 -1.107710803929e-05 0.0 
-1.107710803929e-05 8.250220171501e-03 0.0 
0.0 0.0 -1.228261380050e-03 
-1.189954932966e-03 -3.389414248166e-06 0.0 
-3.389414248166e-06 7.976695802146e-03 0.0 
0.0 0.0 -1.187396807988e-03 
-6.030585832721e-04 2.040094254679e-06 0.0 
2.040094254679e-06 3.869813641297e-03 0.0 
0.0 0.0 -6.000944487132e-04 
-5.459736888774e-04 1.094222006423e-05 0.0 
1.094222006423e-05 3.457763009941e-03 0.0 
0.0 0.0 -5.401620014017e-04 
-1.244604975369e-03 1.395843640121e-05 0.0 
1.395843640121e-05 8.345755076324e-03 0.0 
0.0 0.0 -1.238794375355e-03 
-5.618086059147e-04 1.672788938664e-06 0.0 
1.672788938664e-06 3.593027472553e-03 0.0 
0.0 0.0 -5.600314934590e-04 
-1.295241739404e-03 -3.069672707254e-06 0.0 
-3.069672707254e-06 8.734931616820e-03 0.0 
0.0 0.0 -1.295459716840e-03 
-4.726518995245e-05 -5.619949717432e-06 0.0 
-5.619949717432e-06 2.661811301103e-04 0.0 
0.0 0.0 -5.690003420296e-05 
-1.291194022148e-04 1.153791065657e-05 0.0 
1.153791065657e-05 6.783732708890e-04 0.0 
0.0 0.0 -1.353443326634e-04 
-5.978702258073e-04 2.845759188031e-06 0.0 
2.845759188031e-06 3.846572588730e-03 0.0 
0.0 0.0 -5.969207367497e-04 
-6.645061217588e-04 1.210892726749e-06 0.0 
1.210892726749e-06 4.303380572845e-03 0.0 
0.0 0.0 -6.620222007989e-04 
-5.132181813278e-04 9.130074641248e-06 0.0 
9.130074641248e-06 3.278288147999e-03 0.0 
0.0 0.0 -5.157319100482e-04 
-4.860075133993e-04 2.990028342236e-06 0.0 
2.990028342236e-06 3.124396954495e-03 0.0 
0.0 0.0 -4.917183783407e-04 
-1.011317378684e-03 6.487621353872e-07 0.0 
6.487621353872e-07 6.733904614894e-03 0.0 
0.0 0.0 -1.010552660601e-03 
-1.970258742010e-04 -2.540004491936e-06 0.0 
-2.540004491936e-06 1.065332307301e-03 0.0 
0.0 0.0 -1.995083582888e-04 
-3.139166667020e-04 -2.253789274914e-06 0.0 
-2.253789274914e-06 1.850494599455e-03 0.0 
0.0 0.0 -3.106934562087e-04 
-9.732483420248e-04 2.855591412463e-05 0.0 
2.855591412463e-05 6.524849625930e-03 0.0 
0.0 0.0 -9.796923013958e-04 
-2.492954901946e-04 5.421975703593e-07 0.0 
5.421975703593e-07 1.421478567984e-03 0.0 
0.0 0.0 -2.487700610537e-04 
-1.054075874997e-03 3.591188931439e-06 0.0 
3.591188931439e-06 7.044165573929e-03 0.0 
0.0 0.0 -1.055800198362e-03 
-5.906078188001e-04 -3.257939390625e-06 0.0 
-3.257939390625e-06 3.796619652219e-03 0.0 
0.0 0.0 -5.891999696964e-04 
-7.180999395262e-04 1.178684333608e-07 0.0 
1.178684333608e-07 4.675154024113e-03 0.0 
0.0 0.0 -7.153500975001e-04 
-3.728153202836e-04 5.624284337180e-06 0.0 
5.624284337180e-06 2.280349559801e-03 0.0 
0.0 0.0 -3.721998919698e-04 
-5.103591414383e-04 -9.070033727983e-06 0.0 
-9.070033727983e-06 3.229749929793e-03 0.0 
0.0 0.0 -5.080103017801e-04 
-8.695833745558e-04 -3.060324942185e-06 0.0 
-3.060324942185e-06 5.711345853531e-03 0.0 
0.0 0.0 -8.638580894607e-04 
-8.186088136840e-04 -7.130242765400e-06 0.0 
-7.130242765400e-06 5.325410070609e-03 0.0 
0.0 0.0 -8.086477316853e-04 
-7.808475722582e-04 4.208348100152e-06 0.0 
4.208348100152e-06 5.088284712977e-03 0.0 
0.0 0.0 -7.738406155293e-04 
-6.192436331633e-04 -2.766602775214e-06 0.0 
-2.766602775214e-06 3.995359302638e-03 0.0 
0.0 0.0 -6.178822433291e-04 
-5.311490319335e-04 1.040423507353e-05 0.0 
1.040423507353e-05 3.373878795457e-03 0.0 
0.0 0.0 -5.288330985435e-04 
-4.650941372061e-04 3.123945634372e-06 0.0 
3.123945634372e-06 2.898874049441e-03 0.0 
0.0 0.0 -4.617239487405e-04 
-8.245081772930e-04 8.576273435820e-07 0.0 
8.576273435820e-07 5.414129368543e-03 0.0 
0.0 0.0 -8.213029907542e-04 
-1.107776256753e-03 4.822798209686e-06 0.0 
4.822798209686e-06 7.407183480602e-03 0.0 
0.0 0.0 -1.107475121065e-03 
-1.139123580733e-03 8.505935532864e-06 0.0 
8.505935532864e-06 7.608538315330e-03 0.0 
0.0 0.0 -1.136341617999e-03 
-1.199876040135e-03 -5.928463900640e-08 0.0 
-5.928463900640e-08 8.046533922637e-03 0.0 
0.0 0.0 -1.199268560344e-03 
-1.168168474149e-03 4.195650786327e-06 0.0 
4.195650786327e-06 7.812169121329e-03 0.0 
0.0 0.0 -1.164598082371e-03 
-1.102136352719e-03 2.455120919214e-06 0.0 
2.455120919214e-06 7.358887921961e-03 0.0 
0.0 0.0 -1.100413285504e-03 
-1.128466826395e-03 -6.206260029603e-06 0.0 
-6.206260029603e-06 7.555420673368e-03 0.0 
0.0 0.0 -1.129075729544e-03 
-1.196306272628e-03 1.070052804672e-05 0.0 
1.070052804672e-05 8.004295185816e-03 0.0 
0.0 0.0 -1.193594387005e-03 
-1.153224420722e-03 -4.335162695473e-08 0.0 
-4.335162695473e-08 7.767660328472e-03 0.0 
0.0 0.0 -1.159256375294e-03 
-1.235596637609e-03 -1.164422989239e-05 0.0 
-1.164422989239e-05 8.301735673801e-03 0.0 
0.0 0.0 -1.234286862126e-03 
-1.186419994292e-03 -1.475121185167e-05 0.0 
-1.475121185167e-05 7.963391228364e-03 0.0 
0.0 0.0 -1.187309181180e-03 
-1.120005548931e-03 2.940168057844e-06 0.0 
2.940168057844e-06 7.498615446152e-03 0.0 
0.0 0.0 -1.120864512401e-03 
-1.154875778754e-03 1.588860619806e-06 0.0 
1.588860619806e-06 7.686132635796e-03 0.0 
0.0 0.0 -1.147759711419e-03 
-1.213465252650e-03 -6.064802065598e-06 0.0 
-6.064802065598e-06 8.128624196229e-03 0.0 
0.0 0.0 -1.207767947030e-03 
-1.084932373400e-03 -2.016919157365e-06 0.0 
-2.016919157365e-06 7.235951787837e-03 0.0 
0.0 0.0 -1.082593982084e-03 
-1.254330692315e-03 -4.481726023087e-06 0.0 
-4.481726023087e-06 8.484172233715e-03 0.0 
0.0 0.0 -1.264544343569e-03 
-6.624416308103e-04 2.474610527098e-06 0.0 
2.474610527098e-06 4.298662523578e-03 0.0 
0.0 0.0 -6.621140475474e-04 
-1.785384896330e-04 7.817361308899e-06 0.0 
7.817361308899e-06 9.797346640556e-04 0.0 
0.0 0.0 -1.850918921636e-04 
-1.812548087706e-04 3.762529197937e-05 0.0 
3.762529197937e-05 9.321215546565e-04 0.0 
0.0 0.0 -1.767209935827e-04 
-7.539589003549e-04 1.955358916880e-06 0.0 
1.955358916880e-06 4.924010090496e-03 0.0 
0.0 0.0 -7.509174086159e-04 
-1.304930514548e-03 2.715145444477e-06 0.0 
2.715145444477e-06 8.760435441101e-03 0.0 
0.0 0.0 -1.299806302097e-03 
-1.304281806298e-03 1.236291440963e-07 0.0 
1.236291440963e-07 8.779429009152e-03 0.0 
0.0 0.0 -1.301753673823e-03 
-4.909194379315e-04 2.965411161255e-07 0.0 
2.965411161255e-07 3.101621980483e-03 0.0 
0.0 0.0 -4.895692906686e-04 
-1.302172698065e-03 -1.121402078110e-06 0.0 
-1.121402078110e-06 8.776859442822e-03 0.0 
0.0 0.0 -1.303413959896e-03 
-8.069978020621e-04 -2.494686579822e-06 0.0 
-2.494686579822e-06 5.276076784830e-03 0.0 
0.0 0.0 -8.012154088905e-04 
-3.570511327706e-04 3.379375906443e-06 0.0 
3.379375906443e-06 2.154968683645e-03 0.0 
0.0 0.0 -3.530685601169e-04 
-1.302556100553e-03 -9.155318300848e-06 0.0 
-9.155318300848e-06 8.779430224672e-03 0.0 
0.0 0.0 -1.304286792737e-03 
-1.070880273795e-03 7.212077137813e-06 0.0 
7.212077137813e-06 7.154951258216e-03 0.0 
0.0 0.0 -1.071440646998e-03 
-1.034235002280e-03 -1.284962224397e-06 0.0 
-1.284962224397e-06 6.899499474228e-03 0.0 
0.0 0.0 -1.034857077839e-03 
-1.003722632452e-03 2.735580280943e-06 0.0 
2.735580280943e-06 6.699806917378e-03 0.0 
0.0 0.0 -1.006057961993e-03 
-1.300150248326e-03 -1.392366785444e-05 0.0 
-1.392366785444e-05 8.797329976127e-03 0.0 
0.0 0.0 -1.305867370806e-03 
-9.260727886855e-04 3.160967958013e-07 0.0 
3.160967958013e-07 6.120955206479e-03 0.0 
0.0 0.0 -9.232948652302e-04 
-1.306196713142e-03 -8.296229578648e-06 0.0 
-8.296229578648e-06 8.804073325104e-03 0.0 
0.0 0.0 -1.306016332489e-03 
-9.052728605033e-04 -4.849094365265e-06 0.0 
-4.849094365265e-06 5.990555075409e-03 0.0 
0.0 0.0 -9.039903713831e-04 
-8.761060883680e-04 -1.507187481081e-06 0.0 
-1.507187481081e-06 5.787161046779e-03 0.0 
0.0 0.0 -8.747633066757e-04 
-8.116067085345e-04 -5.312091983298e-07 0.0 
-5.312091983298e-07 5.336659872116e-03 0.0 
0.0 0.0 -8.101682821885e-04 
-1.090435695547e-03 -5.471004820641e-06 0.0 
-5.471004820641e-06 7.297274492399e-03 0.0 
0.0 0.0 -1.092245366321e-03 
-1.304752605299e-03 5.119868144754e-06 0.0 
5.119868144754e-06 8.772978853590e-03 0.0 
0.0 0.0 -1.302677999426e-03 
-1.251945645214e-03 -2.706015879737e-06 0.0 
-2.706015879737e-06 8.407016214184e-03 0.0 
0.0 0.0 -1.248400714067e-03 
-1.246920299523e-03 -1.300681603294e-05 0.0 
-1.300681603294e-05 8.402409073512e-03 0.0 
0.0 0.0 -1.248426544684e-03 
-1.200536970879e-03 5.026882822595e-07 0.0 
5.026882822595e-07 8.002917905198e-03 0.0 
0.0 0.0 -1.189114855724e-03 
-1.300430795451e-03 -3.697458702313e-07 0.0 
-3.697458702313e-07 8.777742711435e-03 0.0 
0.0 0.0 -1.303398793257e-03 
-1.305040401458e-03 -2.477912411201e-06 0.0 
-2.477912411201e-06 8.792831145886e-03 0.0 
0.0 0.0 -1.306665994082e-03 
-1.309321026579e-03 -3.535422289667e-06 0.0 
-3.535422289667e-06 8.803291043654e-03 0.0 
0.0 0.0 -1.308500709484e-03 
-4.563282024572e-04 7.998262252154e-06 0.0 
7.998262252154e-06 2.871636865217e-03 0.0 
0.0 0.0 -4.564773689951e-04 
-4.946429183726e-04 2.495592359726e-06 0.0 
2.495592359726e-06 3.130328514227e-03 0.0 
0.0 0.0 -4.934415926888e-04 
-5.584596756046e-04 8.667542273928e-07 0.0 
8.667542273928e-07 3.577137698620e-03 0.0 
0.0 0.0 -5.576035839405e-04 
-5.302623041630e-04 -1.383760276119e-07 0.0 
-1.383760276119e-07 3.381956619872e-03 0.0 
0.0 0.0 -5.298816096007e-04 
-4.659671190879e-04 -4.163529231181e-07 0.0 
-4.163529231181e-07 2.931155601344e-03 0.0 
0.0 0.0 -4.652367627802e-04 
-5.016537237260e-04 2.063261409906e-06 0.0 
2.063261409906e-06 3.184734037305e-03 0.0 
0.0 0.0 -5.016361848483e-04 
-5.661735479294e-04 -1.745642799752e-06 0.0 
-1.745642799752e-06 3.632429034736e-03 0.0 
0.0 0.0 -5.657331850765e-04 
-4.736975024201e-04 4.166873871265e-06 0.0 
4.166873871265e-06 2.986059562016e-03 0.0 
0.0 0.0 -4.731795164401e-04 
-1.136859235010e-03 -3.377117996707e-07 0.0 
-3.377117996707e-07 7.623291641590e-03 0.0 
0.0 0.0 -1.138512926666e-03 
-1.305247072706e-03 8.619226715471e-06 0.0 
8.619226715471e-06 8.792398553622e-03 0.0 
0.0 0.0 -1.305779161548e-03 
-9.003036646772e-04 5.242872870007e-08 0.0 
5.242872870007e-08 5.967493708530e-03 0.0 
0.0 0.0 -9.007942405787e-04 
-8.714438606503e-04 -2.881495110694e-08 0.0 
-2.881495110694e-08 5.762779516703e-03 0.0 
0.0 0.0 -8.713600568839e-04 
-8.060291522058e-04 2.568870967988e-06 0.0 
2.568870967988e-06 5.307363937555e-03 0.0 
0.0 0.0 -8.059887332522e-04 
-6.767854044606e-04 -2.452778344841e-06 0.0 
-2.452778344841e-06 4.414816973838e-03 0.0 
0.0 0.0 -6.781883600425e-04 
-7.139648610370e-04 -1.142183076152e-06 0.0 
-1.142183076152e-06 4.673969170683e-03 0.0 
0.0 0.0 -7.153987595530e-04 
-7.802120795526e-04 -1.536270118856e-06 0.0 
-1.536270118856e-06 5.133033430624e-03 0.0 
0.0 0.0 -7.812419408864e-04 
-6.404629301343e-04 -4.612028746757e-06 0.0 
-4.612028746757e-06 4.156213633446e-03 0.0 
0.0 0.0 -6.407943132712e-04 
-9.874131908799e-04 -6.712457213196e-07 0.0 
-6.712457213196e-07 6.570776206516e-03 0.0 
0.0 0.0 -9.876394229526e-04 
-1.303361853095e-03 -8.460317239557e-06 0.0 
-8.460317239557e-06 8.788997264875e-03 0.0 
0.0 0.0 -1.305003056577e-03 
-8.872565026320e-04 -1.178797543715e-06 0.0 
-1.178797543715e-06 5.871190587017e-03 0.0 
0.0 0.0 -8.871663004355e-04 
-6.846436599198e-04 7.853769409058e-07 0.0 
7.853769409058e-07 4.472455721995e-03 0.0 
0.0 0.0 -6.865966444657e-04 
-7.539028914794e-04 -4.959050989062e-06 0.0 
-4.959050989062e-06 4.922681506756e-03 0.0 
0.0 0.0 -7.516786372745e-04 
-8.065421024267e-04 1.420005202742e-05 0.0 
1.420005202742e-05 5.322326400601e-03 0.0 
0.0 0.0 -8.094822736869e-04 
-8.086043951130e-04 -1.965516725377e-05 0.0 
-1.965516725377e-05 5.337498560082e-03 0.0 
0.0 0.0 -8.097394517040e-04 
-8.597670883848e-04 -1.890965562489e-05 0.0 
-1.890965562489e-05 5.752558822544e-03 0.0 
0.0 0.0 -8.733121467894e-04 
-8.092120706638e-04 -2.844643670805e-05 0.0 
-2.844643670805e-05 5.361887279047e-03 0.0 
0.0 0.0 -8.155917408702e-04 
-8.008122296240e-04 -3.960466263523e-06 0.0 
-3.960466263523e-06 5.274822743462e-03 0.0 
0.0 0.0 -8.015266587451e-04 
-8.309313177437e-04 -3.374628280082e-06 0.0 
-3.374628280082e-06 5.475720121039e-03 0.0 
0.0 0.0 -8.302790088839e-04 
-7.940624788884e-04 8.919203165315e-07 0.0 
8.919203165315e-07 5.224020544311e-03 0.0 
0.0 0.0 -7.937858958383e-04 
-8.582675862213e-04 -3.216784494421e-06 0.0 
-3.216784494421e-06 5.673950666655e-03 0.0 
0.0 0.0 -8.590670690980e-04 
-8.174868470622e-04 -1.134099850246e-05 0.0 
-1.134099850246e-05 5.408679153658e-03 0.0 
0.0 0.0 -8.213578559547e-04 
-7.534944197864e-04 -1.238974191231e-05 0.0 
-1.238974191231e-05 4.986891128186e-03 0.0 
0.0 0.0 -7.608744282309e-04 
-8.810221771506e-04 -8.901330273947e-06 0.0 
-8.901330273947e-06 5.862708610279e-03 0.0 
0.0 0.0 -8.866101721103e-04 
-8.418977428013e-04 7.461726785164e-06 0.0 
7.461726785164e-06 5.581554122099e-03 0.0 
0.0 0.0 -8.437388122980e-04 
-7.467365547974e-04 -1.323074519901e-05 0.0 
-1.323074519901e-05 4.916042254111e-03 0.0 
0.0 0.0 -7.509531518293e-04 
-6.281984343026e-05 -8.116789961943e-06 0.0 
-8.116789961943e-06 3.039228182762e-04 0.0 
0.0 0.0 -5.875963060191e-05 
-1.355333239518e-04 1.033404854003e-05 0.0 
1.033404854003e-05 6.720001517331e-04 0.0 
0.0 0.0 -1.336704791874e-04 
-1.282422711095e-04 -8.546555161067e-06 0.0 
-8.546555161067e-06 6.602474725937e-04 0.0 
0.0 0.0 -1.318084371690e-04 
-1.928083139697e-04 -4.221005670837e-06 0.0 
-4.221005670837e-06 1.041957248050e-03 0.0 
0.0 0.0 -1.954650243430e-04 
-2.029746956204e-04 1.944205005130e-05 0.0 
1.944205005130e-05 1.074330231207e-03 0.0 
0.0 0.0 -1.996745964068e-04 
-2.516532851574e-04 2.529704688886e-06 0.0 
2.529704688886e-06 1.468491691138e-03 0.0 
0.0 0.0 -2.586654344069e-04 
-2.430663838691e-04 -2.535368885226e-05 0.0 
-2.535368885226e-05 1.426461466079e-03 0.0 
0.0 0.0 -2.494736616194e-04 
-1.355920943443e-04 -1.133959606150e-05 0.0 
-1.133959606150e-05 6.743890404386e-04 0.0 
0.0 0.0 -1.329747880817e-04 
-5.916993316141e-05 -2.320129164536e-06 0.0 
-2.320129164536e-06 2.981065881978e-04 0.0 
0.0 0.0 -5.794854899121e-05 
-1.308876834568e-04 2.474427721016e-06 0.0 
2.474427721016e-06 6.544145800914e-04 0.0 
0.0 0.0 -1.315689628225e-04 
-5.700489183938e-05 1.676517162928e-06 0.0 
1.676517162928e-06 2.920832994483e-04 0.0 
0.0 0.0 -5.719792189481e-05 
-1.267870388795e-04 3.184293720069e-07 0.0 
3.184293720069e-07 6.426508649646e-04 0.0 
0.0 0.0 -1.299421249981e-04 
-1.994525793345e-04 4.316150581252e-06 0.0 
4.316150581252e-06 1.086316860704e-03 0.0 
0.0 0.0 -2.038865569970e-04 
-2.958463202672e-04 -2.325840136606e-07 0.0 
-2.325840136606e-07 1.726726422813e-03 0.0 
0.0 0.0 -2.925150634556e-04 
-1.301927001702e-03 1.803371535174e-05 0.0 
1.803371535174e-05 8.724914391627e-03 0.0 
0.0 0.0 -1.294874803588e-03 
-6.623633125060e-04 4.679424212514e-06 0.0 
4.679424212514e-06 4.281040174428e-03 0.0 
0.0 0.0 -6.595503360071e-04 
-6.354861751499e-04 1.876466608724e-05 0.0 
1.876466608724e-05 4.076331016795e-03 0.0 
0.0 0.0 -6.264797819744e-04 
-5.600446600075e-04 1.786449294601e-05 0.0 
1.786449294601e-05 3.606391450714e-03 0.0 
0.0 0.0 -5.641716646261e-04 
-6.018396249448e-04 -5.225124560804e-06 0.0 
-5.225124560804e-06 3.865969919155e-03 0.0 
0.0 0.0 -5.974662984275e-04 
-6.971605018600e-04 2.093612217780e-05 0.0 
2.093612217780e-05 4.459125829408e-03 0.0 
0.0 0.0 -6.865721209800e-04 
-5.253766316691e-04 1.379974747340e-05 0.0 
1.379974747340e-05 3.365120840457e-03 0.0 
0.0 0.0 -5.286920563404e-04 
-4.997160733495e-04 2.272416899085e-05 0.0 
2.272416899085e-05 3.215754431319e-03 0.0 
0.0 0.0 -5.038291843518e-04 
-6.458044435334e-05 -2.268465343248e-06 0.0 
-2.268465343248e-06 3.061057402814e-04 0.0 
0.0 0.0 -5.826474687104e-05 
-1.365107396446e-04 -1.511681688148e-05 0.0 
-1.511681688148e-05 6.671209083265e-04 0.0 
0.0 0.0 -1.338235891287e-04 
-1.329944671513e-04 1.728312419837e-05 0.0 
1.728312419837e-05 6.296869018316e-04 0.0 
0.0 0.0 -1.329549719063e-04 
-2.100970973320e-04 9.757108245941e-06 0.0 
9.757108245941e-06 1.064616598962e-03 0.0 
0.0 0.0 -1.976702944042e-04 
-1.907673612491e-04 -8.037251829839e-06 0.0 
-8.037251829839e-06 1.054607848416e-03 0.0 
0.0 0.0 -1.960684762570e-04 
-1.291399276805e-04 5.589927261900e-07 0.0 
5.589927261900e-07 6.717799826530e-04 0.0 
0.0 0.0 -1.329856363161e-04 
-1.332115243411e-04 1.116366171221e-05 0.0 
1.116366171221e-05 6.698553752901e-04 0.0 
0.0 0.0 -1.328726424774e-04 
-6.123018265422e-05 -2.226991271356e-06 0.0 
-2.226991271356e-06 2.966407899736e-04 0.0 
0.0 0.0 -5.786540529839e-05 
-1.318562850822e-04 -3.804233771773e-06 0.0 
-3.804233771773e-06 6.638255964619e-04 0.0 
0.0 0.0 -1.308611123410e-04 
-1.930153503724e-04 1.076682971487e-05 0.0 
1.076682971487e-05 1.064256298509e-03 0.0 
0.0 0.0 -1.994574706984e-04 
-5.202007941149e-05 -5.137534308526e-06 0.0 
-5.137534308526e-06 2.737802621694e-04 0.0 
0.0 0.0 -5.534513975843e-05 
-1.060096701056e-03 -2.854203109808e-05 0.0 
-2.854203109808e-05 7.080511066382e-03 0.0 
0.0 0.0 -1.060427308513e-03 
-1.101245431622e-03 -2.265554676226e-05 0.0 
-2.265554676226e-05 7.326835296988e-03 0.0 
0.0 0.0 -1.097082233180e-03 
-1.303771853134e-03 -3.955883839580e-06 0.0 
-3.955883839580e-06 8.773017437093e-03 0.0 
0.0 0.0 -1.300897016293e-03 
-7.525731418623e-04 -2.553654618198e-05 0.0 
-2.553654618198e-05 4.964909214712e-03 0.0 
0.0 0.0 -7.584009903415e-04 
-5.671099606206e-05 2.025225744384e-06 0.0 
2.025225744384e-06 2.971089711715e-04 0.0 
0.0 0.0 -5.884959645352e-05 
-1.296052575560e-03 -1.034030829996e-06 0.0 
-1.034030829996e-06 8.715505616406e-03 0.0 
0.0 0.0 -1.292107529982e-03 
-1.300241625373e-03 -1.196764903613e-05 0.0 
-1.196764903613e-05 8.782711832524e-03 0.0 
0.0 0.0 -1.303172775453e-03 
-1.297505069925e-03 9.380535181827e-06 0.0 
9.380535181827e-06 8.784349503541e-03 0.0 
0.0 0.0 -1.304823151597e-03 
-1.190737660973e-03 8.854859890049e-06 0.0 
8.854859890049e-06 7.990764728896e-03 0.0 
0.0 0.0 -1.191058493115e-03 
-1.217720710694e-03 3.907545697867e-06 0.0 
3.907545697867e-06 8.218811643119e-03 0.0 
0.0 0.0 -1.224322658093e-03 
-1.301588133362e-03 5.941663257066e-06 0.0 
5.941663257066e-06 8.722214772172e-03 0.0 
0.0 0.0 -1.294569364341e-03 
-4.491538872292e-04 3.425462149076e-06 0.0 
3.425462149076e-06 2.829494640627e-03 0.0 
0.0 0.0 -4.512809064328e-04 
-1.219121534789e-03 1.093707084889e-05 0.0 
1.093707084889e-05 8.264877250953e-03 0.0 
0.0 0.0 -1.225740639889e-03 
-1.181600644536e-03 2.602984545298e-06 0.0 
2.602984545298e-06 7.898254142128e-03 0.0 
0.0 0.0 -1.178628832109e-03 
-3.271245572877e-04 -7.559619564450e-07 0.0 
-7.559619564450e-07 1.969290585494e-03 0.0 
0.0 0.0 -3.268383546744e-04 
-4.353641825210e-04 2.390544680941e-06 0.0 
2.390544680941e-06 2.735090082528e-03 0.0 
0.0 0.0 -4.373623857420e-04 
-9.887113880157e-04 2.647202920658e-06 0.0 
2.647202920658e-06 6.590846789922e-03 0.0 
0.0 0.0 -9.899674718230e-04 
-9.119629022756e-04 -1.217041315548e-06 0.0 
-1.217041315548e-06 6.048161892543e-03 0.0 
0.0 0.0 -9.123979313600e-04 
-1.130689760044e-03 -2.404858458437e-06 0.0 
-2.404858458437e-06 7.563292742476e-03 0.0 
0.0 0.0 -1.130390451587e-03 
-9.324694232769e-04 5.707369421332e-08 0.0 
5.707369421332e-08 6.185987888161e-03 0.0 
0.0 0.0 -9.322225209316e-04 
-1.071273223037e-03 -3.400166334329e-06 0.0 
-3.400166334329e-06 7.166794807332e-03 0.0 
0.0 0.0 -1.073123358692e-03 
-1.246132006402e-03 2.306789458162e-05 0.0 
2.306789458162e-05 8.374889379432e-03 0.0 
0.0 0.0 -1.244129926109e-03 
-2.805652380378e-04 -4.717906580444e-06 0.0 
-4.717906580444e-06 1.732830044642e-03 0.0 
0.0 0.0 -2.939217362394e-04 
-9.366102056303e-04 6.334636788540e-06 0.0 
6.334636788540e-06 6.210934504197e-03 0.0 
0.0 0.0 -9.364826870394e-04 
-9.120035044512e-04 6.559904903640e-06 0.0 
6.559904903640e-06 6.042070421320e-03 0.0 
0.0 0.0 -9.130351872960e-04 
-1.076387052139e-03 -3.360138210492e-06 0.0 
-3.360138210492e-06 7.184148688862e-03 0.0 
0.0 0.0 -1.075939795031e-03 
-4.728102684627e-04 -4.847791376172e-06 0.0 
-4.847791376172e-06 2.971951481931e-03 0.0 
0.0 0.0 -4.709579147287e-04 
-7.280869989337e-04 -1.354131871902e-05 0.0 
-1.354131871902e-05 4.780585004203e-03 0.0 
0.0 0.0 -7.304257169629e-04 
-3.156217836785e-04 -5.089469505394e-06 0.0 
-5.089469505394e-06 1.850033331779e-03 0.0 
0.0 0.0 -3.104331955072e-04 
-1.248490279357e-03 4.323593742192e-06 0.0 
4.323593742192e-06 8.417241528006e-03 0.0 
0.0 0.0 -1.251461238623e-03 
-7.622164195474e-04 2.744443286233e-08 0.0 
2.744443286233e-08 4.979735740211e-03 0.0 
0.0 0.0 -7.590395520047e-04 
-7.692339302932e-04 1.865673827908e-06 0.0 
1.865673827908e-06 5.052106796517e-03 0.0 
0.0 0.0 -7.694287042311e-04 
-6.089514047186e-04 -2.827610219312e-06 0.0 
-2.827610219312e-06 3.952389816829e-03 0.0 
0.0 0.0 -6.120242822960e-04 
-4.863994982411e-04 4.620884363803e-06 0.0 
4.620884363803e-06 3.095071946727e-03 0.0 
0.0 0.0 -4.894362539292e-04 
-4.085285658609e-04 2.731393984611e-06 0.0 
2.731393984611e-06 2.545768838986e-03 0.0 
0.0 0.0 -4.100935076628e-04 
-6.992575820323e-04 4.870514854700e-06 0.0 
4.870514854700e-06 4.559959934010e-03 0.0 
0.0 0.0 -6.990242139688e-04 
-7.223263303115e-04 1.302313524945e-06 0.0 
1.302313524945e-06 4.731940689569e-03 0.0 
0.0 0.0 -7.237531747479e-04 
-1.024699739881e-03 1.653915686907e-06 0.0 
1.653915686907e-06 6.828723699735e-03 0.0 
0.0 0.0 -1.024340108609e-03 
-1.114669738223e-03 -2.759101931756e-06 0.0 
-2.759101931756e-06 7.438940293733e-03 0.0 
0.0 0.0 -1.112552678551e-03 
-7.837510010110e-05 1.769113863605e-05 0.0 
1.769113863605e-05 3.475076993491e-04 0.0 
0.0 0.0 -7.176178390651e-05 
-1.061119640742e-03 3.173187948481e-06 0.0 
3.173187948481e-06 7.087064478518e-03 0.0 
0.0 0.0 -1.061672265243e-03 
-8.547259828445e-04 -2.557127369105e-07 0.0 
-2.557127369105e-07 5.648936137093e-03 0.0 
0.0 0.0 -8.552253422611e-04 
-9.623974161653e-04 3.311768495808e-06 0.0 
3.311768495808e-06 6.381924133008e-03 0.0 
0.0 0.0 -9.599091010803e-04 
-1.065648191468e-03 -5.923271574284e-06 0.0 
-5.923271574284e-06 7.096345784584e-03 0.0 
0.0 0.0 -1.062640036239e-03 
-2.783998705012e-04 -2.298480854645e-06 0.0 
-2.298480854645e-06 1.715267207971e-03 0.0 
0.0 0.0 -2.909097700217e-04 
-1.100348444179e-03 -1.047118262826e-06 0.0 
-1.047118262826e-06 7.347575470432e-03 0.0 
0.0 0.0 -1.098747615487e-03 
-1.217488030174e-03 6.848117353208e-06 0.0 
6.848117353208e-06 8.139341092548e-03 0.0 
0.0 0.0 -1.212453547082e-03 
-8.838417845426e-04 -2.547521654436e-05 0.0 
-2.547521654436e-05 5.856172789859e-03 0.0 
0.0 0.0 -8.875094802107e-04 
-2.462642296247e-04 -5.029644419162e-06 0.0 
-5.029644419162e-06 1.395111957816e-03 0.0 
0.0 0.0 -2.442495876194e-04 
-8.759046619095e-04 5.034941322806e-06 0.0 
5.034941322806e-06 5.740576630140e-03 0.0 
0.0 0.0 -8.692469099983e-04 
-1.203793389362e-03 4.534763565521e-06 0.0 
4.534763565521e-06 8.059936526886e-03 0.0 
0.0 0.0 -1.202705989510e-03 
-1.079080060508e-03 -5.136331411339e-07 0.0 
-5.136331411339e-07 7.205755043523e-03 0.0 
0.0 0.0 -1.078220320736e-03 
-4.314372885713e-04 -1.108621221051e-05 0.0 
-1.108621221051e-05 2.708353444584e-03 0.0 
0.0 0.0 -4.336020471383e-04 
-7.948364969143e-04 -2.495821117465e-06 0.0 
-2.495821117465e-06 5.224923007330e-03 0.0 
0.0 0.0 -7.943514531093e-04 
-7.442299034792e-04 7.080946298829e-07 0.0 
7.080946298829e-07 4.865637424934e-03 0.0 
0.0 0.0 -7.428158978947e-04 
-6.789224573102e-04 -9.062719812299e-06 0.0 
-9.062719812299e-06 4.471649261705e-03 0.0 
0.0 0.0 -6.865907729104e-04 
-1.214586438871e-03 8.024689912006e-06 0.0 
8.024689912006e-06 8.094834481891e-03 0.0 
0.0 0.0 -1.206557591227e-03 
-8.183792108392e-04 -4.169826119301e-07 0.0 
-4.169826119301e-07 5.384604412960e-03 0.0 
0.0 0.0 -8.172945450071e-04 
-1.123489439230e-03 6.695635103125e-06 0.0 
6.695635103125e-06 7.497291039553e-03 0.0 
0.0 0.0 -1.120054252910e-03 
-9.239887439885e-04 -3.012520915636e-06 0.0 
-3.012520915636e-06 6.128004255690e-03 0.0 
0.0 0.0 -9.240809108919e-04 
-4.625644487372e-04 -4.132620430772e-06 0.0 
-4.132620430772e-06 2.914638302916e-03 0.0 
0.0 0.0 -4.629711029823e-04 
-1.121328625940e-03 -6.182944165331e-06 0.0 
-6.182944165331e-06 7.491651595506e-03 0.0 
0.0 0.0 -1.118919378802e-03 
-7.755037056980e-04 -1.629710765717e-06 0.0 
-1.629710765717e-06 5.087191610180e-03 0.0 
0.0 0.0 -7.743986277066e-04 
-1.165062879850e-03 -3.169874331000e-06 0.0 
-3.169874331000e-06 7.809274989077e-03 0.0 
0.0 0.0 -1.164614768973e-03 
-1.031438669585e-03 -5.272017896802e-06 0.0 
-5.272017896802e-06 6.875819044250e-03 0.0 
0.0 0.0 -1.031533309622e-03 
-6.383681651354e-04 -1.646563539663e-06 0.0 
-1.646563539663e-06 4.132113027582e-03 0.0 
0.0 0.0 -6.375205594687e-04 
-1.120494149395e-03 -5.362450288189e-06 0.0 
-5.362450288189e-06 7.500323563236e-03 0.0 
0.0 0.0 -1.121170216299e-03 
-7.780649319143e-04 1.815637845550e-06 0.0 
1.815637845550e-06 5.106477756251e-03 0.0 
0.0 0.0 -7.773091661689e-04 
-1.101658644117e-03 9.961254280391e-07 0.0 
9.961254280391e-07 7.356355521752e-03 0.0 
0.0 0.0 -1.099429584637e-03 
-7.271456150641e-04 1.682914491908e-06 0.0 
1.682914491908e-06 4.735785920808e-03 0.0 
0.0 0.0 -7.240542973723e-04 
-9.053111554421e-04 -2.304698340667e-06 0.0 
-2.304698340667e-06 5.989601996014e-03 0.0 
0.0 0.0 -9.041109700986e-04 
-9.863008524358e-04 -3.464876425145e-06 0.0 
-3.464876425145e-06 6.537147458198e-03 0.0 
0.0 0.0 -9.824247929831e-04 
-8.612973840953e-04 -1.473763681911e-07 0.0 
-1.473763681911e-07 5.687311619382e-03 0.0 
0.0 0.0 -8.608216255090e-04 
-9.529955923155e-04 1.728497531747e-05 0.0 
1.728497531747e-05 6.336375010902e-03 0.0 
0.0 0.0 -9.534332399069e-04 
-1.092284604608e-03 2.589702392237e-06 0.0 
2.589702392237e-06 7.290468944473e-03 0.0 
0.0 0.0 -1.090315851396e-03 
-3.119597294078e-04 5.757369509454e-07 0.0 
5.757369509454e-07 1.828570008309e-03 0.0 
0.0 0.0 -3.071334217218e-04 
-5.718786607335e-04 -4.107371136135e-07 0.0 
-4.107371136135e-07 3.675898340669e-03 0.0 
0.0 0.0 -5.719042557127e-04 
-9.488327861295e-04 -5.202841949995e-06 0.0 
-5.202841949995e-06 6.331676782321e-03 0.0 
0.0 0.0 -9.536514739466e-04 
-1.157212024015e-03 -6.515732433153e-06 0.0 
-6.515732433153e-06 7.701144359915e-03 0.0 
0.0 0.0 -1.150585697120e-03 
-1.224312444037e-03 6.690841738661e-06 0.0 
6.690841738661e-06 8.269264616708e-03 0.0 
0.0 0.0 -1.229329624135e-03 
-6.820956806615e-04 3.615386019402e-06 0.0 
3.615386019402e-06 4.429302489243e-03 0.0 
0.0 0.0 -6.801182747099e-04 
-1.081664045678e-03 -5.547367653092e-06 0.0 
-5.547367653092e-06 7.227268260236e-03 0.0 
0.0 0.0 -1.081576975854e-03 
-1.187584404498e-03 2.370146928361e-06 0.0 
2.370146928361e-06 7.946791552093e-03 0.0 
0.0 0.0 -1.185355684152e-03 
-7.511569300737e-04 3.681739321803e-07 0.0 
3.681739321803e-07 4.931952546785e-03 0.0 
0.0 0.0 -7.524367508395e-04 
-3.356805227239e-04 3.379744479913e-06 0.0 
3.379744479913e-06 2.005119320146e-03 0.0 
0.0 0.0 -3.333104686742e-04 
-2.618377986137e-04 -2.555233257103e-06 0.0 
-2.555233257103e-06 1.542022096797e-03 0.0 
0.0 0.0 -2.654833071040e-04 
-5.104550227812e-04 2.453007206934e-06 0.0 
2.453007206934e-06 3.238650363468e-03 0.0 
0.0 0.0 -5.092532232582e-04 
-7.832353398933e-04 -9.887778136777e-09 0.0 
-9.887778136777e-09 5.137653853930e-03 0.0 
0.0 0.0 -7.817448632792e-04 
-8.173389799679e-04 -1.106611203733e-06 0.0 
-1.106611203733e-06 5.390375532825e-03 0.0 
0.0 0.0 -8.181699076277e-04 
-1.246124432281e-03 8.592622963335e-06 0.0 
8.592622963335e-06 8.369587963902e-03 0.0 
0.0 0.0 -1.242275372262e-03 
-1.107849420052e-03 -3.778759466968e-06 0.0 
-3.778759466968e-06 7.425444910215e-03 0.0 
0.0 0.0 -1.110186454522e-03 
-1.040708302916e-03 -6.884984212010e-06 0.0 
-6.884984212010e-06 6.941970815521e-03 0.0 
0.0 0.0 -1.040857148505e-03 
-1.527209700993e-04 7.546329121841e-06 0.0 
7.546329121841e-06 7.439800217049e-04 0.0 
0.0 0.0 -1.519369657486e-04 
-7.102565865705e-04 9.145208254822e-06 0.0 
9.145208254822e-06 4.653234839291e-03 0.0 
0.0 0.0 -7.126371066839e-04 
-1.135597595821e-03 -4.213475059683e-06 0.0 
-4.213475059683e-06 7.626732622695e-03 0.0 
0.0 0.0 -1.139074001596e-03 
-8.226822624901e-04 -1.510040807202e-06 0.0 
-1.510040807202e-06 5.420363658064e-03 0.0 
0.0 0.0 -8.223634564932e-04 
-1.130518051871e-03 1.404153544735e-06 0.0 
1.404153544735e-06 7.542933512680e-03 0.0 
0.0 0.0 -1.126725356868e-03 
-7.730615027956e-04 -9.222257900680e-07 0.0 
-9.222257900680e-07 5.135473060459e-03 0.0 
0.0 0.0 -7.817916451012e-04 
-1.247411460160e-03 -9.243273431626e-06 0.0 
-9.243273431626e-06 8.408376939558e-03 0.0 
0.0 0.0 -1.249754184115e-03 
-5.771690213087e-04 1.052821776230e-05 0.0 
1.052821776230e-05 3.703652171226e-03 0.0 
0.0 0.0 -5.757576642514e-04 
-1.170100609579e-03 -4.592953287667e-06 0.0 
-4.592953287667e-06 7.841109684677e-03 0.0 
0.0 0.0 -1.168790087466e-03 
-1.048740829087e-03 7.093154405121e-06 0.0 
7.093154405121e-06 6.993148920806e-03 0.0 
0.0 0.0 -1.047452346298e-03 
-5.261911269690e-04 1.909166491034e-06 0.0 
1.909166491034e-06 3.348024093927e-03 0.0 
0.0 0.0 -5.248669331578e-04 
-7.497340550745e-04 3.779029275121e-06 0.0 
3.779029275121e-06 4.910648048132e-03 0.0 
0.0 0.0 -7.498068730476e-04 
-1.245763281564e-03 6.672330238112e-06 0.0 
6.672330238112e-06 8.371772027766e-03 0.0 
0.0 0.0 -1.243807156011e-03 
-1.117703748533e-03 2.194090469624e-06 0.0 
2.194090469624e-06 7.455079503703e-03 0.0 
0.0 0.0 -1.114542488500e-03 
-9.240113812817e-04 -1.198482107009e-06 0.0 
-1.198482107009e-06 6.127698402996e-03 0.0 
0.0 0.0 -9.240346875991e-04 
-7.861216138726e-04 -9.318371198973e-07 0.0 
-9.318371198973e-07 5.164682558518e-03 0.0 
0.0 0.0 -7.856950878877e-04 
-6.177367695525e-04 -9.517786211564e-06 0.0 
-9.517786211564e-06 3.998918706787e-03 0.0 
0.0 0.0 -6.191377506773e-04 
-8.459389819467e-04 -1.995047945433e-06 0.0 
-1.995047945433e-06 5.590510800112e-03 0.0 
0.0 0.0 -8.467704336814e-04 
-9.417404110639e-04 -4.713677469942e-06 0.0 
-4.713677469942e-06 6.237570578551e-03 0.0 
0.0 0.0 -9.395224721591e-04 
-1.301810218994e-03 1.765430740851e-06 0.0 
1.765430740851e-06 8.802491938361e-03 0.0 
0.0 0.0 -1.306889097489e-03 
-1.157353199815e-03 -3.220404905656e-06 0.0 
-3.220404905656e-06 7.685679656852e-03 0.0 
0.0 0.0 -1.148622835147e-03 
-9.680073786691e-04 -7.171826150542e-06 0.0 
-7.171826150542e-06 6.444265355765e-03 0.0 
0.0 0.0 -9.696660045843e-04 
-8.086257517038e-04 -2.588621595282e-06 0.0 
-2.588621595282e-06 5.331381971752e-03 0.0 
0.0 0.0 -8.097439408559e-04 
-9.758814597954e-04 -1.266881133518e-06 0.0 
-1.266881133518e-06 6.485358460050e-03 0.0 
0.0 0.0 -9.749840279683e-04 
-1.830817571470e-04 -6.180925807514e-06 0.0 
-6.180925807514e-06 1.047535156776e-03 0.0 
0.0 0.0 -1.970089232863e-04 
-6.448165884168e-04 4.844410112050e-06 0.0 
4.844410112050e-06 4.184395435775e-03 0.0 
0.0 0.0 -6.447622526173e-04 
-8.380376970069e-04 -3.326700526570e-06 0.0 
-3.326700526570e-06 5.530905952602e-03 0.0 
0.0 0.0 -8.382314227178e-04 
-5.380831595536e-04 5.638960694157e-07 0.0 
5.638960694157e-07 3.435054469080e-03 0.0 
0.0 0.0 -5.374563060555e-04 
-8.145911171393e-04 -5.272270293878e-07 0.0 
-5.272270293878e-07 5.360444702331e-03 0.0 
0.0 0.0 -8.136389561866e-04 
-1.227174802196e-03 1.276784792674e-05 0.0 
1.276784792674e-05 8.302917635780e-03 0.0 
0.0 0.0 -1.234277959947e-03 
-8.676280294557e-04 -2.040186177103e-06 0.0 
-2.040186177103e-06 5.731120870230e-03 0.0 
0.0 0.0 -8.668853676281e-04 
-6.021329393957e-04 -1.386838022366e-06 0.0 
-1.386838022366e-06 3.881394728410e-03 0.0 
0.0 0.0 -6.015264011954e-04 
-8.964491756309e-04 6.553805878038e-07 0.0 
6.553805878038e-07 5.929532426753e-03 0.0 
0.0 0.0 -8.955981815692e-04 
-5.512424861372e-04 -5.409275769266e-06 0.0 
-5.409275769266e-06 3.527258760375e-03 0.0 
0.0 0.0 -5.519888345566e-04 
-9.985595773763e-04 -1.015463228059e-05 0.0 
-1.015463228059e-05 6.646851321069e-03 0.0 
0.0 0.0 -9.983267706061e-04 
-9.215064714085e-04 1.407126120283e-07 0.0 
1.407126120283e-07 6.123536504565e-03 0.0 
0.0 0.0 -9.243533921793e-04 
-1.004433427130e-03 -6.175544373032e-06 0.0 
-6.175544373032e-06 6.679704057184e-03 0.0 
0.0 0.0 -1.003151257071e-03 
-2.014979142818e-04 -1.982424414319e-05 0.0 
-1.982424414319e-05 1.118628598720e-03 0.0 
0.0 0.0 -2.040322045631e-04 
-9.524490800155e-04 -1.599154771326e-06 0.0 
-1.599154771326e-06 6.321577882661e-03 0.0 
0.0 0.0 -9.517466134248e-04 
-1.151323095747e-03 8.970357597644e-06 0.0 
8.970357597644e-06 7.737810625971e-03 0.0 
0.0 0.0 -1.155419075730e-03 
-5.642242598448e-04 4.052530886012e-06 0.0 
4.052530886012e-06 3.629354201895e-03 0.0 
0.0 0.0 -5.654343806685e-04 
-8.430123869833e-04 1.789712430402e-06 0.0 
1.789712430402e-06 5.558821852331e-03 0.0 
0.0 0.0 -8.420324705410e-04 
-1.064235786948e-03 -6.087517053087e-06 0.0 
-6.087517053087e-06 7.102031703649e-03 0.0 
0.0 0.0 -1.063653581392e-03 
-4.868392782287e-04 -2.122282903210e-05 0.0 
-2.122282903210e-05 3.049667270729e-03 0.0 
0.0 0.0 -4.839843007303e-04 
-9.081670479201e-04 2.415755652444e-07 0.0 
2.415755652444e-07 6.014517114267e-03 0.0 
0.0 0.0 -9.074658271045e-04 
-1.068096740287e-03 -5.575043742395e-06 0.0 
-5.575043742395e-06 7.125147388201e-03 0.0 
0.0 0.0 -1.067288052377e-03 
-9.808487270250e-04 4.928616331368e-06 0.0 
4.928616331368e-06 6.520553626334e-03 0.0 
0.0 0.0 -9.801762873724e-04 
-8.470889807538e-04 7.350311736705e-07 0.0 
7.350311736705e-07 5.583629027931e-03 0.0 
0.0 0.0 -8.455731917576e-04 
-9.738610544212e-04 -1.605198629572e-06 0.0 
-1.605198629572e-06 6.476533283027e-03 0.0 
0.0 0.0 -9.738262179589e-04 
-5.107285056984e-04 1.726041735429e-05 0.0 
1.726041735429e-05 3.222108758113e-03 0.0 
0.0 0.0 -5.057041985798e-04 
-4.224983753939e-04 8.320492048914e-06 0.0 
8.320492048914e-06 2.639215696168e-03 0.0 
0.0 0.0 -4.238464704258e-04 
-3.592226638991e-04 1.930188485338e-06 0.0 
1.930188485338e-06 2.185168436497e-03 0.0 
0.0 0.0 -3.586180353125e-04 
-6.301304693072e-04 -1.957277653439e-06 0.0 
-1.957277653439e-06 4.076615728565e-03 0.0 
0.0 0.0 -6.294631353604e-04 
-1.103647244802e-03 -2.847244465012e-06 0.0 
-2.847244465012e-06 7.378786394117e-03 0.0 
0.0 0.0 -1.103081964739e-03 
-2.559482480598e-04 -2.299545213337e-05 0.0 
-2.299545213337e-05 1.449439224095e-03 0.0 
0.0 0.0 -2.521214004998e-04 
-1.054932560315e-03 -8.075575040938e-06 0.0 
-8.075575040938e-06 7.041307941420e-03 0.0 
0.0 0.0 -1.054898413167e-03 
-2.650995954687e-04 -9.741906018429e-06 0.0 
-9.741906018429e-06 1.540523614087e-03 0.0 
0.0 0.0 -2.660187670962e-04 
-5.941857965255e-04 -1.478675907358e-06 0.0 
-1.478675907358e-06 3.826673915507e-03 0.0 
0.0 0.0 -5.935709857392e-04 
-1.072876015775e-03 5.343583090718e-06 0.0 
5.343583090718e-06 7.192683716525e-03 0.0 
0.0 0.0 -1.077081564483e-03 
-9.321388457541e-04 -4.809931635804e-05 0.0 
-4.809931635804e-05 6.189086367178e-03 0.0 
0.0 0.0 -9.315431351609e-04 
-6.217808576271e-04 7.207492673365e-07 0.0 
7.207492673365e-07 4.019499781701e-03 0.0 
0.0 0.0 -6.211106552582e-04 
-3.980785928310e-04 9.124267879156e-06 0.0 
9.124267879156e-06 2.462820491612e-03 0.0 
0.0 0.0 -3.989951351066e-04 
-5.857792725332e-04 1.985647166840e-06 0.0 
1.985647166840e-06 3.767357559114e-03 0.0 
0.0 0.0 -5.850331209179e-04 
-9.112445775697e-04 1.341366700747e-06 0.0 
1.341366700747e-06 6.030641515549e-03 0.0 
0.0 0.0 -9.098959706900e-04 
-6.128747489382e-04 2.675469426610e-06 0.0 
2.675469426610e-06 3.959229262623e-03 0.0 
0.0 0.0 -6.124823626799e-04 
-5.756573688348e-04 3.659606376946e-06 0.0 
3.659606376946e-06 3.704306399129e-03 0.0 
0.0 0.0 -5.760838601101e-04 
-1.248717565768e-03 -5.535813130845e-06 0.0 
-5.535813130845e-06 8.366851373819e-03 0.0 
0.0 0.0 -1.242975171717e-03 
-6.019390184711e-04 5.185969946797e-06 0.0 
5.185969946797e-06 3.892334269077e-03 0.0 
0.0 0.0 -6.030381679152e-04 
-1.295271260153e-03 -1.307857609192e-05 0.0 
-1.307857609192e-05 8.801391727423e-03 0.0 
0.0 0.0 -1.305370344976e-03 
-1.297876901994e-03 -6.017750132352e-06 0.0 
-6.017750132352e-06 8.756844234735e-03 0.0 
0.0 0.0 -1.298405437673e-03 
-8.024513087945e-04 -3.501513188687e-05 0.0 
-3.501513188687e-05 5.274019348334e-03 0.0 
0.0 0.0 -7.997855503562e-04 
-4.254874939528e-04 2.211998048868e-05 0.0 
2.211998048868e-05 2.578130903576e-03 0.0 
0.0 0.0 -4.121418992062e-04 
-6.508445551723e-05 3.373963354690e-06 0.0 
3.373963354690e-06 3.129607731290e-04 0.0 
0.0 0.0 -6.767973558354e-05 
-4.292600751843e-04 -1.740584050413e-05 0.0 
-1.740584050413e-05 2.722306669060e-03 0.0 
0.0 0.0 -4.369243393394e-04 
-4.999202719491e-04 4.843301359547e-06 0.0 
4.843301359547e-06 3.182731173833e-03 0.0 
0.0 0.0 -5.013603847490e-04 
-1.049593438910e-03 4.881772467610e-07 0.0 
4.881772467610e-07 6.980157933883e-03 0.0 
0.0 0.0 -1.045752072333e-03 
-8.016418655660e-04 8.516902983733e-06 0.0 
8.516902983733e-06 5.282246051091e-03 0.0 
0.0 0.0 -8.029817139903e-04 
-4.608886666597e-04 1.012378092174e-05 0.0 
1.012378092174e-05 2.916090626050e-03 0.0 
0.0 0.0 -4.630712860745e-04 
-1.246806949158e-03 1.140227857438e-06 0.0 
1.140227857438e-06 8.413894031447e-03 0.0 
0.0 0.0 -1.250093291501e-03 
-1.307722546221e-03 -1.676098542472e-05 0.0 
-1.676098542472e-05 8.791128539895e-03 0.0 
0.0 0.0 -1.306737725957e-03 
-1.028575866269e-03 -1.191239422504e-05 0.0 
-1.191239422504e-05 6.846657277970e-03 0.0 
0.0 0.0 -1.028769680629e-03 
-1.163087821654e-03 1.345534459018e-05 0.0 
1.345534459018e-05 7.719562356736e-03 0.0 
0.0 0.0 -1.152835590205e-03 
-1.010012111677e-03 5.602799068576e-06 0.0 
5.602799068576e-06 6.735304706068e-03 0.0 
0.0 0.0 -1.010595862668e-03 
-1.192917845756e-03 -1.946426676365e-05 0.0 
-1.946426676365e-05 7.943592006894e-03 0.0 
0.0 0.0 -1.185717314024e-03 
-7.402744024553e-04 -5.561571202994e-05 0.0 
-5.561571202994e-05 4.875197844443e-03 0.0 
0.0 0.0 -7.451086181774e-04 
-1.274079564101e-04 8.533594738720e-07 0.0 
8.533594738720e-07 6.386951496409e-04 0.0 
0.0 0.0 -1.305770345747e-04 
-9.879127130266e-04 1.076817561932e-05 0.0 
1.076817561932e-05 6.567110452730e-03 0.0 
0.0 0.0 -9.879584850274e-04 
-3.534515362331e-04 7.236051672509e-06 0.0 
7.236051672509e-06 2.087202708593e-03 0.0 
0.0 0.0 -3.437331075899e-04 
-3.524709716392e-04 5.779652154937e-07 0.0 
5.779652154937e-07 2.140761807693e-03 0.0 
0.0 0.0 -3.524505972177e-04 
-2.862323044565e-04 -1.529779689704e-06 0.0 
-1.529779689704e-06 1.660184670344e-03 0.0 
0.0 0.0 -2.832406441101e-04 
-4.971401695179e-04 3.027225826791e-06 0.0 
3.027225826791e-06 3.086653370969e-03 0.0 
0.0 0.0 -4.856826860430e-04 
-1.849802147030e-04 7.362673378462e-06 0.0 
7.362673378462e-06 1.024898749324e-03 0.0 
0.0 0.0 -1.942844358666e-04 
-2.871589559832e-04 8.860091783273e-06 0.0 
8.860091783273e-06 1.702387296045e-03 0.0 
0.0 0.0 -2.888902821290e-04 
-1.252722980053e-03 -1.832850037119e-05 0.0 
-1.832850037119e-05 8.369674222349e-03 0.0 
0.0 0.0 -1.245112051941e-03 
-7.926742292646e-04 -4.732996368771e-05 0.0 
-4.732996368771e-05 5.282443543312e-03 0.0 
0.0 0.0 -8.050116406322e-04 
-1.106262153398e-03 -9.161465296484e-06 0.0 
-9.161465296484e-06 7.422861484469e-03 0.0 
0.0 0.0 -1.110409235593e-03 
-2.195876704695e-04 6.903728268319e-06 0.0 
6.903728268319e-06 1.223775342103e-03 0.0 
0.0 0.0 -2.210826640180e-04 
-1.251801969841e-03 -1.462670654941e-05 0.0 
-1.462670654941e-05 8.397461752409e-03 0.0 
0.0 0.0 -1.247366155457e-03 
-1.250359073208e-03 6.645071777125e-06 0.0 
6.645071777125e-06 8.395286537502e-03 0.0 
0.0 0.0 -1.246608778627e-03 
-1.310061522222e-03 -1.730900586740e-05 0.0 
-1.730900586740e-05 8.803293803047e-03 0.0 
0.0 0.0 -1.306249356034e-03 
-1.172119357565e-03 -2.987465004733e-06 0.0 
-2.987465004733e-06 7.878008992010e-03 0.0 
0.0 0.0 -1.176371721005e-03 
-2.180388128944e-04 -2.924544915624e-06 0.0 
-2.924544915624e-06 1.180274271759e-03 0.0 
0.0 0.0 -2.130604828246e-04 
-8.442593127821e-04 -4.359073983633e-05 0.0 
-4.359073983633e-05 5.668047935442e-03 0.0 
0.0 0.0 -8.603500797662e-04 
-1.256774464996e-03 -9.387217043005e-06 0.0 
-9.387217043005e-06 8.415646483150e-03 0.0 
0.0 0.0 -1.250827372426e-03 
-1.072962494745e-03 -3.075351322395e-06 0.0 
-3.075351322395e-06 7.220489030587e-03 0.0 
0.0 0.0 -1.080253149739e-03 
-1.299956315864e-03 5.907340655945e-05 0.0 
5.907340655945e-05 8.822006705032e-03 0.0 
0.0 0.0 -1.309985050881e-03 
-7.806106637019e-04 -1.684448248671e-06 0.0 
-1.684448248671e-06 5.212548371629e-03 0.0 
0.0 0.0 -7.979019438933e-04 
-1.254167562389e-03 1.146355027263e-05 0.0 
1.146355027263e-05 8.413941643761e-03 0.0 
0.0 0.0 -1.252774941638e-03 
-2.773224831107e-04 -1.248540399814e-05 0.0 
-1.248540399814e-05 1.578602427722e-03 0.0 
0.0 0.0 -2.737139294578e-04 
-1.253589576776e-03 1.816421682348e-05 0.0 
1.816421682348e-05 8.411285343410e-03 0.0 
0.0 0.0 -1.254166199180e-03 
-1.115104807484e-03 -2.535602796042e-06 0.0 
-2.535602796042e-06 7.430825592014e-03 0.0 
0.0 0.0 -1.110316242656e-03 
-8.788088159188e-04 2.953384655579e-05 0.0 
2.953384655579e-05 5.848517526204e-03 0.0 
0.0 0.0 -8.840149073763e-04 
-8.453655219935e-04 1.276109640107e-05 0.0 
1.276109640107e-05 5.644378390582e-03 0.0 
0.0 0.0 -8.570326279659e-04 
-1.251636506986e-03 8.563362149488e-06 0.0 
8.563362149488e-06 8.428656629745e-03 0.0 
0.0 0.0 -1.256337174517e-03 
-1.259327999631e-03 -2.468624830886e-05 0.0 
-2.468624830886e-05 8.412107540714e-03 0.0 
0.0 0.0 -1.249505442739e-03 
-1.752421740853e-04 1.599785091571e-05 0.0 
1.599785091571e-05 9.248205746741e-04 0.0 
0.0 0.0 -1.769373265848e-04 
-1.014009013286e-03 3.718452203751e-05 0.0 
3.718452203751e-05 6.827048883928e-03 0.0 
0.0 0.0 -1.024357608964e-03 
-6.037112023629e-04 -1.928016981808e-05 0.0 
-1.928016981808e-05 3.870166564208e-03 0.0 
0.0 0.0 -5.984289768806e-04 
-1.136473903534e-04 -2.305801768321e-05 0.0 
-2.305801768321e-05 5.992740239483e-04 0.0 
0.0 0.0 -1.205697443559e-04 
-1.256657915508e-03 3.816415809550e-05 0.0 
3.816415809550e-05 8.403684845898e-03 0.0 
0.0 0.0 -1.249521112489e-03 
-1.181297459508e-03 -1.601502097639e-06 0.0 
-1.601502097639e-06 7.855797415999e-03 0.0 
0.0 0.0 -1.172189067419e-03 
-1.260809781498e-03 3.729628833418e-05 0.0 
3.729628833418e-05 8.413738862441e-03 0.0 
0.0 0.0 -1.251863004148e-03 
-2.027346260532e-04 2.709152210177e-05 0.0 
2.709152210177e-05 1.045860090397e-03 0.0 
0.0 0.0 -1.953152674555e-04 
-1.282550990439e-04 1.596967550426e-05 0.0 
1.596967550426e-05 5.957593377885e-04 0.0 
0.0 0.0 -1.273034037094e-04 
-1.264740521524e-03 1.076136126604e-05 0.0 
1.076136126604e-05 8.488256231164e-03 0.0 
0.0 0.0 -1.258522865334e-03 
-1.257630123801e-03 7.011893020700e-06 0.0 
7.011893020700e-06 8.461160637007e-03 0.0 
0.0 0.0 -1.257106814994e-03 
-2.964921431859e-04 1.458101898900e-05 0.0 
1.458101898900e-05 1.817377003358e-03 0.0 
0.0 0.0 -3.034980657766e-04 
-1.315300675602e-03 -4.616213654122e-06 0.0 
-4.616213654122e-06 8.874722920157e-03 0.0 
0.0 0.0 -1.314710167832e-03 
-1.230668747669e-04 -1.081893831763e-05 0.0 
-1.081893831763e-05 5.709731362741e-04 0.0 
0.0 0.0 -1.229206800733e-04 
-7.274132408296e-04 6.183789390236e-06 0.0 
6.183789390236e-06 4.811004360547e-03 0.0 
0.0 0.0 -7.389643750272e-04 
-1.204537552606e-04 -1.859174322418e-05 0.0 
-1.859174322418e-05 6.217166808925e-04 0.0 
0.0 0.0 -1.247417965529e-04 
-1.299793796178e-03 -5.184403467026e-05 0.0 
-5.184403467026e-05 8.811604799613e-03 0.0 
0.0 0.0 -1.308531455474e-03 
-1.262934174837e-03 2.444499081750e-05 0.0 
2.444499081750e-05 8.445031740868e-03 0.0 
0.0 0.0 -1.254845750201e-03 
-6.580718270354e-04 3.721306501361e-05 0.0 
3.721306501361e-05 4.264446760778e-03 0.0 
0.0 0.0 -6.564513288157e-04 
-7.456337922437e-04 2.770990182636e-05 0.0 
2.770990182636e-05 4.941313475091e-03 0.0 
0.0 0.0 -7.541421605440e-04 
-4.450321519268e-04 1.831097352044e-05 0.0 
1.831097352044e-05 2.791375237210e-03 0.0 
0.0 0.0 -4.426424662127e-04 
-1.211596464916e-03 3.979318020068e-05 0.0 
3.979318020068e-05 8.090084984478e-03 0.0 
0.0 0.0 -1.203498912175e-03 
-1.699334618160e-04 1.120862622912e-05 0.0 
1.120862622912e-05 9.446237105802e-04 0.0 
0.0 0.0 -1.843356288727e-04 
-1.269994123481e-03 -1.450914975506e-05 0.0 
-1.450914975506e-05 8.504040731719e-03 0.0 
0.0 0.0 -1.260296891839e-03 
-1.268600913962e-03 -6.159942340735e-06 0.0 
-6.159942340735e-06 8.509424202183e-03 0.0 
0.0 0.0 -1.261416966621e-03 
-1.266492101745e-03 9.280004247651e-06 0.0 
9.280004247651e-06 8.502341661499e-03 0.0 
0.0 0.0 -1.260618436842e-03 
-1.320646394007e-03 1.164813461446e-06 0.0 
1.164813461446e-06 8.896090470956e-03 0.0 
0.0 0.0 -1.317725628150e-03 
-1.063917710965e-04 3.406664009707e-05 0.0 
3.406664009707e-05 5.707022560973e-04 0.0 
0.0 0.0 -1.219614697575e-04 
-1.271929683323e-03 -9.688594658042e-06 0.0 
-9.688594658042e-06 8.520583266263e-03 0.0 
0.0 0.0 -1.263090216482e-03 
-1.211976787312e-03 3.126546850388e-05 0.0 
3.126546850388e-05 8.084092320638e-03 0.0 
0.0 0.0 -1.202239909569e-03 
-7.453046702514e-04 4.651614229786e-05 0.0 
4.651614229786e-05 4.880400084605e-03 0.0 
0.0 0.0 -7.439744481034e-04 
-1.252851707889e-03 4.006401018327e-05 0.0 
4.006401018327e-05 8.422629498426e-03 0.0 
0.0 0.0 -1.252574368527e-03 
-5.410687361656e-04 2.769520936269e-05 0.0 
2.769520936269e-05 3.454688790362e-03 0.0 
0.0 0.0 -5.383891422301e-04 
-2.371733345551e-04 -4.470106712651e-05 0.0 
-4.470106712651e-05 1.418248240622e-03 0.0 
0.0 0.0 -2.492021827984e-04 
-1.298998890690e-03 -2.770464845184e-05 0.0 
-2.770464845184e-05 8.833071909488e-03 0.0 
0.0 0.0 -1.313490227100e-03 
-4.294380069023e-05 -4.186010349566e-06 0.0 
-4.186010349566e-06 2.320436162997e-04 0.0 
0.0 0.0 -5.297760877488e-05 
-7.470694764219e-04 -2.192265105768e-05 0.0 
-2.192265105768e-05 4.855390412225e-03 0.0 
0.0 0.0 -7.402411036050e-04 
-1.312354484328e-03 4.131093532360e-05 0.0 
4.131093532360e-05 8.846630708308e-03 0.0 
0.0 0.0 -1.313492844077e-03 
-2.211400451138e-04 -3.676306702383e-06 0.0 
-3.676306702383e-06 1.335213202641e-03 0.0 
0.0 0.0 -2.401910970207e-04 
-8.452827785452e-04 -2.606429286929e-05 0.0 
-2.606429286929e-05 5.603903241888e-03 0.0 
0.0 0.0 -8.489638187885e-04 
-1.255507124853e-03 -9.186014831564e-06 0.0 
-9.186014831564e-06 8.480922712531e-03 0.0 
0.0 0.0 -1.260211869575e-03 
-8.025976065576e-04 9.592064473669e-06 0.0 
9.592064473669e-06 5.261098351640e-03 0.0 
0.0 0.0 -7.986629621775e-04 
-1.151240916671e-03 -6.084869299020e-05 0.0 
-6.084869299020e-05 7.669030971500e-03 0.0 
0.0 0.0 -1.148445367820e-03 
-2.192829735374e-04 1.243334644941e-05 0.0 
1.243334644941e-05 1.310510961281e-03 0.0 
0.0 0.0 -2.379222736554e-04 
-3.921137447330e-05 -2.374603163330e-06 0.0 
-2.374603163330e-06 2.327919393128e-04 0.0 
0.0 0.0 -4.855001867801e-05 
-9.645913781642e-04 -4.083102734347e-05 0.0 
-4.083102734347e-05 6.424950689754e-03 0.0 
0.0 0.0 -9.668795991591e-04 
-1.266746155896e-03 3.603621751388e-05 0.0 
3.603621751388e-05 8.474273100537e-03 0.0 
0.0 0.0 -1.258714341260e-03 
-1.271487619191e-03 -1.652780192113e-05 0.0 
-1.652780192113e-05 8.532655002207e-03 0.0 
0.0 0.0 -1.263997700767e-03 
-9.164544161814e-04 3.965640940816e-05 0.0 
3.965640940816e-05 6.111358236627e-03 0.0 
0.0 0.0 -9.199601189493e-04 
-2.093975888615e-04 -4.665649638245e-05 0.0 
-4.665649638245e-05 1.197818786362e-03 0.0 
0.0 0.0 -2.164625706183e-04 
-1.227420417668e-03 9.834631553130e-06 0.0 
9.834631553130e-06 8.219790599597e-03 0.0 
0.0 0.0 -1.221038716794e-03 
-6.921621610822e-04 -2.719005194183e-06 0.0 
-2.719005194183e-06 4.614590635001e-03 0.0 
0.0 0.0 -7.060606045914e-04 
-1.222382248160e-03 -1.550215016822e-05 0.0 
-1.550215016822e-05 8.147929268757e-03 0.0 
0.0 0.0 -1.208939113964e-03 
-1.221146925072e-03 -7.968249279302e-06 0.0 
-7.968249279302e-06 8.100682442682e-03 0.0 
0.0 0.0 -1.203806565432e-03 
-5.670525863280e-05 -1.771698635754e-05 0.0 
-1.771698635754e-05 2.585053466944e-04 0.0 
0.0 0.0 -6.449378323917e-05 
-8.615762060499e-04 1.909652726146e-05 0.0 
1.909652726146e-05 5.665696184107e-03 0.0 
0.0 0.0 -8.562696210230e-04 
-1.225143862683e-04 -2.984290666876e-05 0.0 
-2.984290666876e-05 5.860977302171e-04 0.0 
0.0 0.0 -1.223049983750e-04 
-1.270837356719e-03 -1.933520143365e-05 0.0 
-1.933520143365e-05 8.510135783999e-03 0.0 
0.0 0.0 -1.263714160583e-03 
-7.340830126836e-04 -1.335821332730e-05 0.0 
-1.335821332730e-05 4.821918862365e-03 0.0 
0.0 0.0 -7.344436328926e-04 

SCALARS node_materi_plasti_kappa_shear float
LOOKUP_TABLE default
1.154246033666e-04
3.167350994499e-03
5.919693902232e-03
5.923852315190e-03
2.859947626271e-04
6.218445993993e-04
8.718334659107e-04
1.197083009525e-03
1.504800919970e-03
1.797006115044e-03
2.096281833338e-03
2.401455262769e-03
2.703248692656e-03
3.016765538726e-03
3.359027883224e-03
3.663996831824e-03
3.908074174929e-03
4.228433772035e-03
4.543227631705e-03
4.848753617487e-03
5.161467818816e-03
5.477271259315e-03
5.779376537801e-03
5.932061195851e-03
5.925336573631e-03
5.920984287690e-03
5.924407700450e-03
5.915528138253e-03
5.915864416857e-03
5.918097125373e-03
5.921994664725e-03
5.927387718192e-03
5.930449677587e-03
5.921712747723e-03
5.924515498722e-03
5.931743115084e-03
5.928847067526e-03
5.919544915052e-03
5.911436947506e-03
5.907167024861e-03
5.916691287179e-03
5.925466264875e-03
5.926352037367e-03
5.927462665334e-03
5.926179788313e-03
5.923807961778e-03
5.921183308973e-03
5.929039143344e-03
5.928617810733e-03
5.930983770204e-03
5.930261081197e-03
5.934897168252e-03
5.940412066918e-03
5.938845524631e-03
5.922011629466e-03
5.913355498151e-03
5.926067531878e-03
5.924785671548e-03
5.926499683681e-03
5.927876554226e-03
5.924703349372e-03
5.915717987273e-03
5.917408892843e-03
5.920280365368e-03
5.931958681328e-03
5.938110150403e-03
5.906803770761e-03
5.928713183383e-03
5.925023434437e-03
5.923453604397e-03
5.939442334280e-03
5.942268996102e-03
3.313640150810e-03
3.643609585951e-03
3.947542440608e-03
4.242858391353e-03
4.550358348147e-03
4.852089997296e-03
5.156894848885e-03
5.448757344777e-03
5.772918013305e-03
9.252120421735e-05
3.139570775492e-03
3.625369357501e-04
6.731817662417e-04
9.805698534578e-04
1.254524899220e-03
1.561406696237e-03
1.870015848719e-03
2.180014997265e-03
2.484591610966e-03
2.794888523211e-03
3.152046145680e-03
3.153038404569e-03
3.155025213965e-03
3.144475046257e-03
3.199485690567e-03
3.155029575277e-03
3.144205499861e-03
3.156818110250e-03
3.174756768148e-03
3.174273239546e-03
3.164951418416e-03
3.164603919994e-03
3.157869572751e-03
3.162750072104e-03
9.621576344535e-05
1.072789967255e-04
9.631852337865e-05
9.634646192600e-05
1.161697218308e-04
1.255618245921e-04
1.234927640208e-04
1.176143698925e-04
1.181040846591e-04
1.155364499888e-04
1.206715439587e-04
1.365993450730e-04
1.279414962217e-04
1.070815165248e-04
1.087456221067e-04
1.225517974272e-04
1.266454771602e-04
1.116507655708e-04
1.010315185057e-04
2.292941970270e-04
5.236807730249e-04
8.235808296833e-04
1.134523506932e-03
1.423638051930e-03
1.725266219408e-03
2.028413709058e-03
2.331155750867e-03
2.639083122008e-03
2.951867905100e-03
7.103606478164e-04
5.814911313878e-03
2.047918518275e-04
1.970502068753e-04
5.819197632046e-03
1.328946267278e-03
3.191329080053e-03
5.810273490245e-03
1.892382905539e-03
5.822030968612e-03
2.522985579042e-03
5.833950524206e-03
1.864247367510e-04
5.824179591591e-03
3.155514371104e-03
1.957918245127e-03
4.023649944342e-03
5.811714724389e-03
5.825466270030e-03
5.824996473377e-03
5.797525205524e-03
5.833870913862e-03
3.279705906600e-03
3.278932509466e-03
3.299538154266e-03
4.392988308339e-03
5.825782847880e-03
1.875803799629e-04
2.130243859941e-04
4.990941270632e-03
3.266764248665e-03
1.027578116983e-03
5.770593586357e-03
5.837121425949e-03
5.820649096206e-03
5.802522940311e-03
5.827315517430e-03
2.124904197991e-04
3.271394634805e-03
5.775055632193e-03
5.005410343617e-03
2.049450714894e-04
2.556345996281e-03
5.876876022666e-03
1.638575426776e-03
1.018536859922e-03
2.209222523540e-03
2.829980156742e-03
3.757872655430e-04
3.812034731290e-03
5.879774981020e-03
2.000834389720e-04
5.582228690945e-03
3.282968380463e-03
3.405879163641e-03
3.554924991576e-03
3.706761369563e-03
3.858428676321e-03
3.994172834541e-03
3.835090176788e-03
4.124628089981e-03
3.963011153955e-03
4.154617485841e-03
4.253890367715e-03
4.090560016023e-03
4.382096032079e-03
4.218726563058e-03
3.929419603329e-03
4.056695462337e-03
3.767499058174e-03
3.894823734663e-03
4.184913419616e-03
4.022005877425e-03
3.732190171091e-03
3.858313833382e-03
3.569562641982e-03
3.695377336778e-03
3.406514106271e-03
3.532562577704e-03
3.821712444258e-03
3.658737601044e-03
3.369644961438e-03
3.495886750392e-03
3.207187652528e-03
3.332149617847e-03
3.621982769517e-03
3.458496973122e-03
3.166845774337e-03
3.294707675905e-03
3.002130027116e-03
3.131260622861e-03
2.837304896117e-03
2.965670032421e-03
3.259556182238e-03
3.094478366317e-03
2.799648397582e-03
2.927396624230e-03
3.222929756525e-03
3.055408384458e-03
3.351641860097e-03
3.184131490321e-03
2.889094859221e-03
3.017387565719e-03
3.312807633971e-03
3.144807155985e-03
2.850539984923e-03
2.978148191045e-03
3.273453875391e-03
3.105701933788e-03
2.811118638057e-03
2.939152856274e-03
3.235930558971e-03
3.066878938369e-03
2.770729598448e-03
2.897992444106e-03
3.196676201024e-03
3.025458962526e-03
3.326539777395e-03
2.725836099392e-03
2.853445082624e-03
2.552546008883e-03
2.681203652164e-03
3.749361599789e-03
2.379164116958e-03
2.254416588919e-03
2.509143601858e-03
2.813194765712e-03
2.206243071564e-03
2.337199456257e-03
2.035089294135e-03
2.704627779472e-03
4.313057656759e-03
2.166880539926e-03
1.864421071359e-03
1.732868546084e-03
1.561342170473e-03
4.024498791055e-03
4.321449536869e-03
4.179690524696e-03
4.487558501959e-03
4.351378253477e-03
1.692293086120e-03
4.547507496043e-03
4.620310667296e-03
3.444574795783e-03
3.081228819560e-03
3.519317618785e-03
2.468789982299e-03
2.300880945692e-03
2.604574973058e-03
3.497581244636e-03
3.628764160508e-03
3.799698635942e-03
3.931379681523e-03
4.102448612732e-03
4.234588908537e-03
4.063072780301e-03
4.366751221426e-03
4.194735028229e-03
4.405545622725e-03
4.273365102485e-03
4.498318737704e-03
4.326379418243e-03
4.629602997623e-03
4.457503609016e-03
4.153929470569e-03
4.284864263683e-03
3.982884066866e-03
3.648745610141e-03
3.817193794493e-03
3.946719407469e-03
4.115926409861e-03
4.245574739592e-03
4.415539763342e-03
4.544399560802e-03
4.375426891281e-03
4.509920023172e-03
2.632653377112e-03
2.504948411976e-03
2.338614636793e-03
2.211400256376e-03
2.045332097660e-03
1.919061142858e-03
1.752635209565e-03
1.878513981748e-03
1.584910331352e-03
1.710339413602e-03
1.415942396810e-03
1.540924270131e-03
3.948384266438e-03
4.285218450736e-03
4.585788453075e-03
4.452548000313e-03
1.432045145505e-03
4.588120534622e-03
4.576656745919e-03
4.442906503729e-03
4.675416510747e-03
1.391840176144e-03
1.627976054007e-03
1.791438559949e-03
4.652375729059e-03
4.515073750359e-03
4.747734229222e-03
1.522378979602e-03
4.671085369189e-03
1.291851135584e-03
4.415253925120e-03
4.718848314432e-03
3.891705484867e-03
4.754278458359e-03
4.616084921715e-03
1.839848146906e-03
1.672605894671e-03
1.378135101855e-03
1.515420670763e-03
1.805900116599e-03
1.632448232839e-03
1.332653763525e-03
1.460848178870e-03
1.759405537371e-03
1.587950129179e-03
1.285510927899e-03
1.415480434626e-03
4.891516996896e-03
1.121510096864e-03
3.641366942474e-03
4.879243427220e-03
4.841045972056e-03
4.817221487039e-03
4.680859314151e-03
4.376749942028e-03
4.546436710308e-03
4.850021688501e-03
4.714841530376e-03
4.411085338888e-03
4.576823668989e-03
4.271643822444e-03
4.438121527056e-03
4.742306724662e-03
4.605607762388e-03
4.302170490177e-03
4.468415119196e-03
4.164526586705e-03
4.326213013675e-03
4.634793358128e-03
1.226849014185e-03
4.506378239639e-03
4.809738295993e-03
2.453146888506e-03
2.728545033659e-03
2.907124081246e-03
3.043059147020e-03
4.493803980505e-03
4.803851567309e-03
1.501869364537e-03
1.664240495932e-03
4.952759396910e-03
4.548949919363e-03
4.244032685451e-03
2.918967585879e-03
2.792586959038e-03
2.629168594188e-03
2.499093692646e-03
2.668968419875e-03
2.332626947432e-03
4.138292167915e-03
4.909939925648e-03
1.603914124137e-03
1.302913386403e-03
4.855203702972e-03
4.205737706829e-03
4.111791117138e-03
4.239349827017e-03
4.404279031402e-03
4.532163345971e-03
4.698797086860e-03
4.826101189867e-03
4.663500232458e-03
4.917627217648e-03
4.959771601570e-03
4.174662190372e-03
4.151213148999e-03
1.888480938751e-03
1.096487228567e-03
1.112867725487e-03
1.347315636886e-03
1.652113615696e-03
5.051413102721e-03
4.995155339568e-03
4.862932033425e-03
2.379373966366e-03
2.546273267234e-03
5.051913667086e-03
4.046495241743e-03
4.106805891897e-03
3.964719198022e-03
1.001701890259e-03
9.814910827123e-04
5.018736248123e-03
1.953490702354e-03
1.826326942528e-03
1.000603477325e-03
8.270248169060e-04
4.649062039121e-03
4.959360782526e-03
3.209003612840e-03
3.344763241722e-03
4.919412739713e-03
1.246851632543e-03
5.108760944893e-03
4.338688324758e-03
4.036566623443e-03
2.862194265683e-03
1.379647792169e-03
1.216950747748e-03
2.058445277619e-03
1.544704251302e-03
1.478187698947e-03
5.222097844678e-03
5.150166074507e-03
4.796698922504e-03
4.498570299624e-03
5.089656245451e-03
9.457015925929e-04
5.189931181500e-03
4.686738709316e-03
5.150549732461e-03
5.027069730600e-03
2.114316632001e-03
1.991901980435e-03
1.705778784395e-03
1.877221421128e-03
3.675799238899e-03
2.280051155843e-03
3.479503618634e-03
3.353779208918e-03
3.194968393760e-03
2.831556800728e-03
2.708824037533e-03
2.375496384323e-03
3.686936591630e-03
3.078073203987e-03
3.851596386181e-03
3.667740788258e-03
5.044158210038e-03
5.215830386065e-03
3.998289725651e-03
3.853491964182e-03
1.131663708096e-03
1.005870343686e-03
3.457686078413e-03
5.011327749084e-03
5.115127262102e-03
5.250667570774e-03
5.084339547061e-03
5.085185550635e-03
2.466333230067e-03
3.777777636612e-03
9.588302078742e-04
3.912004250684e-03
8.314503266492e-04
4.475699055473e-03
4.989278594651e-03
5.157849786266e-03
5.214381496867e-03
3.266010047436e-03
4.041180497852e-03
3.878621153168e-03
3.070483235828e-03
2.913482248638e-03
3.035157386404e-03
2.755770959431e-03
2.184615498058e-03
2.013559352505e-03
5.319773126116e-03
5.255640298353e-03
5.321605394694e-03
5.197016645099e-03
5.342046142709e-03
5.180952194182e-03
1.777196002727e-03
2.427249311879e-03
5.314454420742e-03
3.225902650504e-03
5.312357786981e-03
5.147322410379e-03
6.540445478406e-04
7.723794913411e-04
5.277227190096e-03
1.587049601255e-03
1.745337399366e-03
1.421339300996e-03
5.610035015994e-03
3.257775872683e-03
5.289370763037e-03
2.995256057925e-03
5.420258365801e-03
4.174507003320e-03
2.750543209626e-03
4.785821545600e-03
5.111095174845e-03
5.457139877325e-03
3.797889722827e-03
3.646479732755e-03
3.931549897695e-03
1.164427047641e-03
8.448239735481e-04
5.077361997568e-03
2.130717764018e-03
2.299994958429e-03
1.365911109574e-03
1.662041853713e-03
3.380077755549e-03
3.249013876936e-03
4.605823304079e-03
4.769919328613e-03
4.276226867883e-03
4.169358572453e-03
3.867935193715e-03
3.737504250769e-03
5.341787835815e-03
5.553309217008e-03
2.353647089942e-03
2.227016294383e-03
2.307076216506e-03
5.450349556697e-03
5.463341176944e-03
5.325739410321e-03
7.148670898350e-04
8.870883348093e-04
1.101873869960e-03
9.316626042024e-04
5.373764850267e-03
5.221517258001e-03
5.572702457976e-03
1.582372335378e-03
4.632172669378e-03
5.375893312072e-03
5.254154539084e-03
5.559534277686e-03
5.076810545238e-03
5.365925183894e-03
5.378240200423e-03
5.392140300883e-04
5.334646512646e-03
3.675752576569e-03
3.994140177195e-04
3.535833562514e-03
3.716995656290e-03
3.370679194070e-03
1.282169154075e-03
3.567296707678e-03
3.765939256375e-03
5.126327859221e-04
5.605887865963e-03
5.560267422025e-04
6.660332016854e-04
5.449756143397e-03
5.274590684749e-03
5.572244234081e-03
5.392478454778e-03
5.099677131758e-03
5.238383322143e-03
3.509567093749e-03
5.572364392840e-03
5.374148307929e-03
5.737141131835e-03
2.638726436383e-03
2.039901378839e-03
1.905448348708e-03
1.617406521166e-03
5.530794330127e-03
5.348359015461e-03
4.829734702657e-03
4.521447046327e-03
3.557349194756e-03
3.532569652196e-03
3.813584889459e-03
3.767894522616e-03
4.058668074403e-03
4.012436085661e-03
4.295379223318e-03
5.556472121404e-03
1.300890945793e-03
2.946721722792e-03
5.471988497704e-03
5.293800497184e-03
2.587723201717e-03
2.314665718403e-03
5.537328889683e-03
2.406283520918e-03
5.792762283983e-03
1.858040090612e-04
4.857765212983e-04
2.573038789786e-03
2.873030274745e-03
2.199216706967e-03
2.091680435174e-03
4.476442988489e-03
7.504877515353e-04
1.263024816417e-03
4.334362747608e-03
9.849535248275e-04
4.679903303412e-03
2.540562741112e-03
3.118474233540e-03
1.542099058054e-03
2.168158947901e-03
3.802386178974e-03
3.549362578402e-03
3.391116114852e-03
2.670946485909e-03
2.260803135557e-03
1.949223813238e-03
3.605674145861e-03
4.919767447334e-03
5.053137848748e-03
5.341032503506e-03
5.187217989567e-03
4.888560595270e-03
5.017653317247e-03
5.314535410036e-03
5.156798542278e-03
5.508315270460e-03
5.286399283860e-03
4.980351695302e-03
5.106165886697e-03
5.394021959470e-03
4.807746362982e-03
5.628111934766e-03
2.871243858978e-03
6.965101933153e-04
6.551789095587e-04
3.282360146456e-03
5.809860564826e-03
5.821157866103e-03
2.082528349660e-03
5.819524766679e-03
3.515099545658e-03
1.460932159611e-03
5.821354656771e-03
4.753391499877e-03
4.585238946775e-03
4.452711673430e-03
5.831503303158e-03
4.073161563167e-03
5.837134571400e-03
3.985700881929e-03
3.851791908228e-03
3.554575317506e-03
4.847344029507e-03
5.817888275316e-03
5.575635814432e-03
5.571525256645e-03
5.311966086722e-03
5.819541179728e-03
5.830698806893e-03
5.838402623043e-03
1.930986719212e-03
2.101024040918e-03
2.394475490464e-03
2.266384359489e-03
1.970817861414e-03
2.136867911929e-03
2.431134490451e-03
2.006483688020e-03
5.062450549600e-03
5.830124137920e-03
3.970119493304e-03
3.835301643933e-03
3.534841884466e-03
2.946573758729e-03
3.117318954907e-03
3.419825569632e-03
2.776365598311e-03
4.367919564162e-03
5.827346570942e-03
3.906600699280e-03
2.984402664609e-03
3.276820545210e-03
3.539493379070e-03
3.549133742473e-03
3.824596042644e-03
3.567726925698e-03
3.513236360802e-03
3.646056828441e-03
3.479442829320e-03
3.776440321699e-03
3.600754084134e-03
3.319682840169e-03
3.899235541114e-03
3.712790048005e-03
3.270946734921e-03
2.113632266740e-04
4.663590485079e-04
4.566049970039e-04
7.156745567248e-04
7.373279452377e-04
1.003154234088e-03
9.722585000682e-04
4.717549759512e-04
2.060508248568e-04
4.540770013058e-04
2.016183866916e-04
4.467968440684e-04
7.550412036772e-04
1.182852220765e-03
5.788845613533e-03
2.859709310104e-03
2.724978007808e-03
2.413348020450e-03
2.580932184492e-03
2.979254934651e-03
2.254988964791e-03
2.151777952318e-03
2.124248935492e-04
4.645380525494e-04
4.620287622044e-04
7.358870940255e-04
7.228556758076e-04
4.637229493946e-04
4.638167508819e-04
2.058552859172e-04
4.611112548754e-04
7.280621305049e-04
1.906731245643e-04
4.704546691336e-03
4.866377932286e-03
5.817051415440e-03
3.306461396406e-03
2.060812032613e-04
5.781234699132e-03
5.822288119502e-03
5.823020880710e-03
5.305314190989e-03
5.454685450902e-03
5.787205338867e-03
1.904164271810e-03
5.481003932717e-03
5.244910374536e-03
1.337919885917e-03
1.840104844977e-03
4.380249884781e-03
4.023192351168e-03
5.022936148851e-03
4.114296708412e-03
4.760794110997e-03
5.555554324813e-03
1.179594138024e-03
4.131571153262e-03
4.020912679793e-03
4.773210184270e-03
1.997971753623e-03
3.186209854797e-03
1.264320056221e-03
5.581499467917e-03
3.319123411055e-03
3.366608306896e-03
2.641689808122e-03
2.077782102881e-03
1.716997042932e-03
3.042088607286e-03
3.155408692379e-03
4.538280633475e-03
4.941818270038e-03
2.600596271961e-04
4.708539861147e-03
3.760089428882e-03
4.244105085551e-03
4.715328609436e-03
1.167410736667e-03
4.880974533881e-03
5.403313920794e-03
3.898336749169e-03
9.671126416542e-04
3.824252090180e-03
5.351558397039e-03
4.786917829570e-03
1.824211420534e-03
3.480609807162e-03
3.243878701939e-03
2.980785244645e-03
5.375575519212e-03
3.585995865997e-03
4.980015277353e-03
4.076017659109e-03
1.959475074490e-03
4.975844888607e-03
3.389984283037e-03
5.185084528177e-03
4.569389381663e-03
2.760527645323e-03
4.981119205122e-03
3.402542523838e-03
4.886475886782e-03
3.158193069385e-03
3.984904577625e-03
4.346595079122e-03
3.785347613028e-03
4.212795144998e-03
4.843183184598e-03
1.250416126476e-03
2.458873987470e-03
4.209667670053e-03
5.115121627223e-03
5.486043343848e-03
2.956453768341e-03
4.801040750307e-03
5.276018678210e-03
3.287319671934e-03
1.360173557846e-03
1.054118268605e-03
2.172491032492e-03
3.423285296841e-03
3.589532674148e-03
5.552240847616e-03
4.931191158355e-03
4.613419327886e-03
5.464000382780e-04
3.101627176124e-03
5.063754079328e-03
3.609293720743e-03
5.009794558603e-03
3.416052821845e-03
5.575482653537e-03
2.475536180774e-03
5.206362114330e-03
4.647615435026e-03
2.244695150429e-03
3.268136202907e-03
5.555008699614e-03
4.952886856145e-03
4.075675641162e-03
3.440761170649e-03
2.670689667684e-03
3.721275175177e-03
4.148714793035e-03
5.835319629331e-03
5.106135759620e-03
4.284472671237e-03
3.550391241370e-03
4.312448323242e-03
7.156855192344e-04
2.792869111198e-03
3.682084945283e-03
2.301558692687e-03
3.569870679035e-03
5.507448749153e-03
3.814302881920e-03
2.595277141504e-03
3.945212643466e-03
2.359824458181e-03
4.418520852231e-03
4.072359630917e-03
4.440337999663e-03
7.757686492747e-04
4.203718467632e-03
5.137853672774e-03
2.428401079217e-03
3.700926420415e-03
4.718919712422e-03
2.045517196664e-03
4.001751556342e-03
4.734200010830e-03
4.335389309684e-03
3.717467635181e-03
4.306468150559e-03
2.158315669710e-03
1.778111948175e-03
1.480789573342e-03
2.723576269686e-03
4.901358873080e-03
9.907929562044e-04
4.678560104240e-03
1.061568277770e-03
2.558752785224e-03
4.777870338073e-03
4.115757970203e-03
2.685651994210e-03
1.661993244650e-03
2.519680303368e-03
4.012449715584e-03
2.645863061595e-03
2.477781824869e-03
5.552773111686e-03
2.601556434606e-03
5.832588277671e-03
5.807498199142e-03
3.510356051034e-03
1.737451315662e-03
2.405479085723e-04
1.829108936978e-03
2.134121346790e-03
4.639057668376e-03
3.513173410346e-03
1.958554503757e-03
5.579740788869e-03
5.830554327362e-03
4.549382429434e-03
5.128190593651e-03
4.477241356342e-03
5.275457844279e-03
3.249070074697e-03
4.477567605621e-04
4.366937944895e-03
1.414652943865e-03
1.454830351756e-03
1.141526190888e-03
2.071482774289e-03
7.048676555723e-04
1.168371653296e-03
5.554008919411e-03
3.515193931760e-03
4.930134979138e-03
8.572356047719e-04
5.572156000341e-03
5.569776879399e-03
5.838339516943e-03
5.230953075188e-03
8.277135440664e-04
3.767849181542e-03
5.583236268413e-03
4.792801184414e-03
5.849741729017e-03
3.467504393821e-03
5.585086652784e-03
1.085481836247e-03
5.581941862217e-03
4.937207249790e-03
3.891365713394e-03
3.752927955089e-03
5.593723576573e-03
5.582903556172e-03
6.530334131598e-04
4.532821262706e-03
2.586505146794e-03
4.309456059287e-04
5.577341518437e-03
5.218037136217e-03
5.584899765061e-03
7.371716874996e-04
4.403063957912e-04
5.630357557198e-03
5.612012503027e-03
1.230585207076e-03
5.884366405666e-03
4.092504687394e-04
3.203199811466e-03
4.370733977465e-04
5.843994283019e-03
5.604234858727e-03
2.845335710463e-03
3.286444788878e-03
1.873211432721e-03
5.369777350956e-03
6.577588307218e-04
5.641946929749e-03
5.644321122625e-03
5.639466704751e-03
5.898898139880e-03
4.211607310232e-04
5.652386425481e-03
5.366048530729e-03
3.253953958084e-03
5.587679770307e-03
2.309938481824e-03
9.687550335974e-04
5.854893632795e-03
1.859115235788e-04
3.234858844656e-03
5.866847427828e-03
9.109470946294e-04
3.727440323860e-03
5.623149802079e-03
3.507013142730e-03
5.092976750137e-03
8.975669244278e-04
1.659950822664e-04
4.270563646727e-03
5.623311015092e-03
5.659663736694e-03
4.061400799491e-03
8.220481444569e-04
5.453937277557e-03
3.071062049363e-03
5.407469273276e-03
5.377966207611e-03
2.102243503154e-04
3.774256867795e-03
4.259532598859e-04
5.646002650817e-03
3.210355763876e-03

SCALARS node_materi_plasti_phimob float
LOOKUP_TABLE default
1.857262842792e+01
-2.854769965110e+01
2.063077991458e+01
1.724720234075e+01
-3.021443132489e+01
-4.416886366625e+00
5.880115962685e+00
1.177198728853e+01
1.522781582471e+01
1.731381000318e+01
1.879578724003e+01
1.987698542588e+01
2.062608031786e+01
2.118426425571e+01
2.157903532070e+01
2.171809158569e+01
2.173548480905e+01
2.175213439299e+01
2.166248587697e+01
2.151221473098e+01
2.132173461379e+01
2.109034026268e+01
2.084804788935e+01
1.732284565292e+01
1.731590127960e+01
1.735982294602e+01
1.741645922177e+01
1.744811476563e+01
1.757614428201e+01
1.770809735846e+01
1.790898175207e+01
1.815114088432e+01
1.842350740957e+01
1.868285311057e+01
1.910332371180e+01
1.949961528068e+01
2.002770777659e+01
2.037949123026e+01
2.080825684352e+01
2.110862275306e+01
2.136200429258e+01
2.160574122868e+01
2.176906164625e+01
2.186841947944e+01
2.186865998492e+01
2.187343230481e+01
2.182972192640e+01
2.175930390979e+01
2.167315626972e+01
2.159755709361e+01
2.150400840536e+01
2.141697722949e+01
2.129057920777e+01
2.124664079170e+01
2.117166972862e+01
2.108141036110e+01
2.101200760222e+01
2.095214657051e+01
2.088984741157e+01
2.084892349073e+01
2.080629646083e+01
2.077489830799e+01
2.075021947834e+01
2.070920986230e+01
2.067166609164e+01
2.065470764848e+01
2.069111693873e+01
2.062394427213e+01
2.063081185013e+01
2.060940646842e+01
2.060584773711e+01
2.060940988176e+01
-2.344271230324e+01
-1.098010315124e+01
-4.116885448328e-01
5.406423982492e+00
9.201206387658e+00
1.181689762785e+01
1.377286387566e+01
1.530047719303e+01
1.654409290906e+01
-2.830236301996e+01
6.434681231427e+00
-5.378207813928e+00
3.881241898181e+00
7.784470923265e+00
9.424223087655e+00
9.956196200109e+00
1.035636739673e+01
1.074619090417e+01
1.123555142370e+01
1.269175333232e+01
-2.940596276287e+01
-2.974368742386e+01
-2.981087374315e+01
-2.979109422827e+01
-2.805927988819e+01
-2.968945832533e+01
-2.974028834344e+01
-2.988934269309e+01
-2.974006354984e+01
-2.954482220218e+01
-2.846851626678e+01
-2.559518200016e+01
-1.882054936625e+01
-6.123665950359e+00
-2.981524434671e+01
-2.654977233173e+01
-2.596480032062e+01
-2.869584035397e+01
-3.353888346105e+01
-3.745450766329e+01
-4.164269051095e+01
-4.614663150727e+01
-5.071641295237e+01
-5.489174792613e+01
-5.792011472720e+01
-5.742217880268e+01
-5.851414956627e+01
-6.105080267249e+01
-6.066385808104e+01
-5.967261259738e+01
-9.225566441464e+00
4.094154250474e+01
4.038252402147e+01
-1.632694390513e+01
3.771947821087e-01
6.134336195328e+00
8.640374617959e+00
1.098855809698e+01
1.135984356549e+01
1.052936926349e+01
1.076549777143e+01
1.173386380463e+01
1.365110148824e+01
-1.235617930859e+00
2.142696959286e+01
-3.789594457322e+01
-2.950136996786e+01
2.109964617627e+01
7.300703774844e+00
2.141706306203e+01
2.176215218312e+01
1.020699521701e+01
2.195936825102e+01
1.152125477070e+01
2.088141385402e+01
-4.122939580638e+01
2.178886748205e+01
9.882942137275e+00
1.818631747035e+01
2.178297926372e+01
2.098739868262e+01
1.915531216280e+01
1.691074945101e+01
1.707389346567e+01
1.790431489350e+01
-7.460485972945e+00
-2.242306112091e+01
-2.324748639694e+01
7.507055247961e+00
2.082432543093e+01
-2.876191692184e+01
-3.878897554133e+01
2.142923409352e+01
-2.571487835015e+01
9.225827307275e+00
1.995491835593e+01
2.186241026005e+01
2.194965377633e+01
2.166326111388e+01
2.125679190487e+01
-3.171835600987e+01
-1.859727550041e+01
2.105732752137e+01
1.282992363977e+01
-3.962086309666e+01
2.030963945810e+01
1.699677594313e+01
8.958734040186e+00
4.498173676988e+00
1.069023552932e+01
1.225593572744e+01
-1.374609329944e+01
-4.113943572610e+00
2.075894810967e+01
-1.459335786598e+01
1.588853189541e+01
4.679695769395e+00
6.840137486053e+00
5.195594706324e+00
9.297444756949e+00
8.785824229351e+00
1.153632306354e+01
1.181409294713e+01
1.351515693059e+01
1.379040297994e+01
1.135258065069e+01
1.506002551990e+01
1.558882435699e+01
1.662301658023e+01
1.733482091392e+01
1.646943248174e+01
1.807550912584e+01
1.729805534004e+01
1.878872886909e+01
1.938329704066e+01
2.000459565742e+01
1.946204109090e+01
2.059817301176e+01
2.005286395476e+01
2.112699081184e+01
2.054430247045e+01
2.158574961116e+01
2.196935015775e+01
2.239331427224e+01
2.197288100567e+01
2.275021048002e+01
2.226979292795e+01
2.302215635885e+01
2.331413310745e+01
2.356072914487e+01
2.320184884221e+01
2.372623958633e+01
2.328167422190e+01
2.379391504139e+01
2.323094858713e+01
2.374456617634e+01
2.410818199002e+01
2.405876289621e+01
2.356619529704e+01
2.388985376107e+01
2.421991986565e+01
2.405852924201e+01
2.426019692462e+01
2.410655708986e+01
2.378503610430e+01
2.385127014320e+01
2.406231543925e+01
2.382634443955e+01
2.348928675277e+01
2.349423187444e+01
2.373590254383e+01
2.343346707075e+01
2.306432705170e+01
2.304724075811e+01
2.332808482706e+01
2.298356594813e+01
2.257028332665e+01
2.255949788926e+01
2.288972964745e+01
2.251572613816e+01
2.277393358655e+01
2.204991683017e+01
2.207240860571e+01
2.144888619477e+01
2.155277553134e+01
2.369638884114e+01
2.075462297477e+01
2.050621703617e+01
2.095782314686e+01
2.162683012910e+01
1.996663321039e+01
2.028153497203e+01
1.906977667607e+01
2.245325466119e+01
2.043040454596e+01
1.951722378223e+01
1.804700202832e+01
1.729953461232e+01
1.587174422317e+01
8.796726491569e+00
1.136457149779e+01
8.763441565524e+00
1.159916770633e+01
9.349681376545e+00
1.684128428159e+01
1.619852242682e+01
1.342382869364e+01
1.871389448384e+01
2.125398626475e+01
2.432006270556e+01
2.053353606313e+01
1.988380170998e+01
2.075869061015e+01
2.303817358017e+01
2.287001613494e+01
2.304238259716e+01
2.283718313248e+01
2.293173618327e+01
2.270282132025e+01
2.263410569642e+01
2.248051085587e+01
2.243691524364e+01
2.273101657105e+01
2.298323786342e+01
2.226674694432e+01
2.224735639245e+01
2.206212645585e+01
2.206671628099e+01
2.219896742226e+01
2.204775522148e+01
2.212465120839e+01
2.427026067905e+01
2.425445730170e+01
2.413845297500e+01
2.406361801549e+01
2.389715343327e+01
2.377751184142e+01
2.357120316025e+01
2.368253424978e+01
1.816284075683e+01
2.325046855640e+01
2.269682113529e+01
2.217768223641e+01
2.128951083247e+01
2.048216058650e+01
1.910207024470e+01
1.786147561859e+01
1.940511840762e+01
1.623554849432e+01
1.800198766980e+01
1.415099442450e+01
1.620880152852e+01
2.261039389853e+01
2.393291597646e+01
2.360848931840e+01
2.375184842043e+01
1.467487247092e+01
2.189698943930e+01
2.271981554322e+01
2.298950364713e+01
2.332435394088e+01
1.419438021921e+01
1.577767463611e+01
1.720612633922e+01
1.204129160907e+01
1.013632461030e+01
2.266618470732e+01
1.542845580553e+01
2.225489905017e+01
1.138586705648e+01
2.190485541538e+01
2.174211254102e+01
2.252582600405e+01
2.340287298574e+01
2.352591562900e+01
1.928610045008e+01
1.776105270785e+01
1.406956608758e+01
1.591178197039e+01
1.894481050500e+01
1.729268290657e+01
1.360181573476e+01
1.530892214326e+01
1.835686072723e+01
1.667598869920e+01
1.280455325063e+01
1.464194602261e+01
2.169243788384e+01
8.126508781940e+00
1.549548316519e+01
2.239217360941e+01
2.317349067085e+01
1.264615590260e+01
1.107716142948e+01
7.954541506327e+00
9.368982425357e+00
1.208187941107e+01
1.070836040638e+01
7.519245039065e+00
9.238147185192e+00
5.469969854178e+00
7.640802629667e+00
1.073712085753e+01
9.462795856260e+00
5.861084921177e+00
8.039462520841e+00
3.754421757351e+00
6.363943231269e+00
9.826081835208e+00
1.215587723218e+01
2.343291159058e+01
2.304854454885e+01
2.025325898004e+01
2.094857259077e+01
2.135476210738e+01
2.142195727804e+01
8.449394627137e+00
1.132646668082e+01
1.304502289462e+01
1.468987976236e+01
1.405921708910e+01
2.177660561835e+01
2.189332009546e+01
2.144723464692e+01
2.008233346915e+01
2.010951712968e+01
1.820516290834e+01
1.831088678044e+01
1.797259215934e+01
2.323902643951e+01
1.205653546147e+01
1.638349099391e+01
1.313682165542e+01
2.160874967784e+01
2.374825404088e+01
2.218190349684e+01
2.269038174188e+01
2.228269752075e+01
2.267567835014e+01
2.230688759712e+01
2.259487751172e+01
2.292349469653e+01
2.316595817976e+01
2.275019392039e+01
4.243832073589e+00
2.402716400761e+01
1.917489306931e+01
1.019567434475e+01
9.693479412554e+00
1.369887365966e+01
1.643503951373e+01
2.228766536304e+01
2.227886476152e+01
2.194156932415e+01
1.591813344437e+01
1.615341063509e+01
2.297974612398e+01
5.562372504370e+00
2.866751341716e+00
-2.945412249518e-01
8.761708696609e+00
6.825247657361e+00
1.306070355104e+01
1.824264982423e+01
1.591235901691e+01
3.978874445367e+00
-5.595135715753e-01
1.011278304112e+01
1.252541033500e+01
2.170655973089e+01
2.173176620599e+01
2.257097315205e+01
1.217528982796e+01
1.343399902991e+01
2.350154237140e+01
2.375942819836e+01
2.103908515383e+01
9.655639991594e+00
7.120938160600e+00
2.037997373111e+01
1.605811673742e+01
1.499148510138e+01
2.215316528214e+01
1.412031059334e+01
2.303449727049e+01
2.325383471645e+01
2.275943268643e+01
5.768272608608e+00
2.201408291788e+01
2.166800661002e+01
2.197478877508e+01
2.160127654571e+01
1.898995925910e+01
1.684300330487e+01
1.299479166809e+01
1.408358857026e+01
1.234741116957e+01
1.953661707286e+01
1.637513712764e+01
1.442691333062e+01
1.520324771600e+01
1.822270002389e+01
1.617513012713e+01
2.186553942962e+01
2.429521598212e+01
2.170586173436e+01
2.224833717495e+01
2.324258908294e+01
1.302969838669e+01
1.404632612426e+01
3.715134127622e-01
-3.235008205872e+00
1.053702165543e+01
7.953989107245e+00
2.264689883276e+01
2.213038174928e+01
1.454276337903e+01
1.565164963834e+01
1.529964315636e+01
2.244495045986e+01
2.278020634598e+01
2.414894193956e+01
4.196503812606e+00
2.341196383723e+01
3.664439557435e+00
1.989606098320e+01
2.147233410000e+01
2.138791307888e+01
2.274551403605e+01
8.961469890675e+00
2.367644909352e+01
2.392401526994e+01
1.321291666092e+01
1.367519167842e+01
1.571135543790e+01
1.385311156505e+01
2.081474020777e+01
1.977448568596e+01
2.220301651367e+01
2.254379000377e+01
2.176804486536e+01
2.129823997707e+01
2.251023843249e+01
2.276037229345e+01
1.727162679617e+01
1.367687397617e+01
1.486871780934e+01
1.234674121380e+01
2.174090968693e+01
2.187691683637e+01
-6.390465999264e+00
-1.021466222199e+00
1.438440776118e+01
9.590691473735e+00
1.074336452839e+01
8.025639379448e+00
2.094886258056e+01
-2.588134090727e+01
2.123112372619e+01
1.798583609414e+01
1.509857191369e+01
2.380725609612e+01
2.149392433533e+01
2.286312962799e+01
1.347811684222e+01
1.525736355783e+01
-4.647313265121e+00
-9.846834922031e+00
-4.522665648164e-01
7.717792783728e+00
-1.881921078340e+00
1.320190887067e+01
1.917853658367e+01
1.975558105756e+01
1.394439090110e+01
1.707404282591e+01
2.197175257771e+01
2.201890635519e+01
2.077872392050e+01
2.034347332046e+01
2.172476057557e+01
2.351664002033e+01
2.371084447369e+01
2.391669534889e+01
1.481806787058e+01
1.576144156320e+01
2.169272433279e+01
2.138865374745e+01
2.110917630134e+01
1.573511659117e+01
2.114705707628e+01
2.128861914997e+01
-1.030019280309e+00
4.430241038351e+00
3.115593017508e+00
-3.989126231461e-01
1.663327542176e+01
1.639719832282e+01
1.705455072747e+01
1.585132230922e+01
2.332382929442e+01
2.198883551816e+01
2.233021342563e+01
2.164649351960e+01
2.293155682806e+01
2.251225289507e+01
2.241523139086e+01
-1.382790065123e+01
1.476213253872e+01
-9.531097886115e+00
-2.133267671443e+01
-1.493365391071e+01
-8.015347843108e+00
-2.065059148714e+01
1.294295428612e+01
-1.051071193928e+01
-3.543244881603e+00
-1.099128695822e+01
1.634914939243e+01
-8.370225826430e+00
-1.952988491650e+00
2.150464619736e+01
2.164226273608e+01
2.129299726496e+01
2.142145833408e+01
2.174333984147e+01
2.153411300374e+01
-1.570829035112e+01
2.117017560911e+01
2.131765369805e+01
2.102524521860e+01
1.180980830665e+01
1.490138491808e+01
1.170987200800e+01
7.839416608946e+00
2.160292086787e+01
2.107956458043e+01
2.155048186726e+01
2.170372781263e+01
-1.445427949308e+01
-1.541334132490e+01
-4.268006952762e+00
-5.521272148038e+00
2.006381922751e+00
1.144374466558e+00
6.141071192552e+00
2.223781299020e+01
5.086642125912e+00
1.161620478130e+01
2.226521520389e+01
2.253957454884e+01
1.378730486531e+01
1.113284938077e+01
2.153979648928e+01
2.108295813445e+01
1.738104239216e+01
-2.836929463813e+01
-1.696046996606e+01
2.135425827466e+01
1.601835815817e+01
1.541440002815e+01
1.274010477390e+01
2.323623359909e+01
1.739324185872e-01
5.964932828082e+00
6.512228783588e+00
1.648523193183e-01
2.160221530345e+01
2.223979406722e+01
1.962439491054e+01
1.156861382550e+01
1.755590944872e+01
1.452533521196e+01
9.882341478583e+00
1.106614796153e+01
2.303861252856e+01
1.328519756669e+01
9.811289134420e+00
1.806194069117e+01
1.505234193639e+01
1.621679439553e+01
1.733399322071e+01
1.720029020639e+01
1.613630132023e+01
1.717823897364e+01
1.831131955590e+01
1.840701716451e+01
1.970007290131e+01
1.961799716540e+01
1.865478753247e+01
1.975190757466e+01
2.047280528205e+01
1.897791482389e+01
2.197966280830e+01
2.251684519794e+01
-6.422438532030e+00
-9.175247256396e+00
1.923545604308e+01
2.065466902295e+01
1.955736812921e+01
2.001338498376e+01
2.187671247528e+01
1.337125786376e+01
1.386040087316e+01
2.196175429320e+01
1.491078528520e+01
1.486882841848e+01
1.331578364304e+01
1.866918809434e+01
3.372908414785e+00
2.178304101597e+01
2.417122024571e+01
2.419429972618e+01
2.423676179242e+01
1.729493895145e+01
2.152180476625e+01
2.196728759332e+01
2.186155621058e+01
2.240301631488e+01
2.135371553969e+01
2.138367790115e+01
2.163807232467e+01
1.977304395675e+01
2.093433164946e+01
2.221003936661e+01
2.185621165454e+01
2.025371643839e+01
2.130642406022e+01
2.259268271783e+01
2.051427018655e+01
2.071912219206e+01
2.120143921468e+01
2.316438649986e+01
2.339128383522e+01
2.343065642802e+01
2.167793630486e+01
2.205239664844e+01
2.228837286092e+01
2.125229165809e+01
2.304225514745e+01
2.113636663756e+01
2.397363515130e+01
2.207081119998e+01
-1.394720885601e+01
-3.194946609944e+00
1.205625145560e+00
4.280489071282e+00
-6.092120657835e+00
2.193297971390e+01
2.189625331073e+01
2.174403818335e+01
2.185124632833e+01
2.173377762267e+01
2.155606441991e+01
2.179868761675e+01
2.173323360362e+01
-2.082461472109e+01
-3.007686448100e+01
-1.386233559408e+01
-1.403208794540e+01
-1.527540597320e+00
-1.053648985864e+00
7.092928144567e+00
5.913697268715e+00
-1.441117428678e+01
-3.380765163614e+01
-1.392339740798e+01
-3.595546179863e+01
-1.414088598189e+01
1.574600312896e-01
1.127144149000e+01
2.084809445951e+01
2.094501622853e+01
2.072742345334e+01
1.996324474080e+01
2.044517593490e+01
2.120281403851e+01
1.942670206044e+01
1.903680593187e+01
-1.354936182097e+01
-1.069854856064e+01
-1.253307476599e+01
2.153669411882e+00
1.812037001331e+00
-1.073688497744e+01
-1.100551055764e+01
-3.938307242651e+01
-1.162526309143e+01
1.844907779489e+00
-4.077078544716e+01
1.063487465743e+01
1.194862536385e+01
2.106469759479e+01
-2.224832280846e+01
-3.893115564564e+01
1.665692408812e+01
1.704568318230e+01
1.697887774236e+01
2.121080954534e+01
2.109514431358e+01
1.666500042007e+01
1.851496446041e+01
1.834386106034e+01
1.420845468205e+01
1.082631043418e+01
1.854615689087e+01
2.179402305071e+01
2.235875901836e+01
2.153933416475e+01
2.200755615408e+01
2.186886715004e+01
2.182259805921e+01
1.156323290963e+01
3.123366988846e+00
1.100987156459e+00
1.099936448926e+01
1.866829786197e+01
2.150965227762e+01
1.265892153069e+01
2.202301706417e+01
1.707763502636e+01
2.319383924532e+01
2.111799382424e+01
1.957456657311e+01
1.775375174313e+01
2.245478312893e+01
2.245212555445e+01
2.248838141677e+01
1.231346127155e+01
-3.560795924420e+01
2.245871641568e+01
2.269732345443e+01
5.557798369233e+00
2.341627815383e+01
1.062561306518e+01
1.192913013796e+01
1.602738809516e+01
1.385090300145e+00
7.318359632527e+00
-4.307715313584e+00
2.184042590459e+01
1.367024804375e+01
1.763292240635e+01
2.420875135226e+01
2.094527861709e+01
1.223302594437e+01
1.490938707945e+01
2.391182845499e+01
2.290585345043e+01
2.396462119057e+01
1.830389441620e+01
2.197122623443e+01
2.427557768422e+01
1.397506963944e+01
2.186677878912e+01
2.359726592826e+01
1.335527483434e+01
2.359822772232e+01
2.321728260581e+01
1.761347061135e+01
2.149605374794e+01
1.875928717396e+01
2.299321624384e+01
2.179302763132e+01
2.221011459010e+01
1.155394445068e+01
1.994108730161e+01
6.603125894425e+00
2.246896258636e+01
1.558314702667e+01
1.992182181376e+01
2.203084945605e+01
1.510365873987e+01
2.237447753516e+01
1.393112909578e+01
3.938174291890e+00
2.145953027288e+01
2.405569815454e+01
2.251383931161e+01
1.779339402458e+01
2.181698023300e+01
2.294785900481e+01
-6.377549628692e+00
1.079807095688e+01
2.162002283118e+01
2.408846543362e+01
2.299602296313e+01
2.157708587802e+01
2.210687507108e+01
1.149830105327e+01
2.145361264457e+01
2.316461194480e+01
2.065658601162e+01
-2.575495133338e+01
2.112370483600e+01
2.274766931052e+01
2.307256776667e+01
2.395127960399e+01
1.191139652251e+01
2.237928748764e+01
2.097562593455e+01
1.823712266950e+01
2.259846587808e+01
1.335086178836e+01
2.219567803544e+01
2.382822989195e+01
1.629721747453e+00
1.188109644648e+01
2.210731780679e+01
2.213976015909e+01
2.379332763403e+01
2.231373117252e+01
2.202387538341e+01
2.316855169171e+01
2.194244533484e+01
1.103771756386e+01
1.492183172397e+01
2.185611726145e+01
2.124824413480e+01
2.272796373367e+00
2.337881843660e+01
2.133820921058e+01
2.130878248210e+01
2.360453504752e+01
1.611931151001e+01
1.015169854432e+01
2.348343896697e+01
2.145250149566e+01
2.354650283900e+01
2.411581323638e+01
2.326163695106e+01
1.079180102287e+01
1.784911699015e+01
1.528799205885e+01
2.339215081188e+01
2.105288920387e+01
8.580517947481e+00
1.763470858024e+01
8.846778785999e+00
2.286927137733e+01
2.328273408996e+01
3.203755893010e+00
2.301448657749e+01
1.648301620632e+01
2.242122680800e+01
2.402781360052e+01
2.253289305567e+01
2.188334090003e+01
1.571636373862e+01
2.199273871134e+01
1.682169936311e+01
2.080680646152e+01
-1.659628937674e+01
1.019796652622e+01
-2.749886197732e+01
9.357482002902e+00
2.019810939712e+01
1.939873435016e+01
-1.628195930267e+01
1.911530022226e+01
2.057590371092e+01
2.189460949932e+01
9.198670371926e+00
2.271956937968e+01
2.358905485347e+01
1.445014483853e+01
-2.535756910554e+01
-1.392852056998e+01
2.172426336872e+01
8.919798355804e+00
6.572581249782e+00
3.032633677059e+00
1.882095601204e+01
-1.496380392599e+00
6.063507094646e+00
2.205298279415e+01
-1.352708212360e+01
2.303027526048e+01
2.052391270463e+00
1.652950761245e+01
2.225544849437e+01
2.094063032012e+01
2.268352311716e+01
-3.820710317387e+00
8.333204936240e-01
2.189342141948e+01
1.130942227385e+01
2.084002749821e+01
-1.140656477053e+01
1.588025355788e+01
8.515207953481e+00
1.590436262731e+01
1.999211600854e+01
-2.083951317602e+00
5.849367860033e+00
2.096838939915e+01
1.942626433862e+01
-9.151424707317e+00
9.000468176949e+00
2.057307779330e+01
-1.803448913002e+01
2.138660934945e+01
2.052539375435e+01
2.105156571491e+01
1.958835140766e+00
-1.505104075038e+01
2.147400401047e+01
2.135609381953e+01
1.150267045475e+01
1.759242309358e+01
-1.851206060887e+01
-2.567278207794e+01
-1.381505334477e+01
2.080711562804e+01
1.609320234373e+01
2.099381884125e+01
5.955255796554e-01
1.776108385924e+01
2.235097824866e+01
-2.824598883008e+00
1.611517416606e+01
2.161162952489e+01
1.773874255484e+01
2.157251024022e+01
-2.051909713255e+01
2.216423524682e+01
2.221746407370e+01
-2.574044024397e+01
1.848569548098e+01
1.967835913687e+01
7.942951700157e+00
1.694053556192e+01
-1.390754307096e+01
-2.636409241075e+01
2.073569634704e+01
7.176690678186e+00
-7.114196254322e+00
2.106584824715e+01
2.163595364639e+01
1.349311822550e+01
4.887654933565e+00
-2.939423815123e+01
5.830453745027e+00
2.216121431521e+01
1.710928619409e+01
2.060402776465e+00
-2.998952117260e+00
2.093719325615e+01
2.126895611387e+01
2.199381745448e+01
2.235502081279e+01
-2.335409756056e+01
2.175301632426e+01
-1.576636500385e+01
2.115205761548e+01
2.143434805388e+01

SCALARS node_materi_stress_average_a_sig float
LOOKUP_TABLE default
-4.599509148401e+00
-1.267061790853e+01
-2.356725393817e+02
-1.194215182161e+02
-1.181766174607e+01
-2.333402151857e+01
-3.413806065637e+01
-4.657767738771e+01
-5.842140981219e+01
-7.022511325771e+01
-8.200232964507e+01
-9.377388210311e+01
-1.056134329138e+02
-1.175794769374e+02
-1.298888763371e+02
-1.420334011374e+02
-1.532015858029e+02
-1.654228953530e+02
-1.780966212880e+02
-1.904908368596e+02
-2.030455120623e+02
-2.157914297755e+02
-2.280062421281e+02
-1.200740241589e+02
-1.194532011382e+02
-1.197803357812e+02
-1.199760991073e+02
-1.200757475165e+02
-1.209519090769e+02
-1.220819358406e+02
-1.228002084974e+02
-1.246770105531e+02
-1.261594968682e+02
-1.279888394064e+02
-1.308000257092e+02
-1.343922987146e+02
-1.374071303485e+02
-1.412888074126e+02
-1.450452487564e+02
-1.498665790700e+02
-1.555966938133e+02
-1.609902319552e+02
-1.664694071202e+02
-1.716362723679e+02
-1.768813262956e+02
-1.819815471155e+02
-1.869221562250e+02
-1.918258891967e+02
-1.965580339820e+02
-2.008602693279e+02
-2.048539488256e+02
-2.084175104131e+02
-2.122905837536e+02
-2.151575994342e+02
-2.174315690822e+02
-2.201723675528e+02
-2.226144089629e+02
-2.247795090194e+02
-2.266877699032e+02
-2.283056648821e+02
-2.295840211299e+02
-2.306109439075e+02
-2.314100857895e+02
-2.325608527777e+02
-2.338828841038e+02
-2.346213459435e+02
-2.335419535805e+02
-2.353488632160e+02
-2.351339702993e+02
-2.357551597948e+02
-2.362988390342e+02
-2.363146807010e+02
-1.973725045287e+01
-3.165071418581e+01
-4.354483870308e+01
-5.511247854889e+01
-6.686778441459e+01
-7.871295151505e+01
-9.019554802060e+01
-1.014234099376e+02
-1.131845061475e+02
-1.042228049528e+01
-2.776175199318e+01
-1.568795208813e+01
-1.899542699302e+01
-2.040092852608e+01
-2.043947747588e+01
-2.098997127122e+01
-2.144848812923e+01
-2.188013176607e+01
-2.227752195653e+01
-2.377956397536e+01
-1.174517266636e+01
-1.209786890729e+01
-1.210849475652e+01
-1.175076673207e+01
-1.341092297627e+01
-1.211383000569e+01
-1.189333746659e+01
-1.200029358090e+01
-1.255708709519e+01
-1.244345672761e+01
-1.259920501584e+01
-1.334204123604e+01
-1.535159734183e+01
-2.007778072370e+01
-1.094640115445e+01
-1.230700648932e+01
-1.229215972296e+01
-1.177612432272e+01
-1.137329513649e+01
-1.081458415417e+01
-1.000793088972e+01
-9.187265188413e+00
-8.431556490369e+00
-7.768768415619e+00
-7.155695295151e+00
-6.969980817132e+00
-6.220814169374e+00
-5.330986225465e+00
-4.977246767748e+00
-4.792677431446e+00
-4.553227160914e+00
-4.173890054177e+00
-3.800593386198e+00
-1.248423243664e+01
-1.772838404765e+01
-1.978692036872e+01
-2.076231732952e+01
-2.123760236733e+01
-2.147094780146e+01
-2.166788804136e+01
-2.197071916870e+01
-2.268430646792e+01
-2.638081646477e+01
-2.093799804291e+01
-2.154120173005e+02
-1.269930815021e+01
-1.522566840789e+01
-2.241893358913e+02
-2.434415389797e+01
-1.241677947892e+02
-2.035718382108e+02
-2.588718666273e+01
-1.885627348573e+02
-2.789161507496e+01
-2.288957190169e+02
-1.039212883635e+01
-1.692218974845e+02
-3.369023863400e+01
-7.666784963989e+01
-1.573400510754e+02
-1.536648463603e+02
-1.354721145963e+02
-1.167364850211e+02
-1.190234227171e+02
-1.261492644389e+02
-2.475916479165e+01
-1.887096834298e+01
-1.906884423609e+01
-6.110355544940e+01
-2.296074392277e+02
-1.497008350139e+01
-1.002901488123e+01
-1.963045906192e+02
-1.727700021729e+01
-4.030726057902e+01
-1.418979684456e+02
-1.973629404183e+02
-1.791780617065e+02
-2.088021403798e+02
-2.200213980868e+02
-1.467305523181e+01
-1.984358155820e+01
-2.245094723688e+02
-8.415714518795e+01
-1.177120465697e+01
-9.973476445492e+01
-1.174148458595e+02
-2.606381361240e+01
-2.320104305161e+01
-2.706079127141e+01
-2.934404667876e+01
-1.627588067868e+01
-3.860021956591e+01
-2.321859222139e+02
-9.263337718528e+00
-1.065824950431e+02
-3.494489569268e+01
-4.459929130746e+01
-4.609630934265e+01
-5.732651017051e+01
-6.020685331237e+01
-6.992391321529e+01
-6.728527673559e+01
-7.952429869767e+01
-7.690811529323e+01
-7.332100673222e+01
-8.896900228763e+01
-8.640195467273e+01
-9.833741769213e+01
-9.578544585550e+01
-8.410988893603e+01
-9.342121621793e+01
-8.195735500866e+01
-9.118682254772e+01
-1.025876794534e+02
-1.002604387491e+02
-8.901550864432e+01
-9.793335453871e+01
-8.689771813975e+01
-9.564349144644e+01
-8.478925538827e+01
-9.333432286592e+01
-1.042377007400e+02
-1.017033328567e+02
-9.097216771812e+01
-9.911004115395e+01
-8.855234486421e+01
-9.642979268783e+01
-1.071018825018e+02
-1.041691247051e+02
-9.360907121026e+01
-1.011107986784e+02
-9.065280350847e+01
-9.793920159387e+01
-8.756975139755e+01
-9.458995375230e+01
-1.051018379035e+02
-1.015224306551e+02
-9.107894436873e+01
-9.774002364993e+01
-1.083729650343e+02
-1.043232174488e+02
-1.151434105814e+02
-1.108459306890e+02
-1.001390738532e+02
-1.064094907987e+02
-1.172976758357e+02
-1.126062332728e+02
-1.018172717937e+02
-1.078027831612e+02
-1.187772998922e+02
-1.137565099719e+02
-1.028490302041e+02
-1.086129812051e+02
-1.197471946188e+02
-1.143698008211e+02
-1.032961961843e+02
-1.088623628361e+02
-1.201661360624e+02
-1.144478156640e+02
-1.259527948567e+02
-1.031269587320e+02
-1.085740431385e+02
-9.720430027450e+01
-1.025781368939e+02
-1.149688529571e+02
-9.116649151372e+01
-8.605213420503e+01
-9.647647272217e+01
-1.080506544158e+02
-8.500673969600e+01
-9.027060836401e+01
-7.875389997462e+01
-8.025974437931e+01
-1.116644490709e+02
-8.397492016902e+01
-7.240072870773e+01
-6.728501890302e+01
-6.090047156412e+01
-6.426013533308e+01
-7.693233165604e+01
-6.764817956858e+01
-8.072206205473e+01
-7.218309176778e+01
-6.596126166676e+01
-1.011686845797e+02
-8.948697448771e+01
-7.795114772636e+01
-8.050847823943e+01
-1.192929373934e+02
-9.558002204167e+01
-8.925215462528e+01
-1.009166713646e+02
-1.317043439822e+02
-1.376320812449e+02
-1.434333404656e+02
-1.494728530280e+02
-1.553390541746e+02
-1.614711537698e+02
-1.554557666163e+02
-1.675384976849e+02
-1.613869586000e+02
-1.674088880237e+02
-1.610906208512e+02
-1.735418890035e+02
-1.672637010360e+02
-1.794851955488e+02
-1.730889429502e+02
-1.609048674613e+02
-1.666128590888e+02
-1.545202207597e+02
-1.262352681060e+02
-1.304922483779e+02
-1.375916757986e+02
-1.419622060133e+02
-1.492108053057e+02
-1.536816342771e+02
-1.610577315506e+02
-1.563573296814e+02
-1.076079496726e+02
-8.738328034107e+01
-8.091075707077e+01
-7.731721038418e+01
-7.106013518786e+01
-6.754827610743e+01
-6.154001608727e+01
-5.806328735351e+01
-6.379609821496e+01
-5.432827850117e+01
-5.977896098116e+01
-5.029042235798e+01
-5.544337149939e+01
-1.126931549784e+02
-1.461878306435e+02
-1.580370110922e+02
-1.502422052572e+02
-5.587174002814e+01
-1.788700411290e+02
-1.732540794925e+02
-1.667167226989e+02
-1.683457071665e+02
-5.451512810160e+01
-5.237846182216e+01
-5.545305797484e+01
-8.480692916650e+01
-7.668380374180e+01
-1.790275654672e+02
-5.955211730944e+01
-1.797581392490e+02
-4.518283189913e+01
-1.722905674493e+02
-1.845936410195e+02
-1.493797255346e+02
-1.622701734079e+02
-1.541597504200e+02
-6.528453152458e+01
-6.068790148937e+01
-5.099005376648e+01
-5.633245242203e+01
-6.608640851570e+01
-6.098910317484e+01
-5.097039501194e+01
-5.564812956937e+01
-6.601754504992e+01
-6.048052221494e+01
-4.998389709261e+01
-5.465246032795e+01
-1.911895125356e+02
-4.112085227876e+01
-7.252762059594e+01
-1.855708068184e+02
-1.730228207280e+02
-8.909869737061e+01
-8.139739160812e+01
-6.879378743706e+01
-7.398819737288e+01
-8.627974324802e+01
-7.922768383569e+01
-6.685248826683e+01
-7.241451397277e+01
-6.001677252967e+01
-6.585281699098e+01
-7.799018871766e+01
-7.169835532365e+01
-5.955038164576e+01
-6.558373856217e+01
-5.343650238888e+01
-5.960450808825e+01
-7.162375199045e+01
-4.843564423479e+01
-1.634223953532e+02
-1.756167343563e+02
-9.484151671059e+01
-1.061041730338e+02
-1.126202410537e+02
-1.181319767207e+02
-6.572490187093e+01
-7.763545286621e+01
-4.664595761092e+01
-4.930985865074e+01
-9.705819306595e+01
-1.779496268497e+02
-1.657133271980e+02
-7.827286302109e+01
-7.031830669676e+01
-6.826182275988e+01
-6.027265883546e+01
-6.214654688407e+01
-5.837137187617e+01
-1.545808319394e+02
-8.363825549441e+01
-6.226436496469e+01
-5.101109585226e+01
-1.902773967363e+02
-1.514933164469e+02
-1.153823649926e+02
-1.239523259121e+02
-1.268008580423e+02
-1.355011308831e+02
-1.384625792580e+02
-1.472489020800e+02
-1.441047810068e+02
-1.663575479518e+02
-1.559653472780e+02
-5.362565724316e+01
-1.384580096778e+02
-7.114676315997e+01
-4.319791003107e+01
-4.370392096888e+01
-5.290310141846e+01
-6.459084653266e+01
-1.914781351259e+02
-1.502624637119e+02
-1.412429796055e+02
-5.224047568937e+01
-5.384156255109e+01
-1.745293721693e+02
-5.906640049089e+01
-5.419021981004e+01
-4.731083137602e+01
-4.039314479928e+01
-3.968460473655e+01
-9.127937658152e+01
-5.821482179310e+01
-5.171904973062e+01
-3.626474530392e+01
-3.213830748350e+01
-7.176156478060e+01
-8.351157245376e+01
-1.244972788748e+02
-1.299798420081e+02
-1.847476303067e+02
-4.866864593194e+01
-8.943193076941e+01
-1.583518835706e+02
-1.465032595870e+02
-1.115509940855e+02
-4.090126768194e+01
-3.829004187779e+01
-7.657254023288e+01
-5.956711750207e+01
-5.795723406935e+01
-1.972351996750e+02
-9.817509036141e+01
-1.526485197110e+02
-1.407694935460e+02
-1.647851617972e+02
-3.799994919707e+01
-1.982162264536e+02
-1.835911210783e+02
-1.525867502936e+02
-1.439288312055e+02
-6.071735617575e+01
-5.399559678912e+01
-4.518031670761e+01
-4.709063270860e+01
-6.482301084273e+01
-6.320988351907e+01
-7.057028626693e+01
-6.102107951341e+01
-5.944423726804e+01
-6.383669047503e+01
-5.522943732940e+01
-7.429063024826e+01
-1.232625822725e+02
-1.190131081905e+02
-1.488963863656e+02
-1.373176774382e+02
-8.979487360332e+01
-9.533673002355e+01
-4.721627818216e+01
-4.116101419454e+01
-4.452352053861e+01
-3.977775431623e+01
-1.317375996563e+02
-1.919811889540e+02
-1.009272774114e+02
-1.087772563757e+02
-1.051762069679e+02
-1.902054951354e+02
-8.352150914720e+01
-1.330781320702e+02
-3.678460279626e+01
-1.180364309278e+02
-3.331759963927e+01
-1.141078974539e+02
-1.960199086186e+02
-2.026427077751e+02
-1.786188028791e+02
-4.325043816549e+01
-1.260229700944e+02
-1.227356157569e+02
-4.984807052037e+01
-4.856691263906e+01
-5.795196903256e+01
-4.748873198854e+01
-8.181890193355e+01
-7.621042244259e+01
-1.630203637108e+02
-1.678221684732e+02
-1.554483626033e+02
-1.468858713088e+02
-1.869227750751e+02
-1.823873784057e+02
-6.930606839321e+01
-4.543925142186e+01
-1.029806333022e+02
-5.122711219692e+01
-2.044068539485e+02
-1.983196645044e+02
-2.786709303290e+01
-3.181713534910e+01
-9.535680985325e+01
-3.855789466349e+01
-3.983413216847e+01
-3.695416265264e+01
-2.217630006272e+02
-1.690235737429e+01
-2.085417347679e+02
-6.548641872577e+01
-1.013081056571e+02
-1.340086057310e+02
-7.575655136539e+01
-1.778292418659e+02
-8.891074366314e+01
-1.015218534902e+02
-4.115114494793e+01
-3.411143207293e+01
-4.794280932667e+01
-3.999618422784e+01
-3.053998427377e+01
-8.925115230034e+01
-8.283873001582e+01
-8.921343474946e+01
-5.315965620542e+01
-6.415855009080e+01
-1.308213944372e+02
-1.252845499493e+02
-1.232361748407e+02
-1.257785528885e+02
-1.180110524498e+02
-1.531911879255e+02
-1.414242416320e+02
-1.349514526613e+02
-1.010584929375e+02
-1.078665939202e+02
-8.714442293612e+01
-8.172755302771e+01
-8.693728004614e+01
-1.097614476239e+02
-2.149389633886e+02
-2.092150471977e+02
-2.882652702628e+01
-3.498901608256e+01
-3.304077436588e+01
-3.065314730507e+01
-1.165104965256e+02
-1.137295627185e+02
-1.210426319803e+02
-6.196349851515e+01
-1.491384743710e+02
-2.022069982183e+02
-1.950051182442e+02
-2.108318440202e+02
-1.701181295576e+02
-1.822410186752e+02
-1.769018061404e+02
-2.365981323092e+01
-9.724759686146e+01
-3.413993406443e+01
-2.072415071804e+01
-2.828207779533e+01
-3.515560359995e+01
-2.184340006562e+01
-5.048607663363e+01
-3.248309260646e+01
-4.199786819319e+01
-2.250922169542e+01
-1.138784352409e+02
-2.269161199958e+01
-2.716626587350e+01
-2.108251634203e+02
-2.044802794787e+02
-2.166116690821e+02
-2.101653662391e+02
-1.981066204915e+02
-2.042948340060e+02
-2.727198634178e+01
-2.180728406412e+02
-2.106211574554e+02
-2.243031412224e+02
-3.800236821360e+01
-4.871019436306e+01
-4.112558452947e+01
-3.197567647794e+01
-1.600155998946e+02
-1.487459453834e+02
-1.895962565122e+02
-1.771604803867e+02
-2.860349615595e+01
-2.782941035009e+01
-3.883130573220e+01
-3.719428505979e+01
-4.816601113137e+01
-4.641885038511e+01
-5.757216480715e+01
-1.799557414569e+02
-3.055942734503e+01
-3.987087262999e+01
-1.948284681487e+02
-1.891907733136e+02
-4.636743618649e+01
-3.651917065455e+01
-2.122940077935e+02
-7.018605217964e+01
-1.221141373078e+02
-1.379890632569e+01
-2.152739883264e+01
-7.290018329286e+01
-5.659934115005e+01
-5.034638911249e+01
-4.292464135701e+01
-1.653188703933e+02
-3.092166285629e+01
-3.522600467076e+01
-5.919102057027e+01
-2.774294947311e+01
-1.837721146814e+02
-7.735474769400e+01
-7.416508839786e+01
-4.316876046418e+01
-5.632726068139e+01
-7.458704812131e+01
-5.486920085811e+01
-5.302150265637e+01
-8.430872899814e+01
-4.415757275782e+01
-3.385680933965e+01
-7.988502118758e+01
-1.017349379992e+02
-1.103813924526e+02
-1.218772728882e+02
-1.192663939561e+02
-1.073919781096e+02
-1.164429977907e+02
-1.280460372402e+02
-1.259692367981e+02
-1.395106505600e+02
-1.352189653652e+02
-1.228068539999e+02
-1.316678210119e+02
-1.432767873420e+02
-1.196671745467e+02
-1.993474704333e+02
-8.314968528391e+01
-2.770402786924e+01
-2.473872844059e+01
-7.605484640687e+01
-1.484035375891e+02
-1.390693626565e+02
-6.467387774114e+01
-1.741131037600e+02
-6.286017555380e+01
-4.891371639737e+01
-1.839461151116e+02
-9.838006790267e+01
-9.505571085207e+01
-8.593392141916e+01
-1.323314090849e+02
-5.559095858100e+01
-2.008379041154e+02
-1.345840774161e+02
-1.270105963526e+02
-1.158874582918e+02
-1.134898404649e+02
-2.128115904536e+02
-2.036606680183e+02
-2.059477558242e+02
-1.935453261581e+02
-2.176775409620e+02
-1.594740005314e+02
-1.647941994279e+02
-7.128962941842e+01
-7.631936314200e+01
-8.666510350108e+01
-8.102700698291e+01
-7.079398326113e+01
-7.531208846300e+01
-8.547281310098e+01
-6.953929410411e+01
-1.375134780799e+02
-2.217885337160e+02
-1.491020351062e+02
-1.427123322925e+02
-1.311162912087e+02
-1.135490646219e+02
-1.197197774158e+02
-1.314573492538e+02
-1.072717225224e+02
-1.324059059751e+02
-2.232157180158e+02
-1.398300762589e+02
-1.141250657681e+02
-2.184501829849e+01
-3.645050101203e+01
-4.062200764906e+01
-5.231255235499e+01
-3.517160270111e+01
-1.363356884604e+02
-1.418156592473e+02
-1.354437147742e+02
-1.472718935744e+02
-1.405786630982e+02
-1.296515775270e+02
-1.524930430630e+02
-1.448915942658e+02
-1.915059946370e+01
-1.522401776334e+01
-2.309464575477e+01
-2.263655349582e+01
-3.086195438292e+01
-3.144363375710e+01
-4.025675609064e+01
-3.882285480371e+01
-2.331132560103e+01
-1.398349208416e+01
-2.221017415650e+01
-1.326810005524e+01
-2.157189763531e+01
-3.184915065533e+01
-4.643799668153e+01
-2.283264196196e+02
-1.114766122805e+02
-1.056796534589e+02
-9.435281140866e+01
-1.004002605184e+02
-1.160976353678e+02
-8.812617951351e+01
-8.392555933979e+01
-9.825139528139e+00
-1.948275275393e+01
-1.844780813552e+01
-2.933994752913e+01
-2.930470520252e+01
-1.984702933722e+01
-1.997365270962e+01
-1.017406179171e+01
-2.007125323445e+01
-2.997087893685e+01
-1.014932359853e+01
-7.293585382342e+01
-7.928657237754e+01
-2.249477855798e+02
-1.967272105361e+01
-1.229533106588e+01
-1.143545107264e+02
-1.186445423278e+02
-1.177788581165e+02
-2.090937057922e+02
-2.152879590610e+02
-1.139024213594e+02
-7.358151681949e+01
-1.308008389770e+02
-9.496338515624e+01
-4.365787853049e+01
-7.036946305143e+01
-1.713360550310e+02
-1.551759443057e+02
-1.968962252730e+02
-1.601307121957e+02
-1.853754321810e+02
-2.073761771215e+02
-4.665795474984e+01
-5.343583761373e+01
-4.748524407041e+01
-7.755175198253e+01
-7.754598756474e+01
-1.240181462593e+02
-4.946532803219e+01
-1.718122050188e+02
-6.878101966587e+01
-1.257321861232e+02
-1.018674277527e+02
-7.986540627014e+01
-6.546241943948e+01
-8.598656310198e+01
-1.200900999825e+02
-1.736195123248e+02
-8.341652011888e+01
-1.239886440244e+01
-1.796343699409e+02
-1.435238198614e+02
-6.128663310539e+01
-1.656208664329e+02
-4.580821870372e+01
-8.452697098334e+01
-1.118693452124e+02
-5.000958730187e+01
-3.813936732253e+01
-4.063326167499e+01
-2.040536547288e+02
-9.315791489165e+01
-7.110562161475e+01
-1.218330533774e+02
-8.266878940675e+01
-3.072834997414e+01
-1.004004347246e+02
-1.117829504890e+02
-1.805203959982e+02
-1.445890528961e+02
-7.635467269032e+01
-1.921053313887e+02
-1.122441444450e+02
-9.635820161258e+01
-1.295665877770e+02
-9.378724064843e+01
-9.347160118623e+01
-1.249181939910e+02
-1.701188585032e+02
-6.711606662128e+01
-1.067040996221e+02
-1.049977110314e+02
-1.099316981912e+02
-1.647760796730e+02
-1.859143414787e+02
-4.596451607675e+01
-6.589639565249e+01
-6.371123125327e+01
-1.589144778314e+02
-1.077910417106e+02
-7.227437621339e+01
-1.858082167382e+02
-1.048672503051e+02
-1.257738920927e+02
-5.342045059535e+01
-3.554761863643e+01
-7.352891114557e+01
-1.085025531483e+02
-1.375202640436e+02
-1.265904077980e+02
-1.917896675164e+02
-1.723007945564e+02
-1.903467550722e+01
-4.117459367793e+01
-1.977493857307e+02
-1.284357181905e+02
-1.775859159779e+02
-1.335755594644e+02
-1.760882137951e+02
-3.724385455874e+01
-2.038019192618e+02
-1.705875060016e+02
-6.753054833688e+01
-1.736983113186e+01
-2.180860399726e+02
-1.830334190026e+02
-1.210233871652e+02
-1.236648476136e+02
-2.843133358906e+01
-1.432557914496e+02
-1.091741885402e+02
-1.292322643740e+02
-1.877155328695e+02
-8.251110361496e+01
-1.370586137976e+02
-1.421186722243e+02
-2.950509006515e+01
-3.875510136307e+01
-1.426280971620e+02
-7.951357257027e+01
-1.299799560029e+02
-1.907159337214e+02
-1.481861464577e+02
-8.970585020433e+01
-1.537065865004e+02
-2.745168978951e+01
-9.189115305686e+01
-1.591947944910e+02
-1.206347921315e+02
-3.109148357632e+01
-1.292402329412e+02
-2.022838830541e+02
-9.200973595541e+01
-1.362896754183e+02
-1.042677018276e+02
-2.650720481408e+01
-1.479629964826e+02
-1.322809937907e+02
-1.373888845348e+02
-1.193726452996e+02
-1.599787989848e+02
-3.580536392195e+01
-6.866205933635e+01
-5.758539432856e+01
-9.580839245124e+01
-1.349427400265e+02
-3.914504492824e+01
-1.105172439442e+02
-4.202516123426e+01
-9.132791911371e+01
-1.579087023254e+02
-5.013123474029e+01
-9.711543734223e+01
-6.509517784111e+01
-9.221391733711e+01
-1.305511067000e+02
-9.777350199639e+01
-9.248757284755e+01
-1.063563786963e+02
-9.779561799475e+01
-1.158655069609e+02
-2.294291934964e+02
-2.649453938478e+01
-2.428815679534e+01
-1.608420668085e+01
-3.529057643588e+01
-8.113026275854e+01
-1.167159311074e+02
-2.696995336654e+01
-7.507692046828e+01
-1.475914666760e+02
-1.932880096694e+02
-6.725745470160e+01
-1.846441936128e+02
-1.457915482193e+02
-9.461930232517e+01
-1.669174367890e+01
-2.118146400257e+01
-1.711680906452e+02
-2.341302556343e+01
-3.158442430935e+01
-2.927404393319e+01
-8.046701685233e+01
-3.057266535902e+01
-2.395033731284e+01
-2.005869109031e+02
-2.931282921401e+01
-1.612085978102e+02
-2.218986656621e+01
-1.159242221447e+02
-1.873640181604e+02
-2.279317853028e+02
-1.736927695160e+02
-2.577052169707e+01
-4.652509407763e+01
-1.670867800074e+02
-7.682782603355e+01
-2.298764368149e+02
-2.953007515446e+01
-1.068799496227e+02
-4.163307439359e+01
-1.065558996885e+02
-1.286382618438e+02
-4.207190607379e+01
-5.266605403937e+01
-2.211318761543e+02
-1.377353801274e+02
-2.335614426979e+01
-6.692053260418e+01
-1.003792662684e+02
-2.213574839870e+01
-2.153678776322e+02
-1.398652024788e+02
-2.198530283332e+02
-2.896171947073e+01
-1.937247676914e+01
-2.149201891490e+02
-1.580267585842e+02
-4.703669394454e+01
-1.236146524763e+02
-1.844095063733e+01
-1.558448178528e+01
-1.943117274420e+01
-2.303259773793e+02
-1.107998653531e+02
-1.108482814989e+02
-3.043592780800e+01
-7.303395487534e+01
-1.693410937912e+02
-2.859903479114e+01
-1.101089692219e+02
-2.124368954349e+02
-1.265338239114e+02
-2.099381745939e+02
-2.081465878067e+01
-1.871618210082e+02
-1.980252646198e+02
-1.645422206558e+01
-1.318636575246e+02
-8.992520036938e+01
-3.884439172652e+01
-1.168525475534e+02
-7.952137181224e+00
-1.573237281979e+01
-2.322938716150e+02
-3.699505257408e+01
-3.530605406122e+01
-1.539719680659e+02
-1.366536735307e+02
-8.808756024170e+01
-3.724884131020e+01
-1.496946651720e+01
-5.638037251847e+01
-1.929490465931e+02
-1.211102546206e+02
-4.852397750247e+01
-2.913368371706e+01
-1.491773192866e+02
-1.199309993360e+02
-1.619989358567e+02
-1.941988573486e+02
-1.323235919446e+01
-1.471289101368e+02
-1.848738003573e+01
-2.202289993861e+02
-1.250702571313e+02

SCALARS node_materi_stress_size_dev_sd_sig float
LOOKUP_TABLE default
4.881502211447e+00
9.859015235506e+00
1.791939434825e+02
8.952703937495e+01
1.103969117968e+01
2.104286591149e+01
3.022719154896e+01
4.070244531972e+01
5.087980173803e+01
6.074954901300e+01
7.062948497414e+01
8.045090887859e+01
9.011812009961e+01
9.977755127893e+01
1.095043512885e+02
1.185038623138e+02
1.265008366444e+02
1.352312553751e+02
1.438726852563e+02
1.520058715132e+02
1.599839761142e+02
1.677895104502e+02
1.750493201095e+02
9.029158631071e+01
8.994655794151e+01
9.026935828813e+01
9.059961577124e+01
9.062052086353e+01
9.157726183299e+01
9.250229114010e+01
9.370928530568e+01
9.561763201616e+01
9.758783337946e+01
9.945560769834e+01
1.027294476259e+02
1.062657488995e+02
1.099234419826e+02
1.136516007426e+02
1.176342649317e+02
1.219798999931e+02
1.268641006624e+02
1.315464796319e+02
1.360413303930e+02
1.401021415203e+02
1.438418629593e+02
1.474981298850e+02
1.508354261614e+02
1.540210608045e+02
1.570021877280e+02
1.597072637129e+02
1.620983057082e+02
1.641995961898e+02
1.663185817729e+02
1.681121760908e+02
1.693303437838e+02
1.707959841316e+02
1.721472564455e+02
1.733475178466e+02
1.743528010261e+02
1.752609996596e+02
1.759239319909e+02
1.764691236087e+02
1.768903677849e+02
1.774688335356e+02
1.781828840547e+02
1.786015144922e+02
1.780416754665e+02
1.789378391416e+02
1.788253374015e+02
1.791384748661e+02
1.794930119982e+02
1.795229903092e+02
8.539618087273e+00
1.325140353776e+01
2.136925873646e+01
3.029106498799e+01
3.995133681014e+01
4.999207609715e+01
6.043671230143e+01
7.119616630744e+01
8.249648244266e+01
1.097634076269e+01
2.825334484900e+01
1.977926780333e+01
2.449204328594e+01
2.680337398597e+01
2.763630995380e+01
2.810217855440e+01
2.849438681275e+01
2.889672723222e+01
2.934111107388e+01
3.077651763203e+01
1.016471756219e+01
9.804528954335e+00
9.771038437645e+00
1.000171732547e+01
9.515766566959e+00
9.834443525128e+00
9.938773613800e+00
9.757148155015e+00
9.476100163085e+00
9.676776454732e+00
1.010346822812e+01
1.105530906913e+01
1.348659075316e+01
1.964334031291e+01
1.030808048864e+01
1.103248477371e+01
1.131281361658e+01
1.040683579799e+01
8.506980202415e+00
7.173887751708e+00
6.037869845486e+00
4.966512651399e+00
4.014269580582e+00
3.301549533285e+00
2.885659359834e+00
3.104073941437e+00
3.305611137220e+00
3.299970852049e+00
3.804035885197e+00
4.359844551174e+00
4.709925724999e+00
4.686021642927e+00
4.395322753194e+00
1.557575204827e+01
2.257772005106e+01
2.579944667105e+01
2.735565094664e+01
2.872764536621e+01
2.902523641918e+01
2.868212085330e+01
2.894656404345e+01
2.978430178071e+01
3.235826670968e+01
2.142024261432e+01
1.691537713395e+02
5.979965078180e+00
6.340151283986e+00
1.736785019369e+02
2.712457125256e+01
1.050146894605e+02
1.623618917246e+02
2.945142926447e+01
1.525492128539e+02
3.123686059727e+01
1.758340488026e+02
7.237796887114e+00
1.380943925224e+02
3.180305392771e+01
6.615928948706e+01
1.296029619900e+02
1.242584764517e+02
1.060221134927e+02
8.604169361718e+01
8.774601563122e+01
9.567830339549e+01
1.702517755758e+01
9.638442096006e+00
8.936537320083e+00
3.506925233091e+01
1.760321084883e+02
7.109942613085e+00
8.887506549749e+00
1.557355987036e+02
8.579942173553e+00
3.547078134508e+01
1.128066916641e+02
1.584087018994e+02
1.458155508174e+02
1.656055826699e+02
1.715566541700e+02
5.945801003620e+00
1.126732981672e+01
1.736809510217e+02
5.496527553132e+01
6.848889292994e+00
8.538722504731e+01
8.697418608379e+01
2.866189022953e+01
2.505779521557e+01
3.025157057096e+01
3.233812303217e+01
1.516617046866e+01
1.772645601203e+01
1.774727136690e+02
8.794845961935e+00
7.620487616016e+01
2.797376826739e+01
3.345261070869e+01
3.032556818425e+01
3.999069237998e+01
3.857091786954e+01
4.797668198454e+01
4.880317093173e+01
5.733670336520e+01
5.786127406927e+01
4.756929168865e+01
6.673228605303e+01
6.701439886281e+01
7.611702621361e+01
7.618190194131e+01
6.741326488064e+01
7.632514316524e+01
6.771115664012e+01
7.641947593997e+01
8.511605532477e+01
8.501409069998e+01
7.640307985524e+01
8.478549872144e+01
7.619372476282e+01
8.437896550320e+01
7.574116808259e+01
8.375421557894e+01
9.233248522564e+01
9.150402886850e+01
8.289459520964e+01
9.043244880419e+01
8.176993151273e+01
8.906921608725e+01
9.763352967984e+01
9.603238556124e+01
8.737399148941e+01
9.411906316399e+01
8.535132010098e+01
9.188255701220e+01
8.296791035238e+01
8.925539445439e+01
9.802590748691e+01
9.518874519852e+01
8.625209589317e+01
9.194556397077e+01
1.007896813794e+02
9.731868099392e+01
1.060698519250e+02
1.023991480572e+02
9.352510376519e+01
9.841128639415e+01
1.071992928866e+02
1.030327699856e+02
9.411501880024e+01
9.860046940185e+01
1.074549801698e+02
1.028976006261e+02
9.390352740597e+01
9.811396700602e+01
1.070872093036e+02
1.021967037899e+02
9.308382241097e+01
9.710087621415e+01
1.062116249728e+02
1.010459986090e+02
1.101336997593e+02
9.174951312935e+01
9.569674070150e+01
8.619943275908e+01
9.020399328047e+01
1.044761315878e+02
8.054078791074e+01
7.656182822484e+01
8.461621422671e+01
9.423291682119e+01
7.481227367124e+01
7.895824769601e+01
6.905152963868e+01
7.616305351448e+01
9.372300054828e+01
7.326524607893e+01
6.328098728120e+01
5.897215334814e+01
5.315214239403e+01
3.848965385389e+01
4.797664690507e+01
3.861544599683e+01
4.930824303028e+01
4.061268047459e+01
5.748327151193e+01
7.631387555603e+01
5.856634551698e+01
6.783273120723e+01
7.414646596061e+01
1.094067790888e+02
8.307833888299e+01
7.746077065795e+01
8.722252870467e+01
1.151313604748e+02
1.189864627541e+02
1.238081449686e+02
1.275779965811e+02
1.322181481959e+02
1.359001571573e+02
1.312583622115e+02
1.394967518831e+02
1.348680158654e+02
1.403507085127e+02
1.366423169572e+02
1.430199557422e+02
1.384146438832e+02
1.464794505893e+02
1.419092648786e+02
1.336516761865e+02
1.371921057660e+02
1.287942382200e+02
1.145929160543e+02
1.178084181710e+02
1.228892019537e+02
1.259871489652e+02
1.309523873903e+02
1.339280594228e+02
1.387539272152e+02
1.356162693591e+02
8.540994793962e+01
8.287163349449e+01
7.707887054258e+01
7.356907453338e+01
6.768465859067e+01
6.402509790944e+01
5.806052545651e+01
5.420167505932e+01
5.994769271223e+01
4.990569565242e+01
5.544403540630e+01
4.518852604262e+01
5.051181227683e+01
9.999904234690e+01
1.287757222476e+02
1.366161631049e+02
1.312395712796e+02
4.877829852744e+01
1.453695245794e+02
1.445866466028e+02
1.408164144029e+02
1.432910580660e+02
4.743784893549e+01
4.822792974047e+01
5.176777201149e+01
5.162843308341e+01
4.352393396049e+01
1.485955941111e+02
5.177755380521e+01
1.474593066427e+02
3.961190386666e+01
1.407048355814e+02
1.488077707613e+02
1.264580974242e+02
1.390443797126e+02
1.334093083915e+02
6.073874681697e+01
5.567503301333e+01
4.545665115958e+01
5.062357922831e+01
6.074183860967e+01
5.520239056134e+01
4.490378939981e+01
4.947777917882e+01
5.981686571043e+01
5.404479776245e+01
4.348264985965e+01
4.810096877915e+01
1.532776537560e+02
3.462597874084e+01
5.898444163045e+01
1.522290733320e+02
1.461878679553e+02
5.488573173111e+01
4.737511752041e+01
3.637697871796e+01
4.080660765085e+01
5.201190049835e+01
4.578386094983e+01
3.515627419616e+01
4.029871615591e+01
3.025451109902e+01
3.545087676802e+01
4.577222272747e+01
4.096707049755e+01
3.110855146724e+01
3.652360055332e+01
2.704189476145e+01
3.226029175088e+01
4.214418208931e+01
4.195522033171e+01
1.400204291830e+02
1.476177857709e+02
8.197013968357e+01
9.122576979152e+01
9.675700008090e+01
1.007941064461e+02
3.768908423209e+01
4.795021618636e+01
4.205402502554e+01
4.525055215972e+01
6.321931031289e+01
1.442284032255e+02
1.359677352576e+02
7.294205828797e+01
6.521947512496e+01
6.389878717452e+01
5.597283668697e+01
5.726930435085e+01
5.449370915567e+01
1.327321111646e+02
5.155739905537e+01
5.465866318671e+01
4.437264392696e+01
1.522706859297e+02
1.321759224662e+02
1.008370997126e+02
1.084228407803e+02
1.093331192969e+02
1.168149298798e+02
1.178224041136e+02
1.251291815542e+02
1.239071618724e+02
1.412079615544e+02
1.320321416832e+02
2.794508450749e+01
1.232029019963e+02
6.434344626038e+01
3.752964326683e+01
3.726656800903e+01
4.599487313541e+01
5.607204315934e+01
1.560568697692e+02
1.262539623184e+02
1.186623683653e+02
4.821471742209e+01
4.940320437764e+01
1.465358245458e+02
3.037022369393e+01
2.547869165051e+01
2.122269656869e+01
3.505306969461e+01
3.288041118924e+01
5.715974103111e+01
5.478673945576e+01
4.798801405213e+01
2.895980397444e+01
2.377664917104e+01
4.312382304730e+01
5.354089123106e+01
1.060618137651e+02
1.100175252828e+02
1.523777614014e+02
4.212520477239e+01
5.863503691245e+01
1.364735678360e+02
1.284458781961e+02
9.522063060347e+01
3.590702325501e+01
3.253474778633e+01
6.993472911855e+01
5.266364754235e+01
5.031006047268e+01
1.596163003554e+02
6.377341021151e+01
1.305805588379e+02
1.225033486420e+02
1.385228545310e+02
3.134206074823e+01
1.596986780479e+02
1.477876967582e+02
1.268817214014e+02
1.194728893696e+02
5.736420051855e+01
5.041805345902e+01
4.121511013471e+01
4.335920952286e+01
4.966433975457e+01
5.972890453524e+01
5.932003259006e+01
5.098675370000e+01
5.123557269818e+01
5.818012195515e+01
5.021034758705e+01
7.088598787477e+01
1.123835954827e+02
1.021772449522e+02
1.251717273360e+02
1.199105278651e+02
5.676515557325e+01
6.282014352502e+01
2.207153961917e+01
1.834526571114e+01
3.846165442011e+01
3.399009775493e+01
1.139916597459e+02
1.557395083635e+02
6.667362059205e+01
7.526028237346e+01
7.211470539733e+01
1.558142501011e+02
7.913456778904e+01
1.194747529752e+02
2.933916624159e+01
1.060282237568e+02
2.818994210479e+01
9.399508863664e+01
1.557258452589e+02
1.600045372015e+02
1.486089626727e+02
3.555048100149e+01
1.127429822506e+02
1.109534113055e+02
4.357580374821e+01
4.348499422381e+01
5.111471240967e+01
4.315064313462e+01
7.427026552625e+01
6.864224150831e+01
1.351900861944e+02
1.399366066493e+02
1.282026487906e+02
1.205574030756e+02
1.536991304262e+02
1.514327885991e+02
6.013281241344e+01
4.193561821787e+01
6.901190720450e+01
4.319572430581e+01
1.628699743818e+02
1.591595587053e+02
1.820888987381e+01
2.341030496559e+01
6.461065898082e+01
3.475029392594e+01
3.637062370010e+01
3.272335612441e+01
1.712349495547e+02
8.634157417173e+00
1.634081197904e+02
5.883754143497e+01
6.998446085642e+01
1.191519128629e+02
7.126777455392e+01
1.485081774087e+02
5.881043013154e+01
7.097778982962e+01
1.712325373265e+01
1.358514362542e+01
2.105976469093e+01
3.379896542774e+01
2.251174451120e+01
5.748737076718e+01
7.188636167685e+01
7.719721306028e+01
4.644271936657e+01
5.676970515181e+01
1.113251729235e+02
1.075048512277e+02
1.025578941353e+02
1.030597798843e+02
1.015019735710e+02
1.326581278201e+02
1.244556738401e+02
1.202014695041e+02
6.826697495177e+01
7.576576506271e+01
7.964353796167e+01
7.526872690222e+01
7.834953819189e+01
7.607648876174e+01
1.674745983140e+02
1.641509947382e+02
2.364443224888e+01
2.934619883940e+01
2.733161495089e+01
2.397088949758e+01
8.415467095911e+01
8.165320960134e+01
8.875033872583e+01
5.371830145041e+01
1.289634253646e+02
1.624410730177e+02
1.587959966442e+02
1.669794907317e+02
1.430969160777e+02
1.503002176711e+02
1.460294853610e+02
1.333886595376e+01
6.708394858760e+01
1.388873722740e+01
9.299611953497e+00
1.109097558371e+01
1.483190103057e+01
9.008916486833e+00
4.388641866519e+01
1.303449719082e+01
1.785133116313e+01
1.708608483708e+01
8.135313569051e+01
1.851984790098e+01
2.277007191014e+01
1.663055974749e+02
1.624704879838e+02
1.693529572105e+02
1.654474589727e+02
1.584104504056e+02
1.618396665731e+02
1.070039142718e+01
1.697657650158e+02
1.652691631521e+02
1.733812489539e+02
3.634840327965e+01
4.510463174123e+01
3.790310882349e+01
3.043705136544e+01
1.308674529153e+02
1.211266631024e+02
1.515383354411e+02
1.433749687298e+02
1.134697575202e+01
1.102265954157e+01
1.757642290405e+01
1.664404478102e+01
2.445608801182e+01
2.329108407212e+01
3.182664504180e+01
1.475297462786e+02
2.792213439212e+01
3.694506890395e+01
1.583732971748e+02
1.554819140532e+02
4.253355314055e+01
3.508180747634e+01
1.675043766441e+02
6.674739944976e+01
9.083013277288e+01
8.324940126117e+00
1.157977208171e+01
6.905259743990e+01
5.077386769436e+01
4.657593055589e+01
3.971016251337e+01
1.407057826349e+02
2.490305824668e+01
3.032529420795e+01
3.270480157640e+01
2.366627283797e+01
1.476424513186e+02
7.370111971723e+01
6.698903663607e+01
3.878464435921e+01
5.270166352020e+01
5.847707388465e+01
4.129415390414e+01
4.240628449879e+01
8.019404101368e+01
4.089699062408e+01
3.279512311638e+01
6.786268923520e+01
6.978444118250e+01
7.940297348205e+01
9.091316191976e+01
8.913983466522e+01
7.800290176633e+01
8.773708861087e+01
9.869067300891e+01
9.767042546971e+01
1.103888699356e+02
1.072440226271e+02
9.634067144464e+01
1.052868893952e+02
1.153521916931e+02
9.520445854923e+01
1.603398337077e+02
7.836311203890e+01
1.818489330645e+01
1.626063315177e+01
6.754364418210e+01
1.194864644469e+02
1.096516937516e+02
6.140224332759e+01
1.419133313436e+02
5.041998699154e+01
4.412961472281e+01
1.492682581597e+02
6.817011126169e+01
6.717260022456e+01
5.744237543478e+01
1.022899412939e+02
2.628168323861e+01
1.605264923223e+02
1.206908497794e+02
1.149691733230e+02
1.065775328038e+02
8.665595471240e+01
1.677792274813e+02
1.633819163856e+02
1.645318252552e+02
1.580527869208e+02
1.703866394880e+02
1.297027987757e+02
1.343870408145e+02
6.540437680374e+01
7.072073036215e+01
8.031615083929e+01
7.563542450751e+01
6.585078582506e+01
7.066370079369e+01
8.019822658417e+01
6.541917613768e+01
1.121865439378e+02
1.725149861565e+02
1.284078208108e+02
1.243994197772e+02
1.158581209059e+02
9.824190513641e+01
1.036181890915e+02
1.127212546114e+02
9.277376726137e+01
1.156521316527e+02
1.731870654302e+02
1.240809368743e+02
9.966380275714e+01
1.340301335751e+01
1.856955772060e+01
2.403628749915e+01
2.807182362722e+01
1.582576797701e+01
1.151441233999e+02
1.189362087971e+02
1.139269975357e+02
1.226759731044e+02
1.175358739346e+02
1.092692688056e+02
1.262132200929e+02
1.205983154783e+02
1.038349561914e+01
6.099353252162e+00
1.381683866967e+01
1.393634885079e+01
2.299646102020e+01
2.337689969110e+01
3.332706595668e+01
3.152063118713e+01
1.335634599086e+01
5.808636237582e+00
1.440968586197e+01
5.821142667875e+00
1.458969922546e+01
2.505994838887e+01
4.009298214111e+01
1.752641750646e+02
9.492866545111e+01
9.040386991975e+01
8.101848681499e+01
8.616057994292e+01
9.878674937140e+01
7.580208563905e+01
7.230558320889e+01
9.109154927785e+00
1.765692014808e+01
1.688982984096e+01
2.622575462215e+01
2.584382535644e+01
1.759895287685e+01
1.745527506248e+01
8.508222401066e+00
1.716992537286e+01
2.604524670634e+01
7.830750872416e+00
4.498663427481e+01
5.056278896806e+01
1.740303251862e+02
9.340145080059e+00
6.473581489303e+00
8.363135891225e+01
8.745106103516e+01
8.680087397471e+01
1.636986852452e+02
1.674618365627e+02
8.358820343536e+01
6.479895251784e+01
1.004087837166e+02
6.358875975444e+01
3.831166204508e+01
6.283102031984e+01
1.395954597023e+02
1.300876120848e+02
1.566435920533e+02
1.324001752749e+02
1.498942985303e+02
1.653587598262e+02
4.046888087788e+01
2.592820186125e+01
2.307232479599e+01
4.670159213698e+01
6.756539740056e+01
1.051691792631e+02
4.304371673815e+01
1.408299911956e+02
5.940749842551e+01
1.111637040332e+02
8.870055159998e+01
7.068702340346e+01
5.856741267153e+01
8.028975493401e+01
1.049689052912e+02
1.439463625373e+02
5.261741138861e+01
8.390896522831e+00
1.481976453837e+02
1.227560132945e+02
3.043967569517e+01
1.416018317769e+02
3.908547387411e+01
5.113778956435e+01
7.855212653083e+01
2.322935705440e+01
3.281630205508e+01
1.740111919455e+01
1.630749280318e+02
6.045008953248e+01
6.180411691910e+01
1.110521394060e+02
7.506172624482e+01
3.270118046686e+01
6.863209670385e+01
1.026201979395e+02
1.506626125323e+02
1.276678064269e+02
6.617721276662e+01
1.551377384692e+02
1.038886379938e+02
6.264240163831e+01
1.101072614521e+02
8.834440686692e+01
5.894742630232e+01
1.116981038487e+02
1.441985699666e+02
5.925595928233e+01
9.294399876117e+01
8.519920146583e+01
9.894109430745e+01
1.349256046336e+02
1.517135540309e+02
4.016263408695e+01
6.207646419338e+01
3.279720534532e+01
1.331824622251e+02
7.455593632267e+01
6.624804930240e+01
1.508838587688e+02
7.084827491176e+01
1.088671701808e+02
4.655775734774e+01
2.867695173268e+01
6.967855435725e+01
1.004873930567e+02
1.177970764669e+02
9.547672721891e+01
1.542428547780e+02
1.447745794492e+02
1.858296212821e+01
3.666767905674e+01
1.576050587313e+02
1.157554571652e+02
1.488637149991e+02
1.120965737882e+02
1.442293102441e+02
3.573399891588e+01
1.611214703442e+02
1.443462364749e+02
6.427498697334e+01
8.549678922719e+00
1.695467422750e+02
1.518593113204e+02
1.073300031194e+02
1.117385057149e+02
3.174159097995e+01
1.215296523175e+02
9.338709635888e+01
9.899068399020e+01
1.546578883590e+02
5.704721925988e+01
1.164750471791e+02
1.253506510981e+02
2.576130020057e+01
3.672683775528e+01
1.201974355048e+02
7.507205723277e+01
1.160701375024e+02
1.556131656268e+02
1.239066386211e+02
8.442768632139e+01
1.275757542475e+02
3.066926497136e+01
6.674228768955e+01
1.311844220221e+02
1.020552617238e+02
2.673527103435e+01
1.142972887375e+02
1.595234553884e+02
8.227243563750e+01
1.202587597510e+02
7.699797293151e+01
2.966601169132e+01
1.286276832780e+02
1.107979225893e+02
1.208975180571e+02
1.089191075439e+02
1.368270169483e+02
3.443472383650e+01
6.066269009426e+01
5.051387342655e+01
8.941816041918e+01
1.114452716938e+02
3.432410958755e+01
8.591490627934e+01
3.573376216864e+01
8.501256480636e+01
1.353567588454e+02
2.623178336108e+01
8.956764958231e+01
5.643438168895e+01
8.473144928004e+01
1.171869620170e+02
8.899202946196e+01
8.380698486622e+01
7.502516844418e+01
8.781637730890e+01
8.529427105610e+01
1.758128020466e+02
1.042286828172e+01
2.895240831605e+01
6.795683801008e+00
3.310637149221e+01
7.266382648069e+01
9.441572603599e+01
1.062749603341e+01
6.676837178395e+01
1.186419606016e+02
1.556476005287e+02
4.001880237959e+01
1.529224942317e+02
1.273417475869e+02
6.480520389371e+01
8.928956835008e+00
1.491307684652e+01
1.392035132939e+02
2.781904127793e+01
2.938913497927e+01
2.603105285028e+01
6.969128427263e+01
2.309791600682e+01
2.617442980559e+01
1.615700766749e+02
1.164647222997e+01
1.368925961866e+02
2.343466545613e+01
8.324336672679e+01
1.529402393705e+02
1.754705753587e+02
1.447534455390e+02
2.066082586452e+01
2.250909560985e+01
1.369505986122e+02
4.780021243740e+01
1.762967598587e+02
1.269992164057e+01
7.622023023218e+01
3.521469509589e+01
7.622753605725e+01
1.039687183767e+02
1.949898576709e+01
3.117440379250e+01
1.708962634543e+02
1.083221644177e+02
1.673822022141e+01
3.924885041551e+01
8.641551620391e+01
1.120478202047e+01
1.689416098371e+02
1.131878008740e+02
1.704320578966e+02
2.583468165053e+01
1.472909316412e+01
1.690548000207e+02
1.285859815364e+02
4.057200088629e+01
9.279771399953e+01
1.164506493676e+01
9.410269727146e+00
1.597944126650e+01
1.764319614498e+02
7.865708401447e+01
9.460364947715e+01
2.285771790387e+01
6.318784022359e+01
1.403075398216e+02
2.205440542065e+01
7.859718024397e+01
1.679648246196e+02
9.520441411929e+01
1.660042314006e+02
9.646857657605e+00
1.524213337381e+02
1.604810707014e+02
8.810495502020e+00
1.015258022812e+02
7.746995550302e+01
3.353588228862e+01
8.646020382073e+01
7.647579493532e+00
8.909646590460e+00
1.774258506721e+02
3.216497097588e+01
1.539407758006e+01
1.247171446809e+02
1.144508515303e+02
5.860890933833e+01
3.008171270330e+01
7.054678862365e+00
3.105883761516e+01
1.565675431829e+02
8.904031056084e+01
2.434540443669e+01
2.128579559765e+01
1.209415602990e+02
1.016376036183e+02
1.336900917155e+02
1.583346797712e+02
1.174465984788e+01
1.222426491043e+02
1.463445231814e+01
1.711956333459e+02
1.056911255553e+02

SCALARS node_materi_strain_total_average_a_ept float
LOOKUP_TABLE default
5.314556806875e-05
4.465104224227e-03
2.767737332060e-03
5.869237856938e-03
1.257299792504e-04
2.702897848186e-04
4.120890114315e-04
5.674315631691e-04
7.194376586944e-04
8.702274620552e-04
1.019732492105e-03
1.168273752000e-03
1.315996806829e-03
1.463327286182e-03
1.612235191738e-03
1.757550859481e-03
1.887794557091e-03
2.028006736152e-03
2.170298832767e-03
2.306016860015e-03
2.440786091601e-03
2.574303098171e-03
2.704024320987e-03
5.878314285743e-03
5.868109241835e-03
5.865727215103e-03
5.858923283471e-03
5.840822785035e-03
5.832973787912e-03
5.809098582047e-03
5.778885962461e-03
5.746270413707e-03
5.704358320385e-03
5.639918771952e-03
5.577881853497e-03
5.492806929208e-03
5.400928811983e-03
5.292121835434e-03
5.173140168175e-03
5.040376359777e-03
4.905684851981e-03
4.769667931670e-03
4.631875841165e-03
4.491181859888e-03
4.347937238592e-03
4.210114248522e-03
4.076267296865e-03
3.949348138324e-03
3.830060811968e-03
3.715431419095e-03
3.613507137591e-03
3.511308627469e-03
3.424948128017e-03
3.341661076175e-03
3.258064189821e-03
3.184277304605e-03
3.126386275270e-03
3.072190525360e-03
3.019829364259e-03
2.982876455077e-03
2.938766219438e-03
2.907588637145e-03
2.873218582967e-03
2.850310426664e-03
2.839757355155e-03
2.829009694281e-03
2.792383450872e-03
2.798197732547e-03
2.779494821069e-03
2.774789864449e-03
2.777655679566e-03
2.774157445945e-03
4.556887048438e-03
4.704084013555e-03
4.850583764470e-03
4.995745837683e-03
5.145211316248e-03
5.297046991269e-03
5.449159401589e-03
5.605749933627e-03
5.759862782026e-03
-1.084401288985e-04
4.025969228213e-03
1.136473816597e-04
4.971024668091e-04
9.308294498793e-04
1.367735924527e-03
1.822893785586e-03
2.288240983969e-03
2.744388857166e-03
3.200121619173e-03
3.629664419178e-03
4.466604861494e-03
4.470851960057e-03
4.469007941215e-03
4.465409832269e-03
4.482972982008e-03
4.471060828276e-03
4.468768002737e-03
4.473642851757e-03
4.478771678377e-03
4.472913717978e-03
4.466302368571e-03
4.441205946060e-03
4.391213683838e-03
4.275283099463e-03
-1.366875683420e-04
-1.686883654569e-04
-1.765100207966e-04
-1.629980380794e-04
-1.367463890299e-04
-1.148916123226e-04
-9.346167299930e-05
-7.239995264612e-05
-5.224964702330e-05
-3.358848676748e-05
-1.395863499002e-05
-1.083921231733e-06
1.349630578953e-05
2.559191141423e-05
3.617606318407e-05
4.359230952497e-05
4.945569858841e-05
5.314517776308e-05
5.248749728806e-05
-2.758466740117e-05
2.960182656658e-04
7.121570963744e-04
1.157599913527e-03
1.593604864911e-03
2.058625203611e-03
2.517393391343e-03
2.976435477668e-03
3.424939663388e-03
3.798570508459e-03
4.998014077995e-04
3.121266892590e-03
2.259199651323e-05
-5.986527345160e-05
2.887036265701e-03
1.352459789095e-03
1.544049348348e-03
3.420805985820e-03
2.203012990321e-03
3.842624904961e-03
3.102260668824e-03
2.795053449192e-03
7.089427038391e-05
4.360311279052e-03
3.896388155948e-03
9.524217427449e-04
1.936310338869e-03
4.757086929111e-03
5.260194500412e-03
5.752103020401e-03
5.653832695234e-03
5.515456728202e-03
4.351390230155e-03
4.510869117527e-03
4.538016618262e-03
5.071597781781e-03
2.745244764280e-03
-5.281772782487e-05
1.009363543732e-04
2.368988002860e-03
4.528802228998e-03
4.885425929219e-04
5.005927905216e-03
3.630065039623e-03
4.093172205021e-03
3.262801778388e-03
3.010663751404e-03
-2.102075545266e-05
4.468923797263e-03
2.806183705458e-03
5.367751048265e-03
5.477087782516e-05
1.243415949130e-03
5.799855461179e-03
1.785417148640e-03
9.151723693960e-04
2.648093835280e-03
3.532799837804e-03
1.217910960043e-04
4.789595973193e-03
2.751533426026e-03
1.033752243693e-04
5.676236422081e-03
4.085166647923e-03
4.016182660611e-03
4.198802041775e-03
4.115785697896e-03
4.282861515453e-03
4.219569397739e-03
4.047701050531e-03
4.162187852723e-03
3.985750482996e-03
4.380510513281e-03
4.107265517196e-03
3.927544676148e-03
4.053482823286e-03
3.872550905131e-03
3.742836456544e-03
3.688528011256e-03
3.554660888185e-03
3.501830985603e-03
3.638540420345e-03
3.453412306264e-03
3.312795107020e-03
3.267717891009e-03
3.122763978920e-03
3.081866811562e-03
2.931474635127e-03
2.896263388865e-03
3.045924179772e-03
2.865664443877e-03
2.712021230325e-03
2.687089945552e-03
2.529225300499e-03
2.509990921417e-03
2.666257228032e-03
2.495590224776e-03
2.334266816586e-03
2.327394283226e-03
2.161131467118e-03
2.162308256893e-03
1.991159379918e-03
1.999501345743e-03
2.166082699829e-03
2.009993493785e-03
1.839696865436e-03
1.857105541977e-03
2.023468592026e-03
1.876990099957e-03
2.039313747541e-03
1.899052115220e-03
1.735555346652e-03
1.763364968033e-03
1.922866172848e-03
1.792272210859e-03
1.632020836148e-03
1.666446406795e-03
1.823177855302e-03
1.702250954648e-03
1.545080216896e-03
1.585494690542e-03
1.740204019611e-03
1.626900285970e-03
1.472199657842e-03
1.517168477603e-03
1.670008551852e-03
1.563115683342e-03
1.714050664406e-03
1.409348291091e-03
1.458811297599e-03
1.303991207346e-03
1.357327988298e-03
2.649595377104e-03
1.202314863409e-03
1.147668180487e-03
1.258796905630e-03
1.411818300336e-03
1.103534601998e-03
1.162837218645e-03
1.007685055350e-03
1.982992988993e-03
3.591649101191e-03
1.069342337090e-03
9.146413195588e-04
8.506053745814e-04
7.586874322445e-04
4.424512231553e-03
4.534693033457e-03
4.569113080558e-03
4.682991683963e-03
4.705345255334e-03
8.239415840595e-04
4.232106237295e-03
4.653277856766e-03
3.170206784347e-03
2.552488206159e-03
2.183723261733e-03
1.222082917847e-03
1.130759114769e-03
1.281311937500e-03
1.820302550883e-03
1.861906609406e-03
1.967196480004e-03
2.006268750547e-03
2.110240713705e-03
2.147130948731e-03
2.046801978788e-03
2.185661950161e-03
2.088756365091e-03
2.249462940648e-03
2.216348762618e-03
2.225789983795e-03
2.132254782394e-03
2.267910176379e-03
2.177338197540e-03
2.039907759151e-03
2.087729321179e-03
1.949433377281e-03
2.195794311505e-03
2.338199631893e-03
2.346444696146e-03
2.486452388512e-03
2.491330815290e-03
2.628742837644e-03
2.630023735727e-03
2.499006995646e-03
4.000128156136e-03
1.684422488387e-03
1.662230491226e-03
1.504688907814e-03
1.477212568890e-03
1.317465736972e-03
1.284319129927e-03
1.121711453173e-03
1.163148471278e-03
9.647175241106e-04
1.015215519623e-03
8.150497693927e-04
8.735841450579e-04
3.013776386827e-03
2.629767737310e-03
2.769524516750e-03
2.775109155901e-03
6.919357736444e-04
2.224145711171e-03
2.353921561881e-03
2.324003376751e-03
2.635531186258e-03
6.705952977516e-04
1.083102514748e-03
1.253368819103e-03
4.824828430879e-03
4.835610419238e-03
2.460238320785e-03
7.361226501149e-04
2.321036342588e-03
7.583564768775e-04
2.137108950431e-03
2.272201431926e-03
1.948731760457e-03
2.913092478006e-03
2.922348405737e-03
1.066283449094e-03
9.310801310062e-04
7.431641446617e-04
8.056727153941e-04
9.881977985409e-04
8.649509413816e-04
6.837066175333e-04
7.468973921851e-04
9.250674622276e-04
8.113001587939e-04
6.340083117902e-04
7.021044910187e-04
2.357504758372e-03
6.087563023703e-04
3.613036230716e-03
2.487031852456e-03
2.761711679085e-03
4.962864418329e-03
4.962052318699e-03
4.837497067656e-03
4.952800040001e-03
5.086068919273e-03
5.067043672183e-03
4.935074778616e-03
5.040588879771e-03
4.908616781514e-03
5.006931824925e-03
5.146351253667e-03
5.105988231867e-03
4.966240529782e-03
5.060110957298e-03
4.919289943997e-03
5.008678273226e-03
5.154665305137e-03
5.879434790111e-04
2.509349434915e-03
2.644800343317e-03
1.195417323606e-03
1.340069232860e-03
1.430050783864e-03
1.489128648702e-03
5.098348959515e-03
5.248875243880e-03
1.047603708529e-03
1.225481574374e-03
4.955693629691e-03
2.188529645961e-03
2.051784216951e-03
2.364973321138e-03
2.385625057833e-03
2.191977150069e-03
2.206872664481e-03
2.411497793716e-03
2.003698705642e-03
2.183660251473e-03
5.251238864381e-03
7.859011239772e-04
6.246210965186e-04
2.322634075150e-03
2.370184442593e-03
3.190976096302e-03
3.157112194334e-03
3.331944436486e-03
3.295714688037e-03
3.469085517830e-03
3.429563112921e-03
3.263137262671e-03
3.059268210884e-03
3.394867714513e-03
4.950793670033e-03
2.631511567882e-03
9.850397531956e-04
5.195018401527e-04
5.222278151513e-04
6.490107652928e-04
8.011363487000e-04
2.591139091759e-03
3.602835323704e-03
3.643874607467e-03
2.233974827365e-03
2.445636081465e-03
3.044145010393e-03
4.599653982507e-03
4.812009674663e-03
4.783841187973e-03
4.863061618648e-04
4.572973841879e-04
5.207777396502e-03
1.427681581727e-03
1.409103753474e-03
5.417924748561e-04
3.937807972730e-04
5.187447584953e-03
5.339287517820e-03
1.577349161439e-03
1.633889650917e-03
2.569541511839e-03
5.966063787396e-04
5.401304148175e-03
2.386906106555e-03
2.244607744378e-03
1.399762935241e-03
1.015054479173e-03
8.342199069318e-04
1.099351630330e-03
7.685624145567e-04
7.140229594745e-04
2.698649542715e-03
5.228299865218e-03
3.234168763182e-03
3.099271617235e-03
3.363788243892e-03
4.230751039688e-04
2.617328621739e-03
2.241473952554e-03
3.772555092722e-03
3.820983163547e-03
1.606868916230e-03
1.601114986191e-03
1.398839738163e-03
1.601549303902e-03
3.868101412888e-03
1.794880121716e-03
3.420702060489e-03
3.483685972274e-03
3.284204357028e-03
2.613876151829e-03
2.657499804795e-03
1.641438982691e-03
2.331793421326e-03
1.521664203132e-03
1.900481521541e-03
1.929138473747e-03
5.292070246568e-03
5.402404641856e-03
4.830912386576e-03
4.781859750907e-03
5.320070126527e-04
4.613234526819e-04
1.759305966921e-03
2.514628109110e-03
5.101152937750e-03
5.096727409586e-03
4.941280434278e-03
2.680178994018e-03
1.534418714340e-03
2.209968418791e-03
4.680303693645e-04
2.815977338731e-03
3.734421152237e-04
3.772696499432e-03
2.375127255456e-03
2.454033794868e-03
3.184302111726e-03
3.823301323803e-03
2.797804959892e-03
2.637779626903e-03
3.351323827887e-03
3.146848561711e-03
3.081719359169e-03
2.933440106443e-03
1.152946331490e-03
1.042154033115e-03
3.744309682872e-03
3.521993596599e-03
3.951049567886e-03
4.006595318924e-03
3.167696160902e-03
3.031820383710e-03
8.607455597620e-04
2.488662941878e-03
5.357192887689e-03
3.552792878069e-03
2.638394146585e-03
2.547458487003e-03
2.521791572974e-04
3.297593063589e-04
5.495051266404e-03
1.389181213059e-03
1.596461136017e-03
1.183770761034e-03
2.633463227780e-03
4.528247083178e-03
2.506923881274e-03
2.819518979350e-03
5.559321845096e-03
2.785655042431e-03
2.175397212467e-03
2.547911019221e-03
5.419775116052e-03
5.590452598372e-03
4.698259051923e-03
4.658513648714e-03
4.714202740727e-03
7.049855245062e-04
4.635983260047e-04
5.355065445258e-03
1.042067294580e-03
1.119281821154e-03
6.628842239428e-04
8.286302064639e-04
1.667530950622e-03
1.614681866698e-03
3.728057803922e-03
3.907868766449e-03
3.369746607949e-03
2.267050572361e-03
2.122640151651e-03
2.098531757636e-03
5.441935751611e-03
5.569626777372e-03
1.266969353402e-03
1.217914413521e-03
1.203669893893e-03
5.379678464036e-03
2.583995928588e-03
2.530210860970e-03
3.006404170439e-04
3.879157154064e-04
7.926099595598e-04
6.126809364548e-04
5.082452615379e-03
4.918817401365e-03
5.253138399708e-03
7.639662999629e-04
3.082081604678e-03
2.803390077654e-03
2.793738159589e-03
2.838829673106e-03
3.201749468359e-03
3.316023723212e-03
3.485301078479e-03
1.700958464823e-04
5.544748136856e-03
4.692922741213e-03
6.341144756687e-05
4.642096389036e-03
4.725481620003e-03
4.574866735657e-03
6.171113079516e-04
4.595254248290e-03
4.618880424838e-03
1.970275290630e-04
5.517692347266e-03
2.238191677270e-04
2.912537085562e-04
2.676689494882e-03
2.581521389691e-03
2.703591297700e-03
2.610183471318e-03
2.488312022185e-03
2.531214856061e-03
4.611313082028e-03
2.673327113474e-03
2.576116715170e-03
2.721135334114e-03
3.010384697660e-03
1.802190561721e-03
1.815347313989e-03
1.609862495479e-03
4.159295910550e-03
4.181291795926e-03
2.300523120834e-03
2.163777065776e-03
4.656973003499e-03
4.653789089676e-03
4.781983117344e-03
4.769278700826e-03
4.899972432908e-03
4.883850947572e-03
5.018423196239e-03
3.660373131283e-03
1.161921833683e-03
3.431816705779e-03
3.147890962096e-03
3.011921485750e-03
2.710703409046e-03
2.555339674353e-03
2.757626147047e-03
1.796713475828e-03
5.558595992909e-03
-2.411447838172e-05
1.834470835020e-04
1.981277361358e-03
2.871531168133e-03
2.015556940576e-03
2.051175713660e-03
2.409566949035e-03
3.201773707540e-04
9.840775785184e-04
5.028345830851e-03
7.525437896933e-04
2.232885611062e-03
1.809654965559e-03
2.775810602864e-03
1.203455038421e-03
1.802232597960e-03
3.802001101505e-03
3.940104832296e-03
3.748886498160e-03
1.824328110965e-03
2.271984584794e-03
2.074809243168e-03
3.363899230297e-03
4.782024111073e-03
4.752453647238e-03
4.886279263312e-03
4.714997899865e-03
4.581641978792e-03
4.540327766735e-03
4.680518357459e-03
4.499691975546e-03
4.664307752205e-03
4.447475018630e-03
4.313454198860e-03
4.262520060239e-03
4.380956165000e-03
4.129962838434e-03
3.274514131201e-03
2.163096705534e-03
3.115285535567e-04
3.319722359041e-04
2.974252646721e-03
4.884549928074e-03
5.149745543669e-03
1.451221672208e-03
4.223393725245e-03
3.677276468385e-03
9.180606580571e-04
3.966273379857e-03
4.619536196836e-03
4.452332368233e-03
4.495191111543e-03
5.357336965478e-03
4.723454014366e-03
3.531474201132e-03
2.483914975234e-03
2.481663394557e-03
2.326638022133e-03
4.361555129269e-03
3.185600778909e-03
3.053853723951e-03
2.993133270548e-03
2.909603670288e-03
3.062474623739e-03
4.634397982162e-03
4.503759346143e-03
1.044210725849e-03
1.168364589387e-03
1.340952278457e-03
1.297030411473e-03
1.117851532134e-03
1.251996447532e-03
1.429253849403e-03
1.206748203734e-03
4.045460464505e-03
2.968029846730e-03
2.074758059124e-03
2.039361086416e-03
1.891731940257e-03
1.466755044531e-03
1.562245614337e-03
1.709398619133e-03
1.373086977975e-03
3.126271738418e-03
2.925585717503e-03
2.226118607848e-03
1.510029933650e-03
4.423230014616e-03
4.438437218616e-03
4.332852887313e-03
4.460267693645e-03
4.515385479560e-03
1.721129550505e-03
1.775684843367e-03
1.691527551466e-03
1.831090321430e-03
1.746200143798e-03
1.615906754345e-03
1.884909634358e-03
1.792581451945e-03
4.491629450997e-03
-3.541339797155e-05
1.345860119145e-04
1.362200800270e-04
2.951670939753e-04
3.081057048179e-04
4.832042560555e-04
4.643349851791e-04
1.305447198835e-04
-6.809393341337e-06
1.464861480009e-04
8.826881699552e-06
1.521388767376e-04
3.235213057439e-04
5.589665510635e-04
2.717776402503e-03
1.389045417642e-03
1.319000875961e-03
1.178010060246e-03
1.255812420828e-03
1.448689882052e-03
1.097788008716e-03
1.044254903132e-03
1.055217183821e-04
2.211893588640e-04
2.084300897775e-04
3.485704828986e-04
3.446081827178e-04
2.195519683503e-04
2.159129890973e-04
9.456130725004e-05
2.115472014943e-04
3.462553423326e-04
8.417029307005e-05
5.221763006828e-03
5.304076968731e-03
2.853403771767e-03
4.529288859006e-03
4.087444113441e-05
5.742012821932e-03
5.703943928684e-03
5.736738797194e-03
2.503913778202e-03
2.572075804090e-03
5.766768909504e-03
9.454554458876e-04
4.847043843225e-03
5.457449500019e-03
8.751481330721e-04
9.346459917854e-04
2.106032136703e-03
1.993808583180e-03
2.403365022577e-03
1.999910878844e-03
2.311890241177e-03
2.924648476090e-03
5.672626011806e-04
4.873343642798e-03
4.866702844670e-03
5.205350578971e-03
9.777214208509e-04
1.553588464101e-03
6.023388571557e-04
3.923008919941e-03
3.224654786933e-03
1.779687291055e-03
1.315913919890e-03
1.044772363049e-03
8.749942220802e-04
2.346824615562e-03
1.610679105070e-03
2.284299312114e-03
5.304190819197e-03
7.710076406058e-05
2.384537518162e-03
1.904672677528e-03
4.829521972650e-03
2.764654051800e-03
5.697299082770e-04
5.179872304406e-03
5.244147328314e-03
4.619179852553e-03
4.449251633377e-04
4.742016005846e-03
2.715257978399e-03
4.806893312020e-03
8.886101557470e-04
2.057349123399e-03
2.741158723556e-03
3.735551244484e-03
5.506636822265e-03
2.485446890479e-03
2.768772349149e-03
2.357146092241e-03
9.538666390069e-04
2.453006824612e-03
2.173823032604e-03
5.326036949381e-03
3.508462110056e-03
1.708969111979e-03
5.097662632254e-03
1.855976043640e-03
2.903321766753e-03
3.024500923320e-03
3.227653585206e-03
3.820244983777e-03
2.839045365320e-03
2.025374992228e-03
2.417702708615e-03
6.732612173074e-04
1.994735065587e-03
4.721350312821e-03
3.554297633174e-03
5.478315510395e-03
2.580121388497e-03
2.359311615550e-03
5.241165239600e-03
1.659589615074e-03
6.562643710802e-04
6.639859157207e-04
1.352671377083e-03
2.324573514897e-03
1.805765792373e-03
5.067898275013e-03
2.400184080007e-03
2.434463169665e-03
3.069576101966e-04
3.637300230693e-03
2.443542508563e-03
2.077203040355e-03
2.893251956313e-03
1.658858270121e-03
3.797851490286e-03
2.785557694108e-03
2.490680059825e-03
2.527508713130e-03
1.621908810236e-03
4.530587977185e-03
2.636522073964e-03
2.662057631935e-03
2.985223231940e-03
1.948044262403e-03
3.322358281201e-03
1.852999446917e-03
3.409355166664e-03
5.446256788372e-03
2.771253229339e-03
4.331231029999e-03
1.759186520804e-03
2.779358991723e-03
3.441711256817e-04
3.227979286969e-03
1.809808385577e-03
1.390354476024e-03
1.975124927031e-03
3.301990289471e-03
1.861738323970e-03
1.566341041311e-03
1.914620795987e-03
2.877682314253e-03
4.281744797190e-03
1.968360229966e-03
3.548363149643e-03
3.545428000376e-04
2.959814234017e-03
2.436132118390e-03
1.253066702992e-03
2.005485274445e-03
4.408172274902e-03
2.425116483887e-03
2.151543695880e-03
3.685741754551e-03
2.941523926814e-03
2.481219877636e-03
2.295031637514e-03
2.335282483563e-03
8.849276545288e-04
7.239060297779e-04
1.599031408966e-03
3.866427583871e-03
4.723472408686e-04
4.180601798801e-03
4.923419865509e-04
1.467717569769e-03
3.072222771765e-03
4.930976367649e-03
1.506159032967e-03
8.051293438083e-04
1.384431682238e-03
2.632360431889e-03
1.428347709168e-03
1.314744812492e-03
5.609194807144e-03
1.361883887696e-03
5.796922806123e-03
2.718015583819e-03
4.640707159145e-03
1.988350895807e-03
-5.604716168068e-05
1.865666300810e-03
1.095376328589e-03
3.950968141568e-03
4.647022319796e-03
9.894836487932e-04
4.561500818019e-03
3.731588147602e-03
5.147454526115e-03
2.883602077486e-03
2.931413336734e-03
5.513407672941e-03
4.516515517890e-03
1.599959707206e-04
2.092820365609e-03
1.530013024822e-03
1.373876394301e-03
9.513239487391e-04
1.003575159081e-03
2.939017257442e-04
1.135296306767e-03
3.106670827496e-03
4.597750306581e-03
3.216461124496e-03
7.061905466469e-04
5.385182558727e-03
3.476090341399e-03
2.808587710146e-03
3.343125740524e-03
5.566114329336e-04
4.526788542092e-03
4.042557845762e-03
5.259477010861e-03
2.785014846840e-03
4.537131395768e-03
5.658111856487e-03
5.498920894413e-04
5.673016704195e-03
4.084245603402e-03
4.812504389454e-03
4.338183766087e-03
2.634953660499e-03
4.816621368437e-03
3.694933637039e-04
5.132698243368e-03
1.261960682305e-03
1.006384497990e-04
2.744582246827e-03
4.213817700933e-03
2.638655069944e-03
3.430834172840e-04
1.626567362298e-04
2.827025630354e-03
4.330441794907e-03
6.279178881971e-04
5.654745299089e-03
1.590104430014e-04
4.498210511879e-03
1.929056553456e-04
2.762345992842e-03
5.571375974712e-03
1.386205226466e-03
4.215423733234e-03
9.055323405934e-04
3.652339344076e-03
2.750450772988e-04
5.634371927133e-03
2.913486495360e-03
5.198584510933e-03
3.373202621672e-03
1.035125854317e-04
3.598464827612e-03
2.879008780204e-03
4.517235901330e-03
4.994211349933e-03
1.122924830477e-03
4.616298810849e-04
5.820518651450e-03
8.470026190374e-05
4.508893665876e-03
2.742164163090e-03
4.435562467481e-04
4.747308917869e-03
4.461389839786e-03
1.693161542874e-03
5.423599695376e-03
4.178293736976e-04
-8.576744322136e-05
5.008818943611e-03
3.408550556477e-03
5.368548619400e-03
4.895240245941e-03
4.926661309146e-04
4.315699574752e-03
1.497396976413e-03
3.891017398284e-03
2.991352914846e-03
-1.038810777580e-05
1.817061605263e-03
1.669409676187e-04
2.716674739493e-03
1.557401035299e-03

SCALARS node_materi_strain_total_size_dev_sd_ept float
LOOKUP_TABLE default
7.175451259447e-05
1.227390396310e-02
6.702161679564e-03
1.447987311246e-02
1.789027099428e-04
4.614410449394e-04
7.190762731842e-04
1.010594159318e-03
1.290662311253e-03
1.566662782223e-03
1.847421587554e-03
2.136144165587e-03
2.434746509068e-03
2.751648541527e-03
3.096186902302e-03
3.440265006287e-03
3.767888924581e-03
4.153627577027e-03
4.571350917407e-03
4.998484784102e-03
5.453066132288e-03
5.935324174175e-03
6.407999338812e-03
1.447488885971e-02
1.446102877386e-02
1.446241081222e-02
1.445240812179e-02
1.444249027937e-02
1.443209749945e-02
1.441019970108e-02
1.436856311259e-02
1.432851060111e-02
1.425531520155e-02
1.418124783622e-02
1.407511039908e-02
1.394063501878e-02
1.377154125769e-02
1.358630540018e-02
1.334875107069e-02
1.309982679968e-02
1.282405922718e-02
1.253247579080e-02
1.222303509109e-02
1.188745094450e-02
1.155027600764e-02
1.120162601305e-02
1.085307272461e-02
1.051404630782e-02
1.018104296027e-02
9.855857201770e-03
9.537478982281e-03
9.230408284103e-03
8.971067312683e-03
8.684551472463e-03
8.408411717853e-03
8.160806692963e-03
7.961554495519e-03
7.770017318678e-03
7.603938764509e-03
7.452549957305e-03
7.314470648723e-03
7.188724380843e-03
7.083291817674e-03
7.012667502708e-03
6.962789396007e-03
6.911749756174e-03
6.794304530709e-03
6.810583529680e-03
6.765564865423e-03
6.754422876746e-03
6.753509940132e-03
6.743273742314e-03
1.245647505982e-02
1.279106180715e-02
1.310096000424e-02
1.338363579778e-02
1.364692137632e-02
1.388132362644e-02
1.408498999899e-02
1.425545644858e-02
1.441106389584e-02
1.176800288157e-03
1.259542988775e-02
2.270995821898e-03
3.343289799239e-03
4.388689239808e-03
5.391941132627e-03
6.430600668328e-03
7.499836274320e-03
8.591523116137e-03
9.720311921984e-03
1.098948600731e-02
1.226963916670e-02
1.224620526752e-02
1.224802064977e-02
1.224665104285e-02
1.228576198749e-02
1.225224880342e-02
1.223664948027e-02
1.223781199213e-02
1.225668847411e-02
1.226499039270e-02
1.227495987212e-02
1.233168819445e-02
1.245574082884e-02
1.272405174152e-02
1.150054374333e-03
1.237681665869e-03
1.225520786857e-03
1.138355492182e-03
1.015754599538e-03
9.080748209361e-04
7.940007868713e-04
6.780724254485e-04
5.703529884642e-04
4.681311352491e-04
3.745851526043e-04
3.119298296533e-04
2.255879157064e-04
1.521106390897e-04
1.084309656343e-04
8.293159495476e-05
6.710841779006e-05
6.806572269253e-05
7.531114517931e-05
1.674113653707e-03
2.826936955648e-03
3.869724824180e-03
4.911377573477e-03
5.958552666451e-03
6.997397872366e-03
8.045466416496e-03
9.145885597534e-03
1.032886633303e-02
1.181744877814e-02
2.891376689415e-03
7.768270425019e-03
5.281731792337e-04
9.414898025852e-04
6.992914964828e-03
5.068715955252e-03
2.932580275687e-03
8.754949272821e-03
7.117442662791e-03
1.007761980652e-02
9.385806735755e-03
6.702771048020e-03
2.506972236288e-04
1.153899592966e-02
1.207007674789e-02
1.719133508272e-03
3.900363304859e-03
1.257398878445e-02
1.369206624683e-02
1.442590772610e-02
1.436579662533e-02
1.416004808809e-02
1.281204203070e-02
1.250335812485e-02
1.247571062630e-02
1.352356263353e-02
6.561022389743e-03
1.070847898762e-03
1.677218066966e-04
5.208246474338e-03
1.240487024922e-02
8.664918989525e-04
1.317628998422e-02
9.438863195879e-03
1.080890379078e-02
8.221074409793e-03
7.419853359536e-03
7.866087865398e-04
1.258443344448e-02
6.717739012461e-03
1.398690444682e-02
3.862604834940e-04
2.285603019054e-03
1.444908428660e-02
6.067420175957e-03
3.972282399848e-03
8.205834327758e-03
1.064777491888e-02
1.810206076418e-03
1.297482025114e-02
6.605537701936e-03
1.344404476152e-04
1.432335713655e-02
1.250288978261e-02
1.209180578150e-02
1.265523418710e-02
1.223092593270e-02
1.271397868221e-02
1.236309212245e-02
1.182961219630e-02
1.199890751315e-02
1.143110653869e-02
1.282344537439e-02
1.162980795213e-02
1.104113308006e-02
1.126243295721e-02
1.066692091608e-02
1.041742949538e-02
1.004268396380e-02
9.774143186477e-03
9.400486410612e-03
9.692707100384e-03
9.052398893130e-03
8.746926839716e-03
8.407459095863e-03
8.095061239536e-03
7.766158311144e-03
7.448932156059e-03
7.133887982904e-03
7.472429227262e-03
6.855765718654e-03
6.516719802990e-03
6.254734808697e-03
5.916585022301e-03
5.670875148449e-03
6.031171313831e-03
5.467607000825e-03
5.105497420916e-03
4.926707033501e-03
4.564080800458e-03
4.412763342308e-03
4.052019312240e-03
3.926264729497e-03
4.300559513849e-03
3.840237593761e-03
3.473193116990e-03
3.414489144750e-03
3.791110976328e-03
3.391637131894e-03
3.775655773216e-03
3.400328464967e-03
3.033411911287e-03
3.064534614260e-03
3.435674370270e-03
3.118265229897e-03
2.767195412417e-03
2.838784467417e-03
3.193760708323e-03
2.927960811187e-03
2.593785145528e-03
2.693750170462e-03
3.034133440537e-03
2.805826388681e-03
2.486018447327e-03
2.602337875930e-03
2.930107130111e-03
2.727787866930e-03
3.063985084588e-03
2.416176415014e-03
2.542265060567e-03
2.244541300714e-03
2.370631661506e-03
5.848297856464e-03
2.084842315166e-03
1.970542401580e-03
2.208885088880e-03
2.504853923445e-03
1.931479503947e-03
2.053009123008e-03
1.782292394107e-03
4.216168877555e-03
9.370019443477e-03
1.900690156382e-03
1.634055157307e-03
1.524295034015e-03
1.376697922185e-03
1.308658150839e-02
1.319155526661e-02
1.338394966402e-02
1.349756621988e-02
1.362174987964e-02
1.483676232624e-03
1.181856042816e-02
1.329956263457e-02
8.459684961259e-03
6.201101280081e-03
4.188770069820e-03
2.180169797559e-03
2.024644983235e-03
2.312874539208e-03
3.284623781305e-03
3.425472757627e-03
3.665313551428e-03
3.812223475005e-03
4.071897049566e-03
4.224515429091e-03
3.967518156028e-03
4.385492567355e-03
4.129830333077e-03
4.504218314693e-03
4.355719102727e-03
4.553173711524e-03
4.298363779724e-03
4.727423279840e-03
4.472009361907e-03
4.060024529356e-03
4.231300165513e-03
3.837406085519e-03
4.181043470572e-03
4.608570937631e-03
4.608256036863e-03
5.050022161561e-03
5.058628569196e-03
5.514881471407e-03
5.532950770308e-03
5.095082943335e-03
1.090898873044e-02
3.057645623790e-03
3.125211251699e-03
2.719511334192e-03
2.796924386698e-03
2.400701458090e-03
2.491451790280e-03
2.103607944557e-03
2.051986706939e-03
1.767149629873e-03
1.755925651075e-03
1.488632082875e-03
1.515303573236e-03
7.215245561672e-03
5.524110586574e-03
6.003369759151e-03
6.023845820020e-03
1.275119995736e-03
4.649773955103e-03
4.809442583858e-03
4.664941295264e-03
5.581871995841e-03
1.227459027698e-03
2.213389043411e-03
2.641509131128e-03
1.373877718056e-02
1.380790500183e-02
5.142266160767e-03
1.332228144799e-03
4.828683795192e-03
1.509548336020e-03
4.406028609897e-03
4.830447053857e-03
3.731418635070e-03
6.517536901149e-03
6.544892733861e-03
1.786619854700e-03
1.573599313796e-03
1.336107738361e-03
1.410369278906e-03
1.644897279279e-03
1.483280956903e-03
1.262353568112e-03
1.344862037476e-03
1.571327059617e-03
1.433359052776e-03
1.220415030224e-03
1.302746267157e-03
5.090399812206e-03
1.254470562815e-03
1.017597563887e-02
5.288472870436e-03
6.032940446507e-03
1.392942551424e-02
1.395566139757e-02
1.379199391828e-02
1.391333226986e-02
1.407203919694e-02
1.401585393481e-02
1.381237933530e-02
1.391286247516e-02
1.366690755624e-02
1.377503111389e-02
1.400278940109e-02
1.387271825847e-02
1.361489156166e-02
1.372510110817e-02
1.344411519355e-02
1.356643762750e-02
1.382646868411e-02
1.080339296845e-03
5.158170333394e-03
5.661367095716e-03
2.162278391114e-03
2.445562366347e-03
2.615869288548e-03
2.761851103466e-03
1.368055227118e-02
1.392171528415e-02
2.393710552238e-03
2.861509136737e-03
1.383538013774e-02
4.586336851889e-03
4.177341421504e-03
5.602547242033e-03
5.911587827383e-03
5.314827041935e-03
5.649439438979e-03
6.264988923223e-03
5.049981247466e-03
4.214502974275e-03
1.408096807633e-02
1.421396045642e-03
1.181114857339e-03
5.018532866143e-03
4.688120668812e-03
7.831063655477e-03
7.595023277217e-03
8.210268596448e-03
7.995718943349e-03
8.610857142262e-03
8.420197653738e-03
7.822013873039e-03
7.053724865159e-03
8.275813704364e-03
1.340120647862e-02
5.555855215076e-03
1.667512993666e-03
9.767235424424e-04
1.089736152050e-03
1.173854203060e-03
1.442697153773e-03
5.644106676285e-03
9.037667791459e-03
9.227860092991e-03
6.043553127101e-03
6.657142204001e-03
7.036184515655e-03
1.347529653473e-02
1.354973145065e-02
1.335852915111e-02
8.875093775381e-04
1.029751500532e-03
1.416631789688e-02
3.109961642824e-03
3.366640832858e-03
1.293788369532e-03
1.069481904592e-03
1.378740381842e-02
1.400776032321e-02
2.936401518981e-03
3.089486693334e-03
5.506882301577e-03
1.172301026741e-03
1.411987662508e-02
4.768262826578e-03
4.314897341758e-03
2.585231831906e-03
2.658870105863e-03
2.188444803586e-03
1.821238310280e-03
1.391548457987e-03
1.284841475081e-03
6.033719453145e-03
1.418341417145e-02
7.691774493574e-03
7.236298710003e-03
8.169042444001e-03
9.696226521534e-04
5.801098482037e-03
4.773035246449e-03
9.644685651887e-03
9.839118559208e-03
3.611996154156e-03
3.903425732747e-03
3.703774788489e-03
4.266177117710e-03
1.123586463199e-02
4.150146816564e-03
9.516878269628e-03
9.936813048639e-03
9.268223235386e-03
6.887603205237e-03
7.290204953945e-03
3.234843213722e-03
4.637382842430e-03
2.788820539278e-03
3.673135536729e-03
3.527824898068e-03
1.417758187934e-02
1.424050240574e-02
1.330878221957e-02
1.311936763307e-02
1.029674539263e-03
9.452844316136e-04
3.206900043604e-03
5.444065277054e-03
1.401794348449e-02
1.390879608223e-02
1.368596959785e-02
5.897537499939e-03
2.685021322703e-03
4.201028297461e-03
1.080538562736e-03
6.411258721291e-03
7.879863734403e-04
9.991217088922e-03
5.212634274793e-03
5.469795328829e-03
7.576021220282e-03
1.151026609351e-02
6.250999364667e-03
5.707222996086e-03
9.695209284678e-03
9.041416189735e-03
8.607736858159e-03
8.393300867901e-03
1.920357181452e-03
1.766096841662e-03
9.541315820955e-03
8.756559936566e-03
1.024062641278e-02
1.045270492399e-02
7.570987190818e-03
7.036370456665e-03
1.550714934223e-03
7.096044728177e-03
1.427059366383e-02
1.036977508151e-02
5.952348862296e-03
5.614404605800e-03
9.508855403377e-04
9.658647308495e-04
1.419422938189e-02
4.109150309173e-03
4.671554488839e-03
3.546030540449e-03
6.165370841895e-03
1.239595885998e-02
5.672070495419e-03
7.535333152942e-03
1.428462751618e-02
6.134419631246e-03
5.015481843658e-03
5.378536649888e-03
1.408150568464e-02
1.427112232622e-02
1.320954054362e-02
1.298461094328e-02
1.340886715619e-02
1.593612663634e-03
1.408543494162e-03
1.415126143733e-02
1.872102140559e-03
2.027890411369e-03
1.251512273792e-03
1.478736423519e-03
3.119370564378e-03
2.968252474870e-03
9.702666622682e-03
1.031019204818e-02
8.457098473823e-03
4.409125973327e-03
3.976004328431e-03
3.891196251031e-03
1.429524270559e-02
1.435308653852e-02
2.091127471875e-03
1.996759852127e-03
2.022099090255e-03
1.425715082436e-02
5.937784716397e-03
5.742593779014e-03
7.201375276603e-04
8.695583068302e-04
2.498658477716e-03
2.011508054185e-03
1.374139597983e-02
1.349359695414e-02
1.395258240109e-02
1.374801489981e-03
7.134173362343e-03
6.439517837164e-03
6.315383183424e-03
6.653200566984e-03
7.589893306656e-03
8.104879339058e-03
8.685952937348e-03
9.514591141539e-04
1.420385344972e-02
1.294082143361e-02
9.493219999808e-04
1.274342300713e-02
1.293120719613e-02
1.254057851043e-02
1.106886489672e-03
1.298110660585e-02
1.326213903783e-02
6.078178877486e-04
1.431666342830e-02
5.634820269727e-04
6.311070830323e-04
6.121349166848e-03
5.781766509352e-03
6.284230083865e-03
5.951599857914e-03
5.466182981388e-03
5.657872484820e-03
1.275003779715e-02
6.217583189816e-03
5.861553023576e-03
6.417559232120e-03
8.869495486728e-03
4.834628766315e-03
5.250073020160e-03
5.214786929924e-03
1.091278572439e-02
1.101576745223e-02
4.975696919676e-03
4.546758040793e-03
1.273275515996e-02
1.269841582180e-02
1.300545300839e-02
1.295218462253e-02
1.324124058663e-02
1.318110589714e-02
1.345741243189e-02
9.338165326302e-03
3.997812025493e-03
1.015214056553e-02
7.580939474751e-03
7.032429155609e-03
7.729831405549e-03
7.610940728753e-03
6.405105685943e-03
3.895242806216e-03
1.426371635143e-02
1.127960414083e-03
1.180024186683e-03
4.435319415137e-03
7.948876500007e-03
5.423840114656e-03
5.880273315694e-03
4.876247417521e-03
8.122571601347e-04
3.011783697705e-03
1.351243089662e-02
2.909476002821e-03
4.766471851842e-03
3.709781325364e-03
7.155045896374e-03
3.166529978915e-03
4.473469299878e-03
1.081632064424e-02
1.166599020977e-02
1.104552977114e-02
3.570814096187e-03
6.483394462645e-03
6.387052527972e-03
9.117951854090e-03
1.340072837978e-02
1.316632860101e-02
1.326028628094e-02
1.291130352840e-02
1.277621878396e-02
1.248979853531e-02
1.266089815867e-02
1.221153736835e-02
1.247593381933e-02
1.193217673501e-02
1.169426231153e-02
1.141485313164e-02
1.166300162068e-02
1.115566521798e-02
8.135210338300e-03
4.758835054829e-03
1.113168365549e-03
1.495057735468e-03
7.804278710771e-03
1.287535262698e-02
1.348842163332e-02
2.923811013382e-03
1.117425775078e-02
1.060075046688e-02
1.834953164852e-03
1.044356427531e-02
1.305334310486e-02
1.263980690628e-02
1.293731194784e-02
1.389105990563e-02
1.356879459560e-02
9.138204962135e-03
5.069148681595e-03
5.113830963274e-03
4.695944973133e-03
1.200468719305e-02
7.986560421391e-03
7.347280155063e-03
7.156182836920e-03
6.716839724533e-03
7.573026637582e-03
1.225723774553e-02
1.192185888523e-02
1.728311004949e-03
1.912766771960e-03
2.201892476274e-03
2.131991727900e-03
1.841514474812e-03
2.078409545541e-03
2.388626868157e-03
2.047612443858e-03
1.065451850217e-02
7.264791727694e-03
3.928300185018e-03
3.793472785882e-03
3.400754249730e-03
2.645025571875e-03
2.820851728721e-03
3.156985100515e-03
2.476729394690e-03
7.394767954764e-03
7.126348766351e-03
4.245975434730e-03
2.677927330262e-03
1.269674174340e-02
1.308917620300e-02
1.303874732641e-02
1.324776256625e-02
1.308499490562e-02
3.274782324428e-03
3.432866127725e-03
3.244208685010e-03
3.592906340386e-03
3.390968721228e-03
3.075422027953e-03
3.747674554043e-03
3.519282390373e-03
1.253748852044e-02
8.650411958665e-04
8.365243448110e-04
7.915708856079e-04
9.170872531469e-04
9.309373540893e-04
1.065003842804e-03
1.055442473447e-03
8.727110993583e-04
6.981251066390e-04
7.345318336941e-04
6.068011308350e-04
6.782777980852e-04
8.741385928644e-04
1.101382773669e-03
6.474683186622e-03
2.589145168178e-03
2.439696242086e-03
2.150690092188e-03
2.303823780686e-03
2.712997429845e-03
1.997147858056e-03
1.893411208471e-03
1.520101932773e-04
3.658032454856e-04
3.372243304975e-04
6.075746705315e-04
6.106665287052e-04
3.801536295235e-04
3.988545837492e-04
1.875124864135e-04
4.204500911912e-04
6.507177972408e-04
2.098905509947e-04
1.377395052939e-02
1.390412651929e-02
6.882463260243e-03
1.251007094651e-02
4.484139556921e-04
1.441495807731e-02
1.440385453511e-02
1.441876462908e-02
5.678608594188e-03
5.916303072093e-03
1.441452012478e-02
1.669530444484e-03
1.304745670751e-02
1.421527985406e-02
1.969973294875e-03
1.621799767544e-03
4.355677983036e-03
3.893532852394e-03
5.275227788729e-03
4.005915672484e-03
4.907252794094e-03
6.919745890306e-03
1.022934025281e-03
1.349214258925e-02
1.326939484278e-02
1.396163794683e-02
1.749682814076e-03
2.920421980095e-03
1.126439712747e-03
1.018305576194e-02
8.854493523611e-03
3.153607057321e-03
2.340087742166e-03
1.817702062773e-03
1.527026574576e-03
5.331836599991e-03
2.862993698044e-03
4.662271838354e-03
1.404368067601e-02
3.488308433718e-04
4.961746104536e-03
3.574833859762e-03
1.369873807946e-02
6.004081433116e-03
1.152533763548e-03
1.410286165809e-02
1.406938779539e-02
1.342965284854e-02
8.751192021779e-04
1.315432079770e-02
6.179467156907e-03
1.359828157001e-02
1.596836836896e-03
3.789868311555e-03
6.816553044537e-03
1.136027937052e-02
1.428725459398e-02
5.306539222625e-03
6.106061254147e-03
4.635407470497e-03
1.718005842585e-03
5.296616561617e-03
4.227815177173e-03
1.424287757164e-02
8.830745645701e-03
3.028944692816e-03
1.407389794649e-02
3.288093326907e-03
6.508353563381e-03
8.193974842031e-03
8.102070268206e-03
1.031369491492e-02
6.614661445626e-03
4.136760030287e-03
5.126288140902e-03
1.272326483707e-03
4.728336392029e-03
1.364615327197e-02
8.860544901079e-03
1.433424530480e-02
6.525446931311e-03
4.999680129185e-03
1.415082399331e-02
3.006778814437e-03
1.171882509060e-03
1.786709566514e-03
2.359200066917e-03
4.790522824712e-03
3.357562537152e-03
1.355068184365e-02
5.178528207182e-03
5.004972015438e-03
2.343767234422e-03
1.084260916518e-02
5.364526473989e-03
3.829510332748e-03
6.514946401411e-03
3.187004502626e-03
9.796499888951e-03
8.227566395358e-03
5.561146154227e-03
5.257996781104e-03
3.393395059230e-03
1.239596907820e-02
6.117941032699e-03
5.778763813558e-03
6.994581631238e-03
3.493341190985e-03
9.995746049590e-03
3.513697855145e-03
8.736744186642e-03
1.403854583149e-02
6.190003270467e-03
1.250496950913e-02
3.310427815255e-03
6.061892226308e-03
6.253798342192e-04
9.506010178670e-03
3.468252092258e-03
2.358513602188e-03
3.572530680452e-03
8.115849389957e-03
3.630184992145e-03
2.686839064138e-03
3.794880409577e-03
8.777942310344e-03
1.216583165176e-02
3.960569806039e-03
9.081521986946e-03
6.981724300113e-04
6.812322235466e-03
5.431341354429e-03
2.128911639572e-03
3.672877557413e-03
1.232561136076e-02
7.635797340194e-03
4.085258195186e-03
9.448053633612e-03
6.678413269538e-03
5.190155497049e-03
4.528848808955e-03
7.032476996220e-03
1.567171435399e-03
1.331229860458e-03
2.716051916167e-03
1.006505641197e-02
8.455142083793e-04
1.147692207921e-02
1.029004929706e-03
2.440101257895e-03
7.084884960972e-03
1.326608755553e-02
2.509260892521e-03
1.446001008773e-03
2.285007672445e-03
5.611430314266e-03
2.380702876490e-03
2.192228182372e-03
1.434194102527e-02
2.300299417076e-03
1.443631336561e-02
6.476420955975e-03
1.265562940080e-02
6.668830027126e-03
1.051954004525e-03
5.721150757352e-03
1.865616446785e-03
1.058744338240e-02
1.267118636395e-02
1.716843306792e-03
1.212329688699e-02
9.764322664321e-03
1.366757389201e-02
6.554475611419e-03
6.595632531797e-03
1.416209611181e-02
1.239215065601e-02
6.269787228126e-04
4.342610774980e-03
5.566927179305e-03
4.553559161792e-03
3.447420648983e-03
1.815481270186e-03
8.830782015089e-04
4.501563804781e-03
7.520355497727e-03
1.284673222967e-02
7.617229007134e-03
3.423078721717e-03
1.418343566407e-02
8.741294173892e-03
6.754199810921e-03
8.129426742873e-03
2.389113055622e-03
1.331552740143e-02
1.056123667097e-02
1.387344061267e-02
6.686505978113e-03
1.291988800796e-02
1.433920883036e-02
1.121368743059e-03
1.432844011996e-02
1.088259965538e-02
1.310571660173e-02
1.297959523429e-02
6.159343359014e-03
1.285962736482e-02
1.844314912209e-03
1.367342750615e-02
2.300760378413e-03
9.061524746607e-04
6.409540906961e-03
1.117774862315e-02
6.158016682453e-03
5.946423122863e-04
5.125393895695e-04
6.667712853090e-03
1.144382562728e-02
1.212567122253e-03
1.432938129628e-02
1.423104325402e-03
1.236839270321e-02
4.303429199820e-04
6.619049082061e-03
1.435972875805e-02
2.570578786452e-03
1.280843171103e-02
1.635193113820e-03
9.240608289699e-03
7.886122682642e-04
1.437513729704e-02
6.941526428293e-03
1.377766025921e-02
8.661604026897e-03
1.010020112324e-03
9.196350580708e-03
6.656710416296e-03
1.238387424313e-02
1.330221372918e-02
2.042791317884e-03
8.668247777882e-04
1.444735403235e-02
1.064132929051e-04
1.236781755915e-02
6.578779958758e-03
7.974883020390e-04
1.289399875986e-02
1.182023485660e-02
3.280895025614e-03
1.405938931910e-02
9.971098051406e-04
1.017275455036e-03
1.342196315563e-02
8.558938751051e-03
1.410312442106e-02
1.326227427692e-02
1.681672369249e-03
1.143269748148e-02
2.806387988267e-03
1.005608098766e-02
7.026698506454e-03
1.360826569612e-03
3.589459505119e-03
4.428309708415e-04
6.378647267165e-03
2.951633856560e-03


CELL_DATA 1919

SCALARS element_number int
LOOKUP_TABLE default
407
408
409
410
411
412
413
414
415
416
417
418
419
420
421
422
423
424
425
426
427
428
429
430
431
432
433
434
435
436
437
438
439
440
441
442
443
444
445
446
447
448
449
450
451
452
453
454
455
456
457
458
459
460
461
462
463
464
465
466
467
468
469
470
471
472
473
474
475
476
477
478
479
480
481
482
483
484
485
486
487
488
489
490
491
492
493
494
495
496
497
498
499
500
501
502
503
504
505
506
507
508
509
510
511
512
513
514
515
516
517
518
519
520
521
522
523
524
525
526
527
528
529
530
531
532
533
534
535
536
537
538
539
540
541
542
543
544
545
546
547
548
549
550
551
552
553
554
555
556
557
558
559
560
561
562
563
564
565
566
567
568
569
570
571
572
573
574
575
576
577
578
579
580
581
582
583
584
585
586
587
588
589
590
591
592
593
594
595
596
597
598
599
600
601
602
603
604
605
606
607
608
609
610
611
612
613
614
615
616
617
618
619
620
621
622
623
624
625
626
627
628
629
630
631
632
633
634
635
636
637
638
639
640
641
642
643
644
645
646
647
648
649
650
651
652
653
654
655
656
657
658
659
660
661
662
663
664
665
666
667
668
669
670
671
672
673
674
675
676
677
678
679
680
681
682
683
684
685
686
687
688
689
690
691
692
693
694
695
696
697
698
699
700
701
702
703
704
705
706
707
708
709
710
711
712
713
714
715
716
717
718
719
720
721
722
723
724
725
726
727
728
729
730
731
732
733
734
735
736
737
738
739
740
741
742
743
744
745
746
747
748
749
750
751
752
753
754
755
756
757
758
759
760
761
762
763
764
765
766
767
768
769
770
771
772
773
774
775
776
777
778
779
780
781
782
783
784
785
786
787
788
789
790
791
792
793
794
795
796
797
798
799
800
801
802
803
804
805
806
807
808
809
810
811
812
813
814
815
816
817
818
819
820
821
822
823
824
825
826
827
828
829
830
831
832
833
834
835
836
837
838
839
840
841
842
843
844
845
846
847
848
849
850
851
852
853
854
855
856
857
858
859
860
861
862
863
864
865
866
867
868
869
870
871
872
873
874
875
876
877
878
879
880
881
882
883
884
885
886
887
888
889
890
891
892
893
894
895
896
897
898
899
900
901
902
903
904
905
906
907
908
909
910
911
912
913
914
915
916
917
918
919
920
921
922
923
924
925
926
927
928
929
930
931
932
933
934
935
936
937
938
939
940
941
942
943
944
945
946
947
948
949
950
951
952
953
954
955
956
957
958
959
960
961
962
963
964
965
966
967
968
969
970
971
972
973
974
975
976
977
978
979
980
981
982
983
984
985
986
987
988
989
990
991
992
993
994
995
996
997
998
999
1000
1001
1002
1003
1004
1005
1006
1007
1008
1009
1010
1011
1012
1013
1014
1015
1016
1017
1018
1019
1020
1021
1022
1023
1024
1025
1026
1027
1028
1029
1030
1031
1032
1033
1034
1035
1036
1037
1038
1039
1040
1041
1042
1043
1044
1045
1046
1047
1048
1049
1050
1051
1052
1053
1054
1055
1056
1057
1058
1059
1060
1061
1062
1063
1064
1065
1066
1067
1068
1069
1070
1071
1072
1073
1074
1075
1076
1077
1078
1079
1080
1081
1082
1083
1084
1085
1086
1087
1088
1089
1090
1091
1092
1093
1094
1095
1096
1097
1098
1099
1100
1101
1102
1103
1104
1105
1106
1107
1108
1109
1110
1111
1112
1113
1114
1115
1116
1117
1118
1119
1120
1121
1122
1123
1124
1125
1126
1127
1128
1129
1130
1131
1132
1133
1134
1135
1136
1137
1138
1139
1140
1141
1142
1143
1144
1145
1146
1147
1148
1149
1150
1151
1152
1153
1154
1155
1156
1157
1158
1159
1160
1161
1162
1163
1164
1165
1166
1167
1168
1169
1170
1171
1172
1173
1174
1175
1176
1177
1178
1179
1180
1181
1182
1183
1184
1185
1186
1187
1188
1189
1190
1191
1192
1193
1194
1195
1196
1197
1198
1199
1200
1201
1202
1203
1204
1205
1206
1207
1208
1209
1210
1211
1212
1213
1214
1215
1216
1217
1218
1219
1220
1221
1222
1223
1224
1225
1226
1227
1228
1229
1230
1231
1232
1233
1234
1235
1236
1237
1238
1239
1240
1241
1242
1243
1244
1245
1246
1247
1248
1249
1250
1251
1252
1253
1254
1255
1256
1257
1258
1259
1260
1261
1262
1263
1264
1265
1266
1267
1268
1269
1270
1271
1272
1273
1274
1275
1276
1277
1278
1279
1280
1281
1282
1283
1284
1285
1286
1287
1288
1289
1290
1291
1292
1293
1294
1295
1296
1297
1298
1299
1300
1301
1302
1303
1304
1305
1306
1307
1308
1309
1310
1311
1312
1313
1314
1315
1316
1317
1318
1319
1320
1321
1322
1323
1324
1325
1326
1327
1328
1329
1330
1331
1332
1333
1334
1335
1336
1337
1338
1339
1340
1341
1342
1343
1344
1345
1346
1347
1348
1349
1350
1351
1352
1353
1354
1355
1356
1357
1358
1359
1360
1361
1362
1363
1364
1365
1366
1367
1368
1369
1370
1371
1372
1373
1374
1375
1376
1377
1378
1379
1380
1381
1382
1383
1384
1385
1386
1387
1388
1389
1390
1391
1392
1393
1394
1395
1396
1397
1398
1399
1400
1401
1402
1403
1404
1405
1406
1407
1408
1409
1410
1411
1412
1413
1414
1415
1416
1417
1418
1419
1420
1421
1422
1423
1424
1425
1426
1427
1428
1429
1430
1431
1432
1433
1434
1435
1436
1437
1438
1439
1440
1441
1442
1443
1444
1445
1446
1447
1448
1449
1450
1451
1452
1453
1454
1455
1456
1457
1458
1459
1460
1461
1462
1463
1464
1465
1466
1467
1468
1469
1470
1471
1472
1473
1474
1475
1476
1477
1478
1479
1480
1481
1482
1483
1484
1485
1486
1487
1488
1489
1490
1491
1492
1493
1494
1495
1496
1497
1498
1499
1500
1501
1502
1503
1504
1505
1506
1507
1508
1509
1510
1511
1512
1513
1514
1515
1516
1517
1518
1519
1520
1521
1522
1523
1524
1525
1526
1527
1528
1529
1530
1531
1532
1533
1534
1535
1536
1537
1538
1539
1540
1541
1542
1543
1544
1545
1546
1547
1548
1549
1550
1551
1552
1553
1554
1555
1556
1557
1558
1559
1560
1561
1562
1563
1564
1565
1566
1567
1568
1569
1570
1571
1572
1573
1574
1575
1576
1577
1578
1579
1580
1581
1582
1583
1584
1585
1586
1587
1588
1589
1590
1591
1592
1593
1594
1595
1596
1597
1598
1599
1600
1601
1602
1603
1604
1605
1606
1607
1608
1609
1610
1611
1612
1613
1614
1615
1616
1617
1618
1619
1620
1621
1622
1623
1624
1625
1626
1627
1628
1629
1630
1631
1632
1633
1634
1635
1636
1637
1638
1639
1640
1641
1642
1643
1644
1645
1646
1647
1648
1649
1650
1651
1652
1653
1654
1655
1656
1657
1658
1659
1660
1661
1662
1663
1664
1665
1666
1667
1668
1669
1670
1671
1672
1673
1674
1675
1676
1677
1678
1679
1680
1681
1682
1683
1684
1685
1686
1687
1688
1689
1690
1691
1692
1693
1694
1695
1696
1697
1698
1699
1700
1701
1702
1703
1704
1705
1706
1707
1708
1709
1710
1711
1712
1713
1714
1715
1716
1717
1718
1719
1720
1721
1722
1723
1724
1725
1726
1727
1728
1729
1730
1731
1732
1733
1734
1735
1736
1737
1738
1739
1740
1741
1742
1743
1744
1745
1746
1747
1748
1749
1750
1751
1752
1753
1754
1755
1756
1757
1758
1759
1760
1761
1762
1763
1764
1765
1766
1767
1768
1769
1770
1771
1772
1773
1774
1775
1776
1777
1778
1779
1780
1781
1782
1783
1784
1785
1786
1787
1788
1789
1790
1791
1792
1793
1794
1795
1796
1797
1798
1799
1800
1801
1802
1803
1804
1805
1806
1807
1808
1809
1810
1811
1812
1813
1814
1815
1816
1817
1818
1819
1820
1821
1822
1823
1824
1825
1826
1827
1828
1829
1830
1831
1832
1833
1834
1835
1836
1837
1838
1839
1840
1841
1842
1843
1844
1845
1846
1847
1848
1849
1850
1851
1852
1853
1854
1855
1856
1857
1858
1859
1860
1861
1862
1863
1864
1865
1866
1867
1868
1869
1870
1871
1872
1873
1874
1875
1876
1877
1878
1879
1880
1881
1882
1883
1884
1885
1886
1887
1888
1889
1890
1891
1892
1893
1894
1895
1896
1897
1898
1899
1900
1901
1902
1903
1904
1905
1906
1907
1908
1909
1910
1911
1912
1913
1914
1915
1916
1917
1918
1919
1920
1921
1922
1923
1924
1925
1926
1927
1928
1929
1930
1931
1932
1933
1934
1935
1936
1937
1938
1939
1940
1941
1942
1943
1944
1945
1946
1947
1948
1949
1950
1951
1952
1953
1954
1955
1956
1957
1958
1959
1960
1961
1962
1963
1964
1965
1966
1967
1968
1969
1970
1971
1972
1973
1974
1975
1976
1977
1978
1979
1980
1981
1982
1983
1984
1985
1986
1987
1988
1989
1990
1991
1992
1993
1994
1995
1996
1997
1998
1999
2000
2001
2002
2003
2004
2005
2006
2007
2008
2009
2010
2011
2012
2013
2014
2015
2016
2017
2018
2019
2020
2021
2022
2023
2024
2025
2026
2027
2028
2029
2030
2031
2032
2033
2034
2035
2036
2037
2038
2039
2040
2041
2042
2043
2044
2045
2046
2047
2048
2049
2050
2051
2052
2053
2054
2055
2056
2057
2058
2059
2060
2061
2062
2063
2064
2065
2066
2067
2068
2069
2070
2071
2072
2073
2074
2075
2076
2077
2078
2079
2080
2081
2082
2083
2084
2085
2086
2087
2088
2089
2090
2091
2092
2093
2094
2095
2096
2097
2098
2099
2100
2101
2102
2103
2104
2105
2106
2107
2108
2109
2110
2111
2112
2113
2114
2115
2116
2117
2118
2119
2120
2121
2122
2123
2124
2125
2126
2127
2128
2129
2130
2131
2132
2133
2134
2135
2136
2137
2138
2139
2140
2141
2142
2143
2144
2145
2146
2147
2148
2149
2150
2151
2152
2153
2154
2155
2156
2157
2158
2159
2160
2161
2162
2163
2164
2165
2166
2167
2168
2169
2170
2171
2172
2173
2174
2175
2176
2177
2178
2179
2180
2181
2182
2183
2184
2185
2186
2187
2188
2189
2190
2191
2192
2193
2194
2195
2196
2197
2198
2199
2200
2201
2202
2203
2204
2205
2206
2207
2208
2209
2210
2211
2212
2213
2214
2215
2216
2217
2218
2219
2220
2221
2222
2223
2224
2225
2226
2227
2228
2229
2230
2231
2232
2233
2234
2235
2236
2237
2238
2239
2240
2241
2242
2243
2244
2245
2246
2247
2248
2249
2250
2251
2252
2253
2254
2255
2256
2257
2258
2259
2260
2261
2262
2263
2264
2265
2266
2267
2268
2269
2270
2271
2272
2273
2274
2275
2276
2277
2278
2279
2280
2281
2282
2283
2284
2285
2286
2287
2288
2289
2290
2291
2292
2293
2294
2295
2296
2297
2298
2299
2300
2301
2302
2303
2304
2305
2306
2307
2308
2309
2310
2311
2312
2313
2314
2315
2316
2317
2318
2319
2320
2321
2322
2323
2324
2325

SCALARS element_group int
LOOKUP_TABLE default
0
0
0
0
0
0
0
0
0
0
0
0
0
0
0
0
0
0
0
0
0
0
0
0
0
0
0
0
0
0
0
0
0
0
0
0
0
0
0
0
0
0
0
0
0
0
0
0
0
0
0
0
0
0
0
0
0
0
0
0
0
0
0
0
0
0
0
0
0
0
0
0
0
0
0
0
0
0
0
0
0
0
0
0
0
0
0
0
0
0
0
0
0
0
0
0
0
0
0
0
0
0
0
0
0
0
0
0
0
0
0
0
0
0
0
0
0
0
0
0
0
0
0
0
0
0
0
0
0
0
0
0
0
0
0
0
0
0
0
0
0
0
0
0
0
0
0
0
0
0
0
0
0
0
0
0
0
0
0
0
0
0
0
0
0
0
0
0
0
0
0
0
0
0
0
0
0
0
0
0
0
0
0
0
0
0
0
0
0
0
0
0
0
0
0
0
0
0
0
0
0
0
0
0
0
0
0
0
0
0
0
0
0
0
0
0
0
0
0
0
0
0
0
0
0
0
0
0
0
0
0
0
0
0
0
0
0
0
0
0
0
0
0
0
0
0
0
0
0
0
0
0
0
0
0
0
0
0
0
0
0
0
0
0
0
0
0
0
0
0
0
0
0
0
0
0
0
0
0
0
0
0
0
0
0
0
0
0
0
0
0
0
0
0
0
0
0
0
0
0
0
0
0
0
0
0
0
0
0
0
0
0
0
0
0
0
0
0
0
0
0
0
0
0
0
0
0
0
0
0
0
0
0
0
0
0
0
0
0
0
0
0
0
0
0
0
0
0
0
0
0
0
0
0
0
0
0
0
0
0
0
0
0
0
0
0
0
0
0
0
0
0
0
0
0
0
0
0
0
0
0
0
0
0
0
0
0
0
0
0
0
0
0
0
0
0
0
0
0
0
0
0
0
0
0
0
0
0
0
0
0
0
0
0
0
0
0
0
0
0
0
0
0
0
0
0
0
0
0
0
0
0
0
0
0
0
0
0
0
0
0
0
0
0
0
0
0
0
0
0
0
0
0
0
0
0
0
0
0
0
0
0
0
0
0
0
0
0
0
0
0
0
0
0
0
0
0
0
0
0
0
0
0
0
0
0
0
0
0
0
0
0
0
0
0
0
0
0
0
0
0
0
0
0
0
0
0
0
0
0
0
0
0
0
0
0
0
0
0
0
0
0
0
0
0
0
0
0
0
0
0
0
0
0
0
0
0
0
0
0
0
0
0
0
0
0
0
0
0
0
0
0
0
0
0
0
0
0
0
0
0
0
0
0
0
0
0
0
0
0
0
0
0
0
0
0
0
0
0
0
0
0
0
0
0
0
0
0
0
0
0
0
0
0
0
0
0
0
0
0
0
0
0
0
0
0
0
0
0
0
0
0
0
0
0
0
0
0
0
0
0
0
0
0
0
0
0
0
0
0
0
0
0
0
0
0
0
0
0
0
0
0
0
0
0
0
0
0
0
0
0
0
0
0
0
0
0
0
0
0
0
0
0
0
0
0
0
0
0
0
0
0
0
0
0
0
0
0
0
0
0
0
0
0
0
0
0
0
0
0
0
0
0
0
0
0
0
0
0
0
0
0
0
0
0
0
0
0
0
0
0
0
0
0
0
0
0
0
0
0
0
0
0
0
0
0
0
0
0
0
0
0
0
0
0
0
0
0
0
0
0
0
0
0
0
0
0
0
0
0
0
0
0
0
0
0
0
0
0
0
0
0
0
0
0
0
0
0
0
0
0
0
0
0
0
0
0
0
0
0
0
0
0
0
0
0
0
0
0
0
0
0
0
0
0
0
0
0
0
0
0
0
0
0
0
0
0
0
0
0
0
0
0
0
0
0
0
0
0
0
0
0
0
0
0
0
0
0
0
0
0
0
0
0
0
0
0
0
0
0
0
0
0
0
0
0
0
0
0
0
0
0
0
0
0
0
0
0
0
0
0
0
0
0
0
0
0
0
0
0
0
0
0
0
0
0
0
0
0
0
0
0
0
0
0
0
0
0
0
0
0
0
0
0
0
0
0
0
0
0
0
0
0
0
0
0
0
0
0
0
0
0
0
0
0
0
0
0
0
0
0
0
0
0
0
0
0
0
0
0
0
0
0
0
0
0
0
0
0
0
0
0
0
0
0
0
0
0
0
0
0
0
0
0
0
0
0
0
0
0
0
0
0
0
0
0
0
0
0
0
0
0
0
0
0
0
0
0
0
0
0
0
0
0
0
0
0
0
0
0
0
0
0
0
0
0
0
0
0
0
0
0
0
0
0
0
0
0
0
0
0
0
0
0
0
0
0
0
0
0
0
0
0
0
0
0
0
0
0
0
0
0
0
0
0
0
0
0
0
0
0
0
0
0
0
0
0
0
0
0
0
0
0
0
0
0
0
0
0
0
0
0
0
0
0
0
0
0
0
0
0
0
0
0
0
0
0
0
0
0
0
0
0
0
0
0
0
0
0
0
0
0
0
0
0
0
0
0
0
0
0
0
0
0
0
0
0
0
0
0
0
0
0
0
0
0
0
0
0
0
0
0
0
0
0
0
0
0
0
0
0
0
0
0
0
0
0
0
0
0
0
0
0
0
0
0
0
0
0
0
0
0
0
0
0
0
0
0
0
0
0
0
0
0
0
0
0
0
0
0
0
0
0
0
0
0
0
0
0
0
0
0
0
0
0
0
0
0
0
0
0
0
0
0
0
0
0
0
0
0
0
0
0
0
0
0
0
0
0
0
0
0
0
0
0
0
0
0
0
0
0
0
0
0
0
0
0
0
0
0
0
0
0
0
0
0
0
0
0
0
0
0
0
0
0
0
0
0
0
0
0
0
0
0
0
0
0
0
0
0
0
0
0
0
0
0
0
0
0
0
0
0
0
0
0
0
0
0
0
0
0
0
0
0
0
0
0
0
0
0
0
0
0
0
0
0
0
0
0
0
0
0
0
0
0
0
0
0
0
0
0
0
0
0
0
0
0
0
0
0
0
0
0
0
0
0
0
0
0
0
0
0
0
0
0
0
0
0
0
0
0
0
0
0
0
0
0
0
0
0
0
0
0
0
0
0
0
0
0
0
0
0
0
0
0
0
0
0
0
0
0
0
0
0
0
0
0
0
0
0
0
0
0
0
0
0
0
0
0
0
0
0
0
0
0
0
0
0
0
0
0
0
0
0
0
0
0
0
0
0
0
0
0
0
0
0
0
0
0
0
0
0
0
0
0
0
0
0
0
0
0
0
0
0
0
0
0
0
0
0
0
0
0
0
0
0
0
0
0
0
0
0
0
0
0
0
0
0
0
0
0
0
0
0
0
0
0
0
0
0
0
0
0
0
0
0
0
0
0
0
0
0
0
0
0
0
0
0
0
0
0
0
0
0
0
0
0
0
0
0
0
0
0
0
0
0
0
0
0
0
0
0
0
0
0
0
0
0
0
0
0
0
0
0
0
0
0
0
0
0
0
0
0
0
0
0
0
0
0
0
0
0
0
0
0
0
0
0
0
0
0
0
0
0
0
0
0
0
0
0
0
0
0
0
0
0
0
0
0
0
0
0
0
0
0
0
0
0
0
0
0
0
0
0
0
0
0
0
0
0
0
0
0
0
0
0
0
0
0
0
0
0
0
0
0
0
0
0
0
0
0
0
0
0
0
0
0
0
0
0
0
0
0
0
0
0
0
0
0
0
0
0
0
0
0
0
0
0
0
0
0
0
0
0
0
0
0
0
0
0
0
0
0
0
0
0
0
0
0
0
0
0
0
0
0
0
0
0
0
0
0
0
0
0
0
0
0
0
0
0
0
0
0
0
0
0
0
0
0
0
0
0
0
0
0
0
0
0
0
0
0
0
0
0
0
0
0
0
0
0
0
0
0
0
0
0
0
0
0
0
0
0
0
0
0
0
0
0
0
0
0
0
0
0
0
0
0
0
0
0
0
0
0
0
0
0
0
0
0
0
0
0
0
0
0
0
0
0
0
0
0
0
0
0
0
0
0
0
0
0
0
0
0
0
0
0
0
0
0
0
0
0
0
0
0
0
0
0
0
0
0
0
0
0
0
0
0
0
0
0
0
0
0
0
0
0
0
0
0
0
0
0
0
0
0
0
0
0
0
0
0
0
0
0
0
0
0
0
0
0
0
0
0
0
0
0
0
0
0
0
0
0
0
0
0
0
0
0
0
0
0
0
0
0
0
0
0
0
0
0
0
0
0
0
0
0
0
0
0
0
0
0
0
0
0
0
0
0
0
0
0
0
0
0
0
0
0
0
0
0
0
0
0
0
0
0
0
0
0
0
0
0
0
0
0
0
0
0
0
0
0
0
0
0
0
0
0
0
0


VECTORS element_materi_velocity float
4.178126817839e-04 1.889859707155e-04 0.0 
4.442702216791e-04 1.246851175554e-04 0.0 
7.693768532911e-04 3.790325473241e-04 0.0 
1.551842285546e-04 1.495721457718e-03 0.0 
9.188145400045e-04 8.363764196934e-03 0.0 
3.029589292930e-04 -2.337858533255e-04 0.0 
7.239980281249e-04 8.380708628928e-03 0.0 
4.121733426689e-04 6.729298143160e-05 0.0 
7.886640509612e-04 8.411565394216e-03 0.0 
2.306746839509e-04 1.525737217145e-03 0.0 
2.586779696104e-05 -3.708396707207e-05 0.0 
3.699768260550e-04 6.808230030958e-05 0.0 
9.638248447167e-06 4.576854051420e-07 0.0 
1.622301999971e-03 6.715171362647e-03 0.0 
7.858208605279e-06 8.696744808369e-07 0.0 
1.278005041112e-04 1.052981261415e-03 0.0 
1.065261163611e-03 8.428009167459e-03 0.0 
3.043767424856e-04 -2.412943224442e-04 0.0 
3.679848960261e-05 -1.414252288804e-04 0.0 
2.752709218199e-05 -1.365350904922e-04 0.0 
2.765627461708e-04 1.559278825558e-03 0.0 
5.033252922400e-04 3.908093705779e-04 0.0 
5.778270884063e-04 4.114057808614e-04 0.0 
1.690191061262e-04 -2.293673715821e-06 0.0 
2.160252208935e-03 4.899309650098e-03 0.0 
2.790158896747e-05 -3.159855556436e-05 0.0 
1.332573812722e-03 6.383504362580e-03 0.0 
4.104275298764e-04 6.844858041388e-05 0.0 
2.260961753976e-03 4.541356334376e-03 0.0 
1.359507921725e-04 5.734453593862e-07 0.0 
2.913629300352e-04 -2.536573770299e-04 0.0 
1.977693127920e-04 -2.145793939144e-04 0.0 
9.278447416632e-04 4.956766872733e-04 0.0 
7.260084525501e-06 -9.482839731293e-06 0.0 
5.700189115332e-05 -5.414291492379e-07 0.0 
1.503639960674e-05 4.782323784193e-07 0.0 
1.368255731417e-05 4.885753220424e-07 0.0 
2.049457926511e-04 1.428484941797e-05 0.0 
5.758823766870e-04 9.356329505791e-03 0.0 
5.304140238083e-04 9.375717268146e-03 0.0 
8.262930034776e-04 8.324341583438e-04 0.0 
5.776919427155e-05 7.319711911267e-07 0.0 
3.411827480823e-04 -3.870797859847e-05 0.0 
1.750727991291e-03 5.475795944900e-03 0.0 
7.926626986405e-05 2.130938455235e-03 0.0 
3.488602597142e-04 -7.327445280318e-05 0.0 
2.850964921062e-04 -2.562586323495e-04 0.0 
9.143148308523e-05 1.806205732525e-03 0.0 
2.721817273521e-04 -2.575820658355e-04 0.0 
1.456001114710e-03 7.286309750288e-03 0.0 
6.804672197406e-04 5.929295982301e-04 0.0 
3.353185893045e-05 -1.304536348351e-04 0.0 
3.169167573175e-04 -2.480327119473e-04 0.0 
6.916921416076e-04 7.682034394749e-04 0.0 
7.881257105561e-04 6.256410380218e-04 0.0 
5.096195020509e-05 -1.146784074404e-04 0.0 
2.584553948606e-05 -1.257183306828e-04 0.0 
1.472785140727e-05 -9.856748693005e-06 0.0 
8.827769088193e-05 -1.591760917162e-04 0.0 
1.550817721448e-04 1.059285491613e-03 0.0 
2.773906305533e-04 -2.607282048007e-04 0.0 
4.732507743123e-04 4.497716596483e-05 0.0 
6.800512588905e-04 -6.435020992080e-06 0.0 
3.060888925581e-04 -2.494784537240e-04 0.0 
1.579861400452e-05 3.458390214842e-07 0.0 
5.775082278749e-04 5.562446889170e-04 0.0 
2.808447609642e-04 -2.596724723352e-04 0.0 
8.790130321138e-04 4.071598133831e-04 0.0 
2.368366198379e-04 -2.199934056992e-04 0.0 
5.262515999295e-04 1.476158052629e-04 0.0 
4.111176970504e-05 -2.696505413374e-05 0.0 
1.664995447259e-04 2.604614051301e-04 0.0 
5.375125334860e-04 8.283547037139e-05 0.0 
7.234163664609e-06 -1.625226277438e-04 0.0 
4.410035633117e-05 -1.092049726716e-04 0.0 
5.719977017836e-04 1.282492960760e-03 0.0 
9.401787720054e-04 7.182143391402e-04 0.0 
3.182944136138e-04 -1.470486214480e-04 0.0 
9.696418717561e-05 -1.587406512825e-04 0.0 
3.134557186497e-04 -1.242955643030e-04 0.0 
2.472173414273e-04 -2.253752425349e-04 0.0 
1.077180377670e-03 8.246274710273e-03 0.0 
5.055565717544e-04 2.755617124328e-04 0.0 
4.403866648627e-04 2.668416640838e-04 0.0 
9.388015671681e-04 7.812713176130e-03 0.0 
8.657266998286e-04 7.814421641917e-03 0.0 
2.363452245794e-05 -2.171536101179e-05 0.0 
3.974213543140e-06 -1.266709770609e-05 0.0 
1.799054403867e-03 8.766135005067e-04 0.0 
9.849453517099e-04 8.280235931988e-03 0.0 
2.058300579485e-04 -2.172732799606e-04 0.0 
2.033785359583e-03 5.373673522838e-03 0.0 
2.163936598511e-04 4.290764732802e-03 0.0 
2.569473800366e-04 4.642370932963e-03 0.0 
3.285877469029e-04 4.709698033664e-04 0.0 
1.500358843766e-04 1.379778478098e-05 0.0 
1.179368197504e-03 8.079923032841e-03 0.0 
6.599095707537e-05 1.861319510504e-08 0.0 
1.368953319331e-04 6.831409668017e-03 0.0 
6.225992557654e-04 2.524908125240e-05 0.0 
8.416619878228e-04 8.869223173684e-03 0.0 
1.011144206717e-05 8.318442103506e-07 0.0 
6.928014418304e-04 -1.705760916350e-05 0.0 
4.447098504395e-04 3.717510239970e-05 0.0 
5.319522806367e-04 -1.393587272632e-04 0.0 
2.764023811567e-04 -2.552674522432e-04 0.0 
1.158324093010e-05 -2.109781438991e-06 0.0 
2.267269975355e-04 3.691206997673e-03 0.0 
2.738059622189e-04 -2.600602390736e-04 0.0 
1.902928603377e-05 6.536667958381e-07 0.0 
1.873063993536e-03 8.973929456698e-04 0.0 
1.316026948655e-05 -1.670099226994e-04 0.0 
7.334715210435e-04 -1.509341299496e-04 0.0 
1.856159059640e-03 2.755936256992e-03 0.0 
6.940149511460e-05 -9.518642568722e-05 0.0 
5.549825358930e-04 6.067688515663e-06 0.0 
6.656951569105e-04 -5.066173447255e-05 0.0 
3.973532150527e-05 6.082266328190e-07 0.0 
1.695161456947e-04 7.251791744291e-03 0.0 
5.998644476725e-04 -6.631819157267e-05 0.0 
2.050666279968e-04 -2.037503135630e-04 0.0 
2.025250795061e-03 5.057837655645e-03 0.0 
1.820677695248e-04 3.381059256920e-03 0.0 
5.922199689882e-04 -1.007156210602e-04 0.0 
2.960828966557e-04 -1.951308620061e-04 0.0 
1.286892570591e-03 1.557397116448e-03 0.0 
6.168121689107e-05 -9.743341877783e-05 0.0 
1.078906532706e-03 1.432545312514e-03 0.0 
4.429722428203e-04 8.942788803415e-04 0.0 
3.099272392258e-04 -2.033762368688e-04 0.0 
3.917107406702e-05 -3.174633439274e-05 0.0 
1.219967138323e-04 1.482255210452e-03 0.0 
1.048234826343e-03 3.085938709696e-04 0.0 
1.025403258818e-03 1.157529921546e-03 0.0 
6.219705672756e-05 -5.669980844395e-07 0.0 
6.595767749599e-06 5.265351267454e-07 0.0 
3.334954614525e-05 -2.210837428762e-05 0.0 
1.169202576875e-03 3.634641523446e-04 0.0 
9.163699560840e-05 1.803057080839e-06 0.0 
1.008434904834e-03 4.886865144481e-04 0.0 
3.315626671762e-04 1.057041003847e-03 0.0 
6.486584217314e-04 1.931221090701e-04 0.0 
1.749456564638e-03 6.434076927404e-03 0.0 
4.663518887589e-04 5.631523796034e-03 0.0 
9.683560188754e-04 3.626512072670e-04 0.0 
8.521914844908e-04 1.059883007747e-03 0.0 
1.228387341344e-03 3.107393566183e-04 0.0 
6.190284231304e-04 -1.445976276938e-04 0.0 
6.660174295742e-04 8.871424802130e-03 0.0 
7.045568250750e-04 -1.681940743642e-04 0.0 
1.880503241870e-04 -2.082143583059e-04 0.0 
1.830638138521e-04 8.168972326940e-03 0.0 
3.442604300167e-05 -1.474572665648e-04 0.0 
1.609637370506e-03 2.108942072140e-03 0.0 
7.227276436577e-05 1.775348850856e-06 0.0 
5.380096021693e-04 -1.119655782626e-04 0.0 
1.757091411413e-05 -1.718752151950e-05 0.0 
3.690927606857e-04 -1.987060215964e-05 0.0 
7.371665921686e-04 -7.843063298296e-06 0.0 
4.044421231923e-04 8.578586508038e-03 0.0 
6.550382281454e-04 -1.799957649757e-04 0.0 
1.631812847164e-05 -6.931316182395e-06 0.0 
2.159311266788e-04 -2.089301960695e-04 0.0 
1.625852163901e-05 -2.240632621474e-06 0.0 
1.914284932568e-03 1.816973508183e-03 0.0 
2.181577013881e-05 4.074424273061e-07 0.0 
1.795765036444e-04 8.675589460684e-03 0.0 
5.677506006064e-04 -1.544017873955e-04 0.0 
1.710835064674e-03 2.575719120222e-03 0.0 
1.668590182404e-05 -3.816938900051e-05 0.0 
3.565313043056e-04 2.307601431085e-05 0.0 
6.331033519508e-04 -1.923523846743e-04 0.0 
4.227316374875e-04 5.099073569967e-03 0.0 
4.496490628590e-04 8.912734836270e-03 0.0 
6.502906737558e-04 -1.562732304907e-04 0.0 
1.397998488958e-03 1.936923130353e-03 0.0 
1.269876963607e-03 3.510658515673e-04 0.0 
6.810784285946e-05 -8.732234310397e-05 0.0 
3.125819823513e-04 5.066754028111e-05 0.0 
5.955671990381e-04 1.541753069154e-04 0.0 
5.070302187740e-04 3.740149921747e-05 0.0 
5.922026611626e-05 -8.239959797936e-05 0.0 
2.758742796233e-04 -1.000000778593e-05 0.0 
9.095918468790e-04 5.590055886377e-04 0.0 
4.529656948349e-04 1.774428592216e-05 0.0 
1.921888357159e-03 2.456553093668e-03 0.0 
7.060347119626e-04 -1.439635221470e-04 0.0 
2.331350402577e-04 1.140232497077e-03 0.0 
2.047440644329e-03 1.369628935066e-03 0.0 
1.116854905296e-05 -4.157254360619e-06 0.0 
3.320137332999e-04 -1.140874456485e-04 0.0 
5.725196380750e-04 -2.101338200958e-04 0.0 
1.853830639784e-03 1.005969991385e-03 0.0 
2.636254709569e-04 -2.276175823260e-04 0.0 
9.447336115909e-04 7.242704577117e-04 0.0 
2.801337661808e-04 -2.928770451889e-05 0.0 
1.233390388395e-04 -1.772443915860e-04 0.0 
1.000108426216e-03 6.701750832189e-04 0.0 
2.356197964365e-03 3.119695111060e-03 0.0 
2.525764600367e-04 -1.457127997345e-04 0.0 
2.992367595796e-04 -2.917669902515e-05 0.0 
2.194278256259e-03 4.957367211436e-03 0.0 
2.043699995490e-03 5.495776358172e-03 0.0 
1.253230482801e-04 -2.544090445561e-08 0.0 
2.042230250644e-04 -1.600943207523e-04 0.0 
1.208976940390e-03 1.795456718848e-04 0.0 
1.876165574198e-03 1.328357030093e-03 0.0 
2.281852109661e-03 2.970310544765e-03 0.0 
2.052175532786e-03 1.942981887810e-03 0.0 
1.848731194076e-03 2.032674203721e-03 0.0 
7.106757854178e-04 -7.418937226156e-05 0.0 
1.411946302398e-03 4.118591277661e-04 0.0 
2.793855170101e-04 -2.368925243704e-04 0.0 
5.086361550285e-04 9.985098024839e-05 0.0 
6.354851185472e-04 8.398714100127e-05 0.0 
1.168207020337e-03 2.159319925717e-04 0.0 
1.943936861658e-03 1.303134958594e-03 0.0 
3.358805321690e-04 -2.366720131548e-04 0.0 
2.755220579285e-04 -3.853710384074e-05 0.0 
5.048217047695e-04 8.783524634422e-03 0.0 
5.907518587236e-04 -2.012626251131e-04 0.0 
2.669826761278e-04 -4.696248521994e-05 0.0 
1.605833541701e-04 -1.953403648524e-04 0.0 
2.214727306997e-03 2.544137605266e-03 0.0 
1.558609554046e-04 -1.962107419795e-04 0.0 
1.124162854937e-04 -1.709856983632e-04 0.0 
3.265274045676e-04 -8.613379020880e-05 0.0 
2.023080084699e-04 -1.729064315624e-04 0.0 
2.092483781091e-03 2.370632298129e-03 0.0 
2.079704112241e-04 -1.815818411680e-04 0.0 
3.875432586059e-04 -1.669000136774e-04 0.0 
2.865840543822e-04 -2.376350387244e-04 0.0 
1.995616202150e-04 -1.959178805574e-04 0.0 
3.006564229112e-04 -1.902884204925e-05 0.0 
1.828326927855e-03 1.491961212128e-03 0.0 
1.888259101383e-05 2.418565862204e-07 0.0 
2.696684894788e-04 -2.361962266953e-04 0.0 
4.449492945742e-04 -1.754025839713e-04 0.0 
6.527360608090e-04 -1.919384750359e-04 0.0 
7.799263168988e-04 4.918954480250e-04 0.0 
2.945544072519e-04 -3.906137904251e-05 0.0 
2.367064478256e-05 4.671207807874e-07 0.0 
2.167776038442e-03 1.614326845790e-03 0.0 
4.703019716703e-04 -2.273896041590e-04 0.0 
2.811731133213e-04 -1.982749651250e-05 0.0 
2.012726091818e-05 -2.642426202953e-05 0.0 
1.339806763885e-03 3.648013247645e-04 0.0 
2.314493673605e-03 2.417750047305e-03 0.0 
4.089649209831e-04 4.771872007057e-05 0.0 
6.274943136397e-04 -1.997360308237e-04 0.0 
4.159045472230e-04 -1.611375069656e-04 0.0 
2.179539850457e-03 1.794772488036e-03 0.0 
2.701330633324e-04 4.491040846161e-04 0.0 
1.149494127081e-03 1.088308188939e-04 0.0 
6.673795374775e-04 -1.554467432463e-04 0.0 
4.070373513983e-04 7.976559540621e-03 0.0 
2.507502859240e-04 -2.323044198374e-04 0.0 
2.132771546248e-03 2.317472813114e-03 0.0 
4.814193491129e-04 -2.197099364499e-04 0.0 
3.691989201431e-04 -2.395848421108e-04 0.0 
3.019668892041e-04 -2.537837938964e-04 0.0 
2.051340676054e-03 2.576853279814e-03 0.0 
1.994665951959e-03 1.423058439532e-03 0.0 
6.374404699796e-04 -1.183046103591e-04 0.0 
1.895948015377e-03 2.341561398560e-03 0.0 
1.997333812990e-03 1.198672459636e-03 0.0 
1.526423815255e-03 5.497293458931e-04 0.0 
2.758835783280e-05 6.237256911070e-07 0.0 
6.550069403367e-04 -1.430779275411e-04 0.0 
1.720419057053e-03 7.726766922484e-04 0.0 
7.901139616323e-04 -1.355040165890e-04 0.0 
6.745621192414e-04 -1.272924912072e-04 0.0 
4.061524249011e-04 -2.398642783731e-04 0.0 
1.754540063387e-03 6.435493281313e-03 0.0 
6.109852585464e-04 -1.995808856396e-04 0.0 
3.848316286816e-04 -2.304252191190e-04 0.0 
2.204389891981e-03 1.831767354836e-03 0.0 
2.676916029943e-04 -2.427113927131e-04 0.0 
2.244197777557e-03 2.414045574548e-03 0.0 
4.879815088607e-04 -2.285966280582e-04 0.0 
4.407435921266e-04 -1.926597065311e-04 0.0 
3.971620650121e-04 -2.436545919815e-04 0.0 
2.167632609795e-03 1.574501217429e-03 0.0 
2.067208894939e-04 -2.138562452110e-04 0.0 
7.310945893921e-04 1.815605805232e-04 0.0 
6.523656720393e-04 -1.136988282099e-04 0.0 
2.084717905835e-03 1.712671001194e-03 0.0 
1.993873489517e-03 5.832031613083e-03 0.0 
3.170662915587e-04 -2.452540796183e-04 0.0 
3.998047367158e-04 -2.332733927859e-04 0.0 
3.529269320870e-04 -2.309476747666e-04 0.0 
5.694743349292e-04 1.272552292955e-04 0.0 
2.299239758181e-03 2.148302227735e-03 0.0 
7.147413341854e-04 1.085023090705e-04 0.0 
5.782550083081e-04 -2.091913685824e-04 0.0 
5.896293841329e-04 -2.090211354448e-04 0.0 
3.320526716531e-04 -2.433151976165e-04 0.0 
8.088591790920e-04 -1.379941377891e-04 0.0 
3.421503210220e-04 -1.781605503131e-04 0.0 
4.078968296202e-04 3.057715738808e-04 0.0 
4.322039862726e-04 2.413111946816e-04 0.0 
1.174301157108e-03 8.605605431583e-05 0.0 
4.412423079825e-04 -2.312678654349e-04 0.0 
4.073987913894e-04 -2.103905058106e-04 0.0 
1.727277350189e-03 6.810101817112e-04 0.0 
4.225829381769e-04 -2.273824054813e-04 0.0 
3.667499409138e-04 -2.344541627052e-04 0.0 
1.412476700542e-03 4.859155017265e-04 0.0 
4.299609498324e-04 1.278162762820e-03 0.0 
5.358764104200e-04 -2.169917624074e-04 0.0 
7.542689799497e-04 -6.758857347697e-05 0.0 
3.631517042238e-04 -1.896239289271e-04 0.0 
4.793202284874e-05 2.700832183184e-06 0.0 
4.294411261151e-04 -2.181623308315e-04 0.0 
1.373207903235e-03 3.150809538415e-04 0.0 
3.450045740664e-04 -2.469338561666e-04 0.0 
4.369240461667e-04 -8.784449884397e-05 0.0 
6.385654403647e-04 -1.951876407287e-04 0.0 
3.547128299869e-04 -2.228922641173e-04 0.0 
1.785287397604e-03 1.082798530446e-03 0.0 
3.029786358720e-04 1.114820817945e-04 0.0 
5.348003962248e-04 -2.214196780360e-04 0.0 
6.153463896834e-04 -1.158296466923e-04 0.0 
3.623817828173e-04 -2.043144325180e-04 0.0 
1.639285392875e-03 5.406016943916e-03 0.0 
2.855024471509e-04 -4.809205005118e-05 0.0 
4.515492708671e-04 -1.301503923162e-04 0.0 
1.542632131667e-03 5.977254044603e-03 0.0 
2.359586910780e-04 5.980493240577e-05 0.0 
2.456701479231e-04 -2.920902404652e-05 0.0 
3.525773171327e-04 1.485523466969e-04 0.0 
1.919008433485e-03 5.450247656099e-03 0.0 
1.803051095072e-03 7.687636748819e-04 0.0 
3.855319575733e-04 -1.206128111511e-04 0.0 
1.590533041580e-03 1.111421852368e-03 0.0 
1.811465640574e-03 9.580985670121e-04 0.0 
1.910316002561e-03 1.033755043254e-03 0.0 
1.014895673110e-03 1.923204786510e-05 0.0 
1.860197386755e-04 3.742473075000e-05 0.0 
2.278150997247e-03 4.671940583518e-03 0.0 
2.068038109112e-03 2.615343323435e-03 0.0 
5.679702606197e-04 -2.140832282926e-04 0.0 
2.007009341690e-04 -1.849195306414e-04 0.0 
1.593979997905e-03 1.525190037701e-03 0.0 
4.866406541107e-04 -1.476499561366e-04 0.0 
3.444534415924e-04 8.889468899689e-03 0.0 
3.396793346169e-04 -2.183491768629e-04 0.0 
5.198162920831e-04 -2.232155274999e-04 0.0 
2.121891329953e-03 1.949654964145e-03 0.0 
4.808969293763e-04 -1.695865163494e-04 0.0 
1.653032807963e-03 9.902529384456e-04 0.0 
5.888550334371e-04 -1.016966343725e-04 0.0 
2.932141610592e-04 -1.032902671663e-04 0.0 
1.182097555490e-04 1.683746899635e-05 0.0 
1.098728152361e-03 8.115017774700e-04 0.0 
4.073354564130e-04 -2.405028258524e-04 0.0 
2.601239443894e-04 -1.563951623423e-04 0.0 
4.491751738376e-04 -2.750347330925e-05 0.0 
4.527625379612e-04 -1.013756824849e-04 0.0 
1.739272816388e-03 9.526421224546e-04 0.0 
1.467603431722e-03 3.678451996215e-04 0.0 
7.615626433721e-04 3.697530637255e-04 0.0 
1.429674076478e-03 1.003970930087e-03 0.0 
7.741776922502e-05 6.618221542949e-06 0.0 
2.007742424222e-04 1.139869667242e-05 0.0 
1.779272206924e-03 1.078850614234e-03 0.0 
2.229922883503e-03 2.302795994256e-03 0.0 
3.076243180363e-04 -1.154596335497e-04 0.0 
7.580990097712e-04 1.485318489634e-05 0.0 
4.312598578010e-04 -2.367766134425e-04 0.0 
4.738156907680e-04 -2.327205749571e-04 0.0 
1.302558400747e-03 2.246326650083e-04 0.0 
4.628370130912e-04 -1.016280905539e-04 0.0 
1.639416369906e-04 -9.773192515301e-05 0.0 
1.833579315020e-03 1.500803883313e-03 0.0 
3.939919277469e-04 -2.393471912229e-04 0.0 
8.979885096983e-04 -4.970688511698e-05 0.0 
1.610085067292e-03 7.007647206893e-04 0.0 
7.864684406097e-04 -5.393953041241e-05 0.0 
3.938571498476e-04 1.894676006510e-04 0.0 
4.375711578062e-04 2.827671430457e-04 0.0 
9.978507449000e-04 6.193978971840e-04 0.0 
2.966729397721e-04 -9.474525591100e-05 0.0 
1.834169460181e-03 2.499168887372e-03 0.0 
4.167607987815e-04 -1.378218755234e-04 0.0 
5.157835139852e-04 -2.243983194456e-04 0.0 
3.631927710870e-04 -2.448001086632e-04 0.0 
8.264542135760e-04 2.164426240726e-04 0.0 
1.522547792192e-03 7.182540471723e-03 0.0 
1.790428463588e-03 5.673157932463e-03 0.0 
1.259728056929e-04 3.721487704906e-06 0.0 
1.642551309081e-03 7.318106437713e-04 0.0 
2.258423708718e-03 2.121656136086e-03 0.0 
1.898818513459e-03 9.101977035796e-04 0.0 
3.757827791857e-04 -2.462649166450e-04 0.0 
2.382853490442e-04 -2.324779683879e-04 0.0 
7.254038119547e-04 -1.688142271343e-04 0.0 
9.941914194173e-04 -3.745528315645e-05 0.0 
7.730637253828e-04 -1.540444039198e-04 0.0 
2.938099939941e-04 -1.796510994281e-04 0.0 
3.471996711916e-04 7.719158410072e-03 0.0 
2.059702589941e-04 -1.931507064450e-04 0.0 
4.669376351753e-04 -2.023844054535e-04 0.0 
2.601857608809e-05 1.609561111232e-06 0.0 
6.303461957577e-04 -6.573175242454e-05 0.0 
2.126220186749e-03 3.104928686563e-03 0.0 
2.379049627552e-05 -1.495858115896e-04 0.0 
1.062360908329e-03 7.287227441207e-05 0.0 
6.955179238832e-04 -1.802020081074e-04 0.0 
2.080782850565e-03 1.322497707181e-03 0.0 
2.833191562412e-04 9.149334373088e-05 0.0 
1.674948984879e-03 1.367571626403e-03 0.0 
1.638668952259e-03 5.407482789701e-04 0.0 
1.785875625707e-04 -1.013682379011e-04 0.0 
1.973892224905e-03 1.991992022186e-03 0.0 
2.794224987797e-04 -8.291471548594e-05 0.0 
2.672288161239e-04 7.660058233131e-05 0.0 
1.909527038214e-04 8.555309156399e-05 0.0 
1.996252120604e-04 1.604011164297e-04 0.0 
2.292995402464e-04 1.373966855946e-04 0.0 
2.048577385384e-03 1.159856989836e-03 0.0 
1.988104197260e-03 1.812356299211e-03 0.0 
1.553046002836e-03 7.768270277500e-04 0.0 
8.127213962544e-04 -1.142555596452e-05 0.0 
7.799032222843e-04 7.105245521002e-05 0.0 
1.446717869130e-04 -9.998489053987e-05 0.0 
1.827248811502e-03 1.354168062730e-03 0.0 
2.101156018110e-04 4.730668219180e-05 0.0 
1.767138393642e-03 1.944059213683e-03 0.0 
6.630842730679e-04 -9.674584154346e-05 0.0 
1.803939498133e-03 1.800710818994e-03 0.0 
1.077009290573e-03 5.694194638042e-05 0.0 
9.274474573695e-04 -6.212179068932e-05 0.0 
8.511492873938e-04 3.108278971571e-04 0.0 
3.824732838135e-04 -2.135863935535e-04 0.0 
6.229887029368e-04 9.175198195959e-04 0.0 
7.174899521466e-04 -7.188750303202e-05 0.0 
6.169196790267e-04 1.119183878965e-04 0.0 
1.588192403049e-04 -1.034612671610e-04 0.0 
3.112437965975e-04 -2.172559760181e-04 0.0 
9.509181154964e-05 3.436518561589e-06 0.0 
5.116552113570e-04 -1.818075901503e-04 0.0 
1.616246133113e-04 6.299925513295e-05 0.0 
7.892494313159e-04 5.357415605938e-04 0.0 
1.472827805034e-03 3.215523840278e-04 0.0 
2.378450477629e-04 -2.364842995296e-04 0.0 
1.419651336805e-04 4.301051706933e-05 0.0 
1.251630698534e-04 6.930187986949e-06 0.0 
3.251354249503e-04 -2.222541416425e-04 0.0 
5.931401261848e-04 -8.576214581933e-05 0.0 
1.079780499288e-04 1.362555235310e-05 0.0 
2.329789031152e-04 -2.372518348294e-04 0.0 
8.282156236632e-04 -7.097544775611e-05 0.0 
1.628858174456e-03 4.759074100218e-04 0.0 
1.319073851563e-03 1.917854238653e-04 0.0 
1.548149407085e-03 4.813794147111e-04 0.0 
4.109814955888e-04 -1.968715991328e-04 0.0 
1.106950086346e-04 2.621486714379e-05 0.0 
5.543671498371e-04 -2.113328187986e-04 0.0 
3.148349065166e-04 -2.507279231441e-04 0.0 
3.604035084242e-05 3.210925901787e-07 0.0 
2.309551932947e-04 -2.337854063303e-04 0.0 
1.202112987932e-03 7.160275035170e-04 0.0 
2.880506126353e-04 -2.493296006783e-04 0.0 
1.681804202389e-03 1.865280318964e-03 0.0 
6.484441465438e-05 4.657607653595e-06 0.0 
8.659914549899e-05 1.633291570198e-05 0.0 
2.002638137352e-03 1.253156416127e-03 0.0 
2.731200962515e-04 -2.512749468976e-04 0.0 
3.026601619193e-04 -2.524825605216e-04 0.0 
2.785018898011e-04 -2.479383506523e-04 0.0 
1.221540542058e-04 -1.403960675671e-05 0.0 
1.488622412884e-03 7.148349527732e-03 0.0 
2.250419435359e-03 3.232131703719e-03 0.0 
6.280168672845e-05 9.472728412742e-06 0.0 
1.295428457106e-03 7.780895168430e-03 0.0 
3.848799344199e-04 3.329350927416e-04 0.0 
1.011141484823e-03 5.452893116010e-05 0.0 
1.539724861878e-03 6.440929164646e-03 0.0 
4.948609916637e-04 -5.518681935855e-05 0.0 
6.303500834596e-04 -8.294217147278e-05 0.0 
3.548385836384e-04 -2.350754051525e-04 0.0 
5.256998110823e-05 6.260811769498e-06 0.0 
2.029044460262e-04 1.039145090870e-04 0.0 
2.082716175598e-04 1.453704574511e-04 0.0 
2.609637317306e-04 -7.997893797258e-05 0.0 
1.255834399832e-04 -1.022130753937e-04 0.0 
8.861399886283e-04 -9.280750369282e-05 0.0 
2.435625258076e-04 -6.910050455829e-05 0.0 
4.297300529440e-05 4.050147673488e-06 0.0 
4.592178733633e-04 -2.143681230760e-04 0.0 
3.874857139019e-04 -2.224140732966e-04 0.0 
3.709176905289e-04 -2.089866901140e-04 0.0 
1.423070161824e-03 6.076773671404e-03 0.0 
4.103338848818e-05 2.053331167442e-06 0.0 
2.651500701786e-04 -2.495171143423e-04 0.0 
3.039965072376e-05 2.089533784133e-06 0.0 
3.389716056539e-04 -2.090700515230e-04 0.0 
1.413540225607e-04 4.848282666155e-05 0.0 
1.511100731446e-03 6.853520399453e-04 0.0 
2.411924882214e-04 -2.430337119028e-04 0.0 
8.250345438515e-04 -1.123238797311e-04 0.0 
1.651187598828e-03 2.203139720587e-03 0.0 
1.252636824434e-04 3.359006526199e-05 0.0 
1.958935183070e-03 9.669583591071e-04 0.0 
8.825545172331e-04 3.267950422057e-05 0.0 
3.425027540068e-04 -2.074947520398e-04 0.0 
1.950739480775e-04 3.146596652807e-06 0.0 
3.203046113760e-04 -1.937831922817e-04 0.0 
3.537328675188e-04 -2.042122226579e-04 0.0 
2.662752974761e-04 -2.562358256931e-04 0.0 
9.942059317647e-05 2.109181504802e-05 0.0 
3.907792881309e-04 -2.372593364842e-04 0.0 
2.302662207672e-04 -2.108920860170e-05 0.0 
1.389555766592e-03 7.076521514145e-03 0.0 
2.522665980369e-04 -1.855410958549e-04 0.0 
3.711899240339e-04 -2.183876062335e-04 0.0 
1.806826444609e-03 7.428747168004e-04 0.0 
5.540806882055e-05 7.364740583605e-06 0.0 
1.172728696166e-04 -9.389741843443e-05 0.0 
2.556580486771e-04 -5.443057866816e-05 0.0 
1.125185770257e-03 2.084735101565e-05 0.0 
3.847785419070e-04 -9.647314228698e-05 0.0 
4.058842570771e-04 -2.172999388053e-04 0.0 
2.795165550432e-04 -7.417965593867e-05 0.0 
1.115644288357e-03 3.354575809118e-05 0.0 
1.282625326864e-03 1.725347358180e-04 0.0 
5.873335518911e-04 -5.294545672352e-05 0.0 
1.008604423805e-03 -4.557507378522e-05 0.0 
2.032571334574e-04 -1.153146172265e-04 0.0 
5.019016196038e-04 -1.973483566945e-04 0.0 
1.393362996977e-04 -1.054470755435e-04 0.0 
9.523378925279e-04 3.079064984745e-05 0.0 
6.024124597755e-04 -1.311125676225e-04 0.0 
5.641822681184e-05 3.699094895365e-06 0.0 
1.568436475452e-03 1.698534334129e-03 0.0 
2.427778317078e-04 -1.891814242051e-04 0.0 
3.444476393063e-05 2.568073869461e-06 0.0 
1.435127468267e-04 5.738354332757e-06 0.0 
7.825023736580e-04 -1.511579957711e-04 0.0 
2.625259252078e-04 -2.521633795455e-04 0.0 
3.574071955728e-05 1.638548736294e-06 0.0 
1.654163538343e-03 1.346361911306e-03 0.0 
3.099493490386e-04 -2.081385593899e-04 0.0 
2.191344676066e-05 1.091271071952e-06 0.0 
2.419444639041e-04 -6.091870255641e-05 0.0 
8.988717867701e-04 1.715817795698e-04 0.0 
2.303663589032e-03 2.839119102026e-03 0.0 
6.198765632267e-04 -1.447671854739e-04 0.0 
2.743751656126e-04 -9.964148880011e-05 0.0 
4.104864806611e-04 -8.671389639142e-05 0.0 
2.373643951802e-03 2.808476224610e-03 0.0 
1.227850369690e-03 4.873120837630e-04 0.0 
6.126349019628e-04 -3.142296122482e-05 0.0 
3.411761811322e-04 7.140509573188e-03 0.0 
1.880433773823e-04 -1.111540758186e-04 0.0 
5.576707206356e-04 -7.207321242541e-05 0.0 
3.040177708213e-04 -1.882320112733e-04 0.0 
1.274900510414e-04 -4.539566930016e-05 0.0 
2.527362193805e-04 -2.504805493317e-04 0.0 
5.531972560611e-04 -1.749140900698e-04 0.0 
3.231332484284e-04 -2.038575996744e-04 0.0 
1.542870368495e-04 -8.852026204438e-05 0.0 
8.674972917574e-04 -1.183728560922e-04 0.0 
2.594397260905e-04 -6.306207642343e-05 0.0 
1.316631880207e-03 6.630211398735e-03 0.0 
2.952876903179e-04 -2.026211546652e-04 0.0 
1.911994172752e-05 9.620600954894e-07 0.0 
1.543563002594e-03 3.702457301692e-04 0.0 
1.305916217122e-04 -7.691575960619e-05 0.0 
1.394947727362e-03 2.359408971048e-04 0.0 
1.402504836174e-04 -8.546908180212e-05 0.0 
2.459973324370e-04 -2.454463561916e-04 0.0 
2.372460436927e-03 2.897072780185e-03 0.0 
4.409202746443e-05 -8.831467933366e-05 0.0 
1.404076204268e-04 -1.947673141462e-04 0.0 
1.131970777104e-04 -8.015063448866e-05 0.0 
2.330598951759e-04 -4.448764220795e-05 0.0 
4.754118540364e-04 3.093340138967e-03 0.0 
4.314619957486e-04 -1.121590052005e-04 0.0 
4.095688991084e-04 -9.850738910127e-05 0.0 
2.012535591097e-03 3.536354519705e-03 0.0 
9.938683065639e-04 8.390514505633e-03 0.0 
6.981138147203e-04 7.457801370526e-04 0.0 
1.250299421233e-03 1.239236661637e-04 0.0 
1.316290121401e-04 -1.942411237851e-04 0.0 
1.879874263233e-04 -1.907817877144e-04 0.0 
2.510827443083e-04 -2.448829648408e-04 0.0 
2.101118840933e-04 -1.691548014179e-04 0.0 
1.208323057499e-03 2.975379182466e-04 0.0 
5.470449868124e-04 3.117676142693e-03 0.0 
1.314597045089e-04 -1.909066682887e-05 0.0 
1.701493474839e-04 -1.412592653791e-04 0.0 
1.153620526593e-04 -4.384937058559e-05 0.0 
1.982435497853e-04 -1.419880598302e-05 0.0 
3.394717562755e-04 -2.506352180836e-04 0.0 
3.133038035757e-05 -8.736213821375e-05 0.0 
2.514176155747e-05 -1.039225654829e-04 0.0 
3.182746091779e-05 1.241025501232e-06 0.0 
1.662077782976e-05 6.764886408042e-07 0.0 
3.025679398680e-05 -7.582547420709e-05 0.0 
1.171842733872e-04 -7.445078424833e-05 0.0 
2.593751772764e-04 -8.816070003141e-05 0.0 
1.924799645977e-04 -7.470449122469e-06 0.0 
1.819999707398e-04 -1.828959885525e-04 0.0 
2.017518517269e-04 -2.125263885789e-05 0.0 
1.025411341289e-04 -1.710695287142e-04 0.0 
1.221115727846e-04 -8.835089633402e-05 0.0 
1.583035428469e-04 -8.252779305115e-05 0.0 
8.212164750825e-05 -1.717184180327e-04 0.0 
2.496941854609e-05 -8.108001356990e-05 0.0 
1.514264235833e-03 1.800007352221e-03 0.0 
1.092316758056e-04 -1.883106395611e-04 0.0 
1.104899556907e-03 7.747559898244e-03 0.0 
9.441284643192e-04 7.626576202312e-03 0.0 
4.350398389649e-04 -7.511303950826e-05 0.0 
1.260324944778e-05 -1.039306200866e-04 0.0 
2.921847491530e-04 -1.927890139413e-04 0.0 
3.868259094194e-04 -1.853769832848e-04 0.0 
7.894170946304e-05 -5.537187871055e-06 0.0 
4.004169557738e-04 8.628625953675e-05 0.0 
9.881934030889e-04 3.669841792434e-03 0.0 
4.939112427373e-04 -9.148209730467e-05 0.0 
1.999147552869e-04 -2.064231027696e-04 0.0 
1.355740961099e-03 8.015526046409e-04 0.0 
8.730375603532e-04 9.196549341818e-03 0.0 
8.100886269431e-04 9.557494137834e-03 0.0 
1.189410626609e-04 -1.883299825375e-04 0.0 
1.045603133127e-04 -1.768971151508e-04 0.0 
4.616780070958e-05 -1.575178041067e-04 0.0 
1.634834681375e-04 -1.582155493645e-04 0.0 
7.129545889879e-05 -1.724790365297e-04 0.0 
2.392803900141e-05 -6.934914360505e-05 0.0 
2.709631567483e-04 -2.612802233844e-04 0.0 
1.634202564621e-04 -1.456087282606e-04 0.0 
3.286951312867e-04 5.997064167709e-03 0.0 
8.231067423698e-04 8.909079575545e-03 0.0 
1.172322387859e-03 3.442718566639e-04 0.0 
2.223320104384e-04 -5.097852638084e-05 0.0 
2.777086859329e-04 6.911468280761e-03 0.0 
6.354771976688e-06 -9.809436442425e-05 0.0 
5.799071337771e-05 -1.619860030873e-04 0.0 
9.493672852250e-05 2.565905843418e-04 0.0 
2.178963669004e-04 5.278981263179e-04 0.0 
1.286024754764e-03 7.166284121432e-03 0.0 
9.141885502197e-04 9.057688446657e-03 0.0 
3.149553779093e-05 -9.854303277278e-05 0.0 
1.375571648489e-04 5.183632265377e-04 0.0 
1.700961675865e-04 -1.543788282148e-04 0.0 
8.372647856727e-04 8.391370179439e-03 0.0 
9.449019597163e-04 8.810288463555e-03 0.0 
1.410707247654e-03 1.389325776973e-03 0.0 
1.852547223595e-04 1.725339763119e-04 0.0 
1.696688531855e-04 5.095552648652e-04 0.0 
9.435559637148e-05 -1.770494383844e-04 0.0 
9.637772523375e-05 -1.828054369608e-04 0.0 
1.824608466847e-04 -1.932655065485e-04 0.0 
1.727587995807e-04 -8.566814680492e-05 0.0 
7.375054280802e-06 -4.694009721666e-07 0.0 
2.718101719435e-04 -2.619613257896e-04 0.0 
1.175848107432e-04 3.940491127689e-03 0.0 
2.651916296861e-04 -2.581542849256e-04 0.0 
3.837149406878e-04 -7.371727850610e-05 0.0 
2.617720018519e-04 -2.565964393948e-04 0.0 
2.682552540915e-04 -2.607205093789e-04 0.0 
3.619686553783e-04 -8.349229073026e-05 0.0 
3.024986983195e-05 -2.417907804939e-06 0.0 
2.692420570871e-04 6.337716095188e-03 0.0 
1.359705070816e-03 5.557014649987e-04 0.0 
5.908360219468e-05 -1.677460298012e-04 0.0 
9.269569063199e-05 -3.576014981254e-05 0.0 
3.085633496443e-05 3.152957838188e-04 0.0 
6.151616925738e-05 5.332889327823e-04 0.0 
8.374179057035e-04 9.237851648826e-03 0.0 
4.035109153794e-04 -6.229633056639e-05 0.0 
7.473212466295e-05 2.529646805234e-04 0.0 
8.317945589977e-04 1.604131310186e-05 0.0 
3.440522679179e-05 -1.594238767948e-04 0.0 
4.815036746856e-05 -1.692897262566e-04 0.0 
3.529490473381e-05 -1.654357722307e-04 0.0 
6.360040867347e-06 -8.634222762499e-05 0.0 
5.712657411398e-06 6.402646359431e-07 0.0 
1.590774991951e-05 1.462785411692e-03 0.0 
4.917752678162e-05 -1.752477732875e-04 0.0 
1.228062269334e-05 -6.848610523250e-05 0.0 
1.920523017611e-06 2.774962094382e-07 0.0 
8.137055399128e-06 7.040682559221e-07 0.0 
2.851902522037e-05 9.932752366851e-07 0.0 
6.201721786401e-05 4.939077604729e-03 0.0 
2.665140885681e-05 3.438410554056e-03 0.0 
3.792134393786e-06 3.627684265049e-07 0.0 
4.344921005342e-06 3.412998294173e-07 0.0 
5.734620933019e-05 3.941318026351e-03 0.0 
3.747057883720e-05 -1.771307097790e-04 0.0 
6.865255285537e-04 9.695618278809e-03 0.0 
8.347284874629e-04 9.433825878053e-03 0.0 
7.287472824652e-05 -1.783722875485e-04 0.0 
7.504718568898e-06 3.673760532453e-07 0.0 
2.614177871807e-05 8.335274705089e-07 0.0 
1.282943658574e-05 4.047890942518e-07 0.0 
6.169003085546e-05 -1.795973278509e-04 0.0 
8.572304571824e-05 -1.833676676280e-04 0.0 
1.520668308804e-05 5.645368604280e-07 0.0 
1.331234213233e-05 4.287383762571e-07 0.0 
3.132241739063e-05 5.452290294856e-03 0.0 
3.918815024658e-04 9.758944930138e-03 0.0 
3.069480047338e-05 4.434752522280e-03 0.0 
3.377687048133e-05 7.466311079112e-03 0.0 
1.883543563855e-04 9.784632783430e-03 0.0 
1.531551591754e-04 -2.010854444254e-04 0.0 
1.937408481221e-04 -2.173617359978e-04 0.0 
2.114352463908e-04 -2.259828471891e-04 0.0 
2.273836310627e-04 -2.347250506812e-04 0.0 
6.039330800274e-06 -6.245448714346e-05 0.0 
6.241291893071e-06 -7.439924819803e-05 0.0 
2.009043810399e-04 -2.194531193947e-04 0.0 
5.380041660685e-06 -3.033628242195e-05 0.0 
2.178616896197e-04 -2.283912813024e-04 0.0 
1.620882021770e-04 2.105083982363e-04 0.0 
6.282504018596e-05 2.653985460143e-04 0.0 
1.229596383779e-04 2.713075419761e-04 0.0 
7.141676118063e-06 -1.423530547867e-04 0.0 
6.248477471096e-06 -1.095454240215e-04 0.0 
5.813760299798e-05 3.216000140170e-04 0.0 
3.285870982361e-06 -6.370809535058e-06 0.0 
3.065983429295e-05 2.179931489635e-04 0.0 
2.318187463097e-06 -1.860553967513e-06 0.0 
1.356303958205e-06 4.761248032351e-07 0.0 
1.260133276042e-05 -8.051682593340e-05 0.0 
1.209626431839e-04 5.869985600313e-04 0.0 
8.879743729093e-05 5.395931629805e-04 0.0 
5.604058445457e-06 -3.970656674994e-06 0.0 
3.674491421302e-06 -4.067711863139e-07 0.0 
5.283915578665e-05 -2.290515566619e-05 0.0 
2.567691750046e-04 -2.525857410592e-04 0.0 
1.041292501566e-04 -9.133494506160e-05 0.0 
1.162918290303e-04 -1.826724567036e-04 0.0 
7.293161506578e-05 -5.463092597336e-06 0.0 
1.357576303666e-04 -9.120436828964e-05 0.0 
5.775731971305e-05 -1.110507303318e-05 0.0 
1.698163846309e-04 -1.666040416087e-04 0.0 
1.333993154640e-04 -1.789605175110e-04 0.0 
3.859289310764e-05 -4.667888049240e-06 0.0 
1.000564554379e-04 -7.790923532251e-05 0.0 
2.531706654859e-05 -9.283274848606e-05 0.0 
5.054912743420e-05 -1.083911710442e-05 0.0 
1.751556218894e-04 2.484263365824e-03 0.0 
1.271481284404e-05 -9.237602553381e-05 0.0 
2.251685878898e-04 -3.644664263972e-05 0.0 
1.662383213995e-04 -5.074923940804e-05 0.0 
6.233718206907e-05 -2.343204728370e-05 0.0 
4.440562600358e-05 -1.820466130564e-05 0.0 
5.250655199090e-04 -2.192033199183e-04 0.0 
1.146961505117e-03 5.584771095691e-04 0.0 
8.608617956523e-04 -1.196810941004e-04 0.0 
1.037928962293e-04 -3.692018861927e-05 0.0 
3.521670849344e-05 -7.308434884749e-06 0.0 
2.860577868544e-05 -1.384732655612e-05 0.0 
2.208619114032e-04 -1.869039467204e-04 0.0 
3.381181889630e-04 2.554276028025e-03 0.0 
4.086245882762e-04 3.556360587245e-03 0.0 
5.390140173140e-04 8.252092480094e-03 0.0 
1.138784255345e-04 -3.266323530854e-05 0.0 
8.205974028778e-05 -2.961729458514e-05 0.0 
2.277175854778e-04 2.534782841840e-03 0.0 
2.848550393409e-04 3.049149782005e-03 0.0 
1.808130558397e-04 -5.952697377156e-05 0.0 
2.563335403509e-05 -2.403428074549e-06 0.0 
8.908172093099e-04 3.671642840402e-03 0.0 
2.032928362535e-05 -1.351944522990e-05 0.0 
5.222423055835e-05 -2.571244108254e-06 0.0 
3.970796274175e-04 2.574332200108e-03 0.0 
6.573476694050e-04 5.152108689811e-03 0.0 
2.172291191237e-04 -4.317896378766e-05 0.0 
8.585580072014e-05 -1.358899755250e-04 0.0 
2.378020145467e-04 -2.011858724439e-04 0.0 
1.888831678665e-04 -2.010743885981e-04 0.0 
2.564394305705e-04 -2.500711404424e-04 0.0 
3.470464554633e-04 3.044931438961e-03 0.0 
2.771736938248e-05 -4.548552702117e-06 0.0 
2.446736017989e-04 -2.423633723175e-04 0.0 
1.625469445456e-03 9.911821567518e-04 0.0 
6.534863199356e-04 7.744839261911e-03 0.0 
6.832132212610e-05 -1.528913825577e-05 0.0 
3.643522618854e-05 -1.047296938168e-05 0.0 
2.724118755134e-04 -1.771003873273e-04 0.0 
2.941018578735e-05 -1.035629783833e-05 0.0 
6.032795717952e-04 8.263570909474e-03 0.0 
5.518680340438e-04 -5.646694237783e-05 0.0 
3.898677207367e-05 -7.041436768342e-07 0.0 
4.703039598052e-05 -1.303794221213e-04 0.0 
6.770944984295e-05 -2.755739167003e-06 0.0 
5.240881350680e-04 4.602663220854e-03 0.0 
6.557747884439e-05 -1.268895468969e-04 0.0 
2.292628903165e-04 -1.834866201240e-04 0.0 
5.000078657167e-05 -5.399933529225e-05 0.0 
8.245678105945e-04 6.220915406274e-03 0.0 
1.416021412534e-04 -1.193307115541e-04 0.0 
3.987615097318e-04 4.045642317839e-03 0.0 
5.437193066381e-04 5.628939427129e-03 0.0 
1.077055690118e-04 -6.655151246393e-05 0.0 
3.556243286153e-05 -1.790841612155e-05 0.0 
4.447401222868e-05 -1.426024328355e-05 0.0 
4.492772267431e-04 4.571300414784e-03 0.0 
1.135085927295e-04 -1.529676407443e-04 0.0 
9.127969771342e-05 -7.030463917249e-05 0.0 
5.268220261779e-04 1.325109365937e-05 0.0 
6.225009384351e-04 4.129760805728e-03 0.0 
9.582733105210e-05 -8.354702379504e-05 0.0 
1.528355731679e-04 -4.886333328950e-05 0.0 
9.121447256950e-05 -5.688049440038e-06 0.0 
5.749099636917e-04 5.127852007133e-03 0.0 
2.996296140661e-04 -2.559252255696e-04 0.0 
1.554565871737e-04 -1.861662557436e-04 0.0 
3.676530118920e-04 -2.486208870581e-04 0.0 
4.147571642174e-05 -7.413290501482e-06 0.0 
7.027046225212e-04 5.677585330574e-03 0.0 
3.452530539282e-05 -4.246693195239e-05 0.0 
7.854984310879e-04 7.250797272365e-03 0.0 
1.856575256665e-04 -1.453741911482e-05 0.0 
8.581660977636e-05 -5.739600517956e-05 0.0 
5.232890554604e-05 -1.452153538956e-05 0.0 
7.296054172011e-05 -1.335385302170e-04 0.0 
5.749959453936e-05 -2.625520619083e-06 0.0 
9.494161561055e-05 -6.464676655424e-05 0.0 
5.255769573965e-05 -1.254432845265e-04 0.0 
7.875291871755e-05 -6.845959489352e-05 0.0 
1.201171304740e-04 -1.074662703663e-04 0.0 
1.500141511156e-04 -1.412004046876e-04 0.0 
4.539621167726e-05 -4.248959371109e-05 0.0 
1.610124607879e-04 -2.017510062374e-04 0.0 
1.815604571033e-04 -2.101519957319e-04 0.0 
7.192400305864e-05 -2.881965185044e-05 0.0 
9.330849055459e-05 -1.427725913631e-04 0.0 
1.029606919550e-04 -3.156149449648e-05 0.0 
1.268386281909e-04 -3.956822814590e-05 0.0 
1.821363957466e-04 -1.168362361752e-04 0.0 
2.836228443101e-04 -2.064100838538e-04 0.0 
7.880638527158e-04 3.167614552781e-03 0.0 
3.119097311945e-04 -2.289718037735e-04 0.0 
9.923415559786e-05 -9.679050859507e-05 0.0 
1.790439724532e-04 -8.059187952234e-06 0.0 
8.880915304035e-05 -1.473392750634e-04 0.0 
7.678061364913e-04 6.727405868945e-03 0.0 
7.227429588205e-04 7.766167480682e-03 0.0 
1.698888783894e-04 -1.779234537786e-04 0.0 
1.193906679169e-04 -9.484603239040e-06 0.0 
1.062678431397e-03 4.681746215901e-03 0.0 
1.061047429824e-04 -1.458189180419e-04 0.0 
8.448310469307e-04 2.692304439747e-03 0.0 
7.584886150920e-04 2.686464519588e-03 0.0 
1.116422615541e-04 -1.418436456416e-04 0.0 
5.466038297800e-04 -4.127287082894e-05 0.0 
1.504680061170e-04 -1.536083623787e-04 0.0 
6.175854560336e-05 -1.899284502916e-05 0.0 
6.505301513645e-05 -4.941161755991e-05 0.0 
1.638735693811e-03 1.466633124012e-03 0.0 
7.025454968906e-04 3.156548562192e-03 0.0 
8.125714359942e-05 -2.473133695584e-05 0.0 
9.106088966928e-05 -2.551549806045e-05 0.0 
1.635160629625e-04 -1.699168861334e-04 0.0 
7.054276990458e-05 -1.949449196661e-05 0.0 
9.608581019647e-04 4.687385789691e-03 0.0 
5.349971672282e-05 -4.855083102183e-05 0.0 
7.888974615897e-04 5.697457574720e-03 0.0 
8.861327784230e-04 4.175462038675e-03 0.0 
6.414991404663e-04 -1.694599507795e-04 0.0 
6.291862414307e-04 3.633452272791e-03 0.0 
7.447709868415e-05 -7.409637494873e-05 0.0 
7.367586292247e-05 -5.603702290936e-05 0.0 
1.014212717578e-04 -1.097428284799e-04 0.0 
2.132237731926e-04 -1.412231380758e-04 0.0 
8.310597364073e-04 5.190557589881e-03 0.0 
2.522551484428e-04 -1.036310941429e-04 0.0 
1.305426862865e-04 -1.413296079786e-04 0.0 
1.709236418657e-04 -1.882696810814e-04 0.0 
9.252368246262e-04 5.199223331330e-03 0.0 
1.436746002195e-04 -1.453633176561e-04 0.0 
7.240628720366e-05 -2.732660134263e-06 0.0 
6.860504010413e-04 4.651323057429e-03 0.0 
7.657955074667e-05 -1.575759971523e-05 0.0 
1.092126677158e-04 5.075335110635e-06 0.0 
8.277475329421e-05 -8.157920770024e-05 0.0 
1.245628550624e-04 -1.454052999383e-04 0.0 
1.643391291539e-04 -1.808134274735e-04 0.0 
1.114036149468e-04 -2.731272686156e-05 0.0 
5.837408187673e-04 6.156158494524e-03 0.0 
1.664356858619e-04 -1.906181361067e-04 0.0 
1.279395436530e-04 -1.157731454581e-04 0.0 
5.487443763683e-05 -1.362895862342e-04 0.0 
9.133882220567e-04 6.231178520558e-03 0.0 
1.069114655486e-04 -1.046061769405e-04 0.0 
1.389622101164e-04 -4.103563568963e-05 0.0 
8.777284802525e-05 -1.067088599544e-04 0.0 
4.780285483947e-04 3.584713115168e-03 0.0 
1.429161945107e-04 -1.326789091765e-04 0.0 
1.445971974238e-04 -3.037826189678e-05 0.0 
2.254570338421e-04 -1.955674845379e-04 0.0 
1.367034534106e-04 -3.510344035514e-05 0.0 
5.815231182363e-05 -6.026583892604e-05 0.0 
9.802973629301e-05 -2.144260251973e-05 0.0 
4.236227669419e-04 -2.207121093549e-04 0.0 
6.778480027169e-05 -1.380024319596e-04 0.0 
6.381552496141e-04 7.208973606755e-03 0.0 
3.599874726063e-04 -7.252991965923e-05 0.0 
9.362561217455e-04 -8.488625841313e-06 0.0 
6.602884289371e-04 6.180547715290e-03 0.0 
2.467218334991e-04 -1.982171387076e-04 0.0 
1.282684537679e-03 5.655353880303e-03 0.0 
7.618072175748e-05 -1.449205609679e-04 0.0 
9.546734064024e-05 -9.185640704260e-06 0.0 
3.786235826079e-04 -6.203117201678e-05 0.0 
5.752936914396e-04 -3.674169228975e-05 0.0 
6.263543742402e-04 2.176557421356e-03 0.0 
2.418624526107e-04 -8.496402965520e-05 0.0 
1.260615232245e-04 -1.567104361277e-04 0.0 
1.945323197891e-04 -5.472241400366e-05 0.0 
9.814343615249e-05 -5.593448368301e-06 0.0 
2.770594513446e-04 -1.871346391293e-04 0.0 
8.860474459501e-05 -2.074711453069e-05 0.0 
7.735696289751e-04 4.669899713353e-03 0.0 
2.985396926631e-04 -2.206300641724e-04 0.0 
1.644496912294e-04 -4.422262019754e-05 0.0 
1.112027189190e-03 7.228060836414e-03 0.0 
7.124398509556e-05 -1.220265688796e-04 0.0 
1.491835795052e-04 -1.280486507039e-04 0.0 
1.067326509398e-03 -1.813790158201e-05 0.0 
1.221050608975e-04 -2.828552436443e-05 0.0 
8.686740506852e-04 9.924988215998e-05 0.0 
9.589424960981e-04 -7.510867448727e-05 0.0 
1.126293256256e-03 5.187433168472e-03 0.0 
6.897195939024e-04 6.706910422106e-03 0.0 
1.212600038092e-03 6.689059781557e-03 0.0 
7.027408976080e-05 -6.144274000507e-05 0.0 
1.515984993071e-04 -1.461479974097e-05 0.0 
2.267844063851e-04 -6.663938271709e-05 0.0 
8.638161492596e-04 7.268194668311e-03 0.0 
1.362392102573e-03 6.894845786254e-04 0.0 
5.923884156279e-04 -1.511195953135e-05 0.0 
1.487881862920e-04 -3.640451874452e-05 0.0 
7.930213936523e-04 4.166641703785e-03 0.0 
1.905033381004e-04 -1.265962494315e-04 0.0 
1.695036200398e-04 -1.273590322848e-04 0.0 
1.510666444592e-04 -1.652127519954e-04 0.0 
2.068309529968e-04 -4.928567277422e-05 0.0 
1.475325877889e-04 -1.142578366121e-04 0.0 
1.071131063469e-03 5.710235841384e-03 0.0 
1.204166610701e-03 6.193395506082e-03 0.0 
5.685358901430e-04 -1.586122963437e-04 0.0 
1.840166473165e-04 -1.459165744929e-04 0.0 
4.866335917508e-04 -2.303181158084e-04 0.0 
1.630106271318e-04 -1.322206833335e-04 0.0 
1.838217276943e-04 -1.317846610937e-04 0.0 
1.443515041072e-04 -1.572927204850e-04 0.0 
1.884984616112e-04 -2.111573720327e-05 0.0 
2.515551766497e-04 -1.287159056727e-04 0.0 
7.121874687140e-04 3.651756514924e-03 0.0 
2.760036689066e-04 -1.265817339495e-04 0.0 
2.096652870399e-04 -5.676472710859e-05 0.0 
2.391044743075e-04 -9.254079932081e-05 0.0 
8.249333234724e-04 -1.337994916323e-04 0.0 
1.315782669856e-04 -1.531233677220e-04 0.0 
1.280091139105e-04 -9.437486294047e-06 0.0 
1.100728769473e-04 -4.984669425769e-06 0.0 
1.273277065624e-03 1.419526826765e-04 0.0 
2.054077829508e-04 -1.311736506369e-04 0.0 
2.266728876423e-04 -7.432114575518e-05 0.0 
9.718949612709e-04 5.716386430453e-03 0.0 
1.675581842493e-04 -1.127797402658e-04 0.0 
7.965691265577e-04 -1.029067293667e-04 0.0 
1.294791115692e-04 -1.288551612919e-04 0.0 
2.699161141243e-04 -2.006963160405e-04 0.0 
2.122545966720e-04 -1.255741787885e-04 0.0 
1.234451542410e-04 -1.333429471255e-04 0.0 
9.147820366847e-05 -1.314623356989e-04 0.0 
2.224506268889e-04 -8.909235782134e-05 0.0 
1.780134931611e-04 -4.588168851034e-05 0.0 
1.091462467541e-03 2.103897236575e-04 0.0 
1.736012171403e-04 -2.084096618547e-04 0.0 
3.633801718667e-04 -1.573120006578e-04 0.0 
3.046385602282e-04 -1.430478635863e-04 0.0 
2.279678891164e-04 -1.301971458048e-04 0.0 
1.101647011325e-03 6.220976737589e-03 0.0 
2.472411164637e-04 -1.108490583226e-04 0.0 
1.220838989632e-04 -1.206673367233e-04 0.0 
2.349207027578e-04 -1.241122964768e-04 0.0 
5.429763781752e-04 4.105357651832e-03 0.0 
1.087712919934e-04 -1.174971131708e-04 0.0 
1.479059802066e-04 -1.790993290203e-04 0.0 
1.454008969152e-04 -1.685008479425e-04 0.0 
2.664556623237e-04 -1.912530120400e-04 0.0 
2.056936352668e-04 -1.461646970329e-04 0.0 
3.326870277385e-04 -1.402490524123e-04 0.0 
2.584041014086e-04 -1.220714715155e-04 0.0 
2.413230241113e-04 -2.096810769126e-04 0.0 
1.331690128021e-04 -1.641678848378e-04 0.0 
1.660693464050e-03 6.284367801707e-03 0.0 
1.102914735375e-04 -1.299446725803e-04 0.0 
2.005830587919e-04 -2.811122602212e-05 0.0 
1.083181739373e-03 1.587892698105e-04 0.0 
2.317758745980e-03 2.176656804271e-03 0.0 
1.273088800479e-03 3.090999826806e-03 0.0 
1.067051336301e-03 2.532216458722e-04 0.0 
6.093067404753e-04 -1.710099754031e-04 0.0 
1.206188345489e-03 1.547634223349e-04 0.0 
2.623890831925e-04 -2.126603826153e-04 0.0 
2.090264558941e-04 -1.092095045567e-04 0.0 
7.064835604708e-04 -1.762433680785e-04 0.0 
3.371596746922e-04 -2.343581347984e-04 0.0 
2.554524754152e-04 -2.230631169823e-04 0.0 
1.616070189486e-04 -1.181141247132e-04 0.0 
2.863530284323e-04 -1.382135792208e-04 0.0 
3.130614082100e-04 -1.356917602526e-04 0.0 
1.030128238958e-04 -1.222866631943e-04 0.0 
2.700131150822e-04 -1.075351132460e-04 0.0 
3.430663819566e-04 -1.526304788958e-04 0.0 
3.962012249873e-04 -1.533157131461e-04 0.0 
1.911960346189e-04 -1.413036212561e-04 0.0 
4.575492682716e-04 -6.166545549427e-05 0.0 
1.235327131091e-03 5.160132438899e-03 0.0 
4.288867069537e-04 -1.701464336743e-04 0.0 
1.624467163462e-04 -1.468038098718e-05 0.0 
2.855803990963e-04 -2.153015767328e-04 0.0 
1.449553700894e-04 -3.481298809427e-06 0.0 
3.013708581086e-04 -1.235390817971e-04 0.0 
9.852394016501e-04 2.779657509819e-04 0.0 
1.688704388825e-03 5.261199024283e-04 0.0 
2.596710516286e-04 -2.040201143579e-04 0.0 
2.215194583711e-03 1.625466298529e-03 0.0 
1.576802558420e-03 2.312975164557e-03 0.0 
3.276677510058e-04 -1.194428695386e-04 0.0 
6.282088859071e-04 -1.750455289048e-04 0.0 
2.081266758074e-03 1.202640156613e-03 0.0 
1.043372023111e-03 2.680296122289e-06 0.0 
2.529608746275e-04 -2.153526114337e-04 0.0 
6.944033336069e-04 1.268889416006e-03 0.0 
2.334339033096e-04 -2.120097456255e-04 0.0 
3.145092488394e-04 5.872481005835e-06 0.0 
5.275631711988e-04 2.640771526575e-03 0.0 
3.943778148030e-04 -5.004983812877e-05 0.0 
9.349442661253e-04 6.755066379175e-03 0.0 
1.301979375713e-03 3.593161487223e-03 0.0 
3.741389862052e-04 -1.491155577322e-04 0.0 
5.687760692382e-04 -1.315094763582e-04 0.0 
1.037658494154e-03 2.170211476826e-03 0.0 
1.565839734080e-04 -3.144308472017e-05 0.0 
1.394481666539e-03 4.580008542199e-03 0.0 
3.331585876100e-04 -6.044431770158e-05 0.0 
2.745917004744e-04 -2.182280771770e-04 0.0 
1.532090697106e-03 3.977230351340e-03 0.0 
4.591525358935e-04 8.973088848115e-05 0.0 
1.173457340175e-04 -4.654780341374e-06 0.0 
2.249767327501e-04 -1.133842167907e-04 0.0 
1.023966953196e-03 6.751015185275e-03 0.0 
1.025913703670e-03 7.262435008624e-03 0.0 
2.825986506010e-04 -1.192633398597e-04 0.0 
1.880232567928e-04 -4.049008103966e-05 0.0 
1.957568231923e-04 -3.454427137433e-05 0.0 
1.523005661829e-04 -1.760949557754e-04 0.0 
4.461537033961e-04 -2.370222990655e-04 0.0 
4.679214634827e-04 -1.641562790036e-04 0.0 
4.061655987655e-04 -1.661286186434e-04 0.0 
9.032220229694e-04 -9.767459686201e-05 0.0 
8.464907706760e-04 1.736685621589e-03 0.0 
1.645888294048e-03 1.105494905064e-03 0.0 
6.000624539937e-04 2.661339703941e-03 0.0 
1.003445668056e-03 2.119097163569e-04 0.0 
1.831471667093e-03 3.112393629433e-03 0.0 
1.743387642079e-04 -3.912840988071e-05 0.0 
7.834619696579e-04 2.211768362437e-03 0.0 
1.752476460774e-03 4.288135987189e-03 0.0 
2.304482216971e-04 -1.067654127937e-04 0.0 
5.022723381035e-04 -1.796727872792e-04 0.0 
1.416283266937e-03 4.053108575819e-03 0.0 
1.118528783498e-03 2.639777326968e-03 0.0 
1.085329301635e-03 4.168021416917e-03 0.0 
1.278946736314e-03 4.631968713161e-03 0.0 
1.315724921537e-04 -1.425922976150e-05 0.0 
3.982935712594e-04 5.807121088388e-06 0.0 
1.640692559268e-04 -2.045646311197e-05 0.0 
1.955432522976e-04 -6.184108005438e-05 0.0 
1.153499318575e-03 1.017312391901e-03 0.0 
4.064444629439e-04 -3.684744532007e-05 0.0 
2.233904642109e-03 3.242501369990e-03 0.0 
1.044684120747e-04 -1.343696791368e-04 0.0 
4.429728535511e-04 -1.608760692232e-04 0.0 
4.251758649660e-04 -1.234761671581e-04 0.0 
5.545388497607e-04 -1.027408749091e-04 0.0 
3.745419129763e-04 -2.428083547247e-04 0.0 
4.768639679106e-04 -1.769758031733e-04 0.0 
5.241564828552e-04 -7.384942118391e-05 0.0 
1.432444179409e-03 7.123915919287e-04 0.0 
2.188084062577e-04 -9.609900711454e-05 0.0 
1.766113122624e-03 5.258482194716e-03 0.0 
7.845863661190e-04 8.915315905179e-03 0.0 
2.779816262694e-04 -1.530386223517e-04 0.0 
2.105647008056e-04 -7.156515619740e-05 0.0 
3.576292238609e-04 -3.887263692712e-05 0.0 
1.460790653043e-03 1.076414183223e-03 0.0 
5.547193024560e-04 -1.450903647505e-04 0.0 
2.091004183554e-04 -7.875959859795e-05 0.0 
1.397556246687e-03 5.597580428448e-03 0.0 
2.887545548062e-04 -8.425130443248e-05 0.0 
4.202978664428e-04 -4.932568757964e-05 0.0 
5.159593361092e-04 -1.168028324029e-04 0.0 
1.568877061172e-03 7.936410034527e-04 0.0 
1.820520183031e-04 -3.354824223296e-05 0.0 
3.244016629254e-04 -2.302076889287e-04 0.0 
1.870020701466e-04 -2.751753317702e-05 0.0 
1.560876072245e-04 -8.893314928865e-06 0.0 
4.872672339820e-04 -6.060503213368e-05 0.0 
1.192563731717e-03 4.145544643749e-03 0.0 
8.554619331176e-04 5.214668777688e-05 0.0 
1.461301880199e-04 -9.173178455855e-06 0.0 
3.033992210899e-04 2.192315316665e-05 0.0 
1.587900946669e-03 4.958354958352e-03 0.0 
4.798698016523e-04 2.358851918287e-05 0.0 
1.193794770718e-03 3.633637384191e-03 0.0 
5.253097047280e-04 -8.858259511440e-05 0.0 
5.208226703188e-04 -1.691900688221e-04 0.0 
1.236226510137e-04 -6.292473469598e-05 0.0 
3.242884688201e-04 -2.524904030594e-04 0.0 
9.717824783334e-04 3.171653424972e-03 0.0 
8.424945091962e-05 -1.242479123736e-04 0.0 
3.265845779999e-04 1.803019771404e-04 0.0 
9.941737210821e-04 7.726354679173e-05 0.0 
5.534465689671e-04 2.162498596298e-03 0.0 
2.987715840847e-04 -2.284669452221e-04 0.0 
1.185261512514e-03 5.348598873149e-05 0.0 
1.632456273053e-03 4.412086459990e-03 0.0 
1.761419803782e-04 -7.936306234686e-05 0.0 
3.622730341774e-04 -2.407634998739e-04 0.0 
5.823932907364e-04 -1.838822287821e-04 0.0 
2.661549228153e-04 -2.280549244022e-04 0.0 
3.107419259942e-04 -2.330464043540e-04 0.0 
2.870865293531e-04 -2.308224940207e-04 0.0 
5.473938154698e-04 -1.172707959646e-04 0.0 
3.539423604952e-04 3.577343343891e-04 0.0 
3.700252859714e-04 4.343364937099e-04 0.0 
1.030432663860e-04 -9.359581305984e-06 0.0 
5.587066844799e-04 -2.034135861045e-04 0.0 
1.954638529540e-03 4.499578693471e-03 0.0 
3.495301860024e-04 -2.508574409934e-04 0.0 
1.345850289795e-04 -3.976812654263e-06 0.0 
2.758659393095e-04 -2.259121134152e-04 0.0 
8.207105404920e-05 -1.116737278764e-04 0.0 
5.078825460260e-04 -4.421930323161e-05 0.0 
3.410399106065e-04 -1.320796099459e-04 0.0 
4.943533828064e-04 6.418202441261e-06 0.0 
6.968797438999e-04 -1.051329494310e-04 0.0 
2.125636734407e-03 3.022549412175e-03 0.0 
3.308319465860e-04 9.601517667282e-06 0.0 
1.465733770323e-03 5.050398816083e-03 0.0 
1.458845912266e-03 9.821829975636e-04 0.0 
1.630054665412e-03 3.366901292611e-03 0.0 
1.673119107749e-03 2.768409956215e-03 0.0 
3.972273512252e-04 -2.302862116000e-04 0.0 
1.045854653791e-04 -1.331612313201e-05 0.0 
1.760575959580e-03 3.757907121872e-03 0.0 
7.035282523837e-04 -1.516775054842e-04 0.0 
4.669912591727e-04 8.276328141941e-04 0.0 
2.795645334297e-04 1.506342698624e-05 0.0 
4.096106699566e-04 -2.430180869092e-04 0.0 
8.996100968415e-05 -1.194972464254e-04 0.0 
5.298602472616e-04 -6.465190580947e-06 0.0 
1.365428595752e-05 -1.371662146455e-04 0.0 
9.123937703529e-04 -9.746319121511e-05 0.0 
4.332246145352e-04 -3.516336532999e-05 0.0 
1.378988731248e-03 1.983538253169e-03 0.0 
1.282733296789e-03 1.494953052035e-03 0.0 
4.767959837445e-04 -4.658118422897e-05 0.0 
1.376891585255e-03 3.035990613342e-03 0.0 
6.149493098976e-04 -1.917375959665e-04 0.0 
1.184771139778e-03 1.782103664012e-04 0.0 
7.066203273862e-04 1.470064863520e-03 0.0 
1.330909263835e-03 5.592736021886e-04 0.0 
1.428429662013e-03 2.575951267418e-03 0.0 
1.792466053021e-03 3.510848782501e-03 0.0 
6.000567603764e-04 -1.586860258028e-04 0.0 
1.720477761564e-03 4.730866077345e-03 0.0 
8.656134505007e-04 -7.881991344573e-05 0.0 
7.458080968174e-04 -1.619691789567e-04 0.0 
4.823874859420e-04 -1.536279553123e-04 0.0 
3.453705960544e-04 -2.437459139688e-04 0.0 
5.491456954473e-04 -1.707120764896e-04 0.0 
1.023774003895e-03 2.666227393091e-03 0.0 
1.394816154657e-03 7.776312158481e-04 0.0 
1.281267127224e-04 -2.376096491097e-05 0.0 
4.235165454521e-04 1.106227633543e-05 0.0 
3.621780791632e-04 -1.362645935039e-04 0.0 
1.579127203556e-03 2.875698889377e-03 0.0 
5.098803225852e-04 -1.559647610249e-04 0.0 
8.108215109484e-05 -8.744250980445e-06 0.0 
1.521589590659e-03 3.462274049279e-03 0.0 
1.918136979116e-03 2.952988004560e-03 0.0 
4.631581402173e-04 -7.520631498528e-05 0.0 
5.846535514199e-04 -1.830671447599e-04 0.0 
1.032384676317e-03 1.735528284311e-04 0.0 
1.778064261048e-03 6.528253064659e-04 0.0 
3.340802453960e-04 -2.408470368319e-04 0.0 
3.982688107628e-04 -2.440877397518e-04 0.0 
7.342117352576e-04 -1.191162584220e-04 0.0 
1.251718294739e-03 1.040520076549e-04 0.0 
6.064239288412e-05 -5.204734307642e-06 0.0 
1.868001057068e-03 3.610688391855e-03 0.0 
5.560133766253e-04 -1.828429753056e-04 0.0 
1.323002721781e-03 1.590489762867e-04 0.0 
3.638495529063e-04 -2.659977141399e-05 0.0 
1.070149415880e-03 3.157925789897e-03 0.0 
1.016858500989e-03 2.160377365073e-04 0.0 
2.014582757923e-03 4.848280875471e-03 0.0 
2.456974897014e-04 -2.064361387230e-05 0.0 
5.243867600267e-04 -1.439648370993e-04 0.0 
3.409543654631e-04 -2.790081247192e-05 0.0 
9.614787473764e-04 -7.620550684852e-05 0.0 
1.127947450877e-03 2.147782030809e-03 0.0 
9.415222562012e-04 2.404434735109e-04 0.0 
4.918239934725e-04 -1.025693817881e-04 0.0 
3.776904385246e-04 -2.470802152372e-04 0.0 
7.685379467836e-04 5.135380121953e-05 0.0 
9.395743705306e-04 -7.037402623155e-05 0.0 
5.865585943021e-04 -1.934288462151e-04 0.0 
4.940293278004e-04 -8.887906555518e-05 0.0 
2.297418030015e-04 -2.903384117092e-05 0.0 
3.673070694041e-04 -2.469564648396e-04 0.0 
5.070090474483e-04 -1.299159851452e-04 0.0 
2.161034197171e-03 1.416245955058e-03 0.0 
5.491395977668e-05 -5.081476612727e-06 0.0 
2.006878928179e-03 1.042504873281e-03 0.0 
9.082775446715e-04 7.299244903539e-05 0.0 
2.286436861636e-03 1.900738237321e-03 0.0 
2.395494906144e-03 3.333774382516e-03 0.0 
1.644892854477e-03 4.621167810988e-04 0.0 
4.369697370586e-04 -4.474744558052e-06 0.0 
1.214670414280e-04 -1.854112380590e-05 0.0 
1.979791223663e-03 3.953626214293e-03 0.0 
1.221842832612e-03 1.568648509013e-03 0.0 
2.372329662715e-03 2.526999920892e-03 0.0 
5.041541910965e-04 -2.196573833768e-04 0.0 
7.187596289964e-04 6.420096448907e-05 0.0 
8.640379890755e-04 2.199418950856e-03 0.0 
8.222535580110e-04 -1.278850194491e-04 0.0 
9.047917492835e-04 -9.319422805341e-05 0.0 
5.337451749278e-04 -2.033473977774e-04 0.0 
2.054211592666e-03 3.241076648109e-03 0.0 
9.268846332727e-04 6.723295377829e-05 0.0 
8.359733406487e-04 -6.934861894512e-05 0.0 
8.927361913551e-04 1.275678596746e-05 0.0 
5.228865335496e-04 -2.606848234856e-05 0.0 
5.442666034820e-04 6.524599878565e-05 0.0 
5.075388965621e-04 -1.914903080749e-04 0.0 
3.191538129345e-04 -2.546598389431e-04 0.0 
1.372962963118e-03 1.325303695420e-03 0.0 
1.064233097581e-03 1.719726336852e-04 0.0 
3.930189404906e-04 -1.307604947256e-04 0.0 
6.160127631961e-04 5.952081201677e-05 0.0 
2.079336447238e-03 3.743420095420e-03 0.0 
1.501061517875e-04 -2.537533075734e-05 0.0 
6.747728241215e-04 -1.834314449120e-04 0.0 
3.066697027778e-04 -2.563400240759e-04 0.0 
3.809337656862e-05 -2.351211778188e-06 0.0 
1.173129263190e-03 4.337417815984e-05 0.0 
6.648374124732e-04 -4.306716424359e-05 0.0 
9.061180169155e-04 1.512671390360e-04 0.0 
2.907521367208e-04 -2.572055470806e-04 0.0 
1.618897040977e-04 -2.611881711118e-05 0.0 
5.151590046401e-04 -2.146931952566e-04 0.0 
2.128554536497e-03 4.581929601399e-03 0.0 
1.660021981479e-04 -6.376717314295e-05 0.0 
5.329569099554e-04 -1.931384884337e-04 0.0 
7.406829289419e-05 -8.540169201580e-06 0.0 
9.163925837954e-04 -6.416723307160e-05 0.0 
5.084943114725e-04 -2.117206939301e-04 0.0 
1.215829545226e-03 7.594560282941e-05 0.0 
3.014079711044e-04 -2.571890849205e-04 0.0 
1.137785197387e-03 1.156612163425e-04 0.0 
4.909409059833e-04 -3.002460763611e-05 0.0 
8.592608626587e-04 2.588468861800e-04 0.0 
1.022172798086e-03 1.256885536667e-04 0.0 
4.296132051554e-04 -2.364419251937e-04 0.0 
1.177193090775e-04 -2.296930576801e-05 0.0 
7.676250452007e-04 1.739443029497e-03 0.0 
2.338568705259e-04 2.024412887693e-05 0.0 
4.976995757065e-04 -1.210298233322e-05 0.0 
6.452366670064e-04 -1.798258698877e-04 0.0 
1.201522560692e-03 9.785048694053e-05 0.0 
4.405600733089e-05 -4.788246460662e-06 0.0 
3.850632423700e-05 -5.346562804482e-05 0.0 
1.055359050390e-03 1.060074442650e-04 0.0 
1.834748864139e-03 4.686869736352e-03 0.0 
9.621037023097e-05 -1.294882868192e-05 0.0 
1.526616947670e-04 -2.005377618750e-05 0.0 
3.410400244305e-04 9.470390435125e-03 0.0 
2.371593536815e-04 9.481945263343e-03 0.0 
2.156139950813e-03 1.428033694815e-03 0.0 
1.142467673830e-03 8.933033408955e-05 0.0 
1.398402382892e-04 -5.313609484827e-05 0.0 
1.669249644569e-03 5.003741398548e-04 0.0 
8.412189931791e-04 -1.000218992997e-04 0.0 
2.364892370982e-04 -4.707689759589e-06 0.0 
6.774799994120e-04 -1.759129637442e-04 0.0 
3.307758403127e-04 3.957087563135e-04 0.0 
2.263137552045e-03 3.825412244532e-03 0.0 
8.572155052267e-04 -1.081894207474e-04 0.0 
1.803503272658e-04 -6.627188950209e-05 0.0 
4.334948754407e-04 -2.394734589238e-04 0.0 
2.029238178282e-04 -9.248596034878e-05 0.0 
1.180578030789e-03 6.728360225943e-05 0.0 
1.384711233768e-03 2.056305071228e-04 0.0 
2.168155531689e-03 4.023021300525e-03 0.0 
1.591547623256e-03 4.373040832218e-04 0.0 
1.577140103619e-03 4.620280188178e-04 0.0 
4.628110446601e-05 -1.519414602686e-04 0.0 
1.986133564117e-04 -9.897765379391e-05 0.0 
1.017869798882e-03 9.962776851649e-05 0.0 
1.908657630406e-03 8.456665292070e-04 0.0 
1.923912002825e-03 8.784298766044e-04 0.0 
3.557815008076e-04 -1.996675028257e-06 0.0 
6.512609839453e-06 -1.316372942101e-04 0.0 
3.401335256670e-04 -2.483713996505e-04 0.0 
1.063866424348e-03 -2.282167796714e-05 0.0 
1.833882191634e-04 -9.529692854629e-05 0.0 
1.690026506417e-03 2.838401399401e-03 0.0 
1.845739767579e-03 3.838382566232e-03 0.0 
2.251298584819e-03 3.740629811029e-03 0.0 
3.791600315874e-04 -2.242620246930e-04 0.0 
1.643282311563e-04 -7.013863353008e-05 0.0 
3.353949275672e-04 -3.934986901711e-05 0.0 
3.498011202178e-04 -2.495370956705e-04 0.0 
3.554503274297e-04 6.708422683818e-05 0.0 
1.406391068545e-03 2.497419700191e-03 0.0 
1.340298075872e-04 -7.107977479993e-05 0.0 
1.026845426350e-04 -1.738217021284e-05 0.0 
9.078643751542e-05 -1.654871505046e-04 0.0 
3.255186588214e-04 -4.986241620081e-05 0.0 
1.109593435883e-03 6.051764058872e-06 0.0 
6.865259040953e-05 -1.609843083725e-04 0.0 
1.312620524998e-03 2.562338667487e-03 0.0 
3.420616634487e-04 -2.518974000035e-04 0.0 
1.819778777234e-03 6.988564633451e-04 0.0 
1.310256231475e-03 1.416033753745e-04 0.0 
4.070655331318e-04 -1.440679224668e-04 0.0 
2.988958227491e-04 -7.676187295843e-05 0.0 
1.302569145567e-03 2.060693855641e-03 0.0 
2.736754755350e-04 -5.611970818597e-05 0.0 
9.933782342567e-04 -4.979316507632e-05 0.0 
1.007680590033e-03 -5.135568253160e-05 0.0 
2.730839309367e-04 -1.777563436057e-04 0.0 
3.268685778362e-04 -2.538446129774e-04 0.0 
8.666091115453e-04 8.947736458738e-05 0.0 
2.414991739385e-03 3.308384010538e-03 0.0 
7.640151822043e-04 8.147876659841e-05 0.0 
5.279215133189e-04 -2.043153331236e-04 0.0 
1.971494617644e-03 1.464139658778e-03 0.0 
8.540613175366e-04 1.242445984941e-04 0.0 
1.888624215941e-03 3.346152319903e-03 0.0 
9.193190356522e-04 1.134295717454e-04 0.0 
9.369641580118e-05 -1.682826446743e-05 0.0 
1.069970539062e-03 3.030517625605e-05 0.0 
1.910818613775e-04 -8.250015064310e-05 0.0 
1.936162412734e-04 -7.578043818546e-05 0.0 
1.406461076986e-03 1.236750879993e-03 0.0 
3.166966595718e-04 -9.813180888050e-05 0.0 
1.286499731285e-03 1.236087811207e-04 0.0 
7.133187192972e-04 -1.234366715002e-04 0.0 
2.410739419838e-04 -3.723235613390e-05 0.0 
7.805230602136e-04 -1.382964435510e-04 0.0 
4.366622715746e-04 -2.306873152913e-04 0.0 
4.582925442258e-04 -1.141491042005e-04 0.0 
4.781460873495e-04 -2.261628591965e-04 0.0 
1.754775695104e-03 6.104084180636e-04 0.0 
4.597184248305e-04 -2.252618683011e-04 0.0 
1.559757423422e-03 3.671853072253e-04 0.0 
4.107803643533e-04 -8.549504013250e-06 0.0 
4.395645754349e-04 -2.013386707597e-05 0.0 
7.465085488343e-04 -1.550220989198e-04 0.0 
2.312407134668e-03 3.941584796180e-03 0.0 
8.020838519654e-05 -1.219084115765e-05 0.0 
7.251651184002e-05 -1.181566439450e-05 0.0 
3.417858554041e-04 -2.192304010012e-04 0.0 
1.503350938420e-03 3.234643722213e-04 0.0 
4.245036550801e-05 -2.402312028403e-06 0.0 
6.624224067453e-04 3.259483058750e-04 0.0 
1.257500457069e-04 -5.711387106593e-05 0.0 
2.811663564469e-04 -1.704944283555e-04 0.0 
6.064798643023e-05 -8.041734743512e-06 0.0 
4.444307649894e-04 -2.364822111078e-04 0.0 
3.113434810371e-05 -4.799446201571e-05 0.0 
7.072475658448e-04 -3.614177396542e-05 0.0 
2.369359046662e-03 3.592840921436e-03 0.0 
2.395014403315e-03 3.710837385300e-03 0.0 
1.086200079545e-03 3.466265753083e-06 0.0 
9.081691882340e-04 1.602672189410e-03 0.0 
1.237599338723e-03 2.141250046451e-03 0.0 
5.414702292383e-05 -7.799604841662e-06 0.0 
2.968364206544e-04 -6.733342296100e-05 0.0 
4.003540364539e-04 -1.206008905302e-04 0.0 
3.472561857378e-04 -5.026191166914e-05 0.0 
4.682141118814e-04 -1.399155944186e-04 0.0 
4.699074939276e-04 -2.316285921008e-04 0.0 
9.557560758831e-04 1.931850909442e-03 0.0 
2.339416174934e-03 3.869101245170e-03 0.0 
2.882800701327e-04 9.761495976917e-03 0.0 
4.129348462683e-04 -2.291074377249e-05 0.0 
7.098911877781e-04 -1.617778068738e-04 0.0 
2.988786354907e-04 1.881204234919e-05 0.0 
2.272396779163e-05 -7.102984001506e-06 0.0 
4.783292359462e-04 -1.282035481770e-04 0.0 
3.494134013077e-05 -6.584692918982e-07 0.0 
4.440813268766e-04 -2.147592677407e-04 0.0 
3.992536356684e-04 2.429863990661e-05 0.0 
1.026170712234e-03 -2.384465881765e-05 0.0 
9.573081124422e-04 7.419273676781e-06 0.0 
2.271108108639e-04 -1.316447242386e-05 0.0 
2.363270743292e-04 -1.407530228259e-04 0.0 
1.399350082957e-03 2.179360759966e-04 0.0 
4.418912893784e-04 -1.371783123997e-04 0.0 
1.437302094755e-03 2.465230125788e-04 0.0 
5.668711397475e-04 -1.977427052918e-04 0.0 
8.468663965758e-04 -4.401617713849e-06 0.0 
4.311160535074e-04 -1.476104635130e-04 0.0 
1.530621784903e-04 -5.513635129389e-05 0.0 
1.518273785910e-03 3.255267487022e-04 0.0 
2.854568168118e-04 -2.119303407091e-04 0.0 
7.032473249672e-04 -9.255260374723e-05 0.0 
3.065319821729e-04 -1.732527761551e-04 0.0 
1.277881328750e-04 -1.675774384728e-04 0.0 
1.387987097923e-04 -5.918483610688e-05 0.0 
1.210913022957e-03 2.405250294934e-04 0.0 
2.406782370169e-03 2.879168660224e-03 0.0 
5.715588128784e-04 8.955170712881e-04 0.0 
1.686876381357e-04 1.852003580772e-04 0.0 
2.679822117583e-04 -1.974248087337e-04 0.0 
7.041458975307e-04 1.202291072825e-03 0.0 
3.818498100351e-04 -1.072494817584e-04 0.0 
1.107057607634e-04 -6.086144771784e-05 0.0 
1.330817269526e-03 1.124256443394e-03 0.0 
3.841380297353e-04 -1.927935009386e-04 0.0 
3.188254862853e-04 -8.888348547521e-05 0.0 
1.114484392416e-03 3.212667928408e-05 0.0 
6.705088458166e-04 -6.117219100956e-05 0.0 
1.430324207085e-03 5.356388946265e-04 0.0 
3.583516319885e-04 -2.267257126189e-04 0.0 
1.477051754898e-04 -7.364062800263e-05 0.0 
1.007124113312e-04 -5.342248472317e-05 0.0 
1.903541643965e-04 -1.550977450626e-04 0.0 
2.019584766491e-03 4.141533112338e-03 0.0 
2.387154762715e-03 2.534486172909e-03 0.0 
8.683610913689e-06 -1.670908295741e-05 0.0 
8.057166783596e-05 -1.659837165895e-04 0.0 
2.844617375331e-04 -2.558555377193e-04 0.0 
1.883048398065e-04 -1.798009055918e-04 0.0 
8.858721374550e-05 -5.186178809459e-05 0.0 
4.635807344030e-04 -1.974743486184e-04 0.0 
3.871974442112e-04 -2.034624178545e-04 0.0 
4.201973318010e-04 -2.286744175130e-04 0.0 
1.146635758218e-04 -4.951883109275e-05 0.0 
2.216478920297e-03 1.647456899723e-03 0.0 
7.917321828336e-05 -4.512707229263e-05 0.0 
4.863126779485e-04 -2.002389538457e-04 0.0 
1.423915289110e-03 2.532188771159e-04 0.0 
1.344223483503e-03 7.491098538846e-03 0.0 
6.301448021239e-04 -7.671997748210e-06 0.0 
6.777976652820e-05 -4.403588402815e-05 0.0 
1.025428316964e-04 -4.789073172814e-05 0.0 
4.259686208076e-04 4.783204621528e-04 0.0 
4.363699317983e-04 -1.824795590230e-04 0.0 
5.883844478233e-05 -3.793991143813e-05 0.0 
6.387253286206e-05 5.945407847204e-03 0.0 
6.632698595276e-05 6.935178863342e-03 0.0 
4.841655960363e-04 6.636342730678e-04 0.0 
9.214410293667e-05 -4.106123241425e-05 0.0 
3.333581262997e-04 -1.886856391484e-04 0.0 
3.397199808551e-04 -1.598120738775e-04 0.0 
3.753690228397e-04 1.860528827728e-05 0.0 
2.178348584882e-04 -1.984765547890e-04 0.0 
3.284134019392e-04 -1.777487386666e-04 0.0 
7.312853239944e-04 -1.056497707067e-04 0.0 
5.581140877883e-04 1.102155855236e-03 0.0 
4.800818834503e-05 -3.725440765914e-05 0.0 
1.243496425119e-05 -1.152116376291e-04 0.0 
2.145987478829e-03 4.303387820008e-03 0.0 
8.089968710932e-05 -3.985826960732e-05 0.0 
3.701937253042e-04 -1.271573211765e-04 0.0 
1.503466830017e-04 -6.755655293963e-05 0.0 
2.915776831748e-04 -2.283503158466e-04 0.0 
9.472703376017e-05 3.032362872184e-03 0.0 
3.720918718031e-04 -1.695644977336e-04 0.0 
2.952023284513e-04 -8.574292352260e-06 0.0 
9.025965747256e-04 -1.113480276580e-05 0.0 
7.131553757550e-05 -3.375954427092e-05 0.0 
6.064774700367e-05 -3.293237436620e-05 0.0 
4.441171662261e-04 -2.049589639620e-04 0.0 
2.301025661747e-04 -2.209131260459e-04 0.0 
2.937449763735e-04 -2.189981705836e-04 0.0 
5.175818620439e-05 -2.746559032821e-05 0.0 
2.434834410851e-04 -1.245936055779e-05 0.0 
2.828794475058e-04 -1.722954092938e-04 0.0 
1.356916189174e-03 2.249138305474e-04 0.0 
5.742853877584e-04 2.023509125986e-04 0.0 
1.510784348161e-03 3.553257894617e-04 0.0 
7.263905054903e-05 4.488042150568e-07 0.0 
2.710329549248e-04 -2.536759237085e-04 0.0 
1.535586255133e-05 2.610215249038e-04 0.0 
1.538900931894e-06 4.005986969911e-07 0.0 
3.822213609486e-05 8.497987728912e-03 0.0 
3.139057467985e-04 -1.548152018000e-04 0.0 
1.009072953226e-03 4.520784865056e-06 0.0 
4.864798278866e-04 -2.102604303572e-04 0.0 
1.356254310117e-04 -1.749147748224e-04 0.0 
2.750306670731e-04 -1.918107363774e-04 0.0 
4.312258692552e-04 2.147678616995e-03 0.0 
2.292615444579e-03 1.910941098758e-03 0.0 
1.770411385320e-03 4.843814423648e-03 0.0 
1.581841867282e-04 2.821137165739e-05 0.0 
1.269909661954e-05 -1.262708659045e-04 0.0 
1.343867279577e-04 2.135118436816e-05 0.0 
2.338762428924e-03 2.194345917725e-03 0.0 
2.608517487158e-04 -1.397605319093e-04 0.0 
9.935574392685e-04 -2.096863667765e-05 0.0 
3.038723636321e-04 -1.612147383267e-04 0.0 
3.585711606523e-04 -1.298269118001e-04 0.0 
2.766513816980e-04 -1.616767154093e-04 0.0 
2.057330237619e-03 1.223947165453e-03 0.0 
2.224966908186e-05 -4.459773362214e-06 0.0 
3.594559394662e-04 -1.766443122104e-04 0.0 
1.423565209836e-03 3.122078453298e-04 0.0 
2.740061519531e-04 -2.574347110210e-04 0.0 
4.200774872573e-04 -1.903272911915e-04 0.0 
2.111612253854e-03 1.748074144295e-03 0.0 
2.284297721266e-04 -1.461795432486e-04 0.0 
2.570856648271e-04 -1.716675067638e-04 0.0 
9.375831745559e-04 -4.071034977637e-05 0.0 
2.969355572721e-04 -2.414143681151e-04 0.0 
3.548761545965e-04 2.165759559549e-04 0.0 
3.822120505121e-04 3.381053537859e-04 0.0 
2.270644873871e-04 -1.609782572320e-04 0.0 
3.589901083377e-04 -1.044412889819e-04 0.0 
7.702897020724e-04 -1.288275160927e-04 0.0 
1.349132700159e-03 2.520413815210e-04 0.0 
1.140455967664e-03 5.289107706573e-04 0.0 
4.071277851352e-04 6.063064565872e-04 0.0 
1.263690302985e-04 4.916131435234e-03 0.0 
7.791539457535e-04 1.917982583616e-04 0.0 
4.637120449915e-04 -2.172961289086e-04 0.0 
3.033848361261e-04 -1.549842662915e-04 0.0 
6.566494265831e-04 2.321410957572e-04 0.0 
3.332813138284e-04 -1.106600561248e-04 0.0 
1.654665805544e-03 5.527981396086e-04 0.0 
3.546691195700e-04 -1.141895242048e-04 0.0 
3.250885188678e-04 -2.303233713561e-04 0.0 
3.397809444782e-04 -8.149083871639e-05 0.0 
3.813073853676e-04 -9.201400759389e-05 0.0 
7.299122552987e-04 -1.354528700720e-04 0.0 
3.397311293096e-04 -9.166349749667e-05 0.0 
8.983871507967e-04 -3.377500467624e-05 0.0 
4.433185712691e-04 6.131499428239e-03 0.0 
2.123831086323e-04 -1.557742259594e-04 0.0 
3.238718998275e-04 -1.836656077471e-04 0.0 
3.168158993593e-04 -6.928237669750e-05 0.0 
4.092123806198e-04 -4.287143090531e-05 0.0 
2.854852367030e-04 -2.524987136591e-04 0.0 
3.683935682983e-05 1.976045207209e-03 0.0 
4.758301576712e-05 2.959817861964e-03 0.0 
2.228898010478e-04 -2.274227804338e-04 0.0 
3.121747252630e-04 -5.919822675372e-05 0.0 
1.892277607329e-04 -1.679587417372e-04 0.0 
1.831627756883e-04 -1.592105359030e-04 0.0 
1.277580777601e-03 2.904893147176e-04 0.0 
8.475564501841e-04 -4.776059347087e-05 0.0 
1.253424632138e-03 2.231092308578e-04 0.0 
3.992437235670e-04 -1.860465075047e-04 0.0 
6.017041163742e-04 9.769007553562e-03 0.0 
4.957022460993e-05 6.847063349152e-07 0.0 
1.824940691245e-04 -1.715155262933e-04 0.0 
3.428796591824e-04 -1.630208555765e-05 0.0 
7.960236878223e-04 -1.102485705431e-04 0.0 
5.064729800737e-05 -1.412539373362e-04 0.0 
1.834856830265e-03 7.593198749002e-04 0.0 
4.593985828236e-04 -1.860287187417e-04 0.0 
2.464955062278e-04 -2.352931607046e-04 0.0 
4.058682208914e-04 -2.077491994829e-04 0.0 
4.709397370549e-06 -2.064196782300e-05 0.0 
1.987836654082e-03 1.052024142365e-03 0.0 
2.222907183911e-04 -2.064236114080e-04 0.0 
2.105744972465e-05 -4.894454552417e-05 0.0 
1.467336515149e-03 4.010818596186e-04 0.0 
6.000852771291e-04 7.807662420302e-06 0.0 
2.510257995109e-04 -1.615809756632e-04 0.0 
2.499208293431e-05 -1.149959503206e-04 0.0 
7.736128457458e-04 -9.908702372880e-05 0.0 
3.255011547143e-05 6.462995005489e-03 0.0 
2.604451786889e-04 -2.443609947680e-04 0.0 
5.122770953864e-04 1.147644632105e-04 0.0 
7.816245784662e-04 4.435084261948e-04 0.0 
1.371699358092e-04 7.835487054843e-03 0.0 
7.724252038048e-04 1.281110773356e-03 0.0 
6.651179419816e-04 2.805941218429e-04 0.0 
3.928150599198e-04 -1.741809603053e-04 0.0 
3.403858065716e-04 -1.716018611886e-04 0.0 
1.646116161996e-04 8.076906244179e-06 0.0 
2.728441185931e-04 -2.489738203233e-04 0.0 
6.186486780091e-06 -1.207372626446e-04 0.0 
1.526651187677e-05 -4.450243738929e-05 0.0 
2.355810129557e-04 -1.563251334782e-04 0.0 
3.509480252170e-04 -1.939022176760e-04 0.0 
3.199759809715e-04 4.521077861770e-05 0.0 
3.353909193350e-04 1.178411697446e-04 0.0 
1.161011587853e-03 7.691882406812e-03 0.0 
4.236425701058e-04 -2.013610662537e-04 0.0 
6.408248466267e-05 -1.154905072777e-04 0.0 
7.621522253371e-04 2.108612187381e-05 0.0 
1.617732317081e-05 6.940657922046e-07 0.0 
2.150204118765e-05 7.314788332111e-07 0.0 
3.327079489985e-04 -1.598405249498e-04 0.0 
1.315544571321e-03 7.771210901553e-03 0.0 
2.788197599802e-04 -2.577122798354e-04 0.0 
3.023914919525e-04 -6.982331448166e-05 0.0 
2.966880001476e-04 -2.465102965000e-04 0.0 
3.120445318206e-04 -1.904898757903e-05 0.0 
7.891680412506e-04 -7.938905798478e-05 0.0 
2.993600450053e-04 -1.777726584278e-04 0.0 
3.650734337512e-04 -1.880077682161e-04 0.0 
2.855737612739e-04 -2.587333561614e-04 0.0 
1.105025379376e-04 2.674405112162e-03 0.0 
3.107021611996e-04 -1.723869389545e-04 0.0 
3.723754582500e-04 2.105575294254e-03 0.0 
2.816694087219e-04 3.557582685598e-03 0.0 
4.621219751576e-05 5.763173087226e-04 0.0 
3.459423949505e-06 6.780949064293e-07 0.0 
7.199900657619e-05 7.946237194338e-03 0.0 
2.863021816299e-04 -1.559817639156e-04 0.0 
3.390998286664e-04 3.007404311785e-04 0.0 
2.780500330005e-04 -1.447479430234e-04 0.0 
6.050119852609e-06 3.234785640527e-07 0.0 
2.874781177698e-04 -1.439267835608e-04 0.0 
2.943324527711e-04 -1.107698988142e-04 0.0 
3.368156665740e-04 -4.967432224714e-06 0.0 
9.644168371689e-04 8.638677453236e-03 0.0 
2.193167702128e-04 2.028265984530e-03 0.0 
1.394524896460e-03 3.332399798908e-04 0.0 
5.112235703335e-04 3.084417991572e-05 0.0 
1.590350197159e-03 6.405580819451e-04 0.0 
4.612426047201e-04 7.593801652976e-03 0.0 
2.329677854868e-04 -1.705564350340e-04 0.0 
2.475441763715e-04 -1.759898423807e-04 0.0 
1.534969632926e-04 5.411706728729e-03 0.0 
5.999616104616e-04 2.890402116880e-05 0.0 
1.341591653306e-03 6.810148794469e-03 0.0 
2.381494435299e-04 8.927446675752e-03 0.0 
2.928345785363e-04 8.057792331691e-03 0.0 
5.228237683902e-04 7.707241023947e-03 0.0 
3.072692629018e-04 -2.554509611137e-04 0.0 
2.241752657608e-04 -1.744128844271e-04 0.0 
3.512021876947e-04 1.261387673964e-03 0.0 
5.467749866685e-04 6.656401392755e-03 0.0 
1.596328601904e-04 1.600844887699e-05 0.0 
1.150918400317e-03 4.901747820252e-04 0.0 
1.754599375715e-03 6.381084822213e-04 0.0 
1.095652748739e-03 1.704308325051e-03 0.0 
7.947288483975e-05 -8.716964616476e-05 0.0 
8.165925425714e-05 -9.937472561293e-05 0.0 
8.784141116210e-05 -2.101966000187e-06 0.0 
2.785038851911e-04 -2.602203492932e-04 0.0 
3.189004832973e-05 -1.199690401144e-04 0.0 
7.158504122921e-05 1.187845595541e-05 0.0 
1.229013665198e-05 -1.476636570948e-04 0.0 
2.926835771431e-04 8.626075853891e-03 0.0 
2.022904006087e-04 4.045276178532e-07 0.0 
1.838228672107e-04 -2.024387495231e-04 0.0 
1.366232451097e-04 -1.892872796848e-04 0.0 
2.265931569844e-04 4.599502214621e-04 0.0 
8.104177160480e-04 9.383704578692e-03 0.0 
5.287490232668e-04 1.322250741376e-03 0.0 
2.155683857516e-04 6.360114502655e-06 0.0 
7.348864928747e-04 9.448641566173e-03 0.0 
2.798508462385e-04 -2.487735421915e-04 0.0 
7.930901764726e-05 1.082543390090e-03 0.0 
1.161202988394e-04 -1.633132074850e-04 0.0 
5.730351836873e-04 1.762179200772e-03 0.0 
4.696277560040e-06 3.338215076758e-07 0.0 
1.209759987093e-03 6.872128642472e-04 0.0 
3.257712505386e-04 -2.506737653094e-04 0.0 
1.743073659192e-03 6.595692993474e-03 0.0 
4.836638798435e-05 -8.310601879362e-05 0.0 
7.162957680646e-04 9.939814893577e-06 0.0 
8.561311289165e-05 9.886044090074e-06 0.0 
1.552852143209e-04 4.410979454123e-03 0.0 
7.601613707782e-05 7.675379994063e-06 0.0 
2.913135669683e-04 -2.585862142977e-04 0.0 
2.906991901803e-05 4.111034522283e-07 0.0 
3.199886817875e-04 -2.428314691516e-04 0.0 
5.687634560201e-05 -1.513391709807e-04 0.0 
1.050582445339e-04 2.531154321143e-06 0.0 
8.499599498060e-04 8.629766339437e-04 0.0 
4.865121491683e-04 8.834327434955e-04 0.0 
6.145556121294e-04 8.775615301447e-03 0.0 
2.319150339453e-03 4.323038997078e-03 0.0 
3.614387132434e-04 -1.527984828842e-04 0.0 
7.353853979442e-04 2.910652066678e-04 0.0 
4.318467855839e-05 -9.888981264389e-05 0.0 
3.131306773625e-04 -2.145627337607e-04 0.0 
6.418710927316e-04 1.620492919689e-05 0.0 
4.914373229399e-04 9.797966230784e-03 0.0 
1.117971545811e-03 1.168677344779e-03 0.0 
6.472050565028e-06 5.491552483560e-04 0.0 
6.472050565028e-06 2.314562397965e-04 0.0 
1.430878427689e-05 -1.762326722612e-04 0.0 
5.926105821944e-06 -1.724852265836e-04 0.0 
2.901921835991e-05 9.471919917248e-03 0.0 
7.700929704430e-05 9.824219486432e-03 0.0 
5.949046556235e-07 3.084620941133e-07 0.0 
5.949046556235e-07 5.960206817415e-07 0.0 
2.555030705211e-05 -1.680797283774e-04 0.0 
2.735397227763e-04 -2.612491969862e-04 0.0 
2.908083310233e-05 -6.745257169059e-07 0.0 
5.879334698161e-04 7.764166400892e-05 0.0 
9.704506101016e-05 -1.535788194645e-04 0.0 
4.977796916278e-05 -8.923285389045e-07 0.0 
8.681871943526e-06 -3.539520485150e-05 0.0 
9.999982513686e-06 -5.657265618269e-05 0.0 
3.828790948799e-04 6.276586822866e-03 0.0 
2.764101085076e-04 -2.385735193298e-04 0.0 
7.980948870192e-04 -1.713968713377e-05 0.0 
1.093480851738e-04 -1.649678797199e-04 0.0 
6.250545553477e-05 -7.173222901215e-05 0.0 
9.597429207289e-04 3.788949095758e-04 0.0 
2.093160691031e-05 2.446966853917e-03 0.0 
1.909275064441e-05 -5.545948289975e-05 0.0 
2.326853525868e-04 7.284870805763e-03 0.0 
7.092101454924e-04 1.359144218914e-04 0.0 
1.383898488732e-03 4.718196279307e-04 0.0 
1.608712558503e-03 5.619775252981e-04 0.0 
6.574031120841e-04 9.449812344548e-03 0.0 
7.565121937202e-04 -4.764600194679e-05 0.0 
1.218671586678e-03 9.625257534090e-04 0.0 
4.510366753325e-05 -1.197682066719e-04 0.0 
2.153915694252e-04 -2.245554395541e-04 0.0 
8.423649994536e-04 1.579661690526e-04 0.0 
3.651848009532e-04 -1.429713790623e-05 0.0 
2.738448006570e-04 -2.431913300902e-04 0.0 
2.106539944297e-04 5.519041509536e-03 0.0 
1.561981706421e-05 7.916653950659e-07 0.0 
7.422713939633e-04 1.080079040870e-04 0.0 
6.403024741725e-04 1.036586162110e-04 0.0 
1.008943903123e-05 -2.582930740284e-05 0.0 
2.821155776381e-04 -2.296824940542e-04 0.0 
3.091370054111e-04 9.548458344913e-05 0.0 
4.137494936698e-04 -8.044836213486e-05 0.0 
1.948481706014e-03 5.958040381254e-03 0.0 
8.029943645565e-04 -3.785846098035e-05 0.0 
4.415732201360e-04 1.734971190677e-03 0.0 
1.472659662950e-04 9.854473584312e-06 0.0 
2.524643474558e-04 -2.418190843696e-04 0.0 
2.228892935362e-04 -2.239736861979e-04 0.0 
2.955861308375e-04 -3.730498605659e-05 0.0 
3.578272294752e-04 5.058645985259e-03 0.0 
6.919799485178e-05 -1.098883322227e-04 0.0 
1.008290610823e-03 1.289781650157e-03 0.0 
5.887009254244e-05 -1.466836857327e-04 0.0 
2.590702854543e-04 8.448237579241e-06 0.0 
1.091045864393e-03 7.694810738973e-03 0.0 
2.395793437578e-04 3.031918307711e-05 0.0 
7.259881972385e-04 3.693142643517e-05 0.0 
2.168106719204e-03 5.198508264350e-03 0.0 
8.133502104806e-05 9.588601555541e-07 0.0 
7.846023947721e-04 9.230518641084e-04 0.0 
6.436043260234e-05 1.269906422814e-03 0.0 
2.832644293789e-04 -1.224654732284e-04 0.0 
1.014801597597e-03 1.726477532922e-03 0.0 
4.472394238670e-04 1.093749511276e-04 0.0 
2.565187788790e-04 5.187222749607e-06 0.0 
6.382222576961e-04 3.848421142685e-05 0.0 
8.672604601909e-06 3.266897389593e-07 0.0 
1.676840393482e-03 6.567316678926e-04 0.0 
2.665310305303e-04 -2.210103932436e-04 0.0 
3.249942542188e-04 -1.983093058829e-04 0.0 
1.302333851395e-03 5.008130186961e-04 0.0 
1.916427998614e-03 5.780363090100e-03 0.0 
1.509281568728e-05 -6.691018762538e-07 0.0 
5.780251414408e-04 4.822643373890e-05 0.0 
3.067943603304e-05 7.149112553290e-07 0.0 
3.339977463000e-04 4.042646073148e-03 0.0 
2.056770197514e-04 2.343534231605e-05 0.0 
9.986802075025e-05 -1.477684380012e-06 0.0 
1.071498965076e-04 -1.079580219891e-06 0.0 
4.958715039219e-05 -1.041526359162e-04 0.0 
1.355483842151e-05 6.908546172980e-07 0.0 
1.135779638125e-03 8.282039126767e-03 0.0 
2.675259575755e-04 2.051977513759e-03 0.0 
2.313949870645e-04 -2.263299809526e-04 0.0 
1.642560811461e-04 2.869655494028e-03 0.0 
3.192931903060e-04 5.468584771190e-03 0.0 
1.238262419852e-05 -1.574902267629e-04 0.0 
3.202457594769e-04 -2.537866743034e-04 0.0 
1.475796643828e-03 4.819846726548e-04 0.0 
3.910267742195e-04 1.001984565814e-03 0.0 
1.335672919021e-04 1.964280261248e-03 0.0 
2.575360930497e-04 2.393151405297e-05 0.0 
5.717582525499e-04 7.182853798171e-03 0.0 
1.790050014160e-04 -2.058783435202e-04 0.0 
2.942913792680e-04 -2.446916634208e-04 0.0 
1.698884098099e-04 -1.992480675173e-04 0.0 
2.203402579340e-04 -2.154360506337e-04 0.0 
2.631457119089e-04 -2.122047180265e-04 0.0 
5.719299441482e-05 -7.548675174277e-05 0.0 
1.899994778274e-05 -7.431179894254e-07 0.0 
1.253370896109e-03 7.774518976503e-04 0.0 
2.355251734593e-03 4.190165509186e-03 0.0 
8.763036803892e-05 -9.459302579304e-05 0.0 
8.453041636088e-05 -2.663627997727e-06 0.0 
1.837482194573e-04 -1.896724527616e-06 0.0 
3.017493249370e-04 3.886730804709e-05 0.0 
6.633031419719e-04 1.422051261499e-04 0.0 
1.222493571554e-03 3.949000881386e-04 0.0 
2.162818934591e-04 -2.176893105686e-04 0.0 
2.876978212964e-04 -2.590174749640e-04 0.0 
2.670044058890e-05 -8.615801550792e-07 0.0 
2.388298382207e-05 -1.559760779814e-04 0.0 
5.148460533916e-06 -1.526154273501e-04 0.0 
2.853859952449e-04 -2.000285837051e-04 0.0 
1.729125900250e-04 -1.969783224987e-04 0.0 
6.000965932761e-05 1.386596901419e-06 0.0 
5.309896604865e-04 1.705897128001e-04 0.0 
3.918518032191e-04 1.740719388741e-03 0.0 
2.519647779574e-04 3.726404992174e-05 0.0 
2.235817081499e-04 -6.368388068192e-06 0.0 
4.837201570495e-04 6.629157957566e-03 0.0 
1.036335186065e-04 1.886426794860e-04 0.0 
3.094083741525e-04 -2.391812825433e-04 0.0 
7.512824836687e-04 9.732460741139e-03 0.0 
2.637581156177e-04 -2.413718067613e-04 0.0 
1.251954031923e-04 -1.831035634899e-04 0.0 
9.041198565382e-06 6.751213370931e-07 0.0 
1.768280396398e-03 6.218276243982e-03 0.0 
6.742491887741e-05 -1.559138201040e-04 0.0 
4.089211631821e-05 -7.689893831090e-05 0.0 
6.502446865900e-04 2.236033721196e-04 0.0 
6.438003472664e-04 1.791550221694e-03 0.0 
7.054137076412e-04 6.353319477100e-04 0.0 
3.134410826390e-05 -1.093216821094e-04 0.0 
2.948061837439e-04 -2.504060579724e-04 0.0 
4.140799778177e-05 2.242830016917e-07 0.0 
2.182791311636e-05 4.924777647003e-04 0.0 
2.133805587518e-06 7.090607911045e-07 0.0 
6.724135445477e-05 8.933053715902e-03 0.0 
1.674893373351e-04 1.642437892075e-06 0.0 
7.683524967034e-05 -1.546021695326e-04 0.0 
9.585201126322e-04 1.348285863723e-03 0.0 
1.442192784749e-04 -1.900651457061e-04 0.0 
7.701839756056e-05 2.757528038228e-06 0.0 
9.003878662177e-04 7.826674355390e-04 0.0 
2.844153581710e-04 -2.432074122564e-04 0.0 
7.049351827380e-04 8.919427934938e-05 0.0 
3.196090552989e-04 4.527876585384e-03 0.0 
2.521334138899e-04 9.793004809966e-04 0.0 
3.304313178342e-05 3.625232320576e-06 0.0 
1.216952663295e-04 5.927770450571e-03 0.0 
5.641987956560e-04 2.075062581834e-04 0.0 
1.154028972522e-03 1.100501006256e-03 0.0 
2.536235825606e-04 5.207309078163e-03 0.0 
8.470255228993e-04 2.923690300974e-04 0.0 
4.976785442291e-05 -9.413206947709e-05 0.0 
4.405018592945e-04 9.512171722934e-03 0.0 
4.419931283975e-04 5.669317461352e-05 0.0 
2.237980048454e-05 1.051814064899e-03 0.0 
2.669882184244e-05 -1.738166188949e-04 0.0 
1.386929160695e-04 9.542793285889e-03 0.0 
1.951208613828e-06 8.564499777524e-07 0.0 
1.089482482716e-04 -1.561608584666e-04 0.0 
2.276810406561e-04 2.621638565475e-06 0.0 
1.257573318202e-03 9.224602693442e-04 0.0 
2.895736863007e-04 1.279569737519e-03 0.0 
7.149315365770e-05 -1.486374636390e-04 0.0 
3.050853036356e-04 -2.194049282638e-04 0.0 
3.960651713412e-06 -5.082725870726e-05 0.0 
1.340340282628e-04 3.510128665614e-03 0.0 
2.721802451600e-04 -2.599158957064e-04 0.0 
6.025191427240e-04 7.455144596813e-04 0.0 
2.168705279755e-04 6.120969130042e-03 0.0 
2.672015669843e-04 -2.339037856131e-04 0.0 
3.868935158797e-04 6.846280042772e-03 0.0 
3.435608868521e-04 5.024749013272e-05 0.0 
7.262481996252e-06 -4.527197728943e-05 0.0 
2.693587787735e-04 -2.076913145670e-04 0.0 
6.156425445522e-05 -1.040238956301e-04 0.0 
5.465949763101e-05 -6.491854787790e-05 0.0 
3.301830282841e-06 -3.992981609055e-05 0.0 
3.464424708433e-04 2.819277915456e-05 0.0 
2.873842410179e-05 -6.507673511033e-05 0.0 
3.552045113799e-05 -5.814078181071e-05 0.0 
1.526284356970e-04 -1.886187394707e-04 0.0 
5.397773006911e-05 -9.484518131056e-07 0.0 
8.940276923028e-04 1.858998712974e-04 0.0 
3.274807937528e-04 -2.212314517361e-04 0.0 
3.773566303587e-05 9.951365812435e-04 0.0 
3.490109545722e-06 9.694900871154e-07 0.0 
1.289249734800e-04 8.988248550734e-03 0.0 
1.609411949192e-04 6.341588413531e-03 0.0 
3.979350957429e-05 -6.716887836408e-05 0.0 
4.352209928004e-05 -6.332719801000e-05 0.0 
2.618377592445e-05 -5.918455315717e-05 0.0 
2.929919080306e-04 -3.592910202559e-07 0.0 
2.600320640810e-04 -2.358411554956e-04 0.0 
7.818522171679e-04 1.744385655131e-04 0.0 
2.417877551307e-04 7.852546019808e-03 0.0 
7.282324606222e-04 1.006864117834e-03 0.0 
2.736837116786e-04 -1.961203496379e-06 0.0 
4.471222592609e-04 7.042170992011e-03 0.0 
1.147937221898e-03 4.169209080260e-04 0.0 
3.605449169332e-04 3.381358091480e-05 0.0 
2.744766268519e-04 3.065624462732e-05 0.0 
2.764780556551e-04 -2.139789992146e-04 0.0 
1.114522660410e-03 3.748272441643e-04 0.0 
9.383729377230e-04 3.050801478877e-04 0.0 
1.428517131821e-04 -1.855975554360e-04 0.0 
4.561844680531e-05 -7.251475096261e-05 0.0 
2.753041096803e-04 -2.223790072967e-04 0.0 
9.853371547500e-04 3.641016190691e-04 0.0 

VECTORS element_materi_displacement float
0.0 0.0 0.0 
0.0 0.0 0.0 
0.0 0.0 0.0 
0.0 0.0 0.0 
0.0 0.0 0.0 
0.0 0.0 0.0 
0.0 0.0 0.0 
0.0 0.0 0.0 
0.0 0.0 0.0 
0.0 0.0 0.0 
0.0 0.0 0.0 
0.0 0.0 0.0 
0.0 0.0 0.0 
0.0 0.0 0.0 
0.0 0.0 0.0 
0.0 0.0 0.0 
0.0 0.0 0.0 
0.0 0.0 0.0 
0.0 0.0 0.0 
0.0 0.0 0.0 
0.0 0.0 0.0 
0.0 0.0 0.0 
0.0 0.0 0.0 
0.0 0.0 0.0 
0.0 0.0 0.0 
0.0 0.0 0.0 
0.0 0.0 0.0 
0.0 0.0 0.0 
0.0 0.0 0.0 
0.0 0.0 0.0 
0.0 0.0 0.0 
0.0 0.0 0.0 
0.0 0.0 0.0 
0.0 0.0 0.0 
0.0 0.0 0.0 
0.0 0.0 0.0 
0.0 0.0 0.0 
0.0 0.0 0.0 
0.0 0.0 0.0 
0.0 0.0 0.0 
0.0 0.0 0.0 
0.0 0.0 0.0 
0.0 0.0 0.0 
0.0 0.0 0.0 
0.0 0.0 0.0 
0.0 0.0 0.0 
0.0 0.0 0.0 
0.0 0.0 0.0 
0.0 0.0 0.0 
0.0 0.0 0.0 
0.0 0.0 0.0 
0.0 0.0 0.0 
0.0 0.0 0.0 
0.0 0.0 0.0 
0.0 0.0 0.0 
0.0 0.0 0.0 
0.0 0.0 0.0 
0.0 0.0 0.0 
0.0 0.0 0.0 
0.0 0.0 0.0 
0.0 0.0 0.0 
0.0 0.0 0.0 
0.0 0.0 0.0 
0.0 0.0 0.0 
0.0 0.0 0.0 
0.0 0.0 0.0 
0.0 0.0 0.0 
0.0 0.0 0.0 
0.0 0.0 0.0 
0.0 0.0 0.0 
0.0 0.0 0.0 
0.0 0.0 0.0 
0.0 0.0 0.0 
0.0 0.0 0.0 
0.0 0.0 0.0 
0.0 0.0 0.0 
0.0 0.0 0.0 
0.0 0.0 0.0 
0.0 0.0 0.0 
0.0 0.0 0.0 
0.0 0.0 0.0 
0.0 0.0 0.0 
0.0 0.0 0.0 
0.0 0.0 0.0 
0.0 0.0 0.0 
0.0 0.0 0.0 
0.0 0.0 0.0 
0.0 0.0 0.0 
0.0 0.0 0.0 
0.0 0.0 0.0 
0.0 0.0 0.0 
0.0 0.0 0.0 
0.0 0.0 0.0 
0.0 0.0 0.0 
0.0 0.0 0.0 
0.0 0.0 0.0 
0.0 0.0 0.0 
0.0 0.0 0.0 
0.0 0.0 0.0 
0.0 0.0 0.0 
0.0 0.0 0.0 
0.0 0.0 0.0 
0.0 0.0 0.0 
0.0 0.0 0.0 
0.0 0.0 0.0 
0.0 0.0 0.0 
0.0 0.0 0.0 
0.0 0.0 0.0 
0.0 0.0 0.0 
0.0 0.0 0.0 
0.0 0.0 0.0 
0.0 0.0 0.0 
0.0 0.0 0.0 
0.0 0.0 0.0 
0.0 0.0 0.0 
0.0 0.0 0.0 
0.0 0.0 0.0 
0.0 0.0 0.0 
0.0 0.0 0.0 
0.0 0.0 0.0 
0.0 0.0 0.0 
0.0 0.0 0.0 
0.0 0.0 0.0 
0.0 0.0 0.0 
0.0 0.0 0.0 
0.0 0.0 0.0 
0.0 0.0 0.0 
0.0 0.0 0.0 
0.0 0.0 0.0 
0.0 0.0 0.0 
0.0 0.0 0.0 
0.0 0.0 0.0 
0.0 0.0 0.0 
0.0 0.0 0.0 
0.0 0.0 0.0 
0.0 0.0 0.0 
0.0 0.0 0.0 
0.0 0.0 0.0 
0.0 0.0 0.0 
0.0 0.0 0.0 
0.0 0.0 0.0 
0.0 0.0 0.0 
0.0 0.0 0.0 
0.0 0.0 0.0 
0.0 0.0 0.0 
0.0 0.0 0.0 
0.0 0.0 0.0 
0.0 0.0 0.0 
0.0 0.0 0.0 
0.0 0.0 0.0 
0.0 0.0 0.0 
0.0 0.0 0.0 
0.0 0.0 0.0 
0.0 0.0 0.0 
0.0 0.0 0.0 
0.0 0.0 0.0 
0.0 0.0 0.0 
0.0 0.0 0.0 
0.0 0.0 0.0 
0.0 0.0 0.0 
0.0 0.0 0.0 
0.0 0.0 0.0 
0.0 0.0 0.0 
0.0 0.0 0.0 
0.0 0.0 0.0 
0.0 0.0 0.0 
0.0 0.0 0.0 
0.0 0.0 0.0 
0.0 0.0 0.0 
0.0 0.0 0.0 
0.0 0.0 0.0 
0.0 0.0 0.0 
0.0 0.0 0.0 
0.0 0.0 0.0 
0.0 0.0 0.0 
0.0 0.0 0.0 
0.0 0.0 0.0 
0.0 0.0 0.0 
0.0 0.0 0.0 
0.0 0.0 0.0 
0.0 0.0 0.0 
0.0 0.0 0.0 
0.0 0.0 0.0 
0.0 0.0 0.0 
0.0 0.0 0.0 
0.0 0.0 0.0 
0.0 0.0 0.0 
0.0 0.0 0.0 
0.0 0.0 0.0 
0.0 0.0 0.0 
0.0 0.0 0.0 
0.0 0.0 0.0 
0.0 0.0 0.0 
0.0 0.0 0.0 
0.0 0.0 0.0 
0.0 0.0 0.0 
0.0 0.0 0.0 
0.0 0.0 0.0 
0.0 0.0 0.0 
0.0 0.0 0.0 
0.0 0.0 0.0 
0.0 0.0 0.0 
0.0 0.0 0.0 
0.0 0.0 0.0 
0.0 0.0 0.0 
0.0 0.0 0.0 
0.0 0.0 0.0 
0.0 0.0 0.0 
0.0 0.0 0.0 
0.0 0.0 0.0 
0.0 0.0 0.0 
0.0 0.0 0.0 
0.0 0.0 0.0 
0.0 0.0 0.0 
0.0 0.0 0.0 
0.0 0.0 0.0 
0.0 0.0 0.0 
0.0 0.0 0.0 
0.0 0.0 0.0 
0.0 0.0 0.0 
0.0 0.0 0.0 
0.0 0.0 0.0 
0.0 0.0 0.0 
0.0 0.0 0.0 
0.0 0.0 0.0 
0.0 0.0 0.0 
0.0 0.0 0.0 
0.0 0.0 0.0 
0.0 0.0 0.0 
0.0 0.0 0.0 
0.0 0.0 0.0 
0.0 0.0 0.0 
0.0 0.0 0.0 
0.0 0.0 0.0 
0.0 0.0 0.0 
0.0 0.0 0.0 
0.0 0.0 0.0 
0.0 0.0 0.0 
0.0 0.0 0.0 
0.0 0.0 0.0 
0.0 0.0 0.0 
0.0 0.0 0.0 
0.0 0.0 0.0 
0.0 0.0 0.0 
0.0 0.0 0.0 
0.0 0.0 0.0 
0.0 0.0 0.0 
0.0 0.0 0.0 
0.0 0.0 0.0 
0.0 0.0 0.0 
0.0 0.0 0.0 
0.0 0.0 0.0 
0.0 0.0 0.0 
0.0 0.0 0.0 
0.0 0.0 0.0 
0.0 0.0 0.0 
0.0 0.0 0.0 
0.0 0.0 0.0 
0.0 0.0 0.0 
0.0 0.0 0.0 
0.0 0.0 0.0 
0.0 0.0 0.0 
0.0 0.0 0.0 
0.0 0.0 0.0 
0.0 0.0 0.0 
0.0 0.0 0.0 
0.0 0.0 0.0 
0.0 0.0 0.0 
0.0 0.0 0.0 
0.0 0.0 0.0 
0.0 0.0 0.0 
0.0 0.0 0.0 
0.0 0.0 0.0 
0.0 0.0 0.0 
0.0 0.0 0.0 
0.0 0.0 0.0 
0.0 0.0 0.0 
0.0 0.0 0.0 
0.0 0.0 0.0 
0.0 0.0 0.0 
0.0 0.0 0.0 
0.0 0.0 0.0 
0.0 0.0 0.0 
0.0 0.0 0.0 
0.0 0.0 0.0 
0.0 0.0 0.0 
0.0 0.0 0.0 
0.0 0.0 0.0 
0.0 0.0 0.0 
0.0 0.0 0.0 
0.0 0.0 0.0 
0.0 0.0 0.0 
0.0 0.0 0.0 
0.0 0.0 0.0 
0.0 0.0 0.0 
0.0 0.0 0.0 
0.0 0.0 0.0 
0.0 0.0 0.0 
0.0 0.0 0.0 
0.0 0.0 0.0 
0.0 0.0 0.0 
0.0 0.0 0.0 
0.0 0.0 0.0 
0.0 0.0 0.0 
0.0 0.0 0.0 
0.0 0.0 0.0 
0.0 0.0 0.0 
0.0 0.0 0.0 
0.0 0.0 0.0 
0.0 0.0 0.0 
0.0 0.0 0.0 
0.0 0.0 0.0 
0.0 0.0 0.0 
0.0 0.0 0.0 
0.0 0.0 0.0 
0.0 0.0 0.0 
0.0 0.0 0.0 
0.0 0.0 0.0 
0.0 0.0 0.0 
0.0 0.0 0.0 
0.0 0.0 0.0 
0.0 0.0 0.0 
0.0 0.0 0.0 
0.0 0.0 0.0 
0.0 0.0 0.0 
0.0 0.0 0.0 
0.0 0.0 0.0 
0.0 0.0 0.0 
0.0 0.0 0.0 
0.0 0.0 0.0 
0.0 0.0 0.0 
0.0 0.0 0.0 
0.0 0.0 0.0 
0.0 0.0 0.0 
0.0 0.0 0.0 
0.0 0.0 0.0 
0.0 0.0 0.0 
0.0 0.0 0.0 
0.0 0.0 0.0 
0.0 0.0 0.0 
0.0 0.0 0.0 
0.0 0.0 0.0 
0.0 0.0 0.0 
0.0 0.0 0.0 
0.0 0.0 0.0 
0.0 0.0 0.0 
0.0 0.0 0.0 
0.0 0.0 0.0 
0.0 0.0 0.0 
0.0 0.0 0.0 
0.0 0.0 0.0 
0.0 0.0 0.0 
0.0 0.0 0.0 
0.0 0.0 0.0 
0.0 0.0 0.0 
0.0 0.0 0.0 
0.0 0.0 0.0 
0.0 0.0 0.0 
0.0 0.0 0.0 
0.0 0.0 0.0 
0.0 0.0 0.0 
0.0 0.0 0.0 
0.0 0.0 0.0 
0.0 0.0 0.0 
0.0 0.0 0.0 
0.0 0.0 0.0 
0.0 0.0 0.0 
0.0 0.0 0.0 
0.0 0.0 0.0 
0.0 0.0 0.0 
0.0 0.0 0.0 
0.0 0.0 0.0 
0.0 0.0 0.0 
0.0 0.0 0.0 
0.0 0.0 0.0 
0.0 0.0 0.0 
0.0 0.0 0.0 
0.0 0.0 0.0 
0.0 0.0 0.0 
0.0 0.0 0.0 
0.0 0.0 0.0 
0.0 0.0 0.0 
0.0 0.0 0.0 
0.0 0.0 0.0 
0.0 0.0 0.0 
0.0 0.0 0.0 
0.0 0.0 0.0 
0.0 0.0 0.0 
0.0 0.0 0.0 
0.0 0.0 0.0 
0.0 0.0 0.0 
0.0 0.0 0.0 
0.0 0.0 0.0 
0.0 0.0 0.0 
0.0 0.0 0.0 
0.0 0.0 0.0 
0.0 0.0 0.0 
0.0 0.0 0.0 
0.0 0.0 0.0 
0.0 0.0 0.0 
0.0 0.0 0.0 
0.0 0.0 0.0 
0.0 0.0 0.0 
0.0 0.0 0.0 
0.0 0.0 0.0 
0.0 0.0 0.0 
0.0 0.0 0.0 
0.0 0.0 0.0 
0.0 0.0 0.0 
0.0 0.0 0.0 
0.0 0.0 0.0 
0.0 0.0 0.0 
0.0 0.0 0.0 
0.0 0.0 0.0 
0.0 0.0 0.0 
0.0 0.0 0.0 
0.0 0.0 0.0 
0.0 0.0 0.0 
0.0 0.0 0.0 
0.0 0.0 0.0 
0.0 0.0 0.0 
0.0 0.0 0.0 
0.0 0.0 0.0 
0.0 0.0 0.0 
0.0 0.0 0.0 
0.0 0.0 0.0 
0.0 0.0 0.0 
0.0 0.0 0.0 
0.0 0.0 0.0 
0.0 0.0 0.0 
0.0 0.0 0.0 
0.0 0.0 0.0 
0.0 0.0 0.0 
0.0 0.0 0.0 
0.0 0.0 0.0 
0.0 0.0 0.0 
0.0 0.0 0.0 
0.0 0.0 0.0 
0.0 0.0 0.0 
0.0 0.0 0.0 
0.0 0.0 0.0 
0.0 0.0 0.0 
0.0 0.0 0.0 
0.0 0.0 0.0 
0.0 0.0 0.0 
0.0 0.0 0.0 
0.0 0.0 0.0 
0.0 0.0 0.0 
0.0 0.0 0.0 
0.0 0.0 0.0 
0.0 0.0 0.0 
0.0 0.0 0.0 
0.0 0.0 0.0 
0.0 0.0 0.0 
0.0 0.0 0.0 
0.0 0.0 0.0 
0.0 0.0 0.0 
0.0 0.0 0.0 
0.0 0.0 0.0 
0.0 0.0 0.0 
0.0 0.0 0.0 
0.0 0.0 0.0 
0.0 0.0 0.0 
0.0 0.0 0.0 
0.0 0.0 0.0 
0.0 0.0 0.0 
0.0 0.0 0.0 
0.0 0.0 0.0 
0.0 0.0 0.0 
0.0 0.0 0.0 
0.0 0.0 0.0 
0.0 0.0 0.0 
0.0 0.0 0.0 
0.0 0.0 0.0 
0.0 0.0 0.0 
0.0 0.0 0.0 
0.0 0.0 0.0 
0.0 0.0 0.0 
0.0 0.0 0.0 
0.0 0.0 0.0 
0.0 0.0 0.0 
0.0 0.0 0.0 
0.0 0.0 0.0 
0.0 0.0 0.0 
0.0 0.0 0.0 
0.0 0.0 0.0 
0.0 0.0 0.0 
0.0 0.0 0.0 
0.0 0.0 0.0 
0.0 0.0 0.0 
0.0 0.0 0.0 
0.0 0.0 0.0 
0.0 0.0 0.0 
0.0 0.0 0.0 
0.0 0.0 0.0 
0.0 0.0 0.0 
0.0 0.0 0.0 
0.0 0.0 0.0 
0.0 0.0 0.0 
0.0 0.0 0.0 
0.0 0.0 0.0 
0.0 0.0 0.0 
0.0 0.0 0.0 
0.0 0.0 0.0 
0.0 0.0 0.0 
0.0 0.0 0.0 
0.0 0.0 0.0 
0.0 0.0 0.0 
0.0 0.0 0.0 
0.0 0.0 0.0 
0.0 0.0 0.0 
0.0 0.0 0.0 
0.0 0.0 0.0 
0.0 0.0 0.0 
0.0 0.0 0.0 
0.0 0.0 0.0 
0.0 0.0 0.0 
0.0 0.0 0.0 
0.0 0.0 0.0 
0.0 0.0 0.0 
0.0 0.0 0.0 
0.0 0.0 0.0 
0.0 0.0 0.0 
0.0 0.0 0.0 
0.0 0.0 0.0 
0.0 0.0 0.0 
0.0 0.0 0.0 
0.0 0.0 0.0 
0.0 0.0 0.0 
0.0 0.0 0.0 
0.0 0.0 0.0 
0.0 0.0 0.0 
0.0 0.0 0.0 
0.0 0.0 0.0 
0.0 0.0 0.0 
0.0 0.0 0.0 
0.0 0.0 0.0 
0.0 0.0 0.0 
0.0 0.0 0.0 
0.0 0.0 0.0 
0.0 0.0 0.0 
0.0 0.0 0.0 
0.0 0.0 0.0 
0.0 0.0 0.0 
0.0 0.0 0.0 
0.0 0.0 0.0 
0.0 0.0 0.0 
0.0 0.0 0.0 
0.0 0.0 0.0 
0.0 0.0 0.0 
0.0 0.0 0.0 
0.0 0.0 0.0 
0.0 0.0 0.0 
0.0 0.0 0.0 
0.0 0.0 0.0 
0.0 0.0 0.0 
0.0 0.0 0.0 
0.0 0.0 0.0 
0.0 0.0 0.0 
0.0 0.0 0.0 
0.0 0.0 0.0 
0.0 0.0 0.0 
0.0 0.0 0.0 
0.0 0.0 0.0 
0.0 0.0 0.0 
0.0 0.0 0.0 
0.0 0.0 0.0 
0.0 0.0 0.0 
0.0 0.0 0.0 
0.0 0.0 0.0 
0.0 0.0 0.0 
0.0 0.0 0.0 
0.0 0.0 0.0 
0.0 0.0 0.0 
0.0 0.0 0.0 
0.0 0.0 0.0 
0.0 0.0 0.0 
0.0 0.0 0.0 
0.0 0.0 0.0 
0.0 0.0 0.0 
0.0 0.0 0.0 
0.0 0.0 0.0 
0.0 0.0 0.0 
0.0 0.0 0.0 
0.0 0.0 0.0 
0.0 0.0 0.0 
0.0 0.0 0.0 
0.0 0.0 0.0 
0.0 0.0 0.0 
0.0 0.0 0.0 
0.0 0.0 0.0 
0.0 0.0 0.0 
0.0 0.0 0.0 
0.0 0.0 0.0 
0.0 0.0 0.0 
0.0 0.0 0.0 
0.0 0.0 0.0 
0.0 0.0 0.0 
0.0 0.0 0.0 
0.0 0.0 0.0 
0.0 0.0 0.0 
0.0 0.0 0.0 
0.0 0.0 0.0 
0.0 0.0 0.0 
0.0 0.0 0.0 
0.0 0.0 0.0 
0.0 0.0 0.0 
0.0 0.0 0.0 
0.0 0.0 0.0 
0.0 0.0 0.0 
0.0 0.0 0.0 
0.0 0.0 0.0 
0.0 0.0 0.0 
0.0 0.0 0.0 
0.0 0.0 0.0 
0.0 0.0 0.0 
0.0 0.0 0.0 
0.0 0.0 0.0 
0.0 0.0 0.0 
0.0 0.0 0.0 
0.0 0.0 0.0 
0.0 0.0 0.0 
0.0 0.0 0.0 
0.0 0.0 0.0 
0.0 0.0 0.0 
0.0 0.0 0.0 
0.0 0.0 0.0 
0.0 0.0 0.0 
0.0 0.0 0.0 
0.0 0.0 0.0 
0.0 0.0 0.0 
0.0 0.0 0.0 
0.0 0.0 0.0 
0.0 0.0 0.0 
0.0 0.0 0.0 
0.0 0.0 0.0 
0.0 0.0 0.0 
0.0 0.0 0.0 
0.0 0.0 0.0 
0.0 0.0 0.0 
0.0 0.0 0.0 
0.0 0.0 0.0 
0.0 0.0 0.0 
0.0 0.0 0.0 
0.0 0.0 0.0 
0.0 0.0 0.0 
0.0 0.0 0.0 
0.0 0.0 0.0 
0.0 0.0 0.0 
0.0 0.0 0.0 
0.0 0.0 0.0 
0.0 0.0 0.0 
0.0 0.0 0.0 
0.0 0.0 0.0 
0.0 0.0 0.0 
0.0 0.0 0.0 
0.0 0.0 0.0 
0.0 0.0 0.0 
0.0 0.0 0.0 
0.0 0.0 0.0 
0.0 0.0 0.0 
0.0 0.0 0.0 
0.0 0.0 0.0 
0.0 0.0 0.0 
0.0 0.0 0.0 
0.0 0.0 0.0 
0.0 0.0 0.0 
0.0 0.0 0.0 
0.0 0.0 0.0 
0.0 0.0 0.0 
0.0 0.0 0.0 
0.0 0.0 0.0 
0.0 0.0 0.0 
0.0 0.0 0.0 
0.0 0.0 0.0 
0.0 0.0 0.0 
0.0 0.0 0.0 
0.0 0.0 0.0 
0.0 0.0 0.0 
0.0 0.0 0.0 
0.0 0.0 0.0 
0.0 0.0 0.0 
0.0 0.0 0.0 
0.0 0.0 0.0 
0.0 0.0 0.0 
0.0 0.0 0.0 
0.0 0.0 0.0 
0.0 0.0 0.0 
0.0 0.0 0.0 
0.0 0.0 0.0 
0.0 0.0 0.0 
0.0 0.0 0.0 
0.0 0.0 0.0 
0.0 0.0 0.0 
0.0 0.0 0.0 
0.0 0.0 0.0 
0.0 0.0 0.0 
0.0 0.0 0.0 
0.0 0.0 0.0 
0.0 0.0 0.0 
0.0 0.0 0.0 
0.0 0.0 0.0 
0.0 0.0 0.0 
0.0 0.0 0.0 
0.0 0.0 0.0 
0.0 0.0 0.0 
0.0 0.0 0.0 
0.0 0.0 0.0 
0.0 0.0 0.0 
0.0 0.0 0.0 
0.0 0.0 0.0 
0.0 0.0 0.0 
0.0 0.0 0.0 
0.0 0.0 0.0 
0.0 0.0 0.0 
0.0 0.0 0.0 
0.0 0.0 0.0 
0.0 0.0 0.0 
0.0 0.0 0.0 
0.0 0.0 0.0 
0.0 0.0 0.0 
0.0 0.0 0.0 
0.0 0.0 0.0 
0.0 0.0 0.0 
0.0 0.0 0.0 
0.0 0.0 0.0 
0.0 0.0 0.0 
0.0 0.0 0.0 
0.0 0.0 0.0 
0.0 0.0 0.0 
0.0 0.0 0.0 
0.0 0.0 0.0 
0.0 0.0 0.0 
0.0 0.0 0.0 
0.0 0.0 0.0 
0.0 0.0 0.0 
0.0 0.0 0.0 
0.0 0.0 0.0 
0.0 0.0 0.0 
0.0 0.0 0.0 
0.0 0.0 0.0 
0.0 0.0 0.0 
0.0 0.0 0.0 
0.0 0.0 0.0 
0.0 0.0 0.0 
0.0 0.0 0.0 
0.0 0.0 0.0 
0.0 0.0 0.0 
0.0 0.0 0.0 
0.0 0.0 0.0 
0.0 0.0 0.0 
0.0 0.0 0.0 
0.0 0.0 0.0 
0.0 0.0 0.0 
0.0 0.0 0.0 
0.0 0.0 0.0 
0.0 0.0 0.0 
0.0 0.0 0.0 
0.0 0.0 0.0 
0.0 0.0 0.0 
0.0 0.0 0.0 
0.0 0.0 0.0 
0.0 0.0 0.0 
0.0 0.0 0.0 
0.0 0.0 0.0 
0.0 0.0 0.0 
0.0 0.0 0.0 
0.0 0.0 0.0 
0.0 0.0 0.0 
0.0 0.0 0.0 
0.0 0.0 0.0 
0.0 0.0 0.0 
0.0 0.0 0.0 
0.0 0.0 0.0 
0.0 0.0 0.0 
0.0 0.0 0.0 
0.0 0.0 0.0 
0.0 0.0 0.0 
0.0 0.0 0.0 
0.0 0.0 0.0 
0.0 0.0 0.0 
0.0 0.0 0.0 
0.0 0.0 0.0 
0.0 0.0 0.0 
0.0 0.0 0.0 
0.0 0.0 0.0 
0.0 0.0 0.0 
0.0 0.0 0.0 
0.0 0.0 0.0 
0.0 0.0 0.0 
0.0 0.0 0.0 
0.0 0.0 0.0 
0.0 0.0 0.0 
0.0 0.0 0.0 
0.0 0.0 0.0 
0.0 0.0 0.0 
0.0 0.0 0.0 
0.0 0.0 0.0 
0.0 0.0 0.0 
0.0 0.0 0.0 
0.0 0.0 0.0 
0.0 0.0 0.0 
0.0 0.0 0.0 
0.0 0.0 0.0 
0.0 0.0 0.0 
0.0 0.0 0.0 
0.0 0.0 0.0 
0.0 0.0 0.0 
0.0 0.0 0.0 
0.0 0.0 0.0 
0.0 0.0 0.0 
0.0 0.0 0.0 
0.0 0.0 0.0 
0.0 0.0 0.0 
0.0 0.0 0.0 
0.0 0.0 0.0 
0.0 0.0 0.0 
0.0 0.0 0.0 
0.0 0.0 0.0 
0.0 0.0 0.0 
0.0 0.0 0.0 
0.0 0.0 0.0 
0.0 0.0 0.0 
0.0 0.0 0.0 
0.0 0.0 0.0 
0.0 0.0 0.0 
0.0 0.0 0.0 
0.0 0.0 0.0 
0.0 0.0 0.0 
0.0 0.0 0.0 
0.0 0.0 0.0 
0.0 0.0 0.0 
0.0 0.0 0.0 
0.0 0.0 0.0 
0.0 0.0 0.0 
0.0 0.0 0.0 
0.0 0.0 0.0 
0.0 0.0 0.0 
0.0 0.0 0.0 
0.0 0.0 0.0 
0.0 0.0 0.0 
0.0 0.0 0.0 
0.0 0.0 0.0 
0.0 0.0 0.0 
0.0 0.0 0.0 
0.0 0.0 0.0 
0.0 0.0 0.0 
0.0 0.0 0.0 
0.0 0.0 0.0 
0.0 0.0 0.0 
0.0 0.0 0.0 
0.0 0.0 0.0 
0.0 0.0 0.0 
0.0 0.0 0.0 
0.0 0.0 0.0 
0.0 0.0 0.0 
0.0 0.0 0.0 
0.0 0.0 0.0 
0.0 0.0 0.0 
0.0 0.0 0.0 
0.0 0.0 0.0 
0.0 0.0 0.0 
0.0 0.0 0.0 
0.0 0.0 0.0 
0.0 0.0 0.0 
0.0 0.0 0.0 
0.0 0.0 0.0 
0.0 0.0 0.0 
0.0 0.0 0.0 
0.0 0.0 0.0 
0.0 0.0 0.0 
0.0 0.0 0.0 
0.0 0.0 0.0 
0.0 0.0 0.0 
0.0 0.0 0.0 
0.0 0.0 0.0 
0.0 0.0 0.0 
0.0 0.0 0.0 
0.0 0.0 0.0 
0.0 0.0 0.0 
0.0 0.0 0.0 
0.0 0.0 0.0 
0.0 0.0 0.0 
0.0 0.0 0.0 
0.0 0.0 0.0 
0.0 0.0 0.0 
0.0 0.0 0.0 
0.0 0.0 0.0 
0.0 0.0 0.0 
0.0 0.0 0.0 
0.0 0.0 0.0 
0.0 0.0 0.0 
0.0 0.0 0.0 
0.0 0.0 0.0 
0.0 0.0 0.0 
0.0 0.0 0.0 
0.0 0.0 0.0 
0.0 0.0 0.0 
0.0 0.0 0.0 
0.0 0.0 0.0 
0.0 0.0 0.0 
0.0 0.0 0.0 
0.0 0.0 0.0 
0.0 0.0 0.0 
0.0 0.0 0.0 
0.0 0.0 0.0 
0.0 0.0 0.0 
0.0 0.0 0.0 
0.0 0.0 0.0 
0.0 0.0 0.0 
0.0 0.0 0.0 
0.0 0.0 0.0 
0.0 0.0 0.0 
0.0 0.0 0.0 
0.0 0.0 0.0 
0.0 0.0 0.0 
0.0 0.0 0.0 
0.0 0.0 0.0 
0.0 0.0 0.0 
0.0 0.0 0.0 
0.0 0.0 0.0 
0.0 0.0 0.0 
0.0 0.0 0.0 
0.0 0.0 0.0 
0.0 0.0 0.0 
0.0 0.0 0.0 
0.0 0.0 0.0 
0.0 0.0 0.0 
0.0 0.0 0.0 
0.0 0.0 0.0 
0.0 0.0 0.0 
0.0 0.0 0.0 
0.0 0.0 0.0 
0.0 0.0 0.0 
0.0 0.0 0.0 
0.0 0.0 0.0 
0.0 0.0 0.0 
0.0 0.0 0.0 
0.0 0.0 0.0 
0.0 0.0 0.0 
0.0 0.0 0.0 
0.0 0.0 0.0 
0.0 0.0 0.0 
0.0 0.0 0.0 
0.0 0.0 0.0 
0.0 0.0 0.0 
0.0 0.0 0.0 
0.0 0.0 0.0 
0.0 0.0 0.0 
0.0 0.0 0.0 
0.0 0.0 0.0 
0.0 0.0 0.0 
0.0 0.0 0.0 
0.0 0.0 0.0 
0.0 0.0 0.0 
0.0 0.0 0.0 
0.0 0.0 0.0 
0.0 0.0 0.0 
0.0 0.0 0.0 
0.0 0.0 0.0 
0.0 0.0 0.0 
0.0 0.0 0.0 
0.0 0.0 0.0 
0.0 0.0 0.0 
0.0 0.0 0.0 
0.0 0.0 0.0 
0.0 0.0 0.0 
0.0 0.0 0.0 
0.0 0.0 0.0 
0.0 0.0 0.0 
0.0 0.0 0.0 
0.0 0.0 0.0 
0.0 0.0 0.0 
0.0 0.0 0.0 
0.0 0.0 0.0 
0.0 0.0 0.0 
0.0 0.0 0.0 
0.0 0.0 0.0 
0.0 0.0 0.0 
0.0 0.0 0.0 
0.0 0.0 0.0 
0.0 0.0 0.0 
0.0 0.0 0.0 
0.0 0.0 0.0 
0.0 0.0 0.0 
0.0 0.0 0.0 
0.0 0.0 0.0 
0.0 0.0 0.0 
0.0 0.0 0.0 
0.0 0.0 0.0 
0.0 0.0 0.0 
0.0 0.0 0.0 
0.0 0.0 0.0 
0.0 0.0 0.0 
0.0 0.0 0.0 
0.0 0.0 0.0 
0.0 0.0 0.0 
0.0 0.0 0.0 
0.0 0.0 0.0 
0.0 0.0 0.0 
0.0 0.0 0.0 
0.0 0.0 0.0 
0.0 0.0 0.0 
0.0 0.0 0.0 
0.0 0.0 0.0 
0.0 0.0 0.0 
0.0 0.0 0.0 
0.0 0.0 0.0 
0.0 0.0 0.0 
0.0 0.0 0.0 
0.0 0.0 0.0 
0.0 0.0 0.0 
0.0 0.0 0.0 
0.0 0.0 0.0 
0.0 0.0 0.0 
0.0 0.0 0.0 
0.0 0.0 0.0 
0.0 0.0 0.0 
0.0 0.0 0.0 
0.0 0.0 0.0 
0.0 0.0 0.0 
0.0 0.0 0.0 
0.0 0.0 0.0 
0.0 0.0 0.0 
0.0 0.0 0.0 
0.0 0.0 0.0 
0.0 0.0 0.0 
0.0 0.0 0.0 
0.0 0.0 0.0 
0.0 0.0 0.0 
0.0 0.0 0.0 
0.0 0.0 0.0 
0.0 0.0 0.0 
0.0 0.0 0.0 
0.0 0.0 0.0 
0.0 0.0 0.0 
0.0 0.0 0.0 
0.0 0.0 0.0 
0.0 0.0 0.0 
0.0 0.0 0.0 
0.0 0.0 0.0 
0.0 0.0 0.0 
0.0 0.0 0.0 
0.0 0.0 0.0 
0.0 0.0 0.0 
0.0 0.0 0.0 
0.0 0.0 0.0 
0.0 0.0 0.0 
0.0 0.0 0.0 
0.0 0.0 0.0 
0.0 0.0 0.0 
0.0 0.0 0.0 
0.0 0.0 0.0 
0.0 0.0 0.0 
0.0 0.0 0.0 
0.0 0.0 0.0 
0.0 0.0 0.0 
0.0 0.0 0.0 
0.0 0.0 0.0 
0.0 0.0 0.0 
0.0 0.0 0.0 
0.0 0.0 0.0 
0.0 0.0 0.0 
0.0 0.0 0.0 
0.0 0.0 0.0 
0.0 0.0 0.0 
0.0 0.0 0.0 
0.0 0.0 0.0 
0.0 0.0 0.0 
0.0 0.0 0.0 
0.0 0.0 0.0 
0.0 0.0 0.0 
0.0 0.0 0.0 
0.0 0.0 0.0 
0.0 0.0 0.0 
0.0 0.0 0.0 
0.0 0.0 0.0 
0.0 0.0 0.0 
0.0 0.0 0.0 
0.0 0.0 0.0 
0.0 0.0 0.0 
0.0 0.0 0.0 
0.0 0.0 0.0 
0.0 0.0 0.0 
0.0 0.0 0.0 
0.0 0.0 0.0 
0.0 0.0 0.0 
0.0 0.0 0.0 
0.0 0.0 0.0 
0.0 0.0 0.0 
0.0 0.0 0.0 
0.0 0.0 0.0 
0.0 0.0 0.0 
0.0 0.0 0.0 
0.0 0.0 0.0 
0.0 0.0 0.0 
0.0 0.0 0.0 
0.0 0.0 0.0 
0.0 0.0 0.0 
0.0 0.0 0.0 
0.0 0.0 0.0 
0.0 0.0 0.0 
0.0 0.0 0.0 
0.0 0.0 0.0 
0.0 0.0 0.0 
0.0 0.0 0.0 
0.0 0.0 0.0 
0.0 0.0 0.0 
0.0 0.0 0.0 
0.0 0.0 0.0 
0.0 0.0 0.0 
0.0 0.0 0.0 
0.0 0.0 0.0 
0.0 0.0 0.0 
0.0 0.0 0.0 
0.0 0.0 0.0 
0.0 0.0 0.0 
0.0 0.0 0.0 
0.0 0.0 0.0 
0.0 0.0 0.0 
0.0 0.0 0.0 
0.0 0.0 0.0 
0.0 0.0 0.0 
0.0 0.0 0.0 
0.0 0.0 0.0 
0.0 0.0 0.0 
0.0 0.0 0.0 
0.0 0.0 0.0 
0.0 0.0 0.0 
0.0 0.0 0.0 
0.0 0.0 0.0 
0.0 0.0 0.0 
0.0 0.0 0.0 
0.0 0.0 0.0 
0.0 0.0 0.0 
0.0 0.0 0.0 
0.0 0.0 0.0 
0.0 0.0 0.0 
0.0 0.0 0.0 
0.0 0.0 0.0 
0.0 0.0 0.0 
0.0 0.0 0.0 
0.0 0.0 0.0 
0.0 0.0 0.0 
0.0 0.0 0.0 
0.0 0.0 0.0 
0.0 0.0 0.0 
0.0 0.0 0.0 
0.0 0.0 0.0 
0.0 0.0 0.0 
0.0 0.0 0.0 
0.0 0.0 0.0 
0.0 0.0 0.0 
0.0 0.0 0.0 
0.0 0.0 0.0 
0.0 0.0 0.0 
0.0 0.0 0.0 
0.0 0.0 0.0 
0.0 0.0 0.0 
0.0 0.0 0.0 
0.0 0.0 0.0 
0.0 0.0 0.0 
0.0 0.0 0.0 
0.0 0.0 0.0 
0.0 0.0 0.0 
0.0 0.0 0.0 
0.0 0.0 0.0 
0.0 0.0 0.0 
0.0 0.0 0.0 
0.0 0.0 0.0 
0.0 0.0 0.0 
0.0 0.0 0.0 
0.0 0.0 0.0 
0.0 0.0 0.0 
0.0 0.0 0.0 
0.0 0.0 0.0 
0.0 0.0 0.0 
0.0 0.0 0.0 
0.0 0.0 0.0 
0.0 0.0 0.0 
0.0 0.0 0.0 
0.0 0.0 0.0 
0.0 0.0 0.0 
0.0 0.0 0.0 
0.0 0.0 0.0 
0.0 0.0 0.0 
0.0 0.0 0.0 
0.0 0.0 0.0 
0.0 0.0 0.0 
0.0 0.0 0.0 
0.0 0.0 0.0 
0.0 0.0 0.0 
0.0 0.0 0.0 
0.0 0.0 0.0 
0.0 0.0 0.0 
0.0 0.0 0.0 
0.0 0.0 0.0 
0.0 0.0 0.0 
0.0 0.0 0.0 
0.0 0.0 0.0 
0.0 0.0 0.0 
0.0 0.0 0.0 
0.0 0.0 0.0 
0.0 0.0 0.0 
0.0 0.0 0.0 
0.0 0.0 0.0 
0.0 0.0 0.0 
0.0 0.0 0.0 
0.0 0.0 0.0 
0.0 0.0 0.0 
0.0 0.0 0.0 
0.0 0.0 0.0 
0.0 0.0 0.0 
0.0 0.0 0.0 
0.0 0.0 0.0 
0.0 0.0 0.0 
0.0 0.0 0.0 
0.0 0.0 0.0 
0.0 0.0 0.0 
0.0 0.0 0.0 
0.0 0.0 0.0 
0.0 0.0 0.0 
0.0 0.0 0.0 
0.0 0.0 0.0 
0.0 0.0 0.0 
0.0 0.0 0.0 
0.0 0.0 0.0 
0.0 0.0 0.0 
0.0 0.0 0.0 
0.0 0.0 0.0 
0.0 0.0 0.0 
0.0 0.0 0.0 
0.0 0.0 0.0 
0.0 0.0 0.0 
0.0 0.0 0.0 
0.0 0.0 0.0 
0.0 0.0 0.0 
0.0 0.0 0.0 
0.0 0.0 0.0 
0.0 0.0 0.0 
0.0 0.0 0.0 
0.0 0.0 0.0 
0.0 0.0 0.0 
0.0 0.0 0.0 
0.0 0.0 0.0 
0.0 0.0 0.0 
0.0 0.0 0.0 
0.0 0.0 0.0 
0.0 0.0 0.0 
0.0 0.0 0.0 
0.0 0.0 0.0 
0.0 0.0 0.0 
0.0 0.0 0.0 
0.0 0.0 0.0 
0.0 0.0 0.0 
0.0 0.0 0.0 
0.0 0.0 0.0 
0.0 0.0 0.0 
0.0 0.0 0.0 
0.0 0.0 0.0 
0.0 0.0 0.0 
0.0 0.0 0.0 
0.0 0.0 0.0 
0.0 0.0 0.0 
0.0 0.0 0.0 
0.0 0.0 0.0 
0.0 0.0 0.0 
0.0 0.0 0.0 
0.0 0.0 0.0 
0.0 0.0 0.0 
0.0 0.0 0.0 
0.0 0.0 0.0 
0.0 0.0 0.0 
0.0 0.0 0.0 
0.0 0.0 0.0 
0.0 0.0 0.0 
0.0 0.0 0.0 
0.0 0.0 0.0 
0.0 0.0 0.0 
0.0 0.0 0.0 
0.0 0.0 0.0 
0.0 0.0 0.0 
0.0 0.0 0.0 
0.0 0.0 0.0 
0.0 0.0 0.0 
0.0 0.0 0.0 
0.0 0.0 0.0 
0.0 0.0 0.0 
0.0 0.0 0.0 
0.0 0.0 0.0 
0.0 0.0 0.0 
0.0 0.0 0.0 
0.0 0.0 0.0 
0.0 0.0 0.0 
0.0 0.0 0.0 
0.0 0.0 0.0 
0.0 0.0 0.0 
0.0 0.0 0.0 
0.0 0.0 0.0 
0.0 0.0 0.0 
0.0 0.0 0.0 
0.0 0.0 0.0 
0.0 0.0 0.0 
0.0 0.0 0.0 
0.0 0.0 0.0 
0.0 0.0 0.0 
0.0 0.0 0.0 
0.0 0.0 0.0 
0.0 0.0 0.0 
0.0 0.0 0.0 
0.0 0.0 0.0 
0.0 0.0 0.0 
0.0 0.0 0.0 
0.0 0.0 0.0 
0.0 0.0 0.0 
0.0 0.0 0.0 
0.0 0.0 0.0 
0.0 0.0 0.0 
0.0 0.0 0.0 
0.0 0.0 0.0 
0.0 0.0 0.0 
0.0 0.0 0.0 
0.0 0.0 0.0 
0.0 0.0 0.0 
0.0 0.0 0.0 
0.0 0.0 0.0 
0.0 0.0 0.0 
0.0 0.0 0.0 
0.0 0.0 0.0 
0.0 0.0 0.0 
0.0 0.0 0.0 
0.0 0.0 0.0 
0.0 0.0 0.0 
0.0 0.0 0.0 
0.0 0.0 0.0 
0.0 0.0 0.0 
0.0 0.0 0.0 
0.0 0.0 0.0 
0.0 0.0 0.0 
0.0 0.0 0.0 
0.0 0.0 0.0 
0.0 0.0 0.0 
0.0 0.0 0.0 
0.0 0.0 0.0 
0.0 0.0 0.0 
0.0 0.0 0.0 
0.0 0.0 0.0 
0.0 0.0 0.0 
0.0 0.0 0.0 
0.0 0.0 0.0 
0.0 0.0 0.0 
0.0 0.0 0.0 
0.0 0.0 0.0 
0.0 0.0 0.0 
0.0 0.0 0.0 
0.0 0.0 0.0 
0.0 0.0 0.0 
0.0 0.0 0.0 
0.0 0.0 0.0 
0.0 0.0 0.0 
0.0 0.0 0.0 
0.0 0.0 0.0 
0.0 0.0 0.0 
0.0 0.0 0.0 
0.0 0.0 0.0 
0.0 0.0 0.0 
0.0 0.0 0.0 
0.0 0.0 0.0 
0.0 0.0 0.0 
0.0 0.0 0.0 
0.0 0.0 0.0 
0.0 0.0 0.0 
0.0 0.0 0.0 
0.0 0.0 0.0 
0.0 0.0 0.0 
0.0 0.0 0.0 
0.0 0.0 0.0 
0.0 0.0 0.0 
0.0 0.0 0.0 
0.0 0.0 0.0 
0.0 0.0 0.0 
0.0 0.0 0.0 
0.0 0.0 0.0 
0.0 0.0 0.0 
0.0 0.0 0.0 
0.0 0.0 0.0 
0.0 0.0 0.0 
0.0 0.0 0.0 
0.0 0.0 0.0 
0.0 0.0 0.0 
0.0 0.0 0.0 
0.0 0.0 0.0 
0.0 0.0 0.0 
0.0 0.0 0.0 
0.0 0.0 0.0 
0.0 0.0 0.0 
0.0 0.0 0.0 
0.0 0.0 0.0 
0.0 0.0 0.0 
0.0 0.0 0.0 
0.0 0.0 0.0 
0.0 0.0 0.0 
0.0 0.0 0.0 
0.0 0.0 0.0 
0.0 0.0 0.0 
0.0 0.0 0.0 
0.0 0.0 0.0 
0.0 0.0 0.0 
0.0 0.0 0.0 
0.0 0.0 0.0 
0.0 0.0 0.0 
0.0 0.0 0.0 
0.0 0.0 0.0 
0.0 0.0 0.0 
0.0 0.0 0.0 
0.0 0.0 0.0 
0.0 0.0 0.0 
0.0 0.0 0.0 
0.0 0.0 0.0 
0.0 0.0 0.0 
0.0 0.0 0.0 
0.0 0.0 0.0 
0.0 0.0 0.0 
0.0 0.0 0.0 
0.0 0.0 0.0 
0.0 0.0 0.0 
0.0 0.0 0.0 
0.0 0.0 0.0 
0.0 0.0 0.0 
0.0 0.0 0.0 
0.0 0.0 0.0 
0.0 0.0 0.0 
0.0 0.0 0.0 
0.0 0.0 0.0 
0.0 0.0 0.0 
0.0 0.0 0.0 
0.0 0.0 0.0 
0.0 0.0 0.0 
0.0 0.0 0.0 
0.0 0.0 0.0 
0.0 0.0 0.0 
0.0 0.0 0.0 
0.0 0.0 0.0 
0.0 0.0 0.0 
0.0 0.0 0.0 
0.0 0.0 0.0 
0.0 0.0 0.0 
0.0 0.0 0.0 
0.0 0.0 0.0 
0.0 0.0 0.0 
0.0 0.0 0.0 
0.0 0.0 0.0 
0.0 0.0 0.0 
0.0 0.0 0.0 
0.0 0.0 0.0 
0.0 0.0 0.0 
0.0 0.0 0.0 
0.0 0.0 0.0 
0.0 0.0 0.0 
0.0 0.0 0.0 
0.0 0.0 0.0 
0.0 0.0 0.0 
0.0 0.0 0.0 
0.0 0.0 0.0 
0.0 0.0 0.0 
0.0 0.0 0.0 
0.0 0.0 0.0 
0.0 0.0 0.0 
0.0 0.0 0.0 
0.0 0.0 0.0 
0.0 0.0 0.0 
0.0 0.0 0.0 
0.0 0.0 0.0 
0.0 0.0 0.0 
0.0 0.0 0.0 
0.0 0.0 0.0 
0.0 0.0 0.0 
0.0 0.0 0.0 
0.0 0.0 0.0 
0.0 0.0 0.0 
0.0 0.0 0.0 
0.0 0.0 0.0 
0.0 0.0 0.0 
0.0 0.0 0.0 
0.0 0.0 0.0 
0.0 0.0 0.0 
0.0 0.0 0.0 
0.0 0.0 0.0 
0.0 0.0 0.0 
0.0 0.0 0.0 
0.0 0.0 0.0 
0.0 0.0 0.0 
0.0 0.0 0.0 
0.0 0.0 0.0 
0.0 0.0 0.0 
0.0 0.0 0.0 
0.0 0.0 0.0 
0.0 0.0 0.0 
0.0 0.0 0.0 
0.0 0.0 0.0 
0.0 0.0 0.0 
0.0 0.0 0.0 
0.0 0.0 0.0 
0.0 0.0 0.0 
0.0 0.0 0.0 
0.0 0.0 0.0 
0.0 0.0 0.0 
0.0 0.0 0.0 
0.0 0.0 0.0 
0.0 0.0 0.0 
0.0 0.0 0.0 
0.0 0.0 0.0 
0.0 0.0 0.0 
0.0 0.0 0.0 
0.0 0.0 0.0 
0.0 0.0 0.0 
0.0 0.0 0.0 
0.0 0.0 0.0 
0.0 0.0 0.0 
0.0 0.0 0.0 
0.0 0.0 0.0 
0.0 0.0 0.0 
0.0 0.0 0.0 
0.0 0.0 0.0 
0.0 0.0 0.0 
0.0 0.0 0.0 
0.0 0.0 0.0 
0.0 0.0 0.0 
0.0 0.0 0.0 
0.0 0.0 0.0 
0.0 0.0 0.0 
0.0 0.0 0.0 
0.0 0.0 0.0 
0.0 0.0 0.0 
0.0 0.0 0.0 
0.0 0.0 0.0 
0.0 0.0 0.0 
0.0 0.0 0.0 
0.0 0.0 0.0 
0.0 0.0 0.0 
0.0 0.0 0.0 
0.0 0.0 0.0 
0.0 0.0 0.0 
0.0 0.0 0.0 
0.0 0.0 0.0 
0.0 0.0 0.0 
0.0 0.0 0.0 
0.0 0.0 0.0 
0.0 0.0 0.0 
0.0 0.0 0.0 
0.0 0.0 0.0 
0.0 0.0 0.0 
0.0 0.0 0.0 
0.0 0.0 0.0 
0.0 0.0 0.0 
0.0 0.0 0.0 
0.0 0.0 0.0 
0.0 0.0 0.0 
0.0 0.0 0.0 
0.0 0.0 0.0 
0.0 0.0 0.0 
0.0 0.0 0.0 
0.0 0.0 0.0 
0.0 0.0 0.0 
0.0 0.0 0.0 
0.0 0.0 0.0 
0.0 0.0 0.0 
0.0 0.0 0.0 
0.0 0.0 0.0 
0.0 0.0 0.0 
0.0 0.0 0.0 
0.0 0.0 0.0 
0.0 0.0 0.0 
0.0 0.0 0.0 
0.0 0.0 0.0 
0.0 0.0 0.0 
0.0 0.0 0.0 
0.0 0.0 0.0 
0.0 0.0 0.0 
0.0 0.0 0.0 
0.0 0.0 0.0 
0.0 0.0 0.0 
0.0 0.0 0.0 
0.0 0.0 0.0 
0.0 0.0 0.0 
0.0 0.0 0.0 
0.0 0.0 0.0 
0.0 0.0 0.0 
0.0 0.0 0.0 
0.0 0.0 0.0 
0.0 0.0 0.0 
0.0 0.0 0.0 
0.0 0.0 0.0 
0.0 0.0 0.0 
0.0 0.0 0.0 
0.0 0.0 0.0 
0.0 0.0 0.0 
0.0 0.0 0.0 
0.0 0.0 0.0 
0.0 0.0 0.0 
0.0 0.0 0.0 
0.0 0.0 0.0 
0.0 0.0 0.0 
0.0 0.0 0.0 
0.0 0.0 0.0 
0.0 0.0 0.0 
0.0 0.0 0.0 
0.0 0.0 0.0 
0.0 0.0 0.0 
0.0 0.0 0.0 
0.0 0.0 0.0 
0.0 0.0 0.0 
0.0 0.0 0.0 
0.0 0.0 0.0 
0.0 0.0 0.0 
0.0 0.0 0.0 
0.0 0.0 0.0 
0.0 0.0 0.0 
0.0 0.0 0.0 
0.0 0.0 0.0 
0.0 0.0 0.0 
0.0 0.0 0.0 
0.0 0.0 0.0 
0.0 0.0 0.0 
0.0 0.0 0.0 
0.0 0.0 0.0 
0.0 0.0 0.0 
0.0 0.0 0.0 
0.0 0.0 0.0 
0.0 0.0 0.0 
0.0 0.0 0.0 
0.0 0.0 0.0 
0.0 0.0 0.0 
0.0 0.0 0.0 
0.0 0.0 0.0 
0.0 0.0 0.0 
0.0 0.0 0.0 
0.0 0.0 0.0 
0.0 0.0 0.0 
0.0 0.0 0.0 
0.0 0.0 0.0 
0.0 0.0 0.0 
0.0 0.0 0.0 
0.0 0.0 0.0 
0.0 0.0 0.0 
0.0 0.0 0.0 
0.0 0.0 0.0 
0.0 0.0 0.0 
0.0 0.0 0.0 
0.0 0.0 0.0 
0.0 0.0 0.0 
0.0 0.0 0.0 
0.0 0.0 0.0 
0.0 0.0 0.0 
0.0 0.0 0.0 
0.0 0.0 0.0 
0.0 0.0 0.0 
0.0 0.0 0.0 
0.0 0.0 0.0 
0.0 0.0 0.0 
0.0 0.0 0.0 
0.0 0.0 0.0 
0.0 0.0 0.0 
0.0 0.0 0.0 
0.0 0.0 0.0 
0.0 0.0 0.0 
0.0 0.0 0.0 
0.0 0.0 0.0 
0.0 0.0 0.0 
0.0 0.0 0.0 
0.0 0.0 0.0 
0.0 0.0 0.0 
0.0 0.0 0.0 
0.0 0.0 0.0 
0.0 0.0 0.0 
0.0 0.0 0.0 
0.0 0.0 0.0 
0.0 0.0 0.0 
0.0 0.0 0.0 
0.0 0.0 0.0 
0.0 0.0 0.0 
0.0 0.0 0.0 
0.0 0.0 0.0 
0.0 0.0 0.0 
0.0 0.0 0.0 
0.0 0.0 0.0 
0.0 0.0 0.0 
0.0 0.0 0.0 
0.0 0.0 0.0 
0.0 0.0 0.0 
0.0 0.0 0.0 
0.0 0.0 0.0 
0.0 0.0 0.0 
0.0 0.0 0.0 
0.0 0.0 0.0 
0.0 0.0 0.0 
0.0 0.0 0.0 
0.0 0.0 0.0 
0.0 0.0 0.0 
0.0 0.0 0.0 
0.0 0.0 0.0 
0.0 0.0 0.0 
0.0 0.0 0.0 
0.0 0.0 0.0 
0.0 0.0 0.0 
0.0 0.0 0.0 
0.0 0.0 0.0 
0.0 0.0 0.0 
0.0 0.0 0.0 
0.0 0.0 0.0 
0.0 0.0 0.0 
0.0 0.0 0.0 
0.0 0.0 0.0 
0.0 0.0 0.0 
0.0 0.0 0.0 
0.0 0.0 0.0 
0.0 0.0 0.0 
0.0 0.0 0.0 
0.0 0.0 0.0 
0.0 0.0 0.0 
0.0 0.0 0.0 
0.0 0.0 0.0 
0.0 0.0 0.0 
0.0 0.0 0.0 
0.0 0.0 0.0 
0.0 0.0 0.0 
0.0 0.0 0.0 
0.0 0.0 0.0 
0.0 0.0 0.0 
0.0 0.0 0.0 
0.0 0.0 0.0 
0.0 0.0 0.0 
0.0 0.0 0.0 
0.0 0.0 0.0 
0.0 0.0 0.0 
0.0 0.0 0.0 
0.0 0.0 0.0 
0.0 0.0 0.0 
0.0 0.0 0.0 
0.0 0.0 0.0 
0.0 0.0 0.0 
0.0 0.0 0.0 
0.0 0.0 0.0 
0.0 0.0 0.0 
0.0 0.0 0.0 
0.0 0.0 0.0 
0.0 0.0 0.0 
0.0 0.0 0.0 
0.0 0.0 0.0 
0.0 0.0 0.0 
0.0 0.0 0.0 
0.0 0.0 0.0 
0.0 0.0 0.0 
0.0 0.0 0.0 
0.0 0.0 0.0 
0.0 0.0 0.0 
0.0 0.0 0.0 
0.0 0.0 0.0 
0.0 0.0 0.0 
0.0 0.0 0.0 
0.0 0.0 0.0 
0.0 0.0 0.0 
0.0 0.0 0.0 
0.0 0.0 0.0 
0.0 0.0 0.0 
0.0 0.0 0.0 
0.0 0.0 0.0 
0.0 0.0 0.0 
0.0 0.0 0.0 
0.0 0.0 0.0 
0.0 0.0 0.0 
0.0 0.0 0.0 
0.0 0.0 0.0 
0.0 0.0 0.0 
0.0 0.0 0.0 
0.0 0.0 0.0 
0.0 0.0 0.0 
0.0 0.0 0.0 
0.0 0.0 0.0 
0.0 0.0 0.0 
0.0 0.0 0.0 
0.0 0.0 0.0 
0.0 0.0 0.0 
0.0 0.0 0.0 
0.0 0.0 0.0 
0.0 0.0 0.0 
0.0 0.0 0.0 
0.0 0.0 0.0 
0.0 0.0 0.0 
0.0 0.0 0.0 
0.0 0.0 0.0 
0.0 0.0 0.0 
0.0 0.0 0.0 
0.0 0.0 0.0 
0.0 0.0 0.0 
0.0 0.0 0.0 
0.0 0.0 0.0 
0.0 0.0 0.0 
0.0 0.0 0.0 
0.0 0.0 0.0 
0.0 0.0 0.0 
0.0 0.0 0.0 
0.0 0.0 0.0 
0.0 0.0 0.0 
0.0 0.0 0.0 
0.0 0.0 0.0 
0.0 0.0 0.0 
0.0 0.0 0.0 
0.0 0.0 0.0 
0.0 0.0 0.0 
0.0 0.0 0.0 
0.0 0.0 0.0 
0.0 0.0 0.0 
0.0 0.0 0.0 
0.0 0.0 0.0 
0.0 0.0 0.0 
0.0 0.0 0.0 
0.0 0.0 0.0 
0.0 0.0 0.0 
0.0 0.0 0.0 
0.0 0.0 0.0 
0.0 0.0 0.0 
0.0 0.0 0.0 
0.0 0.0 0.0 
0.0 0.0 0.0 
0.0 0.0 0.0 
0.0 0.0 0.0 
0.0 0.0 0.0 
0.0 0.0 0.0 
0.0 0.0 0.0 
0.0 0.0 0.0 
0.0 0.0 0.0 
0.0 0.0 0.0 
0.0 0.0 0.0 
0.0 0.0 0.0 
0.0 0.0 0.0 
0.0 0.0 0.0 
0.0 0.0 0.0 
0.0 0.0 0.0 
0.0 0.0 0.0 
0.0 0.0 0.0 
0.0 0.0 0.0 
0.0 0.0 0.0 
0.0 0.0 0.0 
0.0 0.0 0.0 
0.0 0.0 0.0 
0.0 0.0 0.0 
0.0 0.0 0.0 
0.0 0.0 0.0 
0.0 0.0 0.0 
0.0 0.0 0.0 
0.0 0.0 0.0 
0.0 0.0 0.0 
0.0 0.0 0.0 
0.0 0.0 0.0 
0.0 0.0 0.0 
0.0 0.0 0.0 
0.0 0.0 0.0 
0.0 0.0 0.0 
0.0 0.0 0.0 
0.0 0.0 0.0 
0.0 0.0 0.0 
0.0 0.0 0.0 
0.0 0.0 0.0 
0.0 0.0 0.0 
0.0 0.0 0.0 
0.0 0.0 0.0 
0.0 0.0 0.0 
0.0 0.0 0.0 
0.0 0.0 0.0 
0.0 0.0 0.0 
0.0 0.0 0.0 
0.0 0.0 0.0 
0.0 0.0 0.0 
0.0 0.0 0.0 
0.0 0.0 0.0 
0.0 0.0 0.0 
0.0 0.0 0.0 
0.0 0.0 0.0 
0.0 0.0 0.0 
0.0 0.0 0.0 
0.0 0.0 0.0 
0.0 0.0 0.0 
0.0 0.0 0.0 
0.0 0.0 0.0 
0.0 0.0 0.0 
0.0 0.0 0.0 
0.0 0.0 0.0 
0.0 0.0 0.0 
0.0 0.0 0.0 
0.0 0.0 0.0 
0.0 0.0 0.0 
0.0 0.0 0.0 
0.0 0.0 0.0 
0.0 0.0 0.0 
0.0 0.0 0.0 
0.0 0.0 0.0 
0.0 0.0 0.0 
0.0 0.0 0.0 
0.0 0.0 0.0 
0.0 0.0 0.0 
0.0 0.0 0.0 
0.0 0.0 0.0 
0.0 0.0 0.0 
0.0 0.0 0.0 
0.0 0.0 0.0 
0.0 0.0 0.0 
0.0 0.0 0.0 
0.0 0.0 0.0 
0.0 0.0 0.0 
0.0 0.0 0.0 
0.0 0.0 0.0 
0.0 0.0 0.0 
0.0 0.0 0.0 
0.0 0.0 0.0 
0.0 0.0 0.0 
0.0 0.0 0.0 
0.0 0.0 0.0 
0.0 0.0 0.0 

TENSORS element_materi_stress float
-3.012687168446e+01 2.033346417273e+01 0.0 
2.033346417273e+01 -3.890881965366e+01 0.0 
0.0 0.0 -2.031070740144e+01 
-2.935558409095e+01 1.811977405764e+01 0.0 
1.811977405764e+01 -4.091010662997e+01 0.0 
0.0 0.0 -2.067970721628e+01 
-1.024809423107e+02 3.171858637116e+01 0.0 
3.171858637116e+01 -2.321938959246e+02 0.0 
0.0 0.0 -1.000024514706e+02 
-7.888871604855e+01 3.952855280844e+00 0.0 
3.952855280844e+00 -1.704604229385e+02 0.0 
0.0 0.0 -7.440474169610e+01 
-3.167690284259e+01 -5.515410843537e-01 0.0 
-5.515410843537e-01 -3.038495204547e+01 0.0 
0.0 0.0 -1.821855646642e+01 
-2.160992038740e+01 4.546857535750e+00 0.0 
4.546857535750e+00 -3.891226085123e+01 0.0 
0.0 0.0 -1.775665437159e+01 
-3.100287668026e+01 -8.719476491959e-01 0.0 
-8.719476491959e-01 -3.065021412256e+01 0.0 
0.0 0.0 -1.809592724085e+01 
-3.087978276309e+01 1.930253815040e+01 0.0 
1.930253815040e+01 -4.383317896600e+01 0.0 
0.0 0.0 -2.201388851873e+01 
-3.200812551242e+01 1.696893304015e+00 0.0 
1.696893304015e+00 -3.147067598028e+01 0.0 
0.0 0.0 -1.864364044781e+01 
-7.816626932651e+01 4.338928285555e+00 0.0 
4.338928285555e+00 -1.687496515606e+02 0.0 
0.0 0.0 -7.367477626614e+01 
-9.568656447821e+01 -2.786561549350e-01 0.0 
-2.786561549350e-01 -2.526731272195e+02 0.0 
0.0 0.0 -1.041079075093e+02 
-2.657154929273e+01 1.760657107958e+01 0.0 
1.760657107958e+01 -3.388037590901e+01 0.0 
0.0 0.0 -1.773557756052e+01 
-1.503723554757e+02 6.849650022405e-01 0.0 
6.849650022405e-01 -3.618426232816e+02 0.0 
0.0 0.0 -1.532644936272e+02 
-4.633135383524e+01 4.631526035769e+00 0.0 
4.631526035769e+00 -5.016924418606e+01 0.0 
0.0 0.0 -2.855017940639e+01 
-1.553792215451e+02 2.911945328808e+00 0.0 
2.911945328808e+00 -3.695738630303e+02 0.0 
0.0 0.0 -1.570859253726e+02 
-7.966802314825e+01 3.452812120023e+00 0.0 
3.452812120023e+00 -1.787242672106e+02 0.0 
0.0 0.0 -7.711768710765e+01 
-3.059086774549e+01 1.034587103688e+00 0.0 
1.034587103688e+00 -2.657600777656e+01 0.0 
0.0 0.0 -1.675006265661e+01 
-2.090297340353e+01 2.584361266484e+00 0.0 
2.584361266484e+00 -3.931817590428e+01 0.0 
0.0 0.0 -1.766634479234e+01 
-2.735930977876e+01 -1.884296744919e-01 0.0 
-1.884296744919e-01 -7.735203246691e+01 0.0 
0.0 0.0 -3.101340267370e+01 
-2.771885401218e+01 -7.994241212772e-01 0.0 
-7.994241212772e-01 -7.997857604496e+01 0.0 
0.0 0.0 -3.190922901714e+01 
-8.061337064807e+01 6.647229261775e+00 0.0 
6.647229261775e+00 -1.703408343614e+02 0.0 
0.0 0.0 -7.488626150285e+01 
-3.001893096566e+01 1.934184765855e+01 0.0 
1.934184765855e+01 -3.982384047830e+01 0.0 
0.0 0.0 -2.055283143319e+01 
-3.217733304388e+01 2.080489265881e+01 0.0 
2.080489265881e+01 -4.238377873012e+01 0.0 
0.0 0.0 -2.196833353220e+01 
-1.332149674059e+02 1.625115211561e+01 0.0 
1.625115211561e+01 -3.324621394794e+02 0.0 
0.0 0.0 -1.393031320656e+02 
-5.930900999667e+01 1.208868478290e+01 0.0 
1.208868478290e+01 -7.715486090487e+01 0.0 
0.0 0.0 -4.053916127046e+01 
-1.014167530890e+02 1.140174340419e+00 0.0 
1.140174340419e+00 -2.656152346840e+02 0.0 
0.0 0.0 -1.097095963319e+02 
-4.191181964977e+01 1.157149100858e+01 0.0 
1.157149100858e+01 -1.790420270326e+01 0.0 
0.0 0.0 -1.754480670591e+01 
-1.223055083434e+02 3.288353296836e+01 0.0 
3.288353296836e+01 -2.986514528050e+02 0.0 
0.0 0.0 -1.258870883445e+02 
-6.319790748140e+01 1.720507334731e+01 0.0 
1.720507334731e+01 -7.944469556506e+01 0.0 
0.0 0.0 -4.239278091394e+01 
-1.372120727352e+02 1.473542883562e+01 0.0 
1.473542883562e+01 -3.413445914606e+02 0.0 
0.0 0.0 -1.431669992587e+02 
-2.574861013971e+01 -2.119717814373e+00 0.0 
-2.119717814373e+00 -5.778696275174e+01 0.0 
0.0 0.0 -2.466067186743e+01 
-1.364813766568e+01 -1.806314474136e+00 0.0 
-1.806314474136e+00 -2.602344601468e+01 0.0 
0.0 0.0 -1.150147510411e+01 
-1.033699372469e+02 3.306074095201e+01 0.0 
3.306074095201e+01 -2.301494334917e+02 0.0 
0.0 0.0 -9.965581122159e+01 
-1.250820145433e+02 1.213440096426e+00 0.0 
1.213440096426e+00 -3.137446619661e+02 0.0 
0.0 0.0 -1.312480029528e+02 
-1.469108184173e+02 1.009645913213e+01 0.0 
1.009645913213e+01 -3.560658116228e+02 0.0 
0.0 0.0 -1.504929890120e+02 
-1.576195640113e+02 4.717693590803e+00 0.0 
4.717693590803e+00 -3.759491690785e+02 0.0 
0.0 0.0 -1.596706199270e+02 
-1.585862827329e+02 7.325170933192e+00 0.0 
7.325170933192e+00 -3.761329218926e+02 0.0 
0.0 0.0 -1.600157613876e+02 
-1.335382410356e+02 2.278844452332e+01 0.0 
2.278844452332e+01 -3.305863464686e+02 0.0 
0.0 0.0 -1.388373762513e+02 
-2.237846200269e+01 1.255287448117e+00 0.0 
1.255287448117e+00 -1.213468764802e+01 0.0 
0.0 0.0 -9.953944895213e+00 
-2.233247662055e+01 -1.438961121465e+00 0.0 
-1.438961121465e+00 -1.274774262113e+01 0.0 
0.0 0.0 -1.012406577250e+01 
-3.421233984649e+01 2.198249731628e+01 0.0 
2.198249731628e+01 -4.322740141676e+01 0.0 
0.0 0.0 -2.283192237897e+01 
-1.495214804999e+02 1.159051355793e+01 0.0 
1.159051355793e+01 -3.584680434824e+02 0.0 
0.0 0.0 -1.519968571947e+02 
-2.782133617262e+01 1.738393967535e+01 0.0 
1.738393967535e+01 -3.719854288804e+01 0.0 
0.0 0.0 -1.910596371820e+01 
-3.892926628461e+01 1.126723582740e+01 0.0 
1.126723582740e+01 -1.895911288974e+01 0.0 
0.0 0.0 -1.696651375230e+01 
-7.559441973335e+01 1.514095468562e+00 0.0 
1.514095468562e+00 -1.586501189986e+02 0.0 
0.0 0.0 -6.987336161959e+01 
-2.665382208026e+01 1.642665956209e+01 0.0 
1.642665956209e+01 -3.682484027681e+01 0.0 
0.0 0.0 -1.864359870712e+01 
-1.963144307160e+01 -2.474104066304e+00 0.0 
-2.474104066304e+00 -4.322881081705e+01 0.0 
0.0 0.0 -1.845807616660e+01 
-7.383984374476e+01 1.485345292772e+00 0.0 
1.485345292772e+00 -1.595727433456e+02 0.0 
0.0 0.0 -6.962377612712e+01 
-1.681481814026e+01 -1.956940880974e+00 0.0 
-1.956940880974e+00 -2.564422476771e+01 0.0 
0.0 0.0 -1.272758630369e+01 
-4.402657070287e+01 5.570574233445e+00 0.0 
5.570574233445e+00 -4.124306858764e+01 0.0 
0.0 0.0 -2.518089178715e+01 
-3.343612849838e+01 2.163985501729e+01 0.0 
2.163985501729e+01 -4.366492538593e+01 0.0 
0.0 0.0 -2.273031616529e+01 
-3.505232004643e+01 -4.129959171548e-01 0.0 
-4.129959171548e-01 -9.728228887733e+01 0.0 
0.0 0.0 -3.930038267713e+01 
-2.821740124402e+01 -1.860855387596e+00 0.0 
-1.860855387596e+00 -7.889496063619e+01 0.0 
0.0 0.0 -3.173370856406e+01 
-3.123224759802e+01 1.985112632317e+01 0.0 
1.985112632317e+01 -4.106490133412e+01 0.0 
0.0 0.0 -2.128914467964e+01 
-9.430629523512e+01 2.670721865326e+01 0.0 
2.670721865326e+01 -2.075350574709e+02 0.0 
0.0 0.0 -9.015240581181e+01 
-4.591355512250e+01 -3.153206157110e-01 0.0 
-3.153206157110e-01 -1.283884223137e+02 0.0 
0.0 0.0 -5.189059323087e+01 
-3.523793665176e+01 -9.287057689017e-01 0.0 
-9.287057689017e-01 -1.002233840274e+02 0.0 
0.0 0.0 -4.023839620374e+01 
-1.246518657921e+02 -7.596823429274e-02 0.0 
-7.596823429274e-02 -3.136110900257e+02 0.0 
0.0 0.0 -1.310788867453e+02 
-2.156069843677e+01 -1.340176064859e+00 0.0 
-1.340176064859e+00 -5.929648021624e+01 0.0 
0.0 0.0 -2.385715359590e+01 
-8.088428084053e+01 5.488130224230e+00 0.0 
5.488130224230e+00 -1.792868658148e+02 0.0 
0.0 0.0 -7.765134399659e+01 
-2.189548644032e+01 -1.076975403844e+00 0.0 
-1.076975403844e+00 -2.214116390772e+01 0.0 
0.0 0.0 -1.281099510441e+01 
-1.169219309078e+02 2.625170098143e+01 0.0 
2.625170098143e+01 -2.967627569540e+02 0.0 
0.0 0.0 -1.237054063585e+02 
-3.582725609370e+01 1.837685787279e+01 0.0 
1.837685787279e+01 -9.079801021329e+01 0.0 
0.0 0.0 -3.758757989209e+01 
-2.694646812559e+01 -1.827462333096e+00 0.0 
-1.827462333096e+00 -7.247941994813e+01 0.0 
0.0 0.0 -2.942776642211e+01 
-1.500658746241e+02 3.696733527038e+00 0.0 
3.696733527038e+00 -3.611118704986e+02 0.0 
0.0 0.0 -1.529533235368e+02 
-3.057131985629e+01 1.949526995225e+01 0.0 
1.949526995225e+01 -4.019584998235e+01 0.0 
0.0 0.0 -2.083015095159e+01 
-1.800426732016e+01 -1.201941702644e+00 0.0 
-1.201941702644e+00 -2.091105571727e+01 0.0 
0.0 0.0 -1.197655086598e+01 
-1.064146999783e+02 3.453453634569e+01 0.0 
3.453453634569e+01 -2.373531171801e+02 0.0 
0.0 0.0 -1.027303451475e+02 
-2.465201852525e+01 -2.770173174136e+00 0.0 
-2.770173174136e+00 -6.359662154205e+01 0.0 
0.0 0.0 -2.607459202019e+01 
-1.145051652380e+02 3.345016970675e+01 0.0 
3.345016970675e+01 -2.696035375611e+02 0.0 
0.0 0.0 -1.148326108397e+02 
-1.062279213880e+02 1.705357285377e+00 0.0 
1.705357285377e+00 -2.759578387230e+02 0.0 
0.0 0.0 -1.142557280333e+02 
-8.633264319686e+01 1.815847449681e+01 0.0 
1.815847449681e+01 -2.027761674593e+02 0.0 
0.0 0.0 -8.633264319686e+01 
-1.173043183886e+02 2.954435465780e+01 0.0 
2.954435465780e+01 -2.852876116665e+02 0.0 
0.0 0.0 -1.203775790166e+02 
-9.742125126497e+00 -9.624097375855e-01 0.0 
-9.624097375855e-01 -2.985633050739e+01 0.0 
0.0 0.0 -1.147953669017e+01 
-4.728106551971e+01 -1.181528216094e+00 0.0 
-1.181528216094e+00 -1.336077153362e+02 0.0 
0.0 0.0 -5.386663425678e+01 
-8.565471858203e+01 1.388138704051e+01 0.0 
1.388138704051e+01 -1.779449431319e+02 0.0 
0.0 0.0 -7.867989851419e+01 
-9.994178319597e+01 2.930857661566e+01 0.0 
2.930857661566e+01 -2.136063727402e+02 0.0 
0.0 0.0 -9.366444678084e+01 
-2.420179812993e+01 1.379877917905e+01 0.0 
1.379877917905e+01 -3.393304885442e+01 0.0 
0.0 0.0 -1.704045409531e+01 
-2.073122832814e+01 -1.435797681717e+00 0.0 
-1.435797681717e+00 -5.914673101360e+01 0.0 
0.0 0.0 -2.356338780252e+01 
-2.612994172596e+01 1.568439602617e+01 0.0 
1.568439602617e+01 -3.464451256627e+01 0.0 
0.0 0.0 -1.783233628767e+01 
-2.392197511649e+01 -3.725873593639e+00 0.0 
-3.725873593639e+00 -6.307649909431e+01 0.0 
0.0 0.0 -2.569954226324e+01 
-3.244935964823e+01 6.547706701795e-01 0.0 
6.547706701795e-01 -2.618384967793e+01 0.0 
0.0 0.0 -1.718996279785e+01 
-3.199624169968e+01 2.074690243274e+01 0.0 
2.074690243274e+01 -4.241080155267e+01 0.0 
0.0 0.0 -2.192211297570e+01 
-2.804817793406e+01 1.857463845377e+01 0.0 
1.857463845377e+01 -3.530670450929e+01 0.0 
0.0 0.0 -1.860646473301e+01 
-3.805190355437e+01 2.221165905728e+00 0.0 
2.221165905728e+00 -4.200008845836e+01 0.0 
0.0 0.0 -2.361559760382e+01 
-3.609670554208e+01 -2.379290542528e-01 0.0 
-2.379290542528e-01 -4.112646032327e+01 0.0 
0.0 0.0 -2.276694975960e+01 
-1.104000728721e+02 1.470222922550e+00 0.0 
1.470222922550e+00 -2.844151033090e+02 0.0 
0.0 0.0 -1.180445528543e+02 
-1.206583720850e+02 -6.820474650142e-01 0.0 
-6.820474650142e-01 -3.054828007833e+02 0.0 
0.0 0.0 -1.274423518605e+02 
-8.762820362786e+01 3.019247690311e+01 0.0 
3.019247690311e+01 -1.841889959595e+02 0.0 
0.0 0.0 -8.114515987621e+01 
-3.355329862831e+01 2.193103962218e+00 0.0 
2.193103962218e+00 -3.029300483037e+01 0.0 
0.0 0.0 -1.875389103760e+01 
-1.276652846571e+01 -1.839000794985e+00 0.0 
-1.839000794985e+00 -2.576514418028e+01 0.0 
0.0 0.0 -1.151561701312e+01 
-4.553758191462e+01 1.296346976763e+01 0.0 
1.296346976763e+01 -3.676116378986e+01 0.0 
0.0 0.0 -2.428962371134e+01 
-5.937472077812e+01 1.561930149156e+00 0.0 
1.561930149156e+00 -1.101551118298e+02 0.0 
0.0 0.0 -5.045894978237e+01 
-5.933170172292e+01 1.026705855528e+00 0.0 
1.026705855528e+00 -1.067172646209e+02 0.0 
0.0 0.0 -4.941468990316e+01 
-9.482699027731e+01 2.039860402320e+01 0.0 
2.039860402320e+01 -2.080326216550e+02 0.0 
0.0 0.0 -9.045788357969e+01 
-1.401288245792e+02 2.612625317015e+01 0.0 
2.612625317015e+01 -3.360621337284e+02 0.0 
0.0 0.0 -1.424572874923e+02 
-3.462257164323e+01 2.160400034076e+00 0.0 
2.160400034076e+00 -2.595062228711e+01 0.0 
0.0 0.0 -1.777195817910e+01 
-1.462206273144e+02 1.137501448690e+01 0.0 
1.137501448690e+01 -3.578627373307e+02 0.0 
0.0 0.0 -1.508250093935e+02 
-4.182181020350e+01 7.928115575620e-01 0.0 
7.928115575620e-01 -6.105607786980e+01 0.0 
0.0 0.0 -3.046336642199e+01 
-3.505481222902e+01 1.955773103161e+01 0.0 
1.955773103161e+01 -7.579644214689e+01 0.0 
0.0 0.0 -3.285537631277e+01 
-2.756864411959e+01 1.221483027314e+00 0.0 
1.221483027314e+00 -2.148620653799e+01 0.0 
0.0 0.0 -1.431645519727e+01 
-1.546823919868e+02 1.664778373496e+00 0.0 
1.664778373496e+00 -3.691643379005e+02 0.0 
0.0 0.0 -1.567540189662e+02 
-9.614782879851e+01 2.212598632448e+01 0.0 
2.212598632448e+01 -2.569981407118e+02 0.0 
0.0 0.0 -1.055437908531e+02 
-1.200886588600e+02 2.769948839120e+01 0.0 
2.769948839120e+01 -2.984333755307e+02 0.0 
0.0 0.0 -1.251566103172e+02 
-3.353183965708e+01 1.541015605820e+01 0.0 
1.541015605820e+01 -8.688052285519e+01 0.0 
0.0 0.0 -3.572370875368e+01 
-2.351224830834e+01 -2.621051208158e+00 0.0 
-2.621051208158e+00 -4.243809610821e+01 0.0 
0.0 0.0 -1.938510332496e+01 
-1.399262068453e+02 2.050781291377e+00 0.0 
2.050781291377e+00 -3.422583785993e+02 0.0 
0.0 0.0 -1.442553756334e+02 
-6.589262127864e+01 1.626621166231e+00 0.0 
1.626621166231e+00 -1.263350212614e+02 0.0 
0.0 0.0 -5.726829276202e+01 
-2.152262990653e+01 -1.727558528980e+00 0.0 
-1.727558528980e+00 -2.541270655738e+01 0.0 
0.0 0.0 -1.368060093917e+01 
-1.542701937733e+02 5.050579903527e+00 0.0 
5.050579903527e+00 -3.665270216392e+02 0.0 
0.0 0.0 -1.558391646237e+02 
-8.218682125792e+01 2.734863845312e+01 0.0 
2.734863845312e+01 -1.786268845905e+02 0.0 
0.0 0.0 -7.784411175453e+01 
-6.906025399011e+00 3.505356286438e-01 0.0 
3.505356286438e-01 -2.207520614673e+01 0.0 
0.0 0.0 -8.294369463723e+00 
-4.405677544751e+01 1.523793020038e+01 0.0 
1.523793020038e+01 -1.348567781813e+02 0.0 
0.0 0.0 -5.327406608863e+01 
-4.237477444741e+01 2.344551653202e+01 0.0 
2.344551653202e+01 -4.322152472111e+01 0.0 
0.0 0.0 -2.527888975056e+01 
-5.763992977656e+01 -4.964328461465e-01 0.0 
-4.964328461465e-01 -1.622105480326e+02 0.0 
0.0 0.0 -6.555514334274e+01 
-3.213649638147e+01 1.794111243282e+01 0.0 
1.794111243282e+01 -7.230245106668e+01 0.0 
0.0 0.0 -3.093168423444e+01 
-3.727260118717e+01 1.865347841945e+01 0.0 
1.865347841945e+01 -9.144541498120e+01 0.0 
0.0 0.0 -3.821540485051e+01 
-1.511556542544e+02 8.137502887358e+00 0.0 
8.137502887358e+00 -3.633137453773e+02 0.0 
0.0 0.0 -1.539408198895e+02 
-3.946215048669e+01 -4.708531386411e-01 0.0 
-4.708531386411e-01 -5.438479930828e+01 0.0 
0.0 0.0 -2.775408493849e+01 
-3.405402913417e+01 1.717650518709e+01 0.0 
1.717650518709e+01 -8.863800917698e+01 0.0 
0.0 0.0 -3.640761149334e+01 
-2.343344407634e+01 -2.280371656725e+00 0.0 
-2.280371656725e+00 -6.094325720688e+01 0.0 
0.0 0.0 -2.491301038497e+01 
-4.950312400019e+01 1.616443181268e+01 0.0 
1.616443181268e+01 -4.593743573222e+01 0.0 
0.0 0.0 -2.823216791972e+01 
-6.513283380996e+01 1.906387219875e+00 0.0 
1.906387219875e+00 -1.276030951514e+02 0.0 
0.0 0.0 -5.742077868841e+01 
-3.535171258314e+01 1.710404304882e+01 0.0 
1.710404304882e+01 -8.918857376113e+01 0.0 
0.0 0.0 -3.696208590328e+01 
-2.179919714457e+01 9.734606633647e+00 0.0 
9.734606633647e+00 -2.927398655413e+01 0.0 
0.0 0.0 -1.492195510961e+01 
-3.747578888014e+01 2.331010923100e+01 0.0 
2.331010923100e+01 -4.372259409449e+01 0.0 
0.0 0.0 -2.395951489239e+01 
-5.779760147506e+01 -9.534515511619e-01 0.0 
-9.534515511619e-01 -1.609079534432e+02 0.0 
0.0 0.0 -6.521166647547e+01 
-3.323445872945e+01 2.058472036805e+01 0.0 
2.058472036805e+01 -4.117965606469e+01 0.0 
0.0 0.0 -2.192423443824e+01 
-8.503278693645e+01 1.425978468679e+01 0.0 
1.425978468679e+01 -1.874370872441e+02 0.0 
0.0 0.0 -8.134096225417e+01 
-2.268636265836e+01 9.411464539380e+00 0.0 
9.411464539380e+00 -3.991425747887e+01 0.0 
0.0 0.0 -1.838018604117e+01 
-1.008897572485e+02 1.407509356532e-03 0.0 
1.407509356532e-03 -2.646015495303e+02 0.0 
0.0 0.0 -1.092473920336e+02 
-7.781775124476e+01 1.990860748925e+00 0.0 
1.990860748925e+00 -1.700850356083e+02 0.0 
0.0 0.0 -7.397083605593e+01 
-4.250594805573e+01 2.201982641358e+01 0.0 
2.201982641358e+01 -9.627582264894e+01 0.0 
0.0 0.0 -4.123453121140e+01 
-3.577499260670e+01 2.279243579330e+01 0.0 
2.279243579330e+01 -4.353458176136e+01 0.0 
0.0 0.0 -2.339287231042e+01 
-1.453660905723e+02 8.670496276214e+00 0.0 
8.670496276214e+00 -3.554448526587e+02 0.0 
0.0 0.0 -1.498432829693e+02 
-1.508943721597e+02 2.361474601748e+00 0.0 
2.361474601748e+00 -3.625212942764e+02 0.0 
0.0 0.0 -1.536246999308e+02 
-1.100387821502e+02 1.762936294840e-01 0.0 
1.762936294840e-01 -2.843103792352e+02 0.0 
0.0 0.0 -1.179047484156e+02 
-4.582484518972e+01 2.405176886815e+01 0.0 
2.405176886815e+01 -9.795757217674e+01 0.0 
0.0 0.0 -4.273472520994e+01 
-1.437783488656e+02 1.522621649259e+01 0.0 
1.522621649259e+01 -3.533755315040e+02 0.0 
0.0 0.0 -1.487461641109e+02 
-3.930784629622e+01 2.199195858556e+01 0.0 
2.199195858556e+01 -7.889242879615e+01 0.0 
0.0 0.0 -3.506008252771e+01 
-8.114838153608e+01 9.722610550228e+00 0.0 
9.722610550228e+00 -1.779821312063e+02 0.0 
0.0 0.0 -7.733915382272e+01 
-1.123791147968e+02 3.534255393471e+01 0.0 
3.534255393471e+01 -2.660587230590e+02 0.0 
0.0 0.0 -1.131313513568e+02 
-5.037570590976e+01 8.947185015018e+00 0.0 
8.947185015018e+00 -5.063840466618e+01 0.0 
0.0 0.0 -2.990423317278e+01 
-5.202598436806e+01 9.661460050251e-01 0.0 
9.661460050251e-01 -8.535623238010e+01 0.0 
0.0 0.0 -4.081466502445e+01 
-4.035685987681e+01 2.304779182258e+01 0.0 
2.304779182258e+01 -7.940502848554e+01 0.0 
0.0 0.0 -3.552856650871e+01 
-3.235025049906e+01 2.035893859682e+01 0.0 
2.035893859682e+01 -4.175620677306e+01 0.0 
0.0 0.0 -2.183193718164e+01 
-4.829388183663e+01 2.283631561182e+01 0.0 
2.283631561182e+01 -1.145298833091e+02 0.0 
0.0 0.0 -4.844712954371e+01 
-3.770985753284e+01 1.594008942386e+01 0.0 
1.594008942386e+01 -1.045750370916e+02 0.0 
0.0 0.0 -4.228546838735e+01 
-2.776980029677e+01 9.862004585235e-01 0.0 
9.862004585235e-01 -2.415757287337e+01 0.0 
0.0 0.0 -1.517821195104e+01 
-4.572297561176e+01 1.537116548194e+01 0.0 
1.537116548194e+01 -1.355891168252e+02 0.0 
0.0 0.0 -5.399362773108e+01 
-1.146902269279e+01 -1.529466448208e+00 0.0 
-1.529466448208e+00 -2.506318365013e+01 0.0 
0.0 0.0 -1.097783949497e+01 
-3.322583925597e+01 1.776366337524e-01 0.0 
1.776366337524e-01 -3.908940841607e+01 0.0 
0.0 0.0 -2.129457430161e+01 
-2.006546259140e+01 -4.820714123045e-01 0.0 
-4.820714123045e-01 -6.021410856590e+01 0.0 
0.0 0.0 -2.368387134719e+01 
-3.960079485918e+01 2.379467973478e+01 0.0 
2.379467973478e+01 -4.398540168779e+01 0.0 
0.0 0.0 -2.467585896409e+01 
-1.481789921386e+02 1.430745919793e+01 0.0 
1.430745919793e+01 -3.556678438278e+02 0.0 
0.0 0.0 -1.507540507899e+02 
-3.253038691131e+01 1.585399643951e+01 0.0 
1.585399643951e+01 -8.649932458033e+01 0.0 
0.0 0.0 -3.530891344749e+01 
-1.151197666089e+02 -2.639299610806e-01 0.0 
-2.639299610806e-01 -2.944812806507e+02 0.0 
0.0 0.0 -1.224803141779e+02 
-2.782948934093e+01 1.738178991208e+01 0.0 
1.738178991208e+01 -3.744545618849e+01 0.0 
0.0 0.0 -1.918248365883e+01 
-9.326087140956e+01 2.099534105748e+01 0.0 
2.099534105748e+01 -2.556195344605e+02 0.0 
0.0 0.0 -1.042641217610e+02 
-2.764227154616e+01 2.534546149356e-02 0.0 
2.534546149356e-02 -2.569380669439e+01 0.0 
0.0 0.0 -1.560082347216e+01 
-4.166444508170e+01 1.348536656212e+01 0.0 
1.348536656212e+01 -1.308391485580e+02 0.0 
0.0 0.0 -5.135107809192e+01 
-1.296073472924e+02 1.973064459737e+00 0.0 
1.973064459737e+00 -3.229027935315e+02 0.0 
0.0 0.0 -1.353530422472e+02 
-2.328639835128e+01 -3.461657197494e+00 0.0 
-3.461657197494e+00 -6.056122954113e+01 0.0 
0.0 0.0 -2.475428836772e+01 
-1.395580746526e+02 6.008618286570e-01 0.0 
6.008618286570e-01 -3.418823009579e+02 0.0 
0.0 0.0 -1.440321126832e+02 
-5.006041813118e+01 2.339301208322e+01 0.0 
2.339301208322e+01 -8.157129125127e+01 0.0 
0.0 0.0 -3.908951281473e+01 
-1.508863954238e+02 4.293887109960e+00 0.0 
4.293887109960e+00 -3.647628109435e+02 0.0 
0.0 0.0 -1.542947619102e+02 
-2.695631062272e+01 -3.155592219306e-02 0.0 
-3.155592219306e-02 -2.446677992470e+01 0.0 
0.0 0.0 -1.502692716423e+01 
-3.449306318064e+01 1.430480976840e+01 0.0 
1.430480976840e+01 -1.002039516909e+02 0.0 
0.0 0.0 -4.000910446145e+01 
-3.834360478730e+01 2.072704716653e+01 0.0 
2.072704716653e+01 -4.176346628796e+01 0.0 
0.0 0.0 -2.363212132258e+01 
-9.566846622216e+01 7.160220865877e-01 0.0 
7.160220865877e-01 -2.536210150799e+02 0.0 
0.0 0.0 -1.043868443906e+02 
-2.915598326241e+01 1.889444458963e+01 0.0 
1.889444458963e+01 -3.738355296489e+01 0.0 
0.0 0.0 -1.956186086819e+01 
-4.334819912660e+01 1.328945011262e+01 0.0 
1.328945011262e+01 -1.315164165216e+02 0.0 
0.0 0.0 -5.205938469446e+01 
-5.660444887003e+01 2.770392278057e+00 0.0 
2.770392278057e+00 -9.665551304900e+01 0.0 
0.0 0.0 -4.557798857571e+01 
-2.711388248232e+01 -5.805624309981e-01 0.0 
-5.805624309981e-01 -2.439888749615e+01 0.0 
0.0 0.0 -1.505383099354e+01 
-3.887147704318e+01 1.469184293044e+01 0.0 
1.469184293044e+01 -1.171816988914e+02 0.0 
0.0 0.0 -4.641595278037e+01 
-3.536870121146e+01 2.080136753067e+01 0.0 
2.080136753067e+01 -4.145414991631e+01 0.0 
0.0 0.0 -2.264685533833e+01 
-9.544254048721e+01 2.934042600218e+01 0.0 
2.934042600218e+01 -2.283578118734e+02 0.0 
0.0 0.0 -9.674010570819e+01 
-6.498931730307e+01 -2.795099549132e-01 0.0 
-2.795099549132e-01 -1.793860605435e+02 0.0 
0.0 0.0 -7.291261335397e+01 
-1.265478231014e+02 3.048656754125e+01 0.0 
3.048656754125e+01 -3.041074216404e+02 0.0 
0.0 0.0 -1.287965734225e+02 
-1.154489882122e+02 3.563486044337e+01 0.0 
3.563486044337e+01 -2.736085767484e+02 0.0 
0.0 0.0 -1.163172694882e+02 
-3.163237010617e+01 1.908581749368e+01 0.0 
1.908581749368e+01 -5.830591702150e+01 0.0 
0.0 0.0 -2.658148613830e+01 
-6.505995317605e+01 -7.300226872831e-01 0.0 
-7.300226872831e-01 -1.803658661370e+02 0.0 
0.0 0.0 -7.322774579392e+01 
-1.213334109460e+02 1.737706156825e+01 0.0 
1.737706156825e+01 -3.117032905021e+02 0.0 
0.0 0.0 -1.295110104344e+02 
-3.733115488481e+01 2.275977126029e+01 0.0 
2.275977126029e+01 -6.162614956691e+01 0.0 
0.0 0.0 -2.928719133552e+01 
-2.910639178881e+01 1.734956117226e+01 0.0 
1.734956117226e+01 -5.496434912566e+01 0.0 
0.0 0.0 -2.482122227434e+01 
-4.658945140055e+01 2.191651052642e+01 0.0 
2.191651052642e+01 -6.273374108181e+01 0.0 
0.0 0.0 -3.239695774471e+01 
-4.265037164694e+01 1.665377010491e+01 0.0 
1.665377010491e+01 -1.220590122106e+02 0.0 
0.0 0.0 -4.901281515727e+01 
-7.877392725200e+01 6.241681200938e+00 0.0 
6.241681200938e+00 -1.755343458028e+02 0.0 
0.0 0.0 -7.589248191644e+01 
-8.141856988635e+01 2.602199922193e+01 0.0 
2.602199922193e+01 -1.646149897317e+02 0.0 
0.0 0.0 -7.341006788542e+01 
-1.347126106137e+02 -1.531199491248e-01 0.0 
-1.531199491248e-01 -3.327745482416e+02 0.0 
0.0 0.0 -1.398461476566e+02 
-2.580496420238e+01 1.543845596470e+01 0.0 
1.543845596470e+01 -3.573344271756e+01 0.0 
0.0 0.0 -1.806152207598e+01 
-4.118352516517e+01 1.112578435506e+01 0.0 
1.112578435506e+01 -1.272757411526e+02 0.0 
0.0 0.0 -5.013777989532e+01 
-8.539024850185e+01 2.739998848700e+01 0.0 
2.739998848700e+01 -1.822302025392e+02 0.0 
0.0 0.0 -7.988613531230e+01 
-1.747187652120e+01 3.273622477802e+00 0.0 
3.273622477802e+00 -4.244807908641e+00 0.0 
0.0 0.0 -6.115005328951e+00 
-3.613760189397e+01 2.159988884033e+01 0.0 
2.159988884033e+01 -6.108310340973e+01 0.0 
0.0 0.0 -2.876621159111e+01 
-1.130113412678e+02 1.346371030241e+01 0.0 
1.346371030241e+01 -2.975520819576e+02 0.0 
0.0 0.0 -1.227690269676e+02 
-1.590828874050e+01 -1.088665043444e+00 0.0 
-1.088665043444e+00 -4.272641245521e+01 0.0 
0.0 0.0 -1.719041035871e+01 
-9.801062031496e+01 2.883054661848e+01 0.0 
2.883054661848e+01 -2.150300457629e+02 0.0 
0.0 0.0 -9.351219982335e+01 
-6.979436729873e+01 1.957806216284e+01 0.0 
1.957806216284e+01 -1.121988734098e+02 0.0 
0.0 0.0 -5.419797221257e+01 
-5.595855626598e+01 -1.230224324190e+00 0.0 
-1.230224324190e+00 -1.678033399918e+02 0.0 
0.0 0.0 -6.672856887732e+01 
-1.102310397903e+02 1.218997771210e+01 0.0 
1.218997771210e+01 -2.962393635741e+02 0.0 
0.0 0.0 -1.215411210093e+02 
-5.576893656211e+01 1.698556979857e+01 0.0 
1.698556979857e+01 -5.967903240828e+01 0.0 
0.0 0.0 -3.423439069112e+01 
-5.951581068994e+01 1.298372139569e+01 0.0 
1.298372139569e+01 -6.739463161690e+01 0.0 
0.0 0.0 -3.767313269205e+01 
-1.394220323167e+02 1.539908442969e+01 0.0 
1.539908442969e+01 -3.420111493390e+02 0.0 
0.0 0.0 -1.440299544967e+02 
-4.320469904131e+01 -3.008690255456e+00 0.0 
-3.008690255456e+00 -1.271445701352e+02 0.0 
0.0 0.0 -5.070478075294e+01 
-5.175388164534e+01 2.246906178707e+01 0.0 
2.246906178707e+01 -1.311586397299e+02 0.0 
0.0 0.0 -5.447375641258e+01 
-5.376491130244e+01 2.432918926953e+01 0.0 
2.432918926953e+01 -1.000793708602e+02 0.0 
0.0 0.0 -4.575328464879e+01 
-7.502753576677e+01 2.192049081568e+01 0.0 
2.192049081568e+01 -1.196405204422e+02 0.0 
0.0 0.0 -5.800041686268e+01 
-5.374448909474e+01 2.555016309832e+01 0.0 
2.555016309832e+01 -8.322305120987e+01 0.0 
0.0 0.0 -4.069026209138e+01 
-4.625315733360e+01 2.471619003242e+01 0.0 
2.471619003242e+01 -6.256690667503e+01 0.0 
0.0 0.0 -3.224601920259e+01 
-8.306434578871e+01 1.833021136476e+01 0.0 
1.833021136476e+01 -2.333916457860e+02 0.0 
0.0 0.0 -9.453679747241e+01 
-9.259414202555e+01 3.063400176444e+01 0.0 
3.063400176444e+01 -2.128633860302e+02 0.0 
0.0 0.0 -9.123725841673e+01 
-2.122306056747e+01 3.025156495929e+00 0.0 
3.025156495929e+00 -2.046538547964e+01 0.0 
0.0 0.0 -1.210653381413e+01 
-3.152207104882e+01 1.926459549027e+01 0.0 
1.926459549027e+01 -5.822766887303e+01 0.0 
0.0 0.0 -2.652492197656e+01 
-3.378129716903e+01 1.915583545203e+01 0.0 
1.915583545203e+01 -7.516374651395e+01 0.0 
0.0 0.0 -3.228351310489e+01 
-4.917157604362e+01 2.377230345113e+01 0.0 
2.377230345113e+01 -1.150849382297e+02 0.0 
0.0 0.0 -4.887695428201e+01 
-8.662615289714e+01 2.855473827910e+01 0.0 
2.855473827910e+01 -1.706093981522e+02 0.0 
0.0 0.0 -7.677066531479e+01 
-2.304592539516e+01 4.244542544757e+00 0.0 
4.244542544757e+00 -5.822638874014e+01 0.0 
0.0 0.0 -2.398169424059e+01 
-1.086167131986e+02 1.155039105056e+01 0.0 
1.155039105056e+01 -2.894760296621e+02 0.0 
0.0 0.0 -1.190278228582e+02 
-2.716851953573e+01 1.062123751326e+00 0.0 
1.062123751326e+00 -2.315298438564e+01 0.0 
0.0 0.0 -1.469645117641e+01 
-3.962413614857e+01 1.159512854965e+01 0.0 
1.159512854965e+01 -1.267083708847e+02 0.0 
0.0 0.0 -4.949975210997e+01 
-1.044088056932e+02 9.753680112582e+00 0.0 
9.753680112582e+00 -2.811387263980e+02 0.0 
0.0 0.0 -1.152642596273e+02 
-1.174472318272e+01 -8.608647697586e-01 0.0 
-8.608647697586e-01 -2.860768992317e+01 0.0 
0.0 0.0 -1.170572393177e+01 
-7.649908153011e+01 2.103405933085e+01 0.0 
2.103405933085e+01 -1.343621554402e+02 0.0 
0.0 0.0 -6.285837109108e+01 
-1.127998666914e+01 -1.340203142533e+00 0.0 
-1.340203142533e+00 -2.421529118767e+01 0.0 
0.0 0.0 -1.024858335704e+01 
-1.506858986995e+01 -1.384917047333e+00 0.0 
-1.384917047333e+00 -4.302044092961e+01 0.0 
0.0 0.0 -1.702670923987e+01 
-2.680761672519e+01 1.651370696682e+01 0.0 
1.651370696682e+01 -3.608489220280e+01 0.0 
0.0 0.0 -1.846775267840e+01 
-3.688046443380e+01 -3.278001602070e+00 0.0 
-3.278001602070e+00 -1.077302906666e+02 0.0 
0.0 0.0 -4.298322653013e+01 
-8.149273189573e+01 2.323249687394e+01 0.0 
2.323249687394e+01 -1.417506351766e+02 0.0 
0.0 0.0 -6.657301012171e+01 
-3.579326601663e+01 -2.444413051954e+00 0.0 
-2.444413051954e+00 -1.011680375076e+02 0.0 
0.0 0.0 -4.068839105728e+01 
-2.698052542157e+01 1.267836006886e+01 0.0 
1.267836006886e+01 -6.385558742423e+01 0.0 
0.0 0.0 -2.685083385374e+01 
-2.877463860757e+01 -2.701204834585e+00 0.0 
-2.701204834585e+00 -7.810934060062e+01 0.0 
0.0 0.0 -3.166519376246e+01 
-2.530255001912e+01 -3.444302760285e+00 0.0 
-3.444302760285e+00 -6.879321272264e+01 0.0 
0.0 0.0 -2.782872882253e+01 
-1.145069043095e+02 1.415588750710e+01 0.0 
1.415588750710e+01 -3.034314190582e+02 0.0 
0.0 0.0 -1.249814970103e+02 
-5.036036838208e+01 2.574084444875e+01 0.0 
2.574084444875e+01 -8.183001685628e+01 0.0 
0.0 0.0 -3.925711557151e+01 
-1.495187082897e+02 2.250284707905e+00 0.0 
2.250284707905e+00 -3.609916330372e+02 0.0 
0.0 0.0 -1.527531023981e+02 
-1.720040282992e+01 1.900917047638e+00 0.0 
1.900917047638e+00 -8.623391213928e+00 0.0 
0.0 0.0 -8.288837738007e+00 
-2.940471970335e+01 1.248077586741e+01 0.0 
1.248077586741e+01 -8.002336714898e+01 0.0 
0.0 0.0 -3.242842605570e+01 
-4.502322220902e+01 1.226294173068e+01 0.0 
1.226294173068e+01 -1.442824368630e+02 0.0 
0.0 0.0 -5.639169772161e+01 
-3.423613806943e+01 2.070920624282e+01 0.0 
2.070920624282e+01 -6.027820198566e+01 0.0 
0.0 0.0 -2.795430201653e+01 
-1.059762299242e+02 1.033636440681e+01 0.0 
1.033636440681e+01 -2.882278930132e+02 0.0 
0.0 0.0 -1.178612368812e+02 
-1.518439253954e+02 4.262236394168e+00 0.0 
4.262236394168e+00 -3.662511566436e+02 0.0 
0.0 0.0 -1.550285246117e+02 
-7.951560049860e+01 2.747756303812e+01 0.0 
2.747756303812e+01 -1.488307996002e+02 0.0 
0.0 0.0 -6.810392002964e+01 
-3.451103740522e+01 8.134329907280e+00 0.0 
8.134329907280e+00 -1.052611934968e+02 0.0 
0.0 0.0 -4.153166927060e+01 
-1.170753851982e+02 1.524202845710e+01 0.0 
1.524202845710e+01 -3.045428475164e+02 0.0 
0.0 0.0 -1.260854698144e+02 
-1.053373588491e+02 -5.927645246830e-01 0.0 
-5.927645246830e-01 -2.741503520862e+02 0.0 
0.0 0.0 -1.134463132806e+02 
-5.190780677478e+01 2.499799956864e+01 0.0 
2.499799956864e+01 -1.164146128550e+02 0.0 
0.0 0.0 -5.009672588893e+01 
-7.373101927926e+01 2.214170697721e+01 0.0 
2.214170697721e+01 -1.293154245969e+02 0.0 
0.0 0.0 -6.051393316286e+01 
-1.235153060107e+02 2.910251463734e+01 0.0 
2.910251463734e+01 -3.006025278985e+02 0.0 
0.0 0.0 -1.268353501727e+02 
-4.691616411459e+01 1.216307633631e+01 0.0 
1.216307633631e+01 -1.450643180010e+02 0.0 
0.0 0.0 -5.719414463467e+01 
-2.831588360485e+01 1.316541321988e+01 0.0 
1.316541321988e+01 -6.649397065986e+01 0.0 
0.0 0.0 -2.804295627941e+01 
-6.094283689937e+01 2.641948322659e+01 0.0 
2.641948322659e+01 -1.035765929439e+02 0.0 
0.0 0.0 -4.895582895299e+01 
-9.208044680393e+01 1.755681041481e+01 0.0 
1.755681041481e+01 -2.050236550721e+02 0.0 
0.0 0.0 -8.873123056280e+01 
-5.270479727119e+01 2.325846906033e+01 0.0 
2.325846906033e+01 -1.317054465368e+02 0.0 
0.0 0.0 -5.492307314241e+01 
-6.399523457967e+01 1.348449657414e+01 0.0 
1.348449657414e+01 -1.927473899742e+02 0.0 
0.0 0.0 -7.662278736616e+01 
-3.505638946123e+01 5.358503338595e-01 0.0 
5.358503338595e-01 -4.290914022506e+01 0.0 
0.0 0.0 -2.298965890589e+01 
-2.443624213770e+01 -3.068349347935e+00 0.0 
-3.068349347935e+00 -5.744695901931e+01 0.0 
0.0 0.0 -2.416496034710e+01 
-5.264328042012e+01 2.257741397083e+01 0.0 
2.257741397083e+01 -8.208463604276e+01 0.0 
0.0 0.0 -4.001837493887e+01 
-3.313926659219e+01 8.989975313241e+00 0.0 
8.989975313241e+00 -1.048645098135e+02 0.0 
0.0 0.0 -4.100113292171e+01 
-2.621569342995e+01 4.550727605199e+00 0.0 
4.550727605199e+00 -7.584702753027e+01 0.0 
0.0 0.0 -3.021881628807e+01 
-2.373997293306e+01 -2.140480566517e+00 0.0 
-2.140480566517e+00 -6.086063620012e+01 0.0 
0.0 0.0 -2.498018273995e+01 
-7.869873437175e+01 1.990809083489e+01 0.0 
1.990809083489e+01 -1.399499381674e+02 0.0 
0.0 0.0 -6.519460176175e+01 
-5.755127398481e+01 2.654518099724e+01 0.0 
2.654518099724e+01 -1.020420965454e+02 0.0 
0.0 0.0 -4.747801115907e+01 
-3.664069325810e+01 1.609042875268e+01 0.0 
1.609042875268e+01 -1.041571078708e+02 0.0 
0.0 0.0 -4.183934033868e+01 
-8.373896685082e+01 2.203748120901e+01 0.0 
2.203748120901e+01 -1.481186764993e+02 0.0 
0.0 0.0 -6.915729300503e+01 
-8.340953831539e+01 2.883621859838e+01 0.0 
2.883621859838e+01 -1.662732300669e+02 0.0 
0.0 0.0 -7.450483051469e+01 
-5.483583147707e+01 2.601087283329e+01 0.0 
2.601087283329e+01 -1.176589589370e+02 0.0 
0.0 0.0 -5.134843712422e+01 
-1.535481725057e+02 6.464058853636e+00 0.0 
6.464058853636e+00 -3.657537210113e+02 0.0 
0.0 0.0 -1.553905680551e+02 
-6.634013678335e+01 1.239380314926e+01 0.0 
1.239380314926e+01 -2.040536099629e+02 0.0 
0.0 0.0 -8.071812402387e+01 
-5.799751377830e+01 2.674311598825e+01 0.0 
2.674311598825e+01 -1.188787479135e+02 0.0 
0.0 0.0 -5.266287850754e+01 
-4.828787721038e+01 1.736343808420e+01 0.0 
1.736343808420e+01 -1.396675211434e+02 0.0 
0.0 0.0 -5.598661950615e+01 
-7.159239731011e+01 1.485438945930e+01 0.0 
1.485438945930e+01 -2.104983608798e+02 0.0 
0.0 0.0 -8.422722745699e+01 
-2.960950235887e+01 4.849967846442e+00 0.0 
4.849967846442e+00 -9.291948869491e+01 0.0 
0.0 0.0 -3.635869731613e+01 
-4.137029120272e+01 7.757037897894e+00 0.0 
7.757037897894e+00 -2.874437589283e+01 0.0 
0.0 0.0 -2.063440012866e+01 
-5.053324794131e+01 1.104264230114e+01 0.0 
1.104264230114e+01 -1.575696633274e+02 0.0 
0.0 0.0 -6.203087338060e+01 
-3.996362355891e+01 1.324351042553e+00 0.0 
1.324351042553e+00 -1.242522975108e+02 0.0 
0.0 0.0 -4.886477632092e+01 
-7.768770265677e+01 2.437406295668e+01 0.0 
2.437406295668e+01 -1.472176150977e+02 0.0 
0.0 0.0 -6.707159532634e+01 
-2.233467798431e+01 9.018748220305e-01 0.0 
9.018748220305e-01 -6.106313438296e+00 0.0 
0.0 0.0 -8.132297426780e+00 
-5.714733402731e+01 2.509820739110e+01 0.0 
2.509820739110e+01 -8.489181039026e+01 0.0 
0.0 0.0 -4.221174332527e+01 
-3.564642566795e+01 7.486935524380e+00 0.0 
7.486935524380e+00 -1.165139479486e+02 0.0 
0.0 0.0 -4.524811208495e+01 
-2.992989022205e+01 1.135274035879e+01 0.0 
1.135274035879e+01 -8.002200235920e+01 0.0 
0.0 0.0 -3.258556777438e+01 
-3.132041166164e+01 3.986419186874e+00 0.0 
3.986419186874e+00 -9.343265686347e+01 0.0 
0.0 0.0 -3.702592055753e+01 
-6.426016122598e+01 2.486048421710e+01 0.0 
2.486048421710e+01 -1.212108236567e+02 0.0 
0.0 0.0 -5.524129546480e+01 
-1.855878951842e+01 -2.337716337365e+00 0.0 
-2.337716337365e+00 -4.147027891773e+01 0.0 
0.0 0.0 -1.760872053085e+01 
-3.557410363884e+01 2.021344257592e+01 0.0 
2.021344257592e+01 -7.694808972263e+01 0.0 
0.0 0.0 -3.335665800844e+01 
-7.418654060266e+01 1.368022896646e+01 0.0 
1.368022896646e+01 -2.219137354961e+02 0.0 
0.0 0.0 -8.843008282963e+01 
-5.685520329310e+01 2.407609676603e+01 0.0 
2.407609676603e+01 -1.011353244489e+02 0.0 
0.0 0.0 -4.699715832260e+01 
-5.234343563087e+01 1.250129042399e+01 0.0 
1.250129042399e+01 -5.368228709238e+01 0.0 
0.0 0.0 -3.140771681697e+01 
-2.251184270375e+01 2.807615899506e+00 0.0 
2.807615899506e+00 -5.133240854531e+01 0.0 
0.0 0.0 -2.175327537472e+01 
-3.767541502908e+01 1.448829642173e+00 0.0 
1.448829642173e+00 -1.233102234763e+02 0.0 
0.0 0.0 -4.789569155162e+01 
-3.783855698608e+01 -3.670421074306e-02 0.0 
-3.670421074306e-02 -1.155901330097e+02 0.0 
0.0 0.0 -4.562860699874e+01 
-3.305554443803e+01 2.018696037575e+01 0.0 
2.018696037575e+01 -5.920852487165e+01 0.0 
0.0 0.0 -2.727922079290e+01 
-7.565693304002e+01 2.571732948750e+01 0.0 
2.571732948750e+01 -1.310878308686e+02 0.0 
0.0 0.0 -6.162342917260e+01 
-3.670477519194e+01 2.084412715865e+01 0.0 
2.084412715865e+01 -7.756265205883e+01 0.0 
0.0 0.0 -3.388022817523e+01 
-4.615480218375e+01 9.093890621257e+00 0.0 
9.093890621257e+00 -1.511647480282e+02 0.0 
0.0 0.0 -5.879586506358e+01 
-4.272980638237e+01 1.027920610946e+01 0.0 
1.027920610946e+01 -1.392395545786e+02 0.0 
0.0 0.0 -5.419080828828e+01 
-2.446492539575e+01 3.178147569711e+00 0.0 
3.178147569711e+00 -5.826823747909e+01 0.0 
0.0 0.0 -2.441994886245e+01 
-5.027034445727e+01 1.614343782588e+01 0.0 
1.614343782588e+01 -1.529478226961e+02 0.0 
0.0 0.0 -6.056545014603e+01 
-2.479557448704e+01 1.150566603580e+01 0.0 
1.150566603580e+01 -4.779511537321e+01 0.0 
0.0 0.0 -2.137720695808e+01 
-1.035061240537e+02 3.090267820025e+01 0.0 
3.090267820025e+01 -2.298856783851e+02 0.0 
0.0 0.0 -9.961754073165e+01 
-1.075308654368e+02 3.476304780878e+01 0.0 
3.476304780878e+01 -2.430594228764e+02 0.0 
0.0 0.0 -1.047770864940e+02 
-5.534209338655e+01 2.193629321640e+01 0.0 
2.193629321640e+01 -1.472197842271e+02 0.0 
0.0 0.0 -6.036856328409e+01 
-3.135578203656e+01 6.907720707703e+00 0.0 
6.907720707703e+00 -9.938701593647e+01 0.0 
0.0 0.0 -3.882283939191e+01 
-2.848928380635e+01 9.263246926304e+00 0.0 
9.263246926304e+00 -7.612468583115e+01 0.0 
0.0 0.0 -3.098419089125e+01 
-6.118148394278e+01 2.521479098251e+01 0.0 
2.521479098251e+01 -1.358935070347e+02 0.0 
0.0 0.0 -5.872249729325e+01 
-3.052104250374e+01 7.544875149335e+00 0.0 
7.544875149335e+00 -8.827368382033e+01 0.0 
0.0 0.0 -3.523841789722e+01 
-3.567278598530e+01 -1.164298327335e-01 0.0 
-1.164298327335e-01 -1.146548980582e+02 0.0 
0.0 0.0 -4.469830521304e+01 
-5.111919971122e+01 2.378042510190e+01 0.0 
2.378042510190e+01 -1.157714046450e+02 0.0 
0.0 0.0 -4.966718130686e+01 
-8.570025414728e+01 1.102232179853e+01 0.0 
1.102232179853e+01 -1.809860294624e+02 0.0 
0.0 0.0 -7.960588508290e+01 
-3.756425155632e+01 9.536724943879e+00 0.0 
9.536724943879e+00 -1.219169394583e+02 0.0 
0.0 0.0 -4.744435730438e+01 
-8.072815541573e+01 1.765880388937e+01 0.0 
1.765880388937e+01 -2.322818518947e+02 0.0 
0.0 0.0 -9.350300219311e+01 
-2.554283551597e+01 1.081328926336e+01 0.0 
1.081328926336e+01 -6.010368415613e+01 0.0 
0.0 0.0 -2.529395590163e+01 
-1.511245715190e+02 1.926157572566e+01 0.0 
1.926157572566e+01 -3.632417802666e+02 0.0 
0.0 0.0 -1.539099055357e+02 
-2.938242916797e+01 8.640149283510e+00 0.0 
8.640149283510e+00 -8.804519943084e+01 0.0 
0.0 0.0 -3.482828857964e+01 
-5.471167657819e+01 2.360374511459e+01 0.0 
2.360374511459e+01 -1.328715955610e+02 0.0 
0.0 0.0 -5.587498164176e+01 
-2.478297902328e+01 2.640768949077e+00 0.0 
2.640768949077e+00 -6.860862929438e+01 0.0 
0.0 0.0 -2.761748249530e+01 
-8.577697928823e+01 9.831582444060e+00 0.0 
9.831582444060e+00 -2.487465496675e+02 0.0 
0.0 0.0 -9.995705868673e+01 
-4.855798733937e+01 1.109139872423e+01 0.0 
1.109139872423e+01 -1.567445157133e+02 0.0 
0.0 0.0 -6.119075091579e+01 
-3.878234506747e+01 -5.856969511631e-01 0.0 
-5.856969511631e-01 -1.242426906915e+02 0.0 
0.0 0.0 -4.850751072768e+01 
-5.421439370196e+01 2.645527674676e+01 0.0 
2.645527674676e+01 -1.006606837153e+02 0.0 
0.0 0.0 -4.606252322518e+01 
-1.161974774597e+02 3.789997349778e+01 0.0 
3.789997349778e+01 -2.695975309597e+02 0.0 
0.0 0.0 -1.153385025258e+02 
-4.057102077673e+01 8.229358093549e+00 0.0 
8.229358093549e+00 -1.337667232082e+02 0.0 
0.0 0.0 -5.190132319547e+01 
-7.651830576841e+01 1.423089834970e+01 0.0 
1.423089834970e+01 -2.230145867498e+02 0.0 
0.0 0.0 -8.945986775546e+01 
-2.565303460980e+01 9.136558116018e+00 0.0 
9.136558116018e+00 -5.982265614244e+01 0.0 
0.0 0.0 -2.524270722567e+01 
-5.838541073274e+01 6.792539289285e+00 0.0 
6.792539289285e+00 -8.191429619289e+01 0.0 
0.0 0.0 -4.168991207769e+01 
-1.018971740692e+02 8.590627513031e+00 0.0 
8.590627513031e+00 -2.798602951346e+02 0.0 
0.0 0.0 -1.141272407611e+02 
-2.991400740320e+01 1.498502100132e+01 0.0 
1.498502100132e+01 -6.918522833127e+01 0.0 
0.0 0.0 -2.932977072034e+01 
-5.704224298539e+01 7.376137353769e+00 0.0 
7.376137353769e+00 -7.317065951090e+01 0.0 
0.0 0.0 -3.866387074889e+01 
-1.242945868737e+02 3.759485015359e+01 0.0 
3.759485015359e+01 -2.944311112938e+02 0.0 
0.0 0.0 -1.252177094503e+02 
-1.120464293746e+02 9.978673280603e+00 0.0 
9.978673280603e+00 -2.986207553334e+02 0.0 
0.0 0.0 -1.228001554124e+02 
-1.135351836643e+02 3.726241548656e+01 0.0 
3.726241548656e+01 -2.607888001872e+02 0.0 
0.0 0.0 -1.118971951554e+02 
-6.079271945823e+01 1.149385656785e+01 0.0 
1.149385656785e+01 -7.485371211056e+01 0.0 
0.0 0.0 -4.029392947064e+01 
-8.375015807970e+01 2.966398927073e+01 0.0 
2.966398927073e+01 -1.799549192802e+02 0.0 
0.0 0.0 -7.871152320796e+01 
-2.739768727282e+01 1.496528527178e+01 0.0 
1.496528527178e+01 -5.240776831365e+01 0.0 
0.0 0.0 -2.354163667594e+01 
-4.754197884916e+01 2.549375226730e+01 0.0 
2.549375226730e+01 -8.160949390387e+01 0.0 
0.0 0.0 -3.834544182591e+01 
-5.746119265133e+01 2.492706431931e+01 0.0 
2.492706431931e+01 -1.182802562333e+02 0.0 
0.0 0.0 -5.232243466539e+01 
-6.135622805413e+01 2.716657827530e+01 0.0 
2.716657827530e+01 -1.202969028754e+02 0.0 
0.0 0.0 -5.409593927887e+01 
-5.000034622900e+01 2.178564045379e+01 0.0 
2.178564045379e+01 -1.298322291897e+02 0.0 
0.0 0.0 -5.354977262560e+01 
-1.299538746764e+02 3.595658941600e+01 0.0 
3.595658941600e+01 -3.100695399590e+02 0.0 
0.0 0.0 -1.316070243906e+02 
-5.912385866990e+01 1.544485941570e+01 0.0 
1.544485941570e+01 -7.467225343837e+01 0.0 
0.0 0.0 -3.973883363248e+01 
-5.007370093775e+01 2.397084738580e+01 0.0 
2.397084738580e+01 -6.444591320178e+01 0.0 
0.0 0.0 -3.395588424186e+01 
-4.457166656022e+01 9.961314724062e+00 0.0 
9.961314724062e+00 -1.399513119582e+02 0.0 
0.0 0.0 -5.495689355552e+01 
-3.101806957940e+01 -3.500988713677e+00 0.0 
-3.500988713677e+00 -8.844534734099e+01 0.0 
0.0 0.0 -3.543902507612e+01 
-4.374837600763e+01 2.467596088971e+01 0.0 
2.467596088971e+01 -6.294602938981e+01 0.0 
0.0 0.0 -3.160832161923e+01 
-3.083978278722e+01 1.416615267235e+01 0.0 
1.416615267235e+01 -8.324535315721e+01 0.0 
0.0 0.0 -3.382554078333e+01 
-2.748060187783e+01 2.080806638537e-01 0.0 
2.080806638537e-01 -2.531970928326e+01 0.0 
0.0 0.0 -1.544009334832e+01 
-4.105793314172e+01 -4.529695895738e-01 0.0 
-4.529695895738e-01 -1.252358975783e+02 0.0 
0.0 0.0 -4.948814921601e+01 
-3.921419601699e+01 8.967563426345e+00 0.0 
8.967563426345e+00 -1.225009127777e+02 0.0 
0.0 0.0 -4.811453263840e+01 
-8.043640341781e+01 2.346929140030e+01 0.0 
2.346929140030e+01 -1.515353778528e+02 0.0 
0.0 0.0 -6.919153438119e+01 
-3.156578783727e+01 1.341223187299e+01 0.0 
1.341223187299e+01 -8.341347452886e+01 0.0 
0.0 0.0 -3.409377870984e+01 
-5.032425766263e+01 2.415863113053e+01 0.0 
2.415863113053e+01 -9.908295620308e+01 0.0 
0.0 0.0 -4.442216415971e+01 
-7.913006291537e+01 1.297151287638e+01 0.0 
1.297151287638e+01 -2.337352338467e+02 0.0 
0.0 0.0 -9.345958902864e+01 
-7.702952347794e+01 2.988700341111e+00 0.0 
2.988700341111e+00 -2.249396331667e+02 0.0 
0.0 0.0 -9.019074699339e+01 
-1.379540426039e+02 3.177328736650e+01 0.0 
3.177328736650e+01 -3.312120601950e+02 0.0 
0.0 0.0 -1.403498308397e+02 
-3.926655799738e+01 2.370043445638e+01 0.0 
2.370043445638e+01 -6.230228305796e+01 0.0 
0.0 0.0 -3.007065231660e+01 
-3.465257743334e+01 2.320919092827e+00 0.0 
2.320919092827e+00 -1.133564701534e+02 0.0 
0.0 0.0 -4.400271427602e+01 
-5.451072047734e+01 -4.612035696636e-01 0.0 
-4.612035696636e-01 -1.605235089529e+02 0.0 
0.0 0.0 -6.411026882907e+01 
-2.984491691445e+01 1.750847570390e+01 0.0 
1.750847570390e+01 -5.531041243938e+01 0.0 
0.0 0.0 -2.514659880615e+01 
-2.968773314699e+01 1.567355902543e+01 0.0 
1.567355902543e+01 -6.919717689634e+01 0.0 
0.0 0.0 -2.926547301300e+01 
-9.051909249354e+01 2.993162516648e+01 0.0 
2.993162516648e+01 -1.878625538579e+02 0.0 
0.0 0.0 -8.311449390542e+01 
-5.862030105624e+01 2.583365386463e+01 0.0 
2.583365386463e+01 -1.350166552181e+02 0.0 
0.0 0.0 -5.769108688230e+01 
-3.588413785808e+01 2.192526724040e+01 0.0 
2.192526724040e+01 -6.112655701494e+01 0.0 
0.0 0.0 -2.870320846191e+01 
-4.362793750284e+01 2.317741593765e+01 0.0 
2.317741593765e+01 -8.014570822338e+01 0.0 
0.0 0.0 -3.673209371787e+01 
-1.456845559797e+02 2.469050630544e+01 0.0 
2.469050630544e+01 -3.515084350144e+02 0.0 
0.0 0.0 -1.487578972982e+02 
-1.343752500102e+02 2.409858465135e+01 0.0 
2.409858465135e+01 -3.316037369690e+02 0.0 
0.0 0.0 -1.393936960938e+02 
-8.823590597227e+01 2.720411200308e+01 0.0 
2.720411200308e+01 -1.860540624840e+02 0.0 
0.0 0.0 -8.188699053688e+01 
-7.896902012311e+01 2.454998118802e+01 0.0 
2.454998118802e+01 -1.362822153720e+02 0.0 
0.0 0.0 -6.417537064855e+01 
-7.487138898727e+01 4.001891498181e+00 0.0 
4.001891498181e+00 -2.167293222615e+02 0.0 
0.0 0.0 -8.708021337462e+01 
-3.931544078667e+01 2.018136942376e+01 0.0 
2.018136942376e+01 -9.390010747105e+01 0.0 
0.0 0.0 -3.956466447731e+01 
-3.293151905867e+01 6.021474374857e+00 0.0 
6.021474374857e+00 -9.985327517077e+01 0.0 
0.0 0.0 -3.943543826883e+01 
-3.740195886839e+01 6.838928196770e+00 0.0 
6.838928196770e+00 -1.171159061961e+02 0.0 
0.0 0.0 -4.595535951935e+01 
-5.556032513495e+01 2.465949830242e+01 0.0 
2.465949830242e+01 -1.334544402430e+02 0.0 
0.0 0.0 -5.630442961338e+01 
-8.319454784028e+01 1.108141722828e+01 0.0 
1.108141722828e+01 -2.393150343493e+02 0.0 
0.0 0.0 -9.635287465689e+01 
-6.944258617938e+01 5.036237087540e-01 0.0 
5.036237087540e-01 -1.949847696700e+02 0.0 
0.0 0.0 -7.892820675482e+01 
-8.663529012250e+01 2.498363152869e+01 0.0 
2.498363152869e+01 -1.733776119212e+02 0.0 
0.0 0.0 -7.760387061311e+01 
-3.682104683300e+01 1.931347477957e+00 0.0 
1.931347477957e+00 -1.141883033931e+02 0.0 
0.0 0.0 -4.490280506782e+01 
-4.740078062971e+01 2.014371976998e+01 0.0 
2.014371976998e+01 -1.276687875922e+02 0.0 
0.0 0.0 -5.212087046657e+01 
-5.407691946030e+01 2.443404070931e+01 0.0 
2.443404070931e+01 -1.169047815723e+02 0.0 
0.0 0.0 -5.089451030979e+01 
-4.197947893235e+01 1.935886562231e+01 0.0 
1.935886562231e+01 -1.098458076715e+02 0.0 
0.0 0.0 -4.514758598116e+01 
-1.111574157782e+02 3.631016894681e+01 0.0 
3.631016894681e+01 -2.522722768735e+02 0.0 
0.0 0.0 -1.086289077955e+02 
-1.045476078045e+02 3.264053203006e+01 0.0 
3.264053203006e+01 -2.358518052450e+02 0.0 
0.0 0.0 -1.017198239149e+02 
-1.014615111813e+02 3.166968651751e+01 0.0 
3.166968651751e+01 -2.170951819674e+02 0.0 
0.0 0.0 -9.516700794458e+01 
-8.285131996130e+01 5.338078029023e+00 0.0 
5.338078029023e+00 -2.352214717912e+02 0.0 
0.0 0.0 -9.502183752575e+01 
-8.036895986803e+01 1.881352231699e+01 0.0 
1.881352231699e+01 -1.460957775927e+02 0.0 
0.0 0.0 -6.753942123822e+01 
-2.832973648086e+01 1.430097162832e+01 0.0 
1.430097162832e+01 -6.668845815479e+01 0.0 
0.0 0.0 -2.810545839069e+01 
-4.249961902121e+01 7.810103765476e+00 0.0 
7.810103765476e+00 -1.344917899599e+02 0.0 
0.0 0.0 -5.269742269434e+01 
-2.767392126972e+01 3.375122255474e+00 0.0 
3.375122255474e+00 -7.617664100272e+01 0.0 
0.0 0.0 -3.075516868173e+01 
-3.849289440317e+01 2.190456087112e+01 0.0 
2.190456087112e+01 -7.875954489188e+01 0.0 
0.0 0.0 -3.477573178852e+01 
-3.965605449030e+01 4.731631565119e+00 0.0 
4.731631565119e+00 -2.729854031946e+01 0.0 
0.0 0.0 -1.968637844293e+01 
-5.564503992273e+01 7.213185414934e+00 0.0 
7.213185414934e+00 -7.207915962260e+01 0.0 
0.0 0.0 -3.791725986360e+01 
-1.402741805728e+02 1.874360063011e+01 0.0 
1.874360063011e+01 -3.463562804508e+02 0.0 
0.0 0.0 -1.455891383071e+02 
-8.897757945105e+01 2.831137685569e+01 0.0 
2.831137685569e+01 -1.988967107571e+02 0.0 
0.0 0.0 -8.596228706244e+01 
-6.043049319039e+01 2.349561414134e+01 0.0 
2.349561414134e+01 -1.027204827848e+02 0.0 
0.0 0.0 -4.854529279254e+01 
-6.456002894134e+01 2.563229433734e+01 0.0 
2.563229433734e+01 -1.374541676943e+02 0.0 
0.0 0.0 -6.020425899070e+01 
-2.809145335712e+01 2.962032091959e+00 0.0 
2.962032091959e+00 -8.588463750153e+01 0.0 
0.0 0.0 -3.379282725760e+01 
-2.065308591096e+01 -2.908148921404e+00 0.0 
-2.908148921404e+00 -4.215572949043e+01 0.0 
0.0 0.0 -1.844264462042e+01 
-4.749965622228e+01 1.421769630715e+01 0.0 
1.421769630715e+01 -1.488015424215e+02 0.0 
0.0 0.0 -5.849035959313e+01 
-5.351825199124e+01 2.101605298268e+01 0.0 
2.101605298268e+01 -1.454340693924e+02 0.0 
0.0 0.0 -5.928569641509e+01 
-5.181357328042e+01 1.630353948971e+01 0.0 
1.630353948971e+01 -1.536355050493e+02 0.0 
0.0 0.0 -6.123472349891e+01 
-2.349454152408e+01 1.260844856970e+01 0.0 
1.260844856970e+01 -2.991775589994e+01 0.0 
0.0 0.0 -1.562368922721e+01 
-3.419291421057e+01 -4.919164166673e-02 0.0 
-4.919164166673e-02 -4.192260986121e+01 0.0 
0.0 0.0 -2.243465722153e+01 
-2.963566576901e+01 -2.572189358036e+00 0.0 
-2.572189358036e+00 -8.126512671705e+01 0.0 
0.0 0.0 -3.287023774582e+01 
-3.103381875640e+01 1.063291355036e+01 0.0 
1.063291355036e+01 -9.271195355772e+01 0.0 
0.0 0.0 -3.672373169423e+01 
-1.553399854983e+02 1.933717849017e+01 0.0 
1.933717849017e+01 -3.637932994961e+02 0.0 
0.0 0.0 -1.553399854983e+02 
-8.854614487358e+01 1.789423417888e+01 0.0 
1.789423417888e+01 -2.467336420419e+02 0.0 
0.0 0.0 -1.001839360747e+02 
-4.846040718449e+01 2.056289093578e+01 0.0 
2.056289093578e+01 -6.316340071642e+01 0.0 
0.0 0.0 -3.308714237027e+01 
-2.108532436705e+01 -9.028562035128e-01 0.0 
-9.028562035128e-01 -5.937508831311e+01 0.0 
0.0 0.0 -2.373812380405e+01 
-4.896913790250e+01 2.120464463542e+01 0.0 
2.120464463542e+01 -1.292801384851e+02 0.0 
0.0 0.0 -5.307478291629e+01 
-4.928497952138e+01 1.423423887472e+01 0.0 
1.423423887472e+01 -1.495627832131e+02 0.0 
0.0 0.0 -5.925432882034e+01 
-6.477397504714e+01 2.730827946871e+01 0.0 
2.730827946871e+01 -1.218741722304e+02 0.0 
0.0 0.0 -5.559444418325e+01 
-1.184525029560e+02 3.794024327232e+01 0.0 
3.794024327232e+01 -2.779950314833e+02 0.0 
0.0 0.0 -1.185342603318e+02 
-4.646352592931e+01 2.345743812696e+01 0.0 
2.345743812696e+01 -8.082145128085e+01 0.0 
0.0 0.0 -3.778549316305e+01 
-6.181884145492e+01 2.681173981388e+01 0.0 
2.681173981388e+01 -1.364581667057e+02 0.0 
0.0 0.0 -5.908310244818e+01 
-6.772163310595e+01 -7.980668976342e-01 0.0 
-7.980668976342e-01 -1.939761465604e+02 0.0 
0.0 0.0 -7.810933389991e+01 
-8.278990523556e+01 2.266693906325e+01 0.0 
2.266693906325e+01 -1.564894121549e+02 0.0 
0.0 0.0 -7.138379521715e+01 
-8.533035086913e+01 4.218747532717e+00 0.0 
4.218747532717e+00 -2.436478046603e+02 0.0 
0.0 0.0 -9.829344665884e+01 
-1.218149896822e+02 3.817020123473e+01 0.0 
3.817020123473e+01 -2.862863560580e+02 0.0 
0.0 0.0 -1.220304037221e+02 
-1.088118924828e+02 3.456875569654e+01 0.0 
3.456875569654e+01 -2.552277491266e+02 0.0 
0.0 0.0 -1.088118924828e+02 
-9.506314970978e+01 2.793583487091e+01 0.0 
2.793583487091e+01 -2.231473493228e+02 0.0 
0.0 0.0 -9.506314970978e+01 
-1.007627062406e+02 3.163294572796e+01 0.0 
3.163294572796e+01 -2.364463145614e+02 0.0 
0.0 0.0 -1.007627062406e+02 
-6.804975033908e+01 2.575486624721e+01 0.0 
2.575486624721e+01 -1.392022394341e+02 0.0 
0.0 0.0 -6.177559693196e+01 
-8.530293564566e+01 2.569002579874e+01 0.0 
2.569002579874e+01 -1.581218355770e+02 0.0 
0.0 0.0 -7.262743136680e+01 
-9.226472716600e+01 2.880918046281e+01 0.0 
2.880918046281e+01 -2.037333283716e+02 0.0 
0.0 0.0 -8.839941666128e+01 
-4.085074190644e+01 1.911616992557e+01 0.0 
1.911616992557e+01 -1.093231613031e+02 0.0 
0.0 0.0 -4.465217096287e+01 
-3.800637982908e+01 1.974642753040e+01 0.0 
1.974642753040e+01 -9.326489753399e+01 0.0 
0.0 0.0 -3.898138320892e+01 
-6.572639516612e+01 6.988491486385e-02 0.0 
6.988491486385e-02 -1.843383374826e+02 0.0 
0.0 0.0 -7.461941979463e+01 
-8.925114592707e+01 2.796841082402e+01 0.0 
2.796841082402e+01 -1.751194381152e+02 0.0 
0.0 0.0 -7.891117521267e+01 
-1.270791533555e+02 3.691173916973e+01 0.0 
3.691173916973e+01 -3.023476099723e+02 0.0 
0.0 0.0 -1.284280289983e+02 
-8.448160235054e+01 2.165151680865e+01 0.0 
2.165151680865e+01 -1.618196034607e+02 0.0 
0.0 0.0 -7.349036174336e+01 
-7.978814200368e+01 1.633295374816e+01 0.0 
1.633295374816e+01 -2.285373619698e+02 0.0 
0.0 0.0 -9.209765119204e+01 
-8.747015831043e+01 2.469396369598e+01 0.0 
2.469396369598e+01 -1.636833924381e+02 0.0 
0.0 0.0 -7.494606522457e+01 
-8.333353838591e+01 2.523837111862e+01 0.0 
2.523837111862e+01 -2.175533707718e+02 0.0 
0.0 0.0 -8.986607274730e+01 
-4.968482448981e+01 1.896296250555e+01 0.0 
1.896296250555e+01 -1.422589042421e+02 0.0 
0.0 0.0 -5.718311861956e+01 
-3.728125633696e+01 2.115722697155e+01 0.0 
2.115722697155e+01 -7.813104956452e+01 0.0 
0.0 0.0 -3.422369177044e+01 
-2.638528890448e+01 8.550433288333e+00 0.0 
8.550433288333e+00 -7.150842366981e+01 0.0 
0.0 0.0 -2.896811377229e+01 
-8.564007593006e+01 1.805769872945e+01 0.0 
1.805769872945e+01 -1.879497875806e+02 0.0 
0.0 0.0 -8.167695905321e+01 
-3.873156198646e+01 1.771519469769e+01 0.0 
1.771519469769e+01 -1.071010782657e+02 0.0 
0.0 0.0 -4.334979207563e+01 
-1.145203147952e+02 3.042171937592e+01 0.0 
3.042171937592e+01 -2.768211213661e+02 0.0 
0.0 0.0 -1.170024308484e+02 
-6.418905882897e+01 -1.290995841154e+00 0.0 
-1.290995841154e+00 -1.833943771165e+02 0.0 
0.0 0.0 -7.387503078363e+01 
-3.874686076463e+01 -1.500028575460e+00 0.0 
-1.500028575460e+00 -1.156298480662e+02 0.0 
0.0 0.0 -4.591301264925e+01 
-1.454049339713e+02 1.704807666817e+01 0.0 
1.704807666817e+01 -3.502497860210e+02 0.0 
0.0 0.0 -1.482964159977e+02 
-3.272180799551e+01 1.255287456766e+01 0.0 
1.255287456766e+01 -9.664903057387e+01 0.0 
0.0 0.0 -3.841125157081e+01 
-1.127321633457e+02 3.552374597040e+01 0.0 
3.552374597040e+01 -2.643750478065e+02 0.0 
0.0 0.0 -1.127321633457e+02 
-9.663788505012e+01 2.832137806116e+01 0.0 
2.832137806116e+01 -2.141292777551e+02 0.0 
0.0 0.0 -9.283014884158e+01 
-6.161376098673e+01 2.435502118074e+01 0.0 
2.435502118074e+01 -1.512141848882e+02 0.0 
0.0 0.0 -6.344838376248e+01 
-1.396089813018e+01 -2.050238888122e+00 0.0 
-2.050238888122e+00 -2.480135898950e+01 0.0 
0.0 0.0 -1.165572596473e+01 
-1.202675872079e+02 3.601851769409e+01 0.0 
3.601851769409e+01 -2.819577034851e+02 0.0 
0.0 0.0 -1.202675872079e+02 
-1.424012112100e+02 2.048412707020e+01 0.0 
2.048412707020e+01 -3.431753595688e+02 0.0 
0.0 0.0 -1.452729712336e+02 
-3.660355999285e+01 -1.833812938238e+00 0.0 
-1.833812938238e+00 -1.146492180138e+02 0.0 
0.0 0.0 -4.497583340200e+01 
-8.497730739137e+01 1.574515230309e+01 0.0 
1.574515230309e+01 -2.410505326039e+02 0.0 
0.0 0.0 -9.740835199857e+01 
-1.400347874455e+02 2.999891093130e+01 0.0 
2.999891093130e+01 -3.369780594587e+02 0.0 
0.0 0.0 -1.427038540713e+02 
-1.049629557932e+01 -8.276216981558e-01 0.0 
-8.276216981558e-01 -8.879536404642e+00 0.0 
0.0 0.0 -6.382662737975e+00 
-4.392722661968e+01 1.829423325551e+01 0.0 
1.829423325551e+01 -1.247725290408e+02 0.0 
0.0 0.0 -5.020992669815e+01 
-6.499327215983e+01 2.525935484554e+01 0.0 
2.525935484554e+01 -1.530400544796e+02 0.0 
0.0 0.0 -6.500999799184e+01 
-5.840580527093e+01 2.324063232001e+01 0.0 
2.324063232001e+01 -1.493150634217e+02 0.0 
0.0 0.0 -6.191626060778e+01 
-5.782412862749e+01 2.453246503172e+01 0.0 
2.453246503172e+01 -1.344175663085e+02 0.0 
0.0 0.0 -5.727250848080e+01 
-2.782506293525e+01 1.053464233975e+01 0.0 
1.053464233975e+01 -7.611715118757e+01 0.0 
0.0 0.0 -3.078266423685e+01 
-1.276730477980e+02 3.534386766703e+01 0.0 
3.534386766703e+01 -2.992371115287e+02 0.0 
0.0 0.0 -1.276730477980e+02 
-4.818771640185e+01 8.906292480971e+00 0.0 
8.906292480971e+00 -1.519834587101e+02 0.0 
0.0 0.0 -5.965135253357e+01 
-2.350044246793e+01 1.018242386277e+00 0.0 
1.018242386277e+00 -5.132150509728e+01 0.0 
0.0 0.0 -2.204658426956e+01 
-1.502278941013e+02 7.160983507763e+00 0.0 
7.160983507763e+00 -3.640814919440e+02 0.0 
0.0 0.0 -1.538928158136e+02 
-1.614912519479e+01 -1.958745905869e+00 0.0 
-1.958745905869e+00 -2.524786056366e+01 0.0 
0.0 0.0 -1.201909572753e+01 
-4.113004369418e+01 2.262039864220e+01 0.0 
2.262039864220e+01 -7.941448530114e+01 0.0 
0.0 0.0 -3.576335869860e+01 
-2.246381711523e+01 -2.591079817429e+00 0.0 
-2.591079817429e+00 -5.842093066160e+01 0.0 
0.0 0.0 -2.386542433305e+01 
-4.252878583298e+01 2.228425435859e+01 0.0 
2.228425435859e+01 -6.199430334889e+01 0.0 
0.0 0.0 -3.095692675456e+01 
-1.477440000654e+02 2.280029408689e+01 0.0 
2.280029408689e+01 -3.558302971909e+02 0.0 
0.0 0.0 -1.506722891769e+02 
-1.346787285777e+02 3.352815370739e+01 0.0 
3.352815370739e+01 -3.155837000147e+02 0.0 
0.0 0.0 -1.346787285777e+02 
-6.074976435532e+01 2.504468655651e+01 0.0 
2.504468655651e+01 -1.196176724333e+02 0.0 
0.0 0.0 -5.371023103659e+01 
-1.863342817174e+01 -2.717827059804e+00 0.0 
-2.717827059804e+00 -4.187544341874e+01 0.0 
0.0 0.0 -1.775266147714e+01 
-2.110087187124e+01 7.382074307619e-01 0.0 
7.382074307619e-01 -4.262070226908e+01 0.0 
0.0 0.0 -1.871647224210e+01 
-2.550826199774e+01 -2.916064528206e+00 0.0 
-2.916064528206e+00 -5.797149176735e+01 0.0 
0.0 0.0 -2.464392612952e+01 
-1.256823014348e+02 8.253596693408e+00 0.0 
8.253596693408e+00 -3.191953292307e+02 0.0 
0.0 0.0 -1.330632891996e+02 
-3.939446378164e+01 6.461107918536e+00 0.0 
6.461107918536e+00 -3.079567938522e+01 0.0 
0.0 0.0 -2.065704295006e+01 
-5.296459579265e+01 2.311797581929e+01 0.0 
2.311797581929e+01 -6.516524152708e+01 0.0 
0.0 0.0 -3.503895119592e+01 
-1.407638490893e+02 3.107096021126e+01 0.0 
3.107096021126e+01 -3.297823145417e+02 0.0 
0.0 0.0 -1.407638490893e+02 
-3.485454731117e+01 3.994309599809e+00 0.0 
3.994309599809e+00 -2.841760495139e+01 0.0 
0.0 0.0 -1.858164567877e+01 
-1.001193172027e+02 2.826124894369e+01 0.0 
2.826124894369e+01 -2.232810298425e+02 0.0 
0.0 0.0 -9.662010411356e+01 
-8.651857093314e+01 2.363869467812e+01 0.0 
2.363869467812e+01 -2.313847365912e+02 0.0 
0.0 0.0 -9.497099225729e+01 
-4.921115683886e+01 4.110334508624e+00 0.0 
4.110334508624e+00 -6.015059099939e+01 0.0 
0.0 0.0 -3.240852435148e+01 
-3.093430567702e+01 1.716690181606e+01 0.0 
1.716690181606e+01 -7.111523324759e+01 0.0 
0.0 0.0 -3.021486167738e+01 
-8.257905077198e+01 1.501899832483e+01 0.0 
1.501899832483e+01 -2.398871348717e+02 0.0 
0.0 0.0 -9.633985569312e+01 
-2.617915772290e+01 4.966609706696e+00 0.0 
4.966609706696e+00 -6.614994764060e+01 0.0 
0.0 0.0 -2.729873160905e+01 
-1.458110691548e+02 2.795199433641e+01 0.0 
2.795199433641e+01 -3.415591613611e+02 0.0 
0.0 0.0 -1.458110691548e+02 
-1.047984868724e+02 3.319102268162e+01 0.0 
3.319102268162e+01 -2.458631360356e+02 0.0 
0.0 0.0 -1.047984868724e+02 
-9.784221726167e+01 2.998058211762e+01 0.0 
2.998058211762e+01 -2.296318402772e+02 0.0 
0.0 0.0 -9.784221726167e+01 
-8.769522667940e+01 5.258068392456e+00 0.0 
5.258068392456e+00 -2.448714609380e+02 0.0 
0.0 0.0 -9.937000628521e+01 
-6.193788886880e+01 -2.073276426905e-01 0.0 
-2.073276426905e-01 -1.734836470817e+02 0.0 
0.0 0.0 -7.022646078516e+01 
-5.082805599626e+01 1.925116744281e+01 0.0 
1.925116744281e+01 -1.428066291013e+02 0.0 
0.0 0.0 -5.769040552928e+01 
-9.028639419567e+01 4.048165455335e+00 0.0 
4.048165455335e+00 -2.530095209206e+02 0.0 
0.0 0.0 -1.025887745349e+02 
-1.499229528958e+02 2.466017955485e+01 0.0 
2.466017955485e+01 -3.511535567568e+02 0.0 
0.0 0.0 -1.499229528958e+02 
-3.200182866538e+01 9.660147843162e+00 0.0 
9.660147843162e+00 -9.291473693646e+01 0.0 
0.0 0.0 -3.707496968055e+01 
-4.088722876832e+01 7.945410813257e-01 0.0 
7.945410813257e-01 -1.329990620719e+02 0.0 
0.0 0.0 -5.176588725205e+01 
-4.427920531800e+01 3.515099998494e-01 0.0 
3.515099998494e-01 -1.424653240418e+02 0.0 
0.0 0.0 -5.562335880794e+01 
-5.268428959704e+01 4.247304098596e+00 0.0 
4.247304098596e+00 -7.080617410474e+01 0.0 
0.0 0.0 -3.664713911053e+01 
-1.527300235515e+02 1.753966675800e+01 0.0 
1.753966675800e+01 -3.663662314140e+02 0.0 
0.0 0.0 -1.553288764896e+02 
-2.271441660979e+01 -2.755795330056e+00 0.0 
-2.755795330056e+00 -4.163714720757e+01 0.0 
0.0 0.0 -1.890546914521e+01 
-1.537009886098e+02 2.099347643099e+01 0.0 
2.099347643099e+01 -3.599689734228e+02 0.0 
0.0 0.0 -1.537009886098e+02 
-4.195887652414e+01 -1.000501819255e+00 0.0 
-1.000501819255e+00 -1.332367011989e+02 0.0 
0.0 0.0 -5.215867331691e+01 
-1.167504104551e+02 3.606902672415e+01 0.0 
3.606902672415e+01 -2.737509577285e+02 0.0 
0.0 0.0 -1.167504104551e+02 
-9.503402923775e+01 3.134183647036e+01 0.0 
3.134183647036e+01 -2.055230757283e+02 0.0 
0.0 0.0 -8.976713148980e+01 
-1.251823031827e+01 -7.991833712319e-01 0.0 
-7.991833712319e-01 -7.921098968394e+00 0.0 
0.0 0.0 -5.731798786001e+00 
-4.696309474120e+01 1.721504062144e+01 0.0 
1.721504062144e+01 -1.390737840921e+02 0.0 
0.0 0.0 -5.541106364999e+01 
-8.561987480424e+01 2.092647902668e+01 0.0 
2.092647902668e+01 -1.554337893716e+02 0.0 
0.0 0.0 -7.191609925274e+01 
-1.241478406071e+02 3.589267816858e+01 0.0 
3.589267816858e+01 -2.910116280831e+02 0.0 
0.0 0.0 -1.241478406071e+02 
-6.864593324360e+01 2.792230315015e+01 0.0 
2.792230315015e+01 -1.398637813891e+02 0.0 
0.0 0.0 -6.215291438982e+01 
-9.150646859459e+01 2.315717424549e+01 0.0 
2.315717424549e+01 -2.456561481614e+02 0.0 
0.0 0.0 -1.007487850268e+02 
-2.401121771691e+01 8.732227973080e+00 0.0 
8.732227973080e+00 -5.542132112659e+01 0.0 
0.0 0.0 -2.342976165305e+01 
-1.332793358766e+02 1.824787763269e+01 0.0 
1.824787763269e+01 -3.302882280235e+02 0.0 
0.0 0.0 -1.386702691700e+02 
-4.538549188314e+01 -1.180308869198e+00 0.0 
-1.180308869198e+00 -1.422518299288e+02 0.0 
0.0 0.0 -5.589119654358e+01 
-4.662748058561e+01 5.569237410447e-01 0.0 
5.569237410447e-01 -1.435024274496e+02 0.0 
0.0 0.0 -5.663897241057e+01 
-2.048437857014e+01 -2.126592746165e+00 0.0 
-2.126592746165e+00 -2.581913950024e+01 0.0 
0.0 0.0 -1.349105542111e+01 
-1.311987861325e+02 3.453953351629e+01 0.0 
3.453953351629e+01 -3.074638343092e+02 0.0 
0.0 0.0 -1.311987861325e+02 
-2.915430542546e+01 5.411578583750e+00 0.0 
5.411578583750e+00 -8.278725717560e+01 0.0 
0.0 0.0 -3.318246878032e+01 
-1.187335906533e+02 1.298847222316e+01 0.0 
1.298847222316e+01 -3.082042998491e+02 0.0 
0.0 0.0 -1.276813671507e+02 
-4.671944424627e+01 5.174441953026e+00 0.0 
5.174441953026e+00 -5.056277680163e+01 0.0 
0.0 0.0 -2.878466631437e+01 
-4.209147920425e+01 -2.010196154988e+00 0.0 
-2.010196154988e+00 -1.230858967562e+02 0.0 
0.0 0.0 -4.915321278812e+01 
-4.318898723080e+01 9.020078106652e-01 0.0 
9.020078106652e-01 -1.339979285229e+02 0.0 
0.0 0.0 -5.275607472610e+01 
-6.519482996329e+01 2.750037914556e+01 0.0 
2.750037914556e+01 -1.380854410374e+02 0.0 
0.0 0.0 -6.058408130020e+01 
-1.434291368628e+02 2.961224172469e+01 0.0 
2.961224172469e+01 -3.360013193464e+02 0.0 
0.0 0.0 -1.434291368628e+02 
-6.434095353847e+01 -1.346658768144e+00 0.0 
-1.346658768144e+00 -1.814274783223e+02 0.0 
0.0 0.0 -7.333052955822e+01 
-1.003328109564e+02 8.077062897262e+00 0.0 
8.077062897262e+00 -2.724444186353e+02 0.0 
0.0 0.0 -1.114331688775e+02 
-5.906648338088e+01 2.127862326439e+01 0.0 
2.127862326439e+01 -1.626484087054e+02 0.0 
0.0 0.0 -6.611446762589e+01 
-8.473239771058e+01 8.770909434122e+00 0.0 
8.770909434122e+00 -2.421254434830e+02 0.0 
0.0 0.0 -9.765735235808e+01 
-4.532904510369e+01 2.392527482365e+00 0.0 
2.392527482365e+00 -1.421892918308e+02 0.0 
0.0 0.0 -5.585550108035e+01 
-9.132646639029e+01 6.699275584063e+00 0.0 
6.699275584063e+00 -2.537820074063e+02 0.0 
0.0 0.0 -1.031325421390e+02 
-5.637100379038e+01 2.264177782064e+01 0.0 
2.264177782064e+01 -1.477918097494e+02 0.0 
0.0 0.0 -6.084884406192e+01 
-8.210053639718e+01 2.718221541948e+01 0.0 
2.718221541948e+01 -2.049649748630e+02 0.0 
0.0 0.0 -8.571965337806e+01 
-9.161000753668e+01 1.642516821828e+01 0.0 
1.642516821828e+01 -2.579358361837e+02 0.0 
0.0 0.0 -1.044637531161e+02 
-5.604411079312e+01 1.971192528577e+01 0.0 
1.971192528577e+01 -1.598471313283e+02 0.0 
0.0 0.0 -6.436737263643e+01 
-6.368083024262e+01 -9.789443474277e-01 0.0 
-9.789443474277e-01 -1.851445134327e+02 0.0 
0.0 0.0 -7.424760310258e+01 
-3.361951789332e+01 1.173127342333e+01 0.0 
1.173127342333e+01 -9.686070261662e+01 0.0 
0.0 0.0 -3.874406615298e+01 
-6.058551364945e+01 -1.618827383659e+00 0.0 
-1.618827383659e+00 -1.726069675350e+02 0.0 
0.0 0.0 -6.955774435532e+01 
-8.830834091257e+01 2.479323013163e+01 0.0 
2.479323013163e+01 -2.324311926576e+02 0.0 
0.0 0.0 -9.582186007106e+01 
-7.095734251191e+01 1.163012120241e+01 0.0 
1.163012120241e+01 -2.157864014733e+02 0.0 
0.0 0.0 -8.562312319556e+01 
-1.495562610605e+02 2.110678533787e+01 0.0 
2.110678533787e+01 -3.597402462713e+02 0.0 
0.0 0.0 -1.523889521995e+02 
-8.941340596918e+01 2.371311337864e+01 0.0 
2.371311337864e+01 -1.699801683037e+02 0.0 
0.0 0.0 -7.741807228186e+01 
-3.760297405630e+01 -3.250489926828e+00 0.0 
-3.250489926828e+00 -1.116451677527e+02 0.0 
0.0 0.0 -4.437444254268e+01 
-1.519847163614e+02 2.273288997231e+01 0.0 
2.273288997231e+01 -3.559643381766e+02 0.0 
0.0 0.0 -1.519847163614e+02 
-1.386793958445e+02 2.055935519741e+01 0.0 
2.055935519741e+01 -3.429158027250e+02 0.0 
0.0 0.0 -1.440785595709e+02 
-5.397240478384e+01 1.515186305196e+01 0.0 
1.515186305196e+01 -1.664862820739e+02 0.0 
0.0 0.0 -6.573760605731e+01 
-1.607213671868e+01 -2.091106284766e+00 0.0 
-2.091106284766e+00 -2.538218911929e+01 0.0 
0.0 0.0 -1.241408127309e+01 
-1.538481364610e+02 1.585638266646e+01 0.0 
1.585638266646e+01 -3.689840020296e+02 0.0 
0.0 0.0 -1.564496415472e+02 
-9.113536960853e+01 2.703484356964e+01 0.0 
2.703484356964e+01 -1.795811108879e+02 0.0 
0.0 0.0 -8.081494414894e+01 
-3.969954549707e+01 -2.062941812966e+00 0.0 
-2.062941812966e+00 -1.235954832456e+02 0.0 
0.0 0.0 -4.858850862279e+01 
-1.566767815447e+02 1.767181992937e+01 0.0 
1.767181992937e+01 -3.669124902711e+02 0.0 
0.0 0.0 -1.566767815447e+02 
-9.640747351894e+01 6.549981014399e+00 0.0 
6.549981014399e+00 -2.635433945505e+02 0.0 
0.0 0.0 -1.075852604208e+02 
-4.017200731473e+01 2.093559620615e+01 0.0 
2.093559620615e+01 -9.498340641177e+01 0.0 
0.0 0.0 -4.014662411795e+01 
-5.657762867337e+01 2.162500424846e+01 0.0 
2.162500424846e+01 -8.395560142908e+01 0.0 
0.0 0.0 -4.175996903074e+01 
-6.860972710637e+01 1.277474690873e+01 0.0 
1.277474690873e+01 -2.050876868204e+02 0.0 
0.0 0.0 -8.170922417803e+01 
-7.943830711812e+01 3.986246286220e+00 0.0 
3.986246286220e+00 -2.261683527465e+02 0.0 
0.0 0.0 -9.128199795939e+01 
-8.827075340887e+01 1.064532535213e+01 0.0 
1.064532535213e+01 -2.499915097710e+02 0.0 
0.0 0.0 -1.010786789540e+02 
-7.196139433162e+01 2.349465216747e+01 0.0 
2.349465216747e+01 -1.139188428284e+02 0.0 
0.0 0.0 -5.536407114801e+01 
-4.480971818186e+01 2.290310230059e+01 0.0 
2.290310230059e+01 -9.730248127323e+01 0.0 
0.0 0.0 -4.223365983653e+01 
-9.536195564012e+01 1.849337186329e+01 0.0 
1.849337186329e+01 -2.636989111927e+02 0.0 
0.0 0.0 -1.073182600499e+02 
-4.140743149424e+01 5.886119855601e-01 0.0 
5.886119855601e-01 -5.870805926978e+01 0.0 
0.0 0.0 -2.963464722920e+01 
-6.555429191354e+01 2.388624458523e-01 0.0 
2.388624458523e-01 -1.862006522370e+02 0.0 
0.0 0.0 -7.512648324516e+01 
-8.785035465961e+01 1.437730807312e+01 0.0 
1.437730807312e+01 -2.517507132140e+02 0.0 
0.0 0.0 -1.014803203621e+02 
-4.759812844023e+01 -6.704086117791e-01 0.0 
-6.704086117791e-01 -1.432855761628e+02 0.0 
0.0 0.0 -5.686511138092e+01 
-9.657155907454e+01 1.565016045252e+00 0.0 
1.565016045252e+00 -2.599229872499e+02 0.0 
0.0 0.0 -1.065483638973e+02 
-1.443372280438e+01 -8.045867191307e-01 0.0 
-8.045867191307e-01 -8.065348471469e+00 0.0 
0.0 0.0 -6.349721382755e+00 
-3.544007247083e+01 1.380055594158e+01 0.0 
1.380055594158e+01 -1.004928072686e+02 0.0 
0.0 0.0 -4.037986392184e+01 
-4.423917365024e+01 -6.280354182216e-01 0.0 
-6.280354182216e-01 -1.342802327354e+02 0.0 
0.0 0.0 -5.315582191569e+01 
-7.180894863022e+01 -6.087187746491e-01 0.0 
-6.087187746491e-01 -2.028076118724e+02 0.0 
0.0 0.0 -8.198496815079e+01 
-5.685310934624e+01 1.704733853689e+01 0.0 
1.704733853689e+01 -1.705811105466e+02 0.0 
0.0 0.0 -6.783026596784e+01 
-9.410261312854e+01 5.447189252635e+00 0.0 
5.447189252635e+00 -2.623331574431e+02 0.0 
0.0 0.0 -1.065307311715e+02 
-5.105263448956e+01 4.954089034363e+00 0.0 
4.954089034363e+00 -6.278512507146e+01 0.0 
0.0 0.0 -3.375132786831e+01 
-4.177991008267e+01 -1.519195217725e+00 0.0 
-1.519195217725e+00 -1.245978224084e+02 0.0 
0.0 0.0 -4.951331974731e+01 
-1.578843256108e+02 1.608356973927e+01 0.0 
1.608356973927e+01 -3.697300930918e+02 0.0 
0.0 0.0 -1.578843256108e+02 
-6.572289442612e+01 2.668128913076e+01 0.0 
2.668128913076e+01 -1.536287549176e+02 0.0 
0.0 0.0 -6.540549480312e+01 
-7.590387512095e+01 -4.613179822810e-01 0.0 
-4.613179822810e-01 -2.114897827137e+02 0.0 
0.0 0.0 -8.581809735039e+01 
-6.245674051234e+01 2.551826055820e+01 0.0 
2.551826055820e+01 -1.518047792175e+02 0.0 
0.0 0.0 -6.387845591894e+01 
-7.335481314369e+01 7.214501263846e-01 0.0 
7.214501263846e-01 -2.037466330861e+02 0.0 
0.0 0.0 -8.273043386894e+01 
-1.192146891483e+01 -8.544947161928e-01 0.0 
-8.544947161928e-01 -8.917931073781e+00 0.0 
0.0 0.0 -6.826065975834e+00 
-6.083093693182e+01 2.382688381711e+01 0.0 
2.382688381711e+01 -8.776356872193e+01 0.0 
0.0 0.0 -4.417835169613e+01 
-6.093790222426e+01 -1.208476684426e+00 0.0 
-1.208476684426e+00 -1.696371300309e+02 0.0 
0.0 0.0 -6.877250967654e+01 
-4.817643238898e+00 -5.170835790732e-01 0.0 
-5.170835790732e-01 -8.743784775234e+00 0.0 
0.0 0.0 -4.623103192886e+00 
-7.201275053799e+01 -9.133204725107e-01 0.0 
-9.133204725107e-01 -2.007475798724e+02 0.0 
0.0 0.0 -8.142809912312e+01 
-1.034068336385e+02 6.673769431914e+00 0.0 
6.673769431914e+00 -2.809938849387e+02 0.0 
0.0 0.0 -1.149202155732e+02 
-6.905927694566e+01 4.035509529291e+00 0.0 
4.035509529291e+00 -1.352802867489e+02 0.0 
0.0 0.0 -6.090186910836e+01 
-7.982301524866e+01 9.144134489122e+00 0.0 
9.144134489122e+00 -2.318503143866e+02 0.0 
0.0 0.0 -9.310199889059e+01 
-8.222325115281e+01 7.977795359096e+00 0.0 
7.977795359096e+00 -2.408698845196e+02 0.0 
0.0 0.0 -9.652794070172e+01 
-4.682423407401e+01 2.151014809202e+01 0.0 
2.151014809202e+01 -4.592959519269e+01 0.0 
0.0 0.0 -2.742614878001e+01 
-2.614922515678e+01 7.686688025086e-01 0.0 
7.686688025086e-01 -8.597016715991e+00 0.0 
0.0 0.0 -1.002387256183e+01 
-9.044497779518e+01 2.289079790309e+01 0.0 
2.289079790309e+01 -1.971107866834e+02 0.0 
0.0 0.0 -8.586672934358e+01 
-5.934704541428e+01 2.414592102222e+01 0.0 
2.414592102222e+01 -1.498839061712e+02 0.0 
0.0 0.0 -6.236928547563e+01 
-3.651464287853e+00 -3.880561467104e-01 0.0 
-3.880561467104e-01 -7.350690855892e+00 0.0 
0.0 0.0 -2.900646543123e+00 
-2.567838651007e+01 -2.279528788825e+00 0.0 
-2.279528788825e+00 -6.924451150455e+01 0.0 
0.0 0.0 -2.807686940439e+01 
-1.524302236950e+01 -2.074033736007e+00 0.0 
-2.074033736007e+00 -2.514891310121e+01 0.0 
0.0 0.0 -1.211109389861e+01 
-4.195045958205e+01 -2.225844387061e+00 0.0 
-2.225844387061e+00 -1.203676302280e+02 0.0 
0.0 0.0 -4.829542694301e+01 
-9.752032844956e+01 3.102772039541e+01 0.0 
3.102772039541e+01 -2.293532214351e+02 0.0 
0.0 0.0 -9.766206496540e+01 
-7.161735177667e+01 5.992757183223e+00 0.0 
5.992757183223e+00 -1.367043051019e+02 0.0 
0.0 0.0 -6.209649706356e+01 
-1.193720736242e+02 5.617063499108e+00 0.0 
5.617063499108e+00 -3.087423629672e+02 0.0 
0.0 0.0 -1.280343309774e+02 
-4.785366123022e+01 -1.455379834136e+00 0.0 
-1.455379834136e+00 -1.365300704755e+02 0.0 
0.0 0.0 -5.491511951173e+01 
-9.797630771152e+01 2.887165131143e+00 0.0 
2.887165131143e+00 -2.608225076278e+02 0.0 
0.0 0.0 -1.072396446018e+02 
-1.224970025804e+02 1.127097359127e+01 0.0 
1.127097359127e+01 -3.170523715513e+02 0.0 
0.0 0.0 -1.314648122395e+02 
-2.643383042139e+01 1.412933367573e+00 0.0 
1.412933367573e+00 -6.901664901378e+01 0.0 
0.0 0.0 -2.823514383055e+01 
-6.133526838521e+01 5.098809702848e-01 0.0 
5.098809702848e-01 -1.698515557085e+02 0.0 
0.0 0.0 -6.895604722813e+01 
-5.003457153343e+01 -1.071021926455e+00 0.0 
-1.071021926455e+00 -1.398870001506e+02 0.0 
0.0 0.0 -5.657647150522e+01 
-1.548338726615e+02 1.413229594351e+01 0.0 
1.413229594351e+01 -3.710705728884e+02 0.0 
0.0 0.0 -1.573713336650e+02 
-1.589162599050e+02 1.450027976170e+01 0.0 
1.450027976170e+01 -3.721379397782e+02 0.0 
0.0 0.0 -1.589162599050e+02 
-6.847586661389e+01 4.258769564761e-01 0.0 
4.258769564761e-01 -1.884614324130e+02 0.0 
0.0 0.0 -7.668118970806e+01 
-7.735802693280e+01 9.143365984012e-01 0.0 
9.143365984012e-01 -2.124067525644e+02 0.0 
0.0 0.0 -8.652943384915e+01 
-8.174620268006e+01 2.885730647643e+00 0.0 
2.885730647643e+00 -2.342281873628e+02 0.0 
0.0 0.0 -9.439231701286e+01 
-1.270065793245e+02 1.330964919624e+01 0.0 
1.330964919624e+01 -3.250379866183e+02 0.0 
0.0 0.0 -1.352133697828e+02 
-2.751650202902e+01 -3.369828204876e+00 0.0 
-3.369828204876e+00 -7.676177843817e+01 0.0 
0.0 0.0 -3.088348414016e+01 
-1.177856566630e+02 9.484118275907e+00 0.0 
9.484118275907e+00 -3.084963458296e+02 0.0 
0.0 0.0 -1.274846007478e+02 
-1.602581541159e+01 -1.355615432013e+00 0.0 
-1.355615432013e+00 -4.313094706789e+01 0.0 
0.0 0.0 -1.734702874384e+01 
-6.940660194098e+01 3.182572298618e-01 0.0 
3.182572298618e-01 -1.930227031348e+02 0.0 
0.0 0.0 -7.832879152274e+01 
-7.720596190425e+01 1.291079432178e+00 0.0 
1.291079432178e+00 -2.142729349619e+02 0.0 
0.0 0.0 -8.704366905983e+01 
-8.664196922785e+00 -7.238460938716e-01 0.0 
-7.238460938716e-01 -2.556039882316e+01 0.0 
0.0 0.0 -1.024797389356e+01 
-6.499254202256e+01 -9.379676644931e-01 0.0 
-9.379676644931e-01 -1.790480936882e+02 0.0 
0.0 0.0 -7.281219071322e+01 
-8.545329775380e+01 2.090788071189e+01 0.0 
2.090788071189e+01 -1.676079736548e+02 0.0 
0.0 0.0 -7.551838142257e+01 
-2.735366958049e+00 -3.492573369932e-01 0.0 
-3.492573369932e-01 -7.820709282863e+00 0.0 
0.0 0.0 -2.766822872274e+00 
-2.968870394161e+01 2.007396183703e+00 0.0 
2.007396183703e+00 -8.797998342149e+00 0.0 
0.0 0.0 -1.114601068513e+01 
-2.688157770095e+01 3.710996658580e+00 0.0 
3.710996658580e+00 -1.116928264455e+01 0.0 
0.0 0.0 -1.101525810365e+01 
-9.192313398887e+01 1.262156301517e+01 0.0 
1.262156301517e+01 -2.574374258768e+02 0.0 
0.0 0.0 -1.044081679597e+02 
-5.013997951661e+01 4.867849789701e-01 0.0 
4.867849789701e-01 -1.398500802060e+02 0.0 
0.0 0.0 -5.659701791680e+01 
-4.292036543886e+01 -2.154955550318e+00 0.0 
-2.154955550318e+00 -1.324477668282e+02 0.0 
0.0 0.0 -5.221043968012e+01 
-2.700205859563e+01 1.123632808481e+01 0.0 
1.123632808481e+01 -6.359723331840e+01 0.0 
0.0 0.0 -2.677978757421e+01 
-1.347871856615e+02 5.977968183836e+00 0.0 
5.977968183836e+00 -3.359177672473e+02 0.0 
0.0 0.0 -1.408114858726e+02 
-1.210734508068e+02 3.269834947543e+01 0.0 
3.269834947543e+01 -2.879774679193e+02 0.0 
0.0 0.0 -1.223152756178e+02 
-7.169634859319e+01 8.492024617404e+00 0.0 
8.492024617404e+00 -1.252203818049e+02 0.0 
0.0 0.0 -5.867501911943e+01 
-3.124666826904e+01 1.641091335885e+01 0.0 
1.641091335885e+01 -7.111227504699e+01 0.0 
0.0 0.0 -3.030768299481e+01 
-1.898452311793e+01 -3.293165243155e+00 0.0 
-3.293165243155e+00 -4.785064744636e+01 0.0 
0.0 0.0 -1.965055116929e+01 
-4.494974612131e+01 2.486780923806e+01 0.0 
2.486780923806e+01 -8.102062370813e+01 0.0 
0.0 0.0 -3.739111094883e+01 
-2.250078587986e+01 -1.935298792701e-02 0.0 
-1.935298792701e-02 -9.485949522374e+00 0.0 
0.0 0.0 -9.196020620669e+00 
-1.930057894338e+01 1.653688810243e-01 0.0 
1.653688810243e-01 -8.813866120008e+00 0.0 
0.0 0.0 -8.034333519016e+00 
-4.100437701770e+00 -4.380708085196e-01 0.0 
-4.380708085196e-01 -8.976972035953e+00 0.0 
0.0 0.0 -4.492110371957e+00 
-9.014117368227e+00 -8.805135327579e-01 0.0 
-8.805135327579e-01 -2.540603156521e+01 0.0 
0.0 0.0 -1.034737404999e+01 
-1.377172340279e+01 -3.483228367093e-01 0.0 
-3.483228367093e-01 -4.211706789400e+01 0.0 
0.0 0.0 -1.636663738904e+01 
-3.656587536075e+01 -3.126652750730e+00 0.0 
-3.126652750730e+00 -1.050338354043e+02 0.0 
0.0 0.0 -4.207991322952e+01 
-8.788171449751e+00 -5.652285712424e-01 0.0 
-5.652285712424e-01 -2.593894910530e+01 0.0 
0.0 0.0 -1.001813616651e+01 
-7.232394465960e+01 -8.052770404633e-01 0.0 
-8.052770404633e-01 -1.986845997242e+02 0.0 
0.0 0.0 -8.090256331513e+01 
-1.599804543739e+01 -7.654366594037e-01 0.0 
-7.654366594037e-01 -8.834886401630e+00 0.0 
0.0 0.0 -8.018214916859e+00 
-4.310125678629e+01 -2.877896359517e+00 0.0 
-2.877896359517e+00 -1.247038858481e+02 0.0 
0.0 0.0 -4.994154279031e+01 
-4.764433810945e+01 6.329509562371e-01 0.0 
6.329509562371e-01 -7.567655479510e+01 0.0 
0.0 0.0 -3.659626787136e+01 
-1.931499961174e+01 4.801605520712e-01 0.0 
4.801605520712e-01 -8.564009643127e+00 0.0 
0.0 0.0 -7.963702776460e+00 
-1.009179435810e+02 3.212589072454e+01 0.0 
3.212589072454e+01 -2.320605477464e+02 0.0 
0.0 0.0 -9.949354739820e+01 
-9.930535781520e+01 5.204070885152e+00 0.0 
5.204070885152e+00 -2.717447279969e+02 0.0 
0.0 0.0 -1.109150257436e+02 
-4.042917545633e+01 1.304367256079e-01 0.0 
1.304367256079e-01 -5.790579690568e+01 0.0 
0.0 0.0 -2.910049170860e+01 
-5.356688653587e+01 -8.162136024598e-01 0.0 
-8.162136024598e-01 -1.493585006457e+02 0.0 
0.0 0.0 -6.047761615447e+01 
-1.526328702671e+01 -6.546344772113e-01 0.0 
-6.546344772113e-01 -4.287375434549e+01 0.0 
0.0 0.0 -1.704111241166e+01 
-8.349657586054e+01 1.175800293014e+01 0.0 
1.175800293014e+01 -1.961586770079e+02 0.0 
0.0 0.0 -8.349657586054e+01 
-8.985045837875e+01 1.316208739852e+01 0.0 
1.316208739852e+01 -1.995379910083e+02 0.0 
0.0 0.0 -8.641653481612e+01 
-4.292084855547e+01 1.661815590709e+00 0.0 
1.661815590709e+00 -4.856372439932e+01 0.0 
0.0 0.0 -2.704537188644e+01 
-2.313949916426e+01 4.262364640953e-02 0.0 
4.262364640953e-02 -8.905729791094e+00 0.0 
0.0 0.0 -9.213568686605e+00 
-5.451961880950e+01 -4.632043667255e-02 0.0 
-4.632043667255e-02 -1.514478879424e+02 0.0 
0.0 0.0 -6.139025202558e+01 
-8.780178939012e+01 9.073570516483e+00 0.0 
9.073570516483e+00 -1.964768637411e+02 0.0 
0.0 0.0 -8.488359593936e+01 
-4.109241518921e+01 -1.869386541434e+00 0.0 
-1.869386541434e+00 -1.168368129431e+02 0.0 
0.0 0.0 -4.697876843971e+01 
-2.146994429433e+01 1.380023530745e+00 0.0 
1.380023530745e+00 -9.195859289061e+00 0.0 
0.0 0.0 -8.799741075016e+00 
-2.438463614571e+01 2.807622718874e-01 0.0 
2.807622718874e-01 -8.615417282069e+00 0.0 
0.0 0.0 -9.500016028333e+00 
-3.963707728859e+01 2.228143702129e+01 0.0 
2.228143702129e+01 -6.144238774410e+01 0.0 
0.0 0.0 -2.992383950981e+01 
-9.277770920816e+01 2.586990974950e+01 0.0 
2.586990974950e+01 -2.178146548190e+02 0.0 
0.0 0.0 -9.277770920816e+01 
-8.981210063450e+01 1.093029500948e+01 0.0 
1.093029500948e+01 -1.984577049965e+02 0.0 
0.0 0.0 -8.608094168930e+01 
-9.240584906980e+00 -7.641463732743e-01 0.0 
-7.641463732743e-01 -2.573218383767e+01 0.0 
0.0 0.0 -1.009183062339e+01 
-3.655535713045e+00 -3.185459738938e-01 0.0 
-3.185459738938e-01 -9.091491842898e+00 0.0 
0.0 0.0 -4.401363074080e+00 
-2.164736448292e+01 -3.069819019486e+00 0.0 
-3.069819019486e+00 -5.744458360982e+01 0.0 
0.0 0.0 -2.332758442782e+01 
-7.548712705726e+01 -9.371478766689e-03 0.0 
-9.371478766689e-03 -2.132670345477e+02 0.0 
0.0 0.0 -8.622624848149e+01 
-1.451664821713e+02 -1.155084095234e-01 0.0 
-1.155084095234e-01 -3.522996024115e+02 0.0 
0.0 0.0 -1.488398253748e+02 
-2.035669186803e+01 -5.531518666789e-01 0.0 
-5.531518666789e-01 -7.135880283847e+00 0.0 
0.0 0.0 -7.847771645563e+00 
-6.273104535089e+01 1.582762949658e+00 0.0 
1.582762949658e+00 -1.189964970484e+02 0.0 
0.0 0.0 -5.411826271980e+01 
-1.473291775935e+01 -8.893189143085e-01 0.0 
-8.893189143085e-01 -8.986249288449e+00 0.0 
0.0 0.0 -7.696700155075e+00 
-9.097923491500e+01 9.355248114766e+00 0.0 
9.355248114766e+00 -2.591199956596e+02 0.0 
0.0 0.0 -1.046297691724e+02 
-1.647786852791e+01 -9.071358370157e-01 0.0 
-9.071358370157e-01 -8.250765710236e+00 0.0 
0.0 0.0 -7.018590271445e+00 
-1.845362614729e+01 -8.118758059521e-01 0.0 
-8.118758059521e-01 -8.137270525831e+00 0.0 
0.0 0.0 -7.577269001937e+00 
-8.726894256239e+01 7.558887056455e+00 0.0 
7.558887056455e+00 -2.509389221247e+02 0.0 
0.0 0.0 -1.010623594061e+02 
-1.394861392143e+02 2.118371785363e+00 0.0 
2.118371785363e+00 -3.422901762599e+02 0.0 
0.0 0.0 -1.441328946423e+02 
-4.774923076288e+01 1.083791984453e+00 0.0 
1.083791984453e+00 -7.467862706191e+01 0.0 
0.0 0.0 -3.632835734744e+01 
-4.836701805132e+01 2.506136021518e+01 0.0 
2.506136021518e+01 -9.884711382848e+01 0.0 
0.0 0.0 -4.376423956394e+01 
-8.310948714704e+00 -4.301253795745e-01 0.0 
-4.301253795745e-01 -2.555292130636e+01 0.0 
0.0 0.0 -1.014165513082e+01 
-1.023235120098e+02 2.794092701081e+00 0.0 
2.794092701081e+00 -2.693807248236e+02 0.0 
0.0 0.0 -1.111112710500e+02 
-8.152572538744e+01 3.528777378534e+00 0.0 
3.528777378534e+00 -1.915600259040e+02 0.0 
0.0 0.0 -8.152572538744e+01 
-8.610236880332e+01 4.660779665795e+00 0.0 
4.660779665795e+00 -1.942799656508e+02 0.0 
0.0 0.0 -8.371470033622e+01 
-1.882765575615e+01 4.975303268514e-02 0.0 
4.975303268514e-02 -8.441623978554e+00 0.0 
0.0 0.0 -7.780783920411e+00 
-9.481650810321e+01 1.125007496730e+01 0.0 
1.125007496730e+01 -2.669350177237e+02 0.0 
0.0 0.0 -1.081254577481e+02 
-8.305419534986e+01 9.535297400406e+00 0.0 
9.535297400406e+00 -1.951264558163e+02 0.0 
0.0 0.0 -8.305419534986e+01 
-9.376239374562e+01 2.439104974443e+01 0.0 
2.439104974443e+01 -2.468698105279e+02 0.0 
0.0 0.0 -1.017896612821e+02 
-1.446237427959e+01 -6.044049261115e-01 0.0 
-6.044049261115e-01 -4.168930447163e+01 0.0 
0.0 0.0 -1.644550362536e+01 
-8.391595316663e+00 -3.691667586906e-01 0.0 
-3.691667586906e-01 -2.571738510311e+01 0.0 
0.0 0.0 -9.832694125932e+00 
-7.837295931496e+00 -1.567183657700e-01 0.0 
-1.567183657700e-01 -2.513987138611e+01 0.0 
0.0 0.0 -9.734417709310e+00 
-6.113633261443e+01 -7.748987120824e-01 0.0 
-7.748987120824e-01 -1.691643147690e+02 0.0 
0.0 0.0 -6.869019421503e+01 
-1.604756214984e+02 3.493347241331e+00 0.0 
3.493347241331e+00 -3.810447373960e+02 0.0 
0.0 0.0 -1.620561076683e+02 
-7.838530171856e+01 1.156068511356e+00 0.0 
1.156068511356e+00 -1.708557032780e+02 0.0 
0.0 0.0 -7.437230149896e+01 
-2.682183109283e+00 -8.628920130951e-02 0.0 
-8.628920130951e-02 -9.067924327073e+00 0.0 
0.0 0.0 -4.093710342578e+00 
-7.272861771377e+01 6.509746419114e-01 0.0 
6.509746419114e-01 -1.988610311825e+02 0.0 
0.0 0.0 -8.107689466889e+01 
-1.637843839988e+02 2.423487762325e+00 0.0 
2.423487762325e+00 -3.834968959973e+02 0.0 
0.0 0.0 -1.637843839988e+02 
-1.596439024946e+02 3.773899333837e+00 0.0 
3.773899333837e+00 -3.801302237706e+02 0.0 
0.0 0.0 -1.615322378796e+02 
-1.555838048905e+02 1.270106139908e+01 0.0 
1.270106139908e+01 -3.727444506058e+02 0.0 
0.0 0.0 -1.580984766489e+02 
-5.558901156162e+01 -4.716866001964e-01 0.0 
-4.716866001964e-01 -9.895253748677e+01 0.0 
0.0 0.0 -4.596246471452e+01 
-6.616481473595e+01 9.850634389665e-01 0.0 
9.850634389665e-01 -1.295088970369e+02 0.0 
0.0 0.0 -5.830211353185e+01 
-1.628817632912e+02 3.331673144425e+00 0.0 
3.331673144425e+00 -3.813907810128e+02 0.0 
0.0 0.0 -1.628817632912e+02 
-1.630180909893e+02 4.399383776764e+00 0.0 
4.399383776764e+00 -3.817088789750e+02 0.0 
0.0 0.0 -1.630180909893e+02 
-6.262819210493e+01 -1.472357883129e-01 0.0 
-1.472357883129e-01 -1.190396258734e+02 0.0 
0.0 0.0 -5.410034539349e+01 
-1.064481710061e+00 -3.612074634892e-01 0.0 
-3.612074634892e-01 -6.807518107993e+00 0.0 
0.0 0.0 -1.961599945416e+00 
-1.974190470015e+01 -7.021045678920e-02 0.0 
-7.021045678920e-02 -8.133622142814e+00 0.0 
0.0 0.0 -7.962658052888e+00 
-1.905693848403e+01 -2.310641920754e-01 0.0 
-2.310641920754e-01 -8.698637863197e+00 0.0 
0.0 0.0 -7.926672904169e+00 
-3.130488999829e+00 -1.997272875728e-01 0.0 
-1.997272875728e-01 -9.063736093160e+00 0.0 
0.0 0.0 -4.234419270248e+00 
-1.623460182618e+02 7.686242095667e+00 0.0 
7.686242095667e+00 -3.801407092775e+02 0.0 
0.0 0.0 -1.623460182618e+02 
-1.560621498954e+02 1.108624981568e+01 0.0 
1.108624981568e+01 -3.740197587754e+02 0.0 
0.0 0.0 -1.586245726013e+02 
-1.607513413486e+02 1.013308700048e+01 0.0 
1.013308700048e+01 -3.764197964801e+02 0.0 
0.0 0.0 -1.607513413486e+02 
-1.501384539037e+00 -1.388190829810e-01 0.0 
-1.388190829810e-01 -7.950610034185e+00 0.0 
0.0 0.0 -2.435598371967e+00 
-1.992618841028e+00 -3.011072630785e-01 0.0 
-3.011072630785e-01 -8.055694343437e+00 0.0 
0.0 0.0 -2.614493955340e+00 
-1.596176810845e+02 1.300344116219e+01 0.0 
1.300344116219e+01 -3.737745891972e+02 0.0 
0.0 0.0 -1.596176810845e+02 
-1.603219565359e+02 1.160962776253e+01 0.0 
1.160962776253e+01 -3.754178985838e+02 0.0 
0.0 0.0 -1.603219565359e+02 
-5.186044988998e+01 9.750584851882e-01 0.0 
9.750584851882e-01 -8.893452780958e+01 0.0 
0.0 0.0 -4.183849330987e+01 
-1.995453858113e+01 -2.514830708021e-01 0.0 
-2.514830708021e-01 -7.839623487224e+00 0.0 
0.0 0.0 -7.938248620505e+00 
-5.938727833189e+01 9.981464394903e-01 0.0 
9.981464394903e-01 -1.091300870212e+02 0.0 
0.0 0.0 -5.015520960591e+01 
-3.671511998966e+01 8.729908237528e-01 0.0 
8.729908237528e-01 -4.924037936804e+01 0.0 
0.0 0.0 -2.538664980731e+01 
-2.002738433405e+01 2.418310827124e-01 0.0 
2.418310827124e-01 -7.729819148890e+00 0.0 
0.0 0.0 -7.927161044881e+00 
-4.863647356448e+00 -5.870320028526e-01 0.0 
-5.870320028526e-01 -7.668308901473e+00 0.0 
0.0 0.0 -3.359586877376e+00 
-7.660103234510e+00 -4.447876366228e-01 0.0 
-4.447876366228e-01 -8.321893167582e+00 0.0 
0.0 0.0 -4.394598920627e+00 
-9.016617434864e+00 -6.094578034906e-01 0.0 
-6.094578034906e-01 -7.925135862020e+00 0.0 
0.0 0.0 -4.682525989065e+00 
-1.068789075262e+01 -6.945605198672e-01 0.0 
-6.945605198672e-01 -8.046252031006e+00 0.0 
0.0 0.0 -5.220242835089e+00 
-7.667333696670e+01 -9.010680660149e-01 0.0 
-9.010680660149e-01 -2.088901759484e+02 0.0 
0.0 0.0 -8.526905387454e+01 
-6.882186555182e+01 -7.948382246494e-01 0.0 
-7.948382246494e-01 -1.889598129728e+02 0.0 
0.0 0.0 -7.693450355738e+01 
-7.811397503521e+00 -6.466896934931e-01 0.0 
-6.466896934931e-01 -8.975799093986e+00 0.0 
0.0 0.0 -5.613186450187e+00 
-1.018845190890e+02 -7.969779634093e-01 0.0 
-7.969779634093e-01 -2.665352902075e+02 0.0 
0.0 0.0 -1.101259427889e+02 
-9.338218535610e+00 -7.731080326734e-01 0.0 
-7.731080326734e-01 -8.945175051418e+00 0.0 
0.0 0.0 -6.056857248881e+00 
-8.810937045207e+01 2.079235349064e+01 0.0 
2.079235349064e+01 -2.069218643882e+02 0.0 
0.0 0.0 -8.810937045207e+01 
-8.234694294741e+01 7.831395720415e+00 0.0 
7.831395720415e+00 -1.934762002106e+02 0.0 
0.0 0.0 -8.234694294741e+01 
-8.421039927955e+01 1.386293545065e+01 0.0 
1.386293545065e+01 -1.978242649856e+02 0.0 
0.0 0.0 -8.421039927955e+01 
-2.434744496956e+01 -9.851138720814e-01 0.0 
-9.851138720814e-01 -6.913528335666e+01 0.0 
0.0 0.0 -2.764481849787e+01 
-4.627978361269e+01 -8.387848637435e-01 0.0 
-8.387848637435e-01 -1.294362824105e+02 0.0 
0.0 0.0 -5.231481980696e+01 
-8.184424007264e+01 6.174694777251e+00 0.0 
6.174694777251e+00 -1.923032268362e+02 0.0 
0.0 0.0 -8.184424007264e+01 
-1.303119825005e+02 -6.532498445872e-01 0.0 
-6.532498445872e-01 -3.244259617649e+02 0.0 
0.0 0.0 -1.360213832796e+02 
-8.261104089884e+01 4.912078614077e+00 0.0 
4.912078614077e+00 -1.940924287640e+02 0.0 
0.0 0.0 -8.261104089884e+01 
-1.403540980166e+02 -6.920266575777e-01 0.0 
-6.920266575777e-01 -3.434458935401e+02 0.0 
0.0 0.0 -1.447399974670e+02 
-1.507553215935e+02 -7.516662915727e-01 0.0 
-7.516662915727e-01 -3.623413193746e+02 0.0 
0.0 0.0 -1.535289922905e+02 
-6.497097685986e+01 6.470457756291e-01 0.0 
6.470457756291e-01 -1.790396943273e+02 0.0 
0.0 0.0 -7.280320135616e+01 
-8.719325646874e+01 7.260994190208e+00 0.0 
7.260994190208e+00 -1.950528470404e+02 0.0 
0.0 0.0 -8.427383105275e+01 
-8.602700335443e+01 5.246325706799e+00 0.0 
5.246325706799e+00 -1.946489000477e+02 0.0 
0.0 0.0 -8.380277102063e+01 
-1.350378186951e+02 1.381910537273e+00 0.0 
1.381910537273e+00 -3.330470212987e+02 0.0 
0.0 0.0 -1.400254519982e+02 
-1.454279704410e+02 1.462480859544e+00 0.0 
1.462480859544e+00 -3.525391416336e+02 0.0 
0.0 0.0 -1.489901336224e+02 
-1.110205402646e+02 2.376312814675e+00 0.0 
2.376312814675e+00 -2.863737083730e+02 0.0 
0.0 0.0 -1.188182745913e+02 
-1.334235100712e+01 -9.172942995714e-01 0.0 
-9.172942995714e-01 -8.887560267007e+00 0.0 
0.0 0.0 -7.245449565119e+00 
-6.530291244825e+01 8.567574075419e-02 0.0 
8.567574075419e-02 -1.821252917447e+02 0.0 
0.0 0.0 -7.382846125787e+01 
-9.684070522674e+00 -7.918548753396e-01 0.0 
-7.918548753396e-01 -2.543914489771e+01 0.0 
0.0 0.0 -1.013696462612e+01 
-1.357863707054e+02 7.219935190813e+00 0.0 
7.219935190813e+00 -3.365236149116e+02 0.0 
0.0 0.0 -1.412929956851e+02 
-6.810079042311e+01 -1.063105804520e+00 0.0 
-1.063105804520e+00 -1.921696500892e+02 0.0 
0.0 0.0 -7.768113215370e+01 
-1.247621004471e+02 2.242274565826e+00 0.0 
2.242274565826e+00 -3.150988496550e+02 0.0 
0.0 0.0 -1.315582850306e+02 
-3.447205861563e+01 -2.102095494364e+00 0.0 
-2.102095494364e+00 -9.708878871265e+01 0.0 
0.0 0.0 -3.906825419848e+01 
-1.547738132505e+01 -1.909023378192e+00 0.0 
-1.909023378192e+00 -4.160025973928e+01 0.0 
0.0 0.0 -1.672329231930e+01 
-1.351682892689e+02 3.991533276704e+00 0.0 
3.991533276704e+00 -3.342121902006e+02 0.0 
0.0 0.0 -1.404141438408e+02 
-7.339357103172e+01 5.566775014317e-01 0.0 
5.566775014317e-01 -2.016701971631e+02 0.0 
0.0 0.0 -8.211913045845e+01 
-5.702351027269e+01 -1.036611196817e+00 0.0 
-1.036611196817e+00 -1.593259161176e+02 0.0 
0.0 0.0 -6.450482791709e+01 
-1.254265373295e+02 3.580410551267e+00 0.0 
3.580410551267e+00 -3.156844625843e+02 0.0 
0.0 0.0 -1.319332999741e+02 
-7.142082973204e+01 1.601747124097e+00 0.0 
1.601747124097e+00 -1.476311552060e+02 0.0 
0.0 0.0 -6.531559548142e+01 
-5.744022119292e+01 5.858287680302e-01 0.0 
5.858287680302e-01 -1.594606203405e+02 0.0 
0.0 0.0 -6.467025246002e+01 
-1.098085051377e+02 9.418059771678e+00 0.0 
9.418059771678e+00 -2.910710662706e+02 0.0 
0.0 0.0 -1.198638714225e+02 
-9.607426572563e+01 2.597300340527e+00 0.0 
2.597300340527e+00 -2.613457519717e+02 0.0 
0.0 0.0 -1.068260053092e+02 
-1.102502610100e+02 1.000031430594e+00 0.0 
1.000031430594e+00 -2.857434567172e+02 0.0 
0.0 0.0 -1.183981153182e+02 
-1.148046615701e+02 7.501828224430e-01 0.0 
7.501828224430e-01 -2.944935737863e+02 0.0 
0.0 0.0 -1.223894706069e+02 
-4.381971452828e+01 7.046309372202e+00 0.0 
7.046309372202e+00 -1.449863727202e+02 0.0 
0.0 0.0 -5.624182617456e+01 
-4.257907066272e+01 2.400607619037e+01 0.0 
2.400607619037e+01 -8.031171735702e+01 0.0 
0.0 0.0 -3.646723640592e+01 
-5.448768481265e+01 1.827429708265e+01 0.0 
1.827429708265e+01 -1.572969090411e+02 0.0 
0.0 0.0 -6.313537815614e+01 
-1.011407553250e+02 1.434186600800e+00 0.0 
1.434186600800e+00 -2.685794262778e+02 0.0 
0.0 0.0 -1.105160544809e+02 
-1.300074443016e+02 3.166973962850e+00 0.0 
3.166973962850e+00 -3.242414264259e+02 0.0 
0.0 0.0 -1.358746612182e+02 
-1.193793956317e+02 3.437325503283e-01 0.0 
3.437325503283e-01 -3.033341353771e+02 0.0 
0.0 0.0 -1.264140593026e+02 
-3.448998238454e+01 -3.553779160525e+00 0.0 
-3.553779160525e+00 -1.003443242370e+02 0.0 
0.0 0.0 -4.005029198646e+01 
-7.224069011800e+01 3.429343233506e+00 0.0 
3.429343233506e+00 -1.467696133531e+02 0.0 
0.0 0.0 -6.530309104133e+01 
-6.556165204820e+01 2.601129227357e+00 0.0 
2.601129227357e+00 -1.258387396025e+02 0.0 
0.0 0.0 -5.702011749522e+01 
-3.171279622074e+01 -6.818468761082e-01 0.0 
-6.818468761082e-01 -3.449711778010e+01 0.0 
0.0 0.0 -1.946297420025e+01 
-1.056144506912e+02 2.281141746771e+00 0.0 
2.281141746771e+00 -2.789187333773e+02 0.0 
0.0 0.0 -1.149599552206e+02 
-1.057114496963e+02 1.249684367812e+00 0.0 
1.249684367812e+00 -2.772048744665e+02 0.0 
0.0 0.0 -1.144748972488e+02 
-7.303076758618e+01 3.591778449265e+00 0.0 
3.591778449265e+00 -1.491029900485e+02 0.0 
0.0 0.0 -6.624012729040e+01 
-6.881746336197e+01 2.342773637746e+00 0.0 
2.342773637746e+00 -1.369901946400e+02 0.0 
0.0 0.0 -6.134229740060e+01 
-9.322864260226e+01 3.916124247149e+00 0.0 
3.916124247149e+00 -2.535080168277e+02 0.0 
0.0 0.0 -1.036209978290e+02 
-1.399129383438e+02 3.420700045609e+00 0.0 
3.420700045609e+00 -3.426397979076e+02 0.0 
0.0 0.0 -1.443658208754e+02 
-6.797890449127e+01 6.233736852103e+00 0.0 
6.233736852103e+00 -1.232571656777e+02 0.0 
0.0 0.0 -5.697082105071e+01 
-1.198107908122e+02 1.664173709099e+00 0.0 
1.664173709099e+00 -3.035172439882e+02 0.0 
0.0 0.0 -1.265984104401e+02 
-1.413345002173e+02 6.809460961144e+00 0.0 
6.809460961144e+00 -3.461366399333e+02 0.0 
0.0 0.0 -1.458413420452e+02 
-7.405057110864e+01 5.578448231458e+00 0.0 
5.578448231458e+00 -1.480450612200e+02 0.0 
0.0 0.0 -6.622868969860e+01 
-5.798400213461e+01 3.738269072889e+00 0.0 
3.738269072889e+00 -9.566924828085e+01 0.0 
0.0 0.0 -4.569597512464e+01 
-1.055626830045e+02 7.811983115788e+00 0.0 
7.811983115788e+00 -2.821543176974e+02 0.0 
0.0 0.0 -1.159151002106e+02 
-3.529418547347e+01 -2.101866950029e+00 0.0 
-2.101866950029e+00 -1.000202899899e+02 0.0 
0.0 0.0 -4.019434263900e+01 
-3.207748797154e+01 -3.577200773270e+00 0.0 
-3.577200773270e+00 -9.244363680766e+01 0.0 
0.0 0.0 -3.695633743376e+01 
-1.888707011173e+01 -1.802118315059e+00 0.0 
-1.802118315059e+00 -4.809990264246e+01 0.0 
0.0 0.0 -1.969609182626e+01 
-1.911236152649e+01 -2.126703019750e+00 0.0 
-2.126703019750e+00 -2.566730079536e+01 0.0 
0.0 0.0 -1.303389869656e+01 
-7.040363962199e+01 4.176328193890e+00 0.0 
4.176328193890e+00 -1.379219721196e+02 0.0 
0.0 0.0 -6.209768352248e+01 
-1.343034212898e+02 1.245365209574e+00 0.0 
1.245365209574e+00 -3.321881134057e+02 0.0 
0.0 0.0 -1.395474604086e+02 
-1.758888163692e+01 -2.105758894423e+00 0.0 
-2.105758894423e+00 -2.533161656678e+01 0.0 
0.0 0.0 -1.247614946111e+01 
-9.328100669887e+01 2.970066284001e+01 0.0 
2.970066284001e+01 -1.915718123568e+02 0.0 
0.0 0.0 -8.505584571669e+01 
-3.625406472601e+01 -3.323339406075e-01 0.0 
-3.323339406075e-01 -4.339463403705e+01 0.0 
0.0 0.0 -2.349460962892e+01 
-1.208855245908e+02 3.985599292778e+00 0.0 
3.985599292778e+00 -3.072166928298e+02 0.0 
0.0 0.0 -1.280306652262e+02 
-1.243276041844e+02 1.010612294059e+00 0.0 
1.010612294059e+00 -3.133066709573e+02 0.0 
0.0 0.0 -1.308902825425e+02 
-4.615945419732e+01 -2.106653288564e+00 0.0 
-2.106653288564e+00 -1.409194428397e+02 0.0 
0.0 0.0 -5.572366911112e+01 
-1.247454626747e+02 2.400642531373e+00 0.0 
2.400642531373e+00 -3.137701637717e+02 0.0 
0.0 0.0 -1.311546879339e+02 
-3.258321372076e+01 1.439528487131e+00 0.0 
1.439528487131e+00 -3.480277701856e+01 0.0 
0.0 0.0 -1.981579722180e+01 
-9.394926058625e+01 1.731445779488e+01 0.0 
1.731445779488e+01 -2.591153626374e+02 0.0 
0.0 0.0 -1.055193869671e+02 
-1.461059586597e+02 4.668794188925e+00 0.0 
4.668794188925e+00 -3.547333397743e+02 0.0 
0.0 0.0 -1.498517895302e+02 
-3.406937623711e+01 -1.270722199801e+00 0.0 
-1.270722199801e+00 -9.663322480558e+01 0.0 
0.0 0.0 -3.881078031281e+01 
-1.408230951116e+02 8.463622751517e+00 0.0 
8.463622751517e+00 -3.461726704816e+02 0.0 
0.0 0.0 -1.456987296779e+02 
-6.101735542661e+01 3.561198791732e+00 0.0 
3.561198791732e+00 -1.066675007113e+02 0.0 
0.0 0.0 -4.990545684139e+01 
-3.839140226965e+01 -1.809476047680e+00 0.0 
-1.809476047680e+00 -1.086123620503e+02 0.0 
0.0 0.0 -4.370112929598e+01 
-3.912313301004e+01 -2.401600808161e+00 0.0 
-2.401600808161e+00 -1.124586382799e+02 0.0 
0.0 0.0 -4.507453138699e+01 
-8.392941124348e+01 -5.571157283168e-01 0.0 
-5.571157283168e-01 -2.268500603176e+02 0.0 
0.0 0.0 -9.283384146832e+01 
-4.889005379206e+01 1.463413924158e+00 0.0 
1.463413924158e+00 -7.260505593326e+01 0.0 
0.0 0.0 -3.604853291759e+01 
-5.335897381638e+01 -2.125550878652e+00 0.0 
-2.125550878652e+00 -1.529896598552e+02 0.0 
0.0 0.0 -6.150459010146e+01 
-6.394607906957e+01 3.423710679515e+00 0.0 
3.423710679515e+00 -1.175713071387e+02 0.0 
0.0 0.0 -5.405521586247e+01 
-5.344384117647e+01 2.821286649907e+00 0.0 
2.821286649907e+00 -8.586706488102e+01 0.0 
0.0 0.0 -4.139327181725e+01 
-8.003080293477e+01 -3.156225893084e-01 0.0 
-3.156225893084e-01 -2.202019447877e+02 0.0 
0.0 0.0 -8.966982431673e+01 
-1.152241004018e+02 2.061271881573e+00 0.0 
2.061271881573e+00 -2.948063697022e+02 0.0 
0.0 0.0 -1.226091410312e+02 
-1.203265054532e+02 2.807796502078e+00 0.0 
2.807796502078e+00 -3.053584175741e+02 0.0 
0.0 0.0 -1.273054769082e+02 
-5.871287172735e+01 1.652193233581e+00 0.0 
1.652193233581e+00 -1.053009093962e+02 0.0 
0.0 0.0 -4.880413433706e+01 
-2.992753199196e+01 -1.289970034511e+00 0.0 
-1.289970034511e+00 -8.369522234089e+01 0.0 
0.0 0.0 -3.368682629985e+01 
-7.602136921697e+01 -6.852770915849e-01 0.0 
-6.852770915849e-01 -2.095419137075e+02 0.0 
0.0 0.0 -8.526898487735e+01 
-1.092196346209e+02 2.222978645474e+01 0.0 
2.222978645474e+01 -2.872502029411e+02 0.0 
0.0 0.0 -1.185409512686e+02 
-6.520048700317e+01 4.838278882946e+00 0.0 
4.838278882946e+00 -1.161439292809e+02 0.0 
0.0 0.0 -5.400332488521e+01 
-6.803012983048e+01 -1.241327657655e+00 0.0 
-1.241327657655e+00 -1.897231681017e+02 0.0 
0.0 0.0 -7.692598937965e+01 
-9.781991073499e+01 3.858789521889e+00 0.0 
3.858789521889e+00 -2.623745238599e+02 0.0 
0.0 0.0 -1.076583303785e+02 
-1.359129173921e+02 9.153301419023e+00 0.0 
9.153301419023e+00 -3.374668898300e+02 0.0 
0.0 0.0 -1.416139421666e+02 
-5.580594525029e+01 1.842567190627e+00 0.0 
1.842567190627e+00 -9.442558943793e+01 0.0 
0.0 0.0 -4.466946040647e+01 
-2.224356893076e+01 -2.128362167272e-01 0.0 
-2.128362167272e-01 -4.296279055779e+01 0.0 
0.0 0.0 -1.916190784656e+01 
-1.770222427056e+01 -1.322671601410e+00 0.0 
-1.322671601410e+00 -4.677314426459e+01 0.0 
0.0 0.0 -1.894261056055e+01 
-2.981631077427e+01 2.047533215826e+00 0.0 
2.047533215826e+00 -8.639798634457e+01 0.0 
0.0 0.0 -3.446428913565e+01 
-1.294961976621e+02 1.767714416723e+00 0.0 
1.767714416723e+00 -3.237221272208e+02 0.0 
0.0 0.0 -1.355654974649e+02 
-5.233244763871e+01 1.724463707223e+00 0.0 
1.724463707223e+00 -8.347806769716e+01 0.0 
0.0 0.0 -4.034315460076e+01 
-9.297296829457e+01 1.220877887749e+00 0.0 
1.220877887749e+00 -2.465575013353e+02 0.0 
0.0 0.0 -1.014591408890e+02 
-4.071963066075e+01 3.390432565956e-01 0.0 
3.390432565956e-01 -5.279445905203e+01 0.0 
0.0 0.0 -2.765422691384e+01 
-1.244000168655e+02 1.243875875679e+01 0.0 
1.243875875679e+01 -3.181019972289e+02 0.0 
0.0 0.0 -1.323506042283e+02 
-8.412776283390e+01 -2.397855682937e-01 0.0 
-2.397855682937e-01 -2.288544365352e+02 0.0 
0.0 0.0 -9.349465981074e+01 
-1.197492564376e+02 1.421059167330e+00 0.0 
1.421059167330e+00 -3.048096123725e+02 0.0 
0.0 0.0 -1.269676606430e+02 
-3.588597559181e+01 -6.236938206411e-01 0.0 
-6.236938206411e-01 -1.006134907512e+02 0.0 
0.0 0.0 -4.054983990291e+01 
-1.403570759018e+02 5.314594281443e+00 0.0 
5.314594281443e+00 -3.458068152048e+02 0.0 
0.0 0.0 -1.454491673320e+02 
-8.124002589602e+01 1.083326029181e+00 0.0 
1.083326029181e+00 -2.210296959287e+02 0.0 
0.0 0.0 -9.028091654742e+01 
-3.892139975591e+01 -2.114752556127e-01 0.0 
-2.114752556127e-01 -1.091927577948e+02 0.0 
0.0 0.0 -4.403424726522e+01 
-7.704879766435e+01 8.091759504190e-01 0.0 
8.091759504190e-01 -2.103264865569e+02 0.0 
0.0 0.0 -8.581258526639e+01 
-5.692750474024e+01 -1.792246645726e+00 0.0 
-1.792246645726e+00 -1.616573035193e+02 0.0 
0.0 0.0 -6.517544247785e+01 
-4.423268289068e+01 -1.506319464643e+00 0.0 
-1.506319464643e+00 -1.254899922134e+02 0.0 
0.0 0.0 -5.051680253121e+01 
-9.223691927153e+01 -2.720302923676e-01 0.0 
-2.720302923676e-01 -2.458335334253e+02 0.0 
0.0 0.0 -1.010211358091e+02 
-5.990742999711e+00 -6.055392313314e-01 0.0 
-6.055392313314e-01 -9.228597150519e+00 0.0 
0.0 0.0 -5.161471271792e+00 
-7.435775665298e+00 -6.491653836221e-01 0.0 
-6.491653836221e-01 -9.509033050404e+00 0.0 
0.0 0.0 -5.693450348716e+00 
-1.066621599008e+02 2.627651885857e+00 0.0 
2.627651885857e+00 -2.779108299760e+02 0.0 
0.0 0.0 -1.149718969631e+02 
-3.301697293358e+01 -1.030892700950e+00 0.0 
-1.030892700950e+00 -9.234453963455e+01 0.0 
0.0 0.0 -3.720845377044e+01 
-1.069237401992e+02 3.616211010311e+00 0.0 
3.616211010311e+00 -2.797672487093e+02 0.0 
0.0 0.0 -1.156072966725e+02 
-1.023893839877e+02 3.758122076678e+00 0.0 
3.758122076678e+00 -2.711326030793e+02 0.0 
0.0 0.0 -1.116565961201e+02 
-6.031033534889e+01 -1.530481699552e+00 0.0 
-1.530481699552e+00 -1.745892261100e+02 0.0 
0.0 0.0 -7.006986843766e+01 
-3.731353033080e+01 -2.838829578864e+00 0.0 
-2.838829578864e+00 -1.134899132171e+02 0.0 
0.0 0.0 -4.484103306436e+01 
-7.363636731250e+01 8.182921785794e+00 0.0 
8.182921785794e+00 -1.359455119525e+02 0.0 
0.0 0.0 -6.247456377949e+01 
-2.051803044703e+01 4.811726516452e+00 0.0 
4.811726516452e+00 -4.169233470989e+01 0.0 
0.0 0.0 -1.826310954707e+01 
-6.052621391544e+01 -1.453286421584e+00 0.0 
-1.453286421584e+00 -1.705172949020e+02 0.0 
0.0 0.0 -6.891305264524e+01 
-1.289927695512e+02 1.428158245511e+01 0.0 
1.428158245511e+01 -3.257583638202e+02 0.0 
0.0 0.0 -1.360253400114e+02 
-2.821710185076e+01 -2.128366397182e+00 0.0 
-2.128366397182e+00 -7.964709684757e+01 0.0 
0.0 0.0 -3.195925960950e+01 
-4.654091960535e+01 2.495813111237e+00 0.0 
2.495813111237e+00 -6.471181163032e+01 0.0 
0.0 0.0 -3.297581937070e+01 
-3.766666978420e+01 1.679149926864e+00 0.0 
1.679149926864e+00 -4.437987670578e+01 0.0 
0.0 0.0 -2.421396394699e+01 
-2.809505606297e+01 -2.134160272288e+00 0.0 
-2.134160272288e+00 -7.730506623940e+01 0.0 
0.0 0.0 -3.122003669071e+01 
-1.305231382226e+02 9.696273017143e+00 0.0 
9.696273017143e+00 -3.283408838253e+02 0.0 
0.0 0.0 -1.372592066144e+02 
-6.479917213484e+01 6.753705451840e+00 0.0 
6.753705451840e+00 -1.043946825965e+02 0.0 
0.0 0.0 -5.035815641940e+01 
-3.236434675343e+01 -2.346752242170e+00 0.0 
-2.346752242170e+00 -9.169074021431e+01 0.0 
0.0 0.0 -3.681652609032e+01 
-7.765721051975e+01 1.013401099296e+01 0.0 
1.013401099296e+01 -1.460228487490e+02 0.0 
0.0 0.0 -6.670401778062e+01 
-7.372330499552e+01 8.111058945976e+00 0.0 
8.111058945976e+00 -1.439042934278e+02 0.0 
0.0 0.0 -6.488827952700e+01 
-3.669461180888e+01 -1.159499693711e+00 0.0 
-1.159499693711e+00 -1.031158193433e+02 0.0 
0.0 0.0 -4.154312934566e+01 
-3.293790943694e+01 1.824814100077e+01 0.0 
1.824814100077e+01 -7.268657104847e+01 0.0 
0.0 0.0 -3.128734414562e+01 
-3.745169855965e+01 -1.776168958228e+00 0.0 
-1.776168958228e+00 -1.057108856256e+02 0.0 
0.0 0.0 -4.254877525556e+01 
-1.159504234047e+02 3.134945472056e+00 0.0 
3.134945472056e+00 -2.968836471100e+02 0.0 
0.0 0.0 -1.234502211544e+02 
-8.819955361024e+01 -2.308877474227e-01 0.0 
-2.308877474227e-01 -2.374502314422e+02 0.0 
0.0 0.0 -9.729493551573e+01 
-8.800159476617e+01 2.443937096978e+01 0.0 
2.443937096978e+01 -1.776152788293e+02 0.0 
0.0 0.0 -7.928506207865e+01 
-7.027255043245e+01 5.969511088734e+00 0.0 
5.969511088734e+00 -1.341416035658e+02 0.0 
0.0 0.0 -6.092424619947e+01 
-1.114439621714e+02 3.404213606320e+00 0.0 
3.404213606320e+00 -2.883557928742e+02 0.0 
0.0 0.0 -1.195399265137e+02 
-1.103613121414e+02 2.052567137490e+00 0.0 
2.052567137490e+00 -2.876006348430e+02 0.0 
0.0 0.0 -1.189885840953e+02 
-3.024269892066e+01 -3.199303386178e+00 0.0 
-3.199303386178e+00 -8.537894938417e+01 0.0 
0.0 0.0 -3.428649449145e+01 
-1.150784418552e+02 1.759284196884e+00 0.0 
1.759284196884e+00 -2.962125578074e+02 0.0 
0.0 0.0 -1.229872998988e+02 
-6.116760928315e+01 4.433356796180e+00 0.0 
4.433356796180e+00 -1.024607875027e+02 0.0 
0.0 0.0 -4.868851903576e+01 
-8.903445332002e+01 1.175749444694e+00 0.0 
1.175749444694e+00 -2.381160406468e+02 0.0 
0.0 0.0 -9.774514819003e+01 
-5.488859731350e+01 3.683140398281e+00 0.0 
3.683140398281e+00 -8.489255424465e+01 0.0 
0.0 0.0 -4.153434546744e+01 
-6.716871719182e+01 6.608999195794e+00 0.0 
6.608999195794e+00 -1.150905438804e+02 0.0 
0.0 0.0 -5.427777832166e+01 
-5.905753491548e+01 1.118534795991e+01 0.0 
1.118534795991e+01 -1.863188764954e+02 0.0 
0.0 0.0 -7.321292342325e+01 
-6.641266299006e+01 4.294083168502e+00 0.0 
4.294083168502e+00 -1.242436618488e+02 0.0 
0.0 0.0 -5.679689745165e+01 
-7.223713772512e+01 -1.001145391085e+00 0.0 
-1.001145391085e+00 -1.996713340128e+02 0.0 
0.0 0.0 -8.117254152139e+01 
-8.508214427862e+01 1.188115588864e+00 0.0 
1.188115588864e+00 -2.295802033225e+02 0.0 
0.0 0.0 -9.399870428033e+01 
-5.329381039440e+01 -2.013039666395e+00 0.0 
-2.013039666395e+00 -1.509917184284e+02 0.0 
0.0 0.0 -6.088565864683e+01 
-5.476584158330e+01 -8.825956950533e-01 0.0 
-8.825956950533e-01 -1.583215524005e+02 0.0 
0.0 0.0 -6.352621819515e+01 
-5.668301447500e+01 2.889599933053e+00 0.0 
2.889599933053e+00 -9.278479662851e+01 0.0 
0.0 0.0 -4.444034333105e+01 
-7.599347703408e+01 2.765800629962e+00 0.0 
2.765800629962e+00 -2.166263357485e+02 0.0 
0.0 0.0 -8.738594383477e+01 
-4.053711426826e+01 -1.400360199632e+00 0.0 
-1.400360199632e+00 -1.143621010052e+02 0.0 
0.0 0.0 -4.606976458202e+01 
-2.174648006359e+01 -2.026674843790e+00 0.0 
-2.026674843790e+00 -5.767390609012e+01 0.0 
0.0 0.0 -2.342611584611e+01 
-5.983984470519e+01 5.025431396984e+00 0.0 
5.025431396984e+00 -9.448555540876e+01 0.0 
0.0 0.0 -4.589762003419e+01 
-3.961173184762e+01 -2.825616433167e+00 0.0 
-2.825616433167e+00 -1.136538044501e+02 0.0 
0.0 0.0 -4.557966088933e+01 
-1.402825389438e+02 7.232246346596e+00 0.0 
7.232246346596e+00 -3.457656641710e+02 0.0 
0.0 0.0 -1.454144609344e+02 
-5.972253960469e+01 2.965930943526e+00 0.0 
2.965930943526e+00 -1.037038059387e+02 0.0 
0.0 0.0 -4.862790366301e+01 
-1.199518713384e+02 2.640483212092e+00 0.0 
2.640483212092e+00 -3.065286113164e+02 0.0 
0.0 0.0 -1.275441447965e+02 
-1.439208957880e+02 1.884048546542e+01 0.0 
1.884048546542e+01 -3.468406539428e+02 0.0 
0.0 0.0 -1.468284649192e+02 
-6.915813702228e+01 4.238791467624e-01 0.0 
4.238791467624e-01 -1.906974356380e+02 0.0 
0.0 0.0 -7.755667179810e+01 
-3.598285369309e+01 -2.668958481775e+00 0.0 
-2.668958481775e+00 -1.024805805484e+02 0.0 
0.0 0.0 -4.113903027244e+01 
-2.399331311920e+01 -3.114357295818e+00 0.0 
-3.114357295818e+00 -6.550811161333e+01 0.0 
0.0 0.0 -2.645042741976e+01 
-1.115364442246e+02 4.576315525240e+00 0.0 
4.576315525240e+00 -2.899617675552e+02 0.0 
0.0 0.0 -1.200494635339e+02 
-4.820046195878e+01 8.335396356613e-01 0.0 
8.335396356613e-01 -7.446029878051e+01 0.0 
0.0 0.0 -3.639822822179e+01 
-1.817666385033e+01 -2.637784601770e+00 0.0 
-2.637784601770e+00 -4.650902262593e+01 0.0 
0.0 0.0 -1.900570594288e+01 
-5.469501281182e+01 -7.212486166282e-01 0.0 
-7.212486166282e-01 -1.538646893851e+02 0.0 
0.0 0.0 -6.216791065908e+01 
-3.216939050448e+01 -3.468020781289e-01 0.0 
-3.468020781289e-01 -8.971523784225e+01 0.0 
0.0 0.0 -3.616538850402e+01 
-5.169180298015e+01 3.519288771580e+00 0.0 
3.519288771580e+00 -7.413858642826e+01 0.0 
0.0 0.0 -3.734911682252e+01 
-5.833203380162e+01 -3.189386622835e-01 0.0 
-3.189386622835e-01 -1.625753883197e+02 0.0 
0.0 0.0 -6.587222663638e+01 
-1.008574844175e+02 2.464922968755e+00 0.0 
2.464922968755e+00 -2.701905039159e+02 0.0 
0.0 0.0 -1.109143965000e+02 
-5.393607180066e+01 -3.489178123328e-01 0.0 
-3.489178123328e-01 -1.515138730238e+02 0.0 
0.0 0.0 -6.123498344733e+01 
-6.779618416236e+01 4.626784295812e+00 0.0 
4.626784295812e+00 -1.271667389891e+02 0.0 
0.0 0.0 -5.808887694543e+01 
-4.639282615890e+01 -2.553812861041e+00 0.0 
-2.553812861041e+00 -1.333903048379e+02 0.0 
0.0 0.0 -5.353493929905e+01 
-1.112747260048e+02 5.938298429165e+00 0.0 
5.938298429165e+00 -2.910503705003e+02 0.0 
0.0 0.0 -1.202975289515e+02 
-3.327286830359e+01 -2.698102391939e+00 0.0 
-2.698102391939e+00 -9.314717474836e+01 0.0 
0.0 0.0 -3.752601291559e+01 
-1.068055555696e+02 4.783090660239e+00 0.0 
4.783090660239e+00 -2.811921459028e+02 0.0 
0.0 0.0 -1.159993104417e+02 
-8.093066235095e+01 7.663913247121e-01 0.0 
7.663913247121e-01 -2.193336983227e+02 0.0 
0.0 0.0 -8.967930820209e+01 
-1.150582128693e+02 2.979797487016e+00 0.0 
2.979797487016e+00 -2.978468823734e+02 0.0 
0.0 0.0 -1.234715285728e+02 
-4.299520400415e+01 2.437857541261e+00 0.0 
2.437857541261e+00 -1.412073905477e+02 0.0 
0.0 0.0 -5.486077836554e+01 
-3.132042298165e+01 -1.879977771058e+00 0.0 
-1.879977771058e+00 -8.880589268314e+01 0.0 
0.0 0.0 -3.563789469944e+01 
-4.190733834840e+01 1.762752513774e+00 0.0 
1.762752513774e+00 -5.547418075365e+01 0.0 
0.0 0.0 -2.881445573061e+01 
-9.346452680475e+01 1.026701974935e+01 0.0 
1.026701974935e+01 -2.603679629389e+02 0.0 
0.0 0.0 -1.057497469231e+02 
-4.635005057754e+01 1.981270551458e+01 0.0 
1.981270551458e+01 -1.271565416558e+02 0.0 
0.0 0.0 -5.165197767000e+01 
-5.010766187145e+01 2.705592192912e+00 0.0 
2.705592192912e+00 -7.536471365261e+01 0.0 
0.0 0.0 -3.724171265722e+01 
-3.619292630173e+01 -2.525644025407e+00 0.0 
-2.525644025407e+00 -1.038233130984e+02 0.0 
0.0 0.0 -4.160487182003e+01 
-5.563532861838e+01 4.295341925775e+00 0.0 
4.295341925775e+00 -8.126550110713e+01 0.0 
0.0 0.0 -4.067024891765e+01 
-2.856254277749e+01 -5.996922628038e-01 0.0 
-5.996922628038e-01 -8.062212350965e+01 0.0 
0.0 0.0 -3.235539988614e+01 
-1.308278149323e+02 7.777119085751e+00 0.0 
7.777119085751e+00 -3.281720928913e+02 0.0 
0.0 0.0 -1.372999723471e+02 
-9.727217183481e+01 1.218380545653e+01 0.0 
1.218380545653e+01 -2.681766397965e+02 0.0 
0.0 0.0 -1.092346434894e+02 
-9.780011717038e+01 1.946185133226e+01 0.0 
1.946185133226e+01 -2.649267033958e+02 0.0 
0.0 0.0 -1.084180461699e+02 
-7.927188687452e+01 9.711797781222e+00 0.0 
9.711797781222e+00 -1.573235862176e+02 0.0 
0.0 0.0 -7.057864192765e+01 
-8.402730090700e+01 3.959097307530e+00 0.0 
3.959097307530e+00 -2.354265277212e+02 0.0 
0.0 0.0 -9.543614858847e+01 
-2.939190739188e+01 -2.701581924691e+00 0.0 
-2.701581924691e+00 -8.302885727016e+01 0.0 
0.0 0.0 -3.332622939861e+01 
-9.727964825559e+01 5.062861512292e+00 0.0 
5.062861512292e+00 -2.633192420812e+02 0.0 
0.0 0.0 -1.077796671010e+02 
-1.346512754198e+02 7.875758349244e+00 0.0 
7.875758349244e+00 -3.366490048109e+02 0.0 
0.0 0.0 -1.409900840692e+02 
-4.495591977235e+01 -1.453083655320e+00 0.0 
-1.453083655320e+00 -1.334579295220e+02 0.0 
0.0 0.0 -5.312415478831e+01 
-1.162350873760e+02 4.317977494530e+00 0.0 
4.317977494530e+00 -2.986377726427e+02 0.0 
0.0 0.0 -1.240618580056e+02 
-6.254419922486e+01 5.000249640369e+00 0.0 
5.000249640369e+00 -1.052454146028e+02 0.0 
0.0 0.0 -4.993688414828e+01 
-3.447784861314e+01 -2.708576730739e+00 0.0 
-2.708576730739e+00 -1.047456616605e+02 0.0 
0.0 0.0 -4.136705308209e+01 
-1.020529742205e+02 4.940037484270e+00 0.0 
4.940037484270e+00 -2.723159998238e+02 0.0 
0.0 0.0 -1.119106922133e+02 
-4.445004842113e+01 3.237404422820e+00 0.0 
3.237404422820e+00 -5.261627959158e+01 0.0 
0.0 0.0 -2.871989840381e+01 
-4.298469579646e+01 -5.109623120011e-01 0.0 
-5.109623120011e-01 -1.204896787109e+02 0.0 
0.0 0.0 -4.864231235221e+01 
-5.122031037815e+01 -1.092030498500e+00 0.0 
-1.092030498500e+00 -1.451952893812e+02 0.0 
0.0 0.0 -5.852467992781e+01 
-6.020106571761e+01 2.193545651087e+01 0.0 
2.193545651087e+01 -1.632643054611e+02 0.0 
0.0 0.0 -6.663961135362e+01 
-1.101291635764e+02 3.266746368519e+00 0.0 
3.266746368519e+00 -2.890768549705e+02 0.0 
0.0 0.0 -1.193618055641e+02 
-4.129367034603e+01 2.154521578014e+01 0.0 
2.154521578014e+01 -9.558229090301e+01 0.0 
0.0 0.0 -4.066278837471e+01 
-5.727035970348e+01 2.016304813679e+01 0.0 
2.016304813679e+01 -1.604635952694e+02 0.0 
0.0 0.0 -6.492018649187e+01 
-5.846678372070e+01 4.364967713918e+00 0.0 
4.364967713918e+00 -9.181128063890e+01 0.0 
0.0 0.0 -4.468341930788e+01 
-4.443180489227e+01 5.608986295758e-01 0.0 
5.608986295758e-01 -6.349249865165e+01 0.0 
0.0 0.0 -3.197729106318e+01 
-4.697850052977e+01 2.174117247625e+00 0.0 
2.174117247625e+00 -6.052903465530e+01 0.0 
0.0 0.0 -3.185226055552e+01 
-8.011483700694e+01 -4.847274753439e-01 0.0 
-4.847274753439e-01 -2.185993702419e+02 0.0 
0.0 0.0 -8.921426217465e+01 
-1.251536028466e+02 1.019412450422e+01 0.0 
1.019412450422e+01 -3.190440513574e+02 0.0 
0.0 0.0 -1.328592962612e+02 
-9.249236978900e+01 5.167608798536e+00 0.0 
5.167608798536e+00 -2.541843889638e+02 0.0 
0.0 0.0 -1.036030276258e+02 
-4.269073010208e+01 2.249594460453e+00 0.0 
2.249594460453e+00 -5.394650873410e+01 0.0 
0.0 0.0 -2.859117165085e+01 
-9.855645608580e+01 3.188674564560e+01 0.0 
3.188674564560e+01 -2.102995696550e+02 0.0 
0.0 0.0 -9.225680772224e+01 
-1.017708350321e+02 2.162936375058e+01 0.0 
2.162936375058e+01 -2.702973304436e+02 0.0 
0.0 0.0 -1.112204496427e+02 
-1.051836515868e+02 3.500436920456e+00 0.0 
3.500436920456e+00 -2.802220436556e+02 0.0 
0.0 0.0 -1.152217085727e+02 
-6.382165122609e+01 4.427828210585e+00 0.0 
4.427828210585e+00 -1.133004780443e+02 0.0 
0.0 0.0 -5.273663878113e+01 
-5.830542657107e+01 -5.455639934979e-01 0.0 
-5.455639934979e-01 -1.668591560433e+02 0.0 
0.0 0.0 -6.714937478432e+01 
-5.480059839984e+01 -8.982084702063e-01 0.0 
-8.982084702063e-01 -1.560990448817e+02 0.0 
0.0 0.0 -6.286989298446e+01 
-3.066137710903e+01 -1.845632956960e+00 0.0 
-1.845632956960e+00 -8.585454493470e+01 0.0 
0.0 0.0 -3.455477661312e+01 
-1.013837854229e+02 6.362936703622e+00 0.0 
6.362936703622e+00 -2.728772065897e+02 0.0 
0.0 0.0 -1.118782976038e+02 
-5.835576044972e+01 -5.487018415601e-01 0.0 
-5.487018415601e-01 -1.647989219412e+02 0.0 
0.0 0.0 -6.654640471728e+01 
-5.699741048079e+01 5.015895501242e+00 0.0 
5.015895501242e+00 -8.374122483314e+01 0.0 
0.0 0.0 -4.182159059418e+01 
-5.402000760519e+01 5.006011173290e+00 0.0 
5.006011173290e+00 -7.312172051922e+01 0.0 
0.0 0.0 -3.774251843732e+01 
-6.568095694922e+01 1.068483368262e+01 0.0 
1.068483368262e+01 -1.990023406336e+02 0.0 
0.0 0.0 -7.900498927485e+01 
-4.645544373161e+01 -2.729977984081e+00 0.0 
-2.729977984081e+00 -1.356743040249e+02 0.0 
0.0 0.0 -5.423892432696e+01 
-3.847301326595e+01 6.166277013598e+00 0.0 
6.166277013598e+00 -1.275602042781e+02 0.0 
0.0 0.0 -4.940996526322e+01 
-4.985622798748e+01 -2.440025799788e+00 0.0 
-2.440025799788e+00 -1.443182606914e+02 0.0 
0.0 0.0 -5.785234660367e+01 
-5.323529269033e+01 -2.181839236786e+00 0.0 
-2.181839236786e+00 -1.551522593944e+02 0.0 
0.0 0.0 -6.211626562542e+01 
-3.303819342436e+01 -2.969072672550e+00 0.0 
-2.969072672550e+00 -9.395595587660e+01 0.0 
0.0 0.0 -3.769824479029e+01 
-1.197151205100e+02 1.070484978603e+01 0.0 
1.070484978603e+01 -3.095687057285e+02 0.0 
0.0 0.0 -1.283851478715e+02 
-6.294509957302e+01 -3.249497820819e-01 0.0 
-3.249497820819e-01 -1.866808278864e+02 0.0 
0.0 0.0 -7.448777823783e+01 
-6.942624629053e+01 6.362827925483e+00 0.0 
6.362827925483e+00 -1.258745667802e+02 0.0 
0.0 0.0 -5.819024392122e+01 
-6.609292725474e+01 6.592756884031e-01 0.0 
6.592756884031e-01 -1.966520396883e+02 0.0 
0.0 0.0 -7.842349008292e+01 
-9.525675691349e+01 3.878727488868e+00 0.0 
3.878727488868e+00 -2.622032195867e+02 0.0 
0.0 0.0 -1.068379929501e+02 
-7.820291560508e+01 1.709339055963e+00 0.0 
1.709339055963e+00 -2.244994595033e+02 0.0 
0.0 0.0 -9.041071253251e+01 
-5.834907471441e+01 1.733727979502e+01 0.0 
1.733727979502e+01 -1.712779344171e+02 0.0 
0.0 0.0 -6.848810273947e+01 
-3.372371891324e+01 -1.579252259781e+00 0.0 
-1.579252259781e+00 -9.457481421417e+01 0.0 
0.0 0.0 -3.808955993822e+01 
-1.290185922037e+02 8.446695949902e+00 0.0 
8.446695949902e+00 -3.273755905683e+02 0.0 
0.0 0.0 -1.365182548316e+02 
-1.358926171229e+02 1.141796376525e+01 0.0 
1.141796376525e+01 -3.382705647302e+02 0.0 
0.0 0.0 -1.418489545559e+02 
-7.723201526957e+01 2.454779449878e+01 0.0 
2.454779449878e+01 -2.014093776134e+02 0.0 
0.0 0.0 -8.319241786490e+01 
-5.651323740312e+01 -1.771433550501e+00 0.0 
-1.771433550501e+00 -1.658288500024e+02 0.0 
0.0 0.0 -6.630262622167e+01 
-8.650070406276e+01 2.790977674018e+00 0.0 
2.790977674018e+00 -2.433779683808e+02 0.0 
0.0 0.0 -9.856360173307e+01 
-5.358752266147e+01 2.684489846810e+00 0.0 
2.684489846810e+00 -8.190251513974e+01 0.0 
0.0 0.0 -4.024701134036e+01 
-6.198592613811e+01 -2.372093534597e-01 0.0 
-2.372093534597e-01 -1.755831348560e+02 0.0 
0.0 0.0 -7.087071829825e+01 
-4.498579943587e+01 1.844268626143e+01 0.0 
1.844268626143e+01 -1.252538412340e+02 0.0 
0.0 0.0 -5.067189220097e+01 
-4.743892135614e+01 -1.124376486315e+00 0.0 
-1.124376486315e+00 -1.341495821166e+02 0.0 
0.0 0.0 -5.407655104182e+01 
-3.910438866630e+01 -2.170493573318e+00 0.0 
-2.170493573318e+00 -1.143963505319e+02 0.0 
0.0 0.0 -4.565022175945e+01 
-6.172791642308e+01 -2.191936770360e-02 0.0 
-2.191936770360e-02 -1.774443828026e+02 0.0 
0.0 0.0 -7.135168976772e+01 
-4.276647114115e+01 -2.476341720864e+00 0.0 
-2.476341720864e+00 -1.222922498210e+02 0.0 
0.0 0.0 -4.911761628865e+01 
-3.981570294439e+01 -8.365222621998e-01 0.0 
-8.365222621998e-01 -1.118071782406e+02 0.0 
0.0 0.0 -4.508686435548e+01 
-8.038353750817e+01 2.828356232963e+00 0.0 
2.828356232963e+00 -2.256691929973e+02 0.0 
0.0 0.0 -9.141581915164e+01 
-1.002239114081e+02 3.699656013379e+00 0.0 
3.699656013379e+00 -2.712685805802e+02 0.0 
0.0 0.0 -1.110477475965e+02 
-9.710762473761e+01 2.842722947664e+01 0.0 
2.842722947664e+01 -2.410801253807e+02 0.0 
0.0 0.0 -1.010563250355e+02 
-6.359822038994e+00 -7.379516119264e-01 0.0 
-7.379516119264e-01 -9.113234089506e+00 0.0 
0.0 0.0 -4.241916838550e+00 
-6.061141660470e+01 2.159022671291e+00 0.0 
2.159022671291e+00 -1.876365814362e+02 0.0 
0.0 0.0 -7.407439941228e+01 
-6.190707773201e+01 7.052495918445e-01 0.0 
7.052495918445e-01 -1.876130158335e+02 0.0 
0.0 0.0 -7.445602806967e+01 
-5.973132405590e+01 -1.147681006822e+00 0.0 
-1.147681006822e+00 -1.763645426846e+02 0.0 
0.0 0.0 -7.042876002215e+01 
-5.038268914524e+01 2.449097443252e+00 0.0 
2.449097443252e+00 -7.115322032653e+01 0.0 
0.0 0.0 -3.606077284153e+01 
-7.035110150698e+01 6.563583613526e-01 0.0 
6.563583613526e-01 -2.055825014522e+02 0.0 
0.0 0.0 -8.238008088776e+01 
-4.978019741940e+01 -2.247034124636e+00 0.0 
-2.247034124636e+00 -1.421000502080e+02 0.0 
0.0 0.0 -5.716407428823e+01 
-6.509351473819e+01 6.969881211966e-01 0.0 
6.969881211966e-01 -1.878155737282e+02 0.0 
0.0 0.0 -7.547272653993e+01 
-6.253323119179e+01 2.896901758780e+00 0.0 
2.896901758780e+00 -1.146860086838e+02 0.0 
0.0 0.0 -5.276577196269e+01 
-5.063289116881e+01 -7.470933342504e-01 0.0 
-7.470933342504e-01 -1.427946176917e+02 0.0 
0.0 0.0 -5.762825265814e+01 
-2.033487210689e+01 -2.568944496080e+00 0.0 
-2.568944496080e+00 -5.462976892526e+01 0.0 
0.0 0.0 -2.208939230964e+01 
-2.667882749753e+01 -2.865421709513e+00 0.0 
-2.865421709513e+00 -7.448846680894e+01 0.0 
0.0 0.0 -2.995018829194e+01 
-4.032523329888e+01 -2.835677358259e+00 0.0 
-2.835677358259e+00 -1.221660521176e+02 0.0 
0.0 0.0 -4.834738562495e+01 
-4.971787426320e+01 -2.426829530760e+00 0.0 
-2.426829530760e+00 -1.465645444779e+02 0.0 
0.0 0.0 -5.848472562233e+01 
-6.486484075984e+01 1.942269124541e+00 0.0 
1.942269124541e+00 -1.970058822567e+02 0.0 
0.0 0.0 -7.816121690495e+01 
-6.839240105068e+01 1.612713691919e+00 0.0 
1.612713691919e+00 -1.978488115574e+02 0.0 
0.0 0.0 -7.947236378241e+01 
-3.042230651141e+01 -2.718473535358e+00 0.0 
-2.718473535358e+00 -8.406202877969e+01 0.0 
0.0 0.0 -3.394530058733e+01 
-2.660557114929e+01 -1.481611924647e+00 0.0 
-1.481611924647e+00 -7.474846124040e+01 0.0 
0.0 0.0 -3.000620971691e+01 
-5.403828584247e+01 7.947921852781e+00 0.0 
7.947921852781e+00 -6.218132144565e+01 0.0 
0.0 0.0 -3.446588218644e+01 
-4.367316177415e+01 -9.874247390511e-01 0.0 
-9.874247390511e-01 -1.230014227266e+02 0.0 
0.0 0.0 -4.960237535023e+01 
-1.131919037993e+02 7.866520825778e+00 0.0 
7.866520825778e+00 -2.995675298435e+02 0.0 
0.0 0.0 -1.234278300928e+02 
-9.373445669533e+01 2.692603378846e+01 0.0 
2.692603378846e+01 -2.382337685609e+02 0.0 
0.0 0.0 -9.919046757687e+01 
-6.458563494372e+01 2.572701678844e+01 0.0 
2.572701678844e+01 -1.059635335928e+02 0.0 
0.0 0.0 -5.076475056097e+01 
-7.464422344077e+01 1.125631861607e+01 0.0 
1.125631861607e+01 -1.353367584350e+02 0.0 
0.0 0.0 -6.259429456274e+01 
-1.004099336047e+02 2.964738936621e+01 0.0 
2.964738936621e+01 -2.439044890884e+02 0.0 
0.0 0.0 -1.028943268079e+02 
-6.124414451147e+01 1.139778421951e+01 0.0 
1.139778421951e+01 -1.872915214901e+02 0.0 
0.0 0.0 -7.416069980046e+01 
-8.527844623964e+01 2.563833548781e+01 0.0 
2.563833548781e+01 -2.197584857856e+02 0.0 
0.0 0.0 -9.111107960758e+01 
-3.359286607858e+01 -2.702577725712e+00 0.0 
-2.702577725712e+00 -9.518159099998e+01 0.0 
0.0 0.0 -3.823233712357e+01 
-6.906313097122e+01 8.995678840028e-01 0.0 
8.995678840028e-01 -1.965988654537e+02 0.0 
0.0 0.0 -7.929859892747e+01 
-5.122256000026e+01 1.318048352720e+01 0.0 
1.318048352720e+01 -1.619549388654e+02 0.0 
0.0 0.0 -6.355324965971e+01 
-3.393813912291e+01 -1.244276396207e+00 0.0 
-1.244276396207e+00 -1.060756484648e+02 0.0 
0.0 0.0 -4.160413627632e+01 
-2.852191964060e+01 -2.915486264581e+00 0.0 
-2.915486264581e+00 -7.598063726545e+01 0.0 
0.0 0.0 -3.095076707182e+01 
-5.687816700665e+01 -1.906202060464e+00 0.0 
-1.906202060464e+00 -1.638756702512e+02 0.0 
0.0 0.0 -6.582615117736e+01 
-6.427349114903e+01 1.533899811510e+00 0.0 
1.533899811510e+00 -1.888175354369e+02 0.0 
0.0 0.0 -7.552730797577e+01 
-6.734660771773e+01 2.726077659476e+00 0.0 
2.726077659476e+00 -1.982361943971e+02 0.0 
0.0 0.0 -7.927484063444e+01 
-4.598608947183e+01 -2.094200752634e+00 0.0 
-2.094200752634e+00 -1.309441729240e+02 0.0 
0.0 0.0 -5.267907871876e+01 
-7.366961573126e+01 1.745423865022e+00 0.0 
1.745423865022e+00 -2.154180806730e+02 0.0 
0.0 0.0 -8.632630892128e+01 
-6.311463047525e+01 2.790250807872e+00 0.0 
2.790250807872e+00 -1.888505184698e+02 0.0 
0.0 0.0 -7.518954468350e+01 
-6.342509930474e+01 3.670320427964e+00 0.0 
3.670320427964e+00 -1.963633554807e+02 0.0 
0.0 0.0 -7.753653643563e+01 
-5.137176906681e+01 -1.253638054379e+00 0.0 
-1.253638054379e+00 -1.475156170627e+02 0.0 
0.0 0.0 -5.926621583885e+01 
-9.568246066401e+01 1.468100563728e+01 0.0 
1.468100563728e+01 -2.644669515849e+02 0.0 
0.0 0.0 -1.076448236747e+02 
-6.236007858734e+01 6.926249087798e+00 0.0 
6.926249087798e+00 -9.389237405903e+01 0.0 
0.0 0.0 -4.647573579391e+01 
-5.915526904398e+01 4.069518333285e+00 0.0 
4.069518333285e+00 -1.865795159595e+02 0.0 
0.0 0.0 -7.332043550106e+01 
-1.234481850497e+02 9.011190700534e+00 0.0 
9.011190700534e+00 -3.180645869777e+02 0.0 
0.0 0.0 -1.320538316082e+02 
-3.625746810982e+01 -2.237378857276e+00 0.0 
-2.237378857276e+00 -1.056013471570e+02 0.0 
0.0 0.0 -4.215764458004e+01 
-1.333817715855e+02 1.266267760914e+01 0.0 
1.266267760914e+01 -3.357909363091e+02 0.0 
0.0 0.0 -1.403518123684e+02 
-6.921494759650e+01 1.805827619148e+00 0.0 
1.805827619148e+00 -2.062165053967e+02 0.0 
0.0 0.0 -8.222943589797e+01 
-1.035970294553e+02 3.127085200326e+01 0.0 
3.127085200326e+01 -2.480368100509e+02 0.0 
0.0 0.0 -1.050901518519e+02 
-6.912690624953e+01 2.759695215274e+01 0.0 
2.759695215274e+01 -1.554375955603e+02 0.0 
0.0 0.0 -6.696935054295e+01 
-3.477576435715e+01 -3.360539985559e+00 0.0 
-3.360539985559e+00 -1.030393384054e+02 0.0 
0.0 0.0 -4.094453082877e+01 
-6.830290382621e+01 2.707951300477e+01 0.0 
2.707951300477e+01 -1.239698221008e+02 0.0 
0.0 0.0 -5.728181777811e+01 
-8.177551457739e+01 1.780791191318e+01 0.0 
1.780791191318e+01 -1.532350201031e+02 0.0 
0.0 0.0 -7.010316040414e+01 
-7.238261028224e+01 3.147200790592e+00 0.0 
3.147200790592e+00 -2.154866514044e+02 0.0 
0.0 0.0 -8.596077850598e+01 
-4.009063005877e+01 1.446027880382e+01 0.0 
1.446027880382e+01 -1.176508775755e+02 0.0 
0.0 0.0 -4.692245229029e+01 
-7.212772713345e+01 2.799807130571e+01 0.0 
2.799807130571e+01 -1.418613347842e+02 0.0 
0.0 0.0 -6.379671857530e+01 
-5.241802882902e+01 2.049972577513e+01 0.0 
2.049972577513e+01 -1.448561146505e+02 0.0 
0.0 0.0 -5.878224304386e+01 
-2.950866542249e+01 -3.671882883816e+00 0.0 
-3.671882883816e+00 -8.345260288375e+01 0.0 
0.0 0.0 -3.348838049187e+01 
-8.512214217432e+01 1.535310942233e+01 0.0 
1.535310942233e+01 -1.793387109382e+02 0.0 
0.0 0.0 -7.893825593376e+01 
-2.677928884819e+01 -3.658439766579e+00 0.0 
-3.658439766579e+00 -7.300280363169e+01 0.0 
0.0 0.0 -2.953462774396e+01 
-1.239523341813e+02 2.242109467103e+01 0.0 
2.242109467103e+01 -3.132429578155e+02 0.0 
0.0 0.0 -1.307585875990e+02 
-7.241400245412e+01 5.605963545560e+00 0.0 
5.605963545560e+00 -1.448617053315e+02 0.0 
0.0 0.0 -6.478271233568e+01 
-1.011997618180e+02 1.419647660695e+01 0.0 
1.419647660695e+01 -2.755865217350e+02 0.0 
0.0 0.0 -1.126358850659e+02 
-4.529351762479e+01 1.081594185509e+00 0.0 
1.081594185509e+00 -6.158692905605e+01 0.0 
0.0 0.0 -3.166413400425e+01 
-7.448812582004e+01 1.136130714919e+01 0.0 
1.136130714919e+01 -1.259448487919e+02 0.0 
0.0 0.0 -5.972989238357e+01 
-6.599728747718e+01 4.249792638825e+00 0.0 
4.249792638825e+00 -1.975867075441e+02 0.0 
0.0 0.0 -7.867519850637e+01 
-7.333768644702e+01 1.212871375889e+01 0.0 
1.212871375889e+01 -2.168976865223e+02 0.0 
0.0 0.0 -8.667061189078e+01 
-8.036621211938e+01 1.328940966543e+01 0.0 
1.328940966543e+01 -1.570365206623e+02 0.0 
0.0 0.0 -7.082081983450e+01 
-1.095903512077e+02 4.678672957080e+00 0.0 
4.678672957080e+00 -2.900559135152e+02 0.0 
0.0 0.0 -1.194938794169e+02 
-6.770050298644e+01 9.263260897328e+00 0.0 
9.263260897328e+00 -1.046353488633e+02 0.0 
0.0 0.0 -5.130075555491e+01 
-9.632146212719e+01 8.930080140031e+00 0.0 
8.930080140031e+00 -2.694197580387e+02 0.0 
0.0 0.0 -1.093223660498e+02 
-3.210456293686e+01 -3.322141094515e+00 0.0 
-3.322141094515e+00 -9.441164833904e+01 0.0 
0.0 0.0 -3.755486338277e+01 
-7.279039369742e+01 1.199445182217e+01 0.0 
1.199445182217e+01 -1.160484111210e+02 0.0 
0.0 0.0 -5.625164144552e+01 
-1.203852145768e+02 3.407791263866e+01 0.0 
3.407791263866e+01 -2.910602176624e+02 0.0 
0.0 0.0 -1.230336296718e+02 
-1.345967908649e+02 1.004077534113e+01 0.0 
1.004077534113e+01 -3.372892924995e+02 0.0 
0.0 0.0 -1.411658250093e+02 
-6.702807540236e+01 -2.454875350580e-01 0.0 
-2.454875350580e-01 -1.954863889060e+02 0.0 
0.0 0.0 -7.835433929250e+01 
-4.813776923431e+01 3.433472521589e+00 0.0 
3.433472521589e+00 -6.311379443343e+01 0.0 
0.0 0.0 -3.297546910032e+01 
-4.147438082669e+01 7.533023751792e-01 0.0 
7.533023751792e-01 -5.094175837960e+01 0.0 
0.0 0.0 -2.732484176189e+01 
-7.161880053876e+01 2.732407882977e+00 0.0 
2.732407882977e+00 -2.074388686274e+02 0.0 
0.0 0.0 -8.331730074985e+01 
-1.044514683853e+02 4.948629560650e+00 0.0 
4.948629560650e+00 -2.809653259940e+02 0.0 
0.0 0.0 -1.152250383138e+02 
-1.087785874264e+02 6.333817888894e+00 0.0 
6.333817888894e+00 -2.904113540882e+02 0.0 
0.0 0.0 -1.193569824544e+02 
-2.419828266807e+01 -1.665762057291e+00 0.0 
-1.665762057291e+00 -6.592097463813e+01 0.0 
0.0 0.0 -2.663577719186e+01 
-3.372973129540e+01 5.422802125606e+00 0.0 
5.422802125606e+00 -1.102308912044e+02 0.0 
0.0 0.0 -4.278818674995e+01 
-6.193766950216e+01 5.820596803272e+00 0.0 
5.820596803272e+00 -1.945970368677e+02 0.0 
0.0 0.0 -7.656041191096e+01 
-6.170534676218e+01 4.515607667269e+00 0.0 
4.515607667269e+00 -1.877649398121e+02 0.0 
0.0 0.0 -7.444108597227e+01 
-5.313483262850e+01 1.799839048832e+01 0.0 
1.799839048832e+01 -1.566647793377e+02 0.0 
0.0 0.0 -6.253988358986e+01 
-8.543297175679e+01 1.500079206287e+01 0.0 
1.500079206287e+01 -1.683227088296e+02 0.0 
0.0 0.0 -7.572670417591e+01 
-9.046009606847e+01 2.731627504380e+01 0.0 
2.731627504380e+01 -1.899754388315e+02 0.0 
0.0 0.0 -8.373066046998e+01 
-7.533060406913e+01 7.609024866700e+00 0.0 
7.609024866700e+00 -1.463320789021e+02 0.0 
0.0 0.0 -6.609880489136e+01 
-4.342297136636e+01 2.285375098655e+01 0.0 
2.285375098655e+01 -9.677465058915e+01 0.0 
0.0 0.0 -4.165928658665e+01 
-7.604398682125e+01 1.571243096938e+01 0.0 
1.571243096938e+01 -1.310908525275e+02 0.0 
0.0 0.0 -6.174045180464e+01 
-1.063406810946e+02 6.164554960388e+00 0.0 
6.164554960388e+00 -2.820307643465e+02 0.0 
0.0 0.0 -1.161114336323e+02 
-7.793374658387e+01 1.009858744235e+01 0.0 
1.009858744235e+01 -1.554009287926e+02 0.0 
0.0 0.0 -6.960040261293e+01 
-7.086577035638e+01 1.278254462490e+01 0.0 
1.278254462490e+01 -1.063922303793e+02 0.0 
0.0 0.0 -5.277740022069e+01 
-7.253507130429e+01 1.742154105991e+00 0.0 
1.742154105991e+00 -2.067488497811e+02 0.0 
0.0 0.0 -8.338517632562e+01 
-5.767967478955e+01 6.427146834046e+00 0.0 
6.427146834046e+00 -1.842077196433e+02 0.0 
0.0 0.0 -7.216621832987e+01 
-6.825747404173e+01 9.005722502261e+00 0.0 
9.005722502261e+00 -1.136199535796e+02 0.0 
0.0 0.0 -5.416322828639e+01 
-8.039320078541e+01 1.333992367641e+01 0.0 
1.333992367641e+01 -1.474000364962e+02 0.0 
0.0 0.0 -6.793797118449e+01 
-6.573101062912e+01 6.327508602714e+00 0.0 
6.327508602714e+00 -1.127449815359e+02 0.0 
0.0 0.0 -5.314279764949e+01 
-6.337305467578e+01 6.473766288912e+00 0.0 
6.473766288912e+00 -1.023283436215e+02 0.0 
0.0 0.0 -4.931041948918e+01 
-1.241564547283e+02 6.967462717250e+00 0.0 
6.967462717250e+00 -3.182496190476e+02 0.0 
0.0 0.0 -1.323218221328e+02 
-1.180968056150e+02 2.291742905644e+01 0.0 
2.291742905644e+01 -3.012655431631e+02 0.0 
0.0 0.0 -1.254087046334e+02 
-1.187165527305e+02 7.413745468106e+00 0.0 
7.413745468106e+00 -3.090157284373e+02 0.0 
0.0 0.0 -1.279196843504e+02 
-9.128432013671e+01 2.699941923013e+00 0.0 
2.699941923013e+00 -2.524092610537e+02 0.0 
0.0 0.0 -1.027080743571e+02 
-3.745776067623e+01 2.189174520678e+01 0.0 
2.189174520678e+01 -6.092971071121e+01 0.0 
0.0 0.0 -2.911624141623e+01 
-1.051592204663e+02 1.626297874866e+01 0.0 
1.626297874866e+01 -2.824853957567e+02 0.0 
0.0 0.0 -1.158933848669e+02 
-7.228223455515e+01 1.818658301861e+01 0.0 
1.818658301861e+01 -1.177081363070e+02 0.0 
0.0 0.0 -5.659711125865e+01 
-3.907331120091e+01 -2.297701320280e+00 0.0 
-2.297701320280e+00 -1.111762334396e+02 0.0 
0.0 0.0 -4.467486339216e+01 
-6.449074580435e+01 6.244171978679e+00 0.0 
6.244171978679e+00 -1.957753995115e+02 0.0 
0.0 0.0 -7.767984359476e+01 
-7.401999897649e+01 6.639925382802e+00 0.0 
6.639925382802e+00 -2.227400084101e+02 0.0 
0.0 0.0 -8.862800221597e+01 
-8.152813077515e+01 1.363314196062e+01 0.0 
1.363314196062e+01 -2.348893590698e+02 0.0 
0.0 0.0 -9.452524695347e+01 
-3.284993180175e+01 6.073296658824e-01 0.0 
6.073296658824e-01 -1.052117163642e+02 0.0 
0.0 0.0 -4.101849444979e+01 
-6.016491311150e+01 6.704384609940e+00 0.0 
6.704384609940e+00 -1.853253140111e+02 0.0 
0.0 0.0 -7.324706813680e+01 
-9.025700492164e+01 1.518440595328e+01 0.0 
1.518440595328e+01 -2.529426767309e+02 0.0 
0.0 0.0 -1.025599044958e+02 
-4.738368899070e+01 2.365015130524e+01 0.0 
2.365015130524e+01 -9.814232558849e+01 0.0 
0.0 0.0 -4.325780437376e+01 
-7.469689803220e+01 7.046399893152e-01 0.0 
7.046399893152e-01 -2.145185883120e+02 0.0 
0.0 0.0 -8.636464590324e+01 
-6.328286932591e+01 1.044091345022e+01 0.0 
1.044091345022e+01 -8.446608539436e+01 0.0 
0.0 0.0 -4.392468641608e+01 
-2.649256132778e+01 -7.325995381132e-01 0.0 
-7.325995381132e-01 -2.109504618042e+01 0.0 
0.0 0.0 -1.387628225246e+01 
-2.566553034251e+01 1.623158850432e+01 0.0 
1.623158850432e+01 -1.851141905592e+01 0.0 
0.0 0.0 -1.285308481953e+01 
-8.862979009599e+01 3.944157069330e+00 0.0 
3.944157069330e+00 -2.445326033753e+02 0.0 
0.0 0.0 -9.954871804139e+01 
-1.044095777131e+02 1.269205809058e+01 0.0 
1.269205809058e+01 -2.851523691384e+02 0.0 
0.0 0.0 -1.164685840555e+02 
-9.244088569636e+01 2.661443042278e+01 0.0 
2.661443042278e+01 -1.943329764106e+02 0.0 
0.0 0.0 -8.563215863209e+01 
-6.781351095122e+01 9.619618283814e+00 0.0 
9.619618283814e+00 -2.091711948173e+02 0.0 
0.0 0.0 -8.269541173055e+01 
-8.277672984978e+01 1.691552910834e+00 0.0 
1.691552910834e+00 -2.334943949224e+02 0.0 
0.0 0.0 -9.448133743165e+01 
-5.979955103829e+01 7.112416142665e+00 0.0 
7.112416142665e+00 -8.349440695680e+01 0.0 
0.0 0.0 -4.258818739853e+01 
-2.733655503497e+01 1.785857345374e+01 0.0 
1.785857345374e+01 -2.018146129717e+01 0.0 
0.0 0.0 -1.385540489964e+01 
-9.875327604419e+01 1.323742195667e+01 0.0 
1.323742195667e+01 -2.743424919824e+02 0.0 
0.0 0.0 -1.115287304080e+02 
-7.820704779964e+01 1.157027165254e+01 0.0 
1.157027165254e+01 -2.283001925675e+02 0.0 
0.0 0.0 -9.155217211015e+01 
-5.124989362457e+01 2.591406170956e+01 0.0 
2.591406170956e+01 -9.984159794862e+01 0.0 
0.0 0.0 -4.492744747196e+01 
-1.106968185140e+02 7.532986433770e+00 0.0 
7.532986433770e+00 -2.914837397013e+02 0.0 
0.0 0.0 -1.202541674646e+02 
-3.596545909438e+01 -1.399444849331e+00 0.0 
-1.399444849331e+00 -1.069091521308e+02 0.0 
0.0 0.0 -4.246238336755e+01 
-1.151493603010e+02 9.040272092376e+00 0.0 
9.040272092376e+00 -3.006527668272e+02 0.0 
0.0 0.0 -1.243406381384e+02 
-1.283012651812e+02 1.066973844399e+01 0.0 
1.066973844399e+01 -3.269753450343e+02 0.0 
0.0 0.0 -1.361829830646e+02 
-9.322039380155e+01 1.378393963924e+01 0.0 
1.378393963924e+01 -2.632304482124e+02 0.0 
0.0 0.0 -1.065352526042e+02 
-6.972555408250e+01 8.878253344118e+00 0.0 
8.878253344118e+00 -1.148813387256e+02 0.0 
0.0 0.0 -5.498206784243e+01 
-9.751291370890e+01 2.628512609707e+01 0.0 
2.628512609707e+01 -2.508514230984e+02 0.0 
0.0 0.0 -1.041093010422e+02 
-1.301995716070e+02 1.200577667596e+01 0.0 
1.200577667596e+01 -3.280250742989e+02 0.0 
0.0 0.0 -1.370673937718e+02 
-2.790880746503e+01 1.847064866130e+01 0.0 
1.847064866130e+01 -2.094613587442e+01 0.0 
0.0 0.0 -1.425648300184e+01 
-6.558379481686e+01 9.720816483957e+00 0.0 
9.720816483957e+00 -9.453797772754e+01 0.0 
0.0 0.0 -4.763653176332e+01 
-1.159574439389e+02 2.551692459533e+01 0.0 
2.551692459533e+01 -2.935563855537e+02 0.0 
0.0 0.0 -1.224541488478e+02 
-7.022181984891e+01 8.640218462678e+00 0.0 
8.640218462678e+00 -1.236684880724e+02 0.0 
0.0 0.0 -5.776709237641e+01 
-8.421594922506e+01 1.234503462832e+01 0.0 
1.234503462832e+01 -2.451493732920e+02 0.0 
0.0 0.0 -9.840959675511e+01 
-6.286389402216e+01 8.651449175401e+00 0.0 
8.651449175401e+00 -1.923962674842e+02 0.0 
0.0 0.0 -7.617804845192e+01 
-8.399539011813e+01 1.966945081001e-01 0.0 
1.966945081001e-01 -2.306735796468e+02 0.0 
0.0 0.0 -9.400069092948e+01 
-2.349204118538e+01 7.733699811303e-01 0.0 
7.733699811303e-01 -6.023990588853e+01 0.0 
0.0 0.0 -2.471958412217e+01 
-7.217816842552e+01 8.246284926821e+00 0.0 
8.246284926821e+00 -1.339392824040e+02 0.0 
0.0 0.0 -6.143523524886e+01 
-4.233240033448e+01 -2.020879230164e+00 0.0 
-2.020879230164e+00 -1.199335898376e+02 0.0 
0.0 0.0 -4.827979705162e+01 
-2.803071674750e+01 1.869098927192e+01 0.0 
1.869098927192e+01 -2.102146924728e+01 0.0 
0.0 0.0 -1.431565579843e+01 
-9.204153626234e+01 2.659117789154e+01 0.0 
2.659117789154e+01 -2.360248448194e+02 0.0 
0.0 0.0 -9.801991432453e+01 
-7.634648270296e+01 7.447511070551e+00 0.0 
7.447511070551e+00 -1.556649144886e+02 0.0 
0.0 0.0 -6.920341915748e+01 
-3.361404489624e+01 -2.177206634539e+00 0.0 
-2.177206634539e+00 -9.692955099643e+01 0.0 
0.0 0.0 -3.876307876780e+01 
-6.328153209449e+01 2.356786891322e+01 0.0 
2.356786891322e+01 -1.658045551216e+02 0.0 
0.0 0.0 -6.832582616482e+01 
-6.624146869324e+01 9.421448143734e+00 0.0 
9.421448143734e+00 -1.038712910707e+02 0.0 
0.0 0.0 -5.063382792918e+01 
-8.099777979727e+01 2.002616373338e+00 0.0 
2.002616373338e+00 -2.245247931999e+02 0.0 
0.0 0.0 -9.125677189914e+01 
-3.508346076350e+01 3.620093804480e-01 0.0 
3.620093804480e-01 -1.061021183355e+02 0.0 
0.0 0.0 -4.195567372970e+01 
-3.684177439810e+01 1.291855311481e+01 0.0 
1.291855311481e+01 -1.135086784462e+02 0.0 
0.0 0.0 -4.470513585330e+01 
-2.748584782470e+01 -3.458743208855e+00 0.0 
-3.458743208855e+00 -7.541264368573e+01 0.0 
0.0 0.0 -3.046954745313e+01 
-3.189090630634e+01 -2.447466755454e+00 0.0 
-2.447466755454e+00 -9.614854880859e+01 0.0 
0.0 0.0 -3.801183653448e+01 
-2.972456060007e+01 -3.103865626847e+00 0.0 
-3.103865626847e+00 -8.621412606167e+01 0.0 
0.0 0.0 -3.438160599852e+01 
-7.574271225854e+01 1.095695601269e+01 0.0 
1.095695601269e+01 -2.271243922791e+02 0.0 
0.0 0.0 -9.046013136130e+01 
-9.941456459981e+01 2.582363469058e+01 0.0 
2.582363469058e+01 -2.185052193914e+02 0.0 
0.0 0.0 -9.497593519735e+01 
-2.774752610038e+01 1.866608579172e+01 0.0 
1.866608579172e+01 -2.096586307448e+01 0.0 
0.0 0.0 -1.421401675246e+01 
-1.296222362651e+02 6.480017394038e+00 0.0 
6.480017394038e+00 -3.273606890847e+02 0.0 
0.0 0.0 -1.366948776049e+02 
-4.976296259033e+01 8.047356851237e+00 0.0 
8.047356851237e+00 -1.625351404984e+02 0.0 
0.0 0.0 -6.328943092662e+01 
-6.874680282139e+01 1.388444394714e+01 0.0 
1.388444394714e+01 -9.724113714917e+01 0.0 
0.0 0.0 -4.939638199117e+01 
-2.657114449821e+01 1.140939795732e+00 0.0 
1.140939795732e+00 -7.800041302541e+01 0.0 
0.0 0.0 -3.097146725709e+01 
-1.351042169519e+02 1.375300220009e+01 0.0 
1.375300220009e+01 -3.364390157636e+02 0.0 
0.0 0.0 -1.410629698146e+02 
-3.133528527049e+01 -2.799917012674e+00 0.0 
-2.799917012674e+00 -8.694261247309e+01 0.0 
0.0 0.0 -3.508336932307e+01 
-4.975891578934e+01 -1.816631811075e+00 0.0 
-1.816631811075e+00 -1.403495262161e+02 0.0 
0.0 0.0 -5.663253260163e+01 
-9.710602510318e+01 1.583117675136e+01 0.0 
1.583117675136e+01 -2.698081356631e+02 0.0 
0.0 0.0 -1.096742482299e+02 
-7.036647807150e+01 4.093234519054e+00 0.0 
4.093234519054e+00 -2.071628040514e+02 0.0 
0.0 0.0 -8.285878463688e+01 
-1.118522788907e+02 2.339847096717e+01 0.0 
2.339847096717e+01 -2.885870456881e+02 0.0 
0.0 0.0 -1.197317973736e+02 
-3.988630122619e+01 1.774759166325e+01 0.0 
1.774759166325e+01 -1.075980656237e+02 0.0 
0.0 0.0 -4.384531005496e+01 
-7.752274360368e+01 2.043026248817e+01 0.0 
2.043026248817e+01 -1.259621225732e+02 0.0 
0.0 0.0 -6.064545985306e+01 
-1.219436203701e+02 2.114367270051e+01 0.0 
2.114367270051e+01 -3.121118799085e+02 0.0 
0.0 0.0 -1.298166500836e+02 
-6.094302877060e+01 6.605560185299e+00 0.0 
6.605560185299e+00 -9.206847210235e+01 0.0 
0.0 0.0 -4.550345026189e+01 
-9.493355064773e+01 2.938031629615e+01 0.0 
2.938031629615e+01 -1.959840790017e+02 0.0 
0.0 0.0 -8.687528889483e+01 
-7.741328910921e+01 1.493743976766e+01 0.0 
1.493743976766e+01 -1.281759550127e+02 0.0 
0.0 0.0 -6.127677323657e+01 
-8.165216140043e+01 1.793794366554e+01 0.0 
1.793794366554e+01 -1.413197048410e+02 0.0 
0.0 0.0 -6.649155987243e+01 
-2.779127979951e+01 6.600888130135e+00 0.0 
6.600888130135e+00 -8.250224247985e+01 0.0 
0.0 0.0 -3.268805668381e+01 
-1.246031381517e+02 5.209535006401e+00 0.0 
5.209535006401e+00 -3.176374749918e+02 0.0 
0.0 0.0 -1.322721839430e+02 
-7.135293372542e+01 1.255059224105e+01 0.0 
1.255059224105e+01 -1.169681770832e+02 0.0 
0.0 0.0 -5.609633324258e+01 
-6.193334717336e+01 1.322759878998e+01 0.0 
1.322759878998e+01 -1.918207275263e+02 0.0 
0.0 0.0 -7.572622240989e+01 
-2.759724660119e+01 1.859486413243e+01 0.0 
1.859486413243e+01 -2.139261189596e+01 0.0 
0.0 0.0 -1.429695754914e+01 
-1.290574238793e+02 2.474331308706e+01 0.0 
2.474331308706e+01 -3.193276284890e+02 0.0 
0.0 0.0 -1.341155157105e+02 
-3.197037666760e+01 3.466373339215e+00 0.0 
3.466373339215e+00 -1.033105625116e+02 0.0 
0.0 0.0 -4.018428175377e+01 
-4.696637645420e+01 -5.697925920888e-01 0.0 
-5.697925920888e-01 -1.316758907020e+02 0.0 
0.0 0.0 -5.319268014685e+01 
-1.051556538782e+02 1.999142989660e+01 0.0 
1.999142989660e+01 -2.818361042102e+02 0.0 
0.0 0.0 -1.156975274265e+02 
-2.843960576220e+01 3.009028298731e-01 0.0 
3.009028298731e-01 -8.051472103591e+01 0.0 
0.0 0.0 -3.228629803943e+01 
-6.124226093860e+01 1.930044066323e+01 0.0 
1.930044066323e+01 -1.749401438179e+02 0.0 
0.0 0.0 -7.045472142695e+01 
-1.027487555835e+02 1.527114453260e+01 0.0 
1.527114453260e+01 -2.812715590671e+02 0.0 
0.0 0.0 -1.148060943952e+02 
-8.645088784070e+01 1.957618061328e+01 0.0 
1.957618061328e+01 -1.624478647962e+02 0.0 
0.0 0.0 -7.426962579108e+01 
-9.037314395338e+01 2.271213740936e+01 0.0 
2.271213740936e+01 -1.771812888058e+02 0.0 
0.0 0.0 -7.986632982775e+01 
-9.949679400296e+01 1.677220133017e+01 0.0 
1.677220133017e+01 -2.710185358419e+02 0.0 
0.0 0.0 -1.107545989535e+02 
-7.894019988945e+01 1.410585859857e+01 0.0 
1.410585859857e+01 -1.376513233687e+02 0.0 
0.0 0.0 -6.457745697744e+01 
-5.229700194547e+01 1.007536500843e+01 0.0 
1.007536500843e+01 -1.686927491820e+02 0.0 
0.0 0.0 -6.589692533825e+01 
-9.055174001463e+01 2.847100367560e+01 0.0 
2.847100367560e+01 -2.237229916049e+02 0.0 
0.0 0.0 -9.388241948587e+01 
-2.775004292632e+01 1.856280532978e+01 0.0 
1.856280532978e+01 -2.155497242617e+01 0.0 
0.0 0.0 -1.439150460575e+01 
-9.621997984462e+01 2.995490270857e+01 0.0 
2.995490270857e+01 -2.192412628655e+02 0.0 
0.0 0.0 -9.423837281304e+01 
-2.954171610838e+01 1.882229266032e+01 0.0 
1.882229266032e+01 -2.156164815694e+01 0.0 
0.0 0.0 -1.493100927960e+01 
-3.316349641796e+01 1.913481235733e+01 0.0 
1.913481235733e+01 -2.198347536871e+01 0.0 
0.0 0.0 -1.614409153600e+01 
-6.332009048800e+01 1.034653704607e+01 0.0 
1.034653704607e+01 -1.979298930348e+02 0.0 
0.0 0.0 -7.797499505684e+01 
-4.401004447007e+01 1.918070485581e+01 0.0 
1.918070485581e+01 -2.411933246010e+01 0.0 
0.0 0.0 -2.003881307905e+01 
-7.307005698647e+01 1.966094840730e+01 0.0 
1.966094840730e+01 -2.066070199979e+02 0.0 
0.0 0.0 -8.350312309530e+01 
-5.559805030101e+01 1.529582671605e+01 0.0 
1.529582671605e+01 -1.672065420773e+02 0.0 
0.0 0.0 -6.644137771349e+01 
-6.732247156689e+01 8.108441313531e+00 0.0 
8.108441313531e+00 -2.032522433774e+02 0.0 
0.0 0.0 -8.077241448330e+01 
-3.101486167528e+01 -8.694017717642e-01 0.0 
-8.694017717642e-01 -9.623163243380e+01 0.0 
0.0 0.0 -3.777394823272e+01 
-6.042765446075e+01 8.348228902536e+00 0.0 
8.348228902536e+00 -1.912977354643e+02 0.0 
0.0 0.0 -7.511761697751e+01 
-7.622246106996e+01 1.074170305428e+01 0.0 
1.074170305428e+01 -1.451822581056e+02 0.0 
0.0 0.0 -6.602141575266e+01 
-9.505467230268e+01 2.913198607038e+01 0.0 
2.913198607038e+01 -2.086023989912e+02 0.0 
0.0 0.0 -9.069712138815e+01 
-1.147022770641e+02 4.378647815540e+00 0.0 
4.378647815540e+00 -2.990060976997e+02 0.0 
0.0 0.0 -1.237125124291e+02 
-1.156268603630e+02 2.165969284222e+01 0.0 
2.165969284222e+01 -2.999500851631e+02 0.0 
0.0 0.0 -1.242730836578e+02 
-6.781936227478e+01 3.359333767539e+00 0.0 
3.359333767539e+00 -2.059197824973e+02 0.0 
0.0 0.0 -8.172174343162e+01 
-7.758592513206e+01 1.481135604740e+01 0.0 
1.481135604740e+01 -1.390497271101e+02 0.0 
0.0 0.0 -6.459069567264e+01 
-6.479962608160e+01 7.671957624394e+00 0.0 
7.671957624394e+00 -2.020891329291e+02 0.0 
0.0 0.0 -7.966662770322e+01 
-1.298189222533e+02 4.756708250046e+00 0.0 
4.756708250046e+00 -3.264322880069e+02 0.0 
0.0 0.0 -1.364753630781e+02 
-7.298993128579e+01 1.187407591993e+01 0.0 
1.187407591993e+01 -1.257771091936e+02 0.0 
0.0 0.0 -5.923011214381e+01 
-7.980089930072e+01 1.910282452286e+01 0.0 
1.910282452286e+01 -1.332922858590e+02 0.0 
0.0 0.0 -6.352795554792e+01 
-8.944646950134e+01 1.177847732603e+01 0.0 
1.177847732603e+01 -2.562037765656e+02 0.0 
0.0 0.0 -1.032950738201e+02 
-5.625502139471e+01 9.150150671724e+00 0.0 
9.150150671724e+00 -1.801820644559e+02 0.0 
0.0 0.0 -7.053112575519e+01 
-9.904750353850e+01 2.980765546919e+01 0.0 
2.980765546919e+01 -2.420423734125e+02 0.0 
0.0 0.0 -1.019269630853e+02 
-6.839497053875e+01 2.595149646733e+01 0.0 
2.595149646733e+01 -1.548078584570e+02 0.0 
0.0 0.0 -6.656084869872e+01 
-3.290724529542e+01 -8.785948761643e-01 0.0 
-8.785948761643e-01 -9.703069433773e+01 0.0 
0.0 0.0 -3.858138188994e+01 
-3.392173803884e+01 2.811024654276e+00 0.0 
2.811024654276e+00 -1.039862901587e+02 0.0 
0.0 0.0 -4.097240845927e+01 
-4.141345730801e+01 1.656163043735e+01 0.0 
1.656163043735e+01 -1.215147062540e+02 0.0 
0.0 0.0 -4.847844906861e+01 
-6.222488646753e+01 2.271839624270e+01 0.0 
2.271839624270e+01 -1.651860388655e+02 0.0 
0.0 0.0 -6.782327759991e+01 
-1.350079749313e+02 4.203340369491e+00 0.0 
4.203340369491e+00 -3.353327422682e+02 0.0 
0.0 0.0 -1.407022151598e+02 
-7.553465740756e+01 1.599139124841e+01 0.0 
1.599139124841e+01 -1.193330549612e+02 0.0 
0.0 0.0 -5.806031371061e+01 
-5.856689477286e+01 9.308903391308e+00 0.0 
9.308903391308e+00 -1.811965828190e+02 0.0 
0.0 0.0 -7.152904327756e+01 
-7.404350223243e+01 2.604262334901e+01 0.0 
2.604262334901e+01 -1.863782010985e+02 0.0 
0.0 0.0 -7.772651099929e+01 
-1.086068401293e+02 1.474602894293e+01 0.0 
1.474602894293e+01 -2.925178035980e+02 0.0 
0.0 0.0 -1.199373931182e+02 
-7.614063297704e+01 1.079272852679e+01 0.0 
1.079272852679e+01 -1.360715911317e+02 0.0 
0.0 0.0 -6.326366723263e+01 
-1.021308680791e+02 3.129722296608e+01 0.0 
3.129722296608e+01 -2.448918987757e+02 0.0 
0.0 0.0 -1.037068300564e+02 
-6.191018085863e+01 1.099804243844e+01 0.0 
1.099804243844e+01 -8.614963317391e+01 0.0 
0.0 0.0 -4.401794420976e+01 
-1.165974323508e+02 1.177731967911e+01 0.0 
1.177731967911e+01 -3.070343984811e+02 0.0 
0.0 0.0 -1.266895492496e+02 
-7.028025577383e+01 1.008349450523e+01 0.0 
1.008349450523e+01 -2.103169615596e+02 0.0 
0.0 0.0 -8.377916520002e+01 
-1.109315969166e+02 1.574456085858e+01 0.0 
1.574456085858e+01 -2.936418593154e+02 0.0 
0.0 0.0 -1.209720368696e+02 
-5.984115337490e+01 1.886061814483e+01 0.0 
1.886061814483e+01 -1.742519599375e+02 0.0 
0.0 0.0 -6.982793399371e+01 
-8.415032145843e+01 1.593407205346e+01 0.0 
1.593407205346e+01 -1.590376349575e+02 0.0 
0.0 0.0 -7.255638692476e+01 
-1.065698066280e+02 3.323113927048e+01 0.0 
3.323113927048e+01 -2.494800634145e+02 0.0 
0.0 0.0 -1.064149610128e+02 
-8.068707261084e+01 1.035928325849e+01 0.0 
1.035928325849e+01 -2.380910199086e+02 0.0 
0.0 0.0 -9.523342775583e+01 
-3.029872882326e+01 1.636577957577e+00 0.0 
1.636577957577e+00 -9.565270346739e+01 0.0 
0.0 0.0 -3.738542968720e+01 
-1.007096737275e+02 2.465652194460e+01 0.0 
2.465652194460e+01 -2.638448779805e+02 0.0 
0.0 0.0 -1.089663655124e+02 
-6.853720047171e+01 2.040009882285e+01 0.0 
2.040009882285e+01 -1.926481299431e+02 0.0 
0.0 0.0 -7.795559912445e+01 
-5.444764439926e+01 1.010375976410e+01 0.0 
1.010375976410e+01 -1.696100945129e+02 0.0 
0.0 0.0 -6.681732167364e+01 
-8.667334336881e+01 1.310061259174e+01 0.0 
1.310061259174e+01 -2.463530717492e+02 0.0 
0.0 0.0 -9.950792453539e+01 
-1.142021188730e+02 1.112281247862e+01 0.0 
1.112281247862e+01 -2.997496809827e+02 0.0 
0.0 0.0 -1.237855399567e+02 
-3.226502350467e+01 1.056803908794e+00 0.0 
1.056803908794e+00 -9.635031438291e+01 0.0 
0.0 0.0 -3.818460136627e+01 
-7.247484256722e+01 8.993507883706e+00 0.0 
8.993507883706e+00 -2.200526133097e+02 0.0 
0.0 0.0 -8.735823676309e+01 
-7.143838855420e+01 2.560923615328e+01 0.0 
2.560923615328e+01 -1.411096125209e+02 0.0 
0.0 0.0 -6.336440032252e+01 
-1.358659282936e+02 5.589738055734e+00 0.0 
5.589738055734e+00 -3.359747621731e+02 0.0 
0.0 0.0 -1.411522071400e+02 
-7.524614793032e+01 2.653847917069e+01 0.0 
2.653847917069e+01 -1.587588119783e+02 0.0 
0.0 0.0 -6.980148797258e+01 
-9.526799034747e+01 2.503643700568e+01 0.0 
2.503643700568e+01 -2.496389555461e+02 0.0 
0.0 0.0 -1.030720837681e+02 
-6.761129419343e+01 2.430755508961e+01 0.0 
2.430755508961e+01 -1.231531708558e+02 0.0 
0.0 0.0 -5.682933951476e+01 
-5.903543972246e+01 1.994328389033e+01 0.0 
1.994328389033e+01 -8.612980777118e+01 0.0 
0.0 0.0 -4.314957424809e+01 
-7.231424418858e+01 2.602739792385e+01 0.0 
2.602739792385e+01 -1.717124795600e+02 0.0 
0.0 0.0 -7.280801712458e+01 
-1.112187154967e+02 1.944599303941e+01 0.0 
1.944599303941e+01 -2.940999757576e+02 0.0 
0.0 0.0 -1.211956073763e+02 
-1.208790581207e+02 6.895771531266e+00 0.0 
6.895771531266e+00 -3.096715552263e+02 0.0 
0.0 0.0 -1.287651840041e+02 
-6.951231026761e+01 1.353858837165e+01 0.0 
1.353858837165e+01 -1.088405001429e+02 0.0 
0.0 0.0 -5.310584312314e+01 
-8.710378299689e+01 2.003524861212e+01 0.0 
2.003524861212e+01 -1.753103419285e+02 0.0 
0.0 0.0 -7.832423747762e+01 
-6.367552388961e+01 2.249679857134e+01 0.0 
2.249679857134e+01 -1.049458985331e+02 0.0 
0.0 0.0 -5.018642672680e+01 
-4.597460282364e+01 6.828879532576e+00 0.0 
6.828879532576e+00 -1.458485159271e+02 0.0 
0.0 0.0 -5.714693562523e+01 
-1.068640637856e+02 2.791010775197e+01 0.0 
2.791010775197e+01 -2.691568009051e+02 0.0 
0.0 0.0 -1.124062594072e+02 
-8.180569384681e+01 1.271438895070e+01 0.0 
1.271438895070e+01 -1.574818151069e+02 0.0 
0.0 0.0 -7.138625268612e+01 
-6.075631027506e+01 1.610209334676e+01 0.0 
1.610209334676e+01 -1.838950260667e+02 0.0 
0.0 0.0 -7.299540090253e+01 
-6.384526457181e+01 1.798814162452e+01 0.0 
1.798814162452e+01 -1.880960803802e+02 0.0 
0.0 0.0 -7.518240348560e+01 
-5.200310533846e+01 8.025218668410e+00 0.0 
8.025218668410e+00 -1.634790097074e+02 0.0 
0.0 0.0 -6.424463451375e+01 
-7.427709215910e+01 1.682460051373e+01 0.0 
1.682460051373e+01 -1.238987785771e+02 0.0 
0.0 0.0 -5.905276122087e+01 
-4.318243985673e+01 2.050083248344e+01 0.0 
2.050083248344e+01 -1.114085324327e+02 0.0 
0.0 0.0 -4.597729168684e+01 
-7.588033164644e+01 1.826617489309e+01 0.0 
1.826617489309e+01 -2.190674185683e+02 0.0 
0.0 0.0 -8.808432506442e+01 
-4.425844199304e+01 2.093797986274e+01 0.0 
2.093797986274e+01 -1.119506986483e+02 0.0 
0.0 0.0 -4.646274219239e+01 
-1.010981707649e+02 1.790951106066e+01 0.0 
1.790951106066e+01 -2.760005344174e+02 0.0 
0.0 0.0 -1.127296115547e+02 
-1.165967326529e+02 2.947590505138e+01 0.0 
2.947590505138e+01 -2.868564131040e+02 0.0 
0.0 0.0 -1.206359437271e+02 
-5.599073281669e+01 7.298282870742e+00 0.0 
7.298282870742e+00 -1.745632783547e+02 0.0 
0.0 0.0 -6.876620335142e+01 
-2.506773813058e+01 1.009074099356e-02 0.0 
1.009074099356e-02 -6.072994012230e+01 0.0 
0.0 0.0 -2.533930347586e+01 
-8.965638046903e+01 2.374611224102e+01 0.0 
2.374611224102e+01 -1.838574001859e+02 0.0 
0.0 0.0 -8.165413419647e+01 
-4.569695338712e+01 2.171994549330e+01 0.0 
2.171994549330e+01 -1.130421395239e+02 0.0 
0.0 0.0 -4.722172787332e+01 
-7.086756393725e+01 4.930201421889e+00 0.0 
4.930201421889e+00 -2.145163069512e+02 0.0 
0.0 0.0 -8.521516126652e+01 
-1.104449964076e+02 2.636320659652e+01 0.0 
2.636320659652e+01 -2.823435752665e+02 0.0 
0.0 0.0 -1.174365715022e+02 
-7.335809494675e+01 1.727742078550e+01 0.0 
1.727742078550e+01 -1.111134293346e+02 0.0 
0.0 0.0 -5.494145728442e+01 
-1.158069244776e+02 7.232614972458e+00 0.0 
7.232614972458e+00 -3.006532945782e+02 0.0 
0.0 0.0 -1.245380657168e+02 
-5.302137519978e+01 1.316925196527e+01 0.0 
1.316925196527e+01 -1.627151229259e+02 0.0 
0.0 0.0 -6.432094943769e+01 
-2.219072478063e+01 -5.599556547571e-01 0.0 
-5.599556547571e-01 -5.136787231619e+01 0.0 
0.0 0.0 -2.166757912905e+01 
-1.409206260816e+02 5.085539981360e+00 0.0 
5.085539981360e+00 -3.456920703172e+02 0.0 
0.0 0.0 -1.455838089197e+02 
-6.618608458459e+01 2.211875543837e+01 0.0 
2.211875543837e+01 -1.805039564307e+02 0.0 
0.0 0.0 -7.360701230460e+01 
-9.217220828546e+01 1.995267100557e+01 0.0 
1.995267100557e+01 -2.517391892418e+02 0.0 
0.0 0.0 -1.027734192582e+02 
-1.026053078038e+02 2.863956743941e+01 0.0 
2.863956743941e+01 -2.569718894238e+02 0.0 
0.0 0.0 -1.074731591683e+02 
-2.026814792471e+01 -2.533784876140e-01 0.0 
-2.533784876140e-01 -3.431940654554e+01 0.0 
0.0 0.0 -1.597626634108e+01 
-1.140857257081e+02 5.984923077605e+00 0.0 
5.984923077605e+00 -2.996476246665e+02 0.0 
0.0 0.0 -1.237200051124e+02 
-3.623926376872e+01 1.029063203194e+01 0.0 
1.029063203194e+01 -1.099586703752e+02 0.0 
0.0 0.0 -4.345938024317e+01 
-6.660154950233e+01 1.518590444166e+01 0.0 
1.518590444166e+01 -8.882486745843e+01 0.0 
0.0 0.0 -4.622792508823e+01 
-8.922996020000e+01 2.928449398798e+00 0.0 
2.928449398798e+00 -2.435002182535e+02 0.0 
0.0 0.0 -9.941905353606e+01 
-5.360849284367e+01 7.158612427775e+00 0.0 
7.158612427775e+00 -1.735225448970e+02 0.0 
0.0 0.0 -6.773931132220e+01 
-1.308515290408e+02 6.049748434728e+00 0.0 
6.049748434728e+00 -3.271553820923e+02 0.0 
0.0 0.0 -1.370020733399e+02 
-7.135806558325e+01 1.902862773190e+01 0.0 
1.902862773190e+01 -2.057435893135e+02 0.0 
0.0 0.0 -8.273049646902e+01 
-4.733641318446e+01 6.060783104066e+00 0.0 
6.060783104066e+00 -1.558514846000e+02 0.0 
0.0 0.0 -6.055636933533e+01 
-7.069750733866e+01 2.456407358762e+01 0.0 
2.456407358762e+01 -1.839270891463e+02 0.0 
0.0 0.0 -7.598737894548e+01 
-2.378449153942e+01 -1.395433170956e+00 0.0 
-1.395433170956e+00 -5.182548908063e+01 0.0 
0.0 0.0 -2.228299418601e+01 
-8.692373154757e+01 2.689516944931e+01 0.0 
2.689516944931e+01 -2.207030618771e+02 0.0 
0.0 0.0 -9.188803802741e+01 
-1.034735209752e+02 1.893385466412e+01 0.0 
1.893385466412e+01 -2.772272483807e+02 0.0 
0.0 0.0 -1.138102308068e+02 
-1.082248993963e+02 3.312404403199e+01 0.0 
3.312404403199e+01 -2.496309442540e+02 0.0 
0.0 0.0 -1.069567530951e+02 
-9.566336787697e+01 2.829969726930e+01 0.0 
2.829969726930e+01 -2.393246315837e+02 0.0 
0.0 0.0 -1.000963998382e+02 
-3.861397147068e+01 3.738366743137e+00 0.0 
3.738366743137e+00 -1.215731589066e+02 0.0 
0.0 0.0 -4.765613911317e+01 
-1.161714583411e+02 5.670585347671e+00 0.0 
5.670585347671e+00 -2.999195028691e+02 0.0 
0.0 0.0 -1.244272883631e+02 
-8.155200150806e+01 1.278088349959e+01 0.0 
1.278088349959e+01 -1.665359654357e+02 0.0 
0.0 0.0 -7.402639008314e+01 
-1.332239360726e+02 2.691319055535e+01 0.0 
2.691319055535e+01 -3.239666958281e+02 0.0 
0.0 0.0 -1.367571895702e+02 
-1.075998602537e+02 2.113876618837e+01 0.0 
2.113876618837e+01 -2.831177630954e+02 0.0 
0.0 0.0 -1.168152870047e+02 
-5.699357021148e+01 1.222460075808e+01 0.0 
1.222460075808e+01 -1.751511240187e+02 0.0 
0.0 0.0 -6.924340826905e+01 
-7.857858404765e+01 2.566253517770e+01 0.0 
2.566253517770e+01 -2.021945076913e+02 0.0 
0.0 0.0 -8.383192752167e+01 
-1.345377926300e+02 2.674910853062e+00 0.0 
2.674910853062e+00 -3.336198306687e+02 0.0 
0.0 0.0 -1.400472869896e+02 
-8.450130999617e+01 9.076056453958e-01 0.0 
9.076056453958e-01 -2.274743291967e+02 0.0 
0.0 0.0 -9.319269175785e+01 
-9.015762166964e+01 2.533638043693e+01 0.0 
2.533638043693e+01 -2.349680247311e+02 0.0 
0.0 0.0 -9.713769392023e+01 
-6.416615278986e+01 1.005630643023e+01 0.0 
1.005630643023e+01 -9.466817087949e+01 0.0 
0.0 0.0 -4.725029710081e+01 
-1.258870647986e+02 6.508939382303e+00 0.0 
6.508939382303e+00 -3.184671645616e+02 0.0 
0.0 0.0 -1.329062688081e+02 
-1.204338581602e+02 8.658267102145e+00 0.0 
8.658267102145e+00 -3.100191595435e+02 0.0 
0.0 0.0 -1.287359053111e+02 
-2.018612992086e+01 4.665898725603e-03 0.0 
4.665898725603e-03 -8.311599930007e+00 0.0 
0.0 0.0 -8.149318955259e+00 
-2.016464261158e+01 -4.029212930342e-02 0.0 
-4.029212930342e-02 -8.296482253117e+00 0.0 
0.0 0.0 -8.138337459410e+00 
-7.586663110709e+01 2.793847864150e+01 0.0 
2.793847864150e+01 -1.448817227455e+02 0.0 
0.0 0.0 -6.582450615578e+01 
-8.176464299940e+01 2.410941365760e+01 0.0 
2.410941365760e+01 -2.166419777922e+02 0.0 
0.0 0.0 -8.912198623749e+01 
-9.363926314696e+01 2.924274747068e+00 0.0 
2.924274747068e+00 -2.522625792555e+02 0.0 
0.0 0.0 -1.033705527207e+02 
-7.667209887473e+01 2.844331526961e+01 0.0 
2.844331526961e+01 -1.744855070366e+02 0.0 
0.0 0.0 -7.494728177339e+01 
-6.806060037138e+01 1.712689123611e+01 0.0 
1.712689123611e+01 -2.014050063295e+02 0.0 
0.0 0.0 -8.043968201027e+01 
-1.249648572448e+02 1.569873230018e+01 0.0 
1.569873230018e+01 -3.202806049105e+02 0.0 
0.0 0.0 -1.331736386466e+02 
-5.499447697055e+01 1.212585692802e+01 0.0 
1.212585692802e+01 -1.742823710259e+02 0.0 
0.0 0.0 -6.838305439892e+01 
-9.613253585408e+01 2.321883163999e+01 0.0 
2.321883163999e+01 -2.124787949786e+02 0.0 
0.0 0.0 -9.218339924982e+01 
-5.242420391113e+01 1.905803385464e+01 0.0 
1.905803385464e+01 -6.468258363712e+01 0.0 
0.0 0.0 -3.473203626448e+01 
-6.546459901189e+01 1.846658259920e+01 0.0 
1.846658259920e+01 -1.888869664455e+02 0.0 
0.0 0.0 -7.590546963720e+01 
-8.739078897427e+01 1.680046030438e+00 0.0 
1.680046030438e+00 -2.424333827416e+02 0.0 
0.0 0.0 -9.854725151477e+01 
-3.561079538515e+01 4.763682956983e+00 0.0 
4.763682956983e+00 -1.108801524837e+02 0.0 
0.0 0.0 -4.354728436067e+01 
-7.674238247209e+01 1.873203896132e+00 0.0 
1.873203896132e+00 -2.156444505962e+02 0.0 
0.0 0.0 -8.731604992050e+01 
-7.374843251253e+01 2.305436319111e+01 0.0 
2.305436319111e+01 -1.984749080473e+02 0.0 
0.0 0.0 -8.126700216794e+01 
-6.548198952908e+01 2.403389724573e+01 0.0 
2.403389724573e+01 -1.674726567845e+02 0.0 
0.0 0.0 -6.948639389408e+01 
-6.749164994539e+01 1.481078527797e+01 0.0 
1.481078527797e+01 -1.015141919528e+02 0.0 
0.0 0.0 -5.030175256947e+01 
-7.981508470229e+01 2.691577939177e+01 0.0 
2.691577939177e+01 -1.905069116672e+02 0.0 
0.0 0.0 -8.069659891084e+01 
-8.445190262389e+01 2.941165629635e+01 0.0 
2.941165629635e+01 -1.936831930405e+02 0.0 
0.0 0.0 -8.304052869930e+01 
-2.117594711205e+01 -2.665342179342e-01 0.0 
-2.665342179342e-01 -5.943661346876e+01 0.0 
0.0 0.0 -2.378376817424e+01 
-7.121716107094e+01 -1.311634916596e-01 0.0 
-1.311634916596e-01 -2.043522913020e+02 0.0 
0.0 0.0 -8.227083571187e+01 
-4.662861083403e+01 2.239302463356e+01 0.0 
2.239302463356e+01 -1.135511182272e+02 0.0 
0.0 0.0 -4.765391871836e+01 
-7.182356712794e+01 2.637215100930e+01 0.0 
2.637215100930e+01 -1.566277995298e+02 0.0 
0.0 0.0 -6.813540999731e+01 
-7.613227423097e+01 2.876744098867e+01 0.0 
2.876744098867e+01 -1.597668062629e+02 0.0 
0.0 0.0 -7.036972414816e+01 
-1.171532682304e+02 1.883680869287e+01 0.0 
1.883680869287e+01 -3.053294196222e+02 0.0 
0.0 0.0 -1.263448063558e+02 
-3.140553255549e+01 -8.532438178734e-01 0.0 
-8.532438178734e-01 -8.954133269666e+01 0.0 
0.0 0.0 -3.588405957564e+01 
-3.054680337780e+01 -4.709193783866e-01 0.0 
-4.709193783866e-01 -8.795175189214e+01 0.0 
0.0 0.0 -3.514956658098e+01 
-6.295349051427e+01 2.055095262438e+01 0.0 
2.055095262438e+01 -1.775326283184e+02 0.0 
0.0 0.0 -7.174583564982e+01 
-7.310938280042e+01 1.100933997942e+00 0.0 
1.100933997942e+00 -2.054204730828e+02 0.0 
0.0 0.0 -8.315895676496e+01 
-3.542462262233e+01 2.232737966840e+01 0.0 
2.232737966840e+01 -2.387586884738e+01 0.0 
0.0 0.0 -1.739014744092e+01 
-3.805750383240e+01 2.236966307329e+01 0.0 
2.236966307329e+01 -2.222564605299e+01 0.0 
0.0 0.0 -1.768494496562e+01 
-7.080929731202e+01 1.881457646414e+01 0.0 
1.881457646414e+01 -1.035984725679e+02 0.0 
0.0 0.0 -5.192233096398e+01 
-2.718027911014e+01 7.168684926572e+00 0.0 
7.168684926572e+00 -7.150942070397e+01 0.0 
0.0 0.0 -2.920690994423e+01 
-8.357315349868e+01 8.230070220444e-01 0.0 
8.230070220444e-01 -2.323437587722e+02 0.0 
0.0 0.0 -9.437507368128e+01 
-1.068725785047e+02 1.375586981292e+01 0.0 
1.375586981292e+01 -2.864275346672e+02 0.0 
0.0 0.0 -1.175900339516e+02 
-2.862632491297e+01 -7.247071945539e-03 0.0 
-7.247071945539e-03 -8.728966593166e+01 0.0 
0.0 0.0 -3.437479725339e+01 
-1.239386632717e+02 3.178793646644e+01 0.0 
3.178793646644e+01 -2.962445504424e+02 0.0 
0.0 0.0 -1.256549641142e+02 
-8.276730443033e+01 1.674266550893e+01 0.0 
1.674266550893e+01 -1.494804323479e+02 0.0 
0.0 0.0 -6.927432103346e+01 
-8.129899879459e+01 1.423886554025e+00 0.0 
1.423886554025e+00 -2.229443081843e+02 0.0 
0.0 0.0 -9.087299209367e+01 
-1.197902910390e+02 4.038847283624e+00 0.0 
4.038847283624e+00 -3.078402258188e+02 0.0 
0.0 0.0 -1.278891550573e+02 
-1.431793386865e+01 -1.122058730020e+00 0.0 
-1.122058730020e+00 -4.240732786721e+01 0.0 
0.0 0.0 -1.661757852076e+01 
-1.027972602400e+02 1.180743007027e+01 0.0 
1.180743007027e+01 -2.787225824580e+02 0.0 
0.0 0.0 -1.140559528094e+02 
-6.741065982192e+01 2.292887710347e+01 0.0 
2.292887710347e+01 -1.811929770961e+02 0.0 
0.0 0.0 -7.418109107542e+01 
-1.448478376417e+01 -8.876060635756e-01 0.0 
-8.876060635756e-01 -4.233875275196e+01 0.0 
0.0 0.0 -1.664706095484e+01 
-7.879048785578e+01 1.410427080538e+01 0.0 
1.410427080538e+01 -1.474466393815e+02 0.0 
0.0 0.0 -6.747113817117e+01 
-2.832906081190e+01 4.312065808511e-01 0.0 
4.312065808511e-01 -7.857740232563e+01 0.0 
0.0 0.0 -3.167193894126e+01 
-7.255660622836e+01 2.827910138685e+01 0.0 
2.827910138685e+01 -1.573557019435e+02 0.0 
0.0 0.0 -6.857369245155e+01 
-6.647073305448e+01 2.506224625321e+01 0.0 
2.506224625321e+01 -1.680910060879e+02 0.0 
0.0 0.0 -6.996852174271e+01 
-6.889904233951e+01 5.893074233291e+00 0.0 
5.893074233291e+00 -2.058678742608e+02 0.0 
0.0 0.0 -8.203007498009e+01 
-8.884602022661e+01 5.669282024768e+00 0.0 
5.669282024768e+00 -2.525157353543e+02 0.0 
0.0 0.0 -1.020085266743e+02 
-8.285361798164e+01 1.700210103447e+01 0.0 
1.700210103447e+01 -1.606826035972e+02 0.0 
0.0 0.0 -7.266086647365e+01 
-9.791473126918e+01 6.946204232844e+00 0.0 
6.946204232844e+00 -2.711790277553e+02 0.0 
0.0 0.0 -1.103281277073e+02 
-6.704315689859e+01 1.978184837292e+01 0.0 
1.978184837292e+01 -1.918807149005e+02 0.0 
0.0 0.0 -7.727716153972e+01 
-6.425397315204e+01 2.117215680220e+01 0.0 
2.117215680220e+01 -1.782152577922e+02 0.0 
0.0 0.0 -7.234076928327e+01 
-2.396880997350e+01 1.475631577755e+01 0.0 
1.475631577755e+01 -1.652866229045e+01 0.0 
0.0 0.0 -1.174924167919e+01 
-2.519591439294e+01 -3.577252621695e-01 0.0 
-3.577252621695e-01 -6.955776096674e+01 0.0 
0.0 0.0 -2.802610260790e+01 
-1.010192933467e+02 2.809659220021e+01 0.0 
2.809659220021e+01 -2.544220364353e+02 0.0 
0.0 0.0 -1.062323989346e+02 
-6.436049264272e+01 2.261256460907e+01 0.0 
2.261256460907e+01 -9.144321522183e+01 0.0 
0.0 0.0 -4.634111235937e+01 
-1.043119480046e+02 2.670373426238e+01 0.0 
2.670373426238e+01 -2.677663700399e+02 0.0 
0.0 0.0 -1.112234954133e+02 
-3.497667024910e+01 1.099654724155e+01 0.0 
1.099654724155e+01 -1.095765932953e+02 0.0 
0.0 0.0 -4.296597906332e+01 
-8.419690520540e+01 2.559649337802e+01 0.0 
2.559649337802e+01 -1.687524528551e+02 0.0 
0.0 0.0 -7.548480741815e+01 
-1.046482429817e+02 2.996278777892e+01 0.0 
2.996278777892e+01 -2.579829987217e+02 0.0 
0.0 0.0 -1.083893725110e+02 
-4.381329677322e+01 1.993450269030e+01 0.0 
1.993450269030e+01 -4.306833486776e+01 0.0 
0.0 0.0 -2.566448949230e+01 
-9.894609415508e+01 2.672048471952e+01 0.0 
2.672048471952e+01 -2.532027089486e+02 0.0 
0.0 0.0 -1.052446409311e+02 
-1.210327226320e+02 5.344917925329e+00 0.0 
5.344917925329e+00 -3.086622582522e+02 0.0 
0.0 0.0 -1.285084942653e+02 
-7.818038318437e+01 2.249498417744e+01 0.0 
2.249498417744e+01 -2.132209115303e+02 0.0 
0.0 0.0 -8.702038841439e+01 
-7.911363780977e+01 7.604881133953e-01 0.0 
7.604881133953e-01 -2.234542998548e+02 0.0 
0.0 0.0 -9.037038129936e+01 
-8.479769939709e+01 2.891159464331e+00 0.0 
2.891159464331e+00 -2.346134142581e+02 0.0 
0.0 0.0 -9.542333409655e+01 
-9.370431930724e+01 2.686078681512e+01 0.0 
2.686078681512e+01 -1.868798717118e+02 0.0 
0.0 0.0 -8.377525730573e+01 
-8.035833286354e+01 4.400709387449e+00 0.0 
4.400709387449e+00 -2.339695654898e+02 0.0 
0.0 0.0 -9.389836950600e+01 
-6.952741850957e+01 2.357434288798e+01 0.0 
2.357434288798e+01 -1.832365871602e+02 0.0 
0.0 0.0 -7.542920170092e+01 
-6.938246875956e+01 1.439796855610e+01 0.0 
1.439796855610e+01 -2.094763916586e+02 0.0 
0.0 0.0 -8.325765812543e+01 
-1.076318717373e+02 8.240509956660e+00 0.0 
8.240509956660e+00 -2.899008626322e+02 0.0 
0.0 0.0 -1.188598203109e+02 
-6.248141685967e+01 1.642616153699e+01 0.0 
1.642616153699e+01 -1.846945350481e+02 0.0 
0.0 0.0 -7.375278557234e+01 
-3.961312020367e+01 3.191784683553e+00 0.0 
3.191784683553e+00 -1.310734961870e+02 0.0 
0.0 0.0 -5.080598491720e+01 
-7.728243983959e+01 8.450277486284e+00 0.0 
8.450277486284e+00 -2.306106225732e+02 0.0 
0.0 0.0 -9.196791872382e+01 
-4.163898831970e+01 5.074167978923e+00 0.0 
5.074167978923e+00 -1.382726503471e+02 0.0 
0.0 0.0 -5.357349160005e+01 
-7.569801690401e+01 2.676248182152e+01 0.0 
2.676248182152e+01 -1.737289607368e+02 0.0 
0.0 0.0 -7.442809329225e+01 
-4.386606557069e+01 4.821913705887e+00 0.0 
4.821913705887e+00 -1.391599948076e+02 0.0 
0.0 0.0 -5.450781811350e+01 
-7.323576802253e+01 2.756526420245e+01 0.0 
2.756526420245e+01 -1.724028664115e+02 0.0 
0.0 0.0 -7.329159033020e+01 
-1.134836250567e+02 2.058973576992e+01 0.0 
2.058973576992e+01 -2.953117096310e+02 0.0 
0.0 0.0 -1.222386004063e+02 
-1.068910646735e+02 1.733191002779e+01 0.0 
1.733191002779e+01 -2.878158523110e+02 0.0 
0.0 0.0 -1.180120750953e+02 
-5.780329749941e+01 1.414534180167e+01 0.0 
1.414534180167e+01 -1.793209537388e+02 0.0 
0.0 0.0 -7.073727537145e+01 
-6.522423623011e+01 1.635834466578e+01 0.0 
1.635834466578e+01 -9.534251664799e+01 0.0 
0.0 0.0 -4.777002586343e+01 
-1.248570456281e+02 3.635937666879e+00 0.0 
3.635937666879e+00 -3.166005022574e+02 0.0 
0.0 0.0 -1.320372643656e+02 
-1.258480091520e+02 4.956969150392e+00 0.0 
4.956969150392e+00 -3.173239312841e+02 0.0 
0.0 0.0 -1.325515821308e+02 
-2.434506967659e+01 7.073696670236e+00 0.0 
7.073696670236e+00 -5.515600724322e+01 0.0 
0.0 0.0 -2.345032307594e+01 
-7.632158829518e+01 2.597415565622e+01 0.0 
2.597415565622e+01 -1.880583406348e+02 0.0 
0.0 0.0 -7.891397867899e+01 
-1.406085905332e+02 3.455564256004e+00 0.0 
3.455564256004e+00 -3.450293138183e+02 0.0 
0.0 0.0 -1.452913713054e+02 
-3.339982861107e+01 2.046221386773e+01 0.0 
2.046221386773e+01 -6.014201002681e+01 0.0 
0.0 0.0 -2.766255159136e+01 
-8.945666126736e+01 2.148130286725e+00 0.0 
2.148130286725e+00 -2.419268345599e+02 0.0 
0.0 0.0 -9.901504874819e+01 
-2.190936863293e+01 1.345718432143e+01 0.0 
1.345718432143e+01 -1.707425311148e+01 0.0 
0.0 0.0 -1.129508652332e+01 
-1.298432799446e+02 3.180914128990e+00 0.0 
3.180914128990e+00 -3.252534845902e+02 0.0 
0.0 0.0 -1.361290293604e+02 
-3.651560346965e+01 4.195084400103e+00 0.0 
4.195084400103e+00 -1.207850478355e+02 0.0 
0.0 0.0 -4.679019539155e+01 
-8.716318348885e+01 -3.743744849635e-01 0.0 
-3.743744849635e-01 -2.336502400540e+02 0.0 
0.0 0.0 -9.584402706286e+01 
-8.949381141436e+01 1.896078244745e+01 0.0 
1.896078244745e+01 -2.504296517993e+02 0.0 
0.0 0.0 -1.015770389641e+02 
-6.810669579816e+01 2.045985883262e+01 0.0 
2.045985883262e+01 -9.733016736317e+01 0.0 
0.0 0.0 -4.923105894840e+01 
-6.304885883057e+01 1.820769107996e+01 0.0 
1.820769107996e+01 -9.006469448387e+01 0.0 
0.0 0.0 -4.553406599433e+01 
-7.034349860186e+01 2.147779888580e+01 0.0 
2.147779888580e+01 -1.953099304538e+02 0.0 
0.0 0.0 -7.929602871669e+01 
-3.236810979640e+01 2.127547492881e+01 0.0 
2.127547492881e+01 -2.384240279684e+01 0.0 
0.0 0.0 -1.646315377797e+01 
-3.339713160777e+01 2.163701983648e+01 0.0 
2.163701983648e+01 -2.383123253616e+01 0.0 
0.0 0.0 -1.676850924318e+01 
-1.305276051153e+02 4.467651772005e+00 0.0 
4.467651772005e+00 -3.258455979211e+02 0.0 
0.0 0.0 -1.365119609109e+02 
-9.503398430440e+01 8.301121313114e+00 0.0 
8.301121313114e+00 -2.623851616757e+02 0.0 
0.0 0.0 -1.068257437940e+02 
-7.657284061314e+01 7.312895898887e+00 0.0 
7.312895898887e+00 -2.239789677517e+02 0.0 
0.0 0.0 -8.976554250947e+01 
-1.002963490299e+02 1.076456874444e+01 0.0 
1.076456874444e+01 -2.774727517494e+02 0.0 
0.0 0.0 -1.129307302338e+02 
-6.934710105678e+01 7.113624702508e+00 0.0 
7.113624702508e+00 -2.125790955516e+02 0.0 
0.0 0.0 -8.417785898252e+01 
-4.050472814340e+01 5.726364642979e+00 0.0 
5.726364642979e+00 -1.283219444463e+02 0.0 
0.0 0.0 -5.024800177690e+01 
-2.836320455958e+01 1.854717209357e+01 0.0 
1.854717209357e+01 -2.127334257833e+01 0.0 
0.0 0.0 -1.449096414137e+01 
-5.679450943668e+01 2.122761478328e+01 0.0 
2.122761478328e+01 -6.927371557566e+01 0.0 
0.0 0.0 -3.742046750370e+01 
-2.011649368295e+01 -1.283567647576e-02 0.0 
-1.283567647576e-02 -8.342731942978e+00 0.0 
0.0 0.0 -8.137767687779e+00 
-1.091926385521e+02 1.839323706400e+01 0.0 
1.839323706400e+01 -2.890080204548e+02 0.0 
0.0 0.0 -1.190601977021e+02 
-5.966020533146e+01 1.433193811747e+01 0.0 
1.433193811747e+01 -1.801475127486e+02 0.0 
0.0 0.0 -7.154231542402e+01 
-1.262270537123e+02 2.343621143285e+01 0.0 
2.343621143285e+01 -3.177669792307e+02 0.0 
0.0 0.0 -1.327982098829e+02 
-1.292392164814e+02 4.322185938165e-01 0.0 
4.322185938165e-01 -3.224555847907e+02 0.0 
0.0 0.0 -1.351084403817e+02 
-7.499817798841e+01 9.576653435281e+00 0.0 
9.576653435281e+00 -2.212528326940e+02 0.0 
0.0 0.0 -8.847530320471e+01 
-1.467750387799e+02 6.083167906237e+00 0.0 
6.083167906237e+00 -3.552343138463e+02 0.0 
0.0 0.0 -1.502028057878e+02 
-4.745629442074e+01 4.143390901653e+00 0.0 
4.143390901653e+00 -1.497492879525e+02 0.0 
0.0 0.0 -5.876167471196e+01 
-1.195175972768e+02 2.386612998426e+01 0.0 
2.386612998426e+01 -3.048782688984e+02 0.0 
0.0 0.0 -1.269187598526e+02 
-7.176126295630e+01 2.226134173149e+01 0.0 
2.226134173149e+01 -1.960798090639e+02 0.0 
0.0 0.0 -7.995232160607e+01 
-8.284413232729e+01 2.191093995469e+01 0.0 
2.191093995469e+01 -2.274563593333e+02 0.0 
0.0 0.0 -9.269014749819e+01 
-1.230377320540e+02 1.477507595196e+01 0.0 
1.477507595196e+01 -3.155081750399e+02 0.0 
0.0 0.0 -1.311637721282e+02 
-5.804300511541e+01 -2.768500463740e-01 0.0 
-2.768500463740e-01 -1.688922966556e+02 0.0 
0.0 0.0 -6.768059053129e+01 
-7.288813488662e+01 2.489811566106e+01 0.0 
2.489811566106e+01 -1.856993951620e+02 0.0 
0.0 0.0 -7.717625901459e+01 
-7.190204361185e+01 7.660381479211e+00 0.0 
7.660381479211e+00 -2.137812169157e+02 0.0 
0.0 0.0 -8.530497815828e+01 
-6.977198719416e+01 2.640716848401e+01 0.0 
2.640716848401e+01 -1.702259215295e+02 0.0 
0.0 0.0 -7.159937261711e+01 
-3.798705055524e+01 1.233958832147e+01 0.0 
1.233958832147e+01 -1.138733028246e+02 0.0 
0.0 0.0 -4.515810601395e+01 
-8.760753258538e+01 2.140637459273e+01 0.0 
2.140637459273e+01 -2.412077209376e+02 0.0 
0.0 0.0 -9.824457605689e+01 
-6.633286735941e+01 5.318428167396e+00 0.0 
5.318428167396e+00 -2.046499281379e+02 0.0 
0.0 0.0 -8.089483864919e+01 
-9.200681390533e+01 1.647219658500e+00 0.0 
1.647219658500e+00 -2.512685392980e+02 0.0 
0.0 0.0 -1.025826059610e+02 
-6.885975185746e+01 2.512455799601e+01 0.0 
2.512455799601e+01 -1.695930256159e+02 0.0 
0.0 0.0 -7.113583324201e+01 
-2.038632084750e+01 7.495537358474e+00 0.0 
7.495537358474e+00 -2.416907132881e+01 0.0 
0.0 0.0 -1.296661765289e+01 
-7.742825447126e+01 1.565259525253e+01 0.0 
1.565259525253e+01 -2.274032080376e+02 0.0 
0.0 0.0 -9.104943875266e+01 
-2.318403956509e+01 1.215464678658e+01 0.0 
1.215464678658e+01 -3.221026135026e+01 0.0 
0.0 0.0 -1.621829027461e+01 
-2.291344527061e+01 -2.615657920929e+00 0.0 
-2.615657920929e+00 -6.363554620454e+01 0.0 
0.0 0.0 -2.556469744255e+01 
-8.796272500331e+01 8.496304307620e-01 0.0 
8.496304307620e-01 -2.409700167719e+02 0.0 
0.0 0.0 -9.827982253258e+01 
-9.405572302932e+01 2.981990131917e+01 0.0 
2.981990131917e+01 -2.265431486215e+02 0.0 
0.0 0.0 -9.577966149525e+01 
-6.707769632191e+01 2.117788851495e+01 0.0 
2.117788851495e+01 -1.077547946844e+02 0.0 
0.0 0.0 -5.204974730191e+01 
-3.092435067043e+01 2.053122619525e+01 0.0 
2.053122619525e+01 -2.345573543991e+01 0.0 
0.0 0.0 -1.591402583310e+01 
-9.044574523257e+01 2.315427401966e+01 0.0 
2.315427401966e+01 -2.123734055427e+02 0.0 
0.0 0.0 -9.044574523257e+01 
-2.130784577892e+01 1.232768125578e+01 0.0 
1.232768125578e+01 -1.281336421469e+01 0.0 
0.0 0.0 -9.943941014501e+00 
-3.119029299162e+01 2.063426328843e+01 0.0 
2.063426328843e+01 -2.350177982002e+01 0.0 
0.0 0.0 -1.600762184349e+01 
-7.880869914736e+01 6.238679446276e+00 0.0 
6.238679446276e+00 -2.326599077559e+02 0.0 
0.0 0.0 -9.304058207098e+01 
-8.535317563484e+01 1.540346886673e+00 0.0 
1.540346886673e+00 -2.315626701592e+02 0.0 
0.0 0.0 -9.467475373823e+01 
-4.131111666016e+01 2.432002024467e+01 0.0 
2.432002024467e+01 -6.275512442536e+01 0.0 
0.0 0.0 -3.081987232566e+01 
-5.019599482466e+01 1.386196177740e+00 0.0 
1.386196177740e+00 -1.604252946112e+02 0.0 
0.0 0.0 -6.278638683076e+01 
-8.623682193597e+01 6.850266984466e+00 0.0 
6.850266984466e+00 -2.437771655621e+02 0.0 
0.0 0.0 -9.860419624941e+01 
-7.514227250957e+01 2.403201295000e+01 0.0 
2.403201295000e+01 -1.992755985419e+02 0.0 
0.0 0.0 -8.192536131544e+01 
-8.607218289369e+01 1.708158610652e+01 0.0 
1.708158610652e+01 -2.455259435667e+02 0.0 
0.0 0.0 -9.907943793811e+01 
-9.305229089217e+01 2.933801710907e+01 0.0 
2.933801710907e+01 -2.149728630945e+02 0.0 
0.0 0.0 -9.200754619600e+01 
-2.493931330047e+01 6.522017620241e+00 0.0 
6.522017620241e+00 -6.608393225730e+01 0.0 
0.0 0.0 -2.690697366733e+01 
-7.973171833859e+01 1.118625627901e-01 0.0 
1.118625627901e-01 -2.219897202391e+02 0.0 
0.0 0.0 -9.011643157330e+01 
-8.826277716122e+01 2.308319420619e-01 0.0 
2.308319420619e-01 -2.393532710604e+02 0.0 
0.0 0.0 -9.788481446648e+01 
-4.460676094104e+01 -1.752652681887e+00 0.0 
-1.752652681887e+00 -1.279084586275e+02 0.0 
0.0 0.0 -5.135456587058e+01 
-4.472998860281e+01 1.738016985344e+01 0.0 
1.738016985344e+01 -4.388908789597e+01 0.0 
0.0 0.0 -2.618572294963e+01 
-6.809528694812e+01 2.478483780372e+01 0.0 
2.478483780372e+01 -1.089107523610e+02 0.0 
0.0 0.0 -5.270181179275e+01 
-1.155199204267e+02 1.154137476957e+00 0.0 
1.154137476957e+00 -2.947033186760e+02 0.0 
0.0 0.0 -1.226669717308e+02 
-1.559097478035e+01 -9.964916134154e-01 0.0 
-9.964916134154e-01 -4.269704468290e+01 0.0 
0.0 0.0 -1.708640583897e+01 
-1.997753360082e+01 -2.223708726805e-01 0.0 
-2.223708726805e-01 -2.538352710245e+01 0.0 
0.0 0.0 -1.320831821098e+01 
-3.202735754776e+01 -2.400097195558e+00 0.0 
-2.400097195558e+00 -8.914529202801e+01 0.0 
0.0 0.0 -3.595179487273e+01 
-8.940081743498e+01 1.593098396286e+00 0.0 
1.593098396286e+00 -2.401536906236e+02 0.0 
0.0 0.0 -9.846635241756e+01 
-5.355890452034e+01 5.379694458933e+00 0.0 
5.379694458933e+00 -1.675183611177e+02 0.0 
0.0 0.0 -6.592317969141e+01 
-4.890752575084e+01 1.993802407652e+00 0.0 
1.993802407652e+00 -1.520094968396e+02 0.0 
0.0 0.0 -5.987510677714e+01 
-4.184872078964e+01 2.958391306123e+00 0.0 
2.958391306123e+00 -1.319714144888e+02 0.0 
0.0 0.0 -5.174604058354e+01 
-9.236312555380e+01 8.327637887692e-01 0.0 
8.327637887692e-01 -2.496138593785e+02 0.0 
0.0 0.0 -1.021930954797e+02 
-7.462688402602e+01 2.504420768637e+01 0.0 
2.504420768637e+01 -1.435510975800e+02 0.0 
0.0 0.0 -6.505339448180e+01 
-9.250408778725e+01 2.053118164275e-01 0.0 
2.053118164275e-01 -2.479620185085e+02 0.0 
0.0 0.0 -1.017398318887e+02 
-5.113059950853e+01 5.274384199708e+00 0.0 
5.274384199708e+00 -1.664662755778e+02 0.0 
0.0 0.0 -6.487906252591e+01 
-7.757356821108e+01 2.741229614351e+01 0.0 
2.741229614351e+01 -1.888584165821e+02 0.0 
0.0 0.0 -7.952959543794e+01 
-3.939571601249e+01 2.012929000743e+00 0.0 
2.012929000743e+00 -3.932556856102e+01 0.0 
0.0 0.0 -2.321638537205e+01 
-9.924011495700e+01 2.046401829573e+01 0.0 
2.046401829573e+01 -2.690157975296e+02 0.0 
0.0 0.0 -1.100767737460e+02 
-9.344208647115e+01 1.590598359143e+00 0.0 
1.590598359143e+00 -2.486905567304e+02 0.0 
0.0 0.0 -1.022397929605e+02 
-9.364703865111e+01 2.155833718988e+00 0.0 
2.155833718988e+00 -2.504883467446e+02 0.0 
0.0 0.0 -1.028406156187e+02 
-2.946048745346e+01 1.957827610298e+01 0.0 
1.957827610298e+01 -2.229577512649e+01 0.0 
0.0 0.0 -1.512687877399e+01 
-5.757779519864e+01 4.889395893658e+00 0.0 
4.889395893658e+00 -1.778232721485e+02 0.0 
0.0 0.0 -7.022032020413e+01 
-9.673185100639e+01 1.265428649055e-01 0.0 
1.265428649055e-01 -2.564558435780e+02 0.0 
0.0 0.0 -1.055563083753e+02 
-4.860402821641e+01 -3.953304483561e-01 0.0 
-3.953304483561e-01 -7.942029764448e+01 0.0 
0.0 0.0 -3.800729775827e+01 
-4.166731727002e+01 -5.664295759228e-01 0.0 
-5.664295759228e-01 -6.111282646170e+01 0.0 
0.0 0.0 -3.043404311952e+01 
-3.013980373806e+01 2.005833510901e+01 0.0 
2.005833510901e+01 -2.285891198819e+01 0.0 
0.0 0.0 -1.549961471788e+01 
-9.677186501555e+01 7.572259683305e-01 0.0 
7.572259683305e-01 -2.582494337071e+02 0.0 
0.0 0.0 -1.061063896168e+02 
-5.010472026657e+01 3.999398281603e-01 0.0 
3.999398281603e-01 -1.525900848370e+02 0.0 
0.0 0.0 -6.040844153108e+01 
-2.558312356900e+01 1.323535980563e+01 0.0 
1.323535980563e+01 -4.809868022081e+01 0.0 
0.0 0.0 -2.170454113694e+01 
-1.222335968382e+02 2.505663292427e+01 0.0 
2.505663292427e+01 -3.064001781531e+02 0.0 
0.0 0.0 -1.281901324974e+02 
-2.871250761986e+01 -3.679544216096e+00 0.0 
-3.679544216096e+00 -8.061056185104e+01 0.0 
0.0 0.0 -3.239692084127e+01 
-5.144032628252e+01 -2.001057229261e-01 0.0 
-2.001057229261e-01 -1.605474069752e+02 0.0 
0.0 0.0 -6.319631997731e+01 
-7.472629712642e+01 1.694503314815e+01 0.0 
1.694503314815e+01 -2.155212527210e+02 0.0 
0.0 0.0 -8.667426495422e+01 
-2.776129342259e+01 1.850544323656e+01 0.0 
1.850544323656e+01 -2.126967419658e+01 0.0 
0.0 0.0 -1.430929028575e+01 
-9.752082134248e+01 1.523535424224e+00 0.0 
1.523535424224e+00 -2.572835586465e+02 0.0 
0.0 0.0 -1.060413139967e+02 
-4.287494800561e+01 5.885288629888e-01 0.0 
5.885288629888e-01 -1.201931777638e+02 0.0 
0.0 0.0 -4.852043773083e+01 
-4.802993902009e+01 1.905248457288e+01 0.0 
1.905248457288e+01 -4.311152516428e+01 0.0 
0.0 0.0 -2.694243925531e+01 
-9.782897907921e+01 2.099791344776e+00 0.0 
2.099791344776e+00 -2.590320097952e+02 0.0 
0.0 0.0 -1.066582966623e+02 
-7.342767184829e+01 5.620415591784e+00 0.0 
5.620415591784e+00 -2.157648676683e+02 0.0 
0.0 0.0 -8.635776185497e+01 
-8.527322590312e+01 2.096440169659e+00 0.0 
2.096440169659e+00 -2.333576276013e+02 0.0 
0.0 0.0 -9.518925605133e+01 
-2.124211199575e+01 4.601835999071e+00 0.0 
4.601835999071e+00 -3.007221763610e+01 0.0 
0.0 0.0 -1.499429888956e+01 
-6.877092506164e+01 1.663113272397e+00 0.0 
1.663113272397e+00 -1.384835834404e+02 0.0 
0.0 0.0 -6.177635255060e+01 
-5.905416279538e+01 2.941047172979e+00 0.0 
2.941047172979e+00 -1.794947836181e+02 0.0 
0.0 0.0 -7.116468392405e+01 
-1.189164176383e+02 1.641364208637e+01 0.0 
1.641364208637e+01 -3.107406405951e+02 0.0 
0.0 0.0 -1.284971174700e+02 
-8.476340227219e+01 2.297771088015e+01 0.0 
2.297771088015e+01 -2.285487162739e+02 0.0 
0.0 0.0 -9.359363556383e+01 
-1.011568796999e+02 6.175722210556e-01 0.0 
6.175722210556e-01 -2.668079122326e+02 0.0 
0.0 0.0 -1.099894375798e+02 
-1.019917863828e+02 1.942187880953e+00 0.0 
1.942187880953e+00 -2.674871864266e+02 0.0 
0.0 0.0 -1.104436918428e+02 
-4.876683561665e+01 3.473969353407e+00 0.0 
3.473969353407e+00 -1.589314945801e+02 0.0 
0.0 0.0 -6.190949905904e+01 
-2.299814458070e+01 -3.288901964060e+00 0.0 
-3.288901964060e+00 -5.468626519451e+01 0.0 
0.0 0.0 -2.290532293256e+01 
-1.927910394784e+01 6.421050819838e+00 0.0 
6.421050819838e+00 -2.976324764182e+01 0.0 
0.0 0.0 -1.431270547690e+01 
-1.055763310196e+02 4.157379648036e-01 0.0 
4.157379648036e-01 -2.753573245839e+02 0.0 
0.0 0.0 -1.138800966810e+02 
-1.207508002905e+02 1.388397311065e+01 0.0 
1.388397311065e+01 -3.145744348224e+02 0.0 
0.0 0.0 -1.301975705339e+02 
-5.104780404845e+01 -6.070267701843e-01 0.0 
-6.070267701843e-01 -1.520514663519e+02 0.0 
0.0 0.0 -6.052978112011e+01 
-8.062483099087e+01 2.582854660985e+01 0.0 
2.582854660985e+01 -2.040723883063e+02 0.0 
0.0 0.0 -8.500916578914e+01 
-3.162838759421e+01 1.939407082521e+01 0.0 
1.939407082521e+01 -5.836603090624e+01 0.0 
0.0 0.0 -2.659832555013e+01 
-8.107559603897e+01 2.854708728791e+01 0.0 
2.854708728791e+01 -1.913688093955e+02 0.0 
0.0 0.0 -8.133332163033e+01 
-1.455011685310e+02 1.206869047139e+01 0.0 
1.206869047139e+01 -3.567240447697e+02 0.0 
0.0 0.0 -1.502675639902e+02 
-2.319406493860e+01 -3.617308280636e-01 0.0 
-3.617308280636e-01 -6.790266414786e+00 0.0 
0.0 0.0 -8.595299406015e+00 
-8.212727658824e+01 2.205723496252e+00 0.0 
2.205723496252e+00 -1.929636453726e+02 0.0 
0.0 0.0 -8.212727658824e+01 
-1.635654484918e+02 1.485430876232e+00 0.0 
1.485430876232e+00 -3.829860464808e+02 0.0 
0.0 0.0 -1.635654484918e+02 
-2.897426020228e+01 7.123598975100e-01 0.0 
7.123598975100e-01 -2.947187617252e+01 0.0 
0.0 0.0 -1.713384091244e+01 
-6.030631794123e+01 1.496253755801e+00 0.0 
1.496253755801e+00 -1.798855012354e+02 0.0 
0.0 0.0 -7.165754575299e+01 
-7.979245015761e+01 2.347458877209e+01 0.0 
2.347458877209e+01 -2.141347113312e+02 0.0 
0.0 0.0 -8.777814844664e+01 
-4.966184088329e+01 6.012537206282e+00 0.0 
6.012537206282e+00 -1.568249389586e+02 0.0 
0.0 0.0 -6.154603395257e+01 
-2.050028998335e+01 -1.393969190831e+00 0.0 
-1.393969190831e+00 -5.527519489583e+01 0.0 
0.0 0.0 -2.233264546376e+01 
-1.998272971359e+01 1.130147513403e+01 0.0 
1.130147513403e+01 -1.484781170327e+01 0.0 
0.0 0.0 -1.004916242506e+01 
-7.708058782392e+01 6.862909537934e+00 0.0 
6.862909537934e+00 -1.571462674592e+02 0.0 
0.0 0.0 -6.986805658495e+01 
-7.210085099403e+01 2.663883375368e+01 0.0 
2.663883375368e+01 -1.271122685555e+02 0.0 
0.0 0.0 -5.936393586487e+01 
-4.485581377917e+01 1.936816284030e+01 0.0 
1.936816284030e+01 -2.680350308497e+01 0.0 
0.0 0.0 -2.109779505924e+01 
-1.329903533396e+02 3.484000770104e+01 0.0 
3.484000770104e+01 -3.176431741601e+02 0.0 
0.0 0.0 -1.347900582499e+02 
-3.558339789342e+01 5.343498477246e-01 0.0 
5.343498477246e-01 -1.005359817166e+02 0.0 
0.0 0.0 -4.043581388299e+01 
-1.354325248914e+02 3.330851219805e+01 0.0 
3.330851219805e+01 -3.247019738104e+02 0.0 
0.0 0.0 -1.376403496106e+02 
-7.094905369094e+01 2.346226802882e+01 0.0 
2.346226802882e+01 -1.258485595635e+02 0.0 
0.0 0.0 -5.863928397633e+01 
-6.124830424071e+01 5.170652496685e-01 0.0 
5.170652496685e-01 -1.791815052002e+02 0.0 
0.0 0.0 -7.172894283227e+01 
-7.472132824801e+01 2.079683927096e+01 0.0 
2.079683927096e+01 -2.095924349391e+02 0.0 
0.0 0.0 -8.489412895615e+01 
-5.514212134054e+01 -3.037245530554e-01 0.0 
-3.037245530554e-01 -1.692690924737e+02 0.0 
0.0 0.0 -6.692336414426e+01 
-2.649302939175e+01 1.463164012962e+01 0.0 
1.463164012962e+01 -5.032011264516e+01 0.0 
0.0 0.0 -2.264394261108e+01 
-5.237974395409e+01 -1.282926556184e+00 0.0 
-1.282926556184e+00 -1.594466222045e+02 0.0 
0.0 0.0 -6.314790984758e+01 
-7.838351648815e+01 2.628484238564e+01 0.0 
2.628484238564e+01 -1.612707449041e+02 0.0 
0.0 0.0 -7.149627841769e+01 
-1.347002795717e+02 2.648208451397e+00 0.0 
2.648208451397e+00 -3.326825776329e+02 0.0 
0.0 0.0 -1.398148571614e+02 
-5.393631776017e+01 1.047866176712e+00 0.0 
1.047866176712e+00 -1.695471714415e+02 0.0 
0.0 0.0 -6.664504676051e+01 
-8.408778518839e+01 2.698649646403e+01 0.0 
2.698649646403e+01 -2.067607774859e+02 0.0 
0.0 0.0 -8.685456880228e+01 
-1.859445315764e+01 -5.939467644929e-01 0.0 
-5.939467644929e-01 -8.466409447962e+00 0.0 
0.0 0.0 -8.619514304923e+00 
-5.256750219511e+01 2.925793325877e+00 0.0 
2.925793325877e+00 -1.687127602210e+02 0.0 
0.0 0.0 -6.598407872482e+01 
-8.273046768202e+01 2.676250169035e+01 0.0 
2.676250169035e+01 -1.533521402723e+02 0.0 
0.0 0.0 -7.042478238629e+01 
-5.285611445473e+01 -1.930073148455e+00 0.0 
-1.930073148455e+00 -1.572627863733e+02 0.0 
0.0 0.0 -6.263567024842e+01 
-4.816712183348e+01 -1.336454763112e+00 0.0 
-1.336454763112e+00 -1.419250694282e+02 0.0 
0.0 0.0 -5.662765737851e+01 
-7.635796423666e+01 2.159838314695e+01 0.0 
2.159838314695e+01 -2.104730793691e+02 0.0 
0.0 0.0 -8.564931308172e+01 
-2.718961404899e+01 -3.007574390535e+00 0.0 
-3.007574390535e+00 -7.737976693283e+01 0.0 
0.0 0.0 -3.097081429455e+01 
-2.763828644242e+01 1.846569733218e+01 0.0 
1.846569733218e+01 -2.090285334861e+01 0.0 
0.0 0.0 -1.416234193731e+01 
-2.997870962951e+01 2.038102640276e+01 0.0 
2.038102640276e+01 -2.223106449844e+01 0.0 
0.0 0.0 -1.526293223838e+01 
-4.642911074786e+01 -2.583607191182e+00 0.0 
-2.583607191182e+00 -1.383939729636e+02 0.0 
0.0 0.0 -5.504692511344e+01 
-8.133863124131e+01 7.047202573586e+00 0.0 
7.047202573586e+00 -2.339433807053e+02 0.0 
0.0 0.0 -9.418460358398e+01 
-6.491776621598e+01 1.520966933222e+01 0.0 
1.520966933222e+01 -1.968077697105e+02 0.0 
0.0 0.0 -7.811766077796e+01 
-8.568373548458e+01 2.850363208197e+01 0.0 
2.850363208197e+01 -2.076882082845e+02 0.0 
0.0 0.0 -8.761158313072e+01 
-9.862423120376e+01 3.046748621774e+01 0.0 
3.046748621774e+01 -2.239988347933e+02 0.0 
0.0 0.0 -9.638691979911e+01 
-2.769190205519e+01 1.856879331432e+01 0.0 
1.856879331432e+01 -2.125105631544e+01 0.0 
0.0 0.0 -1.428288751119e+01 
-5.608570746720e+01 1.527377639444e+00 0.0 
1.527377639444e+00 -9.938379321284e+01 0.0 
0.0 0.0 -4.624085020401e+01 
-1.083713829502e+02 3.114088282736e+01 0.0 
3.114088282736e+01 -2.615061873018e+02 0.0 
0.0 0.0 -1.105632710756e+02 
-4.510220344591e+01 4.178300743779e+00 0.0 
4.178300743779e+00 -1.487601200931e+02 0.0 
0.0 0.0 -5.775869706171e+01 
-2.496408447169e+01 1.424947793385e+01 0.0 
1.424947793385e+01 -3.286407080157e+01 0.0 
0.0 0.0 -1.694844658198e+01 
-3.449863780975e+01 2.109501640077e+01 0.0 
2.109501640077e+01 -6.076690980857e+01 0.0 
0.0 0.0 -2.817966428549e+01 
-7.803563895364e+01 5.429882553724e+00 0.0 
5.429882553724e+00 -2.254270350193e+02 0.0 
0.0 0.0 -9.063880219188e+01 
-8.294560672179e+01 2.766725796183e+01 0.0 
2.766725796183e+01 -1.927265200028e+02 0.0 
0.0 0.0 -8.230163801739e+01 
-7.550848452357e+01 4.626488558039e+00 0.0 
4.626488558039e+00 -2.241812994352e+02 0.0 
0.0 0.0 -8.950693518763e+01 
-2.423362332512e+01 5.615044951436e+00 0.0 
5.615044951436e+00 -5.045500636559e+01 0.0 
0.0 0.0 -2.200658890721e+01 
-8.982640797893e+01 8.503754642732e+00 0.0 
8.503754642732e+00 -2.522276167490e+02 0.0 
0.0 0.0 -1.022162074184e+02 
-2.790460323251e+01 1.606116864908e+01 0.0 
1.606116864908e+01 -5.254390725492e+01 0.0 
0.0 0.0 -2.373455314623e+01 
-6.688219562633e+01 1.559117117270e+01 0.0 
1.559117117270e+01 -1.977194699598e+02 0.0 
0.0 0.0 -7.898049967585e+01 
-8.367840472217e+01 5.881254601755e+00 0.0 
5.881254601755e+00 -2.424792068780e+02 0.0 
0.0 0.0 -9.744728348006e+01 
-7.928242470596e+01 2.019279824703e+01 0.0 
2.019279824703e+01 -2.233592990690e+02 0.0 
0.0 0.0 -9.039251713250e+01 
-4.854914385165e+01 1.818561200049e+00 0.0 
1.818561200049e+00 -7.469990402572e+01 0.0 
0.0 0.0 -3.657471436321e+01 
-4.818398640130e+01 -1.625086179810e+00 0.0 
-1.625086179810e+00 -1.393268282745e+02 0.0 
0.0 0.0 -5.585324440275e+01 
-2.393980388821e+01 1.137235179350e+01 0.0 
1.137235179350e+01 -4.440969968567e+01 0.0 
0.0 0.0 -2.010485107216e+01 
-9.248743444676e+01 7.205709957471e+00 0.0 
7.205709957471e+00 -2.610706068482e+02 0.0 
0.0 0.0 -1.056674123885e+02 
-2.875109435286e+01 1.702309099617e+01 0.0 
1.702309099617e+01 -5.372747133487e+01 0.0 
0.0 0.0 -2.434356970632e+01 
-1.904974158609e+01 3.929209911969e-01 0.0 
3.929209911969e-01 -2.507988554275e+01 0.0 
0.0 0.0 -1.283888813865e+01 
-7.382179534919e+01 1.931547628138e-01 0.0 
1.931547628138e-01 -1.574817607952e+02 0.0 
0.0 0.0 -6.899106684332e+01 
-6.862067988778e+01 -9.779008449883e-02 0.0 
-9.779008449883e-02 -1.385188177470e+02 0.0 
0.0 0.0 -6.174184929042e+01 
-1.330524197612e+01 -1.791079113447e+00 0.0 
-1.791079113447e+00 -2.469905697384e+01 0.0 
0.0 0.0 -1.138333751856e+01 
-9.887636240944e+01 9.981542053566e+00 0.0 
9.981542053566e+00 -2.706849067083e+02 0.0 
0.0 0.0 -1.104683807353e+02 
-3.824285791511e+01 -2.251442689518e+00 0.0 
-2.251442689518e+00 -1.086113130758e+02 0.0 
0.0 0.0 -4.365625129729e+01 
-3.990075441358e+01 -3.199329120755e+00 0.0 
-3.199329120755e+00 -1.160033317510e+02 0.0 
0.0 0.0 -4.637122584938e+01 
-9.213373837836e+01 2.822996434123e+01 0.0 
2.822996434123e+01 -2.255757940349e+02 0.0 
0.0 0.0 -9.491285972399e+01 
-8.123995458321e+01 2.096228747154e+01 0.0 
2.096228747154e+01 -2.243403818629e+02 0.0 
0.0 0.0 -9.127410093383e+01 
-8.872058428164e+01 2.701491935503e+01 0.0 
2.701491935503e+01 -2.226781392751e+02 0.0 
0.0 0.0 -9.301961706703e+01 
-5.504686803658e+01 3.198541293193e+00 0.0 
3.198541293193e+00 -1.698301002151e+02 0.0 
0.0 0.0 -6.706309047551e+01 
-1.996393962690e+01 -2.466581319573e-01 0.0 
-2.466581319573e-01 -8.111324586495e+00 0.0 
0.0 0.0 -8.022579264019e+00 
-1.503076491959e+02 1.059206056436e+01 0.0 
1.059206056436e+01 -3.599772432249e+02 0.0 
0.0 0.0 -1.526854677262e+02 
-3.364457477196e+01 -3.390053908066e+00 0.0 
-3.390053908066e+00 -9.647551212710e+01 0.0 
0.0 0.0 -3.863602606972e+01 
-1.150478575493e+02 1.779615838450e+01 0.0 
1.779615838450e+01 -2.999812886476e+02 0.0 
0.0 0.0 -1.241087438591e+02 
-6.992322138365e+01 1.765460153783e+01 0.0 
1.765460153783e+01 -2.023168659761e+02 0.0 
0.0 0.0 -8.127202620793e+01 
-2.712181865238e+01 -1.412479717498e+00 0.0 
-1.412479717498e+00 -7.643170873579e+01 0.0 
0.0 0.0 -3.066605821645e+01 
-7.900241720109e+01 2.711849171939e+01 0.0 
2.711849171939e+01 -1.758806093715e+02 0.0 
0.0 0.0 -7.606490797177e+01 
-5.508159378415e+01 4.610837142039e+00 0.0 
4.610837142039e+00 -1.766998091933e+02 0.0 
0.0 0.0 -6.913442089322e+01 
-1.829259784018e+01 -2.792136396924e+00 0.0 
-2.792136396924e+00 -4.202312006293e+01 0.0 
0.0 0.0 -1.769471537093e+01 
-4.653316226897e+01 1.850318875783e+00 0.0 
1.850318875783e+00 -1.509723004773e+02 0.0 
0.0 0.0 -5.885163882389e+01 
-1.112367494305e+02 -6.904521216082e-01 0.0 
-6.904521216082e-01 -2.862985244388e+02 0.0 
0.0 0.0 -1.188605821608e+02 
-7.975957853923e+01 2.893842947489e+01 0.0 
2.893842947489e+01 -1.627369513595e+02 0.0 
0.0 0.0 -7.234895896961e+01 
-2.763175396032e+01 -2.800407777508e+00 0.0 
-2.800407777508e+00 -7.355729387050e+01 0.0 
0.0 0.0 -2.995671434925e+01 
-8.787930283235e+01 5.914587012647e-01 0.0 
5.914587012647e-01 -2.342493557898e+02 0.0 
0.0 0.0 -9.623859758665e+01 
-8.747504656429e+01 2.803041217473e+01 0.0 
2.803041217473e+01 -2.094665726659e+02 0.0 
0.0 0.0 -8.868248576907e+01 
-1.057368327002e+02 2.373453659800e+01 0.0 
2.373453659800e+01 -2.752965253638e+02 0.0 
0.0 0.0 -1.139100074192e+02 
-4.942119682912e+01 -2.019513113792e+00 0.0 
-2.019513113792e+00 -1.490409572141e+02 0.0 
0.0 0.0 -5.913864621297e+01 
-4.254458987302e+01 -1.102247174995e+00 0.0 
-1.102247174995e+00 -1.201050849012e+02 0.0 
0.0 0.0 -4.839490243225e+01 
-7.254617681249e+01 1.635255820898e+01 0.0 
1.635255820898e+01 -2.144782897360e+02 0.0 
0.0 0.0 -8.570733996456e+01 
-4.478467436520e+01 8.675972415918e-01 0.0 
8.675972415918e-01 -6.886702741284e+01 0.0 
0.0 0.0 -3.369551053341e+01 
-1.877886855022e+01 -2.740447983070e+00 0.0 
-2.740447983070e+00 -4.138447841964e+01 0.0 
0.0 0.0 -1.764900409096e+01 
-1.180175154642e+02 3.484920571666e+01 0.0 
3.484920571666e+01 -2.831519122974e+02 0.0 
0.0 0.0 -1.199508283285e+02 
-9.886224555973e+01 3.051125513488e+01 0.0 
3.051125513488e+01 -2.249263082111e+02 0.0 
0.0 0.0 -9.673656613126e+01 
-3.396243418362e+01 8.286561031240e-01 0.0 
8.286561031240e-01 -4.124604714052e+01 0.0 
0.0 0.0 -2.216254439724e+01 
-8.958182012888e+01 1.820138451158e+01 0.0 
1.820138451158e+01 -1.818113208035e+02 0.0 
0.0 0.0 -8.101794227972e+01 
-1.052832278759e+02 3.254806871369e+01 0.0 
3.254806871369e+01 -2.439940559140e+02 0.0 
0.0 0.0 -1.043831851370e+02 
-5.654189813141e+01 2.491807941190e+00 0.0 
2.491807941190e+00 -1.783184955736e+02 0.0 
0.0 0.0 -7.005811811151e+01 
-5.637108403908e+01 1.549100969172e+00 0.0 
1.549100969172e+00 -1.707053678566e+02 0.0 
0.0 0.0 -6.772293556871e+01 
-1.370715489704e+02 2.236228443230e+01 0.0 
2.236228443230e+01 -3.388537811430e+02 0.0 
0.0 0.0 -1.423775990340e+02 
-1.829707885906e+01 5.591730263045e-01 0.0 
5.591730263045e-01 -8.671787765832e+00 0.0 
0.0 0.0 -8.641272170252e+00 
-3.879033059230e+01 -8.493576759207e-01 0.0 
-8.493576759207e-01 -1.095224155531e+02 0.0 
0.0 0.0 -4.409382384361e+01 
-8.925556382246e+01 -7.255331551349e-01 0.0 
-7.255331551349e-01 -2.386601704480e+02 0.0 
0.0 0.0 -9.797472028115e+01 
-5.141176712739e+01 -1.157403630836e+00 0.0 
-1.157403630836e+00 -1.501028637711e+02 0.0 
0.0 0.0 -6.005438926956e+01 
-4.776052731141e+01 9.222998567380e-03 0.0 
9.222998567380e-03 -1.515208801667e+02 0.0 
0.0 0.0 -5.938442224343e+01 
-2.629411099543e+01 1.774032959278e+01 0.0 
1.774032959278e+01 -1.950273829758e+01 0.0 
0.0 0.0 -1.333905478790e+01 
-2.932376080153e+01 1.971187531446e+01 0.0 
1.971187531446e+01 -2.180132585394e+01 0.0 
0.0 0.0 -1.493752599664e+01 
-4.037563727901e+01 3.068252908190e+00 0.0 
3.068252908190e+00 -4.264373208591e+01 0.0 
0.0 0.0 -2.450581080948e+01 
-5.119559676479e+01 3.605423866391e+00 0.0 
3.605423866391e+00 -1.599899701385e+02 0.0 
0.0 0.0 -6.295567007098e+01 
-4.508180980834e+01 -1.552099500803e+00 0.0 
-1.552099500803e+00 -1.278557106304e+02 0.0 
0.0 0.0 -5.148125613161e+01 
-9.661781712491e+01 2.285993143684e+01 0.0 
2.285993143684e+01 -2.592393901376e+02 0.0 
0.0 0.0 -1.063571621788e+02 
-1.588052768624e+02 8.593448538335e+00 0.0 
8.593448538335e+00 -3.780820690505e+02 0.0 
0.0 0.0 -1.606662037739e+02 
-1.573087125268e+02 1.023670248977e+01 0.0 
1.023670248977e+01 -3.757416985311e+02 0.0 
0.0 0.0 -1.595151233174e+02 
-5.789266162356e+01 8.414268202390e-01 0.0 
8.414268202390e-01 -1.786949528595e+02 0.0 
0.0 0.0 -7.057628434490e+01 
-3.514651815455e+01 1.721690062717e+00 0.0 
1.721690062717e+00 -2.560579329084e+01 0.0 
0.0 0.0 -1.782569343362e+01 
-2.234385304978e+01 -1.910511301988e-01 0.0 
-1.910511301988e-01 -2.056824382421e+01 0.0 
0.0 0.0 -1.247362906220e+01 
-2.612565046270e+01 1.723912668083e+01 0.0 
1.723912668083e+01 -2.014225458131e+01 0.0 
0.0 0.0 -1.348037151320e+01 
-2.846443663935e+01 -2.303565411715e+00 0.0 
-2.303565411715e+00 -7.258322398983e+01 0.0 
0.0 0.0 -2.991429818875e+01 
-2.683596678764e+01 1.777818737276e+01 0.0 
1.777818737276e+01 -2.059693373439e+01 0.0 
0.0 0.0 -1.382987015661e+01 
-7.787878074693e+01 1.892587892912e+01 0.0 
1.892587892912e+01 -2.200286034628e+02 0.0 
0.0 0.0 -8.897221526293e+01 
-4.886774683411e+01 -1.235448396540e+00 0.0 
-1.235448396540e+00 -1.510116571055e+02 0.0 
0.0 0.0 -5.956382118187e+01 
-5.260783523265e+01 1.719890880396e+00 0.0 
1.719890880396e+00 -1.615225178828e+02 0.0 
0.0 0.0 -6.383910593464e+01 
-2.313889173323e+01 -1.617674280643e+00 0.0 
-1.617674280643e+00 -4.102718806996e+01 0.0 
0.0 0.0 -1.884982394096e+01 
-6.827152965352e+01 1.443900576773e+00 0.0 
1.443900576773e+00 -1.412053554084e+02 0.0 
0.0 0.0 -6.244306551858e+01 
-5.373640968078e+01 3.807875409895e-01 0.0 
3.807875409895e-01 -1.616418622573e+02 0.0 
0.0 0.0 -6.421348158143e+01 
-7.471930427419e+01 5.059975802727e+00 0.0 
5.059975802727e+00 -1.557450742263e+02 0.0 
0.0 0.0 -6.873931355015e+01 
-6.574477137846e+01 2.672714610362e+00 0.0 
2.672714610362e+00 -1.258723674631e+02 0.0 
0.0 0.0 -5.708514165248e+01 
-8.578186793635e+01 2.534414981413e+00 0.0 
2.534414981413e+00 -1.939482359222e+02 0.0 
0.0 0.0 -8.351903115756e+01 
-1.609743413293e+02 1.716238234276e+00 0.0 
1.716238234276e+00 -3.820310000927e+02 0.0 
0.0 0.0 -1.625016024266e+02 
-3.394737864656e+01 -5.477500421720e-01 0.0 
-5.477500421720e-01 -4.169439152271e+01 0.0 
0.0 0.0 -2.229253105078e+01 
-5.743838263805e+01 3.983430857020e-01 0.0 
3.983430857020e-01 -1.704104074618e+02 0.0 
0.0 0.0 -6.795463702996e+01 
-2.775069805095e+01 1.886718678000e+01 0.0 
1.886718678000e+01 -2.089423881016e+01 0.0 
0.0 0.0 -1.419348105833e+01 
-5.900987441248e+01 -3.437789228624e-01 0.0 
-3.437789228624e-01 -1.780283602813e+02 0.0 
0.0 0.0 -7.071147040814e+01 
-1.627571083450e+02 6.788797145106e+00 0.0 
6.788797145106e+00 -3.810999194717e+02 0.0 
0.0 0.0 -1.627571083450e+02 
-2.355366687829e+01 1.507803161463e+01 0.0 
1.507803161463e+01 -1.840790434496e+01 0.0 
0.0 0.0 -1.218847136697e+01 
-2.478427401918e+01 1.618066819610e+01 0.0 
1.618066819610e+01 -1.931579979447e+01 0.0 
0.0 0.0 -1.283002214410e+01 
-1.188427009734e+02 1.989289996162e+01 0.0 
1.989289996162e+01 -3.061723991441e+02 0.0 
0.0 0.0 -1.271045300352e+02 
-2.949901484531e+01 5.184424300637e-01 0.0 
5.184424300637e-01 -2.604984435065e+01 0.0 
0.0 0.0 -1.626465775879e+01 
-7.435947983281e+01 2.937097024568e+00 0.0 
2.937097024568e+00 -1.574010722301e+02 0.0 
0.0 0.0 -6.912816561888e+01 
-8.916503989964e+01 2.966623033716e+01 0.0 
2.966623033716e+01 -2.103364708301e+02 0.0 
0.0 0.0 -8.945045321891e+01 
-1.128419023594e+02 2.412736428676e+01 0.0 
2.412736428676e+01 -2.917584648241e+02 0.0 
0.0 0.0 -1.209801101550e+02 
-9.196265020372e+01 3.106743369474e+01 0.0 
3.106743369474e+01 -2.010811156869e+02 0.0 
0.0 0.0 -8.751312976718e+01 
-3.617884688642e+01 -3.015266098698e-01 0.0 
-3.015266098698e-01 -4.515569041149e+01 0.0 
0.0 0.0 -2.400036118938e+01 
-4.512527200978e+01 -1.880977912815e+00 0.0 
-1.880977912815e+00 -1.313571329585e+02 0.0 
0.0 0.0 -5.254472149048e+01 
-4.336185239818e+01 -2.710603074982e+00 0.0 
-2.710603074982e+00 -1.304519362983e+02 0.0 
0.0 0.0 -5.174413660896e+01 
-5.215002564961e+01 -5.638838513017e-02 0.0 
-5.638838513017e-02 -8.850870183480e+01 0.0 
0.0 0.0 -4.179761824532e+01 
-1.094908979041e+02 2.581273996528e+01 0.0 
2.581273996528e+01 -2.792722329534e+02 0.0 
0.0 0.0 -1.162289392573e+02 
-3.334779333874e+01 5.136383954379e+00 0.0 
5.136383954379e+00 -8.708421280618e+00 0.0 
0.0 0.0 -1.221686438581e+01 
-2.719841445174e+01 7.746823111597e-02 0.0 
7.746823111597e-02 -2.470832436009e+01 0.0 
0.0 0.0 -1.517202164355e+01 
-3.408984280082e+01 4.855017088005e-01 0.0 
4.855017088005e-01 -4.064278737558e+01 0.0 
0.0 0.0 -2.201978905292e+01 
-3.708639078842e+01 1.487252336925e+00 0.0 
1.487252336925e+00 -4.644359860538e+01 0.0 
0.0 0.0 -2.465899681814e+01 
-2.412456387471e+01 -1.357897042523e+00 0.0 
-1.357897042523e+00 -6.083745372939e+01 0.0 
0.0 0.0 -2.508860528123e+01 
-4.036702699711e+01 -3.075155079500e+00 0.0 
-3.075155079500e+00 -1.195220556062e+02 0.0 
0.0 0.0 -4.756672478099e+01 
-8.386738520507e+01 8.928202936792e+00 0.0 
8.928202936792e+00 -1.797884946532e+02 0.0 
0.0 0.0 -7.869676395749e+01 
-4.559667889381e+01 2.012865341486e+00 0.0 
2.012865341486e+00 -6.583857301769e+01 0.0 
0.0 0.0 -3.303057557345e+01 
-1.375368521575e+02 2.510898195335e+01 0.0 
2.510898195335e+01 -3.346197831265e+02 0.0 
0.0 0.0 -1.412469905852e+02 
-1.028155695028e+02 3.355293682539e+01 0.0 
3.355293682539e+01 -2.277976867560e+02 0.0 
0.0 0.0 -9.878397687763e+01 
-8.016902075395e+01 2.916885405556e+01 0.0 
2.916885405556e+01 -1.769188339899e+02 0.0 
0.0 0.0 -7.672635642314e+01 
-8.706741241447e+01 1.838282392897e+01 0.0 
1.838282392897e+01 -1.701581003754e+02 0.0 
0.0 0.0 -7.676765383697e+01 
-6.393956910172e+01 -1.126383504267e+00 0.0 
-1.126383504267e+00 -1.782453592404e+02 0.0 
0.0 0.0 -7.225547850265e+01 
-5.783133814812e+01 -1.367991063754e+00 0.0 
-1.367991063754e+00 -1.628032970428e+02 0.0 
0.0 0.0 -6.579039055728e+01 
-1.400067446653e+02 9.401070944547e+00 0.0 
9.401070944547e+00 -3.449185518903e+02 0.0 
0.0 0.0 -1.450775889667e+02 
-1.738767834320e+01 -1.659033235989e+00 0.0 
-1.659033235989e+00 -2.421149703512e+01 0.0 
0.0 0.0 -1.253243728452e+01 
-4.171280673136e+01 -4.210159100509e-01 0.0 
-4.210159100509e-01 -1.158399471674e+02 0.0 
0.0 0.0 -4.686582616963e+01 
-1.378440529812e+02 3.247266951742e+01 0.0 
3.247266951742e+01 -3.229694569561e+02 0.0 
0.0 0.0 -1.378440529812e+02 
-1.987908893833e+01 4.907683335228e-01 0.0 
4.907683335228e-01 -5.780623222734e+01 0.0 
0.0 0.0 -2.290559634970e+01 
-2.731563163402e+01 -1.415834025457e-02 0.0 
-1.415834025457e-02 -2.491074603112e+01 0.0 
0.0 0.0 -1.526791329954e+01 
-1.307861175619e+02 1.862159312055e+01 0.0 
1.862159312055e+01 -3.304045777044e+02 0.0 
0.0 0.0 -1.379572085799e+02 
-1.722274448137e+01 -2.447493876782e+00 0.0 
-2.447493876782e+00 -3.935932170422e+01 0.0 
0.0 0.0 -1.657461985568e+01 
-1.003718284061e+01 -8.377867544723e-01 0.0 
-8.377867544723e-01 -2.408633973671e+01 0.0 
0.0 0.0 -9.837056773197e+00 
-9.162601804414e+01 1.573348043952e+01 0.0 
1.573348043952e+01 -2.022888634254e+02 0.0 
0.0 0.0 -8.777446444087e+01 
-2.121029757529e+01 -6.235067907250e-01 0.0 
-6.235067907250e-01 -8.120609240267e+00 0.0 
0.0 0.0 -8.399272044668e+00 
-8.418780682102e+01 1.167634184135e+01 0.0 
1.167634184135e+01 -1.777581319084e+02 0.0 
0.0 0.0 -7.818378161883e+01 
-1.317821045738e+02 1.947101653246e+01 0.0 
1.947101653246e+01 -3.275686664533e+02 0.0 
0.0 0.0 -1.374052313081e+02 
-2.090214836292e+01 1.797242480546e-01 0.0 
1.797242480546e-01 -7.927211266280e+00 0.0 
0.0 0.0 -8.248807888762e+00 
-2.271091605478e+01 6.538044259711e-01 0.0 
6.538044259711e-01 -2.142337141825e+01 0.0 
0.0 0.0 -1.284028624191e+01 
-7.810353251715e+01 2.607692694002e+00 0.0 
2.607692694002e+00 -1.751700990234e+02 0.0 
0.0 0.0 -7.558208946216e+01 
-2.255273614595e+01 -9.570740849439e-01 0.0 
-9.570740849439e-01 -6.360094147992e+01 0.0 
0.0 0.0 -2.544610328776e+01 
-7.811230185458e+01 9.708172151488e+00 0.0 
9.708172151488e+00 -1.636857376137e+02 0.0 
0.0 0.0 -7.213941184048e+01 
-1.630573048711e+02 5.220363848509e+00 0.0 
5.220363848509e+00 -3.818003780326e+02 0.0 
0.0 0.0 -1.630573048711e+02 
-9.800144987354e+01 3.033215532173e+01 0.0 
3.033215532173e+01 -2.106877930851e+02 0.0 
0.0 0.0 -9.220677288759e+01 
-2.702333047780e+01 -1.358177685833e+00 0.0 
-1.358177685833e+00 -7.869042541985e+01 0.0 
0.0 0.0 -3.131412676930e+01 
-4.766953243464e+01 8.050869748589e+00 0.0 
8.050869748589e+00 -4.887756633160e+01 0.0 
0.0 0.0 -2.856412962987e+01 
-6.540533549005e+01 7.858504109146e-02 0.0 
7.858504109146e-02 -1.812030287737e+02 0.0 
0.0 0.0 -7.358250927911e+01 
-9.945984566197e+01 2.376958452139e+01 0.0 
2.376958452139e+01 -2.605514237365e+02 0.0 
0.0 0.0 -1.076033808195e+02 
-1.433130053776e+02 2.876292569013e+01 0.0 
2.876292569013e+01 -3.428422368371e+02 0.0 
0.0 0.0 -1.454465726644e+02 
-5.964807554835e+01 5.671443058187e-01 0.0 
5.671443058187e-01 -1.101553557783e+02 0.0 
0.0 0.0 -5.054102939800e+01 
-1.442930099497e+02 2.590392880806e+01 0.0 
2.590392880806e+01 -3.480045232248e+02 0.0 
0.0 0.0 -1.472892599524e+02 
-2.033669519404e+01 -1.647571945540e+00 0.0 
-1.647571945540e+00 -4.005174650469e+01 0.0 
0.0 0.0 -1.771653250962e+01 
-1.524151402104e+02 7.176382297209e+00 0.0 
7.176382297209e+00 -3.659351443621e+02 0.0 
0.0 0.0 -1.551050853718e+02 
-3.033478750163e+01 -1.460149719588e+00 0.0 
-1.460149719588e+00 -8.901838862877e+01 0.0 
0.0 0.0 -3.540595283912e+01 
-1.984026850748e+01 -1.184703769734e+00 0.0 
-1.184703769734e+00 -5.774977473332e+01 0.0 
0.0 0.0 -2.287701297224e+01 
-1.429862357875e+02 1.767723879722e+01 0.0 
1.767723879722e+01 -3.503826623591e+02 0.0 
0.0 0.0 -1.476106694440e+02 
-9.675344201069e+01 2.531630821198e+01 0.0 
2.531630821198e+01 -2.024754325212e+02 0.0 
0.0 0.0 -8.936866235956e+01 
-8.769208662388e+01 1.619875463819e+01 0.0 
1.619875463819e+01 -1.885583647902e+02 0.0 
0.0 0.0 -8.247513542421e+01 
-2.720939435573e+01 -7.954531728639e-01 0.0 
-7.954531728639e-01 -2.357305976815e+01 0.0 
0.0 0.0 -1.483473623716e+01 
-5.394132745123e+01 1.572630142911e+01 0.0 
1.572630142911e+01 -6.534145693173e+01 0.0 
0.0 0.0 -3.538483531489e+01 
-2.602692552296e+01 1.334423252408e+01 0.0 
1.334423252408e+01 -5.020949029795e+01 0.0 
0.0 0.0 -2.247092474627e+01 
-1.098209718513e+02 3.548275207424e+01 0.0 
3.548275207424e+01 -2.493508936793e+02 0.0 
0.0 0.0 -1.073515596592e+02 
-5.430550538599e+01 -1.163517159775e+00 0.0 
-1.163517159775e+00 -1.514218195820e+02 0.0 
0.0 0.0 -6.131819749041e+01 
-2.137534761026e+01 6.859150131780e+00 0.0 
6.859150131780e+00 -4.029632889646e+01 0.0 
0.0 0.0 -1.810150295202e+01 
-1.029918644370e+02 2.281201576630e+01 0.0 
2.281201576630e+01 -2.739555601237e+02 0.0 
0.0 0.0 -1.126842273682e+02 
-1.993594805175e+01 1.138696045944e-01 0.0 
1.138696045944e-01 -7.419323238799e+00 0.0 
0.0 0.0 -7.806581387166e+00 
-8.950978722809e+01 2.275421122214e+01 0.0 
2.275421122214e+01 -1.880664155465e+02 0.0 
0.0 0.0 -8.287286083238e+01 
-8.448356799188e+01 9.124877655009e-01 0.0 
9.124877655009e-01 -1.916757424402e+02 0.0 
0.0 0.0 -8.244779312961e+01 
-8.228969363116e+01 1.017887431131e+00 0.0 
1.017887431131e+00 -1.933426184727e+02 0.0 
0.0 0.0 -8.228969363116e+01 
-1.030273757914e+00 3.167557189683e-01 0.0 
3.167557189683e-01 -6.655643556900e+00 0.0 
0.0 0.0 -1.905775194444e+00 
-3.235710486415e+00 -2.883146662785e-01 0.0 
-2.883146662785e-01 -1.043264015281e+01 0.0 
0.0 0.0 -4.337011741927e+00 
-2.116946246877e+01 5.078931214624e-01 0.0 
5.078931214624e-01 -1.030993727053e+01 0.0 
0.0 0.0 -9.043819921789e+00 
-2.026345688954e+01 -2.648348586943e-01 0.0 
-2.648348586943e-01 -7.352302948973e+00 0.0 
0.0 0.0 -7.884727951553e+00 
-1.638032002121e+02 6.660928351155e-01 0.0 
6.660928351155e-01 -3.835408004948e+02 0.0 
0.0 0.0 -1.638032002121e+02 
-1.605650532616e+02 -6.045480183999e-01 0.0 
-6.045480183999e-01 -3.804257431778e+02 0.0 
0.0 0.0 -1.618972389318e+02 
-7.709651557012e+00 -7.765657114795e-01 0.0 
-7.765657114795e-01 -2.308215891640e+01 0.0 
0.0 0.0 -8.837543142023e+00 
-1.770031092297e+01 -5.141922854024e-01 0.0 
-5.141922854024e-01 -8.280395940917e+00 0.0 
0.0 0.0 -8.294638406373e+00 
-1.449177458110e+02 3.194012886732e+00 0.0 
3.194012886732e+00 -3.513629811672e+02 0.0 
0.0 0.0 -1.484842180934e+02 
-1.136925262405e+02 2.881985528726e+01 0.0 
2.881985528726e+01 -2.858172539578e+02 0.0 
0.0 0.0 -1.194529340595e+02 
-2.719605458069e+01 -1.060939605202e+00 0.0 
-1.060939605202e+00 -7.452308692782e+01 0.0 
0.0 0.0 -3.011574245255e+01 
-1.455905977667e+02 7.597088828966e+00 0.0 
7.597088828966e+00 -3.528424726117e+02 0.0 
0.0 0.0 -1.491299211135e+02 
-9.663696269395e+01 3.658357287746e-01 0.0 
3.658357287746e-01 -2.543717582406e+02 0.0 
0.0 0.0 -1.049026162804e+02 
-8.129871636496e+01 7.799340498088e-01 0.0 
7.799340498088e-01 -2.200260871741e+02 0.0 
0.0 0.0 -8.999744106171e+01 
-4.821637480426e+01 5.953877979038e-01 0.0 
5.953877979038e-01 -7.566871091870e+01 0.0 
0.0 0.0 -3.676552571689e+01 
-2.662644412229e+01 -3.093608596418e+00 0.0 
-3.093608596418e+00 -6.900178157593e+01 0.0 
0.0 0.0 -2.828846770947e+01 
-9.016569957557e+01 2.239882138252e+01 0.0 
2.239882138252e+01 -2.424783744642e+02 0.0 
0.0 0.0 -9.939322221194e+01 
-2.227039182357e+01 -1.620968724748e+00 0.0 
-1.620968724748e+00 -5.985096967708e+01 0.0 
0.0 0.0 -2.423640845020e+01 
-7.328292479026e+01 5.213362745606e-01 0.0 
5.213362745606e-01 -2.003243903728e+02 0.0 
0.0 0.0 -8.168219454891e+01 
-1.027467619584e+02 3.169188018406e+01 0.0 
3.169188018406e+01 -2.372202571286e+02 0.0 
0.0 0.0 -1.015901057261e+02 
-7.244774819826e+01 9.970013357349e-01 0.0 
9.970013357349e-01 -1.500928363830e+02 0.0 
0.0 0.0 -6.636217537437e+01 
-8.137377589658e+01 -3.995597106468e-01 0.0 
-3.995597106468e-01 -2.191206401647e+02 0.0 
0.0 0.0 -8.974832481838e+01 
-3.978352247651e+01 1.024497387287e+00 0.0 
1.024497387287e+00 -5.508961462091e+01 0.0 
0.0 0.0 -2.806194112923e+01 
-1.112956280100e+02 3.231624681501e+01 0.0 
3.231624681501e+01 -2.729924843061e+02 0.0 
0.0 0.0 -1.148864336949e+02 
-9.634937547060e+01 3.168574276590e+01 0.0 
3.168574276590e+01 -2.168618204179e+02 0.0 
0.0 0.0 -9.356335876655e+01 
-8.818361084061e+01 3.034782518557e+01 0.0 
3.034782518557e+01 -1.968589719557e+02 0.0 
0.0 0.0 -8.511277483890e+01 
-2.071891091774e+01 -1.484105837287e-01 0.0 
-1.484105837287e-01 -8.118351911466e+00 0.0 
0.0 0.0 -8.251178848762e+00 
-8.657500766016e+01 2.047771441819e+01 0.0 
2.047771441819e+01 -2.381691601286e+02 0.0 
0.0 0.0 -9.702325033663e+01 
-9.156362059470e+01 2.614831908001e+01 0.0 
2.614831908001e+01 -1.967157412560e+02 0.0 
0.0 0.0 -8.608380855522e+01 
-4.048371860511e+01 -1.107980199539e+00 0.0 
-1.107980199539e+00 -1.151531264326e+02 0.0 
0.0 0.0 -4.629105351131e+01 
-1.490676447483e+01 -1.616442362281e+00 0.0 
-1.616442362281e+00 -2.519377211962e+01 0.0 
0.0 0.0 -1.163016097834e+01 
-1.073142261918e+02 3.099220272102e+01 0.0 
3.099220272102e+01 -2.587220959633e+02 0.0 
0.0 0.0 -1.094108966465e+02 
-1.126626601709e+02 1.678440875256e+01 0.0 
1.678440875256e+01 -2.988647085661e+02 0.0 
0.0 0.0 -1.230582106211e+02 
-2.260784200114e+01 -2.952188622322e+00 0.0 
-2.952188622322e+00 -5.735370063446e+01 0.0 
0.0 0.0 -2.358846279068e+01 
-5.337030307247e+01 1.422905513160e+00 0.0 
1.422905513160e+00 -9.000987967696e+01 0.0 
0.0 0.0 -4.261405482483e+01 
-1.535910603241e+02 4.003137402829e+00 0.0 
4.003137402829e+00 -3.658107954229e+02 0.0 
0.0 0.0 -1.554205567241e+02 
-1.078279195200e+02 2.822572287687e+01 0.0 
2.822572287687e+01 -2.703858131704e+02 0.0 
0.0 0.0 -1.130641198071e+02 
-1.136571991458e+02 3.188355165558e+01 0.0 
3.188355165558e+01 -2.798144800830e+02 0.0 
0.0 0.0 -1.176415037686e+02 
-1.058045186933e+02 1.110544302175e+00 0.0 
1.110544302175e+00 -2.743989044311e+02 0.0 
0.0 0.0 -1.136610269373e+02 
-1.787091920557e+01 4.480440368587e+00 0.0 
4.480440368587e+00 -2.106789853395e+01 0.0 
0.0 0.0 -1.155843637108e+01 
-2.777605757859e+01 1.881001676639e+01 0.0 
1.881001676639e+01 -1.999930154501e+01 0.0 
0.0 0.0 -1.393260773708e+01 
-2.872023507177e+01 1.641556814008e+01 0.0 
1.641556814008e+01 -5.374815378151e+01 0.0 
0.0 0.0 -2.434051665598e+01 
-4.924651654092e+01 9.000766415279e+00 0.0 
9.000766415279e+00 -4.746665552553e+01 0.0 
0.0 0.0 -2.861395161994e+01 
-8.417438551754e+01 1.954052616513e+01 0.0 
1.954052616513e+01 -2.369858940193e+02 0.0 
0.0 0.0 -9.594808386105e+01 
-7.934234394058e+01 8.431189612554e+00 0.0 
8.431189612554e+00 -1.653942795774e+02 0.0 
0.0 0.0 -7.302098705541e+01 
-1.396685992946e+02 2.157875743546e+01 0.0 
2.157875743546e+01 -3.385813325362e+02 0.0 
0.0 0.0 -1.430749795493e+02 
-2.185371081261e+01 -2.648006062226e+00 0.0 
-2.648006062226e+00 -4.168750565088e+01 0.0 
0.0 0.0 -1.866236493905e+01 
-1.965779504375e+01 -2.956791237391e+00 0.0 
-2.956791237391e+00 -4.058056548111e+01 0.0 
0.0 0.0 -1.767150815746e+01 
-2.768410913862e+01 1.818343820784e+01 0.0 
1.818343820784e+01 -2.069024389660e+01 0.0 
0.0 0.0 -1.411230591056e+01 
-5.509876984902e+01 4.959924221175e-01 0.0 
4.959924221175e-01 -9.538544850048e+01 0.0 
0.0 0.0 -4.474526550485e+01 
-5.044063584657e+01 -3.315577775043e-01 0.0 
-3.315577775043e-01 -1.411954686628e+02 0.0 
0.0 0.0 -5.709083135280e+01 
-8.962641390751e+01 2.090478324209e+01 0.0 
2.090478324209e+01 -1.817055535765e+02 0.0 
0.0 0.0 -8.099959024520e+01 
-2.570399259528e+01 -3.123216600412e-01 0.0 
-3.123216600412e-01 -7.140343102920e+01 0.0 
0.0 0.0 -2.873222708734e+01 
-1.279953436198e+02 2.028850727188e+01 0.0 
2.028850727188e+01 -3.217363346961e+02 0.0 
0.0 0.0 -1.345195034948e+02 
-3.789641708804e+01 5.818518649878e-01 0.0 
5.818518649878e-01 -4.081925557403e+01 0.0 
0.0 0.0 -2.321470179862e+01 
-1.321901281178e+02 2.847862107080e+01 0.0 
2.847862107080e+01 -3.175109426067e+02 0.0 
0.0 0.0 -1.345103212174e+02 
-1.034622388813e+02 2.615970479205e+01 0.0 
2.615970479205e+01 -2.654078864637e+02 0.0 
0.0 0.0 -1.102610376035e+02 
-5.246211448521e+01 1.357117070676e+01 0.0 
1.357117070676e+01 -5.218873117332e+01 0.0 
0.0 0.0 -3.099525369756e+01 
-1.453135445650e+02 1.442217720882e+01 0.0 
1.442217720882e+01 -3.554076814636e+02 0.0 
0.0 0.0 -1.498163678086e+02 
-9.371798655030e+01 2.267053232477e+01 0.0 
2.267053232477e+01 -1.980785477168e+02 0.0 
0.0 0.0 -8.713896028013e+01 
-8.154498850174e+01 1.521179185040e+00 0.0 
1.521179185040e+00 -1.775604822627e+02 0.0 
0.0 0.0 -7.733164122932e+01 
-2.669337641035e+01 1.716534562760e+01 0.0 
1.716534562760e+01 -1.959798215041e+01 0.0 
0.0 0.0 -1.348740756823e+01 
-8.317191086585e+01 1.611625976326e+01 0.0 
1.611625976326e+01 -1.682477693279e+02 0.0 
0.0 0.0 -7.502590405814e+01 
-1.178679191163e+02 3.313474999129e+01 0.0 
3.313474999129e+01 -2.796222756646e+02 0.0 
0.0 0.0 -1.188470584343e+02 
-1.276810026320e+02 2.141599402173e+01 0.0 
2.141599402173e+01 -3.222856808369e+02 0.0 
0.0 0.0 -1.345900050407e+02 
-1.061417856253e+02 2.430772947387e+01 0.0 
2.430772947387e+01 -2.773742573995e+02 0.0 
0.0 0.0 -1.146548129074e+02 
-1.618214603338e+02 8.840892685242e+00 0.0 
8.840892685242e+00 -3.789167407788e+02 0.0 
0.0 0.0 -1.618214603338e+02 
-8.601513641394e+01 2.814703877504e+01 0.0 
2.814703877504e+01 -1.955070876453e+02 0.0 
0.0 0.0 -8.405666721778e+01 
-1.753918964695e+01 4.293714147838e+00 0.0 
4.293714147838e+00 -9.681227391901e+00 0.0 
0.0 0.0 -8.717868012181e+00 
-2.351465599863e+01 9.479137572668e+00 0.0 
9.479137572668e+00 -4.432420021163e+01 0.0 
0.0 0.0 -1.995165686308e+01 
-9.894604413144e+01 3.232627237760e+01 0.0 
3.232627237760e+01 -2.210314582714e+02 0.0 
0.0 0.0 -9.559325072087e+01 
-5.360601974673e+01 8.419198785466e+00 0.0 
8.419198785466e+00 -6.357562666431e+01 0.0 
0.0 0.0 -3.475449392331e+01 
-1.448719607692e+02 2.852986778608e+00 0.0 
2.852986778608e+00 -3.511627046292e+02 0.0 
0.0 0.0 -1.484103996195e+02 
-1.137003456504e+02 2.781965901874e+01 0.0 
2.781965901874e+01 -2.840363535609e+02 0.0 
0.0 0.0 -1.189210097634e+02 
-1.535574034553e+02 7.822471872694e+00 0.0 
7.822471872694e+00 -3.657477902800e+02 0.0 
0.0 0.0 -1.553915581206e+02 
-6.276702406525e+01 1.417278035413e+00 0.0 
1.417278035413e+00 -1.167250234658e+02 0.0 
0.0 0.0 -5.344761425930e+01 
-1.348383587374e+02 2.726302672675e+01 0.0 
2.726302672675e+01 -3.235438757655e+02 0.0 
0.0 0.0 -1.371146703509e+02 
-1.408842769171e+02 1.285234032373e+01 0.0 
1.285234032373e+01 -3.453616468148e+02 0.0 
0.0 0.0 -1.454737771196e+02 
-1.394227663876e+02 1.183130071671e+01 0.0 
1.183130071671e+01 -3.446051877706e+02 0.0 
0.0 0.0 -1.448083862475e+02 
-5.264484365109e+01 -3.130688045186e-01 0.0 
-3.130688045186e-01 -1.466868351380e+02 0.0 
0.0 0.0 -5.939950363673e+01 
-1.595087103894e+02 7.441391079116e+00 0.0 
7.441391079116e+00 -3.793722369407e+02 0.0 
0.0 0.0 -1.612642841991e+02 
-3.148698639385e+01 1.879411096791e+00 0.0 
1.879411096791e+00 -2.546668230252e+01 0.0 
0.0 0.0 -1.668610060891e+01 
-7.649826594466e+01 4.776866243233e+00 0.0 
4.776866243233e+00 -1.586350644957e+02 0.0 
0.0 0.0 -7.013999913212e+01 
-1.762024679168e+01 -2.647238064724e+00 0.0 
-2.647238064724e+00 -4.108062066417e+01 0.0 
0.0 0.0 -1.721026023676e+01 
-7.177170266083e+01 2.270117826202e+00 0.0 
2.270117826202e+00 -1.430585071337e+02 0.0 
0.0 0.0 -6.404906293834e+01 
-5.472022357463e+01 1.353440307353e+00 0.0 
1.353440307353e+00 -9.201483903887e+01 0.0 
0.0 0.0 -4.362051878405e+01 
-1.457709089520e+01 9.207895785878e-02 0.0 
9.207895785878e-02 -4.219530893183e+01 0.0 
0.0 0.0 -1.663171994811e+01 
-2.647943737190e+01 -7.786809684283e-01 0.0 
-7.786809684283e-01 -7.001003702748e+01 0.0 
0.0 0.0 -2.854684231981e+01 
-9.032414118993e+01 2.876214584949e+01 0.0 
2.876214584949e+01 -2.118222540257e+02 0.0 
0.0 0.0 -9.024391856470e+01 
-8.176246944306e+01 1.146887925119e+01 0.0 
1.146887925119e+01 -1.797239662411e+02 0.0 
0.0 0.0 -7.804593070524e+01 
-7.619106303440e+01 2.667906735520e+00 0.0 
2.667906735520e+00 -1.611440725075e+02 0.0 
0.0 0.0 -7.080054066255e+01 
-1.298216816881e+02 2.596911128231e+01 0.0 
2.596911128231e+01 -3.225324988569e+02 0.0 
0.0 0.0 -1.353062541635e+02 
-4.014740285263e+01 -1.832107401819e-01 0.0 
-1.832107401819e-01 -5.431253499375e+01 0.0 
0.0 0.0 -2.793798135391e+01 
-1.237930368579e+01 -1.676301873877e+00 0.0 
-1.676301873877e+00 -2.468480536678e+01 0.0 
0.0 0.0 -1.071923271577e+01 
-2.199037863146e+01 2.277213628762e+00 0.0 
2.277213628762e+00 -3.440369310649e+01 0.0 
0.0 0.0 -1.651822152138e+01 
-1.210437682502e+01 -2.227365288523e+00 0.0 
-2.227365288523e+00 -2.825358788321e+01 0.0 
0.0 0.0 -1.169880426960e+01 
-2.268097157507e+01 -2.582919411183e+00 0.0 
-2.582919411183e+00 -5.456650695410e+01 0.0 
0.0 0.0 -2.277424355875e+01 
-1.634591098773e+01 7.902072715669e+00 0.0 
7.902072715669e+00 -6.911725818705e+00 0.0 
0.0 0.0 -6.772912841253e+00 
-7.142985583874e+01 -6.969154940925e-01 0.0 
-6.969154940925e-01 -1.953441020180e+02 0.0 
0.0 0.0 -7.963218735702e+01 
-1.444886257388e+02 1.465142133626e+00 0.0 
1.465142133626e+00 -3.509563018877e+02 0.0 
0.0 0.0 -1.482334782880e+02 
-9.611644965048e+01 2.917512070349e+01 0.0 
2.917512070349e+01 -2.101225373567e+02 0.0 
0.0 0.0 -9.147169610216e+01 
-6.095184744358e+01 1.911391076368e+01 0.0 
1.911391076368e+01 -7.509414189052e+01 0.0 
0.0 0.0 -4.041379680023e+01 
-6.145105042200e+01 2.717789822482e-01 0.0 
2.717789822482e-01 -1.712642950247e+02 0.0 
0.0 0.0 -6.941460363400e+01 
-1.406966922693e+02 1.052003877326e+01 0.0 
1.052003877326e+01 -3.457512450963e+02 0.0 
0.0 0.0 -1.455343812097e+02 
-1.307779161000e+02 1.547700394687e+01 0.0 
1.547700394687e+01 -3.317259442354e+02 0.0 
0.0 0.0 -1.383511581006e+02 
-1.274959783894e+02 3.009910844629e+01 0.0 
3.009910844629e+01 -3.141043920306e+02 0.0 
0.0 0.0 -1.320801111260e+02 
-1.128144269392e+02 3.136983305302e+01 0.0 
3.136983305302e+01 -2.706746230394e+02 0.0 
0.0 0.0 -1.146467149936e+02 
-9.775097697881e+01 3.030489188858e+01 0.0 
3.030489188858e+01 -2.305339874329e+02 0.0 
0.0 0.0 -9.808548932352e+01 
-1.706723274250e+01 -2.775324076065e+00 0.0 
-2.775324076065e+00 -4.058897548556e+01 0.0 
0.0 0.0 -1.689686246842e+01 
-2.327851288847e+01 -9.650070272634e-01 0.0 
-9.650070272634e-01 -3.506876496182e+01 0.0 
0.0 0.0 -1.710418335509e+01 
-1.447084683045e+02 4.213704408092e+00 0.0 
4.213704408092e+00 -3.517535743518e+02 0.0 
0.0 0.0 -1.485386127969e+02 
-1.339587614133e+01 -4.574119303960e-01 0.0 
-4.574119303960e-01 -4.130269056503e+01 0.0 
0.0 0.0 -1.600957001191e+01 
-1.678644934239e+01 -1.125378053136e+00 0.0 
-1.125378053136e+00 -4.930899801753e+01 0.0 
0.0 0.0 -1.942863420798e+01 
-2.130272685923e+01 1.018211961912e+01 0.0 
1.018211961912e+01 -2.530335592359e+01 0.0 
0.0 0.0 -1.358182483485e+01 
-1.559464222804e+01 -1.518197008148e+00 0.0 
-1.518197008148e+00 -3.862098001180e+01 0.0 
0.0 0.0 -1.586468667195e+01 
-1.496107082370e+02 1.304842648899e+01 0.0 
1.304842648899e+01 -3.585557724165e+02 0.0 
0.0 0.0 -1.520499441960e+02 
-1.129076149579e+02 3.421697458518e+01 0.0 
3.421697458518e+01 -2.626902540696e+02 0.0 
0.0 0.0 -1.122793607082e+02 
-7.738409629886e+01 6.581848028350e+00 0.0 
6.581848028350e+00 -1.647086562151e+02 0.0 
0.0 0.0 -7.222782575420e+01 
-1.303867071413e+02 2.983153500287e+01 0.0 
2.983153500287e+01 -3.130288769900e+02 0.0 
0.0 0.0 -1.326246752394e+02 
-1.266545861614e+02 1.662144200034e+01 0.0 
1.662144200034e+01 -3.211657603105e+02 0.0 
0.0 0.0 -1.339461039416e+02 
-4.462416763323e+01 -2.559605631318e-02 0.0 
-2.559605631318e-02 -6.569290316900e+01 0.0 
0.0 0.0 -3.269512124067e+01 
-8.603661973594e+01 1.615577179585e+01 0.0 
1.615577179585e+01 -2.020854460505e+02 0.0 
0.0 0.0 -8.603661973594e+01 
-3.188957009142e+01 -2.300736992409e+00 0.0 
-2.300736992409e+00 -8.972541682997e+01 0.0 
0.0 0.0 -3.608449607641e+01 
-1.937877203343e+01 -1.748601783760e-01 0.0 
-1.748601783760e-01 -7.177908570788e+00 0.0 
0.0 0.0 -7.567004181266e+00 
-2.497271762729e+01 -3.336561383419e+00 0.0 
-3.336561383419e+00 -5.572772581941e+01 0.0 
0.0 0.0 -2.381013303401e+01 
-9.231754681145e+00 -1.202529107720e+00 0.0 
-1.202529107720e+00 -2.435543954386e+01 0.0 
0.0 0.0 -1.022301814798e+01 
-1.601525646130e+02 4.849549277669e+00 0.0 
4.849549277669e+00 -3.805241432449e+02 0.0 
0.0 0.0 -1.618030123574e+02 
-4.766720487620e+01 1.239289326610e+01 0.0 
1.239289326610e+01 -3.809956626632e+01 0.0 
0.0 0.0 -2.533003134276e+01 
-2.100661106177e+01 -1.111255643370e+00 0.0 
-1.111255643370e+00 -5.754502642796e+01 0.0 
0.0 0.0 -2.316549124692e+01 
-6.787123141738e+01 -1.156916294038e+00 0.0 
-1.156916294038e+00 -1.878835072787e+02 0.0 
0.0 0.0 -7.632642160881e+01 
-1.116117543144e+02 3.562658093873e+01 0.0 
3.562658093873e+01 -2.593861107733e+02 0.0 
0.0 0.0 -1.108993595263e+02 
-8.201271790959e+01 1.146612573353e+01 0.0 
1.146612573353e+01 -1.660690309810e+02 0.0 
0.0 0.0 -7.402452466717e+01 
-9.197691496046e+01 2.504535750605e+01 0.0 
2.504535750605e+01 -2.034531536795e+02 0.0 
0.0 0.0 -8.822902059200e+01 
-4.810607266628e+01 -2.830955167145e-02 0.0 
-2.830955167145e-02 -1.339494243741e+02 0.0 
0.0 0.0 -5.421664911211e+01 
-2.149479373274e+01 5.018744696379e-01 0.0 
5.018744696379e-01 -3.494259814875e+01 0.0 
0.0 0.0 -1.653121756445e+01 
-1.501347752221e+02 8.955193391141e+00 0.0 
8.955193391141e+00 -3.632393929052e+02 0.0 
0.0 0.0 -1.536122504382e+02 
-8.646491833098e+01 1.350542134353e+00 0.0 
1.350542134353e+00 -1.950166302428e+02 0.0 
0.0 0.0 -8.404446457215e+01 
-1.609125218920e+02 1.114559074589e+00 0.0 
1.114559074589e+00 -3.821397718970e+02 0.0 
0.0 0.0 -1.625156881367e+02 
-2.591230275242e+01 -5.505142316936e-01 0.0 
-5.505142316936e-01 -2.172774119178e+01 0.0 
0.0 0.0 -1.389201318326e+01 
-1.354063275181e+02 1.694794733613e+01 0.0 
1.694794733613e+01 -3.342786692505e+02 0.0 
0.0 0.0 -1.405054990306e+02 
-2.062279864860e+01 -8.748763484636e-01 0.0 
-8.748763484636e-01 -5.850973762625e+01 0.0 
0.0 0.0 -2.333976088246e+01 
-8.670762690432e+01 1.888133406850e+01 0.0 
1.888133406850e+01 -1.806921120066e+02 0.0 
0.0 0.0 -7.981992167326e+01 
-9.584821700237e+00 -1.170718487434e+00 0.0 
-1.170718487434e+00 -2.332997443672e+01 0.0 
0.0 0.0 -9.982196588624e+00 
-1.476502116589e+02 1.590776893541e+01 0.0 
1.590776893541e+01 -3.545705728375e+02 0.0 
0.0 0.0 -1.502662353489e+02 
-9.717015166990e+01 2.702090684439e+01 0.0 
2.702090684439e+01 -2.081696728775e+02 0.0 
0.0 0.0 -9.120194736423e+01 
-1.792739354957e+01 1.867012247803e+00 0.0 
1.867012247803e+00 -2.229308221027e+01 0.0 
0.0 0.0 -1.217541426257e+01 
-1.097701770977e+02 2.965479783198e+01 0.0 
2.965479783198e+01 -2.719168598588e+02 0.0 
0.0 0.0 -1.141061110870e+02 
-5.991850519452e+01 2.411104773439e+00 0.0 
2.411104773439e+00 -1.067819197132e+02 0.0 
0.0 0.0 -4.961012747233e+01 
-8.022064486907e+01 8.379843883479e+00 0.0 
8.379843883479e+00 -1.788941957531e+02 0.0 
0.0 0.0 -7.733445218665e+01 
-1.487304936691e+02 2.649684584253e+01 0.0 
2.649684584253e+01 -3.483711518945e+02 0.0 
0.0 0.0 -1.487304936691e+02 
-4.889484126055e+01 1.556063213076e+00 0.0 
1.556063213076e+00 -7.951146111173e+01 0.0 
0.0 0.0 -3.812189071169e+01 
-1.094251694897e+02 3.378517268443e+01 0.0 
3.378517268443e+01 -2.548471774319e+02 0.0 
0.0 0.0 -1.088817040765e+02 
-9.320211916773e+01 2.515593143164e+01 0.0 
2.515593143164e+01 -1.907670323930e+02 0.0 
0.0 0.0 -8.479074546823e+01 
-5.276560101734e+01 9.387931046616e-01 0.0 
9.387931046616e-01 -9.096417989320e+01 0.0 
0.0 0.0 -4.271893427316e+01 
-1.064871385400e+02 3.247183468558e+01 0.0 
3.247183468558e+01 -2.460162517692e+02 0.0 
0.0 0.0 -1.053510170928e+02 
-5.795313717401e+01 -1.393936534390e-01 0.0 
-1.393936534390e-01 -1.605104447944e+02 0.0 
0.0 0.0 -6.513907459054e+01 
-1.985425669443e+01 3.825840669311e-03 0.0 
3.825840669311e-03 -7.270848860995e+00 0.0 
0.0 0.0 -7.737531666628e+00 
-1.201719705485e+02 2.854390038190e+01 0.0 
2.854390038190e+01 -2.993028683674e+02 0.0 
0.0 0.0 -1.254424516748e+02 
-8.009777262022e+01 5.274238210160e-01 0.0 
5.274238210160e-01 -1.790100314337e+02 0.0 
0.0 0.0 -7.733234121617e+01 
-2.417107803709e+00 7.528164112746e-02 0.0 
7.528164112746e-02 -8.548122488510e+00 0.0 
0.0 0.0 -3.814817910832e+00 
-1.983033862497e+01 -9.860880765048e-02 0.0 
-9.860880765048e-02 -7.032508820668e+00 0.0 
0.0 0.0 -7.658854233692e+00 
-1.553211893784e+02 1.190310710823e+00 0.0 
1.190310710823e+00 -3.700192033318e+02 0.0 
0.0 0.0 -1.572021178131e+02 
-2.634617339252e+01 -2.114115588359e+00 0.0 
-2.114115588359e+00 -7.352466809060e+01 0.0 
0.0 0.0 -2.956125244494e+01 
-1.286403862054e+02 1.963202262984e+01 0.0 
1.963202262984e+01 -3.271072750430e+02 0.0 
0.0 0.0 -1.363242983745e+02 
-9.690221203322e+01 2.868738028713e+01 0.0 
2.868738028713e+01 -2.005046435041e+02 0.0 
0.0 0.0 -8.882205666119e+01 
-8.352865426314e+01 8.093453914102e+00 0.0 
8.093453914102e+00 -1.788978171694e+02 0.0 
0.0 0.0 -7.832794142976e+01 
-2.532094412302e+01 -1.540044398259e+00 0.0 
-1.540044398259e+00 -7.070186802493e+01 0.0 
0.0 0.0 -2.840684364439e+01 
-2.374870675356e+01 7.060742841520e+00 0.0 
7.060742841520e+00 -4.014739379001e+01 0.0 
0.0 0.0 -1.876883016307e+01 
-8.471594687061e+01 -1.317904375643e+00 0.0 
-1.317904375643e+00 -2.285494959323e+02 0.0 
0.0 0.0 -9.357963284087e+01 
-6.537542352564e+01 1.067795937581e+00 0.0 
1.067795937581e+00 -1.282604315588e+02 0.0 
0.0 0.0 -5.769075652533e+01 
-2.262122907179e+01 -6.415631680789e-01 0.0 
-6.415631680789e-01 -5.662947725694e+00 0.0 
0.0 0.0 -8.085253039247e+00 
-8.814457337960e+01 2.100027124905e+01 0.0 
2.100027124905e+01 -1.943688305313e+02 0.0 
0.0 0.0 -8.435402117327e+01 
-4.614645259924e+01 4.127075238037e-01 0.0 
4.127075238037e-01 -7.325897542000e+01 0.0 
0.0 0.0 -3.542162840577e+01 
-2.724480640553e+01 -2.954237689125e+00 0.0 
-2.954237689125e+00 -6.924171020842e+01 0.0 
0.0 0.0 -2.854595498418e+01 
-4.129387233345e+01 3.682855176913e-01 0.0 
3.682855176913e-01 -5.938198221486e+01 0.0 
0.0 0.0 -2.980275636449e+01 
-1.261343964866e+02 3.237681545045e+01 0.0 
3.237681545045e+01 -3.063549108473e+02 0.0 
0.0 0.0 -1.293467922002e+02 
-8.962946444209e+01 1.211676135913e+00 0.0 
1.211676135913e+00 -2.392154214561e+02 0.0 
0.0 0.0 -9.825346576945e+01 
-1.809859568997e+01 8.598176752535e+00 0.0 
8.598176752535e+00 -1.166170734796e+01 0.0 
0.0 0.0 -8.502088236004e+00 
-5.124865025481e+01 -1.370460270007e+00 0.0 
-1.370460270007e+00 -1.456601364404e+02 0.0 
0.0 0.0 -5.867263600857e+01 
-7.697540488883e+01 -4.144551160820e-01 0.0 
-4.144551160820e-01 -2.101754427336e+02 0.0 
0.0 0.0 -8.574525428672e+01 
-9.389953395912e+01 -1.329080788473e+00 0.0 
-1.329080788473e+00 -2.482213759836e+02 0.0 
0.0 0.0 -1.022362729828e+02 
-1.256768260724e+02 2.705028069410e+01 0.0 
2.705028069410e+01 -3.102830004381e+02 0.0 
0.0 0.0 -1.303879479531e+02 
-7.489161062235e+01 5.901661670903e-01 0.0 
5.901661670903e-01 -2.049205527291e+02 0.0 
0.0 0.0 -8.354364900544e+01 
-8.035984435683e+01 -2.784065794458e-01 0.0 
-2.784065794458e-01 -2.174337072064e+02 0.0 
0.0 0.0 -8.893806546897e+01 
-1.466320037790e+01 -1.900591450862e+00 0.0 
-1.900591450862e+00 -3.729405312242e+01 0.0 
0.0 0.0 -1.518717605010e+01 
-1.445511537387e+02 6.767585391532e+00 0.0 
6.767585391532e+00 -3.526693285834e+02 0.0 
0.0 0.0 -1.487661446966e+02 
-1.048650075331e+02 3.013966225332e+01 0.0 
3.013966225332e+01 -2.578068524562e+02 0.0 
0.0 0.0 -1.084015579968e+02 
-2.367942548268e+01 7.186490454794e+00 0.0 
7.186490454794e+00 -5.155015320080e+01 0.0 
0.0 0.0 -2.216887360504e+01 
-7.936434563494e+01 1.506917413523e+00 0.0 
1.506917413523e+00 -1.780917663564e+02 0.0 
0.0 0.0 -7.683683359742e+01 
-1.554589693013e+02 2.339395148628e-01 0.0 
2.339395148628e-01 -3.696659118414e+02 0.0 
0.0 0.0 -1.571374643428e+02 
-2.661154444334e+01 5.836255914561e-01 0.0 
5.836255914561e-01 -2.285624481733e+01 0.0 
0.0 0.0 -1.444033677820e+01 
-4.674039086107e+01 3.645067904959e-01 0.0 
3.645067904959e-01 -7.349018988054e+01 0.0 
0.0 0.0 -3.566917422248e+01 
-7.506007594213e+01 -7.101667006972e-01 0.0 
-7.101667006972e-01 -2.047848388346e+02 0.0 
0.0 0.0 -8.355347443302e+01 
-7.795301367315e+01 3.680619950823e-01 0.0 
3.680619950823e-01 -2.111049583953e+02 0.0 
0.0 0.0 -8.631739162053e+01 
-8.026906539358e+01 1.824997173611e-01 0.0 
1.824997173611e-01 -2.178791459002e+02 0.0 
0.0 0.0 -8.904446338814e+01 
-1.223731600149e+02 1.832487947976e+01 0.0 
1.832487947976e+01 -3.146461056519e+02 0.0 
0.0 0.0 -1.307057797001e+02 
-2.220156602066e+01 -3.410716370994e+00 0.0 
-3.410716370994e+00 -5.635448993330e+01 0.0 
0.0 0.0 -2.316681678619e+01 
-1.103086952900e+02 3.361010574907e+01 0.0 
3.361010574907e+01 -2.639629124631e+02 0.0 
0.0 0.0 -1.118814823259e+02 
-3.312025654905e+01 -9.500389740180e-02 0.0 
-9.500389740180e-02 -3.955193596103e+01 0.0 
0.0 0.0 -2.140165775302e+01 
-9.276172810784e+01 2.079757150344e+01 0.0 
2.079757150344e+01 -1.931611037112e+02 0.0 
0.0 0.0 -8.537684954571e+01 
-1.246808762698e+02 1.887830842325e+01 0.0 
1.887830842325e+01 -3.155292501869e+02 0.0 
0.0 0.0 -1.316630379370e+02 
-4.288654226112e+01 9.816673865027e-01 0.0 
9.816673865027e-01 -6.041690843184e+01 0.0 
0.0 0.0 -3.059103520789e+01 
-1.002152785403e+02 3.112427002872e+01 0.0 
3.112427002872e+01 -2.325910702215e+02 0.0 
0.0 0.0 -9.944190462854e+01 
-1.234657346541e+02 2.575188573280e+01 0.0 
2.575188573280e+01 -3.087256770963e+02 0.0 
0.0 0.0 -1.292574235251e+02 
-1.296966296066e+02 2.935976415170e+01 0.0 
2.935976415170e+01 -3.192893316204e+02 0.0 
0.0 0.0 -1.342957883681e+02 
-1.907401610945e+01 7.920151579072e+00 0.0 
7.920151579072e+00 -1.802956526309e+01 0.0 
0.0 0.0 -1.094510727282e+01 
-1.023916432358e+02 3.254933399780e+01 0.0 
3.254933399780e+01 -2.337444564035e+02 0.0 
0.0 0.0 -1.004408298918e+02 
-1.057896376223e+02 3.298067683632e+01 0.0 
3.298067683632e+01 -2.487265214584e+02 0.0 
0.0 0.0 -1.059548477242e+02 
-1.545312189801e+01 -1.022503997283e+00 0.0 
-1.022503997283e+00 -3.829093964697e+01 0.0 
0.0 0.0 -1.572321846349e+01 
-7.107813336508e+01 2.205386949528e-01 0.0 
2.205386949528e-01 -1.949160807235e+02 0.0 
0.0 0.0 -7.939826422656e+01 
-1.925897635017e+01 6.061342807951e+00 0.0 
6.061342807951e+00 -1.659138772587e+01 0.0 
0.0 0.0 -1.035510922281e+01 
-1.058481218551e+02 3.439896843370e+01 0.0 
3.439896843370e+01 -2.410051028909e+02 0.0 
0.0 0.0 -1.036559674238e+02 

TENSORS element_materi_strain_total float
-9.028509113442e-04 1.879376476984e-03 0.0 
1.879376476984e-03 6.764511521702e-03 0.0 
0.0 0.0 0.0 
-7.113466491280e-04 1.438533869361e-03 0.0 
1.438533869361e-03 6.443541904338e-03 0.0 
0.0 0.0 0.0 
-1.959073517168e-04 2.733491616240e-03 0.0 
2.733491616240e-03 1.450348697425e-02 0.0 
0.0 0.0 0.0 
-3.944775435566e-04 2.551850280806e-04 0.0 
2.551850280806e-04 1.738738142613e-02 0.0 
0.0 0.0 0.0 
-1.168532039445e-03 6.735427409497e-05 0.0 
6.735427409497e-05 1.500000800417e-02 0.0 
0.0 0.0 0.0 
-3.605384307395e-04 5.044413367325e-04 0.0 
5.044413367325e-04 1.339792670333e-03 0.0 
0.0 0.0 0.0 
-1.105396642304e-03 5.919364691574e-05 0.0 
5.919364691574e-05 1.498529141408e-02 0.0 
0.0 0.0 0.0 
-7.766359803820e-04 1.693291256708e-03 0.0 
1.693291256708e-03 6.113673923617e-03 0.0 
0.0 0.0 0.0 
-1.163413549927e-03 3.175760537284e-06 0.0 
3.175760537284e-06 1.499143261936e-02 0.0 
0.0 0.0 0.0 
-3.847920686764e-04 4.881451717856e-04 0.0 
4.881451717856e-04 1.735589940425e-02 0.0 
0.0 0.0 0.0 
7.380969988047e-04 4.987162224364e-05 0.0 
4.987162224364e-05 4.845095890419e-03 0.0 
0.0 0.0 0.0 
-7.736015014249e-04 1.526012375625e-03 0.0 
1.526012375625e-03 5.637028349760e-03 0.0 
0.0 0.0 0.0 
2.579566887866e-04 1.723163114576e-04 0.0 
1.723163114576e-04 7.672986553141e-03 0.0 
0.0 0.0 0.0 
-1.536333060561e-03 4.944066204402e-04 0.0 
4.944066204402e-04 1.535499721357e-02 0.0 
0.0 0.0 0.0 
1.492637719096e-04 1.607261672262e-04 0.0 
1.607261672262e-04 7.917819194112e-03 0.0 
0.0 0.0 0.0 
-2.362255856483e-04 4.012260078843e-04 0.0 
4.012260078843e-04 1.747728107815e-02 0.0 
0.0 0.0 0.0 
-1.214378508925e-03 9.200889218020e-05 0.0 
9.200889218020e-05 1.489478453622e-02 0.0 
0.0 0.0 0.0 
-2.719872465018e-04 1.247485992668e-04 0.0 
1.247485992668e-04 1.244258850877e-03 0.0 
0.0 0.0 0.0 
2.838962733418e-04 -7.577305861269e-05 0.0 
-7.577305861269e-05 1.332479467170e-03 0.0 
0.0 0.0 0.0 
3.645503290051e-04 -1.422129719438e-05 0.0 
-1.422129719438e-05 1.375377306740e-03 0.0 
0.0 0.0 0.0 
-4.829393738979e-04 4.624260921665e-04 0.0 
4.624260921665e-04 1.736092231450e-02 0.0 
0.0 0.0 0.0 
-8.181643393435e-04 1.722472319787e-03 0.0 
1.722472319787e-03 7.657331880857e-03 0.0 
0.0 0.0 0.0 
-8.909722796897e-04 1.753075167029e-03 0.0 
1.753075167029e-03 8.334290098044e-03 0.0 
0.0 0.0 0.0 
5.300995005728e-04 1.332381524651e-03 0.0 
1.332381524651e-03 7.977255786432e-03 0.0 
0.0 0.0 0.0 
-1.614110700885e-03 1.157534880931e-03 0.0 
1.157534880931e-03 1.527443651448e-02 0.0 
0.0 0.0 0.0 
7.192137266432e-04 2.627454088639e-05 0.0 
2.627454088639e-05 5.155381891533e-03 0.0 
0.0 0.0 0.0 
-2.110105061335e-03 9.937134278694e-04 0.0 
9.937134278694e-04 1.449457787075e-02 0.0 
0.0 0.0 0.0 
3.014373308035e-04 2.856507307409e-03 0.0 
2.856507307409e-03 1.111144522187e-02 0.0 
0.0 0.0 0.0 
-1.800198000910e-03 1.364475051575e-03 0.0 
1.364475051575e-03 1.525698496833e-02 0.0 
0.0 0.0 0.0 
5.053363128060e-04 1.352107728443e-03 0.0 
1.352107728443e-03 8.128184163541e-03 0.0 
0.0 0.0 0.0 
-9.194073853891e-05 -1.669329735276e-04 0.0 
-1.669329735276e-04 1.233521761024e-03 0.0 
0.0 0.0 0.0 
-1.903462730434e-04 -1.410849419236e-04 0.0 
-1.410849419236e-04 4.792321217351e-04 0.0 
0.0 0.0 0.0 
-3.518753807510e-04 2.893079290582e-03 0.0 
2.893079290582e-03 1.470773524823e-02 0.0 
0.0 0.0 0.0 
5.384166998446e-04 1.300703062825e-05 0.0 
1.300703062825e-05 6.350676507429e-03 0.0 
0.0 0.0 0.0 
3.358174207124e-04 7.709356502839e-04 0.0 
7.709356502839e-04 7.868382144739e-03 0.0 
0.0 0.0 0.0 
1.587163991656e-04 6.024147428882e-04 0.0 
6.024147428882e-04 8.236367721971e-03 0.0 
0.0 0.0 0.0 
1.189922017548e-04 4.307154647098e-04 0.0 
4.307154647098e-04 8.225817152481e-03 0.0 
0.0 0.0 0.0 
4.729534600869e-04 2.062753750332e-03 0.0 
2.062753750332e-03 9.180075584354e-03 0.0 
0.0 0.0 0.0 
-1.064884695671e-03 -4.991078923304e-05 0.0 
-4.991078923304e-05 1.453735615645e-02 0.0 
0.0 0.0 0.0 
-1.050301104438e-03 5.368970722335e-05 0.0 
5.368970722335e-05 1.455423438859e-02 0.0 
0.0 0.0 0.0 
-9.852228077953e-04 1.836857365130e-03 0.0 
1.836857365130e-03 9.782529103044e-03 0.0 
0.0 0.0 0.0 
2.324114180650e-04 1.009609625993e-03 0.0 
1.009609625993e-03 8.140305578644e-03 0.0 
0.0 0.0 0.0 
-7.571569328760e-04 1.615581812067e-03 0.0 
1.615581812067e-03 4.499678445426e-03 0.0 
0.0 0.0 0.0 
-1.891259169509e-03 1.004157925890e-03 0.0 
1.004157925890e-03 1.439986871573e-02 0.0 
0.0 0.0 0.0 
-5.080224206726e-04 8.213873416432e-05 0.0 
8.213873416432e-05 1.723276168705e-02 0.0 
0.0 0.0 0.0 
-6.950319054809e-04 1.328430045119e-03 0.0 
1.328430045119e-03 4.473392620101e-03 0.0 
0.0 0.0 0.0 
-9.688677985764e-05 -2.166113842144e-04 0.0 
-2.166113842144e-04 8.498770023209e-04 0.0 
0.0 0.0 0.0 
-3.511506343813e-04 1.603146606160e-04 0.0 
1.603146606160e-04 1.725078607868e-02 0.0 
0.0 0.0 0.0 
-3.542144273885e-04 -1.673095688005e-04 0.0 
-1.673095688005e-04 5.757561049435e-04 0.0 
0.0 0.0 0.0 
-1.612553306968e-03 3.921832469461e-04 0.0 
3.921832469461e-04 1.522178734809e-02 0.0 
0.0 0.0 0.0 
-9.327441971825e-04 1.818801124132e-03 0.0 
1.818801124132e-03 9.029097958457e-03 0.0 
0.0 0.0 0.0 
3.737005703828e-04 -7.100736929619e-05 0.0 
-7.100736929619e-05 1.697605181066e-03 0.0 
0.0 0.0 0.0 
3.021204747427e-04 -2.346639410776e-04 0.0 
-2.346639410776e-04 1.647453558681e-03 0.0 
0.0 0.0 0.0 
-8.549488931340e-04 1.785108381614e-03 0.0 
1.785108381614e-03 9.043153693995e-03 0.0 
0.0 0.0 0.0 
-3.443943073974e-04 2.310678999032e-03 0.0 
2.310678999032e-03 1.589949083684e-02 0.0 
0.0 0.0 0.0 
5.095123177743e-04 -9.993714884904e-05 0.0 
-9.993714884904e-05 2.278150917405e-03 0.0 
0.0 0.0 0.0 
4.416065368038e-04 -8.279059674383e-06 0.0 
-8.279059674383e-06 1.753799363766e-03 0.0 
0.0 0.0 0.0 
5.566580171132e-04 8.477063391004e-05 0.0 
8.477063391004e-05 6.352648559157e-03 0.0 
0.0 0.0 0.0 
1.964222125321e-04 -1.052501882817e-04 0.0 
-1.052501882817e-04 1.003388450398e-03 0.0 
0.0 0.0 0.0 
-2.864329437217e-04 3.727278339201e-04 0.0 
3.727278339201e-04 1.747768934343e-02 0.0 
0.0 0.0 0.0 
-7.860591218508e-04 -1.565081488305e-04 0.0 
-1.565081488305e-04 6.971791073624e-04 0.0 
0.0 0.0 0.0 
5.916177533429e-04 2.389233787819e-03 0.0 
2.389233787819e-03 9.705737010338e-03 0.0 
0.0 0.0 0.0 
1.515445720233e-04 1.705845686777e-03 0.0 
1.705845686777e-03 6.205003286541e-03 0.0 
0.0 0.0 0.0 
2.286807417486e-04 -9.779795293396e-05 0.0 
-9.779795293396e-05 1.394298885468e-03 0.0 
0.0 0.0 0.0 
2.540012262102e-04 2.291495084914e-04 0.0 
2.291495084914e-04 7.683070572436e-03 0.0 
0.0 0.0 0.0 
-8.523761482626e-04 1.741888345900e-03 0.0 
1.741888345900e-03 8.336724842567e-03 0.0 
0.0 0.0 0.0 
-5.204773626983e-04 -8.147385400215e-05 0.0 
-8.147385400215e-05 5.635007714844e-04 0.0 
0.0 0.0 0.0 
-3.226243105914e-04 2.953319032830e-03 0.0 
2.953319032830e-03 1.432123276281e-02 0.0 
0.0 0.0 0.0 
1.190234030963e-04 -3.452502889456e-04 0.0 
-3.452502889456e-04 1.166101335289e-03 0.0 
0.0 0.0 0.0 
3.722705777043e-05 2.897121368305e-03 0.0 
2.897121368305e-03 1.264174171496e-02 0.0 
0.0 0.0 0.0 
7.022253546114e-04 6.305034345590e-05 0.0 
6.305034345590e-05 5.406156028173e-03 0.0 
0.0 0.0 0.0 
0.0 1.571343250857e-03 0.0 
1.571343250857e-03 1.713721219812e-02 0.0 
0.0 0.0 0.0 
2.617668651168e-04 2.561350599577e-03 0.0 
2.561350599577e-03 1.074124925503e-02 0.0 
0.0 0.0 0.0 
1.494775828115e-04 2.667411842192e-05 0.0 
2.667411842192e-05 4.353727050264e-04 0.0 
0.0 0.0 0.0 
5.621960788256e-04 -2.644355984023e-05 0.0 
-2.644355984023e-05 2.380079105872e-03 0.0 
0.0 0.0 0.0 
-5.959913822854e-04 1.116470328281e-03 0.0 
1.116470328281e-03 1.722220741984e-02 0.0 
0.0 0.0 0.0 
-5.576502943684e-04 2.537345107050e-03 0.0 
2.537345107050e-03 1.568960116304e-02 0.0 
0.0 0.0 0.0 
-6.196211722409e-04 1.100689998496e-03 0.0 
1.100689998496e-03 3.151303834372e-03 0.0 
0.0 0.0 0.0 
2.687262573007e-04 -1.304502025884e-04 0.0 
-1.304502025884e-04 1.001822387851e-03 0.0 
0.0 0.0 0.0 
-7.284584326107e-04 1.459362172946e-03 0.0 
1.459362172946e-03 3.166552444253e-03 0.0 
0.0 0.0 0.0 
1.419398788218e-04 -2.142464860852e-04 0.0 
-2.142464860852e-04 1.145790937422e-03 0.0 
0.0 0.0 0.0 
-1.306288031810e-03 7.274643073858e-05 0.0 
7.274643073858e-05 1.494288162108e-02 0.0 
0.0 0.0 0.0 
-8.906721564297e-04 1.748392178453e-03 0.0 
1.748392178453e-03 7.649227022288e-03 0.0 
0.0 0.0 0.0 
-8.290282498218e-04 1.620565474126e-03 0.0 
1.620565474126e-03 7.037599994888e-03 0.0 
0.0 0.0 0.0 
-1.271440204317e-03 6.916889709589e-05 0.0 
6.916889709589e-05 1.523816533152e-02 0.0 
0.0 0.0 0.0 
-1.162968357029e-03 9.079208366542e-05 0.0 
9.079208366542e-05 1.523794261977e-02 0.0 
0.0 0.0 0.0 
6.596173829663e-04 3.505545755750e-05 0.0 
3.505545755750e-05 5.609581942930e-03 0.0 
0.0 0.0 0.0 
5.909400458513e-04 3.801298254594e-05 0.0 
3.801298254594e-05 6.139451518061e-03 0.0 
0.0 0.0 0.0 
-5.634786190701e-04 2.511687504097e-03 0.0 
2.511687504097e-03 1.325181316933e-02 0.0 
0.0 0.0 0.0 
-1.278163087034e-03 4.328396266162e-05 0.0 
4.328396266162e-05 1.499600921319e-02 0.0 
0.0 0.0 0.0 
-1.076162377543e-04 -1.408501401536e-04 0.0 
-1.408501401536e-04 4.546231310669e-04 0.0 
0.0 0.0 0.0 
-1.837098680508e-03 1.133918764388e-03 0.0 
1.133918764388e-03 1.473449181640e-02 0.0 
0.0 0.0 0.0 
-7.836769288666e-04 8.026573548100e-05 0.0 
8.026573548100e-05 1.648492108359e-02 0.0 
0.0 0.0 0.0 
-8.589130169740e-04 1.452052510813e-04 0.0 
1.452052510813e-04 1.643313994821e-02 0.0 
0.0 0.0 0.0 
-3.871226341647e-04 1.757230132419e-03 0.0 
1.757230132419e-03 1.705148845729e-02 0.0 
0.0 0.0 0.0 
1.955710086552e-04 2.189824631369e-03 0.0 
2.189824631369e-03 9.716417142700e-03 0.0 
0.0 0.0 0.0 
-1.442623384275e-03 1.322995026743e-04 0.0 
1.322995026743e-04 1.497868322952e-02 0.0 
0.0 0.0 0.0 
3.774361769153e-04 9.849984670104e-04 0.0 
9.849984670104e-04 8.114166161867e-03 0.0 
0.0 0.0 0.0 
-9.752322262038e-04 -8.602761488388e-06 0.0 
-8.602761488388e-06 1.556096093686e-02 0.0 
0.0 0.0 0.0 
-1.860112914401e-04 1.626145521036e-03 0.0 
1.626145521036e-03 6.597205082810e-03 0.0 
0.0 0.0 0.0 
-1.137940656621e-03 1.528914904763e-05 0.0 
1.528914904763e-05 1.476541391591e-02 0.0 
0.0 0.0 0.0 
1.670068386590e-04 2.409715557985e-04 0.0 
2.409715557985e-04 7.912784754334e-03 0.0 
0.0 0.0 0.0 
8.159297373393e-04 1.806645403057e-03 0.0 
1.806645403057e-03 8.135114256283e-03 0.0 
0.0 0.0 0.0 
4.358430276932e-04 2.293133393882e-03 0.0 
2.293133393882e-03 9.722006385777e-03 0.0 
0.0 0.0 0.0 
1.875153241107e-04 1.233446852713e-03 0.0 
1.233446852713e-03 4.913792559787e-03 0.0 
0.0 0.0 0.0 
-3.552868338449e-04 -1.982846801404e-04 0.0 
-1.982846801404e-04 9.555907888188e-04 0.0 
0.0 0.0 0.0 
3.791105885238e-04 7.800068734173e-05 0.0 
7.800068734173e-05 7.125627113159e-03 0.0 
0.0 0.0 0.0 
-7.584152585068e-04 1.774336494909e-04 0.0 
1.774336494909e-04 1.675249439810e-02 0.0 
0.0 0.0 0.0 
-6.819109213393e-04 -1.719279084360e-04 0.0 
-1.719279084360e-04 6.967171242305e-04 0.0 
0.0 0.0 0.0 
1.665123120995e-04 3.947152470997e-04 0.0 
3.947152470997e-04 7.877463567418e-03 0.0 
0.0 0.0 0.0 
-3.794870559702e-04 2.461749301716e-03 0.0 
2.461749301716e-03 1.260164754562e-02 0.0 
0.0 0.0 0.0 
1.201819511809e-04 -5.445482465092e-05 0.0 
-5.445482465092e-05 2.605430644609e-04 0.0 
0.0 0.0 0.0 
7.996541417261e-04 1.425136339532e-03 0.0 
1.425136339532e-03 5.441086774073e-03 0.0 
0.0 0.0 0.0 
-1.476895581423e-03 1.958424647124e-03 0.0 
1.958424647124e-03 1.282334222160e-02 0.0 
0.0 0.0 0.0 
6.805639117697e-04 -7.870261160973e-05 0.0 
-7.870261160973e-05 2.923483240808e-03 0.0 
0.0 0.0 0.0 
-8.919005621144e-05 1.638645990907e-03 0.0 
1.638645990907e-03 5.847590866084e-03 0.0 
0.0 0.0 0.0 
8.240210526456e-05 1.504474088159e-03 0.0 
1.504474088159e-03 6.220189213947e-03 0.0 
0.0 0.0 0.0 
2.295295948105e-04 7.605440057035e-04 0.0 
7.605440057035e-04 8.028622030372e-03 0.0 
0.0 0.0 0.0 
-9.950062029146e-04 5.227312255695e-05 0.0 
5.227312255695e-05 1.543436595544e-02 0.0 
0.0 0.0 0.0 
2.072188597986e-04 1.606604558120e-03 0.0 
1.606604558120e-03 5.531340480818e-03 0.0 
0.0 0.0 0.0 
1.175995114366e-04 -3.139913394309e-04 0.0 
-3.139913394309e-04 1.096242065344e-03 0.0 
0.0 0.0 0.0 
-1.831345047667e-03 1.465069225635e-03 0.0 
1.465069225635e-03 1.418757708528e-02 0.0 
0.0 0.0 0.0 
-6.429602093015e-04 1.193243276924e-04 0.0 
1.193243276924e-04 1.676858301508e-02 0.0 
0.0 0.0 0.0 
1.395188240290e-04 1.356881062137e-03 0.0 
1.356881062137e-03 5.543376097712e-03 0.0 
0.0 0.0 0.0 
-5.857974344826e-04 7.669297999459e-04 0.0 
7.669297999459e-04 1.918214532231e-03 0.0 
0.0 0.0 0.0 
-1.171378933097e-03 1.944054928920e-03 0.0 
1.944054928920e-03 1.125342440574e-02 0.0 
0.0 0.0 0.0 
6.191799548432e-04 -4.658038384854e-05 0.0 
-4.658038384854e-05 2.909690913879e-03 0.0 
0.0 0.0 0.0 
-9.760341529030e-04 1.861914862302e-03 0.0 
1.861914862302e-03 1.054256758339e-02 0.0 
0.0 0.0 0.0 
-3.209396047708e-04 1.318681107523e-03 0.0 
1.318681107523e-03 1.718267732541e-02 0.0 
0.0 0.0 0.0 
-3.877045205383e-04 9.042754899413e-04 0.0 
9.042754899413e-04 1.867937363918e-03 0.0 
0.0 0.0 0.0 
7.318483374554e-04 8.433201834433e-05 0.0 
8.433201834433e-05 5.126318313408e-03 0.0 
0.0 0.0 0.0 
-3.486514620081e-04 2.873208016796e-04 0.0 
2.873208016796e-04 1.738832745351e-02 0.0 
0.0 0.0 0.0 
-1.122418296949e-04 1.996550842446e-03 0.0 
1.996550842446e-03 8.347034245113e-03 0.0 
0.0 0.0 0.0 
-1.073952734420e-03 1.897821615421e-03 0.0 
1.897821615421e-03 1.053175628836e-02 0.0 
0.0 0.0 0.0 
4.012436486698e-04 8.774795716011e-04 0.0 
8.774795716011e-04 7.870516687536e-03 0.0 
0.0 0.0 0.0 
2.416347772076e-04 7.350530308421e-05 0.0 
7.350530308421e-05 7.691991826313e-03 0.0 
0.0 0.0 0.0 
6.787674712514e-04 1.040121942236e-04 0.0 
1.040121942236e-04 5.611445788711e-03 0.0 
0.0 0.0 0.0 
-2.704319105244e-04 1.996976625610e-03 0.0 
1.996976625610e-03 9.103096694536e-03 0.0 
0.0 0.0 0.0 
4.288496283404e-04 1.356119543413e-03 0.0 
1.356119543413e-03 8.423105270474e-03 0.0 
0.0 0.0 0.0 
-3.701269598929e-04 1.995557178277e-03 0.0 
1.995557178277e-03 8.770485303994e-03 0.0 
0.0 0.0 0.0 
-3.010452773882e-04 8.386307968002e-04 0.0 
8.386307968002e-04 1.735843929396e-02 0.0 
0.0 0.0 0.0 
5.635090890066e-05 3.101188205095e-03 0.0 
3.101188205095e-03 1.284767837499e-02 0.0 
0.0 0.0 0.0 
-1.776338945907e-03 6.406576238429e-04 0.0 
6.406576238429e-04 1.538645658876e-02 0.0 
0.0 0.0 0.0 
-9.611872361927e-04 1.810497827064e-04 0.0 
1.810497827064e-04 1.607051376881e-02 0.0 
0.0 0.0 0.0 
-4.206615113928e-04 1.906125383840e-03 0.0 
1.906125383840e-03 8.774266042494e-03 0.0 
0.0 0.0 0.0 
-9.188081141145e-04 1.845592927364e-03 0.0 
1.845592927364e-03 9.778369709017e-03 0.0 
0.0 0.0 0.0 
9.496437628931e-06 2.069611779219e-03 0.0 
2.069611779219e-03 8.695957798687e-03 0.0 
0.0 0.0 0.0 
3.944683106005e-04 1.296997264187e-03 0.0 
1.296997264187e-03 5.304276907077e-03 0.0 
0.0 0.0 0.0 
-1.087982697647e-03 -1.295413041994e-05 0.0 
-1.295413041994e-05 1.481336650570e-02 0.0 
0.0 0.0 0.0 
7.148755100022e-04 1.223979801522e-03 0.0 
1.223979801522e-03 5.466065848037e-03 0.0 
0.0 0.0 0.0 
-3.924048897652e-05 -1.691841658138e-04 0.0 
-1.691841658138e-04 4.173851093825e-04 0.0 
0.0 0.0 0.0 
-1.038823882582e-03 8.583849673655e-06 0.0 
8.583849673655e-06 1.511914384628e-02 0.0 
0.0 0.0 0.0 
2.800461350914e-04 -4.021180921413e-05 0.0 
-4.021180921413e-05 1.008217090260e-03 0.0 
0.0 0.0 0.0 
-1.295073002818e-03 1.985258332130e-03 0.0 
1.985258332130e-03 1.200697489848e-02 0.0 
0.0 0.0 0.0 
2.412176572872e-04 1.242079871361e-03 0.0 
1.242079871361e-03 8.354357105826e-03 0.0 
0.0 0.0 0.0 
2.334123828616e-04 1.488231619841e-03 0.0 
1.488231619841e-03 4.894903361462e-03 0.0 
0.0 0.0 0.0 
6.381337933108e-04 7.932576277886e-05 0.0 
7.932576277886e-05 5.860070996050e-03 0.0 
0.0 0.0 0.0 
-7.443736381025e-04 1.395377945347e-03 0.0 
1.395377945347e-03 5.175788118789e-03 0.0 
0.0 0.0 0.0 
9.552382871287e-04 1.938004222380e-03 0.0 
1.938004222380e-03 8.122953429331e-03 0.0 
0.0 0.0 0.0 
-1.054989658256e-03 5.391518703660e-06 0.0 
5.391518703660e-06 1.484081247480e-02 0.0 
0.0 0.0 0.0 
8.378861639378e-04 1.272794599525e-03 0.0 
1.272794599525e-03 4.855571417637e-03 0.0 
0.0 0.0 0.0 
4.971295723186e-04 6.301466063662e-05 0.0 
6.301466063662e-05 6.601417858952e-03 0.0 
0.0 0.0 0.0 
1.437633531478e-04 -2.121846802392e-04 0.0 
-2.121846802392e-04 1.076772389016e-03 0.0 
0.0 0.0 0.0 
3.982096260269e-04 1.621135264630e-04 0.0 
1.621135264630e-04 7.116685233198e-03 0.0 
0.0 0.0 0.0 
-9.567451311188e-04 2.117346541221e-03 0.0 
2.117346541221e-03 1.180420776448e-02 0.0 
0.0 0.0 0.0 
2.813148856635e-04 3.785950890297e-04 0.0 
3.785950890297e-04 7.851713756723e-03 0.0 
0.0 0.0 0.0 
-1.038284151635e-03 9.398345474232e-06 0.0 
9.398345474232e-06 1.481742933754e-02 0.0 
0.0 0.0 0.0 
4.738330423428e-04 1.320986147393e-03 0.0 
1.320986147393e-03 4.628586150047e-03 0.0 
0.0 0.0 0.0 
-1.258927499717e-03 1.873514789705e-03 0.0 
1.873514789705e-03 1.204883222403e-02 0.0 
0.0 0.0 0.0 
7.270818405998e-04 -3.200845410457e-07 0.0 
-3.200845410457e-07 4.878442186401e-03 0.0 
0.0 0.0 0.0 
-8.456962886775e-04 1.761027090495e-03 0.0 
1.761027090495e-03 5.279965015658e-03 0.0 
0.0 0.0 0.0 
7.536555379832e-04 1.046087973826e-03 0.0 
1.046087973826e-03 4.886689735637e-03 0.0 
0.0 0.0 0.0 
-9.602058348362e-04 1.241244848936e-04 0.0 
1.241244848936e-04 1.625775601711e-02 0.0 
0.0 0.0 0.0 
-1.060497111470e-03 2.680990212801e-05 0.0 
2.680990212801e-05 1.481667881601e-02 0.0 
0.0 0.0 0.0 
6.528102425014e-04 1.358887867758e-03 0.0 
1.358887867758e-03 5.017108667106e-03 0.0 
0.0 0.0 0.0 
-1.106387587894e-03 1.875656397359e-03 0.0 
1.875656397359e-03 1.127780795100e-02 0.0 
0.0 0.0 0.0 
1.169101918517e-04 2.646299716337e-03 0.0 
2.646299716337e-03 1.174861860432e-02 0.0 
0.0 0.0 0.0 
6.812343366289e-04 -5.251112649536e-05 0.0 
-5.251112649536e-05 3.270417126597e-03 0.0 
0.0 0.0 0.0 
2.105115703013e-04 2.668961734579e-03 0.0 
2.668961734579e-03 1.090659333928e-02 0.0 
0.0 0.0 0.0 
6.715319792883e-05 3.071116210064e-03 0.0 
3.071116210064e-03 1.244485461751e-02 0.0 
0.0 0.0 0.0 
-4.356242273524e-04 1.585758209322e-03 0.0 
1.585758209322e-03 6.306587394545e-03 0.0 
0.0 0.0 0.0 
7.270749798760e-04 -2.731636372028e-05 0.0 
-2.731636372028e-05 3.283968459136e-03 0.0 
0.0 0.0 0.0 
7.038861511950e-04 1.408421636612e-03 0.0 
1.408421636612e-03 7.746814673431e-03 0.0 
0.0 0.0 0.0 
-6.992820187893e-04 1.894082384579e-03 0.0 
1.894082384579e-03 9.246266033981e-03 0.0 
0.0 0.0 0.0 
-3.872178909641e-04 1.585975886113e-03 0.0 
1.585975886113e-03 5.521998947782e-03 0.0 
0.0 0.0 0.0 
-1.234883200413e-03 1.988088115661e-03 0.0 
1.988088115661e-03 1.229473599341e-02 0.0 
0.0 0.0 0.0 
5.509458155795e-04 1.358681540284e-03 0.0 
1.358681540284e-03 5.690157332577e-03 0.0 
0.0 0.0 0.0 
-2.594291511305e-04 6.025373747058e-04 0.0 
6.025373747058e-04 1.740308944596e-02 0.0 
0.0 0.0 0.0 
-6.939229474494e-04 2.352157057572e-03 0.0 
2.352157057572e-03 1.362563860732e-02 0.0 
0.0 0.0 0.0 
4.486299810673e-04 1.009843582359e-04 0.0 
1.009843582359e-04 6.861826000329e-03 0.0 
0.0 0.0 0.0 
-6.741023234599e-04 1.229324012400e-03 0.0 
1.229324012400e-03 3.809542903726e-03 0.0 
0.0 0.0 0.0 
7.750979980163e-04 8.659018227062e-04 0.0 
8.659018227062e-04 4.349094802508e-03 0.0 
0.0 0.0 0.0 
-4.735104341170e-04 2.471696346880e-03 0.0 
2.471696346880e-03 1.326058679985e-02 0.0 
0.0 0.0 0.0 
-9.681698914267e-04 2.747694558381e-04 0.0 
2.747694558381e-04 6.241635412698e-04 0.0 
0.0 0.0 0.0 
-6.449959447257e-04 1.949758291073e-03 0.0 
1.949758291073e-03 9.245198939854e-03 0.0 
0.0 0.0 0.0 
8.454737616117e-04 1.051032165287e-03 0.0 
1.051032165287e-03 6.884259442025e-03 0.0 
0.0 0.0 0.0 
9.519493089694e-05 -1.354388650169e-04 0.0 
-1.354388650169e-04 7.076155486083e-04 0.0 
0.0 0.0 0.0 
-3.709414796328e-04 2.616373230766e-03 0.0 
2.616373230766e-03 1.519815321919e-02 0.0 
0.0 0.0 0.0 
-1.348045901538e-03 1.794081575666e-03 0.0 
1.794081575666e-03 1.471820019992e-02 0.0 
0.0 0.0 0.0 
9.347260772290e-04 -1.266586898426e-05 0.0 
-1.266586898426e-05 3.100161719516e-03 0.0 
0.0 0.0 0.0 
9.779944668584e-04 1.176075478677e-03 0.0 
1.176075478677e-03 6.875604026600e-03 0.0 
0.0 0.0 0.0 
-1.862237898655e-03 1.466968437148e-03 0.0 
1.466968437148e-03 1.463818046165e-02 0.0 
0.0 0.0 0.0 
-1.869264318276e-03 1.044511730071e-03 0.0 
1.044511730071e-03 1.538429400903e-02 0.0 
0.0 0.0 0.0 
4.020339311994e-04 1.263433028278e-03 0.0 
1.263433028278e-03 8.106777531488e-03 0.0 
0.0 0.0 0.0 
6.527444813056e-04 -1.589321157623e-04 0.0 
-1.589321157623e-04 2.268920556789e-03 0.0 
0.0 0.0 0.0 
2.329431003325e-04 2.040013006159e-03 0.0 
2.040013006159e-03 8.340835482683e-03 0.0 
0.0 0.0 0.0 
-6.982916804712e-04 2.196773507233e-03 0.0 
2.196773507233e-03 1.135075263048e-02 0.0 
0.0 0.0 0.0 
-1.474665143746e-03 1.803659069586e-03 0.0 
1.803659069586e-03 1.518991431537e-02 0.0 
0.0 0.0 0.0 
-1.139006072952e-03 2.123306074484e-03 0.0 
2.123306074484e-03 1.255234686055e-02 0.0 
0.0 0.0 0.0 
-1.214883272471e-03 2.061472243233e-03 0.0 
2.061472243233e-03 1.229515252768e-02 0.0 
0.0 0.0 0.0 
9.937054637881e-04 1.489608989785e-03 0.0 
1.489608989785e-03 7.075170370566e-03 0.0 
0.0 0.0 0.0 
-1.192513773729e-04 2.551301205859e-03 0.0 
2.551301205859e-03 1.200180323134e-02 0.0 
0.0 0.0 0.0 
-7.762273481665e-04 2.596160561631e-04 0.0 
2.596160561631e-04 9.133938868602e-04 0.0 
0.0 0.0 0.0 
-4.133516497803e-04 1.723524328804e-03 0.0 
1.723524328804e-03 6.323368739475e-03 0.0 
0.0 0.0 0.0 
-1.349834097906e-04 1.752936907216e-03 0.0 
1.752936907216e-03 6.576205227698e-03 0.0 
0.0 0.0 0.0 
-2.886979154149e-05 1.970552003513e-03 0.0 
1.970552003513e-03 8.709608095374e-03 0.0 
0.0 0.0 0.0 
-8.543757488372e-04 2.369777783060e-03 0.0 
2.369777783060e-03 1.422482494730e-02 0.0 
0.0 0.0 0.0 
9.752332370616e-05 4.590739208032e-04 0.0 
4.590739208032e-04 1.683794672244e-03 0.0 
0.0 0.0 0.0 
9.029846655462e-04 8.904508036308e-04 0.0 
8.904508036308e-04 6.479180777327e-03 0.0 
0.0 0.0 0.0 
-1.075575731189e-03 -2.517557526216e-05 0.0 
-2.517557526216e-05 1.479048793655e-02 0.0 
0.0 0.0 0.0 
8.537166243536e-04 1.103121960341e-03 0.0 
1.103121960341e-03 4.315301179230e-03 0.0 
0.0 0.0 0.0 
9.411404049606e-04 7.401624885719e-04 0.0 
7.401624885719e-04 6.104808855270e-03 0.0 
0.0 0.0 0.0 
-1.113012728726e-05 -1.709287710771e-04 0.0 
-1.709287710771e-04 4.918670569458e-04 0.0 
0.0 0.0 0.0 
-1.179932483118e-03 1.924243129489e-03 0.0 
1.924243129489e-03 1.491074591894e-02 0.0 
0.0 0.0 0.0 
-8.453500013350e-05 -8.183620310052e-05 0.0 
-8.183620310052e-05 3.843236860113e-04 0.0 
0.0 0.0 0.0 
1.802731068188e-04 -1.226898436031e-04 0.0 
-1.226898436031e-04 6.994464319885e-04 0.0 
0.0 0.0 0.0 
-7.150338878893e-04 1.547016208014e-03 0.0 
1.547016208014e-03 3.825641888646e-03 0.0 
0.0 0.0 0.0 
5.298410785248e-04 -1.974220578271e-04 0.0 
-1.974220578271e-04 1.904811848984e-03 0.0 
0.0 0.0 0.0 
-1.292749921717e-03 1.920598339510e-03 0.0 
1.920598339510e-03 1.537903878017e-02 0.0 
0.0 0.0 0.0 
4.228900634693e-04 -3.082910918074e-04 0.0 
-3.082910918074e-04 1.798007106849e-03 0.0 
0.0 0.0 0.0 
-1.217775726003e-05 1.187041104747e-03 0.0 
1.187041104747e-03 3.285067352587e-03 0.0 
0.0 0.0 0.0 
2.517128750661e-04 -3.245698320071e-04 0.0 
-3.245698320071e-04 1.483044905392e-03 0.0 
0.0 0.0 0.0 
2.181314598799e-04 -2.038759048330e-04 0.0 
-2.038759048330e-04 1.211439140346e-03 0.0 
0.0 0.0 0.0 
9.049249888207e-04 1.326686539816e-03 0.0 
1.326686539816e-03 7.280343643695e-03 0.0 
0.0 0.0 0.0 
-9.652793421262e-04 2.136821206785e-03 0.0 
2.136821206785e-03 1.180345472738e-02 0.0 
0.0 0.0 0.0 
2.808550663889e-04 3.189510204100e-04 0.0 
3.189510204100e-04 7.687999539074e-03 0.0 
0.0 0.0 0.0 
-7.723356412991e-04 1.647461441286e-04 0.0 
1.647461441286e-04 4.404782869594e-04 0.0 
0.0 0.0 0.0 
2.615873754628e-04 1.174319856745e-03 0.0 
1.174319856745e-03 3.651522299639e-03 0.0 
0.0 0.0 0.0 
9.844140466762e-04 1.165106342256e-03 0.0 
1.165106342256e-03 4.752401646870e-03 0.0 
0.0 0.0 0.0 
-5.475729081329e-04 1.887313673441e-03 0.0 
1.887313673441e-03 8.458559534370e-03 0.0 
0.0 0.0 0.0 
1.028200894214e-03 1.007341781590e-03 0.0 
1.007341781590e-03 6.471014483370e-03 0.0 
0.0 0.0 0.0 
2.665294788580e-04 4.672677354321e-04 0.0 
4.672677354321e-04 7.909024663041e-03 0.0 
0.0 0.0 0.0 
-9.892263539347e-04 2.278581634781e-03 0.0 
2.278581634781e-03 1.398384315297e-02 0.0 
0.0 0.0 0.0 
6.069822954415e-04 6.107643899181e-04 0.0 
6.107643899181e-04 3.433098176153e-03 0.0 
0.0 0.0 0.0 
7.762093199906e-04 1.225358385624e-03 0.0 
1.225358385624e-03 7.281042336080e-03 0.0 
0.0 0.0 0.0 
6.967530098352e-04 7.719027223506e-05 0.0 
7.719027223506e-05 5.359440612582e-03 0.0 
0.0 0.0 0.0 
-1.602738570941e-04 2.077111825012e-03 0.0 
2.077111825012e-03 9.444998356710e-03 0.0 
0.0 0.0 0.0 
-1.141780128232e-03 2.021200354890e-03 0.0 
2.021200354890e-03 1.436485510428e-02 0.0 
0.0 0.0 0.0 
2.849629739488e-04 2.442656294762e-03 0.0 
2.442656294762e-03 1.024406260148e-02 0.0 
0.0 0.0 0.0 
8.891462859348e-04 9.512157175484e-04 0.0 
9.512157175484e-04 4.784351400714e-03 0.0 
0.0 0.0 0.0 
-2.454250885509e-05 1.055441585551e-03 0.0 
1.055441585551e-03 3.920721858067e-03 0.0 
0.0 0.0 0.0 
-1.044439179119e-03 2.194535040044e-03 0.0 
2.194535040044e-03 1.281466048465e-02 0.0 
0.0 0.0 0.0 
-2.965042562467e-04 1.571222109024e-03 0.0 
1.571222109024e-03 1.719925043725e-02 0.0 
0.0 0.0 0.0 
1.902012760902e-04 1.921819439363e-03 0.0 
1.921819439363e-03 8.355900004009e-03 0.0 
0.0 0.0 0.0 
1.093161198892e-03 1.072910323940e-03 0.0 
1.072910323940e-03 5.607462818911e-03 0.0 
0.0 0.0 0.0 
-1.056807306463e-03 2.032021911329e-05 0.0 
2.032021911329e-05 1.520371209028e-02 0.0 
0.0 0.0 0.0 
-1.939264602946e-05 -3.246916889285e-04 0.0 
-3.246916889285e-04 1.102015869237e-03 0.0 
0.0 0.0 0.0 
-1.108982012204e-03 2.048865902264e-03 0.0 
2.048865902264e-03 1.256390908606e-02 0.0 
0.0 0.0 0.0 
6.800538614578e-04 8.730299145439e-04 0.0 
8.730299145439e-04 3.393121811184e-03 0.0 
0.0 0.0 0.0 
3.433622488374e-04 4.821315419328e-04 0.0 
4.821315419328e-04 2.112397341295e-03 0.0 
0.0 0.0 0.0 
1.128923055029e-04 -2.815132078615e-04 0.0 
-2.815132078615e-04 1.238499718484e-03 0.0 
0.0 0.0 0.0 
-1.170938988067e-03 1.822769250673e-03 0.0 
1.822769250673e-03 1.539113330811e-02 0.0 
0.0 0.0 0.0 
-8.784563073869e-04 2.209526743201e-03 0.0 
2.209526743201e-03 1.208779195561e-02 0.0 
0.0 0.0 0.0 
4.526516527377e-04 1.483885655139e-03 0.0 
1.483885655139e-03 5.273852150504e-03 0.0 
0.0 0.0 0.0 
-1.264540329033e-03 1.813900943574e-03 0.0 
1.813900943574e-03 1.580842842367e-02 0.0 
0.0 0.0 0.0 
-7.686663534928e-04 2.394787677064e-03 0.0 
2.394787677064e-03 1.361773629501e-02 0.0 
0.0 0.0 0.0 
-3.059555756990e-04 2.164976675838e-03 0.0 
2.164976675838e-03 1.017977567366e-02 0.0 
0.0 0.0 0.0 
1.901831523941e-04 5.980552768416e-04 0.0 
5.980552768416e-04 7.957845576603e-03 0.0 
0.0 0.0 0.0 
1.244870017342e-03 1.170728424527e-03 0.0 
1.170728424527e-03 5.559560913907e-03 0.0 
0.0 0.0 0.0 
-4.648362907848e-04 2.226132511121e-03 0.0 
2.226132511121e-03 1.091987353904e-02 0.0 
0.0 0.0 0.0 
6.678612861659e-04 1.415280793115e-03 0.0 
1.415280793115e-03 6.098317010645e-03 0.0 
0.0 0.0 0.0 
1.093935992149e-03 1.188039502237e-03 0.0 
1.188039502237e-03 6.075398517625e-03 0.0 
0.0 0.0 0.0 
5.815635023678e-04 5.160957876547e-04 0.0 
5.160957876547e-04 2.501001159451e-03 0.0 
0.0 0.0 0.0 
-1.816292387870e-03 6.947280679403e-04 0.0 
6.947280679403e-04 1.502235227118e-02 0.0 
0.0 0.0 0.0 
9.948941034561e-04 8.611039989431e-04 0.0 
8.611039989431e-04 4.709283228815e-03 0.0 
0.0 0.0 0.0 
7.719053207125e-04 1.937864011639e-05 0.0 
1.937864011639e-05 2.667356430878e-03 0.0 
0.0 0.0 0.0 
-9.200376176689e-04 2.209768629618e-03 0.0 
2.209768629618e-03 1.399625978584e-02 0.0 
0.0 0.0 0.0 
-1.235291833155e-03 6.325583030154e-05 0.0 
6.325583030154e-05 6.809674225738e-04 0.0 
0.0 0.0 0.0 
-1.301818474705e-03 2.075430411919e-03 0.0 
2.075430411919e-03 1.326718450365e-02 0.0 
0.0 0.0 0.0 
8.307124594797e-04 7.441135730025e-04 0.0 
7.441135730025e-04 3.339235500580e-03 0.0 
0.0 0.0 0.0 
2.305771142481e-04 8.944072290200e-04 0.0 
8.944072290200e-04 3.690563291556e-03 0.0 
0.0 0.0 0.0 
4.898129756303e-04 2.530032490668e-04 0.0 
2.530032490668e-04 2.546307619654e-03 0.0 
0.0 0.0 0.0 
-7.862179239747e-04 2.245606861368e-03 0.0 
2.245606861368e-03 1.238724464987e-02 0.0 
0.0 0.0 0.0 
-7.491053679554e-05 -2.611589608635e-04 0.0 
-2.611589608635e-04 7.683125091120e-04 0.0 
0.0 0.0 0.0 
-1.950282893689e-04 1.843282204241e-03 0.0 
1.843282204241e-03 7.288928506280e-03 0.0 
0.0 0.0 0.0 
1.233240502795e-03 1.281069698704e-03 0.0 
1.281069698704e-03 6.038769349438e-03 0.0 
0.0 0.0 0.0 
-8.630968552623e-04 2.177064044804e-03 0.0 
2.177064044804e-03 1.209329788175e-02 0.0 
0.0 0.0 0.0 
-1.832640626301e-03 1.070595168378e-03 0.0 
1.070595168378e-03 1.499072400739e-02 0.0 
0.0 0.0 0.0 
-7.713593844683e-05 3.381535667980e-04 0.0 
3.381535667980e-04 1.357693525255e-03 0.0 
0.0 0.0 0.0 
8.855721556513e-04 2.235386494256e-04 0.0 
2.235386494256e-04 2.635223074598e-03 0.0 
0.0 0.0 0.0 
6.723520119509e-04 -1.046176653522e-04 0.0 
-1.046176653522e-04 2.362901947170e-03 0.0 
0.0 0.0 0.0 
-5.028612062078e-04 1.665270325009e-03 0.0 
1.665270325009e-03 7.032227376047e-03 0.0 
0.0 0.0 0.0 
-1.217113255476e-03 2.122630111997e-03 0.0 
2.122630111997e-03 1.434650839404e-02 0.0 
0.0 0.0 0.0 
-2.477556999814e-04 1.721093570252e-03 0.0 
1.721093570252e-03 7.307511237921e-03 0.0 
0.0 0.0 0.0 
1.094405572331e-03 8.828581632924e-04 0.0 
8.828581632924e-04 4.193692215617e-03 0.0 
0.0 0.0 0.0 
9.917269762389e-04 9.874765886113e-04 0.0 
9.874765886113e-04 4.238193145907e-03 0.0 
0.0 0.0 0.0 
-2.004511021292e-05 1.736050179316e-04 0.0 
1.736050179316e-04 1.785610647480e-03 0.0 
0.0 0.0 0.0 
8.923092933246e-04 1.498088035639e-03 0.0 
1.498088035639e-03 5.880847084470e-03 0.0 
0.0 0.0 0.0 
-3.035379754032e-04 9.024369660521e-04 0.0 
9.024369660521e-04 2.930760443073e-03 0.0 
0.0 0.0 0.0 
-3.223198481895e-04 2.676926811036e-03 0.0 
2.676926811036e-03 1.596384103288e-02 0.0 
0.0 0.0 0.0 
-2.598059766596e-04 2.997994890425e-03 0.0 
2.997994890425e-03 1.521251779419e-02 0.0 
0.0 0.0 0.0 
4.336449042668e-04 1.994662919267e-03 0.0 
1.994662919267e-03 8.038060596987e-03 0.0 
0.0 0.0 0.0 
6.452614839629e-04 6.934419967500e-04 0.0 
6.934419967500e-04 2.926750681906e-03 0.0 
0.0 0.0 0.0 
2.173632814302e-04 7.109467843330e-04 0.0 
7.109467843330e-04 3.144949627877e-03 0.0 
0.0 0.0 0.0 
-2.165680942072e-04 2.278193296699e-03 0.0 
2.278193296699e-03 1.052293181273e-02 0.0 
0.0 0.0 0.0 
4.069394235855e-04 5.595527504671e-04 0.0 
5.595527504671e-04 3.034977634118e-03 0.0 
0.0 0.0 0.0 
7.829497844225e-04 8.892435985770e-05 0.0 
8.892435985770e-05 2.332191331486e-03 0.0 
0.0 0.0 0.0 
-1.290926018147e-04 2.149734573669e-03 0.0 
2.149734573669e-03 9.431838542247e-03 0.0 
0.0 0.0 0.0 
-5.495231920434e-04 9.359675465411e-04 0.0 
9.359675465411e-04 1.733096611543e-02 0.0 
0.0 0.0 0.0 
8.548509426944e-04 9.237643462190e-04 0.0 
9.237643462190e-04 3.809444361023e-03 0.0 
0.0 0.0 0.0 
1.105165100590e-03 1.628476153705e-03 0.0 
1.628476153705e-03 7.058076018353e-03 0.0 
0.0 0.0 0.0 
-2.466340653384e-05 1.028381101795e-03 0.0 
1.028381101795e-03 2.724322976088e-03 0.0 
0.0 0.0 0.0 
2.522640579161e-04 1.673083169361e-03 0.0 
1.673083169361e-03 9.133292871451e-03 0.0 
0.0 0.0 0.0 
4.711714093297e-04 8.422338262581e-04 0.0 
8.422338262581e-04 2.988903808811e-03 0.0 
0.0 0.0 0.0 
9.814723771484e-05 2.138579911546e-03 0.0 
2.138579911546e-03 9.058868377385e-03 0.0 
0.0 0.0 0.0 
2.372244677884e-04 3.323411204906e-04 0.0 
3.323411204906e-04 1.726069468850e-03 0.0 
0.0 0.0 0.0 
1.229135566941e-03 9.466067726283e-04 0.0 
9.466067726283e-04 5.715902521529e-03 0.0 
0.0 0.0 0.0 
1.093758885862e-03 1.057246242239e-03 0.0 
1.057246242239e-03 4.677401035542e-03 0.0 
0.0 0.0 0.0 
8.410106518513e-04 4.481448851995e-05 0.0 
4.481448851995e-05 2.438414676479e-03 0.0 
0.0 0.0 0.0 
-7.106183683090e-04 2.200322016065e-03 0.0 
2.200322016065e-03 1.135034824749e-02 0.0 
0.0 0.0 0.0 
-7.519723974825e-05 3.274798404292e-03 0.0 
3.274798404292e-03 1.392409649276e-02 0.0 
0.0 0.0 0.0 
9.802219322346e-04 8.076136695908e-04 0.0 
8.076136695908e-04 3.761497946656e-03 0.0 
0.0 0.0 0.0 
1.120753069968e-03 1.134818251414e-03 0.0 
1.134818251414e-03 6.059913987711e-03 0.0 
0.0 0.0 0.0 
-3.661996234139e-05 7.073324348332e-04 0.0 
7.073324348332e-04 2.768231087347e-03 0.0 
0.0 0.0 0.0 
-1.447782273312e-03 6.936655053857e-04 0.0 
6.936655053857e-04 1.590179149123e-02 0.0 
0.0 0.0 0.0 
1.060422791290e-03 8.480989210237e-04 0.0 
8.480989210237e-04 6.090700719523e-03 0.0 
0.0 0.0 0.0 
-5.279556543736e-05 1.209398547672e-03 0.0 
1.209398547672e-03 4.555088217999e-03 0.0 
0.0 0.0 0.0 
-1.599879232903e-03 5.455496667350e-04 0.0 
5.455496667350e-04 1.580439596846e-02 0.0 
0.0 0.0 0.0 
7.901450250536e-05 3.264836100339e-03 0.0 
3.264836100339e-03 1.260403616552e-02 0.0 
0.0 0.0 0.0 
9.312323052635e-04 9.597192609063e-04 0.0 
9.597192609063e-04 6.621938980287e-03 0.0 
0.0 0.0 0.0 
-1.414828212120e-04 3.220842977142e-03 0.0 
3.220842977142e-03 1.436372885375e-02 0.0 
0.0 0.0 0.0 
-1.764856013823e-03 8.912418628743e-04 0.0 
8.912418628743e-04 1.565296429502e-02 0.0 
0.0 0.0 0.0 
-4.394088118783e-04 2.476563351754e-03 0.0 
2.476563351754e-03 1.259926628542e-02 0.0 
0.0 0.0 0.0 
-3.361245772699e-04 1.199296807328e-03 0.0 
1.199296807328e-03 4.184725217174e-03 0.0 
0.0 0.0 0.0 
-8.001490853942e-04 2.119276482986e-03 0.0 
2.119276482986e-03 1.102950734078e-02 0.0 
0.0 0.0 0.0 
-4.482909359362e-04 2.252223106531e-03 0.0 
2.252223106531e-03 1.091606777903e-02 0.0 
0.0 0.0 0.0 
-6.322825565107e-04 2.261074833818e-03 0.0 
2.261074833818e-03 1.165703366388e-02 0.0 
0.0 0.0 0.0 
3.067499404368e-04 1.795318154031e-03 0.0 
1.795318154031e-03 7.663057553768e-03 0.0 
0.0 0.0 0.0 
1.389216011232e-04 3.110379088172e-03 0.0 
3.110379088172e-03 1.180848071464e-02 0.0 
0.0 0.0 0.0 
-1.664506501357e-03 1.410490080650e-03 0.0 
1.410490080650e-03 1.483795632067e-02 0.0 
0.0 0.0 0.0 
-1.404724195811e-03 1.990971382511e-03 0.0 
1.990971382511e-03 1.302882861968e-02 0.0 
0.0 0.0 0.0 
8.988571512991e-04 7.665319784673e-04 0.0 
7.665319784673e-04 4.272195995647e-03 0.0 
0.0 0.0 0.0 
3.816875089790e-04 -2.089407242880e-04 0.0 
-2.089407242880e-04 1.558758308471e-03 0.0 
0.0 0.0 0.0 
-1.053811030415e-03 2.047980420417e-03 0.0 
2.047980420417e-03 1.148224860501e-02 0.0 
0.0 0.0 0.0 
2.570245977007e-04 1.321265319406e-03 0.0 
1.321265319406e-03 4.245825594852e-03 0.0 
0.0 0.0 0.0 
-1.046268522378e-03 -2.666653220261e-06 0.0 
-2.666653220261e-06 1.482840786638e-02 0.0 
0.0 0.0 0.0 
7.294907987772e-04 -1.318751590896e-04 0.0 
-1.318751590896e-04 2.465255388305e-03 0.0 
0.0 0.0 0.0 
7.701526407458e-04 6.806370574731e-04 0.0 
6.806370574731e-04 3.844567795461e-03 0.0 
0.0 0.0 0.0 
-9.737592260557e-04 2.137340998882e-03 0.0 
2.137340998882e-03 1.457796780727e-02 0.0 
0.0 0.0 0.0 
2.185615714783e-04 1.070711770073e-03 0.0 
1.070711770073e-03 4.278615854503e-03 0.0 
0.0 0.0 0.0 
-5.160097157053e-04 2.185386286939e-03 0.0 
2.185386286939e-03 1.058973463408e-02 0.0 
0.0 0.0 0.0 
1.241016050635e-03 1.218185967518e-03 0.0 
1.218185967518e-03 6.044597916783e-03 0.0 
0.0 0.0 0.0 
1.140809503467e-03 3.579657295632e-04 0.0 
3.579657295632e-04 4.473232507361e-03 0.0 
0.0 0.0 0.0 
2.264374734950e-04 2.752636958767e-03 0.0 
2.752636958767e-03 1.076111444465e-02 0.0 
0.0 0.0 0.0 
-8.025380924775e-04 1.970127514190e-03 0.0 
1.970127514190e-03 1.000050435727e-02 0.0 
0.0 0.0 0.0 
8.090661704883e-04 2.993489169442e-04 0.0 
2.993489169442e-04 2.560945437149e-03 0.0 
0.0 0.0 0.0 
8.330231370883e-04 -1.294698084722e-04 0.0 
-1.294698084722e-04 2.974896671566e-03 0.0 
0.0 0.0 0.0 
-4.169503675102e-04 1.443278880419e-03 0.0 
1.443278880419e-03 5.542639633589e-03 0.0 
0.0 0.0 0.0 
-3.802559282207e-05 1.456067911509e-03 0.0 
1.456067911509e-03 4.527903837263e-03 0.0 
0.0 0.0 0.0 
-6.418651550673e-04 2.493707602728e-03 0.0 
2.493707602728e-03 1.387522450628e-02 0.0 
0.0 0.0 0.0 
-8.307411199815e-05 2.145549039474e-03 0.0 
2.145549039474e-03 9.795388002623e-03 0.0 
0.0 0.0 0.0 
-6.268881475170e-04 1.806241668131e-03 0.0 
1.806241668131e-03 8.465429690997e-03 0.0 
0.0 0.0 0.0 
-6.011862369328e-04 2.101179406839e-03 0.0 
2.101179406839e-03 1.027116034168e-02 0.0 
0.0 0.0 0.0 
2.643613566586e-04 2.151409992766e-03 0.0 
2.151409992766e-03 9.676867566488e-03 0.0 
0.0 0.0 0.0 
4.317499971338e-04 2.016206984214e-03 0.0 
2.016206984214e-03 9.198103792046e-03 0.0 
0.0 0.0 0.0 
-5.457494681359e-04 2.457012937085e-03 0.0 
2.457012937085e-03 1.388207127817e-02 0.0 
0.0 0.0 0.0 
-1.280796077766e-03 2.030076241767e-03 0.0 
2.030076241767e-03 1.489309392319e-02 0.0 
0.0 0.0 0.0 
1.058335728632e-03 2.524055313044e-04 0.0 
2.524055313044e-04 4.341524979945e-03 0.0 
0.0 0.0 0.0 
1.965462267250e-05 1.659318535830e-03 0.0 
1.659318535830e-03 6.930966459670e-03 0.0 
0.0 0.0 0.0 
5.604246482382e-04 4.276670347439e-04 0.0 
4.276670347439e-04 2.969358033628e-03 0.0 
0.0 0.0 0.0 
7.395708028339e-04 4.984444681530e-04 0.0 
4.984444681530e-04 3.377359461475e-03 0.0 
0.0 0.0 0.0 
6.212646782755e-05 2.046037617058e-03 0.0 
2.046037617058e-03 9.072709935274e-03 0.0 
0.0 0.0 0.0 
1.140343109679e-03 8.632468439670e-04 0.0 
8.632468439670e-04 5.661758930894e-03 0.0 
0.0 0.0 0.0 
8.239506204606e-04 -5.565281944298e-05 0.0 
-5.565281944298e-05 3.606519899775e-03 0.0 
0.0 0.0 0.0 
-7.864707075587e-04 2.266586262103e-03 0.0 
2.266586262103e-03 1.479275199174e-02 0.0 
0.0 0.0 0.0 
7.009786964509e-04 7.373131092781e-05 0.0 
7.373131092781e-05 2.596687997194e-03 0.0 
0.0 0.0 0.0 
4.088970788465e-04 1.652759259594e-03 0.0 
1.652759259594e-03 6.987878943734e-03 0.0 
0.0 0.0 0.0 
-2.782996483265e-04 2.208486330714e-03 0.0 
2.208486330714e-03 1.017115770915e-02 0.0 
0.0 0.0 0.0 
2.747661551457e-04 1.579685654215e-03 0.0 
1.579685654215e-03 6.604627064000e-03 0.0 
0.0 0.0 0.0 
-2.003379291686e-04 3.136654931571e-03 0.0 
3.136654931571e-03 1.478899084046e-02 0.0 
0.0 0.0 0.0 
-2.631718111024e-04 2.855369450393e-03 0.0 
2.855369450393e-03 1.557935917395e-02 0.0 
0.0 0.0 0.0 
-5.307283035922e-04 2.631993468278e-03 0.0 
2.631993468278e-03 1.519671645776e-02 0.0 
0.0 0.0 0.0 
1.055273220249e-03 3.655300725549e-04 0.0 
3.655300725549e-04 4.792523465012e-03 0.0 
0.0 0.0 0.0 
-1.112170139998e-03 1.726912230840e-03 0.0 
1.726912230840e-03 1.581892738177e-02 0.0 
0.0 0.0 0.0 
-2.152334983385e-05 1.328364872968e-03 0.0 
1.328364872968e-03 3.889029341360e-03 0.0 
0.0 0.0 0.0 
8.826497702583e-04 5.824548544433e-04 0.0 
5.824548544433e-04 3.796637407776e-03 0.0 
0.0 0.0 0.0 
2.627402948496e-04 2.057098481000e-04 0.0 
2.057098481000e-04 2.160022454328e-03 0.0 
0.0 0.0 0.0 
-3.248967176663e-04 1.809698687659e-03 0.0 
1.809698687659e-03 8.022785500455e-03 0.0 
0.0 0.0 0.0 
-1.714649076862e-03 4.011348161557e-04 0.0 
4.011348161557e-04 1.507339631986e-02 0.0 
0.0 0.0 0.0 
-1.534123848537e-03 7.321550030392e-04 0.0 
7.321550030392e-04 1.566746666361e-02 0.0 
0.0 0.0 0.0 
4.537265166580e-04 1.623353491490e-03 0.0 
1.623353491490e-03 8.670704464936e-03 0.0 
0.0 0.0 0.0 
-2.595661620949e-04 2.560892771302e-03 0.0 
2.560892771302e-03 1.291218570216e-02 0.0 
0.0 0.0 0.0 
-1.033265400821e-03 2.126123896687e-03 0.0 
2.126123896687e-03 1.282503461039e-02 0.0 
0.0 0.0 0.0 
-3.817053324447e-04 2.313596978533e-03 0.0 
2.313596978533e-03 1.125568513690e-02 0.0 
0.0 0.0 0.0 
4.899525770008e-04 3.551505805649e-04 0.0 
3.551505805649e-04 2.117241883336e-03 0.0 
0.0 0.0 0.0 
-2.035650881337e-04 -2.330419966909e-04 0.0 
-2.330419966909e-04 8.340408426175e-04 0.0 
0.0 0.0 0.0 
9.513425316945e-04 1.332604918896e-03 0.0 
1.332604918896e-03 5.299778847459e-03 0.0 
0.0 0.0 0.0 
4.992094500407e-04 1.728338186685e-03 0.0 
1.728338186685e-03 7.384046901623e-03 0.0 
0.0 0.0 0.0 
8.161075798157e-04 1.314225249947e-03 0.0 
1.314225249947e-03 5.907494792190e-03 0.0 
0.0 0.0 0.0 
-6.908616546498e-04 1.188102602684e-03 0.0 
1.188102602684e-03 1.926705386638e-03 0.0 
0.0 0.0 0.0 
-1.028210148323e-03 3.549902751640e-05 0.0 
3.549902751640e-05 1.518624348106e-02 0.0 
0.0 0.0 0.0 
2.762762053896e-04 -3.214271340847e-04 0.0 
-3.214271340847e-04 1.446479911260e-03 0.0 
0.0 0.0 0.0 
4.925015620159e-04 1.017751155662e-03 0.0 
1.017751155662e-03 3.493308702342e-03 0.0 
0.0 0.0 0.0 
0.0 1.675832173390e-03 0.0 
1.675832173390e-03 9.217694175153e-03 0.0 
0.0 0.0 0.0 
1.006794107905e-03 1.449228173501e-03 0.0 
1.449228173501e-03 7.058447625333e-03 0.0 
0.0 0.0 0.0 
-1.357214739499e-03 1.874174813715e-03 0.0 
1.874174813715e-03 1.304292711383e-02 0.0 
0.0 0.0 0.0 
2.212006712248e-04 -7.644125394621e-06 0.0 
-7.644125394621e-06 9.904545868304e-04 0.0 
0.0 0.0 0.0 
3.536551616170e-04 1.932004763567e-03 0.0 
1.932004763567e-03 7.644081893285e-03 0.0 
0.0 0.0 0.0 
8.626610182123e-04 1.131401133223e-03 0.0 
1.131401133223e-03 5.328531497719e-03 0.0 
0.0 0.0 0.0 
-7.995771811855e-04 2.269891546569e-03 0.0 
2.269891546569e-03 1.238421457712e-02 0.0 
0.0 0.0 0.0 
3.044200957758e-06 3.308216630548e-03 0.0 
3.308216630548e-03 1.346515816750e-02 0.0 
0.0 0.0 0.0 
-7.558015981934e-04 2.125183974911e-03 0.0 
2.125183974911e-03 1.102869971091e-02 0.0 
0.0 0.0 0.0 
-2.403068713411e-04 2.229303346810e-03 0.0 
2.229303346810e-03 1.052931181661e-02 0.0 
0.0 0.0 0.0 
9.021702177334e-04 2.877252798999e-05 0.0 
2.877252798999e-05 3.593447507008e-03 0.0 
0.0 0.0 0.0 
-9.884588150409e-04 2.064168378682e-03 0.0 
2.064168378682e-03 1.510754478309e-02 0.0 
0.0 0.0 0.0 
1.123958337875e-03 4.636759550275e-04 0.0 
4.636759550275e-04 4.932390624293e-03 0.0 
0.0 0.0 0.0 
2.740096463483e-05 3.303743178349e-03 0.0 
3.303743178349e-03 1.303585514263e-02 0.0 
0.0 0.0 0.0 
0.0 2.997179743647e-03 0.0 
2.997179743647e-03 1.456762806265e-02 0.0 
0.0 0.0 0.0 
0.0 2.417756297972e-03 0.0 
2.417756297972e-03 1.616129391006e-02 0.0 
0.0 0.0 0.0 
0.0 2.741022478107e-03 0.0 
2.741022478107e-03 1.541579272658e-02 0.0 
0.0 0.0 0.0 
-5.471873011994e-04 2.323613068851e-03 0.0 
2.323613068851e-03 1.198027128395e-02 0.0 
0.0 0.0 0.0 
-1.099923538953e-03 2.134251259860e-03 0.0 
2.134251259860e-03 1.509888039303e-02 0.0 
0.0 0.0 0.0 
-3.299448110400e-04 2.600991719202e-03 0.0 
2.600991719202e-03 1.353662708143e-02 0.0 
0.0 0.0 0.0 
3.277273163425e-04 1.758293890281e-03 0.0 
1.758293890281e-03 6.582658442943e-03 0.0 
0.0 0.0 0.0 
8.062353594362e-05 1.811211875874e-03 0.0 
1.811211875874e-03 6.911583268504e-03 0.0 
0.0 0.0 0.0 
7.729414387574e-04 -9.426232993092e-05 0.0 
-9.426232993092e-05 3.374851339227e-03 0.0 
0.0 0.0 0.0 
-8.989198321835e-04 2.323594156283e-03 0.0 
2.323594156283e-03 1.478493160827e-02 0.0 
0.0 0.0 0.0 
1.148418457295e-04 3.196533967700e-03 0.0 
3.196533967700e-03 1.219023519771e-02 0.0 
0.0 0.0 0.0 
-9.516206375118e-04 1.974026028320e-03 0.0 
1.974026028320e-03 1.557767333563e-02 0.0 
0.0 0.0 0.0 
1.065141282004e-03 1.313637295335e-03 0.0 
1.313637295335e-03 6.560214217653e-03 0.0 
0.0 0.0 0.0 
-1.087169024336e-03 2.048847789300e-03 0.0 
2.048847789300e-03 1.556809308435e-02 0.0 
0.0 0.0 0.0 
5.669488416624e-04 2.091825661464e-03 0.0 
2.091825661464e-03 9.083388688974e-03 0.0 
0.0 0.0 0.0 
6.492316953781e-04 1.735539275748e-03 0.0 
1.735539275748e-03 6.709186350594e-03 0.0 
0.0 0.0 0.0 
-2.687503224250e-04 1.921372578505e-03 0.0 
1.921372578505e-03 8.010936625135e-03 0.0 
0.0 0.0 0.0 
2.236493669692e-04 8.356838707250e-04 0.0 
8.356838707250e-04 2.594875988137e-03 0.0 
0.0 0.0 0.0 
-3.487390307743e-04 1.612002988921e-03 0.0 
1.612002988921e-03 1.688866104645e-02 0.0 
0.0 0.0 0.0 
4.012856589375e-04 1.634475602368e-03 0.0 
1.634475602368e-03 5.922883063168e-03 0.0 
0.0 0.0 0.0 
2.383937516550e-04 2.631793165772e-03 0.0 
2.631793165772e-03 1.113993204528e-02 0.0 
0.0 0.0 0.0 
8.417473457705e-04 -1.467599819682e-05 0.0 
-1.467599819682e-05 3.362532895951e-03 0.0 
0.0 0.0 0.0 
6.235005656876e-04 -2.212506084127e-04 0.0 
-2.212506084127e-04 2.203549358359e-03 0.0 
0.0 0.0 0.0 
2.613057799852e-04 1.499181690667e-03 0.0 
1.499181690667e-03 8.591165377031e-03 0.0 
0.0 0.0 0.0 
4.912809192308e-04 1.181259551108e-03 0.0 
1.181259551108e-03 4.037334149346e-03 0.0 
0.0 0.0 0.0 
0.0 3.079667940266e-03 0.0 
3.079667940266e-03 1.413713728984e-02 0.0 
0.0 0.0 0.0 
-3.437610695507e-04 2.447424684390e-03 0.0 
2.447424684390e-03 1.556814348578e-02 0.0 
0.0 0.0 0.0 
1.557470225275e-04 2.202923885081e-03 0.0 
2.202923885081e-03 9.441594793453e-03 0.0 
0.0 0.0 0.0 
-1.997785762949e-04 -1.787863469065e-04 0.0 
-1.787863469065e-04 4.884117894892e-04 0.0 
0.0 0.0 0.0 
0.0 3.125522769302e-03 0.0 
3.125522769302e-03 1.325158834290e-02 0.0 
0.0 0.0 0.0 
2.527312658478e-04 1.764140735131e-03 0.0 
1.764140735131e-03 8.947363950200e-03 0.0 
0.0 0.0 0.0 
7.248686170351e-04 -5.894382764211e-05 0.0 
-5.894382764211e-05 2.178516012941e-03 0.0 
0.0 0.0 0.0 
1.076168111106e-03 1.265729430282e-03 0.0 
1.265729430282e-03 6.549412314231e-03 0.0 
0.0 0.0 0.0 
2.213289704107e-04 2.602078004614e-03 0.0 
2.602078004614e-03 1.045311616744e-02 0.0 
0.0 0.0 0.0 
-3.565148462495e-04 -7.172721384017e-05 0.0 
-7.172721384017e-05 2.775290059718e-04 0.0 
0.0 0.0 0.0 
5.442231718262e-04 1.677668325688e-03 0.0 
1.677668325688e-03 6.310213144240e-03 0.0 
0.0 0.0 0.0 
-2.088238786224e-06 2.281737552262e-03 0.0 
2.281737552262e-03 1.016107207431e-02 0.0 
0.0 0.0 0.0 
3.017138692252e-04 2.107935786415e-03 0.0 
2.107935786415e-03 8.731691836084e-03 0.0 
0.0 0.0 0.0 
-5.166596888684e-05 2.220222918626e-03 0.0 
2.220222918626e-03 9.784768043408e-03 0.0 
0.0 0.0 0.0 
2.560604846238e-04 1.008843089378e-03 0.0 
1.008843089378e-03 3.099890898594e-03 0.0 
0.0 0.0 0.0 
0.0 3.062540475950e-03 0.0 
3.062540475950e-03 1.239138687150e-02 0.0 
0.0 0.0 0.0 
9.924599995039e-04 6.767607152694e-04 0.0 
6.767607152694e-04 4.226729923813e-03 0.0 
0.0 0.0 0.0 
-1.288784400282e-04 4.788531769058e-07 0.0 
4.788531769058e-07 1.414545783353e-03 0.0 
0.0 0.0 0.0 
3.108390813882e-04 6.504403171756e-04 0.0 
6.504403171756e-04 7.976981293770e-03 0.0 
0.0 0.0 0.0 
-3.582193126580e-04 -1.672965683895e-04 0.0 
-1.672965683895e-04 5.306402049607e-04 0.0 
0.0 0.0 0.0 
-4.682888611991e-04 2.053189407871e-03 0.0 
2.053189407871e-03 9.524274994815e-03 0.0 
0.0 0.0 0.0 
1.279406999013e-04 -2.184992446408e-04 0.0 
-2.184992446408e-04 1.095535069791e-03 0.0 
0.0 0.0 0.0 
-1.002049882377e-03 2.023974687310e-03 0.0 
2.023974687310e-03 1.148507872648e-02 0.0 
0.0 0.0 0.0 
2.576397718623e-04 1.972131216203e-03 0.0 
1.972131216203e-03 9.465112385016e-03 0.0 
0.0 0.0 0.0 
0.0 2.909069525651e-03 0.0 
2.909069525651e-03 1.160678917230e-02 0.0 
0.0 0.0 0.0 
-6.161055564650e-04 2.262893095975e-03 0.0 
2.262893095975e-03 1.165670328148e-02 0.0 
0.0 0.0 0.0 
-9.389975782126e-05 -2.487629903776e-04 0.0 
-2.487629903776e-04 8.229259748376e-04 0.0 
0.0 0.0 0.0 
-2.054709453400e-04 1.617615785582e-04 0.0 
1.617615785582e-04 1.074944930514e-03 0.0 
0.0 0.0 0.0 
-9.316246227620e-05 -2.307024331157e-04 0.0 
-2.307024331157e-04 1.191687962368e-03 0.0 
0.0 0.0 0.0 
6.363567551895e-04 6.163333610258e-04 0.0 
6.163333610258e-04 6.787783839133e-03 0.0 
0.0 0.0 0.0 
-1.623863443364e-03 5.744827446213e-04 0.0 
5.744827446213e-04 1.483200476862e-02 0.0 
0.0 0.0 0.0 
-1.559438316318e-03 1.897858718254e-03 0.0 
1.897858718254e-03 1.375121936195e-02 0.0 
0.0 0.0 0.0 
0.0 2.695674585324e-03 0.0 
2.695674585324e-03 1.092347703918e-02 0.0 
0.0 0.0 0.0 
-1.428888823348e-03 3.248108580336e-04 0.0 
3.248108580336e-04 1.487824876232e-02 0.0 
0.0 0.0 0.0 
-3.133897896602e-04 2.457720254811e-03 0.0 
2.457720254811e-03 1.630069695249e-02 0.0 
0.0 0.0 0.0 
7.339283652414e-04 2.144652884914e-03 0.0 
2.144652884914e-03 8.883315713037e-03 0.0 
0.0 0.0 0.0 
-1.459711731987e-03 4.569622904080e-04 0.0 
4.569622904080e-04 1.558906967507e-02 0.0 
0.0 0.0 0.0 
-8.568008234022e-05 1.578598829548e-03 0.0 
1.578598829548e-03 5.159365623449e-03 0.0 
0.0 0.0 0.0 
1.190705099250e-03 1.396923269597e-03 0.0 
1.396923269597e-03 6.530537652636e-03 0.0 
0.0 0.0 0.0 
1.042756235892e-04 3.455244554829e-04 0.0 
3.455244554829e-04 2.196764008358e-03 0.0 
0.0 0.0 0.0 
0.0 2.420130170041e-03 0.0 
2.420130170041e-03 1.031679722837e-02 0.0 
0.0 0.0 0.0 
0.0 2.888019645657e-03 0.0 
2.888019645657e-03 1.499488269389e-02 0.0 
0.0 0.0 0.0 
0.0 2.587242860958e-03 0.0 
2.587242860958e-03 1.582628142415e-02 0.0 
0.0 0.0 0.0 
1.012401897989e-03 3.585349131649e-04 0.0 
3.585349131649e-04 4.948602269287e-03 0.0 
0.0 0.0 0.0 
7.210810997316e-04 -1.196189588598e-04 0.0 
-1.196189588598e-04 3.149446561783e-03 0.0 
0.0 0.0 0.0 
5.941585245086e-04 1.577678164318e-03 0.0 
1.577678164318e-03 6.733704914979e-03 0.0 
0.0 0.0 0.0 
1.066715875936e-03 4.484264455380e-04 0.0 
4.484264455380e-04 5.095544438259e-03 0.0 
0.0 0.0 0.0 
0.0 2.139021615652e-03 0.0 
2.139021615652e-03 9.821172053821e-03 0.0 
0.0 0.0 0.0 
4.388713413046e-04 7.434151774214e-04 0.0 
7.434151774214e-04 3.534506816605e-03 0.0 
0.0 0.0 0.0 
9.429580452194e-04 1.655845231649e-04 0.0 
1.655845231649e-04 2.727119549333e-03 0.0 
0.0 0.0 0.0 
9.818258908245e-04 1.230834137519e-04 0.0 
1.230834137519e-04 2.831405831909e-03 0.0 
0.0 0.0 0.0 
-1.391742210007e-03 4.642826787001e-04 0.0 
4.642826787001e-04 1.581295342312e-02 0.0 
0.0 0.0 0.0 
2.096963420954e-04 1.507792695034e-03 0.0 
1.507792695034e-03 8.989748880515e-03 0.0 
0.0 0.0 0.0 
-3.203451536616e-04 -2.291386358397e-04 0.0 
-2.291386358397e-04 8.999839352393e-04 0.0 
0.0 0.0 0.0 
0.0 1.820201958633e-03 0.0 
1.820201958633e-03 9.375566853147e-03 0.0 
0.0 0.0 0.0 
8.827021007134e-04 1.109883202164e-05 0.0 
1.109883202164e-05 2.557195080305e-03 0.0 
0.0 0.0 0.0 
0.0 3.127403451457e-03 0.0 
3.127403451457e-03 1.370084602763e-02 0.0 
0.0 0.0 0.0 
-4.598832392410e-04 2.622006536571e-03 0.0 
2.622006536571e-03 1.353398674105e-02 0.0 
0.0 0.0 0.0 
-5.873372914105e-04 -6.876232454678e-05 0.0 
-6.876232454678e-05 3.594089596506e-04 0.0 
0.0 0.0 0.0 
7.312402059063e-04 1.585588264170e-03 0.0 
1.585588264170e-03 6.072155408426e-03 0.0 
0.0 0.0 0.0 
-1.187480863673e-03 1.714283043383e-03 0.0 
1.714283043383e-03 1.617361542797e-02 0.0 
0.0 0.0 0.0 
0.0 3.109515807125e-03 0.0 
3.109515807125e-03 1.281659069717e-02 0.0 
0.0 0.0 0.0 
-5.663265285619e-04 2.323775585593e-03 0.0 
2.323775585593e-03 1.198033273083e-02 0.0 
0.0 0.0 0.0 
7.996503142478e-04 2.105476574714e-03 0.0 
2.105476574714e-03 8.739041523331e-03 0.0 
0.0 0.0 0.0 
-5.352414474269e-05 8.533783758078e-04 0.0 
8.533783758078e-04 2.210089752454e-03 0.0 
0.0 0.0 0.0 
4.872126577786e-04 1.584597920165e-03 0.0 
1.584597920165e-03 8.350503138721e-03 0.0 
0.0 0.0 0.0 
9.096642418109e-04 -6.812685890239e-06 0.0 
-6.812685890239e-06 2.686943405567e-03 0.0 
0.0 0.0 0.0 
8.671446227071e-04 -4.190369123787e-05 0.0 
-4.190369123787e-05 2.853949738181e-03 0.0 
0.0 0.0 0.0 
-6.119270543005e-04 -1.761827728621e-04 0.0 
-1.761827728621e-04 6.703698764476e-04 0.0 
0.0 0.0 0.0 
0.0 2.994060316978e-03 0.0 
2.994060316978e-03 1.198994175685e-02 0.0 
0.0 0.0 0.0 
3.452859515389e-04 3.764872431073e-04 0.0 
3.764872431073e-04 2.575403836740e-03 0.0 
0.0 0.0 0.0 
7.759894755865e-04 1.023050321354e-03 0.0 
1.023050321354e-03 7.031916516890e-03 0.0 
0.0 0.0 0.0 
-1.551302436044e-03 3.326866987529e-04 0.0 
3.326866987529e-04 1.542352638874e-02 0.0 
0.0 0.0 0.0 
6.129561837052e-04 -2.677610956607e-04 0.0 
-2.677610956607e-04 2.233414285584e-03 0.0 
0.0 0.0 0.0 
8.280369636058e-04 -1.755409695109e-05 0.0 
-1.755409695109e-05 2.754130865304e-03 0.0 
0.0 0.0 0.0 
-4.030284883312e-04 2.289688142164e-03 0.0 
2.289688142164e-03 1.125901575399e-02 0.0 
0.0 0.0 0.0 
0.0 2.557804082535e-03 0.0 
2.557804082535e-03 1.061053528100e-02 0.0 
0.0 0.0 0.0 
7.773058265024e-04 -2.240647449793e-05 0.0 
-2.240647449793e-05 3.313587708733e-03 0.0 
0.0 0.0 0.0 
9.621907492610e-04 5.990249977599e-04 0.0 
5.990249977599e-04 5.753013093239e-03 0.0 
0.0 0.0 0.0 
6.097304869601e-04 1.937297361241e-03 0.0 
1.937297361241e-03 7.774423963891e-03 0.0 
0.0 0.0 0.0 
1.119463246358e-03 6.658128215938e-04 0.0 
6.658128215938e-04 5.346277656213e-03 0.0 
0.0 0.0 0.0 
9.129379326800e-04 1.141647724313e-04 0.0 
1.141647724313e-04 3.067860912956e-03 0.0 
0.0 0.0 0.0 
1.023666433519e-03 4.817093285072e-04 0.0 
4.817093285072e-04 5.262618312061e-03 0.0 
0.0 0.0 0.0 
3.874375318142e-04 1.868863136348e-03 0.0 
1.868863136348e-03 8.055062097335e-03 0.0 
0.0 0.0 0.0 
3.137585501838e-04 2.257601743644e-03 0.0 
2.257601743644e-03 9.977900974772e-03 0.0 
0.0 0.0 0.0 
1.112712588020e-03 1.519120971181e-03 0.0 
1.519120971181e-03 7.035690698586e-03 0.0 
0.0 0.0 0.0 
7.204000418204e-04 1.801532415560e-03 0.0 
1.801532415560e-03 7.122541778469e-03 0.0 
0.0 0.0 0.0 
9.177592971557e-04 1.303607113308e-05 0.0 
1.303607113308e-05 3.421005472513e-03 0.0 
0.0 0.0 0.0 
4.435991873182e-04 9.252649641181e-04 0.0 
9.252649641181e-04 4.074415535394e-03 0.0 
0.0 0.0 0.0 
7.802630463225e-04 -4.478410269802e-05 0.0 
-4.478410269802e-05 3.137883554680e-03 0.0 
0.0 0.0 0.0 
6.500142261667e-04 2.053594625195e-03 0.0 
2.053594625195e-03 8.899960657052e-03 0.0 
0.0 0.0 0.0 
1.270178993793e-03 1.101652547223e-03 0.0 
1.101652547223e-03 5.560474471374e-03 0.0 
0.0 0.0 0.0 
2.469090864190e-04 1.816135726707e-03 0.0 
1.816135726707e-03 9.297306362708e-03 0.0 
0.0 0.0 0.0 
-1.034785543243e-03 1.960433101401e-03 0.0 
1.960433101401e-03 1.598438860640e-02 0.0 
0.0 0.0 0.0 
5.883813012917e-04 -1.865965825293e-04 0.0 
-1.865965825293e-04 1.998202993948e-03 0.0 
0.0 0.0 0.0 
0.0 1.973240846152e-03 0.0 
1.973240846152e-03 9.560176731421e-03 0.0 
0.0 0.0 0.0 
4.878988337147e-04 1.778286701097e-03 0.0 
1.778286701097e-03 8.852101022674e-03 0.0 
0.0 0.0 0.0 
1.019106406776e-03 1.405922335100e-03 0.0 
1.405922335100e-03 5.743056014844e-03 0.0 
0.0 0.0 0.0 
-3.169778712930e-04 -1.859930438862e-04 0.0 
-1.859930438862e-04 5.505726324833e-04 0.0 
0.0 0.0 0.0 
2.434246665668e-04 1.376146533240e-03 0.0 
1.376146533240e-03 8.867447668951e-03 0.0 
0.0 0.0 0.0 
-8.987883998227e-04 2.259112033482e-03 0.0 
2.259112033482e-03 1.529561096077e-02 0.0 
0.0 0.0 0.0 
7.717312223110e-04 -7.814249753110e-05 0.0 
-7.814249753110e-05 2.306071770093e-03 0.0 
0.0 0.0 0.0 
0.0 1.525002827279e-03 0.0 
1.525002827279e-03 9.046463623720e-03 0.0 
0.0 0.0 0.0 
9.692602222848e-04 4.695568887609e-04 0.0 
4.695568887609e-04 5.424260412416e-03 0.0 
0.0 0.0 0.0 
-6.055296102758e-06 1.904835611235e-03 0.0 
1.904835611235e-03 7.611946830807e-03 0.0 
0.0 0.0 0.0 
-1.283145187630e-03 1.960510821483e-03 0.0 
1.960510821483e-03 1.328314122234e-02 0.0 
0.0 0.0 0.0 
1.134720426752e-03 1.008522935310e-03 0.0 
1.008522935310e-03 5.580465341011e-03 0.0 
0.0 0.0 0.0 
1.026879544797e-03 2.478514812226e-04 0.0 
2.478514812226e-04 4.489765080278e-03 0.0 
0.0 0.0 0.0 
1.109923890450e-03 8.277702030073e-04 0.0 
8.277702030073e-04 5.736030644907e-03 0.0 
0.0 0.0 0.0 
-1.436366166017e-03 1.937255598425e-03 0.0 
1.937255598425e-03 1.469821644648e-02 0.0 
0.0 0.0 0.0 
-2.264101541894e-04 2.076040192854e-03 0.0 
2.076040192854e-03 9.092126942821e-03 0.0 
0.0 0.0 0.0 
1.035616548166e-03 1.702259991199e-03 0.0 
1.702259991199e-03 7.552944689593e-03 0.0 
0.0 0.0 0.0 
-1.033908298352e-03 3.848011925653e-05 0.0 
3.848011925653e-05 1.552919182368e-02 0.0 
0.0 0.0 0.0 
8.322605790756e-04 -7.653356014022e-05 0.0 
-7.653356014022e-05 3.434937142702e-03 0.0 
0.0 0.0 0.0 
1.179528445501e-03 1.339313703152e-03 0.0 
1.339313703152e-03 6.541997704874e-03 0.0 
0.0 0.0 0.0 
8.043073363055e-04 -1.470168338963e-04 0.0 
-1.470168338963e-04 2.705197630492e-03 0.0 
0.0 0.0 0.0 
8.651394482564e-04 2.315744331768e-04 0.0 
2.315744331768e-04 5.071053550292e-03 0.0 
0.0 0.0 0.0 
-7.066079848848e-04 -7.224263857316e-05 0.0 
-7.224263857316e-05 4.081534573492e-04 0.0 
0.0 0.0 0.0 
4.259391675350e-04 1.109528637072e-03 0.0 
1.109528637072e-03 4.661760820508e-03 0.0 
0.0 0.0 0.0 
7.730193225444e-04 -1.450104325782e-04 0.0 
-1.450104325782e-04 2.579892828205e-03 0.0 
0.0 0.0 0.0 
8.830743079886e-04 4.368675712629e-05 0.0 
4.368675712629e-05 3.770840673087e-03 0.0 
0.0 0.0 0.0 
9.512155972538e-04 1.571665165522e-03 0.0 
1.571665165522e-03 6.318808993558e-03 0.0 
0.0 0.0 0.0 
1.077467844920e-03 5.707774485933e-04 0.0 
5.707774485933e-04 5.408758395400e-03 0.0 
0.0 0.0 0.0 
-1.493412767492e-03 3.359702923101e-04 0.0 
3.359702923101e-04 1.565835130423e-02 0.0 
0.0 0.0 0.0 
6.716403683040e-04 -2.251515929325e-04 0.0 
-2.251515929325e-04 2.329523384857e-03 0.0 
0.0 0.0 0.0 
0.0 1.396850037136e-03 0.0 
1.396850037136e-03 8.932555431999e-03 0.0 
0.0 0.0 0.0 
-3.041874874687e-05 2.217644928076e-03 0.0 
2.217644928076e-03 1.016998411319e-02 0.0 
0.0 0.0 0.0 
8.610473812163e-04 5.700566908675e-05 0.0 
5.700566908675e-05 3.949666013298e-03 0.0 
0.0 0.0 0.0 
1.212470948420e-04 2.118274609469e-03 0.0 
2.118274609469e-03 9.453591095611e-03 0.0 
0.0 0.0 0.0 
8.125541933921e-04 -3.527961664583e-05 0.0 
-3.527961664583e-05 3.782984992212e-03 0.0 
0.0 0.0 0.0 
-4.416015880467e-04 -7.405620873671e-05 0.0 
-7.405620873671e-05 3.163848735270e-04 0.0 
0.0 0.0 0.0 
-1.448654930430e-03 1.971479306022e-03 0.0 
1.971479306022e-03 1.391820123785e-02 0.0 
0.0 0.0 0.0 
6.731673768923e-04 -3.332998447693e-07 0.0 
-3.332998447693e-07 3.077060855239e-03 0.0 
0.0 0.0 0.0 
-1.686013732105e-05 -4.481391018634e-05 0.0 
-4.481391018634e-05 1.235924130234e-04 0.0 
0.0 0.0 0.0 
8.186882035910e-04 2.244406022700e-05 0.0 
2.244406022700e-05 3.714377164890e-03 0.0 
0.0 0.0 0.0 
9.975027533864e-04 6.758607548785e-04 0.0 
6.758607548785e-04 5.903148068074e-03 0.0 
0.0 0.0 0.0 
-7.058786975607e-04 4.473678191179e-04 0.0 
4.473678191179e-04 1.690504649666e-02 0.0 
0.0 0.0 0.0 
1.150582349136e-03 6.974541227650e-04 0.0 
6.974541227650e-04 5.255951720839e-03 0.0 
0.0 0.0 0.0 
1.239595237657e-03 7.859958572938e-04 0.0 
7.859958572938e-04 5.324730021898e-03 0.0 
0.0 0.0 0.0 
-1.681511103453e-03 1.789191674649e-03 0.0 
1.789191674649e-03 1.349902595276e-02 0.0 
0.0 0.0 0.0 
-1.416224248615e-03 6.279343031615e-05 0.0 
6.279343031615e-05 1.460059027655e-02 0.0 
0.0 0.0 0.0 
-3.704847134193e-04 1.972609437575e-03 0.0 
1.972609437575e-03 1.650066382597e-02 0.0 
0.0 0.0 0.0 
2.605552053192e-04 1.998165245003e-03 0.0 
1.998165245003e-03 8.746160754180e-03 0.0 
0.0 0.0 0.0 
-4.572622408328e-05 -3.785324769452e-05 0.0 
-3.785324769452e-05 1.269312815142e-04 0.0 
0.0 0.0 0.0 
1.968522976867e-04 -2.965217651702e-04 0.0 
-2.965217651702e-04 1.227839697254e-03 0.0 
0.0 0.0 0.0 
-2.712631672571e-04 -1.881600554407e-04 0.0 
-1.881600554407e-04 5.231406082258e-04 0.0 
0.0 0.0 0.0 
5.517345571455e-04 -2.723096010764e-04 0.0 
-2.723096010764e-04 2.148440255425e-03 0.0 
0.0 0.0 0.0 
9.995911647520e-06 2.586542481302e-03 0.0 
2.586542481302e-03 1.175129102817e-02 0.0 
0.0 0.0 0.0 
-8.277236957281e-04 4.199486970254e-04 0.0 
4.199486970254e-04 1.690876486444e-02 0.0 
0.0 0.0 0.0 
7.474356370754e-04 5.831681388855e-04 0.0 
5.831681388855e-04 6.441273452800e-03 0.0 
0.0 0.0 0.0 
6.153548389907e-04 -2.235989564919e-04 0.0 
-2.235989564919e-04 2.435167792901e-03 0.0 
0.0 0.0 0.0 
8.026927308613e-04 1.526362629191e-04 0.0 
1.526362629191e-04 5.084167074915e-03 0.0 
0.0 0.0 0.0 
7.838116326053e-04 1.072207352134e-03 0.0 
1.072207352134e-03 7.158928815576e-03 0.0 
0.0 0.0 0.0 
1.593638517678e-04 3.670073652607e-05 0.0 
3.670073652607e-05 1.775383888594e-03 0.0 
0.0 0.0 0.0 
6.584241480856e-04 -6.795751523067e-05 0.0 
-6.795751523067e-05 3.078278298765e-03 0.0 
0.0 0.0 0.0 
5.828608911862e-04 4.118722903544e-06 0.0 
4.118722903544e-06 2.498632660170e-03 0.0 
0.0 0.0 0.0 
2.073539072549e-04 1.232766671730e-03 0.0 
1.232766671730e-03 8.746402414063e-03 0.0 
0.0 0.0 0.0 
0.0 1.248700476747e-03 0.0 
1.248700476747e-03 8.802460328176e-03 0.0 
0.0 0.0 0.0 
7.012073458734e-04 -4.787846386004e-05 0.0 
-4.787846386004e-05 3.455136107167e-03 0.0 
0.0 0.0 0.0 
8.009171432928e-04 -1.833816945600e-05 0.0 
-1.833816945600e-05 3.961515536670e-03 0.0 
0.0 0.0 0.0 
1.096333197357e-03 3.473817693005e-04 0.0 
3.473817693005e-04 4.632322879488e-03 0.0 
0.0 0.0 0.0 
7.254921692397e-04 1.242441554171e-03 0.0 
1.242441554171e-03 7.565484767631e-03 0.0 
0.0 0.0 0.0 
2.899181628473e-04 -1.922417525597e-04 0.0 
-1.922417525597e-04 1.339767556887e-03 0.0 
0.0 0.0 0.0 
8.437515083970e-04 9.188346582409e-04 0.0 
9.188346582409e-04 6.774533274933e-03 0.0 
0.0 0.0 0.0 
1.155230784042e-04 -1.009867933313e-04 0.0 
-1.009867933313e-04 6.974912897721e-04 0.0 
0.0 0.0 0.0 
7.685227991958e-04 -7.051592691984e-05 0.0 
-7.051592691984e-05 3.550089133673e-03 0.0 
0.0 0.0 0.0 
8.532995088697e-04 1.315600965977e-05 0.0 
1.315600965977e-05 4.024136333804e-03 0.0 
0.0 0.0 0.0 
1.373819949255e-04 -5.557655471798e-05 0.0 
-5.557655471798e-05 3.451496163016e-04 0.0 
0.0 0.0 0.0 
6.936727306055e-04 1.680725184619e-05 0.0 
1.680725184619e-05 3.262352065380e-03 0.0 
0.0 0.0 0.0 
-8.633148315867e-04 1.898154667203e-03 0.0 
1.898154667203e-03 1.599392698661e-02 0.0 
0.0 0.0 0.0 
-5.174892374171e-06 -3.264470264065e-05 0.0 
-3.264470264065e-05 1.112616591754e-04 0.0 
0.0 0.0 0.0 
-1.606011286374e-03 1.807862689797e-04 0.0 
1.807862689797e-04 1.468251712492e-02 0.0 
0.0 0.0 0.0 
-1.366825990072e-03 3.221816714236e-04 0.0 
3.221816714236e-04 1.447022341669e-02 0.0 
0.0 0.0 0.0 
1.082498221941e-03 9.966004937685e-04 0.0 
9.966004937685e-04 6.153603848617e-03 0.0 
0.0 0.0 0.0 
5.661953584222e-04 -5.327393951432e-05 0.0 
-5.327393951432e-05 2.496522213444e-03 0.0 
0.0 0.0 0.0 
8.065722255395e-04 -8.767946700950e-05 0.0 
-8.767946700950e-05 2.443765609911e-03 0.0 
0.0 0.0 0.0 
-2.081568616563e-05 8.890025156609e-04 0.0 
8.890025156609e-04 3.323735969086e-03 0.0 
0.0 0.0 0.0 
5.251587631110e-04 6.053664200363e-04 0.0 
6.053664200363e-04 7.142705467334e-03 0.0 
0.0 0.0 0.0 
1.057059437399e-04 2.829901904604e-03 0.0 
2.829901904604e-03 1.177070823830e-02 0.0 
0.0 0.0 0.0 
-1.128460213050e-03 6.379280470967e-04 0.0 
6.379280470967e-04 1.669603887209e-02 0.0 
0.0 0.0 0.0 
-8.602665356772e-05 1.340427500146e-03 0.0 
1.340427500146e-03 5.189269406020e-03 0.0 
0.0 0.0 0.0 
3.416320187632e-05 -1.660566543630e-04 0.0 
-1.660566543630e-04 8.427576873018e-04 0.0 
0.0 0.0 0.0 
-6.580640841636e-04 2.065347583279e-03 0.0 
2.065347583279e-03 1.027603353734e-02 0.0 
0.0 0.0 0.0 
-1.139960947189e-03 -1.955418424222e-06 0.0 
-1.955418424222e-06 1.450446264180e-02 0.0 
0.0 0.0 0.0 
-9.841080143447e-04 -2.963612930916e-06 0.0 
-2.963612930916e-06 1.444920626747e-02 0.0 
0.0 0.0 0.0 
3.394496474951e-05 -3.796613673837e-05 0.0 
-3.796613673837e-05 1.043477796749e-04 0.0 
0.0 0.0 0.0 
1.156026610196e-04 -7.161551504474e-05 0.0 
-7.161551504474e-05 3.544766334427e-04 0.0 
0.0 0.0 0.0 
2.154495033404e-04 -5.579212491676e-05 0.0 
-5.579212491676e-05 6.664807664793e-04 0.0 
0.0 0.0 0.0 
4.786481137597e-04 -1.712879156790e-04 0.0 
-1.712879156790e-04 1.848088282347e-03 0.0 
0.0 0.0 0.0 
9.543764580644e-05 -4.786973650909e-05 0.0 
-4.786973650909e-05 3.502352185834e-04 0.0 
0.0 0.0 0.0 
7.175252829159e-04 2.400813201948e-05 0.0 
2.400813201948e-05 3.668886852771e-03 0.0 
0.0 0.0 0.0 
-6.915853117795e-04 -6.633784381499e-05 0.0 
-6.633784381499e-05 4.217791211187e-04 0.0 
0.0 0.0 0.0 
5.943830308439e-04 -1.481273039464e-04 0.0 
-1.481273039464e-04 2.212310193944e-03 0.0 
0.0 0.0 0.0 
-9.477036053183e-04 8.454445664430e-05 0.0 
8.454445664430e-05 1.586826769226e-02 0.0 
0.0 0.0 0.0 
-9.831487084418e-04 4.665440288266e-05 0.0 
4.665440288266e-05 1.442861630567e-02 0.0 
0.0 0.0 0.0 
-1.087841612549e-04 2.683310817960e-03 0.0 
2.683310817960e-03 1.239103275129e-02 0.0 
0.0 0.0 0.0 
1.006681036396e-03 5.486951009585e-04 0.0 
5.486951009585e-04 5.575835864554e-03 0.0 
0.0 0.0 0.0 
-9.854375181094e-04 5.045730629865e-05 0.0 
5.045730629865e-05 1.551469854011e-02 0.0 
0.0 0.0 0.0 
6.010008168360e-04 3.076284217701e-05 0.0 
3.076284217701e-05 2.680267984005e-03 0.0 
0.0 0.0 0.0 
1.585868411520e-04 -6.386797971440e-05 0.0 
-6.386797971440e-05 6.759782418362e-04 0.0 
0.0 0.0 0.0 
0.0 1.008643103339e-03 0.0 
1.008643103339e-03 1.748827391732e-02 0.0 
0.0 0.0 0.0 
-3.090520047825e-04 1.140180581986e-03 0.0 
1.140180581986e-03 1.744081361204e-02 0.0 
0.0 0.0 0.0 
-1.365335142436e-03 2.595333313500e-04 0.0 
2.595333313500e-04 1.542873609436e-02 0.0 
0.0 0.0 0.0 
-1.220564084888e-03 -5.935545202909e-08 0.0 
-5.935545202909e-08 1.452715220427e-02 0.0 
0.0 0.0 0.0 
6.017517059194e-04 -6.431337514609e-05 0.0 
-6.431337514609e-05 2.717461005021e-03 0.0 
0.0 0.0 0.0 
-2.538247923372e-04 7.749573914095e-04 0.0 
7.749573914095e-04 1.758374066851e-02 0.0 
0.0 0.0 0.0 
5.110637892558e-04 -2.579411784893e-04 0.0 
-2.579411784893e-04 2.068911327258e-03 0.0 
0.0 0.0 0.0 
-1.091290103783e-03 1.175199876296e-04 0.0 
1.175199876296e-04 1.443230999316e-02 0.0 
0.0 0.0 0.0 
-1.271854541838e-03 2.794621617652e-05 0.0 
2.794621617652e-05 1.455281807698e-02 0.0 
0.0 0.0 0.0 
-8.431623527151e-04 2.021069882240e-03 0.0 
2.021069882240e-03 1.073902890662e-02 0.0 
0.0 0.0 0.0 
0.0 2.232731887411e-03 0.0 
2.232731887411e-03 1.645975823495e-02 0.0 
0.0 0.0 0.0 
-2.945502799085e-04 9.553291369515e-04 0.0 
9.553291369515e-04 1.752466443758e-02 0.0 
0.0 0.0 0.0 
6.467123723208e-05 -6.272677464848e-05 0.0 
-6.272677464848e-05 3.612699714566e-04 0.0 
0.0 0.0 0.0 
6.463837128967e-05 -2.760731773746e-05 0.0 
-2.760731773746e-05 9.380967302608e-05 0.0 
0.0 0.0 0.0 
1.286965301215e-04 -1.692263996911e-04 0.0 
-1.692263996911e-04 9.985659673857e-04 0.0 
0.0 0.0 0.0 
9.320189013744e-04 9.711887791954e-05 0.0 
9.711887791954e-05 4.011209657492e-03 0.0 
0.0 0.0 0.0 
3.191764941455e-04 1.073761814112e-04 0.0 
1.073761814112e-04 7.397061601845e-03 0.0 
0.0 0.0 0.0 
-1.077549118076e-03 -8.173120632351e-05 0.0 
-8.173120632351e-05 5.609870675964e-04 0.0 
0.0 0.0 0.0 
-7.489580709050e-04 3.041125458053e-05 0.0 
3.041125458053e-05 1.662331036201e-02 0.0 
0.0 0.0 0.0 
-6.098055257039e-04 -7.707430590673e-05 0.0 
-7.707430590673e-05 3.917291104114e-04 0.0 
0.0 0.0 0.0 
1.182584984964e-03 9.078965007067e-04 0.0 
9.078965007067e-04 5.814967599714e-03 0.0 
0.0 0.0 0.0 
-8.367747819057e-04 -7.526789850236e-05 0.0 
-7.526789850236e-05 4.651759464227e-04 0.0 
0.0 0.0 0.0 
-9.588837691282e-04 -8.292067650011e-05 0.0 
-8.292067650011e-05 5.145345090001e-04 0.0 
0.0 0.0 0.0 
1.194109241947e-03 7.522528164619e-04 0.0 
7.522528164619e-04 5.439401139098e-03 0.0 
0.0 0.0 0.0 
4.046380023242e-04 2.813225590580e-04 0.0 
2.813225590580e-04 7.156825431672e-03 0.0 
0.0 0.0 0.0 
-9.890249067575e-04 4.674034563679e-05 0.0 
4.674034563679e-05 1.583679967425e-02 0.0 
0.0 0.0 0.0 
-4.013325477775e-04 2.083591291522e-03 0.0 
2.083591291522e-03 9.851042918526e-03 0.0 
0.0 0.0 0.0 
1.587708156432e-04 -4.407138974040e-05 0.0 
-4.407138974040e-05 3.341663405874e-04 0.0 
0.0 0.0 0.0 
7.611441276751e-04 1.440175717258e-04 0.0 
1.440175717258e-04 5.275680385632e-03 0.0 
0.0 0.0 0.0 
0.0 2.931732350500e-04 0.0 
2.931732350500e-04 1.766023118659e-02 0.0 
0.0 0.0 0.0 
-2.106127993695e-04 3.311684857606e-04 0.0 
3.311684857606e-04 1.766599277465e-02 0.0 
0.0 0.0 0.0 
-9.571628482835e-04 1.018124000740e-05 0.0 
1.018124000740e-05 1.442745303305e-02 0.0 
0.0 0.0 0.0 
1.153797639537e-03 1.070002249164e-03 0.0 
1.070002249164e-03 6.215724173771e-03 0.0 
0.0 0.0 0.0 
0.0 8.331752271227e-04 0.0 
8.331752271227e-04 1.756349916343e-02 0.0 
0.0 0.0 0.0 
6.940926974157e-04 2.009773378789e-03 0.0 
2.009773378789e-03 8.753496849172e-03 0.0 
0.0 0.0 0.0 
1.633317918852e-04 -3.183461580602e-05 0.0 
-3.183461580602e-05 6.562615871510e-04 0.0 
0.0 0.0 0.0 
1.211005090929e-04 -3.678608154136e-05 0.0 
-3.678608154136e-05 3.382869101327e-04 0.0 
0.0 0.0 0.0 
1.654532648723e-04 -3.515723007798e-05 0.0 
-3.515723007798e-05 3.275418873800e-04 0.0 
0.0 0.0 0.0 
6.608415715641e-04 3.052542106825e-05 0.0 
3.052542106825e-05 3.066490035100e-03 0.0 
0.0 0.0 0.0 
1.261312757470e-04 2.426461357127e-04 0.0 
2.426461357127e-04 8.280190565332e-03 0.0 
0.0 0.0 0.0 
-3.385621632331e-04 -1.607655755104e-05 0.0 
-1.607655755104e-05 1.739518631256e-02 0.0 
0.0 0.0 0.0 
1.223323602189e-04 -7.478397446824e-06 0.0 
-7.478397446824e-06 6.175581812529e-05 0.0 
0.0 0.0 0.0 
7.184234226476e-04 -3.645666343479e-05 0.0 
-3.645666343479e-05 3.668974055388e-03 0.0 
0.0 0.0 0.0 
0.0 2.127827998105e-04 0.0 
2.127827998105e-04 8.299173846262e-03 0.0 
0.0 0.0 0.0 
1.451180423604e-04 3.454584314859e-04 0.0 
3.454584314859e-04 8.289793178616e-03 0.0 
0.0 0.0 0.0 
2.353343309165e-04 1.101473999813e-03 0.0 
1.101473999813e-03 8.642997209732e-03 0.0 
0.0 0.0 0.0 
-8.416019031795e-04 6.624247931484e-05 0.0 
6.624247931484e-05 1.628182017547e-02 0.0 
0.0 0.0 0.0 
-6.736042962207e-04 -2.276472370050e-05 0.0 
-2.276472370050e-05 1.679113319701e-02 0.0 
0.0 0.0 0.0 
0.0 2.852608657627e-04 0.0 
2.852608657627e-04 8.267613092702e-03 0.0 
0.0 0.0 0.0 
0.0 3.673141270688e-04 0.0 
3.673141270688e-04 8.312929075946e-03 0.0 
0.0 0.0 0.0 
-7.309485767983e-04 7.505100236873e-05 0.0 
7.505100236873e-05 1.662487927371e-02 0.0 
0.0 0.0 0.0 
1.000480841431e-04 6.319091155175e-06 0.0 
6.319091155175e-06 5.332970018102e-05 0.0 
0.0 0.0 0.0 
-1.019907151362e-03 -6.847768652527e-06 0.0 
-6.847768652527e-06 1.444856376414e-02 0.0 
0.0 0.0 0.0 
-9.726484984054e-04 -4.944261814260e-06 0.0 
-4.944261814260e-06 1.445199365606e-02 0.0 
0.0 0.0 0.0 
9.567395676968e-05 -1.730969825631e-05 0.0 
-1.730969825631e-05 8.079071871880e-05 0.0 
0.0 0.0 0.0 
0.0 6.714176275527e-04 0.0 
6.714176275527e-04 8.444135366938e-03 0.0 
0.0 0.0 0.0 
2.037707958753e-04 9.735103729358e-04 0.0 
9.735103729358e-04 8.550374786687e-03 0.0 
0.0 0.0 0.0 
0.0 8.785253256896e-04 0.0 
8.785253256896e-04 8.507534795941e-03 0.0 
0.0 0.0 0.0 
5.791543840350e-05 -8.367636921225e-06 0.0 
-8.367636921225e-06 8.292519879594e-05 0.0 
0.0 0.0 0.0 
2.959163804528e-05 -2.129463803595e-05 0.0 
-2.129463803595e-05 9.820433656249e-05 0.0 
0.0 0.0 0.0 
0.0 1.126383195137e-03 0.0 
1.126383195137e-03 8.692679325452e-03 0.0 
0.0 0.0 0.0 
0.0 9.959438474419e-04 0.0 
9.959438474419e-04 8.597286868204e-03 0.0 
0.0 0.0 0.0 
-8.916599809167e-04 -3.115856346464e-05 0.0 
-3.115856346464e-05 1.609638023113e-02 0.0 
0.0 0.0 0.0 
-1.044602764399e-03 -5.922047294222e-06 0.0 
-5.922047294222e-06 1.444977992892e-02 0.0 
0.0 0.0 0.0 
-7.916617656333e-04 -2.693046275452e-05 0.0 
-2.693046275452e-05 1.645362508936e-02 0.0 
0.0 0.0 0.0 
-1.004776158251e-03 -3.668052290280e-05 0.0 
-3.668052290280e-05 1.532019305883e-02 0.0 
0.0 0.0 0.0 
-1.033940907842e-03 2.753757635442e-05 0.0 
2.753757635442e-05 1.445680002785e-02 0.0 
0.0 0.0 0.0 
-1.161601526075e-04 -3.272507934791e-05 0.0 
-3.272507934791e-05 1.585500222023e-04 0.0 
0.0 0.0 0.0 
-2.856896783384e-04 -5.723431274892e-05 0.0 
-5.723431274892e-05 2.417617007711e-04 0.0 
0.0 0.0 0.0 
-3.615827086625e-04 -5.853086220416e-05 0.0 
-5.853086220416e-05 2.617305502604e-04 0.0 
0.0 0.0 0.0 
-4.756112429520e-04 -6.632573291118e-05 0.0 
-6.632573291118e-05 3.122785917800e-04 0.0 
0.0 0.0 0.0 
7.309979903665e-04 3.777812094895e-05 0.0 
3.777812094895e-05 3.880847165394e-03 0.0 
0.0 0.0 0.0 
7.064485661392e-04 3.268448183074e-05 0.0 
3.268448183074e-05 3.464254375699e-03 0.0 
0.0 0.0 0.0 
-1.905116246222e-04 -5.604644010274e-05 0.0 
-5.604644010274e-05 2.086640456815e-04 0.0 
0.0 0.0 0.0 
7.165583597688e-04 4.130453167900e-05 0.0 
4.130453167900e-05 5.172781431495e-03 0.0 
0.0 0.0 0.0 
-2.843846448498e-04 -6.700269616502e-05 0.0 
-6.700269616502e-05 2.452730735167e-04 0.0 
0.0 0.0 0.0 
0.0 1.804716854372e-03 0.0 
1.804716854372e-03 1.695769092633e-02 0.0 
0.0 0.0 0.0 
0.0 6.849696686550e-04 0.0 
6.849696686550e-04 1.760334905161e-02 0.0 
0.0 0.0 0.0 
0.0 1.198086346187e-03 0.0 
1.198086346187e-03 1.738993813757e-02 0.0 
0.0 0.0 0.0 
2.940645928999e-04 3.350555292836e-05 0.0 
3.350555292836e-05 1.174233847466e-03 0.0 
0.0 0.0 0.0 
5.338209600820e-04 3.053858298348e-05 0.0 
3.053858298348e-05 2.299785096155e-03 0.0 
0.0 0.0 0.0 
0.0 5.327434498099e-04 0.0 
5.327434498099e-04 1.762016950104e-02 0.0 
0.0 0.0 0.0 
4.996111251778e-04 3.766019567781e-05 0.0 
3.766019567781e-05 6.635055843772e-03 0.0 
0.0 0.0 0.0 
0.0 4.151922463174e-04 0.0 
4.151922463174e-04 1.767593377406e-02 0.0 
0.0 0.0 0.0 
3.769915264993e-04 4.045558396466e-05 0.0 
4.045558396466e-05 7.155702442643e-03 0.0 
0.0 0.0 0.0 
2.357495402099e-04 5.064750883517e-05 0.0 
5.064750883517e-05 7.693676001068e-03 0.0 
0.0 0.0 0.0 
6.835613839280e-04 -4.568921391509e-05 0.0 
-4.568921391509e-05 3.262375329035e-03 0.0 
0.0 0.0 0.0 
-2.682518496228e-04 6.128360213086e-04 0.0 
6.128360213086e-04 1.761213836229e-02 0.0 
0.0 0.0 0.0 
-2.070789170228e-04 5.127901977840e-04 0.0 
5.127901977840e-04 1.764128519316e-02 0.0 
0.0 0.0 0.0 
4.327408951770e-04 1.654741914124e-05 0.0 
1.654741914124e-05 6.866972991138e-03 0.0 
0.0 0.0 0.0 
3.048267381214e-04 2.419188114603e-05 0.0 
2.419188114603e-05 7.401781634994e-03 0.0 
0.0 0.0 0.0 
6.811819931054e-04 1.126197013715e-04 0.0 
1.126197013715e-04 5.671483519963e-03 0.0 
0.0 0.0 0.0 
-5.283981249737e-04 -7.949883929619e-05 0.0 
-7.949883929619e-05 3.572964309986e-04 0.0 
0.0 0.0 0.0 
7.213978578682e-04 -9.368912255486e-05 0.0 
-9.368912255486e-05 3.323928741083e-03 0.0 
0.0 0.0 0.0 
3.601287269372e-05 -8.112756507184e-05 0.0 
-8.112756507184e-05 3.672425991146e-04 0.0 
0.0 0.0 0.0 
4.775271995059e-04 5.390469163036e-04 0.0 
5.390469163036e-04 7.149537611071e-03 0.0 
0.0 0.0 0.0 
8.311884188239e-04 4.277660627947e-06 0.0 
4.277660627947e-06 3.538404676114e-03 0.0 
0.0 0.0 0.0 
5.922381193473e-04 2.875185672550e-04 0.0 
2.875185672550e-04 6.429811177209e-03 0.0 
0.0 0.0 0.0 
3.959414603210e-04 -2.794996678794e-04 0.0 
-2.794996678794e-04 1.708329785277e-03 0.0 
0.0 0.0 0.0 
1.264981572631e-04 -1.051187451959e-04 0.0 
-1.051187451959e-04 6.785071335278e-04 0.0 
0.0 0.0 0.0 
4.557074499061e-04 2.511973396598e-04 0.0 
2.511973396598e-04 6.941692776829e-03 0.0 
0.0 0.0 0.0 
7.684463536139e-04 -5.050770798097e-05 0.0 
-5.050770798097e-05 3.726414576213e-03 0.0 
0.0 0.0 0.0 
6.333162793517e-04 1.045978738845e-05 0.0 
1.045978738845e-05 2.876311882031e-03 0.0 
0.0 0.0 0.0 
5.665319299408e-04 2.148276951891e-04 0.0 
2.148276951891e-04 6.441512378592e-03 0.0 
0.0 0.0 0.0 
-5.188478551518e-04 2.362979965520e-04 0.0 
2.362979965520e-04 1.707693995449e-02 0.0 
0.0 0.0 0.0 
6.307105065526e-04 -5.080942472335e-05 0.0 
-5.080942472335e-05 2.875152853941e-03 0.0 
0.0 0.0 0.0 
8.717081470886e-04 7.146515505102e-04 0.0 
7.146515505102e-04 6.264000802882e-03 0.0 
0.0 0.0 0.0 
9.319667845100e-04 3.216731983533e-04 0.0 
3.216731983533e-04 5.158402961854e-03 0.0 
0.0 0.0 0.0 
7.096504849886e-04 1.878315177858e-04 0.0 
1.878315177858e-04 5.659719437665e-03 0.0 
0.0 0.0 0.0 
6.571976716745e-04 1.581144837781e-04 0.0 
1.581144837781e-04 5.871367641965e-03 0.0 
0.0 0.0 0.0 
1.075199714424e-03 7.052486717368e-04 0.0 
7.052486717368e-04 3.745601212515e-03 0.0 
0.0 0.0 0.0 
-5.325733288459e-04 1.994161217490e-03 0.0 
1.994161217490e-03 9.532997491979e-03 0.0 
0.0 0.0 0.0 
7.495179053303e-04 1.491431094405e-03 0.0 
1.491431094405e-03 6.516369311733e-03 0.0 
0.0 0.0 0.0 
8.129636451462e-04 2.215340680284e-04 0.0 
2.215340680284e-04 5.263426929639e-03 0.0 
0.0 0.0 0.0 
5.088495942680e-04 1.722263143749e-04 0.0 
1.722263143749e-04 6.658499342567e-03 0.0 
0.0 0.0 0.0 
6.061513435083e-04 1.274021157075e-04 0.0 
1.274021157075e-04 6.091904560133e-03 0.0 
0.0 0.0 0.0 
4.851707915434e-04 -2.081929237134e-04 0.0 
-2.081929237134e-04 1.780357360769e-03 0.0 
0.0 0.0 0.0 
-5.823257152580e-04 4.066522874944e-04 0.0 
4.066522874944e-04 1.706287312815e-02 0.0 
0.0 0.0 0.0 
-7.428104985046e-04 3.297986112022e-04 0.0 
3.297986112022e-04 1.676177270154e-02 0.0 
0.0 0.0 0.0 
-1.064998738764e-03 5.796884121322e-05 0.0 
5.796884121322e-05 1.504279010155e-02 0.0 
0.0 0.0 0.0 
8.103407199418e-04 2.946633979095e-04 0.0 
2.946633979095e-04 5.539466845131e-03 0.0 
0.0 0.0 0.0 
7.608345580965e-04 2.068436042865e-04 0.0 
2.068436042865e-04 5.459904395607e-03 0.0 
0.0 0.0 0.0 
-5.980488981953e-04 2.056744056406e-04 0.0 
2.056744056406e-04 1.708714468149e-02 0.0 
0.0 0.0 0.0 
-6.481161908880e-04 2.956973109427e-04 0.0 
2.956973109427e-04 1.692579579245e-02 0.0 
0.0 0.0 0.0 
9.010618957574e-04 2.418173345680e-04 0.0 
2.418173345680e-04 4.990805606407e-03 0.0 
0.0 0.0 0.0 
3.930196902373e-04 1.992523243651e-04 0.0 
1.992523243651e-04 7.164227520174e-03 0.0 
0.0 0.0 0.0 
-9.538213275769e-04 6.368888613488e-04 0.0 
6.368888613488e-04 1.669555553234e-02 0.0 
0.0 0.0 0.0 
5.886615216397e-04 5.382500495779e-05 0.0 
5.382500495779e-05 6.091835331476e-03 0.0 
0.0 0.0 0.0 
3.933086729335e-04 4.806845786915e-04 0.0 
4.806845786915e-04 7.383121732853e-03 0.0 
0.0 0.0 0.0 
-6.796103823125e-04 3.802561999700e-04 0.0 
3.802561999700e-04 1.706791161896e-02 0.0 
0.0 0.0 0.0 
-1.065555292625e-03 2.207714949824e-04 0.0 
2.207714949824e-04 1.625489310625e-02 0.0 
0.0 0.0 0.0 
8.978924958269e-04 5.796903216258e-04 0.0 
5.796903216258e-04 5.918266791371e-03 0.0 
0.0 0.0 0.0 
4.272709589261e-04 -8.702662531894e-05 0.0 
-8.702662531894e-05 1.752824169881e-03 0.0 
0.0 0.0 0.0 
4.246405662578e-04 -2.139048982875e-04 0.0 
-2.139048982875e-04 1.646045686826e-03 0.0 
0.0 0.0 0.0 
5.294994205252e-05 -2.730821495631e-04 0.0 
-2.730821495631e-04 8.572453766305e-04 0.0 
0.0 0.0 0.0 
-5.289230085563e-04 -1.835192783156e-04 0.0 
-1.835192783156e-04 6.192887718217e-04 0.0 
0.0 0.0 0.0 
-7.155060829481e-04 2.601217328200e-04 0.0 
2.601217328200e-04 1.692941577408e-02 0.0 
0.0 0.0 0.0 
4.579516746226e-04 2.044099845653e-04 0.0 
2.044099845653e-04 6.860041003919e-03 0.0 
0.0 0.0 0.0 
-4.424849688391e-04 -1.793322205044e-04 0.0 
-1.793322205044e-04 5.724456204914e-04 0.0 
0.0 0.0 0.0 
-7.054514661432e-04 2.476760241483e-03 0.0 
2.476760241483e-03 1.447272020647e-02 0.0 
0.0 0.0 0.0 
-1.086198963245e-03 7.786705568262e-05 0.0 
7.786705568262e-05 1.525613731945e-02 0.0 
0.0 0.0 0.0 
6.235636331009e-04 2.454009427722e-04 0.0 
2.454009427722e-04 6.239493775719e-03 0.0 
0.0 0.0 0.0 
5.681103623263e-04 1.839159568802e-04 0.0 
1.839159568802e-04 6.355610384419e-03 0.0 
0.0 0.0 0.0 
8.295929333801e-04 -8.985021269692e-05 0.0 
-8.985021269692e-05 2.581570523475e-03 0.0 
0.0 0.0 0.0 
5.550030018173e-04 1.087751835213e-04 0.0 
1.087751835213e-04 6.366483076812e-03 0.0 
0.0 0.0 0.0 
-1.101765490544e-03 -1.062100349290e-05 0.0 
-1.062100349290e-05 1.504127176147e-02 0.0 
0.0 0.0 0.0 
1.000256005835e-03 1.401742313978e-03 0.0 
1.401742313978e-03 7.053568918311e-03 0.0 
0.0 0.0 0.0 
3.364339740124e-04 5.163652067284e-04 0.0 
5.163652067284e-04 7.603723300888e-03 0.0 
0.0 0.0 0.0 
4.132299402289e-04 -3.650860059278e-05 0.0 
-3.650860059278e-05 1.690649005751e-03 0.0 
0.0 0.0 0.0 
4.162982088229e-04 6.497960762007e-04 0.0 
6.497960762007e-04 7.498936306788e-03 0.0 
0.0 0.0 0.0 
-9.625932874685e-04 2.145581209527e-04 0.0 
2.145581209527e-04 1.643676778571e-02 0.0 
0.0 0.0 0.0 
4.642770182923e-04 -5.496277479814e-05 0.0 
-5.496277479814e-05 1.910703386604e-03 0.0 
0.0 0.0 0.0 
5.186822989838e-04 -2.979151400813e-04 0.0 
-2.979151400813e-04 2.013917216093e-03 0.0 
0.0 0.0 0.0 
7.731179154271e-04 5.136920374942e-05 0.0 
5.136920374942e-05 4.267002142285e-03 0.0 
0.0 0.0 0.0 
-1.119788073161e-03 2.282303204562e-04 0.0 
2.282303204562e-04 1.587238172752e-02 0.0 
0.0 0.0 0.0 
7.100134836353e-04 -8.763226892793e-05 0.0 
-8.763226892793e-05 2.749562267037e-03 0.0 
0.0 0.0 0.0 
-8.569945044782e-04 1.961599740615e-04 0.0 
1.961599740615e-04 1.661523289216e-02 0.0 
0.0 0.0 0.0 
-1.038523379975e-03 1.325640950125e-04 0.0 
1.325640950125e-04 1.606877528237e-02 0.0 
0.0 0.0 0.0 
8.373007350042e-04 6.665483265126e-05 0.0 
6.665483265126e-05 4.133235582409e-03 0.0 
0.0 0.0 0.0 
6.353138801507e-04 8.639853159881e-05 0.0 
8.639853159881e-05 5.876503171848e-03 0.0 
0.0 0.0 0.0 
6.055807062653e-04 1.434399838491e-04 0.0 
1.434399838491e-04 6.157305345044e-03 0.0 
0.0 0.0 0.0 
-8.660184204733e-04 2.519775706821e-04 0.0 
2.519775706821e-04 1.643096119416e-02 0.0 
0.0 0.0 0.0 
3.283056673760e-04 -2.037095499616e-04 0.0 
-2.037095499616e-04 1.458928217741e-03 0.0 
0.0 0.0 0.0 
8.037763793374e-04 3.409064504610e-05 0.0 
3.409064504610e-05 3.897843807493e-03 0.0 
0.0 0.0 0.0 
8.127922849885e-04 2.030725323265e-03 0.0 
2.030725323265e-03 8.618541788047e-03 0.0 
0.0 0.0 0.0 
-9.706567857285e-04 3.201100380796e-04 0.0 
3.201100380796e-04 1.659758911375e-02 0.0 
0.0 0.0 0.0 
7.754727525322e-04 6.539377191816e-07 0.0 
6.539377191816e-07 3.482682991662e-03 0.0 
0.0 0.0 0.0 
8.530582523272e-04 2.367903940708e-04 0.0 
2.367903940708e-04 5.172524053418e-03 0.0 
0.0 0.0 0.0 
4.939869369283e-04 6.919919524768e-04 0.0 
6.919919524768e-04 7.322496612596e-03 0.0 
0.0 0.0 0.0 
-9.565198043410e-04 2.547928940111e-04 0.0 
2.547928940111e-04 1.625055518640e-02 0.0 
0.0 0.0 0.0 
-2.773327249583e-04 -1.251629762287e-04 0.0 
-1.251629762287e-04 1.105730890777e-03 0.0 
0.0 0.0 0.0 
9.403902829264e-05 -2.176246958971e-04 0.0 
-2.176246958971e-04 8.136966352859e-04 0.0 
0.0 0.0 0.0 
3.979630679649e-04 8.685501106267e-05 0.0 
8.685501106267e-05 2.162150819131e-03 0.0 
0.0 0.0 0.0 
5.249875644224e-04 2.532802479512e-04 0.0 
2.532802479512e-04 6.646168256684e-03 0.0 
0.0 0.0 0.0 
-1.043228477606e-03 2.461441173731e-04 0.0 
2.461441173731e-04 1.606517717435e-02 0.0 
0.0 0.0 0.0 
7.496162155725e-04 -1.598769556429e-06 0.0 
-1.598769556429e-06 4.706752423569e-03 0.0 
0.0 0.0 0.0 
-1.130843947001e-03 1.241968280283e-04 0.0 
1.241968280283e-04 1.547288227668e-02 0.0 
0.0 0.0 0.0 
6.909178557784e-04 9.809525919058e-04 0.0 
9.809525919058e-04 7.172635739126e-03 0.0 
0.0 0.0 0.0 
8.125160804118e-04 7.384685138938e-05 0.0 
7.384685138938e-05 4.318591927593e-03 0.0 
0.0 0.0 0.0 
6.289482035897e-04 2.208688084553e-04 0.0 
2.208688084553e-04 6.145309284577e-03 0.0 
0.0 0.0 0.0 
4.100777249105e-04 -1.453121082456e-04 0.0 
-1.453121082456e-04 1.762370624041e-03 0.0 
0.0 0.0 0.0 
4.394551641700e-04 5.804957123156e-04 0.0 
5.804957123156e-04 7.387248029295e-03 0.0 
0.0 0.0 0.0 
7.848519486078e-04 -5.438623934517e-06 0.0 
-5.438623934517e-06 4.144917474783e-03 0.0 
0.0 0.0 0.0 
4.392533423720e-04 -1.153782675919e-04 0.0 
-1.153782675919e-04 1.920248430144e-03 0.0 
0.0 0.0 0.0 
7.592115791126e-04 -3.689951763197e-05 0.0 
-3.689951763197e-05 3.909741492628e-03 0.0 
0.0 0.0 0.0 
7.194983301499e-04 -6.232905428127e-05 0.0 
-6.232905428127e-05 2.917765703823e-03 0.0 
0.0 0.0 0.0 
5.457090968235e-04 -2.278941613698e-04 0.0 
-2.278941613698e-04 2.225066588002e-03 0.0 
0.0 0.0 0.0 
7.636585077808e-04 7.033412769710e-05 0.0 
7.033412769710e-05 4.692708223840e-03 0.0 
0.0 0.0 0.0 
-7.187021641963e-05 -5.248006671539e-05 0.0 
-5.248006671539e-05 1.637624203370e-04 0.0 
0.0 0.0 0.0 
-1.510015274371e-04 -5.626099991391e-05 0.0 
-5.626099991391e-05 1.979895353252e-04 0.0 
0.0 0.0 0.0 
7.203851348474e-04 1.312735475710e-04 0.0 
1.312735475710e-04 5.471749135436e-03 0.0 
0.0 0.0 0.0 
3.707450351720e-04 -1.770924420215e-04 0.0 
-1.770924420215e-04 1.610145450623e-03 0.0 
0.0 0.0 0.0 
7.533512461451e-04 2.146558174093e-04 0.0 
2.146558174093e-04 5.552092907306e-03 0.0 
0.0 0.0 0.0 
8.035503771970e-04 2.283151106775e-04 0.0 
2.283151106775e-04 5.360094189894e-03 0.0 
0.0 0.0 0.0 
8.486449126563e-04 -3.472289523104e-05 0.0 
-3.472289523104e-05 3.189852457009e-03 0.0 
0.0 0.0 0.0 
6.551317436185e-04 -1.469380820833e-04 0.0 
-1.469380820833e-04 2.074200177046e-03 0.0 
0.0 0.0 0.0 
-9.663519870096e-04 6.072403452031e-04 0.0 
6.072403452031e-04 1.686436369463e-02 0.0 
0.0 0.0 0.0 
-2.062614194912e-04 3.728695171083e-04 0.0 
3.728695171083e-04 1.446686800670e-03 0.0 
0.0 0.0 0.0 
7.251691020291e-04 -3.917013568848e-05 0.0 
-3.917013568848e-05 3.091386300319e-03 0.0 
0.0 0.0 0.0 
6.128887823262e-04 1.154509512913e-03 0.0 
1.154509512913e-03 7.557658256004e-03 0.0 
0.0 0.0 0.0 
3.397950028887e-04 -9.002429886849e-05 0.0 
-9.002429886849e-05 1.373187591559e-03 0.0 
0.0 0.0 0.0 
-1.180360701726e-03 1.202312012206e-04 0.0 
1.202312012206e-04 1.568393499716e-02 0.0 
0.0 0.0 0.0 
-1.158284483587e-03 3.412063835893e-05 0.0 
3.412063835893e-05 1.526230962147e-02 0.0 
0.0 0.0 0.0 
2.721380742601e-04 -2.811593611382e-04 0.0 
-2.811593611382e-04 1.354894453389e-03 0.0 
0.0 0.0 0.0 
5.825882304376e-04 7.506490093529e-04 0.0 
7.506490093529e-04 7.123854512831e-03 0.0 
0.0 0.0 0.0 
-1.252246074750e-03 4.860217100170e-04 0.0 
4.860217100170e-04 1.639274022654e-02 0.0 
0.0 0.0 0.0 
3.863716822849e-04 -1.140647120825e-04 0.0 
-1.140647120825e-04 1.597318187716e-03 0.0 
0.0 0.0 0.0 
-9.479084282518e-04 7.858016137998e-04 0.0 
7.858016137998e-04 1.695990255083e-02 0.0 
0.0 0.0 0.0 
-7.685190088575e-04 7.880119781234e-04 0.0 
7.880119781234e-04 1.695846525161e-02 0.0 
0.0 0.0 0.0 
4.233468831345e-04 -2.035912402116e-04 0.0 
-2.035912402116e-04 1.810055089742e-03 0.0 
0.0 0.0 0.0 
-1.507174566970e-04 1.475005960784e-03 0.0 
1.475005960784e-03 5.863449267431e-03 0.0 
0.0 0.0 0.0 
4.423720099356e-04 -2.515304344373e-04 0.0 
-2.515304344373e-04 1.860829940101e-03 0.0 
0.0 0.0 0.0 
6.564714110593e-04 1.739273826228e-04 0.0 
1.739273826228e-04 5.949317927405e-03 0.0 
0.0 0.0 0.0 
7.875495215417e-04 7.536738225890e-05 0.0 
7.536738225890e-05 4.507000782450e-03 0.0 
0.0 0.0 0.0 
-7.609686607930e-04 2.209979217432e-03 0.0 
2.209979217432e-03 1.530306358381e-02 0.0 
0.0 0.0 0.0 
-8.113891442463e-04 6.128255763784e-04 0.0 
6.128255763784e-04 1.686317413807e-02 0.0 
0.0 0.0 0.0 
7.041826582705e-04 1.966288177023e-04 0.0 
1.966288177023e-04 5.749318030241e-03 0.0 
0.0 0.0 0.0 
7.491486282203e-04 2.748441427623e-04 0.0 
2.748441427623e-04 5.737080269234e-03 0.0 
0.0 0.0 0.0 
3.492674294052e-04 -1.785487656152e-04 0.0 
-1.785487656152e-04 1.490351324962e-03 0.0 
0.0 0.0 0.0 
6.889196321023e-04 2.498406320287e-04 0.0 
2.498406320287e-04 5.937508302034e-03 0.0 
0.0 0.0 0.0 
-1.082700486030e-03 4.826794764903e-04 0.0 
4.826794764903e-04 1.639255255543e-02 0.0 
0.0 0.0 0.0 
7.577691675011e-04 6.825468440121e-06 0.0 
6.825468440121e-06 4.517797384476e-03 0.0 
0.0 0.0 0.0 
-1.160535606936e-03 2.194071502553e-04 0.0 
2.194071502553e-04 1.606868543948e-02 0.0 
0.0 0.0 0.0 
-1.116842266896e-03 4.720696169884e-04 0.0 
4.720696169884e-04 1.657070428562e-02 0.0 
0.0 0.0 0.0 
1.225338288926e-03 1.064405575609e-03 0.0 
1.064405575609e-03 5.090934605199e-03 0.0 
0.0 0.0 0.0 
-8.354094025622e-04 4.698197905604e-04 0.0 
4.698197905604e-04 1.674026632509e-02 0.0 
0.0 0.0 0.0 
7.661019677969e-04 1.841116758071e-05 0.0 
1.841116758071e-05 3.685858559890e-03 0.0 
0.0 0.0 0.0 
7.710014530007e-04 3.138669941557e-06 0.0 
3.138669941557e-06 4.329965770322e-03 0.0 
0.0 0.0 0.0 
6.586777618744e-04 -6.250187286645e-05 0.0 
-6.250187286645e-05 2.709803711420e-03 0.0 
0.0 0.0 0.0 
7.620333673661e-04 -1.673050286139e-04 0.0 
-1.673050286139e-04 2.880302792953e-03 0.0 
0.0 0.0 0.0 
-1.064001770710e-03 3.487934291906e-04 0.0 
3.487934291906e-04 1.623894812215e-02 0.0 
0.0 0.0 0.0 
9.882726580646e-04 1.441224272492e-04 0.0 
1.441224272492e-04 4.202632770661e-03 0.0 
0.0 0.0 0.0 
4.815922657782e-04 -2.210946278055e-04 0.0 
-2.210946278055e-04 2.016966380106e-03 0.0 
0.0 0.0 0.0 
1.405853066030e-04 -2.589142923691e-04 0.0 
-2.589142923691e-04 1.009764648089e-03 0.0 
0.0 0.0 0.0 
-1.208580703844e-03 3.370732454943e-04 0.0 
3.370732454943e-04 1.624080828751e-02 0.0 
0.0 0.0 0.0 
5.182992181851e-04 -1.466641471783e-04 0.0 
-1.466641471783e-04 2.005215152008e-03 0.0 
0.0 0.0 0.0 
4.666875842831e-04 7.273268855871e-04 0.0 
7.273268855871e-04 7.491041443198e-03 0.0 
0.0 0.0 0.0 
-9.604588116636e-04 3.546534052989e-04 0.0 
3.546534052989e-04 1.641910407934e-02 0.0 
0.0 0.0 0.0 
6.605012197431e-04 3.248100809991e-04 0.0 
3.248100809991e-04 6.227229919137e-03 0.0 
0.0 0.0 0.0 
2.537121633153e-04 1.620572044950e-03 0.0 
1.620572044950e-03 8.746462371721e-03 0.0 
0.0 0.0 0.0 
7.304565474817e-04 -7.153267125981e-05 0.0 
-7.153267125981e-05 3.498308668881e-03 0.0 
0.0 0.0 0.0 
4.481072755529e-04 -1.340049412784e-04 0.0 
-1.340049412784e-04 1.799167589546e-03 0.0 
0.0 0.0 0.0 
2.115904708226e-04 -1.648390216769e-04 0.0 
-1.648390216769e-04 1.133208982929e-03 0.0 
0.0 0.0 0.0 
7.384311387704e-04 2.977687147628e-04 0.0 
2.977687147628e-04 5.839558945584e-03 0.0 
0.0 0.0 0.0 
-1.025800468165e-03 1.726408631424e-04 0.0 
1.726408631424e-04 1.588079733708e-02 0.0 
0.0 0.0 0.0 
7.894845812184e-05 -1.425437734655e-04 0.0 
-1.425437734655e-04 7.955903940822e-04 0.0 
0.0 0.0 0.0 
6.570497727727e-04 -1.615201445762e-04 0.0 
-1.615201445762e-04 2.761222454231e-03 0.0 
0.0 0.0 0.0 
3.644385561978e-04 -1.175408421810e-04 0.0 
-1.175408421810e-04 1.558108160826e-03 0.0 
0.0 0.0 0.0 
-1.243543075583e-03 2.118698019789e-04 0.0 
2.118698019789e-04 1.587469006349e-02 0.0 
0.0 0.0 0.0 
6.742552567758e-04 -1.326593473031e-04 0.0 
-1.326593473031e-04 2.928792386208e-03 0.0 
0.0 0.0 0.0 
8.716775863629e-04 3.098299540344e-04 0.0 
3.098299540344e-04 5.346754173274e-03 0.0 
0.0 0.0 0.0 
6.234823546425e-04 -1.344957988483e-04 0.0 
-1.344957988483e-04 2.717411018355e-03 0.0 
0.0 0.0 0.0 
-8.438373959069e-04 2.974324678008e-04 0.0 
2.974324678008e-04 1.676642372025e-02 0.0 
0.0 0.0 0.0 
6.213446886503e-04 -1.217206497074e-04 0.0 
-1.217206497074e-04 2.373878307339e-03 0.0 
0.0 0.0 0.0 
7.814829669233e-04 4.160908003384e-04 0.0 
4.160908003384e-04 5.949858492371e-03 0.0 
0.0 0.0 0.0 
3.689575083010e-04 -3.294530111800e-04 0.0 
-3.294530111800e-04 1.664486498653e-03 0.0 
0.0 0.0 0.0 
7.969278113120e-04 3.158907335625e-04 0.0 
3.158907335625e-04 5.647103034844e-03 0.0 
0.0 0.0 0.0 
7.556121282455e-04 -1.604145405624e-05 0.0 
-1.604145405624e-05 4.103083857926e-03 0.0 
0.0 0.0 0.0 
7.301053169879e-04 3.549165605710e-04 0.0 
3.549165605710e-04 6.024834805123e-03 0.0 
0.0 0.0 0.0 
1.027310310708e-03 3.051051313820e-04 0.0 
3.051051313820e-04 3.040692694575e-03 0.0 
0.0 0.0 0.0 
3.762435858443e-04 -5.768844036329e-05 0.0 
-5.768844036329e-05 1.542813495329e-03 0.0 
0.0 0.0 0.0 
-1.126920657781e-03 5.622901158636e-05 0.0 
5.622901158636e-05 1.548550579638e-02 0.0 
0.0 0.0 0.0 
1.063255201982e-03 7.937075018965e-04 0.0 
7.937075018965e-04 5.832600533624e-03 0.0 
0.0 0.0 0.0 
4.582295512630e-04 1.812907151986e-03 0.0 
1.812907151986e-03 6.965294180772e-03 0.0 
0.0 0.0 0.0 
-1.116570490753e-03 1.302196230659e-04 0.0 
1.302196230659e-04 1.588220874509e-02 0.0 
0.0 0.0 0.0 
4.693186489995e-04 -3.155911267043e-04 0.0 
-3.155911267043e-04 1.875962590352e-03 0.0 
0.0 0.0 0.0 
-1.299140508884e-03 4.690451604762e-04 0.0 
4.690451604762e-04 1.601441453063e-02 0.0 
0.0 0.0 0.0 
3.208240712347e-04 -1.483882099912e-04 0.0 
-1.483882099912e-04 1.395896064862e-03 0.0 
0.0 0.0 0.0 
5.581436608899e-04 5.714395022162e-04 0.0 
5.714395022162e-04 6.977914616360e-03 0.0 
0.0 0.0 0.0 
1.036358233549e-03 9.605697787332e-04 0.0 
9.605697787332e-04 6.232792640758e-03 0.0 
0.0 0.0 0.0 
9.178233028624e-04 1.589694377664e-03 0.0 
1.589694377664e-03 7.569139886462e-03 0.0 
0.0 0.0 0.0 
-7.585612892450e-04 7.384863882950e-04 0.0 
7.384863882950e-04 1.712817471197e-02 0.0 
0.0 0.0 0.0 
9.893158950511e-04 2.462280693385e-04 0.0 
2.462280693385e-04 4.648149517898e-03 0.0 
0.0 0.0 0.0 
3.381413880554e-04 -1.387908822305e-04 0.0 
-1.387908822305e-04 1.444653579485e-03 0.0 
0.0 0.0 0.0 
9.101752651270e-04 3.415088481733e-04 0.0 
3.415088481733e-04 5.282291566356e-03 0.0 
0.0 0.0 0.0 
5.482842593851e-04 7.859506699262e-04 0.0 
7.859506699262e-04 7.307619801980e-03 0.0 
0.0 0.0 0.0 
7.090172998681e-04 -2.182285708107e-04 0.0 
-2.182285708107e-04 2.463335117634e-03 0.0 
0.0 0.0 0.0 
6.802871170573e-04 2.744459283650e-04 0.0 
2.744459283650e-04 6.037389616219e-03 0.0 
0.0 0.0 0.0 
-1.093242581919e-03 3.319470254680e-04 0.0 
3.319470254680e-04 1.642221185125e-02 0.0 
0.0 0.0 0.0 
6.013333108075e-04 -1.350372642635e-04 0.0 
-1.350372642635e-04 1.938306517299e-03 0.0 
0.0 0.0 0.0 
8.544259682182e-04 3.300511997622e-04 0.0 
3.300511997622e-04 5.461473214897e-03 0.0 
0.0 0.0 0.0 
-1.355610290791e-03 1.840211190606e-04 0.0 
1.840211190606e-04 1.545903982308e-02 0.0 
0.0 0.0 0.0 
4.934018154823e-04 -1.379573376892e-04 0.0 
-1.379573376892e-04 2.130277285750e-03 0.0 
0.0 0.0 0.0 
6.380964525294e-04 -1.925224148507e-04 0.0 
-1.925224148507e-04 2.596581586986e-03 0.0 
0.0 0.0 0.0 
5.572990028788e-04 1.807608175609e-03 0.0 
1.807608175609e-03 7.793224826613e-03 0.0 
0.0 0.0 0.0 
8.000652524089e-04 3.795090852884e-04 0.0 
3.795090852884e-04 5.826616008371e-03 0.0 
0.0 0.0 0.0 
-5.825651475799e-05 1.777820992320e-03 0.0 
1.777820992320e-03 7.630063104334e-03 0.0 
0.0 0.0 0.0 
6.624896999312e-04 1.655246097903e-03 0.0 
1.655246097903e-03 7.144723917024e-03 0.0 
0.0 0.0 0.0 
-1.196020516270e-03 4.766048219921e-04 0.0 
4.766048219921e-04 1.620700434463e-02 0.0 
0.0 0.0 0.0 
-1.084394937924e-03 1.538647546138e-04 0.0 
1.538647546138e-04 1.567970919646e-02 0.0 
0.0 0.0 0.0 
-1.311040116609e-03 2.846170709180e-04 0.0 
2.846170709180e-04 1.566432867426e-02 0.0 
0.0 0.0 0.0 
7.878022777950e-04 4.300202590533e-05 0.0 
4.300202590533e-05 4.089793525418e-03 0.0 
0.0 0.0 0.0 
6.680991717380e-04 7.885740429982e-04 0.0 
7.885740429982e-04 6.955719550134e-03 0.0 
0.0 0.0 0.0 
9.632836545925e-04 3.506493374981e-04 0.0 
3.506493374981e-04 5.110731550742e-03 0.0 
0.0 0.0 0.0 
-1.231804034943e-03 1.045265264507e-04 0.0 
1.045265264507e-04 1.547546180527e-02 0.0 
0.0 0.0 0.0 
-5.327074639584e-04 2.636316971145e-03 0.0 
2.636316971145e-03 1.417782295380e-02 0.0 
0.0 0.0 0.0 
8.180829007904e-04 1.773095497135e-03 0.0 
1.773095497135e-03 8.104352036743e-03 0.0 
0.0 0.0 0.0 
8.695854230947e-04 4.000374444302e-04 0.0 
4.000374444302e-04 5.633715307525e-03 0.0 
0.0 0.0 0.0 
-9.612439310320e-04 4.805973500844e-04 0.0 
4.805973500844e-04 1.656917481207e-02 0.0 
0.0 0.0 0.0 
7.700319414994e-04 -1.443593378095e-04 0.0 
-1.443593378095e-04 3.037246675968e-03 0.0 
0.0 0.0 0.0 
7.034091899152e-04 -1.756081380677e-04 0.0 
-1.756081380677e-04 2.813403426818e-03 0.0 
0.0 0.0 0.0 
3.304665519126e-04 -2.603553740296e-04 0.0 
-2.603553740296e-04 1.503044877286e-03 0.0 
0.0 0.0 0.0 
9.097480547231e-04 4.545575250899e-04 0.0 
4.545575250899e-04 5.590657446914e-03 0.0 
0.0 0.0 0.0 
7.142645947522e-04 -1.472183778049e-04 0.0 
-1.472183778049e-04 2.979441652335e-03 0.0 
0.0 0.0 0.0 
-1.314207597002e-03 3.357894159527e-04 0.0 
3.357894159527e-04 1.605215768627e-02 0.0 
0.0 0.0 0.0 
-1.409246965029e-03 3.333759291401e-04 0.0 
3.333759291401e-04 1.585664619282e-02 0.0 
0.0 0.0 0.0 
1.154322729789e-03 8.290351232884e-04 0.0 
8.290351232884e-04 5.111843190749e-03 0.0 
0.0 0.0 0.0 
6.779714345926e-04 -1.382643086271e-04 0.0 
-1.382643086271e-04 2.422571745583e-03 0.0 
0.0 0.0 0.0 
9.461127314405e-04 6.291794626020e-04 0.0 
6.291794626020e-04 3.321107791080e-03 0.0 
0.0 0.0 0.0 
6.964578269395e-04 -1.134500593044e-04 0.0 
-1.134500593044e-04 2.583980592341e-03 0.0 
0.0 0.0 0.0 
7.732990192681e-04 -9.096155106193e-05 0.0 
-9.096155106193e-05 2.799931987970e-03 0.0 
0.0 0.0 0.0 
4.032364723343e-04 -1.588358547469e-04 0.0 
-1.588358547469e-04 1.644267677959e-03 0.0 
0.0 0.0 0.0 
7.521994487698e-04 8.280007353064e-04 0.0 
8.280007353064e-04 6.788203695941e-03 0.0 
0.0 0.0 0.0 
1.001404259893e-03 6.801661738149e-05 0.0 
6.801661738149e-05 3.500154641568e-03 0.0 
0.0 0.0 0.0 
-9.741161321133e-04 4.498558693996e-04 0.0 
4.498558693996e-04 1.674309188499e-02 0.0 
0.0 0.0 0.0 
1.068843715636e-03 1.535347197786e-04 0.0 
1.535347197786e-04 3.757702610775e-03 0.0 
0.0 0.0 0.0 
1.003981058025e-03 4.340205939177e-04 0.0 
4.340205939177e-04 5.267633231850e-03 0.0 
0.0 0.0 0.0 
1.058527276067e-03 2.459300883773e-04 0.0 
2.459300883773e-04 4.350145461665e-03 0.0 
0.0 0.0 0.0 
8.781836534466e-04 1.408929998550e-03 0.0 
1.408929998550e-03 6.343786065808e-03 0.0 
0.0 0.0 0.0 
3.796808472099e-04 -2.327657352058e-04 0.0 
-2.327657352058e-04 1.656638951685e-03 0.0 
0.0 0.0 0.0 
6.432960660441e-04 8.231296582760e-04 0.0 
8.231296582760e-04 7.109945819023e-03 0.0 
0.0 0.0 0.0 
5.066487745773e-04 8.826257528226e-04 0.0 
8.826257528226e-04 7.530670711730e-03 0.0 
0.0 0.0 0.0 
5.168156317676e-04 2.219506699618e-03 0.0 
2.219506699618e-03 9.292405414872e-03 0.0 
0.0 0.0 0.0 
8.510409291917e-04 -5.367117547503e-05 0.0 
-5.367117547503e-05 3.022768526975e-03 0.0 
0.0 0.0 0.0 
1.045717267855e-03 3.395149189940e-04 0.0 
3.395149189940e-04 4.800418195615e-03 0.0 
0.0 0.0 0.0 
-1.158487721484e-03 3.347678291298e-04 0.0 
3.347678291298e-04 1.605175284765e-02 0.0 
0.0 0.0 0.0 
7.734439380882e-04 -1.190807189327e-04 0.0 
-1.190807189327e-04 3.203221889826e-03 0.0 
0.0 0.0 0.0 
4.920028468038e-04 1.508400942268e-03 0.0 
1.508400942268e-03 6.336627495247e-03 0.0 
0.0 0.0 0.0 
5.734919604867e-04 -1.959597695986e-04 0.0 
-1.959597695986e-04 2.385624183727e-03 0.0 
0.0 0.0 0.0 
5.689709823102e-04 -2.821613561565e-04 0.0 
-2.821613561565e-04 2.095570161419e-03 0.0 
0.0 0.0 0.0 
8.366393476449e-04 -9.799235418211e-05 0.0 
-9.799235418211e-05 3.269716506967e-03 0.0 
0.0 0.0 0.0 
5.508856553162e-04 -1.196527645621e-04 0.0 
-1.196527645621e-04 2.165470255636e-03 0.0 
0.0 0.0 0.0 
4.600177553180e-04 -1.727505412756e-04 0.0 
-1.727505412756e-04 1.967978282254e-03 0.0 
0.0 0.0 0.0 
9.571183331456e-04 1.485723609164e-04 0.0 
1.485723609164e-04 4.365664970731e-03 0.0 
0.0 0.0 0.0 
9.380313922074e-04 4.183339539056e-04 0.0 
4.183339539056e-04 5.447448243324e-03 0.0 
0.0 0.0 0.0 
3.388961068651e-04 2.551161711023e-03 0.0 
2.551161711023e-03 1.083496360573e-02 0.0 
0.0 0.0 0.0 
-2.122388172415e-04 -3.829265925358e-05 0.0 
-3.829265925358e-05 1.994234958351e-04 0.0 
0.0 0.0 0.0 
1.166551270520e-03 2.813729629266e-04 0.0 
2.813729629266e-04 3.752318891937e-03 0.0 
0.0 0.0 0.0 
1.087538974501e-03 1.559426252889e-04 0.0 
1.559426252889e-04 3.606135172314e-03 0.0 
0.0 0.0 0.0 
9.285847678373e-04 -1.123587927900e-06 0.0 
-1.123587927900e-06 3.255254571593e-03 0.0 
0.0 0.0 0.0 
-1.241051601961e-03 3.118930000814e-04 0.0 
3.118930000814e-04 1.585855664345e-02 0.0 
0.0 0.0 0.0 
1.043405817109e-03 1.549269524323e-04 0.0 
1.549269524323e-04 3.916504630729e-03 0.0 
0.0 0.0 0.0 
6.425443044624e-04 -9.310841166865e-05 0.0 
-9.310841166865e-05 2.538752605760e-03 0.0 
0.0 0.0 0.0 
9.012856108481e-04 -3.346331454708e-05 0.0 
-3.346331454708e-05 3.516296233894e-03 0.0 
0.0 0.0 0.0 
-8.529126237928e-04 3.496844992288e-04 0.0 
3.496844992288e-04 1.659376282663e-02 0.0 
0.0 0.0 0.0 
5.953404139587e-04 -1.635184652283e-04 0.0 
-1.635184652283e-04 2.549961364400e-03 0.0 
0.0 0.0 0.0 
1.584370089647e-04 -1.336012913572e-04 0.0 
-1.336012913572e-04 9.218979495280e-04 0.0 
0.0 0.0 0.0 
2.798308135379e-04 -1.557891569156e-04 0.0 
-1.557891569156e-04 1.287134057936e-03 0.0 
0.0 0.0 0.0 
6.973609697769e-04 -1.474278519631e-04 0.0 
-1.474278519631e-04 2.215627517237e-03 0.0 
0.0 0.0 0.0 
7.626475929541e-04 -1.130375810466e-04 0.0 
-1.130375810466e-04 2.640289726584e-03 0.0 
0.0 0.0 0.0 
1.151950685476e-03 2.652104186322e-04 0.0 
2.652104186322e-04 3.886369792563e-03 0.0 
0.0 0.0 0.0 
9.612520081874e-04 4.679240521611e-05 0.0 
4.679240521611e-05 3.775924106288e-03 0.0 
0.0 0.0 0.0 
3.034931197365e-04 -3.439386125117e-04 0.0 
-3.439386125117e-04 1.524140905557e-03 0.0 
0.0 0.0 0.0 
2.763988807828e-04 -2.337544375602e-04 0.0 
-2.337544375602e-04 1.298605330619e-03 0.0 
0.0 0.0 0.0 
-1.710714492364e-03 5.729179470319e-04 0.0 
5.729179470319e-04 1.558987625085e-02 0.0 
0.0 0.0 0.0 
5.149299638396e-04 -1.893132775770e-04 0.0 
-1.893132775770e-04 2.176292947402e-03 0.0 
0.0 0.0 0.0 
8.883988628925e-04 7.779312973656e-04 0.0 
7.779312973656e-04 6.413566478718e-03 0.0 
0.0 0.0 0.0 
4.728045010387e-04 2.426566076250e-03 0.0 
2.426566076250e-03 1.017589339184e-02 0.0 
0.0 0.0 0.0 
-1.202002453750e-03 2.134182348509e-03 0.0 
2.134182348509e-03 1.349925226582e-02 0.0 
0.0 0.0 0.0 
-1.045636533425e-03 1.070391981855e-03 0.0 
1.070391981855e-03 1.661760028871e-02 0.0 
0.0 0.0 0.0 
2.241618184675e-04 2.656642076342e-03 0.0 
2.656642076342e-03 1.148447845106e-02 0.0 
0.0 0.0 0.0 
1.118251058076e-03 8.909915491743e-04 0.0 
8.909915491743e-04 5.117506012999e-03 0.0 
0.0 0.0 0.0 
5.055910054745e-04 2.314950950358e-03 0.0 
2.314950950358e-03 9.728230112687e-03 0.0 
0.0 0.0 0.0 
4.050842774839e-04 -3.286748585691e-04 0.0 
-3.286748585691e-04 1.739679729309e-03 0.0 
0.0 0.0 0.0 
8.890556165542e-04 -1.834542139130e-05 0.0 
-1.834542139130e-05 3.677433421446e-03 0.0 
0.0 0.0 0.0 
1.066821721376e-03 1.235184126221e-03 0.0 
1.235184126221e-03 5.197129362130e-03 0.0 
0.0 0.0 0.0 
6.598989197906e-04 -1.890087053906e-05 0.0 
-1.890087053906e-05 2.063071756033e-03 0.0 
0.0 0.0 0.0 
2.109761887790e-04 -3.504037851342e-04 0.0 
-3.504037851342e-04 1.401551143144e-03 0.0 
0.0 0.0 0.0 
7.789130520190e-04 -6.790577209874e-05 0.0 
-6.790577209874e-05 2.966945810298e-03 0.0 
0.0 0.0 0.0 
9.758271727265e-04 4.053041636329e-05 0.0 
4.053041636329e-05 3.626862969621e-03 0.0 
0.0 0.0 0.0 
1.033891539755e-03 1.430323072820e-04 0.0 
1.430323072820e-04 3.906680732186e-03 0.0 
0.0 0.0 0.0 
5.775123007770e-04 -9.161818583230e-05 0.0 
-9.161818583230e-05 2.328179619549e-03 0.0 
0.0 0.0 0.0 
1.097063047988e-03 2.484987905024e-04 0.0 
2.484987905024e-04 4.186038586573e-03 0.0 
0.0 0.0 0.0 
1.046197093532e-03 1.496739713503e-04 0.0 
1.496739713503e-04 3.775996434998e-03 0.0 
0.0 0.0 0.0 
1.222089803678e-03 4.124031610719e-04 0.0 
4.124031610719e-04 4.063614531623e-03 0.0 
0.0 0.0 0.0 
6.879780776168e-04 -2.031425256664e-04 0.0 
-2.031425256664e-04 2.654096903019e-03 0.0 
0.0 0.0 0.0 
1.037164225921e-03 1.173702101019e-03 0.0 
1.173702101019e-03 6.597275922014e-03 0.0 
0.0 0.0 0.0 
-1.378901610875e-03 5.001808450266e-04 0.0 
5.001808450266e-04 1.620489146947e-02 0.0 
0.0 0.0 0.0 
1.227011641791e-03 4.461561774763e-04 0.0 
4.461561774763e-04 3.958008325353e-03 0.0 
0.0 0.0 0.0 
7.482429918819e-04 8.774875666584e-04 0.0 
8.774875666584e-04 6.941793605780e-03 0.0 
0.0 0.0 0.0 
5.144998212010e-04 -2.879714006673e-04 0.0 
-2.879714006673e-04 1.961726080513e-03 0.0 
0.0 0.0 0.0 
6.076560295483e-04 1.200227506129e-03 0.0 
1.200227506129e-03 7.742154166984e-03 0.0 
0.0 0.0 0.0 
1.127872204395e-03 2.540692209409e-04 0.0 
2.540692209409e-04 4.030336074216e-03 0.0 
0.0 0.0 0.0 
1.529691453417e-04 2.826450302494e-03 0.0 
2.826450302494e-03 1.217024293638e-02 0.0 
0.0 0.0 0.0 
-1.900694327994e-04 2.296724025826e-03 0.0 
2.296724025826e-03 1.089111032601e-02 0.0 
0.0 0.0 0.0 
5.374995196086e-04 -1.921980271435e-04 0.0 
-1.921980271435e-04 1.856630843211e-03 0.0 
0.0 0.0 0.0 
-9.588190914800e-04 2.250143283743e-03 0.0 
2.250143283743e-03 1.308753999089e-02 0.0 
0.0 0.0 0.0 
-1.011550799496e-03 1.638922672770e-03 0.0 
1.638922672770e-03 1.618243306224e-02 0.0 
0.0 0.0 0.0 
1.176352347178e-03 3.695343853652e-04 0.0 
3.695343853652e-04 4.322832473744e-03 0.0 
0.0 0.0 0.0 
5.906186868820e-04 1.160421149522e-03 0.0 
1.160421149522e-03 5.046211904384e-03 0.0 
0.0 0.0 0.0 
-7.240205121684e-04 2.328820035157e-03 0.0 
2.328820035157e-03 1.268662383348e-02 0.0 
0.0 0.0 0.0 
5.507893632808e-04 1.871090287996e-03 0.0 
1.871090287996e-03 7.362216701124e-03 0.0 
0.0 0.0 0.0 
3.522923987755e-04 -2.169134965684e-04 0.0 
-2.169134965684e-04 1.503092552219e-03 0.0 
0.0 0.0 0.0 
-5.241631140560e-04 1.433317405693e-03 0.0 
1.433317405693e-03 1.700778512314e-02 0.0 
0.0 0.0 0.0 
2.303393433869e-04 -2.153927442332e-04 0.0 
-2.153927442332e-04 1.301359466498e-03 0.0 
0.0 0.0 0.0 
6.035761273282e-04 1.845197311173e-03 0.0 
1.845197311173e-03 8.646057401237e-03 0.0 
0.0 0.0 0.0 
-6.664410712270e-04 5.801353078042e-04 0.0 
5.801353078042e-04 1.702492490538e-02 0.0 
0.0 0.0 0.0 
9.918732560326e-04 1.131960823332e-03 0.0 
1.131960823332e-03 6.662375931047e-03 0.0 
0.0 0.0 0.0 
-1.183429935022e-03 2.045732804952e-04 0.0 
2.045732804952e-04 1.566684185569e-02 0.0 
0.0 0.0 0.0 
-1.280978061587e-03 8.825789252211e-04 0.0 
8.825789252211e-04 1.658841686876e-02 0.0 
0.0 0.0 0.0 
1.098430413808e-03 2.758242514240e-04 0.0 
2.758242514240e-04 4.086621551808e-03 0.0 
0.0 0.0 0.0 
1.155004151360e-03 9.531374557699e-04 0.0 
9.531374557699e-04 5.582033792194e-03 0.0 
0.0 0.0 0.0 
-8.147337914352e-04 1.247504515839e-03 0.0 
1.247504515839e-03 1.681969498788e-02 0.0 
0.0 0.0 0.0 
8.574141388187e-04 5.028801601956e-04 0.0 
5.028801601956e-04 5.935883524905e-03 0.0 
0.0 0.0 0.0 
-1.422889795074e-03 7.030486620687e-04 0.0 
7.030486620687e-04 1.631854752312e-02 0.0 
0.0 0.0 0.0 
1.124752347253e-03 8.756207826924e-04 0.0 
8.756207826924e-04 5.940529095426e-03 0.0 
0.0 0.0 0.0 
4.769218450498e-04 -1.904636440417e-04 0.0 
-1.904636440417e-04 1.717487677520e-03 0.0 
0.0 0.0 0.0 
-1.432495325779e-03 9.383155842100e-04 0.0 
9.383155842100e-04 1.637957831523e-02 0.0 
0.0 0.0 0.0 
2.523986810445e-04 2.951944650648e-03 0.0 
2.951944650648e-03 1.155228480630e-02 0.0 
0.0 0.0 0.0 
5.715436085758e-04 9.794229070078e-04 0.0 
9.794229070078e-04 7.508385678285e-03 0.0 
0.0 0.0 0.0 
9.831221284506e-04 7.635678796592e-05 0.0 
7.635678796592e-05 3.662450381878e-03 0.0 
0.0 0.0 0.0 
-1.311005357203e-03 1.960432327928e-04 0.0 
1.960432327928e-04 1.566791176207e-02 0.0 
0.0 0.0 0.0 
-1.229225016597e-03 1.734381709663e-04 0.0 
1.734381709663e-04 1.545983763603e-02 0.0 
0.0 0.0 0.0 
1.014105053059e-03 1.407160506473e-04 0.0 
1.407160506473e-04 4.048408928274e-03 0.0 
0.0 0.0 0.0 
9.339637903474e-04 5.273136572781e-04 0.0 
5.273136572781e-04 5.751830597665e-03 0.0 
0.0 0.0 0.0 
9.178788689737e-04 6.469764695557e-04 0.0 
6.469764695557e-04 6.072501690106e-03 0.0 
0.0 0.0 0.0 
2.177563754284e-04 -2.492973001379e-04 0.0 
-2.492973001379e-04 1.146442815880e-03 0.0 
0.0 0.0 0.0 
7.824727036956e-04 5.657753767149e-04 0.0 
5.657753767149e-04 2.906518091295e-03 0.0 
0.0 0.0 0.0 
1.266618568785e-03 5.988215452898e-04 0.0 
5.988215452898e-04 4.313200660720e-03 0.0 
0.0 0.0 0.0 
1.102810069778e-03 2.972796527141e-04 0.0 
2.972796527141e-04 3.983855115704e-03 0.0 
0.0 0.0 0.0 
8.144448397516e-04 1.654512060177e-03 0.0 
1.654512060177e-03 6.491917294867e-03 0.0 
0.0 0.0 0.0 
-8.231974840450e-04 1.203987272249e-03 0.0 
1.203987272249e-03 1.703543724793e-02 0.0 
0.0 0.0 0.0 
-5.864428339631e-04 2.453823851368e-03 0.0 
2.453823851368e-03 1.447497790635e-02 0.0 
0.0 0.0 0.0 
-8.005823437223e-04 5.611251012236e-04 0.0 
5.611251012236e-04 1.702661768627e-02 0.0 
0.0 0.0 0.0 
-1.560767404821e-04 1.890056562583e-03 0.0 
1.890056562583e-03 8.356709660067e-03 0.0 
0.0 0.0 0.0 
-1.239673610686e-03 1.456295773994e-03 0.0 
1.456295773994e-03 1.600236313201e-02 0.0 
0.0 0.0 0.0 
8.465305758900e-04 4.369913106757e-04 0.0 
4.369913106757e-04 5.766065854728e-03 0.0 
0.0 0.0 0.0 
-7.277087800094e-04 9.752930962757e-04 0.0 
9.752930962757e-04 1.701540583910e-02 0.0 
0.0 0.0 0.0 
-1.564944779792e-03 1.006352527831e-03 0.0 
1.006352527831e-03 1.615078549440e-02 0.0 
0.0 0.0 0.0 
9.416911987821e-04 5.510811503480e-05 0.0 
5.510811503480e-05 3.932591282527e-03 0.0 
0.0 0.0 0.0 
1.254827609672e-03 6.507268592970e-04 0.0 
6.507268592970e-04 4.243941831523e-03 0.0 
0.0 0.0 0.0 
-1.224091459838e-03 8.764906224376e-04 0.0 
8.764906224376e-04 1.638607644528e-02 0.0 
0.0 0.0 0.0 
-1.078405375221e-03 1.051106186288e-03 0.0 
1.051106186288e-03 1.682624460248e-02 0.0 
0.0 0.0 0.0 
-1.092181046980e-03 6.471354337793e-04 0.0 
6.471354337793e-04 1.651298250927e-02 0.0 
0.0 0.0 0.0 
-1.221656156306e-03 6.586870530266e-04 0.0 
6.586870530266e-04 1.632302821407e-02 0.0 
0.0 0.0 0.0 
7.044635563009e-04 7.055547355275e-04 0.0 
7.055547355275e-04 6.772802847140e-03 0.0 
0.0 0.0 0.0 
6.455505137106e-04 1.886983877401e-03 0.0 
1.886983877401e-03 8.626797826631e-03 0.0 
0.0 0.0 0.0 
7.992371818291e-04 7.413505734059e-04 0.0 
7.413505734059e-04 6.585389201993e-03 0.0 
0.0 0.0 0.0 
9.902651178890e-04 3.313851313938e-04 0.0 
3.313851313938e-04 4.976087601630e-03 0.0 
0.0 0.0 0.0 
-7.228791859927e-04 1.980277324571e-03 0.0 
1.980277324571e-03 9.996963039851e-03 0.0 
0.0 0.0 0.0 
9.294964284960e-04 1.313689011376e-03 0.0 
1.313689011376e-03 7.109449562039e-03 0.0 
0.0 0.0 0.0 
-1.358978725986e-03 1.672409402186e-03 0.0 
1.672409402186e-03 1.520815887624e-02 0.0 
0.0 0.0 0.0 
4.862348507426e-04 -1.070513987141e-04 0.0 
-1.070513987141e-04 1.957899356274e-03 0.0 
0.0 0.0 0.0 
1.142571124706e-03 4.471309232532e-04 0.0 
4.471309232532e-04 4.338440211035e-03 0.0 
0.0 0.0 0.0 
1.265589957663e-03 6.686567616397e-04 0.0 
6.686567616397e-04 4.855538723409e-03 0.0 
0.0 0.0 0.0 
1.125873653444e-03 1.083187208813e-03 0.0 
1.083187208813e-03 6.064659949992e-03 0.0 
0.0 0.0 0.0 
7.086434873371e-04 1.523659115081e-04 0.0 
1.523659115081e-04 2.239718203642e-03 0.0 
0.0 0.0 0.0 
1.133220451709e-03 4.866325888738e-04 0.0 
4.866325888738e-04 4.272453172387e-03 0.0 
0.0 0.0 0.0 
1.065627042243e-03 1.216946641884e-03 0.0 
1.216946641884e-03 6.560767907756e-03 0.0 
0.0 0.0 0.0 
-3.615411453314e-04 2.140941035842e-03 0.0 
2.140941035842e-03 9.842682701080e-03 0.0 
0.0 0.0 0.0 
1.012154400041e-03 1.584671917871e-04 0.0 
1.584671917871e-04 4.084203159780e-03 0.0 
0.0 0.0 0.0 
-1.670811361969e-03 8.027206398206e-04 0.0 
8.027206398206e-04 1.589259515045e-02 0.0 
0.0 0.0 0.0 
-1.090650933011e-03 2.376728396015e-05 0.0 
2.376728396015e-05 1.476561872611e-02 0.0 
0.0 0.0 0.0 
-1.136356885467e-03 1.510872459929e-03 0.0 
1.510872459929e-03 2.145512074484e-03 0.0 
0.0 0.0 0.0 
9.467647200780e-04 2.446625236797e-04 0.0 
2.446625236797e-04 4.815488280079e-03 0.0 
0.0 0.0 0.0 
1.045754839883e-03 1.195248170081e-03 0.0 
1.195248170081e-03 6.732240964780e-03 0.0 
0.0 0.0 0.0 
-5.874414983515e-04 2.407726351947e-03 0.0 
2.407726351947e-03 1.499719499107e-02 0.0 
0.0 0.0 0.0 
1.288940974780e-03 9.280025003319e-04 0.0 
9.280025003319e-04 5.112490734547e-03 0.0 
0.0 0.0 0.0 
1.014946437474e-03 2.443347860574e-04 0.0 
2.443347860574e-04 4.522062613651e-03 0.0 
0.0 0.0 0.0 
-1.495485501246e-03 5.176813989671e-04 0.0 
5.176813989671e-04 1.600954808815e-02 0.0 
0.0 0.0 0.0 
-1.199798817033e-03 1.657677229643e-03 0.0 
1.657677229643e-03 3.502481315422e-03 0.0 
0.0 0.0 0.0 
1.107435268465e-03 1.241609608259e-03 0.0 
1.241609608259e-03 6.645202668533e-03 0.0 
0.0 0.0 0.0 
1.156306839968e-03 9.051999378764e-04 0.0 
9.051999378764e-04 5.609370158763e-03 0.0 
0.0 0.0 0.0 
-5.511603872428e-04 2.152764788168e-03 0.0 
2.152764788168e-03 1.059467052632e-02 0.0 
0.0 0.0 0.0 
8.284464801158e-04 5.567581108478e-04 0.0 
5.567581108478e-04 6.086629814666e-03 0.0 
0.0 0.0 0.0 
5.641568487456e-04 -2.070260938828e-04 0.0 
-2.070260938828e-04 2.087622744658e-03 0.0 
0.0 0.0 0.0 
7.977223545144e-04 6.864454943112e-04 0.0 
6.864454943112e-04 6.428000800024e-03 0.0 
0.0 0.0 0.0 
6.831912830405e-04 1.024660189992e-03 0.0 
1.024660189992e-03 7.317465034484e-03 0.0 
0.0 0.0 0.0 
1.153058947459e-03 1.287649099106e-03 0.0 
1.287649099106e-03 6.579535017797e-03 0.0 
0.0 0.0 0.0 
-1.279996698706e-03 6.697128368060e-04 0.0 
6.697128368060e-04 1.651095517579e-02 0.0 
0.0 0.0 0.0 
5.734797603509e-04 2.177571847307e-03 0.0 
2.177571847307e-03 9.371634930283e-03 0.0 
0.0 0.0 0.0 
5.989078307647e-04 9.390238547580e-04 0.0 
9.390238547580e-04 7.328661382772e-03 0.0 
0.0 0.0 0.0 
-1.221374824286e-03 1.716638720080e-03 0.0 
1.716638720080e-03 4.889473469086e-03 0.0 
0.0 0.0 0.0 
-1.553913238034e-03 7.445146383734e-04 0.0 
7.445146383734e-04 1.611251923022e-02 0.0 
0.0 0.0 0.0 
5.682237744455e-04 2.115972483198e-03 0.0 
2.115972483198e-03 9.159327638853e-03 0.0 
0.0 0.0 0.0 
-1.082642261874e-03 8.462638994925e-04 0.0 
8.462638994925e-04 1.659201630567e-02 0.0 
0.0 0.0 0.0 
1.229464193668e-03 1.163558097464e-03 0.0 
1.163558097464e-03 6.077029702978e-03 0.0 
0.0 0.0 0.0 
1.153343655476e-03 6.536390175499e-04 0.0 
6.536390175499e-04 4.674832319524e-03 0.0 
0.0 0.0 0.0 
8.680016728999e-04 1.105900459276e-04 0.0 
1.105900459276e-04 4.373731737588e-03 0.0 
0.0 0.0 0.0 
1.127792783533e-04 1.724764119263e-04 0.0 
1.724764119263e-04 1.409653124656e-03 0.0 
0.0 0.0 0.0 
-9.324161439369e-04 8.141133024496e-04 0.0 
8.141133024496e-04 1.678041564539e-02 0.0 
0.0 0.0 0.0 
5.189573074311e-04 -7.692611919948e-05 0.0 
-7.692611919948e-05 2.122297947710e-03 0.0 
0.0 0.0 0.0 
-1.218551850037e-03 1.711543520877e-03 0.0 
1.711543520877e-03 6.247407932555e-03 0.0 
0.0 0.0 0.0 
5.206064042849e-04 2.210395540003e-03 0.0 
2.210395540003e-03 9.530576991223e-03 0.0 
0.0 0.0 0.0 
-6.193638587708e-04 7.412130981082e-04 0.0 
7.412130981082e-04 1.712725570271e-02 0.0 
0.0 0.0 0.0 
4.487873878014e-04 -2.790846699434e-04 0.0 
-2.790846699434e-04 1.841611829627e-03 0.0 
0.0 0.0 0.0 
4.363883160068e-04 1.948274226365e-03 0.0 
1.948274226365e-03 8.461786323470e-03 0.0 
0.0 0.0 0.0 
-1.352650060549e-03 9.135725789682e-04 0.0 
9.135725789682e-04 1.616072932341e-02 0.0 
0.0 0.0 0.0 
8.902115612708e-04 7.584542064713e-05 0.0 
7.584542064713e-05 4.273692335684e-03 0.0 
0.0 0.0 0.0 
5.972610090974e-04 -6.440080249705e-05 0.0 
-6.440080249705e-05 2.274614592228e-03 0.0 
0.0 0.0 0.0 
6.785866148686e-04 1.213789012997e-03 0.0 
1.213789012997e-03 4.433641677032e-03 0.0 
0.0 0.0 0.0 
2.808265127281e-04 -2.174526140353e-04 0.0 
-2.174526140353e-04 1.378884010389e-03 0.0 
0.0 0.0 0.0 
5.359304597552e-04 -1.149173728283e-04 0.0 
-1.149173728283e-04 1.820933292153e-03 0.0 
0.0 0.0 0.0 
4.025556508755e-04 -1.722281016145e-04 0.0 
-1.722281016145e-04 1.595569661812e-03 0.0 
0.0 0.0 0.0 
1.274962745296e-03 1.043382979574e-03 0.0 
1.043382979574e-03 5.588124591521e-03 0.0 
0.0 0.0 0.0 
-3.583624093322e-04 2.240440896034e-03 0.0 
2.240440896034e-03 1.659506402205e-02 0.0 
0.0 0.0 0.0 
-1.195184778820e-03 1.704056135291e-03 0.0 
1.704056135291e-03 7.627388790333e-03 0.0 
0.0 0.0 0.0 
6.103677580815e-04 6.573393334666e-04 0.0 
6.573393334666e-04 6.963647656054e-03 0.0 
0.0 0.0 0.0 
1.171152825926e-03 7.918632351489e-04 0.0 
7.918632351489e-04 4.181611968400e-03 0.0 
0.0 0.0 0.0 
-1.674119858046e-03 1.099614689702e-03 0.0 
1.099614689702e-03 1.589565718781e-02 0.0 
0.0 0.0 0.0 
3.775908861354e-04 1.980560640638e-04 0.0 
1.980560640638e-04 1.784712924049e-03 0.0 
0.0 0.0 0.0 
5.121041202598e-04 1.095983245746e-03 0.0 
1.095983245746e-03 7.736280053141e-03 0.0 
0.0 0.0 0.0 
3.347359643864e-04 -3.296696883448e-04 0.0 
-3.296696883448e-04 1.610617312439e-03 0.0 
0.0 0.0 0.0 
6.048219063648e-04 -5.882158741123e-05 0.0 
-5.882158741123e-05 2.507338378953e-03 0.0 
0.0 0.0 0.0 
1.086810876106e-03 1.465260531326e-03 0.0 
1.465260531326e-03 7.052837370853e-03 0.0 
0.0 0.0 0.0 
1.082489061394e-03 2.601094544325e-04 0.0 
2.601094544325e-04 4.205036733512e-03 0.0 
0.0 0.0 0.0 
6.890938754873e-04 1.931169477482e-03 0.0 
1.931169477482e-03 8.632022615246e-03 0.0 
0.0 0.0 0.0 
3.444584503900e-04 1.441028384403e-03 0.0 
1.441028384403e-03 5.947400144242e-03 0.0 
0.0 0.0 0.0 
-1.464362944418e-03 1.674585285259e-03 0.0 
1.674585285259e-03 1.562163843000e-02 0.0 
0.0 0.0 0.0 
7.017606343258e-04 1.930284099548e-03 0.0 
1.930284099548e-03 8.632469333125e-03 0.0 
0.0 0.0 0.0 
-1.340927071947e-03 6.716551253021e-04 0.0 
6.716551253021e-04 1.611991683397e-02 0.0 
0.0 0.0 0.0 
-7.083398873673e-04 2.454229629882e-03 0.0 
2.454229629882e-03 1.499089789862e-02 0.0 
0.0 0.0 0.0 
-1.397163641694e-03 1.193352120620e-03 0.0 
1.193352120620e-03 1.637914848346e-02 0.0 
0.0 0.0 0.0 
-1.314042974154e-03 1.453809021076e-03 0.0 
1.453809021076e-03 1.631096345047e-02 0.0 
0.0 0.0 0.0 
4.226925703184e-04 6.614373738310e-04 0.0 
6.614373738310e-04 2.526186339617e-03 0.0 
0.0 0.0 0.0 
6.630403439540e-04 5.428369128508e-04 0.0 
5.428369128508e-04 6.630200357509e-03 0.0 
0.0 0.0 0.0 
-1.321247398259e-03 1.181952570468e-03 0.0 
1.181952570468e-03 1.612116916915e-02 0.0 
0.0 0.0 0.0 
1.193512458407e-03 1.241491507662e-03 0.0 
1.241491507662e-03 5.583527846193e-03 0.0 
0.0 0.0 0.0 
-1.182702630146e-03 1.703768944491e-03 0.0 
1.703768944491e-03 8.991873064331e-03 0.0 
0.0 0.0 0.0 
4.633973938457e-04 2.047480804657e-03 0.0 
2.047480804657e-03 9.155712814416e-03 0.0 
0.0 0.0 0.0 
7.089037511414e-04 3.995331799805e-04 0.0 
3.995331799805e-04 2.513172250036e-03 0.0 
0.0 0.0 0.0 
5.466164990073e-04 -1.588309250560e-04 0.0 
-1.588309250560e-04 2.338065973140e-03 0.0 
0.0 0.0 0.0 
9.143194815999e-04 1.833201934035e-03 0.0 
1.833201934035e-03 8.075947795113e-03 0.0 
0.0 0.0 0.0 
3.305174029600e-04 -5.602464206710e-05 0.0 
-5.602464206710e-05 1.381672654769e-03 0.0 
0.0 0.0 0.0 
7.984131100913e-04 1.580291796120e-03 0.0 
1.580291796120e-03 6.944779974683e-03 0.0 
0.0 0.0 0.0 
1.042891300262e-03 1.414104425777e-03 0.0 
1.414104425777e-03 7.095535061232e-03 0.0 
0.0 0.0 0.0 
-1.056035745698e-03 1.606132268116e-03 0.0 
1.606132268116e-03 1.649298884724e-02 0.0 
0.0 0.0 0.0 
-9.161664076085e-04 1.880116863077e-03 0.0 
1.880116863077e-03 1.634304081508e-02 0.0 
0.0 0.0 0.0 
9.737728519599e-04 1.354160423060e-03 0.0 
1.354160423060e-03 7.069609988904e-03 0.0 
0.0 0.0 0.0 
-1.245747976394e-03 1.119267235328e-03 0.0 
1.119267235328e-03 1.661248582898e-02 0.0 
0.0 0.0 0.0 
1.176752155688e-03 9.682672807692e-04 0.0 
9.682672807692e-04 4.636457157264e-03 0.0 
0.0 0.0 0.0 
2.887598229737e-04 2.368200185139e-03 0.0 
2.368200185139e-03 1.040508944920e-02 0.0 
0.0 0.0 0.0 
-1.185907143193e-03 1.702530097672e-03 0.0 
1.702530097672e-03 1.038493100950e-02 0.0 
0.0 0.0 0.0 
-1.814501897506e-04 2.685658729608e-03 0.0 
2.685658729608e-03 1.322424334821e-02 0.0 
0.0 0.0 0.0 
-1.295581662881e-03 1.723266337975e-03 0.0 
1.723266337975e-03 1.183247874596e-02 0.0 
0.0 0.0 0.0 
-1.457030479290e-03 1.731826759740e-03 0.0 
1.731826759740e-03 1.258721924364e-02 0.0 
0.0 0.0 0.0 
1.269125282301e-03 9.913874334692e-04 0.0 
9.913874334692e-04 5.087418622554e-03 0.0 
0.0 0.0 0.0 
-2.098352328635e-03 1.763989104814e-03 0.0 
1.763989104814e-03 1.346760254148e-02 0.0 
0.0 0.0 0.0 
9.027480451105e-04 1.610912543785e-03 0.0 
1.610912543785e-03 7.237551285476e-03 0.0 
0.0 0.0 0.0 
9.384156658592e-04 1.231131260206e-03 0.0 
1.231131260206e-03 5.769920970042e-03 0.0 
0.0 0.0 0.0 
1.165160168272e-03 6.064802120918e-04 0.0 
6.064802120918e-04 4.720597317105e-03 0.0 
0.0 0.0 0.0 
5.866409207524e-04 2.293527635427e-05 0.0 
2.293527635427e-05 1.953843731453e-03 0.0 
0.0 0.0 0.0 
1.272389293973e-03 8.182000175473e-04 0.0 
8.182000175473e-04 4.649168363448e-03 0.0 
0.0 0.0 0.0 
-8.860480648949e-04 1.026968828262e-03 0.0 
1.026968828262e-03 1.682843603279e-02 0.0 
0.0 0.0 0.0 
-3.715259232294e-04 2.645987529800e-03 0.0 
2.645987529800e-03 1.417723382123e-02 0.0 
0.0 0.0 0.0 
7.795537724078e-04 4.745251254307e-04 0.0 
4.745251254307e-04 6.125129682570e-03 0.0 
0.0 0.0 0.0 
7.557905442117e-04 1.974141342115e-03 0.0 
1.974141342115e-03 8.613212663795e-03 0.0 
0.0 0.0 0.0 
1.204048957200e-03 3.868749682402e-04 0.0 
3.868749682402e-04 4.184506296923e-03 0.0 
0.0 0.0 0.0 
-1.124108162251e-03 1.379908495695e-03 0.0 
1.379908495695e-03 1.631918357776e-02 0.0 
0.0 0.0 0.0 
1.287723959742e-03 7.596600200909e-04 0.0 
7.596600200909e-04 4.697018359049e-03 0.0 
0.0 0.0 0.0 
5.811372680566e-04 5.069835630732e-04 0.0 
5.069835630732e-04 6.831238489025e-03 0.0 
0.0 0.0 0.0 
-1.192757121494e-03 1.122395607022e-03 0.0 
1.122395607022e-03 1.638678927849e-02 0.0 
0.0 0.0 0.0 
-1.411448896011e-03 1.556645187434e-03 0.0 
1.556645187434e-03 1.599055016401e-02 0.0 
0.0 0.0 0.0 
1.200319505362e-03 1.115149128832e-03 0.0 
1.115149128832e-03 6.134855260381e-03 0.0 
0.0 0.0 0.0 
1.235638059309e-03 8.876994719167e-04 0.0 
8.876994719167e-04 4.628233313319e-03 0.0 
0.0 0.0 0.0 
2.479270116207e-04 2.491869020687e-03 0.0 
2.491869020687e-03 1.083905320898e-02 0.0 
0.0 0.0 0.0 
-1.632644094804e-04 2.342131852189e-03 0.0 
2.342131852189e-03 1.088484149215e-02 0.0 
0.0 0.0 0.0 
4.870935801451e-04 -1.785365161350e-04 0.0 
-1.785365161350e-04 1.986622773582e-03 0.0 
0.0 0.0 0.0 
6.104884196549e-04 1.517398897113e-04 0.0 
1.517398897113e-04 2.553482705159e-03 0.0 
0.0 0.0 0.0 
6.126011716385e-04 1.525351030635e-03 0.0 
1.525351030635e-03 5.664500335611e-03 0.0 
0.0 0.0 0.0 
4.837518629806e-04 2.061490450035e-03 0.0 
2.061490450035e-03 8.445738956354e-03 0.0 
0.0 0.0 0.0 
4.978187284022e-04 4.636444169004e-04 0.0 
4.636444169004e-04 7.041169368462e-03 0.0 
0.0 0.0 0.0 
-1.514753750878e-03 1.284072885227e-03 0.0 
1.284072885227e-03 1.610972125500e-02 0.0 
0.0 0.0 0.0 
1.122589568945e-03 7.109007396161e-04 0.0 
7.109007396161e-04 4.655949161007e-03 0.0 
0.0 0.0 0.0 
3.193333548712e-04 2.160576716559e-03 0.0 
2.160576716559e-03 9.557857497517e-03 0.0 
0.0 0.0 0.0 
9.823778434463e-04 1.376163871086e-03 0.0 
1.376163871086e-03 7.177203477862e-03 0.0 
0.0 0.0 0.0 
-1.117638715153e-03 8.343800605663e-04 0.0 
8.343800605663e-04 1.677862805079e-02 0.0 
0.0 0.0 0.0 
1.221873053734e-04 2.640820256835e-03 0.0 
2.640820256835e-03 1.148647622087e-02 0.0 
0.0 0.0 0.0 
-1.548167883714e-03 1.045982170759e-03 0.0 
1.045982170759e-03 1.562107305821e-02 0.0 
0.0 0.0 0.0 
8.731918682363e-04 1.117036912607e-03 0.0 
1.117036912607e-03 7.017015175619e-03 0.0 
0.0 0.0 0.0 
1.169621464924e-03 7.766926601620e-04 0.0 
7.766926601620e-04 5.135952409742e-03 0.0 
0.0 0.0 0.0 
8.687787663066e-04 1.268606982618e-03 0.0 
1.268606982618e-03 7.187372345753e-03 0.0 
0.0 0.0 0.0 
8.648716057309e-04 1.728362038495e-03 0.0 
1.728362038495e-03 6.922284335547e-03 0.0 
0.0 0.0 0.0 
-1.006130298972e-03 1.286498161893e-03 0.0 
1.286498161893e-03 1.681620257867e-02 0.0 
0.0 0.0 0.0 
4.282384119980e-06 2.775241129660e-03 0.0 
2.775241129660e-03 1.217351667924e-02 0.0 
0.0 0.0 0.0 
1.260517541226e-03 9.921480736587e-04 0.0 
9.921480736587e-04 5.640838204127e-03 0.0 
0.0 0.0 0.0 
6.127665022819e-04 2.429629886000e-04 0.0 
2.429629886000e-04 2.162672863001e-03 0.0 
0.0 0.0 0.0 
7.126439201857e-04 2.228574021294e-03 0.0 
2.228574021294e-03 9.229831323198e-03 0.0 
0.0 0.0 0.0 
8.157948471448e-04 1.675476288779e-03 0.0 
1.675476288779e-03 7.382700971156e-03 0.0 
0.0 0.0 0.0 
1.070681827767e-03 7.802390362940e-04 0.0 
7.802390362940e-04 4.666422599272e-03 0.0 
0.0 0.0 0.0 
1.112330727015e-03 1.037532232592e-03 0.0 
1.037532232592e-03 6.096526222631e-03 0.0 
0.0 0.0 0.0 
8.310376565039e-04 8.619053729956e-04 0.0 
8.619053729956e-04 6.635053452149e-03 0.0 
0.0 0.0 0.0 
5.157331990460e-04 -2.077889583066e-07 0.0 
-2.077889583066e-07 2.202695671814e-03 0.0 
0.0 0.0 0.0 
1.289431640358e-03 8.732900650627e-04 0.0 
8.732900650627e-04 5.162058103641e-03 0.0 
0.0 0.0 0.0 
-7.034358480346e-04 2.309172508678e-03 0.0 
2.309172508678e-03 1.268916769338e-02 0.0 
0.0 0.0 0.0 
4.631613242674e-04 3.810600205552e-04 0.0 
3.810600205552e-04 7.052896701620e-03 0.0 
0.0 0.0 0.0 
-4.737314234692e-04 2.387974429661e-03 0.0 
2.387974429661e-03 1.229986291569e-02 0.0 
0.0 0.0 0.0 
6.761328273714e-04 2.266686086264e-03 0.0 
2.266686086264e-03 9.358129015494e-03 0.0 
0.0 0.0 0.0 
-9.400320966290e-04 2.196296804716e-03 0.0 
2.196296804716e-03 1.309455283808e-02 0.0 
0.0 0.0 0.0 
-1.398712517277e-03 1.827769483483e-03 0.0 
1.827769483483e-03 1.394045530202e-02 0.0 
0.0 0.0 0.0 
3.930126142659e-05 2.348306757617e-03 0.0 
2.348306757617e-03 1.054227929064e-02 0.0 
0.0 0.0 0.0 
8.672701722028e-04 1.787780978144e-03 0.0 
1.787780978144e-03 8.087442988014e-03 0.0 
0.0 0.0 0.0 
6.826123761048e-04 4.972028639234e-04 0.0 
4.972028639234e-04 6.455346389869e-03 0.0 
0.0 0.0 0.0 
-1.421580448490e-03 1.265124699673e-03 0.0 
1.265124699673e-03 1.581367243363e-02 0.0 
0.0 0.0 0.0 
-7.597904441632e-04 1.824280087142e-03 0.0 
1.824280087142e-03 1.634942732561e-02 0.0 
0.0 0.0 0.0 
-1.177180434314e-03 2.040869144708e-03 0.0 
2.040869144708e-03 1.351187195116e-02 0.0 
0.0 0.0 0.0 
9.671597067931e-04 4.965653239423e-04 0.0 
4.965653239423e-04 3.779804424230e-03 0.0 
0.0 0.0 0.0 
4.801993342285e-04 2.318274764519e-03 0.0 
2.318274764519e-03 9.848912375094e-03 0.0 
0.0 0.0 0.0 
-8.966351158096e-04 9.903344797916e-04 0.0 
9.903344797916e-04 1.701423221800e-02 0.0 
0.0 0.0 0.0 
1.059932867024e-03 1.489001273816e-03 0.0 
1.489001273816e-03 6.189032783184e-03 0.0 
0.0 0.0 0.0 
9.822974392375e-04 1.653463440836e-03 0.0 
1.653463440836e-03 6.763487231163e-03 0.0 
0.0 0.0 0.0 
1.060173943077e-03 5.995952492013e-04 0.0 
5.995952492013e-04 4.212384697841e-03 0.0 
0.0 0.0 0.0 
-1.320155446799e-03 1.553767299554e-03 0.0 
1.553767299554e-03 1.563701865314e-02 0.0 
0.0 0.0 0.0 
2.386476309231e-04 1.873140464515e-03 0.0 
1.873140464515e-03 7.266556428436e-03 0.0 
0.0 0.0 0.0 
1.056082670962e-03 1.681262508199e-03 0.0 
1.681262508199e-03 7.114906924789e-03 0.0 
0.0 0.0 0.0 
1.897723995699e-04 1.724733745005e-03 0.0 
1.724733745005e-03 7.286963592304e-03 0.0 
0.0 0.0 0.0 
1.006438947007e-03 1.649687072015e-03 0.0 
1.649687072015e-03 7.553837304722e-03 0.0 
0.0 0.0 0.0 
3.517028983442e-04 2.477074142880e-03 0.0 
2.477074142880e-03 1.032373091087e-02 0.0 
0.0 0.0 0.0 
1.106289270981e-03 5.367632617672e-04 0.0 
5.367632617672e-04 4.229428933947e-03 0.0 
0.0 0.0 0.0 
3.357687109307e-05 -1.007001714013e-04 0.0 
-1.007001714013e-04 1.454348127751e-03 0.0 
0.0 0.0 0.0 
-6.907644656822e-04 2.156059813844e-03 0.0 
2.156059813844e-03 1.575607240755e-02 0.0 
0.0 0.0 0.0 
1.286994673906e-04 1.972383041776e-03 0.0 
1.972383041776e-03 7.968359501738e-03 0.0 
0.0 0.0 0.0 
1.242744688389e-03 5.212571705867e-04 0.0 
5.212571705867e-04 4.506304632894e-03 0.0 
0.0 0.0 0.0 
6.234539286272e-04 2.385088200829e-03 0.0 
2.385088200829e-03 9.716797474871e-03 0.0 
0.0 0.0 0.0 
-1.597359001746e-03 1.397510858129e-03 0.0 
1.397510858129e-03 1.579855727264e-02 0.0 
0.0 0.0 0.0 
7.553993654916e-04 5.297166759331e-04 0.0 
5.297166759331e-04 6.267264367244e-03 0.0 
0.0 0.0 0.0 
9.785233203037e-04 1.048284162838e-03 0.0 
1.048284162838e-03 5.225728617180e-03 0.0 
0.0 0.0 0.0 
-3.738166124201e-05 5.075750165463e-05 0.0 
5.075750165463e-05 1.131539115986e-03 0.0 
0.0 0.0 0.0 
3.882616118283e-04 3.245053492053e-04 0.0 
3.245053492053e-04 7.298411055340e-03 0.0 
0.0 0.0 0.0 
6.426181832020e-04 2.009880893726e-03 0.0 
2.009880893726e-03 8.196184700023e-03 0.0 
0.0 0.0 0.0 
9.173547258496e-04 1.622193781684e-03 0.0 
1.622193781684e-03 7.578501591872e-03 0.0 
0.0 0.0 0.0 
4.192437706230e-04 2.574941994361e-03 0.0 
2.574941994361e-03 1.064160058426e-02 0.0 
0.0 0.0 0.0 
-3.833867512275e-04 4.922099997190e-05 0.0 
4.922099997190e-05 8.400956355172e-04 0.0 
0.0 0.0 0.0 
8.348749517220e-04 6.183082688330e-04 0.0 
6.183082688330e-04 6.253084156462e-03 0.0 
0.0 0.0 0.0 
6.244913494409e-04 7.971143082712e-04 0.0 
7.971143082712e-04 3.935278906076e-03 0.0 
0.0 0.0 0.0 
-1.761041786682e-03 1.215476694017e-03 0.0 
1.215476694017e-03 1.560260181642e-02 0.0 
0.0 0.0 0.0 
8.839154303761e-04 1.562757767988e-04 0.0 
1.562757767988e-04 4.715259067881e-03 0.0 
0.0 0.0 0.0 
1.223897123784e-03 7.144821197645e-04 0.0 
7.144821197645e-04 4.199164666945e-03 0.0 
0.0 0.0 0.0 
5.362835400886e-04 4.258149625836e-04 0.0 
4.258149625836e-04 6.844021605228e-03 0.0 
0.0 0.0 0.0 
9.851880579754e-04 1.744485417670e-03 0.0 
1.744485417670e-03 7.216742842310e-03 0.0 
0.0 0.0 0.0 
1.144594536421e-03 6.200728925849e-04 0.0 
6.200728925849e-04 3.762731838026e-03 0.0 
0.0 0.0 0.0 
4.585632449001e-04 2.033605509657e-03 0.0 
2.033605509657e-03 8.877408529849e-03 0.0 
0.0 0.0 0.0 
-1.173109610243e-04 -2.161926877910e-04 0.0 
-2.161926877910e-04 1.180085485460e-03 0.0 
0.0 0.0 0.0 
4.316689746870e-04 2.234155102733e-03 0.0 
2.234155102733e-03 9.739610574148e-03 0.0 
0.0 0.0 0.0 
8.917401416182e-04 1.542106420462e-03 0.0 
1.542106420462e-03 7.570585261118e-03 0.0 
0.0 0.0 0.0 
-1.060492717750e-04 2.797535214892e-03 0.0 
2.797535214892e-03 1.276843485682e-02 0.0 
0.0 0.0 0.0 
3.847624318529e-04 2.354077730478e-03 0.0 
2.354077730478e-03 1.018633015775e-02 0.0 
0.0 0.0 0.0 
7.827709736032e-04 2.314453656495e-04 0.0 
2.314453656495e-04 2.957042535019e-03 0.0 
0.0 0.0 0.0 
7.157620430418e-04 3.925772559900e-04 0.0 
3.925772559900e-04 6.138419913440e-03 0.0 
0.0 0.0 0.0 
-6.311478520480e-04 1.198097922188e-03 0.0 
1.198097922188e-03 1.703559457278e-02 0.0 
0.0 0.0 0.0 
3.126922836363e-04 2.240850194123e-03 0.0 
2.240850194123e-03 9.691262291998e-03 0.0 
0.0 0.0 0.0 
7.961725733165e-04 1.736861827794e-03 0.0 
1.736861827794e-03 8.090989137740e-03 0.0 
0.0 0.0 0.0 
1.060303926940e-03 9.640228881512e-04 0.0 
9.640228881512e-04 5.153363883368e-03 0.0 
0.0 0.0 0.0 
4.560389227264e-04 2.127470783620e-03 0.0 
2.127470783620e-03 9.304958763324e-03 0.0 
0.0 0.0 0.0 
4.689425221784e-04 3.176441258645e-04 0.0 
3.176441258645e-04 6.930114146774e-03 0.0 
0.0 0.0 0.0 
7.490306252187e-04 -1.742636008818e-05 0.0 
-1.742636008818e-05 4.279752046779e-03 0.0 
0.0 0.0 0.0 
6.058143695187e-04 2.288274276682e-03 0.0 
2.288274276682e-03 9.518984529775e-03 0.0 
0.0 0.0 0.0 
-1.463425304481e-03 9.668619561858e-04 0.0 
9.668619561858e-04 1.591005354623e-02 0.0 
0.0 0.0 0.0 
6.105686425208e-04 4.650764432157e-04 0.0 
4.650764432157e-04 6.642443979987e-03 0.0 
0.0 0.0 0.0 
7.189175090845e-04 6.565616923429e-04 0.0 
6.565616923429e-04 6.598992317429e-03 0.0 
0.0 0.0 0.0 
-1.046156619335e-03 -4.328200632743e-06 0.0 
-4.328200632743e-06 1.444854229852e-02 0.0 
0.0 0.0 0.0 
-1.041781345442e-03 1.352141044421e-05 0.0 
1.352141044421e-05 1.444308123872e-02 0.0 
0.0 0.0 0.0 
-8.727603018234e-04 2.318284269553e-03 0.0 
2.318284269553e-03 1.335679343083e-02 0.0 
0.0 0.0 0.0 
6.388474038450e-04 2.182336516695e-03 0.0 
2.182336516695e-03 9.069173528266e-03 0.0 
0.0 0.0 0.0 
8.440656289577e-04 1.570934451300e-04 0.0 
1.570934451300e-04 4.898739098373e-03 0.0 
0.0 0.0 0.0 
-1.524661754626e-04 2.368859135319e-03 0.0 
2.368859135319e-03 1.125477919473e-02 0.0 
0.0 0.0 0.0 
1.071888276594e-03 1.578596299617e-03 0.0 
1.578596299617e-03 6.643631461181e-03 0.0 
0.0 0.0 0.0 
6.981749903909e-04 1.426222198700e-03 0.0 
1.426222198700e-03 7.810171341392e-03 0.0 
0.0 0.0 0.0 
1.158911918956e-03 1.145769458210e-03 0.0 
1.145769458210e-03 5.125645989996e-03 0.0 
0.0 0.0 0.0 
-3.490509988663e-04 1.995588712776e-03 0.0 
1.995588712776e-03 1.685349423880e-02 0.0 
0.0 0.0 0.0 
-1.525614677322e-03 1.728610194837e-03 0.0 
1.728610194837e-03 1.375853433411e-02 0.0 
0.0 0.0 0.0 
9.042247666593e-04 1.505957008102e-03 0.0 
1.505957008102e-03 6.786461563857e-03 0.0 
0.0 0.0 0.0 
9.674290774788e-04 2.422568765516e-04 0.0 
2.422568765516e-04 4.700850419319e-03 0.0 
0.0 0.0 0.0 
6.857743958499e-04 3.200896881502e-04 0.0 
3.200896881502e-04 2.945497026127e-03 0.0 
0.0 0.0 0.0 
9.176537160192e-04 6.562363940705e-05 0.0 
6.562363940705e-05 4.099152464733e-03 0.0 
0.0 0.0 0.0 
6.517404326913e-04 2.091077920345e-03 0.0 
2.091077920345e-03 8.628294486280e-03 0.0 
0.0 0.0 0.0 
3.449105954454e-04 2.176041458177e-03 0.0 
2.176041458177e-03 9.134199673600e-03 0.0 
0.0 0.0 0.0 
-1.489770215785e-03 1.375552371118e-03 0.0 
1.375552371118e-03 1.545669202176e-02 0.0 
0.0 0.0 0.0 
7.355283267740e-05 2.426242358438e-03 0.0 
2.426242358438e-03 1.092741548747e-02 0.0 
0.0 0.0 0.0 
-1.259057178116e-04 2.452678511254e-03 0.0 
2.452678511254e-03 1.161586481947e-02 0.0 
0.0 0.0 0.0 
2.164855322657e-04 -7.460499677526e-05 0.0 
-7.460499677526e-05 9.921868955722e-04 0.0 
0.0 0.0 0.0 
9.594843318745e-04 8.641591466070e-05 0.0 
8.641591466070e-05 3.833231789166e-03 0.0 
0.0 0.0 0.0 
8.614060992174e-05 1.847760269526e-03 0.0 
1.847760269526e-03 7.983036050654e-03 0.0 
0.0 0.0 0.0 
-3.240429490120e-04 2.375128752403e-03 0.0 
2.375128752403e-03 1.159898167387e-02 0.0 
0.0 0.0 0.0 
-5.031986532670e-04 2.397046117628e-03 0.0 
2.397046117628e-03 1.229835122221e-02 0.0 
0.0 0.0 0.0 
8.009604760622e-04 1.722404275734e-03 0.0 
1.722404275734e-03 8.104186785613e-03 0.0 
0.0 0.0 0.0 
3.724459770669e-04 3.102550134433e-05 0.0 
3.102550134433e-05 1.553949593361e-03 0.0 
0.0 0.0 0.0 
4.034133637840e-04 -1.291521144794e-04 0.0 
-1.291521144794e-04 1.896940670723e-03 0.0 
0.0 0.0 0.0 
7.613732805565e-04 1.874651588069e-03 0.0 
1.874651588069e-03 7.549091952599e-03 0.0 
0.0 0.0 0.0 
8.726542656448e-04 -2.286303536318e-06 0.0 
-2.286303536318e-06 3.847099164822e-03 0.0 
0.0 0.0 0.0 
-1.568767918964e-03 1.827740328037e-03 0.0 
1.827740328037e-03 1.256866184414e-02 0.0 
0.0 0.0 0.0 
-1.765930155652e-03 1.853099234304e-03 0.0 
1.853099234304e-03 1.345362575458e-02 0.0 
0.0 0.0 0.0 
-1.636036263060e-03 1.535412210149e-03 0.0 
1.535412210149e-03 1.543844765535e-02 0.0 
0.0 0.0 0.0 
1.779672009972e-04 5.284653122049e-04 0.0 
5.284653122049e-04 2.647190102324e-03 0.0 
0.0 0.0 0.0 
9.369731329973e-04 1.668656135493e-04 0.0 
1.668656135493e-04 4.440901928709e-03 0.0 
0.0 0.0 0.0 
9.281634875815e-04 1.096016333139e-03 0.0 
1.096016333139e-03 6.747976993363e-03 0.0 
0.0 0.0 0.0 
4.987991765371e-04 1.021463679415e-04 0.0 
1.021463679415e-04 1.846210584628e-03 0.0 
0.0 0.0 0.0 
1.445918106178e-04 2.740626042818e-03 0.0 
2.740626042818e-03 1.132481024137e-02 0.0 
0.0 0.0 0.0 
-1.170098368117e-03 1.360485454458e-03 0.0 
1.360485454458e-03 1.658237221918e-02 0.0 
0.0 0.0 0.0 
8.322709554198e-04 2.658783510104e-05 0.0 
2.658783510104e-05 4.202945405483e-03 0.0 
0.0 0.0 0.0 
7.026801774623e-04 4.453409140867e-04 0.0 
4.453409140867e-04 6.321851401031e-03 0.0 
0.0 0.0 0.0 
1.972286747889e-04 -9.990556463313e-05 0.0 
-9.990556463313e-05 6.789658350688e-04 0.0 
0.0 0.0 0.0 
9.737649013082e-04 9.232815718574e-04 0.0 
9.232815718574e-04 6.341472711245e-03 0.0 
0.0 0.0 0.0 
5.863141192255e-04 1.893309537544e-03 0.0 
1.893309537544e-03 8.213524834353e-03 0.0 
0.0 0.0 0.0 
2.089403800880e-04 -7.389545202509e-05 0.0 
-7.389545202509e-05 6.686155240427e-04 0.0 
0.0 0.0 0.0 
-9.785105024793e-04 1.311728178827e-03 0.0 
1.311728178827e-03 1.658633376514e-02 0.0 
0.0 0.0 0.0 
2.824230210978e-04 -5.701870523630e-05 0.0 
-5.701870523630e-05 1.827177133382e-03 0.0 
0.0 0.0 0.0 
-3.489435375260e-04 2.356594109003e-03 0.0 
2.356594109003e-03 1.160195866023e-02 0.0 
0.0 0.0 0.0 
3.023367896737e-04 2.077214456385e-03 0.0 
2.077214456385e-03 9.147704874810e-03 0.0 
0.0 0.0 0.0 
1.137294844971e-03 4.155258278931e-04 0.0 
4.155258278931e-04 4.423386031944e-03 0.0 
0.0 0.0 0.0 
1.139918819559e-03 5.906500721292e-04 0.0 
5.906500721292e-04 5.246206158509e-03 0.0 
0.0 0.0 0.0 
-8.868326826027e-04 1.563035520183e-03 0.0 
1.563035520183e-03 1.649548045493e-02 0.0 
0.0 0.0 0.0 
1.075710934528e-03 7.028909286218e-04 0.0 
7.028909286218e-04 5.737000526983e-03 0.0 
0.0 0.0 0.0 
8.864553366161e-04 1.807956136171e-03 0.0 
1.807956136171e-03 7.362226674455e-03 0.0 
0.0 0.0 0.0 
7.002669827354e-04 1.741430654957e-03 0.0 
1.741430654957e-03 7.569051596023e-03 0.0 
0.0 0.0 0.0 
-1.050668974962e-03 1.357360346989e-03 0.0 
1.357360346989e-03 1.507765171992e-03 0.0 
0.0 0.0 0.0 
2.442144479986e-04 6.291000815162e-05 0.0 
6.291000815162e-05 1.496389887787e-03 0.0 
0.0 0.0 0.0 
4.512547273199e-04 2.346269180219e-03 0.0 
2.346269180219e-03 9.982846463029e-03 0.0 
0.0 0.0 0.0 
-1.566611837638e-03 1.852202054630e-03 0.0 
1.852202054630e-03 1.451844179234e-02 0.0 
0.0 0.0 0.0 
5.902638429376e-04 2.404868202450e-03 0.0 
2.404868202450e-03 9.832290341734e-03 0.0 
0.0 0.0 0.0 
6.914254622326e-04 1.049344856184e-03 0.0 
1.049344856184e-03 3.896693935711e-03 0.0 
0.0 0.0 0.0 
-7.570331338497e-04 2.316605589196e-03 0.0 
2.316605589196e-03 1.423434633777e-02 0.0 
0.0 0.0 0.0 
3.196615684478e-04 2.501795520088e-03 0.0 
2.501795520088e-03 1.064706108531e-02 0.0 
0.0 0.0 0.0 
-1.559598383651e-03 1.816245943936e-03 0.0 
1.816245943936e-03 1.284539113142e-02 0.0 
0.0 0.0 0.0 
5.437772378025e-04 2.399194392364e-03 0.0 
2.399194392364e-03 9.972920877154e-03 0.0 
0.0 0.0 0.0 
6.490464767752e-04 3.642621586333e-04 0.0 
3.642621586333e-04 6.335011695818e-03 0.0 
0.0 0.0 0.0 
7.665548097724e-04 2.043830567848e-03 0.0 
2.043830567848e-03 8.429752389812e-03 0.0 
0.0 0.0 0.0 
9.764098144407e-04 1.634349482649e-04 0.0 
1.634349482649e-04 4.259795068807e-03 0.0 
0.0 0.0 0.0 
9.217465664015e-04 1.527679521136e-04 0.0 
1.527679521136e-04 4.536599859349e-03 0.0 
0.0 0.0 0.0 
-8.639878216449e-04 2.226361515077e-03 0.0 
2.226361515077e-03 1.573871836005e-02 0.0 
0.0 0.0 0.0 
1.172987877595e-03 4.791667252102e-04 0.0 
4.791667252102e-04 4.775468459369e-03 0.0 
0.0 0.0 0.0 
5.109358726367e-04 2.135718533476e-03 0.0 
2.135718533476e-03 8.863217581998e-03 0.0 
0.0 0.0 0.0 
1.200948616721e-03 1.345965284329e-03 0.0 
1.345965284329e-03 6.055156133055e-03 0.0 
0.0 0.0 0.0 
9.727581683117e-04 8.128550475473e-04 0.0 
8.128550475473e-04 6.249078277540e-03 0.0 
0.0 0.0 0.0 
9.757396887384e-04 1.329155233140e-03 0.0 
1.329155233140e-03 6.212797585234e-03 0.0 
0.0 0.0 0.0 
9.688671931403e-04 3.728905179546e-04 0.0 
3.728905179546e-04 2.967313805645e-03 0.0 
0.0 0.0 0.0 
1.272553898682e-03 8.267026121522e-04 0.0 
8.267026121522e-04 5.233627048643e-03 0.0 
0.0 0.0 0.0 
1.032729961887e-03 5.347576894050e-04 0.0 
5.347576894050e-04 3.336956177316e-03 0.0 
0.0 0.0 0.0 
-1.141716975467e-04 2.412424260516e-03 0.0 
2.412424260516e-03 1.124837259385e-02 0.0 
0.0 0.0 0.0 
9.220417463272e-04 3.238053124905e-04 0.0 
3.238053124905e-04 3.370392132844e-03 0.0 
0.0 0.0 0.0 
2.439944656540e-06 2.291951583506e-03 0.0 
2.291951583506e-03 1.055010189976e-02 0.0 
0.0 0.0 0.0 
7.532240977353e-04 1.687995399104e-03 0.0 
1.687995399104e-03 8.103470550797e-03 0.0 
0.0 0.0 0.0 
9.616058132700e-04 1.595536810454e-03 0.0 
1.595536810454e-03 7.577014814014e-03 0.0 
0.0 0.0 0.0 
1.119613723099e-03 1.320153143487e-03 0.0 
1.320153143487e-03 5.643511674010e-03 0.0 
0.0 0.0 0.0 
-1.508741921016e-03 1.512944370980e-03 0.0 
1.512944370980e-03 1.502477136204e-02 0.0 
0.0 0.0 0.0 
6.246632072009e-04 4.102275883922e-04 0.0 
4.102275883922e-04 6.524366956927e-03 0.0 
0.0 0.0 0.0 
5.831308150357e-04 3.303977051770e-04 0.0 
3.303977051770e-04 6.537457195168e-03 0.0 
0.0 0.0 0.0 
-8.402946858954e-05 5.219211244963e-04 0.0 
5.219211244963e-04 2.266987230536e-03 0.0 
0.0 0.0 0.0 
2.219096160017e-04 2.344159785716e-03 0.0 
2.344159785716e-03 1.023573608396e-02 0.0 
0.0 0.0 0.0 
4.127787920836e-04 4.216212177249e-04 0.0 
4.216212177249e-04 7.276015126521e-03 0.0 
0.0 0.0 0.0 
-5.051717896509e-04 1.862021113099e-03 0.0 
1.862021113099e-03 7.727737484359e-03 0.0 
0.0 0.0 0.0 
8.286362201724e-04 8.979535998765e-05 0.0 
8.979535998765e-05 4.636079928802e-03 0.0 
0.0 0.0 0.0 
-9.288818972734e-04 1.079675609552e-03 0.0 
1.079675609552e-03 2.126794902218e-03 0.0 
0.0 0.0 0.0 
5.485198768695e-04 3.696576910844e-04 0.0 
3.696576910844e-04 6.730275834866e-03 0.0 
0.0 0.0 0.0 
8.883748256652e-04 4.598900128935e-04 0.0 
4.598900128935e-04 2.921153993108e-03 0.0 
0.0 0.0 0.0 
7.590377172693e-04 3.853508184052e-05 0.0 
3.853508184052e-05 4.415360218648e-03 0.0 
0.0 0.0 0.0 
1.047700962722e-03 1.751966489597e-03 0.0 
1.751966489597e-03 7.562540993169e-03 0.0 
0.0 0.0 0.0 
-1.632381264711e-03 1.678212249779e-03 0.0 
1.678212249779e-03 1.500383141336e-02 0.0 
0.0 0.0 0.0 
-1.503498574608e-03 1.665068124734e-03 0.0 
1.665068124734e-03 1.454254326990e-02 0.0 
0.0 0.0 0.0 
7.754869738474e-04 1.955122919669e-03 0.0 
1.955122919669e-03 7.985518227848e-03 0.0 
0.0 0.0 0.0 
-1.386341683547e-03 1.745410986522e-03 0.0 
1.745410986522e-03 1.108123159152e-02 0.0 
0.0 0.0 0.0 
-1.441483337549e-03 1.796228475019e-03 0.0 
1.796228475019e-03 1.182186242668e-02 0.0 
0.0 0.0 0.0 
5.194990491737e-04 2.911070531227e-04 0.0 
2.911070531227e-04 6.743365035333e-03 0.0 
0.0 0.0 0.0 
1.021377703864e-03 6.156215082445e-04 0.0 
6.156215082445e-04 5.597955554676e-03 0.0 
0.0 0.0 0.0 
1.143254123952e-03 5.389533919928e-04 0.0 
5.389533919928e-04 4.877775395465e-03 0.0 
0.0 0.0 0.0 
1.094157860011e-03 1.035085290241e-03 0.0 
1.035085290241e-03 6.327073808154e-03 0.0 
0.0 0.0 0.0 
1.284647629794e-03 7.103426130067e-04 0.0 
7.103426130067e-04 4.767447106292e-03 0.0 
0.0 0.0 0.0 
8.431978259025e-04 4.027025766248e-04 0.0 
4.027025766248e-04 3.357243617029e-03 0.0 
0.0 0.0 0.0 
-1.185995874215e-03 1.681689203586e-03 0.0 
1.681689203586e-03 1.109317667249e-02 0.0 
0.0 0.0 0.0 
-1.691117657958e-03 1.752001009179e-03 0.0 
1.752001009179e-03 1.433927439079e-02 0.0 
0.0 0.0 0.0 
-1.042021578491e-03 2.680426950939e-06 0.0 
2.680426950939e-06 1.445553020572e-02 0.0 
0.0 0.0 0.0 
8.498794307426e-04 1.497300352936e-03 0.0 
1.497300352936e-03 7.591490022313e-03 0.0 
0.0 0.0 0.0 
1.028339534547e-03 1.147679383763e-03 0.0 
1.147679383763e-03 5.668986126582e-03 0.0 
0.0 0.0 0.0 
5.928897395096e-04 2.119434208224e-03 0.0 
2.119434208224e-03 9.140243246700e-03 0.0 
0.0 0.0 0.0 
5.115591960432e-04 1.494156215829e-04 0.0 
1.494156215829e-04 6.589964136046e-03 0.0 
0.0 0.0 0.0 
1.167789586930e-03 7.335125198364e-04 0.0 
7.335125198364e-04 5.184836475331e-03 0.0 
0.0 0.0 0.0 
2.955815331507e-04 4.202489953635e-04 0.0 
4.202489953635e-04 7.614091617864e-03 0.0 
0.0 0.0 0.0 
9.793325563958e-04 2.633378710016e-04 0.0 
2.633378710016e-04 3.414202219818e-03 0.0 
0.0 0.0 0.0 
6.378759330317e-04 2.160867985676e-03 0.0 
2.160867985676e-03 9.139850706991e-03 0.0 
0.0 0.0 0.0 
7.096031357554e-04 1.835411579575e-03 0.0 
1.835411579575e-03 8.003903461754e-03 0.0 
0.0 0.0 0.0 
8.528704614517e-04 1.992526749740e-03 0.0 
1.992526749740e-03 8.266167452631e-03 0.0 
0.0 0.0 0.0 
7.059342530922e-04 1.188381736730e-03 0.0 
1.188381736730e-03 7.434910179523e-03 0.0 
0.0 0.0 0.0 
8.367146778645e-04 -1.156036366152e-04 0.0 
-1.156036366152e-04 3.116191648655e-03 0.0 
0.0 0.0 0.0 
3.696021614525e-04 2.251642654432e-03 0.0 
2.251642654432e-03 9.547308756555e-03 0.0 
0.0 0.0 0.0 
1.161474974504e-03 5.695009860298e-04 0.0 
5.695009860298e-04 4.789615255170e-03 0.0 
0.0 0.0 0.0 
1.565629759306e-04 2.193486222303e-03 0.0 
2.193486222303e-03 9.843794399212e-03 0.0 
0.0 0.0 0.0 
6.203120832664e-04 9.764620108599e-04 0.0 
9.764620108599e-04 4.468650939699e-03 0.0 
0.0 0.0 0.0 
9.205002424697e-04 1.960414916628e-03 0.0 
1.960414916628e-03 8.162379425958e-03 0.0 
0.0 0.0 0.0 
1.261583136240e-03 5.554022543995e-04 0.0 
5.554022543995e-04 4.400234958644e-03 0.0 
0.0 0.0 0.0 
9.171428416574e-04 2.383354405361e-04 0.0 
2.383354405361e-04 4.884755297240e-03 0.0 
0.0 0.0 0.0 
1.942017096699e-04 2.269227314207e-03 0.0 
2.269227314207e-03 9.833507313423e-03 0.0 
0.0 0.0 0.0 
-6.817167301889e-04 5.980708235892e-04 0.0 
5.980708235892e-04 1.406283193275e-03 0.0 
0.0 0.0 0.0 
1.179503765001e-03 1.459012104055e-03 0.0 
1.459012104055e-03 6.540049596186e-03 0.0 
0.0 0.0 0.0 
-6.003426863926e-04 9.483123599176e-04 0.0 
9.483123599176e-04 2.518934303944e-03 0.0 
0.0 0.0 0.0 
2.187563727503e-04 -1.236950363827e-04 0.0 
-1.236950363827e-04 1.088806812184e-03 0.0 
0.0 0.0 0.0 
8.949342051361e-04 1.671431970011e-04 0.0 
1.671431970011e-04 4.622025464767e-03 0.0 
0.0 0.0 0.0 
1.471447803270e-04 2.484631462647e-03 0.0 
2.484631462647e-03 1.107039899932e-02 0.0 
0.0 0.0 0.0 
-1.297345667900e-03 1.924047934670e-03 0.0 
1.924047934670e-03 1.415220552947e-02 0.0 
0.0 0.0 0.0 
-1.311045943558e-03 1.681816884014e-03 0.0 
1.681816884014e-03 9.675359476383e-03 0.0 
0.0 0.0 0.0 
0.0 2.013479123828e-03 0.0 
2.013479123828e-03 1.673880251521e-02 0.0 
0.0 0.0 0.0 
-9.717509223923e-04 1.135476301690e-03 0.0 
1.135476301690e-03 9.089163240990e-04 0.0 
0.0 0.0 0.0 
-1.319772003858e-03 1.721831912646e-03 0.0 
1.721831912646e-03 1.038265168909e-02 0.0 
0.0 0.0 0.0 
1.232934289372e-03 6.334853811229e-04 0.0 
6.334853811229e-04 4.961878915495e-03 0.0 
0.0 0.0 0.0 
8.085790039070e-04 3.583376999723e-05 0.0 
3.583376999723e-05 4.386345944001e-03 0.0 
0.0 0.0 0.0 
-9.116523845412e-04 2.025035165190e-03 0.0 
2.025035165190e-03 1.073894668515e-02 0.0 
0.0 0.0 0.0 
1.090578179422e-03 2.112905924765e-04 0.0 
2.112905924765e-04 3.228770352174e-03 0.0 
0.0 0.0 0.0 
1.071191719159e-03 4.944658953999e-04 0.0 
4.944658953999e-04 5.112296128289e-03 0.0 
0.0 0.0 0.0 
5.881328386577e-04 1.987363477630e-03 0.0 
1.987363477630e-03 8.644188392009e-03 0.0 
0.0 0.0 0.0 
1.126888707328e-03 1.581838305039e-03 0.0 
1.581838305039e-03 7.040050334234e-03 0.0 
0.0 0.0 0.0 
-1.014169971312e-04 2.644197819418e-03 0.0 
2.644197819418e-03 1.262466999029e-02 0.0 
0.0 0.0 0.0 
1.683329650179e-04 6.561300905298e-04 0.0 
6.561300905298e-04 2.132808206665e-03 0.0 
0.0 0.0 0.0 
9.010145820814e-04 1.048103147684e-04 0.0 
1.048103147684e-04 4.190439253704e-03 0.0 
0.0 0.0 0.0 
8.340324772926e-04 1.134267987151e-04 0.0 
1.134267987151e-04 4.561314979730e-03 0.0 
0.0 0.0 0.0 
5.875209827915e-04 -2.535042279805e-04 0.0 
-2.535042279805e-04 2.277770367026e-03 0.0 
0.0 0.0 0.0 
-1.606839936195e-03 1.615643645000e-03 0.0 
1.615643645000e-03 1.353227516433e-02 0.0 
0.0 0.0 0.0 
-1.335482743619e-03 2.047668644215e-03 0.0 
2.047668644215e-03 1.413506147763e-02 0.0 
0.0 0.0 0.0 
6.224605245035e-04 2.681972554937e-06 0.0 
2.681972554937e-06 5.861987484684e-03 0.0 
0.0 0.0 0.0 
1.375549914822e-04 -8.206269968501e-05 0.0 
-8.206269968501e-05 6.811178198571e-04 0.0 
0.0 0.0 0.0 
-5.950871627811e-04 -1.458222334734e-04 0.0 
-1.458222334734e-04 7.482283762559e-04 0.0 
0.0 0.0 0.0 
3.393529036519e-04 -3.001581729476e-04 0.0 
-3.001581729476e-04 1.574894766491e-03 0.0 
0.0 0.0 0.0 
7.851894776270e-04 4.111854742962e-05 0.0 
4.111854742962e-05 4.573456277718e-03 0.0 
0.0 0.0 0.0 
1.071250289641e-03 3.721740947752e-04 0.0 
3.721740947752e-04 3.838202435356e-03 0.0 
0.0 0.0 0.0 
9.503734402958e-04 8.097689964473e-05 0.0 
8.097689964473e-05 3.154091141027e-03 0.0 
0.0 0.0 0.0 
8.576289531157e-04 1.626479026789e-04 0.0 
1.626479026789e-04 2.999370675153e-03 0.0 
0.0 0.0 0.0 
8.519310069275e-04 1.653547538739e-04 0.0 
1.653547538739e-04 4.809203030282e-03 0.0 
0.0 0.0 0.0 
-8.291847095191e-04 2.263696879377e-03 0.0 
2.263696879377e-03 1.336701640853e-02 0.0 
0.0 0.0 0.0 
7.996803660721e-04 1.115654879622e-04 0.0 
1.115654879622e-04 4.751851976188e-03 0.0 
0.0 0.0 0.0 
1.190566835625e-03 5.502120569549e-04 0.0 
5.502120569549e-04 3.808314115401e-03 0.0 
0.0 0.0 0.0 
1.682812995230e-04 2.275126446510e-03 0.0 
2.275126446510e-03 1.024494683981e-02 0.0 
0.0 0.0 0.0 
-1.388783754009e-03 2.565196905912e-04 0.0 
2.565196905912e-04 1.521998955270e-02 0.0 
0.0 0.0 0.0 
9.433910026511e-04 1.880096438387e-03 0.0 
1.880096438387e-03 8.090741858095e-03 0.0 
0.0 0.0 0.0 
7.615607011628e-04 4.073158274506e-05 0.0 
4.073158274506e-05 4.763962846518e-03 0.0 
0.0 0.0 0.0 
7.959890245746e-04 9.075126796630e-05 0.0 
9.075126796630e-05 4.822705914215e-03 0.0 
0.0 0.0 0.0 
-1.251953524798e-03 1.597687646178e-03 0.0 
1.597687646178e-03 8.289846092691e-03 0.0 
0.0 0.0 0.0 
1.094725298715e-03 3.305430538839e-04 0.0 
3.305430538839e-04 3.902818675907e-03 0.0 
0.0 0.0 0.0 
7.652528873880e-04 1.031192251690e-04 0.0 
1.031192251690e-04 4.942682873661e-03 0.0 
0.0 0.0 0.0 
-9.247747271535e-04 5.058545570075e-05 0.0 
5.058545570075e-05 1.592181227603e-02 0.0 
0.0 0.0 0.0 
-9.842375085610e-04 4.121122030403e-05 0.0 
4.121122030403e-05 1.556411974816e-02 0.0 
0.0 0.0 0.0 
-1.277484990769e-03 1.660903516728e-03 0.0 
1.660903516728e-03 9.000782802361e-03 0.0 
0.0 0.0 0.0 
8.087026206858e-04 1.599659228493e-04 0.0 
1.599659228493e-04 5.001194300511e-03 0.0 
0.0 0.0 0.0 
8.929323336020e-04 -5.450710874076e-05 0.0 
-5.450710874076e-05 2.966433462227e-03 0.0 
0.0 0.0 0.0 
-3.395625951880e-04 1.245944897639e-03 0.0 
1.245944897639e-03 2.935478295801e-03 0.0 
0.0 0.0 0.0 
5.302228878681e-04 2.075626106094e-03 0.0 
2.075626106094e-03 9.160483298100e-03 0.0 
0.0 0.0 0.0 
3.193243268564e-04 -2.213551092815e-04 0.0 
-2.213551092815e-04 1.429520440430e-03 0.0 
0.0 0.0 0.0 
1.018211076820e-03 7.568315096298e-05 0.0 
7.568315096298e-05 3.072982624338e-03 0.0 
0.0 0.0 0.0 
1.033965814406e-03 1.369229210892e-03 0.0 
1.369229210892e-03 6.593617314984e-03 0.0 
0.0 0.0 0.0 
-1.147916325244e-03 1.674067598155e-03 0.0 
1.674067598155e-03 9.673932072726e-03 0.0 
0.0 0.0 0.0 
7.391950967612e-04 3.314255814851e-05 0.0 
3.314255814851e-05 4.960487792652e-03 0.0 
0.0 0.0 0.0 
4.916891634010e-04 -5.793895190372e-05 0.0 
-5.793895190372e-05 2.125742344558e-03 0.0 
0.0 0.0 0.0 
-1.803109410423e-03 1.568500309546e-03 0.0 
1.568500309546e-03 1.424103414723e-02 0.0 
0.0 0.0 0.0 
7.629471430248e-04 8.736615940819e-05 0.0 
8.736615940819e-05 5.014225273827e-03 0.0 
0.0 0.0 0.0 
1.119558631768e-03 3.937231886641e-04 0.0 
3.937231886641e-04 4.528601010429e-03 0.0 
0.0 0.0 0.0 
8.606634495003e-04 8.494990680700e-05 0.0 
8.494990680700e-05 4.454614498910e-03 0.0 
0.0 0.0 0.0 
-5.381684697101e-04 3.411615765678e-04 0.0 
3.411615765678e-04 1.265017444092e-03 0.0 
0.0 0.0 0.0 
-6.372484929552e-04 4.434114350122e-05 0.0 
4.434114350122e-05 1.693433136782e-02 0.0 
0.0 0.0 0.0 
1.049173829439e-03 1.647975187798e-04 0.0 
1.647975187798e-04 3.663438358499e-03 0.0 
0.0 0.0 0.0 
8.224092848921e-04 1.525805495638e-03 0.0 
1.525805495638e-03 7.752861000810e-03 0.0 
0.0 0.0 0.0 
7.634337485030e-04 1.893467743896e-03 0.0 
1.893467743896e-03 8.285281511836e-03 0.0 
0.0 0.0 0.0 
7.654747905981e-04 1.500260176143e-04 0.0 
1.500260176143e-04 5.196153953248e-03 0.0 
0.0 0.0 0.0 
7.308578505536e-04 7.959805776052e-05 0.0 
7.959805776052e-05 5.208523665522e-03 0.0 
0.0 0.0 0.0 
1.138370228442e-03 3.936801384511e-04 0.0 
3.936801384511e-04 3.450773728643e-03 0.0 
0.0 0.0 0.0 
7.814155078778e-06 -2.058326850714e-04 0.0 
-2.058326850714e-04 1.007406190602e-03 0.0 
0.0 0.0 0.0 
-4.250137973822e-04 6.161605090045e-04 0.0 
6.161605090045e-04 1.209479254229e-03 0.0 
0.0 0.0 0.0 
7.231607543579e-04 1.324599088582e-04 0.0 
1.324599088582e-04 5.393775184838e-03 0.0 
0.0 0.0 0.0 
8.066029284683e-04 1.297478310972e-03 0.0 
1.297478310972e-03 7.438799616725e-03 0.0 
0.0 0.0 0.0 
8.231560422947e-04 -1.396537993395e-04 0.0 
-1.396537993395e-04 2.837976215116e-03 0.0 
0.0 0.0 0.0 
3.800487010983e-04 2.333481452320e-03 0.0 
2.333481452320e-03 9.967179760655e-03 0.0 
0.0 0.0 0.0 
-4.371367097108e-04 1.775706327020e-03 0.0 
1.775706327020e-03 7.007765080213e-03 0.0 
0.0 0.0 0.0 
1.969237071076e-05 2.374328603343e-03 0.0 
2.374328603343e-03 1.093494201487e-02 0.0 
0.0 0.0 0.0 
4.038357551277e-04 1.100388768956e-03 0.0 
1.100388768956e-03 8.185564913382e-03 0.0 
0.0 0.0 0.0 
-1.274148717546e-03 -2.352750536695e-05 0.0 
-2.352750536695e-05 6.725618785806e-04 0.0 
0.0 0.0 0.0 
0.0 1.740448557804e-04 0.0 
1.740448557804e-04 1.768437853873e-02 0.0 
0.0 0.0 0.0 
0.0 1.304470184809e-04 0.0 
1.304470184809e-04 8.279096125791e-03 0.0 
0.0 0.0 0.0 
-1.030999948304e-03 -3.693445881997e-05 0.0 
-3.693445881997e-05 1.490404659182e-02 0.0 
0.0 0.0 0.0 
9.838786796661e-04 4.109413119505e-05 0.0 
4.109413119505e-05 3.492706267170e-03 0.0 
0.0 0.0 0.0 
6.924574610858e-04 1.939292539166e-03 0.0 
1.939292539166e-03 8.447532224635e-03 0.0 
0.0 0.0 0.0 
1.029429959706e-03 4.258523304466e-04 0.0 
4.258523304466e-04 3.794468093863e-03 0.0 
0.0 0.0 0.0 
1.668599140499e-04 -2.102035435092e-04 0.0 
-2.102035435092e-04 9.477266084177e-04 0.0 
0.0 0.0 0.0 
-8.766382161447e-04 8.968393306491e-04 0.0 
8.968393306491e-04 1.505203052345e-03 0.0 
0.0 0.0 0.0 
-6.397033581564e-04 5.147044851203e-04 0.0 
5.147044851203e-04 1.718213120585e-02 0.0 
0.0 0.0 0.0 
-1.106079067198e-03 2.203594074231e-03 0.0 
2.203594074231e-03 1.374602006250e-02 0.0 
0.0 0.0 0.0 
-2.087128735236e-03 1.586970714003e-03 0.0 
1.586970714003e-03 1.413642690530e-02 0.0 
0.0 0.0 0.0 
1.715294536295e-04 3.014685160902e-03 0.0 
3.014685160902e-03 1.144213783336e-02 0.0 
0.0 0.0 0.0 
4.097250072828e-04 -5.847736846535e-05 0.0 
-5.847736846535e-05 1.757808756239e-03 0.0 
0.0 0.0 0.0 
1.776659255526e-04 2.880983724769e-03 0.0 
2.880983724769e-03 1.108764895870e-02 0.0 
0.0 0.0 0.0 
-1.065482894909e-03 2.126501068924e-03 0.0 
2.126501068924e-03 1.375888244423e-02 0.0 
0.0 0.0 0.0 
9.096763205076e-04 -4.432118351946e-05 0.0 
-4.432118351946e-05 3.367818710225e-03 0.0 
0.0 0.0 0.0 
8.814203745817e-04 1.895305838065e-03 0.0 
1.895305838065e-03 7.809467885157e-03 0.0 
0.0 0.0 0.0 
1.020999946428e-03 6.453887849481e-05 0.0 
6.453887849481e-05 3.204456909959e-03 0.0 
0.0 0.0 0.0 
-3.337535456145e-04 1.374025279884e-03 0.0 
1.374025279884e-03 3.541662871017e-03 0.0 
0.0 0.0 0.0 
9.346256243428e-04 -1.691166482429e-05 0.0 
-1.691166482429e-05 2.957793969281e-03 0.0 
0.0 0.0 0.0 
-5.956405291918e-04 2.374491100170e-03 0.0 
2.374491100170e-03 1.297628557205e-02 0.0 
0.0 0.0 0.0 
4.476777424494e-04 1.278901571073e-04 0.0 
1.278901571073e-04 6.872541082913e-03 0.0 
0.0 0.0 0.0 
1.100908240505e-03 1.817258323418e-04 0.0 
1.817258323418e-04 3.340069741320e-03 0.0 
0.0 0.0 0.0 
2.385788597921e-04 2.433297541244e-03 0.0 
2.433297541244e-03 1.064227359970e-02 0.0 
0.0 0.0 0.0 
-8.644947005690e-04 -5.147538625605e-05 0.0 
-5.147538625605e-05 4.476905410795e-04 0.0 
0.0 0.0 0.0 
1.161732059128e-03 3.432035014066e-04 0.0 
3.432035014066e-04 3.533909480394e-03 0.0 
0.0 0.0 0.0 
-1.067726005284e-03 2.216417830179e-03 0.0 
2.216417830179e-03 1.456450992406e-02 0.0 
0.0 0.0 0.0 
8.489208799201e-04 -7.161054305980e-05 0.0 
-7.161054305980e-05 2.863673715254e-03 0.0 
0.0 0.0 0.0 
7.351027801210e-04 -2.041418992505e-04 0.0 
-2.041418992505e-04 2.597898104386e-03 0.0 
0.0 0.0 0.0 
8.050155678969e-04 1.778827662077e-03 0.0 
1.778827662077e-03 7.829072942355e-03 0.0 
0.0 0.0 0.0 
3.458165027241e-04 -1.594283164789e-04 0.0 
-1.594283164789e-04 1.461776987646e-03 0.0 
0.0 0.0 0.0 
-1.204965022106e-03 1.540675203402e-03 0.0 
1.540675203402e-03 6.864573282807e-03 0.0 
0.0 0.0 0.0 
-1.253351638970e-03 1.676425190561e-03 0.0 
1.676425190561e-03 7.631194732897e-03 0.0 
0.0 0.0 0.0 
7.479090377029e-04 -1.314580280307e-04 0.0 
-1.314580280307e-04 2.492389431660e-03 0.0 
0.0 0.0 0.0 
1.111797004852e-03 5.154002654669e-04 0.0 
5.154002654669e-04 4.985091082638e-03 0.0 
0.0 0.0 0.0 
1.142465857732e-03 1.414032336529e-03 0.0 
1.414032336529e-03 6.101878888403e-03 0.0 
0.0 0.0 0.0 
1.671722684176e-04 2.369604772185e-03 0.0 
2.369604772185e-03 1.064977527903e-02 0.0 
0.0 0.0 0.0 
-1.912733375320e-04 2.706891743162e-03 0.0 
2.706891743162e-03 1.383858817946e-02 0.0 
0.0 0.0 0.0 
-1.148765532146e-03 1.673747132929e-03 0.0 
1.673747132929e-03 8.272837808457e-03 0.0 
0.0 0.0 0.0 
-8.508822855892e-04 8.890466883250e-06 0.0 
8.890466883250e-06 1.628622875466e-02 0.0 
0.0 0.0 0.0 
1.860375401412e-04 2.760489796816e-03 0.0 
2.760489796816e-03 1.190077397923e-02 0.0 
0.0 0.0 0.0 
1.096204846940e-03 4.573136558295e-04 0.0 
4.573136558295e-04 3.383023433763e-03 0.0 
0.0 0.0 0.0 
-6.890251100300e-04 1.340064513782e-03 0.0 
1.340064513782e-03 2.533176422504e-03 0.0 
0.0 0.0 0.0 
-5.471087320874e-04 1.750009279806e-03 0.0 
1.750009279806e-03 7.747959145288e-03 0.0 
0.0 0.0 0.0 
1.092033052038e-03 3.763309275798e-04 0.0 
3.763309275798e-04 4.649801310031e-03 0.0 
0.0 0.0 0.0 
-6.071102685135e-05 2.495648916641e-03 0.0 
2.495648916641e-03 1.161016308175e-02 0.0 
0.0 0.0 0.0 
1.211378543378e-03 4.961754902517e-04 0.0 
4.961754902517e-04 4.630930367927e-03 0.0 
0.0 0.0 0.0 
-2.045135752414e-04 4.297273840513e-04 0.0 
4.297273840513e-04 1.920686076168e-03 0.0 
0.0 0.0 0.0 
1.073186370629e-03 6.363043116376e-04 0.0 
6.363043116376e-04 5.457624388396e-03 0.0 
0.0 0.0 0.0 
-3.665698473695e-04 1.499537141696e-03 0.0 
1.499537141696e-03 4.200243592711e-03 0.0 
0.0 0.0 0.0 
1.046858523315e-03 1.254888397173e-03 0.0 
1.254888397173e-03 6.125091361884e-03 0.0 
0.0 0.0 0.0 
1.192134887416e-03 6.109329038312e-04 0.0 
6.109329038312e-04 5.093624507313e-03 0.0 
0.0 0.0 0.0 
9.610572769834e-04 1.844891226304e-03 0.0 
1.844891226304e-03 7.682879305189e-03 0.0 
0.0 0.0 0.0 
-1.015796482437e-03 7.222212403414e-05 0.0 
7.222212403414e-05 1.585363765491e-02 0.0 
0.0 0.0 0.0 
6.673913235264e-04 -2.283190606447e-04 0.0 
-2.283190606447e-04 2.505999343088e-03 0.0 
0.0 0.0 0.0 
-3.348646482212e-04 1.078255589806e-03 0.0 
1.078255589806e-03 2.363089102262e-03 0.0 
0.0 0.0 0.0 
1.141875528261e-03 7.284037942266e-04 0.0 
7.284037942266e-04 5.580394759771e-03 0.0 
0.0 0.0 0.0 
-3.759389163210e-04 1.574687139495e-03 0.0 
1.574687139495e-03 4.856432999254e-03 0.0 
0.0 0.0 0.0 
-5.257472734804e-04 1.387879839875e-04 0.0 
1.387879839875e-04 7.183124456731e-04 0.0 
0.0 0.0 0.0 
-4.122771516132e-04 1.025388504956e-04 0.0 
1.025388504956e-04 1.722695682038e-02 0.0 
0.0 0.0 0.0 
-5.915520572894e-04 8.726226698083e-05 0.0 
8.726226698083e-05 1.693601218625e-02 0.0 
0.0 0.0 0.0 
-1.664040413420e-04 -1.633282750790e-04 0.0 
-1.633282750790e-04 4.614106419694e-04 0.0 
0.0 0.0 0.0 
1.004695262857e-03 7.608434792489e-04 0.0 
7.608434792489e-04 5.954486433262e-03 0.0 
0.0 0.0 0.0 
4.682137213856e-04 -2.832988618171e-04 0.0 
-2.832988618171e-04 1.923527409352e-03 0.0 
0.0 0.0 0.0 
5.615887617954e-04 -1.716215899079e-04 0.0 
-1.716215899079e-04 2.053583760994e-03 0.0 
0.0 0.0 0.0 
2.411491586305e-04 2.543288355689e-03 0.0 
2.543288355689e-03 1.106655355738e-02 0.0 
0.0 0.0 0.0 
8.693735505467e-04 1.722832052014e-03 0.0 
1.722832052014e-03 7.699870808468e-03 0.0 
0.0 0.0 0.0 
3.726867297305e-04 2.435694737241e-03 0.0 
2.435694737241e-03 1.039612532678e-02 0.0 
0.0 0.0 0.0 
1.040614482327e-03 1.865221073160e-04 0.0 
1.865221073160e-04 3.563758416038e-03 0.0 
0.0 0.0 0.0 
-1.030999442458e-03 -1.098004832741e-05 0.0 
-1.098004832741e-05 1.445349256890e-02 0.0 
0.0 0.0 0.0 
1.934698104438e-04 8.986550927823e-04 0.0 
8.986550927823e-04 8.073714754448e-03 0.0 
0.0 0.0 0.0 
4.325577544817e-04 -1.923982797964e-04 0.0 
-1.923982797964e-04 1.695766065362e-03 0.0 
0.0 0.0 0.0 
7.812920243739e-04 1.454625123009e-03 0.0 
1.454625123009e-03 7.629638084088e-03 0.0 
0.0 0.0 0.0 
9.820968341121e-04 1.434126865349e-03 0.0 
1.434126865349e-03 6.667893455913e-03 0.0 
0.0 0.0 0.0 
3.415858604947e-04 -3.907637182557e-05 0.0 
-3.907637182557e-05 1.312382891925e-03 0.0 
0.0 0.0 0.0 
-2.568617760900e-04 2.443800455083e-03 0.0 
2.443800455083e-03 1.193232057379e-02 0.0 
0.0 0.0 0.0 
1.217531456098e-03 4.924638320776e-04 0.0 
4.924638320776e-04 3.873969837396e-03 0.0 
0.0 0.0 0.0 
-4.119285987358e-05 -2.317662930455e-04 0.0 
-2.317662930455e-04 7.835283688313e-04 0.0 
0.0 0.0 0.0 
1.067126022328e-03 2.513373568709e-04 0.0 
2.513373568709e-04 3.128680811036e-03 0.0 
0.0 0.0 0.0 
6.638528606759e-04 3.695643154940e-05 0.0 
3.695643154940e-05 5.653997061126e-03 0.0 
0.0 0.0 0.0 
-6.455659877809e-04 2.408079517803e-03 0.0 
2.408079517803e-03 1.296911197618e-02 0.0 
0.0 0.0 0.0 
2.059438350743e-04 -3.370592072518e-04 0.0 
-3.370592072518e-04 1.320663119736e-03 0.0 
0.0 0.0 0.0 
7.534498018471e-04 -7.744733362334e-06 0.0 
-7.744733362334e-06 4.425405512085e-03 0.0 
0.0 0.0 0.0 
1.023171104069e-04 2.528594804419e-03 0.0 
2.528594804419e-03 1.132481607051e-02 0.0 
0.0 0.0 0.0 
7.153389547201e-04 1.966912735291e-03 0.0 
1.966912735291e-03 8.652203202429e-03 0.0 
0.0 0.0 0.0 
8.431611109969e-04 -8.473515701537e-05 0.0 
-8.473515701537e-05 2.717260978026e-03 0.0 
0.0 0.0 0.0 
5.099159863329e-04 1.054773758421e-06 0.0 
1.054773758421e-06 2.127045660957e-03 0.0 
0.0 0.0 0.0 
1.139284347468e-03 1.517049835434e-03 0.0 
1.517049835434e-03 6.572700649455e-03 0.0 
0.0 0.0 0.0 
-9.531455471050e-04 -3.251733003307e-05 0.0 
-3.251733003307e-05 1.571310028716e-02 0.0 
0.0 0.0 0.0 
-8.905498798817e-05 -2.450122058720e-04 0.0 
-2.450122058720e-04 7.920715867127e-04 0.0 
0.0 0.0 0.0 
1.626170463613e-04 3.021102333082e-03 0.0 
3.021102333082e-03 1.199134088524e-02 0.0 
0.0 0.0 0.0 
-2.015358487533e-04 2.653656292780e-03 0.0 
2.653656292780e-03 1.492374764137e-02 0.0 
0.0 0.0 0.0 
-1.013176416534e-03 -2.404189587979e-05 0.0 
-2.404189587979e-05 1.515722375274e-02 0.0 
0.0 0.0 0.0 
-7.321181177461e-04 1.463352806557e-03 0.0 
1.463352806557e-03 1.700456574293e-02 0.0 
0.0 0.0 0.0 
-7.809925198132e-05 2.864623934913e-03 0.0 
2.864623934913e-03 1.402094889476e-02 0.0 
0.0 0.0 0.0 
1.170617778163e-03 3.082612569477e-04 0.0 
3.082612569477e-04 3.636513707358e-03 0.0 
0.0 0.0 0.0 
9.831088082515e-04 4.462732570837e-05 0.0 
4.462732570837e-05 3.366122177545e-03 0.0 
0.0 0.0 0.0 
4.423599938694e-04 1.919672965633e-03 0.0 
1.919672965633e-03 9.070911469043e-03 0.0 
0.0 0.0 0.0 
-8.368365796962e-04 4.846166227972e-05 0.0 
4.846166227972e-05 4.745525401313e-04 0.0 
0.0 0.0 0.0 
4.547001850639e-04 3.087147962600e-05 0.0 
3.087147962600e-05 1.926309409236e-03 0.0 
0.0 0.0 0.0 
7.371468532382e-04 4.329095338040e-05 0.0 
4.329095338040e-05 4.530980476561e-03 0.0 
0.0 0.0 0.0 
7.501018957268e-04 -1.869472720820e-04 0.0 
-1.869472720820e-04 2.736368142024e-03 0.0 
0.0 0.0 0.0 
1.005792197019e-03 9.304514357003e-05 0.0 
9.304514357003e-05 2.946790110494e-03 0.0 
0.0 0.0 0.0 
-1.144676520229e-03 1.472092484277e-03 0.0 
1.472092484277e-03 5.483588615565e-03 0.0 
0.0 0.0 0.0 
-1.251568538286e-03 1.617604631841e-03 0.0 
1.617604631841e-03 6.262543659361e-03 0.0 
0.0 0.0 0.0 
-1.366181945149e-03 1.834412993144e-04 0.0 
1.834412993144e-04 1.524663099413e-02 0.0 
0.0 0.0 0.0 
1.018561513170e-03 2.187734299384e-04 0.0 
2.187734299384e-04 3.480720358499e-03 0.0 
0.0 0.0 0.0 
5.472911973590e-04 -4.958706233116e-05 0.0 
-4.958706233116e-05 2.272989110627e-03 0.0 
0.0 0.0 0.0 
8.399177356830e-04 2.082209882162e-03 0.0 
2.082209882162e-03 8.665124972163e-03 0.0 
0.0 0.0 0.0 
1.726208927617e-04 7.432270896733e-04 0.0 
7.432270896733e-04 8.462682237038e-03 0.0 
0.0 0.0 0.0 
1.707517014133e-04 8.518548975187e-04 0.0 
8.518548975187e-04 8.496129642962e-03 0.0 
0.0 0.0 0.0 
1.098773032056e-03 1.657051066862e-04 0.0 
1.657051066862e-04 3.468786025531e-03 0.0 
0.0 0.0 0.0 
-1.484258689836e-03 2.013023313438e-04 0.0 
2.013023313438e-04 1.498970753519e-02 0.0 
0.0 0.0 0.0 
-8.509635540106e-04 1.433301865179e-05 0.0 
1.433301865179e-05 7.202306334533e-04 0.0 
0.0 0.0 0.0 
-1.102717890333e-03 1.383902559399e-03 0.0 
1.383902559399e-03 4.156260607273e-03 0.0 
0.0 0.0 0.0 
1.298333919957e-04 -2.504406915714e-04 0.0 
-2.504406915714e-04 1.495762942311e-03 0.0 
0.0 0.0 0.0 
-1.130649747346e-03 1.446101165761e-03 0.0 
1.446101165761e-03 4.859710490710e-03 0.0 
0.0 0.0 0.0 
9.597747147907e-04 1.542288141618e-03 0.0 
1.542288141618e-03 7.131474618406e-03 0.0 
0.0 0.0 0.0 
9.264773034292e-04 -1.567268652445e-05 0.0 
-1.567268652445e-05 2.822065729384e-03 0.0 
0.0 0.0 0.0 
9.724437314613e-04 5.762857559840e-05 0.0 
5.762857559840e-05 3.253975776705e-03 0.0 
0.0 0.0 0.0 
-3.949994651836e-04 -2.127969249261e-04 0.0 
-2.127969249261e-04 9.920741310736e-04 0.0 
0.0 0.0 0.0 
-5.181062832453e-04 1.406448576534e-04 0.0 
1.406448576534e-04 1.699803687266e-02 0.0 
0.0 0.0 0.0 
9.074283792598e-04 -5.743148788189e-05 0.0 
-5.743148788189e-05 3.092804838007e-03 0.0 
0.0 0.0 0.0 
-5.132165265443e-04 5.371453098815e-04 0.0 
5.371453098815e-04 1.717788564058e-02 0.0 
0.0 0.0 0.0 
-7.359253587725e-04 1.599660930315e-04 0.0 
1.599660930315e-04 1.674743818188e-02 0.0 
0.0 0.0 0.0 
-2.037468629352e-04 2.448443807620e-04 0.0 
2.448443807620e-04 1.767212031414e-02 0.0 
0.0 0.0 0.0 
1.340518230868e-04 1.693066935577e-04 0.0 
1.693066935577e-04 8.286579320955e-03 0.0 
0.0 0.0 0.0 
-1.021494329340e-03 3.012526575839e-05 0.0 
3.012526575839e-05 1.516978690724e-02 0.0 
0.0 0.0 0.0 
9.123398073609e-04 -5.355671039733e-05 0.0 
-5.355671039733e-05 3.225281859988e-03 0.0 
0.0 0.0 0.0 
-1.163789570478e-03 1.712165411740e-03 0.0 
1.712165411740e-03 6.881369297538e-03 0.0 
0.0 0.0 0.0 
1.014675969228e-03 6.424697611877e-05 0.0 
6.424697611877e-05 3.348890112191e-03 0.0 
0.0 0.0 0.0 
0.0 5.771512590960e-04 0.0 
5.771512590960e-04 8.408678055613e-03 0.0 
0.0 0.0 0.0 
-9.897706527973e-04 1.202754240423e-03 0.0 
1.202754240423e-03 2.780541137215e-03 0.0 
0.0 0.0 0.0 
-1.037701379860e-03 1.317675344489e-03 0.0 
1.317675344489e-03 3.470436220993e-03 0.0 
0.0 0.0 0.0 
7.049377674284e-04 1.649295487715e-03 0.0 
1.649295487715e-03 8.110208466973e-03 0.0 
0.0 0.0 0.0 
-1.135874342933e-03 5.040175728778e-05 0.0 
5.040175728778e-05 1.486408387021e-02 0.0 
0.0 0.0 0.0 
-4.529517522317e-04 3.574806426163e-04 0.0 
3.574806426163e-04 1.721745688666e-02 0.0 
0.0 0.0 0.0 
2.286796425532e-05 2.469257137645e-03 0.0 
2.469257137645e-03 1.132862505855e-02 0.0 
0.0 0.0 0.0 
7.070315176023e-04 2.189404364045e-03 0.0 
2.189404364045e-03 9.138636515132e-03 0.0 
0.0 0.0 0.0 
-3.905066008495e-04 2.582147021857e-03 0.0 
2.582147021857e-03 1.290898599837e-02 0.0 
0.0 0.0 0.0 
-1.042400920907e-03 6.499744937710e-05 0.0 
6.499744937710e-05 1.526453367539e-02 0.0 
0.0 0.0 0.0 
6.448466992270e-04 -2.486798473006e-04 0.0 
-2.486798473006e-04 2.368838853844e-03 0.0 
0.0 0.0 0.0 
7.283325974612e-04 -1.425163984244e-04 0.0 
-1.425163984244e-04 2.354564283435e-03 0.0 
0.0 0.0 0.0 
-8.786017582000e-04 8.821103134317e-05 0.0 
8.821103134317e-05 1.610243000401e-02 0.0 
0.0 0.0 0.0 
5.891207804654e-04 2.121180888564e-03 0.0 
2.121180888564e-03 9.186044016481e-03 0.0 
0.0 0.0 0.0 
-1.820159020625e-03 4.649154988497e-04 0.0 
4.649154988497e-04 1.480983667976e-02 0.0 
0.0 0.0 0.0 
-1.041779813226e-03 1.142344087643e-05 0.0 
1.142344087643e-05 1.481625854099e-02 0.0 
0.0 0.0 0.0 
-1.037318500303e-03 9.932030247569e-06 0.0 
9.932030247569e-06 1.515585051950e-02 0.0 
0.0 0.0 0.0 
-1.093453742573e-03 8.883022220013e-06 0.0 
8.883022220013e-06 1.528614118852e-02 0.0 
0.0 0.0 0.0 
7.118443993370e-05 -3.409698176379e-05 0.0 
-3.409698176379e-05 1.279793859787e-03 0.0 
0.0 0.0 0.0 
6.269129052798e-04 -1.778746249247e-04 0.0 
-1.778746249247e-04 2.134578233283e-03 0.0 
0.0 0.0 0.0 
-4.614014630702e-04 8.178108800993e-04 0.0 
8.178108800993e-04 1.737531380568e-02 0.0 
0.0 0.0 0.0 
-1.081991281424e-03 6.620613817625e-05 0.0 
6.620613817625e-05 1.568794737950e-02 0.0 
0.0 0.0 0.0 
3.204653199638e-04 2.249632109138e-03 0.0 
2.249632109138e-03 9.699574075747e-03 0.0 
0.0 0.0 0.0 
-3.518777025404e-04 2.825014986732e-03 0.0 
2.825014986732e-03 1.379041877545e-02 0.0 
0.0 0.0 0.0 
-3.032933173256e-04 2.431883494471e-03 0.0 
2.431883494471e-03 1.193493691482e-02 0.0 
0.0 0.0 0.0 
-9.031089275651e-04 1.519149157748e-03 0.0 
1.519149157748e-03 1.675439659627e-02 0.0 
0.0 0.0 0.0 
7.385523657866e-04 -2.262336210355e-05 0.0 
-2.262336210355e-05 3.246625319703e-03 0.0 
0.0 0.0 0.0 
6.615576550155e-04 -4.087745965599e-05 0.0 
-4.087745965599e-05 2.939710734134e-03 0.0 
0.0 0.0 0.0 
4.260729699379e-04 8.848228102076e-04 0.0 
8.848228102076e-04 7.637779124738e-03 0.0 
0.0 0.0 0.0 
-4.181591437112e-04 -1.119730457579e-04 0.0 
-1.119730457579e-04 5.812473778410e-04 0.0 
0.0 0.0 0.0 
4.543122194538e-04 -6.865688069689e-05 0.0 
-6.865688069689e-05 2.039673555455e-03 0.0 
0.0 0.0 0.0 
0.0 2.808471574629e-03 0.0 
2.808471574629e-03 1.125009084842e-02 0.0 
0.0 0.0 0.0 
2.606592074954e-04 -5.406240677400e-05 0.0 
-5.406240677400e-05 9.620248861058e-04 0.0 
0.0 0.0 0.0 
-1.035115234666e-03 1.002714620412e-05 0.0 
1.002714620412e-05 1.481188655254e-02 0.0 
0.0 0.0 0.0 
5.996552499841e-04 1.590885065341e-03 0.0 
1.590885065341e-03 8.315577890926e-03 0.0 
0.0 0.0 0.0 
-4.590572061247e-05 -1.418739153932e-04 0.0 
-1.418739153932e-04 6.889282883487e-04 0.0 
0.0 0.0 0.0 
-1.504868415347e-05 -9.494243086677e-05 0.0 
-9.494243086677e-05 3.616579359098e-04 0.0 
0.0 0.0 0.0 
-3.291755267210e-04 1.308636736457e-03 0.0 
1.308636736457e-03 1.735640460818e-02 0.0 
0.0 0.0 0.0 
-1.098908442869e-03 -9.108245447159e-06 0.0 
-9.108245447159e-06 1.447936965680e-02 0.0 
0.0 0.0 0.0 
-5.109737567847e-04 1.122057830672e-03 0.0 
1.122057830672e-03 1.722257367811e-02 0.0 
0.0 0.0 0.0 
4.708128969730e-04 1.693052725715e-03 0.0 
1.693052725715e-03 8.516591190170e-03 0.0 
0.0 0.0 0.0 
-1.088617639401e-03 -1.197717288744e-05 0.0 
-1.197717288744e-05 1.446164685250e-02 0.0 
0.0 0.0 0.0 
-8.369259731447e-04 5.157389874871e-05 0.0 
5.157389874871e-05 8.256371507604e-04 0.0 
0.0 0.0 0.0 
-2.200255328012e-04 1.776545975425e-04 0.0 
1.776545975425e-04 1.746455265273e-02 0.0 
0.0 0.0 0.0 
2.498245064351e-04 -1.987528505523e-04 0.0 
-1.987528505523e-04 1.092580840784e-03 0.0 
0.0 0.0 0.0 
-5.288609377463e-04 9.037828864795e-04 0.0 
9.037828864795e-04 1.716233127339e-02 0.0 
0.0 0.0 0.0 
0.0 4.521542379776e-04 0.0 
4.521542379776e-04 8.360029879473e-03 0.0 
0.0 0.0 0.0 
-5.189884722249e-04 2.554952878389e-03 0.0 
2.554952878389e-03 1.470926509654e-02 0.0 
0.0 0.0 0.0 
3.710280767226e-04 -1.792895153338e-05 0.0 
-1.792895153338e-05 1.563998513841e-03 0.0 
0.0 0.0 0.0 
-1.648805116615e-03 7.087501173332e-04 0.0 
7.087501173332e-04 1.512032832308e-02 0.0 
0.0 0.0 0.0 
6.760660035774e-04 -5.925739213673e-05 0.0 
-5.925739213673e-05 3.307513959571e-03 0.0 
0.0 0.0 0.0 
7.103629102327e-04 1.959223964651e-03 0.0 
1.959223964651e-03 8.674506296266e-03 0.0 
0.0 0.0 0.0 
1.891026847205e-04 2.446657860615e-03 0.0 
2.446657860615e-03 1.022313146154e-02 0.0 
0.0 0.0 0.0 
-7.963966083474e-04 1.122732749578e-04 0.0 
1.122732749578e-04 1.648231967815e-02 0.0 
0.0 0.0 0.0 
2.481867719932e-04 2.300214628697e-03 0.0 
2.300214628697e-03 9.910089082248e-03 0.0 
0.0 0.0 0.0 
-1.993545206170e-04 -5.362229246884e-05 0.0 
-5.362229246884e-05 8.675091951724e-04 0.0 
0.0 0.0 0.0 
2.395518652578e-04 5.595007502369e-04 0.0 
5.595007502369e-04 7.975606105615e-03 0.0 
0.0 0.0 0.0 
4.320126430437e-04 -6.330574526080e-05 0.0 
-6.330574526080e-05 1.745786296439e-03 0.0 
0.0 0.0 0.0 
2.662636740460e-04 -5.891839250398e-05 0.0 
-5.891839250398e-05 9.657995186243e-04 0.0 
0.0 0.0 0.0 
3.902178448276e-04 1.481542564795e-03 0.0 
1.481542564795e-03 8.583658158648e-03 0.0 
0.0 0.0 0.0 
-6.386235054300e-04 2.165562884412e-03 0.0 
2.165562884412e-03 1.636735943975e-02 0.0 
0.0 0.0 0.0 
-4.524937807259e-04 1.320939925873e-03 0.0 
1.320939925873e-03 1.718269377963e-02 0.0 
0.0 0.0 0.0 
-1.067964274365e-03 3.359129177534e-05 0.0 
3.359129177534e-05 1.480695093218e-02 0.0 
0.0 0.0 0.0 
-1.611489986501e-03 1.463078116050e-03 0.0 
1.463078116050e-03 1.443776400083e-02 0.0 
0.0 0.0 0.0 
-3.112438973220e-04 1.050912480768e-03 0.0 
1.050912480768e-03 3.526032694571e-03 0.0 
0.0 0.0 0.0 
-2.034294986069e-04 3.034710328865e-03 0.0 
3.034710328865e-03 1.388994188523e-02 0.0 
0.0 0.0 0.0 
6.262853678980e-04 -1.483913148385e-05 0.0 
-1.483913148385e-05 2.719484446661e-03 0.0 
0.0 0.0 0.0 
-2.504980291267e-04 5.098609762002e-04 0.0 
5.098609762002e-04 1.766185203659e-03 0.0 
0.0 0.0 0.0 
8.462008804215e-04 2.069943140998e-03 0.0 
2.069943140998e-03 8.638029076877e-03 0.0 
0.0 0.0 0.0 
-1.042227279027e-03 -2.175816215372e-07 0.0 
-2.175816215372e-07 1.443900519174e-02 0.0 
0.0 0.0 0.0 
-5.742210635066e-04 2.048167030072e-03 0.0 
2.048167030072e-03 1.611942310722e-02 0.0 
0.0 0.0 0.0 
-1.682442352201e-04 -1.400992171324e-05 0.0 
-1.400992171324e-05 1.767782576671e-02 0.0 
0.0 0.0 0.0 
0.0 8.412211760984e-05 0.0 
8.412211760984e-05 1.770584561014e-02 0.0 
0.0 0.0 0.0 
9.767148252360e-05 -3.130659716013e-06 0.0 
-3.130659716013e-06 5.520741611509e-05 0.0 
0.0 0.0 0.0 
1.044732775417e-04 3.427145851574e-06 0.0 
3.427145851574e-06 6.152123223213e-05 0.0 
0.0 0.0 0.0 
-1.046009378452e-03 -4.080508084196e-05 0.0 
-4.080508084196e-05 1.447283109835e-02 0.0 
0.0 0.0 0.0 
-1.098416031262e-03 -9.296033622426e-06 0.0 
-9.296033622426e-06 1.446221965672e-02 0.0 
0.0 0.0 0.0 
0.0 6.362752764565e-05 0.0 
6.362752764565e-05 8.278721919856e-03 0.0 
0.0 0.0 0.0 
1.272550552911e-04 3.913745131981e-05 0.0 
3.913745131981e-05 8.200447017216e-03 0.0 
0.0 0.0 0.0 
1.172389854633e-04 9.235596695467e-06 0.0 
9.235596695467e-06 2.875357264087e-04 0.0 
0.0 0.0 0.0 
-8.151582847720e-04 -4.456333140154e-05 0.0 
-4.456333140154e-05 4.349371812511e-04 0.0 
0.0 0.0 0.0 
2.988472601138e-04 3.398985199371e-04 0.0 
3.398985199371e-04 7.430417892537e-03 0.0 
0.0 0.0 0.0 
5.015239034176e-04 2.620738519189e-03 0.0 
2.620738519189e-03 1.035025206813e-02 0.0 
0.0 0.0 0.0 
2.726100994170e-04 -1.650195045355e-04 0.0 
-1.650195045355e-04 1.289544160886e-03 0.0 
0.0 0.0 0.0 
3.016710657910e-04 5.928174554118e-04 0.0 
5.928174554118e-04 7.643900367983e-03 0.0 
0.0 0.0 0.0 
7.236782718143e-04 5.632495901313e-06 0.0 
5.632495901313e-06 4.885121984042e-03 0.0 
0.0 0.0 0.0 
7.319599563858e-04 -2.980904878328e-05 0.0 
-2.980904878328e-05 4.121826344459e-03 0.0 
0.0 0.0 0.0 
-1.008433502147e-03 1.005942909504e-04 0.0 
1.005942909504e-04 1.586994081685e-02 0.0 
0.0 0.0 0.0 
1.585528261587e-04 -1.932946561484e-04 0.0 
-1.932946561484e-04 1.317326164268e-03 0.0 
0.0 0.0 0.0 
8.004681981961e-04 1.839709230349e-03 0.0 
1.839709230349e-03 8.178427840187e-03 0.0 
0.0 0.0 0.0 
1.788588053606e-04 -1.242431707443e-04 0.0 
-1.242431707443e-04 1.014449631704e-03 0.0 
0.0 0.0 0.0 
7.484143911736e-04 -4.944924854409e-05 0.0 
-4.944924854409e-05 3.692344161909e-03 0.0 
0.0 0.0 0.0 
-8.785658009380e-05 2.802924555007e-03 0.0 
2.802924555007e-03 1.348104490798e-02 0.0 
0.0 0.0 0.0 
-5.253964308106e-04 -2.015079099849e-05 0.0 
-2.015079099849e-05 1.710584201536e-02 0.0 
0.0 0.0 0.0 
7.572167734804e-04 2.056255185936e-05 0.0 
2.056255185936e-05 4.092975285050e-03 0.0 
0.0 0.0 0.0 
-1.020801291887e-03 -3.191166559760e-06 0.0 
-3.191166559760e-06 1.544955346560e-02 0.0 
0.0 0.0 0.0 
2.950210731725e-04 2.841541581700e-03 0.0 
2.841541581700e-03 1.134854508288e-02 0.0 
0.0 0.0 0.0 
-2.420843583385e-04 2.637796737871e-03 0.0 
2.637796737871e-03 1.262635158348e-02 0.0 
0.0 0.0 0.0 
-2.709058920785e-04 2.525809283348e-03 0.0 
2.525809283348e-03 1.227404087590e-02 0.0 
0.0 0.0 0.0 
-1.079985331563e-03 -7.701882301953e-06 0.0 
-7.701882301953e-06 1.446838304683e-02 0.0 
0.0 0.0 0.0 
9.040274564764e-04 1.668802303552e-03 0.0 
1.668802303552e-03 7.619280126056e-03 0.0 
0.0 0.0 0.0 
-4.809905500356e-04 2.327396386142e-03 0.0 
2.327396386142e-03 1.546432208220e-02 0.0 
0.0 0.0 0.0 
4.933446234641e-04 -3.676637694132e-05 0.0 
-3.676637694132e-05 2.033970630444e-03 0.0 
0.0 0.0 0.0 
-2.816731544169e-04 -1.622970495095e-04 0.0 
-1.622970495095e-04 5.023316615078e-04 0.0 
0.0 0.0 0.0 
1.711658629744e-04 2.613419281768e-03 0.0 
2.613419281768e-03 1.125633810680e-02 0.0 
0.0 0.0 0.0 
8.979829998508e-04 1.543526824650e-03 0.0 
1.543526824650e-03 7.623573988829e-03 0.0 
0.0 0.0 0.0 
1.078573764457e-04 -3.098689970649e-04 0.0 
-3.098689970649e-04 1.073604135374e-03 0.0 
0.0 0.0 0.0 
-9.363473813535e-04 4.335316314527e-05 0.0 
4.335316314527e-05 1.612720053130e-02 0.0 
0.0 0.0 0.0 
1.468104532971e-04 3.258811427445e-04 0.0 
3.258811427445e-04 7.831929847413e-03 0.0 
0.0 0.0 0.0 
4.474503446521e-04 2.506609932099e-03 0.0 
2.506609932099e-03 1.041307324821e-02 0.0 
0.0 0.0 0.0 
3.309192655214e-04 2.748629086254e-03 0.0 
2.748629086254e-03 1.096209755054e-02 0.0 
0.0 0.0 0.0 
6.837094966705e-04 -9.299668310943e-06 0.0 
-9.299668310943e-06 5.361161415632e-03 0.0 
0.0 0.0 0.0 
-5.398594347625e-04 4.134641452244e-04 0.0 
4.134641452244e-04 7.667322153260e-04 0.0 
0.0 0.0 0.0 
-1.199668326230e-03 1.680834116654e-03 0.0 
1.680834116654e-03 5.502280906839e-03 0.0 
0.0 0.0 0.0 
-3.829752100957e-04 1.314778612943e-03 0.0 
1.314778612943e-03 4.846285771387e-03 0.0 
0.0 0.0 0.0 
-1.756220110791e-03 7.964769190028e-04 0.0 
7.964769190028e-04 1.524553500676e-02 0.0 
0.0 0.0 0.0 
1.020902843803e-03 1.801608970525e-03 0.0 
1.801608970525e-03 7.602855930512e-03 0.0 
0.0 0.0 0.0 
-5.546630720766e-04 6.487592024411e-04 0.0 
6.487592024411e-04 1.725310051200e-02 0.0 
0.0 0.0 0.0 
2.945644434220e-04 1.904331654773e-03 0.0 
1.904331654773e-03 9.108725086536e-03 0.0 
0.0 0.0 0.0 
-2.719178753514e-04 -2.449444555047e-04 0.0 
-2.449444555047e-04 8.653859701113e-04 0.0 
0.0 0.0 0.0 
-1.699142670933e-04 -2.295172818579e-04 0.0 
-2.295172818579e-04 7.714405540975e-04 0.0 
0.0 0.0 0.0 
-1.160703698388e-03 1.677720218683e-03 0.0 
1.677720218683e-03 4.181943531972e-03 0.0 
0.0 0.0 0.0 
-8.817332672720e-04 1.829336474355e-04 0.0 
1.829336474355e-04 1.624553530595e-02 0.0 
0.0 0.0 0.0 
5.634144191273e-04 -1.197748423204e-04 0.0 
-1.197748423204e-04 2.524127661173e-03 0.0 
0.0 0.0 0.0 
-7.487092955908e-04 1.736344913402e-03 0.0 
1.736344913402e-03 1.663568360715e-02 0.0 
0.0 0.0 0.0 
2.778550129992e-04 -1.137685666421e-04 0.0 
-1.137685666421e-04 1.225051983845e-03 0.0 
0.0 0.0 0.0 
5.611775283372e-04 1.806759191070e-03 0.0 
1.806759191070e-03 8.615003251492e-03 0.0 
0.0 0.0 0.0 
-1.251679821071e-03 1.398915332004e-04 0.0 
1.398915332004e-04 1.525483612810e-02 0.0 
0.0 0.0 0.0 
2.200710495899e-04 2.468836882161e-03 0.0 
2.468836882161e-03 1.030443137709e-02 0.0 
0.0 0.0 0.0 
5.905335205294e-04 2.150005898806e-03 0.0 
2.150005898806e-03 9.245590190713e-03 0.0 
0.0 0.0 0.0 
-1.834188979778e-03 1.132014803634e-03 0.0 
1.132014803634e-03 1.504681997818e-02 0.0 
0.0 0.0 0.0 
3.885077310029e-04 1.225661410124e-03 0.0 
1.225661410124e-03 8.329603505954e-03 0.0 
0.0 0.0 0.0 
-5.801340633722e-04 2.003727633778e-03 0.0 
2.003727633778e-03 1.658843776618e-02 0.0 
0.0 0.0 0.0 
-3.511205709237e-04 1.629560434310e-04 0.0 
1.629560434310e-04 1.747865869856e-02 0.0 
0.0 0.0 0.0 
-1.126453602403e-03 1.587078791378e-03 0.0 
1.587078791378e-03 2.800450130250e-03 0.0 
0.0 0.0 0.0 
-7.059061997293e-04 1.484004035865e-03 0.0 
1.484004035865e-03 1.675677567809e-02 0.0 
0.0 0.0 0.0 
8.381342519037e-05 2.886353970103e-03 0.0 
2.886353970103e-03 1.218339956859e-02 0.0 
0.0 0.0 0.0 
5.952239079652e-04 1.803636820730e-03 0.0 
1.803636820730e-03 8.614851337945e-03 0.0 
0.0 0.0 0.0 
7.495895758451e-04 2.219166345093e-03 0.0 
2.219166345093e-03 9.161280285248e-03 0.0 
0.0 0.0 0.0 
0.0 7.785238305793e-04 0.0 
7.785238305793e-04 8.478377699661e-03 0.0 
0.0 0.0 0.0 
-1.731811775320e-04 2.544258634346e-03 0.0 
2.544258634346e-03 1.227106081831e-02 0.0 
0.0 0.0 0.0 
-7.645145416800e-04 3.721218928126e-04 0.0 
3.721218928126e-04 3.946860342130e-04 0.0 
0.0 0.0 0.0 
-3.265232926978e-04 7.179407005649e-04 0.0 
7.179407005649e-04 2.350219340795e-03 0.0 
0.0 0.0 0.0 
-3.061473765934e-04 2.712649768493e-03 0.0 
2.712649768493e-03 1.322025986988e-02 0.0 
0.0 0.0 0.0 
-1.613900178107e-03 8.087776780295e-04 0.0 
8.087776780295e-04 1.542974287345e-02 0.0 
0.0 0.0 0.0 
3.187695919382e-04 1.494925887385e-04 0.0 
1.494925887385e-04 7.378154379327e-03 0.0 
0.0 0.0 0.0 
4.589633715217e-04 2.300537942415e-03 0.0 
2.300537942415e-03 9.730393089989e-03 0.0 
0.0 0.0 0.0 
1.698372655614e-04 6.535342748577e-04 0.0 
6.535342748577e-04 8.017563393022e-03 0.0 
0.0 0.0 0.0 
-7.827519252458e-04 2.406757177526e-04 0.0 
2.406757177526e-04 1.660962453950e-02 0.0 
0.0 0.0 0.0 
1.908296680415e-04 2.356071381431e-03 0.0 
2.356071381431e-03 1.003949957820e-02 0.0 
0.0 0.0 0.0 
3.908058572832e-04 1.031671499283e-03 0.0 
1.031671499283e-03 7.884522358862e-03 0.0 
0.0 0.0 0.0 
4.654683178344e-04 1.109430181383e-03 0.0 
1.109430181383e-03 7.877308085881e-03 0.0 
0.0 0.0 0.0 
5.758595853602e-04 -8.547051294201e-05 0.0 
-8.547051294201e-05 2.620596374766e-03 0.0 
0.0 0.0 0.0 
1.844030293852e-04 6.348828110448e-04 0.0 
6.348828110448e-04 8.423870796596e-03 0.0 
0.0 0.0 0.0 
-1.265093369554e-03 1.700511582298e-04 0.0 
1.700511582298e-04 1.484011577566e-02 0.0 
0.0 0.0 0.0 
-5.369970120686e-04 3.216723619970e-04 0.0 
3.216723619970e-04 1.722218218404e-02 0.0 
0.0 0.0 0.0 
-6.719335675087e-06 -2.674685609766e-04 0.0 
-2.674685609766e-04 7.571563693400e-04 0.0 
0.0 0.0 0.0 
-6.458554771652e-04 1.345944902243e-04 0.0 
1.345944902243e-04 1.700505066160e-02 0.0 
0.0 0.0 0.0 
-9.540749470363e-04 1.026590632229e-04 0.0 
1.026590632229e-04 1.615874606723e-02 0.0 
0.0 0.0 0.0 
1.718404913627e-04 -4.594996841498e-05 0.0 
-4.594996841498e-05 6.580987152500e-04 0.0 
0.0 0.0 0.0 
1.543143387801e-04 -1.794965221035e-04 0.0 
-1.794965221035e-04 1.533792696252e-03 0.0 
0.0 0.0 0.0 
-1.108653355730e-05 2.601694654354e-03 0.0 
2.601694654354e-03 1.200049315438e-02 0.0 
0.0 0.0 0.0 
-3.296279074256e-04 9.842429552431e-04 0.0 
9.842429552431e-04 1.731163200153e-02 0.0 
0.0 0.0 0.0 
-4.758209650272e-04 1.474897756655e-04 0.0 
1.474897756655e-04 1.725969484459e-02 0.0 
0.0 0.0 0.0 
4.856473271915e-04 2.367751336894e-03 0.0 
2.367751336894e-03 9.693478644961e-03 0.0 
0.0 0.0 0.0 
-1.057361099040e-03 1.071972471393e-04 0.0 
1.071972471393e-04 1.547752168464e-02 0.0 
0.0 0.0 0.0 
-1.362159455822e-04 -1.498915082404e-04 0.0 
-1.498915082404e-04 4.338488259574e-04 0.0 
0.0 0.0 0.0 
-4.399132060797e-04 2.939782032023e-04 0.0 
2.939782032023e-04 1.078018834686e-03 0.0 
0.0 0.0 0.0 
-5.751576815849e-05 -9.016471927582e-05 0.0 
-9.016471927582e-05 4.724084271199e-04 0.0 
0.0 0.0 0.0 
2.709343173546e-05 -3.098894978368e-04 0.0 
-3.098894978368e-04 1.009071848778e-03 0.0 
0.0 0.0 0.0 
-8.101325146327e-04 7.424025793672e-04 0.0 
7.424025793672e-04 5.480062121699e-04 0.0 
0.0 0.0 0.0 
7.297652968188e-04 4.521034748797e-06 0.0 
4.521034748797e-06 3.595899458394e-03 0.0 
0.0 0.0 0.0 
3.407773578017e-04 2.236683872004e-04 0.0 
2.236683872004e-04 7.376574960319e-03 0.0 
0.0 0.0 0.0 
-4.023755119469e-04 2.616178863766e-03 0.0 
2.616178863766e-03 1.471735959993e-02 0.0 
0.0 0.0 0.0 
-1.764258891746e-03 1.565641686719e-03 0.0 
1.565641686719e-03 1.484871798800e-02 0.0 
0.0 0.0 0.0 
6.850227387829e-04 -1.133591915394e-04 0.0 
-1.133591915394e-04 3.102242805348e-03 0.0 
0.0 0.0 0.0 
4.179803204425e-04 8.312068108950e-04 0.0 
8.312068108950e-04 7.656354047404e-03 0.0 
0.0 0.0 0.0 
6.613033806986e-04 1.455250677574e-03 0.0 
1.455250677574e-03 8.005816152310e-03 0.0 
0.0 0.0 0.0 
3.905180540056e-04 2.652419493649e-03 0.0 
2.652419493649e-03 1.043102265785e-02 0.0 
0.0 0.0 0.0 
1.535153483874e-04 2.700236958562e-03 0.0 
2.700236958562e-03 1.160369765659e-02 0.0 
0.0 0.0 0.0 
2.621345382869e-05 2.725852311797e-03 0.0 
2.725852311797e-03 1.238807182112e-02 0.0 
0.0 0.0 0.0 
-8.666575007976e-06 -1.943722206479e-04 0.0 
-1.943722206479e-04 7.309937876265e-04 0.0 
0.0 0.0 0.0 
-5.038370296915e-04 -1.607107653773e-04 0.0 
-1.607107653773e-04 9.328681572014e-04 0.0 
0.0 0.0 0.0 
3.227408411504e-04 2.860172467257e-04 0.0 
2.860172467257e-04 7.447196506804e-03 0.0 
0.0 0.0 0.0 
2.217253082830e-04 -2.597980215929e-05 0.0 
-2.597980215929e-05 6.424288237907e-04 0.0 
0.0 0.0 0.0 
2.132614638908e-04 3.645587037315e-05 0.0 
3.645587037315e-05 8.045571050257e-04 0.0 
0.0 0.0 0.0 
-6.590117328108e-04 9.772109690196e-04 0.0 
9.772109690196e-04 1.332413848437e-03 0.0 
0.0 0.0 0.0 
1.976084822042e-05 -2.235262921295e-04 0.0 
-2.235262921295e-04 6.863974677480e-04 0.0 
0.0 0.0 0.0 
1.995372005665e-04 1.125739261588e-03 0.0 
1.125739261588e-03 8.280230729410e-03 0.0 
0.0 0.0 0.0 
-6.053117148686e-05 2.927564999253e-03 0.0 
2.927564999253e-03 1.318008931919e-02 0.0 
0.0 0.0 0.0 
-4.677663794862e-04 6.648022523815e-04 0.0 
6.648022523815e-04 1.725395287200e-02 0.0 
0.0 0.0 0.0 
1.802473086512e-04 2.585444740785e-03 0.0 
2.585444740785e-03 1.063853642445e-02 0.0 
0.0 0.0 0.0 
6.172961064526e-04 1.364362542005e-03 0.0 
1.364362542005e-03 7.818292031457e-03 0.0 
0.0 0.0 0.0 
-1.017808366193e-03 1.301604304195e-04 0.0 
1.301604304195e-04 1.569372185231e-02 0.0 
0.0 0.0 0.0 
0.0 1.394045091503e-03 0.0 
1.394045091503e-03 1.729926650434e-02 0.0 
0.0 0.0 0.0 
3.797842049047e-04 -2.565167960717e-04 0.0 
-2.565167960717e-04 1.739195357843e-03 0.0 
0.0 0.0 0.0 
-9.986588178413e-04 -1.375734129085e-05 0.0 
-1.375734129085e-05 1.441588501660e-02 0.0 
0.0 0.0 0.0 
-9.049753762513e-05 -2.588144466719e-04 0.0 
-2.588144466719e-04 1.111836619950e-03 0.0 
0.0 0.0 0.0 
8.745758999651e-05 -8.057568926015e-05 0.0 
-8.057568926015e-05 3.515128841420e-04 0.0 
0.0 0.0 0.0 
1.705573308093e-04 4.402219257175e-04 0.0 
4.402219257175e-04 8.340263306695e-03 0.0 
0.0 0.0 0.0 
-1.926437271896e-03 1.044333351367e-03 0.0 
1.044333351367e-03 1.466767928182e-02 0.0 
0.0 0.0 0.0 
2.087474895656e-04 -8.296441696031e-05 0.0 
-8.296441696031e-05 9.594129219086e-04 0.0 
0.0 0.0 0.0 
7.131932811593e-04 1.653188564531e-05 0.0 
1.653188564531e-05 3.445943594985e-03 0.0 
0.0 0.0 0.0 
-5.532557216947e-05 3.096593987501e-03 0.0 
3.096593987501e-03 1.340396893181e-02 0.0 
0.0 0.0 0.0 
-7.020444051243e-04 9.113541253700e-04 0.0 
9.113541253700e-04 1.716416675134e-02 0.0 
0.0 0.0 0.0 
-3.343964773904e-04 2.167125909951e-03 0.0 
2.167125909951e-03 1.622377979862e-02 0.0 
0.0 0.0 0.0 
5.316476767623e-04 -7.453936476827e-05 0.0 
-7.453936476827e-05 2.379733357937e-03 0.0 
0.0 0.0 0.0 
-4.206233524144e-04 -3.528407668491e-05 0.0 
-3.528407668491e-05 9.820611681464e-04 0.0 
0.0 0.0 0.0 
2.886124272552e-04 7.178605789919e-04 0.0 
7.178605789919e-04 8.039851897767e-03 0.0 
0.0 0.0 0.0 
-1.832355793869e-04 1.285924198741e-04 0.0 
1.285924198741e-04 1.769784000221e-02 0.0 
0.0 0.0 0.0 
1.307430472166e-04 8.773821444814e-05 0.0 
8.773821444814e-05 8.278855920641e-03 0.0 
0.0 0.0 0.0 
-1.040465341905e-03 1.796589210880e-05 0.0 
1.796589210880e-05 1.475258041443e-02 0.0 
0.0 0.0 0.0 
4.380155388832e-04 1.466558808658e-03 0.0 
1.466558808658e-03 8.220829020560e-03 0.0 
0.0 0.0 0.0 
2.725722899399e-04 -1.232780426916e-04 0.0 
-1.232780426916e-04 9.821136725996e-04 0.0 
0.0 0.0 0.0 
-6.129431704055e-04 1.719416602087e-03 0.0 
1.719416602087e-03 1.663409534447e-02 0.0 
0.0 0.0 0.0 
3.452149734606e-05 -1.068637440332e-04 0.0 
-1.068637440332e-04 3.541630827157e-04 0.0 
0.0 0.0 0.0 
2.111397250544e-04 1.373361195066e-03 0.0 
1.373361195066e-03 8.522994864025e-03 0.0 
0.0 0.0 0.0 
-5.297956601185e-04 2.397562872161e-03 0.0 
2.397562872161e-03 1.597869455928e-02 0.0 
0.0 0.0 0.0 
-4.956053398004e-04 1.294888238146e-04 0.0 
1.294888238146e-04 6.674743271293e-04 0.0 
0.0 0.0 0.0 
3.583278275954e-04 2.499939280204e-03 0.0 
2.499939280204e-03 1.041842983293e-02 0.0 
0.0 0.0 0.0 
-8.677660591423e-04 1.159782303400e-04 0.0 
1.159782303400e-04 1.643041659173e-02 0.0 
0.0 0.0 0.0 
-2.499371806719e-04 7.109559322245e-04 0.0 
7.109559322245e-04 1.741639997370e-02 0.0 
0.0 0.0 0.0 
0.0 2.291157210734e-03 0.0 
2.291157210734e-03 1.009550177752e-02 0.0 
0.0 0.0 0.0 
-9.334157923802e-04 -1.502233152480e-05 0.0 
-1.502233152480e-05 1.592102507816e-02 0.0 
0.0 0.0 0.0 
-4.756089424329e-05 2.934773807637e-03 0.0 
2.934773807637e-03 1.362907996836e-02 0.0 
0.0 0.0 0.0 
-7.385937478446e-04 2.103483299427e-03 0.0 
2.103483299427e-03 1.610514121343e-02 0.0 
0.0 0.0 0.0 
-8.686260676614e-04 8.577493981593e-05 0.0 
8.577493981593e-05 1.615374909549e-02 0.0 
0.0 0.0 0.0 
-9.054008370735e-05 2.807057336622e-03 0.0 
2.807057336622e-03 1.317633699260e-02 0.0 
0.0 0.0 0.0 
6.456675948723e-04 -7.674096078485e-05 0.0 
-7.674096078485e-05 2.896972123700e-03 0.0 
0.0 0.0 0.0 
-1.063557158289e-03 -1.159047423200e-05 0.0 
-1.159047423200e-05 1.445029057147e-02 0.0 
0.0 0.0 0.0 
4.455302753501e-04 2.546027640105e-03 0.0 
2.546027640105e-03 1.025846712394e-02 0.0 
0.0 0.0 0.0 
-2.310967522062e-04 1.037234727135e-04 0.0 
1.037234727135e-04 1.750365610962e-02 0.0 
0.0 0.0 0.0 
1.211348759507e-04 6.524408897713e-06 0.0 
6.524408897713e-06 4.499591667906e-05 0.0 
0.0 0.0 0.0 
-1.065572608951e-03 1.875412933911e-05 0.0 
1.875412933911e-05 1.447835361693e-02 0.0 
0.0 0.0 0.0 
1.685566036762e-04 4.249877391358e-05 0.0 
4.249877391358e-05 7.910534671422e-03 0.0 
0.0 0.0 0.0 
2.884047871843e-04 -1.163245654265e-04 0.0 
-1.163245654265e-04 1.267626739351e-03 0.0 
0.0 0.0 0.0 
6.348767525108e-04 1.717710140844e-03 0.0 
1.717710140844e-03 8.456003859620e-03 0.0 
0.0 0.0 0.0 
-6.871432155467e-04 2.417291341188e-03 0.0 
2.417291341188e-03 1.543343690791e-02 0.0 
0.0 0.0 0.0 
-4.584314263183e-04 6.239921843233e-04 0.0 
6.239921843233e-04 1.740901126523e-02 0.0 
0.0 0.0 0.0 
2.854659374074e-04 -6.560550567978e-05 0.0 
-6.560550567978e-05 1.210061200285e-03 0.0 
0.0 0.0 0.0 
-4.255507991774e-04 6.377554789634e-04 0.0 
6.377554789634e-04 1.674140285739e-03 0.0 
0.0 0.0 0.0 
7.335004917306e-04 5.492919835157e-05 0.0 
5.492919835157e-05 4.310984777306e-03 0.0 
0.0 0.0 0.0 
-6.848151507511e-04 1.327540672983e-04 0.0 
1.327540672983e-04 1.677697912690e-02 0.0 
0.0 0.0 0.0 
-1.211396773098e-03 -5.314088038877e-05 0.0 
-5.314088038877e-05 6.411975843836e-04 0.0 
0.0 0.0 0.0 
-3.339125983928e-04 1.805173446583e-03 0.0 
1.805173446583e-03 1.674810460587e-02 0.0 
0.0 0.0 0.0 
-9.289340283023e-04 5.498268004671e-05 0.0 
5.498268004671e-05 1.581156540820e-02 0.0 
0.0 0.0 0.0 
1.410304559246e-04 -3.393505543509e-04 0.0 
-3.393505543509e-04 1.300282009546e-03 0.0 
0.0 0.0 0.0 
-1.011050899324e-03 6.480095534591e-05 0.0 
6.480095534591e-05 1.555616397519e-02 0.0 
0.0 0.0 0.0 
2.687126130039e-04 2.745232750355e-03 0.0 
2.745232750355e-03 1.083491238150e-02 0.0 
0.0 0.0 0.0 
7.385339748980e-04 -4.031318540932e-05 0.0 
-4.031318540932e-05 4.542927524696e-03 0.0 
0.0 0.0 0.0 
-8.341421523834e-04 6.514055173381e-04 0.0 
6.514055173381e-04 9.108410465291e-04 0.0 
0.0 0.0 0.0 
6.215256832816e-04 -4.858824557214e-05 0.0 
-4.858824557214e-05 2.608610411893e-03 0.0 
0.0 0.0 0.0 
7.656430337719e-04 1.738961974486e-05 0.0 
1.738961974486e-05 3.900985378154e-03 0.0 
0.0 0.0 0.0 
7.445666099168e-04 6.015753948684e-05 0.0 
6.015753948684e-05 4.747444356781e-03 0.0 
0.0 0.0 0.0 
4.003003044080e-04 2.272375308440e-03 0.0 
2.272375308440e-03 9.650878546081e-03 0.0 
0.0 0.0 0.0 
7.297277636782e-04 -3.521431666755e-05 0.0 
-3.521431666755e-05 3.797626392269e-03 0.0 
0.0 0.0 0.0 
7.611859428880e-04 1.940430065651e-05 0.0 
1.940430065651e-05 4.057985908426e-03 0.0 
0.0 0.0 0.0 
2.797353596562e-05 -1.009929000363e-04 0.0 
-1.009929000363e-04 6.167090627491e-04 0.0 
0.0 0.0 0.0 
3.434325571789e-04 6.566306959605e-04 0.0 
6.566306959605e-04 7.657431742676e-03 0.0 
0.0 0.0 0.0 
2.836895929483e-04 2.693170165896e-03 0.0 
2.693170165896e-03 1.126445029196e-02 0.0 
0.0 0.0 0.0 
-1.125244000129e-04 6.660188270390e-04 0.0 
6.660188270390e-04 1.781641820532e-03 0.0 
0.0 0.0 0.0 
-1.898949965705e-04 8.896603273161e-05 0.0 
8.896603273161e-05 1.749508384645e-02 0.0 
0.0 0.0 0.0 
1.420176264548e-04 9.563939445429e-05 0.0 
9.563939445429e-05 7.895330584579e-03 0.0 
0.0 0.0 0.0 
-1.058849106428e-03 -2.603693067143e-05 0.0 
-2.603693067143e-05 1.477673266871e-02 0.0 
0.0 0.0 0.0 
-9.633226776367e-04 4.704675876607e-05 0.0 
4.704675876607e-05 1.581068477035e-02 0.0 
0.0 0.0 0.0 
7.421317541572e-04 2.038351669909e-05 0.0 
2.038351669909e-05 3.791386138486e-03 0.0 
0.0 0.0 0.0 
7.512889506891e-04 -2.321746882669e-05 0.0 
-2.321746882669e-05 3.921633648406e-03 0.0 
0.0 0.0 0.0 
7.322996300660e-04 -1.564833232413e-06 0.0 
-1.564833232413e-06 4.075749400425e-03 0.0 
0.0 0.0 0.0 
7.076436660680e-04 1.664821292737e-03 0.0 
1.664821292737e-03 8.150760027053e-03 0.0 
0.0 0.0 0.0 
1.009465040800e-04 -2.323550770379e-04 0.0 
-2.323550770379e-04 1.046502051342e-03 0.0 
0.0 0.0 0.0 
1.239145982999e-04 2.843307687911e-03 0.0 
2.843307687911e-03 1.186492336025e-02 0.0 
0.0 0.0 0.0 
-1.016668375661e-03 2.817622567288e-05 0.0 
2.817622567288e-05 1.513382291755e-02 0.0 
0.0 0.0 0.0 
-6.450625784650e-04 1.729407239627e-03 0.0 
1.729407239627e-03 1.684266967355e-02 0.0 
0.0 0.0 0.0 
5.840789425371e-04 1.570117557652e-03 0.0 
1.570117557652e-03 8.139451141850e-03 0.0 
0.0 0.0 0.0 
-1.054931061907e-03 5.534972940935e-05 0.0 
5.534972940935e-05 1.556315970186e-02 0.0 
0.0 0.0 0.0 
-7.721742055022e-05 2.757152549058e-03 0.0 
2.757152549058e-03 1.293643627903e-02 0.0 
0.0 0.0 0.0 
4.883487956970e-04 2.294920621978e-03 0.0 
2.294920621978e-03 9.640103872112e-03 0.0 
0.0 0.0 0.0 
3.761621436671e-04 2.533124505972e-03 0.0 
2.533124505972e-03 1.016300946680e-02 0.0 
0.0 0.0 0.0 
-7.032680334180e-04 7.088446915419e-04 0.0 
7.088446915419e-04 8.551100507297e-04 0.0 
0.0 0.0 0.0 
-1.836775629780e-04 2.752685414934e-03 0.0 
2.752685414934e-03 1.293725933476e-02 0.0 
0.0 0.0 0.0 
7.907926613093e-06 2.950526903449e-03 0.0 
2.950526903449e-03 1.281963109653e-02 0.0 
0.0 0.0 0.0 
4.261368343728e-05 -1.595420752403e-04 0.0 
-1.595420752403e-04 6.476080365301e-04 0.0 
0.0 0.0 0.0 
7.270915922417e-04 -3.945649941510e-05 0.0 
-3.945649941510e-05 3.586561771236e-03 0.0 
0.0 0.0 0.0 
-7.510457454514e-04 4.948058799787e-04 0.0 
4.948058799787e-04 9.986380272868e-04 0.0 
0.0 0.0 0.0 
-1.986099598921e-04 2.929338319936e-03 0.0 
2.929338319936e-03 1.340796701887e-02 0.0 
0.0 0.0 0.0 

TENSORS element_materi_strain_plasti float
-4.741889373871e-04 2.342858306946e-04 0.0 
2.342858306946e-04 2.814002888893e-03 0.0 
0.0 0.0 -4.220722639049e-04 
-3.897703972720e-04 -2.636930979350e-04 0.0 
-2.636930979350e-04 2.518846771568e-03 0.0 
0.0 0.0 -4.303330772826e-04 
-1.259341393326e-03 -3.090507185476e-05 0.0 
-3.090507185476e-05 8.411433358411e-03 0.0 
0.0 0.0 -1.278236581085e-03 
-1.261464826866e-03 -1.747915258518e-04 0.0 
-1.747915258518e-04 8.480496286503e-03 0.0 
0.0 0.0 -1.255598393855e-03 
-7.983281552708e-04 2.303090028113e-04 0.0 
2.303090028113e-04 5.254489729699e-03 0.0 
0.0 0.0 -7.961861350945e-04 
-2.059346616286e-04 2.207607006017e-04 0.0 
2.207607006017e-04 1.009101900264e-03 0.0 
0.0 0.0 -1.793459522598e-04 
-7.878967474187e-04 2.695248863588e-04 0.0 
2.695248863588e-04 5.204562819075e-03 0.0 
0.0 0.0 -8.011023898636e-04 
-4.128254064944e-04 4.080923401225e-05 0.0 
4.080923401225e-05 2.687408780313e-03 0.0 
0.0 0.0 -4.045669272905e-04 
-8.029485881417e-04 -2.877766516214e-04 0.0 
-2.877766516214e-04 5.280709952101e-03 0.0 
0.0 0.0 -7.977904104816e-04 
-1.248589478216e-03 2.242094407416e-04 0.0 
2.242094407416e-04 8.399546616313e-03 0.0 
0.0 0.0 -1.253060141438e-03 
-8.734037686267e-04 1.480436446760e-04 0.0 
1.480436446760e-04 5.724300399011e-03 0.0 
0.0 0.0 -8.816510380685e-04 
-3.813204680076e-04 2.190974573011e-07 0.0 
2.190974573011e-07 2.153866306060e-03 0.0 
0.0 0.0 -3.735031833740e-04 
-1.251882997596e-03 2.259053558601e-04 0.0 
2.259053558601e-04 8.467796470942e-03 0.0 
0.0 0.0 -1.259187713256e-03 
-8.479147549375e-04 1.860153946805e-04 0.0 
1.860153946805e-04 5.638680799524e-03 0.0 
0.0 0.0 -8.526168115438e-04 
-1.288189434839e-03 -1.832848558744e-04 0.0 
-1.832848558744e-04 8.626562874010e-03 0.0 
0.0 0.0 -1.289538875031e-03 
-1.301181403367e-03 2.039645816312e-04 0.0 
2.039645816312e-04 8.626062176419e-03 0.0 
0.0 0.0 -1.285984941237e-03 
-7.889097476292e-04 4.689353054498e-06 0.0 
4.689353054498e-06 5.256085596916e-03 0.0 
0.0 0.0 -7.740676797406e-04 
-1.741032192830e-04 -1.984587543237e-04 0.0 
-1.984587543237e-04 9.106845467383e-04 0.0 
0.0 0.0 -1.826237857505e-04 
-3.103934600629e-04 -1.188849736468e-04 0.0 
-1.188849736468e-04 1.808737160777e-03 0.0 
0.0 0.0 -2.776016825098e-04 
-3.017260514233e-04 1.101242532993e-04 0.0 
1.101242532993e-04 1.644506395847e-03 0.0 
0.0 0.0 -3.031105466646e-04 
-1.236978180346e-03 -2.273342210413e-04 0.0 
-2.273342210413e-04 8.474882909105e-03 0.0 
0.0 0.0 -1.250388265701e-03 
-4.788832533263e-04 9.235771209212e-05 0.0 
9.235771209212e-05 2.938553769608e-03 0.0 
0.0 0.0 -4.811142067971e-04 
-5.153479436011e-04 -1.000310601358e-04 0.0 
-1.000310601358e-04 3.322116646267e-03 0.0 
0.0 0.0 -5.091556215902e-04 
-1.207914407075e-03 -1.521033174033e-04 0.0 
-1.521033174033e-04 8.119148175608e-03 0.0 
0.0 0.0 -1.210372970477e-03 
-9.004893154001e-04 2.196977328254e-04 0.0 
2.196977328254e-04 6.011080091783e-03 0.0 
0.0 0.0 -9.130988374533e-04 
-9.174590915307e-04 -1.450811372332e-04 0.0 
-1.450811372332e-04 6.162434229051e-03 0.0 
0.0 0.0 -9.179597371190e-04 
-7.131055436639e-04 -1.829825241457e-05 0.0 
-1.829825241457e-05 4.865076399380e-03 0.0 
0.0 0.0 -7.148082707961e-04 
-1.275014108034e-03 1.320223363471e-05 0.0 
1.320223363471e-05 8.706353732723e-03 0.0 
0.0 0.0 -1.266047838742e-03 
-9.084778585211e-04 -2.532626103826e-04 0.0 
-2.532626103826e-04 6.055345996359e-03 0.0 
0.0 0.0 -9.113908267906e-04 
-1.248671644074e-03 1.500744587119e-04 0.0 
1.500744587119e-04 8.319441606585e-03 0.0 
0.0 0.0 -1.237914324842e-03 
-2.162503473685e-04 3.355180743616e-05 0.0 
3.355180743616e-05 1.390767343688e-03 0.0 
0.0 0.0 -2.185975924268e-04 
-1.102777646679e-04 3.092462500308e-05 0.0 
3.092462500308e-05 6.008114765358e-04 0.0 
0.0 0.0 -1.059755802940e-04 
-1.291285801941e-03 5.563014948252e-05 0.0 
5.563014948252e-05 8.705630370944e-03 0.0 
0.0 0.0 -1.261301343383e-03 
-1.086169392383e-03 -1.843155554573e-04 0.0 
-1.843155554573e-04 7.250914267633e-03 0.0 
0.0 0.0 -1.090200430068e-03 
-1.229627234356e-03 -2.081816156675e-04 0.0 
-2.081816156675e-04 8.461501921680e-03 0.0 
0.0 0.0 -1.254989870190e-03 
-1.333928130876e-03 3.870959300371e-04 0.0 
3.870959300371e-04 8.918766405510e-03 0.0 
0.0 0.0 -1.314886350686e-03 
-1.319549054242e-03 -4.082653656671e-04 0.0 
-4.082653656671e-04 8.897494246722e-03 0.0 
0.0 0.0 -1.314653105918e-03 
-1.251043943053e-03 1.755104499557e-04 0.0 
1.755104499557e-04 8.438640087517e-03 0.0 
0.0 0.0 -1.264739017786e-03 
-7.261695585194e-04 -3.174047361397e-04 0.0 
-3.174047361397e-04 4.739951691414e-03 0.0 
0.0 0.0 -7.380763454960e-04 
-7.293562810949e-04 3.567993421673e-04 0.0 
3.567993421673e-04 4.808642079977e-03 0.0 
0.0 0.0 -7.371174501546e-04 
-5.783756129442e-04 -1.365848045621e-04 0.0 
-1.365848045621e-04 3.784424820314e-03 0.0 
0.0 0.0 -5.794556523337e-04 
-1.262877717034e-03 1.019690194500e-05 0.0 
1.019690194500e-05 8.450550888573e-03 0.0 
0.0 0.0 -1.280756488215e-03 
-3.226099019571e-04 2.179474137412e-04 0.0 
2.179474137412e-04 1.923375161646e-03 0.0 
0.0 0.0 -3.207852484642e-04 
-7.228265239816e-04 5.532830836335e-05 0.0 
5.532830836335e-05 4.629144605835e-03 0.0 
0.0 0.0 -7.350059072715e-04 
-1.225055898073e-03 -9.816574622214e-05 0.0 
-9.816574622214e-05 8.293394798268e-03 0.0 
0.0 0.0 -1.212858513926e-03 
-3.206551623609e-04 -1.904275671922e-04 0.0 
-1.904275671922e-04 1.917970267075e-03 0.0 
0.0 0.0 -3.198426158856e-04 
-1.782809379457e-04 -4.378063602814e-06 0.0 
-4.378063602814e-06 7.801372807209e-04 0.0 
0.0 0.0 -1.830859565219e-04 
-1.220501464306e-03 6.316947048485e-05 0.0 
6.316947048485e-05 8.106622909265e-03 0.0 
0.0 0.0 -1.234743356787e-03 
-9.829459878545e-05 4.583948434492e-06 0.0 
4.583948434492e-06 3.276774367732e-04 0.0 
0.0 0.0 -9.830693056617e-05 
-8.022047642295e-04 -1.811997065716e-04 0.0 
-1.811997065716e-04 5.439298518069e-03 0.0 
0.0 0.0 -8.229436299569e-04 
-5.489987759976e-04 -1.133059547326e-04 0.0 
-1.133059547326e-04 3.572814356686e-03 0.0 
0.0 0.0 -5.440916476828e-04 
-3.388458973027e-04 -7.042877961888e-05 0.0 
-7.042877961888e-05 2.248035829402e-03 0.0 
0.0 0.0 -3.443810396916e-04 
-3.074157494333e-04 -1.467796149718e-04 0.0 
-1.467796149718e-04 1.814374481458e-03 0.0 
0.0 0.0 -3.047895897720e-04 
-5.421593945536e-04 1.293548672114e-04 0.0 
1.293548672114e-04 3.418474043213e-03 0.0 
0.0 0.0 -5.489460876789e-04 
-1.266579725590e-03 -7.893235167105e-06 0.0 
-7.893235167105e-06 8.468672292321e-03 0.0 
0.0 0.0 -1.282189168212e-03 
-4.597210026087e-04 -1.452187243082e-04 0.0 
-1.452187243082e-04 2.937502524048e-03 0.0 
0.0 0.0 -4.512233509908e-04 
-3.611878323951e-04 1.444175472609e-04 0.0 
1.444175472609e-04 2.127268062759e-03 0.0 
0.0 0.0 -3.694212080277e-04 
-1.088084509005e-03 1.827090950975e-04 0.0 
1.827090950975e-04 7.290496234404e-03 0.0 
0.0 0.0 -1.087734043503e-03 
-2.215722591698e-04 2.179680801215e-05 0.0 
2.179680801215e-05 1.355906413413e-03 0.0 
0.0 0.0 -2.189683579105e-04 
-1.291565119731e-03 -2.058202376930e-04 0.0 
-2.058202376930e-04 8.638287399564e-03 0.0 
0.0 0.0 -1.285320035817e-03 
-9.406322495114e-05 -1.263405609948e-04 0.0 
-1.263405609948e-04 5.178868060056e-04 0.0 
0.0 0.0 -9.532668554595e-05 
-1.207108165930e-03 2.281727388557e-04 0.0 
2.281727388557e-04 8.099161405669e-03 0.0 
0.0 0.0 -1.210824713543e-03 
-5.507253245742e-04 2.263693422712e-04 0.0 
2.263693422712e-04 3.467321570737e-03 0.0 
0.0 0.0 -5.497085007362e-04 
-2.633068753573e-04 1.211642318687e-04 0.0 
1.211642318687e-04 1.594924151360e-03 0.0 
0.0 0.0 -2.769417647402e-04 
-1.253722868311e-03 -1.824681277037e-04 0.0 
-1.824681277037e-04 8.465445333240e-03 0.0 
0.0 0.0 -1.257478522087e-03 
-5.218987792326e-04 1.045965667427e-04 0.0 
1.045965667427e-04 3.169150320614e-03 0.0 
0.0 0.0 -5.137572693775e-04 
-6.027079853022e-05 4.538885378733e-05 0.0 
4.538885378733e-05 2.053936984274e-04 0.0 
0.0 0.0 -6.219552852736e-05 
-1.264974411680e-03 -7.934823425824e-05 0.0 
-7.934823425824e-05 8.671954395754e-03 0.0 
0.0 0.0 -1.261660853087e-03 
-2.446973118895e-04 -2.103372277075e-04 0.0 
-2.103372277075e-04 1.398643057908e-03 0.0 
0.0 0.0 -2.404310120911e-04 
-1.273528016320e-03 -3.786679226446e-06 0.0 
-3.786679226446e-06 8.448618323595e-03 0.0 
0.0 0.0 -1.282376455277e-03 
-9.491469452999e-04 -1.694945758870e-04 0.0 
-1.694945758870e-04 6.388198818832e-03 0.0 
0.0 0.0 -9.556290573178e-04 
-1.338499280800e-03 -4.782411066385e-06 0.0 
-4.782411066385e-06 8.836661036334e-03 0.0 
0.0 0.0 -1.338499280800e-03 
-1.237491500558e-03 1.679725136131e-06 0.0 
1.679725136131e-06 8.119391193773e-03 0.0 
0.0 0.0 -1.232909111256e-03 
-1.306267830690e-04 2.201659246920e-04 0.0 
2.201659246920e-04 5.612930774450e-04 0.0 
0.0 0.0 -1.295286970291e-04 
-4.862904107144e-04 1.519111044425e-04 0.0 
1.519111044425e-04 2.949318680170e-03 0.0 
0.0 0.0 -4.777371989943e-04 
-1.254133957623e-03 -1.731664304593e-04 0.0 
-1.731664304593e-04 8.495066883004e-03 0.0 
0.0 0.0 -1.262626981217e-03 
-1.278966520388e-03 -5.463065947738e-06 0.0 
-5.463065947738e-06 8.716306064884e-03 0.0 
0.0 0.0 -1.265352048664e-03 
-2.500278062254e-04 -1.904083940436e-04 0.0 
-1.904083940436e-04 1.447205075698e-03 0.0 
0.0 0.0 -2.510564503189e-04 
-2.134033531635e-04 -1.202880701253e-05 0.0 
-1.202880701253e-05 1.118917748560e-03 0.0 
0.0 0.0 -2.366757893512e-04 
-2.618885880878e-04 2.000957013545e-04 0.0 
2.000957013545e-04 1.434490946595e-03 0.0 
0.0 0.0 -2.525559601288e-04 
-2.561151872773e-04 2.173251173938e-04 0.0 
2.173251173938e-04 1.315804408785e-03 0.0 
0.0 0.0 -2.439992467140e-04 
-7.756433689863e-04 3.199927864604e-05 0.0 
3.199927864604e-05 4.983308918424e-03 0.0 
0.0 0.0 -7.918363975426e-04 
-4.925212314280e-04 -9.934539810259e-05 0.0 
-9.934539810259e-05 3.122416797223e-03 0.0 
0.0 0.0 -4.749402310763e-04 
-4.545793902690e-04 2.152694959795e-05 0.0 
2.152694959795e-05 2.617959458630e-03 0.0 
0.0 0.0 -4.438329512050e-04 
-8.539707940100e-04 -2.466642961344e-04 0.0 
-2.466642961344e-04 5.506675063211e-03 0.0 
0.0 0.0 -8.336771054075e-04 
-8.435305426983e-04 2.228252034013e-04 0.0 
2.228252034013e-04 5.474459253188e-03 0.0 
0.0 0.0 -8.358076868167e-04 
-9.896151407778e-04 -1.847277247936e-04 0.0 
-1.847277247936e-04 6.561076695027e-03 0.0 
0.0 0.0 -9.867109252839e-04 
-1.055581697673e-03 1.942475256944e-04 0.0 
1.942475256944e-04 7.096214809641e-03 0.0 
0.0 0.0 -1.058576829647e-03 
-1.087556198862e-03 -2.099876550133e-04 0.0 
-2.099876550133e-04 7.325766427452e-03 0.0 
0.0 0.0 -1.085941371602e-03 
-7.938707313230e-04 -2.935700947946e-04 0.0 
-2.935700947946e-04 5.166210845136e-03 0.0 
0.0 0.0 -7.983229688164e-04 
-9.891997245645e-05 3.705985749018e-05 0.0 
3.705985749018e-05 3.315907805062e-04 0.0 
0.0 0.0 -9.971606059273e-05 
-7.885073175136e-04 2.083610238613e-05 0.0 
2.083610238613e-05 5.061448418496e-03 0.0 
0.0 0.0 -7.928983479555e-04 
-1.080416093341e-03 -1.102030882250e-04 0.0 
-1.102030882250e-04 7.033104683541e-03 0.0 
0.0 0.0 -1.069439317440e-03 
-1.045886068578e-03 1.124481538710e-04 0.0 
1.124481538710e-04 7.095766026653e-03 0.0 
0.0 0.0 -1.046447409317e-03 
-1.328437641777e-03 -2.129776585030e-05 0.0 
-2.129776585030e-05 9.108372857470e-03 0.0 
0.0 0.0 -1.319970921405e-03 
-1.300424073257e-03 -1.489012867547e-04 0.0 
-1.489012867547e-04 8.723441004214e-03 0.0 
0.0 0.0 -1.294194962782e-03 
-7.712114504191e-04 -1.098703338913e-04 0.0 
-1.098703338913e-04 4.988523523052e-03 0.0 
0.0 0.0 -7.889745663688e-04 
-1.284794183645e-03 -1.672243708717e-06 0.0 
-1.672243708717e-06 8.719527791253e-03 0.0 
0.0 0.0 -1.263183913703e-03 
-8.948346215206e-04 -1.546261929542e-04 0.0 
-1.546261929542e-04 5.902983939671e-03 0.0 
0.0 0.0 -9.040008563810e-04 
-5.152734121650e-04 -1.377156700746e-04 0.0 
-1.377156700746e-04 3.387112186572e-03 0.0 
0.0 0.0 -5.198799001330e-04 
-7.537468891923e-04 -1.811454266392e-04 0.0 
-1.811454266392e-04 5.032849217033e-03 0.0 
0.0 0.0 -7.643292725053e-04 
-1.300051982580e-03 1.933815268577e-04 0.0 
1.933815268577e-04 8.643096299671e-03 0.0 
0.0 0.0 -1.287517816355e-03 
-1.042138929644e-03 -2.218801567961e-04 0.0 
-2.218801567961e-04 6.995297199161e-03 0.0 
0.0 0.0 -1.043751955586e-03 
-1.212978672895e-03 -2.149778667110e-04 0.0 
-2.149778667110e-04 8.151603330808e-03 0.0 
0.0 0.0 -1.209599240962e-03 
-4.772009659135e-04 -2.042000113292e-04 0.0 
-2.042000113292e-04 3.047489558792e-03 0.0 
0.0 0.0 -4.747543016519e-04 
-1.600906628411e-04 5.774618246661e-05 0.0 
5.774618246661e-05 1.025327310925e-03 0.0 
0.0 0.0 -1.624897275554e-04 
-1.185986913304e-03 -1.994673824885e-04 0.0 
-1.994673824885e-04 7.973913807476e-03 0.0 
0.0 0.0 -1.189902873528e-03 
-1.119764034804e-03 7.291963016848e-05 0.0 
7.291963016848e-05 7.561876066393e-03 0.0 
0.0 0.0 -1.108790581071e-03 
-1.060815689674e-04 -4.441233851537e-05 0.0 
-4.441233851537e-05 6.067820639570e-04 0.0 
0.0 0.0 -1.038131581323e-04 
-1.254593141611e-03 -8.600335574532e-05 0.0 
-8.600335574532e-05 8.491952788715e-03 0.0 
0.0 0.0 -1.285127980003e-03 
-1.054610615232e-03 1.830679382236e-04 0.0 
1.830679382236e-04 6.961937164299e-03 0.0 
0.0 0.0 -1.051491716222e-03 
-1.014932494026e-04 -1.696691582668e-04 0.0 
-1.696691582668e-04 3.826202340035e-04 0.0 
0.0 0.0 -1.013520483084e-04 
-6.301709070232e-04 2.090314443316e-04 0.0 
2.090314443316e-04 4.024350450833e-03 0.0 
0.0 0.0 -6.309931931857e-04 
-7.106440805021e-04 -1.470402379689e-04 0.0 
-1.470402379689e-04 4.709551499753e-03 0.0 
0.0 0.0 -7.153918394734e-04 
-5.826588176687e-04 -7.135686322074e-05 0.0 
-7.135686322074e-05 3.565625895428e-03 0.0 
0.0 0.0 -5.772375537024e-04 
-4.700128970004e-04 1.674991601262e-04 0.0 
1.674991601262e-04 2.986365482111e-03 0.0 
0.0 0.0 -4.852398935310e-04 
-5.464898507642e-04 -2.243214163868e-04 0.0 
-2.243214163868e-04 3.519571152392e-03 0.0 
0.0 0.0 -5.471823052058e-04 
-1.295684493703e-03 1.105875109316e-04 0.0 
1.105875109316e-04 8.547279304038e-03 0.0 
0.0 0.0 -1.283833066805e-03 
-8.570047827625e-04 1.861607891450e-04 0.0 
1.861607891450e-04 5.815261551137e-03 0.0 
0.0 0.0 -8.766975940251e-04 
-5.090056138741e-04 2.359482171436e-04 0.0 
2.359482171436e-04 3.233178911117e-03 0.0 
0.0 0.0 -5.122473358773e-04 
-2.401563577846e-04 -2.327182583627e-04 0.0 
-2.327182583627e-04 1.352155075276e-03 0.0 
0.0 0.0 -2.295267891405e-04 
-7.623542819022e-04 1.283036037405e-04 0.0 
1.283036037405e-04 5.225810972112e-03 0.0 
0.0 0.0 -7.744920945421e-04 
-1.103870852233e-03 -9.179179606017e-05 0.0 
-9.179179606017e-05 7.387674560018e-03 0.0 
0.0 0.0 -1.129288753466e-03 
-5.110192863145e-04 -2.509386708552e-04 0.0 
-2.509386708552e-04 3.262724462356e-03 0.0 
0.0 0.0 -5.109724225979e-04 
-1.701414425471e-04 -1.534722166071e-04 0.0 
-1.534722166071e-04 9.835208087659e-04 0.0 
0.0 0.0 -1.803716510945e-04 
-6.470086521654e-04 -1.523090755331e-04 0.0 
-1.523090755331e-04 4.254329431162e-03 0.0 
0.0 0.0 -6.470401313398e-04 
-5.812575166428e-04 7.210416783764e-05 0.0 
7.210416783764e-05 3.739643384108e-03 0.0 
0.0 0.0 -5.578851714504e-04 
-6.125337073477e-04 1.558115274756e-04 0.0 
1.558115274756e-04 3.923971555451e-03 0.0 
0.0 0.0 -6.167189930164e-04 
-1.291653437089e-03 1.656662026679e-04 0.0 
1.656662026679e-04 8.654933890924e-03 0.0 
0.0 0.0 -1.290671971449e-03 
-2.237296866694e-04 1.772304597235e-04 0.0 
1.772304597235e-04 1.151710267161e-03 0.0 
0.0 0.0 -2.092271396208e-04 
-9.141643905242e-04 1.684200684002e-04 0.0 
1.684200684002e-04 6.033430644026e-03 0.0 
0.0 0.0 -9.216843799351e-04 
-1.271942419784e-03 2.295590735456e-04 0.0 
2.295590735456e-04 8.471227576744e-03 0.0 
0.0 0.0 -1.256690274141e-03 
-6.609256603744e-04 1.763317732061e-04 0.0 
1.763317732061e-04 4.239720102404e-03 0.0 
0.0 0.0 -6.588732905211e-04 
-6.147586220519e-04 -1.550456399962e-04 0.0 
-1.550456399962e-04 4.029116054442e-03 0.0 
0.0 0.0 -6.139229799761e-04 
-1.241743830704e-03 2.520731219918e-04 0.0 
2.520731219918e-04 8.466488124430e-03 0.0 
0.0 0.0 -1.254964138299e-03 
-1.256064603940e-03 -2.623116581345e-04 0.0 
-2.623116581345e-04 8.488036362470e-03 0.0 
0.0 0.0 -1.261070974318e-03 
-9.903209289541e-04 1.774668260032e-04 0.0 
1.774668260032e-04 6.556735258886e-03 0.0 
0.0 0.0 -9.873713238705e-04 
-6.942353831373e-04 -1.750200192602e-04 0.0 
-1.750200192602e-04 4.553149239605e-03 0.0 
0.0 0.0 -6.916138708610e-04 
-1.272024970549e-03 7.302822811060e-05 0.0 
7.302822811060e-05 8.719688557752e-03 0.0 
0.0 0.0 -1.270330610962e-03 
-6.345922402826e-04 1.791748683913e-04 0.0 
1.791748683913e-04 4.059488016012e-03 0.0 
0.0 0.0 -6.326048069937e-04 
-1.254086704545e-03 -7.990901772482e-06 0.0 
-7.990901772482e-06 8.463054394802e-03 0.0 
0.0 0.0 -1.283174495648e-03 
-1.276280299661e-03 7.633372817429e-05 0.0 
7.633372817429e-05 8.703927362015e-03 0.0 
0.0 0.0 -1.267437373369e-03 
-8.565153591279e-04 -2.695301549172e-04 0.0 
-2.695301549172e-04 5.568894745570e-03 0.0 
0.0 0.0 -8.543707170918e-04 
-9.713226980400e-04 1.946342578751e-04 0.0 
1.946342578751e-04 6.532485670191e-03 0.0 
0.0 0.0 -9.817831382938e-04 
-6.315283379598e-04 -1.826998149001e-04 0.0 
-1.826998149001e-04 4.113094555245e-03 0.0 
0.0 0.0 -6.293189184696e-04 
-5.902450977428e-04 1.623031646130e-04 0.0 
1.623031646130e-04 3.689468477665e-03 0.0 
0.0 0.0 -5.830241378053e-04 
-7.249782629771e-04 1.809288523893e-04 0.0 
1.809288523893e-04 4.673091201127e-03 0.0 
0.0 0.0 -7.211932326589e-04 
-5.403888112139e-04 -1.689543050932e-04 0.0 
-1.689543050932e-04 3.513114326182e-03 0.0 
0.0 0.0 -5.383041810906e-04 
-7.661110268238e-04 -1.968496736506e-04 0.0 
-1.968496736506e-04 5.166653984338e-03 0.0 
0.0 0.0 -7.693993191400e-04 
-6.294182824657e-04 -2.163757471590e-04 0.0 
-2.163757471590e-04 4.099286379753e-03 0.0 
0.0 0.0 -6.275039421266e-04 
-9.046107145180e-05 -7.326081393818e-05 0.0 
-7.326081393818e-05 3.093039216746e-04 0.0 
0.0 0.0 -9.378979295261e-05 
-8.218888591145e-04 -1.362265050310e-05 0.0 
-1.362265050310e-05 5.568518320124e-03 0.0 
0.0 0.0 -8.171079392438e-04 
-2.708662158631e-04 3.135426371183e-06 0.0 
3.135426371183e-06 1.198400692882e-03 0.0 
0.0 0.0 -2.373169254524e-04 
-6.825469564227e-04 -1.538944897681e-04 0.0 
-1.538944897681e-04 4.493577698030e-03 0.0 
0.0 0.0 -6.809683978454e-04 
-1.266750237588e-03 4.200148413706e-06 0.0 
4.200148413706e-06 8.473073137795e-03 0.0 
0.0 0.0 -1.284796145094e-03 
-4.841925383156e-04 2.284371901656e-04 0.0 
2.284371901656e-04 3.002882293729e-03 0.0 
0.0 0.0 -4.767992880414e-04 
-1.020870051268e-03 2.043993854784e-04 0.0 
2.043993854784e-04 6.818231983257e-03 0.0 
0.0 0.0 -1.021089721936e-03 
-3.490407114895e-04 -2.220876940667e-04 0.0 
-2.220876940667e-04 2.148206482994e-03 0.0 
0.0 0.0 -3.540742325023e-04 
-1.043282338519e-03 2.368159947985e-04 0.0 
2.368159947985e-04 6.958410863996e-03 0.0 
0.0 0.0 -1.044905595188e-03 
-8.013630412541e-04 6.389824081770e-06 0.0 
6.389824081770e-06 5.002686662292e-03 0.0 
0.0 0.0 -7.899655494116e-04 
-5.947683694498e-04 2.081256616157e-04 0.0 
2.081256616157e-04 3.787155443009e-03 0.0 
0.0 0.0 -5.931463391684e-04 
-1.121794229525e-03 -2.159685184144e-04 0.0 
-2.159685184144e-04 7.508906289541e-03 0.0 
0.0 0.0 -1.120963572432e-03 
-2.180914166738e-04 1.756512204205e-04 0.0 
1.756512204205e-04 1.241780399830e-03 0.0 
0.0 0.0 -2.346376350630e-04 
-1.178651579784e-03 2.200776692921e-04 0.0 
2.200776692921e-04 7.962810812677e-03 0.0 
0.0 0.0 -1.189111243166e-03 
-7.770557330009e-04 1.799043213504e-04 0.0 
1.799043213504e-04 5.036915018676e-03 0.0 
0.0 0.0 -7.711223959738e-04 
-1.280064085681e-03 1.291641233302e-05 0.0 
1.291641233302e-05 8.715123744243e-03 0.0 
0.0 0.0 -1.265987209193e-03 
-7.886647595986e-04 2.426638412859e-05 0.0 
2.426638412859e-05 5.002569468986e-03 0.0 
0.0 0.0 -7.842605076999e-04 
-5.085061027867e-04 1.624719349291e-04 0.0 
1.624719349291e-04 3.132188298831e-03 0.0 
0.0 0.0 -5.042822341261e-04 
-6.680122214844e-04 1.543414038777e-04 0.0 
1.543414038777e-04 4.389762745766e-03 0.0 
0.0 0.0 -6.840799553763e-04 
-9.007934225225e-04 -1.247506640906e-04 0.0 
-1.247506640906e-04 5.946782140169e-03 0.0 
0.0 0.0 -8.722824885218e-04 
-3.656654935952e-04 2.470171187882e-04 0.0 
2.470171187882e-04 2.250740956869e-03 0.0 
0.0 0.0 -3.514598124168e-04 
-5.924594186081e-04 -2.113287385342e-04 0.0 
-2.113287385342e-04 3.843594924053e-03 0.0 
0.0 0.0 -5.911455407098e-04 
-1.021044424836e-03 -2.319523584095e-04 0.0 
-2.319523584095e-04 6.800629387681e-03 0.0 
0.0 0.0 -1.016465148841e-03 
-7.832948860766e-04 1.542506256290e-04 0.0 
1.542506256290e-04 5.221219062028e-03 0.0 
0.0 0.0 -7.680022369673e-04 
-5.676669992827e-04 1.711896275724e-04 0.0 
1.711896275724e-04 3.564089172862e-03 0.0 
0.0 0.0 -5.666226778950e-04 
-6.536822883720e-04 1.457424227354e-04 0.0 
1.457424227354e-04 4.156474681675e-03 0.0 
0.0 0.0 -6.498546761489e-04 
-1.132270982309e-03 2.069255922965e-04 0.0 
2.069255922965e-04 7.587995835191e-03 0.0 
0.0 0.0 -1.136725521675e-03 
-6.243703934397e-04 -5.657386080576e-05 0.0 
-5.657386080576e-05 4.179915537147e-03 0.0 
0.0 0.0 -6.189190723244e-04 
-1.269582323065e-03 5.358509534077e-05 0.0 
5.358509534077e-05 8.454036067307e-03 0.0 
0.0 0.0 -1.285202198870e-03 
-1.273584082277e-03 -3.447672338956e-05 0.0 
-3.447672338956e-05 8.706627272042e-03 0.0 
0.0 0.0 -1.265486236287e-03 
-4.574522532321e-04 -1.366919469267e-04 0.0 
-1.366919469267e-04 2.968706494426e-03 0.0 
0.0 0.0 -4.595713030950e-04 
-6.193411254741e-04 7.190453835518e-05 0.0 
7.190453835518e-05 3.976368456989e-03 0.0 
0.0 0.0 -6.385407451345e-04 
-1.157661612575e-03 -1.951807319382e-04 0.0 
-1.951807319382e-04 7.743964299132e-03 0.0 
0.0 0.0 -1.152822474774e-03 
-6.058642039219e-04 -1.568622492917e-04 0.0 
-1.568622492917e-04 3.943482715706e-03 0.0 
0.0 0.0 -6.037256927378e-04 
-4.410111678775e-04 1.646945023676e-04 0.0 
1.646945023676e-04 2.528625053889e-03 0.0 
0.0 0.0 -4.251746348339e-04 
-7.492101616992e-04 1.773144067427e-04 0.0 
1.773144067427e-04 4.849787455535e-03 0.0 
0.0 0.0 -7.443430781256e-04 
-6.015846242072e-04 -1.692904042825e-04 0.0 
-1.692904042825e-04 3.951833046067e-03 0.0 
0.0 0.0 -6.011186688906e-04 
-1.288763796550e-03 1.231833412492e-04 0.0 
1.231833412492e-04 8.478545606423e-03 0.0 
0.0 0.0 -1.279059907835e-03 
-1.060544670799e-03 1.938342500095e-04 0.0 
1.938342500095e-04 7.027045279308e-03 0.0 
0.0 0.0 -1.060691896764e-03 
-1.152244772895e-03 2.285095076534e-04 0.0 
2.285095076534e-04 7.745399107629e-03 0.0 
0.0 0.0 -1.155968210243e-03 
-2.882194771885e-04 -2.173510090808e-04 0.0 
-2.173510090808e-04 1.694759427097e-03 0.0 
0.0 0.0 -2.852154713500e-04 
-5.567709701176e-04 -1.966656427987e-04 0.0 
-1.966656427987e-04 3.599381630168e-03 0.0 
0.0 0.0 -5.558335581882e-04 
-1.085941057106e-03 1.940613560134e-04 0.0 
1.940613560134e-04 7.224719901000e-03 0.0 
0.0 0.0 -1.089453766084e-03 
-2.843827826583e-05 -1.788898447607e-05 0.0 
-1.788898447607e-05 1.853186358372e-04 0.0 
0.0 0.0 -4.453055683374e-05 
-6.135292459430e-04 1.555358498215e-04 0.0 
1.555358498215e-04 3.889243112960e-03 0.0 
0.0 0.0 -6.073871274648e-04 
-1.080867878280e-03 -2.316454551772e-04 0.0 
-2.316454551772e-04 7.249333231753e-03 0.0 
0.0 0.0 -1.080675545910e-03 
-1.764831160191e-04 -8.217578917013e-05 0.0 
-8.217578917013e-05 1.019550636912e-03 0.0 
0.0 0.0 -1.605608400042e-04 
-1.238595889810e-03 2.354517143287e-04 0.0 
2.354517143287e-04 8.471121261651e-03 0.0 
0.0 0.0 -1.257517519450e-03 
-9.713207705101e-04 1.946323764391e-04 0.0 
1.946323764391e-04 6.442137433534e-03 0.0 
0.0 0.0 -9.749624431058e-04 
-5.981973631964e-04 1.879071448910e-04 0.0 
1.879071448910e-04 3.813329018576e-03 0.0 
0.0 0.0 -5.995223474422e-04 
-1.084348145166e-03 2.392214872559e-04 0.0 
2.392214872559e-04 7.212887026288e-03 0.0 
0.0 0.0 -1.082135573043e-03 
-8.219004318722e-04 -1.022855745582e-05 0.0 
-1.022855745582e-05 5.626191621955e-03 0.0 
0.0 0.0 -8.259898420369e-04 
-8.600931526374e-04 -1.614882484442e-04 0.0 
-1.614882484442e-04 5.932770930688e-03 0.0 
0.0 0.0 -8.838609275114e-04 
-1.235110349403e-03 -1.423085779250e-04 0.0 
-1.423085779250e-04 8.282740067778e-03 0.0 
0.0 0.0 -1.237791025003e-03 
-4.556209105529e-04 2.036420794211e-04 0.0 
2.036420794211e-04 2.823352627341e-03 0.0 
0.0 0.0 -4.583583101839e-04 
-7.508195319224e-04 1.853886358928e-04 0.0 
1.853886358928e-04 4.860963236206e-03 0.0 
0.0 0.0 -7.480401524272e-04 
-8.027906713221e-04 1.764875410810e-04 0.0 
1.764875410810e-04 5.221920557136e-03 0.0 
0.0 0.0 -7.988399675000e-04 
-1.007530328557e-03 -1.922336022121e-04 0.0 
-1.922336022121e-04 6.759039767950e-03 0.0 
0.0 0.0 -1.008548823165e-03 
-8.112396533279e-04 -1.820827880749e-04 0.0 
-1.820827880749e-04 5.334789694812e-03 0.0 
0.0 0.0 -8.035999206669e-04 
-7.424823838501e-04 -1.611951191526e-04 0.0 
-1.611951191526e-04 4.887914283700e-03 0.0 
0.0 0.0 -7.415510827328e-04 
-9.420049562242e-04 -1.980186569885e-04 0.0 
-1.980186569885e-04 6.275886053793e-03 0.0 
0.0 0.0 -9.414312740916e-04 
-1.106765657790e-03 -2.072912274522e-04 0.0 
-2.072912274522e-04 7.417848919971e-03 0.0 
0.0 0.0 -1.105110859848e-03 
-8.771550322174e-05 -5.128346968203e-06 0.0 
-5.128346968203e-06 5.622743997178e-04 0.0 
0.0 0.0 -1.015871403443e-04 
-4.452411510456e-04 1.078521059613e-04 0.0 
1.078521059613e-04 2.907946245102e-03 0.0 
0.0 0.0 -4.649757541953e-04 
-5.301149448615e-04 1.855290027463e-04 0.0 
1.855290027463e-04 3.290005967673e-03 0.0 
0.0 0.0 -5.249394872960e-04 
-7.215069587740e-04 -1.794285911688e-04 0.0 
-1.794285911688e-04 4.739905292165e-03 0.0 
0.0 0.0 -7.181710532390e-04 
-1.095309768585e-03 -2.099324022586e-04 0.0 
-2.099324022586e-04 7.373113916822e-03 0.0 
0.0 0.0 -1.095076276885e-03 
-2.412241836648e-04 1.824271338485e-04 0.0 
1.824271338485e-04 1.391269291466e-03 0.0 
0.0 0.0 -2.576475407671e-04 
-1.042666947128e-03 -2.211661748355e-04 0.0 
-2.211661748355e-04 6.991049176526e-03 0.0 
0.0 0.0 -1.043355442177e-03 
-7.709980970025e-04 -2.344526007542e-04 0.0 
-2.344526007542e-04 5.001364750652e-03 0.0 
0.0 0.0 -7.763349569542e-04 
-5.598484848317e-04 1.964216387435e-04 0.0 
1.964216387435e-04 3.545883977612e-03 0.0 
0.0 0.0 -5.576783925304e-04 
-1.005904581142e-03 -2.103129090372e-04 0.0 
-2.103129090372e-04 6.739916943409e-03 0.0 
0.0 0.0 -1.006238978475e-03 
-1.328137378895e-04 -1.926409820628e-04 0.0 
-1.926409820628e-04 5.524811366159e-04 0.0 
0.0 0.0 -1.250635456846e-04 
-1.037748486931e-03 2.025826416299e-04 0.0 
2.025826416299e-04 6.894254509779e-03 0.0 
0.0 0.0 -1.040010908530e-03 
-9.586550230840e-05 6.862947183806e-05 0.0 
6.862947183806e-05 5.313753155377e-04 0.0 
0.0 0.0 -1.007187892234e-04 
-1.713724236673e-04 -5.327399001852e-06 0.0 
-5.327399001852e-06 7.517172537926e-04 0.0 
0.0 0.0 -1.819418517600e-04 
-2.796122854916e-04 2.316565417802e-04 0.0 
2.316565417802e-04 1.675994704222e-03 0.0 
0.0 0.0 -2.873666149908e-04 
-3.926605428350e-04 1.733428287045e-04 0.0 
1.733428287045e-04 2.352552718651e-03 0.0 
0.0 0.0 -3.935955730116e-04 
-1.073504857728e-03 -1.857694457952e-04 0.0 
-1.857694457952e-04 7.207934761623e-03 0.0 
0.0 0.0 -1.073797489760e-03 
-3.651136453237e-04 -1.928839212762e-04 0.0 
-1.928839212762e-04 2.293609592088e-03 0.0 
0.0 0.0 -3.637595386041e-04 
-3.442210319020e-04 1.764997975594e-04 0.0 
1.764997975594e-04 2.032847714738e-03 0.0 
0.0 0.0 -3.432832105208e-04 
-2.910729329916e-04 -1.809308260194e-04 0.0 
-1.809308260194e-04 1.763076573158e-03 0.0 
0.0 0.0 -2.922710279673e-04 
-2.622356291375e-04 1.892606687833e-04 0.0 
1.892606687833e-04 1.448318780245e-03 0.0 
0.0 0.0 -2.614315927221e-04 
-1.120397219207e-03 1.996859117335e-04 0.0 
1.996859117335e-04 7.447331785752e-03 0.0 
0.0 0.0 -1.117524173959e-03 
-7.717946648580e-04 -1.881039575464e-04 0.0 
-1.881039575464e-04 5.076611576994e-03 0.0 
0.0 0.0 -7.687972329812e-04 
-1.256202704630e-03 2.478526914498e-04 0.0 
2.478526914498e-04 8.487594918351e-03 0.0 
0.0 0.0 -1.256743614961e-03 
0.0 0.0 0.0 
0.0 0.0 0.0 
0.0 0.0 0.0 
-4.048716956913e-04 1.853052298050e-04 0.0 
1.853052298050e-04 2.461420572415e-03 0.0 
0.0 0.0 -4.044045206172e-04 
-6.239445424560e-04 2.046361178611e-04 0.0 
2.046361178611e-04 3.992995746549e-03 0.0 
0.0 0.0 -6.230907113744e-04 
-5.740868944919e-04 1.850315981272e-04 0.0 
1.850315981272e-04 3.613473978480e-03 0.0 
0.0 0.0 -5.709397776106e-04 
-1.047068133195e-03 2.230470659995e-04 0.0 
2.230470659995e-04 6.949500072304e-03 0.0 
0.0 0.0 -1.045235091131e-03 
-1.285400109254e-03 1.957478292084e-04 0.0 
1.957478292084e-04 8.698618921316e-03 0.0 
0.0 0.0 -1.275930989368e-03 
-1.029713153133e-03 -2.056143237118e-04 0.0 
-2.056143237118e-04 6.913851891301e-03 0.0 
0.0 0.0 -1.029499106509e-03 
-4.579566149125e-04 -1.884217374258e-04 0.0 
-1.884217374258e-04 2.912212194121e-03 0.0 
0.0 0.0 -4.564841486881e-04 
-1.120831572504e-03 -1.912348279819e-04 0.0 
-1.912348279819e-04 7.467678576310e-03 0.0 
0.0 0.0 -1.116166892424e-03 
-9.572670568062e-04 2.571263954152e-04 0.0 
2.571263954152e-04 6.316374419588e-03 0.0 
0.0 0.0 -9.512440159151e-04 
-7.570218913511e-04 -1.787629418727e-04 0.0 
-1.787629418727e-04 4.987297939344e-03 0.0 
0.0 0.0 -7.537083776970e-04 
-9.994998658216e-04 2.045048337303e-04 0.0 
2.045048337303e-04 6.629510214408e-03 0.0 
0.0 0.0 -1.003200534345e-03 
-1.242505065463e-03 -1.591232809489e-04 0.0 
-1.591232809489e-04 8.294319035880e-03 0.0 
0.0 0.0 -1.239730878702e-03 
-6.222328359965e-04 -2.058351298643e-04 0.0 
-2.058351298643e-04 4.057741749781e-03 0.0 
0.0 0.0 -6.206208101913e-04 
-3.761575650769e-04 -1.711217870111e-04 0.0 
-1.711217870111e-04 2.346047162404e-03 0.0 
0.0 0.0 -3.752687577596e-04 
-8.718273414275e-04 -1.903070125198e-04 0.0 
-1.903070125198e-04 5.767456116596e-03 0.0 
0.0 0.0 -8.662621843288e-04 
-1.329807574370e-03 9.926374614617e-05 0.0 
9.926374614617e-05 9.094631735092e-03 0.0 
0.0 0.0 -1.323568725688e-03 
-7.473763321356e-04 -1.878290917318e-04 0.0 
-1.878290917318e-04 4.922460573441e-03 0.0 
0.0 0.0 -7.453270327203e-04 
-7.780710127091e-04 -1.914920916377e-04 0.0 
-1.914920916377e-04 5.142441463468e-03 0.0 
0.0 0.0 -7.768443034385e-04 
-8.403853568470e-04 -5.224028630905e-05 0.0 
-5.224028630905e-05 5.665674692091e-03 0.0 
0.0 0.0 -8.293613651800e-04 
-2.119957057011e-04 -1.175361575482e-04 0.0 
-1.175361575482e-04 1.307524346166e-03 0.0 
0.0 0.0 -2.161141481901e-04 
-8.208799096496e-04 1.843133829192e-04 0.0 
1.843133829192e-04 5.271529166893e-03 0.0 
0.0 0.0 -8.060563724883e-04 
-4.603670611931e-04 1.877974414593e-04 0.0 
1.877974414593e-04 2.847786037855e-03 0.0 
0.0 0.0 -4.590591740919e-04 
-3.265147701176e-04 1.754702989645e-04 0.0 
1.754702989645e-04 1.892353118097e-03 0.0 
0.0 0.0 -3.229397045850e-04 
-2.372523115321e-04 -1.920097841935e-04 0.0 
-1.920097841935e-04 1.297568945568e-03 0.0 
0.0 0.0 -2.426597671045e-04 
-1.076566808285e-03 1.948027566312e-04 0.0 
1.948027566312e-04 7.152792080089e-03 0.0 
0.0 0.0 -1.075985979751e-03 
-8.366892688468e-04 -1.821112197861e-04 0.0 
-1.821112197861e-04 5.525859000099e-03 0.0 
0.0 0.0 -8.312490730234e-04 
-5.408471440859e-04 1.787636598150e-04 0.0 
1.787636598150e-04 3.420100638870e-03 0.0 
0.0 0.0 -5.429493831729e-04 
-1.110558394075e-03 -1.920281890810e-04 0.0 
-1.920281890810e-04 7.461731149687e-03 0.0 
0.0 0.0 -1.109763131677e-03 
-1.054698518121e-03 -2.087025362573e-04 0.0 
-2.087025362573e-04 7.108835153234e-03 0.0 
0.0 0.0 -1.057773507355e-03 
-7.924197653506e-04 -1.785979394266e-04 0.0 
-1.785979394266e-04 5.231483760846e-03 0.0 
0.0 0.0 -7.887050335656e-04 
-1.257903229921e-03 7.567368571961e-05 0.0 
7.567368571961e-05 8.498216080292e-03 0.0 
0.0 0.0 -1.288412101370e-03 
-8.091181034430e-04 1.931976365145e-04 0.0 
1.931976365145e-04 5.284760522789e-03 0.0 
0.0 0.0 -8.078958932737e-04 
-8.263277637735e-04 -1.832084157212e-04 0.0 
-1.832084157212e-04 5.471677470531e-03 0.0 
0.0 0.0 -8.238265297874e-04 
-6.650106902351e-04 -1.791010150323e-04 0.0 
-1.791010150323e-04 4.378261468460e-03 0.0 
0.0 0.0 -6.656476441012e-04 
-8.423857986256e-04 -1.986818351392e-04 0.0 
-1.986818351392e-04 5.587318921638e-03 0.0 
0.0 0.0 -8.413031780454e-04 
-3.899474951329e-04 1.915304819261e-04 0.0 
1.915304819261e-04 2.337472328750e-03 0.0 
0.0 0.0 -3.865807678710e-04 
-8.089876515704e-04 4.490290024565e-05 0.0 
4.490290024565e-05 5.014601975749e-03 0.0 
0.0 0.0 -7.898058234521e-04 
-6.502027287347e-04 -1.918500009783e-04 0.0 
-1.918500009783e-04 4.255074906530e-03 0.0 
0.0 0.0 -6.486359607860e-04 
-4.676332506753e-04 -1.907969004763e-04 0.0 
-1.907969004763e-04 2.994133619140e-03 0.0 
0.0 0.0 -4.681053320140e-04 
-1.032293230965e-03 1.946996800783e-04 0.0 
1.946996800783e-04 6.836459352288e-03 0.0 
0.0 0.0 -1.032318248600e-03 
-4.933492965950e-05 -2.981330854887e-05 0.0 
-2.981330854887e-05 2.232237160482e-04 0.0 
0.0 0.0 -4.491607815645e-05 
-8.460396934351e-04 -1.994951239522e-04 0.0 
-1.994951239522e-04 5.571843201912e-03 0.0 
0.0 0.0 -8.386390795737e-04 
-4.884576987713e-04 1.904916551125e-04 0.0 
1.904916551125e-04 3.043938579203e-03 0.0 
0.0 0.0 -4.870240021111e-04 
-4.011070509712e-04 -1.789938708171e-04 0.0 
-1.789938708171e-04 2.527031405991e-03 0.0 
0.0 0.0 -4.015254440178e-04 
-3.881231226590e-04 -1.849728275913e-04 0.0 
-1.849728275913e-04 2.413136850469e-03 0.0 
0.0 0.0 -3.834586606452e-04 
-9.010939454830e-04 1.820631251066e-04 0.0 
1.820631251066e-04 5.900115668490e-03 0.0 
0.0 0.0 -8.965110541436e-04 
-1.535639171873e-04 -1.171137565838e-04 0.0 
-1.171137565838e-04 9.290832055630e-04 0.0 
0.0 0.0 -1.609926926485e-04 
-5.642000446768e-04 1.829010286562e-04 0.0 
1.829010286562e-04 3.554613982315e-03 0.0 
0.0 0.0 -5.613503766092e-04 
-8.738800955345e-04 1.908997098880e-04 0.0 
1.908997098880e-04 5.736495439307e-03 0.0 
0.0 0.0 -8.726802719924e-04 
-8.424168210171e-04 1.809379834970e-04 0.0 
1.809379834970e-04 5.460364861261e-03 0.0 
0.0 0.0 -8.336838631977e-04 
-8.483140592107e-04 -2.570000340293e-05 0.0 
-2.570000340293e-05 5.646419876325e-03 0.0 
0.0 0.0 -8.301023967811e-04 
-2.301022018194e-04 1.896537110149e-04 0.0 
1.896537110149e-04 1.205962353600e-03 0.0 
0.0 0.0 -2.187087652219e-04 
-4.708793642351e-04 1.959468275411e-04 0.0 
1.959468275411e-04 2.928096743676e-03 0.0 
0.0 0.0 -4.706942212664e-04 
-4.339228685621e-04 -2.028732675089e-04 0.0 
-2.028732675089e-04 2.736979889631e-03 0.0 
0.0 0.0 -4.311372127493e-04 
-4.979504220913e-04 -1.685324817792e-04 0.0 
-1.685324817792e-04 3.206245351086e-03 0.0 
0.0 0.0 -4.957039317942e-04 
-1.001539925556e-03 -2.124102205074e-04 0.0 
-2.124102205074e-04 6.704131800771e-03 0.0 
0.0 0.0 -1.000663671924e-03 
-5.607402459632e-04 -1.707949003296e-04 0.0 
-1.707949003296e-04 3.631087283813e-03 0.0 
0.0 0.0 -5.577786207633e-04 
-6.163072057109e-04 1.894419522334e-04 0.0 
1.894419522334e-04 3.933506140839e-03 0.0 
0.0 0.0 -6.151539951222e-04 
-5.883906607909e-04 1.932241182488e-04 0.0 
1.932241182488e-04 3.740119885148e-03 0.0 
0.0 0.0 -5.868308051845e-04 
-2.691521273047e-04 -2.036688762200e-04 0.0 
-2.036688762200e-04 1.523725894567e-03 0.0 
0.0 0.0 -2.530049833111e-04 
-6.958714508919e-04 1.979801814587e-04 0.0 
1.979801814587e-04 4.490850522134e-03 0.0 
0.0 0.0 -6.959382511914e-04 
-2.861043400588e-04 -1.894415141015e-04 0.0 
-1.894415141015e-04 1.663430798726e-03 0.0 
0.0 0.0 -2.788248838327e-04 
-1.306755613337e-03 -2.610599304147e-06 0.0 
-2.610599304147e-06 9.100164486650e-03 0.0 
0.0 0.0 -1.321446319728e-03 
-1.339174511630e-03 -2.960517267117e-05 0.0 
-2.960517267117e-05 9.091242340448e-03 0.0 
0.0 0.0 -1.318029376683e-03 
-7.775136936644e-04 1.870350143580e-04 0.0 
1.870350143580e-04 5.054396183358e-03 0.0 
0.0 0.0 -7.755312068111e-04 
-4.251819947504e-04 1.895457374981e-04 0.0 
1.895457374981e-04 2.596133538266e-03 0.0 
0.0 0.0 -4.232985079168e-04 
-3.648329347482e-04 -1.837358985601e-04 0.0 
-1.837358985601e-04 2.280199425849e-03 0.0 
0.0 0.0 -3.659709354871e-04 
-8.573750887322e-04 1.858228230958e-04 0.0 
1.858228230958e-04 5.602884265534e-03 0.0 
0.0 0.0 -8.539191708179e-04 
-3.949528212466e-04 -1.886728582839e-04 0.0 
-1.886728582839e-04 2.475291397225e-03 0.0 
0.0 0.0 -3.930530440640e-04 
-4.332493895502e-04 1.980298907225e-04 0.0 
1.980298907225e-04 2.665937605433e-03 0.0 
0.0 0.0 -4.339875075689e-04 
-7.596321613464e-04 1.775287963430e-04 0.0 
1.775287963430e-04 4.918201734153e-03 0.0 
0.0 0.0 -7.563811545761e-04 
-1.287984799363e-03 -3.860068533034e-05 0.0 
-3.860068533034e-05 8.730948327736e-03 0.0 
0.0 0.0 -1.266640259566e-03 
-5.240495846065e-04 1.944963688322e-04 0.0 
1.944963688322e-04 3.293655739786e-03 0.0 
0.0 0.0 -5.226246958029e-04 
-9.447998235248e-04 1.960929665843e-04 0.0 
1.960929665843e-04 6.232881478096e-03 0.0 
0.0 0.0 -9.428115367422e-04 
-3.107562741713e-04 1.824587312734e-04 0.0 
1.824587312734e-04 1.780558679157e-03 0.0 
0.0 0.0 -3.076624342134e-04 
-1.311994729519e-03 7.493212939779e-06 0.0 
7.493212939779e-06 9.101970930917e-03 0.0 
0.0 0.0 -1.322863172658e-03 
-3.967767638387e-04 1.868417767078e-04 0.0 
1.868417767078e-04 2.404071077719e-03 0.0 
0.0 0.0 -3.959736908235e-04 
-7.861913752228e-04 1.858440032300e-04 0.0 
1.858440032300e-04 5.109311146391e-03 0.0 
0.0 0.0 -7.835188407616e-04 
-2.939612478104e-04 2.069489564744e-04 0.0 
2.069489564744e-04 1.627899719100e-03 0.0 
0.0 0.0 -2.855287480241e-04 
-9.209672284179e-04 1.890725882862e-04 0.0 
1.890725882862e-04 6.061382275032e-03 0.0 
0.0 0.0 -9.211625808215e-04 
-6.527425537756e-04 1.919833722786e-04 0.0 
1.919833722786e-04 4.182126969127e-03 0.0 
0.0 0.0 -6.516619296807e-04 
-4.643737788932e-04 1.911497819082e-04 0.0 
1.911497819082e-04 2.873282577301e-03 0.0 
0.0 0.0 -4.625367401933e-04 
-8.005133107045e-04 -1.849372706410e-04 0.0 
-1.849372706410e-04 5.279390117932e-03 0.0 
0.0 0.0 -7.963903837170e-04 
-1.325618080026e-03 -1.973193103060e-05 0.0 
-1.973193103060e-05 9.091764273344e-03 0.0 
0.0 0.0 -1.324865334549e-03 
-5.527714494018e-04 1.888052696331e-04 0.0 
1.888052696331e-04 3.488692206257e-03 0.0 
0.0 0.0 -5.510338386786e-04 
-8.711724193670e-04 -1.970525444519e-04 0.0 
-1.970525444519e-04 5.796794660819e-03 0.0 
0.0 0.0 -8.703234504572e-04 
-3.052115937337e-04 -1.690052037767e-04 0.0 
-1.690052037767e-04 1.853679927902e-03 0.0 
0.0 0.0 -3.041533380165e-04 
-9.585285003453e-04 2.099575339621e-04 0.0 
2.099575339621e-04 6.326919234623e-03 0.0 
0.0 0.0 -9.576894438039e-04 
-1.007861502229e-03 2.071557397888e-04 0.0 
2.071557397888e-04 6.684066242240e-03 0.0 
0.0 0.0 -1.008345180213e-03 
-4.131133098155e-04 -1.786065448845e-04 0.0 
-1.786065448845e-04 2.602572281114e-03 0.0 
0.0 0.0 -4.109515902261e-04 
-9.327998617517e-04 -1.874311411833e-04 0.0 
-1.874311411833e-04 6.181670543660e-03 0.0 
0.0 0.0 -9.257128893455e-04 
-1.323570257858e-03 1.323150738927e-05 0.0 
1.323150738927e-05 9.099733073090e-03 0.0 
0.0 0.0 -1.322580803729e-03 
-1.076618962997e-03 1.898018198415e-04 0.0 
1.898018198415e-04 7.144327477010e-03 0.0 
0.0 0.0 -1.075861678316e-03 
-1.321614991336e-03 -1.713273005325e-05 0.0 
-1.713273005325e-05 9.105058184061e-03 0.0 
0.0 0.0 -1.322091174222e-03 
-9.079440508188e-04 -2.097847460127e-04 0.0 
-2.097847460127e-04 6.119714420928e-03 0.0 
0.0 0.0 -9.196498359204e-04 
-1.050990778737e-03 -1.886314367517e-04 0.0 
-1.886314367517e-04 7.044669431277e-03 0.0 
0.0 0.0 -1.048263655743e-03 
-3.511245847016e-04 -1.953891657846e-04 0.0 
-1.953891657846e-04 2.144448464187e-03 0.0 
0.0 0.0 -3.491910591611e-04 
-7.374872672360e-04 -1.803640936936e-04 0.0 
-1.803640936936e-04 4.844525720206e-03 0.0 
0.0 0.0 -7.343713905235e-04 
-8.293244045423e-04 1.837550643812e-04 0.0 
1.837550643812e-04 5.409584064822e-03 0.0 
0.0 0.0 -8.263924940540e-04 
-8.620298851759e-04 -1.867239000810e-04 0.0 
-1.867239000810e-04 5.715504193618e-03 0.0 
0.0 0.0 -8.589723558544e-04 
-7.110415388043e-04 -1.855413705945e-04 0.0 
-1.855413705945e-04 4.678427107823e-03 0.0 
0.0 0.0 -7.101745248689e-04 
-1.326686360804e-03 -1.171732242914e-05 0.0 
-1.171732242914e-05 9.109208916885e-03 0.0 
0.0 0.0 -1.322334986692e-03 
-8.655458594576e-04 1.438711959111e-04 0.0 
1.438711959111e-04 5.877137978370e-03 0.0 
0.0 0.0 -8.810748613436e-04 
-7.842175920213e-04 -1.730041151839e-04 0.0 
-1.730041151839e-04 5.148772658244e-03 0.0 
0.0 0.0 -7.763708431881e-04 
-5.855858139709e-04 -1.935639285696e-04 0.0 
-1.935639285696e-04 3.803586164403e-03 0.0 
0.0 0.0 -5.843899590101e-04 
-3.295388154563e-04 1.889565951281e-04 0.0 
1.889565951281e-04 1.906230365352e-03 0.0 
0.0 0.0 -3.280768480529e-04 
-7.085854070096e-04 -1.812057133810e-04 0.0 
-1.812057133810e-04 4.648076014877e-03 0.0 
0.0 0.0 -7.069124235890e-04 
-4.422183154957e-04 1.870641756047e-04 0.0 
1.870641756047e-04 2.708861584455e-03 0.0 
0.0 0.0 -4.404772202000e-04 
-7.723719974628e-04 -4.140062150849e-05 0.0 
-4.140062150849e-05 5.256708913763e-03 0.0 
0.0 0.0 -7.696142143080e-04 
-4.606920221105e-04 -1.852355893197e-04 0.0 
-1.852355893197e-04 2.942829590752e-03 0.0 
0.0 0.0 -4.595640944490e-04 
-5.214756889107e-04 -1.931035456201e-04 0.0 
-1.931035456201e-04 3.354332559651e-03 0.0 
0.0 0.0 -5.202658224677e-04 
-1.068256360121e-03 2.066714883780e-04 0.0 
2.066714883780e-04 7.094366600133e-03 0.0 
0.0 0.0 -1.069052450572e-03 
-4.377877323945e-04 -1.833633178396e-04 0.0 
-1.833633178396e-04 2.778061496653e-03 0.0 
0.0 0.0 -4.372567615832e-04 
-7.685639283948e-04 1.832765112524e-04 0.0 
1.832765112524e-04 4.976704183313e-03 0.0 
0.0 0.0 -7.640689829422e-04 
-9.023009032283e-04 1.879763697979e-04 0.0 
1.879763697979e-04 5.928541464361e-03 0.0 
0.0 0.0 -9.014246907137e-04 
-8.033627654917e-04 1.978900666673e-04 0.0 
1.978900666673e-04 5.248675409052e-03 0.0 
0.0 0.0 -8.035328976187e-04 
-1.305960172853e-03 -2.095892658933e-06 0.0 
-2.095892658933e-06 9.102496999303e-03 0.0 
0.0 0.0 -1.324762665914e-03 
-6.445820078638e-04 -1.678202773937e-04 0.0 
-1.678202773937e-04 4.194265313441e-03 0.0 
0.0 0.0 -6.390224077203e-04 
-4.435428954874e-04 1.964051911317e-04 0.0 
1.964051911317e-04 2.726576725320e-03 0.0 
0.0 0.0 -4.422638729430e-04 
-5.680634224623e-04 -1.789976648694e-04 0.0 
-1.789976648694e-04 3.709617648682e-03 0.0 
0.0 0.0 -5.691257024010e-04 
-4.282333792406e-04 -1.482446945054e-04 0.0 
-1.482446945054e-04 2.644915346169e-03 0.0 
0.0 0.0 -4.184705811166e-04 
-4.155606553471e-04 1.953855919425e-04 0.0 
1.953855919425e-04 2.537485002560e-03 0.0 
0.0 0.0 -4.141309408042e-04 
-1.124019592153e-03 -2.007331567345e-04 0.0 
-2.007331567345e-04 7.565647962713e-03 0.0 
0.0 0.0 -1.123886314723e-03 
-8.186901870458e-04 -1.867352575880e-04 0.0 
-1.867352575880e-04 5.417532343352e-03 0.0 
0.0 0.0 -8.161479701220e-04 
-5.717796681142e-04 -1.878963187409e-04 0.0 
-1.878963187409e-04 3.680777609877e-03 0.0 
0.0 0.0 -5.672387349321e-04 
-7.059258560286e-04 1.849400511514e-04 0.0 
1.849400511514e-04 4.547028472385e-03 0.0 
0.0 0.0 -7.023794137935e-04 
-1.322670125945e-03 2.313222592218e-05 0.0 
2.313222592218e-05 9.105794211902e-03 0.0 
0.0 0.0 -1.320675234999e-03 
-1.261246667212e-03 -1.446740378058e-04 0.0 
-1.446740378058e-04 8.590068615086e-03 0.0 
0.0 0.0 -1.258064670439e-03 
-1.122100566517e-03 1.986464603035e-04 0.0 
1.986464603035e-04 7.484284741315e-03 0.0 
0.0 0.0 -1.126590436115e-03 
-1.036201990782e-03 -1.951775890560e-04 0.0 
-1.951775890560e-04 6.963709654535e-03 0.0 
0.0 0.0 -1.037522200811e-03 
-7.719052834795e-04 -1.888501304093e-04 0.0 
-1.888501304093e-04 5.114447170550e-03 0.0 
0.0 0.0 -7.721428985420e-04 
-5.862259843954e-04 -1.794669617907e-04 0.0 
-1.794669617907e-04 3.806767764826e-03 0.0 
0.0 0.0 -5.842812205453e-04 
-4.235649518208e-04 -1.883881554874e-04 0.0 
-1.883881554874e-04 2.667804805964e-03 0.0 
0.0 0.0 -4.203166018451e-04 
-4.860729007888e-04 -1.885252844674e-04 0.0 
-1.885252844674e-04 3.110387779236e-03 0.0 
0.0 0.0 -4.843489805398e-04 
-7.832353818819e-04 -1.822378049694e-04 0.0 
-1.822378049694e-04 5.173491727743e-03 0.0 
0.0 0.0 -7.808727949117e-04 
-8.901416230108e-04 -1.942852983019e-04 0.0 
-1.942852983019e-04 5.937129717394e-03 0.0 
0.0 0.0 -8.900964085843e-04 
-6.791455967192e-04 -1.986004150700e-04 0.0 
-1.986004150700e-04 4.477294610112e-03 0.0 
0.0 0.0 -6.810091006415e-04 
-1.137984490542e-03 2.026763925672e-04 0.0 
2.026763925672e-04 7.560494271962e-03 0.0 
0.0 0.0 -1.134236807130e-03 
-4.390058928460e-04 -1.873042743236e-04 0.0 
-1.873042743236e-04 2.794180260139e-03 0.0 
0.0 0.0 -4.395655422792e-04 
-6.752152374307e-04 -1.860595742761e-04 0.0 
-1.860595742761e-04 4.431501668800e-03 0.0 
0.0 0.0 -6.750378637491e-04 
-7.938192706807e-04 1.817389384797e-04 0.0 
1.817389384797e-04 5.160116736331e-03 0.0 
0.0 0.0 -7.913284153978e-04 
-6.120290380758e-04 -1.961653994373e-04 0.0 
-1.961653994373e-04 3.987310124629e-03 0.0 
0.0 0.0 -6.122259156574e-04 
-1.301288756895e-03 -2.045275430420e-05 0.0 
-2.045275430420e-05 9.103514886722e-03 0.0 
0.0 0.0 -1.320088186226e-03 
-1.336559860406e-03 5.304668224231e-05 0.0 
5.304668224231e-05 9.092320412842e-03 0.0 
0.0 0.0 -1.318462653075e-03 
-1.241699233934e-03 -2.254253931459e-04 0.0 
-2.254253931459e-04 8.519567921102e-03 0.0 
0.0 0.0 -1.256494544188e-03 
-8.370305663979e-04 -1.942067132543e-04 0.0 
-1.942067132543e-04 5.564466733165e-03 0.0 
0.0 0.0 -8.375255977276e-04 
-1.112341827327e-03 1.928139267360e-04 0.0 
1.928139267360e-04 7.404901105712e-03 0.0 
0.0 0.0 -1.112065035246e-03 
-3.806812841049e-04 1.778946636947e-04 0.0 
1.778946636947e-04 2.279220825059e-03 0.0 
0.0 0.0 -3.785953687517e-04 
-5.494616984378e-04 -1.888416104626e-04 0.0 
-1.888416104626e-04 3.555923799118e-03 0.0 
0.0 0.0 -5.483018170244e-04 
-3.235962926905e-04 -1.736014947489e-04 0.0 
-1.736014947489e-04 1.973084689826e-03 0.0 
0.0 0.0 -3.192951451658e-04 
-5.963652417522e-04 -1.773931756758e-04 0.0 
-1.773931756758e-04 3.870665993091e-03 0.0 
0.0 0.0 -5.936226173563e-04 
-7.754418230907e-04 -1.787983897596e-05 0.0 
-1.787983897596e-05 4.998811631156e-03 0.0 
0.0 0.0 -7.914980036671e-04 
-9.191665137011e-04 2.140245341565e-04 0.0 
2.140245341565e-04 6.074527525348e-03 0.0 
0.0 0.0 -9.214502702889e-04 
-1.272306740568e-03 -2.183792906090e-06 0.0 
-2.183792906090e-06 8.701539900471e-03 0.0 
0.0 0.0 -1.265403586923e-03 
-1.115465796477e-03 2.144802209519e-04 0.0 
2.144802209519e-04 7.405352776166e-03 0.0 
0.0 0.0 -1.117224974728e-03 
-8.719756485575e-04 1.796746755414e-04 0.0 
1.796746755414e-04 5.704231125349e-03 0.0 
0.0 0.0 -8.687609488834e-04 
-8.934000445298e-04 1.842629385947e-04 0.0 
1.842629385947e-04 5.848617048582e-03 0.0 
0.0 0.0 -8.891947744737e-04 
-3.538517022685e-04 1.968822651903e-04 0.0 
1.968822651903e-04 2.082939193951e-03 0.0 
0.0 0.0 -3.496852078947e-04 
-1.730179310379e-04 3.799515299487e-05 0.0 
3.799515299487e-05 9.814996314958e-04 0.0 
0.0 0.0 -1.610244214183e-04 
-6.605957920443e-04 2.008091445533e-04 0.0 
2.008091445533e-04 4.241664916870e-03 0.0 
0.0 0.0 -6.594106982652e-04 
-7.382500259092e-04 -1.861061436274e-04 0.0 
-1.861061436274e-04 4.870305797290e-03 0.0 
0.0 0.0 -7.376142925499e-04 
-6.935826622016e-04 -1.974963449897e-04 0.0 
-1.974963449897e-04 4.557561403421e-03 0.0 
0.0 0.0 -6.931905564144e-04 
-1.927200046455e-04 1.907407866213e-04 0.0 
1.907407866213e-04 9.362068114562e-04 0.0 
0.0 0.0 -1.839988823918e-04 
-8.553897316391e-04 7.952460625503e-05 0.0 
7.952460625503e-05 5.374666730048e-03 0.0 
0.0 0.0 -8.462285223656e-04 
-3.012637912477e-04 -1.970081127765e-04 0.0 
-1.970081127765e-04 1.826424334369e-03 0.0 
0.0 0.0 -2.972104253142e-04 
-4.320291499202e-04 1.924639625952e-04 0.0 
1.924639625952e-04 2.652618994648e-03 0.0 
0.0 0.0 -4.314049239902e-04 
-1.341153861134e-03 -1.132581839864e-07 0.0 
-1.132581839864e-07 8.854160665758e-03 0.0 
0.0 0.0 -1.341153861134e-03 
-9.735832254612e-04 -2.032109106710e-04 0.0 
-2.032109106710e-04 6.501326132665e-03 0.0 
0.0 0.0 -9.717687626070e-04 
-8.038658590279e-04 1.841151985618e-04 0.0 
1.841151985618e-04 5.090192522503e-03 0.0 
0.0 0.0 -7.790007367612e-04 
-2.263569738137e-04 1.412068244863e-04 0.0 
1.412068244863e-04 1.378581130634e-03 0.0 
0.0 0.0 -2.176483604987e-04 
-7.148393686400e-04 1.885377903274e-04 0.0 
1.885377903274e-04 4.617805235716e-03 0.0 
0.0 0.0 -7.126719623954e-04 
-6.583475203356e-04 -2.044658051723e-04 0.0 
-2.044658051723e-04 4.303955154821e-03 0.0 
0.0 0.0 -6.569982659716e-04 
-8.980808506786e-04 -1.936520147713e-04 0.0 
-1.936520147713e-04 5.958242186783e-03 0.0 
0.0 0.0 -8.940630110299e-04 
-1.327874025612e-03 4.012442722688e-05 0.0 
4.012442722688e-05 9.098102111315e-03 0.0 
0.0 0.0 -1.323832587333e-03 
-7.403554818969e-04 1.844120078152e-04 0.0 
1.844120078152e-04 4.792048619543e-03 0.0 
0.0 0.0 -7.366500567795e-04 
-8.545868996671e-04 -1.887615407860e-04 0.0 
-1.887615407860e-04 5.662533660862e-03 0.0 
0.0 0.0 -8.513774089097e-04 
-6.818667097911e-04 1.958766515699e-04 0.0 
1.958766515699e-04 4.409131248910e-03 0.0 
0.0 0.0 -6.837695253815e-04 
-1.105187862003e-03 1.994006530664e-04 0.0 
1.994006530664e-04 7.356411437885e-03 0.0 
0.0 0.0 -1.105258581891e-03 
-8.686753316721e-04 1.961023377174e-04 0.0 
1.961023377174e-04 5.708119835605e-03 0.0 
0.0 0.0 -8.691653677727e-04 
-1.313443091824e-03 -8.681857321593e-06 0.0 
-8.681857321593e-06 9.107589922997e-03 0.0 
0.0 0.0 -1.322174839672e-03 
-1.340103718614e-03 2.441833226496e-06 0.0 
2.441833226496e-06 8.842216911178e-03 0.0 
0.0 0.0 -1.340103718614e-03 
-1.341028575724e-03 -6.698781680336e-06 0.0 
-6.698781680336e-06 8.834191149721e-03 0.0 
0.0 0.0 -1.341028575724e-03 
-1.338044909071e-03 -9.989699658765e-07 0.0 
-9.989699658765e-07 8.789076720715e-03 0.0 
0.0 0.0 -1.338044909071e-03 
-9.278953530001e-04 1.830493215193e-04 0.0 
1.830493215193e-04 6.094694774967e-03 0.0 
0.0 0.0 -9.244680137506e-04 
-1.104382085207e-03 -1.844352853961e-04 0.0 
-1.844352853961e-04 7.413030585339e-03 0.0 
0.0 0.0 -1.103002250422e-03 
-1.150866030357e-03 2.083921581833e-04 0.0 
2.083921581833e-04 7.696092280171e-03 0.0 
0.0 0.0 -1.155914796392e-03 
-6.164628833105e-04 2.031183267964e-04 0.0 
2.031183267964e-04 3.927882065765e-03 0.0 
0.0 0.0 -6.147330147620e-04 
-5.911685103851e-04 1.997096464783e-04 0.0 
1.997096464783e-04 3.740736628945e-03 0.0 
0.0 0.0 -5.872917534094e-04 
-6.414807696811e-04 -2.006380451049e-04 0.0 
-2.006380451049e-04 4.218783169970e-03 0.0 
0.0 0.0 -6.436934073013e-04 
-1.134641282245e-03 -2.006695635977e-04 0.0 
-2.006695635977e-04 7.623716292157e-03 0.0 
0.0 0.0 -1.131852245309e-03 
-1.324500994006e-03 -4.966854021269e-06 0.0 
-4.966854021269e-06 9.095768239117e-03 0.0 
0.0 0.0 -1.322440284024e-03 
-1.140227253108e-03 1.951224764734e-04 0.0 
1.951224764734e-04 7.603009729401e-03 0.0 
0.0 0.0 -1.141180801552e-03 
-9.080174246261e-04 -2.037707256770e-04 0.0 
-2.037707256770e-04 6.042971740774e-03 0.0 
0.0 0.0 -9.063345769726e-04 
-1.140612365318e-03 -1.825914620366e-04 0.0 
-1.825914620366e-04 7.661221724928e-03 0.0 
0.0 0.0 -1.138864741757e-03 
-9.895587303989e-04 -1.909996709670e-04 0.0 
-1.909996709670e-04 6.631323534056e-03 0.0 
0.0 0.0 -9.903545940741e-04 
-7.055944550106e-04 1.841650505336e-04 0.0 
1.841650505336e-04 4.559451876543e-03 0.0 
0.0 0.0 -7.049739924763e-04 
-6.005001548621e-04 1.754924819421e-04 0.0 
1.754924819421e-04 3.808564972462e-03 0.0 
0.0 0.0 -5.967387615352e-04 
-3.335508235582e-04 1.892926381389e-04 0.0 
1.892926381389e-04 1.961394351476e-03 0.0 
0.0 0.0 -3.333553686509e-04 
-1.287482303742e-03 9.400486473720e-05 0.0 
9.400486473720e-05 8.494651886702e-03 0.0 
0.0 0.0 -1.282213402295e-03 
-5.782088747012e-04 1.983174571351e-04 0.0 
1.983174571351e-04 3.685190236892e-03 0.0 
0.0 0.0 -5.792479259103e-04 
-1.207490032650e-03 -9.511693616602e-06 0.0 
-9.511693616602e-06 8.106813054446e-03 0.0 
0.0 0.0 -1.230767059693e-03 
-6.442432414831e-04 1.944206160730e-04 0.0 
1.944206160730e-04 4.149320661563e-03 0.0 
0.0 0.0 -6.465396845166e-04 
-4.198574354174e-04 -1.824962637457e-04 0.0 
-1.824962637457e-04 2.680260699037e-03 0.0 
0.0 0.0 -4.222915044375e-04 
-1.273602229187e-03 4.336342551848e-05 0.0 
4.336342551848e-05 8.460076842639e-03 0.0 
0.0 0.0 -1.284312900220e-03 
-4.687866799151e-04 1.866875104872e-04 0.0 
1.866875104872e-04 2.893520146277e-03 0.0 
0.0 0.0 -4.669824892858e-04 
-1.341987455608e-03 1.886578995440e-06 0.0 
1.886578995440e-06 8.838362897947e-03 0.0 
0.0 0.0 -1.341987455608e-03 
-1.296411374061e-03 -1.418949515449e-05 0.0 
-1.418949515449e-05 8.470243795444e-03 0.0 
0.0 0.0 -1.282654109251e-03 
-8.495078228820e-04 1.843107655011e-04 0.0 
1.843107655011e-04 5.547072023185e-03 0.0 
0.0 0.0 -8.462542048450e-04 
-9.255048927816e-05 -2.197953205317e-06 0.0 
-2.197953205317e-06 3.085086574748e-04 0.0 
0.0 0.0 -9.255350065570e-05 
-1.340954708391e-03 7.835804962289e-06 0.0 
7.835804962289e-06 8.838032502772e-03 0.0 
0.0 0.0 -1.340954708391e-03 
-1.280816053348e-03 -2.230055523915e-05 0.0 
-2.230055523915e-05 8.460310632468e-03 0.0 
0.0 0.0 -1.284661450484e-03 
-4.260944399250e-04 1.999732540104e-04 0.0 
1.999732540104e-04 2.608418284960e-03 0.0 
0.0 0.0 -4.253660281670e-04 
-9.365021749047e-04 -1.977008719716e-04 0.0 
-1.977008719716e-04 6.250684752616e-03 0.0 
0.0 0.0 -9.353130867196e-04 
-1.333005063589e-03 4.344781136889e-06 0.0 
4.344781136889e-06 9.114671664273e-03 0.0 
0.0 0.0 -1.323014926434e-03 
0.0 0.0 0.0 
0.0 0.0 0.0 
0.0 0.0 0.0 
-6.428281947913e-04 1.843362204216e-04 0.0 
1.843362204216e-04 4.123262309836e-03 0.0 
0.0 0.0 -6.425506931502e-04 
-8.851411761515e-04 1.851869312966e-04 0.0 
1.851869312966e-04 5.794563189636e-03 0.0 
0.0 0.0 -8.816033652580e-04 
-8.134395165507e-04 1.874953040298e-04 0.0 
1.874953040298e-04 5.300126487808e-03 0.0 
0.0 0.0 -8.109139232486e-04 
-8.225202755535e-04 1.881518984198e-04 0.0 
1.881518984198e-04 5.356080317152e-03 0.0 
0.0 0.0 -8.186613860469e-04 
-3.691769062860e-04 1.916815065322e-04 0.0 
1.916815065322e-04 2.210779207524e-03 0.0 
0.0 0.0 -3.689119447714e-04 
-1.341360672448e-03 -1.189443720149e-06 0.0 
-1.189443720149e-06 8.827889647213e-03 0.0 
0.0 0.0 -1.341360672448e-03 
-6.134329689946e-04 -1.902359328294e-04 0.0 
-1.902359328294e-04 4.002222739953e-03 0.0 
0.0 0.0 -6.123778370826e-04 
-2.202070906780e-04 -1.755376406009e-04 0.0 
-1.755376406009e-04 1.255756531969e-03 0.0 
0.0 0.0 -2.173296945085e-04 
-1.279142293538e-03 5.964349300566e-05 0.0 
5.964349300566e-05 8.727032320364e-03 0.0 
0.0 0.0 -1.272354826527e-03 
-1.022272037246e-04 4.922820238372e-06 0.0 
4.922820238372e-06 5.965869288915e-04 0.0 
0.0 0.0 -1.019437782286e-04 
-6.710661406479e-04 1.855097177597e-04 0.0 
1.855097177597e-04 4.303579593448e-03 0.0 
0.0 0.0 -6.678899790657e-04 
-2.300720776572e-04 1.212201240613e-05 0.0 
1.212201240613e-05 1.125450156733e-03 0.0 
0.0 0.0 -2.365401520142e-04 
-7.086437154644e-04 1.853452857981e-04 0.0 
1.853452857981e-04 4.588815352963e-03 0.0 
0.0 0.0 -7.094882865497e-04 
-1.317968381893e-03 -7.788542654245e-06 0.0 
-7.788542654245e-06 9.086616382280e-03 0.0 
0.0 0.0 -1.321823097425e-03 
-1.341255375116e-03 6.592408687463e-06 0.0 
6.592408687463e-06 8.854311445215e-03 0.0 
0.0 0.0 -1.341255375116e-03 
-8.673920198819e-04 1.847071888205e-04 0.0 
1.847071888205e-04 5.656037287956e-03 0.0 
0.0 0.0 -8.613793510407e-04 
-1.969643249742e-04 -2.643595705593e-05 0.0 
-2.643595705593e-05 7.486662135306e-04 0.0 
0.0 0.0 -1.793976806842e-04 
-1.826266447966e-04 1.955672024510e-04 0.0 
1.955672024510e-04 9.200601904336e-04 0.0 
0.0 0.0 -1.838036673156e-04 
-2.361898229358e-04 4.404631865767e-05 0.0 
4.404631865767e-05 1.375633081646e-03 0.0 
0.0 0.0 -2.179364692381e-04 
-1.125162068454e-03 -1.979567048057e-04 0.0 
-1.979567048057e-04 7.560228932207e-03 0.0 
0.0 0.0 -1.121833217354e-03 
-7.703836607526e-04 2.904011669624e-05 0.0 
2.904011669624e-05 5.271332940567e-03 0.0 
0.0 0.0 -7.704300227928e-04 
-8.168157235620e-04 -2.113983721697e-04 0.0 
-2.113983721697e-04 5.355765378531e-03 0.0 
0.0 0.0 -8.109332722942e-04 
-1.342502730507e-03 5.716067361732e-06 0.0 
5.716067361732e-06 8.856705817959e-03 0.0 
0.0 0.0 -1.342502730507e-03 
-7.906151483404e-04 -4.272528123304e-05 0.0 
-4.272528123304e-05 5.268742702063e-03 0.0 
0.0 0.0 -7.720444664677e-04 
-1.332977220355e-03 1.682402604832e-05 0.0 
1.682402604832e-05 9.104707937730e-03 0.0 
0.0 0.0 -1.322852565091e-03 
-1.019613459442e-03 1.919320256201e-04 0.0 
1.919320256201e-04 6.758525883042e-03 0.0 
0.0 0.0 -1.020998643257e-03 
-8.942284646778e-04 2.014665993211e-04 0.0 
2.014665993211e-04 5.869620442183e-03 0.0 
0.0 0.0 -8.907448815977e-04 
-4.710891496910e-04 1.816013443133e-04 0.0 
1.816013443133e-04 2.782078830397e-03 0.0 
0.0 0.0 -4.477608806526e-04 
-9.397641453592e-04 1.905534962230e-04 0.0 
1.905534962230e-04 6.187842394577e-03 0.0 
0.0 0.0 -9.378661514434e-04 
-2.865699781098e-04 -1.698301048615e-04 0.0 
-1.698301048615e-04 1.797113955836e-03 0.0 
0.0 0.0 -2.938158648993e-04 
-1.340754991027e-03 -4.752011562156e-06 0.0 
-4.752011562156e-06 8.857728678543e-03 0.0 
0.0 0.0 -1.340754991027e-03 
-1.339984467612e-03 2.292869316743e-05 0.0 
2.292869316743e-05 8.807369741469e-03 0.0 
0.0 0.0 -1.339984467612e-03 
-1.340417744004e-03 -2.214851180424e-05 0.0 
-2.214851180424e-05 8.828867002772e-03 0.0 
0.0 0.0 -1.340417744004e-03 
-8.660623943402e-04 -1.943286950292e-04 0.0 
-1.943286950292e-04 5.772294168294e-03 0.0 
0.0 0.0 -8.666500598261e-04 
-6.034856013852e-04 -2.033011263199e-04 0.0 
-2.033011263199e-04 3.957936150372e-03 0.0 
0.0 0.0 -6.062238016986e-04 
-7.026976706331e-04 -1.815126947840e-04 0.0 
-1.815126947840e-04 4.627441659305e-03 0.0 
0.0 0.0 -7.021192356133e-04 
-8.976477462119e-04 1.951708788180e-04 0.0 
1.951708788180e-04 5.904473226514e-03 0.0 
0.0 0.0 -8.981573260837e-04 
-1.339627896631e-03 3.612108461994e-06 0.0 
3.612108461994e-06 8.853033835610e-03 0.0 
0.0 0.0 -1.339627896631e-03 
-4.295950600907e-04 -1.875952713054e-04 0.0 
-1.875952713054e-04 2.717501457664e-03 0.0 
0.0 0.0 -4.287941800800e-04 
-4.990450639494e-04 1.934485922333e-04 0.0 
1.934485922333e-04 3.125390132284e-03 0.0 
0.0 0.0 -4.991860405784e-04 
-5.285799076226e-04 1.852384275300e-04 0.0 
1.852384275300e-04 3.322934541718e-03 0.0 
0.0 0.0 -5.272458293186e-04 
-9.298142287186e-04 1.923659803104e-04 0.0 
1.923659803104e-04 6.128652270364e-03 0.0 
0.0 0.0 -9.279583942086e-04 
-1.339074735525e-03 -2.462351465060e-05 0.0 
-2.462351465060e-05 9.096799452257e-03 0.0 
0.0 0.0 -1.323537156312e-03 
-1.500618556416e-04 1.939391886362e-05 0.0 
1.939391886362e-05 9.791726158994e-04 0.0 
0.0 0.0 -1.598254822437e-04 
-1.340775759057e-03 1.534669228297e-06 0.0 
1.534669228297e-06 8.827931576809e-03 0.0 
0.0 0.0 -1.340775759057e-03 
-4.918224965486e-04 1.956179793808e-04 0.0 
1.956179793808e-04 3.063033243647e-03 0.0 
0.0 0.0 -4.905422085546e-04 
-1.342877878941e-03 2.842270727754e-06 0.0 
2.842270727754e-06 8.853936486152e-03 0.0 
0.0 0.0 -1.342877878941e-03 
-1.156184618631e-03 -1.885719150538e-04 0.0 
-1.885719150538e-04 7.774113329411e-03 0.0 
0.0 0.0 -1.152765850879e-03 
-4.494164570379e-05 1.000468586624e-06 0.0 
1.000468586624e-06 2.551504228595e-04 0.0 
0.0 0.0 -4.576175375704e-05 
-6.699730055747e-04 1.872361539573e-04 0.0 
1.872361539573e-04 4.302808495342e-03 0.0 
0.0 0.0 -6.690559060524e-04 
-1.145839910847e-03 -1.986902778568e-04 0.0 
-1.986902778568e-04 7.714207575352e-03 0.0 
0.0 0.0 -1.146019594970e-03 
-1.341220131281e-03 -2.365934969497e-06 0.0 
-2.365934969497e-06 8.847703773833e-03 0.0 
0.0 0.0 -1.341220131281e-03 
-9.256050002818e-04 -1.923147081747e-04 0.0 
-1.923147081747e-04 6.153846390776e-03 0.0 
0.0 0.0 -9.220067723808e-04 
-1.050351148173e-03 1.970429468760e-04 0.0 
1.970429468760e-04 6.958336458839e-03 0.0 
0.0 0.0 -1.049000704964e-03 
-2.748725954192e-04 1.931705696151e-04 0.0 
1.931705696151e-04 1.524979906539e-03 0.0 
0.0 0.0 -2.717413095444e-04 
-1.208683908170e-03 6.230383996259e-06 0.0 
6.230383996259e-06 8.102506712124e-03 0.0 
0.0 0.0 -1.228682347183e-03 
-5.192327213786e-04 1.909614988805e-04 0.0 
1.909614988805e-04 3.260562468968e-03 0.0 
0.0 0.0 -5.184025592846e-04 
-5.248109421633e-04 -1.803408309235e-04 0.0 
-1.803408309235e-04 3.388681347671e-03 0.0 
0.0 0.0 -5.242929400402e-04 
-1.101238409147e-04 1.624386361107e-05 0.0 
1.624386361107e-05 6.254833965552e-04 0.0 
0.0 0.0 -1.042847928631e-04 
-1.341079611575e-03 1.268157797447e-06 0.0 
1.268157797447e-06 8.837798036775e-03 0.0 
0.0 0.0 -1.341079611575e-03 
-3.602734137551e-04 -1.850324683020e-04 0.0 
-1.850324683020e-04 2.230825920775e-03 0.0 
0.0 0.0 -3.564518745397e-04 
-1.109985979917e-03 -2.052345426402e-04 0.0 
-2.052345426402e-04 7.476883123942e-03 0.0 
0.0 0.0 -1.110501492391e-03 
-8.524872272040e-04 -2.315298743519e-04 0.0 
-2.315298743519e-04 5.680178330686e-03 0.0 
0.0 0.0 -8.555322119248e-04 
-4.402194268269e-04 -1.870881911234e-04 0.0 
-1.870881911234e-04 2.811358430465e-03 0.0 
0.0 0.0 -4.411586999297e-04 
-4.975783628974e-04 -1.914562144175e-04 0.0 
-1.914562144175e-04 3.191209784275e-03 0.0 
0.0 0.0 -4.964677435772e-04 
-8.901378245668e-04 -1.873561009026e-04 0.0 
-1.873561009026e-04 5.908561179355e-03 0.0 
0.0 0.0 -8.867075537039e-04 
-1.342259935407e-03 -1.718040054209e-05 0.0 
-1.718040054209e-05 8.855152000548e-03 0.0 
0.0 0.0 -1.342259935407e-03 
-6.396775884645e-04 1.886079041491e-04 0.0 
1.886079041491e-04 4.098241029371e-03 0.0 
0.0 0.0 -6.378868265889e-04 
-9.691742763952e-04 -2.019742400056e-04 0.0 
-2.019742400056e-04 6.483311990656e-03 0.0 
0.0 0.0 -9.693340058278e-04 
-8.041747505047e-04 1.863000233207e-04 0.0 
1.863000233207e-04 5.244246416891e-03 0.0 
0.0 0.0 -8.030799362305e-04 
-8.818155169255e-04 -1.886653253936e-04 0.0 
-1.886653253936e-04 5.877887840043e-03 0.0 
0.0 0.0 -8.811160271665e-04 
-5.320000478192e-04 -1.863752187474e-04 0.0 
-1.863752187474e-04 3.439757636019e-03 0.0 
0.0 0.0 -5.326451291888e-04 
-9.026994633867e-04 -1.977891108898e-04 0.0 
-1.977891108898e-04 6.021154653626e-03 0.0 
0.0 0.0 -9.031726653527e-04 
-7.735880944809e-04 -1.868485495488e-04 0.0 
-1.868485495488e-04 5.115539884919e-03 0.0 
0.0 0.0 -7.729461360948e-04 
-9.981479559481e-04 -1.963805187542e-04 0.0 
-1.963805187542e-04 6.683666354432e-03 0.0 
0.0 0.0 -9.982497011217e-04 
-1.004413229733e-03 1.912127845263e-04 0.0 
1.912127845263e-04 6.639387752267e-03 0.0 
0.0 0.0 -1.003134534203e-03 
-7.686187780919e-04 1.863311149205e-04 0.0 
1.863311149205e-04 4.996748422869e-03 0.0 
0.0 0.0 -7.676694601592e-04 
-6.531466934909e-04 1.957558291536e-04 0.0 
1.957558291536e-04 4.207071568820e-03 0.0 
0.0 0.0 -6.551190094499e-04 
-4.645380568116e-04 -1.828907984747e-04 0.0 
-1.828907984747e-04 2.961721166152e-03 0.0 
0.0 0.0 -4.640097282922e-04 
-6.064572421459e-04 1.910285411048e-04 0.0 
1.910285411048e-04 3.887705448155e-03 0.0 
0.0 0.0 -6.091269606258e-04 
-1.019361563877e-03 -1.903039724259e-04 0.0 
-1.903039724259e-04 6.831244999586e-03 0.0 
0.0 0.0 -1.018204129641e-03 
-8.373723247002e-04 1.874174193606e-04 0.0 
1.874174193606e-04 5.476720692713e-03 0.0 
0.0 0.0 -8.365169925761e-04 
-1.320520432489e-03 -2.623800515080e-05 0.0 
-2.623800515080e-05 9.107403832922e-03 0.0 
0.0 0.0 -1.321929620191e-03 
-1.169515206127e-03 -1.894067828277e-04 0.0 
-1.894067828277e-04 7.912550107300e-03 0.0 
0.0 0.0 -1.174325249119e-03 
-4.054788487746e-04 1.902250889250e-04 0.0 
1.902250889250e-04 2.477005508033e-03 0.0 
0.0 0.0 -4.069995479128e-04 
-1.341047338368e-03 6.114097105084e-06 0.0 
6.114097105084e-06 8.810414551587e-03 0.0 
0.0 0.0 -1.341047338368e-03 
-1.246442799579e-03 -7.048165356655e-06 0.0 
-7.048165356655e-06 8.701531217890e-03 0.0 
0.0 0.0 -1.266414110344e-03 
-7.243231333996e-04 1.855217411942e-04 0.0 
1.855217411942e-04 4.688371918965e-03 0.0 
0.0 0.0 -7.237787631415e-04 
-9.766466055391e-05 -9.527665079690e-06 0.0 
-9.527665079690e-06 3.256739367154e-04 0.0 
0.0 0.0 -9.771826121206e-05 
-1.305508824941e-03 3.853404293035e-06 0.0 
3.853404293035e-06 9.105182867572e-03 0.0 
0.0 0.0 -1.323469717371e-03 
-1.171509388478e-03 -1.678154851060e-04 0.0 
-1.678154851060e-04 7.861802012676e-03 0.0 
0.0 0.0 -1.167157861819e-03 
-4.521694521813e-04 2.012915858519e-04 0.0 
2.012915858519e-04 2.804008720375e-03 0.0 
0.0 0.0 -4.535238702637e-04 
-1.341709311524e-03 -1.310979986686e-05 0.0 
-1.310979986686e-05 8.829628018658e-03 0.0 
0.0 0.0 -1.341709311524e-03 
-9.320413057689e-04 -1.962162649741e-04 0.0 
-1.962162649741e-04 6.231458751848e-03 0.0 
0.0 0.0 -9.325599965574e-04 
-6.268046795760e-04 1.808345467380e-04 0.0 
1.808345467380e-04 3.989844982223e-03 0.0 
0.0 0.0 -6.229492605273e-04 
-8.398341044081e-04 1.726875732325e-04 0.0 
1.726875732325e-04 5.514357495571e-03 0.0 
0.0 0.0 -8.408860858065e-04 
-8.060358487983e-04 -1.972435935582e-04 0.0 
-1.972435935582e-04 5.343400692596e-03 0.0 
0.0 0.0 -8.054665293395e-04 
-8.004419744919e-04 -1.952463938329e-04 0.0 
-1.952463938329e-04 5.314426112526e-03 0.0 
0.0 0.0 -8.008683130455e-04 
-9.182717976000e-04 -1.896493216882e-04 0.0 
-1.896493216882e-04 6.134019344383e-03 0.0 
0.0 0.0 -9.181754741429e-04 
-9.700343521080e-04 -1.978951788456e-04 0.0 
-1.978951788456e-04 6.510189924062e-03 0.0 
0.0 0.0 -9.721028620036e-04 
-6.977402691425e-04 1.822093202730e-04 0.0 
1.822093202730e-04 4.487185732323e-03 0.0 
0.0 0.0 -6.945885048819e-04 
-1.040005538332e-03 1.990021927621e-04 0.0 
1.990021927621e-04 6.900874594821e-03 0.0 
0.0 0.0 -1.039409037654e-03 
-8.975501320031e-04 -2.506583898402e-05 0.0 
-2.506583898402e-05 6.020256954513e-03 0.0 
0.0 0.0 -8.839498032872e-04 
-6.495260709226e-04 -1.944699442282e-04 0.0 
-1.944699442282e-04 4.277277504375e-03 0.0 
0.0 0.0 -6.521967345917e-04 
-9.682052284533e-04 1.865606736299e-04 0.0 
1.865606736299e-04 6.381518702333e-03 0.0 
0.0 0.0 -9.664699797409e-04 
-5.143750252182e-04 -1.778295084176e-04 0.0 
-1.778295084176e-04 3.324024151635e-03 0.0 
0.0 0.0 -5.155438399970e-04 
-9.088890292892e-04 1.918794185100e-04 0.0 
1.918794185100e-04 5.978978740211e-03 0.0 
0.0 0.0 -9.093720595694e-04 
-5.184917320349e-05 -5.023579163672e-06 0.0 
-5.023579163672e-06 2.615427770040e-04 0.0 
0.0 0.0 -4.585464485956e-05 
-5.019069719293e-04 -1.730390890632e-04 0.0 
-1.730390890632e-04 3.221983585288e-03 0.0 
0.0 0.0 -4.997308803768e-04 
-4.873333685603e-04 -1.811613926647e-04 0.0 
-1.811613926647e-04 3.131270652529e-03 0.0 
0.0 0.0 -4.875765080988e-04 
-7.115036268068e-04 1.928847685251e-04 0.0 
1.928847685251e-04 4.611615726792e-03 0.0 
0.0 0.0 -7.126562430122e-04 
-7.596608402965e-04 1.884583179831e-04 0.0 
1.884583179831e-04 4.937228765552e-03 0.0 
0.0 0.0 -7.595228636782e-04 
-9.346957466832e-04 1.973754267299e-04 0.0 
1.973754267299e-04 6.167461615292e-03 0.0 
0.0 0.0 -9.350600278798e-04 
-8.902631525082e-04 -1.867681813360e-04 0.0 
-1.867681813360e-04 5.973122971149e-03 0.0 
0.0 0.0 -8.962969588583e-04 
-4.491438895743e-04 -1.869760147927e-04 0.0 
-1.869760147927e-04 2.875737731611e-03 0.0 
0.0 0.0 -4.505554202764e-04 
-1.341827844788e-03 5.881319465521e-06 0.0 
5.881319465521e-06 8.853598786661e-03 0.0 
0.0 0.0 -1.341827844788e-03 
-8.819043585379e-04 -1.894669265130e-04 0.0 
-1.894669265130e-04 5.856756576790e-03 0.0 
0.0 0.0 -8.789935771182e-04 
-7.395748600620e-04 1.939731217689e-04 0.0 
1.939731217689e-04 4.808423671935e-03 0.0 
0.0 0.0 -7.413896480605e-04 
-8.456344442179e-04 -1.866159444842e-04 0.0 
-1.866159444842e-04 5.609212261315e-03 0.0 
0.0 0.0 -8.436662038215e-04 
-7.098621749807e-04 -1.956105885316e-04 0.0 
-1.956105885316e-04 4.679646247114e-03 0.0 
0.0 0.0 -7.098625721847e-04 
0.0 0.0 0.0 
0.0 0.0 0.0 
0.0 0.0 0.0 
-8.787853985481e-04 -1.870345829221e-04 0.0 
-1.870345829221e-04 5.815290073788e-03 0.0 
0.0 0.0 -8.733545218784e-04 
-6.014622352257e-04 2.088026922776e-04 0.0 
2.088026922776e-04 3.826503758406e-03 0.0 
0.0 0.0 -5.956302995864e-04 
0.0 0.0 0.0 
0.0 0.0 0.0 
0.0 0.0 0.0 
-7.014361857610e-04 2.031970023559e-04 0.0 
2.031970023559e-04 4.544280328863e-03 0.0 
0.0 0.0 -7.041275119738e-04 
-1.001578329479e-03 1.949348082252e-04 0.0 
1.949348082252e-04 6.625301000395e-03 0.0 
0.0 0.0 -1.001254648526e-03 
-1.145850176714e-03 1.952473198253e-04 0.0 
1.952473198253e-04 7.640587141445e-03 0.0 
0.0 0.0 -1.146946825052e-03 
-8.534899184108e-04 -1.900750659178e-04 0.0 
-1.900750659178e-04 5.682294137052e-03 0.0 
0.0 0.0 -8.532270185794e-04 
-8.843005196867e-04 1.891738523443e-04 0.0 
1.891738523443e-04 5.802847869315e-03 0.0 
0.0 0.0 -8.841559964380e-04 
-7.498668879057e-04 -1.500423199850e-04 0.0 
-1.500423199850e-04 4.956000169468e-03 0.0 
0.0 0.0 -7.495231765994e-04 
-7.499562203702e-04 -7.649065135860e-06 0.0 
-7.649065135860e-06 4.585920683461e-03 0.0 
0.0 0.0 -7.312625299843e-04 
-1.259814766287e-03 -2.251942805186e-05 0.0 
-2.251942805186e-05 8.482919934012e-03 0.0 
0.0 0.0 -1.286111585339e-03 
-8.096577215198e-04 -1.889624871780e-04 0.0 
-1.889624871780e-04 5.361431513159e-03 0.0 
0.0 0.0 -8.082854548548e-04 
-2.601123029567e-05 -8.443429959233e-06 0.0 
-8.443429959233e-06 2.242861713756e-04 0.0 
0.0 0.0 -4.535587742227e-05 
-2.679801948708e-04 -1.979252069441e-04 0.0 
-1.979252069441e-04 1.544873028567e-03 0.0 
0.0 0.0 -2.569639750501e-04 
-9.553383276932e-05 -1.682092997359e-05 0.0 
-1.682092997359e-05 3.188442541893e-04 0.0 
0.0 0.0 -9.570446632286e-05 
-4.265759374031e-04 -1.588061750622e-04 0.0 
-1.588061750622e-04 2.743578014403e-03 0.0 
0.0 0.0 -4.284133232656e-04 
-1.136810990824e-03 -2.050532392672e-04 0.0 
-2.050532392672e-04 7.627868260152e-03 0.0 
0.0 0.0 -1.134523071099e-03 
-1.147232605264e-03 -1.988471843745e-04 0.0 
-1.988471843745e-04 7.696346442353e-03 0.0 
0.0 0.0 -1.144649651339e-03 
-1.090721102207e-03 1.927119379256e-04 0.0 
1.927119379256e-04 7.225314130525e-03 0.0 
0.0 0.0 -1.087427768671e-03 
-4.794185500659e-04 -1.949320750668e-04 0.0 
-1.949320750668e-04 3.096205477872e-03 0.0 
0.0 0.0 -4.827803379924e-04 
-9.064466102036e-04 -1.951694302266e-04 0.0 
-1.951694302266e-04 6.052913189119e-03 0.0 
0.0 0.0 -9.063168105749e-04 
-1.135504702689e-03 1.907792817819e-04 0.0 
1.907792817819e-04 7.600364314815e-03 0.0 
0.0 0.0 -1.142106164842e-03 
-2.788698608247e-04 -1.715069773272e-04 0.0 
-1.715069773272e-04 1.706769297964e-03 0.0 
0.0 0.0 -2.821198837983e-04 
-5.962549057610e-04 -2.242943986440e-04 0.0 
-2.242943986440e-04 3.850260609285e-03 0.0 
0.0 0.0 -5.942115541274e-04 
-4.821057558984e-04 1.938812463926e-04 0.0 
1.938812463926e-04 3.093517382698e-03 0.0 
0.0 0.0 -4.980019828625e-04 
-1.334956243324e-03 1.593537991858e-05 0.0 
1.593537991858e-05 9.100113722888e-03 0.0 
0.0 0.0 -1.322396863610e-03 
-1.341641872583e-03 -1.598087186621e-05 0.0 
-1.598087186621e-05 8.845353034364e-03 0.0 
0.0 0.0 -1.341641872583e-03 
-6.679494605950e-04 -1.695756001759e-04 0.0 
-1.695756001759e-04 4.277020538631e-03 0.0 
0.0 0.0 -6.580288049735e-04 
-7.324961324261e-04 -1.951613493015e-04 0.0 
-1.951613493015e-04 4.877737690436e-03 0.0 
0.0 0.0 -7.385580096348e-04 
-8.320090833607e-04 1.945702263429e-04 0.0 
1.945702263429e-04 5.445258436908e-03 0.0 
0.0 0.0 -8.323457052078e-04 
-1.163041303964e-03 1.778772476613e-04 0.0 
1.778772476613e-04 7.881722024609e-03 0.0 
0.0 0.0 -1.177278300149e-03 
-2.899237030429e-04 1.996200503925e-04 0.0 
1.996200503925e-04 1.630038568431e-03 0.0 
0.0 0.0 -2.880367495917e-04 
-1.101530990218e-03 1.937554819912e-04 0.0 
1.937554819912e-04 7.342981690998e-03 0.0 
0.0 0.0 -1.104707344597e-03 
-1.602377275387e-04 3.299975488637e-05 0.0 
3.299975488637e-05 1.021185104458e-03 0.0 
0.0 0.0 -1.612556504808e-04 
-6.771993620364e-04 -1.961964403491e-04 0.0 
-1.961964403491e-04 4.422374575330e-03 0.0 
0.0 0.0 -6.724657308136e-04 
-7.463531003114e-04 -1.974750822580e-04 0.0 
-1.974750822580e-04 4.938620865557e-03 0.0 
0.0 0.0 -7.470513223636e-04 
-9.733051936627e-05 1.431354683513e-05 0.0 
1.431354683513e-05 3.247181541802e-04 0.0 
0.0 0.0 -9.745184349170e-05 
-6.107893375517e-04 1.961955655378e-04 0.0 
1.961955655378e-04 4.041501780348e-03 0.0 
0.0 0.0 -6.267591816330e-04 
-1.179150888516e-03 1.722766776771e-04 0.0 
1.722766776771e-04 7.845621701176e-03 0.0 
0.0 0.0 -1.176862138969e-03 
-5.380435756070e-05 -4.751466869154e-06 0.0 
-4.751466869154e-06 2.532858114077e-04 0.0 
0.0 0.0 -4.590328595372e-05 
-7.312532489837e-04 1.362386611749e-05 0.0 
1.362386611749e-05 4.573834094121e-03 0.0 
0.0 0.0 -7.322753781719e-04 
-7.047922472484e-04 1.123922026685e-06 0.0 
1.123922026685e-06 4.847576831705e-03 0.0 
0.0 0.0 -7.130472889423e-04 
-9.547380700052e-04 -1.945366017599e-04 0.0 
-1.945366017599e-04 6.390005998802e-03 0.0 
0.0 0.0 -9.552000144736e-04 
-4.877659469443e-04 -1.909239420501e-04 0.0 
-1.909239420501e-04 3.137535928941e-03 0.0 
0.0 0.0 -4.943513106837e-04 
-4.803168808599e-04 1.981666947029e-04 0.0 
1.981666947029e-04 2.999843219209e-03 0.0 
0.0 0.0 -4.817493388239e-04 
-3.413576717745e-04 -1.696251700452e-04 0.0 
-1.696251700452e-04 2.103971295735e-03 0.0 
0.0 0.0 -3.398054741319e-04 
-1.177842708252e-03 1.745516882076e-04 0.0 
1.745516882076e-04 7.866046843566e-03 0.0 
0.0 0.0 -1.180895453064e-03 
-1.288113258455e-03 -7.910099866538e-06 0.0 
-7.910099866538e-06 8.468043511099e-03 0.0 
0.0 0.0 -1.286194385238e-03 
-1.101033919243e-03 -1.960948394900e-04 0.0 
-1.960948394900e-04 7.394725323298e-03 0.0 
0.0 0.0 -1.101088927253e-03 
-4.503494869687e-04 -1.637033152419e-04 0.0 
-1.637033152419e-04 2.832512250195e-03 0.0 
0.0 0.0 -4.457015571677e-04 
-2.141424004700e-04 2.387020000876e-04 0.0 
2.387020000876e-04 9.652683007768e-04 0.0 
0.0 0.0 -1.905831712289e-04 
-7.028954825784e-04 -1.797251013726e-04 0.0 
-1.797251013726e-04 4.605141056062e-03 0.0 
0.0 0.0 -6.999131133628e-04 
-7.213924053117e-04 -5.563189410969e-07 0.0 
-5.563189410969e-07 4.593100885078e-03 0.0 
0.0 0.0 -7.345111139194e-04 
-7.221802994753e-04 -3.459116523938e-05 0.0 
-3.459116523938e-05 4.860709319501e-03 0.0 
0.0 0.0 -7.144802219086e-04 
0.0 0.0 0.0 
0.0 0.0 0.0 
0.0 0.0 0.0 
-9.462674636507e-05 9.391315588563e-06 0.0 
9.391315588563e-06 3.155479012844e-04 0.0 
0.0 0.0 -9.468049496542e-05 
-1.889846684321e-04 -5.120829147058e-05 0.0 
-5.120829147058e-05 7.312686420689e-04 0.0 
0.0 0.0 -1.795416262981e-04 
-3.813293178289e-04 1.993773121019e-04 0.0 
1.993773121019e-04 2.301443442693e-03 0.0 
0.0 0.0 -3.820941496288e-04 
-1.147287239146e-04 2.233479330491e-06 0.0 
2.233479330491e-06 6.267336868549e-04 0.0 
0.0 0.0 -1.035694276016e-04 
-7.177698882455e-04 1.875976177193e-04 0.0 
1.875976177193e-04 4.537921580666e-03 0.0 
0.0 0.0 -6.918148876825e-04 
0.0 0.0 0.0 
0.0 0.0 0.0 
0.0 0.0 0.0 
-4.466789787724e-04 2.025807610901e-04 0.0 
2.025807610901e-04 2.763058809203e-03 0.0 
0.0 0.0 -4.482372226011e-04 
-9.484602570363e-04 5.937741420751e-05 0.0 
5.937741420751e-05 6.186307546056e-03 0.0 
0.0 0.0 -9.582560723523e-04 
-7.114040901391e-04 1.008097673964e-05 0.0 
1.008097673964e-05 4.858827396879e-03 0.0 
0.0 0.0 -7.120344407548e-04 
-1.154819602250e-03 -2.018660896655e-04 0.0 
-2.018660896655e-04 7.854075905782e-03 0.0 
0.0 0.0 -1.169483110168e-03 
-9.636351090390e-04 1.953512484906e-04 0.0 
1.953512484906e-04 6.363047776900e-03 0.0 
0.0 0.0 -9.641449249716e-04 
-9.024629704431e-04 7.830558015861e-05 0.0 
7.830558015861e-05 5.773999043953e-03 0.0 
0.0 0.0 -8.988447104697e-04 
-5.248669465082e-04 2.030027087804e-04 0.0 
2.030027087804e-04 3.352814556998e-03 0.0 
0.0 0.0 -5.269378630653e-04 
-1.557908844091e-04 -1.426598337885e-05 0.0 
-1.426598337885e-05 1.017280518651e-03 0.0 
0.0 0.0 -1.602995255322e-04 
-1.340974968048e-03 -2.076763454680e-05 0.0 
-2.076763454680e-05 8.825339797415e-03 0.0 
0.0 0.0 -1.340974968048e-03 
-1.331740677566e-03 -1.067318438912e-06 0.0 
-1.067318438912e-06 9.107204473734e-03 0.0 
0.0 0.0 -1.320295381545e-03 
-8.482992821085e-04 2.310186269771e-04 0.0 
2.310186269771e-04 5.616583664962e-03 0.0 
0.0 0.0 -8.588387843224e-04 
-7.462574470129e-04 -7.506809615044e-06 0.0 
-7.506809615044e-06 4.590636784032e-03 0.0 
0.0 0.0 -7.326073368541e-04 
-5.251543525858e-04 -1.205978746023e-04 0.0 
-1.205978746023e-04 3.428806267578e-03 0.0 
0.0 0.0 -5.314511797788e-04 
-1.323491096028e-03 -2.283744003803e-05 0.0 
-2.283744003803e-05 9.085754239402e-03 0.0 
0.0 0.0 -1.322576402756e-03 
-4.157468964118e-04 -1.918553564634e-04 0.0 
-1.918553564634e-04 2.636700862140e-03 0.0 
0.0 0.0 -4.166600706249e-04 
-7.057672473389e-04 -4.164103403237e-06 0.0 
-4.164103403237e-06 4.837446989167e-03 0.0 
0.0 0.0 -7.125614225629e-04 
-7.131316839303e-04 7.226971892557e-06 0.0 
7.226971892557e-06 4.584933787265e-03 0.0 
0.0 0.0 -7.312775522649e-04 
-6.769264019625e-04 1.800240141216e-04 0.0 
1.800240141216e-04 4.359211225872e-03 0.0 
0.0 0.0 -6.755779900756e-04 
-1.341823989366e-03 -1.865391509117e-05 0.0 
-1.865391509117e-05 8.857424336763e-03 0.0 
0.0 0.0 -1.341823989366e-03 
-1.293765856573e-03 1.607380559243e-05 0.0 
1.607380559243e-05 9.094492997413e-03 0.0 
0.0 0.0 -1.322582685247e-03 
-1.126722208426e-04 6.998488737266e-06 0.0 
6.998488737266e-06 6.134703062313e-04 0.0 
0.0 0.0 -1.035688293187e-04 
0.0 0.0 0.0 
0.0 0.0 0.0 
0.0 0.0 0.0 
-2.390355384623e-04 1.936491639953e-04 0.0 
1.936491639953e-04 1.192457136132e-03 0.0 
0.0 0.0 -2.221130066924e-04 
-7.484754656573e-04 1.958621454920e-04 0.0 
1.958621454920e-04 4.871290639516e-03 0.0 
0.0 0.0 -7.497705102653e-04 
-1.223848934685e-03 2.347738204731e-04 0.0 
2.347738204731e-04 8.231542695031e-03 0.0 
0.0 0.0 -1.224669017856e-03 
-3.851215442265e-05 -6.758275575601e-05 0.0 
-6.758275575601e-05 2.149841041377e-04 0.0 
0.0 0.0 -4.506945562690e-05 
-1.095035538177e-03 -2.135230687797e-04 0.0 
-2.135230687797e-04 7.297496536284e-03 0.0 
0.0 0.0 -1.092518628633e-03 
0.0 0.0 0.0 
0.0 0.0 0.0 
0.0 0.0 0.0 
-9.497696422961e-04 1.942166615206e-04 0.0 
1.942166615206e-04 6.260470679264e-03 0.0 
0.0 0.0 -9.493083249531e-04 
-6.288110034417e-05 6.701081411341e-06 0.0 
6.701081411341e-06 2.758850751309e-04 0.0 
0.0 0.0 -4.591043399907e-05 
-6.241905191399e-05 -2.511621330185e-05 0.0 
-2.511621330185e-05 2.635940123717e-04 0.0 
0.0 0.0 -4.615290204994e-05 
-9.135771074388e-04 1.942985431381e-04 0.0 
1.942985431381e-04 6.003773453710e-03 0.0 
0.0 0.0 -9.122568895951e-04 
-1.191044637578e-03 1.954606753198e-04 0.0 
1.954606753198e-04 7.975629465802e-03 0.0 
0.0 0.0 -1.192963836147e-03 
-9.353430265023e-04 -9.437658603161e-05 0.0 
-9.437658603161e-05 6.401376295666e-03 0.0 
0.0 0.0 -9.361271490834e-04 
-7.292657224304e-04 -1.767865209210e-04 0.0 
-1.767865209210e-04 4.795789678295e-03 0.0 
0.0 0.0 -7.268406435589e-04 
-9.710718174905e-05 -1.358771368788e-05 0.0 
-1.358771368788e-05 3.239463226279e-04 0.0 
0.0 0.0 -9.721677466237e-05 
-9.353638871598e-04 -1.962742580692e-04 0.0 
-1.962742580692e-04 6.250401807132e-03 0.0 
0.0 0.0 -9.349022313484e-04 
-1.337797817327e-03 -2.530827551252e-05 0.0 
-2.530827551252e-05 8.814034455446e-03 0.0 
0.0 0.0 -1.337797817327e-03 
-1.326036287352e-03 -1.455315038832e-04 0.0 
-1.455315038832e-04 9.082015863419e-03 0.0 
0.0 0.0 -1.322354755130e-03 
-7.123437340294e-04 1.173862101604e-05 0.0 
1.173862101604e-05 4.855322276952e-03 0.0 
0.0 0.0 -7.125764448434e-04 
-9.860203699540e-04 1.899915039947e-04 0.0 
1.899915039947e-04 6.516626141221e-03 0.0 
0.0 0.0 -9.863757069361e-04 
-1.341607717199e-03 1.356557150840e-05 0.0 
1.356557150840e-05 8.840587029738e-03 0.0 
0.0 0.0 -1.341607717199e-03 
-1.048314093038e-03 -2.082351981232e-04 0.0 
-2.082351981232e-04 7.019832661667e-03 0.0 
0.0 0.0 -1.046710270629e-03 
-1.675301838823e-04 4.109428891396e-05 0.0 
4.109428891396e-05 9.648536059596e-04 0.0 
0.0 0.0 -1.589907658001e-04 
-1.067672517152e-04 -9.583258243014e-06 0.0 
-9.583258243014e-06 6.200113654204e-04 0.0 
0.0 0.0 -1.029725306715e-04 
-1.028842676796e-04 -4.314994342249e-05 0.0 
-4.314994342249e-05 3.453649952318e-04 0.0 
0.0 0.0 -1.039203118081e-04 
-5.871622493136e-04 1.953666188975e-04 0.0 
1.953666188975e-04 3.814212399553e-03 0.0 
0.0 0.0 -5.933358154923e-04 
-1.333672766825e-03 -1.202212504053e-04 0.0 
-1.202212504053e-04 9.086271765214e-03 0.0 
0.0 0.0 -1.322828574513e-03 
-1.249098589656e-03 -2.325383237370e-04 0.0 
-2.325383237370e-04 8.487130897030e-03 0.0 
0.0 0.0 -1.258329778789e-03 
0.0 0.0 0.0 
0.0 0.0 0.0 
0.0 0.0 0.0 
-6.989700289776e-04 -1.857489314676e-04 0.0 
-1.857489314676e-04 4.509333602690e-03 0.0 
0.0 0.0 -6.938761155152e-04 
-1.344798314370e-03 5.494387484636e-06 0.0 
5.494387484636e-06 8.860415151620e-03 0.0 
0.0 0.0 -1.344798314369e-03 
-1.337322942170e-03 3.677431177348e-05 0.0 
3.677431177348e-05 9.118625106116e-03 0.0 
0.0 0.0 -1.318785251170e-03 
-1.303755075695e-03 1.430690451396e-06 0.0 
1.430690451396e-06 9.096198326928e-03 0.0 
0.0 0.0 -1.321151187552e-03 
-1.034449558172e-03 2.142439693304e-04 0.0 
2.142439693304e-04 6.840882471351e-03 0.0 
0.0 0.0 -1.027148381742e-03 
-1.117879717661e-03 -2.162737768218e-04 0.0 
-2.162737768218e-04 7.549121072968e-03 0.0 
0.0 0.0 -1.125709525796e-03 
-1.338030260144e-03 -6.968280175093e-06 0.0 
-6.968280175093e-06 8.819304319896e-03 0.0 
0.0 0.0 -1.338030260144e-03 
-1.340754991027e-03 -2.793160050155e-05 0.0 
-2.793160050155e-05 8.842227493663e-03 0.0 
0.0 0.0 -1.340754991027e-03 
-1.084387157107e-03 1.756228747117e-04 0.0 
1.756228747117e-04 7.304356114432e-03 0.0 
0.0 0.0 -1.092518628633e-03 
-2.311762207506e-05 7.524747598181e-05 0.0 
7.524747598181e-05 1.841595127813e-04 0.0 
0.0 0.0 -4.541545915403e-05 
-7.129930244863e-04 -1.525724794926e-06 0.0 
-1.525724794926e-06 4.814692496190e-03 0.0 
0.0 0.0 -7.139539158865e-04 
-7.213897068280e-04 3.016260299788e-05 0.0 
3.016260299788e-05 4.878464797693e-03 0.0 
0.0 0.0 -7.133642253441e-04 
0.0 0.0 0.0 
0.0 0.0 0.0 
0.0 0.0 0.0 
-1.342313591240e-03 1.055329185635e-05 0.0 
1.055329185635e-05 8.873951644271e-03 0.0 
0.0 0.0 -1.342313591240e-03 
-1.336661786255e-03 2.540411115345e-05 0.0 
2.540411115345e-05 9.107640988403e-03 0.0 
0.0 0.0 -1.318355947622e-03 
-1.337959751097e-03 6.489046299350e-07 0.0 
6.489046299350e-07 8.814031058647e-03 0.0 
0.0 0.0 -1.337959751097e-03 
-6.887950874113e-05 7.326700540917e-06 0.0 
7.326700540917e-06 2.659430667850e-04 0.0 
0.0 0.0 -4.582974829071e-05 
-7.021790639444e-05 9.602649528375e-06 0.0 
9.602649528375e-06 2.736498867396e-04 0.0 
0.0 0.0 -4.591370119938e-05 
-1.340754991027e-03 -1.163411170897e-06 0.0 
-1.163411170897e-06 8.829041487509e-03 0.0 
0.0 0.0 -1.340754991027e-03 
-1.340396196526e-03 -2.044778395464e-05 0.0 
-2.044778395464e-05 8.820055094331e-03 0.0 
0.0 0.0 -1.340396196526e-03 
-1.016763022878e-03 -2.313272643619e-04 0.0 
-2.313272643619e-04 6.613286649783e-03 0.0 
0.0 0.0 -9.936726122374e-04 
-7.156761650400e-04 3.174630435059e-05 0.0 
3.174630435059e-05 4.813106322843e-03 0.0 
0.0 0.0 -7.124851972278e-04 
-1.051691578887e-03 -2.268729750207e-04 0.0 
-2.268729750207e-04 7.069453692283e-03 0.0 
0.0 0.0 -1.060142436171e-03 
-8.856361613045e-04 -2.246794552561e-04 0.0 
-2.246794552561e-04 5.656932423438e-03 0.0 
0.0 0.0 -8.626607521899e-04 
-6.974461573381e-04 1.315776503869e-05 0.0 
1.315776503869e-05 4.815685979733e-03 0.0 
0.0 0.0 -7.121912678902e-04 
-3.076401957545e-05 3.630205513196e-05 0.0 
3.630205513196e-05 2.492584121326e-04 0.0 
0.0 0.0 -4.495577515415e-05 
-4.859098010828e-05 -3.737210181655e-05 0.0 
-3.737210181655e-05 2.860304098853e-04 0.0 
0.0 0.0 -4.591167563965e-05 
-3.185160578265e-05 -1.142237180328e-05 0.0 
-1.142237180328e-05 2.469612253318e-04 0.0 
0.0 0.0 -4.589015575604e-05 
-4.731421252786e-05 -1.226097571205e-05 0.0 
-1.226097571205e-05 2.659450080892e-04 0.0 
0.0 0.0 -4.556578909549e-05 
-7.410966517881e-04 2.317413733405e-04 0.0 
2.317413733405e-04 4.761489269815e-03 0.0 
0.0 0.0 -7.271325101417e-04 
-6.567236663823e-04 2.031409226007e-04 0.0 
2.031409226007e-04 4.278704049819e-03 0.0 
0.0 0.0 -6.600769387058e-04 
0.0 0.0 0.0 
0.0 0.0 0.0 
0.0 0.0 0.0 
-9.198692932468e-04 2.207519103490e-04 0.0 
2.207519103490e-04 6.164531821473e-03 0.0 
0.0 0.0 -9.221709323543e-04 
0.0 0.0 0.0 
0.0 0.0 0.0 
0.0 0.0 0.0 
-1.341471640605e-03 5.425770365484e-06 0.0 
5.425770365484e-06 8.820837432317e-03 0.0 
0.0 0.0 -1.341471640605e-03 
-1.340968685557e-03 1.249741243797e-05 0.0 
1.249741243797e-05 8.807656416615e-03 0.0 
0.0 0.0 -1.340968685557e-03 
-1.339320413496e-03 -6.736119072724e-06 0.0 
-6.736119072724e-06 8.832654043149e-03 0.0 
0.0 0.0 -1.339320413496e-03 
-2.516213945074e-04 2.377641770175e-04 0.0 
2.377641770175e-04 1.477950192533e-03 0.0 
0.0 0.0 -2.599136149544e-04 
-4.499622910387e-04 2.064665423492e-04 0.0 
2.064665423492e-04 2.879856921820e-03 0.0 
0.0 0.0 -4.607467809507e-04 
-1.337132911908e-03 -4.793528436987e-06 0.0 
-4.793528436987e-06 8.820087587172e-03 0.0 
0.0 0.0 -1.337132911908e-03 
-1.120160542764e-03 1.885503644174e-04 0.0 
1.885503644174e-04 7.560722239950e-03 0.0 
0.0 0.0 -1.124956933753e-03 
-1.344556937803e-03 -2.104246713843e-05 0.0 
-2.104246713843e-05 8.860523593132e-03 0.0 
0.0 0.0 -1.344556937803e-03 
-1.195658010449e-03 2.008624552428e-04 0.0 
2.008624552428e-04 8.028011251528e-03 0.0 
0.0 0.0 -1.192538251246e-03 
-1.264541089761e-03 2.315838415429e-04 0.0 
2.315838415429e-04 8.498729307699e-03 0.0 
0.0 0.0 -1.259905836238e-03 
-6.219774932840e-04 -2.035330289392e-04 0.0 
-2.035330289392e-04 4.041759494414e-03 0.0 
0.0 0.0 -6.267460875326e-04 
-1.333336577702e-03 -3.290028368550e-05 0.0 
-3.290028368550e-05 9.106230716714e-03 0.0 
0.0 0.0 -1.318101597465e-03 
-1.336001964470e-03 1.162172730561e-04 0.0 
1.162172730561e-04 9.090958479552e-03 0.0 
0.0 0.0 -1.321689849711e-03 
-1.157015842751e-03 -2.064363215115e-04 0.0 
-2.064363215115e-04 7.737243073859e-03 0.0 
0.0 0.0 -1.157495185000e-03 
-1.229671491752e-03 -2.051129200289e-04 0.0 
-2.051129200289e-04 8.228478437854e-03 0.0 
0.0 0.0 -1.225777420818e-03 
-9.871372975694e-04 -1.866548184672e-04 0.0 
-1.866548184672e-04 6.644402027939e-03 0.0 
0.0 0.0 -9.925156490314e-04 
0.0 0.0 0.0 
0.0 0.0 0.0 
0.0 0.0 0.0 
-6.525071487266e-04 -2.022287068405e-04 0.0 
-2.022287068405e-04 4.165983179946e-03 0.0 
0.0 0.0 -6.350241097613e-04 
-1.062777711570e-04 -2.500028508481e-05 0.0 
-2.500028508481e-05 5.975407209184e-04 0.0 
0.0 0.0 -1.030398215525e-04 
-1.177532662352e-03 -1.733616004669e-04 0.0 
-1.733616004669e-04 7.926724853394e-03 0.0 
0.0 0.0 -1.177819030284e-03 
-6.744770170929e-04 1.928269940394e-04 0.0 
1.928269940394e-04 4.352241427477e-03 0.0 
0.0 0.0 -6.753691525988e-04 
-1.095781442937e-03 1.863762097668e-04 0.0 
1.863762097668e-04 7.297090200674e-03 0.0 
0.0 0.0 -1.099016898379e-03 
-3.528730048210e-04 -1.946361167359e-04 0.0 
-1.946361167359e-04 2.176757571714e-03 0.0 
0.0 0.0 -3.504775146279e-04 
-1.550760112037e-04 1.206598951615e-04 0.0 
1.206598951615e-04 7.508446244136e-04 0.0 
0.0 0.0 -1.735952156319e-04 
-1.160601579575e-03 -1.894710886425e-04 0.0 
-1.894710886425e-04 7.820833929290e-03 0.0 
0.0 0.0 -1.161668299909e-03 
-6.889768412053e-04 -1.975061828768e-04 0.0 
-1.975061828768e-04 4.617261067584e-03 0.0 
0.0 0.0 -7.012080445024e-04 
-5.762009062567e-04 2.005988488918e-04 0.0 
2.005988488918e-04 3.584897669436e-03 0.0 
0.0 0.0 -5.611363230934e-04 
-1.093490207039e-03 -1.909491051748e-04 0.0 
-1.909491051748e-04 7.367841895943e-03 0.0 
0.0 0.0 -1.096102707776e-03 
-1.178635420303e-03 1.949598249273e-04 0.0 
1.949598249273e-04 7.912911661083e-03 0.0 
0.0 0.0 -1.188907866872e-03 
-5.561658818215e-04 -2.031625025719e-04 0.0 
-2.031625025719e-04 3.593153237093e-03 0.0 
0.0 0.0 -5.602736785587e-04 
-1.035403721303e-03 -2.031605927371e-04 0.0 
-2.031605927371e-04 6.949569291118e-03 0.0 
0.0 0.0 -1.035646790376e-03 
-9.180249208977e-04 1.931476710153e-04 0.0 
1.931476710153e-04 6.042341158293e-03 0.0 
0.0 0.0 -9.181742748318e-04 
-9.917755747799e-04 2.023242542686e-04 0.0 
2.023242542686e-04 6.575747416083e-03 0.0 
0.0 0.0 -9.952786863929e-04 
-1.024377024952e-03 1.861972783327e-04 0.0 
1.861972783327e-04 6.794579129447e-03 0.0 
0.0 0.0 -1.024224580100e-03 
-5.802650742356e-04 1.891370522918e-04 0.0 
1.891370522918e-04 3.679117002713e-03 0.0 
0.0 0.0 -5.788817793163e-04 
-6.680148396562e-04 -1.727307713497e-04 0.0 
-1.727307713497e-04 4.367645791481e-03 0.0 
0.0 0.0 -6.651338130661e-04 
-7.292546132971e-04 -1.846826388501e-04 0.0 
-1.846826388501e-04 4.813421317749e-03 0.0 
0.0 0.0 -7.293057621917e-04 
-9.374184943370e-04 1.944757919182e-04 0.0 
1.944757919182e-04 6.178932175003e-03 0.0 
0.0 0.0 -9.378562126457e-04 
-1.124743441142e-03 -2.044895248108e-04 0.0 
-2.044895248108e-04 7.578873023721e-03 0.0 
0.0 0.0 -1.125100902632e-03 
-1.057275381377e-03 1.952239226915e-04 0.0 
1.952239226915e-04 7.019062258927e-03 0.0 
0.0 0.0 -1.053755873404e-03 
-3.652721065736e-04 1.996025403975e-04 0.0 
1.996025403975e-04 2.192815232503e-03 0.0 
0.0 0.0 -3.685493992842e-04 
-1.164581229115e-03 2.188850811810e-04 0.0 
2.188850811810e-04 7.900774321480e-03 0.0 
0.0 0.0 -1.183514100502e-03 
-1.119628239997e-03 2.087348229959e-04 0.0 
2.087348229959e-04 7.433542979005e-03 0.0 
0.0 0.0 -1.117084069417e-03 
-8.143956589139e-04 2.341244742852e-04 0.0 
2.341244742852e-04 5.337741611520e-03 0.0 
0.0 0.0 -8.110481619253e-04 
-9.749777922597e-04 1.939288930454e-04 0.0 
1.939288930454e-04 6.440647276838e-03 0.0 
0.0 0.0 -9.753747863247e-04 
-9.652234430735e-04 1.970752514855e-04 0.0 
1.970752514855e-04 6.378006768513e-03 0.0 
0.0 0.0 -9.665592132828e-04 
-1.194888926874e-03 -2.112261199247e-04 0.0 
-2.112261199247e-04 8.020188826812e-03 0.0 
0.0 0.0 -1.185362187646e-03 
-1.151241251503e-03 1.853138580095e-04 0.0 
1.853138580095e-04 7.714994671460e-03 0.0 
0.0 0.0 -1.150972777267e-03 
-8.863019395197e-04 -1.951602003697e-04 0.0 
-1.951602003697e-04 5.913977900844e-03 0.0 
0.0 0.0 -8.866930489607e-04 
-1.183768845123e-03 -1.944166925086e-04 0.0 
-1.944166925086e-04 8.022430172969e-03 0.0 
0.0 0.0 -1.190872049285e-03 
-1.103203670140e-03 1.932633349998e-04 0.0 
1.932633349998e-04 7.339211362922e-03 0.0 
0.0 0.0 -1.103416240745e-03 
-1.053347130920e-03 -1.808067663282e-04 0.0 
-1.808067663282e-04 7.018991585010e-03 0.0 
0.0 0.0 -1.053748284807e-03 
-1.207301516059e-03 -2.189374092153e-04 0.0 
-2.189374092153e-04 8.148472988394e-03 0.0 
0.0 0.0 -1.210017230578e-03 
-1.183451424094e-03 -2.064186268461e-04 0.0 
-2.064186268461e-04 7.961006455012e-03 0.0 
0.0 0.0 -1.181737430652e-03 
-1.012410866899e-03 -2.064236493359e-04 0.0 
-2.064236493359e-04 6.767125967856e-03 0.0 
0.0 0.0 -1.011817915138e-03 
-9.978825943573e-04 -1.946964301517e-04 0.0 
-1.946964301517e-04 6.692413921007e-03 0.0 
0.0 0.0 -9.985655989919e-04 
-3.618458064176e-04 1.902703540338e-04 0.0 
1.902703540338e-04 2.182295586331e-03 0.0 
0.0 0.0 -3.644364776638e-04 
-3.396688960244e-04 1.922383374584e-04 0.0 
1.922383374584e-04 2.020949841441e-03 0.0 
0.0 0.0 -3.414758422231e-04 
-2.048022796594e-04 -2.337971245160e-04 0.0 
-2.337971245160e-04 1.038657557028e-03 0.0 
0.0 0.0 -1.876370064529e-04 
-1.053265806660e-04 1.589966792158e-06 0.0 
1.589966792158e-06 6.159987105294e-04 0.0 
0.0 0.0 -1.032036840373e-04 
-1.146654591444e-03 -2.036534213010e-04 0.0 
-2.036534213010e-04 7.733548266154e-03 0.0 
0.0 0.0 -1.150998037120e-03 
-1.153371435519e-03 1.929566661377e-04 0.0 
1.929566661377e-04 7.706474852566e-03 0.0 
0.0 0.0 -1.156839719840e-03 
-1.023100123297e-04 6.333767357887e-06 0.0 
6.333767357887e-06 5.922537874641e-04 0.0 
0.0 0.0 -1.029284987275e-04 
-1.152902847458e-03 -1.945944093031e-04 0.0 
-1.945944093031e-04 7.806589318492e-03 0.0 
0.0 0.0 -1.160298666437e-03 
-8.240593874314e-04 2.133386610705e-04 0.0 
2.133386610705e-04 5.515954645069e-03 0.0 
0.0 0.0 -8.436798659344e-04 
-1.063159338098e-03 -2.000353252039e-04 0.0 
-2.000353252039e-04 7.170931875512e-03 0.0 
0.0 0.0 -1.067477449466e-03 
-1.091085119062e-03 1.926591161235e-04 0.0 
1.926591161235e-04 7.245677048731e-03 0.0 
0.0 0.0 -1.090430023688e-03 
-5.083685843408e-04 1.854528112905e-04 0.0 
1.854528112905e-04 3.184990427277e-03 0.0 
0.0 0.0 -5.090628918580e-04 
-1.088419020765e-03 -1.985610050621e-04 0.0 
-1.985610050621e-04 7.308442647816e-03 0.0 
0.0 0.0 -1.087955833448e-03 
-8.052736907314e-04 -2.707602780884e-04 0.0 
-2.707602780884e-04 5.346563189152e-03 0.0 
0.0 0.0 -8.100176300978e-04 
-1.002877096566e-03 -1.976880564896e-04 0.0 
-1.976880564896e-04 6.706443384887e-03 0.0 
0.0 0.0 -1.000388816061e-03 
-1.231169607282e-03 2.234727540430e-04 0.0 
2.234727540430e-04 8.305282306820e-03 0.0 
0.0 0.0 -1.242964905849e-03 
-3.519355017218e-04 1.472413134465e-04 0.0 
1.472413134465e-04 2.089181619658e-03 0.0 
0.0 0.0 -3.542437553904e-04 
-1.221302329282e-03 -1.674357911947e-04 0.0 
-1.674357911947e-04 8.209373583472e-03 0.0 
0.0 0.0 -1.215045542354e-03 
-1.047850802636e-03 -1.881582153281e-04 0.0 
-1.881582153281e-04 7.026769425363e-03 0.0 
0.0 0.0 -1.048288725887e-03 
-3.889604497647e-04 2.037169653349e-04 0.0 
2.037169653349e-04 2.380154464468e-03 0.0 
0.0 0.0 -3.930611257745e-04 
-4.005955795872e-04 -1.795528067479e-04 0.0 
-1.795528067479e-04 2.551679544192e-03 0.0 
0.0 0.0 -4.034900192350e-04 
-7.895600060851e-04 1.993051337404e-04 0.0 
1.993051337404e-04 5.154958880860e-03 0.0 
0.0 0.0 -7.909606353592e-04 
-9.478370252283e-04 2.028022273916e-04 0.0 
2.028022273916e-04 6.213549732246e-03 0.0 
0.0 0.0 -9.409807611877e-04 
-5.389171118930e-04 1.931642811105e-04 0.0 
1.931642811105e-04 3.423254400861e-03 0.0 
0.0 0.0 -5.429771841545e-04 
-1.084906178257e-03 -2.011232363262e-04 0.0 
-2.011232363262e-04 7.274950011924e-03 0.0 
0.0 0.0 -1.085119818393e-03 
-9.758201311387e-04 -2.238948292921e-04 0.0 
-2.238948292921e-04 6.526325342415e-03 0.0 
0.0 0.0 -9.816794289629e-04 
-7.681741524081e-04 1.880175807826e-04 0.0 
1.880175807826e-04 5.011383542904e-03 0.0 
0.0 0.0 -7.700930343086e-04 
-1.026480683520e-03 -1.844900629417e-04 0.0 
-1.844900629417e-04 6.842321728991e-03 0.0 
0.0 0.0 -1.021757709120e-03 
-1.057960421125e-03 -1.998047593287e-04 0.0 
-1.998047593287e-04 7.113469784678e-03 0.0 
0.0 0.0 -1.058696934625e-03 
-1.057942238941e-03 2.175749808768e-04 0.0 
2.175749808768e-04 6.964480207197e-03 0.0 
0.0 0.0 -1.050681058959e-03 
-3.033747618520e-04 -1.838242939413e-04 0.0 
-1.838242939413e-04 1.857406959021e-03 0.0 
0.0 0.0 -3.058749225436e-04 
-7.305418871957e-04 1.869626526336e-04 0.0 
1.869626526336e-04 4.754815575901e-03 0.0 
0.0 0.0 -7.328582426338e-04 
-1.136183616218e-03 2.082876610418e-04 0.0 
2.082876610418e-04 7.610878515336e-03 0.0 
0.0 0.0 -1.141128458404e-03 
-1.078434925953e-03 -1.984149302182e-04 0.0 
-1.984149302182e-04 7.234990828440e-03 0.0 
0.0 0.0 -1.078198857115e-03 
-6.621852882438e-04 2.164713360985e-04 0.0 
2.164713360985e-04 4.271535496369e-03 0.0 
0.0 0.0 -6.666835465145e-04 
-9.149083998473e-04 -1.952760623192e-04 0.0 
-1.952760623192e-04 6.113676858772e-03 0.0 
0.0 0.0 -9.153036164073e-04 
-1.187688204395e-03 -2.025883410103e-04 0.0 
-2.025883410103e-04 8.016876824675e-03 0.0 
0.0 0.0 -1.187586327529e-03 
-1.005326890981e-03 1.902074749802e-04 0.0 
1.902074749802e-04 6.713852212323e-03 0.0 
0.0 0.0 -1.013969106439e-03 
-1.909283182059e-04 -2.134343415579e-04 0.0 
-2.134343415579e-04 9.857203047885e-04 0.0 
0.0 0.0 -1.806728872115e-04 
-1.970147197368e-04 -2.059863142165e-04 0.0 
-2.059863142165e-04 1.002592449070e-03 0.0 
0.0 0.0 -1.835536028976e-04 
-3.515992897123e-04 -1.811957352846e-04 0.0 
-1.811957352846e-04 2.155411981566e-03 0.0 
0.0 0.0 -3.467375663575e-04 
-1.128856114321e-03 2.001566636704e-04 0.0 
2.001566636704e-04 7.510015093798e-03 0.0 
0.0 0.0 -1.127837695838e-03 
-9.816567297486e-04 1.933811921609e-04 0.0 
1.933811921609e-04 6.465198559992e-03 0.0 
0.0 0.0 -9.775003154318e-04 
-8.371572204409e-04 -2.148163729894e-04 0.0 
-2.148163729894e-04 5.710338305934e-03 0.0 
0.0 0.0 -8.513051444990e-04 
-8.730704368828e-04 1.896261582467e-04 0.0 
1.896261582467e-04 5.754508324044e-03 0.0 
0.0 0.0 -8.745614812816e-04 
-1.137329719499e-03 -1.941463340313e-04 0.0 
-1.941463340313e-04 7.669003078820e-03 0.0 
0.0 0.0 -1.139196670502e-03 
-7.981531024245e-04 1.892565346163e-04 0.0 
1.892565346163e-04 5.212239015909e-03 0.0 
0.0 0.0 -7.988714448434e-04 
-1.058279653052e-03 1.954206945734e-04 0.0 
1.954206945734e-04 7.042085544045e-03 0.0 
0.0 0.0 -1.061632825506e-03 
-3.556360797851e-04 -1.825172875801e-04 0.0 
-1.825172875801e-04 2.253382462632e-03 0.0 
0.0 0.0 -3.615122310665e-04 
-1.213390557451e-03 2.397950825144e-04 0.0 
2.397950825144e-04 8.136808344214e-03 0.0 
0.0 0.0 -1.211531131004e-03 
-7.660046426258e-04 -1.986537595937e-04 0.0 
-1.986537595937e-04 5.080766734255e-03 0.0 
0.0 0.0 -7.673127347790e-04 
-3.927767409547e-04 -1.941008242108e-04 0.0 
-1.941008242108e-04 2.469153154105e-03 0.0 
0.0 0.0 -3.889166325194e-04 
-7.314298842455e-04 -2.140562000032e-04 0.0 
-2.140562000032e-04 4.812028074598e-03 0.0 
0.0 0.0 -7.311132045151e-04 
-5.669903072896e-04 1.859979766966e-04 0.0 
1.859979766966e-04 3.622850524897e-03 0.0 
0.0 0.0 -5.716673668464e-04 
-4.441913073698e-04 -1.946929488681e-04 0.0 
-1.946929488681e-04 2.835535865590e-03 0.0 
0.0 0.0 -4.452767020142e-04 
-8.541353571324e-04 1.878201727379e-04 0.0 
1.878201727379e-04 5.598851307335e-03 0.0 
0.0 0.0 -8.564950983273e-04 
0.0 0.0 0.0 
0.0 0.0 0.0 
0.0 0.0 0.0 
0.0 0.0 0.0 
0.0 0.0 0.0 
0.0 0.0 0.0 
-9.633926432213e-04 -1.929125650732e-04 0.0 
-1.929125650732e-04 6.449382072422e-03 0.0 
0.0 0.0 -9.636005660098e-04 
-3.261615758852e-04 -1.754968158783e-04 0.0 
-1.754968158783e-04 2.064243752771e-03 0.0 
0.0 0.0 -3.336449385292e-04 
-9.716625480636e-04 -1.974982736352e-04 0.0 
-1.974982736352e-04 6.511810819199e-03 0.0 
0.0 0.0 -9.724388998541e-04 
-9.434553557208e-04 -1.947776052692e-04 0.0 
-1.947776052692e-04 6.314151919472e-03 0.0 
0.0 0.0 -9.438473481109e-04 
-6.149570530548e-04 1.958377041270e-04 0.0 
1.958377041270e-04 3.946002749694e-03 0.0 
0.0 0.0 -6.177757646845e-04 
-4.134741271649e-04 1.981876295031e-04 0.0 
1.981876295031e-04 2.543324249367e-03 0.0 
0.0 0.0 -4.162223005415e-04 
-1.136715502842e-03 -2.038924191314e-04 0.0 
-2.038924191314e-04 7.650435027918e-03 0.0 
0.0 0.0 -1.137719822027e-03 
-2.155883669570e-04 -8.829356196837e-05 0.0 
-8.829356196837e-05 9.573383583193e-04 0.0 
0.0 0.0 -2.047534254615e-04 
-6.021718484836e-04 1.735627083644e-04 0.0 
1.735627083644e-04 3.837011647565e-03 0.0 
0.0 0.0 -6.004815939294e-04 
-1.172134314024e-03 -1.664552663930e-04 0.0 
-1.664552663930e-04 7.890382462293e-03 0.0 
0.0 0.0 -1.175533656463e-03 
-2.822824235296e-04 1.888682444412e-04 0.0 
1.888682444412e-04 1.684200929602e-03 0.0 
0.0 0.0 -2.977570873278e-04 
-9.136045934539e-04 -1.921452035066e-04 0.0 
-1.921452035066e-04 6.056651557430e-03 0.0 
0.0 0.0 -9.088859120638e-04 
-8.340119380579e-04 -2.228113772719e-04 0.0 
-2.228113772719e-04 5.573887948833e-03 0.0 
0.0 0.0 -8.416286270284e-04 
-2.829330432203e-04 -1.923976084130e-04 0.0 
-1.923976084130e-04 1.716244531209e-03 0.0 
0.0 0.0 -2.842394630762e-04 
-1.159926400282e-03 -1.793893042658e-04 0.0 
-1.793893042658e-04 7.808824689671e-03 0.0 
0.0 0.0 -1.158722036769e-03 
-1.035589941137e-03 -1.985988582849e-04 0.0 
-1.985988582849e-04 6.933992631060e-03 0.0 
0.0 0.0 -1.034898561726e-03 
-3.359494272763e-04 1.786409644777e-04 0.0 
1.786409644777e-04 1.989232140030e-03 0.0 
0.0 0.0 -3.364655670308e-04 
-1.165152170532e-03 -1.849586778466e-04 0.0 
-1.849586778466e-04 7.849581652679e-03 0.0 
0.0 0.0 -1.166520446339e-03 
-1.171818434168e-03 1.701070722775e-04 0.0 
1.701070722775e-04 7.787163600185e-03 0.0 
0.0 0.0 -1.169001632583e-03 
-3.670484435220e-04 -2.062025335132e-04 0.0 
-2.062025335132e-04 2.310354927649e-03 0.0 
0.0 0.0 -3.701904734684e-04 
-4.878019895888e-04 -2.129991852320e-04 0.0 
-2.129991852320e-04 3.076179585064e-03 0.0 
0.0 0.0 -4.801335248058e-04 
-3.784853096696e-04 -1.951915827816e-04 0.0 
-1.951915827816e-04 2.373996755404e-03 0.0 
0.0 0.0 -3.791106726259e-04 
-1.023434568927e-03 -1.955357832441e-04 0.0 
-1.955357832441e-04 6.907952393425e-03 0.0 
0.0 0.0 -1.029923508343e-03 
-8.283537341300e-04 1.907553074044e-04 0.0 
1.907553074044e-04 5.413544228672e-03 0.0 
0.0 0.0 -8.276368238623e-04 
-1.175065292852e-03 1.838008001023e-04 0.0 
1.838008001023e-04 7.798269859187e-03 0.0 
0.0 0.0 -1.169529464977e-03 
-1.141233486497e-03 1.909358973763e-04 0.0 
1.909358973763e-04 7.594915182305e-03 0.0 
0.0 0.0 -1.140030709108e-03 
-9.986353517479e-04 -1.968060563576e-04 0.0 
-1.968060563576e-04 6.710344376514e-03 0.0 
0.0 0.0 -1.001167767022e-03 
-1.002641746751e-03 1.939099816930e-04 0.0 
1.939099816930e-04 6.639482721891e-03 0.0 
0.0 0.0 -1.004093472296e-03 
-3.170641866385e-04 1.974483890405e-04 0.0 
1.974483890405e-04 1.842860083610e-03 0.0 
0.0 0.0 -3.158693332420e-04 
-1.029368673375e-03 1.947386699308e-04 0.0 
1.947386699308e-04 6.837075470330e-03 0.0 
0.0 0.0 -1.032853941699e-03 
-1.038324079738e-03 1.969104416427e-04 0.0 
1.969104416427e-04 6.879456010501e-03 0.0 
0.0 0.0 -1.037144748481e-03 
-8.220289990508e-04 -1.901456335334e-04 0.0 
-1.901456335334e-04 5.481743507948e-03 0.0 
0.0 0.0 -8.248712778174e-04 
-9.784412971014e-04 -1.995967018582e-04 0.0 
-1.995967018582e-04 6.519224964638e-03 0.0 
0.0 0.0 -9.752741834902e-04 
-1.071043316413e-03 -2.014206266275e-04 0.0 
-2.014206266275e-04 7.187990111684e-03 0.0 
0.0 0.0 -1.071415751597e-03 
-7.449992410114e-04 1.900175048328e-04 0.0 
1.900175048328e-04 4.830596508428e-03 0.0 
0.0 0.0 -7.435371925968e-04 
-1.112301323396e-03 1.953318319138e-04 0.0 
1.953318319138e-04 7.388703494557e-03 0.0 
0.0 0.0 -1.110258267496e-03 
-7.048168666413e-04 2.103542029495e-04 0.0 
2.103542029495e-04 4.551180166485e-03 0.0 
0.0 0.0 -6.965171720951e-04 
-7.978310569570e-04 -1.996626955199e-04 0.0 
-1.996626955199e-04 5.282133349968e-03 0.0 
0.0 0.0 -7.960639764766e-04 
-5.335116196934e-04 2.239231297756e-04 0.0 
2.239231297756e-04 3.386453430155e-03 0.0 
0.0 0.0 -5.342291996904e-04 
-5.553576446558e-04 -1.816268034186e-04 0.0 
-1.816268034186e-04 3.628347878161e-03 0.0 
0.0 0.0 -5.581583723280e-04 
-1.010310088917e-03 1.967228699852e-04 0.0 
1.967228699852e-04 6.672709965049e-03 0.0 
0.0 0.0 -1.007339817349e-03 
-7.628577911211e-04 -1.911605880285e-04 0.0 
-1.911605880285e-04 5.057166832743e-03 0.0 
0.0 0.0 -7.637833264599e-04 
-4.056535220845e-04 -1.994601543415e-04 0.0 
-1.994601543415e-04 2.573810220736e-03 0.0 
0.0 0.0 -4.077494273363e-04 
-2.235505229119e-04 -1.665382784812e-04 0.0 
-1.665382784812e-04 1.264629605483e-03 0.0 
0.0 0.0 -2.185673950299e-04 
-1.005369566171e-03 -1.969282844887e-04 0.0 
-1.969282844887e-04 6.726819346583e-03 0.0 
0.0 0.0 -1.005115000480e-03 
-4.096373717980e-04 1.964452207256e-04 0.0 
1.964452207256e-04 2.501615904785e-03 0.0 
0.0 0.0 -4.107160730352e-04 
-1.196795855234e-03 2.010644044309e-04 0.0 
2.010644044309e-04 8.139442919111e-03 0.0 
0.0 0.0 -1.218716866995e-03 
-1.042807145316e-03 1.952121137200e-04 0.0 
1.952121137200e-04 6.924647329534e-03 0.0 
0.0 0.0 -1.043883448597e-03 
-1.067869276877e-03 1.919364052357e-04 0.0 
1.919364052357e-04 7.100655193935e-03 0.0 
0.0 0.0 -1.070373463590e-03 
-1.283006779812e-03 -2.454005743877e-05 0.0 
-2.454005743877e-05 8.441304095904e-03 0.0 
0.0 0.0 -1.284729618418e-03 
-6.611541786482e-04 -2.165377279584e-04 0.0 
-2.165377279584e-04 4.358180230514e-03 0.0 
0.0 0.0 -6.637377122259e-04 
-3.719232158052e-04 1.946095876176e-04 0.0 
1.946095876176e-04 2.237835984063e-03 0.0 
0.0 0.0 -3.731618544809e-04 
-2.509805120976e-04 2.101438879213e-04 0.0 
2.101438879213e-04 1.370179870162e-03 0.0 
0.0 0.0 -2.496210768721e-04 
-1.009272610852e-03 -1.976905948495e-04 0.0 
-1.976905948495e-04 6.773236228030e-03 0.0 
0.0 0.0 -1.009908742814e-03 
-9.502891484141e-04 2.008015227702e-04 0.0 
2.008015227702e-04 6.263291661127e-03 0.0 
0.0 0.0 -9.473489374553e-04 
-1.787867007396e-04 1.721284507091e-04 0.0 
1.721284507091e-04 9.234900215078e-04 0.0 
0.0 0.0 -1.858848441742e-04 
-5.306487836806e-04 -1.980238622702e-04 0.0 
-1.980238622702e-04 3.494279541485e-03 0.0 
0.0 0.0 -5.400474096907e-04 
-3.064883048416e-04 -1.749693241531e-04 0.0 
-1.749693241531e-04 2.001263288358e-03 0.0 
0.0 0.0 -3.246070344129e-04 
-9.392936976825e-04 -1.862704497827e-04 0.0 
-1.862704497827e-04 6.266809515345e-03 0.0 
0.0 0.0 -9.387834224271e-04 
-5.480159981423e-04 -2.100359931436e-04 0.0 
-2.100359931436e-04 3.693369469425e-03 0.0 
0.0 0.0 -5.687878759048e-04 
-9.467150260524e-04 1.924065934846e-04 0.0 
1.924065934846e-04 6.242240235616e-03 0.0 
0.0 0.0 -9.467935652645e-04 
-5.428455294621e-04 -2.085125102257e-04 0.0 
-2.085125102257e-04 3.415670535466e-03 0.0 
0.0 0.0 -5.337555413937e-04 
-1.117346964304e-03 -2.071110090059e-04 0.0 
-2.071110090059e-04 7.492505049919e-03 0.0 
0.0 0.0 -1.114809527198e-03 
-4.745048492879e-04 1.992195964989e-04 0.0 
1.992195964989e-04 2.965213732964e-03 0.0 
0.0 0.0 -4.768663991247e-04 
-1.019084130149e-03 -1.971234603786e-04 0.0 
-1.971234603786e-04 6.834832976306e-03 0.0 
0.0 0.0 -1.018590841688e-03 
-3.372917149944e-04 -1.912349410904e-04 0.0 
-1.912349410904e-04 2.104646860584e-03 0.0 
0.0 0.0 -3.376433569222e-04 
-9.810862783946e-04 -1.972875806497e-04 0.0 
-1.972875806497e-04 6.573374097127e-03 0.0 
0.0 0.0 -9.812220007866e-04 
-7.630262787413e-04 -1.649240710626e-04 0.0 
-1.649240710626e-04 5.040550269951e-03 0.0 
0.0 0.0 -7.604224332210e-04 
-1.040603755793e-03 1.933348900592e-04 0.0 
1.933348900592e-04 6.902261502476e-03 0.0 
0.0 0.0 -1.041555045145e-03 
-5.360677599798e-04 1.876482889455e-04 0.0 
1.876482889455e-04 3.380336319222e-03 0.0 
0.0 0.0 -5.350282927002e-04 
-3.256683131977e-04 2.104859329235e-04 0.0 
2.104859329235e-04 1.909139084910e-03 0.0 
0.0 0.0 -3.277310168338e-04 
-8.709310065230e-04 -1.930857458815e-04 0.0 
-1.930857458815e-04 5.840506173078e-03 0.0 
0.0 0.0 -8.787268422831e-04 
-9.478935846187e-04 -1.922017527602e-04 0.0 
-1.922017527602e-04 6.329496652854e-03 0.0 
0.0 0.0 -9.464297096767e-04 
-6.788789609642e-04 1.916120147782e-04 0.0 
1.916120147782e-04 4.369175427210e-03 0.0 
0.0 0.0 -6.776081642141e-04 
-9.468425740779e-04 -2.085300673065e-04 0.0 
-2.085300673065e-04 6.298374618209e-03 0.0 
0.0 0.0 -9.453210152248e-04 
-3.756080425156e-04 -1.934039556713e-04 0.0 
-1.934039556713e-04 2.352414382127e-03 0.0 
0.0 0.0 -3.758914132629e-04 
-9.664473934007e-04 1.935643871515e-04 0.0 
1.935643871515e-04 6.379409966944e-03 0.0 
0.0 0.0 -9.642804585795e-04 
-3.026576237448e-04 -1.928297610964e-04 0.0 
-1.928297610964e-04 1.798935007683e-03 0.0 
0.0 0.0 -2.947674122297e-04 
-1.153179427147e-03 -2.051549704311e-04 0.0 
-2.051549704311e-04 7.761192827607e-03 0.0 
0.0 0.0 -1.150402778756e-03 
-9.838604339423e-04 -1.907200549992e-04 0.0 
-1.907200549992e-04 6.585836583388e-03 0.0 
0.0 0.0 -9.834711240942e-04 
-1.039448222436e-03 -1.939988089318e-04 0.0 
-1.939988089318e-04 6.961176011231e-03 0.0 
0.0 0.0 -1.037051012011e-03 
-1.209610339595e-03 -2.064055054885e-04 0.0 
-2.064055054885e-04 8.130245976668e-03 0.0 
0.0 0.0 -1.204463612412e-03 
-8.289278457568e-04 -1.937873946282e-04 0.0 
-1.937873946282e-04 5.514638524943e-03 0.0 
0.0 0.0 -8.294769417472e-04 
-3.109821114722e-04 1.906924358187e-04 0.0 
1.906924358187e-04 1.784796369805e-03 0.0 
0.0 0.0 -3.081489256106e-04 
-9.237752216618e-04 -1.945449657842e-04 0.0 
-1.945449657842e-04 6.173770782065e-03 0.0 
0.0 0.0 -9.239488535170e-04 
-1.191042257491e-03 2.067698926501e-04 0.0 
2.067698926501e-04 7.951909524646e-03 0.0 
0.0 0.0 -1.189963100592e-03 
-4.775062598439e-04 -1.845893080325e-04 0.0 
-1.845893080325e-04 3.071724244623e-03 0.0 
0.0 0.0 -4.786098583285e-04 
-1.036708665275e-03 -1.995575756552e-04 0.0 
-1.995575756552e-04 6.972509629402e-03 0.0 
0.0 0.0 -1.038675661098e-03 
-1.042240091366e-03 -2.028158867280e-04 0.0 
-2.028158867280e-04 6.979443732142e-03 0.0 
0.0 0.0 -1.041631482750e-03 
-3.838009065761e-04 1.994121048010e-04 0.0 
1.994121048010e-04 2.344808306372e-03 0.0 
0.0 0.0 -3.880698300753e-04 
-9.524861751472e-04 -1.961707644156e-04 0.0 
-1.961707644156e-04 6.373861031903e-03 0.0 
0.0 0.0 -9.525765839929e-04 
-8.586433483391e-04 -1.931078618343e-04 0.0 
-1.931078618343e-04 5.748348032680e-03 0.0 
0.0 0.0 -8.663127257150e-04 
-4.249902311886e-04 -1.873478746315e-04 0.0 
-1.873478746315e-04 2.710801804411e-03 0.0 
0.0 0.0 -4.280652785065e-04 
-5.063403877371e-04 -1.957595432947e-04 0.0 
-1.957595432947e-04 3.295220362808e-03 0.0 
0.0 0.0 -5.113914792957e-04 
-8.011417777980e-04 -1.869294440003e-04 0.0 
-1.869294440003e-04 5.307962758149e-03 0.0 
0.0 0.0 -8.004334922225e-04 
-1.012906793309e-03 1.927821333669e-04 0.0 
1.927821333669e-04 6.702583928550e-03 0.0 
0.0 0.0 -1.012809740122e-03 
-6.237702296699e-04 -1.788620839172e-04 0.0 
-1.788620839172e-04 4.053757856152e-03 0.0 
0.0 0.0 -6.201901524263e-04 
-7.654836975307e-04 -1.844361479045e-04 0.0 
-1.844361479045e-04 5.061981616524e-03 0.0 
0.0 0.0 -7.649884091348e-04 
-1.002132587578e-03 1.966152402384e-04 0.0 
1.966152402384e-04 6.628701174112e-03 0.0 
0.0 0.0 -1.000670320419e-03 
-9.160037735612e-04 2.105070801011e-04 0.0 
2.105070801011e-04 6.003693375901e-03 0.0 
0.0 0.0 -9.110000341593e-04 
-8.984996443820e-04 1.923871522477e-04 0.0 
1.923871522477e-04 5.918711205323e-03 0.0 
0.0 0.0 -8.984003255416e-04 
-7.635747983664e-04 1.700234808703e-04 0.0 
1.700234808703e-04 4.971193028469e-03 0.0 
0.0 0.0 -7.627602282935e-04 
-1.130358647028e-03 -1.898334947356e-04 0.0 
-1.898334947356e-04 7.609563538776e-03 0.0 
0.0 0.0 -1.130631056169e-03 
-8.949695730274e-04 -1.944201834166e-04 0.0 
-1.944201834166e-04 5.973169188704e-03 0.0 
0.0 0.0 -8.953295484280e-04 
-8.818948229552e-04 -1.808766535772e-04 0.0 
-1.808766535772e-04 5.810855732820e-03 0.0 
0.0 0.0 -8.720525204519e-04 
-1.180322083838e-03 -2.544019696132e-04 0.0 
-2.544019696132e-04 8.044684295215e-03 0.0 
0.0 0.0 -1.193584144721e-03 
-1.074317409630e-03 -2.028987224977e-04 0.0 
-2.028987224977e-04 7.209609754448e-03 0.0 
0.0 0.0 -1.073433710836e-03 
-9.845138767756e-04 1.933324893146e-04 0.0 
1.933324893146e-04 6.502529959442e-03 0.0 
0.0 0.0 -9.841343610905e-04 
-1.074220521467e-03 1.937044770007e-04 0.0 
1.937044770007e-04 7.133220182241e-03 0.0 
0.0 0.0 -1.073677668998e-03 
-5.827062234071e-04 -1.941542500794e-04 0.0 
-1.941542500794e-04 3.817750575136e-03 0.0 
0.0 0.0 -5.862626530915e-04 
-5.447661780291e-04 -1.955268079663e-04 0.0 
-1.955268079663e-04 3.556218869368e-03 0.0 
0.0 0.0 -5.488365039436e-04 
-3.200298242821e-04 -2.008010355195e-04 0.0 
-2.008010355195e-04 1.912733596730e-03 0.0 
0.0 0.0 -3.130684191733e-04 
-9.610361432964e-04 -1.937939784480e-04 0.0 
-1.937939784480e-04 6.432925566233e-03 0.0 
0.0 0.0 -9.612598090090e-04 
-5.730915420071e-04 -1.993284364061e-04 0.0 
-1.993284364061e-04 3.756322275087e-03 0.0 
0.0 0.0 -5.775003002374e-04 
-9.676234080517e-04 -1.978430549766e-04 0.0 
-1.978430549766e-04 6.470709836540e-03 0.0 
0.0 0.0 -9.686535345556e-04 
-9.307775843259e-04 -2.009567450900e-04 0.0 
-2.009567450900e-04 6.218061512745e-03 0.0 
0.0 0.0 -9.322463471790e-04 
-7.694630900906e-04 -1.939675917432e-04 0.0 
-1.939675917432e-04 5.091771385308e-03 0.0 
0.0 0.0 -7.690363516573e-04 
-4.826168522865e-04 1.966675666533e-04 0.0 
1.966675666533e-04 3.022691758794e-03 0.0 
0.0 0.0 -4.860199686152e-04 
-5.166152208989e-04 1.895375761803e-04 0.0 
1.895375761803e-04 3.232772262981e-03 0.0 
0.0 0.0 -5.148587792422e-04 
-5.108840173734e-04 1.960376866878e-04 0.0 
1.960376866878e-04 3.223531247209e-03 0.0 
0.0 0.0 -5.143448975765e-04 
-5.481816317278e-04 1.962623655857e-04 0.0 
1.962623655857e-04 3.484569495256e-03 0.0 
0.0 0.0 -5.517963299543e-04 
-3.453277696027e-04 1.969675537481e-04 0.0 
1.969675537481e-04 2.040898908983e-03 0.0 
0.0 0.0 -3.446931235564e-04 
-1.101052151537e-03 -1.995058256316e-04 0.0 
-1.995058256316e-04 7.411556171306e-03 0.0 
0.0 0.0 -1.101849228969e-03 
-6.632570071378e-04 1.923578636572e-04 0.0 
1.923578636572e-04 4.270077985980e-03 0.0 
0.0 0.0 -6.642957827475e-04 
-1.108318305334e-03 -2.031784349512e-04 0.0 
-2.031784349512e-04 7.443886566257e-03 0.0 
0.0 0.0 -1.107989045227e-03 
-7.011090036509e-04 1.927949869006e-04 0.0 
1.927949869006e-04 4.532588404756e-03 0.0 
0.0 0.0 -7.013039408444e-04 
-9.265731680826e-04 1.957284230982e-04 0.0 
1.957284230982e-04 6.103426765876e-03 0.0 
0.0 0.0 -9.268471029392e-04 
-7.946469523286e-04 1.955747403876e-04 0.0 
1.955747403876e-04 5.185524606882e-03 0.0 
0.0 0.0 -7.951651613512e-04 
-7.572756681298e-04 -1.872685007043e-04 0.0 
-1.872685007043e-04 5.004494979539e-03 0.0 
0.0 0.0 -7.567435594048e-04 
-3.404029927324e-04 -1.917944120495e-04 0.0 
-1.917944120495e-04 2.114741006724e-03 0.0 
0.0 0.0 -3.417109511102e-04 
-1.168366620594e-03 1.821653519024e-04 0.0 
1.821653519024e-04 7.733894625141e-03 0.0 
0.0 0.0 -1.161691925552e-03 
-1.208283455631e-03 -2.138622136652e-04 0.0 
-2.138622136652e-04 8.118515122607e-03 0.0 
0.0 0.0 -1.198716319349e-03 
-9.647894746907e-04 1.840623527821e-04 0.0 
1.840623527821e-04 6.374025584992e-03 0.0 
0.0 0.0 -9.650368815299e-04 
-5.866113351029e-04 1.997061311368e-04 0.0 
1.997061311368e-04 3.745701321029e-03 0.0 
0.0 0.0 -5.892385666867e-04 
-8.606873822814e-04 1.952603744915e-04 0.0 
1.952603744915e-04 5.644314043148e-03 0.0 
0.0 0.0 -8.609535187098e-04 
-9.731621015164e-04 2.042240848124e-04 0.0 
2.042240848124e-04 6.416634786867e-03 0.0 
0.0 0.0 -9.708520278613e-04 
-6.114505218062e-04 -1.970451499323e-04 0.0 
-1.970451499323e-04 4.016656707276e-03 0.0 
0.0 0.0 -6.148791393494e-04 
-6.402153518211e-04 -1.799304007788e-04 0.0 
-1.799304007788e-04 4.195134185683e-03 0.0 
0.0 0.0 -6.394234923164e-04 
-4.756790629450e-04 -1.970276149026e-04 0.0 
-1.970276149026e-04 3.037216567460e-03 0.0 
0.0 0.0 -4.739097840058e-04 
-4.115649622256e-04 -1.881038262712e-04 0.0 
-1.881038262712e-04 2.615008917890e-03 0.0 
0.0 0.0 -4.132304097957e-04 
-6.210949620284e-04 -1.921853512956e-04 0.0 
-1.921853512956e-04 4.079647892730e-03 0.0 
0.0 0.0 -6.236739531379e-04 
-4.389003653302e-04 1.899270358256e-04 0.0 
1.899270358256e-04 2.702990318359e-03 0.0 
0.0 0.0 -4.393534411964e-04 
-3.957050609939e-04 -2.005038904366e-04 0.0 
-2.005038904366e-04 2.512628569390e-03 0.0 
0.0 0.0 -3.988888273503e-04 
-7.912937221892e-04 -1.931036918808e-04 0.0 
-1.931036918808e-04 5.255690323409e-03 0.0 
0.0 0.0 -7.922809795675e-04 
-9.555190717992e-04 1.953941988256e-04 0.0 
1.953941988256e-04 6.303135181036e-03 0.0 
0.0 0.0 -9.554846610150e-04 
-1.131935364223e-03 1.749369794293e-04 0.0 
1.749369794293e-04 7.516475401832e-03 0.0 
0.0 0.0 -1.128610778606e-03 
-7.677587316374e-05 5.132629422675e-05 0.0 
5.132629422675e-05 2.950272314679e-04 0.0 
0.0 0.0 -4.808883996072e-05 
-6.821273879062e-04 1.885153294960e-04 0.0 
1.885153294960e-04 4.394625922574e-03 0.0 
0.0 0.0 -6.818868151028e-04 
-6.732798359077e-04 1.896419879915e-04 0.0 
1.896419879915e-04 4.334337175818e-03 0.0 
0.0 0.0 -6.732431144785e-04 
-6.253359345237e-04 1.966841986601e-04 0.0 
1.966841986601e-04 4.007688208335e-03 0.0 
0.0 0.0 -6.268095852860e-04 
-9.342352764228e-04 1.992757766658e-04 0.0 
1.992757766658e-04 6.164738867849e-03 0.0 
0.0 0.0 -9.344164207832e-04 
-7.286499736730e-04 1.960851222301e-04 0.0 
1.960851222301e-04 4.727094990714e-03 0.0 
0.0 0.0 -7.295442444478e-04 
-5.028967805497e-04 2.032690915997e-04 0.0 
2.032690915997e-04 3.169465929495e-03 0.0 
0.0 0.0 -5.055050897130e-04 
-6.594115462037e-04 -1.877379034349e-04 0.0 
-1.877379034349e-04 4.343026444268e-03 0.0 
0.0 0.0 -6.611654675676e-04 
-1.086852433707e-03 1.972393602690e-04 0.0 
1.972393602690e-04 7.180508805687e-03 0.0 
0.0 0.0 -1.080452943103e-03 
-5.134906191046e-04 -1.975407525199e-04 0.0 
-1.975407525199e-04 3.241783811479e-03 0.0 
0.0 0.0 -5.025663706543e-04 
-2.068765507079e-04 1.780811299395e-04 0.0 
1.780811299395e-04 1.103158600140e-03 0.0 
0.0 0.0 -2.132551421006e-04 
-2.821446593327e-04 1.850947824845e-04 0.0 
1.850947824845e-04 1.595379339776e-03 0.0 
0.0 0.0 -2.784575373548e-04 
-4.423162808512e-04 1.966617048386e-04 0.0 
1.966617048386e-04 2.737975260110e-03 0.0 
0.0 0.0 -4.444240490352e-04 
-5.210766744925e-04 1.945752899052e-04 0.0 
1.945752899052e-04 3.285513932228e-03 0.0 
0.0 0.0 -5.239304829885e-04 
-7.103179674584e-04 1.937608556774e-04 0.0 
1.937608556774e-04 4.594082704701e-03 0.0 
0.0 0.0 -7.099160536912e-04 
-6.974191009827e-04 -1.859522295004e-04 0.0 
-1.859522295004e-04 4.604175499566e-03 0.0 
0.0 0.0 -6.984076724203e-04 
-3.111089899344e-04 -2.166751455614e-04 0.0 
-2.166751455614e-04 1.884393958953e-03 0.0 
0.0 0.0 -3.092759564244e-04 
-2.948433446490e-04 -2.106961415148e-04 0.0 
-2.106961415148e-04 1.651650768654e-03 0.0 
0.0 0.0 -2.765202162382e-04 
-9.029473964606e-04 -2.318038937515e-04 0.0 
-2.318038937515e-04 5.899437226641e-03 0.0 
0.0 0.0 -8.885078876198e-04 
-4.353328022797e-04 -2.074729337185e-04 0.0 
-2.074729337185e-04 2.774644133328e-03 0.0 
0.0 0.0 -4.363975895258e-04 
-1.066115861838e-03 1.923323182630e-04 0.0 
1.923323182630e-04 7.082058213666e-03 0.0 
0.0 0.0 -1.067401112627e-03 
-1.093430528172e-03 1.859529625014e-04 0.0 
1.859529625014e-04 7.265648937776e-03 0.0 
0.0 0.0 -1.093380752811e-03 
-9.055761456836e-04 -1.909848796465e-04 0.0 
-1.909848796465e-04 6.010442057108e-03 0.0 
0.0 0.0 -9.013836717722e-04 
-1.127393681638e-03 1.896887369254e-04 0.0 
1.896887369254e-04 7.503433377312e-03 0.0 
0.0 0.0 -1.126084317643e-03 
-1.155463123535e-03 1.744033292086e-04 0.0 
1.744033292086e-04 7.751673747269e-03 0.0 
0.0 0.0 -1.164310864388e-03 
-7.420687839785e-04 -1.936328330324e-04 0.0 
-1.936328330324e-04 4.896453187980e-03 0.0 
0.0 0.0 -7.408850503417e-04 
-1.028946225618e-03 1.859237494966e-04 0.0 
1.859237494966e-04 6.817745899264e-03 0.0 
0.0 0.0 -1.029042339204e-03 
-3.444765648254e-04 -1.889029113480e-04 0.0 
-1.889029113480e-04 2.157321474184e-03 0.0 
0.0 0.0 -3.474733517438e-04 
-6.874756161390e-04 -1.926159426764e-04 0.0 
-1.926159426764e-04 4.537720382930e-03 0.0 
0.0 0.0 -6.894573431515e-04 
-6.898061862194e-04 1.857511077275e-04 0.0 
1.857511077275e-04 4.440388507088e-03 0.0 
0.0 0.0 -6.879681371099e-04 
-4.019279772504e-04 1.778728342644e-04 0.0 
1.778728342644e-04 2.433102799940e-03 0.0 
0.0 0.0 -3.974404770784e-04 
-2.808996377464e-04 -1.954566177411e-04 0.0 
-1.954566177411e-04 1.711546538442e-03 0.0 
0.0 0.0 -2.813757158202e-04 
-5.769851111882e-04 1.945968129496e-04 0.0 
1.945968129496e-04 3.685550638925e-03 0.0 
0.0 0.0 -5.804062017457e-04 
-6.698465200997e-04 -1.848151346019e-04 0.0 
-1.848151346019e-04 4.407215399786e-03 0.0 
0.0 0.0 -6.703429011759e-04 
-7.069533997817e-04 -1.864555130785e-04 0.0 
-1.864555130785e-04 4.664424843705e-03 0.0 
0.0 0.0 -7.070647534220e-04 
-4.705619805672e-04 1.797584254587e-04 0.0 
1.797584254587e-04 2.905608131468e-03 0.0 
0.0 0.0 -4.680152132766e-04 
-7.664680765081e-04 1.944574444010e-04 0.0 
1.944574444010e-04 4.988010799345e-03 0.0 
0.0 0.0 -7.666177146937e-04 
-6.793079833930e-04 -1.842955306638e-04 0.0 
-1.842955306638e-04 4.467105658874e-03 0.0 
0.0 0.0 -6.790125122095e-04 
-7.192535587873e-04 1.886174479633e-04 0.0 
1.886174479633e-04 4.651675493154e-03 0.0 
0.0 0.0 -7.183521444552e-04 
-5.167516635029e-04 -1.889877885738e-04 0.0 
-1.889877885738e-04 3.361424050145e-03 0.0 
0.0 0.0 -5.205443542100e-04 
-9.916854113120e-04 -1.973034417571e-04 0.0 
-1.973034417571e-04 6.645632539252e-03 0.0 
0.0 0.0 -9.921115096417e-04 
-1.000725886826e-03 -2.001881518317e-04 0.0 
-2.001881518317e-04 6.682457666445e-03 0.0 
0.0 0.0 -9.984673180476e-04 
-6.910740697018e-04 1.869291771832e-04 0.0 
1.869291771832e-04 4.454330638785e-03 0.0 
0.0 0.0 -6.904379518788e-04 
-1.131075422052e-03 1.930354118908e-04 0.0 
1.930354118908e-04 7.540452433703e-03 0.0 
0.0 0.0 -1.133495712197e-03 
-3.818178823842e-04 -1.881304660734e-04 0.0 
-1.881304660734e-04 2.417279904182e-03 0.0 
0.0 0.0 -3.849690761666e-04 
-1.204919198583e-03 2.055908933390e-04 0.0 
2.055908933390e-04 8.107807864514e-03 0.0 
0.0 0.0 -1.208505026952e-03 
-7.381856154466e-04 1.951283212295e-04 0.0 
1.951283212295e-04 4.788651758778e-03 0.0 
0.0 0.0 -7.381355003807e-04 
-1.179893914325e-03 2.326195910896e-04 0.0 
2.326195910896e-04 8.057192319457e-03 0.0 
0.0 0.0 -1.203459118631e-03 
-9.174882615910e-04 -1.900236548234e-04 0.0 
-1.900236548234e-04 6.103327033778e-03 0.0 
0.0 0.0 -9.144069900286e-04 
-3.759838339719e-04 1.980975432100e-04 0.0 
1.980975432100e-04 2.280850535288e-03 0.0 
0.0 0.0 -3.788569260404e-04 
-9.329446838714e-04 -1.934956866743e-04 0.0 
-1.934956866743e-04 6.203824333692e-03 0.0 
0.0 0.0 -9.292863832265e-04 
-1.148316362968e-03 1.911406139228e-04 0.0 
1.911406139228e-04 7.656686617329e-03 0.0 
0.0 0.0 -1.148369591821e-03 
-7.751955477395e-04 1.935539670278e-04 0.0 
1.935539670278e-04 5.048248374235e-03 0.0 
0.0 0.0 -7.747733155264e-04 
-5.636121724150e-04 -1.856060269500e-04 0.0 
-1.856060269500e-04 3.652721039859e-03 0.0 
0.0 0.0 -5.621395992319e-04 
-9.592421645063e-04 -1.953589560094e-04 0.0 
-1.953589560094e-04 6.397497054977e-03 0.0 
0.0 0.0 -9.572423940436e-04 
-7.410203931500e-04 1.888947749690e-04 0.0 
1.888947749690e-04 4.805195564350e-03 0.0 
0.0 0.0 -7.402445244775e-04 
-3.049241937385e-04 2.026327067246e-04 0.0 
2.026327067246e-04 1.807680481835e-03 0.0 
0.0 0.0 -3.123079531677e-04 
-1.247303547099e-03 2.054291781832e-04 0.0 
2.054291781832e-04 8.428743189038e-03 0.0 
0.0 0.0 -1.259077240559e-03 
-2.832321787005e-04 2.033440710739e-04 0.0 
2.033440710739e-04 1.568411261078e-03 0.0 
0.0 0.0 -2.747754844540e-04 
-1.180725818141e-03 -1.959284539653e-04 0.0 
-1.959284539653e-04 8.086063063664e-03 0.0 
0.0 0.0 -1.194426649262e-03 
-1.181044415914e-03 1.885702677114e-04 0.0 
1.885702677114e-04 7.848025462359e-03 0.0 
0.0 0.0 -1.175981821618e-03 
-1.019774229423e-03 -1.968009652078e-04 0.0 
-1.968009652078e-04 6.844195853493e-03 0.0 
0.0 0.0 -1.020516803968e-03 
-9.063963003822e-04 2.216702355021e-04 0.0 
2.216702355021e-04 5.948302852210e-03 0.0 
0.0 0.0 -9.041796124736e-04 
-1.096159842107e-03 -2.041353887512e-04 0.0 
-2.041353887512e-04 7.354511593932e-03 0.0 
0.0 0.0 -1.094228678348e-03 
-7.158215028595e-04 -1.849822212151e-04 0.0 
-1.849822212151e-04 4.721957550486e-03 0.0 
0.0 0.0 -7.154996274706e-04 
-8.342688439829e-04 -1.960354733344e-04 0.0 
-1.960354733344e-04 5.542507863884e-03 0.0 
0.0 0.0 -8.337527902170e-04 
-1.179248762261e-03 1.915113563363e-04 0.0 
1.915113563363e-04 7.953436829066e-03 0.0 
0.0 0.0 -1.191782302182e-03 
-1.022355738208e-03 1.947903411638e-04 0.0 
1.947903411638e-04 6.764095762216e-03 0.0 
0.0 0.0 -1.021464098896e-03 
-1.029803380413e-03 -1.995345647328e-04 0.0 
-1.995345647328e-04 6.892395198165e-03 0.0 
0.0 0.0 -1.028225029406e-03 
-9.800703698298e-04 2.033610077795e-04 0.0 
2.033610077795e-04 6.469215121367e-03 0.0 
0.0 0.0 -9.780777104595e-04 
-3.460311380533e-04 1.949105016325e-04 0.0 
1.949105016325e-04 2.083431817991e-03 0.0 
0.0 0.0 -3.505936111242e-04 
-1.056998258985e-03 -2.024071474235e-04 0.0 
-2.024071474235e-04 7.098571223248e-03 0.0 
0.0 0.0 -1.057861461704e-03 
-1.245215734681e-03 -2.948889405541e-06 0.0 
-2.948889405541e-06 8.708064260567e-03 0.0 
0.0 0.0 -1.268085107495e-03 
-1.199968332554e-03 2.184447548860e-04 0.0 
2.184447548860e-04 8.021680446852e-03 0.0 
0.0 0.0 -1.202195648613e-03 
-6.908555778158e-04 1.952647486752e-04 0.0 
1.952647486752e-04 4.467406980685e-03 0.0 
0.0 0.0 -6.923681691211e-04 
-8.989504497264e-04 -2.030487714899e-04 0.0 
-2.030487714899e-04 5.998411166372e-03 0.0 
0.0 0.0 -9.020111041354e-04 
-8.706850616849e-04 2.163039302349e-04 0.0 
2.163039302349e-04 5.704755713039e-03 0.0 
0.0 0.0 -8.677534307045e-04 
-7.350398663415e-04 -1.921852650881e-04 0.0 
-1.921852650881e-04 4.858429528850e-03 0.0 
0.0 0.0 -7.352749011056e-04 
-9.925381973485e-04 1.968648573770e-04 0.0 
1.968648573770e-04 6.563559215451e-03 0.0 
0.0 0.0 -9.927925938930e-04 
-1.029028532084e-03 1.960911717032e-04 0.0 
1.960911717032e-04 6.822296250893e-03 0.0 
0.0 0.0 -1.030113165296e-03 
-2.401332151859e-04 -2.098625103455e-04 0.0 
-2.098625103455e-04 1.444865681486e-03 0.0 
0.0 0.0 -2.466400652194e-04 
-4.534206567438e-04 1.915983849915e-04 0.0 
1.915983849915e-04 2.786638049384e-03 0.0 
0.0 0.0 -4.508272210452e-04 
-7.276651503282e-04 1.887396446790e-04 0.0 
1.887396446790e-04 4.711996878728e-03 0.0 
0.0 0.0 -7.269793770173e-04 
-6.885109501689e-04 -1.881460235649e-04 0.0 
-1.881460235649e-04 4.526125077483e-03 0.0 
0.0 0.0 -6.875569550717e-04 
-7.327380615621e-04 1.893031023786e-04 0.0 
1.893031023786e-04 4.746976141071e-03 0.0 
0.0 0.0 -7.320784846625e-04 
-1.207414471784e-03 -1.921627464004e-04 0.0 
-1.921627464004e-04 8.251115158096e-03 0.0 
0.0 0.0 -1.225426844749e-03 
-1.165911235799e-03 1.728266951446e-04 0.0 
1.728266951446e-04 7.751919212480e-03 0.0 
0.0 0.0 -1.162686153705e-03 
-1.174125183305e-03 -1.966474411142e-04 0.0 
-1.966474411142e-04 7.895985343999e-03 0.0 
0.0 0.0 -1.173632101657e-03 
-6.588438363322e-04 -1.812037125043e-04 0.0 
-1.812037125043e-04 4.301364332342e-03 0.0 
0.0 0.0 -6.556197767577e-04 
-1.082747471146e-03 1.891035132956e-04 0.0 
1.891035132956e-04 7.201407994731e-03 0.0 
0.0 0.0 -1.082713561900e-03 
-9.901836726999e-04 -1.945402384493e-04 0.0 
-1.945402384493e-04 6.633588115461e-03 0.0 
0.0 0.0 -9.899156953211e-04 
-1.203900706285e-03 2.001643692101e-04 0.0 
2.001643692101e-04 8.020307122063e-03 0.0 
0.0 0.0 -1.198415070424e-03 
-1.018917370980e-03 -2.029360126540e-04 0.0 
-2.029360126540e-04 6.841232066874e-03 0.0 
0.0 0.0 -1.021631336281e-03 
-7.252862927281e-04 -1.917571483022e-04 0.0 
-1.917571483022e-04 4.797885526737e-03 0.0 
0.0 0.0 -7.266350563285e-04 
-6.996186826149e-04 1.874149340260e-04 0.0 
1.874149340260e-04 4.515630015583e-03 0.0 
0.0 0.0 -6.989458521267e-04 
-1.062701287971e-03 1.919893444833e-04 0.0 
1.919893444833e-04 7.044103527011e-03 0.0 
0.0 0.0 -1.060111126929e-03 
-1.159236038185e-03 -2.100410646672e-04 0.0 
-2.100410646672e-04 7.815649065545e-03 0.0 
0.0 0.0 -1.160283895044e-03 
-1.068044840095e-03 1.975027097548e-04 0.0 
1.975027097548e-04 7.089380260529e-03 0.0 
0.0 0.0 -1.066842251349e-03 
-1.033322736071e-03 1.952546159751e-04 0.0 
1.952546159751e-04 6.838585495745e-03 0.0 
0.0 0.0 -1.030428295937e-03 
-1.127957771235e-03 2.034159333983e-04 0.0 
2.034159333983e-04 7.486625778373e-03 0.0 
0.0 0.0 -1.124756152480e-03 
-1.155677614868e-03 -1.983866149799e-04 0.0 
-1.983866149799e-04 7.868967508162e-03 0.0 
0.0 0.0 -1.167530213646e-03 
-1.094507555949e-03 1.976519323401e-04 0.0 
1.976519323401e-04 7.281086392671e-03 0.0 
0.0 0.0 -1.096139997395e-03 
-8.893531318376e-04 1.947803294654e-04 0.0 
1.947803294654e-04 5.843023406601e-03 0.0 
0.0 0.0 -8.895595506239e-04 
-6.419372915529e-04 1.659854799663e-04 0.0 
1.659854799663e-04 4.112940198776e-03 0.0 
0.0 0.0 -6.419897747600e-04 
-1.057958817333e-03 -1.915382936823e-04 0.0 
-1.915382936823e-04 7.093836536897e-03 0.0 
0.0 0.0 -1.057160997780e-03 
-1.010397126926e-03 1.924777478121e-04 0.0 
1.924777478121e-04 6.699973834187e-03 0.0 
0.0 0.0 -1.010795753303e-03 
-4.010552004861e-04 1.841654314205e-04 0.0 
1.841654314205e-04 2.442507368575e-03 0.0 
0.0 0.0 -4.018221946533e-04 
-7.246063133898e-04 -1.880612964647e-04 0.0 
-1.880612964647e-04 4.782342909510e-03 0.0 
0.0 0.0 -7.241222962603e-04 
-8.198364604857e-04 1.863931235936e-04 0.0 
1.863931235936e-04 5.353653336719e-03 0.0 
0.0 0.0 -8.193994707270e-04 
-8.991995514688e-04 -1.967035222148e-04 0.0 
-1.967035222148e-04 5.995025760983e-03 0.0 
0.0 0.0 -8.986564694586e-04 
-4.050243053020e-04 1.994613475966e-04 0.0 
1.994613475966e-04 2.469637685563e-03 0.0 
0.0 0.0 -4.057256964758e-04 
-6.967689891126e-04 -1.888281546421e-04 0.0 
-1.888281546421e-04 4.585730407348e-03 0.0 
0.0 0.0 -6.962026719631e-04 
-9.643194553962e-04 -1.980704148002e-04 0.0 
-1.980704148002e-04 6.448875351116e-03 0.0 
0.0 0.0 -9.636952012155e-04 
-7.333735645701e-04 1.825225121088e-04 0.0 
1.825225121088e-04 4.734280668460e-03 0.0 
0.0 0.0 -7.294090860402e-04 
-7.570403720069e-04 1.947967854262e-04 0.0 
1.947967854262e-04 4.925685443404e-03 0.0 
0.0 0.0 -7.579899565569e-04 
-9.487659951765e-04 -2.043170517301e-04 0.0 
-2.043170517301e-04 6.373556266418e-03 0.0 
0.0 0.0 -9.556638187253e-04 
-7.610430462996e-04 1.745184878599e-04 0.0 
1.745184878599e-04 5.044670069107e-03 0.0 
0.0 0.0 -7.638029664831e-04 
-1.838096952562e-04 2.082695791091e-04 0.0 
2.082695791091e-04 7.724611367138e-04 0.0 
0.0 0.0 -1.578647551136e-04 
-8.576241388509e-04 -1.943288446579e-04 0.0 
-1.943288446579e-04 5.714280224429e-03 0.0 
0.0 0.0 -8.580817703278e-04 
-1.051194806149e-03 1.905396044606e-04 0.0 
1.905396044606e-04 6.972468322912e-03 0.0 
0.0 0.0 -1.051835763028e-03 
-1.194223105728e-03 2.022847639454e-04 0.0 
2.022847639454e-04 8.008401190618e-03 0.0 
0.0 0.0 -1.196871286280e-03 
-8.007996408172e-04 1.886044981360e-04 0.0 
1.886044981360e-04 5.220729595959e-03 0.0 
0.0 0.0 -7.999758813884e-04 
-8.231738978703e-04 1.954670675703e-04 0.0 
1.954670675703e-04 5.384433434041e-03 0.0 
0.0 0.0 -8.237210115815e-04 
-9.659298580920e-04 -1.974560001278e-04 0.0 
-1.974560001278e-04 6.432078237772e-03 0.0 
0.0 0.0 -9.620958722924e-04 
-2.561485936918e-04 2.198683939719e-04 0.0 
2.198683939719e-04 1.251380499118e-03 0.0 
0.0 0.0 -2.247161217206e-04 
-1.023132414130e-03 1.887327440293e-04 0.0 
1.887327440293e-04 6.775332410064e-03 0.0 
0.0 0.0 -1.023361637732e-03 
-8.622181034216e-04 -1.951138773542e-04 0.0 
-1.951138773542e-04 5.740266887697e-03 0.0 
0.0 0.0 -8.619475031456e-04 
-7.647880329061e-04 -1.862411199868e-04 0.0 
-1.862411199868e-04 5.038541863179e-03 0.0 
0.0 0.0 -7.615729788896e-04 
-1.027082371763e-03 -1.922014268246e-04 0.0 
-1.922014268246e-04 6.892038875610e-03 0.0 
0.0 0.0 -1.027225276160e-03 
-3.935518598362e-04 -1.714817472149e-04 0.0 
-1.714817472149e-04 2.494688902106e-03 0.0 
0.0 0.0 -3.946419382404e-04 
-1.063411595146e-03 -1.940895073896e-04 0.0 
-1.940895073896e-04 7.151260433919e-03 0.0 
0.0 0.0 -1.064556537081e-03 
-1.170769687049e-03 1.998990496914e-04 0.0 
1.998990496914e-04 7.807167189230e-03 0.0 
0.0 0.0 -1.170878753521e-03 
-9.957874322238e-04 1.860819940759e-04 0.0 
1.860819940759e-04 6.577964668805e-03 0.0 
0.0 0.0 -9.948919501216e-04 
-1.066802879167e-03 -1.994715727017e-04 0.0 
-1.994715727017e-04 7.144842154603e-03 0.0 
0.0 0.0 -1.064574987933e-03 
-1.080893362265e-03 -2.009448288779e-04 0.0 
-2.009448288779e-04 7.278345089593e-03 0.0 
0.0 0.0 -1.082686220397e-03 
-1.164339334361e-03 -2.029535809835e-04 0.0 
-2.029535809835e-04 7.872490943299e-03 0.0 
0.0 0.0 -1.168035910845e-03 
-3.299141803929e-04 2.316983388685e-04 0.0 
2.316983388685e-04 1.731538717207e-03 0.0 
0.0 0.0 -2.917408095836e-04 
-9.904023149971e-04 -1.959122471391e-04 0.0 
-1.959122471391e-04 6.637118298013e-03 0.0 
0.0 0.0 -9.919185416031e-04 
-1.168730602385e-03 -1.909886301281e-04 0.0 
-1.909886301281e-04 7.900162167174e-03 0.0 
0.0 0.0 -1.173906618061e-03 
-1.099721820410e-03 1.948899321208e-04 0.0 
1.948899321208e-04 7.299287446510e-03 0.0 
0.0 0.0 -1.096489272820e-03 
-9.304220125415e-04 1.873101926856e-04 0.0 
1.873101926856e-04 6.124362452359e-03 0.0 
0.0 0.0 -9.297700869391e-04 
-7.330744366569e-04 -1.923064886364e-04 0.0 
-1.923064886364e-04 4.838398720579e-03 0.0 
0.0 0.0 -7.325247082200e-04 
-8.060696050279e-04 1.870863771178e-04 0.0 
1.870863771178e-04 5.268149186535e-03 0.0 
0.0 0.0 -8.069452076110e-04 
-2.418248245405e-04 2.109020271233e-04 0.0 
2.109020271233e-04 1.359709000534e-03 0.0 
0.0 0.0 -2.482170483719e-04 
-1.134273257583e-03 1.988705509170e-04 0.0 
1.988705509170e-04 7.550007886780e-03 0.0 
0.0 0.0 -1.132911322290e-03 
-4.274524748729e-04 1.964334948294e-04 0.0 
1.964334948294e-04 2.645397720372e-03 0.0 
0.0 0.0 -4.309687334850e-04 
-3.881418594362e-04 1.833155679551e-04 0.0 
1.833155679551e-04 2.160044348329e-03 0.0 
0.0 0.0 -3.582286249851e-04 
-1.052002855886e-03 -1.883464211934e-04 0.0 
-1.883464211934e-04 7.074906707182e-03 0.0 
0.0 0.0 -1.054483161448e-03 
-1.207081545900e-03 1.915242773209e-04 0.0 
1.915242773209e-04 8.072287243083e-03 0.0 
0.0 0.0 -1.206783194404e-03 
-3.547804392101e-04 -1.807868565668e-04 0.0 
-1.807868565668e-04 2.226917608772e-03 0.0 
0.0 0.0 -3.573182248098e-04 
-8.366419951609e-04 -1.885488255625e-04 0.0 
-1.885488255625e-04 5.554595282055e-03 0.0 
0.0 0.0 -8.358581584049e-04 
-1.023802301552e-03 1.940941463559e-04 0.0 
1.940941463559e-04 6.787907294573e-03 0.0 
0.0 0.0 -1.023814440555e-03 
-7.829083596588e-04 -1.954293300844e-04 0.0 
-1.954293300844e-04 5.194152372337e-03 0.0 
0.0 0.0 -7.840072721007e-04 
-4.010673323253e-04 -1.915498976051e-04 0.0 
-1.915498976051e-04 2.542328077149e-03 0.0 
0.0 0.0 -4.027365510179e-04 
-5.321744599270e-04 1.883621527590e-04 0.0 
1.883621527590e-04 3.333505553591e-03 0.0 
0.0 0.0 -5.292697486782e-04 
-2.639771075776e-04 1.646102614642e-04 0.0 
1.646102614642e-04 1.613590548762e-03 0.0 
0.0 0.0 -2.862163191752e-04 
-3.553659692625e-04 1.943928252887e-04 0.0 
1.943928252887e-04 2.154693693141e-03 0.0 
0.0 0.0 -3.608158092454e-04 
-3.249476260035e-04 1.935471720910e-04 0.0 
1.935471720910e-04 1.899890607766e-03 0.0 
0.0 0.0 -3.238926756799e-04 
-8.653379371192e-04 1.875602502825e-04 0.0 
1.875602502825e-04 5.671952828596e-03 0.0 
0.0 0.0 -8.647910268431e-04 
-1.297827382279e-03 4.785112367273e-06 0.0 
4.785112367273e-06 9.109555355960e-03 0.0 
0.0 0.0 -1.324146187826e-03 
-4.467143920627e-04 1.726574000164e-04 0.0 
1.726574000164e-04 2.617142877359e-03 0.0 
0.0 0.0 -4.244337567297e-04 
-1.156016819955e-03 1.914756519666e-04 0.0 
1.914756519666e-04 7.686772050836e-03 0.0 
0.0 0.0 -1.153422328581e-03 
-6.441918423609e-04 1.888512827499e-04 0.0 
1.888512827499e-04 4.126863023303e-03 0.0 
0.0 0.0 -6.430507458085e-04 
-9.827241532880e-04 -2.074075714334e-04 0.0 
-2.074075714334e-04 6.589898560790e-03 0.0 
0.0 0.0 -9.856407671940e-04 
-3.167090590366e-04 1.983492302007e-04 0.0 
1.983492302007e-04 1.826080605665e-03 0.0 
0.0 0.0 -3.129386394028e-04 
-1.211080746195e-03 -1.918872231890e-04 0.0 
-1.918872231890e-04 8.120902711811e-03 0.0 
0.0 0.0 -1.206759618350e-03 
-3.103668027408e-04 -1.740204278261e-04 0.0 
-1.740204278261e-04 1.967988296131e-03 0.0 
0.0 0.0 -3.202688159031e-04 
-4.904887743195e-04 1.972396724306e-04 0.0 
1.972396724306e-04 3.115116694861e-03 0.0 
0.0 0.0 -4.995972236199e-04 
-1.033982221523e-03 1.864504257492e-04 0.0 
1.864504257492e-04 6.836114975340e-03 0.0 
0.0 0.0 -1.031547093314e-03 
-7.437947252400e-04 -1.892750744378e-04 0.0 
-1.892750744378e-04 4.914077369227e-03 0.0 
0.0 0.0 -7.436172176343e-04 
-1.132860593058e-03 -1.933960126786e-04 0.0 
-1.933960126786e-04 7.665930668868e-03 0.0 
0.0 0.0 -1.139062866688e-03 
-5.749455652610e-04 -1.941924528230e-04 0.0 
-1.941924528230e-04 3.751246786669e-03 0.0 
0.0 0.0 -5.762899171568e-04 
-1.046111348023e-03 -1.920749274325e-04 0.0 
-1.920749274325e-04 7.006833931181e-03 0.0 
0.0 0.0 -1.044446328659e-03 
-1.179461128015e-03 1.956649310083e-04 0.0 
1.956649310083e-04 7.993560630903e-03 0.0 
0.0 0.0 -1.198892520503e-03 
-9.969097330870e-04 1.983464851524e-04 0.0 
1.983464851524e-04 6.585106213615e-03 0.0 
0.0 0.0 -9.940794652285e-04 
-1.204741342101e-03 -1.841288982354e-04 0.0 
-1.841288982354e-04 8.066681748081e-03 0.0 
0.0 0.0 -1.194784139986e-03 
-1.085983696521e-03 -2.024519851537e-04 0.0 
-2.024519851537e-04 7.301290877674e-03 0.0 
0.0 0.0 -1.087318097122e-03 
-1.116801267184e-03 -2.016255265415e-04 0.0 
-2.016255265415e-04 7.509256724676e-03 0.0 
0.0 0.0 -1.116677092124e-03 
-3.616370043148e-04 1.787208051054e-04 0.0 
1.787208051054e-04 2.150891016686e-03 0.0 
0.0 0.0 -3.599422446610e-04 
-1.117518330453e-03 1.826877579253e-04 0.0 
1.826877579253e-04 7.419146366892e-03 0.0 
0.0 0.0 -1.115908039155e-03 
-1.052373239860e-03 1.884691524878e-04 0.0 
1.884691524878e-04 6.996291933739e-03 0.0 
0.0 0.0 -1.053364550114e-03 
-7.811189844041e-04 1.901992250615e-04 0.0 
1.901992250615e-04 5.082233377235e-03 0.0 
0.0 0.0 -7.792489223127e-04 
-5.208782508076e-04 1.844281060277e-04 0.0 
1.844281060277e-04 3.081353701983e-03 0.0 
0.0 0.0 -4.908673385051e-04 
-1.207263385307e-03 -1.938793257757e-04 0.0 
-1.938793257757e-04 8.301996435605e-03 0.0 
0.0 0.0 -1.232292820449e-03 
-4.172393042970e-04 1.982283144972e-04 0.0 
1.982283144972e-04 2.530985310794e-03 0.0 
0.0 0.0 -4.142712813041e-04 
-4.585162122278e-04 -2.188978008166e-04 0.0 
-2.188978008166e-04 2.969334744373e-03 0.0 
0.0 0.0 -4.655197245388e-04 
-1.104373486365e-03 2.012226859916e-04 0.0 
2.012226859916e-04 7.350396136819e-03 0.0 
0.0 0.0 -1.105063927110e-03 
-2.968425273524e-04 -1.642057746455e-04 0.0 
-1.642057746455e-04 1.792416919804e-03 0.0 
0.0 0.0 -2.939799329518e-04 
-7.924236500379e-04 -1.848261227191e-04 0.0 
-1.848261227191e-04 5.252920665959e-03 0.0 
0.0 0.0 -7.924235178053e-04 
-1.061921988885e-03 1.812104659022e-04 0.0 
1.812104659022e-04 7.031393709581e-03 0.0 
0.0 0.0 -1.059843925468e-03 
-1.181481514864e-03 -1.809401034034e-04 0.0 
-1.809401034034e-04 7.945597505832e-03 0.0 
0.0 0.0 -1.181155146799e-03 
-1.216519596998e-03 -1.765367581353e-04 0.0 
-1.765367581353e-04 8.170458135963e-03 0.0 
0.0 0.0 -1.210943746944e-03 
-1.030728582983e-03 -1.988607177778e-04 0.0 
-1.988607177778e-04 6.902267769970e-03 0.0 
0.0 0.0 -1.028825005900e-03 
-1.124714132978e-03 -2.064810197621e-04 0.0 
-2.064810197621e-04 7.559899990810e-03 0.0 
0.0 0.0 -1.123737208958e-03 
-6.812903531147e-04 1.901379600772e-04 0.0 
1.901379600772e-04 4.380740483724e-03 0.0 
0.0 0.0 -6.793824814286e-04 
-1.062351922354e-03 -1.985736001597e-04 0.0 
-1.985736001597e-04 7.130265690032e-03 0.0 
0.0 0.0 -1.062452857821e-03 
-5.858181118698e-04 1.875072715160e-04 0.0 
1.875072715160e-04 3.545318163494e-03 0.0 
0.0 0.0 -5.576509564599e-04 
-1.191462796189e-03 1.791343230628e-04 0.0 
1.791343230628e-04 7.859967464318e-03 0.0 
0.0 0.0 -1.181751882508e-03 
-6.536967362184e-04 1.840019481607e-04 0.0 
1.840019481607e-04 4.012532136348e-03 0.0 
0.0 0.0 -6.243763318321e-04 
-6.397657085006e-04 1.469527108765e-04 0.0 
1.469527108765e-04 4.231461376740e-03 0.0 
0.0 0.0 -6.577503189808e-04 
-7.727292442473e-04 1.893751122867e-04 0.0 
1.893751122867e-04 5.025497285819e-03 0.0 
0.0 0.0 -7.717627972493e-04 
-7.120157842107e-04 2.033227012876e-04 0.0 
2.033227012876e-04 4.491531755345e-03 0.0 
0.0 0.0 -6.911701761307e-04 
-8.847543506959e-04 -1.860726363621e-04 0.0 
-1.860726363621e-04 5.886975687793e-03 0.0 
0.0 0.0 -8.833033330409e-04 
-7.223081526863e-04 -1.890141103709e-04 0.0 
-1.890141103709e-04 4.756005682412e-03 0.0 
0.0 0.0 -7.209687761305e-04 
-7.611226546141e-04 -1.925027368284e-04 0.0 
-1.925027368284e-04 5.033487039423e-03 0.0 
0.0 0.0 -7.606211034647e-04 
-3.677272213406e-04 1.965668598143e-04 0.0 
1.965668598143e-04 2.206714062611e-03 0.0 
0.0 0.0 -3.685806404478e-04 
-7.360898597851e-04 1.893736919884e-04 0.0 
1.893736919884e-04 4.769891666687e-03 0.0 
0.0 0.0 -7.353490689725e-04 
-1.164475384932e-03 1.920424604491e-04 0.0 
1.920424604491e-04 7.760458237861e-03 0.0 
0.0 0.0 -1.162517914204e-03 
-1.189135404011e-03 2.424308074022e-04 0.0 
2.424308074022e-04 8.008663372928e-03 0.0 
0.0 0.0 -1.195263893373e-03 
-1.051433761328e-03 1.900846295012e-04 0.0 
1.900846295012e-04 6.962500509983e-03 0.0 
0.0 0.0 -1.050100468764e-03 
-1.163815806160e-03 1.939359249112e-04 0.0 
1.939359249112e-04 7.801481486737e-03 0.0 
0.0 0.0 -1.170266998156e-03 
-7.471505649134e-04 1.914654167736e-04 0.0 
1.914654167736e-04 4.846432176661e-03 0.0 
0.0 0.0 -7.463264885205e-04 
-1.116874559966e-03 1.925152765080e-04 0.0 
1.925152765080e-04 7.452691656896e-03 0.0 
0.0 0.0 -1.119019617531e-03 
-7.641727686352e-04 1.895140519536e-04 0.0 
1.895140519536e-04 4.965709915575e-03 0.0 
0.0 0.0 -7.634232545038e-04 
-1.140149646673e-03 1.894710294717e-04 0.0 
1.894710294717e-04 7.619303377370e-03 0.0 
0.0 0.0 -1.144395376583e-03 
-1.089871366962e-03 1.866180545902e-04 0.0 
1.866180545902e-04 7.246015693997e-03 0.0 
0.0 0.0 -1.089631904438e-03 
-1.081578605974e-03 -1.978658757615e-04 0.0 
-1.978658757615e-04 7.257137764756e-03 0.0 
0.0 0.0 -1.080451501872e-03 
-9.579838523443e-04 1.886955211530e-04 0.0 
1.886955211530e-04 6.320335730528e-03 0.0 
0.0 0.0 -9.580909834143e-04 
-7.089543903964e-04 1.893728274013e-04 0.0 
1.893728274013e-04 4.575360328887e-03 0.0 
0.0 0.0 -7.073300717972e-04 
-1.127664739308e-03 -1.829222399519e-04 0.0 
-1.829222399519e-04 7.564515174457e-03 0.0 
0.0 0.0 -1.126038590206e-03 
-9.212765999104e-04 1.860043167073e-04 0.0 
1.860043167073e-04 6.042010505937e-03 0.0 
0.0 0.0 -9.169694165663e-04 
-3.707997860418e-04 -2.047832537350e-04 0.0 
-2.047832537350e-04 2.273008460466e-03 0.0 
0.0 0.0 -3.661348613279e-04 
-4.119491099640e-04 -1.837644939853e-04 0.0 
-1.837644939853e-04 2.602040481245e-03 0.0 
0.0 0.0 -4.113794265144e-04 
-6.058388203502e-04 1.800194521297e-04 0.0 
1.800194521297e-04 3.855006073365e-03 0.0 
0.0 0.0 -6.061407060701e-04 
-8.399206414718e-04 1.851255513352e-04 0.0 
1.851255513352e-04 5.491811110990e-03 0.0 
0.0 0.0 -8.384786063130e-04 
-1.169227413895e-03 1.987098364224e-04 0.0 
1.987098364224e-04 7.826180536375e-03 0.0 
0.0 0.0 -1.173545322487e-03 
-1.051413170775e-03 -2.036953792706e-04 0.0 
-2.036953792706e-04 7.051256599190e-03 0.0 
0.0 0.0 -1.051102540299e-03 
-7.053171708153e-04 -1.917417752613e-04 0.0 
-1.917417752613e-04 4.643848416984e-03 0.0 
0.0 0.0 -7.045205360201e-04 
-9.343548124899e-04 -1.929012807103e-04 0.0 
-1.929012807103e-04 6.238086933522e-03 0.0 
0.0 0.0 -9.344940742331e-04 
-1.088202517562e-03 1.963493920645e-04 0.0 
1.963493920645e-04 7.240451625201e-03 0.0 
0.0 0.0 -1.088599101970e-03 
-1.132213948578e-03 -2.019794901778e-04 0.0 
-2.019794901778e-04 7.607209750872e-03 0.0 
0.0 0.0 -1.130578931274e-03 
-1.175177652279e-03 -1.432114671164e-04 0.0 
-1.432114671164e-04 7.818239968608e-03 0.0 
0.0 0.0 -1.160781586281e-03 
-9.493017134459e-04 1.856369855212e-04 0.0 
1.856369855212e-04 6.294032018234e-03 0.0 
0.0 0.0 -9.517943393003e-04 
-1.114893974024e-03 1.926717475023e-04 0.0 
1.926717475023e-04 7.405468821271e-03 0.0 
0.0 0.0 -1.113435711030e-03 
-7.974711636665e-04 -1.944203939156e-04 0.0 
-1.944203939156e-04 5.288608064412e-03 0.0 
0.0 0.0 -7.971871449874e-04 
-1.087511397267e-03 -1.918432502510e-04 0.0 
-1.918432502510e-04 7.293095143965e-03 0.0 
0.0 0.0 -1.086118700983e-03 
-7.957657220236e-04 1.875502652183e-04 0.0 
1.875502652183e-04 5.187404479596e-03 0.0 
0.0 0.0 -7.951163407912e-04 
-1.190027282138e-03 -1.889094988141e-04 0.0 
-1.889094988141e-04 8.016045742998e-03 0.0 
0.0 0.0 -1.188704642750e-03 
-1.182786985987e-03 -2.095818808978e-04 0.0 
-2.095818808978e-04 8.112308359412e-03 0.0 
0.0 0.0 -1.200489323427e-03 
-8.931557397796e-04 1.886870491784e-04 0.0 
1.886870491784e-04 5.866647832542e-03 0.0 
0.0 0.0 -8.929891684399e-04 
-3.790334035775e-04 2.022524645534e-04 0.0 
2.022524645534e-04 2.272501623496e-03 0.0 
0.0 0.0 -3.776191643183e-04 
-1.116621675417e-03 1.833509055246e-04 0.0 
1.833509055246e-04 7.407703431036e-03 0.0 
0.0 0.0 -1.113685640909e-03 
-8.560269120279e-04 -1.850645517349e-04 0.0 
-1.850645517349e-04 5.691539379015e-03 0.0 
0.0 0.0 -8.555605426019e-04 
-6.779302938367e-04 -1.908402865228e-04 0.0 
-1.908402865228e-04 4.449768302467e-03 0.0 
0.0 0.0 -6.765734244908e-04 
-9.269459503729e-04 -1.957083840496e-04 0.0 
-1.957083840496e-04 6.192523979842e-03 0.0 
0.0 0.0 -9.269463096178e-04 
-1.072502528949e-03 -2.041434169699e-04 0.0 
-2.041434169699e-04 7.210267326329e-03 0.0 
0.0 0.0 -1.072977024862e-03 
-3.719606472363e-04 -1.835949221075e-04 0.0 
-1.835949221075e-04 2.345098090713e-03 0.0 
0.0 0.0 -3.746637649435e-04 
-8.285830534024e-04 1.877054302829e-04 0.0 
1.877054302829e-04 5.415216649357e-03 0.0 
0.0 0.0 -8.281205301186e-04 
-9.633029216945e-04 1.794107507866e-04 0.0 
1.794107507866e-04 6.339174664891e-03 0.0 
0.0 0.0 -9.596127204057e-04 
-1.165821597608e-03 -2.067678885502e-04 0.0 
-2.067678885502e-04 7.892442231831e-03 0.0 
0.0 0.0 -1.170838755190e-03 
-9.895100639472e-04 1.759458030688e-04 0.0 
1.759458030688e-04 6.529075947432e-03 0.0 
0.0 0.0 -9.876491701490e-04 
-1.085596099012e-03 1.937230915425e-04 0.0 
1.937230915425e-04 7.212019617214e-03 0.0 
0.0 0.0 -1.085374163265e-03 
-9.372562607785e-04 1.792840605658e-04 0.0 
1.792840605658e-04 6.146041579427e-03 0.0 
0.0 0.0 -9.316602363005e-04 
-8.975747507543e-04 1.987030926428e-04 0.0 
1.987030926428e-04 5.753154163109e-03 0.0 
0.0 0.0 -8.756372412555e-04 
-9.482059618595e-04 1.851978750998e-04 0.0 
1.851978750998e-04 6.234676071384e-03 0.0 
0.0 0.0 -9.447135688329e-04 
-1.130898821175e-03 2.049231627906e-04 0.0 
2.049231627906e-04 7.550084487667e-03 0.0 
0.0 0.0 -1.133505030480e-03 
-1.085374007423e-03 -2.008613375727e-04 0.0 
-2.008613375727e-04 7.297255264970e-03 0.0 
0.0 0.0 -1.084522140297e-03 
-1.016986910713e-03 1.835607482604e-04 0.0 
1.835607482604e-04 6.748472102274e-03 0.0 
0.0 0.0 -1.017300281410e-03 
-1.211783257084e-03 1.757837481836e-04 0.0 
1.757837481836e-04 8.121141767087e-03 0.0 
0.0 0.0 -1.212886757924e-03 
-9.118555854047e-04 1.822932037185e-04 0.0 
1.822932037185e-04 5.952136168219e-03 0.0 
0.0 0.0 -9.037302385345e-04 
-5.771676927997e-04 -1.905418044285e-04 0.0 
-1.905418044285e-04 3.749121588691e-03 0.0 
0.0 0.0 -5.760585567884e-04 
-1.146857850750e-03 -2.012024813042e-04 0.0 
-2.012024813042e-04 7.726356069459e-03 0.0 
0.0 0.0 -1.146733564437e-03 
-1.190361811188e-03 -2.231584585378e-04 0.0 
-2.231584585378e-04 8.068085284209e-03 0.0 
0.0 0.0 -1.196744929305e-03 
-7.877111731868e-04 1.869730341934e-04 0.0 
1.869730341934e-04 5.130080362463e-03 0.0 
0.0 0.0 -7.869228524964e-04 
-8.229073892259e-04 1.889823334213e-04 0.0 
1.889823334213e-04 5.378866845597e-03 0.0 
0.0 0.0 -8.226527892688e-04 
-6.410005540226e-04 -1.918474041219e-04 0.0 
-1.918474041219e-04 4.195976321249e-03 0.0 
0.0 0.0 -6.402419685743e-04 
-1.047323379365e-03 1.912705100611e-04 0.0 
1.912705100611e-04 6.951134229714e-03 0.0 
0.0 0.0 -1.046609947212e-03 
-6.536475585395e-04 1.928032985675e-04 0.0 
1.928032985675e-04 4.182884861133e-03 0.0 
0.0 0.0 -6.500746975200e-04 
-9.153598550125e-04 1.963880349302e-04 0.0 
1.963880349302e-04 6.020758345298e-03 0.0 
0.0 0.0 -9.137630964162e-04 
-6.488950437602e-04 -1.797823528638e-04 0.0 
-1.797823528638e-04 4.242459853736e-03 0.0 
0.0 0.0 -6.476280927198e-04 
-1.069873888271e-03 1.950588935170e-04 0.0 
1.950588935170e-04 7.095085750561e-03 0.0 
0.0 0.0 -1.068254633495e-03 
-1.209590731991e-03 -1.550085898134e-04 0.0 
-1.550085898134e-04 8.118970202182e-03 0.0 
0.0 0.0 -1.211228670573e-03 
-6.691229637013e-04 -1.915091740608e-04 0.0 
-1.915091740608e-04 4.390308397494e-03 0.0 
0.0 0.0 -6.682047883386e-04 
-2.351166358341e-04 -2.031494045747e-04 0.0 
-2.031494045747e-04 1.435993492405e-03 0.0 
0.0 0.0 -2.451578436693e-04 
-1.204420763458e-03 1.961268392442e-04 0.0 
1.961268392442e-04 8.059775147050e-03 0.0 
0.0 0.0 -1.207184308065e-03 
-6.887858324241e-04 1.799755313790e-04 0.0 
1.799755313790e-04 4.424727357305e-03 0.0 
0.0 0.0 -6.853381776776e-04 
-7.835288517237e-04 1.879460947127e-04 0.0 
1.879460947127e-04 5.099659123499e-03 0.0 
0.0 0.0 -7.828151049093e-04 
-1.160407951921e-03 2.005539249279e-04 0.0 
2.005539249279e-04 7.864449254895e-03 0.0 
0.0 0.0 -1.177925372349e-03 
-1.016320152694e-03 -1.997312198958e-04 0.0 
-1.997312198958e-04 6.802485040097e-03 0.0 
0.0 0.0 -1.015069748350e-03 
-1.057178896244e-03 -1.942199100265e-04 0.0 
-1.942199100265e-04 7.094939907720e-03 0.0 
0.0 0.0 -1.055879354346e-03 
-6.858748156510e-04 -1.861020149715e-04 0.0 
-1.861020149715e-04 4.508466491458e-03 0.0 
0.0 0.0 -6.851017020021e-04 
-2.031820811394e-04 1.985739834672e-04 0.0 
1.985739834672e-04 1.096275256380e-03 0.0 
0.0 0.0 -2.111397097017e-04 
-1.218012060933e-03 -2.324828983585e-04 0.0 
-2.324828983585e-04 8.157957467951e-03 0.0 
0.0 0.0 -1.202131160132e-03 
-8.665795831995e-04 1.858441781355e-04 0.0 
1.858441781355e-04 5.682543428283e-03 0.0 
0.0 0.0 -8.660506973337e-04 
-1.008559534197e-03 -2.140754109309e-04 0.0 
-2.140754109309e-04 6.735537996686e-03 0.0 
0.0 0.0 -1.007142642412e-03 
-1.160459194418e-03 1.856922992242e-04 0.0 
1.856922992242e-04 7.735308684736e-03 0.0 
0.0 0.0 -1.157822513452e-03 
-1.616552956257e-04 1.423609377969e-04 0.0 
1.423609377969e-04 6.732585101887e-04 0.0 
0.0 0.0 -1.502316149797e-04 
-1.058859563023e-03 1.992298708810e-04 0.0 
1.992298708810e-04 7.024120321951e-03 0.0 
0.0 0.0 -1.058763633038e-03 
-4.932099791950e-04 -1.894809356614e-04 0.0 
-1.894809356614e-04 3.157806772283e-03 0.0 
0.0 0.0 -4.919579008500e-04 
-9.451714429142e-04 -2.012700485207e-04 0.0 
-2.012700485207e-04 6.343190678808e-03 0.0 
0.0 0.0 -9.498437721210e-04 
-8.487405687036e-04 -1.950463421940e-04 0.0 
-1.950463421940e-04 5.654542604036e-03 0.0 
0.0 0.0 -8.496012432876e-04 
-6.717289225013e-04 1.881380853814e-04 0.0 
1.881380853814e-04 4.320340016049e-03 0.0 
0.0 0.0 -6.709551114794e-04 
-1.138399201716e-03 -1.969931368524e-04 0.0 
-1.969931368524e-04 7.687743728139e-03 0.0 
0.0 0.0 -1.141635569211e-03 
-8.863371368954e-04 1.906753618111e-04 0.0 
1.906753618111e-04 5.821740968712e-03 0.0 
0.0 0.0 -8.859145181037e-04 
-6.078808339746e-04 1.896100471318e-04 0.0 
1.896100471318e-04 3.873866771809e-03 0.0 
0.0 0.0 -6.067458373204e-04 
-8.988471733596e-04 -1.905617358742e-04 0.0 
-1.905617358742e-04 5.993481774552e-03 0.0 
0.0 0.0 -8.989548790023e-04 
-1.952954180545e-04 -1.905102926163e-04 0.0 
-1.905102926163e-04 1.173502522438e-03 0.0 
0.0 0.0 -2.081142276587e-04 
-1.024988576596e-03 -1.935191657477e-04 0.0 
-1.935191657477e-04 6.880398785368e-03 0.0 
0.0 0.0 -1.026417656363e-03 
-1.069604476726e-03 -1.976553008557e-04 0.0 
-1.976553008557e-04 7.163110056360e-03 0.0 
0.0 0.0 -1.065496432940e-03 
-1.229744167387e-03 -1.464305357593e-04 0.0 
-1.464305357593e-04 8.209785373221e-03 0.0 
0.0 0.0 -1.233600908384e-03 
-1.090183204667e-03 -1.971253990561e-04 0.0 
-1.971253990561e-04 7.328950110722e-03 0.0 
0.0 0.0 -1.090749533212e-03 
-4.766984691118e-04 -1.850928375114e-04 0.0 
-1.850928375114e-04 3.048442125330e-03 0.0 
0.0 0.0 -4.758149136988e-04 
-1.046974953030e-03 -1.977469482829e-04 0.0 
-1.977469482829e-04 7.033167652259e-03 0.0 
0.0 0.0 -1.047231727503e-03 
-1.207083647933e-03 1.808427044483e-04 0.0 
1.808427044483e-04 8.205581432035e-03 0.0 
0.0 0.0 -1.228155452712e-03 
-1.260668266969e-03 -1.832526413473e-04 0.0 
-1.832526413473e-04 8.522719369677e-03 0.0 
0.0 0.0 -1.267145247477e-03 
-1.104740620517e-03 -1.903291503950e-04 0.0 
-1.903291503950e-04 7.419136809817e-03 0.0 
0.0 0.0 -1.102242875413e-03 
-7.141399757063e-04 -1.908850217655e-04 0.0 
-1.908850217655e-04 4.699621454475e-03 0.0 
0.0 0.0 -7.127912709901e-04 
-9.617225215176e-04 -1.932311968947e-04 0.0 
-1.932311968947e-04 6.435112240426e-03 0.0 
0.0 0.0 -9.624716764950e-04 
-1.172863749534e-03 1.716370371983e-04 0.0 
1.716370371983e-04 7.752633284680e-03 0.0 
0.0 0.0 -1.164316760544e-03 
-7.921196063416e-04 -1.921710320450e-04 0.0 
-1.921710320450e-04 5.233600587143e-03 0.0 
0.0 0.0 -7.878971455476e-04 
-1.056322180914e-03 1.849092776284e-04 0.0 
1.849092776284e-04 7.010189158039e-03 0.0 
0.0 0.0 -1.057196955382e-03 
-9.850942903468e-04 1.906307977985e-04 0.0 
1.906307977985e-04 6.538331902211e-03 0.0 
0.0 0.0 -9.877098122506e-04 
-1.110739431392e-03 -1.980632731678e-04 0.0 
-1.980632731678e-04 7.489376108620e-03 0.0 
0.0 0.0 -1.112977059762e-03 
-1.093828226484e-03 -1.876429130193e-04 0.0 
-1.876429130193e-04 7.351584596061e-03 0.0 
0.0 0.0 -1.093234982489e-03 
-7.343177045735e-04 -9.465157044590e-06 0.0 
-9.465157044590e-06 4.570354151395e-03 0.0 
0.0 0.0 -7.313513689239e-04 
-7.305590051733e-04 3.402678996767e-05 0.0 
3.402678996767e-05 4.568649633296e-03 0.0 
0.0 0.0 -7.310574395863e-04 
-9.952316992060e-04 -2.061010920873e-04 0.0 
-2.061010920873e-04 6.656041030992e-03 0.0 
0.0 0.0 -9.927888931629e-04 
-9.918488233690e-04 1.857079994066e-04 0.0 
1.857079994066e-04 6.564735410895e-03 0.0 
0.0 0.0 -9.930598132463e-04 
-8.773556303313e-04 -1.926873992318e-04 0.0 
-1.926873992318e-04 5.856781784187e-03 0.0 
0.0 0.0 -8.780428295617e-04 
-9.805249871409e-04 -1.924563760952e-04 0.0 
-1.924563760952e-04 6.542490604406e-03 0.0 
0.0 0.0 -9.775429604617e-04 
-8.511934619470e-04 1.885314516425e-04 0.0 
1.885314516425e-04 5.570767617800e-03 0.0 
0.0 0.0 -8.502279965035e-04 
-1.193540881150e-03 1.313307987014e-04 0.0 
1.313307987014e-04 7.848740983510e-03 0.0 
0.0 0.0 -1.180288150054e-03 
-7.169159808387e-04 1.897237155631e-04 0.0 
1.897237155631e-04 4.633470113633e-03 0.0 
0.0 0.0 -7.154845226688e-04 
-1.330586332229e-03 -3.342005871354e-05 0.0 
-3.342005871354e-05 9.092648121720e-03 0.0 
0.0 0.0 -1.323793839065e-03 
-8.042874267729e-04 1.538278548702e-04 0.0 
1.538278548702e-04 5.332999869485e-03 0.0 
0.0 0.0 -8.119939454945e-04 
-8.205821157683e-04 -1.889603009902e-04 0.0 
-1.889603009902e-04 5.445817958641e-03 0.0 
0.0 0.0 -8.199314282332e-04 
-8.518598072760e-04 1.933057744939e-04 0.0 
1.933057744939e-04 5.584111954891e-03 0.0 
0.0 0.0 -8.523954645778e-04 
-4.499586564247e-04 -1.855256695766e-04 0.0 
-1.855256695766e-04 2.857022821909e-03 0.0 
0.0 0.0 -4.479040077299e-04 
-7.538979209402e-04 -1.934413965155e-04 0.0 
-1.934413965155e-04 4.995274109938e-03 0.0 
0.0 0.0 -7.551671247638e-04 
-9.291971374277e-04 1.860662208979e-04 0.0 
1.860662208979e-04 6.122384862718e-03 0.0 
0.0 0.0 -9.293281999836e-04 
-8.759687264254e-04 1.862073937602e-04 0.0 
1.862073937602e-04 5.739375914108e-03 0.0 
0.0 0.0 -8.738309435711e-04 
-9.814387768267e-04 1.839019607207e-04 0.0 
1.839019607207e-04 6.501334764277e-03 0.0 
0.0 0.0 -9.814596669550e-04 
-1.010867161751e-03 1.870829556364e-04 0.0 
1.870829556364e-04 6.678666577386e-03 0.0 
0.0 0.0 -1.008022096355e-03 
-1.044436862417e-03 -1.926634021926e-04 0.0 
-1.926634021926e-04 6.979659342720e-03 0.0 
0.0 0.0 -1.040850218070e-03 
-2.258973833718e-04 -1.030107291086e-04 0.0 
-1.030107291086e-04 1.399562224303e-03 0.0 
0.0 0.0 -2.163717569139e-04 
-7.194022022389e-04 1.955668345424e-04 0.0 
1.955668345424e-04 4.667671693721e-03 0.0 
0.0 0.0 -7.209013985657e-04 
-6.852716132608e-04 -1.859370640984e-04 0.0 
-1.859370640984e-04 4.485062449844e-03 0.0 
0.0 0.0 -6.825522065409e-04 
-9.565981315295e-04 1.790846631940e-04 0.0 
1.790846631940e-04 6.284252226282e-03 0.0 
0.0 0.0 -9.521954671713e-04 
-9.888411307371e-04 -1.922642027801e-04 0.0 
-1.922642027801e-04 6.601876220435e-03 0.0 
0.0 0.0 -9.850634846466e-04 
-1.155748252282e-03 1.797617113703e-04 0.0 
1.797617113703e-04 7.721330663973e-03 0.0 
0.0 0.0 -1.160108757481e-03 
-3.430926826770e-04 2.099465977867e-04 0.0 
2.099465977867e-04 1.967318145224e-03 0.0 
0.0 0.0 -3.273996513303e-04 
-3.332214715971e-04 -1.766782033718e-04 0.0 
-1.766782033718e-04 2.091595055548e-03 0.0 
0.0 0.0 -3.377286911054e-04 
-8.312276761858e-04 1.871380545801e-04 0.0 
1.871380545801e-04 5.435579353952e-03 0.0 
0.0 0.0 -8.305977116616e-04 
-7.164446669360e-04 -1.954011667160e-04 0.0 
-1.954011667160e-04 4.735861933211e-03 0.0 
0.0 0.0 -7.181358556540e-04 
-6.612400540538e-04 -2.145984864481e-04 0.0 
-2.145984864481e-04 4.300984587983e-03 0.0 
0.0 0.0 -6.554599841463e-04 
-6.892288823092e-04 -1.712097974294e-04 0.0 
-1.712097974294e-04 4.548932917262e-03 0.0 
0.0 0.0 -6.889204951115e-04 
-9.785151366904e-04 -1.903688334857e-04 0.0 
-1.903688334857e-04 6.552823194572e-03 0.0 
0.0 0.0 -9.793492904611e-04 
-3.279214625417e-04 -1.856414295293e-04 0.0 
-1.856414295293e-04 2.036611823989e-03 0.0 
0.0 0.0 -3.302473245842e-04 
-8.146691974455e-04 1.910766766110e-04 0.0 
1.910766766110e-04 5.328191831945e-03 0.0 
0.0 0.0 -8.154759146177e-04 
-1.049892567768e-03 -1.923181012939e-04 0.0 
-1.923181012939e-04 7.038288222671e-03 0.0 
0.0 0.0 -1.049209916622e-03 
-3.402244297759e-04 2.055488950203e-04 0.0 
2.055488950203e-04 2.007315154740e-03 0.0 
0.0 0.0 -3.408226701431e-04 
-1.289740643797e-03 -2.865690188004e-05 0.0 
-2.865690188004e-05 8.457698383589e-03 0.0 
0.0 0.0 -1.285586381397e-03 
-1.153161816539e-03 -1.810911126316e-04 0.0 
-1.810911126316e-04 7.745860400322e-03 0.0 
0.0 0.0 -1.152455342817e-03 
-7.730865248008e-04 -1.936313324955e-04 0.0 
-1.936313324955e-04 5.137233279798e-03 0.0 
0.0 0.0 -7.756113943005e-04 
-1.077943790440e-03 1.906149656785e-04 0.0 
1.906149656785e-04 7.162163658694e-03 0.0 
0.0 0.0 -1.078722419643e-03 
-1.818286327115e-04 -5.320949396074e-06 0.0 
-5.320949396074e-06 7.441773179852e-04 0.0 
0.0 0.0 -1.797547709840e-04 
-1.014460031072e-03 -2.000580684662e-04 0.0 
-2.000580684662e-04 6.784645211728e-03 0.0 
0.0 0.0 -1.012471576362e-03 
-8.638932840094e-04 -1.877196228479e-04 0.0 
-1.877196228479e-04 5.746441231772e-03 0.0 
0.0 0.0 -8.634366945984e-04 
-1.573089574218e-04 6.060813636257e-06 0.0 
6.060813636257e-06 7.379677460024e-04 0.0 
0.0 0.0 -1.788519809851e-04 
-1.152359323407e-03 1.787160847201e-04 0.0 
1.787160847201e-04 7.696182759720e-03 0.0 
0.0 0.0 -1.154859126927e-03 
-3.172722260096e-04 -1.887798844868e-04 0.0 
-1.887798844868e-04 1.899275964143e-03 0.0 
0.0 0.0 -3.099791425632e-04 
-9.534030089958e-04 -1.885226890488e-04 0.0 
-1.885226890488e-04 6.348031499756e-03 0.0 
0.0 0.0 -9.496453321265e-04 
-8.720767110959e-04 -1.896937711200e-04 0.0 
-1.896937711200e-04 5.800514782336e-03 0.0 
0.0 0.0 -8.712718144564e-04 
-7.527095169076e-04 -1.904145446511e-04 0.0 
-1.904145446511e-04 4.974920507200e-03 0.0 
0.0 0.0 -7.519815330289e-04 
-9.060865555047e-04 1.986245932987e-04 0.0 
1.986245932987e-04 5.963263483029e-03 0.0 
0.0 0.0 -9.052548162676e-04 
-1.186359257630e-03 1.790401943917e-04 0.0 
1.790401943917e-04 7.910120458871e-03 0.0 
0.0 0.0 -1.182898372388e-03 
-9.717172959483e-04 2.017731235506e-04 0.0 
2.017731235506e-04 6.421670982773e-03 0.0 
0.0 0.0 -9.716005391690e-04 
-8.586682738839e-04 1.870585543685e-04 0.0 
1.870585543685e-04 5.626729716629e-03 0.0 
0.0 0.0 -8.581765416018e-04 
-8.285502932263e-04 -1.869792024667e-04 0.0 
-1.869792024667e-04 5.500044709232e-03 0.0 
0.0 0.0 -8.279616112547e-04 
-1.157597014143e-04 1.569592925357e-04 0.0 
1.569592925357e-04 5.309685908670e-04 0.0 
0.0 0.0 -1.241199786263e-04 
-2.771697128881e-04 1.878257284126e-04 0.0 
1.878257284126e-04 1.577050393967e-03 0.0 
0.0 0.0 -2.761011822561e-04 
-1.118878802421e-03 -1.775376209317e-04 0.0 
-1.775376209317e-04 7.515980410063e-03 0.0 
0.0 0.0 -1.118331045454e-03 
-9.134689604251e-04 -2.151070896450e-04 0.0 
-2.151070896450e-04 6.054442910930e-03 0.0 
0.0 0.0 -9.085367473448e-04 
-1.157427958602e-03 1.810891327533e-04 0.0 
1.810891327533e-04 7.664331777096e-03 0.0 
0.0 0.0 -1.148691026115e-03 
-4.952790128067e-04 1.926215238326e-04 0.0 
1.926215238326e-04 3.096112546519e-03 0.0 
0.0 0.0 -4.942977111402e-04 
-1.099935257767e-03 1.964856595336e-04 0.0 
1.964856595336e-04 7.292900558944e-03 0.0 
0.0 0.0 -1.097950598811e-03 
-1.159977421736e-03 -1.899588415039e-04 0.0 
-1.899588415039e-04 7.782799989863e-03 0.0 
0.0 0.0 -1.155407764312e-03 
-7.046437970110e-04 1.771780882184e-04 0.0 
1.771780882184e-04 4.649202442725e-03 0.0 
0.0 0.0 -7.179420443741e-04 
-1.123089437587e-03 1.668381000104e-04 0.0 
1.668381000104e-04 7.448723404798e-03 0.0 
0.0 0.0 -1.120992621467e-03 
-1.074800466033e-03 -1.979281231238e-04 0.0 
-1.979281231238e-04 7.231750290380e-03 0.0 
0.0 0.0 -1.075946734593e-03 
-9.566951811484e-04 1.885305449409e-04 0.0 
1.885305449409e-04 6.314170866049e-03 0.0 
0.0 0.0 -9.571162043194e-04 
-7.858129650109e-04 1.950519568745e-04 0.0 
1.950519568745e-04 5.127464531984e-03 0.0 
0.0 0.0 -7.866383436874e-04 
-8.200429817129e-04 -1.955984029235e-04 0.0 
-1.955984029235e-04 5.453789901756e-03 0.0 
0.0 0.0 -8.209012074946e-04 
-1.208173698565e-03 -2.031466844656e-04 0.0 
-2.031466844656e-04 8.155254103189e-03 0.0 
0.0 0.0 -1.204704583718e-03 
-8.401419513637e-04 1.955438232624e-04 0.0 
1.955438232624e-04 5.506398965405e-03 0.0 
0.0 0.0 -8.396599866114e-04 
-9.021075521636e-04 1.852176330369e-04 0.0 
1.852176330369e-04 5.931413313431e-03 0.0 
0.0 0.0 -9.015555482168e-04 
-8.449278259679e-04 1.962826855989e-04 0.0 
1.962826855989e-04 5.533739272216e-03 0.0 
0.0 0.0 -8.433600309793e-04 
-1.038695295048e-03 1.973550359402e-04 0.0 
1.973550359402e-04 6.882197727615e-03 0.0 
0.0 0.0 -1.038364586984e-03 
-7.853544279650e-04 -1.888908667992e-04 0.0 
-1.888908667992e-04 5.195025610649e-03 0.0 
0.0 0.0 -7.842421616061e-04 
-5.077615371431e-04 1.925383574265e-04 0.0 
1.925383574265e-04 3.178371744144e-03 0.0 
0.0 0.0 -5.065804551108e-04 
-8.563679286656e-04 1.886904600152e-04 0.0 
1.886904600152e-04 5.609470178926e-03 0.0 
0.0 0.0 -8.561803240471e-04 
-5.442096767108e-04 1.899929291301e-04 0.0 
1.899929291301e-04 3.427592308512e-03 0.0 
0.0 0.0 -5.426160209679e-04 
-9.840239484115e-04 1.860183386348e-04 0.0 
1.860183386348e-04 6.482342277994e-03 0.0 
0.0 0.0 -9.799122972177e-04 
-5.401920244119e-04 -1.881877507061e-04 0.0 
-1.881877507061e-04 3.494301074598e-03 0.0 
0.0 0.0 -5.399485503622e-04 
-9.444560097486e-04 -1.940759614132e-04 0.0 
-1.940759614132e-04 6.297600198433e-03 0.0 
0.0 0.0 -9.420580210740e-04 
-1.136089878121e-03 -1.928967352453e-04 0.0 
-1.928967352453e-04 7.622114445815e-03 0.0 
0.0 0.0 -1.130549445556e-03 
-1.098744179893e-03 1.868758827566e-04 0.0 
1.868758827566e-04 7.288601580292e-03 0.0 
0.0 0.0 -1.096529089934e-03 
-7.525839073148e-04 1.884470413513e-04 0.0 
1.884470413513e-04 4.883223458127e-03 0.0 
0.0 0.0 -7.512528815035e-04 
-9.420690742012e-04 1.904423332235e-04 0.0 
1.904423332235e-04 6.250031840530e-03 0.0 
0.0 0.0 -9.460253849645e-04 
-1.105063984059e-03 1.902259811921e-04 0.0 
1.902259811921e-04 7.362332298091e-03 0.0 
0.0 0.0 -1.107441567342e-03 
-1.102593190183e-03 -1.984125757140e-04 0.0 
-1.984125757140e-04 7.431259929710e-03 0.0 
0.0 0.0 -1.104747680386e-03 
-2.748138935716e-04 -1.822651738482e-04 0.0 
-1.822651738482e-04 1.604872033163e-03 0.0 
0.0 0.0 -2.683291303717e-04 
-9.752435611011e-04 1.861325910200e-04 0.0 
1.861325910200e-04 6.426869973039e-03 0.0 
0.0 0.0 -9.724793438395e-04 
-1.198880595075e-03 2.442779644092e-04 0.0 
2.442779644092e-04 8.051846061103e-03 0.0 
0.0 0.0 -1.205818386895e-03 
-5.437300718267e-04 1.772584891247e-04 0.0 
1.772584891247e-04 3.388245147726e-03 0.0 
0.0 0.0 -5.357889572170e-04 
-8.407105615714e-04 -1.927518630570e-04 0.0 
-1.927518630570e-04 5.595089898141e-03 0.0 
0.0 0.0 -8.409532000723e-04 
-1.642955148473e-04 -1.732273966109e-04 0.0 
-1.732273966109e-04 7.998697341648e-04 0.0 
0.0 0.0 -1.553180670733e-04 
-1.132480187466e-03 1.879569331440e-04 0.0 
1.879569331440e-04 7.560437012022e-03 0.0 
0.0 0.0 -1.136235114959e-03 
-4.806530012621e-04 1.926320631025e-04 0.0 
1.926320631025e-04 2.980823159841e-03 0.0 
0.0 0.0 -4.785631936959e-04 
-8.099198933223e-04 1.419617410747e-04 0.0 
1.419617410747e-04 5.272582332729e-03 0.0 
0.0 0.0 -8.166178341775e-04 
-1.008233793579e-03 2.173973549694e-04 0.0 
2.173973549694e-04 6.687663611020e-03 0.0 
0.0 0.0 -1.008721701990e-03 
-9.403782054792e-04 -1.899510314299e-04 0.0 
-1.899510314299e-04 6.304690927512e-03 0.0 
0.0 0.0 -9.438854677472e-04 
-8.963572268652e-04 1.741364622751e-04 0.0 
1.741364622751e-04 5.997227966099e-03 0.0 
0.0 0.0 -9.108073647308e-04 
-8.940895927013e-04 1.874273657985e-04 0.0 
1.874273657985e-04 5.875054319372e-03 0.0 
0.0 0.0 -8.936906232635e-04 
-5.964027012772e-04 -1.969270146159e-04 0.0 
-1.969270146159e-04 3.828565622584e-03 0.0 
0.0 0.0 -5.884905393267e-04 
-6.222186473161e-04 -1.579598216188e-04 0.0 
-1.579598216188e-04 4.074275639624e-03 0.0 
0.0 0.0 -6.218825813656e-04 
-1.132545466856e-03 -1.921788675688e-04 0.0 
-1.921788675688e-04 7.631342050474e-03 0.0 
0.0 0.0 -1.133400347077e-03 
-9.399834973732e-04 -2.076180111174e-04 0.0 
-2.076180111174e-04 6.274716467853e-03 0.0 
0.0 0.0 -9.394087121358e-04 
-8.165998643398e-04 -1.896618384882e-04 0.0 
-1.896618384882e-04 5.425461381261e-03 0.0 
0.0 0.0 -8.164864906097e-04 
-1.015808219044e-03 2.043119981127e-04 0.0 
2.043119981127e-04 6.724239760090e-03 0.0 
0.0 0.0 -1.014986374720e-03 
-7.921952984756e-04 1.876569442452e-04 0.0 
1.876569442452e-04 5.161072896404e-03 0.0 
0.0 0.0 -7.915105747054e-04 
-5.132154280476e-04 -1.871647182001e-04 0.0 
-1.871647182001e-04 3.302371768383e-03 0.0 
0.0 0.0 -5.119962057136e-04 
-5.745746208367e-04 1.485352442875e-04 0.0 
1.485352442875e-04 3.755895310226e-03 0.0 
0.0 0.0 -5.908395828668e-04 
-8.562635021512e-04 -1.754512107452e-04 0.0 
-1.754512107452e-04 5.627343192984e-03 0.0 
0.0 0.0 -8.442294783838e-04 
-7.160648306052e-04 7.585704491009e-06 0.0 
7.585704491009e-06 4.849167370763e-03 0.0 
0.0 0.0 -7.121995050294e-04 
-1.098907698795e-03 -1.935603852202e-04 0.0 
-1.935603852202e-04 7.356586615962e-03 0.0 
0.0 0.0 -1.093598669875e-03 
-7.500784032912e-04 -1.888438395023e-04 0.0 
-1.888438395023e-04 4.947212343952e-03 0.0 
0.0 0.0 -7.486350631497e-04 
-1.210182417684e-03 1.765917680884e-04 0.0 
1.765917680884e-04 8.247529209770e-03 0.0 
0.0 0.0 -1.233571955743e-03 
-1.118284649088e-03 2.239133535709e-04 0.0 
2.239133535709e-04 7.476894485255e-03 0.0 
0.0 0.0 -1.121177773779e-03 
-8.254740426919e-04 -1.929282224425e-04 0.0 
-1.929282224425e-04 5.485443478807e-03 0.0 
0.0 0.0 -8.252461108756e-04 
-1.242964237003e-03 -2.139177796874e-04 0.0 
-2.139177796874e-04 8.349538837109e-03 0.0 
0.0 0.0 -1.241472629463e-03 
-5.687293433059e-04 -1.915120142833e-04 0.0 
-1.915120142833e-04 3.690790191525e-03 0.0 
0.0 0.0 -5.682622744621e-04 
-1.208040625364e-03 1.849401074130e-04 0.0 
1.849401074130e-04 8.046920265334e-03 0.0 
0.0 0.0 -1.204482468497e-03 
-8.913551845653e-04 -1.878094076417e-04 0.0 
-1.878094076417e-04 5.940020385334e-03 0.0 
0.0 0.0 -8.910665706739e-04 
-9.852542746410e-04 1.871572406668e-04 0.0 
1.871572406668e-04 6.505324580404e-03 0.0 
0.0 0.0 -9.848034212814e-04 
-1.145107580505e-03 -1.842496915473e-04 0.0 
-1.842496915473e-04 7.703101384869e-03 0.0 
0.0 0.0 -1.146785027167e-03 
-5.943655314035e-04 -1.832199318589e-04 0.0 
-1.832199318589e-04 3.893020220943e-03 0.0 
0.0 0.0 -5.958228065582e-04 
-9.389816814797e-04 1.876119276122e-04 0.0 
1.876119276122e-04 6.182064030220e-03 0.0 
0.0 0.0 -9.369464185080e-04 
-7.887299262109e-04 -1.887974843369e-04 0.0 
-1.887974843369e-04 5.230247920474e-03 0.0 
0.0 0.0 -7.886172400246e-04 
-9.083774489983e-04 -1.902700926230e-04 0.0 
-1.902700926230e-04 6.046157002466e-03 0.0 
0.0 0.0 -9.065670216064e-04 
-5.279887302567e-04 -1.859379540021e-04 0.0 
-1.859379540021e-04 3.395303897193e-03 0.0 
0.0 0.0 -5.268093404353e-04 
-1.014606245907e-03 2.103915705160e-04 0.0 
2.103915705160e-04 6.713973890446e-03 0.0 
0.0 0.0 -1.013229387512e-03 
-7.553250635679e-04 1.889436264505e-04 0.0 
1.889436264505e-04 4.904153081957e-03 0.0 
0.0 0.0 -7.548706880268e-04 
-8.804539724126e-04 1.911528069323e-04 0.0 
1.911528069323e-04 5.783141817002e-03 0.0 
0.0 0.0 -8.810281692460e-04 
-9.122003311206e-04 1.835312424394e-04 0.0 
1.835312424394e-04 5.985147494673e-03 0.0 
0.0 0.0 -9.091416541300e-04 
-1.779440610295e-04 -1.030848282903e-04 0.0 
-1.030848282903e-04 7.740733373014e-04 0.0 
0.0 0.0 -1.392682743729e-04 
-9.092484897749e-04 2.049076976716e-04 0.0 
2.049076976716e-04 5.988548295435e-03 0.0 
0.0 0.0 -9.082496170556e-04 
-2.130732635602e-04 -2.101807231715e-04 0.0 
-2.101807231715e-04 1.221567911034e-03 0.0 
0.0 0.0 -2.164288490095e-04 
-2.520548988868e-04 2.059906335289e-04 0.0 
2.059906335289e-04 1.360441870585e-03 0.0 
0.0 0.0 -2.410360834028e-04 
-8.430214645806e-04 1.870171193368e-04 0.0 
1.870171193368e-04 5.521874591652e-03 0.0 
0.0 0.0 -8.438072171805e-04 
-1.100618043992e-03 -1.995199700289e-04 0.0 
-1.995199700289e-04 7.372933681793e-03 0.0 
0.0 0.0 -1.098354823938e-03 
-9.336786887582e-04 1.772618600829e-04 0.0 
1.772618600829e-04 6.184069199665e-03 0.0 
0.0 0.0 -9.387552692590e-04 
-5.316814076804e-04 -1.951121058158e-04 0.0 
-1.951121058158e-04 3.374217008638e-03 0.0 
0.0 0.0 -5.215302833573e-04 
-1.342322198460e-03 1.355075091338e-05 0.0 
1.355075091338e-05 8.860022296973e-03 0.0 
0.0 0.0 -1.342322198460e-03 
-6.904184216633e-05 1.341545190439e-04 0.0 
1.341545190439e-04 2.607547295547e-04 0.0 
0.0 0.0 -8.216266602360e-05 
-5.589210723321e-04 -1.329418113690e-04 0.0 
-1.329418113690e-04 3.609084095352e-03 0.0 
0.0 0.0 -5.549805679787e-04 
-8.477696331988e-04 1.855996582246e-04 0.0 
1.855996582246e-04 5.547050172852e-03 0.0 
0.0 0.0 -8.472740691907e-04 
-8.035495844310e-04 -1.953259203623e-04 0.0 
-1.953259203623e-04 5.337013229194e-03 0.0 
0.0 0.0 -8.042584860449e-04 
-6.757348554203e-04 -1.653998453620e-04 0.0 
-1.653998453620e-04 4.426804148949e-03 0.0 
0.0 0.0 -6.733236465360e-04 
-5.914609098287e-04 1.823071808114e-04 0.0 
1.823071808114e-04 3.765270744377e-03 0.0 
0.0 0.0 -5.908717820549e-04 
-8.740292955769e-04 -1.984478198410e-04 0.0 
-1.984478198410e-04 5.813273429386e-03 0.0 
0.0 0.0 -8.733819075714e-04 
-9.264128048314e-04 -1.908219560731e-04 0.0 
-1.908219560731e-04 6.187717693911e-03 0.0 
0.0 0.0 -9.266779469803e-04 
-9.738255750276e-04 2.028683516140e-04 0.0 
2.028683516140e-04 6.450883656299e-03 0.0 
0.0 0.0 -9.734188451722e-04 
-1.155174733819e-03 2.031393399309e-04 0.0 
2.031393399309e-04 7.608098909853e-03 0.0 
0.0 0.0 -1.144302277022e-03 
-2.998307148874e-04 1.817771268844e-04 0.0 
1.817771268844e-04 1.707947677580e-03 0.0 
0.0 0.0 -2.976331147772e-04 
-7.774732960360e-04 1.902311186531e-04 0.0 
1.902311186531e-04 5.067412702539e-03 0.0 
0.0 0.0 -7.784793977761e-04 
-8.354929195800e-04 1.868427274729e-04 0.0 
1.868427274729e-04 5.469964258699e-03 0.0 
0.0 0.0 -8.356154970834e-04 
-4.516910884492e-04 -2.032153244339e-04 0.0 
-2.032153244339e-04 2.897475389763e-03 0.0 
0.0 0.0 -4.544023106810e-04 
-7.514806211766e-04 2.187245154034e-04 0.0 
2.187245154034e-04 4.887888210751e-03 0.0 
0.0 0.0 -7.518103749233e-04 
-9.376130433125e-04 -2.007012642150e-04 0.0 
-2.007012642150e-04 6.245928942655e-03 0.0 
0.0 0.0 -9.362314798257e-04 
-1.020402468730e-03 -1.946865508960e-04 0.0 
-1.946865508960e-04 6.790144563629e-03 0.0 
0.0 0.0 -1.023451880212e-03 
-1.525732992224e-04 8.599813621991e-06 0.0 
8.599813621991e-06 1.000033467602e-03 0.0 
0.0 0.0 -1.605242656235e-04 
-1.269812495822e-04 -2.531001823489e-04 0.0 
-2.531001823489e-04 4.902479252968e-04 0.0 
0.0 0.0 -1.185594205871e-04 
-3.241357878482e-04 -1.842994986653e-04 0.0 
-1.842994986653e-04 2.004473459914e-03 0.0 
0.0 0.0 -3.233707900025e-04 
-8.334989762747e-04 -1.938999604970e-04 0.0 
-1.938999604970e-04 5.537569679809e-03 0.0 
0.0 0.0 -8.330087554115e-04 
-6.325222328161e-04 -1.881321833313e-04 0.0 
-1.881321833313e-04 4.138956718805e-03 0.0 
0.0 0.0 -6.322020076307e-04 
-5.606822046863e-04 -1.836386180369e-04 0.0 
-1.836386180369e-04 3.638290895272e-03 0.0 
0.0 0.0 -5.605319560360e-04 
-5.042968556974e-04 -1.874920210369e-04 0.0 
-1.874920210369e-04 3.240689773487e-03 0.0 
0.0 0.0 -5.041580933422e-04 
-8.721332834429e-04 1.863637843611e-04 0.0 
1.863637843611e-04 5.722466013089e-03 0.0 
0.0 0.0 -8.721335634590e-04 
-9.951021354220e-04 1.863977597818e-04 0.0 
1.863977597818e-04 6.578139400737e-03 0.0 
0.0 0.0 -9.956198530692e-04 
-8.650795473337e-04 1.875435944103e-04 0.0 
1.875435944103e-04 5.670505538654e-03 0.0 
0.0 0.0 -8.643287579461e-04 
-6.358273554876e-04 1.861975192937e-04 0.0 
1.861975192937e-04 4.071155698746e-03 0.0 
0.0 0.0 -6.348607296063e-04 
-9.711834339353e-04 -2.012117718550e-04 0.0 
-2.012117718550e-04 6.487584772475e-03 0.0 
0.0 0.0 -9.699423737970e-04 
-8.101971348646e-04 1.641316877204e-04 0.0 
1.641316877204e-04 5.432076920036e-03 0.0 
0.0 0.0 -8.236220363599e-04 
-1.071983661584e-03 2.130963721819e-04 0.0 
2.130963721819e-04 7.145357950686e-03 0.0 
0.0 0.0 -1.076197569190e-03 
-8.626714893425e-04 -1.942405500946e-04 0.0 
-1.942405500946e-04 5.738328913224e-03 0.0 
0.0 0.0 -8.617642947636e-04 
-8.702702279884e-04 -1.921753086919e-04 0.0 
-1.921753086919e-04 5.792753129953e-03 0.0 
0.0 0.0 -8.694825820363e-04 
-4.645559553229e-04 -1.981925654935e-04 0.0 
-1.981925654935e-04 2.889937884798e-03 0.0 
0.0 0.0 -4.548485160793e-04 
-6.608554486331e-04 -1.864091804662e-04 0.0 
-1.864091804662e-04 4.336541054874e-03 0.0 
0.0 0.0 -6.598952468720e-04 
-8.926027030231e-04 1.843043537544e-04 0.0 
1.843043537544e-04 5.864339266433e-03 0.0 
0.0 0.0 -8.930692851043e-04 
-9.679615503639e-04 1.696948557832e-04 0.0 
1.696948557832e-04 6.395623785343e-03 0.0 
0.0 0.0 -9.615701295831e-04 
-9.079120183865e-04 1.806035671013e-04 0.0 
1.806035671013e-04 6.008465197653e-03 0.0 
0.0 0.0 -8.972249362023e-04 
-4.966173735405e-04 -1.549710521065e-04 0.0 
-1.549710521065e-04 3.153972529156e-03 0.0 
0.0 0.0 -4.879487645214e-04 
-9.010013592765e-04 1.886793445213e-04 0.0 
1.886793445213e-04 5.923625585035e-03 0.0 
0.0 0.0 -9.007118478549e-04 
-5.518253028037e-04 -1.783371210293e-04 0.0 
-1.783371210293e-04 3.577417440001e-03 0.0 
0.0 0.0 -5.517684601482e-04 
-2.845535083016e-04 1.977607623022e-04 0.0 
1.977607623022e-04 1.633750881917e-03 0.0 
0.0 0.0 -2.811347238918e-04 
-1.188918642902e-03 -1.918974946843e-04 0.0 
-1.918974946843e-04 8.111302423947e-03 0.0 
0.0 0.0 -1.202908440308e-03 
-3.019785591690e-04 1.950774455603e-04 0.0 
1.950774455603e-04 1.726883632229e-03 0.0 
0.0 0.0 -3.019870735033e-04 
-5.828626320579e-04 1.860512938998e-04 0.0 
1.860512938998e-04 3.705650589538e-03 0.0 
0.0 0.0 -5.822209219963e-04 
-8.781768956790e-04 -1.986806572288e-04 0.0 
-1.986806572288e-04 5.833892611307e-03 0.0 
0.0 0.0 -8.766521650092e-04 
-5.060723315699e-04 1.405250353070e-04 0.0 
1.405250353070e-04 3.287884117067e-03 0.0 
0.0 0.0 -5.239962781855e-04 
-8.898132346489e-04 -1.977943572352e-04 0.0 
-1.977943572352e-04 5.946896776319e-03 0.0 
0.0 0.0 -8.905656347129e-04 
-4.258375091185e-04 -2.178895733922e-04 0.0 
-2.178895733922e-04 2.688533932087e-03 0.0 
0.0 0.0 -4.282508963332e-04 
-7.578747057613e-04 -1.654300402080e-04 0.0 
-1.654300402080e-04 5.036141076678e-03 0.0 
0.0 0.0 -7.823486082854e-04 
-9.004251462807e-04 -1.892315142781e-04 0.0 
-1.892315142781e-04 5.992307029229e-03 0.0 
0.0 0.0 -8.981647654366e-04 
-7.810617461966e-04 -1.867589919143e-04 0.0 
-1.867589919143e-04 5.170374097518e-03 0.0 
0.0 0.0 -7.800125773855e-04 
-8.113930582064e-04 -1.934831491269e-04 0.0 
-1.934831491269e-04 5.398532171848e-03 0.0 
0.0 0.0 -8.126672281948e-04 
-1.456223754453e-04 -1.153284200368e-04 0.0 
-1.153284200368e-04 8.334024863152e-04 0.0 
0.0 0.0 -1.489310416055e-04 
-1.183619524390e-03 -1.995906802130e-04 0.0 
-1.995906802130e-04 7.793015624773e-03 0.0 
0.0 0.0 -1.152567315725e-03 
-6.518619288048e-04 -1.801864724235e-04 0.0 
-1.801864724235e-04 4.278312019353e-03 0.0 
0.0 0.0 -6.514572604261e-04 
-1.161957516655e-03 2.065796963047e-04 0.0 
2.065796963047e-04 7.737413579119e-03 0.0 
0.0 0.0 -1.154039482800e-03 
-9.839722502603e-04 -1.958677314331e-04 0.0 
-1.958677314331e-04 6.578387584555e-03 0.0 
0.0 0.0 -9.821191134873e-04 
-9.294100606496e-04 1.930061835790e-04 0.0 
1.930061835790e-04 6.122204066633e-03 0.0 
0.0 0.0 -9.293965016571e-04 
-9.285061071557e-04 -1.774497838441e-04 0.0 
-1.774497838441e-04 6.189509746344e-03 0.0 
0.0 0.0 -9.268654845073e-04 
-5.996189068560e-04 1.852055889782e-04 0.0 
1.852055889782e-04 3.820597089734e-03 0.0 
0.0 0.0 -5.989583036242e-04 
-1.944838745679e-04 1.584109702943e-04 0.0 
1.584109702943e-04 1.163625171840e-03 0.0 
0.0 0.0 -2.103425724855e-04 
-1.545095455242e-04 1.193388759037e-04 0.0 
1.193388759037e-04 6.563556231282e-04 0.0 
0.0 0.0 -1.599169489567e-04 
-9.548054477989e-04 1.928585704838e-04 0.0 
1.928585704838e-04 6.318843775437e-03 0.0 
0.0 0.0 -9.583065114986e-04 
-1.160173340718e-03 1.884012827660e-04 0.0 
1.884012827660e-04 7.692007981726e-03 0.0 
0.0 0.0 -1.148056181429e-03 
-5.412400896945e-04 -1.740896251805e-04 0.0 
-1.740896251805e-04 3.519775267643e-03 0.0 
0.0 0.0 -5.426247857783e-04 
-1.000629830532e-03 1.900148255986e-04 0.0 
1.900148255986e-04 6.622819157878e-03 0.0 
0.0 0.0 -1.000702849114e-03 
-5.014074309498e-04 1.897737110036e-04 0.0 
1.897737110036e-04 3.104700833587e-03 0.0 
0.0 0.0 -5.002094317253e-04 
-1.008257874699e-03 -1.995045898855e-04 0.0 
-1.995045898855e-04 6.739421236299e-03 0.0 
0.0 0.0 -1.005614027492e-03 
-1.275786431467e-03 1.088711895384e-04 0.0 
1.088711895384e-04 8.693642459064e-03 0.0 
0.0 0.0 -1.266534580134e-03 
-5.404710541836e-05 1.564499946379e-05 0.0 
1.564499946379e-05 2.310460762638e-04 0.0 
0.0 0.0 -4.512473402930e-05 
-1.341620833825e-03 -3.423569445624e-05 0.0 
-3.423569445624e-05 8.854172159817e-03 0.0 
0.0 0.0 -1.341620833825e-03 
-1.340051318819e-03 3.419351748214e-06 0.0 
3.419351748214e-06 8.881496154702e-03 0.0 
0.0 0.0 -1.340051318819e-03 
-8.003500561082e-04 -1.973446332083e-04 0.0 
-1.973446332083e-04 5.182732733425e-03 0.0 
0.0 0.0 -7.955197795907e-04 
-6.427190039752e-04 -1.771623886154e-04 0.0 
-1.771623886154e-04 4.219584582941e-03 0.0 
0.0 0.0 -6.428246066218e-04 
-9.539959357727e-04 -1.903436421629e-04 0.0 
-1.903436421629e-04 6.384067375959e-03 0.0 
0.0 0.0 -9.543595451431e-04 
-6.046483611248e-04 -1.904684548622e-04 0.0 
-1.904684548622e-04 3.941030960147e-03 0.0 
0.0 0.0 -6.041149214933e-04 
-2.015327089857e-04 -1.787857606077e-04 0.0 
-1.787857606077e-04 1.215175486256e-03 0.0 
0.0 0.0 -2.095884814006e-04 
-1.358502302165e-04 -1.652436952664e-04 0.0 
-1.652436952664e-04 5.860561493667e-04 0.0 
0.0 0.0 -1.201211790779e-04 
-1.224116731780e-03 -1.601620163346e-04 0.0 
-1.601620163346e-04 8.159917680932e-03 0.0 
0.0 0.0 -1.209499414335e-03 
-9.670306227229e-04 -2.102097021759e-04 0.0 
-2.102097021759e-04 6.456763428288e-03 0.0 
0.0 0.0 -9.648175333861e-04 
-7.505793698933e-04 -1.832067976458e-04 0.0 
-1.832067976458e-04 4.862883335491e-03 0.0 
0.0 0.0 -7.224789237172e-04 
-1.308106101880e-03 -9.564346375639e-06 0.0 
-9.564346375639e-06 9.104818726286e-03 0.0 
0.0 0.0 -1.323661129950e-03 
-3.723881451927e-04 -2.095753772030e-04 0.0 
-2.095753772030e-04 2.251170567838e-03 0.0 
0.0 0.0 -3.615704333793e-04 
-1.338587368780e-03 -1.150799812337e-05 0.0 
-1.150799812337e-05 9.097604261257e-03 0.0 
0.0 0.0 -1.324908485340e-03 
-9.656783964585e-04 1.862090128514e-04 0.0 
1.862090128514e-04 6.391762053029e-03 0.0 
0.0 0.0 -9.670422101491e-04 
-6.322851321105e-04 -1.782670103148e-04 0.0 
-1.782670103148e-04 4.156088603212e-03 0.0 
0.0 0.0 -6.336394413500e-04 
-9.215195886709e-04 1.858262024962e-04 0.0 
1.858262024962e-04 6.065159777351e-03 0.0 
0.0 0.0 -9.212972352143e-04 
-6.095245585205e-04 1.817233461859e-04 0.0 
1.817233461859e-04 3.888318231073e-03 0.0 
0.0 0.0 -6.094834619596e-04 
-3.161972729321e-04 2.118996039674e-04 0.0 
2.118996039674e-04 1.862493464303e-03 0.0 
0.0 0.0 -3.160312483096e-04 
-5.714172847083e-04 1.885506067566e-04 0.0 
1.885506067566e-04 3.631122930928e-03 0.0 
0.0 0.0 -5.728018649490e-04 
-1.022496320278e-03 1.929428534962e-04 0.0 
1.929428534962e-04 6.770909400157e-03 0.0 
0.0 0.0 -1.023749757194e-03 
-1.150976429886e-03 -2.032424840275e-04 0.0 
-2.032424840275e-04 7.758939253249e-03 0.0 
0.0 0.0 -1.155390781228e-03 
-6.187002398341e-04 1.818215273869e-04 0.0 
1.818215273869e-04 3.950326342677e-03 0.0 
0.0 0.0 -6.181853003094e-04 
-1.037480631671e-03 1.889356953886e-04 0.0 
1.889356953886e-04 6.873009589990e-03 0.0 
0.0 0.0 -1.036271578259e-03 
0.0 0.0 0.0 
0.0 0.0 0.0 
0.0 0.0 0.0 
-6.276661230388e-04 1.792694929945e-04 0.0 
1.792694929945e-04 4.010933515786e-03 0.0 
0.0 0.0 -6.266282162577e-04 
-1.067618640436e-03 -2.059979659696e-04 0.0 
-2.059979659696e-04 7.168819223232e-03 0.0 
0.0 0.0 -1.066385360782e-03 
-5.602476022505e-04 1.913249262792e-04 0.0 
1.913249262792e-04 3.548859392025e-03 0.0 
0.0 0.0 -5.616069800515e-04 
-5.034317169211e-04 -1.766316395616e-04 0.0 
-1.766316395616e-04 3.262973984744e-03 0.0 
0.0 0.0 -5.052880831394e-04 
-9.189958469858e-04 -1.860644213167e-04 0.0 
-1.860644213167e-04 6.131142810909e-03 0.0 
0.0 0.0 -9.187611816440e-04 
-2.798438621563e-04 2.024562614015e-04 0.0 
2.024562614015e-04 1.659164072585e-03 0.0 
0.0 0.0 -2.979563435985e-04 
-4.237702008277e-04 -1.193704641066e-04 0.0 
-1.193704641066e-04 2.381332436810e-03 0.0 
0.0 0.0 -3.867203691650e-04 
-3.975764326489e-04 -1.798608620237e-04 0.0 
-1.798608620237e-04 2.707475849368e-03 0.0 
0.0 0.0 -4.195921675762e-04 
-4.963058465455e-04 1.849091904100e-04 0.0 
1.849091904100e-04 3.099739962777e-03 0.0 
0.0 0.0 -4.973376392308e-04 
-8.459383987435e-04 -1.907145818210e-04 0.0 
-1.907145818210e-04 5.622335891913e-03 0.0 
0.0 0.0 -8.444178005646e-04 
-8.162577903273e-04 1.917219888079e-04 0.0 
1.917219888079e-04 5.328762658263e-03 0.0 
0.0 0.0 -8.147327860213e-04 
-1.033805230839e-03 -2.014200165048e-04 0.0 
-2.014200165048e-04 6.928519613423e-03 0.0 
0.0 0.0 -1.033897369924e-03 
-1.221633880436e-03 1.327525419154e-04 0.0 
1.327525419154e-04 8.105302040654e-03 0.0 
0.0 0.0 -1.224260864640e-03 
-4.437323643489e-04 1.289034247085e-04 0.0 
1.289034247085e-04 2.824272473931e-03 0.0 
0.0 0.0 -4.570814260163e-04 
-1.026282183515e-03 -2.469645237371e-04 0.0 
-2.469645237371e-04 6.837925098464e-03 0.0 
0.0 0.0 -1.028620860735e-03 
-1.232340650598e-03 1.232265702215e-04 0.0 
1.232265702215e-04 8.131356307241e-03 0.0 
0.0 0.0 -1.228414553209e-03 
-5.714514367838e-04 1.903885160707e-04 0.0 
1.903885160707e-04 3.625837711505e-03 0.0 
0.0 0.0 -5.707601703556e-04 
-2.135565257302e-04 2.102195190306e-04 0.0 
2.102195190306e-04 1.190116728888e-03 0.0 
0.0 0.0 -2.192200328082e-04 
-5.324811030586e-04 -1.564509498562e-04 0.0 
-1.564509498562e-04 3.456619354267e-03 0.0 
0.0 0.0 -5.330167430730e-04 
-8.085387987626e-04 -1.885177874860e-04 0.0 
-1.885177874860e-04 5.361946972922e-03 0.0 
0.0 0.0 -8.082977034869e-04 
-1.047924752938e-03 1.956397865657e-04 0.0 
1.956397865657e-04 6.924645327261e-03 0.0 
0.0 0.0 -1.043024347135e-03 
-8.126482086337e-04 1.904262971100e-04 0.0 
1.904262971100e-04 5.297787546946e-03 0.0 
0.0 0.0 -8.108276944599e-04 
-2.458088517301e-04 -1.138196901462e-04 0.0 
-1.138196901462e-04 1.452613291321e-03 0.0 
0.0 0.0 -2.343049260409e-04 
-9.102031090638e-04 -2.013755147983e-04 0.0 
-2.013755147983e-04 6.070783801232e-03 0.0 
0.0 0.0 -9.096068616062e-04 
-3.560167896549e-04 2.151383842189e-04 0.0 
2.151383842189e-04 2.131802985450e-03 0.0 
0.0 0.0 -3.508512830963e-04 
-8.140185260576e-04 -1.926928755880e-04 0.0 
-1.926928755880e-04 5.389465675351e-03 0.0 
0.0 0.0 -8.123573650817e-04 
-8.767776688194e-04 2.024483433581e-04 0.0 
2.024483433581e-04 5.751188307413e-03 0.0 
0.0 0.0 -8.756097305517e-04 
-9.509565837624e-04 1.896974231217e-04 0.0 
1.896974231217e-04 6.265385166788e-03 0.0 
0.0 0.0 -9.491391837787e-04 
-9.274205801970e-04 -1.707730266069e-04 0.0 
-1.707730266069e-04 6.212775611049e-03 0.0 
0.0 0.0 -9.494079867578e-04 
-4.906398001625e-04 -1.749565167891e-04 0.0 
-1.749565167891e-04 3.179973922092e-03 0.0 
0.0 0.0 -4.933620968966e-04 
-2.484574972914e-04 1.853035354059e-04 0.0 
1.853035354059e-04 1.372800011643e-03 0.0 
0.0 0.0 -2.459554264611e-04 
-9.419221611826e-04 2.078178624915e-04 0.0 
2.078178624915e-04 6.213877196692e-03 0.0 
0.0 0.0 -9.415329344942e-04 
-3.796687070467e-04 1.987051729866e-04 0.0 
1.987051729866e-04 2.349690832434e-03 0.0 
0.0 0.0 -3.857152600925e-04 
-1.079925297708e-04 2.094696628342e-04 0.0 
2.094696628342e-04 4.385964497386e-04 0.0 
0.0 0.0 -1.205192217350e-04 
-1.217003238982e-03 1.715975421034e-04 0.0 
1.715975421034e-04 8.115367819263e-03 0.0 
0.0 0.0 -1.223389224544e-03 
-1.152822377069e-03 1.914748152748e-04 0.0 
1.914748152748e-04 7.732583850779e-03 0.0 
0.0 0.0 -1.157435638217e-03 
-9.394432781398e-05 -1.620283716039e-05 0.0 
-1.620283716039e-05 3.135234532214e-04 0.0 
0.0 0.0 -9.410533946034e-05 
-9.757772886518e-04 -2.084469974537e-04 0.0 
-2.084469974537e-04 6.524951865197e-03 0.0 
0.0 0.0 -9.758309632659e-04 
-3.896708157340e-04 -1.763476574511e-04 0.0 
-1.763476574511e-04 2.457499880861e-03 0.0 
0.0 0.0 -3.887237773309e-04 
-4.187709573894e-04 2.113072011152e-04 0.0 
2.113072011152e-04 2.560835545987e-03 0.0 
0.0 0.0 -4.195855280820e-04 
-1.100445862982e-03 1.933828922323e-04 0.0 
1.933828922323e-04 7.327011461119e-03 0.0 
0.0 0.0 -1.100737838324e-03 
-9.470047501208e-04 -1.877990577056e-04 0.0 
-1.877990577056e-04 6.324416518396e-03 0.0 
0.0 0.0 -9.467522836136e-04 
-1.064750852218e-03 1.888034529427e-04 0.0 
1.888034529427e-04 7.071897550473e-03 0.0 
0.0 0.0 -1.064854740548e-03 
-6.246803119835e-04 -1.813696095215e-04 0.0 
-1.813696095215e-04 4.082455365693e-03 0.0 
0.0 0.0 -6.238888496032e-04 
-7.066733059565e-04 2.079397955112e-05 0.0 
2.079397955112e-05 4.859565834242e-03 0.0 
0.0 0.0 -7.105917616147e-04 
-1.294146159652e-03 -3.864697892397e-05 0.0 
-3.864697892397e-05 8.444131533072e-03 0.0 
0.0 0.0 -1.281538364137e-03 
-3.542163761970e-04 2.028127844720e-04 0.0 
2.028127844720e-04 2.096644602115e-03 0.0 
0.0 0.0 -3.541816848729e-04 
-1.125206372116e-03 -1.754172072947e-04 0.0 
-1.754172072947e-04 7.521489804146e-03 0.0 
0.0 0.0 -1.121221582973e-03 
-8.491762958406e-04 -1.918772025260e-04 0.0 
-1.918772025260e-04 5.637172269943e-03 0.0 
0.0 0.0 -8.477100451819e-04 
-2.548170229509e-04 1.666770740484e-04 0.0 
1.666770740484e-04 1.576109573106e-03 0.0 
0.0 0.0 -2.892354545592e-04 
-1.017444257442e-03 1.870623454717e-04 0.0 
1.870623454717e-04 6.717348757917e-03 0.0 
0.0 0.0 -1.015166614560e-03 
-6.631831128869e-04 1.857158928685e-04 0.0 
1.857158928685e-04 4.263729749942e-03 0.0 
0.0 0.0 -6.628028861993e-04 
-1.684732311542e-04 2.043772270918e-05 0.0 
2.043772270918e-05 7.313008481942e-04 0.0 
0.0 0.0 -1.790968519484e-04 
-5.636882380034e-04 1.819527752727e-04 0.0 
1.819527752727e-04 3.574156729662e-03 0.0 
0.0 0.0 -5.632129589051e-04 
-9.884210265131e-04 1.935912308442e-04 0.0 
1.935912308442e-04 6.630368017320e-03 0.0 
0.0 0.0 -9.915417172310e-04 
-1.024292652289e-03 -1.998354067082e-04 0.0 
-1.998354067082e-04 6.855679602380e-03 0.0 
0.0 0.0 -1.020980360542e-03 
-2.668718187998e-04 -1.887143997354e-04 0.0 
-1.887143997354e-04 1.647579462571e-03 0.0 
0.0 0.0 -2.713190868338e-04 
-7.786512140660e-04 -1.180089749439e-04 0.0 
-1.180089749439e-04 5.426201302135e-03 0.0 
0.0 0.0 -8.076288038732e-04 
-1.074110154891e-03 1.985848318847e-04 0.0 
1.985848318847e-04 7.134481455861e-03 0.0 
0.0 0.0 -1.071782534217e-03 
-1.102896231441e-03 -1.801608730721e-04 0.0 
-1.801608730721e-04 7.447194143767e-03 0.0 
0.0 0.0 -1.109893377180e-03 
-5.341916501155e-04 1.805786256932e-04 0.0 
1.805786256932e-04 3.363027861628e-03 0.0 
0.0 0.0 -5.351738145117e-04 
-4.305045173780e-04 1.931657245159e-04 0.0 
1.931657245159e-04 2.621086994850e-03 0.0 
0.0 0.0 -4.333934152438e-04 
-8.799765506504e-04 1.996562479781e-04 0.0 
1.996562479781e-04 5.778741680504e-03 0.0 
0.0 0.0 -8.786267582723e-04 
-9.199821990293e-04 -2.154181819420e-04 0.0 
-2.154181819420e-04 6.117399840533e-03 0.0 
0.0 0.0 -9.278975173457e-04 
-1.674260928547e-04 -1.501342801196e-05 0.0 
-1.501342801196e-05 7.277150164985e-04 0.0 
0.0 0.0 -1.762926913357e-04 
-1.274115998275e-03 1.675675276403e-06 0.0 
1.675675276403e-06 8.713591812970e-03 0.0 
0.0 0.0 -1.269179263065e-03 
-1.298508155882e-03 1.869502884704e-05 0.0 
1.869502884704e-05 8.443421948614e-03 0.0 
0.0 0.0 -1.281197857596e-03 
-8.292940884850e-04 -1.917175163011e-04 0.0 
-1.917175163011e-04 5.414946975704e-03 0.0 
0.0 0.0 -8.387747867703e-04 
-1.244952979202e-03 -2.282010355606e-04 0.0 
-2.282010355606e-04 8.516132030964e-03 0.0 
0.0 0.0 -1.255037608383e-03 
-1.285595461777e-03 8.758262611812e-05 0.0 
8.758262611812e-05 8.470225568410e-03 0.0 
0.0 0.0 -1.285499913836e-03 
-6.550628368552e-04 1.846091374224e-04 0.0 
1.846091374224e-04 4.205898052995e-03 0.0 
0.0 0.0 -6.542748834104e-04 
-6.160633711768e-04 -1.792561832397e-04 0.0 
-1.792561832397e-04 4.023102319788e-03 0.0 
0.0 0.0 -6.153450468602e-04 
-1.283033344166e-03 -3.678337033124e-05 0.0 
-3.678337033124e-05 8.728014596535e-03 0.0 
0.0 0.0 -1.265535665854e-03 
0.0 0.0 0.0 
0.0 0.0 0.0 
0.0 0.0 0.0 
-3.991066787644e-04 2.089649564116e-04 0.0 
2.089649564116e-04 2.425063075378e-03 0.0 
0.0 0.0 -3.941707820484e-04 
-8.514609378297e-04 2.123409869842e-04 0.0 
2.123409869842e-04 5.409120252618e-03 0.0 
0.0 0.0 -8.329475646481e-04 
-5.302799896406e-04 -1.732779148191e-04 0.0 
-1.732779148191e-04 3.448271069514e-03 0.0 
0.0 0.0 -5.313546330462e-04 
-5.563051708704e-04 1.844916340551e-04 0.0 
1.844916340551e-04 3.512912497570e-03 0.0 
0.0 0.0 -5.546931404481e-04 
-3.415568276898e-04 -1.308054941934e-04 0.0 
-1.308054941934e-04 1.889315350148e-03 0.0 
0.0 0.0 -3.196518454468e-04 
-3.575678493770e-04 -1.815157908242e-04 0.0 
-1.815157908242e-04 2.264784395116e-03 0.0 
0.0 0.0 -3.528063275151e-04 
-8.197996438863e-04 -1.649479054574e-04 0.0 
-1.649479054574e-04 5.559213606059e-03 0.0 
0.0 0.0 -8.290026594306e-04 
-5.969369916122e-04 -1.873932769643e-04 0.0 
-1.873932769643e-04 3.888936242251e-03 0.0 
0.0 0.0 -5.962921515785e-04 
-4.656748358331e-04 1.698564554769e-04 0.0 
1.698564554769e-04 2.821912241395e-03 0.0 
0.0 0.0 -4.583473518421e-04 
-1.081990949278e-03 2.020316486048e-04 0.0 
2.020316486048e-04 7.171935137813e-03 0.0 
0.0 0.0 -1.077832113627e-03 
-1.313638198111e-03 -3.076900631439e-06 0.0 
-3.076900631439e-06 9.102354608081e-03 0.0 
0.0 0.0 -1.324978758543e-03 
-1.341095485501e-03 -7.065196985574e-05 0.0 
-7.065196985574e-05 9.093683970561e-03 0.0 
0.0 0.0 -1.320624918399e-03 
-6.462169745443e-04 1.855628978644e-04 0.0 
1.855628978644e-04 4.145339439620e-03 0.0 
0.0 0.0 -6.457427040837e-04 
-7.708747032324e-04 1.041783851500e-04 0.0 
1.041783851500e-04 4.982091340538e-03 0.0 
0.0 0.0 -7.877541558771e-04 
-8.769640556113e-05 6.178156653804e-05 0.0 
6.178156653804e-05 4.782988861832e-04 0.0 
0.0 0.0 -9.215226380795e-05 
-2.633621526956e-04 -2.203101725457e-04 0.0 
-2.203101725457e-04 1.488332341374e-03 0.0 
0.0 0.0 -2.565684379859e-04 
-2.684503074307e-04 -1.015967117788e-04 0.0 
-1.015967117788e-04 1.723596733047e-03 0.0 
0.0 0.0 -2.726290318112e-04 
-2.937144985059e-04 -1.893501464245e-04 0.0 
-1.893501464245e-04 1.729218905568e-03 0.0 
0.0 0.0 -2.902597925154e-04 
-9.132607495649e-04 -1.959093978123e-04 0.0 
-1.959093978123e-04 6.073898974161e-03 0.0 
0.0 0.0 -9.116044729693e-04 
-5.464820601322e-04 1.827990156846e-04 0.0 
1.827990156846e-04 3.450683961523e-03 0.0 
0.0 0.0 -5.459662534218e-04 
-5.889189184564e-04 -1.828572680718e-04 0.0 
-1.828572680718e-04 3.834736165113e-03 0.0 
0.0 0.0 -5.879858557453e-04 
-1.839870051548e-04 -1.451969745408e-04 0.0 
-1.451969745408e-04 1.010884541365e-03 0.0 
0.0 0.0 -1.607067486349e-04 
-1.189299804196e-03 3.101361533276e-05 0.0 
3.101361533276e-05 7.702189552740e-03 0.0 
0.0 0.0 -1.176327079312e-03 
-5.798619533544e-04 -1.808661495353e-04 0.0 
-1.808661495353e-04 3.773380412779e-03 0.0 
0.0 0.0 -5.792774345575e-04 
-1.207908513450e-03 1.972281472903e-04 0.0 
1.972281472903e-04 8.083641670665e-03 0.0 
0.0 0.0 -1.212957849656e-03 
-1.102884565855e-03 -1.433383463998e-04 0.0 
-1.433383463998e-04 7.411218118786e-03 0.0 
0.0 0.0 -1.117460450001e-03 
-1.327052993259e-03 5.039016474574e-05 0.0 
5.039016474574e-05 9.117456944274e-03 0.0 
0.0 0.0 -1.319418651152e-03 
-1.323160438534e-03 4.113209317417e-05 0.0 
4.113209317417e-05 9.111232254039e-03 0.0 
0.0 0.0 -1.324849633189e-03 
-8.429214028197e-04 1.551938721599e-04 0.0 
1.551938721599e-04 5.556754036543e-03 0.0 
0.0 0.0 -8.315138651140e-04 
-6.054182665991e-04 -1.761595556497e-04 0.0 
-1.761595556497e-04 3.962557590825e-03 0.0 
0.0 0.0 -6.063493599945e-04 
-3.773225086312e-04 1.540184482811e-04 0.0 
1.540184482811e-04 2.369883884178e-03 0.0 
0.0 0.0 -3.884917441798e-04 
-6.362526417499e-04 1.880822988670e-04 0.0 
1.880822988670e-04 4.081289822239e-03 0.0 
0.0 0.0 -6.367902913543e-04 
-1.343328350294e-03 -2.242232029301e-05 0.0 
-2.242232029301e-05 8.871791449146e-03 0.0 
0.0 0.0 -1.343328350294e-03 
-1.941237960476e-04 -2.080169990243e-04 0.0 
-2.080169990243e-04 1.015510769409e-03 0.0 
0.0 0.0 -1.893367542308e-04 
-2.245210048569e-04 -1.692984650136e-04 0.0 
-1.692984650136e-04 1.259236592297e-03 0.0 
0.0 0.0 -2.228547875044e-04 
-1.167115373107e-03 -1.495116845835e-04 0.0 
-1.495116845835e-04 7.791699083978e-03 0.0 
0.0 0.0 -1.156027955174e-03 
-7.604196719999e-04 1.094016003118e-05 0.0 
1.094016003118e-05 5.257478836262e-03 0.0 
0.0 0.0 -7.715229432315e-04 
-1.218850929264e-03 2.058644676408e-04 0.0 
2.058644676408e-04 8.144525734943e-03 0.0 
0.0 0.0 -1.219279742240e-03 
-1.071479820018e-03 -2.036323164842e-04 0.0 
-2.036323164842e-04 7.177512432405e-03 0.0 
0.0 0.0 -1.069611963270e-03 
-1.173316210076e-03 1.967322517175e-04 0.0 
1.967322517175e-04 7.835584524311e-03 0.0 
0.0 0.0 -1.175036385391e-03 
-1.118458415257e-03 -2.207277967068e-04 0.0 
-2.207277967068e-04 7.508134580034e-03 0.0 
0.0 0.0 -1.113576918908e-03 
-8.412072480000e-04 1.822595111316e-04 0.0 
1.822595111316e-04 5.484810982914e-03 0.0 
0.0 0.0 -8.542750875040e-04 
-4.656106938285e-04 -1.713235230467e-04 0.0 
-1.713235230467e-04 3.001776381545e-03 0.0 
0.0 0.0 -4.674384380614e-04 
-4.697017346435e-04 1.848050694813e-04 0.0 
1.848050694813e-04 2.920597782787e-03 0.0 
0.0 0.0 -4.715697005044e-04 
-9.776991098989e-04 1.861960494422e-04 0.0 
1.861960494422e-04 6.549106674112e-03 0.0 
0.0 0.0 -9.963059934037e-04 
-1.137349181097e-03 -2.318464835195e-04 0.0 
-2.318464835195e-04 7.668040183404e-03 0.0 
0.0 0.0 -1.142506377625e-03 
-7.233340711098e-04 3.952444560700e-05 0.0 
3.952444560700e-05 4.569127107640e-03 0.0 
0.0 0.0 -7.345222264051e-04 
-7.670993363219e-04 9.419055026096e-06 0.0 
9.419055026096e-06 5.242908179151e-03 0.0 
0.0 0.0 -7.676068998053e-04 
-8.154774784067e-04 -6.428956903028e-05 0.0 
-6.428956903028e-05 5.577286133226e-03 0.0 
0.0 0.0 -8.242303029217e-04 
-8.631530775677e-04 -2.400243606270e-04 0.0 
-2.400243606270e-04 5.666444636218e-03 0.0 
0.0 0.0 -8.467401457521e-04 
-2.520894261651e-04 1.671748571763e-04 0.0 
1.671748571763e-04 1.368563506489e-03 0.0 
0.0 0.0 -2.397236108670e-04 
-4.305788114654e-04 1.772776305973e-04 0.0 
1.772776305973e-04 2.648122848143e-03 0.0 
0.0 0.0 -4.335179088089e-04 
-1.282591321733e-03 8.806658448807e-05 0.0 
8.806658448807e-05 8.712918664304e-03 0.0 
0.0 0.0 -1.269310366786e-03 
-9.079866980401e-04 -2.164843828384e-04 0.0 
-2.164843828384e-04 6.067165963346e-03 0.0 
0.0 0.0 -9.150577043801e-04 
-1.296402067617e-03 1.470406796951e-04 0.0 
1.470406796951e-04 8.670707295504e-03 0.0 
0.0 0.0 -1.295322057178e-03 
-1.218050556302e-03 -1.658124096046e-04 0.0 
-1.658124096046e-04 8.300187960416e-03 0.0 
0.0 0.0 -1.215577547940e-03 
-1.017494637499e-03 -1.921677140224e-04 0.0 
-1.921677140224e-04 6.789033766802e-03 0.0 
0.0 0.0 -1.012565562176e-03 
-1.225370251071e-03 -1.480578321934e-04 0.0 
-1.480578321934e-04 8.186203026488e-03 0.0 
0.0 0.0 -1.214907066889e-03 
-6.126094482220e-04 1.499930831992e-04 0.0 
1.499930831992e-04 3.952786327319e-03 0.0 
0.0 0.0 -6.304496659280e-04 
-5.949124951754e-04 1.553635317388e-04 0.0 
1.553635317388e-04 3.760564116659e-03 0.0 
0.0 0.0 -5.666856080635e-04 
-1.240251440986e-03 1.401266566938e-04 0.0 
1.401266566938e-04 8.128078577480e-03 0.0 
0.0 0.0 -1.226851238141e-03 
-8.681779237156e-05 6.361966938885e-05 0.0 
6.361966938885e-05 2.955256088907e-04 0.0 
0.0 0.0 -8.944620707962e-05 
-3.994468741372e-04 -6.433767031829e-05 0.0 
-6.433767031829e-05 2.663800316761e-03 0.0 
0.0 0.0 -4.071640756073e-04 
-1.342405754833e-03 -1.165290042756e-05 0.0 
-1.165290042756e-05 8.847278625245e-03 0.0 
0.0 0.0 -1.342405754833e-03 
-2.282183831112e-04 -1.931913246920e-04 0.0 
-1.931913246920e-04 1.161289386138e-03 0.0 
0.0 0.0 -2.265802816212e-04 
-7.779914563104e-04 2.250840471903e-05 0.0 
2.250840471903e-05 4.976100040424e-03 0.0 
0.0 0.0 -7.870118106326e-04 
-1.235301241696e-03 -4.597267687938e-05 0.0 
-4.597267687938e-05 8.352549433381e-03 0.0 
0.0 0.0 -1.213461936786e-03 
-1.459711515859e-04 1.404844411891e-04 0.0 
1.404844411891e-04 8.229618690863e-04 0.0 
0.0 0.0 -1.562362318669e-04 
-9.769154927044e-05 -4.466849095833e-05 0.0 
-4.466849095833e-05 5.434427193163e-04 0.0 
0.0 0.0 -9.998712429274e-05 
-1.319764072821e-03 -1.098631366030e-04 0.0 
-1.098631366030e-04 9.086194502793e-03 0.0 
0.0 0.0 -1.324389858384e-03 
-7.180738404627e-04 8.985801949801e-05 0.0 
8.985801949801e-05 4.589525670273e-03 0.0 
0.0 0.0 -7.294542769151e-04 
-1.252043255197e-03 2.202164088421e-04 0.0 
2.202164088421e-04 8.539160480101e-03 0.0 
0.0 0.0 -1.261418349269e-03 
-1.248383097869e-03 1.112925246997e-05 0.0 
1.112925246997e-05 8.098072079257e-03 0.0 
0.0 0.0 -1.231858344535e-03 
-7.209227692000e-04 -5.510654877102e-05 0.0 
-5.510654877102e-05 4.575450219389e-03 0.0 
0.0 0.0 -7.289279708929e-04 
-7.887389828812e-05 -1.017830300424e-05 0.0 
-1.017830300424e-05 5.525360744204e-04 0.0 
0.0 0.0 -9.740250892546e-05 
-1.285641185581e-03 -9.669087187551e-05 0.0 
-9.669087187551e-05 8.464210102403e-03 0.0 
0.0 0.0 -1.284140717545e-03 
-2.442885352264e-04 -2.316128597143e-04 0.0 
-2.316128597143e-04 1.339036366238e-03 0.0 
0.0 0.0 -2.433545560381e-04 
-1.243394787484e-03 1.248159333678e-04 0.0 
1.248159333678e-04 8.192432393622e-03 0.0 
0.0 0.0 -1.232184317627e-03 
-1.343095105526e-03 -5.545911197488e-07 0.0 
-5.545911197488e-07 8.861098076103e-03 0.0 
0.0 0.0 -1.343095105526e-03 
-1.242483488035e-03 -1.476678323207e-04 0.0 
-1.476678323207e-04 8.164481882699e-03 0.0 
0.0 0.0 -1.225700354592e-03 
-3.053173479734e-04 1.995595624776e-04 0.0 
1.995595624776e-04 1.753941284829e-03 0.0 
0.0 0.0 -3.044764127662e-04 
-8.209179416884e-04 2.201614491102e-05 0.0 
2.201614491102e-05 5.636691216410e-03 0.0 
0.0 0.0 -8.279144014868e-04 
-6.598213782971e-04 -1.321361913960e-04 0.0 
-1.321361913960e-04 4.200506500251e-03 0.0 
0.0 0.0 -6.271989868224e-04 
-1.073009497438e-03 -2.016133877390e-04 0.0 
-2.016133877390e-04 7.190278966189e-03 0.0 
0.0 0.0 -1.077599360682e-03 
-1.322804215539e-03 -9.225806505936e-05 0.0 
-9.225806505936e-05 9.099454060859e-03 0.0 
0.0 0.0 -1.326997735404e-03 
-1.068734190482e-03 1.262415369069e-04 0.0 
1.262415369069e-04 7.132952485478e-03 0.0 
0.0 0.0 -1.061614915164e-03 
-1.337358869243e-03 1.104149306633e-04 0.0 
1.104149306633e-04 9.089889591754e-03 0.0 
0.0 0.0 -1.325870641008e-03 
-1.438532979018e-04 1.783345522892e-04 0.0 
1.783345522892e-04 7.477808023261e-04 0.0 
0.0 0.0 -1.715795432680e-04 
-1.271233225915e-03 -1.249047643759e-04 0.0 
-1.249047643759e-04 8.707020070809e-03 0.0 
0.0 0.0 -1.277656510522e-03 
-3.430844418630e-04 1.264811275403e-04 0.0 
1.264811275403e-04 2.040518818998e-03 0.0 
0.0 0.0 -3.355960889912e-04 
-2.267326677211e-04 8.751186841265e-05 0.0 
8.751186841265e-05 1.117406703756e-03 0.0 
0.0 0.0 -2.298118214877e-04 
-1.280901782935e-03 -1.009695952617e-04 0.0 
-1.009695952617e-04 8.719202259105e-03 0.0 
0.0 0.0 -1.270335377537e-03 
-1.269212628500e-03 -5.703432125204e-05 0.0 
-5.703432125204e-05 8.728165820739e-03 0.0 
0.0 0.0 -1.270603359501e-03 
-1.290208848841e-03 -1.659042855401e-04 0.0 
-1.659042855401e-04 8.665328582140e-03 0.0 
0.0 0.0 -1.289850838753e-03 
-7.717572245572e-04 2.050611335138e-04 0.0 
2.050611335138e-04 5.043252484980e-03 0.0 
0.0 0.0 -7.762633204683e-04 
-8.522136042615e-04 2.002639843872e-04 0.0 
2.002639843872e-04 5.495330100218e-03 0.0 
0.0 0.0 -8.489529362435e-04 
-3.165071740037e-04 -2.111753426379e-04 0.0 
-2.111753426379e-04 1.888408226457e-03 0.0 
0.0 0.0 -3.134500106614e-04 
-1.262455248765e-03 -8.092303513725e-05 0.0 
-8.092303513725e-05 8.720636871640e-03 0.0 
0.0 0.0 -1.273041473476e-03 
-5.172296523503e-04 1.719980447266e-04 0.0 
1.719980447266e-04 3.374654497821e-03 0.0 
0.0 0.0 -5.357483711987e-04 
-1.781924616035e-04 -1.691974037748e-04 0.0 
-1.691974037748e-04 1.076416545497e-03 0.0 
0.0 0.0 -2.114276361914e-04 
-1.103945436021e-03 1.858035491712e-04 0.0 
1.858035491712e-04 7.419563175353e-03 0.0 
0.0 0.0 -1.110141529071e-03 
-7.006483677025e-04 -2.017256137277e-05 0.0 
-2.017256137277e-05 4.817249357728e-03 0.0 
0.0 0.0 -7.096328662732e-04 
-1.236750495474e-03 1.522707816399e-04 0.0 
1.522707816399e-04 8.254648441428e-03 0.0 
0.0 0.0 -1.237729719596e-03 
-1.313320395878e-03 -1.861843894466e-04 0.0 
-1.861843894466e-04 8.989774958204e-03 0.0 
0.0 0.0 -1.321509982054e-03 
-1.343732204276e-03 -8.189586176291e-06 0.0 
-8.189586176291e-06 8.864848236539e-03 0.0 
0.0 0.0 -1.343732204276e-03 
-2.113977103276e-05 -6.116564405320e-05 0.0 
-6.116564405320e-05 2.124468673954e-04 0.0 
0.0 0.0 -4.293446239042e-05 
-1.369574587126e-05 5.682883385809e-05 0.0 
5.682883385809e-05 6.671587994240e-05 0.0 
0.0 0.0 -2.272291460191e-05 
-7.269437089926e-04 -1.696449694041e-04 0.0 
-1.696449694041e-04 4.683701017331e-03 0.0 
0.0 0.0 -7.318233512793e-04 
-7.351939856936e-04 2.731264159549e-05 0.0 
2.731264159549e-05 4.828327016366e-03 0.0 
0.0 0.0 -7.096011290571e-04 
-1.343732204276e-03 1.179896387127e-05 0.0 
1.179896387127e-05 8.857063084495e-03 0.0 
0.0 0.0 -1.343732204276e-03 
-1.309711018183e-03 1.830632258289e-04 0.0 
1.830632258289e-04 8.985110969777e-03 0.0 
0.0 0.0 -1.321509982054e-03 
-7.839023714454e-05 1.530759167140e-04 0.0 
1.530759167140e-04 4.984351001574e-04 0.0 
0.0 0.0 -9.787861857360e-05 
0.0 0.0 0.0 
0.0 0.0 0.0 
0.0 0.0 0.0 
-1.240428741391e-03 1.261681395074e-04 0.0 
1.261681395074e-04 8.137366373926e-03 0.0 
0.0 0.0 -1.230181737024e-03 
-1.207075559038e-03 2.460354552528e-04 0.0 
2.460354552528e-04 8.184062138694e-03 0.0 
0.0 0.0 -1.209364118140e-03 
-2.516969952369e-04 -1.461428108360e-04 0.0 
-1.461428108360e-04 1.687102641450e-03 0.0 
0.0 0.0 -2.712674790923e-04 
-1.245262172265e-03 -1.311938195304e-04 0.0 
-1.311938195304e-04 8.282968492479e-03 0.0 
0.0 0.0 -1.240191881334e-03 
-8.815159713630e-04 -5.214653451830e-05 0.0 
-5.214653451830e-05 5.742054567636e-03 0.0 
0.0 0.0 -8.888375990210e-04 
-7.830091470663e-04 -1.948066662001e-04 0.0 
-1.948066662001e-04 5.082527524584e-03 0.0 
0.0 0.0 -7.610796297342e-04 
-9.561048422874e-04 9.798803026410e-05 0.0 
9.798803026410e-05 6.427121213030e-03 0.0 
0.0 0.0 -9.400782610458e-04 
-2.481095332731e-04 1.496361777490e-04 0.0 
1.496361777490e-04 1.515795619755e-03 0.0 
0.0 0.0 -2.626203152100e-04 
-1.010907895305e-03 -2.030439122721e-04 0.0 
-2.030439122721e-04 6.762603191826e-03 0.0 
0.0 0.0 -1.011657465016e-03 
-2.096777059838e-04 3.248157080114e-05 0.0 
3.248157080114e-05 1.393633952846e-03 0.0 
0.0 0.0 -2.181484037039e-04 
-6.792638343958e-04 -1.892634513453e-04 0.0 
-1.892634513453e-04 4.524953282507e-03 0.0 
0.0 0.0 -6.997415131527e-04 
-1.228132135990e-03 1.125898781112e-04 0.0 
1.125898781112e-04 8.215057351811e-03 0.0 
0.0 0.0 -1.240519096027e-03 
-1.189706231828e-03 -2.131151468577e-04 0.0 
-2.131151468577e-04 8.025000395541e-03 0.0 
0.0 0.0 -1.191726112421e-03 
-7.376716687014e-04 1.103821202308e-04 0.0 
1.103821202308e-04 4.884590449632e-03 0.0 
0.0 0.0 -7.690942022927e-04 
-8.794968587204e-04 -1.839618802493e-04 0.0 
-1.839618802493e-04 5.894695197839e-03 0.0 
0.0 0.0 -8.745659502648e-04 
-1.233301431487e-03 8.160038213142e-05 0.0 
8.160038213142e-05 8.358065301524e-03 0.0 
0.0 0.0 -1.217119345309e-03 
-1.141574387304e-03 -2.166019370136e-04 0.0 
-2.166019370136e-04 7.685657586840e-03 0.0 
0.0 0.0 -1.140944809983e-03 
-1.081193771009e-03 -2.086711321348e-04 0.0 
-2.086711321348e-04 7.235399972245e-03 0.0 
0.0 0.0 -1.076426999079e-03 
-7.306608964195e-04 1.032073657573e-05 0.0 
1.032073657573e-05 4.566565227243e-03 0.0 
0.0 0.0 -7.312123441678e-04 
-9.778650762194e-04 -2.118658920496e-04 0.0 
-2.118658920496e-04 6.529297964408e-03 0.0 
0.0 0.0 -9.763781674015e-04 
-1.237478436388e-03 1.224174650820e-04 0.0 
1.224174650820e-04 8.159420566097e-03 0.0 
0.0 0.0 -1.231404929774e-03 
-4.267545194732e-04 1.185171473708e-04 0.0 
1.185171473708e-04 2.513528635352e-03 0.0 
0.0 0.0 -4.167967844001e-04 
-9.921663346532e-05 -4.441075622368e-05 0.0 
-4.441075622368e-05 6.032903446550e-04 0.0 
0.0 0.0 -1.015157820784e-04 
-1.196520802042e-03 -1.451432414406e-04 0.0 
-1.451432414406e-04 7.939655555732e-03 0.0 
0.0 0.0 -1.185975225609e-03 
-1.126502929027e-03 1.777561321906e-04 0.0 
1.777561321906e-04 7.477268686063e-03 0.0 
0.0 0.0 -1.123538223191e-03 
-2.078344596569e-04 -1.080252995940e-04 0.0 
-1.080252995940e-04 1.116725601039e-03 0.0 
0.0 0.0 -2.307047010092e-04 
-9.934730169899e-04 -1.599306293238e-04 0.0 
-1.599306293238e-04 6.730831912440e-03 0.0 
0.0 0.0 -9.893338170986e-04 
-1.294485487258e-03 -4.211486433476e-05 0.0 
-4.211486433476e-05 8.454062998903e-03 0.0 
0.0 0.0 -1.282739585886e-03 
-1.188427124013e-03 1.207612322075e-04 0.0 
1.207612322075e-04 7.845258460139e-03 0.0 
0.0 0.0 -1.182073443778e-03 
-1.229516741237e-03 -2.922411445841e-05 0.0 
-2.922411445841e-05 8.351941012253e-03 0.0 
0.0 0.0 -1.215129606110e-03 
-9.509005340635e-04 -2.110936823322e-04 0.0 
-2.110936823322e-04 6.286467037558e-03 0.0 
0.0 0.0 -9.537126495859e-04 
-9.113657589557e-05 5.031862656050e-05 0.0 
5.031862656050e-05 3.206408784025e-04 0.0 
0.0 0.0 -9.835898678870e-05 
-3.211470424961e-04 1.012653271346e-04 0.0 
1.012653271346e-04 1.877306534774e-03 0.0 
0.0 0.0 -3.212443691966e-04 
-3.868345573261e-04 -2.158079183948e-04 0.0 
-2.158079183948e-04 2.373525116556e-03 0.0 
0.0 0.0 -3.834349432650e-04 
-8.152074782471e-04 3.282099269051e-05 0.0 
3.282099269051e-05 5.366100763401e-03 0.0 
0.0 0.0 -8.471429939415e-04 
-9.776446367943e-04 2.161934057614e-04 0.0 
2.161934057614e-04 6.478555405996e-03 0.0 
0.0 0.0 -9.781602908260e-04 
-1.243353399719e-03 -1.638877946273e-04 0.0 
-1.638877946273e-04 8.293874922919e-03 0.0 
0.0 0.0 -1.236541257690e-03 
-1.282980388071e-03 6.834535406589e-05 0.0 
6.834535406589e-05 8.446722746771e-03 0.0 
0.0 0.0 -1.282325209426e-03 
-1.534406041715e-04 -3.090119355694e-05 0.0 
-3.090119355694e-05 9.940803017300e-04 0.0 
0.0 0.0 -1.581060378624e-04 
-1.515974677088e-04 5.347591743209e-05 0.0 
5.347591743209e-05 9.499659581657e-04 0.0 
0.0 0.0 -1.538280640939e-04 
-2.429997348883e-04 2.036444813407e-04 0.0 
2.036444813407e-04 1.479432396381e-03 0.0 
0.0 0.0 -2.585189829319e-04 
-1.003671688667e-03 2.798952750374e-04 0.0 
2.798952750374e-04 6.711627995117e-03 0.0 
0.0 0.0 -1.019242131223e-03 
-5.082641639813e-04 -1.820796698733e-04 0.0 
-1.820796698733e-04 3.225266612081e-03 0.0 
0.0 0.0 -4.953283059016e-04 
-1.242349672414e-03 -1.508059351584e-04 0.0 
-1.508059351584e-04 8.332022443394e-03 0.0 
0.0 0.0 -1.241298427557e-03 
-2.469827383889e-04 -1.734013788771e-04 0.0 
-1.734013788771e-04 1.596418989747e-03 0.0 
0.0 0.0 -2.623907620756e-04 
-1.225402262687e-03 9.684378834706e-05 0.0 
9.684378834706e-05 8.090992196230e-03 0.0 
0.0 0.0 -1.221152601860e-03 
-8.136377301275e-04 1.789287431362e-04 0.0 
1.789287431362e-04 5.446005510680e-03 0.0 
0.0 0.0 -8.343732341398e-04 
-1.267827958096e-03 1.379445383961e-06 0.0 
1.379445383961e-06 8.495733417342e-03 0.0 
0.0 0.0 -1.286815605725e-03 
-1.109817670536e-03 -2.343370330106e-04 0.0 
-2.343370330106e-04 7.482609533300e-03 0.0 
0.0 0.0 -1.111121968474e-03 
-8.202418952196e-04 -8.830664857145e-05 0.0 
-8.830664857145e-05 5.379056120884e-03 0.0 
0.0 0.0 -8.465141837044e-04 
-1.270879538861e-03 -4.852122928064e-05 0.0 
-4.852122928064e-05 8.726187780208e-03 0.0 
0.0 0.0 -1.269142588751e-03 
-1.282679052200e-03 7.789633126416e-05 0.0 
7.789633126416e-05 8.731686959293e-03 0.0 
0.0 0.0 -1.272727265576e-03 
-1.257303152988e-03 6.224102812164e-05 0.0 
6.224102812164e-05 8.713074082016e-03 0.0 
0.0 0.0 -1.271339345674e-03 
-1.734083018694e-04 1.988310073063e-04 0.0 
1.988310073063e-04 9.960919397328e-04 0.0 
0.0 0.0 -1.914719991171e-04 
-1.218228496203e-03 1.745230460975e-04 0.0 
1.745230460975e-04 8.126336924162e-03 0.0 
0.0 0.0 -1.218309553141e-03 
-1.287690608828e-03 2.935127504917e-05 0.0 
2.935127504917e-05 8.450884291377e-03 0.0 
0.0 0.0 -1.286645293131e-03 
-1.215292120313e-03 -1.048319889730e-04 0.0 
-1.048319889730e-04 8.264175100215e-03 0.0 
0.0 0.0 -1.211735819529e-03 
-1.131460186021e-03 2.249929147143e-04 0.0 
2.249929147143e-04 7.604741910755e-03 0.0 
0.0 0.0 -1.143254064081e-03 
-1.342665167303e-03 2.462626238338e-05 0.0 
2.462626238338e-05 8.842656329326e-03 0.0 
0.0 0.0 -1.342665167303e-03 
-1.082512435834e-03 2.096972143521e-04 0.0 
2.096972143521e-04 7.169850347795e-03 0.0 
0.0 0.0 -1.079065255302e-03 
0.0 0.0 0.0 
0.0 0.0 0.0 
0.0 0.0 0.0 
-2.601109826526e-04 -2.071691114659e-04 0.0 
-2.071691114659e-04 1.415839820494e-03 0.0 
0.0 0.0 -2.423809483696e-04 
-1.192508312149e-03 -1.779210084662e-04 0.0 
-1.779210084662e-04 7.961128754995e-03 0.0 
0.0 0.0 -1.176936364471e-03 
-8.685626322098e-04 1.582275665783e-04 0.0 
1.582275665783e-04 5.835782021141e-03 0.0 
0.0 0.0 -8.884613587993e-04 
-1.209889234857e-03 -1.955325308150e-04 0.0 
-1.955325308150e-04 8.188769710119e-03 0.0 
0.0 0.0 -1.221994126432e-03 
-1.170503729369e-03 -2.209983450853e-04 0.0 
-2.209983450853e-04 7.908922597115e-03 0.0 
0.0 0.0 -1.177009544428e-03 
-1.281372639421e-03 -4.882657488487e-05 0.0 
-4.882657488487e-05 8.503605837596e-03 0.0 
0.0 0.0 -1.292249833993e-03 
-1.060591200895e-03 2.356899093670e-04 0.0 
2.356899093670e-04 7.243032913762e-03 0.0 
0.0 0.0 -1.085521458831e-03 
-1.295424128128e-03 -1.344853644126e-05 0.0 
-1.344853644126e-05 8.497735658802e-03 0.0 
0.0 0.0 -1.288973456333e-03 
-1.240273266268e-03 -1.643959908807e-04 0.0 
-1.643959908807e-04 8.288290248441e-03 0.0 
0.0 0.0 -1.233322439334e-03 
-1.236328969747e-03 1.681015718690e-04 0.0 
1.681015718690e-04 8.249087621686e-03 0.0 
0.0 0.0 -1.235043566395e-03 
-5.200406812990e-04 -1.166757664341e-04 0.0 
-1.166757664341e-04 3.385215487565e-03 0.0 
0.0 0.0 -5.104964012366e-04 
-1.293388642315e-03 -2.007549829058e-05 0.0 
-2.007549829058e-05 9.114239519402e-03 0.0 
0.0 0.0 -1.325641941534e-03 
-7.485652657637e-04 1.433772634919e-05 0.0 
1.433772634919e-05 5.220751556451e-03 0.0 
0.0 0.0 -7.662153309038e-04 
-1.203353616891e-03 -1.846454248329e-04 0.0 
-1.846454248329e-04 8.194731648824e-03 0.0 
0.0 0.0 -1.217406395242e-03 
-1.473848137133e-04 -7.608252406758e-05 0.0 
-7.608252406758e-05 7.058205605385e-04 0.0 
0.0 0.0 -1.761976461317e-04 
-1.139762521842e-03 -1.242981094265e-04 0.0 
-1.242981094265e-04 7.914367669760e-03 0.0 
0.0 0.0 -1.163202487293e-03 
-9.847139031094e-04 -2.927819349531e-05 0.0 
-2.927819349531e-05 6.802999958382e-03 0.0 
0.0 0.0 -9.926133712568e-04 
-1.690893902523e-04 -1.078602895255e-04 0.0 
-1.078602895255e-04 9.402080020993e-04 0.0 
0.0 0.0 -1.628620303624e-04 
-2.985531882030e-04 -2.240216763461e-04 0.0 
-2.240216763461e-04 1.642242196626e-03 0.0 
0.0 0.0 -2.736924314970e-04 
-1.111715101682e-03 2.179506947960e-04 0.0 
2.179506947960e-04 7.377812155317e-03 0.0 
0.0 0.0 -1.107581195644e-03 
-1.292896746142e-03 -1.945315972067e-05 0.0 
-1.945315972067e-05 8.475231004044e-03 0.0 
0.0 0.0 -1.285368862661e-03 
-1.232559661219e-03 -1.674576161592e-04 0.0 
-1.674576161592e-04 8.301292046622e-03 0.0 
0.0 0.0 -1.223917301752e-03 
-1.254461742942e-03 2.341900515223e-04 0.0 
2.341900515223e-04 8.559507473306e-03 0.0 
0.0 0.0 -1.264779455601e-03 
-8.799678260909e-04 2.461510225769e-04 0.0 
2.461510225769e-04 5.779390736262e-03 0.0 
0.0 0.0 -8.807565902733e-04 
-9.459318500233e-05 -9.224025008730e-06 0.0 
-9.224025008730e-06 5.593643268762e-04 0.0 
0.0 0.0 -1.022500568216e-04 
-1.184228338263e-04 1.932393774192e-04 0.0 
1.932393774192e-04 8.360742900508e-04 0.0 
0.0 0.0 -1.527632439532e-04 
-1.485774023437e-04 2.057472114591e-04 0.0 
2.057472114591e-04 4.943058849460e-04 0.0 
0.0 0.0 -1.262112556552e-04 
-1.889957332613e-04 -1.720729644020e-04 0.0 
-1.720729644020e-04 1.198989706623e-03 0.0 
0.0 0.0 -2.080055930776e-04 
-2.412796962869e-05 1.151125546851e-04 0.0 
1.151125546851e-04 1.259903231300e-04 0.0 
0.0 0.0 -4.365529435769e-05 
-6.564338874859e-04 1.298407551403e-04 0.0 
1.298407551403e-04 4.516305724261e-03 0.0 
0.0 0.0 -6.753304527203e-04 
-1.206082523732e-03 1.933788045722e-04 0.0 
1.933788045722e-04 8.180269090487e-03 0.0 
0.0 0.0 -1.222305993939e-03 
-1.222663318362e-03 1.753368055927e-04 0.0 
1.753368055927e-04 8.227435580213e-03 0.0 
0.0 0.0 -1.222833113937e-03 
-8.669258191564e-04 -1.817944922656e-04 0.0 
-1.817944922656e-04 5.844176131481e-03 0.0 
0.0 0.0 -8.826313165011e-04 
-6.040048573085e-04 -2.738267400019e-04 0.0 
-2.738267400019e-04 3.891940944486e-03 0.0 
0.0 0.0 -5.988529843847e-04 
-1.222353962553e-03 -1.610597655754e-04 0.0 
-1.610597655754e-04 8.260198203253e-03 0.0 
0.0 0.0 -1.221067908166e-03 
-1.203746913663e-03 2.278206710251e-04 0.0 
2.278206710251e-04 8.189793790316e-03 0.0 
0.0 0.0 -1.208702654310e-03 
-1.279025858978e-03 8.766018994021e-05 0.0 
8.766018994021e-05 8.741593274881e-03 0.0 
0.0 0.0 -1.272252409145e-03 
-1.242705220595e-03 -3.696381206599e-05 0.0 
-3.696381206599e-05 8.148871227430e-03 0.0 
0.0 0.0 -1.237422270938e-03 
-1.174009678725e-03 1.988566962408e-04 0.0 
1.988566962408e-04 7.816359446438e-03 0.0 
0.0 0.0 -1.171232062679e-03 
-1.672054198288e-04 9.231173188879e-05 0.0 
9.231173188879e-05 7.047171557342e-04 0.0 
0.0 0.0 -1.733042685746e-04 
-1.128922232108e-04 -1.541536460290e-04 0.0 
-1.541536460290e-04 8.181726866747e-04 0.0 
0.0 0.0 -1.441637530793e-04 
-1.232867888531e-03 -1.583409372845e-04 0.0 
-1.583409372845e-04 8.274546276780e-03 0.0 
0.0 0.0 -1.223662873675e-03 
-1.809471586290e-04 2.732513028338e-05 0.0 
2.732513028338e-05 7.150332979246e-04 0.0 
0.0 0.0 -1.761523314621e-04 
-2.090612244597e-04 2.679772699566e-04 0.0 
2.679772699566e-04 1.034188635190e-03 0.0 
0.0 0.0 -1.933333333332e-04 
-1.375589269253e-04 1.895212040583e-04 0.0 
1.895212040583e-04 6.272580356086e-04 0.0 
0.0 0.0 -1.476920362276e-04 
-1.616726848356e-04 -1.838984361800e-04 0.0 
-1.838984361800e-04 7.928606863594e-04 0.0 
0.0 0.0 -1.580296812506e-04 
-1.300434401275e-03 -1.024873491582e-05 0.0 
-1.024873491582e-05 8.484073046421e-03 0.0 
0.0 0.0 -1.288571152055e-03 
-1.296196106557e-03 -7.581226292436e-05 0.0 
-7.581226292436e-05 8.500775829958e-03 0.0 
0.0 0.0 -1.290113636706e-03 
-1.257797356609e-03 1.887508465158e-04 0.0 
1.887508465158e-04 8.298916238051e-03 0.0 
0.0 0.0 -1.236907757659e-03 
-1.306315150684e-03 9.008107202527e-08 0.0 
9.008107202527e-08 8.523760771155e-03 0.0 
0.0 0.0 -1.292605224168e-03 
-1.191514572737e-03 -1.523248627148e-04 0.0 
-1.523248627148e-04 7.914354314681e-03 0.0 
0.0 0.0 -1.176879138244e-03 
-9.009707231897e-04 2.647575106000e-04 0.0 
2.647575106000e-04 6.062013665177e-03 0.0 
0.0 0.0 -9.170130443517e-04 
-1.345069444888e-03 -1.224359494155e-05 0.0 
-1.224359494155e-05 8.872525889838e-03 0.0 
0.0 0.0 -1.345069444888e-03 
-3.168516228751e-04 -1.142391801259e-04 0.0 
-1.142391801259e-04 2.071683762697e-03 0.0 
0.0 0.0 -3.330755757467e-04 
-6.832796589934e-04 2.794415003479e-06 0.0 
2.794415003479e-06 4.812526626932e-03 0.0 
0.0 0.0 -7.083073883397e-04 
-1.983733277546e-04 6.070841311558e-05 0.0 
6.070841311558e-05 1.303830959688e-03 0.0 
0.0 0.0 -2.086331215474e-04 
-8.213992574581e-05 4.728700015122e-05 0.0 
4.728700015122e-05 2.774119614064e-04 0.0 
0.0 0.0 -8.368801528309e-05 
-1.296331570259e-03 3.985530997241e-05 0.0 
3.985530997241e-05 9.108859965209e-03 0.0 
0.0 0.0 -1.323850096553e-03 
-7.636750152913e-04 -5.943479672422e-05 0.0 
-5.943479672422e-05 5.297273347084e-03 0.0 
0.0 0.0 -7.731261162940e-04 
-1.898896061389e-04 2.668881093009e-05 0.0 
2.668881093009e-05 1.324161255717e-03 0.0 
0.0 0.0 -2.115341463249e-04 
-6.766397334691e-04 2.335959289239e-04 0.0 
2.335959289239e-04 4.262192913851e-03 0.0 
0.0 0.0 -6.570498647039e-04 
-1.270388897102e-03 1.791394562199e-05 0.0 
1.791394562199e-05 8.744228481245e-03 0.0 
0.0 0.0 -1.276804206569e-03 
-1.238351285998e-03 -1.647535430714e-04 0.0 
-1.647535430714e-04 8.287386498838e-03 0.0 
0.0 0.0 -1.228616961883e-03 
-1.299245503170e-03 -6.943481147169e-06 0.0 
-6.943481147169e-06 8.501206471558e-03 0.0 
0.0 0.0 -1.289666537713e-03 
-4.674755872492e-04 -1.441717405802e-04 0.0 
-1.441717405802e-04 3.063014272079e-03 0.0 
0.0 0.0 -4.695399720401e-04 
-1.457689473944e-04 -1.575597281071e-04 0.0 
-1.575597281071e-04 7.498700715420e-04 0.0 
0.0 0.0 -1.553221962317e-04 
-1.285913149297e-03 -1.165123631474e-04 0.0 
-1.165123631474e-04 8.730182768681e-03 0.0 
0.0 0.0 -1.273144391159e-03 
-1.298815958390e-03 2.309086979367e-05 0.0 
2.309086979367e-05 9.107151826923e-03 0.0 
0.0 0.0 -1.325353038101e-03 
-1.331981550421e-03 -1.771381069907e-05 0.0 
-1.771381069907e-05 9.126640523196e-03 0.0 
0.0 0.0 -1.323783523096e-03 
-7.660500434480e-04 1.313542510445e-04 0.0 
1.313542510445e-04 5.035539676325e-03 0.0 
0.0 0.0 -7.673431308700e-04 
-1.235780327313e-03 -4.526587612998e-06 0.0 
-4.526587612998e-06 8.115023081303e-03 0.0 
0.0 0.0 -1.231867668451e-03 
-1.953177882174e-04 -9.491085164949e-05 0.0 
-9.491085164949e-05 1.122964739939e-03 0.0 
0.0 0.0 -2.324200178898e-04 
-1.257584227981e-03 1.660686322992e-04 0.0 
1.660686322992e-04 8.340961353616e-03 0.0 
0.0 0.0 -1.241575510934e-03 
-8.170589745739e-05 -1.080295024441e-05 0.0 
-1.080295024441e-05 2.725451190137e-04 0.0 
0.0 0.0 -8.178823780987e-05 
-1.306295822847e-03 -1.062422533943e-05 0.0 
-1.062422533943e-05 8.506048519693e-03 0.0 
0.0 0.0 -1.290713494763e-03 
-1.281136683791e-03 1.115018912951e-04 0.0 
1.115018912951e-04 8.702368548138e-03 0.0 
0.0 0.0 -1.268585396830e-03 
-8.090064620301e-05 -6.463780865666e-05 0.0 
-6.463780865666e-05 2.764343947345e-04 0.0 
0.0 0.0 -8.380017794208e-05 
-1.195471399734e-03 -1.402863971345e-04 0.0 
-1.402863971345e-04 7.949772117529e-03 0.0 
0.0 0.0 -1.178018281593e-03 
-1.028233004996e-03 -1.859683667160e-04 0.0 
-1.859683667160e-04 6.977936374390e-03 0.0 
0.0 0.0 -1.053859681778e-03 
-1.289487723471e-03 -3.059440868742e-05 0.0 
-3.059440868742e-05 8.509289695588e-03 0.0 
0.0 0.0 -1.289687241943e-03 
-1.346242744377e-03 -1.047219123713e-05 0.0 
-1.047219123713e-05 8.896960402449e-03 0.0 
0.0 0.0 -1.346242744377e-03 
-9.624911099011e-04 -2.997622866494e-04 0.0 
-2.997622866494e-04 6.376553401582e-03 0.0 
0.0 0.0 -9.627310317561e-04 
-1.292971171235e-03 1.345101664033e-05 0.0 
1.345101664033e-05 8.530939079912e-03 0.0 
0.0 0.0 -1.292510612804e-03 
-1.246115197789e-03 -1.533948492975e-04 0.0 
-1.533948492975e-04 8.325319025632e-03 0.0 
0.0 0.0 -1.236507170568e-03 
-1.007540401079e-03 8.825741490512e-06 0.0 
8.825741490512e-06 6.546914065101e-03 0.0 
0.0 0.0 -1.009625451247e-03 
-1.239682124839e-03 -1.433667225738e-05 0.0 
-1.433667225738e-05 8.247508066060e-03 0.0 
0.0 0.0 -1.247605899893e-03 
-5.439659078653e-04 -1.293203549736e-04 0.0 
-1.293203549736e-04 3.573225901759e-03 0.0 
0.0 0.0 -5.668522599723e-04 
-7.422257193807e-04 -2.384409418001e-05 0.0 
-2.384409418001e-05 4.553525172640e-03 0.0 
0.0 0.0 -7.287847301676e-04 
-1.250463763405e-03 1.444458806810e-04 0.0 
1.444458806810e-04 8.323970461278e-03 0.0 
0.0 0.0 -1.239219007812e-03 
-1.277932458032e-03 1.160268164509e-04 0.0 
1.160268164509e-04 8.651299276670e-03 0.0 
0.0 0.0 -1.286506427510e-03 
0.0 0.0 0.0 
0.0 0.0 0.0 
0.0 0.0 0.0 
-7.391696919877e-04 5.460045200431e-05 0.0 
5.460045200431e-05 4.572310123870e-03 0.0 
0.0 0.0 -7.284590636140e-04 
-1.282539678950e-03 -1.213229753822e-04 0.0 
-1.213229753822e-04 8.668193960288e-03 0.0 
0.0 0.0 -1.288082484959e-03 
-2.668000831652e-04 1.337975711291e-04 0.0 
1.337975711291e-04 1.552550494018e-03 0.0 
0.0 0.0 -2.765646858065e-04 
-1.244314668154e-03 3.253635918239e-05 0.0 
3.253635918239e-05 8.351662046828e-03 0.0 
0.0 0.0 -1.213252366005e-03 
-1.212806318798e-03 -1.378965673921e-04 0.0 
-1.378965673921e-04 8.296055804055e-03 0.0 
0.0 0.0 -1.225943235494e-03 
-1.276740815873e-03 -1.548809764645e-04 0.0 
-1.548809764645e-04 8.705204137735e-03 0.0 
0.0 0.0 -1.269037835114e-03 
-2.467774251027e-04 1.357300176719e-04 0.0 
1.357300176719e-04 1.515114324046e-03 0.0 
0.0 0.0 -2.647987373252e-04 
-1.846190942981e-04 5.164886539666e-05 0.0 
5.164886539666e-05 1.204409405256e-03 0.0 
0.0 0.0 -1.906575996298e-04 
-8.286327452832e-04 3.382951551479e-04 0.0 
3.382951551479e-04 5.239779904281e-03 0.0 
0.0 0.0 -7.939471195916e-04 
-1.139651880695e-03 8.042350541592e-05 0.0 
8.042350541592e-05 7.547907450212e-03 0.0 
0.0 0.0 -1.120841203304e-03 
6.762182202679e-06 4.922521689476e-06 0.0 
4.922521689476e-06 1.951722452603e-04 0.0 
0.0 0.0 -4.162563418682e-05 
-1.297631582513e-03 -2.970012333431e-05 0.0 
-2.970012333431e-05 8.538118962210e-03 0.0 
0.0 0.0 -1.292233508669e-03 
-9.496420787081e-04 3.842938930079e-05 0.0 
3.842938930079e-05 6.134769422350e-03 0.0 
0.0 0.0 -9.501928138396e-04 
-2.319252204205e-04 -1.666332425867e-04 0.0 
-1.666332425867e-04 1.531261602253e-03 0.0 
0.0 0.0 -2.601894661948e-04 
-9.182086126088e-04 6.576575429200e-05 0.0 
6.576575429200e-05 5.823601520571e-03 0.0 
0.0 0.0 -9.030544305944e-04 
-1.281338578084e-03 -1.215158440346e-04 0.0 
-1.215158440346e-04 8.719272788120e-03 0.0 
0.0 0.0 -1.271643562581e-03 
-8.361599263990e-04 -2.906502343770e-04 0.0 
-2.906502343770e-04 5.524370676589e-03 0.0 
0.0 0.0 -8.272804529249e-04 
-9.020963282834e-05 -1.875396024300e-04 0.0 
-1.875396024300e-04 3.251699178446e-04 0.0 
0.0 0.0 -8.776479312228e-05 
-5.428499226707e-04 1.403699556570e-04 0.0 
1.403699556570e-04 3.200704680557e-03 0.0 
0.0 0.0 -5.209635072927e-04 
-7.264103312116e-04 1.066181262773e-04 0.0 
1.066181262773e-04 4.783605203211e-03 0.0 
0.0 0.0 -7.319997505001e-04 
-8.379507721355e-04 3.506890823091e-04 0.0 
3.506890823091e-04 5.706153283525e-03 0.0 
0.0 0.0 -8.599999999992e-04 
-1.240777117315e-03 -1.439647034316e-04 0.0 
-1.439647034316e-04 8.329527072644e-03 0.0 
0.0 0.0 -1.232780192057e-03 
-7.376665261259e-04 -1.727241022974e-04 0.0 
-1.727241022974e-04 4.617911229220e-03 0.0 
0.0 0.0 -7.175509632692e-04 
-7.419227856637e-04 8.706574175029e-05 0.0 
8.706574175029e-05 4.905660942002e-03 0.0 
0.0 0.0 -7.596628988333e-04 
-1.725607618193e-04 1.274500514102e-04 0.0 
1.274500514102e-04 7.075820556251e-04 0.0 
0.0 0.0 -1.551230728613e-04 
-1.262496529076e-03 1.402132573888e-04 0.0 
1.402132573888e-04 8.306889500876e-03 0.0 
0.0 0.0 -1.240629869904e-03 
-1.209173557273e-03 1.621322078836e-04 0.0 
1.621322078836e-04 7.950506271258e-03 0.0 
0.0 0.0 -1.186362110037e-03 
-2.227791697187e-04 8.637930858051e-05 0.0 
8.637930858051e-05 1.298316331417e-03 0.0 
0.0 0.0 -2.411692657676e-04 
-1.261193436875e-03 -8.326695288083e-05 0.0 
-8.326695288083e-05 8.552285249105e-03 0.0 
0.0 0.0 -1.290349483557e-03 
-1.293807969811e-03 1.507292729990e-04 0.0 
1.507292729990e-04 8.596145003785e-03 0.0 
0.0 0.0 -1.290356026000e-03 
-7.679899519873e-04 -1.532356305286e-04 0.0 
-1.532356305286e-04 5.157074227234e-03 0.0 
0.0 0.0 -7.639788432047e-04 
-9.396515753232e-04 3.091234051286e-05 0.0 
3.091234051286e-05 6.333492038285e-03 0.0 
0.0 0.0 -9.358343396975e-04 
-7.048143922743e-04 1.638625948524e-04 0.0 
1.638625948524e-04 4.692848505541e-03 0.0 
0.0 0.0 -7.108516105536e-04 
-7.079275106751e-04 -1.102323501343e-04 0.0 
-1.102323501343e-04 4.802970885948e-03 0.0 
0.0 0.0 -7.343037059241e-04 
-7.780838486787e-04 -3.476295080742e-05 0.0 
-3.476295080742e-05 5.090202749114e-03 0.0 
0.0 0.0 -7.498489858827e-04 
-1.195445771267e-03 1.533301423154e-04 0.0 
1.533301423154e-04 7.905914704818e-03 0.0 
0.0 0.0 -1.180929064624e-03 
-2.101723265820e-04 1.264806835631e-04 0.0 
1.264806835631e-04 1.084941023670e-03 0.0 
0.0 0.0 -2.274637643159e-04 
-1.230210229403e-03 -1.391362873496e-04 0.0 
-1.391362873496e-04 8.342547987840e-03 0.0 
0.0 0.0 -1.217816617926e-03 
-8.387293036437e-04 7.281979356206e-05 0.0 
7.281979356206e-05 5.326094164637e-03 0.0 
0.0 0.0 -8.376728236383e-04 
-1.277193560845e-03 -1.460979146763e-04 0.0 
-1.460979146763e-04 8.720485292524e-03 0.0 
0.0 0.0 -1.272153791098e-03 
-1.202298967755e-03 -1.320050113913e-04 0.0 
-1.320050113913e-04 7.883588282291e-03 0.0 
0.0 0.0 -1.181257232468e-03 
-8.795673226242e-04 -5.945622150844e-05 0.0 
-5.945622150844e-05 6.031279173311e-03 0.0 
0.0 0.0 -8.902468719968e-04 
-1.211224544084e-03 1.194316264715e-04 0.0 
1.194316264715e-04 8.008237221313e-03 0.0 
0.0 0.0 -1.201032862555e-03 
-1.250364770317e-03 1.261810502704e-04 0.0 
1.261810502704e-04 8.225945087578e-03 0.0 
0.0 0.0 -1.236767197193e-03 
-1.292703020779e-03 -2.277677435045e-05 0.0 
-2.277677435045e-05 8.758650210356e-03 0.0 
0.0 0.0 -1.270271405117e-03 
-9.288790837536e-05 4.486310937797e-05 0.0 
4.486310937797e-05 3.125136257933e-04 0.0 
0.0 0.0 -9.412530746485e-05 
-1.213293100967e-03 -1.365137297491e-04 0.0 
-1.365137297491e-04 8.055302576551e-03 0.0 
0.0 0.0 -1.198686027802e-03 
-1.233489147260e-03 1.844031552690e-04 0.0 
1.844031552690e-04 8.360738709544e-03 0.0 
0.0 0.0 -1.227078865044e-03 
-1.296260318671e-04 -1.418501242849e-04 0.0 
-1.418501242849e-04 8.665050242929e-04 0.0 
0.0 0.0 -1.488313462956e-04 
-6.781230104505e-04 -1.171397059554e-04 0.0 
-1.171397059554e-04 4.366860208538e-03 0.0 
0.0 0.0 -6.841365946973e-04 
-7.630078233159e-05 -6.102099342081e-05 0.0 
-6.102099342081e-05 5.288528667040e-04 0.0 
0.0 0.0 -9.692352125104e-05 
-1.239413171189e-03 -1.038112219683e-04 0.0 
-1.038112219683e-04 8.427166424518e-03 0.0 
0.0 0.0 -1.230789928679e-03 

SCALARS element_materi_plasti_kappa_shear float
LOOKUP_TABLE default
1.898088649643e-03
1.711557051641e-03
5.588972410085e-03
5.625547274701e-03
3.501560146999e-03
7.282216725179e-04
3.474037579751e-03
1.788007566792e-03
3.522688057585e-03
5.576154387884e-03
3.814443258077e-03
1.461439354056e-03
5.618312958953e-03
3.751010953381e-03
5.727607835366e-03
5.730745783213e-03
3.485806207147e-03
6.593526459412e-04
1.219931793149e-03
1.129439279567e-03
5.615624188563e-03
1.975862239362e-03
2.216034645177e-03
5.387839390641e-03
4.000079313324e-03
4.090296639934e-03
3.221108468051e-03
5.760173945043e-03
4.029373913921e-03
5.523089313001e-03
9.290964436138e-04
4.104778426902e-04
5.763354464700e-03
4.818108341585e-03
5.606378478043e-03
5.926561905728e-03
5.911514681661e-03
5.601049808397e-03
3.175213616511e-03
3.219440155070e-03
2.522875806809e-03
5.613228156909e-03
1.314389251867e-03
3.093978597461e-03
5.492839635271e-03
1.306192107028e-03
5.547525844143e-04
5.389503964808e-03
2.459813448032e-04
3.614080566479e-03
2.381012112028e-03
1.496795143349e-03
1.233026261794e-03
2.292287135613e-03
5.625167383412e-03
1.964314716114e-03
1.446321564822e-03
4.840724010361e-03
9.102679910466e-04
5.734895616735e-03
3.755633206834e-04
5.378892164199e-03
2.330546822697e-03
1.083603178692e-03
5.615414212048e-03
2.131250052149e-03
1.604920622130e-04
5.736681007188e-03
9.706183660792e-04
5.615641150241e-03
4.241478972054e-03
5.874633494774e-03
5.400876667698e-03
4.558558305772e-04
1.986901141796e-03
5.633818988721e-03
5.766849763577e-03
9.985176399269e-04
7.761145875021e-04
9.970078257237e-04
9.298249562962e-04
3.329770783062e-03
2.084397622031e-03
1.770967893659e-03
3.674764228873e-03
3.652269385491e-03
4.362468712188e-03
4.711312884167e-03
4.861505206044e-03
3.454836133152e-03
2.515307574216e-04
3.378806059228e-03
4.682474906469e-03
4.702091845048e-03
6.023290360785e-03
5.787399672559e-03
3.332335907633e-03
5.769769997493e-03
3.930413862469e-03
2.258576815211e-03
3.348854702644e-03
5.740322727269e-03
4.646182631344e-03
5.409941681963e-03
2.044498184613e-03
6.875243722322e-04
5.293361504949e-03
5.009713215505e-03
4.133118292856e-04
5.636662395566e-03
4.631075715070e-03
3.269354662114e-04
2.695643369684e-03
3.134173944672e-03
2.394513305480e-03
2.006953041182e-03
2.358433690428e-03
5.680496234391e-03
3.862421047183e-03
2.174327584433e-03
9.453599785676e-04
3.463155550842e-03
4.910807945138e-03
2.193161772477e-03
6.864169327036e-04
2.833893873667e-03
2.488998346477e-03
2.624989890950e-03
5.744770783808e-03
8.095945313104e-04
4.016900758618e-03
5.625509815893e-03
2.834287320742e-03
2.685380764041e-03
5.614532063030e-03
5.633315586868e-03
4.360056895282e-03
3.033874980370e-03
5.768691703590e-03
2.715472649556e-03
5.618615457511e-03
5.760030365689e-03
3.718873437018e-03
4.339715431150e-03
2.744759010980e-03
2.474141180373e-03
3.120734003300e-03
2.345781934128e-03
3.431883328348e-03
2.738129196427e-03
2.430742527300e-04
3.688149105754e-03
8.387704164436e-04
2.991941880911e-03
5.628507851818e-03
2.024064835673e-03
4.530584219247e-03
1.460229167458e-03
4.626313542846e-03
3.347690434935e-03
2.537984777281e-03
4.987375735797e-03
8.656817948044e-04
5.285431651825e-03
3.359806122999e-03
5.766679500674e-03
3.342388058740e-03
2.107011085319e-03
2.928826646772e-03
3.947216798782e-03
1.526615979923e-03
2.569483147169e-03
4.520478967461e-03
3.465735922799e-03
2.391304591019e-03
2.779864257648e-03
5.040184275248e-03
2.772760665208e-03
5.618703717082e-03
5.759844672989e-03
1.983421498389e-03
2.659866027685e-03
5.141665672042e-03
2.630630496975e-03
1.717879912429e-03
3.236040194099e-03
2.634227826825e-03
5.637705462983e-03
4.673436176070e-03
5.143211062278e-03
1.164471534235e-03
2.407331954242e-03
4.803098661724e-03
1.296887470610e-04
2.602557350130e-03
4.814963733127e-03
6.908847608837e-04
5.616315559470e-03
4.285635638516e-03
2.554299594861e-03
4.795742518615e-03
3.724002802598e-03
3.932058578281e-03
5.497749636997e-03
1.904823798155e-03
3.244463136207e-03
3.481704692684e-03
4.488443812894e-03
3.550879868320e-03
3.254436741122e-03
4.171787960097e-03
4.925574717127e-03
3.793743182903e-04
1.944678655638e-03
2.211850110251e-03
3.157287865960e-03
4.893684273428e-03
9.647028340037e-04
4.643736636013e-03
3.342449784473e-03
2.377945774863e-03
4.477091166640e-03
4.380675775184e-04
4.584675247436e-03
3.699679224087e-04
5.360497299544e-04
1.154789664667e-03
1.594668909351e-03
4.784983334352e-03
1.546697935713e-03
1.383435816543e-03
1.200027858935e-03
1.005332530085e-03
4.949781021208e-03
3.380950736680e-03
5.631197498489e-03
0.0
1.665063222897e-03
2.673189362063e-03
2.423854183086e-03
4.621677125616e-03
5.764868817004e-03
4.590764537563e-03
1.954446704586e-03
4.960919873089e-03
4.205568891908e-03
3.320344157998e-03
4.410423547979e-03
5.507586445396e-03
2.709349539675e-03
1.580698985764e-03
3.836309747163e-03
6.017571415290e-03
3.278275707600e-03
3.423215564413e-03
3.753460771055e-03
8.863145511107e-04
3.518014179913e-03
1.918797851399e-03
1.292004175147e-03
9.082232253617e-04
4.755046881876e-03
3.676362788182e-03
2.294435875197e-03
4.952708212390e-03
4.718723855839e-03
3.481414558201e-03
5.642033395162e-03
3.523250685796e-03
3.640046674313e-03
2.917421140027e-03
3.717192777982e-03
1.585318004735e-03
3.357027743210e-03
2.838102944494e-03
2.007874057392e-03
4.547203828395e-03
1.589585432750e-04
3.708601455527e-03
2.047895045112e-03
1.700131027140e-03
1.626515464048e-03
3.929577795643e-03
6.380620704985e-04
2.384202047897e-03
3.820927590901e-03
3.640893065081e-03
3.744578397567e-03
8.473399745818e-04
1.972105034185e-03
1.841129336947e-03
2.144602490372e-03
4.453686851147e-03
2.425319558498e-03
2.633326203696e-03
2.506076668662e-03
1.050423010888e-03
3.001112002868e-03
1.139329181863e-03
6.012684016247e-03
6.015982038197e-03
3.371674230462e-03
1.754085065341e-03
1.538449888003e-03
3.733462517399e-03
1.667297713938e-03
1.800453244169e-03
3.281965826457e-03
5.778410886410e-03
2.212308197419e-03
4.148099921920e-03
1.220247403596e-03
6.015650448016e-03
1.627598388192e-03
3.408069598847e-03
1.126335977517e-03
4.035749165321e-03
2.797696233239e-03
1.935926706622e-03
3.513914298156e-03
6.014293587579e-03
2.340466570169e-03
3.854547700326e-03
1.257539573865e-03
4.211250131042e-03
4.445904991404e-03
1.749623395989e-03
4.109773335894e-03
6.017625920185e-03
4.749940685194e-03
6.020004411071e-03
4.066219120171e-03
4.677049970116e-03
1.453454976364e-03
3.226922138058e-03
3.605874528002e-03
3.801247617448e-03
3.116888250637e-03
6.023922603081e-03
3.900035487013e-03
3.427519582657e-03
2.541127325687e-03
1.304161433012e-03
3.097491959287e-03
1.828369059598e-03
3.480341907346e-03
1.973411461228e-03
2.245667589757e-03
4.717451703464e-03
1.865551334307e-03
3.320796694163e-03
3.948013352555e-03
3.499794145216e-03
6.014761074790e-03
2.797145162977e-03
1.840410315571e-03
2.476504328130e-03
1.777663760713e-03
1.715690849975e-03
5.020957594455e-03
3.604591250536e-03
2.461088412607e-03
3.037406839291e-03
6.020345341033e-03
5.688581187917e-03
4.974163615528e-03
4.623253995230e-03
3.403798714710e-03
2.542077870463e-03
1.793786123597e-03
2.084462978973e-03
3.443262116423e-03
3.946499106711e-03
2.984226002412e-03
5.025076478443e-03
1.876215262827e-03
2.954178187483e-03
3.441589599409e-03
2.662722220519e-03
6.012685245852e-03
6.016133295997e-03
5.644449372993e-03
3.701147822208e-03
4.921131353075e-03
1.545366707812e-03
2.377422492958e-03
1.336075859690e-03
2.584345771663e-03
3.338459339121e-03
4.044137853151e-03
5.756411723275e-03
4.924677558882e-03
3.800097117390e-03
3.895652219981e-03
1.419401544672e-03
6.642135258918e-04
2.837095037860e-03
3.243261720869e-03
3.038062407003e-03
6.767206337308e-04
3.595162726105e-03
1.242964933884e-03
1.791112892290e-03
5.886267587663e-03
4.319899469577e-03
3.400768600181e-03
9.348339381145e-04
3.083946857624e-03
2.871885156030e-03
3.962075947404e-03
6.018407561000e-03
3.198386693765e-03
3.766468143188e-03
2.946356736400e-03
4.889394747190e-03
3.802316230935e-03
6.019114699465e-03
5.878766063712e-03
5.874669666802e-03
5.846896484413e-03
4.057636266581e-03
4.920589971590e-03
5.113499940864e-03
2.631031740165e-03
2.507872621076e-03
2.813875816799e-03
5.059815959048e-03
6.015552509770e-03
5.051955043481e-03
4.017840351881e-03
5.084516464713e-03
4.404291654299e-03
3.045170865042e-03
2.550534457101e-03
1.338384591573e-03
5.646979922164e-03
2.469749811606e-03
5.384355873580e-03
2.775047533559e-03
1.799833226776e-03
5.623003894310e-03
1.949666713895e-03
5.877628319843e-03
5.634831675280e-03
3.696725743160e-03
2.315629071755e-04
5.876846230322e-03
5.625196717779e-03
1.763143550620e-03
4.153888461443e-03
6.029088701749e-03
0.0
2.757791127203e-03
3.859953108443e-03
3.533917503000e-03
3.571063382657e-03
1.501745143730e-03
5.871219529997e-03
2.671327868410e-03
8.692276940893e-04
5.775417212412e-03
4.034087724254e-04
2.877183319108e-03
7.845786155791e-04
3.064343649170e-03
6.008207932276e-03
5.886416939798e-03
3.769097730369e-03
5.416058611578e-04
6.663225248162e-04
9.264097944293e-04
5.017458723071e-03
3.488320970718e-03
3.568311924561e-03
5.888518575312e-03
3.493284622980e-03
6.023303222970e-03
4.495210095570e-03
3.909299515792e-03
1.880309591682e-03
4.118987834466e-03
1.217020428602e-03
5.888099209517e-03
5.858622551973e-03
5.871281062107e-03
3.837749785842e-03
2.642161995129e-03
3.082539161524e-03
3.932200029967e-03
5.884737103442e-03
1.826405636236e-03
2.101531865548e-03
2.230991329468e-03
4.079210194316e-03
6.020724823755e-03
6.550876827097e-04
5.870906118256e-03
2.061330388785e-03
5.887134204678e-03
5.158371209842e-03
1.735033884423e-04
2.876871465872e-03
5.119259939334e-03
5.882578435152e-03
4.090807838191e-03
4.627625074894e-03
1.056059908013e-03
5.381604359168e-03
2.190366286691e-03
2.266492401597e-03
4.233392830062e-04
5.876777887152e-03
1.506277909376e-03
4.962026184372e-03
3.779613678589e-03
1.886868617371e-03
2.137991957806e-03
3.928710791902e-03
5.887503593490e-03
2.741417539435e-03
4.307478873942e-03
3.496708023987e-03
3.907072451988e-03
2.300842511533e-03
4.002515627125e-03
3.405034769092e-03
4.439472514518e-03
4.416922306321e-03
3.333573885478e-03
2.813436354788e-03
1.986436464636e-03
2.602497471918e-03
4.536209320527e-03
3.650011259562e-03
6.021028889714e-03
5.248340798342e-03
1.675475904991e-03
5.860952443923e-03
5.749243689854e-03
3.130366137552e-03
2.446157471383e-04
6.015808451350e-03
5.216828897001e-03
1.891089920309e-03
5.872438978963e-03
4.140650168509e-03
2.670441489397e-03
3.672959727573e-03
3.555689535213e-03
3.535938459604e-03
4.076028772190e-03
4.323837798527e-03
2.998150908977e-03
4.588814172264e-03
3.990156233101e-03
2.851900776380e-03
4.246963853771e-03
2.223560657060e-03
3.981478068334e-03
1.793397212351e-04
2.156315504880e-03
2.097111767555e-03
3.079683430517e-03
3.294455684710e-03
4.105285117446e-03
3.968717882503e-03
1.929111457824e-03
5.886335248325e-03
3.894339398565e-03
3.209529361218e-03
3.730809639925e-03
3.117776647955e-03
0.0
3.867784336933e-03
2.563323944442e-03
0.0
3.036200146822e-03
4.407600196631e-03
5.076924335598e-03
3.778145075046e-03
3.865417070565e-03
3.297599931106e-03
3.075297279978e-03
5.632622103086e-03
3.567491943935e-03
1.510039486835e-04
1.062090790194e-03
2.398810579769e-04
1.837694429977e-03
5.063783013299e-03
5.108968424711e-03
4.804181478442e-03
2.074537259418e-03
4.022688107491e-03
5.049168604238e-03
1.160096365863e-03
2.576389109968e-03
2.078055360937e-03
6.021089235366e-03
5.881485963002e-03
2.857156921414e-03
3.246692301347e-03
3.629498285744e-03
5.229137518708e-03
1.125785695799e-03
4.880206649917e-03
6.831862832840e-04
2.949407645451e-03
3.288357648769e-03
2.441249237017e-04
2.697767110358e-03
5.212641935745e-03
1.752329176366e-04
3.063219008196e-03
3.208047659791e-03
4.245083115866e-03
2.103654506232e-03
2.019431576275e-03
1.421520152248e-03
5.225289819944e-03
5.632171442564e-03
4.908962959162e-03
1.901082200919e-03
7.152422822502e-04
3.069002747989e-03
3.072118229683e-03
3.221248037221e-03
0.0
2.370160903131e-04
5.310782124113e-04
1.561897998935e-03
4.249046179327e-04
3.032717901044e-03
0.0
1.864630217503e-03
4.122518464148e-03
3.216172429738e-03
5.209439031162e-03
4.234717777356e-03
3.854408568460e-03
2.248560931312e-03
6.787283102328e-04
5.869561306561e-03
6.023626633703e-03
3.742684779077e-03
3.077333598062e-03
2.287820883481e-03
6.009559958077e-03
1.773006016400e-03
3.202342050267e-03
3.064099742472e-03
2.912794716067e-03
5.888568312805e-03
6.006021539653e-03
4.166942996851e-04
0.0
8.441431879688e-04
3.250853044044e-03
5.464355466467e-03
1.629622625435e-04
4.849407318231e-03
0.0
4.167229288684e-03
1.911385708274e-04
1.855469029488e-04
3.998077199970e-03
5.296543687334e-03
4.237134437895e-03
3.194088539209e-03
2.435063913800e-04
4.153210895562e-03
5.861217735276e-03
6.009791560538e-03
3.214582083037e-03
4.335922088801e-03
5.878708529905e-03
4.662336340161e-03
6.526260522665e-04
4.186243951470e-04
2.626649538589e-04
2.550412609600e-03
6.014031515604e-03
5.628686910939e-03
0.0
3.011280459441e-03
5.891985303537e-03
6.031512279974e-03
6.009444186578e-03
4.549765932770e-03
5.010826545378e-03
5.864343994050e-03
5.879214029285e-03
4.848773824588e-03
1.474383398766e-04
3.191688509645e-03
3.230904037540e-03
0.0
5.898372924748e-03
6.024797090299e-03
5.861254662737e-03
1.875139568358e-04
1.924224746449e-04
5.871534849748e-03
5.866174925494e-03
4.404639489746e-03
3.191281210692e-03
4.696669621923e-03
3.777426634559e-03
3.187300555971e-03
1.702406008909e-04
1.962141474448e-04
1.658004844312e-04
1.808088655351e-04
3.181347729344e-03
2.857668427393e-03
0.0
4.096797302130e-03
0.0
5.867214387611e-03
5.859324762587e-03
5.872796053912e-03
1.028821985916e-03
1.936630062470e-03
5.864275948506e-03
5.016839626708e-03
5.891943567255e-03
5.328174982674e-03
5.640245512771e-03
2.701665040976e-03
6.022983703665e-03
6.017003585591e-03
5.139388847067e-03
5.463393282501e-03
4.411575174769e-03
0.0
2.784277416710e-03
4.061884078683e-04
5.259286228377e-03
2.908833121132e-03
4.850143225763e-03
1.472710261241e-03
5.420604269261e-04
5.189202363176e-03
3.073447472489e-03
2.406449859391e-03
4.889636581614e-03
5.255592395657e-03
2.405392247394e-03
4.614670723085e-03
4.023251322217e-03
4.374804059548e-03
4.518070815714e-03
2.466020010935e-03
2.911636777842e-03
3.205404967252e-03
4.113353234630e-03
5.029297459228e-03
4.665945937406e-03
1.491277829959e-03
5.243929663885e-03
4.941851688277e-03
3.558682000750e-03
4.285917425276e-03
4.244579152953e-03
5.321773155122e-03
5.122199489663e-03
3.931103671375e-03
5.320806263415e-03
4.878121851522e-03
4.664188533065e-03
5.406777608810e-03
5.283094587084e-03
4.496087669439e-03
4.444458481023e-03
1.481875117849e-03
1.376911560334e-03
7.503612397896e-04
4.158489178226e-04
5.132283977735e-03
5.119873486994e-03
4.012352521065e-04
5.178558947058e-03
3.672287986049e-03
4.759407346754e-03
4.816897172186e-03
2.140610803278e-03
4.851861367702e-03
3.563436395175e-03
4.454648778840e-03
5.513811741196e-03
1.417713283077e-03
5.445572691693e-03
4.665806061983e-03
1.612851643597e-03
1.714759419245e-03
3.438255392646e-03
4.137623841864e-03
2.296870595819e-03
4.830815432738e-03
4.338838747336e-03
3.342675223842e-03
4.545437980776e-03
4.722218982109e-03
4.634762812797e-03
1.261713162161e-03
3.173154214210e-03
5.055839016286e-03
4.803789849080e-03
2.857994266569e-03
4.062765352512e-03
5.318088809597e-03
4.463221862301e-03
7.092725784376e-04
7.188837629253e-04
1.457330486298e-03
4.991375457446e-03
4.302592537165e-03
3.790381226361e-03
3.831560113469e-03
5.088582652342e-03
3.475465703060e-03
4.681796565250e-03
1.519021719428e-03
5.403126934034e-03
3.381852318330e-03
1.662591917742e-03
3.207575975263e-03
2.427493216678e-03
1.903845874229e-03
3.731045389276e-03
0.0
0.0
4.284173046855e-03
1.393362755241e-03
4.325320826384e-03
4.194819161297e-03
2.641355429632e-03
1.719362769164e-03
5.077648961166e-03
6.798414436796e-04
2.568347176664e-03
5.235874665598e-03
1.155384575714e-03
4.027503858662e-03
3.708502873321e-03
1.170523382264e-03
5.180869859233e-03
4.605325228012e-03
1.354425768675e-03
5.208339196432e-03
5.174454579939e-03
1.560392004205e-03
2.066462287853e-03
1.601268088310e-03
4.585233918787e-03
3.608599847271e-03
5.182420533551e-03
5.047083544607e-03
4.455861124158e-03
4.416860348409e-03
1.262227011679e-03
4.546872248422e-03
4.575231375888e-03
3.645268122884e-03
4.332465809534e-03
4.772714813264e-03
3.224253829144e-03
4.911353602778e-03
3.039446067918e-03
3.515433690721e-03
2.274449684328e-03
2.423089078890e-03
4.439297428605e-03
3.365892711140e-03
1.732320824868e-03
8.737837506730e-04
4.468449371054e-03
1.692563081125e-03
5.400363428095e-03
4.604462714681e-03
4.720726376404e-03
5.614884535387e-03
2.906736885669e-03
1.519615723243e-03
9.588952552173e-04
4.497763875840e-03
4.168753252709e-03
6.612546370243e-04
2.334923660638e-03
1.349036943465e-03
4.164466221195e-03
2.463752493733e-03
4.155025201166e-03
2.292333716335e-03
4.974481416777e-03
1.996568548932e-03
4.538601579327e-03
1.422865093935e-03
4.366068561900e-03
3.354002373652e-03
4.590163414602e-03
2.268610930300e-03
1.307910686375e-03
3.881907493683e-03
4.205574957263e-03
2.920421497113e-03
4.187784013099e-03
1.586935699350e-03
4.244922793799e-03
1.226338966711e-03
5.150001748039e-03
4.374413810112e-03
4.622543358684e-03
5.394833408084e-03
3.667741289077e-03
1.224125341458e-03
4.102435654437e-03
5.282422523208e-03
2.057763750215e-03
4.628995763583e-03
4.635584555752e-03
1.589158083945e-03
4.234441115404e-03
3.821646127754e-03
1.821001696294e-03
2.204998645608e-03
3.531838972984e-03
4.458682283978e-03
2.705458114869e-03
3.369397376082e-03
4.409627360570e-03
3.999189459908e-03
3.940589006345e-03
3.315097548747e-03
5.049644574621e-03
3.970188919273e-03
3.865457449800e-03
5.335960465199e-03
4.786774600188e-03
4.326858616178e-03
4.742369029763e-03
2.549037087326e-03
2.376936366428e-03
1.302651264701e-03
4.273366818875e-03
2.508792953611e-03
4.299375558000e-03
4.132696996014e-03
3.389416804488e-03
2.034302780513e-03
2.172486861284e-03
2.165955219120e-03
2.337607654919e-03
1.391516248166e-03
4.919034255652e-03
2.855049591197e-03
4.941701353565e-03
3.027877065094e-03
4.063567962409e-03
3.458337729904e-03
3.331673446639e-03
1.430769057123e-03
5.141025598269e-03
5.386317345378e-03
4.241134245443e-03
2.509978051558e-03
3.760813505748e-03
4.270720268813e-03
2.680282115890e-03
2.797254708148e-03
2.037210772217e-03
1.757966815576e-03
2.721514213298e-03
1.824017326781e-03
1.691969220267e-03
3.496848774705e-03
4.195328690588e-03
4.995266969494e-03
2.135838877742e-04
2.937051639141e-03
2.897351463058e-03
2.682523461315e-03
4.103488450026e-03
3.156230924954e-03
2.130711016344e-03
2.894759596741e-03
4.775391991284e-03
2.173955602432e-03
7.788298120350e-04
1.098630592694e-03
1.847249263452e-03
2.207153680070e-03
3.068504768790e-03
3.066805177260e-03
1.285438509384e-03
1.138227833186e-03
3.930039062681e-03
1.865163626252e-03
4.708651258612e-03
4.829683528524e-03
3.996321467094e-03
4.986241804288e-03
5.148048922335e-03
3.260814721480e-03
4.534131096749e-03
1.457572490377e-03
3.023482251318e-03
2.967208668201e-03
1.645155887212e-03
1.166961927379e-03
2.469642956954e-03
2.937206611966e-03
3.106798960592e-03
1.956772177711e-03
3.328078992345e-03
2.976908204584e-03
3.106378807451e-03
2.248119148986e-03
4.413942525391e-03
4.439751776256e-03
2.976392922480e-03
5.010927287276e-03
1.627877766205e-03
5.381669347488e-03
3.196867194148e-03
5.344914307263e-03
4.057033022443e-03
1.547485956853e-03
4.123901821043e-03
5.087178339347e-03
3.367611906554e-03
2.440942977478e-03
4.251329185006e-03
3.207452396219e-03
1.238538391459e-03
5.593643574323e-03
1.085824202323e-03
5.357726211726e-03
5.214885560155e-03
4.544742657186e-03
3.963126868919e-03
4.882709138368e-03
3.144855381723e-03
3.686700440280e-03
5.279854728997e-03
4.499470890681e-03
4.577778607108e-03
4.305077680676e-03
1.417434976899e-03
4.713217591497e-03
5.753142823153e-03
5.329243380659e-03
2.984954618286e-03
3.988249552619e-03
3.801645055376e-03
3.235172335353e-03
4.367027888535e-03
4.537516687745e-03
9.970547420202e-04
1.879690939538e-03
3.146058965649e-03
3.016269873665e-03
3.169182906176e-03
5.469468509572e-03
5.150681403781e-03
5.240179499594e-03
2.868576175316e-03
4.786586511308e-03
4.405806436379e-03
5.327777423767e-03
4.543377517499e-03
3.194953866719e-03
3.016658390279e-03
4.683655011930e-03
5.186209915555e-03
4.713484120123e-03
4.548206090170e-03
4.976866936040e-03
5.217579174467e-03
4.840160058745e-03
3.891876227783e-03
2.750258353967e-03
4.710107048531e-03
4.455858956637e-03
1.652249011372e-03
3.184856128294e-03
3.569010409292e-03
3.985083673358e-03
1.671830613806e-03
3.055529241679e-03
4.284410717116e-03
3.160882025297e-03
3.286974656951e-03
4.234469480443e-03
3.357266040902e-03
5.832224582001e-04
3.799395819488e-03
4.636565872287e-03
5.317751045333e-03
3.481406310990e-03
3.589447844127e-03
4.274698478407e-03
8.890581030903e-04
4.506465777264e-03
3.816858646074e-03
3.354799917759e-03
4.576186082816e-03
1.676633756965e-03
4.747043128416e-03
5.187298868340e-03
4.376407166304e-03
4.744547438801e-03
4.830907234008e-03
5.222428902797e-03
1.201860364893e-03
4.408544086062e-03
5.240903661220e-03
4.852152895878e-03
4.077198400922e-03
3.222276421181e-03
3.512191017662e-03
9.501978410136e-04
5.017421712005e-03
1.785962296740e-03
1.474080171039e-03
4.696567737555e-03
5.360782323002e-03
1.502195583134e-03
3.694570648950e-03
4.514270677664e-03
3.456703744762e-03
1.710610669055e-03
2.238950842234e-03
1.102844825229e-03
1.463725195595e-03
1.298709706981e-03
3.778806340878e-03
6.016319104850e-03
1.770958764898e-03
5.108227611126e-03
2.760707398476e-03
4.377813891095e-03
1.251866579467e-03
5.389992930062e-03
1.329712956055e-03
2.093643212440e-03
4.546924323321e-03
3.272001809033e-03
5.085454575005e-03
2.505652950449e-03
4.652855770583e-03
5.305274251484e-03
4.381154287587e-03
5.353154153797e-03
4.847010383273e-03
4.984300817298e-03
1.461091507052e-03
4.931565832531e-03
4.651005362573e-03
3.390008201393e-03
2.079335679828e-03
5.500831082514e-03
1.712811546916e-03
1.993152190864e-03
4.885708378640e-03
1.216541976104e-03
3.495171392387e-03
4.675591106622e-03
5.272532937545e-03
5.420840566733e-03
4.583883740699e-03
5.018032232522e-03
2.928193951873e-03
4.734205484299e-03
2.384407325899e-03
5.226115629599e-03
2.691920380854e-03
2.821439891355e-03
3.352681362175e-03
3.005156168196e-03
3.913667205993e-03
3.168162756046e-03
3.350908701417e-03
1.499540076307e-03
3.184302201097e-03
5.155825657334e-03
5.317650690563e-03
4.630365567379e-03
5.181610671434e-03
3.234889799458e-03
4.952004252636e-03
3.313357221722e-03
5.062045811440e-03
4.816274352400e-03
4.818099421099e-03
4.206405183177e-03
3.056304276052e-03
5.021296019776e-03
4.023314824600e-03
1.538746154334e-03
1.749640413363e-03
2.581840747201e-03
3.659895849796e-03
5.198547264467e-03
4.682421595145e-03
3.094059173860e-03
4.145541869622e-03
4.812672239436e-03
5.049278077315e-03
5.190177469339e-03
4.186777916003e-03
4.922584909276e-03
3.519092201106e-03
4.841945469780e-03
3.459285380478e-03
5.318103245047e-03
5.375730321285e-03
3.907284938938e-03
1.543762532817e-03
4.924088818987e-03
3.784631978290e-03
2.966232018542e-03
4.115084444643e-03
4.786551662215e-03
1.580177343230e-03
3.609609721518e-03
4.218839080460e-03
5.235324707913e-03
4.343885302361e-03
4.794481932196e-03
4.091858975395e-03
3.838629298260e-03
4.150165290363e-03
5.016907512540e-03
4.843633938431e-03
4.487236376390e-03
5.391551705940e-03
3.964776956212e-03
2.504722224905e-03
5.126866157334e-03
5.351865102208e-03
3.421523486689e-03
3.585506366848e-03
2.798993443276e-03
4.621665338398e-03
2.797993190934e-03
4.008922037687e-03
2.829376981743e-03
4.717608549950e-03
5.388550033297e-03
2.927070685157e-03
9.888206599125e-04
5.353078015974e-03
2.956776001860e-03
3.401650254318e-03
5.219422455657e-03
4.518245132016e-03
4.710258760874e-03
3.004500417497e-03
7.783076031665e-04
5.413634110948e-03
3.785549847173e-03
4.475770357229e-03
5.138569278830e-03
4.994909691428e-04
4.670933741567e-03
2.116054709690e-03
4.214096454066e-03
3.759983120660e-03
2.888083435173e-03
5.100516085727e-03
3.877479781614e-03
2.594149316670e-03
3.983879265493e-03
8.165376085929e-04
4.568690469440e-03
4.756083401337e-03
5.452995028681e-03
4.864947734128e-03
2.043386112127e-03
4.669335817464e-03
5.443502610785e-03
5.653283028556e-03
4.924221690428e-03
3.131071400812e-03
4.275149951314e-03
5.153531541623e-03
3.483038301481e-03
4.661124208018e-03
4.348587759454e-03
4.969873350217e-03
4.879399467596e-03
3.061812406022e-03
3.059832632554e-03
4.421565437881e-03
4.367095910945e-03
3.892926071110e-03
4.346817112173e-03
3.712232804534e-03
5.218395199065e-03
3.094455246611e-03
6.015990180958e-03
3.548926640244e-03
3.622651461457e-03
3.720989189851e-03
1.917689178557e-03
3.325283759535e-03
4.075520205487e-03
3.823291195348e-03
4.324099751295e-03
4.442674123027e-03
4.635684442585e-03
9.413748427401e-04
3.116803001466e-03
2.990095831993e-03
4.183071766205e-03
4.385629020003e-03
5.129593891230e-03
1.345885066556e-03
1.412365657132e-03
3.622797484364e-03
3.154436867303e-03
2.871305297426e-03
3.029007655749e-03
4.352626062824e-03
1.378394098464e-03
3.551958554456e-03
4.673475020982e-03
1.371021261255e-03
5.626560674904e-03
5.140839489265e-03
3.418542020247e-03
4.761469995819e-03
5.340586268801e-04
4.506684223349e-03
3.820960628806e-03
5.232531716934e-04
5.112554520633e-03
1.291496177796e-03
4.218615333140e-03
3.856857888662e-03
3.312116629244e-03
3.970751915483e-03
5.253907736522e-03
4.273307236226e-03
3.748874096129e-03
3.658427402968e-03
4.072848571604e-04
1.086582957134e-03
4.988340503471e-03
4.027251590836e-03
5.093944963423e-03
2.082136659873e-03
4.849015704641e-03
5.165290452317e-03
3.099958031898e-03
4.951145023831e-03
4.800202598035e-03
4.202189340322e-03
3.419837614494e-03
3.627723820665e-03
5.408792691943e-03
3.669252203194e-03
3.949521165471e-03
3.687500356751e-03
4.577290825851e-03
3.457616430748e-03
2.136542330794e-03
3.737765005847e-03
2.300519927022e-03
4.313534934977e-03
2.336835197399e-03
4.185013498204e-03
5.058632123647e-03
4.845402042790e-03
3.258903797757e-03
4.157867652743e-03
4.893039108893e-03
4.931637404463e-03
1.098595117713e-03
4.276866742041e-03
5.348494697504e-03
2.274754905370e-03
3.720777205156e-03
5.805350037142e-04
5.023459904507e-03
2.007146323956e-03
3.516536072154e-03
4.448684330717e-03
4.188265097601e-03
3.987994876210e-03
3.912543751932e-03
2.560060998670e-03
2.716022476841e-03
5.063727723485e-03
4.170414237267e-03
3.608810319198e-03
4.473149988466e-03
3.442042596625e-03
2.210516303654e-03
2.509306508329e-03
3.743956289805e-03
3.211982025181e-03
4.884087041847e-03
3.294332851053e-03
5.470028085312e-03
4.968312631613e-03
3.648648400585e-03
5.541933827682e-03
2.466546029825e-03
5.345527466215e-03
3.948482313971e-03
4.328605554236e-03
5.112321421620e-03
2.597683647667e-03
4.115029269880e-03
3.480150837066e-03
4.019186076767e-03
2.272393606486e-03
4.466658165347e-03
3.272828574776e-03
3.852140252587e-03
3.985530946530e-03
5.486019707335e-04
3.987424940170e-03
8.554820142323e-04
9.504026979452e-04
3.679756779393e-03
4.895621551102e-03
4.114719913355e-03
2.260582699587e-03
5.890341927598e-03
2.361196323926e-04
2.408933314321e-03
3.696570178526e-03
3.550836608979e-03
2.949897068498e-03
2.521788525811e-03
3.865826064652e-03
4.111851899735e-03
4.291338337805e-03
5.060421643315e-03
1.172731196860e-03
3.380194152908e-03
3.645284340248e-03
1.945070109137e-03
3.263324571413e-03
4.151874911649e-03
4.514501832049e-03
6.678202814271e-04
4.351335771458e-04
1.356777941614e-03
3.683303970356e-03
2.761138937455e-03
2.431180347952e-03
2.170243072616e-03
3.811952085602e-03
4.376533666742e-03
3.777763179950e-03
2.723670872440e-03
4.310662224790e-03
3.611591761329e-03
4.750283438547e-03
3.815774579288e-03
3.851468414051e-03
1.944050795949e-03
2.890987107893e-03
3.905608017061e-03
4.252910968047e-03
3.994175970999e-03
2.110867462038e-03
3.944631663859e-03
2.390664015243e-03
1.124080825949e-03
5.376953591042e-03
1.187499430943e-03
2.482769913719e-03
3.879865431681e-03
2.200126612380e-03
3.952345974418e-03
1.811928905985e-03
3.356343314340e-03
3.983365723056e-03
3.440832380153e-03
3.590886272855e-03
5.778240294564e-04
5.177570466669e-03
2.852018100216e-03
5.139923105349e-03
4.369987342579e-03
4.075819768185e-03
4.112944593259e-03
2.558534294897e-03
8.044732495801e-04
4.846447285548e-04
4.204879470093e-03
5.110788681143e-03
2.351481271792e-03
4.405521083047e-03
2.090274329685e-03
4.476809174747e-03
5.754213561495e-03
1.628784469015e-04
5.886643384746e-03
5.901414175980e-03
3.458575707159e-03
2.812867409509e-03
4.241011420016e-03
2.631198119222e-03
8.395301720451e-04
4.442063176974e-04
5.416028733597e-03
4.290643224771e-03
3.238039868260e-03
6.016407931762e-03
1.526058316679e-03
6.021404174662e-03
4.252293004767e-03
2.770700704573e-03
4.037975120995e-03
2.603169544957e-03
1.275543801189e-03
2.434051418874e-03
4.504021302162e-03
5.149429450184e-03
2.644039120232e-03
4.570681309338e-03
0.0
2.683791218028e-03
4.759413754436e-03
2.380487600569e-03
2.182231533104e-03
4.074582213105e-03
1.142827734401e-03
1.613360141681e-03
1.808060117334e-03
2.084692713343e-03
3.738888209100e-03
3.552566181395e-03
4.601487464017e-03
5.387303345294e-03
1.895037985309e-03
4.547788030597e-03
5.406404464742e-03
2.430574595185e-03
8.388200309560e-04
2.308570276636e-03
3.567446514914e-03
4.605708546548e-03
3.532472732913e-03
9.838862332245e-04
4.035330324993e-03
1.450893591273e-03
3.586284318698e-03
3.831672797715e-03
4.170149154859e-03
4.132286282917e-03
2.127223100425e-03
9.534914560383e-04
4.136513997941e-03
1.590009906794e-03
3.818359164413e-04
5.392622240487e-03
5.134895118372e-03
2.358553379801e-04
4.335577273877e-03
1.652975194542e-03
1.733439247888e-03
4.869520458032e-03
4.202282593856e-03
4.701518647351e-03
2.723483443401e-03
3.214868672807e-03
5.618894135867e-03
1.429456025818e-03
4.994104156300e-03
3.749384831161e-03
1.080098481845e-03
4.468944246879e-03
2.850501028317e-03
5.229780796344e-04
2.395768144624e-03
4.403868178899e-03
4.552935884602e-03
1.122570998338e-03
3.592706244326e-03
4.742720139637e-03
4.941703297221e-03
2.257577943858e-03
1.773224354185e-03
3.849204691397e-03
4.071024716265e-03
5.196053913261e-04
5.764981452674e-03
5.619546678147e-03
3.612944456399e-03
5.643094491975e-03
5.633179208426e-03
2.812315344072e-03
2.684208433063e-03
5.774953852408e-03
0.0
1.642459376677e-03
3.615456688328e-03
2.303853360214e-03
2.356132906425e-03
1.288375400597e-03
1.523495052580e-03
3.689273836909e-03
2.596505031526e-03
1.903570888892e-03
4.768488117706e-03
6.016953446853e-03
6.019036760985e-03
2.772486331110e-03
3.327990862488e-03
3.338379874677e-04
1.033148740315e-03
1.155791037094e-03
1.182207438934e-03
4.038315348238e-03
2.314844929729e-03
2.560267431529e-03
6.984958962329e-04
5.129856721972e-03
2.519676737210e-03
5.369560606069e-03
4.921920194395e-03
6.028148600870e-03
6.024927523322e-03
3.694826416134e-03
2.643467046654e-03
1.596779775992e-03
2.730315514544e-03
5.897744789275e-03
7.273837460651e-04
8.727452914999e-04
5.171338012505e-03
3.477662201300e-03
5.409990092851e-03
4.766370635139e-03
5.205506796535e-03
4.984047288898e-03
3.660646591584e-03
2.009740382611e-03
1.966632147612e-03
4.354966851432e-03
5.090565716970e-03
3.059094088471e-03
3.470038770667e-03
3.693952598066e-03
3.772778857696e-03
9.470076460965e-04
1.787152598033e-03
5.767752696873e-03
4.034960654971e-03
5.756079931259e-03
5.497145112359e-03
4.509775173530e-03
5.432774287522e-03
2.645253503307e-03
2.511337306943e-03
5.406759837386e-03
2.304638287393e-04
1.771966949554e-03
5.883028560639e-03
8.247074295860e-04
3.324809475671e-03
5.529445601793e-03
5.796810560745e-04
3.735041338849e-04
6.010222977965e-03
3.068950323843e-03
5.659948107382e-03
5.391425944959e-03
3.060672020253e-03
3.701494320501e-04
5.629476601577e-03
9.427571928059e-04
5.445974576444e-03
5.891393706380e-03
5.428284510192e-03
1.205305933195e-03
3.730388698424e-03
2.799861645862e-03
4.776394335281e-03
6.019211625133e-03
4.734875419906e-03
6.017874104347e-03
5.525430350756e-04
5.764155817737e-03
1.379826528368e-03
7.818426790372e-04
5.771398210854e-03
5.772672408195e-03
5.750122728571e-03
3.364853212441e-03
3.669284283972e-03
1.289535518306e-03
5.767367083341e-03
2.258902969130e-03
7.533765705701e-04
4.926344783199e-03
3.188420317882e-03
5.482259513434e-03
5.953772275136e-03
5.893932355244e-03
1.556562156404e-04
7.519299109276e-05
3.129847729158e-03
3.204854259840e-03
5.889443725007e-03
5.949944079457e-03
3.717729449494e-04
0.0
5.412787547920e-03
5.428215329942e-03
1.134510679474e-03
5.501228040530e-03
3.826590884489e-03
3.385765392231e-03
4.259215926484e-03
1.033495775153e-03
4.492845514927e-03
9.286955643622e-04
3.016528213225e-03
5.456768976604e-03
5.324962882905e-03
3.256994374191e-03
3.913984556786e-03
5.533514411026e-03
5.100824001865e-03
4.804745634301e-03
3.058531543379e-03
4.339009031687e-03
5.424931143324e-03
1.698845153725e-03
4.086781350246e-04
5.273729960381e-03
4.969714239598e-03
7.789488230220e-04
4.461302677928e-03
5.625097067299e-03
5.215165969830e-03
5.527785936846e-03
4.184635835076e-03
2.450732908034e-04
1.273338932172e-03
1.607268086116e-03
3.578185125380e-03
4.310413086534e-03
5.506795170732e-03
5.617673364480e-03
6.645911850498e-04
6.388748237895e-04
1.019502716968e-03
4.467708076661e-03
2.159520161712e-03
5.529519713859e-03
1.082739524012e-03
5.378468444183e-03
3.624426704377e-03
5.642484205688e-03
4.966747949266e-03
3.587861483021e-03
5.771512121934e-03
5.779451194585e-03
5.760792399076e-03
7.089390944598e-04
5.397932790268e-03
5.622343722044e-03
5.472950722519e-03
5.052268972404e-03
5.880549672383e-03
4.768122438881e-03
0.0
9.845756963829e-04
5.283361989644e-03
3.879740068610e-03
5.433335536349e-03
5.248543119057e-03
5.652713428879e-03
4.807093912347e-03
5.652238210164e-03
5.501769948461e-03
5.478616351915e-03
2.254971077609e-03
6.018212737185e-03
3.451522871175e-03
5.433186761320e-03
5.068656971482e-04
5.235659828438e-03
4.498616084438e-03
6.477069853907e-04
1.135724772342e-03
4.905082491478e-03
5.637492893173e-03
5.504426529729e-03
5.673913725339e-03
3.852881204388e-03
3.799041860716e-04
5.935897059171e-04
4.188938165998e-04
8.250409444332e-04
1.478748655911e-04
2.994768496769e-03
5.427348189453e-03
5.458882754827e-03
3.883455718842e-03
2.608660953034e-03
5.476751558410e-03
5.429576111220e-03
5.784117117048e-03
5.420830804507e-03
5.193598780718e-03
5.135394386581e-04
5.681154926280e-04
5.488737210923e-03
5.166391021770e-04
7.619709822300e-04
4.832364846617e-04
5.799786674799e-04
5.645675802183e-03
5.655037542831e-03
5.514781828190e-03
5.671443408194e-03
5.255264111174e-03
4.033418773149e-03
5.899144122698e-03
1.388436502105e-03
3.180255969687e-03
8.723897877041e-04
2.133422569491e-04
6.015531814482e-03
3.502525969212e-03
8.808568387309e-04
2.855369314806e-03
5.783822611068e-03
5.499347830224e-03
5.655534667044e-03
2.044016280955e-03
5.432286145460e-04
5.780287558169e-03
6.015607847563e-03
6.035949087319e-03
3.352497016113e-03
5.397561630392e-03
7.778562056283e-04
5.539597143375e-03
2.048357633213e-04
5.660676748682e-03
5.761438663708e-03
2.169999861618e-04
5.276842850465e-03
4.633513032721e-03
5.657467102238e-03
5.913925366103e-03
4.247858577439e-03
5.671720231099e-03
5.525428271373e-03
4.362177274662e-03
5.479739394229e-03
2.387201356291e-03
3.053723610195e-03
5.526446984934e-03
5.736294853841e-03
0.0
3.063983621229e-03
5.747940021174e-03
1.061697143843e-03
5.531390322423e-03
5.495470709881e-03
5.762937850711e-03
1.031440225739e-03
8.053626735849e-04
3.509970528096e-03
5.010988788466e-03
1.260771232344e-04
5.677193264911e-03
4.090526400836e-03
1.039673297651e-03
3.888574816327e-03
5.772338171833e-03
3.681185629208e-03
3.038880930972e-04
2.159618659613e-03
3.184608949978e-03
3.800834338169e-03
5.524986598456e-03
3.091083311451e-03
3.266927546245e-03
5.190819916672e-04
5.520367014093e-03
5.284258696945e-03
8.877738012256e-04
5.674860832192e-03
5.710960226183e-03
3.423111596940e-03
4.198163726001e-03
3.122389092001e-03
3.191264477013e-03
3.380114392671e-03
5.252725700940e-03
7.633269386087e-04
5.525012493521e-03
3.559702453178e-03
5.772557366742e-03
5.241338347213e-03
3.993508198578e-03
5.321259532480e-03
5.468684898978e-03
5.796731642521e-03
2.386710946759e-04
5.348756869278e-03
5.540450075665e-03
5.978130445140e-04
2.916813067192e-03
3.606876982128e-04
5.579480516134e-03

SCALARS element_materi_plasti_phimob float
LOOKUP_TABLE default
1.006591354868e+01
6.737962374230e+00
2.032776342766e+01
1.596148811236e+01
-1.738367970022e+01
-7.427354925047e+00
-1.751268290096e+01
8.505394805102e+00
-1.566890625540e+01
1.588951000120e+01
2.175660016385e+01
5.808210762011e+00
2.098846159396e+01
-3.661877546548e+00
2.077786778937e+01
1.656411066484e+01
-1.771959200223e+01
-7.736761744095e+00
1.133428671208e+01
1.231738226775e+01
1.584367039864e+01
8.422965831192e+00
1.029580940950e+01
2.194817151000e+01
5.972319126383e+00
2.180971050285e+01
3.253186204739e+00
2.240908691459e+01
7.897834060608e+00
2.188915145089e+01
2.282893196760e+00
-2.060980090937e+01
2.013714510427e+01
2.149065726963e+01
2.123365939568e+01
2.091915026758e+01
2.081312962196e+01
2.207805065284e+01
-2.619970411284e+01
-2.630080774573e+01
1.153525863756e+01
2.102150268244e+01
5.422650164020e+00
1.088838902681e-01
1.518120807512e+01
4.034391595053e+00
-4.518002503371e+00
1.544854605659e+01
-2.194542985989e+01
-5.210630942441e+00
1.125558765866e+01
1.452712019505e+01
1.153561897952e+01
8.966764806390e+00
1.870097451083e+01
1.803050441141e+01
1.545446444582e+01
2.156107658470e+01
5.661900711664e+00
1.652767522861e+01
-2.716902247113e+01
2.270442633576e+01
1.721192259924e+01
9.303766639704e+00
2.099733821191e+01
8.526502893256e+00
-2.993929075267e+01
2.041694950327e+01
6.187384167841e+00
2.153686848869e+01
2.179635100838e+01
1.888816998959e+01
2.191196631633e+01
-1.314816456901e+01
1.868136077273e+01
1.627950818481e+01
1.848985853923e+01
-7.240331488577e-01
6.253707392087e+00
2.385717823104e+00
6.639209029458e+00
-1.580533001730e+01
1.026633396675e+01
7.343449633838e+00
-8.860149501371e+00
-1.006436944777e+01
2.172968115622e+01
2.160939256291e+01
1.831291356501e+01
-1.427722807887e+01
-2.106385507473e+01
3.957426963732e-01
1.086419130741e+01
1.025655116683e+01
1.784895401157e+01
2.154563056682e+01
-1.297200025898e+01
2.152522616708e+01
3.917935521434e-01
1.431637275389e+01
-2.034016088674e+01
2.085280296352e+01
2.322443614234e+01
2.232802449769e+01
1.577820314745e+01
-5.935486063054e+00
2.120447090645e+01
1.252423787433e+01
-2.263817393571e+01
2.074148545996e+01
1.841915677195e+01
-2.464038626469e+01
2.234901061628e+01
1.182106847761e+01
2.034820761418e+01
1.368653810098e+01
1.672648867719e+01
2.104938766717e+01
-2.322904846960e+00
1.696500096224e+01
5.384934827312e+00
3.612420697771e+00
1.279384333257e+01
1.631913920043e+01
-9.653632587269e+00
1.263664833553e+01
2.003976829641e+01
9.549115864665e+00
1.704645531774e+01
-3.904673009076e+00
2.182191086752e+01
1.600924755162e+01
1.711015295532e+01
1.232729814563e+01
2.141601863998e+01
2.096093585639e+01
2.179496211821e+01
1.709258776642e+01
2.171307042901e+01
1.478668246146e+01
1.651334788063e+01
2.192838391042e+01
-2.876685232978e-01
6.723850803209e+00
1.523237042860e+01
9.475197100546e+00
1.863522390370e+01
1.871904847192e+01
-2.064384601597e+01
2.172384477838e+01
-2.199405016928e+01
-1.111082806029e+01
7.453287625395e+00
1.281380929985e+01
2.111008683548e+01
1.651270519693e+01
2.170614943913e+01
5.454611628019e+00
2.369985134288e+01
-2.152458278618e+01
2.228077053389e+01
2.144100005756e+01
5.509963040088e+00
2.123367651640e+01
1.185784153428e+01
2.115216604145e+01
-2.218083103887e+01
1.873253644021e+01
8.564265833419e+00
2.187129908034e+01
7.727131016401e+00
2.153274574726e+01
8.729535044453e+00
-2.176781390851e+01
2.087676627097e+01
9.320119446041e+00
2.124501790499e+01
2.068797345732e+01
2.179274739621e+01
2.198634193382e+01
1.097076180236e+01
2.083089939385e+01
2.251237057943e+01
1.306748991688e+01
9.360492939374e+00
8.988359842172e+00
2.063100594429e+01
1.643981989924e+01
1.654672880668e+01
2.133996412137e+01
2.289003651337e+00
2.121277625021e+01
1.800912152738e+01
-3.061481607582e+01
1.221113424297e+01
2.275929784376e+01
-2.984577413191e+00
1.903458812090e+01
1.204380084127e+01
2.206824383039e+01
2.318407909693e+01
5.648008546573e+00
4.727202247601e+00
2.157324212251e+01
1.912482370880e+01
2.017329920559e+01
1.434309216681e+01
1.280346873037e+01
1.252674576063e+01
1.204882656654e+01
2.371326352604e+01
2.047965490641e+01
-2.523850571077e+01
1.121279809345e+01
1.454210850256e+01
1.877556746039e+01
1.676782239756e+01
4.431639219299e+00
2.286541785654e+01
-2.119917860303e+01
2.199772767535e+01
2.292367680522e+01
-1.692812840577e+01
1.395997835757e+01
-2.298849048785e+01
-1.869726721078e+00
3.992038979997e+00
1.708110412849e+01
1.447387068374e+01
1.552176430350e+01
9.615859121584e+00
1.087667721514e+01
8.793949909736e+00
2.301804241304e+01
1.364525031048e+01
2.106924510180e+01
-3.556804534783e+01
1.449747556213e+01
2.323352402102e+01
1.195357105714e+01
2.329039726235e+01
2.110914734059e+01
1.573399660374e+01
1.840524035116e+01
2.263149149250e+01
2.180555013471e+01
1.840617525208e+01
1.388746783232e+01
2.195718904506e+01
2.247711201248e+01
1.024058434551e+01
1.361863524637e+01
1.775389430791e+01
2.014616522873e+01
2.392616404737e+01
-8.474294436002e+00
2.523588294304e+00
1.064482097355e+01
1.930868409795e+01
1.193543044511e+01
5.075396053608e+00
1.414268005357e+01
1.460306871901e+01
1.927382423537e+01
1.467202567221e+01
1.681792827756e+01
1.790026699045e+01
2.081768010657e+01
2.462202490226e+01
1.722749067483e+01
2.183529789345e+01
2.397770015246e+01
1.675485912170e+01
-4.777704359737e+00
2.311594880329e+01
1.998979793508e+01
1.539098758725e+01
-2.326287161648e+01
1.141175191371e+01
2.087151453156e+01
1.359119178593e+01
1.569123572224e+01
1.453950782602e+01
-5.573212696474e+00
1.485543188645e+01
2.453342826202e+01
1.325154869132e+01
2.454695275031e+00
-1.170353062993e-01
2.099355919106e+01
1.876084392763e+01
1.171204939018e+01
1.441971479682e+01
1.489927328185e+01
2.362912723467e+01
2.298487869703e+01
3.075610124752e+00
2.320128411654e+01
2.015625595243e+00
1.971019389666e+01
2.076021259755e+01
2.139138768499e+01
1.824249272546e+01
1.200976752322e+01
1.822783231812e+01
1.498250395093e+01
1.972772822814e+01
1.806058296239e+01
1.638298857761e+01
2.154990318812e+01
2.418759230611e+01
7.391930073798e+00
2.139693410605e+01
1.597243744166e+01
1.964236397771e+01
8.936165288123e+00
2.413330339357e+01
2.384554797443e+01
2.061112935522e+01
1.554340144690e+01
2.179660052014e+01
2.257868024030e+01
2.399959066622e+01
5.984957884818e+00
5.575759695889e+00
2.333970813030e+01
1.165464297116e+01
3.716356307592e+00
2.220347021591e+01
2.293167928314e+01
2.148902396999e+01
5.251426083360e+00
1.871519631374e+01
6.623127617200e+00
1.447079319917e+01
1.648676739304e+01
1.643293886589e+01
2.045263276746e+01
2.218643298429e+01
6.794142940330e+00
1.033029309201e+01
2.217906044945e+01
1.391718263685e+01
1.283640494036e+01
1.559965350760e+01
-2.162861979265e+01
1.965379043693e+01
2.068793775259e+01
1.539518081813e+01
1.480007602280e+01
1.541891465095e+01
2.444208887914e+01
2.352359874757e+01
2.198232963619e+01
1.338766642952e+01
2.001236705512e+01
2.128627519802e+01
9.249695392302e+00
1.233660626254e+01
1.793748972671e+01
1.927138913631e+01
1.270225067540e+01
1.397905256720e+01
2.169431287531e+01
2.208959805724e+01
1.769054297277e+01
1.440527317031e+01
2.311857173843e+01
1.712050471011e+01
1.723538050681e+01
1.993204615605e+01
1.978010645899e+01
2.381817186463e+01
2.167584563267e+01
1.662260676709e+01
1.897167375964e+01
2.064953972982e+01
1.733970522582e+01
1.914521626108e+01
2.107946898486e+01
2.037490393522e+01
1.895424328332e+01
2.317293271953e+01
1.443635453897e+01
1.117631759933e+01
2.169735525420e+01
1.082492003535e+01
1.509691664681e+01
-7.691347090051e+00
3.527810420385e+00
2.191582230794e+01
1.934059600735e+01
1.263096443186e+01
1.742432865829e+01
1.478692572510e+01
-5.425453903757e+00
2.330601422798e+01
2.157951974853e+01
2.268561955500e+01
-4.185037217476e+00
-9.062643556343e+00
1.171071249960e+01
1.719493390073e+01
2.075389305463e+01
2.369039259176e+01
7.697620630864e+00
6.064299697699e+00
2.060858674009e+01
2.264262865865e+01
1.557562038960e+01
2.205481997652e+01
1.314002820943e+01
1.867376035370e+01
2.210289703089e+01
1.549991582976e+01
2.347045872726e+01
2.209864502921e+01
2.160232186285e+01
2.053984683034e+01
2.116143363159e+01
1.656418919662e+01
1.573049285172e+01
1.915844807682e+01
1.950644006740e+01
1.741861881856e+01
2.125485255218e+01
1.679319381962e+01
2.222229177147e+01
1.567283093317e+01
2.388952120318e+01
1.585272844587e+01
2.261546016324e+01
2.211098289542e+01
1.498146465241e+01
1.108061232989e+01
1.721423221637e+01
1.952040513501e+01
2.182348300831e+01
2.165189366276e+01
1.829398920840e+01
2.125746063475e+01
1.808608295821e+01
2.172587785321e+01
1.917984492957e+01
2.030319588324e+01
-2.262711858601e+01
2.176573189640e+01
2.137455261319e+01
1.922521085912e+01
2.384056475163e+01
2.191653682075e+01
-5.272251865227e+01
2.110758586901e+01
1.963201351070e+01
2.089213605754e+01
1.900258858410e+01
1.304554845447e+01
2.167522366936e+01
2.282907660707e+01
-5.358871182188e-01
2.124597840974e+01
-2.208846656050e+01
1.452066195276e+01
4.554875363919e+00
1.055209572171e+01
2.156903143604e+01
2.149982840672e+01
1.556363039948e+01
-5.206884370711e+00
-5.545710012920e+00
2.500710461271e+00
2.196376373875e+01
-6.860113784217e+00
8.919762057278e+00
2.131261777587e+01
-1.167042694139e+01
1.936013397577e+01
2.311340249308e+01
-5.394352480835e-01
1.341166673764e+01
2.432212771206e+01
7.102991589732e+00
2.111731706371e+01
2.140422203003e+01
2.088843296377e+01
2.299383840026e+01
2.077317331679e+01
2.178225197065e+01
2.322107622682e+01
2.095103638317e+01
1.632539946818e+01
2.168388317739e+01
2.214781968150e+01
2.717209673252e+00
2.129806051556e+01
-6.306491604452e+00
2.080553971988e+01
2.119061299165e+01
2.178470656539e+01
1.917015629153e+01
-4.715385510630e+01
2.229503079076e+01
1.499747765559e+01
2.174160302915e+01
1.725588738056e+01
2.330777518575e+01
4.350306366938e+00
2.184812927430e+01
2.157472356145e+01
2.125372142457e+01
-2.169054081777e+01
2.159165033836e+01
1.316903418947e+01
2.252165557974e+01
-3.163976740379e+00
1.859073212558e+01
2.074891600690e+01
1.798897413005e+01
2.121707780402e+01
2.127138665431e+01
2.293039208100e+01
2.232847080083e+01
2.360387902754e+01
2.161928841080e+01
2.310255305598e+01
2.127069187035e+01
2.177602925194e+01
2.399242529339e+01
2.271451981533e+01
2.211815570577e+01
1.730439387166e+01
2.113632960075e+01
2.289426907429e+01
2.460970041445e+01
2.147659003213e+01
1.605161757069e+01
1.785980075941e+01
2.086965992737e+01
2.201451065326e+01
2.383308986092e+01
-2.208918084860e+01
2.125074236836e+01
1.684475737328e+01
1.998253962383e+01
2.070561255084e+01
2.289058878579e+01
1.736674584314e+01
1.028980020409e+01
2.402885149529e+01
2.298327439353e+01
2.363891752222e+01
1.279471292636e+01
1.674332095046e+01
2.380113826973e+01
-5.868340205608e-01
2.161974044363e+01
2.416720035367e+01
2.075491462231e+01
2.236318297681e+01
-4.221956428700e+01
1.806146775296e+01
2.029212062056e+01
2.207433009494e+01
2.365391273333e+01
2.330780380303e+01
4.934125015332e-01
1.913241913109e+01
2.066586916832e+01
1.988929907737e+01
2.202558838653e+01
2.042799221477e+01
2.171592324739e+01
-4.906647512851e+01
1.108783122391e+01
2.046566466308e+01
-5.855813538313e+01
2.170509826891e+01
2.304614442248e+01
1.337466426934e+01
2.377907281241e+01
2.412699595760e+01
8.270018921474e+00
-1.823689436733e+01
1.771499758685e+01
2.088272018686e+01
-6.292612095519e+01
8.566026960969e+00
-2.230630542675e+01
1.794184681442e+01
2.110893096296e+01
1.333052367074e+01
2.222500285481e+01
1.911465241694e+01
2.212923845421e+01
2.249016563127e+01
7.799954748871e+00
2.034926841719e+01
1.889207556370e+01
2.119121053248e+01
2.063015893551e+01
2.097576686564e+01
2.171055267884e+01
2.331143150946e+01
2.237397008556e+01
1.121262169093e+01
2.262057623369e+01
-2.642827581390e+00
2.138323518526e+01
2.201899454327e+01
-1.935997269865e+01
2.063301593005e+01
1.596755256756e+01
-6.132627303936e+01
-1.209084053680e+01
-1.723717714570e+01
2.361322873798e+01
1.882984170760e+01
2.054312482742e+01
8.421023683371e+00
2.164221640657e+01
2.172165898398e+01
1.200279833439e+01
1.261972033590e+01
-3.356217960625e-01
1.492840373228e+01
-2.567504626659e+01
-3.153899919259e+01
-5.773918024858e+01
-1.990873384132e+01
-1.674638816171e+00
1.639731992566e+01
-1.882710166586e+01
2.129430716086e+01
-3.913532973716e+01
1.854225054378e+01
4.697283996612e+00
-3.141502121689e+01
2.075213348387e+01
2.302731601175e+01
-7.842598795845e-01
1.943313615991e+01
-2.301155662624e+00
1.803131206914e+01
1.741592895561e+01
-5.937165882813e+00
-2.419103339296e+01
1.946755208874e+01
1.725810550733e+01
1.739277371692e+01
-2.713363041626e+01
-2.155323956023e+01
1.153815094432e+01
2.018314252367e+01
1.727486416526e+01
-1.955708738870e+01
-5.731299217355e+01
4.655078833401e+00
2.240176478336e+01
2.110738670522e+01
-2.846898383259e+01
1.185132628086e+01
-4.203937572211e+01
2.388348230835e+01
-3.731181045437e+01
-3.301233681339e+01
2.388399255696e+01
2.128583422152e+01
4.380208415345e+00
1.674293283307e+01
-1.910573209634e+01
2.201585927450e+01
1.739303530583e+01
1.716494662840e+01
-3.243728802321e+01
2.382713947850e+01
1.781811584098e+01
2.299623707047e+01
-2.767576021337e+00
-1.888983793907e+01
-1.945235082828e+01
2.030081525564e+01
2.083900545448e+01
1.601562241963e+01
-5.717537247941e+01
2.118958171671e+01
2.050044038792e+01
2.090364488881e+01
2.115422848635e+01
9.287512006031e+00
1.291527217089e+01
2.048877356287e+01
2.050001709870e+01
1.185863265923e+01
8.999999999681e+01
-3.051151752077e+01
-3.200614519036e+01
-5.729812674197e+01
2.052919183357e+01
2.113152067309e+01
2.054619123879e+01
8.999999999681e+01
-6.037857257923e+01
2.059751991450e+01
2.057294652314e+01
7.639319103502e+00
-2.993888172224e+01
1.067678805344e+01
-4.599418248415e+00
-2.969900864853e+01
-6.166815167917e+01
-5.936905614125e+01
-5.702666307824e+01
-5.227286509854e+01
2.142291565550e+01
2.094029539493e+01
-5.736462496210e+01
2.179734143892e+01
-5.537571560161e+01
1.931143533055e+01
1.765221149773e+01
1.827970423146e+01
9.377584220022e+00
1.812438385259e+01
1.752223047150e+01
2.143659436039e+01
1.752148690383e+01
2.122249731355e+01
2.096409741645e+01
2.063713030301e+01
1.716990232766e+01
1.720566028998e+01
2.130611216744e+01
2.108442605803e+01
2.179736529748e+01
-4.539669679147e+01
2.103766400412e+01
-2.045416786755e+01
2.153226184925e+01
2.169477263924e+01
2.168248317120e+01
1.487017148530e+01
-3.557587888172e+00
2.140083519852e+01
2.139658781158e+01
2.004060198063e+01
2.161659030219e+01
1.449387123844e+01
1.989700486210e+01
2.267771252399e+01
2.265434195232e+01
2.189496358731e+01
2.177521362398e+01
2.326762702605e+01
1.514503438673e+01
2.260883131676e+01
2.219857291565e+01
2.149191822953e+01
2.166774189393e+01
1.611034253183e+01
1.433840743586e+01
1.251319115873e+01
-1.478883358603e+01
2.224919353243e+01
2.204219541825e+01
1.450788138176e+01
1.357355946076e+01
2.251184804278e+01
2.124824557749e+01
1.200682146175e+01
2.160087822215e+01
2.132963243103e+01
1.433867183718e+01
8.382133300555e+00
2.269718207648e+01
1.540281637934e+01
1.478756534288e+01
-4.829225052483e-01
-2.178253142491e+01
1.354786094847e+01
2.136708729170e+01
-2.207433675817e+01
1.762605777504e+01
-8.391128614204e+00
2.175012539999e+01
2.159893749818e+01
2.093119888921e+01
2.156591791889e+01
-1.402758693154e+01
2.358478515627e+01
2.116868992214e+01
1.490784567751e+01
2.145451926287e+01
1.009883865714e+01
1.641274175696e+01
1.720435505325e+01
2.172916385271e+01
3.534263950690e+00
2.029842727896e+01
1.152675185894e+01
6.721568637291e+00
2.197595482580e+01
2.172295404615e+01
2.167727467902e+01
1.009414982003e+01
1.247158854721e+01
2.171521408974e+01
2.315741912360e+01
1.121081335085e+01
2.133460072011e+01
2.235362919807e+01
2.163039599870e+01
8.328424800698e+00
-5.592241826027e+00
-7.168203443341e-01
1.373207379425e+01
2.153355795451e+01
6.210833836160e+00
2.173570993325e+01
-3.417981861212e+00
2.224625738439e+01
2.193157474369e+01
2.173421940363e+01
1.520016453245e+01
2.145227663211e+01
2.173595071047e+01
1.626049024384e+01
2.151153039639e+01
2.054158365735e+01
1.812594795103e+01
2.183681703826e+01
-5.700365382150e+01
-5.602683706865e+01
2.190881515220e+01
1.396334619336e+01
2.205317588433e+01
2.220044077011e+01
2.158736975638e+01
1.853749076557e+01
1.312955927026e+01
-5.088730935800e+00
2.078313319041e+01
2.209213086237e+01
1.190492189012e+01
1.215463524421e+00
-7.639241057944e+00
1.090312144993e+01
2.186963394435e+01
9.439067894058e+00
1.419836266899e+01
1.396043385293e+01
1.402833683308e+01
1.558597228644e+01
1.358007707535e+01
1.602336985926e+01
2.178059711871e+01
2.189072809299e+01
1.675026510544e+01
1.316672818717e+01
2.191390136539e+01
2.206282647076e+01
1.314398449973e+01
2.188865985041e+01
9.353376947053e+00
2.175152588856e+01
6.329222503336e+00
1.091872641342e+01
2.454289871164e+01
1.223889774831e+01
2.147220964514e+01
2.176076824790e+01
1.991183587579e+01
2.075660464309e+01
7.885487084771e+00
2.273142921469e+01
1.695922433458e+01
4.512367769838e+00
7.981891057213e+00
1.731554567730e+01
2.149244313573e+01
9.701610841845e+00
2.186191452655e+01
2.132159310266e+01
2.110160100527e+01
1.586609595308e+01
7.874717938405e+00
2.206993402296e+01
4.225403359643e+00
-1.041447924734e+00
1.989447249694e+01
1.346174291552e+01
3.784252357441e+00
2.014520283793e+01
2.244717582963e+01
1.972500067502e+01
1.249119852990e+01
1.908946209889e+01
2.225975556279e+01
1.421086892606e+01
2.224468933716e+01
2.159648397021e+01
2.206065875278e+01
2.254531023855e+01
1.370592548199e+01
-2.098612502528e+00
2.341930181751e+01
2.092903503631e+01
4.315295453263e+00
1.617576781111e+01
5.346195839254e+00
1.201606748070e+01
2.175085389806e+01
2.339345280465e+01
2.340188482627e+01
1.490985061068e+01
2.283178828043e+01
1.265948180346e+01
2.261342290802e+01
2.176381054543e+01
1.975922743039e+01
2.190450902270e+01
9.727487558379e+00
1.749976407648e+01
2.242604798689e+01
-3.422125895523e+00
1.739961164933e+01
1.955112512019e+01
2.214187638802e+01
2.227270486240e+01
1.728347733376e+01
2.242548045237e+01
7.524733191276e+00
9.214512762353e-01
-6.063676481176e-01
2.173555904774e+01
2.210653526199e+01
2.280436283851e+01
-2.883405793406e+00
1.894753440535e+01
2.317269380843e+01
2.249560715777e+01
1.090980607672e+01
2.095980045276e+01
2.030278262601e+01
1.293293959685e+01
2.267583062687e+01
2.055723002799e+01
5.894354114793e+00
3.408522234378e+00
2.399011875114e+01
1.961005327322e+01
2.196953106010e+01
1.999522192557e+01
2.078932894429e+01
1.468144945872e+01
2.236035230742e+01
2.262906765504e+01
1.220757135947e+01
2.307172415780e+01
2.297124260986e+01
2.309580178410e+01
2.322835547072e+01
1.438478005608e+01
2.204052333383e+01
2.176244939442e+01
2.230976947413e+01
2.149176148636e+01
2.309179832748e+01
5.651392573611e+00
2.112323424827e+01
2.073801662587e+01
1.873665724767e+01
1.777016534684e+01
2.153982534314e+01
1.805517486047e+01
1.657668006646e+01
2.261792807942e+01
2.272895106184e+01
2.205477507257e+01
-5.687064319815e+01
2.365899795989e+01
2.315875207077e+01
2.210965288827e+01
2.887579397148e+00
2.295431510191e+01
1.953319845074e+01
2.204442018728e+01
1.123467006016e+01
1.927651694114e+01
3.623379145808e+00
1.063292568801e+01
1.930693091454e+01
2.054248224585e+01
2.356671601604e+01
2.247412744441e+01
1.241662058027e+01
1.066195258102e+01
1.458572922462e+00
1.773768101641e+01
2.271179522515e+01
2.239385869204e+01
1.309573618278e+01
1.316840000237e+01
2.171479697538e+01
2.389262628598e+01
2.238883945749e+01
1.476365075822e+01
2.205221315214e+01
2.391009580416e+01
1.817686197376e+01
1.007313287660e+01
2.098442285347e+01
2.250301325448e+01
2.290563191215e+01
1.867055865540e+01
2.327531629883e+01
2.294638887883e+01
2.401754295102e+01
1.998776007629e+01
2.353570668371e+01
7.758434348218e+00
2.408862438058e+01
2.232280841874e+01
1.669496155798e+01
2.205634707764e+01
2.343080862650e+01
2.161092686552e+01
1.927552263525e+01
1.681911350129e+01
1.466281722786e+01
1.485329400245e+01
2.371460575965e+01
2.026415150415e+01
1.646873980000e+01
2.180220741094e+01
1.288895814188e+01
1.650648941816e+01
9.955571679269e+00
2.242787066310e+01
1.416899001789e+01
2.331603881664e+01
-3.511701360400e-03
1.205323569842e+01
2.331263866764e+01
2.403154739661e+01
1.497942644696e+01
2.250858541062e+01
9.439383617561e+00
2.361812789917e+01
1.547055026528e+01
1.099401612057e+01
2.228424322290e+01
2.187878611800e+01
2.257018435768e+01
5.261351914413e-01
-4.560990629037e+00
2.283146566705e+01
2.276336275961e+01
2.275591655193e+01
7.734440759630e+00
1.992574719714e+01
2.436712095647e+01
2.334021168417e+01
2.300600268542e+01
1.559875944853e+01
1.762982951808e+01
1.409874224044e+01
1.726313023651e+01
1.299164400227e+01
2.246411795528e+01
1.487715986554e+01
9.939842337686e+00
2.242224208261e+01
2.438182669874e+01
1.078162319328e+01
1.405542148079e+01
1.070193409448e+01
9.215632733186e+00
2.215074907641e+01
2.259406235793e+01
2.242140798388e+01
2.287002222666e+01
1.192229528369e+01
2.320016725274e+01
1.219609473554e+01
1.684355723859e+01
2.364785085837e+01
2.426640756656e+01
2.392992494700e+01
1.855412877634e+01
2.362797382972e+01
2.371472748346e+01
1.618777877209e+01
2.282188525657e+01
6.498386390468e+00
-2.193247631521e+01
4.319525581686e+00
2.267224988433e+01
2.344481329151e+01
1.760208506053e+01
2.461925751306e+01
2.291053045386e+01
5.841535449999e+00
8.141118600615e+00
2.372416923114e+01
2.395559912164e+01
1.623454337432e+01
2.246649139964e+01
1.724102647733e+01
2.243014245926e+01
2.220260285376e+01
2.397124853529e+01
1.078908084993e+01
2.269772664243e+01
2.197339498027e+01
9.420229799058e+00
7.981640842493e+00
2.255551630713e+01
1.197120634593e+01
2.428720167802e+01
2.385825707691e+01
2.220160187526e+01
4.714438934974e+00
1.305024056771e+01
1.761822269782e+01
9.961956672278e+00
2.254505599297e+01
1.494473960394e+01
1.533953329688e+01
2.177433463020e+01
9.502942532058e+00
2.227765187692e+01
1.747971481022e+01
2.056573199692e+01
1.060423109289e+01
1.615657352123e+01
1.382192729406e+01
2.451389150676e+01
1.859432784214e+01
9.919550830176e+00
2.188314771458e+01
2.405017658826e+01
9.015008822601e+00
1.223516274719e+01
2.183148788342e+01
1.302679636889e+01
1.913647259129e+01
2.381155509853e+01
2.323217490956e+01
2.279888438749e+01
1.903069474580e+01
1.296687960106e+01
2.264585282916e+01
7.514288246171e+00
1.770926869973e+01
1.243524469634e+01
1.377540744916e+01
1.428177732232e+01
2.197608890111e+01
1.134641896005e+01
2.450661869668e+01
9.539028178049e+00
2.211575171353e+01
1.864544559560e+01
1.835083476341e+01
2.338705362128e+01
1.204642732885e+01
2.304815671778e+01
2.358037283731e+01
1.536928138477e+01
1.639227807862e+01
2.341555442130e+01
1.324949752161e+01
2.425291516444e+01
2.185476553489e+01
9.385576343220e+00
2.014998672886e+01
1.007989679100e+01
1.087925777260e+01
2.464090066278e+01
1.171804692284e+01
2.354061636370e+01
2.331259722470e+01
2.386225912278e+01
1.666947611152e+01
2.456434722427e+01
1.405643714344e+01
1.908203003035e+01
2.226471840223e+01
2.289980493865e+01
2.388388599255e+01
1.360096527868e+01
2.454190485453e+01
2.173775782905e+01
1.224450393017e+01
1.330112488619e+01
2.407892255070e+01
2.447831139577e+01
2.187500184504e+01
1.893427026673e+01
1.575169119585e+01
1.759756279910e+01
2.111518414132e+01
2.186689249372e+01
2.152795245523e+01
1.172725502912e+01
2.375321487397e+01
2.161521554355e+01
2.330710212119e+01
1.305952063530e+01
2.164409191945e+01
7.097446410369e+00
2.281032994239e+01
2.398729612782e+01
2.295383293208e+01
2.339055424745e+01
1.499238899284e+01
2.135763366973e+01
2.434898692812e+01
1.696004732961e+01
2.306505536534e+01
2.324502730934e+01
2.351992738453e+01
2.379511366844e+01
2.261550480007e+01
1.591614629902e+01
2.451397240839e+01
1.572207170187e+01
2.144354284360e+01
1.749304289078e+01
2.298273879070e+01
1.419475696473e+01
9.876793607593e+00
2.014422768129e+01
2.315631084152e+01
2.202850029929e+01
1.056074527295e+01
1.633001414104e+01
1.236847372641e+01
2.238927745968e+01
2.250183375283e+01
1.484662577174e+01
2.409907606789e+01
2.386189201594e+01
2.325045575452e+01
1.250242351049e+01
1.938009590150e+01
2.408948216221e+01
1.915618385128e+01
2.361210679173e+01
2.219361204711e+01
2.350649300879e+01
3.828792432006e+00
1.697308191192e+01
1.903835424249e+01
2.411634453173e+01
2.278947661032e+01
1.116455695342e+01
2.224283177126e+01
2.327678305207e+01
-2.264738392664e-01
2.134021188741e+01
2.262134626808e+01
2.346885246042e+01
2.238043411359e+01
-1.255585104193e+01
2.248489920420e+01
1.925702998117e+01
8.303562714000e+00
2.237125874989e+01
2.428703656936e+01
2.162479682574e+01
2.389462851588e+01
2.371619790284e+01
2.205826904129e+01
-2.995610906886e-01
2.223737821511e+01
2.324817874418e+01
2.098295890560e+01
2.221159407354e+01
2.012974817663e+01
2.206300634358e+01
1.567563656455e+01
2.187647680643e+01
2.304236059700e+01
2.366589843489e+01
2.219628509905e+01
2.145426719418e+01
2.165039336296e+01
2.275488960966e+01
8.228677239368e+00
2.182086016479e+01
2.219344089519e+01
-2.967545263694e+01
-2.971376675280e+01
1.580511374919e+01
2.278788362679e+01
2.224807584974e+01
1.976193996507e+01
2.416318697840e+01
2.245971697244e+01
2.431030362894e+01
1.827716032862e+01
7.134856955622e+00
2.347298186355e+01
2.272382859547e+01
1.891618556804e+01
2.235491541580e+01
2.275922879950e+01
2.134959842844e+01
9.956768085938e+00
2.057521951402e+01
2.017001035021e+01
6.001796747846e+00
2.249131306191e+01
1.900439658593e+01
1.820441735548e+01
1.802264886008e+01
2.288127452260e+01
1.389195031671e+01
1.380678290018e+01
2.304034790459e+01
2.204054780552e+01
1.711610543337e+01
1.835599976927e+01
1.080828335151e+01
9.943038799708e+00
2.253416285642e+01
2.305900806701e+01
1.482656027386e+01
2.176424845822e+01
1.432470846375e+01
2.197607097722e+01
2.203192262526e+01
-1.824369585584e+00
2.313787231353e+01
2.245350964171e+01
-2.087275490987e+00
1.427672911547e+01
1.123597610310e+01
1.864517696392e+01
2.134260548969e+01
2.359556597342e+01
2.358233773805e+01
1.533292369539e+01
2.334792889646e+01
2.355068428185e+01
2.278848407237e+01
6.193704024208e-01
8.944727725505e+00
2.243368153276e+01
1.089246252894e+01
2.282012743828e+01
2.006545762571e+01
1.656198735876e+01
2.217099477422e+01
6.661458379921e+00
2.264130507070e+01
2.187453212813e+01
2.319295742483e+01
2.268067226746e+01
2.249546152349e+01
1.708266596983e+01
2.371036731658e+01
2.215265302352e+01
2.451972075407e+01
2.301116715359e+01
2.362781677587e+01
2.197156752845e+01
2.434534935738e+01
2.272225033198e+01
1.953864473169e+01
2.178416206249e+01
2.032707334189e+01
2.285686254636e+01
2.338787611404e+01
2.425650211789e+01
9.641882054704e+00
2.181201182504e+01
2.169957664506e+01
2.841123323510e+00
2.111402703275e+01
2.132312638198e+01
1.206337459066e+01
2.211168649430e+01
-3.807311637781e+00
2.161225639239e+01
2.112940125125e+01
2.169905566027e+01
2.393809235188e+01
1.069389927333e+01
9.588458749345e+00
2.317953430271e+01
1.484080086593e+01
1.564141756097e+01
2.154827116788e+01
2.316314306255e+01
2.366820149719e+01
2.355701708520e+01
2.443550364284e+01
2.102005228645e+01
9.480277061933e+00
8.475624493194e+00
-2.981828687026e+01
2.305413170760e+01
2.369720842058e+01
2.243767301526e+01
2.146627652631e+01
2.391157195721e+01
2.111297815429e+01
2.231371172675e+01
2.269317371897e+01
2.294673725985e+01
2.347105480018e+01
2.238145065780e+01
2.143305887316e+01
2.165673523370e+01
2.379288726532e+01
2.085951476874e+01
1.985662134916e+01
2.366407088808e+01
2.426827078972e+01
2.254004948578e+01
2.075943769801e+01
-1.594316624028e+01
2.439128193159e+01
-4.131657274750e+00
7.511535720435e+00
2.238704576027e+01
2.147602996248e+01
1.210214958490e+01
1.333816786759e+01
1.972137547624e+01
-6.295264388936e+00
1.354954030418e+01
2.405561523205e+01
2.194074672260e+01
1.331307010506e+01
2.311101002973e+01
2.330905345392e+01
2.259047533791e+01
2.415639708102e+01
2.036248884588e+01
8.525590258739e+00
2.230253088181e+01
2.210749581319e+01
1.856912201839e+01
3.633520922282e+00
1.289022770948e+01
2.164513774216e+01
-2.740072250195e+00
-2.342178616411e+01
1.342815524192e+01
2.190615546765e+01
2.314031895332e+01
2.203231057895e+01
2.100670540841e+01
2.225079351435e+01
1.544454435587e+01
2.201921886461e+01
2.397116600509e+01
2.113696753220e+01
-1.014212173463e+01
2.355028074118e+01
2.186907444755e+01
2.203158242102e+01
1.161583351953e+01
2.329361270391e+01
2.192795530781e+01
5.651211591303e+00
4.356113612451e-01
1.251536177196e+01
2.212186067063e+01
2.159297846111e+01
3.747166143697e+00
2.236828574043e+01
1.219547450877e+01
2.258308274911e+01
2.385414605375e+01
9.361376666889e+00
2.183137719480e+01
1.737497902003e+01
5.385045428797e+00
2.195693906335e+01
2.348943714661e+01
2.219513222375e+01
-1.474744753128e+01
1.374946072099e+01
2.293401310656e+01
2.286829884016e+01
2.318960127993e+01
2.199966734554e+01
2.188181698017e+01
2.351676314622e+01
1.753924010795e+00
-1.314481282725e+01
2.187729221005e+01
2.271936682970e+01
2.107026766838e+01
2.185384641788e+01
1.134051693382e+01
2.065993974075e+01
2.157773530676e+01
-2.223966472426e+01
1.740757269393e+01
2.049247887036e+01
-1.919379344905e+01
2.249531845881e+01
2.296638692908e+01
2.285224632898e+01
3.745923900259e+00
-1.045872945527e+01
1.499396367195e+01
1.453084911989e+01
1.065860790786e+01
2.210386534607e+01
1.534943002050e+01
2.206427844858e+01
1.401089788027e+01
2.201505754686e+01
2.355931534564e+01
2.265627271317e+01
5.899955242271e+00
2.197851223014e+01
1.684282276790e+01
2.134386713541e+01
2.320481674585e+01
2.139247685061e+01
-3.332890585060e+01
2.366380122469e+01
1.571434630605e+01
2.136241393458e+01
2.020094050386e+01
2.327539031082e+01
1.168054336556e+01
9.420489582297e+00
1.367383752055e+01
2.024780353940e+01
2.350496715747e+01
2.437770071450e+01
2.133220723462e+01
2.016909694848e+01
9.533717840472e+00
9.320165675474e+00
2.181733230131e+01
2.321710398987e+01
-4.216323972150e-01
1.236180540531e+01
2.334386228638e+01
2.010640733840e+01
2.392540023915e+01
-3.108139811872e-01
2.338305303653e+01
7.681335669613e+00
2.386834220171e+01
2.383355983160e+01
2.381116195397e+01
4.290960983607e+00
1.961315811612e+01
5.036449977920e-01
2.362948667918e+01
8.770379719416e+00
-2.364095045058e+01
1.524400959169e+01
1.376151988831e+01
-2.276982727856e+01
2.316587813265e+01
1.651687047762e+01
1.786093479320e+01
2.160903438143e+01
2.344741525453e+01
2.199498483788e+01
2.284748364594e+01
-3.005612598602e+01
2.098276103668e+01
1.526287556474e+01
2.277547381670e+01
2.373020832969e+01
1.110934794882e+01
1.892069113280e+01
2.408243813016e+01
-5.000312252922e+00
2.290505207167e+01
2.173292732585e+01
1.740630857162e+01
9.485637930486e+00
2.157975608395e+01
2.096442136049e+01
2.292941739656e+01
2.118786331844e+01
1.752769395276e+01
2.434476136456e+01
2.928741252671e+00
-5.601160847426e+00
2.218193186237e+01
2.021920199333e+01
-9.441645497413e+00
1.646750938072e+01
2.100886434709e+01
2.370198687732e+01
2.243110840700e+01
2.207717846360e+01
-3.414678065443e+01
1.644206713693e+01
2.175698070005e+01
2.051483973799e+01
2.242776542539e+01
8.059932381940e+00
1.221121053670e+01
-7.834796938632e+00
2.265597071297e+01
1.831786208428e+01
2.341196028888e+01
2.094612209140e+01
2.104175399818e+01
2.321063721205e+01
-1.263353582763e+01
-2.830967260363e+01
6.431067773986e+00
8.351555089582e+00
7.719667659626e+00
2.367583642106e+01
2.182970780889e+01
2.228760905954e+01
-7.125950370417e+00
1.412287118732e+01
2.182093879390e+01
1.504391462522e+01
1.249733883939e+01
1.714709583904e+01
2.082462395306e+01
-9.147097756259e+00
2.194434618571e+01
1.048614234575e+01
2.266399727694e+01
2.052316021122e+01
8.124053603795e-01
3.750095232891e+00
2.267229659859e+01
-1.914121985602e+01
1.520148015621e+01
2.091027570693e+01
2.293719918599e+01
1.938593734906e+01
-7.143928220461e+00
1.917932503082e+01
1.985788425219e+01
7.481444319385e+00
2.265948736349e+01
-4.387006910110e+00
-2.190196713418e+01
-9.998292564795e+00
-6.281324911316e+00
4.666846346587e+00
1.858484412398e+01
1.638152641375e+01
1.746985865180e+00
2.182439409493e+01
2.011276054135e+01
1.922414399979e+01
1.582907631195e+01
2.087482659391e+01
2.039477127028e+01
2.151749143491e+01
-2.430400298825e+01
1.674946266190e+01
2.141577505637e+01
5.987523299134e+00
-2.179161481345e+01
2.234209355444e+01
-6.879545556381e+00
-2.305556310448e+01
1.754526049028e+01
-2.738192567819e+01
1.629473963424e+01
2.196276087929e+01
-2.796224430103e+01
-2.740427339362e+01
1.641507883836e+01
7.573244554077e+00
1.560741392211e+01
2.050902765415e+01
1.881999088978e+01
1.224492839997e+01
-1.489357733482e+00
2.084709141674e+01
2.294211732526e+01
2.170364054745e+01
1.081482326957e+01
2.173810597976e+01
-7.231885187870e+00
2.102837600502e+01
1.440889893846e+01
6.028992660345e+00
2.171187765069e+01
1.765786660922e+01
1.698804742077e+01
-2.138743794366e+01
5.717464125940e+00
4.597992350800e+00
2.096764263651e+01
1.955975459250e+01
-5.165840947956e+00
2.335030159157e+01
-2.968048170817e+01
1.718595393639e+01
1.709010420334e+01
1.740430047817e+01
8.999999999681e+01
-5.285474314096e+01
-2.820175257837e+01
-2.889364672382e+01
2.049515831614e+01
2.076640151302e+01
-2.319015801672e+01
-3.529270684232e+01
2.108681858629e+01
2.264703571864e+01
1.010080123107e+01
2.114859575716e+01
2.171421911112e+01
2.158249827929e+01
4.597171589321e+00
7.878367239510e+00
2.322873885096e+01
5.490762461237e+00
2.123118151586e+01
2.078010828883e+01
1.464179956778e+01
2.143710593504e+01
-1.987380662483e+00
2.239308130807e+01
2.017023495285e+01
1.973227838000e+01
-2.850073146920e+01
2.350518162623e+01
1.796194504005e+01
1.720855063121e+01
-2.214627424781e+01
2.176788763861e+01
2.312369628955e+01
3.807768276990e+00
7.674980926236e+00
2.078585103314e+01
2.243701224675e+01
2.244822250616e+01
2.172613441422e+01
-2.423382244452e+01
1.079250708197e+01
8.072118722573e+00
-8.058519672078e-01
2.393802880655e+01
1.559022393365e+01
2.154609328202e+01
-6.106857520283e+00
-6.358330435801e+00
8.781226395194e+00
8.612047068182e+00
1.900036271109e+01
1.663145428141e+01
9.555395990394e+00
2.223416730747e+01
-1.057683572717e+01
2.166149104908e+01
2.272822907006e+01
2.923081816226e+00
2.158032101840e+01
1.746929045874e+01
1.627872778343e+01
6.511794752478e+00
1.586612585980e+01
2.169334615488e+01
2.240809877527e+01
2.308955592363e+01
2.053968434993e+01
1.969368893623e+01
-3.108180586646e+01
-1.552906813541e+00
2.010228022530e+01
2.022278444506e+00
2.107593430307e+01
2.238244539641e+01
2.083773978222e+01
1.149375974369e+01
2.157104281892e+01
2.149538432133e+01
2.166089927077e+01
1.925116184810e+01
2.091177090064e+01
-1.607453508895e+01
1.513725718404e+01
-5.576119126691e+00
1.395608576828e+01
7.934751999735e+00
-2.377734899762e+00
8.264691301494e+00
2.060806758725e+01
1.665565744557e+01
1.537021290657e+01
2.232565712966e+01
-2.504600513038e+00
-2.236080932935e+01
-1.238837259881e+01
-1.707715239817e+01
1.717154823169e+00
-2.321046711761e+01
2.107490446544e+01
2.111793153306e+01
1.900074042240e+01
8.164141871096e+00
2.055961003081e+01
2.149154946863e+01
2.230851448933e+01
2.240875752986e+01
2.173370399941e+01
2.105962431702e+01
-5.659623686510e+00
-1.243678300980e+01
2.116374781187e+01
-2.155152762138e+00
2.275240368898e+00
-1.077995727678e+01
-6.943646298729e+00
2.105568013512e+01
2.134875559106e+01
1.565966300882e+01
2.174498712068e+01
2.224980698138e+01
1.754222792603e+00
1.862845793121e+01
1.373563971570e+01
-3.074710320850e+01
1.640814500406e+00
-2.189154512402e+01
2.086278806354e+01
5.899268988922e-01
4.904502569576e+00
2.109373342735e+01
2.152949321490e+01
1.552521213913e+01
1.850466002838e+01
1.836893072546e+01
-1.221086441183e+01
2.122909403179e+01
1.715666378666e+01
2.084059245879e+01
-2.293259088231e+01
2.172718837089e+01
5.863644530247e+00
1.667157875639e+01
-2.410238036216e+01
2.117080597134e+01
1.811606373483e+01
-2.695102480789e+01
2.231065445544e+01
1.022045471143e+01
1.662730664623e+01
2.105078001216e+01
5.662678792070e+00
2.131405807999e+01
1.722916846536e+01
7.978535938569e+00
2.092252646219e+01
1.989662670269e+01
-2.975391925439e+01
2.246423891048e+01
1.652655210421e+01
-5.885242792922e+01
-2.962523291627e+01
2.081364473859e+01
1.029624286231e+01
2.252659367631e+01
1.776224077516e+01
1.631715082787e+01
9.530917640365e+00
-5.467890062606e+00
2.173169202729e+01
1.284333011834e+01
-2.232583038699e+01
1.764558432444e+01
4.180665878815e+00
7.545679180590e+00
-2.652785646276e-01
2.224600362801e+01
2.172768885268e+01
-1.947510020886e+01
1.964448424463e+01
2.151094909039e+01
2.169489387710e+01
2.218112062435e+01
2.140129993487e+01
2.150447147396e+01
-7.514159586847e+00
2.129888009652e+01
2.212654206120e+01
1.038515341248e+00
1.652505723722e+01
2.076268470869e+01
-2.216723895300e+01
4.152498808630e+00
2.132931133944e+01
2.134492476921e+01
2.159173275192e+01
2.261373942599e+01
3.565645470327e+00
2.194787226512e+01
-1.070822220446e+01
1.712852314946e+01
2.226391130710e+01
-7.506291857743e-02
2.081043510749e+01
2.237848303628e+01
2.234976796685e+01
-1.952434222650e+01
2.064729907755e+01
2.142444483303e+01
-7.298666176614e+00
2.112246550289e+01
-2.347877238336e+01
2.088126080047e+01


