# vtk DataFile Version 2.0
Calculation C:\Users\johan\Documents\GitHub\TOCHNOG\standsicherheit_phiC at time 2.000000000000e+00 
ASCII
DATASET UNSTRUCTURED_GRID
Field FieldData 1
Time 1 1 double
2.000000000000e+00

POINTS 1251 float
0.0 0.0 0.0 
5.000000000000e+01 -1.000000000000e+01 0.0 
0.0 -2.000000000000e+01 0.0 
5.000000000000e+01 -2.000000000000e+01 0.0 
0.0 -9.999999999991e-01 0.0 
0.0 -1.999999999998e+00 0.0 
0.0 -2.999999999997e+00 0.0 
0.0 -3.999999999994e+00 0.0 
0.0 -4.999999999991e+00 0.0 
0.0 -5.999999999988e+00 0.0 
0.0 -6.999999999985e+00 0.0 
0.0 -7.999999999982e+00 0.0 
0.0 -8.999999999983e+00 0.0 
0.0 -9.999999999985e+00 0.0 
0.0 -1.099999999999e+01 0.0 
0.0 -1.199999999999e+01 0.0 
0.0 -1.299999999999e+01 0.0 
0.0 -1.399999999999e+01 0.0 
0.0 -1.499999999999e+01 0.0 
0.0 -1.599999999999e+01 0.0 
0.0 -1.700000000000e+01 0.0 
0.0 -1.800000000000e+01 0.0 
0.0 -1.900000000000e+01 0.0 
4.900000000001e+01 -2.000000000000e+01 0.0 
4.800000000001e+01 -2.000000000000e+01 0.0 
4.700000000002e+01 -2.000000000000e+01 0.0 
4.600000000003e+01 -2.000000000000e+01 0.0 
4.500000000004e+01 -2.000000000000e+01 0.0 
4.400000000004e+01 -2.000000000000e+01 0.0 
4.300000000005e+01 -2.000000000000e+01 0.0 
4.200000000006e+01 -2.000000000000e+01 0.0 
4.100000000006e+01 -2.000000000000e+01 0.0 
4.000000000007e+01 -2.000000000000e+01 0.0 
3.900000000008e+01 -2.000000000000e+01 0.0 
3.800000000009e+01 -2.000000000000e+01 0.0 
3.700000000009e+01 -2.000000000000e+01 0.0 
3.600000000010e+01 -2.000000000000e+01 0.0 
3.500000000011e+01 -2.000000000000e+01 0.0 
3.400000000011e+01 -2.000000000000e+01 0.0 
3.300000000012e+01 -2.000000000000e+01 0.0 
3.200000000013e+01 -2.000000000000e+01 0.0 
3.100000000013e+01 -2.000000000000e+01 0.0 
3.000000000013e+01 -2.000000000000e+01 0.0 
2.900000000013e+01 -2.000000000000e+01 0.0 
2.800000000013e+01 -2.000000000000e+01 0.0 
2.700000000013e+01 -2.000000000000e+01 0.0 
2.600000000013e+01 -2.000000000000e+01 0.0 
2.500000000013e+01 -2.000000000000e+01 0.0 
2.400000000013e+01 -2.000000000000e+01 0.0 
2.300000000013e+01 -2.000000000000e+01 0.0 
2.200000000013e+01 -2.000000000000e+01 0.0 
2.100000000013e+01 -2.000000000000e+01 0.0 
2.000000000013e+01 -2.000000000000e+01 0.0 
1.900000000013e+01 -2.000000000000e+01 0.0 
1.800000000013e+01 -2.000000000000e+01 0.0 
1.700000000012e+01 -2.000000000000e+01 0.0 
1.600000000011e+01 -2.000000000000e+01 0.0 
1.500000000011e+01 -2.000000000000e+01 0.0 
1.400000000010e+01 -2.000000000000e+01 0.0 
1.300000000009e+01 -2.000000000000e+01 0.0 
1.200000000009e+01 -2.000000000000e+01 0.0 
1.100000000008e+01 -2.000000000000e+01 0.0 
1.000000000007e+01 -2.000000000000e+01 0.0 
9.000000000064e+00 -2.000000000000e+01 0.0 
8.000000000057e+00 -2.000000000000e+01 0.0 
7.000000000050e+00 -2.000000000000e+01 0.0 
6.000000000043e+00 -2.000000000000e+01 0.0 
5.000000000036e+00 -2.000000000000e+01 0.0 
4.000000000028e+00 -2.000000000000e+01 0.0 
3.000000000021e+00 -2.000000000000e+01 0.0 
2.000000000014e+00 -2.000000000000e+01 0.0 
1.000000000007e+00 -2.000000000000e+01 0.0 
5.000000000000e+01 -1.100000000000e+01 0.0 
5.000000000000e+01 -1.200000000000e+01 0.0 
5.000000000000e+01 -1.300000000000e+01 0.0 
5.000000000000e+01 -1.400000000000e+01 0.0 
5.000000000000e+01 -1.500000000000e+01 0.0 
5.000000000000e+01 -1.600000000000e+01 0.0 
5.000000000000e+01 -1.700000000000e+01 0.0 
5.000000000000e+01 -1.800000000000e+01 0.0 
5.000000000000e+01 -1.900000000000e+01 0.0 
2.000000000000e+01 0.0 0.0 
3.500000000000e+01 -1.000000000000e+01 0.0 
2.150000000000e+01 -1.000000000000e+00 0.0 
2.300000000000e+01 -2.000000000000e+00 0.0 
2.450000000000e+01 -3.000000000000e+00 0.0 
2.600000000000e+01 -4.000000000000e+00 0.0 
2.750000000000e+01 -5.000000000000e+00 0.0 
2.900000000000e+01 -6.000000000000e+00 0.0 
3.050000000000e+01 -7.000000000000e+00 0.0 
3.200000000000e+01 -8.000000000000e+00 0.0 
3.350000000000e+01 -9.000000000000e+00 0.0 
5.000000000000e+01 -1.000000000000e+00 0.0 
5.000000000000e+01 -2.000000000000e+00 0.0 
5.000000000000e+01 -3.000000000000e+00 0.0 
5.000000000000e+01 -4.000000000000e+00 0.0 
5.000000000000e+01 -5.000000000000e+00 0.0 
5.000000000000e+01 -6.000000000000e+00 0.0 
5.000000000000e+01 -7.000000000000e+00 0.0 
5.000000000000e+01 -8.000000000000e+00 0.0 
5.000000000000e+01 -9.000000000000e+00 0.0 
4.900000000000e+01 -1.000000000000e+01 0.0 
4.800000000000e+01 -1.000000000000e+01 0.0 
4.700000000000e+01 -1.000000000000e+01 0.0 
4.600000000000e+01 -1.000000000000e+01 0.0 
4.500000000000e+01 -1.000000000000e+01 0.0 
4.400000000000e+01 -1.000000000000e+01 0.0 
4.300000000000e+01 -1.000000000000e+01 0.0 
4.200000000000e+01 -1.000000000000e+01 0.0 
4.100000000000e+01 -1.000000000000e+01 0.0 
4.000000000000e+01 -1.000000000000e+01 0.0 
3.900000000000e+01 -1.000000000000e+01 0.0 
3.800000000000e+01 -1.000000000000e+01 0.0 
3.700000000000e+01 -1.000000000000e+01 0.0 
3.600000000000e+01 -1.000000000000e+01 0.0 
1.900000000000e+01 0.0 0.0 
1.800000000000e+01 0.0 0.0 
1.700000000000e+01 0.0 0.0 
1.600000000000e+01 0.0 0.0 
1.500000000000e+01 0.0 0.0 
1.400000000000e+01 0.0 0.0 
1.300000000000e+01 0.0 0.0 
1.200000000000e+01 0.0 0.0 
1.100000000000e+01 0.0 0.0 
1.000000000000e+01 0.0 0.0 
9.000000000000e+00 0.0 0.0 
8.000000000000e+00 0.0 0.0 
7.000000000000e+00 0.0 0.0 
6.000000000000e+00 0.0 0.0 
5.000000000000e+00 0.0 0.0 
4.000000000000e+00 0.0 0.0 
3.000000000000e+00 0.0 0.0 
2.000000000000e+00 0.0 0.0 
1.000000000000e+00 0.0 0.0 
4.901724137931e+01 -1.000000000000e+00 0.0 
4.803448275862e+01 -1.000000000000e+00 0.0 
4.705172413793e+01 -1.000000000000e+00 0.0 
4.606896551724e+01 -1.000000000000e+00 0.0 
4.508620689655e+01 -1.000000000000e+00 0.0 
4.410344827586e+01 -1.000000000000e+00 0.0 
4.312068965517e+01 -1.000000000000e+00 0.0 
4.213793103448e+01 -1.000000000000e+00 0.0 
4.115517241379e+01 -1.000000000000e+00 0.0 
4.017241379310e+01 -1.000000000000e+00 0.0 
3.918965517241e+01 -1.000000000000e+00 0.0 
3.820689655172e+01 -1.000000000000e+00 0.0 
3.722413793103e+01 -1.000000000000e+00 0.0 
3.624137931034e+01 -1.000000000000e+00 0.0 
3.525862068966e+01 -1.000000000000e+00 0.0 
3.427586206897e+01 -1.000000000000e+00 0.0 
3.329310344828e+01 -1.000000000000e+00 0.0 
3.231034482759e+01 -1.000000000000e+00 0.0 
3.132758620690e+01 -1.000000000000e+00 0.0 
3.034482758621e+01 -1.000000000000e+00 0.0 
2.936206896552e+01 -1.000000000000e+00 0.0 
2.837931034483e+01 -1.000000000000e+00 0.0 
2.739655172414e+01 -1.000000000000e+00 0.0 
2.641379310345e+01 -1.000000000000e+00 0.0 
2.543103448276e+01 -1.000000000000e+00 0.0 
2.444827586207e+01 -1.000000000000e+00 0.0 
2.346551724138e+01 -1.000000000000e+00 0.0 
2.248275862069e+01 -1.000000000000e+00 0.0 
2.400000000000e+01 -2.000000000000e+00 0.0 
2.500000000000e+01 -2.000000000000e+00 0.0 
2.600000000000e+01 -2.000000000000e+00 0.0 
2.700000000000e+01 -2.000000000000e+00 0.0 
2.800000000000e+01 -2.000000000000e+00 0.0 
2.900000000000e+01 -2.000000000000e+00 0.0 
3.000000000000e+01 -2.000000000000e+00 0.0 
3.100000000000e+01 -2.000000000000e+00 0.0 
3.200000000000e+01 -2.000000000000e+00 0.0 
3.300000000000e+01 -2.000000000000e+00 0.0 
3.400000000000e+01 -2.000000000000e+00 0.0 
3.500000000000e+01 -2.000000000000e+00 0.0 
3.600000000000e+01 -2.000000000000e+00 0.0 
3.700000000000e+01 -2.000000000000e+00 0.0 
3.800000000000e+01 -2.000000000000e+00 0.0 
3.900000000000e+01 -2.000000000000e+00 0.0 
4.000000000000e+01 -2.000000000000e+00 0.0 
4.100000000000e+01 -2.000000000000e+00 0.0 
4.200000000000e+01 -2.000000000000e+00 0.0 
4.300000000000e+01 -2.000000000000e+00 0.0 
4.400000000000e+01 -2.000000000000e+00 0.0 
4.500000000000e+01 -2.000000000000e+00 0.0 
4.600000000000e+01 -2.000000000000e+00 0.0 
4.700000000000e+01 -2.000000000000e+00 0.0 
4.800000000000e+01 -2.000000000000e+00 0.0 
4.900000000000e+01 -2.000000000000e+00 0.0 
2.548076923077e+01 -3.000000000000e+00 0.0 
2.646153846153e+01 -3.000000000000e+00 0.0 
2.744230769230e+01 -3.000000000000e+00 0.0 
2.842307692306e+01 -3.000000000000e+00 0.0 
2.940384615383e+01 -3.000000000000e+00 0.0 
3.038461538459e+01 -3.000000000000e+00 0.0 
3.136538461536e+01 -3.000000000000e+00 0.0 
3.234615384612e+01 -3.000000000000e+00 0.0 
3.332692307687e+01 -3.000000000000e+00 0.0 
3.430769230762e+01 -3.000000000000e+00 0.0 
3.528846153837e+01 -3.000000000000e+00 0.0 
3.626923076912e+01 -3.000000000000e+00 0.0 
3.724999999988e+01 -3.000000000000e+00 0.0 
3.823076923065e+01 -3.000000000000e+00 0.0 
3.921153846143e+01 -3.000000000000e+00 0.0 
4.019230769221e+01 -3.000000000000e+00 0.0 
4.117307692299e+01 -3.000000000000e+00 0.0 
4.215384615377e+01 -3.000000000000e+00 0.0 
4.313461538455e+01 -3.000000000000e+00 0.0 
4.411538461533e+01 -3.000000000000e+00 0.0 
4.509615384611e+01 -3.000000000000e+00 0.0 
4.607692307688e+01 -3.000000000000e+00 0.0 
4.705769230766e+01 -3.000000000000e+00 0.0 
4.803846153844e+01 -3.000000000000e+00 0.0 
4.901923076922e+01 -3.000000000000e+00 0.0 
4.900000000000e+01 -4.000000000000e+00 0.0 
4.800000000000e+01 -4.000000000000e+00 0.0 
4.700000000000e+01 -4.000000000000e+00 0.0 
4.600000000000e+01 -4.000000000000e+00 0.0 
4.500000000000e+01 -4.000000000000e+00 0.0 
4.400000000000e+01 -4.000000000000e+00 0.0 
4.300000000000e+01 -4.000000000000e+00 0.0 
4.200000000000e+01 -4.000000000000e+00 0.0 
4.100000000000e+01 -4.000000000000e+00 0.0 
4.000000000000e+01 -4.000000000000e+00 0.0 
3.900000000000e+01 -4.000000000000e+00 0.0 
3.800000000000e+01 -4.000000000000e+00 0.0 
3.700000000000e+01 -4.000000000000e+00 0.0 
3.600000000000e+01 -4.000000000000e+00 0.0 
3.500000000000e+01 -4.000000000000e+00 0.0 
3.400000000000e+01 -4.000000000000e+00 0.0 
3.300000000000e+01 -4.000000000000e+00 0.0 
3.200000000000e+01 -4.000000000000e+00 0.0 
3.100000000000e+01 -4.000000000000e+00 0.0 
3.000000000000e+01 -4.000000000000e+00 0.0 
2.900000000000e+01 -4.000000000000e+00 0.0 
2.800000000000e+01 -4.000000000000e+00 0.0 
2.700000000000e+01 -4.000000000000e+00 0.0 
2.847826086957e+01 -5.000000000000e+00 0.0 
2.945652173913e+01 -5.000000000000e+00 0.0 
3.043478260870e+01 -5.000000000000e+00 0.0 
3.141304347826e+01 -5.000000000000e+00 0.0 
3.239130434783e+01 -5.000000000000e+00 0.0 
3.336956521739e+01 -5.000000000000e+00 0.0 
3.434782608696e+01 -5.000000000000e+00 0.0 
3.532608695652e+01 -5.000000000000e+00 0.0 
3.630434782609e+01 -5.000000000000e+00 0.0 
3.728260869565e+01 -5.000000000000e+00 0.0 
3.826086956522e+01 -5.000000000000e+00 0.0 
3.923913043478e+01 -5.000000000000e+00 0.0 
4.021739130435e+01 -5.000000000000e+00 0.0 
4.119565217391e+01 -5.000000000000e+00 0.0 
4.217391304348e+01 -5.000000000000e+00 0.0 
4.315217391304e+01 -5.000000000000e+00 0.0 
4.413043478261e+01 -5.000000000000e+00 0.0 
4.510869565217e+01 -5.000000000000e+00 0.0 
4.608695652174e+01 -5.000000000000e+00 0.0 
4.706521739130e+01 -5.000000000000e+00 0.0 
4.804347826087e+01 -5.000000000000e+00 0.0 
4.902173913043e+01 -5.000000000000e+00 0.0 
4.900000000001e+01 -6.000000000000e+00 0.0 
4.800000000003e+01 -6.000000000000e+00 0.0 
4.700000000004e+01 -6.000000000000e+00 0.0 
4.600000000006e+01 -6.000000000000e+00 0.0 
4.500000000007e+01 -6.000000000000e+00 0.0 
4.400000000009e+01 -6.000000000000e+00 0.0 
4.300000000010e+01 -6.000000000000e+00 0.0 
4.200000000012e+01 -6.000000000000e+00 0.0 
4.100000000013e+01 -6.000000000000e+00 0.0 
4.000000000014e+01 -6.000000000000e+00 0.0 
3.900000000014e+01 -6.000000000000e+00 0.0 
3.800000000012e+01 -6.000000000000e+00 0.0 
3.700000000010e+01 -6.000000000000e+00 0.0 
3.600000000008e+01 -6.000000000000e+00 0.0 
3.500000000006e+01 -6.000000000000e+00 0.0 
3.400000000005e+01 -6.000000000000e+00 0.0 
3.300000000003e+01 -6.000000000000e+00 0.0 
3.200000000001e+01 -6.000000000000e+00 0.0 
3.100000000000e+01 -6.000000000000e+00 0.0 
3.000000000000e+01 -6.000000000000e+00 0.0 
3.147499999998e+01 -7.000000000000e+00 0.0 
3.244999999998e+01 -7.000000000000e+00 0.0 
3.342499999998e+01 -7.000000000000e+00 0.0 
3.439999999998e+01 -7.000000000000e+00 0.0 
3.537499999998e+01 -7.000000000000e+00 0.0 
3.634999999998e+01 -7.000000000000e+00 0.0 
3.732499999998e+01 -7.000000000000e+00 0.0 
3.829999999998e+01 -7.000000000000e+00 0.0 
3.927499999999e+01 -7.000000000000e+00 0.0 
4.024999999999e+01 -7.000000000000e+00 0.0 
4.122499999999e+01 -7.000000000000e+00 0.0 
4.219999999999e+01 -7.000000000000e+00 0.0 
4.317499999999e+01 -7.000000000000e+00 0.0 
4.414999999999e+01 -7.000000000000e+00 0.0 
4.512499999999e+01 -7.000000000000e+00 0.0 
4.609999999999e+01 -7.000000000000e+00 0.0 
4.707500000000e+01 -7.000000000000e+00 0.0 
4.805000000000e+01 -7.000000000000e+00 0.0 
4.902500000000e+01 -7.000000000000e+00 0.0 
4.900000000000e+01 -8.000000000000e+00 0.0 
4.800000000000e+01 -8.000000000000e+00 0.0 
4.700000000000e+01 -8.000000000000e+00 0.0 
4.600000000000e+01 -8.000000000000e+00 0.0 
4.500000000000e+01 -8.000000000000e+00 0.0 
4.400000000000e+01 -8.000000000000e+00 0.0 
4.300000000000e+01 -8.000000000000e+00 0.0 
4.200000000000e+01 -8.000000000000e+00 0.0 
4.100000000000e+01 -8.000000000000e+00 0.0 
4.000000000000e+01 -8.000000000000e+00 0.0 
3.900000000000e+01 -8.000000000000e+00 0.0 
3.800000000000e+01 -8.000000000000e+00 0.0 
3.700000000000e+01 -8.000000000000e+00 0.0 
3.600000000000e+01 -8.000000000000e+00 0.0 
3.500000000000e+01 -8.000000000000e+00 0.0 
3.400000000000e+01 -8.000000000000e+00 0.0 
3.300000000000e+01 -8.000000000000e+00 0.0 
3.447058823527e+01 -9.000000000000e+00 0.0 
3.544117647055e+01 -9.000000000000e+00 0.0 
3.641176470582e+01 -9.000000000000e+00 0.0 
3.738235294109e+01 -9.000000000000e+00 0.0 
3.835294117637e+01 -9.000000000000e+00 0.0 
3.932352941164e+01 -9.000000000000e+00 0.0 
4.029411764691e+01 -9.000000000000e+00 0.0 
4.126470588219e+01 -9.000000000000e+00 0.0 
4.223529411748e+01 -9.000000000000e+00 0.0 
4.320588235279e+01 -9.000000000000e+00 0.0 
4.417647058811e+01 -9.000000000000e+00 0.0 
4.514705882342e+01 -9.000000000000e+00 0.0 
4.611764705874e+01 -9.000000000000e+00 0.0 
4.708823529405e+01 -9.000000000000e+00 0.0 
4.805882352937e+01 -9.000000000000e+00 0.0 
4.902941176468e+01 -9.000000000000e+00 0.0 
2.075000000000e+01 -5.000000000006e-01 0.0 
2.225000000000e+01 -1.500000000000e+00 0.0 
2.375000000000e+01 -2.500000000000e+00 0.0 
2.525000000000e+01 -3.500000000000e+00 0.0 
2.675000000000e+01 -4.500000000000e+00 0.0 
2.825000000000e+01 -5.500000000000e+00 0.0 
2.975000000000e+01 -6.500000000000e+00 0.0 
3.125000000000e+01 -7.500000000000e+00 0.0 
3.275000000000e+01 -8.500000000000e+00 0.0 
3.425000000000e+01 -9.500000000000e+00 0.0 
2.226951693683e+01 -2.403913980114e+00 0.0 
1.650149491944e+01 -1.913490915758e+01 0.0 
1.050042386896e+01 -8.504605092970e-01 0.0 
1.553146524712e+01 -8.281255032105e-01 0.0 
1.150000000008e+01 -1.913397459621e+01 0.0 
2.530060260647e+01 -4.428336431260e+00 0.0 
8.651114563942e-01 -1.052096295641e+01 0.0 
2.050000000013e+01 -1.913397459622e+01 0.0 
2.819198729811e+01 -6.399519052838e+00 0.0 
2.445670302931e+01 -1.915649188023e+01 0.0 
3.117591465718e+01 -8.394293040695e+00 0.0 
7.465053044742e+00 -1.920411160581e+01 0.0 
6.398295709691e+00 -8.230098819370e-01 0.0 
2.849659607461e+01 -1.914296187762e+01 0.0 
3.418732642882e+01 -1.040265792588e+01 0.0 
8.386450935063e-01 -6.533605142809e+00 0.0 
9.178661865596e-01 -1.329769195597e+01 0.0 
3.149448624493e+01 -1.910466733764e+01 0.0 
3.552916747426e+01 -1.914628590759e+01 0.0 
4.449210346537e+01 -1.914359085008e+01 0.0 
4.140975975145e+01 -1.906941860733e+01 0.0 
3.847475958753e+01 -1.916622382724e+01 0.0 
3.653774794640e+01 -1.088712800241e+01 0.0 
4.047886341787e+01 -1.090139014048e+01 0.0 
4.348006339825e+01 -1.092792621489e+01 0.0 
4.919519968029e+01 -1.451526755068e+01 0.0 
4.500000000032e+00 -1.913397459621e+01 0.0 
1.856136921614e+01 -8.212235170404e-01 0.0 
3.499895312306e+00 -8.661165539723e-01 0.0 
9.076088696565e-01 -1.642306201891e+01 0.0 
4.655174095477e+01 -1.086183387525e+01 0.0 
9.430688970604e-01 -3.496112672958e+00 0.0 
3.353992337063e+01 -1.901202090820e+01 0.0 
2.249746016977e+01 -1.921262287282e+01 0.0 
2.650122741777e+01 -1.916123026018e+01 0.0 
1.863571384842e+01 -1.908325534840e+01 0.0 
1.450089971693e+01 -1.917691901860e+01 0.0 
1.350044695317e+01 -8.659695299584e-01 0.0 
3.849987469880e+01 -1.084154983397e+01 0.0 
9.454419857884e+00 -1.900818879936e+01 0.0 
4.917398660523e+01 -1.645692866081e+01 0.0 
8.500000000000e+00 -8.660254037844e-01 0.0 
8.660319230785e-01 -8.500111697188e+00 0.0 
4.649022621545e+01 -1.930506220113e+01 0.0 
2.667688107845e+01 -5.420288124331e+00 0.0 
2.379251615665e+01 -3.412225477429e+00 0.0 
2.966631491830e+01 -7.389030232731e+00 0.0 
3.267915035995e+01 -9.396934932445e+00 0.0 
2.074836922338e+01 -1.320054020319e+00 0.0 
4.915985743621e+01 -1.261973384855e+01 0.0 
2.527129768623e+00 -1.931592414663e+01 0.0 
1.538676247410e+00 -8.436956619311e-01 0.0 
4.908096641539e+01 -1.842484004551e+01 0.0 
3.478612492673e+01 -1.090889364140e+01 0.0 
3.409757055860e+01 -1.131991530427e+01 0.0 
3.501895309466e+01 -1.177687842717e+01 0.0 
3.407758073088e+01 -1.224293381580e+01 0.0 
3.484541875390e+01 -1.277051428430e+01 0.0 
3.400322025842e+01 -1.319022775640e+01 0.0 
3.321672625034e+01 -1.266779191233e+01 0.0 
3.315244139236e+01 -1.360984106532e+01 0.0 
3.236335186892e+01 -1.308463225210e+01 0.0 
3.478337442841e+01 -1.372341158982e+01 0.0 
3.230105923633e+01 -1.403023731610e+01 0.0 
3.150954055289e+01 -1.350301767700e+01 0.0 
3.144604792090e+01 -1.444931742516e+01 0.0 
3.065653897123e+01 -1.392357262981e+01 0.0 
3.071897610812e+01 -1.297447031198e+01 0.0 
2.986790411740e+01 -1.339226181535e+01 0.0 
2.993181466745e+01 -1.244703272398e+01 0.0 
2.908023061869e+01 -1.286254537734e+01 0.0 
2.901619051372e+01 -1.380881655279e+01 0.0 
2.822986160390e+01 -1.327695262116e+01 0.0 
2.829453476870e+01 -1.233265343811e+01 0.0 
2.744542905518e+01 -1.274510491105e+01 0.0 
2.751120089246e+01 -1.180368086886e+01 0.0 
2.666218649885e+01 -1.221619339205e+01 0.0 
2.672371209234e+01 -1.127125228527e+01 0.0 
2.587763216302e+01 -1.168539979114e+01 0.0 
2.581165585299e+01 -1.262994410089e+01 0.0 
2.502890882577e+01 -1.209827323619e+01 0.0 
2.509631327757e+01 -1.115492410304e+01 0.0 
2.424662989877e+01 -1.156630981079e+01 0.0 
2.431704046904e+01 -1.062389179334e+01 0.0 
2.346445438728e+01 -1.103427680694e+01 0.0 
2.339382552877e+01 -1.197964871788e+01 0.0 
2.260936050780e+01 -1.144513277642e+01 0.0 
2.268075012022e+01 -1.049911928216e+01 0.0 
2.182525737661e+01 -1.090920811464e+01 0.0 
2.189682319817e+01 -9.961716944568e+00 0.0 
2.104174127792e+01 -1.037266986667e+01 0.0 
2.111304367575e+01 -9.424179358711e+00 0.0 
2.025306185381e+01 -9.832727364719e+00 0.0 
2.018141124247e+01 -1.079140628871e+01 0.0 
1.938594498257e+01 -1.025147354112e+01 0.0 
1.946106490453e+01 -9.288010758448e+00 0.0 
1.858929958352e+01 -9.706319802516e+00 0.0 
1.851540991219e+01 -1.067205988724e+01 0.0 
1.771485303178e+01 -1.012504443115e+01 0.0 
1.764134552256e+01 -1.109360378538e+01 0.0 
1.683745148095e+01 -1.054496365337e+01 0.0 
1.691852964353e+01 -9.582555261178e+00 0.0 
1.603603813062e+01 -1.000160132379e+01 0.0 
1.595824239350e+01 -1.096750698862e+01 0.0 
1.515080624291e+01 -1.041639501931e+01 0.0 
1.523171602559e+01 -9.451711491453e+00 0.0 
1.434621060709e+01 -9.871956467464e+00 0.0 
1.426777178765e+01 -1.083749501371e+01 0.0 
1.345775282374e+01 -1.028803175500e+01 0.0 
1.354103873368e+01 -9.324918457162e+00 0.0 
1.265072018622e+01 -9.742612837270e+00 0.0 
1.257285762070e+01 -1.071557782384e+01 0.0 
1.175874815690e+01 -1.015972324288e+01 0.0 
1.184203019714e+01 -9.193604071377e+00 0.0 
1.094927709905e+01 -9.612103238656e+00 0.0 
1.086938022910e+01 -1.058685085646e+01 0.0 
1.005424098961e+01 -1.002939116380e+01 0.0 
9.977974613295e+00 -1.101324897989e+01 0.0 
1.012915646404e+01 -9.051815821181e+00 0.0 
9.237127782494e+00 -9.471239055559e+00 0.0 
9.308426593771e+00 -8.483376461131e+00 0.0 
8.418806073345e+00 -8.910712374517e+00 0.0 
2.253688464062e+01 -1.239459402279e+01 0.0 
8.495126726666e+00 -7.921646665254e+00 0.0 
9.389727383206e+00 -7.512103628377e+00 0.0 
7.601560812974e+00 -8.349460349344e+00 0.0 
7.525680547759e+00 -9.339736686940e+00 0.0 
7.677888324502e+00 -7.359727833346e+00 0.0 
6.782001206724e+00 -7.788454494773e+00 0.0 
6.858778622885e+00 -6.797338062822e+00 0.0 
2.196596590865e+01 -8.979025665442e+00 0.0 
2.816540108272e+01 -1.422634142353e+01 0.0 
5.961601194403e+00 -7.226824010712e+00 0.0 
6.038171749656e+00 -6.234825887079e+00 0.0 
6.936257279557e+00 -5.805287640737e+00 0.0 
6.115068918323e+00 -5.242109758768e+00 0.0 
3.564391741903e+01 -1.329240553876e+01 0.0 
3.558115605778e+01 -1.425902892003e+01 0.0 
3.645445282201e+01 -1.381970786460e+01 0.0 
3.639744204358e+01 -1.479198128612e+01 0.0 
3.727266909778e+01 -1.435399586226e+01 0.0 
5.216667013081e+00 -5.671788584287e+00 0.0 
3.220697293295e+01 -1.499594545107e+01 0.0 
3.551112158269e+01 -1.523479869250e+01 0.0 
2.836056961467e+01 -1.139032434851e+01 0.0 
2.516730388602e+01 -1.021382726837e+01 0.0 
1.844436907403e+01 -1.164097215196e+01 0.0 
5.885434318740e+00 -8.218694781467e+00 0.0 
5.064071066867e+00 -7.656614643901e+00 0.0 
4.988089103470e+00 -8.649722082718e+00 0.0 
1.079421050408e+01 -1.157014985435e+01 0.0 
9.902420005256e+00 -1.199903342656e+01 0.0 
1.071994252214e+01 -1.255727909771e+01 0.0 
9.826974788171e+00 -1.298659581767e+01 0.0 
1.064607883789e+01 -1.354595476388e+01 0.0 
9.751541265343e+00 -1.397556905071e+01 0.0 
8.932296185869e+00 -1.341553353988e+01 0.0 
8.856399248106e+00 -1.440570715508e+01 0.0 
8.036186803543e+00 -1.384470558472e+01 0.0 
1.057112875118e+01 -1.453516759081e+01 0.0 
1.146582585687e+01 -1.410539926903e+01 0.0 
7.959894480382e+00 -1.483563350928e+01 0.0 
7.138792279156e+00 -1.427465094140e+01 0.0 
7.062506792418e+00 -1.526615385482e+01 0.0 
6.240693558277e+00 -1.470508863040e+01 0.0 
6.316957575451e+00 -1.371212581281e+01 0.0 
5.418183007107e+00 -1.414253605022e+01 0.0 
5.494748364428e+00 -1.314886770603e+01 0.0 
1.756825565873e+01 -1.206433872514e+01 0.0 
1.837565773345e+01 -1.261356468266e+01 0.0 
1.749574831391e+01 -1.303769280014e+01 0.0 
1.830539187332e+01 -1.358828364284e+01 0.0 
1.742278925170e+01 -1.401367746928e+01 0.0 
1.823303007798e+01 -1.456432294258e+01 0.0 
1.734941694138e+01 -1.499213734361e+01 0.0 
1.653760041637e+01 -1.443920312098e+01 0.0 
3.056237977307e+01 -1.487132260174e+01 0.0 
1.866469084762e+01 -8.742953000418e+00 0.0 
1.953669694916e+01 -8.326038909849e+00 0.0 
1.874194303780e+01 -7.780688158966e+00 0.0 
1.961032016741e+01 -7.366854697285e+00 0.0 
1.881715755159e+01 -6.821102209649e+00 0.0 
1.968369797150e+01 -6.407747217358e+00 0.0 
1.889237123259e+01 -5.858375520026e+00 0.0 
1.802038875366e+01 -6.276202618170e+00 0.0 
1.809793837984e+01 -5.307629520489e+00 0.0 
1.721985207997e+01 -5.728242054488e+00 0.0 
1.729850893523e+01 -4.756990819347e+00 0.0 
1.641745664240e+01 -5.174636548624e+00 0.0 
2.495978509456e+01 -1.304406404294e+01 0.0 
1.911567814831e+01 -1.413854250293e+01 0.0 
1.904387332608e+01 -1.511463127723e+01 0.0 
1.992115934240e+01 -1.468788025898e+01 0.0 
7.013706899628e+00 -4.812582868662e+00 0.0 
5.342091874585e+00 -1.513658157269e+01 0.0 
1.139098043784e+01 -1.509488509480e+01 0.0 
1.228151810610e+01 -1.465617481983e+01 0.0 
1.646373110164e+01 -1.541993323337e+01 0.0 
5.293328636712e+00 -4.678385108584e+00 0.0 
1.975965862987e+01 -5.448124345648e+00 0.0 
2.054318374236e+01 -5.992561293251e+00 0.0 
3.721453439063e+01 -1.533216152738e+01 0.0 
3.809302733893e+01 -1.489235527381e+01 0.0 
1.220852788900e+01 -1.565304565230e+01 0.0 
4.394120899730e+00 -5.108397613210e+00 0.0 
8.779354620288e+00 -1.539524721159e+01 0.0 
1.817791047702e+01 -4.338570146253e+00 0.0 
4.518860013839e+00 -1.457343189307e+01 0.0 
4.442712140414e+00 -1.556841391069e+01 0.0 
8.115343466391e+00 -1.285760324283e+01 0.0 
1.985334703171e+01 -1.566478400426e+01 0.0 
2.071953850276e+01 -1.522074243119e+01 0.0 
1.634012953883e+01 -6.154777738301e+00 0.0 
1.553479994708e+01 -5.593730508879e+00 0.0 
1.561265946942e+01 -4.617761762647e+00 0.0 
1.470674212978e+01 -5.064576488228e+00 0.0 
1.464498299883e+01 -6.026514471420e+00 0.0 
1.383271561817e+01 -5.467796261169e+00 0.0 
1.389241253067e+01 -4.504338666645e+00 0.0 
1.301868735463e+01 -4.907185188626e+00 0.0 
1.294514184846e+01 -5.888160903592e+00 0.0 
1.212955968622e+01 -5.328262335277e+00 0.0 
1.220721122383e+01 -4.341264976687e+00 0.0 
1.131324345897e+01 -4.766773516508e+00 0.0 
5.266597955397e+00 -1.613148974258e+01 0.0 
1.737805990867e+01 -3.786677807525e+00 0.0 
3.078438094513e+01 -1.203225297748e+01 0.0 
1.131569882285e+01 -1.608511932110e+01 0.0 
1.728478341782e+01 -1.596017432313e+01 0.0 
3.803465906019e+01 -1.587509751228e+01 0.0 
3.891681276677e+01 -1.543395196905e+01 0.0 
3.897340985302e+01 -1.444710288980e+01 0.0 
3.980095968193e+01 -1.499059496613e+01 0.0 
3.974334598189e+01 -1.597921884150e+01 0.0 
4.062964983717e+01 -1.553518690417e+01 0.0 
4.068729602479e+01 -1.454434445295e+01 0.0 
4.151772679790e+01 -1.508974196007e+01 0.0 
4.157505195739e+01 -1.409694289912e+01 0.0 
4.240699932656e+01 -1.464347955968e+01 0.0 
4.234898051011e+01 -1.563721375790e+01 0.0 
4.323934606035e+01 -1.519082036405e+01 0.0 
4.329740528208e+01 -1.419587509788e+01 0.0 
4.413056841369e+01 -1.474359631875e+01 0.0 
4.418850110108e+01 -1.374786684042e+01 0.0 
4.502219770667e+01 -1.429605103525e+01 0.0 
4.496411937907e+01 -1.529215882720e+01 0.0 
4.490027319897e+00 -4.154167794594e+00 0.0 
1.565080385988e+01 -1.486411982419e+01 0.0 
1.557610691279e+01 -1.584855627870e+01 0.0 
4.195350646612e+00 -8.089117689096e+00 0.0 
4.124027797830e+00 -9.082831955007e+00 0.0 
4.917944318925e+00 -9.643530901533e+00 0.0 
4.020105689502e+00 -1.007439673661e+01 0.0 
4.587185899277e+01 -1.484039992728e+01 0.0 
4.580078661551e+01 -1.584043391042e+01 0.0 
2.061956522375e+01 -5.046701343981e+00 0.0 
2.139572955529e+01 -5.579553449826e+00 0.0 
3.715344357292e+01 -1.631485124583e+01 0.0 
3.618886196443e+00 -1.500471207167e+01 0.0 
3.695606940204e+00 -1.400939692294e+01 0.0 
2.438890661143e+01 -9.686110599723e+00 0.0 
2.523267572778e+01 -9.276766000622e+00 0.0 
2.446094171539e+01 -8.751904591412e+00 0.0 
2.529089822738e+01 -8.321495612547e+00 0.0 
2.606882688827e+01 -8.864724051119e+00 0.0 
2.452116646430e+01 -7.792756462004e+00 0.0 
1.235543269617e+01 -1.365845617339e+01 0.0 
4.318116874181e+01 -1.618567469992e+01 0.0 
7.835066111909e+00 -5.376366223896e+00 0.0 
7.905687335704e+00 -4.382539065697e+00 0.0 
3.542640009567e+00 -1.600035116542e+01 0.0 
1.572431503071e+01 -1.388358386695e+01 0.0 
2.574684696680e+01 -1.357896141127e+01 0.0 
2.488842657651e+01 -1.399674354505e+01 0.0 
2.568301775611e+01 -1.453552048595e+01 0.0 
2.481535572009e+01 -1.495542756508e+01 0.0 
2.561729699688e+01 -1.549784648532e+01 0.0 
2.474623061296e+01 -1.592058894178e+01 0.0 
2.394234041695e+01 -1.537572575827e+01 0.0 
2.065825452567e+01 -1.621899055217e+01 0.0 
2.387180528935e+01 -1.634552264687e+01 0.0 
4.585364400844e+01 -1.383912334080e+01 0.0 
1.998744432052e+01 -1.370317155541e+01 0.0 
1.205356951443e+01 -6.313580285498e+00 0.0 
5.396543905849e+00 -3.731818611283e+00 0.0 
1.139652573295e+01 -3.745819399350e+00 0.0 
3.574124306703e+00 -4.551456826011e+00 0.0 
3.494140761930e+00 -5.539787055649e+00 0.0 
1.213651452413e+01 -1.664505033022e+01 0.0 
2.555045568519e+01 -1.646529356744e+01 0.0 
2.641671114986e+01 -1.603899382371e+01 0.0 
2.612920721894e+01 -7.906435260873e+00 0.0 
2.690339829698e+01 -8.456969591431e+00 0.0 
1.978024383368e+01 -1.664410216353e+01 0.0 
3.732829979082e+01 -1.336926601859e+01 0.0 
4.074336584605e+01 -1.355133328401e+01 0.0 
4.163204691081e+01 -1.310280943992e+01 0.0 
3.773826114429e+00 -3.493444309145e+00 0.0 
1.228783001032e+01 -3.374822835872e+00 0.0 
4.057110462520e+01 -1.652588478000e+01 0.0 
2.132535497898e+01 -6.523623360525e+00 0.0 
2.216932532211e+01 -6.110044769206e+00 0.0 
1.825781152128e+01 -3.370146817147e+00 0.0 
1.745679445888e+01 -2.812942552063e+00 0.0 
4.666517057280e+01 -1.539981381543e+01 0.0 
4.660575894464e+01 -1.639014410186e+01 0.0 
4.838230979954e+00 -1.063643436446e+01 0.0 
3.938942630206e+00 -1.106778981745e+01 0.0 
1.302967218620e+01 -1.621373452436e+01 0.0 
1.049548003190e+01 -4.204825123240e+00 0.0 
4.573571907195e+01 -1.683820511148e+01 0.0 
1.483686335807e+01 -1.430849689310e+01 0.0 
1.490982658890e+01 -1.332679386284e+01 0.0 
3.190805600162e+00 -9.510968358545e+00 0.0 
2.146625721848e+01 -4.642437303115e+00 0.0 
2.069866208266e+01 -4.111852942193e+00 0.0 
1.286859345584e+01 -6.873252723348e+00 0.0 
1.041794493184e+01 -5.194814260291e+00 0.0 
2.671081808965e+00 -4.976806516331e+00 0.0 
1.295786792925e+01 -1.720506531799e+01 0.0 
3.968438206511e+01 -1.696869067241e+01 0.0 
2.308550456051e+01 -1.579963151273e+01 0.0 
2.315593682844e+01 -1.482967445235e+01 0.0 
2.299471449450e+01 -1.677069968132e+01 0.0 
1.057344714696e+01 -3.214252277840e+00 0.0 
1.124057603753e+01 -1.707713739755e+01 0.0 
2.718402535754e+00 -1.543629882103e+01 0.0 
2.638549692805e+01 -1.696744916809e+01 0.0 
2.723416349007e+01 -1.658104204545e+01 0.0 
2.210193351704e+01 -7.046769643417e+00 0.0 
2.295180925161e+01 -6.657397605239e+00 0.0 
2.301355235833e+01 -5.709111896800e+00 0.0 
2.379052718281e+01 -6.254965406962e+00 0.0 
3.243528601237e+01 -1.214181853533e+01 0.0 
2.287977995457e+01 -7.583722368300e+00 0.0 
2.999876029544e+01 -1.150837653096e+01 0.0 
3.084435366963e+01 -1.109693775882e+01 0.0 
3.006650579669e+01 -1.057778994262e+01 0.0 
2.683802665066e+01 -9.386863216633e+00 0.0 
2.768641973621e+01 -8.988883915666e+00 0.0 
2.040296980397e+01 -7.903629133404e+00 0.0 
1.925235024054e+01 -1.218872783130e+01 0.0 
5.735667000424e+00 -1.020577277283e+01 0.0 
6.396559909872e+00 -1.272326295703e+01 0.0 
1.161199420714e+01 -1.212812778229e+01 0.0 
4.229046132615e+01 -1.663084237572e+01 0.0 
4.312275399692e+01 -1.718087491556e+01 0.0 
4.335502068163e+01 -1.320039231514e+01 0.0 
4.424630298089e+01 -1.275160688731e+01 0.0 
7.090116643816e+00 -3.818998061530e+00 0.0 
7.989472176569e+00 -3.389238711200e+00 0.0 
9.085824861778e+00 -1.144036167408e+01 0.0 
1.041972423731e+01 -1.651614080893e+01 0.0 
3.797525112640e+01 -1.686052038746e+01 0.0 
3.709114253394e+01 -1.730125999865e+01 0.0 
3.626966748340e+01 -1.675477052919e+01 0.0 
1.385164591440e+01 -1.677597757552e+01 0.0 
1.787152588784e+01 -8.198993896093e+00 0.0 
1.668849729812e+01 -1.248560611628e+01 0.0 
1.659546177905e+01 -3.232482605530e+00 0.0 
2.332214717345e+01 -1.292598167641e+01 0.0 
7.168238450786e+00 -2.824711686516e+00 0.0 
2.894878403906e+01 -1.475427524446e+01 0.0 
2.646763248247e+00 -1.643270107952e+01 0.0 
3.467431944285e+00 -1.699648837348e+01 0.0 
2.059475877282e+01 -1.719473628526e+01 0.0 
3.333868355437e+01 -1.080596971682e+01 0.0 
2.246451062637e+01 -1.334557761546e+01 0.0 
2.167821896388e+01 -1.280847834858e+01 0.0 
3.089653185767e+01 -1.017198487212e+01 0.0 
3.012604365669e+01 -9.657298805968e+00 0.0 
2.929627299435e+01 -1.006100135274e+01 0.0 
2.936201435219e+01 -9.136748899251e+00 0.0 
1.198219052702e+01 -7.291887238230e+00 0.0 
1.116702076035e+01 -6.731976101053e+00 0.0 
2.551388807505e+01 -1.746927036981e+01 0.0 
2.378639090370e+01 -1.728678807149e+01 0.0 
2.718543627188e+01 -1.748668016909e+01 0.0 
2.804681050301e+01 -1.712626668293e+01 0.0 
1.970737034667e+01 -1.762317646822e+01 0.0 
1.889535776135e+01 -1.707158098231e+01 0.0 
2.593777711283e+00 -5.971157087874e+00 0.0 
2.773468281110e+01 -8.067164273938e+00 0.0 
4.051205884347e+01 -1.751819982458e+01 0.0 
3.166903145421e+01 -1.068032992414e+01 0.0 
1.033042452886e+01 -1.748285844336e+01 0.0 
9.519274604626e+00 -1.694349240233e+01 0.0 
1.668308673328e+01 -2.255861778986e+00 0.0 
1.570531902832e+01 -2.676795860126e+00 0.0 
4.655826903379e+01 -1.736656245706e+01 0.0 
2.384148070773e+01 -5.328744256413e+00 0.0 
2.460255123641e+01 -5.852182672816e+00 0.0 
2.306638135119e+01 -4.798935440613e+00 0.0 
8.467720450578e-01 -1.849576263072e+01 0.0 
4.849657322345e+01 -1.084860705506e+01 0.0 
2.565860899507e+00 -1.742859793981e+01 0.0 
2.764418872564e+01 -9.927142821799e+00 0.0 
4.565165880064e+01 -1.785336695404e+01 0.0 
2.162231831329e+01 -1.376528337468e+01 0.0 
2.360646352969e+01 -9.136041963102e+00 0.0 
1.392738739903e+01 -1.578285505772e+01 0.0 
4.756405947478e+01 -1.683706841809e+01 0.0 
4.740895034054e+01 -1.793766756892e+01 0.0 
4.080779328826e+01 -1.257387192544e+01 0.0 
4.168907939671e+01 -1.210739129181e+01 0.0 
3.991197722154e+01 -1.300815793917e+01 0.0 
1.905536506762e+01 -3.940076697685e+00 0.0 
1.923879596617e+01 -2.875000734166e+00 0.0 
4.401386745746e+01 -1.673483229438e+01 0.0 
4.247233362525e+00 -7.094581653070e+00 0.0 
3.286051630211e+00 -7.635300020553e+00 0.0 
9.609533347623e+00 -4.594311677967e+00 0.0 
9.523554636369e+00 -5.595597029530e+00 0.0 
5.660336628893e+00 -1.119290329628e+01 0.0 
6.558070063295e+00 -1.076385809362e+01 0.0 
2.809866407414e+01 -1.518037766799e+01 0.0 
2.888868674504e+01 -1.570360690070e+01 0.0 
2.654431550819e+01 -1.411217777162e+01 0.0 
1.402158265969e+01 -1.375404617952e+01 0.0 
1.409592494026e+01 -1.277071998942e+01 0.0 
1.499355196178e+01 -1.235270737023e+01 0.0 
4.221535326155e+01 -1.759335617494e+01 0.0 
4.305583287033e+01 -1.822663146802e+01 0.0 
1.280748808359e+01 -7.834332838285e+00 0.0 
1.368988389326e+01 -7.420529606172e+00 0.0 
1.110091796060e+01 -7.683966794328e+00 0.0 
3.963446145980e+01 -1.794331310122e+01 0.0 
3.423932362213e+00 -1.796415590455e+01 0.0 
4.280814572302e+00 -1.752272834860e+01 0.0 
8.050136380041e+00 -2.421582378631e+00 0.0 
8.888674091650e+00 -2.984264211327e+00 0.0 
2.152839430898e+01 -3.732609965436e+00 0.0 
2.077799585292e+01 -3.183896021866e+00 0.0 
3.618719395821e+01 -1.770276572576e+01 0.0 
3.538165138340e+01 -1.718709995539e+01 0.0 
3.702925326420e+01 -1.828844288807e+01 0.0 
1.756739438711e+00 -5.353284859169e+00 0.0 
2.233710191104e+01 -1.527265621324e+01 0.0 
1.389483555057e+01 -1.771797164730e+01 0.0 
1.475634224300e+01 -1.728357428390e+01 0.0 
1.298797563052e+01 -1.825968924755e+01 0.0 
2.145331271866e+01 -1.673705379077e+01 0.0 
2.133282821169e+01 -1.769400773673e+01 0.0 
2.292139194136e+01 -1.774915400288e+01 0.0 
1.750750053243e+01 -1.861475593469e+00 0.0 
4.830478841772e+01 -1.752611802221e+01 0.0 
4.341203507805e+01 -1.220326745522e+01 0.0 
1.685254151866e+01 -1.443085301632e+00 0.0 
4.431538535165e+01 -1.171841387375e+01 0.0 
4.511308610496e+01 -1.229557320599e+01 0.0 
4.510133242889e+01 -1.123680627466e+01 0.0 
1.846818030617e+00 -4.410877617069e+00 0.0 
3.995468694584e+01 -1.186571542989e+01 0.0 
3.901387459804e+01 -1.242507616755e+01 0.0 
8.966735877533e+00 -1.837818700423e+00 0.0 
4.049310011091e+01 -1.848269508791e+01 0.0 
7.278862053803e+00 -1.918523922691e+00 0.0 
6.429715522129e+00 -2.316676521184e+00 0.0 
9.443505505022e+00 -1.792198868094e+01 0.0 
8.620386951051e+00 -1.737590365556e+01 0.0 
8.571868171503e+00 -1.834436667826e+01 0.0 
7.758629848526e+00 -1.775677907213e+01 0.0 
7.806648388584e+00 -1.680761266021e+01 0.0 
6.908555145436e+00 -1.723746463044e+01 0.0 
4.251709122090e+01 -1.156937480156e+01 0.0 
6.931136405615e+00 -1.832465719263e+01 0.0 
6.015545461353e+00 -1.768865355295e+01 0.0 
5.960535926343e+00 -1.872011001764e+01 0.0 
3.023253444786e+01 -8.761960642196e+00 0.0 
2.454622702599e+01 -6.749421992767e+00 0.0 
2.537499741604e+01 -6.347634963783e+00 0.0 
2.544077378460e+01 -5.431358513649e+00 0.0 
2.801367161747e+01 -1.820907270221e+01 0.0 
2.884507806914e+01 -1.762032095326e+01 0.0 
1.821474531936e+00 -1.588901260460e+01 0.0 
1.821006262604e+00 -1.489370287756e+01 0.0 
4.599962488908e+01 -1.176478780598e+01 0.0 
4.705457470007e+01 -1.172182804229e+01 0.0 
4.667668314802e+01 -1.263464558483e+01 0.0 
4.759648056504e+01 -1.252380987933e+01 0.0 
4.728041618103e+01 -1.341928568376e+01 0.0 
4.825209352360e+01 -1.330491640804e+01 0.0 
4.778118233428e+01 -1.420151961695e+01 0.0 
2.388192727579e+01 -1.826934810142e+01 0.0 
2.381714684947e+01 -4.385917965223e+00 0.0 
3.172733219247e+01 -9.758744265248e+00 0.0 
1.882012070658e+01 -1.805540597212e+01 0.0 
1.805667505243e+01 -1.742221226236e+01 0.0 
2.852599958080e+01 -8.597196079481e+00 0.0 
2.856486123437e+01 -7.661382718527e+00 0.0 
1.111792842875e+01 -1.818223852980e+01 0.0 
2.203322722466e+01 -7.986646678802e+00 0.0 
3.955703676900e+01 -1.903246763601e+01 0.0 
1.944842206513e+01 -8.038750575182e-01 0.0 
1.909882767783e+01 -1.746322740933e+00 0.0 
2.281147422941e+01 -8.525912918334e+00 0.0 
2.850633001468e+01 -9.533271335986e+00 0.0 
2.532883344309e+01 -7.308951659710e+00 0.0 
2.620475466461e+01 -6.979208585400e+00 0.0 
1.396278270396e+01 -1.475095389807e+01 0.0 
9.791001166724e+00 -2.554159793552e+00 0.0 
2.229293380421e+01 -4.269762271052e+00 0.0 
4.677238984118e+01 -1.430071795514e+01 0.0 
2.228658385918e+01 -3.344747535984e+00 0.0 
8.940223674553e-01 -1.543595733415e+01 0.0 
2.118566862474e+01 -8.435876987696e+00 0.0 
2.678325936437e+01 -1.032621195706e+01 0.0 
2.223400220487e+01 -5.179046761770e+00 0.0 
2.375370625384e+01 -7.251580562134e+00 0.0 
3.156971327386e+01 -1.255534750737e+01 0.0 
3.328226391312e+01 -1.172914813316e+01 0.0 
3.250948774219e+01 -1.120157009348e+01 0.0 
2.032993445717e+01 -8.867880112202e+00 0.0 
2.697226974856e+01 -7.536633082045e+00 0.0 
2.707377810386e+01 -6.590835263295e+00 0.0 
2.914099246827e+01 -1.191678458549e+01 0.0 
3.544824072239e+01 -1.621126558525e+01 0.0 
3.456511855436e+01 -1.665054783843e+01 0.0 
3.448395810225e+01 -1.759117813016e+01 0.0 
3.368378673938e+01 -1.708037781328e+01 0.0 
3.375560452567e+01 -1.610973066913e+01 0.0 
3.288001547988e+01 -1.654324255651e+01 0.0 
3.282475929147e+01 -1.749725654692e+01 0.0 
3.199880906313e+01 -1.697294088625e+01 0.0 
3.197001272932e+01 -1.811667776864e+01 0.0 
3.111884713021e+01 -1.742166785755e+01 0.0 
3.120418962865e+01 -1.642155709385e+01 0.0 
3.034666704371e+01 -1.683123833816e+01 0.0 
3.026224379976e+01 -1.772592851714e+01 0.0 
3.046632362943e+01 -1.582232843075e+01 0.0 
1.961344017324e+01 -1.857459447985e+01 0.0 
2.274975894774e+01 -9.532738811922e+00 0.0 
1.833923246887e+01 -2.396746883672e+00 0.0 
1.988859500848e+01 -2.249244376594e+00 0.0 
2.758045562861e+01 -1.086434261689e+01 0.0 
3.247300178163e+01 -1.909930104252e+01 0.0 
3.461947482503e+01 -1.911879848019e+01 0.0 
2.047161538662e+01 -6.941478180358e+00 0.0 
2.750230940214e+01 -1.915490590764e+01 0.0 
3.165081350803e+01 -1.161860780120e+01 0.0 
1.897456727641e+01 -4.889634688522e+00 0.0 
2.549338539756e+01 -1.914858252089e+01 0.0 
3.462873135081e+01 -1.567482276144e+01 0.0 
3.384432415243e+01 -1.512280684518e+01 0.0 
3.471433767690e+01 -1.469086942990e+01 0.0 
3.651470373046e+01 -1.918207952149e+01 0.0 
3.901742690249e+01 -1.345028556517e+01 0.0 
2.153224102692e+01 -1.920169709333e+01 0.0 
1.918382939341e+01 -1.316226275662e+01 0.0 
2.005389162382e+01 -1.271962165174e+01 0.0 
2.011472087878e+01 -1.175029352900e+01 0.0 
3.210679478412e+01 -1.598038618242e+01 0.0 
1.752175226543e+01 -1.914713022656e+01 0.0 
1.696897240059e+01 -1.832772588765e+01 0.0 
1.599682523337e+01 -1.832599992024e+01 0.0 
1.644507199462e+01 -1.743697981535e+01 0.0 
1.549987712903e+01 -1.915192375101e+01 0.0 
3.050250861901e+01 -1.918943550234e+01 0.0 
2.949944061527e+01 -1.922950455235e+01 0.0 
1.375892575273e+01 -6.447160534926e+00 0.0 
1.457223670180e+01 -7.006709243857e+00 0.0 
1.450818793236e+01 -7.965943451779e+00 0.0 
1.538804712402e+01 -7.553409623699e+00 0.0 
1.545817644768e+01 -6.580929593419e+00 0.0 
1.626506893751e+01 -7.129032608911e+00 0.0 
1.619833811522e+01 -8.086588580887e+00 0.0 
1.714448609609e+01 -6.697429609777e+00 0.0 
2.887616543568e+01 -1.668015232137e+01 0.0 
1.349814589130e+01 -1.918225301544e+01 0.0 
1.153887772210e+01 -1.311384581217e+01 0.0 
1.242708159886e+01 -1.267046795531e+01 0.0 
1.249799674267e+01 -1.169005616014e+01 0.0 
6.631723893693e+00 -9.774184881867e+00 0.0 
7.451471631867e+00 -1.033148796006e+01 0.0 
7.377795355458e+00 -1.132196345268e+01 0.0 
5.810931797536e+00 -9.211654212252e+00 0.0 
2.402683899133e+01 -1.441378562320e+01 0.0 
1.249768692036e+01 -1.917388426624e+01 0.0 
1.580373499437e+01 -1.290751860664e+01 0.0 
8.344650507834e+00 -9.898403995170e+00 0.0 
3.750622115305e+01 -1.086526401533e+01 0.0 
3.699391251667e+01 -1.171695900794e+01 0.0 
3.606517829518e+01 -1.173717504500e+01 0.0 
3.650257641795e+01 -1.270047380221e+01 0.0 
3.808951488918e+01 -1.183518714175e+01 0.0 
4.760380962420e+00 -1.162484888315e+01 0.0 
3.861210370848e+00 -1.205657631736e+01 0.0 
3.038284309476e+00 -1.149851280664e+01 0.0 
2.961598794889e+00 -1.248856794980e+01 0.0 
2.138953225512e+00 -1.193212674534e+01 0.0 
2.227383593457e+00 -1.096258903918e+01 0.0 
2.043265419276e+00 -1.292158472959e+01 0.0 
1.252449446028e+00 -1.225502002753e+01 0.0 
3.949985210740e+01 -1.086594001795e+01 0.0 
1.453499444792e+01 -8.768805922472e-01 0.0 
1.403518950933e+01 -1.749965556633e+00 0.0 
1.300715031023e+01 -1.714737233040e+00 0.0 
1.350929389899e+01 -2.527443911291e+00 0.0 
1.449600910711e+01 -2.595486162864e+00 0.0 
1.395693872901e+01 -3.484211041558e+00 0.0 
1.495105865208e+01 -3.364609636216e+00 0.0 
1.508822528740e+01 -1.766586020494e+00 0.0 
1.250223858430e+01 -8.634590186802e-01 0.0 
1.200279523409e+01 -1.709044504992e+00 0.0 
1.150086239419e+01 -8.592789190668e-01 0.0 
1.101482754194e+01 -1.677730591922e+00 0.0 
1.148018564526e+01 -2.659323866909e+00 0.0 
8.800552119754e+00 -3.989875954728e+00 0.0 
3.452790439430e+00 -1.901136170646e+01 0.0 
8.658451825200e-01 -9.503462241795e+00 0.0 
1.694787786797e+00 -9.000589234502e+00 0.0 
1.703436717094e+00 -8.038819004041e+00 0.0 
2.594197971110e+00 -8.563955242845e+00 0.0 
1.630513735412e+00 -9.907244747511e+00 0.0 
8.566859292791e-01 -7.512203837972e+00 0.0 
1.685461277022e+00 -7.164280248030e+00 0.0 
2.506394468801e+00 -8.623386730818e-01 0.0 
2.007475081581e+00 -1.727729545205e+00 0.0 
9.211534699767e-01 -1.628791366312e+00 0.0 
1.500000000020e+00 -2.598063549486e+00 0.0 
2.482078929963e+00 -2.553580088725e+00 0.0 
2.999795253092e+00 -1.732169015019e+00 0.0 
3.999712607169e+00 -1.728832897453e+00 0.0 
4.499752199340e+00 -8.656478679175e-01 0.0 
4.964377774841e+00 -1.730129617941e+00 0.0 
4.425017908337e+00 -2.597541756243e+00 0.0 
5.446573195014e+00 -8.410144840023e-01 0.0 
4.915722346614e+01 -1.550640962770e+01 0.0 
4.826794919243e+01 -1.600000000000e+01 0.0 
1.053139533193e+01 -1.911782884365e+01 0.0 
4.156049861949e+01 -1.095160998589e+01 0.0 
9.494526624416e+00 -8.650570090219e-01 0.0 
4.555762166964e+01 -1.897098103585e+01 0.0 
4.250656411371e+01 -1.914387356218e+01 0.0 
4.350906466345e+01 -1.917234727395e+01 0.0 
8.759665722424e-01 -1.746422130609e+01 0.0 
1.698936011838e+00 -1.795012186674e+01 0.0 
4.742476811029e+01 -1.900090177972e+01 0.0 
7.749196752349e+00 -6.368049313489e+00 0.0 
3.361572113416e+01 -1.798765193915e+01 0.0 
4.484660149212e+01 -1.728661231383e+01 0.0 
1.984038172228e+01 -4.502575320116e+00 0.0 
1.035080352627e+01 -6.166639575753e+00 0.0 
2.753558010652e+00 -1.444909521181e+01 0.0 
7.217069543032e+00 -1.328635391078e+01 0.0 
4.364336727739e+00 -1.655585677381e+01 0.0 
4.595208426108e+00 -1.357919665443e+01 0.0 
6.164967006980e+00 -1.569873454630e+01 0.0 
1.487855768353e+01 -1.826523774028e+01 0.0 
2.791876456372e+00 -4.019632415181e+00 0.0 
4.246464893515e+01 -1.364898659620e+01 0.0 
4.503855590351e+01 -1.329552780944e+01 0.0 
4.407239109604e+01 -1.573900004093e+01 0.0 
5.141054449252e+00 -6.664290382472e+00 0.0 
3.141083947149e+00 -1.055790764912e+01 0.0 
6.196463198741e+00 -4.256497932609e+00 0.0 
2.599618716181e+01 -1.836893455464e+01 0.0 
2.923057372337e+01 -1.098461757645e+01 0.0 
1.168343877486e+01 -1.114079645041e+01 0.0 
6.706222096238e+00 -8.780364234441e+00 0.0 
8.567858614669e+00 -6.943121440850e+00 0.0 
1.123755132901e+01 -5.753525820030e+00 0.0 
2.353456234423e+01 -1.008536320953e+01 0.0 
9.162073319168e+00 -1.045593739109e+01 0.0 
9.676343469685e+00 -1.496493008366e+01 0.0 
4.490637882905e+01 -1.628778970202e+01 0.0 
7.398129387772e+00 -9.639977982323e-01 0.0 
1.049641705805e+01 -1.552503975272e+01 0.0 
9.010356286268e+00 -1.242805042052e+01 0.0 
3.985573925497e+01 -1.399863651620e+01 0.0 
1.816196318262e+01 -1.554066497931e+01 0.0 
1.306332244168e+01 -3.963646550326e+00 0.0 
4.145850903932e+01 -1.608094559275e+01 0.0 
3.794664933633e+01 -1.779020121986e+01 0.0 
3.819614412903e+01 -1.290749321016e+01 0.0 
6.270014188119e+00 -3.255093186826e+00 0.0 
4.251165370388e+01 -1.263870364997e+01 0.0 
1.207347709171e+01 -1.763942826023e+01 0.0 
3.633240829927e+01 -1.577330481104e+01 0.0 
4.319052668832e+00 -6.101812561904e+00 0.0 
1.676492415806e+01 -1.151547901392e+01 0.0 
2.594059220037e+01 -1.074225223009e+01 0.0 
3.340750911501e+01 -9.898764354137e+00 0.0 
4.397619591281e+01 -1.769773736461e+01 0.0 
2.175611595028e+01 -1.185718747128e+01 0.0 
1.641818733106e+01 -1.640685203215e+01 0.0 
1.661211421753e+01 -1.346121366338e+01 0.0 
3.428853504935e+00 -6.551993389271e+00 0.0 
8.700728832502e+00 -1.638460872825e+01 0.0 
1.931369795309e+01 -1.121629383702e+01 0.0 
4.139798872363e+01 -1.706922153459e+01 0.0 
2.647837478700e+01 -1.507353829290e+01 0.0 
1.779469616424e+01 -9.161615782908e+00 0.0 
3.885879219319e+01 -1.642026488918e+01 0.0 
1.338194936770e+01 -1.125916521471e+01 0.0 
1.897071181111e+01 -1.609204322578e+01 0.0 
2.844308548793e+01 -1.046221003096e+01 0.0 
2.659854702194e+01 -1.316109415760e+01 0.0 
2.979604503271e+01 -1.433296157755e+01 0.0 
2.417694041347e+01 -1.251231397779e+01 0.0 
1.807401327411e+00 -1.388891148480e+01 0.0 
9.599810618782e+00 -1.595439365034e+01 0.0 
1.652144692160e+01 -4.205392788472e+00 0.0 
2.367839450246e+01 -8.188385218643e+00 0.0 
3.814894930468e+01 -1.390748338767e+01 0.0 
2.466448215774e+01 -1.685878545680e+01 0.0 
4.134044524611e+01 -1.806610045954e+01 0.0 
2.600511411958e+01 -9.801774120648e+00 0.0 
7.882158050716e+00 -1.582364037353e+01 0.0 
3.881607873422e+01 -1.737970515013e+01 0.0 
8.270182347708e+00 -1.088622154920e+01 0.0 
8.672520392520e-01 -4.532984309881e+00 0.0 
1.993447205337e+01 -3.579061902667e+00 0.0 
1.794616079549e+01 -7.238038888498e+00 0.0 
2.097277068165e+01 -1.132450168636e+01 0.0 
8.194803300681e+00 -1.187214224265e+01 0.0 
3.522279404911e+01 -1.823342818178e+01 0.0 
6.984481050295e+00 -1.625271465557e+01 0.0 
1.309433007797e+01 -1.521718594215e+01 0.0 
2.150246167611e+01 -1.885399038185e+00 0.0 
3.250689370209e+01 -1.028789870535e+01 0.0 
6.085886272238e+00 -1.668342132851e+01 0.0 
1.588455661727e+01 -1.193498985921e+01 0.0 
1.809323400821e+01 -1.651110084195e+01 0.0 
1.348885082381e+00 -1.136065576512e+01 0.0 
2.497670221995e+01 -1.834631276173e+01 0.0 
2.937062818424e+01 -8.233711194470e+00 0.0 
5.185823744469e+00 -1.711566910207e+01 0.0 
1.477497877209e+01 -1.530177014512e+01 0.0 
2.125346158933e+01 -7.473003997367e+00 0.0 
4.751561118290e+01 -1.084897772632e+01 0.0 
5.056026576843e+00 -1.825750475525e+01 0.0 
1.473948554523e+01 -1.634577436309e+01 0.0 
2.410566630936e+01 -1.345970002612e+01 0.0 
1.507337507513e+01 -1.138527895328e+01 0.0 
3.189857338687e+01 -8.887781229006e+00 0.0 
7.298712468334e+00 -1.230231046246e+01 0.0 
2.738235495295e+01 -1.368931690364e+01 0.0 
3.750141041969e+01 -1.920449893070e+01 0.0 
1.557271965640e+01 -1.683317951731e+01 0.0 
3.393731848929e+01 -1.413034777044e+01 0.0 
6.482156824153e+00 -1.174575135362e+01 0.0 
2.077971718439e+01 -1.421279621836e+01 0.0 
3.455084320178e+00 -2.562590040585e+00 0.0 
3.099056096250e+01 -9.270280416035e+00 0.0 
5.580176125418e+00 -1.217387969259e+01 0.0 
1.707247630389e+01 -7.660651981710e+00 0.0 
1.418658814174e+01 -1.180390575393e+01 0.0 
2.049103025389e+01 -1.811296706038e+01 0.0 
4.680386172316e+00 -1.260396879301e+01 0.0 
1.699679896554e+01 -8.624561788199e+00 0.0 
3.779470168555e+00 -1.303424899720e+01 0.0 
3.036589870126e+01 -7.879832518349e+00 0.0 
3.306993001774e+01 -1.457671062095e+01 0.0 
2.840150110165e+00 -1.346530088269e+01 0.0 
2.732011135052e+01 -1.464591214560e+01 0.0 
5.423639259568e+00 -2.659711955016e+00 0.0 
2.324455961696e+01 -1.387269388211e+01 0.0 
1.752768355571e+00 -1.693128613594e+01 0.0 
1.020244783051e+01 -8.076834012808e+00 0.0 
1.330873875224e+01 -1.222417528206e+01 0.0 
3.297727364880e+01 -1.555480372087e+01 0.0 
2.890929955439e+01 -6.868664170731e+00 0.0 
1.323294664622e+01 -1.320754260334e+01 0.0 
2.726532861246e+01 -1.560593120806e+01 0.0 
2.240020643398e+01 -1.429299177247e+01 0.0 
2.090445823633e+01 -1.228128621332e+01 0.0 
1.315809881502e+01 -1.420739326938e+01 0.0 
2.781328038068e+01 -7.181956082300e+00 0.0 
8.614200829057e+00 -5.936933226306e+00 0.0 
8.714765730069e+00 -4.979270529687e+00 0.0 
1.611881701099e+01 -9.041973294003e+00 0.0 
2.806830314340e+01 -1.614622947108e+01 0.0 
2.084435391396e+00 -3.385085422913e+00 0.0 
3.133211811152e+01 -1.542347619750e+01 0.0 
9.693114650768e+00 -3.590281506442e+00 0.0 
1.531883592202e+01 -8.504584946143e+00 0.0 
2.151589117094e+01 -1.578915763018e+01 0.0 
4.918943882696e+01 -1.355538828056e+01 0.0 
1.443236615188e+01 -8.918701794549e+00 0.0 
8.276250966452e-01 -5.537685192197e+00 0.0 
1.362790867918e+01 -8.374718262212e+00 0.0 
2.083767477370e+01 -1.324843956035e+01 0.0 
1.273834678703e+01 -8.790890389337e+00 0.0 
1.192275845670e+01 -8.242261327467e+00 0.0 
4.477236023583e+01 -1.824312396664e+01 0.0 
1.102989384254e+01 -8.649855800911e+00 0.0 
4.849096516045e+01 -1.917293752213e+01 0.0 
1.588996752238e+00 -1.910230934687e+01 0.0 
4.904245197583e+01 -1.159839008158e+01 0.0 
2.753852929608e+01 -5.782128488093e+00 0.0 
1.756133602833e+01 -8.306130313187e-01 0.0 
2.615423700951e+01 -6.153865090092e+00 0.0 
1.028818761294e+01 -7.122020845892e+00 0.0 
2.970818901196e+01 -1.527821347593e+01 0.0 
4.801461623449e+01 -1.164472570985e+01 0.0 
9.455722100419e+00 -6.546069291118e+00 0.0 
3.089099236677e+01 -1.835339328261e+01 0.0 
2.350000000013e+01 -1.920825896750e+01 0.0 
4.830620531887e+01 -1.506626155470e+01 0.0 
1.725381944701e+01 -1.688794487850e+01 0.0 
2.156246225273e+01 -1.475893794002e+01 0.0 
4.919319648787e+01 -1.742767505896e+01 0.0 
4.437935623576e+01 -1.077662927266e+01 0.0 
1.001520521978e+01 -1.652692675208e+00 0.0 
9.067160240050e-01 -1.441937727541e+01 0.0 
2.603365149390e+01 -4.755996613848e+00 0.0 
2.458344439002e+01 -4.873645517696e+00 0.0 
2.304312390142e+01 -3.836552768096e+00 0.0 
2.546923202198e+00 -6.902480355749e+00 0.0 
1.251534969393e+01 -2.490989965776e+00 0.0 
2.454061833377e+01 -3.933354231935e+00 0.0 
1.788186558740e+01 -1.827424884923e+01 0.0 
4.090785243552e+01 -1.166553231904e+01 0.0 
2.230128851568e+01 -1.623015738726e+01 0.0 
2.302362347568e+01 -2.916239960270e+00 0.0 
3.878119254461e+01 -1.830091164002e+01 0.0 
2.210081359958e+01 -1.829238229150e+01 0.0 
8.443704882233e+00 -1.921993252862e+01 0.0 
2.218405824691e+01 -1.724557581508e+01 0.0 
2.151157503963e+01 -2.790636689331e+00 0.0 
3.741658958955e+01 -1.250400191722e+01 0.0 
2.697247663737e+01 -1.838290202309e+01 0.0 
4.743362342862e+01 -1.585850773010e+01 0.0 
6.671345075358e+00 -1.924977576322e+01 0.0 
3.900825404537e+01 -1.157220003875e+01 0.0 
4.649692961375e+01 -1.836335837481e+01 0.0 
1.578831424832e+01 -3.678284023361e+00 0.0 
4.814208768888e+01 -1.841249298770e+01 0.0 
2.964123298315e+01 -1.625739458193e+01 0.0 
4.580760351902e+01 -1.284294554687e+01 0.0 
3.561520879615e+01 -1.245548941949e+01 0.0 
2.555418095658e+00 -1.841101588290e+01 0.0 
3.288468366144e+01 -1.834258164109e+01 0.0 
2.065894391445e+01 -2.240688571739e+00 0.0 
4.739171429915e+01 -1.496536413446e+01 0.0 
3.478086729185e+00 -8.576434653209e+00 0.0 
1.606010630246e+01 -1.588421807951e+00 0.0 
1.018329200594e+01 -1.834320874317e+01 0.0 
2.957213339430e+01 -1.720496954591e+01 0.0 
4.142712790164e+00 -1.837794506222e+01 0.0 
6.698721532573e-01 -2.499999999997e+00 0.0 
8.037039123140e+00 -1.571229354954e+00 0.0 
1.203541361428e+01 -1.847784298001e+01 0.0 
2.899968332038e+01 -1.848264722179e+01 0.0 
1.469229460948e+01 -4.219485753730e+00 0.0 
4.049590781957e+01 -1.932812501995e+01 0.0 
1.996211678340e+01 -1.506329754720e+00 0.0 
4.250588298353e+01 -1.067383247529e+01 0.0 
5.831497011152e+00 -1.635396227234e+00 0.0 
5.317606125670e+00 -1.923927974868e+01 0.0 
4.208546426993e+01 -1.842830665025e+01 0.0 
2.327553405011e+00 -9.459409929662e+00 0.0 
3.568351902251e+01 -1.096637218582e+01 0.0 
1.682104374890e+00 -6.231413350963e+00 0.0 
2.451812238018e+01 -1.766524914339e+01 0.0 
1.058003429638e+01 -2.391839617098e+00 0.0 
4.399988753123e+01 -1.851998776342e+01 0.0 
1.400000000010e+01 -1.852293523028e+01 0.0 
3.604719565984e+01 -1.850662876800e+01 0.0 
1.951297136734e+01 -1.938092349694e+01 0.0 
1.821365318472e+01 -1.531276353287e+00 0.0 
2.298031859732e+01 -1.854635324722e+01 0.0 
1.552168066204e+01 -1.764280741977e+01 0.0 
4.572957713638e+01 -1.073347898229e+01 0.0 
3.429637429624e+01 -1.838861552790e+01 0.0 
2.427434426052e+00 -7.705577451869e+00 0.0 
4.662792031485e+00 -3.359424455416e+00 0.0 
4.926794919243e+01 -1.926794919243e+01 0.0 
7.320508075690e-01 -7.320508075688e-01 0.0 
4.926794919243e+01 -1.073205080757e+01 0.0 
7.320508075705e-01 -1.926794919243e+01 0.0 
2.917460242467e+00 -3.202866455310e+00 0.0 
4.838200575963e+01 -1.232674147454e+01 0.0 
2.998445708009e+01 -1.854403752148e+01 0.0 
5.949940090766e-01 -1.152762038165e+01 0.0 
4.844763495759e+01 -1.678092548787e+01 0.0 
1.301685480160e+01 -3.170056592566e+00 0.0 
1.650046335855e+01 -6.731535384067e-01 0.0 
4.854881540991e+01 -1.405224059779e+01 0.0 
2.119545114693e+01 -1.846813384545e+01 0.0 
3.797852849897e+01 -1.857978513215e+01 0.0 
4.649823708745e+01 -1.338351810816e+01 0.0 
2.012685900976e+01 -2.889659035009e+00 0.0 
2.953271913273e+01 -1.791558075192e+01 0.0 
2.408509097292e+00 -1.021949208421e+01 0.0 
2.642589566221e+01 -1.773216561448e+01 0.0 
1.730010270775e+01 -1.763165076721e+01 0.0 
2.017406551304e+01 -8.513536440582e-01 0.0 
5.254761581934e-01 -1.249999999999e+01 0.0 
6.640448215642e+00 -1.545337834885e+00 0.0 
7.843361506349e+00 -1.852719839527e+01 0.0 
1.588442191088e+00 -1.066158564320e+01 0.0 
2.280866189488e+01 -1.416779325160e+00 0.0 
4.950862068966e+01 -1.500000000000e+00 0.0 
2.431250000000e+01 -2.420918367347e+00 0.0 
4.950961538461e+01 -2.500000000000e+00 0.0 
2.580823483239e+01 -3.416278049680e+00 0.0 
4.950961538461e+01 -3.500000000000e+00 0.0 
2.731250000000e+01 -4.420918367347e+00 0.0 
4.951086956522e+01 -4.500000000000e+00 0.0 
2.880770112393e+01 -5.415638864241e+00 0.0 
4.951086956522e+01 -5.500000000000e+00 0.0 
3.031250000000e+01 -6.420918367347e+00 0.0 
4.951250000000e+01 -6.500000000000e+00 0.0 
3.180701530612e+01 -7.414795918363e+00 0.0 
4.951250000000e+01 -7.500000000000e+00 0.0 
3.331250000000e+01 -8.420918367347e+00 0.0 
4.951470588234e+01 -8.500000000000e+00 0.0 
3.480610198624e+01 -9.413633635267e+00 0.0 
4.951470588234e+01 -9.500000000000e+00 0.0 

CELLS 2360 9440 
3 384 854 1130 
3 854 384 1132 
3 864 357 875 
3 977 742 1166 
3 744 804 970 
3 834 747 873 
3 364 786 788 
3 384 811 1132 
3 786 364 804 
3 737 972 1166 
3 356 931 932 
3 811 384 1146 
3 976 1128 1172 
3 793 924 1014 
3 1128 390 1172 
3 383 977 1166 
3 792 363 933 
3 747 834 872 
3 371 791 1113 
3 791 371 1051 
3 972 737 1125 
3 1102 348 1108 
3 829 1102 1108 
3 779 778 988 
3 478 634 923 
3 931 356 1040 
3 114 82 1193 
3 823 349 1065 
3 476 478 923 
3 988 778 1198 
3 728 938 940 
3 381 794 971 
3 864 875 1173 
3 19 369 844 
3 379 798 800 
3 807 66 1164 
3 66 807 1190 
3 826 375 870 
3 790 105 1143 
3 105 790 1204 
3 1066 808 1092 
3 344 830 969 
3 1147 345 1151 
3 82 393 1193 
3 785 392 1142 
3 824 1147 1151 
3 938 728 941 
3 392 785 1168 
3 934 935 941 
3 924 793 1165 
3 386 829 1066 
3 776 791 1051 
3 554 1167 1185 
3 386 1066 1092 
3 876 358 1056 
3 1149 721 1194 
3 776 1051 1120 
3 369 814 844 
3 637 965 1083 
3 972 383 1166 
3 343 1177 1218 
3 1157 783 1159 
3 603 631 837 
3 1167 940 1185 
3 948 767 1172 
3 829 386 1102 
3 1177 787 1218 
3 357 864 1137 
3 664 625 946 
3 353 812 878 
3 1040 983 1094 
3 33 32 832 
3 823 1065 1195 
3 4 5 958 
3 955 1149 1194 
3 795 360 1046 
3 876 1056 1205 
3 843 1148 1155 
3 965 637 1207 
3 1148 385 1155 
3 625 638 946 
3 363 792 1153 
3 348 854 1108 
3 854 348 1130 
3 804 744 1016 
3 786 804 1016 
3 815 1040 1145 
3 18 19 844 
3 869 866 1114 
3 744 970 1153 
3 971 794 1144 
3 395 922 1193 
3 968 1139 1163 
3 1163 1139 1175 
3 361 33 832 
3 870 375 1200 
3 792 933 1165 
3 969 830 1178 
3 389 821 1118 
3 837 631 838 
3 970 804 1188 
3 390 948 1172 
3 551 1117 1141 
3 782 1157 1159 
3 672 670 848 
3 935 938 941 
3 975 976 1098 
3 741 968 1163 
3 343 934 941 
3 1071 366 1190 
3 516 869 1114 
3 4 958 1209 
3 739 835 871 
3 706 1022 1060 
3 750 952 1176 
3 810 837 838 
3 605 603 837 
3 379 800 1158 
3 821 389 1213 
3 809 605 837 
3 840 770 1115 
3 393 395 1193 
3 968 741 1216 
3 605 809 848 
3 1160 1059 1174 
3 825 1075 1084 
3 952 750 1206 
3 1075 350 1084 
3 360 795 1186 
3 772 1160 1174 
3 931 1040 1094 
3 742 977 1168 
3 679 736 836 
3 350 808 1084 
3 798 379 1178 
3 976 733 1128 
3 815 983 1040 
3 836 736 1036 
3 780 908 1198 
3 712 828 836 
3 762 973 974 
3 812 353 1184 
3 1014 924 1161 
3 621 593 842 
3 828 679 836 
3 808 350 1092 
3 736 874 1036 
3 848 674 1043 
3 364 788 1143 
3 835 470 871 
3 794 381 1182 
3 1129 1135 1213 
3 959 371 1113 
3 387 825 1060 
3 908 780 917 
3 809 672 848 
3 844 815 1145 
3 811 345 1147 
3 1117 777 1141 
3 370 816 817 
3 831 470 835 
3 814 369 1098 
3 664 840 1115 
3 976 735 1098 
3 851 724 879 
3 366 1071 1180 
3 1129 734 1135 
3 670 674 848 
3 1022 387 1060 
3 356 932 1229 
3 345 811 1146 
3 470 831 845 
3 593 644 842 
3 816 370 1204 
3 674 835 1043 
3 825 387 1075 
3 718 907 1112 
3 952 653 1176 
3 349 823 1138 
3 878 812 1162 
3 810 838 1132 
3 653 952 1192 
3 895 1025 1079 
3 828 712 1066 
3 811 810 1132 
3 851 706 1060 
3 835 739 1043 
3 359 972 1125 
3 482 891 1101 
3 369 975 1098 
3 824 385 1148 
3 680 845 1069 
3 866 891 1114 
3 81 115 833 
3 712 808 1066 
3 1068 740 1072 
3 964 1096 1189 
3 979 372 1205 
3 477 402 884 
3 1099 458 1126 
3 588 1068 1072 
3 922 395 1171 
3 923 634 1161 
3 778 780 1198 
3 1109 1000 1136 
3 846 417 874 
3 676 566 879 
3 483 477 884 
3 673 851 879 
3 724 851 1060 
3 622 1082 1122 
3 907 756 1112 
3 833 367 834 
3 838 854 1132 
3 838 631 853 
3 736 846 874 
3 891 861 1101 
3 747 746 1052 
3 740 839 1058 
3 790 816 1204 
3 845 831 1069 
3 536 1058 1107 
3 796 1006 1230 
3 882 483 884 
3 1006 352 1230 
3 964 965 1096 
3 385 824 1151 
3 1109 752 1110 
3 856 483 882 
3 752 751 1110 
3 732 841 847 
3 558 939 1011 
3 770 947 1115 
3 1025 588 1079 
3 724 676 879 
3 767 948 1180 
3 115 367 833 
3 641 671 847 
3 431 470 845 
3 829 828 1066 
3 839 740 1068 
3 807 1071 1190 
3 1093 482 1101 
3 540 522 877 
3 588 1072 1079 
3 1040 356 1145 
3 874 484 1036 
3 883 884 1080 
3 783 1157 1202 
3 431 845 852 
3 671 732 847 
3 401 673 849 
3 832 32 1186 
3 417 846 1021 
3 890 433 1029 
3 817 816 818 
3 946 638 1150 
3 673 850 851 
3 640 540 877 
3 746 880 981 
3 728 940 1167 
3 483 856 1018 
3 566 849 879 
3 605 848 1043 
3 856 695 1018 
3 891 482 1114 
3 484 855 997 
3 351 805 1164 
3 681 890 1029 
3 409 675 855 
3 739 871 1002 
3 681 889 890 
3 523 539 880 
3 921 362 922 
3 435 432 852 
3 552 903 904 
3 883 1093 1101 
3 115 116 367 
3 673 399 850 
3 522 520 877 
3 596 641 847 
3 525 523 880 
3 404 401 849 
3 794 840 1144 
3 632 722 853 
3 681 888 889 
3 849 673 879 
3 921 922 923 
3 642 747 872 
3 552 904 906 
3 553 556 903 
3 838 853 854 
3 883 1080 1093 
3 631 632 853 
3 518 435 852 
3 845 680 852 
3 642 746 747 
3 871 427 1002 
3 771 841 843 
3 37 358 876 
3 39 372 875 
3 418 417 1021 
3 539 522 540 
3 595 596 654 
3 410 409 855 
3 539 540 595 
3 552 553 903 
3 484 997 1036 
3 973 762 1191 
3 877 680 1069 
3 1082 738 1122 
3 771 654 841 
3 376 57 896 
3 595 540 596 
3 415 484 874 
3 642 546 746 
3 918 611 1026 
3 432 431 852 
3 556 900 903 
3 675 566 676 
3 42 897 898 
3 520 518 680 
3 681 509 888 
3 655 654 771 
3 886 571 1009 
3 1058 839 1107 
3 671 672 730 
3 745 886 1009 
3 374 45 878 
3 648 740 1058 
3 41 357 897 
3 1014 634 1044 
3 869 516 1134 
3 732 730 824 
3 677 676 709 
3 409 566 675 
3 409 407 566 
3 485 1021 1047 
3 349 47 881 
3 476 923 1171 
3 850 706 851 
3 680 518 852 
3 751 947 1110 
3 709 724 825 
3 671 670 672 
3 370 817 1070 
3 556 899 900 
3 520 680 877 
3 860 882 883 
3 641 670 671 
3 675 676 677 
3 509 511 888 
3 684 911 998 
3 50 373 887 
3 712 710 808 
3 524 526 906 
3 765 1099 1126 
3 731 810 811 
3 730 672 731 
3 866 863 891 
3 415 413 484 
3 722 828 829 
3 677 709 710 
3 54 375 892 
3 375 826 1152 
3 863 861 891 
3 883 882 884 
3 911 451 998 
3 603 604 631 
3 523 522 539 
3 521 520 522 
3 417 415 874 
3 698 918 1026 
3 466 912 913 
3 859 857 860 
3 526 552 906 
3 600 485 601 
3 855 675 997 
3 602 601 603 
3 357 40 875 
3 372 38 876 
3 372 979 1173 
3 684 910 911 
3 695 597 1018 
3 671 730 732 
3 519 518 520 
3 746 546 880 
3 632 679 722 
3 920 921 924 
3 886 1014 1044 
3 896 894 988 
3 867 866 869 
3 401 399 673 
3 408 407 409 
3 546 525 880 
3 943 945 946 
3 470 429 871 
3 423 421 485 
3 429 427 871 
3 340 1059 1160 
3 817 818 819 
3 947 751 1115 
3 596 640 641 
3 57 56 896 
3 530 532 622 
3 394 706 850 
3 371 959 1181 
3 1021 846 1047 
3 431 429 470 
3 407 404 849 
3 353 43 898 
3 709 676 724 
3 413 410 855 
3 466 913 919 
3 857 856 882 
3 684 909 910 
3 44 353 878 
3 41 40 357 
3 37 36 358 
3 39 38 372 
3 406 404 407 
3 860 857 882 
3 865 863 866 
3 603 601 604 
3 631 604 632 
3 915 912 999 
3 859 860 861 
3 46 374 881 
3 774 695 856 
3 888 622 889 
3 774 856 857 
3 615 613 916 
3 423 485 600 
3 722 679 828 
3 595 654 655 
3 361 832 1156 
3 602 603 605 
3 996 715 1065 
3 912 466 999 
3 557 560 899 
3 376 896 988 
3 641 669 670 
3 42 41 897 
3 372 876 1205 
3 414 413 415 
3 943 944 945 
3 44 43 353 
3 341 892 893 
3 556 557 899 
3 511 530 888 
3 347 51 887 
3 123 342 944 
3 600 601 602 
3 412 410 413 
3 416 415 417 
3 484 413 855 
3 654 596 847 
3 46 45 374 
3 517 435 518 
3 643 642 872 
3 805 351 1231 
3 944 342 945 
3 711 710 712 
3 938 939 940 
3 825 724 1060 
3 341 55 892 
3 48 47 349 
3 566 407 849 
3 935 937 938 
3 784 643 872 
3 938 937 939 
3 1028 726 1041 
3 920 362 921 
3 396 394 850 
3 50 49 373 
3 378 920 924 
3 358 36 885 
3 618 615 916 
3 745 793 886 
3 731 809 810 
3 530 622 888 
3 746 981 1052 
3 52 51 347 
3 40 39 875 
3 38 37 876 
3 684 492 909 
3 487 489 915 
3 423 600 1002 
3 492 494 909 
3 54 53 375 
3 596 540 640 
3 903 902 904 
3 900 901 902 
3 635 745 1009 
3 58 376 908 
3 935 936 937 
3 56 55 341 
3 899 764 900 
3 43 42 898 
3 865 866 867 
3 122 123 944 
3 600 739 1002 
3 694 597 695 
3 45 44 878 
3 406 407 408 
3 661 618 662 
3 655 771 772 
3 894 893 895 
3 656 763 764 
3 900 764 901 
3 934 377 935 
3 47 46 881 
3 880 539 981 
3 648 696 740 
3 745 792 793 
3 982 714 1001 
3 900 902 903 
3 408 409 410 
3 51 50 887 
3 489 591 915 
3 500 536 606 
3 420 418 421 
3 759 652 760 
3 904 902 905 
3 909 606 910 
3 421 418 1021 
3 757 614 1031 
3 530 531 532 
3 422 421 423 
3 459 461 919 
3 641 640 669 
3 487 915 999 
3 662 618 916 
3 486 509 681 
3 56 341 896 
3 773 695 774 
3 657 982 1001 
3 55 54 892 
3 341 893 894 
3 428 427 429 
3 935 377 936 
3 59 908 917 
3 858 857 859 
3 560 656 899 
3 58 57 376 
3 494 500 909 
3 632 678 679 
3 399 396 850 
3 486 681 1029 
3 490 684 998 
3 652 611 918 
3 884 402 1080 
3 711 836 1036 
3 532 550 551 
3 819 818 820 
3 461 466 919 
3 511 513 530 
3 656 713 763 
3 683 505 984 
3 121 122 942 
3 670 669 674 
3 656 764 899 
3 912 754 913 
3 426 424 427 
3 500 606 909 
3 635 743 745 
3 560 623 656 
3 59 58 908 
3 412 413 414 
3 682 753 754 
3 414 415 416 
3 682 754 912 
3 942 122 944 
3 398 396 399 
3 951 950 952 
3 352 128 966 
3 591 646 682 
3 500 535 536 
3 980 650 1005 
3 760 918 1062 
3 760 652 918 
3 394 354 706 
3 378 112 920 
3 775 885 1078 
3 416 417 418 
3 128 129 966 
3 770 690 947 
3 936 942 943 
3 752 1109 1136 
3 668 718 1112 
3 748 980 1005 
3 545 1028 1041 
3 469 467 978 
3 507 505 683 
3 648 659 696 
3 565 546 642 
3 382 950 951 
3 355 954 955 
3 344 60 917 
3 60 59 917 
3 950 949 953 
3 682 646 753 
3 490 492 684 
3 696 778 779 
3 690 609 947 
3 543 628 648 
3 964 962 965 
3 591 682 915 
3 913 754 914 
3 368 961 962 
3 382 949 950 
3 694 695 773 
3 129 130 963 
3 113 362 920 
3 113 114 362 
3 611 515 1026 
3 355 10 954 
3 656 623 713 
3 841 654 847 
3 801 799 802 
3 881 374 996 
3 685 579 1012 
3 731 672 809 
3 794 770 840 
3 677 710 711 
3 109 363 970 
3 108 109 970 
3 129 963 966 
3 963 962 964 
3 957 959 960 
3 533 474 608 
3 368 956 961 
3 949 346 953 
3 343 119 934 
3 474 469 978 
3 822 820 842 
3 111 112 378 
3 718 813 907 
3 494 499 500 
3 819 820 821 
3 10 11 954 
3 957 960 961 
3 30 29 973 
3 360 30 973 
3 745 743 792 
3 363 110 933 
3 954 951 955 
3 28 359 974 
3 608 474 978 
3 112 113 920 
3 111 378 933 
3 709 825 1084 
3 36 35 885 
3 973 29 974 
3 368 962 963 
3 130 368 963 
3 769 690 770 
3 913 914 1050 
3 975 733 976 
3 118 119 343 
3 380 967 968 
3 120 377 934 
3 651 611 652 
3 120 121 377 
3 119 120 934 
3 758 652 759 
3 704 767 768 
3 821 820 822 
3 997 711 1036 
3 956 957 961 
3 506 507 986 
3 25 24 977 
3 383 25 977 
3 110 111 933 
3 587 515 611 
3 29 28 974 
3 661 662 777 
3 957 958 959 
3 956 391 957 
3 957 391 958 
3 11 12 382 
3 390 69 948 
3 80 79 392 
3 132 391 956 
3 13 346 949 
3 70 69 390 
3 68 366 948 
3 61 344 969 
3 76 365 967 
3 78 77 380 
3 69 68 948 
3 68 67 366 
3 380 77 967 
3 132 133 391 
3 106 107 364 
3 109 110 363 
3 368 131 956 
3 65 64 351 
3 379 62 969 
3 63 62 379 
3 131 132 956 
3 130 131 368 
3 61 60 344 
3 62 61 969 
3 76 75 365 
3 103 104 370 
3 77 76 967 
3 74 73 389 
3 101 102 734 
3 127 128 352 
3 125 126 381 
3 124 125 971 
3 123 124 342 
3 13 14 346 
3 12 13 949 
3 125 381 971 
3 16 17 356 
3 342 124 971 
3 34 33 361 
3 28 27 359 
3 31 30 360 
3 6 7 371 
3 9 10 355 
3 27 26 972 
3 19 20 369 
3 26 25 383 
3 20 21 975 
3 21 22 733 
3 382 12 949 
3 359 27 972 
3 26 383 972 
3 369 20 975 
3 21 733 975 
3 598 599 983 
3 377 121 942 
3 489 590 591 
3 963 964 966 
3 801 802 803 
3 682 912 915 
3 564 548 985 
3 533 608 609 
3 1096 797 1189 
3 704 768 985 
3 591 592 646 
3 382 951 954 
3 548 610 985 
3 741 742 785 
3 11 382 954 
3 536 535 543 
3 498 496 549 
3 598 547 599 
3 666 598 983 
3 517 518 519 
3 711 712 836 
3 427 424 1002 
3 506 505 507 
3 610 703 704 
3 814 666 815 
3 657 751 752 
3 729 650 737 
3 645 594 650 
3 790 789 816 
3 504 502 505 
3 547 506 986 
3 741 729 742 
3 645 729 741 
3 549 496 1008 
3 704 735 767 
3 607 579 685 
3 814 815 844 
3 805 803 806 
3 737 650 980 
3 584 582 585 
3 500 499 535 
3 544 626 627 
3 563 649 657 
3 769 770 794 
3 936 377 942 
3 645 650 729 
3 704 703 735 
3 943 942 944 
3 862 861 863 
3 788 688 789 
3 534 548 564 
3 610 666 703 
3 713 714 765 
3 703 666 814 
3 788 789 790 
3 530 513 531 
3 805 806 807 
3 776 658 791 
3 800 799 801 
3 593 585 594 
3 627 658 721 
3 657 752 982 
3 929 927 930 
3 581 583 687 
3 468 472 487 
3 644 594 645 
3 584 593 621 
3 753 646 925 
3 815 666 983 
3 610 598 666 
3 593 594 644 
3 586 538 624 
3 646 592 647 
3 619 705 781 
3 585 992 1005 
3 591 590 592 
3 498 549 984 
3 798 726 799 
3 584 585 593 
3 727 643 784 
3 701 796 797 
3 527 525 546 
3 610 704 985 
3 583 582 584 
3 931 929 932 
3 687 688 786 
3 648 628 659 
3 925 647 926 
3 548 598 610 
3 627 626 658 
3 801 803 805 
3 646 647 925 
3 721 658 776 
3 647 592 994 
3 487 488 489 
3 473 469 474 
3 928 929 931 
3 127 352 1006 
3 381 126 1006 
3 599 547 986 
3 544 586 626 
3 504 505 506 
3 505 502 984 
3 461 465 466 
3 560 561 623 
3 607 685 686 
3 873 747 1223 
3 489 589 590 
3 696 659 778 
3 626 586 637 
3 687 583 688 
3 786 688 788 
3 689 609 690 
3 725 692 726 
3 578 576 579 
3 544 538 586 
3 761 685 1030 
3 686 685 761 
3 481 538 544 
3 810 809 837 
3 475 474 533 
3 548 547 598 
3 926 927 928 
3 774 857 858 
3 607 686 748 
3 534 506 547 
3 504 506 534 
3 533 609 689 
3 534 547 548 
3 578 579 580 
3 928 927 929 
3 581 582 583 
3 580 579 607 
3 433 434 1029 
3 992 748 1005 
3 592 653 994 
3 926 647 927 
3 589 488 749 
3 463 460 464 
3 581 580 582 
3 455 457 490 
3 473 475 481 
3 701 690 769 
3 578 580 581 
3 473 474 475 
3 798 799 800 
3 585 582 992 
3 534 564 987 
3 341 894 896 
3 592 590 653 
3 481 475 538 
3 689 690 701 
3 503 502 504 
3 584 621 991 
3 701 769 796 
3 487 472 488 
3 791 658 989 
3 581 687 990 
3 489 488 589 
3 502 498 984 
3 589 749 750 
3 650 594 1005 
3 472 469 473 
3 497 501 545 
3 657 649 751 
3 501 498 502 
3 930 927 994 
3 503 504 987 
3 904 905 1086 
3 658 626 989 
3 789 688 991 
3 651 652 758 
3 601 485 1047 
3 583 584 991 
3 563 657 1001 
3 575 577 635 
3 626 637 989 
3 802 799 1028 
3 587 611 651 
3 532 531 550 
3 686 761 762 
3 490 491 492 
3 624 538 995 
3 495 493 496 
3 725 726 798 
3 713 623 714 
3 504 534 987 
3 582 580 992 
3 557 559 560 
3 497 496 498 
3 743 636 744 
3 627 721 1027 
3 468 469 472 
3 420 421 422 
3 501 502 503 
3 632 604 678 
3 422 423 424 
3 577 576 578 
3 688 583 991 
3 635 636 743 
3 927 647 994 
3 665 567 692 
3 492 493 494 
3 687 786 1016 
3 864 863 865 
3 551 550 619 
3 497 498 501 
3 580 607 992 
3 461 463 465 
3 465 467 468 
3 533 689 995 
3 494 495 499 
3 468 487 999 
3 577 578 990 
3 635 577 636 
3 437 439 486 
3 978 467 1000 
3 519 520 521 
3 468 467 469 
3 465 463 467 
3 475 533 995 
3 543 567 628 
3 456 454 458 
3 607 748 992 
3 452 454 455 
3 494 493 495 
3 490 457 491 
3 426 427 428 
3 538 475 995 
3 665 692 725 
3 665 725 830 
3 612 614 757 
3 461 460 463 
3 492 491 493 
3 578 581 990 
3 466 465 999 
3 600 602 739 
3 472 473 993 
3 623 561 1001 
3 459 460 461 
3 473 481 993 
3 544 627 1019 
3 491 457 691 
3 495 496 497 
3 630 667 668 
3 126 127 1006 
3 448 446 449 
3 452 450 453 
3 459 458 460 
3 636 577 990 
3 455 456 457 
3 488 472 993 
3 456 458 459 
3 594 585 1005 
3 749 488 993 
3 701 797 1015 
3 995 689 1015 
3 714 623 1001 
3 463 464 1000 
3 448 450 451 
3 455 454 456 
3 563 625 649 
3 624 995 1015 
3 886 793 1014 
3 993 481 1019 
3 543 535 567 
3 616 629 630 
3 400 399 401 
3 639 573 660 
3 668 717 718 
3 434 437 1029 
3 614 616 1031 
3 561 562 563 
3 459 919 1003 
3 430 429 431 
3 553 555 556 
3 625 562 638 
3 465 468 999 
3 452 453 454 
3 451 450 452 
3 749 993 1019 
3 455 490 998 
3 448 449 450 
3 444 446 447 
3 467 463 1000 
3 514 512 515 
3 575 576 577 
3 444 442 445 
3 628 567 665 
3 560 559 561 
3 778 659 780 
3 451 452 998 
3 718 812 813 
3 411 410 412 
3 561 563 1001 
3 403 401 404 
3 693 597 694 
3 451 911 1034 
3 674 831 835 
3 405 404 406 
3 485 421 1021 
3 563 562 625 
3 795 766 832 
3 649 625 664 
3 826 720 827 
3 980 748 1023 
3 537 515 587 
3 990 687 1016 
3 574 573 639 
3 447 446 448 
3 486 508 509 
3 723 660 766 
3 497 545 1004 
3 572 574 575 
3 651 758 839 
3 561 559 562 
3 572 570 573 
3 881 996 1065 
3 665 830 1017 
3 456 459 1003 
3 636 990 1016 
3 744 636 1016 
3 452 455 998 
3 499 495 1004 
3 535 499 1007 
3 689 701 1015 
3 521 522 523 
3 440 442 443 
3 444 445 446 
3 424 423 1002 
3 723 766 795 
3 859 861 862 
3 748 686 1023 
3 679 678 736 
3 569 541 597 
3 495 497 1004 
3 761 1030 1046 
3 542 570 571 
3 457 456 1003 
3 440 438 441 
3 572 573 574 
3 639 660 723 
3 579 576 1012 
3 575 574 576 
3 726 692 1041 
3 719 633 720 
3 692 567 1007 
3 496 493 1008 
3 808 710 1084 
3 514 537 568 
3 479 477 483 
3 481 544 1019 
3 443 442 444 
3 760 1062 1074 
3 509 510 511 
3 526 528 552 
3 440 441 442 
3 511 512 513 
3 677 711 997 
3 691 457 1003 
3 571 886 1044 
3 804 364 1188 
3 84 331 340 
3 493 491 1008 
3 537 587 588 
3 858 859 979 
3 486 439 508 
3 491 691 1008 
3 575 635 1009 
3 85 332 385 
3 514 515 537 
3 510 508 698 
3 675 677 997 
3 499 1004 1007 
3 556 555 557 
3 567 535 1007 
3 659 628 1017 
3 513 512 514 
3 576 574 1012 
3 620 618 661 
3 628 665 1017 
3 86 333 345 
3 571 572 1009 
3 781 705 782 
3 574 639 1012 
3 511 510 512 
3 439 438 440 
3 1081 753 1085 
3 565 642 643 
3 685 1012 1030 
3 1019 627 1027 
3 87 334 384 
3 617 615 618 
3 686 762 1023 
3 557 558 559 
3 419 418 420 
3 571 570 572 
3 1050 914 1055 
3 552 528 553 
3 674 669 831 
3 638 562 1011 
3 557 555 558 
3 559 558 1011 
3 509 508 510 
3 885 35 1078 
3 88 335 348 
3 799 726 1028 
3 436 435 517 
3 480 542 1044 
3 527 546 565 
3 780 659 1017 
3 562 559 1011 
3 750 749 1027 
3 531 513 1010 
3 448 451 1034 
3 619 633 705 
3 602 605 1043 
3 479 483 1018 
3 719 720 826 
3 572 575 1009 
3 859 862 979 
3 570 569 1033 
3 569 597 693 
3 539 595 981 
3 802 1028 1048 
3 542 569 570 
3 433 890 1054 
3 89 336 386 
3 719 826 870 
3 524 523 525 
3 749 1019 1027 
3 619 550 633 
3 371 7 1051 
3 425 424 426 
3 514 568 1010 
3 693 694 1013 
3 694 773 775 
3 513 514 1010 
3 660 573 1033 
3 434 432 435 
3 616 630 1031 
3 90 337 350 
3 865 867 868 
3 91 338 387 
3 339 91 1022 
3 437 486 1029 
3 82 339 354 
3 707 462 708 
3 428 429 430 
3 440 443 1020 
3 553 528 554 
3 437 438 439 
3 639 723 1030 
3 862 863 864 
3 545 501 1048 
3 705 633 719 
3 447 448 1034 
3 569 693 1033 
3 439 440 1020 
3 803 802 1057 
3 573 570 1033 
3 597 541 1018 
3 515 512 1026 
3 434 436 437 
3 630 629 667 
3 408 410 411 
3 553 554 555 
3 524 525 526 
3 739 602 1043 
3 416 418 419 
3 806 803 1061 
3 542 541 569 
3 437 436 438 
3 612 757 1037 
3 568 537 1025 
3 1012 639 1030 
3 668 667 717 
3 634 480 1044 
3 740 696 1072 
3 508 439 1020 
3 537 588 1025 
3 422 424 425 
3 766 660 1049 
3 718 717 812 
3 510 698 1026 
3 526 525 527 
3 620 661 663 
3 425 462 700 
3 434 435 436 
3 512 510 1026 
3 543 648 1058 
3 526 527 528 
3 698 508 1020 
3 403 404 405 
3 806 1061 1067 
3 405 406 516 
3 617 618 620 
3 400 401 403 
3 397 396 398 
3 411 412 471 
3 720 633 1035 
3 1028 545 1048 
3 480 541 542 
3 694 775 1013 
3 398 399 400 
3 517 519 697 
3 620 663 716 
3 1030 723 1046 
3 426 428 1024 
3 425 426 462 
3 436 517 1032 
3 541 479 1018 
3 678 604 1047 
3 707 708 738 
3 604 601 1047 
3 550 531 1035 
3 716 783 823 
3 441 438 1032 
3 565 643 699 
3 773 774 1056 
3 736 678 846 
3 1074 447 1087 
3 716 663 783 
3 480 479 541 
3 1004 545 1041 
3 430 431 432 
3 699 643 727 
3 1067 768 1071 
3 419 420 529 
3 532 551 1082 
3 667 629 715 
3 727 784 787 
3 1007 1004 1041 
3 640 877 1069 
3 478 480 634 
3 549 1055 1076 
3 438 436 1032 
3 803 1057 1061 
3 700 462 707 
3 517 697 1032 
3 419 529 612 
3 699 727 728 
3 614 615 616 
3 531 1010 1035 
3 813 812 1184 
3 616 617 629 
3 524 906 1053 
3 501 503 1048 
3 723 795 1046 
3 870 347 1088 
3 633 550 1035 
3 433 432 434 
3 612 613 614 
3 985 768 1067 
3 929 930 1064 
3 616 615 617 
3 542 571 1044 
3 802 1048 1057 
3 692 1007 1041 
3 103 370 1070 
3 734 102 1070 
3 403 405 482 
3 614 613 615 
3 683 984 1076 
3 411 471 702 
3 708 462 1024 
3 895 1079 1203 
3 430 432 433 
3 34 361 1078 
3 395 394 396 
3 462 426 1024 
3 549 1008 1055 
3 521 523 524 
3 691 1003 1050 
3 612 529 613 
3 414 416 1037 
3 478 479 480 
3 702 471 755 
3 702 755 756 
3 960 959 1113 
3 1003 919 1050 
3 846 678 1047 
3 406 408 1038 
3 516 406 1038 
3 827 720 1063 
3 7 8 1051 
3 554 528 1042 
3 420 422 1039 
3 919 913 1050 
3 91 387 1022 
3 354 339 1022 
3 478 477 479 
3 595 655 981 
3 1055 914 1076 
3 588 587 1068 
3 528 527 1042 
3 349 881 1065 
3 1033 693 1049 
3 754 753 1081 
3 1048 503 1057 
3 965 962 1083 
3 651 839 1068 
3 529 420 1039 
3 961 960 1083 
3 660 1033 1049 
3 527 565 1042 
3 408 411 1038 
3 416 419 1037 
3 444 447 1074 
3 910 606 1103 
3 693 1013 1049 
3 606 536 1107 
3 425 700 1039 
3 422 425 1039 
3 331 83 1059 
3 565 699 1042 
3 617 620 1045 
3 397 398 402 
3 620 716 1045 
3 669 640 1069 
3 861 860 1101 
3 715 629 1045 
3 706 354 1022 
3 629 617 1045 
3 503 987 1057 
3 916 613 1073 
3 691 1050 1055 
3 1008 691 1055 
3 774 858 1056 
3 911 910 1100 
3 419 612 1037 
3 890 889 1106 
3 536 543 1058 
3 1024 428 1054 
3 1053 906 1086 
3 918 698 1062 
3 697 519 1053 
3 411 702 1038 
3 697 1053 1086 
3 471 412 1077 
3 720 1035 1063 
3 1035 1010 1063 
3 428 430 1054 
3 476 477 478 
3 1057 987 1061 
3 987 564 1061 
3 655 772 1052 
3 471 1077 1095 
3 806 1067 1071 
3 722 829 1108 
3 683 1081 1085 
3 340 331 1059 
3 1061 564 1067 
3 521 524 1053 
3 932 929 1064 
3 1082 551 1141 
3 476 402 477 
3 397 402 476 
3 529 1039 1073 
3 90 350 1075 
3 387 338 1075 
3 564 985 1067 
3 1103 606 1107 
3 760 1074 1087 
3 587 651 1068 
3 1020 443 1062 
3 519 521 1053 
3 338 90 1075 
3 395 396 397 
3 102 103 1070 
3 1010 568 1063 
3 430 433 1054 
3 719 870 1088 
3 703 814 1098 
3 698 1020 1062 
3 807 806 1071 
3 1086 905 1090 
3 782 705 1088 
3 1039 700 1073 
3 662 916 1097 
3 696 779 1072 
3 460 458 1099 
3 1037 757 1077 
3 1062 443 1074 
3 414 1037 1077 
3 831 669 1069 
3 777 662 1105 
3 443 444 1074 
3 984 549 1076 
3 412 414 1077 
3 1174 388 1187 
3 889 622 1122 
3 843 340 1160 
3 624 1015 1096 
3 683 1076 1081 
3 630 668 1104 
3 402 398 1080 
3 89 386 1092 
3 35 34 1078 
3 83 330 388 
3 350 337 1092 
3 759 760 1087 
3 753 925 1085 
3 710 709 1084 
3 1116 901 1119 
3 1100 910 1103 
3 613 529 1073 
3 622 532 1082 
3 867 1169 1179 
3 981 655 1052 
3 914 754 1081 
3 1085 925 1089 
3 978 1000 1109 
3 393 354 394 
3 398 400 1080 
3 18 844 1145 
3 962 961 1083 
3 787 784 1131 
3 947 609 1110 
3 925 926 1089 
3 441 1090 1111 
3 902 901 1116 
3 906 904 1086 
3 507 683 1085 
3 403 482 1093 
3 1089 926 1091 
3 441 1032 1090 
3 1077 757 1095 
3 793 792 1165 
3 551 619 1117 
3 926 928 1091 
3 507 1085 1089 
3 88 348 1102 
3 445 442 1111 
3 1091 928 1094 
3 365 75 1118 
3 74 389 1118 
3 386 336 1102 
3 986 507 1089 
3 764 763 1121 
3 843 841 1148 
3 705 719 1088 
3 751 649 1115 
3 1121 763 1123 
3 1106 889 1122 
3 337 89 1092 
3 928 931 1094 
3 9 355 1120 
3 393 394 395 
3 986 1089 1091 
3 447 1034 1087 
3 1076 914 1081 
3 834 873 1187 
3 1142 380 1216 
3 449 446 1119 
3 1025 895 1140 
3 662 1097 1105 
3 599 986 1091 
3 599 1091 1094 
3 1090 905 1111 
3 664 946 1196 
3 873 1174 1187 
3 983 599 1094 
3 1072 779 1079 
3 713 765 1124 
3 757 1031 1095 
3 854 853 1108 
3 755 471 1095 
3 830 344 1183 
3 116 117 1131 
3 24 23 1127 
3 71 70 1128 
3 73 72 1129 
3 453 450 1123 
3 916 1073 1097 
3 1032 697 1090 
3 1015 797 1096 
3 83 388 1059 
3 980 1023 1125 
3 400 403 1093 
3 82 354 393 
3 48 349 1138 
3 1051 8 1120 
3 373 49 1138 
3 1080 400 1093 
3 458 454 1126 
3 1073 700 1097 
3 453 1123 1124 
3 732 824 1148 
3 1124 765 1126 
3 482 405 1114 
3 735 703 1098 
3 449 1119 1121 
3 755 1095 1104 
3 1131 117 1218 
3 445 1111 1116 
3 860 883 1101 
3 464 460 1099 
3 765 714 1133 
3 700 707 1097 
3 939 558 1185 
3 87 384 1130 
3 348 335 1130 
3 464 1133 1136 
3 759 1087 1100 
3 1024 1054 1106 
3 1095 1031 1104 
3 864 865 1137 
3 336 88 1102 
3 967 365 1139 
3 812 717 1162 
3 697 1086 1090 
3 340 843 1155 
3 853 722 1108 
3 1034 911 1100 
3 702 756 1134 
3 1087 1034 1100 
3 747 1052 1223 
3 758 759 1103 
3 824 730 1147 
3 1054 890 1106 
3 759 1100 1103 
3 1097 707 1105 
3 621 842 1222 
3 1000 464 1136 
3 771 843 1160 
3 758 1103 1107 
3 731 811 1147 
3 1131 784 1201 
3 392 79 1142 
3 78 380 1142 
3 945 342 1144 
3 839 758 1107 
3 608 1109 1110 
3 608 978 1109 
3 1104 668 1112 
3 707 738 1105 
3 1031 630 1104 
3 445 1116 1119 
3 105 106 1143 
3 379 969 1178 
3 609 608 1110 
3 568 1025 1140 
3 708 1024 1106 
3 791 989 1113 
3 516 1038 1134 
3 442 441 1111 
3 943 946 1150 
3 905 902 1116 
3 17 18 1145 
3 405 516 1114 
3 649 664 1115 
3 932 1064 1215 
3 756 755 1112 
3 619 781 1117 
3 1099 765 1133 
3 1120 355 1194 
3 708 1106 1122 
3 75 74 1118 
3 937 936 1150 
3 996 374 1162 
3 875 372 1173 
3 389 1129 1213 
3 832 766 1156 
3 897 357 1137 
3 446 445 1119 
3 449 1121 1123 
3 893 892 1152 
3 367 116 1131 
3 8 9 1120 
3 932 1215 1229 
3 464 1099 1133 
3 901 764 1121 
3 86 345 1146 
3 384 334 1146 
3 792 743 1153 
3 1111 905 1116 
3 1027 721 1149 
3 661 777 1154 
3 351 64 1158 
3 63 379 1158 
3 450 449 1123 
3 378 924 1165 
3 787 1131 1218 
3 85 385 1151 
3 940 939 1185 
3 345 333 1151 
3 738 708 1122 
3 763 713 1124 
3 1119 901 1121 
3 941 728 1177 
3 785 1142 1216 
3 1123 763 1124 
3 737 980 1125 
3 645 741 1163 
3 977 24 1127 
3 70 390 1128 
3 389 73 1129 
3 453 1124 1126 
3 335 87 1130 
3 454 453 1126 
3 66 65 1164 
3 84 340 1155 
3 385 332 1155 
3 827 1063 1140 
3 970 363 1153 
3 742 729 1166 
3 755 1104 1112 
3 781 782 1159 
3 867 869 1169 
3 818 816 1170 
3 1133 982 1136 
3 714 982 1133 
3 1139 365 1219 
3 1154 781 1159 
3 362 114 1193 
3 734 1070 1135 
3 817 819 1135 
3 816 789 1170 
3 699 728 1167 
3 982 752 1136 
3 762 974 1197 
3 991 621 1170 
3 347 870 1200 
3 865 868 1137 
3 1038 702 1134 
3 1049 1013 1156 
3 653 590 1176 
3 589 750 1176 
3 830 725 1178 
3 343 941 1177 
3 776 1120 1194 
3 49 48 1138 
3 6 371 1181 
3 1070 817 1135 
3 894 895 1203 
3 769 794 1182 
3 352 966 1189 
3 31 360 1186 
3 108 970 1188 
3 1046 360 1191 
3 893 1152 1227 
3 364 107 1188 
3 367 1131 1201 
3 977 1127 1168 
3 624 1096 1207 
3 762 761 1191 
3 67 66 1190 
3 862 864 1173 
3 554 1042 1167 
3 924 921 1161 
3 952 950 1192 
3 777 1117 1154 
3 52 347 1200 
3 968 967 1139 
3 375 53 1200 
3 728 727 1177 
3 805 807 1164 
3 555 554 1185 
3 960 1113 1212 
3 376 988 1198 
3 885 775 1199 
3 795 832 1186 
3 788 790 1143 
3 395 397 1171 
3 841 732 1148 
3 897 1137 1214 
3 955 951 1206 
3 772 1174 1223 
3 1117 781 1154 
3 104 105 1204 
3 775 773 1199 
3 3 80 1208 
3 23 3 1208 
3 133 0 1209 
3 0 4 1209 
3 72 1 1210 
3 1 101 1210 
3 2 71 1211 
3 22 2 1211 
3 958 391 1209 
3 118 343 1218 
3 1071 768 1180 
3 716 823 1195 
3 637 586 1207 
3 801 805 1231 
3 16 356 1229 
3 346 14 1215 
3 842 820 1222 
3 1011 939 1217 
3 777 1105 1141 
3 1096 965 1207 
3 994 653 1225 
3 1137 868 1214 
3 79 78 1142 
3 1064 346 1215 
3 819 821 1213 
3 715 996 1226 
3 1169 907 1179 
3 1134 756 1169 
3 106 364 1143 
3 738 1082 1141 
3 1056 858 1205 
3 721 776 1194 
3 342 971 1144 
3 667 715 1226 
3 1063 568 1140 
3 939 937 1217 
3 822 1139 1219 
3 948 366 1180 
3 715 1045 1195 
3 1065 715 1195 
3 356 17 1145 
3 833 834 1187 
3 334 86 1146 
3 730 731 1147 
3 921 923 1161 
3 1105 738 1141 
3 1023 762 1197 
3 892 375 1152 
3 936 943 1150 
3 945 1144 1196 
3 333 85 1151 
3 842 644 1175 
3 750 1027 1149 
3 1013 775 1221 
3 1113 989 1212 
3 826 827 1152 
3 743 744 1153 
3 887 373 1157 
3 663 661 1154 
3 923 922 1171 
3 917 780 1183 
3 775 1078 1221 
3 1127 392 1168 
3 332 84 1155 
3 766 1049 1156 
3 374 878 1162 
3 1152 827 1227 
3 663 1154 1159 
3 64 63 1158 
3 869 1134 1169 
3 81 833 1228 
3 772 771 1160 
3 868 867 1179 
3 634 1014 1161 
3 735 976 1172 
3 783 663 1159 
3 351 1158 1231 
3 644 645 1163 
3 347 887 1220 
3 1017 830 1183 
3 780 1017 1183 
3 1149 955 1206 
3 65 351 1164 
3 933 378 1165 
3 729 737 1166 
3 946 945 1196 
3 741 785 1216 
3 822 842 1175 
3 958 5 1181 
3 1042 699 1167 
3 756 907 1169 
3 360 973 1191 
3 785 742 1168 
3 1088 347 1220 
3 789 991 1170 
3 381 1006 1182 
3 872 834 1201 
3 1006 796 1182 
3 840 664 1196 
3 330 81 1228 
3 653 1192 1225 
3 767 735 1172 
3 979 862 1173 
3 397 476 1171 
3 590 589 1176 
3 725 798 1178 
3 779 988 1203 
3 1157 373 1202 
3 996 1162 1226 
3 907 813 1179 
3 1144 840 1196 
3 727 787 1177 
3 768 767 1180 
3 959 958 1181 
3 5 6 1181 
3 1059 388 1174 
3 796 769 1182 
3 344 917 1183 
3 353 898 1184 
3 1125 1023 1197 
3 373 1138 1202 
3 1079 779 1203 
3 1170 621 1222 
3 32 31 1186 
3 558 555 1185 
3 107 108 1188 
3 937 1150 1217 
3 966 964 1189 
3 366 67 1190 
3 922 362 1193 
3 1083 960 1212 
3 950 953 1192 
3 1184 898 1214 
3 761 1046 1191 
3 358 885 1199 
3 355 955 1194 
3 784 872 1201 
3 1158 800 1231 
3 1127 23 1208 
3 71 1128 1211 
3 1129 72 1210 
3 988 894 1203 
3 637 1083 1212 
3 1156 1013 1221 
3 352 1189 1230 
3 908 376 1198 
3 1056 358 1199 
3 834 367 1201 
3 1045 716 1195 
3 644 1163 1175 
3 974 359 1197 
3 53 52 1200 
3 365 1118 1219 
3 898 897 1214 
3 773 1056 1199 
3 1139 822 1175 
3 1184 1214 1224 
3 951 952 1206 
3 370 104 1204 
3 823 783 1202 
3 80 392 1208 
3 391 133 1209 
3 101 734 1210 
3 733 22 1211 
3 586 624 1207 
3 895 893 1227 
3 858 979 1205 
3 359 1125 1197 
3 989 637 1212 
3 1174 873 1223 
3 14 15 1215 
3 380 968 1216 
3 117 118 1218 
3 1078 361 1221 
3 821 822 1219 
3 638 1011 1217 
3 820 818 1222 
3 1138 823 1202 
3 1215 15 1229 
3 388 330 1228 
3 750 1149 1206 
3 930 994 1225 
3 15 16 1229 
3 782 1088 1220 
3 953 346 1232 
3 1064 930 1232 
3 797 796 1230 
3 800 801 1231 
3 717 667 1226 
3 1052 772 1223 
3 392 1127 1208 
3 1128 733 1211 
3 734 1129 1210 
3 1118 821 1219 
3 1225 953 1232 
3 930 1225 1232 
3 346 1064 1232 
3 827 1140 1227 
3 1150 638 1217 
3 1162 717 1226 
3 1135 819 1213 
3 361 1156 1221 
3 1140 895 1227 
3 818 1170 1222 
3 868 1179 1224 
3 1157 782 1220 
3 887 1157 1220 
3 1187 388 1228 
3 1179 813 1224 
3 813 1184 1224 
3 1189 797 1230 
3 1192 953 1225 
3 833 1187 1228 
3 1214 868 1224 
3 135 187 134 
3 186 187 135 
3 136 186 135 
3 185 186 136 
3 137 185 136 
3 184 185 137 
3 138 184 137 
3 183 184 138 
3 139 183 138 
3 182 183 139 
3 140 182 139 
3 181 182 140 
3 181 140 141 
3 180 181 141 
3 142 180 141 
3 179 180 142 
3 143 179 142 
3 178 179 143 
3 144 178 143 
3 177 178 144 
3 177 144 145 
3 176 177 145 
3 84 160 1233 
3 176 145 146 
3 175 176 146 
3 175 146 147 
3 84 162 160 
3 174 175 147 
3 174 147 148 
3 173 174 148 
3 173 148 149 
3 172 173 149 
3 160 161 1233 
3 150 172 149 
3 171 172 150 
3 171 150 151 
3 170 171 151 
3 170 151 152 
3 169 170 152 
3 169 152 153 
3 168 169 153 
3 168 153 154 
3 167 168 154 
3 167 154 155 
3 166 167 155 
3 331 84 1233 
3 165 166 156 
3 166 155 156 
3 164 165 157 
3 165 156 157 
3 163 164 158 
3 164 157 158 
3 162 163 159 
3 159 163 158 
3 162 159 160 
3 161 331 1233 
3 93 92 1234 
3 134 187 1234 
3 187 93 1234 
3 92 134 1234 
3 161 83 331 
3 212 211 187 
3 211 186 187 
3 211 210 186 
3 210 185 186 
3 210 209 185 
3 209 184 185 
3 209 208 184 
3 208 183 184 
3 208 207 183 
3 207 182 183 
3 207 206 182 
3 206 181 182 
3 206 205 181 
3 205 180 181 
3 205 204 180 
3 180 204 179 
3 204 203 179 
3 203 178 179 
3 203 202 178 
3 202 177 178 
3 163 85 1235 
3 202 201 177 
3 201 176 177 
3 201 200 176 
3 162 163 1235 
3 200 175 176 
3 200 199 175 
3 188 85 163 
3 199 174 175 
3 199 198 174 
3 198 173 174 
3 198 197 173 
3 197 172 173 
3 197 196 172 
3 196 171 172 
3 196 195 171 
3 171 195 170 
3 85 332 1235 
3 195 194 170 
3 170 194 169 
3 194 193 169 
3 169 193 168 
3 192 167 168 
3 193 192 168 
3 167 191 166 
3 192 191 167 
3 166 190 165 
3 191 190 166 
3 165 189 164 
3 188 163 164 
3 190 189 165 
3 189 188 164 
3 332 162 1235 
3 93 94 1236 
3 212 187 1236 
3 187 93 1236 
3 94 212 1236 
3 162 332 84 
3 211 212 213 
3 211 213 214 
3 210 211 214 
3 215 210 214 
3 209 210 215 
3 216 209 215 
3 208 209 216 
3 217 208 216 
3 207 208 217 
3 218 207 217 
3 206 207 218 
3 219 206 218 
3 205 206 219 
3 220 205 219 
3 204 205 220 
3 221 204 220 
3 203 204 221 
3 203 221 222 
3 202 203 222 
3 189 86 1237 
3 223 202 222 
3 201 202 223 
3 201 223 224 
3 86 189 235 
3 200 201 224 
3 200 224 225 
3 199 200 225 
3 199 225 226 
3 198 199 226 
3 188 189 1237 
3 198 226 227 
3 197 198 227 
3 197 227 228 
3 196 197 228 
3 196 228 229 
3 195 196 229 
3 195 229 230 
3 194 195 230 
3 194 230 231 
3 193 194 231 
3 193 231 232 
3 86 333 1237 
3 192 232 233 
3 192 193 232 
3 191 233 234 
3 191 192 233 
3 190 234 235 
3 190 191 234 
3 189 190 235 
3 333 188 1237 
3 94 95 1238 
3 213 212 1238 
3 95 213 1238 
3 212 94 1238 
3 188 333 85 
3 213 256 257 
3 213 214 256 
3 214 255 256 
3 214 215 255 
3 215 254 255 
3 215 216 254 
3 216 253 254 
3 216 217 253 
3 217 252 253 
3 217 218 252 
3 218 251 252 
3 218 219 251 
3 219 250 251 
3 219 220 250 
3 250 220 249 
3 220 221 249 
3 221 248 249 
3 221 222 248 
3 87 234 1239 
3 222 247 248 
3 222 223 247 
3 223 246 247 
3 234 235 1239 
3 246 223 224 
3 234 87 236 
3 245 246 224 
3 225 245 224 
3 244 245 225 
3 226 244 225 
3 244 226 243 
3 226 227 243 
3 243 227 242 
3 227 228 242 
3 334 87 1239 
3 242 228 241 
3 228 229 241 
3 241 229 240 
3 229 230 240 
3 230 231 239 
3 230 239 240 
3 231 232 238 
3 239 231 238 
3 232 233 237 
3 233 234 236 
3 238 232 237 
3 237 233 236 
3 235 334 1239 
3 96 95 1240 
3 213 257 1240 
3 95 213 1240 
3 257 96 1240 
3 334 235 86 
3 256 257 258 
3 256 258 259 
3 255 256 259 
3 255 259 260 
3 254 255 260 
3 261 254 260 
3 261 253 254 
3 261 262 253 
3 262 252 253 
3 262 263 252 
3 263 251 252 
3 263 264 251 
3 264 250 251 
3 264 265 250 
3 250 265 249 
3 265 266 249 
3 266 248 249 
3 237 88 1241 
3 266 267 248 
3 267 247 248 
3 277 88 237 
3 267 268 247 
3 268 246 247 
3 268 269 246 
3 246 269 245 
3 269 270 245 
3 236 237 1241 
3 245 270 244 
3 270 271 244 
3 244 271 243 
3 271 272 243 
3 243 272 242 
3 272 273 242 
3 242 273 241 
3 273 274 241 
3 241 274 240 
3 274 275 240 
3 88 335 1241 
3 275 276 239 
3 275 239 240 
3 276 277 238 
3 239 276 238 
3 238 277 237 
3 335 236 1241 
3 96 97 1242 
3 258 257 1242 
3 97 258 1242 
3 257 96 1242 
3 335 87 236 
3 295 296 258 
3 259 295 258 
3 294 295 259 
3 260 294 259 
3 293 294 260 
3 261 293 260 
3 292 293 261 
3 262 292 261 
3 291 292 262 
3 291 262 263 
3 290 291 263 
3 264 290 263 
3 289 290 264 
3 265 289 264 
3 288 289 265 
3 266 288 265 
3 89 276 1243 
3 287 288 266 
3 287 266 267 
3 276 277 1243 
3 287 267 286 
3 286 267 268 
3 276 89 278 
3 285 286 268 
3 285 268 269 
3 284 285 269 
3 284 269 270 
3 283 284 270 
3 271 283 270 
3 336 89 1243 
3 282 283 271 
3 282 271 272 
3 281 282 272 
3 281 272 273 
3 280 273 274 
3 280 281 273 
3 274 275 279 
3 280 274 279 
3 275 276 278 
3 275 278 279 
3 277 336 1243 
3 98 97 1244 
3 258 296 1244 
3 97 258 1244 
3 296 98 1244 
3 277 88 336 
3 295 296 297 
3 298 295 297 
3 294 295 298 
3 299 294 298 
3 293 294 299 
3 300 293 299 
3 292 293 300 
3 301 292 300 
3 291 292 301 
3 302 291 301 
3 290 291 302 
3 303 290 302 
3 289 290 303 
3 289 303 304 
3 288 289 304 
3 279 90 1245 
3 305 288 304 
3 90 279 313 
3 288 305 287 
3 305 306 287 
3 287 306 286 
3 306 307 286 
3 307 285 286 
3 285 307 308 
3 278 279 1245 
3 285 308 284 
3 308 309 284 
3 309 283 284 
3 309 310 283 
3 310 282 283 
3 311 282 310 
3 282 311 281 
3 281 311 312 
3 280 312 313 
3 280 281 312 
3 90 337 1245 
3 279 280 313 
3 337 278 1245 
3 98 99 1246 
3 297 296 1246 
3 99 297 1246 
3 296 98 1246 
3 89 278 337 
3 328 329 297 
3 298 328 297 
3 327 328 298 
3 299 327 298 
3 326 327 299 
3 300 326 299 
3 325 326 300 
3 301 325 300 
3 324 325 301 
3 302 324 301 
3 323 324 302 
3 303 323 302 
3 322 323 303 
3 91 312 1247 
3 322 303 304 
3 321 322 304 
3 312 313 1247 
3 305 321 304 
3 321 305 320 
3 312 91 314 
3 305 306 320 
3 306 319 320 
3 306 307 319 
3 307 318 319 
3 307 308 318 
3 338 91 1247 
3 308 317 318 
3 308 309 317 
3 309 310 316 
3 309 316 317 
3 310 311 315 
3 310 315 316 
3 311 312 314 
3 311 314 315 
3 313 338 1247 
3 100 99 1248 
3 297 329 1248 
3 99 297 1248 
3 329 100 1248 
3 90 338 313 
3 328 329 101 
3 328 101 102 
3 327 328 102 
3 327 102 103 
3 326 327 103 
3 326 103 104 
3 325 326 104 
3 325 104 105 
3 324 325 105 
3 324 105 106 
3 323 324 106 
3 323 106 107 
3 315 82 1249 
3 322 323 107 
3 114 82 315 
3 322 107 108 
3 321 322 108 
3 109 321 108 
3 320 321 109 
3 110 320 109 
3 319 320 110 
3 319 110 111 
3 314 315 1249 
3 319 111 318 
3 111 112 318 
3 112 317 318 
3 112 113 317 
3 113 114 316 
3 317 113 316 
3 316 114 315 
3 82 339 1249 
3 339 314 1249 
3 100 1 1250 
3 101 329 1250 
3 1 101 1250 
3 329 100 1250 
3 339 91 314 

CELL_TYPES 2360
5
5
5
5
5
5
5
5
5
5
5
5
5
5
5
5
5
5
5
5
5
5
5
5
5
5
5
5
5
5
5
5
5
5
5
5
5
5
5
5
5
5
5
5
5
5
5
5
5
5
5
5
5
5
5
5
5
5
5
5
5
5
5
5
5
5
5
5
5
5
5
5
5
5
5
5
5
5
5
5
5
5
5
5
5
5
5
5
5
5
5
5
5
5
5
5
5
5
5
5
5
5
5
5
5
5
5
5
5
5
5
5
5
5
5
5
5
5
5
5
5
5
5
5
5
5
5
5
5
5
5
5
5
5
5
5
5
5
5
5
5
5
5
5
5
5
5
5
5
5
5
5
5
5
5
5
5
5
5
5
5
5
5
5
5
5
5
5
5
5
5
5
5
5
5
5
5
5
5
5
5
5
5
5
5
5
5
5
5
5
5
5
5
5
5
5
5
5
5
5
5
5
5
5
5
5
5
5
5
5
5
5
5
5
5
5
5
5
5
5
5
5
5
5
5
5
5
5
5
5
5
5
5
5
5
5
5
5
5
5
5
5
5
5
5
5
5
5
5
5
5
5
5
5
5
5
5
5
5
5
5
5
5
5
5
5
5
5
5
5
5
5
5
5
5
5
5
5
5
5
5
5
5
5
5
5
5
5
5
5
5
5
5
5
5
5
5
5
5
5
5
5
5
5
5
5
5
5
5
5
5
5
5
5
5
5
5
5
5
5
5
5
5
5
5
5
5
5
5
5
5
5
5
5
5
5
5
5
5
5
5
5
5
5
5
5
5
5
5
5
5
5
5
5
5
5
5
5
5
5
5
5
5
5
5
5
5
5
5
5
5
5
5
5
5
5
5
5
5
5
5
5
5
5
5
5
5
5
5
5
5
5
5
5
5
5
5
5
5
5
5
5
5
5
5
5
5
5
5
5
5
5
5
5
5
5
5
5
5
5
5
5
5
5
5
5
5
5
5
5
5
5
5
5
5
5
5
5
5
5
5
5
5
5
5
5
5
5
5
5
5
5
5
5
5
5
5
5
5
5
5
5
5
5
5
5
5
5
5
5
5
5
5
5
5
5
5
5
5
5
5
5
5
5
5
5
5
5
5
5
5
5
5
5
5
5
5
5
5
5
5
5
5
5
5
5
5
5
5
5
5
5
5
5
5
5
5
5
5
5
5
5
5
5
5
5
5
5
5
5
5
5
5
5
5
5
5
5
5
5
5
5
5
5
5
5
5
5
5
5
5
5
5
5
5
5
5
5
5
5
5
5
5
5
5
5
5
5
5
5
5
5
5
5
5
5
5
5
5
5
5
5
5
5
5
5
5
5
5
5
5
5
5
5
5
5
5
5
5
5
5
5
5
5
5
5
5
5
5
5
5
5
5
5
5
5
5
5
5
5
5
5
5
5
5
5
5
5
5
5
5
5
5
5
5
5
5
5
5
5
5
5
5
5
5
5
5
5
5
5
5
5
5
5
5
5
5
5
5
5
5
5
5
5
5
5
5
5
5
5
5
5
5
5
5
5
5
5
5
5
5
5
5
5
5
5
5
5
5
5
5
5
5
5
5
5
5
5
5
5
5
5
5
5
5
5
5
5
5
5
5
5
5
5
5
5
5
5
5
5
5
5
5
5
5
5
5
5
5
5
5
5
5
5
5
5
5
5
5
5
5
5
5
5
5
5
5
5
5
5
5
5
5
5
5
5
5
5
5
5
5
5
5
5
5
5
5
5
5
5
5
5
5
5
5
5
5
5
5
5
5
5
5
5
5
5
5
5
5
5
5
5
5
5
5
5
5
5
5
5
5
5
5
5
5
5
5
5
5
5
5
5
5
5
5
5
5
5
5
5
5
5
5
5
5
5
5
5
5
5
5
5
5
5
5
5
5
5
5
5
5
5
5
5
5
5
5
5
5
5
5
5
5
5
5
5
5
5
5
5
5
5
5
5
5
5
5
5
5
5
5
5
5
5
5
5
5
5
5
5
5
5
5
5
5
5
5
5
5
5
5
5
5
5
5
5
5
5
5
5
5
5
5
5
5
5
5
5
5
5
5
5
5
5
5
5
5
5
5
5
5
5
5
5
5
5
5
5
5
5
5
5
5
5
5
5
5
5
5
5
5
5
5
5
5
5
5
5
5
5
5
5
5
5
5
5
5
5
5
5
5
5
5
5
5
5
5
5
5
5
5
5
5
5
5
5
5
5
5
5
5
5
5
5
5
5
5
5
5
5
5
5
5
5
5
5
5
5
5
5
5
5
5
5
5
5
5
5
5
5
5
5
5
5
5
5
5
5
5
5
5
5
5
5
5
5
5
5
5
5
5
5
5
5
5
5
5
5
5
5
5
5
5
5
5
5
5
5
5
5
5
5
5
5
5
5
5
5
5
5
5
5
5
5
5
5
5
5
5
5
5
5
5
5
5
5
5
5
5
5
5
5
5
5
5
5
5
5
5
5
5
5
5
5
5
5
5
5
5
5
5
5
5
5
5
5
5
5
5
5
5
5
5
5
5
5
5
5
5
5
5
5
5
5
5
5
5
5
5
5
5
5
5
5
5
5
5
5
5
5
5
5
5
5
5
5
5
5
5
5
5
5
5
5
5
5
5
5
5
5
5
5
5
5
5
5
5
5
5
5
5
5
5
5
5
5
5
5
5
5
5
5
5
5
5
5
5
5
5
5
5
5
5
5
5
5
5
5
5
5
5
5
5
5
5
5
5
5
5
5
5
5
5
5
5
5
5
5
5
5
5
5
5
5
5
5
5
5
5
5
5
5
5
5
5
5
5
5
5
5
5
5
5
5
5
5
5
5
5
5
5
5
5
5
5
5
5
5
5
5
5
5
5
5
5
5
5
5
5
5
5
5
5
5
5
5
5
5
5
5
5
5
5
5
5
5
5
5
5
5
5
5
5
5
5
5
5
5
5
5
5
5
5
5
5
5
5
5
5
5
5
5
5
5
5
5
5
5
5
5
5
5
5
5
5
5
5
5
5
5
5
5
5
5
5
5
5
5
5
5
5
5
5
5
5
5
5
5
5
5
5
5
5
5
5
5
5
5
5
5
5
5
5
5
5
5
5
5
5
5
5
5
5
5
5
5
5
5
5
5
5
5
5
5
5
5
5
5
5
5
5
5
5
5
5
5
5
5
5
5
5
5
5
5
5
5
5
5
5
5
5
5
5
5
5
5
5
5
5
5
5
5
5
5
5
5
5
5
5
5
5
5
5
5
5
5
5
5
5
5
5
5
5
5
5
5
5
5
5
5
5
5
5
5
5
5
5
5
5
5
5
5
5
5
5
5
5
5
5
5
5
5
5
5
5
5
5
5
5
5
5
5
5
5
5
5
5
5
5
5
5
5
5
5
5
5
5
5
5
5
5
5
5
5
5
5
5
5
5
5
5
5
5
5
5
5
5
5
5
5
5
5
5
5
5
5
5
5
5
5
5
5
5
5
5
5
5
5
5
5
5
5
5
5
5
5
5
5
5
5
5
5
5
5
5
5
5
5
5
5
5
5
5
5
5
5
5
5
5
5
5
5
5
5
5
5
5
5
5
5
5
5
5
5
5
5
5
5
5
5
5
5
5
5
5
5
5
5
5
5
5
5
5
5
5
5
5
5
5
5
5
5
5
5
5
5
5
5
5
5
5
5
5
5
5
5
5
5
5
5
5
5
5
5
5
5
5
5
5
5
5
5
5
5
5
5
5
5
5
5
5
5
5
5
5
5
5
5
5
5
5
5
5
5
5
5
5
5
5
5
5
5
5
5
5
5
5
5
5
5
5
5
5
5
5
5
5
5
5
5
5
5
5
5
5
5
5
5
5
5
5
5
5
5
5
5
5
5
5
5
5
5
5
5
5
5
5
5
5
5
5
5
5
5
5
5
5
5
5
5
5
5
5
5
5
5
5
5
5
5
5
5
5
5
5
5
5
5
5
5
5
5
5
5
5
5
5
5
5
5
5
5
5
5
5
5
5
5
5
5
5
5
5
5
5
5
5
5
5
5
5
5
5
5
5
5
5
5
5
5
5
5
5
5
5
5
5
5
5
5
5
5
5
5
5
5
5
5
5
5
5
5
5
5
5
5
5
5
5
5
5
5
5
5
5
5
5
5
5
5
5
5
5
5
5
5
5
5
5
5
5
5
5
5
5
5
5
5
5
5
5
5
5
5
5
5
5
5
5
5
5
5
5
5
5
5
5
5
5
5
5
5
5
5
5
5
5
5
5
5
5
5
5
5
5
5
5
5
5
5
5
5
5
5
5
5
5
5
5
5
5
5
5
5
5
5
5
5
5
5
5
5
5
5
5
5
5
5
5
5
5
5
5
5
5
5
5
5
5
5
5
5
5
5
5
5
5
5
5
5
5
5
5
5
5
5
5
5
5
5
5
5
5
5
5
5
5
5
5
5
5
5
5
5
5
5
5
5
5
5
5
5
5
5
5
5
5
5
5
5
5
5
5
5
5
5
5
5
5
5
5
5
5
5
5
5
5
5
5
5
5
5
5
5
5
5
5
5
5
5
5
5
5
5
5
5
5
5
5
5
5
5
5
5
5
5
5
5
5
5
5
5
5
5
5
5
5
5
5
5
5
5
5
5
5
5
5
5
5
5
5
5
5
5
5
5
5
5
5
5
5
5
5
5
5
5
5
5
5
5
5
5
5
5
5
5
5
5
5
5
5
5
5
5
5
5
5
5
5
5
5
5
5
5
5
5
5
5
5
5
5
5
5
5
5
5
5
5
5
5
5
5
5
5
5
5
5
5
5
5
5
5
5
5
5
5
5
5
5
5
5
5
5
5
5
5
5
5
5
5
5
5
5
5
5
5
5
5
5
5
5
5
5
5
5
5
5
5
5
5
5
5
5
5
5
5
5
5
5
5
5
5
5
5
5
5
5
5
5
5
5
5
5
5
5
5
5
5
5
5
5
5
5
5
5
5
5
5
5
5
5
5
5
5
5
5
5
5
5
5
5
5
5
5
5
5
5
5
5
5
5
5
5
5
5
5
5
5
5
5
5
5
5
5
5
5
5
5
5
5
5
5
5
5
5
5
5
5
5
5
5
5
5
5
5
5
5
5
5
5
5
5
5
5
5
5
5
5
5
5
5
5
5
5
5
5
5
5
5
5
5
5
5
5
5
5
5
5
5
5
5
5
5
5
5
5
5
5
5
5
5
5
5
5
5
5
5
5
5
5
5
5
5
5
5
5
5
5
5
5
5
5
5
5
5
5
5
5
5
5
5
5
5
5
5
5
5
5
5
5
5
5
5
5
5
5
5
5
5
5
5
5
5
5
5
5
5
5
5
5

POINT_DATA 1251

VECTORS coord float
0.0 0.0 0.0 
5.000000000000e+01 -1.000000000000e+01 0.0 
0.0 -2.000000000000e+01 0.0 
5.000000000000e+01 -2.000000000000e+01 0.0 
0.0 -9.999999999991e-01 0.0 
0.0 -1.999999999998e+00 0.0 
0.0 -2.999999999997e+00 0.0 
0.0 -3.999999999994e+00 0.0 
0.0 -4.999999999991e+00 0.0 
0.0 -5.999999999988e+00 0.0 
0.0 -6.999999999985e+00 0.0 
0.0 -7.999999999982e+00 0.0 
0.0 -8.999999999983e+00 0.0 
0.0 -9.999999999985e+00 0.0 
0.0 -1.099999999999e+01 0.0 
0.0 -1.199999999999e+01 0.0 
0.0 -1.299999999999e+01 0.0 
0.0 -1.399999999999e+01 0.0 
0.0 -1.499999999999e+01 0.0 
0.0 -1.599999999999e+01 0.0 
0.0 -1.700000000000e+01 0.0 
0.0 -1.800000000000e+01 0.0 
0.0 -1.900000000000e+01 0.0 
4.900000000001e+01 -2.000000000000e+01 0.0 
4.800000000001e+01 -2.000000000000e+01 0.0 
4.700000000002e+01 -2.000000000000e+01 0.0 
4.600000000003e+01 -2.000000000000e+01 0.0 
4.500000000004e+01 -2.000000000000e+01 0.0 
4.400000000004e+01 -2.000000000000e+01 0.0 
4.300000000005e+01 -2.000000000000e+01 0.0 
4.200000000006e+01 -2.000000000000e+01 0.0 
4.100000000006e+01 -2.000000000000e+01 0.0 
4.000000000007e+01 -2.000000000000e+01 0.0 
3.900000000008e+01 -2.000000000000e+01 0.0 
3.800000000009e+01 -2.000000000000e+01 0.0 
3.700000000009e+01 -2.000000000000e+01 0.0 
3.600000000010e+01 -2.000000000000e+01 0.0 
3.500000000011e+01 -2.000000000000e+01 0.0 
3.400000000011e+01 -2.000000000000e+01 0.0 
3.300000000012e+01 -2.000000000000e+01 0.0 
3.200000000013e+01 -2.000000000000e+01 0.0 
3.100000000013e+01 -2.000000000000e+01 0.0 
3.000000000013e+01 -2.000000000000e+01 0.0 
2.900000000013e+01 -2.000000000000e+01 0.0 
2.800000000013e+01 -2.000000000000e+01 0.0 
2.700000000013e+01 -2.000000000000e+01 0.0 
2.600000000013e+01 -2.000000000000e+01 0.0 
2.500000000013e+01 -2.000000000000e+01 0.0 
2.400000000013e+01 -2.000000000000e+01 0.0 
2.300000000013e+01 -2.000000000000e+01 0.0 
2.200000000013e+01 -2.000000000000e+01 0.0 
2.100000000013e+01 -2.000000000000e+01 0.0 
2.000000000013e+01 -2.000000000000e+01 0.0 
1.900000000013e+01 -2.000000000000e+01 0.0 
1.800000000013e+01 -2.000000000000e+01 0.0 
1.700000000012e+01 -2.000000000000e+01 0.0 
1.600000000011e+01 -2.000000000000e+01 0.0 
1.500000000011e+01 -2.000000000000e+01 0.0 
1.400000000010e+01 -2.000000000000e+01 0.0 
1.300000000009e+01 -2.000000000000e+01 0.0 
1.200000000009e+01 -2.000000000000e+01 0.0 
1.100000000008e+01 -2.000000000000e+01 0.0 
1.000000000007e+01 -2.000000000000e+01 0.0 
9.000000000064e+00 -2.000000000000e+01 0.0 
8.000000000057e+00 -2.000000000000e+01 0.0 
7.000000000050e+00 -2.000000000000e+01 0.0 
6.000000000043e+00 -2.000000000000e+01 0.0 
5.000000000036e+00 -2.000000000000e+01 0.0 
4.000000000028e+00 -2.000000000000e+01 0.0 
3.000000000021e+00 -2.000000000000e+01 0.0 
2.000000000014e+00 -2.000000000000e+01 0.0 
1.000000000007e+00 -2.000000000000e+01 0.0 
5.000000000000e+01 -1.100000000000e+01 0.0 
5.000000000000e+01 -1.200000000000e+01 0.0 
5.000000000000e+01 -1.300000000000e+01 0.0 
5.000000000000e+01 -1.400000000000e+01 0.0 
5.000000000000e+01 -1.500000000000e+01 0.0 
5.000000000000e+01 -1.600000000000e+01 0.0 
5.000000000000e+01 -1.700000000000e+01 0.0 
5.000000000000e+01 -1.800000000000e+01 0.0 
5.000000000000e+01 -1.900000000000e+01 0.0 
2.000000000000e+01 0.0 0.0 
3.500000000000e+01 -1.000000000000e+01 0.0 
2.150000000000e+01 -1.000000000000e+00 0.0 
2.300000000000e+01 -2.000000000000e+00 0.0 
2.450000000000e+01 -3.000000000000e+00 0.0 
2.600000000000e+01 -4.000000000000e+00 0.0 
2.750000000000e+01 -5.000000000000e+00 0.0 
2.900000000000e+01 -6.000000000000e+00 0.0 
3.050000000000e+01 -7.000000000000e+00 0.0 
3.200000000000e+01 -8.000000000000e+00 0.0 
3.350000000000e+01 -9.000000000000e+00 0.0 
5.000000000000e+01 -1.000000000000e+00 0.0 
5.000000000000e+01 -2.000000000000e+00 0.0 
5.000000000000e+01 -3.000000000000e+00 0.0 
5.000000000000e+01 -4.000000000000e+00 0.0 
5.000000000000e+01 -5.000000000000e+00 0.0 
5.000000000000e+01 -6.000000000000e+00 0.0 
5.000000000000e+01 -7.000000000000e+00 0.0 
5.000000000000e+01 -8.000000000000e+00 0.0 
5.000000000000e+01 -9.000000000000e+00 0.0 
4.900000000000e+01 -1.000000000000e+01 0.0 
4.800000000000e+01 -1.000000000000e+01 0.0 
4.700000000000e+01 -1.000000000000e+01 0.0 
4.600000000000e+01 -1.000000000000e+01 0.0 
4.500000000000e+01 -1.000000000000e+01 0.0 
4.400000000000e+01 -1.000000000000e+01 0.0 
4.300000000000e+01 -1.000000000000e+01 0.0 
4.200000000000e+01 -1.000000000000e+01 0.0 
4.100000000000e+01 -1.000000000000e+01 0.0 
4.000000000000e+01 -1.000000000000e+01 0.0 
3.900000000000e+01 -1.000000000000e+01 0.0 
3.800000000000e+01 -1.000000000000e+01 0.0 
3.700000000000e+01 -1.000000000000e+01 0.0 
3.600000000000e+01 -1.000000000000e+01 0.0 
1.900000000000e+01 0.0 0.0 
1.800000000000e+01 0.0 0.0 
1.700000000000e+01 0.0 0.0 
1.600000000000e+01 0.0 0.0 
1.500000000000e+01 0.0 0.0 
1.400000000000e+01 0.0 0.0 
1.300000000000e+01 0.0 0.0 
1.200000000000e+01 0.0 0.0 
1.100000000000e+01 0.0 0.0 
1.000000000000e+01 0.0 0.0 
9.000000000000e+00 0.0 0.0 
8.000000000000e+00 0.0 0.0 
7.000000000000e+00 0.0 0.0 
6.000000000000e+00 0.0 0.0 
5.000000000000e+00 0.0 0.0 
4.000000000000e+00 0.0 0.0 
3.000000000000e+00 0.0 0.0 
2.000000000000e+00 0.0 0.0 
1.000000000000e+00 0.0 0.0 
4.901724137931e+01 -1.000000000000e+00 0.0 
4.803448275862e+01 -1.000000000000e+00 0.0 
4.705172413793e+01 -1.000000000000e+00 0.0 
4.606896551724e+01 -1.000000000000e+00 0.0 
4.508620689655e+01 -1.000000000000e+00 0.0 
4.410344827586e+01 -1.000000000000e+00 0.0 
4.312068965517e+01 -1.000000000000e+00 0.0 
4.213793103448e+01 -1.000000000000e+00 0.0 
4.115517241379e+01 -1.000000000000e+00 0.0 
4.017241379310e+01 -1.000000000000e+00 0.0 
3.918965517241e+01 -1.000000000000e+00 0.0 
3.820689655172e+01 -1.000000000000e+00 0.0 
3.722413793103e+01 -1.000000000000e+00 0.0 
3.624137931034e+01 -1.000000000000e+00 0.0 
3.525862068966e+01 -1.000000000000e+00 0.0 
3.427586206897e+01 -1.000000000000e+00 0.0 
3.329310344828e+01 -1.000000000000e+00 0.0 
3.231034482759e+01 -1.000000000000e+00 0.0 
3.132758620690e+01 -1.000000000000e+00 0.0 
3.034482758621e+01 -1.000000000000e+00 0.0 
2.936206896552e+01 -1.000000000000e+00 0.0 
2.837931034483e+01 -1.000000000000e+00 0.0 
2.739655172414e+01 -1.000000000000e+00 0.0 
2.641379310345e+01 -1.000000000000e+00 0.0 
2.543103448276e+01 -1.000000000000e+00 0.0 
2.444827586207e+01 -1.000000000000e+00 0.0 
2.346551724138e+01 -1.000000000000e+00 0.0 
2.248275862069e+01 -1.000000000000e+00 0.0 
2.400000000000e+01 -2.000000000000e+00 0.0 
2.500000000000e+01 -2.000000000000e+00 0.0 
2.600000000000e+01 -2.000000000000e+00 0.0 
2.700000000000e+01 -2.000000000000e+00 0.0 
2.800000000000e+01 -2.000000000000e+00 0.0 
2.900000000000e+01 -2.000000000000e+00 0.0 
3.000000000000e+01 -2.000000000000e+00 0.0 
3.100000000000e+01 -2.000000000000e+00 0.0 
3.200000000000e+01 -2.000000000000e+00 0.0 
3.300000000000e+01 -2.000000000000e+00 0.0 
3.400000000000e+01 -2.000000000000e+00 0.0 
3.500000000000e+01 -2.000000000000e+00 0.0 
3.600000000000e+01 -2.000000000000e+00 0.0 
3.700000000000e+01 -2.000000000000e+00 0.0 
3.800000000000e+01 -2.000000000000e+00 0.0 
3.900000000000e+01 -2.000000000000e+00 0.0 
4.000000000000e+01 -2.000000000000e+00 0.0 
4.100000000000e+01 -2.000000000000e+00 0.0 
4.200000000000e+01 -2.000000000000e+00 0.0 
4.300000000000e+01 -2.000000000000e+00 0.0 
4.400000000000e+01 -2.000000000000e+00 0.0 
4.500000000000e+01 -2.000000000000e+00 0.0 
4.600000000000e+01 -2.000000000000e+00 0.0 
4.700000000000e+01 -2.000000000000e+00 0.0 
4.800000000000e+01 -2.000000000000e+00 0.0 
4.900000000000e+01 -2.000000000000e+00 0.0 
2.548076923077e+01 -3.000000000000e+00 0.0 
2.646153846153e+01 -3.000000000000e+00 0.0 
2.744230769230e+01 -3.000000000000e+00 0.0 
2.842307692306e+01 -3.000000000000e+00 0.0 
2.940384615383e+01 -3.000000000000e+00 0.0 
3.038461538459e+01 -3.000000000000e+00 0.0 
3.136538461536e+01 -3.000000000000e+00 0.0 
3.234615384612e+01 -3.000000000000e+00 0.0 
3.332692307687e+01 -3.000000000000e+00 0.0 
3.430769230762e+01 -3.000000000000e+00 0.0 
3.528846153837e+01 -3.000000000000e+00 0.0 
3.626923076912e+01 -3.000000000000e+00 0.0 
3.724999999988e+01 -3.000000000000e+00 0.0 
3.823076923065e+01 -3.000000000000e+00 0.0 
3.921153846143e+01 -3.000000000000e+00 0.0 
4.019230769221e+01 -3.000000000000e+00 0.0 
4.117307692299e+01 -3.000000000000e+00 0.0 
4.215384615377e+01 -3.000000000000e+00 0.0 
4.313461538455e+01 -3.000000000000e+00 0.0 
4.411538461533e+01 -3.000000000000e+00 0.0 
4.509615384611e+01 -3.000000000000e+00 0.0 
4.607692307688e+01 -3.000000000000e+00 0.0 
4.705769230766e+01 -3.000000000000e+00 0.0 
4.803846153844e+01 -3.000000000000e+00 0.0 
4.901923076922e+01 -3.000000000000e+00 0.0 
4.900000000000e+01 -4.000000000000e+00 0.0 
4.800000000000e+01 -4.000000000000e+00 0.0 
4.700000000000e+01 -4.000000000000e+00 0.0 
4.600000000000e+01 -4.000000000000e+00 0.0 
4.500000000000e+01 -4.000000000000e+00 0.0 
4.400000000000e+01 -4.000000000000e+00 0.0 
4.300000000000e+01 -4.000000000000e+00 0.0 
4.200000000000e+01 -4.000000000000e+00 0.0 
4.100000000000e+01 -4.000000000000e+00 0.0 
4.000000000000e+01 -4.000000000000e+00 0.0 
3.900000000000e+01 -4.000000000000e+00 0.0 
3.800000000000e+01 -4.000000000000e+00 0.0 
3.700000000000e+01 -4.000000000000e+00 0.0 
3.600000000000e+01 -4.000000000000e+00 0.0 
3.500000000000e+01 -4.000000000000e+00 0.0 
3.400000000000e+01 -4.000000000000e+00 0.0 
3.300000000000e+01 -4.000000000000e+00 0.0 
3.200000000000e+01 -4.000000000000e+00 0.0 
3.100000000000e+01 -4.000000000000e+00 0.0 
3.000000000000e+01 -4.000000000000e+00 0.0 
2.900000000000e+01 -4.000000000000e+00 0.0 
2.800000000000e+01 -4.000000000000e+00 0.0 
2.700000000000e+01 -4.000000000000e+00 0.0 
2.847826086957e+01 -5.000000000000e+00 0.0 
2.945652173913e+01 -5.000000000000e+00 0.0 
3.043478260870e+01 -5.000000000000e+00 0.0 
3.141304347826e+01 -5.000000000000e+00 0.0 
3.239130434783e+01 -5.000000000000e+00 0.0 
3.336956521739e+01 -5.000000000000e+00 0.0 
3.434782608696e+01 -5.000000000000e+00 0.0 
3.532608695652e+01 -5.000000000000e+00 0.0 
3.630434782609e+01 -5.000000000000e+00 0.0 
3.728260869565e+01 -5.000000000000e+00 0.0 
3.826086956522e+01 -5.000000000000e+00 0.0 
3.923913043478e+01 -5.000000000000e+00 0.0 
4.021739130435e+01 -5.000000000000e+00 0.0 
4.119565217391e+01 -5.000000000000e+00 0.0 
4.217391304348e+01 -5.000000000000e+00 0.0 
4.315217391304e+01 -5.000000000000e+00 0.0 
4.413043478261e+01 -5.000000000000e+00 0.0 
4.510869565217e+01 -5.000000000000e+00 0.0 
4.608695652174e+01 -5.000000000000e+00 0.0 
4.706521739130e+01 -5.000000000000e+00 0.0 
4.804347826087e+01 -5.000000000000e+00 0.0 
4.902173913043e+01 -5.000000000000e+00 0.0 
4.900000000001e+01 -6.000000000000e+00 0.0 
4.800000000003e+01 -6.000000000000e+00 0.0 
4.700000000004e+01 -6.000000000000e+00 0.0 
4.600000000006e+01 -6.000000000000e+00 0.0 
4.500000000007e+01 -6.000000000000e+00 0.0 
4.400000000009e+01 -6.000000000000e+00 0.0 
4.300000000010e+01 -6.000000000000e+00 0.0 
4.200000000012e+01 -6.000000000000e+00 0.0 
4.100000000013e+01 -6.000000000000e+00 0.0 
4.000000000014e+01 -6.000000000000e+00 0.0 
3.900000000014e+01 -6.000000000000e+00 0.0 
3.800000000012e+01 -6.000000000000e+00 0.0 
3.700000000010e+01 -6.000000000000e+00 0.0 
3.600000000008e+01 -6.000000000000e+00 0.0 
3.500000000006e+01 -6.000000000000e+00 0.0 
3.400000000005e+01 -6.000000000000e+00 0.0 
3.300000000003e+01 -6.000000000000e+00 0.0 
3.200000000001e+01 -6.000000000000e+00 0.0 
3.100000000000e+01 -6.000000000000e+00 0.0 
3.000000000000e+01 -6.000000000000e+00 0.0 
3.147499999998e+01 -7.000000000000e+00 0.0 
3.244999999998e+01 -7.000000000000e+00 0.0 
3.342499999998e+01 -7.000000000000e+00 0.0 
3.439999999998e+01 -7.000000000000e+00 0.0 
3.537499999998e+01 -7.000000000000e+00 0.0 
3.634999999998e+01 -7.000000000000e+00 0.0 
3.732499999998e+01 -7.000000000000e+00 0.0 
3.829999999998e+01 -7.000000000000e+00 0.0 
3.927499999999e+01 -7.000000000000e+00 0.0 
4.024999999999e+01 -7.000000000000e+00 0.0 
4.122499999999e+01 -7.000000000000e+00 0.0 
4.219999999999e+01 -7.000000000000e+00 0.0 
4.317499999999e+01 -7.000000000000e+00 0.0 
4.414999999999e+01 -7.000000000000e+00 0.0 
4.512499999999e+01 -7.000000000000e+00 0.0 
4.609999999999e+01 -7.000000000000e+00 0.0 
4.707500000000e+01 -7.000000000000e+00 0.0 
4.805000000000e+01 -7.000000000000e+00 0.0 
4.902500000000e+01 -7.000000000000e+00 0.0 
4.900000000000e+01 -8.000000000000e+00 0.0 
4.800000000000e+01 -8.000000000000e+00 0.0 
4.700000000000e+01 -8.000000000000e+00 0.0 
4.600000000000e+01 -8.000000000000e+00 0.0 
4.500000000000e+01 -8.000000000000e+00 0.0 
4.400000000000e+01 -8.000000000000e+00 0.0 
4.300000000000e+01 -8.000000000000e+00 0.0 
4.200000000000e+01 -8.000000000000e+00 0.0 
4.100000000000e+01 -8.000000000000e+00 0.0 
4.000000000000e+01 -8.000000000000e+00 0.0 
3.900000000000e+01 -8.000000000000e+00 0.0 
3.800000000000e+01 -8.000000000000e+00 0.0 
3.700000000000e+01 -8.000000000000e+00 0.0 
3.600000000000e+01 -8.000000000000e+00 0.0 
3.500000000000e+01 -8.000000000000e+00 0.0 
3.400000000000e+01 -8.000000000000e+00 0.0 
3.300000000000e+01 -8.000000000000e+00 0.0 
3.447058823527e+01 -9.000000000000e+00 0.0 
3.544117647055e+01 -9.000000000000e+00 0.0 
3.641176470582e+01 -9.000000000000e+00 0.0 
3.738235294109e+01 -9.000000000000e+00 0.0 
3.835294117637e+01 -9.000000000000e+00 0.0 
3.932352941164e+01 -9.000000000000e+00 0.0 
4.029411764691e+01 -9.000000000000e+00 0.0 
4.126470588219e+01 -9.000000000000e+00 0.0 
4.223529411748e+01 -9.000000000000e+00 0.0 
4.320588235279e+01 -9.000000000000e+00 0.0 
4.417647058811e+01 -9.000000000000e+00 0.0 
4.514705882342e+01 -9.000000000000e+00 0.0 
4.611764705874e+01 -9.000000000000e+00 0.0 
4.708823529405e+01 -9.000000000000e+00 0.0 
4.805882352937e+01 -9.000000000000e+00 0.0 
4.902941176468e+01 -9.000000000000e+00 0.0 
2.075000000000e+01 -5.000000000006e-01 0.0 
2.225000000000e+01 -1.500000000000e+00 0.0 
2.375000000000e+01 -2.500000000000e+00 0.0 
2.525000000000e+01 -3.500000000000e+00 0.0 
2.675000000000e+01 -4.500000000000e+00 0.0 
2.825000000000e+01 -5.500000000000e+00 0.0 
2.975000000000e+01 -6.500000000000e+00 0.0 
3.125000000000e+01 -7.500000000000e+00 0.0 
3.275000000000e+01 -8.500000000000e+00 0.0 
3.425000000000e+01 -9.500000000000e+00 0.0 
2.226951693683e+01 -2.403913980114e+00 0.0 
1.650149491944e+01 -1.913490915758e+01 0.0 
1.050042386896e+01 -8.504605092970e-01 0.0 
1.553146524712e+01 -8.281255032105e-01 0.0 
1.150000000008e+01 -1.913397459621e+01 0.0 
2.530060260647e+01 -4.428336431260e+00 0.0 
8.651114563942e-01 -1.052096295641e+01 0.0 
2.050000000013e+01 -1.913397459622e+01 0.0 
2.819198729811e+01 -6.399519052838e+00 0.0 
2.445670302931e+01 -1.915649188023e+01 0.0 
3.117591465718e+01 -8.394293040695e+00 0.0 
7.465053044742e+00 -1.920411160581e+01 0.0 
6.398295709691e+00 -8.230098819370e-01 0.0 
2.849659607461e+01 -1.914296187762e+01 0.0 
3.418732642882e+01 -1.040265792588e+01 0.0 
8.386450935063e-01 -6.533605142809e+00 0.0 
9.178661865596e-01 -1.329769195597e+01 0.0 
3.149448624493e+01 -1.910466733764e+01 0.0 
3.552916747426e+01 -1.914628590759e+01 0.0 
4.449210346537e+01 -1.914359085008e+01 0.0 
4.140975975145e+01 -1.906941860733e+01 0.0 
3.847475958753e+01 -1.916622382724e+01 0.0 
3.653774794640e+01 -1.088712800241e+01 0.0 
4.047886341787e+01 -1.090139014048e+01 0.0 
4.348006339825e+01 -1.092792621489e+01 0.0 
4.919519968029e+01 -1.451526755068e+01 0.0 
4.500000000032e+00 -1.913397459621e+01 0.0 
1.856136921614e+01 -8.212235170404e-01 0.0 
3.499895312306e+00 -8.661165539723e-01 0.0 
9.076088696565e-01 -1.642306201891e+01 0.0 
4.655174095477e+01 -1.086183387525e+01 0.0 
9.430688970604e-01 -3.496112672958e+00 0.0 
3.353992337063e+01 -1.901202090820e+01 0.0 
2.249746016977e+01 -1.921262287282e+01 0.0 
2.650122741777e+01 -1.916123026018e+01 0.0 
1.863571384842e+01 -1.908325534840e+01 0.0 
1.450089971693e+01 -1.917691901860e+01 0.0 
1.350044695317e+01 -8.659695299584e-01 0.0 
3.849987469880e+01 -1.084154983397e+01 0.0 
9.454419857884e+00 -1.900818879936e+01 0.0 
4.917398660523e+01 -1.645692866081e+01 0.0 
8.500000000000e+00 -8.660254037844e-01 0.0 
8.660319230785e-01 -8.500111697188e+00 0.0 
4.649022621545e+01 -1.930506220113e+01 0.0 
2.667688107845e+01 -5.420288124331e+00 0.0 
2.379251615665e+01 -3.412225477429e+00 0.0 
2.966631491830e+01 -7.389030232731e+00 0.0 
3.267915035995e+01 -9.396934932445e+00 0.0 
2.074836922338e+01 -1.320054020319e+00 0.0 
4.915985743621e+01 -1.261973384855e+01 0.0 
2.527129768623e+00 -1.931592414663e+01 0.0 
1.538676247410e+00 -8.436956619311e-01 0.0 
4.908096641539e+01 -1.842484004551e+01 0.0 
3.478612492673e+01 -1.090889364140e+01 0.0 
3.409757055860e+01 -1.131991530427e+01 0.0 
3.501895309466e+01 -1.177687842717e+01 0.0 
3.407758073088e+01 -1.224293381580e+01 0.0 
3.484541875390e+01 -1.277051428430e+01 0.0 
3.400322025842e+01 -1.319022775640e+01 0.0 
3.321672625034e+01 -1.266779191233e+01 0.0 
3.315244139236e+01 -1.360984106532e+01 0.0 
3.236335186892e+01 -1.308463225210e+01 0.0 
3.478337442841e+01 -1.372341158982e+01 0.0 
3.230105923633e+01 -1.403023731610e+01 0.0 
3.150954055289e+01 -1.350301767700e+01 0.0 
3.144604792090e+01 -1.444931742516e+01 0.0 
3.065653897123e+01 -1.392357262981e+01 0.0 
3.071897610812e+01 -1.297447031198e+01 0.0 
2.986790411740e+01 -1.339226181535e+01 0.0 
2.993181466745e+01 -1.244703272398e+01 0.0 
2.908023061869e+01 -1.286254537734e+01 0.0 
2.901619051372e+01 -1.380881655279e+01 0.0 
2.822986160390e+01 -1.327695262116e+01 0.0 
2.829453476870e+01 -1.233265343811e+01 0.0 
2.744542905518e+01 -1.274510491105e+01 0.0 
2.751120089246e+01 -1.180368086886e+01 0.0 
2.666218649885e+01 -1.221619339205e+01 0.0 
2.672371209234e+01 -1.127125228527e+01 0.0 
2.587763216302e+01 -1.168539979114e+01 0.0 
2.581165585299e+01 -1.262994410089e+01 0.0 
2.502890882577e+01 -1.209827323619e+01 0.0 
2.509631327757e+01 -1.115492410304e+01 0.0 
2.424662989877e+01 -1.156630981079e+01 0.0 
2.431704046904e+01 -1.062389179334e+01 0.0 
2.346445438728e+01 -1.103427680694e+01 0.0 
2.339382552877e+01 -1.197964871788e+01 0.0 
2.260936050780e+01 -1.144513277642e+01 0.0 
2.268075012022e+01 -1.049911928216e+01 0.0 
2.182525737661e+01 -1.090920811464e+01 0.0 
2.189682319817e+01 -9.961716944568e+00 0.0 
2.104174127792e+01 -1.037266986667e+01 0.0 
2.111304367575e+01 -9.424179358711e+00 0.0 
2.025306185381e+01 -9.832727364719e+00 0.0 
2.018141124247e+01 -1.079140628871e+01 0.0 
1.938594498257e+01 -1.025147354112e+01 0.0 
1.946106490453e+01 -9.288010758448e+00 0.0 
1.858929958352e+01 -9.706319802516e+00 0.0 
1.851540991219e+01 -1.067205988724e+01 0.0 
1.771485303178e+01 -1.012504443115e+01 0.0 
1.764134552256e+01 -1.109360378538e+01 0.0 
1.683745148095e+01 -1.054496365337e+01 0.0 
1.691852964353e+01 -9.582555261178e+00 0.0 
1.603603813062e+01 -1.000160132379e+01 0.0 
1.595824239350e+01 -1.096750698862e+01 0.0 
1.515080624291e+01 -1.041639501931e+01 0.0 
1.523171602559e+01 -9.451711491453e+00 0.0 
1.434621060709e+01 -9.871956467464e+00 0.0 
1.426777178765e+01 -1.083749501371e+01 0.0 
1.345775282374e+01 -1.028803175500e+01 0.0 
1.354103873368e+01 -9.324918457162e+00 0.0 
1.265072018622e+01 -9.742612837270e+00 0.0 
1.257285762070e+01 -1.071557782384e+01 0.0 
1.175874815690e+01 -1.015972324288e+01 0.0 
1.184203019714e+01 -9.193604071377e+00 0.0 
1.094927709905e+01 -9.612103238656e+00 0.0 
1.086938022910e+01 -1.058685085646e+01 0.0 
1.005424098961e+01 -1.002939116380e+01 0.0 
9.977974613295e+00 -1.101324897989e+01 0.0 
1.012915646404e+01 -9.051815821181e+00 0.0 
9.237127782494e+00 -9.471239055559e+00 0.0 
9.308426593771e+00 -8.483376461131e+00 0.0 
8.418806073345e+00 -8.910712374517e+00 0.0 
2.253688464062e+01 -1.239459402279e+01 0.0 
8.495126726666e+00 -7.921646665254e+00 0.0 
9.389727383206e+00 -7.512103628377e+00 0.0 
7.601560812974e+00 -8.349460349344e+00 0.0 
7.525680547759e+00 -9.339736686940e+00 0.0 
7.677888324502e+00 -7.359727833346e+00 0.0 
6.782001206724e+00 -7.788454494773e+00 0.0 
6.858778622885e+00 -6.797338062822e+00 0.0 
2.196596590865e+01 -8.979025665442e+00 0.0 
2.816540108272e+01 -1.422634142353e+01 0.0 
5.961601194403e+00 -7.226824010712e+00 0.0 
6.038171749656e+00 -6.234825887079e+00 0.0 
6.936257279557e+00 -5.805287640737e+00 0.0 
6.115068918323e+00 -5.242109758768e+00 0.0 
3.564391741903e+01 -1.329240553876e+01 0.0 
3.558115605778e+01 -1.425902892003e+01 0.0 
3.645445282201e+01 -1.381970786460e+01 0.0 
3.639744204358e+01 -1.479198128612e+01 0.0 
3.727266909778e+01 -1.435399586226e+01 0.0 
5.216667013081e+00 -5.671788584287e+00 0.0 
3.220697293295e+01 -1.499594545107e+01 0.0 
3.551112158269e+01 -1.523479869250e+01 0.0 
2.836056961467e+01 -1.139032434851e+01 0.0 
2.516730388602e+01 -1.021382726837e+01 0.0 
1.844436907403e+01 -1.164097215196e+01 0.0 
5.885434318740e+00 -8.218694781467e+00 0.0 
5.064071066867e+00 -7.656614643901e+00 0.0 
4.988089103470e+00 -8.649722082718e+00 0.0 
1.079421050408e+01 -1.157014985435e+01 0.0 
9.902420005256e+00 -1.199903342656e+01 0.0 
1.071994252214e+01 -1.255727909771e+01 0.0 
9.826974788171e+00 -1.298659581767e+01 0.0 
1.064607883789e+01 -1.354595476388e+01 0.0 
9.751541265343e+00 -1.397556905071e+01 0.0 
8.932296185869e+00 -1.341553353988e+01 0.0 
8.856399248106e+00 -1.440570715508e+01 0.0 
8.036186803543e+00 -1.384470558472e+01 0.0 
1.057112875118e+01 -1.453516759081e+01 0.0 
1.146582585687e+01 -1.410539926903e+01 0.0 
7.959894480382e+00 -1.483563350928e+01 0.0 
7.138792279156e+00 -1.427465094140e+01 0.0 
7.062506792418e+00 -1.526615385482e+01 0.0 
6.240693558277e+00 -1.470508863040e+01 0.0 
6.316957575451e+00 -1.371212581281e+01 0.0 
5.418183007107e+00 -1.414253605022e+01 0.0 
5.494748364428e+00 -1.314886770603e+01 0.0 
1.756825565873e+01 -1.206433872514e+01 0.0 
1.837565773345e+01 -1.261356468266e+01 0.0 
1.749574831391e+01 -1.303769280014e+01 0.0 
1.830539187332e+01 -1.358828364284e+01 0.0 
1.742278925170e+01 -1.401367746928e+01 0.0 
1.823303007798e+01 -1.456432294258e+01 0.0 
1.734941694138e+01 -1.499213734361e+01 0.0 
1.653760041637e+01 -1.443920312098e+01 0.0 
3.056237977307e+01 -1.487132260174e+01 0.0 
1.866469084762e+01 -8.742953000418e+00 0.0 
1.953669694916e+01 -8.326038909849e+00 0.0 
1.874194303780e+01 -7.780688158966e+00 0.0 
1.961032016741e+01 -7.366854697285e+00 0.0 
1.881715755159e+01 -6.821102209649e+00 0.0 
1.968369797150e+01 -6.407747217358e+00 0.0 
1.889237123259e+01 -5.858375520026e+00 0.0 
1.802038875366e+01 -6.276202618170e+00 0.0 
1.809793837984e+01 -5.307629520489e+00 0.0 
1.721985207997e+01 -5.728242054488e+00 0.0 
1.729850893523e+01 -4.756990819347e+00 0.0 
1.641745664240e+01 -5.174636548624e+00 0.0 
2.495978509456e+01 -1.304406404294e+01 0.0 
1.911567814831e+01 -1.413854250293e+01 0.0 
1.904387332608e+01 -1.511463127723e+01 0.0 
1.992115934240e+01 -1.468788025898e+01 0.0 
7.013706899628e+00 -4.812582868662e+00 0.0 
5.342091874585e+00 -1.513658157269e+01 0.0 
1.139098043784e+01 -1.509488509480e+01 0.0 
1.228151810610e+01 -1.465617481983e+01 0.0 
1.646373110164e+01 -1.541993323337e+01 0.0 
5.293328636712e+00 -4.678385108584e+00 0.0 
1.975965862987e+01 -5.448124345648e+00 0.0 
2.054318374236e+01 -5.992561293251e+00 0.0 
3.721453439063e+01 -1.533216152738e+01 0.0 
3.809302733893e+01 -1.489235527381e+01 0.0 
1.220852788900e+01 -1.565304565230e+01 0.0 
4.394120899730e+00 -5.108397613210e+00 0.0 
8.779354620288e+00 -1.539524721159e+01 0.0 
1.817791047702e+01 -4.338570146253e+00 0.0 
4.518860013839e+00 -1.457343189307e+01 0.0 
4.442712140414e+00 -1.556841391069e+01 0.0 
8.115343466391e+00 -1.285760324283e+01 0.0 
1.985334703171e+01 -1.566478400426e+01 0.0 
2.071953850276e+01 -1.522074243119e+01 0.0 
1.634012953883e+01 -6.154777738301e+00 0.0 
1.553479994708e+01 -5.593730508879e+00 0.0 
1.561265946942e+01 -4.617761762647e+00 0.0 
1.470674212978e+01 -5.064576488228e+00 0.0 
1.464498299883e+01 -6.026514471420e+00 0.0 
1.383271561817e+01 -5.467796261169e+00 0.0 
1.389241253067e+01 -4.504338666645e+00 0.0 
1.301868735463e+01 -4.907185188626e+00 0.0 
1.294514184846e+01 -5.888160903592e+00 0.0 
1.212955968622e+01 -5.328262335277e+00 0.0 
1.220721122383e+01 -4.341264976687e+00 0.0 
1.131324345897e+01 -4.766773516508e+00 0.0 
5.266597955397e+00 -1.613148974258e+01 0.0 
1.737805990867e+01 -3.786677807525e+00 0.0 
3.078438094513e+01 -1.203225297748e+01 0.0 
1.131569882285e+01 -1.608511932110e+01 0.0 
1.728478341782e+01 -1.596017432313e+01 0.0 
3.803465906019e+01 -1.587509751228e+01 0.0 
3.891681276677e+01 -1.543395196905e+01 0.0 
3.897340985302e+01 -1.444710288980e+01 0.0 
3.980095968193e+01 -1.499059496613e+01 0.0 
3.974334598189e+01 -1.597921884150e+01 0.0 
4.062964983717e+01 -1.553518690417e+01 0.0 
4.068729602479e+01 -1.454434445295e+01 0.0 
4.151772679790e+01 -1.508974196007e+01 0.0 
4.157505195739e+01 -1.409694289912e+01 0.0 
4.240699932656e+01 -1.464347955968e+01 0.0 
4.234898051011e+01 -1.563721375790e+01 0.0 
4.323934606035e+01 -1.519082036405e+01 0.0 
4.329740528208e+01 -1.419587509788e+01 0.0 
4.413056841369e+01 -1.474359631875e+01 0.0 
4.418850110108e+01 -1.374786684042e+01 0.0 
4.502219770667e+01 -1.429605103525e+01 0.0 
4.496411937907e+01 -1.529215882720e+01 0.0 
4.490027319897e+00 -4.154167794594e+00 0.0 
1.565080385988e+01 -1.486411982419e+01 0.0 
1.557610691279e+01 -1.584855627870e+01 0.0 
4.195350646612e+00 -8.089117689096e+00 0.0 
4.124027797830e+00 -9.082831955007e+00 0.0 
4.917944318925e+00 -9.643530901533e+00 0.0 
4.020105689502e+00 -1.007439673661e+01 0.0 
4.587185899277e+01 -1.484039992728e+01 0.0 
4.580078661551e+01 -1.584043391042e+01 0.0 
2.061956522375e+01 -5.046701343981e+00 0.0 
2.139572955529e+01 -5.579553449826e+00 0.0 
3.715344357292e+01 -1.631485124583e+01 0.0 
3.618886196443e+00 -1.500471207167e+01 0.0 
3.695606940204e+00 -1.400939692294e+01 0.0 
2.438890661143e+01 -9.686110599723e+00 0.0 
2.523267572778e+01 -9.276766000622e+00 0.0 
2.446094171539e+01 -8.751904591412e+00 0.0 
2.529089822738e+01 -8.321495612547e+00 0.0 
2.606882688827e+01 -8.864724051119e+00 0.0 
2.452116646430e+01 -7.792756462004e+00 0.0 
1.235543269617e+01 -1.365845617339e+01 0.0 
4.318116874181e+01 -1.618567469992e+01 0.0 
7.835066111909e+00 -5.376366223896e+00 0.0 
7.905687335704e+00 -4.382539065697e+00 0.0 
3.542640009567e+00 -1.600035116542e+01 0.0 
1.572431503071e+01 -1.388358386695e+01 0.0 
2.574684696680e+01 -1.357896141127e+01 0.0 
2.488842657651e+01 -1.399674354505e+01 0.0 
2.568301775611e+01 -1.453552048595e+01 0.0 
2.481535572009e+01 -1.495542756508e+01 0.0 
2.561729699688e+01 -1.549784648532e+01 0.0 
2.474623061296e+01 -1.592058894178e+01 0.0 
2.394234041695e+01 -1.537572575827e+01 0.0 
2.065825452567e+01 -1.621899055217e+01 0.0 
2.387180528935e+01 -1.634552264687e+01 0.0 
4.585364400844e+01 -1.383912334080e+01 0.0 
1.998744432052e+01 -1.370317155541e+01 0.0 
1.205356951443e+01 -6.313580285498e+00 0.0 
5.396543905849e+00 -3.731818611283e+00 0.0 
1.139652573295e+01 -3.745819399350e+00 0.0 
3.574124306703e+00 -4.551456826011e+00 0.0 
3.494140761930e+00 -5.539787055649e+00 0.0 
1.213651452413e+01 -1.664505033022e+01 0.0 
2.555045568519e+01 -1.646529356744e+01 0.0 
2.641671114986e+01 -1.603899382371e+01 0.0 
2.612920721894e+01 -7.906435260873e+00 0.0 
2.690339829698e+01 -8.456969591431e+00 0.0 
1.978024383368e+01 -1.664410216353e+01 0.0 
3.732829979082e+01 -1.336926601859e+01 0.0 
4.074336584605e+01 -1.355133328401e+01 0.0 
4.163204691081e+01 -1.310280943992e+01 0.0 
3.773826114429e+00 -3.493444309145e+00 0.0 
1.228783001032e+01 -3.374822835872e+00 0.0 
4.057110462520e+01 -1.652588478000e+01 0.0 
2.132535497898e+01 -6.523623360525e+00 0.0 
2.216932532211e+01 -6.110044769206e+00 0.0 
1.825781152128e+01 -3.370146817147e+00 0.0 
1.745679445888e+01 -2.812942552063e+00 0.0 
4.666517057280e+01 -1.539981381543e+01 0.0 
4.660575894464e+01 -1.639014410186e+01 0.0 
4.838230979954e+00 -1.063643436446e+01 0.0 
3.938942630206e+00 -1.106778981745e+01 0.0 
1.302967218620e+01 -1.621373452436e+01 0.0 
1.049548003190e+01 -4.204825123240e+00 0.0 
4.573571907195e+01 -1.683820511148e+01 0.0 
1.483686335807e+01 -1.430849689310e+01 0.0 
1.490982658890e+01 -1.332679386284e+01 0.0 
3.190805600162e+00 -9.510968358545e+00 0.0 
2.146625721848e+01 -4.642437303115e+00 0.0 
2.069866208266e+01 -4.111852942193e+00 0.0 
1.286859345584e+01 -6.873252723348e+00 0.0 
1.041794493184e+01 -5.194814260291e+00 0.0 
2.671081808965e+00 -4.976806516331e+00 0.0 
1.295786792925e+01 -1.720506531799e+01 0.0 
3.968438206511e+01 -1.696869067241e+01 0.0 
2.308550456051e+01 -1.579963151273e+01 0.0 
2.315593682844e+01 -1.482967445235e+01 0.0 
2.299471449450e+01 -1.677069968132e+01 0.0 
1.057344714696e+01 -3.214252277840e+00 0.0 
1.124057603753e+01 -1.707713739755e+01 0.0 
2.718402535754e+00 -1.543629882103e+01 0.0 
2.638549692805e+01 -1.696744916809e+01 0.0 
2.723416349007e+01 -1.658104204545e+01 0.0 
2.210193351704e+01 -7.046769643417e+00 0.0 
2.295180925161e+01 -6.657397605239e+00 0.0 
2.301355235833e+01 -5.709111896800e+00 0.0 
2.379052718281e+01 -6.254965406962e+00 0.0 
3.243528601237e+01 -1.214181853533e+01 0.0 
2.287977995457e+01 -7.583722368300e+00 0.0 
2.999876029544e+01 -1.150837653096e+01 0.0 
3.084435366963e+01 -1.109693775882e+01 0.0 
3.006650579669e+01 -1.057778994262e+01 0.0 
2.683802665066e+01 -9.386863216633e+00 0.0 
2.768641973621e+01 -8.988883915666e+00 0.0 
2.040296980397e+01 -7.903629133404e+00 0.0 
1.925235024054e+01 -1.218872783130e+01 0.0 
5.735667000424e+00 -1.020577277283e+01 0.0 
6.396559909872e+00 -1.272326295703e+01 0.0 
1.161199420714e+01 -1.212812778229e+01 0.0 
4.229046132615e+01 -1.663084237572e+01 0.0 
4.312275399692e+01 -1.718087491556e+01 0.0 
4.335502068163e+01 -1.320039231514e+01 0.0 
4.424630298089e+01 -1.275160688731e+01 0.0 
7.090116643816e+00 -3.818998061530e+00 0.0 
7.989472176569e+00 -3.389238711200e+00 0.0 
9.085824861778e+00 -1.144036167408e+01 0.0 
1.041972423731e+01 -1.651614080893e+01 0.0 
3.797525112640e+01 -1.686052038746e+01 0.0 
3.709114253394e+01 -1.730125999865e+01 0.0 
3.626966748340e+01 -1.675477052919e+01 0.0 
1.385164591440e+01 -1.677597757552e+01 0.0 
1.787152588784e+01 -8.198993896093e+00 0.0 
1.668849729812e+01 -1.248560611628e+01 0.0 
1.659546177905e+01 -3.232482605530e+00 0.0 
2.332214717345e+01 -1.292598167641e+01 0.0 
7.168238450786e+00 -2.824711686516e+00 0.0 
2.894878403906e+01 -1.475427524446e+01 0.0 
2.646763248247e+00 -1.643270107952e+01 0.0 
3.467431944285e+00 -1.699648837348e+01 0.0 
2.059475877282e+01 -1.719473628526e+01 0.0 
3.333868355437e+01 -1.080596971682e+01 0.0 
2.246451062637e+01 -1.334557761546e+01 0.0 
2.167821896388e+01 -1.280847834858e+01 0.0 
3.089653185767e+01 -1.017198487212e+01 0.0 
3.012604365669e+01 -9.657298805968e+00 0.0 
2.929627299435e+01 -1.006100135274e+01 0.0 
2.936201435219e+01 -9.136748899251e+00 0.0 
1.198219052702e+01 -7.291887238230e+00 0.0 
1.116702076035e+01 -6.731976101053e+00 0.0 
2.551388807505e+01 -1.746927036981e+01 0.0 
2.378639090370e+01 -1.728678807149e+01 0.0 
2.718543627188e+01 -1.748668016909e+01 0.0 
2.804681050301e+01 -1.712626668293e+01 0.0 
1.970737034667e+01 -1.762317646822e+01 0.0 
1.889535776135e+01 -1.707158098231e+01 0.0 
2.593777711283e+00 -5.971157087874e+00 0.0 
2.773468281110e+01 -8.067164273938e+00 0.0 
4.051205884347e+01 -1.751819982458e+01 0.0 
3.166903145421e+01 -1.068032992414e+01 0.0 
1.033042452886e+01 -1.748285844336e+01 0.0 
9.519274604626e+00 -1.694349240233e+01 0.0 
1.668308673328e+01 -2.255861778986e+00 0.0 
1.570531902832e+01 -2.676795860126e+00 0.0 
4.655826903379e+01 -1.736656245706e+01 0.0 
2.384148070773e+01 -5.328744256413e+00 0.0 
2.460255123641e+01 -5.852182672816e+00 0.0 
2.306638135119e+01 -4.798935440613e+00 0.0 
8.467720450578e-01 -1.849576263072e+01 0.0 
4.849657322345e+01 -1.084860705506e+01 0.0 
2.565860899507e+00 -1.742859793981e+01 0.0 
2.764418872564e+01 -9.927142821799e+00 0.0 
4.565165880064e+01 -1.785336695404e+01 0.0 
2.162231831329e+01 -1.376528337468e+01 0.0 
2.360646352969e+01 -9.136041963102e+00 0.0 
1.392738739903e+01 -1.578285505772e+01 0.0 
4.756405947478e+01 -1.683706841809e+01 0.0 
4.740895034054e+01 -1.793766756892e+01 0.0 
4.080779328826e+01 -1.257387192544e+01 0.0 
4.168907939671e+01 -1.210739129181e+01 0.0 
3.991197722154e+01 -1.300815793917e+01 0.0 
1.905536506762e+01 -3.940076697685e+00 0.0 
1.923879596617e+01 -2.875000734166e+00 0.0 
4.401386745746e+01 -1.673483229438e+01 0.0 
4.247233362525e+00 -7.094581653070e+00 0.0 
3.286051630211e+00 -7.635300020553e+00 0.0 
9.609533347623e+00 -4.594311677967e+00 0.0 
9.523554636369e+00 -5.595597029530e+00 0.0 
5.660336628893e+00 -1.119290329628e+01 0.0 
6.558070063295e+00 -1.076385809362e+01 0.0 
2.809866407414e+01 -1.518037766799e+01 0.0 
2.888868674504e+01 -1.570360690070e+01 0.0 
2.654431550819e+01 -1.411217777162e+01 0.0 
1.402158265969e+01 -1.375404617952e+01 0.0 
1.409592494026e+01 -1.277071998942e+01 0.0 
1.499355196178e+01 -1.235270737023e+01 0.0 
4.221535326155e+01 -1.759335617494e+01 0.0 
4.305583287033e+01 -1.822663146802e+01 0.0 
1.280748808359e+01 -7.834332838285e+00 0.0 
1.368988389326e+01 -7.420529606172e+00 0.0 
1.110091796060e+01 -7.683966794328e+00 0.0 
3.963446145980e+01 -1.794331310122e+01 0.0 
3.423932362213e+00 -1.796415590455e+01 0.0 
4.280814572302e+00 -1.752272834860e+01 0.0 
8.050136380041e+00 -2.421582378631e+00 0.0 
8.888674091650e+00 -2.984264211327e+00 0.0 
2.152839430898e+01 -3.732609965436e+00 0.0 
2.077799585292e+01 -3.183896021866e+00 0.0 
3.618719395821e+01 -1.770276572576e+01 0.0 
3.538165138340e+01 -1.718709995539e+01 0.0 
3.702925326420e+01 -1.828844288807e+01 0.0 
1.756739438711e+00 -5.353284859169e+00 0.0 
2.233710191104e+01 -1.527265621324e+01 0.0 
1.389483555057e+01 -1.771797164730e+01 0.0 
1.475634224300e+01 -1.728357428390e+01 0.0 
1.298797563052e+01 -1.825968924755e+01 0.0 
2.145331271866e+01 -1.673705379077e+01 0.0 
2.133282821169e+01 -1.769400773673e+01 0.0 
2.292139194136e+01 -1.774915400288e+01 0.0 
1.750750053243e+01 -1.861475593469e+00 0.0 
4.830478841772e+01 -1.752611802221e+01 0.0 
4.341203507805e+01 -1.220326745522e+01 0.0 
1.685254151866e+01 -1.443085301632e+00 0.0 
4.431538535165e+01 -1.171841387375e+01 0.0 
4.511308610496e+01 -1.229557320599e+01 0.0 
4.510133242889e+01 -1.123680627466e+01 0.0 
1.846818030617e+00 -4.410877617069e+00 0.0 
3.995468694584e+01 -1.186571542989e+01 0.0 
3.901387459804e+01 -1.242507616755e+01 0.0 
8.966735877533e+00 -1.837818700423e+00 0.0 
4.049310011091e+01 -1.848269508791e+01 0.0 
7.278862053803e+00 -1.918523922691e+00 0.0 
6.429715522129e+00 -2.316676521184e+00 0.0 
9.443505505022e+00 -1.792198868094e+01 0.0 
8.620386951051e+00 -1.737590365556e+01 0.0 
8.571868171503e+00 -1.834436667826e+01 0.0 
7.758629848526e+00 -1.775677907213e+01 0.0 
7.806648388584e+00 -1.680761266021e+01 0.0 
6.908555145436e+00 -1.723746463044e+01 0.0 
4.251709122090e+01 -1.156937480156e+01 0.0 
6.931136405615e+00 -1.832465719263e+01 0.0 
6.015545461353e+00 -1.768865355295e+01 0.0 
5.960535926343e+00 -1.872011001764e+01 0.0 
3.023253444786e+01 -8.761960642196e+00 0.0 
2.454622702599e+01 -6.749421992767e+00 0.0 
2.537499741604e+01 -6.347634963783e+00 0.0 
2.544077378460e+01 -5.431358513649e+00 0.0 
2.801367161747e+01 -1.820907270221e+01 0.0 
2.884507806914e+01 -1.762032095326e+01 0.0 
1.821474531936e+00 -1.588901260460e+01 0.0 
1.821006262604e+00 -1.489370287756e+01 0.0 
4.599962488908e+01 -1.176478780598e+01 0.0 
4.705457470007e+01 -1.172182804229e+01 0.0 
4.667668314802e+01 -1.263464558483e+01 0.0 
4.759648056504e+01 -1.252380987933e+01 0.0 
4.728041618103e+01 -1.341928568376e+01 0.0 
4.825209352360e+01 -1.330491640804e+01 0.0 
4.778118233428e+01 -1.420151961695e+01 0.0 
2.388192727579e+01 -1.826934810142e+01 0.0 
2.381714684947e+01 -4.385917965223e+00 0.0 
3.172733219247e+01 -9.758744265248e+00 0.0 
1.882012070658e+01 -1.805540597212e+01 0.0 
1.805667505243e+01 -1.742221226236e+01 0.0 
2.852599958080e+01 -8.597196079481e+00 0.0 
2.856486123437e+01 -7.661382718527e+00 0.0 
1.111792842875e+01 -1.818223852980e+01 0.0 
2.203322722466e+01 -7.986646678802e+00 0.0 
3.955703676900e+01 -1.903246763601e+01 0.0 
1.944842206513e+01 -8.038750575182e-01 0.0 
1.909882767783e+01 -1.746322740933e+00 0.0 
2.281147422941e+01 -8.525912918334e+00 0.0 
2.850633001468e+01 -9.533271335986e+00 0.0 
2.532883344309e+01 -7.308951659710e+00 0.0 
2.620475466461e+01 -6.979208585400e+00 0.0 
1.396278270396e+01 -1.475095389807e+01 0.0 
9.791001166724e+00 -2.554159793552e+00 0.0 
2.229293380421e+01 -4.269762271052e+00 0.0 
4.677238984118e+01 -1.430071795514e+01 0.0 
2.228658385918e+01 -3.344747535984e+00 0.0 
8.940223674553e-01 -1.543595733415e+01 0.0 
2.118566862474e+01 -8.435876987696e+00 0.0 
2.678325936437e+01 -1.032621195706e+01 0.0 
2.223400220487e+01 -5.179046761770e+00 0.0 
2.375370625384e+01 -7.251580562134e+00 0.0 
3.156971327386e+01 -1.255534750737e+01 0.0 
3.328226391312e+01 -1.172914813316e+01 0.0 
3.250948774219e+01 -1.120157009348e+01 0.0 
2.032993445717e+01 -8.867880112202e+00 0.0 
2.697226974856e+01 -7.536633082045e+00 0.0 
2.707377810386e+01 -6.590835263295e+00 0.0 
2.914099246827e+01 -1.191678458549e+01 0.0 
3.544824072239e+01 -1.621126558525e+01 0.0 
3.456511855436e+01 -1.665054783843e+01 0.0 
3.448395810225e+01 -1.759117813016e+01 0.0 
3.368378673938e+01 -1.708037781328e+01 0.0 
3.375560452567e+01 -1.610973066913e+01 0.0 
3.288001547988e+01 -1.654324255651e+01 0.0 
3.282475929147e+01 -1.749725654692e+01 0.0 
3.199880906313e+01 -1.697294088625e+01 0.0 
3.197001272932e+01 -1.811667776864e+01 0.0 
3.111884713021e+01 -1.742166785755e+01 0.0 
3.120418962865e+01 -1.642155709385e+01 0.0 
3.034666704371e+01 -1.683123833816e+01 0.0 
3.026224379976e+01 -1.772592851714e+01 0.0 
3.046632362943e+01 -1.582232843075e+01 0.0 
1.961344017324e+01 -1.857459447985e+01 0.0 
2.274975894774e+01 -9.532738811922e+00 0.0 
1.833923246887e+01 -2.396746883672e+00 0.0 
1.988859500848e+01 -2.249244376594e+00 0.0 
2.758045562861e+01 -1.086434261689e+01 0.0 
3.247300178163e+01 -1.909930104252e+01 0.0 
3.461947482503e+01 -1.911879848019e+01 0.0 
2.047161538662e+01 -6.941478180358e+00 0.0 
2.750230940214e+01 -1.915490590764e+01 0.0 
3.165081350803e+01 -1.161860780120e+01 0.0 
1.897456727641e+01 -4.889634688522e+00 0.0 
2.549338539756e+01 -1.914858252089e+01 0.0 
3.462873135081e+01 -1.567482276144e+01 0.0 
3.384432415243e+01 -1.512280684518e+01 0.0 
3.471433767690e+01 -1.469086942990e+01 0.0 
3.651470373046e+01 -1.918207952149e+01 0.0 
3.901742690249e+01 -1.345028556517e+01 0.0 
2.153224102692e+01 -1.920169709333e+01 0.0 
1.918382939341e+01 -1.316226275662e+01 0.0 
2.005389162382e+01 -1.271962165174e+01 0.0 
2.011472087878e+01 -1.175029352900e+01 0.0 
3.210679478412e+01 -1.598038618242e+01 0.0 
1.752175226543e+01 -1.914713022656e+01 0.0 
1.696897240059e+01 -1.832772588765e+01 0.0 
1.599682523337e+01 -1.832599992024e+01 0.0 
1.644507199462e+01 -1.743697981535e+01 0.0 
1.549987712903e+01 -1.915192375101e+01 0.0 
3.050250861901e+01 -1.918943550234e+01 0.0 
2.949944061527e+01 -1.922950455235e+01 0.0 
1.375892575273e+01 -6.447160534926e+00 0.0 
1.457223670180e+01 -7.006709243857e+00 0.0 
1.450818793236e+01 -7.965943451779e+00 0.0 
1.538804712402e+01 -7.553409623699e+00 0.0 
1.545817644768e+01 -6.580929593419e+00 0.0 
1.626506893751e+01 -7.129032608911e+00 0.0 
1.619833811522e+01 -8.086588580887e+00 0.0 
1.714448609609e+01 -6.697429609777e+00 0.0 
2.887616543568e+01 -1.668015232137e+01 0.0 
1.349814589130e+01 -1.918225301544e+01 0.0 
1.153887772210e+01 -1.311384581217e+01 0.0 
1.242708159886e+01 -1.267046795531e+01 0.0 
1.249799674267e+01 -1.169005616014e+01 0.0 
6.631723893693e+00 -9.774184881867e+00 0.0 
7.451471631867e+00 -1.033148796006e+01 0.0 
7.377795355458e+00 -1.132196345268e+01 0.0 
5.810931797536e+00 -9.211654212252e+00 0.0 
2.402683899133e+01 -1.441378562320e+01 0.0 
1.249768692036e+01 -1.917388426624e+01 0.0 
1.580373499437e+01 -1.290751860664e+01 0.0 
8.344650507834e+00 -9.898403995170e+00 0.0 
3.750622115305e+01 -1.086526401533e+01 0.0 
3.699391251667e+01 -1.171695900794e+01 0.0 
3.606517829518e+01 -1.173717504500e+01 0.0 
3.650257641795e+01 -1.270047380221e+01 0.0 
3.808951488918e+01 -1.183518714175e+01 0.0 
4.760380962420e+00 -1.162484888315e+01 0.0 
3.861210370848e+00 -1.205657631736e+01 0.0 
3.038284309476e+00 -1.149851280664e+01 0.0 
2.961598794889e+00 -1.248856794980e+01 0.0 
2.138953225512e+00 -1.193212674534e+01 0.0 
2.227383593457e+00 -1.096258903918e+01 0.0 
2.043265419276e+00 -1.292158472959e+01 0.0 
1.252449446028e+00 -1.225502002753e+01 0.0 
3.949985210740e+01 -1.086594001795e+01 0.0 
1.453499444792e+01 -8.768805922472e-01 0.0 
1.403518950933e+01 -1.749965556633e+00 0.0 
1.300715031023e+01 -1.714737233040e+00 0.0 
1.350929389899e+01 -2.527443911291e+00 0.0 
1.449600910711e+01 -2.595486162864e+00 0.0 
1.395693872901e+01 -3.484211041558e+00 0.0 
1.495105865208e+01 -3.364609636216e+00 0.0 
1.508822528740e+01 -1.766586020494e+00 0.0 
1.250223858430e+01 -8.634590186802e-01 0.0 
1.200279523409e+01 -1.709044504992e+00 0.0 
1.150086239419e+01 -8.592789190668e-01 0.0 
1.101482754194e+01 -1.677730591922e+00 0.0 
1.148018564526e+01 -2.659323866909e+00 0.0 
8.800552119754e+00 -3.989875954728e+00 0.0 
3.452790439430e+00 -1.901136170646e+01 0.0 
8.658451825200e-01 -9.503462241795e+00 0.0 
1.694787786797e+00 -9.000589234502e+00 0.0 
1.703436717094e+00 -8.038819004041e+00 0.0 
2.594197971110e+00 -8.563955242845e+00 0.0 
1.630513735412e+00 -9.907244747511e+00 0.0 
8.566859292791e-01 -7.512203837972e+00 0.0 
1.685461277022e+00 -7.164280248030e+00 0.0 
2.506394468801e+00 -8.623386730818e-01 0.0 
2.007475081581e+00 -1.727729545205e+00 0.0 
9.211534699767e-01 -1.628791366312e+00 0.0 
1.500000000020e+00 -2.598063549486e+00 0.0 
2.482078929963e+00 -2.553580088725e+00 0.0 
2.999795253092e+00 -1.732169015019e+00 0.0 
3.999712607169e+00 -1.728832897453e+00 0.0 
4.499752199340e+00 -8.656478679175e-01 0.0 
4.964377774841e+00 -1.730129617941e+00 0.0 
4.425017908337e+00 -2.597541756243e+00 0.0 
5.446573195014e+00 -8.410144840023e-01 0.0 
4.915722346614e+01 -1.550640962770e+01 0.0 
4.826794919243e+01 -1.600000000000e+01 0.0 
1.053139533193e+01 -1.911782884365e+01 0.0 
4.156049861949e+01 -1.095160998589e+01 0.0 
9.494526624416e+00 -8.650570090219e-01 0.0 
4.555762166964e+01 -1.897098103585e+01 0.0 
4.250656411371e+01 -1.914387356218e+01 0.0 
4.350906466345e+01 -1.917234727395e+01 0.0 
8.759665722424e-01 -1.746422130609e+01 0.0 
1.698936011838e+00 -1.795012186674e+01 0.0 
4.742476811029e+01 -1.900090177972e+01 0.0 
7.749196752349e+00 -6.368049313489e+00 0.0 
3.361572113416e+01 -1.798765193915e+01 0.0 
4.484660149212e+01 -1.728661231383e+01 0.0 
1.984038172228e+01 -4.502575320116e+00 0.0 
1.035080352627e+01 -6.166639575753e+00 0.0 
2.753558010652e+00 -1.444909521181e+01 0.0 
7.217069543032e+00 -1.328635391078e+01 0.0 
4.364336727739e+00 -1.655585677381e+01 0.0 
4.595208426108e+00 -1.357919665443e+01 0.0 
6.164967006980e+00 -1.569873454630e+01 0.0 
1.487855768353e+01 -1.826523774028e+01 0.0 
2.791876456372e+00 -4.019632415181e+00 0.0 
4.246464893515e+01 -1.364898659620e+01 0.0 
4.503855590351e+01 -1.329552780944e+01 0.0 
4.407239109604e+01 -1.573900004093e+01 0.0 
5.141054449252e+00 -6.664290382472e+00 0.0 
3.141083947149e+00 -1.055790764912e+01 0.0 
6.196463198741e+00 -4.256497932609e+00 0.0 
2.599618716181e+01 -1.836893455464e+01 0.0 
2.923057372337e+01 -1.098461757645e+01 0.0 
1.168343877486e+01 -1.114079645041e+01 0.0 
6.706222096238e+00 -8.780364234441e+00 0.0 
8.567858614669e+00 -6.943121440850e+00 0.0 
1.123755132901e+01 -5.753525820030e+00 0.0 
2.353456234423e+01 -1.008536320953e+01 0.0 
9.162073319168e+00 -1.045593739109e+01 0.0 
9.676343469685e+00 -1.496493008366e+01 0.0 
4.490637882905e+01 -1.628778970202e+01 0.0 
7.398129387772e+00 -9.639977982323e-01 0.0 
1.049641705805e+01 -1.552503975272e+01 0.0 
9.010356286268e+00 -1.242805042052e+01 0.0 
3.985573925497e+01 -1.399863651620e+01 0.0 
1.816196318262e+01 -1.554066497931e+01 0.0 
1.306332244168e+01 -3.963646550326e+00 0.0 
4.145850903932e+01 -1.608094559275e+01 0.0 
3.794664933633e+01 -1.779020121986e+01 0.0 
3.819614412903e+01 -1.290749321016e+01 0.0 
6.270014188119e+00 -3.255093186826e+00 0.0 
4.251165370388e+01 -1.263870364997e+01 0.0 
1.207347709171e+01 -1.763942826023e+01 0.0 
3.633240829927e+01 -1.577330481104e+01 0.0 
4.319052668832e+00 -6.101812561904e+00 0.0 
1.676492415806e+01 -1.151547901392e+01 0.0 
2.594059220037e+01 -1.074225223009e+01 0.0 
3.340750911501e+01 -9.898764354137e+00 0.0 
4.397619591281e+01 -1.769773736461e+01 0.0 
2.175611595028e+01 -1.185718747128e+01 0.0 
1.641818733106e+01 -1.640685203215e+01 0.0 
1.661211421753e+01 -1.346121366338e+01 0.0 
3.428853504935e+00 -6.551993389271e+00 0.0 
8.700728832502e+00 -1.638460872825e+01 0.0 
1.931369795309e+01 -1.121629383702e+01 0.0 
4.139798872363e+01 -1.706922153459e+01 0.0 
2.647837478700e+01 -1.507353829290e+01 0.0 
1.779469616424e+01 -9.161615782908e+00 0.0 
3.885879219319e+01 -1.642026488918e+01 0.0 
1.338194936770e+01 -1.125916521471e+01 0.0 
1.897071181111e+01 -1.609204322578e+01 0.0 
2.844308548793e+01 -1.046221003096e+01 0.0 
2.659854702194e+01 -1.316109415760e+01 0.0 
2.979604503271e+01 -1.433296157755e+01 0.0 
2.417694041347e+01 -1.251231397779e+01 0.0 
1.807401327411e+00 -1.388891148480e+01 0.0 
9.599810618782e+00 -1.595439365034e+01 0.0 
1.652144692160e+01 -4.205392788472e+00 0.0 
2.367839450246e+01 -8.188385218643e+00 0.0 
3.814894930468e+01 -1.390748338767e+01 0.0 
2.466448215774e+01 -1.685878545680e+01 0.0 
4.134044524611e+01 -1.806610045954e+01 0.0 
2.600511411958e+01 -9.801774120648e+00 0.0 
7.882158050716e+00 -1.582364037353e+01 0.0 
3.881607873422e+01 -1.737970515013e+01 0.0 
8.270182347708e+00 -1.088622154920e+01 0.0 
8.672520392520e-01 -4.532984309881e+00 0.0 
1.993447205337e+01 -3.579061902667e+00 0.0 
1.794616079549e+01 -7.238038888498e+00 0.0 
2.097277068165e+01 -1.132450168636e+01 0.0 
8.194803300681e+00 -1.187214224265e+01 0.0 
3.522279404911e+01 -1.823342818178e+01 0.0 
6.984481050295e+00 -1.625271465557e+01 0.0 
1.309433007797e+01 -1.521718594215e+01 0.0 
2.150246167611e+01 -1.885399038185e+00 0.0 
3.250689370209e+01 -1.028789870535e+01 0.0 
6.085886272238e+00 -1.668342132851e+01 0.0 
1.588455661727e+01 -1.193498985921e+01 0.0 
1.809323400821e+01 -1.651110084195e+01 0.0 
1.348885082381e+00 -1.136065576512e+01 0.0 
2.497670221995e+01 -1.834631276173e+01 0.0 
2.937062818424e+01 -8.233711194470e+00 0.0 
5.185823744469e+00 -1.711566910207e+01 0.0 
1.477497877209e+01 -1.530177014512e+01 0.0 
2.125346158933e+01 -7.473003997367e+00 0.0 
4.751561118290e+01 -1.084897772632e+01 0.0 
5.056026576843e+00 -1.825750475525e+01 0.0 
1.473948554523e+01 -1.634577436309e+01 0.0 
2.410566630936e+01 -1.345970002612e+01 0.0 
1.507337507513e+01 -1.138527895328e+01 0.0 
3.189857338687e+01 -8.887781229006e+00 0.0 
7.298712468334e+00 -1.230231046246e+01 0.0 
2.738235495295e+01 -1.368931690364e+01 0.0 
3.750141041969e+01 -1.920449893070e+01 0.0 
1.557271965640e+01 -1.683317951731e+01 0.0 
3.393731848929e+01 -1.413034777044e+01 0.0 
6.482156824153e+00 -1.174575135362e+01 0.0 
2.077971718439e+01 -1.421279621836e+01 0.0 
3.455084320178e+00 -2.562590040585e+00 0.0 
3.099056096250e+01 -9.270280416035e+00 0.0 
5.580176125418e+00 -1.217387969259e+01 0.0 
1.707247630389e+01 -7.660651981710e+00 0.0 
1.418658814174e+01 -1.180390575393e+01 0.0 
2.049103025389e+01 -1.811296706038e+01 0.0 
4.680386172316e+00 -1.260396879301e+01 0.0 
1.699679896554e+01 -8.624561788199e+00 0.0 
3.779470168555e+00 -1.303424899720e+01 0.0 
3.036589870126e+01 -7.879832518349e+00 0.0 
3.306993001774e+01 -1.457671062095e+01 0.0 
2.840150110165e+00 -1.346530088269e+01 0.0 
2.732011135052e+01 -1.464591214560e+01 0.0 
5.423639259568e+00 -2.659711955016e+00 0.0 
2.324455961696e+01 -1.387269388211e+01 0.0 
1.752768355571e+00 -1.693128613594e+01 0.0 
1.020244783051e+01 -8.076834012808e+00 0.0 
1.330873875224e+01 -1.222417528206e+01 0.0 
3.297727364880e+01 -1.555480372087e+01 0.0 
2.890929955439e+01 -6.868664170731e+00 0.0 
1.323294664622e+01 -1.320754260334e+01 0.0 
2.726532861246e+01 -1.560593120806e+01 0.0 
2.240020643398e+01 -1.429299177247e+01 0.0 
2.090445823633e+01 -1.228128621332e+01 0.0 
1.315809881502e+01 -1.420739326938e+01 0.0 
2.781328038068e+01 -7.181956082300e+00 0.0 
8.614200829057e+00 -5.936933226306e+00 0.0 
8.714765730069e+00 -4.979270529687e+00 0.0 
1.611881701099e+01 -9.041973294003e+00 0.0 
2.806830314340e+01 -1.614622947108e+01 0.0 
2.084435391396e+00 -3.385085422913e+00 0.0 
3.133211811152e+01 -1.542347619750e+01 0.0 
9.693114650768e+00 -3.590281506442e+00 0.0 
1.531883592202e+01 -8.504584946143e+00 0.0 
2.151589117094e+01 -1.578915763018e+01 0.0 
4.918943882696e+01 -1.355538828056e+01 0.0 
1.443236615188e+01 -8.918701794549e+00 0.0 
8.276250966452e-01 -5.537685192197e+00 0.0 
1.362790867918e+01 -8.374718262212e+00 0.0 
2.083767477370e+01 -1.324843956035e+01 0.0 
1.273834678703e+01 -8.790890389337e+00 0.0 
1.192275845670e+01 -8.242261327467e+00 0.0 
4.477236023583e+01 -1.824312396664e+01 0.0 
1.102989384254e+01 -8.649855800911e+00 0.0 
4.849096516045e+01 -1.917293752213e+01 0.0 
1.588996752238e+00 -1.910230934687e+01 0.0 
4.904245197583e+01 -1.159839008158e+01 0.0 
2.753852929608e+01 -5.782128488093e+00 0.0 
1.756133602833e+01 -8.306130313187e-01 0.0 
2.615423700951e+01 -6.153865090092e+00 0.0 
1.028818761294e+01 -7.122020845892e+00 0.0 
2.970818901196e+01 -1.527821347593e+01 0.0 
4.801461623449e+01 -1.164472570985e+01 0.0 
9.455722100419e+00 -6.546069291118e+00 0.0 
3.089099236677e+01 -1.835339328261e+01 0.0 
2.350000000013e+01 -1.920825896750e+01 0.0 
4.830620531887e+01 -1.506626155470e+01 0.0 
1.725381944701e+01 -1.688794487850e+01 0.0 
2.156246225273e+01 -1.475893794002e+01 0.0 
4.919319648787e+01 -1.742767505896e+01 0.0 
4.437935623576e+01 -1.077662927266e+01 0.0 
1.001520521978e+01 -1.652692675208e+00 0.0 
9.067160240050e-01 -1.441937727541e+01 0.0 
2.603365149390e+01 -4.755996613848e+00 0.0 
2.458344439002e+01 -4.873645517696e+00 0.0 
2.304312390142e+01 -3.836552768096e+00 0.0 
2.546923202198e+00 -6.902480355749e+00 0.0 
1.251534969393e+01 -2.490989965776e+00 0.0 
2.454061833377e+01 -3.933354231935e+00 0.0 
1.788186558740e+01 -1.827424884923e+01 0.0 
4.090785243552e+01 -1.166553231904e+01 0.0 
2.230128851568e+01 -1.623015738726e+01 0.0 
2.302362347568e+01 -2.916239960270e+00 0.0 
3.878119254461e+01 -1.830091164002e+01 0.0 
2.210081359958e+01 -1.829238229150e+01 0.0 
8.443704882233e+00 -1.921993252862e+01 0.0 
2.218405824691e+01 -1.724557581508e+01 0.0 
2.151157503963e+01 -2.790636689331e+00 0.0 
3.741658958955e+01 -1.250400191722e+01 0.0 
2.697247663737e+01 -1.838290202309e+01 0.0 
4.743362342862e+01 -1.585850773010e+01 0.0 
6.671345075358e+00 -1.924977576322e+01 0.0 
3.900825404537e+01 -1.157220003875e+01 0.0 
4.649692961375e+01 -1.836335837481e+01 0.0 
1.578831424832e+01 -3.678284023361e+00 0.0 
4.814208768888e+01 -1.841249298770e+01 0.0 
2.964123298315e+01 -1.625739458193e+01 0.0 
4.580760351902e+01 -1.284294554687e+01 0.0 
3.561520879615e+01 -1.245548941949e+01 0.0 
2.555418095658e+00 -1.841101588290e+01 0.0 
3.288468366144e+01 -1.834258164109e+01 0.0 
2.065894391445e+01 -2.240688571739e+00 0.0 
4.739171429915e+01 -1.496536413446e+01 0.0 
3.478086729185e+00 -8.576434653209e+00 0.0 
1.606010630246e+01 -1.588421807951e+00 0.0 
1.018329200594e+01 -1.834320874317e+01 0.0 
2.957213339430e+01 -1.720496954591e+01 0.0 
4.142712790164e+00 -1.837794506222e+01 0.0 
6.698721532573e-01 -2.499999999997e+00 0.0 
8.037039123140e+00 -1.571229354954e+00 0.0 
1.203541361428e+01 -1.847784298001e+01 0.0 
2.899968332038e+01 -1.848264722179e+01 0.0 
1.469229460948e+01 -4.219485753730e+00 0.0 
4.049590781957e+01 -1.932812501995e+01 0.0 
1.996211678340e+01 -1.506329754720e+00 0.0 
4.250588298353e+01 -1.067383247529e+01 0.0 
5.831497011152e+00 -1.635396227234e+00 0.0 
5.317606125670e+00 -1.923927974868e+01 0.0 
4.208546426993e+01 -1.842830665025e+01 0.0 
2.327553405011e+00 -9.459409929662e+00 0.0 
3.568351902251e+01 -1.096637218582e+01 0.0 
1.682104374890e+00 -6.231413350963e+00 0.0 
2.451812238018e+01 -1.766524914339e+01 0.0 
1.058003429638e+01 -2.391839617098e+00 0.0 
4.399988753123e+01 -1.851998776342e+01 0.0 
1.400000000010e+01 -1.852293523028e+01 0.0 
3.604719565984e+01 -1.850662876800e+01 0.0 
1.951297136734e+01 -1.938092349694e+01 0.0 
1.821365318472e+01 -1.531276353287e+00 0.0 
2.298031859732e+01 -1.854635324722e+01 0.0 
1.552168066204e+01 -1.764280741977e+01 0.0 
4.572957713638e+01 -1.073347898229e+01 0.0 
3.429637429624e+01 -1.838861552790e+01 0.0 
2.427434426052e+00 -7.705577451869e+00 0.0 
4.662792031485e+00 -3.359424455416e+00 0.0 
4.926794919243e+01 -1.926794919243e+01 0.0 
7.320508075690e-01 -7.320508075688e-01 0.0 
4.926794919243e+01 -1.073205080757e+01 0.0 
7.320508075705e-01 -1.926794919243e+01 0.0 
2.917460242467e+00 -3.202866455310e+00 0.0 
4.838200575963e+01 -1.232674147454e+01 0.0 
2.998445708009e+01 -1.854403752148e+01 0.0 
5.949940090766e-01 -1.152762038165e+01 0.0 
4.844763495759e+01 -1.678092548787e+01 0.0 
1.301685480160e+01 -3.170056592566e+00 0.0 
1.650046335855e+01 -6.731535384067e-01 0.0 
4.854881540991e+01 -1.405224059779e+01 0.0 
2.119545114693e+01 -1.846813384545e+01 0.0 
3.797852849897e+01 -1.857978513215e+01 0.0 
4.649823708745e+01 -1.338351810816e+01 0.0 
2.012685900976e+01 -2.889659035009e+00 0.0 
2.953271913273e+01 -1.791558075192e+01 0.0 
2.408509097292e+00 -1.021949208421e+01 0.0 
2.642589566221e+01 -1.773216561448e+01 0.0 
1.730010270775e+01 -1.763165076721e+01 0.0 
2.017406551304e+01 -8.513536440582e-01 0.0 
5.254761581934e-01 -1.249999999999e+01 0.0 
6.640448215642e+00 -1.545337834885e+00 0.0 
7.843361506349e+00 -1.852719839527e+01 0.0 
1.588442191088e+00 -1.066158564320e+01 0.0 
2.280866189488e+01 -1.416779325160e+00 0.0 
4.950862068966e+01 -1.500000000000e+00 0.0 
2.431250000000e+01 -2.420918367347e+00 0.0 
4.950961538461e+01 -2.500000000000e+00 0.0 
2.580823483239e+01 -3.416278049680e+00 0.0 
4.950961538461e+01 -3.500000000000e+00 0.0 
2.731250000000e+01 -4.420918367347e+00 0.0 
4.951086956522e+01 -4.500000000000e+00 0.0 
2.880770112393e+01 -5.415638864241e+00 0.0 
4.951086956522e+01 -5.500000000000e+00 0.0 
3.031250000000e+01 -6.420918367347e+00 0.0 
4.951250000000e+01 -6.500000000000e+00 0.0 
3.180701530612e+01 -7.414795918363e+00 0.0 
4.951250000000e+01 -7.500000000000e+00 0.0 
3.331250000000e+01 -8.420918367347e+00 0.0 
4.951470588234e+01 -8.500000000000e+00 0.0 
3.480610198624e+01 -9.413633635267e+00 0.0 
4.951470588234e+01 -9.500000000000e+00 0.0 

SCALARS node_number int
LOOKUP_TABLE default
1
2
3
4
5
6
7
8
9
10
11
12
13
14
15
16
17
18
19
20
21
22
23
24
25
26
27
28
29
30
31
32
33
34
35
36
37
38
39
40
41
42
43
44
45
46
47
48
49
50
51
52
53
54
55
56
57
58
59
60
61
62
63
64
65
66
67
68
69
70
71
72
73
74
75
76
77
78
79
80
81
82
84
85
86
87
88
89
90
91
92
93
94
95
96
97
98
99
100
101
102
104
105
106
107
108
109
110
111
112
113
114
115
116
117
118
119
120
121
122
123
124
125
126
127
128
129
130
131
132
133
134
135
136
166
167
168
169
170
171
172
173
174
175
176
177
178
179
180
181
182
183
184
185
186
187
188
189
190
191
192
193
194
195
196
197
198
199
200
201
202
203
204
205
206
207
208
209
210
211
212
213
214
215
216
217
218
219
220
221
222
223
224
225
226
227
228
229
230
231
232
233
234
235
236
237
238
239
240
241
242
243
244
245
246
247
248
249
250
251
252
253
254
255
256
257
258
259
260
261
262
263
264
265
266
267
268
269
270
271
272
273
274
275
276
277
278
279
280
281
282
283
284
285
286
287
288
289
290
291
292
293
294
295
296
297
298
299
300
301
302
303
304
305
306
307
308
309
310
311
312
313
314
315
316
317
318
319
320
321
322
323
324
325
326
327
328
329
330
331
332
333
334
335
336
337
338
339
340
341
342
343
344
345
346
347
348
349
350
351
352
353
354
355
356
357
358
359
360
361
362
363
364
365
366
367
368
369
370
371
372
373
374
375
376
377
378
379
380
381
382
383
384
385
386
387
388
389
390
391
392
393
394
395
396
397
398
399
400
401
402
403
404
405
406
407
408
409
410
411
412
413
414
415
416
417
418
419
420
421
422
423
424
425
426
427
428
429
430
431
432
433
434
435
436
437
438
439
440
441
442
443
444
445
446
447
448
449
450
451
452
453
454
455
456
457
458
459
460
461
462
463
464
465
466
467
468
469
470
471
472
473
474
475
476
477
478
479
480
481
482
483
484
485
486
487
488
489
490
491
492
493
494
495
496
497
498
499
500
501
502
503
504
505
506
507
508
509
510
511
512
513
514
515
516
517
518
519
520
521
522
523
524
525
526
527
528
529
530
531
532
533
534
535
536
537
538
539
540
541
542
543
544
545
546
547
548
549
550
551
552
553
554
555
556
557
558
559
560
561
562
563
564
565
566
567
568
569
570
571
572
573
574
575
576
577
578
579
580
581
582
583
584
585
586
587
588
589
590
591
592
593
594
595
596
597
598
599
600
601
602
603
604
605
606
607
608
609
610
611
612
613
614
615
616
617
618
619
620
621
622
623
624
625
626
627
628
629
630
631
632
633
634
635
636
637
638
639
640
641
642
643
644
645
646
647
648
649
650
651
652
653
654
655
656
657
658
659
660
661
662
663
664
665
666
667
668
669
670
671
672
673
674
675
676
677
678
679
680
681
682
683
684
685
686
687
688
689
690
691
692
693
694
695
696
697
698
699
700
701
702
703
704
705
706
707
708
709
710
711
712
713
714
715
716
717
718
719
720
721
722
723
724
725
726
727
728
729
730
731
732
733
734
735
736
737
738
739
740
741
742
743
744
745
746
747
748
749
750
751
752
753
754
755
756
757
758
759
760
761
762
763
764
765
766
767
768
769
770
771
772
773
774
775
776
777
778
779
780
781
782
783
784
785
786
787
788
789
790
791
792
793
794
795
796
797
798
799
800
801
802
803
804
805
806
807
808
809
810
811
812
813
814
815
816
817
818
819
820
821
822
823
824
825
826
827
828
829
830
831
832
833
834
835
836
837
838
839
840
841
842
843
844
845
846
847
848
849
850
851
852
853
854
855
856
857
858
859
860
861
862
863
864
865
866
867
868
869
870
871
872
873
874
875
876
877
878
879
880
881
882
883
884
885
886
887
888
889
890
891
892
893
894
895
896
897
898
899
900
901
902
903
904
905
906
907
908
909
910
911
912
913
914
915
916
917
918
919
920
921
922
923
924
925
926
927
928
929
930
931
932
933
934
935
936
937
938
939
940
941
942
943
944
945
946
947
948
949
950
951
952
953
954
955
956
957
958
959
960
961
962
963
964
965
966
967
968
969
970
971
972
973
974
975
976
977
978
979
980
981
982
983
984
985
986
987
988
989
990
991
992
993
994
995
996
997
998
999
1000
1001
1002
1003
1004
1005
1006
1007
1008
1009
1010
1011
1012
1013
1014
1015
1016
1017
1018
1019
1020
1021
1022
1023
1024
1025
1026
1027
1028
1029
1030
1031
1032
1033
1034
1035
1036
1037
1038
1039
1040
1041
1042
1043
1044
1045
1046
1047
1048
1049
1050
1051
1052
1053
1054
1055
1056
1057
1058
1059
1060
1061
1062
1063
1064
1065
1066
1067
1068
1069
1070
1071
1072
1073
1074
1075
1076
1077
1078
1079
1080
1081
1082
1083
1084
1085
1086
1087
1088
1089
1090
1091
1092
1093
1094
1095
1096
1097
1098
1099
1100
1101
1102
1103
1104
1105
1106
1107
1108
1109
1110
1111
1112
1113
1114
1115
1116
1117
1118
1119
1120
1121
1122
1123
1124
1125
1126
1127
1128
1129
1130
1131
1132
1133
1134
1135
1136
1137
1138
1139
1140
1141
1142
1143
1144
1145
1146
1147
1148
1149
1150
1151
1152
1153
1154
1155
1156
1157
1158
1159
1160
1161
1162
1163
1164
1165
1166
1167
1168
1169
1170
1171
1172
1173
1174
1175
1176
1177
1178
1179
1180
1181
1182
1183
1184
1185
1186
1187
1188
1189
1190
1191
1192
1193
1194
1195
1196
1197
1198
1199
1200
1201
1202
1203
1204
1205
1206
1207
1208
1209
1210
1211
1212
1213
1214
1215
1216
1217
1218
1219
1220
1221
1222
1223
1224
1225
1226
1227
1228
1229
1230
1231
1232
1233
1234
1235
1236
1237
1238
1239
1240
1241
1242
1243
1244
1245
1246
1247
1248
1249
1250
1251
1252
1253
1254
1255
1256
1257
1258
1259
1260
1261
1262
1263
1264
1267
1268
1269
1270
1271
1272
1273
1274
1275
1276
1277
1278
1279
1280
1281
1282
1283
1284

VECTORS node_mesh_deformation float
0.0 7.860684296913e-02 0.0 
0.000000000000e+00 7.315910696371e-02 0.0 
0.0 0.000000000000e+00 0.0 
0.000000000000e+00 0.000000000000e+00 0.0 
0.0 7.876749357176e-02 0.0 
0.0 7.841967756758e-02 0.0 
0.0 7.758210993895e-02 0.0 
0.0 7.626158047367e-02 0.0 
0.0 7.444790873067e-02 0.0 
0.0 7.218657109673e-02 0.0 
0.0 6.950124348904e-02 0.0 
0.0 6.640646217498e-02 0.0 
0.0 6.292098110141e-02 0.0 
0.0 5.905433638388e-02 0.0 
0.0 5.480694715400e-02 0.0 
0.0 5.018553107906e-02 0.0 
0.0 4.519882214996e-02 0.0 
0.0 3.985990334507e-02 0.0 
0.0 3.414101414390e-02 0.0 
0.0 2.804943152423e-02 0.0 
0.0 2.158740988326e-02 0.0 
0.0 1.475309956575e-02 0.0 
0.0 7.552464651759e-03 0.0 
0.000000000000e+00 0.000000000000e+00 0.0 
0.000000000000e+00 0.000000000000e+00 0.0 
0.000000000000e+00 0.000000000000e+00 0.0 
0.000000000000e+00 0.000000000000e+00 0.0 
0.000000000000e+00 0.000000000000e+00 0.0 
0.000000000000e+00 0.000000000000e+00 0.0 
0.000000000000e+00 0.000000000000e+00 0.0 
0.000000000000e+00 0.000000000000e+00 0.0 
0.000000000000e+00 0.000000000000e+00 0.0 
0.000000000000e+00 0.000000000000e+00 0.0 
0.000000000000e+00 0.000000000000e+00 0.0 
0.000000000000e+00 0.000000000000e+00 0.0 
0.000000000000e+00 0.000000000000e+00 0.0 
0.000000000000e+00 0.000000000000e+00 0.0 
0.000000000000e+00 0.000000000000e+00 0.0 
0.000000000000e+00 0.000000000000e+00 0.0 
0.000000000000e+00 0.000000000000e+00 0.0 
0.000000000000e+00 0.000000000000e+00 0.0 
0.000000000000e+00 0.000000000000e+00 0.0 
0.000000000000e+00 0.000000000000e+00 0.0 
0.000000000000e+00 0.000000000000e+00 0.0 
0.000000000000e+00 0.000000000000e+00 0.0 
0.000000000000e+00 0.000000000000e+00 0.0 
0.000000000000e+00 0.000000000000e+00 0.0 
0.000000000000e+00 0.000000000000e+00 0.0 
0.000000000000e+00 0.000000000000e+00 0.0 
0.000000000000e+00 0.000000000000e+00 0.0 
0.000000000000e+00 0.000000000000e+00 0.0 
0.000000000000e+00 0.000000000000e+00 0.0 
0.000000000000e+00 0.000000000000e+00 0.0 
0.000000000000e+00 0.000000000000e+00 0.0 
0.000000000000e+00 0.000000000000e+00 0.0 
0.000000000000e+00 0.000000000000e+00 0.0 
0.000000000000e+00 0.000000000000e+00 0.0 
0.000000000000e+00 0.000000000000e+00 0.0 
0.000000000000e+00 0.000000000000e+00 0.0 
0.000000000000e+00 0.000000000000e+00 0.0 
0.000000000000e+00 0.000000000000e+00 0.0 
0.000000000000e+00 0.000000000000e+00 0.0 
0.000000000000e+00 0.000000000000e+00 0.0 
0.000000000000e+00 0.000000000000e+00 0.0 
0.000000000000e+00 0.000000000000e+00 0.0 
0.000000000000e+00 0.000000000000e+00 0.0 
0.000000000000e+00 0.000000000000e+00 0.0 
0.000000000000e+00 0.000000000000e+00 0.0 
0.000000000000e+00 0.000000000000e+00 0.0 
0.000000000000e+00 0.000000000000e+00 0.0 
0.000000000000e+00 0.000000000000e+00 0.0 
0.000000000000e+00 0.000000000000e+00 0.0 
0.000000000000e+00 6.767803581040e-02 0.0 
0.000000000000e+00 6.177590177618e-02 0.0 
0.000000000000e+00 5.545151905441e-02 0.0 
0.000000000000e+00 4.872152843300e-02 0.0 
0.000000000000e+00 4.158062750127e-02 0.0 
0.000000000000e+00 3.404228453161e-02 0.0 
0.000000000000e+00 2.610962954480e-02 0.0 
0.000000000000e+00 1.778740015688e-02 0.0 
0.000000000000e+00 9.083239273711e-03 0.0 
-7.652399011619e-03 3.571435890114e-02 0.0 
6.178295279710e-03 7.083487830674e-02 0.0 
-2.047086562282e-03 5.577757017649e-02 0.0 
2.646312665597e-03 6.748681974867e-02 0.0 
5.388127261906e-03 7.461608451803e-02 0.0 
6.670891269867e-03 7.872716752019e-02 0.0 
7.317383064844e-03 8.068068491143e-02 0.0 
7.572085712333e-03 8.100276883160e-02 0.0 
7.530006380279e-03 7.999649314068e-02 0.0 
7.255137681327e-03 7.786932535838e-02 0.0 
6.790135959818e-03 7.477217170549e-02 0.0 
0.000000000000e+00 1.028811212727e-01 0.0 
0.000000000000e+00 1.012959849456e-01 0.0 
0.000000000000e+00 9.932553944432e-02 0.0 
0.000000000000e+00 9.689288782505e-02 0.0 
0.000000000000e+00 9.405374978905e-02 0.0 
0.000000000000e+00 9.073692758785e-02 0.0 
0.000000000000e+00 8.701307542766e-02 0.0 
0.000000000000e+00 8.281467944777e-02 0.0 
0.000000000000e+00 7.821621622826e-02 0.0 
3.481304115240e-04 7.315764295392e-02 0.0 
6.847109166728e-04 7.315127790009e-02 0.0 
1.031600148337e-03 7.313797451256e-02 0.0 
1.385282411263e-03 7.310970707093e-02 0.0 
1.744646184605e-03 7.308003987104e-02 0.0 
2.113894390050e-03 7.302338457235e-02 0.0 
2.497403046718e-03 7.295523273094e-02 0.0 
2.887673920107e-03 7.285592399656e-02 0.0 
3.303225975536e-03 7.273845765695e-02 0.0 
3.736736873591e-03 7.257113734303e-02 0.0 
4.185836159117e-03 7.235870813606e-02 0.0 
4.654949018565e-03 7.209480312087e-02 0.0 
5.141881621967e-03 7.176080334154e-02 0.0 
5.648380939547e-03 7.134165805882e-02 0.0 
-5.438218095584e-03 2.433187414708e-02 0.0 
-2.066316721290e-03 1.922389725060e-02 0.0 
1.578515805448e-03 1.823549121821e-02 0.0 
5.449319523194e-03 2.155783069639e-02 0.0 
8.007735095712e-03 3.139939763054e-02 0.0 
9.113764364221e-03 4.268789889613e-02 0.0 
9.239075953563e-03 5.037924736781e-02 0.0 
8.896419063721e-03 5.639343104480e-02 0.0 
8.053954897324e-03 6.122000790424e-02 0.0 
7.252220216973e-03 6.509402645798e-02 0.0 
6.507471548488e-03 6.824565953529e-02 0.0 
5.734639152839e-03 7.075088204681e-02 0.0 
5.035223559127e-03 7.281264917336e-02 0.0 
4.243430737102e-03 7.448374369163e-02 0.0 
3.491718719500e-03 7.582082734026e-02 0.0 
2.793008570191e-03 7.684970582500e-02 0.0 
2.117030517486e-03 7.763909272991e-02 0.0 
1.447293630364e-03 7.820925725868e-02 0.0 
7.312998799855e-04 7.852146686128e-02 0.0 
2.115165296033e-04 1.028337371622e-01 0.0 
3.864188421048e-04 1.028152596286e-01 0.0 
5.203091920762e-04 1.028079793954e-01 0.0 
6.554099500420e-04 1.027841614475e-01 0.0 
7.852259122529e-04 1.027454806766e-01 0.0 
9.040060701935e-04 1.026893413219e-01 0.0 
1.007472440648e-03 1.026115205771e-01 0.0 
1.092100377129e-03 1.025066342855e-01 0.0 
1.154749837092e-03 1.023681378010e-01 0.0 
1.192502184608e-03 1.021882379849e-01 0.0 
1.202599422129e-03 1.019577710608e-01 0.0 
1.182438433936e-03 1.016660516345e-01 0.0 
1.129604900598e-03 1.013006848576e-01 0.0 
1.041951227684e-03 1.008473470649e-01 0.0 
9.177221725025e-04 1.002894961921e-01 0.0 
7.557261935531e-04 9.960803969507e-02 0.0 
5.555726326207e-04 9.878077255616e-02 0.0 
3.172147058734e-04 9.778194678719e-02 0.0 
4.244350269289e-05 9.658128940867e-02 0.0 
-2.634716236329e-04 9.514359209747e-02 0.0 
-6.000701644595e-04 9.342571569670e-02 0.0 
-9.715650815387e-04 9.137427455388e-02 0.0 
-1.430814072801e-03 8.890997237317e-02 0.0 
-1.932397653526e-03 8.593668364042e-02 0.0 
-2.582744679085e-03 8.229027226841e-02 0.0 
-3.022535098758e-03 7.775314001205e-02 0.0 
-3.122967821444e-03 7.214505745989e-02 0.0 
-3.242429832284e-03 6.516850299250e-02 0.0 
1.959288016842e-03 7.387579330434e-02 0.0 
1.577878439328e-03 7.902257600496e-02 0.0 
1.348242846319e-03 8.314330076037e-02 0.0 
1.264069999905e-03 8.642229611334e-02 0.0 
1.261335901571e-03 8.912197816417e-02 0.0 
1.297092853182e-03 9.134608597450e-02 0.0 
1.352910538301e-03 9.320291128944e-02 0.0 
1.417803210970e-03 9.475052198637e-02 0.0 
1.483993203053e-03 9.603720425089e-02 0.0 
1.543856741343e-03 9.710211474022e-02 0.0 
1.591649423112e-03 9.797939831969e-02 0.0 
1.623207486396e-03 9.869812804235e-02 0.0 
1.635901770960e-03 9.928292658472e-02 0.0 
1.628204197708e-03 9.975505434637e-02 0.0 
1.599548050812e-03 1.001328209506e-01 0.0 
1.550088640307e-03 1.004320192429e-01 0.0 
1.480540313025e-03 1.006662642438e-01 0.0 
1.392043647066e-03 1.008472600912e-01 0.0 
1.286075505753e-03 1.009850207679e-01 0.0 
1.164382044749e-03 1.010880573300e-01 0.0 
1.028929955844e-03 1.011635311836e-01 0.0 
8.818549385694e-04 1.012173737674e-01 0.0 
7.253588503815e-04 1.012543513526e-01 0.0 
5.614468236104e-04 1.012780564968e-01 0.0 
3.913813714718e-04 1.012919931959e-01 0.0 
2.161125342681e-04 1.013212497317e-01 0.0 
4.660270077494e-03 7.913960036710e-02 0.0 
4.114610027525e-03 8.278302705571e-02 0.0 
3.701906814392e-03 8.574569410236e-02 0.0 
3.387683455788e-03 8.820180118529e-02 0.0 
3.149897769514e-03 9.023683742651e-02 0.0 
2.965442719173e-03 9.193900218291e-02 0.0 
2.818631682310e-03 9.335703708897e-02 0.0 
2.696047267975e-03 9.453651445136e-02 0.0 
2.587367456336e-03 9.551233653017e-02 0.0 
2.485322824263e-03 9.631595464049e-02 0.0 
2.384263576239e-03 9.697351184675e-02 0.0 
2.280194660386e-03 9.750777157662e-02 0.0 
2.170247890241e-03 9.793823753343e-02 0.0 
2.052521956095e-03 9.828182909975e-02 0.0 
1.925876344380e-03 9.855315140341e-02 0.0 
1.789790474604e-03 9.876483725865e-02 0.0 
1.644214365172e-03 9.892774546418e-02 0.0 
1.489461689310e-03 9.905116885305e-02 0.0 
1.326120183201e-03 9.914300414051e-02 0.0 
1.154965086002e-03 9.920988048614e-02 0.0 
9.768511737249e-04 9.925723936153e-02 0.0 
7.925794241928e-04 9.928935628585e-02 0.0 
6.027755222249e-04 9.930931097428e-02 0.0 
4.077252069123e-04 9.931828385280e-02 0.0 
2.052157287693e-04 9.929735128849e-02 0.0 
2.278711894590e-04 9.692382228746e-02 0.0 
4.558011896378e-04 9.690297973955e-02 0.0 
6.811180799389e-04 9.689266508810e-02 0.0 
9.036190067064e-04 9.687338500821e-02 0.0 
1.123187121884e-03 9.684164815420e-02 0.0 
1.339746832997e-03 9.679393030443e-02 0.0 
1.553226612131e-03 9.672560369798e-02 0.0 
1.763596994067e-03 9.663077418917e-02 0.0 
1.970977868865e-03 9.650220230177e-02 0.0 
2.175728638370e-03 9.633122031688e-02 0.0 
2.378542406156e-03 9.610758187950e-02 0.0 
2.580535275193e-03 9.581926948264e-02 0.0 
2.783358591522e-03 9.545223073460e-02 0.0 
2.989454246752e-03 9.499019053431e-02 0.0 
3.202051003484e-03 9.441426603760e-02 0.0 
3.425610746447e-03 9.370270985459e-02 0.0 
3.665397060175e-03 9.282984727338e-02 0.0 
3.929151168201e-03 9.176663414842e-02 0.0 
4.224527563007e-03 9.047700233695e-02 0.0 
4.565158414817e-03 8.892227108934e-02 0.0 
4.960725417529e-03 8.704511651952e-02 0.0 
5.438994938526e-03 8.479575874932e-02 0.0 
5.985430936608e-03 8.206971901922e-02 0.0 
6.704150492695e-03 8.309799235251e-02 0.0 
6.177678763276e-03 8.512267471923e-02 0.0 
5.687131446084e-03 8.679702920705e-02 0.0 
5.251484993778e-03 8.820418416175e-02 0.0 
4.854820469070e-03 8.936827679468e-02 0.0 
4.493487449878e-03 9.033414931830e-02 0.0 
4.159079006271e-03 9.112682893223e-02 0.0 
3.846934444930e-03 9.177492119730e-02 0.0 
3.551999472435e-03 9.229969016813e-02 0.0 
3.270465146713e-03 9.272117976311e-02 0.0 
2.999028619911e-03 9.305609952223e-02 0.0 
2.735304176660e-03 9.331941336632e-02 0.0 
2.477363215888e-03 9.352379995677e-02 0.0 
2.223642726356e-03 9.368014576036e-02 0.0 
1.972923119538e-03 9.379776823953e-02 0.0 
1.724271451394e-03 9.388454577438e-02 0.0 
1.477012118819e-03 9.394707229366e-02 0.0 
1.230567628745e-03 9.399064218513e-02 0.0 
9.844503406953e-04 9.401943872069e-02 0.0 
7.382961410585e-04 9.403667318868e-02 0.0 
4.919684086246e-04 9.404381038808e-02 0.0 
2.458903527867e-04 9.402281658491e-02 0.0 
2.754922157422e-04 9.076656991378e-02 0.0 
5.516587870531e-04 9.074375626110e-02 0.0 
8.290929573320e-04 9.073328622534e-02 0.0 
1.108387612518e-03 9.071453347043e-02 0.0 
1.390288706069e-03 9.068359285373e-02 0.0 
1.675675323810e-03 9.063681645028e-02 0.0 
1.965589077749e-03 9.056961495965e-02 0.0 
2.261044195087e-03 9.047629765879e-02 0.0 
2.563229254747e-03 9.034952692459e-02 0.0 
2.873677371369e-03 9.018060811499e-02 0.0 
3.194249563272e-03 8.995924955300e-02 0.0 
3.526971757864e-03 8.967357269085e-02 0.0 
3.874067393170e-03 8.930973036852e-02 0.0 
4.237976029572e-03 8.885076938348e-02 0.0 
4.622907627471e-03 8.827849303563e-02 0.0 
5.031581943264e-03 8.757051257737e-02 0.0 
5.470462438296e-03 8.670531932391e-02 0.0 
5.938812966370e-03 8.564792155745e-02 0.0 
6.449852504510e-03 8.438069209764e-02 0.0 
6.982485927317e-03 8.284090209470e-02 0.0 
6.976411654723e-03 8.132847998461e-02 0.0 
6.461086388512e-03 8.245502486307e-02 0.0 
5.953963443275e-03 8.337480891979e-02 0.0 
5.479584681765e-03 8.414646046909e-02 0.0 
5.029069326284e-03 8.477364866683e-02 0.0 
4.603702638832e-03 8.528578493965e-02 0.0 
4.198341584058e-03 8.569557796317e-02 0.0 
3.811725010458e-03 8.602261300372e-02 0.0 
3.441826793868e-03 8.628072127120e-02 0.0 
3.086904984329e-03 8.648170407942e-02 0.0 
2.745006364492e-03 8.663572003662e-02 0.0 
2.413911919405e-03 8.675183492572e-02 0.0 
2.092383022884e-03 8.683808709574e-02 0.0 
1.779153721216e-03 8.690099213048e-02 0.0 
1.472838328603e-03 8.694519643807e-02 0.0 
1.172050524332e-03 8.697481085340e-02 0.0 
8.756925161251e-04 8.699302280534e-02 0.0 
5.823719290490e-04 8.700132681787e-02 0.0 
2.908926451042e-04 8.698186192491e-02 0.0 
3.178923882743e-04 8.284221892761e-02 0.0 
6.366421077360e-04 8.281904146123e-02 0.0 
9.574739206784e-04 8.280760256860e-02 0.0 
1.283404547230e-03 8.278647639866e-02 0.0 
1.615172447316e-03 8.275336938148e-02 0.0 
1.955222377227e-03 8.270401567054e-02 0.0 
2.304727478098e-03 8.263450427924e-02 0.0 
2.666433979726e-03 8.253973436605e-02 0.0 
3.040194134087e-03 8.241361801706e-02 0.0 
3.428941561985e-03 8.224511887358e-02 0.0 
3.835174290494e-03 8.202532107394e-02 0.0 
4.259853176585e-03 8.174421521742e-02 0.0 
4.704890994503e-03 8.138842603432e-02 0.0 
5.172397357676e-03 8.094426518448e-02 0.0 
5.659431068203e-03 8.038458512520e-02 0.0 
6.177704175059e-03 7.970668821328e-02 0.0 
6.701912427644e-03 7.886675003716e-02 0.0 
6.266953202903e-03 7.547315211027e-02 0.0 
5.767744575714e-03 7.607336870812e-02 0.0 
5.269275208292e-03 7.654069535790e-02 0.0 
4.795760899505e-03 7.692694086779e-02 0.0 
4.343252951855e-03 7.723679468874e-02 0.0 
3.909404364215e-03 7.748300652802e-02 0.0 
3.494173858392e-03 7.767887140701e-02 0.0 
3.096913261423e-03 7.782913992097e-02 0.0 
2.713360202165e-03 7.793987562129e-02 0.0 
2.345505659818e-03 7.802884414735e-02 0.0 
1.988380509474e-03 7.809246326528e-02 0.0 
1.643098531602e-03 7.814018343729e-02 0.0 
1.304412377849e-03 7.817054588110e-02 0.0 
9.738472613492e-04 7.819241518668e-02 0.0 
6.487779876210e-04 7.820057011686e-02 0.0 
3.218892144190e-04 7.817982935952e-02 0.0 
-4.418183032296e-03 4.729790125646e-02 0.0 
5.925267604923e-04 6.227618849855e-02 0.0 
4.253741342062e-03 7.146243588789e-02 0.0 
6.171867530455e-03 7.699497543025e-02 0.0 
7.072484953252e-03 7.993279075905e-02 0.0 
7.493846656203e-03 8.101473765617e-02 0.0 
7.590649082236e-03 8.064790261310e-02 0.0 
7.425014062115e-03 7.906251860404e-02 0.0 
7.050672864956e-03 7.643362059873e-02 0.0 
6.506052963857e-03 7.290161944762e-02 0.0 
5.224454105960e-03 6.123554686878e-02 0.0 
5.319317452468e-04 5.955153052344e-03 0.0 
4.394943663950e-03 6.331689209863e-02 0.0 
1.687230299082e-03 2.821445120019e-02 0.0 
-2.432168723026e-04 6.073330593420e-03 0.0 
8.068431176355e-03 7.491626865483e-02 0.0 
-4.317320775283e-04 5.683219943701e-02 0.0 
1.253747099437e-03 6.188185207289e-03 0.0 
8.482748745216e-03 7.789653477799e-02 0.0 
1.627098779245e-03 6.433028428603e-03 0.0 
7.920778886675e-03 7.519179321600e-02 0.0 
-4.078146613749e-04 5.817235533094e-03 0.0 
3.189127338353e-03 7.397715916279e-02 0.0 
1.649518744760e-03 6.986236967432e-03 0.0 
6.665783609776e-03 6.822208787009e-02 0.0 
-3.227809286296e-04 7.072920526807e-02 0.0 
-3.933700114319e-04 4.361739128294e-02 0.0 
1.517157304814e-03 7.588221556354e-03 0.0 
1.080979703858e-03 7.505026516089e-03 0.0 
3.453966039828e-04 7.770830973552e-03 0.0 
6.130879959869e-04 8.391724994237e-03 0.0 
7.934559435370e-04 7.448863790799e-03 0.0 
5.434424381498e-03 6.679060138305e-02 0.0 
3.558913692586e-03 6.773651407246e-02 0.0 
2.330243045130e-03 6.793460737977e-02 0.0 
2.353638468904e-04 4.509334142351e-02 0.0 
-3.548437001015e-04 6.466843593156e-03 0.0 
-2.754687927684e-04 2.483356521026e-02 0.0 
1.768740222032e-03 7.738457687694e-02 0.0 
-2.595635509044e-04 2.533918443754e-02 0.0 
1.192062267513e-03 6.843756600866e-02 0.0 
-7.456867298083e-06 7.691514078905e-02 0.0 
1.460235709594e-03 8.529077664296e-03 0.0 
1.381712372346e-03 5.805619102361e-03 0.0 
1.660560166155e-03 6.619312411264e-03 0.0 
9.884812832439e-04 6.398842986378e-03 0.0 
1.524484183815e-04 5.667212484017e-03 0.0 
3.439132375361e-03 4.663875827554e-02 0.0 
4.460330774613e-03 6.766525685047e-02 0.0 
-4.533630837180e-04 7.070910741458e-03 0.0 
1.737405051685e-04 3.046493249727e-02 0.0 
3.960575271453e-03 6.964337795121e-02 0.0 
-4.176744825010e-04 6.463582619060e-02 0.0 
1.707999569476e-04 6.338116681999e-03 0.0 
8.475028473573e-03 7.706956191939e-02 0.0 
7.221027972101e-03 6.994730757199e-02 0.0 
8.304081512190e-03 7.715509921443e-02 0.0 
7.363890457619e-03 7.217037244400e-02 0.0 
1.221190405630e-03 4.710124478281e-02 0.0 
2.816188964374e-04 5.791049883059e-02 0.0 
-1.727413401227e-04 5.174343349452e-03 0.0 
8.111673441515e-04 7.852403507017e-02 0.0 
9.478378225225e-05 1.414294022400e-02 0.0 
6.346213316966e-03 6.582444917908e-02 0.0 
6.702883512816e-03 6.313629876797e-02 0.0 
6.171812341250e-03 6.101481418421e-02 0.0 
6.579935239714e-03 5.774586171407e-02 0.0 
6.052840622417e-03 5.490324599053e-02 0.0 
6.335405642538e-03 5.185101799153e-02 0.0 
6.906396344647e-03 5.466837435880e-02 0.0 
6.563859952649e-03 4.871784796572e-02 0.0 
7.170686841569e-03 5.156135558489e-02 0.0 
5.750766301318e-03 4.875102996084e-02 0.0 
6.721989431924e-03 4.551262346551e-02 0.0 
7.359963185120e-03 4.837515577644e-02 0.0 
6.801229596956e-03 4.225959534702e-02 0.0 
7.460201616443e-03 4.512266791526e-02 0.0 
7.970075466336e-03 5.099012783961e-02 0.0 
8.087542319821e-03 4.775196970059e-02 0.0 
8.543481771881e-03 5.332397228498e-02 0.0 
8.670921792408e-03 5.008136396445e-02 0.0 
8.099524159007e-03 4.448694821915e-02 0.0 
8.681021208485e-03 4.682089347861e-02 0.0 
9.203906637381e-03 5.210213622857e-02 0.0 
9.200153497602e-03 4.883343629371e-02 0.0 
9.678211558175e-03 5.378534147413e-02 0.0 
9.646810899561e-03 5.048714652245e-02 0.0 
1.009025372376e-02 5.511723607124e-02 0.0 
1.001558221965e-02 5.178484439944e-02 0.0 
9.459629686368e-03 4.721569433595e-02 0.0 
9.768842833875e-03 4.851336395766e-02 0.0 
1.029387196106e-02 5.269914904416e-02 0.0 
9.968667105273e-03 4.943226474251e-02 0.0 
1.046894964180e-02 5.321201422289e-02 0.0 
1.004292638360e-02 4.995855846745e-02 0.0 
9.459127503764e-03 4.628840161383e-02 0.0 
9.420992149064e-03 4.688572792483e-02 0.0 
9.973162318435e-03 5.009136628481e-02 0.0 
9.218810043905e-03 4.712821208391e-02 0.0 
9.736371780804e-03 4.983210044806e-02 0.0 
8.830831749563e-03 4.703295126237e-02 0.0 
9.306817458111e-03 4.919113465492e-02 0.0 
8.228337434552e-03 4.663226204795e-02 0.0 
7.765425572032e-03 4.455774505024e-02 0.0 
7.013417466563e-03 4.447034729202e-02 0.0 
7.388887878630e-03 4.598901979265e-02 0.0 
6.035835200230e-03 4.424964838223e-02 0.0 
5.740810461702e-03 4.270207616188e-02 0.0 
4.678354563939e-03 4.294865333941e-02 0.0 
4.476346291135e-03 4.127166402518e-02 0.0 
3.383493252024e-03 4.199357004432e-02 0.0 
3.441770564763e-03 4.325040090491e-02 0.0 
2.163776564888e-03 4.282742940839e-02 0.0 
2.202441614040e-03 4.127768972292e-02 0.0 
1.045154405203e-03 4.260983177561e-02 0.0 
8.620328851325e-04 4.389586824095e-02 0.0 
-1.289128472166e-04 4.416186878584e-02 0.0 
1.104503590668e-04 4.246069558815e-02 0.0 
-9.222349499058e-04 4.443138328846e-02 0.0 
-1.254422414652e-03 4.601192972277e-02 0.0 
-1.864875564770e-03 4.664173438266e-02 0.0 
-1.519329739279e-03 4.457214336932e-02 0.0 
-2.292920456595e-03 4.709083788009e-02 0.0 
-2.661876884126e-03 4.912030135612e-02 0.0 
-2.903978341648e-03 4.977470025593e-02 0.0 
-2.559638809766e-03 4.727527915062e-02 0.0 
-3.013077851818e-03 5.014176173557e-02 0.0 
-2.696110238235e-03 4.719955466651e-02 0.0 
-3.326928388574e-03 5.267021614304e-02 0.0 
-3.286474428245e-03 5.310896920684e-02 0.0 
-3.529739685687e-03 5.569587747718e-02 0.0 
-3.368609260216e-03 5.612977533740e-02 0.0 
8.783256923618e-03 4.330120006600e-02 0.0 
-3.503799191188e-03 5.872905786864e-02 0.0 
-3.696184360225e-03 5.788141875987e-02 0.0 
-3.263198830120e-03 5.913496502046e-02 0.0 
-3.147683770764e-03 5.620309381260e-02 0.0 
-3.271572255580e-03 6.172848595605e-02 0.0 
-2.992606399557e-03 6.206295565350e-02 0.0 
-2.869255707615e-03 6.461706122741e-02 0.0 
1.019290060825e-02 5.222962801636e-02 0.0 
7.995341123728e-03 4.120786642964e-02 0.0 
-2.592476306090e-03 6.485224063581e-02 0.0 
-2.349088330218e-03 6.732403005544e-02 0.0 
-2.557196763924e-03 6.684225188291e-02 0.0 
-1.906455656656e-03 6.944457309708e-02 0.0 
5.504053166185e-03 5.191353776237e-02 0.0 
5.148702200650e-03 4.544255758910e-02 0.0 
4.943189996126e-03 4.870455310682e-02 0.0 
4.536737205555e-03 4.196662724707e-02 0.0 
4.371580983339e-03 4.526478347506e-02 0.0 
-1.772180922488e-03 6.979284736695e-02 0.0 
6.110859697955e-03 3.899241180598e-02 0.0 
4.645582557039e-03 3.855514365774e-02 0.0 
9.561712504855e-03 5.708470453708e-02 0.0 
1.068146518223e-02 5.659907254033e-02 0.0 
5.402063978735e-03 4.056881761862e-02 0.0 
-2.681434282502e-03 6.203377907050e-02 0.0 
-2.284839059144e-03 6.474043192724e-02 0.0 
-2.337181252706e-03 6.166999588207e-02 0.0 
-2.236037894836e-03 4.431117246919e-02 0.0 
-2.392415948785e-03 4.383282420108e-02 0.0 
-1.944816828024e-03 4.088468945967e-02 0.0 
-2.110091939283e-03 4.002811687501e-02 0.0 
-1.688425658523e-03 3.699323886956e-02 0.0 
-1.850071716571e-03 3.577522253151e-02 0.0 
-2.165312895318e-03 3.894257507346e-02 0.0 
-1.903329534759e-03 3.434047203128e-02 0.0 
-2.125379359473e-03 3.762158076650e-02 0.0 
-1.461773804129e-03 3.263481116525e-02 0.0 
-1.197998772415e-03 3.400806332408e-02 0.0 
-1.863194485221e-03 3.269031494698e-02 0.0 
-2.004931718805e-03 3.606452027556e-02 0.0 
-1.744837698730e-03 3.082262426603e-02 0.0 
-1.818910014846e-03 3.427947861695e-02 0.0 
-2.060607903958e-03 3.941373134009e-02 0.0 
-1.810422758950e-03 3.769242054833e-02 0.0 
-2.025257668389e-03 4.271403474510e-02 0.0 
4.221035174208e-03 3.899276170503e-02 0.0 
5.014431876351e-03 3.786239654015e-02 0.0 
3.909339022549e-03 3.613286285007e-02 0.0 
4.568498240744e-03 3.459897591216e-02 0.0 
3.538209571186e-03 3.270754846420e-02 0.0 
4.060936278378e-03 3.079277141642e-02 0.0 
3.106885769444e-03 2.872907133776e-02 0.0 
2.577404519595e-03 3.091269360108e-02 0.0 
6.795950479173e-03 3.893084272218e-02 0.0 
6.287978111569e-03 4.519100465094e-02 0.0 
7.722608295381e-03 4.694565985082e-02 0.0 
6.501167428173e-03 4.550094736010e-02 0.0 
8.009880834717e-03 4.732492043242e-02 0.0 
6.671728535583e-03 4.514089143019e-02 0.0 
8.248958524938e-03 4.712106361971e-02 0.0 
6.805554327901e-03 4.407358347197e-02 0.0 
4.989446924487e-03 4.297937855200e-02 0.0 
4.947599294223e-03 4.103124010089e-02 0.0 
2.986686454715e-03 4.115645232981e-02 0.0 
2.730616895469e-03 3.845873241539e-02 0.0 
7.953619246344e-04 4.004631836051e-02 0.0 
9.116658356554e-03 4.400723154554e-02 0.0 
5.061645334671e-03 3.295123389817e-02 0.0 
4.420148383410e-03 2.874558543454e-02 0.0 
5.375506272660e-03 3.113508859386e-02 0.0 
-1.996294731778e-03 6.873579478589e-02 0.0 
-1.582629604122e-03 3.227477998960e-02 0.0 
-1.025073985396e-03 2.951920124232e-02 0.0 
-6.729725406807e-04 3.110950319727e-02 0.0 
2.228555811083e-03 2.671945163225e-02 0.0 
-1.244500061807e-03 7.175423378576e-02 0.0 
8.424736223368e-03 4.634570718185e-02 0.0 
9.533567270932e-03 5.006536577833e-02 0.0 
3.927132817395e-03 3.825772169971e-02 0.0 
3.804324684630e-03 4.162500646404e-02 0.0 
-5.695175441662e-04 2.642899154363e-02 0.0 
-1.198643731953e-03 7.198712018281e-02 0.0 
-1.646269859691e-03 2.930446637934e-02 0.0 
4.821259110489e-03 3.815388270317e-02 0.0 
-1.521890159824e-03 3.574976854518e-02 0.0 
-1.311590712027e-03 3.006829081871e-02 0.0 
-2.387699914058e-03 4.211340049953e-02 0.0 
4.603913642640e-03 2.651991206632e-02 0.0 
5.518975180543e-03 2.918036563372e-02 0.0 
1.236359477041e-03 4.223668761701e-02 0.0 
-7.504233975446e-04 4.237017834681e-02 0.0 
-1.358834952011e-03 4.002917646695e-02 0.0 
-2.511044802430e-03 4.371220684083e-02 0.0 
-1.883891888820e-03 4.502780833555e-02 0.0 
-3.229093446549e-03 4.703858739887e-02 0.0 
-3.696510524309e-03 4.604397797760e-02 0.0 
-4.038895084989e-03 4.991755244950e-02 0.0 
-3.642998979469e-03 5.011710578968e-02 0.0 
-4.107193774605e-03 5.324835879070e-02 0.0 
-4.117685220494e-03 5.346872590994e-02 0.0 
-3.993085743291e-03 5.677973890532e-02 0.0 
-1.337516698563e-03 2.645296649301e-02 0.0 
2.396925929169e-03 3.484219706514e-02 0.0 
8.310238243979e-03 5.651240253424e-02 0.0 
-8.713401975431e-04 2.453831876415e-02 0.0 
2.626050508919e-03 2.426810219652e-02 0.0 
3.329280999786e-03 3.435791951396e-02 0.0 
3.248063286506e-03 3.779927411431e-02 0.0 
3.634288065612e-03 4.495209174344e-02 0.0 
3.116381734522e-03 4.118119632590e-02 0.0 
2.710183995688e-03 3.379105506006e-02 0.0 
2.616764392123e-03 3.725038222676e-02 0.0 
2.941987014346e-03 4.450221527676e-02 0.0 
2.478121224669e-03 4.064114139482e-02 0.0 
2.731973834081e-03 4.774436342861e-02 0.0 
2.301545014745e-03 4.395392297559e-02 0.0 
2.037410178978e-03 3.662344259962e-02 0.0 
1.892180518134e-03 4.001970992040e-02 0.0 
2.093622315563e-03 4.719024894087e-02 0.0 
1.711906441805e-03 4.333765668988e-02 0.0 
1.859140807973e-03 5.034020238706e-02 0.0 
1.502015764061e-03 4.657149959701e-02 0.0 
1.355651848598e-03 3.934737658866e-02 0.0 
-6.659531991806e-04 7.366371386748e-02 0.0 
1.713086178027e-03 2.916646373890e-02 0.0 
1.449136121829e-03 2.471929144274e-02 0.0 
-1.957486802299e-03 6.427275404568e-02 0.0 
-1.974426949767e-03 6.096153467373e-02 0.0 
-2.304028677820e-03 5.823102453568e-02 0.0 
-1.920076751429e-03 5.731877422565e-02 0.0 
1.166215353280e-03 4.270280174130e-02 0.0 
1.026390543842e-03 3.522985721216e-02 0.0 
9.600347980751e-03 4.983878716761e-02 0.0 
1.034383121100e-02 5.393160165239e-02 0.0 
3.351623345338e-03 3.085784524917e-02 0.0 
-1.209004032566e-03 3.360238359437e-02 0.0 
-1.382390573796e-03 3.914111699478e-02 0.0 
1.083927728903e-02 5.669491114797e-02 0.0 
1.091056812475e-02 6.021509551631e-02 0.0 
1.105544325553e-02 5.991671786223e-02 0.0 
1.095387089082e-02 6.364498674207e-02 0.0 
1.074859861970e-02 6.379418824075e-02 0.0 
1.108065104469e-02 6.295948714150e-02 0.0 
-8.090823245421e-04 3.527998583494e-02 0.0 
1.626289260869e-03 3.246177484661e-02 0.0 
-2.738923025864e-03 6.596797370779e-02 0.0 
-2.038588073633e-03 6.764553917478e-02 0.0 
-1.021443762610e-03 2.767740118312e-02 0.0 
1.923287387701e-03 3.305459411324e-02 0.0 
8.765039315048e-03 4.231877075534e-02 0.0 
8.336875515315e-03 3.913696110527e-02 0.0 
7.929174368535e-03 3.705402081984e-02 0.0 
7.425512916665e-03 3.388626066843e-02 0.0 
6.946894335258e-03 3.140760725232e-02 0.0 
6.373778010662e-03 2.823805056696e-02 0.0 
6.809753334714e-03 3.079298011294e-02 0.0 
4.601893629264e-03 2.405263126208e-02 0.0 
5.706185474882e-03 2.511653078399e-02 0.0 
1.289077488181e-03 4.977835195353e-02 0.0 
6.073390521919e-03 3.528242350900e-02 0.0 
-3.836327945654e-03 5.274950152569e-02 0.0 
-5.437311987837e-04 7.320379667281e-02 0.0 
-3.364949553269e-03 5.743326256848e-02 0.0 
-6.907749850202e-04 7.385463340432e-02 0.0 
-1.082816038809e-03 7.189844191232e-02 0.0 
-4.846559191289e-04 2.126421661944e-02 0.0 
5.805687567864e-03 2.536443010391e-02 0.0 
6.354319315914e-03 2.861523641528e-02 0.0 
1.059509908093e-02 6.738455346470e-02 0.0 
1.037411374661e-02 6.734699514507e-02 0.0 
3.740937941345e-03 2.139326968321e-02 0.0 
4.690508345469e-03 5.195130344681e-02 0.0 
3.177201807397e-03 5.138486217560e-02 0.0 
2.906319070092e-03 5.446507482678e-02 0.0 
-1.336503417932e-04 7.537721335723e-02 0.0 
-3.360913133983e-03 5.352663152037e-02 0.0 
2.199620900491e-03 2.962262041381e-02 0.0 
1.028765546290e-02 5.327693941221e-02 0.0 
1.079341370368e-02 5.727162196667e-02 0.0 
4.313070765878e-03 3.465624208451e-02 0.0 
2.017173098203e-03 3.077584250802e-02 0.0 
8.656577375490e-04 3.859201791083e-02 0.0 
7.402253262114e-04 3.097521808032e-02 0.0 
-2.205788095796e-03 5.444373283308e-02 0.0 
-1.819603715795e-03 5.328037869972e-02 0.0 
-1.229991947156e-04 2.332485330030e-02 0.0 
-3.292707745700e-03 6.044278944710e-02 0.0 
8.475933339298e-04 2.738266349919e-02 0.0 
1.095822526771e-03 3.157468260149e-02 0.0 
1.173083722772e-03 3.520063077737e-02 0.0 
-1.561269947281e-03 6.005377745572e-02 0.0 
1.011887452741e-02 5.437994448919e-02 0.0 
9.262178994046e-03 4.935049240856e-02 0.0 
-3.171279255580e-03 4.991975176361e-02 0.0 
-3.793287759853e-03 5.936747270679e-02 0.0 
-6.393200792858e-04 7.369380441715e-02 0.0 
-1.272706347368e-04 1.795970220409e-02 0.0 
2.201509265227e-03 2.602463827485e-02 0.0 
6.104682291777e-03 2.778360395561e-02 0.0 
7.111195741206e-03 3.305606843052e-02 0.0 
4.968873456001e-03 2.207407472953e-02 0.0 
-2.084129617575e-03 6.132442937790e-02 0.0 
-7.187292057687e-04 1.905657818800e-02 0.0 
-8.858733672046e-04 3.127013720182e-02 0.0 
5.175732693939e-03 2.248747986031e-02 0.0 
5.658086635030e-03 2.552224951522e-02 0.0 
1.075938100356e-02 5.588990735455e-02 0.0 
1.103481427912e-02 5.989351432942e-02 0.0 
1.077823568735e-02 6.174489886879e-02 0.0 
1.086443809888e-02 6.415792071681e-02 0.0 
7.455206387789e-03 5.728345734774e-02 0.0 
1.101466168961e-02 5.788928978613e-02 0.0 
8.829008094562e-03 5.856517194611e-02 0.0 
8.485638034180e-03 6.169265025280e-02 0.0 
8.941495104533e-03 6.347844368031e-02 0.0 
1.047787363538e-02 6.353286566240e-02 0.0 
1.008877317786e-02 6.693704520288e-02 0.0 
9.021318998890e-03 4.932634479141e-02 0.0 
6.148137141153e-03 3.979403615560e-02 0.0 
-2.559020854770e-03 5.532745962973e-02 0.0 
-2.292358035644e-03 4.412785596159e-02 0.0 
-1.653933524574e-03 4.152229816266e-02 0.0 
1.699095978857e-03 2.891108547734e-02 0.0 
1.294581936499e-03 2.451972069391e-02 0.0 
2.233718346098e-03 5.396965049170e-02 0.0 
1.955254223198e-03 5.694587774427e-02 0.0 
-1.124079646403e-03 7.027985071264e-02 0.0 
-9.500736761403e-04 6.896233605073e-02 0.0 
-2.721685907254e-03 4.684418512992e-02 0.0 
-1.051807246698e-03 2.249257024377e-02 0.0 
2.731072517129e-03 2.670848747985e-02 0.0 
2.641253461455e-03 2.307357123079e-02 0.0 
3.305584110947e-03 2.729256983761e-02 0.0 
2.794033747389e-04 2.018761544410e-02 0.0 
4.938919498532e-03 4.438773838424e-02 0.0 
3.103687474383e-03 3.762032887083e-02 0.0 
2.400863813463e-04 3.301533202158e-02 0.0 
8.778204275874e-03 4.226913835890e-02 0.0 
1.087816224317e-04 7.142749677421e-02 0.0 
7.366695998556e-03 3.858727467861e-02 0.0 
-7.288952798832e-04 2.511767068500e-02 0.0 
-8.150199646018e-04 2.136199318326e-02 0.0 
3.604517513772e-03 1.855558740658e-02 0.0 
7.145443524088e-03 6.547935183629e-02 0.0 
8.063037838916e-03 3.932964818146e-02 0.0 
7.973133946646e-03 4.050906757583e-02 0.0 
8.496136834445e-03 6.651523290958e-02 0.0 
8.882307761080e-03 6.805168813337e-02 0.0 
9.355558987039e-03 6.495898431917e-02 0.0 
9.224547244827e-03 6.931883253543e-02 0.0 
-3.459536019125e-03 5.190321259427e-02 0.0 
-3.881035519241e-03 5.488084059627e-02 0.0 
4.446999365062e-03 1.871090413209e-02 0.0 
4.493692554185e-03 1.920960586244e-02 0.0 
4.415601141812e-03 1.921405969779e-02 0.0 
4.869146087458e-03 2.210393517341e-02 0.0 
2.788866668290e-03 1.577261140086e-02 0.0 
2.901757502450e-03 1.877442357394e-02 0.0 
-8.961180717937e-04 7.151612882233e-02 0.0 
9.829515237712e-03 7.073749660081e-02 0.0 
1.688962964955e-03 2.161151251749e-02 0.0 
8.073984179564e-03 6.473319394096e-02 0.0 
-8.366201382692e-04 1.685455616353e-02 0.0 
-1.119977903778e-03 2.029192743221e-02 0.0 
2.963863024128e-04 2.868492159284e-02 0.0 
-1.453191769116e-03 3.361173944314e-02 0.0 
5.860506125046e-04 2.308886180915e-02 0.0 
1.026845399704e-02 6.634507412095e-02 0.0 
1.030186697033e-02 6.843911820928e-02 0.0 
1.016219846227e-02 6.343310941371e-02 0.0 
-1.240851952247e-04 1.122210770073e-02 0.0 
5.145667482225e-04 6.854065229389e-02 0.0 
-5.544806306630e-04 1.858883520683e-02 0.0 
1.013177681345e-02 6.283875156482e-02 0.0 
6.232016640908e-04 1.900578458887e-02 0.0 
7.250958219142e-03 3.656868351220e-02 0.0 
1.089013565768e-02 5.638351444138e-02 0.0 
3.718977358727e-04 2.526474436200e-02 0.0 
4.767098566276e-04 2.743564902956e-02 0.0 
3.537012544683e-04 1.831679586699e-02 0.0 
3.318684383608e-03 5.777679846107e-02 0.0 
3.007981287780e-03 6.079345280200e-02 0.0 
3.630843173688e-03 5.485955392204e-02 0.0 
6.626779043874e-03 3.984262541735e-02 0.0 
5.710849621750e-03 3.719160014461e-02 0.0 
1.250121512363e-03 2.816043319633e-02 0.0 
-1.826100571001e-03 6.724433517818e-02 0.0 
-1.493965439989e-03 6.645517566237e-02 0.0 
-3.098825033067e-03 6.280415348692e-02 0.0 
-3.579374792729e-03 6.139497819850e-02 0.0 
-2.408796633788e-03 5.146042679692e-02 0.0 
-2.711155535790e-03 5.232554101586e-02 0.0 
7.144895811841e-03 3.524812375766e-02 0.0 
6.462521389068e-03 3.235289745437e-02 0.0 
8.311893591891e-03 4.030362391641e-02 0.0 
4.086442139535e-04 3.399197791661e-02 0.0 
3.639066804446e-04 3.739723771420e-02 0.0 
1.201037764945e-03 3.824603267547e-02 0.0 
1.303421117953e-03 2.108029580421e-02 0.0 
8.771856408458e-04 1.577334822771e-02 0.0 
-2.691573405032e-03 4.925565301581e-02 0.0 
-2.128583715230e-03 4.757733446192e-02 0.0 
-3.596785748258e-03 5.353310830494e-02 0.0 
1.596382615077e-03 1.802163027695e-02 0.0 
-5.919252939393e-04 1.485427781522e-02 0.0 
-8.327752909860e-04 1.776494245298e-02 0.0 
5.562621554471e-04 6.993496253899e-02 0.0 
-7.504338626081e-04 6.717070354974e-02 0.0 
9.161014458581e-03 5.477752461861e-02 0.0 
7.947730520399e-03 4.888427345534e-02 0.0 
2.510972151917e-03 1.969955157493e-02 0.0 
3.189683119430e-03 2.373438966547e-02 0.0 
1.796580095608e-03 1.493474357055e-02 0.0 
-4.856457817464e-04 7.337047903139e-02 0.0 
6.349437572482e-03 3.007727931804e-02 0.0 
2.132269848829e-04 1.487162261276e-02 0.0 
6.544419417498e-04 1.729133500588e-02 0.0 
-9.721057804057e-05 1.167767904294e-02 0.0 
4.459503039627e-03 2.155008864387e-02 0.0 
3.318154701191e-03 1.577764954827e-02 0.0 
3.674505713754e-03 1.590930829638e-02 0.0 
1.386119621515e-03 2.644005286261e-02 0.0 
2.685961988789e-04 2.177909104116e-02 0.0 
2.310999802937e-03 6.035791959196e-02 0.0 
6.894417691363e-04 2.466800990246e-02 0.0 
1.994374694839e-03 6.336437785998e-02 0.0 
1.677631266709e-03 5.987058182112e-02 0.0 
1.716813318474e-03 6.623716165969e-02 0.0 
-2.962286632238e-04 7.519383762285e-02 0.0 
3.763534831123e-03 6.203339076712e-02 0.0 
4.119680715114e-03 5.841044954018e-02 0.0 
1.515383156423e-03 6.804443213294e-02 0.0 
1.094412520288e-03 1.347918590847e-02 0.0 
1.518223131087e-03 7.199687102650e-02 0.0 
9.202664900378e-04 7.327650821582e-02 0.0 
-8.320068123311e-04 1.427539622966e-02 0.0 
-1.088465269024e-03 1.788853135594e-02 0.0 
-7.604130921415e-04 1.165247291936e-02 0.0 
-1.000626865625e-03 1.564739697346e-02 0.0 
-1.308782200101e-03 2.160234332596e-02 0.0 
-1.169277554769e-03 1.915873434375e-02 0.0 
2.695808455591e-03 6.412824057225e-02 0.0 
-7.859096903138e-04 1.200092925412e-02 0.0 
-9.758158720006e-04 1.639997145323e-02 0.0 
-5.950249143627e-04 9.349673811883e-03 0.0 
8.621604043086e-03 7.230492521123e-02 0.0 
1.083923463366e-02 6.591567539553e-02 0.0 
1.023983860019e-02 7.000244401912e-02 0.0 
9.376397212804e-03 7.284002434089e-02 0.0 
3.273068269106e-03 1.416635116860e-02 0.0 
4.090196830745e-03 1.879139796303e-02 0.0 
-5.662207376906e-04 2.864099929213e-02 0.0 
-6.537420942532e-04 3.463343662749e-02 0.0 
1.379848811766e-03 6.316067233209e-02 0.0 
1.006015213719e-03 6.344079456711e-02 0.0 
1.109552257915e-03 5.778717999000e-02 0.0 
8.000944101028e-04 5.851413991332e-02 0.0 
8.612647195534e-04 5.267378894542e-02 0.0 
5.541338945676e-04 5.344997149747e-02 0.0 
6.618206345479e-04 4.731508264971e-02 0.0 
3.066949507581e-03 1.269260838387e-02 0.0 
9.210519028546e-03 6.815204296841e-02 0.0 
7.982328005014e-03 6.947615929046e-02 0.0 
2.013738895773e-03 1.299366070729e-02 0.0 
2.198972378604e-03 1.664214485912e-02 0.0 
9.561833107565e-03 7.020377712438e-02 0.0 
9.152404755348e-03 7.405261761248e-02 0.0 
-5.246941134143e-04 1.237891850672e-02 0.0 
1.054436756299e-02 5.426112485560e-02 0.0 
8.105843128803e-04 8.670985264168e-03 0.0 
-6.764414867533e-04 3.163062046341e-02 0.0 
3.023309266958e-03 3.218597082766e-02 0.0 
1.080971247518e-02 5.565758297150e-02 0.0 
9.737271214956e-03 6.612809537069e-02 0.0 
1.074684140265e-02 6.698209031900e-02 0.0 
1.017028369705e-02 7.070978946791e-02 0.0 
4.091682966685e-04 2.998586878877e-02 0.0 
-3.601418124326e-04 6.487087583471e-02 0.0 
9.844178278566e-03 5.960435329511e-02 0.0 
9.589199848890e-04 4.659494608483e-02 0.0 
8.196843355101e-03 6.039042076673e-02 0.0 
-3.024663909698e-04 3.150287857259e-02 0.0 
9.732787117411e-03 5.098959990888e-02 0.0 
1.037299672569e-02 5.946947202531e-02 0.0 
1.056497567094e-02 5.847941661448e-02 0.0 
1.111972653293e-02 6.176083536254e-02 0.0 
7.758044087616e-03 5.418293257909e-02 0.0 
7.095690603641e-03 6.027901131393e-02 0.0 
7.581682461819e-03 6.267944457060e-02 0.0 
8.655436532880e-03 4.823194607131e-02 0.0 
1.003531652233e-02 7.092470318484e-02 0.0 
9.385318805130e-03 7.449062720308e-02 0.0 
9.079017470540e-03 5.537008096024e-02 0.0 
3.991614541789e-03 3.131514824762e-02 0.0 
3.911615287400e-03 2.775789323397e-02 0.0 
3.017262297519e-03 2.035385247251e-02 0.0 
3.754096480925e-03 2.423169863928e-02 0.0 
4.648670424416e-03 3.162870896058e-02 0.0 
4.528052814280e-03 2.812668038581e-02 0.0 
3.513380317528e-03 2.078263257575e-02 0.0 
4.318900971452e-03 2.462546328820e-02 0.0 
2.914076666976e-03 1.571582749788e-02 0.0 
3.978943582272e-03 2.096038841184e-02 0.0 
5.133096838030e-03 2.845696811687e-02 0.0 
4.874423962310e-03 2.513581383540e-02 0.0 
3.731114108099e-03 1.839372781186e-02 0.0 
5.957568842902e-03 3.240714128479e-02 0.0 
1.757344271301e-03 9.834192922174e-03 0.0 
1.044286693815e-02 5.300261109692e-02 0.0 
3.325960266753e-03 3.087097726113e-02 0.0 
5.077111338572e-03 4.003107530226e-02 0.0 
9.992192548232e-03 5.845286188212e-02 0.0 
1.436709923617e-03 7.710114570106e-03 0.0 
1.203492465379e-03 7.688961920081e-03 0.0 
9.320158843167e-03 4.991957480672e-02 0.0 
1.661101995879e-03 6.784751364513e-03 0.0 
7.979862870048e-03 5.963528524785e-02 0.0 
6.886673833172e-03 4.227194891880e-02 0.0 
1.675238423768e-03 6.605260316118e-03 0.0 
4.685710540706e-03 3.509874168932e-02 0.0 
5.381195951507e-03 3.880967258762e-02 0.0 
5.297536908984e-03 4.215928155710e-02 0.0 
9.494475793446e-04 7.239908941788e-03 0.0 
3.921349795213e-03 5.179180348879e-02 0.0 
1.283458580581e-03 5.793580456292e-03 0.0 
5.634900398878e-03 3.663911645450e-02 0.0 
6.703647046852e-03 3.891871684906e-02 0.0 
7.260553806812e-03 4.199774932135e-02 0.0 
5.310882056214e-03 3.200915723602e-02 0.0 
7.168586936821e-04 5.887467461054e-03 0.0 
1.153134919711e-03 1.113992513860e-02 0.0 
8.035356315137e-04 1.112023913067e-02 0.0 
1.413036427262e-03 1.641840328666e-02 0.0 
3.392292540738e-04 5.840979259631e-03 0.0 
1.450366133874e-03 6.794950592646e-03 0.0 
1.440795630074e-03 6.380278776852e-03 0.0 
-2.667902147026e-03 4.758442244039e-02 0.0 
-1.313740851174e-03 4.573847421972e-02 0.0 
-8.219085353538e-04 4.579043494739e-02 0.0 
2.572398935570e-04 4.455673571956e-02 0.0 
-2.005159430407e-04 4.386806891379e-02 0.0 
1.600118450529e-03 4.351400992227e-02 0.0 
1.883285235419e-03 4.397922104458e-02 0.0 
3.201845087766e-03 4.288623594545e-02 0.0 
5.343098291494e-03 2.562103985721e-02 0.0 
1.366011376192e-05 5.667504600790e-03 0.0 
-1.405171673101e-03 3.801854513214e-02 0.0 
-9.917384902813e-04 3.890335461822e-02 0.0 
-1.228377865273e-03 4.199770716530e-02 0.0 
-2.875285237162e-03 5.591898947359e-02 0.0 
-2.964584320579e-03 5.291156694431e-02 0.0 
-2.743392729577e-03 4.925612040940e-02 0.0 
-2.659055126580e-03 5.885993276268e-02 0.0 
7.780227085281e-03 3.604524358423e-02 0.0 
-1.330374341535e-04 5.754958325543e-03 0.0 
2.081211927726e-03 3.637512596500e-02 0.0 
-3.160702635238e-03 5.318509688049e-02 0.0 
4.946897553161e-03 6.725784733677e-02 0.0 
5.159674289224e-03 6.217835009273e-02 0.0 
5.630496438314e-03 6.171772980484e-02 0.0 
5.255998761520e-03 5.601593473568e-02 0.0 
4.619096385333e-03 6.181016010474e-02 0.0 
-2.064935456182e-03 5.030635502061e-02 0.0 
-1.690741407369e-03 4.889232108734e-02 0.0 
-1.409857928657e-03 5.186247130116e-02 0.0 
-1.296717846467e-03 4.723741299679e-02 0.0 
-9.898389200655e-04 5.019297727888e-02 0.0 
-1.075066756081e-03 5.457016818181e-02 0.0 
-8.864806087847e-04 4.536466160281e-02 0.0 
-5.782288412328e-04 4.885395599687e-02 0.0 
3.999772122341e-03 6.776121674616e-02 0.0 
2.184408539039e-03 3.749815804530e-02 0.0 
-8.036809996117e-04 4.239341723423e-02 0.0 
7.928308104077e-05 4.996065063582e-02 0.0 
-2.514870487262e-03 4.655745202204e-02 0.0 
-2.577761982577e-03 4.013235333682e-02 0.0 
-3.670041536113e-03 4.461653358238e-02 0.0 
-2.730662678781e-03 3.932739905661e-02 0.0 
-1.115452155398e-03 3.442003813167e-02 0.0 
4.089310069014e-03 5.346212294604e-02 0.0 
7.601275704623e-04 5.600609387485e-02 0.0 
4.362596762396e-03 5.896813148815e-02 0.0 
1.378771738393e-03 6.084568955107e-02 0.0 
-1.632414364392e-03 5.800196330633e-02 0.0 
-2.087610615444e-03 6.605290648546e-02 0.0 
-3.269188020547e-04 7.408793835360e-03 0.0 
-4.298052184860e-04 6.095155106448e-02 0.0 
-8.297104105008e-04 6.263818401644e-02 0.0 
-8.017024825271e-04 6.598331155358e-02 0.0 
-1.253043984554e-03 6.383144736703e-02 0.0 
-8.121543967561e-04 5.917876077496e-02 0.0 
-3.843708351235e-04 6.788857162819e-02 0.0 
-7.219326227017e-04 6.872028016637e-02 0.0 
1.285847124608e-03 7.805887631197e-02 0.0 
6.402734298740e-04 7.812526234751e-02 0.0 
3.280572824718e-04 7.854013476526e-02 0.0 
2.133624829788e-04 7.775860469040e-02 0.0 
3.620617064688e-04 7.732452941378e-02 0.0 
9.472533240964e-04 7.754686890829e-02 0.0 
1.241236158721e-03 7.676001101022e-02 0.0 
2.253640711056e-03 7.648295064791e-02 0.0 
1.488860447825e-03 7.575785218614e-02 0.0 
5.359603776487e-04 7.574320317822e-02 0.0 
2.724043011072e-03 7.538471712258e-02 0.0 
2.113339166314e-04 3.781449921572e-02 0.0 
4.040885052774e-04 3.404344790063e-02 0.0 
-3.467930905057e-04 6.236474840982e-03 0.0 
3.101776781776e-03 6.761323509099e-02 0.0 
4.179225601272e-03 6.684187014884e-02 0.0 
3.257081795951e-04 9.334300912851e-03 0.0 
4.817371591415e-04 7.744072847611e-03 0.0 
3.984217179465e-04 7.507388555371e-03 0.0 
-1.954152621615e-04 1.844681058816e-02 0.0 
-3.160694595112e-04 1.506690012575e-02 0.0 
1.736501681791e-04 9.078744907750e-03 0.0 
-3.116065304549e-03 6.401660482167e-02 0.0 
2.762560886460e-03 1.701534654210e-02 0.0 
9.133419708789e-04 2.370979013838e-02 0.0 
8.413814018986e-03 4.507584828251e-02 0.0 
-3.918312629214e-03 5.808381468276e-02 0.0 
-1.017705984744e-03 3.699956224035e-02 0.0 
-2.257337458433e-03 4.087822417097e-02 0.0 
-1.083890590883e-03 2.404213884682e-02 0.0 
-1.717434192853e-03 4.103770239313e-02 0.0 
-1.563974106967e-03 2.873601558480e-02 0.0 
4.629957028008e-04 1.151427145221e-02 0.0 
-2.974330159513e-04 7.534368276087e-02 0.0 
2.494012020669e-03 5.089953422382e-02 0.0 
1.619391675618e-03 5.342619714666e-02 0.0 
1.509851297627e-03 3.594442552184e-02 0.0 
-2.106524780841e-03 6.744930975521e-02 0.0 
-1.512179537230e-03 5.590305010481e-02 0.0 
-1.229639584324e-03 7.117826223858e-02 0.0 
3.052534179215e-03 1.248643094744e-02 0.0 
9.300461844411e-03 6.033662225736e-02 0.0 
-1.951911550805e-03 4.455429427924e-02 0.0 
-2.980277707112e-03 5.916853885668e-02 0.0 
-3.518750691724e-03 6.098640736991e-02 0.0 
-4.048232203248e-03 5.595705044517e-02 0.0 
1.052591126489e-02 5.331659956416e-02 0.0 
-3.009310756626e-03 5.016931215707e-02 0.0 
-1.606769869833e-03 3.107046685079e-02 0.0 
1.159253905939e-03 3.173393134742e-02 0.0 
3.340426723326e-03 7.215168340229e-02 0.0 
-1.254507820200e-03 2.780324647216e-02 0.0 
-2.437524583641e-03 4.310117206263e-02 0.0 
3.424111946288e-03 4.821749285941e-02 0.0 
3.490704654521e-03 2.645852164766e-02 0.0 
-4.061513295468e-03 4.955025976328e-02 0.0 
2.142806175620e-03 3.316634974723e-02 0.0 
2.047439702245e-03 1.916647554141e-02 0.0 
4.413772020001e-03 5.517068997084e-02 0.0 
-2.532550987890e-04 7.256030984255e-02 0.0 
2.624131512313e-03 5.754680129468e-02 0.0 
-3.965407476780e-04 1.557640806430e-02 0.0 
3.992226807625e-03 3.480681452447e-02 0.0 
-1.586712151119e-03 6.981099028483e-02 0.0 
3.276714707667e-03 4.010388114107e-02 0.0 
1.042791834984e-02 5.605518867409e-02 0.0 
7.046146137107e-03 7.029002251432e-02 0.0 
9.412409012057e-04 2.027081313224e-02 0.0 
8.633761256696e-03 4.403455334579e-02 0.0 
1.840256184707e-03 2.195826158625e-02 0.0 
2.869492039007e-03 3.454904412149e-02 0.0 
-1.357637587045e-03 6.945768593589e-02 0.0 
-1.381068235277e-03 2.382630520544e-02 0.0 
6.599589199407e-03 4.240524205557e-02 0.0 
1.726029385019e-03 2.533932615400e-02 0.0 
7.413505131556e-03 3.464433989600e-02 0.0 
4.836515188952e-03 4.399896031325e-02 0.0 
2.751109938806e-03 3.028079666719e-02 0.0 
-6.464481667834e-04 4.229260260917e-02 0.0 
3.704045167215e-03 2.402136766703e-02 0.0 
9.737256557305e-03 6.174901312875e-02 0.0 
9.054199186515e-03 4.556168996466e-02 0.0 
7.472892676038e-03 4.189712171355e-02 0.0 
9.351950547959e-03 4.532804242747e-02 0.0 
-7.265883174659e-04 4.031084758446e-02 0.0 
-1.369505352143e-03 2.591012903958e-02 0.0 
4.179741202890e-04 3.684549950423e-02 0.0 
1.110015956201e-02 5.918583255318e-02 0.0 
4.161441570403e-03 4.853899029208e-02 0.0 
5.208676813798e-03 2.237330243961e-02 0.0 
1.223403629346e-03 1.707293203328e-02 0.0 
1.068048152031e-02 6.005285162827e-02 0.0 
-1.595362047951e-03 2.734914885881e-02 0.0 
2.155706465345e-03 2.262086951720e-02 0.0 
-2.914395658367e-03 4.987428566732e-02 0.0 
-1.565702724967e-04 7.527002348669e-02 0.0 
7.878477449125e-03 4.358076051610e-02 0.0 
4.986516718731e-03 4.406807756981e-02 0.0 
8.301147385925e-03 4.443742980164e-02 0.0 
-2.652292493739e-03 4.618896082284e-02 0.0 
2.179589832927e-03 1.522115301454e-02 0.0 
-1.470827803424e-03 2.519339928214e-02 0.0 
-1.422889798555e-04 2.819808768682e-02 0.0 
3.578770126818e-03 5.493846917604e-02 0.0 
7.595942673831e-03 6.755459677896e-02 0.0 
-1.289669087205e-03 2.283920821070e-02 0.0 
2.178879411021e-03 3.912173422461e-02 0.0 
2.855587980026e-03 2.163445031214e-02 0.0 
-6.503053936679e-04 5.304320607075e-02 0.0 
3.039414169265e-03 1.241236015682e-02 0.0 
8.939417174791e-03 7.323090619700e-02 0.0 
-1.069855230283e-03 2.029973391218e-02 0.0 
9.717991297222e-04 2.735207244098e-02 0.0 
1.006281188832e-02 5.231673247389e-02 0.0 
8.533631352137e-04 6.851996653894e-02 0.0 
-7.082942369134e-04 1.267369433680e-02 0.0 
8.099384822504e-04 2.232353803997e-02 0.0 
8.624714258524e-03 4.088261365557e-02 0.0 
1.159514048183e-03 4.071399084927e-02 0.0 
7.678064173035e-03 7.380998719659e-02 0.0 
-2.504763750635e-03 4.526852181550e-02 0.0 
8.565856506422e-03 4.357498083035e-02 0.0 
8.393286940205e-04 7.084308927467e-03 0.0 
1.181978627873e-03 1.972819015593e-02 0.0 
5.945088006747e-03 4.568081602574e-02 0.0 
-2.512094417415e-03 4.839961338791e-02 0.0 
6.347513347848e-03 3.384788339910e-02 0.0 
4.883243376210e-04 7.665712651292e-02 0.0 
8.316611742622e-03 7.098881797093e-02 0.0 
-2.226163690771e-03 4.725699810075e-02 0.0 
3.353942420205e-03 4.375275079073e-02 0.0 
2.750734722810e-04 4.019920298519e-02 0.0 
2.550957772847e-03 1.292634089342e-02 0.0 
-1.899282404724e-03 4.584514969349e-02 0.0 
3.433535369108e-03 4.385164037986e-02 0.0 
-1.542837770682e-03 4.419302508184e-02 0.0 
8.163777316192e-03 7.628596321352e-02 0.0 
6.060338354864e-03 4.227096404403e-02 0.0 
-1.155146995290e-03 4.232763708654e-02 0.0 
7.768508314349e-03 3.793271105842e-02 0.0 
5.017845585531e-04 7.450903277657e-02 0.0 
7.999897296685e-03 3.788084597949e-02 0.0 
-4.432116166324e-04 2.197602848462e-02 0.0 
-3.613497168724e-03 5.482347289397e-02 0.0 
-4.372063202993e-04 3.964299244118e-02 0.0 
5.386024805993e-03 3.540734955882e-02 0.0 
8.414161365053e-03 7.774594076854e-02 0.0 
-2.894693428335e-04 3.641708637154e-02 0.0 
6.807766238019e-03 3.194488233009e-02 0.0 
7.267402435037e-03 3.498773508787e-02 0.0 
7.713679075366e-03 4.138234887395e-02 0.0 
-1.951952895816e-04 3.259962046171e-02 0.0 
9.331423688025e-03 7.424572739250e-02 0.0 
-3.331168765959e-03 6.306844972214e-02 0.0 
-2.909387715397e-03 6.464777312369e-02 0.0 
2.063108305428e-03 4.373668509113e-02 0.0 
6.108076122445e-03 2.890338123864e-02 0.0 
-1.385574576362e-05 7.664066018263e-02 0.0 
6.070537843609e-03 3.561148918879e-02 0.0 
-2.112775239155e-03 6.399198845917e-02 0.0 
6.156550682039e-04 4.453932836758e-02 0.0 
5.457563084853e-03 2.680806025972e-02 0.0 
2.510830902978e-04 5.176299424206e-02 0.0 
-4.284780021475e-04 4.526299494338e-02 0.0 
-2.482467589637e-04 7.320906736937e-02 0.0 
-1.646058987305e-03 4.703365874500e-02 0.0 
7.060512674748e-03 3.783797178762e-02 0.0 
-2.246800213092e-03 4.816502530896e-02 0.0 
-3.055339061833e-03 5.068914611199e-02 0.0 
6.307239876691e-04 1.566762902499e-02 0.0 
-3.255018840296e-03 5.183103357516e-02 0.0 
8.267240583848e-05 7.538930346939e-03 0.0 
-1.439219092343e-04 6.796067234919e-03 0.0 
3.261273705704e-04 6.420116809649e-02 0.0 
8.286802593464e-03 7.834880775669e-02 0.0 
5.519967826473e-04 2.150827439370e-02 0.0 
9.598594795488e-03 7.315304246091e-02 0.0 
-3.827396354886e-03 5.656848097664e-02 0.0 
6.693657542709e-03 3.569619199311e-02 0.0 
6.780236802726e-04 6.391248144500e-02 0.0 
-3.735097771424e-03 5.978465714199e-02 0.0 
2.737905022670e-03 1.362347569638e-02 0.0 
1.466597859228e-03 5.936429436588e-03 0.0 
4.574902283778e-04 4.110559687631e-02 0.0 
2.120880704624e-03 1.950702253568e-02 0.0 
6.417520404700e-03 3.201582731534e-02 0.0 
1.318278799758e-04 2.259555596370e-02 0.0 
1.984461270460e-03 6.881587687262e-02 0.0 
1.802571477196e-03 6.480331011069e-02 0.0 
-3.485378190129e-04 3.747095538746e-02 0.0 
8.015313239536e-03 7.680960906207e-02 0.0 
9.310460545088e-03 7.075693719173e-02 0.0 
8.798902242059e-03 6.477514875854e-02 0.0 
-1.056471166649e-03 6.908431061456e-02 0.0 
-1.864582704039e-03 5.272849741231e-02 0.0 
7.791826922524e-03 7.275333445782e-02 0.0 
1.494599047000e-03 1.153900014208e-02 0.0 
3.359698148394e-03 6.336394142679e-02 0.0 
5.355270982886e-03 2.486486822039e-02 0.0 
6.436844754866e-03 6.609838362943e-02 0.0 
1.481984812798e-03 1.494931792411e-02 0.0 
2.737033510346e-03 1.212472060358e-02 0.0 
-3.864236621762e-04 5.642892523994e-03 0.0 
4.138663761953e-03 1.883161059493e-02 0.0 
7.056366546859e-03 5.472568823221e-02 0.0 
4.852072030985e-03 5.751781782904e-02 0.0 
3.024373920649e-03 1.260133407719e-02 0.0 
6.195054055098e-04 3.513132155108e-02 0.0 
-3.816633563671e-04 5.524655052763e-03 0.0 
4.205125803153e-03 6.357879959805e-02 0.0 
3.896588664887e-04 1.465781269595e-02 0.0 
-1.360313135482e-03 3.678157267983e-02 0.0 
1.943573176675e-04 1.423569712226e-02 0.0 
5.698053097746e-03 2.895751613404e-02 0.0 
1.394267933740e-03 5.641721724171e-02 0.0 
5.739333523664e-03 5.718928379519e-02 0.0 
-3.736579552762e-04 1.177597599849e-02 0.0 
2.442523921161e-03 1.401739938927e-02 0.0 
5.485250540939e-03 4.689433188027e-02 0.0 
7.154036973702e-04 4.182061168777e-02 0.0 
-1.663734303654e-03 6.322003212568e-02 0.0 
-9.470561639091e-05 2.788939833399e-02 0.0 
-6.100994659608e-04 1.144355171196e-02 0.0 
4.554699282966e-03 2.210428042921e-02 0.0 
-5.724261460323e-04 1.190132755850e-02 0.0 
1.064518836436e-04 7.801193614033e-02 0.0 
2.195311599671e-03 7.056153943840e-02 0.0 
-2.899964064724e-04 1.036007443678e-02 0.0 
2.741722496257e-03 1.226304029580e-02 0.0 
-3.024818795758e-03 4.231401959989e-02 0.0 
5.044178090046e-04 6.064351714507e-03 0.0 
2.520221588245e-03 3.879911461888e-02 0.0 
2.711488560621e-03 6.925539278858e-02 0.0 
1.790003825183e-03 7.466608265718e-02 0.0 
-3.436481913575e-04 5.659041466270e-03 0.0 
9.124330390122e-04 1.399858238541e-02 0.0 
-1.148530294583e-03 6.067173675613e-02 0.0 
5.875058028366e-03 6.598584648073e-02 0.0 
-6.094421732410e-04 7.130464507695e-02 0.0 
4.060171580054e-03 1.699912458453e-02 0.0 
-3.851318763139e-04 6.210208918211e-02 0.0 
6.284414305213e-04 1.325043736604e-02 0.0 
1.615982862511e-04 9.929392808218e-03 0.0 
1.735765464140e-03 1.300091453527e-02 0.0 
7.825462011155e-04 4.393960731679e-03 0.0 
1.625853671914e-03 2.651290373470e-02 0.0 
2.500176269805e-03 1.055946039579e-02 0.0 
9.030606875271e-04 1.521013963535e-02 0.0 
1.489371750296e-03 6.912040795197e-02 0.0 
2.155268346911e-03 1.381664703015e-02 0.0 
-1.104402024742e-03 6.673331649797e-02 0.0 
-1.027247468013e-04 7.462784285285e-02 0.0 
3.673488468792e-05 6.684279021705e-03 0.0 
4.230345906593e-04 7.867811210831e-02 0.0 
2.491717646436e-04 6.918331529924e-02 0.0 
-5.424105861462e-05 5.557364799760e-03 0.0 
6.534045550310e-05 7.637691286296e-02 0.0 
5.414429231436e-04 5.974877541722e-02 0.0 
2.549893004179e-03 1.194827313118e-02 0.0 
-2.896028796170e-04 5.239087286161e-02 0.0 
3.098734710250e-04 2.787258798733e-02 0.0 
-3.333305309999e-03 4.965061413797e-02 0.0 
1.705982536205e-03 2.187580768683e-02 0.0 
4.374179636670e-04 4.835665063411e-02 0.0 
2.287764478730e-03 1.076075218700e-02 0.0 
1.371912388258e-03 1.251351323403e-02 0.0 
1.121366511036e-03 5.288161778835e-02 0.0 
6.841626837026e-03 4.345083410159e-02 0.0 
3.562859080922e-03 1.675031984301e-02 0.0 
-1.187171447922e-03 5.764275090001e-02 0.0 
4.060301736406e-03 1.719012790506e-02 0.0 
1.698755088626e-03 1.532912168736e-02 0.0 
-1.012884261957e-03 3.985094051880e-02 0.0 
-2.389175155620e-04 4.771919114166e-02 0.0 
2.095344889021e-03 7.338976133147e-02 0.0 
-7.010488237862e-04 1.049785146938e-02 0.0 
-7.847146466269e-04 5.605884784777e-02 0.0 
-5.219115948449e-04 6.700557536034e-02 0.0 
1.148866701968e-04 1.021377435449e-01 0.0 
3.476205779673e-03 7.477194541019e-02 0.0 
9.662871607219e-05 1.003639419949e-01 0.0 
5.499266064636e-03 7.943456229522e-02 0.0 
1.156685841224e-04 9.816730620291e-02 0.0 
6.531840896752e-03 8.180942233621e-02 0.0 
1.082794603420e-04 9.553133396370e-02 0.0 
7.033582256863e-03 8.250564366476e-02 0.0 
1.375960632330e-04 9.245312911409e-02 0.0 
7.183411639595e-03 8.184547829782e-02 0.0 
1.310421208203e-04 8.893246735836e-02 0.0 
7.053843067730e-03 8.007148730123e-02 0.0 
1.587465907846e-04 8.497037432761e-02 0.0 
6.706280005012e-03 7.727427186366e-02 0.0 
1.483016077160e-04 8.056974502655e-02 0.0 
6.189320529757e-03 7.367258582317e-02 0.0 
1.703268876483e-04 7.573532564359e-02 0.0 

VECTORS node_bounda_dof_materi_velocity_x float
1.000000000000e+00 0.0 0.0 
1.000000000000e+00 0.0 0.0 
1.000000000000e+00 0.0 0.0 
1.000000000000e+00 0.0 0.0 
1.000000000000e+00 0.0 0.0 
1.000000000000e+00 0.0 0.0 
1.000000000000e+00 0.0 0.0 
1.000000000000e+00 0.0 0.0 
1.000000000000e+00 0.0 0.0 
1.000000000000e+00 0.0 0.0 
1.000000000000e+00 0.0 0.0 
1.000000000000e+00 0.0 0.0 
1.000000000000e+00 0.0 0.0 
1.000000000000e+00 0.0 0.0 
1.000000000000e+00 0.0 0.0 
1.000000000000e+00 0.0 0.0 
1.000000000000e+00 0.0 0.0 
1.000000000000e+00 0.0 0.0 
1.000000000000e+00 0.0 0.0 
1.000000000000e+00 0.0 0.0 
1.000000000000e+00 0.0 0.0 
1.000000000000e+00 0.0 0.0 
1.000000000000e+00 0.0 0.0 
1.000000000000e+00 0.0 0.0 
1.000000000000e+00 0.0 0.0 
1.000000000000e+00 0.0 0.0 
1.000000000000e+00 0.0 0.0 
1.000000000000e+00 0.0 0.0 
1.000000000000e+00 0.0 0.0 
1.000000000000e+00 0.0 0.0 
1.000000000000e+00 0.0 0.0 
1.000000000000e+00 0.0 0.0 
1.000000000000e+00 0.0 0.0 
1.000000000000e+00 0.0 0.0 
1.000000000000e+00 0.0 0.0 
1.000000000000e+00 0.0 0.0 
1.000000000000e+00 0.0 0.0 
1.000000000000e+00 0.0 0.0 
1.000000000000e+00 0.0 0.0 
1.000000000000e+00 0.0 0.0 
1.000000000000e+00 0.0 0.0 
1.000000000000e+00 0.0 0.0 
1.000000000000e+00 0.0 0.0 
1.000000000000e+00 0.0 0.0 
1.000000000000e+00 0.0 0.0 
1.000000000000e+00 0.0 0.0 
1.000000000000e+00 0.0 0.0 
1.000000000000e+00 0.0 0.0 
1.000000000000e+00 0.0 0.0 
1.000000000000e+00 0.0 0.0 
1.000000000000e+00 0.0 0.0 
1.000000000000e+00 0.0 0.0 
1.000000000000e+00 0.0 0.0 
1.000000000000e+00 0.0 0.0 
1.000000000000e+00 0.0 0.0 
1.000000000000e+00 0.0 0.0 
1.000000000000e+00 0.0 0.0 
1.000000000000e+00 0.0 0.0 
1.000000000000e+00 0.0 0.0 
1.000000000000e+00 0.0 0.0 
1.000000000000e+00 0.0 0.0 
1.000000000000e+00 0.0 0.0 
1.000000000000e+00 0.0 0.0 
1.000000000000e+00 0.0 0.0 
1.000000000000e+00 0.0 0.0 
1.000000000000e+00 0.0 0.0 
1.000000000000e+00 0.0 0.0 
1.000000000000e+00 0.0 0.0 
1.000000000000e+00 0.0 0.0 
1.000000000000e+00 0.0 0.0 
1.000000000000e+00 0.0 0.0 
1.000000000000e+00 0.0 0.0 
1.000000000000e+00 0.0 0.0 
1.000000000000e+00 0.0 0.0 
1.000000000000e+00 0.0 0.0 
1.000000000000e+00 0.0 0.0 
1.000000000000e+00 0.0 0.0 
1.000000000000e+00 0.0 0.0 
1.000000000000e+00 0.0 0.0 
1.000000000000e+00 0.0 0.0 
1.000000000000e+00 0.0 0.0 
0.0 0.0 0.0 
0.0 0.0 0.0 
0.0 0.0 0.0 
0.0 0.0 0.0 
0.0 0.0 0.0 
0.0 0.0 0.0 
0.0 0.0 0.0 
0.0 0.0 0.0 
0.0 0.0 0.0 
0.0 0.0 0.0 
0.0 0.0 0.0 
1.000000000000e+00 0.0 0.0 
1.000000000000e+00 0.0 0.0 
1.000000000000e+00 0.0 0.0 
1.000000000000e+00 0.0 0.0 
1.000000000000e+00 0.0 0.0 
1.000000000000e+00 0.0 0.0 
1.000000000000e+00 0.0 0.0 
1.000000000000e+00 0.0 0.0 
1.000000000000e+00 0.0 0.0 
0.0 0.0 0.0 
0.0 0.0 0.0 
0.0 0.0 0.0 
0.0 0.0 0.0 
0.0 0.0 0.0 
0.0 0.0 0.0 
0.0 0.0 0.0 
0.0 0.0 0.0 
0.0 0.0 0.0 
0.0 0.0 0.0 
0.0 0.0 0.0 
0.0 0.0 0.0 
0.0 0.0 0.0 
0.0 0.0 0.0 
0.0 0.0 0.0 
0.0 0.0 0.0 
0.0 0.0 0.0 
0.0 0.0 0.0 
0.0 0.0 0.0 
0.0 0.0 0.0 
0.0 0.0 0.0 
0.0 0.0 0.0 
0.0 0.0 0.0 
0.0 0.0 0.0 
0.0 0.0 0.0 
0.0 0.0 0.0 
0.0 0.0 0.0 
0.0 0.0 0.0 
0.0 0.0 0.0 
0.0 0.0 0.0 
0.0 0.0 0.0 
0.0 0.0 0.0 
0.0 0.0 0.0 
0.0 0.0 0.0 
0.0 0.0 0.0 
0.0 0.0 0.0 
0.0 0.0 0.0 
0.0 0.0 0.0 
0.0 0.0 0.0 
0.0 0.0 0.0 
0.0 0.0 0.0 
0.0 0.0 0.0 
0.0 0.0 0.0 
0.0 0.0 0.0 
0.0 0.0 0.0 
0.0 0.0 0.0 
0.0 0.0 0.0 
0.0 0.0 0.0 
0.0 0.0 0.0 
0.0 0.0 0.0 
0.0 0.0 0.0 
0.0 0.0 0.0 
0.0 0.0 0.0 
0.0 0.0 0.0 
0.0 0.0 0.0 
0.0 0.0 0.0 
0.0 0.0 0.0 
0.0 0.0 0.0 
0.0 0.0 0.0 
0.0 0.0 0.0 
0.0 0.0 0.0 
0.0 0.0 0.0 
0.0 0.0 0.0 
0.0 0.0 0.0 
0.0 0.0 0.0 
0.0 0.0 0.0 
0.0 0.0 0.0 
0.0 0.0 0.0 
0.0 0.0 0.0 
0.0 0.0 0.0 
0.0 0.0 0.0 
0.0 0.0 0.0 
0.0 0.0 0.0 
0.0 0.0 0.0 
0.0 0.0 0.0 
0.0 0.0 0.0 
0.0 0.0 0.0 
0.0 0.0 0.0 
0.0 0.0 0.0 
0.0 0.0 0.0 
0.0 0.0 0.0 
0.0 0.0 0.0 
0.0 0.0 0.0 
0.0 0.0 0.0 
0.0 0.0 0.0 
0.0 0.0 0.0 
0.0 0.0 0.0 
0.0 0.0 0.0 
0.0 0.0 0.0 
0.0 0.0 0.0 
0.0 0.0 0.0 
0.0 0.0 0.0 
0.0 0.0 0.0 
0.0 0.0 0.0 
0.0 0.0 0.0 
0.0 0.0 0.0 
0.0 0.0 0.0 
0.0 0.0 0.0 
0.0 0.0 0.0 
0.0 0.0 0.0 
0.0 0.0 0.0 
0.0 0.0 0.0 
0.0 0.0 0.0 
0.0 0.0 0.0 
0.0 0.0 0.0 
0.0 0.0 0.0 
0.0 0.0 0.0 
0.0 0.0 0.0 
0.0 0.0 0.0 
0.0 0.0 0.0 
0.0 0.0 0.0 
0.0 0.0 0.0 
0.0 0.0 0.0 
0.0 0.0 0.0 
0.0 0.0 0.0 
0.0 0.0 0.0 
0.0 0.0 0.0 
0.0 0.0 0.0 
0.0 0.0 0.0 
0.0 0.0 0.0 
0.0 0.0 0.0 
0.0 0.0 0.0 
0.0 0.0 0.0 
0.0 0.0 0.0 
0.0 0.0 0.0 
0.0 0.0 0.0 
0.0 0.0 0.0 
0.0 0.0 0.0 
0.0 0.0 0.0 
0.0 0.0 0.0 
0.0 0.0 0.0 
0.0 0.0 0.0 
0.0 0.0 0.0 
0.0 0.0 0.0 
0.0 0.0 0.0 
0.0 0.0 0.0 
0.0 0.0 0.0 
0.0 0.0 0.0 
0.0 0.0 0.0 
0.0 0.0 0.0 
0.0 0.0 0.0 
0.0 0.0 0.0 
0.0 0.0 0.0 
0.0 0.0 0.0 
0.0 0.0 0.0 
0.0 0.0 0.0 
0.0 0.0 0.0 
0.0 0.0 0.0 
0.0 0.0 0.0 
0.0 0.0 0.0 
0.0 0.0 0.0 
0.0 0.0 0.0 
0.0 0.0 0.0 
0.0 0.0 0.0 
0.0 0.0 0.0 
0.0 0.0 0.0 
0.0 0.0 0.0 
0.0 0.0 0.0 
0.0 0.0 0.0 
0.0 0.0 0.0 
0.0 0.0 0.0 
0.0 0.0 0.0 
0.0 0.0 0.0 
0.0 0.0 0.0 
0.0 0.0 0.0 
0.0 0.0 0.0 
0.0 0.0 0.0 
0.0 0.0 0.0 
0.0 0.0 0.0 
0.0 0.0 0.0 
0.0 0.0 0.0 
0.0 0.0 0.0 
0.0 0.0 0.0 
0.0 0.0 0.0 
0.0 0.0 0.0 
0.0 0.0 0.0 
0.0 0.0 0.0 
0.0 0.0 0.0 
0.0 0.0 0.0 
0.0 0.0 0.0 
0.0 0.0 0.0 
0.0 0.0 0.0 
0.0 0.0 0.0 
0.0 0.0 0.0 
0.0 0.0 0.0 
0.0 0.0 0.0 
0.0 0.0 0.0 
0.0 0.0 0.0 
0.0 0.0 0.0 
0.0 0.0 0.0 
0.0 0.0 0.0 
0.0 0.0 0.0 
0.0 0.0 0.0 
0.0 0.0 0.0 
0.0 0.0 0.0 
0.0 0.0 0.0 
0.0 0.0 0.0 
0.0 0.0 0.0 
0.0 0.0 0.0 
0.0 0.0 0.0 
0.0 0.0 0.0 
0.0 0.0 0.0 
0.0 0.0 0.0 
0.0 0.0 0.0 
0.0 0.0 0.0 
0.0 0.0 0.0 
0.0 0.0 0.0 
0.0 0.0 0.0 
0.0 0.0 0.0 
0.0 0.0 0.0 
0.0 0.0 0.0 
0.0 0.0 0.0 
0.0 0.0 0.0 
0.0 0.0 0.0 
0.0 0.0 0.0 
0.0 0.0 0.0 
0.0 0.0 0.0 
0.0 0.0 0.0 
0.0 0.0 0.0 
0.0 0.0 0.0 
0.0 0.0 0.0 
0.0 0.0 0.0 
0.0 0.0 0.0 
0.0 0.0 0.0 
0.0 0.0 0.0 
0.0 0.0 0.0 
0.0 0.0 0.0 
0.0 0.0 0.0 
0.0 0.0 0.0 
0.0 0.0 0.0 
0.0 0.0 0.0 
0.0 0.0 0.0 
0.0 0.0 0.0 
0.0 0.0 0.0 
0.0 0.0 0.0 
0.0 0.0 0.0 
0.0 0.0 0.0 
0.0 0.0 0.0 
0.0 0.0 0.0 
0.0 0.0 0.0 
0.0 0.0 0.0 
0.0 0.0 0.0 
0.0 0.0 0.0 
0.0 0.0 0.0 
0.0 0.0 0.0 
0.0 0.0 0.0 
0.0 0.0 0.0 
0.0 0.0 0.0 
0.0 0.0 0.0 
0.0 0.0 0.0 
0.0 0.0 0.0 
0.0 0.0 0.0 
0.0 0.0 0.0 
0.0 0.0 0.0 
0.0 0.0 0.0 
0.0 0.0 0.0 
0.0 0.0 0.0 
0.0 0.0 0.0 
0.0 0.0 0.0 
0.0 0.0 0.0 
0.0 0.0 0.0 
0.0 0.0 0.0 
0.0 0.0 0.0 
0.0 0.0 0.0 
0.0 0.0 0.0 
0.0 0.0 0.0 
0.0 0.0 0.0 
0.0 0.0 0.0 
0.0 0.0 0.0 
0.0 0.0 0.0 
0.0 0.0 0.0 
0.0 0.0 0.0 
0.0 0.0 0.0 
0.0 0.0 0.0 
0.0 0.0 0.0 
0.0 0.0 0.0 
0.0 0.0 0.0 
0.0 0.0 0.0 
0.0 0.0 0.0 
0.0 0.0 0.0 
0.0 0.0 0.0 
0.0 0.0 0.0 
0.0 0.0 0.0 
0.0 0.0 0.0 
0.0 0.0 0.0 
0.0 0.0 0.0 
0.0 0.0 0.0 
0.0 0.0 0.0 
0.0 0.0 0.0 
0.0 0.0 0.0 
0.0 0.0 0.0 
0.0 0.0 0.0 
0.0 0.0 0.0 
0.0 0.0 0.0 
0.0 0.0 0.0 
0.0 0.0 0.0 
0.0 0.0 0.0 
0.0 0.0 0.0 
0.0 0.0 0.0 
0.0 0.0 0.0 
0.0 0.0 0.0 
0.0 0.0 0.0 
0.0 0.0 0.0 
0.0 0.0 0.0 
0.0 0.0 0.0 
0.0 0.0 0.0 
0.0 0.0 0.0 
0.0 0.0 0.0 
0.0 0.0 0.0 
0.0 0.0 0.0 
0.0 0.0 0.0 
0.0 0.0 0.0 
0.0 0.0 0.0 
0.0 0.0 0.0 
0.0 0.0 0.0 
0.0 0.0 0.0 
0.0 0.0 0.0 
0.0 0.0 0.0 
0.0 0.0 0.0 
0.0 0.0 0.0 
0.0 0.0 0.0 
0.0 0.0 0.0 
0.0 0.0 0.0 
0.0 0.0 0.0 
0.0 0.0 0.0 
0.0 0.0 0.0 
0.0 0.0 0.0 
0.0 0.0 0.0 
0.0 0.0 0.0 
0.0 0.0 0.0 
0.0 0.0 0.0 
0.0 0.0 0.0 
0.0 0.0 0.0 
0.0 0.0 0.0 
0.0 0.0 0.0 
0.0 0.0 0.0 
0.0 0.0 0.0 
0.0 0.0 0.0 
0.0 0.0 0.0 
0.0 0.0 0.0 
0.0 0.0 0.0 
0.0 0.0 0.0 
0.0 0.0 0.0 
0.0 0.0 0.0 
0.0 0.0 0.0 
0.0 0.0 0.0 
0.0 0.0 0.0 
0.0 0.0 0.0 
0.0 0.0 0.0 
0.0 0.0 0.0 
0.0 0.0 0.0 
0.0 0.0 0.0 
0.0 0.0 0.0 
0.0 0.0 0.0 
0.0 0.0 0.0 
0.0 0.0 0.0 
0.0 0.0 0.0 
0.0 0.0 0.0 
0.0 0.0 0.0 
0.0 0.0 0.0 
0.0 0.0 0.0 
0.0 0.0 0.0 
0.0 0.0 0.0 
0.0 0.0 0.0 
0.0 0.0 0.0 
0.0 0.0 0.0 
0.0 0.0 0.0 
0.0 0.0 0.0 
0.0 0.0 0.0 
0.0 0.0 0.0 
0.0 0.0 0.0 
0.0 0.0 0.0 
0.0 0.0 0.0 
0.0 0.0 0.0 
0.0 0.0 0.0 
0.0 0.0 0.0 
0.0 0.0 0.0 
0.0 0.0 0.0 
0.0 0.0 0.0 
0.0 0.0 0.0 
0.0 0.0 0.0 
0.0 0.0 0.0 
0.0 0.0 0.0 
0.0 0.0 0.0 
0.0 0.0 0.0 
0.0 0.0 0.0 
0.0 0.0 0.0 
0.0 0.0 0.0 
0.0 0.0 0.0 
0.0 0.0 0.0 
0.0 0.0 0.0 
0.0 0.0 0.0 
0.0 0.0 0.0 
0.0 0.0 0.0 
0.0 0.0 0.0 
0.0 0.0 0.0 
0.0 0.0 0.0 
0.0 0.0 0.0 
0.0 0.0 0.0 
0.0 0.0 0.0 
0.0 0.0 0.0 
0.0 0.0 0.0 
0.0 0.0 0.0 
0.0 0.0 0.0 
0.0 0.0 0.0 
0.0 0.0 0.0 
0.0 0.0 0.0 
0.0 0.0 0.0 
0.0 0.0 0.0 
0.0 0.0 0.0 
0.0 0.0 0.0 
0.0 0.0 0.0 
0.0 0.0 0.0 
0.0 0.0 0.0 
0.0 0.0 0.0 
0.0 0.0 0.0 
0.0 0.0 0.0 
0.0 0.0 0.0 
0.0 0.0 0.0 
0.0 0.0 0.0 
0.0 0.0 0.0 
0.0 0.0 0.0 
0.0 0.0 0.0 
0.0 0.0 0.0 
0.0 0.0 0.0 
0.0 0.0 0.0 
0.0 0.0 0.0 
0.0 0.0 0.0 
0.0 0.0 0.0 
0.0 0.0 0.0 
0.0 0.0 0.0 
0.0 0.0 0.0 
0.0 0.0 0.0 
0.0 0.0 0.0 
0.0 0.0 0.0 
0.0 0.0 0.0 
0.0 0.0 0.0 
0.0 0.0 0.0 
0.0 0.0 0.0 
0.0 0.0 0.0 
0.0 0.0 0.0 
0.0 0.0 0.0 
0.0 0.0 0.0 
0.0 0.0 0.0 
0.0 0.0 0.0 
0.0 0.0 0.0 
0.0 0.0 0.0 
0.0 0.0 0.0 
0.0 0.0 0.0 
0.0 0.0 0.0 
0.0 0.0 0.0 
0.0 0.0 0.0 
0.0 0.0 0.0 
0.0 0.0 0.0 
0.0 0.0 0.0 
0.0 0.0 0.0 
0.0 0.0 0.0 
0.0 0.0 0.0 
0.0 0.0 0.0 
0.0 0.0 0.0 
0.0 0.0 0.0 
0.0 0.0 0.0 
0.0 0.0 0.0 
0.0 0.0 0.0 
0.0 0.0 0.0 
0.0 0.0 0.0 
0.0 0.0 0.0 
0.0 0.0 0.0 
0.0 0.0 0.0 
0.0 0.0 0.0 
0.0 0.0 0.0 
0.0 0.0 0.0 
0.0 0.0 0.0 
0.0 0.0 0.0 
0.0 0.0 0.0 
0.0 0.0 0.0 
0.0 0.0 0.0 
0.0 0.0 0.0 
0.0 0.0 0.0 
0.0 0.0 0.0 
0.0 0.0 0.0 
0.0 0.0 0.0 
0.0 0.0 0.0 
0.0 0.0 0.0 
0.0 0.0 0.0 
0.0 0.0 0.0 
0.0 0.0 0.0 
0.0 0.0 0.0 
0.0 0.0 0.0 
0.0 0.0 0.0 
0.0 0.0 0.0 
0.0 0.0 0.0 
0.0 0.0 0.0 
0.0 0.0 0.0 
0.0 0.0 0.0 
0.0 0.0 0.0 
0.0 0.0 0.0 
0.0 0.0 0.0 
0.0 0.0 0.0 
0.0 0.0 0.0 
0.0 0.0 0.0 
0.0 0.0 0.0 
0.0 0.0 0.0 
0.0 0.0 0.0 
0.0 0.0 0.0 
0.0 0.0 0.0 
0.0 0.0 0.0 
0.0 0.0 0.0 
0.0 0.0 0.0 
0.0 0.0 0.0 
0.0 0.0 0.0 
0.0 0.0 0.0 
0.0 0.0 0.0 
0.0 0.0 0.0 
0.0 0.0 0.0 
0.0 0.0 0.0 
0.0 0.0 0.0 
0.0 0.0 0.0 
0.0 0.0 0.0 
0.0 0.0 0.0 
0.0 0.0 0.0 
0.0 0.0 0.0 
0.0 0.0 0.0 
0.0 0.0 0.0 
0.0 0.0 0.0 
0.0 0.0 0.0 
0.0 0.0 0.0 
0.0 0.0 0.0 
0.0 0.0 0.0 
0.0 0.0 0.0 
0.0 0.0 0.0 
0.0 0.0 0.0 
0.0 0.0 0.0 
0.0 0.0 0.0 
0.0 0.0 0.0 
0.0 0.0 0.0 
0.0 0.0 0.0 
0.0 0.0 0.0 
0.0 0.0 0.0 
0.0 0.0 0.0 
0.0 0.0 0.0 
0.0 0.0 0.0 
0.0 0.0 0.0 
0.0 0.0 0.0 
0.0 0.0 0.0 
0.0 0.0 0.0 
0.0 0.0 0.0 
0.0 0.0 0.0 
0.0 0.0 0.0 
0.0 0.0 0.0 
0.0 0.0 0.0 
0.0 0.0 0.0 
0.0 0.0 0.0 
0.0 0.0 0.0 
0.0 0.0 0.0 
0.0 0.0 0.0 
0.0 0.0 0.0 
0.0 0.0 0.0 
0.0 0.0 0.0 
0.0 0.0 0.0 
0.0 0.0 0.0 
0.0 0.0 0.0 
0.0 0.0 0.0 
0.0 0.0 0.0 
0.0 0.0 0.0 
0.0 0.0 0.0 
0.0 0.0 0.0 
0.0 0.0 0.0 
0.0 0.0 0.0 
0.0 0.0 0.0 
0.0 0.0 0.0 
0.0 0.0 0.0 
0.0 0.0 0.0 
0.0 0.0 0.0 
0.0 0.0 0.0 
0.0 0.0 0.0 
0.0 0.0 0.0 
0.0 0.0 0.0 
0.0 0.0 0.0 
0.0 0.0 0.0 
0.0 0.0 0.0 
0.0 0.0 0.0 
0.0 0.0 0.0 
0.0 0.0 0.0 
0.0 0.0 0.0 
0.0 0.0 0.0 
0.0 0.0 0.0 
0.0 0.0 0.0 
0.0 0.0 0.0 
0.0 0.0 0.0 
0.0 0.0 0.0 
0.0 0.0 0.0 
0.0 0.0 0.0 
0.0 0.0 0.0 
0.0 0.0 0.0 
0.0 0.0 0.0 
0.0 0.0 0.0 
0.0 0.0 0.0 
0.0 0.0 0.0 
0.0 0.0 0.0 
0.0 0.0 0.0 
0.0 0.0 0.0 
0.0 0.0 0.0 
0.0 0.0 0.0 
0.0 0.0 0.0 
0.0 0.0 0.0 
0.0 0.0 0.0 
0.0 0.0 0.0 
0.0 0.0 0.0 
0.0 0.0 0.0 
0.0 0.0 0.0 
0.0 0.0 0.0 
0.0 0.0 0.0 
0.0 0.0 0.0 
0.0 0.0 0.0 
0.0 0.0 0.0 
0.0 0.0 0.0 
0.0 0.0 0.0 
0.0 0.0 0.0 
0.0 0.0 0.0 
0.0 0.0 0.0 
0.0 0.0 0.0 
0.0 0.0 0.0 
0.0 0.0 0.0 
0.0 0.0 0.0 
0.0 0.0 0.0 
0.0 0.0 0.0 
0.0 0.0 0.0 
0.0 0.0 0.0 
0.0 0.0 0.0 
0.0 0.0 0.0 
0.0 0.0 0.0 
0.0 0.0 0.0 
0.0 0.0 0.0 
0.0 0.0 0.0 
0.0 0.0 0.0 
0.0 0.0 0.0 
0.0 0.0 0.0 
0.0 0.0 0.0 
0.0 0.0 0.0 
0.0 0.0 0.0 
0.0 0.0 0.0 
0.0 0.0 0.0 
0.0 0.0 0.0 
0.0 0.0 0.0 
0.0 0.0 0.0 
0.0 0.0 0.0 
0.0 0.0 0.0 
0.0 0.0 0.0 
0.0 0.0 0.0 
0.0 0.0 0.0 
0.0 0.0 0.0 
0.0 0.0 0.0 
0.0 0.0 0.0 
0.0 0.0 0.0 
0.0 0.0 0.0 
0.0 0.0 0.0 
0.0 0.0 0.0 
0.0 0.0 0.0 
0.0 0.0 0.0 
0.0 0.0 0.0 
0.0 0.0 0.0 
0.0 0.0 0.0 
0.0 0.0 0.0 
0.0 0.0 0.0 
0.0 0.0 0.0 
0.0 0.0 0.0 
0.0 0.0 0.0 
0.0 0.0 0.0 
0.0 0.0 0.0 
0.0 0.0 0.0 
0.0 0.0 0.0 
0.0 0.0 0.0 
0.0 0.0 0.0 
0.0 0.0 0.0 
0.0 0.0 0.0 
0.0 0.0 0.0 
0.0 0.0 0.0 
0.0 0.0 0.0 
0.0 0.0 0.0 
0.0 0.0 0.0 
0.0 0.0 0.0 
0.0 0.0 0.0 
0.0 0.0 0.0 
0.0 0.0 0.0 
0.0 0.0 0.0 
0.0 0.0 0.0 
0.0 0.0 0.0 
0.0 0.0 0.0 
0.0 0.0 0.0 
0.0 0.0 0.0 
0.0 0.0 0.0 
0.0 0.0 0.0 
0.0 0.0 0.0 
0.0 0.0 0.0 
0.0 0.0 0.0 
0.0 0.0 0.0 
0.0 0.0 0.0 
0.0 0.0 0.0 
0.0 0.0 0.0 
0.0 0.0 0.0 
0.0 0.0 0.0 
0.0 0.0 0.0 
0.0 0.0 0.0 
0.0 0.0 0.0 
0.0 0.0 0.0 
0.0 0.0 0.0 
0.0 0.0 0.0 
0.0 0.0 0.0 
0.0 0.0 0.0 
0.0 0.0 0.0 
0.0 0.0 0.0 
0.0 0.0 0.0 
0.0 0.0 0.0 
0.0 0.0 0.0 
0.0 0.0 0.0 
0.0 0.0 0.0 
0.0 0.0 0.0 
0.0 0.0 0.0 
0.0 0.0 0.0 
0.0 0.0 0.0 
0.0 0.0 0.0 
0.0 0.0 0.0 
0.0 0.0 0.0 
0.0 0.0 0.0 
0.0 0.0 0.0 
0.0 0.0 0.0 
0.0 0.0 0.0 
0.0 0.0 0.0 
0.0 0.0 0.0 
0.0 0.0 0.0 
0.0 0.0 0.0 
0.0 0.0 0.0 
0.0 0.0 0.0 
0.0 0.0 0.0 
0.0 0.0 0.0 
0.0 0.0 0.0 
0.0 0.0 0.0 
0.0 0.0 0.0 
0.0 0.0 0.0 
0.0 0.0 0.0 
0.0 0.0 0.0 
0.0 0.0 0.0 
0.0 0.0 0.0 
0.0 0.0 0.0 
0.0 0.0 0.0 
0.0 0.0 0.0 
0.0 0.0 0.0 
0.0 0.0 0.0 
0.0 0.0 0.0 
0.0 0.0 0.0 
0.0 0.0 0.0 
0.0 0.0 0.0 
0.0 0.0 0.0 
0.0 0.0 0.0 
0.0 0.0 0.0 
0.0 0.0 0.0 
0.0 0.0 0.0 
0.0 0.0 0.0 
0.0 0.0 0.0 
0.0 0.0 0.0 
0.0 0.0 0.0 
0.0 0.0 0.0 
0.0 0.0 0.0 
0.0 0.0 0.0 
0.0 0.0 0.0 
0.0 0.0 0.0 
0.0 0.0 0.0 
0.0 0.0 0.0 
0.0 0.0 0.0 
0.0 0.0 0.0 
0.0 0.0 0.0 
0.0 0.0 0.0 
0.0 0.0 0.0 
0.0 0.0 0.0 
0.0 0.0 0.0 
0.0 0.0 0.0 
0.0 0.0 0.0 
0.0 0.0 0.0 
0.0 0.0 0.0 
0.0 0.0 0.0 
0.0 0.0 0.0 
0.0 0.0 0.0 
0.0 0.0 0.0 
0.0 0.0 0.0 
0.0 0.0 0.0 
0.0 0.0 0.0 
0.0 0.0 0.0 
0.0 0.0 0.0 
0.0 0.0 0.0 
0.0 0.0 0.0 
0.0 0.0 0.0 
0.0 0.0 0.0 
0.0 0.0 0.0 
0.0 0.0 0.0 
0.0 0.0 0.0 
0.0 0.0 0.0 
0.0 0.0 0.0 
0.0 0.0 0.0 
0.0 0.0 0.0 
0.0 0.0 0.0 
0.0 0.0 0.0 
0.0 0.0 0.0 
0.0 0.0 0.0 
0.0 0.0 0.0 
0.0 0.0 0.0 
0.0 0.0 0.0 
0.0 0.0 0.0 
0.0 0.0 0.0 
0.0 0.0 0.0 
0.0 0.0 0.0 
0.0 0.0 0.0 
0.0 0.0 0.0 
0.0 0.0 0.0 
0.0 0.0 0.0 
0.0 0.0 0.0 
0.0 0.0 0.0 
0.0 0.0 0.0 
0.0 0.0 0.0 
0.0 0.0 0.0 
0.0 0.0 0.0 
0.0 0.0 0.0 
0.0 0.0 0.0 
0.0 0.0 0.0 
0.0 0.0 0.0 
0.0 0.0 0.0 
0.0 0.0 0.0 
0.0 0.0 0.0 
0.0 0.0 0.0 
0.0 0.0 0.0 
0.0 0.0 0.0 
0.0 0.0 0.0 
0.0 0.0 0.0 
0.0 0.0 0.0 
0.0 0.0 0.0 
0.0 0.0 0.0 
0.0 0.0 0.0 
0.0 0.0 0.0 
0.0 0.0 0.0 
0.0 0.0 0.0 
0.0 0.0 0.0 
0.0 0.0 0.0 
0.0 0.0 0.0 
0.0 0.0 0.0 
0.0 0.0 0.0 
0.0 0.0 0.0 
0.0 0.0 0.0 
0.0 0.0 0.0 
0.0 0.0 0.0 
0.0 0.0 0.0 
0.0 0.0 0.0 
0.0 0.0 0.0 
0.0 0.0 0.0 
0.0 0.0 0.0 
0.0 0.0 0.0 
0.0 0.0 0.0 
0.0 0.0 0.0 
0.0 0.0 0.0 
0.0 0.0 0.0 
0.0 0.0 0.0 
0.0 0.0 0.0 
0.0 0.0 0.0 
0.0 0.0 0.0 
0.0 0.0 0.0 
0.0 0.0 0.0 
0.0 0.0 0.0 
0.0 0.0 0.0 
0.0 0.0 0.0 
0.0 0.0 0.0 
0.0 0.0 0.0 
0.0 0.0 0.0 
0.0 0.0 0.0 
0.0 0.0 0.0 
0.0 0.0 0.0 
0.0 0.0 0.0 
0.0 0.0 0.0 
0.0 0.0 0.0 
0.0 0.0 0.0 
0.0 0.0 0.0 
0.0 0.0 0.0 
0.0 0.0 0.0 
0.0 0.0 0.0 
0.0 0.0 0.0 
0.0 0.0 0.0 
0.0 0.0 0.0 
0.0 0.0 0.0 
0.0 0.0 0.0 
0.0 0.0 0.0 
0.0 0.0 0.0 
0.0 0.0 0.0 
0.0 0.0 0.0 
0.0 0.0 0.0 
0.0 0.0 0.0 
0.0 0.0 0.0 
0.0 0.0 0.0 
0.0 0.0 0.0 
0.0 0.0 0.0 
0.0 0.0 0.0 
0.0 0.0 0.0 
0.0 0.0 0.0 
0.0 0.0 0.0 
0.0 0.0 0.0 
0.0 0.0 0.0 
0.0 0.0 0.0 
0.0 0.0 0.0 
0.0 0.0 0.0 
0.0 0.0 0.0 
0.0 0.0 0.0 
0.0 0.0 0.0 
0.0 0.0 0.0 
0.0 0.0 0.0 
0.0 0.0 0.0 
0.0 0.0 0.0 
0.0 0.0 0.0 
0.0 0.0 0.0 
0.0 0.0 0.0 
0.0 0.0 0.0 
0.0 0.0 0.0 
0.0 0.0 0.0 
0.0 0.0 0.0 
0.0 0.0 0.0 
0.0 0.0 0.0 
0.0 0.0 0.0 
0.0 0.0 0.0 
0.0 0.0 0.0 
0.0 0.0 0.0 
0.0 0.0 0.0 
0.0 0.0 0.0 
0.0 0.0 0.0 
0.0 0.0 0.0 
0.0 0.0 0.0 
0.0 0.0 0.0 
0.0 0.0 0.0 
0.0 0.0 0.0 
0.0 0.0 0.0 
0.0 0.0 0.0 
0.0 0.0 0.0 
0.0 0.0 0.0 
0.0 0.0 0.0 
0.0 0.0 0.0 
0.0 0.0 0.0 
0.0 0.0 0.0 
0.0 0.0 0.0 
0.0 0.0 0.0 
0.0 0.0 0.0 
0.0 0.0 0.0 
0.0 0.0 0.0 
0.0 0.0 0.0 
0.0 0.0 0.0 
0.0 0.0 0.0 
0.0 0.0 0.0 
0.0 0.0 0.0 
0.0 0.0 0.0 
0.0 0.0 0.0 
0.0 0.0 0.0 
0.0 0.0 0.0 
0.0 0.0 0.0 
0.0 0.0 0.0 
0.0 0.0 0.0 
0.0 0.0 0.0 
0.0 0.0 0.0 
0.0 0.0 0.0 
0.0 0.0 0.0 
0.0 0.0 0.0 
0.0 0.0 0.0 
0.0 0.0 0.0 
0.0 0.0 0.0 
0.0 0.0 0.0 
0.0 0.0 0.0 
0.0 0.0 0.0 
0.0 0.0 0.0 
0.0 0.0 0.0 
0.0 0.0 0.0 
0.0 0.0 0.0 
0.0 0.0 0.0 
0.0 0.0 0.0 
0.0 0.0 0.0 
0.0 0.0 0.0 
0.0 0.0 0.0 
0.0 0.0 0.0 
0.0 0.0 0.0 
0.0 0.0 0.0 
0.0 0.0 0.0 
0.0 0.0 0.0 
0.0 0.0 0.0 
0.0 0.0 0.0 
0.0 0.0 0.0 
0.0 0.0 0.0 
0.0 0.0 0.0 
0.0 0.0 0.0 
0.0 0.0 0.0 
0.0 0.0 0.0 
0.0 0.0 0.0 
0.0 0.0 0.0 
0.0 0.0 0.0 
0.0 0.0 0.0 
0.0 0.0 0.0 
0.0 0.0 0.0 
0.0 0.0 0.0 
0.0 0.0 0.0 
0.0 0.0 0.0 
0.0 0.0 0.0 
0.0 0.0 0.0 
0.0 0.0 0.0 
0.0 0.0 0.0 
0.0 0.0 0.0 
0.0 0.0 0.0 
0.0 0.0 0.0 
0.0 0.0 0.0 
0.0 0.0 0.0 
0.0 0.0 0.0 
0.0 0.0 0.0 
0.0 0.0 0.0 
0.0 0.0 0.0 
0.0 0.0 0.0 
0.0 0.0 0.0 
0.0 0.0 0.0 
0.0 0.0 0.0 
0.0 0.0 0.0 
0.0 0.0 0.0 
0.0 0.0 0.0 
0.0 0.0 0.0 
0.0 0.0 0.0 
0.0 0.0 0.0 
0.0 0.0 0.0 
0.0 0.0 0.0 
0.0 0.0 0.0 
0.0 0.0 0.0 
0.0 0.0 0.0 
0.0 0.0 0.0 
0.0 0.0 0.0 
0.0 0.0 0.0 
0.0 0.0 0.0 
0.0 0.0 0.0 
0.0 0.0 0.0 
0.0 0.0 0.0 
0.0 0.0 0.0 
0.0 0.0 0.0 
0.0 0.0 0.0 
0.0 0.0 0.0 
0.0 0.0 0.0 
0.0 0.0 0.0 
0.0 0.0 0.0 
0.0 0.0 0.0 
0.0 0.0 0.0 
0.0 0.0 0.0 
0.0 0.0 0.0 
0.0 0.0 0.0 
0.0 0.0 0.0 
0.0 0.0 0.0 
0.0 0.0 0.0 
0.0 0.0 0.0 
0.0 0.0 0.0 
0.0 0.0 0.0 
0.0 0.0 0.0 
0.0 0.0 0.0 
0.0 0.0 0.0 
0.0 0.0 0.0 
0.0 0.0 0.0 
0.0 0.0 0.0 
0.0 0.0 0.0 
0.0 0.0 0.0 
0.0 0.0 0.0 
0.0 0.0 0.0 
0.0 0.0 0.0 
0.0 0.0 0.0 
0.0 0.0 0.0 
0.0 0.0 0.0 
0.0 0.0 0.0 
0.0 0.0 0.0 
0.0 0.0 0.0 
0.0 0.0 0.0 
0.0 0.0 0.0 
0.0 0.0 0.0 
0.0 0.0 0.0 
0.0 0.0 0.0 
0.0 0.0 0.0 
0.0 0.0 0.0 
0.0 0.0 0.0 
0.0 0.0 0.0 
0.0 0.0 0.0 
0.0 0.0 0.0 
0.0 0.0 0.0 
0.0 0.0 0.0 
0.0 0.0 0.0 
0.0 0.0 0.0 
0.0 0.0 0.0 
0.0 0.0 0.0 
0.0 0.0 0.0 
0.0 0.0 0.0 
0.0 0.0 0.0 
0.0 0.0 0.0 
0.0 0.0 0.0 
0.0 0.0 0.0 
0.0 0.0 0.0 
0.0 0.0 0.0 
0.0 0.0 0.0 
0.0 0.0 0.0 
0.0 0.0 0.0 
0.0 0.0 0.0 
0.0 0.0 0.0 
0.0 0.0 0.0 
0.0 0.0 0.0 
0.0 0.0 0.0 
0.0 0.0 0.0 
0.0 0.0 0.0 
0.0 0.0 0.0 
0.0 0.0 0.0 
0.0 0.0 0.0 
0.0 0.0 0.0 
0.0 0.0 0.0 
0.0 0.0 0.0 
0.0 0.0 0.0 
0.0 0.0 0.0 
0.0 0.0 0.0 
0.0 0.0 0.0 
0.0 0.0 0.0 
0.0 0.0 0.0 
0.0 0.0 0.0 
0.0 0.0 0.0 
0.0 0.0 0.0 
0.0 0.0 0.0 
0.0 0.0 0.0 
0.0 0.0 0.0 
0.0 0.0 0.0 
0.0 0.0 0.0 
0.0 0.0 0.0 
0.0 0.0 0.0 
0.0 0.0 0.0 
0.0 0.0 0.0 
0.0 0.0 0.0 
0.0 0.0 0.0 
0.0 0.0 0.0 
0.0 0.0 0.0 
0.0 0.0 0.0 
0.0 0.0 0.0 
0.0 0.0 0.0 
0.0 0.0 0.0 
0.0 0.0 0.0 
0.0 0.0 0.0 
0.0 0.0 0.0 
0.0 0.0 0.0 
0.0 0.0 0.0 
0.0 0.0 0.0 
0.0 0.0 0.0 
0.0 0.0 0.0 
0.0 0.0 0.0 
0.0 0.0 0.0 
0.0 0.0 0.0 
0.0 0.0 0.0 

VECTORS node_bounda_dof_materi_velocity_y float
0.0 0.0 0.0 
0.0 0.0 0.0 
0.0 1.000000000000e+00 0.0 
0.0 1.000000000000e+00 0.0 
0.0 0.0 0.0 
0.0 0.0 0.0 
0.0 0.0 0.0 
0.0 0.0 0.0 
0.0 0.0 0.0 
0.0 0.0 0.0 
0.0 0.0 0.0 
0.0 0.0 0.0 
0.0 0.0 0.0 
0.0 0.0 0.0 
0.0 0.0 0.0 
0.0 0.0 0.0 
0.0 0.0 0.0 
0.0 0.0 0.0 
0.0 0.0 0.0 
0.0 0.0 0.0 
0.0 0.0 0.0 
0.0 0.0 0.0 
0.0 0.0 0.0 
0.0 1.000000000000e+00 0.0 
0.0 1.000000000000e+00 0.0 
0.0 1.000000000000e+00 0.0 
0.0 1.000000000000e+00 0.0 
0.0 1.000000000000e+00 0.0 
0.0 1.000000000000e+00 0.0 
0.0 1.000000000000e+00 0.0 
0.0 1.000000000000e+00 0.0 
0.0 1.000000000000e+00 0.0 
0.0 1.000000000000e+00 0.0 
0.0 1.000000000000e+00 0.0 
0.0 1.000000000000e+00 0.0 
0.0 1.000000000000e+00 0.0 
0.0 1.000000000000e+00 0.0 
0.0 1.000000000000e+00 0.0 
0.0 1.000000000000e+00 0.0 
0.0 1.000000000000e+00 0.0 
0.0 1.000000000000e+00 0.0 
0.0 1.000000000000e+00 0.0 
0.0 1.000000000000e+00 0.0 
0.0 1.000000000000e+00 0.0 
0.0 1.000000000000e+00 0.0 
0.0 1.000000000000e+00 0.0 
0.0 1.000000000000e+00 0.0 
0.0 1.000000000000e+00 0.0 
0.0 1.000000000000e+00 0.0 
0.0 1.000000000000e+00 0.0 
0.0 1.000000000000e+00 0.0 
0.0 1.000000000000e+00 0.0 
0.0 1.000000000000e+00 0.0 
0.0 1.000000000000e+00 0.0 
0.0 1.000000000000e+00 0.0 
0.0 1.000000000000e+00 0.0 
0.0 1.000000000000e+00 0.0 
0.0 1.000000000000e+00 0.0 
0.0 1.000000000000e+00 0.0 
0.0 1.000000000000e+00 0.0 
0.0 1.000000000000e+00 0.0 
0.0 1.000000000000e+00 0.0 
0.0 1.000000000000e+00 0.0 
0.0 1.000000000000e+00 0.0 
0.0 1.000000000000e+00 0.0 
0.0 1.000000000000e+00 0.0 
0.0 1.000000000000e+00 0.0 
0.0 1.000000000000e+00 0.0 
0.0 1.000000000000e+00 0.0 
0.0 1.000000000000e+00 0.0 
0.0 1.000000000000e+00 0.0 
0.0 1.000000000000e+00 0.0 
0.0 0.0 0.0 
0.0 0.0 0.0 
0.0 0.0 0.0 
0.0 0.0 0.0 
0.0 0.0 0.0 
0.0 0.0 0.0 
0.0 0.0 0.0 
0.0 0.0 0.0 
0.0 0.0 0.0 
0.0 0.0 0.0 
0.0 0.0 0.0 
0.0 0.0 0.0 
0.0 0.0 0.0 
0.0 0.0 0.0 
0.0 0.0 0.0 
0.0 0.0 0.0 
0.0 0.0 0.0 
0.0 0.0 0.0 
0.0 0.0 0.0 
0.0 0.0 0.0 
0.0 0.0 0.0 
0.0 0.0 0.0 
0.0 0.0 0.0 
0.0 0.0 0.0 
0.0 0.0 0.0 
0.0 0.0 0.0 
0.0 0.0 0.0 
0.0 0.0 0.0 
0.0 0.0 0.0 
0.0 0.0 0.0 
0.0 0.0 0.0 
0.0 0.0 0.0 
0.0 0.0 0.0 
0.0 0.0 0.0 
0.0 0.0 0.0 
0.0 0.0 0.0 
0.0 0.0 0.0 
0.0 0.0 0.0 
0.0 0.0 0.0 
0.0 0.0 0.0 
0.0 0.0 0.0 
0.0 0.0 0.0 
0.0 0.0 0.0 
0.0 0.0 0.0 
0.0 0.0 0.0 
0.0 0.0 0.0 
0.0 0.0 0.0 
0.0 0.0 0.0 
0.0 0.0 0.0 
0.0 0.0 0.0 
0.0 0.0 0.0 
0.0 0.0 0.0 
0.0 0.0 0.0 
0.0 0.0 0.0 
0.0 0.0 0.0 
0.0 0.0 0.0 
0.0 0.0 0.0 
0.0 0.0 0.0 
0.0 0.0 0.0 
0.0 0.0 0.0 
0.0 0.0 0.0 
0.0 0.0 0.0 
0.0 0.0 0.0 
0.0 0.0 0.0 
0.0 0.0 0.0 
0.0 0.0 0.0 
0.0 0.0 0.0 
0.0 0.0 0.0 
0.0 0.0 0.0 
0.0 0.0 0.0 
0.0 0.0 0.0 
0.0 0.0 0.0 
0.0 0.0 0.0 
0.0 0.0 0.0 
0.0 0.0 0.0 
0.0 0.0 0.0 
0.0 0.0 0.0 
0.0 0.0 0.0 
0.0 0.0 0.0 
0.0 0.0 0.0 
0.0 0.0 0.0 
0.0 0.0 0.0 
0.0 0.0 0.0 
0.0 0.0 0.0 
0.0 0.0 0.0 
0.0 0.0 0.0 
0.0 0.0 0.0 
0.0 0.0 0.0 
0.0 0.0 0.0 
0.0 0.0 0.0 
0.0 0.0 0.0 
0.0 0.0 0.0 
0.0 0.0 0.0 
0.0 0.0 0.0 
0.0 0.0 0.0 
0.0 0.0 0.0 
0.0 0.0 0.0 
0.0 0.0 0.0 
0.0 0.0 0.0 
0.0 0.0 0.0 
0.0 0.0 0.0 
0.0 0.0 0.0 
0.0 0.0 0.0 
0.0 0.0 0.0 
0.0 0.0 0.0 
0.0 0.0 0.0 
0.0 0.0 0.0 
0.0 0.0 0.0 
0.0 0.0 0.0 
0.0 0.0 0.0 
0.0 0.0 0.0 
0.0 0.0 0.0 
0.0 0.0 0.0 
0.0 0.0 0.0 
0.0 0.0 0.0 
0.0 0.0 0.0 
0.0 0.0 0.0 
0.0 0.0 0.0 
0.0 0.0 0.0 
0.0 0.0 0.0 
0.0 0.0 0.0 
0.0 0.0 0.0 
0.0 0.0 0.0 
0.0 0.0 0.0 
0.0 0.0 0.0 
0.0 0.0 0.0 
0.0 0.0 0.0 
0.0 0.0 0.0 
0.0 0.0 0.0 
0.0 0.0 0.0 
0.0 0.0 0.0 
0.0 0.0 0.0 
0.0 0.0 0.0 
0.0 0.0 0.0 
0.0 0.0 0.0 
0.0 0.0 0.0 
0.0 0.0 0.0 
0.0 0.0 0.0 
0.0 0.0 0.0 
0.0 0.0 0.0 
0.0 0.0 0.0 
0.0 0.0 0.0 
0.0 0.0 0.0 
0.0 0.0 0.0 
0.0 0.0 0.0 
0.0 0.0 0.0 
0.0 0.0 0.0 
0.0 0.0 0.0 
0.0 0.0 0.0 
0.0 0.0 0.0 
0.0 0.0 0.0 
0.0 0.0 0.0 
0.0 0.0 0.0 
0.0 0.0 0.0 
0.0 0.0 0.0 
0.0 0.0 0.0 
0.0 0.0 0.0 
0.0 0.0 0.0 
0.0 0.0 0.0 
0.0 0.0 0.0 
0.0 0.0 0.0 
0.0 0.0 0.0 
0.0 0.0 0.0 
0.0 0.0 0.0 
0.0 0.0 0.0 
0.0 0.0 0.0 
0.0 0.0 0.0 
0.0 0.0 0.0 
0.0 0.0 0.0 
0.0 0.0 0.0 
0.0 0.0 0.0 
0.0 0.0 0.0 
0.0 0.0 0.0 
0.0 0.0 0.0 
0.0 0.0 0.0 
0.0 0.0 0.0 
0.0 0.0 0.0 
0.0 0.0 0.0 
0.0 0.0 0.0 
0.0 0.0 0.0 
0.0 0.0 0.0 
0.0 0.0 0.0 
0.0 0.0 0.0 
0.0 0.0 0.0 
0.0 0.0 0.0 
0.0 0.0 0.0 
0.0 0.0 0.0 
0.0 0.0 0.0 
0.0 0.0 0.0 
0.0 0.0 0.0 
0.0 0.0 0.0 
0.0 0.0 0.0 
0.0 0.0 0.0 
0.0 0.0 0.0 
0.0 0.0 0.0 
0.0 0.0 0.0 
0.0 0.0 0.0 
0.0 0.0 0.0 
0.0 0.0 0.0 
0.0 0.0 0.0 
0.0 0.0 0.0 
0.0 0.0 0.0 
0.0 0.0 0.0 
0.0 0.0 0.0 
0.0 0.0 0.0 
0.0 0.0 0.0 
0.0 0.0 0.0 
0.0 0.0 0.0 
0.0 0.0 0.0 
0.0 0.0 0.0 
0.0 0.0 0.0 
0.0 0.0 0.0 
0.0 0.0 0.0 
0.0 0.0 0.0 
0.0 0.0 0.0 
0.0 0.0 0.0 
0.0 0.0 0.0 
0.0 0.0 0.0 
0.0 0.0 0.0 
0.0 0.0 0.0 
0.0 0.0 0.0 
0.0 0.0 0.0 
0.0 0.0 0.0 
0.0 0.0 0.0 
0.0 0.0 0.0 
0.0 0.0 0.0 
0.0 0.0 0.0 
0.0 0.0 0.0 
0.0 0.0 0.0 
0.0 0.0 0.0 
0.0 0.0 0.0 
0.0 0.0 0.0 
0.0 0.0 0.0 
0.0 0.0 0.0 
0.0 0.0 0.0 
0.0 0.0 0.0 
0.0 0.0 0.0 
0.0 0.0 0.0 
0.0 0.0 0.0 
0.0 0.0 0.0 
0.0 0.0 0.0 
0.0 0.0 0.0 
0.0 0.0 0.0 
0.0 0.0 0.0 
0.0 0.0 0.0 
0.0 0.0 0.0 
0.0 0.0 0.0 
0.0 0.0 0.0 
0.0 0.0 0.0 
0.0 0.0 0.0 
0.0 0.0 0.0 
0.0 0.0 0.0 
0.0 0.0 0.0 
0.0 0.0 0.0 
0.0 0.0 0.0 
0.0 0.0 0.0 
0.0 0.0 0.0 
0.0 0.0 0.0 
0.0 0.0 0.0 
0.0 0.0 0.0 
0.0 0.0 0.0 
0.0 0.0 0.0 
0.0 0.0 0.0 
0.0 0.0 0.0 
0.0 0.0 0.0 
0.0 0.0 0.0 
0.0 0.0 0.0 
0.0 0.0 0.0 
0.0 0.0 0.0 
0.0 0.0 0.0 
0.0 0.0 0.0 
0.0 0.0 0.0 
0.0 0.0 0.0 
0.0 0.0 0.0 
0.0 0.0 0.0 
0.0 0.0 0.0 
0.0 0.0 0.0 
0.0 0.0 0.0 
0.0 0.0 0.0 
0.0 0.0 0.0 
0.0 0.0 0.0 
0.0 0.0 0.0 
0.0 0.0 0.0 
0.0 0.0 0.0 
0.0 0.0 0.0 
0.0 0.0 0.0 
0.0 0.0 0.0 
0.0 0.0 0.0 
0.0 0.0 0.0 
0.0 0.0 0.0 
0.0 0.0 0.0 
0.0 0.0 0.0 
0.0 0.0 0.0 
0.0 0.0 0.0 
0.0 0.0 0.0 
0.0 0.0 0.0 
0.0 0.0 0.0 
0.0 0.0 0.0 
0.0 0.0 0.0 
0.0 0.0 0.0 
0.0 0.0 0.0 
0.0 0.0 0.0 
0.0 0.0 0.0 
0.0 0.0 0.0 
0.0 0.0 0.0 
0.0 0.0 0.0 
0.0 0.0 0.0 
0.0 0.0 0.0 
0.0 0.0 0.0 
0.0 0.0 0.0 
0.0 0.0 0.0 
0.0 0.0 0.0 
0.0 0.0 0.0 
0.0 0.0 0.0 
0.0 0.0 0.0 
0.0 0.0 0.0 
0.0 0.0 0.0 
0.0 0.0 0.0 
0.0 0.0 0.0 
0.0 0.0 0.0 
0.0 0.0 0.0 
0.0 0.0 0.0 
0.0 0.0 0.0 
0.0 0.0 0.0 
0.0 0.0 0.0 
0.0 0.0 0.0 
0.0 0.0 0.0 
0.0 0.0 0.0 
0.0 0.0 0.0 
0.0 0.0 0.0 
0.0 0.0 0.0 
0.0 0.0 0.0 
0.0 0.0 0.0 
0.0 0.0 0.0 
0.0 0.0 0.0 
0.0 0.0 0.0 
0.0 0.0 0.0 
0.0 0.0 0.0 
0.0 0.0 0.0 
0.0 0.0 0.0 
0.0 0.0 0.0 
0.0 0.0 0.0 
0.0 0.0 0.0 
0.0 0.0 0.0 
0.0 0.0 0.0 
0.0 0.0 0.0 
0.0 0.0 0.0 
0.0 0.0 0.0 
0.0 0.0 0.0 
0.0 0.0 0.0 
0.0 0.0 0.0 
0.0 0.0 0.0 
0.0 0.0 0.0 
0.0 0.0 0.0 
0.0 0.0 0.0 
0.0 0.0 0.0 
0.0 0.0 0.0 
0.0 0.0 0.0 
0.0 0.0 0.0 
0.0 0.0 0.0 
0.0 0.0 0.0 
0.0 0.0 0.0 
0.0 0.0 0.0 
0.0 0.0 0.0 
0.0 0.0 0.0 
0.0 0.0 0.0 
0.0 0.0 0.0 
0.0 0.0 0.0 
0.0 0.0 0.0 
0.0 0.0 0.0 
0.0 0.0 0.0 
0.0 0.0 0.0 
0.0 0.0 0.0 
0.0 0.0 0.0 
0.0 0.0 0.0 
0.0 0.0 0.0 
0.0 0.0 0.0 
0.0 0.0 0.0 
0.0 0.0 0.0 
0.0 0.0 0.0 
0.0 0.0 0.0 
0.0 0.0 0.0 
0.0 0.0 0.0 
0.0 0.0 0.0 
0.0 0.0 0.0 
0.0 0.0 0.0 
0.0 0.0 0.0 
0.0 0.0 0.0 
0.0 0.0 0.0 
0.0 0.0 0.0 
0.0 0.0 0.0 
0.0 0.0 0.0 
0.0 0.0 0.0 
0.0 0.0 0.0 
0.0 0.0 0.0 
0.0 0.0 0.0 
0.0 0.0 0.0 
0.0 0.0 0.0 
0.0 0.0 0.0 
0.0 0.0 0.0 
0.0 0.0 0.0 
0.0 0.0 0.0 
0.0 0.0 0.0 
0.0 0.0 0.0 
0.0 0.0 0.0 
0.0 0.0 0.0 
0.0 0.0 0.0 
0.0 0.0 0.0 
0.0 0.0 0.0 
0.0 0.0 0.0 
0.0 0.0 0.0 
0.0 0.0 0.0 
0.0 0.0 0.0 
0.0 0.0 0.0 
0.0 0.0 0.0 
0.0 0.0 0.0 
0.0 0.0 0.0 
0.0 0.0 0.0 
0.0 0.0 0.0 
0.0 0.0 0.0 
0.0 0.0 0.0 
0.0 0.0 0.0 
0.0 0.0 0.0 
0.0 0.0 0.0 
0.0 0.0 0.0 
0.0 0.0 0.0 
0.0 0.0 0.0 
0.0 0.0 0.0 
0.0 0.0 0.0 
0.0 0.0 0.0 
0.0 0.0 0.0 
0.0 0.0 0.0 
0.0 0.0 0.0 
0.0 0.0 0.0 
0.0 0.0 0.0 
0.0 0.0 0.0 
0.0 0.0 0.0 
0.0 0.0 0.0 
0.0 0.0 0.0 
0.0 0.0 0.0 
0.0 0.0 0.0 
0.0 0.0 0.0 
0.0 0.0 0.0 
0.0 0.0 0.0 
0.0 0.0 0.0 
0.0 0.0 0.0 
0.0 0.0 0.0 
0.0 0.0 0.0 
0.0 0.0 0.0 
0.0 0.0 0.0 
0.0 0.0 0.0 
0.0 0.0 0.0 
0.0 0.0 0.0 
0.0 0.0 0.0 
0.0 0.0 0.0 
0.0 0.0 0.0 
0.0 0.0 0.0 
0.0 0.0 0.0 
0.0 0.0 0.0 
0.0 0.0 0.0 
0.0 0.0 0.0 
0.0 0.0 0.0 
0.0 0.0 0.0 
0.0 0.0 0.0 
0.0 0.0 0.0 
0.0 0.0 0.0 
0.0 0.0 0.0 
0.0 0.0 0.0 
0.0 0.0 0.0 
0.0 0.0 0.0 
0.0 0.0 0.0 
0.0 0.0 0.0 
0.0 0.0 0.0 
0.0 0.0 0.0 
0.0 0.0 0.0 
0.0 0.0 0.0 
0.0 0.0 0.0 
0.0 0.0 0.0 
0.0 0.0 0.0 
0.0 0.0 0.0 
0.0 0.0 0.0 
0.0 0.0 0.0 
0.0 0.0 0.0 
0.0 0.0 0.0 
0.0 0.0 0.0 
0.0 0.0 0.0 
0.0 0.0 0.0 
0.0 0.0 0.0 
0.0 0.0 0.0 
0.0 0.0 0.0 
0.0 0.0 0.0 
0.0 0.0 0.0 
0.0 0.0 0.0 
0.0 0.0 0.0 
0.0 0.0 0.0 
0.0 0.0 0.0 
0.0 0.0 0.0 
0.0 0.0 0.0 
0.0 0.0 0.0 
0.0 0.0 0.0 
0.0 0.0 0.0 
0.0 0.0 0.0 
0.0 0.0 0.0 
0.0 0.0 0.0 
0.0 0.0 0.0 
0.0 0.0 0.0 
0.0 0.0 0.0 
0.0 0.0 0.0 
0.0 0.0 0.0 
0.0 0.0 0.0 
0.0 0.0 0.0 
0.0 0.0 0.0 
0.0 0.0 0.0 
0.0 0.0 0.0 
0.0 0.0 0.0 
0.0 0.0 0.0 
0.0 0.0 0.0 
0.0 0.0 0.0 
0.0 0.0 0.0 
0.0 0.0 0.0 
0.0 0.0 0.0 
0.0 0.0 0.0 
0.0 0.0 0.0 
0.0 0.0 0.0 
0.0 0.0 0.0 
0.0 0.0 0.0 
0.0 0.0 0.0 
0.0 0.0 0.0 
0.0 0.0 0.0 
0.0 0.0 0.0 
0.0 0.0 0.0 
0.0 0.0 0.0 
0.0 0.0 0.0 
0.0 0.0 0.0 
0.0 0.0 0.0 
0.0 0.0 0.0 
0.0 0.0 0.0 
0.0 0.0 0.0 
0.0 0.0 0.0 
0.0 0.0 0.0 
0.0 0.0 0.0 
0.0 0.0 0.0 
0.0 0.0 0.0 
0.0 0.0 0.0 
0.0 0.0 0.0 
0.0 0.0 0.0 
0.0 0.0 0.0 
0.0 0.0 0.0 
0.0 0.0 0.0 
0.0 0.0 0.0 
0.0 0.0 0.0 
0.0 0.0 0.0 
0.0 0.0 0.0 
0.0 0.0 0.0 
0.0 0.0 0.0 
0.0 0.0 0.0 
0.0 0.0 0.0 
0.0 0.0 0.0 
0.0 0.0 0.0 
0.0 0.0 0.0 
0.0 0.0 0.0 
0.0 0.0 0.0 
0.0 0.0 0.0 
0.0 0.0 0.0 
0.0 0.0 0.0 
0.0 0.0 0.0 
0.0 0.0 0.0 
0.0 0.0 0.0 
0.0 0.0 0.0 
0.0 0.0 0.0 
0.0 0.0 0.0 
0.0 0.0 0.0 
0.0 0.0 0.0 
0.0 0.0 0.0 
0.0 0.0 0.0 
0.0 0.0 0.0 
0.0 0.0 0.0 
0.0 0.0 0.0 
0.0 0.0 0.0 
0.0 0.0 0.0 
0.0 0.0 0.0 
0.0 0.0 0.0 
0.0 0.0 0.0 
0.0 0.0 0.0 
0.0 0.0 0.0 
0.0 0.0 0.0 
0.0 0.0 0.0 
0.0 0.0 0.0 
0.0 0.0 0.0 
0.0 0.0 0.0 
0.0 0.0 0.0 
0.0 0.0 0.0 
0.0 0.0 0.0 
0.0 0.0 0.0 
0.0 0.0 0.0 
0.0 0.0 0.0 
0.0 0.0 0.0 
0.0 0.0 0.0 
0.0 0.0 0.0 
0.0 0.0 0.0 
0.0 0.0 0.0 
0.0 0.0 0.0 
0.0 0.0 0.0 
0.0 0.0 0.0 
0.0 0.0 0.0 
0.0 0.0 0.0 
0.0 0.0 0.0 
0.0 0.0 0.0 
0.0 0.0 0.0 
0.0 0.0 0.0 
0.0 0.0 0.0 
0.0 0.0 0.0 
0.0 0.0 0.0 
0.0 0.0 0.0 
0.0 0.0 0.0 
0.0 0.0 0.0 
0.0 0.0 0.0 
0.0 0.0 0.0 
0.0 0.0 0.0 
0.0 0.0 0.0 
0.0 0.0 0.0 
0.0 0.0 0.0 
0.0 0.0 0.0 
0.0 0.0 0.0 
0.0 0.0 0.0 
0.0 0.0 0.0 
0.0 0.0 0.0 
0.0 0.0 0.0 
0.0 0.0 0.0 
0.0 0.0 0.0 
0.0 0.0 0.0 
0.0 0.0 0.0 
0.0 0.0 0.0 
0.0 0.0 0.0 
0.0 0.0 0.0 
0.0 0.0 0.0 
0.0 0.0 0.0 
0.0 0.0 0.0 
0.0 0.0 0.0 
0.0 0.0 0.0 
0.0 0.0 0.0 
0.0 0.0 0.0 
0.0 0.0 0.0 
0.0 0.0 0.0 
0.0 0.0 0.0 
0.0 0.0 0.0 
0.0 0.0 0.0 
0.0 0.0 0.0 
0.0 0.0 0.0 
0.0 0.0 0.0 
0.0 0.0 0.0 
0.0 0.0 0.0 
0.0 0.0 0.0 
0.0 0.0 0.0 
0.0 0.0 0.0 
0.0 0.0 0.0 
0.0 0.0 0.0 
0.0 0.0 0.0 
0.0 0.0 0.0 
0.0 0.0 0.0 
0.0 0.0 0.0 
0.0 0.0 0.0 
0.0 0.0 0.0 
0.0 0.0 0.0 
0.0 0.0 0.0 
0.0 0.0 0.0 
0.0 0.0 0.0 
0.0 0.0 0.0 
0.0 0.0 0.0 
0.0 0.0 0.0 
0.0 0.0 0.0 
0.0 0.0 0.0 
0.0 0.0 0.0 
0.0 0.0 0.0 
0.0 0.0 0.0 
0.0 0.0 0.0 
0.0 0.0 0.0 
0.0 0.0 0.0 
0.0 0.0 0.0 
0.0 0.0 0.0 
0.0 0.0 0.0 
0.0 0.0 0.0 
0.0 0.0 0.0 
0.0 0.0 0.0 
0.0 0.0 0.0 
0.0 0.0 0.0 
0.0 0.0 0.0 
0.0 0.0 0.0 
0.0 0.0 0.0 
0.0 0.0 0.0 
0.0 0.0 0.0 
0.0 0.0 0.0 
0.0 0.0 0.0 
0.0 0.0 0.0 
0.0 0.0 0.0 
0.0 0.0 0.0 
0.0 0.0 0.0 
0.0 0.0 0.0 
0.0 0.0 0.0 
0.0 0.0 0.0 
0.0 0.0 0.0 
0.0 0.0 0.0 
0.0 0.0 0.0 
0.0 0.0 0.0 
0.0 0.0 0.0 
0.0 0.0 0.0 
0.0 0.0 0.0 
0.0 0.0 0.0 
0.0 0.0 0.0 
0.0 0.0 0.0 
0.0 0.0 0.0 
0.0 0.0 0.0 
0.0 0.0 0.0 
0.0 0.0 0.0 
0.0 0.0 0.0 
0.0 0.0 0.0 
0.0 0.0 0.0 
0.0 0.0 0.0 
0.0 0.0 0.0 
0.0 0.0 0.0 
0.0 0.0 0.0 
0.0 0.0 0.0 
0.0 0.0 0.0 
0.0 0.0 0.0 
0.0 0.0 0.0 
0.0 0.0 0.0 
0.0 0.0 0.0 
0.0 0.0 0.0 
0.0 0.0 0.0 
0.0 0.0 0.0 
0.0 0.0 0.0 
0.0 0.0 0.0 
0.0 0.0 0.0 
0.0 0.0 0.0 
0.0 0.0 0.0 
0.0 0.0 0.0 
0.0 0.0 0.0 
0.0 0.0 0.0 
0.0 0.0 0.0 
0.0 0.0 0.0 
0.0 0.0 0.0 
0.0 0.0 0.0 
0.0 0.0 0.0 
0.0 0.0 0.0 
0.0 0.0 0.0 
0.0 0.0 0.0 
0.0 0.0 0.0 
0.0 0.0 0.0 
0.0 0.0 0.0 
0.0 0.0 0.0 
0.0 0.0 0.0 
0.0 0.0 0.0 
0.0 0.0 0.0 
0.0 0.0 0.0 
0.0 0.0 0.0 
0.0 0.0 0.0 
0.0 0.0 0.0 
0.0 0.0 0.0 
0.0 0.0 0.0 
0.0 0.0 0.0 
0.0 0.0 0.0 
0.0 0.0 0.0 
0.0 0.0 0.0 
0.0 0.0 0.0 
0.0 0.0 0.0 
0.0 0.0 0.0 
0.0 0.0 0.0 
0.0 0.0 0.0 
0.0 0.0 0.0 
0.0 0.0 0.0 
0.0 0.0 0.0 
0.0 0.0 0.0 
0.0 0.0 0.0 
0.0 0.0 0.0 
0.0 0.0 0.0 
0.0 0.0 0.0 
0.0 0.0 0.0 
0.0 0.0 0.0 
0.0 0.0 0.0 
0.0 0.0 0.0 
0.0 0.0 0.0 
0.0 0.0 0.0 
0.0 0.0 0.0 
0.0 0.0 0.0 
0.0 0.0 0.0 
0.0 0.0 0.0 
0.0 0.0 0.0 
0.0 0.0 0.0 
0.0 0.0 0.0 
0.0 0.0 0.0 
0.0 0.0 0.0 
0.0 0.0 0.0 
0.0 0.0 0.0 
0.0 0.0 0.0 
0.0 0.0 0.0 
0.0 0.0 0.0 
0.0 0.0 0.0 
0.0 0.0 0.0 
0.0 0.0 0.0 
0.0 0.0 0.0 
0.0 0.0 0.0 
0.0 0.0 0.0 
0.0 0.0 0.0 
0.0 0.0 0.0 
0.0 0.0 0.0 
0.0 0.0 0.0 
0.0 0.0 0.0 
0.0 0.0 0.0 
0.0 0.0 0.0 
0.0 0.0 0.0 
0.0 0.0 0.0 
0.0 0.0 0.0 
0.0 0.0 0.0 
0.0 0.0 0.0 
0.0 0.0 0.0 
0.0 0.0 0.0 
0.0 0.0 0.0 
0.0 0.0 0.0 
0.0 0.0 0.0 
0.0 0.0 0.0 
0.0 0.0 0.0 
0.0 0.0 0.0 
0.0 0.0 0.0 
0.0 0.0 0.0 
0.0 0.0 0.0 
0.0 0.0 0.0 
0.0 0.0 0.0 
0.0 0.0 0.0 
0.0 0.0 0.0 
0.0 0.0 0.0 
0.0 0.0 0.0 
0.0 0.0 0.0 
0.0 0.0 0.0 
0.0 0.0 0.0 
0.0 0.0 0.0 
0.0 0.0 0.0 
0.0 0.0 0.0 
0.0 0.0 0.0 
0.0 0.0 0.0 
0.0 0.0 0.0 
0.0 0.0 0.0 
0.0 0.0 0.0 
0.0 0.0 0.0 
0.0 0.0 0.0 
0.0 0.0 0.0 
0.0 0.0 0.0 
0.0 0.0 0.0 
0.0 0.0 0.0 
0.0 0.0 0.0 
0.0 0.0 0.0 
0.0 0.0 0.0 
0.0 0.0 0.0 
0.0 0.0 0.0 
0.0 0.0 0.0 
0.0 0.0 0.0 
0.0 0.0 0.0 
0.0 0.0 0.0 
0.0 0.0 0.0 
0.0 0.0 0.0 
0.0 0.0 0.0 
0.0 0.0 0.0 
0.0 0.0 0.0 
0.0 0.0 0.0 
0.0 0.0 0.0 
0.0 0.0 0.0 
0.0 0.0 0.0 
0.0 0.0 0.0 
0.0 0.0 0.0 
0.0 0.0 0.0 
0.0 0.0 0.0 
0.0 0.0 0.0 
0.0 0.0 0.0 
0.0 0.0 0.0 
0.0 0.0 0.0 
0.0 0.0 0.0 
0.0 0.0 0.0 
0.0 0.0 0.0 
0.0 0.0 0.0 
0.0 0.0 0.0 
0.0 0.0 0.0 
0.0 0.0 0.0 
0.0 0.0 0.0 
0.0 0.0 0.0 
0.0 0.0 0.0 
0.0 0.0 0.0 
0.0 0.0 0.0 
0.0 0.0 0.0 
0.0 0.0 0.0 
0.0 0.0 0.0 
0.0 0.0 0.0 
0.0 0.0 0.0 
0.0 0.0 0.0 
0.0 0.0 0.0 
0.0 0.0 0.0 
0.0 0.0 0.0 
0.0 0.0 0.0 
0.0 0.0 0.0 
0.0 0.0 0.0 
0.0 0.0 0.0 
0.0 0.0 0.0 
0.0 0.0 0.0 
0.0 0.0 0.0 
0.0 0.0 0.0 
0.0 0.0 0.0 
0.0 0.0 0.0 
0.0 0.0 0.0 
0.0 0.0 0.0 
0.0 0.0 0.0 
0.0 0.0 0.0 
0.0 0.0 0.0 
0.0 0.0 0.0 
0.0 0.0 0.0 
0.0 0.0 0.0 
0.0 0.0 0.0 
0.0 0.0 0.0 
0.0 0.0 0.0 
0.0 0.0 0.0 
0.0 0.0 0.0 
0.0 0.0 0.0 
0.0 0.0 0.0 
0.0 0.0 0.0 
0.0 0.0 0.0 
0.0 0.0 0.0 
0.0 0.0 0.0 
0.0 0.0 0.0 
0.0 0.0 0.0 
0.0 0.0 0.0 
0.0 0.0 0.0 
0.0 0.0 0.0 
0.0 0.0 0.0 
0.0 0.0 0.0 
0.0 0.0 0.0 
0.0 0.0 0.0 
0.0 0.0 0.0 
0.0 0.0 0.0 
0.0 0.0 0.0 
0.0 0.0 0.0 
0.0 0.0 0.0 
0.0 0.0 0.0 
0.0 0.0 0.0 
0.0 0.0 0.0 
0.0 0.0 0.0 
0.0 0.0 0.0 
0.0 0.0 0.0 
0.0 0.0 0.0 
0.0 0.0 0.0 
0.0 0.0 0.0 
0.0 0.0 0.0 
0.0 0.0 0.0 
0.0 0.0 0.0 
0.0 0.0 0.0 
0.0 0.0 0.0 
0.0 0.0 0.0 
0.0 0.0 0.0 
0.0 0.0 0.0 
0.0 0.0 0.0 
0.0 0.0 0.0 
0.0 0.0 0.0 
0.0 0.0 0.0 
0.0 0.0 0.0 
0.0 0.0 0.0 
0.0 0.0 0.0 
0.0 0.0 0.0 
0.0 0.0 0.0 
0.0 0.0 0.0 
0.0 0.0 0.0 
0.0 0.0 0.0 
0.0 0.0 0.0 
0.0 0.0 0.0 
0.0 0.0 0.0 
0.0 0.0 0.0 
0.0 0.0 0.0 
0.0 0.0 0.0 
0.0 0.0 0.0 
0.0 0.0 0.0 
0.0 0.0 0.0 
0.0 0.0 0.0 
0.0 0.0 0.0 
0.0 0.0 0.0 
0.0 0.0 0.0 
0.0 0.0 0.0 
0.0 0.0 0.0 
0.0 0.0 0.0 
0.0 0.0 0.0 
0.0 0.0 0.0 
0.0 0.0 0.0 
0.0 0.0 0.0 
0.0 0.0 0.0 
0.0 0.0 0.0 
0.0 0.0 0.0 
0.0 0.0 0.0 
0.0 0.0 0.0 
0.0 0.0 0.0 
0.0 0.0 0.0 
0.0 0.0 0.0 
0.0 0.0 0.0 
0.0 0.0 0.0 
0.0 0.0 0.0 
0.0 0.0 0.0 
0.0 0.0 0.0 
0.0 0.0 0.0 
0.0 0.0 0.0 
0.0 0.0 0.0 
0.0 0.0 0.0 
0.0 0.0 0.0 
0.0 0.0 0.0 
0.0 0.0 0.0 
0.0 0.0 0.0 
0.0 0.0 0.0 
0.0 0.0 0.0 
0.0 0.0 0.0 
0.0 0.0 0.0 
0.0 0.0 0.0 
0.0 0.0 0.0 
0.0 0.0 0.0 
0.0 0.0 0.0 
0.0 0.0 0.0 
0.0 0.0 0.0 
0.0 0.0 0.0 
0.0 0.0 0.0 
0.0 0.0 0.0 
0.0 0.0 0.0 
0.0 0.0 0.0 
0.0 0.0 0.0 
0.0 0.0 0.0 
0.0 0.0 0.0 
0.0 0.0 0.0 
0.0 0.0 0.0 
0.0 0.0 0.0 
0.0 0.0 0.0 
0.0 0.0 0.0 
0.0 0.0 0.0 
0.0 0.0 0.0 
0.0 0.0 0.0 
0.0 0.0 0.0 
0.0 0.0 0.0 
0.0 0.0 0.0 
0.0 0.0 0.0 
0.0 0.0 0.0 
0.0 0.0 0.0 
0.0 0.0 0.0 
0.0 0.0 0.0 
0.0 0.0 0.0 
0.0 0.0 0.0 
0.0 0.0 0.0 
0.0 0.0 0.0 
0.0 0.0 0.0 
0.0 0.0 0.0 
0.0 0.0 0.0 
0.0 0.0 0.0 
0.0 0.0 0.0 
0.0 0.0 0.0 
0.0 0.0 0.0 
0.0 0.0 0.0 
0.0 0.0 0.0 
0.0 0.0 0.0 
0.0 0.0 0.0 
0.0 0.0 0.0 
0.0 0.0 0.0 
0.0 0.0 0.0 
0.0 0.0 0.0 
0.0 0.0 0.0 
0.0 0.0 0.0 
0.0 0.0 0.0 
0.0 0.0 0.0 
0.0 0.0 0.0 
0.0 0.0 0.0 
0.0 0.0 0.0 
0.0 0.0 0.0 
0.0 0.0 0.0 
0.0 0.0 0.0 
0.0 0.0 0.0 
0.0 0.0 0.0 
0.0 0.0 0.0 
0.0 0.0 0.0 
0.0 0.0 0.0 
0.0 0.0 0.0 
0.0 0.0 0.0 
0.0 0.0 0.0 
0.0 0.0 0.0 
0.0 0.0 0.0 
0.0 0.0 0.0 
0.0 0.0 0.0 
0.0 0.0 0.0 
0.0 0.0 0.0 
0.0 0.0 0.0 
0.0 0.0 0.0 
0.0 0.0 0.0 
0.0 0.0 0.0 
0.0 0.0 0.0 
0.0 0.0 0.0 
0.0 0.0 0.0 
0.0 0.0 0.0 
0.0 0.0 0.0 
0.0 0.0 0.0 
0.0 0.0 0.0 
0.0 0.0 0.0 
0.0 0.0 0.0 
0.0 0.0 0.0 
0.0 0.0 0.0 
0.0 0.0 0.0 
0.0 0.0 0.0 
0.0 0.0 0.0 
0.0 0.0 0.0 
0.0 0.0 0.0 
0.0 0.0 0.0 
0.0 0.0 0.0 
0.0 0.0 0.0 
0.0 0.0 0.0 
0.0 0.0 0.0 
0.0 0.0 0.0 
0.0 0.0 0.0 
0.0 0.0 0.0 
0.0 0.0 0.0 
0.0 0.0 0.0 
0.0 0.0 0.0 
0.0 0.0 0.0 
0.0 0.0 0.0 
0.0 0.0 0.0 
0.0 0.0 0.0 
0.0 0.0 0.0 
0.0 0.0 0.0 
0.0 0.0 0.0 
0.0 0.0 0.0 
0.0 0.0 0.0 
0.0 0.0 0.0 
0.0 0.0 0.0 
0.0 0.0 0.0 
0.0 0.0 0.0 
0.0 0.0 0.0 
0.0 0.0 0.0 
0.0 0.0 0.0 
0.0 0.0 0.0 
0.0 0.0 0.0 
0.0 0.0 0.0 
0.0 0.0 0.0 
0.0 0.0 0.0 
0.0 0.0 0.0 
0.0 0.0 0.0 
0.0 0.0 0.0 
0.0 0.0 0.0 
0.0 0.0 0.0 
0.0 0.0 0.0 
0.0 0.0 0.0 
0.0 0.0 0.0 
0.0 0.0 0.0 
0.0 0.0 0.0 
0.0 0.0 0.0 
0.0 0.0 0.0 
0.0 0.0 0.0 
0.0 0.0 0.0 
0.0 0.0 0.0 
0.0 0.0 0.0 
0.0 0.0 0.0 
0.0 0.0 0.0 
0.0 0.0 0.0 
0.0 0.0 0.0 
0.0 0.0 0.0 
0.0 0.0 0.0 
0.0 0.0 0.0 
0.0 0.0 0.0 
0.0 0.0 0.0 
0.0 0.0 0.0 
0.0 0.0 0.0 
0.0 0.0 0.0 
0.0 0.0 0.0 
0.0 0.0 0.0 
0.0 0.0 0.0 
0.0 0.0 0.0 
0.0 0.0 0.0 
0.0 0.0 0.0 
0.0 0.0 0.0 
0.0 0.0 0.0 
0.0 0.0 0.0 
0.0 0.0 0.0 
0.0 0.0 0.0 
0.0 0.0 0.0 
0.0 0.0 0.0 
0.0 0.0 0.0 

SCALARS node_boundary float
LOOKUP_TABLE default
1.000000000000e+00 
1.000000000000e+00 
1.000000000000e+00 
1.000000000000e+00 
1.000000000000e+00 
1.000000000000e+00 
1.000000000000e+00 
1.000000000000e+00 
1.000000000000e+00 
1.000000000000e+00 
1.000000000000e+00 
1.000000000000e+00 
1.000000000000e+00 
1.000000000000e+00 
1.000000000000e+00 
1.000000000000e+00 
1.000000000000e+00 
1.000000000000e+00 
1.000000000000e+00 
1.000000000000e+00 
1.000000000000e+00 
1.000000000000e+00 
1.000000000000e+00 
1.000000000000e+00 
1.000000000000e+00 
1.000000000000e+00 
1.000000000000e+00 
1.000000000000e+00 
1.000000000000e+00 
1.000000000000e+00 
1.000000000000e+00 
1.000000000000e+00 
1.000000000000e+00 
1.000000000000e+00 
1.000000000000e+00 
1.000000000000e+00 
1.000000000000e+00 
1.000000000000e+00 
1.000000000000e+00 
1.000000000000e+00 
1.000000000000e+00 
1.000000000000e+00 
1.000000000000e+00 
1.000000000000e+00 
1.000000000000e+00 
1.000000000000e+00 
1.000000000000e+00 
1.000000000000e+00 
1.000000000000e+00 
1.000000000000e+00 
1.000000000000e+00 
1.000000000000e+00 
1.000000000000e+00 
1.000000000000e+00 
1.000000000000e+00 
1.000000000000e+00 
1.000000000000e+00 
1.000000000000e+00 
1.000000000000e+00 
1.000000000000e+00 
1.000000000000e+00 
1.000000000000e+00 
1.000000000000e+00 
1.000000000000e+00 
1.000000000000e+00 
1.000000000000e+00 
1.000000000000e+00 
1.000000000000e+00 
1.000000000000e+00 
1.000000000000e+00 
1.000000000000e+00 
1.000000000000e+00 
1.000000000000e+00 
1.000000000000e+00 
1.000000000000e+00 
1.000000000000e+00 
1.000000000000e+00 
1.000000000000e+00 
1.000000000000e+00 
1.000000000000e+00 
1.000000000000e+00 
1.000000000000e+00 
0.0
1.000000000000e+00 
0.0
0.0
0.0
0.0
0.0
0.0
0.0
0.0
1.000000000000e+00 
1.000000000000e+00 
1.000000000000e+00 
1.000000000000e+00 
1.000000000000e+00 
1.000000000000e+00 
1.000000000000e+00 
1.000000000000e+00 
1.000000000000e+00 
0.0
0.0
0.0
0.0
0.0
0.0
0.0
0.0
0.0
0.0
0.0
0.0
0.0
0.0
1.000000000000e+00 
1.000000000000e+00 
1.000000000000e+00 
1.000000000000e+00 
1.000000000000e+00 
1.000000000000e+00 
1.000000000000e+00 
1.000000000000e+00 
1.000000000000e+00 
1.000000000000e+00 
1.000000000000e+00 
1.000000000000e+00 
1.000000000000e+00 
1.000000000000e+00 
1.000000000000e+00 
1.000000000000e+00 
1.000000000000e+00 
1.000000000000e+00 
1.000000000000e+00 
1.000000000000e+00 
1.000000000000e+00 
1.000000000000e+00 
1.000000000000e+00 
1.000000000000e+00 
1.000000000000e+00 
1.000000000000e+00 
1.000000000000e+00 
1.000000000000e+00 
1.000000000000e+00 
1.000000000000e+00 
1.000000000000e+00 
1.000000000000e+00 
1.000000000000e+00 
1.000000000000e+00 
1.000000000000e+00 
1.000000000000e+00 
1.000000000000e+00 
1.000000000000e+00 
1.000000000000e+00 
1.000000000000e+00 
1.000000000000e+00 
1.000000000000e+00 
1.000000000000e+00 
1.000000000000e+00 
1.000000000000e+00 
1.000000000000e+00 
1.000000000000e+00 
0.0
0.0
0.0
0.0
0.0
0.0
0.0
0.0
0.0
0.0
0.0
0.0
0.0
0.0
0.0
0.0
0.0
0.0
0.0
0.0
0.0
0.0
0.0
0.0
0.0
0.0
0.0
0.0
0.0
0.0
0.0
0.0
0.0
0.0
0.0
0.0
0.0
0.0
0.0
0.0
0.0
0.0
0.0
0.0
0.0
0.0
0.0
0.0
0.0
0.0
0.0
0.0
0.0
0.0
0.0
0.0
0.0
0.0
0.0
0.0
0.0
0.0
0.0
0.0
0.0
0.0
0.0
0.0
0.0
0.0
0.0
0.0
0.0
0.0
0.0
0.0
0.0
0.0
0.0
0.0
0.0
0.0
0.0
0.0
0.0
0.0
0.0
0.0
0.0
0.0
0.0
0.0
0.0
0.0
0.0
0.0
0.0
0.0
0.0
0.0
0.0
0.0
0.0
0.0
0.0
0.0
0.0
0.0
0.0
0.0
0.0
0.0
0.0
0.0
0.0
0.0
0.0
0.0
0.0
0.0
0.0
0.0
0.0
0.0
0.0
0.0
0.0
0.0
0.0
0.0
0.0
0.0
0.0
0.0
0.0
0.0
0.0
0.0
0.0
0.0
0.0
0.0
0.0
0.0
0.0
0.0
0.0
0.0
0.0
0.0
0.0
0.0
0.0
0.0
0.0
0.0
0.0
0.0
0.0
0.0
0.0
0.0
0.0
0.0
0.0
0.0
0.0
0.0
1.000000000000e+00 
0.0
0.0
0.0
0.0
0.0
0.0
0.0
0.0
0.0
0.0
0.0
0.0
0.0
0.0
0.0
0.0
0.0
0.0
0.0
0.0
0.0
0.0
0.0
0.0
0.0
0.0
0.0
0.0
0.0
0.0
0.0
0.0
0.0
0.0
0.0
0.0
0.0
0.0
0.0
0.0
0.0
0.0
0.0
0.0
0.0
0.0
0.0
0.0
0.0
0.0
0.0
0.0
0.0
0.0
0.0
0.0
0.0
0.0
0.0
0.0
0.0
0.0
0.0
0.0
0.0
0.0
0.0
0.0
0.0
0.0
0.0
0.0
0.0
0.0
0.0
0.0
0.0
0.0
0.0
0.0
0.0
0.0
0.0
0.0
0.0
0.0
0.0
0.0
0.0
0.0
0.0
0.0
0.0
0.0
0.0
0.0
0.0
0.0
0.0
0.0
0.0
0.0
0.0
0.0
0.0
0.0
0.0
0.0
0.0
0.0
0.0
0.0
0.0
0.0
0.0
0.0
0.0
0.0
0.0
0.0
0.0
0.0
0.0
0.0
0.0
0.0
0.0
0.0
0.0
0.0
0.0
0.0
0.0
0.0
0.0
0.0
0.0
0.0
0.0
0.0
0.0
0.0
0.0
0.0
0.0
0.0
0.0
0.0
0.0
0.0
0.0
0.0
0.0
0.0
0.0
0.0
0.0
0.0
0.0
0.0
0.0
0.0
0.0
0.0
0.0
0.0
0.0
0.0
0.0
0.0
0.0
0.0
0.0
0.0
0.0
0.0
0.0
0.0
0.0
0.0
0.0
0.0
0.0
0.0
0.0
0.0
0.0
0.0
0.0
0.0
0.0
0.0
0.0
0.0
0.0
0.0
0.0
0.0
0.0
0.0
0.0
0.0
0.0
0.0
0.0
0.0
0.0
0.0
0.0
0.0
0.0
0.0
0.0
0.0
0.0
0.0
0.0
0.0
0.0
0.0
0.0
0.0
0.0
0.0
0.0
0.0
0.0
0.0
0.0
0.0
0.0
0.0
0.0
0.0
0.0
0.0
0.0
0.0
0.0
0.0
0.0
0.0
0.0
0.0
0.0
0.0
0.0
0.0
0.0
0.0
0.0
0.0
0.0
0.0
0.0
0.0
0.0
0.0
0.0
0.0
0.0
0.0
0.0
0.0
0.0
0.0
0.0
0.0
0.0
0.0
0.0
0.0
0.0
0.0
0.0
0.0
0.0
0.0
0.0
0.0
0.0
0.0
0.0
0.0
0.0
0.0
0.0
0.0
0.0
0.0
0.0
0.0
0.0
0.0
0.0
0.0
0.0
0.0
0.0
0.0
0.0
0.0
0.0
0.0
0.0
0.0
0.0
0.0
0.0
0.0
0.0
0.0
0.0
0.0
0.0
0.0
0.0
0.0
0.0
0.0
0.0
0.0
0.0
0.0
0.0
0.0
0.0
0.0
0.0
0.0
0.0
0.0
0.0
0.0
0.0
0.0
0.0
0.0
0.0
0.0
0.0
0.0
0.0
0.0
0.0
0.0
0.0
0.0
0.0
0.0
0.0
0.0
0.0
0.0
0.0
0.0
0.0
0.0
0.0
0.0
0.0
0.0
0.0
0.0
0.0
0.0
0.0
0.0
0.0
0.0
0.0
0.0
0.0
0.0
0.0
0.0
0.0
0.0
0.0
0.0
0.0
0.0
0.0
0.0
0.0
0.0
0.0
0.0
0.0
0.0
0.0
0.0
0.0
0.0
0.0
0.0
0.0
0.0
0.0
0.0
0.0
0.0
0.0
0.0
0.0
0.0
0.0
0.0
0.0
0.0
0.0
0.0
0.0
0.0
0.0
0.0
0.0
0.0
0.0
0.0
0.0
0.0
0.0
0.0
0.0
0.0
0.0
0.0
0.0
0.0
0.0
0.0
0.0
0.0
0.0
0.0
0.0
0.0
0.0
0.0
0.0
0.0
0.0
0.0
0.0
0.0
0.0
0.0
0.0
0.0
0.0
0.0
0.0
0.0
0.0
0.0
0.0
0.0
0.0
0.0
0.0
0.0
0.0
0.0
0.0
0.0
0.0
0.0
0.0
0.0
0.0
0.0
0.0
0.0
0.0
0.0
0.0
0.0
0.0
0.0
0.0
0.0
0.0
0.0
0.0
0.0
0.0
0.0
0.0
0.0
0.0
0.0
0.0
0.0
0.0
0.0
0.0
0.0
0.0
0.0
0.0
0.0
0.0
0.0
0.0
0.0
0.0
0.0
0.0
0.0
0.0
0.0
0.0
0.0
0.0
0.0
0.0
0.0
0.0
0.0
0.0
0.0
0.0
0.0
0.0
0.0
0.0
0.0
0.0
0.0
0.0
0.0
0.0
0.0
0.0
0.0
0.0
0.0
0.0
0.0
0.0
0.0
0.0
0.0
0.0
0.0
0.0
0.0
0.0
0.0
0.0
0.0
0.0
0.0
0.0
0.0
0.0
0.0
0.0
0.0
0.0
0.0
0.0
0.0
0.0
0.0
0.0
0.0
0.0
0.0
0.0
0.0
0.0
0.0
0.0
0.0
0.0
0.0
0.0
0.0
0.0
0.0
0.0
0.0
0.0
0.0
0.0
0.0
0.0
0.0
0.0
0.0
0.0
0.0
0.0
0.0
0.0
0.0
0.0
0.0
0.0
0.0
0.0
0.0
0.0
0.0
0.0
0.0
0.0
0.0
0.0
0.0
0.0
0.0
0.0
0.0
0.0
0.0
0.0
0.0
0.0
0.0
0.0
0.0
0.0
0.0
0.0
0.0
0.0
0.0
0.0
0.0
0.0
0.0
0.0
0.0
0.0
0.0
0.0
0.0
0.0
0.0
0.0
0.0
0.0
0.0
0.0
0.0
0.0
0.0
0.0
0.0
0.0
0.0
0.0
0.0
0.0
0.0
0.0
0.0
0.0
0.0
0.0
0.0
0.0
0.0
0.0
0.0
0.0
0.0
0.0
0.0
0.0
0.0
0.0
0.0
0.0
0.0
0.0
0.0
0.0
0.0
0.0
0.0
0.0
0.0
0.0
0.0
0.0
0.0
0.0
0.0
0.0
0.0
0.0
0.0
0.0
0.0
0.0
0.0
0.0
0.0
0.0
0.0
0.0
0.0
0.0
0.0
0.0
0.0
0.0
0.0
0.0
0.0
0.0
0.0
0.0
0.0
0.0
0.0
0.0
0.0
0.0
0.0
0.0
0.0
0.0
0.0
0.0
0.0
0.0
0.0
0.0
0.0
0.0
0.0
0.0
0.0
0.0
0.0
0.0
0.0
0.0
0.0
0.0
0.0
0.0
0.0
0.0
0.0
0.0
0.0
0.0
0.0
0.0
0.0
0.0
0.0
0.0
0.0
0.0
0.0
0.0
0.0
0.0
0.0
0.0
0.0
0.0
0.0
0.0
0.0
0.0
0.0
0.0
0.0
0.0
0.0
0.0
0.0
0.0
0.0
0.0
0.0
0.0
0.0
0.0
0.0
0.0
0.0
0.0
0.0
0.0
0.0
0.0
0.0
0.0
0.0
0.0
0.0
0.0
0.0
0.0
0.0
0.0
0.0
0.0
0.0
0.0
0.0
0.0
0.0
0.0
0.0
0.0
0.0
0.0
0.0
0.0
0.0
0.0
0.0
0.0
0.0
0.0
0.0
0.0
0.0
0.0
0.0
0.0
0.0
0.0
0.0
0.0
0.0
0.0
0.0
0.0
0.0
0.0
0.0
0.0
0.0
0.0
0.0
0.0
0.0
0.0
0.0
0.0
0.0
0.0
0.0
0.0
0.0
0.0
0.0
0.0
0.0
0.0
0.0
0.0
0.0
0.0
0.0
0.0
0.0
0.0
0.0
0.0
0.0
0.0
0.0
0.0
0.0
0.0
0.0
0.0
0.0
0.0
0.0
0.0
0.0
0.0
0.0
0.0
0.0
0.0
0.0
0.0
0.0
0.0
0.0
0.0
0.0
0.0
0.0
0.0
0.0
0.0
0.0
0.0
0.0
0.0
0.0
0.0
0.0
0.0
0.0
0.0
0.0
0.0
0.0
0.0
0.0
0.0
0.0
0.0
0.0

VECTORS node_force_edge float
0.0 0.0 0.0 
0.0 0.0 0.0 
0.0 0.0 0.0 
0.0 0.0 0.0 
0.0 0.0 0.0 
0.0 0.0 0.0 
0.0 0.0 0.0 
0.0 0.0 0.0 
0.0 0.0 0.0 
0.0 0.0 0.0 
0.0 0.0 0.0 
0.0 0.0 0.0 
0.0 0.0 0.0 
0.0 0.0 0.0 
0.0 0.0 0.0 
0.0 0.0 0.0 
0.0 0.0 0.0 
0.0 0.0 0.0 
0.0 0.0 0.0 
0.0 0.0 0.0 
0.0 0.0 0.0 
0.0 0.0 0.0 
0.0 0.0 0.0 
0.0 0.0 0.0 
0.0 0.0 0.0 
0.0 0.0 0.0 
0.0 0.0 0.0 
0.0 0.0 0.0 
0.0 0.0 0.0 
0.0 0.0 0.0 
0.0 0.0 0.0 
0.0 0.0 0.0 
0.0 0.0 0.0 
0.0 0.0 0.0 
0.0 0.0 0.0 
0.0 0.0 0.0 
0.0 0.0 0.0 
0.0 0.0 0.0 
0.0 0.0 0.0 
0.0 0.0 0.0 
0.0 0.0 0.0 
0.0 0.0 0.0 
0.0 0.0 0.0 
0.0 0.0 0.0 
0.0 0.0 0.0 
0.0 0.0 0.0 
0.0 0.0 0.0 
0.0 0.0 0.0 
0.0 0.0 0.0 
0.0 0.0 0.0 
0.0 0.0 0.0 
0.0 0.0 0.0 
0.0 0.0 0.0 
0.0 0.0 0.0 
0.0 0.0 0.0 
0.0 0.0 0.0 
0.0 0.0 0.0 
0.0 0.0 0.0 
0.0 0.0 0.0 
0.0 0.0 0.0 
0.0 0.0 0.0 
0.0 0.0 0.0 
0.0 0.0 0.0 
0.0 0.0 0.0 
0.0 0.0 0.0 
0.0 0.0 0.0 
0.0 0.0 0.0 
0.0 0.0 0.0 
0.0 0.0 0.0 
0.0 0.0 0.0 
0.0 0.0 0.0 
0.0 0.0 0.0 
0.0 0.0 0.0 
0.0 0.0 0.0 
0.0 0.0 0.0 
0.0 0.0 0.0 
0.0 0.0 0.0 
0.0 0.0 0.0 
0.0 0.0 0.0 
0.0 0.0 0.0 
0.0 0.0 0.0 
0.0 -1.000000000000e+02 0.0 
0.0 0.0 0.0 
0.0 0.0 0.0 
0.0 0.0 0.0 
0.0 0.0 0.0 
0.0 0.0 0.0 
0.0 0.0 0.0 
0.0 0.0 0.0 
0.0 0.0 0.0 
0.0 0.0 0.0 
0.0 0.0 0.0 
0.0 0.0 0.0 
0.0 0.0 0.0 
0.0 0.0 0.0 
0.0 0.0 0.0 
0.0 0.0 0.0 
0.0 0.0 0.0 
0.0 0.0 0.0 
0.0 0.0 0.0 
0.0 0.0 0.0 
0.0 0.0 0.0 
0.0 0.0 0.0 
0.0 0.0 0.0 
0.0 0.0 0.0 
0.0 0.0 0.0 
0.0 0.0 0.0 
0.0 0.0 0.0 
0.0 0.0 0.0 
0.0 0.0 0.0 
0.0 0.0 0.0 
0.0 0.0 0.0 
0.0 0.0 0.0 
0.0 0.0 0.0 
0.0 0.0 0.0 
0.0 -1.000000000000e+02 0.0 
0.0 -1.000000000000e+02 0.0 
0.0 -1.000000000000e+02 0.0 
0.0 -1.000000000000e+02 0.0 
0.0 -1.000000000000e+02 0.0 
0.0 0.0 0.0 
0.0 0.0 0.0 
0.0 0.0 0.0 
0.0 0.0 0.0 
0.0 0.0 0.0 
0.0 0.0 0.0 
0.0 0.0 0.0 
0.0 0.0 0.0 
0.0 0.0 0.0 
0.0 0.0 0.0 
0.0 0.0 0.0 
0.0 0.0 0.0 
0.0 0.0 0.0 
0.0 0.0 0.0 
0.0 0.0 0.0 
0.0 0.0 0.0 
0.0 0.0 0.0 
0.0 0.0 0.0 
0.0 0.0 0.0 
0.0 0.0 0.0 
0.0 0.0 0.0 
0.0 0.0 0.0 
0.0 0.0 0.0 
0.0 0.0 0.0 
0.0 0.0 0.0 
0.0 0.0 0.0 
0.0 0.0 0.0 
0.0 0.0 0.0 
0.0 0.0 0.0 
0.0 0.0 0.0 
0.0 0.0 0.0 
0.0 0.0 0.0 
0.0 0.0 0.0 
0.0 0.0 0.0 
0.0 0.0 0.0 
0.0 0.0 0.0 
0.0 0.0 0.0 
0.0 0.0 0.0 
0.0 0.0 0.0 
0.0 0.0 0.0 
0.0 0.0 0.0 
0.0 0.0 0.0 
0.0 0.0 0.0 
0.0 0.0 0.0 
0.0 0.0 0.0 
0.0 0.0 0.0 
0.0 0.0 0.0 
0.0 0.0 0.0 
0.0 0.0 0.0 
0.0 0.0 0.0 
0.0 0.0 0.0 
0.0 0.0 0.0 
0.0 0.0 0.0 
0.0 0.0 0.0 
0.0 0.0 0.0 
0.0 0.0 0.0 
0.0 0.0 0.0 
0.0 0.0 0.0 
0.0 0.0 0.0 
0.0 0.0 0.0 
0.0 0.0 0.0 
0.0 0.0 0.0 
0.0 0.0 0.0 
0.0 0.0 0.0 
0.0 0.0 0.0 
0.0 0.0 0.0 
0.0 0.0 0.0 
0.0 0.0 0.0 
0.0 0.0 0.0 
0.0 0.0 0.0 
0.0 0.0 0.0 
0.0 0.0 0.0 
0.0 0.0 0.0 
0.0 0.0 0.0 
0.0 0.0 0.0 
0.0 0.0 0.0 
0.0 0.0 0.0 
0.0 0.0 0.0 
0.0 0.0 0.0 
0.0 0.0 0.0 
0.0 0.0 0.0 
0.0 0.0 0.0 
0.0 0.0 0.0 
0.0 0.0 0.0 
0.0 0.0 0.0 
0.0 0.0 0.0 
0.0 0.0 0.0 
0.0 0.0 0.0 
0.0 0.0 0.0 
0.0 0.0 0.0 
0.0 0.0 0.0 
0.0 0.0 0.0 
0.0 0.0 0.0 
0.0 0.0 0.0 
0.0 0.0 0.0 
0.0 0.0 0.0 
0.0 0.0 0.0 
0.0 0.0 0.0 
0.0 0.0 0.0 
0.0 0.0 0.0 
0.0 0.0 0.0 
0.0 0.0 0.0 
0.0 0.0 0.0 
0.0 0.0 0.0 
0.0 0.0 0.0 
0.0 0.0 0.0 
0.0 0.0 0.0 
0.0 0.0 0.0 
0.0 0.0 0.0 
0.0 0.0 0.0 
0.0 0.0 0.0 
0.0 0.0 0.0 
0.0 0.0 0.0 
0.0 0.0 0.0 
0.0 0.0 0.0 
0.0 0.0 0.0 
0.0 0.0 0.0 
0.0 0.0 0.0 
0.0 0.0 0.0 
0.0 0.0 0.0 
0.0 0.0 0.0 
0.0 0.0 0.0 
0.0 0.0 0.0 
0.0 0.0 0.0 
0.0 0.0 0.0 
0.0 0.0 0.0 
0.0 0.0 0.0 
0.0 0.0 0.0 
0.0 0.0 0.0 
0.0 0.0 0.0 
0.0 0.0 0.0 
0.0 0.0 0.0 
0.0 0.0 0.0 
0.0 0.0 0.0 
0.0 0.0 0.0 
0.0 0.0 0.0 
0.0 0.0 0.0 
0.0 0.0 0.0 
0.0 0.0 0.0 
0.0 0.0 0.0 
0.0 0.0 0.0 
0.0 0.0 0.0 
0.0 0.0 0.0 
0.0 0.0 0.0 
0.0 0.0 0.0 
0.0 0.0 0.0 
0.0 0.0 0.0 
0.0 0.0 0.0 
0.0 0.0 0.0 
0.0 0.0 0.0 
0.0 0.0 0.0 
0.0 0.0 0.0 
0.0 0.0 0.0 
0.0 0.0 0.0 
0.0 0.0 0.0 
0.0 0.0 0.0 
0.0 0.0 0.0 
0.0 0.0 0.0 
0.0 0.0 0.0 
0.0 0.0 0.0 
0.0 0.0 0.0 
0.0 0.0 0.0 
0.0 0.0 0.0 
0.0 0.0 0.0 
0.0 0.0 0.0 
0.0 0.0 0.0 
0.0 0.0 0.0 
0.0 0.0 0.0 
0.0 0.0 0.0 
0.0 0.0 0.0 
0.0 0.0 0.0 
0.0 0.0 0.0 
0.0 0.0 0.0 
0.0 0.0 0.0 
0.0 0.0 0.0 
0.0 0.0 0.0 
0.0 0.0 0.0 
0.0 0.0 0.0 
0.0 0.0 0.0 
0.0 0.0 0.0 
0.0 0.0 0.0 
0.0 0.0 0.0 
0.0 0.0 0.0 
0.0 0.0 0.0 
0.0 0.0 0.0 
0.0 0.0 0.0 
0.0 0.0 0.0 
0.0 0.0 0.0 
0.0 0.0 0.0 
0.0 0.0 0.0 
0.0 0.0 0.0 
0.0 0.0 0.0 
0.0 0.0 0.0 
0.0 0.0 0.0 
0.0 0.0 0.0 
0.0 0.0 0.0 
0.0 0.0 0.0 
0.0 0.0 0.0 
0.0 0.0 0.0 
0.0 0.0 0.0 
0.0 0.0 0.0 
0.0 0.0 0.0 
0.0 0.0 0.0 
0.0 0.0 0.0 
0.0 0.0 0.0 
0.0 0.0 0.0 
0.0 0.0 0.0 
0.0 0.0 0.0 
0.0 0.0 0.0 
0.0 0.0 0.0 
0.0 0.0 0.0 
0.0 0.0 0.0 
0.0 0.0 0.0 
0.0 0.0 0.0 
0.0 0.0 0.0 
0.0 0.0 0.0 
0.0 0.0 0.0 
0.0 0.0 0.0 
0.0 0.0 0.0 
0.0 0.0 0.0 
0.0 0.0 0.0 
0.0 0.0 0.0 
0.0 0.0 0.0 
0.0 0.0 0.0 
0.0 0.0 0.0 
0.0 0.0 0.0 
0.0 0.0 0.0 
0.0 0.0 0.0 
0.0 0.0 0.0 
0.0 0.0 0.0 
0.0 0.0 0.0 
0.0 0.0 0.0 
0.0 0.0 0.0 
0.0 0.0 0.0 
0.0 0.0 0.0 
0.0 0.0 0.0 
0.0 0.0 0.0 
0.0 0.0 0.0 
0.0 0.0 0.0 
0.0 0.0 0.0 
0.0 0.0 0.0 
0.0 0.0 0.0 
0.0 0.0 0.0 
0.0 0.0 0.0 
0.0 0.0 0.0 
0.0 0.0 0.0 
0.0 0.0 0.0 
0.0 0.0 0.0 
0.0 0.0 0.0 
0.0 0.0 0.0 
0.0 0.0 0.0 
0.0 0.0 0.0 
0.0 0.0 0.0 
0.0 0.0 0.0 
0.0 0.0 0.0 
0.0 0.0 0.0 
0.0 0.0 0.0 
0.0 0.0 0.0 
0.0 0.0 0.0 
0.0 0.0 0.0 
0.0 0.0 0.0 
0.0 0.0 0.0 
0.0 0.0 0.0 
0.0 0.0 0.0 
0.0 0.0 0.0 
0.0 0.0 0.0 
0.0 0.0 0.0 
0.0 0.0 0.0 
0.0 0.0 0.0 
0.0 0.0 0.0 
0.0 0.0 0.0 
0.0 0.0 0.0 
0.0 0.0 0.0 
0.0 0.0 0.0 
0.0 0.0 0.0 
0.0 0.0 0.0 
0.0 0.0 0.0 
0.0 0.0 0.0 
0.0 0.0 0.0 
0.0 0.0 0.0 
0.0 0.0 0.0 
0.0 0.0 0.0 
0.0 0.0 0.0 
0.0 0.0 0.0 
0.0 0.0 0.0 
0.0 0.0 0.0 
0.0 0.0 0.0 
0.0 0.0 0.0 
0.0 0.0 0.0 
0.0 0.0 0.0 
0.0 0.0 0.0 
0.0 0.0 0.0 
0.0 0.0 0.0 
0.0 0.0 0.0 
0.0 0.0 0.0 
0.0 0.0 0.0 
0.0 0.0 0.0 
0.0 0.0 0.0 
0.0 0.0 0.0 
0.0 0.0 0.0 
0.0 0.0 0.0 
0.0 0.0 0.0 
0.0 0.0 0.0 
0.0 0.0 0.0 
0.0 0.0 0.0 
0.0 0.0 0.0 
0.0 0.0 0.0 
0.0 0.0 0.0 
0.0 0.0 0.0 
0.0 0.0 0.0 
0.0 0.0 0.0 
0.0 0.0 0.0 
0.0 0.0 0.0 
0.0 0.0 0.0 
0.0 0.0 0.0 
0.0 0.0 0.0 
0.0 0.0 0.0 
0.0 0.0 0.0 
0.0 0.0 0.0 
0.0 0.0 0.0 
0.0 0.0 0.0 
0.0 0.0 0.0 
0.0 0.0 0.0 
0.0 0.0 0.0 
0.0 0.0 0.0 
0.0 0.0 0.0 
0.0 0.0 0.0 
0.0 0.0 0.0 
0.0 0.0 0.0 
0.0 0.0 0.0 
0.0 0.0 0.0 
0.0 0.0 0.0 
0.0 0.0 0.0 
0.0 0.0 0.0 
0.0 0.0 0.0 
0.0 0.0 0.0 
0.0 0.0 0.0 
0.0 0.0 0.0 
0.0 0.0 0.0 
0.0 0.0 0.0 
0.0 0.0 0.0 
0.0 0.0 0.0 
0.0 0.0 0.0 
0.0 0.0 0.0 
0.0 0.0 0.0 
0.0 0.0 0.0 
0.0 0.0 0.0 
0.0 0.0 0.0 
0.0 0.0 0.0 
0.0 0.0 0.0 
0.0 0.0 0.0 
0.0 0.0 0.0 
0.0 0.0 0.0 
0.0 0.0 0.0 
0.0 0.0 0.0 
0.0 0.0 0.0 
0.0 0.0 0.0 
0.0 0.0 0.0 
0.0 0.0 0.0 
0.0 0.0 0.0 
0.0 0.0 0.0 
0.0 0.0 0.0 
0.0 0.0 0.0 
0.0 0.0 0.0 
0.0 0.0 0.0 
0.0 0.0 0.0 
0.0 0.0 0.0 
0.0 0.0 0.0 
0.0 0.0 0.0 
0.0 0.0 0.0 
0.0 0.0 0.0 
0.0 0.0 0.0 
0.0 0.0 0.0 
0.0 0.0 0.0 
0.0 0.0 0.0 
0.0 0.0 0.0 
0.0 0.0 0.0 
0.0 0.0 0.0 
0.0 0.0 0.0 
0.0 0.0 0.0 
0.0 0.0 0.0 
0.0 0.0 0.0 
0.0 0.0 0.0 
0.0 0.0 0.0 
0.0 0.0 0.0 
0.0 0.0 0.0 
0.0 0.0 0.0 
0.0 0.0 0.0 
0.0 0.0 0.0 
0.0 0.0 0.0 
0.0 0.0 0.0 
0.0 0.0 0.0 
0.0 0.0 0.0 
0.0 0.0 0.0 
0.0 0.0 0.0 
0.0 0.0 0.0 
0.0 0.0 0.0 
0.0 0.0 0.0 
0.0 0.0 0.0 
0.0 0.0 0.0 
0.0 0.0 0.0 
0.0 0.0 0.0 
0.0 0.0 0.0 
0.0 0.0 0.0 
0.0 0.0 0.0 
0.0 0.0 0.0 
0.0 0.0 0.0 
0.0 0.0 0.0 
0.0 0.0 0.0 
0.0 0.0 0.0 
0.0 0.0 0.0 
0.0 0.0 0.0 
0.0 0.0 0.0 
0.0 0.0 0.0 
0.0 0.0 0.0 
0.0 0.0 0.0 
0.0 0.0 0.0 
0.0 0.0 0.0 
0.0 0.0 0.0 
0.0 0.0 0.0 
0.0 0.0 0.0 
0.0 0.0 0.0 
0.0 0.0 0.0 
0.0 0.0 0.0 
0.0 0.0 0.0 
0.0 0.0 0.0 
0.0 0.0 0.0 
0.0 0.0 0.0 
0.0 0.0 0.0 
0.0 0.0 0.0 
0.0 0.0 0.0 
0.0 0.0 0.0 
0.0 0.0 0.0 
0.0 0.0 0.0 
0.0 0.0 0.0 
0.0 0.0 0.0 
0.0 0.0 0.0 
0.0 0.0 0.0 
0.0 0.0 0.0 
0.0 0.0 0.0 
0.0 0.0 0.0 
0.0 0.0 0.0 
0.0 0.0 0.0 
0.0 0.0 0.0 
0.0 0.0 0.0 
0.0 0.0 0.0 
0.0 0.0 0.0 
0.0 0.0 0.0 
0.0 0.0 0.0 
0.0 0.0 0.0 
0.0 0.0 0.0 
0.0 0.0 0.0 
0.0 0.0 0.0 
0.0 0.0 0.0 
0.0 0.0 0.0 
0.0 0.0 0.0 
0.0 0.0 0.0 
0.0 0.0 0.0 
0.0 0.0 0.0 
0.0 0.0 0.0 
0.0 0.0 0.0 
0.0 0.0 0.0 
0.0 0.0 0.0 
0.0 0.0 0.0 
0.0 0.0 0.0 
0.0 0.0 0.0 
0.0 0.0 0.0 
0.0 0.0 0.0 
0.0 0.0 0.0 
0.0 0.0 0.0 
0.0 0.0 0.0 
0.0 0.0 0.0 
0.0 0.0 0.0 
0.0 0.0 0.0 
0.0 0.0 0.0 
0.0 0.0 0.0 
0.0 0.0 0.0 
0.0 0.0 0.0 
0.0 0.0 0.0 
0.0 0.0 0.0 
0.0 0.0 0.0 
0.0 0.0 0.0 
0.0 0.0 0.0 
0.0 0.0 0.0 
0.0 0.0 0.0 
0.0 0.0 0.0 
0.0 0.0 0.0 
0.0 0.0 0.0 
0.0 0.0 0.0 
0.0 0.0 0.0 
0.0 0.0 0.0 
0.0 0.0 0.0 
0.0 0.0 0.0 
0.0 0.0 0.0 
0.0 0.0 0.0 
0.0 0.0 0.0 
0.0 0.0 0.0 
0.0 0.0 0.0 
0.0 0.0 0.0 
0.0 0.0 0.0 
0.0 0.0 0.0 
0.0 0.0 0.0 
0.0 0.0 0.0 
0.0 0.0 0.0 
0.0 0.0 0.0 
0.0 0.0 0.0 
0.0 0.0 0.0 
0.0 0.0 0.0 
0.0 0.0 0.0 
0.0 0.0 0.0 
0.0 0.0 0.0 
0.0 0.0 0.0 
0.0 0.0 0.0 
0.0 0.0 0.0 
0.0 0.0 0.0 
0.0 0.0 0.0 
0.0 0.0 0.0 
0.0 0.0 0.0 
0.0 0.0 0.0 
0.0 0.0 0.0 
0.0 0.0 0.0 
0.0 0.0 0.0 
0.0 0.0 0.0 
0.0 0.0 0.0 
0.0 0.0 0.0 
0.0 0.0 0.0 
0.0 0.0 0.0 
0.0 0.0 0.0 
0.0 0.0 0.0 
0.0 0.0 0.0 
0.0 0.0 0.0 
0.0 0.0 0.0 
0.0 0.0 0.0 
0.0 0.0 0.0 
0.0 0.0 0.0 
0.0 0.0 0.0 
0.0 0.0 0.0 
0.0 0.0 0.0 
0.0 0.0 0.0 
0.0 0.0 0.0 
0.0 0.0 0.0 
0.0 0.0 0.0 
0.0 0.0 0.0 
0.0 0.0 0.0 
0.0 0.0 0.0 
0.0 0.0 0.0 
0.0 0.0 0.0 
0.0 0.0 0.0 
0.0 0.0 0.0 
0.0 0.0 0.0 
0.0 0.0 0.0 
0.0 0.0 0.0 
0.0 0.0 0.0 
0.0 0.0 0.0 
0.0 0.0 0.0 
0.0 0.0 0.0 
0.0 0.0 0.0 
0.0 0.0 0.0 
0.0 0.0 0.0 
0.0 0.0 0.0 
0.0 0.0 0.0 
0.0 0.0 0.0 
0.0 0.0 0.0 
0.0 0.0 0.0 
0.0 0.0 0.0 
0.0 0.0 0.0 
0.0 0.0 0.0 
0.0 0.0 0.0 
0.0 0.0 0.0 
0.0 0.0 0.0 
0.0 0.0 0.0 
0.0 0.0 0.0 
0.0 0.0 0.0 
0.0 0.0 0.0 
0.0 0.0 0.0 
0.0 0.0 0.0 
0.0 0.0 0.0 
0.0 0.0 0.0 
0.0 0.0 0.0 
0.0 0.0 0.0 
0.0 0.0 0.0 
0.0 0.0 0.0 
0.0 0.0 0.0 
0.0 0.0 0.0 
0.0 0.0 0.0 
0.0 0.0 0.0 
0.0 0.0 0.0 
0.0 0.0 0.0 
0.0 0.0 0.0 
0.0 0.0 0.0 
0.0 0.0 0.0 
0.0 0.0 0.0 
0.0 0.0 0.0 
0.0 0.0 0.0 
0.0 0.0 0.0 
0.0 0.0 0.0 
0.0 0.0 0.0 
0.0 0.0 0.0 
0.0 0.0 0.0 
0.0 0.0 0.0 
0.0 0.0 0.0 
0.0 0.0 0.0 
0.0 0.0 0.0 
0.0 0.0 0.0 
0.0 0.0 0.0 
0.0 0.0 0.0 
0.0 0.0 0.0 
0.0 0.0 0.0 
0.0 0.0 0.0 
0.0 0.0 0.0 
0.0 0.0 0.0 
0.0 0.0 0.0 
0.0 0.0 0.0 
0.0 0.0 0.0 
0.0 0.0 0.0 
0.0 0.0 0.0 
0.0 0.0 0.0 
0.0 0.0 0.0 
0.0 0.0 0.0 
0.0 0.0 0.0 
0.0 0.0 0.0 
0.0 0.0 0.0 
0.0 0.0 0.0 
0.0 0.0 0.0 
0.0 0.0 0.0 
0.0 0.0 0.0 
0.0 0.0 0.0 
0.0 0.0 0.0 
0.0 0.0 0.0 
0.0 0.0 0.0 
0.0 0.0 0.0 
0.0 0.0 0.0 
0.0 0.0 0.0 
0.0 0.0 0.0 
0.0 0.0 0.0 
0.0 0.0 0.0 
0.0 0.0 0.0 
0.0 0.0 0.0 
0.0 0.0 0.0 
0.0 0.0 0.0 
0.0 0.0 0.0 
0.0 0.0 0.0 
0.0 0.0 0.0 
0.0 0.0 0.0 
0.0 0.0 0.0 
0.0 0.0 0.0 
0.0 0.0 0.0 
0.0 0.0 0.0 
0.0 0.0 0.0 
0.0 0.0 0.0 
0.0 0.0 0.0 
0.0 0.0 0.0 
0.0 0.0 0.0 
0.0 0.0 0.0 
0.0 0.0 0.0 
0.0 0.0 0.0 
0.0 0.0 0.0 
0.0 0.0 0.0 
0.0 0.0 0.0 
0.0 0.0 0.0 
0.0 0.0 0.0 
0.0 0.0 0.0 
0.0 0.0 0.0 
0.0 0.0 0.0 
0.0 0.0 0.0 
0.0 0.0 0.0 
0.0 0.0 0.0 
0.0 0.0 0.0 
0.0 0.0 0.0 
0.0 0.0 0.0 
0.0 0.0 0.0 
0.0 0.0 0.0 
0.0 0.0 0.0 
0.0 0.0 0.0 
0.0 0.0 0.0 
0.0 0.0 0.0 
0.0 0.0 0.0 
0.0 0.0 0.0 
0.0 0.0 0.0 
0.0 0.0 0.0 
0.0 0.0 0.0 
0.0 0.0 0.0 
0.0 0.0 0.0 
0.0 0.0 0.0 
0.0 0.0 0.0 
0.0 0.0 0.0 
0.0 0.0 0.0 
0.0 0.0 0.0 
0.0 0.0 0.0 
0.0 0.0 0.0 
0.0 0.0 0.0 
0.0 0.0 0.0 
0.0 0.0 0.0 
0.0 0.0 0.0 
0.0 0.0 0.0 
0.0 0.0 0.0 
0.0 0.0 0.0 
0.0 0.0 0.0 
0.0 0.0 0.0 
0.0 0.0 0.0 
0.0 0.0 0.0 
0.0 0.0 0.0 
0.0 0.0 0.0 
0.0 0.0 0.0 
0.0 0.0 0.0 
0.0 0.0 0.0 
0.0 0.0 0.0 
0.0 0.0 0.0 
0.0 0.0 0.0 
0.0 0.0 0.0 
0.0 0.0 0.0 
0.0 0.0 0.0 
0.0 0.0 0.0 
0.0 0.0 0.0 
0.0 0.0 0.0 
0.0 0.0 0.0 
0.0 0.0 0.0 
0.0 0.0 0.0 
0.0 0.0 0.0 
0.0 0.0 0.0 
0.0 0.0 0.0 
0.0 0.0 0.0 
0.0 0.0 0.0 
0.0 0.0 0.0 
0.0 0.0 0.0 
0.0 0.0 0.0 
0.0 0.0 0.0 
0.0 0.0 0.0 
0.0 0.0 0.0 
0.0 0.0 0.0 
0.0 0.0 0.0 
0.0 0.0 0.0 
0.0 0.0 0.0 
0.0 0.0 0.0 
0.0 0.0 0.0 
0.0 0.0 0.0 
0.0 0.0 0.0 
0.0 0.0 0.0 
0.0 0.0 0.0 
0.0 0.0 0.0 
0.0 0.0 0.0 
0.0 0.0 0.0 
0.0 0.0 0.0 
0.0 0.0 0.0 
0.0 0.0 0.0 
0.0 0.0 0.0 
0.0 0.0 0.0 
0.0 0.0 0.0 
0.0 0.0 0.0 
0.0 0.0 0.0 
0.0 0.0 0.0 
0.0 0.0 0.0 
0.0 0.0 0.0 
0.0 0.0 0.0 
0.0 0.0 0.0 
0.0 0.0 0.0 
0.0 0.0 0.0 
0.0 0.0 0.0 
0.0 0.0 0.0 
0.0 0.0 0.0 
0.0 0.0 0.0 
0.0 0.0 0.0 
0.0 0.0 0.0 
0.0 0.0 0.0 
0.0 0.0 0.0 
0.0 0.0 0.0 
0.0 0.0 0.0 
0.0 0.0 0.0 
0.0 0.0 0.0 
0.0 0.0 0.0 
0.0 0.0 0.0 
0.0 0.0 0.0 
0.0 0.0 0.0 
0.0 0.0 0.0 
0.0 0.0 0.0 
0.0 0.0 0.0 
0.0 0.0 0.0 
0.0 0.0 0.0 
0.0 0.0 0.0 
0.0 0.0 0.0 
0.0 0.0 0.0 
0.0 0.0 0.0 
0.0 0.0 0.0 
0.0 0.0 0.0 
0.0 0.0 0.0 
0.0 0.0 0.0 
0.0 0.0 0.0 
0.0 0.0 0.0 
0.0 0.0 0.0 
0.0 0.0 0.0 
0.0 0.0 0.0 
0.0 0.0 0.0 
0.0 0.0 0.0 
0.0 0.0 0.0 
0.0 0.0 0.0 
0.0 0.0 0.0 
0.0 0.0 0.0 
0.0 0.0 0.0 
0.0 0.0 0.0 
0.0 0.0 0.0 
0.0 0.0 0.0 
0.0 0.0 0.0 
0.0 0.0 0.0 
0.0 0.0 0.0 
0.0 0.0 0.0 
0.0 0.0 0.0 
0.0 0.0 0.0 
0.0 0.0 0.0 
0.0 0.0 0.0 
0.0 0.0 0.0 
0.0 0.0 0.0 
0.0 0.0 0.0 
0.0 0.0 0.0 
0.0 0.0 0.0 
0.0 0.0 0.0 
0.0 0.0 0.0 
0.0 0.0 0.0 
0.0 0.0 0.0 
0.0 0.0 0.0 
0.0 0.0 0.0 
0.0 0.0 0.0 
0.0 0.0 0.0 
0.0 0.0 0.0 
0.0 0.0 0.0 
0.0 0.0 0.0 
0.0 0.0 0.0 
0.0 0.0 0.0 
0.0 0.0 0.0 
0.0 0.0 0.0 
0.0 0.0 0.0 
0.0 0.0 0.0 
0.0 0.0 0.0 
0.0 0.0 0.0 
0.0 0.0 0.0 
0.0 0.0 0.0 
0.0 0.0 0.0 
0.0 0.0 0.0 
0.0 0.0 0.0 
0.0 0.0 0.0 
0.0 0.0 0.0 
0.0 0.0 0.0 
0.0 0.0 0.0 
0.0 0.0 0.0 
0.0 0.0 0.0 
0.0 0.0 0.0 
0.0 0.0 0.0 
0.0 0.0 0.0 
0.0 0.0 0.0 
0.0 0.0 0.0 
0.0 0.0 0.0 
0.0 0.0 0.0 
0.0 0.0 0.0 
0.0 0.0 0.0 
0.0 0.0 0.0 
0.0 0.0 0.0 
0.0 0.0 0.0 
0.0 0.0 0.0 
0.0 0.0 0.0 
0.0 0.0 0.0 
0.0 0.0 0.0 
0.0 0.0 0.0 
0.0 0.0 0.0 
0.0 0.0 0.0 
0.0 0.0 0.0 
0.0 0.0 0.0 
0.0 0.0 0.0 
0.0 0.0 0.0 
0.0 0.0 0.0 
0.0 0.0 0.0 
0.0 0.0 0.0 
0.0 0.0 0.0 
0.0 0.0 0.0 
0.0 0.0 0.0 
0.0 0.0 0.0 
0.0 0.0 0.0 
0.0 0.0 0.0 
0.0 0.0 0.0 
0.0 0.0 0.0 
0.0 0.0 0.0 
0.0 0.0 0.0 
0.0 0.0 0.0 
0.0 0.0 0.0 
0.0 0.0 0.0 
0.0 0.0 0.0 
0.0 0.0 0.0 
0.0 0.0 0.0 
0.0 0.0 0.0 
0.0 0.0 0.0 
0.0 0.0 0.0 
0.0 0.0 0.0 
0.0 0.0 0.0 
0.0 0.0 0.0 
0.0 0.0 0.0 
0.0 0.0 0.0 
0.0 0.0 0.0 
0.0 0.0 0.0 
0.0 0.0 0.0 
0.0 0.0 0.0 
0.0 0.0 0.0 
0.0 0.0 0.0 
0.0 0.0 0.0 
0.0 0.0 0.0 
0.0 0.0 0.0 
0.0 0.0 0.0 
0.0 0.0 0.0 
0.0 0.0 0.0 
0.0 0.0 0.0 
0.0 0.0 0.0 
0.0 0.0 0.0 
0.0 0.0 0.0 
0.0 0.0 0.0 
0.0 0.0 0.0 
0.0 0.0 0.0 
0.0 0.0 0.0 
0.0 0.0 0.0 
0.0 0.0 0.0 
0.0 0.0 0.0 
0.0 0.0 0.0 
0.0 0.0 0.0 
0.0 0.0 0.0 
0.0 0.0 0.0 
0.0 0.0 0.0 
0.0 0.0 0.0 
0.0 0.0 0.0 
0.0 0.0 0.0 
0.0 0.0 0.0 
0.0 0.0 0.0 
0.0 0.0 0.0 
0.0 0.0 0.0 
0.0 0.0 0.0 
0.0 0.0 0.0 
0.0 0.0 0.0 
0.0 0.0 0.0 
0.0 0.0 0.0 
0.0 0.0 0.0 
0.0 0.0 0.0 
0.0 0.0 0.0 
0.0 0.0 0.0 
0.0 0.0 0.0 
0.0 0.0 0.0 
0.0 0.0 0.0 
0.0 0.0 0.0 
0.0 0.0 0.0 
0.0 0.0 0.0 
0.0 0.0 0.0 
0.0 0.0 0.0 
0.0 0.0 0.0 
0.0 0.0 0.0 
0.0 0.0 0.0 
0.0 0.0 0.0 
0.0 0.0 0.0 
0.0 0.0 0.0 
0.0 0.0 0.0 
0.0 0.0 0.0 
0.0 0.0 0.0 
0.0 0.0 0.0 
0.0 0.0 0.0 
0.0 0.0 0.0 
0.0 0.0 0.0 
0.0 0.0 0.0 
0.0 0.0 0.0 
0.0 0.0 0.0 
0.0 0.0 0.0 
0.0 0.0 0.0 
0.0 0.0 0.0 
0.0 0.0 0.0 
0.0 0.0 0.0 
0.0 0.0 0.0 
0.0 0.0 0.0 
0.0 0.0 0.0 
0.0 0.0 0.0 
0.0 0.0 0.0 
0.0 0.0 0.0 
0.0 0.0 0.0 
0.0 0.0 0.0 
0.0 0.0 0.0 
0.0 0.0 0.0 
0.0 0.0 0.0 
0.0 0.0 0.0 
0.0 0.0 0.0 
0.0 0.0 0.0 
0.0 0.0 0.0 
0.0 0.0 0.0 
0.0 0.0 0.0 
0.0 0.0 0.0 
0.0 0.0 0.0 
0.0 0.0 0.0 
0.0 0.0 0.0 
0.0 0.0 0.0 
0.0 0.0 0.0 
0.0 0.0 0.0 
0.0 0.0 0.0 
0.0 0.0 0.0 
0.0 0.0 0.0 
0.0 0.0 0.0 
0.0 0.0 0.0 
0.0 0.0 0.0 
0.0 0.0 0.0 
0.0 0.0 0.0 
0.0 0.0 0.0 
0.0 0.0 0.0 
0.0 0.0 0.0 
0.0 0.0 0.0 
0.0 0.0 0.0 
0.0 0.0 0.0 
0.0 0.0 0.0 
0.0 0.0 0.0 
0.0 0.0 0.0 
0.0 0.0 0.0 
0.0 0.0 0.0 
0.0 0.0 0.0 
0.0 0.0 0.0 
0.0 0.0 0.0 
0.0 0.0 0.0 
0.0 0.0 0.0 
0.0 0.0 0.0 
0.0 0.0 0.0 
0.0 0.0 0.0 
0.0 0.0 0.0 
0.0 0.0 0.0 
0.0 0.0 0.0 
0.0 0.0 0.0 
0.0 0.0 0.0 
0.0 0.0 0.0 
0.0 0.0 0.0 
0.0 0.0 0.0 
0.0 0.0 0.0 
0.0 0.0 0.0 
0.0 0.0 0.0 
0.0 0.0 0.0 
0.0 0.0 0.0 
0.0 0.0 0.0 
0.0 0.0 0.0 
0.0 0.0 0.0 
0.0 0.0 0.0 
0.0 0.0 0.0 
0.0 0.0 0.0 
0.0 0.0 0.0 
0.0 0.0 0.0 
0.0 0.0 0.0 
0.0 0.0 0.0 
0.0 0.0 0.0 
0.0 0.0 0.0 
0.0 0.0 0.0 
0.0 0.0 0.0 
0.0 0.0 0.0 
0.0 0.0 0.0 
0.0 0.0 0.0 
0.0 0.0 0.0 
0.0 0.0 0.0 
0.0 0.0 0.0 
0.0 0.0 0.0 
0.0 0.0 0.0 
0.0 0.0 0.0 
0.0 0.0 0.0 
0.0 0.0 0.0 
0.0 0.0 0.0 
0.0 0.0 0.0 
0.0 0.0 0.0 
0.0 0.0 0.0 
0.0 0.0 0.0 
0.0 0.0 0.0 
0.0 0.0 0.0 
0.0 0.0 0.0 
0.0 0.0 0.0 
0.0 0.0 0.0 
0.0 0.0 0.0 
0.0 0.0 0.0 
0.0 0.0 0.0 
0.0 0.0 0.0 
0.0 0.0 0.0 
0.0 0.0 0.0 
0.0 0.0 0.0 
0.0 0.0 0.0 
0.0 0.0 0.0 
0.0 0.0 0.0 
0.0 0.0 0.0 
0.0 0.0 0.0 
0.0 0.0 0.0 
0.0 0.0 0.0 
0.0 0.0 0.0 
0.0 0.0 0.0 
0.0 0.0 0.0 
0.0 0.0 0.0 
0.0 0.0 0.0 
0.0 0.0 0.0 
0.0 0.0 0.0 
0.0 0.0 0.0 
0.0 0.0 0.0 
0.0 0.0 0.0 
0.0 0.0 0.0 
0.0 0.0 0.0 
0.0 0.0 0.0 
0.0 0.0 0.0 
0.0 0.0 0.0 
0.0 0.0 0.0 
0.0 0.0 0.0 
0.0 0.0 0.0 
0.0 0.0 0.0 
0.0 0.0 0.0 
0.0 0.0 0.0 
0.0 0.0 0.0 
0.0 0.0 0.0 
0.0 0.0 0.0 
0.0 0.0 0.0 
0.0 0.0 0.0 
0.0 0.0 0.0 
0.0 0.0 0.0 
0.0 0.0 0.0 
0.0 0.0 0.0 
0.0 0.0 0.0 
0.0 0.0 0.0 
0.0 0.0 0.0 
0.0 0.0 0.0 
0.0 0.0 0.0 
0.0 0.0 0.0 
0.0 0.0 0.0 
0.0 0.0 0.0 
0.0 0.0 0.0 
0.0 0.0 0.0 
0.0 0.0 0.0 
0.0 0.0 0.0 
0.0 0.0 0.0 
0.0 0.0 0.0 
0.0 0.0 0.0 
0.0 0.0 0.0 
0.0 0.0 0.0 
0.0 0.0 0.0 
0.0 0.0 0.0 
0.0 0.0 0.0 
0.0 0.0 0.0 

VECTORS node_force_gravity float
0.0 -1.962000000000e+01 0.0 
0.0 -1.962000000000e+01 0.0 
0.0 -1.962000000000e+01 0.0 
0.0 -1.962000000000e+01 0.0 
0.0 -1.962000000000e+01 0.0 
0.0 -1.962000000000e+01 0.0 
0.0 -1.962000000000e+01 0.0 
0.0 -1.962000000000e+01 0.0 
0.0 -1.962000000000e+01 0.0 
0.0 -1.962000000000e+01 0.0 
0.0 -1.962000000000e+01 0.0 
0.0 -1.962000000000e+01 0.0 
0.0 -1.962000000000e+01 0.0 
0.0 -1.962000000000e+01 0.0 
0.0 -1.962000000000e+01 0.0 
0.0 -1.962000000000e+01 0.0 
0.0 -1.962000000000e+01 0.0 
0.0 -1.962000000000e+01 0.0 
0.0 -1.962000000000e+01 0.0 
0.0 -1.962000000000e+01 0.0 
0.0 -1.962000000000e+01 0.0 
0.0 -1.962000000000e+01 0.0 
0.0 -1.962000000000e+01 0.0 
0.0 -1.962000000000e+01 0.0 
0.0 -1.962000000000e+01 0.0 
0.0 -1.962000000000e+01 0.0 
0.0 -1.962000000000e+01 0.0 
0.0 -1.962000000000e+01 0.0 
0.0 -1.962000000000e+01 0.0 
0.0 -1.962000000000e+01 0.0 
0.0 -1.962000000000e+01 0.0 
0.0 -1.962000000000e+01 0.0 
0.0 -1.962000000000e+01 0.0 
0.0 -1.962000000000e+01 0.0 
0.0 -1.962000000000e+01 0.0 
0.0 -1.962000000000e+01 0.0 
0.0 -1.962000000000e+01 0.0 
0.0 -1.962000000000e+01 0.0 
0.0 -1.962000000000e+01 0.0 
0.0 -1.962000000000e+01 0.0 
0.0 -1.962000000000e+01 0.0 
0.0 -1.962000000000e+01 0.0 
0.0 -1.962000000000e+01 0.0 
0.0 -1.962000000000e+01 0.0 
0.0 -1.962000000000e+01 0.0 
0.0 -1.962000000000e+01 0.0 
0.0 -1.962000000000e+01 0.0 
0.0 -1.962000000000e+01 0.0 
0.0 -1.962000000000e+01 0.0 
0.0 -1.962000000000e+01 0.0 
0.0 -1.962000000000e+01 0.0 
0.0 -1.962000000000e+01 0.0 
0.0 -1.962000000000e+01 0.0 
0.0 -1.962000000000e+01 0.0 
0.0 -1.962000000000e+01 0.0 
0.0 -1.962000000000e+01 0.0 
0.0 -1.962000000000e+01 0.0 
0.0 -1.962000000000e+01 0.0 
0.0 -1.962000000000e+01 0.0 
0.0 -1.962000000000e+01 0.0 
0.0 -1.962000000000e+01 0.0 
0.0 -1.962000000000e+01 0.0 
0.0 -1.962000000000e+01 0.0 
0.0 -1.962000000000e+01 0.0 
0.0 -1.962000000000e+01 0.0 
0.0 -1.962000000000e+01 0.0 
0.0 -1.962000000000e+01 0.0 
0.0 -1.962000000000e+01 0.0 
0.0 -1.962000000000e+01 0.0 
0.0 -1.962000000000e+01 0.0 
0.0 -1.962000000000e+01 0.0 
0.0 -1.962000000000e+01 0.0 
0.0 -1.962000000000e+01 0.0 
0.0 -1.962000000000e+01 0.0 
0.0 -1.962000000000e+01 0.0 
0.0 -1.962000000000e+01 0.0 
0.0 -1.962000000000e+01 0.0 
0.0 -1.962000000000e+01 0.0 
0.0 -1.962000000000e+01 0.0 
0.0 -1.962000000000e+01 0.0 
0.0 -1.962000000000e+01 0.0 
0.0 -1.962000000000e+01 0.0 
0.0 -1.962000000000e+01 0.0 
0.0 -1.962000000000e+01 0.0 
0.0 -1.962000000000e+01 0.0 
0.0 -1.962000000000e+01 0.0 
0.0 -1.962000000000e+01 0.0 
0.0 -1.962000000000e+01 0.0 
0.0 -1.962000000000e+01 0.0 
0.0 -1.962000000000e+01 0.0 
0.0 -1.962000000000e+01 0.0 
0.0 -1.962000000000e+01 0.0 
0.0 -1.962000000000e+01 0.0 
0.0 -1.962000000000e+01 0.0 
0.0 -1.962000000000e+01 0.0 
0.0 -1.962000000000e+01 0.0 
0.0 -1.962000000000e+01 0.0 
0.0 -1.962000000000e+01 0.0 
0.0 -1.962000000000e+01 0.0 
0.0 -1.962000000000e+01 0.0 
0.0 -1.962000000000e+01 0.0 
0.0 -1.962000000000e+01 0.0 
0.0 -1.962000000000e+01 0.0 
0.0 -1.962000000000e+01 0.0 
0.0 -1.962000000000e+01 0.0 
0.0 -1.962000000000e+01 0.0 
0.0 -1.962000000000e+01 0.0 
0.0 -1.962000000000e+01 0.0 
0.0 -1.962000000000e+01 0.0 
0.0 -1.962000000000e+01 0.0 
0.0 -1.962000000000e+01 0.0 
0.0 -1.962000000000e+01 0.0 
0.0 -1.962000000000e+01 0.0 
0.0 -1.962000000000e+01 0.0 
0.0 -1.962000000000e+01 0.0 
0.0 -1.962000000000e+01 0.0 
0.0 -1.962000000000e+01 0.0 
0.0 -1.962000000000e+01 0.0 
0.0 -1.962000000000e+01 0.0 
0.0 -1.962000000000e+01 0.0 
0.0 -1.962000000000e+01 0.0 
0.0 -1.962000000000e+01 0.0 
0.0 -1.962000000000e+01 0.0 
0.0 -1.962000000000e+01 0.0 
0.0 -1.962000000000e+01 0.0 
0.0 -1.962000000000e+01 0.0 
0.0 -1.962000000000e+01 0.0 
0.0 -1.962000000000e+01 0.0 
0.0 -1.962000000000e+01 0.0 
0.0 -1.962000000000e+01 0.0 
0.0 -1.962000000000e+01 0.0 
0.0 -1.962000000000e+01 0.0 
0.0 -1.962000000000e+01 0.0 
0.0 -1.962000000000e+01 0.0 
0.0 -1.962000000000e+01 0.0 
0.0 -1.962000000000e+01 0.0 
0.0 -1.962000000000e+01 0.0 
0.0 -1.962000000000e+01 0.0 
0.0 -1.962000000000e+01 0.0 
0.0 -1.962000000000e+01 0.0 
0.0 -1.962000000000e+01 0.0 
0.0 -1.962000000000e+01 0.0 
0.0 -1.962000000000e+01 0.0 
0.0 -1.962000000000e+01 0.0 
0.0 -1.962000000000e+01 0.0 
0.0 -1.962000000000e+01 0.0 
0.0 -1.962000000000e+01 0.0 
0.0 -1.962000000000e+01 0.0 
0.0 -1.962000000000e+01 0.0 
0.0 -1.962000000000e+01 0.0 
0.0 -1.962000000000e+01 0.0 
0.0 -1.962000000000e+01 0.0 
0.0 -1.962000000000e+01 0.0 
0.0 -1.962000000000e+01 0.0 
0.0 -1.962000000000e+01 0.0 
0.0 -1.962000000000e+01 0.0 
0.0 -1.962000000000e+01 0.0 
0.0 -1.962000000000e+01 0.0 
0.0 -1.962000000000e+01 0.0 
0.0 -1.962000000000e+01 0.0 
0.0 -1.962000000000e+01 0.0 
0.0 -1.962000000000e+01 0.0 
0.0 -1.962000000000e+01 0.0 
0.0 -1.962000000000e+01 0.0 
0.0 -1.962000000000e+01 0.0 
0.0 -1.962000000000e+01 0.0 
0.0 -1.962000000000e+01 0.0 
0.0 -1.962000000000e+01 0.0 
0.0 -1.962000000000e+01 0.0 
0.0 -1.962000000000e+01 0.0 
0.0 -1.962000000000e+01 0.0 
0.0 -1.962000000000e+01 0.0 
0.0 -1.962000000000e+01 0.0 
0.0 -1.962000000000e+01 0.0 
0.0 -1.962000000000e+01 0.0 
0.0 -1.962000000000e+01 0.0 
0.0 -1.962000000000e+01 0.0 
0.0 -1.962000000000e+01 0.0 
0.0 -1.962000000000e+01 0.0 
0.0 -1.962000000000e+01 0.0 
0.0 -1.962000000000e+01 0.0 
0.0 -1.962000000000e+01 0.0 
0.0 -1.962000000000e+01 0.0 
0.0 -1.962000000000e+01 0.0 
0.0 -1.962000000000e+01 0.0 
0.0 -1.962000000000e+01 0.0 
0.0 -1.962000000000e+01 0.0 
0.0 -1.962000000000e+01 0.0 
0.0 -1.962000000000e+01 0.0 
0.0 -1.962000000000e+01 0.0 
0.0 -1.962000000000e+01 0.0 
0.0 -1.962000000000e+01 0.0 
0.0 -1.962000000000e+01 0.0 
0.0 -1.962000000000e+01 0.0 
0.0 -1.962000000000e+01 0.0 
0.0 -1.962000000000e+01 0.0 
0.0 -1.962000000000e+01 0.0 
0.0 -1.962000000000e+01 0.0 
0.0 -1.962000000000e+01 0.0 
0.0 -1.962000000000e+01 0.0 
0.0 -1.962000000000e+01 0.0 
0.0 -1.962000000000e+01 0.0 
0.0 -1.962000000000e+01 0.0 
0.0 -1.962000000000e+01 0.0 
0.0 -1.962000000000e+01 0.0 
0.0 -1.962000000000e+01 0.0 
0.0 -1.962000000000e+01 0.0 
0.0 -1.962000000000e+01 0.0 
0.0 -1.962000000000e+01 0.0 
0.0 -1.962000000000e+01 0.0 
0.0 -1.962000000000e+01 0.0 
0.0 -1.962000000000e+01 0.0 
0.0 -1.962000000000e+01 0.0 
0.0 -1.962000000000e+01 0.0 
0.0 -1.962000000000e+01 0.0 
0.0 -1.962000000000e+01 0.0 
0.0 -1.962000000000e+01 0.0 
0.0 -1.962000000000e+01 0.0 
0.0 -1.962000000000e+01 0.0 
0.0 -1.962000000000e+01 0.0 
0.0 -1.962000000000e+01 0.0 
0.0 -1.962000000000e+01 0.0 
0.0 -1.962000000000e+01 0.0 
0.0 -1.962000000000e+01 0.0 
0.0 -1.962000000000e+01 0.0 
0.0 -1.962000000000e+01 0.0 
0.0 -1.962000000000e+01 0.0 
0.0 -1.962000000000e+01 0.0 
0.0 -1.962000000000e+01 0.0 
0.0 -1.962000000000e+01 0.0 
0.0 -1.962000000000e+01 0.0 
0.0 -1.962000000000e+01 0.0 
0.0 -1.962000000000e+01 0.0 
0.0 -1.962000000000e+01 0.0 
0.0 -1.962000000000e+01 0.0 
0.0 -1.962000000000e+01 0.0 
0.0 -1.962000000000e+01 0.0 
0.0 -1.962000000000e+01 0.0 
0.0 -1.962000000000e+01 0.0 
0.0 -1.962000000000e+01 0.0 
0.0 -1.962000000000e+01 0.0 
0.0 -1.962000000000e+01 0.0 
0.0 -1.962000000000e+01 0.0 
0.0 -1.962000000000e+01 0.0 
0.0 -1.962000000000e+01 0.0 
0.0 -1.962000000000e+01 0.0 
0.0 -1.962000000000e+01 0.0 
0.0 -1.962000000000e+01 0.0 
0.0 -1.962000000000e+01 0.0 
0.0 -1.962000000000e+01 0.0 
0.0 -1.962000000000e+01 0.0 
0.0 -1.962000000000e+01 0.0 
0.0 -1.962000000000e+01 0.0 
0.0 -1.962000000000e+01 0.0 
0.0 -1.962000000000e+01 0.0 
0.0 -1.962000000000e+01 0.0 
0.0 -1.962000000000e+01 0.0 
0.0 -1.962000000000e+01 0.0 
0.0 -1.962000000000e+01 0.0 
0.0 -1.962000000000e+01 0.0 
0.0 -1.962000000000e+01 0.0 
0.0 -1.962000000000e+01 0.0 
0.0 -1.962000000000e+01 0.0 
0.0 -1.962000000000e+01 0.0 
0.0 -1.962000000000e+01 0.0 
0.0 -1.962000000000e+01 0.0 
0.0 -1.962000000000e+01 0.0 
0.0 -1.962000000000e+01 0.0 
0.0 -1.962000000000e+01 0.0 
0.0 -1.962000000000e+01 0.0 
0.0 -1.962000000000e+01 0.0 
0.0 -1.962000000000e+01 0.0 
0.0 -1.962000000000e+01 0.0 
0.0 -1.962000000000e+01 0.0 
0.0 -1.962000000000e+01 0.0 
0.0 -1.962000000000e+01 0.0 
0.0 -1.962000000000e+01 0.0 
0.0 -1.962000000000e+01 0.0 
0.0 -1.962000000000e+01 0.0 
0.0 -1.962000000000e+01 0.0 
0.0 -1.962000000000e+01 0.0 
0.0 -1.962000000000e+01 0.0 
0.0 -1.962000000000e+01 0.0 
0.0 -1.962000000000e+01 0.0 
0.0 -1.962000000000e+01 0.0 
0.0 -1.962000000000e+01 0.0 
0.0 -1.962000000000e+01 0.0 
0.0 -1.962000000000e+01 0.0 
0.0 -1.962000000000e+01 0.0 
0.0 -1.962000000000e+01 0.0 
0.0 -1.962000000000e+01 0.0 
0.0 -1.962000000000e+01 0.0 
0.0 -1.962000000000e+01 0.0 
0.0 -1.962000000000e+01 0.0 
0.0 -1.962000000000e+01 0.0 
0.0 -1.962000000000e+01 0.0 
0.0 -1.962000000000e+01 0.0 
0.0 -1.962000000000e+01 0.0 
0.0 -1.962000000000e+01 0.0 
0.0 -1.962000000000e+01 0.0 
0.0 -1.962000000000e+01 0.0 
0.0 -1.962000000000e+01 0.0 
0.0 -1.962000000000e+01 0.0 
0.0 -1.962000000000e+01 0.0 
0.0 -1.962000000000e+01 0.0 
0.0 -1.962000000000e+01 0.0 
0.0 -1.962000000000e+01 0.0 
0.0 -1.962000000000e+01 0.0 
0.0 -1.962000000000e+01 0.0 
0.0 -1.962000000000e+01 0.0 
0.0 -1.962000000000e+01 0.0 
0.0 -1.962000000000e+01 0.0 
0.0 -1.962000000000e+01 0.0 
0.0 -1.962000000000e+01 0.0 
0.0 -1.962000000000e+01 0.0 
0.0 -1.962000000000e+01 0.0 
0.0 -1.962000000000e+01 0.0 
0.0 -1.962000000000e+01 0.0 
0.0 -1.962000000000e+01 0.0 
0.0 -1.962000000000e+01 0.0 
0.0 -1.962000000000e+01 0.0 
0.0 -1.962000000000e+01 0.0 
0.0 -1.962000000000e+01 0.0 
0.0 -1.962000000000e+01 0.0 
0.0 -1.962000000000e+01 0.0 
0.0 -1.962000000000e+01 0.0 
0.0 -1.962000000000e+01 0.0 
0.0 -1.962000000000e+01 0.0 
0.0 -1.962000000000e+01 0.0 
0.0 -1.962000000000e+01 0.0 
0.0 -1.962000000000e+01 0.0 
0.0 -1.962000000000e+01 0.0 
0.0 -1.962000000000e+01 0.0 
0.0 -1.962000000000e+01 0.0 
0.0 -1.962000000000e+01 0.0 
0.0 -1.962000000000e+01 0.0 
0.0 -1.962000000000e+01 0.0 
0.0 -1.962000000000e+01 0.0 
0.0 -1.962000000000e+01 0.0 
0.0 -1.962000000000e+01 0.0 
0.0 -1.962000000000e+01 0.0 
0.0 -1.962000000000e+01 0.0 
0.0 -1.962000000000e+01 0.0 
0.0 -1.962000000000e+01 0.0 
0.0 -1.962000000000e+01 0.0 
0.0 -1.962000000000e+01 0.0 
0.0 -1.962000000000e+01 0.0 
0.0 -1.962000000000e+01 0.0 
0.0 -1.962000000000e+01 0.0 
0.0 -1.962000000000e+01 0.0 
0.0 -1.962000000000e+01 0.0 
0.0 -1.962000000000e+01 0.0 
0.0 -1.962000000000e+01 0.0 
0.0 -1.962000000000e+01 0.0 
0.0 -1.962000000000e+01 0.0 
0.0 -1.962000000000e+01 0.0 
0.0 -1.962000000000e+01 0.0 
0.0 -1.962000000000e+01 0.0 
0.0 -1.962000000000e+01 0.0 
0.0 -1.962000000000e+01 0.0 
0.0 -1.962000000000e+01 0.0 
0.0 -1.962000000000e+01 0.0 
0.0 -1.962000000000e+01 0.0 
0.0 -1.962000000000e+01 0.0 
0.0 -1.962000000000e+01 0.0 
0.0 -1.962000000000e+01 0.0 
0.0 -1.962000000000e+01 0.0 
0.0 -1.962000000000e+01 0.0 
0.0 -1.962000000000e+01 0.0 
0.0 -1.962000000000e+01 0.0 
0.0 -1.962000000000e+01 0.0 
0.0 -1.962000000000e+01 0.0 
0.0 -1.962000000000e+01 0.0 
0.0 -1.962000000000e+01 0.0 
0.0 -1.962000000000e+01 0.0 
0.0 -1.962000000000e+01 0.0 
0.0 -1.962000000000e+01 0.0 
0.0 -1.962000000000e+01 0.0 
0.0 -1.962000000000e+01 0.0 
0.0 -1.962000000000e+01 0.0 
0.0 -1.962000000000e+01 0.0 
0.0 -1.962000000000e+01 0.0 
0.0 -1.962000000000e+01 0.0 
0.0 -1.962000000000e+01 0.0 
0.0 -1.962000000000e+01 0.0 
0.0 -1.962000000000e+01 0.0 
0.0 -1.962000000000e+01 0.0 
0.0 -1.962000000000e+01 0.0 
0.0 -1.962000000000e+01 0.0 
0.0 -1.962000000000e+01 0.0 
0.0 -1.962000000000e+01 0.0 
0.0 -1.962000000000e+01 0.0 
0.0 -1.962000000000e+01 0.0 
0.0 -1.962000000000e+01 0.0 
0.0 -1.962000000000e+01 0.0 
0.0 -1.962000000000e+01 0.0 
0.0 -1.962000000000e+01 0.0 
0.0 -1.962000000000e+01 0.0 
0.0 -1.962000000000e+01 0.0 
0.0 -1.962000000000e+01 0.0 
0.0 -1.962000000000e+01 0.0 
0.0 -1.962000000000e+01 0.0 
0.0 -1.962000000000e+01 0.0 
0.0 -1.962000000000e+01 0.0 
0.0 -1.962000000000e+01 0.0 
0.0 -1.962000000000e+01 0.0 
0.0 -1.962000000000e+01 0.0 
0.0 -1.962000000000e+01 0.0 
0.0 -1.962000000000e+01 0.0 
0.0 -1.962000000000e+01 0.0 
0.0 -1.962000000000e+01 0.0 
0.0 -1.962000000000e+01 0.0 
0.0 -1.962000000000e+01 0.0 
0.0 -1.962000000000e+01 0.0 
0.0 -1.962000000000e+01 0.0 
0.0 -1.962000000000e+01 0.0 
0.0 -1.962000000000e+01 0.0 
0.0 -1.962000000000e+01 0.0 
0.0 -1.962000000000e+01 0.0 
0.0 -1.962000000000e+01 0.0 
0.0 -1.962000000000e+01 0.0 
0.0 -1.962000000000e+01 0.0 
0.0 -1.962000000000e+01 0.0 
0.0 -1.962000000000e+01 0.0 
0.0 -1.962000000000e+01 0.0 
0.0 -1.962000000000e+01 0.0 
0.0 -1.962000000000e+01 0.0 
0.0 -1.962000000000e+01 0.0 
0.0 -1.962000000000e+01 0.0 
0.0 -1.962000000000e+01 0.0 
0.0 -1.962000000000e+01 0.0 
0.0 -1.962000000000e+01 0.0 
0.0 -1.962000000000e+01 0.0 
0.0 -1.962000000000e+01 0.0 
0.0 -1.962000000000e+01 0.0 
0.0 -1.962000000000e+01 0.0 
0.0 -1.962000000000e+01 0.0 
0.0 -1.962000000000e+01 0.0 
0.0 -1.962000000000e+01 0.0 
0.0 -1.962000000000e+01 0.0 
0.0 -1.962000000000e+01 0.0 
0.0 -1.962000000000e+01 0.0 
0.0 -1.962000000000e+01 0.0 
0.0 -1.962000000000e+01 0.0 
0.0 -1.962000000000e+01 0.0 
0.0 -1.962000000000e+01 0.0 
0.0 -1.962000000000e+01 0.0 
0.0 -1.962000000000e+01 0.0 
0.0 -1.962000000000e+01 0.0 
0.0 -1.962000000000e+01 0.0 
0.0 -1.962000000000e+01 0.0 
0.0 -1.962000000000e+01 0.0 
0.0 -1.962000000000e+01 0.0 
0.0 -1.962000000000e+01 0.0 
0.0 -1.962000000000e+01 0.0 
0.0 -1.962000000000e+01 0.0 
0.0 -1.962000000000e+01 0.0 
0.0 -1.962000000000e+01 0.0 
0.0 -1.962000000000e+01 0.0 
0.0 -1.962000000000e+01 0.0 
0.0 -1.962000000000e+01 0.0 
0.0 -1.962000000000e+01 0.0 
0.0 -1.962000000000e+01 0.0 
0.0 -1.962000000000e+01 0.0 
0.0 -1.962000000000e+01 0.0 
0.0 -1.962000000000e+01 0.0 
0.0 -1.962000000000e+01 0.0 
0.0 -1.962000000000e+01 0.0 
0.0 -1.962000000000e+01 0.0 
0.0 -1.962000000000e+01 0.0 
0.0 -1.962000000000e+01 0.0 
0.0 -1.962000000000e+01 0.0 
0.0 -1.962000000000e+01 0.0 
0.0 -1.962000000000e+01 0.0 
0.0 -1.962000000000e+01 0.0 
0.0 -1.962000000000e+01 0.0 
0.0 -1.962000000000e+01 0.0 
0.0 -1.962000000000e+01 0.0 
0.0 -1.962000000000e+01 0.0 
0.0 -1.962000000000e+01 0.0 
0.0 -1.962000000000e+01 0.0 
0.0 -1.962000000000e+01 0.0 
0.0 -1.962000000000e+01 0.0 
0.0 -1.962000000000e+01 0.0 
0.0 -1.962000000000e+01 0.0 
0.0 -1.962000000000e+01 0.0 
0.0 -1.962000000000e+01 0.0 
0.0 -1.962000000000e+01 0.0 
0.0 -1.962000000000e+01 0.0 
0.0 -1.962000000000e+01 0.0 
0.0 -1.962000000000e+01 0.0 
0.0 -1.962000000000e+01 0.0 
0.0 -1.962000000000e+01 0.0 
0.0 -1.962000000000e+01 0.0 
0.0 -1.962000000000e+01 0.0 
0.0 -1.962000000000e+01 0.0 
0.0 -1.962000000000e+01 0.0 
0.0 -1.962000000000e+01 0.0 
0.0 -1.962000000000e+01 0.0 
0.0 -1.962000000000e+01 0.0 
0.0 -1.962000000000e+01 0.0 
0.0 -1.962000000000e+01 0.0 
0.0 -1.962000000000e+01 0.0 
0.0 -1.962000000000e+01 0.0 
0.0 -1.962000000000e+01 0.0 
0.0 -1.962000000000e+01 0.0 
0.0 -1.962000000000e+01 0.0 
0.0 -1.962000000000e+01 0.0 
0.0 -1.962000000000e+01 0.0 
0.0 -1.962000000000e+01 0.0 
0.0 -1.962000000000e+01 0.0 
0.0 -1.962000000000e+01 0.0 
0.0 -1.962000000000e+01 0.0 
0.0 -1.962000000000e+01 0.0 
0.0 -1.962000000000e+01 0.0 
0.0 -1.962000000000e+01 0.0 
0.0 -1.962000000000e+01 0.0 
0.0 -1.962000000000e+01 0.0 
0.0 -1.962000000000e+01 0.0 
0.0 -1.962000000000e+01 0.0 
0.0 -1.962000000000e+01 0.0 
0.0 -1.962000000000e+01 0.0 
0.0 -1.962000000000e+01 0.0 
0.0 -1.962000000000e+01 0.0 
0.0 -1.962000000000e+01 0.0 
0.0 -1.962000000000e+01 0.0 
0.0 -1.962000000000e+01 0.0 
0.0 -1.962000000000e+01 0.0 
0.0 -1.962000000000e+01 0.0 
0.0 -1.962000000000e+01 0.0 
0.0 -1.962000000000e+01 0.0 
0.0 -1.962000000000e+01 0.0 
0.0 -1.962000000000e+01 0.0 
0.0 -1.962000000000e+01 0.0 
0.0 -1.962000000000e+01 0.0 
0.0 -1.962000000000e+01 0.0 
0.0 -1.962000000000e+01 0.0 
0.0 -1.962000000000e+01 0.0 
0.0 -1.962000000000e+01 0.0 
0.0 -1.962000000000e+01 0.0 
0.0 -1.962000000000e+01 0.0 
0.0 -1.962000000000e+01 0.0 
0.0 -1.962000000000e+01 0.0 
0.0 -1.962000000000e+01 0.0 
0.0 -1.962000000000e+01 0.0 
0.0 -1.962000000000e+01 0.0 
0.0 -1.962000000000e+01 0.0 
0.0 -1.962000000000e+01 0.0 
0.0 -1.962000000000e+01 0.0 
0.0 -1.962000000000e+01 0.0 
0.0 -1.962000000000e+01 0.0 
0.0 -1.962000000000e+01 0.0 
0.0 -1.962000000000e+01 0.0 
0.0 -1.962000000000e+01 0.0 
0.0 -1.962000000000e+01 0.0 
0.0 -1.962000000000e+01 0.0 
0.0 -1.962000000000e+01 0.0 
0.0 -1.962000000000e+01 0.0 
0.0 -1.962000000000e+01 0.0 
0.0 -1.962000000000e+01 0.0 
0.0 -1.962000000000e+01 0.0 
0.0 -1.962000000000e+01 0.0 
0.0 -1.962000000000e+01 0.0 
0.0 -1.962000000000e+01 0.0 
0.0 -1.962000000000e+01 0.0 
0.0 -1.962000000000e+01 0.0 
0.0 -1.962000000000e+01 0.0 
0.0 -1.962000000000e+01 0.0 
0.0 -1.962000000000e+01 0.0 
0.0 -1.962000000000e+01 0.0 
0.0 -1.962000000000e+01 0.0 
0.0 -1.962000000000e+01 0.0 
0.0 -1.962000000000e+01 0.0 
0.0 -1.962000000000e+01 0.0 
0.0 -1.962000000000e+01 0.0 
0.0 -1.962000000000e+01 0.0 
0.0 -1.962000000000e+01 0.0 
0.0 -1.962000000000e+01 0.0 
0.0 -1.962000000000e+01 0.0 
0.0 -1.962000000000e+01 0.0 
0.0 -1.962000000000e+01 0.0 
0.0 -1.962000000000e+01 0.0 
0.0 -1.962000000000e+01 0.0 
0.0 -1.962000000000e+01 0.0 
0.0 -1.962000000000e+01 0.0 
0.0 -1.962000000000e+01 0.0 
0.0 -1.962000000000e+01 0.0 
0.0 -1.962000000000e+01 0.0 
0.0 -1.962000000000e+01 0.0 
0.0 -1.962000000000e+01 0.0 
0.0 -1.962000000000e+01 0.0 
0.0 -1.962000000000e+01 0.0 
0.0 -1.962000000000e+01 0.0 
0.0 -1.962000000000e+01 0.0 
0.0 -1.962000000000e+01 0.0 
0.0 -1.962000000000e+01 0.0 
0.0 -1.962000000000e+01 0.0 
0.0 -1.962000000000e+01 0.0 
0.0 -1.962000000000e+01 0.0 
0.0 -1.962000000000e+01 0.0 
0.0 -1.962000000000e+01 0.0 
0.0 -1.962000000000e+01 0.0 
0.0 -1.962000000000e+01 0.0 
0.0 -1.962000000000e+01 0.0 
0.0 -1.962000000000e+01 0.0 
0.0 -1.962000000000e+01 0.0 
0.0 -1.962000000000e+01 0.0 
0.0 -1.962000000000e+01 0.0 
0.0 -1.962000000000e+01 0.0 
0.0 -1.962000000000e+01 0.0 
0.0 -1.962000000000e+01 0.0 
0.0 -1.962000000000e+01 0.0 
0.0 -1.962000000000e+01 0.0 
0.0 -1.962000000000e+01 0.0 
0.0 -1.962000000000e+01 0.0 
0.0 -1.962000000000e+01 0.0 
0.0 -1.962000000000e+01 0.0 
0.0 -1.962000000000e+01 0.0 
0.0 -1.962000000000e+01 0.0 
0.0 -1.962000000000e+01 0.0 
0.0 -1.962000000000e+01 0.0 
0.0 -1.962000000000e+01 0.0 
0.0 -1.962000000000e+01 0.0 
0.0 -1.962000000000e+01 0.0 
0.0 -1.962000000000e+01 0.0 
0.0 -1.962000000000e+01 0.0 
0.0 -1.962000000000e+01 0.0 
0.0 -1.962000000000e+01 0.0 
0.0 -1.962000000000e+01 0.0 
0.0 -1.962000000000e+01 0.0 
0.0 -1.962000000000e+01 0.0 
0.0 -1.962000000000e+01 0.0 
0.0 -1.962000000000e+01 0.0 
0.0 -1.962000000000e+01 0.0 
0.0 -1.962000000000e+01 0.0 
0.0 -1.962000000000e+01 0.0 
0.0 -1.962000000000e+01 0.0 
0.0 -1.962000000000e+01 0.0 
0.0 -1.962000000000e+01 0.0 
0.0 -1.962000000000e+01 0.0 
0.0 -1.962000000000e+01 0.0 
0.0 -1.962000000000e+01 0.0 
0.0 -1.962000000000e+01 0.0 
0.0 -1.962000000000e+01 0.0 
0.0 -1.962000000000e+01 0.0 
0.0 -1.962000000000e+01 0.0 
0.0 -1.962000000000e+01 0.0 
0.0 -1.962000000000e+01 0.0 
0.0 -1.962000000000e+01 0.0 
0.0 -1.962000000000e+01 0.0 
0.0 -1.962000000000e+01 0.0 
0.0 -1.962000000000e+01 0.0 
0.0 -1.962000000000e+01 0.0 
0.0 -1.962000000000e+01 0.0 
0.0 -1.962000000000e+01 0.0 
0.0 -1.962000000000e+01 0.0 
0.0 -1.962000000000e+01 0.0 
0.0 -1.962000000000e+01 0.0 
0.0 -1.962000000000e+01 0.0 
0.0 -1.962000000000e+01 0.0 
0.0 -1.962000000000e+01 0.0 
0.0 -1.962000000000e+01 0.0 
0.0 -1.962000000000e+01 0.0 
0.0 -1.962000000000e+01 0.0 
0.0 -1.962000000000e+01 0.0 
0.0 -1.962000000000e+01 0.0 
0.0 -1.962000000000e+01 0.0 
0.0 -1.962000000000e+01 0.0 
0.0 -1.962000000000e+01 0.0 
0.0 -1.962000000000e+01 0.0 
0.0 -1.962000000000e+01 0.0 
0.0 -1.962000000000e+01 0.0 
0.0 -1.962000000000e+01 0.0 
0.0 -1.962000000000e+01 0.0 
0.0 -1.962000000000e+01 0.0 
0.0 -1.962000000000e+01 0.0 
0.0 -1.962000000000e+01 0.0 
0.0 -1.962000000000e+01 0.0 
0.0 -1.962000000000e+01 0.0 
0.0 -1.962000000000e+01 0.0 
0.0 -1.962000000000e+01 0.0 
0.0 -1.962000000000e+01 0.0 
0.0 -1.962000000000e+01 0.0 
0.0 -1.962000000000e+01 0.0 
0.0 -1.962000000000e+01 0.0 
0.0 -1.962000000000e+01 0.0 
0.0 -1.962000000000e+01 0.0 
0.0 -1.962000000000e+01 0.0 
0.0 -1.962000000000e+01 0.0 
0.0 -1.962000000000e+01 0.0 
0.0 -1.962000000000e+01 0.0 
0.0 -1.962000000000e+01 0.0 
0.0 -1.962000000000e+01 0.0 
0.0 -1.962000000000e+01 0.0 
0.0 -1.962000000000e+01 0.0 
0.0 -1.962000000000e+01 0.0 
0.0 -1.962000000000e+01 0.0 
0.0 -1.962000000000e+01 0.0 
0.0 -1.962000000000e+01 0.0 
0.0 -1.962000000000e+01 0.0 
0.0 -1.962000000000e+01 0.0 
0.0 -1.962000000000e+01 0.0 
0.0 -1.962000000000e+01 0.0 
0.0 -1.962000000000e+01 0.0 
0.0 -1.962000000000e+01 0.0 
0.0 -1.962000000000e+01 0.0 
0.0 -1.962000000000e+01 0.0 
0.0 -1.962000000000e+01 0.0 
0.0 -1.962000000000e+01 0.0 
0.0 -1.962000000000e+01 0.0 
0.0 -1.962000000000e+01 0.0 
0.0 -1.962000000000e+01 0.0 
0.0 -1.962000000000e+01 0.0 
0.0 -1.962000000000e+01 0.0 
0.0 -1.962000000000e+01 0.0 
0.0 -1.962000000000e+01 0.0 
0.0 -1.962000000000e+01 0.0 
0.0 -1.962000000000e+01 0.0 
0.0 -1.962000000000e+01 0.0 
0.0 -1.962000000000e+01 0.0 
0.0 -1.962000000000e+01 0.0 
0.0 -1.962000000000e+01 0.0 
0.0 -1.962000000000e+01 0.0 
0.0 -1.962000000000e+01 0.0 
0.0 -1.962000000000e+01 0.0 
0.0 -1.962000000000e+01 0.0 
0.0 -1.962000000000e+01 0.0 
0.0 -1.962000000000e+01 0.0 
0.0 -1.962000000000e+01 0.0 
0.0 -1.962000000000e+01 0.0 
0.0 -1.962000000000e+01 0.0 
0.0 -1.962000000000e+01 0.0 
0.0 -1.962000000000e+01 0.0 
0.0 -1.962000000000e+01 0.0 
0.0 -1.962000000000e+01 0.0 
0.0 -1.962000000000e+01 0.0 
0.0 -1.962000000000e+01 0.0 
0.0 -1.962000000000e+01 0.0 
0.0 -1.962000000000e+01 0.0 
0.0 -1.962000000000e+01 0.0 
0.0 -1.962000000000e+01 0.0 
0.0 -1.962000000000e+01 0.0 
0.0 -1.962000000000e+01 0.0 
0.0 -1.962000000000e+01 0.0 
0.0 -1.962000000000e+01 0.0 
0.0 -1.962000000000e+01 0.0 
0.0 -1.962000000000e+01 0.0 
0.0 -1.962000000000e+01 0.0 
0.0 -1.962000000000e+01 0.0 
0.0 -1.962000000000e+01 0.0 
0.0 -1.962000000000e+01 0.0 
0.0 -1.962000000000e+01 0.0 
0.0 -1.962000000000e+01 0.0 
0.0 -1.962000000000e+01 0.0 
0.0 -1.962000000000e+01 0.0 
0.0 -1.962000000000e+01 0.0 
0.0 -1.962000000000e+01 0.0 
0.0 -1.962000000000e+01 0.0 
0.0 -1.962000000000e+01 0.0 
0.0 -1.962000000000e+01 0.0 
0.0 -1.962000000000e+01 0.0 
0.0 -1.962000000000e+01 0.0 
0.0 -1.962000000000e+01 0.0 
0.0 -1.962000000000e+01 0.0 
0.0 -1.962000000000e+01 0.0 
0.0 -1.962000000000e+01 0.0 
0.0 -1.962000000000e+01 0.0 
0.0 -1.962000000000e+01 0.0 
0.0 -1.962000000000e+01 0.0 
0.0 -1.962000000000e+01 0.0 
0.0 -1.962000000000e+01 0.0 
0.0 -1.962000000000e+01 0.0 
0.0 -1.962000000000e+01 0.0 
0.0 -1.962000000000e+01 0.0 
0.0 -1.962000000000e+01 0.0 
0.0 -1.962000000000e+01 0.0 
0.0 -1.962000000000e+01 0.0 
0.0 -1.962000000000e+01 0.0 
0.0 -1.962000000000e+01 0.0 
0.0 -1.962000000000e+01 0.0 
0.0 -1.962000000000e+01 0.0 
0.0 -1.962000000000e+01 0.0 
0.0 -1.962000000000e+01 0.0 
0.0 -1.962000000000e+01 0.0 
0.0 -1.962000000000e+01 0.0 
0.0 -1.962000000000e+01 0.0 
0.0 -1.962000000000e+01 0.0 
0.0 -1.962000000000e+01 0.0 
0.0 -1.962000000000e+01 0.0 
0.0 -1.962000000000e+01 0.0 
0.0 -1.962000000000e+01 0.0 
0.0 -1.962000000000e+01 0.0 
0.0 -1.962000000000e+01 0.0 
0.0 -1.962000000000e+01 0.0 
0.0 -1.962000000000e+01 0.0 
0.0 -1.962000000000e+01 0.0 
0.0 -1.962000000000e+01 0.0 
0.0 -1.962000000000e+01 0.0 
0.0 -1.962000000000e+01 0.0 
0.0 -1.962000000000e+01 0.0 
0.0 -1.962000000000e+01 0.0 
0.0 -1.962000000000e+01 0.0 
0.0 -1.962000000000e+01 0.0 
0.0 -1.962000000000e+01 0.0 
0.0 -1.962000000000e+01 0.0 
0.0 -1.962000000000e+01 0.0 
0.0 -1.962000000000e+01 0.0 
0.0 -1.962000000000e+01 0.0 
0.0 -1.962000000000e+01 0.0 
0.0 -1.962000000000e+01 0.0 
0.0 -1.962000000000e+01 0.0 
0.0 -1.962000000000e+01 0.0 
0.0 -1.962000000000e+01 0.0 
0.0 -1.962000000000e+01 0.0 
0.0 -1.962000000000e+01 0.0 
0.0 -1.962000000000e+01 0.0 
0.0 -1.962000000000e+01 0.0 
0.0 -1.962000000000e+01 0.0 
0.0 -1.962000000000e+01 0.0 
0.0 -1.962000000000e+01 0.0 
0.0 -1.962000000000e+01 0.0 
0.0 -1.962000000000e+01 0.0 
0.0 -1.962000000000e+01 0.0 
0.0 -1.962000000000e+01 0.0 
0.0 -1.962000000000e+01 0.0 
0.0 -1.962000000000e+01 0.0 
0.0 -1.962000000000e+01 0.0 
0.0 -1.962000000000e+01 0.0 
0.0 -1.962000000000e+01 0.0 
0.0 -1.962000000000e+01 0.0 
0.0 -1.962000000000e+01 0.0 
0.0 -1.962000000000e+01 0.0 
0.0 -1.962000000000e+01 0.0 
0.0 -1.962000000000e+01 0.0 
0.0 -1.962000000000e+01 0.0 
0.0 -1.962000000000e+01 0.0 
0.0 -1.962000000000e+01 0.0 
0.0 -1.962000000000e+01 0.0 
0.0 -1.962000000000e+01 0.0 
0.0 -1.962000000000e+01 0.0 
0.0 -1.962000000000e+01 0.0 
0.0 -1.962000000000e+01 0.0 
0.0 -1.962000000000e+01 0.0 
0.0 -1.962000000000e+01 0.0 
0.0 -1.962000000000e+01 0.0 
0.0 -1.962000000000e+01 0.0 
0.0 -1.962000000000e+01 0.0 
0.0 -1.962000000000e+01 0.0 
0.0 -1.962000000000e+01 0.0 
0.0 -1.962000000000e+01 0.0 
0.0 -1.962000000000e+01 0.0 
0.0 -1.962000000000e+01 0.0 
0.0 -1.962000000000e+01 0.0 
0.0 -1.962000000000e+01 0.0 
0.0 -1.962000000000e+01 0.0 
0.0 -1.962000000000e+01 0.0 
0.0 -1.962000000000e+01 0.0 
0.0 -1.962000000000e+01 0.0 
0.0 -1.962000000000e+01 0.0 
0.0 -1.962000000000e+01 0.0 
0.0 -1.962000000000e+01 0.0 
0.0 -1.962000000000e+01 0.0 
0.0 -1.962000000000e+01 0.0 
0.0 -1.962000000000e+01 0.0 
0.0 -1.962000000000e+01 0.0 
0.0 -1.962000000000e+01 0.0 
0.0 -1.962000000000e+01 0.0 
0.0 -1.962000000000e+01 0.0 
0.0 -1.962000000000e+01 0.0 
0.0 -1.962000000000e+01 0.0 
0.0 -1.962000000000e+01 0.0 
0.0 -1.962000000000e+01 0.0 
0.0 -1.962000000000e+01 0.0 
0.0 -1.962000000000e+01 0.0 
0.0 -1.962000000000e+01 0.0 
0.0 -1.962000000000e+01 0.0 
0.0 -1.962000000000e+01 0.0 
0.0 -1.962000000000e+01 0.0 
0.0 -1.962000000000e+01 0.0 
0.0 -1.962000000000e+01 0.0 
0.0 -1.962000000000e+01 0.0 
0.0 -1.962000000000e+01 0.0 
0.0 -1.962000000000e+01 0.0 
0.0 -1.962000000000e+01 0.0 
0.0 -1.962000000000e+01 0.0 
0.0 -1.962000000000e+01 0.0 
0.0 -1.962000000000e+01 0.0 
0.0 -1.962000000000e+01 0.0 
0.0 -1.962000000000e+01 0.0 
0.0 -1.962000000000e+01 0.0 
0.0 -1.962000000000e+01 0.0 
0.0 -1.962000000000e+01 0.0 
0.0 -1.962000000000e+01 0.0 
0.0 -1.962000000000e+01 0.0 
0.0 -1.962000000000e+01 0.0 
0.0 -1.962000000000e+01 0.0 
0.0 -1.962000000000e+01 0.0 
0.0 -1.962000000000e+01 0.0 
0.0 -1.962000000000e+01 0.0 
0.0 -1.962000000000e+01 0.0 
0.0 -1.962000000000e+01 0.0 
0.0 -1.962000000000e+01 0.0 
0.0 -1.962000000000e+01 0.0 
0.0 -1.962000000000e+01 0.0 
0.0 -1.962000000000e+01 0.0 
0.0 -1.962000000000e+01 0.0 
0.0 -1.962000000000e+01 0.0 
0.0 -1.962000000000e+01 0.0 
0.0 -1.962000000000e+01 0.0 
0.0 -1.962000000000e+01 0.0 
0.0 -1.962000000000e+01 0.0 
0.0 -1.962000000000e+01 0.0 
0.0 -1.962000000000e+01 0.0 
0.0 -1.962000000000e+01 0.0 
0.0 -1.962000000000e+01 0.0 
0.0 -1.962000000000e+01 0.0 
0.0 -1.962000000000e+01 0.0 
0.0 -1.962000000000e+01 0.0 
0.0 -1.962000000000e+01 0.0 
0.0 -1.962000000000e+01 0.0 
0.0 -1.962000000000e+01 0.0 
0.0 -1.962000000000e+01 0.0 
0.0 -1.962000000000e+01 0.0 
0.0 -1.962000000000e+01 0.0 
0.0 -1.962000000000e+01 0.0 
0.0 -1.962000000000e+01 0.0 
0.0 -1.962000000000e+01 0.0 
0.0 -1.962000000000e+01 0.0 
0.0 -1.962000000000e+01 0.0 
0.0 -1.962000000000e+01 0.0 
0.0 -1.962000000000e+01 0.0 
0.0 -1.962000000000e+01 0.0 
0.0 -1.962000000000e+01 0.0 
0.0 -1.962000000000e+01 0.0 
0.0 -1.962000000000e+01 0.0 
0.0 -1.962000000000e+01 0.0 
0.0 -1.962000000000e+01 0.0 
0.0 -1.962000000000e+01 0.0 
0.0 -1.962000000000e+01 0.0 
0.0 -1.962000000000e+01 0.0 
0.0 -1.962000000000e+01 0.0 
0.0 -1.962000000000e+01 0.0 
0.0 -1.962000000000e+01 0.0 
0.0 -1.962000000000e+01 0.0 
0.0 -1.962000000000e+01 0.0 
0.0 -1.962000000000e+01 0.0 
0.0 -1.962000000000e+01 0.0 
0.0 -1.962000000000e+01 0.0 
0.0 -1.962000000000e+01 0.0 
0.0 -1.962000000000e+01 0.0 
0.0 -1.962000000000e+01 0.0 
0.0 -1.962000000000e+01 0.0 
0.0 -1.962000000000e+01 0.0 
0.0 -1.962000000000e+01 0.0 
0.0 -1.962000000000e+01 0.0 
0.0 -1.962000000000e+01 0.0 
0.0 -1.962000000000e+01 0.0 
0.0 -1.962000000000e+01 0.0 
0.0 -1.962000000000e+01 0.0 
0.0 -1.962000000000e+01 0.0 
0.0 -1.962000000000e+01 0.0 
0.0 -1.962000000000e+01 0.0 
0.0 -1.962000000000e+01 0.0 
0.0 -1.962000000000e+01 0.0 
0.0 -1.962000000000e+01 0.0 
0.0 -1.962000000000e+01 0.0 
0.0 -1.962000000000e+01 0.0 
0.0 -1.962000000000e+01 0.0 
0.0 -1.962000000000e+01 0.0 
0.0 -1.962000000000e+01 0.0 
0.0 -1.962000000000e+01 0.0 
0.0 -1.962000000000e+01 0.0 
0.0 -1.962000000000e+01 0.0 
0.0 -1.962000000000e+01 0.0 
0.0 -1.962000000000e+01 0.0 
0.0 -1.962000000000e+01 0.0 
0.0 -1.962000000000e+01 0.0 
0.0 -1.962000000000e+01 0.0 
0.0 -1.962000000000e+01 0.0 
0.0 -1.962000000000e+01 0.0 
0.0 -1.962000000000e+01 0.0 
0.0 -1.962000000000e+01 0.0 
0.0 -1.962000000000e+01 0.0 
0.0 -1.962000000000e+01 0.0 
0.0 -1.962000000000e+01 0.0 
0.0 -1.962000000000e+01 0.0 
0.0 -1.962000000000e+01 0.0 
0.0 -1.962000000000e+01 0.0 
0.0 -1.962000000000e+01 0.0 
0.0 -1.962000000000e+01 0.0 
0.0 -1.962000000000e+01 0.0 
0.0 -1.962000000000e+01 0.0 
0.0 -1.962000000000e+01 0.0 
0.0 -1.962000000000e+01 0.0 
0.0 -1.962000000000e+01 0.0 
0.0 -1.962000000000e+01 0.0 
0.0 -1.962000000000e+01 0.0 
0.0 -1.962000000000e+01 0.0 
0.0 -1.962000000000e+01 0.0 
0.0 -1.962000000000e+01 0.0 
0.0 -1.962000000000e+01 0.0 
0.0 -1.962000000000e+01 0.0 
0.0 -1.962000000000e+01 0.0 
0.0 -1.962000000000e+01 0.0 
0.0 -1.962000000000e+01 0.0 
0.0 -1.962000000000e+01 0.0 
0.0 -1.962000000000e+01 0.0 
0.0 -1.962000000000e+01 0.0 
0.0 -1.962000000000e+01 0.0 
0.0 -1.962000000000e+01 0.0 
0.0 -1.962000000000e+01 0.0 
0.0 -1.962000000000e+01 0.0 
0.0 -1.962000000000e+01 0.0 
0.0 -1.962000000000e+01 0.0 
0.0 -1.962000000000e+01 0.0 
0.0 -1.962000000000e+01 0.0 
0.0 -1.962000000000e+01 0.0 
0.0 -1.962000000000e+01 0.0 
0.0 -1.962000000000e+01 0.0 
0.0 -1.962000000000e+01 0.0 
0.0 -1.962000000000e+01 0.0 
0.0 -1.962000000000e+01 0.0 
0.0 -1.962000000000e+01 0.0 
0.0 -1.962000000000e+01 0.0 
0.0 -1.962000000000e+01 0.0 
0.0 -1.962000000000e+01 0.0 
0.0 -1.962000000000e+01 0.0 
0.0 -1.962000000000e+01 0.0 
0.0 -1.962000000000e+01 0.0 
0.0 -1.962000000000e+01 0.0 
0.0 -1.962000000000e+01 0.0 
0.0 -1.962000000000e+01 0.0 
0.0 -1.962000000000e+01 0.0 
0.0 -1.962000000000e+01 0.0 
0.0 -1.962000000000e+01 0.0 
0.0 -1.962000000000e+01 0.0 
0.0 -1.962000000000e+01 0.0 
0.0 -1.962000000000e+01 0.0 
0.0 -1.962000000000e+01 0.0 
0.0 -1.962000000000e+01 0.0 
0.0 -1.962000000000e+01 0.0 
0.0 -1.962000000000e+01 0.0 
0.0 -1.962000000000e+01 0.0 
0.0 -1.962000000000e+01 0.0 
0.0 -1.962000000000e+01 0.0 
0.0 -1.962000000000e+01 0.0 
0.0 -1.962000000000e+01 0.0 
0.0 -1.962000000000e+01 0.0 
0.0 -1.962000000000e+01 0.0 
0.0 -1.962000000000e+01 0.0 
0.0 -1.962000000000e+01 0.0 
0.0 -1.962000000000e+01 0.0 
0.0 -1.962000000000e+01 0.0 
0.0 -1.962000000000e+01 0.0 
0.0 -1.962000000000e+01 0.0 
0.0 -1.962000000000e+01 0.0 
0.0 -1.962000000000e+01 0.0 
0.0 -1.962000000000e+01 0.0 
0.0 -1.962000000000e+01 0.0 
0.0 -1.962000000000e+01 0.0 
0.0 -1.962000000000e+01 0.0 
0.0 -1.962000000000e+01 0.0 
0.0 -1.962000000000e+01 0.0 
0.0 -1.962000000000e+01 0.0 
0.0 -1.962000000000e+01 0.0 
0.0 -1.962000000000e+01 0.0 
0.0 -1.962000000000e+01 0.0 
0.0 -1.962000000000e+01 0.0 
0.0 -1.962000000000e+01 0.0 
0.0 -1.962000000000e+01 0.0 
0.0 -1.962000000000e+01 0.0 
0.0 -1.962000000000e+01 0.0 
0.0 -1.962000000000e+01 0.0 
0.0 -1.962000000000e+01 0.0 
0.0 -1.962000000000e+01 0.0 
0.0 -1.962000000000e+01 0.0 
0.0 -1.962000000000e+01 0.0 
0.0 -1.962000000000e+01 0.0 
0.0 -1.962000000000e+01 0.0 
0.0 -1.962000000000e+01 0.0 
0.0 -1.962000000000e+01 0.0 
0.0 -1.962000000000e+01 0.0 
0.0 -1.962000000000e+01 0.0 
0.0 -1.962000000000e+01 0.0 
0.0 -1.962000000000e+01 0.0 
0.0 -1.962000000000e+01 0.0 
0.0 -1.962000000000e+01 0.0 
0.0 -1.962000000000e+01 0.0 
0.0 -1.962000000000e+01 0.0 
0.0 -1.962000000000e+01 0.0 
0.0 -1.962000000000e+01 0.0 
0.0 -1.962000000000e+01 0.0 
0.0 -1.962000000000e+01 0.0 
0.0 -1.962000000000e+01 0.0 
0.0 -1.962000000000e+01 0.0 
0.0 -1.962000000000e+01 0.0 
0.0 -1.962000000000e+01 0.0 
0.0 -1.962000000000e+01 0.0 
0.0 -1.962000000000e+01 0.0 
0.0 -1.962000000000e+01 0.0 
0.0 -1.962000000000e+01 0.0 
0.0 -1.962000000000e+01 0.0 
0.0 -1.962000000000e+01 0.0 
0.0 -1.962000000000e+01 0.0 
0.0 -1.962000000000e+01 0.0 
0.0 -1.962000000000e+01 0.0 
0.0 -1.962000000000e+01 0.0 
0.0 -1.962000000000e+01 0.0 
0.0 -1.962000000000e+01 0.0 
0.0 -1.962000000000e+01 0.0 
0.0 -1.962000000000e+01 0.0 
0.0 -1.962000000000e+01 0.0 
0.0 -1.962000000000e+01 0.0 
0.0 -1.962000000000e+01 0.0 
0.0 -1.962000000000e+01 0.0 
0.0 -1.962000000000e+01 0.0 
0.0 -1.962000000000e+01 0.0 
0.0 -1.962000000000e+01 0.0 
0.0 -1.962000000000e+01 0.0 
0.0 -1.962000000000e+01 0.0 
0.0 -1.962000000000e+01 0.0 
0.0 -1.962000000000e+01 0.0 
0.0 -1.962000000000e+01 0.0 
0.0 -1.962000000000e+01 0.0 
0.0 -1.962000000000e+01 0.0 
0.0 -1.962000000000e+01 0.0 
0.0 -1.962000000000e+01 0.0 
0.0 -1.962000000000e+01 0.0 
0.0 -1.962000000000e+01 0.0 
0.0 -1.962000000000e+01 0.0 
0.0 -1.962000000000e+01 0.0 
0.0 -1.962000000000e+01 0.0 
0.0 -1.962000000000e+01 0.0 
0.0 -1.962000000000e+01 0.0 
0.0 -1.962000000000e+01 0.0 
0.0 -1.962000000000e+01 0.0 
0.0 -1.962000000000e+01 0.0 
0.0 -1.962000000000e+01 0.0 
0.0 -1.962000000000e+01 0.0 
0.0 -1.962000000000e+01 0.0 
0.0 -1.962000000000e+01 0.0 
0.0 -1.962000000000e+01 0.0 
0.0 -1.962000000000e+01 0.0 
0.0 -1.962000000000e+01 0.0 
0.0 -1.962000000000e+01 0.0 
0.0 -1.962000000000e+01 0.0 
0.0 -1.962000000000e+01 0.0 
0.0 -1.962000000000e+01 0.0 
0.0 -1.962000000000e+01 0.0 
0.0 -1.962000000000e+01 0.0 
0.0 -1.962000000000e+01 0.0 
0.0 -1.962000000000e+01 0.0 
0.0 -1.962000000000e+01 0.0 
0.0 -1.962000000000e+01 0.0 
0.0 -1.962000000000e+01 0.0 
0.0 -1.962000000000e+01 0.0 
0.0 -1.962000000000e+01 0.0 
0.0 -1.962000000000e+01 0.0 
0.0 -1.962000000000e+01 0.0 
0.0 -1.962000000000e+01 0.0 
0.0 -1.962000000000e+01 0.0 
0.0 -1.962000000000e+01 0.0 
0.0 -1.962000000000e+01 0.0 
0.0 -1.962000000000e+01 0.0 
0.0 -1.962000000000e+01 0.0 
0.0 -1.962000000000e+01 0.0 
0.0 -1.962000000000e+01 0.0 
0.0 -1.962000000000e+01 0.0 
0.0 -1.962000000000e+01 0.0 
0.0 -1.962000000000e+01 0.0 
0.0 -1.962000000000e+01 0.0 
0.0 -1.962000000000e+01 0.0 
0.0 -1.962000000000e+01 0.0 
0.0 -1.962000000000e+01 0.0 
0.0 -1.962000000000e+01 0.0 
0.0 -1.962000000000e+01 0.0 
0.0 -1.962000000000e+01 0.0 
0.0 -1.962000000000e+01 0.0 
0.0 -1.962000000000e+01 0.0 
0.0 -1.962000000000e+01 0.0 
0.0 -1.962000000000e+01 0.0 
0.0 -1.962000000000e+01 0.0 
0.0 -1.962000000000e+01 0.0 
0.0 -1.962000000000e+01 0.0 
0.0 -1.962000000000e+01 0.0 
0.0 -1.962000000000e+01 0.0 
0.0 -1.962000000000e+01 0.0 
0.0 -1.962000000000e+01 0.0 
0.0 -1.962000000000e+01 0.0 
0.0 -1.962000000000e+01 0.0 
0.0 -1.962000000000e+01 0.0 
0.0 -1.962000000000e+01 0.0 
0.0 -1.962000000000e+01 0.0 
0.0 -1.962000000000e+01 0.0 
0.0 -1.962000000000e+01 0.0 
0.0 -1.962000000000e+01 0.0 
0.0 -1.962000000000e+01 0.0 
0.0 -1.962000000000e+01 0.0 
0.0 -1.962000000000e+01 0.0 
0.0 -1.962000000000e+01 0.0 
0.0 -1.962000000000e+01 0.0 
0.0 -1.962000000000e+01 0.0 
0.0 -1.962000000000e+01 0.0 
0.0 -1.962000000000e+01 0.0 
0.0 -1.962000000000e+01 0.0 
0.0 -1.962000000000e+01 0.0 
0.0 -1.962000000000e+01 0.0 
0.0 -1.962000000000e+01 0.0 
0.0 -1.962000000000e+01 0.0 
0.0 -1.962000000000e+01 0.0 
0.0 -1.962000000000e+01 0.0 
0.0 -1.962000000000e+01 0.0 
0.0 -1.962000000000e+01 0.0 
0.0 -1.962000000000e+01 0.0 
0.0 -1.962000000000e+01 0.0 
0.0 -1.962000000000e+01 0.0 
0.0 -1.962000000000e+01 0.0 
0.0 -1.962000000000e+01 0.0 
0.0 -1.962000000000e+01 0.0 
0.0 -1.962000000000e+01 0.0 
0.0 -1.962000000000e+01 0.0 
0.0 -1.962000000000e+01 0.0 
0.0 -1.962000000000e+01 0.0 
0.0 -1.962000000000e+01 0.0 
0.0 -1.962000000000e+01 0.0 
0.0 -1.962000000000e+01 0.0 
0.0 -1.962000000000e+01 0.0 
0.0 -1.962000000000e+01 0.0 
0.0 -1.962000000000e+01 0.0 
0.0 -1.962000000000e+01 0.0 
0.0 -1.962000000000e+01 0.0 
0.0 -1.962000000000e+01 0.0 
0.0 -1.962000000000e+01 0.0 
0.0 -1.962000000000e+01 0.0 
0.0 -1.962000000000e+01 0.0 
0.0 -1.962000000000e+01 0.0 
0.0 -1.962000000000e+01 0.0 
0.0 -1.962000000000e+01 0.0 
0.0 -1.962000000000e+01 0.0 
0.0 -1.962000000000e+01 0.0 
0.0 -1.962000000000e+01 0.0 
0.0 -1.962000000000e+01 0.0 
0.0 -1.962000000000e+01 0.0 
0.0 -1.962000000000e+01 0.0 
0.0 -1.962000000000e+01 0.0 
0.0 -1.962000000000e+01 0.0 
0.0 -1.962000000000e+01 0.0 
0.0 -1.962000000000e+01 0.0 
0.0 -1.962000000000e+01 0.0 
0.0 -1.962000000000e+01 0.0 
0.0 -1.962000000000e+01 0.0 

VECTORS node_rhside_materi_fixed float
-4.875412475907e-01 0.0 0.0 
7.876818303278e+01 0.0 0.0 
-8.408098973289e+01 -2.003104183455e+02 0.0 
7.846035379281e+01 -1.872073527771e+02 0.0 
-4.162478005619e+00 0.0 0.0 
-1.326981305089e+01 0.0 0.0 
-2.282905280545e+01 0.0 0.0 
-3.371397279872e+01 0.0 0.0 
-4.346254523608e+01 0.0 0.0 
-5.311882241970e+01 0.0 0.0 
-6.249047966750e+01 0.0 0.0 
-7.159138564157e+01 0.0 0.0 
-8.040835085474e+01 0.0 0.0 
-8.896762310882e+01 0.0 0.0 
-9.783527021590e+01 0.0 0.0 
-1.064403149020e+02 0.0 0.0 
-1.143806219017e+02 0.0 0.0 
-1.228722704238e+02 0.0 0.0 
-1.311301439249e+02 0.0 0.0 
-1.392985864271e+02 0.0 0.0 
-1.473818000417e+02 0.0 0.0 
-1.553218568651e+02 0.0 0.0 
-1.637250224017e+02 0.0 0.0 
1.737442913215e-01 -3.733669363064e+02 0.0 
2.106039317089e-01 -3.744757832494e+02 0.0 
1.679792159307e+00 -3.737461879480e+02 0.0 
5.417397962241e-01 -3.739259015723e+02 0.0 
1.746495595937e+00 -3.746134081399e+02 0.0 
1.979128882289e+00 -3.741521876060e+02 0.0 
2.094078925838e+00 -3.747668497918e+02 0.0 
2.539894707519e+00 -3.753482326347e+02 0.0 
3.610037179495e+00 -3.749965913985e+02 0.0 
2.758310329302e+00 -3.755220130812e+02 0.0 
4.006164886007e+00 -3.766009654421e+02 0.0 
4.456456714736e+00 -3.764396006559e+02 0.0 
4.709682329832e+00 -3.775925091206e+02 0.0 
5.107940471795e+00 -3.780464758548e+02 0.0 
5.719727804396e+00 -3.787725192118e+02 0.0 
5.898462418544e+00 -3.800895162016e+02 0.0 
6.985845582595e+00 -3.810580135518e+02 0.0 
7.372070191577e+00 -3.823293757022e+02 0.0 
7.834497547321e+00 -3.835943822411e+02 0.0 
8.235629985895e+00 -3.847752868797e+02 0.0 
8.244526546447e+00 -3.864104358140e+02 0.0 
8.845911373187e+00 -3.883422273110e+02 0.0 
8.915462269984e+00 -3.899362771526e+02 0.0 
9.100151154141e+00 -3.917251038006e+02 0.0 
9.113907252698e+00 -3.938349805503e+02 0.0 
8.890248392066e+00 -3.955023557887e+02 0.0 
8.594954923506e+00 -3.972020049726e+02 0.0 
8.079557326112e+00 -3.990665474212e+02 0.0 
7.538668011449e+00 -4.009100582582e+02 0.0 
7.031025377401e+00 -4.021430455222e+02 0.0 
5.797537010187e+00 -4.032121794786e+02 0.0 
5.014635355025e+00 -4.048278136556e+02 0.0 
4.233198661648e+00 -4.052104411511e+02 0.0 
3.373784354280e+00 -4.059268098969e+02 0.0 
2.318219624753e+00 -4.061689234642e+02 0.0 
1.591969172959e+00 -4.060980980276e+02 0.0 
7.485728429873e-01 -4.061089035692e+02 0.0 
1.555975095765e-02 -4.056761644108e+02 0.0 
-4.815579214189e-01 -4.051906425652e+02 0.0 
-1.024152798646e+00 -4.050199172353e+02 0.0 
-9.682775202256e-01 -4.040354321548e+02 0.0 
-1.352812880904e+00 -4.033379899251e+02 0.0 
-1.331029332683e+00 -4.024539373217e+02 0.0 
-1.550410076105e+00 -4.025872489094e+02 0.0 
-1.509011219293e+00 -4.012135488488e+02 0.0 
-1.409614740157e+00 -4.014905587548e+02 0.0 
-2.992330777031e-01 -4.003500112778e+02 0.0 
-9.018031928991e-01 -4.003914548284e+02 0.0 
-2.127715463052e-01 -4.000113802213e+02 0.0 
8.687021616060e+01 0.0 0.0 
9.563842624413e+01 0.0 0.0 
1.039078202663e+02 0.0 0.0 
1.119857830703e+02 0.0 0.0 
1.200984702031e+02 0.0 0.0 
1.284747691983e+02 0.0 0.0 
1.363566572151e+02 0.0 0.0 
1.438673937490e+02 0.0 0.0 
1.525318224029e+02 0.0 0.0 
0.0 0.0 0.0 
0.0 0.0 0.0 
0.0 0.0 0.0 
0.0 0.0 0.0 
0.0 0.0 0.0 
0.0 0.0 0.0 
0.0 0.0 0.0 
0.0 0.0 0.0 
0.0 0.0 0.0 
0.0 0.0 0.0 
0.0 0.0 0.0 
2.383220511950e+00 0.0 0.0 
1.081689367473e+01 0.0 0.0 
1.900194634196e+01 0.0 0.0 
2.745243287936e+01 0.0 0.0 
3.605192506825e+01 0.0 0.0 
4.466672809450e+01 0.0 0.0 
5.327284986700e+01 0.0 0.0 
6.187478201379e+01 0.0 0.0 
7.042074906154e+01 0.0 0.0 
0.0 0.0 0.0 
0.0 0.0 0.0 
0.0 0.0 0.0 
0.0 0.0 0.0 
0.0 0.0 0.0 
0.0 0.0 0.0 
0.0 0.0 0.0 
0.0 0.0 0.0 
0.0 0.0 0.0 
0.0 0.0 0.0 
0.0 0.0 0.0 
0.0 0.0 0.0 
0.0 0.0 0.0 
0.0 0.0 0.0 
0.0 0.0 0.0 
0.0 0.0 0.0 
0.0 0.0 0.0 
0.0 0.0 0.0 
0.0 0.0 0.0 
0.0 0.0 0.0 
0.0 0.0 0.0 
0.0 0.0 0.0 
0.0 0.0 0.0 
0.0 0.0 0.0 
0.0 0.0 0.0 
0.0 0.0 0.0 
0.0 0.0 0.0 
0.0 0.0 0.0 
0.0 0.0 0.0 
0.0 0.0 0.0 
0.0 0.0 0.0 
0.0 0.0 0.0 
0.0 0.0 0.0 
0.0 0.0 0.0 
0.0 0.0 0.0 
0.0 0.0 0.0 
0.0 0.0 0.0 
0.0 0.0 0.0 
0.0 0.0 0.0 
0.0 0.0 0.0 
0.0 0.0 0.0 
0.0 0.0 0.0 
0.0 0.0 0.0 
0.0 0.0 0.0 
0.0 0.0 0.0 
0.0 0.0 0.0 
0.0 0.0 0.0 
0.0 0.0 0.0 
0.0 0.0 0.0 
0.0 0.0 0.0 
0.0 0.0 0.0 
0.0 0.0 0.0 
0.0 0.0 0.0 
0.0 0.0 0.0 
0.0 0.0 0.0 
0.0 0.0 0.0 
0.0 0.0 0.0 
0.0 0.0 0.0 
0.0 0.0 0.0 
0.0 0.0 0.0 
0.0 0.0 0.0 
0.0 0.0 0.0 
0.0 0.0 0.0 
0.0 0.0 0.0 
0.0 0.0 0.0 
0.0 0.0 0.0 
0.0 0.0 0.0 
0.0 0.0 0.0 
0.0 0.0 0.0 
0.0 0.0 0.0 
0.0 0.0 0.0 
0.0 0.0 0.0 
0.0 0.0 0.0 
0.0 0.0 0.0 
0.0 0.0 0.0 
0.0 0.0 0.0 
0.0 0.0 0.0 
0.0 0.0 0.0 
0.0 0.0 0.0 
0.0 0.0 0.0 
0.0 0.0 0.0 
0.0 0.0 0.0 
0.0 0.0 0.0 
0.0 0.0 0.0 
0.0 0.0 0.0 
0.0 0.0 0.0 
0.0 0.0 0.0 
0.0 0.0 0.0 
0.0 0.0 0.0 
0.0 0.0 0.0 
0.0 0.0 0.0 
0.0 0.0 0.0 
0.0 0.0 0.0 
0.0 0.0 0.0 
0.0 0.0 0.0 
0.0 0.0 0.0 
0.0 0.0 0.0 
0.0 0.0 0.0 
0.0 0.0 0.0 
0.0 0.0 0.0 
0.0 0.0 0.0 
0.0 0.0 0.0 
0.0 0.0 0.0 
0.0 0.0 0.0 
0.0 0.0 0.0 
0.0 0.0 0.0 
0.0 0.0 0.0 
0.0 0.0 0.0 
0.0 0.0 0.0 
0.0 0.0 0.0 
0.0 0.0 0.0 
0.0 0.0 0.0 
0.0 0.0 0.0 
0.0 0.0 0.0 
0.0 0.0 0.0 
0.0 0.0 0.0 
0.0 0.0 0.0 
0.0 0.0 0.0 
0.0 0.0 0.0 
0.0 0.0 0.0 
0.0 0.0 0.0 
0.0 0.0 0.0 
0.0 0.0 0.0 
0.0 0.0 0.0 
0.0 0.0 0.0 
0.0 0.0 0.0 
0.0 0.0 0.0 
0.0 0.0 0.0 
0.0 0.0 0.0 
0.0 0.0 0.0 
0.0 0.0 0.0 
0.0 0.0 0.0 
0.0 0.0 0.0 
0.0 0.0 0.0 
0.0 0.0 0.0 
0.0 0.0 0.0 
0.0 0.0 0.0 
0.0 0.0 0.0 
0.0 0.0 0.0 
0.0 0.0 0.0 
0.0 0.0 0.0 
0.0 0.0 0.0 
0.0 0.0 0.0 
0.0 0.0 0.0 
0.0 0.0 0.0 
0.0 0.0 0.0 
0.0 0.0 0.0 
0.0 0.0 0.0 
0.0 0.0 0.0 
0.0 0.0 0.0 
0.0 0.0 0.0 
0.0 0.0 0.0 
0.0 0.0 0.0 
0.0 0.0 0.0 
0.0 0.0 0.0 
0.0 0.0 0.0 
0.0 0.0 0.0 
0.0 0.0 0.0 
0.0 0.0 0.0 
0.0 0.0 0.0 
0.0 0.0 0.0 
0.0 0.0 0.0 
0.0 0.0 0.0 
0.0 0.0 0.0 
0.0 0.0 0.0 
0.0 0.0 0.0 
0.0 0.0 0.0 
0.0 0.0 0.0 
0.0 0.0 0.0 
0.0 0.0 0.0 
0.0 0.0 0.0 
0.0 0.0 0.0 
0.0 0.0 0.0 
0.0 0.0 0.0 
0.0 0.0 0.0 
0.0 0.0 0.0 
0.0 0.0 0.0 
0.0 0.0 0.0 
0.0 0.0 0.0 
0.0 0.0 0.0 
0.0 0.0 0.0 
0.0 0.0 0.0 
0.0 0.0 0.0 
0.0 0.0 0.0 
0.0 0.0 0.0 
0.0 0.0 0.0 
0.0 0.0 0.0 
0.0 0.0 0.0 
0.0 0.0 0.0 
0.0 0.0 0.0 
0.0 0.0 0.0 
0.0 0.0 0.0 
0.0 0.0 0.0 
0.0 0.0 0.0 
0.0 0.0 0.0 
0.0 0.0 0.0 
0.0 0.0 0.0 
0.0 0.0 0.0 
0.0 0.0 0.0 
0.0 0.0 0.0 
0.0 0.0 0.0 
0.0 0.0 0.0 
0.0 0.0 0.0 
0.0 0.0 0.0 
0.0 0.0 0.0 
0.0 0.0 0.0 
0.0 0.0 0.0 
0.0 0.0 0.0 
0.0 0.0 0.0 
0.0 0.0 0.0 
0.0 0.0 0.0 
0.0 0.0 0.0 
0.0 0.0 0.0 
0.0 0.0 0.0 
0.0 0.0 0.0 
0.0 0.0 0.0 
0.0 0.0 0.0 
0.0 0.0 0.0 
0.0 0.0 0.0 
0.0 0.0 0.0 
0.0 0.0 0.0 
0.0 0.0 0.0 
0.0 0.0 0.0 
0.0 0.0 0.0 
0.0 0.0 0.0 
0.0 0.0 0.0 
0.0 0.0 0.0 
0.0 0.0 0.0 
0.0 0.0 0.0 
0.0 0.0 0.0 
0.0 0.0 0.0 
0.0 0.0 0.0 
0.0 0.0 0.0 
0.0 0.0 0.0 
0.0 0.0 0.0 
0.0 0.0 0.0 
0.0 0.0 0.0 
0.0 0.0 0.0 
0.0 0.0 0.0 
0.0 0.0 0.0 
0.0 0.0 0.0 
0.0 0.0 0.0 
0.0 0.0 0.0 
0.0 0.0 0.0 
0.0 0.0 0.0 
0.0 0.0 0.0 
0.0 0.0 0.0 
0.0 0.0 0.0 
0.0 0.0 0.0 
0.0 0.0 0.0 
0.0 0.0 0.0 
0.0 0.0 0.0 
0.0 0.0 0.0 
0.0 0.0 0.0 
0.0 0.0 0.0 
0.0 0.0 0.0 
0.0 0.0 0.0 
0.0 0.0 0.0 
0.0 0.0 0.0 
0.0 0.0 0.0 
0.0 0.0 0.0 
0.0 0.0 0.0 
0.0 0.0 0.0 
0.0 0.0 0.0 
0.0 0.0 0.0 
0.0 0.0 0.0 
0.0 0.0 0.0 
0.0 0.0 0.0 
0.0 0.0 0.0 
0.0 0.0 0.0 
0.0 0.0 0.0 
0.0 0.0 0.0 
0.0 0.0 0.0 
0.0 0.0 0.0 
0.0 0.0 0.0 
0.0 0.0 0.0 
0.0 0.0 0.0 
0.0 0.0 0.0 
0.0 0.0 0.0 
0.0 0.0 0.0 
0.0 0.0 0.0 
0.0 0.0 0.0 
0.0 0.0 0.0 
0.0 0.0 0.0 
0.0 0.0 0.0 
0.0 0.0 0.0 
0.0 0.0 0.0 
0.0 0.0 0.0 
0.0 0.0 0.0 
0.0 0.0 0.0 
0.0 0.0 0.0 
0.0 0.0 0.0 
0.0 0.0 0.0 
0.0 0.0 0.0 
0.0 0.0 0.0 
0.0 0.0 0.0 
0.0 0.0 0.0 
0.0 0.0 0.0 
0.0 0.0 0.0 
0.0 0.0 0.0 
0.0 0.0 0.0 
0.0 0.0 0.0 
0.0 0.0 0.0 
0.0 0.0 0.0 
0.0 0.0 0.0 
0.0 0.0 0.0 
0.0 0.0 0.0 
0.0 0.0 0.0 
0.0 0.0 0.0 
0.0 0.0 0.0 
0.0 0.0 0.0 
0.0 0.0 0.0 
0.0 0.0 0.0 
0.0 0.0 0.0 
0.0 0.0 0.0 
0.0 0.0 0.0 
0.0 0.0 0.0 
0.0 0.0 0.0 
0.0 0.0 0.0 
0.0 0.0 0.0 
0.0 0.0 0.0 
0.0 0.0 0.0 
0.0 0.0 0.0 
0.0 0.0 0.0 
0.0 0.0 0.0 
0.0 0.0 0.0 
0.0 0.0 0.0 
0.0 0.0 0.0 
0.0 0.0 0.0 
0.0 0.0 0.0 
0.0 0.0 0.0 
0.0 0.0 0.0 
0.0 0.0 0.0 
0.0 0.0 0.0 
0.0 0.0 0.0 
0.0 0.0 0.0 
0.0 0.0 0.0 
0.0 0.0 0.0 
0.0 0.0 0.0 
0.0 0.0 0.0 
0.0 0.0 0.0 
0.0 0.0 0.0 
0.0 0.0 0.0 
0.0 0.0 0.0 
0.0 0.0 0.0 
0.0 0.0 0.0 
0.0 0.0 0.0 
0.0 0.0 0.0 
0.0 0.0 0.0 
0.0 0.0 0.0 
0.0 0.0 0.0 
0.0 0.0 0.0 
0.0 0.0 0.0 
0.0 0.0 0.0 
0.0 0.0 0.0 
0.0 0.0 0.0 
0.0 0.0 0.0 
0.0 0.0 0.0 
0.0 0.0 0.0 
0.0 0.0 0.0 
0.0 0.0 0.0 
0.0 0.0 0.0 
0.0 0.0 0.0 
0.0 0.0 0.0 
0.0 0.0 0.0 
0.0 0.0 0.0 
0.0 0.0 0.0 
0.0 0.0 0.0 
0.0 0.0 0.0 
0.0 0.0 0.0 
0.0 0.0 0.0 
0.0 0.0 0.0 
0.0 0.0 0.0 
0.0 0.0 0.0 
0.0 0.0 0.0 
0.0 0.0 0.0 
0.0 0.0 0.0 
0.0 0.0 0.0 
0.0 0.0 0.0 
0.0 0.0 0.0 
0.0 0.0 0.0 
0.0 0.0 0.0 
0.0 0.0 0.0 
0.0 0.0 0.0 
0.0 0.0 0.0 
0.0 0.0 0.0 
0.0 0.0 0.0 
0.0 0.0 0.0 
0.0 0.0 0.0 
0.0 0.0 0.0 
0.0 0.0 0.0 
0.0 0.0 0.0 
0.0 0.0 0.0 
0.0 0.0 0.0 
0.0 0.0 0.0 
0.0 0.0 0.0 
0.0 0.0 0.0 
0.0 0.0 0.0 
0.0 0.0 0.0 
0.0 0.0 0.0 
0.0 0.0 0.0 
0.0 0.0 0.0 
0.0 0.0 0.0 
0.0 0.0 0.0 
0.0 0.0 0.0 
0.0 0.0 0.0 
0.0 0.0 0.0 
0.0 0.0 0.0 
0.0 0.0 0.0 
0.0 0.0 0.0 
0.0 0.0 0.0 
0.0 0.0 0.0 
0.0 0.0 0.0 
0.0 0.0 0.0 
0.0 0.0 0.0 
0.0 0.0 0.0 
0.0 0.0 0.0 
0.0 0.0 0.0 
0.0 0.0 0.0 
0.0 0.0 0.0 
0.0 0.0 0.0 
0.0 0.0 0.0 
0.0 0.0 0.0 
0.0 0.0 0.0 
0.0 0.0 0.0 
0.0 0.0 0.0 
0.0 0.0 0.0 
0.0 0.0 0.0 
0.0 0.0 0.0 
0.0 0.0 0.0 
0.0 0.0 0.0 
0.0 0.0 0.0 
0.0 0.0 0.0 
0.0 0.0 0.0 
0.0 0.0 0.0 
0.0 0.0 0.0 
0.0 0.0 0.0 
0.0 0.0 0.0 
0.0 0.0 0.0 
0.0 0.0 0.0 
0.0 0.0 0.0 
0.0 0.0 0.0 
0.0 0.0 0.0 
0.0 0.0 0.0 
0.0 0.0 0.0 
0.0 0.0 0.0 
0.0 0.0 0.0 
0.0 0.0 0.0 
0.0 0.0 0.0 
0.0 0.0 0.0 
0.0 0.0 0.0 
0.0 0.0 0.0 
0.0 0.0 0.0 
0.0 0.0 0.0 
0.0 0.0 0.0 
0.0 0.0 0.0 
0.0 0.0 0.0 
0.0 0.0 0.0 
0.0 0.0 0.0 
0.0 0.0 0.0 
0.0 0.0 0.0 
0.0 0.0 0.0 
0.0 0.0 0.0 
0.0 0.0 0.0 
0.0 0.0 0.0 
0.0 0.0 0.0 
0.0 0.0 0.0 
0.0 0.0 0.0 
0.0 0.0 0.0 
0.0 0.0 0.0 
0.0 0.0 0.0 
0.0 0.0 0.0 
0.0 0.0 0.0 
0.0 0.0 0.0 
0.0 0.0 0.0 
0.0 0.0 0.0 
0.0 0.0 0.0 
0.0 0.0 0.0 
0.0 0.0 0.0 
0.0 0.0 0.0 
0.0 0.0 0.0 
0.0 0.0 0.0 
0.0 0.0 0.0 
0.0 0.0 0.0 
0.0 0.0 0.0 
0.0 0.0 0.0 
0.0 0.0 0.0 
0.0 0.0 0.0 
0.0 0.0 0.0 
0.0 0.0 0.0 
0.0 0.0 0.0 
0.0 0.0 0.0 
0.0 0.0 0.0 
0.0 0.0 0.0 
0.0 0.0 0.0 
0.0 0.0 0.0 
0.0 0.0 0.0 
0.0 0.0 0.0 
0.0 0.0 0.0 
0.0 0.0 0.0 
0.0 0.0 0.0 
0.0 0.0 0.0 
0.0 0.0 0.0 
0.0 0.0 0.0 
0.0 0.0 0.0 
0.0 0.0 0.0 
0.0 0.0 0.0 
0.0 0.0 0.0 
0.0 0.0 0.0 
0.0 0.0 0.0 
0.0 0.0 0.0 
0.0 0.0 0.0 
0.0 0.0 0.0 
0.0 0.0 0.0 
0.0 0.0 0.0 
0.0 0.0 0.0 
0.0 0.0 0.0 
0.0 0.0 0.0 
0.0 0.0 0.0 
0.0 0.0 0.0 
0.0 0.0 0.0 
0.0 0.0 0.0 
0.0 0.0 0.0 
0.0 0.0 0.0 
0.0 0.0 0.0 
0.0 0.0 0.0 
0.0 0.0 0.0 
0.0 0.0 0.0 
0.0 0.0 0.0 
0.0 0.0 0.0 
0.0 0.0 0.0 
0.0 0.0 0.0 
0.0 0.0 0.0 
0.0 0.0 0.0 
0.0 0.0 0.0 
0.0 0.0 0.0 
0.0 0.0 0.0 
0.0 0.0 0.0 
0.0 0.0 0.0 
0.0 0.0 0.0 
0.0 0.0 0.0 
0.0 0.0 0.0 
0.0 0.0 0.0 
0.0 0.0 0.0 
0.0 0.0 0.0 
0.0 0.0 0.0 
0.0 0.0 0.0 
0.0 0.0 0.0 
0.0 0.0 0.0 
0.0 0.0 0.0 
0.0 0.0 0.0 
0.0 0.0 0.0 
0.0 0.0 0.0 
0.0 0.0 0.0 
0.0 0.0 0.0 
0.0 0.0 0.0 
0.0 0.0 0.0 
0.0 0.0 0.0 
0.0 0.0 0.0 
0.0 0.0 0.0 
0.0 0.0 0.0 
0.0 0.0 0.0 
0.0 0.0 0.0 
0.0 0.0 0.0 
0.0 0.0 0.0 
0.0 0.0 0.0 
0.0 0.0 0.0 
0.0 0.0 0.0 
0.0 0.0 0.0 
0.0 0.0 0.0 
0.0 0.0 0.0 
0.0 0.0 0.0 
0.0 0.0 0.0 
0.0 0.0 0.0 
0.0 0.0 0.0 
0.0 0.0 0.0 
0.0 0.0 0.0 
0.0 0.0 0.0 
0.0 0.0 0.0 
0.0 0.0 0.0 
0.0 0.0 0.0 
0.0 0.0 0.0 
0.0 0.0 0.0 
0.0 0.0 0.0 
0.0 0.0 0.0 
0.0 0.0 0.0 
0.0 0.0 0.0 
0.0 0.0 0.0 
0.0 0.0 0.0 
0.0 0.0 0.0 
0.0 0.0 0.0 
0.0 0.0 0.0 
0.0 0.0 0.0 
0.0 0.0 0.0 
0.0 0.0 0.0 
0.0 0.0 0.0 
0.0 0.0 0.0 
0.0 0.0 0.0 
0.0 0.0 0.0 
0.0 0.0 0.0 
0.0 0.0 0.0 
0.0 0.0 0.0 
0.0 0.0 0.0 
0.0 0.0 0.0 
0.0 0.0 0.0 
0.0 0.0 0.0 
0.0 0.0 0.0 
0.0 0.0 0.0 
0.0 0.0 0.0 
0.0 0.0 0.0 
0.0 0.0 0.0 
0.0 0.0 0.0 
0.0 0.0 0.0 
0.0 0.0 0.0 
0.0 0.0 0.0 
0.0 0.0 0.0 
0.0 0.0 0.0 
0.0 0.0 0.0 
0.0 0.0 0.0 
0.0 0.0 0.0 
0.0 0.0 0.0 
0.0 0.0 0.0 
0.0 0.0 0.0 
0.0 0.0 0.0 
0.0 0.0 0.0 
0.0 0.0 0.0 
0.0 0.0 0.0 
0.0 0.0 0.0 
0.0 0.0 0.0 
0.0 0.0 0.0 
0.0 0.0 0.0 
0.0 0.0 0.0 
0.0 0.0 0.0 
0.0 0.0 0.0 
0.0 0.0 0.0 
0.0 0.0 0.0 
0.0 0.0 0.0 
0.0 0.0 0.0 
0.0 0.0 0.0 
0.0 0.0 0.0 
0.0 0.0 0.0 
0.0 0.0 0.0 
0.0 0.0 0.0 
0.0 0.0 0.0 
0.0 0.0 0.0 
0.0 0.0 0.0 
0.0 0.0 0.0 
0.0 0.0 0.0 
0.0 0.0 0.0 
0.0 0.0 0.0 
0.0 0.0 0.0 
0.0 0.0 0.0 
0.0 0.0 0.0 
0.0 0.0 0.0 
0.0 0.0 0.0 
0.0 0.0 0.0 
0.0 0.0 0.0 
0.0 0.0 0.0 
0.0 0.0 0.0 
0.0 0.0 0.0 
0.0 0.0 0.0 
0.0 0.0 0.0 
0.0 0.0 0.0 
0.0 0.0 0.0 
0.0 0.0 0.0 
0.0 0.0 0.0 
0.0 0.0 0.0 
0.0 0.0 0.0 
0.0 0.0 0.0 
0.0 0.0 0.0 
0.0 0.0 0.0 
0.0 0.0 0.0 
0.0 0.0 0.0 
0.0 0.0 0.0 
0.0 0.0 0.0 
0.0 0.0 0.0 
0.0 0.0 0.0 
0.0 0.0 0.0 
0.0 0.0 0.0 
0.0 0.0 0.0 
0.0 0.0 0.0 
0.0 0.0 0.0 
0.0 0.0 0.0 
0.0 0.0 0.0 
0.0 0.0 0.0 
0.0 0.0 0.0 
0.0 0.0 0.0 
0.0 0.0 0.0 
0.0 0.0 0.0 
0.0 0.0 0.0 
0.0 0.0 0.0 
0.0 0.0 0.0 
0.0 0.0 0.0 
0.0 0.0 0.0 
0.0 0.0 0.0 
0.0 0.0 0.0 
0.0 0.0 0.0 
0.0 0.0 0.0 
0.0 0.0 0.0 
0.0 0.0 0.0 
0.0 0.0 0.0 
0.0 0.0 0.0 
0.0 0.0 0.0 
0.0 0.0 0.0 
0.0 0.0 0.0 
0.0 0.0 0.0 
0.0 0.0 0.0 
0.0 0.0 0.0 
0.0 0.0 0.0 
0.0 0.0 0.0 
0.0 0.0 0.0 
0.0 0.0 0.0 
0.0 0.0 0.0 
0.0 0.0 0.0 
0.0 0.0 0.0 
0.0 0.0 0.0 
0.0 0.0 0.0 
0.0 0.0 0.0 
0.0 0.0 0.0 
0.0 0.0 0.0 
0.0 0.0 0.0 
0.0 0.0 0.0 
0.0 0.0 0.0 
0.0 0.0 0.0 
0.0 0.0 0.0 
0.0 0.0 0.0 
0.0 0.0 0.0 
0.0 0.0 0.0 
0.0 0.0 0.0 
0.0 0.0 0.0 
0.0 0.0 0.0 
0.0 0.0 0.0 
0.0 0.0 0.0 
0.0 0.0 0.0 
0.0 0.0 0.0 
0.0 0.0 0.0 
0.0 0.0 0.0 
0.0 0.0 0.0 
0.0 0.0 0.0 
0.0 0.0 0.0 
0.0 0.0 0.0 
0.0 0.0 0.0 
0.0 0.0 0.0 
0.0 0.0 0.0 
0.0 0.0 0.0 
0.0 0.0 0.0 
0.0 0.0 0.0 
0.0 0.0 0.0 
0.0 0.0 0.0 
0.0 0.0 0.0 
0.0 0.0 0.0 
0.0 0.0 0.0 
0.0 0.0 0.0 
0.0 0.0 0.0 
0.0 0.0 0.0 
0.0 0.0 0.0 
0.0 0.0 0.0 
0.0 0.0 0.0 
0.0 0.0 0.0 
0.0 0.0 0.0 
0.0 0.0 0.0 
0.0 0.0 0.0 
0.0 0.0 0.0 
0.0 0.0 0.0 
0.0 0.0 0.0 
0.0 0.0 0.0 
0.0 0.0 0.0 
0.0 0.0 0.0 
0.0 0.0 0.0 
0.0 0.0 0.0 
0.0 0.0 0.0 
0.0 0.0 0.0 
0.0 0.0 0.0 
0.0 0.0 0.0 
0.0 0.0 0.0 
0.0 0.0 0.0 
0.0 0.0 0.0 
0.0 0.0 0.0 
0.0 0.0 0.0 
0.0 0.0 0.0 
0.0 0.0 0.0 
0.0 0.0 0.0 
0.0 0.0 0.0 
0.0 0.0 0.0 
0.0 0.0 0.0 
0.0 0.0 0.0 
0.0 0.0 0.0 
0.0 0.0 0.0 
0.0 0.0 0.0 
0.0 0.0 0.0 
0.0 0.0 0.0 
0.0 0.0 0.0 
0.0 0.0 0.0 
0.0 0.0 0.0 
0.0 0.0 0.0 
0.0 0.0 0.0 
0.0 0.0 0.0 
0.0 0.0 0.0 
0.0 0.0 0.0 
0.0 0.0 0.0 
0.0 0.0 0.0 
0.0 0.0 0.0 
0.0 0.0 0.0 
0.0 0.0 0.0 
0.0 0.0 0.0 
0.0 0.0 0.0 
0.0 0.0 0.0 
0.0 0.0 0.0 
0.0 0.0 0.0 
0.0 0.0 0.0 
0.0 0.0 0.0 
0.0 0.0 0.0 
0.0 0.0 0.0 
0.0 0.0 0.0 
0.0 0.0 0.0 
0.0 0.0 0.0 
0.0 0.0 0.0 
0.0 0.0 0.0 
0.0 0.0 0.0 
0.0 0.0 0.0 
0.0 0.0 0.0 
0.0 0.0 0.0 
0.0 0.0 0.0 
0.0 0.0 0.0 
0.0 0.0 0.0 
0.0 0.0 0.0 
0.0 0.0 0.0 
0.0 0.0 0.0 
0.0 0.0 0.0 
0.0 0.0 0.0 
0.0 0.0 0.0 
0.0 0.0 0.0 
0.0 0.0 0.0 
0.0 0.0 0.0 
0.0 0.0 0.0 
0.0 0.0 0.0 
0.0 0.0 0.0 
0.0 0.0 0.0 
0.0 0.0 0.0 
0.0 0.0 0.0 
0.0 0.0 0.0 
0.0 0.0 0.0 
0.0 0.0 0.0 
0.0 0.0 0.0 
0.0 0.0 0.0 
0.0 0.0 0.0 
0.0 0.0 0.0 
0.0 0.0 0.0 
0.0 0.0 0.0 
0.0 0.0 0.0 
0.0 0.0 0.0 
0.0 0.0 0.0 
0.0 0.0 0.0 
0.0 0.0 0.0 
0.0 0.0 0.0 
0.0 0.0 0.0 
0.0 0.0 0.0 
0.0 0.0 0.0 
0.0 0.0 0.0 
0.0 0.0 0.0 
0.0 0.0 0.0 
0.0 0.0 0.0 
0.0 0.0 0.0 
0.0 0.0 0.0 
0.0 0.0 0.0 
0.0 0.0 0.0 
0.0 0.0 0.0 
0.0 0.0 0.0 
0.0 0.0 0.0 
0.0 0.0 0.0 
0.0 0.0 0.0 
0.0 0.0 0.0 
0.0 0.0 0.0 
0.0 0.0 0.0 
0.0 0.0 0.0 
0.0 0.0 0.0 
0.0 0.0 0.0 
0.0 0.0 0.0 
0.0 0.0 0.0 
0.0 0.0 0.0 
0.0 0.0 0.0 
0.0 0.0 0.0 
0.0 0.0 0.0 
0.0 0.0 0.0 
0.0 0.0 0.0 
0.0 0.0 0.0 
0.0 0.0 0.0 
0.0 0.0 0.0 
0.0 0.0 0.0 
0.0 0.0 0.0 
0.0 0.0 0.0 
0.0 0.0 0.0 
0.0 0.0 0.0 
0.0 0.0 0.0 
0.0 0.0 0.0 
0.0 0.0 0.0 
0.0 0.0 0.0 
0.0 0.0 0.0 
0.0 0.0 0.0 
0.0 0.0 0.0 
0.0 0.0 0.0 
0.0 0.0 0.0 
0.0 0.0 0.0 
0.0 0.0 0.0 
0.0 0.0 0.0 
0.0 0.0 0.0 
0.0 0.0 0.0 
0.0 0.0 0.0 
0.0 0.0 0.0 
0.0 0.0 0.0 
0.0 0.0 0.0 
0.0 0.0 0.0 
0.0 0.0 0.0 
0.0 0.0 0.0 
0.0 0.0 0.0 
0.0 0.0 0.0 
0.0 0.0 0.0 
0.0 0.0 0.0 
0.0 0.0 0.0 
0.0 0.0 0.0 
0.0 0.0 0.0 
0.0 0.0 0.0 
0.0 0.0 0.0 
0.0 0.0 0.0 
0.0 0.0 0.0 
0.0 0.0 0.0 
0.0 0.0 0.0 
0.0 0.0 0.0 
0.0 0.0 0.0 
0.0 0.0 0.0 
0.0 0.0 0.0 
0.0 0.0 0.0 
0.0 0.0 0.0 
0.0 0.0 0.0 
0.0 0.0 0.0 
0.0 0.0 0.0 
0.0 0.0 0.0 
0.0 0.0 0.0 
0.0 0.0 0.0 
0.0 0.0 0.0 
0.0 0.0 0.0 
0.0 0.0 0.0 
0.0 0.0 0.0 
0.0 0.0 0.0 
0.0 0.0 0.0 
0.0 0.0 0.0 
0.0 0.0 0.0 
0.0 0.0 0.0 
0.0 0.0 0.0 
0.0 0.0 0.0 
0.0 0.0 0.0 
0.0 0.0 0.0 
0.0 0.0 0.0 
0.0 0.0 0.0 
0.0 0.0 0.0 
0.0 0.0 0.0 
0.0 0.0 0.0 
0.0 0.0 0.0 
0.0 0.0 0.0 
0.0 0.0 0.0 
0.0 0.0 0.0 
0.0 0.0 0.0 
0.0 0.0 0.0 
0.0 0.0 0.0 
0.0 0.0 0.0 
0.0 0.0 0.0 
0.0 0.0 0.0 
0.0 0.0 0.0 
0.0 0.0 0.0 
0.0 0.0 0.0 
0.0 0.0 0.0 
0.0 0.0 0.0 
0.0 0.0 0.0 
0.0 0.0 0.0 
0.0 0.0 0.0 
0.0 0.0 0.0 
0.0 0.0 0.0 
0.0 0.0 0.0 
0.0 0.0 0.0 
0.0 0.0 0.0 
0.0 0.0 0.0 
0.0 0.0 0.0 
0.0 0.0 0.0 
0.0 0.0 0.0 
0.0 0.0 0.0 
0.0 0.0 0.0 
0.0 0.0 0.0 
0.0 0.0 0.0 
0.0 0.0 0.0 
0.0 0.0 0.0 
0.0 0.0 0.0 
0.0 0.0 0.0 
0.0 0.0 0.0 
0.0 0.0 0.0 
0.0 0.0 0.0 
0.0 0.0 0.0 
0.0 0.0 0.0 
0.0 0.0 0.0 
0.0 0.0 0.0 
0.0 0.0 0.0 
0.0 0.0 0.0 
0.0 0.0 0.0 
0.0 0.0 0.0 
0.0 0.0 0.0 
0.0 0.0 0.0 
0.0 0.0 0.0 
0.0 0.0 0.0 
0.0 0.0 0.0 
0.0 0.0 0.0 
0.0 0.0 0.0 
0.0 0.0 0.0 
0.0 0.0 0.0 
0.0 0.0 0.0 
0.0 0.0 0.0 
0.0 0.0 0.0 
0.0 0.0 0.0 
0.0 0.0 0.0 
0.0 0.0 0.0 
0.0 0.0 0.0 
0.0 0.0 0.0 
0.0 0.0 0.0 
0.0 0.0 0.0 
0.0 0.0 0.0 
0.0 0.0 0.0 
0.0 0.0 0.0 
0.0 0.0 0.0 
0.0 0.0 0.0 
0.0 0.0 0.0 
0.0 0.0 0.0 
0.0 0.0 0.0 
0.0 0.0 0.0 
0.0 0.0 0.0 
0.0 0.0 0.0 
0.0 0.0 0.0 
0.0 0.0 0.0 
0.0 0.0 0.0 
0.0 0.0 0.0 
0.0 0.0 0.0 
0.0 0.0 0.0 
0.0 0.0 0.0 
0.0 0.0 0.0 
0.0 0.0 0.0 
0.0 0.0 0.0 
0.0 0.0 0.0 
0.0 0.0 0.0 
0.0 0.0 0.0 
0.0 0.0 0.0 
0.0 0.0 0.0 
0.0 0.0 0.0 
0.0 0.0 0.0 
0.0 0.0 0.0 
0.0 0.0 0.0 
0.0 0.0 0.0 
0.0 0.0 0.0 
0.0 0.0 0.0 
0.0 0.0 0.0 
0.0 0.0 0.0 
0.0 0.0 0.0 
0.0 0.0 0.0 
0.0 0.0 0.0 
0.0 0.0 0.0 
0.0 0.0 0.0 
0.0 0.0 0.0 
0.0 0.0 0.0 
0.0 0.0 0.0 
0.0 0.0 0.0 
0.0 0.0 0.0 
0.0 0.0 0.0 
0.0 0.0 0.0 
0.0 0.0 0.0 
0.0 0.0 0.0 
0.0 0.0 0.0 
0.0 0.0 0.0 
0.0 0.0 0.0 
0.0 0.0 0.0 
0.0 0.0 0.0 
0.0 0.0 0.0 
0.0 0.0 0.0 
0.0 0.0 0.0 
0.0 0.0 0.0 
0.0 0.0 0.0 
0.0 0.0 0.0 
0.0 0.0 0.0 
0.0 0.0 0.0 
0.0 0.0 0.0 
0.0 0.0 0.0 
0.0 0.0 0.0 
0.0 0.0 0.0 
0.0 0.0 0.0 
0.0 0.0 0.0 
0.0 0.0 0.0 
0.0 0.0 0.0 
0.0 0.0 0.0 
0.0 0.0 0.0 
0.0 0.0 0.0 
0.0 0.0 0.0 
0.0 0.0 0.0 
0.0 0.0 0.0 
0.0 0.0 0.0 
0.0 0.0 0.0 
0.0 0.0 0.0 
0.0 0.0 0.0 
0.0 0.0 0.0 
0.0 0.0 0.0 
0.0 0.0 0.0 
0.0 0.0 0.0 
0.0 0.0 0.0 
0.0 0.0 0.0 
0.0 0.0 0.0 
0.0 0.0 0.0 
0.0 0.0 0.0 
0.0 0.0 0.0 
0.0 0.0 0.0 
0.0 0.0 0.0 
0.0 0.0 0.0 
0.0 0.0 0.0 
0.0 0.0 0.0 
0.0 0.0 0.0 
0.0 0.0 0.0 
0.0 0.0 0.0 
0.0 0.0 0.0 
0.0 0.0 0.0 
0.0 0.0 0.0 
0.0 0.0 0.0 
0.0 0.0 0.0 
0.0 0.0 0.0 
0.0 0.0 0.0 
0.0 0.0 0.0 
0.0 0.0 0.0 
0.0 0.0 0.0 
0.0 0.0 0.0 
0.0 0.0 0.0 
0.0 0.0 0.0 
0.0 0.0 0.0 
0.0 0.0 0.0 
0.0 0.0 0.0 
0.0 0.0 0.0 
0.0 0.0 0.0 
0.0 0.0 0.0 
0.0 0.0 0.0 
0.0 0.0 0.0 
0.0 0.0 0.0 
0.0 0.0 0.0 
0.0 0.0 0.0 
0.0 0.0 0.0 
0.0 0.0 0.0 
0.0 0.0 0.0 
0.0 0.0 0.0 
0.0 0.0 0.0 
0.0 0.0 0.0 

VECTORS node_materi_velocity float
0.0 -9.055450376048e-04 0.0 
0.0 9.868339071699e-03 0.0 
0.0 0.0 0.0 
0.0 0.0 0.0 
0.0 -9.034093776532e-04 0.0 
0.0 -8.929828442912e-04 0.0 
0.0 -8.727949738430e-04 0.0 
0.0 -8.415303657537e-04 0.0 
0.0 -7.969964452533e-04 0.0 
0.0 -7.413044866035e-04 0.0 
0.0 -6.757150735501e-04 0.0 
0.0 -6.014406036918e-04 0.0 
0.0 -5.207154349589e-04 0.0 
0.0 -4.358064031102e-04 0.0 
0.0 -3.493959826358e-04 0.0 
0.0 -2.648976511810e-04 0.0 
0.0 -1.850734055510e-04 0.0 
0.0 -1.113377972680e-04 0.0 
0.0 -4.849843338272e-05 0.0 
0.0 6.422955116573e-07 0.0 
0.0 3.338768017685e-05 0.0 
0.0 4.568155958815e-05 0.0 
0.0 3.373312849013e-05 0.0 
0.0 0.0 0.0 
0.0 0.0 0.0 
0.0 0.0 0.0 
0.0 0.0 0.0 
0.0 0.0 0.0 
0.0 0.0 0.0 
0.0 0.0 0.0 
0.0 0.0 0.0 
0.0 0.0 0.0 
0.0 0.0 0.0 
0.0 0.0 0.0 
0.0 0.0 0.0 
0.0 0.0 0.0 
0.0 0.0 0.0 
0.0 0.0 0.0 
0.0 0.0 0.0 
0.0 0.0 0.0 
0.0 0.0 0.0 
0.0 0.0 0.0 
0.0 0.0 0.0 
0.0 0.0 0.0 
0.0 0.0 0.0 
0.0 0.0 0.0 
0.0 0.0 0.0 
0.0 0.0 0.0 
0.0 0.0 0.0 
0.0 0.0 0.0 
0.0 0.0 0.0 
0.0 0.0 0.0 
0.0 0.0 0.0 
0.0 0.0 0.0 
0.0 0.0 0.0 
0.0 0.0 0.0 
0.0 0.0 0.0 
0.0 0.0 0.0 
0.0 0.0 0.0 
0.0 0.0 0.0 
0.0 0.0 0.0 
0.0 0.0 0.0 
0.0 0.0 0.0 
0.0 0.0 0.0 
0.0 0.0 0.0 
0.0 0.0 0.0 
0.0 0.0 0.0 
0.0 0.0 0.0 
0.0 0.0 0.0 
0.0 0.0 0.0 
0.0 0.0 0.0 
0.0 0.0 0.0 
0.0 8.861548396583e-03 0.0 
0.0 7.856286158182e-03 0.0 
0.0 6.853854673671e-03 0.0 
0.0 5.854957885378e-03 0.0 
0.0 4.861088435233e-03 0.0 
0.0 3.873051295940e-03 0.0 
0.0 2.892029043918e-03 0.0 
0.0 1.919005020410e-03 0.0 
0.0 9.550337862573e-04 0.0 
-1.332033178830e-03 6.430588236585e-03 0.0 
1.522617130847e-03 9.771301940717e-03 0.0 
-1.655858497879e-03 1.043517473199e-02 0.0 
-3.974091713817e-04 1.250727292316e-02 0.0 
7.806391063601e-04 1.348307477512e-02 0.0 
1.412869908354e-03 1.380519699636e-02 0.0 
1.715065775379e-03 1.352286353160e-02 0.0 
1.856994912974e-03 1.298202121114e-02 0.0 
1.884221367600e-03 1.230604850671e-02 0.0 
1.823924268792e-03 1.153199624951e-02 0.0 
1.696832968850e-03 1.068082533336e-02 0.0 
0.0 1.893191707935e-02 0.0 
0.0 1.791237180728e-02 0.0 
0.0 1.690746069999e-02 0.0 
0.0 1.590491531980e-02 0.0 
0.0 1.490133863510e-02 0.0 
0.0 1.389653623639e-02 0.0 
0.0 1.289059916444e-02 0.0 
0.0 1.188357585631e-02 0.0 
0.0 1.087592228287e-02 0.0 
8.305213320100e-05 9.869274234686e-03 0.0 
1.669473379628e-04 9.872164701409e-03 0.0 
2.518860145152e-04 9.876647707536e-03 0.0 
3.384483344809e-04 9.882628909456e-03 0.0 
4.272115201356e-04 9.889041330166e-03 0.0 
5.181081533526e-04 9.895262366756e-03 0.0 
6.120378130412e-04 9.901166434406e-03 0.0 
7.094019704707e-04 9.904850572350e-03 0.0 
8.104036402329e-04 9.906309064264e-03 0.0 
9.158928842066e-04 9.903931215911e-03 0.0 
1.025974790314e-03 9.895946816622e-03 0.0 
1.141387535050e-03 9.880516048472e-03 0.0 
1.262276274268e-03 9.856311400640e-03 0.0 
1.389120415105e-03 9.820572122893e-03 0.0 
-1.617853524311e-03 5.459780803123e-03 0.0 
-1.595347182499e-03 4.328153174508e-03 0.0 
-1.450623424157e-03 3.365124163438e-03 0.0 
-1.256381456358e-03 2.565149168549e-03 0.0 
-1.069999176475e-03 1.909993262707e-03 0.0 
-8.955393584377e-04 1.367446115886e-03 0.0 
-7.345642879298e-04 9.166221894592e-04 0.0 
-5.914415741720e-04 5.428723732460e-04 0.0 
-4.665639113546e-04 2.346372109995e-04 0.0 
-3.603938496723e-04 -1.852905775717e-05 0.0 
-2.720268420353e-04 -2.279563203828e-04 0.0 
-1.991184938246e-04 -3.957422716239e-04 0.0 
-1.431059585310e-04 -5.328974547390e-04 0.0 
-9.722977403951e-05 -6.430316702978e-04 0.0 
-6.325256255204e-05 -7.301015969780e-04 0.0 
-3.941495079279e-05 -7.962011982391e-04 0.0 
-2.346166300697e-05 -8.451299504544e-04 0.0 
-1.311303110476e-05 -8.793618421649e-04 0.0 
-5.718382163045e-06 -8.981866506455e-04 0.0 
1.296990921117e-04 1.893103750240e-02 0.0 
2.321363657043e-04 1.894457926148e-02 0.0 
3.082848405906e-04 1.895676088467e-02 0.0 
3.898229086841e-04 1.896150160808e-02 0.0 
4.723986436296e-04 1.896549591562e-02 0.0 
5.528217544301e-04 1.896957767660e-02 0.0 
6.289057460958e-04 1.897315732139e-02 0.0 
6.989577618882e-04 1.897521736830e-02 0.0 
7.615152510947e-04 1.897450924640e-02 0.0 
8.152198849387e-04 1.896955426146e-02 0.0 
8.587877411913e-04 1.895856708492e-02 0.0 
8.910924076297e-04 1.893927837264e-02 0.0 
9.114511217634e-04 1.890847967084e-02 0.0 
9.202437366648e-04 1.886094772441e-02 0.0 
9.187965947363e-04 1.879411871539e-02 0.0 
9.087117905135e-04 1.870601183225e-02 0.0 
8.927716722567e-04 1.859283624513e-02 0.0 
8.766052241876e-04 1.845089731977e-02 0.0 
8.723763336635e-04 1.827810277895e-02 0.0 
9.054601402323e-04 1.807718324801e-02 0.0 
9.296205354306e-04 1.785678247422e-02 0.0 
7.986190882393e-04 1.761059390195e-02 0.0 
3.720607875500e-04 1.728359894408e-02 0.0 
-1.556700643936e-04 1.685351629426e-02 0.0 
-1.461885813826e-03 1.624590849185e-02 0.0 
-2.332951295186e-03 1.526526646699e-02 0.0 
-2.214297167376e-03 1.413659340070e-02 0.0 
-2.311676505748e-03 1.293004823544e-02 0.0 
-4.709616489418e-04 1.379379460591e-02 0.0 
-2.872401949167e-04 1.507474902159e-02 0.0 
3.220922202777e-05 1.594914753091e-02 0.0 
3.786534387174e-04 1.632161656182e-02 0.0 
6.455534589983e-04 1.665426673266e-02 0.0 
8.252981736753e-04 1.686373976335e-02 0.0 
9.204997269927e-04 1.705243270305e-02 0.0 
9.610225821265e-04 1.724988539437e-02 0.0 
9.766496401697e-04 1.743499744570e-02 0.0 
9.815763701748e-04 1.758727703968e-02 0.0 
9.791895124942e-04 1.770763846767e-02 0.0 
9.698015446751e-04 1.780012609801e-02 0.0 
9.528971474586e-04 1.786895388881e-02 0.0 
9.277932534123e-04 1.791736191945e-02 0.0 
8.942930516142e-04 1.794843201649e-02 0.0 
8.526666027999e-04 1.796651264244e-02 0.0 
8.030078341951e-04 1.797541360641e-02 0.0 
7.457319419079e-04 1.797790367806e-02 0.0 
6.815267446168e-04 1.797607604486e-02 0.0 
6.112398003313e-04 1.797158948570e-02 0.0 
5.357910979287e-04 1.796578085998e-02 0.0 
4.560875659577e-04 1.795966256800e-02 0.0 
3.728744232367e-04 1.795371544947e-02 0.0 
2.864082986116e-04 1.794717183705e-02 0.0 
1.958357347170e-04 1.793640815718e-02 0.0 
9.905333414592e-05 1.791835029304e-02 0.0 
7.646608763831e-04 1.451871007030e-02 0.0 
7.900674804002e-04 1.516839683067e-02 0.0 
8.755491741599e-04 1.555161989669e-02 0.0 
9.549905289308e-04 1.582594241105e-02 0.0 
1.024134014405e-03 1.602300261266e-02 0.0 
1.071977637188e-03 1.620096527723e-02 0.0 
1.093672575013e-03 1.637358238073e-02 0.0 
1.094128434140e-03 1.652956921153e-02 0.0 
1.080965595718e-03 1.665903262560e-02 0.0 
1.058439621454e-03 1.676172888255e-02 0.0 
1.028541847093e-03 1.684019569727e-02 0.0 
9.921029335253e-04 1.689757168362e-02 0.0 
9.496200122050e-04 1.693692598991e-02 0.0 
9.016161501109e-04 1.696148402787e-02 0.0 
8.483615453208e-04 1.697472226994e-02 0.0 
7.900001966894e-04 1.697979901536e-02 0.0 
7.267557019198e-04 1.697921076619e-02 0.0 
6.589643371726e-04 1.697490606613e-02 0.0 
5.870340659039e-04 1.696841374583e-02 0.0 
5.113714619004e-04 1.696089741441e-02 0.0 
4.322832992750e-04 1.695310496026e-02 0.0 
3.498799559054e-04 1.694516463352e-02 0.0 
2.641689197156e-04 1.693624489884e-02 0.0 
1.759721798983e-04 1.692480982700e-02 0.0 
8.792300562637e-05 1.691300578427e-02 0.0 
8.575538173909e-05 1.590813172464e-02 0.0 
1.735877295323e-04 1.591759355229e-02 0.0 
2.613281388903e-04 1.592820729501e-02 0.0 
3.476080820709e-04 1.593818654893e-02 0.0 
4.317628096334e-04 1.594773039191e-02 0.0 
5.135512862773e-04 1.595709798234e-02 0.0 
5.928414248897e-04 1.596600775052e-02 0.0 
6.694929812830e-04 1.597365282209e-02 0.0 
7.433518415065e-04 1.597878204703e-02 0.0 
8.142781886009e-04 1.597972180701e-02 0.0 
8.821633426903e-04 1.597433907471e-02 0.0 
9.468967695243e-04 1.595999279728e-02 0.0 
1.008243958879e-03 1.593360646050e-02 0.0 
1.065752619897e-03 1.589194939304e-02 0.0 
1.118784098079e-03 1.583185638172e-02 0.0 
1.166467609797e-03 1.575037937095e-02 0.0 
1.207361956008e-03 1.564503509778e-02 0.0 
1.239228700345e-03 1.551483965649e-02 0.0 
1.259168484906e-03 1.536192179106e-02 0.0 
1.268003937333e-03 1.518969237162e-02 0.0 
1.273937393192e-03 1.498947249026e-02 0.0 
1.292491634006e-03 1.473191376924e-02 0.0 
1.326712101961e-03 1.437053068380e-02 0.0 
1.616330232475e-03 1.385722263467e-02 0.0 
1.545344576984e-03 1.410440643190e-02 0.0 
1.485666270362e-03 1.429637812037e-02 0.0 
1.431401163116e-03 1.445591270410e-02 0.0 
1.375092223840e-03 1.458983013520e-02 0.0 
1.314890396445e-03 1.470089129247e-02 0.0 
1.250790630156e-03 1.478948284361e-02 0.0 
1.183524471117e-03 1.485745280910e-02 0.0 
1.113731539502e-03 1.490706721175e-02 0.0 
1.041960729744e-03 1.494099931006e-02 0.0 
9.686161956545e-04 1.496198736108e-02 0.0 
8.939517403013e-04 1.497274209641e-02 0.0 
8.180624258931e-04 1.497578584212e-02 0.0 
7.409502161337e-04 1.497332406421e-02 0.0 
6.625849538623e-04 1.496718091654e-02 0.0 
5.829321034707e-04 1.495880373212e-02 0.0 
5.019607384209e-04 1.494927403980e-02 0.0 
4.196623272404e-04 1.493931424146e-02 0.0 
3.361300027235e-04 1.492932402076e-02 0.0 
2.517314473773e-04 1.491953995623e-02 0.0 
1.672507325802e-04 1.491049590863e-02 0.0 
8.351151844926e-05 1.490375927771e-02 0.0 
8.485016908490e-05 1.389852310586e-02 0.0 
1.705518139763e-04 1.390423061387e-02 0.0 
2.568017121190e-04 1.391246780493e-02 0.0 
3.432768859976e-04 1.392205044838e-02 0.0 
4.296711192372e-04 1.393223723902e-02 0.0 
5.158457589120e-04 1.394249316421e-02 0.0 
6.018088847396e-04 1.395219520302e-02 0.0 
6.876585146874e-04 1.396046859197e-02 0.0 
7.735355033034e-04 1.396610750174e-02 0.0 
8.595905700025e-04 1.396755424147e-02 0.0 
9.459609084386e-04 1.396289545595e-02 0.0 
1.032726407966e-03 1.394988429676e-02 0.0 
1.119864830251e-03 1.392601430308e-02 0.0 
1.207233244764e-03 1.388857397896e-02 0.0 
1.294669090925e-03 1.383481111117e-02 0.0 
1.381958713093e-03 1.376191587192e-02 0.0 
1.469290081433e-03 1.366742193172e-02 0.0 
1.557140173175e-03 1.354816150498e-02 0.0 
1.648449143202e-03 1.340159766483e-02 0.0 
1.744587075957e-03 1.321835675720e-02 0.0 
1.763676351763e-03 1.247113702242e-02 0.0 
1.652480097599e-03 1.260165598049e-02 0.0 
1.544180021131e-03 1.270463573646e-02 0.0 
1.439767767769e-03 1.278569658329e-02 0.0 
1.337889806316e-03 1.284704190558e-02 0.0 
1.238327642182e-03 1.289193850125e-02 0.0 
1.140829981850e-03 1.292280439256e-02 0.0 
1.045373456456e-03 1.294223916866e-02 0.0 
9.518625509379e-04 1.295250644201e-02 0.0 
8.601420928840e-04 1.295569317452e-02 0.0 
7.699933056386e-04 1.295366361929e-02 0.0 
6.811952330812e-04 1.294802946946e-02 0.0 
5.935198080322e-04 1.294010975691e-02 0.0 
5.067370914055e-04 1.293095259179e-02 0.0 
4.206881848342e-04 1.292137971971e-02 0.0 
3.352830646336e-04 1.291204683203e-02 0.0 
2.505307744731e-04 1.290357225640e-02 0.0 
1.665117226496e-04 1.289666506403e-02 0.0 
8.317791156879e-05 1.289210632931e-02 0.0 
8.503971780023e-05 1.188495007679e-02 0.0 
1.706197898301e-04 1.188903707619e-02 0.0 
2.570341894896e-04 1.189534333466e-02 0.0 
3.444713527836e-04 1.190326067898e-02 0.0 
4.331113494987e-04 1.191202502054e-02 0.0 
5.231986250028e-04 1.192092773156e-02 0.0 
6.149138662250e-04 1.192927108729e-02 0.0 
7.086055126066e-04 1.193605213653e-02 0.0 
8.045937058518e-04 1.194016677179e-02 0.0 
9.031586185912e-04 1.194021342783e-02 0.0 
1.004661890105e-03 1.193441554841e-02 0.0 
1.109439194832e-03 1.192085577608e-02 0.0 
1.217776617667e-03 1.189736659076e-02 0.0 
1.329941515474e-03 1.186163677591e-02 0.0 
1.446069424195e-03 1.181052706523e-02 0.0 
1.566916618766e-03 1.174168745877e-02 0.0 
1.691561992219e-03 1.165050396142e-02 0.0 
1.564898582170e-03 1.075852234055e-02 0.0 
1.440298107101e-03 1.081616342057e-02 0.0 
1.319472237072e-03 1.085814561955e-02 0.0 
1.203920757843e-03 1.088792209857e-02 0.0 
1.093072876689e-03 1.090744879274e-02 0.0 
9.866564074109e-04 1.091871371831e-02 0.0 
8.842315959243e-04 1.092345271775e-02 0.0 
7.853876257554e-04 1.092324489583e-02 0.0 
6.897689650256e-04 1.091975822874e-02 0.0 
5.971155015386e-04 1.091405717715e-02 0.0 
5.068982341495e-04 1.090688728397e-02 0.0 
4.188918423455e-04 1.089944340308e-02 0.0 
3.327200364317e-04 1.089204392438e-02 0.0 
2.480693495492e-04 1.088541909122e-02 0.0 
1.647100533743e-04 1.088032802853e-02 0.0 
8.227149368100e-05 1.087717798126e-02 0.0 
-1.402018593163e-03 9.062485661881e-03 0.0 
-1.021138314399e-03 1.166522529565e-02 0.0 
2.373110121891e-04 1.301276747478e-02 0.0 
1.172538419447e-03 1.375737199125e-02 0.0 
1.600123357430e-03 1.370600703004e-02 0.0 
1.806874097368e-03 1.326910298108e-02 0.0 
1.885590073793e-03 1.265689274032e-02 0.0 
1.865180940622e-03 1.192972969305e-02 0.0 
1.768352289622e-03 1.111473091509e-02 0.0 
1.614727743076e-03 1.023213484764e-02 0.0 
3.657303128418e-04 1.083890002073e-02 0.0 
5.466491786479e-04 2.718927511764e-04 0.0 
-1.796000383669e-04 7.157400014147e-05 0.0 
-6.247811843564e-04 2.190162639106e-03 0.0 
3.939557042190e-04 1.378106918260e-04 0.0 
1.771583825803e-03 1.280231589170e-02 0.0 
1.442011459532e-04 -3.870577343351e-04 0.0 
6.060436491840e-04 4.161623541759e-04 0.0 
2.085778194495e-03 1.232069473708e-02 0.0 
5.581715448557e-04 5.458285273190e-04 0.0 
1.988392796734e-03 1.100852483213e-02 0.0 
2.318031623505e-04 6.918007756331e-05 0.0 
-1.393568072684e-05 -6.132776800991e-04 0.0 
4.625519516585e-04 6.724093166765e-04 0.0 
1.642197164000e-03 9.306847168662e-03 0.0 
1.009694856888e-04 -7.036353850459e-04 0.0 
1.479436414373e-04 -1.579880791622e-04 0.0 
3.846089194132e-04 7.641962206006e-04 0.0 
2.485138630429e-04 7.774949807159e-04 0.0 
6.995354643620e-05 8.145266896632e-04 0.0 
1.290721332174e-04 8.789525492436e-04 0.0 
1.726045174966e-04 7.778493834476e-04 0.0 
1.316456769046e-03 8.935548298217e-03 0.0 
8.536888684989e-04 8.987755335948e-03 0.0 
5.550944455712e-04 8.957936427012e-03 0.0 
4.996074231785e-05 5.342126920390e-03 0.0 
1.447199048051e-04 4.725025227874e-05 0.0 
-8.819725522867e-04 4.910997523237e-03 0.0 
1.802189108215e-05 -8.253315368767e-04 0.0 
1.019704375500e-04 1.903574951412e-05 0.0 
2.837495294720e-04 9.009346304938e-03 0.0 
5.565625760250e-05 -8.552009549208e-04 0.0 
3.507208666068e-04 8.780461900822e-04 0.0 
5.463240824198e-04 4.456220680889e-04 0.0 
5.098636485842e-04 6.060041922679e-04 0.0 
6.226290788214e-04 3.652905412627e-04 0.0 
4.684824259853e-04 2.001564826846e-04 0.0 
-4.075354460747e-04 1.084370595770e-03 0.0 
1.075541766004e-03 9.030351455772e-03 0.0 
3.669052022964e-04 1.148243267534e-04 0.0 
3.690174656098e-05 3.423601031282e-03 0.0 
-7.476563534851e-05 -3.371106897541e-04 0.0 
1.301113662983e-04 -5.576805582156e-04 0.0 
3.540844825266e-05 6.616402396807e-04 0.0 
2.012306723280e-03 1.269379209647e-02 0.0 
1.240201775463e-03 1.220462948553e-02 0.0 
2.075909796937e-03 1.173169741057e-02 0.0 
1.838356498592e-03 1.019352163988e-02 0.0 
-7.870429865755e-04 8.413672118985e-03 0.0 
6.248200838332e-05 7.234926472235e-03 0.0 
6.598998828286e-05 2.981183488184e-05 0.0 
1.022440006540e-05 -8.903352184608e-04 0.0 
1.976892105273e-05 1.507223268674e-03 0.0 
1.554003091372e-03 8.830449427096e-03 0.0 
1.648488323237e-03 8.366089373544e-03 0.0 
1.499758138352e-03 7.961008691092e-03 0.0 
1.612839969040e-03 7.430186367736e-03 0.0 
1.467792419923e-03 6.944872269038e-03 0.0 
1.551466972379e-03 6.472724945431e-03 0.0 
1.713110813624e-03 6.937221722357e-03 0.0 
1.629725351336e-03 5.993977086017e-03 0.0 
1.806496320887e-03 6.444952547054e-03 0.0 
1.388556846130e-03 5.984458474527e-03 0.0 
1.697649092793e-03 5.509926546282e-03 0.0 
1.889922817091e-03 5.944712176960e-03 0.0 
1.752967482027e-03 5.024069656912e-03 0.0 
1.959448460495e-03 5.438185774417e-03 0.0 
2.080136958150e-03 6.358706329731e-03 0.0 
2.164104980398e-03 5.832033544469e-03 0.0 
2.265366970400e-03 6.745047112936e-03 0.0 
2.363541458662e-03 6.193332464426e-03 0.0 
2.230007568683e-03 5.304123779008e-03 0.0 
2.441950206500e-03 5.639493064070e-03 0.0 
2.555302697930e-03 6.517784295834e-03 0.0 
2.644555721641e-03 5.933325802490e-03 0.0 
2.736603472394e-03 6.797490377579e-03 0.0 
2.834645120748e-03 6.175787592455e-03 0.0 
2.906112649353e-03 7.026341754622e-03 0.0 
3.009832226997e-03 6.362603048417e-03 0.0 
2.903117727287e-03 5.556815187740e-03 0.0 
3.080654627724e-03 5.706351248705e-03 0.0 
3.165133573443e-03 6.484764611431e-03 0.0 
3.234908751501e-03 5.788584493419e-03 0.0 
3.295948884801e-03 6.534118271980e-03 0.0 
3.360572235247e-03 5.796121301287e-03 0.0 
3.264885935643e-03 5.113363668177e-03 0.0 
3.382418833612e-03 5.088930309709e-03 0.0 
3.451824893820e-03 5.724038825660e-03 0.0 
3.461440347878e-03 4.989214041583e-03 0.0 
3.501603033159e-03 5.568629275247e-03 0.0 
3.496024848191e-03 4.813134665973e-03 0.0 
3.503166815099e-03 5.328054647825e-03 0.0 
3.480551237878e-03 4.561106600194e-03 0.0 
3.448010509282e-03 4.116513401835e-03 0.0 
3.417677573694e-03 3.862991936738e-03 0.0 
3.409878155557e-03 4.240267027097e-03 0.0 
3.334068998984e-03 3.554464457802e-03 0.0 
3.320202216760e-03 3.241945625438e-03 0.0 
3.227651890212e-03 2.953506000973e-03 0.0 
3.193638566607e-03 2.696316709249e-03 0.0 
3.095976823533e-03 2.431707058788e-03 0.0 
3.087372790094e-03 2.632124300797e-03 0.0 
2.954466751787e-03 2.140702904333e-03 0.0 
2.943782342958e-03 1.983195117720e-03 0.0 
2.803679156111e-03 1.722847389272e-03 0.0 
2.773216108942e-03 1.833550264347e-03 0.0 
2.629268951442e-03 1.451489790833e-03 0.0 
2.639453822521e-03 1.371492641046e-03 0.0 
2.472141727502e-03 1.131939225358e-03 0.0 
2.426678833154e-03 1.177626146459e-03 0.0 
2.280652935216e-03 8.923837285551e-04 0.0 
2.306132296717e-03 8.686981798148e-04 0.0 
2.124776936408e-03 6.584342061739e-04 0.0 
2.070573664140e-03 6.580252851668e-04 0.0 
1.928371690941e-03 4.546518086015e-04 0.0 
1.962063364441e-03 4.700290853187e-04 0.0 
1.777546542185e-03 2.914949073708e-04 0.0 
1.792706409899e-03 3.196448681144e-04 0.0 
1.718980287006e-03 2.578513187133e-04 0.0 
1.583254678313e-03 1.209334973728e-04 0.0 
1.504557096623e-03 7.376172517500e-05 0.0 
1.384759931140e-03 -3.867875841764e-05 0.0 
3.254463641599e-03 4.469310257815e-03 0.0 
1.294214182491e-03 -9.296639581344e-05 0.0 
1.390944600165e-03 2.886239643185e-05 0.0 
1.187980737262e-03 -1.849060040465e-04 0.0 
1.255151557177e-03 -1.239704728663e-04 0.0 
1.090080705679e-03 -2.435042659771e-04 0.0 
9.968710664222e-04 -3.169809845729e-04 0.0 
8.967418838342e-04 -3.768785970631e-04 0.0 
3.477807760079e-03 6.183011138694e-03 0.0 
2.273080291776e-03 4.777709705135e-03 0.0 
8.154849224651e-04 -4.341862755254e-04 0.0 
7.181114866685e-04 -4.929368720759e-04 0.0 
7.729554407161e-04 -4.294245242185e-04 0.0 
6.020191752152e-04 -5.425687245434e-04 0.0 
1.315977240780e-03 6.457556338168e-03 0.0 
1.225000198393e-03 5.485887965262e-03 0.0 
1.165825676656e-03 5.957714782691e-03 0.0 
1.063101592092e-03 4.983461900546e-03 0.0 
1.016553579347e-03 5.445043144681e-03 0.0 
5.566967535376e-04 -5.923016455030e-04 0.0 
1.546378008363e-03 4.566874018241e-03 0.0 
1.099994365227e-03 4.515087323792e-03 0.0 
2.613871991919e-03 7.415720920425e-03 0.0 
3.189765698685e-03 7.290183622740e-03 0.0 
3.243665488308e-03 2.923469190644e-03 0.0 
8.915677864899e-04 -3.686646414247e-04 0.0 
7.207188982040e-04 -4.722340025596e-04 0.0 
7.755158661653e-04 -4.016822770630e-04 0.0 
1.950134304314e-03 4.788210152564e-04 0.0 
1.764613199001e-03 3.404493339357e-04 0.0 
1.891614989263e-03 4.782637830749e-04 0.0 
1.693447167520e-03 3.519447598356e-04 0.0 
1.786823687400e-03 4.667026923563e-04 0.0 
1.579632768312e-03 3.523326358726e-04 0.0 
1.495588455822e-03 2.537535100801e-04 0.0 
1.375526587639e-03 2.637304773060e-04 0.0 
1.300179793629e-03 1.792969432876e-04 0.0 
1.636241971497e-03 4.424259990997e-04 0.0 
1.852052423942e-03 5.724708426471e-04 0.0 
1.176846467397e-03 1.965345669192e-04 0.0 
1.109338856162e-03 1.244986691072e-04 0.0 
9.858720706860e-04 1.467174163977e-04 0.0 
9.253140527424e-04 8.584585917343e-05 0.0 
1.019127702022e-03 4.731794883993e-05 0.0 
8.418205747807e-04 1.976983375216e-05 0.0 
9.104046535181e-04 -3.228701580035e-05 0.0 
3.097887186280e-03 2.429802093873e-03 0.0 
3.106372783075e-03 2.599252277866e-03 0.0 
2.941904558402e-03 2.155234230021e-03 0.0 
2.908756919198e-03 2.269317238821e-03 0.0 
2.725934926451e-03 1.873191720848e-03 0.0 
2.650578638969e-03 1.934622124302e-03 0.0 
2.449163791527e-03 1.584367856412e-03 0.0 
2.523891014219e-03 1.531263379736e-03 0.0 
1.794633271271e-03 4.532206239085e-03 0.0 
3.281382425587e-03 3.859274448311e-03 0.0 
3.333432301600e-03 4.613382586298e-03 0.0 
3.156059575743e-03 4.154898302676e-03 0.0 
3.180994345425e-03 4.977907892783e-03 0.0 
2.949339813184e-03 4.435257125229e-03 0.0 
2.941792321950e-03 5.332982389767e-03 0.0 
2.648039946557e-03 4.699865975458e-03 0.0 
2.657735539872e-03 3.859621995366e-03 0.0 
2.294328751917e-03 4.046018281804e-03 0.0 
2.318723291709e-03 3.279274711784e-03 0.0 
1.902609404397e-03 3.403303557936e-03 0.0 
1.949915575412e-03 2.719075963946e-03 0.0 
2.938257961170e-03 4.950013189552e-03 0.0 
2.829877258627e-03 2.336924284972e-03 0.0 
2.530514064651e-03 1.950082965635e-03 0.0 
2.706478422767e-03 2.352309363159e-03 0.0 
6.286777280824e-04 -4.723179505548e-04 0.0 
7.500809226783e-04 6.034365186582e-05 0.0 
1.660824200262e-03 5.197300876472e-04 0.0 
1.885532773322e-03 6.645447383100e-04 0.0 
2.230822944890e-03 1.283178768040e-03 0.0 
4.522534068169e-04 -6.374118913996e-04 0.0 
2.600476590278e-03 5.678688659227e-03 0.0 
2.885558097872e-03 6.360283779579e-03 0.0 
9.061838278164e-04 4.468689175360e-03 0.0 
8.719193743333e-04 4.924641689800e-03 0.0 
1.649179472707e-03 5.796322464945e-04 0.0 
4.143174646201e-04 -6.761116107634e-04 0.0 
1.217229155349e-03 2.601645189958e-04 0.0 
1.817195014288e-03 4.216070872663e-03 0.0 
6.719684366634e-04 4.279140708047e-06 0.0 
5.855989589803e-04 4.537741784744e-05 0.0 
1.388901598861e-03 1.506597886634e-04 0.0 
2.366989839364e-03 1.915727044642e-03 0.0 
2.546861594431e-03 2.320258151401e-03 0.0 
2.316007624521e-03 2.629912533320e-03 0.0 
1.969068600589e-03 2.141628501316e-03 0.0 
1.571899246883e-03 2.195730269703e-03 0.0 
1.626892786291e-03 1.674206837002e-03 0.0 
1.964395475764e-03 1.652148055836e-03 0.0 
1.639195605215e-03 1.257845073273e-03 0.0 
1.288092762687e-03 1.262300800526e-03 0.0 
1.324555360295e-03 9.017152476072e-04 0.0 
1.630807194140e-03 9.059797659135e-04 0.0 
1.339112392927e-03 5.987790335138e-04 0.0 
1.029186072730e-03 5.883160018449e-04 0.0 
1.066189246600e-03 3.283679721550e-04 0.0 
6.360287488256e-04 8.667137572895e-05 0.0 
1.377395157144e-03 3.517369869556e-03 0.0 
2.152082188605e-03 7.288390487881e-03 0.0 
1.421197088114e-03 4.520224141576e-04 0.0 
2.115280340918e-03 1.294534792572e-03 0.0 
7.562813238305e-04 3.947944045579e-03 0.0 
7.334786001867e-04 4.398639571869e-03 0.0 
8.290427481452e-04 5.384529136711e-03 0.0 
7.010617126958e-04 4.850947161919e-03 0.0 
6.029051752326e-04 3.868320661314e-03 0.0 
5.805426417299e-04 4.316271399395e-03 0.0 
6.608265213983e-04 5.304861615049e-03 0.0 
5.493237031293e-04 4.765134459023e-03 0.0 
6.139969746425e-04 5.758538830610e-03 0.0 
5.105989048326e-04 5.214004358216e-03 0.0 
4.456289962097e-04 4.224391592178e-03 0.0 
4.144119727598e-04 4.670305992600e-03 0.0 
4.656398099374e-04 5.663334476667e-03 0.0 
3.761301058090e-04 5.116716515158e-03 0.0 
4.154494190740e-04 6.112196428052e-03 0.0 
3.317226989702e-04 5.563241499836e-03 0.0 
2.940628669376e-04 4.571561929700e-03 0.0 
3.297414792672e-04 -7.135947481082e-04 0.0 
2.307466717390e-03 1.240138987908e-03 0.0 
1.999913267877e-03 1.027834896868e-03 0.0 
6.185566562075e-04 -4.918963864765e-04 0.0 
6.555556790920e-04 -4.165747041947e-04 0.0 
8.110264687272e-04 -3.269595912662e-04 0.0 
6.701787608961e-04 -3.404360441591e-04 0.0 
2.538457732462e-04 5.020420859000e-03 0.0 
2.203695208383e-04 4.029274436494e-03 0.0 
2.502255992279e-03 6.808696165114e-03 0.0 
2.767375590124e-03 7.517310350557e-03 0.0 
7.674611639126e-04 3.498906574232e-03 0.0 
5.113597265793e-04 -1.858053787537e-06 0.0 
5.746172273648e-04 -5.501165146607e-05 0.0 
3.296417769444e-03 7.304542276429e-03 0.0 
3.153447420332e-03 8.119570571365e-03 0.0 
3.233206660034e-03 8.103381379520e-03 0.0 
3.049950030200e-03 8.994464683325e-03 0.0 
2.973560810898e-03 8.930594025930e-03 0.0 
3.097942078168e-03 8.950569045208e-03 0.0 
2.070293444117e-03 7.351058090609e-04 0.0 
3.508848364970e-04 3.684639264559e-03 0.0 
8.100060343875e-04 -3.426923685218e-04 0.0 
6.338263711780e-04 -3.792611282692e-04 0.0 
4.339320306213e-04 3.766906240906e-05 0.0 
2.554326556415e-03 1.441293500545e-03 0.0 
2.737973742008e-03 4.771669622689e-03 0.0 
2.736751753354e-03 4.210374411940e-03 0.0 
2.512803472719e-03 4.003003382367e-03 0.0 
2.474488741757e-03 3.487127254830e-03 0.0 
2.226345522346e-03 3.250721950753e-03 0.0 
2.148038513135e-03 2.780212297740e-03 0.0 
2.401642817741e-03 2.997293266886e-03 0.0 
2.160920508262e-03 1.827266433842e-03 0.0 
2.034616742357e-03 2.336744644829e-03 0.0 
2.865721067649e-04 6.019142755419e-03 0.0 
2.985143042854e-03 2.794471653320e-03 0.0 
1.600805943191e-03 6.148040822756e-04 0.0 
3.448028629860e-04 -6.664730475541e-04 0.0 
7.546894510104e-04 3.174885147510e-04 0.0 
2.932547678037e-04 -7.436253554411e-04 0.0 
3.589716106766e-04 -6.978139737903e-04 0.0 
1.362183485092e-03 4.798240586339e-04 0.0 
1.875775152301e-03 2.514818273858e-03 0.0 
1.962994495343e-03 2.967306873395e-03 0.0 
2.829080182161e-03 9.864970349443e-03 0.0 
2.764785278982e-03 9.717597623701e-03 0.0 
1.960344025286e-03 1.479697175850e-03 0.0 
1.099320223004e-03 6.437051003587e-03 0.0 
7.233995354834e-04 6.302895972030e-03 0.0 
6.630203936168e-04 6.759535537798e-03 0.0 
2.229588999057e-04 -7.747090724687e-04 0.0 
6.861001299037e-04 5.899412154054e-04 0.0 
4.821118842483e-04 3.336910570931e-03 0.0 
3.085342519866e-03 6.960379994401e-03 0.0 
2.946731823158e-03 8.097939936030e-03 0.0 
1.211258274326e-03 4.369545175662e-03 0.0 
7.402124487241e-04 3.628517168742e-03 0.0 
1.869751102197e-04 4.465188595525e-03 0.0 
1.571479429325e-04 3.487892478480e-03 0.0 
8.242137466233e-04 -2.519136228463e-04 0.0 
6.713094846480e-04 -2.624103635882e-04 0.0 
1.597160393567e-03 6.176106087874e-04 0.0 
8.188658885682e-04 9.338054847110e-05 0.0 
1.787298005807e-04 3.047792682790e-03 0.0 
2.339715450428e-03 1.162417663583e-03 0.0 
2.541430072575e-03 1.319187917386e-03 0.0 
5.163917122992e-04 -4.224674550222e-04 0.0 
2.327651286777e-03 8.089021136058e-03 0.0 
1.989935786811e-03 7.257458196034e-03 0.0 
1.881339139393e-03 9.096325084717e-04 0.0 
1.076513748921e-03 1.158907470319e-04 0.0 
2.425029742024e-04 -7.580982591569e-04 0.0 
1.259396682467e-03 4.825294466683e-04 0.0 
4.843679653026e-04 2.895391213657e-03 0.0 
2.292000484247e-03 2.541192982520e-03 0.0 
2.630162848455e-03 3.165878310749e-03 0.0 
1.887324794094e-03 1.926880477723e-03 0.0 
5.336578635643e-04 8.368711098019e-05 0.0 
1.132859729751e-03 3.676319667012e-04 0.0 
3.622219418118e-04 -8.206802008310e-07 0.0 
1.604576692294e-03 2.242232978650e-03 0.0 
1.687030581416e-03 2.644600297351e-03 0.0 
3.207519888994e-03 7.448532917447e-03 0.0 
3.055503455764e-03 8.535013020116e-03 0.0 
2.739981919949e-03 9.303591628793e-03 0.0 
2.837219577298e-03 9.656746393015e-03 0.0 
1.872046158958e-03 7.390305107315e-03 0.0 
3.266271397846e-03 7.808166200589e-03 0.0 
2.315964713663e-03 7.669020396135e-03 0.0 
2.178832791552e-03 8.224036718365e-03 0.0 
2.318035155856e-03 8.600361929940e-03 0.0 
2.874154284216e-03 8.797859861206e-03 0.0 
2.676194603744e-03 9.515339065851e-03 0.0 
3.344372178122e-03 5.466961699504e-03 0.0 
3.245317495296e-03 3.105992557588e-03 0.0 
9.735402869404e-04 -2.270837218270e-04 0.0 
1.085936338922e-03 -1.482314777584e-06 0.0 
2.087936181500e-03 6.378361121834e-04 0.0 
3.664846876436e-04 3.243110276275e-03 0.0 
2.751713089244e-04 2.707469699437e-03 0.0 
5.050132988338e-04 6.662627573563e-03 0.0 
4.447133153354e-04 7.113184155920e-03 0.0 
4.687423039070e-04 -5.033487180225e-04 0.0 
4.430725468802e-04 -4.011746251940e-04 0.0 
1.618798095198e-03 2.020332031968e-04 0.0 
1.199395684842e-03 3.501403975146e-04 0.0 
6.148313958799e-04 2.980115200072e-03 0.0 
5.999024474530e-04 2.538906974898e-03 0.0 
7.646739511505e-04 3.050799608662e-03 0.0 
1.500909297362e-03 6.290845812792e-04 0.0 
3.097802286323e-03 3.438471040056e-03 0.0 
2.929723612788e-03 2.001576110014e-03 0.0 
9.489799128605e-04 2.891621064425e-03 0.0 
3.111621133505e-03 4.450423602873e-03 0.0 
2.993271413252e-04 -5.200071513989e-04 0.0 
2.044168102337e-03 4.434811968127e-03 0.0 
2.977421063203e-04 3.588959284117e-05 0.0 
3.431981807426e-04 6.067679367554e-05 0.0 
1.714195750717e-03 1.349823176334e-03 0.0 
1.770942241039e-03 8.826581528974e-03 0.0 
3.068889682078e-03 3.865415533453e-03 0.0 
3.205214536878e-03 3.867818824255e-03 0.0 
2.162749718564e-03 9.159276429493e-03 0.0 
2.275062497377e-03 9.532954579521e-03 0.0 
2.446086808880e-03 8.942879277893e-03 0.0 
2.373643744465e-03 9.881423218946e-03 0.0 
1.811069769713e-03 6.329432492443e-04 0.0 
1.550235878389e-03 3.779366244112e-04 0.0 
1.441756758257e-03 1.775570708848e-03 0.0 
1.614022576958e-03 1.709936565710e-03 0.0 
1.322368846261e-03 1.917067696476e-03 0.0 
1.404898022506e-03 2.282676548762e-03 0.0 
1.483653213907e-03 1.046356772788e-03 0.0 
1.735758825961e-03 1.172645111002e-03 0.0 
2.873091724160e-04 -7.058415631713e-04 0.0 
2.542088358483e-03 1.044804899801e-02 0.0 
3.654977065932e-04 2.366764125165e-03 0.0 
2.039876915068e-03 8.765350965721e-03 0.0 
9.201987384993e-04 2.797852798045e-04 0.0 
9.878684239096e-04 2.678472389251e-04 0.0 
3.112598809534e-04 2.985550632532e-03 0.0 
5.475861245714e-04 2.254983596442e-03 0.0 
1.213385132707e-04 2.532014712864e-03 0.0 
2.475397033993e-03 1.050621985357e-02 0.0 
2.567482920523e-03 1.076125775222e-02 0.0 
2.315745098017e-03 1.007555068979e-02 0.0 
4.575311341325e-05 4.591859140345e-05 0.0 
1.223780244109e-04 9.015582225424e-03 0.0 
2.234242221051e-04 5.470802295705e-05 0.0 
2.751182549080e-03 8.591055664671e-03 0.0 
1.296745133443e-04 2.058018674200e-03 0.0 
2.989208866907e-03 3.327807773267e-03 0.0 
3.370745242269e-03 7.241583189585e-03 0.0 
1.834686237742e-03 7.875693690554e-04 0.0 
9.986801884262e-05 3.049581830715e-03 0.0 
7.256499763465e-05 1.977780935872e-03 0.0 
7.666555103994e-04 7.290884237323e-03 0.0 
6.974300593965e-04 7.766185829476e-03 0.0 
8.376290232587e-04 6.845121868514e-03 0.0 
1.701678777636e-03 5.181610069388e-03 0.0 
9.358112769983e-04 5.522990463825e-03 0.0 
2.661271594977e-04 3.146311262021e-03 0.0 
5.620975845357e-04 -5.627668170827e-04 0.0 
4.603469991429e-04 -5.691217824911e-04 0.0 
8.370286108869e-04 -8.522749113199e-05 0.0 
1.057639639461e-03 -5.534138797571e-05 0.0 
9.775189169410e-04 -1.570469553600e-04 0.0 
1.136228448833e-03 -1.192858767462e-04 0.0 
2.047859940027e-03 3.932578816478e-03 0.0 
1.802693106324e-03 3.583357333606e-03 0.0 
2.518821493458e-03 4.541654598384e-03 0.0 
2.329625458107e-03 1.056505163969e-03 0.0 
2.487907017954e-03 1.172098586580e-03 0.0 
2.686965072807e-03 1.466452944623e-03 0.0 
2.769473540008e-04 2.301838071375e-03 0.0 
1.833416512652e-04 1.691515736162e-03 0.0 
2.072193006598e-03 9.145265723452e-04 0.0 
2.161588343665e-03 1.233666495198e-03 0.0 
1.721685354520e-03 4.071453761097e-04 0.0 
3.482146980492e-04 1.949198371979e-03 0.0 
2.457550830814e-04 6.459031596868e-05 0.0 
3.641719315320e-04 7.937058417148e-05 0.0 
2.483039236846e-04 -4.111235566801e-04 0.0 
3.971866937472e-04 -2.687570393079e-04 0.0 
1.746564095906e-03 8.663623181496e-03 0.0 
1.314826105027e-03 7.711181565106e-03 0.0 
5.765591632939e-04 2.137588294859e-03 0.0 
7.473315377991e-04 2.613284515529e-03 0.0 
4.046728784847e-04 1.593594780691e-03 0.0 
1.723454738982e-04 -7.625304786383e-04 0.0 
2.513637337497e-03 2.690469881140e-03 0.0 
1.137350541053e-03 4.740471725746e-04 0.0 
1.387284913007e-03 6.276953460461e-04 0.0 
8.458712968914e-04 3.255060382880e-04 0.0 
1.933785306402e-03 1.705536869947e-03 0.0 
1.459745170061e-03 1.191041311568e-03 0.0 
1.407737277211e-03 1.326804430002e-03 0.0 
3.144608758830e-05 3.725744782994e-03 0.0 
5.491269469810e-05 2.377644995482e-03 0.0 
5.332290207198e-04 7.667964434097e-03 0.0 
-2.773870340968e-04 3.161796328238e-03 0.0 
4.638409194292e-04 8.155151284107e-03 0.0 
3.832513057256e-04 7.570464196407e-03 0.0 
4.040295764710e-04 8.638198077174e-03 0.0 
1.457216845158e-04 -8.056488287628e-04 0.0 
8.843093091504e-04 8.004090300677e-03 0.0 
9.638626905347e-04 7.425956893267e-03 0.0 
1.275860274155e-04 -2.674225399568e-04 0.0 
2.339481611159e-04 1.435616297171e-03 0.0 
1.434071834399e-04 -5.164074241472e-04 0.0 
1.951123829689e-04 -6.090862115505e-04 0.0 
7.133980839278e-04 2.049096643442e-04 0.0 
7.883511716418e-04 2.037902479479e-04 0.0 
5.264187470175e-04 1.497066777168e-04 0.0 
6.184521181450e-04 1.580386539861e-04 0.0 
8.303270927109e-04 1.868260970495e-04 0.0 
6.518464753721e-04 1.436941088867e-04 0.0 
6.322676732225e-04 8.310871281014e-03 0.0 
4.277651976074e-04 1.123141570760e-04 0.0 
4.870183402995e-04 1.108572954406e-04 0.0 
2.853388134301e-04 7.679024992784e-05 0.0 
2.182691456796e-03 1.045980515311e-02 0.0 
2.865179064502e-03 9.887573055043e-03 0.0 
2.596049676422e-03 1.090395406635e-02 0.0 
2.244594954139e-03 1.187963056884e-02 0.0 
9.435555213003e-04 1.398343571519e-03 0.0 
1.140902872950e-03 1.931787633048e-03 0.0 
2.260642142334e-04 5.964540201979e-06 0.0 
2.590497460098e-04 -4.246167308705e-05 0.0 
3.193065147053e-04 8.101704631417e-03 0.0 
2.334497314113e-04 8.140974775717e-03 0.0 
2.504944520710e-04 7.224591735743e-03 0.0 
1.812424350787e-04 7.333190537244e-03 0.0 
1.923629074714e-04 6.436516227723e-03 0.0 
1.241863899679e-04 6.549446274002e-03 0.0 
1.443943525556e-04 5.654725460858e-03 0.0 
1.099043695499e-03 1.090065591391e-03 0.0 
1.976186102829e-03 1.132927594859e-02 0.0 
2.006557121836e-03 9.705791202883e-03 0.0 
1.230777312252e-03 7.803851768172e-04 0.0 
1.532059295769e-03 9.403717135960e-04 0.0 
2.469738664740e-03 1.018883619443e-02 0.0 
2.314210917629e-03 1.114787418958e-02 0.0 
7.526756704983e-04 2.502106602194e-04 0.0 
3.379040453591e-03 6.820299330277e-03 0.0 
1.743405555857e-04 9.072490692816e-04 0.0 
-9.550868135190e-04 5.998665073871e-03 0.0 
-9.883859514607e-05 5.459589368944e-03 0.0 
3.398724823909e-03 7.105226996084e-03 0.0 
2.565621313951e-03 9.251246384797e-03 0.0 
2.861594871360e-03 9.948114022716e-03 0.0 
2.612001163762e-03 1.081219407812e-02 0.0 
2.114938854808e-03 9.297323856073e-04 0.0 
3.164839438501e-04 -1.034280854338e-04 0.0 
2.076057843647e-03 9.459325152789e-03 0.0 
2.100698254630e-04 5.557223903511e-03 0.0 
1.372537337601e-03 1.011564796101e-02 0.0 
1.187086001872e-04 -2.247552541281e-05 0.0 
3.440949715259e-03 5.873536141133e-03 0.0 
2.919610710692e-03 7.902024929076e-03 0.0 
2.577459647342e-03 8.770235135472e-03 0.0 
3.106835087469e-03 8.804977214258e-03 0.0 
1.982349637176e-03 6.880756253922e-03 0.0 
1.759081326864e-03 7.886647260104e-03 0.0 
1.897344381440e-03 8.343139325484e-03 0.0 
3.448505262967e-03 5.014498047356e-03 0.0 
2.591954637988e-03 1.065886981968e-02 0.0 
2.339176204856e-03 1.167237270327e-02 0.0 
2.445057669079e-03 7.100664619349e-03 0.0 
9.403457087214e-04 3.556449815640e-03 0.0 
9.343680027698e-04 3.102936122194e-03 0.0 
7.171151360671e-04 2.206280697368e-03 0.0 
9.109818181057e-04 2.663778839419e-03 0.0 
1.132485498600e-03 3.590470437530e-03 0.0 
1.122776786655e-03 3.135905304191e-03 0.0 
8.677020227654e-04 2.241813875505e-03 0.0 
1.093690901057e-03 2.691081091063e-03 0.0 
7.333806092041e-04 1.647762637024e-03 0.0 
1.031503863887e-03 2.236867713071e-03 0.0 
1.330537267153e-03 3.150792043791e-03 0.0 
1.295169752803e-03 2.719280463783e-03 0.0 
9.917333783325e-04 1.923942585693e-03 0.0 
1.579132493498e-03 3.642166656194e-03 0.0 
9.483348787061e-04 6.261930811639e-04 0.0 
3.460657204035e-03 6.391513513622e-03 0.0 
4.700878480309e-04 4.523227902568e-03 0.0 
3.947424384173e-04 6.481594750205e-03 0.0 
2.771879286327e-03 7.684166780861e-03 0.0 
3.522762274608e-04 7.862354202780e-04 0.0 
2.833759135500e-04 7.932949504263e-04 0.0 
3.159651938049e-03 5.915206383199e-03 0.0 
4.871942948547e-04 6.373006465888e-04 0.0 
2.026600098763e-03 7.821317876894e-03 0.0 
2.234535278503e-03 4.953253374068e-03 0.0 
5.417278902872e-04 5.840592706113e-04 0.0 
1.124139345046e-03 4.049201415721e-03 0.0 
1.313927283634e-03 4.550869735581e-03 0.0 
1.274991941708e-03 5.019195090981e-03 0.0 
2.149330200195e-04 7.509974761487e-04 0.0 
9.042998545594e-04 6.388182359818e-03 0.0 
5.594474347226e-04 4.181417254653e-04 0.0 
3.067895442464e-03 2.722303497375e-03 0.0 
3.201607770957e-03 3.238802412107e-03 0.0 
3.355027927153e-03 3.677348852514e-03 0.0 
1.344951827526e-03 3.622812318272e-03 0.0 
5.605328781550e-04 3.010914142619e-04 0.0 
1.020505343068e-03 5.439018666367e-04 0.0 
9.778203932039e-04 4.802073667594e-04 0.0 
1.442830782586e-03 7.607056646033e-04 0.0 
5.119683533227e-04 2.364201238018e-04 0.0 
3.792627537559e-04 6.757219680940e-04 0.0 
3.895791582613e-04 6.239102022441e-04 0.0 
1.932671438933e-03 1.247130152361e-03 0.0 
2.234971523345e-03 1.618085490705e-03 0.0 
2.432733321239e-03 1.578443704697e-03 0.0 
2.523125378925e-03 2.013323529943e-03 0.0 
2.287199474108e-03 2.081082938269e-03 0.0 
2.591785049488e-03 2.528943022996e-03 0.0 
2.784930618908e-03 2.418996613608e-03 0.0 
2.636670824860e-03 3.141359314125e-03 0.0 
1.492415430394e-03 2.733275266480e-03 0.0 
4.376981213025e-04 1.746557040861e-04 0.0 
1.994816909497e-03 6.113899441279e-04 0.0 
2.201184130087e-03 7.915829500119e-04 0.0 
2.279439613158e-03 8.354053729167e-04 0.0 
1.117818588356e-03 -1.853873078132e-04 0.0 
1.290758545686e-03 -6.310685001976e-05 0.0 
1.293946864589e-03 -5.225340297989e-06 0.0 
9.447354957573e-04 -2.987135609198e-04 0.0 
2.700755305300e-03 3.673500338371e-03 0.0 
4.079163204901e-04 1.523024416788e-04 0.0 
2.742957758679e-03 1.633244720096e-03 0.0 
1.440156276568e-03 1.552322357223e-05 0.0 
1.194307538301e-03 8.986451615469e-03 0.0 
1.236584976539e-03 8.103923460703e-03 0.0 
1.356586841046e-03 8.051826296794e-03 0.0 
1.250427314810e-03 7.088947121422e-03 0.0 
1.097620584630e-03 8.010732721009e-03 0.0 
8.166469186276e-04 -1.786759930967e-04 0.0 
6.555429170793e-04 -1.867433930267e-04 0.0 
5.159544844949e-04 -2.606682410854e-04 0.0 
4.957540458813e-04 -1.836509636811e-04 0.0 
3.606918572199e-04 -2.484124844483e-04 0.0 
3.755601132481e-04 -3.277853996325e-04 0.0 
3.358524044865e-04 -1.715545048915e-04 0.0 
2.093540568843e-04 -2.358504189119e-04 0.0 
9.608089093469e-04 9.018242982173e-03 0.0 
-4.990839598498e-04 1.593352013384e-03 0.0 
3.392873604138e-06 1.308565347239e-03 0.0 
1.494149861931e-05 8.524946059428e-04 0.0 
3.849686007922e-04 1.059175322285e-03 0.0 
4.494248642896e-04 1.536771709124e-03 0.0 
8.549904261496e-04 1.270380483685e-03 0.0 
8.773813260220e-04 1.796856912539e-03 0.0 
-1.196183016397e-05 1.881345070848e-03 0.0 
-3.213045161505e-04 6.798944304184e-04 0.0 
4.119959975713e-05 4.849699046765e-04 0.0 
-2.446266926868e-04 3.449075390985e-04 0.0 
5.228028738503e-05 1.900313184936e-04 0.0 
3.887446106291e-04 3.193458434227e-04 0.0 
6.243910254325e-04 -2.568769477706e-04 0.0 
1.281588665237e-04 4.642466802133e-05 0.0 
1.389015204851e-04 -4.742958444490e-04 0.0 
2.645000682546e-04 -5.053876681915e-04 0.0 
2.464792659773e-04 -5.829467793078e-04 0.0 
3.938922791185e-04 -5.205179369671e-04 0.0 
2.667570593931e-04 -4.298929602798e-04 0.0 
1.172628398484e-04 -6.345924040396e-04 0.0 
2.215427404057e-04 -6.487727321096e-04 0.0 
1.594003790155e-05 -8.646353676610e-04 0.0 
4.592709804032e-05 -8.732930816395e-04 0.0 
1.926691058633e-05 -8.946703053081e-04 0.0 
6.117922224922e-05 -8.710229105309e-04 0.0 
9.797846687211e-05 -8.467299464167e-04 0.0 
6.610371905753e-05 -8.415653128379e-04 0.0 
8.314576408079e-05 -7.968123193991e-04 0.0 
1.490407770914e-05 -7.708481047031e-04 0.0 
9.671287860301e-05 -7.379652716151e-04 0.0 
1.723005970864e-04 -7.610969877961e-04 0.0 
4.179434962631e-06 -7.022304650495e-04 0.0 
4.559005459727e-05 4.359674491478e-03 0.0 
8.589945437659e-05 3.872150084537e-03 0.0 
3.640339944575e-04 1.202667526293e-04 0.0 
7.409661460793e-04 8.938871197561e-03 0.0 
-1.179418716280e-04 -1.551457476660e-04 0.0 
6.655203019416e-05 9.794917607221e-04 0.0 
1.011893046507e-04 8.109922361310e-04 0.0 
8.125526513926e-05 7.856448769743e-04 0.0 
7.495631109923e-05 4.353359495176e-05 0.0 
1.215782779270e-04 5.069437304006e-05 0.0 
3.660182736537e-05 9.524587325285e-04 0.0 
9.619283542354e-04 -2.979942181691e-04 0.0 
6.684642145570e-04 1.815299153572e-03 0.0 
1.920272564678e-04 2.607926678988e-03 0.0 
2.144450265953e-03 6.011997454132e-03 0.0 
1.297392478513e-03 1.485893605183e-04 0.0 
4.107714938209e-04 -5.242861893503e-05 0.0 
1.202119564973e-03 9.006424786491e-05 0.0 
4.819554464863e-04 7.115540131840e-05 0.0 
7.394565758017e-04 -4.908874858196e-05 0.0 
8.048218823347e-04 1.110796353049e-04 0.0 
9.545941538473e-04 4.285175099082e-04 0.0 
1.967905697760e-04 -7.959283030586e-04 0.0 
5.616529698526e-04 6.211111704907e-03 0.0 
3.640992071830e-04 6.564958773834e-03 0.0 
3.264231636709e-04 4.127852735362e-03 0.0 
6.471632913083e-04 -5.364953408714e-04 0.0 
5.284686810162e-04 -3.357826331073e-04 0.0 
4.724049775154e-04 -5.801857621239e-04 0.0 
9.634525966292e-04 1.162079551829e-03 0.0 
2.468696833311e-03 8.020005789147e-03 0.0 
2.131181073862e-03 6.526952889395e-04 0.0 
1.071002490492e-03 -2.523226825496e-04 0.0 
1.170371019808e-03 -1.447696632284e-04 0.0 
1.330103590617e-03 3.500380698075e-04 0.0 
3.397215630593e-03 6.504632661042e-03 0.0 
1.621020760638e-03 1.642158270657e-04 0.0 
1.423848722327e-03 3.398486579301e-04 0.0 
2.475435544126e-04 3.587256171986e-03 0.0 
-1.897801275181e-05 -4.992194041672e-04 0.0 
1.440504309790e-03 4.041727280336e-04 0.0 
1.577064743094e-03 2.327318175105e-04 0.0 
7.793070088794e-04 5.845399862257e-03 0.0 
2.331009537645e-03 1.597005033669e-03 0.0 
9.768532739058e-04 8.917944416303e-04 0.0 
4.688545205064e-04 3.781208360977e-03 0.0 
4.567069719829e-04 2.080034844706e-03 0.0 
1.030768978858e-03 6.923753422873e-03 0.0 
3.299489598184e-04 -6.069066322795e-04 0.0 
6.010525109005e-04 7.229248123253e-03 0.0 
1.022342658392e-03 3.636023192322e-04 0.0 
9.296530186179e-04 4.010703373291e-03 0.0 
4.943817850054e-04 -6.243876663280e-04 0.0 
3.043262550273e-03 2.222531283270e-03 0.0 
3.058715995273e-03 7.191930846582e-03 0.0 
1.748706943384e-03 9.756327010314e-03 0.0 
1.972442769893e-04 2.205998117700e-03 0.0 
3.362231610875e-03 4.425044583674e-03 0.0 
1.876462819425e-03 1.029757510810e-03 0.0 
2.756430268663e-03 1.770572127767e-03 0.0 
4.188821955729e-04 -6.390085421057e-04 0.0 
1.021423580190e-03 2.409376739863e-04 0.0 
3.361969186805e-03 3.484228001807e-03 0.0 
3.726710460127e-04 2.809761600308e-03 0.0 
2.272071079743e-03 3.745105213598e-03 0.0 
3.197759802378e-03 3.202941136431e-03 0.0 
6.149725290737e-04 3.423227781103e-03 0.0 
2.463676597481e-03 1.077499826120e-03 0.0 
2.167178030934e-03 1.562178383098e-03 0.0 
2.615019719965e-03 8.325725645416e-03 0.0 
2.706400050960e-03 5.348767277362e-03 0.0 
2.014475928360e-03 4.939940047446e-03 0.0 
3.115078004620e-03 5.065326609859e-03 0.0 
2.814034585154e-04 -1.050385497809e-04 0.0 
1.226414034996e-03 3.124620316230e-04 0.0 
1.501402477846e-03 2.816393671972e-03 0.0 
3.275872747539e-03 8.008307731270e-03 0.0 
9.624763922310e-04 5.913043595432e-03 0.0 
1.769486761428e-03 2.109295093854e-03 0.0 
2.594142838293e-04 1.841074961178e-03 0.0 
3.047509858617e-03 8.047769675322e-03 0.0 
1.019630957201e-03 1.996281731313e-04 0.0 
4.773834427648e-04 2.486010073053e-03 0.0 
1.459393688448e-03 6.679799828651e-05 0.0 
7.102915322384e-05 -8.150526325946e-04 0.0 
1.562071940191e-03 6.341914113967e-03 0.0 
2.920994642606e-03 3.657710937505e-03 0.0 
3.428153230002e-03 4.306858287419e-03 0.0 
1.442380304658e-03 1.126487829540e-04 0.0 
5.073121714740e-04 1.618967070126e-03 0.0 
8.329241216182e-04 1.538508707240e-04 0.0 
1.879868605402e-03 7.369644824287e-04 0.0 
-1.563052706880e-04 9.733482863985e-03 0.0 
1.897595386951e-03 9.267662826374e-03 0.0 
6.595535282955e-04 1.200877551972e-04 0.0 
2.873427704215e-03 1.815224984544e-03 0.0 
1.949983870941e-03 1.258446223661e-03 0.0 
2.272698088882e-04 -3.095922903991e-04 0.0 
1.018986837753e-03 1.113326888128e-03 0.0 
2.266010910912e-03 1.079552356302e-02 0.0 
5.015206465229e-04 9.573840914746e-05 0.0 
2.078900896374e-03 9.938569595609e-04 0.0 
3.304361351293e-03 6.412864588139e-03 0.0 
2.032132433783e-04 9.018271507144e-03 0.0 
3.184113622923e-04 8.219978196358e-05 0.0 
1.743320303508e-03 8.063399479932e-04 0.0 
2.937559280538e-03 4.362667180772e-03 0.0 
2.774519126773e-03 1.600884057277e-03 0.0 
1.924160991225e-03 1.061520659549e-02 0.0 
1.264077845478e-03 4.617893472647e-05 0.0 
2.496136827963e-03 5.089904213662e-03 0.0 
1.847691638663e-04 7.368350251780e-04 0.0 
1.637910639975e-03 8.138530101403e-04 0.0 
1.453601437290e-03 5.532279343375e-03 0.0 
1.125831185462e-03 -5.710758658592e-05 0.0 
2.868218508227e-03 2.822720507517e-03 0.0 
1.336923130550e-04 -8.109788787928e-04 0.0 
2.099667970975e-03 1.008673656946e-02 0.0 
9.562442465152e-04 -9.133316475967e-05 0.0 
2.864625329918e-03 2.989199823610e-03 0.0 
2.592125374054e-03 1.278823723666e-03 0.0 
1.227280245652e-03 9.011215158403e-04 0.0 
7.882629417597e-04 -1.102976439004e-04 0.0 
3.012528523914e-03 2.818154629735e-03 0.0 
6.230338580876e-04 -1.170303897659e-04 0.0 
2.047967439368e-03 1.138530622830e-02 0.0 
1.505241028186e-03 5.036720488349e-03 0.0 
4.561815046836e-04 -1.146780204136e-04 0.0 
2.288574545971e-03 4.257744516713e-03 0.0 
2.132116989292e-04 -6.930464710638e-04 0.0 
2.901333594168e-03 3.804135979549e-03 0.0 
1.754608798672e-04 3.873249712257e-05 0.0 
1.617183676494e-03 2.205940950894e-04 0.0 
2.401686663114e-03 1.012503456615e-03 0.0 
1.337462272445e-03 4.082691573841e-03 0.0 
2.088718395311e-03 1.206568900235e-02 0.0 
2.284228121618e-03 9.340277210042e-04 0.0 
2.021287031843e-03 3.445456843938e-03 0.0 
2.826282357127e-03 3.280731861102e-03 0.0 
3.301099425139e-03 3.806435618942e-03 0.0 
2.110180187648e-03 8.418735693963e-04 0.0 
2.350259270949e-03 1.137573415741e-02 0.0 
1.006762747363e-03 -1.974211557766e-04 0.0 
8.310881243669e-04 -2.307917354130e-04 0.0 
2.903209434240e-03 2.287419892160e-03 0.0 
1.758116793208e-03 3.103274927913e-03 0.0 
1.198325594089e-04 -8.369750526276e-04 0.0 
1.570342910477e-03 4.088943921825e-03 0.0 
5.894558014444e-04 -1.034205800004e-04 0.0 
2.682928890505e-03 1.933825395687e-03 0.0 
2.336467262798e-03 2.216997545895e-03 0.0 
5.608959948525e-05 6.298756079785e-03 0.0 
2.562598271211e-03 1.522495462098e-03 0.0 
8.451934473417e-05 -7.644705835635e-04 0.0 
2.326151501572e-03 1.214859327003e-03 0.0 
3.113925685694e-03 3.309150690049e-03 0.0 
2.205540329592e-03 9.101712057656e-04 0.0 
1.967398505550e-03 6.509143492104e-04 0.0 
1.316680655977e-04 1.679036976007e-03 0.0 
1.849318947840e-03 4.340512998006e-04 0.0 
1.835406391341e-05 7.880329545528e-04 0.0 
5.329738734300e-05 3.709983084077e-05 0.0 
7.554223407622e-05 8.260324150211e-03 0.0 
2.000912313739e-03 1.271158260402e-02 0.0 
-8.043692845134e-04 3.831261441348e-03 0.0 
2.377458281040e-03 1.161131999494e-02 0.0 
1.478792687469e-03 1.862749459579e-04 0.0 
1.815225774957e-03 4.060590428972e-03 0.0 
1.569387253242e-04 8.215700889088e-03 0.0 
1.238824225356e-03 -1.637034958591e-05 0.0 
7.104256429325e-04 1.403097588828e-03 0.0 
5.401915003104e-04 4.811035077473e-04 0.0 
9.838496452226e-05 4.794581561302e-03 0.0 
1.737686190093e-03 1.014687060356e-03 0.0 
2.702785045096e-03 2.775971816208e-03 0.0 
2.734148672631e-05 2.474605653763e-03 0.0 
4.746539049926e-04 9.107008677239e-03 0.0 
6.724798133062e-05 -5.600934943339e-05 0.0 
1.351622660616e-04 -8.032450132948e-05 0.0 
1.825039050661e-03 1.300050144709e-02 0.0 
2.135436290297e-03 1.168797932572e-02 0.0 
1.691190480335e-03 1.083876241768e-02 0.0 
3.246076302510e-04 -6.467911473508e-04 0.0 
3.488131595827e-04 6.598082365375e-04 0.0 
1.571669492728e-03 1.258337844544e-02 0.0 
1.082200509438e-03 6.251514302368e-04 0.0 
7.896372524936e-04 8.212624342127e-03 0.0 
2.144594088322e-03 2.130228426133e-03 0.0 
8.370393563929e-04 1.162480516457e-02 0.0 
3.259458325249e-04 1.598654085594e-03 0.0 
1.123358769733e-03 9.404769977103e-04 0.0 
2.589337686246e-04 7.750094074657e-05 0.0 
1.682491643252e-03 1.534467422584e-03 0.0 
9.264414420000e-04 9.174741860383e-03 0.0 
1.146571422284e-03 7.315628480772e-03 0.0 
9.115479670701e-04 1.207284154946e-03 0.0 
1.313995450436e-04 4.011487369813e-03 0.0 
1.914548356420e-04 5.718210156612e-05 0.0 
9.986539269415e-04 8.293225501030e-03 0.0 
7.997917421301e-05 1.565049451077e-03 0.0 
1.126997883386e-03 2.308445896181e-03 0.0 
4.093289506574e-05 1.519104643702e-03 0.0 
1.549902595515e-03 3.173536323464e-03 0.0 
3.150172848067e-04 7.017942453180e-03 0.0 
1.381799677315e-03 7.301967099554e-03 0.0 
1.462059860752e-04 5.408166586181e-05 0.0 
6.012355031281e-04 1.470816914389e-03 0.0 
4.203918809478e-04 7.844836936026e-03 0.0 
1.545435734177e-04 4.895761845037e-03 0.0 
5.310114132743e-04 -4.868031678979e-04 0.0 
-1.456260702323e-04 2.528268784295e-03 0.0 
6.315197750730e-04 1.973240936725e-04 0.0 
1.239371906379e-03 2.335396662610e-03 0.0 
2.429352634689e-04 6.755473352215e-05 0.0 
2.614630318871e-05 -8.817697733471e-04 0.0 
7.849665051812e-05 -4.141879049605e-04 0.0 
6.930752623989e-04 2.480853228961e-04 0.0 
7.602441468320e-04 1.223904127110e-03 0.0 
1.265700365106e-03 1.655837332465e-03 0.0 
1.073943968454e-04 6.319529253153e-04 0.0 
-3.809364340689e-04 6.651937332585e-03 0.0 
6.517925181823e-04 9.219317622831e-03 0.0 
9.435606926152e-05 -6.699728414874e-04 0.0 
1.534246981775e-04 4.799839173183e-05 0.0 
1.910631064903e-04 1.494679326859e-03 0.0 
3.740457486906e-04 -4.530504766677e-04 0.0 
1.428521960481e-03 8.820077176858e-03 0.0 
1.935527145957e-04 -7.123294904945e-04 0.0 
1.393500103368e-03 1.540336050424e-03 0.0 
2.833731122855e-04 7.741723632738e-05 0.0 
1.305005206598e-04 1.411652558448e-03 0.0 
7.802150749583e-04 3.245511559840e-04 0.0 
3.977442156635e-04 1.376738588443e-03 0.0 
4.318401106916e-04 2.708097853558e-04 0.0 
-2.541684455072e-04 4.467774494131e-03 0.0 
9.557946059385e-04 8.554554881886e-04 0.0 
1.284991226166e-03 6.192659487179e-04 0.0 
3.553300093023e-04 9.143447327327e-03 0.0 
5.107546008061e-04 1.458737864284e-03 0.0 
3.404348006703e-04 -5.909206804815e-04 0.0 
2.593286350220e-04 -7.285043273587e-04 0.0 
7.738236901745e-06 6.978533646895e-04 0.0 
3.771253176501e-06 -9.007303271537e-04 0.0 
5.973336901004e-05 9.131765770278e-03 0.0 
2.071372345151e-05 2.855220544813e-05 0.0 
1.549781106184e-04 -8.167798697021e-04 0.0 
1.230581893449e-04 7.529844780691e-03 0.0 
6.819696804293e-04 1.208421229904e-03 0.0 
1.000122462261e-04 -3.024123760202e-04 0.0 
6.362900274610e-05 3.105717791315e-03 0.0 
6.491981302998e-04 8.592716608536e-04 0.0 
-8.340714522511e-04 2.899501950208e-03 0.0 
9.562708912546e-05 5.803217688069e-03 0.0 
1.019732776189e-03 7.812338338534e-04 0.0 
3.039709753602e-04 1.327821091359e-03 0.0 
2.500382391621e-04 6.474255214470e-03 0.0 
1.025260053499e-03 6.762904951970e-03 0.0 
9.696275299374e-04 1.722609823191e-03 0.0 
3.995178425256e-04 -3.869153320598e-04 0.0 
1.258332883660e-03 1.664879369956e-03 0.0 
1.391678800351e-03 7.888332302249e-04 0.0 
-8.750464613477e-04 6.993049379927e-03 0.0 
8.754661548593e-05 -2.223573780773e-04 0.0 
8.277253491682e-05 -5.907106646981e-04 0.0 
4.313977753600e-04 1.195268756211e-04 0.0 
2.656946638903e-04 -3.657259471366e-04 0.0 
-1.438283295236e-03 1.287641298599e-02 0.0 
5.764183365812e-05 1.841883595638e-02 0.0 
1.348313949194e-04 1.381681928059e-02 0.0 
4.624286513129e-05 1.741146776355e-02 0.0 
1.058979229287e-03 1.429891129097e-02 0.0 
4.266592405686e-05 1.640782637841e-02 0.0 
1.499842530048e-03 1.405188608179e-02 0.0 
4.175029921727e-05 1.540446463403e-02 0.0 
1.716167727553e-03 1.352335262664e-02 0.0 
4.156152940716e-05 1.439995739926e-02 0.0 
1.799546260349e-03 1.285444328168e-02 0.0 
4.141543950720e-05 1.339449201079e-02 0.0 
1.779991940848e-03 1.209816924452e-02 0.0 
4.149882812098e-05 1.238776199989e-02 0.0 
1.684341751385e-03 1.125254463290e-02 0.0 
4.119246282923e-05 1.138035843211e-02 0.0 
1.534786589065e-03 1.035776954415e-02 0.0 
4.066621958698e-05 1.037243574528e-02 0.0 

VECTORS node_materi_displacement float
0.0 7.860684296913e-02 0.0 
0.0 7.315910696371e-02 0.0 
0.0 0.0 0.0 
0.0 0.0 0.0 
0.0 7.876749357176e-02 0.0 
0.0 7.841967756758e-02 0.0 
0.0 7.758210993895e-02 0.0 
0.0 7.626158047367e-02 0.0 
0.0 7.444790873067e-02 0.0 
0.0 7.218657109673e-02 0.0 
0.0 6.950124348904e-02 0.0 
0.0 6.640646217498e-02 0.0 
0.0 6.292098110141e-02 0.0 
0.0 5.905433638388e-02 0.0 
0.0 5.480694715400e-02 0.0 
0.0 5.018553107906e-02 0.0 
0.0 4.519882214996e-02 0.0 
0.0 3.985990334507e-02 0.0 
0.0 3.414101414390e-02 0.0 
0.0 2.804943152423e-02 0.0 
0.0 2.158740988326e-02 0.0 
0.0 1.475309956575e-02 0.0 
0.0 7.552464651758e-03 0.0 
0.0 0.0 0.0 
0.0 0.0 0.0 
0.0 0.0 0.0 
0.0 0.0 0.0 
0.0 0.0 0.0 
0.0 0.0 0.0 
0.0 0.0 0.0 
0.0 0.0 0.0 
0.0 0.0 0.0 
0.0 0.0 0.0 
0.0 0.0 0.0 
0.0 0.0 0.0 
0.0 0.0 0.0 
0.0 0.0 0.0 
0.0 0.0 0.0 
0.0 0.0 0.0 
0.0 0.0 0.0 
0.0 0.0 0.0 
0.0 0.0 0.0 
0.0 0.0 0.0 
0.0 0.0 0.0 
0.0 0.0 0.0 
0.0 0.0 0.0 
0.0 0.0 0.0 
0.0 0.0 0.0 
0.0 0.0 0.0 
0.0 0.0 0.0 
0.0 0.0 0.0 
0.0 0.0 0.0 
0.0 0.0 0.0 
0.0 0.0 0.0 
0.0 0.0 0.0 
0.0 0.0 0.0 
0.0 0.0 0.0 
0.0 0.0 0.0 
0.0 0.0 0.0 
0.0 0.0 0.0 
0.0 0.0 0.0 
0.0 0.0 0.0 
0.0 0.0 0.0 
0.0 0.0 0.0 
0.0 0.0 0.0 
0.0 0.0 0.0 
0.0 0.0 0.0 
0.0 0.0 0.0 
0.0 0.0 0.0 
0.0 0.0 0.0 
0.0 0.0 0.0 
0.0 0.0 0.0 
0.0 6.767803581040e-02 0.0 
0.0 6.177590177618e-02 0.0 
0.0 5.545151905441e-02 0.0 
0.0 4.872152843300e-02 0.0 
0.0 4.158062750127e-02 0.0 
0.0 3.404228453161e-02 0.0 
0.0 2.610962954480e-02 0.0 
0.0 1.778740015688e-02 0.0 
0.0 9.083239273711e-03 0.0 
-7.652399011618e-03 3.571435890114e-02 0.0 
6.178295279713e-03 7.083487830674e-02 0.0 
-2.047086562280e-03 5.577757017649e-02 0.0 
2.646312665596e-03 6.748681974867e-02 0.0 
5.388127261905e-03 7.461608451803e-02 0.0 
6.670891269867e-03 7.872716752019e-02 0.0 
7.317383064844e-03 8.068068491143e-02 0.0 
7.572085712333e-03 8.100276883160e-02 0.0 
7.530006380280e-03 7.999649314068e-02 0.0 
7.255137681327e-03 7.786932535838e-02 0.0 
6.790135959820e-03 7.477217170549e-02 0.0 
0.0 1.028811212727e-01 0.0 
0.0 1.012959849456e-01 0.0 
0.0 9.932553944432e-02 0.0 
0.0 9.689288782505e-02 0.0 
0.0 9.405374978905e-02 0.0 
0.0 9.073692758785e-02 0.0 
0.0 8.701307542766e-02 0.0 
0.0 8.281467944777e-02 0.0 
0.0 7.821621622826e-02 0.0 
3.481304115211e-04 7.315764295392e-02 0.0 
6.847109166715e-04 7.315127790009e-02 0.0 
1.031600148338e-03 7.313797451256e-02 0.0 
1.385282411260e-03 7.310970707092e-02 0.0 
1.744646184606e-03 7.308003987104e-02 0.0 
2.113894390049e-03 7.302338457235e-02 0.0 
2.497403046720e-03 7.295523273094e-02 0.0 
2.887673920105e-03 7.285592399656e-02 0.0 
3.303225975538e-03 7.273845765695e-02 0.0 
3.736736873595e-03 7.257113734303e-02 0.0 
4.185836159115e-03 7.235870813607e-02 0.0 
4.654949018568e-03 7.209480312087e-02 0.0 
5.141881621969e-03 7.176080334154e-02 0.0 
5.648380939549e-03 7.134165805882e-02 0.0 
-5.438218095583e-03 2.433187414708e-02 0.0 
-2.066316721290e-03 1.922389725060e-02 0.0 
1.578515805450e-03 1.823549121821e-02 0.0 
5.449319523193e-03 2.155783069639e-02 0.0 
8.007735095712e-03 3.139939763054e-02 0.0 
9.113764364221e-03 4.268789889613e-02 0.0 
9.239075953563e-03 5.037924736781e-02 0.0 
8.896419063721e-03 5.639343104480e-02 0.0 
8.053954897325e-03 6.122000790424e-02 0.0 
7.252220216974e-03 6.509402645798e-02 0.0 
6.507471548488e-03 6.824565953529e-02 0.0 
5.734639152840e-03 7.075088204681e-02 0.0 
5.035223559127e-03 7.281264917336e-02 0.0 
4.243430737102e-03 7.448374369163e-02 0.0 
3.491718719500e-03 7.582082734026e-02 0.0 
2.793008570191e-03 7.684970582500e-02 0.0 
2.117030517486e-03 7.763909272991e-02 0.0 
1.447293630363e-03 7.820925725868e-02 0.0 
7.312998799856e-04 7.852146686128e-02 0.0 
2.115165296042e-04 1.028337371622e-01 0.0 
3.864188421055e-04 1.028152596286e-01 0.0 
5.203091920756e-04 1.028079793954e-01 0.0 
6.554099500388e-04 1.027841614475e-01 0.0 
7.852259122550e-04 1.027454806766e-01 0.0 
9.040060701915e-04 1.026893413219e-01 0.0 
1.007472440650e-03 1.026115205771e-01 0.0 
1.092100377129e-03 1.025066342855e-01 0.0 
1.154749837090e-03 1.023681378010e-01 0.0 
1.192502184607e-03 1.021882379849e-01 0.0 
1.202599422129e-03 1.019577710608e-01 0.0 
1.182438433935e-03 1.016660516345e-01 0.0 
1.129604900597e-03 1.013006848576e-01 0.0 
1.041951227682e-03 1.008473470649e-01 0.0 
9.177221725034e-04 1.002894961921e-01 0.0 
7.557261935500e-04 9.960803969507e-02 0.0 
5.555726326176e-04 9.878077255616e-02 0.0 
3.172147058727e-04 9.778194678719e-02 0.0 
4.244350269176e-05 9.658128940867e-02 0.0 
-2.634716236323e-04 9.514359209747e-02 0.0 
-6.000701644594e-04 9.342571569670e-02 0.0 
-9.715650815371e-04 9.137427455388e-02 0.0 
-1.430814072802e-03 8.890997237317e-02 0.0 
-1.932397653525e-03 8.593668364042e-02 0.0 
-2.582744679086e-03 8.229027226841e-02 0.0 
-3.022535098760e-03 7.775314001205e-02 0.0 
-3.122967821445e-03 7.214505745989e-02 0.0 
-3.242429832284e-03 6.516850299250e-02 0.0 
1.959288016841e-03 7.387579330434e-02 0.0 
1.577878439329e-03 7.902257600496e-02 0.0 
1.348242846320e-03 8.314330076037e-02 0.0 
1.264069999904e-03 8.642229611334e-02 0.0 
1.261335901571e-03 8.912197816417e-02 0.0 
1.297092853184e-03 9.134608597450e-02 0.0 
1.352910538302e-03 9.320291128944e-02 0.0 
1.417803210970e-03 9.475052198637e-02 0.0 
1.483993203050e-03 9.603720425089e-02 0.0 
1.543856741343e-03 9.710211474022e-02 0.0 
1.591649423110e-03 9.797939831969e-02 0.0 
1.623207486394e-03 9.869812804235e-02 0.0 
1.635901770963e-03 9.928292658472e-02 0.0 
1.628204197711e-03 9.975505434637e-02 0.0 
1.599548050812e-03 1.001328209506e-01 0.0 
1.550088640309e-03 1.004320192429e-01 0.0 
1.480540313027e-03 1.006662642438e-01 0.0 
1.392043647066e-03 1.008472600912e-01 0.0 
1.286075505756e-03 1.009850207679e-01 0.0 
1.164382044747e-03 1.010880573300e-01 0.0 
1.028929955842e-03 1.011635311836e-01 0.0 
8.818549385702e-04 1.012173737674e-01 0.0 
7.253588503793e-04 1.012543513526e-01 0.0 
5.614468236072e-04 1.012780564968e-01 0.0 
3.913813714745e-04 1.012919931959e-01 0.0 
2.161125342702e-04 1.013212497317e-01 0.0 
4.660270077493e-03 7.913960036710e-02 0.0 
4.114610027523e-03 8.278302705571e-02 0.0 
3.701906814391e-03 8.574569410236e-02 0.0 
3.387683455789e-03 8.820180118529e-02 0.0 
3.149897769514e-03 9.023683742651e-02 0.0 
2.965442719174e-03 9.193900218291e-02 0.0 
2.818631682309e-03 9.335703708897e-02 0.0 
2.696047267974e-03 9.453651445136e-02 0.0 
2.587367456339e-03 9.551233653017e-02 0.0 
2.485322824263e-03 9.631595464049e-02 0.0 
2.384263576237e-03 9.697351184675e-02 0.0 
2.280194660384e-03 9.750777157662e-02 0.0 
2.170247890244e-03 9.793823753343e-02 0.0 
2.052521956094e-03 9.828182909975e-02 0.0 
1.925876344378e-03 9.855315140341e-02 0.0 
1.789790474604e-03 9.876483725865e-02 0.0 
1.644214365170e-03 9.892774546418e-02 0.0 
1.489461689308e-03 9.905116885305e-02 0.0 
1.326120183198e-03 9.914300414051e-02 0.0 
1.154965086003e-03 9.920988048614e-02 0.0 
9.768511737280e-04 9.925723936153e-02 0.0 
7.925794241906e-04 9.928935628585e-02 0.0 
6.027755222274e-04 9.930931097428e-02 0.0 
4.077252069092e-04 9.931828385280e-02 0.0 
2.052157287704e-04 9.929735128849e-02 0.0 
2.278711894613e-04 9.692382228746e-02 0.0 
4.558011896396e-04 9.690297973955e-02 0.0 
6.811180799423e-04 9.689266508810e-02 0.0 
9.036190067077e-04 9.687338500821e-02 0.0 
1.123187121887e-03 9.684164815420e-02 0.0 
1.339746832993e-03 9.679393030443e-02 0.0 
1.553226612130e-03 9.672560369798e-02 0.0 
1.763596994067e-03 9.663077418917e-02 0.0 
1.970977868862e-03 9.650220230177e-02 0.0 
2.175728638370e-03 9.633122031688e-02 0.0 
2.378542406154e-03 9.610758187950e-02 0.0 
2.580535275196e-03 9.581926948264e-02 0.0 
2.783358591521e-03 9.545223073460e-02 0.0 
2.989454246749e-03 9.499019053431e-02 0.0 
3.202051003486e-03 9.441426603760e-02 0.0 
3.425610746445e-03 9.370270985459e-02 0.0 
3.665397060177e-03 9.282984727338e-02 0.0 
3.929151168199e-03 9.176663414842e-02 0.0 
4.224527563008e-03 9.047700233695e-02 0.0 
4.565158414815e-03 8.892227108934e-02 0.0 
4.960725417529e-03 8.704511651952e-02 0.0 
5.438994938527e-03 8.479575874932e-02 0.0 
5.985430936608e-03 8.206971901922e-02 0.0 
6.704150492694e-03 8.309799235251e-02 0.0 
6.177678763275e-03 8.512267471923e-02 0.0 
5.687131446084e-03 8.679702920705e-02 0.0 
5.251484993779e-03 8.820418416175e-02 0.0 
4.854820469071e-03 8.936827679468e-02 0.0 
4.493487449879e-03 9.033414931830e-02 0.0 
4.159079006270e-03 9.112682893223e-02 0.0 
3.846934444929e-03 9.177492119730e-02 0.0 
3.551999472434e-03 9.229969016813e-02 0.0 
3.270465146714e-03 9.272117976311e-02 0.0 
2.999028619910e-03 9.305609952223e-02 0.0 
2.735304176661e-03 9.331941336632e-02 0.0 
2.477363215889e-03 9.352379995677e-02 0.0 
2.223642726356e-03 9.368014576036e-02 0.0 
1.972923119535e-03 9.379776823953e-02 0.0 
1.724271451394e-03 9.388454577438e-02 0.0 
1.477012118822e-03 9.394707229366e-02 0.0 
1.230567628742e-03 9.399064218513e-02 0.0 
9.844503406971e-04 9.401943872069e-02 0.0 
7.382961410564e-04 9.403667318868e-02 0.0 
4.919684086272e-04 9.404381038808e-02 0.0 
2.458903527879e-04 9.402281658491e-02 0.0 
2.754922157426e-04 9.076656991378e-02 0.0 
5.516587870517e-04 9.074375626110e-02 0.0 
8.290929573290e-04 9.073328622534e-02 0.0 
1.108387612515e-03 9.071453347043e-02 0.0 
1.390288706073e-03 9.068359285373e-02 0.0 
1.675675323812e-03 9.063681645028e-02 0.0 
1.965589077748e-03 9.056961495965e-02 0.0 
2.261044195085e-03 9.047629765879e-02 0.0 
2.563229254748e-03 9.034952692459e-02 0.0 
2.873677371368e-03 9.018060811499e-02 0.0 
3.194249563274e-03 8.995924955300e-02 0.0 
3.526971757865e-03 8.967357269085e-02 0.0 
3.874067393168e-03 8.930973036852e-02 0.0 
4.237976029573e-03 8.885076938348e-02 0.0 
4.622907627471e-03 8.827849303563e-02 0.0 
5.031581943267e-03 8.757051257737e-02 0.0 
5.470462438298e-03 8.670531932391e-02 0.0 
5.938812966372e-03 8.564792155745e-02 0.0 
6.449852504511e-03 8.438069209764e-02 0.0 
6.982485927316e-03 8.284090209470e-02 0.0 
6.976411654723e-03 8.132847998461e-02 0.0 
6.461086388514e-03 8.245502486307e-02 0.0 
5.953963443273e-03 8.337480891979e-02 0.0 
5.479584681763e-03 8.414646046909e-02 0.0 
5.029069326285e-03 8.477364866683e-02 0.0 
4.603702638833e-03 8.528578493965e-02 0.0 
4.198341584056e-03 8.569557796317e-02 0.0 
3.811725010456e-03 8.602261300372e-02 0.0 
3.441826793864e-03 8.628072127120e-02 0.0 
3.086904984330e-03 8.648170407942e-02 0.0 
2.745006364493e-03 8.663572003662e-02 0.0 
2.413911919402e-03 8.675183492572e-02 0.0 
2.092383022880e-03 8.683808709573e-02 0.0 
1.779153721216e-03 8.690099213048e-02 0.0 
1.472838328600e-03 8.694519643807e-02 0.0 
1.172050524329e-03 8.697481085340e-02 0.0 
8.756925161282e-04 8.699302280534e-02 0.0 
5.823719290486e-04 8.700132681787e-02 0.0 
2.908926451050e-04 8.698186192491e-02 0.0 
3.178923882776e-04 8.284221892761e-02 0.0 
6.366421077343e-04 8.281904146123e-02 0.0 
9.574739206796e-04 8.280760256860e-02 0.0 
1.283404547228e-03 8.278647639866e-02 0.0 
1.615172447314e-03 8.275336938148e-02 0.0 
1.955222377227e-03 8.270401567054e-02 0.0 
2.304727478100e-03 8.263450427924e-02 0.0 
2.666433979726e-03 8.253973436605e-02 0.0 
3.040194134086e-03 8.241361801706e-02 0.0 
3.428941561987e-03 8.224511887358e-02 0.0 
3.835174290492e-03 8.202532107394e-02 0.0 
4.259853176588e-03 8.174421521742e-02 0.0 
4.704890994504e-03 8.138842603432e-02 0.0 
5.172397357677e-03 8.094426518448e-02 0.0 
5.659431068203e-03 8.038458512520e-02 0.0 
6.177704175060e-03 7.970668821328e-02 0.0 
6.701912427643e-03 7.886675003716e-02 0.0 
6.266953202904e-03 7.547315211027e-02 0.0 
5.767744575716e-03 7.607336870812e-02 0.0 
5.269275208292e-03 7.654069535790e-02 0.0 
4.795760899504e-03 7.692694086780e-02 0.0 
4.343252951856e-03 7.723679468874e-02 0.0 
3.909404364216e-03 7.748300652802e-02 0.0 
3.494173858391e-03 7.767887140702e-02 0.0 
3.096913261421e-03 7.782913992097e-02 0.0 
2.713360202164e-03 7.793987562129e-02 0.0 
2.345505659815e-03 7.802884414735e-02 0.0 
1.988380509472e-03 7.809246326528e-02 0.0 
1.643098531600e-03 7.814018343729e-02 0.0 
1.304412377849e-03 7.817054588110e-02 0.0 
9.738472613517e-04 7.819241518668e-02 0.0 
6.487779876186e-04 7.820057011686e-02 0.0 
3.218892144219e-04 7.817982935952e-02 0.0 
-4.418183032298e-03 4.729790125646e-02 0.0 
5.925267604927e-04 6.227618849855e-02 0.0 
4.253741342062e-03 7.146243588789e-02 0.0 
6.171867530453e-03 7.699497543025e-02 0.0 
7.072484953252e-03 7.993279075905e-02 0.0 
7.493846656203e-03 8.101473765617e-02 0.0 
7.590649082235e-03 8.064790261310e-02 0.0 
7.425014062114e-03 7.906251860404e-02 0.0 
7.050672864955e-03 7.643362059873e-02 0.0 
6.506052963857e-03 7.290161944762e-02 0.0 
5.224454105961e-03 6.123554686878e-02 0.0 
5.319317452474e-04 5.955153052343e-03 0.0 
4.394943663950e-03 6.331689209863e-02 0.0 
1.687230299082e-03 2.821445120019e-02 0.0 
-2.432168723021e-04 6.073330593420e-03 0.0 
8.068431176354e-03 7.491626865483e-02 0.0 
-4.317320775283e-04 5.683219943700e-02 0.0 
1.253747099436e-03 6.188185207290e-03 0.0 
8.482748745216e-03 7.789653477799e-02 0.0 
1.627098779247e-03 6.433028428604e-03 0.0 
7.920778886676e-03 7.519179321600e-02 0.0 
-4.078146613747e-04 5.817235533093e-03 0.0 
3.189127338353e-03 7.397715916279e-02 0.0 
1.649518744758e-03 6.986236967432e-03 0.0 
6.665783609779e-03 6.822208787009e-02 0.0 
-3.227809286296e-04 7.072920526807e-02 0.0 
-3.933700114319e-04 4.361739128294e-02 0.0 
1.517157304813e-03 7.588221556353e-03 0.0 
1.080979703859e-03 7.505026516089e-03 0.0 
3.453966039819e-04 7.770830973552e-03 0.0 
6.130879959839e-04 8.391724994238e-03 0.0 
7.934559435358e-04 7.448863790798e-03 0.0 
5.434424381498e-03 6.679060138305e-02 0.0 
3.558913692583e-03 6.773651407246e-02 0.0 
2.330243045126e-03 6.793460737976e-02 0.0 
2.353638468885e-04 4.509334142351e-02 0.0 
-3.548437001019e-04 6.466843593156e-03 0.0 
-2.754687927696e-04 2.483356521026e-02 0.0 
1.768740222032e-03 7.738457687694e-02 0.0 
-2.595635509044e-04 2.533918443754e-02 0.0 
1.192062267514e-03 6.843756600866e-02 0.0 
-7.456867298117e-06 7.691514078905e-02 0.0 
1.460235709596e-03 8.529077664297e-03 0.0 
1.381712372348e-03 5.805619102361e-03 0.0 
1.660560166155e-03 6.619312411264e-03 0.0 
9.884812832442e-04 6.398842986377e-03 0.0 
1.524484183809e-04 5.667212484015e-03 0.0 
3.439132375360e-03 4.663875827554e-02 0.0 
4.460330774613e-03 6.766525685047e-02 0.0 
-4.533630837179e-04 7.070910741457e-03 0.0 
1.737405051654e-04 3.046493249728e-02 0.0 
3.960575271452e-03 6.964337795121e-02 0.0 
-4.176744825010e-04 6.463582619060e-02 0.0 
1.707999569486e-04 6.338116681998e-03 0.0 
8.475028473574e-03 7.706956191939e-02 0.0 
7.221027972102e-03 6.994730757199e-02 0.0 
8.304081512190e-03 7.715509921443e-02 0.0 
7.363890457619e-03 7.217037244400e-02 0.0 
1.221190405630e-03 4.710124478281e-02 0.0 
2.816188964408e-04 5.791049883059e-02 0.0 
-1.727413401227e-04 5.174343349452e-03 0.0 
8.111673441516e-04 7.852403507017e-02 0.0 
9.478378225293e-05 1.414294022400e-02 0.0 
6.346213316965e-03 6.582444917908e-02 0.0 
6.702883512813e-03 6.313629876797e-02 0.0 
6.171812341251e-03 6.101481418421e-02 0.0 
6.579935239713e-03 5.774586171407e-02 0.0 
6.052840622418e-03 5.490324599053e-02 0.0 
6.335405642539e-03 5.185101799153e-02 0.0 
6.906396344646e-03 5.466837435880e-02 0.0 
6.563859952650e-03 4.871784796572e-02 0.0 
7.170686841571e-03 5.156135558489e-02 0.0 
5.750766301317e-03 4.875102996084e-02 0.0 
6.721989431923e-03 4.551262346551e-02 0.0 
7.359963185121e-03 4.837515577644e-02 0.0 
6.801229596958e-03 4.225959534702e-02 0.0 
7.460201616444e-03 4.512266791526e-02 0.0 
7.970075466336e-03 5.099012783961e-02 0.0 
8.087542319819e-03 4.775196970059e-02 0.0 
8.543481771880e-03 5.332397228498e-02 0.0 
8.670921792410e-03 5.008136396445e-02 0.0 
8.099524159007e-03 4.448694821915e-02 0.0 
8.681021208483e-03 4.682089347861e-02 0.0 
9.203906637383e-03 5.210213622857e-02 0.0 
9.200153497603e-03 4.883343629370e-02 0.0 
9.678211558176e-03 5.378534147413e-02 0.0 
9.646810899560e-03 5.048714652245e-02 0.0 
1.009025372376e-02 5.511723607124e-02 0.0 
1.001558221966e-02 5.178484439944e-02 0.0 
9.459629686367e-03 4.721569433595e-02 0.0 
9.768842833876e-03 4.851336395766e-02 0.0 
1.029387196106e-02 5.269914904416e-02 0.0 
9.968667105274e-03 4.943226474251e-02 0.0 
1.046894964180e-02 5.321201422289e-02 0.0 
1.004292638360e-02 4.995855846745e-02 0.0 
9.459127503763e-03 4.628840161383e-02 0.0 
9.420992149064e-03 4.688572792483e-02 0.0 
9.973162318434e-03 5.009136628481e-02 0.0 
9.218810043905e-03 4.712821208391e-02 0.0 
9.736371780805e-03 4.983210044806e-02 0.0 
8.830831749563e-03 4.703295126237e-02 0.0 
9.306817458110e-03 4.919113465492e-02 0.0 
8.228337434553e-03 4.663226204795e-02 0.0 
7.765425572033e-03 4.455774505024e-02 0.0 
7.013417466562e-03 4.447034729202e-02 0.0 
7.388887878630e-03 4.598901979265e-02 0.0 
6.035835200229e-03 4.424964838223e-02 0.0 
5.740810461702e-03 4.270207616188e-02 0.0 
4.678354563940e-03 4.294865333941e-02 0.0 
4.476346291136e-03 4.127166402518e-02 0.0 
3.383493252022e-03 4.199357004433e-02 0.0 
3.441770564764e-03 4.325040090491e-02 0.0 
2.163776564889e-03 4.282742940839e-02 0.0 
2.202441614039e-03 4.127768972292e-02 0.0 
1.045154405204e-03 4.260983177561e-02 0.0 
8.620328851334e-04 4.389586824095e-02 0.0 
-1.289128472164e-04 4.416186878584e-02 0.0 
1.104503590663e-04 4.246069558815e-02 0.0 
-9.222349499051e-04 4.443138328846e-02 0.0 
-1.254422414652e-03 4.601192972277e-02 0.0 
-1.864875564771e-03 4.664173438266e-02 0.0 
-1.519329739280e-03 4.457214336932e-02 0.0 
-2.292920456596e-03 4.709083788009e-02 0.0 
-2.661876884125e-03 4.912030135612e-02 0.0 
-2.903978341648e-03 4.977470025593e-02 0.0 
-2.559638809767e-03 4.727527915062e-02 0.0 
-3.013077851818e-03 5.014176173557e-02 0.0 
-2.696110238234e-03 4.719955466651e-02 0.0 
-3.326928388574e-03 5.267021614304e-02 0.0 
-3.286474428246e-03 5.310896920684e-02 0.0 
-3.529739685687e-03 5.569587747718e-02 0.0 
-3.368609260215e-03 5.612977533740e-02 0.0 
8.783256923616e-03 4.330120006600e-02 0.0 
-3.503799191188e-03 5.872905786864e-02 0.0 
-3.696184360224e-03 5.788141875987e-02 0.0 
-3.263198830120e-03 5.913496502046e-02 0.0 
-3.147683770764e-03 5.620309381260e-02 0.0 
-3.271572255580e-03 6.172848595605e-02 0.0 
-2.992606399557e-03 6.206295565350e-02 0.0 
-2.869255707615e-03 6.461706122741e-02 0.0 
1.019290060825e-02 5.222962801636e-02 0.0 
7.995341123728e-03 4.120786642964e-02 0.0 
-2.592476306090e-03 6.485224063581e-02 0.0 
-2.349088330219e-03 6.732403005544e-02 0.0 
-2.557196763924e-03 6.684225188291e-02 0.0 
-1.906455656657e-03 6.944457309708e-02 0.0 
5.504053166186e-03 5.191353776237e-02 0.0 
5.148702200651e-03 4.544255758910e-02 0.0 
4.943189996123e-03 4.870455310682e-02 0.0 
4.536737205558e-03 4.196662724707e-02 0.0 
4.371580983339e-03 4.526478347506e-02 0.0 
-1.772180922488e-03 6.979284736695e-02 0.0 
6.110859697956e-03 3.899241180598e-02 0.0 
4.645582557042e-03 3.855514365773e-02 0.0 
9.561712504856e-03 5.708470453708e-02 0.0 
1.068146518223e-02 5.659907254033e-02 0.0 
5.402063978735e-03 4.056881761862e-02 0.0 
-2.681434282502e-03 6.203377907050e-02 0.0 
-2.284839059144e-03 6.474043192724e-02 0.0 
-2.337181252706e-03 6.166999588207e-02 0.0 
-2.236037894835e-03 4.431117246919e-02 0.0 
-2.392415948786e-03 4.383282420108e-02 0.0 
-1.944816828024e-03 4.088468945967e-02 0.0 
-2.110091939283e-03 4.002811687501e-02 0.0 
-1.688425658524e-03 3.699323886956e-02 0.0 
-1.850071716572e-03 3.577522253150e-02 0.0 
-2.165312895317e-03 3.894257507346e-02 0.0 
-1.903329534758e-03 3.434047203128e-02 0.0 
-2.125379359473e-03 3.762158076650e-02 0.0 
-1.461773804129e-03 3.263481116525e-02 0.0 
-1.197998772416e-03 3.400806332408e-02 0.0 
-1.863194485221e-03 3.269031494698e-02 0.0 
-2.004931718804e-03 3.606452027556e-02 0.0 
-1.744837698730e-03 3.082262426603e-02 0.0 
-1.818910014846e-03 3.427947861695e-02 0.0 
-2.060607903958e-03 3.941373134009e-02 0.0 
-1.810422758950e-03 3.769242054833e-02 0.0 
-2.025257668389e-03 4.271403474510e-02 0.0 
4.221035174209e-03 3.899276170503e-02 0.0 
5.014431876349e-03 3.786239654015e-02 0.0 
3.909339022548e-03 3.613286285007e-02 0.0 
4.568498240743e-03 3.459897591216e-02 0.0 
3.538209571184e-03 3.270754846420e-02 0.0 
4.060936278379e-03 3.079277141642e-02 0.0 
3.106885769446e-03 2.872907133776e-02 0.0 
2.577404519594e-03 3.091269360108e-02 0.0 
6.795950479174e-03 3.893084272218e-02 0.0 
6.287978111570e-03 4.519100465094e-02 0.0 
7.722608295380e-03 4.694565985082e-02 0.0 
6.501167428172e-03 4.550094736010e-02 0.0 
8.009880834718e-03 4.732492043242e-02 0.0 
6.671728535581e-03 4.514089143019e-02 0.0 
8.248958524937e-03 4.712106361971e-02 0.0 
6.805554327902e-03 4.407358347197e-02 0.0 
4.989446924486e-03 4.297937855200e-02 0.0 
4.947599294221e-03 4.103124010089e-02 0.0 
2.986686454716e-03 4.115645232981e-02 0.0 
2.730616895470e-03 3.845873241539e-02 0.0 
7.953619246355e-04 4.004631836051e-02 0.0 
9.116658356555e-03 4.400723154554e-02 0.0 
5.061645334670e-03 3.295123389817e-02 0.0 
4.420148383410e-03 2.874558543454e-02 0.0 
5.375506272658e-03 3.113508859386e-02 0.0 
-1.996294731778e-03 6.873579478589e-02 0.0 
-1.582629604121e-03 3.227477998960e-02 0.0 
-1.025073985397e-03 2.951920124232e-02 0.0 
-6.729725406798e-04 3.110950319727e-02 0.0 
2.228555811084e-03 2.671945163225e-02 0.0 
-1.244500061807e-03 7.175423378576e-02 0.0 
8.424736223367e-03 4.634570718185e-02 0.0 
9.533567270931e-03 5.006536577833e-02 0.0 
3.927132817399e-03 3.825772169971e-02 0.0 
3.804324684628e-03 4.162500646404e-02 0.0 
-5.695175441660e-04 2.642899154363e-02 0.0 
-1.198643731953e-03 7.198712018281e-02 0.0 
-1.646269859690e-03 2.930446637934e-02 0.0 
4.821259110489e-03 3.815388270317e-02 0.0 
-1.521890159824e-03 3.574976854518e-02 0.0 
-1.311590712027e-03 3.006829081871e-02 0.0 
-2.387699914058e-03 4.211340049953e-02 0.0 
4.603913642640e-03 2.651991206632e-02 0.0 
5.518975180542e-03 2.918036563372e-02 0.0 
1.236359477040e-03 4.223668761701e-02 0.0 
-7.504233975452e-04 4.237017834681e-02 0.0 
-1.358834952012e-03 4.002917646695e-02 0.0 
-2.511044802431e-03 4.371220684083e-02 0.0 
-1.883891888820e-03 4.502780833555e-02 0.0 
-3.229093446549e-03 4.703858739887e-02 0.0 
-3.696510524310e-03 4.604397797760e-02 0.0 
-4.038895084989e-03 4.991755244950e-02 0.0 
-3.642998979469e-03 5.011710578968e-02 0.0 
-4.107193774604e-03 5.324835879070e-02 0.0 
-4.117685220495e-03 5.346872590994e-02 0.0 
-3.993085743290e-03 5.677973890532e-02 0.0 
-1.337516698562e-03 2.645296649301e-02 0.0 
2.396925929169e-03 3.484219706514e-02 0.0 
8.310238243978e-03 5.651240253424e-02 0.0 
-8.713401975430e-04 2.453831876415e-02 0.0 
2.626050508920e-03 2.426810219652e-02 0.0 
3.329280999787e-03 3.435791951396e-02 0.0 
3.248063286503e-03 3.779927411432e-02 0.0 
3.634288065614e-03 4.495209174344e-02 0.0 
3.116381734520e-03 4.118119632590e-02 0.0 
2.710183995685e-03 3.379105506006e-02 0.0 
2.616764392119e-03 3.725038222676e-02 0.0 
2.941987014345e-03 4.450221527676e-02 0.0 
2.478121224668e-03 4.064114139482e-02 0.0 
2.731973834081e-03 4.774436342861e-02 0.0 
2.301545014745e-03 4.395392297559e-02 0.0 
2.037410178981e-03 3.662344259962e-02 0.0 
1.892180518132e-03 4.001970992040e-02 0.0 
2.093622315565e-03 4.719024894087e-02 0.0 
1.711906441802e-03 4.333765668988e-02 0.0 
1.859140807971e-03 5.034020238706e-02 0.0 
1.502015764064e-03 4.657149959701e-02 0.0 
1.355651848601e-03 3.934737658866e-02 0.0 
-6.659531991810e-04 7.366371386748e-02 0.0 
1.713086178026e-03 2.916646373890e-02 0.0 
1.449136121829e-03 2.471929144274e-02 0.0 
-1.957486802299e-03 6.427275404568e-02 0.0 
-1.974426949767e-03 6.096153467373e-02 0.0 
-2.304028677820e-03 5.823102453568e-02 0.0 
-1.920076751429e-03 5.731877422565e-02 0.0 
1.166215353279e-03 4.270280174130e-02 0.0 
1.026390543843e-03 3.522985721216e-02 0.0 
9.600347980752e-03 4.983878716761e-02 0.0 
1.034383121100e-02 5.393160165239e-02 0.0 
3.351623345340e-03 3.085784524917e-02 0.0 
-1.209004032566e-03 3.360238359437e-02 0.0 
-1.382390573797e-03 3.914111699479e-02 0.0 
1.083927728903e-02 5.669491114797e-02 0.0 
1.091056812475e-02 6.021509551631e-02 0.0 
1.105544325553e-02 5.991671786223e-02 0.0 
1.095387089082e-02 6.364498674207e-02 0.0 
1.074859861970e-02 6.379418824075e-02 0.0 
1.108065104469e-02 6.295948714150e-02 0.0 
-8.090823245421e-04 3.527998583494e-02 0.0 
1.626289260869e-03 3.246177484661e-02 0.0 
-2.738923025864e-03 6.596797370779e-02 0.0 
-2.038588073633e-03 6.764553917478e-02 0.0 
-1.021443762610e-03 2.767740118312e-02 0.0 
1.923287387700e-03 3.305459411324e-02 0.0 
8.765039315048e-03 4.231877075534e-02 0.0 
8.336875515315e-03 3.913696110527e-02 0.0 
7.929174368536e-03 3.705402081984e-02 0.0 
7.425512916664e-03 3.388626066843e-02 0.0 
6.946894335257e-03 3.140760725232e-02 0.0 
6.373778010662e-03 2.823805056695e-02 0.0 
6.809753334713e-03 3.079298011294e-02 0.0 
4.601893629263e-03 2.405263126208e-02 0.0 
5.706185474882e-03 2.511653078399e-02 0.0 
1.289077488184e-03 4.977835195353e-02 0.0 
6.073390521921e-03 3.528242350900e-02 0.0 
-3.836327945654e-03 5.274950152569e-02 0.0 
-5.437311987835e-04 7.320379667281e-02 0.0 
-3.364949553270e-03 5.743326256848e-02 0.0 
-6.907749850203e-04 7.385463340432e-02 0.0 
-1.082816038809e-03 7.189844191232e-02 0.0 
-4.846559191284e-04 2.126421661944e-02 0.0 
5.805687567864e-03 2.536443010390e-02 0.0 
6.354319315914e-03 2.861523641528e-02 0.0 
1.059509908093e-02 6.738455346470e-02 0.0 
1.037411374661e-02 6.734699514507e-02 0.0 
3.740937941345e-03 2.139326968321e-02 0.0 
4.690508345469e-03 5.195130344681e-02 0.0 
3.177201807396e-03 5.138486217560e-02 0.0 
2.906319070094e-03 5.446507482678e-02 0.0 
-1.336503417931e-04 7.537721335723e-02 0.0 
-3.360913133983e-03 5.352663152037e-02 0.0 
2.199620900494e-03 2.962262041381e-02 0.0 
1.028765546290e-02 5.327693941221e-02 0.0 
1.079341370368e-02 5.727162196667e-02 0.0 
4.313070765880e-03 3.465624208451e-02 0.0 
2.017173098204e-03 3.077584250802e-02 0.0 
8.656577375488e-04 3.859201791084e-02 0.0 
7.402253262101e-04 3.097521808032e-02 0.0 
-2.205788095795e-03 5.444373283308e-02 0.0 
-1.819603715795e-03 5.328037869972e-02 0.0 
-1.229991947157e-04 2.332485330030e-02 0.0 
-3.292707745700e-03 6.044278944710e-02 0.0 
8.475933339302e-04 2.738266349919e-02 0.0 
1.095822526771e-03 3.157468260149e-02 0.0 
1.173083722772e-03 3.520063077737e-02 0.0 
-1.561269947281e-03 6.005377745572e-02 0.0 
1.011887452741e-02 5.437994448919e-02 0.0 
9.262178994048e-03 4.935049240856e-02 0.0 
-3.171279255580e-03 4.991975176361e-02 0.0 
-3.793287759853e-03 5.936747270679e-02 0.0 
-6.393200792857e-04 7.369380441715e-02 0.0 
-1.272706347364e-04 1.795970220409e-02 0.0 
2.201509265228e-03 2.602463827485e-02 0.0 
6.104682291777e-03 2.778360395561e-02 0.0 
7.111195741206e-03 3.305606843052e-02 0.0 
4.968873456002e-03 2.207407472953e-02 0.0 
-2.084129617576e-03 6.132442937790e-02 0.0 
-7.187292057689e-04 1.905657818800e-02 0.0 
-8.858733672046e-04 3.127013720182e-02 0.0 
5.175732693939e-03 2.248747986031e-02 0.0 
5.658086635031e-03 2.552224951522e-02 0.0 
1.075938100356e-02 5.588990735455e-02 0.0 
1.103481427912e-02 5.989351432942e-02 0.0 
1.077823568735e-02 6.174489886879e-02 0.0 
1.086443809888e-02 6.415792071681e-02 0.0 
7.455206387789e-03 5.728345734774e-02 0.0 
1.101466168961e-02 5.788928978613e-02 0.0 
8.829008094563e-03 5.856517194611e-02 0.0 
8.485638034180e-03 6.169265025280e-02 0.0 
8.941495104535e-03 6.347844368031e-02 0.0 
1.047787363538e-02 6.353286566240e-02 0.0 
1.008877317786e-02 6.693704520288e-02 0.0 
9.021318998891e-03 4.932634479141e-02 0.0 
6.148137141154e-03 3.979403615560e-02 0.0 
-2.559020854770e-03 5.532745962973e-02 0.0 
-2.292358035643e-03 4.412785596159e-02 0.0 
-1.653933524574e-03 4.152229816266e-02 0.0 
1.699095978859e-03 2.891108547734e-02 0.0 
1.294581936501e-03 2.451972069391e-02 0.0 
2.233718346096e-03 5.396965049170e-02 0.0 
1.955254223199e-03 5.694587774427e-02 0.0 
-1.124079646403e-03 7.027985071264e-02 0.0 
-9.500736761404e-04 6.896233605073e-02 0.0 
-2.721685907253e-03 4.684418512992e-02 0.0 
-1.051807246698e-03 2.249257024377e-02 0.0 
2.731072517129e-03 2.670848747985e-02 0.0 
2.641253461454e-03 2.307357123079e-02 0.0 
3.305584110951e-03 2.729256983761e-02 0.0 
2.794033747387e-04 2.018761544410e-02 0.0 
4.938919498531e-03 4.438773838424e-02 0.0 
3.103687474382e-03 3.762032887083e-02 0.0 
2.400863813463e-04 3.301533202158e-02 0.0 
8.778204275876e-03 4.226913835890e-02 0.0 
1.087816224316e-04 7.142749677421e-02 0.0 
7.366695998557e-03 3.858727467861e-02 0.0 
-7.288952798830e-04 2.511767068500e-02 0.0 
-8.150199646019e-04 2.136199318326e-02 0.0 
3.604517513773e-03 1.855558740658e-02 0.0 
7.145443524091e-03 6.547935183629e-02 0.0 
8.063037838917e-03 3.932964818146e-02 0.0 
7.973133946645e-03 4.050906757583e-02 0.0 
8.496136834444e-03 6.651523290958e-02 0.0 
8.882307761079e-03 6.805168813337e-02 0.0 
9.355558987040e-03 6.495898431917e-02 0.0 
9.224547244828e-03 6.931883253543e-02 0.0 
-3.459536019125e-03 5.190321259426e-02 0.0 
-3.881035519240e-03 5.488084059627e-02 0.0 
4.446999365060e-03 1.871090413209e-02 0.0 
4.493692554183e-03 1.920960586244e-02 0.0 
4.415601141813e-03 1.921405969779e-02 0.0 
4.869146087457e-03 2.210393517341e-02 0.0 
2.788866668289e-03 1.577261140085e-02 0.0 
2.901757502449e-03 1.877442357394e-02 0.0 
-8.961180717936e-04 7.151612882233e-02 0.0 
9.829515237713e-03 7.073749660081e-02 0.0 
1.688962964954e-03 2.161151251749e-02 0.0 
8.073984179564e-03 6.473319394096e-02 0.0 
-8.366201382700e-04 1.685455616352e-02 0.0 
-1.119977903778e-03 2.029192743221e-02 0.0 
2.963863024138e-04 2.868492159284e-02 0.0 
-1.453191769116e-03 3.361173944314e-02 0.0 
5.860506125058e-04 2.308886180915e-02 0.0 
1.026845399704e-02 6.634507412095e-02 0.0 
1.030186697033e-02 6.843911820928e-02 0.0 
1.016219846227e-02 6.343310941371e-02 0.0 
-1.240851952247e-04 1.122210770073e-02 0.0 
5.145667482247e-04 6.854065229389e-02 0.0 
-5.544806306632e-04 1.858883520683e-02 0.0 
1.013177681345e-02 6.283875156482e-02 0.0 
6.232016640931e-04 1.900578458887e-02 0.0 
7.250958219142e-03 3.656868351220e-02 0.0 
1.089013565768e-02 5.638351444138e-02 0.0 
3.718977358731e-04 2.526474436201e-02 0.0 
4.767098566271e-04 2.743564902956e-02 0.0 
3.537012544707e-04 1.831679586699e-02 0.0 
3.318684383610e-03 5.777679846107e-02 0.0 
3.007981287783e-03 6.079345280200e-02 0.0 
3.630843173688e-03 5.485955392204e-02 0.0 
6.626779043874e-03 3.984262541735e-02 0.0 
5.710849621751e-03 3.719160014461e-02 0.0 
1.250121512364e-03 2.816043319633e-02 0.0 
-1.826100571001e-03 6.724433517818e-02 0.0 
-1.493965439989e-03 6.645517566237e-02 0.0 
-3.098825033067e-03 6.280415348692e-02 0.0 
-3.579374792729e-03 6.139497819850e-02 0.0 
-2.408796633788e-03 5.146042679692e-02 0.0 
-2.711155535790e-03 5.232554101586e-02 0.0 
7.144895811842e-03 3.524812375766e-02 0.0 
6.462521389068e-03 3.235289745437e-02 0.0 
8.311893591893e-03 4.030362391641e-02 0.0 
4.086442139527e-04 3.399197791661e-02 0.0 
3.639066804447e-04 3.739723771420e-02 0.0 
1.201037764945e-03 3.824603267547e-02 0.0 
1.303421117951e-03 2.108029580421e-02 0.0 
8.771856408441e-04 1.577334822771e-02 0.0 
-2.691573405032e-03 4.925565301581e-02 0.0 
-2.128583715231e-03 4.757733446192e-02 0.0 
-3.596785748258e-03 5.353310830494e-02 0.0 
1.596382615073e-03 1.802163027695e-02 0.0 
-5.919252939391e-04 1.485427781522e-02 0.0 
-8.327752909861e-04 1.776494245298e-02 0.0 
5.562621554467e-04 6.993496253899e-02 0.0 
-7.504338626080e-04 6.717070354974e-02 0.0 
9.161014458580e-03 5.477752461861e-02 0.0 
7.947730520398e-03 4.888427345534e-02 0.0 
2.510972151916e-03 1.969955157494e-02 0.0 
3.189683119431e-03 2.373438966547e-02 0.0 
1.796580095607e-03 1.493474357055e-02 0.0 
-4.856457817464e-04 7.337047903139e-02 0.0 
6.349437572483e-03 3.007727931804e-02 0.0 
2.132269848822e-04 1.487162261276e-02 0.0 
6.544419417494e-04 1.729133500588e-02 0.0 
-9.721057804010e-05 1.167767904294e-02 0.0 
4.459503039626e-03 2.155008864387e-02 0.0 
3.318154701191e-03 1.577764954827e-02 0.0 
3.674505713752e-03 1.590930829638e-02 0.0 
1.386119621514e-03 2.644005286261e-02 0.0 
2.685961988792e-04 2.177909104116e-02 0.0 
2.310999802937e-03 6.035791959196e-02 0.0 
6.894417691370e-04 2.466800990246e-02 0.0 
1.994374694835e-03 6.336437785998e-02 0.0 
1.677631266706e-03 5.987058182112e-02 0.0 
1.716813318472e-03 6.623716165969e-02 0.0 
-2.962286632237e-04 7.519383762285e-02 0.0 
3.763534831122e-03 6.203339076712e-02 0.0 
4.119680715113e-03 5.841044954018e-02 0.0 
1.515383156423e-03 6.804443213294e-02 0.0 
1.094412520287e-03 1.347918590847e-02 0.0 
1.518223131087e-03 7.199687102650e-02 0.0 
9.202664900383e-04 7.327650821582e-02 0.0 
-8.320068123316e-04 1.427539622966e-02 0.0 
-1.088465269024e-03 1.788853135594e-02 0.0 
-7.604130921421e-04 1.165247291936e-02 0.0 
-1.000626865624e-03 1.564739697346e-02 0.0 
-1.308782200101e-03 2.160234332596e-02 0.0 
-1.169277554769e-03 1.915873434375e-02 0.0 
2.695808455591e-03 6.412824057225e-02 0.0 
-7.859096903142e-04 1.200092925412e-02 0.0 
-9.758158720005e-04 1.639997145323e-02 0.0 
-5.950249143623e-04 9.349673811884e-03 0.0 
8.621604043086e-03 7.230492521123e-02 0.0 
1.083923463366e-02 6.591567539553e-02 0.0 
1.023983860019e-02 7.000244401912e-02 0.0 
9.376397212806e-03 7.284002434089e-02 0.0 
3.273068269106e-03 1.416635116860e-02 0.0 
4.090196830746e-03 1.879139796303e-02 0.0 
-5.662207376906e-04 2.864099929214e-02 0.0 
-6.537420942531e-04 3.463343662749e-02 0.0 
1.379848811763e-03 6.316067233209e-02 0.0 
1.006015213719e-03 6.344079456711e-02 0.0 
1.109552257919e-03 5.778717999000e-02 0.0 
8.000944101020e-04 5.851413991332e-02 0.0 
8.612647195520e-04 5.267378894542e-02 0.0 
5.541338945693e-04 5.344997149747e-02 0.0 
6.618206345514e-04 4.731508264971e-02 0.0 
3.066949507580e-03 1.269260838387e-02 0.0 
9.210519028545e-03 6.815204296841e-02 0.0 
7.982328005015e-03 6.947615929046e-02 0.0 
2.013738895773e-03 1.299366070730e-02 0.0 
2.198972378603e-03 1.664214485912e-02 0.0 
9.561833107567e-03 7.020377712438e-02 0.0 
9.152404755346e-03 7.405261761248e-02 0.0 
-5.246941134145e-04 1.237891850672e-02 0.0 
1.054436756299e-02 5.426112485560e-02 0.0 
8.105843128831e-04 8.670985264169e-03 0.0 
-6.764414867530e-04 3.163062046341e-02 0.0 
3.023309266957e-03 3.218597082766e-02 0.0 
1.080971247518e-02 5.565758297150e-02 0.0 
9.737271214955e-03 6.612809537069e-02 0.0 
1.074684140265e-02 6.698209031900e-02 0.0 
1.017028369705e-02 7.070978946791e-02 0.0 
4.091682966682e-04 2.998586878877e-02 0.0 
-3.601418124327e-04 6.487087583471e-02 0.0 
9.844178278568e-03 5.960435329511e-02 0.0 
9.589199848875e-04 4.659494608483e-02 0.0 
8.196843355100e-03 6.039042076673e-02 0.0 
-3.024663909697e-04 3.150287857259e-02 0.0 
9.732787117411e-03 5.098959990888e-02 0.0 
1.037299672569e-02 5.946947202531e-02 0.0 
1.056497567094e-02 5.847941661448e-02 0.0 
1.111972653293e-02 6.176083536254e-02 0.0 
7.758044087617e-03 5.418293257909e-02 0.0 
7.095690603642e-03 6.027901131393e-02 0.0 
7.581682461821e-03 6.267944457060e-02 0.0 
8.655436532881e-03 4.823194607131e-02 0.0 
1.003531652233e-02 7.092470318484e-02 0.0 
9.385318805131e-03 7.449062720308e-02 0.0 
9.079017470540e-03 5.537008096024e-02 0.0 
3.991614541788e-03 3.131514824762e-02 0.0 
3.911615287398e-03 2.775789323397e-02 0.0 
3.017262297522e-03 2.035385247251e-02 0.0 
3.754096480922e-03 2.423169863928e-02 0.0 
4.648670424413e-03 3.162870896058e-02 0.0 
4.528052814282e-03 2.812668038581e-02 0.0 
3.513380317526e-03 2.078263257575e-02 0.0 
4.318900971450e-03 2.462546328820e-02 0.0 
2.914076666974e-03 1.571582749788e-02 0.0 
3.978943582273e-03 2.096038841184e-02 0.0 
5.133096838028e-03 2.845696811687e-02 0.0 
4.874423962310e-03 2.513581383540e-02 0.0 
3.731114108099e-03 1.839372781186e-02 0.0 
5.957568842902e-03 3.240714128479e-02 0.0 
1.757344271300e-03 9.834192922175e-03 0.0 
1.044286693815e-02 5.300261109692e-02 0.0 
3.325960266755e-03 3.087097726113e-02 0.0 
5.077111338572e-03 4.003107530226e-02 0.0 
9.992192548230e-03 5.845286188212e-02 0.0 
1.436709923616e-03 7.710114570106e-03 0.0 
1.203492465378e-03 7.688961920081e-03 0.0 
9.320158843167e-03 4.991957480672e-02 0.0 
1.661101995878e-03 6.784751364512e-03 0.0 
7.979862870048e-03 5.963528524785e-02 0.0 
6.886673833172e-03 4.227194891880e-02 0.0 
1.675238423769e-03 6.605260316118e-03 0.0 
4.685710540705e-03 3.509874168932e-02 0.0 
5.381195951506e-03 3.880967258762e-02 0.0 
5.297536908981e-03 4.215928155710e-02 0.0 
9.494475793473e-04 7.239908941786e-03 0.0 
3.921349795211e-03 5.179180348879e-02 0.0 
1.283458580579e-03 5.793580456291e-03 0.0 
5.634900398877e-03 3.663911645450e-02 0.0 
6.703647046852e-03 3.891871684906e-02 0.0 
7.260553806813e-03 4.199774932135e-02 0.0 
5.310882056218e-03 3.200915723602e-02 0.0 
7.168586936807e-04 5.887467461053e-03 0.0 
1.153134919711e-03 1.113992513860e-02 0.0 
8.035356315135e-04 1.112023913067e-02 0.0 
1.413036427263e-03 1.641840328667e-02 0.0 
3.392292540743e-04 5.840979259630e-03 0.0 
1.450366133873e-03 6.794950592645e-03 0.0 
1.440795630076e-03 6.380278776851e-03 0.0 
-2.667902147027e-03 4.758442244039e-02 0.0 
-1.313740851174e-03 4.573847421972e-02 0.0 
-8.219085353539e-04 4.579043494739e-02 0.0 
2.572398935568e-04 4.455673571956e-02 0.0 
-2.005159430401e-04 4.386806891379e-02 0.0 
1.600118450530e-03 4.351400992227e-02 0.0 
1.883285235418e-03 4.397922104458e-02 0.0 
3.201845087767e-03 4.288623594545e-02 0.0 
5.343098291493e-03 2.562103985721e-02 0.0 
1.366011376218e-05 5.667504600792e-03 0.0 
-1.405171673101e-03 3.801854513214e-02 0.0 
-9.917384902820e-04 3.890335461822e-02 0.0 
-1.228377865272e-03 4.199770716530e-02 0.0 
-2.875285237162e-03 5.591898947359e-02 0.0 
-2.964584320579e-03 5.291156694431e-02 0.0 
-2.743392729578e-03 4.925612040940e-02 0.0 
-2.659055126580e-03 5.885993276268e-02 0.0 
7.780227085281e-03 3.604524358423e-02 0.0 
-1.330374341527e-04 5.754958325542e-03 0.0 
2.081211927725e-03 3.637512596500e-02 0.0 
-3.160702635239e-03 5.318509688049e-02 0.0 
4.946897553160e-03 6.725784733677e-02 0.0 
5.159674289225e-03 6.217835009273e-02 0.0 
5.630496438317e-03 6.171772980484e-02 0.0 
5.255998761522e-03 5.601593473568e-02 0.0 
4.619096385331e-03 6.181016010474e-02 0.0 
-2.064935456182e-03 5.030635502061e-02 0.0 
-1.690741407369e-03 4.889232108734e-02 0.0 
-1.409857928657e-03 5.186247130116e-02 0.0 
-1.296717846467e-03 4.723741299679e-02 0.0 
-9.898389200655e-04 5.019297727888e-02 0.0 
-1.075066756081e-03 5.457016818181e-02 0.0 
-8.864806087848e-04 4.536466160281e-02 0.0 
-5.782288412329e-04 4.885395599687e-02 0.0 
3.999772122345e-03 6.776121674616e-02 0.0 
2.184408539040e-03 3.749815804530e-02 0.0 
-8.036809996124e-04 4.239341723423e-02 0.0 
7.928308104067e-05 4.996065063582e-02 0.0 
-2.514870487263e-03 4.655745202204e-02 0.0 
-2.577761982577e-03 4.013235333682e-02 0.0 
-3.670041536113e-03 4.461653358238e-02 0.0 
-2.730662678781e-03 3.932739905661e-02 0.0 
-1.115452155398e-03 3.442003813167e-02 0.0 
4.089310069015e-03 5.346212294604e-02 0.0 
7.601275704632e-04 5.600609387485e-02 0.0 
4.362596762396e-03 5.896813148815e-02 0.0 
1.378771738392e-03 6.084568955107e-02 0.0 
-1.632414364393e-03 5.800196330633e-02 0.0 
-2.087610615445e-03 6.605290648546e-02 0.0 
-3.269188020547e-04 7.408793835360e-03 0.0 
-4.298052184860e-04 6.095155106448e-02 0.0 
-8.297104105009e-04 6.263818401644e-02 0.0 
-8.017024825271e-04 6.598331155358e-02 0.0 
-1.253043984554e-03 6.383144736703e-02 0.0 
-8.121543967560e-04 5.917876077496e-02 0.0 
-3.843708351235e-04 6.788857162819e-02 0.0 
-7.219326227017e-04 6.872028016637e-02 0.0 
1.285847124608e-03 7.805887631197e-02 0.0 
6.402734298742e-04 7.812526234751e-02 0.0 
3.280572824718e-04 7.854013476526e-02 0.0 
2.133624829788e-04 7.775860469040e-02 0.0 
3.620617064688e-04 7.732452941378e-02 0.0 
9.472533240962e-04 7.754686890829e-02 0.0 
1.241236158720e-03 7.676001101022e-02 0.0 
2.253640711056e-03 7.648295064791e-02 0.0 
1.488860447825e-03 7.575785218614e-02 0.0 
5.359603776490e-04 7.574320317822e-02 0.0 
2.724043011071e-03 7.538471712258e-02 0.0 
2.113339166337e-04 3.781449921572e-02 0.0 
4.040885052783e-04 3.404344790063e-02 0.0 
-3.467930905063e-04 6.236474840981e-03 0.0 
3.101776781777e-03 6.761323509099e-02 0.0 
4.179225601271e-03 6.684187014884e-02 0.0 
3.257081795980e-04 9.334300912850e-03 0.0 
4.817371591416e-04 7.744072847612e-03 0.0 
3.984217179473e-04 7.507388555372e-03 0.0 
-1.954152621615e-04 1.844681058816e-02 0.0 
-3.160694595113e-04 1.506690012575e-02 0.0 
1.736501681807e-04 9.078744907752e-03 0.0 
-3.116065304549e-03 6.401660482167e-02 0.0 
2.762560886462e-03 1.701534654210e-02 0.0 
9.133419708807e-04 2.370979013838e-02 0.0 
8.413814018985e-03 4.507584828251e-02 0.0 
-3.918312629214e-03 5.808381468276e-02 0.0 
-1.017705984745e-03 3.699956224035e-02 0.0 
-2.257337458433e-03 4.087822417097e-02 0.0 
-1.083890590883e-03 2.404213884682e-02 0.0 
-1.717434192854e-03 4.103770239313e-02 0.0 
-1.563974106966e-03 2.873601558481e-02 0.0 
4.629957028009e-04 1.151427145221e-02 0.0 
-2.974330159513e-04 7.534368276087e-02 0.0 
2.494012020668e-03 5.089953422382e-02 0.0 
1.619391675617e-03 5.342619714666e-02 0.0 
1.509851297623e-03 3.594442552184e-02 0.0 
-2.106524780841e-03 6.744930975521e-02 0.0 
-1.512179537230e-03 5.590305010481e-02 0.0 
-1.229639584324e-03 7.117826223858e-02 0.0 
3.052534179214e-03 1.248643094744e-02 0.0 
9.300461844410e-03 6.033662225736e-02 0.0 
-1.951911550805e-03 4.455429427924e-02 0.0 
-2.980277707113e-03 5.916853885668e-02 0.0 
-3.518750691724e-03 6.098640736991e-02 0.0 
-4.048232203248e-03 5.595705044517e-02 0.0 
1.052591126489e-02 5.331659956416e-02 0.0 
-3.009310756626e-03 5.016931215707e-02 0.0 
-1.606769869833e-03 3.107046685079e-02 0.0 
1.159253905937e-03 3.173393134742e-02 0.0 
3.340426723326e-03 7.215168340229e-02 0.0 
-1.254507820199e-03 2.780324647216e-02 0.0 
-2.437524583642e-03 4.310117206264e-02 0.0 
3.424111946291e-03 4.821749285942e-02 0.0 
3.490704654521e-03 2.645852164766e-02 0.0 
-4.061513295469e-03 4.955025976328e-02 0.0 
2.142806175617e-03 3.316634974723e-02 0.0 
2.047439702243e-03 1.916647554141e-02 0.0 
4.413772020001e-03 5.517068997084e-02 0.0 
-2.532550987894e-04 7.256030984255e-02 0.0 
2.624131512316e-03 5.754680129468e-02 0.0 
-3.965407476778e-04 1.557640806430e-02 0.0 
3.992226807624e-03 3.480681452446e-02 0.0 
-1.586712151119e-03 6.981099028483e-02 0.0 
3.276714707668e-03 4.010388114108e-02 0.0 
1.042791834984e-02 5.605518867409e-02 0.0 
7.046146137104e-03 7.029002251432e-02 0.0 
9.412409012043e-04 2.027081313224e-02 0.0 
8.633761256697e-03 4.403455334579e-02 0.0 
1.840256184706e-03 2.195826158625e-02 0.0 
2.869492039006e-03 3.454904412149e-02 0.0 
-1.357637587045e-03 6.945768593589e-02 0.0 
-1.381068235277e-03 2.382630520544e-02 0.0 
6.599589199408e-03 4.240524205557e-02 0.0 
1.726029385021e-03 2.533932615400e-02 0.0 
7.413505131557e-03 3.464433989600e-02 0.0 
4.836515188952e-03 4.399896031325e-02 0.0 
2.751109938808e-03 3.028079666719e-02 0.0 
-6.464481667836e-04 4.229260260917e-02 0.0 
3.704045167216e-03 2.402136766703e-02 0.0 
9.737256557304e-03 6.174901312875e-02 0.0 
9.054199186514e-03 4.556168996466e-02 0.0 
7.472892676037e-03 4.189712171355e-02 0.0 
9.351950547961e-03 4.532804242747e-02 0.0 
-7.265883174659e-04 4.031084758446e-02 0.0 
-1.369505352142e-03 2.591012903958e-02 0.0 
4.179741202894e-04 3.684549950423e-02 0.0 
1.110015956201e-02 5.918583255318e-02 0.0 
4.161441570406e-03 4.853899029208e-02 0.0 
5.208676813797e-03 2.237330243962e-02 0.0 
1.223403629344e-03 1.707293203328e-02 0.0 
1.068048152031e-02 6.005285162827e-02 0.0 
-1.595362047951e-03 2.734914885881e-02 0.0 
2.155706465347e-03 2.262086951720e-02 0.0 
-2.914395658368e-03 4.987428566732e-02 0.0 
-1.565702724967e-04 7.527002348669e-02 0.0 
7.878477449124e-03 4.358076051610e-02 0.0 
4.986516718732e-03 4.406807756981e-02 0.0 
8.301147385927e-03 4.443742980164e-02 0.0 
-2.652292493738e-03 4.618896082283e-02 0.0 
2.179589832929e-03 1.522115301454e-02 0.0 
-1.470827803424e-03 2.519339928214e-02 0.0 
-1.422889798551e-04 2.819808768682e-02 0.0 
3.578770126818e-03 5.493846917604e-02 0.0 
7.595942673834e-03 6.755459677896e-02 0.0 
-1.289669087205e-03 2.283920821070e-02 0.0 
2.178879411021e-03 3.912173422461e-02 0.0 
2.855587980026e-03 2.163445031214e-02 0.0 
-6.503053936679e-04 5.304320607075e-02 0.0 
3.039414169267e-03 1.241236015682e-02 0.0 
8.939417174791e-03 7.323090619700e-02 0.0 
-1.069855230284e-03 2.029973391218e-02 0.0 
9.717991297216e-04 2.735207244098e-02 0.0 
1.006281188832e-02 5.231673247389e-02 0.0 
8.533631352165e-04 6.851996653894e-02 0.0 
-7.082942369137e-04 1.267369433680e-02 0.0 
8.099384822507e-04 2.232353803997e-02 0.0 
8.624714258524e-03 4.088261365557e-02 0.0 
1.159514048183e-03 4.071399084927e-02 0.0 
7.678064173034e-03 7.380998719659e-02 0.0 
-2.504763750635e-03 4.526852181550e-02 0.0 
8.565856506421e-03 4.357498083035e-02 0.0 
8.393286940236e-04 7.084308927468e-03 0.0 
1.181978627873e-03 1.972819015593e-02 0.0 
5.945088006749e-03 4.568081602574e-02 0.0 
-2.512094417415e-03 4.839961338791e-02 0.0 
6.347513347849e-03 3.384788339910e-02 0.0 
4.883243376209e-04 7.665712651292e-02 0.0 
8.316611742622e-03 7.098881797093e-02 0.0 
-2.226163690771e-03 4.725699810075e-02 0.0 
3.353942420204e-03 4.375275079073e-02 0.0 
2.750734722815e-04 4.019920298519e-02 0.0 
2.550957772847e-03 1.292634089342e-02 0.0 
-1.899282404724e-03 4.584514969349e-02 0.0 
3.433535369108e-03 4.385164037986e-02 0.0 
-1.542837770682e-03 4.419302508184e-02 0.0 
8.163777316191e-03 7.628596321352e-02 0.0 
6.060338354862e-03 4.227096404403e-02 0.0 
-1.155146995291e-03 4.232763708654e-02 0.0 
7.768508314349e-03 3.793271105842e-02 0.0 
5.017845585531e-04 7.450903277657e-02 0.0 
7.999897296685e-03 3.788084597949e-02 0.0 
-4.432116166324e-04 2.197602848462e-02 0.0 
-3.613497168724e-03 5.482347289397e-02 0.0 
-4.372063202986e-04 3.964299244118e-02 0.0 
5.386024805993e-03 3.540734955882e-02 0.0 
8.414161365055e-03 7.774594076854e-02 0.0 
-2.894693428336e-04 3.641708637154e-02 0.0 
6.807766238019e-03 3.194488233009e-02 0.0 
7.267402435035e-03 3.498773508787e-02 0.0 
7.713679075366e-03 4.138234887395e-02 0.0 
-1.951952895815e-04 3.259962046171e-02 0.0 
9.331423688024e-03 7.424572739250e-02 0.0 
-3.331168765958e-03 6.306844972214e-02 0.0 
-2.909387715396e-03 6.464777312369e-02 0.0 
2.063108305428e-03 4.373668509113e-02 0.0 
6.108076122445e-03 2.890338123863e-02 0.0 
-1.385574576355e-05 7.664066018263e-02 0.0 
6.070537843609e-03 3.561148918879e-02 0.0 
-2.112775239155e-03 6.399198845917e-02 0.0 
6.156550682046e-04 4.453932836758e-02 0.0 
5.457563084852e-03 2.680806025972e-02 0.0 
2.510830902993e-04 5.176299424206e-02 0.0 
-4.284780021483e-04 4.526299494338e-02 0.0 
-2.482467589637e-04 7.320906736937e-02 0.0 
-1.646058987305e-03 4.703365874501e-02 0.0 
7.060512674749e-03 3.783797178761e-02 0.0 
-2.246800213091e-03 4.816502530896e-02 0.0 
-3.055339061833e-03 5.068914611199e-02 0.0 
6.307239876658e-04 1.566762902499e-02 0.0 
-3.255018840296e-03 5.183103357516e-02 0.0 
8.267240583722e-05 7.538930346938e-03 0.0 
-1.439219092344e-04 6.796067234919e-03 0.0 
3.261273705679e-04 6.420116809649e-02 0.0 
8.286802593463e-03 7.834880775669e-02 0.0 
5.519967826476e-04 2.150827439370e-02 0.0 
9.598594795488e-03 7.315304246091e-02 0.0 
-3.827396354886e-03 5.656848097664e-02 0.0 
6.693657542710e-03 3.569619199311e-02 0.0 
6.780236802755e-04 6.391248144500e-02 0.0 
-3.735097771423e-03 5.978465714200e-02 0.0 
2.737905022668e-03 1.362347569639e-02 0.0 
1.466597859229e-03 5.936429436588e-03 0.0 
4.574902283777e-04 4.110559687631e-02 0.0 
2.120880704625e-03 1.950702253568e-02 0.0 
6.417520404700e-03 3.201582731534e-02 0.0 
1.318278799761e-04 2.259555596370e-02 0.0 
1.984461270459e-03 6.881587687262e-02 0.0 
1.802571477195e-03 6.480331011069e-02 0.0 
-3.485378190129e-04 3.747095538746e-02 0.0 
8.015313239536e-03 7.680960906207e-02 0.0 
9.310460545086e-03 7.075693719173e-02 0.0 
8.798902242061e-03 6.477514875854e-02 0.0 
-1.056471166649e-03 6.908431061456e-02 0.0 
-1.864582704038e-03 5.272849741231e-02 0.0 
7.791826922524e-03 7.275333445782e-02 0.0 
1.494599046999e-03 1.153900014208e-02 0.0 
3.359698148392e-03 6.336394142679e-02 0.0 
5.355270982886e-03 2.486486822039e-02 0.0 
6.436844754866e-03 6.609838362943e-02 0.0 
1.481984812796e-03 1.494931792411e-02 0.0 
2.737033510348e-03 1.212472060359e-02 0.0 
-3.864236621769e-04 5.642892523994e-03 0.0 
4.138663761952e-03 1.883161059493e-02 0.0 
7.056366546860e-03 5.472568823221e-02 0.0 
4.852072030985e-03 5.751781782904e-02 0.0 
3.024373920649e-03 1.260133407719e-02 0.0 
6.195054055123e-04 3.513132155108e-02 0.0 
-3.816633563669e-04 5.524655052765e-03 0.0 
4.205125803151e-03 6.357879959805e-02 0.0 
3.896588664878e-04 1.465781269595e-02 0.0 
-1.360313135482e-03 3.678157267983e-02 0.0 
1.943573176679e-04 1.423569712226e-02 0.0 
5.698053097747e-03 2.895751613404e-02 0.0 
1.394267933738e-03 5.641721724171e-02 0.0 
5.739333523667e-03 5.718928379519e-02 0.0 
-3.736579552761e-04 1.177597599848e-02 0.0 
2.442523921162e-03 1.401739938927e-02 0.0 
5.485250540941e-03 4.689433188027e-02 0.0 
7.154036973705e-04 4.182061168777e-02 0.0 
-1.663734303653e-03 6.322003212568e-02 0.0 
-9.470561638958e-05 2.788939833399e-02 0.0 
-6.100994659609e-04 1.144355171196e-02 0.0 
4.554699282966e-03 2.210428042921e-02 0.0 
-5.724261460320e-04 1.190132755850e-02 0.0 
1.064518836436e-04 7.801193614033e-02 0.0 
2.195311599672e-03 7.056153943840e-02 0.0 
-2.899964064725e-04 1.036007443678e-02 0.0 
2.741722496256e-03 1.226304029580e-02 0.0 
-3.024818795758e-03 4.231401959989e-02 0.0 
5.044178090032e-04 6.064351714507e-03 0.0 
2.520221588246e-03 3.879911461888e-02 0.0 
2.711488560624e-03 6.925539278858e-02 0.0 
1.790003825182e-03 7.466608265718e-02 0.0 
-3.436481913572e-04 5.659041466270e-03 0.0 
9.124330390095e-04 1.399858238541e-02 0.0 
-1.148530294583e-03 6.067173675613e-02 0.0 
5.875058028367e-03 6.598584648073e-02 0.0 
-6.094421732409e-04 7.130464507695e-02 0.0 
4.060171580054e-03 1.699912458453e-02 0.0 
-3.851318763137e-04 6.210208918211e-02 0.0 
6.284414305201e-04 1.325043736604e-02 0.0 
1.615982862513e-04 9.929392808217e-03 0.0 
1.735765464140e-03 1.300091453527e-02 0.0 
7.825462011152e-04 4.393960731679e-03 0.0 
1.625853671916e-03 2.651290373470e-02 0.0 
2.500176269806e-03 1.055946039579e-02 0.0 
9.030606875263e-04 1.521013963535e-02 0.0 
1.489371750295e-03 6.912040795197e-02 0.0 
2.155268346913e-03 1.381664703015e-02 0.0 
-1.104402024742e-03 6.673331649797e-02 0.0 
-1.027247468008e-04 7.462784285285e-02 0.0 
3.673488468908e-05 6.684279021704e-03 0.0 
4.230345906592e-04 7.867811210831e-02 0.0 
2.491717646445e-04 6.918331529924e-02 0.0 
-5.424105861465e-05 5.557364799761e-03 0.0 
6.534045550315e-05 7.637691286296e-02 0.0 
5.414429231401e-04 5.974877541723e-02 0.0 
2.549893004178e-03 1.194827313118e-02 0.0 
-2.896028796169e-04 5.239087286161e-02 0.0 
3.098734710281e-04 2.787258798733e-02 0.0 
-3.333305309998e-03 4.965061413797e-02 0.0 
1.705982536204e-03 2.187580768683e-02 0.0 
4.374179636662e-04 4.835665063411e-02 0.0 
2.287764478730e-03 1.076075218700e-02 0.0 
1.371912388257e-03 1.251351323403e-02 0.0 
1.121366511040e-03 5.288161778835e-02 0.0 
6.841626837027e-03 4.345083410159e-02 0.0 
3.562859080922e-03 1.675031984301e-02 0.0 
-1.187171447922e-03 5.764275090001e-02 0.0 
4.060301736407e-03 1.719012790506e-02 0.0 
1.698755088624e-03 1.532912168736e-02 0.0 
-1.012884261957e-03 3.985094051880e-02 0.0 
-2.389175155621e-04 4.771919114166e-02 0.0 
2.095344889022e-03 7.338976133147e-02 0.0 
-7.010488237865e-04 1.049785146938e-02 0.0 
-7.847146466269e-04 5.605884784777e-02 0.0 
-5.219115948435e-04 6.700557536034e-02 0.0 
1.148866701978e-04 1.021377435449e-01 0.0 
3.476205779674e-03 7.477194541019e-02 0.0 
9.662871607173e-05 1.003639419949e-01 0.0 
5.499266064635e-03 7.943456229522e-02 0.0 
1.156685841194e-04 9.816730620291e-02 0.0 
6.531840896754e-03 8.180942233621e-02 0.0 
1.082794603423e-04 9.553133396370e-02 0.0 
7.033582256862e-03 8.250564366476e-02 0.0 
1.375960632303e-04 9.245312911409e-02 0.0 
7.183411639595e-03 8.184547829782e-02 0.0 
1.310421208193e-04 8.893246735836e-02 0.0 
7.053843067731e-03 8.007148730123e-02 0.0 
1.587465907816e-04 8.497037432761e-02 0.0 
6.706280005012e-03 7.727427186366e-02 0.0 
1.483016077130e-04 8.056974502655e-02 0.0 
6.189320529756e-03 7.367258582317e-02 0.0 
1.703268876453e-04 7.573532564359e-02 0.0 

TENSORS node_materi_stress float
-1.407298243791e+00 -1.474093189174e-01 0.0 
-1.474093189174e-01 -8.498503418449e+00 0.0 
0.0 0.0 -1.716970372742e+00 
-7.887513666470e+01 4.509107558189e-01 0.0 
4.509107558189e-01 -1.766489916608e+02 0.0 
0.0 0.0 -7.625723849764e+01 
-1.674615986913e+02 -5.260895225832e-01 0.0 
-5.260895225832e-01 -3.911821318486e+02 0.0 
0.0 0.0 -1.671931191619e+02 
-1.562084755146e+02 5.145796478939e-01 0.0 
5.145796478939e-01 -3.650001882606e+02 0.0 
0.0 0.0 -1.559625991326e+02 
-5.070265113921e+00 -3.081506824227e-01 0.0 
-3.081506824227e-01 -2.078331103173e+01 0.0 
0.0 0.0 -6.782473052352e+00 
-1.334382714838e+01 -5.823013133136e-01 0.0 
-5.823013133136e-01 -4.017645820934e+01 0.0 
0.0 0.0 -1.565608560732e+01 
-2.316566358948e+01 -5.438738564618e-01 0.0 
-5.438738564618e-01 -5.840171068746e+01 0.0 
0.0 0.0 -2.407021228308e+01 
-3.361118653426e+01 -5.407121557702e-01 0.0 
-5.407121557702e-01 -7.904095328615e+01 0.0 
0.0 0.0 -3.339564194613e+01 
-4.354062296592e+01 -4.933267009413e-01 0.0 
-4.933267009413e-01 -9.911373930455e+01 0.0 
0.0 0.0 -4.239630868114e+01 
-5.325913100396e+01 -5.041682272301e-01 0.0 
-5.041682272301e-01 -1.190382555252e+02 0.0 
0.0 0.0 -5.128921595875e+01 
-6.258386234517e+01 -5.579769247406e-01 0.0 
-5.579769247406e-01 -1.390437806500e+02 0.0 
0.0 0.0 -6.008829289854e+01 
-7.159669145330e+01 -5.463944920335e-01 0.0 
-5.463944920335e-01 -1.591375314618e+02 0.0 
0.0 0.0 -6.882026687452e+01 
-8.042596244159e+01 -5.527028398261e-01 0.0 
-5.527028398261e-01 -1.792776960968e+02 0.0 
0.0 0.0 -7.751109756151e+01 
-8.905883695193e+01 -6.192418858972e-01 0.0 
-6.192418858972e-01 -1.996567258832e+02 0.0 
0.0 0.0 -8.621466885055e+01 
-9.769112353061e+01 -7.553557950597e-01 0.0 
-7.553557950597e-01 -2.205695783237e+02 0.0 
0.0 0.0 -9.507821055631e+01 
-1.063627910160e+02 -7.236696238276e-01 0.0 
-7.236696238276e-01 -2.407741631576e+02 0.0 
0.0 0.0 -1.037410862521e+02 
-1.141727824587e+02 -9.039363400489e-01 0.0 
-9.039363400489e-01 -2.590978261494e+02 0.0 
0.0 0.0 -1.115811825824e+02 
-1.224209282668e+02 -4.717905901244e-01 0.0 
-4.717905901244e-01 -2.793221867962e+02 0.0 
0.0 0.0 -1.201229345189e+02 
-1.309105883978e+02 -4.299433450634e-01 0.0 
-4.299433450634e-01 -2.999891487146e+02 0.0 
0.0 0.0 -1.288699211337e+02 
-1.390957027212e+02 -4.120643876928e-01 0.0 
-4.120643876928e-01 -3.199871873495e+02 0.0 
0.0 0.0 -1.373248670212e+02 
-1.472294585762e+02 -3.704480778364e-01 0.0 
-3.704480778364e-01 -3.401228114024e+02 0.0 
0.0 0.0 -1.458056809936e+02 
-1.553160850105e+02 -4.210720565122e-01 0.0 
-4.210720565122e-01 -3.604043781471e+02 0.0 
0.0 0.0 -1.543161389473e+02 
-1.631404318634e+02 -5.059547765454e-01 0.0 
-5.059547765454e-01 -3.798256415321e+02 0.0 
0.0 0.0 -1.624898220187e+02 
-1.566655364063e+02 3.501581071496e-01 0.0 
3.501581071496e-01 -3.661210593911e+02 0.0 
0.0 0.0 -1.564359787392e+02 
-1.561102987238e+02 6.030378474351e-01 0.0 
6.030378474351e-01 -3.651112965578e+02 0.0 
0.0 0.0 -1.559664785845e+02 
-1.562601121072e+02 1.132212081413e+00 0.0 
1.132212081413e+00 -3.654240952720e+02 0.0 
0.0 0.0 -1.561052622138e+02 
-1.562358646838e+02 1.050319933807e+00 0.0 
1.050319933807e+00 -3.654878403679e+02 0.0 
0.0 0.0 -1.561171115155e+02 
-1.560617756597e+02 1.496158103831e+00 0.0 
1.496158103831e+00 -3.649642564904e+02 0.0 
0.0 0.0 -1.559078096450e+02 
-1.564298599974e+02 1.790416280227e+00 0.0 
1.790416280227e+00 -3.657414874668e+02 0.0 
0.0 0.0 -1.562514042393e+02 
-1.567713910520e+02 2.133691215341e+00 0.0 
2.133691215341e+00 -3.661763016124e+02 0.0 
0.0 0.0 -1.564843077993e+02 
-1.565720588821e+02 2.560556190387e+00 0.0 
2.560556190387e+00 -3.660869760156e+02 0.0 
0.0 0.0 -1.563977104693e+02 
-1.570915299828e+02 3.067933999295e+00 0.0 
3.067933999295e+00 -3.671207692608e+02 0.0 
0.0 0.0 -1.568636897731e+02 
-1.571539695313e+02 3.180008368961e+00 0.0 
3.180008368961e+00 -3.674291654609e+02 0.0 
0.0 0.0 -1.569749404977e+02 
-1.571381869444e+02 3.717410348996e+00 0.0 
3.717410348996e+00 -3.672178861712e+02 0.0 
0.0 0.0 -1.569068219347e+02 
-1.575768224555e+02 4.158802270250e+00 0.0 
4.158802270250e+00 -3.682917248273e+02 0.0 
0.0 0.0 -1.573605641848e+02 
-1.581962305015e+02 4.605001001550e+00 0.0 
4.605001001550e+00 -3.693430394165e+02 0.0 
0.0 0.0 -1.578617809754e+02 
-1.581558813765e+02 5.076377775649e+00 0.0 
5.076377775649e+00 -3.696447844307e+02 0.0 
0.0 0.0 -1.579401997422e+02 
-1.585334589712e+02 5.574000077694e+00 0.0 
5.574000077694e+00 -3.701767169324e+02 0.0 
0.0 0.0 -1.582130527711e+02 
-1.584660268483e+02 5.945911959127e+00 0.0 
5.945911959127e+00 -3.703830845138e+02 0.0 
0.0 0.0 -1.582547334086e+02 
-1.588719236293e+02 6.465818398128e+00 0.0 
6.465818398128e+00 -3.712897303504e+02 0.0 
0.0 0.0 -1.586484961939e+02 
-1.598660642795e+02 6.935499399303e+00 0.0 
6.935499399303e+00 -3.732389866986e+02 0.0 
0.0 0.0 -1.595315152934e+02 
-1.604784803982e+02 7.399085388430e+00 0.0 
7.399085388430e+00 -3.749684017235e+02 0.0 
0.0 0.0 -1.602340646365e+02 
-1.611844796494e+02 7.806037805231e+00 0.0 
7.806037805231e+00 -3.767886916793e+02 0.0 
0.0 0.0 -1.609919513986e+02 
-1.617361257198e+02 8.048065534295e+00 0.0 
8.048065534295e+00 -3.782788617479e+02 0.0 
0.0 0.0 -1.616044962403e+02 
-1.624395098427e+02 8.389874971829e+00 0.0 
8.389874971829e+00 -3.798319514142e+02 0.0 
0.0 0.0 -1.622814383771e+02 
-1.630604979606e+02 8.550601604590e+00 0.0 
8.550601604590e+00 -3.816015621792e+02 0.0 
0.0 0.0 -1.629986180419e+02 
-1.637519667306e+02 8.640234023265e+00 0.0 
8.640234023265e+00 -3.834174154201e+02 0.0 
0.0 0.0 -1.637508146452e+02 
-1.645671211838e+02 8.597970902475e+00 0.0 
8.597970902475e+00 -3.855312281116e+02 0.0 
0.0 0.0 -1.646295047886e+02 
-1.654701717087e+02 8.461390913907e+00 0.0 
8.461390913907e+00 -3.876985200845e+02 0.0 
0.0 0.0 -1.655506075380e+02 
-1.661288808168e+02 8.166941306411e+00 0.0 
8.166941306411e+00 -3.896990639132e+02 0.0 
0.0 0.0 -1.663483834190e+02 
-1.669417894947e+02 7.730921469084e+00 0.0 
7.730921469084e+00 -3.915959423215e+02 0.0 
0.0 0.0 -1.671613195449e+02 
-1.673871738148e+02 7.178051399337e+00 0.0 
7.178051399337e+00 -3.930552409284e+02 0.0 
0.0 0.0 -1.677327244229e+02 
-1.683485880161e+02 6.661861290006e+00 0.0 
6.661861290006e+00 -3.951890885420e+02 0.0 
0.0 0.0 -1.686613029674e+02 
-1.686674402274e+02 5.626939041406e+00 0.0 
5.626939041406e+00 -3.963097803390e+02 0.0 
0.0 0.0 -1.690931661699e+02 
-1.686317890731e+02 4.925942564785e+00 0.0 
4.925942564785e+00 -3.964357236107e+02 0.0 
0.0 0.0 -1.691202538051e+02 
-1.690101382492e+02 4.049095502410e+00 0.0 
4.049095502410e+00 -3.972733692730e+02 0.0 
0.0 0.0 -1.694850522567e+02 
-1.693468878264e+02 3.218574873192e+00 0.0 
3.218574873192e+00 -3.980507988981e+02 0.0 
0.0 0.0 -1.698193060174e+02 
-1.695752054964e+02 2.348305233273e+00 0.0 
2.348305233273e+00 -3.984655558937e+02 0.0 
0.0 0.0 -1.700122284170e+02 
-1.696169348581e+02 1.574576392841e+00 0.0 
1.574576392841e+00 -3.985227099734e+02 0.0 
0.0 0.0 -1.700418934495e+02 
-1.696974787827e+02 8.326057746940e-01 0.0 
8.326057746940e-01 -3.984260760576e+02 0.0 
0.0 0.0 -1.700370664521e+02 
-1.694164784720e+02 1.838206649261e-01 0.0 
1.838206649261e-01 -3.977547023136e+02 0.0 
0.0 0.0 -1.697513542357e+02 
-1.692150572620e+02 -3.069809909383e-01 0.0 
-3.069809909383e-01 -3.969672301331e+02 0.0 
0.0 0.0 -1.694546862185e+02 
-1.687413377161e+02 -7.632391040228e-01 0.0 
-7.632391040228e-01 -3.958949806214e+02 0.0 
0.0 0.0 -1.689908955013e+02 
-1.686541892787e+02 -9.857049507365e-01 0.0 
-9.857049507365e-01 -3.955106029280e+02 0.0 
0.0 0.0 -1.688494376620e+02 
-1.689542084658e+02 -1.276877791766e+00 0.0 
-1.276877791766e+00 -3.956981925697e+02 0.0 
0.0 0.0 -1.689957203106e+02 
-1.689699904681e+02 -1.269345126059e+00 0.0 
-1.269345126059e+00 -3.953697390994e+02 0.0 
0.0 0.0 -1.689019188703e+02 
-1.674252324894e+02 -1.248709033828e+00 0.0 
-1.248709033828e+00 -3.920313629907e+02 0.0 
0.0 0.0 -1.674369786440e+02 
-1.683037179606e+02 -1.216207936688e+00 0.0 
-1.216207936688e+00 -3.935550693892e+02 0.0 
0.0 0.0 -1.681576362049e+02 
-1.675779778681e+02 -1.050695684623e+00 0.0 
-1.050695684623e+00 -3.921541571013e+02 0.0 
0.0 0.0 -1.675196404908e+02 
-1.676471431170e+02 -6.865231477320e-01 0.0 
-6.865231477320e-01 -3.922228751207e+02 0.0 
0.0 0.0 -1.675610054713e+02 
-1.679025956515e+02 -6.614678621733e-01 0.0 
-6.614678621733e-01 -3.926258791446e+02 0.0 
0.0 0.0 -1.677585424388e+02 
-1.677655374361e+02 -3.384038708314e-01 0.0 
-3.384038708314e-01 -3.923443020996e+02 0.0 
0.0 0.0 -1.676329518607e+02 
-8.764289920210e+01 3.256080203358e-01 0.0 
3.256080203358e-01 -1.964797104326e+02 0.0 
0.0 0.0 -8.483678289041e+01 
-9.585718500155e+01 3.791303120733e-01 0.0 
3.791303120733e-01 -2.162104133420e+02 0.0 
0.0 0.0 -9.322027950305e+01 
-1.041265823632e+02 3.786197953409e-01 0.0 
3.786197953409e-01 -2.357758345976e+02 0.0 
0.0 0.0 -1.015707250882e+02 
-1.121082530915e+02 4.153913271063e-01 0.0 
4.153913271063e-01 -2.549694699299e+02 0.0 
0.0 0.0 -1.097233169064e+02 
-1.201701803581e+02 3.817484995313e-01 0.0 
3.817484995313e-01 -2.746086509255e+02 0.0 
0.0 0.0 -1.180336493851e+02 
-1.283831112087e+02 4.274188221712e-01 0.0 
4.274188221712e-01 -2.943628476983e+02 0.0 
0.0 0.0 -1.264237876721e+02 
-1.361853886889e+02 3.942356198382e-01 0.0 
3.942356198382e-01 -3.138948586471e+02 0.0 
0.0 0.0 -1.346240742008e+02 
-1.438786541492e+02 4.614102921199e-01 0.0 
4.614102921199e-01 -3.333006422185e+02 0.0 
0.0 0.0 -1.427537889103e+02 
-1.518228532008e+02 5.068962027530e-01 0.0 
5.068962027530e-01 -3.532777746285e+02 0.0 
0.0 0.0 -1.511301883488e+02 
-5.368299240400e+01 2.597294605363e+01 0.0 
2.597294605363e+01 -6.964178340923e+01 0.0 
0.0 0.0 -3.742081689988e+01 
-8.249727331953e+01 1.705326754842e+00 0.0 
1.705326754842e+00 -1.788369127219e+02 0.0 
0.0 0.0 -7.800025581244e+01 
-3.145543594280e+01 1.891455510067e+01 0.0 
1.891455510067e+01 -2.208797594904e+01 0.0 
0.0 0.0 -1.565036950914e+01 
-2.262072891759e+01 9.175932139451e+00 0.0 
9.175932139451e+00 -2.406502258154e+01 0.0 
0.0 0.0 -1.253302634162e+01 
-2.819947939695e+01 7.279823545411e+00 0.0 
7.279823545411e+00 -4.316892938177e+01 0.0 
0.0 0.0 -2.031321155630e+01 
-3.420536121854e+01 5.822395328004e+00 0.0 
5.822395328004e+00 -6.118259431593e+01 0.0 
0.0 0.0 -2.821638666034e+01 
-4.189815973445e+01 4.532434408472e+00 0.0 
4.532434408472e+00 -8.080111452018e+01 0.0 
0.0 0.0 -3.640978227639e+01 
-5.005253020387e+01 3.655187953467e+00 0.0 
3.655187953467e+00 -1.005498224763e+02 0.0 
0.0 0.0 -4.478070580404e+01 
-5.800440144675e+01 2.852912832427e+00 0.0 
2.852912832427e+00 -1.198791957393e+02 0.0 
0.0 0.0 -5.296507915582e+01 
-6.608877819571e+01 2.271958380815e+00 0.0 
2.271958380815e+00 -1.391751264962e+02 0.0 
0.0 0.0 -6.117917140757e+01 
-7.417973281173e+01 1.909963655775e+00 0.0 
1.909963655775e+00 -1.584663220901e+02 0.0 
0.0 0.0 -6.939381647056e+01 
-5.457203266505e+00 7.028808784394e-01 0.0 
7.028808784394e-01 -7.255212121922e+00 0.0 
0.0 0.0 -3.390632128449e+00 
-1.080918513980e+01 8.225990553657e-01 0.0 
8.225990553657e-01 -1.969863449263e+01 0.0 
0.0 0.0 -8.740799645689e+00 
-1.897932621103e+01 6.376923042598e-01 0.0 
6.376923042598e-01 -3.930853679210e+01 0.0 
0.0 0.0 -1.708635890094e+01 
-2.745148733397e+01 7.722486416027e-01 0.0 
7.722486416027e-01 -5.883664838696e+01 0.0 
0.0 0.0 -2.548644071628e+01 
-3.605601385065e+01 6.277689604366e-01 0.0 
6.277689604366e-01 -7.834404036589e+01 0.0 
0.0 0.0 -3.392001626496e+01 
-4.466716315513e+01 7.856810389368e-01 0.0 
7.856810389368e-01 -9.786271651659e+01 0.0 
0.0 0.0 -4.235896390152e+01 
-5.327795036194e+01 6.428010842494e-01 0.0 
6.428010842494e-01 -1.173936900895e+02 0.0 
0.0 0.0 -5.080149213542e+01 
-6.185717668244e+01 7.819714923686e-01 0.0 
7.819714923686e-01 -1.369209384587e+02 0.0 
0.0 0.0 -5.923343454233e+01 
-7.038440622633e+01 5.603458699822e-01 0.0 
5.603458699822e-01 -1.563579123890e+02 0.0 
0.0 0.0 -6.762269558461e+01 
-7.798039392182e+01 -2.240099387372e-01 0.0 
-2.240099387372e-01 -1.740468258478e+02 0.0 
0.0 0.0 -7.520816593089e+01 
-7.863112236026e+01 -1.971439037231e-02 0.0 
-1.971439037231e-02 -1.752533693397e+02 0.0 
0.0 0.0 -7.576534750999e+01 
-7.864837126589e+01 -1.562670440737e-02 0.0 
-1.562670440737e-02 -1.753118429343e+02 0.0 
0.0 0.0 -7.578806426005e+01 
-7.867580089200e+01 4.154596565247e-02 0.0 
4.154596565247e-02 -1.751048894475e+02 0.0 
0.0 0.0 -7.573420710184e+01 
-8.002826583226e+01 3.787214464254e-02 0.0 
3.787214464254e-02 -1.777873669183e+02 0.0 
0.0 0.0 -7.694468982516e+01 
-7.910831588856e+01 4.812722192122e-02 0.0 
4.812722192122e-02 -1.754929568996e+02 0.0 
0.0 0.0 -7.598038183646e+01 
-7.932687888589e+01 1.395831728672e-01 0.0 
1.395831728672e-01 -1.753710855413e+02 0.0 
0.0 0.0 -7.600938932814e+01 
-7.955554379394e+01 1.304089694678e-01 0.0 
1.304089694678e-01 -1.756344071009e+02 0.0 
0.0 0.0 -7.615698526847e+01 
-7.987751330855e+01 2.604628101265e-01 0.0 
2.604628101265e-01 -1.761609300239e+02 0.0 
0.0 0.0 -7.641153299973e+01 
-8.008319963728e+01 3.332305655290e-01 0.0 
3.332305655290e-01 -1.762051319185e+02 0.0 
0.0 0.0 -7.648649946672e+01 
-8.045120670626e+01 5.091720241420e-01 0.0 
5.091720241420e-01 -1.763134736436e+02 0.0 
0.0 0.0 -7.662940410497e+01 
-8.070624332618e+01 7.155202290640e-01 0.0 
7.155202290640e-01 -1.764492594757e+02 0.0 
0.0 0.0 -7.674665084055e+01 
-8.116623513230e+01 9.129147228778e-01 0.0 
9.129147228778e-01 -1.768018050736e+02 0.0 
0.0 0.0 -7.699041206177e+01 
-8.166321710740e+01 1.197086182816e+00 0.0 
1.197086182816e+00 -1.774538785935e+02 0.0 
0.0 0.0 -7.733512871027e+01 
-7.466685077541e+01 1.248574722820e+01 0.0 
1.248574722820e+01 -9.713896027706e+01 0.0 
0.0 0.0 -5.190287633231e+01 
-8.843075486867e+01 1.965884618340e+00 0.0 
1.965884618340e+00 -1.048770163880e+02 0.0 
0.0 0.0 -5.835940616553e+01 
-9.200387830180e+01 -2.609074016694e+00 0.0 
-2.609074016694e+00 -1.043207940169e+02 0.0 
0.0 0.0 -5.923157204443e+01 
-8.121187000531e+01 -1.016611294279e+01 0.0 
-1.016611294279e+01 -9.598782189107e+01 0.0 
0.0 0.0 -5.349352513372e+01 
-5.016612424657e+01 -1.913834184536e+01 0.0 
-1.913834184536e+01 -5.785977951238e+01 0.0 
0.0 0.0 -3.268498365221e+01 
-2.215365758991e+01 -1.216168749993e+01 0.0 
-1.216168749993e+01 -1.944443813363e+01 0.0 
0.0 0.0 -1.233048140246e+01 
-8.548717857392e+00 -2.622555159169e+00 0.0 
-2.622555159169e+00 -1.010188769547e+01 0.0 
0.0 0.0 -5.315656273962e+00 
-4.027755995115e+00 -4.087162391608e-01 0.0 
-4.087162391608e-01 -8.465600381536e+00 0.0 
0.0 0.0 -2.919115387284e+00 
-2.161729724533e+00 -7.794996589903e-02 0.0 
-7.794996589903e-02 -8.041572505149e+00 0.0 
0.0 0.0 -1.671353774949e+00 
-1.126297611703e+00 2.114094948435e-02 0.0 
2.114094948435e-02 -8.202742193238e+00 0.0 
0.0 0.0 -1.896063253241e+00 
-9.339723711706e-01 2.383578683312e-01 0.0 
2.383578683312e-01 -8.270753412902e+00 0.0 
0.0 0.0 -2.114956431658e+00 
-1.125400723411e+00 1.005480619701e-01 0.0 
1.005480619701e-01 -8.706631849942e+00 0.0 
0.0 0.0 -2.029268658947e+00 
-1.252028150981e+00 7.779862640611e-02 0.0 
7.779862640611e-02 -8.460572283383e+00 0.0 
0.0 0.0 -1.955635146758e+00 
-1.092584231230e+00 -2.665546123480e-02 0.0 
-2.665546123480e-02 -7.741960691672e+00 0.0 
0.0 0.0 -1.759051855251e+00 
-1.010303811804e+00 -5.967114892521e-02 0.0 
-5.967114892521e-02 -7.937845124958e+00 0.0 
0.0 0.0 -1.788053521943e+00 
-9.481756642159e-01 -7.604013802276e-02 0.0 
-7.604013802276e-02 -8.204456119109e+00 0.0 
0.0 0.0 -1.779118761243e+00 
-8.536392192520e-01 -3.528607620937e-02 0.0 
-3.528607620937e-02 -8.248407594940e+00 0.0 
0.0 0.0 -1.755235439366e+00 
-7.738699496727e-01 -7.353213240520e-02 0.0 
-7.353213240520e-02 -7.865113130240e+00 0.0 
0.0 0.0 -1.636989556495e+00 
-8.352034211079e-01 2.991261728086e-02 0.0 
2.991261728086e-02 -7.262055000279e+00 0.0 
0.0 0.0 -1.471595603956e+00 
-5.490155177884e+00 -3.344555855512e-01 0.0 
-3.344555855512e-01 -6.884057959581e+00 0.0 
0.0 0.0 -3.312263941239e+00 
-5.894768202716e+00 1.686601868148e-01 0.0 
1.686601868148e-01 -9.142360417802e+00 0.0 
0.0 0.0 -4.221754193486e+00 
-5.884200283392e+00 7.924474887095e-02 0.0 
7.924474887095e-02 -9.752801284548e+00 0.0 
0.0 0.0 -4.379988925804e+00 
-5.854749193662e+00 1.191567658517e-02 0.0 
1.191567658517e-02 -9.795437952764e+00 0.0 
0.0 0.0 -4.380213384309e+00 
-5.760804583122e+00 -3.474369232718e-02 0.0 
-3.474369232718e-02 -9.813379768247e+00 0.0 
0.0 0.0 -4.356262895528e+00 
-5.610174218144e+00 -6.739850810716e-02 0.0 
-6.739850810716e-02 -9.820582791182e+00 0.0 
0.0 0.0 -4.312914302513e+00 
-5.410955062784e+00 -9.211652828761e-02 0.0 
-9.211652828761e-02 -9.821349482253e+00 0.0 
0.0 0.0 -4.253458602268e+00 
-5.168760898190e+00 -1.126218892506e-01 0.0 
-1.126218892506e-01 -9.818615718378e+00 0.0 
0.0 0.0 -4.180276642850e+00 
-4.887306621842e+00 -1.309559731443e-01 0.0 
-1.309559731443e-01 -9.813977199573e+00 0.0 
0.0 0.0 -4.094874963549e+00 
-4.569220257917e+00 -1.481857059413e-01 0.0 
-1.481857059413e-01 -9.808240220113e+00 0.0 
0.0 0.0 -3.998242263944e+00 
-4.216701543020e+00 -1.648133522097e-01 0.0 
-1.648133522097e-01 -9.801821993500e+00 0.0 
0.0 0.0 -3.891141236590e+00 
-3.832104533124e+00 -1.809153362686e-01 0.0 
-1.809153362686e-01 -9.795016186096e+00 0.0 
0.0 0.0 -3.774347416662e+00 
-3.418590722510e+00 -1.961069893387e-01 0.0 
-1.961069893387e-01 -9.788083175810e+00 0.0 
0.0 0.0 -3.648884473609e+00 
-2.980896817949e+00 -2.096090058195e-01 0.0 
-2.096090058195e-01 -9.781255849670e+00 0.0 
0.0 0.0 -3.516244947134e+00 
-2.525951851704e+00 -2.203475464530e-01 0.0 
-2.203475464530e-01 -9.774619623216e+00 0.0 
0.0 0.0 -3.378564670073e+00 
-2.063674940075e+00 -2.268899376426e-01 0.0 
-2.268899376426e-01 -9.768577828263e+00 0.0 
0.0 0.0 -3.238914821820e+00 
-1.607888539820e+00 -2.267758265275e-01 0.0 
-2.267758265275e-01 -9.763437435920e+00 0.0 
0.0 0.0 -3.101872562992e+00 
-1.179014802777e+00 -2.157776450280e-01 0.0 
-2.157776450280e-01 -9.761637788893e+00 0.0 
0.0 0.0 -2.974152148252e+00 
-8.077084155820e-01 -1.840513754417e-01 0.0 
-1.840513754417e-01 -9.766359109348e+00 0.0 
0.0 0.0 -2.866239562808e+00 
-5.277771371746e-01 -1.166880948003e-01 0.0 
-1.166880948003e-01 -9.783788608742e+00 0.0 
0.0 0.0 -2.776391389260e+00 
-4.551898422470e-01 -5.540239272537e-03 0.0 
-5.540239272537e-03 -9.786873176703e+00 0.0 
0.0 0.0 -2.677538514224e+00 
-5.882694556193e-01 9.704053134067e-02 0.0 
9.704053134067e-02 -9.722716460210e+00 0.0 
0.0 0.0 -2.449278551158e+00 
-8.241531666324e-01 1.219493497561e-01 0.0 
1.219493497561e-01 -9.571512948668e+00 0.0 
0.0 0.0 -2.191405744260e+00 
-1.322043531614e+00 7.231387458321e-03 0.0 
7.231387458321e-03 -9.400369265670e+00 0.0 
0.0 0.0 -1.843732726861e+00 
-2.146380845497e+00 -3.308570725216e-02 0.0 
-3.308570725216e-02 -9.434593851694e+00 0.0 
0.0 0.0 -2.103672718618e+00 
-3.484298100369e+00 7.640720053771e-01 0.0 
7.640720053771e-01 -1.040951563183e+01 0.0 
0.0 0.0 -3.449189711357e+00 
-6.984768844728e+00 3.105454010381e+00 0.0 
3.105454010381e+00 -1.046201580531e+01 0.0 
0.0 0.0 -4.375732710471e+00 
-1.353874726862e+01 5.622046457030e+00 0.0 
5.622046457030e+00 -5.777195508224e+00 0.0 
0.0 0.0 -4.969480551161e+00 
-1.460209796216e+01 4.006295074062e+00 0.0 
4.006295074062e+00 -1.926448607984e+01 0.0 
0.0 0.0 -9.301125465919e+00 
-1.314147888736e+01 2.594783103861e+00 0.0 
2.594783103861e+00 -2.213537023856e+01 0.0 
0.0 0.0 -9.831010861226e+00 
-9.750448829849e+00 9.913348456600e-01 0.0 
9.913348456600e-01 -2.004344977143e+01 0.0 
0.0 0.0 -8.212997554339e+00 
-8.261295008508e+00 5.284213574167e-01 0.0 
5.284213574167e-01 -1.984587424030e+01 0.0 
0.0 0.0 -7.862094819811e+00 
-7.450923516264e+00 2.364688754404e-01 0.0 
2.364688754404e-01 -1.982229919352e+01 0.0 
0.0 0.0 -7.719042970098e+00 
-7.022378176441e+00 2.632316705342e-02 0.0 
2.632316705342e-02 -1.981203318783e+01 0.0 
0.0 0.0 -7.694154186867e+00 
-6.813384533169e+00 -1.505461129179e-01 0.0 
-1.505461129179e-01 -1.977848487476e+01 0.0 
0.0 0.0 -7.667991483820e+00 
-6.795443516564e+00 -2.820910798301e-01 0.0 
-2.820910798301e-01 -1.972530921356e+01 0.0 
0.0 0.0 -7.650999447933e+00 
-6.888339553652e+00 -3.729232460932e-01 0.0 
-3.729232460932e-01 -1.968951367588e+01 0.0 
0.0 0.0 -7.666343806901e+00 
-7.068000643263e+00 -4.265895871176e-01 0.0 
-4.265895871176e-01 -1.966300716265e+01 0.0 
0.0 0.0 -7.710517912285e+00 
-7.310586705410e+00 -4.540579139126e-01 0.0 
-4.540579139126e-01 -1.964570152168e+01 0.0 
0.0 0.0 -7.776743348922e+00 
-7.592261196345e+00 -4.616501380013e-01 0.0 
-4.616501380013e-01 -1.963276884218e+01 0.0 
0.0 0.0 -7.856325121016e+00 
-7.895168178401e+00 -4.553604871852e-01 0.0 
-4.553604871852e-01 -1.962364939646e+01 0.0 
0.0 0.0 -7.943641459680e+00 
-8.204950207531e+00 -4.387758345746e-01 0.0 
-4.387758345746e-01 -1.961685358861e+01 0.0 
0.0 0.0 -8.033781864324e+00 
-8.511023529373e+00 -4.150236987883e-01 0.0 
-4.150236987883e-01 -1.961203736513e+01 0.0 
0.0 0.0 -8.123465020855e+00 
-8.805696229723e+00 -3.863794099643e-01 0.0 
-3.863794099643e-01 -1.960860891228e+01 0.0 
0.0 0.0 -8.210189230867e+00 
-9.083469838355e+00 -3.544546067668e-01 0.0 
-3.544546067668e-01 -1.960596202605e+01 0.0 
0.0 0.0 -8.292123707405e+00 
-9.340191285234e+00 -3.200565571377e-01 0.0 
-3.200565571377e-01 -1.960346325094e+01 0.0 
0.0 0.0 -8.367843329683e+00 
-9.572635677995e+00 -2.834359306444e-01 0.0 
-2.834359306444e-01 -1.960061417648e+01 0.0 
0.0 0.0 -8.436251693844e+00 
-9.778224419896e+00 -2.443805932192e-01 0.0 
-2.443805932192e-01 -1.959683755302e+01 0.0 
0.0 0.0 -8.496434040193e+00 
-9.954936253815e+00 -2.021815707399e-01 0.0 
-2.021815707399e-01 -1.959129846279e+01 0.0 
0.0 0.0 -8.547597634217e+00 
-1.010156440029e+01 -1.556462726796e-01 0.0 
-1.556462726796e-01 -1.958280968481e+01 0.0 
0.0 0.0 -8.589159620445e+00 
-1.021899028590e+01 -1.036558795548e-01 0.0 
-1.036558795548e-01 -1.957036988092e+01 0.0 
0.0 0.0 -8.621390465296e+00 
-1.031421427287e+01 -4.911169022567e-02 0.0 
-4.911169022567e-02 -1.955737727301e+01 0.0 
0.0 0.0 -8.648500311664e+00 
-1.041851642369e+01 -5.057306615679e-02 0.0 
-5.057306615679e-02 -1.957270664773e+01 0.0 
0.0 0.0 -8.697118952804e+00 
-1.066703544086e+01 -2.584227211983e-01 0.0 
-2.584227211983e-01 -1.967002796563e+01 0.0 
0.0 0.0 -8.742599874695e+00 
-2.343267656635e+01 4.263365986096e+00 0.0 
4.263365986096e+00 -3.843907788561e+01 0.0 
0.0 0.0 -1.793012027203e+01 
-2.274902168953e+01 3.128019892184e+00 0.0 
3.128019892184e+00 -4.153976688932e+01 0.0 
0.0 0.0 -1.874748851139e+01 
-2.024151254617e+01 1.644494180051e+00 0.0 
1.644494180051e+00 -4.013219434946e+01 0.0 
0.0 0.0 -1.759635928070e+01 
-1.903773098889e+01 9.336788429192e-01 0.0 
9.336788429192e-01 -3.982425943333e+01 0.0 
0.0 0.0 -1.721301965328e+01 
-1.832301955187e+01 4.355644378809e-01 0.0 
4.355644378809e-01 -3.975561625308e+01 0.0 
0.0 0.0 -1.701020322421e+01 
-1.781994424714e+01 9.935815285293e-02 0.0 
9.935815285293e-02 -3.959052649396e+01 0.0 
0.0 0.0 -1.682314122233e+01 
-1.753032150274e+01 -1.544596226916e-01 0.0 
-1.544596226916e-01 -3.948680503891e+01 0.0 
0.0 0.0 -1.670513796249e+01 
-1.736349103363e+01 -3.344423643674e-01 0.0 
-3.344423643674e-01 -3.939084655411e+01 0.0 
0.0 0.0 -1.662630127632e+01 
-1.730461056320e+01 -4.583006117810e-01 0.0 
-4.583006117810e-01 -3.932818595846e+01 0.0 
0.0 0.0 -1.658983895650e+01 
-1.731589016244e+01 -5.352270215461e-01 0.0 
-5.352270215461e-01 -3.927841924839e+01 0.0 
0.0 0.0 -1.657829282325e+01 
-1.738138360391e+01 -5.768287388430e-01 0.0 
-5.768287388430e-01 -3.924319880436e+01 0.0 
0.0 0.0 -1.658737472248e+01 
-1.748095249841e+01 -5.909254505029e-01 0.0 
-5.909254505029e-01 -3.921646535563e+01 0.0 
0.0 0.0 -1.660922535621e+01 
-1.760226477074e+01 -5.846218933098e-01 0.0 
-5.846218933098e-01 -3.919765422210e+01 0.0 
0.0 0.0 -1.663997569785e+01 
-1.773499037159e+01 -5.635341902651e-01 0.0 
-5.635341902651e-01 -3.918451479362e+01 0.0 
0.0 0.0 -1.667585154956e+01 
-1.787242231312e+01 -5.318942345094e-01 0.0 
-5.318942345094e-01 -3.917540782858e+01 0.0 
0.0 0.0 -1.671434904251e+01 
-1.800890006740e+01 -4.923029721809e-01 0.0 
-4.923029721809e-01 -3.916853898141e+01 0.0 
0.0 0.0 -1.675323171464e+01 
-1.814008210627e+01 -4.464024060327e-01 0.0 
-4.464024060327e-01 -3.916273071960e+01 0.0 
0.0 0.0 -1.679084384776e+01 
-1.826295370513e+01 -3.952038820381e-01 0.0 
-3.952038820381e-01 -3.915695713580e+01 0.0 
0.0 0.0 -1.682597325228e+01 
-1.837572053362e+01 -3.392965837003e-01 0.0 
-3.392965837003e-01 -3.915015774890e+01 0.0 
0.0 0.0 -1.685776348476e+01 
-1.847797838575e+01 -2.791546139098e-01 0.0 
-2.791546139098e-01 -3.914133540410e+01 0.0 
0.0 0.0 -1.688579413696e+01 
-1.857093751936e+01 -2.159802096546e-01 0.0 
-2.159802096546e-01 -3.913029332818e+01 0.0 
0.0 0.0 -1.691036925426e+01 
-1.865819097502e+01 -1.533198957221e-01 0.0 
-1.533198957221e-01 -3.911998528429e+01 0.0 
0.0 0.0 -1.693345287779e+01 
-1.874527003257e+01 -9.715890181883e-02 0.0 
-9.715890181883e-02 -3.912309000117e+01 0.0 
0.0 0.0 -1.696050801012e+01 
-1.883230592624e+01 -4.041833146515e-02 0.0 
-4.041833146515e-02 -3.917022587423e+01 0.0 
0.0 0.0 -1.700075954014e+01 
-1.894781923358e+01 -4.612525135068e-01 0.0 
-4.612525135068e-01 -3.927854442158e+01 0.0 
0.0 0.0 -1.706790909655e+01 
-2.746130319614e+01 -3.978195863203e-01 0.0 
-3.978195863203e-01 -5.878566481377e+01 0.0 
0.0 0.0 -2.547409040297e+01 
-2.743710232136e+01 -2.372882436084e-01 0.0 
-2.372882436084e-01 -5.870604066428e+01 0.0 
0.0 0.0 -2.544294289569e+01 
-2.739351887810e+01 -2.218942738336e-01 0.0 
-2.218942738336e-01 -5.868512496621e+01 0.0 
0.0 0.0 -2.542359315329e+01 
-2.734417963633e+01 -2.804897174555e-01 0.0 
-2.804897174555e-01 -5.868751797624e+01 0.0 
0.0 0.0 -2.540950928377e+01 
-2.729295566100e+01 -3.476396495498e-01 0.0 
-3.476396495498e-01 -5.869899312192e+01 0.0 
0.0 0.0 -2.539758463487e+01 
-2.724109014447e+01 -4.156471407796e-01 0.0 
-4.156471407796e-01 -5.871226067156e+01 0.0 
0.0 0.0 -2.538600524481e+01 
-2.718931239776e+01 -4.809968229738e-01 0.0 
-4.809968229738e-01 -5.872468882657e+01 0.0 
0.0 0.0 -2.537420036730e+01 
-2.713886514762e+01 -5.417092742212e-01 0.0 
-5.417092742212e-01 -5.873649765003e+01 0.0 
0.0 0.0 -2.536260883929e+01 
-2.709117282923e+01 -5.958616658839e-01 0.0 
-5.958616658839e-01 -5.874900858454e+01 0.0 
0.0 0.0 -2.535205442413e+01 
-2.704903301469e+01 -6.411598464060e-01 0.0 
-6.411598464060e-01 -5.876364364764e+01 0.0 
0.0 0.0 -2.534380299870e+01 
-2.701683499868e+01 -6.746187998863e-01 0.0 
-6.746187998863e-01 -5.878207550511e+01 0.0 
0.0 0.0 -2.533967315114e+01 
-2.700094277639e+01 -6.926538829578e-01 0.0 
-6.926538829578e-01 -5.880624324642e+01 0.0 
0.0 0.0 -2.534215580684e+01 
-2.700870392920e+01 -6.908519344231e-01 0.0 
-6.908519344231e-01 -5.884061771687e+01 0.0 
0.0 0.0 -2.535479649382e+01 
-2.704724734382e+01 -6.606740352278e-01 0.0 
-6.606740352278e-01 -5.888824513010e+01 0.0 
0.0 0.0 -2.538064774218e+01 
-2.712938212145e+01 -5.929176874515e-01 0.0 
-5.929176874515e-01 -5.895455911782e+01 0.0 
0.0 0.0 -2.542518237178e+01 
-2.726984861213e+01 -4.726516248961e-01 0.0 
-4.726516248961e-01 -5.903747581888e+01 0.0 
0.0 0.0 -2.549219732930e+01 
-2.749554031254e+01 -2.926113694697e-01 0.0 
-2.926113694697e-01 -5.915492996687e+01 0.0 
0.0 0.0 -2.559514108382e+01 
-2.781622036437e+01 -2.351686779562e-02 0.0 
-2.351686779562e-02 -5.929216190483e+01 0.0 
0.0 0.0 -2.573251468076e+01 
-2.829057171837e+01 3.354581275531e-01 0.0 
3.354581275531e-01 -5.950593261532e+01 0.0 
0.0 0.0 -2.593895130011e+01 
-2.889378292798e+01 8.576979313092e-01 0.0 
8.576979313092e-01 -5.970451891763e+01 0.0 
0.0 0.0 -2.617949055368e+01 
-2.980757523864e+01 1.520481951901e+00 0.0 
1.520481951901e+00 -6.010254806214e+01 0.0 
0.0 0.0 -2.657303699023e+01 
-3.164081243694e+01 2.777013488213e+00 0.0 
2.777013488213e+00 -6.158074958889e+01 0.0 
0.0 0.0 -2.756646860775e+01 
-3.160938122702e+01 3.757142342245e+00 0.0 
3.757142342245e+00 -5.818622022918e+01 0.0 
0.0 0.0 -2.653868043686e+01 
-4.010944621585e+01 3.015641902860e+00 0.0 
3.015641902860e+00 -7.807748545989e+01 0.0 
0.0 0.0 -3.505607950272e+01 
-4.047091617540e+01 2.324872787181e+00 0.0 
2.324872787181e+00 -8.138710187535e+01 0.0 
0.0 0.0 -3.615740541522e+01 
-3.895592750246e+01 1.321299492593e+00 0.0 
1.321299492593e+00 -7.989566791413e+01 0.0 
0.0 0.0 -3.525547862498e+01 
-3.818213579830e+01 7.587654839622e-01 0.0 
7.587654839622e-01 -7.942376810368e+01 0.0 
0.0 0.0 -3.488177117059e+01 
-3.767528908750e+01 3.012571742875e-01 0.0 
3.012571742875e-01 -7.919207754212e+01 0.0 
0.0 0.0 -3.466020998889e+01 
-3.722788475790e+01 -2.155993012471e-02 0.0 
-2.155993012471e-02 -7.894165023502e+01 0.0 
0.0 0.0 -3.445086049788e+01 
-3.691288338217e+01 -2.606472450397e-01 0.0 
-2.606472450397e-01 -7.878191361443e+01 0.0 
0.0 0.0 -3.430843909898e+01 
-3.666055788653e+01 -4.194331406399e-01 0.0 
-4.194331406399e-01 -7.863925546719e+01 0.0 
0.0 0.0 -3.418994400612e+01 
-3.647401221893e+01 -5.188580681569e-01 0.0 
-5.188580681569e-01 -7.853989120336e+01 0.0 
0.0 0.0 -3.410417102669e+01 
-3.632746587314e+01 -5.734208241632e-01 0.0 
-5.734208241632e-01 -7.846547337488e+01 0.0 
0.0 0.0 -3.403788177440e+01 
-3.622082015388e+01 -5.980090649984e-01 0.0 
-5.980090649984e-01 -7.841332681944e+01 0.0 
0.0 0.0 -3.399024409199e+01 
-3.614626205081e+01 -5.982380640796e-01 0.0 
-5.982380640796e-01 -7.837216399044e+01 0.0 
0.0 0.0 -3.395552781238e+01 
-3.609579336769e+01 -5.781399339515e-01 0.0 
-5.781399339515e-01 -7.834039280923e+01 0.0 
0.0 0.0 -3.393085585308e+01 
-3.606256353244e+01 -5.429385171465e-01 0.0 
-5.429385171465e-01 -7.831576628446e+01 0.0 
0.0 0.0 -3.391349894507e+01 
-3.604266293718e+01 -4.969523340037e-01 0.0 
-4.969523340037e-01 -7.829543117595e+01 0.0 
0.0 0.0 -3.390142823394e+01 
-3.603468067263e+01 -4.436546410672e-01 0.0 
-4.436546410672e-01 -7.827714987578e+01 0.0 
0.0 0.0 -3.389354916452e+01 
-3.603656375800e+01 -3.844706481784e-01 0.0 
-3.844706481784e-01 -7.825996805036e+01 0.0 
0.0 0.0 -3.388895954251e+01 
-3.604494085849e+01 -3.215905902517e-01 0.0 
-3.215905902517e-01 -7.824655699886e+01 0.0 
0.0 0.0 -3.388744935721e+01 
-3.605721690793e+01 -2.576038936700e-01 0.0 
-2.576038936700e-01 -7.824241879687e+01 0.0 
0.0 0.0 -3.388989071144e+01 
-3.606833451183e+01 -1.923737112114e-01 0.0 
-1.923737112114e-01 -7.825607858619e+01 0.0 
0.0 0.0 -3.389732392941e+01 
-3.607049915993e+01 -1.072891489560e-01 0.0 
-1.072891489560e-01 -7.829500832225e+01 0.0 
0.0 0.0 -3.390965224465e+01 
-3.606037349743e+01 -4.998519291695e-01 0.0 
-4.998519291695e-01 -7.833335502017e+01 0.0 
0.0 0.0 -3.391811855528e+01 
-4.467304197482e+01 -3.823644351869e-01 0.0 
-3.823644351869e-01 -9.784706875066e+01 0.0 
0.0 0.0 -4.235603321765e+01 
-4.469683967907e+01 -2.377659145077e-01 0.0 
-2.377659145077e-01 -9.780979966551e+01 0.0 
0.0 0.0 -4.235199180337e+01 
-4.472011346107e+01 -2.400669619634e-01 0.0 
-2.400669619634e-01 -9.779439422324e+01 0.0 
0.0 0.0 -4.235435230529e+01 
-4.474270907916e+01 -3.024475640859e-01 0.0 
-3.024475640859e-01 -9.779633452970e+01 0.0 
0.0 0.0 -4.236171308266e+01 
-4.477189075328e+01 -3.626635604362e-01 0.0 
-3.626635604362e-01 -9.781003170209e+01 0.0 
0.0 0.0 -4.237457673661e+01 
-4.480965719253e+01 -4.177586872162e-01 0.0 
-4.177586872162e-01 -9.783143081736e+01 0.0 
0.0 0.0 -4.239232640297e+01 
-4.485962359992e+01 -4.635392858076e-01 0.0 
-4.635392858076e-01 -9.785657883673e+01 0.0 
0.0 0.0 -4.241486073099e+01 
-4.492796278905e+01 -4.999633820449e-01 0.0 
-4.999633820449e-01 -9.788258524963e+01 0.0 
0.0 0.0 -4.244316441161e+01 
-4.501768365312e+01 -5.262777992619e-01 0.0 
-5.262777992619e-01 -9.791636558880e+01 0.0 
0.0 0.0 -4.248021477258e+01 
-4.512528275467e+01 -5.362966141263e-01 0.0 
-5.362966141263e-01 -9.796219941154e+01 0.0 
0.0 0.0 -4.252624464986e+01 
-4.525999598967e+01 -5.210158469049e-01 0.0 
-5.210158469049e-01 -9.802253499860e+01 0.0 
0.0 0.0 -4.258475929648e+01 
-4.543150787954e+01 -4.741771094036e-01 0.0 
-4.741771094036e-01 -9.809724262866e+01 0.0 
0.0 0.0 -4.265862515246e+01 
-4.564628189947e+01 -3.937182232713e-01 0.0 
-3.937182232713e-01 -9.818695450321e+01 0.0 
0.0 0.0 -4.274997092080e+01 
-4.591173753677e+01 -2.764649122234e-01 0.0 
-2.764649122234e-01 -9.832656697730e+01 0.0 
0.0 0.0 -4.287149135422e+01 
-4.621394434030e+01 -8.632971098913e-02 0.0 
-8.632971098913e-02 -9.850471017601e+01 0.0 
0.0 0.0 -4.301559635489e+01 
-4.659953241855e+01 1.794673124105e-01 0.0 
1.794673124105e-01 -9.876862023731e+01 0.0 
0.0 0.0 -4.321044579676e+01 
-4.703413615844e+01 5.796483074763e-01 0.0 
5.796483074763e-01 -9.901482448481e+01 0.0 
0.0 0.0 -4.341468819297e+01 
-4.769268860959e+01 1.034531997557e+00 0.0 
1.034531997557e+00 -9.945928851642e+01 0.0 
0.0 0.0 -4.374559313780e+01 
-4.896397381150e+01 1.866515077870e+00 0.0 
1.866515077870e+00 -1.009784622138e+02 0.0 
0.0 0.0 -4.458273080760e+01 
-4.846260237713e+01 2.466252065276e+00 0.0 
2.466252065276e+00 -9.771946987882e+01 0.0 
0.0 0.0 -4.345462167679e+01 
-5.672307733214e+01 1.950821817871e+00 0.0 
1.950821817871e+00 -1.171349232282e+02 0.0 
0.0 0.0 -5.175740016811e+01 
-5.735888313515e+01 1.546638815456e+00 0.0 
1.546638815456e+00 -1.204189616033e+02 0.0 
0.0 0.0 -5.293335342152e+01 
-5.623430010347e+01 8.585525233044e-01 0.0 
8.585525233044e-01 -1.190068068966e+02 0.0 
0.0 0.0 -5.217233210001e+01 
-5.567205993069e+01 4.833741515410e-01 0.0 
4.833741515410e-01 -1.185257676380e+02 0.0 
0.0 0.0 -5.185934827061e+01 
-5.532286178083e+01 1.844095115677e-01 0.0 
1.844095115677e-01 -1.182638459316e+02 0.0 
0.0 0.0 -5.167601231374e+01 
-5.494953624972e+01 -1.489918569883e-03 0.0 
-1.489918569883e-03 -1.180115574551e+02 0.0 
0.0 0.0 -5.148832811145e+01 
-5.464900714389e+01 -1.479900581156e-01 0.0 
-1.479900581156e-01 -1.178784341171e+02 0.0 
0.0 0.0 -5.135823237829e+01 
-5.439224203626e+01 -2.578665074022e-01 0.0 
-2.578665074022e-01 -1.177583236550e+02 0.0 
0.0 0.0 -5.124516970739e+01 
-5.417522838095e+01 -3.293419841135e-01 0.0 
-3.293419841135e-01 -1.176553352515e+02 0.0 
0.0 0.0 -5.114916908974e+01 
-5.400126638167e+01 -3.633212213689e-01 0.0 
-3.633212213689e-01 -1.175706989227e+02 0.0 
0.0 0.0 -5.107158959131e+01 
-5.385023412546e+01 -3.653900983169e-01 0.0 
-3.653900983169e-01 -1.175154848348e+02 0.0 
0.0 0.0 -5.100971568807e+01 
-5.371307611048e+01 -3.588360954863e-01 0.0 
-3.588360954863e-01 -1.174774063548e+02 0.0 
0.0 0.0 -5.095714473957e+01 
-5.361222631719e+01 -3.427014179100e-01 0.0 
-3.427014179100e-01 -1.174383987760e+02 0.0 
0.0 0.0 -5.091518752795e+01 
-5.352608205172e+01 -3.090925630281e-01 0.0 
-3.090925630281e-01 -1.174016840561e+02 0.0 
0.0 0.0 -5.087832983234e+01 
-5.345579639902e+01 -2.644878595167e-01 0.0 
-2.644878595167e-01 -1.173784322057e+02 0.0 
0.0 0.0 -5.085026858142e+01 
-5.339552022351e+01 -2.136747715228e-01 0.0 
-2.136747715228e-01 -1.173630660495e+02 0.0 
0.0 0.0 -5.082757588191e+01 
-5.335021992016e+01 -1.479701930428e-01 0.0 
-1.479701930428e-01 -1.173645892657e+02 0.0 
0.0 0.0 -5.081444275575e+01 
-5.330233295360e+01 -6.020720091397e-02 0.0 
-6.020720091397e-02 -1.173836379598e+02 0.0 
0.0 0.0 -5.080579127403e+01 
-5.328464990027e+01 -4.734874469938e-01 0.0 
-4.734874469938e-01 -1.173959014270e+02 0.0 
0.0 0.0 -5.080416539818e+01 
-6.183779696324e+01 -3.427813066507e-01 0.0 
-3.427813066507e-01 -1.369607363925e+02 0.0 
0.0 0.0 -5.923956000673e+01 
-6.190830716356e+01 -1.397395585971e-01 0.0 
-1.397395585971e-01 -1.369134028313e+02 0.0 
0.0 0.0 -5.924651299847e+01 
-6.197056280709e+01 -1.424371430484e-01 0.0 
-1.424371430484e-01 -1.369068521650e+02 0.0 
0.0 0.0 -5.926322449164e+01 
-6.204044818573e+01 -1.802005125576e-01 0.0 
-1.802005125576e-01 -1.369353370892e+02 0.0 
0.0 0.0 -5.929273558248e+01 
-6.214771792555e+01 -2.160813952802e-01 0.0 
-2.160813952802e-01 -1.369587161958e+02 0.0 
0.0 0.0 -5.933193023640e+01 
-6.225174575699e+01 -2.423966724979e-01 0.0 
-2.423966724979e-01 -1.370010758095e+02 0.0 
0.0 0.0 -5.937584646995e+01 
-6.238701668293e+01 -2.536967341325e-01 0.0 
-2.536967341325e-01 -1.370652464197e+02 0.0 
0.0 0.0 -5.943567893079e+01 
-6.253401997395e+01 -2.264402224300e-01 0.0 
-2.264402224300e-01 -1.371126198882e+02 0.0 
0.0 0.0 -5.949399195864e+01 
-6.272467341870e+01 -2.142779541265e-01 0.0 
-2.142779541265e-01 -1.371545979535e+02 0.0 
0.0 0.0 -5.956378141167e+01 
-6.292105825195e+01 -1.776335106390e-01 0.0 
-1.776335106390e-01 -1.372719479886e+02 0.0 
0.0 0.0 -5.965790187217e+01 
-6.315969090679e+01 -8.186401071118e-02 0.0 
-8.186401071118e-02 -1.374078014210e+02 0.0 
0.0 0.0 -5.977024769832e+01 
-6.344924303603e+01 4.731211715768e-02 0.0 
4.731211715768e-02 -1.375510316588e+02 0.0 
0.0 0.0 -5.990008240846e+01 
-6.375993669303e+01 2.227915154802e-01 0.0 
2.227915154802e-01 -1.377392443782e+02 0.0 
0.0 0.0 -6.004975432138e+01 
-6.410739837343e+01 4.487078076079e-01 0.0 
4.487078076079e-01 -1.379016154841e+02 0.0 
0.0 0.0 -6.020270415726e+01 
-6.459953063424e+01 6.724616657938e-01 0.0 
6.724616657938e-01 -1.383559079043e+02 0.0 
0.0 0.0 -6.048663156156e+01 
-6.563573659782e+01 1.250342334947e+00 0.0 
1.250342334947e+00 -1.398567224203e+02 0.0 
0.0 0.0 -6.124773770543e+01 
-6.494826159970e+01 1.591137804421e+00 0.0 
1.591137804421e+00 -1.365951817073e+02 0.0 
0.0 0.0 -6.006303299210e+01 
-7.306618471238e+01 1.319669426108e+00 0.0 
1.319669426108e+00 -1.558949726773e+02 0.0 
0.0 0.0 -6.828834721689e+01 
-7.369647126160e+01 1.107701138504e+00 0.0 
1.107701138504e+00 -1.590624560372e+02 0.0 
0.0 0.0 -6.942767818963e+01 
-7.279654343977e+01 6.941216543363e-01 0.0 
6.941216543363e-01 -1.577378995135e+02 0.0 
0.0 0.0 -6.876033288597e+01 
-7.247501448681e+01 4.618782812140e-01 0.0 
4.618782812140e-01 -1.574351443991e+02 0.0 
0.0 0.0 -6.857304766578e+01 
-7.214134000627e+01 3.086568993826e-01 0.0 
3.086568993826e-01 -1.572496549515e+02 0.0 
0.0 0.0 -6.841729848732e+01 
-7.184319046568e+01 1.481234922327e-01 0.0 
1.481234922327e-01 -1.571001772854e+02 0.0 
0.0 0.0 -6.828301032531e+01 
-7.156636262523e+01 3.405012958722e-02 0.0 
3.405012958722e-02 -1.568930167223e+02 0.0 
0.0 0.0 -6.813781380426e+01 
-7.133335565821e+01 7.467813371595e-03 0.0 
7.467813371595e-03 -1.567788408251e+02 0.0 
0.0 0.0 -6.803365894498e+01 
-7.122361547657e+01 -6.046202047770e-02 0.0 
-6.046202047770e-02 -1.567766372307e+02 0.0 
0.0 0.0 -6.800007581218e+01 
-7.099607062170e+01 -7.414059709019e-02 0.0 
-7.414059709019e-02 -1.566660630776e+02 0.0 
0.0 0.0 -6.789864010979e+01 
-7.084747661058e+01 -9.477323944963e-02 0.0 
-9.477323944963e-02 -1.565987422688e+02 0.0 
0.0 0.0 -6.783386566383e+01 
-7.072444242773e+01 -5.747977395478e-02 0.0 
-5.747977395478e-02 -1.565544873929e+02 0.0 
0.0 0.0 -6.778367894618e+01 
-7.059314396712e+01 -6.930221540886e-02 0.0 
-6.930221540886e-02 -1.565448615588e+02 0.0 
0.0 0.0 -6.774140165778e+01 
-7.049931179736e+01 -2.563852606556e-02 0.0 
-2.563852606556e-02 -1.564600313967e+02 0.0 
0.0 0.0 -6.768780295820e+01 
-7.045573590597e+01 9.254095974763e-02 0.0 
9.254095974763e-02 -1.565736847210e+02 0.0 
0.0 0.0 -6.770882618810e+01 
-7.035923556915e+01 -4.710818595407e-01 0.0 
-4.710818595407e-01 -1.566372179117e+02 0.0 
0.0 0.0 -6.769893604424e+01 
-4.032527120325e+01 3.087854978664e+01 0.0 
3.087854978664e+01 -3.819440470420e+01 0.0 
0.0 0.0 -2.406169303186e+01 
-2.455413914449e+01 1.183429636154e+01 0.0 
1.183429636154e+01 -1.767072919720e+01 0.0 
0.0 0.0 -1.172497779738e+01 
-2.676697996564e+01 8.323550116829e+00 0.0 
8.323550116829e+00 -3.593297404497e+01 0.0 
0.0 0.0 -1.704387261356e+01 
-3.242049201742e+01 6.744417290003e+00 0.0 
6.744417290003e+00 -5.449530214695e+01 0.0 
0.0 0.0 -2.560297288004e+01 
-3.946961460653e+01 5.441124515541e+00 0.0 
5.441124515541e+00 -7.333214922482e+01 0.0 
0.0 0.0 -3.344052914941e+01 
-4.729196138265e+01 4.108287470926e+00 0.0 
4.108287470926e+00 -9.285466591570e+01 0.0 
0.0 0.0 -4.164398818950e+01 
-5.509045201015e+01 3.234394760730e+00 0.0 
3.234394760730e+00 -1.121734705758e+02 0.0 
0.0 0.0 -4.977917677580e+01 
-6.314872988425e+01 2.497755000039e+00 0.0 
2.497755000039e+00 -1.314815241352e+02 0.0 
0.0 0.0 -5.798907620585e+01 
-7.122526637772e+01 2.033647216783e+00 0.0 
2.033647216783e+00 -1.507381678450e+02 0.0 
0.0 0.0 -6.618903026682e+01 
-7.933046468570e+01 1.720141374388e+00 0.0 
1.720141374388e+00 -1.701543793058e+02 0.0 
0.0 0.0 -7.444545319745e+01 
-3.352132325330e+01 1.782744106280e+01 0.0 
1.782744106280e+01 -4.335384093202e+01 0.0 
0.0 0.0 -2.156664171802e+01 
-1.644576419606e+02 3.576589607563e+00 0.0 
3.576589607563e+00 -3.896671056292e+02 0.0 
0.0 0.0 -1.658374242769e+02 
-6.999618799532e+00 -9.877332141256e-01 0.0 
-9.877332141256e-01 -1.723671963345e+01 0.0 
0.0 0.0 -6.966855955328e+00 
-5.144225157375e+01 -1.884040720565e+01 0.0 
-1.884040720565e+01 -8.734246097132e+01 0.0 
0.0 0.0 -4.232999850709e+01 
-1.650480705579e+02 -1.977203547660e-01 0.0 
-1.977203547660e-01 -3.893128237218e+02 0.0 
0.0 0.0 -1.659082682839e+02 
-4.052704733766e+01 8.785267594288e+00 0.0 
8.785267594288e+00 -7.410531030455e+01 0.0 
0.0 0.0 -3.397698715782e+01 
-9.372737954104e+01 -5.102362625233e-01 0.0 
-5.102362625233e-01 -2.109389700060e+02 0.0 
0.0 0.0 -9.099990486413e+01 
-1.627371271725e+02 6.646147481806e+00 0.0 
6.646147481806e+00 -3.847712858098e+02 0.0 
0.0 0.0 -1.638525238947e+02 
-5.407356693697e+01 5.394994179333e+00 0.0 
5.394994179333e+00 -1.095653184245e+02 0.0 
0.0 0.0 -4.869166560844e+01 
-1.612148545373e+02 8.360670079164e+00 0.0 
8.360670079164e+00 -3.783941510636e+02 0.0 
0.0 0.0 -1.614827016803e+02 
-7.008908427601e+01 3.180998846276e+00 0.0 
3.180998846276e+00 -1.484716476518e+02 0.0 
0.0 0.0 -6.516821957834e+01 
-1.655790313850e+02 -1.349791394203e+00 0.0 
-1.349791394203e+00 -3.877720302770e+02 0.0 
0.0 0.0 -1.656053184986e+02 
-3.767992337395e+00 1.404460256161e-02 0.0 
1.404460256161e-02 -1.612016610411e+01 0.0 
0.0 0.0 -5.392937458686e+00 
-1.589479106943e+02 8.081075685654e+00 0.0 
8.081075685654e+00 -3.708589411367e+02 0.0 
0.0 0.0 -1.585420555493e+02 
-8.625225491610e+01 2.183272517073e+00 0.0 
2.183272517073e+00 -1.872964830910e+02 0.0 
0.0 0.0 -8.166462140214e+01 
-5.844138092330e+01 -4.574947474284e-01 0.0 
-4.574947474284e-01 -1.300090270567e+02 0.0 
0.0 0.0 -5.613512239399e+01 
-1.168763005581e+02 -5.309105143661e-01 0.0 
-5.309105143661e-01 -2.661915891956e+02 0.0 
0.0 0.0 -1.145203669261e+02 
-1.571724084089e+02 7.055489826719e+00 0.0 
7.055489826719e+00 -3.654213780361e+02 0.0 
0.0 0.0 -1.563781359335e+02 
-1.555687078675e+02 5.090929075437e+00 0.0 
5.090929075437e+00 -3.618249484648e+02 0.0 
0.0 0.0 -1.548180968997e+02 
-1.533653194839e+02 1.676295170572e+00 0.0 
1.676295170572e+00 -3.575377258794e+02 0.0 
0.0 0.0 -1.528709136090e+02 
-1.532604734422e+02 2.594820848448e+00 0.0 
2.594820848448e+00 -3.566397031908e+02 0.0 
0.0 0.0 -1.525700529899e+02 
-1.547165169221e+02 3.934265172087e+00 0.0 
3.934265172087e+00 -3.601653984543e+02 0.0 
0.0 0.0 -1.540645746129e+02 
-8.920200792576e+01 1.435360546979e+00 0.0 
1.435360546979e+00 -1.952375315210e+02 0.0 
0.0 0.0 -8.493186183403e+01 
-8.779458994480e+01 5.531145786463e-01 0.0 
5.531145786463e-01 -1.941618168702e+02 0.0 
0.0 0.0 -8.418692204449e+01 
-8.767182538219e+01 3.479817571861e-01 0.0 
3.479817571861e-01 -1.951259159657e+02 0.0 
0.0 0.0 -8.443932240437e+01 
-1.162631143127e+02 2.637278876367e-01 0.0 
2.637278876367e-01 -2.649176923926e+02 0.0 
0.0 0.0 -1.139542420116e+02 
-1.646739762332e+02 -1.106991351640e+00 0.0 
-1.106991351640e+00 -3.846906981470e+02 0.0 
0.0 0.0 -1.644094023140e+02 
-6.062316341554e+01 9.675266885992e+00 0.0 
9.675266885992e+00 -1.075636319900e+02 0.0 
0.0 0.0 -5.127556725879e+01 
-3.731769831021e+00 -4.930651611171e-02 0.0 
-4.930651611171e-02 -1.714629991777e+01 0.0 
0.0 0.0 -5.520990377971e+00 
-1.428493058280e+02 -2.977173604188e-01 0.0 
-2.977173604188e-01 -3.294031386381e+02 0.0 
0.0 0.0 -1.412757333398e+02 
-8.605325365081e+01 1.768073954165e-02 0.0 
1.768073954165e-02 -1.926389009117e+02 0.0 
0.0 0.0 -8.320764636876e+01 
-2.831860930537e+01 -2.019498652544e-01 0.0 
-2.019498652544e-01 -6.863879473485e+01 0.0 
0.0 0.0 -2.868722121207e+01 
-1.549880573333e+02 5.991009354019e+00 0.0 
5.991009354019e+00 -3.601675886747e+02 0.0 
0.0 0.0 -1.541466938024e+02 
-1.626825383372e+02 7.768581654320e+00 0.0 
7.768581654320e+00 -3.831138618691e+02 0.0 
0.0 0.0 -1.633389200619e+02 
-1.600495803652e+02 8.434361061795e+00 0.0 
8.434361061795e+00 -3.744738691472e+02 0.0 
0.0 0.0 -1.599570348537e+02 
-1.629927151254e+02 5.274551072956e+00 0.0 
5.274551072956e+00 -3.865096933122e+02 0.0 
0.0 0.0 -1.644507225313e+02 
-1.651209959836e+02 1.928652652752e+00 0.0 
1.928652652752e+00 -3.907832363209e+02 0.0 
0.0 0.0 -1.663712696914e+02 
-2.386837470560e+01 -1.107860603651e+01 0.0 
-1.107860603651e+01 -2.438795842846e+01 0.0 
0.0 0.0 -1.410986360575e+01 
-8.818073550100e+01 8.868563883444e-01 0.0 
8.868563883444e-01 -1.939316682390e+02 0.0 
0.0 0.0 -8.423372112199e+01 
-1.635883856520e+02 -9.855320319230e-01 0.0 
-9.855320319230e-01 -3.849999216954e+02 0.0 
0.0 0.0 -1.641764922042e+02 
-1.319770364794e+02 3.049338783162e-01 0.0 
3.049338783162e-01 -3.036633325542e+02 0.0 
0.0 0.0 -1.302921107101e+02 
-4.891370646153e+00 -1.245200556919e-03 0.0 
-1.245200556919e-03 -1.720297124350e+01 0.0 
0.0 0.0 -6.341027976703e+00 
-7.607372938383e+01 -5.128352420098e-01 0.0 
-5.128352420098e-01 -1.693760076066e+02 0.0 
0.0 0.0 -7.323492109714e+01 
-1.542928989907e+02 1.046782631196e+00 0.0 
1.046782631196e+00 -3.601123631334e+02 0.0 
0.0 0.0 -1.539215786372e+02 
-4.765969207583e+01 7.190025674474e+00 0.0 
7.190025674474e+00 -9.330705575190e+01 0.0 
0.0 0.0 -4.189002434832e+01 
-3.614670294271e+01 1.193691624374e+01 0.0 
1.193691624374e+01 -5.714354555533e+01 0.0 
0.0 0.0 -2.650677976758e+01 
-6.199132727482e+01 4.122783364497e+00 0.0 
4.122783364497e+00 -1.290003206260e+02 0.0 
0.0 0.0 -5.689749437026e+01 
-7.811225267676e+01 2.652217645665e+00 0.0 
2.652217645665e+00 -1.676169638317e+02 0.0 
0.0 0.0 -7.331876495254e+01 
-3.819550638950e+01 2.911107405543e+01 0.0 
2.911107405543e+01 -4.465086322317e+01 0.0 
0.0 0.0 -2.506860829349e+01 
-1.007806989209e+02 1.033678824682e-01 0.0 
1.033678824682e-01 -2.275570598757e+02 0.0 
0.0 0.0 -9.810132763900e+01 
-1.657593255861e+02 -6.787320735683e-01 0.0 
-6.787320735683e-01 -3.870794655751e+02 0.0 
0.0 0.0 -1.654516373484e+02 
-3.434621323705e+00 -1.064192895598e-01 0.0 
-1.064192895598e-01 -1.636284427756e+01 0.0 
0.0 0.0 -5.134306772066e+00 
-1.474088861145e+02 2.537174299847e-01 0.0 
2.537174299847e-01 -3.421568509118e+02 0.0 
0.0 0.0 -1.464697211079e+02 
-9.014176568843e+01 2.107854545578e+00 0.0 
2.107854545578e+00 -1.963626105578e+02 0.0 
0.0 0.0 -8.555131287386e+01 
-9.379834641415e+01 2.654847517850e+00 0.0 
2.654847517850e+00 -2.049919691726e+02 0.0 
0.0 0.0 -8.923709467604e+01 
-9.747446122244e+01 2.376067052169e+00 0.0 
2.376067052169e+00 -2.139214784785e+02 0.0 
0.0 0.0 -9.301878191029e+01 
-1.016516097630e+02 3.150657733412e+00 0.0 
3.150657733412e+00 -2.240751374954e+02 0.0 
0.0 0.0 -9.731802417752e+01 
-1.056943309033e+02 2.956549839184e+00 0.0 
2.956549839184e+00 -2.339089254165e+02 0.0 
0.0 0.0 -1.014809768959e+02 
-1.094569899671e+02 3.565765602786e+00 0.0 
3.565765602786e+00 -2.431168288040e+02 0.0 
0.0 0.0 -1.053721456313e+02 
-1.055213017962e+02 3.768685414404e+00 0.0 
3.768685414404e+00 -2.333951856304e+02 0.0 
0.0 0.0 -1.012749462280e+02 
-1.132904052389e+02 4.177309603630e+00 0.0 
4.177309603630e+00 -2.525303944432e+02 0.0 
0.0 0.0 -1.093462399046e+02 
-1.092571083523e+02 4.405885207211e+00 0.0 
4.405885207211e+00 -2.427739887298e+02 0.0 
0.0 0.0 -1.052093291246e+02 
-1.136565178110e+02 3.421813974947e+00 0.0 
3.421813974947e+00 -2.532131462435e+02 0.0 
0.0 0.0 -1.096608992164e+02 
-1.170144711083e+02 4.793226075879e+00 0.0 
4.793226075879e+00 -2.620431550164e+02 0.0 
0.0 0.0 -1.133172878374e+02 
-1.129417411858e+02 5.051816831006e+00 0.0 
5.051816831006e+00 -2.523296575558e+02 0.0 
0.0 0.0 -1.091814196225e+02 
-1.206682137515e+02 5.383447247341e+00 0.0 
5.383447247341e+00 -2.716724806507e+02 0.0 
0.0 0.0 -1.173022083206e+02 
-1.165579300666e+02 5.678963603533e+00 0.0 
5.678963603533e+00 -2.620690862968e+02 0.0 
0.0 0.0 -1.131881049090e+02 
-1.088697054607e+02 5.391500519417e+00 0.0 
5.391500519417e+00 -2.428090391590e+02 0.0 
0.0 0.0 -1.051036233859e+02 
-1.124211645137e+02 6.038422929068e+00 0.0 
6.038422929068e+00 -2.526525961327e+02 0.0 
0.0 0.0 -1.091221281939e+02 
-1.047651407313e+02 5.812012682607e+00 0.0 
5.812012682607e+00 -2.333793902587e+02 0.0 
0.0 0.0 -1.010433592970e+02 
-1.082473254764e+02 6.489876962775e+00 0.0 
6.489876962775e+00 -2.433777928380e+02 0.0 
0.0 0.0 -1.050875354943e+02 
-1.159014604802e+02 6.616618023778e+00 0.0 
6.616618023778e+00 -2.626703777006e+02 0.0 
0.0 0.0 -1.131715514542e+02 
-1.116423218764e+02 7.079778021331e+00 0.0 
7.079778021331e+00 -2.535488499054e+02 0.0 
0.0 0.0 -1.091573515345e+02 
-1.039881017469e+02 7.036344600932e+00 0.0 
7.036344600932e+00 -2.342111751249e+02 0.0 
0.0 0.0 -1.010597830615e+02 
-1.072792221935e+02 7.618488991521e+00 0.0 
7.618488991521e+00 -2.445535540093e+02 0.0 
0.0 0.0 -1.051498328608e+02 
-9.967028574620e+01 7.674536666855e+00 0.0 
7.674536666855e+00 -2.252171142838e+02 0.0 
0.0 0.0 -9.706622000900e+01 
-1.028469320745e+02 8.236466912468e+00 0.0 
8.236466912468e+00 -2.357752707214e+02 0.0 
0.0 0.0 -1.011866608388e+02 
-9.526195510280e+01 8.419082696679e+00 0.0 
8.419082696679e+00 -2.163770219997e+02 0.0 
0.0 0.0 -9.309169313076e+01 
-9.831216559509e+01 8.933212452065e+00 0.0 
8.933212452065e+00 -2.272073338128e+02 0.0 
0.0 0.0 -9.725584982236e+01 
-1.059415806052e+02 8.598488825928e+00 0.0 
8.598488825928e+00 -2.464679238022e+02 0.0 
0.0 0.0 -1.053228513222e+02 
-1.012490574471e+02 9.196472685454e+00 0.0 
9.196472685454e+00 -2.381016816212e+02 0.0 
0.0 0.0 -1.014052217205e+02 
-9.366049534695e+01 9.689749024634e+00 0.0 
9.689749024634e+00 -2.188951171718e+02 0.0 
0.0 0.0 -9.336668375561e+01 
-9.643138910950e+01 9.811764998005e+00 0.0 
9.811764998005e+00 -2.300085739915e+02 0.0 
0.0 0.0 -9.753198893031e+01 
-8.888171816626e+01 1.048281399388e+01 0.0 
1.048281399388e+01 -2.109022000419e+02 0.0 
0.0 0.0 -8.953517546246e+01 
-9.146642251551e+01 1.039901025696e+01 0.0 
1.039901025696e+01 -2.222005461966e+02 0.0 
0.0 0.0 -9.370009061364e+01 
-9.918666940809e+01 9.618404336750e+00 0.0 
9.618404336750e+00 -2.410344452274e+02 0.0 
0.0 0.0 -1.016663343907e+02 
-9.409238521539e+01 9.951801210389e+00 0.0 
9.951801210389e+00 -2.333542908435e+02 0.0 
0.0 0.0 -9.783400281767e+01 
-8.632021971405e+01 1.090778949478e+01 0.0 
1.090778949478e+01 -2.146810235153e+02 0.0 
0.0 0.0 -8.990037296879e+01 
-8.885337174991e+01 1.011777750091e+01 0.0 
1.011777750091e+01 -2.259620035305e+02 0.0 
0.0 0.0 -9.404461258411e+01 
-8.101515777528e+01 1.125338865666e+01 0.0 
1.125338865666e+01 -2.075487823783e+02 0.0 
0.0 0.0 -8.616918204609e+01 
-8.350203777431e+01 1.001286594913e+01 0.0 
1.001286594913e+01 -2.188942193184e+02 0.0 
0.0 0.0 -9.031887712781e+01 
-7.555087129135e+01 1.128769481268e+01 0.0 
1.128769481268e+01 -2.008526136297e+02 0.0 
0.0 0.0 -8.252104547630e+01 
-7.802895278458e+01 9.516386282520e+00 0.0 
9.516386282520e+00 -2.120330364007e+02 0.0 
0.0 0.0 -8.661859675558e+01 
-8.625031120758e+01 8.456628594786e+00 0.0 
8.456628594786e+00 -2.295626021317e+02 0.0 
0.0 0.0 -9.434387400177e+01 
-8.089391157570e+01 7.499936505330e+00 0.0 
7.499936505330e+00 -2.223651829539e+02 0.0 
0.0 0.0 -9.057772835887e+01 
-7.253130688805e+01 8.490869919887e+00 0.0 
8.490869919887e+00 -2.053477501889e+02 0.0 
0.0 0.0 -8.296371712308e+01 
-7.560056870015e+01 5.998915203913e+00 0.0 
5.998915203913e+00 -2.150500016351e+02 0.0 
0.0 0.0 -8.679517110058e+01 
-8.417652088592e+01 5.416582253881e+00 0.0 
5.416582253881e+00 -2.318681322314e+02 0.0 
0.0 0.0 -9.441339593519e+01 
-7.914240830450e+01 3.617608833612e+00 0.0 
3.617608833612e+00 -2.237901879823e+02 0.0 
0.0 0.0 -9.047977888603e+01 
-8.784345103458e+01 3.444378096809e+00 0.0 
3.444378096809e+00 -2.406026549960e+02 0.0 
0.0 0.0 -9.813383180917e+01 
-8.308399467490e+01 1.514501357826e+00 0.0 
1.514501357826e+00 -2.317475432950e+02 0.0 
0.0 0.0 -9.404946139096e+01 
-7.445483861115e+01 1.337115232070e+00 0.0 
1.337115232070e+00 -2.152911006043e+02 0.0 
0.0 0.0 -8.652378176464e+01 
-7.869785340235e+01 -7.473239084602e-01 0.0 
-7.473239084602e-01 -2.223302561700e+02 0.0 
0.0 0.0 -8.990843287170e+01 
-8.731968419535e+01 -2.123710457091e-01 0.0 
-2.123710457091e-01 -2.391065838269e+02 0.0 
0.0 0.0 -9.752788040667e+01 
-8.316226302940e+01 -2.310341563506e+00 0.0 
-2.310341563506e+00 -2.288744877884e+02 0.0 
0.0 0.0 -9.321102524535e+01 
-7.476417058339e+01 -3.215678552698e+00 0.0 
-3.215678552698e+00 -2.121438265348e+02 0.0 
0.0 0.0 -8.567239913546e+01 
-7.943246301364e+01 -4.453403175359e+00 0.0 
-4.453403175359e+00 -2.179579100780e+02 0.0 
0.0 0.0 -8.881711192750e+01 
-8.776078011186e+01 -3.380851232809e+00 0.0 
-3.380851232809e+00 -2.352256069658e+02 0.0 
0.0 0.0 -9.649591612328e+01 
-8.413038139620e+01 -5.153097779082e+00 0.0 
-5.153097779082e+00 -2.237704597289e+02 0.0 
0.0 0.0 -9.197025233753e+01 
-7.609143096217e+01 -6.451280383716e+00 0.0 
-6.451280383716e+00 -2.062591924368e+02 0.0 
0.0 0.0 -8.430518701969e+01 
-8.078558739749e+01 -6.697780763852e+00 0.0 
-6.697780763852e+00 -2.116892307741e+02 0.0 
0.0 0.0 -8.734244545147e+01 
-8.882400344489e+01 -5.426971649681e+00 0.0 
-5.426971649681e+00 -2.298157189395e+02 0.0 
0.0 0.0 -9.519191671532e+01 
-8.537081729958e+01 -6.569520780889e+00 0.0 
-6.569520780889e+00 -2.174380649323e+02 0.0 
0.0 0.0 -9.044266466956e+01 
-7.761300712485e+01 -7.867000746262e+00 0.0 
-7.867000746262e+00 -1.989731912798e+02 0.0 
0.0 0.0 -8.257585952140e+01 
-8.201942030868e+01 -7.361225918879e+00 0.0 
-7.361225918879e+00 -2.046442468123e+02 0.0 
0.0 0.0 -8.559910013628e+01 
-8.986805974262e+01 -6.209862999747e+00 0.0 
-6.209862999747e+00 -2.236037448571e+02 0.0 
0.0 0.0 -9.364154137991e+01 
-8.629913964023e+01 -6.702326099591e+00 0.0 
-6.702326099591e+00 -2.107607389298e+02 0.0 
0.0 0.0 -8.871796357100e+01 
-9.425273476611e+01 -5.700760504695e+00 0.0 
-5.700760504695e+00 -2.300852963250e+02 0.0 
0.0 0.0 -9.690140932735e+01 
-7.857478292116e+01 -7.722675313322e+00 0.0 
-7.722675313322e+00 -1.913805667767e+02 0.0 
0.0 0.0 -8.058660490937e+01 
-8.262565061237e+01 -6.827304210992e+00 0.0 
-6.827304210992e+00 -1.976842041759e+02 0.0 
0.0 0.0 -8.369295643649e+01 
-7.493004279929e+01 -7.640432781233e+00 0.0 
-7.640432781233e+00 -1.778663094589e+02 0.0 
0.0 0.0 -7.543890567746e+01 
-7.877638885794e+01 -6.594534781197e+00 0.0 
-6.594534781197e+00 -1.845459744681e+02 0.0 
0.0 0.0 -7.859670899780e+01 
-1.020048820098e+02 9.133365649064e+00 0.0 
9.133365649064e+00 -2.518866406863e+02 0.0 
0.0 0.0 -1.057674568088e+02 
-7.101451283493e+01 -7.130718953480e+00 0.0 
-7.130718953480e+00 -1.644136610631e+02 0.0 
0.0 0.0 -7.022845216940e+01 
-6.746781878869e+01 -8.321994403528e+00 0.0 
-8.321994403528e+00 -1.580074697410e+02 0.0 
0.0 0.0 -6.724258655891e+01 
-7.466633149400e+01 -6.045165538837e+00 0.0 
-6.045165538837e+00 -1.715068777391e+02 0.0 
0.0 0.0 -7.345196276992e+01 
-8.264211576166e+01 -5.623029790046e+00 0.0 
-5.623029790046e+00 -1.917244663194e+02 0.0 
0.0 0.0 -8.190997462433e+01 
-6.671515313849e+01 -6.283324690308e+00 0.0 
-6.283324690308e+00 -1.511481738137e+02 0.0 
0.0 0.0 -6.495899808567e+01 
-7.023439851910e+01 -5.268256103294e+00 0.0 
-5.268256103294e+00 -1.586506370852e+02 0.0 
0.0 0.0 -6.826551068130e+01 
-6.199472228530e+01 -5.248481291227e+00 0.0 
-5.248481291227e+00 -1.381956464518e+02 0.0 
0.0 0.0 -5.965711062113e+01 
-7.321526478701e+01 1.260455448108e+01 0.0 
1.260455448108e+01 -1.885981371744e+02 0.0 
0.0 0.0 -7.814402058842e+01 
-1.193309580717e+02 7.115118906412e+00 0.0 
7.115118906412e+00 -2.728471789360e+02 0.0 
0.0 0.0 -1.172534411023e+02 
-6.545645450666e+01 -4.363630191517e+00 0.0 
-4.363630191517e+00 -1.460654307317e+02 0.0 
0.0 0.0 -6.305656557150e+01 
-5.686161041757e+01 -4.112848134980e+00 0.0 
-4.112848134980e+00 -1.256152309367e+02 0.0 
0.0 0.0 -5.434305240627e+01 
-5.356905416612e+01 -4.930651393756e+00 0.0 
-4.930651393756e+00 -1.176115544602e+02 0.0 
0.0 0.0 -5.095418258790e+01 
-4.801933906777e+01 -3.616995422243e+00 0.0 
-3.616995422243e+00 -1.051529867089e+02 0.0 
0.0 0.0 -4.555169773300e+01 
-1.099112576005e+02 2.932620269551e+00 0.0 
2.932620269551e+00 -2.440333553808e+02 0.0 
0.0 0.0 -1.057833838944e+02 
-1.176562614533e+02 3.250134748381e+00 0.0 
3.250134748381e+00 -2.633850143231e+02 0.0 
0.0 0.0 -1.139123827329e+02 
-1.136165490927e+02 2.757285319349e+00 0.0 
2.757285319349e+00 -2.536190628048e+02 0.0 
0.0 0.0 -1.097706835692e+02 
-1.216103201278e+02 3.155199853611e+00 0.0 
3.155199853611e+00 -2.735500913768e+02 0.0 
0.0 0.0 -1.181481234514e+02 
-1.177506727105e+02 2.681375937398e+00 0.0 
2.681375937398e+00 -2.642011850599e+02 0.0 
0.0 0.0 -1.141855573311e+02 
-5.140293618155e+01 -3.006627180915e+00 0.0 
-3.006627180915e+00 -1.133879442869e+02 0.0 
0.0 0.0 -4.903726414052e+01 
-1.248143418436e+02 5.141784144514e+00 0.0 
5.141784144514e+00 -2.815841939220e+02 0.0 
0.0 0.0 -1.215195607297e+02 
-1.254506849165e+02 3.655481516047e+00 0.0 
3.655481516047e+00 -2.829409534305e+02 0.0 
0.0 0.0 -1.221174915041e+02 
-9.637996393303e+01 6.948827331807e+00 0.0 
6.948827331807e+00 -2.148642355007e+02 0.0 
0.0 0.0 -9.297325983012e+01 
-8.621016922390e+01 1.018336910639e+01 0.0 
1.018336910639e+01 -1.995278559369e+02 0.0 
0.0 0.0 -8.532140754824e+01 
-9.286965321121e+01 4.991454473900e+00 0.0 
4.991454473900e+00 -2.490766473131e+02 0.0 
0.0 0.0 -1.021838901573e+02 
-7.384192165161e+01 -4.353865483102e+00 0.0 
-4.353865483102e+00 -1.664095984096e+02 0.0 
0.0 0.0 -7.167545601836e+01 
-6.904581003437e+01 -3.586032824493e+00 0.0 
-3.586032824493e+00 -1.541360876414e+02 0.0 
0.0 0.0 -6.655456930275e+01 
-7.748280707066e+01 -3.522501415076e+00 0.0 
-3.522501415076e+00 -1.744169004412e+02 0.0 
0.0 0.0 -7.516991225354e+01 
-9.797693500309e+01 -5.129774160775e+00 0.0 
-5.129774160775e+00 -2.426322682635e+02 0.0 
0.0 0.0 -1.017827609800e+02 
-1.024010095022e+02 -4.747145448927e+00 0.0 
-4.747145448927e+00 -2.493691475299e+02 0.0 
0.0 0.0 -1.051310471096e+02 
-1.062880982534e+02 -4.143708663428e+00 0.0 
-4.143708663428e+00 -2.616744237624e+02 0.0 
0.0 0.0 -1.099887566048e+02 
-1.107128241906e+02 -3.864019864660e+00 0.0 
-3.864019864660e+00 -2.686063047508e+02 0.0 
0.0 0.0 -1.133957386824e+02 
-1.147639041895e+02 -3.259549760859e+00 0.0 
-3.259549760859e+00 -2.807177468613e+02 0.0 
0.0 0.0 -1.182444953153e+02 
-1.191663082772e+02 -3.071906927100e+00 0.0 
-3.071906927100e+00 -2.878158995569e+02 0.0 
0.0 0.0 -1.216946623502e+02 
-1.150358585792e+02 -3.506000312264e+00 0.0 
-3.506000312264e+00 -2.756925319264e+02 0.0 
0.0 0.0 -1.168185171517e+02 
-1.234658439660e+02 -2.808913225982e+00 0.0 
-2.808913225982e+00 -2.950322418290e+02 0.0 
0.0 0.0 -1.251494257385e+02 
-1.192595367344e+02 -3.107030829055e+00 0.0 
-3.107030829055e+00 -2.829369582905e+02 0.0 
0.0 0.0 -1.202589485075e+02 
-1.233802039077e+02 -2.490055459887e+00 0.0 
-2.490055459887e+00 -2.997633553175e+02 0.0 
0.0 0.0 -1.265430677676e+02 
-1.189013012070e+02 -2.501896252071e+00 0.0 
-2.501896252071e+00 -2.925586419430e+02 0.0 
0.0 0.0 -1.230379829450e+02 
-1.276620520238e+02 -2.507838687962e+00 0.0 
-2.507838687962e+00 -3.023691985007e+02 0.0 
0.0 0.0 -1.286093751574e+02 
-1.233867089512e+02 -2.697786417689e+00 0.0 
-2.697786417689e+00 -2.903343617037e+02 0.0 
0.0 0.0 -1.237163211965e+02 
-1.317629121592e+02 -2.196592991223e+00 0.0 
-2.196592991223e+00 -3.098435965361e+02 0.0 
0.0 0.0 -1.320819526086e+02 
-1.274205009640e+02 -2.289430713949e+00 0.0 
-2.289430713949e+00 -2.978805546889e+02 0.0 
0.0 0.0 -1.271903166959e+02 
-1.191025577226e+02 -2.760761242149e+00 0.0 
-2.760761242149e+00 -2.782236160591e+02 0.0 
0.0 0.0 -1.187978521345e+02 
-1.230585236075e+02 -2.279844514326e+00 0.0 
-2.279844514326e+00 -2.858645701594e+02 0.0 
0.0 0.0 -1.222769281301e+02 
-1.148071223462e+02 -2.689580511936e+00 0.0 
-2.689580511936e+00 -2.661744318590e+02 0.0 
0.0 0.0 -1.138944662615e+02 
-9.664237048912e+01 3.350525206552e+00 0.0 
3.350525206552e+00 -2.578274177709e+02 0.0 
0.0 0.0 -1.059409364780e+02 
-1.016680295593e+02 4.687599823390e+00 0.0 
4.687599823390e+00 -2.666245856500e+02 0.0 
0.0 0.0 -1.100877845628e+02 
-1.055328322629e+02 3.314194303538e+00 0.0 
3.314194303538e+00 -2.753914619655e+02 0.0 
0.0 0.0 -1.138772882685e+02 
-1.105661336155e+02 4.481876936599e+00 0.0 
4.481876936599e+00 -2.844518938794e+02 0.0 
0.0 0.0 -1.181054082485e+02 
-1.145276037814e+02 3.330497851704e+00 0.0 
3.330497851704e+00 -2.932423576160e+02 0.0 
0.0 0.0 -1.219309884192e+02 
-1.195682497933e+02 4.361966890196e+00 0.0 
4.361966890196e+00 -3.024995496643e+02 0.0 
0.0 0.0 -1.262203398373e+02 
-1.236198700893e+02 3.391551988599e+00 0.0 
3.391551988599e+00 -3.112864427345e+02 0.0 
0.0 0.0 -1.300718938472e+02 
-1.186784174589e+02 2.307981170687e+00 0.0 
2.307981170687e+00 -3.016509189505e+02 0.0 
0.0 0.0 -1.256988009228e+02 
-1.242191953577e+02 5.945370785521e+00 0.0 
5.945370785521e+00 -2.813804759213e+02 0.0 
0.0 0.0 -1.212799013837e+02 
-6.714398668811e+01 6.769938967655e+00 0.0 
6.769938967655e+00 -1.986682067937e+02 0.0 
0.0 0.0 -7.934365804455e+01 
-6.433858550365e+01 9.750977869328e+00 0.0 
9.750977869328e+00 -1.886322875685e+02 0.0 
0.0 0.0 -7.549126192163e+01 
-5.884222428752e+01 7.786695764050e+00 0.0 
7.786695764050e+00 -1.828061892643e+02 0.0 
0.0 0.0 -7.209452406554e+01 
-5.640549307217e+01 1.135873235574e+01 0.0 
1.135873235574e+01 -1.722917000299e+02 0.0 
0.0 0.0 -6.820915793062e+01 
-5.077928538066e+01 9.146344465716e+00 0.0 
9.146344465716e+00 -1.675610513571e+02 0.0 
0.0 0.0 -6.510210102132e+01 
-4.887071212024e+01 1.340054893011e+01 0.0 
1.340054893011e+01 -1.563253848248e+02 0.0 
0.0 0.0 -6.115882908350e+01 
-4.324594079072e+01 1.092631493683e+01 0.0 
1.092631493683e+01 -1.529886566547e+02 0.0 
0.0 0.0 -5.841542222376e+01 
-4.558628579485e+01 5.559236904864e+00 0.0 
5.559236904864e+00 -1.625559200573e+02 0.0 
0.0 0.0 -6.201862614765e+01 
-3.858885020385e+01 6.579203417551e+00 0.0 
6.579203417551e+00 -1.494781066968e+02 0.0 
0.0 0.0 -5.612340123271e+01 
-4.155319900398e+01 5.234312562687e-01 0.0 
5.234312562687e-01 -1.562837229722e+02 0.0 
0.0 0.0 -5.882645027370e+01 
-3.507639710600e+01 4.498272477597e-01 0.0 
4.498272477597e-01 -1.443202311060e+02 0.0 
0.0 0.0 -5.398020582698e+01 
-3.884717467464e+01 -5.469308796530e+00 0.0 
-5.469308796530e+00 -1.476683120731e+02 0.0 
0.0 0.0 -5.567025989645e+01 
-1.089763688633e+02 8.743387551380e+00 0.0 
8.743387551380e+00 -2.571940059115e+02 0.0 
0.0 0.0 -1.094511124325e+02 
-1.157025154428e+02 5.404525390397e+00 0.0 
5.404525390397e+00 -2.933018311273e+02 0.0 
0.0 0.0 -1.223013039710e+02 
-1.247105671340e+02 5.194808272322e+00 0.0 
5.194808272322e+00 -3.115781026625e+02 0.0 
0.0 0.0 -1.304866009390e+02 
-1.208511370886e+02 6.104780413932e+00 0.0 
6.104780413932e+00 -3.019411850366e+02 0.0 
0.0 0.0 -1.264376966376e+02 
-4.477641119681e+01 -4.253939617740e+00 0.0 
-4.253939617740e+00 -9.698786835248e+01 0.0 
0.0 0.0 -4.212928386478e+01 
-1.313718358280e+02 -1.895649018655e+00 0.0 
-1.895649018655e+00 -3.055847625323e+02 0.0 
0.0 0.0 -1.306869795081e+02 
-1.277067684299e+02 -1.781830151714e+00 0.0 
-1.781830151714e+00 -3.114838368710e+02 0.0 
0.0 0.0 -1.313571815903e+02 
-1.231551443050e+02 -1.630959640141e+00 0.0 
-1.630959640141e+00 -3.040603019231e+02 0.0 
0.0 0.0 -1.277646338684e+02 
-1.278570277044e+02 2.514340586125e+00 0.0 
2.514340586125e+00 -3.197993513212e+02 0.0 
0.0 0.0 -1.338969137077e+02 
-4.223033480658e+01 -2.469564668356e+00 0.0 
-2.469564668356e+00 -9.329861427545e+01 0.0 
0.0 0.0 -4.025868472461e+01 
-4.231977581040e+01 1.595417337601e+01 0.0 
1.595417337601e+01 -1.407807760898e+02 0.0 
0.0 0.0 -5.449562651952e+01 
-4.781535977303e+01 1.691081533864e+01 0.0 
1.691081533864e+01 -1.428458555879e+02 0.0 
0.0 0.0 -5.679836460829e+01 
-1.255865779314e+02 3.069536420526e+00 0.0 
3.069536420526e+00 -2.838078638834e+02 0.0 
0.0 0.0 -1.224183325444e+02 
-1.217526752774e+02 2.604541958798e+00 0.0 
2.604541958798e+00 -2.744962879273e+02 0.0 
0.0 0.0 -1.184746889614e+02 
-1.321911857100e+02 -9.926206944669e-01 0.0 
-9.926206944669e-01 -3.229670724308e+02 0.0 
0.0 0.0 -1.361474774422e+02 
-4.574754547950e+01 -2.067383309740e+00 0.0 
-2.067383309740e+00 -1.016358221648e+02 0.0 
0.0 0.0 -4.381501029328e+01 
-1.319865436694e+02 -2.202664100740e+00 0.0 
-2.202664100740e+00 -3.143299638183e+02 0.0 
0.0 0.0 -1.334949522463e+02 
-3.279659198020e+01 8.068147718420e+00 0.0 
8.068147718420e+00 -1.379243201139e+02 0.0 
0.0 0.0 -5.188929706076e+01 
-1.269534029389e+02 -1.834998408050e+00 0.0 
-1.834998408050e+00 -2.936760906750e+02 0.0 
0.0 0.0 -1.257888480842e+02 
-1.352176480279e+02 -1.526602903899e+00 0.0 
-1.526602903899e+00 -3.134269197732e+02 0.0 
0.0 0.0 -1.341933703403e+02 
-1.109532383918e+02 -3.773889304499e+00 0.0 
-3.773889304499e+00 -2.634759861640e+02 0.0 
0.0 0.0 -1.119287673668e+02 
-1.299008655379e+02 5.860261511269e+00 0.0 
5.860261511269e+00 -3.205193795677e+02 0.0 
0.0 0.0 -1.347260735317e+02 
-1.259883462427e+02 6.620849884992e+00 0.0 
6.620849884992e+00 -3.104736296852e+02 0.0 
0.0 0.0 -1.305385927784e+02 
-4.575451230875e+01 -4.211033031612e+00 0.0 
-4.211033031612e+00 -1.609741277976e+02 0.0 
0.0 0.0 -6.159343036192e+01 
-4.361066163827e+01 -9.440792517769e+00 0.0 
-9.440792517769e+00 -1.497544068367e+02 0.0 
0.0 0.0 -5.754042187691e+01 
-3.804207483569e+01 -1.175092933741e+01 0.0 
-1.175092933741e+01 -1.358734956753e+02 0.0 
0.0 0.0 -5.210801545383e+01 
-4.330107176586e+01 -1.403758321337e+01 0.0 
-1.403758321337e+01 -1.360710959753e+02 0.0 
0.0 0.0 -5.323630296886e+01 
-4.885790167972e+01 -1.135420239587e+01 0.0 
-1.135420239587e+01 -1.517257964441e+02 0.0 
0.0 0.0 -5.976824565593e+01 
-4.783832447941e+01 -1.434333294788e+01 0.0 
-1.434333294788e+01 -1.367572524030e+02 0.0 
0.0 0.0 -5.488029331205e+01 
-4.385497535660e+01 -1.707016612934e+01 0.0 
-1.707016612934e+01 -1.192105058561e+02 0.0 
0.0 0.0 -4.793205434259e+01 
-4.713156440862e+01 -1.571496749062e+01 0.0 
-1.571496749062e+01 -1.199254896211e+02 0.0 
0.0 0.0 -4.937211509858e+01 
-5.224432855547e+01 -1.359237614248e+01 0.0 
-1.359237614248e+01 -1.389881543863e+02 0.0 
0.0 0.0 -5.696974488254e+01 
-5.042313383246e+01 -1.384043794969e+01 0.0 
-1.384043794969e+01 -1.227437062200e+02 0.0 
0.0 0.0 -5.149767181445e+01 
-4.610861336419e+01 -1.476793506382e+01 0.0 
-1.476793506382e+01 -1.019690912579e+02 0.0 
0.0 0.0 -4.329965555887e+01 
-4.790676173122e+01 -1.243753833675e+01 0.0 
-1.243753833675e+01 -1.061276075293e+02 0.0 
0.0 0.0 -4.563621333228e+01 
-1.396445267876e+02 -1.573735564870e+00 0.0 
-1.573735564870e+00 -3.251965562233e+02 0.0 
0.0 0.0 -1.390523249032e+02 
-2.953729932013e+01 4.188142986238e-01 0.0 
4.188142986238e-01 -1.339086804393e+02 0.0 
0.0 0.0 -5.024321902067e+01 
-1.011668713311e+02 5.084809411682e+00 0.0 
5.084809411682e+00 -2.235848494892e+02 0.0 
0.0 0.0 -9.702551624608e+01 
-1.366272688221e+02 -1.195223646871e+00 0.0 
-1.195223646871e+00 -3.304087278571e+02 0.0 
0.0 0.0 -1.397107990037e+02 
-1.327590835696e+02 3.486755325435e+00 0.0 
3.486755325435e+00 -3.293227276186e+02 0.0 
0.0 0.0 -1.382245433565e+02 
-1.295820141372e+02 2.972983324931e+00 0.0 
2.972983324931e+00 -2.941689470453e+02 0.0 
0.0 0.0 -1.267252883547e+02 
-1.257692298334e+02 2.520545283408e+00 0.0 
2.520545283408e+00 -2.849201913862e+02 0.0 
0.0 0.0 -1.228068263659e+02 
-1.178353165046e+02 2.133336502968e+00 0.0 
2.133336502968e+00 -2.651852743989e+02 0.0 
0.0 0.0 -1.145061772711e+02 
-1.219116516934e+02 2.081701656830e+00 0.0 
2.081701656830e+00 -2.757534350642e+02 0.0 
0.0 0.0 -1.188995260273e+02 
-1.297977048106e+02 2.442303603112e+00 0.0 
2.442303603112e+00 -2.954888548688e+02 0.0 
0.0 0.0 -1.271859679038e+02 
-1.259900360704e+02 2.021024405755e+00 0.0 
2.021024405755e+00 -2.863481860853e+02 0.0 
0.0 0.0 -1.233014666467e+02 
-1.180211417735e+02 1.696638301374e+00 0.0 
1.696638301374e+00 -2.666145620547e+02 0.0 
0.0 0.0 -1.149907111485e+02 
-1.221688357474e+02 1.644866935118e+00 0.0 
1.644866935118e+00 -2.772143618046e+02 0.0 
0.0 0.0 -1.194149592656e+02 
-1.141433373377e+02 1.353279621990e+00 0.0 
1.353279621990e+00 -2.574783066707e+02 0.0 
0.0 0.0 -1.110864932025e+02 
-1.183349204964e+02 1.307498903477e+00 0.0 
1.307498903477e+00 -2.681200298938e+02 0.0 
0.0 0.0 -1.155364851171e+02 
-1.263267470431e+02 1.579212550617e+00 0.0 
1.579212550617e+00 -2.878594730862e+02 0.0 
0.0 0.0 -1.238558660388e+02 
-1.225411582043e+02 1.267698307090e+00 0.0 
1.267698307090e+00 -2.788273266235e+02 0.0 
0.0 0.0 -1.200105454484e+02 
-1.144742067656e+02 1.007478604939e+00 0.0 
1.007478604939e+00 -2.591053584692e+02 0.0 
0.0 0.0 -1.116738695705e+02 
-1.187353611706e+02 9.957407335536e-01 0.0 
9.957407335536e-01 -2.698134867718e+02 0.0 
0.0 0.0 -1.161646543827e+02 
-1.105970089902e+02 7.689516078293e-01 0.0 
7.689516078293e-01 -2.500826301489e+02 0.0 
0.0 0.0 -1.078038917417e+02 
-1.149273640045e+02 7.763273328039e-01 0.0 
7.763273328039e-01 -2.607321827267e+02 0.0 
0.0 0.0 -1.122978640194e+02 
-1.230197665051e+02 9.220781067014e-01 0.0 
9.220781067014e-01 -2.805687262698e+02 0.0 
0.0 0.0 -1.206765478325e+02 
-3.653474494303e+01 -1.602260233497e+00 0.0 
-1.602260233497e+00 -8.229357571996e+01 0.0 
0.0 0.0 -3.524849619890e+01 
-1.229804810973e+02 1.433318971831e+00 0.0 
1.433318971831e+00 -3.097792565454e+02 0.0 
0.0 0.0 -1.294279212928e+02 
-1.322811706438e+02 1.745608504756e+00 0.0 
1.745608504756e+00 -3.282021279493e+02 0.0 
0.0 0.0 -1.377449895779e+02 
-7.285760432550e+01 -2.787008712427e+00 0.0 
-2.787008712427e+00 -1.629611882857e+02 0.0 
0.0 0.0 -7.034563778336e+01 
-8.108236293491e+01 -2.734180940173e+00 0.0 
-2.734180940173e+00 -1.823300768900e+02 0.0 
0.0 0.0 -7.862373194748e+01 
-8.579624101881e+01 -3.434279303910e+00 0.0 
-3.434279303910e+00 -1.945541060062e+02 0.0 
0.0 0.0 -8.370510410751e+01 
-8.967929570755e+01 -2.690526070132e+00 0.0 
-2.690526070132e+00 -2.027882380738e+02 0.0 
0.0 0.0 -8.734026013440e+01 
-1.192091140822e+02 7.069480766457e-01 0.0 
7.069480766457e-01 -2.713921014997e+02 0.0 
0.0 0.0 -1.167803646746e+02 
-1.272338019570e+02 8.078145812868e-01 0.0 
8.078145812868e-01 -2.913429827036e+02 0.0 
0.0 0.0 -1.251730353982e+02 
-4.246275331001e+01 1.980097176198e+01 0.0 
1.980097176198e+01 -1.257863973023e+02 0.0 
0.0 0.0 -4.992577984737e+01 
-4.735256403336e+01 1.904000305650e+01 0.0 
1.904000305650e+01 -1.274994906122e+02 0.0 
0.0 0.0 -5.198768794339e+01 
-1.333482806315e+02 3.448748168092e+00 0.0 
3.448748168092e+00 -3.034765707847e+02 0.0 
0.0 0.0 -1.306474554249e+02 
-1.307825826374e+02 -1.402206253943e+00 0.0 
-1.402206253943e+00 -3.017234017117e+02 0.0 
0.0 0.0 -1.293517953047e+02 
-1.225298509923e+02 -1.679691365451e+00 0.0 
-1.679691365451e+00 -2.818920165009e+02 0.0 
0.0 0.0 -1.209265602480e+02 
-8.151052724956e+01 1.117332673705e+01 0.0 
1.117332673705e+01 -1.916017502910e+02 0.0 
0.0 0.0 -8.153368326216e+01 
-7.885960105604e+01 1.061628580375e+01 0.0 
1.061628580375e+01 -1.799000050254e+02 0.0 
0.0 0.0 -7.722788182443e+01 
-7.427506065809e+01 1.183762852826e+01 0.0 
1.183762852826e+01 -1.719280773685e+02 0.0 
0.0 0.0 -7.346094140798e+01 
-7.145203962034e+01 1.093286693695e+01 0.0 
1.093286693695e+01 -1.596049426418e+02 0.0 
0.0 0.0 -6.891709467863e+01 
-7.591464038398e+01 9.668355479952e+00 0.0 
9.668355479952e+00 -1.683802764480e+02 0.0 
0.0 0.0 -7.288847504959e+01 
-6.698352534690e+01 1.244609352116e+01 0.0 
1.244609352116e+01 -1.513327731465e+02 0.0 
0.0 0.0 -6.509488954803e+01 
-1.142608191493e+02 -2.400648171195e+00 0.0 
-2.400648171195e+00 -2.852135942631e+02 0.0 
0.0 0.0 -1.194423240237e+02 
-1.304941018423e+02 1.511172007058e+00 0.0 
1.511172007058e+00 -2.985910188718e+02 0.0 
0.0 0.0 -1.283255362142e+02 
-5.047872415129e+01 -5.863361973342e+00 0.0 
-5.863361973342e+00 -1.098573954513e+02 0.0 
0.0 0.0 -4.770083588077e+01 
-4.186986862878e+01 -4.975132114414e+00 0.0 
-4.975132114414e+00 -8.908071807448e+01 0.0 
0.0 0.0 -3.888517601098e+01 
-1.389557579667e+02 -1.178732819194e+00 0.0 
-1.178732819194e+00 -3.215091864592e+02 0.0 
0.0 0.0 -1.377394833278e+02 
-1.138643753175e+02 1.075787177347e+00 0.0 
1.075787177347e+00 -2.916540154459e+02 0.0 
0.0 0.0 -1.212555172290e+02 
-1.136901493171e+02 8.293816277545e+00 0.0 
8.293816277545e+00 -2.656443058481e+02 0.0 
0.0 0.0 -1.134003365496e+02 
-1.168517334454e+02 8.355764227493e+00 0.0 
8.355764227493e+00 -2.762525832305e+02 0.0 
0.0 0.0 -1.175312950028e+02 
-1.215782555717e+02 8.045308948438e+00 0.0 
8.045308948438e+00 -2.848378210706e+02 0.0 
0.0 0.0 -1.215248229927e+02 
-1.248820566059e+02 8.051651931666e+00 0.0 
8.051651931666e+00 -2.953390925582e+02 0.0 
0.0 0.0 -1.256663447492e+02 
-1.295844407066e+02 7.878937921361e+00 0.0 
7.878937921361e+00 -3.040425160984e+02 0.0 
0.0 0.0 -1.296880870415e+02 
-1.330020981243e+02 7.867573489034e+00 0.0 
7.867573489034e+00 -3.143714953519e+02 0.0 
0.0 0.0 -1.338120780429e+02 
-1.282473874059e+02 7.912932152650e+00 0.0 
7.912932152650e+00 -3.058029319459e+02 0.0 
0.0 0.0 -1.298150958055e+02 
-1.350724947060e+02 6.382271949653e+00 0.0 
6.382271949653e+00 -3.293335272288e+02 0.0 
0.0 0.0 -1.389218065804e+02 
-1.365285536810e+02 7.754308760932e+00 0.0 
7.754308760932e+00 -3.247139755856e+02 0.0 
0.0 0.0 -1.379727587800e+02 
-1.110709147138e+02 5.035874299963e-01 0.0 
5.035874299963e-01 -2.513664909992e+02 0.0 
0.0 0.0 -1.083312217139e+02 
-1.119382652184e+02 6.458520390916e+00 0.0 
6.458520390916e+00 -2.834817999004e+02 0.0 
0.0 0.0 -1.182260195356e+02 
-5.650468679700e+01 -1.233364596255e+01 0.0 
-1.233364596255e+01 -1.426842988356e+02 0.0 
0.0 0.0 -5.935669568978e+01 
-3.269447997642e+01 -1.705523101660e+00 0.0 
-1.705523101660e+00 -7.356919185782e+01 0.0 
0.0 0.0 -3.147910155027e+01 
-4.225921256475e+01 -1.171141197809e+01 0.0 
-1.171141197809e+01 -8.368890301630e+01 0.0 
0.0 0.0 -3.651177627811e+01 
-3.985819312668e+01 -1.350249738542e+00 0.0 
-1.350249738542e+00 -8.994570089885e+01 0.0 
0.0 0.0 -3.854116820766e+01 
-4.941492629516e+01 -1.716858603886e+00 0.0 
-1.716858603886e+00 -1.100209539397e+02 0.0 
0.0 0.0 -4.743076407045e+01 
-1.413275398245e+02 -4.867142186914e-01 0.0 
-4.867142186914e-01 -3.418448759624e+02 0.0 
0.0 0.0 -1.445517247361e+02 
-1.376484985194e+02 7.820176693744e+00 0.0 
7.820176693744e+00 -3.231706676706e+02 0.0 
0.0 0.0 -1.378457498570e+02 
-1.340724440330e+02 7.706552016091e+00 0.0 
7.706552016091e+00 -3.127439888861e+02 0.0 
0.0 0.0 -1.336449298757e+02 
-6.846446171151e+01 9.594689429740e+00 0.0 
9.594689429740e+00 -1.481331607063e+02 0.0 
0.0 0.0 -6.457928672535e+01 
-7.273970129473e+01 8.448452865659e+00 0.0 
8.448452865659e+00 -1.573417562402e+02 0.0 
0.0 0.0 -6.862443726047e+01 
-1.391093953913e+02 5.752141194365e+00 0.0 
5.752141194365e+00 -3.391031405036e+02 0.0 
0.0 0.0 -1.430637607685e+02 
-1.098706050189e+02 2.251980733948e+00 0.0 
2.251980733948e+00 -2.445677720002e+02 0.0 
0.0 0.0 -1.059315131057e+02 
-1.099847680973e+02 1.372312538894e+00 0.0 
1.372312538894e+00 -2.469444299995e+02 0.0 
0.0 0.0 -1.066787594290e+02 
-1.059858434025e+02 1.045366375414e+00 0.0 
1.045366375414e+00 -2.377249655131e+02 0.0 
0.0 0.0 -1.027132426747e+02 
-2.930468623051e+01 -8.218221616839e-01 0.0 
-8.218221616839e-01 -6.857031484004e+01 0.0 
0.0 0.0 -2.896250032116e+01 
-4.148332494178e+01 -1.453119616926e+01 0.0 
-1.453119616926e+01 -7.989248526084e+01 0.0 
0.0 0.0 -3.448166739594e+01 
-1.338518327573e+02 2.340908899969e+00 0.0 
2.340908899969e+00 -3.061147572994e+02 0.0 
0.0 0.0 -1.315899770170e+02 
-5.342562720621e+01 1.670632756646e+01 0.0 
1.670632756646e+01 -1.460400811304e+02 0.0 
0.0 0.0 -5.943971250100e+01 
-5.238230092414e+01 1.754172045720e+01 0.0 
1.754172045720e+01 -1.311441316327e+02 0.0 
0.0 0.0 -5.465792976704e+01 
-2.845389904231e+01 1.056336520343e+01 0.0 
1.056336520343e+01 -1.275448739272e+02 0.0 
0.0 0.0 -4.814961713994e+01 
-2.686074254373e+01 6.569075376048e-01 0.0 
6.569075376048e-01 -1.262373379918e+02 0.0 
0.0 0.0 -4.779422457571e+01 
-1.234809357592e+02 5.171477747605e-01 0.0 
5.171477747605e-01 -2.818967432217e+02 0.0 
0.0 0.0 -1.212133036943e+02 
-1.314456340979e+02 6.548053954319e-01 0.0 
6.548053954319e-01 -3.017093585383e+02 0.0 
0.0 0.0 -1.295464977909e+02 
-9.419070855143e+01 -3.166439166641e+00 0.0 
-3.166439166641e+00 -2.147034002886e+02 0.0 
0.0 0.0 -9.226823265202e+01 
-9.798804958440e+01 -2.432311533545e+00 0.0 
-2.432311533545e+00 -2.228096855934e+02 0.0 
0.0 0.0 -9.583932055335e+01 
-1.368798926606e+02 -1.560931333800e-01 0.0 
-1.560931333800e-01 -3.342384445192e+02 0.0 
0.0 0.0 -1.409355011539e+02 
-4.374726847184e+01 -9.779613597049e+00 0.0 
-9.779613597049e+00 -9.020730680198e+01 0.0 
0.0 0.0 -3.959868050168e+01 
-1.352573649546e+02 9.664464364795e-01 0.0 
9.664464364795e-01 -3.111955203022e+02 0.0 
0.0 0.0 -1.335358655771e+02 
-1.182683245018e+02 2.625966009983e-01 0.0 
2.625966009983e-01 -2.994385428064e+02 0.0 
0.0 0.0 -1.249120601925e+02 
-1.092553407411e+02 -2.653204601513e-01 0.0 
-2.653204601513e-01 -2.812911881113e+02 0.0 
0.0 0.0 -1.167639586557e+02 
-8.499211764982e+01 -2.189656756449e+00 0.0 
-2.189656756449e+00 -1.905940710108e+02 0.0 
0.0 0.0 -8.227585659819e+01 
-4.318354020657e+01 2.143706844348e+01 0.0 
2.143706844348e+01 -1.083804655957e+02 0.0 
0.0 0.0 -4.453516499417e+01 
-3.937882631726e+01 2.298659950881e+01 0.0 
2.298659950881e+01 -1.082679845413e+02 0.0 
0.0 0.0 -4.362927734384e+01 
-5.875977848561e+01 -1.156653502554e+01 0.0 
-1.156653502554e+01 -1.577081352059e+02 0.0 
0.0 0.0 -6.454037410745e+01 
-5.045746976137e+01 -1.049039786548e+01 0.0 
-1.049039786548e+01 -1.118078389000e+02 0.0 
0.0 0.0 -4.827959259843e+01 
-4.368319169012e+01 -1.072825379223e+00 0.0 
-1.072825379223e+00 -9.841461682748e+01 0.0 
0.0 0.0 -4.222934255528e+01 
-1.461809078198e+02 2.339971881889e-01 0.0 
2.339971881889e-01 -3.530382641102e+02 0.0 
0.0 0.0 -1.493657515790e+02 
-1.375663632834e+02 2.762364734913e+00 0.0 
2.762364734913e+00 -3.151583392269e+02 0.0 
0.0 0.0 -1.354174107531e+02 
-1.317599871349e+02 7.693320344113e+00 0.0 
7.693320344113e+00 -3.162009486727e+02 0.0 
0.0 0.0 -1.339882807423e+02 
-1.233110074303e+02 7.951180081704e+00 0.0 
7.951180081704e+00 -2.972694092390e+02 0.0 
0.0 0.0 -1.257741250008e+02 
-1.404138886912e+02 7.532816727288e+00 0.0 
7.532816727288e+00 -3.351349346398e+02 0.0 
0.0 0.0 -1.422646469993e+02 
-3.630279301002e+01 -8.004343709711e+00 0.0 
-8.004343709711e+00 -6.840516323189e+01 0.0 
0.0 0.0 -3.041336346694e+01 
-1.457634110455e+02 -7.365152318615e-01 0.0 
-7.365152318615e-01 -3.496075583494e+02 0.0 
0.0 0.0 -1.482112908185e+02 
-1.344965808729e+02 -9.982987764025e-01 0.0 
-9.982987764025e-01 -3.099971662667e+02 0.0 
0.0 0.0 -1.329481241419e+02 
-1.417004003632e+02 7.713958188013e+00 0.0 
7.713958188013e+00 -3.312005311462e+02 0.0 
0.0 0.0 -1.414702794528e+02 
-1.384266287028e+02 7.544577348228e+00 0.0 
7.544577348228e+00 -3.215945709687e+02 0.0 
0.0 0.0 -1.376063599014e+02 
-5.876196178523e+01 1.579276391283e+01 0.0 
1.579276391283e+01 -1.504746593185e+02 0.0 
0.0 0.0 -6.237098633113e+01 
-5.736715152657e+01 1.580280069110e+01 0.0 
1.580280069110e+01 -1.365919231236e+02 0.0 
0.0 0.0 -5.778772239506e+01 
-5.115894240072e+01 1.685845903519e+01 0.0 
1.685845903519e+01 -1.161779456021e+02 0.0 
0.0 0.0 -4.980106640086e+01 
-5.550266020785e+01 1.466107209672e+01 0.0 
1.466107209672e+01 -1.228444190969e+02 0.0 
0.0 0.0 -5.310412379141e+01 
-1.014460493552e+02 4.015258944069e+00 0.0 
4.015258944069e+00 -2.236242909172e+02 0.0 
0.0 0.0 -9.712110208174e+01 
-6.399062630143e+01 1.455175274236e+01 0.0 
1.455175274236e+01 -1.564162908644e+02 0.0 
0.0 0.0 -6.572207514974e+01 
-9.707123375829e+01 5.553915582406e+00 0.0 
5.553915582406e+00 -2.140962501262e+02 0.0 
0.0 0.0 -9.295024516535e+01 
-9.341944165894e+01 4.742006349444e+00 0.0 
4.742006349444e+00 -2.043923252376e+02 0.0 
0.0 0.0 -8.894353006897e+01 
-8.937799767453e+01 5.222568108640e+00 0.0 
5.222568108640e+00 -1.949440607764e+02 0.0 
0.0 0.0 -8.489661753527e+01 
-8.022768541012e+01 8.592259327373e+00 0.0 
8.592259327373e+00 -1.771353171279e+02 0.0 
0.0 0.0 -7.680890076141e+01 
-7.694750926332e+01 7.433401393561e+00 0.0 
7.433401393561e+00 -1.665891028278e+02 0.0 
0.0 0.0 -7.266098362734e+01 
-6.209884688519e+01 1.249936829619e+01 0.0 
1.249936829619e+01 -1.771489995329e+02 0.0 
0.0 0.0 -7.137435392543e+01 
-9.803270750575e+01 6.154737363316e+00 0.0 
6.154737363316e+00 -2.572789877375e+02 0.0 
0.0 0.0 -1.061935085730e+02 
-9.031891192066e+01 -3.927869451391e+00 0.0 
-3.927869451391e+00 -2.068541647983e+02 0.0 
0.0 0.0 -8.875192301568e+01 
-1.108730448353e+02 -3.262167064213e+00 0.0 
-3.262167064213e+00 -2.585993292043e+02 0.0 
0.0 0.0 -1.104417122119e+02 
-1.017496843317e+02 -4.305369513067e+00 0.0 
-4.305369513067e+00 -2.548547506362e+02 0.0 
0.0 0.0 -1.065813304904e+02 
-1.341594748703e+02 1.844470504387e+00 0.0 
1.844470504387e+00 -3.075220823096e+02 0.0 
0.0 0.0 -1.321044671540e+02 
-1.383156903631e+02 1.749796440790e+00 0.0 
1.749796440790e+00 -3.183831535192e+02 0.0 
0.0 0.0 -1.366096531647e+02 
-1.063043563151e+02 7.494286301378e-01 0.0 
7.494286301378e-01 -2.393902856097e+02 0.0 
0.0 0.0 -1.033083925774e+02 
-1.024613472478e+02 5.613565255473e-01 0.0 
5.613565255473e-01 -2.302948818386e+02 0.0 
0.0 0.0 -9.942686872594e+01 
-3.546835051475e+01 -3.234551583470e+00 0.0 
-3.234551583470e+00 -7.643263085413e+01 0.0 
0.0 0.0 -3.317029441066e+01 
-3.251906565020e+01 -3.665829665022e+00 0.0 
-3.665829665022e+00 -6.835588142206e+01 0.0 
0.0 0.0 -2.986038915577e+01 
-9.854348539876e+01 -5.110554305395e+00 0.0 
-5.110554305395e+00 -2.368861655424e+02 0.0 
0.0 0.0 -1.002288952824e+02 
-1.409133172052e+02 -1.324571971765e+00 0.0 
-1.324571971765e+00 -3.377763715131e+02 0.0 
0.0 0.0 -1.432069066155e+02 
-1.371924581165e+02 3.304237767001e+00 0.0 
3.304237767001e+00 -3.136611155919e+02 0.0 
0.0 0.0 -1.348560721125e+02 
-1.408948684300e+02 3.818146531560e+00 0.0 
3.818146531560e+00 -3.229972751844e+02 0.0 
0.0 0.0 -1.387676430843e+02 
-1.370512821249e+02 3.958064208317e+00 0.0 
3.958064208317e+00 -3.127365454281e+02 0.0 
0.0 0.0 -1.345363482659e+02 
-1.416565524759e+02 6.898994582194e-01 0.0 
6.898994582194e-01 -3.450383826241e+02 0.0 
0.0 0.0 -1.456084805300e+02 
-6.206332365964e+01 4.263483201775e+00 0.0 
4.263483201775e+00 -1.917374878615e+02 0.0 
0.0 0.0 -7.574024345635e+01 
-1.006701155299e+02 1.901392830382e+00 0.0 
1.901392830382e+00 -2.660330545412e+02 0.0 
0.0 0.0 -1.096109510213e+02 
-2.896977111517e+01 -9.420963228698e+00 0.0 
-9.420963228698e+00 -1.265093923955e+02 0.0 
0.0 0.0 -4.789779977624e+01 
-1.070592811511e+02 8.942845356101e+00 0.0 
8.942845356101e+00 -2.597627745605e+02 0.0 
0.0 0.0 -1.096466167135e+02 
-2.549955366618e+01 -2.031478238562e+00 0.0 
-2.031478238562e+00 -5.629656766978e+01 0.0 
0.0 0.0 -2.413883640079e+01 
-1.235488056379e+02 6.738528398280e+00 0.0 
6.738528398280e+00 -2.819042763367e+02 0.0 
0.0 0.0 -1.212359245924e+02 
-1.426972171448e+02 -8.575939645344e-01 0.0 
-8.575939645344e-01 -3.298412415053e+02 0.0 
0.0 0.0 -1.413615375950e+02 
-1.470892632320e+02 -1.023213515116e+00 0.0 
-1.023213515116e+00 -3.411401912732e+02 0.0 
0.0 0.0 -1.460688363516e+02 
-1.441138359455e+02 6.335181135933e+00 0.0 
6.335181135933e+00 -3.478573022949e+02 0.0 
0.0 0.0 -1.471913414721e+02 
-8.997991192983e+01 2.837231715990e+00 0.0 
2.837231715990e+00 -1.957867538456e+02 0.0 
0.0 0.0 -8.532999973262e+01 
-1.100762595751e+02 8.454629701590e+00 0.0 
8.454629701590e+00 -2.703854590625e+02 0.0 
0.0 0.0 -1.137385155913e+02 
-1.049827837108e+02 8.391739681607e+00 0.0 
8.391739681607e+00 -2.625077945248e+02 0.0 
0.0 0.0 -1.098471734707e+02 
-8.568296077841e+01 4.314010194828e+00 0.0 
4.314010194828e+00 -1.854281298829e+02 0.0 
0.0 0.0 -8.093332719839e+01 
-8.167573507061e+01 4.800730456882e+00 0.0 
4.800730456882e+00 -1.759695786188e+02 0.0 
0.0 0.0 -7.689359410683e+01 
-8.530291167203e+01 5.798820508801e+00 0.0 
5.798820508801e+00 -1.855358960326e+02 0.0 
0.0 0.0 -8.085164231140e+01 
-7.763270631607e+01 5.410440724129e+00 0.0 
5.410440724129e+00 -1.664814997277e+02 0.0 
0.0 0.0 -7.283426181312e+01 
-6.318199658891e+01 -1.076737134487e+01 0.0 
-1.076737134487e+01 -1.619289845680e+02 0.0 
0.0 0.0 -6.713329434708e+01 
-6.039346648060e+01 -1.092758332193e+01 0.0 
-1.092758332193e+01 -1.472926125983e+02 0.0 
0.0 0.0 -6.190582372366e+01 
-1.463814136105e+02 7.911126335481e+00 0.0 
7.911126335481e+00 -3.436148661535e+02 0.0 
0.0 0.0 -1.465988839292e+02 
-1.448620175133e+02 7.660213269251e+00 0.0 
7.660213269251e+00 -3.433642135362e+02 0.0 
0.0 0.0 -1.460678693149e+02 
-1.460837231894e+02 7.767031234572e+00 0.0 
7.767031234572e+00 -3.403247989066e+02 0.0 
0.0 0.0 -1.455225566288e+02 
-1.430145738609e+02 7.447149807745e+00 0.0 
7.447149807745e+00 -3.311209077822e+02 0.0 
0.0 0.0 -1.418406444929e+02 
-1.484510476940e+02 5.788033173462e+00 0.0 
5.788033173462e+00 -3.575400714845e+02 0.0 
0.0 0.0 -1.513973357535e+02 
-1.431985325422e+02 5.100680372971e+00 0.0 
5.100680372971e+00 -3.483327148797e+02 0.0 
0.0 0.0 -1.470593742266e+02 
-5.282417884264e+01 -1.284762975593e+00 0.0 
-1.284762975593e+00 -1.178875379137e+02 0.0 
0.0 0.0 -5.081351502691e+01 
-6.933685173504e+01 7.032568989280e+00 0.0 
7.032568989280e+00 -1.470483902766e+02 0.0 
0.0 0.0 -6.451557260349e+01 
-1.416763582440e+02 2.645053504148e+00 0.0 
2.645053504148e+00 -3.257922748396e+02 0.0 
0.0 0.0 -1.398405899251e+02 
-8.966066255693e+01 3.907275370510e+00 0.0 
3.907275370510e+00 -1.948964062086e+02 0.0 
0.0 0.0 -8.496712062965e+01 
-1.497604314118e+02 -9.261218624297e-01 0.0 
-9.261218624297e-01 -3.565640229151e+02 0.0 
0.0 0.0 -1.514973362981e+02 
-1.451584244595e+02 -1.377868042353e+00 0.0 
-1.377868042353e+00 -3.452701244927e+02 0.0 
0.0 0.0 -1.467285646857e+02 
-3.082693201329e+01 -1.014135738623e+01 0.0 
-1.014135738623e+01 -1.208576808846e+02 0.0 
0.0 0.0 -4.736002437244e+01 
-3.224564871926e+01 -1.990474681888e+01 0.0 
-1.990474681888e+01 -1.109225122037e+02 0.0 
0.0 0.0 -4.373051312001e+01 
-1.394491297453e+02 8.144483634328e-01 0.0 
8.144483634328e-01 -3.218420840574e+02 0.0 
0.0 0.0 -1.379873641408e+02 
-4.903034505133e+01 1.489817353380e+01 0.0 
1.489817353380e+01 -1.015773881374e+02 0.0 
0.0 0.0 -4.478231995663e+01 
-5.256213420595e+01 1.271510882967e+01 0.0 
1.271510882967e+01 -1.089378057563e+02 0.0 
0.0 0.0 -4.804998198868e+01 
-4.572253872754e+01 1.735319940769e+01 0.0 
1.735319940769e+01 -9.492356885808e+01 0.0 
0.0 0.0 -4.149305806295e+01 
-1.590156792465e+02 -2.691051935635e-01 0.0 
-2.691051935635e-01 -3.697350152586e+02 0.0 
0.0 0.0 -1.582252083515e+02 
-8.578946073009e+01 5.024000581322e-02 0.0 
5.024000581322e-02 -1.921021579765e+02 0.0 
0.0 0.0 -8.296748561197e+01 
-1.508708229881e+02 -7.622733917717e-01 0.0 
-7.622733917717e-01 -3.496383526096e+02 0.0 
0.0 0.0 -1.497527526793e+02 
-8.454533669671e+01 7.619512011505e+00 0.0 
7.619512011505e+00 -1.862487952597e+02 0.0 
0.0 0.0 -8.083823958693e+01 
-1.433385243778e+02 1.093710580688e+00 0.0 
1.093710580688e+00 -3.314097443523e+02 0.0 
0.0 0.0 -1.420244806190e+02 
-1.133528959863e+02 7.777301852985e+00 0.0 
7.777301852985e+00 -2.809500143797e+02 0.0 
0.0 0.0 -1.178908731098e+02 
-7.648673053271e+01 1.219673673390e+01 0.0 
1.219673673390e+01 -1.837402958634e+02 0.0 
0.0 0.0 -7.766810791884e+01 
-1.322944502629e+02 2.752973141889e-01 0.0 
2.752973141889e-01 -3.263878608798e+02 0.0 
0.0 0.0 -1.372046933428e+02 
-1.352165682514e+02 6.080467999647e-01 0.0 
6.080467999647e-01 -3.112213675611e+02 0.0 
0.0 0.0 -1.335313807438e+02 
-1.436816071669e+02 5.920200295219e-01 0.0 
5.920200295219e-01 -3.329461267676e+02 0.0 
0.0 0.0 -1.425883201803e+02 
-1.018653770567e+02 1.013276351814e+00 0.0 
1.013276351814e+00 -2.272210272588e+02 0.0 
0.0 0.0 -9.832592129465e+01 
-9.747909349483e+01 8.369476561718e-01 0.0 
8.369476561718e-01 -2.174527391943e+02 0.0 
0.0 0.0 -9.407954980675e+01 
-1.055932126750e+02 1.361703439968e+00 0.0 
1.361703439968e+00 -2.358963573427e+02 0.0 
0.0 0.0 -1.020468710053e+02 
-3.238195832134e+01 1.642765343069e+01 0.0 
1.642765343069e+01 -1.267310902801e+02 0.0 
0.0 0.0 -4.827435119729e+01 
-3.007687800846e+01 2.153364795344e+01 0.0 
2.153364795344e+01 -1.121348350537e+02 0.0 
0.0 0.0 -4.366642514474e+01 
-1.346053387696e+02 1.397344330882e+00 0.0 
1.397344330882e+00 -3.092720807448e+02 0.0 
0.0 0.0 -1.327632258543e+02 
-6.395272407036e+01 -2.740123095841e+00 0.0 
-2.740123095841e+00 -1.421567787460e+02 0.0 
0.0 0.0 -6.143285084490e+01 
-6.838444998593e+01 -2.190385635635e+00 0.0 
-2.190385635635e+00 -1.525653721997e+02 0.0 
0.0 0.0 -6.588494665568e+01 
-4.564613904056e+01 -8.227802974247e+00 0.0 
-8.227802974247e+00 -9.642502751766e+01 0.0 
0.0 0.0 -4.221327136555e+01 
-5.301242510908e+01 -8.802168653853e+00 0.0 
-8.802168653853e+00 -1.175049775783e+02 0.0 
0.0 0.0 -5.075522080623e+01 
-9.853265287673e+01 -3.540730271148e+00 0.0 
-3.540730271148e+00 -2.268257738152e+02 0.0 
0.0 0.0 -9.720752800758e+01 
-9.461583290179e+01 -4.286777523439e+00 0.0 
-4.286777523439e+00 -2.192153579113e+02 0.0 
0.0 0.0 -9.374935724394e+01 
-1.270776715988e+02 7.163439245423e+00 0.0 
7.163439245423e+00 -2.921518920107e+02 0.0 
0.0 0.0 -1.253688690828e+02 
-1.312776446472e+02 6.880970670433e+00 0.0 
6.880970670433e+00 -3.012438766450e+02 0.0 
0.0 0.0 -1.293564563876e+02 
-1.182741056436e+02 7.874380045688e+00 0.0 
7.874380045688e+00 -2.742989463154e+02 0.0 
0.0 0.0 -1.173719155877e+02 
-1.137789112868e+02 -9.432052240748e-01 0.0 
-9.432052240748e-01 -2.887544474264e+02 0.0 
0.0 0.0 -1.203600076140e+02 
-1.049073047797e+02 -1.652495664572e+00 0.0 
-1.652495664572e+00 -2.705648195338e+02 0.0 
0.0 0.0 -1.122416372940e+02 
-1.004216834616e+02 -8.501303332594e-01 0.0 
-8.501303332594e-01 -2.635006926241e+02 0.0 
0.0 0.0 -1.087767128257e+02 
-1.416507226597e+02 2.104600900064e+00 0.0 
2.104600900064e+00 -3.268270970072e+02 0.0 
0.0 0.0 -1.401433459001e+02 
-1.466797715549e+02 1.935139797148e+00 0.0 
1.935139797148e+00 -3.398881053385e+02 0.0 
0.0 0.0 -1.455703630680e+02 
-6.573589951121e+01 -9.728420648331e+00 0.0 
-9.728420648331e+00 -1.759423198276e+02 0.0 
0.0 0.0 -7.210346580164e+01 
-6.098150858393e+01 -9.755362669388e+00 0.0 
-9.755362669388e+00 -1.717527259625e+02 0.0 
0.0 0.0 -6.942027036394e+01 
-6.726611596973e+01 -9.768298390745e+00 0.0 
-9.768298390745e+00 -1.666703755594e+02 0.0 
0.0 0.0 -6.978094745874e+01 
-1.452734855037e+02 3.063201550662e+00 0.0 
3.063201550662e+00 -3.348632247784e+02 0.0 
0.0 0.0 -1.436410130846e+02 
-1.550987222902e+02 -1.010888496245e+00 0.0 
-1.010888496245e+00 -3.606092961398e+02 0.0 
0.0 0.0 -1.543124055290e+02 
-1.513237010631e+02 -1.084733610672e+00 0.0 
-1.084733610672e+00 -3.523669047122e+02 0.0 
0.0 0.0 -1.507071817326e+02 
-2.215165391099e+01 -2.052036813261e+00 0.0 
-2.052036813261e+00 -4.828454060966e+01 0.0 
0.0 0.0 -2.072876339029e+01 
-2.971497989594e+01 -3.981515435517e+00 0.0 
-3.981515435517e+00 -6.022478710665e+01 0.0 
0.0 0.0 -2.648639311144e+01 
-3.999975615294e+01 2.325668462574e+01 0.0 
2.325668462574e+01 -8.764905379473e+01 0.0 
0.0 0.0 -3.690458735043e+01 
-3.655682136183e+01 2.613391274856e+01 0.0 
2.613391274856e+01 -8.925339636877e+01 0.0 
0.0 0.0 -3.723779389191e+01 
-1.443307890962e+02 4.320441496985e+00 0.0 
4.320441496985e+00 -3.318753756172e+02 0.0 
0.0 0.0 -1.424618494140e+02 
-1.407994836153e+02 4.491181058782e+00 0.0 
4.491181058782e+00 -3.222928095157e+02 0.0 
0.0 0.0 -1.385276879393e+02 
-1.488665326159e+02 4.192667796005e+00 0.0 
4.192667796005e+00 -3.438416912102e+02 0.0 
0.0 0.0 -1.474124671478e+02 
-4.662316779759e+01 -7.820452565138e-01 0.0 
-7.820452565138e-01 -1.050630391263e+02 0.0 
0.0 0.0 -4.510586207718e+01 
-1.269045549871e+02 7.503856749294e+00 0.0 
7.503856749294e+00 -3.078514652394e+02 0.0 
0.0 0.0 -1.300268060679e+02 
-1.507767724276e+02 1.024195841822e+00 0.0 
1.024195841822e+00 -3.630156065470e+02 0.0 
0.0 0.0 -1.537377136924e+02 
-1.461667766217e+02 1.516477867291e+00 0.0 
1.516477867291e+00 -3.549499797380e+02 0.0 
0.0 0.0 -1.499350269079e+02 
-1.564530929995e+02 5.691457991868e-01 0.0 
5.691457991868e-01 -3.734452099670e+02 0.0 
0.0 0.0 -1.585694908899e+02 
-1.399474095608e+02 6.859817082069e+00 0.0 
6.859817082069e+00 -3.377109647317e+02 0.0 
0.0 0.0 -1.428975122877e+02 
-1.486499831147e+02 6.846702305506e+00 0.0 
6.846702305506e+00 -3.558839385354e+02 0.0 
0.0 0.0 -1.509601764950e+02 
-1.490065839319e+02 7.498149123991e+00 0.0 
7.498149123991e+00 -3.537110734209e+02 0.0 
0.0 0.0 -1.504152972058e+02 
-3.570929270529e+01 9.393568624846e-01 0.0 
9.393568624846e-01 -1.228299332490e+02 0.0 
0.0 0.0 -4.939902739606e+01 
-1.409681323304e+02 4.768960088421e-01 0.0 
4.768960088421e-01 -3.260041766042e+02 0.0 
0.0 0.0 -1.396916926804e+02 
-9.767029171902e+01 5.503893847854e-01 0.0 
5.503893847854e-01 -2.187200972168e+02 0.0 
0.0 0.0 -9.451711668075e+01 
-4.450627923947e+01 -6.815888497552e+00 0.0 
-6.815888497552e+00 -1.175782641148e+02 0.0 
0.0 0.0 -5.006766154019e+01 
-9.384617369860e+01 3.686289793442e-01 0.0 
3.686289793442e-01 -2.097994454455e+02 0.0 
0.0 0.0 -9.069368574322e+01 
-9.842887743246e+01 3.960635907927e-01 0.0 
3.960635907927e-01 -2.210778518191e+02 0.0 
0.0 0.0 -9.545201877546e+01 
-8.938536618177e+01 2.397804499823e-01 0.0 
2.397804499823e-01 -1.996799098614e+02 0.0 
0.0 0.0 -8.631958281294e+01 
-3.715920507789e+01 -6.170273580099e-01 0.0 
-6.170273580099e-01 -8.561555013099e+01 0.0 
0.0 0.0 -3.643242656266e+01 
-9.614409692508e+01 1.041024625826e+00 0.0 
1.041024625826e+00 -2.132139268758e+02 0.0 
0.0 0.0 -9.240740714026e+01 
-1.014243196991e+02 1.468894249148e+00 0.0 
1.468894249148e+00 -2.253301731711e+02 0.0 
0.0 0.0 -9.762634786104e+01 
-1.716495574102e+01 -1.787655911330e+00 0.0 
-1.787655911330e+00 -3.678539125112e+01 0.0 
0.0 0.0 -1.582110985865e+01 
-1.490582371230e+02 2.835585077116e+00 0.0 
2.835585077116e+00 -3.451267077410e+02 0.0 
0.0 0.0 -1.478554834592e+02 
-1.529640509425e+01 -8.296248144599e-01 0.0 
-8.296248144599e-01 -3.762897513550e+01 0.0 
0.0 0.0 -1.547761406893e+01 
-1.877830695441e+01 -9.464341782370e-01 0.0 
-9.464341782370e-01 -4.539716729394e+01 0.0 
0.0 0.0 -1.885264227451e+01 
-1.540730098151e+02 -1.146006767828e+00 0.0 
-1.146006767828e+00 -3.643303067211e+02 0.0 
0.0 0.0 -1.551209949609e+02 
-1.492121286507e+02 -1.386454043431e+00 0.0 
-1.386454043431e+00 -3.526431462025e+02 0.0 
0.0 0.0 -1.501565824560e+02 
-1.576239960538e+02 -1.178119057425e+00 0.0 
-1.178119057425e+00 -3.712411077543e+02 0.0 
0.0 0.0 -1.582595311424e+02 
-1.527483500769e+02 -1.434495389345e+00 0.0 
-1.434495389345e+00 -3.594858747643e+02 0.0 
0.0 0.0 -1.532702674524e+02 
-1.445751628307e+02 -1.610512944255e+00 0.0 
-1.610512944255e+00 -3.408561301289e+02 0.0 
0.0 0.0 -1.452293878879e+02 
-1.486507212675e+02 -1.531975332884e+00 0.0 
-1.531975332884e+00 -3.487817380251e+02 0.0 
0.0 0.0 -1.488297377878e+02 
-9.310565870365e+01 5.849439448811e-01 0.0 
5.849439448811e-01 -2.076455022780e+02 0.0 
0.0 0.0 -8.982534829450e+01 
-1.579779947904e+02 -1.415659138465e+00 0.0 
-1.415659138465e+00 -3.702308990169e+02 0.0 
0.0 0.0 -1.580626681422e+02 
-1.527009898989e+02 -1.382640115468e+00 0.0 
-1.382640115468e+00 -3.570261995485e+02 0.0 
0.0 0.0 -1.525181568342e+02 
-1.618092551781e+02 -1.366806998929e+00 0.0 
-1.366806998929e+00 -3.786102880132e+02 0.0 
0.0 0.0 -1.617258629574e+02 
-7.400027361172e+01 4.270233688973e+00 0.0 
4.270233688973e+00 -1.573671140646e+02 0.0 
0.0 0.0 -6.901021630288e+01 
-5.959773764334e+01 1.281345127467e+01 0.0 
1.281345127467e+01 -1.300831628680e+02 0.0 
0.0 0.0 -5.650427015340e+01 
-5.649021139195e+01 1.084899540892e+01 0.0 
1.084899540892e+01 -1.174324902617e+02 0.0 
0.0 0.0 -5.177681049609e+01 
-4.865099074240e+01 9.673392020370e+00 0.0 
9.673392020370e+00 -9.575740812111e+01 0.0 
0.0 0.0 -4.292251965905e+01 
-1.516221300728e+02 7.765146891984e+00 0.0 
7.765146891984e+00 -3.526661043561e+02 0.0 
0.0 0.0 -1.508864703287e+02 
-1.465543706709e+02 7.248556984184e+00 0.0 
7.248556984184e+00 -3.392538520344e+02 0.0 
0.0 0.0 -1.453424668116e+02 
-1.384601105057e+02 -6.433449606312e-01 0.0 
-6.433449606312e-01 -3.190343431011e+02 0.0 
0.0 0.0 -1.368483360820e+02 
-1.302019942109e+02 -7.595737318462e-01 0.0 
-7.595737318462e-01 -2.989703175379e+02 0.0 
0.0 0.0 -1.283516935246e+02 
-9.389153145776e+01 2.058059373634e-01 0.0 
2.058059373634e-01 -2.108136789135e+02 0.0 
0.0 0.0 -9.101156311138e+01 
-9.335960005961e+01 1.939769511747e-01 0.0 
1.939769511747e-01 -2.097372433047e+02 0.0 
0.0 0.0 -9.052905300930e+01 
-1.009045376566e+02 1.490138968118e-01 0.0 
1.490138968118e-01 -2.275816336297e+02 0.0 
0.0 0.0 -9.814585138589e+01 
-9.980546426118e+01 2.183488425691e-01 0.0 
2.183488425691e-01 -2.251532708444e+02 0.0 
0.0 0.0 -9.708762053168e+01 
-1.073120882427e+02 1.758575285367e-01 0.0 
1.758575285367e-01 -2.431032745895e+02 0.0 
0.0 0.0 -1.047246088497e+02 
-1.062053346911e+02 2.432437249515e-01 0.0 
2.432437249515e-01 -2.403474302466e+02 0.0 
0.0 0.0 -1.035658294813e+02 
-1.138309095904e+02 4.214226057189e-01 0.0 
4.214226057189e-01 -2.586630422546e+02 0.0 
0.0 0.0 -1.113481855535e+02 
-1.536198814296e+02 7.822109723509e+00 0.0 
7.822109723509e+00 -3.624886196898e+02 0.0 
0.0 0.0 -1.544325503358e+02 
-4.284453928510e+01 1.413735083279e+01 0.0 
1.413735083279e+01 -7.971640208925e+01 0.0 
0.0 0.0 -3.603359276582e+01 
-8.192600210869e+01 3.432234717403e+00 0.0 
3.432234717403e+00 -1.762863113771e+02 0.0 
0.0 0.0 -7.706369404572e+01 
-1.525552711410e+02 5.206435112130e+00 0.0 
5.206435112130e+00 -3.665466798156e+02 0.0 
0.0 0.0 -1.553305852870e+02 
-1.466449883685e+02 4.433234018418e+00 0.0 
4.433234018418e+00 -3.559300560387e+02 0.0 
0.0 0.0 -1.503725133221e+02 
-7.341276115148e+01 6.155847246908e+00 0.0 
6.155847246908e+00 -1.565689239022e+02 0.0 
0.0 0.0 -6.859450551611e+01 
-6.572473779430e+01 5.507290365582e+00 0.0 
5.507290365582e+00 -1.376638905092e+02 0.0 
0.0 0.0 -6.061658849104e+01 
-1.559679230196e+02 -5.021602653421e-01 0.0 
-5.021602653421e-01 -3.707356110646e+02 0.0 
0.0 0.0 -1.576110602253e+02 
-6.569715252052e+01 1.413813877493e+01 0.0 
1.413813877493e+01 -1.694586177704e+02 0.0 
0.0 0.0 -7.014673108728e+01 
-1.534673187418e+02 3.365043783679e+00 0.0 
3.365043783679e+00 -3.568157743308e+02 0.0 
0.0 0.0 -1.526849279218e+02 
-5.005104356525e+01 2.268896846383e+01 0.0 
2.268896846383e+01 -8.745627676274e+01 0.0 
0.0 0.0 -4.205217995782e+01 
-3.578151924108e+01 2.207094474764e+01 0.0 
2.207094474764e+01 -1.043699576725e+02 0.0 
0.0 0.0 -4.342140356849e+01 
-7.107086953831e+01 1.325276592922e+01 0.0 
1.325276592922e+01 -1.759444770929e+02 0.0 
0.0 0.0 -7.370460398935e+01 
-8.117615742003e+01 6.537066543656e+00 0.0 
6.537066543656e+00 -1.760929344301e+02 0.0 
0.0 0.0 -7.678072755505e+01 
-6.399303921173e+01 1.106106360684e+01 0.0 
1.106106360684e+01 -1.385128731630e+02 0.0 
0.0 0.0 -6.035177371241e+01 
-6.123918073696e+01 9.408368143096e+00 0.0 
9.408368143096e+00 -1.280635020647e+02 0.0 
0.0 0.0 -5.639080484050e+01 
-1.229000142934e+02 -3.078068280501e-01 0.0 
-3.078068280501e-01 -3.073889778479e+02 0.0 
0.0 0.0 -1.286866976424e+02 
-2.779614193422e+01 -4.614450643206e+00 0.0 
-4.614450643206e+00 -5.311041968439e+01 0.0 
0.0 0.0 -2.355339167494e+01 
-4.304217312045e+01 2.016719109783e+01 0.0 
2.016719109783e+01 -9.016777968006e+01 0.0 
0.0 0.0 -3.862868904446e+01 
-1.148980279717e+02 3.427535173841e-01 0.0 
3.427535173841e-01 -2.609383382204e+02 0.0 
0.0 0.0 -1.123509098576e+02 
-3.892367132877e+01 2.001882377616e+01 0.0 
2.001882377616e+01 -6.773145790862e+01 0.0 
0.0 0.0 -3.011939561421e+01 
-1.346225506176e+02 -3.614440337198e-01 0.0 
-3.614440337198e-01 -3.092491418250e+02 0.0 
0.0 0.0 -1.327615077328e+02 
-6.772947056529e+01 1.283895494058e+01 0.0 
1.283895494058e+01 -1.825356228130e+02 0.0 
0.0 0.0 -7.467952801350e+01 
-8.773010951470e+01 8.557450224559e+00 0.0 
8.557450224559e+00 -1.968225002794e+02 0.0 
0.0 0.0 -8.496578293824e+01 
-4.698903372793e+01 1.921123069597e+01 0.0 
1.921123069597e+01 -1.112113410075e+02 0.0 
0.0 0.0 -4.687771243830e+01 
-6.231317637647e+01 1.408769037279e+01 0.0 
1.408769037279e+01 -1.436849463862e+02 0.0 
0.0 0.0 -6.139943682880e+01 
-1.051995661715e+02 4.704695513032e+00 0.0 
4.704695513032e+00 -2.331152124761e+02 0.0 
0.0 0.0 -1.010944335943e+02 
-9.763602802086e+01 3.353897680757e+00 0.0 
3.353897680757e+00 -2.143656521188e+02 0.0 
0.0 0.0 -9.320050404191e+01 
-9.368522273771e+01 3.568688226581e+00 0.0 
3.568688226581e+00 -2.047020440912e+02 0.0 
0.0 0.0 -8.911618004867e+01 
-6.994919259027e+01 1.085933789472e+01 0.0 
1.085933789472e+01 -1.945450404407e+02 0.0 
0.0 0.0 -7.894826990928e+01 
-6.517363661021e+01 8.056851292592e+00 0.0 
8.056851292592e+00 -1.373880408411e+02 0.0 
0.0 0.0 -6.036850323538e+01 
-5.656817388839e+01 7.263347556514e+00 0.0 
7.263347556514e+00 -1.154895361982e+02 0.0 
0.0 0.0 -5.121731302599e+01 
-1.005887586822e+02 6.327906354500e+00 0.0 
6.327906354500e+00 -2.240377574808e+02 0.0 
0.0 0.0 -9.698795484889e+01 
-1.331683712959e+02 4.055058991136e+00 0.0 
4.055058991136e+00 -3.025811618793e+02 0.0 
0.0 0.0 -1.303248599526e+02 
-1.368330921154e+02 4.584513371906e+00 0.0 
4.584513371906e+00 -3.120130070894e+02 0.0 
0.0 0.0 -1.342538297614e+02 
-1.441508438173e+02 5.018862605020e+00 0.0 
5.018862605020e+00 -3.310455289186e+02 0.0 
0.0 0.0 -1.421589118208e+02 
-1.404958430545e+02 5.152664707254e+00 0.0 
5.152664707254e+00 -3.215057445668e+02 0.0 
0.0 0.0 -1.382004762864e+02 
-1.329757805094e+02 4.756828662281e+00 0.0 
4.756828662281e+00 -3.020199922855e+02 0.0 
0.0 0.0 -1.300987318385e+02 
-1.366788991956e+02 5.348284569486e+00 0.0 
5.348284569486e+00 -3.115850545536e+02 0.0 
0.0 0.0 -1.340791861248e+02 
-1.440849245480e+02 5.667491440525e+00 0.0 
5.667491440525e+00 -3.310379205681e+02 0.0 
0.0 0.0 -1.421368535348e+02 
-1.406187788890e+02 5.885943903442e+00 0.0 
5.885943903442e+00 -3.218407258989e+02 0.0 
0.0 0.0 -1.383378514364e+02 
-1.492527643960e+02 6.404608052713e+00 0.0 
6.404608052713e+00 -3.446037609152e+02 0.0 
0.0 0.0 -1.477569575934e+02 
-1.441312631209e+02 6.491315204407e+00 0.0 
6.491315204407e+00 -3.315084230900e+02 0.0 
0.0 0.0 -1.422919058633e+02 
-1.362867556414e+02 6.026946837350e+00 0.0 
6.026946837350e+00 -3.113327850902e+02 0.0 
0.0 0.0 -1.338858622195e+02 
-1.396128646574e+02 6.523124559734e+00 0.0 
6.523124559734e+00 -3.206772099820e+02 0.0 
0.0 0.0 -1.376870223918e+02 
-1.469023887872e+02 6.936665011072e+00 0.0 
6.936665011072e+00 -3.392879994353e+02 0.0 
0.0 0.0 -1.454571164668e+02 
-1.319705846625e+02 6.226301980589e+00 0.0 
6.226301980589e+00 -3.010182457401e+02 0.0 
0.0 0.0 -1.294966491208e+02 
-1.576950233672e+02 5.912914801575e+00 0.0 
5.912914801575e+00 -3.755274807301e+02 0.0 
0.0 0.0 -1.595667512292e+02 
-7.861297515991e+01 1.200680006121e+01 0.0 
1.200680006121e+01 -1.955377738718e+02 0.0 
0.0 0.0 -8.184522470953e+01 
-2.967039418894e+01 1.202997015091e+01 0.0 
1.202997015091e+01 -1.204379243330e+02 0.0 
0.0 0.0 -4.696618853002e+01 
-3.296789307116e+01 2.876783836348e+01 0.0 
2.876783836348e+01 -9.338126002347e+01 0.0 
0.0 0.0 -3.866080500608e+01 
-9.209917611357e+01 7.683702535610e+00 0.0 
7.683702535610e+00 -2.057932457952e+02 0.0 
0.0 0.0 -8.896772657263e+01 
-1.563433340120e+02 6.568756840971e+00 0.0 
6.568756840971e+00 -3.636870782780e+02 0.0 
0.0 0.0 -1.556091236870e+02 
-1.557442088060e+02 5.581938727449e+00 0.0 
5.581938727449e+00 -3.620632398686e+02 0.0 
0.0 0.0 -1.549422346024e+02 
-5.465725941604e+01 1.451089094743e+01 0.0 
1.451089094743e+01 -1.599656950869e+02 0.0 
0.0 0.0 -6.398688635088e+01 
-1.594347455594e+02 8.327550699332e+00 0.0 
8.327550699332e+00 -3.723502557266e+02 0.0 
0.0 0.0 -1.591355003858e+02 
-9.744775548268e+01 4.334937576367e+00 0.0 
4.334937576367e+00 -2.139756479203e+02 0.0 
0.0 0.0 -9.302702102090e+01 
-3.721929506770e+01 1.321678669951e+01 0.0 
1.321678669951e+01 -1.394029855088e+02 0.0 
0.0 0.0 -5.301940186329e+01 
-1.606698212283e+02 8.509010050712e+00 0.0 
8.509010050712e+00 -3.764076557576e+02 0.0 
0.0 0.0 -1.607232430958e+02 
-1.292484819061e+02 4.181810869580e+00 0.0 
4.181810869580e+00 -2.924255426004e+02 0.0 
0.0 0.0 -1.261022073519e+02 
-1.252087419654e+02 4.361308572321e+00 0.0 
4.361308572321e+00 -2.821676310015e+02 0.0 
0.0 0.0 -1.218129118901e+02 
-1.214610659502e+02 3.785770625353e+00 0.0 
3.785770625353e+00 -2.727050076653e+02 0.0 
0.0 0.0 -1.178498220846e+02 
-1.555456853233e+02 4.772962212973e+00 0.0 
4.772962212973e+00 -3.616009860079e+02 0.0 
0.0 0.0 -1.547440013994e+02 
-1.096322080502e+02 1.754122858132e+00 0.0 
1.754122858132e+00 -2.453021330402e+02 0.0 
0.0 0.0 -1.060803023271e+02 
-1.630328370208e+02 7.404636477308e+00 0.0 
7.404636477308e+00 -3.845225666639e+02 0.0 
0.0 0.0 -1.638666211054e+02 
-1.068080866200e+02 5.719763734435e+00 0.0 
5.719763734435e+00 -2.751800371374e+02 0.0 
0.0 0.0 -1.141964371272e+02 
-1.031985249951e+02 6.963621724944e+00 0.0 
6.963621724944e+00 -2.652459562477e+02 0.0 
0.0 0.0 -1.101333443729e+02 
-9.463006586881e+01 7.618414162266e+00 0.0 
7.618414162266e+00 -2.472665039480e+02 0.0 
0.0 0.0 -1.021689709451e+02 
-1.326389981617e+02 5.504719331471e+00 0.0 
5.504719331471e+00 -3.014673913891e+02 0.0 
0.0 0.0 -1.298319168652e+02 
-1.640456510924e+02 4.370291670947e+00 0.0 
4.370291670947e+00 -3.888507456473e+02 0.0 
0.0 0.0 -1.654689190219e+02 
-1.559479564364e+02 3.710415959641e+00 0.0 
3.710415959641e+00 -3.740884874243e+02 0.0 
0.0 0.0 -1.586109331582e+02 
-1.562483435642e+02 2.956833198813e+00 0.0 
2.956833198813e+00 -3.745640125180e+02 0.0 
0.0 0.0 -1.588437068247e+02 
-1.472283941802e+02 3.048896509776e+00 0.0 
3.048896509776e+00 -3.577356864269e+02 0.0 
0.0 0.0 -1.510892241821e+02 
-1.647026339110e+02 2.669748008275e+00 0.0 
2.669748008275e+00 -3.901443659059e+02 0.0 
0.0 0.0 -1.660540999451e+02 
-1.581340990461e+02 7.461818033334e+00 0.0 
7.461818033334e+00 -3.682399581110e+02 0.0 
0.0 0.0 -1.575122171471e+02 
-1.588136870851e+02 7.840512701058e+00 0.0 
7.840512701058e+00 -3.702638059863e+02 0.0 
0.0 0.0 -1.583232479214e+02 
-5.397475173517e+01 -1.188005803332e+01 0.0 
-1.188005803332e+01 -1.542816455767e+02 0.0 
0.0 0.0 -6.207691919358e+01 
-5.598776258885e+01 -9.074707562850e+00 0.0 
-9.074707562850e+00 -1.680819261820e+02 0.0 
0.0 0.0 -6.682090663126e+01 
-6.353998224279e+01 -7.208418705233e+00 0.0 
-7.208418705233e+00 -1.845561188313e+02 0.0 
0.0 0.0 -7.402883032221e+01 
-5.860843883563e+01 -5.640540309533e+00 0.0 
-5.640540309533e+00 -1.801344276719e+02 0.0 
0.0 0.0 -7.122285995227e+01 
-5.081728887572e+01 -7.351252333629e+00 0.0 
-7.351252333629e+00 -1.646555442823e+02 0.0 
0.0 0.0 -6.424184994741e+01 
-5.372462522562e+01 -3.045098103344e+00 0.0 
-3.045098103344e+00 -1.753471731096e+02 0.0 
0.0 0.0 -6.832153950056e+01 
-6.191840663482e+01 -2.094933044521e+00 0.0 
-2.094933044521e+00 -1.904384630893e+02 0.0 
0.0 0.0 -7.530706091723e+01 
-4.918421004229e+01 7.141377985709e-01 0.0 
7.141377985709e-01 -1.696981789396e+02 0.0 
0.0 0.0 -6.526471669456e+01 
-1.390921638387e+02 7.077734386832e+00 0.0 
7.077734386832e+00 -3.206023860380e+02 0.0 
0.0 0.0 -1.375083649630e+02 
-1.652990029144e+02 1.077992705245e+00 0.0 
1.077992705245e+00 -3.907823403155e+02 0.0 
0.0 0.0 -1.664244029690e+02 
-1.102405652207e+02 -3.345234280455e+00 0.0 
-3.345234280455e+00 -2.736706134184e+02 0.0 
0.0 0.0 -1.147733535917e+02 
-1.055692746363e+02 -3.285379317495e+00 0.0 
-3.285379317495e+00 -2.665549235762e+02 0.0 
0.0 0.0 -1.112372594637e+02 
-9.709721968474e+01 -4.295289029453e+00 0.0 
-4.295289029453e+00 -2.481145761248e+02 0.0 
0.0 0.0 -1.031635387429e+02 
-8.649422809499e+01 -4.728348342090e+00 0.0 
-4.728348342090e+00 -1.992115282905e+02 0.0 
0.0 0.0 -8.531172691566e+01 
-9.066888356536e+01 -5.084117343081e+00 0.0 
-5.084117343081e+00 -2.117759702994e+02 0.0 
0.0 0.0 -9.033345615943e+01 
-9.874942471653e+01 -4.484622119125e+00 0.0 
-4.484622119125e+00 -2.316140442532e+02 0.0 
0.0 0.0 -9.870904069093e+01 
-8.209103224076e+01 -4.193581688730e+00 0.0 
-4.193581688730e+00 -1.867360243758e+02 0.0 
0.0 0.0 -8.024811698496e+01 
-1.200318259176e+02 8.230942658928e+00 0.0 
8.230942658928e+00 -2.867977932587e+02 0.0 
0.0 0.0 -1.216488857529e+02 
-1.652955106811e+02 4.932882819855e-01 0.0 
4.932882819855e-01 -3.903072435277e+02 0.0 
0.0 0.0 -1.662808262627e+02 
-1.048932295718e+02 6.904446987043e-01 0.0 
6.904446987043e-01 -2.738083830653e+02 0.0 
0.0 0.0 -1.132104837911e+02 
-8.666386943666e+01 -5.938105464579e+00 0.0 
-5.938105464579e+00 -2.045395136601e+02 0.0 
0.0 0.0 -8.696101492904e+01 
-8.867686158416e+01 1.211548735319e+00 0.0 
1.211548735319e+00 -1.946173119138e+02 0.0 
0.0 0.0 -8.458825204940e+01 
-9.625478825898e+01 1.634921748725e+00 0.0 
1.634921748725e+00 -2.120676595131e+02 0.0 
0.0 0.0 -9.209673433164e+01 
-9.680408595731e+01 2.113338403447e+00 0.0 
2.113338403447e+00 -2.127953714626e+02 0.0 
0.0 0.0 -9.247983722597e+01 
-1.045518101634e+02 2.341399881515e+00 0.0 
2.341399881515e+00 -2.312823049497e+02 0.0 
0.0 0.0 -1.003502345339e+02 
-9.666407532864e+01 1.540866108491e+00 0.0 
1.540866108491e+00 -2.134477660784e+02 0.0 
0.0 0.0 -9.263355242210e+01 
-1.023863554557e+02 -2.842071594920e+00 0.0 
-2.842071594920e+00 -2.346417583488e+02 0.0 
0.0 0.0 -1.007084341414e+02 
-1.061976694434e+02 -2.200499790290e+00 0.0 
-2.200499790290e+00 -2.426233719990e+02 0.0 
0.0 0.0 -1.042463124327e+02 
-1.018038217820e+02 -1.834870823284e+00 0.0 
-1.834870823284e+00 -2.310705924265e+02 0.0 
0.0 0.0 -9.946232426255e+01 
-1.099871319989e+02 -1.604333616900e+00 0.0 
-1.604333616900e+00 -2.507395964620e+02 0.0 
0.0 0.0 -1.078180185383e+02 
-1.053993120385e+02 -1.191233479857e+00 0.0 
-1.191233479857e+00 -2.389152962862e+02 0.0 
0.0 0.0 -1.028943824974e+02 
-9.780493904821e+01 -1.346521200179e+00 0.0 
-1.346521200179e+00 -2.206236261766e+02 0.0 
0.0 0.0 -9.512856956744e+01 
-1.136209156962e+02 -1.015060703511e+00 0.0 
-1.015060703511e+00 -2.586090900406e+02 0.0 
0.0 0.0 -1.112690017210e+02 
-1.083794555570e+02 -7.412861309109e-01 0.0 
-7.412861309109e-01 -2.456526455661e+02 0.0 
0.0 0.0 -1.058096303369e+02 
-8.796195076854e+01 8.080049228798e-01 0.0 
8.080049228798e-01 -1.938492853807e+02 0.0 
0.0 0.0 -8.414337084478e+01 
-3.629899069820e+01 -2.078415375620e+01 0.0 
-2.078415375620e+01 -4.800066227408e+01 0.0 
0.0 0.0 -2.563861381949e+01 
-3.629518666558e+01 -2.222920430727e+01 0.0 
-2.222920430727e+01 -5.740829116198e+01 0.0 
0.0 0.0 -2.779728601366e+01 
-3.060836831574e+01 -1.397866509224e+01 0.0 
-1.397866509224e+01 -4.291848734086e+01 0.0 
0.0 0.0 -2.106702378843e+01 
-3.856554157474e+01 -2.012052095540e+01 0.0 
-2.012052095540e+01 -7.045402348612e+01 0.0 
0.0 0.0 -3.157542698237e+01 
-3.681567395562e+01 -2.341703453357e+01 0.0 
-2.341703453357e+01 -8.821499785042e+01 0.0 
0.0 0.0 -3.725600635340e+01 
-4.077339705378e+01 -1.999593447490e+01 0.0 
-1.999593447490e+01 -9.875615520003e+01 0.0 
0.0 0.0 -4.077482852020e+01 
-3.640538092669e+01 -2.029662716285e+01 0.0 
-2.029662716285e+01 -1.100757960579e+02 0.0 
0.0 0.0 -4.374875057811e+01 
-3.699434835558e+01 -2.570920954974e+01 0.0 
-2.570920954974e+01 -8.456048353331e+01 0.0 
0.0 0.0 -3.704983499914e+01 
-1.513440103737e+01 -4.823643252476e+00 0.0 
-4.823643252476e+00 -1.964454231374e+01 0.0 
0.0 0.0 -1.013720790191e+01 
-2.490583343398e+01 -8.169020058229e+00 0.0 
-8.169020058229e+00 -3.777716234950e+01 0.0 
0.0 0.0 -1.775998688573e+01 
-9.915971219114e+00 -2.168519391809e+00 0.0 
-2.168519391809e+00 -1.767636857527e+01 0.0 
0.0 0.0 -7.760520378683e+00 
-2.011372608735e+01 -4.516901094830e+00 0.0 
-4.516901094830e+00 -3.494236341334e+01 0.0 
0.0 0.0 -1.581933001830e+01 
-3.364668058291e+01 -9.542185252168e+00 0.0 
-9.542185252168e+00 -5.815897687355e+01 0.0 
0.0 0.0 -2.590283053270e+01 
-3.944618159574e+01 -5.784793596363e+00 0.0 
-5.784793596363e+00 -8.173444993235e+01 0.0 
0.0 0.0 -3.594025841657e+01 
-1.634455101447e+02 -1.014483469738e+00 0.0 
-1.014483469738e+00 -3.816082013049e+02 0.0 
0.0 0.0 -1.631161134349e+02 
-8.466916088043e+01 -5.737463576817e-01 0.0 
-5.737463576817e-01 -1.893804315235e+02 0.0 
0.0 0.0 -8.181487772117e+01 
-8.042712894090e+01 -1.176417632531e+00 0.0 
-1.176417632531e+00 -1.798170750776e+02 0.0 
0.0 0.0 -7.767326120556e+01 
-7.212942586774e+01 -1.132038870622e+00 0.0 
-1.132038870622e+00 -1.603933086622e+02 0.0 
0.0 0.0 -6.935682035899e+01 
-7.664964883947e+01 -1.677681853423e+00 0.0 
-1.677681853423e+00 -1.711975282055e+02 0.0 
0.0 0.0 -7.395415311348e+01 
-8.797723271928e+01 -1.147518556062e+00 0.0 
-1.147518556062e+00 -1.975067440680e+02 0.0 
0.0 0.0 -8.524519303618e+01 
-6.732204456011e+01 -5.561908503252e-01 0.0 
-5.561908503252e-01 -1.495820384721e+02 0.0 
0.0 0.0 -6.467122490968e+01 
-6.413355477622e+01 -1.066270861697e+00 0.0 
-1.066270861697e+00 -1.425120566896e+02 0.0 
0.0 0.0 -6.159368343975e+01 
-3.645331229299e+00 -4.209088396000e-03 0.0 
-4.209088396000e-03 -1.711330492738e+01 0.0 
0.0 0.0 -5.466684136642e+00 
-1.044325740464e+01 -2.643115688065e-02 0.0 
-2.643115688065e-02 -3.362614122019e+01 0.0 
0.0 0.0 -1.273849573232e+01 
-9.741763560959e+00 -7.107527870933e-02 0.0 
-7.107527870933e-02 -3.199380069974e+01 0.0 
0.0 0.0 -1.194477720285e+01 
-1.888305628270e+01 -2.205859816801e-01 0.0 
-2.205859816801e-01 -5.032262172430e+01 0.0 
0.0 0.0 -2.036170340210e+01 
-1.902032098274e+01 -2.534799659514e-01 0.0 
-2.534799659514e-01 -4.999113534179e+01 0.0 
0.0 0.0 -2.030343689736e+01 
-1.080194280396e+01 -1.222090231326e-01 0.0 
-1.222090231326e-01 -3.392902001102e+01 0.0 
0.0 0.0 -1.296390485516e+01 
-1.102760657018e+01 -1.828806079683e-01 0.0 
-1.828806079683e-01 -3.394339445411e+01 0.0 
0.0 0.0 -1.306868825694e+01 
-3.736135744571e+00 -2.362338315799e-02 0.0 
-2.362338315799e-02 -1.698195717166e+01 0.0 
0.0 0.0 -5.537586940686e+00 
-1.127446509761e+01 -1.776037821312e-01 0.0 
-1.776037821312e-01 -3.378551608759e+01 0.0 
0.0 0.0 -1.317723575524e+01 
-2.025052185600e+01 -6.379405972204e-01 0.0 
-6.379405972204e-01 -5.085330603630e+01 0.0 
0.0 0.0 -2.093114836769e+01 
-3.650267416841e+00 -3.419303641534e-03 0.0 
-3.419303641534e-03 -1.642021620299e+01 0.0 
0.0 0.0 -5.434032944044e+00 
-1.243743523033e+02 2.726913468091e-01 0.0 
2.726913468091e-01 -2.846783195705e+02 0.0 
0.0 0.0 -1.223158015621e+02 
-1.286658669300e+02 4.330456310191e-01 0.0 
4.330456310191e-01 -2.954213221704e+02 0.0 
0.0 0.0 -1.268261567301e+02 
-1.647402448468e+02 -5.459527537779e-01 0.0 
-5.459527537779e-01 -3.882056691015e+02 0.0 
0.0 0.0 -1.654837741845e+02 
-8.827716920752e+01 5.899260933905e-01 0.0 
5.899260933905e-01 -1.956443373318e+02 0.0 
0.0 0.0 -8.477645196181e+01 
-5.850885294942e+00 -5.012601767094e-01 0.0 
-5.012601767094e-01 -1.741360875524e+01 0.0 
0.0 0.0 -6.829456384634e+00 
-1.520670220999e+02 1.258016956612e+00 0.0 
1.258016956612e+00 -3.542169330249e+02 0.0 
0.0 0.0 -1.514851865374e+02 
-1.537714945820e+02 2.302736368295e+00 0.0 
2.302736368295e+00 -3.580179326516e+02 0.0 
0.0 0.0 -1.531368281701e+02 
-1.537995025823e+02 1.888629994813e+00 0.0 
1.888629994813e+00 -3.581484843401e+02 0.0 
0.0 0.0 -1.531843960767e+02 
-1.510669719115e+02 -3.043758073939e-01 0.0 
-3.043758073939e-01 -3.497649079967e+02 0.0 
0.0 0.0 -1.498495639725e+02 
-1.551145521411e+02 -5.122909862579e-01 0.0 
-5.122909862579e-01 -3.598394113412e+02 0.0 
0.0 0.0 -1.540861890447e+02 
-1.521002066691e+02 6.865936939605e-01 0.0 
6.865936939605e-01 -3.545837594538e+02 0.0 
0.0 0.0 -1.516051898369e+02 
-5.866783706312e+01 -6.247664973480e+00 0.0 
-6.247664973480e+00 -1.305273541348e+02 0.0 
0.0 0.0 -5.635855735938e+01 
-1.478948161417e+02 5.543425071423e+00 0.0 
5.543425071423e+00 -3.404736805540e+02 0.0 
0.0 0.0 -1.461105490087e+02 
-1.387524276729e+02 1.245025437371e+00 0.0 
1.245025437371e+00 -3.200261440873e+02 0.0 
0.0 0.0 -1.372335715281e+02 
-3.751662128060e+01 1.918878089859e+01 0.0 
1.918878089859e+01 -1.258262722011e+02 0.0 
0.0 0.0 -4.887348319191e+01 
-5.712884613455e+01 -1.023306897775e+01 0.0 
-1.023306897775e+01 -1.324519955739e+02 0.0 
0.0 0.0 -5.647425251254e+01 
-1.263464112286e+02 -1.189351059372e+00 0.0 
-1.189351059372e+00 -2.901583922611e+02 0.0 
0.0 0.0 -1.245514410469e+02 
-1.150811990478e+02 -3.263427735130e+00 0.0 
-3.263427735130e+00 -2.707834651209e+02 0.0 
0.0 0.0 -1.153593992506e+02 
-1.433353080213e+02 -1.289140794522e+00 0.0 
-1.289140794522e+00 -3.329917097263e+02 0.0 
0.0 0.0 -1.424981053243e+02 
-1.186890440229e+02 -2.161692838570e+00 0.0 
-2.161692838570e+00 -2.739562602631e+02 0.0 
0.0 0.0 -1.173935912858e+02 
-1.357635769872e+02 -1.881158813055e+00 0.0 
-1.881158813055e+00 -3.174615563660e+02 0.0 
0.0 0.0 -1.355675400060e+02 
-1.558490724590e+02 1.890782506485e+00 0.0 
1.890782506485e+00 -3.735776159610e+02 0.0 
0.0 0.0 -1.584280065260e+02 
-3.424211874786e+01 -7.877816839745e-01 0.0 
-7.877816839745e-01 -7.912244426286e+01 0.0 
0.0 0.0 -3.360936890321e+01 
-1.102134731604e+02 1.018896609421e+00 0.0 
1.018896609421e+00 -2.483359311809e+02 0.0 
0.0 0.0 -1.071648213024e+02 
-1.067646951797e+02 5.369802744470e-01 0.0 
5.369802744470e-01 -2.409891528719e+02 0.0 
0.0 0.0 -1.039261544155e+02 
-1.267571237419e+02 1.198772618109e+00 0.0 
1.198772618109e+00 -2.895728450545e+02 0.0 
0.0 0.0 -1.244989906389e+02 
-6.028314775400e+01 -3.388040292086e+00 0.0 
-3.388040292086e+00 -1.337471694510e+02 0.0 
0.0 0.0 -5.780909516151e+01 
-9.380276999177e+01 -1.963693763275e+00 0.0 
-1.963693763275e+00 -2.118313788422e+02 0.0 
0.0 0.0 -9.129024465018e+01 
-3.869092648339e+01 -2.829310119747e+00 0.0 
-2.829310119747e+00 -8.483717364895e+01 0.0 
0.0 0.0 -3.665843003970e+01 
-1.537907073694e+02 8.105443772660e+00 0.0 
8.105443772660e+00 -3.599817389899e+02 0.0 
0.0 0.0 -1.537317339078e+02 
-9.295178956872e+01 6.113841931179e+00 0.0 
6.113841931179e+00 -2.047495080969e+02 0.0 
0.0 0.0 -8.891038929968e+01 
-9.344450316902e+01 -5.383421544549e+00 0.0 
-5.383421544549e+00 -2.360999269703e+02 0.0 
0.0 0.0 -9.846332904178e+01 
-7.837674156134e+01 -5.072222227968e+00 0.0 
-5.072222227968e+00 -1.789944690104e+02 0.0 
0.0 0.0 -7.681136317151e+01 
-6.331911313017e+01 -7.434492316532e+00 0.0 
-7.434492316532e+00 -1.440705353814e+02 0.0 
0.0 0.0 -6.181689455348e+01 
-5.383617144766e+01 -1.194964260503e+01 0.0 
-1.194964260503e+01 -1.272000817339e+02 0.0 
0.0 0.0 -5.391087595447e+01 
-8.389456499329e+01 1.126668459170e+01 0.0 
1.126668459170e+01 -2.031500268730e+02 0.0 
0.0 0.0 -8.571337755989e+01 
-9.050651954942e+01 -5.969473320474e+00 0.0 
-5.969473320474e+00 -2.173526860119e+02 0.0 
0.0 0.0 -9.195776166841e+01 
-1.277356286850e+02 -2.382361539069e+00 0.0 
-2.382361539069e+00 -3.070021685010e+02 0.0 
0.0 0.0 -1.300213391558e+02 
-1.309513730455e+02 1.102489816273e+00 0.0 
1.102489816273e+00 -3.003481730647e+02 0.0 
0.0 0.0 -1.289898638331e+02 
-5.260672715837e+00 -1.120743125365e-01 0.0 
-1.120743125365e-01 -1.905644287548e+01 0.0 
0.0 0.0 -6.762932486538e+00 
-1.321133672375e+02 -1.842239548736e+00 0.0 
-1.842239548736e+00 -3.188000359173e+02 0.0 
0.0 0.0 -1.348740209464e+02 
-1.067234025818e+02 -4.279362502722e+00 0.0 
-4.279362502722e+00 -2.563208431452e+02 0.0 
0.0 0.0 -1.085132737181e+02 
-1.138710583591e+02 1.714602539944e+00 0.0 
1.714602539944e+00 -2.560263293536e+02 0.0 
0.0 0.0 -1.105692163138e+02 
-1.286715681532e+02 4.317925789010e+00 0.0 
4.317925789010e+00 -3.206798119954e+02 0.0 
0.0 0.0 -1.344054140446e+02 
-4.451363588863e+01 -1.737321742217e+01 0.0 
-1.737321742217e+01 -1.003363444026e+02 0.0 
0.0 0.0 -4.181991273953e+01 
-1.300897741707e+02 1.927943885339e+00 0.0 
1.927943885339e+00 -2.969596734549e+02 0.0 
0.0 0.0 -1.277148342877e+02 
-1.443192225166e+02 3.596006647244e+00 0.0 
3.596006647244e+00 -3.323948234813e+02 0.0 
0.0 0.0 -1.426142137994e+02 
-1.055173555806e+02 1.901777340768e+00 0.0 
1.901777340768e+00 -2.347477405548e+02 0.0 
0.0 0.0 -1.016795288406e+02 
-2.884138154820e+01 -1.892377256333e+00 0.0 
-1.892377256333e+00 -6.470497591712e+01 0.0 
0.0 0.0 -2.766390723959e+01 
-1.017885183298e+02 7.545970099743e-01 0.0 
7.545970099743e-01 -2.283096523875e+02 0.0 
0.0 0.0 -9.862945121520e+01 
-1.505726134557e+02 -1.346657677915e-01 0.0 
-1.346657677915e-01 -3.606531993500e+02 0.0 
0.0 0.0 -1.529677438417e+02 
-1.293918205300e+02 3.549796794081e+00 0.0 
3.549796794081e+00 -2.931584902058e+02 0.0 
0.0 0.0 -1.263650932207e+02 
-5.496767659878e+01 -2.450657012812e+00 0.0 
-2.450657012812e+00 -1.217450344007e+02 0.0 
0.0 0.0 -5.261381329985e+01 
-9.183074310499e+01 1.706518776477e+00 0.0 
1.706518776477e+00 -2.486978401914e+02 0.0 
0.0 0.0 -1.017585749889e+02 
-9.078247469091e+01 9.260978451338e+00 0.0 
9.260978451338e+00 -2.077922778556e+02 0.0 
0.0 0.0 -8.917242576394e+01 
-8.228364689650e+01 2.447392633992e+00 0.0 
2.447392633992e+00 -1.773263051496e+02 0.0 
0.0 0.0 -7.748298561382e+01 
-1.420860804893e+02 1.518230354707e+00 0.0 
1.518230354707e+00 -3.284977424779e+02 0.0 
0.0 0.0 -1.407751468901e+02 
-9.682766490065e+01 9.176002477722e+00 0.0 
9.176002477722e+00 -2.442101385360e+02 0.0 
0.0 0.0 -1.019113410310e+02 
-1.371672035521e+02 2.731845307447e+00 0.0 
2.731845307447e+00 -3.381413699115e+02 0.0 
0.0 0.0 -1.421925720391e+02 
-1.096155117594e+02 2.100175081311e+00 0.0 
2.100175081311e+00 -2.837022528271e+02 0.0 
0.0 0.0 -1.175953293760e+02 
-5.869285194695e+01 -1.975239301827e+00 0.0 
-1.975239301827e+00 -1.303383161546e+02 0.0 
0.0 0.0 -5.630935043045e+01 
-1.405835695979e+02 -1.706634436561e+00 0.0 
-1.706634436561e+00 -3.335811389987e+02 0.0 
0.0 0.0 -1.418494125790e+02 
-8.939065065709e+01 6.733108714949e+00 0.0 
6.733108714949e+00 -2.396701189134e+02 0.0 
0.0 0.0 -9.831823087114e+01 
-1.379047480631e+02 2.211928869197e+00 0.0 
2.211928869197e+00 -3.167050172157e+02 0.0 
0.0 0.0 -1.359829295837e+02 
-1.261570953508e+02 7.752155259584e+00 0.0 
7.752155259584e+00 -2.935753111309e+02 0.0 
0.0 0.0 -1.255197219445e+02 
-7.055262670307e+01 3.886608910921e+00 0.0 
3.886608910921e+00 -2.074784924891e+02 0.0 
0.0 0.0 -8.300933575766e+01 
-1.335231963562e+02 2.867332347099e+00 0.0 
2.867332347099e+00 -3.045392469710e+02 0.0 
0.0 0.0 -1.310187329982e+02 
-9.240778393322e+01 -4.014852286275e+00 0.0 
-4.014852286275e+00 -2.415591171169e+02 0.0 
0.0 0.0 -9.979007031504e+01 
-1.338583559054e+02 5.085931633251e+00 0.0 
5.085931633251e+00 -3.299639253868e+02 0.0 
0.0 0.0 -1.387466843877e+02 
-8.879019974070e+01 6.787268172582e+00 0.0 
6.787268172582e+00 -1.954994748054e+02 0.0 
0.0 0.0 -8.488690236382e+01 
-1.105031950238e+02 8.041942710555e+00 0.0 
8.041942710555e+00 -2.550475654625e+02 0.0 
0.0 0.0 -1.092652281459e+02 
-1.200634141952e+02 6.242913540135e+00 0.0 
6.242913540135e+00 -2.718906313453e+02 0.0 
0.0 0.0 -1.171862136622e+02 
-1.041438885743e+02 9.197730753859e+00 0.0 
9.197730753859e+00 -2.489836043588e+02 0.0 
0.0 0.0 -1.055382478799e+02 
-1.219335633482e+02 -9.412833687870e-01 0.0 
-9.412833687870e-01 -2.788005711883e+02 0.0 
0.0 0.0 -1.198202403610e+02 
-1.364013913038e+02 -1.809163497288e+00 0.0 
-1.809163497288e+00 -3.261722354389e+02 0.0 
0.0 0.0 -1.383720880228e+02 
-3.333121129546e+01 -7.049571343012e+00 0.0 
-7.049571343012e+00 -1.361532856789e+02 0.0 
0.0 0.0 -5.159445492981e+01 
-6.933707150094e+01 1.317758868834e+01 0.0 
1.317758868834e+01 -1.640232293596e+02 0.0 
0.0 0.0 -6.960809025815e+01 
-1.137716664398e+02 2.201927999245e+00 0.0 
2.201927999245e+00 -2.547437308775e+02 0.0 
0.0 0.0 -1.101546191952e+02 
-1.409535304992e+02 7.830117198987e+00 0.0 
7.830117198987e+00 -3.329001935979e+02 0.0 
0.0 0.0 -1.417561172291e+02 
-1.455789903455e+02 2.418687215241e+00 0.0 
2.418687215241e+00 -3.362513373175e+02 0.0 
0.0 0.0 -1.441490982989e+02 
-8.333400766145e+01 9.530696284371e+00 0.0 
9.530696284371e+00 -1.882174653333e+02 0.0 
0.0 0.0 -8.106544189843e+01 
-1.361264973833e+02 -1.995253992090e+00 0.0 
-1.995253992090e+00 -3.217151442230e+02 0.0 
0.0 0.0 -1.369524924819e+02 
-1.409494601539e+02 3.160125501511e+00 0.0 
3.160125501511e+00 -3.237653847999e+02 0.0 
0.0 0.0 -1.390144534862e+02 
-9.466060229976e+01 -5.222207024998e+00 0.0 
-5.222207024998e+00 -2.243430245023e+02 0.0 
0.0 0.0 -9.530108804060e+01 
-3.951188884377e+01 -2.944060973208e-01 0.0 
-2.944060973208e-01 -9.063797055203e+01 0.0 
0.0 0.0 -3.864495781874e+01 
-3.493382519131e+01 2.327910461719e+01 0.0 
2.327910461719e+01 -1.105468030578e+02 0.0 
0.0 0.0 -4.363639006618e+01 
-5.369827406397e+01 4.800165779078e+00 0.0 
4.800165779078e+00 -1.767010499786e+02 0.0 
0.0 0.0 -6.871979721277e+01 
-9.157213788151e+01 8.981873201820e+00 0.0 
8.981873201820e+00 -2.367984467771e+02 0.0 
0.0 0.0 -9.811117539759e+01 
-1.027563119765e+02 -4.486608938709e+00 0.0 
-4.486608938709e+00 -2.439715915932e+02 0.0 
0.0 0.0 -1.036183710709e+02 
-1.488535544955e+02 4.922563956043e+00 0.0 
4.922563956043e+00 -3.436629388197e+02 0.0 
0.0 0.0 -1.473549479945e+02 
-1.401684599092e+02 -1.785686146861e+00 0.0 
-1.785686146861e+00 -3.292354747467e+02 0.0 
0.0 0.0 -1.404211803968e+02 
-1.276187382257e+02 -6.887767688744e-01 0.0 
-6.887767688744e-01 -3.153378316354e+02 0.0 
0.0 0.0 -1.324869709583e+02 
-3.369777336710e+01 2.231110558512e+01 0.0 
2.231110558512e+01 -4.038699640102e+01 0.0 
0.0 0.0 -2.152286460613e+01 
-8.598034635759e+01 3.100931621694e+00 0.0 
3.100931621694e+00 -1.859529132185e+02 0.0 
0.0 0.0 -8.117997787282e+01 
-1.441124017256e+02 -1.558886870935e+00 0.0 
-1.558886870935e+00 -3.369570369946e+02 0.0 
0.0 0.0 -1.439208316161e+02 
-9.605106553696e+01 2.663103427909e-01 0.0 
2.663103427909e-01 -2.562863716309e+02 0.0 
0.0 0.0 -1.053012311504e+02 
-1.377870055477e+02 4.326317050287e+00 0.0 
4.326317050287e+00 -3.386929178772e+02 0.0 
0.0 0.0 -1.425439770275e+02 
-1.005500704268e+02 -8.547106724542e-01 0.0 
-8.547106724542e-01 -2.267079769579e+02 0.0 
0.0 0.0 -9.777741421540e+01 
-1.539526893505e+02 8.131651695846e+00 0.0 
8.131651695846e+00 -3.615355616060e+02 0.0 
0.0 0.0 -1.542464752869e+02 
-6.990599806088e+01 4.835354810935e+00 0.0 
4.835354810935e+00 -1.475444333251e+02 0.0 
0.0 0.0 -6.483512941580e+01 
-1.480016667961e+02 -1.340219415858e+00 0.0 
-1.340219415858e+00 -3.451129045409e+02 0.0 
0.0 0.0 -1.475343714011e+02 
-1.275507501573e+02 7.369101260865e-01 0.0 
7.369101260865e-01 -3.180769613616e+02 0.0 
0.0 0.0 -1.332883134557e+02 
-6.028931582445e+01 1.463714887123e+01 0.0 
1.463714887123e+01 -1.642743778518e+02 0.0 
0.0 0.0 -6.696910810288e+01 
-8.611635677569e+01 5.122321319202e-02 0.0 
5.122321319202e-02 -1.927342522939e+02 0.0 
0.0 0.0 -8.325518272089e+01 
-1.573576384674e+02 -1.255251071989e+00 0.0 
-1.255251071989e+00 -3.673790587215e+02 0.0 
0.0 0.0 -1.570210091567e+02 
-1.369926872772e+02 1.185979170836e+00 0.0 
1.185979170836e+00 -3.368438021163e+02 0.0 
0.0 0.0 -1.417509468180e+02 
-1.120072213428e+02 8.667850164854e+00 0.0 
8.667850164854e+00 -2.678836489509e+02 0.0 
0.0 0.0 -1.135672610881e+02 
-9.173345043161e+01 -1.526932424827e+00 0.0 
-1.526932424827e+00 -2.460382911302e+02 0.0 
0.0 0.0 -1.009315224685e+02 
-7.416114266363e+01 2.916772289489e+00 0.0 
2.916772289489e+00 -1.579621274929e+02 0.0 
0.0 0.0 -6.923698104696e+01 
-1.068769486233e+02 -3.865450609643e+00 0.0 
-3.865450609643e+00 -2.512402673741e+02 0.0 
0.0 0.0 -1.070351647992e+02 
-1.149595710075e+02 7.551509433770e+00 0.0 
7.551509433770e+00 -2.638398296368e+02 0.0 
0.0 0.0 -1.132398201933e+02 
-1.552963813183e+02 4.278305623251e+00 0.0 
4.278305623251e+00 -3.612095850487e+02 0.0 
0.0 0.0 -1.545517899101e+02 
-1.415060953834e+02 2.114955180318e+00 0.0 
2.114955180318e+00 -3.462969691048e+02 0.0 
0.0 0.0 -1.459409193464e+02 
-1.173618880076e+02 3.976181912792e+00 0.0 
3.976181912792e+00 -2.624283088190e+02 0.0 
0.0 0.0 -1.135370590480e+02 
-1.027388490673e+02 -3.781618375087e+00 0.0 
-3.781618375087e+00 -2.389935033000e+02 0.0 
0.0 0.0 -1.021197057102e+02 
-1.169875507116e+02 6.978393578891e+00 0.0 
6.978393578891e+00 -2.915616548443e+02 0.0 
0.0 0.0 -1.221647616668e+02 
-1.946465300867e+01 -3.502841457067e-01 0.0 
-3.502841457067e-01 -5.017046321312e+01 0.0 
0.0 0.0 -2.049053486654e+01 
-7.800568985420e+01 3.801193195591e+00 0.0 
3.801193195591e+00 -1.668559205432e+02 0.0 
0.0 0.0 -7.305848311921e+01 
-1.066579839972e+02 -3.117195960957e+00 0.0 
-3.117195960957e+00 -2.465641634649e+02 0.0 
0.0 0.0 -1.055666442386e+02 
-5.751643381659e+01 9.474349589823e-01 0.0 
9.474349589823e-01 -1.841510082531e+02 0.0 
0.0 0.0 -7.210023262089e+01 
-9.625406086542e+01 -2.451499850717e+00 0.0 
-2.451499850717e+00 -2.527627891806e+02 0.0 
0.0 0.0 -1.043050550138e+02 
-1.530775429974e+02 6.379267870763e+00 0.0 
6.379267870763e+00 -3.659113186388e+02 0.0 
0.0 0.0 -1.552966584909e+02 
-1.105322415393e+02 -2.502984265092e+00 0.0 
-2.502984265092e+00 -2.543495797911e+02 0.0 
0.0 0.0 -1.090645463991e+02 
-6.594087392660e+01 1.154197355721e+00 0.0 
1.154197355721e+00 -1.994079999547e+02 0.0 
0.0 0.0 -7.920466216440e+01 
-1.143488596226e+02 -1.936561434376e+00 0.0 
-1.936561434376e+00 -2.622806262282e+02 0.0 
0.0 0.0 -1.125888457552e+02 
-6.612771839055e+01 3.626253242889e+00 0.0 
3.626253242889e+00 -1.387096872893e+02 0.0 
0.0 0.0 -6.105122170395e+01 
-1.211265096800e+02 4.573998504954e+00 0.0 
4.573998504954e+00 -2.720068996296e+02 0.0 
0.0 0.0 -1.175400227929e+02 
-1.181370377352e+02 -1.387717107896e+00 0.0 
-1.387717107896e+00 -2.703010006257e+02 0.0 
0.0 0.0 -1.161314115083e+02 
-1.227324192611e+02 7.499316983374e+00 0.0 
7.499316983374e+00 -2.831355381575e+02 0.0 
0.0 0.0 -1.213603872256e+02 
-2.167837758457e+01 -8.480820930936e-01 0.0 
-8.480820930936e-01 -5.249101354708e+01 0.0 
0.0 0.0 -2.185081733950e+01 
-1.150845138267e+02 8.393253434396e+00 0.0 
8.393253434396e+00 -2.784563504398e+02 0.0 
0.0 0.0 -1.176622592799e+02 
-1.467627322226e+02 -5.889694040078e-01 0.0 
-5.889694040078e-01 -3.392558507748e+02 0.0 
0.0 0.0 -1.454055748992e+02 
-7.111882499282e+01 -8.703984723094e+00 0.0 
-8.703984723094e+00 -1.719182253170e+02 0.0 
0.0 0.0 -7.251111509296e+01 
-1.008603217947e+02 -3.023083775301e+00 0.0 
-3.023083775301e+00 -2.595240448745e+02 0.0 
0.0 0.0 -1.077153100008e+02 
-1.289436332436e+02 4.951388175944e+00 0.0 
4.951388175944e+00 -2.918087512863e+02 0.0 
0.0 0.0 -1.258257153590e+02 
-5.803790738326e+01 4.722539683366e+00 0.0 
4.722539683366e+00 -1.192053797407e+02 0.0 
0.0 0.0 -5.277298613719e+01 
-1.095415135584e+02 -2.145770904532e+00 0.0 
-2.145770904532e+00 -2.777949261628e+02 0.0 
0.0 0.0 -1.158009319164e+02 
-1.305913010983e+02 7.491067337391e+00 0.0 
7.491067337391e+00 -3.024594569474e+02 0.0 
0.0 0.0 -1.295152274137e+02 
-1.183543567677e+02 7.910542219360e+00 0.0 
7.910542219360e+00 -2.889910634444e+02 0.0 
0.0 0.0 -1.218036260637e+02 
-9.983594731793e+01 8.143576625088e+00 0.0 
8.143576625088e+00 -2.548424370051e+02 0.0 
0.0 0.0 -1.060035152969e+02 
-1.184714466864e+02 -1.371281544358e+00 0.0 
-1.371281544358e+00 -2.964344604090e+02 0.0 
0.0 0.0 -1.240717721286e+02 
-6.181023919891e+01 6.268814332741e+00 0.0 
6.268814332741e+00 -1.282039481226e+02 0.0 
0.0 0.0 -5.660425619644e+01 
-5.562820844139e+01 -7.425030971093e+00 0.0 
-7.425030971093e+00 -1.234910510802e+02 0.0 
0.0 0.0 -5.333577785648e+01 
-4.781719446784e+01 -6.906497624018e+00 0.0 
-6.906497624018e+00 -1.028138877370e+02 0.0 
0.0 0.0 -4.478932466146e+01 
-7.023393784710e+01 -1.354572316454e+00 0.0 
-1.354572316454e+00 -2.060998086506e+02 0.0 
0.0 0.0 -8.250012394932e+01 
-1.349404956923e+02 7.258558597332e+00 0.0 
7.258558597332e+00 -3.115468723650e+02 0.0 
0.0 0.0 -1.335462104172e+02 
-2.750480531470e+01 -3.123861500706e-01 0.0 
-3.123861500706e-01 -6.659048088168e+01 0.0 
0.0 0.0 -2.782858585892e+01 
-1.284616628904e+02 5.716654469992e+00 0.0 
5.716654469992e+00 -2.913317157335e+02 0.0 
0.0 0.0 -1.255380135872e+02 
-3.737533367894e+01 -6.666405071529e+00 0.0 
-6.666405071529e+00 -7.470147504524e+01 0.0 
0.0 0.0 -3.310295895332e+01 
-6.659177784835e+01 -4.291677719852e+00 0.0 
-4.291677719852e+00 -1.959440846455e+02 0.0 
0.0 0.0 -7.836075874817e+01 
-1.310316887719e+02 6.987424332958e+00 0.0 
6.987424332958e+00 -3.189309223847e+02 0.0 
0.0 0.0 -1.345887833470e+02 
-1.087276819973e+02 2.917445725766e-01 0.0 
2.917445725766e-01 -2.465551698576e+02 0.0 
0.0 0.0 -1.061848555565e+02 
-7.135191853121e+01 -5.702158481905e+00 0.0 
-5.702158481905e+00 -2.011077383093e+02 0.0 
0.0 0.0 -8.133789705215e+01 
-4.913919221120e+01 -3.966546539277e-01 0.0 
-3.966546539277e-01 -1.103890401046e+02 0.0 
0.0 0.0 -4.745846969475e+01 
-6.837342176412e+01 -7.959051944493e+00 0.0 
-7.959051944493e+00 -1.890251785416e+02 0.0 
0.0 0.0 -7.681958009171e+01 
-1.082906615069e+02 7.474321980215e+00 0.0 
7.474321980215e+00 -2.730517818681e+02 0.0 
0.0 0.0 -1.140027330125e+02 
-7.307677526530e+01 -8.117254379560e+00 0.0 
-8.117254379560e+00 -1.938209514208e+02 0.0 
0.0 0.0 -7.966931800584e+01 
-7.021855471524e+01 -9.266917065124e+00 0.0 
-9.266917065124e+00 -1.805827079924e+02 0.0 
0.0 0.0 -7.484037881228e+01 
-1.463839967660e+02 1.432799053843e+00 0.0 
1.432799053843e+00 -3.395451910657e+02 0.0 
0.0 0.0 -1.453787563495e+02 
-7.447872587190e+01 -8.562148521445e+00 0.0 
-8.562148521445e+00 -1.857137185397e+02 0.0 
0.0 0.0 -7.765773332347e+01 
-1.536272849889e+02 4.675867221148e-01 0.0 
4.675867221148e-01 -3.579266143040e+02 0.0 
0.0 0.0 -1.530661697879e+02 
-1.639410746091e+02 -4.465108241208e-01 0.0 
-4.465108241208e-01 -3.822308846815e+02 0.0 
0.0 0.0 -1.634515877872e+02 
-9.237486693492e+01 1.883866118166e-01 0.0 
1.883866118166e-01 -2.076501376781e+02 0.0 
0.0 0.0 -8.960750138391e+01 
-4.945111785422e+01 5.517550902349e+00 0.0 
5.517550902349e+00 -9.875082496748e+01 0.0 
0.0 0.0 -4.406058284651e+01 
-6.328133230495e+01 1.079780912268e+00 0.0 
1.079780912268e+00 -1.120339585249e+02 0.0 
0.0 0.0 -5.347433581213e+01 
-5.453717880761e+01 9.045336818650e+00 0.0 
9.045336818650e+00 -1.098697802721e+02 0.0 
0.0 0.0 -4.892208772392e+01 
-6.399670877406e+01 -9.584087195529e+00 0.0 
-9.584087195529e+00 -1.523820146860e+02 0.0 
0.0 0.0 -6.451361703803e+01 
-1.277159883269e+02 6.441211370057e+00 0.0 
6.441211370057e+00 -2.911859094717e+02 0.0 
0.0 0.0 -1.252705693396e+02 
-9.278665956215e+01 6.976710192181e-02 0.0 
6.976710192181e-02 -2.084250925555e+02 0.0 
0.0 0.0 -8.996352563529e+01 
-6.021992267134e+01 -8.776949791645e+00 0.0 
-8.776949791645e+00 -1.379598935596e+02 0.0 
0.0 0.0 -5.905394486927e+01 
-1.515978615010e+02 6.902925659319e+00 0.0 
6.902925659319e+00 -3.509174144040e+02 0.0 
0.0 0.0 -1.503545827715e+02 
-1.620375266597e+02 8.240513385750e+00 0.0 
8.240513385750e+00 -3.809555990832e+02 0.0 
0.0 0.0 -1.624979377229e+02 
-1.204889124989e+02 3.347177652525e-01 0.0 
3.347177652525e-01 -2.750912742746e+02 0.0 
0.0 0.0 -1.182740560321e+02 
-1.416615170845e+02 3.594811275884e+00 0.0 
3.594811275884e+00 -3.467045186754e+02 0.0 
0.0 0.0 -1.461098107280e+02 
-1.220735180771e+02 7.300616097429e+00 0.0 
7.300616097429e+00 -2.998632752264e+02 0.0 
0.0 0.0 -1.261810379911e+02 
-1.391441516086e+02 2.840084311452e-01 0.0 
2.840084311452e-01 -3.217318575790e+02 0.0 
0.0 0.0 -1.378628027563e+02 
-8.597958320425e+01 4.252266293976e-01 0.0 
4.252266293976e-01 -1.914652595205e+02 0.0 
0.0 0.0 -8.283345281743e+01 
-1.759928312931e+01 -2.643365202590e+00 0.0 
-2.643365202590e+00 -3.408547820668e+01 0.0 
0.0 0.0 -1.506604452693e+01 
-1.262088385398e+02 -4.455992354252e-01 0.0 
-4.455992354252e-01 -2.887934757157e+02 0.0 
0.0 0.0 -1.241006942766e+02 
-4.202381932421e+01 7.415279001667e+00 0.0 
7.415279001667e+00 -7.916594502973e+01 0.0 
0.0 0.0 -3.595692930618e+01 
-4.554281587347e+01 1.209534778550e+01 0.0 
1.209534778550e+01 -8.744638768487e+01 0.0 
0.0 0.0 -3.949676106750e+01 
-4.083198574673e+01 1.666593981192e+01 0.0 
1.666593981192e+01 -7.271365466576e+01 0.0 
0.0 0.0 -3.252183505572e+01 
-6.151768839585e+01 -1.483241529337e+00 0.0 
-1.483241529337e+00 -1.370757119765e+02 0.0 
0.0 0.0 -5.917802011169e+01 
-3.596109651210e+01 -1.420168711493e+01 0.0 
-1.420168711493e+01 -5.981235104912e+01 0.0 
0.0 0.0 -2.697653339923e+01 
-3.804233768795e+01 1.029511052045e+01 0.0 
1.029511052045e+01 -6.557279222900e+01 0.0 
0.0 0.0 -3.040259592835e+01 
-1.551418203115e+02 4.532223129591e+00 0.0 
4.532223129591e+00 -3.722269374322e+02 0.0 
0.0 0.0 -1.578106273231e+02 
-9.442046779076e+01 9.721773681964e-01 0.0 
9.721773681964e-01 -2.094986052250e+02 0.0 
0.0 0.0 -9.077572190474e+01 
-1.356677909641e+02 7.321926526967e+00 0.0 
7.321926526967e+00 -3.267686937288e+02 0.0 
0.0 0.0 -1.383309454079e+02 
-3.432031102232e+01 1.415383557622e+01 0.0 
1.415383557622e+01 -4.915390856304e+01 0.0 
0.0 0.0 -2.306647332863e+01 
-1.481652473006e+02 3.542246689648e+00 0.0 
3.542246689648e+00 -3.426948858974e+02 0.0 
0.0 0.0 -1.468580399594e+02 
-1.543887456291e+02 7.304787252880e+00 0.0 
7.304787252880e+00 -3.665681918986e+02 0.0 
0.0 0.0 -1.558870812583e+02 
-1.653083477282e+02 -1.122312364319e+00 0.0 
-1.122312364319e+00 -3.881047700571e+02 0.0 
0.0 0.0 -1.656239353356e+02 
-1.446090898657e+02 7.209601528508e+00 0.0 
7.209601528508e+00 -3.458967341396e+02 0.0 
0.0 0.0 -1.467517472016e+02 
-3.688899647889e+01 2.451191321795e+01 0.0 
2.451191321795e+01 -6.559754820618e+01 0.0 
0.0 0.0 -2.946092120244e+01 
-1.026468647153e+02 2.064604919107e+00 0.0 
2.064604919107e+00 -2.270535980735e+02 0.0 
0.0 0.0 -9.851013883664e+01 
-1.532060874265e+02 8.076302103489e+00 0.0 
8.076302103489e+00 -3.578322457380e+02 0.0 
0.0 0.0 -1.529114999494e+02 
-1.269841898783e+02 4.916098092249e-01 0.0 
4.916098092249e-01 -2.906856255906e+02 0.0 
0.0 0.0 -1.249009446407e+02 
-1.658133461730e+02 -1.569973327917e+00 0.0 
-1.569973327917e+00 -3.879476510797e+02 0.0 
0.0 0.0 -1.657282991758e+02 
-9.407999284398e+01 1.099763906760e+00 0.0 
1.099763906760e+00 -2.075542036615e+02 0.0 
0.0 0.0 -9.009025895165e+01 
-1.472581665730e+02 8.764628289685e-01 0.0 
8.764628289685e-01 -3.419597822038e+02 0.0 
0.0 0.0 -1.463653846330e+02 
-3.382860975669e+01 -1.520168396952e+01 0.0 
-1.520168396952e+01 -1.244912807246e+02 0.0 
0.0 0.0 -4.806597505423e+01 
-1.472755903870e+02 4.017008901374e-01 0.0 
4.017008901374e-01 -3.420890865636e+02 0.0 
0.0 0.0 -1.464094030852e+02 
-1.354637233131e+02 6.696995094137e+00 0.0 
6.696995094137e+00 -3.107492811586e+02 0.0 
0.0 0.0 -1.334639013415e+02 
-1.031747309288e+02 2.771001851191e-01 0.0 
2.771001851191e-01 -2.324975775182e+02 0.0 
0.0 0.0 -1.003016925341e+02 
-1.029064299685e+02 2.454448485940e+00 0.0 
2.454448485940e+00 -2.269846655642e+02 0.0 
0.0 0.0 -9.856732865981e+01 
-1.587984425710e+02 -7.446206243030e-01 0.0 
-7.446206243030e-01 -3.694379174964e+02 0.0 
0.0 0.0 -1.580709080202e+02 
-1.504774642374e+02 6.152859058711e+00 0.0 
6.152859058711e+00 -3.480435086666e+02 0.0 
0.0 0.0 -1.491562918712e+02 
-3.510773835185e+01 2.909539700265e+01 0.0 
2.909539700265e+01 -7.189875070684e+01 0.0 
0.0 0.0 -3.195624971370e+01 
-1.202622233583e+02 2.729619626358e-01 0.0 
2.729619626358e-01 -2.740440210504e+02 0.0 
0.0 0.0 -1.178918733226e+02 
-7.678849088491e+01 -2.273105193706e+00 0.0 
-2.273105193706e+00 -1.718685524274e+02 0.0 
0.0 0.0 -7.419711299370e+01 
-3.768110666245e+01 -1.803803483653e+01 0.0 
-1.803803483653e+01 -1.078994265157e+02 0.0 
0.0 0.0 -4.496034491540e+01 
-1.575324207053e+02 -9.206376919276e-01 0.0 
-9.206376919276e-01 -3.728932907689e+02 0.0 
0.0 0.0 -1.587277134423e+02 
-1.427142435442e+02 6.951030842575e+00 0.0 
6.951030842575e+00 -3.292885852127e+02 0.0 
0.0 0.0 -1.412008486271e+02 
-1.581730536961e+02 -1.224858871863e+00 0.0 
-1.224858871863e+00 -3.689600049961e+02 0.0 
0.0 0.0 -1.577399176076e+02 
-1.844472747769e+01 -1.338132514849e-01 0.0 
-1.338132514849e-01 -4.962747911874e+01 0.0 
0.0 0.0 -2.002166197893e+01 
-1.256219100019e+01 -7.923755838660e-01 0.0 
-7.923755838660e-01 -3.133796963649e+01 0.0 
0.0 0.0 -1.282340781312e+01 
-1.585957592306e+02 3.508804697073e-02 0.0 
3.508804697073e-02 -3.770256291340e+02 0.0 
0.0 0.0 -1.602864165094e+02 
-1.531801764458e+02 7.575837391117e+00 0.0 
7.575837391117e+00 -3.558994028884e+02 0.0 
0.0 0.0 -1.523238738003e+02 
-3.939133732118e+01 -1.707222352064e+01 0.0 
-1.707222352064e+01 -1.208798994857e+02 0.0 
0.0 0.0 -4.740815250912e+01 
-1.554797530340e+02 3.069501728224e+00 0.0 
3.069501728224e+00 -3.622976231493e+02 0.0 
0.0 0.0 -1.549332128550e+02 
-3.691309062426e+01 3.069149264967e+01 0.0 
3.069149264967e+01 -7.766467308931e+01 0.0 
0.0 0.0 -3.530958109564e+01 
-8.554077472540e+01 2.887364570314e-01 0.0 
2.887364570314e-01 -1.895363429762e+02 0.0 
0.0 0.0 -8.212313531050e+01 
-1.101908666431e+01 -1.972482945761e-01 0.0 
-1.972482945761e-01 -3.217445320661e+01 0.0 
0.0 0.0 -1.263495175571e+01 
-1.654017191312e+02 -1.048174283482e+00 0.0 
-1.048174283482e+00 -3.865919405014e+02 0.0 
0.0 0.0 -1.651980978898e+02 
-1.481114865742e+02 2.163389922451e+00 0.0 
2.163389922451e+00 -3.435632941007e+02 0.0 
0.0 0.0 -1.471024342025e+02 
-8.432539078809e+01 -1.682994295886e+00 0.0 
-1.682994295886e+00 -1.888326973716e+02 0.0 
0.0 0.0 -8.154742644792e+01 
-8.993689411182e+01 1.715069494734e+00 0.0 
1.715069494734e+00 -1.962983177671e+02 0.0 
0.0 0.0 -8.547056356368e+01 
-5.552433755357e+01 -9.301941894374e-01 0.0 
-9.301941894374e-01 -1.239459585945e+02 0.0 
0.0 0.0 -5.344108884443e+01 
-1.479429405655e+02 7.739571488611e+00 0.0 
7.739571488611e+00 -3.489893325947e+02 0.0 
0.0 0.0 -1.486796819480e+02 
-2.776279396095e+01 -5.800094264761e+00 0.0 
-5.800094264761e+00 -4.910954283649e+01 0.0 
0.0 0.0 -2.203002424537e+01 
-1.485623546452e+02 1.741115890161e+00 0.0 
1.741115890161e+00 -3.450876893296e+02 0.0 
0.0 0.0 -1.476950131924e+02 
-1.586283364699e+02 1.360602883828e+00 0.0 
1.360602883828e+00 -3.785612594329e+02 0.0 
0.0 0.0 -1.607568787708e+02 
-1.506152286647e+02 4.636784989576e+00 0.0 
4.636784989576e+00 -3.485508658343e+02 0.0 
0.0 0.0 -1.493498283497e+02 
-1.656327345950e+02 6.131584755738e+00 0.0 
6.131584755738e+00 -3.910659802327e+02 0.0 
0.0 0.0 -1.666096144483e+02 
-4.252365974950e+01 1.014163615938e+01 0.0 
1.014163615938e+01 -1.173826213690e+02 0.0 
0.0 0.0 -4.943946328414e+01 
-1.563946115142e+02 7.804001779650e+00 0.0 
7.804001779650e+00 -3.697229561170e+02 0.0 
0.0 0.0 -1.574352702894e+02 
-1.493919654238e+02 2.220904871410e+00 0.0 
2.220904871410e+00 -3.616560859213e+02 0.0 
0.0 0.0 -1.529144154035e+02 
-8.561428529050e+01 -6.350930180616e-02 0.0 
-6.350930180616e-02 -1.912030298837e+02 0.0 
0.0 0.0 -8.264519455225e+01 
-1.502792579093e+02 5.238398909499e+00 0.0 
5.238398909499e+00 -3.473351240843e+02 0.0 
0.0 0.0 -1.488843145981e+02 
-6.880583341185e+01 -1.619568505089e+00 0.0 
-1.619568505089e+00 -1.531182345871e+02 0.0 
0.0 0.0 -6.617722039968e+01 
-2.831778158744e+01 -9.485001901827e-01 0.0 
-9.485001901827e-01 -6.579094495081e+01 0.0 
0.0 0.0 -2.783261796148e+01 
-1.544325743534e+02 3.192556374210e-01 0.0 
3.192556374210e-01 -3.599680178023e+02 0.0 
0.0 0.0 -1.539201776467e+02 
-2.931130046228e+00 -1.417370746354e-02 0.0 
-1.417370746354e-02 -1.412903107700e+01 0.0 
0.0 0.0 -4.059977587452e+00 
-8.480805231868e+01 1.039509863873e-01 0.0 
1.039509863873e-01 -1.900177377428e+02 0.0 
0.0 0.0 -8.204773701846e+01 
-1.655949864081e+02 -3.869918895594e-01 0.0 
-3.869918895594e-01 -3.863607926294e+02 0.0 
0.0 0.0 -1.651867337112e+02 
-2.603988415985e+01 -5.330814803352e-01 0.0 
-5.330814803352e-01 -6.280131393007e+01 0.0 
0.0 0.0 -2.625235942698e+01 
-9.854937705175e+01 2.255481187111e-01 0.0 
2.255481187111e-01 -2.220259821943e+02 0.0 
0.0 0.0 -9.577260777381e+01 
-1.531883812189e+02 7.354345839013e+00 0.0 
7.354345839013e+00 -3.553085100906e+02 0.0 
0.0 0.0 -1.521490673929e+02 
-1.025965291079e+02 -4.226681509932e-01 0.0 
-4.226681509932e-01 -2.317510876864e+02 0.0 
0.0 0.0 -9.990428503827e+01 
-1.347064406067e+02 5.936531417053e-01 0.0 
5.936531417053e-01 -3.104617676312e+02 0.0 
0.0 0.0 -1.331504624714e+02 
-4.137206467437e+01 -1.775975745439e+01 0.0 
-1.775975745439e+01 -8.049762698914e+01 0.0 
0.0 0.0 -3.474841014359e+01 
-6.477578234511e+01 -7.027363146501e+00 0.0 
-7.027363146501e+00 -1.086545208141e+02 0.0 
0.0 0.0 -5.277461386545e+01 
-1.130526147293e+02 3.685999921686e-01 0.0 
3.685999921686e-01 -2.568855094972e+02 0.0 
0.0 0.0 -1.105814372679e+02 
-1.562727868536e+02 6.786629967451e+00 0.0 
6.786629967451e+00 -3.716505859356e+02 0.0 
0.0 0.0 -1.579770118368e+02 
-1.503906928063e+02 3.956617968552e+00 0.0 
3.956617968552e+00 -3.484039326055e+02 0.0 
0.0 0.0 -1.492383876235e+02 
-1.075880536724e+02 2.287363294232e-01 0.0 
2.287363294232e-01 -2.432696724974e+02 0.0 
0.0 0.0 -1.048573178509e+02 
-3.317395098449e+01 2.700083277313e+01 0.0 
2.700083277313e+01 -9.432886447890e+01 0.0 
0.0 0.0 -3.844011133457e+01 
-1.487174621579e+02 7.192060649907e+00 0.0 
7.192060649907e+00 -3.444063383303e+02 0.0 
0.0 0.0 -1.475371401465e+02 
-9.099966111007e+01 -1.520051387552e+00 0.0 
-1.520051387552e+00 -2.041897166440e+02 0.0 
0.0 0.0 -8.815681332621e+01 
-1.482593949952e+02 7.998987796867e+00 0.0 
7.998987796867e+00 -3.467754596141e+02 0.0 
0.0 0.0 -1.481104563828e+02 
-1.491088304475e+02 3.884446360239e+00 0.0 
3.884446360239e+00 -3.612400814196e+02 0.0 
0.0 0.0 -1.527046735601e+02 
-4.277327947164e+01 3.062906227202e+01 0.0 
3.062906227202e+01 -5.902031034780e+01 0.0 
0.0 0.0 -3.127624284533e+01 
-1.098706527627e+02 -3.887142575109e-01 0.0 
-3.887142575109e-01 -2.492455062538e+02 0.0 
0.0 0.0 -1.073348477050e+02 
-1.028290956420e+01 -1.666881962470e-01 0.0 
-1.666881962470e-01 -3.011307266293e+01 0.0 
0.0 0.0 -1.174307574355e+01 
-1.596924851180e+02 -1.203319355893e+00 0.0 
-1.203319355893e+00 -3.752817650949e+02 0.0 
0.0 0.0 -1.600922750639e+02 
-9.451661344684e+01 -9.924645358677e-01 0.0 
-9.924645358677e-01 -2.126402049533e+02 0.0 
0.0 0.0 -9.174704552004e+01 
-1.254673276849e+01 5.360401880144e+00 0.0 
5.360401880144e+00 -8.217511450448e+00 0.0 
0.0 0.0 -5.066501955620e+00 
-6.533466527537e+00 5.756942887765e-02 0.0 
5.756942887765e-02 -9.360543635816e+00 0.0 
0.0 0.0 -4.356656804967e+00 
-2.136517463510e+01 5.827407265564e+00 0.0 
5.827407265564e+00 -3.053992811630e+01 0.0 
0.0 0.0 -1.438305818664e+01 
-1.509410956514e+01 1.942794036284e-02 0.0 
1.942794036284e-02 -3.007211691662e+01 0.0 
0.0 0.0 -1.314986794453e+01 
-2.920889152465e+01 5.260911261121e+00 0.0 
5.260911261121e+00 -4.957756599186e+01 0.0 
0.0 0.0 -2.323593725495e+01 
-2.295204475427e+01 -3.915959633279e-02 0.0 
-3.915959633279e-02 -4.852496187486e+01 0.0 
0.0 0.0 -2.104310198874e+01 
-3.717588968644e+01 4.307000571422e+00 0.0 
4.307000571422e+00 -6.932039214116e+01 0.0 
0.0 0.0 -3.154888454828e+01 
-3.198133735455e+01 -3.935905599385e-02 0.0 
-3.935905599385e-02 -6.911866430624e+01 0.0 
0.0 0.0 -2.993000049824e+01 
-4.541146920942e+01 3.442174851494e+00 0.0 
3.442174851494e+00 -8.923333968844e+01 0.0 
0.0 0.0 -3.999344266936e+01 
-4.012834966347e+01 -2.851832205877e-02 0.0 
-2.851832205877e-02 -8.755975506418e+01 0.0 
0.0 0.0 -3.790643141830e+01 
-5.333763344703e+01 2.797455186701e+00 0.0 
2.797455186701e+00 -1.086473544129e+02 0.0 
0.0 0.0 -4.819549635799e+01 
-4.920763064881e+01 -2.464016157534e-02 0.0 
-2.464016157534e-02 -1.081599690903e+02 0.0 
0.0 0.0 -4.681027992173e+01 
-6.152692753982e+01 2.270560108147e+00 0.0 
2.270560108147e+00 -1.281088797219e+02 0.0 
0.0 0.0 -5.649074217853e+01 
-5.733219444677e+01 -1.132230441278e-02 0.0 
-1.132230441278e-02 -1.266281506895e+02 0.0 
0.0 0.0 -5.478810354089e+01 
-6.965286781028e+01 1.894417526968e+00 0.0 
1.894417526968e+00 -1.474013352595e+02 0.0 
0.0 0.0 -6.471626092093e+01 
-6.637536312464e+01 -5.298688692450e-02 0.0 
-5.298688692450e-02 -1.472660719617e+02 0.0 
0.0 0.0 -6.369243052591e+01 
-7.776064660906e+01 1.659052197275e+00 0.0 
1.659052197275e+00 -1.668091107186e+02 0.0 
0.0 0.0 -7.297092719830e+01 
-7.425959558333e+01 -1.541336267376e-01 0.0 
-1.541336267376e-01 -1.656871419253e+02 0.0 
0.0 0.0 -7.158402125259e+01 

TENSORS node_materi_strain_total float
6.545879387527e-04 1.188156657343e-06 0.0 
1.188156657343e-06 -1.716910825548e-04 0.0 
0.0 0.0 0.0 
-3.469031001027e-04 -1.685120008062e-05 0.0 
-1.685120008062e-05 5.280401783084e-03 0.0 
0.0 0.0 0.0 
-3.704733199777e-05 -8.764455293229e-06 0.0 
-8.764455293229e-06 7.571983073158e-03 0.0 
0.0 0.0 0.0 
-2.509039284521e-05 6.312774462672e-07 0.0 
6.312774462672e-07 9.107067111664e-03 0.0 
0.0 0.0 0.0 
4.781640151761e-04 -4.478136925157e-06 0.0 
-4.478136925157e-06 1.020342680613e-04 0.0 
0.0 0.0 0.0 
2.673470642546e-04 8.365005174732e-06 0.0 
8.365005174732e-06 6.095752468862e-04 0.0 
0.0 0.0 0.0 
7.068873941870e-05 -2.424734196921e-06 0.0 
-2.424734196921e-06 1.072716147932e-03 0.0 
0.0 0.0 0.0 
-9.221155265663e-05 -8.669524171696e-06 0.0 
-8.669524171696e-06 1.577530299324e-03 0.0 
0.0 0.0 0.0 
-2.383812227258e-04 -1.933676606401e-05 0.0 
-1.933676606401e-05 2.044212098210e-03 0.0 
0.0 0.0 0.0 
-3.414971774390e-04 -2.339060191714e-05 0.0 
-2.339060191714e-05 2.478325645051e-03 0.0 
0.0 0.0 0.0 
-4.163931012572e-04 -2.576189166067e-05 0.0 
-2.576189166067e-05 2.893375508057e-03 0.0 
0.0 0.0 0.0 
-4.654391208001e-04 -2.975380221984e-05 0.0 
-2.975380221984e-05 3.290486683040e-03 0.0 
0.0 0.0 0.0 
-4.893338361483e-04 -3.087372709814e-05 0.0 
-3.087372709814e-05 3.674707919978e-03 0.0 
0.0 0.0 0.0 
-4.977129895923e-04 -2.757376432510e-05 0.0 
-2.757376432510e-05 4.054209365562e-03 0.0 
0.0 0.0 0.0 
-4.933647272015e-04 -1.696181636313e-05 0.0 
-1.696181636313e-05 4.437634751093e-03 0.0 
0.0 0.0 0.0 
-4.711830240267e-04 -7.303295666607e-06 0.0 
-7.303295666607e-06 4.806892462916e-03 0.0 
0.0 0.0 0.0 
-4.394810898315e-04 -4.350461927336e-06 0.0 
-4.350461927336e-06 5.145133492840e-03 0.0 
0.0 0.0 0.0 
-4.046680742190e-04 -1.946016630237e-05 0.0 
-1.946016630237e-05 5.512814604308e-03 0.0 
0.0 0.0 0.0 
-3.603186075177e-04 -1.639745773512e-05 0.0 
-1.639745773512e-05 5.894101522546e-03 0.0 
0.0 0.0 0.0 
-3.108433544252e-04 -1.302097462135e-05 0.0 
-1.302097462135e-05 6.265591045040e-03 0.0 
0.0 0.0 0.0 
-2.535849265226e-04 -1.120660864611e-05 0.0 
-1.120660864611e-05 6.639513349057e-03 0.0 
0.0 0.0 0.0 
-1.845333002785e-04 -8.302039340644e-06 0.0 
-8.302039340644e-06 7.013557176444e-03 0.0 
0.0 0.0 0.0 
-1.074354860149e-04 -4.766672456529e-06 0.0 
-4.766672456529e-06 7.364913807315e-03 0.0 
0.0 0.0 0.0 
-1.690554043898e-05 3.912726716126e-05 0.0 
3.912726716126e-05 9.123762334919e-03 0.0 
0.0 0.0 0.0 
-2.105048653393e-05 7.257903228105e-05 0.0 
7.257903228105e-05 9.101052069741e-03 0.0 
0.0 0.0 0.0 
-2.070427777486e-05 9.848556952567e-05 0.0 
9.848556952567e-05 9.102189264966e-03 0.0 
0.0 0.0 0.0 
-2.077100338534e-05 1.492490382309e-04 0.0 
1.492490382309e-04 9.093742593829e-03 0.0 
0.0 0.0 0.0 
-2.548861856344e-05 1.792398726162e-04 0.0 
1.792398726162e-04 9.072382167921e-03 0.0 
0.0 0.0 0.0 
-2.228722364602e-05 2.215040470526e-04 0.0 
2.215040470526e-04 9.072225679926e-03 0.0 
0.0 0.0 0.0 
-2.274758275496e-05 2.647686063880e-04 0.0 
2.647686063880e-04 9.057951795165e-03 0.0 
0.0 0.0 0.0 
-2.613688368810e-05 3.088741655090e-04 0.0 
3.088741655090e-04 9.031761023063e-03 0.0 
0.0 0.0 0.0 
-2.574013473973e-05 3.492410599582e-04 0.0 
3.492410599582e-04 9.021507772946e-03 0.0 
0.0 0.0 0.0 
-2.425568409599e-05 4.077627879598e-04 0.0 
4.077627879598e-04 8.991483663435e-03 0.0 
0.0 0.0 0.0 
-3.147764870385e-05 4.508101627579e-04 0.0 
4.508101627579e-04 8.948134351420e-03 0.0 
0.0 0.0 0.0 
-2.882892595861e-05 5.052306603391e-04 0.0 
5.052306603391e-04 8.919905383752e-03 0.0 
0.0 0.0 0.0 
-2.879730420805e-05 5.615778911674e-04 0.0 
5.615778911674e-04 8.878264934086e-03 0.0 
0.0 0.0 0.0 
-2.975438150824e-05 6.158821971790e-04 0.0 
6.158821971790e-04 8.820652699114e-03 0.0 
0.0 0.0 0.0 
-3.154745211875e-05 6.698482847573e-04 0.0 
6.698482847573e-04 8.756335490188e-03 0.0 
0.0 0.0 0.0 
-3.202014426214e-05 7.260543766625e-04 0.0 
7.260543766625e-04 8.676060750472e-03 0.0 
0.0 0.0 0.0 
-3.449504111982e-05 7.786526924289e-04 0.0 
7.786526924289e-04 8.596912610922e-03 0.0 
0.0 0.0 0.0 
-3.040805678804e-05 8.350806904608e-04 0.0 
8.350806904608e-04 8.518239810748e-03 0.0 
0.0 0.0 0.0 
-2.710297708974e-05 8.837412223985e-04 0.0 
8.837412223985e-04 8.429958784987e-03 0.0 
0.0 0.0 0.0 
-2.116965119033e-05 9.280860065432e-04 0.0 
9.280860065432e-04 8.332265684583e-03 0.0 
0.0 0.0 0.0 
-1.476057349666e-05 9.663027762398e-04 0.0 
9.663027762398e-04 8.215117348366e-03 0.0 
0.0 0.0 0.0 
-1.167132718612e-05 9.901121482629e-04 0.0 
9.901121482629e-04 8.090168409082e-03 0.0 
0.0 0.0 0.0 
-3.973706596401e-06 1.005496589330e-03 0.0 
1.005496589330e-03 7.960049846420e-03 0.0 
0.0 0.0 0.0 
3.401349692937e-06 1.005523478935e-03 0.0 
1.005523478935e-03 7.824776901399e-03 0.0 
0.0 0.0 0.0 
1.052137043689e-05 9.922122794177e-04 0.0 
9.922122794177e-04 7.693393407173e-03 0.0 
0.0 0.0 0.0 
2.176720418586e-05 9.640936154084e-04 0.0 
9.640936154084e-04 7.563875650805e-03 0.0 
0.0 0.0 0.0 
2.560617140642e-05 9.181948893967e-04 0.0 
9.181948893967e-04 7.435764266983e-03 0.0 
0.0 0.0 0.0 
4.026472343669e-05 8.560548459978e-04 0.0 
8.560548459978e-04 7.314640218307e-03 0.0 
0.0 0.0 0.0 
4.287858807846e-05 7.778882939160e-04 0.0 
7.778882939160e-04 7.200096617140e-03 0.0 
0.0 0.0 0.0 
4.487813251197e-05 6.861400651337e-04 0.0 
6.861400651337e-04 7.122778241406e-03 0.0 
0.0 0.0 0.0 
5.051826142729e-05 5.961231812852e-04 0.0 
5.961231812852e-04 7.031886936908e-03 0.0 
0.0 0.0 0.0 
6.318142848209e-05 4.878087764237e-04 0.0 
4.878087764237e-04 6.940189161176e-03 0.0 
0.0 0.0 0.0 
6.331051970417e-05 3.659952395343e-04 0.0 
3.659952395343e-04 6.893390447387e-03 0.0 
0.0 0.0 0.0 
6.125188067071e-05 2.533782067269e-04 0.0 
2.533782067269e-04 6.885582541522e-03 0.0 
0.0 0.0 0.0 
5.987087913351e-05 1.468312936616e-04 0.0 
1.468312936616e-04 6.886350816822e-03 0.0 
0.0 0.0 0.0 
4.595607562837e-05 4.436654596576e-05 0.0 
4.436654596576e-05 6.907967212732e-03 0.0 
0.0 0.0 0.0 
4.867529518804e-05 -4.097919842821e-05 0.0 
-4.097919842821e-05 6.948465135076e-03 0.0 
0.0 0.0 0.0 
3.384859590675e-05 -1.172649093715e-04 0.0 
-1.172649093715e-04 6.989747119575e-03 0.0 
0.0 0.0 0.0 
3.375911858416e-05 -1.773856206516e-04 0.0 
-1.773856206516e-04 7.041562348921e-03 0.0 
0.0 0.0 0.0 
1.850917515582e-05 -2.214492966271e-04 0.0 
-2.214492966271e-04 7.099828600091e-03 0.0 
0.0 0.0 0.0 
1.088977339037e-05 -2.523035081998e-04 0.0 
-2.523035081998e-04 7.177778075264e-03 0.0 
0.0 0.0 0.0 
4.574408628999e-06 -2.619329263493e-04 0.0 
-2.619329263493e-04 7.270436275779e-03 0.0 
0.0 0.0 0.0 
-1.196356404017e-06 -2.641886310868e-04 0.0 
-2.641886310868e-04 7.337866043972e-03 0.0 
0.0 0.0 0.0 
-1.563580161545e-05 -2.479032559378e-04 0.0 
-2.479032559378e-04 7.352594217161e-03 0.0 
0.0 0.0 0.0 
-1.407315506737e-05 -2.206581335317e-04 0.0 
-2.206581335317e-04 7.452407062220e-03 0.0 
0.0 0.0 0.0 
-2.330473286608e-05 -1.888952211160e-04 0.0 
-1.888952211160e-04 7.480696521995e-03 0.0 
0.0 0.0 0.0 
-2.266932233715e-05 -1.572796101739e-04 0.0 
-1.572796101739e-04 7.526594452978e-03 0.0 
0.0 0.0 0.0 
-2.501679964351e-05 -1.021530504984e-04 0.0 
-1.021530504984e-04 7.567582020296e-03 0.0 
0.0 0.0 0.0 
-2.812045443427e-05 -5.997160004486e-05 0.0 
-5.997160004486e-05 7.582044664609e-03 0.0 
0.0 0.0 0.0 
-3.404712523408e-04 -1.052363799301e-05 0.0 
-1.052363799301e-05 5.707479311901e-03 0.0 
0.0 0.0 0.0 
-3.381415275279e-04 -1.066213964616e-05 0.0 
-1.066213964616e-05 6.130607168479e-03 0.0 
0.0 0.0 0.0 
-3.233507382434e-04 -9.171367821591e-06 0.0 
-9.171367821591e-06 6.542050938560e-03 0.0 
0.0 0.0 0.0 
-3.013299051267e-04 -8.437892711524e-06 0.0 
-8.437892711524e-06 6.939892050232e-03 0.0 
0.0 0.0 0.0 
-2.715963693893e-04 -5.467308997227e-06 0.0 
-5.467308997227e-06 7.340315169080e-03 0.0 
0.0 0.0 0.0 
-2.303554078276e-04 -4.932954322466e-06 0.0 
-4.932954322466e-06 7.734698771732e-03 0.0 
0.0 0.0 0.0 
-1.860265898715e-04 -2.648961953568e-06 0.0 
-2.648961953568e-06 8.120849836181e-03 0.0 
0.0 0.0 0.0 
-1.311465024032e-04 -2.166869156634e-06 0.0 
-2.166869156634e-06 8.499150439733e-03 0.0 
0.0 0.0 0.0 
-7.434572722779e-05 -2.726543652880e-06 0.0 
-2.726543652880e-06 8.880668303554e-03 0.0 
0.0 0.0 0.0 
-1.409388543691e-03 2.250988657981e-03 0.0 
2.250988657981e-03 -2.425550829025e-03 0.0 
0.0 0.0 0.0 
-5.421897275883e-04 2.187379408237e-04 0.0 
2.187379408237e-04 5.193045754514e-03 0.0 
0.0 0.0 0.0 
-1.249017015389e-03 1.844347618030e-03 0.0 
1.844347618030e-03 8.763949055999e-04 0.0 
0.0 0.0 0.0 
-7.809567079442e-04 1.086125888617e-03 0.0 
1.086125888617e-03 1.618856178437e-03 0.0 
0.0 0.0 0.0 
-7.731486702149e-04 9.671707320007e-04 0.0 
9.671707320007e-04 2.082320703081e-03 0.0 
0.0 0.0 0.0 
-7.435980415383e-04 7.934638631795e-04 0.0 
7.934638631795e-04 2.554387557021e-03 0.0 
0.0 0.0 0.0 
-6.635065304533e-04 6.209959877968e-04 0.0 
6.209959877968e-04 2.959995514887e-03 0.0 
0.0 0.0 0.0 
-6.144629918851e-04 4.890257129934e-04 0.0 
4.890257129934e-04 3.380284629643e-03 0.0 
0.0 0.0 0.0 
-5.874869670257e-04 3.840604246460e-04 0.0 
3.840604246460e-04 3.821151492107e-03 0.0 
0.0 0.0 0.0 
-5.706509203897e-04 3.046403744209e-04 0.0 
3.046403744209e-04 4.269893798039e-03 0.0 
0.0 0.0 0.0 
-5.551146828744e-04 2.513468802371e-04 0.0 
2.513468802371e-04 4.721271088455e-03 0.0 
0.0 0.0 0.0 
-2.245158987719e-04 -1.753706298333e-05 0.0 
-1.753706298333e-05 1.512253836070e-03 0.0 
0.0 0.0 0.0 
-2.157690784318e-04 -2.787444123888e-05 0.0 
-2.787444123888e-05 1.775783666716e-03 0.0 
0.0 0.0 0.0 
-2.128497794685e-04 -2.593829563763e-05 0.0 
-2.593829563763e-05 2.199092176123e-03 0.0 
0.0 0.0 0.0 
-2.282467278025e-04 -3.559178769979e-05 0.0 
-3.559178769979e-05 2.635914134721e-03 0.0 
0.0 0.0 0.0 
-2.513470034732e-04 -2.901875846817e-05 0.0 
-2.901875846817e-05 3.078092484105e-03 0.0 
0.0 0.0 0.0 
-2.752740722350e-04 -3.538788671850e-05 0.0 
-3.538788671850e-05 3.520475303268e-03 0.0 
0.0 0.0 0.0 
-2.977853111308e-04 -2.814387075857e-05 0.0 
-2.814387075857e-05 3.961608550397e-03 0.0 
0.0 0.0 0.0 
-3.167525001430e-04 -3.292095398877e-05 0.0 
-3.292095398877e-05 4.399499075953e-03 0.0 
0.0 0.0 0.0 
-3.299636686676e-04 -2.239668734356e-05 0.0 
-2.239668734356e-05 4.831102812496e-03 0.0 
0.0 0.0 0.0 
-3.401371796917e-04 8.100017527668e-06 0.0 
8.100017527668e-06 5.220542196351e-03 0.0 
0.0 0.0 0.0 
-3.412050472500e-04 7.056741566186e-07 0.0 
7.056741566186e-07 5.246625513171e-03 0.0 
0.0 0.0 0.0 
-3.488457113161e-04 1.499578240050e-06 0.0 
1.499578240050e-06 5.249558296804e-03 0.0 
0.0 0.0 0.0 
-3.563212651084e-04 1.429992598930e-06 0.0 
1.429992598930e-06 5.245007860953e-03 0.0 
0.0 0.0 0.0 
-3.636604148094e-04 8.908112083579e-06 0.0 
8.908112083579e-06 5.302082178884e-03 0.0 
0.0 0.0 0.0 
-3.757793060173e-04 1.108825293102e-05 0.0 
1.108825293102e-05 5.252652171124e-03 0.0 
0.0 0.0 0.0 
-3.874401685758e-04 1.548209984064e-05 0.0 
1.548209984064e-05 5.247068802817e-03 0.0 
0.0 0.0 0.0 
-4.013315339243e-04 2.666942238488e-05 0.0 
2.666942238488e-05 5.249386390886e-03 0.0 
0.0 0.0 0.0 
-4.219728882819e-04 3.754895916505e-05 0.0 
3.754895916505e-05 5.257250453799e-03 0.0 
0.0 0.0 0.0 
-4.408153807315e-04 5.420819637362e-05 0.0 
5.420819637362e-05 5.250300835409e-03 0.0 
0.0 0.0 0.0 
-4.575417084955e-04 7.353925200625e-05 0.0 
7.353925200625e-05 5.240014175026e-03 0.0 
0.0 0.0 0.0 
-4.777638608098e-04 9.804723506352e-05 0.0 
9.804723506352e-05 5.227764136091e-03 0.0 
0.0 0.0 0.0 
-4.960972162189e-04 1.317281622432e-04 0.0 
1.317281622432e-04 5.212910457610e-03 0.0 
0.0 0.0 0.0 
-5.159914100386e-04 1.720996508066e-04 0.0 
1.720996508066e-04 5.200027694308e-03 0.0 
0.0 0.0 0.0 
-1.972877785069e-03 1.082098093111e-03 0.0 
1.082098093111e-03 -3.607478660852e-03 0.0 
0.0 0.0 0.0 
-2.606183554272e-03 1.703766669228e-04 0.0 
1.703766669228e-04 -3.713394735894e-03 0.0 
0.0 0.0 0.0 
-2.840266542305e-03 -2.261197481134e-04 0.0 
-2.261197481134e-04 -3.618118268628e-03 0.0 
0.0 0.0 0.0 
-2.402256555538e-03 -8.810631217087e-04 0.0 
-8.810631217087e-04 -3.393703829474e-03 0.0 
0.0 0.0 0.0 
-1.503418900803e-03 -1.673017614871e-03 0.0 
-1.673017614871e-03 -1.835683817705e-03 0.0 
0.0 0.0 0.0 
-7.893788614162e-04 -1.124701245773e-03 0.0 
-1.124701245773e-03 -1.876600734403e-04 0.0 
0.0 0.0 0.0 
-1.393594185919e-04 -3.030011130038e-04 0.0 
-3.030011130038e-04 4.694701292766e-05 0.0 
0.0 0.0 0.0 
3.116140029051e-04 -6.052800102373e-05 0.0 
-6.052800102373e-05 -3.298172291355e-05 0.0 
0.0 0.0 0.0 
5.499203052986e-04 -2.153067318577e-05 0.0 
-2.153067318577e-05 -9.840805058185e-05 0.0 
0.0 0.0 0.0 
5.702605949001e-04 -2.089717983798e-05 0.0 
-2.089717983798e-05 -1.138161750212e-04 0.0 
0.0 0.0 0.0 
5.782310544858e-04 -7.724472018524e-06 0.0 
-7.724472018524e-06 -1.113542898516e-04 0.0 
0.0 0.0 0.0 
6.114440231716e-04 -6.863232159243e-06 0.0 
-6.863232159243e-06 -1.223760845677e-04 0.0 
0.0 0.0 0.0 
6.383773899206e-04 1.257691288978e-05 0.0 
1.257691288978e-05 -1.438924893832e-04 0.0 
0.0 0.0 0.0 
6.679110707156e-04 -8.872076834261e-07 0.0 
-8.872076834261e-07 -1.613119945526e-04 0.0 
0.0 0.0 0.0 
6.390168110972e-04 -4.066477814169e-06 0.0 
-4.066477814169e-06 -1.525899509474e-04 0.0 
0.0 0.0 0.0 
6.197449661572e-04 2.632662645562e-07 0.0 
2.632662645562e-07 -1.429852261265e-04 0.0 
0.0 0.0 0.0 
6.114561881807e-04 3.053810989791e-06 0.0 
3.053810989791e-06 -1.400900987754e-04 0.0 
0.0 0.0 0.0 
6.285019417652e-04 9.757009108223e-06 0.0 
9.757009108223e-06 -1.573099848771e-04 0.0 
0.0 0.0 0.0 
6.535821193624e-04 2.358083684091e-05 0.0 
2.358083684091e-05 -1.740771220389e-04 0.0 
0.0 0.0 0.0 
-1.970179478387e-04 2.775804240289e-05 0.0 
2.775804240289e-05 1.487314816452e-03 0.0 
0.0 0.0 0.0 
-1.631596382689e-04 9.125875256370e-06 0.0 
9.125875256370e-06 1.519143945300e-03 0.0 
0.0 0.0 0.0 
-1.479252341035e-04 -3.508727980162e-06 0.0 
-3.508727980162e-06 1.526960781088e-03 0.0 
0.0 0.0 0.0 
-1.444921362363e-04 -1.103506074021e-05 0.0 
-1.103506074021e-05 1.527980078204e-03 0.0 
0.0 0.0 0.0 
-1.364845145950e-04 -1.612091417044e-05 0.0 
-1.612091417044e-05 1.525065748501e-03 0.0 
0.0 0.0 0.0 
-1.244068691897e-04 -1.996646188112e-05 0.0 
-1.996646188112e-05 1.520347033741e-03 0.0 
0.0 0.0 0.0 
-1.089487653213e-04 -2.328750831265e-05 0.0 
-2.328750831265e-05 1.514185096394e-03 0.0 
0.0 0.0 0.0 
-9.051822380723e-05 -2.636658895745e-05 0.0 
-2.636658895745e-05 1.506719822297e-03 0.0 
0.0 0.0 0.0 
-6.937712800207e-05 -2.927045589820e-05 0.0 
-2.927045589820e-05 1.498049647765e-03 0.0 
0.0 0.0 0.0 
-4.572857246832e-05 -3.196961246300e-05 0.0 
-3.196961246300e-05 1.488260327893e-03 0.0 
0.0 0.0 0.0 
-1.976933986044e-05 -3.439218687161e-05 0.0 
-3.439218687161e-05 1.477440691980e-03 0.0 
0.0 0.0 0.0 
8.271905556782e-06 -3.644611884012e-05 0.0 
-3.644611884012e-05 1.465698012645e-03 0.0 
0.0 0.0 0.0 
3.809858239467e-05 -3.802748455223e-05 0.0 
-3.802748455223e-05 1.453169243287e-03 0.0 
0.0 0.0 0.0 
6.930079856156e-05 -3.901489293372e-05 0.0 
-3.901489293372e-05 1.440033588086e-03 0.0 
0.0 0.0 0.0 
1.013136035091e-04 -3.924982487796e-05 0.0 
-3.924982487796e-05 1.426523038761e-03 0.0 
0.0 0.0 0.0 
1.333537012900e-04 -3.848820464065e-05 0.0 
-3.848820464065e-05 1.412944879274e-03 0.0 
0.0 0.0 0.0 
1.646657844794e-04 -3.639318395522e-05 0.0 
-3.639318395522e-05 1.399570474327e-03 0.0 
0.0 0.0 0.0 
1.939983112187e-04 -3.254957365868e-05 0.0 
-3.254957365868e-05 1.386867686637e-03 0.0 
0.0 0.0 0.0 
2.190212670167e-04 -2.609975432493e-05 0.0 
-2.609975432493e-05 1.375463539896e-03 0.0 
0.0 0.0 0.0 
2.395595031394e-04 -1.533865409199e-05 0.0 
-1.533865409199e-05 1.365491363630e-03 0.0 
0.0 0.0 0.0 
2.587779450889e-04 1.063648032311e-06 0.0 
1.063648032311e-06 1.356361225618e-03 0.0 
0.0 0.0 0.0 
2.936917714959e-04 2.140436506725e-05 0.0 
2.140436506725e-05 1.344555706959e-03 0.0 
0.0 0.0 0.0 
3.249850618147e-04 3.857283461574e-05 0.0 
3.857283461574e-05 1.335401025779e-03 0.0 
0.0 0.0 0.0 
3.626556895833e-04 5.287865283454e-05 0.0 
5.287865283454e-05 1.327512389161e-03 0.0 
0.0 0.0 0.0 
2.932090235211e-04 7.970209758373e-05 0.0 
7.970209758373e-05 1.342433183840e-03 0.0 
0.0 0.0 0.0 
5.609705461207e-05 2.129981898465e-04 0.0 
2.129981898465e-04 1.389056065302e-03 0.0 
0.0 0.0 0.0 
-2.219780992400e-04 4.528599377910e-04 0.0 
4.528599377910e-04 1.397079547300e-03 0.0 
0.0 0.0 0.0 
-6.701849025405e-04 6.742267834214e-04 0.0 
6.742267834214e-04 1.486909248275e-03 0.0 
0.0 0.0 0.0 
-4.712568727686e-04 5.636427960817e-04 0.0 
5.636427960817e-04 1.654205719427e-03 0.0 
0.0 0.0 0.0 
-3.048729021744e-04 3.956973845930e-04 0.0 
3.956973845930e-04 1.698753750092e-03 0.0 
0.0 0.0 0.0 
-8.703658716469e-05 1.951340641211e-04 0.0 
1.951340641211e-04 1.666451286184e-03 0.0 
0.0 0.0 0.0 
-1.403767163864e-05 1.082047672457e-04 0.0 
1.082047672457e-04 1.649775526820e-03 0.0 
0.0 0.0 0.0 
3.549451612372e-05 5.806682403780e-05 0.0 
5.806682403780e-05 1.639742693401e-03 0.0 
0.0 0.0 0.0 
5.311891575199e-05 1.951422166617e-05 0.0 
1.951422166617e-05 1.634551072053e-03 0.0 
0.0 0.0 0.0 
6.597544632049e-05 -8.407974931476e-06 0.0 
-8.407974931476e-06 1.633659833973e-03 0.0 
0.0 0.0 0.0 
7.062628386906e-05 -2.962728330862e-05 0.0 
-2.962728330862e-05 1.635393365842e-03 0.0 
0.0 0.0 0.0 
6.778513017465e-05 -4.431094114006e-05 0.0 
-4.431094114006e-05 1.639836016471e-03 0.0 
0.0 0.0 0.0 
5.784021609018e-05 -5.419041863314e-05 0.0 
-5.419041863314e-05 1.646247635587e-03 0.0 
0.0 0.0 0.0 
4.305350163323e-05 -6.028184847557e-05 0.0 
-6.028184847557e-05 1.654175504482e-03 0.0 
0.0 0.0 0.0 
2.505031791126e-05 -6.356092243907e-05 0.0 
-6.356092243907e-05 1.663075081632e-03 0.0 
0.0 0.0 0.0 
5.048742014494e-06 -6.464320313508e-05 0.0 
-6.464320313508e-05 1.672563197220e-03 0.0 
0.0 0.0 0.0 
-1.593642880271e-05 -6.404295489424e-05 0.0 
-6.404295489424e-05 1.682287199314e-03 0.0 
0.0 0.0 0.0 
-3.708416052824e-05 -6.212664746321e-05 0.0 
-6.212664746321e-05 1.691955106222e-03 0.0 
0.0 0.0 0.0 
-5.777160747208e-05 -5.918168604228e-05 0.0 
-5.918168604228e-05 1.701325721811e-03 0.0 
0.0 0.0 0.0 
-7.751976478110e-05 -5.543496603753e-05 0.0 
-5.543496603753e-05 1.710203685142e-03 0.0 
0.0 0.0 0.0 
-9.596247114927e-05 -5.107772638944e-05 0.0 
-5.107772638944e-05 1.718432653843e-03 0.0 
0.0 0.0 0.0 
-1.128098033309e-04 -4.626158903922e-05 0.0 
-4.626158903922e-05 1.725892001100e-03 0.0 
0.0 0.0 0.0 
-1.278246696141e-04 -4.109359478543e-05 0.0 
-4.109359478543e-05 1.732485540662e-03 0.0 
0.0 0.0 0.0 
-1.408078102976e-04 -3.562047793360e-05 0.0 
-3.562047793360e-05 1.738134661342e-03 0.0 
0.0 0.0 0.0 
-1.516020955346e-04 -2.979270805564e-05 0.0 
-2.979270805564e-05 1.742778747598e-03 0.0 
0.0 0.0 0.0 
-1.601324310431e-04 -2.339137456241e-05 0.0 
-2.339137456241e-05 1.746368770316e-03 0.0 
0.0 0.0 0.0 
-1.664919086011e-04 -1.571753106119e-05 0.0 
-1.571753106119e-05 1.748722340750e-03 0.0 
0.0 0.0 0.0 
-1.709637855759e-04 -2.233273041350e-06 0.0 
-2.233273041350e-06 1.748819330908e-03 0.0 
0.0 0.0 0.0 
-1.991425404584e-04 1.625201446955e-05 0.0 
1.625201446955e-05 1.764588270431e-03 0.0 
0.0 0.0 0.0 
-6.056601685483e-04 6.116194733864e-04 0.0 
6.116194733864e-04 2.142466951364e-03 0.0 
0.0 0.0 0.0 
-4.884251495734e-04 4.438745446420e-04 0.0 
4.438745446420e-04 2.203198766455e-03 0.0 
0.0 0.0 0.0 
-3.385883607116e-04 2.579894673849e-04 0.0 
2.579894673849e-04 2.169952566466e-03 0.0 
0.0 0.0 0.0 
-2.613630121115e-04 1.525331330527e-04 0.0 
1.525331330527e-04 2.157120934893e-03 0.0 
0.0 0.0 0.0 
-2.001315418483e-04 8.314297889744e-05 0.0 
8.314297889744e-05 2.145728203111e-03 0.0 
0.0 0.0 0.0 
-1.585435300836e-04 3.248771015191e-05 0.0 
3.248771015191e-05 2.138676896046e-03 0.0 
0.0 0.0 0.0 
-1.297569721048e-04 -4.441169573789e-06 0.0 
-4.441169573789e-06 2.136088613705e-03 0.0 
0.0 0.0 0.0 
-1.125813678348e-04 -3.138255939432e-05 0.0 
-3.138255939432e-05 2.135665870168e-03 0.0 
0.0 0.0 0.0 
-1.036177038453e-04 -5.035143697963e-05 0.0 
-5.035143697963e-05 2.137111454191e-03 0.0 
0.0 0.0 0.0 
-1.010290496548e-04 -6.319423712939e-05 0.0 
-6.319423712939e-05 2.139907696318e-03 0.0 
0.0 0.0 0.0 
-1.030338402755e-04 -7.126307326368e-05 0.0 
-7.126307326368e-05 2.143836646792e-03 0.0 
0.0 0.0 0.0 
-1.083695620789e-04 -7.561606349781e-05 0.0 
-7.561606349781e-05 2.148501932415e-03 0.0 
0.0 0.0 0.0 
-1.159588688584e-04 -7.703988533963e-05 0.0 
-7.703988533963e-05 2.153646775936e-03 0.0 
0.0 0.0 0.0 
-1.249630948584e-04 -7.614795727616e-05 0.0 
-7.614795727616e-05 2.159008738177e-03 0.0 
0.0 0.0 0.0 
-1.346880422322e-04 -7.342198652048e-05 0.0 
-7.342198652048e-05 2.164360391626e-03 0.0 
0.0 0.0 0.0 
-1.446028269483e-04 -6.925819976383e-05 0.0 
-6.925819976383e-05 2.169511897670e-03 0.0 
0.0 0.0 0.0 
-1.542973643526e-04 -6.396777376125e-05 0.0 
-6.396777376125e-05 2.174325420818e-03 0.0 
0.0 0.0 0.0 
-1.634544147551e-04 -5.778500004128e-05 0.0 
-5.778500004128e-05 2.178701568846e-03 0.0 
0.0 0.0 0.0 
-1.718404314167e-04 -5.087954771296e-05 0.0 
-5.087954771296e-05 2.182578378777e-03 0.0 
0.0 0.0 0.0 
-1.793115952020e-04 -4.336981539903e-05 0.0 
-4.336981539903e-05 2.185939011937e-03 0.0 
0.0 0.0 0.0 
-1.858411215684e-04 -3.533976402809e-05 0.0 
-3.533976402809e-05 2.188820247865e-03 0.0 
0.0 0.0 0.0 
-1.915389816539e-04 -2.687618807757e-05 0.0 
-2.687618807757e-05 2.191277414491e-03 0.0 
0.0 0.0 0.0 
-1.966971832061e-04 -1.811115408257e-05 0.0 
-1.811115408257e-05 2.193334206324e-03 0.0 
0.0 0.0 0.0 
-2.023181674040e-04 -9.405179777460e-06 0.0 
-9.405179777460e-06 2.195962995307e-03 0.0 
0.0 0.0 0.0 
-2.102100364167e-04 1.461785786411e-05 0.0 
1.461785786411e-05 2.198007758668e-03 0.0 
0.0 0.0 0.0 
-2.285726825168e-04 6.713927758870e-07 0.0 
6.713927758870e-07 2.636974885633e-03 0.0 
0.0 0.0 0.0 
-2.261950490506e-04 -1.928215496977e-05 0.0 
-1.928215496977e-05 2.636955371035e-03 0.0 
0.0 0.0 0.0 
-2.234642457000e-04 -3.124438352415e-05 0.0 
-3.124438352415e-05 2.635906559988e-03 0.0 
0.0 0.0 0.0 
-2.206015943495e-04 -4.047099427144e-05 0.0 
-4.047099427144e-05 2.634510751235e-03 0.0 
0.0 0.0 0.0 
-2.176305048000e-04 -4.947321305811e-05 0.0 
-4.947321305811e-05 2.632886136072e-03 0.0 
0.0 0.0 0.0 
-2.145573407310e-04 -5.815770377346e-05 0.0 
-5.815770377346e-05 2.631076948543e-03 0.0 
0.0 0.0 0.0 
-2.114036439417e-04 -6.627828568572e-05 0.0 
-6.627828568572e-05 2.629052313004e-03 0.0 
0.0 0.0 0.0 
-2.082634515263e-04 -7.355577178360e-05 0.0 
-7.355577178360e-05 2.626792756362e-03 0.0 
0.0 0.0 0.0 
-2.053420923652e-04 -7.968923672175e-05 0.0 
-7.968923672175e-05 2.624324791970e-03 0.0 
0.0 0.0 0.0 
-2.029260461441e-04 -8.432800233073e-05 0.0 
-8.432800233073e-05 2.621697387393e-03 0.0 
0.0 0.0 0.0 
-2.013878531813e-04 -8.703994900798e-05 0.0 
-8.703994900798e-05 2.618983281101e-03 0.0 
0.0 0.0 0.0 
-2.011891843594e-04 -8.726782739930e-05 0.0 
-8.726782739930e-05 2.616271790204e-03 0.0 
0.0 0.0 0.0 
-2.029551960564e-04 -8.428972500621e-05 0.0 
-8.428972500621e-05 2.613738023401e-03 0.0 
0.0 0.0 0.0 
-2.074972316261e-04 -7.730094237441e-05 0.0 
-7.730094237441e-05 2.611541713738e-03 0.0 
0.0 0.0 0.0 
-2.157391514086e-04 -6.520733148760e-05 0.0 
-6.520733148760e-05 2.609860903796e-03 0.0 
0.0 0.0 0.0 
-2.287628938261e-04 -4.676740510666e-05 0.0 
-4.676740510666e-05 2.608657158506e-03 0.0 
0.0 0.0 0.0 
-2.478757122808e-04 -1.991501553435e-05 0.0 
-1.991501553435e-05 2.608241427442e-03 0.0 
0.0 0.0 0.0 
-2.747880546481e-04 1.720576924222e-05 0.0 
1.720576924222e-05 2.608024359602e-03 0.0 
0.0 0.0 0.0 
-3.111719437428e-04 6.876535270360e-05 0.0 
6.876535270360e-05 2.608830390819e-03 0.0 
0.0 0.0 0.0 
-3.603193156269e-04 1.380087620728e-04 0.0 
1.380087620728e-04 2.608604564171e-03 0.0 
0.0 0.0 0.0 
-4.213820498869e-04 2.358837749577e-04 0.0 
2.358837749577e-04 2.610339762288e-03 0.0 
0.0 0.0 0.0 
-5.185914226936e-04 3.874558787326e-04 0.0 
3.874558787326e-04 2.623861996471e-03 0.0 
0.0 0.0 0.0 
-5.982729111622e-04 5.303500699649e-04 0.0 
5.303500699649e-04 2.561810000210e-03 0.0 
0.0 0.0 0.0 
-5.730348444825e-04 4.333054881387e-04 0.0 
4.333054881387e-04 2.964843070697e-03 0.0 
0.0 0.0 0.0 
-5.237635849934e-04 3.219166273149e-04 0.0 
3.219166273149e-04 3.042102832791e-03 0.0 
0.0 0.0 0.0 
-4.611359968558e-04 2.014996269164e-04 0.0 
2.014996269164e-04 3.044257403657e-03 0.0 
0.0 0.0 0.0 
-4.180049143253e-04 1.202000575625e-04 0.0 
1.202000575625e-04 3.053431035811e-03 0.0 
0.0 0.0 0.0 
-3.802980839361e-04 6.090640140009e-05 0.0 
6.090640140009e-05 3.060704784418e-03 0.0 
0.0 0.0 0.0 
-3.501785961912e-04 1.589952615150e-05 0.0 
1.589952615150e-05 3.064014582170e-03 0.0 
0.0 0.0 0.0 
-3.256792929595e-04 -1.694138626652e-05 0.0 
-1.694138626652e-05 3.066901881149e-03 0.0 
0.0 0.0 0.0 
-3.064447891524e-04 -4.066570038423e-05 0.0 
-4.066570038423e-05 3.068692794779e-03 0.0 
0.0 0.0 0.0 
-2.914272909590e-04 -5.701233970241e-05 0.0 
-5.701233970241e-05 3.070379970057e-03 0.0 
0.0 0.0 0.0 
-2.800728565007e-04 -6.748029184202e-05 0.0 
-6.748029184202e-05 3.071933476963e-03 0.0 
0.0 0.0 0.0 
-2.714703226225e-04 -7.311934955704e-05 0.0 
-7.311934955704e-05 3.073402240167e-03 0.0 
0.0 0.0 0.0 
-2.649836494662e-04 -7.500157248116e-05 0.0 
-7.500157248116e-05 3.074637007097e-03 0.0 
0.0 0.0 0.0 
-2.602103826076e-04 -7.398108620308e-05 0.0 
-7.398108620308e-05 3.075724716232e-03 0.0 
0.0 0.0 0.0 
-2.568109478349e-04 -7.066214773188e-05 0.0 
-7.066214773188e-05 3.076696614053e-03 0.0 
0.0 0.0 0.0 
-2.544603880146e-04 -6.553568663906e-05 0.0 
-6.553568663906e-05 3.077534131968e-03 0.0 
0.0 0.0 0.0 
-2.528760039040e-04 -5.902085200238e-05 0.0 
-5.902085200238e-05 3.078210424018e-03 0.0 
0.0 0.0 0.0 
-2.518827277119e-04 -5.154822271096e-05 0.0 
-5.154822271096e-05 3.078734301022e-03 0.0 
0.0 0.0 0.0 
-2.514140665956e-04 -4.346415333997e-05 0.0 
-4.346415333997e-05 3.079174781043e-03 0.0 
0.0 0.0 0.0 
-2.513695483523e-04 -3.503606997253e-05 0.0 
-3.503606997253e-05 3.079521298777e-03 0.0 
0.0 0.0 0.0 
-2.516005017656e-04 -2.648309933107e-05 0.0 
-2.648309933107e-05 3.079661845034e-03 0.0 
0.0 0.0 0.0 
-2.517988082881e-04 -1.849265290928e-05 0.0 
-1.849265290928e-05 3.079268938394e-03 0.0 
0.0 0.0 0.0 
-2.515325239164e-04 8.258890338980e-06 0.0 
8.258890338980e-06 3.078482687929e-03 0.0 
0.0 0.0 0.0 
-2.755385255279e-04 2.520193421444e-07 0.0 
2.520193421444e-07 3.520763479737e-03 0.0 
0.0 0.0 0.0 
-2.766407988335e-04 -2.036938314156e-05 0.0 
-2.036938314156e-05 3.521496228441e-03 0.0 
0.0 0.0 0.0 
-2.781731458995e-04 -3.169953873092e-05 0.0 
-3.169953873092e-05 3.522087935706e-03 0.0 
0.0 0.0 0.0 
-2.804130617815e-04 -3.962385268268e-05 0.0 
-3.962385268268e-05 3.522654705540e-03 0.0 
0.0 0.0 0.0 
-2.834443483942e-04 -4.695345390831e-05 0.0 
-4.695345390831e-05 3.523202905705e-03 0.0 
0.0 0.0 0.0 
-2.874359249991e-04 -5.361895553004e-05 0.0 
-5.361895553004e-05 3.523734828497e-03 0.0 
0.0 0.0 0.0 
-2.924480384217e-04 -5.936341324514e-05 0.0 
-5.936341324514e-05 3.524133568936e-03 0.0 
0.0 0.0 0.0 
-2.985259256503e-04 -6.364642465117e-05 0.0 
-6.364642465117e-05 3.524225822837e-03 0.0 
0.0 0.0 0.0 
-3.058817210552e-04 -6.585434036145e-05 0.0 
-6.585434036145e-05 3.524074829264e-03 0.0 
0.0 0.0 0.0 
-3.149559946559e-04 -6.544117955060e-05 0.0 
-6.544117955060e-05 3.523741153049e-03 0.0 
0.0 0.0 0.0 
-3.259260909430e-04 -6.184681050627e-05 0.0 
-6.184681050627e-05 3.523070594227e-03 0.0 
0.0 0.0 0.0 
-3.389389880767e-04 -5.422976228288e-05 0.0 
-5.422976228288e-05 3.521748579658e-03 0.0 
0.0 0.0 0.0 
-3.542590192388e-04 -4.131734409212e-05 0.0 
-4.131734409212e-05 3.519386526566e-03 0.0 
0.0 0.0 0.0 
-3.725738461941e-04 -2.147897133550e-05 0.0 
-2.147897133550e-05 3.516434944106e-03 0.0 
0.0 0.0 0.0 
-3.947266609608e-04 6.010431000481e-06 0.0 
6.010431000481e-06 3.512173147944e-03 0.0 
0.0 0.0 0.0 
-4.205819472459e-04 4.376872925295e-05 0.0 
4.376872925295e-05 3.506618431600e-03 0.0 
0.0 0.0 0.0 
-4.506584642828e-04 9.269161361198e-05 0.0 
9.269161361198e-05 3.496334252718e-03 0.0 
0.0 0.0 0.0 
-4.821330264847e-04 1.599049135643e-04 0.0 
1.599049135643e-04 3.482848759712e-03 0.0 
0.0 0.0 0.0 
-5.264448799654e-04 2.552130519172e-04 0.0 
2.552130519172e-04 3.477228178899e-03 0.0 
0.0 0.0 0.0 
-5.567833273952e-04 3.428798130954e-04 0.0 
3.428798130954e-04 3.387833387043e-03 0.0 
0.0 0.0 0.0 
-5.453208782396e-04 2.743811955024e-04 0.0 
2.743811955024e-04 3.822010269830e-03 0.0 
0.0 0.0 0.0 
-5.280137396767e-04 2.066885686131e-04 0.0 
2.066885686131e-04 3.917598528767e-03 0.0 
0.0 0.0 0.0 
-4.960709303273e-04 1.334987513007e-04 0.0 
1.334987513007e-04 3.925282724228e-03 0.0 
0.0 0.0 0.0 
-4.706943540262e-04 8.086365400437e-05 0.0 
8.086365400437e-05 3.938931676170e-03 0.0 
0.0 0.0 0.0 
-4.447744036861e-04 4.165436057866e-05 0.0 
4.165436057866e-05 3.949840604657e-03 0.0 
0.0 0.0 0.0 
-4.225786511176e-04 1.090431666260e-05 0.0 
1.090431666260e-05 3.956582129897e-03 0.0 
0.0 0.0 0.0 
-4.027838245526e-04 -1.096864365106e-05 0.0 
-1.096864365106e-05 3.962430568656e-03 0.0 
0.0 0.0 0.0 
-3.848710485549e-04 -2.600198943450e-05 0.0 
-2.600198943450e-05 3.965669121247e-03 0.0 
0.0 0.0 0.0 
-3.689358717350e-04 -3.588961268342e-05 0.0 
-3.588961268342e-05 3.967295901512e-03 0.0 
0.0 0.0 0.0 
-3.547617973764e-04 -4.185815698499e-05 0.0 
-4.185815698499e-05 3.967832051136e-03 0.0 
0.0 0.0 0.0 
-3.427406347916e-04 -4.468445893337e-05 0.0 
-4.468445893337e-05 3.968088057405e-03 0.0 
0.0 0.0 0.0 
-3.326460276440e-04 -4.445571353974e-05 0.0 
-4.445571353974e-05 3.967991123899e-03 0.0 
0.0 0.0 0.0 
-3.235811589426e-04 -4.205991578687e-05 0.0 
-4.205991578687e-05 3.967102984656e-03 0.0 
0.0 0.0 0.0 
-3.160495764998e-04 -3.832806377558e-05 0.0 
-3.832806377558e-05 3.965906405933e-03 0.0 
0.0 0.0 0.0 
-3.098348141158e-04 -3.359003425556e-05 0.0 
-3.359003425556e-05 3.964705536033e-03 0.0 
0.0 0.0 0.0 
-3.050232948098e-04 -2.798057849942e-05 0.0 
-2.798057849942e-05 3.963593409794e-03 0.0 
0.0 0.0 0.0 
-3.013105169583e-04 -2.184914781474e-05 0.0 
-2.184914781474e-05 3.962668241512e-03 0.0 
0.0 0.0 0.0 
-2.990842949650e-04 -1.559505425874e-05 0.0 
-1.559505425874e-05 3.962293732538e-03 0.0 
0.0 0.0 0.0 
-2.983669260432e-04 9.727990746987e-06 0.0 
9.727990746987e-06 3.962147318455e-03 0.0 
0.0 0.0 0.0 
-3.179377574859e-04 4.192813161445e-06 0.0 
4.192813161445e-06 4.400821438724e-03 0.0 
0.0 0.0 0.0 
-3.191540917260e-04 -1.304442056283e-05 0.0 
-1.304442056283e-05 4.400424219373e-03 0.0 
0.0 0.0 0.0 
-3.230106752847e-04 -1.996524221641e-05 0.0 
-1.996524221641e-05 4.401098603465e-03 0.0 
0.0 0.0 0.0 
-3.288077893108e-04 -2.401118507965e-05 0.0 
-2.401118507965e-05 4.402548163714e-03 0.0 
0.0 0.0 0.0 
-3.355917269253e-04 -2.664047724511e-05 0.0 
-2.664047724511e-05 4.403692450087e-03 0.0 
0.0 0.0 0.0 
-3.447196680633e-04 -2.835988651817e-05 0.0 
-2.835988651817e-05 4.405273865088e-03 0.0 
0.0 0.0 0.0 
-3.551996803140e-04 -2.840681081108e-05 0.0 
-2.840681081108e-05 4.406554608302e-03 0.0 
0.0 0.0 0.0 
-3.676155395756e-04 -2.737664628874e-05 0.0 
-2.737664628874e-05 4.406979614216e-03 0.0 
0.0 0.0 0.0 
-3.808298687539e-04 -2.254164245260e-05 0.0 
-2.254164245260e-05 4.405645738053e-03 0.0 
0.0 0.0 0.0 
-3.969659883330e-04 -1.410597759669e-05 0.0 
-1.410597759669e-05 4.404883245307e-03 0.0 
0.0 0.0 0.0 
-4.147002549996e-04 -2.413308518116e-06 0.0 
-2.413308518116e-06 4.402677896550e-03 0.0 
0.0 0.0 0.0 
-4.336972561348e-04 1.453184497061e-05 0.0 
1.453184497061e-05 4.397934884416e-03 0.0 
0.0 0.0 0.0 
-4.547844195666e-04 3.766034273249e-05 0.0 
3.766034273249e-05 4.390960406726e-03 0.0 
0.0 0.0 0.0 
-4.764880287953e-04 6.872798179844e-05 0.0 
6.872798179844e-05 4.378224372995e-03 0.0 
0.0 0.0 0.0 
-4.978361378967e-04 1.124714847299e-04 0.0 
1.124714847299e-04 4.365059495053e-03 0.0 
0.0 0.0 0.0 
-5.254559212124e-04 1.693297603016e-04 0.0 
1.693297603016e-04 4.362543547477e-03 0.0 
0.0 0.0 0.0 
-5.380101151045e-04 2.209247980836e-04 0.0 
2.209247980836e-04 4.266666818983e-03 0.0 
0.0 0.0 0.0 
-5.261236657534e-04 1.887665827737e-04 0.0 
1.887665827737e-04 4.708973269476e-03 0.0 
0.0 0.0 0.0 
-5.184331416175e-04 1.483848992148e-04 0.0 
1.483848992148e-04 4.803539306411e-03 0.0 
0.0 0.0 0.0 
-4.961468558017e-04 1.041066857654e-04 0.0 
1.041066857654e-04 4.807189578623e-03 0.0 
0.0 0.0 0.0 
-4.733562492042e-04 7.259307999066e-05 0.0 
7.259307999066e-05 4.818831454123e-03 0.0 
0.0 0.0 0.0 
-4.533705656768e-04 4.713934729433e-05 0.0 
4.713934729433e-05 4.828584669359e-03 0.0 
0.0 0.0 0.0 
-4.341582566650e-04 2.899354289015e-05 0.0 
2.899354289015e-05 4.834931893792e-03 0.0 
0.0 0.0 0.0 
-4.160804027670e-04 1.530060721197e-05 0.0 
1.530060721197e-05 4.837245022630e-03 0.0 
0.0 0.0 0.0 
-3.997102603395e-04 3.764041096091e-06 0.0 
3.764041096091e-06 4.839403466344e-03 0.0 
0.0 0.0 0.0 
-3.833887388081e-04 -1.903669496960e-06 0.0 
-1.903669496960e-06 4.840970721560e-03 0.0 
0.0 0.0 0.0 
-3.711518843481e-04 -7.078013442205e-06 0.0 
-7.078013442205e-06 4.839909017020e-03 0.0 
0.0 0.0 0.0 
-3.594470867898e-04 -8.852475066961e-06 0.0 
-8.852475066961e-06 4.838883865222e-03 0.0 
0.0 0.0 0.0 
-3.500867584476e-04 -1.109128279461e-05 0.0 
-1.109128279461e-05 4.837322367349e-03 0.0 
0.0 0.0 0.0 
-3.431126854970e-04 -9.799532200332e-06 0.0 
-9.799532200332e-06 4.837054426985e-03 0.0 
0.0 0.0 0.0 
-3.364542071056e-04 -8.950973160186e-06 0.0 
-8.950973160186e-06 4.834475859828e-03 0.0 
0.0 0.0 0.0 
-3.331264878904e-04 -1.014322357351e-05 0.0 
-1.014322357351e-05 4.836848676900e-03 0.0 
0.0 0.0 0.0 
-3.349033485286e-04 1.482736285560e-05 0.0 
1.482736285560e-05 4.839587975708e-03 0.0 
0.0 0.0 0.0 
-1.389178735201e-03 2.770992658806e-03 0.0 
2.770992658806e-03 -5.126998741710e-04 0.0 
0.0 0.0 0.0 
-1.001013231061e-03 1.281499746105e-03 0.0 
1.281499746105e-03 1.470119011166e-03 0.0 
0.0 0.0 0.0 
-7.954061350803e-04 1.081852200303e-03 0.0 
1.081852200303e-03 1.881582813814e-03 0.0 
0.0 0.0 0.0 
-8.046605326626e-04 9.372247485907e-04 0.0 
9.372247485907e-04 2.376541562232e-03 0.0 
0.0 0.0 0.0 
-7.077100046688e-04 7.402971532321e-04 0.0 
7.402971532321e-04 2.785957850839e-03 0.0 
0.0 0.0 0.0 
-6.367125665658e-04 5.738580942703e-04 0.0 
5.738580942703e-04 3.205070542051e-03 0.0 
0.0 0.0 0.0 
-6.019293026878e-04 4.485308389889e-04 0.0 
4.485308389889e-04 3.639501351358e-03 0.0 
0.0 0.0 0.0 
-5.779432452447e-04 3.546062849700e-04 0.0 
3.546062849700e-04 4.084196467002e-03 0.0 
0.0 0.0 0.0 
-5.619012741350e-04 2.863827947527e-04 0.0 
2.863827947527e-04 4.534195799350e-03 0.0 
0.0 0.0 0.0 
-5.423526939467e-04 2.432687275275e-04 0.0 
2.432687275275e-04 4.985135520891e-03 0.0 
0.0 0.0 0.0 
-8.412645066758e-04 1.961504510477e-03 0.0 
1.961504510477e-03 1.128713781072e-03 0.0 
0.0 0.0 0.0 
1.846982649619e-04 2.983540444166e-04 0.0 
2.983540444166e-04 6.645574204475e-03 0.0 
0.0 0.0 0.0 
1.337571459214e-04 -1.437800329196e-04 0.0 
-1.437800329196e-04 1.689011480710e-04 0.0 
0.0 0.0 0.0 
-7.685903035267e-04 -1.650874863445e-03 0.0 
-1.650874863445e-03 -3.174111350196e-03 0.0 
0.0 0.0 0.0 
9.900987870922e-05 -1.462804764632e-04 0.0 
-1.462804764632e-04 6.803540341114e-03 0.0 
0.0 0.0 0.0 
-8.110942537751e-04 1.165430089843e-03 0.0 
1.165430089843e-03 2.534502341908e-03 0.0 
0.0 0.0 0.0 
-4.925200147891e-04 -7.779971432566e-05 0.0 
-7.779971432566e-05 4.252998410137e-03 0.0 
0.0 0.0 0.0 
1.527386792765e-04 7.232632410438e-04 0.0 
7.232632410438e-04 6.885817012223e-03 0.0 
0.0 0.0 0.0 
-6.514412893044e-04 6.887722012147e-04 0.0 
6.887722012147e-04 3.435845362346e-03 0.0 
0.0 0.0 0.0 
5.009919547868e-05 9.634767118041e-04 0.0 
9.634767118041e-04 7.426575419018e-03 0.0 
0.0 0.0 0.0 
-5.921588781490e-04 4.205701435322e-04 0.0 
4.205701435322e-04 4.377037396469e-03 0.0 
0.0 0.0 0.0 
2.351985525747e-06 -2.623751520078e-04 0.0 
-2.623751520078e-04 7.141686664386e-03 0.0 
0.0 0.0 0.0 
4.537425487959e-04 -1.213713099990e-05 0.0 
-1.213713099990e-05 5.105468856533e-05 0.0 
0.0 0.0 0.0 
-3.983100884134e-05 9.609823940080e-04 0.0 
9.609823940080e-04 7.990228300219e-03 0.0 
0.0 0.0 0.0 
-5.519291550319e-04 2.926367230980e-04 0.0 
2.926367230980e-04 5.312019840458e-03 0.0 
0.0 0.0 0.0 
-3.863932201601e-04 -5.777088568881e-05 0.0 
-5.777088568881e-05 2.704903206799e-03 0.0 
0.0 0.0 0.0 
-4.230023728172e-04 -6.847107006930e-05 0.0 
-6.847107006930e-05 5.260376976589e-03 0.0 
0.0 0.0 0.0 
-8.232042071057e-05 8.409395409224e-04 0.0 
8.409395409224e-04 8.314458815690e-03 0.0 
0.0 0.0 0.0 
-8.895853908630e-05 6.299229647673e-04 0.0 
6.299229647673e-04 8.647519166252e-03 0.0 
0.0 0.0 0.0 
-6.784090652886e-05 1.953947759249e-04 0.0 
1.953947759249e-04 8.923786523270e-03 0.0 
0.0 0.0 0.0 
-8.347029250290e-05 3.259218024662e-04 0.0 
3.259218024662e-04 8.841934546768e-03 0.0 
0.0 0.0 0.0 
-8.487086588906e-05 4.672291971817e-04 0.0 
4.672291971817e-04 8.795454130048e-03 0.0 
0.0 0.0 0.0 
-5.086506066906e-04 1.930268838409e-04 0.0 
1.930268838409e-04 5.575064085214e-03 0.0 
0.0 0.0 0.0 
-4.347375368096e-04 7.971835035890e-05 0.0 
7.971835035890e-05 5.636409467001e-03 0.0 
0.0 0.0 0.0 
-3.873154936065e-04 3.676448482499e-05 0.0 
3.676448482499e-05 5.675364401590e-03 0.0 
0.0 0.0 0.0 
-2.863763744314e-04 1.016876978545e-05 0.0 
1.016876978545e-05 7.143598708537e-03 0.0 
0.0 0.0 0.0 
-5.261673873682e-05 -2.107296448956e-04 0.0 
-2.107296448956e-04 7.304528499704e-03 0.0 
0.0 0.0 0.0 
-8.101250002513e-04 8.385231301193e-04 0.0 
8.385231301193e-04 -4.168040791191e-03 0.0 
0.0 0.0 0.0 
4.856200015529e-04 -1.638770064813e-06 0.0 
-1.638770064813e-06 5.272329989690e-05 0.0 
0.0 0.0 0.0 
-2.801050435395e-04 -4.934662948102e-05 0.0 
-4.934662948102e-05 6.432354016960e-03 0.0 
0.0 0.0 0.0 
-3.556544207762e-04 1.562142104487e-05 0.0 
1.562142104487e-05 5.626490830509e-03 0.0 
0.0 0.0 0.0 
-1.635762171235e-05 -2.726582737194e-05 0.0 
-2.726582737194e-05 1.327934443669e-03 0.0 
0.0 0.0 0.0 
-1.039447404360e-04 7.276057276369e-04 0.0 
7.276057276369e-04 8.450354638456e-03 0.0 
0.0 0.0 0.0 
9.540427135724e-05 8.790960204893e-04 0.0 
8.790960204893e-04 7.176324923363e-03 0.0 
0.0 0.0 0.0 
-1.414174245651e-06 9.898840793483e-04 0.0 
9.898840793483e-04 7.719033475445e-03 0.0 
0.0 0.0 0.0 
1.909262387254e-04 5.388507086129e-04 0.0 
5.388507086129e-04 6.700981706265e-03 0.0 
0.0 0.0 0.0 
1.520576369982e-04 8.729725791588e-05 0.0 
8.729725791588e-05 6.671330214368e-03 0.0 
0.0 0.0 0.0 
-7.361268579492e-04 -1.118603016699e-03 0.0 
-1.118603016699e-03 1.076491021714e-04 0.0 
0.0 0.0 0.0 
-4.714818512807e-04 1.246572596693e-04 0.0 
1.246572596693e-04 5.601711580549e-03 0.0 
0.0 0.0 0.0 
5.257830639735e-05 -2.363356032310e-04 0.0 
-2.363356032310e-04 6.887153065961e-03 0.0 
0.0 0.0 0.0 
-2.141166929942e-04 1.802983488057e-05 0.0 
1.802983488057e-05 7.920249891479e-03 0.0 
0.0 0.0 0.0 
3.198762475930e-04 -2.792125917358e-05 0.0 
-2.792125917358e-05 1.179916858286e-04 0.0 
0.0 0.0 0.0 
-4.797445123227e-04 -7.530526488540e-05 0.0 
-7.530526488540e-05 3.482030934589e-03 0.0 
0.0 0.0 0.0 
-5.596463544455e-05 1.225777635297e-04 0.0 
1.225777635297e-04 8.995753052458e-03 0.0 
0.0 0.0 0.0 
-7.132606886764e-04 9.292394971266e-04 0.0 
9.292394971266e-04 3.004428774358e-03 0.0 
0.0 0.0 0.0 
-8.506644042950e-04 1.504006266385e-03 0.0 
1.504006266385e-03 1.937402409158e-03 0.0 
0.0 0.0 0.0 
-6.168320485092e-04 5.379549363569e-04 0.0 
5.379549363569e-04 3.907982802291e-03 0.0 
0.0 0.0 0.0 
-5.729380720649e-04 3.415574449838e-04 0.0 
3.415574449838e-04 4.842318663994e-03 0.0 
0.0 0.0 0.0 
-1.012842165674e-03 2.704391318948e-03 0.0 
2.704391318948e-03 -3.504327689261e-04 0.0 
0.0 0.0 0.0 
-3.284909295685e-04 7.572665250737e-06 0.0 
7.572665250737e-06 6.369302261777e-03 0.0 
0.0 0.0 0.0 
-6.364780977322e-05 -1.304979921359e-04 0.0 
-1.304979921359e-04 7.449275739506e-03 0.0 
0.0 0.0 0.0 
5.099668645552e-04 8.046821052338e-06 0.0 
8.046821052338e-06 2.129432584928e-05 0.0 
0.0 0.0 0.0 
-1.030573823895e-04 3.125817946467e-05 0.0 
3.125817946467e-05 8.667639527613e-03 0.0 
0.0 0.0 0.0 
-5.399568765263e-04 2.777669268131e-04 0.0 
2.777669268131e-04 5.524378517235e-03 0.0 
0.0 0.0 0.0 
-5.385865097114e-04 3.410052766201e-04 0.0 
3.410052766201e-04 5.648379246147e-03 0.0 
0.0 0.0 0.0 
-5.215037135818e-04 3.151701494360e-04 0.0 
3.151701494360e-04 5.873758630071e-03 0.0 
0.0 0.0 0.0 
-5.174965605010e-04 3.904708794943e-04 0.0 
3.904708794943e-04 6.002954456960e-03 0.0 
0.0 0.0 0.0 
-4.999162963332e-04 3.697320916475e-04 0.0 
3.697320916475e-04 6.247875530462e-03 0.0 
0.0 0.0 0.0 
-4.863647887764e-04 4.385535760542e-04 0.0 
4.385535760542e-04 6.354512948192e-03 0.0 
0.0 0.0 0.0 
-5.010661362732e-04 4.656936120696e-04 0.0 
4.656936120696e-04 6.102599762037e-03 0.0 
0.0 0.0 0.0 
-4.622688929970e-04 5.107054711770e-04 0.0 
5.107054711770e-04 6.448169616698e-03 0.0 
0.0 0.0 0.0 
-4.727355133065e-04 5.428910210025e-04 0.0 
5.428910210025e-04 6.183371992636e-03 0.0 
0.0 0.0 0.0 
-4.654544222897e-04 4.177693482189e-04 0.0 
4.177693482189e-04 6.604867256402e-03 0.0 
0.0 0.0 0.0 
-4.280286883356e-04 5.825502180513e-04 0.0 
5.825502180513e-04 6.525876972692e-03 0.0 
0.0 0.0 0.0 
-4.323967000603e-04 6.188854300401e-04 0.0 
6.188854300401e-04 6.247459692947e-03 0.0 
0.0 0.0 0.0 
-3.831321323432e-04 6.528565256342e-04 0.0 
6.528565256342e-04 6.587435501870e-03 0.0 
0.0 0.0 0.0 
-3.802345449861e-04 6.917438884878e-04 0.0 
6.917438884878e-04 6.295436953207e-03 0.0 
0.0 0.0 0.0 
-4.293451326879e-04 6.644196805225e-04 0.0 
6.644196805225e-04 5.961208257117e-03 0.0 
0.0 0.0 0.0 
-3.675704794164e-04 7.399686733804e-04 0.0 
7.399686733804e-04 5.993265545562e-03 0.0 
0.0 0.0 0.0 
-4.184907614584e-04 7.201053967742e-04 0.0 
7.201053967742e-04 5.665263166963e-03 0.0 
0.0 0.0 0.0 
-3.448786225765e-04 7.981911741306e-04 0.0 
7.981911741306e-04 5.679009012825e-03 0.0 
0.0 0.0 0.0 
-2.933425990286e-04 8.064072551969e-04 0.0 
8.064072551969e-04 6.010038748509e-03 0.0 
0.0 0.0 0.0 
-2.569910587891e-04 8.638321041475e-04 0.0 
8.638321041475e-04 5.675755587545e-03 0.0 
0.0 0.0 0.0 
-3.110736257593e-04 8.673232351966e-04 0.0 
8.673232351966e-04 5.349915340124e-03 0.0 
0.0 0.0 0.0 
-2.070430604498e-04 9.319889361030e-04 0.0 
9.319889361030e-04 5.324630890034e-03 0.0 
0.0 0.0 0.0 
-2.654273117418e-04 9.485111738481e-04 0.0 
9.485111738481e-04 5.005003551430e-03 0.0 
0.0 0.0 0.0 
-1.428890352068e-04 1.009568951917e-03 0.0 
1.009568951917e-03 4.955285672846e-03 0.0 
0.0 0.0 0.0 
-2.067819509146e-04 1.041516303308e-03 0.0 
1.041516303308e-03 4.639993962821e-03 0.0 
0.0 0.0 0.0 
-6.270418112136e-05 1.096011979252e-03 0.0 
1.096011979252e-03 4.563543648266e-03 0.0 
0.0 0.0 0.0 
-8.984950832791e-06 1.045077526336e-03 0.0 
1.045077526336e-03 4.895866347755e-03 0.0 
0.0 0.0 0.0 
9.187402466119e-05 1.119299395325e-03 0.0 
1.119299395325e-03 4.479503628205e-03 0.0 
0.0 0.0 0.0 
3.679449014734e-05 1.190219319626e-03 0.0 
1.190219319626e-03 4.145417926287e-03 0.0 
0.0 0.0 0.0 
2.135455429414e-04 1.194851496085e-03 0.0 
1.194851496085e-03 4.035513558946e-03 0.0 
0.0 0.0 0.0 
1.586377013992e-04 1.288259715551e-03 0.0 
1.288259715551e-03 3.695087170855e-03 0.0 
0.0 0.0 0.0 
3.587818631197e-04 1.266415103184e-03 0.0 
1.266415103184e-03 3.557943510172e-03 0.0 
0.0 0.0 0.0 
3.869265551187e-04 1.159739395005e-03 0.0 
1.159739395005e-03 3.935719234492e-03 0.0 
0.0 0.0 0.0 
5.474535524460e-04 1.197232480143e-03 0.0 
1.197232480143e-03 3.442736485980e-03 0.0 
0.0 0.0 0.0 
5.298873911621e-04 1.325466556665e-03 0.0 
1.325466556665e-03 3.040005522769e-03 0.0 
0.0 0.0 0.0 
7.301473919178e-04 1.212346343084e-03 0.0 
1.212346343084e-03 2.917197676701e-03 0.0 
0.0 0.0 0.0 
7.278398457395e-04 1.361805859403e-03 0.0 
1.361805859403e-03 2.479935712537e-03 0.0 
0.0 0.0 0.0 
9.345321871002e-04 1.193625606538e-03 0.0 
1.193625606538e-03 2.360036608717e-03 0.0 
0.0 0.0 0.0 
9.568802101064e-04 1.360826815108e-03 0.0 
1.360826815108e-03 1.874406209296e-03 0.0 
0.0 0.0 0.0 
1.157475329672e-03 1.124321207593e-03 0.0 
1.124321207593e-03 1.770838367984e-03 0.0 
0.0 0.0 0.0 
1.090329016550e-03 9.837090885880e-04 0.0 
9.837090885880e-04 2.309878672592e-03 0.0 
0.0 0.0 0.0 
1.288884060512e-03 8.543688008902e-04 0.0 
8.543688008902e-04 1.759680465146e-03 0.0 
0.0 0.0 0.0 
1.388699006050e-03 9.856323105283e-04 0.0 
9.856323105283e-04 1.161180157191e-03 0.0 
0.0 0.0 0.0 
1.477006934809e-03 6.549963849983e-04 0.0 
6.549963849983e-04 1.214603048167e-03 0.0 
0.0 0.0 0.0 
1.349948383780e-03 5.774977659460e-04 0.0 
5.774977659460e-04 1.843326744619e-03 0.0 
0.0 0.0 0.0 
1.483772279284e-03 3.402580799189e-04 0.0 
3.402580799189e-04 1.376367923579e-03 0.0 
0.0 0.0 0.0 
1.345129899165e-03 3.169704644503e-04 0.0 
3.169704644503e-04 2.013535864208e-03 0.0 
0.0 0.0 0.0 
1.422472616186e-03 6.402666552490e-05 0.0 
6.402666552490e-05 1.628046890589e-03 0.0 
0.0 0.0 0.0 
1.568878979624e-03 4.083325936806e-05 0.0 
4.083325936806e-05 9.687411154046e-04 0.0 
0.0 0.0 0.0 
1.443189930000e-03 -2.315045422423e-04 0.0 
-2.315045422423e-04 1.313317825256e-03 0.0 
0.0 0.0 0.0 
1.310662827061e-03 -1.610891992964e-04 0.0 
-1.610891992964e-04 1.945010517748e-03 0.0 
0.0 0.0 0.0 
1.277632815739e-03 -4.343432377497e-04 0.0 
-4.343432377497e-04 1.707832846390e-03 0.0 
0.0 0.0 0.0 
1.391674993511e-03 -5.541816077497e-04 0.0 
-5.541816077497e-04 1.089021187638e-03 0.0 
0.0 0.0 0.0 
1.178699291773e-03 -7.114455313826e-04 0.0 
-7.114455313826e-04 1.557887986247e-03 0.0 
0.0 0.0 0.0 
1.092779394927e-03 -5.698661199112e-04 0.0 
-5.698661199112e-04 2.129151827258e-03 0.0 
0.0 0.0 0.0 
9.638680261241e-04 -7.967829102114e-04 0.0 
-7.967829102114e-04 2.028089311443e-03 0.0 
0.0 0.0 0.0 
1.013557483054e-03 -9.686713651258e-04 0.0 
-9.686713651258e-04 1.497289790013e-03 0.0 
0.0 0.0 0.0 
7.842415638517e-04 -9.925251477364e-04 0.0 
-9.925251477364e-04 1.999792991674e-03 0.0 
0.0 0.0 0.0 
7.601510847528e-04 -8.251190868277e-04 0.0 
-8.251190868277e-04 2.486749692132e-03 0.0 
0.0 0.0 0.0 
5.795441548695e-04 -9.674468160373e-04 0.0 
-9.674468160373e-04 2.468497346254e-03 0.0 
0.0 0.0 0.0 
5.650717760577e-04 -1.137376389842e-03 0.0 
-1.137376389842e-03 2.031039364092e-03 0.0 
0.0 0.0 0.0 
3.749856666649e-04 -1.060221213806e-03 0.0 
-1.060221213806e-03 2.491194112407e-03 0.0 
0.0 0.0 0.0 
4.015945090830e-04 -9.107076839463e-04 0.0 
-9.107076839463e-04 2.903021048752e-03 0.0 
0.0 0.0 0.0 
2.165089841149e-04 -9.639372181218e-04 0.0 
-9.639372181218e-04 2.907611797237e-03 0.0 
0.0 0.0 0.0 
2.484510626332e-04 -8.347609153615e-04 0.0 
-8.347609153615e-04 3.303622877860e-03 0.0 
0.0 0.0 0.0 
1.626442202098e-04 -1.095062568700e-03 0.0 
-1.095062568700e-03 2.534317516010e-03 0.0 
0.0 0.0 0.0 
3.408996376584e-05 -9.683287632785e-04 0.0 
-9.683287632785e-04 2.920637403929e-03 0.0 
0.0 0.0 0.0 
-3.818841632601e-05 -1.070107443515e-03 0.0 
-1.070107443515e-03 2.578996723483e-03 0.0 
0.0 0.0 0.0 
-1.314443703469e-04 -9.252113071918e-04 0.0 
-9.252113071918e-04 2.926915950250e-03 0.0 
0.0 0.0 0.0 
5.458215655762e-04 1.087494948157e-03 0.0 
1.087494948157e-03 3.860006610742e-03 0.0 
0.0 0.0 0.0 
-2.074484309273e-04 -9.892914148458e-04 0.0 
-9.892914148458e-04 2.604731666764e-03 0.0 
0.0 0.0 0.0 
-1.316364623847e-04 -1.154280241323e-03 0.0 
-1.154280241323e-03 2.267778849520e-03 0.0 
0.0 0.0 0.0 
-2.660689155785e-04 -8.413298111888e-04 0.0 
-8.413298111888e-04 2.910491374750e-03 0.0 
0.0 0.0 0.0 
-2.068600704670e-04 -7.909435657300e-04 0.0 
-7.909435657300e-04 3.244141480249e-03 0.0 
0.0 0.0 0.0 
-3.314805417944e-04 -8.659876560452e-04 0.0 
-8.659876560452e-04 2.593108276733e-03 0.0 
0.0 0.0 0.0 
-3.612598184037e-04 -7.281731287815e-04 0.0 
-7.281731287815e-04 2.860145090170e-03 0.0 
0.0 0.0 0.0 
-4.029748656747e-04 -7.178119239963e-04 0.0 
-7.178119239963e-04 2.535236575847e-03 0.0 
0.0 0.0 0.0 
7.001023048907e-04 1.541315049637e-03 0.0 
1.541315049637e-03 2.051912794392e-03 0.0 
0.0 0.0 0.0 
-2.089021808548e-04 8.600185858578e-04 0.0 
8.600185858578e-04 6.014446385375e-03 0.0 
0.0 0.0 0.0 
-4.130138749131e-04 -5.979861540513e-04 0.0 
-5.979861540513e-04 2.769518413386e-03 0.0 
0.0 0.0 0.0 
-4.214605595416e-04 -5.613740046940e-04 0.0 
-5.613740046940e-04 2.425502191643e-03 0.0 
0.0 0.0 0.0 
-4.298952834060e-04 -6.700498874015e-04 0.0 
-6.700498874015e-04 2.211040843970e-03 0.0 
0.0 0.0 0.0 
-4.007407106207e-04 -4.911434298746e-04 0.0 
-4.911434298746e-04 2.070126915353e-03 0.0 
0.0 0.0 0.0 
-4.774106062652e-04 3.524824666795e-04 0.0 
3.524824666795e-04 6.487458744867e-03 0.0 
0.0 0.0 0.0 
-4.398881151507e-04 4.019260275816e-04 0.0 
4.019260275816e-04 6.852437434050e-03 0.0 
0.0 0.0 0.0 
-4.521092329504e-04 3.366060266181e-04 0.0 
3.366060266181e-04 6.718647608087e-03 0.0 
0.0 0.0 0.0 
-4.115908939507e-04 3.870841420044e-04 0.0 
3.870841420044e-04 7.095624831552e-03 0.0 
0.0 0.0 0.0 
-4.235238510870e-04 3.256274196770e-04 0.0 
3.256274196770e-04 6.962531141181e-03 0.0 
0.0 0.0 0.0 
-3.918061061587e-04 -4.138392770532e-04 0.0 
-4.138392770532e-04 2.264964872037e-03 0.0 
0.0 0.0 0.0 
-3.760360414507e-04 6.226423294598e-04 0.0 
6.226423294598e-04 6.872511651372e-03 0.0 
0.0 0.0 0.0 
-3.930722772281e-04 4.506629045377e-04 0.0 
4.506629045377e-04 7.215936489321e-03 0.0 
0.0 0.0 0.0 
-3.710415925934e-04 8.656840512280e-04 0.0 
8.656840512280e-04 5.038602730494e-03 0.0 
0.0 0.0 0.0 
-3.801635172009e-05 1.261557664990e-03 0.0 
1.261557664990e-03 3.836153219761e-03 0.0 
0.0 0.0 0.0 
1.227685666807e-03 5.201447692185e-04 0.0 
5.201447692185e-04 2.446547973802e-03 0.0 
0.0 0.0 0.0 
-3.886396293684e-04 -6.054979169521e-04 0.0 
-6.054979169521e-04 3.110911729752e-03 0.0 
0.0 0.0 0.0 
-4.265874338927e-04 -4.918377915361e-04 0.0 
-4.918377915361e-04 2.995015084999e-03 0.0 
0.0 0.0 0.0 
-4.145811034605e-04 -4.959416114185e-04 0.0 
-4.959416114185e-04 3.347862790936e-03 0.0 
0.0 0.0 0.0 
4.086285545448e-04 -7.705513579062e-04 0.0 
-7.705513579062e-04 3.333434320619e-03 0.0 
0.0 0.0 0.0 
2.623492666008e-04 -7.115084376096e-04 0.0 
-7.115084376096e-04 3.717288627566e-03 0.0 
0.0 0.0 0.0 
3.990506901210e-04 -6.420888604270e-04 0.0 
-6.420888604270e-04 3.777140534294e-03 0.0 
0.0 0.0 0.0 
2.610709418103e-04 -5.972992723350e-04 0.0 
-5.972992723350e-04 4.144552786858e-03 0.0 
0.0 0.0 0.0 
3.758492324922e-04 -5.272320914282e-04 0.0 
-5.272320914282e-04 4.230407428928e-03 0.0 
0.0 0.0 0.0 
2.473696716293e-04 -4.947532824695e-04 0.0 
-4.947532824695e-04 4.582251071620e-03 0.0 
0.0 0.0 0.0 
1.401910047994e-04 -5.428994742133e-04 0.0 
-5.428994742133e-04 4.491093373425e-03 0.0 
0.0 0.0 0.0 
1.344718689543e-04 -4.537903944269e-04 0.0 
-4.537903944269e-04 4.916665743855e-03 0.0 
0.0 0.0 0.0 
3.624741649496e-05 -4.835722420610e-04 0.0 
-4.835722420610e-04 4.817034321262e-03 0.0 
0.0 0.0 0.0 
3.414699776953e-04 -4.272615710572e-04 0.0 
-4.272615710572e-04 4.690658719417e-03 0.0 
0.0 0.0 0.0 
4.725744150738e-04 -4.369961967772e-04 0.0 
-4.369961967772e-04 4.339906670591e-03 0.0 
0.0 0.0 0.0 
3.796305517201e-05 -4.081320540530e-04 0.0 
-4.081320540530e-04 5.232671462490e-03 0.0 
0.0 0.0 0.0 
-5.105729620895e-05 -4.223361692060e-04 0.0 
-4.223361692060e-04 5.123013442776e-03 0.0 
0.0 0.0 0.0 
-4.167742759287e-05 -3.599283150385e-04 0.0 
-3.599283150385e-04 5.530465633616e-03 0.0 
0.0 0.0 0.0 
-1.218390627162e-04 -3.615110586363e-04 0.0 
-3.615110586363e-04 5.409737672813e-03 0.0 
0.0 0.0 0.0 
-1.416425655124e-04 -4.201348341757e-04 0.0 
-4.201348341757e-04 5.014935250109e-03 0.0 
0.0 0.0 0.0 
-2.017454366747e-04 -3.493335390341e-04 0.0 
-3.493335390341e-04 5.287263520645e-03 0.0 
0.0 0.0 0.0 
-2.283748997611e-04 -4.017900351518e-04 0.0 
-4.017900351518e-04 4.904631537593e-03 0.0 
0.0 0.0 0.0 
1.213987854970e-03 3.036428387040e-04 0.0 
3.036428387040e-04 2.621953496802e-03 0.0 
0.0 0.0 0.0 
1.108821353732e-03 4.792816841363e-04 0.0 
4.792816841363e-04 3.029597265939e-03 0.0 
0.0 0.0 0.0 
1.088121406548e-03 2.983581145099e-04 0.0 
2.983581145099e-04 3.207424727789e-03 0.0 
0.0 0.0 0.0 
9.916037771126e-04 4.510152813279e-04 0.0 
4.510152813279e-04 3.594989181886e-03 0.0 
0.0 0.0 0.0 
9.642904811225e-04 2.990734207172e-04 0.0 
2.990734207172e-04 3.775350714185e-03 0.0 
0.0 0.0 0.0 
8.729904297636e-04 4.331268321507e-04 0.0 
4.331268321507e-04 4.147413633789e-03 0.0 
0.0 0.0 0.0 
8.386119100854e-04 3.050186795717e-04 0.0 
3.050186795717e-04 4.329357608261e-03 0.0 
0.0 0.0 0.0 
9.053114704171e-04 1.658930405266e-04 0.0 
1.658930405266e-04 3.997668938088e-03 0.0 
0.0 0.0 0.0 
-3.289445569653e-04 7.196322165530e-04 0.0 
7.196322165530e-04 6.632762611526e-03 0.0 
0.0 0.0 0.0 
1.610105331070e-03 7.580099024838e-04 0.0 
7.580099024838e-04 5.545662548030e-04 0.0 
0.0 0.0 0.0 
1.484054014000e-03 1.152644915386e-03 0.0 
1.152644915386e-03 5.426197172071e-04 0.0 
0.0 0.0 0.0 
1.748397306806e-03 8.948206594128e-04 0.0 
8.948206594128e-04 -1.435719646683e-04 0.0 
0.0 0.0 0.0 
1.569068189260e-03 1.366643237811e-03 0.0 
1.366643237811e-03 -9.537842394467e-05 0.0 
0.0 0.0 0.0 
1.888017224230e-03 1.077968305998e-03 0.0 
1.077968305998e-03 -8.862676072168e-04 0.0 
0.0 0.0 0.0 
1.631746859603e-03 1.639495556366e-03 0.0 
1.639495556366e-03 -7.475073617427e-04 0.0 
0.0 0.0 0.0 
2.020090544929e-03 1.321144974656e-03 0.0 
1.321144974656e-03 -1.678992119675e-03 0.0 
0.0 0.0 0.0 
2.163703919777e-03 6.128422062230e-04 0.0 
6.128422062230e-04 -1.641687720664e-03 0.0 
0.0 0.0 0.0 
2.359294753135e-03 7.639052789949e-04 0.0 
7.639052789949e-04 -2.581665690677e-03 0.0 
0.0 0.0 0.0 
2.319786374127e-03 -4.254039819470e-05 0.0 
-4.254039819470e-05 -2.255856158673e-03 0.0 
0.0 0.0 0.0 
2.523752201348e-03 -4.152146212652e-05 0.0 
-4.152146212652e-05 -3.247128357644e-03 0.0 
0.0 0.0 0.0 
2.271441961417e-03 -8.316268982656e-04 0.0 
-8.316268982656e-04 -2.615375416888e-03 0.0 
0.0 0.0 0.0 
1.294818719980e-04 1.053785387513e-03 0.0 
1.053785387513e-03 4.834296504427e-03 0.0 
0.0 0.0 0.0 
8.758960063199e-04 5.728057540227e-04 0.0 
5.728057540227e-04 4.005378109431e-03 0.0 
0.0 0.0 0.0 
7.650011746797e-04 5.443856753283e-04 0.0 
5.443856753283e-04 4.541528754208e-03 0.0 
0.0 0.0 0.0 
7.510868903456e-04 6.670867337652e-04 0.0 
6.670867337652e-04 4.425268864454e-03 0.0 
0.0 0.0 0.0 
-4.222876802718e-04 -5.780312531277e-04 0.0 
-5.780312531277e-04 1.874807511639e-03 0.0 
0.0 0.0 0.0 
-1.764694755336e-04 -3.024599602498e-04 0.0 
-3.024599602498e-04 5.677873525658e-03 0.0 
0.0 0.0 0.0 
4.166071035963e-04 -3.447119803321e-04 0.0 
-3.447119803321e-04 4.822217113537e-03 0.0 
0.0 0.0 0.0 
5.453343977675e-04 -3.320652266918e-04 0.0 
-3.320652266918e-04 4.477522619685e-03 0.0 
0.0 0.0 0.0 
7.773326134634e-04 1.927555983214e-04 0.0 
1.927555983214e-04 4.550398555216e-03 0.0 
0.0 0.0 0.0 
-3.257699341589e-04 -3.375405018884e-04 0.0 
-3.375405018884e-04 1.877979307691e-03 0.0 
0.0 0.0 0.0 
1.645078809242e-03 1.968966915878e-03 0.0 
1.968966915878e-03 -1.396577849694e-03 0.0 
0.0 0.0 0.0 
1.209813336921e-03 2.104522827385e-03 0.0 
2.104522827385e-03 -3.717832136300e-04 0.0 
0.0 0.0 0.0 
-3.783987536081e-04 3.733563728424e-04 0.0 
3.733563728424e-04 7.333772991720e-03 0.0 
0.0 0.0 0.0 
-3.906135602505e-04 3.157407811283e-04 0.0 
3.157407811283e-04 7.196073192337e-03 0.0 
0.0 0.0 0.0 
4.682075619016e-04 -2.507966202168e-04 0.0 
-2.507966202168e-04 4.980896912338e-03 0.0 
0.0 0.0 0.0 
-3.239410079784e-04 -2.843066667206e-04 0.0 
-2.843066667206e-04 2.065557313138e-03 0.0 
0.0 0.0 0.0 
1.199349412791e-04 -3.780071863147e-04 0.0 
-3.780071863147e-04 5.350352268716e-03 0.0 
0.0 0.0 0.0 
2.455115523931e-03 9.056071352032e-04 0.0 
9.056071352032e-04 -3.435219300205e-03 0.0 
0.0 0.0 0.0 
-2.468151579688e-04 -2.819505005620e-04 0.0 
-2.819505005620e-04 5.541174158575e-03 0.0 
0.0 0.0 0.0 
-2.155793381681e-04 -2.456403057731e-04 0.0 
-2.456403057731e-04 5.926976815433e-03 0.0 
0.0 0.0 0.0 
2.657767403748e-05 -5.685829592480e-04 0.0 
-5.685829592480e-04 4.410884950824e-03 0.0 
0.0 0.0 0.0 
6.482009215835e-04 6.345758808112e-04 0.0 
6.345758808112e-04 4.947337702847e-03 0.0 
0.0 0.0 0.0 
6.234763957983e-04 7.371699336480e-04 0.0 
7.371699336480e-04 4.847295539546e-03 0.0 
0.0 0.0 0.0 
2.075283591182e-03 -6.710024663927e-04 0.0 
-6.710024663927e-04 -1.671793922999e-03 0.0 
0.0 0.0 0.0 
1.838862986316e-03 -1.365615677777e-03 0.0 
-1.365615677777e-03 -1.752828425799e-03 0.0 
0.0 0.0 0.0 
1.897098057539e-03 -1.596006154379e-03 0.0 
-1.596006154379e-03 -2.508352735921e-03 0.0 
0.0 0.0 0.0 
1.354558641694e-03 -1.944093514878e-03 0.0 
-1.944093514878e-03 -1.463985730093e-03 0.0 
0.0 0.0 0.0 
1.400032189288e-03 -1.615383085491e-03 0.0 
-1.615383085491e-03 -8.631300897928e-04 0.0 
0.0 0.0 0.0 
9.188030521735e-04 -1.988473269770e-03 0.0 
-1.988473269770e-03 -5.597142104346e-04 0.0 
0.0 0.0 0.0 
7.433695624558e-04 -2.236453579791e-03 0.0 
-2.236453579791e-03 -9.539739905108e-04 0.0 
0.0 0.0 0.0 
3.613111488737e-04 -2.141260498265e-03 0.0 
-2.141260498265e-03 -7.714499504086e-05 0.0 
0.0 0.0 0.0 
5.622545934465e-04 -1.898277530250e-03 0.0 
-1.898277530250e-03 2.433597567534e-04 0.0 
0.0 0.0 0.0 
9.262676230874e-05 -1.915670531032e-03 0.0 
-1.915670531032e-03 6.318254881723e-04 0.0 
0.0 0.0 0.0 
-1.749721872496e-04 -1.979101376529e-03 0.0 
-1.979101376529e-03 4.626733376729e-04 0.0 
0.0 0.0 0.0 
-3.064224043099e-04 -1.707584419801e-03 0.0 
-1.707584419801e-03 1.005586373014e-03 0.0 
0.0 0.0 0.0 
-1.513380671497e-04 -2.635859945424e-04 0.0 
-2.635859945424e-04 6.072027704591e-03 0.0 
0.0 0.0 0.0 
2.507594074765e-03 -5.629372029542e-06 0.0 
-5.629372029542e-06 -3.938215245864e-03 0.0 
0.0 0.0 0.0 
-4.764268996757e-04 6.336848460089e-04 0.0 
6.336848460089e-04 5.632839930824e-03 0.0 
0.0 0.0 0.0 
3.518885762754e-04 -2.696638393705e-04 0.0 
-2.696638393705e-04 5.306686491279e-03 0.0 
0.0 0.0 0.0 
7.074290835820e-04 3.175803898541e-04 0.0 
3.175803898541e-04 4.871068754758e-03 0.0 
0.0 0.0 0.0 
-3.411169255819e-04 3.610008718441e-04 0.0 
3.610008718441e-04 7.568508339406e-03 0.0 
0.0 0.0 0.0 
-3.547963457719e-04 3.062048775478e-04 0.0 
3.062048775478e-04 7.426873912343e-03 0.0 
0.0 0.0 0.0 
-3.974656363244e-04 2.631263717473e-04 0.0 
2.631263717473e-04 7.046749362660e-03 0.0 
0.0 0.0 0.0 
-3.641625869386e-04 2.555882513433e-04 0.0 
2.555882513433e-04 7.276595700685e-03 0.0 
0.0 0.0 0.0 
-3.162330475918e-04 2.955741512416e-04 0.0 
2.955741512416e-04 7.655297538042e-03 0.0 
0.0 0.0 0.0 
-3.282242452706e-04 2.468746318250e-04 0.0 
2.468746318250e-04 7.502947915514e-03 0.0 
0.0 0.0 0.0 
-3.697167885575e-04 2.089774629496e-04 0.0 
2.089774629496e-04 7.118179259625e-03 0.0 
0.0 0.0 0.0 
-3.361619311244e-04 2.022705401884e-04 0.0 
2.022705401884e-04 7.342740742828e-03 0.0 
0.0 0.0 0.0 
-3.711212316233e-04 1.669900292822e-04 0.0 
1.669900292822e-04 6.951997238737e-03 0.0 
0.0 0.0 0.0 
-3.409981536986e-04 1.623944001831e-04 0.0 
1.623944001831e-04 7.176161340757e-03 0.0 
0.0 0.0 0.0 
-3.008976697372e-04 1.939469090241e-04 0.0 
1.939469090241e-04 7.565233702275e-03 0.0 
0.0 0.0 0.0 
-3.092970985469e-04 1.552130742382e-04 0.0 
1.552130742382e-04 7.398643237577e-03 0.0 
0.0 0.0 0.0 
-3.441512193814e-04 1.273331114648e-04 0.0 
1.273331114648e-04 7.004806694644e-03 0.0 
0.0 0.0 0.0 
-3.157257679400e-04 1.207740412403e-04 0.0 
1.207740412403e-04 7.227072254180e-03 0.0 
0.0 0.0 0.0 
-3.456403294060e-04 9.638116707354e-05 0.0 
9.638116707354e-05 6.828183805842e-03 0.0 
0.0 0.0 0.0 
-3.198263887783e-04 9.042680371081e-05 0.0 
9.042680371081e-05 7.049008842776e-03 0.0 
0.0 0.0 0.0 
-2.857693282432e-04 1.129020770540e-04 0.0 
1.129020770540e-04 7.447657512136e-03 0.0 
0.0 0.0 0.0 
-2.152210080312e-04 -2.192312741816e-04 0.0 
-2.192312741816e-04 1.655042066601e-03 0.0 
0.0 0.0 0.0 
8.210281323207e-04 5.513419321946e-05 0.0 
5.513419321946e-05 4.253933188171e-03 0.0 
0.0 0.0 0.0 
6.923330795811e-04 9.910899910014e-05 0.0 
9.910899910014e-05 4.804452145673e-03 0.0 
0.0 0.0 0.0 
-4.433948496767e-04 -4.003392471499e-04 0.0 
-4.003392471499e-04 3.218986856926e-03 0.0 
0.0 0.0 0.0 
-4.371778506589e-04 -3.978534437684e-04 0.0 
-3.978534437684e-04 3.569940340825e-03 0.0 
0.0 0.0 0.0 
-3.921577400639e-04 -4.789976525578e-04 0.0 
-4.789976525578e-04 3.702524399401e-03 0.0 
0.0 0.0 0.0 
-4.217874007055e-04 -3.794058468483e-04 0.0 
-3.794058468483e-04 3.937172224026e-03 0.0 
0.0 0.0 0.0 
-2.941493126714e-04 8.305856969388e-05 0.0 
8.305856969388e-05 7.268009898176e-03 0.0 
0.0 0.0 0.0 
-2.562966569986e-04 1.027309902678e-04 0.0 
1.027309902678e-04 7.666973505021e-03 0.0 
0.0 0.0 0.0 
1.090180283713e-03 2.441001074399e-03 0.0 
2.441001074399e-03 -8.168883322677e-04 0.0 
0.0 0.0 0.0 
6.736994302938e-04 2.383491077353e-03 0.0 
2.383491077353e-03 1.990233702431e-04 0.0 
0.0 0.0 0.0 
-3.221143088812e-04 4.195715693730e-04 0.0 
4.195715693730e-04 7.699971059571e-03 0.0 
0.0 0.0 0.0 
-2.778066271393e-04 -2.183247824541e-04 0.0 
-2.183247824541e-04 5.777524996109e-03 0.0 
0.0 0.0 0.0 
-3.122786432414e-04 -2.497832152245e-04 0.0 
-2.497832152245e-04 5.399992817604e-03 0.0 
0.0 0.0 0.0 
7.894215558329e-05 1.384158413118e-03 0.0 
1.384158413118e-03 3.383248023508e-03 0.0 
0.0 0.0 0.0 
-1.334618029309e-04 1.326164283749e-03 0.0 
1.326164283749e-03 3.554531886687e-03 0.0 
0.0 0.0 0.0 
-2.780986826073e-05 1.475520514900e-03 0.0 
1.475520514900e-03 3.103167216986e-03 0.0 
0.0 0.0 0.0 
-2.507135842029e-04 1.376742642266e-03 0.0 
1.376742642266e-03 3.298454880242e-03 0.0 
0.0 0.0 0.0 
-3.166358961268e-04 1.221501067964e-03 0.0 
1.221501067964e-03 3.700832668738e-03 0.0 
0.0 0.0 0.0 
-1.663531314328e-04 1.557029666308e-03 0.0 
1.557029666308e-03 2.855382067956e-03 0.0 
0.0 0.0 0.0 
6.143421504779e-04 -4.305334576667e-04 0.0 
-4.305334576667e-04 3.974684263771e-03 0.0 
0.0 0.0 0.0 
-2.644407603441e-04 1.830185030182e-04 0.0 
1.830185030182e-04 7.785917169100e-03 0.0 
0.0 0.0 0.0 
-4.483507095609e-04 -7.938337248078e-04 0.0 
-7.938337248078e-04 1.990779094606e-03 0.0 
0.0 0.0 0.0 
-4.590980454650e-04 -6.752737437724e-04 0.0 
-6.752737437724e-04 1.680467167312e-03 0.0 
0.0 0.0 0.0 
-2.399840061645e-04 -1.917501421663e-04 0.0 
-1.917501421663e-04 6.158869110527e-03 0.0 
0.0 0.0 0.0 
9.428676199491e-04 8.781940733634e-06 0.0 
8.781940733634e-06 3.698621714205e-03 0.0 
0.0 0.0 0.0 
2.983836969197e-05 9.980133720099e-04 0.0 
9.980133720099e-04 5.247636205918e-03 0.0 
0.0 0.0 0.0 
1.515576338113e-04 9.969079540438e-04 0.0 
9.969079540438e-04 5.207461211579e-03 0.0 
0.0 0.0 0.0 
5.509615757432e-05 9.585748701745e-04 0.0 
9.585748701745e-04 5.616929170793e-03 0.0 
0.0 0.0 0.0 
1.596263094915e-04 9.518140330011e-04 0.0 
9.518140330011e-04 5.596344046165e-03 0.0 
0.0 0.0 0.0 
6.798607525368e-05 9.298353740998e-04 0.0 
9.298353740998e-04 6.001684190689e-03 0.0 
0.0 0.0 0.0 
1.536332266380e-04 9.207328293092e-04 0.0 
9.207328293092e-04 5.998690687076e-03 0.0 
0.0 0.0 0.0 
2.540455176249e-04 9.262543913778e-04 0.0 
9.262543913778e-04 5.589656886503e-03 0.0 
0.0 0.0 0.0 
5.313673585884e-04 7.075849619865e-04 0.0 
7.075849619865e-04 5.355633585404e-03 0.0 
0.0 0.0 0.0 
2.271004988468e-04 8.965927740498e-04 0.0 
8.965927740498e-04 6.014313249931e-03 0.0 
0.0 0.0 0.0 
-3.220208682648e-04 6.794690129389e-05 0.0 
6.794690129389e-05 6.860386394153e-03 0.0 
0.0 0.0 0.0 
8.460608538871e-04 7.171842435264e-04 0.0 
7.171842435264e-04 3.900839308082e-03 0.0 
0.0 0.0 0.0 
2.987639629000e-04 -1.722386686608e-03 0.0 
-1.722386686608e-03 9.062897655715e-04 0.0 
0.0 0.0 0.0 
-2.168225215655e-04 -2.447802234004e-04 0.0 
-2.447802234004e-04 1.471497195746e-03 0.0 
0.0 0.0 0.0 
-5.177856101128e-04 -1.564942469484e-03 0.0 
-1.564942469484e-03 8.848656123260e-04 0.0 
0.0 0.0 0.0 
-2.328519017034e-04 -1.797028910608e-04 0.0 
-1.797028910608e-04 1.827583378047e-03 0.0 
0.0 0.0 0.0 
-3.355076226837e-04 -2.313312558210e-04 0.0 
-2.313312558210e-04 2.254229476862e-03 0.0 
0.0 0.0 0.0 
3.823457427088e-04 -1.865383249355e-04 0.0 
-1.865383249355e-04 5.483669454037e-03 0.0 
0.0 0.0 0.0 
6.854416835174e-05 9.156039122372e-04 0.0 
9.156039122372e-04 6.399930592236e-03 0.0 
0.0 0.0 0.0 
-6.631330299859e-06 9.103686297743e-04 0.0 
9.103686297743e-04 6.387579619754e-03 0.0 
0.0 0.0 0.0 
-4.293164243037e-04 1.228695697841e-03 0.0 
1.228695697841e-03 3.459092119173e-03 0.0 
0.0 0.0 0.0 
-4.611019923460e-04 1.074818605938e-03 0.0 
1.074818605938e-03 3.815225846014e-03 0.0 
0.0 0.0 0.0 
5.380354661264e-04 6.166740006318e-04 0.0 
6.166740006318e-04 5.464653436806e-03 0.0 
0.0 0.0 0.0 
-4.549336559770e-04 2.797279634668e-04 0.0 
2.797279634668e-04 6.583423285260e-03 0.0 
0.0 0.0 0.0 
-3.997595596985e-04 1.702640221210e-04 0.0 
1.702640221210e-04 6.727010590143e-03 0.0 
0.0 0.0 0.0 
-3.944268564589e-04 1.319325051294e-04 0.0 
1.319325051294e-04 6.553006549321e-03 0.0 
0.0 0.0 0.0 
-7.421227767558e-05 -1.236735161858e-04 0.0 
-1.236735161858e-04 1.333798948521e-03 0.0 
0.0 0.0 0.0 
-4.189946308975e-04 -1.847861142445e-03 0.0 
-1.847861142445e-03 4.225195289122e-04 0.0 
0.0 0.0 0.0 
-2.755585067386e-04 2.835198193097e-04 0.0 
2.835198193097e-04 7.880746152056e-03 0.0 
0.0 0.0 0.0 
8.331935454193e-04 2.081470814230e-03 0.0 
2.081470814230e-03 5.351233439898e-04 0.0 
0.0 0.0 0.0 
3.537370013234e-04 2.202642705194e-03 0.0 
2.202642705194e-03 1.045990186284e-03 0.0 
0.0 0.0 0.0 
2.244548212602e-03 1.037763218215e-03 0.0 
1.037763218215e-03 -3.923210948314e-03 0.0 
0.0 0.0 0.0 
2.082772969907e-03 4.712348135232e-05 0.0 
4.712348135232e-05 -4.351845351963e-03 0.0 
0.0 0.0 0.0 
-2.661966125198e-04 7.629766107315e-05 0.0 
7.629766107315e-05 7.481954622770e-03 0.0 
0.0 0.0 0.0 
-2.242272268100e-04 8.966161181606e-05 0.0 
8.966161181606e-05 7.875142104368e-03 0.0 
0.0 0.0 0.0 
-3.643114794846e-04 -4.499143776130e-04 0.0 
-4.499143776130e-04 4.061075978784e-03 0.0 
0.0 0.0 0.0 
-3.999789774062e-04 -3.538493576763e-04 0.0 
-3.538493576763e-04 4.300208737199e-03 0.0 
0.0 0.0 0.0 
4.936020391226e-04 -1.492549664716e-04 0.0 
-1.492549664716e-04 5.172102954262e-03 0.0 
0.0 0.0 0.0 
-5.437417274216e-04 -1.341685793985e-03 0.0 
-1.341685793985e-03 1.247343261677e-03 0.0 
0.0 0.0 0.0 
-2.073761249151e-04 1.198566590288e-04 0.0 
1.198566590288e-04 8.055451881278e-03 0.0 
0.0 0.0 0.0 
8.344604939052e-04 -9.322879766091e-05 0.0 
-9.322879766091e-05 3.994860651437e-03 0.0 
0.0 0.0 0.0 
9.460427975676e-04 -1.631673848989e-04 0.0 
-1.631673848989e-04 3.441966685218e-03 0.0 
0.0 0.0 0.0 
-4.599649461814e-04 -2.951360029117e-04 0.0 
-2.951360029117e-04 3.789447476455e-03 0.0 
0.0 0.0 0.0 
4.180747533551e-04 2.619272395322e-03 0.0 
2.619272395322e-03 -3.152019097008e-06 0.0 
0.0 0.0 0.0 
8.375458520964e-04 2.668816498673e-03 0.0 
2.668816498673e-03 -1.071102990535e-03 0.0 
0.0 0.0 0.0 
6.916397671230e-04 -1.631258156079e-03 0.0 
-1.631258156079e-03 6.378617626783e-04 0.0 
0.0 0.0 0.0 
-3.652142622717e-04 -1.442890794395e-03 0.0 
-1.442890794395e-03 1.421200174214e-03 0.0 
0.0 0.0 0.0 
-2.564647803951e-04 -1.455783670428e-04 0.0 
-1.455783670428e-04 2.017085464651e-03 0.0 
0.0 0.0 0.0 
3.875770876758e-04 -9.466048549731e-05 0.0 
-9.466048549731e-05 5.686986876629e-03 0.0 
0.0 0.0 0.0 
-2.565440197008e-04 3.340554111774e-04 0.0 
3.340554111774e-04 8.025044635877e-03 0.0 
0.0 0.0 0.0 
3.309013461785e-04 8.819740893003e-04 0.0 
8.819740893003e-04 5.604894711621e-03 0.0 
0.0 0.0 0.0 
3.678794325955e-04 9.279277475804e-04 0.0 
9.279277475804e-04 5.164487580390e-03 0.0 
0.0 0.0 0.0 
2.832390208973e-04 8.563590415908e-04 0.0 
8.563590415908e-04 6.050707752371e-03 0.0 
0.0 0.0 0.0 
-6.140537263903e-04 -1.091616921849e-03 0.0 
-1.091616921849e-03 1.058590039111e-03 0.0 
0.0 0.0 0.0 
2.757294647614e-04 -2.151888241698e-04 0.0 
-2.151888241698e-04 5.802180958204e-03 0.0 
0.0 0.0 0.0 
-2.949581014903e-04 -1.586029964898e-04 0.0 
-1.586029964898e-04 5.997895971360e-03 0.0 
0.0 0.0 0.0 
-1.287182320027e-06 9.142575282773e-04 0.0 
9.142575282773e-04 6.768072019348e-03 0.0 
0.0 0.0 0.0 
-6.363503987269e-05 8.948407765907e-04 0.0 
8.948407765907e-04 6.754632064441e-03 0.0 
0.0 0.0 0.0 
5.286375086935e-04 1.970374099952e-03 0.0 
1.970374099952e-03 1.314124270437e-03 0.0 
0.0 0.0 0.0 
1.192823475892e-04 1.980557253746e-03 0.0 
1.980557253746e-03 1.750458938243e-03 0.0 
0.0 0.0 0.0 
-1.134719196059e-04 2.129304796678e-03 0.0 
2.129304796678e-03 1.587822814487e-03 0.0 
0.0 0.0 0.0 
-2.457565804647e-04 1.858906513559e-03 0.0 
1.858906513559e-03 2.165869970964e-03 0.0 
0.0 0.0 0.0 
-5.118970836422e-04 5.000860778536e-04 0.0 
5.000860778536e-04 5.844328555490e-03 0.0 
0.0 0.0 0.0 
2.909067246156e-04 1.813413803444e-03 0.0 
1.813413803444e-03 1.990398253733e-03 0.0 
0.0 0.0 0.0 
-4.689663088528e-04 6.944006126445e-04 0.0 
6.944006126445e-04 5.346338539873e-03 0.0 
0.0 0.0 0.0 
-5.189135065823e-04 5.969751621396e-04 0.0 
5.969751621396e-04 5.309763926024e-03 0.0 
0.0 0.0 0.0 
-5.164509317865e-04 6.607027629988e-04 0.0 
6.607027629988e-04 5.034684879895e-03 0.0 
0.0 0.0 0.0 
-3.688589225394e-04 1.081053933170e-03 0.0 
1.081053933170e-03 4.069914279472e-03 0.0 
0.0 0.0 0.0 
-4.838817195566e-04 9.416629403721e-04 0.0 
9.416629403721e-04 4.142023959770e-03 0.0 
0.0 0.0 0.0 
1.249208046438e-03 1.517663399058e-03 0.0 
1.517663399058e-03 6.747611190065e-04 0.0 
0.0 0.0 0.0 
1.086013707468e-03 6.747228317348e-04 0.0 
6.747228317348e-04 2.906791689984e-03 0.0 
0.0 0.0 0.0 
-3.213693363201e-04 -5.539702310640e-04 0.0 
-5.539702310640e-04 3.807797574587e-03 0.0 
0.0 0.0 0.0 
-1.651340272310e-04 -4.843865347488e-04 0.0 
-4.843865347488e-04 4.629645184438e-03 0.0 
0.0 0.0 0.0 
5.534494988241e-04 -6.710684952719e-04 0.0 
-6.710684952719e-04 3.388400065616e-03 0.0 
0.0 0.0 0.0 
-2.503324585907e-04 2.246383900240e-04 0.0 
2.246383900240e-04 7.945525883718e-03 0.0 
0.0 0.0 0.0 
-2.100653498677e-04 2.095895318093e-04 0.0 
2.095895318093e-04 8.166769994959e-03 0.0 
0.0 0.0 0.0 
-3.689713951304e-04 9.960145185247e-05 0.0 
9.960145185247e-05 6.603618048944e-03 0.0 
0.0 0.0 0.0 
-3.633740147069e-04 7.099066769830e-05 0.0 
7.099066769830e-05 6.419743527547e-03 0.0 
0.0 0.0 0.0 
-3.570639374417e-04 -4.433115238413e-04 0.0 
-4.433115238413e-04 1.507692177861e-03 0.0 
0.0 0.0 0.0 
-4.017318017774e-04 -4.999426016510e-04 0.0 
-4.999426016510e-04 1.334567688010e-03 0.0 
0.0 0.0 0.0 
1.177879855576e-04 -7.490061915932e-04 0.0 
-7.490061915932e-04 3.673548311320e-03 0.0 
0.0 0.0 0.0 
2.439465690059e-04 -2.780293613646e-04 0.0 
-2.780293613646e-04 5.624433834114e-03 0.0 
0.0 0.0 0.0 
-2.801393243423e-04 4.044187892392e-04 0.0 
4.044187892392e-04 7.931221271235e-03 0.0 
0.0 0.0 0.0 
-2.548748444055e-04 4.644777403429e-04 0.0 
4.644777403429e-04 8.057392342650e-03 0.0 
0.0 0.0 0.0 
-2.975653857877e-04 4.811029530007e-04 0.0 
4.811029530007e-04 7.819661612090e-03 0.0 
0.0 0.0 0.0 
4.932692323741e-04 -4.162668203281e-05 0.0 
-4.162668203281e-05 5.385203597754e-03 0.0 
0.0 0.0 0.0 
1.793659758526e-03 4.293843714076e-04 0.0 
4.293843714076e-04 -1.272971823037e-05 0.0 
0.0 0.0 0.0 
1.155772868075e-03 1.141747426582e-04 0.0 
1.141747426582e-04 2.854543281762e-03 0.0 
0.0 0.0 0.0 
2.153578114663e-03 -9.665937958025e-04 0.0 
-9.665937958025e-04 -3.950417850263e-03 0.0 
0.0 0.0 0.0 
3.965363850048e-04 1.067116746584e-03 0.0 
1.067116746584e-03 4.330526702890e-03 0.0 
0.0 0.0 0.0 
-2.131832277832e-04 -2.874602377194e-04 0.0 
-2.874602377194e-04 1.095958117375e-03 0.0 
0.0 0.0 0.0 
-2.451835639355e-04 8.153425825538e-04 0.0 
8.153425825538e-04 6.349543546315e-03 0.0 
0.0 0.0 0.0 
-2.485194360854e-04 -1.400926878147e-04 0.0 
-1.400926878147e-04 6.375906996574e-03 0.0 
0.0 0.0 0.0 
-1.970737401596e-04 -1.724097114424e-04 0.0 
-1.724097114424e-04 6.539588016359e-03 0.0 
0.0 0.0 0.0 
4.279744091026e-04 6.915630231812e-04 0.0 
6.915630231812e-04 5.853711169589e-03 0.0 
0.0 0.0 0.0 
-5.522355177782e-04 3.703379811884e-04 0.0 
3.703379811884e-04 5.415410695433e-03 0.0 
0.0 0.0 0.0 
5.278669972059e-04 9.962967706103e-04 0.0 
9.962967706103e-04 4.290256579156e-03 0.0 
0.0 0.0 0.0 
6.796450415134e-04 9.832937142394e-04 0.0 
9.832937142394e-04 3.822141431763e-03 0.0 
0.0 0.0 0.0 
-5.545028278295e-04 5.527524435596e-04 0.0 
5.527524435596e-04 4.990426927153e-03 0.0 
0.0 0.0 0.0 
-5.569631730291e-04 6.162993059628e-04 0.0 
6.162993059628e-04 4.729784106105e-03 0.0 
0.0 0.0 0.0 
-5.094291208677e-04 7.366809101201e-04 0.0 
7.366809101201e-04 4.751594931737e-03 0.0 
0.0 0.0 0.0 
-5.581326226025e-04 6.950711351365e-04 0.0 
6.950711351365e-04 4.457100843820e-03 0.0 
0.0 0.0 0.0 
4.369771454953e-04 -1.517508462656e-03 0.0 
-1.517508462656e-03 1.241281860915e-03 0.0 
0.0 0.0 0.0 
1.098514731627e-04 -1.525644498565e-03 0.0 
-1.525644498565e-03 1.444587859967e-03 0.0 
0.0 0.0 0.0 
5.686806542192e-05 9.247697377072e-04 0.0 
9.247697377072e-04 6.841020076171e-03 0.0 
0.0 0.0 0.0 
1.887027905297e-04 8.948058026147e-04 0.0 
8.948058026147e-04 6.441654331820e-03 0.0 
0.0 0.0 0.0 
-4.319826215225e-05 9.136936871258e-04 0.0 
9.136936871258e-04 7.128845186711e-03 0.0 
0.0 0.0 0.0 
-9.683925363339e-05 8.847128593785e-04 0.0 
8.847128593785e-04 7.114961088237e-03 0.0 
0.0 0.0 0.0 
4.191724423431e-04 6.108331535050e-04 0.0 
6.108331535050e-04 5.975287296447e-03 0.0 
0.0 0.0 0.0 
5.234196835077e-04 5.240784443904e-04 0.0 
5.240784443904e-04 5.598225336749e-03 0.0 
0.0 0.0 0.0 
-3.543784878329e-04 -1.793550415333e-04 0.0 
-1.793550415333e-04 2.434229600169e-03 0.0 
0.0 0.0 0.0 
-5.579384901276e-04 9.018870454551e-04 0.0 
9.018870454551e-04 3.882054765853e-03 0.0 
0.0 0.0 0.0 
-2.100758110709e-04 3.181304792491e-04 0.0 
3.181304792491e-04 8.249388576097e-03 0.0 
0.0 0.0 0.0 
-5.494740036927e-04 4.990698329965e-04 0.0 
4.990698329965e-04 5.247722993938e-03 0.0 
0.0 0.0 0.0 
1.784303469582e-04 -2.359536561268e-04 0.0 
-2.359536561268e-04 6.096476088273e-03 0.0 
0.0 0.0 0.0 
1.499961175033e-04 -2.796271254108e-04 0.0 
-2.796271254108e-04 5.936279146941e-03 0.0 
0.0 0.0 0.0 
1.541648903755e-03 -9.070802874368e-04 0.0 
-9.070802874368e-04 -4.397313371973e-03 0.0 
0.0 0.0 0.0 
1.392378009341e-03 -1.951078793200e-03 0.0 
-1.951078793200e-03 -3.380651245254e-03 0.0 
0.0 0.0 0.0 
-1.736646765510e-04 1.016446996551e-04 0.0 
1.016446996551e-04 8.267203860761e-03 0.0 
0.0 0.0 0.0 
-4.870291813804e-04 1.893515307406e-03 0.0 
1.893515307406e-03 2.059254952240e-03 0.0 
0.0 0.0 0.0 
-5.241777672702e-04 1.623368603559e-03 0.0 
1.623368603559e-03 2.499389110706e-03 0.0 
0.0 0.0 0.0 
-3.848037351472e-04 2.177282998097e-03 0.0 
2.177282998097e-03 1.519595294499e-03 0.0 
0.0 0.0 0.0 
-1.407243921794e-04 -4.258855842309e-05 0.0 
-4.258855842309e-05 7.178290641946e-03 0.0 
0.0 0.0 0.0 
-3.432211526588e-04 4.640493734716e-06 0.0 
4.640493734716e-06 5.613146747673e-03 0.0 
0.0 0.0 0.0 
-1.929155977154e-04 -1.278720681443e-04 0.0 
-1.278720681443e-04 6.752398066694e-03 0.0 
0.0 0.0 0.0 
-4.072203558559e-04 9.578962672798e-04 0.0 
9.578962672798e-04 4.415448301063e-03 0.0 
0.0 0.0 0.0 
-1.497381351367e-04 1.372780926581e-04 0.0 
1.372780926581e-04 8.444546374306e-03 0.0 
0.0 0.0 0.0 
6.332346642937e-04 9.002562768234e-04 0.0 
9.002562768234e-04 4.289971250891e-03 0.0 
0.0 0.0 0.0 
2.268524891451e-04 1.514703846635e-03 0.0 
1.514703846635e-03 2.874958742016e-03 0.0 
0.0 0.0 0.0 
6.063474891847e-04 -9.858173271516e-05 0.0 
-9.858173271516e-05 4.858485382301e-03 0.0 
0.0 0.0 0.0 
-1.974547968419e-04 6.421015955465e-05 0.0 
6.421015955465e-05 8.064636311665e-03 0.0 
0.0 0.0 0.0 
-1.408106166225e-04 8.139246778095e-05 0.0 
8.139246778095e-05 8.486495174029e-03 0.0 
0.0 0.0 0.0 
-4.163476770218e-04 1.337638205080e-04 0.0 
1.337638205080e-04 6.326241849486e-03 0.0 
0.0 0.0 0.0 
-4.099457735662e-04 9.404271581575e-05 0.0 
9.404271581575e-05 6.135929372691e-03 0.0 
0.0 0.0 0.0 
-4.261715312937e-04 1.726265624287e-04 0.0 
1.726265624287e-04 6.488403323319e-03 0.0 
0.0 0.0 0.0 
2.049736028804e-03 1.808197872704e-03 0.0 
1.808197872704e-03 -3.086101983206e-03 0.0 
0.0 0.0 0.0 
1.586941739914e-03 2.085766992712e-03 0.0 
2.085766992712e-03 -3.305526374183e-03 0.0 
0.0 0.0 0.0 
-2.276437901470e-04 1.696748143631e-04 0.0 
1.696748143631e-04 8.003762604994e-03 0.0 
0.0 0.0 0.0 
-4.319030526140e-04 -3.775901025873e-04 0.0 
-3.775901025873e-04 2.847000838707e-03 0.0 
0.0 0.0 0.0 
-4.501353899443e-04 -2.903013475316e-04 0.0 
-2.903013475316e-04 3.091814633756e-03 0.0 
0.0 0.0 0.0 
-5.193210787022e-04 -1.128734864582e-03 0.0 
-1.128734864582e-03 1.533325685723e-03 0.0 
0.0 0.0 0.0 
-3.825923537721e-04 -1.207361318676e-03 0.0 
-1.207361318676e-03 1.752772796213e-03 0.0 
0.0 0.0 0.0 
-2.874162595345e-04 -5.084359473166e-04 0.0 
-5.084359473166e-04 4.166406706479e-03 0.0 
0.0 0.0 0.0 
-2.280083525264e-04 -6.125576430667e-04 0.0 
-6.125576430667e-04 3.890987829181e-03 0.0 
0.0 0.0 0.0 
-1.669891536682e-04 8.597192019298e-04 0.0 
8.597192019298e-04 6.365732062336e-03 0.0 
0.0 0.0 0.0 
-2.009996381882e-04 8.279753208859e-04 0.0 
8.279753208859e-04 6.702726548010e-03 0.0 
0.0 0.0 0.0 
-5.245195872403e-05 9.460496851679e-04 0.0 
9.460496851679e-04 5.639898042223e-03 0.0 
0.0 0.0 0.0 
8.152782673366e-04 -2.486910118202e-04 0.0 
-2.486910118202e-04 3.775519922285e-03 0.0 
0.0 0.0 0.0 
9.111791303553e-04 -3.419376439973e-04 0.0 
-3.419376439973e-04 3.233838575192e-03 0.0 
0.0 0.0 0.0 
1.056072275310e-03 -2.417146766497e-04 0.0 
-2.417146766497e-04 2.879599237916e-03 0.0 
0.0 0.0 0.0 
-1.905687491290e-04 2.522772189377e-04 0.0 
2.522772189377e-04 8.311229122342e-03 0.0 
0.0 0.0 0.0 
-1.408181231506e-04 2.370762922481e-04 0.0 
2.370762922481e-04 8.569942169076e-03 0.0 
0.0 0.0 0.0 
7.627270364221e-04 -1.391902442471e-03 0.0 
-1.391902442471e-03 1.067763006705e-03 0.0 
0.0 0.0 0.0 
1.049071838981e-03 -1.401477334259e-03 0.0 
-1.401477334259e-03 4.470581076744e-04 0.0 
0.0 0.0 0.0 
2.375515549078e-04 -1.374415364094e-03 0.0 
-1.374415364094e-03 1.751947453740e-03 0.0 
0.0 0.0 0.0 
-1.861325139509e-04 3.713881125657e-04 0.0 
3.713881125657e-04 8.388904683312e-03 0.0 
0.0 0.0 0.0 
-1.469083482252e-04 -1.618334680542e-04 0.0 
-1.618334680542e-04 6.915257816936e-03 0.0 
0.0 0.0 0.0 
-1.449118850084e-04 -2.008593637416e-04 0.0 
-2.008593637416e-04 6.698474570735e-03 0.0 
0.0 0.0 0.0 
-2.183524123498e-04 -3.025727426535e-04 0.0 
-3.025727426535e-04 9.225991142133e-04 0.0 
0.0 0.0 0.0 
-4.457031904429e-04 -5.606622580128e-04 0.0 
-5.606622580128e-04 1.153392403863e-03 0.0 
0.0 0.0 0.0 
9.341773624425e-05 2.689496317421e-03 0.0 
2.689496317421e-03 -8.169593858039e-06 0.0 
0.0 0.0 0.0 
4.891113875723e-04 2.781656886734e-03 0.0 
2.781656886734e-03 -1.082016328804e-03 0.0 
0.0 0.0 0.0 
-2.233082162859e-04 5.264778334293e-04 0.0 
5.264778334293e-04 8.162610069671e-03 0.0 
0.0 0.0 0.0 
-2.680701201641e-04 5.467267031354e-04 0.0 
5.467267031354e-04 7.931470686417e-03 0.0 
0.0 0.0 0.0 
-1.708685259962e-04 5.113378503976e-04 0.0 
5.113378503976e-04 8.428008537999e-03 0.0 
0.0 0.0 0.0 
-2.736474494614e-04 -9.760728656506e-05 0.0 
-9.760728656506e-05 2.167982810082e-03 0.0 
0.0 0.0 0.0 
4.476801400467e-04 8.661565515448e-04 0.0 
8.661565515448e-04 5.191863452644e-03 0.0 
0.0 0.0 0.0 
3.691869735285e-04 3.898304526569e-06 0.0 
3.898304526569e-06 5.893242769382e-03 0.0 
0.0 0.0 0.0 
4.720209549257e-04 7.045612166782e-05 0.0 
7.045612166782e-05 5.619027039505e-03 0.0 
0.0 0.0 0.0 
2.588989776526e-04 -5.675971783458e-05 0.0 
-5.675971783458e-05 6.254456124306e-03 0.0 
0.0 0.0 0.0 
4.180777326210e-04 7.637930330607e-04 0.0 
7.637930330607e-04 5.749031484874e-03 0.0 
0.0 0.0 0.0 
3.158676603102e-04 7.524191659884e-04 0.0 
7.524191659884e-04 6.222691269284e-03 0.0 
0.0 0.0 0.0 
2.124814150275e-04 8.549829321384e-04 0.0 
8.549829321384e-04 6.505154405907e-03 0.0 
0.0 0.0 0.0 
1.196440543635e-03 7.997932812419e-05 0.0 
7.997932812419e-05 -4.740679908338e-03 0.0 
0.0 0.0 0.0 
-1.542131858944e-04 4.800091324441e-05 0.0 
4.800091324441e-05 8.356554407661e-03 0.0 
0.0 0.0 0.0 
-3.828407728116e-04 6.848682616661e-05 0.0 
6.848682616661e-05 6.174407516267e-03 0.0 
0.0 0.0 0.0 
4.819864660625e-04 -5.907103364545e-04 0.0 
-5.907103364545e-04 -4.600926827095e-03 0.0 
0.0 0.0 0.0 
-3.714374802690e-04 4.658019823109e-05 0.0 
4.658019823109e-05 5.988781243005e-03 0.0 
0.0 0.0 0.0 
-3.593137064081e-04 4.877904611789e-05 0.0 
4.877904611789e-05 6.229445683055e-03 0.0 
0.0 0.0 0.0 
-3.654955192114e-04 2.783715027487e-05 0.0 
2.783715027487e-05 5.775285808738e-03 0.0 
0.0 0.0 0.0 
-1.517803694477e-04 -7.841369544965e-05 0.0 
-7.841369544965e-05 1.728073485733e-03 0.0 
0.0 0.0 0.0 
-4.406981306643e-04 1.252047455162e-04 0.0 
1.252047455162e-04 6.026479117361e-03 0.0 
0.0 0.0 0.0 
-4.519029421314e-04 1.748959637041e-04 0.0 
1.748959637041e-04 6.255256212610e-03 0.0 
0.0 0.0 0.0 
-1.586418738160e-04 -2.589443938052e-04 0.0 
-2.589443938052e-04 6.449502566614e-04 0.0 
0.0 0.0 0.0 
-1.333489893421e-04 3.501754010656e-04 0.0 
3.501754010656e-04 8.605396726305e-03 0.0 
0.0 0.0 0.0 
-4.425739296284e-06 -1.396953385404e-04 0.0 
-1.396953385404e-04 6.528894129155e-04 0.0 
0.0 0.0 0.0 
-1.055917160847e-05 -1.529653698912e-04 0.0 
-1.529653698912e-04 8.227020953068e-04 0.0 
0.0 0.0 0.0 
1.109933916204e-04 -2.470610206299e-04 0.0 
-2.470610206299e-04 6.394478135350e-03 0.0 
0.0 0.0 0.0 
7.641367942994e-05 -2.775458866896e-04 0.0 
-2.775458866896e-04 6.229578019012e-03 0.0 
0.0 0.0 0.0 
4.760477636249e-05 -2.590075212446e-04 0.0 
-2.590075212446e-04 6.658900016389e-03 0.0 
0.0 0.0 0.0 
1.611989928400e-05 -2.670520191088e-04 0.0 
-2.670520191088e-04 6.490706700549e-03 0.0 
0.0 0.0 0.0 
2.570023410673e-05 -2.984264674328e-04 0.0 
-2.984264674328e-04 6.078227187871e-03 0.0 
0.0 0.0 0.0 
-3.039190361911e-05 -2.735365726298e-04 0.0 
-2.735365726298e-04 6.360644433226e-03 0.0 
0.0 0.0 0.0 
-4.020659438010e-04 6.490884118233e-05 0.0 
6.490884118233e-05 5.937200251319e-03 0.0 
0.0 0.0 0.0 
-1.821827056229e-05 -2.568879847101e-04 0.0 
-2.568879847101e-04 6.811954852407e-03 0.0 
0.0 0.0 0.0 
-6.725513739664e-05 -2.471787640639e-04 0.0 
-2.471787640639e-04 6.631706707640e-03 0.0 
0.0 0.0 0.0 
-4.461718276618e-05 -2.472371663657e-04 0.0 
-2.472371663657e-04 7.077882388158e-03 0.0 
0.0 0.0 0.0 
-5.885139581946e-04 5.557120220089e-04 0.0 
5.557120220089e-04 4.431851309986e-03 0.0 
0.0 0.0 0.0 
-3.365068624137e-04 1.621794988966e-03 0.0 
1.621794988966e-03 2.647383056528e-03 0.0 
0.0 0.0 0.0 
-5.480152727199e-04 1.384608409451e-03 0.0 
1.384608409451e-03 2.897725907847e-03 0.0 
0.0 0.0 0.0 
-6.897024477132e-04 1.273328976581e-03 0.0 
1.273328976581e-03 2.740909077259e-03 0.0 
0.0 0.0 0.0 
-6.198896700890e-05 9.222272059816e-04 0.0 
9.222272059816e-04 7.542287799600e-03 0.0 
0.0 0.0 0.0 
-1.187791992604e-04 8.769902943094e-04 0.0 
8.769902943094e-04 7.428442088946e-03 0.0 
0.0 0.0 0.0 
-2.958365135264e-04 -1.020409532110e-04 0.0 
-1.020409532110e-04 6.212470538679e-03 0.0 
0.0 0.0 0.0 
-3.423550042490e-04 -1.138389481776e-04 0.0 
-1.138389481776e-04 5.836820866788e-03 0.0 
0.0 0.0 0.0 
-3.573374015775e-04 3.090320787249e-05 0.0 
3.090320787249e-05 6.014161835695e-03 0.0 
0.0 0.0 0.0 
-3.479085307577e-04 1.919477471703e-05 0.0 
1.919477471703e-05 5.991941195956e-03 0.0 
0.0 0.0 0.0 
-3.417030961379e-04 3.957550640302e-05 0.0 
3.957550640302e-05 6.369113172019e-03 0.0 
0.0 0.0 0.0 
-3.365176802319e-04 2.276836252655e-05 0.0 
2.276836252655e-05 6.319437313870e-03 0.0 
0.0 0.0 0.0 
-3.242129609136e-04 4.172033569987e-05 0.0 
4.172033569987e-05 6.693848282132e-03 0.0 
0.0 0.0 0.0 
-3.192989073013e-04 2.107138815483e-05 0.0 
2.107138815483e-05 6.636324983353e-03 0.0 
0.0 0.0 0.0 
-3.002929082591e-04 3.316105126103e-05 0.0 
3.316105126103e-05 7.014038542475e-03 0.0 
0.0 0.0 0.0 
1.251571534624e-04 9.117628802728e-04 0.0 
9.117628802728e-04 6.919674031844e-03 0.0 
0.0 0.0 0.0 
-7.080530797844e-04 1.800391594036e-03 0.0 
1.800391594036e-03 1.987135264142e-03 0.0 
0.0 0.0 0.0 
-5.724485615186e-04 4.450865608078e-04 0.0 
4.450865608078e-04 4.923708612904e-03 0.0 
0.0 0.0 0.0 
3.829424250625e-04 5.241397699597e-04 0.0 
5.241397699597e-04 6.116548323086e-03 0.0 
0.0 0.0 0.0 
4.859879648633e-04 4.320327090056e-04 0.0 
4.320327090056e-04 5.728653546556e-03 0.0 
0.0 0.0 0.0 
-5.580180815009e-04 7.897554235825e-04 0.0 
7.897554235825e-04 4.171738787950e-03 0.0 
0.0 0.0 0.0 
-6.056762176024e-04 7.211417421023e-04 0.0 
7.211417421023e-04 3.904641627881e-03 0.0 
0.0 0.0 0.0 
1.781497485896e-04 -1.799307325028e-04 0.0 
-1.799307325028e-04 6.359317612887e-03 0.0 
0.0 0.0 0.0 
6.380699752481e-04 1.748239693828e-03 0.0 
1.748239693828e-03 1.653721572356e-03 0.0 
0.0 0.0 0.0 
-9.416827232822e-05 4.104651400852e-04 0.0 
4.104651400852e-04 8.782451719085e-03 0.0 
0.0 0.0 0.0 
-6.907430192208e-04 1.968556416250e-03 0.0 
1.968556416250e-03 -3.226604069426e-03 0.0 
0.0 0.0 0.0 
7.435876782304e-04 1.956775236844e-03 0.0 
1.956775236844e-03 -3.747663167724e-03 0.0 
0.0 0.0 0.0 
4.097070747987e-04 1.641311619601e-03 0.0 
1.641311619601e-03 2.294639854000e-03 0.0 
0.0 0.0 0.0 
-4.991502275020e-04 8.295188982397e-04 0.0 
8.295188982397e-04 4.453823248894e-03 0.0 
0.0 0.0 0.0 
-3.928481959199e-04 1.405729203524e-03 0.0 
1.405729203524e-03 3.071603707991e-03 0.0 
0.0 0.0 0.0 
-5.490743119709e-04 1.202826506342e-03 0.0 
1.202826506342e-03 3.244669285832e-03 0.0 
0.0 0.0 0.0 
7.153840143185e-04 -1.664025454008e-04 0.0 
-1.664025454008e-04 4.316565168578e-03 0.0 
0.0 0.0 0.0 
-4.674197752536e-04 -6.419917731073e-04 0.0 
-6.419917731073e-04 9.719235991831e-04 0.0 
0.0 0.0 0.0 
-2.072058832291e-04 2.457389544409e-03 0.0 
2.457389544409e-03 8.443431212352e-04 0.0 
0.0 0.0 0.0 
-3.032828912079e-04 6.111767981010e-05 0.0 
6.111767981010e-05 7.057951375735e-03 0.0 
0.0 0.0 0.0 
-5.130420069068e-04 2.331676186158e-03 0.0 
2.331676186158e-03 9.203696085414e-04 0.0 
0.0 0.0 0.0 
-3.324855117964e-04 -5.392251470823e-05 0.0 
-5.392251470823e-05 6.057062140080e-03 0.0 
0.0 0.0 0.0 
9.553540836712e-04 1.565306307768e-03 0.0 
1.565306307768e-03 1.394055132077e-03 0.0 
0.0 0.0 0.0 
-2.830749074405e-04 1.067313532365e-03 0.0 
1.067313532365e-03 4.344863832833e-03 0.0 
0.0 0.0 0.0 
1.015507889768e-04 2.407685750702e-03 0.0 
2.407685750702e-03 8.776787033625e-04 0.0 
0.0 0.0 0.0 
-4.857749922595e-05 1.762598789289e-03 0.0 
1.762598789289e-03 2.349369189118e-03 0.0 
0.0 0.0 0.0 
-4.776270717124e-04 5.834694244358e-04 0.0 
5.834694244358e-04 5.911530432741e-03 0.0 
0.0 0.0 0.0 
-5.324316063870e-04 4.185043486516e-04 0.0 
4.185043486516e-04 5.758352334792e-03 0.0 
0.0 0.0 0.0 
-5.425573574315e-04 4.549953866297e-04 0.0 
4.549953866297e-04 5.506064352755e-03 0.0 
0.0 0.0 0.0 
1.212532285989e-03 1.299616350442e-03 0.0 
1.299616350442e-03 1.223776090070e-03 0.0 
0.0 0.0 0.0 
-5.536721691039e-04 1.037036005603e-03 0.0 
1.037036005603e-03 3.583194586444e-03 0.0 
0.0 0.0 0.0 
-6.349711707604e-04 9.426120386448e-04 0.0 
9.426120386448e-04 3.330783452901e-03 0.0 
0.0 0.0 0.0 
-3.991789738392e-04 7.867489787759e-04 0.0 
7.867489787759e-04 5.358270222351e-03 0.0 
0.0 0.0 0.0 
-3.355987346986e-04 4.983245684545e-04 0.0 
4.983245684545e-04 7.575920435493e-03 0.0 
0.0 0.0 0.0 
-3.053379915013e-04 5.634357842262e-04 0.0 
5.634357842262e-04 7.679391902552e-03 0.0 
0.0 0.0 0.0 
-2.336207514270e-04 6.091605022991e-04 0.0 
6.091605022991e-04 8.016443444347e-03 0.0 
0.0 0.0 0.0 
-2.707322388541e-04 6.276786231414e-04 0.0 
6.276786231414e-04 7.769913045279e-03 0.0 
0.0 0.0 0.0 
-3.364505561463e-04 5.807478863065e-04 0.0 
5.807478863065e-04 7.421811878660e-03 0.0 
0.0 0.0 0.0 
-2.981606314766e-04 6.446294357499e-04 0.0 
6.446294357499e-04 7.505487129809e-03 0.0 
0.0 0.0 0.0 
-2.269881909370e-04 6.918605265953e-04 0.0 
6.918605265953e-04 7.853415294908e-03 0.0 
0.0 0.0 0.0 
-2.513857761398e-04 7.107863469231e-04 0.0 
7.107863469231e-04 7.586981542041e-03 0.0 
0.0 0.0 0.0 
-1.710985008475e-04 7.636052475799e-04 0.0 
7.636052475799e-04 7.997110004965e-03 0.0 
0.0 0.0 0.0 
-2.037657423649e-04 7.711252042128e-04 0.0 
7.711252042128e-04 7.644243337235e-03 0.0 
0.0 0.0 0.0 
-2.673800288059e-04 7.296419288465e-04 0.0 
7.296419288465e-04 7.285983997968e-03 0.0 
0.0 0.0 0.0 
-2.186674713925e-04 7.850539370002e-04 0.0 
7.850539370002e-04 7.332467272162e-03 0.0 
0.0 0.0 0.0 
-1.636035012981e-04 8.268202094312e-04 0.0 
8.268202094312e-04 7.660411497439e-03 0.0 
0.0 0.0 0.0 
-2.746335182218e-04 7.511241729397e-04 0.0 
7.511241729397e-04 6.979329588514e-03 0.0 
0.0 0.0 0.0 
2.656656880082e-04 6.184960063184e-04 0.0 
6.184960063184e-04 6.484469561207e-03 0.0 
0.0 0.0 0.0 
4.869540852012e-04 1.474193394245e-03 0.0 
1.474193394245e-03 2.653591671683e-03 0.0 
0.0 0.0 0.0 
1.618204058191e-03 1.070040935428e-03 0.0 
1.070040935428e-03 -4.299370824158e-03 0.0 
0.0 0.0 0.0 
7.847934351869e-04 2.688608164515e-03 0.0 
2.688608164515e-03 -2.651322569345e-03 0.0 
0.0 0.0 0.0 
-3.327308533434e-04 9.588272602280e-04 0.0 
9.588272602280e-04 4.702256825320e-03 0.0 
0.0 0.0 0.0 
-9.012013532093e-05 7.930685279148e-04 0.0 
7.930685279148e-04 8.398289436650e-03 0.0 
0.0 0.0 0.0 
-9.712373888269e-05 6.769740690467e-04 0.0 
6.769740690467e-04 8.578652488905e-03 0.0 
0.0 0.0 0.0 
1.255919460399e-03 1.785089462701e-03 0.0 
1.785089462701e-03 1.365414459872e-04 0.0 
0.0 0.0 0.0 
-2.334116167731e-05 9.801857726288e-04 0.0 
9.801857726288e-04 7.854037629429e-03 0.0 
0.0 0.0 0.0 
-5.178477269682e-04 5.433489087558e-04 0.0 
5.433489087558e-04 5.579364110331e-03 0.0 
0.0 0.0 0.0 
2.100712985932e-03 1.596786530008e-03 0.0 
1.596786530008e-03 -2.484359032834e-03 0.0 
0.0 0.0 0.0 
2.232422375722e-05 9.818211106925e-04 0.0 
9.818211106925e-04 7.575400164317e-03 0.0 
0.0 0.0 0.0 
-3.680526221064e-04 5.157883978166e-04 0.0 
5.157883978166e-04 7.324979323045e-03 0.0 
0.0 0.0 0.0 
-3.947668861185e-04 5.331123703523e-04 0.0 
5.331123703523e-04 7.064230589628e-03 0.0 
0.0 0.0 0.0 
-4.211983751082e-04 4.672627646769e-04 0.0 
4.672627646769e-04 6.964550444584e-03 0.0 
0.0 0.0 0.0 
-8.809738830134e-05 5.725780027392e-04 0.0 
5.725780027392e-04 8.711583249399e-03 0.0 
0.0 0.0 0.0 
-4.306801802727e-04 2.189292177970e-04 0.0 
2.189292177970e-04 6.656540203806e-03 0.0 
0.0 0.0 0.0 
1.170612200480e-04 8.116536851667e-04 0.0 
8.116536851667e-04 7.054454331849e-03 0.0 
0.0 0.0 0.0 
9.821788689229e-04 6.158435608505e-04 0.0 
6.158435608505e-04 3.461362686918e-03 0.0 
0.0 0.0 0.0 
9.335988108228e-04 7.848269773344e-04 0.0 
7.848269773344e-04 3.373845894080e-03 0.0 
0.0 0.0 0.0 
1.015284701126e-03 8.725389723754e-04 0.0 
8.725389723754e-04 2.843911352440e-03 0.0 
0.0 0.0 0.0 
-3.172188582410e-04 6.643757133004e-04 0.0 
6.643757133004e-04 7.224297022245e-03 0.0 
0.0 0.0 0.0 
1.826456787216e-04 4.144553333943e-04 0.0 
4.144553333943e-04 6.673094777158e-03 0.0 
0.0 0.0 0.0 
3.400284070659e-04 3.310656848100e-04 0.0 
3.310656848100e-04 6.195033316164e-03 0.0 
0.0 0.0 0.0 
3.341783267398e-04 2.270946868564e-04 0.0 
2.270946868564e-04 6.178380738631e-03 0.0 
0.0 0.0 0.0 
4.815483085128e-04 2.538995966761e-04 0.0 
2.538995966761e-04 5.692031717753e-03 0.0 
0.0 0.0 0.0 
1.754798001743e-04 1.916034756523e-04 0.0 
1.916034756523e-04 6.641775675696e-03 0.0 
0.0 0.0 0.0 
-6.625504414359e-05 8.906882710045e-04 0.0 
8.906882710045e-04 8.237476045503e-03 0.0 
0.0 0.0 0.0 
-5.263379968072e-05 9.311227623639e-04 0.0 
9.311227623639e-04 8.135275183314e-03 0.0 
0.0 0.0 0.0 
1.012868314434e-03 -1.678417373216e-03 0.0 
-1.678417373216e-03 -6.811743985226e-05 0.0 
0.0 0.0 0.0 
1.378708722420e-03 -1.316849325726e-03 0.0 
-1.316849325726e-03 -2.343107586681e-04 0.0 
0.0 0.0 0.0 
1.328514438115e-03 -1.074315589862e-03 0.0 
-1.074315589862e-03 3.781837617139e-04 0.0 
0.0 0.0 0.0 
1.622789068967e-03 -8.703618762932e-04 0.0 
-8.703618762932e-04 -2.342605846951e-04 0.0 
0.0 0.0 0.0 
1.734786169991e-03 -1.091088141374e-03 0.0 
-1.091088141374e-03 -9.645154032431e-04 0.0 
0.0 0.0 0.0 
1.896678704051e-03 -5.258095997401e-04 0.0 
-5.258095997401e-04 -8.239719682112e-04 0.0 
0.0 0.0 0.0 
1.734196291747e-03 -4.077168017015e-04 0.0 
-4.077168017015e-04 -5.789046688102e-05 0.0 
0.0 0.0 0.0 
2.100169862759e-03 -2.701180146017e-05 0.0 
-2.701180146017e-05 -1.324579688237e-03 0.0 
0.0 0.0 0.0 
-1.587176983082e-04 8.461065523193e-04 0.0 
8.461065523193e-04 7.068110078064e-03 0.0 
0.0 0.0 0.0 
1.383591430589e-04 -1.822166663089e-06 0.0 
-1.822166663089e-06 6.711221457779e-03 0.0 
0.0 0.0 0.0 
5.188647288841e-04 -5.460085898718e-04 0.0 
-5.460085898718e-04 3.861267784658e-03 0.0 
0.0 0.0 0.0 
6.736433195366e-04 -5.451898502061e-04 0.0 
-5.451898502061e-04 3.474823296197e-03 0.0 
0.0 0.0 0.0 
7.226788032621e-04 -6.762012976459e-04 0.0 
-6.762012976459e-04 2.979091866483e-03 0.0 
0.0 0.0 0.0 
-2.692870889051e-04 -6.674796116630e-04 0.0 
-6.674796116630e-04 3.536749372074e-03 0.0 
0.0 0.0 0.0 
-1.565519904822e-04 -7.243256861169e-04 0.0 
-7.243256861169e-04 3.594063957939e-03 0.0 
0.0 0.0 0.0 
-1.165003028908e-04 -6.490571670093e-04 0.0 
-6.490571670093e-04 3.958213161332e-03 0.0 
0.0 0.0 0.0 
-3.567095093541e-04 -5.885119159188e-04 0.0 
-5.885119159188e-04 3.456568991356e-03 0.0 
0.0 0.0 0.0 
2.668854852558e-04 9.725476432713e-04 0.0 
9.725476432713e-04 5.176306271745e-03 0.0 
0.0 0.0 0.0 
1.197581515376e-04 -8.354250174422e-05 0.0 
-8.354250174422e-05 6.753376930897e-03 0.0 
0.0 0.0 0.0 
1.063082907019e-03 -4.207847345211e-05 0.0 
-4.207847345211e-05 3.131781064847e-03 0.0 
0.0 0.0 0.0 
-7.046626788028e-05 -8.433999550487e-04 0.0 
-8.433999550487e-04 3.271793474532e-03 0.0 
0.0 0.0 0.0 
-4.935026579193e-04 1.535152287164e-04 0.0 
1.535152287164e-04 5.594492745565e-03 0.0 
0.0 0.0 0.0 
-4.937002873984e-04 2.172378146745e-04 0.0 
2.172378146745e-04 5.930359938829e-03 0.0 
0.0 0.0 0.0 
-5.139299901433e-04 2.552532109891e-04 0.0 
2.552532109891e-04 5.909187409707e-03 0.0 
0.0 0.0 0.0 
-4.836614954351e-04 2.811977425165e-04 0.0 
2.811977425165e-04 6.289544632650e-03 0.0 
0.0 0.0 0.0 
-4.757864708883e-04 1.769039959436e-04 0.0 
1.769039959436e-04 5.991402230006e-03 0.0 
0.0 0.0 0.0 
-3.359821054525e-04 -4.112903216703e-04 0.0 
-4.112903216703e-04 4.423442663697e-03 0.0 
0.0 0.0 0.0 
-3.732320541577e-04 -3.203790996761e-04 0.0 
-3.203790996761e-04 4.662150682500e-03 0.0 
0.0 0.0 0.0 
-4.258686572355e-04 -2.616691873252e-04 0.0 
-2.616691873252e-04 4.522169621825e-03 0.0 
0.0 0.0 0.0 
-3.986719682568e-04 -2.356019137149e-04 0.0 
-2.356019137149e-04 4.883425759113e-03 0.0 
0.0 0.0 0.0 
-4.409860460526e-04 -1.794724050429e-04 0.0 
-1.794724050429e-04 4.718573369084e-03 0.0 
0.0 0.0 0.0 
-4.601837826219e-04 -1.997740749336e-04 0.0 
-1.997740749336e-04 4.382096778911e-03 0.0 
0.0 0.0 0.0 
-4.145489871027e-04 -1.551710097565e-04 0.0 
-1.551710097565e-04 5.083769933476e-03 0.0 
0.0 0.0 0.0 
-4.512462273977e-04 -1.015730479602e-04 0.0 
-1.015730479602e-04 4.876879423315e-03 0.0 
0.0 0.0 0.0 
-4.549508820967e-04 9.608086212899e-05 0.0 
9.608086212899e-05 5.617379432819e-03 0.0 
0.0 0.0 0.0 
-8.597510641475e-04 -1.874703012076e-03 0.0 
-1.874703012076e-03 -1.096150492954e-03 0.0 
0.0 0.0 0.0 
-5.109158252176e-04 -2.207088162014e-03 0.0 
-2.207088162014e-03 -6.986372098687e-04 0.0 
0.0 0.0 0.0 
-6.632707062047e-04 -1.522342499078e-03 0.0 
-1.522342499078e-03 1.998624701476e-04 0.0 
0.0 0.0 0.0 
-2.913879220812e-04 -2.215892461130e-03 0.0 
-2.215892461130e-03 -4.314898850465e-04 0.0 
0.0 0.0 0.0 
4.469533086432e-04 -2.426289467791e-03 0.0 
-2.426289467791e-03 -1.753287705097e-03 0.0 
0.0 0.0 0.0 
4.439213775065e-04 -2.343793161270e-03 0.0 
-2.343793161270e-03 -1.134367365677e-03 0.0 
0.0 0.0 0.0 
1.203794312146e-03 -2.252413389558e-03 0.0 
-2.252413389558e-03 -2.397217577547e-03 0.0 
0.0 0.0 0.0 
2.098637093767e-04 -2.381617859925e-03 0.0 
-2.381617859925e-03 -2.486233422080e-03 0.0 
0.0 0.0 0.0 
-3.487887982374e-04 -5.362345635339e-04 0.0 
-5.362345635339e-04 2.176207182897e-04 0.0 
0.0 0.0 0.0 
-5.507852501564e-04 -9.599283501748e-04 0.0 
-9.599283501748e-04 4.979520438602e-04 0.0 
0.0 0.0 0.0 
-2.658139519166e-05 -2.671939064652e-04 0.0 
-2.671939064652e-04 2.032893417599e-04 0.0 
0.0 0.0 0.0 
-3.807945025226e-04 -5.800900629610e-04 0.0 
-5.800900629610e-04 5.844253237945e-04 0.0 
0.0 0.0 0.0 
-6.083573221891e-04 -1.218757903033e-03 0.0 
-1.218757903033e-03 7.647269927223e-04 0.0 
0.0 0.0 0.0 
-5.184050934632e-04 -7.936847908135e-04 0.0 
-7.936847908135e-04 1.494196676732e-03 0.0 
0.0 0.0 0.0 
-7.659716916622e-05 -1.649383919615e-04 0.0 
-1.649383919615e-04 7.309579060681e-03 0.0 
0.0 0.0 0.0 
-4.939813425581e-04 -7.649202502326e-05 0.0 
-7.649202502326e-05 3.857367578983e-03 0.0 
0.0 0.0 0.0 
-4.870241455295e-04 -1.496345690635e-04 0.0 
-1.496345690635e-04 3.662038259205e-03 0.0 
0.0 0.0 0.0 
-4.655194724532e-04 -1.430514025567e-04 0.0 
-1.430514025567e-04 3.297569921117e-03 0.0 
0.0 0.0 0.0 
-4.703774154598e-04 -2.352148796830e-04 0.0 
-2.352148796830e-04 3.466501829262e-03 0.0 
0.0 0.0 0.0 
-4.901648050842e-04 -1.453645717898e-04 0.0 
-1.453645717898e-04 3.995094767979e-03 0.0 
0.0 0.0 0.0 
-4.460865184951e-04 -6.652356657341e-05 0.0 
-6.652356657341e-05 3.099790570362e-03 0.0 
0.0 0.0 0.0 
-4.267932752958e-04 -1.299609543766e-04 0.0 
-1.299609543766e-04 2.946959042680e-03 0.0 
0.0 0.0 0.0 
4.929967301022e-04 -2.704436426556e-06 0.0 
-2.704436426556e-06 4.888510380866e-05 0.0 
0.0 0.0 0.0 
3.152365030347e-04 -1.443178698646e-05 0.0 
-1.443178698646e-05 4.438687469028e-04 0.0 
0.0 0.0 0.0 
3.491119493466e-04 6.293990809297e-06 0.0 
6.293990809297e-06 3.958839756134e-04 0.0 
0.0 0.0 0.0 
1.418520259326e-04 -2.596920459478e-05 0.0 
-2.596920459478e-05 8.744535265740e-04 0.0 
0.0 0.0 0.0 
1.407225481490e-04 -4.235945748465e-05 0.0 
-4.235945748465e-05 8.637856495407e-04 0.0 
0.0 0.0 0.0 
3.051239895284e-04 -1.896911314311e-05 0.0 
-1.896911314311e-05 4.507114669712e-04 0.0 
0.0 0.0 0.0 
2.772311721882e-04 -2.283279060498e-05 0.0 
-2.283279060498e-05 4.621082177219e-04 0.0 
0.0 0.0 0.0 
4.766299209096e-04 -4.382340710871e-06 0.0 
-4.382340710871e-06 5.520570451682e-05 0.0 
0.0 0.0 0.0 
2.405775233942e-04 -3.599876657627e-05 0.0 
-3.599876657627e-05 4.792618967380e-04 0.0 
0.0 0.0 0.0 
6.259610156378e-05 -8.453524068390e-05 0.0 
-8.453524068390e-05 9.087198071430e-04 0.0 
0.0 0.0 0.0 
4.693114590856e-04 -1.006407546472e-05 0.0 
-1.006407546472e-05 4.861011918857e-05 0.0 
0.0 0.0 0.0 
-2.523862747287e-04 1.520717694150e-05 0.0 
1.520717694150e-05 7.542069399746e-03 0.0 
0.0 0.0 0.0 
-2.314556051312e-04 3.881242976138e-05 0.0 
3.881242976138e-05 7.756129115978e-03 0.0 
0.0 0.0 0.0 
7.768003826073e-05 -2.001940980247e-04 0.0 
-2.001940980247e-04 6.858433379096e-03 0.0 
0.0 0.0 0.0 
-4.159047117104e-04 5.930020787952e-05 0.0 
5.930020787952e-05 5.675958492047e-03 0.0 
0.0 0.0 0.0 
2.134486057420e-04 -8.108947403789e-05 0.0 
-8.108947403789e-05 1.516583419356e-04 0.0 
0.0 0.0 0.0 
-7.664010935063e-05 1.546242730659e-04 0.0 
1.546242730659e-04 8.875318967625e-03 0.0 
0.0 0.0 0.0 
-7.372324648928e-05 2.757422181531e-04 0.0 
2.757422181531e-04 8.895179361804e-03 0.0 
0.0 0.0 0.0 
-6.587240735227e-05 2.388185065914e-04 0.0 
2.388185065914e-04 8.917896219996e-03 0.0 
0.0 0.0 0.0 
-2.177503322533e-04 -4.397084093490e-05 0.0 
-4.397084093490e-05 6.811964907415e-03 0.0 
0.0 0.0 0.0 
-1.747174563969e-04 -8.467387277253e-05 0.0 
-8.467387277253e-05 6.978573673635e-03 0.0 
0.0 0.0 0.0 
-7.013554177864e-05 8.869146430575e-05 0.0 
8.869146430575e-05 8.899111036316e-03 0.0 
0.0 0.0 0.0 
-3.970421881812e-04 -8.537644567907e-04 0.0 
-8.537644567907e-04 2.290211127869e-03 0.0 
0.0 0.0 0.0 
-1.986289373056e-04 6.779027153305e-04 0.0 
6.779027153305e-04 8.102979931100e-03 0.0 
0.0 0.0 0.0 
-1.899228071851e-04 1.551807275426e-04 0.0 
1.551807275426e-04 8.219990502891e-03 0.0 
0.0 0.0 0.0 
1.579408622593e-03 2.275762416353e-03 0.0 
2.275762416353e-03 -1.957110383099e-03 0.0 
0.0 0.0 0.0 
-1.766583431385e-04 -1.415982220190e-03 0.0 
-1.415982220190e-03 1.631240085622e-03 0.0 
0.0 0.0 0.0 
-3.349412385379e-04 -1.794454932366e-04 0.0 
-1.794454932366e-04 5.623528390369e-03 0.0 
0.0 0.0 0.0 
-6.564800713543e-05 -4.937132922509e-04 0.0 
-4.937132922509e-04 4.723635642390e-03 0.0 
0.0 0.0 0.0 
-1.825297376715e-04 -2.171014742202e-04 0.0 
-2.171014742202e-04 6.313787066560e-03 0.0 
0.0 0.0 0.0 
-2.770791025518e-04 -3.237378269445e-04 0.0 
-3.237378269445e-04 5.161033009988e-03 0.0 
0.0 0.0 0.0 
-1.046832262955e-04 -3.113583185668e-04 0.0 
-3.113583185668e-04 5.810504880181e-03 0.0 
0.0 0.0 0.0 
3.214487219299e-04 1.157720917615e-04 0.0 
1.157720917615e-04 6.159521328803e-03 0.0 
0.0 0.0 0.0 
-1.220676429534e-04 -1.120648983053e-04 0.0 
-1.120648983053e-04 1.575324514371e-03 0.0 
0.0 0.0 0.0 
-3.702583552257e-04 1.310169679095e-04 0.0 
1.310169679095e-04 6.778571346909e-03 0.0 
0.0 0.0 0.0 
-3.446182588601e-04 7.128855489438e-05 0.0 
7.128855489438e-05 6.645216106270e-03 0.0 
0.0 0.0 0.0 
-2.762578523947e-04 1.458409626575e-04 0.0 
1.458409626575e-04 7.619411250344e-03 0.0 
0.0 0.0 0.0 
-4.231833088078e-04 -4.659065077178e-04 0.0 
-4.659065077178e-04 2.636048800917e-03 0.0 
0.0 0.0 0.0 
-4.452620707046e-04 -2.866464467224e-04 0.0 
-2.866464467224e-04 4.172582323553e-03 0.0 
0.0 0.0 0.0 
-3.356259283723e-04 -3.884411465685e-04 0.0 
-3.884411465685e-04 1.694626121069e-03 0.0 
0.0 0.0 0.0 
2.063007253715e-05 9.486100198168e-04 0.0 
9.486100198168e-04 7.303088758289e-03 0.0 
0.0 0.0 0.0 
-4.554294345972e-04 7.667016430979e-04 0.0 
7.667016430979e-04 5.050759519020e-03 0.0 
0.0 0.0 0.0 
5.744874823260e-04 -8.118256012974e-04 0.0 
-8.118256012974e-04 2.923129358946e-03 0.0 
0.0 0.0 0.0 
-3.148499628224e-04 -7.085931908214e-04 0.0 
-7.085931908214e-04 3.193226887116e-03 0.0 
0.0 0.0 0.0 
-2.959004101620e-04 -1.023123411177e-03 0.0 
-1.023123411177e-03 2.306433835065e-03 0.0 
0.0 0.0 0.0 
-7.251234812859e-05 -1.656501552425e-03 0.0 
-1.656501552425e-03 1.190436588492e-03 0.0 
0.0 0.0 0.0 
3.077737176784e-04 1.386202903600e-03 0.0 
1.386202903600e-03 3.202249445859e-03 0.0 
0.0 0.0 0.0 
8.495376760292e-05 -8.591133529705e-04 0.0 
-8.591133529705e-04 3.287356174836e-03 0.0 
0.0 0.0 0.0 
2.234183843109e-04 -4.059427099026e-04 0.0 
-4.059427099026e-04 5.027721463966e-03 0.0 
0.0 0.0 0.0 
-2.427623778932e-04 1.342614931029e-04 0.0 
1.342614931029e-04 7.838463861402e-03 0.0 
0.0 0.0 0.0 
3.495622713977e-04 -2.545801612043e-05 0.0 
-2.545801612043e-05 1.387790025491e-04 0.0 
0.0 0.0 0.0 
2.975885660307e-04 -3.434115350056e-04 0.0 
-3.434115350056e-04 5.155827159818e-03 0.0 
0.0 0.0 0.0 
1.354303821075e-04 -6.423502818759e-04 0.0 
-6.423502818759e-04 4.075759392197e-03 0.0 
0.0 0.0 0.0 
-4.013090774409e-04 2.150801842270e-04 0.0 
2.150801842270e-04 6.890656443253e-03 0.0 
0.0 0.0 0.0 
7.497664169552e-04 4.246770716202e-04 0.0 
4.246770716202e-04 4.689988406359e-03 0.0 
0.0 0.0 0.0 
6.156858940124e-05 -2.224647253421e-03 0.0 
-2.224647253421e-03 -2.268359616729e-04 0.0 
0.0 0.0 0.0 
-2.901268755277e-04 2.367768670951e-04 0.0 
2.367768670951e-04 7.725981016645e-03 0.0 
0.0 0.0 0.0 
-2.104742363189e-04 4.439809233366e-04 0.0 
4.439809233366e-04 8.272962877447e-03 0.0 
0.0 0.0 0.0 
-4.557101895820e-04 2.215605255138e-04 0.0 
2.215605255138e-04 6.422365286216e-03 0.0 
0.0 0.0 0.0 
-2.010286142541e-04 -2.651713155874e-04 0.0 
-2.651713155874e-04 1.275698151302e-03 0.0 
0.0 0.0 0.0 
-3.916743574561e-04 9.811805517086e-05 0.0 
9.811805517086e-05 6.368988265915e-03 0.0 
0.0 0.0 0.0 
2.803502003450e-04 -1.411544993645e-04 0.0 
-1.411544993645e-04 5.987273124586e-03 0.0 
0.0 0.0 0.0 
-3.600804678794e-04 4.346425585303e-04 0.0 
4.346425585303e-04 7.460714361656e-03 0.0 
0.0 0.0 0.0 
-3.942121981031e-04 -3.413116358923e-04 0.0 
-3.413116358923e-04 2.462199331477e-03 0.0 
0.0 0.0 0.0 
1.285453237119e-03 8.865336294440e-05 0.0 
8.865336294440e-05 2.255030233909e-03 0.0 
0.0 0.0 0.0 
-1.322100450106e-04 1.146761517400e-03 0.0 
1.146761517400e-03 4.252417640763e-03 0.0 
0.0 0.0 0.0 
-5.595011533099e-04 3.119813102849e-04 0.0 
3.119813102849e-04 5.075463138904e-03 0.0 
0.0 0.0 0.0 
-1.707186911698e-04 1.922277466738e-04 0.0 
1.922277466738e-04 8.371618646594e-03 0.0 
0.0 0.0 0.0 
7.125967595478e-04 1.086916908107e-03 0.0 
1.086916908107e-03 3.364818266795e-03 0.0 
0.0 0.0 0.0 
6.417146415475e-04 2.227125010687e-04 0.0 
2.227125010687e-04 5.100272449317e-03 0.0 
0.0 0.0 0.0 
1.030149772327e-03 1.399685479304e-04 0.0 
1.399685479304e-04 3.433729785825e-03 0.0 
0.0 0.0 0.0 
-4.051528443208e-04 -2.724211025458e-04 0.0 
-2.724211025458e-04 2.660863449230e-03 0.0 
0.0 0.0 0.0 
9.854429806751e-05 -3.186769267284e-04 0.0 
-3.186769267284e-04 5.790478585597e-03 0.0 
0.0 0.0 0.0 
1.188368025197e-03 7.525845632243e-04 0.0 
7.525845632243e-04 2.340144263342e-03 0.0 
0.0 0.0 0.0 
-2.338222303767e-04 2.698917803583e-04 0.0 
2.698917803583e-04 8.101811045312e-03 0.0 
0.0 0.0 0.0 
-2.407348676986e-05 9.230015063826e-04 0.0 
9.230015063826e-04 6.006998632580e-03 0.0 
0.0 0.0 0.0 
1.632134801065e-03 3.765855140767e-04 0.0 
3.765855140767e-04 7.047685101177e-04 0.0 
0.0 0.0 0.0 
-3.000850240233e-04 3.483970913346e-04 0.0 
3.483970913346e-04 7.797596633549e-03 0.0 
0.0 0.0 0.0 
9.040564360839e-04 -6.468041090396e-04 0.0 
-6.468041090396e-04 2.556105812103e-03 0.0 
0.0 0.0 0.0 
6.467176958753e-04 5.289347528156e-04 0.0 
5.289347528156e-04 5.072770851991e-03 0.0 
0.0 0.0 0.0 
-4.348085387450e-04 8.535033034780e-04 0.0 
8.535033034780e-04 4.742162925771e-03 0.0 
0.0 0.0 0.0 
-9.160637150131e-05 9.763925938277e-04 0.0 
9.763925938277e-04 5.288631035770e-03 0.0 
0.0 0.0 0.0 
-3.172567606914e-04 7.586816198585e-04 0.0 
7.586816198585e-04 6.327136557604e-03 0.0 
0.0 0.0 0.0 
2.478662328990e-04 1.109303352794e-03 0.0 
1.109303352794e-03 4.398425358665e-03 0.0 
0.0 0.0 0.0 
-3.832890210088e-04 -1.280865164329e-04 0.0 
-1.280865164329e-04 5.461479880055e-03 0.0 
0.0 0.0 0.0 
1.902550085421e-04 -3.330491130904e-04 0.0 
-3.330491130904e-04 5.479875549615e-03 0.0 
0.0 0.0 0.0 
2.355993845834e-03 -9.171645914682e-04 0.0 
-9.171645914682e-04 -3.456595994544e-03 0.0 
0.0 0.0 0.0 
1.093482687046e-04 1.642820135621e-03 0.0 
1.642820135621e-03 2.588114433704e-03 0.0 
0.0 0.0 0.0 
-4.274153990938e-04 2.700105144839e-04 0.0 
2.700105144839e-04 6.814967329246e-03 0.0 
0.0 0.0 0.0 
1.345344100944e-04 9.069610839545e-04 0.0 
9.069610839545e-04 6.402472704059e-03 0.0 
0.0 0.0 0.0 
-1.672568941422e-04 3.014935398928e-04 0.0 
3.014935398928e-04 8.466662933436e-03 0.0 
0.0 0.0 0.0 
-2.171488828815e-04 1.191282805630e-03 0.0 
1.191282805630e-03 3.964902810455e-03 0.0 
0.0 0.0 0.0 
3.351077408496e-05 -3.457300321930e-04 0.0 
-3.457300321930e-04 5.654789516543e-03 0.0 
0.0 0.0 0.0 
-2.353872644226e-04 3.885472258602e-04 0.0 
3.885472258602e-04 8.154231692253e-03 0.0 
0.0 0.0 0.0 
-2.485640550418e-05 -7.527185144053e-04 0.0 
-7.527185144053e-04 3.636141853998e-03 0.0 
0.0 0.0 0.0 
-1.851310647351e-04 -3.834822030355e-05 0.0 
-3.834822030355e-05 1.850478750681e-03 0.0 
0.0 0.0 0.0 
1.314076621981e-03 2.516312471909e-03 0.0 
2.516312471909e-03 -2.217015484271e-03 0.0 
0.0 0.0 0.0 
1.970277034360e-03 5.049786701192e-04 0.0 
5.049786701192e-04 -7.888422245917e-04 0.0 
0.0 0.0 0.0 
8.953548082741e-04 1.056955592039e-03 0.0 
1.056955592039e-03 2.847581783330e-03 0.0 
0.0 0.0 0.0 
6.973807860004e-06 -6.596982071210e-04 0.0 
-6.596982071210e-04 4.016530171857e-03 0.0 
0.0 0.0 0.0 
-1.811575248209e-04 6.035750212206e-04 0.0 
6.035750212206e-04 8.302056921114e-03 0.0 
0.0 0.0 0.0 
-3.547986444108e-05 -3.097616286571e-04 0.0 
-3.097616286571e-04 5.942188056708e-03 0.0 
0.0 0.0 0.0 
5.907434935175e-04 -2.174775373178e-04 0.0 
-2.174775373178e-04 4.649825209364e-03 0.0 
0.0 0.0 0.0 
-8.521506092171e-04 2.255548299433e-03 0.0 
2.255548299433e-03 5.364158832617e-04 0.0 
0.0 0.0 0.0 
-5.616480461351e-04 4.043602494321e-04 0.0 
4.043602494321e-04 5.169632625526e-03 0.0 
0.0 0.0 0.0 
-8.787488533416e-05 -2.726009524305e-04 0.0 
-2.726009524305e-04 6.214725861738e-03 0.0 
0.0 0.0 0.0 
1.184823240399e-03 -9.827918573607e-05 0.0 
-9.827918573607e-05 2.549321874471e-03 0.0 
0.0 0.0 0.0 
6.199007696810e-04 4.267627780344e-04 0.0 
4.267627780344e-04 5.220142783359e-03 0.0 
0.0 0.0 0.0 
-4.707771059487e-04 -1.223184588850e-04 0.0 
-1.223184588850e-04 4.531064456929e-03 0.0 
0.0 0.0 0.0 
6.540261605344e-05 9.356155221180e-04 0.0 
9.356155221180e-04 7.136249915462e-03 0.0 
0.0 0.0 0.0 
-5.956492300552e-04 6.336942747465e-04 0.0 
6.336942747465e-04 4.172223645955e-03 0.0 
0.0 0.0 0.0 
-1.249713632936e-04 -2.360388285440e-04 0.0 
-2.360388285440e-04 6.476829719995e-03 0.0 
0.0 0.0 0.0 
7.190302011890e-04 -3.023079673487e-05 0.0 
-3.023079673487e-05 4.546972430043e-03 0.0 
0.0 0.0 0.0 
9.203950886964e-04 1.806819823002e-03 0.0 
1.806819823002e-03 9.403003139779e-04 0.0 
0.0 0.0 0.0 
-3.471051569933e-04 9.302468412537e-06 0.0 
9.302468412537e-06 5.626975732561e-03 0.0 
0.0 0.0 0.0 
-8.730529345921e-05 -2.206929675189e-04 0.0 
-2.206929675189e-04 6.929853661539e-03 0.0 
0.0 0.0 0.0 
5.928915985337e-04 2.227919222203e-05 0.0 
2.227919222203e-05 5.093157635699e-03 0.0 
0.0 0.0 0.0 
2.651018570676e-04 1.034424274831e-03 0.0 
1.034424274831e-03 4.779319867590e-03 0.0 
0.0 0.0 0.0 
1.166011825478e-03 -3.310411398581e-04 0.0 
-3.310411398581e-04 2.303644989023e-03 0.0 
0.0 0.0 0.0 
-5.815377312915e-04 3.760265983326e-04 0.0 
3.760265983326e-04 4.609261364220e-03 0.0 
0.0 0.0 0.0 
-8.679774867456e-05 -5.707909115613e-04 0.0 
-5.707909115613e-04 4.334911097373e-03 0.0 
0.0 0.0 0.0 
-1.580811448686e-04 9.141338036051e-04 0.0 
9.141338036051e-04 5.660330021467e-03 0.0 
0.0 0.0 0.0 
-8.256263399237e-05 5.234738250957e-04 0.0 
5.234738250957e-04 8.762682287432e-03 0.0 
0.0 0.0 0.0 
5.521790669875e-04 1.353571101573e-04 0.0 
1.353571101573e-04 5.340575951187e-03 0.0 
0.0 0.0 0.0 
-4.447585925898e-04 4.855954569786e-04 0.0 
4.855954569786e-04 6.706721940167e-03 0.0 
0.0 0.0 0.0 
-1.932928669489e-04 -5.499512107630e-04 0.0 
-5.499512107630e-04 4.255206842001e-03 0.0 
0.0 0.0 0.0 
7.076444715022e-04 7.875157391354e-04 0.0 
7.875157391354e-04 4.336929455122e-03 0.0 
0.0 0.0 0.0 
1.182550327757e-04 -5.506430664950e-05 0.0 
-5.506430664950e-05 8.723969431566e-04 0.0 
0.0 0.0 0.0 
-5.802142552688e-04 4.946056186543e-04 0.0 
4.946056186543e-04 4.682084171148e-03 0.0 
0.0 0.0 0.0 
-2.566233689037e-04 -4.561470137247e-04 0.0 
-4.561470137247e-04 4.531625184297e-03 0.0 
0.0 0.0 0.0 
1.903124794648e-03 -4.700004604338e-06 0.0 
-4.700004604338e-06 -4.901679674856e-04 0.0 
0.0 0.0 0.0 
1.003477027781e-03 -4.479397509149e-04 0.0 
-4.479397509149e-04 2.686786479938e-03 0.0 
0.0 0.0 0.0 
3.125446455845e-04 6.972640386701e-04 0.0 
6.972640386701e-04 6.344564463872e-03 0.0 
0.0 0.0 0.0 
-3.066112250441e-04 -3.678235569708e-04 0.0 
-3.678235569708e-04 4.789155630223e-03 0.0 
0.0 0.0 0.0 
1.727782890144e-03 1.815262165544e-05 0.0 
1.815262165544e-05 2.670802595384e-04 0.0 
0.0 0.0 0.0 
-3.436699623417e-04 -2.848509595743e-04 0.0 
-2.848509595743e-04 5.028299011810e-03 0.0 
0.0 0.0 0.0 
-6.013183741607e-04 4.738712855903e-04 0.0 
4.738712855903e-04 4.143603566105e-03 0.0 
0.0 0.0 0.0 
-4.152357566250e-04 5.546178389052e-04 0.0 
5.546178389052e-04 6.798007187490e-03 0.0 
0.0 0.0 0.0 
-3.687856153117e-04 -2.059867637298e-04 0.0 
-2.059867637298e-04 5.251801410212e-03 0.0 
0.0 0.0 0.0 
-1.176661882603e-04 8.991879428486e-04 0.0 
8.991879428486e-04 6.011365483023e-03 0.0 
0.0 0.0 0.0 
-8.932847764439e-06 -1.360906867670e-04 0.0 
-1.360906867670e-04 9.739037672087e-04 0.0 
0.0 0.0 0.0 
3.896465876415e-04 9.893141874777e-04 0.0 
9.893141874777e-04 4.740139501498e-03 0.0 
0.0 0.0 0.0 
-2.405021862179e-04 -9.049089613551e-05 0.0 
-9.049089613551e-05 6.593005948003e-03 0.0 
0.0 0.0 0.0 
8.216085879672e-05 -1.221987064777e-03 0.0 
-1.221987064777e-03 2.191506301926e-03 0.0 
0.0 0.0 0.0 
8.364931907295e-04 -5.159345246212e-04 0.0 
-5.159345246212e-04 3.079724410326e-03 0.0 
0.0 0.0 0.0 
-3.601881134059e-04 5.995925569809e-04 0.0 
5.995925569809e-04 7.152043987007e-03 0.0 
0.0 0.0 0.0 
-6.311192045766e-04 6.077616003884e-04 0.0 
6.077616003884e-04 3.674305746565e-03 0.0 
0.0 0.0 0.0 
7.618695804202e-04 -4.015949384446e-04 0.0 
-4.015949384446e-04 3.601780280370e-03 0.0 
0.0 0.0 0.0 
-8.602444435183e-05 8.914702670824e-04 0.0 
8.914702670824e-04 6.377623950596e-03 0.0 
0.0 0.0 0.0 
4.953646911372e-04 9.227673216824e-04 0.0 
9.227673216824e-04 4.733340906507e-03 0.0 
0.0 0.0 0.0 
8.436046948672e-04 9.459539229839e-04 0.0 
9.459539229839e-04 3.339953118007e-03 0.0 
0.0 0.0 0.0 
6.806825690481e-04 -3.017873353664e-04 0.0 
-3.017873353664e-04 4.125331396161e-03 0.0 
0.0 0.0 0.0 
-6.169938519111e-04 8.234806574854e-04 0.0 
8.234806574854e-04 3.644505219256e-03 0.0 
0.0 0.0 0.0 
-3.922563603518e-04 -1.012628671766e-03 0.0 
-1.012628671766e-03 2.032010194299e-03 0.0 
0.0 0.0 0.0 
-4.763968361809e-04 -9.428496540582e-04 0.0 
-9.428496540582e-04 1.768565070202e-03 0.0 
0.0 0.0 0.0 
1.583735745576e-03 -3.121214044883e-04 0.0 
-3.121214044883e-04 6.481496825119e-04 0.0 
0.0 0.0 0.0 
-1.317453940720e-04 8.656040950107e-04 0.0 
8.656040950107e-04 6.734356581350e-03 0.0 
0.0 0.0 0.0 
-1.076696125139e-05 -6.071253165212e-05 0.0 
-6.071253165212e-05 1.280229075259e-03 0.0 
0.0 0.0 0.0 
-3.287081038806e-04 6.891781706099e-04 0.0 
6.891781706099e-04 6.932835059023e-03 0.0 
0.0 0.0 0.0 
-5.710396131094e-04 -9.281209510958e-04 0.0 
-9.281209510958e-04 1.290799959192e-03 0.0 
0.0 0.0 0.0 
1.507645899483e-03 -6.957901901341e-04 0.0 
-6.957901901341e-04 4.447659595121e-04 0.0 
0.0 0.0 0.0 
5.020956417780e-04 7.911885831528e-04 0.0 
7.911885831528e-04 5.264591475059e-03 0.0 
0.0 0.0 0.0 
-3.118407467589e-04 4.955292390597e-06 0.0 
4.955292390597e-06 6.765392088789e-03 0.0 
0.0 0.0 0.0 
1.259416620619e-03 -8.766409453674e-04 0.0 
-8.766409453674e-04 9.739538922999e-04 0.0 
0.0 0.0 0.0 
-3.006047067629e-04 -4.790347189064e-05 0.0 
-4.790347189064e-05 2.288910583038e-03 0.0 
0.0 0.0 0.0 
1.045901705558e-03 -1.167540395171e-03 0.0 
-1.167540395171e-03 9.684843445151e-04 0.0 
0.0 0.0 0.0 
7.807500476769e-04 8.568046430082e-04 0.0 
8.568046430082e-04 3.835110348417e-03 0.0 
0.0 0.0 0.0 
7.895558047412e-04 -1.180404978894e-03 0.0 
-1.180404978894e-03 1.523663717240e-03 0.0 
0.0 0.0 0.0 
5.215795259161e-04 -1.321421982807e-03 0.0 
-1.321421982807e-03 1.618490033372e-03 0.0 
0.0 0.0 0.0 
-1.306886045882e-04 1.730755430537e-04 0.0 
1.730755430537e-04 8.589617071886e-03 0.0 
0.0 0.0 0.0 
3.228904653077e-04 -1.216426607445e-03 0.0 
-1.216426607445e-03 2.104333304629e-03 0.0 
0.0 0.0 0.0 
-5.621665759953e-05 4.933685579071e-05 0.0 
4.933685579071e-05 8.965478047752e-03 0.0 
0.0 0.0 0.0 
-8.690666749897e-05 -8.313683246499e-05 0.0 
-8.313683246499e-05 7.387925809705e-03 0.0 
0.0 0.0 0.0 
-3.401927333885e-04 7.508378584164e-07 0.0 
7.508378584164e-07 5.947268419108e-03 0.0 
0.0 0.0 0.0 
-6.669963383789e-04 7.441719177106e-04 0.0 
7.441719177106e-04 3.207941159949e-03 0.0 
0.0 0.0 0.0 
-8.499396960441e-04 9.358101239653e-05 0.0 
9.358101239653e-05 -4.312718547010e-03 0.0 
0.0 0.0 0.0 
-6.510385787762e-04 1.151608743594e-03 0.0 
1.151608743594e-03 3.058411709161e-03 0.0 
0.0 0.0 0.0 
-2.942861916361e-05 -1.333866989069e-03 0.0 
-1.333866989069e-03 1.888189128221e-03 0.0 
0.0 0.0 0.0 
-2.672607080252e-04 7.796154766182e-04 0.0 
7.796154766182e-04 6.668280486903e-03 0.0 
0.0 0.0 0.0 
-3.418249874280e-04 1.449861403134e-05 0.0 
1.449861403134e-05 5.963891415481e-03 0.0 
0.0 0.0 0.0 
-2.490940205534e-04 -1.206284348849e-03 0.0 
-1.206284348849e-03 1.993260617450e-03 0.0 
0.0 0.0 0.0 
-1.335741288166e-04 8.281579195648e-04 0.0 
8.281579195648e-04 7.970460897510e-03 0.0 
0.0 0.0 0.0 
6.948403078477e-05 9.265366285603e-04 0.0 
9.265366285603e-04 7.304878753499e-03 0.0 
0.0 0.0 0.0 
-2.714054095634e-04 3.369734869170e-05 0.0 
3.369734869170e-05 7.349478962516e-03 0.0 
0.0 0.0 0.0 
5.647043032725e-04 3.373391860009e-04 0.0 
3.373391860009e-04 5.393359068134e-03 0.0 
0.0 0.0 0.0 
5.744604960588e-04 8.366549816523e-04 0.0 
8.366549816523e-04 4.773094487269e-03 0.0 
0.0 0.0 0.0 
-1.671907133600e-04 2.246427895283e-05 0.0 
2.246427895283e-05 8.276675992388e-03 0.0 
0.0 0.0 0.0 
-3.750782361741e-04 1.794632914785e-05 0.0 
1.794632914785e-05 5.598310106557e-03 0.0 
0.0 0.0 0.0 
-2.445715209874e-04 -3.653862762726e-04 0.0 
-3.653862762726e-04 5.830656191147e-04 0.0 
0.0 0.0 0.0 
-3.785475538070e-04 -5.948156895277e-05 0.0 
-5.948156895277e-05 5.678531857861e-03 0.0 
0.0 0.0 0.0 
-7.529611900736e-04 9.797207199337e-04 0.0 
9.797207199337e-04 2.745659037139e-03 0.0 
0.0 0.0 0.0 
-7.211308915015e-04 1.553954062075e-03 0.0 
1.553954062075e-03 2.376409098289e-03 0.0 
0.0 0.0 0.0 
-6.462321625250e-04 2.047237520362e-03 0.0 
2.047237520362e-03 1.516132180670e-03 0.0 
0.0 0.0 0.0 
-4.191346348239e-04 -2.005697455899e-04 0.0 
-2.005697455899e-04 2.821216666249e-03 0.0 
0.0 0.0 0.0 
-5.818359346788e-04 -1.685058688814e-03 0.0 
-1.685058688814e-03 3.751149718149e-04 0.0 
0.0 0.0 0.0 
-8.438135531348e-04 1.340694059292e-03 0.0 
1.340694059292e-03 2.257927666622e-03 0.0 
0.0 0.0 0.0 
3.393943021370e-04 4.285533544595e-04 0.0 
4.285533544595e-04 6.199886256732e-03 0.0 
0.0 0.0 0.0 
-4.248272780139e-04 9.246129095241e-05 0.0 
9.246129095241e-05 5.961218176095e-03 0.0 
0.0 0.0 0.0 
3.871814469442e-04 8.266637100014e-04 0.0 
8.266637100014e-04 5.658341987158e-03 0.0 
0.0 0.0 0.0 
-8.394133661388e-04 1.693658022641e-03 0.0 
1.693658022641e-03 1.586845062474e-03 0.0 
0.0 0.0 0.0 
-1.627540097575e-04 4.240677931253e-04 0.0 
4.240677931253e-04 8.494974759911e-03 0.0 
0.0 0.0 0.0 
2.078193940847e-04 8.198609982579e-04 0.0 
8.198609982579e-04 6.664001106813e-03 0.0 
0.0 0.0 0.0 
1.863281792010e-05 -2.631799190613e-04 0.0 
-2.631799190613e-04 7.062633211762e-03 0.0 
0.0 0.0 0.0 
3.118668420865e-04 8.096547104296e-04 0.0 
8.096547104296e-04 6.132176399096e-03 0.0 
0.0 0.0 0.0 
-3.105576688804e-04 2.645757893340e-03 0.0 
2.645757893340e-03 1.370106988908e-04 0.0 
0.0 0.0 0.0 
-4.747760508472e-04 2.310139728724e-04 0.0 
2.310139728724e-04 6.242958328422e-03 0.0 
0.0 0.0 0.0 
-2.142808414268e-05 9.432942411085e-04 0.0 
9.432942411085e-04 7.450752111431e-03 0.0 
0.0 0.0 0.0 
-2.462884043893e-04 5.878536213389e-05 0.0 
5.878536213389e-05 7.659821036441e-03 0.0 
0.0 0.0 0.0 
-1.598262172764e-05 -2.512145075439e-04 0.0 
-2.512145075439e-04 7.212094710445e-03 0.0 
0.0 0.0 0.0 
-4.583311495006e-04 1.392705565222e-04 0.0 
1.392705565222e-04 5.893272809301e-03 0.0 
0.0 0.0 0.0 
-1.117013224838e-04 1.156087863840e-04 0.0 
1.156087863840e-04 8.653254661513e-03 0.0 
0.0 0.0 0.0 
1.861738242904e-03 -1.711801495694e-03 0.0 
-1.711801495694e-03 -3.133876138569e-03 0.0 
0.0 0.0 0.0 
-1.061005171634e-04 6.137630266135e-05 0.0 
6.137630266135e-05 8.665199239590e-03 0.0 
0.0 0.0 0.0 
-2.184371697840e-04 8.035084499879e-04 0.0 
8.035084499879e-04 7.023194848935e-03 0.0 
0.0 0.0 0.0 
-3.435059522171e-04 5.404669814649e-05 0.0 
5.404669814649e-05 6.469924843669e-03 0.0 
0.0 0.0 0.0 
-5.004284878068e-04 3.166239558371e-04 0.0 
3.166239558371e-04 6.161685411889e-03 0.0 
0.0 0.0 0.0 
-1.263060637541e-04 -1.229524856596e-04 0.0 
-1.229524856596e-04 7.124444425554e-03 0.0 
0.0 0.0 0.0 
-1.639232114533e-04 7.268706070633e-04 0.0 
7.268706070633e-04 8.166497326383e-03 0.0 
0.0 0.0 0.0 
4.573578264967e-05 2.858551109279e-03 0.0 
2.858551109279e-03 -1.133766533207e-03 0.0 
0.0 0.0 0.0 
-2.771667660415e-04 5.793256760721e-05 0.0 
5.793256760721e-05 7.325793682856e-03 0.0 
0.0 0.0 0.0 
-4.588972573281e-04 -3.278937318858e-04 0.0 
-3.278937318858e-04 3.432289909993e-03 0.0 
0.0 0.0 0.0 
6.978080745029e-04 -1.603379952601e-03 0.0 
-1.603379952601e-03 -4.043197516112e-03 0.0 
0.0 0.0 0.0 
1.172510494334e-04 -2.110671306524e-04 0.0 
-2.110671306524e-04 6.519994733279e-03 0.0 
0.0 0.0 0.0 
-1.705072077286e-04 8.307011638655e-04 0.0 
8.307011638655e-04 7.366898324937e-03 0.0 
0.0 0.0 0.0 
-1.070364303346e-04 -1.860771425142e-04 0.0 
-1.860771425142e-04 7.031487201669e-03 0.0 
0.0 0.0 0.0 
1.615254914283e-04 -9.650713986746e-08 0.0 
-9.650713986746e-08 8.527661561302e-04 0.0 
0.0 0.0 0.0 
4.005592199023e-05 -1.160836007703e-04 0.0 
-1.160836007703e-04 4.856811754741e-04 0.0 
0.0 0.0 0.0 
1.909450727509e-04 -1.212687656058e-04 0.0 
-1.212687656058e-04 6.433617205532e-03 0.0 
0.0 0.0 0.0 
-8.832540581240e-05 9.051572492435e-04 0.0 
9.051572492435e-04 7.787456289284e-03 0.0 
0.0 0.0 0.0 
1.275926538078e-03 -2.149518641372e-03 0.0 
-2.149518641372e-03 -1.932866687420e-03 0.0 
0.0 0.0 0.0 
-6.700202404999e-05 3.739129922986e-04 0.0 
3.739129922986e-04 8.914884628607e-03 0.0 
0.0 0.0 0.0 
-4.209008526309e-05 2.741427738731e-03 0.0 
2.741427738731e-03 -2.275196226242e-03 0.0 
0.0 0.0 0.0 
-3.988034401175e-04 4.207061624836e-05 0.0 
4.207061624836e-05 5.552109336452e-03 0.0 
0.0 0.0 0.0 
2.150547091241e-04 -5.663613009549e-05 0.0 
-5.663613009549e-05 4.603921761637e-04 0.0 
0.0 0.0 0.0 
-3.354304261365e-05 -2.400696350110e-04 0.0 
-2.400696350110e-04 7.290976346679e-03 0.0 
0.0 0.0 0.0 
-1.332818881258e-04 2.818276114740e-04 0.0 
2.818276114740e-04 8.620142700386e-03 0.0 
0.0 0.0 0.0 
-4.827075371460e-04 -2.077194123051e-04 0.0 
-2.077194123051e-04 3.811053972837e-03 0.0 
0.0 0.0 0.0 
-5.217412280267e-04 2.392788104465e-04 0.0 
2.392788104465e-04 5.558627811458e-03 0.0 
0.0 0.0 0.0 
-3.655155111965e-04 -1.141957427796e-04 0.0 
-1.141957427796e-04 2.571975316897e-03 0.0 
0.0 0.0 0.0 
1.155334932938e-04 9.201058139824e-04 0.0 
9.201058139824e-04 6.742432036107e-03 0.0 
0.0 0.0 0.0 
-5.378666342020e-04 -7.726810059132e-04 0.0 
-7.726810059132e-04 8.591613777642e-04 0.0 
0.0 0.0 0.0 
-1.187138105396e-04 2.051908546691e-04 0.0 
2.051908546691e-04 8.682482097868e-03 0.0 
0.0 0.0 0.0 
2.542029423320e-04 2.829027099590e-05 0.0 
2.829027099590e-05 6.339200324239e-03 0.0 
0.0 0.0 0.0 
-1.572647957136e-04 5.703483858770e-04 0.0 
5.703483858770e-04 8.451749226045e-03 0.0 
0.0 0.0 0.0 
1.270176197631e-04 6.415688655484e-04 0.0 
6.415688655484e-04 6.943518791502e-03 0.0 
0.0 0.0 0.0 
6.158392660252e-04 8.845824372902e-04 0.0 
8.845824372902e-04 -4.559369015061e-03 0.0 
0.0 0.0 0.0 
1.414626093622e-04 8.766475390808e-04 0.0 
8.766475390808e-04 6.921744924786e-03 0.0 
0.0 0.0 0.0 
4.343648519448e-04 1.672545204753e-04 0.0 
1.672545204753e-04 5.798238883265e-03 0.0 
0.0 0.0 0.0 
-3.616436963360e-04 2.327869267448e-05 0.0 
2.327869267448e-05 5.594703256778e-03 0.0 
0.0 0.0 0.0 
-1.631105125487e-04 6.604262121670e-04 0.0 
6.604262121670e-04 8.291743434660e-03 0.0 
0.0 0.0 0.0 
-4.526480114083e-04 -2.027433830032e-04 0.0 
-2.027433830032e-04 3.137505703575e-03 0.0 
0.0 0.0 0.0 
-9.315493554864e-05 -1.629777466792e-04 0.0 
-1.629777466792e-04 1.282648850178e-03 0.0 
0.0 0.0 0.0 
-4.454731739356e-05 2.151808999656e-05 0.0 
2.151808999656e-05 9.007258618353e-03 0.0 
0.0 0.0 0.0 
5.667710132146e-04 1.125423009292e-05 0.0 
1.125423009292e-05 -4.891275199441e-05 0.0 
0.0 0.0 0.0 
-3.437008547579e-04 -1.221326569175e-06 0.0 
-1.221326569175e-06 5.568770733865e-03 0.0 
0.0 0.0 0.0 
-6.997490200589e-05 -3.227383796272e-05 0.0 
-3.227383796272e-05 7.480279699052e-03 0.0 
0.0 0.0 0.0 
8.882634676599e-06 -7.714819063629e-05 0.0 
-7.714819063629e-05 1.185839069132e-03 0.0 
0.0 0.0 0.0 
-3.338806816124e-04 1.123915365714e-05 0.0 
1.123915365714e-05 6.252570339950e-03 0.0 
0.0 0.0 0.0 
-1.061424408732e-04 8.721982816546e-04 0.0 
8.721982816546e-04 7.920830089353e-03 0.0 
0.0 0.0 0.0 
-4.767961401289e-04 -5.340096425820e-05 0.0 
-5.340096425820e-05 4.638937092213e-03 0.0 
0.0 0.0 0.0 
-1.951152168341e-04 3.388573751349e-05 0.0 
3.388573751349e-05 8.054712172356e-03 0.0 
0.0 0.0 0.0 
-2.555840254838e-04 -2.130359625156e-03 0.0 
-2.130359625156e-03 -9.802395885885e-05 0.0 
0.0 0.0 0.0 
-1.040101268236e-03 -6.090381393634e-04 0.0 
-6.090381393634e-04 -4.196805406870e-03 0.0 
0.0 0.0 0.0 
-2.996488796824e-04 1.918065832911e-05 0.0 
1.918065832911e-05 6.978984781341e-03 0.0 
0.0 0.0 0.0 
2.242831838710e-04 7.663543001436e-04 0.0 
7.663543001436e-04 6.627787030691e-03 0.0 
0.0 0.0 0.0 
-1.474927485232e-04 4.728795008469e-04 0.0 
4.728795008469e-04 8.559906621427e-03 0.0 
0.0 0.0 0.0 
-3.288821257720e-04 5.443597731377e-05 0.0 
5.443597731377e-05 6.695198849881e-03 0.0 
0.0 0.0 0.0 
8.983257806962e-04 2.712835996141e-03 0.0 
2.712835996141e-03 -2.050498533085e-03 0.0 
0.0 0.0 0.0 
-1.317344948762e-04 8.645279260580e-04 0.0 
8.645279260580e-04 7.644866544684e-03 0.0 
0.0 0.0 0.0 
-4.723680667099e-04 -2.151253847590e-04 0.0 
-2.151253847590e-04 4.079196976163e-03 0.0 
0.0 0.0 0.0 
-4.625683003479e-06 9.293278675424e-04 0.0 
9.293278675424e-04 7.112808150210e-03 0.0 
0.0 0.0 0.0 
4.447923310992e-04 3.553521700752e-04 0.0 
3.553521700752e-04 5.834621862437e-03 0.0 
0.0 0.0 0.0 
-9.876757137901e-04 2.702968035486e-03 0.0 
2.702968035486e-03 -1.662173287535e-03 0.0 
0.0 0.0 0.0 
-4.557273967462e-04 -4.244106518010e-05 0.0 
-4.244106518010e-05 4.957446435286e-03 0.0 
0.0 0.0 0.0 
1.969144980790e-04 -7.004636711936e-05 0.0 
-7.004636711936e-05 4.253926174889e-04 0.0 
0.0 0.0 0.0 
1.222637274652e-05 -2.645831718180e-04 0.0 
-2.645831718180e-04 6.829266708292e-03 0.0 
0.0 0.0 0.0 
-4.817391007039e-04 -1.494072335765e-04 0.0 
-1.494072335765e-04 4.262299171652e-03 0.0 
0.0 0.0 0.0 
-5.873140061915e-04 6.645690334636e-04 0.0 
6.645690334636e-04 1.606833223974e-03 0.0 
0.0 0.0 0.0 
-2.157500138232e-04 5.161167883061e-06 0.0 
5.161167883061e-06 1.548401381341e-03 0.0 
0.0 0.0 0.0 
-6.674522662369e-04 7.739835810283e-04 0.0 
7.739835810283e-04 1.923587949015e-03 0.0 
0.0 0.0 0.0 
-2.126174313277e-04 2.195698662591e-06 0.0 
2.195698662591e-06 1.997575905816e-03 0.0 
0.0 0.0 0.0 
-7.300363236049e-04 7.101296011199e-04 0.0 
7.101296011199e-04 2.393164444705e-03 0.0 
0.0 0.0 0.0 
-2.186834242962e-04 -5.533378048652e-06 0.0 
-5.533378048652e-06 2.402693654543e-03 0.0 
0.0 0.0 0.0 
-6.554641425133e-04 5.680133929275e-04 0.0 
5.680133929275e-04 2.785760805434e-03 0.0 
0.0 0.0 0.0 
-2.394499337550e-04 -6.059621612503e-06 0.0 
-6.059621612503e-06 2.870534339884e-03 0.0 
0.0 0.0 0.0 
-6.058394687411e-04 4.554611580826e-04 0.0 
4.554611580826e-04 3.184600054361e-03 0.0 
0.0 0.0 0.0 
-2.635861869296e-04 -5.895262619948e-06 0.0 
-5.895262619948e-06 3.286060363319e-03 0.0 
0.0 0.0 0.0 
-5.810108490099e-04 3.554168849835e-04 0.0 
3.554168849835e-04 3.613785819243e-03 0.0 
0.0 0.0 0.0 
-2.867371540587e-04 -5.537493301141e-06 0.0 
-5.537493301141e-06 3.754822952979e-03 0.0 
0.0 0.0 0.0 
-5.645567265373e-04 2.831790073602e-04 0.0 
2.831790073602e-04 4.052192853524e-03 0.0 
0.0 0.0 0.0 
-3.082924258364e-04 -4.189845586880e-06 0.0 
-4.189845586880e-06 4.168462436579e-03 0.0 
0.0 0.0 0.0 
-5.527625354878e-04 2.284599383326e-04 0.0 
2.284599383326e-04 4.498730193159e-03 0.0 
0.0 0.0 0.0 
-3.245763500573e-04 -1.491279861149e-06 0.0 
-1.491279861149e-06 4.631087440019e-03 0.0 
0.0 0.0 0.0 
-5.367089660910e-04 1.963056540787e-04 0.0 
1.963056540787e-04 4.942240249077e-03 0.0 
0.0 0.0 0.0 
-3.400290780414e-04 5.169953215857e-06 0.0 
5.169953215857e-06 5.038657813137e-03 0.0 
0.0 0.0 0.0 

TENSORS node_materi_strain_plasti float
5.167194390135e-04 2.792726192703e-05 0.0 
2.792726192703e-05 -5.091425601016e-05 0.0 
0.0 0.0 -1.110302485635e-04 
-8.159302679306e-04 -1.118602645032e-04 0.0 
-1.118602645032e-04 4.584923598267e-03 0.0 
0.0 0.0 -6.959116756397e-04 
-1.346400199288e-03 7.365993999463e-05 0.0 
7.365993999463e-05 8.674335535019e-03 0.0 
0.0 0.0 -1.332621093165e-03 
-1.336402199564e-03 -8.793125074240e-05 0.0 
-8.793125074240e-05 8.913629531779e-03 0.0 
0.0 0.0 -1.332621093165e-03 
1.928535311059e-04 4.445651110295e-05 0.0 
4.445651110295e-05 2.423589004168e-04 0.0 
0.0 0.0 -1.369191294062e-04 
-9.495668909469e-05 1.176622379905e-04 0.0 
1.176622379905e-04 8.146285890130e-04 0.0 
0.0 0.0 -1.619080202416e-04 
-2.343145573296e-04 8.942200005953e-05 0.0 
8.942200005953e-05 1.222252270070e-03 0.0 
0.0 0.0 -2.266090766362e-04 
-3.672954214302e-04 7.638439199011e-05 0.0 
7.638439199011e-05 1.767422352355e-03 0.0 
0.0 0.0 -2.937643997455e-04 
-5.002542736311e-04 4.683642936848e-05 0.0 
4.683642936848e-05 2.251732040701e-03 0.0 
0.0 0.0 -3.610469555860e-04 
-5.984940266315e-04 4.060795555227e-05 0.0 
4.060795555227e-05 2.708456263927e-03 0.0 
0.0 0.0 -4.277228197774e-04 
-6.941224007828e-04 4.519221696703e-05 0.0 
4.519221696703e-05 3.166683324582e-03 0.0 
0.0 0.0 -4.940119848999e-04 
-7.849981096783e-04 3.520077417946e-05 0.0 
3.520077417946e-05 3.622095280725e-03 0.0 
0.0 0.0 -5.601824523721e-04 
-8.634318271181e-04 3.405437137357e-05 0.0 
3.405437137357e-05 4.067071864957e-03 0.0 
0.0 0.0 -6.267196139102e-04 
-9.449136089268e-04 5.218773157199e-05 0.0 
5.218773157199e-05 4.520788341368e-03 0.0 
0.0 0.0 -6.936951881209e-04 
-1.027632022584e-03 9.700470508409e-05 0.0 
9.700470508409e-05 5.010143413423e-03 0.0 
0.0 0.0 -7.607197531558e-04 
-1.071044468659e-03 1.108294767969e-04 0.0 
1.108294767969e-04 5.450697122990e-03 0.0 
0.0 0.0 -8.270758575053e-04 
-1.105211944346e-03 1.479813750871e-04 0.0 
1.479813750871e-04 5.811869455564e-03 0.0 
0.0 0.0 -8.903361771248e-04 
-1.161317049125e-03 4.285670301683e-05 0.0 
4.285670301683e-05 6.275431738875e-03 0.0 
0.0 0.0 -9.558084330571e-04 
-1.207984253662e-03 4.172859767407e-05 0.0 
4.172859767407e-05 6.727772586467e-03 0.0 
0.0 0.0 -1.024523475697e-03 
-1.248615658251e-03 4.538254462405e-05 0.0 
4.538254462405e-05 7.165565903975e-03 0.0 
0.0 0.0 -1.091244731156e-03 
-1.288520992697e-03 4.179778286610e-05 0.0 
4.179778286610e-05 7.610376257827e-03 0.0 
0.0 0.0 -1.158330123333e-03 
-1.323945144233e-03 5.638174444750e-05 0.0 
5.638174444750e-05 8.056170868355e-03 0.0 
0.0 0.0 -1.226073836101e-03 
-1.340882067222e-03 7.816548302147e-05 0.0 
7.816548302147e-05 8.489692749980e-03 0.0 
0.0 0.0 -1.289832767750e-03 
-1.333912568024e-03 1.756046241659e-05 0.0 
1.756046241659e-05 8.926507635803e-03 0.0 
0.0 0.0 -1.336902025401e-03 
-1.341531841891e-03 4.063150434003e-05 0.0 
4.063150434003e-05 8.912362216672e-03 0.0 
0.0 0.0 -1.332945767435e-03 
-1.342187123766e-03 7.210449397358e-07 0.0 
7.210449397358e-07 8.901177082135e-03 0.0 
0.0 0.0 -1.334903170087e-03 
-1.344938961940e-03 1.164426212685e-04 0.0 
1.164426212685e-04 8.903433830404e-03 0.0 
0.0 0.0 -1.334459899807e-03 
-1.344212628933e-03 9.914567390186e-05 0.0 
9.914567390186e-05 8.888325984844e-03 0.0 
0.0 0.0 -1.332067731643e-03 
-1.341871993109e-03 1.326692721992e-04 0.0 
1.326692721992e-04 8.883986467254e-03 0.0 
0.0 0.0 -1.335050935171e-03 
-1.332922157688e-03 1.596974021170e-04 0.0 
1.596974021170e-04 8.887152863323e-03 0.0 
0.0 0.0 -1.335055123498e-03 
-1.344556942280e-03 1.739185913509e-04 0.0 
1.739185913509e-04 8.882073809328e-03 0.0 
0.0 0.0 -1.333530254363e-03 
-1.342253888820e-03 1.667068933720e-04 0.0 
1.667068933720e-04 8.882815983630e-03 0.0 
0.0 0.0 -1.336259905589e-03 
-1.344452318304e-03 2.643241252995e-04 0.0 
2.643241252995e-04 8.877541720491e-03 0.0 
0.0 0.0 -1.335712483792e-03 
-1.344739962132e-03 2.572691983564e-04 0.0 
2.572691983564e-04 8.855364652133e-03 0.0 
0.0 0.0 -1.333313947604e-03 
-1.345949101879e-03 2.896022605016e-04 0.0 
2.896022605016e-04 8.845196808155e-03 0.0 
0.0 0.0 -1.335862559377e-03 
-1.335909137164e-03 3.249556087329e-04 0.0 
3.249556087329e-04 8.847942912603e-03 0.0 
0.0 0.0 -1.336097458551e-03 
-1.346297016590e-03 3.518589132456e-04 0.0 
3.518589132456e-04 8.821759431274e-03 0.0 
0.0 0.0 -1.335235043394e-03 
-1.338076461259e-03 3.735365560477e-04 0.0 
3.735365560477e-04 8.793020733369e-03 0.0 
0.0 0.0 -1.334297546486e-03 
-1.346016481544e-03 4.214840137430e-04 0.0 
4.214840137430e-04 8.754866417549e-03 0.0 
0.0 0.0 -1.332308435384e-03 
-1.347150914510e-03 4.365635291823e-04 0.0 
4.365635291823e-04 8.724212055446e-03 0.0 
0.0 0.0 -1.332019584455e-03 
-1.334805935481e-03 4.680081517091e-04 0.0 
4.680081517091e-04 8.718730927757e-03 0.0 
0.0 0.0 -1.333392124151e-03 
-1.340647727227e-03 4.849743108024e-04 0.0 
4.849743108024e-04 8.700750373122e-03 0.0 
0.0 0.0 -1.334727449481e-03 
-1.341060759155e-03 5.031254601797e-04 0.0 
5.031254601797e-04 8.669240053120e-03 0.0 
0.0 0.0 -1.336576889699e-03 
-1.339241076831e-03 5.376075265351e-04 0.0 
5.376075265351e-04 8.637791543921e-03 0.0 
0.0 0.0 -1.335888391555e-03 
-1.332755026613e-03 5.259793014087e-04 0.0 
5.259793014087e-04 8.604247702023e-03 0.0 
0.0 0.0 -1.334783226448e-03 
-1.333664649469e-03 5.288889005307e-04 0.0 
5.288889005307e-04 8.561550836847e-03 0.0 
0.0 0.0 -1.335053869153e-03 
-1.331458992258e-03 5.134063938371e-04 0.0 
5.134063938371e-04 8.519772984337e-03 0.0 
0.0 0.0 -1.334960189349e-03 
-1.329775199773e-03 4.941096024064e-04 0.0 
4.941096024064e-04 8.496416219376e-03 0.0 
0.0 0.0 -1.334889991128e-03 
-1.320977987653e-03 4.615461390730e-04 0.0 
4.615461390730e-04 8.462524191980e-03 0.0 
0.0 0.0 -1.335774086633e-03 
-1.330023044346e-03 4.207866190154e-04 0.0 
4.207866190154e-04 8.427010713301e-03 0.0 
0.0 0.0 -1.336605656894e-03 
-1.315269658186e-03 3.720833040210e-04 0.0 
3.720833040210e-04 8.401189310414e-03 0.0 
0.0 0.0 -1.336508443943e-03 
-1.322412415585e-03 3.115810119469e-04 0.0 
3.115810119469e-04 8.379908734224e-03 0.0 
0.0 0.0 -1.335343284290e-03 
-1.320222320207e-03 2.175575066663e-04 0.0 
2.175575066663e-04 8.369874127435e-03 0.0 
0.0 0.0 -1.337998490269e-03 
-1.323625080933e-03 2.169102620600e-04 0.0 
2.169102620600e-04 8.349200848827e-03 0.0 
0.0 0.0 -1.337247094005e-03 
-1.312935671626e-03 1.217875082846e-04 0.0 
1.217875082846e-04 8.314561017664e-03 0.0 
0.0 0.0 -1.333783489999e-03 
-1.312397425891e-03 3.014725865093e-05 0.0 
3.014725865093e-05 8.298029012834e-03 0.0 
0.0 0.0 -1.334548731617e-03 
-1.314310776006e-03 -5.112989789944e-05 0.0 
-5.112989789944e-05 8.327635469408e-03 0.0 
0.0 0.0 -1.334619746794e-03 
-1.313246555764e-03 -1.133769864441e-04 0.0 
-1.133769864441e-04 8.338916253329e-03 0.0 
0.0 0.0 -1.335242115105e-03 
-1.326565106495e-03 -1.841934828275e-04 0.0 
-1.841934828275e-04 8.356624519228e-03 0.0 
0.0 0.0 -1.335691437541e-03 
-1.316402114403e-03 -2.262767311367e-04 0.0 
-2.262767311367e-04 8.389795272091e-03 0.0 
0.0 0.0 -1.335646478247e-03 
-1.330105212687e-03 -2.663920673302e-04 0.0 
-2.663920673302e-04 8.407666559300e-03 0.0 
0.0 0.0 -1.334931242407e-03 
-1.321109516020e-03 -3.015612028738e-04 0.0 
-3.015612028738e-04 8.428571737695e-03 0.0 
0.0 0.0 -1.334100791702e-03 
-1.335356464641e-03 -3.106038152236e-04 0.0 
-3.106038152236e-04 8.460193799364e-03 0.0 
0.0 0.0 -1.332237298415e-03 
-1.339781698762e-03 -3.337514916052e-04 0.0 
-3.337514916052e-04 8.495913159923e-03 0.0 
0.0 0.0 -1.333749945600e-03 
-1.335675790289e-03 -3.025403687924e-04 0.0 
-3.025403687924e-04 8.551515458499e-03 0.0 
0.0 0.0 -1.336652505695e-03 
-1.332391445612e-03 -3.083574403233e-04 0.0 
-3.083574403233e-04 8.592419009515e-03 0.0 
0.0 0.0 -1.337094627689e-03 
-1.345644529791e-03 -2.793636126787e-04 0.0 
-2.793636126787e-04 8.558237333725e-03 0.0 
0.0 0.0 -1.328990728106e-03 
-1.337312800610e-03 -2.305068913709e-04 0.0 
-2.305068913709e-04 8.630917037025e-03 0.0 
0.0 0.0 -1.335900064369e-03 
-1.350772327614e-03 -1.956698568975e-04 0.0 
-1.956698568975e-04 8.640358950647e-03 0.0 
0.0 0.0 -1.332523500780e-03 
-1.350423109387e-03 -1.955618747409e-04 0.0 
-1.955618747409e-04 8.650889793805e-03 0.0 
0.0 0.0 -1.335219049675e-03 
-1.349098610006e-03 -8.965167155351e-05 0.0 
-8.965167155351e-05 8.690821291703e-03 0.0 
0.0 0.0 -1.336566422126e-03 
-1.352485386629e-03 -6.128652914560e-05 0.0 
-6.128652914560e-05 8.701715469751e-03 0.0 
0.0 0.0 -1.335855682064e-03 
-8.621699259071e-04 -7.748599951090e-05 0.0 
-7.748599951090e-05 5.021330477437e-03 0.0 
0.0 0.0 -7.648954205800e-04 
-9.395078499560e-04 -8.704020005170e-05 0.0 
-8.704020005170e-05 5.517844915676e-03 0.0 
0.0 0.0 -8.298981322982e-04 
-9.977708429922e-04 -8.397016683561e-05 0.0 
-8.397016683561e-05 5.976838802593e-03 0.0 
0.0 0.0 -8.959277352460e-04 
-1.055682188809e-03 -8.887694878813e-05 0.0 
-8.887694878813e-05 6.419904102828e-03 0.0 
0.0 0.0 -9.610467530554e-04 
-1.113418161777e-03 -7.710435791321e-05 0.0 
-7.710435791321e-05 6.878985961880e-03 0.0 
0.0 0.0 -1.026987810050e-03 
-1.153337564853e-03 -8.395183782127e-05 0.0 
-8.395183782127e-05 7.337021217867e-03 0.0 
0.0 0.0 -1.092790196867e-03 
-1.209003093049e-03 -7.363209801243e-05 0.0 
-7.363209801243e-05 7.788251864833e-03 0.0 
0.0 0.0 -1.158290425478e-03 
-1.258139886954e-03 -8.431152228072e-05 0.0 
-8.431152228072e-05 8.217133852926e-03 0.0 
0.0 0.0 -1.224481705251e-03 
-1.303096836171e-03 -9.331509578295e-05 0.0 
-9.331509578295e-05 8.703843568816e-03 0.0 
0.0 0.0 -1.288782062784e-03 
0.0 0.0 0.0 
0.0 0.0 0.0 
0.0 0.0 0.0 
-8.469977810266e-04 1.418859108081e-04 0.0 
1.418859108081e-04 4.555195363259e-03 0.0 
0.0 0.0 -6.945495707198e-04 
1.040677098394e-05 4.101723519449e-04 0.0 
4.101723519449e-04 2.470733840629e-04 0.0 
0.0 0.0 -1.103486378772e-04 
-1.365321602539e-04 5.817568730635e-04 0.0 
5.817568730635e-04 6.768329550849e-04 0.0 
0.0 0.0 -2.298430088943e-04 
-3.613436439526e-04 6.725053827967e-04 0.0 
6.725053827967e-04 1.210751235982e-03 0.0 
0.0 0.0 -2.716715199271e-04 
-5.153511105879e-04 5.777125361718e-04 0.0 
5.777125361718e-04 1.686960123191e-03 0.0 
0.0 0.0 -2.907975307606e-04 
-5.454556268170e-04 4.563700114584e-04 0.0 
4.563700114584e-04 2.147392311147e-03 0.0 
0.0 0.0 -3.576084760620e-04 
-5.822307317594e-04 3.444855140525e-04 0.0 
3.444855140525e-04 2.615046111209e-03 0.0 
0.0 0.0 -4.246591878591e-04 
-6.421093914524e-04 2.736159583380e-04 0.0 
2.736159583380e-04 3.087949941038e-03 0.0 
0.0 0.0 -4.913636896408e-04 
-7.032270316906e-04 2.154746295006e-04 0.0 
2.154746295006e-04 3.563154777891e-03 0.0 
0.0 0.0 -5.580753662734e-04 
-7.652026803153e-04 1.716333934732e-04 0.0 
1.716333934732e-04 4.039411117358e-03 0.0 
0.0 0.0 -6.248674136757e-04 
-1.625081215678e-04 -1.569068115628e-04 0.0 
-1.569068115628e-04 5.745334918547e-04 0.0 
0.0 0.0 -1.170950547608e-04 
-1.972787518781e-04 -1.983327187411e-04 0.0 
-1.983327187411e-04 8.313596038478e-04 0.0 
0.0 0.0 -1.607697496026e-04 
-2.754592792606e-04 -1.624099240136e-04 0.0 
-1.624099240136e-04 1.298347593357e-03 0.0 
0.0 0.0 -2.266666666667e-04 
-3.512760209361e-04 -2.050400066107e-04 0.0 
-2.050400066107e-04 1.766265466180e-03 0.0 
0.0 0.0 -2.933333333333e-04 
-4.262272127133e-04 -1.668508034120e-04 0.0 
-1.668508034120e-04 2.234841239519e-03 0.0 
0.0 0.0 -3.600000000000e-04 
-5.018968035888e-04 -2.069604868527e-04 0.0 
-2.069604868527e-04 2.704133863242e-03 0.0 
0.0 0.0 -4.266666666667e-04 
-5.764922648323e-04 -1.677065961204e-04 0.0 
-1.677065961204e-04 3.172932373080e-03 0.0 
0.0 0.0 -4.933333333333e-04 
-6.493615146667e-04 -2.013836333214e-04 0.0 
-2.013836333214e-04 3.639082748701e-03 0.0 
0.0 0.0 -5.600000000000e-04 
-7.172820797178e-04 -1.419199921507e-04 0.0 
-1.419199921507e-04 4.094821602212e-03 0.0 
0.0 0.0 -6.266666666667e-04 
-7.873736608755e-04 5.502842443645e-05 0.0 
5.502842443645e-05 4.508278690252e-03 0.0 
0.0 0.0 -6.874962403976e-04 
-7.839311141629e-04 4.828509311105e-06 0.0 
4.828509311105e-06 4.540282316640e-03 0.0 
0.0 0.0 -6.910932206029e-04 
-7.921436345257e-04 5.707785244044e-06 0.0 
5.707785244044e-06 4.544942356556e-03 0.0 
0.0 0.0 -6.911911970487e-04 
-7.917187874242e-04 -4.341315515235e-06 0.0 
-4.341315515235e-06 4.539101219755e-03 0.0 
0.0 0.0 -6.903356507966e-04 
-7.944928086677e-04 1.125171909579e-05 0.0 
1.125171909579e-05 4.615388457654e-03 0.0 
0.0 0.0 -6.980756478071e-04 
-7.958365436316e-04 1.383445406237e-05 0.0 
1.383445406237e-05 4.547714033445e-03 0.0 
0.0 0.0 -6.911448554634e-04 
-7.903078046097e-04 6.769783050965e-06 0.0 
6.769783050965e-06 4.539714906749e-03 0.0 
0.0 0.0 -6.903833977050e-04 
-7.973486280958e-04 3.073462339535e-05 0.0 
3.073462339535e-05 4.549605953727e-03 0.0 
0.0 0.0 -6.905588330458e-04 
-8.138323735647e-04 2.995103124151e-05 0.0 
2.995103124151e-05 4.557442627231e-03 0.0 
0.0 0.0 -6.922444453805e-04 
-8.207112189752e-04 5.065642805556e-05 0.0 
5.065642805556e-05 4.556711038870e-03 0.0 
0.0 0.0 -6.916098530255e-04 
-8.174854078797e-04 5.882201982790e-05 0.0 
5.882201982790e-05 4.549634587438e-03 0.0 
0.0 0.0 -6.911665914957e-04 
-8.257607627906e-04 7.207096375596e-05 0.0 
7.207096375596e-05 4.539061374169e-03 0.0 
0.0 0.0 -6.911615840689e-04 
-8.256917502379e-04 1.052177725209e-04 0.0 
1.052177725209e-04 4.528909050130e-03 0.0 
0.0 0.0 -6.914992001314e-04 
-8.331385651634e-04 1.367043632585e-04 0.0 
1.367043632585e-04 4.532178590594e-03 0.0 
0.0 0.0 -6.922481495424e-04 
0.0 0.0 0.0 
0.0 0.0 0.0 
0.0 0.0 0.0 
0.0 0.0 0.0 
0.0 0.0 0.0 
0.0 0.0 0.0 
0.0 0.0 0.0 
0.0 0.0 0.0 
0.0 0.0 0.0 
0.0 0.0 0.0 
0.0 0.0 0.0 
0.0 0.0 0.0 
4.834769447442e-06 -2.872264321309e-05 0.0 
-2.872264321309e-05 1.098176460521e-05 0.0 
0.0 0.0 -6.778514593994e-06 
2.621325204595e-05 -1.413766582246e-04 0.0 
-1.413766582246e-04 5.747299694100e-05 0.0 
0.0 0.0 -3.574982278410e-05 
9.658306216209e-05 -1.514259984182e-04 0.0 
-1.514259984182e-04 8.442241842910e-05 0.0 
0.0 0.0 -4.425618980996e-05 
3.269147103475e-04 -5.021185392625e-05 0.0 
-5.021185392625e-05 3.514559889707e-05 0.0 
0.0 0.0 -8.078147856958e-05 
4.744476216527e-04 -2.955001894905e-05 0.0 
-2.955001894905e-05 6.422490925946e-06 0.0 
0.0 0.0 -1.179719326098e-04 
4.179559190719e-04 -4.545879091992e-05 0.0 
-4.545879091992e-05 1.677504639263e-05 0.0 
0.0 0.0 -8.559165356152e-05 
4.071360169644e-04 -5.676430788113e-05 0.0 
-5.676430788113e-05 2.001137970326e-05 0.0 
0.0 0.0 -6.874308561246e-05 
4.446412730432e-04 -3.115479505997e-05 0.0 
-3.115479505997e-05 1.541228328890e-05 0.0 
0.0 0.0 -8.846752904866e-05 
4.870475968622e-04 1.166873053583e-05 0.0 
1.166873053583e-05 -1.464623307350e-05 0.0 
0.0 0.0 -9.035052009108e-05 
5.260775556971e-04 2.845864580513e-06 0.0 
2.845864580513e-06 -4.734498310635e-05 0.0 
0.0 0.0 -8.407298760335e-05 
4.865685389177e-04 2.210043518698e-06 0.0 
2.210043518698e-06 -3.334183635663e-05 0.0 
0.0 0.0 -8.504329730078e-05 
4.576294102847e-04 1.370682311972e-05 0.0 
1.370682311972e-05 -9.748142346333e-06 0.0 
0.0 0.0 -9.010048746351e-05 
4.426858646735e-04 1.222387518921e-05 0.0 
1.222387518921e-05 -8.681697480963e-07 0.0 
0.0 0.0 -9.063198443064e-05 
4.647766352677e-04 3.225958783335e-05 0.0 
3.225958783335e-05 -3.503045802417e-05 0.0 
0.0 0.0 -8.892160723951e-05 
5.112449432108e-04 4.197682001980e-05 0.0 
4.197682001980e-05 -6.289759249197e-05 0.0 
0.0 0.0 -8.718318697143e-05 
-1.238229295517e-04 1.134883863013e-04 0.0 
1.134883863013e-04 5.257591869302e-04 0.0 
0.0 0.0 -1.155555555556e-04 
-1.337536799432e-04 -1.098268186850e-05 0.0 
-1.098268186850e-05 5.781560437483e-04 0.0 
0.0 0.0 -1.155885891410e-04 
-1.345973157140e-04 -2.075321243129e-05 0.0 
-2.075321243129e-05 6.237156010591e-04 0.0 
0.0 0.0 -1.170370659348e-04 
-1.339848463633e-04 -2.413550542185e-05 0.0 
-2.413550542185e-05 6.281618753474e-04 0.0 
0.0 0.0 -1.172858136042e-04 
-1.321200252920e-04 -2.621958833750e-05 0.0 
-2.621958833750e-05 6.288015686633e-04 0.0 
0.0 0.0 -1.173624569551e-04 
-1.293614928169e-04 -2.825051569034e-05 0.0 
-2.825051569034e-05 6.284426345918e-04 0.0 
0.0 0.0 -1.173838163153e-04 
-1.260108857891e-04 -3.060815172212e-05 0.0 
-3.060815172212e-05 6.275053070954e-04 0.0 
0.0 0.0 -1.173784803791e-04 
-1.222083074488e-04 -3.321205044480e-05 0.0 
-3.321205044480e-05 6.261653045532e-04 0.0 
0.0 0.0 -1.173587191043e-04 
-1.180300261047e-04 -3.584187645138e-05 0.0 
-3.584187645138e-05 6.245230145477e-04 0.0 
0.0 0.0 -1.173303084880e-04 
-1.135398345846e-04 -3.825370256284e-05 0.0 
-3.825370256284e-05 6.226456106483e-04 0.0 
0.0 0.0 -1.172960215939e-04 
-1.088114645572e-04 -4.021672602686e-05 0.0 
-4.021672602686e-05 6.205904878061e-04 0.0 
0.0 0.0 -1.172573512541e-04 
-1.039380272531e-04 -4.153357939368e-05 0.0 
-4.153357939368e-05 6.184219045740e-04 0.0 
0.0 0.0 -1.172155495699e-04 
-9.903101872270e-05 -4.206309095241e-05 0.0 
-4.206309095241e-05 6.162104696039e-04 0.0 
0.0 0.0 -1.171708093554e-04 
-9.421905914085e-05 -4.169755819206e-05 0.0 
-4.169755819206e-05 6.140263279473e-04 0.0 
0.0 0.0 -1.171230198398e-04 
-8.964958853938e-05 -4.030607503741e-05 0.0 
-4.030607503741e-05 6.119258683920e-04 0.0 
0.0 0.0 -1.170700811232e-04 
-8.551411866959e-05 -3.764882008991e-05 0.0 
-3.764882008991e-05 6.099834577720e-04 0.0 
0.0 0.0 -1.170136968750e-04 
-8.174414247384e-05 -3.347855797901e-05 0.0 
-3.347855797901e-05 6.081229331840e-04 0.0 
0.0 0.0 -1.169313116116e-04 
-7.841279696872e-05 -2.769768884583e-05 0.0 
-2.769768884583e-05 6.064320520612e-04 0.0 
0.0 0.0 -1.168325382462e-04 
-7.607977501723e-05 -2.029727023997e-05 0.0 
-2.029727023997e-05 6.049270394702e-04 0.0 
0.0 0.0 -1.166950092744e-04 
-7.275525063864e-05 -1.045137175194e-05 0.0 
-1.045137175194e-05 6.035124188696e-04 0.0 
0.0 0.0 -1.174348519306e-04 
-5.646059554282e-05 3.087604205195e-06 0.0 
3.087604205195e-06 5.980167221209e-04 0.0 
0.0 0.0 -1.226349890604e-04 
-6.826461319806e-06 2.598837136878e-05 0.0 
2.598837136878e-05 5.838376960225e-04 0.0 
0.0 0.0 -1.392307778690e-04 
4.837393610200e-05 5.600778194042e-05 0.0 
5.600778194042e-05 5.650425626573e-04 0.0 
0.0 0.0 -1.581159023183e-04 
1.296135888773e-04 1.045038651763e-04 0.0 
1.045038651763e-04 5.427400002212e-04 0.0 
0.0 0.0 -1.878290371179e-04 
1.092394521850e-04 1.651390510912e-04 0.0 
1.651390510912e-04 5.382568878560e-04 0.0 
0.0 0.0 -1.876709423322e-04 
-8.508680852346e-05 2.935572320942e-04 0.0 
2.935572320942e-04 5.962058697079e-04 0.0 
0.0 0.0 -1.442265901832e-04 
-1.466015835199e-04 3.674411804494e-04 0.0 
3.674411804494e-04 5.580604526356e-04 0.0 
0.0 0.0 -1.507399492489e-04 
-6.278385508190e-05 3.739655142910e-04 0.0 
3.739655142910e-04 3.784109027644e-04 0.0 
0.0 0.0 -1.352687347211e-04 
-1.944360422608e-04 4.328611126594e-04 0.0 
4.328611126594e-04 7.056784180921e-04 0.0 
0.0 0.0 -1.825967858330e-04 
-2.041077625830e-04 3.416323645169e-04 0.0 
3.416323645169e-04 8.109136717042e-04 0.0 
0.0 0.0 -1.861420893405e-04 
-1.354689450234e-04 2.184367549945e-04 0.0 
2.184367549945e-04 7.767456765957e-04 0.0 
0.0 0.0 -1.816781350696e-04 
-1.507773856070e-04 1.248164992059e-04 0.0 
1.248164992059e-04 7.836993462733e-04 0.0 
0.0 0.0 -1.713370636554e-04 
-1.519374260643e-04 7.514570966592e-05 0.0 
7.514570966592e-05 7.911633099077e-04 0.0 
0.0 0.0 -1.641949228557e-04 
-1.621796199792e-04 3.446576104308e-05 0.0 
3.446576104308e-05 7.943559706424e-04 0.0 
0.0 0.0 -1.570779481611e-04 
-1.620617786399e-04 9.278709709489e-06 0.0 
9.278709709489e-06 7.959313052845e-04 0.0 
0.0 0.0 -1.539712892373e-04 
-1.572036549231e-04 -1.035877944669e-05 0.0 
-1.035877944669e-05 7.948184541228e-04 0.0 
0.0 0.0 -1.536817580736e-04 
-1.534427159043e-04 -2.398185295729e-05 0.0 
-2.398185295729e-05 7.947099276524e-04 0.0 
0.0 0.0 -1.538008107973e-04 
-1.517635758577e-04 -3.443864216590e-05 0.0 
-3.443864216590e-05 7.948777419866e-04 0.0 
0.0 0.0 -1.539189619659e-04 
-1.513562820848e-04 -4.186032520629e-05 0.0 
-4.186032520629e-05 7.954756715071e-04 0.0 
0.0 0.0 -1.540095412804e-04 
-1.519141482631e-04 -4.710248762457e-05 0.0 
-4.710248762457e-05 7.962879447640e-04 0.0 
0.0 0.0 -1.540789260361e-04 
-1.532858632149e-04 -5.035725515805e-05 0.0 
-5.035725515805e-05 7.973636308889e-04 0.0 
0.0 0.0 -1.541335875185e-04 
-1.552857906927e-04 -5.203143179554e-05 0.0 
-5.203143179554e-05 7.986361304509e-04 0.0 
0.0 0.0 -1.541839516346e-04 
-1.577259729563e-04 -5.231585380311e-05 0.0 
-5.231585380311e-05 8.000678262256e-04 0.0 
0.0 0.0 -1.542302164997e-04 
-1.604344883536e-04 -5.139094102408e-05 0.0 
-5.139094102408e-05 8.015819400851e-04 0.0 
0.0 0.0 -1.542734874490e-04 
-1.632501568932e-04 -4.943113356881e-05 0.0 
-4.943113356881e-05 8.030892826301e-04 0.0 
0.0 0.0 -1.543137234610e-04 
-1.660425170795e-04 -4.667898287501e-05 0.0 
-4.667898287501e-05 8.045028449402e-04 0.0 
0.0 0.0 -1.543502020780e-04 
-1.687047422044e-04 -4.339428343341e-05 0.0 
-4.339428343341e-05 8.057551987615e-04 0.0 
0.0 0.0 -1.543815508332e-04 
-1.711418068186e-04 -3.982788674622e-05 0.0 
-3.982788674622e-05 8.067815416616e-04 0.0 
0.0 0.0 -1.544056367788e-04 
-1.732566486500e-04 -3.619615027229e-05 0.0 
-3.619615027229e-05 8.075038811005e-04 0.0 
0.0 0.0 -1.544181853843e-04 
-1.749371882873e-04 -3.260672884681e-05 0.0 
-3.260672884681e-05 8.078182461705e-04 0.0 
0.0 0.0 -1.544101736723e-04 
-1.760349522403e-04 -2.881573000198e-05 0.0 
-2.881573000198e-05 8.075858140199e-04 0.0 
0.0 0.0 -1.543611723167e-04 
-1.763285087699e-04 -2.292236914994e-05 0.0 
-2.292236914994e-05 8.066265339266e-04 0.0 
0.0 0.0 -1.541984768065e-04 
-1.751258693404e-04 4.299452051145e-06 0.0 
4.299452051145e-06 8.046870665598e-04 0.0 
0.0 0.0 -1.533498645749e-04 
-1.895927345406e-04 7.729730061347e-05 0.0 
7.729730061347e-05 8.210640951615e-04 0.0 
0.0 0.0 -1.572346098167e-04 
-3.628381239421e-04 4.842555091829e-04 0.0 
4.842555091829e-04 1.190202187004e-03 0.0 
0.0 0.0 -2.340661675681e-04 
-3.802118468551e-04 3.455589746389e-04 0.0 
3.455589746389e-04 1.305583861753e-03 0.0 
0.0 0.0 -2.385862393868e-04 
-3.437252635702e-04 2.309332768943e-04 0.0 
2.309332768943e-04 1.288674753226e-03 0.0 
0.0 0.0 -2.343835191995e-04 
-3.329265279177e-04 1.432285999993e-04 0.0 
1.432285999993e-04 1.287056550938e-03 0.0 
0.0 0.0 -2.297051648921e-04 
-3.139132946028e-04 9.078812189553e-05 0.0 
9.078812189553e-05 1.289438164461e-03 0.0 
0.0 0.0 -2.275591678181e-04 
-2.988206012670e-04 4.775334047599e-05 0.0 
4.775334047599e-05 1.285183619587e-03 0.0 
0.0 0.0 -2.266666666667e-04 
-2.849077319500e-04 1.789066211896e-05 0.0 
1.789066211896e-05 1.283833093661e-03 0.0 
0.0 0.0 -2.266666666667e-04 
-2.753582555348e-04 -4.795108964955e-06 0.0 
-4.795108964955e-06 1.281926460909e-03 0.0 
0.0 0.0 -2.266666666667e-04 
-2.683374979312e-04 -2.126410125056e-05 0.0 
-2.126410125056e-05 1.281101527694e-03 0.0 
0.0 0.0 -2.266666666667e-04 
-2.637706135916e-04 -3.361579052413e-05 0.0 
-3.361579052413e-05 1.280585319830e-03 0.0 
0.0 0.0 -2.266666666667e-04 
-2.608864038848e-04 -4.254249846124e-05 0.0 
-4.254249846124e-05 1.280674733889e-03 0.0 
0.0 0.0 -2.266666666667e-04 
-2.594865430883e-04 -4.880504890846e-05 0.0 
-4.880504890846e-05 1.281129399031e-03 0.0 
0.0 0.0 -2.266666666667e-04 
-2.592271492083e-04 -5.274530917222e-05 0.0 
-5.274530917222e-05 1.281978914705e-03 0.0 
0.0 0.0 -2.266666666667e-04 
-2.598377302827e-04 -5.461665490637e-05 0.0 
-5.461665490637e-05 1.283092885995e-03 0.0 
0.0 0.0 -2.266666666667e-04 
-2.609883587795e-04 -5.464897239266e-05 0.0 
-5.464897239266e-05 1.284318819752e-03 0.0 
0.0 0.0 -2.266666666667e-04 
-2.624449030428e-04 -5.318388434965e-05 0.0 
-5.318388434965e-05 1.285505194123e-03 0.0 
0.0 0.0 -2.266666666667e-04 
-2.640300486149e-04 -5.055913047683e-05 0.0 
-5.055913047683e-05 1.286555616377e-03 0.0 
0.0 0.0 -2.266666666667e-04 
-2.655827755082e-04 -4.706799386262e-05 0.0 
-4.706799386262e-05 1.287386838751e-03 0.0 
0.0 0.0 -2.266666666667e-04 
-2.669508205149e-04 -4.294768758454e-05 0.0 
-4.294768758454e-05 1.287919215002e-03 0.0 
0.0 0.0 -2.266666666667e-04 
-2.679889603064e-04 -3.835283105368e-05 0.0 
-3.835283105368e-05 1.288085921756e-03 0.0 
0.0 0.0 -2.266666666667e-04 
-2.685918719264e-04 -3.324295838272e-05 0.0 
-3.324295838272e-05 1.287880334271e-03 0.0 
0.0 0.0 -2.266666666667e-04 
-2.687283465611e-04 -2.717692756331e-05 0.0 
-2.717692756331e-05 1.287443556388e-03 0.0 
0.0 0.0 -2.266666666667e-04 
-2.686844745940e-04 -1.938143184987e-05 0.0 
-1.938143184987e-05 1.287424645548e-03 0.0 
0.0 0.0 -2.266666666667e-04 
-2.702508139422e-04 -1.180451543429e-05 0.0 
-1.180451543429e-05 1.290650077595e-03 0.0 
0.0 0.0 -2.266666666667e-04 
-2.739511578738e-04 1.091861514027e-04 0.0 
1.091861514027e-04 1.296262820171e-03 0.0 
0.0 0.0 -2.266666666667e-04 
-3.496809071087e-04 7.029818051395e-05 0.0 
7.029818051395e-05 1.763978001235e-03 0.0 
0.0 0.0 -2.933333333333e-04 
-3.467012321594e-04 2.565652285915e-06 0.0 
2.565652285915e-06 1.759757177646e-03 0.0 
0.0 0.0 -2.933333333333e-04 
-3.460706828833e-04 -2.402709291714e-05 0.0 
-2.402709291714e-05 1.758572650440e-03 0.0 
0.0 0.0 -2.933333333333e-04 
-3.462634971279e-04 -3.232377085059e-05 0.0 
-3.232377085059e-05 1.758604837916e-03 0.0 
0.0 0.0 -2.933333333333e-04 
-3.466983492028e-04 -3.868888686092e-05 0.0 
-3.868888686092e-05 1.759008204949e-03 0.0 
0.0 0.0 -2.933333333333e-04 
-3.471166494268e-04 -4.426990314512e-05 0.0 
-4.426990314512e-05 1.759352418861e-03 0.0 
0.0 0.0 -2.933333333333e-04 
-3.474272679685e-04 -4.918378872263e-05 0.0 
-4.918378872263e-05 1.759427979474e-03 0.0 
0.0 0.0 -2.933333333333e-04 
-3.476545714717e-04 -5.321526936886e-05 0.0 
-5.321526936886e-05 1.759196453292e-03 0.0 
0.0 0.0 -2.933333333333e-04 
-3.479518305898e-04 -5.609578469028e-05 0.0 
-5.609578469028e-05 1.758727485872e-03 0.0 
0.0 0.0 -2.933333333333e-04 
-3.484727780912e-04 -5.752163128441e-05 0.0 
-5.752163128441e-05 1.758083576967e-03 0.0 
0.0 0.0 -2.933333333333e-04 
-3.493671597279e-04 -5.714597270233e-05 0.0 
-5.714597270233e-05 1.757324818446e-03 0.0 
0.0 0.0 -2.933333333333e-04 
-3.507609803320e-04 -5.447564841924e-05 0.0 
-5.447564841924e-05 1.756492701634e-03 0.0 
0.0 0.0 -2.933333333333e-04 
-3.529498849902e-04 -4.883178137910e-05 0.0 
-4.883178137910e-05 1.755842529399e-03 0.0 
0.0 0.0 -2.933333333333e-04 
-3.563919328167e-04 -4.008505197600e-05 0.0 
-4.008505197600e-05 1.755533487358e-03 0.0 
0.0 0.0 -2.933333333333e-04 
-3.613751731038e-04 -2.764226381693e-05 0.0 
-2.764226381693e-05 1.755740221786e-03 0.0 
0.0 0.0 -2.933333333333e-04 
-3.680331159808e-04 -1.160852856466e-05 0.0 
-1.160852856466e-05 1.755914627603e-03 0.0 
0.0 0.0 -2.933333333333e-04 
-3.765077791255e-04 1.088927297272e-05 0.0 
1.088927297272e-05 1.756756463973e-03 0.0 
0.0 0.0 -2.933333333333e-04 
-3.875335620688e-04 3.848779556901e-05 0.0 
3.848779556901e-05 1.756527119021e-03 0.0 
0.0 0.0 -2.933333333333e-04 
-4.006981741599e-04 7.938462996467e-05 0.0 
7.938462996467e-05 1.757968771471e-03 0.0 
0.0 0.0 -2.933333333333e-04 
-4.184139765209e-04 1.273498827186e-04 0.0 
1.273498827186e-04 1.754107022380e-03 0.0 
0.0 0.0 -2.933333333333e-04 
-4.343887350254e-04 2.082173449192e-04 0.0 
2.082173449192e-04 1.756230721853e-03 0.0 
0.0 0.0 -2.933333333333e-04 
-4.614874550674e-04 2.935627528416e-04 0.0 
2.935627528416e-04 1.774351382184e-03 0.0 
0.0 0.0 -2.960058309038e-04 
-4.441523120693e-04 4.094621339406e-04 0.0 
4.094621339406e-04 1.656501544115e-03 0.0 
0.0 0.0 -2.853401360544e-04 
-4.870440913019e-04 3.438997131150e-04 0.0 
3.438997131150e-04 2.112483852915e-03 0.0 
0.0 0.0 -3.519676952907e-04 
-5.125649626942e-04 2.408553048519e-04 0.0 
2.408553048519e-04 2.231730849181e-03 0.0 
0.0 0.0 -3.626389769158e-04 
-5.004304274742e-04 1.739740084501e-04 0.0 
1.739740084501e-04 2.219740475384e-03 0.0 
0.0 0.0 -3.600000000000e-04 
-4.919733132572e-04 1.088807645715e-04 0.0 
1.088807645715e-04 2.220404103345e-03 0.0 
0.0 0.0 -3.600000000000e-04 
-4.789912287228e-04 6.959489259035e-05 0.0 
6.959489259035e-05 2.226799972365e-03 0.0 
0.0 0.0 -3.600000000000e-04 
-4.695031603226e-04 3.553610685796e-05 0.0 
3.553610685796e-05 2.226549692723e-03 0.0 
0.0 0.0 -3.600000000000e-04 
-4.599607884164e-04 1.129608327385e-05 0.0 
1.129608327385e-05 2.227936339154e-03 0.0 
0.0 0.0 -3.600000000000e-04 
-4.523249195166e-04 -8.629656390873e-06 0.0 
-8.629656390873e-06 2.227633121405e-03 0.0 
0.0 0.0 -3.600000000000e-04 
-4.460410542978e-04 -2.408928092428e-05 0.0 
-2.408928092428e-05 2.228142385368e-03 0.0 
0.0 0.0 -3.600000000000e-04 
-4.416422346106e-04 -3.556764082908e-05 0.0 
-3.556764082908e-05 2.228991415671e-03 0.0 
0.0 0.0 -3.600000000000e-04 
-4.381537305926e-04 -4.258379451435e-05 0.0 
-4.258379451435e-05 2.230069409879e-03 0.0 
0.0 0.0 -3.600000000000e-04 
-4.351200154686e-04 -4.630854718854e-05 0.0 
-4.630854718854e-05 2.230745475863e-03 0.0 
0.0 0.0 -3.600000000000e-04 
-4.325824646744e-04 -4.775125052124e-05 0.0 
-4.775125052124e-05 2.231217919098e-03 0.0 
0.0 0.0 -3.600000000000e-04 
-4.305586835962e-04 -4.721495249169e-05 0.0 
-4.721495249169e-05 2.231559783467e-03 0.0 
0.0 0.0 -3.600000000000e-04 
-4.288867137335e-04 -4.493296871748e-05 0.0 
-4.493296871748e-05 2.231681053608e-03 0.0 
0.0 0.0 -3.600000000000e-04 
-4.273112732016e-04 -4.114156621977e-05 0.0 
-4.114156621977e-05 2.231455818993e-03 0.0 
0.0 0.0 -3.600000000000e-04 
-4.257570290361e-04 -3.645486640434e-05 0.0 
-3.645486640434e-05 2.230888371703e-03 0.0 
0.0 0.0 -3.600000000000e-04 
-4.244314698173e-04 -3.118593770298e-05 0.0 
-3.118593770298e-05 2.230297443320e-03 0.0 
0.0 0.0 -3.600000000000e-04 
-4.235346113232e-04 -2.542079837558e-05 0.0 
-2.542079837558e-05 2.230073732848e-03 0.0 
0.0 0.0 -3.600000000000e-04 
-4.234462512888e-04 -1.962142205216e-05 0.0 
-1.962142205216e-05 2.230753915289e-03 0.0 
0.0 0.0 -3.600000000000e-04 
-4.245254089640e-04 -1.838851999952e-05 0.0 
-1.838851999952e-05 2.232666465119e-03 0.0 
0.0 0.0 -3.600000000000e-04 
-4.258704289300e-04 1.031587817340e-04 0.0 
1.031587817340e-04 2.234469848219e-03 0.0 
0.0 0.0 -3.600000000000e-04 
-5.013977665724e-04 6.678054078335e-05 0.0 
6.678054078335e-05 2.703319892598e-03 0.0 
0.0 0.0 -4.266666666667e-04 
-5.000873162729e-04 4.739922315480e-07 0.0 
4.739922315480e-07 2.701172909826e-03 0.0 
0.0 0.0 -4.266666666667e-04 
-4.998071790653e-04 -2.178747072151e-05 0.0 
-2.178747072151e-05 2.700224901928e-03 0.0 
0.0 0.0 -4.266666666667e-04 
-5.007267420848e-04 -2.682346092380e-05 0.0 
-2.682346092380e-05 2.700321897617e-03 0.0 
0.0 0.0 -4.266666666667e-04 
-5.023438002827e-04 -3.104522400768e-05 0.0 
-3.104522400768e-05 2.700942336046e-03 0.0 
0.0 0.0 -4.266666666667e-04 
-5.046005899036e-04 -3.482640527593e-05 0.0 
-3.482640527593e-05 2.701790544412e-03 0.0 
0.0 0.0 -4.266666666667e-04 
-5.072352564482e-04 -3.838001695029e-05 0.0 
-3.838001695029e-05 2.702415804766e-03 0.0 
0.0 0.0 -4.266666666667e-04 
-5.098433996047e-04 -4.063252974789e-05 0.0 
-4.063252974789e-05 2.702308962132e-03 0.0 
0.0 0.0 -4.266666666667e-04 
-5.126344180745e-04 -4.048719551750e-05 0.0 
-4.048719551750e-05 2.701874566670e-03 0.0 
0.0 0.0 -4.266666666667e-04 
-5.163726922397e-04 -3.792427931932e-05 0.0 
-3.792427931932e-05 2.701523899062e-03 0.0 
0.0 0.0 -4.266666666667e-04 
-5.207389108666e-04 -3.338420754901e-05 0.0 
-3.338420754901e-05 2.701011155077e-03 0.0 
0.0 0.0 -4.266666666667e-04 
-5.252891517300e-04 -2.626882560247e-05 0.0 
-2.626882560247e-05 2.699762094262e-03 0.0 
0.0 0.0 -4.266666666667e-04 
-5.299120677543e-04 -1.439019615054e-05 0.0 
-1.439019615054e-05 2.697258437041e-03 0.0 
0.0 0.0 -4.266666666667e-04 
-5.357525103733e-04 4.962642114391e-06 0.0 
4.962642114391e-06 2.695874831440e-03 0.0 
0.0 0.0 -4.266666666667e-04 
-5.442031688919e-04 2.698467857241e-05 0.0 
2.698467857241e-05 2.694563012441e-03 0.0 
0.0 0.0 -4.266666666667e-04 
-5.535277733574e-04 5.642979102142e-05 0.0 
5.642979102142e-05 2.694993549781e-03 0.0 
0.0 0.0 -4.266666666667e-04 
-5.636396406095e-04 8.491085392806e-05 0.0 
8.491085392806e-05 2.688346064678e-03 0.0 
0.0 0.0 -4.266666666667e-04 
-5.667180855967e-04 1.404909475521e-04 0.0 
1.404909475521e-04 2.684702359192e-03 0.0 
0.0 0.0 -4.266666666667e-04 
-5.760763171982e-04 1.868968236703e-04 0.0 
1.868968236703e-04 2.700776601453e-03 0.0 
0.0 0.0 -4.293391642371e-04 
-5.414318027528e-04 2.582759348764e-04 0.0 
2.582759348764e-04 2.576024993124e-03 0.0 
0.0 0.0 -4.186734693878e-04 
-6.002569752709e-04 2.106199425740e-04 0.0 
2.106199425740e-04 3.040601950913e-03 0.0 
0.0 0.0 -4.852947845805e-04 
-6.404347893740e-04 1.452930758805e-04 0.0 
1.452930758805e-04 3.169480489552e-03 0.0 
0.0 0.0 -4.959669582118e-04 
-6.373670366941e-04 1.181817318953e-04 0.0 
1.181817318953e-04 3.157603873263e-03 0.0 
0.0 0.0 -4.933333333333e-04 
-6.335926768194e-04 7.794245507497e-05 0.0 
7.794245507497e-05 3.156688021345e-03 0.0 
0.0 0.0 -4.933333333333e-04 
-6.220474498716e-04 5.134440581893e-05 0.0 
5.134440581893e-05 3.160786184874e-03 0.0 
0.0 0.0 -4.933333333333e-04 
-6.159406124673e-04 2.206688587732e-05 0.0 
2.206688587732e-05 3.161928673014e-03 0.0 
0.0 0.0 -4.933333333333e-04 
-6.109166782003e-04 3.714322771242e-06 0.0 
3.714322771242e-06 3.167514719351e-03 0.0 
0.0 0.0 -4.933333333333e-04 
-6.054581133856e-04 -7.307117585949e-06 0.0 
-7.307117585949e-06 3.170142463375e-03 0.0 
0.0 0.0 -4.933333333333e-04 
-6.000107331639e-04 -1.469328145384e-05 0.0 
-1.469328145384e-05 3.171163635534e-03 0.0 
0.0 0.0 -4.933333333333e-04 
-5.941898088781e-04 -2.074063559937e-05 0.0 
-2.074063559937e-05 3.171088193189e-03 0.0 
0.0 0.0 -4.933333333333e-04 
-5.898957035509e-04 -2.603463415847e-05 0.0 
-2.603463415847e-05 3.171921383452e-03 0.0 
0.0 0.0 -4.933333333333e-04 
-5.871319754984e-04 -2.671317052851e-05 0.0 
-2.671317052851e-05 3.173080463882e-03 0.0 
0.0 0.0 -4.933333333333e-04 
-5.831711305422e-04 -2.471825246934e-05 0.0 
-2.471825246934e-05 3.172447959486e-03 0.0 
0.0 0.0 -4.933333333333e-04 
-5.799110508209e-04 -2.308008329295e-05 0.0 
-2.308008329295e-05 3.171263771991e-03 0.0 
0.0 0.0 -4.933333333333e-04 
-5.773557365906e-04 -2.133550619489e-05 0.0 
-2.133550619489e-05 3.170479716806e-03 0.0 
0.0 0.0 -4.933333333333e-04 
-5.758014518713e-04 -1.892419660156e-05 0.0 
-1.892419660156e-05 3.170002557654e-03 0.0 
0.0 0.0 -4.933333333333e-04 
-5.748764960425e-04 -1.805012883539e-05 0.0 
-1.805012883539e-05 3.170347605706e-03 0.0 
0.0 0.0 -4.933333333333e-04 
-5.760506827362e-04 -2.075419369238e-05 0.0 
-2.075419369238e-05 3.172373778641e-03 0.0 
0.0 0.0 -4.933333333333e-04 
-5.767249358615e-04 1.015271389729e-04 0.0 
1.015271389729e-04 3.173431107618e-03 0.0 
0.0 0.0 -4.933333333333e-04 
-6.527572212549e-04 6.780105280902e-05 0.0 
6.780105280902e-05 3.643323392159e-03 0.0 
0.0 0.0 -5.600000000000e-04 
-6.484652640847e-04 -1.867317635502e-06 0.0 
-1.867317635502e-06 3.638221338221e-03 0.0 
0.0 0.0 -5.600000000000e-04 
-6.483746879456e-04 -1.524137963776e-05 0.0 
-1.524137963776e-05 3.636879668493e-03 0.0 
0.0 0.0 -5.600000000000e-04 
-6.506726970290e-04 -1.678761464932e-05 0.0 
-1.678761464932e-05 3.638240294297e-03 0.0 
0.0 0.0 -5.600000000000e-04 
-6.515567938656e-04 -1.582684597498e-05 0.0 
-1.582684597498e-05 3.638013899900e-03 0.0 
0.0 0.0 -5.600000000000e-04 
-6.554750631859e-04 -1.470434980338e-05 0.0 
-1.470434980338e-05 3.639460407849e-03 0.0 
0.0 0.0 -5.600000000000e-04 
-6.594170751284e-04 -1.283952103919e-05 0.0 
-1.283952103919e-05 3.641117124007e-03 0.0 
0.0 0.0 -5.600000000000e-04 
-6.641464449147e-04 -1.550365402295e-05 0.0 
-1.550365402295e-05 3.640594034775e-03 0.0 
0.0 0.0 -5.600000000000e-04 
-6.668858948113e-04 -7.941772856611e-06 0.0 
-7.941772856611e-06 3.636849838348e-03 0.0 
0.0 0.0 -5.600000000000e-04 
-6.741591020856e-04 2.577853317367e-06 0.0 
2.577853317367e-06 3.638100575400e-03 0.0 
0.0 0.0 -5.600000000000e-04 
-6.809485102659e-04 9.363144820372e-06 0.0 
9.363144820372e-06 3.637932552511e-03 0.0 
0.0 0.0 -5.600000000000e-04 
-6.861033350786e-04 2.086292296722e-05 0.0 
2.086292296722e-05 3.634350486115e-03 0.0 
0.0 0.0 -5.600000000000e-04 
-6.932352806905e-04 3.670348944842e-05 0.0 
3.670348944842e-05 3.630716211654e-03 0.0 
0.0 0.0 -5.600000000000e-04 
-6.980811967268e-04 5.967994361152e-05 0.0 
5.967994361152e-05 3.618796687988e-03 0.0 
0.0 0.0 -5.600000000000e-04 
-7.013848849314e-04 1.083829473888e-04 0.0 
1.083829473888e-04 3.620396778090e-03 0.0 
0.0 0.0 -5.600000000000e-04 
-7.078351814424e-04 1.219335158790e-04 0.0 
1.219335158790e-04 3.644573923445e-03 0.0 
0.0 0.0 -5.626724975705e-04 
-6.666304385001e-04 1.660523767343e-04 0.0 
1.660523767343e-04 3.518024469538e-03 0.0 
0.0 0.0 -5.520068027211e-04 
-7.306639245541e-04 1.487904650220e-04 0.0 
1.487904650220e-04 3.987541024977e-03 0.0 
0.0 0.0 -6.186195084094e-04 
-7.777639873500e-04 1.047682677556e-04 0.0 
1.047682677556e-04 4.108452618951e-03 0.0 
0.0 0.0 -6.292929119699e-04 
-7.730086078056e-04 8.789895144587e-05 0.0 
8.789895144587e-05 4.091912019672e-03 0.0 
0.0 0.0 -6.266666666667e-04 
-7.618524580481e-04 6.512725790421e-05 0.0 
6.512725790421e-05 4.093546504346e-03 0.0 
0.0 0.0 -6.266666666667e-04 
-7.572869673676e-04 4.077816536235e-05 0.0 
4.077816536235e-05 4.100722229585e-03 0.0 
0.0 0.0 -6.266666666667e-04 
-7.522759778333e-04 3.231234712664e-05 0.0 
3.231234712664e-05 4.105753030330e-03 0.0 
0.0 0.0 -6.266666666667e-04 
-7.456061716167e-04 2.469919196216e-05 0.0 
2.469919196216e-05 4.102695942195e-03 0.0 
0.0 0.0 -6.266666666667e-04 
-7.404032118594e-04 6.233661207773e-06 0.0 
6.233661207773e-06 4.103985895951e-03 0.0 
0.0 0.0 -6.266666666667e-04 
-7.306819678944e-04 6.672744555550e-06 0.0 
6.672744555550e-06 4.108272711165e-03 0.0 
0.0 0.0 -6.266666666667e-04 
-7.293745733164e-04 -1.304990055444e-06 0.0 
-1.304990055444e-06 4.106419007565e-03 0.0 
0.0 0.0 -6.266666666667e-04 
-7.249341380716e-04 -1.277588629320e-06 0.0 
-1.277588629320e-06 4.105173170991e-03 0.0 
0.0 0.0 -6.266666666667e-04 
-7.218872567136e-04 -1.221940477039e-05 0.0 
-1.221940477039e-05 4.104125766063e-03 0.0 
0.0 0.0 -6.266666666667e-04 
-7.226283520212e-04 -7.586680396462e-06 0.0 
-7.586680396462e-06 4.106687618408e-03 0.0 
0.0 0.0 -6.266666666667e-04 
-7.194567743785e-04 -1.345793513568e-05 0.0 
-1.345793513568e-05 4.101402324494e-03 0.0 
0.0 0.0 -6.266666666667e-04 
-7.217276456755e-04 -3.632688016994e-05 0.0 
-3.632688016994e-05 4.111803083088e-03 0.0 
0.0 0.0 -6.266666666667e-04 
-7.310107230365e-04 1.113089146982e-04 0.0 
1.113089146982e-04 4.120905737550e-03 0.0 
0.0 0.0 -6.266666666667e-04 
3.363202673470e-06 1.897033545958e-04 0.0 
1.897033545958e-04 3.622919472087e-05 0.0 
0.0 0.0 -1.696817031186e-05 
-5.721507497591e-05 5.117214562100e-04 0.0 
5.117214562100e-04 4.493608943022e-04 0.0 
0.0 0.0 -1.680624939970e-04 
-2.426953950237e-04 7.209557136897e-04 0.0 
7.209557136897e-04 9.898501558157e-04 0.0 
0.0 0.0 -2.899585637902e-04 
-4.843559632477e-04 7.054171669141e-04 0.0 
7.054171669141e-04 1.501747503856e-03 0.0 
0.0 0.0 -2.705470891579e-04 
-5.162796584260e-04 5.374660571038e-04 0.0 
5.374660571038e-04 1.954632750136e-03 0.0 
0.0 0.0 -3.310903933743e-04 
-5.449792335688e-04 4.356130269135e-04 0.0 
4.356130269135e-04 2.421388465933e-03 0.0 
0.0 0.0 -3.977576770754e-04 
-6.066455436428e-04 3.364332527846e-04 0.0 
3.364332527846e-04 2.883298822982e-03 0.0 
0.0 0.0 -4.650267612653e-04 
-6.625430485052e-04 2.762683699332e-04 0.0 
2.762683699332e-04 3.355431578782e-03 0.0 
0.0 0.0 -5.317697887215e-04 
-7.239877336263e-04 2.202667385963e-04 0.0 
2.202667385963e-04 3.828610808697e-03 0.0 
0.0 0.0 -5.985602557689e-04 
-7.842817421153e-04 1.883796168278e-04 0.0 
1.883796168278e-04 4.312421836845e-03 0.0 
0.0 0.0 -6.652967104836e-04 
-6.528049956140e-05 8.329192367362e-04 0.0 
8.329192367362e-04 6.721534156509e-04 0.0 
0.0 0.0 -2.600883926098e-04 
-1.238271811776e-03 -2.323410981101e-05 0.0 
-2.323410981101e-05 8.143368057859e-03 0.0 
0.0 0.0 -1.303388942653e-03 
5.998510431380e-05 -1.163529753908e-04 0.0 
-1.163529753908e-04 2.499013313257e-04 0.0 
0.0 0.0 -7.661148810519e-05 
1.270751205327e-05 -3.607914457565e-05 0.0 
-3.607914457565e-05 6.964316184805e-06 0.0 
0.0 0.0 -8.430783530605e-06 
-1.278901467981e-03 -2.582894247670e-04 0.0 
-2.582894247670e-04 8.264882866352e-03 0.0 
0.0 0.0 -1.303360877099e-03 
-5.655990039998e-04 8.080804633426e-04 0.0 
8.080804633426e-04 1.859508276799e-03 0.0 
0.0 0.0 -3.221766324775e-04 
-9.861956324832e-04 -6.715847648061e-05 0.0 
-6.715847648061e-05 4.773589466734e-03 0.0 
0.0 0.0 -7.300567563597e-04 
-1.244927303710e-03 2.945275852412e-04 0.0 
2.945275852412e-04 8.164800639293e-03 0.0 
0.0 0.0 -1.300998267065e-03 
-6.348034790759e-04 4.424120780115e-04 0.0 
4.424120780115e-04 2.761117670990e-03 0.0 
0.0 0.0 -4.497936382440e-04 
-1.277128875373e-03 4.777706098865e-04 0.0 
4.777706098865e-04 8.316029240451e-03 0.0 
0.0 0.0 -1.304014651794e-03 
-7.514819667783e-04 2.897671537100e-04 0.0 
2.897671537100e-04 3.742162088854e-03 0.0 
0.0 0.0 -5.857980290939e-04 
-1.307584739855e-03 -2.907864623538e-04 0.0 
-2.907864623538e-04 8.435582561033e-03 0.0 
0.0 0.0 -1.307658508868e-03 
2.194594038095e-04 -2.670865977714e-05 0.0 
-2.670865977714e-05 1.694259524564e-04 0.0 
0.0 0.0 -9.345456780789e-05 
-1.309138496400e-03 5.212450025025e-04 0.0 
5.212450025025e-04 8.474949316046e-03 0.0 
0.0 0.0 -1.304481600125e-03 
-8.746417822978e-04 2.068395432367e-04 0.0 
2.068395432367e-04 4.729142408164e-03 0.0 
0.0 0.0 -7.203075318094e-04 
-6.505648739721e-04 -3.624268182337e-05 0.0 
-3.624268182337e-05 2.957311441966e-03 0.0 
0.0 0.0 -4.640473930190e-04 
-1.131372666701e-03 -4.491765098181e-05 0.0 
-4.491765098181e-05 5.976165985442e-03 0.0 
0.0 0.0 -9.125512086551e-04 
-1.314763544022e-03 4.589275118802e-04 0.0 
4.589275118802e-04 8.560285468091e-03 0.0 
0.0 0.0 -1.301280071178e-03 
-1.328200349095e-03 3.774182231255e-04 0.0 
3.774182231255e-04 8.674652987533e-03 0.0 
0.0 0.0 -1.304294760550e-03 
-1.328231009146e-03 1.002317222840e-04 0.0 
1.002317222840e-04 8.762903021805e-03 0.0 
0.0 0.0 -1.303238611779e-03 
-1.321361255880e-03 2.020746578681e-04 0.0 
2.020746578681e-04 8.706453928135e-03 0.0 
0.0 0.0 -1.297727402575e-03 
-1.333675382953e-03 2.525190978684e-04 0.0 
2.525190978684e-04 8.729905622316e-03 0.0 
0.0 0.0 -1.305306183856e-03 
-8.907724214169e-04 1.372579395388e-04 0.0 
1.372579395388e-04 4.950739460616e-03 0.0 
0.0 0.0 -7.522011426764e-04 
-8.750579348879e-04 6.356350708577e-05 0.0 
6.356350708577e-05 4.972444393085e-03 0.0 
0.0 0.0 -7.529849494387e-04 
-8.651922808025e-04 1.321213173771e-05 0.0 
1.321213173771e-05 5.002490543075e-03 0.0 
0.0 0.0 -7.580270452736e-04 
-1.081282276580e-03 -2.537529428612e-05 0.0 
-2.537529428612e-05 6.643650052824e-03 0.0 
0.0 0.0 -9.950081682429e-04 
-1.332561184719e-03 -2.295807888403e-04 0.0 
-2.295807888403e-04 8.502002206283e-03 0.0 
0.0 0.0 -1.302874185639e-03 
0.0 0.0 0.0 
0.0 0.0 0.0 
0.0 0.0 0.0 
2.233748649996e-04 5.268922663070e-06 0.0 
5.268922663070e-06 2.031789523429e-04 0.0 
0.0 0.0 -1.071793558177e-04 
-1.266615157062e-03 -4.708891648946e-05 0.0 
-4.708891648946e-05 7.362986267811e-03 0.0 
0.0 0.0 -1.122886395833e-03 
-8.590690058330e-04 2.817818056919e-05 0.0 
2.817818056919e-05 4.956725197885e-03 0.0 
0.0 0.0 -7.500338828344e-04 
-3.077541790528e-04 -1.952701143312e-05 0.0 
-1.952701143312e-05 1.504768126338e-03 0.0 
0.0 0.0 -2.594501920933e-04 
-1.324226706230e-03 4.167698339106e-04 0.0 
4.167698339106e-04 8.547363588762e-03 0.0 
0.0 0.0 -1.293200138473e-03 
-1.268789998251e-03 4.116378875631e-04 0.0 
4.116378875631e-04 8.267843264786e-03 0.0 
0.0 0.0 -1.307307853467e-03 
-1.298127013523e-03 5.178122413189e-04 0.0 
5.178122413189e-04 8.390890810401e-03 0.0 
0.0 0.0 -1.304733450272e-03 
-1.233362636415e-03 1.634458979136e-04 0.0 
1.634458979136e-04 8.121763907804e-03 0.0 
0.0 0.0 -1.297928233296e-03 
-1.261877986510e-03 -1.597052773119e-04 0.0 
-1.597052773119e-04 8.188934025231e-03 0.0 
0.0 0.0 -1.305578568836e-03 
2.734204477331e-05 -3.169143204034e-04 0.0 
-3.169143204034e-04 1.647533136443e-04 0.0 
0.0 0.0 -8.226872593096e-05 
-8.795053511419e-04 9.559274535899e-05 0.0 
9.559274535899e-05 4.954160552764e-03 0.0 
0.0 0.0 -7.500980793755e-04 
-1.291571793349e-03 -3.018456542619e-04 0.0 
-3.018456542619e-04 8.267318175430e-03 0.0 
0.0 0.0 -1.293180865222e-03 
-1.191688283040e-03 -1.679553581366e-05 0.0 
-1.679553581366e-05 7.562043590583e-03 0.0 
0.0 0.0 -1.123598490052e-03 
1.170418686809e-04 -5.562668358397e-05 0.0 
-5.562668358397e-05 2.275676700802e-04 0.0 
0.0 0.0 -7.719741026454e-05 
-8.274582342161e-04 -6.171908782243e-05 0.0 
-6.171908782243e-05 3.848512271059e-03 0.0 
0.0 0.0 -5.937437734062e-04 
-1.335764842081e-03 6.371320431880e-05 0.0 
6.371320431880e-05 8.844549453637e-03 0.0 
0.0 0.0 -1.311981303940e-03 
-6.029700723185e-04 6.122078773443e-04 0.0 
6.122078773443e-04 2.350776615634e-03 0.0 
0.0 0.0 -3.897472533596e-04 
-3.421036135192e-04 9.389470505226e-04 0.0 
9.389470505226e-04 1.298921873387e-03 0.0 
0.0 0.0 -3.268992177355e-04 
-6.932234286341e-04 3.612940895342e-04 0.0 
3.612940895342e-04 3.253564498504e-03 0.0 
0.0 0.0 -5.178568985205e-04 
-8.102727904185e-04 2.233971647189e-04 0.0 
2.233971647189e-04 4.222711404521e-03 0.0 
0.0 0.0 -6.527703211191e-04 
5.066191833243e-05 3.628631349546e-04 0.0 
3.628631349546e-04 1.223790561791e-04 0.0 
0.0 0.0 -7.416041764780e-05 
-9.647575502476e-04 -2.771769126341e-06 0.0 
-2.771769126341e-06 5.776762544034e-03 0.0 
0.0 0.0 -8.684787984471e-04 
-1.350888138525e-03 -1.433490915200e-04 0.0 
-1.433490915200e-04 8.608994521473e-03 0.0 
0.0 0.0 -1.313906642692e-03 
2.535763956766e-04 3.453965229505e-05 0.0 
3.453965229505e-05 1.648612099088e-04 0.0 
0.0 0.0 -1.090843966873e-04 
-1.275593957644e-03 1.853867106533e-05 0.0 
1.853867106533e-05 8.418825182379e-03 0.0 
0.0 0.0 -1.253930875827e-03 
-8.953448143456e-04 1.901723990594e-04 0.0 
1.901723990594e-04 4.929510438704e-03 0.0 
0.0 0.0 -7.532271817479e-04 
-9.242130448013e-04 2.218369834796e-04 0.0 
2.218369834796e-04 5.094044769017e-03 0.0 
0.0 0.0 -7.809350190597e-04 
-9.469027331401e-04 2.184886764960e-04 0.0 
2.184886764960e-04 5.336848493436e-03 0.0 
0.0 0.0 -8.115578932774e-04 
-9.847582339447e-04 2.348277518639e-04 0.0 
2.348277518639e-04 5.535490339246e-03 0.0 
0.0 0.0 -8.428390908522e-04 
-1.013224796440e-03 2.269955445031e-04 0.0 
2.269955445031e-04 5.773109205172e-03 0.0 
0.0 0.0 -8.784658474099e-04 
-1.038385862696e-03 2.590411142921e-04 0.0 
2.590411142921e-04 5.954479327597e-03 0.0 
0.0 0.0 -9.060409163497e-04 
-1.004174411440e-03 2.781484189758e-04 0.0 
2.781484189758e-04 5.703926568537e-03 0.0 
0.0 0.0 -8.711257577415e-04 
-1.054585459025e-03 2.973439443916e-04 0.0 
2.973439443916e-04 6.126110480118e-03 0.0 
0.0 0.0 -9.341442283280e-04 
-1.020905393351e-03 3.220952727550e-04 0.0 
3.220952727550e-04 5.866625374892e-03 0.0 
0.0 0.0 -8.989774131092e-04 
-1.060675836449e-03 2.424242741137e-04 0.0 
2.424242741137e-04 6.211611638975e-03 0.0 
0.0 0.0 -9.415083590319e-04 
-1.069903741450e-03 3.342745829502e-04 0.0 
3.342745829502e-04 6.289952349254e-03 0.0 
0.0 0.0 -9.622976032585e-04 
-1.033366094007e-03 3.621226093725e-04 0.0 
3.621226093725e-04 6.024211968433e-03 0.0 
0.0 0.0 -9.268639294333e-04 
-1.081748877589e-03 3.725821950626e-04 0.0 
3.725821950626e-04 6.448138080981e-03 0.0 
0.0 0.0 -9.903372159162e-04 
-1.042953915019e-03 3.991340856965e-04 0.0 
3.991340856965e-04 6.178329635147e-03 0.0 
0.0 0.0 -9.547708836903e-04 
-9.946320659626e-04 3.943126043460e-04 0.0 
3.943126043460e-04 5.758814307551e-03 0.0 
0.0 0.0 -8.916807130883e-04 
-1.001107217771e-03 4.332773723891e-04 0.0 
4.332773723891e-04 5.906894361937e-03 0.0 
0.0 0.0 -9.194532194038e-04 
-9.524385169357e-04 4.327952618966e-04 0.0 
4.327952618966e-04 5.490022466699e-03 0.0 
0.0 0.0 -8.565021464485e-04 
-9.551941416785e-04 4.714703413802e-04 0.0 
4.714703413802e-04 5.632535536945e-03 0.0 
0.0 0.0 -8.841639842141e-04 
-1.003948910985e-03 4.659340529388e-04 0.0 
4.659340529388e-04 6.052492370979e-03 0.0 
0.0 0.0 -9.471984275390e-04 
-9.534464918986e-04 5.005026845975e-04 0.0 
5.005026845975e-04 5.770878701320e-03 0.0 
0.0 0.0 -9.118195294070e-04 
-9.061256584098e-04 5.150134062317e-04 0.0 
5.150134062317e-04 5.352614190247e-03 0.0 
0.0 0.0 -8.488396520500e-04 
-8.989049191365e-04 5.434397803423e-04 0.0 
5.434397803423e-04 5.483228311018e-03 0.0 
0.0 0.0 -8.764089341820e-04 
-8.533039374695e-04 5.667693254413e-04 0.0 
5.667693254413e-04 5.068208533921e-03 0.0 
0.0 0.0 -8.135623229517e-04 
-8.400733524865e-04 5.914836390070e-04 0.0 
5.914836390070e-04 5.191255654721e-03 0.0 
0.0 0.0 -8.410744910442e-04 
-7.968543408339e-04 6.237249391908e-04 0.0 
6.237249391908e-04 4.777124479860e-03 0.0 
0.0 0.0 -7.781617608290e-04 
-7.768533972698e-04 6.436004668132e-04 0.0 
6.436004668132e-04 4.892920097115e-03 0.0 
0.0 0.0 -8.056965831182e-04 
-8.240566969273e-04 5.997503228454e-04 0.0 
5.997503228454e-04 5.313376653990e-03 0.0 
0.0 0.0 -8.686949506212e-04 
-7.549029941076e-04 6.445435251704e-04 0.0 
6.445435251704e-04 5.007797875212e-03 0.0 
0.0 0.0 -8.332427817419e-04 
-7.080731455591e-04 7.008821416478e-04 0.0 
7.008821416478e-04 4.586577191639e-03 0.0 
0.0 0.0 -7.703313069557e-04 
-6.796342790660e-04 6.889970591832e-04 0.0 
6.889970591832e-04 4.694361205396e-03 0.0 
0.0 0.0 -7.977945042040e-04 
-6.329025767040e-04 7.594983388287e-04 0.0 
7.594983388287e-04 4.271526927018e-03 0.0 
0.0 0.0 -7.349073124327e-04 
-5.970419350956e-04 7.303350951608e-04 0.0 
7.303350951608e-04 4.369967111415e-03 0.0 
0.0 0.0 -7.622392297106e-04 
-6.532929672579e-04 6.522887049741e-04 0.0 
6.522887049741e-04 4.806542372592e-03 0.0 
0.0 0.0 -8.253152238873e-04 
-5.665194748989e-04 6.694860838181e-04 0.0 
6.694860838181e-04 4.478701756150e-03 0.0 
0.0 0.0 -7.896995018144e-04 
-5.068058502527e-04 7.602496009026e-04 0.0 
7.602496009026e-04 4.031209139410e-03 0.0 
0.0 0.0 -7.264132926704e-04 
-4.737449794266e-04 6.709445860115e-04 0.0 
6.709445860115e-04 4.140917238724e-03 0.0 
0.0 0.0 -7.539848323805e-04 
-4.092281239023e-04 7.730243516518e-04 0.0 
7.730243516518e-04 3.680765614921e-03 0.0 
0.0 0.0 -6.903858661722e-04 
-3.744957372966e-04 6.516877818939e-04 0.0 
6.516877818939e-04 3.794607072583e-03 0.0 
0.0 0.0 -7.182351804274e-04 
-3.014418119782e-04 7.651198626849e-04 0.0 
7.651198626849e-04 3.317111817818e-03 0.0 
0.0 0.0 -6.542402593883e-04 
-2.691367924077e-04 5.991354595496e-04 0.0 
5.991354595496e-04 3.436288112929e-03 0.0 
0.0 0.0 -6.821763112594e-04 
-3.572033048063e-04 5.016025540799e-04 0.0 
5.016025540799e-04 3.930238801817e-03 0.0 
0.0 0.0 -7.460902125261e-04 
-2.604633093040e-04 4.087486075233e-04 0.0 
4.087486075233e-04 3.586761049540e-03 0.0 
0.0 0.0 -7.100832486075e-04 
-1.613056217724e-04 4.995138349428e-04 0.0 
4.995138349428e-04 3.072389318551e-03 0.0 
0.0 0.0 -6.458624074531e-04 
-1.669705829229e-04 2.701808013183e-04 0.0 
2.701808013183e-04 3.243787358763e-03 0.0 
0.0 0.0 -6.737786430284e-04 
-2.753947664968e-04 2.161212745525e-04 0.0 
2.161212745525e-04 3.768674846201e-03 0.0 
0.0 0.0 -7.381473126730e-04 
-2.005498486414e-04 5.346396201185e-05 0.0 
5.346396201185e-05 3.452103226554e-03 0.0 
0.0 0.0 -7.017500108595e-04 
-3.129525029214e-04 3.691539212023e-05 0.0 
3.691539212023e-05 3.980008917697e-03 0.0 
0.0 0.0 -7.662494016216e-04 
-2.576506604218e-04 -1.344602376400e-04 0.0 
-1.344602376400e-04 3.691587731914e-03 0.0 
0.0 0.0 -7.297828278826e-04 
-1.426325829897e-04 -1.501001214894e-04 0.0 
-1.501001214894e-04 3.157731231159e-03 0.0 
0.0 0.0 -6.655364893108e-04 
-2.218003623758e-04 -3.334729403515e-04 0.0 
-3.334729403515e-04 3.428848173996e-03 0.0 
0.0 0.0 -6.934067383651e-04 
-3.318343911700e-04 -2.853674173367e-04 0.0 
-2.853674173367e-04 3.952815162001e-03 0.0 
0.0 0.0 -7.577868799165e-04 
-3.144801710965e-04 -4.682272711583e-04 0.0 
-4.682272711583e-04 3.714915939774e-03 0.0 
0.0 0.0 -7.212202614536e-04 
-2.108184981842e-04 -5.509789330318e-04 0.0 
-5.509789330318e-04 3.196953321697e-03 0.0 
0.0 0.0 -6.571136838490e-04 
-3.194748950850e-04 -6.509678457029e-04 0.0 
-6.509678457029e-04 3.509025892108e-03 0.0 
0.0 0.0 -6.848379476561e-04 
-4.134303053585e-04 -5.537180261355e-04 0.0 
-5.537180261355e-04 4.010754256809e-03 0.0 
0.0 0.0 -7.491645792950e-04 
-4.282972412297e-04 -7.003622053819e-04 0.0 
-7.003622053819e-04 3.819503617895e-03 0.0 
0.0 0.0 -7.127097857715e-04 
-3.469063150971e-04 -8.191207970740e-04 0.0 
-8.191207970740e-04 3.332834435183e-03 0.0 
0.0 0.0 -6.486049398320e-04 
-4.603200915782e-04 -8.241016297384e-04 0.0 
-8.241016297384e-04 3.654972315785e-03 0.0 
0.0 0.0 -6.763006240845e-04 
-5.326763552168e-04 -7.095630877107e-04 0.0 
-7.095630877107e-04 4.127629826769e-03 0.0 
0.0 0.0 -7.409416231994e-04 
-5.642434690968e-04 -7.961766967206e-04 0.0 
-7.961766967206e-04 3.962246775740e-03 0.0 
0.0 0.0 -7.042275185679e-04 
-5.048810542407e-04 -9.111393169982e-04 0.0 
-9.111393169982e-04 3.507729400124e-03 0.0 
0.0 0.0 -6.398389559308e-04 
-6.027165900428e-04 -8.444966016725e-04 0.0 
-8.444966016725e-04 3.810620087909e-03 0.0 
0.0 0.0 -6.674633383154e-04 
-6.579291994771e-04 -7.450391146030e-04 0.0 
-7.450391146030e-04 4.258237816838e-03 0.0 
0.0 0.0 -7.324886333286e-04 
-6.885251553241e-04 -7.661379123145e-04 0.0 
-7.661379123145e-04 4.095680745521e-03 0.0 
0.0 0.0 -6.954027321055e-04 
-7.420005201256e-04 -6.813900099092e-04 0.0 
-6.813900099092e-04 4.540296059999e-03 0.0 
0.0 0.0 -7.608997874520e-04 
-6.419229239274e-04 -8.515280830913e-04 0.0 
-8.515280830913e-04 3.660198205629e-03 0.0 
0.0 0.0 -6.302092384919e-04 
-7.165087956100e-04 -7.532581299851e-04 0.0 
-7.532581299851e-04 3.933160643348e-03 0.0 
0.0 0.0 -6.580989212857e-04 
-6.748415764425e-04 -8.158732049488e-04 0.0 
-8.158732049488e-04 3.506981101763e-03 0.0 
0.0 0.0 -5.925517106747e-04 
-7.365832294088e-04 -7.073699189760e-04 0.0 
-7.073699189760e-04 3.765896700508e-03 0.0 
0.0 0.0 -6.207111136070e-04 
-6.332000182986e-04 5.918731838089e-04 0.0 
5.918731838089e-04 4.929291128701e-03 0.0 
0.0 0.0 -8.529317679587e-04 
-6.943116331248e-04 -7.425915444218e-04 0.0 
-7.425915444218e-04 3.344277999279e-03 0.0 
0.0 0.0 -5.549884598765e-04 
-6.397413698948e-04 -8.660814527003e-04 0.0 
-8.660814527003e-04 3.093984914707e-03 0.0 
0.0 0.0 -5.276250340903e-04 
-7.441497249529e-04 -6.348309289793e-04 0.0 
-6.348309289793e-04 3.588685288948e-03 0.0 
0.0 0.0 -5.833260987948e-04 
-7.927694967591e-04 -6.072286345187e-04 0.0 
-6.072286345187e-04 4.017000879105e-03 0.0 
0.0 0.0 -6.493616581942e-04 
-6.966675025981e-04 -6.428656991036e-04 0.0 
-6.428656991036e-04 3.166084591150e-03 0.0 
0.0 0.0 -5.173870653820e-04 
-7.365323002863e-04 -5.431818663254e-04 0.0 
-5.431818663254e-04 3.397457388952e-03 0.0 
0.0 0.0 -5.459094278256e-04 
-6.801980278813e-04 -5.258870908465e-04 0.0 
-5.258870908465e-04 2.971149924429e-03 0.0 
0.0 0.0 -4.798161731008e-04 
-3.522724475006e-04 8.978406558880e-04 0.0 
8.978406558880e-04 3.218246737404e-03 0.0 
0.0 0.0 -6.252159162693e-04 
-1.003922379852e-03 4.867498946042e-04 0.0 
4.867498946042e-04 6.194900288835e-03 0.0 
0.0 0.0 -9.750716696758e-04 
-7.134730581966e-04 -4.396097415729e-04 0.0 
-4.396097415729e-04 3.191992919970e-03 0.0 
0.0 0.0 -5.084495576641e-04 
-6.454975030147e-04 -4.098543326581e-04 0.0 
-4.098543326581e-04 2.756723401947e-03 0.0 
0.0 0.0 -4.423119711188e-04 
-6.169555617155e-04 -4.854535332185e-04 0.0 
-4.854535332185e-04 2.543124995000e-03 0.0 
0.0 0.0 -4.136824817550e-04 
-5.630688119643e-04 -3.553409865602e-04 0.0 
-3.553409865602e-04 2.315573721592e-03 0.0 
0.0 0.0 -3.761903503575e-04 
-1.032297422083e-03 1.966440866369e-04 0.0 
1.966440866369e-04 6.038887422175e-03 0.0 
0.0 0.0 -9.126358703463e-04 
-1.092679819842e-03 2.404953654437e-04 0.0 
2.404953654437e-04 6.471742125457e-03 0.0 
0.0 0.0 -9.772611937912e-04 
-1.065662184042e-03 1.952825978825e-04 0.0 
1.952825978825e-04 6.276115658093e-03 0.0 
0.0 0.0 -9.468612964576e-04 
-1.124488971150e-03 2.272669760496e-04 0.0 
2.272669760496e-04 6.729090336894e-03 0.0 
0.0 0.0 -1.012955122490e-03 
-1.098065280761e-03 1.864830102051e-04 0.0 
1.864830102051e-04 6.541298868571e-03 0.0 
0.0 0.0 -9.835180958883e-04 
-5.915603593799e-04 -3.065298427479e-04 0.0 
-3.065298427479e-04 2.521782196510e-03 0.0 
0.0 0.0 -4.047791634435e-04 
-1.117175513921e-03 3.540420738705e-04 0.0 
3.540420738705e-04 6.717826161917e-03 0.0 
0.0 0.0 -1.026687169009e-03 
-1.146459728684e-03 2.677090129604e-04 0.0 
2.677090129604e-04 6.908937528882e-03 0.0 
0.0 0.0 -1.042264213861e-03 
-8.619810308033e-04 5.269046982762e-04 0.0 
5.269046982762e-04 4.942534175484e-03 0.0 
0.0 0.0 -7.861871271282e-04 
-6.685992335526e-04 7.579980182072e-04 0.0 
7.579980182072e-04 4.174187567995e-03 0.0 
0.0 0.0 -7.076088937226e-04 
-3.823000922578e-04 1.751040962943e-04 0.0 
1.751040962943e-04 4.285393794973e-03 0.0 
0.0 0.0 -8.027518904046e-04 
-7.754697783619e-04 -4.563258168331e-04 0.0 
-4.563258168331e-04 3.623603682734e-03 0.0 
0.0 0.0 -5.745905038755e-04 
-7.478137892348e-04 -3.620965601600e-04 0.0 
-3.620965601600e-04 3.412205611854e-03 0.0 
0.0 0.0 -5.371338854166e-04 
-8.174754817651e-04 -3.813163108904e-04 0.0 
-3.813163108904e-04 3.849101426160e-03 0.0 
0.0 0.0 -6.033452624549e-04 
-7.192525572030e-04 -6.519418612780e-04 0.0 
-6.519418612780e-04 4.714458239345e-03 0.0 
0.0 0.0 -7.980428604176e-04 
-8.008672232585e-04 -6.001783307384e-04 0.0 
-6.001783307384e-04 4.992005436326e-03 0.0 
0.0 0.0 -8.266132305475e-04 
-7.854918836627e-04 -5.659348858598e-04 0.0 
-5.659348858598e-04 5.176434454621e-03 0.0 
0.0 0.0 -8.638188500004e-04 
-8.639017049063e-04 -5.248351014622e-04 0.0 
-5.248351014622e-04 5.448454375514e-03 0.0 
0.0 0.0 -8.924533907576e-04 
-8.555184497349e-04 -4.894755576408e-04 0.0 
-4.894755576408e-04 5.642058910946e-03 0.0 
0.0 0.0 -9.297164513315e-04 
-9.301291339826e-04 -4.570426975750e-04 0.0 
-4.570426975750e-04 5.908844626244e-03 0.0 
0.0 0.0 -9.583747859490e-04 
-9.353789003032e-04 -4.780922276340e-04 0.0 
-4.780922276340e-04 5.711821717037e-03 0.0 
0.0 0.0 -9.210728288235e-04 
-9.984662583326e-04 -4.207024963502e-04 0.0 
-4.207024963502e-04 6.168121907027e-03 0.0 
0.0 0.0 -9.870277070005e-04 
-1.000069004232e-03 -4.285924737525e-04 0.0 
-4.285924737525e-04 5.966651563586e-03 0.0 
0.0 0.0 -9.497007337289e-04 
-9.283284515458e-04 -4.229135290675e-04 0.0 
-4.229135290675e-04 6.110180447664e-03 0.0 
0.0 0.0 -9.956835613869e-04 
-8.527578693464e-04 -4.403303765288e-04 0.0 
-4.403303765288e-04 5.842885643991e-03 0.0 
0.0 0.0 -9.668198671257e-04 
-1.059819806392e-03 -3.815720688592e-04 0.0 
-3.815720688592e-04 6.418981492352e-03 0.0 
0.0 0.0 -1.015681523326e-03 
-1.057949721367e-03 -3.770560260125e-04 0.0 
-3.770560260125e-04 6.213345858748e-03 0.0 
0.0 0.0 -9.783260305704e-04 
-1.113690001508e-03 -3.391138449317e-04 0.0 
-3.391138449317e-04 6.662067817752e-03 0.0 
0.0 0.0 -1.044362401637e-03 
-1.108897527401e-03 -3.261874601882e-04 0.0 
-3.261874601882e-04 6.451449547970e-03 0.0 
0.0 0.0 -1.007007767922e-03 
-1.056102434059e-03 -3.617377197121e-04 0.0 
-3.617377197121e-04 6.006353850389e-03 0.0 
0.0 0.0 -9.408676861799e-04 
-1.103510128039e-03 -3.034940289184e-04 0.0 
-3.034940289184e-04 6.238484304806e-03 0.0 
0.0 0.0 -9.695029660748e-04 
-1.052845247082e-03 -3.373861149014e-04 0.0 
-3.373861149014e-04 5.798954310895e-03 0.0 
0.0 0.0 -9.035672079865e-04 
-4.228503435162e-04 2.652797493901e-05 0.0 
2.652797493901e-05 4.498640496550e-03 0.0 
0.0 0.0 -8.309624794500e-04 
-4.884683166150e-04 1.460460655517e-04 0.0 
1.460460655517e-04 4.796700712876e-03 0.0 
0.0 0.0 -8.675775700443e-04 
-5.309148746778e-04 2.225588307319e-05 0.0 
2.225588307319e-05 5.010085131158e-03 0.0 
0.0 0.0 -8.958500940740e-04 
-5.943549435448e-04 1.251718936452e-04 0.0 
1.251718936452e-04 5.302582402065e-03 0.0 
0.0 0.0 -9.325549191312e-04 
-6.382538609797e-04 2.086054713912e-05 0.0 
2.086054713912e-05 5.516155282354e-03 0.0 
0.0 0.0 -9.609176734917e-04 
-7.011603817707e-04 1.101794033340e-04 0.0 
1.101794033340e-04 5.804703043974e-03 0.0 
0.0 0.0 -9.976363410588e-04 
-7.465959866999e-04 2.216834778625e-05 0.0 
2.216834778625e-05 6.016830116331e-03 0.0 
0.0 0.0 -1.026032504441e-03 
-6.923978724816e-04 -6.826398853254e-05 0.0 
-6.826398853254e-05 5.743653636097e-03 0.0 
0.0 0.0 -9.892761093610e-04 
-1.092308246197e-03 4.087334969491e-04 0.0 
4.087334969491e-04 6.601377400440e-03 0.0 
0.0 0.0 -1.018102500310e-03 
-5.675897396992e-05 3.425637172408e-04 0.0 
3.425637172408e-04 2.708861454988e-03 0.0 
0.0 0.0 -6.095594541484e-04 
-6.420114659775e-05 6.151203334216e-04 0.0 
6.151203334216e-04 2.551183745386e-03 0.0 
0.0 0.0 -5.816898710390e-04 
5.441246620249e-05 4.399473863901e-04 0.0 
4.399473863901e-04 2.161774981432e-03 0.0 
0.0 0.0 -5.454521931755e-04 
2.844502818309e-05 7.644395339616e-04 0.0 
7.644395339616e-04 2.024830997844e-03 0.0 
0.0 0.0 -5.176388733440e-04 
1.652901373793e-04 5.705702379394e-04 0.0 
5.705702379394e-04 1.600345183292e-03 0.0 
0.0 0.0 -4.814163979944e-04 
1.130601457631e-04 9.562292981796e-04 0.0 
9.562292981796e-04 1.494895390825e-03 0.0 
0.0 0.0 -4.537165770244e-04 
2.845119300012e-04 7.483953602617e-04 0.0 
7.483953602617e-04 1.019187802654e-03 0.0 
0.0 0.0 -4.208902240644e-04 
2.929325993539e-04 2.620833489363e-04 0.0 
2.620833489363e-04 1.186149753907e-03 0.0 
0.0 0.0 -4.466351565148e-04 
4.659960569609e-04 3.874152989476e-04 0.0 
3.874152989476e-04 5.352766773023e-04 0.0 
0.0 0.0 -3.736376070058e-04 
4.059265982279e-04 -1.758088808093e-04 0.0 
-1.758088808093e-04 8.092916298160e-04 0.0 
0.0 0.0 -4.168446658567e-04 
5.790431118009e-04 -1.610129805314e-04 0.0 
-1.610129805314e-04 1.533127793959e-04 0.0 
0.0 0.0 -3.063790003961e-04 
4.494391646470e-04 -7.152402717994e-04 0.0 
-7.152402717994e-04 5.082279969168e-04 0.0 
0.0 0.0 -3.640020775467e-04 
-8.080190775198e-04 5.920502661192e-04 0.0 
5.920502661192e-04 5.436356176569e-03 0.0 
0.0 0.0 -8.963565068603e-04 
-6.651558879210e-04 2.088271070434e-04 0.0 
2.088271070434e-04 5.603894024499e-03 0.0 
0.0 0.0 -9.691568884624e-04 
-7.699005087498e-04 1.883379167874e-04 0.0 
1.883379167874e-04 6.102423018858e-03 0.0 
0.0 0.0 -1.034312087004e-03 
-7.384024095732e-04 2.760115291154e-04 0.0 
2.760115291154e-04 5.907746579569e-03 0.0 
0.0 0.0 -1.005320805676e-03 
-5.404221803057e-04 -4.187129725138e-04 0.0 
-4.187129725138e-04 2.110154003912e-03 0.0 
0.0 0.0 -3.475522021424e-04 
-1.152888887005e-03 -2.763407572661e-04 0.0 
-2.763407572661e-04 6.681517292358e-03 0.0 
0.0 0.0 -1.035773625862e-03 
-9.326850124499e-04 -3.805734010338e-04 0.0 
-3.805734010338e-04 6.318938914437e-03 0.0 
0.0 0.0 -1.032922975483e-03 
-8.578946226242e-04 -3.814307824260e-04 0.0 
-3.814307824260e-04 6.050788235921e-03 0.0 
0.0 0.0 -1.003739924893e-03 
-8.007230077279e-04 -5.030783828559e-05 0.0 
-5.030783828559e-05 6.244226135644e-03 0.0 
0.0 0.0 -1.054598834243e-03 
-4.941523760955e-04 -2.470231279283e-04 0.0 
-2.470231279283e-04 2.071816915527e-03 0.0 
0.0 0.0 -3.392587823741e-04 
1.975953042673e-04 1.172543779916e-03 0.0 
1.172543779916e-03 9.666654142640e-04 0.0 
0.0 0.0 -3.922431101850e-04 
5.175793587872e-06 1.277837662737e-03 0.0 
1.277837662737e-03 1.466786264722e-03 0.0 
0.0 0.0 -4.261104576107e-04 
-1.152692083578e-03 2.146597661269e-04 0.0 
2.146597661269e-04 6.983288018661e-03 0.0 
0.0 0.0 -1.048874596840e-03 
-1.125979627456e-03 1.800276227316e-04 0.0 
1.800276227316e-04 6.792196765101e-03 0.0 
0.0 0.0 -1.019458214591e-03 
-9.448287362971e-04 -3.295389867260e-04 0.0 
-3.295389867260e-04 6.536387605041e-03 0.0 
0.0 0.0 -1.070157681403e-03 
-5.240293716215e-04 -2.102668930863e-04 0.0 
-2.102668930863e-04 2.277314558376e-03 0.0 
0.0 0.0 -3.675747464493e-04 
-1.063791247498e-03 -3.742192618344e-04 0.0 
-3.742192618344e-04 6.627422368744e-03 0.0 
0.0 0.0 -1.052997445444e-03 
5.558984473440e-04 4.127353325470e-04 0.0 
4.127353325470e-04 1.463881506699e-05 0.0 
0.0 0.0 -2.445159696047e-04 
-1.144117684349e-03 -2.458346103954e-04 0.0 
-2.458346103954e-04 6.462839923362e-03 0.0 
0.0 0.0 -9.982306137915e-04 
-1.191309827109e-03 -2.266694415371e-04 0.0 
-2.266694415371e-04 6.904200660223e-03 0.0 
0.0 0.0 -1.064501221861e-03 
-9.418341400068e-04 -4.830251057162e-04 0.0 
-4.830251057162e-04 5.517520339527e-03 0.0 
0.0 0.0 -8.838659695519e-04 
-8.408929706273e-04 2.533730996691e-04 0.0 
2.533730996691e-04 6.403362100756e-03 0.0 
0.0 0.0 -1.070909199420e-03 
-8.123210735737e-04 3.267258872306e-04 0.0 
3.267258872306e-04 6.208133296915e-03 0.0 
0.0 0.0 -1.041442769611e-03 
2.640974401389e-04 -6.120925406395e-04 0.0 
-6.120925406395e-04 1.170954425306e-03 0.0 
0.0 0.0 -4.384799197683e-04 
2.270076462303e-04 -1.094827319140e-03 0.0 
-1.094827319140e-03 9.810701092341e-04 0.0 
0.0 0.0 -4.046094527367e-04 
3.640551099348e-04 -1.155184556941e-03 0.0 
-1.155184556941e-03 4.131638396833e-04 0.0 
0.0 0.0 -3.139947606995e-04 
1.171979887630e-04 -1.455005939438e-03 0.0 
-1.455005939438e-03 9.453620887615e-04 0.0 
0.0 0.0 -3.763072820036e-04 
2.556371078841e-05 -1.262704422364e-03 0.0 
-1.262704422364e-03 1.454464914390e-03 0.0 
0.0 0.0 -4.289053338950e-04 
-8.947678599683e-05 -1.490768828574e-03 0.0 
-1.490768828574e-03 1.396555812330e-03 0.0 
0.0 0.0 -3.979758726750e-04 
2.329510608106e-05 -1.514078363831e-03 0.0 
-1.514078363831e-03 9.452166061342e-04 0.0 
0.0 0.0 -3.667276109228e-04 
-2.100553572376e-04 -1.558593298157e-03 0.0 
-1.558593298157e-03 1.402552177449e-03 0.0 
0.0 0.0 -3.771854463149e-04 
-2.665534885264e-04 -1.440543195804e-03 0.0 
-1.440543195804e-03 1.828480576306e-03 0.0 
0.0 0.0 -4.192720002935e-04 
-3.858828221178e-04 -1.432331817451e-03 0.0 
-1.432331817451e-03 1.803183213938e-03 0.0 
0.0 0.0 -3.853829593207e-04 
-2.961455271275e-04 -1.398427341996e-03 0.0 
-1.398427341996e-03 1.416563920223e-03 0.0 
0.0 0.0 -3.646163496721e-04 
-4.654616132702e-04 -1.259328861233e-03 0.0 
-1.259328861233e-03 1.764244007017e-03 0.0 
0.0 0.0 -3.558200702016e-04 
-1.201889062818e-03 -2.543911578407e-04 0.0 
-2.543911578407e-04 7.124942193322e-03 0.0 
0.0 0.0 -1.101875158976e-03 
5.412904168970e-04 -8.385322248721e-05 0.0 
-8.385322248721e-05 -1.404456435363e-04 0.0 
0.0 0.0 -1.717906171546e-04 
-9.463800631761e-04 3.860027273263e-04 0.0 
3.860027273263e-04 5.343793686453e-03 0.0 
0.0 0.0 -8.288706041983e-04 
-1.014362980206e-03 -3.321555799501e-04 0.0 
-3.321555799501e-04 6.794335154877e-03 0.0 
0.0 0.0 -1.099012274073e-03 
-8.569045148225e-04 3.078985663283e-05 0.0 
3.078985663283e-05 6.510332221214e-03 0.0 
0.0 0.0 -1.090660416876e-03 
-1.178566600954e-03 2.066846340334e-04 0.0 
2.066846340334e-04 7.236502688045e-03 0.0 
0.0 0.0 -1.085032576515e-03 
-1.153658343620e-03 1.755152393049e-04 0.0 
1.755152393049e-04 7.044914703598e-03 0.0 
0.0 0.0 -1.055603631703e-03 
-1.098678134952e-03 1.564744163133e-04 0.0 
1.564744163133e-04 6.595940529562e-03 0.0 
0.0 0.0 -9.897378988699e-04 
-1.129113373444e-03 1.503482155027e-04 0.0 
1.503482155027e-04 6.853244331223e-03 0.0 
0.0 0.0 -1.026001677571e-03 
-1.181824965340e-03 1.678156779438e-04 0.0 
1.678156779438e-04 7.301020112961e-03 0.0 
0.0 0.0 -1.091942449670e-03 
-1.157557793781e-03 1.434383666525e-04 0.0 
1.434383666525e-04 7.107529686986e-03 0.0 
0.0 0.0 -1.062342898562e-03 
-1.103342207633e-03 1.238709536611e-04 0.0 
1.238709536611e-04 6.657901312686e-03 0.0 
0.0 0.0 -9.962627399151e-04 
-1.130139591936e-03 1.194308116232e-04 0.0 
1.194308116232e-04 6.908298246914e-03 0.0 
0.0 0.0 -1.032646955902e-03 
-1.072650473166e-03 9.941159075290e-05 0.0 
9.941159075290e-05 6.455574140328e-03 0.0 
0.0 0.0 -9.664557332607e-04 
-1.101356119743e-03 9.815565709695e-05 0.0 
9.815565709695e-05 6.706288769856e-03 0.0 
0.0 0.0 -1.002889032254e-03 
-1.155889062888e-03 1.141636426079e-04 0.0 
1.141636426079e-04 7.157664523701e-03 0.0 
0.0 0.0 -1.069134413525e-03 
-1.129364737971e-03 9.069177524751e-05 0.0 
9.069177524751e-05 6.958007176896e-03 0.0 
0.0 0.0 -1.039387411609e-03 
-1.074512864600e-03 8.003659807365e-05 0.0 
8.003659807365e-05 6.506063569350e-03 0.0 
0.0 0.0 -9.730575354659e-04 
-1.102505706781e-03 6.895302199807e-05 0.0 
6.895302199807e-05 6.755927681467e-03 0.0 
0.0 0.0 -1.009574527126e-03 
-1.046730538131e-03 5.947738879001e-05 0.0 
5.947738879001e-05 6.301429284161e-03 0.0 
0.0 0.0 -9.431603702596e-04 
-1.071542509842e-03 4.629020306893e-05 0.0 
4.629020306893e-05 6.545497453892e-03 0.0 
0.0 0.0 -9.796061197752e-04 
-1.128792209327e-03 6.597728227981e-05 0.0 
6.597728227981e-05 7.006220652052e-03 0.0 
0.0 0.0 -1.046101832713e-03 
-4.073418969283e-04 -1.607374412238e-04 0.0 
-1.607374412238e-04 1.828608037656e-03 0.0 
0.0 0.0 -3.035957800550e-04 
-7.554826328512e-04 -1.381735686785e-04 0.0 
-1.381735686785e-04 5.982792301535e-03 0.0 
0.0 0.0 -1.017732614895e-03 
-8.650297313857e-04 -1.043541426240e-04 0.0 
-1.043541426240e-04 6.483758424389e-03 0.0 
0.0 0.0 -1.083831836677e-03 
-7.928232165852e-04 -3.175969841458e-04 0.0 
-3.175969841458e-04 3.652484692606e-03 0.0 
0.0 0.0 -5.671321338944e-04 
-8.566347672055e-04 -3.217821912401e-04 0.0 
-3.217821912401e-04 4.048954472777e-03 0.0 
0.0 0.0 -6.325382687906e-04 
-8.804918361104e-04 -3.627202257711e-04 0.0 
-3.627202257711e-04 4.282181100263e-03 0.0 
0.0 0.0 -6.695659616924e-04 
-9.177573047804e-04 -2.924538415403e-04 0.0 
-2.924538415403e-04 4.507721826303e-03 0.0 
0.0 0.0 -6.986863204145e-04 
-1.099135465243e-03 4.357947276918e-05 0.0 
4.357947276918e-05 6.797671672464e-03 0.0 
0.0 0.0 -1.015477767897e-03 
-1.160436245727e-03 6.544078644588e-05 0.0 
6.544078644588e-05 7.256684604588e-03 0.0 
0.0 0.0 -1.082739357160e-03 
7.036319334209e-05 1.449833710054e-03 0.0 
1.449833710054e-03 1.011168072104e-03 0.0 
0.0 0.0 -3.730214571323e-04 
-1.313033917885e-04 1.466714958247e-03 0.0 
1.466714958247e-03 1.502828426790e-03 0.0 
0.0 0.0 -4.032920832132e-04 
-1.202425520628e-03 2.413601229435e-04 0.0 
2.413601229435e-04 7.423802842249e-03 0.0 
0.0 0.0 -1.114382729655e-03 
-1.180850422310e-03 -1.936004808914e-04 0.0 
-1.936004808914e-04 6.684429122052e-03 0.0 
0.0 0.0 -1.027045364000e-03 
-1.134320678585e-03 -2.084199271041e-04 0.0 
-2.084199271041e-04 6.243084428302e-03 0.0 
0.0 0.0 -9.609938998495e-04 
-5.952582294012e-04 8.316068584819e-04 0.0 
8.316068584819e-04 3.858437738170e-03 0.0 
0.0 0.0 -6.721935305596e-04 
-6.370100935664e-04 8.121723615139e-04 0.0 
8.121723615139e-04 3.769953827514e-03 0.0 
0.0 0.0 -6.449639573754e-04 
-5.665659749616e-04 8.991854182347e-04 0.0 
8.991854182347e-04 3.453268816289e-03 0.0 
0.0 0.0 -6.093131083769e-04 
-6.122481697245e-04 8.584550154617e-04 0.0 
8.584550154617e-04 3.367517643807e-03 0.0 
0.0 0.0 -5.812298138028e-04 
-6.717347223774e-04 7.671538527367e-04 0.0 
7.671538527367e-04 3.680324616707e-03 0.0 
0.0 0.0 -6.173664885638e-04 
-5.474862438506e-04 9.567364556164e-04 0.0 
9.567364556164e-04 3.048590303343e-03 0.0 
0.0 0.0 -5.448148816535e-04 
-7.720267330795e-04 -4.449545656596e-04 0.0 
-4.449545656596e-04 5.565922562376e-03 0.0 
0.0 0.0 -9.373051277721e-04 
-1.182206612194e-03 1.041005248131e-04 0.0 
1.041005248131e-04 7.409010778114e-03 0.0 
0.0 0.0 -1.105708206284e-03 
-5.928875136439e-04 -5.713513742364e-04 0.0 
-5.713513742364e-04 2.330327898660e-03 0.0 
0.0 0.0 -3.852871208612e-04 
-5.197872744909e-04 -4.881912543796e-04 0.0 
-4.881912543796e-04 1.906337896852e-03 0.0 
0.0 0.0 -3.193625892355e-04 
-1.227873719132e-03 -1.791865956722e-04 0.0 
-1.791865956722e-04 7.126040838435e-03 0.0 
0.0 0.0 -1.093300181677e-03 
-6.499802166189e-04 -1.689058959396e-04 0.0 
-1.689058959396e-04 5.481207367019e-03 0.0 
0.0 0.0 -9.522822042369e-04 
-8.770180670307e-04 5.584319225786e-04 0.0 
5.584319225786e-04 5.741150606381e-03 0.0 
0.0 0.0 -9.319735432435e-04 
-8.671724403427e-04 5.454834419887e-04 0.0 
5.454834419887e-04 5.872286509418e-03 0.0 
0.0 0.0 -9.598347391831e-04 
-9.359860302395e-04 5.226295226197e-04 0.0 
5.226295226197e-04 6.177406845640e-03 0.0 
0.0 0.0 -9.957130113267e-04 
-9.320971335610e-04 5.080083978468e-04 0.0 
5.080083978468e-04 6.315456934145e-03 0.0 
0.0 0.0 -1.023751803962e-03 
-1.000869956237e-03 4.939881751637e-04 0.0 
4.939881751637e-04 6.620841154437e-03 0.0 
0.0 0.0 -1.059873349132e-03 
-1.004419613008e-03 4.777529205192e-04 0.0 
4.777529205192e-04 6.763876066662e-03 0.0 
0.0 0.0 -1.087854580038e-03 
-9.336137141730e-04 4.809338762962e-04 0.0 
4.809338762962e-04 6.463526298401e-03 0.0 
0.0 0.0 -1.051791170495e-03 
-9.097029887622e-04 3.089094526998e-04 0.0 
3.089094526998e-04 6.700162919637e-03 0.0 
0.0 0.0 -1.107463318235e-03 
-1.013980886497e-03 4.491053628713e-04 0.0 
4.491053628713e-04 6.922381498406e-03 0.0 
0.0 0.0 -1.115916943430e-03 
-1.033295848304e-03 4.860531472176e-05 0.0 
4.860531472176e-05 6.321432505072e-03 0.0 
0.0 0.0 -9.487150400336e-04 
-6.387227248277e-04 3.148916192941e-04 0.0 
3.148916192941e-04 5.411845409225e-03 0.0 
0.0 0.0 -9.398448712237e-04 
-3.958753706079e-04 -1.306941406373e-03 0.0 
-1.306941406373e-03 2.210168825673e-03 0.0 
0.0 0.0 -4.474652294669e-04 
-3.867396229061e-04 -1.939364425131e-04 0.0 
-1.939364425131e-04 1.612473113241e-03 0.0 
0.0 0.0 -2.752498982733e-04 
-3.548792531294e-04 -1.099906862766e-03 0.0 
-1.099906862766e-03 1.383653509656e-03 0.0 
0.0 0.0 -3.352047878591e-04 
-4.486846026636e-04 -1.253624941077e-04 0.0 
-1.253624941077e-04 2.009661496099e-03 0.0 
0.0 0.0 -3.299748606085e-04 
-5.597023421830e-04 -1.650736869684e-04 0.0 
-1.650736869684e-04 2.479203026553e-03 0.0 
0.0 0.0 -3.961554456411e-04 
-1.033444219732e-03 -2.887128519644e-04 0.0 
-2.887128519644e-04 7.020027445513e-03 0.0 
0.0 0.0 -1.136360603439e-03 
-1.072616243485e-03 4.757105308921e-04 0.0 
4.757105308921e-04 7.071175993343e-03 0.0 
0.0 0.0 -1.124065295910e-03 
-1.065195527322e-03 4.849349100928e-04 0.0 
4.849349100928e-04 6.917548798149e-03 0.0 
0.0 0.0 -1.095615423988e-03 
-6.465811726499e-04 7.943118945265e-04 0.0 
7.943118945265e-04 3.291375737462e-03 0.0 
0.0 0.0 -5.539799138139e-04 
-6.949762395585e-04 6.852387151617e-04 0.0 
6.852387151617e-04 3.583300335040e-03 0.0 
0.0 0.0 -5.905304635153e-04 
-9.409548518096e-04 2.363101942403e-04 0.0 
2.363101942403e-04 6.893498553700e-03 0.0 
0.0 0.0 -1.136278651916e-03 
-1.031330535355e-03 1.691125997159e-04 0.0 
1.691125997159e-04 6.096244556870e-03 0.0 
0.0 0.0 -9.177848451843e-04 
-1.043451867895e-03 1.026605375003e-04 0.0 
1.026605375003e-04 6.207052540714e-03 0.0 
0.0 0.0 -9.302130594432e-04 
-1.010991519056e-03 8.266817185374e-05 0.0 
8.266817185374e-05 5.998028369178e-03 0.0 
0.0 0.0 -9.001900590098e-04 
-3.040782914078e-04 -1.048978576797e-04 0.0 
-1.048978576797e-04 1.479833111238e-03 0.0 
0.0 0.0 -2.595221258752e-04 
-1.668157979825e-04 -1.176981615551e-03 0.0 
-1.176981615551e-03 1.066881825257e-03 0.0 
0.0 0.0 -3.546314877250e-04 
-1.207894844135e-03 1.612820959581e-04 0.0 
1.612820959581e-04 7.555800088084e-03 0.0 
0.0 0.0 -1.128363834889e-03 
-1.496144498695e-04 1.267178183608e-03 0.0 
1.267178183608e-03 1.924933515505e-03 0.0 
0.0 0.0 -4.615872697407e-04 
-2.777481430259e-04 1.364720531140e-03 0.0 
1.364720531140e-03 1.941765323137e-03 0.0 
0.0 0.0 -4.342639779644e-04 
4.034334735409e-04 2.445431345025e-04 0.0 
2.445431345025e-04 -9.041096436294e-05 0.0 
0.0 0.0 -1.341525039334e-04 
2.051377463425e-04 -1.961701048020e-05 0.0 
-1.961701048020e-05 -5.720414671563e-05 0.0 
0.0 0.0 -6.340011412580e-05 
-1.121483383227e-03 6.295637452115e-05 0.0 
6.295637452115e-05 7.029111019756e-03 0.0 
0.0 0.0 -1.051814883004e-03 
-1.177494848702e-03 6.582362175726e-05 0.0 
6.582362175726e-05 7.492557943411e-03 0.0 
0.0 0.0 -1.117859435171e-03 
-9.333898311745e-04 -3.509792996749e-04 0.0 
-3.509792996749e-04 4.719089492349e-03 0.0 
0.0 0.0 -7.356929296387e-04 
-9.785857666390e-04 -2.860980495383e-04 0.0 
-2.860980495383e-04 4.943354100410e-03 0.0 
0.0 0.0 -7.648299719236e-04 
-9.654424262213e-04 -2.714537898239e-04 0.0 
-2.714537898239e-04 6.765873836397e-03 0.0 
0.0 0.0 -1.107558395918e-03 
-5.027897087658e-04 -9.882385644824e-04 0.0 
-9.882385644824e-04 1.682465534830e-03 0.0 
0.0 0.0 -3.185922720913e-04 
-1.207361177183e-03 7.219593573452e-05 0.0 
7.219593573452e-05 7.710745314262e-03 0.0 
0.0 0.0 -1.149181664990e-03 
-7.221207359935e-04 -2.319743394949e-04 0.0 
-2.319743394949e-04 5.736084564024e-03 0.0 
0.0 0.0 -9.807908033776e-04 
-6.199444920269e-04 -2.803458900383e-04 0.0 
-2.803458900383e-04 5.234294253432e-03 0.0 
0.0 0.0 -9.152404036620e-04 
-8.850179884087e-04 -2.107315013722e-04 0.0 
-2.107315013722e-04 4.277220058387e-03 0.0 
0.0 0.0 -6.604623333687e-04 
-7.131176054971e-05 1.522786260440e-03 0.0 
1.522786260440e-03 1.128166094303e-03 0.0 
0.0 0.0 -3.722456989795e-04 
1.506124378874e-04 1.353289082485e-03 0.0 
1.353289082485e-03 6.471948717885e-04 0.0 
0.0 0.0 -3.185609919049e-04 
-2.939037762269e-04 -1.257650241065e-03 0.0 
-1.257650241065e-03 2.275247472139e-03 0.0 
0.0 0.0 -4.845585894574e-04 
-5.488065046231e-04 -1.067445958774e-03 0.0 
-1.067445958774e-03 2.060865836395e-03 0.0 
0.0 0.0 -3.723415964733e-04 
-4.888098213751e-04 -1.052003350203e-04 0.0 
-1.052003350203e-04 2.216308377581e-03 0.0 
0.0 0.0 -3.583452993329e-04 
-1.062272686561e-03 -2.298804836140e-04 0.0 
-2.298804836140e-04 7.251651551201e-03 0.0 
0.0 0.0 -1.173829981771e-03 
-1.227876715994e-03 1.893009349700e-04 0.0 
1.893009349700e-04 7.743204952100e-03 0.0 
0.0 0.0 -1.157575248917e-03 
-9.423902529627e-04 4.304393189543e-04 0.0 
4.304393189543e-04 6.620906454591e-03 0.0 
0.0 0.0 -1.080172819833e-03 
-8.612685947681e-04 4.776509476654e-04 0.0 
4.776509476654e-04 6.154589150170e-03 0.0 
0.0 0.0 -1.015677837919e-03 
-1.022115058251e-03 4.070298504517e-04 0.0 
4.070298504517e-04 7.083428986968e-03 0.0 
0.0 0.0 -1.144955025780e-03 
-3.834899570330e-04 -7.958142673473e-04 0.0 
-7.958142673473e-04 1.299084562353e-03 0.0 
0.0 0.0 -2.798534577099e-04 
-1.102214544351e-03 -3.027150081502e-04 0.0 
-3.027150081502e-04 7.282068807861e-03 0.0 
0.0 0.0 -1.165794428787e-03 
-1.216895343866e-03 -1.441675384032e-04 0.0 
-1.441675384032e-04 6.902897395280e-03 0.0 
0.0 0.0 -1.056136825731e-03 
-1.138941837453e-03 4.914289706325e-04 0.0 
4.914289706325e-04 7.351648623001e-03 0.0 
0.0 0.0 -1.157598467365e-03 
-1.123764904198e-03 4.819548128218e-04 0.0 
4.819548128218e-04 7.209866110785e-03 0.0 
0.0 0.0 -1.131219827106e-03 
-2.809946016527e-04 1.203335788346e-03 0.0 
1.203335788346e-03 2.340542833527e-03 0.0 
0.0 0.0 -4.968499830348e-04 
-3.877477755505e-04 1.221962387701e-03 0.0 
1.221962387701e-03 2.338693931197e-03 0.0 
0.0 0.0 -4.705806478706e-04 
-4.036150361409e-04 1.336476693924e-03 0.0 
1.336476693924e-03 1.977592500610e-03 0.0 
0.0 0.0 -4.078257031896e-04 
-4.816859073884e-04 1.176560530353e-03 0.0 
1.176560530353e-03 2.343460801890e-03 0.0 
0.0 0.0 -4.438024830152e-04 
-9.732353814622e-04 3.041939387352e-04 0.0 
3.041939387352e-04 5.448266059909e-03 0.0 
0.0 0.0 -8.361670615232e-04 
-3.925437291381e-04 1.104523798212e-03 0.0 
1.104523798212e-03 2.729748532404e-03 0.0 
0.0 0.0 -5.333915535664e-04 
-9.057439282626e-04 4.261225243385e-04 0.0 
4.261225243385e-04 5.077306138642e-03 0.0 
0.0 0.0 -7.939299641313e-04 
-8.975208378586e-04 3.720025570421e-04 0.0 
3.720025570421e-04 4.930717473606e-03 0.0 
0.0 0.0 -7.665196690739e-04 
-8.600171473097e-04 4.161603871668e-04 0.0 
4.161603871668e-04 4.671461707836e-03 0.0 
0.0 0.0 -7.319524942586e-04 
-7.253516315596e-04 6.727829162625e-04 0.0 
6.727829162625e-04 3.972513731187e-03 0.0 
0.0 0.0 -6.527873785750e-04 
-7.385699352999e-04 5.948696391935e-04 0.0 
5.948696391935e-04 3.862508165088e-03 0.0 
0.0 0.0 -6.261871041946e-04 
-1.081656769382e-04 8.687696267767e-04 0.0 
8.687696267767e-04 2.439613486548e-03 0.0 
0.0 0.0 -5.534964465553e-04 
-4.602867709727e-04 2.826245204948e-04 0.0 
2.826245204948e-04 4.601098480980e-03 0.0 
0.0 0.0 -8.390310526140e-04 
-8.925257354332e-04 -4.271097572203e-04 0.0 
-4.271097572203e-04 4.492522403458e-03 0.0 
0.0 0.0 -7.069621042110e-04 
-1.002856146604e-03 -4.033307783673e-04 0.0 
-4.033307783673e-04 5.565178736137e-03 0.0 
0.0 0.0 -8.751042800696e-04 
-7.003078251289e-04 -5.958729416123e-04 0.0 
-5.958729416123e-04 4.895224615458e-03 0.0 
0.0 0.0 -8.350146568664e-04 
-1.207341521713e-03 1.295685592876e-04 0.0 
1.295685592876e-04 7.603516284320e-03 0.0 
0.0 0.0 -1.135109731873e-03 
-1.234147304705e-03 1.158810138817e-04 0.0 
1.158810138817e-04 7.860000857238e-03 0.0 
0.0 0.0 -1.171938512032e-03 
-1.015895156183e-03 6.930194114772e-05 0.0 
6.930194114772e-05 6.052013455342e-03 0.0 
0.0 0.0 -9.065739516476e-04 
-9.767996699331e-04 4.467953763507e-05 0.0 
4.467953763507e-05 5.838511550894e-03 0.0 
0.0 0.0 -8.764137937918e-04 
-4.392150575772e-04 -3.259674398810e-04 0.0 
-3.259674398810e-04 1.665337581441e-03 0.0 
0.0 0.0 -2.813159824896e-04 
-4.247097810398e-04 -3.644747280315e-04 0.0 
-3.644747280315e-04 1.471773465299e-03 0.0 
0.0 0.0 -2.533966087790e-04 
-8.177306416292e-04 -6.121829702514e-04 0.0 
-6.121829702514e-04 4.811548278672e-03 0.0 
0.0 0.0 -7.894497706086e-04 
-1.082360538362e-03 -3.264662476232e-04 0.0 
-3.264662476232e-04 7.048376439915e-03 0.0 
0.0 0.0 -1.127529358476e-03 
-1.227748397910e-03 2.361030321983e-04 0.0 
2.361030321983e-04 7.672982991330e-03 0.0 
0.0 0.0 -1.150095860580e-03 
-1.249888144017e-03 2.671434152154e-04 0.0 
2.671434152154e-04 7.859407510661e-03 0.0 
0.0 0.0 -1.179372829571e-03 
-1.222973776595e-03 2.761414432265e-04 0.0 
2.761414432265e-04 7.603174812567e-03 0.0 
0.0 0.0 -1.143369325256e-03 
-9.935045909858e-04 -2.028359368237e-04 0.0 
-2.028359368237e-04 6.995967624477e-03 0.0 
0.0 0.0 -1.144273392007e-03 
3.495269992969e-05 1.197649878409e-04 0.0 
1.197649878409e-04 2.359795329880e-03 0.0 
0.0 0.0 -5.733740095480e-04 
-4.781962153862e-04 -1.012252719499e-04 0.0 
-1.012252719499e-04 4.730438814657e-03 0.0 
0.0 0.0 -8.590966742019e-04 
3.810975112987e-04 -3.002206319640e-04 0.0 
-3.002206319640e-04 -7.297745490903e-05 0.0 
0.0 0.0 -1.320514527384e-04 
-7.161621287090e-04 5.841402981115e-04 0.0 
5.841402981115e-04 5.248781673340e-03 0.0 
0.0 0.0 -8.884627649733e-04 
-3.115080858313e-04 -2.227975807547e-04 0.0 
-2.227975807547e-04 1.202076532669e-03 0.0 
0.0 0.0 -2.162536877156e-04 
-1.055053453560e-03 4.626735760724e-04 0.0 
4.626735760724e-04 6.476326574185e-03 0.0 
0.0 0.0 -1.010319580236e-03 
-1.255576380871e-03 -1.315357551102e-04 0.0 
-1.315357551102e-04 7.338059588025e-03 0.0 
0.0 0.0 -1.122815839103e-03 
-1.267850494462e-03 -1.674624135979e-04 0.0 
-1.674624135979e-04 7.563446267715e-03 0.0 
0.0 0.0 -1.159213750608e-03 
-1.010702044889e-03 2.850279828007e-04 0.0 
2.850279828007e-04 7.183997457293e-03 0.0 
0.0 0.0 -1.171959308352e-03 
-8.963384137737e-04 2.488891316052e-04 0.0 
2.488891316052e-04 4.875662042004e-03 0.0 
0.0 0.0 -7.470952864203e-04 
-7.058007902936e-04 5.271243929450e-04 0.0 
5.271243929450e-04 5.385179954600e-03 0.0 
0.0 0.0 -9.162722660995e-04 
-6.228080214073e-04 5.120192170004e-04 0.0 
5.120192170004e-04 5.067178617559e-03 0.0 
0.0 0.0 -8.808726170640e-04 
-8.477370711112e-04 3.577431200157e-04 0.0 
3.577431200157e-04 4.525141676784e-03 0.0 
0.0 0.0 -7.048691535495e-04 
-8.132640120407e-04 4.004719993994e-04 0.0 
4.004719993994e-04 4.272493314920e-03 0.0 
0.0 0.0 -6.707530558731e-04 
-8.209482996094e-04 4.682329320479e-04 0.0 
4.682329320479e-04 4.408754927634e-03 0.0 
0.0 0.0 -6.972958566626e-04 
-7.782280701881e-04 4.523325447572e-04 0.0 
4.523325447572e-04 4.016412533301e-03 0.0 
0.0 0.0 -6.359606378414e-04 
-4.177281549139e-04 -1.168672558867e-03 0.0 
-1.168672558867e-03 2.631942087578e-03 0.0 
0.0 0.0 -5.122594947013e-04 
-4.962383683680e-04 -1.157174554661e-03 0.0 
-1.157174554661e-03 2.541178569243e-03 0.0 
0.0 0.0 -4.750188804659e-04 
-1.154021499096e-03 4.782775772644e-04 0.0 
4.782775772644e-04 7.573815285751e-03 0.0 
0.0 0.0 -1.192042136895e-03 
-1.094464537807e-03 4.618413052259e-04 0.0 
4.618413052259e-04 7.386095086857e-03 0.0 
0.0 0.0 -1.178660172201e-03 
-1.187593002781e-03 4.811019602591e-04 0.0 
4.811019602591e-04 7.655964388501e-03 0.0 
0.0 0.0 -1.193029175878e-03 
-1.163263876641e-03 4.785864187479e-04 0.0 
4.785864187479e-04 7.511604884733e-03 0.0 
0.0 0.0 -1.168165168231e-03 
-1.037083014282e-03 2.184072236099e-04 0.0 
2.184072236099e-04 7.374910845912e-03 0.0 
0.0 0.0 -1.200910491468e-03 
-9.753553652922e-04 1.640389574658e-04 0.0 
1.640389574658e-04 7.090218753853e-03 0.0 
0.0 0.0 -1.164168769488e-03 
-6.028560444752e-04 -1.360178339637e-04 0.0 
-1.360178339637e-04 2.675687027615e-03 0.0 
0.0 0.0 -4.227350873389e-04 
-7.047203305141e-04 5.847954661015e-04 0.0 
5.847954661015e-04 3.476801185836e-03 0.0 
0.0 0.0 -5.646260317871e-04 
-1.245127779796e-03 1.777850177793e-04 0.0 
1.777850177793e-04 7.993741479566e-03 0.0 
0.0 0.0 -1.194151889699e-03 
-8.817872830960e-04 3.208786017712e-04 0.0 
3.208786017712e-04 4.774377627364e-03 0.0 
0.0 0.0 -7.390869131010e-04 
-1.164936831278e-03 -3.113795227657e-04 0.0 
-3.113795227657e-04 7.515893028419e-03 0.0 
0.0 0.0 -1.192835421428e-03 
-1.142129895980e-03 -3.204237901470e-04 0.0 
-3.204237901470e-04 7.305220282504e-03 0.0 
0.0 0.0 -1.156047193884e-03 
8.143997684988e-05 -5.632529459351e-05 0.0 
-5.632529459351e-05 -1.764449114255e-05 0.0 
0.0 0.0 -2.734092244600e-05 
2.721987346519e-04 -4.520014711284e-04 0.0 
-4.520014711284e-04 1.905810524669e-05 0.0 
0.0 0.0 -1.248243599565e-04 
-1.231567197499e-03 6.211834964842e-05 0.0 
6.211834964842e-05 7.963702026826e-03 0.0 
0.0 0.0 -1.184588873336e-03 
-5.000595373901e-04 1.204680535621e-03 0.0 
1.204680535621e-03 1.991465428866e-03 0.0 
0.0 0.0 -3.811925308841e-04 
-5.489936022904e-04 1.042785009975e-03 0.0 
1.042785009975e-03 2.300834123338e-03 0.0 
0.0 0.0 -4.158690271831e-04 
-3.842703009259e-04 1.346678098862e-03 0.0 
1.346678098862e-03 1.633275420512e-03 0.0 
0.0 0.0 -3.660215567096e-04 
-1.330527207980e-03 -3.853221662851e-05 0.0 
-3.853221662851e-05 8.239463133450e-03 0.0 
0.0 0.0 -1.258310293365e-03 
-8.465756460554e-04 5.727197951410e-07 0.0 
5.727197951410e-07 4.947192301730e-03 0.0 
0.0 0.0 -7.479256703001e-04 
-1.285435156603e-03 -1.236167483815e-04 0.0 
-1.236167483815e-04 7.770617594905e-03 0.0 
0.0 0.0 -1.189418985649e-03 
-7.744068399611e-04 5.950771192320e-04 0.0 
5.950771192320e-04 4.259141188703e-03 0.0 
0.0 0.0 -6.884682336192e-04 
-1.252365039908e-03 8.497968466371e-05 0.0 
8.497968466371e-05 8.173452803744e-03 0.0 
0.0 0.0 -1.216510697198e-03 
-7.049683277386e-04 4.524468991294e-04 0.0 
4.524468991294e-04 5.539667182357e-03 0.0 
0.0 0.0 -9.449116413281e-04 
-5.109301527551e-04 9.153066593930e-04 0.0 
9.153066593930e-04 3.518995939107e-03 0.0 
0.0 0.0 -6.353966017694e-04 
-8.973844045661e-04 -2.448816665564e-04 0.0 
-2.448816665564e-04 6.506541659943e-03 0.0 
0.0 0.0 -1.078177493492e-03 
-1.200545941931e-03 2.302554044874e-05 0.0 
2.302554044874e-05 7.723131628604e-03 0.0 
0.0 0.0 -1.149140729088e-03 
-1.267685038875e-03 6.016813044477e-05 0.0 
6.016813044477e-05 8.228074956414e-03 0.0 
0.0 0.0 -1.221625961084e-03 
-9.734656256453e-04 9.189307336811e-05 0.0 
9.189307336811e-05 5.749626761027e-03 0.0 
0.0 0.0 -8.638707813346e-04 
-9.480895872449e-04 4.301450456172e-05 0.0 
4.301450456172e-05 5.516146053233e-03 0.0 
0.0 0.0 -8.327709333130e-04 
-1.011335939965e-03 1.092245285963e-04 0.0 
1.092245285963e-04 5.940162525294e-03 0.0 
0.0 0.0 -8.925140200429e-04 
4.463857562194e-04 7.689358174209e-04 0.0 
7.689358174209e-04 8.096987600889e-05 0.0 
0.0 0.0 -2.260095566693e-04 
2.840813490605e-04 4.390350068277e-04 0.0 
4.390350068277e-04 7.817808705327e-06 0.0 
0.0 0.0 -1.250996390425e-04 
-1.210084270230e-03 9.714327804011e-05 0.0 
9.714327804011e-05 7.658599637129e-03 0.0 
0.0 0.0 -1.142090266074e-03 
-7.141279186037e-04 -2.802255352289e-04 0.0 
-2.802255352289e-04 3.181146952729e-03 0.0 
0.0 0.0 -5.006138788623e-04 
-7.694336124780e-04 -2.009358515531e-04 0.0 
-2.009358515531e-04 3.447879024720e-03 0.0 
0.0 0.0 -5.359218444892e-04 
-5.552155606093e-04 -8.313172136283e-04 0.0 
-8.313172136283e-04 1.917610481523e-03 0.0 
0.0 0.0 -3.334096804080e-04 
-5.855222745600e-04 -8.890134040167e-04 0.0 
-8.890134040167e-04 2.304658271308e-03 0.0 
0.0 0.0 -3.985542937016e-04 
-9.453814008689e-04 -4.031453143009e-04 0.0 
-4.031453143009e-04 4.927324523234e-03 0.0 
0.0 0.0 -7.728092966600e-04 
-8.970888917955e-04 -4.820738487373e-04 0.0 
-4.820738487373e-04 4.692923205728e-03 0.0 
0.0 0.0 -7.441750962829e-04 
-1.057585005233e-03 4.777756013197e-04 0.0 
4.777756013197e-04 6.625238408207e-03 0.0 
0.0 0.0 -1.038692069610e-03 
-1.108626014693e-03 4.632490588969e-04 0.0 
4.632490588969e-04 6.908491944325e-03 0.0 
0.0 0.0 -1.074129358999e-03 
-9.418242035971e-04 5.272068290834e-04 0.0 
5.272068290834e-04 6.041038675917e-03 0.0 
0.0 0.0 -9.675620497173e-04 
-6.990392591995e-04 -3.338931181341e-04 0.0 
-3.338931181341e-04 5.500989544803e-03 0.0 
0.0 0.0 -9.439558448496e-04 
-6.028432506679e-04 -3.974427061355e-04 0.0 
-3.974427061355e-04 5.004524485729e-03 0.0 
0.0 0.0 -8.783802297791e-04 
-5.183067816985e-04 -3.360734288677e-04 0.0 
-3.360734288677e-04 4.731806317453e-03 0.0 
0.0 0.0 -8.502765121185e-04 
-1.259796436841e-03 1.397569485309e-04 0.0 
1.397569485309e-04 8.039016122005e-03 0.0 
0.0 0.0 -1.199867006878e-03 
-1.287397602500e-03 1.387283529904e-04 0.0 
1.387283529904e-04 8.359284824254e-03 0.0 
0.0 0.0 -1.242728214876e-03 
-3.379919536494e-04 -1.097545305898e-03 0.0 
-1.097545305898e-03 2.729711593676e-03 0.0 
0.0 0.0 -5.488632449009e-04 
-2.035001513821e-04 -1.112025139158e-03 0.0 
-1.112025139158e-03 2.365560687545e-03 0.0 
0.0 0.0 -5.212126360957e-04 
-5.194133645792e-04 -1.055659007126e-03 0.0 
-1.055659007126e-03 2.949517889644e-03 0.0 
0.0 0.0 -5.390128571062e-04 
-1.267707936259e-03 2.118212896833e-04 0.0 
2.118212896833e-04 8.185373915988e-03 0.0 
0.0 0.0 -1.223056365294e-03 
-1.302765377273e-03 -1.484462634259e-04 0.0 
-1.484462634259e-04 8.004925592989e-03 0.0 
0.0 0.0 -1.224004481682e-03 
-1.287300987604e-03 -2.136982349667e-04 0.0 
-2.136982349667e-04 7.780826338296e-03 0.0 
0.0 0.0 -1.195820777905e-03 
-2.832529258607e-04 -2.494591043419e-04 0.0 
-2.494591043419e-04 1.024201089409e-03 0.0 
0.0 0.0 -1.882176919714e-04 
-3.969707252897e-04 -4.311951738694e-04 0.0 
-4.311951738694e-04 1.271754487823e-03 0.0 
0.0 0.0 -2.310783895037e-04 
2.054226679739e-05 1.347833966380e-03 0.0 
1.347833966380e-03 8.186709947017e-04 0.0 
0.0 0.0 -3.411234323309e-04 
1.823631015032e-04 1.033435563719e-03 0.0 
1.033435563719e-03 3.956751210192e-04 0.0 
0.0 0.0 -2.477306667953e-04 
-1.268592166038e-03 3.040791407146e-04 0.0 
3.040791407146e-04 8.023493563003e-03 0.0 
0.0 0.0 -1.207258722210e-03 
-1.243812686443e-03 3.149820227485e-04 0.0 
3.149820227485e-04 7.787606541598e-03 0.0 
0.0 0.0 -1.172631524865e-03 
-1.292321070540e-03 2.959466161544e-04 0.0 
2.959466161544e-04 8.333939565192e-03 0.0 
0.0 0.0 -1.247471551777e-03 
-5.223015362984e-04 -5.966006200107e-05 0.0 
-5.966006200107e-05 2.388783331191e-03 0.0 
0.0 0.0 -3.801539159394e-04 
-8.682373190693e-04 4.316445998786e-04 0.0 
4.316445998786e-04 6.315487464641e-03 0.0 
0.0 0.0 -1.045322365442e-03 
-1.095327153402e-03 -1.697306701960e-04 0.0 
-1.697306701960e-04 7.466737774382e-03 0.0 
0.0 0.0 -1.207899217314e-03 
-1.032573115176e-03 -1.219439203281e-04 0.0 
-1.219439203281e-04 7.241482983967e-03 0.0 
0.0 0.0 -1.178012378629e-03 
-1.169146255923e-03 -2.121713741949e-04 0.0 
-2.121713741949e-04 7.798947947966e-03 0.0 
0.0 0.0 -1.244624083072e-03 
-9.796999613362e-04 3.385511052295e-04 0.0 
3.385511052295e-04 6.990100956638e-03 0.0 
0.0 0.0 -1.142102124289e-03 
-1.089777783011e-03 3.180765990224e-04 0.0 
3.180765990224e-04 7.453415741070e-03 0.0 
0.0 0.0 -1.205428683694e-03 
-1.118930099946e-03 4.102866827850e-04 0.0 
4.102866827850e-04 7.540265907261e-03 0.0 
0.0 0.0 -1.209323031234e-03 
7.629343076429e-06 -2.863199915616e-06 0.0 
-2.863199915616e-06 -2.105112574007e-06 0.0 
0.0 0.0 -2.367527358181e-06 
-1.243581183883e-03 1.333985162286e-05 0.0 
1.333985162286e-05 8.050404267198e-03 0.0 
0.0 0.0 -1.199992767657e-03 
-9.467227888159e-04 4.157282563709e-05 0.0 
4.157282563709e-05 5.565131892238e-03 0.0 
0.0 0.0 -8.371571859873e-04 
0.0 0.0 0.0 
0.0 0.0 0.0 
0.0 0.0 0.0 
-9.052370495583e-04 2.926470670919e-05 0.0 
2.926470670919e-05 5.359734394624e-03 0.0 
0.0 0.0 -8.070151920887e-04 
-9.464808288455e-04 2.890706983172e-05 0.0 
2.890706983172e-05 5.631422995547e-03 0.0 
0.0 0.0 -8.451615393777e-04 
-8.746039380960e-04 1.411235588614e-05 0.0 
1.411235588614e-05 5.099179134377e-03 0.0 
0.0 0.0 -7.748096441827e-04 
-4.043228169997e-04 -4.987598217760e-05 0.0 
-4.987598217760e-05 1.919858664121e-03 0.0 
0.0 0.0 -3.155299188714e-04 
-9.342623020306e-04 6.996522255594e-05 0.0 
6.996522255594e-05 5.399295489727e-03 0.0 
0.0 0.0 -8.174106193842e-04 
-9.784066260017e-04 9.518359088927e-05 0.0 
9.518359088927e-05 5.690330335138e-03 0.0 
0.0 0.0 -8.556612431672e-04 
-1.892819975809e-04 -2.080284296464e-04 0.0 
-2.080284296464e-04 7.178215811464e-04 0.0 
0.0 0.0 -1.471067669042e-04 
-1.288411893385e-03 2.088493887645e-04 0.0 
2.088493887645e-04 8.418681062039e-03 0.0 
0.0 0.0 -1.259301554906e-03 
-1.756794603790e-04 -1.355890425743e-04 0.0 
-1.355890425743e-04 7.416554994657e-04 0.0 
0.0 0.0 -1.555489432776e-04 
-1.976593762146e-04 -1.418821488879e-04 0.0 
-1.418821488879e-04 9.406849208869e-04 0.0 
0.0 0.0 -1.806578101979e-04 
-1.201046689643e-03 -2.954808681697e-04 0.0 
-2.954808681697e-04 7.775612660441e-03 0.0 
0.0 0.0 -1.221214701962e-03 
-1.189783866574e-03 -3.147730725178e-04 0.0 
-3.147730725178e-04 7.544251850061e-03 0.0 
0.0 0.0 -1.184344882880e-03 
-1.255201532556e-03 -3.138077392023e-04 0.0 
-3.138077392023e-04 7.995797572139e-03 0.0 
0.0 0.0 -1.247726601234e-03 
-1.240131757912e-03 -2.854581707310e-04 0.0 
-2.854581707310e-04 7.755129215709e-03 0.0 
0.0 0.0 -1.211018817991e-03 
-1.178065560448e-03 -3.176973578615e-04 0.0 
-3.176973578615e-04 7.320283461016e-03 0.0 
0.0 0.0 -1.147066289601e-03 
-1.222397278732e-03 -2.815307542264e-04 0.0 
-2.815307542264e-04 7.565615913449e-03 0.0 
0.0 0.0 -1.176490610025e-03 
-9.163713044728e-04 2.842739858528e-05 0.0 
2.842739858528e-05 5.314561917383e-03 0.0 
0.0 0.0 -7.985989294648e-04 
-1.274574997316e-03 -2.683950520862e-04 0.0 
-2.683950520862e-04 8.060277687178e-03 0.0 
0.0 0.0 -1.249018369598e-03 
-1.258852476870e-03 -2.546999081133e-04 0.0 
-2.546999081133e-04 7.798203538470e-03 0.0 
0.0 0.0 -1.207442871744e-03 
-1.315317272271e-03 -2.575611195837e-04 0.0 
-2.575611195837e-04 8.330215412111e-03 0.0 
0.0 0.0 -1.277927415301e-03 
-7.668426714387e-04 3.712502045957e-04 0.0 
3.712502045957e-04 3.884910929190e-03 0.0 
0.0 0.0 -6.108003466767e-04 
-5.473421814769e-04 1.022591756988e-03 0.0 
1.022591756988e-03 2.665785403795e-03 0.0 
0.0 0.0 -4.789358348571e-04 
-5.922456647504e-04 8.887242813561e-04 0.0 
8.887242813561e-04 2.596399578783e-03 0.0 
0.0 0.0 -4.527251363391e-04 
-5.808013297698e-04 8.699366696317e-04 0.0 
8.699366696317e-04 2.240670147384e-03 0.0 
0.0 0.0 -3.875663759467e-04 
-1.238412356123e-03 4.984956173527e-04 0.0 
4.984956173527e-04 8.013994811476e-03 0.0 
0.0 0.0 -1.240180566941e-03 
-1.214337546906e-03 4.975640446935e-04 0.0 
4.975640446935e-04 7.772501925276e-03 0.0 
0.0 0.0 -1.200590015451e-03 
-1.243705293709e-03 -9.256877991256e-05 0.0 
-9.256877991256e-05 7.122808590461e-03 0.0 
0.0 0.0 -1.087555896896e-03 
-1.202734584511e-03 -9.601844950182e-05 0.0 
-9.601844950182e-05 6.680089324953e-03 0.0 
0.0 0.0 -1.020738973070e-03 
-9.185583597048e-04 2.613338660199e-05 0.0 
2.613338660199e-05 5.392223531156e-03 0.0 
0.0 0.0 -8.108182148135e-04 
-9.103297472006e-04 4.766877897124e-06 0.0 
4.766877897124e-06 5.361690236980e-03 0.0 
0.0 0.0 -8.077352941366e-04 
-9.704696328324e-04 5.332193735867e-05 0.0 
5.332193735867e-05 5.783610110985e-03 0.0 
0.0 0.0 -8.678526801547e-04 
-9.618865758326e-04 7.689592341134e-06 0.0 
7.689592341134e-06 5.712312077429e-03 0.0 
0.0 0.0 -8.609153521579e-04 
-1.020016484653e-03 5.295869978670e-05 0.0 
5.295869978670e-05 6.152608316973e-03 0.0 
0.0 0.0 -9.200517378055e-04 
-1.001436562516e-03 -1.946934861067e-08 0.0 
-1.946934861067e-08 6.084870222159e-03 0.0 
0.0 0.0 -9.108947733944e-04 
-1.057814937538e-03 -6.724482469216e-06 0.0 
-6.724482469216e-06 6.510312548520e-03 0.0 
0.0 0.0 -9.726914458129e-04 
-1.190361938599e-03 4.676934084708e-04 0.0 
4.676934084708e-04 7.866637693242e-03 0.0 
0.0 0.0 -1.245087786853e-03 
-4.581667400111e-04 1.150309043721e-03 0.0 
1.150309043721e-03 1.644170079222e-03 0.0 
0.0 0.0 -3.403956918982e-04 
-8.293555136529e-04 2.952524372658e-04 0.0 
2.952524372658e-04 4.373371002006e-03 0.0 
0.0 0.0 -6.783069842581e-04 
-1.085846180975e-03 1.458307871503e-04 0.0 
1.458307871503e-04 7.572950528203e-03 0.0 
0.0 0.0 -1.228261380050e-03 
-1.024461005777e-03 9.563818815218e-05 0.0 
9.563818815218e-05 7.266751936821e-03 0.0 
0.0 0.0 -1.187396807988e-03 
-7.405303751490e-04 5.124973243675e-04 0.0 
5.124973243675e-04 3.741532766096e-03 0.0 
0.0 0.0 -6.000944487132e-04 
-7.031319460548e-04 4.876864875037e-04 0.0 
4.876864875037e-04 3.366473116495e-03 0.0 
0.0 0.0 -5.401620014017e-04 
-1.203049851257e-03 -2.728203523462e-04 0.0 
-2.728203523462e-04 7.833657430654e-03 0.0 
0.0 0.0 -1.238794375355e-03 
-3.075916606640e-04 1.045868666668e-03 0.0 
1.045868666668e-03 2.766977509803e-03 0.0 
0.0 0.0 -5.600314934590e-04 
-1.321820784768e-03 2.376560243328e-04 0.0 
2.376560243328e-04 8.684022372100e-03 0.0 
0.0 0.0 -1.295459716840e-03 
1.477011241759e-06 4.358298770143e-06 0.0 
4.358298770143e-06 8.908916257865e-07 0.0 
0.0 0.0 -1.014815514662e-06 
5.703109316316e-05 8.792005076422e-05 0.0 
8.792005076422e-05 -2.011421540019e-08 0.0 
0.0 0.0 -2.443327669190e-05 
-4.154706477079e-04 9.854771448034e-04 0.0 
9.854771448034e-04 3.145205208474e-03 0.0 
0.0 0.0 -5.969207367497e-04 
-7.802351733359e-04 5.259462622456e-04 0.0 
5.259462622456e-04 4.139237033551e-03 0.0 
0.0 0.0 -6.620222007989e-04 
-5.930037626935e-04 8.942073818617e-04 0.0 
8.942073818617e-04 2.971985586365e-03 0.0 
0.0 0.0 -5.157319100482e-04 
-6.206001126179e-04 7.748692012147e-04 0.0 
7.748692012147e-04 2.918912415158e-03 0.0 
0.0 0.0 -4.917183783407e-04 
-7.966812031951e-04 -2.794519072728e-04 0.0 
-2.794519072728e-04 6.003025537970e-03 0.0 
0.0 0.0 -1.010552660601e-03 
-3.204615651146e-04 -4.841454347256e-04 0.0 
-4.841454347256e-04 1.065843889916e-03 0.0 
0.0 0.0 -2.207468123314e-04 
-1.976838392314e-04 1.419132631860e-03 0.0 
1.419132631860e-03 1.245736136353e-03 0.0 
0.0 0.0 -3.729799092550e-04 
-1.062224956052e-03 6.282474994029e-05 0.0 
6.282474994029e-05 6.566502947635e-03 0.0 
0.0 0.0 -9.796923013958e-04 
-9.725104983260e-05 1.193422917781e-03 0.0 
1.193422917781e-03 9.454912755048e-04 0.0 
0.0 0.0 -3.472462715210e-04 
-1.226995326804e-03 -4.519473023836e-05 0.0 
-4.519473023836e-05 6.918120984331e-03 0.0 
0.0 0.0 -1.055800198362e-03 
-2.361841982036e-04 9.051937591691e-04 0.0 
9.051937591691e-04 2.839450438954e-03 0.0 
0.0 0.0 -5.891999696964e-04 
-7.588500349801e-04 6.513356924725e-04 0.0 
6.513356924725e-04 4.370877970735e-03 0.0 
0.0 0.0 -7.153500975001e-04 
-2.731612567135e-04 1.485424847436e-03 0.0 
1.485424847436e-03 1.576968026293e-03 0.0 
0.0 0.0 -3.843598907912e-04 
-4.773970402082e-04 1.083331247294e-03 0.0 
1.083331247294e-03 2.715302459171e-03 0.0 
0.0 0.0 -5.080103017801e-04 
-9.857070044825e-04 3.514582932795e-04 0.0 
3.514582932795e-04 5.605984683384e-03 0.0 
0.0 0.0 -8.638580894607e-04 
-9.566672598969e-04 2.556664326387e-04 0.0 
2.556664326387e-04 5.284930257865e-03 0.0 
0.0 0.0 -8.086477316853e-04 
-9.204142732436e-04 2.914181473186e-04 0.0 
2.914181473186e-04 5.036403952363e-03 0.0 
0.0 0.0 -7.738406155293e-04 
-1.852699916538e-04 7.169474657993e-04 0.0 
7.169474657993e-04 2.938478129515e-03 0.0 
0.0 0.0 -6.178822433291e-04 
-6.660603751627e-04 6.775511204911e-04 0.0 
6.775511204911e-04 3.201224465995e-03 0.0 
0.0 0.0 -5.288330985435e-04 
-6.329538447596e-04 6.262438341605e-04 0.0 
6.262438341605e-04 2.783574178796e-03 0.0 
0.0 0.0 -4.617239487405e-04 
-9.084122990405e-04 4.766608561051e-04 0.0 
4.766608561051e-04 5.217677913222e-03 0.0 
0.0 0.0 -8.213029907542e-04 
-1.196636206004e-03 2.937722451120e-04 0.0 
2.937722451120e-04 7.346814907567e-03 0.0 
0.0 0.0 -1.107475121065e-03 
-1.218143538823e-03 3.322225839887e-04 0.0 
3.322225839887e-04 7.523071285648e-03 0.0 
0.0 0.0 -1.136341617999e-03 
-1.260255205402e-03 3.483848197279e-04 0.0 
3.483848197279e-04 7.943523748013e-03 0.0 
0.0 0.0 -1.199268560344e-03 
-1.236398534658e-03 3.622286970254e-04 0.0 
3.622286970254e-04 7.698663143048e-03 0.0 
0.0 0.0 -1.164598082371e-03 
-1.187519623503e-03 3.369788044843e-04 0.0 
3.369788044843e-04 7.262535120341e-03 0.0 
0.0 0.0 -1.100413285504e-03 
-1.201927894883e-03 3.622228794556e-04 0.0 
3.622228794556e-04 7.428935513365e-03 0.0 
0.0 0.0 -1.129075729544e-03 
-1.251749756802e-03 4.013558701664e-04 0.0 
4.013558701664e-04 7.861186353057e-03 0.0 
0.0 0.0 -1.193594387005e-03 
-1.212961772203e-03 4.013424172495e-04 0.0 
4.013424172495e-04 7.607641408015e-03 0.0 
0.0 0.0 -1.159256375294e-03 
-1.275748773412e-03 4.170784326894e-04 0.0 
4.170784326894e-04 8.123816889762e-03 0.0 
0.0 0.0 -1.234286862126e-03 
-1.231663961214e-03 4.170891063283e-04 0.0 
4.170891063283e-04 7.767346293695e-03 0.0 
0.0 0.0 -1.187309181180e-03 
-1.180167111311e-03 4.146130725523e-04 0.0 
4.146130725523e-04 7.319280806481e-03 0.0 
0.0 0.0 -1.120864512401e-03 
-1.199520853126e-03 4.394329503130e-04 0.0 
4.394329503130e-04 7.469647570104e-03 0.0 
0.0 0.0 -1.147759711419e-03 
-1.246114513889e-03 4.512851502766e-04 0.0 
4.512851502766e-04 7.897003429628e-03 0.0 
0.0 0.0 -1.207767947030e-03 
-1.142819753357e-03 4.230226692438e-04 0.0 
4.230226692438e-04 7.034885546341e-03 0.0 
0.0 0.0 -1.082593982084e-03 
-1.161095070267e-03 2.120867803638e-04 0.0 
2.120867803638e-04 7.844111974654e-03 0.0 
0.0 0.0 -1.264544343569e-03 
-4.552882566461e-04 8.672081112126e-04 0.0 
8.672081112126e-04 3.584015933420e-03 0.0 
0.0 0.0 -6.621140475474e-04 
8.972285469528e-05 5.488704469766e-05 0.0 
5.488704469766e-05 -2.086067995893e-05 0.0 
0.0 0.0 -2.951236060129e-05 
1.917573457574e-04 3.907910126935e-04 0.0 
3.907910126935e-04 4.076022718459e-05 0.0 
0.0 0.0 -9.965038840371e-05 
-8.122559684108e-04 5.858127476170e-04 0.0 
5.858127476170e-04 4.660958103986e-03 0.0 
0.0 0.0 -7.509174086159e-04 
-1.326294875917e-03 4.475525367279e-04 0.0 
4.475525367279e-04 8.581090605175e-03 0.0 
0.0 0.0 -1.299806302097e-03 
-1.329372981724e-03 3.864120920022e-04 0.0 
3.864120920022e-04 8.651254845127e-03 0.0 
0.0 0.0 -1.301753673823e-03 
-4.221749795590e-05 1.054957827846e-03 0.0 
1.054957827846e-03 1.947401467081e-03 0.0 
0.0 0.0 -4.895692906686e-04 
-1.300820539860e-03 5.169294240401e-04 0.0 
5.169294240401e-04 8.431520987084e-03 0.0 
0.0 0.0 -1.303413959896e-03 
-9.359328158381e-04 3.353086376080e-04 0.0 
3.353086376080e-04 5.191229383814e-03 0.0 
0.0 0.0 -8.012154088905e-04 
4.071496828873e-04 9.026633654341e-04 0.0 
9.026633654341e-04 4.347728874957e-04 0.0 
0.0 0.0 -3.242207140944e-04 
-1.286592464162e-03 4.887471459282e-04 0.0 
4.887471459282e-04 8.354700830031e-03 0.0 
0.0 0.0 -1.304286792737e-03 
-1.166816141077e-03 3.067295782393e-04 0.0 
3.067295782393e-04 7.086165986606e-03 0.0 
0.0 0.0 -1.071440646998e-03 
-1.135318690764e-03 3.102645881689e-04 0.0 
3.102645881689e-04 6.820307156207e-03 0.0 
0.0 0.0 -1.034857077839e-03 
-1.114281868751e-03 2.783252876259e-04 0.0 
2.783252876259e-04 6.647188393663e-03 0.0 
0.0 0.0 -1.006057961993e-03 
-1.324485485700e-03 3.178425552296e-04 0.0 
3.178425552296e-04 8.703712057522e-03 0.0 
0.0 0.0 -1.305867370806e-03 
-1.046143216171e-03 1.338104735178e-04 0.0 
1.338104735178e-04 6.142970752386e-03 0.0 
0.0 0.0 -9.232948652302e-04 
-1.261216399776e-03 3.398370476000e-04 0.0 
3.398370476000e-04 8.240407625413e-03 0.0 
0.0 0.0 -1.306016332489e-03 
-5.621352130883e-04 2.402614077322e-04 0.0 
2.402614077322e-04 5.104076155106e-03 0.0 
0.0 0.0 -9.039903713831e-04 
-5.421821752565e-04 3.626261890118e-04 0.0 
3.626261890118e-04 4.916919296443e-03 0.0 
0.0 0.0 -8.747633066757e-04 
-4.482553543368e-04 4.245528232913e-04 0.0 
4.245528232913e-04 4.423341595392e-03 0.0 
0.0 0.0 -8.101682821885e-04 
-1.166183845535e-03 3.746000758126e-04 0.0 
3.746000758126e-04 7.154603019155e-03 0.0 
0.0 0.0 -1.092245366321e-03 
-1.243382207926e-03 7.139344382452e-05 0.0 
7.139344382452e-05 8.142027759390e-03 0.0 
0.0 0.0 -1.302677999426e-03 
-1.139163622892e-03 1.899260328228e-05 0.0 
1.899260328228e-05 7.738811355617e-03 0.0 
0.0 0.0 -1.248400714067e-03 
-1.139179700515e-03 -5.832838074802e-05 0.0 
-5.832838074802e-05 7.742835606473e-03 0.0 
0.0 0.0 -1.248426544684e-03 
-1.042171814045e-03 -2.067620167567e-05 0.0 
-2.067620167567e-05 7.300450465494e-03 0.0 
0.0 0.0 -1.189114855724e-03 
-1.245046049368e-03 -7.954937012982e-05 0.0 
-7.954937012982e-05 8.162015620032e-03 0.0 
0.0 0.0 -1.303398793257e-03 
-1.319024606982e-03 4.879947495646e-04 0.0 
4.879947495646e-04 8.553889678550e-03 0.0 
0.0 0.0 -1.306665994082e-03 
-1.318629781647e-03 5.032233232110e-04 0.0 
5.032233232110e-04 8.531113616169e-03 0.0 
0.0 0.0 -1.308500709484e-03 
-1.457969009565e-04 -1.297624687323e-03 0.0 
-1.297624687323e-03 1.878942347425e-03 0.0 
0.0 0.0 -4.564773689951e-04 
-5.360535394487e-05 -1.060749340558e-03 0.0 
-1.060749340558e-03 1.980128638088e-03 0.0 
0.0 0.0 -4.934415926888e-04 
-1.381226460422e-04 -8.991719374826e-04 0.0 
-8.991719374826e-04 2.497431923997e-03 0.0 
0.0 0.0 -5.576035839405e-04 
-3.423707423489e-07 -7.630300989339e-04 0.0 
-7.630300989339e-04 2.133066083266e-03 0.0 
0.0 0.0 -5.298816096007e-04 
1.060874476646e-04 -9.079592115861e-04 0.0 
-9.079592115861e-04 1.571356760192e-03 0.0 
0.0 0.0 -4.652367627802e-04 
1.299766153745e-04 -5.238021949006e-04 0.0 
-5.238021949006e-04 1.775343023360e-03 0.0 
0.0 0.0 -5.016361848483e-04 
8.113068861590e-06 -4.523118756860e-04 0.0 
-4.523118756860e-04 2.346566463626e-03 0.0 
0.0 0.0 -5.657331850765e-04 
2.333464364560e-04 -1.778074880060e-04 0.0 
-1.778074880060e-04 1.448473809503e-03 0.0 
0.0 0.0 -4.731795164401e-04 
-1.159968055748e-03 4.654058109210e-04 0.0 
4.654058109210e-04 7.343744264572e-03 0.0 
0.0 0.0 -1.138512926666e-03 
-1.264954689887e-03 -1.904964022353e-04 0.0 
-1.904964022353e-04 8.221334432808e-03 0.0 
0.0 0.0 -1.305779161548e-03 
-7.747711705181e-04 -5.121765711313e-04 0.0 
-5.121765711313e-04 5.367910934867e-03 0.0 
0.0 0.0 -9.007942405787e-04 
-6.889420890608e-04 -5.209139520464e-04 0.0 
-5.209139520464e-04 5.083313389568e-03 0.0 
0.0 0.0 -8.713600568839e-04 
-6.090575816933e-04 -6.078858301865e-04 0.0 
-6.078858301865e-04 4.604339507385e-03 0.0 
0.0 0.0 -8.059887332522e-04 
-8.449920134059e-04 -5.153788440303e-04 0.0 
-5.153788440303e-04 4.260095117302e-03 0.0 
0.0 0.0 -6.781883600425e-04 
-8.428803748540e-04 -5.674043660998e-04 0.0 
-5.674043660998e-04 4.450165882994e-03 0.0 
0.0 0.0 -7.153987595530e-04 
-8.942422948913e-04 -5.207798333702e-04 0.0 
-5.207798333702e-04 4.885926297656e-03 0.0 
0.0 0.0 -7.812419408864e-04 
-8.377845004557e-04 -4.501363391243e-04 0.0 
-4.501363391243e-04 4.061067246097e-03 0.0 
0.0 0.0 -6.407943132712e-04 
-8.608991234260e-04 5.183985589951e-04 0.0 
5.183985589951e-04 6.008926334250e-03 0.0 
0.0 0.0 -9.876394229526e-04 
-1.270638922106e-03 -2.525883056993e-04 0.0 
-2.525883056993e-04 8.245623635122e-03 0.0 
0.0 0.0 -1.305003056577e-03 
-5.449120924268e-04 -2.038340280130e-04 0.0 
-2.038340280130e-04 4.976604129178e-03 0.0 
0.0 0.0 -8.871663004355e-04 
-7.828155216857e-04 -6.575282962370e-04 0.0 
-6.575282962370e-04 4.196243675374e-03 0.0 
0.0 0.0 -6.865966444657e-04 
-8.908351355140e-04 9.702867664421e-05 0.0 
9.702867664421e-05 4.953510345307e-03 0.0 
0.0 0.0 -7.516786372745e-04 
-9.428178873818e-04 1.510891929034e-04 0.0 
1.510891929034e-04 5.341754956276e-03 0.0 
0.0 0.0 -8.094822736869e-04 
-9.489012184647e-04 1.441944320473e-04 0.0 
1.441944320473e-04 5.346848053026e-03 0.0 
0.0 0.0 -8.097394517040e-04 
-9.928370876702e-04 1.565528389037e-04 0.0 
1.565528389037e-04 5.757287346966e-03 0.0 
0.0 0.0 -8.733121467894e-04 
-9.420662265250e-04 8.672453308222e-05 0.0 
8.672453308222e-05 5.390349708032e-03 0.0 
0.0 0.0 -8.155917408702e-04 
-9.920889169566e-04 -3.299549002211e-04 0.0 
-3.299549002211e-04 5.156290872581e-03 0.0 
0.0 0.0 -8.015266587451e-04 
-1.034393455446e-03 -2.593382357018e-04 0.0 
-2.593382357018e-04 5.377589720533e-03 0.0 
0.0 0.0 -8.302790088839e-04 
-1.016724768056e-03 -2.052940986145e-04 0.0 
-2.052940986145e-04 5.161883654298e-03 0.0 
0.0 0.0 -7.937858958383e-04 
-1.069749204098e-03 -1.931193338339e-04 0.0 
-1.931193338339e-04 5.589690211797e-03 0.0 
0.0 0.0 -8.590670690980e-04 
-1.045250008444e-03 -1.524643402440e-04 0.0 
-1.524643402440e-04 5.354709247412e-03 0.0 
0.0 0.0 -8.213578559547e-04 
-9.891061891856e-04 -1.661511418362e-04 0.0 
-1.661511418362e-04 4.952759689804e-03 0.0 
0.0 0.0 -7.608744282309e-04 
-1.097326614700e-03 -1.343981642378e-04 0.0 
-1.343981642378e-04 5.787368511626e-03 0.0 
0.0 0.0 -8.866101721103e-04 
-1.072266853954e-03 -7.465649989587e-05 0.0 
-7.465649989587e-05 5.530930704335e-03 0.0 
0.0 0.0 -8.437388122980e-04 
-8.749604405334e-04 5.210753762548e-05 0.0 
5.210753762548e-05 4.958547900325e-03 0.0 
0.0 0.0 -7.509531518293e-04 
2.931250951271e-05 -1.468193730782e-04 0.0 
-1.468193730782e-04 5.197092075325e-05 0.0 
0.0 0.0 -3.483575582827e-05 
8.911840808784e-05 -5.611142441010e-04 0.0 
-5.611142441010e-04 2.292660682549e-04 0.0 
0.0 0.0 -1.364504898612e-04 
-1.613477578931e-05 -6.217163821683e-04 0.0 
-6.217163821683e-04 4.356228314527e-04 0.0 
0.0 0.0 -1.797805952843e-04 
7.026081585524e-05 -9.442279566568e-04 0.0 
-9.442279566568e-04 4.994486354165e-04 0.0 
0.0 0.0 -2.441611934022e-04 
2.189035585349e-04 -7.936262830972e-04 0.0 
-7.936262830972e-04 2.241675290565e-04 0.0 
0.0 0.0 -1.898876089678e-04 
1.395294056137e-04 -1.221624346892e-03 0.0 
-1.221624346892e-03 5.704290544817e-04 0.0 
0.0 0.0 -3.042679114694e-04 
3.315217795862e-04 -9.867447375553e-04 0.0 
-9.867447375553e-04 2.187882668786e-04 0.0 
0.0 0.0 -2.358471627707e-04 
1.282773509924e-04 -3.069727312294e-04 0.0 
-3.069727312294e-04 5.087018620754e-05 0.0 
0.0 0.0 -7.677751594282e-05 
7.207324065744e-06 -2.363709633052e-04 0.0 
-2.363709633052e-04 2.192194981731e-04 0.0 
0.0 0.0 -7.709394943614e-05 
-1.151589919320e-04 -5.038932235898e-04 0.0 
-5.038932235898e-04 5.668379900610e-04 0.0 
0.0 0.0 -1.836804426236e-04 
6.886756343239e-05 -1.585111183501e-04 0.0 
-1.585111183501e-04 2.318919381609e-04 0.0 
0.0 0.0 -9.135678087991e-05 
-1.673787199121e-04 -3.772506028182e-04 0.0 
-3.772506028182e-04 6.235391984471e-04 0.0 
0.0 0.0 -1.587652100407e-04 
-2.237013217840e-04 -7.835370290226e-04 0.0 
-7.835370290226e-04 9.699234306887e-04 0.0 
0.0 0.0 -2.864776706126e-04 
-5.080022175142e-04 -5.846720249242e-04 0.0 
-5.846720249242e-04 1.713553650264e-03 0.0 
0.0 0.0 -2.934437995798e-04 
-1.342924257900e-03 -1.540329825018e-04 0.0 
-1.540329825018e-04 8.463979425849e-03 0.0 
0.0 0.0 -1.294874803588e-03 
-9.061604714287e-04 -5.353468138170e-05 0.0 
-5.353468138170e-05 4.292677537748e-03 0.0 
0.0 0.0 -6.595503360071e-04 
-8.748353904416e-04 -9.535674848835e-05 0.0 
-9.535674848835e-05 4.090451847143e-03 0.0 
0.0 0.0 -6.264797819744e-04 
-7.893986596546e-04 -8.988273420556e-05 0.0 
-8.988273420556e-05 3.635662269298e-03 0.0 
0.0 0.0 -5.641716646261e-04 
-8.342340843015e-04 -1.796315714393e-04 0.0 
-1.796315714393e-04 3.876399492582e-03 0.0 
0.0 0.0 -5.974662984275e-04 
-9.399601535283e-04 -9.182592719562e-05 0.0 
-9.182592719562e-05 4.459086163681e-03 0.0 
0.0 0.0 -6.865721209800e-04 
-7.450408717977e-04 -3.664071909045e-05 0.0 
-3.664071909045e-05 3.403705623677e-03 0.0 
0.0 0.0 -5.286920563404e-04 
-7.105002771536e-04 -7.510162605901e-05 0.0 
-7.510162605901e-05 3.252942810076e-03 0.0 
0.0 0.0 -5.038291843518e-04 
2.269617952537e-04 -4.679297531140e-06 0.0 
-4.679297531140e-06 2.031304943507e-04 0.0 
0.0 0.0 -1.081843495454e-04 
-2.992668304113e-05 -2.428217344695e-05 0.0 
-2.428217344695e-05 6.247499294921e-04 0.0 
0.0 0.0 -1.462425310096e-04 
1.120520427135e-05 2.490769659488e-05 0.0 
2.490769659488e-05 5.748679317617e-04 0.0 
0.0 0.0 -1.469788961115e-04 
-1.839676854865e-04 -1.370350569834e-05 0.0 
-1.370350569834e-05 1.050348992839e-03 0.0 
0.0 0.0 -1.976702944042e-04 
-1.665493073749e-04 -4.078238753771e-05 0.0 
-4.078238753771e-05 1.038427513794e-03 0.0 
0.0 0.0 -1.960684762570e-04 
-2.740272711721e-05 -1.675532894322e-05 0.0 
-1.675532894322e-05 6.301608269895e-04 0.0 
0.0 0.0 -1.451566722079e-04 
-4.295295916181e-05 -1.396627582879e-05 0.0 
-1.396627582879e-05 6.314478061460e-04 0.0 
0.0 0.0 -1.432903851643e-04 
2.178107760258e-04 -4.669961674357e-06 0.0 
-4.669961674357e-06 1.968060237393e-04 0.0 
0.0 0.0 -1.026933745538e-04 
-6.199861096773e-05 -4.121287758313e-05 0.0 
-4.121287758313e-05 6.332661626784e-04 0.0 
0.0 0.0 -1.376693440338e-04 
-1.958490001476e-04 -5.849411118292e-05 0.0 
-5.849411118292e-05 1.056235548644e-03 0.0 
0.0 0.0 -1.994574706984e-04 
2.194500295117e-04 -1.953547163157e-05 0.0 
-1.953547163157e-05 1.758186835889e-04 0.0 
0.0 0.0 -9.526841721624e-05 
-1.134405852345e-03 -1.685214623059e-05 0.0 
-1.685214623059e-05 7.114171974622e-03 0.0 
0.0 0.0 -1.060427308513e-03 
-1.169096287658e-03 2.563616812788e-06 0.0 
2.563616812788e-06 7.355225522955e-03 0.0 
0.0 0.0 -1.097082233180e-03 
-1.287656187300e-03 -3.057563853945e-04 0.0 
-3.057563853945e-04 8.295106043806e-03 0.0 
0.0 0.0 -1.300897016293e-03 
-8.709102074234e-04 1.634655957137e-05 0.0 
1.634655957137e-05 5.013561359335e-03 0.0 
0.0 0.0 -7.584009903415e-04 
6.085248323127e-05 -7.529385077948e-05 0.0 
-7.529385077948e-05 2.498450074273e-04 0.0 
0.0 0.0 -6.778662807071e-05 
-1.318321890589e-03 9.119227365237e-05 0.0 
9.119227365237e-05 8.702564910127e-03 0.0 
0.0 0.0 -1.292107529982e-03 
-1.321891599576e-03 1.523434658018e-04 0.0 
1.523434658018e-04 8.753789560532e-03 0.0 
0.0 0.0 -1.303172775453e-03 
-1.317386328466e-03 1.502744807486e-04 0.0 
1.502744807486e-04 8.760593080467e-03 0.0 
0.0 0.0 -1.304823151597e-03 
-1.303300137320e-03 -3.518320858820e-05 0.0 
-3.518320858820e-05 7.809809152570e-03 0.0 
0.0 0.0 -1.191058493115e-03 
-1.309915312802e-03 -8.055064126037e-05 0.0 
-8.055064126037e-05 8.016669059363e-03 0.0 
0.0 0.0 -1.224322658093e-03 
-1.321803447330e-03 5.837335499168e-05 0.0 
5.837335499168e-05 8.713282635678e-03 0.0 
0.0 0.0 -1.294569364341e-03 
-6.481855202900e-04 -6.246003181782e-04 0.0 
-6.246003181782e-04 2.746907491681e-03 0.0 
0.0 0.0 -4.512809064328e-04 
-1.269733092336e-03 3.949450849478e-04 0.0 
3.949450849478e-04 8.134082373248e-03 0.0 
0.0 0.0 -1.225740639889e-03 
-1.236917440076e-03 9.455704594097e-05 0.0 
9.455704594097e-05 7.907876475173e-03 0.0 
0.0 0.0 -1.178628832109e-03 
2.863499120991e-04 1.225469476951e-03 0.0 
1.225469476951e-03 5.011020420815e-04 0.0 
0.0 0.0 -3.087973448475e-04 
-5.572892816396e-04 -1.058232484237e-03 0.0 
-1.058232484237e-03 2.439571083886e-03 0.0 
0.0 0.0 -4.373623857420e-04 
-1.169344627949e-03 -1.527368028486e-04 0.0 
-1.527368028486e-04 6.463252890075e-03 0.0 
0.0 0.0 -9.899674718230e-04 
-1.002156622739e-03 -4.217657770794e-04 0.0 
-4.217657770794e-04 5.766816978775e-03 0.0 
0.0 0.0 -9.123979313600e-04 
-1.240362622181e-03 -2.107518773901e-04 0.0 
-2.107518773901e-04 7.344433125846e-03 0.0 
0.0 0.0 -1.130390451587e-03 
-1.097029052933e-03 -2.727822285369e-04 0.0 
-2.727822285369e-04 6.025349028311e-03 0.0 
0.0 0.0 -9.322225209316e-04 
-1.160816713283e-03 -2.966491095374e-04 0.0 
-2.966491095374e-04 6.897592609693e-03 0.0 
0.0 0.0 -1.073123358692e-03 
-1.146188823319e-03 -9.619145093431e-05 0.0 
-9.619145093431e-05 7.734668514319e-03 0.0 
0.0 0.0 -1.244129926109e-03 
-3.611510593238e-04 -8.758097138839e-05 0.0 
-8.758097138839e-05 1.751553404855e-03 0.0 
0.0 0.0 -2.939217362394e-04 
-1.042524547902e-03 8.542519018607e-05 0.0 
8.542519018607e-05 6.249309917826e-03 0.0 
0.0 0.0 -9.364826870394e-04 
-1.011646579925e-03 4.950052888461e-05 0.0 
4.950052888461e-05 6.088183350352e-03 0.0 
0.0 0.0 -9.130351872960e-04 
-1.156492778501e-03 8.389467150956e-05 0.0 
8.389467150956e-05 7.209321502601e-03 0.0 
0.0 0.0 -1.075939795031e-03 
-6.797233321873e-04 -3.445526981405e-04 0.0 
-3.445526981405e-04 2.970604433142e-03 0.0 
0.0 0.0 -4.709579147287e-04 
-9.579355913964e-04 -2.329193078104e-04 0.0 
-2.329193078104e-04 4.740187249377e-03 0.0 
0.0 0.0 -7.304257169629e-04 
-4.699094320929e-04 -2.864685390476e-04 0.0 
-2.864685390476e-04 1.870719163436e-03 0.0 
0.0 0.0 -3.104331955072e-04 
-1.225720132749e-03 4.922764523725e-04 0.0 
4.922764523725e-04 8.004298524687e-03 0.0 
0.0 0.0 -1.251461238623e-03 
-8.642142966185e-04 4.736706847914e-04 0.0 
4.736706847914e-04 4.810262753378e-03 0.0 
0.0 0.0 -7.590395520047e-04 
-6.299061308779e-04 -6.905248015396e-04 0.0 
-6.905248015396e-04 4.426299320179e-03 0.0 
0.0 0.0 -7.694287042311e-04 
-7.912081179997e-04 -5.380011954616e-04 0.0 
-5.380011954616e-04 3.827422774339e-03 0.0 
0.0 0.0 -6.120242822960e-04 
-6.551443874445e-04 -7.576014874881e-04 0.0 
-7.576014874881e-04 2.929641818478e-03 0.0 
0.0 0.0 -4.894362539292e-04 
-4.890802463817e-04 -1.241731719978e-03 0.0 
-1.241731719978e-03 2.147525315431e-03 0.0 
0.0 0.0 -4.100935076628e-04 
-5.488809187293e-04 8.195138113053e-04 0.0 
8.195138113053e-04 3.940420057434e-03 0.0 
0.0 0.0 -6.990242139688e-04 
-7.645737241242e-04 -6.835179970588e-04 0.0 
-6.835179970588e-04 4.369038504805e-03 0.0 
0.0 0.0 -7.237531747479e-04 
-9.990166317683e-04 -3.989427530334e-04 0.0 
-3.989427530334e-04 6.371965153356e-03 0.0 
0.0 0.0 -1.024340108609e-03 
-1.185317591363e-03 7.742475138516e-05 0.0 
7.742475138516e-05 7.460446495103e-03 0.0 
0.0 0.0 -1.112552678551e-03 
1.197712392318e-04 -3.148981806786e-05 0.0 
-3.148981806786e-05 2.711258731277e-04 0.0 
0.0 0.0 -9.959518537181e-05 
-1.003340353985e-03 -3.675015482303e-04 0.0 
-3.675015482303e-04 6.579336743889e-03 0.0 
0.0 0.0 -1.061672265243e-03 
-8.749171253014e-04 -5.429443966133e-04 0.0 
-5.429443966133e-04 5.259260617559e-03 0.0 
0.0 0.0 -8.552253422611e-04 
-1.075058534600e-03 1.329625948637e-04 0.0 
1.329625948637e-04 6.404878824914e-03 0.0 
0.0 0.0 -9.599091010803e-04 
-8.098069298724e-04 1.009136731454e-04 0.0 
1.009136731454e-04 6.303475721426e-03 0.0 
0.0 0.0 -1.062640036239e-03 
-7.822393088760e-05 -1.437936820334e-03 0.0 
-1.437936820334e-03 1.036179245632e-03 0.0 
0.0 0.0 -3.732485265440e-04 
-1.183046367818e-03 1.393767940647e-04 0.0 
1.393767940647e-04 7.358067127657e-03 0.0 
0.0 0.0 -1.098747615487e-03 
-1.275160361241e-03 2.646540278175e-04 0.0 
2.646540278175e-04 8.092932724066e-03 0.0 
0.0 0.0 -1.212453547082e-03 
-1.010608018996e-03 1.134796452945e-04 0.0 
1.134796452945e-04 5.876477578498e-03 0.0 
0.0 0.0 -8.875094802107e-04 
-3.432304284614e-04 -2.023305734104e-04 0.0 
-2.023305734104e-04 1.413096543350e-03 0.0 
0.0 0.0 -2.442495876194e-04 
-9.871354508553e-04 6.543929527951e-05 0.0 
6.543929527951e-05 5.785148960874e-03 0.0 
0.0 0.0 -8.692469099983e-04 
-1.129933755956e-03 -2.589669323117e-04 0.0 
-2.589669323117e-04 7.495462082173e-03 0.0 
0.0 0.0 -1.202705989510e-03 
-1.175984421816e-03 2.539870060864e-04 0.0 
2.539870060864e-04 7.167724276723e-03 0.0 
0.0 0.0 -1.078220320736e-03 
-6.238127593336e-04 -2.578427228971e-04 0.0 
-2.578427228971e-04 2.729809833616e-03 0.0 
0.0 0.0 -4.336020471383e-04 
-3.693103125981e-04 -1.184898620339e-04 0.0 
-1.184898620339e-04 4.215512874596e-03 0.0 
0.0 0.0 -7.943514531093e-04 
-7.354883692347e-04 6.882867699015e-04 0.0 
6.882867699015e-04 4.480048918178e-03 0.0 
0.0 0.0 -7.428158978947e-04 
-8.300346150545e-04 1.997478973446e-04 0.0 
1.997478973446e-04 4.462946677923e-03 0.0 
0.0 0.0 -6.865907729104e-04 
-1.263662037140e-03 1.212955651983e-04 0.0 
1.212955651983e-04 8.095770653682e-03 0.0 
0.0 0.0 -1.206557591227e-03 
-5.452830500886e-04 5.833267200760e-04 0.0 
5.833267200760e-04 4.601923753795e-03 0.0 
0.0 0.0 -8.172945450070e-04 
-9.138715469007e-04 -2.809485115349e-05 0.0 
-2.809485115349e-05 6.748408724194e-03 0.0 
0.0 0.0 -1.120054252910e-03 
-5.855153319979e-04 -8.409325156636e-05 0.0 
-8.409325156636e-05 5.239197065772e-03 0.0 
0.0 0.0 -9.240809108919e-04 
-6.615538158736e-04 -2.024673927750e-04 0.0 
-2.024673927750e-04 2.941778370234e-03 0.0 
0.0 0.0 -4.629711029823e-04 
-1.130081472427e-03 -3.415372177863e-04 0.0 
-3.415372177863e-04 7.089023572073e-03 0.0 
0.0 0.0 -1.118919378802e-03 
-3.597542210602e-04 3.380969491909e-04 0.0 
3.380969491909e-04 4.095727105777e-03 0.0 
0.0 0.0 -7.743986277066e-04 
-1.231879397795e-03 1.563825567224e-04 0.0 
1.563825567224e-04 7.806451874477e-03 0.0 
0.0 0.0 -1.164614768972e-03 
-1.000367767849e-03 5.022961011040e-04 0.0 
5.022961011040e-04 6.477016694026e-03 0.0 
0.0 0.0 -1.031533309622e-03 
-8.496720980242e-05 7.949215026050e-05 0.0 
7.949215026050e-05 2.913474260951e-03 0.0 
0.0 0.0 -6.375205594687e-04 
-1.204201749293e-03 1.997899091721e-04 0.0 
1.997899091721e-04 7.486324816343e-03 0.0 
0.0 0.0 -1.121170216299e-03 
-5.130508831761e-04 -5.977004884583e-04 0.0 
-5.977004884583e-04 4.307094875234e-03 0.0 
0.0 0.0 -7.773091661689e-04 
-8.763670238880e-04 1.763080225343e-04 0.0 
1.763080225343e-04 6.599584220336e-03 0.0 
0.0 0.0 -1.099429584637e-03 
-8.205770634544e-04 5.305467903750e-04 0.0 
5.305467903750e-04 4.538492374159e-03 0.0 
0.0 0.0 -7.240542973723e-04 
-8.884268788469e-04 5.588484511591e-04 0.0 
5.588484511591e-04 5.612213355160e-03 0.0 
0.0 0.0 -9.041109700986e-04 
-1.050324174142e-03 4.352582260935e-04 0.0 
4.352582260935e-04 6.327572321714e-03 0.0 
0.0 0.0 -9.824247929831e-04 
-7.337998657639e-04 6.243333749199e-04 0.0 
6.243333749199e-04 5.125520163039e-03 0.0 
0.0 0.0 -8.608216255090e-04 
-1.153567602020e-03 -9.301724894271e-05 0.0 
-9.301724894271e-05 6.238376526397e-03 0.0 
0.0 0.0 -9.534332399069e-04 
-1.070854558502e-03 -3.525098866510e-04 0.0 
-3.525098866510e-04 6.838133072795e-03 0.0 
0.0 0.0 -1.090315851396e-03 
5.426530316348e-04 -6.124034834809e-04 0.0 
-6.124034834809e-04 -4.758177895348e-06 0.0 
0.0 0.0 -2.305263658883e-04 
-4.860442792995e-04 1.001524898596e-03 0.0 
1.001524898596e-03 3.110766909182e-03 0.0 
0.0 0.0 -5.719042557127e-04 
-1.067589445178e-03 1.583535090986e-04 0.0 
1.583535090986e-04 6.341569706464e-03 0.0 
0.0 0.0 -9.536514739466e-04 
-1.085608803619e-03 4.567018534179e-04 0.0 
4.567018534179e-04 7.206759563006e-03 0.0 
0.0 0.0 -1.150585697120e-03 
-1.272662540904e-03 1.837479624771e-04 0.0 
1.837479624771e-04 8.251575577157e-03 0.0 
0.0 0.0 -1.229329624135e-03 
-7.006581247961e-04 7.305782553014e-04 0.0 
7.305782553014e-04 4.076422328874e-03 0.0 
0.0 0.0 -6.801182747099e-04 
-1.119652443645e-03 -3.456160390905e-04 0.0 
-3.456160390905e-04 6.872141672148e-03 0.0 
0.0 0.0 -1.081576975854e-03 
-1.253042370701e-03 2.293393647918e-04 0.0 
2.293393647918e-04 7.917666161319e-03 0.0 
0.0 0.0 -1.185355684152e-03 
-8.328019205503e-04 -6.002544778108e-04 0.0 
-6.002544778108e-04 4.632328502255e-03 0.0 
0.0 0.0 -7.524367508395e-04 
-4.433075112401e-04 -2.566605040482e-05 0.0 
-2.566605040482e-05 2.036859959460e-03 0.0 
0.0 0.0 -3.333104686742e-04 
3.205177984844e-04 9.975801435051e-04 0.0 
9.975801435051e-04 2.379341149770e-04 0.0 
0.0 0.0 -2.393365343406e-04 
1.591584715393e-04 1.779286051982e-04 0.0 
1.779286051982e-04 1.786654556165e-03 0.0 
0.0 0.0 -5.092532232582e-04 
-4.531066397313e-04 5.570531624296e-04 0.0 
5.570531624296e-04 4.269383883647e-03 0.0 
0.0 0.0 -7.817448632792e-04 
-8.859078879477e-04 -5.417175315324e-04 0.0 
-5.417175315324e-04 5.072763910333e-03 0.0 
0.0 0.0 -8.181699076277e-04 
-1.293553667002e-03 3.539056233938e-04 0.0 
3.539056233938e-04 8.270227580961e-03 0.0 
0.0 0.0 -1.242275372262e-03 
-1.167568761218e-03 -3.100043251916e-04 0.0 
-3.100043251916e-04 7.110149870389e-03 0.0 
0.0 0.0 -1.110186454522e-03 
-8.720271584818e-04 -3.155671013640e-04 0.0 
-3.155671013640e-04 6.271566388977e-03 0.0 
0.0 0.0 -1.040857148505e-03 
3.090009603171e-05 6.438382974465e-04 0.0 
6.438382974465e-04 3.706853633849e-04 0.0 
0.0 0.0 -1.721080540357e-04 
-8.582532174726e-04 2.712256844373e-04 0.0 
2.712256844373e-04 4.619700861909e-03 0.0 
0.0 0.0 -7.126371066839e-04 
-1.210346144101e-03 -2.749948472322e-04 0.0 
-2.749948472322e-04 7.344160972203e-03 0.0 
0.0 0.0 -1.139074001596e-03 
-4.392212359222e-04 -2.427188308892e-04 0.0 
-2.427188308892e-04 4.468278991880e-03 0.0 
0.0 0.0 -8.223634564932e-04 
-9.190954487653e-04 1.036306006856e-04 0.0 
1.036306006856e-04 6.792229327511e-03 0.0 
0.0 0.0 -1.126725356868e-03 
-1.012271879397e-03 -9.648706787801e-05 0.0 
-9.648706787801e-05 5.106630196528e-03 0.0 
0.0 0.0 -7.817916451012e-04 
-1.209813015887e-03 4.617447502893e-04 0.0 
4.617447502893e-04 7.951412152162e-03 0.0 
0.0 0.0 -1.249754184115e-03 
-7.319316117329e-04 4.292603822642e-04 0.0 
4.292603822642e-04 3.626422685243e-03 0.0 
0.0 0.0 -5.757576642514e-04 
-1.253262516526e-03 -2.397729583392e-04 0.0 
-2.397729583392e-04 7.583908034255e-03 0.0 
0.0 0.0 -1.168790087466e-03 
-8.256776309677e-04 -1.881926819914e-04 0.0 
-1.881926819914e-04 6.244322400387e-03 0.0 
0.0 0.0 -1.047452346298e-03 
-1.833871752581e-04 1.076533841658e-03 0.0 
1.076533841658e-03 2.371953294675e-03 0.0 
0.0 0.0 -5.248669331578e-04 
-8.489436119586e-04 9.726246538456e-06 0.0 
9.726246538456e-06 4.964532206226e-03 0.0 
0.0 0.0 -7.498068730476e-04 
-1.301937909208e-03 -2.238090825597e-04 0.0 
-2.238090825597e-04 8.094251106337e-03 0.0 
0.0 0.0 -1.243807156011e-03 
-9.340333835081e-04 -1.610113385009e-04 0.0 
-1.610113385009e-04 6.744276922541e-03 0.0 
0.0 0.0 -1.114542488500e-03 
-7.941362751269e-04 5.664211877541e-04 0.0 
5.664211877541e-04 5.563587855978e-03 0.0 
0.0 0.0 -9.240346875991e-04 
-4.168495056098e-04 -3.974139927462e-04 0.0 
-3.974139927462e-04 4.226500375937e-03 0.0 
0.0 0.0 -7.856950878877e-04 
-7.739148085239e-04 2.464793331539e-04 0.0 
2.464793331539e-04 3.977512213385e-03 0.0 
0.0 0.0 -6.191377506773e-04 
-9.472802509339e-04 -4.715703841177e-04 0.0 
-4.715703841177e-04 5.324567248990e-03 0.0 
0.0 0.0 -8.467704336814e-04 
-9.485585464614e-04 5.193393053567e-04 0.0 
5.193393053567e-04 5.905682896343e-03 0.0 
0.0 0.0 -9.395224721591e-04 
-1.324920476103e-03 3.053746754946e-04 0.0 
3.053746754946e-04 8.723243834592e-03 0.0 
0.0 0.0 -1.306889097489e-03 
-9.807951782906e-04 -9.587801094059e-05 0.0 
-9.587801094059e-05 6.970713904845e-03 0.0 
0.0 0.0 -1.148622835147e-03 
-1.082939420670e-03 2.819860490732e-04 0.0 
2.819860490732e-04 6.381972856138e-03 0.0 
0.0 0.0 -9.696660045843e-04 
-9.493777168521e-04 -4.444219031776e-04 0.0 
-4.444219031776e-04 5.127854127799e-03 0.0 
0.0 0.0 -8.097439408559e-04 
-7.160311725792e-04 3.654432579295e-04 0.0 
3.654432579295e-04 5.714883805619e-03 0.0 
0.0 0.0 -9.749840279683e-04 
-1.676636515260e-04 -4.941269470984e-05 0.0 
-4.941269470984e-05 1.033199140519e-03 0.0 
0.0 0.0 -1.970089232863e-04 
-7.962185908535e-04 3.303377500728e-04 0.0 
3.303377500728e-04 4.131190544581e-03 0.0 
0.0 0.0 -6.447622526173e-04 
-1.000272012546e-03 -3.719800608836e-04 0.0 
-3.719800608836e-04 5.362836932527e-03 0.0 
0.0 0.0 -8.382314227178e-04 
1.017392588855e-04 -1.736220687656e-04 0.0 
-1.736220687656e-04 2.043177635858e-03 0.0 
0.0 0.0 -5.374563060555e-04 
-5.079147546005e-04 -4.709528610388e-04 0.0 
-4.709528610388e-04 4.508844721117e-03 0.0 
0.0 0.0 -8.136389561866e-04 
-1.114056657132e-03 2.887883130746e-04 0.0 
2.887883130746e-04 7.664610237433e-03 0.0 
0.0 0.0 -1.234277959947e-03 
-1.046296347188e-03 -3.017965079923e-04 0.0 
-3.017965079923e-04 5.590796710732e-03 0.0 
0.0 0.0 -8.668853676281e-04 
-2.327182499333e-05 -1.637556316808e-04 0.0 
-1.637556316808e-04 2.609999917965e-03 0.0 
0.0 0.0 -6.015264011954e-04 
-1.086733608739e-03 -2.340312705235e-04 0.0 
-2.340312705235e-04 5.809878777498e-03 0.0 
0.0 0.0 -8.955981815692e-04 
-7.133441625448e-04 3.191920090799e-04 0.0 
3.191920090799e-04 3.492826899708e-03 0.0 
0.0 0.0 -5.519888345566e-04 
-1.102733663682e-03 3.164092702850e-04 0.0 
3.164092702850e-04 6.555228391521e-03 0.0 
0.0 0.0 -9.983267706061e-04 
-1.119318067822e-03 -1.714358954242e-04 0.0 
-1.714358954242e-04 6.018884976543e-03 0.0 
0.0 0.0 -9.243533921793e-04 
-1.001908002250e-03 4.984942752457e-04 0.0 
4.984942752457e-04 6.334427631463e-03 0.0 
0.0 0.0 -1.003151257071e-03 
-2.279098310875e-04 -1.251804773978e-04 0.0 
-1.251804773978e-04 1.119603241316e-03 0.0 
0.0 0.0 -2.040322045631e-04 
-7.855046317287e-04 5.237977796601e-04 0.0 
5.237977796601e-04 5.697841480735e-03 0.0 
0.0 0.0 -9.517466134248e-04 
-1.278300960589e-03 -7.889376224299e-05 0.0 
-7.889376224299e-05 7.564162797006e-03 0.0 
0.0 0.0 -1.155419075730e-03 
-6.039386638838e-04 -9.352834442183e-04 0.0 
-9.352834442183e-04 3.237374525321e-03 0.0 
0.0 0.0 -5.654343806685e-04 
-5.996382576729e-04 -5.078678615237e-04 0.0 
-5.078678615237e-04 4.794693511813e-03 0.0 
0.0 0.0 -8.420324705410e-04 
-1.153622144798e-03 3.409444967982e-04 0.0 
3.409444967982e-04 6.992756961225e-03 0.0 
0.0 0.0 -1.063653581392e-03 
-6.588103306477e-04 3.969496556601e-04 0.0 
3.969496556601e-04 3.002666315313e-03 0.0 
0.0 0.0 -4.839843007303e-04 
-6.880791710433e-04 -4.312562534369e-04 0.0 
-4.312562534369e-04 5.283404868934e-03 0.0 
0.0 0.0 -9.074658271045e-04 
-1.060052777402e-03 4.844888623504e-04 0.0 
4.844888623504e-04 6.770757776904e-03 0.0 
0.0 0.0 -1.067288052377e-03 
-7.837482685475e-04 4.743739920089e-04 0.0 
4.743739920089e-04 5.847117456295e-03 0.0 
0.0 0.0 -9.801762873724e-04 
-5.364910550697e-04 4.803545642860e-04 0.0 
4.803545642860e-04 4.747968314780e-03 0.0 
0.0 0.0 -8.455731917576e-04 
-7.785051872343e-04 -3.658858697108e-04 0.0 
-3.658858697108e-04 5.776530662371e-03 0.0 
0.0 0.0 -9.738262179588e-04 
-6.715128569437e-04 5.603668306290e-04 0.0 
5.603668306290e-04 3.116619739403e-03 0.0 
0.0 0.0 -5.057041985798e-04 
-6.174255134183e-04 -7.382519752092e-04 0.0 
-7.382519752092e-04 2.524949954393e-03 0.0 
0.0 0.0 -4.238464704258e-04 
-5.725994882734e-04 -6.885730532868e-04 0.0 
-6.885730532868e-04 2.123374709043e-03 0.0 
0.0 0.0 -3.586180353125e-04 
-1.087968519769e-04 -3.894502741245e-04 0.0 
-3.894502741245e-04 2.894305128247e-03 0.0 
0.0 0.0 -6.294631353604e-04 
-1.113989301634e-03 4.730580331504e-04 0.0 
4.730580331504e-04 7.064599777148e-03 0.0 
0.0 0.0 -1.103081964739e-03 
-2.909493422495e-04 -6.727813062534e-05 0.0 
-6.727813062534e-05 1.456560370235e-03 0.0 
0.0 0.0 -2.521214004998e-04 
-1.130223577437e-03 3.874695664211e-04 0.0 
3.874695664211e-04 6.879711460710e-03 0.0 
0.0 0.0 -1.054898413167e-03 
-4.747914815808e-04 -7.007316897934e-04 0.0 
-7.007316897934e-04 1.510403036883e-03 0.0 
0.0 0.0 -2.740243446916e-04 
-1.059034309075e-04 -6.476895754937e-04 0.0 
-6.476895754937e-04 2.671993736935e-03 0.0 
0.0 0.0 -5.935709857392e-04 
-8.832674525435e-04 3.712236152595e-04 0.0 
3.712236152595e-04 6.508434955568e-03 0.0 
0.0 0.0 -1.077081564483e-03 
-1.023005590377e-03 -4.065847446542e-05 0.0 
-4.065847446542e-05 6.235882102629e-03 0.0 
0.0 0.0 -9.315431351609e-04 
-2.271455064543e-04 -7.649077538712e-04 0.0 
-7.649077538712e-04 3.005124294304e-03 0.0 
0.0 0.0 -6.211106552582e-04 
-5.539372237771e-04 -2.705347043382e-05 0.0 
-2.705347043382e-05 2.503628127068e-03 0.0 
0.0 0.0 -3.989951351066e-04 
-2.711318037513e-04 -9.555117866304e-04 0.0 
-9.555117866304e-04 2.849172517321e-03 0.0 
0.0 0.0 -5.850331209179e-04 
-6.241921201683e-04 4.180601427792e-04 0.0 
4.180601427792e-04 5.227484326245e-03 0.0 
0.0 0.0 -9.098959706900e-04 
-3.942802621189e-04 -9.538191986641e-04 0.0 
-9.538191986641e-04 3.188718869022e-03 0.0 
0.0 0.0 -6.124823626799e-04 
-4.550624226044e-04 -1.036578340992e-03 0.0 
-1.036578340992e-03 3.064317854104e-03 0.0 
0.0 0.0 -5.760838601101e-04 
-1.286542940212e-03 9.779925010804e-05 0.0 
9.779925010804e-05 8.362389009926e-03 0.0 
0.0 0.0 -1.242975171717e-03 
-5.556616817437e-04 -9.487474711726e-04 0.0 
-9.487474711726e-04 3.373317672553e-03 0.0 
0.0 0.0 -6.030381679152e-04 
-1.312957018488e-03 1.762534641485e-05 0.0 
1.762534641485e-05 8.791531742823e-03 0.0 
0.0 0.0 -1.305370344976e-03 
-1.342889913941e-03 -8.887845541572e-05 0.0 
-8.887845541572e-05 8.517788746463e-03 0.0 
0.0 0.0 -1.298405437673e-03 
-9.001399359898e-04 -3.115200366471e-05 0.0 
-3.115200366471e-05 5.327299192951e-03 0.0 
0.0 0.0 -7.997855503562e-04 
-6.119585369169e-04 5.319683456807e-04 0.0 
5.319683456807e-04 2.524442221547e-03 0.0 
0.0 0.0 -4.121418992062e-04 
0.0 0.0 0.0 
0.0 0.0 0.0 
0.0 0.0 0.0 
-6.013216908629e-04 7.353591052882e-04 0.0 
7.353591052882e-04 2.570270979253e-03 0.0 
0.0 0.0 -4.369243393394e-04 
-5.755877201232e-04 -1.006492197580e-03 0.0 
-1.006492197580e-03 2.831071537896e-03 0.0 
0.0 0.0 -5.013603847490e-04 
-1.101076468124e-03 4.427543157598e-04 0.0 
4.427543157598e-04 6.753747619027e-03 0.0 
0.0 0.0 -1.045752072333e-03 
-9.001350944238e-04 1.690426372956e-05 0.0 
1.690426372956e-05 5.335483219367e-03 0.0 
0.0 0.0 -8.029817139903e-04 
-6.111138971153e-04 -8.912307338130e-04 0.0 
-8.912307338130e-04 2.695444832232e-03 0.0 
0.0 0.0 -4.630712860745e-04 
-1.275916597091e-03 4.598087248478e-04 0.0 
4.598087248478e-04 8.197933557976e-03 0.0 
0.0 0.0 -1.250093291501e-03 
-1.277155987315e-03 4.247176035906e-04 0.0 
4.247176035906e-04 8.290214574666e-03 0.0 
0.0 0.0 -1.306737725957e-03 
-1.108220863065e-03 9.376951406301e-06 0.0 
9.376951406301e-06 6.884195681395e-03 0.0 
0.0 0.0 -1.028769680629e-03 
-9.736500693663e-04 5.157775084853e-05 0.0 
5.157775084853e-05 6.985202160712e-03 0.0 
0.0 0.0 -1.152835590205e-03 
-7.921204258207e-04 4.078698397503e-04 0.0 
4.078698397503e-04 6.023879636983e-03 0.0 
0.0 0.0 -1.010595862668e-03 
-1.241857793517e-03 -4.299570159508e-06 0.0 
-4.299570159508e-06 7.958618347353e-03 0.0 
0.0 0.0 -1.185717314024e-03 
-8.475222208266e-04 -3.781329079989e-05 0.0 
-3.781329079989e-05 4.928212699674e-03 0.0 
0.0 0.0 -7.451086181774e-04 
-1.664286133127e-04 -2.725892507630e-04 0.0 
-2.725892507630e-04 6.325537652716e-04 0.0 
0.0 0.0 -1.414044378648e-04 
-1.183800202695e-03 -4.172593709851e-05 0.0 
-4.172593709851e-05 6.467154125527e-03 0.0 
0.0 0.0 -9.879584850274e-04 
-5.708971627680e-04 6.741264129118e-04 0.0 
6.741264129118e-04 2.024843560255e-03 0.0 
0.0 0.0 -3.437331075899e-04 
-5.495900722021e-04 1.011381174664e-03 0.0 
1.011381174664e-03 1.944401710747e-03 0.0 
0.0 0.0 -3.524505972177e-04 
-2.853835512823e-04 1.205712139992e-03 0.0 
1.205712139992e-03 1.304597058130e-03 0.0 
0.0 0.0 -3.593644486456e-04 
-7.020460695734e-04 -1.440442927613e-04 0.0 
-1.440442927613e-04 3.119459023260e-03 0.0 
0.0 0.0 -4.856826860430e-04 
-8.782495870591e-05 -9.084916110393e-04 0.0 
-9.084916110393e-04 7.572036747300e-04 0.0 
0.0 0.0 -2.846511604759e-04 
-4.893890858810e-04 8.969022950391e-04 0.0 
8.969022950391e-04 1.589417859757e-03 0.0 
0.0 0.0 -3.076864852448e-04 
-1.137014357475e-03 7.152136645661e-05 0.0 
7.152136645661e-05 7.697731072351e-03 0.0 
0.0 0.0 -1.245112051941e-03 
-9.139609418570e-04 1.641183808410e-05 0.0 
1.641183808410e-05 5.327038428336e-03 0.0 
0.0 0.0 -8.050116406322e-04 
-9.540345071131e-04 3.841934886618e-04 0.0 
3.841934886618e-04 6.790550876670e-03 0.0 
0.0 0.0 -1.110409235593e-03 
-1.902162665021e-04 9.339845454039e-04 0.0 
9.339845454039e-04 9.942126500714e-04 0.0 
0.0 0.0 -3.261355004832e-04 
-1.296828862309e-03 2.341461600450e-04 0.0 
2.341461600450e-04 8.351041898143e-03 0.0 
0.0 0.0 -1.247366155457e-03 
-1.168645139073e-03 3.735588726833e-04 0.0 
3.735588726833e-04 7.817174461527e-03 0.0 
0.0 0.0 -1.246608778627e-03 
-1.314967464086e-03 -3.318256949741e-04 0.0 
-3.318256949741e-04 8.403481236488e-03 0.0 
0.0 0.0 -1.306249356034e-03 
-1.050201848033e-03 3.696451559178e-04 0.0 
3.696451559178e-04 7.268871172990e-03 0.0 
0.0 0.0 -1.176371721005e-03 
6.114555871551e-05 1.042784162236e-03 0.0 
1.042784162236e-03 5.736687994652e-04 0.0 
0.0 0.0 -2.720632963632e-04 
-9.766098877979e-04 1.041630930997e-04 0.0 
1.041630930997e-04 5.685157012225e-03 0.0 
0.0 0.0 -8.603500797662e-04 
-1.246724541881e-03 4.866961176123e-04 0.0 
4.866961176123e-04 8.045633532487e-03 0.0 
0.0 0.0 -1.250827372426e-03 
-1.145993633532e-03 3.235835733547e-05 0.0 
3.235835733547e-05 7.250949289083e-03 0.0 
0.0 0.0 -1.080253149739e-03 
-1.318596932855e-03 -2.303003049155e-04 0.0 
-2.303003049155e-04 8.477981163117e-03 0.0 
0.0 0.0 -1.309985050881e-03 
-9.104561560587e-04 8.791536920609e-05 0.0 
8.791536920609e-05 5.249520802984e-03 0.0 
0.0 0.0 -7.979019438933e-04 
-1.287101829326e-03 7.929734908006e-05 0.0 
7.929734908006e-05 8.412586601378e-03 0.0 
0.0 0.0 -1.252774941638e-03 
4.187865149814e-04 -7.886444366699e-04 0.0 
-7.886444366699e-04 6.898920111237e-05 0.0 
0.0 0.0 -2.090467354688e-04 
-1.285197150188e-03 5.312445103222e-05 0.0 
5.312445103222e-05 8.412445019205e-03 0.0 
0.0 0.0 -1.254166199180e-03 
-1.155435508235e-03 4.462044169920e-04 0.0 
4.462044169920e-04 7.190167035892e-03 0.0 
0.0 0.0 -1.110316242656e-03 
-9.785241987209e-04 6.006269753900e-05 0.0 
6.006269753900e-05 5.897359505691e-03 0.0 
0.0 0.0 -8.840149073763e-04 
-9.814056690218e-04 2.078101741112e-04 0.0 
2.078101741112e-04 5.639397818750e-03 0.0 
0.0 0.0 -8.570326279659e-04 
-1.319590243869e-03 -1.168373964399e-04 0.0 
-1.168373964399e-04 8.200864803592e-03 0.0 
0.0 0.0 -1.256337174517e-03 
-1.298927049123e-03 3.872456439500e-04 0.0 
3.872456439500e-04 8.256979916972e-03 0.0 
0.0 0.0 -1.249505442739e-03 
1.588810044440e-04 6.739000714330e-04 0.0 
6.739000714330e-04 2.144145137498e-04 0.0 
0.0 0.0 -1.599837935116e-04 
-1.096094038579e-03 6.855172835755e-05 0.0 
6.855172835755e-05 6.864639960432e-03 0.0 
0.0 0.0 -1.024357608964e-03 
-8.327401503038e-04 -2.617825635292e-04 0.0 
-2.617825635292e-04 3.865808984588e-03 0.0 
0.0 0.0 -5.984289768806e-04 
4.595402762325e-05 -8.016720020432e-05 0.0 
-8.016720020432e-05 3.015012832340e-06 0.0 
0.0 0.0 -2.098673162382e-05 
-1.235862100260e-03 -2.625570613708e-04 0.0 
-2.625570613708e-04 7.934382526740e-03 0.0 
0.0 0.0 -1.249521112489e-03 
-1.211535382329e-03 4.565569816846e-04 0.0 
4.565569816846e-04 7.603855218494e-03 0.0 
0.0 0.0 -1.172189067419e-03 
-1.321360973485e-03 -1.598454139055e-04 0.0 
-1.598454139055e-04 8.157812717265e-03 0.0 
0.0 0.0 -1.251863004148e-03 
-1.704574328015e-04 2.300128264432e-05 0.0 
2.300128264432e-05 1.030856563870e-03 0.0 
0.0 0.0 -1.953152674555e-04 
-1.117901966883e-04 -9.482210033707e-05 0.0 
-9.482210033707e-05 5.817955991869e-04 0.0 
0.0 0.0 -1.292073282250e-04 
-1.214101423412e-03 -2.486194593532e-04 0.0 
-2.486194593532e-04 7.945028851660e-03 0.0 
0.0 0.0 -1.258522865334e-03 
-1.271219324857e-03 4.971693506933e-04 0.0 
4.971693506933e-04 8.177840067003e-03 0.0 
0.0 0.0 -1.257106814994e-03 
2.594232538172e-04 -1.339851872499e-03 0.0 
-1.339851872499e-03 5.141638941498e-04 0.0 
0.0 0.0 -3.217126346404e-04 
-1.334345376368e-03 2.157790183719e-04 0.0 
2.157790183719e-04 8.827191171129e-03 0.0 
0.0 0.0 -1.314710167832e-03 
5.758992691219e-05 1.629967515180e-04 0.0 
1.629967515180e-04 3.408863824387e-05 0.0 
0.0 0.0 -3.929081363831e-05 
-8.415723991859e-04 3.409357994461e-05 0.0 
3.409357994461e-05 4.862419417103e-03 0.0 
0.0 0.0 -7.389643750272e-04 
-5.632071603276e-05 -7.908255579780e-05 0.0 
-7.908255579780e-05 5.951715054384e-04 0.0 
0.0 0.0 -1.313337839019e-04 
-1.324427323831e-03 -2.984557275517e-04 0.0 
-2.984557275517e-04 8.505668996389e-03 0.0 
0.0 0.0 -1.308531455474e-03 
-1.300676432775e-03 1.886676363898e-04 0.0 
1.886676363898e-04 8.425576722081e-03 0.0 
0.0 0.0 -1.254845750201e-03 
-8.984019564796e-04 -1.237198133233e-04 0.0 
-1.237198133233e-04 4.265458849472e-03 0.0 
0.0 0.0 -6.564513288157e-04 
-8.888014077326e-04 1.812789084724e-04 0.0 
1.812789084724e-04 4.952376261473e-03 0.0 
0.0 0.0 -7.541421605440e-04 
-6.276097559503e-04 -6.715782605664e-05 0.0 
-6.715782605664e-05 2.832069501594e-03 0.0 
0.0 0.0 -4.426424662127e-04 
-1.151816338705e-03 4.986859032723e-04 0.0 
4.986859032723e-04 7.600283655027e-03 0.0 
0.0 0.0 -1.203498912175e-03 
-2.674740073154e-04 -5.400123392678e-04 0.0 
-5.400123392678e-04 9.299090651865e-04 0.0 
0.0 0.0 -2.264474151299e-04 
-1.303841109802e-03 1.085882883771e-04 0.0 
1.085882883771e-04 8.492357544012e-03 0.0 
0.0 0.0 -1.260296891839e-03 
-1.191687690371e-03 -1.792572912051e-04 0.0 
-1.792572912051e-04 7.902409115589e-03 0.0 
0.0 0.0 -1.261416966621e-03 
-1.308215205254e-03 3.369873735607e-04 0.0 
3.369873735607e-04 8.413847692259e-03 0.0 
0.0 0.0 -1.260618436842e-03 
-1.275370929010e-03 2.203297067690e-04 0.0 
2.203297067690e-04 8.294911698725e-03 0.0 
0.0 0.0 -1.317725628150e-03 
1.222313271004e-05 1.128127362180e-05 0.0 
1.128127362180e-05 -2.314647535050e-06 0.0 
0.0 0.0 -4.246493646426e-06 
-1.211818034300e-03 4.006014363556e-04 0.0 
4.006014363556e-04 7.983414665776e-03 0.0 
0.0 0.0 -1.263090216482e-03 
-1.073154055867e-03 -5.044780342709e-05 0.0 
-5.044780342709e-05 7.404491594172e-03 0.0 
0.0 0.0 -1.202239909569e-03 
-8.482969471247e-04 5.756566432870e-05 0.0 
5.756566432870e-05 4.934073378721e-03 0.0 
0.0 0.0 -7.439744481034e-04 
-1.294789794099e-03 4.128632800208e-04 0.0 
4.128632800208e-04 8.301439097425e-03 0.0 
0.0 0.0 -1.252574368527e-03 
-7.632240259174e-04 -1.247615584578e-04 0.0 
-1.247615584578e-04 3.481612275262e-03 0.0 
0.0 0.0 -5.383891422301e-04 
-3.003096040968e-04 -1.615487937268e-04 0.0 
-1.615487937268e-04 1.430206630076e-03 0.0 
0.0 0.0 -2.492021827984e-04 
-1.313629829914e-03 -1.230146382652e-05 0.0 
-1.230146382652e-05 8.822541585775e-03 0.0 
0.0 0.0 -1.313490227100e-03 
3.512651625883e-04 2.496523614618e-05 0.0 
2.496523614618e-05 9.331964126241e-05 0.0 
0.0 0.0 -1.176723970536e-04 
-8.447146323437e-04 -2.046082411215e-05 0.0 
-2.046082411215e-05 4.909462012842e-03 0.0 
0.0 0.0 -7.402411036050e-04 
-1.348085845692e-03 2.530918264864e-06 0.0 
2.530918264864e-06 8.606464988216e-03 0.0 
0.0 0.0 -1.313492844077e-03 
-2.497229854947e-04 -6.189559134780e-05 0.0 
-6.189559134780e-05 1.337406434444e-03 0.0 
0.0 0.0 -2.401910970207e-04 
-9.421911629794e-04 -1.661669992897e-05 0.0 
-1.661669992897e-05 5.655702660019e-03 0.0 
0.0 0.0 -8.489638187885e-04 
-1.276280445523e-03 4.696432845470e-04 0.0 
4.696432845470e-04 8.231682282445e-03 0.0 
0.0 0.0 -1.260211869575e-03 
-1.042131282941e-03 -3.353944901092e-05 0.0 
-3.353944901092e-05 5.231045184564e-03 0.0 
0.0 0.0 -7.986629621775e-04 
-1.208709146256e-03 -3.512840286861e-05 0.0 
-3.512840286861e-05 7.690123470060e-03 0.0 
0.0 0.0 -1.148445367820e-03 
-1.362273016930e-05 -1.182361291552e-03 0.0 
-1.182361291552e-03 7.884965128820e-04 0.0 
0.0 0.0 -3.320887640197e-04 
0.0 0.0 0.0 
0.0 0.0 0.0 
0.0 0.0 0.0 
-1.052359765526e-03 -2.552934865100e-05 0.0 
-2.552934865100e-05 6.469023319650e-03 0.0 
0.0 0.0 -9.668795991591e-04 
-1.182130655930e-03 3.563594059290e-04 0.0 
3.563594059290e-04 7.870829341615e-03 0.0 
0.0 0.0 -1.258714341260e-03 
-1.311624000118e-03 2.599452204782e-04 0.0 
2.599452204782e-04 8.471619375797e-03 0.0 
0.0 0.0 -1.263997700767e-03 
-1.012178473530e-03 6.922432419418e-05 0.0 
6.922432419418e-05 6.158161253950e-03 0.0 
0.0 0.0 -9.199601189493e-04 
2.647470927745e-04 7.455276449397e-04 0.0 
7.455276449397e-04 1.486685304712e-04 0.0 
0.0 0.0 -1.771781242482e-04 
-1.250478637346e-03 4.824320061321e-04 0.0 
4.824320061321e-04 7.958988352162e-03 0.0 
0.0 0.0 -1.221038716794e-03 
-9.320485300336e-04 -1.667751956757e-04 0.0 
-1.667751956757e-04 4.597200132756e-03 0.0 
0.0 0.0 -7.060606045914e-04 
-1.200656783891e-03 4.721645169611e-04 0.0 
4.721645169611e-04 7.751960834764e-03 0.0 
0.0 0.0 -1.208939113964e-03 
-1.070653970758e-03 3.740030437558e-05 0.0 
3.740030437558e-05 7.401065294209e-03 0.0 
0.0 0.0 -1.203806565432e-03 
2.312805410288e-06 9.689861048867e-05 0.0 
9.689861048867e-05 1.267027866464e-05 0.0 
0.0 0.0 -6.421321746397e-06 
-1.092227246100e-03 -1.750499239164e-05 0.0 
-1.750499239164e-05 5.615262148534e-03 0.0 
0.0 0.0 -8.562696210230e-04 
-5.708960077967e-05 -1.112001135559e-04 0.0 
-1.112001135559e-04 5.586929987395e-04 0.0 
0.0 0.0 -1.274563633148e-04 
-1.286136249812e-03 -3.205909886145e-04 0.0 
-3.205909886145e-04 8.133690929480e-03 0.0 
0.0 0.0 -1.263714160583e-03 
-9.761535132734e-04 -1.267872809360e-04 0.0 
-1.267872809360e-04 4.804162128704e-03 0.0 
0.0 0.0 -7.344436328926e-04 
-1.091405191951e-04 4.000017410356e-04 0.0 
4.000017410356e-04 5.060712805832e-04 0.0 
0.0 0.0 -1.701131834520e-04 
-1.545295874697e-04 3.436347606623e-07 0.0 
3.436347606623e-07 5.546351570785e-04 0.0 
0.0 0.0 -1.274364162693e-04 
-3.009207581188e-04 5.378832360255e-04 0.0 
5.378832360255e-04 1.013666119381e-03 0.0 
0.0 0.0 -2.385852507484e-04 
-2.374498242078e-04 1.023887662289e-06 0.0 
1.023887662289e-06 1.104170816730e-03 0.0 
0.0 0.0 -1.933333333333e-04 
-4.649642435577e-04 5.083679169788e-04 0.0 
5.083679169788e-04 1.486596875336e-03 0.0 
0.0 0.0 -2.525839566596e-04 
-3.132417179502e-04 -4.279092732955e-06 0.0 
-4.279092732955e-06 1.491121511340e-03 0.0 
0.0 0.0 -2.600000000000e-04 
-4.871441053693e-04 3.894800201419e-04 0.0 
3.894800201419e-04 1.935005749198e-03 0.0 
0.0 0.0 -3.193537414966e-04 
-3.883340728744e-04 -5.297006852740e-06 0.0 
-5.297006852740e-06 2.040218536578e-03 0.0 
0.0 0.0 -3.266666666667e-04 
-5.221802544742e-04 3.142786752395e-04 0.0 
3.142786752395e-04 2.396081260473e-03 0.0 
0.0 0.0 -3.859030858720e-04 
-4.643532723477e-04 -6.847349416375e-06 0.0 
-6.847349416375e-06 2.429348412629e-03 0.0 
0.0 0.0 -3.933333333333e-04 
-5.880460427890e-04 2.259415376055e-04 0.0 
2.259415376055e-04 2.861994469718e-03 0.0 
0.0 0.0 -4.526870748299e-04 
-5.389667577120e-04 -6.804025262557e-06 0.0 
-6.804025262557e-06 2.978462680921e-03 0.0 
0.0 0.0 -4.600000000000e-04 
-6.473050156334e-04 1.727942626416e-04 0.0 
1.727942626416e-04 3.336717154907e-03 0.0 
0.0 0.0 -5.192176870747e-04 
-6.144712139930e-04 -6.417158408879e-06 0.0 
-6.417158408879e-06 3.367933189460e-03 0.0 
0.0 0.0 -5.266666666667e-04 
-7.109436799071e-04 1.285541719908e-04 0.0 
1.285541719908e-04 3.807150921548e-03 0.0 
0.0 0.0 -5.860204081633e-04 
-6.853888581673e-04 6.201834011282e-06 0.0 
6.201834011282e-06 3.914136364457e-03 0.0 
0.0 0.0 -5.933333333333e-04 
-7.741251423872e-04 1.050422606297e-04 0.0 
1.050422606297e-04 4.286196800977e-03 0.0 
0.0 0.0 -6.525251918948e-04 
-7.681459693767e-04 3.705640173290e-05 0.0 
3.705640173290e-05 4.300928271438e-03 0.0 
0.0 0.0 -6.600000000000e-04 

SCALARS node_materi_plasti_kappa_shear float
LOOKUP_TABLE default
4.018595016637e-04
3.089753889168e-03
5.782851735544e-03
5.918183804685e-03
3.534406101045e-04
5.777185496190e-04
8.655346567894e-04
1.225178696612e-03
1.561289241519e-03
1.871659154863e-03
2.181083715770e-03
2.488964856422e-03
2.787137593187e-03
3.091771098928e-03
3.420472284368e-03
3.710467865470e-03
3.939561491463e-03
4.240577622205e-03
4.533842638206e-03
4.816933074020e-03
5.104668969230e-03
5.391975952764e-03
5.664103688175e-03
5.924781152092e-03
5.917884078783e-03
5.912198488963e-03
5.915363934694e-03
5.905144694759e-03
5.903457440159e-03
5.903348825920e-03
5.903761712110e-03
5.904265203747e-03
5.905318048855e-03
5.891395232290e-03
5.888128140164e-03
5.888680312796e-03
5.877931512601e-03
5.860031142375e-03
5.843163873242e-03
5.826784160533e-03
5.822850206754e-03
5.815960623432e-03
5.800025919692e-03
5.784362356774e-03
5.761776212317e-03
5.737855144385e-03
5.711749137531e-03
5.696108572039e-03
5.671644922162e-03
5.650827538949e-03
5.628366488181e-03
5.614080868870e-03
5.604140386820e-03
5.593036124330e-03
5.565915778014e-03
5.555192109801e-03
5.573004876633e-03
5.580306717995e-03
5.596307166112e-03
5.614091302200e-03
5.629810666475e-03
5.640837494200e-03
5.663093814390e-03
5.686920133380e-03
5.716693701825e-03
5.739758391817e-03
5.726679333637e-03
5.759394314008e-03
5.766547388258e-03
5.773558049937e-03
5.793695355299e-03
5.800384027879e-03
3.373278433029e-03
3.702017582457e-03
4.003145076898e-03
4.293988028575e-03
4.595203178701e-03
4.888984289506e-03
5.184208240141e-03
5.464856448975e-03
5.776378587400e-03
0.0
3.081614032412e-03
4.500568569872e-04
7.704259860332e-04
1.116670859615e-03
1.349014216904e-03
1.575876928334e-03
1.839092757794e-03
2.132793436960e-03
2.435412037652e-03
2.742854806992e-03
4.741548277707e-04
6.366266937039e-04
9.327039136355e-04
1.234373397688e-03
1.540487309266e-03
1.848687914648e-03
2.157438038011e-03
2.464376355407e-03
2.763613688910e-03
3.033283060944e-03
3.047551184854e-03
3.052691208087e-03
3.048980415926e-03
3.100970999415e-03
3.055386088564e-03
3.048944342912e-03
3.057111577284e-03
3.066860764030e-03
3.068512091509e-03
3.063486917503e-03
3.060147944086e-03
3.055345893607e-03
3.060924048496e-03
0.0
0.0
0.0
0.0
3.010556392937e-05
1.524327839584e-04
1.995857095858e-04
2.767971837970e-04
3.769179784358e-04
3.253807271213e-04
3.117581124918e-04
3.606568275965e-04
3.857262083461e-04
3.906419353076e-04
3.716692121618e-04
3.690405021818e-04
3.649158742688e-04
3.750961897123e-04
3.938961504005e-04
4.263783841981e-04
4.085484614761e-04
4.333586540154e-04
4.360183858802e-04
4.359929931243e-04
4.351204935849e-04
4.337746421519e-04
4.321059197529e-04
4.301863588085e-04
4.280555764144e-04
4.257440693137e-04
4.232892354504e-04
4.207404128348e-04
4.181557073314e-04
4.155913010510e-04
4.131211176118e-04
4.106763707046e-04
4.083574147068e-04
4.063879173040e-04
4.075557942585e-04
4.211209541799e-04
4.658504517525e-04
5.191949402500e-04
6.089896924048e-04
6.353002441999e-04
5.968176662147e-04
5.524297331097e-04
4.704033274944e-04
6.765588483990e-04
7.171330203849e-04
6.707236436129e-04
6.066818627026e-04
5.868731267425e-04
5.629247652955e-04
5.533919463762e-04
5.495313735217e-04
5.487758511153e-04
5.489090017277e-04
5.496283092039e-04
5.506469998929e-04
5.519072704306e-04
5.533253067416e-04
5.548351722064e-04
5.563612667463e-04
5.578300993352e-04
5.591867734787e-04
5.603940529731e-04
5.614133671171e-04
5.621881572816e-04
5.626281858834e-04
5.625865165803e-04
5.617917193559e-04
5.607292263102e-04
6.050395182957e-04
9.909652232208e-04
1.000323894640e-03
9.426429247523e-04
9.191754271031e-04
9.069282314655e-04
8.961955305782e-04
8.899178029781e-04
8.856946120988e-04
8.832943610386e-04
8.819803486326e-04
8.815291054231e-04
8.816763298801e-04
8.822954651675e-04
8.832145972014e-04
8.842483524863e-04
8.852607652099e-04
8.861709768136e-04
8.869093519269e-04
8.874063066099e-04
8.875951146691e-04
8.874459252017e-04
8.870250409582e-04
8.867868378058e-04
8.903609641353e-04
9.175642756490e-04
1.218617488871e-03
1.201441144692e-03
1.200450054902e-03
1.200725682078e-03
1.201284400767e-03
1.201809552986e-03
1.202146721212e-03
1.202263596627e-03
1.202225086140e-03
1.202090321804e-03
1.201916536589e-03
1.201744135093e-03
1.201800021073e-03
1.202351193508e-03
1.203648568617e-03
1.205522949758e-03
1.208629005642e-03
1.212461690665e-03
1.219453852663e-03
1.226928831710e-03
1.244550525754e-03
1.281903527467e-03
1.240390523468e-03
1.503710853602e-03
1.563264015597e-03
1.541819981905e-03
1.533515452539e-03
1.530749929635e-03
1.526512742426e-03
1.523991147098e-03
1.521462715804e-03
1.520000732908e-03
1.519373259278e-03
1.519112239051e-03
1.518688350821e-03
1.518233377000e-03
1.517797439737e-03
1.517289149115e-03
1.516573233522e-03
1.515655005308e-03
1.514795103623e-03
1.514285677842e-03
1.514558152049e-03
1.516766357273e-03
1.531646280250e-03
1.838274221278e-03
1.827642067065e-03
1.826933390294e-03
1.827334425569e-03
1.828247054489e-03
1.829485851769e-03
1.830712470314e-03
1.831486639508e-03
1.832077787242e-03
1.832953756020e-03
1.833892061319e-03
1.834434545344e-03
1.834261549352e-03
1.835206308822e-03
1.837211607732e-03
1.841012575748e-03
1.841393986030e-03
1.843823439171e-03
1.861376219882e-03
1.784560400915e-03
2.080506824934e-03
2.164948252942e-03
2.154100839180e-03
2.150515564044e-03
2.148527180390e-03
2.146829621685e-03
2.148399684790e-03
2.148269732465e-03
2.147251103362e-03
2.145502430008e-03
2.144742881416e-03
2.144585681651e-03
2.143007155335e-03
2.141326361852e-03
2.140089070988e-03
2.139324946174e-03
2.139237355337e-03
2.141352669433e-03
2.151708895370e-03
2.461087216651e-03
2.449937346399e-03
2.449035342414e-03
2.450513446923e-03
2.450644149295e-03
2.452642955489e-03
2.454778138053e-03
2.455902509536e-03
2.454538383279e-03
2.457438007012e-03
2.459393424546e-03
2.458960398410e-03
2.459214310986e-03
2.454295807747e-03
2.458028484257e-03
2.475695803071e-03
2.389521690566e-03
2.696529334491e-03
2.782001887569e-03
2.769038020761e-03
2.765913210012e-03
2.768177298345e-03
2.769449690573e-03
2.765618434112e-03
2.764713207464e-03
2.764281696244e-03
2.762786239059e-03
2.760748228383e-03
2.759266427299e-03
2.760944420823e-03
2.756978941966e-03
2.764313748951e-03
2.781014989081e-03
1.935005953145e-04
6.126331900618e-04
1.027015258374e-03
1.303606500789e-03
1.480294313688e-03
1.730609436774e-03
2.006286172887e-03
2.301780023271e-03
2.604607703320e-03
2.917242865590e-03
9.738600395069e-04
5.435588587201e-03
2.909988311951e-04
3.769847250241e-05
5.523350165745e-03
1.570944169196e-03
3.259014405966e-03
5.458606763578e-03
1.964336709912e-03
5.566973844380e-03
2.569306611317e-03
5.632953359091e-03
2.974125210141e-04
5.671758588449e-03
3.203440197606e-03
2.038890301765e-03
4.045860618713e-03
5.716180375960e-03
5.780776132195e-03
5.820339983969e-03
5.787783236705e-03
5.807930197893e-03
3.336276229903e-03
3.342041558882e-03
3.361792062102e-03
4.441169448529e-03
5.674307051814e-03
0.0
3.209899088955e-04
4.945795996265e-03
3.327462179655e-03
1.042267579418e-03
5.707024864184e-03
5.532622783008e-03
5.619797893241e-03
5.423578043402e-03
5.471772884167e-03
3.436383270429e-04
3.333005330644e-03
5.529223749367e-03
5.037839075619e-03
2.638587871684e-04
2.642361659730e-03
5.873210275008e-03
1.763677943653e-03
1.340334044123e-03
2.263467496582e-03
2.874799860949e-03
3.812994911157e-04
3.869122312403e-03
5.743109238437e-03
3.285007242827e-04
5.592525333234e-03
3.331816214928e-03
3.445762685372e-03
3.598635432457e-03
3.735913935781e-03
3.890935618439e-03
4.012600674008e-03
3.849474617287e-03
4.126514031565e-03
3.959165169884e-03
4.176038116471e-03
4.235988580970e-03
4.064707878218e-03
4.341402437136e-03
4.167240197337e-03
3.894151677151e-03
3.992834958239e-03
3.721936449487e-03
3.816849981585e-03
4.088667098279e-03
3.907021233887e-03
3.638494610824e-03
3.722863223661e-03
3.459179651477e-03
3.537390187834e-03
3.278134638251e-03
3.349761859775e-03
3.611638012721e-03
3.416809574398e-03
3.159803868816e-03
3.218051688491e-03
2.967054440755e-03
3.013255720382e-03
3.274741419647e-03
3.060407839341e-03
2.799033525006e-03
2.837141687482e-03
2.575225456547e-03
2.604333461748e-03
2.339006943104e-03
2.356936139518e-03
2.652093179226e-03
2.407825459181e-03
2.096105658174e-03
2.161022888783e-03
2.499076110119e-03
2.280206439540e-03
2.629068977315e-03
2.442266900798e-03
2.092139772061e-03
2.292183785287e-03
2.630236405014e-03
2.506325631077e-03
2.190661895186e-03
2.422274426006e-03
2.721982461051e-03
2.641933182030e-03
2.372758104436e-03
2.584384885052e-03
2.850333968712e-03
2.779077813444e-03
2.534557373612e-03
2.709557774217e-03
2.962454448322e-03
2.875190167875e-03
3.136631662821e-03
2.629761375739e-03
2.778979644167e-03
2.533618166994e-03
2.669371918058e-03
3.335780224915e-03
2.417052975494e-03
2.301133563289e-03
2.544153619348e-03
2.809569658580e-03
2.280488059570e-03
2.403129281843e-03
2.126768242516e-03
2.337020972949e-03
4.180692697777e-03
2.249003779132e-03
1.959755581014e-03
1.842529391951e-03
1.658290441270e-03
4.057689887828e-03
4.345234894460e-03
4.214494829484e-03
4.512207963410e-03
4.386116896851e-03
1.781237856866e-03
4.515858041588e-03
4.632785065629e-03
3.375865563346e-03
2.914340702826e-03
2.837997481989e-03
2.532048550751e-03
2.378710134929e-03
2.668313152737e-03
3.233044162886e-03
3.411145406702e-03
3.516648249659e-03
3.695606962541e-03
3.809881520442e-03
3.987932871345e-03
3.868387923180e-03
4.160380401702e-03
4.035401995459e-03
4.109927676280e-03
3.929071965477e-03
4.326541573449e-03
4.196853341751e-03
4.486612097014e-03
4.352559495553e-03
4.065464170358e-03
4.216259007439e-03
3.932665926102e-03
2.974206145827e-03
3.176937453123e-03
3.316135238148e-03
3.514584502752e-03
3.655690360847e-03
3.851432524779e-03
3.992906615051e-03
3.810423676568e-03
4.443438443786e-03
1.828572061533e-03
1.806415762240e-03
1.513365747016e-03
1.563989916259e-03
1.243214007741e-03
1.411260727777e-03
1.087408529277e-03
9.280634857496e-04
7.696745497682e-04
7.727047061155e-04
6.380213861807e-04
9.424950275726e-04
3.683920707972e-03
3.721810168106e-03
4.055539867157e-03
3.931687734683e-03
1.545289606018e-03
4.502587431745e-03
4.237803823005e-03
4.054767645798e-03
4.147689587509e-03
1.469037962723e-03
1.381279309045e-03
1.636872751770e-03
4.676612476866e-03
4.548915297300e-03
4.373011447568e-03
1.596671411329e-03
4.457517107573e-03
6.726180917699e-04
4.361759767158e-03
4.647438517847e-03
3.749070434487e-03
4.262666346844e-03
4.139562493484e-03
1.058263721451e-03
1.328795762681e-03
1.257951778391e-03
1.615059101371e-03
1.617776829753e-03
1.784704992927e-03
1.664404533731e-03
1.851897133188e-03
1.923512677117e-03
1.920863832566e-03
1.732826179111e-03
1.789080397445e-03
4.789640175199e-03
4.933105548269e-04
3.623293427982e-03
4.549397453839e-03
4.326717748868e-03
4.840106465985e-03
4.712783082347e-03
4.418649943636e-03
4.585859736983e-03
4.878747721020e-03
4.750919794657e-03
4.456475978691e-03
4.618929314417e-03
4.321775629010e-03
4.485087669046e-03
4.780485262660e-03
4.648645754832e-03
4.352908180169e-03
4.515438133183e-03
4.218119818909e-03
4.376442562231e-03
4.677698654010e-03
1.280455175298e-03
3.975684030661e-03
4.313430537097e-03
2.531248625096e-03
2.795187276442e-03
2.950421176089e-03
3.091354176801e-03
4.540325048562e-03
4.842133621751e-03
1.627886023255e-03
1.806948227217e-03
4.964897247722e-03
4.505647349825e-03
4.219641279942e-03
2.730984817609e-03
2.680252985846e-03
2.508656173216e-03
2.453261305901e-03
2.619408054872e-03
2.295804407583e-03
3.740263927180e-03
4.943332949813e-03
1.736869985241e-03
1.441819622179e-03
4.792252417499e-03
3.639826983595e-03
3.882064491805e-03
3.960472891563e-03
4.161603615821e-03
4.245857029619e-03
4.449138486875e-03
4.538270851724e-03
4.336412104350e-03
4.467009293726e-03
4.637465802825e-03
4.227760771006e-03
3.603493058884e-03
2.015316274690e-03
1.151528373984e-03
1.494680084950e-03
1.401763515938e-03
1.725734234278e-03
4.692766413527e-03
4.744201478352e-03
4.646812231519e-03
2.391216520205e-03
2.541437442855e-03
4.590954612420e-03
4.090617543142e-03
4.159541705089e-03
4.020881279016e-03
1.028169191453e-03
1.414727337198e-03
5.043491496533e-03
1.828932906125e-03
1.917980713017e-03
4.157180774186e-04
1.730461438410e-04
4.691724722002e-03
4.992960999119e-03
3.232526540781e-03
3.376337074583e-03
4.517813292037e-03
1.573664134280e-03
5.136914764881e-03
3.818178697522e-03
3.485662865048e-03
2.929371560799e-03
1.726704283358e-03
1.445214139705e-03
2.001081890038e-03
1.816948000307e-03
1.537558582793e-03
4.841861112859e-03
5.166500773962e-03
4.432736485775e-03
4.128543821065e-03
4.737743923515e-03
1.242267063270e-03
4.872712079514e-03
4.648563616368e-03
4.934717953700e-03
4.841015803805e-03
1.998284811115e-03
2.023831337705e-03
1.929656289699e-03
2.012827717834e-03
3.685637869250e-03
2.160195855781e-03
3.453630867072e-03
3.353268669804e-03
3.189580292168e-03
2.780580474833e-03
2.697012491619e-03
1.850761695031e-03
3.058179809856e-03
3.092459470665e-03
3.782098167745e-03
3.330348654579e-03
5.071602464651e-03
5.237586080772e-03
4.054791370477e-03
3.911736450825e-03
1.227723328770e-03
1.121568548935e-03
3.305144710569e-03
4.722576138818e-03
5.125546474561e-03
5.249094215458e-03
5.084093944170e-03
4.665047890294e-03
1.576387794071e-03
3.131769936580e-03
4.332121020711e-04
3.548502236301e-03
8.886689387002e-04
4.364114879908e-03
4.929747689709e-03
5.074378233997e-03
4.790835636384e-03
3.303647652991e-03
3.622953727387e-03
3.407028331038e-03
3.087385769992e-03
2.928470296599e-03
3.025957624230e-03
2.770242371404e-03
2.146257545189e-03
2.105072283453e-03
5.074226657025e-03
4.945890381019e-03
5.132442016699e-03
5.036778597884e-03
4.913108523956e-03
4.718978319234e-03
1.854189815065e-03
2.451969709865e-03
5.326205974980e-03
3.245806195750e-03
5.032929921038e-03
4.895632072523e-03
8.703516401928e-05
5.025155932237e-04
5.299729360747e-03
1.862195518962e-03
1.925793576571e-03
1.786850721610e-03
5.508894573325e-03
3.317615670200e-03
5.206554443836e-03
2.947814730022e-03
5.436495255461e-03
3.710224019945e-03
2.542778381884e-03
4.340023150483e-03
5.139724345049e-03
5.473155703650e-03
3.856151046115e-03
3.706636097451e-03
3.986363479487e-03
8.597848081306e-04
4.948557720352e-04
5.105588847389e-03
2.215579397184e-03
2.383580716268e-03
1.610091948116e-03
1.853488942060e-03
3.371371645262e-03
3.226095624709e-03
4.460118615317e-03
4.646317835839e-03
4.077799721507e-03
3.673670130341e-03
3.349970931866e-03
3.156166832522e-03
5.356340387661e-03
5.560199060828e-03
2.148566688317e-03
1.947252295954e-03
2.277219304698e-03
5.452662980312e-03
5.357012637058e-03
5.217066698957e-03
7.819578528788e-04
1.028971749725e-03
1.479365826605e-03
1.088843442230e-03
5.358763484459e-03
5.206986646545e-03
5.554350471510e-03
1.646365469631e-03
4.227084436487e-03
4.981659535795e-03
4.824566320775e-03
5.205837116450e-03
4.665431215243e-03
4.979351549170e-03
5.045785100976e-03
6.553725280370e-06
5.354913579490e-03
3.735880701652e-03
0.0
3.596581939605e-03
3.776236102998e-03
3.431628553560e-03
1.322961065373e-03
3.627378963851e-03
3.821605526455e-03
5.613183195734e-04
5.602994573649e-03
5.605292770001e-04
6.792338181858e-04
5.201033617940e-03
5.054577875215e-03
5.350694268135e-03
5.195925285154e-03
4.911596497334e-03
5.072562886383e-03
3.571136890228e-03
5.391533904623e-03
5.225263310295e-03
5.570873285067e-03
2.672019548462e-03
2.112700823481e-03
2.016942320669e-03
1.807045388934e-03
5.367508392991e-03
5.211741918196e-03
4.791087967570e-03
4.504528282397e-03
3.617380192862e-03
3.592243224651e-03
3.871542763848e-03
3.825760515629e-03
4.113486033420e-03
4.067343757730e-03
4.345783660312e-03
5.267440361509e-03
1.658829135304e-03
2.980180790998e-03
5.045745089381e-03
4.837810433997e-03
2.604840179930e-03
2.359528337880e-03
5.236949940379e-03
2.139698474170e-03
5.776025953178e-03
4.548865527308e-06
9.778909536358e-05
2.339238525722e-03
2.860933532174e-03
2.233233218599e-03
2.157897013088e-03
4.004695448910e-03
9.235095768594e-04
1.682665914814e-03
4.384602592843e-03
1.382892764948e-03
4.658101181556e-03
2.105930324669e-03
3.025966663440e-03
1.860371278765e-03
2.156903041045e-03
3.791766830717e-03
3.575521711054e-03
3.414449332742e-03
2.082739350568e-03
2.302944948856e-03
2.030320299130e-03
3.548903922870e-03
4.919586046203e-03
5.037796762254e-03
5.310613898604e-03
5.154282845662e-03
4.869442501819e-03
4.979196796726e-03
5.263482143390e-03
5.097588445123e-03
5.433286767238e-03
5.203085790594e-03
4.911819673152e-03
5.013424306316e-03
5.289013913456e-03
4.727439554445e-03
5.236156713520e-03
2.555895745055e-03
9.111497954270e-05
4.210174297476e-04
3.201712461661e-03
5.730004135783e-03
5.767445976811e-03
1.691075707631e-03
5.643473628579e-03
3.519780408461e-03
1.047073323882e-03
5.592957634279e-03
4.751520745493e-03
4.579435651060e-03
4.463201836768e-03
5.793236110746e-03
4.123046406902e-03
5.509305537426e-03
3.389446893060e-03
3.279327038173e-03
2.961278145953e-03
4.801619878836e-03
5.436694213567e-03
5.157649565966e-03
5.160321964187e-03
4.861485784401e-03
5.448713258893e-03
5.717599457512e-03
5.706213826985e-03
1.828494135708e-03
1.709398695910e-03
1.898258451700e-03
1.622333472901e-03
1.412743391040e-03
1.316736111381e-03
1.628168335130e-03
1.039665837842e-03
4.929832743955e-03
5.492129088288e-03
3.625564248661e-03
3.432597322909e-03
3.134856267973e-03
2.952066020253e-03
3.078747520708e-03
3.351373813983e-03
2.815770384213e-03
4.041389319165e-03
5.510043080626e-03
3.303884447530e-03
2.928688293770e-03
3.336341398281e-03
3.593836274312e-03
3.598511107039e-03
3.869249033601e-03
3.623805167776e-03
3.516608453604e-03
3.658527646077e-03
3.515347475486e-03
3.794985028764e-03
3.639781273069e-03
3.373627075467e-03
3.921733030934e-03
3.752559113767e-03
3.333440693931e-03
1.541531548535e-04
5.940250931269e-04
7.027142990941e-04
1.021409890230e-03
8.359819815989e-04
1.303920167999e-03
1.039423496534e-03
3.284076278483e-04
3.019271284436e-04
6.566057884129e-04
3.288717913001e-04
5.940028616348e-04
1.062033452019e-03
1.367334253023e-03
5.652286702243e-03
2.938936405259e-03
2.805289880450e-03
2.499233211098e-03
2.662705054473e-03
3.052456379495e-03
2.341669267002e-03
2.236323217213e-03
3.229285700949e-04
4.419598349488e-04
4.410447408450e-04
7.207625795544e-04
7.074768685298e-04
4.420400412776e-04
4.449633113940e-04
3.145644272533e-04
4.504548672274e-04
7.268015370500e-04
3.062409538729e-04
4.745527215494e-03
4.902505264739e-03
5.544916367284e-03
3.368924595429e-03
2.544811655954e-04
5.780998861492e-03
5.813842834379e-03
5.817013326087e-03
5.233971751005e-03
5.365637462079e-03
5.788240472877e-03
2.014050555547e-03
5.434538857935e-03
5.267458791713e-03
1.311421764019e-03
2.008026884127e-03
4.362324178154e-03
3.910057017267e-03
4.933262515921e-03
4.079022426720e-03
4.641099795521e-03
5.158355521769e-03
1.213464950072e-03
4.185417172818e-03
4.076798602367e-03
4.811798339392e-03
2.086149546152e-03
3.238993663622e-03
1.348867022610e-03
5.359250132040e-03
3.285416912686e-03
3.046769336548e-03
2.677719312106e-03
2.168475210699e-03
1.957305737071e-03
2.768223087164e-03
3.036664388310e-03
4.286179880856e-03
4.975421168353e-03
3.166773246265e-04
4.414552831620e-03
3.582806630633e-03
4.292263749295e-03
4.187531334710e-03
1.624964030413e-03
4.913094015127e-03
5.399859365631e-03
3.948537402346e-03
1.019982226970e-03
3.882948642930e-03
5.011342776406e-03
4.799927772923e-03
1.909455734444e-03
2.789026983488e-03
3.096861197051e-03
3.026441214717e-03
5.391810110936e-03
3.115333052867e-03
4.488935570888e-03
3.471918703045e-03
2.042934957486e-03
4.758450757247e-03
2.730164700611e-03
5.205251802628e-03
4.359423513210e-03
1.928746000249e-03
5.001431347950e-03
2.931441338209e-03
4.390043822392e-03
3.117148399214e-03
3.803735016467e-03
4.266483966727e-03
3.482072113493e-03
4.216350577802e-03
4.589726999369e-03
7.822158450211e-04
2.336975079915e-03
4.252864040516e-03
4.830810690924e-03
5.492998307562e-03
2.853919931406e-03
4.620197000946e-03
5.283300374483e-03
3.195345026289e-03
1.407849422888e-03
1.052568637253e-03
1.231938885888e-03
2.888387059379e-03
3.468984859371e-03
5.520066455693e-03
4.776767016044e-03
4.191097730844e-03
7.054263323161e-04
3.137270481220e-03
4.930209733183e-03
2.967745864271e-03
4.518076980286e-03
3.471719766141e-03
5.320909655121e-03
2.513659337608e-03
5.087932046227e-03
4.157539429139e-03
1.929448282595e-03
3.328255837959e-03
5.415880323612e-03
4.493880815661e-03
3.756679585458e-03
2.829619919497e-03
2.715238429679e-03
3.628276273171e-03
3.993174405771e-03
5.804322562982e-03
4.644362204700e-03
4.291233033703e-03
3.502523749532e-03
3.813462889229e-03
7.047390220056e-04
2.825859966298e-03
3.651715310585e-03
1.384942781952e-03
3.032571676708e-03
5.114951343620e-03
3.797843583975e-03
1.739058177563e-03
3.939088055833e-03
2.408697712716e-03
4.407302233334e-03
4.073717321279e-03
4.269608694399e-03
7.894202949830e-04
3.833002126981e-03
5.075427847675e-03
2.404246341971e-03
3.233663163957e-03
4.694223929722e-03
2.107126776239e-03
3.545482769992e-03
4.553232214608e-03
3.920507140127e-03
3.187539066147e-03
3.865534957540e-03
2.217505343363e-03
1.917452006600e-03
1.657786857477e-03
1.956380160446e-03
4.746672213180e-03
1.005389459169e-03
4.623386601130e-03
1.307883538802e-03
1.891532021104e-03
4.345633367675e-03
4.169109331877e-03
2.143128441899e-03
1.729669733719e-03
2.136474112095e-03
3.495395175694e-03
2.347008504077e-03
2.321698774103e-03
5.562109209316e-03
2.479278600157e-03
5.832033053261e-03
5.683459550606e-03
3.569571471478e-03
1.841669118824e-03
0.0
1.939425135395e-03
2.198379986357e-03
4.544915456455e-03
3.572687871249e-03
2.077081277084e-03
5.482725273702e-03
5.548817509372e-03
4.594253848124e-03
4.650854355195e-03
4.026711817750e-03
5.298348689818e-03
3.310673635212e-03
5.319704039765e-04
4.366888493405e-03
1.596020396402e-03
1.727925572495e-03
1.537504339033e-03
2.155926239816e-03
1.066640011348e-03
1.470469770676e-03
5.133441966827e-03
3.576035110635e-03
4.538549050418e-03
1.190734353883e-03
5.563426082931e-03
5.226029974003e-03
5.618784336637e-03
4.858869215134e-03
1.131768423013e-03
3.817527287724e-03
5.388671225133e-03
4.831755994392e-03
5.661150035348e-03
3.527768805689e-03
5.594510040717e-03
8.645247776374e-04
5.592056671628e-03
4.830647828208e-03
3.948871847594e-03
3.795468355754e-03
5.483498521481e-03
5.518494078473e-03
7.078378622743e-04
4.578727725803e-03
2.665021533502e-03
8.704557035287e-05
5.306855478618e-03
5.101857700586e-03
5.457161495010e-03
7.154962728763e-04
4.367291898862e-04
5.308036467256e-03
5.475077044311e-03
1.415797628064e-03
5.866481278788e-03
1.720779943565e-04
3.266292359391e-03
4.330017662913e-04
5.682371966829e-03
5.607182569852e-03
2.919687531898e-03
3.339776257796e-03
1.951427265437e-03
5.094079203513e-03
8.720869757284e-04
5.646101319162e-03
5.274827266557e-03
5.610655463052e-03
5.543108792546e-03
1.443335536963e-05
5.340000167234e-03
4.934198621273e-03
3.315096198721e-03
5.545224744199e-03
2.394333441960e-03
1.003430899199e-03
5.853061777029e-03
3.539454610573e-04
3.294611847679e-03
5.738597030996e-03
9.205396441291e-04
3.785517905279e-03
5.505285211453e-03
3.560630679607e-03
5.121626185149e-03
1.319457347623e-03
0.0
4.321439572445e-03
5.262500811899e-03
5.642111831980e-03
4.116674015646e-03
7.838175614556e-04
5.331973850864e-03
3.136604846599e-03
5.194131730829e-03
4.931303994474e-03
9.869356140818e-05
3.813324024854e-03
4.130724803800e-04
5.442551602023e-03
3.274124271133e-03
5.502589834042e-04
4.716896824692e-04
9.205772766816e-04
8.036923176890e-04
1.189722026919e-03
1.058092070359e-03
1.410613407395e-03
1.408302020406e-03
1.679286936992e-03
1.670388510905e-03
1.968639986938e-03
2.024811344556e-03
2.272195221506e-03
2.288799502470e-03
2.577527492663e-03
2.642045162662e-03
2.890176481776e-03
2.907269203429e-03

SCALARS node_materi_plasti_phimob float
LOOKUP_TABLE default
1.935874606624e+01
1.643614999691e+01
2.053827057542e+01
2.031928161866e+01
-2.888052235238e+01
-4.251389975104e+00
3.469898931190e+00
8.067404239547e+00
1.104056003685e+01
1.302989141282e+01
1.448791454472e+01
1.561366111995e+01
1.650327122125e+01
1.724375109614e+01
1.787840660940e+01
1.836355957004e+01
1.873900868674e+01
1.911875584545e+01
1.945107104602e+01
1.973306587510e+01
1.998874654063e+01
2.022263840197e+01
2.041954035761e+01
2.033061098763e+01
2.032769553846e+01
2.033031198127e+01
2.033357102097e+01
2.032717765617e+01
2.033330608017e+01
2.033107890483e+01
2.033975093590e+01
2.034735636412e+01
2.035484466628e+01
2.035207408507e+01
2.036542968108e+01
2.037023143601e+01
2.038497254325e+01
2.038676283745e+01
2.039998774311e+01
2.041154921114e+01
2.042586890478e+01
2.045208904152e+01
2.047562301271e+01
2.049544899543e+01
2.051016493311e+01
2.054181580934e+01
2.057095819017e+01
2.060039750559e+01
2.061839221499e+01
2.065874770781e+01
2.066583657640e+01
2.069574258132e+01
2.069727087422e+01
2.071732221808e+01
2.072460749796e+01
2.072010849727e+01
2.071937833138e+01
2.071010014351e+01
2.070500902621e+01
2.068425065834e+01
2.067766448560e+01
2.065143134278e+01
2.064603854166e+01
2.063183567415e+01
2.060092904672e+01
2.058477840421e+01
2.056749819506e+01
2.056563780033e+01
2.056015040846e+01
2.055859059256e+01
2.055785403866e+01
2.055619447359e+01
1.714465819094e+01
1.775860319867e+01
1.825722011170e+01
1.867867284735e+01
1.905639292794e+01
1.937812398453e+01
1.967413273735e+01
1.993695618608e+01
2.017605584972e+01
1.485255643854e+01
1.627849920836e+01
8.507666912252e+00
-1.383451138628e+01
-4.356375646019e+00
2.373798201005e+00
7.266140226110e+00
1.042734105355e+01
1.256866199718e+01
1.411745609466e+01
1.529283981551e+01
1.878480561845e+01
-3.357889606262e+01
-8.550076555339e+00
1.993562103222e+00
7.367320976563e+00
1.062949459207e+01
1.278175387202e+01
1.432954959798e+01
1.547259199275e+01
1.630431951642e+01
1.634008457447e+01
1.634347523709e+01
1.632507211389e+01
1.641225823963e+01
1.631493409298e+01
1.628517863080e+01
1.628452454656e+01
1.629544214919e+01
1.628047492275e+01
1.625575344972e+01
1.624313042724e+01
1.622949621614e+01
1.623713453067e+01
8.801426767162e+00
6.481248874717e+00
6.676028916506e+00
8.450294409015e+00
8.758025765477e+00
-1.256377867879e+01
-4.555442433807e+01
-8.113922591211e+00
4.097441958232e+01
4.144405841064e+01
4.146887200599e+01
-7.624597719509e+00
-7.624573307459e+00
8.999999999681e+01
8.999999999681e+01
4.144668589556e+01
4.141046739254e+01
8.999999999681e+01
8.999999999681e+01
-9.412195381482e+00
-5.733659300137e+01
-5.544452166285e+01
-5.531377848379e+01
-5.524806567598e+01
-5.520864625581e+01
-5.518438725112e+01
-5.516708106163e+01
-5.515218293836e+01
-5.513742602233e+01
-5.511570820758e+01
-5.506069034211e+01
-5.497474184808e+01
-5.488028485285e+01
-5.476047079435e+01
-5.462652657256e+01
-5.449096255140e+01
-6.262848124842e+00
4.129061554823e+01
4.019065608000e+01
3.969487469493e+01
3.980877878285e+01
3.983959606001e+01
4.016620575132e+01
4.003058770479e+01
-4.106252436969e+00
-6.738298217556e+00
1.668967590104e+01
-2.927123825800e+01
-9.962520442349e+00
-1.064140021550e+01
-1.086468693443e+01
-1.092789746902e+01
-1.097658883137e+01
-1.104086799559e+01
-1.086126130182e+01
-1.064367422853e+01
-3.483049013466e+01
-3.498860870029e+01
-3.515879926497e+01
-3.532144230667e+01
-3.543975687330e+01
-3.552153682123e+01
-3.559826330207e+01
-3.565847019152e+01
-3.571214323640e+01
-3.576253360925e+01
-3.581023591380e+01
-3.585649986704e+01
-3.590349563737e+01
-3.595364182942e+01
-3.600369058700e+01
-3.604633162378e+01
-3.554431112349e+01
-8.941285188922e+00
-7.677795782566e+00
-8.533351686782e+00
-8.597179378621e+00
-8.517812038215e+00
-8.553291496577e+00
-8.576750742865e+00
-8.627879989982e+00
-8.683093541297e+00
-8.750676564516e+00
-8.823429215732e+00
-8.893401404868e+00
-8.940235424303e+00
-8.986146017488e+00
-9.030380023510e+00
-9.072726636196e+00
-9.112903728517e+00
-9.150883443376e+00
-9.187050463530e+00
-9.222240398430e+00
-9.257270265720e+00
-9.290585206105e+00
-9.302070832808e+00
-9.092488389134e+00
-8.413386717228e+00
1.723443007502e+00
1.686471215333e+00
1.694771367419e+00
1.708534229007e+00
1.726661751234e+00
1.745799571097e+00
1.764611461614e+00
1.782895910937e+00
1.800849839996e+00
1.818394272136e+00
1.835190681097e+00
1.850608805895e+00
1.864725386793e+00
1.877063010860e+00
1.886832229471e+00
1.890452873141e+00
1.889715918275e+00
1.878950176474e+00
1.869851817556e+00
1.839962771917e+00
1.841586124315e+00
2.227633763860e+00
1.155953031133e+00
6.688748675028e+00
7.390762598578e+00
7.196349140452e+00
7.192455012309e+00
7.213995183933e+00
7.224277575689e+00
7.237456559933e+00
7.244484700214e+00
7.251273985145e+00
7.257212712212e+00
7.261792595757e+00
7.263385861340e+00
7.262954608375e+00
7.261177678615e+00
7.258068321972e+00
7.253355833943e+00
7.247170665774e+00
7.240901363039e+00
7.236773358208e+00
7.239893040650e+00
7.281086385470e+00
7.394334801084e+00
1.056516580435e+01
1.055314727894e+01
1.054833890081e+01
1.054565069071e+01
1.054432307481e+01
1.054320916871e+01
1.054093467312e+01
1.053601463690e+01
1.052926722279e+01
1.052193488730e+01
1.051309083956e+01
1.050125223088e+01
1.048573604148e+01
1.047200102465e+01
1.046027161580e+01
1.045273835808e+01
1.043708647902e+01
1.042873668308e+01
1.055497834586e+01
1.006460516045e+01
1.230967742999e+01
1.267493175472e+01
1.260232991162e+01
1.260278567940e+01
1.260950125716e+01
1.262119352573e+01
1.264116956624e+01
1.265756837363e+01
1.267123576687e+01
1.268192674069e+01
1.269371242763e+01
1.270608764895e+01
1.271363450762e+01
1.271946701718e+01
1.272516017426e+01
1.273078100945e+01
1.273749583393e+01
1.275593874986e+01
1.279211906291e+01
1.431207326034e+01
1.429838278830e+01
1.429091020945e+01
1.428606906467e+01
1.427642217796e+01
1.426924413033e+01
1.426096630207e+01
1.424930546860e+01
1.423208091447e+01
1.422274310792e+01
1.421078479082e+01
1.419396038469e+01
1.417985830866e+01
1.415939063674e+01
1.415650435828e+01
1.421861824368e+01
1.393698033077e+01
1.515420732262e+01
1.538022142644e+01
1.534234019421e+01
1.534613600285e+01
1.536241279106e+01
1.537868686232e+01
1.538744136831e+01
1.540068797390e+01
1.541224800094e+01
1.542503658478e+01
1.543409688602e+01
1.544268582940e+01
1.545530436281e+01
1.545735606952e+01
1.547687342517e+01
1.550712647519e+01
2.783061935244e+01
-8.077166935981e+00
-6.811935447622e+00
2.357502021944e-01
5.660641935765e+00
9.310724426914e+00
1.178210084353e+01
1.352818485246e+01
1.483252482389e+01
1.585621913375e+01
5.284807388473e+00
2.085842812946e+01
-1.358375081802e+01
1.316796402127e+01
2.072846834099e+01
6.307574821446e+00
1.759963404436e+01
2.079697778879e+01
1.158025031610e+01
2.058567692949e+01
1.472881993073e+01
2.054541768760e+01
1.032162483082e+01
2.039007345410e+01
1.660783565092e+01
1.387785941096e+01
1.888972345240e+01
2.030751988134e+01
2.026639878373e+01
2.023242173454e+01
2.021145150248e+01
2.025259455817e+01
1.692323521244e+01
1.696612195873e+01
1.704149161088e+01
1.887271546471e+01
2.048560627137e+01
1.194290999815e+01
-1.246693624728e+01
1.985921630885e+01
1.700705031869e+01
6.046703107919e+00
2.024835120588e+01
2.069876596739e+01
2.047410764850e+01
2.086929336293e+01
2.082867540145e+01
-1.369286139685e+01
1.691734978104e+01
2.063607544883e+01
1.953099545531e+01
-1.308598463428e+01
1.609495310909e+01
2.026498189963e+01
9.570346300459e+00
3.604909546262e+00
1.338100583556e+01
1.575753374596e+01
2.428658789922e+01
1.804857260930e+01
2.050229711418e+01
3.535244195763e+01
2.004558547407e+01
1.693262753256e+01
1.722051510758e+01
1.749560312747e+01
1.779347609459e+01
1.804992437335e+01
1.827792715496e+01
1.803975577446e+01
1.849436768131e+01
1.827991645941e+01
1.849827313392e+01
1.870754271396e+01
1.851484300363e+01
1.891549224864e+01
1.874583129853e+01
1.831771004832e+01
1.857511410145e+01
1.811322278050e+01
1.840252817314e+01
1.882562730018e+01
1.868275110784e+01
1.823037350296e+01
1.854456521970e+01
1.806096901142e+01
1.841443289956e+01
1.789729838357e+01
1.830908503527e+01
1.878760630322e+01
1.885573197495e+01
1.833601764108e+01
1.906729908412e+01
1.854464327073e+01
1.937664318517e+01
1.973849010569e+01
2.009500507930e+01
1.980281889731e+01
2.055091301875e+01
2.036202990905e+01
2.110777485079e+01
2.106665599874e+01
2.175819977431e+01
2.163706881213e+01
2.218812588710e+01
2.247558306547e+01
2.273936945715e+01
2.239103151882e+01
2.276331083702e+01
2.241053798706e+01
2.261049520383e+01
2.301958693654e+01
2.266550834315e+01
2.233974874501e+01
2.222972963631e+01
2.251439630145e+01
2.191852905368e+01
2.176908923047e+01
2.135070846270e+01
2.137188205454e+01
2.073332454151e+01
2.084457010711e+01
2.020105299135e+01
1.990463764693e+01
1.939484799265e+01
1.977822333441e+01
1.901723470787e+01
1.945171846072e+01
1.843458492078e+01
1.815114995830e+01
1.734809855588e+01
1.724338483966e+01
2.031383049305e+01
1.630117093829e+01
1.629810995197e+01
1.647984542505e+01
1.729795523091e+01
1.543713934460e+01
1.576798300959e+01
1.453744281146e+01
2.009350516793e+01
1.906742875419e+01
1.499705991340e+01
1.355259979505e+01
1.287454960508e+01
1.156774473408e+01
1.828985990793e+01
1.871852210958e+01
1.851678507837e+01
1.892552431980e+01
1.874766098472e+01
1.245265370203e+01
1.908504330451e+01
1.909477857398e+01
1.769246605562e+01
1.770360106959e+01
2.212108854086e+01
1.609041145963e+01
1.542391120515e+01
1.640628677315e+01
2.006073947622e+01
1.977875405125e+01
2.026738155208e+01
2.002503313170e+01
2.041744958408e+01
2.021127128422e+01
1.983526196078e+01
2.004887447787e+01
1.969405057792e+01
2.052478350298e+01
2.073534540065e+01
1.992738401224e+01
1.959654807809e+01
1.984378269285e+01
1.958443387851e+01
1.928986186074e+01
1.935760695769e+01
1.903012768950e+01
2.213574786396e+01
2.190772016504e+01
2.191633701179e+01
2.173347371515e+01
2.173351599836e+01
2.158379301536e+01
2.157322006902e+01
2.166413144281e+01
1.911899129859e+01
2.320025366579e+01
2.285252702096e+01
2.381992227859e+01
2.335378183561e+01
2.465602075363e+01
2.401144363410e+01
2.568260809727e+01
2.582351557269e+01
2.691474365918e+01
2.642733270331e+01
2.752472521397e+01
2.631409453694e+01
1.928160443699e+01
2.152071589344e+01
2.140729382789e+01
2.129795019525e+01
1.053577902186e+01
1.964053253990e+01
2.077327553005e+01
2.097593424558e+01
2.150687885985e+01
1.009114451529e+01
2.467376663023e+01
2.261708897343e+01
1.912039787647e+01
1.895600672401e+01
2.095501497972e+01
1.121392225613e+01
2.021758411545e+01
2.803059224589e+01
1.943773396521e+01
1.971249613371e+01
1.940457720494e+01
2.121978798181e+01
2.107972505797e+01
2.537275554027e+01
2.467350810195e+01
2.506264013239e+01
2.276866718186e+01
2.282776671863e+01
2.077019418058e+01
1.952241169469e+01
1.765902477296e+01
1.909860007472e+01
1.628628055020e+01
1.337891039838e+01
1.289627154446e+01
1.988760518725e+01
2.870272716419e+01
1.781885086115e+01
2.078793909568e+01
2.142350342667e+01
1.930471371778e+01
1.915383841313e+01
1.878564049363e+01
1.899940276264e+01
1.934283783848e+01
1.919837506039e+01
1.883799988144e+01
1.904571954986e+01
1.866449847290e+01
1.888538706796e+01
1.923939898870e+01
1.909133041585e+01
1.871949190308e+01
1.893556292236e+01
1.854238922403e+01
1.876605417760e+01
1.913546086354e+01
8.413867896429e+00
2.154699400959e+01
2.140283081017e+01
1.585776304119e+01
1.669565972801e+01
1.718549382768e+01
1.741277141494e+01
1.897526881482e+01
1.932572687080e+01
2.263287689950e+01
2.031842460916e+01
1.945146703745e+01
1.952665130835e+01
1.922326329266e+01
1.785777670848e+01
1.691612236181e+01
1.697873825242e+01
1.593335009950e+01
1.620701880078e+01
1.583713845643e+01
2.097848386974e+01
1.942209254562e+01
1.212959329809e+01
9.339657142905e+00
1.979539747919e+01
2.170168138236e+01
1.918526442112e+01
1.962133931399e+01
1.952054809775e+01
1.989469212810e+01
1.980694897741e+01
2.011778902701e+01
2.023242205511e+01
2.103480941286e+01
2.038992889018e+01
1.857349665010e+01
2.137338189074e+01
1.784757869714e+01
6.572558937707e+00
9.484176115270e+00
9.694366839429e+00
1.215512763669e+01
2.091795159113e+01
2.005025933236e+01
1.979481498992e+01
1.508076884862e+01
1.548909152850e+01
2.112601335263e+01
1.831687998571e+01
1.842776139128e+01
1.822839258651e+01
5.556095036518e+00
9.818974957871e+00
1.951954477831e+01
2.068849901444e+01
1.835269829923e+01
2.902768838110e+01
2.886309121587e+01
1.916290626422e+01
1.948677446723e+01
1.780979371591e+01
1.799347723590e+01
2.107096211472e+01
9.943363339403e+00
1.962751185800e+01
2.152840556983e+01
2.166411473842e+01
1.695762627437e+01
1.916161188143e+01
2.191657377793e+01
1.982348831153e+01
1.289962658249e+01
1.088740910314e+01
2.099477360562e+01
1.964732043223e+01
2.051459263375e+01
2.039444162777e+01
2.058804666515e+01
5.487225020021e+00
2.078757370970e+01
1.962614955270e+01
2.003573786685e+01
1.985476339815e+01
1.916371598061e+01
1.696220155306e+01
1.534474108220e+01
1.448011230022e+01
1.778960843568e+01
1.807199457224e+01
1.757050720503e+01
1.723158542837e+01
1.692869864859e+01
1.648088975654e+01
1.587697641750e+01
2.209992411621e+01
2.178925098716e+01
1.763632678138e+01
1.894570027233e+01
2.056463936355e+01
1.955400794258e+01
1.971983319628e+01
1.829377365955e+01
1.807762305838e+01
7.013370690384e+00
4.989729066855e+00
1.921110572663e+01
2.064969854032e+01
1.961518284098e+01
1.974866468657e+01
1.959160963217e+01
2.112651246370e+01
2.384468667546e+01
2.204336126563e+01
2.827227996886e+01
2.001571500389e+01
1.290041156790e+00
1.918890572345e+01
1.988273917351e+01
2.003000421506e+01
2.097899226279e+01
1.690891948299e+01
2.047681419199e+01
2.077955490009e+01
1.653801033011e+01
1.616139652162e+01
1.660433017286e+01
1.574774415884e+01
1.882931865467e+01
1.703992389376e+01
2.026440213403e+01
2.050162799782e+01
2.008736869351e+01
1.993474279457e+01
2.101096478943e+01
2.116002988239e+01
1.292346838725e+01
1.476338276615e+01
1.980076102652e+01
1.688353401987e+01
2.067288885032e+01
2.053581746346e+01
2.602650844115e+01
2.565555132277e+01
1.977975736298e+01
1.218376129861e+01
1.235090768817e+01
1.276501609163e+01
2.032282967523e+01
1.699319153988e+01
2.010999785977e+01
1.676427965774e+01
1.990184259630e+01
2.084171171061e+01
1.824730413342e+01
2.123725471805e+01
1.962955089478e+01
1.993516407778e+01
1.794948313684e+01
1.770761702473e+01
1.815784895544e+01
2.754121093924e+01
2.807965168211e+01
1.959343710449e+01
1.470635548349e+01
1.530963848311e+01
1.061015691019e+01
1.315201892502e+01
1.818921002959e+01
1.805695441232e+01
1.939845627934e+01
1.950539438431e+01
1.920524534639e+01
2.143089024191e+01
2.153143677981e+01
2.181881274230e+01
1.983677470308e+01
2.001038579220e+01
2.028411550859e+01
2.130823858936e+01
1.811977341328e+01
1.992011947576e+01
2.024000217669e+01
2.017330198474e+01
-2.358663748223e+00
2.415768932368e+00
1.737436943537e+01
2.179277887348e+01
1.987360385275e+01
1.973166726885e+01
2.003279464180e+01
1.169234048542e+01
2.067609504804e+01
2.101582876055e+01
2.115420411675e+01
2.089378311327e+01
2.087672329165e+01
2.086050788651e+01
2.063699752172e+01
2.263085342898e+01
1.984287336659e+01
1.776789312786e+01
1.798146087278e+01
1.751950506721e+01
1.785170113888e+01
1.721618790353e+01
9.147758547702e+00
1.754859065307e+01
1.787484806528e+01
-1.080000080363e+01
2.006081943347e+01
-8.618978200384e+00
-3.248072332578e+00
2.057539127342e+01
2.044952944895e+01
2.053711934679e+01
2.041016681570e+01
2.026810608574e+01
2.022943915626e+01
1.744066137243e+01
2.041102379386e+01
2.025028013525e+01
2.044976098129e+01
1.523996085483e+01
1.433862318071e+01
1.288219233158e+01
1.023831988958e+01
2.019056428902e+01
2.001850612673e+01
1.973409345917e+01
1.945305632384e+01
1.757652961460e+01
1.755334827604e+01
1.804031675036e+01
1.798371422480e+01
1.841557349791e+01
1.834997958679e+01
1.874025538355e+01
2.057314823408e+01
8.875711396750e+00
1.614388295468e+01
2.102692926032e+01
2.117194792450e+01
1.526812200389e+01
1.406098366655e+01
2.076366720824e+01
1.971361188930e+01
2.020851655351e+01
1.539843396644e+01
2.354304280908e+01
1.884203473250e+01
1.625343138222e+01
1.463083125207e+01
1.361161254954e+01
2.133716145927e+01
-2.365702213043e-01
1.431748332442e+01
1.877608596240e+01
1.088371554580e+01
1.959067478146e+01
2.099721846881e+01
1.726483542511e+01
1.696187139213e+01
1.613588040242e+01
1.805563950130e+01
1.751990915846e+01
1.721747886665e+01
2.190926903526e+01
1.419831764330e+01
1.228068911426e+01
1.790409555235e+01
1.943001362036e+01
1.957995583273e+01
1.985815043616e+01
1.972379959391e+01
1.942296614501e+01
1.957686617203e+01
1.986434722555e+01
1.973253450845e+01
2.004686208813e+01
1.988234824001e+01
1.959344449904e+01
1.975046513467e+01
1.999983187647e+01
1.945160730770e+01
2.089085457108e+01
1.940094174859e+01
2.713222632613e+01
2.677636267583e+01
1.747839213116e+01
2.029278486055e+01
2.026750833622e+01
2.234348717821e+01
2.041956569193e+01
1.751896886344e+01
2.655662165084e+01
2.052400592022e+01
1.925968156041e+01
1.908053015801e+01
1.890061321431e+01
2.025908487562e+01
1.836938924828e+01
2.074297353714e+01
2.164474467391e+01
2.145086524973e+01
2.153716008250e+01
1.942541526178e+01
2.086868493389e+01
2.103844144356e+01
2.102047103822e+01
2.120438426132e+01
2.085007360704e+01
2.034800072076e+01
2.037758605140e+01
2.115835560909e+01
2.255155435770e+01
2.230831625772e+01
2.334107217030e+01
2.395900302049e+01
2.438280670448e+01
2.363843582808e+01
2.530256328946e+01
1.978022033830e+01
2.079874412724e+01
2.066799192795e+01
2.095997370548e+01
2.091747844622e+01
1.746092528571e+01
1.796937853686e+01
1.851059319519e+01
1.695428092705e+01
2.003637083271e+01
2.076347639206e+01
2.187616563625e+01
1.798677859406e+01
1.692333386269e+01
1.747215713669e+01
1.747772947397e+01
1.798083204758e+01
1.752424321497e+01
1.833003549566e+01
1.847444187335e+01
1.817315325738e+01
1.861854440272e+01
1.833425571847e+01
1.787641967754e+01
1.875266551356e+01
1.847160543172e+01
1.693021945923e+01
9.394334274972e+00
1.201347431158e+01
5.173567798009e-02
1.159817950929e+01
1.957662842667e+01
1.749298787924e+01
2.270074038564e+01
2.091070344486e+01
-3.048028678795e+01
-7.394746571764e+00
-1.259344972058e+01
-1.167803503918e+01
2.973051420174e+00
8.028200552021e+00
2.045542911378e+01
1.689390224257e+01
1.654999254407e+01
1.568257794869e+01
1.619473712497e+01
1.719263832377e+01
1.511622492119e+01
1.471267767026e+01
1.184761030942e+01
-1.012421492381e+01
-1.190633633202e+01
5.733642711082e-01
3.213888800267e-01
-1.004705339167e+01
-1.028557972474e+01
1.160064848455e+01
-1.088046708574e+01
6.025012348900e-02
3.511327694240e+01
1.922498792132e+01
1.940379610084e+01
2.069468063635e+01
1.702795198590e+01
-1.310922769522e+01
2.019265396819e+01
2.022826708524e+01
2.023003843446e+01
2.010366057739e+01
2.021524902469e+01
2.020226526577e+01
1.404430151536e+01
1.997959531838e+01
1.975391073398e+01
2.513344197625e+01
1.500374380632e+01
1.933140633019e+01
1.929926852254e+01
1.995618093375e+01
1.912459843480e+01
1.983446097995e+01
2.100475231725e+01
7.965420015161e+00
1.848154869482e+01
1.834499942431e+01
1.928292792227e+01
1.415977852224e+01
1.765613918568e+01
8.719582495447e+00
2.035265783639e+01
1.731294941715e+01
2.041432406131e+01
1.671466754854e+01
1.511630548853e+01
1.542057308809e+01
1.889783608810e+01
1.875327517018e+01
2.035272846813e+01
1.946327876526e+01
-3.405036652652e+01
2.059913847513e+01
1.956276633914e+01
1.861376308065e+01
2.144660944403e+01
1.471853915774e+01
1.938255964445e+01
1.988929308861e+01
1.810311870263e+01
4.232352903248e+00
1.801630588571e+01
2.086235907939e+01
1.927773603459e+01
1.321893871287e+01
2.229340765141e+01
1.774602764237e+01
1.618575615562e+01
1.987008669446e+01
2.068466335921e+01
2.136102720727e+01
2.183893927920e+01
1.389794861151e+01
2.035062729636e+01
2.196653880289e+01
1.968319497722e+01
1.952091958860e+01
2.322501686906e+01
1.948005665712e+01
2.132285885522e+01
2.129347862775e+01
1.704499996220e+01
1.884345617943e+01
1.897075411301e+01
1.947089992384e+01
1.912736161830e+01
2.046045446185e+01
2.719537074446e+01
1.735896037298e+01
1.855961748962e+01
2.030603041229e+01
1.994912481646e+01
1.706673220456e+01
2.011514353994e+01
1.977057926602e+01
1.857922328598e+01
9.884923721314e+00
2.522425099959e+01
2.469097922161e+01
2.112893197927e+01
1.904175571244e+01
2.003024550615e+01
2.004743655897e+01
2.114080274093e+01
1.249407070001e+01
1.653687904206e+01
2.005010007686e+01
2.208374259988e+01
2.131027971217e+01
1.801930820244e+01
2.044904440317e+01
1.468322519546e+01
2.011174102675e+01
2.140287268586e+01
2.088449500757e+01
1.700943839819e+01
2.033286000371e+01
2.127478271277e+01
1.978669146465e+01
2.200300311258e+01
1.525909752008e+01
1.894332093873e+01
1.895097918951e+01
2.025722064280e+01
2.126205699421e+01
1.869714712392e+01
1.854161304562e+01
2.111216338483e+01
1.002470116597e-01
1.571433558434e+01
1.864726734108e+01
2.428836920820e+01
2.164235493326e+01
2.090720114092e+01
1.876093880106e+01
2.355939353436e+01
1.887909098348e+01
1.408554093668e+01
1.889547405226e+01
1.899654345921e+01
1.929740491356e+01
2.094521349556e-01
2.022965813614e+01
1.998463200801e+01
1.764138015327e+01
2.128823984433e+01
1.925718736694e+01
1.253409544557e+01
2.124620939589e+01
1.959634402100e+01
2.059528736489e+01
2.113624489883e+01
2.119821144255e+01
1.337825103534e+01
1.356150084678e+01
1.136688509903e+01
2.308589678298e+01
1.968572338845e+01
5.503236270197e+00
1.927159845918e+01
6.615014907967e+00
2.287590120738e+01
2.088355188614e+01
1.849447584653e+01
2.209905887794e+01
1.223913826839e+01
2.136984715433e+01
2.112990600111e+01
2.056542993865e+01
1.947524495788e+01
2.001442496963e+01
1.886561473594e+01
2.023005837201e+01
2.044959057711e+01
1.749976486311e+01
1.029517772848e+01
1.143531694774e+01
1.185033089172e+01
1.654247067702e+01
1.931570676033e+01
1.751743232719e+01
1.493956129211e+01
2.013291463164e+01
2.064656923605e+01
1.905599089976e+01
2.127879783415e+01
2.087761743959e+01
1.979224557819e+01
1.693400429627e+01
-1.281467137327e+01
1.928305166614e+01
7.213356598789e+00
9.438415713845e+00
9.078189724918e+00
1.438976150042e+01
5.478070432743e+00
4.796963002103e+00
2.103433975679e+01
1.745703688085e+01
2.071965859622e+01
2.802136927352e+00
2.002997370222e+01
2.075733712377e+01
2.060069919337e+01
2.074666063832e+01
1.600096207780e+01
1.788650395482e+01
2.028517698298e+01
1.931375299147e+01
2.052588346523e+01
1.735973207071e+01
2.004742722111e+01
2.583487772455e+01
2.005126345824e+01
1.962290655486e+01
1.814730703035e+01
1.786525990992e+01
2.032440972821e+01
2.009494826493e+01
2.313987094222e+01
1.902672430117e+01
1.625027913584e+01
2.125659538259e+01
2.067806923003e+01
1.988566830371e+01
2.034123029175e+01
5.710642426516e-01
-1.428183668674e+01
2.082177187700e+01
2.021286839121e+01
2.229185578756e+01
2.027751550557e+01
2.497974810629e+01
1.683209346239e+01
-1.282548682210e+01
2.050694118521e+01
2.005810388677e+01
1.689265207500e+01
1.693714638505e+01
1.343912830491e+01
2.043836934733e+01
-1.572889423999e+00
2.008362968213e+01
2.093442211953e+01
2.009751059744e+01
2.080484245963e+01
1.930618493390e+01
2.068402767209e+01
2.114404389709e+01
1.694623984776e+01
2.007826376123e+01
1.533092993550e+01
4.847640262106e+00
2.025312436529e+01
1.659881360019e+01
1.693160840134e+01
2.048977773863e+01
4.337869361136e+00
1.789981994320e+01
2.019310951134e+01
1.814839942265e+01
1.963206516545e+01
1.144120196896e+01
1.153266594566e+01
1.870905191449e+01
2.083540061941e+01
2.010193986967e+01
1.840692415913e+01
2.549079114791e+01
2.007471287744e+01
1.739312945245e+01
2.020992208062e+01
2.116992626001e+01
2.381403333630e+01
1.855188752747e+01
-1.441556726054e+01
2.051724136979e+01
1.765000351912e+01
2.975409337813e+00
-1.551307050118e+01
-1.264455322234e+01
-1.626279194227e+01
-1.970543273408e+00
-2.147064114644e+00
4.713251951796e+00
5.368425513317e+00
8.794711028132e+00
9.175151983627e+00
1.144411017645e+01
1.190802278990e+01
1.329521380690e+01
1.360343502142e+01
1.465739410357e+01
1.499634526489e+01
1.572016870930e+01
1.596302690928e+01

SCALARS node_materi_stress_average_a_sig float
LOOKUP_TABLE default
-3.874257344994e+00
-1.105937889410e+02
-2.419456165673e+02
-2.257237543026e+02
-1.087868306600e+01
-2.305879032168e+01
-3.521252885334e+01
-4.868259392218e+01
-6.168355698387e+01
-7.452886749597e+01
-8.723864529789e+01
-9.985149659653e+01
-1.124049187000e+02
-1.249767438952e+02
-1.377796374702e+02
-1.502926801419e+02
-1.616172637302e+02
-1.739553498606e+02
-1.865898860820e+02
-1.988025856973e+02
-2.110526503241e+02
-2.233455340350e+02
-2.351519651381e+02
-2.264075248456e+02
-2.257293579554e+02
-2.259298231976e+02
-2.259469388557e+02
-2.256446139317e+02
-2.261409172345e+02
-2.264773334879e+02
-2.263522484557e+02
-2.270253296722e+02
-2.271860251633e+02
-2.270876316834e+02
-2.277430371559e+02
-2.284670169645e+02
-2.285802885165e+02
-2.289744095582e+02
-2.290346149235e+02
-2.296033833912e+02
-2.308788554238e+02
-2.318936489194e+02
-2.329883742424e+02
-2.338731612360e+02
-2.348509665446e+02
-2.358868927272e+02
-2.369733989320e+02
-2.382426180280e+02
-2.395730997771e+02
-2.407254427163e+02
-2.418996837870e+02
-2.427250463887e+02
-2.440663265085e+02
-2.446901289121e+02
-2.447292554963e+02
-2.452561865930e+02
-2.457389975806e+02
-2.460176632690e+02
-2.460605127603e+02
-2.460535404308e+02
-2.456408450071e+02
-2.452123245379e+02
-2.445424046129e+02
-2.443380766229e+02
-2.445493737820e+02
-2.444138828126e+02
-2.422978580414e+02
-2.433388078516e+02
-2.424172584868e+02
-2.424770079030e+02
-2.427623390783e+02
-2.425809304655e+02
-1.229864641750e+02
-1.350959592822e+02
-1.471577140163e+02
-1.589336799760e+02
-1.709374935562e+02
-1.830565821931e+02
-1.949014405122e+02
-2.066443617593e+02
-2.187436053927e+02
-5.358186423770e+01
-1.131114806180e+02
-2.306459380033e+01
-1.973959261358e+01
-3.056054011167e+01
-4.120144739827e+01
-5.303635217700e+01
-6.512768616140e+01
-7.694955878062e+01
-8.881435869982e+01
-1.006799571241e+02
-5.367682505625e+00
-1.308287309271e+01
-2.512474063469e+01
-3.725819214573e+01
-4.944002349384e+01
-6.162961452441e+01
-7.382437752894e+01
-8.600384989448e+01
-9.812167139999e+01
-1.090784619002e+02
-1.098832797367e+02
-1.099160928201e+02
-1.098382991471e+02
-1.115867741919e+02
-1.101938848749e+02
-1.102357845851e+02
-1.104489787211e+02
-1.108166587774e+02
-1.109249436742e+02
-1.111313614850e+02
-1.113007178808e+02
-1.116528174226e+02
-1.121507414704e+02
-7.456956246159e+01
-8.388905914074e+01
-8.518541478771e+01
-7.689773901003e+01
-4.690362913706e+01
-1.797619237533e+01
-7.988753942275e+00
-5.137490587979e+00
-3.958218668210e+00
-3.741701019394e+00
-3.773227405244e+00
-3.953767077433e+00
-3.889411860374e+00
-3.531198926051e+00
-3.578734152902e+00
-3.643916848189e+00
-3.619094084519e+00
-3.425324212136e+00
-3.189618008448e+00
-5.228825692901e+00
-6.419627604668e+00
-6.672330164581e+00
-6.676800176911e+00
-6.643482415632e+00
-6.581223770613e+00
-6.495254382435e+00
-6.389217753139e+00
-6.265386261655e+00
-6.125234247325e+00
-5.969888257703e+00
-5.800489378627e+00
-5.618519457310e+00
-5.426132538251e+00
-5.226378714998e+00
-5.023722530053e+00
-4.824399512911e+00
-4.638268246641e+00
-4.480102362579e+00
-4.362652378392e+00
-4.306533844391e+00
-4.253421488996e+00
-4.195690619853e+00
-4.188715174715e+00
-4.561549138603e+00
-5.781001147854e+00
-7.274172453503e+00
-8.095141109335e+00
-1.438923650264e+01
-1.503595332905e+01
-1.266896538521e+01
-1.198975468954e+01
-1.166408855996e+01
-1.150952185038e+01
-1.141995363058e+01
-1.139058405935e+01
-1.141473234548e+01
-1.148050857273e+01
-1.157767719200e+01
-1.169378505318e+01
-1.182081967818e+01
-1.195186188682e+01
-1.208217530512e+01
-1.220816479096e+01
-1.232718519060e+01
-1.243716595529e+01
-1.253650051611e+01
-1.262383200437e+01
-1.269794411694e+01
-1.275784456851e+01
-1.280358354404e+01
-1.284003061918e+01
-1.289611400808e+01
-1.302655442706e+01
-2.660062490800e+01
-2.767875903008e+01
-2.599002205877e+01
-2.535833669184e+01
-2.502961300972e+01
-2.474453732114e+01
-2.457408816805e+01
-2.446021295469e+01
-2.440754515938e+01
-2.439086741136e+01
-2.440398571025e+01
-2.443554773675e+01
-2.447996489690e+01
-2.453178557159e+01
-2.458739306140e+01
-2.464355692115e+01
-2.469788555788e+01
-2.474862803107e+01
-2.479454725576e+01
-2.483503597560e+01
-2.487053336727e+01
-2.490387637903e+01
-2.494295601462e+01
-2.500109711353e+01
-2.509809091724e+01
-3.724035280430e+01
-3.719536196044e+01
-3.716741233253e+01
-3.714706896545e+01
-3.712984447260e+01
-3.711311868694e+01
-3.709606719721e+01
-3.707932387898e+01
-3.706407861264e+01
-3.705215988701e+01
-3.704619455164e+01
-3.704978060989e+01
-3.706803937996e+01
-3.710538007203e+01
-3.716970787035e+01
-3.726650725344e+01
-3.741520378774e+01
-3.761363231665e+01
-3.791181854460e+01
-3.825926413310e+01
-3.882772009700e+01
-4.026267687786e+01
-3.877809396435e+01
-5.108100372615e+01
-5.267180782199e+01
-5.136902468052e+01
-5.082922502419e+01
-5.050919220617e+01
-5.020679849693e+01
-5.000107869853e+01
-4.982991911995e+01
-4.970602481632e+01
-4.961027367414e+01
-4.954146368844e+01
-4.949131795121e+01
-4.945568067667e+01
-4.943060958732e+01
-4.941317411569e+01
-4.940179323764e+01
-4.939516378362e+01
-4.939298240485e+01
-4.939650880541e+01
-4.940724567581e+01
-4.942505324228e+01
-4.943728235763e+01
-6.162538131438e+01
-6.161954371598e+01
-6.162295332987e+01
-6.163358556384e+01
-6.165216639733e+01
-6.167780480429e+01
-6.171035438921e+01
-6.175123748343e+01
-6.180475467150e+01
-6.187124227202e+01
-6.195576342825e+01
-6.206245855355e+01
-6.219440244116e+01
-6.236993195609e+01
-6.257808362374e+01
-6.285953281754e+01
-6.315454961207e+01
-6.363252342127e+01
-6.484172227764e+01
-6.321223131091e+01
-7.520513357616e+01
-7.690373271998e+01
-7.580447970002e+01
-7.535239194644e+01
-7.508757334206e+01
-7.481647393876e+01
-7.462855787975e+01
-7.446524513289e+01
-7.432657757408e+01
-7.421451829856e+01
-7.412514488276e+01
-7.404920906827e+01
-7.398860420704e+01
-7.393536531339e+01
-7.389483239539e+01
-7.386205405165e+01
-7.384308398053e+01
-7.383058739583e+01
-7.382823890848e+01
-8.601269778750e+01
-8.602274099778e+01
-8.604687982125e+01
-8.608950695247e+01
-8.614612145257e+01
-8.620955601214e+01
-8.629598067780e+01
-8.638021060692e+01
-8.648101759463e+01
-8.661696937091e+01
-8.677924667535e+01
-8.696678570110e+01
-8.718297846422e+01
-8.740390600493e+01
-8.781402336670e+01
-8.891339890785e+01
-8.720215876636e+01
-9.908316820218e+01
-1.007288684961e+02
-9.976492527973e+01
-9.949440218391e+01
-9.926943114835e+01
-9.907545935878e+01
-9.886573105060e+01
-9.871528514275e+01
-9.866677617315e+01
-9.852025793637e+01
-9.842669484775e+01
-9.835420292226e+01
-9.829313572791e+01
-9.821571538407e+01
-9.824608227170e+01
-9.823179650835e+01
-3.419378964644e+01
-1.798328204636e+01
-2.658127554139e+01
-3.750625568147e+01
-4.874743099359e+01
-6.059687182928e+01
-7.234769978726e+01
-8.420644340845e+01
-9.605082149652e+01
-1.079767657297e+02
-3.281393530111e+01
-2.399873906222e+02
-1.040106479610e+01
-6.037157035072e+01
-2.400897208545e+02
-4.953644826668e+01
-1.318887514704e+02
-2.371203122924e+02
-7.077685032331e+01
-2.336972357604e+02
-9.457631716871e+01
-2.396521267202e+02
-8.427031966731e+00
-2.294496357934e+02
-1.184044531364e+02
-8.152851012466e+01
-1.658627522266e+02
-2.263239741262e+02
-2.240705844107e+02
-2.212579863241e+02
-2.208234098743e+02
-2.229821633298e+02
-1.231238004269e+02
-1.220477762865e+02
-1.224123545841e+02
-1.650450162389e+02
-2.379246922314e+02
-7.315412088811e+01
-8.799686708920e+00
-2.045093926020e+02
-1.206332669771e+02
-4.188154175076e+01
-2.231007799368e+02
-2.363784400894e+02
-2.314934947887e+02
-2.379843769896e+02
-2.407585006653e+02
-2.078873224660e+01
-1.221153749540e+02
-2.375882665172e+02
-1.886441599146e+02
-9.478456622117e+00
-1.062282193625e+02
-2.227756135871e+02
-6.095225739201e+01
-3.993234275521e+01
-8.262971409037e+01
-1.063493271537e+02
-3.597165930206e+01
-1.421463621452e+02
-2.394301428365e+02
-8.310590791111e+00
-2.120118193781e+02
-1.240185630400e+02
-1.293424700876e+02
-1.348049072038e+02
-1.410149238120e+02
-1.470280777386e+02
-1.526486548008e+02
-1.467304778849e+02
-1.583890131956e+02
-1.524134754023e+02
-1.588435210903e+02
-1.641249713207e+02
-1.581509394547e+02
-1.698809675743e+02
-1.639383737574e+02
-1.522607893352e+02
-1.580652962801e+02
-1.463959634290e+02
-1.522375512695e+02
-1.639144632116e+02
-1.581161744388e+02
-1.464196866444e+02
-1.523275363545e+02
-1.406512066797e+02
-1.466029545449e+02
-1.349102234111e+02
-1.409251164101e+02
-1.525774519099e+02
-1.469186535963e+02
-1.353074320914e+02
-1.413239840104e+02
-1.297730312235e+02
-1.357890197753e+02
-1.472958163421e+02
-1.417602262922e+02
-1.303005387327e+02
-1.362866626215e+02
-1.249110407332e+02
-1.309050447402e+02
-1.196415101324e+02
-1.255601953136e+02
-1.367189291137e+02
-1.312789409628e+02
-1.202809247333e+02
-1.258152471453e+02
-1.368193496842e+02
-1.311374583909e+02
-1.421933126133e+02
-1.362936664536e+02
-1.254232403267e+02
-1.303121808147e+02
-1.413180494763e+02
-1.350825920211e+02
-1.241934654179e+02
-1.287358283397e+02
-1.398274344003e+02
-1.332903644875e+02
-1.222186034729e+02
-1.266057545410e+02
-1.379438796999e+02
-1.310838489671e+02
-1.197206859754e+02
-1.240875890857e+02
-1.357044486599e+02
-1.285926140470e+02
-1.404131468062e+02
-1.168473182024e+02
-1.213342704083e+02
-1.094117526452e+02
-1.139730241079e+02
-1.532196598350e+02
-1.018855420225e+02
-9.757262502954e+01
-1.065417240010e+02
-1.187588522351e+02
-9.427410834596e+01
-9.905018209520e+01
-8.661582645275e+01
-1.133191408499e+02
-1.698105260367e+02
-9.152615026994e+01
-7.893996458684e+01
-7.404493040475e+01
-6.624134116989e+01
-1.532426656252e+02
-1.649845528365e+02
-1.590020984889e+02
-1.711028449853e+02
-1.653791383672e+02
-7.127604820297e+01
-1.759726988318e+02
-1.768363766170e+02
-1.347391530880e+02
-1.236864775697e+02
-1.480433968939e+02
-1.039756586932e+02
-9.657882232619e+01
-1.090232065885e+02
-1.474639880822e+02
-1.523004013806e+02
-1.593170928735e+02
-1.642382892080e+02
-1.712420487887e+02
-1.762256233948e+02
-1.691823025524e+02
-1.812158371778e+02
-1.741518145108e+02
-1.832288756643e+02
-1.781659753650e+02
-1.862135418940e+02
-1.791457972838e+02
-1.912294871013e+02
-1.841637907829e+02
-1.720413419721e+02
-1.770666739656e+02
-1.649586734889e+02
-1.534702415793e+02
-1.594601332573e+02
-1.649338608323e+02
-1.710411452478e+02
-1.765669832722e+02
-1.827627130983e+02
-1.883260688903e+02
-1.820093791107e+02
-1.756265242209e+02
-1.150519505088e+02
-1.094873783312e+02
-1.045809792058e+02
-9.896878367756e+01
-9.448081258635e+01
-8.878497534283e+01
-8.488333988973e+01
-9.005361066661e+01
-8.139678604447e+01
-8.555445741664e+01
-7.779227801299e+01
-8.072858221472e+01
-1.585404957358e+02
-1.771018835137e+02
-1.889250902452e+02
-1.830766729209e+02
-6.129785447136e+01
-1.892145259561e+02
-1.901825956304e+02
-1.849933600322e+02
-1.938510975778e+02
-5.859587793555e+01
-7.919872613989e+01
-8.248652665641e+01
-1.772709247864e+02
-1.715745507220e+02
-1.971019118610e+02
-6.373279264585e+01
-1.932704865780e+02
-7.420340305162e+01
-1.821394472327e+02
-1.942793127138e+02
-1.621193306409e+02
-1.950487728791e+02
-1.890001895688e+02
-8.944069015608e+01
-8.363516345063e+01
-7.534119532160e+01
-7.753615690334e+01
-8.678398125993e+01
-7.982529006483e+01
-7.033251185176e+01
-7.214305637608e+01
-8.273407594144e+01
-7.488817062230e+01
-6.379245339364e+01
-6.655686086426e+01
-2.012978026380e+02
-7.122973292671e+01
-1.405924123554e+02
-2.022489318943e+02
-2.001021181816e+02
-1.834920831791e+02
-1.778320825285e+02
-1.658422560582e+02
-1.721882042616e+02
-1.841575091944e+02
-1.785465629341e+02
-1.665421383256e+02
-1.729327189392e+02
-1.609027124037e+02
-1.673304785024e+02
-1.793473620561e+02
-1.737930100921e+02
-1.617511449351e+02
-1.682378341084e+02
-1.561611769603e+02
-1.626524702502e+02
-1.747550135358e+02
-5.135893895396e+01
-1.873958863118e+02
-1.994094293904e+02
-1.020548101315e+02
-1.140120572575e+02
-1.213518170442e+02
-1.266025979719e+02
-1.691271934188e+02
-1.812499400196e+02
-7.272497681988e+01
-7.561324752964e+01
-1.891574356137e+02
-1.872859265513e+02
-1.751161425804e+02
-1.182153202676e+02
-1.119958293020e+02
-1.065546931449e+02
-9.999135898024e+01
-1.057277972939e+02
-9.447039601382e+01
-1.729722458120e+02
-1.858035523094e+02
-6.934565182778e+01
-5.661192090475e+01
-1.994014759179e+02
-1.755913026642e+02
-1.642449305716e+02
-1.702118705596e+02
-1.759802998784e+02
-1.819624979711e+02
-1.877716812822e+02
-1.937285571730e+02
-1.879551383858e+02
-2.011092761717e+02
-1.997384293489e+02
-1.569228758090e+02
-1.712153615515e+02
-8.618189377413e+01
-4.591425779483e+01
-5.415329728639e+01
-5.611502074440e+01
-6.895554810176e+01
-2.092413801743e+02
-1.995549720157e+02
-1.934871209316e+02
-9.372563638105e+01
-9.956863159846e+01
-2.070920988878e+02
-1.534566300416e+02
-1.545359858419e+02
-1.488080171968e+02
-4.227916713057e+01
-5.195249253285e+01
-1.905188556912e+02
-8.630180694588e+01
-7.939478744128e+01
-6.804946336981e+01
-6.696410170374e+01
-1.755303275584e+02
-1.875671634757e+02
-1.337207804974e+02
-1.388790185771e+02
-2.040179461113e+02
-5.785108525850e+01
-1.933295836113e+02
-1.808729758336e+02
-1.691034958360e+02
-1.192873484196e+02
-6.536639026549e+01
-6.375869606745e+01
-9.366942926631e+01
-7.018163375328e+01
-6.144238369096e+01
-2.161949745030e+02
-1.960473710878e+02
-1.939830721833e+02
-1.821181805567e+02
-2.059378234435e+02
-4.504043990295e+01
-2.145274200711e+02
-1.924806237605e+02
-2.047904036541e+02
-1.992091865243e+02
-9.053586914497e+01
-8.391559901509e+01
-7.237931813458e+01
-7.715040103204e+01
-1.407304807847e+02
-9.537633077185e+01
-1.347059096833e+02
-1.289184323218e+02
-1.230728919954e+02
-1.113906344332e+02
-1.053991985728e+02
-1.035407334478e+02
-1.538350679387e+02
-1.286416665782e+02
-1.599713620838e+02
-1.543952551527e+02
-1.912620081113e+02
-1.977694990156e+02
-1.496676781674e+02
-1.440610326041e+02
-4.835709192652e+01
-4.357844540934e+01
-1.452195154079e+02
-2.072988651112e+02
-1.952365486070e+02
-2.008865955663e+02
-1.947747252729e+02
-2.107678052100e+02
-1.098470183258e+02
-1.587713736974e+02
-6.779232109563e+01
-1.588228908084e+02
-3.531165257892e+01
-1.755630021890e+02
-2.046333320817e+02
-2.114327636189e+02
-2.130541599042e+02
-1.236988885027e+02
-1.647334114096e+02
-1.591125839021e+02
-1.173481392866e+02
-1.115129692654e+02
-1.172301500054e+02
-1.056494892856e+02
-9.741475850133e+01
-8.986396760084e+01
-2.121983878977e+02
-2.114313667881e+02
-2.106436929083e+02
-2.053253753787e+02
-2.191294849773e+02
-2.128635405495e+02
-7.384174392776e+01
-9.363360487171e+01
-2.024364076696e+02
-1.231747297984e+02
-2.192739302083e+02
-2.123857045460e+02
-6.634821242346e+01
-6.229955801434e+01
-1.997595259812e+02
-6.513001771513e+01
-6.984997398365e+01
-6.071305521619e+01
-2.289919676189e+02
-1.202863681062e+02
-2.167539760923e+02
-1.172107905145e+02
-2.055909164497e+02
-1.707312611586e+02
-1.126317114383e+02
-1.986290014951e+02
-1.933231055188e+02
-2.064053513716e+02
-1.424707752034e+02
-1.363371274986e+02
-1.478454803410e+02
-6.912913326626e+01
-6.195937940229e+01
-1.922135484562e+02
-8.918078455375e+01
-9.561158961376e+01
-6.142814597459e+01
-7.375754116455e+01
-1.408553182332e+02
-1.358601826857e+02
-1.815328108974e+02
-1.872926592266e+02
-1.699816558489e+02
-1.742977887757e+02
-1.625712538692e+02
-1.575663629705e+02
-2.028737218556e+02
-2.107127466538e+02
-1.045938950468e+02
-1.007181683035e+02
-1.012391463293e+02
-2.079259077889e+02
-2.233401413197e+02
-2.181325958359e+02
-3.038831930365e+01
-3.880872003801e+01
-5.485113243270e+01
-5.434933720750e+01
-2.062226713758e+02
-2.005399936901e+02
-2.133735636579e+02
-6.559735633371e+01
-1.882609420981e+02
-2.225100308890e+02
-2.170172610892e+02
-2.294892646188e+02
-2.068519621934e+02
-2.184980327150e+02
-2.177109848529e+02
-6.931275111678e+01
-2.022213338717e+02
-1.369691685389e+02
-7.071740163150e+01
-1.314464349624e+02
-1.383195826757e+02
-1.251282862854e+02
-5.306906059051e+01
-1.339218103137e+02
-1.414602802437e+02
-2.325715228360e+01
-2.140134761077e+02
-2.280099809956e+01
-2.767603884095e+01
-2.245081038323e+02
-2.173372857697e+02
-2.290415449835e+02
-2.218348307645e+02
-2.102202269492e+02
-2.154207323601e+02
-1.301921697587e+02
-2.287571873165e+02
-2.207484487605e+02
-2.340484687162e+02
-1.001258679931e+02
-8.206172355492e+01
-7.523317071657e+01
-6.244363950752e+01
-2.183915682525e+02
-2.103835631723e+02
-1.981142632296e+02
-1.858413350911e+02
-1.319055911609e+02
-1.312086321245e+02
-1.422106742241e+02
-1.406821185458e+02
-1.517133238940e+02
-1.500395314730e+02
-1.612807124662e+02
-2.235136838184e+02
-5.286484471339e+01
-1.117586691772e+02
-2.248108454145e+02
-2.176491859098e+02
-9.952539685661e+01
-8.800173893151e+01
-2.281048647698e+02
-1.017675004594e+02
-2.209893403314e+02
-5.985316676194e+01
-6.119096016069e+01
-1.069066502068e+02
-1.113499398017e+02
-8.761922869570e+01
-8.189782921405e+01
-1.863252299279e+02
-3.481998443119e+01
-5.727954728166e+01
-1.627290920166e+02
-4.559150828387e+01
-1.922110667251e+02
-1.083148737973e+02
-1.231727975775e+02
-6.835936239124e+01
-8.913251986382e+01
-1.464697374140e+02
-1.350673947272e+02
-1.291678156259e+02
-1.144808343134e+02
-8.764339356222e+01
-7.442500770421e+01
-1.405381570040e+02
-1.886914643759e+02
-1.943666429887e+02
-2.057850948523e+02
-2.000673546359e+02
-1.883648348778e+02
-1.941143799580e+02
-2.057532328836e+02
-2.002657854081e+02
-2.138711609682e+02
-2.059771973581e+02
-1.938351343170e+02
-1.993256990104e+02
-2.105491682298e+02
-1.874951598411e+02
-2.309297517755e+02
-1.186653245804e+02
-6.569150235066e+01
-5.500331936690e+01
-1.289533828271e+02
-2.252131786590e+02
-2.242498944257e+02
-9.286994695127e+01
-2.303068338906e+02
-1.348168081413e+02
-7.654722747993e+01
-2.326002400272e+02
-1.825920772861e+02
-1.763964282856e+02
-1.706719652334e+02
-2.239635575769e+02
-1.536715478059e+02
-2.371406749300e+02
-1.653948536282e+02
-1.595259418719e+02
-1.480218469206e+02
-1.879794354720e+02
-2.394551052539e+02
-2.295491256730e+02
-2.298853543023e+02
-2.186844349297e+02
-2.403003665873e+02
-2.279620914347e+02
-2.291335803310e+02
-9.011110550183e+01
-9.696353180071e+01
-1.073749771321e+02
-1.033219088199e+02
-9.323822770181e+01
-9.913111261192e+01
-1.092213102138e+02
-9.471570189214e+01
-1.990676382799e+02
-2.408352487330e+02
-1.662281774103e+02
-1.611204858921e+02
-1.494584448508e+02
-1.236724944337e+02
-1.309261033414e+02
-1.430241698869e+02
-1.163583912005e+02
-1.761595016431e+02
-2.406278601572e+02
-1.639706988094e+02
-1.260547993419e+02
-1.226274751825e+02
-1.334730607013e+02
-1.340264315486e+02
-1.453947832157e+02
-1.342484646097e+02
-1.459121826486e+02
-1.510224512917e+02
-1.441122461570e+02
-1.561815823331e+02
-1.490696636074e+02
-1.378523782641e+02
-1.611663358193e+02
-1.532805771533e+02
-1.219848689980e+02
-3.664608893059e+01
-4.050025461374e+01
-3.153129314834e+01
-4.686499734774e+01
-5.409555938648e+01
-6.010146025800e+01
-6.340997585423e+01
-5.286822229601e+01
-1.497205041767e+01
-2.681432755640e+01
-1.178428672436e+01
-2.362513983967e+01
-3.923616266306e+01
-5.237362998155e+01
-2.360566082948e+02
-1.186214900417e+02
-1.126391550747e+02
-1.006265182963e+02
-1.072671100528e+02
-1.235763899411e+02
-9.385843598065e+01
-8.941309830186e+01
-8.741773431107e+00
-1.893596478572e+01
-1.789344715451e+01
-2.985579380303e+01
-2.977163107396e+01
-1.923162255671e+01
-1.934656309374e+01
-8.751893285639e+00
-1.941240564681e+01
-3.067832541999e+01
-8.501505521293e+00
-1.771228244786e+02
-1.836377819435e+02
-2.394765627109e+02
-1.228993195004e+02
-1.003131681160e+01
-2.192563805541e+02
-2.216420851345e+02
-2.217107943330e+02
-2.168938146269e+02
-2.230133841756e+02
-2.194297186532e+02
-8.185124951911e+01
-2.114930152348e+02
-1.986707144294e+02
-7.073879222453e+01
-8.201836474033e+01
-1.803520815122e+02
-1.670746878064e+02
-2.062750410239e+02
-1.700129651906e+02
-1.962642244530e+02
-2.292848983154e+02
-4.899131063798e+01
-1.552380752146e+02
-1.505600008224e+02
-1.802763198118e+02
-8.394647078885e+01
-1.323081311614e+02
-5.339551005735e+01
-2.225013934223e+02
-1.288705623218e+02
-1.426692530604e+02
-1.113941912477e+02
-8.973551435502e+01
-7.831570971201e+01
-1.242526564754e+02
-1.332723224099e+02
-1.882530454473e+02
-1.867631366478e+02
-1.036001602595e+01
-1.952624747004e+02
-1.571858398150e+02
-1.601555346755e+02
-1.945855980644e+02
-6.222329767692e+01
-1.849214273044e+02
-2.064427532657e+02
-1.473148749920e+02
-4.040342156830e+01
-1.429092073108e+02
-2.213978522158e+02
-1.829718013188e+02
-7.644217476645e+01
-1.474290527618e+02
-1.292490594368e+02
-1.123643125533e+02
-2.037863232858e+02
-1.476497148225e+02
-2.058337151676e+02
-1.703043646542e+02
-8.178017284399e+01
-2.053380403919e+02
-1.424596668139e+02
-1.968642316208e+02
-1.817507094754e+02
-1.203468183166e+02
-1.896937254418e+02
-1.445856571217e+02
-2.008563218933e+02
-1.230588589700e+02
-1.582719962107e+02
-1.697134197342e+02
-1.528885802710e+02
-1.735181249659e+02
-2.003152382552e+02
-7.369298396806e+01
-1.009894637062e+02
-1.595566721708e+02
-2.052032804421e+02
-2.086598086540e+02
-1.175389716311e+02
-1.982647113628e+02
-2.012430994800e+02
-1.381015716142e+02
-5.626493907151e+01
-6.303900610510e+01
-9.970637375178e+01
-1.421605866854e+02
-1.501154248802e+02
-2.132904804366e+02
-2.032750383509e+02
-1.918145136065e+02
-3.186921145808e+01
-1.177044124830e+02
-2.083300901121e+02
-1.525462227727e+02
-2.063413001508e+02
-1.416784872000e+02
-2.232449087478e+02
-9.409518693394e+01
-2.135496475794e+02
-1.929720083249e+02
-9.717760059304e+01
-1.207019305968e+02
-2.272525687819e+02
-2.051958120705e+02
-1.644860437939e+02
-1.462344213434e+02
-1.004534170678e+02
-1.550507935989e+02
-1.640130736125e+02
-2.236859187590e+02
-2.112479946115e+02
-1.644424186249e+02
-1.479506860258e+02
-1.769046557409e+02
-3.004188369611e+01
-1.059733645055e+02
-1.529295972336e+02
-1.045892248968e+02
-1.511073016866e+02
-2.247618400423e+02
-1.579821225765e+02
-1.148511786819e+02
-1.630727772020e+02
-8.862954246126e+01
-1.702244773675e+02
-1.681898166231e+02
-1.757427815481e+02
-3.200673615705e+01
-1.704010411821e+02
-2.104747192989e+02
-1.051827218009e+02
-1.560332255567e+02
-1.821926999629e+02
-7.667209108705e+01
-1.677124572125e+02
-1.875219951531e+02
-1.763830154253e+02
-1.535606332067e+02
-1.796592264080e+02
-8.220614783931e+01
-7.748501245935e+01
-6.514013562211e+01
-1.196112901490e+02
-1.933445261582e+02
-4.064129068510e+01
-1.817771307370e+02
-4.839325589250e+01
-1.136322070807e+02
-1.948504648345e+02
-1.538225691371e+02
-1.179325179642e+02
-6.899556733686e+01
-1.114060601325e+02
-1.651150587958e+02
-1.155223482307e+02
-1.085472138400e+02
-2.104359813937e+02
-1.126167259117e+02
-2.215400230269e+02
-2.365411823593e+02
-1.298775019990e+02
-6.408750855607e+01
-7.626320888065e+01
-7.110968226788e+01
-9.363078016604e+01
-1.813908223794e+02
-1.303917592510e+02
-8.574458703339e+01
-2.176232862255e+02
-2.351636878219e+02
-1.712847476019e+02
-2.114919488293e+02
-1.827059437649e+02
-1.995796039813e+02
-1.200927651807e+02
-2.225026862097e+01
-1.797010028440e+02
-5.238223122004e+01
-5.749532154195e+01
-4.868915848940e+01
-8.592380682800e+01
-4.091666032015e+01
-4.467257528176e+01
-2.283931283556e+02
-1.315649316402e+02
-2.002558100336e+02
-3.551356430467e+01
-2.125727243858e+02
-2.256146729287e+02
-2.396790177070e+02
-2.124191904023e+02
-4.398248862917e+01
-1.427368672085e+02
-2.213166110380e+02
-1.808569200366e+02
-2.398297654762e+02
-1.305748184857e+02
-2.118611111366e+02
-6.879528851185e+01
-2.119246933453e+02
-1.932256352711e+02
-1.453246669937e+02
-1.428194747308e+02
-2.287690893626e+02
-2.158924215917e+02
-4.632091292413e+01
-1.707327059104e+02
-1.076180521020e+02
-6.351362603119e+01
-2.297178083055e+02
-2.044012257946e+02
-2.282909920999e+02
-2.936462285845e+01
-1.890785614993e+01
-2.319692682913e+02
-2.204678177115e+02
-6.922646310534e+01
-2.242368630128e+02
-4.996244826974e+01
-1.190667510040e+02
-1.860949720887e+01
-2.390639191741e+02
-2.129257382925e+02
-1.182351715359e+02
-1.239019251475e+02
-7.763712833085e+01
-2.152039850361e+02
-3.296745368094e+01
-2.137816857224e+02
-2.326488248912e+02
-2.161719742829e+02
-2.411027764253e+02
-6.978191480088e+01
-2.278509459735e+02
-2.213208222495e+02
-1.198208365755e+02
-2.154995655306e+02
-9.603376279954e+01
-4.064711483324e+01
-2.227735899341e+02
-7.040046236892e+00
-1.189578423600e+02
-2.390475042496e+02
-3.836451917230e+01
-1.387826556733e+02
-2.202153195675e+02
-1.447506339442e+02
-1.927728902365e+02
-5.220603393570e+01
-7.540163900821e+01
-1.601731871648e+02
-2.286334615420e+02
-2.160110043451e+02
-1.519050146736e+02
-5.531430893265e+01
-2.135536468782e+02
-1.277820636934e+02
-2.143817703307e+02
-2.210178618091e+02
-4.435661088825e+01
-1.554836689072e+02
-1.737968599023e+01
-2.316888417589e+02
-1.329679546401e+02
-8.610248724852e+00
-6.750222322773e+00
-2.209605364602e+01
-1.943869814210e+01
-3.400746492382e+01
-3.084003620596e+01
-4.601505545863e+01
-4.367666738634e+01
-5.821275052240e+01
-5.519817871532e+01
-7.006016140598e+01
-6.805929322028e+01
-8.204218314677e+01
-7.958281622573e+01
-9.392348799689e+01
-9.244462187076e+01
-1.058468948420e+02
-1.038435862537e+02

SCALARS node_materi_stress_size_dev_sd_sig float
LOOKUP_TABLE default
5.671585761507e+00
8.092445888570e+01
1.827782695535e+02
1.705797391137e+02
1.219869765211e+01
2.104455392965e+01
2.841844353438e+01
3.718941978458e+01
4.585487207373e+01
5.453509959604e+01
6.347751320900e+01
7.264091309770e+01
8.193175034527e+01
9.149022424124e+01
1.014190132157e+02
1.108369623207e+02
1.194097251949e+02
1.290594477327e+02
1.388939919954e+02
1.484266453170e+02
1.580820918259e+02
1.678646617769e+02
1.771903851486e+02
1.711142284340e+02
1.707094750278e+02
1.708524325550e+02
1.709084789802e+02
1.706441708202e+02
1.709938768434e+02
1.711223218267e+02
1.711777416140e+02
1.716360937679e+02
1.718209781515e+02
1.717043895144e+02
1.722367993946e+02
1.726602112519e+02
1.729171781323e+02
1.731165147970e+02
1.733199782015e+02
1.737704518812e+02
1.746306637742e+02
1.755423029746e+02
1.764643984729e+02
1.772260164066e+02
1.779607301007e+02
1.788725099908e+02
1.797723066448e+02
1.808003156625e+02
1.818100759564e+02
1.828199433050e+02
1.836654924559e+02
1.843959317119e+02
1.853265860419e+02
1.858660634852e+02
1.859325894533e+02
1.862706065524e+02
1.865989208671e+02
1.867395633443e+02
1.867408130139e+02
1.866213507202e+02
1.863009984621e+02
1.858616266043e+02
1.853715177799e+02
1.851530754637e+02
1.851275501560e+02
1.848911317827e+02
1.833938449734e+02
1.839846646841e+02
1.833955229403e+02
1.834030628454e+02
1.835470141869e+02
1.834225696272e+02
9.003352183356e+01
9.936345455454e+01
1.085509550954e+02
1.176328971349e+02
1.269808534841e+02
1.363301579224e+02
1.457418266457e+02
1.551250415937e+02
1.647723211519e+02
4.322381907198e+01
8.059575981272e+01
2.901467775867e+01
1.572705787800e+01
1.937899615334e+01
2.616493514339e+01
3.482054147848e+01
4.384869981957e+01
5.285268396157e+01
6.186021426356e+01
7.090588398659e+01
2.909912931939e+00
8.315341005571e+00
1.744634849247e+01
2.648713085001e+01
3.544337339459e+01
4.442020937874e+01
5.339775561422e+01
6.239783515490e+01
7.135566652076e+01
7.959444362499e+01
8.008732753768e+01
8.011864555752e+01
7.996200130875e+01
8.110816731427e+01
8.000531125566e+01
7.980885277575e+01
7.987189256940e+01
8.006842616541e+01
7.999340395993e+01
7.988043075787e+01
7.984586296501e+01
7.985594194345e+01
8.005611645855e+01
3.653701699024e+01
3.347557221615e+01
3.316429813111e+01
3.372684275987e+01
3.264051534504e+01
1.863583374327e+01
5.067537480398e+00
4.190836685429e+00
5.014285045427e+00
5.490764608233e+00
5.581451505361e+00
5.857755010805e+00
5.621645495237e+00
5.178733681547e+00
5.367712855387e+00
5.617345910911e+00
5.705676423796e+00
5.472740641837e+00
5.008133545863e+00
2.589404754326e+00
3.546306728464e+00
3.921458765054e+00
3.959326237971e+00
4.007637304395e+00
4.073167938885e+00
4.157070225191e+00
4.260877086632e+00
4.386002663856e+00
4.533621668719e+00
4.704561177410e+00
4.899132094915e+00
5.116769089219e+00
5.355540987319e+00
5.611623956598e+00
5.879118146360e+00
6.148983012591e+00
6.409192790708e+00
6.641030842331e+00
6.829234385515e+00
6.893522829030e+00
6.827905416707e+00
6.656848478056e+00
6.393605550846e+00
5.968496333565e+00
5.770870631969e+00
6.159118593564e+00
1.039183749305e+01
9.044503458112e+00
9.723578491007e+00
9.204449886260e+00
9.654846464395e+00
9.999118970743e+00
1.017961537020e+01
1.025709859679e+01
1.023360170344e+01
1.016310965714e+01
1.004989036424e+01
9.907598753628e+00
9.746912433229e+00
9.578210093475e+00
9.408923660529e+00
9.244880967542e+00
9.089870856015e+00
8.946243838412e+00
8.815402887414e+00
8.698212968378e+00
8.595065247551e+00
8.505854276692e+00
8.429849280469e+00
8.365509408850e+00
8.311211976482e+00
8.267530091285e+00
8.257657156618e+00
1.617761092695e+01
1.776981876921e+01
1.757579858113e+01
1.781299186653e+01
1.806997325397e+01
1.819674817102e+01
1.827489715958e+01
1.829975839402e+01
1.829245229347e+01
1.825660867732e+01
1.820121028169e+01
1.813261228741e+01
1.805719065237e+01
1.797914735382e+01
1.790116342796e+01
1.782514324529e+01
1.775264460536e+01
1.768459075051e+01
1.762122782585e+01
1.756213782388e+01
1.750666072093e+01
1.745511395959e+01
1.741338184436e+01
1.740192124798e+01
1.743044552521e+01
2.643088595881e+01
2.638493689168e+01
2.639236088902e+01
2.641997802856e+01
2.645524867583e+01
2.649246301858e+01
2.652934115480e+01
2.656528194347e+01
2.660031297735e+01
2.663379182980e+01
2.666438520230e+01
2.668990119110e+01
2.670936182030e+01
2.672080785988e+01
2.672124373926e+01
2.670186191213e+01
2.666271822145e+01
2.659153979055e+01
2.650375006212e+01
2.636291736871e+01
2.624466244766e+01
2.655963258059e+01
2.461912443769e+01
3.352866667109e+01
3.545370817487e+01
3.508550109251e+01
3.511508926863e+01
3.519643063648e+01
3.524761577960e+01
3.529918025492e+01
3.533228843346e+01
3.536148013398e+01
3.538661533984e+01
3.540592726438e+01
3.541567926395e+01
3.541894777177e+01
3.541789406351e+01
3.541275936176e+01
3.540289836183e+01
3.538879943326e+01
3.537410601107e+01
3.536398105143e+01
3.536684039041e+01
3.539165312751e+01
3.542977356687e+01
4.439586276908e+01
4.435610622652e+01
4.433365969181e+01
4.432419361001e+01
4.431956049037e+01
4.431588653694e+01
4.430849221985e+01
4.429219429378e+01
4.427014767727e+01
4.424690394278e+01
4.421921955405e+01
4.418203958828e+01
4.413275475913e+01
4.409187926583e+01
4.405920293986e+01
4.404544482780e+01
4.400183129178e+01
4.399165761840e+01
4.444503754105e+01
4.255383653938e+01
5.154707825647e+01
5.343163442213e+01
5.300363789117e+01
5.294946873342e+01
5.294339941245e+01
5.295953970065e+01
5.302156253081e+01
5.307090534632e+01
5.311183778132e+01
5.314313789320e+01
5.318255065404e+01
5.322656841164e+01
5.325128045188e+01
5.326985704784e+01
5.328948746195e+01
5.330943209364e+01
5.333330110444e+01
5.337064670904e+01
5.339228978417e+01
6.242727266378e+01
6.235680252516e+01
6.232022622931e+01
6.230399321203e+01
6.226505753068e+01
6.224082772293e+01
6.221544372007e+01
6.217225637481e+01
6.210318082681e+01
6.208282765990e+01
6.205347209872e+01
6.200364228108e+01
6.197488227894e+01
6.191166279319e+01
6.197649165364e+01
6.249469813343e+01
6.063416727526e+01
6.968693286355e+01
7.152465626539e+01
7.106622066647e+01
7.101924913927e+01
7.106113079011e+01
7.111035900727e+01
7.110997550254e+01
7.115130960457e+01
7.120629777967e+01
7.124752637692e+01
7.127790359674e+01
7.131087099080e+01
7.137206152350e+01
7.136213370762e+01
7.146295330722e+01
7.155957173547e+01
4.542278109694e+01
1.904051903457e+01
1.780488075606e+01
2.339134802587e+01
3.136876094901e+01
4.013170531469e+01
4.913415787007e+01
5.812218560678e+01
6.713428375315e+01
7.626881988305e+01
2.955887229011e+01
1.833918250984e+02
8.487699104559e+00
4.292530578374e+01
1.827614560042e+02
3.288247208377e+01
9.683824563128e+01
1.810805886301e+02
4.826502089300e+01
1.776109045830e+02
6.625258435583e+01
1.814191361561e+02
9.491948541208e+00
1.735672128720e+02
8.449393016836e+01
5.940217841193e+01
1.228908142821e+02
1.706517124717e+02
1.688683334733e+02
1.669251127586e+02
1.663814978476e+02
1.681071961521e+02
8.839583085239e+01
8.836159674469e+01
8.908624884659e+01
1.223300115000e+02
1.797578276404e+02
4.479879503951e+01
1.030070121084e+01
1.529676012587e+02
8.821148645789e+01
3.277308935311e+01
1.680865950005e+02
1.800495574769e+02
1.755202619441e+02
1.820614156100e+02
1.837643952377e+02
1.767814856057e+01
8.800984298107e+01
1.805475272747e+02
1.408748400845e+02
9.515931141664e+00
7.736937479648e+01
1.682091989490e+02
4.111309933106e+01
2.785286791287e+01
5.720417797590e+01
7.520732833527e+01
4.352079805323e+01
1.046235719869e+02
1.808354291841e+02
9.936060323749e+00
1.593962471638e+02
8.871253601927e+01
9.278345222678e+01
9.700703945465e+01
1.018712025846e+02
1.065306579805e+02
1.109527291530e+02
1.063182914660e+02
1.154841008363e+02
1.108807894114e+02
1.157144733085e+02
1.201446655574e+02
1.155965316541e+02
1.249235614542e+02
1.204766958014e+02
1.111922054914e+02
1.161830575573e+02
1.068815214428e+02
1.120225182366e+02
1.213275790560e+02
1.173218963899e+02
1.080015092036e+02
1.134760212432e+02
1.041550608403e+02
1.098390184912e+02
1.004956508205e+02
1.064288214293e+02
1.156338639906e+02
1.124307756490e+02
1.032868688681e+02
1.095015154000e+02
1.004634527150e+02
1.068606630755e+02
1.156222192796e+02
1.130897233941e+02
1.045201789618e+02
1.108183806258e+02
1.025185544763e+02
1.087974810501e+02
1.008562381279e+02
1.069314854289e+02
1.144801443174e+02
1.122695037354e+02
1.051339836840e+02
1.099040292346e+02
1.168866208237e+02
1.138737661812e+02
1.208439963403e+02
1.171830707267e+02
1.104117471786e+02
1.129820553018e+02
1.199837072836e+02
1.151370649911e+02
1.080882738001e+02
1.096566059199e+02
1.170992254625e+02
1.111926799477e+02
1.034949362122e+02
1.047378328015e+02
1.128708619183e+02
1.062297272278e+02
9.776263984257e+01
9.924134724999e+01
1.080447767675e+02
1.010948506355e+02
1.101369451099e+02
9.194623894651e+01
9.400937355354e+01
8.453355203541e+01
8.693563080917e+01
1.215593471774e+02
7.724410500101e+01
7.494726298829e+01
8.002832122942e+01
8.971887316172e+01
7.023169770737e+01
7.338779637599e+01
6.362815471613e+01
9.396960591399e+01
1.266026683508e+02
6.710262245450e+01
5.748802779738e+01
5.384345383057e+01
4.796232038253e+01
1.113110246714e+02
1.206321321079e+02
1.159791166116e+02
1.255749235116e+02
1.211174221426e+02
5.177833044607e+01
1.295723177321e+02
1.300751783029e+02
9.865302056438e+01
9.399823918741e+01
1.241160073314e+02
7.672844530372e+01
7.069710452971e+01
8.026203066959e+01
1.168134138298e+02
1.190895022704e+02
1.255257856344e+02
1.279550089549e+02
1.341815907243e+02
1.367503349627e+02
1.305481384552e+02
1.394577289447e+02
1.333083566542e+02
1.427859587928e+02
1.401770248217e+02
1.423068236696e+02
1.362312582041e+02
1.453054072306e+02
1.393117477755e+02
1.301049692497e+02
1.332898126341e+02
1.240235008814e+02
1.280676150986e+02
1.315512185663e+02
1.354920854254e+02
1.391459364499e+02
1.430709752232e+02
1.468521150938e+02
1.507405050374e+02
1.466507535916e+02
1.298108702785e+02
1.032162662109e+02
9.822540008424e+01
9.689092950111e+01
9.160829627890e+01
9.099980607829e+01
8.530655720393e+01
8.550629542412e+01
8.989826714206e+01
8.481097457151e+01
8.748527918641e+01
8.257139029532e+01
8.320292017638e+01
1.214569016049e+02
1.425967444667e+02
1.504536324978e+02
1.458879702798e+02
4.416289485927e+01
1.425498839904e+02
1.486068615013e+02
1.458812830098e+02
1.543545524439e+02
4.266803329825e+01
7.919419347724e+01
7.795621477704e+01
1.305719804756e+02
1.261279741326e+02
1.541844826230e+02
4.653358962823e+01
1.483035287882e+02
8.001867666829e+01
1.366310608093e+02
1.459431876013e+02
1.242526367431e+02
1.539306219056e+02
1.491030471143e+02
8.852372739636e+01
8.266140426947e+01
7.662462464825e+01
7.471927818648e+01
8.150774604946e+01
7.278825156676e+01
6.461176268085e+01
6.261926085778e+01
7.160622997096e+01
6.179742059526e+01
5.124756044924e+01
5.158224890612e+01
1.517612610278e+02
7.815173739648e+01
1.019406833241e+02
1.569872961425e+02
1.583862348996e+02
1.356311542150e+02
1.312207636095e+02
1.217300159076e+02
1.268930217186e+02
1.364087353256e+02
1.320741012201e+02
1.226053991653e+02
1.277544310401e+02
1.183156920766e+02
1.234711919096e+02
1.329298981094e+02
1.286651763000e+02
1.192590261144e+02
1.244255081842e+02
1.150519116691e+02
1.201420305412e+02
1.296119535258e+02
3.796563342543e+01
1.499714223233e+02
1.578048153889e+02
7.471994494691e+01
8.377948217651e+01
8.979775965685e+01
9.340016617422e+01
1.252641852255e+02
1.348486024374e+02
7.095968477522e+01
6.909456528153e+01
1.401097139945e+02
1.401743896816e+02
1.307996898850e+02
9.125808948370e+01
8.451750069292e+01
8.179920134514e+01
7.465210758783e+01
7.797135852305e+01
7.184419851483e+01
1.375577357797e+02
1.381609117675e+02
5.034300761781e+01
4.043874699589e+01
1.495625552890e+02
1.422513939224e+02
1.247411990174e+02
1.304101898214e+02
1.338073066012e+02
1.393245995934e+02
1.428373944040e+02
1.481762574018e+02
1.447708931927e+02
1.573247063564e+02
1.534588941986e+02
1.156877471246e+02
1.378724869862e+02
7.139388831978e+01
3.396688471882e+01
3.999198496856e+01
4.148838398397e+01
5.037276041420e+01
1.624229112793e+02
1.518011531559e+02
1.464656072380e+02
6.805829470129e+01
7.181797342575e+01
1.619085094186e+02
1.116680855952e+02
1.132175435059e+02
1.089351921388e+02
3.222182491342e+01
4.022173192285e+01
1.416232198743e+02
7.700181475983e+01
6.808087171056e+01
7.567486928049e+01
7.409415091696e+01
1.302836426142e+02
1.398045848323e+02
9.929339199146e+01
1.028624134256e+02
1.595128208599e+02
4.207463231146e+01
1.443673036582e+02
1.452890155287e+02
1.375043559618e+02
8.740853082234e+01
6.078918708501e+01
6.354066274118e+01
8.022288261766e+01
5.311854574065e+01
4.531862511037e+01
1.676135734063e+02
1.459407565175e+02
1.500888770110e+02
1.414891663840e+02
1.585970984006e+02
3.105393970135e+01
1.654510398970e+02
1.439388714140e+02
1.552041148892e+02
1.502712587409e+02
7.677449553274e+01
6.827692246781e+01
5.870959757793e+01
5.970498713577e+01
1.017284268563e+02
7.754883020042e+01
9.759314762600e+01
9.273323518842e+01
8.838998343813e+01
8.146804796292e+01
7.573641553225e+01
9.210185223496e+01
1.271220977488e+02
9.595768005067e+01
1.208825477035e+02
1.232351823335e+02
1.424202336402e+02
1.477466051579e+02
1.099128318954e+02
1.056392417757e+02
3.472634458067e+01
3.084303645336e+01
1.125069684695e+02
1.598208646368e+02
1.451245410762e+02
1.496594338654e+02
1.445924669966e+02
1.644738360009e+02
1.009403643086e+02
1.315477180538e+02
7.435177149105e+01
1.242842963396e+02
2.587913397820e+01
1.305993496169e+02
1.533554492937e+02
1.588667358207e+02
1.653566913003e+02
8.844151233377e+01
1.299738448543e+02
1.272341467658e+02
8.367095408139e+01
7.930643224822e+01
8.411701343107e+01
7.497238501018e+01
8.051588039522e+01
7.202111958370e+01
1.613401116344e+02
1.619490625182e+02
1.592061395857e+02
1.544292171016e+02
1.697279548235e+02
1.660943488514e+02
5.399417161212e+01
6.625892671321e+01
1.511313421718e+02
8.807693551767e+01
1.681549230794e+02
1.627649633911e+02
6.927690133536e+01
6.636743522359e+01
1.495279957442e+02
4.945250472867e+01
5.123783399940e+01
4.864925670732e+01
1.723756521255e+02
8.797868112187e+01
1.627549490665e+02
8.527810011891e+01
1.541065279063e+02
1.354751999771e+02
8.878549863906e+01
1.565110093497e+02
1.444027688765e+02
1.549843552439e+02
1.038374940311e+02
9.938205624030e+01
1.078862000132e+02
7.511988982875e+01
6.925386926942e+01
1.433863724511e+02
6.502211447409e+01
6.984496662737e+01
4.447986455030e+01
5.502963856708e+01
1.054150386289e+02
1.022705048802e+02
1.358637603859e+02
1.399066150101e+02
1.282480578062e+02
1.402637684894e+02
1.323868310596e+02
1.298825315420e+02
1.518441753886e+02
1.582324709491e+02
8.857456669327e+01
8.828818224735e+01
8.133799932046e+01
1.555304554012e+02
1.681266910270e+02
1.644105162734e+02
2.213246765351e+01
2.692375734684e+01
5.196241202086e+01
5.651225240416e+01
1.540194209247e+02
1.492599885589e+02
1.599034475556e+02
4.835994701532e+01
1.468684097957e+02
1.721023147065e+02
1.689670132781e+02
1.763174940995e+02
1.605757875640e+02
1.685489657006e+02
1.669055806523e+02
6.626916610038e+01
1.516065887128e+02
1.001518777803e+02
5.832913343771e+01
9.598975071557e+01
1.013811680929e+02
9.133307927520e+01
3.987400808971e+01
9.715970622207e+01
1.027753180736e+02
1.678732446032e+01
1.606325734639e+02
1.819880016593e+01
2.174515644111e+01
1.712557982390e+02
1.657281035531e+02
1.741667343662e+02
1.686000196449e+02
1.600125317232e+02
1.633476252299e+02
9.489253192187e+01
1.732807791413e+02
1.669169797866e+02
1.770619078106e+02
7.045396018122e+01
6.158118047135e+01
5.401558415746e+01
4.322345989964e+01
1.648191195793e+02
1.581680895102e+02
1.481034276041e+02
1.385644821553e+02
9.666416756052e+01
9.619872875069e+01
1.045760519910e+02
1.034739196401e+02
1.119446024100e+02
1.106204171944e+02
1.192829174101e+02
1.705689016706e+02
3.878702197446e+01
7.925343148393e+01
1.737574034323e+02
1.694952887672e+02
7.048647154629e+01
6.142638714737e+01
1.746915824037e+02
8.533934822209e+01
1.664217034118e+02
4.695175195863e+01
6.164475532893e+01
8.662604804471e+01
7.989123487606e+01
6.431615842219e+01
5.818670106887e+01
1.483292922279e+02
2.352438749439e+01
4.945325428963e+01
1.202957311179e+02
3.969295025910e+01
1.433487340666e+02
9.282730500177e+01
9.103130627171e+01
5.909811395394e+01
6.972298300617e+01
1.063665920278e+02
9.728645657961e+01
9.270403794680e+01
9.945731642017e+01
6.207386936725e+01
5.147107480997e+01
1.026880840773e+02
1.396181384396e+02
1.442441066457e+02
1.535826369548e+02
1.489182933188e+02
1.393758793710e+02
1.440820135708e+02
1.536571438661e+02
1.491394958396e+02
1.603735506902e+02
1.540230466987e+02
1.441668381661e+02
1.489168914693e+02
1.579804071372e+02
1.393263449577e+02
1.772975793229e+02
9.569540429972e+01
7.024790882592e+01
6.229511349154e+01
9.476037341025e+01
1.698502221924e+02
1.689716394383e+02
8.495535302949e+01
1.743652531483e+02
9.719330062774e+01
8.000286285359e+01
1.765380048591e+02
1.346662903643e+02
1.297117143585e+02
1.251051449040e+02
1.687067759244e+02
1.122795980431e+02
1.808096731297e+02
1.348032085419e+02
1.299465739233e+02
1.221423388359e+02
1.392257804069e+02
1.830786655982e+02
1.771116053197e+02
1.772532789400e+02
1.703787555958e+02
1.835619909915e+02
1.721289361035e+02
1.732041524746e+02
8.057221255974e+01
8.837487294864e+01
9.536416265273e+01
9.483373755475e+01
8.859368432946e+01
9.401282899034e+01
9.996371542953e+01
9.254117531639e+01
1.491894273281e+02
1.836549830805e+02
1.317135902367e+02
1.292759893993e+02
1.210572074933e+02
9.276115655078e+01
9.928143952813e+01
1.086852025204e+02
8.640825944381e+01
1.360075425586e+02
1.833217084781e+02
1.346551785513e+02
9.649011303316e+01
8.823320777095e+01
9.633097678360e+01
9.656656152476e+01
1.052843317408e+02
9.706526218923e+01
1.087518682956e+02
1.122393928501e+02
1.065462612487e+02
1.158418203989e+02
1.100651260736e+02
1.014092053858e+02
1.193627327581e+02
1.131516661183e+02
8.806439708117e+01
3.337923630103e+01
3.812092281003e+01
2.511627103261e+01
4.085051785811e+01
5.331994074120e+01
5.514483614687e+01
6.416710099587e+01
5.318390343166e+01
9.579629891028e+00
1.841936369477e+01
7.987670478613e+00
1.556101005477e+01
2.737150986045e+01
3.696160230359e+01
1.782694924718e+02
8.668894701964e+01
8.231566809865e+01
7.324281903796e+01
7.835757544212e+01
9.058096659931e+01
6.827746283276e+01
6.507494458776e+01
1.033356221392e+01
1.806481060561e+01
1.733974316690e+01
2.509037829011e+01
2.478294225201e+01
1.806618797480e+01
1.793742251563e+01
1.015995357698e+01
1.765652315459e+01
2.473035234156e+01
9.780076758493e+00
1.317366476096e+02
1.369138675312e+02
1.821576053267e+02
8.913237327231e+01
9.095530535917e+00
1.653023307897e+02
1.670579667938e+02
1.671232715878e+02
1.627360362988e+02
1.675801187919e+02
1.655324362768e+02
6.028911810979e+01
1.581678506111e+02
1.486437489431e+02
7.316319741670e+01
6.344266960334e+01
1.345012226386e+02
1.271007645804e+02
1.552074270538e+02
1.273440136659e+02
1.484597138164e+02
1.767514020193e+02
3.692247562701e+01
1.140506011293e+02
1.107734294092e+02
1.338806159955e+02
6.120606573715e+01
9.745146977208e+01
3.874200338799e+01
1.687680843717e+02
9.337743947176e+01
1.147366245037e+02
8.311062755019e+01
6.738036395897e+01
6.221023588703e+01
9.794244731699e+01
1.033275548461e+02
1.454853768192e+02
1.391283417336e+02
1.070491818914e+01
1.513370141263e+02
1.215724106618e+02
1.174655043513e+02
1.546070944068e+02
5.278439102109e+01
1.372556264992e+02
1.543476661383e+02
1.071510939839e+02
2.989487785369e+01
1.046230505900e+02
1.705607872658e+02
1.350608835506e+02
5.561749196401e+01
1.242503774515e+02
9.708956335204e+01
7.970943080277e+01
1.527575740696e+02
1.190260184414e+02
1.621281171714e+02
1.390297873783e+02
5.956075556097e+01
1.570861702756e+02
1.196048842910e+02
1.468140074713e+02
1.373954411467e+02
1.072179519672e+02
1.407260462065e+02
1.190179191090e+02
1.583251123435e+02
8.928166730980e+01
1.190729951421e+02
1.254685655426e+02
1.184126222268e+02
1.289596654760e+02
1.541702421937e+02
7.821828354662e+01
7.941799438114e+01
1.166494865272e+02
1.567886985331e+02
1.563077722679e+02
8.762086364941e+01
1.512227405882e+02
1.501313108975e+02
1.058826250986e+02
4.210471558320e+01
6.713558593031e+01
9.513767136512e+01
1.166928208689e+02
1.151264562886e+02
1.598281985127e+02
1.542901700997e+02
1.513268443375e+02
3.432949252510e+01
8.377075922784e+01
1.575506769347e+02
1.272240242722e+02
1.622472634575e+02
1.041648984285e+02
1.697608543675e+02
6.591548434459e+01
1.611429099655e+02
1.532788954842e+02
8.487501601982e+01
8.824444152316e+01
1.716285458319e+02
1.612790238523e+02
1.272323749808e+02
1.224262387990e+02
7.064004860646e+01
1.179343810377e+02
1.227338632504e+02
1.685408650471e+02
1.654573001415e+02
1.201698244951e+02
1.116332603221e+02
1.408195259033e+02
2.466801947498e+01
7.484092470817e+01
1.147657497799e+02
9.799619847737e+01
1.246803359111e+02
1.731144572703e+02
1.180831789036e+02
1.039971750478e+02
1.215415374569e+02
6.165400387209e+01
1.248509775335e+02
1.250835865869e+02
1.319591868899e+02
2.511696208731e+01
1.328839365024e+02
1.577291490000e+02
8.266153325642e+01
1.269145304026e+02
1.344522638608e+02
5.265059757998e+01
1.349296993991e+02
1.411691939928e+02
1.383906095217e+02
1.246541647876e+02
1.430878246486e+02
5.714756024657e+01
5.733867083575e+01
4.721176563387e+01
1.062981427024e+02
1.451345490734e+02
3.178503256128e+01
1.344356529345e+02
3.370744870998e+01
1.013358733785e+02
1.523086162281e+02
1.135887585437e+02
1.024307816303e+02
5.071347420146e+01
9.591377964021e+01
1.326783672644e+02
9.669290221892e+01
8.925301540815e+01
1.581404221368e+02
9.036829817851e+01
1.670405583087e+02
1.784341687756e+02
9.527210728116e+01
4.333282735653e+01
4.438175569878e+01
4.932462525162e+01
7.322161148360e+01
1.347902450819e+02
9.559182202156e+01
6.514911204952e+01
1.635452859198e+02
1.789380903965e+02
1.271470382523e+02
1.657087733374e+02
1.438881312809e+02
1.496086288873e+02
8.744346817230e+01
1.507619603890e+01
1.336202481264e+02
3.470485975695e+01
4.069977653636e+01
3.815496070859e+01
6.270496898320e+01
3.129389258582e+01
2.993977339586e+01
1.762863871904e+02
9.549355246090e+01
1.553030328849e+02
2.725940281235e+01
1.594478434894e+02
1.729441646991e+02
1.817907448384e+02
1.638005928618e+02
4.393258621048e+01
1.033491562283e+02
1.675866178385e+02
1.345220062343e+02
1.814202174580e+02
9.433512899569e+01
1.593437517575e+02
7.222602715903e+01
1.594203618121e+02
1.442546711361e+02
1.067846207925e+02
1.031849386144e+02
1.722874121515e+02
1.620877935565e+02
5.176281360455e+01
1.265416929318e+02
7.877741949461e+01
6.026926234225e+01
1.753603081596e+02
1.532744520631e+02
1.722926323025e+02
2.484258820898e+01
1.526602165519e+01
1.776610631364e+02
1.662158976956e+02
6.794977946697e+01
1.691453613583e+02
5.510300312565e+01
8.634206365475e+01
1.665519050047e+01
1.806903253763e+02
1.600285164793e+02
8.651901215185e+01
8.875648414353e+01
5.675087775214e+01
1.642189153528e+02
2.178451456252e+01
1.608363733258e+02
1.787222024747e+02
1.622653892906e+02
1.838725470390e+02
6.023587499090e+01
1.741087225447e+02
1.719216333349e+02
8.745022640910e+01
1.616377936265e+02
6.997611154076e+01
3.082588663064e+01
1.680291691363e+02
8.718836462996e+00
8.705225085905e+01
1.804222554468e+02
2.993870958557e+01
1.019712414514e+02
1.657828944151e+02
1.065720404835e+02
1.441454930816e+02
4.305085046316e+01
4.277163675399e+01
1.184619560337e+02
1.754263825334e+02
1.622461239449e+02
1.119155223755e+02
6.127935606718e+01
1.605857663157e+02
9.362615098529e+01
1.625426471607e+02
1.718430947104e+02
4.759102814270e+01
1.148496432956e+02
1.563106895833e+01
1.758731569035e+02
9.760792196293e+01
9.256138881318e+00
3.549161140102e+00
1.411527010129e+01
1.309561701032e+01
2.090058699779e+01
2.170161266038e+01
2.945573251654e+01
3.119374778105e+01
3.849402641349e+01
3.966582310514e+01
4.756395162512e+01
4.914235614394e+01
5.662334560877e+01
5.764661046300e+01
6.564436686482e+01
6.716912805746e+01
7.477675615648e+01
7.576651589258e+01

SCALARS node_materi_strain_total_average_a_ept float
LOOKUP_TABLE default
1.609656187326e-04
1.644499560994e-03
2.511645247053e-03
3.027325572940e-03
1.933994277458e-04
2.923074370469e-04
3.811349624502e-04
4.951062488890e-04
6.019436251613e-04
7.122761558707e-04
8.256608022667e-04
9.416825207465e-04
1.061791361276e-03
1.185498791990e-03
1.314756674631e-03
1.445236479630e-03
1.568550801003e-03
1.702715510030e-03
1.844594305010e-03
1.984915896872e-03
2.128642807512e-03
2.276341292055e-03
2.419159440433e-03
3.035618931493e-03
3.026667194402e-03
3.027161662397e-03
3.024323863481e-03
3.015631183119e-03
3.016646152093e-03
3.011734737470e-03
3.001874713125e-03
2.998589212735e-03
2.989075993113e-03
2.972218900905e-03
2.963692152598e-03
2.949822543293e-03
2.930299439202e-03
2.908262679357e-03
2.881346868737e-03
2.854139189934e-03
2.829277251320e-03
2.800951935966e-03
2.770365344464e-03
2.733452258290e-03
2.692832360632e-03
2.652025379941e-03
2.609392750364e-03
2.567971592537e-03
2.528547618330e-03
2.487123479463e-03
2.451634980581e-03
2.414325068406e-03
2.389218791306e-03
2.360801732778e-03
2.334456863219e-03
2.318900322364e-03
2.315611474064e-03
2.315407231985e-03
2.317974429453e-03
2.332380143422e-03
2.341198571827e-03
2.358440489168e-03
2.372779258416e-03
2.396222616218e-03
2.425003561469e-03
2.445556562523e-03
2.445652805182e-03
2.479444635718e-03
2.485797263043e-03
2.501308376880e-03
2.514188406884e-03
2.517974736725e-03
1.789002686520e-03
1.930821880317e-03
2.072900066772e-03
2.212854048368e-03
2.356239599897e-03
2.501447787968e-03
2.644941082103e-03
2.789334645777e-03
2.935440858775e-03
-1.278313124239e-03
1.550285342308e-03
-1.242073699297e-04
2.792998234976e-04
4.363906776220e-04
6.035965051610e-04
7.654963281445e-04
9.219405459192e-04
1.077888175027e-03
1.233080959216e-03
1.388718801860e-03
4.292459790994e-04
5.200048627613e-04
6.620807988849e-04
8.025558023062e-04
9.422484935441e-04
1.081733743678e-03
1.221274413089e-03
1.360915525270e-03
1.500379714609e-03
1.626801672220e-03
1.635140155307e-03
1.633570861829e-03
1.629562198615e-03
1.646140588025e-03
1.625624288369e-03
1.619876211414e-03
1.616018285654e-03
1.611759188506e-03
1.603161818226e-03
1.594157488844e-03
1.583333425094e-03
1.572271080464e-03
1.561345428090e-03
-1.860118815307e-03
-2.106526096722e-03
-2.152794936978e-03
-1.931986795004e-03
-1.113034239503e-03
-3.256796449522e-04
-3.080413522140e-05
9.287742666384e-05
1.505040849056e-04
1.521481399596e-04
1.556255882114e-04
1.630226462013e-04
1.648283001791e-04
1.688663587210e-04
1.621422867166e-04
1.589199133436e-04
1.571220298018e-04
1.570639856294e-04
1.598349991078e-04
4.300989562044e-04
4.519947690105e-04
4.596785156615e-04
4.611626473226e-04
4.628604113021e-04
4.653133881838e-04
4.684121103577e-04
4.720671994966e-04
4.762241732545e-04
4.808439184749e-04
4.858904507064e-04
4.913233060672e-04
4.970892752273e-04
5.031114622158e-04
5.092788807568e-04
5.154328601880e-04
5.214120862688e-04
5.269553326186e-04
5.314949356377e-04
5.350169555899e-04
5.383797235690e-04
5.460824928183e-04
5.534620291978e-04
5.633893595814e-04
5.452140691204e-04
4.817177066379e-04
3.917004826865e-04
2.722414485780e-04
3.943162822193e-04
4.646269493058e-04
5.264715663399e-04
5.452459517270e-04
5.584124031748e-04
5.625566626017e-04
5.665450934313e-04
5.686732165705e-04
5.692070488820e-04
5.680292838925e-04
5.657430020383e-04
5.627084665145e-04
5.592039797448e-04
5.554502568370e-04
5.516236485645e-04
5.478513714464e-04
5.442279734537e-04
5.408233942311e-04
5.376940659230e-04
5.348869570160e-04
5.324422836815e-04
5.303922173544e-04
5.287454464244e-04
5.274101440497e-04
5.259518484439e-04
5.218152433242e-04
5.122689276053e-04
5.715912056271e-04
6.104547352516e-04
6.319193075939e-04
6.485322204210e-04
6.600444553208e-04
6.687772138669e-04
6.743615007776e-04
6.778312501152e-04
6.796262155544e-04
6.802676021723e-04
6.800441234454e-04
6.792293023592e-04
6.780152144394e-04
6.765574497980e-04
6.749696902405e-04
6.733426854884e-04
6.717490513635e-04
6.702459824534e-04
6.688758055784e-04
6.676597087655e-04
6.665794776124e-04
6.655456743725e-04
6.645482759677e-04
6.625992407505e-04
8.028007343721e-04
8.035867739949e-04
8.041474380959e-04
8.046363856284e-04
8.050852104240e-04
8.055065359374e-04
8.058828896874e-04
8.061764349451e-04
8.063275665349e-04
8.062571137496e-04
8.058651426400e-04
8.050275352815e-04
8.035942757817e-04
8.013481607039e-04
7.980405841293e-04
7.932980882267e-04
7.867885717203e-04
7.777454349845e-04
7.658861490255e-04
7.494284161815e-04
7.296525708003e-04
7.017568579258e-04
6.545123630158e-04
7.972694087382e-04
8.394464159327e-04
8.610404689337e-04
8.784753738285e-04
8.934689001607e-04
9.046119953264e-04
9.137408627297e-04
9.207493352088e-04
9.263175596992e-04
9.306202068209e-04
9.339773058482e-04
9.365511192104e-04
9.385047778747e-04
9.399618887394e-04
9.410245813177e-04
9.417781400379e-04
9.422838577702e-04
9.425869048159e-04
9.427172501417e-04
9.426871144228e-04
9.424900433685e-04
9.423167213375e-04
1.081741651403e-03
1.081618476536e-03
1.081304929936e-03
1.080747214586e-03
1.079919519104e-03
1.078766301166e-03
1.077228510171e-03
1.075233299062e-03
1.072731036070e-03
1.069595052798e-03
1.065714834428e-03
1.060936530527e-03
1.055042502442e-03
1.047953699304e-03
1.039148828995e-03
1.028678828118e-03
1.015225262812e-03
1.000238577742e-03
9.835944329777e-04
9.436833532161e-04
1.092229797197e-03
1.129861596364e-03
1.143070597967e-03
1.156079107381e-03
1.168355400324e-03
1.178001159593e-03
1.186548914701e-03
1.193599357564e-03
1.199453343259e-03
1.204356751253e-03
1.208449140871e-03
1.211781698752e-03
1.214507275238e-03
1.216618943144e-03
1.218290240639e-03
1.219523371661e-03
1.220452574851e-03
1.221069812524e-03
1.221260130804e-03
1.360961227079e-03
1.360423375882e-03
1.359362642727e-03
1.357913458134e-03
1.356033574387e-03
1.353518065675e-03
1.350451642663e-03
1.346454691547e-03
1.341605289766e-03
1.335972418991e-03
1.329325880517e-03
1.321412542760e-03
1.312058662386e-03
1.300578781400e-03
1.289074452385e-03
1.279029208755e-03
1.242885567959e-03
1.394283201241e-03
1.428368721598e-03
1.437014240941e-03
1.448491734973e-03
1.458404701227e-03
1.466924545709e-03
1.473721539954e-03
1.479897735335e-03
1.485860660917e-03
1.489585710891e-03
1.493145592811e-03
1.495745202967e-03
1.497980580496e-03
1.499340550908e-03
1.501240729670e-03
1.501561542393e-03
-6.339595364575e-04
1.563685933683e-04
3.620588929111e-04
5.239603431898e-04
6.927492820567e-04
8.561193251618e-04
1.012524016224e-03
1.168751073919e-03
1.324098175072e-03
1.480927608981e-03
9.581642479888e-05
2.276757489812e-03
1.008860979974e-04
-1.314233884574e-03
2.300850073274e-03
5.744693627109e-04
1.253492798449e-03
2.346185230500e-03
9.281346910140e-04
2.492224871499e-03
1.261626172773e-03
2.381346216637e-03
1.682657457871e-04
2.650132430459e-03
1.586696895142e-03
7.728366622131e-04
1.612458201257e-03
2.744046131660e-03
2.852853542389e-03
2.951981872247e-03
2.919488084755e-03
2.903527754719e-03
1.688804492841e-03
1.733890643397e-03
1.762682969328e-03
2.285740778035e-03
2.417303920322e-03
-1.659388597147e-03
1.794477671499e-04
2.050749657807e-03
1.756945469911e-03
4.371922739854e-04
2.782136632673e-03
2.423909731573e-03
2.572539767066e-03
2.297302648330e-03
2.274462617122e-03
-2.094925852593e-04
1.710076576423e-03
2.313243790786e-03
2.568711066162e-03
1.459559778072e-04
1.000762140755e-03
2.979929472338e-03
7.637226952271e-04
3.622460016210e-04
1.097050251260e-03
1.423126863976e-03
-4.544249782001e-04
2.013603777403e-03
2.461875976578e-03
1.770870634682e-04
2.854860715074e-03
1.661473880236e-03
1.703264245478e-03
1.784084972163e-03
1.828485965486e-03
1.915986411376e-03
1.956049386472e-03
1.867177875255e-03
1.995300241234e-03
1.903545493110e-03
2.046470944704e-03
2.032616094785e-03
1.938354330962e-03
2.068101123176e-03
1.971734136074e-03
1.843954374810e-03
1.875231688715e-03
1.748924135168e-03
1.778043463416e-03
1.905565383160e-03
1.806254842919e-03
1.679613904788e-03
1.705862609861e-03
1.579858746563e-03
1.604132212546e-03
1.477737337302e-03
1.500279822382e-03
1.628960465641e-03
1.523792550955e-03
1.394070805478e-03
1.416353033963e-03
1.284574957418e-03
1.305575124430e-03
1.440881929870e-03
1.330063346142e-03
1.189964304644e-03
1.215781689539e-03
1.069258519425e-03
1.098189598606e-03
9.437621398010e-04
9.761045658855e-04
1.133402563047e-03
1.016188175219e-03
8.499597210804e-04
8.972033276589e-04
1.064425042800e-03
9.533800676212e-04
1.119555254458e-03
1.016839835592e-03
8.458733650094e-04
9.188359184187e-04
1.085224448270e-03
9.951552207099e-04
8.268987270497e-04
9.121957593400e-04
1.073977074062e-03
9.973191125223e-04
8.369490910223e-04
9.280115185085e-04
1.082300258962e-03
1.016013833708e-03
8.653703800498e-04
9.553932596905e-04
1.101538519278e-03
1.041373593784e-03
1.184024646831e-03
8.989872454066e-04
9.849091225651e-04
8.469361023856e-04
9.318238599677e-04
1.468609392106e-03
7.990944119456e-04
7.120474623785e-04
8.814741530573e-04
1.012427136594e-03
7.538759116461e-04
8.329617572555e-04
7.107539033909e-04
9.173383664274e-04
1.935181401507e-03
7.855015128243e-04
6.680138773670e-04
5.937151868546e-04
5.564620682441e-04
2.003349379534e-03
2.137516439633e-03
2.088846125046e-03
2.228011312534e-03
2.179669096698e-03
6.243862552927e-04
2.165491869974e-03
2.274288070697e-03
1.555853712633e-03
1.266045622680e-03
1.224744546870e-03
9.074240334611e-04
8.561425503689e-04
9.777605624918e-04
1.247354291721e-03
1.326545964722e-03
1.392063741472e-03
1.468541242890e-03
1.535418887140e-03
1.609873581083e-03
1.543761459408e-03
1.683712537603e-03
1.617760579252e-03
1.677376232371e-03
1.604160361888e-03
1.756878172554e-03
1.690652048856e-03
1.829596068674e-03
1.762632870032e-03
1.624430894865e-03
1.695172694657e-03
1.558752212611e-03
1.278647117257e-03
1.379472873224e-03
1.431848711446e-03
1.528864319666e-03
1.579880398436e-03
1.673468021184e-03
1.722656506116e-03
1.634326802835e-03
2.101272684854e-03
7.215571952911e-04
6.755579104024e-04
5.349417807125e-04
4.912299217717e-04
3.339165390045e-04
2.947464992869e-04
1.136994750846e-04
1.740053997045e-04
-7.412364584734e-05
2.131007181798e-05
-2.411253854320e-04
-1.146444851571e-04
1.654592792142e-03
1.627091371917e-03
1.768843309629e-03
1.725451918267e-03
4.841732771223e-04
1.833801350042e-03
1.746274739044e-03
1.674285672484e-03
1.775910389560e-03
5.174031245106e-04
8.283365318291e-05
2.793433744302e-04
2.318458079371e-03
2.268486544029e-03
1.816368158080e-03
5.805387683865e-04
1.823429069998e-03
-3.267012587581e-04
1.764786333535e-03
1.903799159088e-03
1.479154208287e-03
1.865179541477e-03
1.823590645115e-03
1.344965560609e-04
2.867818683921e-05
-2.037515594606e-04
-3.647569613316e-05
1.789673664984e-04
1.196962805796e-04
-7.020147601833e-05
9.472205127761e-05
2.685381167333e-04
2.414840834937e-04
9.590038347443e-05
2.330546562347e-04
1.973563212480e-03
-4.768737236998e-04
1.718804343716e-03
1.886191689185e-03
1.859499279447e-03
2.409130471275e-03
2.357359188857e-03
2.216427908779e-03
2.304144371249e-03
2.446354830150e-03
2.391574556748e-03
2.249487490356e-03
2.335526270568e-03
2.193625335705e-03
2.278387729020e-03
2.421445344179e-03
2.363115379677e-03
2.220218491754e-03
2.303782162080e-03
2.160847825479e-03
2.243060817999e-03
2.387296061298e-03
4.799403528567e-04
1.691653773497e-03
1.832261741751e-03
9.251973357497e-04
1.044254163389e-03
1.103455553112e-03
1.171794941107e-03
2.324620195168e-03
2.470225616007e-03
9.109731714841e-05
2.909076001790e-04
2.459285583563e-03
1.833239456323e-03
1.695904724788e-03
1.154063393030e-03
1.140356694585e-03
1.025119116242e-03
1.015913765346e-03
1.128065590870e-03
8.963429788410e-04
1.529675471416e-03
2.507158802919e-03
5.141427950150e-04
4.071230406157e-04
1.972961701454e-03
1.547163111385e-03
1.759158191870e-03
1.786339615130e-03
1.890675109456e-03
1.918656785219e-03
2.023223421981e-03
2.050774637905e-03
1.947900801376e-03
1.962333647997e-03
2.080471249593e-03
2.179455175296e-03
1.582300053990e-03
4.016845761572e-04
4.182248913936e-04
1.223600007377e-04
5.315771587814e-04
6.395739513929e-04
1.955338398915e-03
2.156158253529e-03
2.126982763151e-03
1.009925231623e-03
1.118041284556e-03
2.000896300978e-03
2.042829876428e-03
2.109083676815e-03
2.052859897621e-03
4.198622236153e-04
1.174966004886e-06
2.535062548439e-03
4.561056298030e-04
4.665757292026e-04
-5.595542452372e-04
-7.563574606852e-04
2.405252670083e-03
2.550304959186e-03
1.232254833100e-03
1.300076586598e-03
1.888568331128e-03
2.345338447517e-04
2.616025252121e-03
1.609773715114e-03
1.462669827595e-03
1.109827510091e-03
1.383075780860e-04
-7.785237947963e-05
4.431671766004e-04
3.519953039809e-04
5.868735614187e-04
2.024854654768e-03
2.589500205392e-03
1.978598685933e-03
1.844122337662e-03
2.111315591090e-03
1.481787709070e-04
2.025970140988e-03
1.900979289956e-03
2.255594945676e-03
2.230332341523e-03
6.142539263770e-04
6.232470952775e-04
4.914502982936e-04
6.400377968332e-04
1.777477157283e-03
7.604349927827e-04
1.625790743673e-03
1.596950139814e-03
1.506077982703e-03
1.233685118978e-03
1.219380746738e-03
6.413230551481e-04
1.330935132484e-03
1.162142746089e-03
1.488170385736e-03
1.313949854813e-03
2.565064475042e-03
2.652234881697e-03
2.078215551271e-03
2.018789837613e-03
3.835427468066e-04
3.109452954109e-04
1.263778765626e-03
1.956126801040e-03
2.550360648964e-03
2.600839166081e-03
2.507365408767e-03
1.959490943376e-03
5.936433467653e-04
1.336772049946e-03
-5.989465785332e-04
1.575687695965e-03
2.942582965306e-04
2.034786660793e-03
2.042462520163e-03
2.114171425400e-03
2.093895192897e-03
1.621058392551e-03
1.606041192121e-03
1.500595491092e-03
1.478641366441e-03
1.390940311025e-03
1.414055270290e-03
1.299656073739e-03
5.594196688034e-04
5.181464443766e-04
2.299296047198e-03
2.210119040783e-03
2.361882308186e-03
2.339373944868e-03
2.131486579597e-03
2.040548340085e-03
6.932837041121e-04
1.108038758575e-03
2.679770921675e-03
1.566082996748e-03
2.091635478411e-03
2.028758421481e-03
-9.518881560727e-04
-6.627577453044e-04
2.697846394737e-03
5.240752569533e-04
6.584037811452e-04
3.782638531174e-04
2.345855416589e-03
1.756641865005e-03
2.186494156326e-03
1.336075981736e-03
2.764936079723e-03
1.641068638395e-03
1.033937077054e-03
1.821610957162e-03
2.622393838274e-03
2.781894852469e-03
1.969964724155e-03
1.908661199708e-03
2.020743930675e-03
-3.454553181341e-04
-5.728615447563e-04
2.592039604949e-03
8.050325953644e-04
8.805597479373e-04
3.380015356737e-04
4.567268141470e-04
1.292996815648e-03
1.220993158885e-03
2.066247636223e-03
2.167242303274e-03
1.862482027833e-03
1.530266063207e-03
1.381672568516e-03
1.311890504409e-03
2.706886791071e-03
2.809708015308e-03
6.101633477092e-04
4.987099822184e-04
6.631663362161e-04
2.734257389787e-03
2.256116489570e-03
2.184520895242e-03
2.347489006212e-04
2.358964044734e-04
2.841604746207e-05
-1.976349804106e-04
2.646433951128e-03
2.554466855418e-03
2.752380004001e-03
6.314451202068e-04
1.879847864230e-03
2.087476580970e-03
2.030349331477e-03
2.171118367319e-03
2.055703072498e-03
2.179519643198e-03
2.239211940312e-03
-1.181413121568e-03
2.734113740589e-03
1.930522247818e-03
-1.372980120344e-03
1.872447920912e-03
1.956710658882e-03
1.803263429842e-03
5.254310387616e-04
1.861926995566e-03
1.934451090160e-03
1.621027942818e-04
2.824015912321e-03
2.161545578731e-04
2.707143078995e-04
2.168490508990e-03
2.101997232814e-03
2.235501597584e-03
2.168942199944e-03
2.034642473992e-03
2.110084176536e-03
1.845044769173e-03
2.264578860615e-03
2.188150523414e-03
2.344421735131e-03
1.281112450597e-03
7.702920647048e-04
7.832368783758e-04
6.837355431818e-04
2.493432944197e-03
2.436554296562e-03
1.972211341717e-03
1.831488620846e-03
1.885608144706e-03
1.881344221733e-03
2.009136691960e-03
1.994306544546e-03
2.123211773739e-03
2.105675358684e-03
2.237915211405e-03
2.348277061769e-03
4.263607281192e-04
1.450420017128e-03
2.166496916049e-03
2.071547170473e-03
1.204573568816e-03
1.099655136760e-03
2.179155787159e-03
7.639305158681e-04
2.896094482252e-03
-1.305782362882e-03
-1.001358496498e-03
9.014489762662e-04
1.318224340464e-03
8.929185040238e-04
8.985316579536e-04
1.677316394299e-03
1.681679413098e-04
2.123790793354e-04
2.251556161509e-03
1.357758672115e-04
1.908192209428e-03
7.831364052495e-04
1.353929641798e-03
3.264098307798e-04
7.669305632974e-04
1.811301120343e-03
1.741973576135e-03
1.654502331774e-03
8.121027920199e-04
1.009840805780e-03
8.986040940469e-04
1.653030416170e-03
2.413440566932e-03
2.458017970350e-03
2.594274230973e-03
2.499726935475e-03
2.361787107505e-03
2.402442166111e-03
2.542142367990e-03
2.445198588634e-03
2.608670501373e-03
2.480159198290e-03
2.339534656387e-03
2.371266600256e-03
2.498935998714e-03
2.234898690097e-03
2.250045083072e-03
1.046848585628e-03
-8.937222553225e-04
-6.221763780526e-04
1.456508657325e-03
2.769389767110e-03
2.827176250008e-03
4.641536354620e-04
2.610232155917e-03
1.687172127788e-03
-1.278820156339e-04
2.532574796025e-03
2.318975566980e-03
2.223154567836e-03
2.181117356492e-03
2.874495287033e-03
2.075286674511e-03
2.390505183966e-03
1.481180518614e-03
1.435814901634e-03
1.286398684522e-03
2.302359388001e-03
2.285246818627e-03
2.178353907743e-03
2.170853021790e-03
2.057860008755e-03
2.272418491957e-03
2.723740333787e-03
2.694213794544e-03
3.149169581938e-04
3.814659879173e-04
5.688993999430e-04
4.628428280907e-04
2.567569222494e-04
3.575689119466e-04
5.587686082888e-04
2.585300581741e-04
2.303130793252e-03
2.283193533613e-03
1.460044171181e-03
1.382822205245e-03
1.233923556582e-03
1.089154094390e-03
1.145837322486e-03
1.280570952814e-03
1.033286494001e-03
1.814397252334e-03
2.291045027478e-03
1.398287990622e-03
1.067109068884e-03
1.700330029215e-03
1.812219883810e-03
1.798419139855e-03
1.935294379072e-03
1.838538586372e-03
1.362486852748e-03
1.429639542781e-03
1.365433654863e-03
1.494917930285e-03
1.425862441011e-03
1.307304332096e-03
1.556406982124e-03
1.475211065306e-03
1.720809516907e-03
-6.519671857005e-04
-4.031843450288e-04
-1.544694120190e-04
-2.409592690426e-04
-4.354447988179e-04
-2.301486627234e-04
-3.978077551336e-04
-7.587899042346e-04
-4.372269331590e-05
-1.761106876540e-05
5.890264885608e-05
6.787694042396e-05
5.212322351107e-05
3.252638610895e-04
2.410993963838e-03
1.121128745475e-03
1.058338037892e-03
9.440168162212e-04
9.987081379342e-04
1.168309987632e-03
8.845680172889e-04
8.400552557946e-04
1.806272779703e-04
2.530350833125e-04
2.483319749867e-04
3.387685175022e-04
3.348360658966e-04
2.519451521665e-04
2.464464633034e-04
1.772785418088e-04
2.399464733774e-04
3.237719695689e-04
1.726405260914e-04
2.429894375006e-03
2.508224503616e-03
2.312037805785e-03
1.753351260112e-03
1.217023158925e-04
2.932892952758e-03
2.940485371772e-03
2.950674604214e-03
2.198071525054e-03
2.267952072413e-03
2.942991831512e-03
6.310563132292e-04
2.634783664598e-03
2.676689231902e-03
-1.259005868353e-04
4.848605808278e-04
1.762862383944e-03
1.552662545085e-03
2.043752442963e-03
1.627984635812e-03
1.901940551295e-03
2.160323350244e-03
4.844189571391e-04
2.136104330561e-03
2.100199282470e-03
2.447717799316e-03
7.376218307032e-04
1.242440084283e-03
4.530000642323e-04
2.441239610275e-03
1.531776694808e-03
1.165872280424e-03
9.594589747646e-04
6.701778083011e-04
3.726414134546e-04
1.170007721179e-03
1.124103314146e-03
1.750379949426e-03
2.531900494503e-03
1.627804246489e-04
1.817805241950e-03
1.403729924768e-03
2.163115788604e-03
1.813251607771e-03
-5.508912409056e-05
2.478618047039e-03
2.687496213709e-03
1.988885032211e-03
3.582231790161e-04
1.992437969486e-03
2.089207774977e-03
2.366877964592e-03
6.893290444581e-04
1.180161157009e-03
1.373402531918e-03
1.505320661865e-03
2.733633318475e-03
1.359138342114e-03
1.913995696955e-03
1.487959852717e-03
7.519035349698e-04
1.963007627888e-03
1.176170762846e-03
2.622662938312e-03
1.994308381937e-03
7.789677703941e-04
2.499170536509e-03
1.153387416062e-03
1.906496182622e-03
1.435784795675e-03
1.732341554756e-03
2.003293265638e-03
1.548763863855e-03
1.692730286349e-03
1.890043519386e-03
-3.668673829036e-04
8.991542341362e-04
2.129183976718e-03
2.179002371385e-03
2.766468679765e-03
1.249251309191e-03
1.896100096876e-03
2.639614809277e-03
1.203761816165e-03
5.551158953152e-04
-3.009796207633e-04
3.938116032561e-04
1.247645530535e-03
1.341167993239e-03
2.706966465431e-03
1.968902730756e-03
1.746856234294e-03
-1.052449086518e-04
1.535994859797e-03
2.042283658801e-03
1.244715038290e-03
1.946681184347e-03
1.353429116993e-03
2.400550843839e-03
1.192191471967e-03
2.117286118901e-03
1.755334210411e-03
6.202318008914e-04
1.759956858522e-03
2.280849456027e-03
1.895349744744e-03
1.681473908219e-03
1.156552271500e-03
1.342574544309e-03
1.416037782899e-03
1.834082958866e-03
2.893373217813e-03
1.964251672725e-03
2.087321115859e-03
1.353971325017e-03
1.681524642208e-03
3.302173253108e-04
1.367289971960e-03
1.425000605131e-03
4.709856090540e-04
1.230087835906e-03
2.219036369819e-03
1.494181468393e-03
6.649543832276e-04
1.561543016489e-03
1.180761730648e-03
2.127590476955e-03
1.627671931633e-03
1.964566431588e-03
3.216569731481e-04
1.709928696380e-03
2.117501253928e-03
7.578890535742e-04
1.305405867018e-03
2.263951957867e-03
1.014395513996e-03
1.454549953597e-03
2.097199835415e-03
1.742901865881e-03
1.394519270958e-03
1.602004655070e-03
1.009170455782e-03
5.465846113157e-04
4.307227446737e-04
7.439618093626e-04
2.200870395759e-03
4.231540380026e-04
2.201375651714e-03
2.399201153608e-04
6.508039529983e-04
1.922229038946e-03
2.151183780677e-03
7.444568376395e-04
6.627686254250e-04
6.714620166911e-04
1.538620132031e-03
7.710731739938e-04
7.133565197626e-04
2.819642822433e-03
8.090745899788e-04
2.969753796717e-03
2.433673047402e-03
1.869025228573e-03
8.469816071901e-04
-1.720886081018e-03
8.024577101283e-04
6.195868363526e-04
2.133673259626e-03
1.874022142684e-03
5.813888656321e-04
2.612295589565e-03
2.458120928095e-03
2.359357850984e-03
1.986021123802e-03
1.782518327776e-03
2.703161759676e-03
1.741077290128e-03
1.128313660424e-04
1.766661434685e-03
6.642326156884e-04
5.517594022625e-04
2.899666727149e-04
8.006940104751e-04
-6.890698762130e-05
4.713713711625e-04
2.179760186290e-03
1.845463632694e-03
2.015174478034e-03
2.491438987783e-04
2.777406916718e-03
2.290606833632e-03
2.360422009894e-03
2.148014413728e-03
-5.784898999654e-05
1.922727425858e-03
2.476441342429e-03
2.471177544017e-03
2.398704029572e-03
1.811647219934e-03
2.847184446343e-03
-4.240459652217e-04
2.853032907476e-03
2.268252559717e-03
2.042139630484e-03
1.887085641361e-03
2.332712787267e-03
2.667524704977e-03
-3.626769168525e-04
2.349542305605e-03
9.911308842218e-04
-1.115129813870e-03
2.212415260904e-03
2.398797039069e-03
2.308150257112e-03
3.380972158528e-04
1.752456991548e-04
2.208187426094e-03
2.566376961157e-03
-2.189800497804e-04
2.949294201519e-03
-7.724287705016e-04
1.717768632112e-03
2.251489617626e-04
2.419144434688e-03
2.828953604087e-03
1.109448811897e-03
1.678962194477e-03
7.354866019002e-04
2.285988509800e-03
1.070982478541e-04
2.854589429110e-03
2.197801088857e-03
2.764828143444e-03
2.356845470422e-03
-1.314509916345e-03
2.354402511383e-03
2.077534578403e-03
1.744353186814e-03
2.709544307370e-03
8.949525640555e-04
3.964979715430e-04
2.987570433653e-03
1.726194204067e-04
1.741689959703e-03
2.470101599015e-03
3.982405679361e-04
1.972896552779e-03
2.604895882827e-03
1.387380317361e-03
2.619865651840e-03
-1.178693281142e-04
-1.745635558369e-03
2.226445300553e-03
2.284023404854e-03
2.804137957635e-03
2.122105574703e-03
-3.840575841297e-04
2.504377349936e-03
1.202276303151e-03
2.369394155735e-03
2.093138064512e-03
-8.832830004417e-04
1.500573012847e-03
2.074357051893e-04
2.280497693679e-03
1.260186690316e-03
3.398397392609e-04
4.442171225059e-04
4.187118942595e-04
5.949861581627e-04
5.543760403666e-04
7.280034100822e-04
7.100988876403e-04
8.770281353764e-04
8.595868618733e-04
1.007491392130e-03
1.010924990078e-03
1.156028599640e-03
1.162545375662e-03
1.286723336914e-03
1.315322552557e-03
1.435503696654e-03
1.468510427662e-03
1.566209578365e-03

SCALARS node_materi_strain_total_size_dev_sd_ept float
LOOKUP_TABLE default
6.166329780185e-04
4.459867291660e-03
6.197690558201e-03
7.446153458496e-03
3.562048690453e-04
4.322793862148e-04
8.484910204478e-04
1.327352456569e-03
1.774645921654e-03
2.176648937924e-03
2.549742166244e-03
2.895757043380e-03
3.219103848861e-03
3.531236365262e-03
3.840681059933e-03
4.130642785604e-03
4.391414953580e-03
4.675245253847e-03
4.966207361763e-03
5.247372721017e-03
5.527597434466e-03
5.803359856164e-03
6.057767412212e-03
7.456637307509e-03
7.440294645641e-03
7.441676807436e-03
7.436499973412e-03
7.422326282006e-03
7.423169240476e-03
7.414551545391e-03
7.398002530059e-03
7.393077294847e-03
7.374020742627e-03
7.346720576857e-03
7.329778010025e-03
7.304163050582e-03
7.266598703180e-03
7.224806189182e-03
7.170975248690e-03
7.119154783540e-03
7.066938824412e-03
7.006492813206e-03
6.937219503394e-03
6.851318799154e-03
6.757038321044e-03
6.654678075053e-03
6.543890928360e-03
6.432258462733e-03
6.315930849532e-03
6.198391727996e-03
6.077803907326e-03
5.963770087561e-03
5.878134142974e-03
5.782781097211e-03
5.683050743379e-03
5.626619677709e-03
5.608674554994e-03
5.602249459130e-03
5.622014175282e-03
5.653928210268e-03
5.695751081536e-03
5.741162485578e-03
5.797908596614e-03
5.867050564464e-03
5.945969682211e-03
6.003468170536e-03
6.019978847027e-03
6.098607381505e-03
6.123329345628e-03
6.158732087092e-03
6.190829017966e-03
6.202805407020e-03
4.805192028029e-03
5.149241877088e-03
5.478358362698e-03
5.793347448455e-03
6.107246187592e-03
6.411470522714e-03
6.707882080400e-03
6.993683127978e-03
7.281577615248e-03
3.619574482890e-03
4.488566870946e-03
3.014144222715e-03
2.314282269685e-03
2.496667049461e-03
2.691471237086e-03
2.866205246073e-03
3.119656732896e-03
3.428675506376e-03
3.765870560572e-03
4.115736116214e-03
1.336105467000e-03
1.546060387968e-03
1.888810224801e-03
2.251751761992e-03
2.622215887906e-03
2.993590336734e-03
3.363044599293e-03
3.728514267549e-03
4.086075839570e-03
4.407996631492e-03
4.429723600089e-03
4.435526897389e-03
4.435161498494e-03
4.484991252079e-03
4.450151439619e-03
4.450878955402e-03
4.459148091106e-03
4.475070977748e-03
4.478333470505e-03
4.478157513415e-03
4.478411379591e-03
4.476510186861e-03
4.477987617107e-03
2.977901205274e-03
2.706878832138e-03
2.712300867541e-03
2.764577320581e-03
2.740701314317e-03
1.694119057532e-03
4.498863570903e-04
2.822050841456e-04
4.950446319827e-04
5.192085154955e-04
5.236528373432e-04
5.560618292369e-04
5.891027009942e-04
6.217562150255e-04
5.939603413137e-04
5.733778161165e-04
5.652084222792e-04
5.881702422367e-04
6.180152603944e-04
1.302884153123e-03
1.312131145756e-03
1.311336231074e-03
1.310660779949e-03
1.304704582145e-03
1.295445808839e-03
1.283542457539e-03
1.269348747685e-03
1.253120529982e-03
1.235079510137e-03
1.215450072972e-03
1.194487318725e-03
1.172497884067e-03
1.149860960725e-03
1.127039745849e-03
1.104602202253e-03
1.083027963509e-03
1.063066558010e-03
1.045835579580e-03
1.031356650246e-03
1.018393775348e-03
1.000191447954e-03
9.863702468662e-04
9.732306432420e-04
1.004503902316e-03
1.152043507502e-03
1.396775565410e-03
1.829443688172e-03
1.768448476545e-03
1.626108859891e-03
1.424525511249e-03
1.361430661034e-03
1.327134596522e-03
1.313746718413e-03
1.307829718299e-03
1.308085395956e-03
1.313618631989e-03
1.323396451990e-03
1.336122214872e-03
1.350778950249e-03
1.366646755027e-03
1.383102392240e-03
1.399621666064e-03
1.415778350825e-03
1.431223172065e-03
1.445672030125e-03
1.458891632316e-03
1.470683681650e-03
1.480875491370e-03
1.489324832488e-03
1.495936278346e-03
1.500586246137e-03
1.502574990643e-03
1.528752539496e-03
2.217631005225e-03
2.122862132818e-03
1.959206063157e-03
1.889457073151e-03
1.842890540096e-03
1.814995804467e-03
1.799433799845e-03
1.792044280217e-03
1.790163936543e-03
1.792128193585e-03
1.796807268434e-03
1.803291452926e-03
1.810926240100e-03
1.819180484823e-03
1.827618231781e-03
1.835901141111e-03
1.843776382352e-03
1.851052597910e-03
1.857596818241e-03
1.863346281289e-03
1.868330896187e-03
1.872656922076e-03
1.876488107153e-03
1.881087398065e-03
1.886462421726e-03
2.252202447131e-03
2.251263272483e-03
2.249429433992e-03
2.247280272980e-03
2.244963485589e-03
2.242508207414e-03
2.239877561791e-03
2.237068041088e-03
2.234156284569e-03
2.231265783094e-03
2.228570509357e-03
2.226292549921e-03
2.224800103797e-03
2.224562759537e-03
2.226165984158e-03
2.230209282159e-03
2.237867323699e-03
2.250161711372e-03
2.269919944468e-03
2.299524247601e-03
2.346388756131e-03
2.444676848421e-03
2.489615240716e-03
2.754497255149e-03
2.760791138869e-03
2.708723256294e-03
2.685499647972e-03
2.669288212765e-03
2.656378627489e-03
2.647217610799e-03
2.640218411617e-03
2.635236455420e-03
2.631760126490e-03
2.629305900988e-03
2.627446580801e-03
2.626093052655e-03
2.625150498400e-03
2.624495091824e-03
2.624014941776e-03
2.623674453414e-03
2.623527093619e-03
2.623536866659e-03
2.623555910258e-03
2.623189155530e-03
2.622323069164e-03
2.993526696922e-03
2.994762103355e-03
2.996136244056e-03
2.997803217954e-03
2.999838356287e-03
3.002310167144e-03
3.005133525679e-03
3.008156773032e-03
3.011492153497e-03
3.015362889822e-03
3.019711900106e-03
3.024353726795e-03
3.029133733603e-03
3.034868664665e-03
3.041669071772e-03
3.050008689865e-03
3.058199261964e-03
3.067962722037e-03
3.097765872004e-03
3.057930844718e-03
3.387744036105e-03
3.447035739569e-03
3.430705975514e-03
3.426405854238e-03
3.421603749630e-03
3.416180978700e-03
3.411691144007e-03
3.406166647568e-03
3.400303164167e-03
3.394352040765e-03
3.389120741075e-03
3.384422388487e-03
3.379506645282e-03
3.375019122600e-03
3.371120117852e-03
3.367932005252e-03
3.365407691210e-03
3.364026603442e-03
3.363538990710e-03
3.729839477470e-03
3.730104244332e-03
3.732452498323e-03
3.736296440434e-03
3.740329834065e-03
3.745776899387e-03
3.751579041568e-03
3.757564205361e-03
3.762452358351e-03
3.769152350990e-03
3.775478608143e-03
3.780470021318e-03
3.784931302404e-03
3.785607094371e-03
3.787049782340e-03
3.802300371311e-03
3.735936637023e-03
4.085391544768e-03
4.155248167399e-03
4.145103130851e-03
4.142626861495e-03
4.140578002819e-03
4.136561155367e-03
4.130007868723e-03
4.124236973932e-03
4.118087661643e-03
4.111687784909e-03
4.105569962618e-03
4.100089428367e-03
4.096727529089e-03
4.091631978783e-03
4.092079296015e-03
4.095137425297e-03
4.042742295526e-03
2.524758836664e-03
2.473979233089e-03
2.688606610286e-03
2.814034407067e-03
3.022860466499e-03
3.306816316147e-03
3.628806028450e-03
3.972277289829e-03
4.322573562675e-03
3.106312652847e-03
5.368885007676e-03
2.392278272484e-04
3.306789596805e-03
5.518969732276e-03
2.967825037327e-03
3.691740029499e-03
5.654225769653e-03
3.254830469273e-03
6.195123299966e-03
3.884297259330e-03
5.841998457241e-03
3.519139356352e-04
6.680022711425e-03
4.597894297376e-03
2.383410688451e-03
4.478817831270e-03
6.925459779279e-03
7.152956537859e-03
7.319312509805e-03
7.268355510749e-03
7.246544169172e-03
4.781046109857e-03
4.790792016629e-03
4.800137902814e-03
5.953099027488e-03
5.993133100561e-03
3.342812750294e-03
3.768386922672e-04
5.370454798024e-03
4.745925098196e-03
1.091674427591e-03
7.018352049159e-03
5.952171523630e-03
6.456728135566e-03
5.448626474131e-03
5.387529061317e-03
1.710074579746e-03
4.781156862186e-03
5.611956910041e-03
6.556067786968e-03
2.321478036802e-04
3.059650536462e-03
7.369994345801e-03
3.084232171972e-03
2.933864554700e-03
3.552610958830e-03
4.234827132436e-03
3.893149240354e-03
5.339684612980e-03
6.111245336806e-03
4.081294767257e-04
7.119681231968e-03
4.762681387342e-03
4.870678131876e-03
5.042102086443e-03
5.155396894517e-03
5.342869715886e-03
5.433475534838e-03
5.240941953090e-03
5.510948641905e-03
5.308160985993e-03
5.623686670502e-03
5.572649618226e-03
5.358367786478e-03
5.618043542126e-03
5.391745306063e-03
5.138360141356e-03
5.157515445739e-03
4.912355640788e-03
4.915280994977e-03
5.158843152583e-03
4.897447093074e-03
4.664713445464e-03
4.626215080046e-03
4.408174012468e-03
4.346724266302e-03
4.146165970650e-03
4.059535481426e-03
4.265375188734e-03
3.951483854100e-03
3.766800690725e-03
3.628793715313e-03
3.470974336734e-03
3.298745467208e-03
3.478673133967e-03
3.116354539001e-03
2.964471668354e-03
2.747425969920e-03
2.637976692975e-03
2.382130600307e-03
2.336804802676e-03
2.036043626592e-03
2.146140694037e-03
1.766259984929e-03
1.747132452791e-03
1.449113227228e-03
1.577409094188e-03
1.265195360298e-03
1.518034838005e-03
1.257089533730e-03
1.121012962737e-03
1.175589747921e-03
1.421149573860e-03
1.398336511539e-03
1.298336023160e-03
1.527204366250e-03
1.707825761578e-03
1.824274541393e-03
1.744813047599e-03
2.000200750511e-03
2.146922254349e-03
2.281316490268e-03
2.187482441284e-03
2.420014784731e-03
2.570491198596e-03
2.665718578377e-03
2.857194520568e-03
2.534365457239e-03
2.737967899613e-03
2.605962404110e-03
2.773311992946e-03
3.330528802038e-03
2.620954268335e-03
2.510744920046e-03
2.761599964731e-03
2.956924476585e-03
2.574679097443e-03
2.699987951274e-03
2.470790930206e-03
2.631969696258e-03
5.144092554527e-03
2.589391763307e-03
2.313491692256e-03
2.216743580639e-03
1.999878046295e-03
5.524789898496e-03
5.810814040701e-03
5.699245675713e-03
5.993735384029e-03
5.883485927913e-03
2.111049313363e-03
5.837818199192e-03
6.092067026432e-03
4.445443146294e-03
3.618281041676e-03
1.879870376177e-03
2.844611199651e-03
2.727079174655e-03
3.000655223357e-03
2.792594182581e-03
3.101673387437e-03
3.071980452005e-03
3.389567602951e-03
3.394263327999e-03
3.711158770199e-03
3.691809116705e-03
4.012340020068e-03
3.977608562774e-03
3.747427490046e-03
3.423456796757e-03
4.295994952908e-03
4.246138976894e-03
4.561208019043e-03
4.496761393862e-03
4.195990650650e-03
4.429344557248e-03
4.140206600900e-03
1.904728129416e-03
2.271239756145e-03
2.345004160210e-03
2.702179955665e-03
2.806056440800e-03
3.152279205889e-03
3.275674542981e-03
2.973703835861e-03
5.647251078913e-03
1.577088004648e-03
1.945481329898e-03
1.954590993086e-03
2.341490763826e-03
2.517858193585e-03
2.887322277102e-03
3.217428433370e-03
2.834972791177e-03
3.658126443484e-03
3.236132389702e-03
4.091722308999e-03
3.652863763851e-03
4.170741374185e-03
3.086127262343e-03
3.523776637005e-03
3.479309197749e-03
1.912641906618e-03
4.729045477687e-03
3.810061111708e-03
3.486608022918e-03
3.452985564608e-03
1.748622752679e-03
3.519913517151e-03
3.197781350809e-03
6.170936580107e-03
6.057832881761e-03
3.905991603258e-03
1.876712435935e-03
4.353360992998e-03
4.375885202515e-03
4.645547173186e-03
4.941948322973e-03
3.679605151314e-03
3.907045394148e-03
3.872387811560e-03
2.819205128018e-03
3.190794511765e-03
3.854963253185e-03
3.396040502064e-03
2.797842160293e-03
3.003755871650e-03
3.383981260051e-03
3.046239212280e-03
2.714024908203e-03
2.751804252447e-03
2.837388896540e-03
2.602661008770e-03
5.034533101287e-03
4.595150171773e-03
4.888365384176e-03
4.213908754863e-03
3.749169057155e-03
6.344099117814e-03
6.228999307675e-03
5.934262250928e-03
6.106133493359e-03
6.397214708692e-03
6.274150632900e-03
5.975945760140e-03
6.143828148772e-03
5.838475107028e-03
6.007758590405e-03
6.309384955778e-03
6.175016255521e-03
5.867714536368e-03
6.036322731167e-03
5.723141620455e-03
5.891791162153e-03
6.203000308898e-03
1.480061080083e-03
3.192340341168e-03
3.675619870130e-03
2.882888841625e-03
3.159236135893e-03
3.266268459646e-03
3.442065829450e-03
6.059101583138e-03
6.368927243568e-03
3.707812822305e-03
3.406120808251e-03
6.449894247606e-03
4.844584844066e-03
4.555649809165e-03
3.359881118776e-03
3.502669300497e-03
3.291220767082e-03
3.411342868799e-03
3.600410326459e-03
3.258722245715e-03
3.086507451361e-03
6.473012500803e-03
2.152100203655e-03
1.857278294500e-03
5.136639334394e-03
2.718053549659e-03
4.499636077208e-03
4.422131303160e-03
4.760956138340e-03
4.702415929091e-03
5.047150070217e-03
5.008628671309e-03
4.652068898130e-03
4.291183436949e-03
4.984597661666e-03
5.738271333433e-03
3.074093748036e-03
2.521864656350e-03
1.344401182363e-03
2.429868936006e-03
1.615903599457e-03
2.018410186551e-03
4.337783682784e-03
5.356623534828e-03
5.374624864413e-03
3.479823299605e-03
3.650888170413e-03
4.347612559960e-03
5.584394375334e-03
5.667958803000e-03
5.521736907403e-03
1.134136020938e-03
2.680159830106e-03
6.562258224588e-03
3.003583350231e-03
3.204593012561e-03
4.652330916620e-03
4.643782147298e-03
6.221448951735e-03
6.524726298317e-03
3.531933030624e-03
3.719085870029e-03
4.042125060970e-03
2.299291944306e-03
6.665679016199e-03
2.983036190880e-03
2.525305873413e-03
3.324235121421e-03
3.720024897489e-03
4.009454414120e-03
2.370242202826e-03
2.438310275495e-03
1.773000943574e-03
4.495536434071e-03
6.676361908717e-03
4.619040889376e-03
4.281005193363e-03
4.978456556832e-03
1.953217605258e-03
4.638995368940e-03
5.027016948783e-03
5.675861916490e-03
5.683963116897e-03
2.939252412275e-03
3.123817859341e-03
3.298085022248e-03
3.230094539816e-03
5.043819180472e-03
2.981353223150e-03
4.673121331274e-03
4.639490663714e-03
4.436554633599e-03
3.804165800997e-03
3.834487445778e-03
2.321323310850e-03
2.285869751420e-03
3.341352924536e-03
3.909755890064e-03
2.740225271801e-03
6.599720102991e-03
6.762031169877e-03
5.550388499245e-03
5.397100124928e-03
1.533742304647e-03
1.467066335963e-03
3.136788397373e-03
4.513210647552e-03
6.617918078154e-03
6.717508361646e-03
6.545069068385e-03
4.210508712100e-03
1.590245887410e-03
2.037012879980e-03
4.586512401377e-03
3.706724131239e-03
1.073347206153e-03
5.411590802675e-03
5.313966919602e-03
5.427277148998e-03
4.717247517925e-03
4.692807962376e-03
3.596116608179e-03
3.201414543623e-03
4.389050461933e-03
4.199591705038e-03
4.233664255567e-03
4.009512438212e-03
2.323476372777e-03
2.438986775253e-03
5.714271682115e-03
5.336477827115e-03
5.979674571460e-03
5.981594390586e-03
4.795445023909e-03
4.435301447835e-03
2.161820399030e-03
3.650369211169e-03
6.837795050418e-03
4.580481616614e-03
4.917864314481e-03
4.803197831238e-03
4.543166554781e-03
4.434319879147e-03
6.823661544686e-03
3.290070545711e-03
3.239116065747e-03
3.392508755114e-03
5.919643110763e-03
4.729470193716e-03
5.596653332449e-03
4.017691569596e-03
6.959587699821e-03
3.513750613473e-03
3.114229867596e-03
3.746621780480e-03
6.667439148304e-03
6.988337465064e-03
5.346791916885e-03
5.187138916869e-03
5.485470045509e-03
4.461679527011e-03
4.600133209343e-03
6.634275294008e-03
2.575435915491e-03
2.757595498706e-03
2.196845856217e-03
2.346962706072e-03
3.597644351414e-03
3.386702665674e-03
5.405601390839e-03
5.678662931769e-03
4.816087959772e-03
2.831568664693e-03
2.407227613458e-03
2.088315662161e-03
6.874476362864e-03
7.063481540143e-03
2.116543705343e-03
2.117204565641e-03
2.363137118229e-03
6.946634792325e-03
5.711792016233e-03
5.536682704649e-03
9.574164672134e-04
1.410924649104e-03
3.804359615401e-03
4.094879802856e-03
6.798646155970e-03
6.633400807156e-03
6.989754624090e-03
1.896817844889e-03
4.249098020087e-03
4.668400617509e-03
4.408995527244e-03
5.005040312315e-03
4.659953458185e-03
5.069813664139e-03
5.364882429655e-03
4.441970110457e-03
6.887253270413e-03
5.205622698296e-03
4.055057680521e-03
5.048724824990e-03
5.239628693015e-03
4.871733363888e-03
1.480992686824e-03
5.113091182495e-03
5.307289391967e-03
7.045569729411e-04
7.098639501620e-03
5.702151955336e-04
7.098509230781e-04
5.188130220951e-03
5.070736404461e-03
5.430007666359e-03
5.306527686296e-03
4.970343345425e-03
5.220249044889e-03
5.020742929288e-03
5.581226696897e-03
5.453644987815e-03
5.807901721793e-03
3.959992308376e-03
3.256111529735e-03
3.269715132584e-03
3.135047451372e-03
6.319757145754e-03
6.238885621595e-03
5.199450107440e-03
4.914117589892e-03
5.062922910224e-03
5.040512699952e-03
5.345615521562e-03
5.302621345037e-03
5.602866706661e-03
5.553561284002e-03
5.853573125570e-03
5.746038691415e-03
3.222966815543e-03
4.319219058502e-03
4.901747303229e-03
4.533545769404e-03
3.822201395041e-03
3.609076957859e-03
5.127499208910e-03
2.739314309662e-03
7.232924676342e-03
3.677407473984e-03
4.387218252316e-03
2.895377150139e-03
4.030973759739e-03
3.339059428459e-03
3.361676242914e-03
3.280200892782e-03
1.379341231519e-03
3.563433977267e-03
5.891147038618e-03
3.453753716323e-03
5.087314727355e-03
2.432396127906e-03
3.966977824113e-03
3.472017235622e-03
3.157666365761e-03
5.100270342805e-03
4.968800759430e-03
4.776297818284e-03
2.089816964580e-03
3.498197866037e-03
3.294218231250e-03
4.680899792747e-03
6.366299207261e-03
6.447918580460e-03
6.698456600632e-03
6.518197705534e-03
6.255950106125e-03
6.319584317994e-03
6.580086166020e-03
6.379571284663e-03
6.688328918540e-03
6.419632068209e-03
6.148295890879e-03
6.178737351587e-03
6.429765964340e-03
5.910205043464e-03
5.262688451742e-03
2.887471122747e-03
4.582240789786e-03
4.576169740187e-03
4.206706086162e-03
6.984893945792e-03
7.109185795895e-03
2.706058063906e-03
6.570239300717e-03
4.842342083219e-03
3.954165887814e-03
6.330349604479e-03
6.179799116280e-03
5.983340506705e-03
5.903153494573e-03
7.194926374464e-03
5.627648582060e-03
5.826924364961e-03
2.668809917860e-03
2.702157717457e-03
2.382607520110e-03
6.105023275298e-03
5.407406099926e-03
4.947483081241e-03
4.924367895730e-03
4.478356887612e-03
5.359640254955e-03
6.869553719539e-03
6.792870373425e-03
2.523329921701e-03
2.233243082699e-03
1.801483267027e-03
1.886984770677e-03
2.474458997804e-03
2.108484005342e-03
1.551317824438e-03
2.442574605786e-03
5.958349572379e-03
5.424087500457e-03
3.062625234460e-03
2.717731490294e-03
2.396674229227e-03
3.148555192007e-03
3.170531524810e-03
3.406462720717e-03
3.092694695629e-03
4.345222681312e-03
5.467150878751e-03
2.253022677878e-03
2.952300748327e-03
4.787030517941e-03
5.065063750069e-03
5.060631785999e-03
5.358577373525e-03
5.103448941100e-03
3.801175760191e-03
3.993573465051e-03
3.895522626229e-03
4.172944302488e-03
4.052724135509e-03
3.790412484863e-03
4.335610176404e-03
4.180845270258e-03
4.785064145973e-03
2.773906438363e-03
3.162899364988e-03
2.245739078329e-03
3.149168959044e-03
3.805089970228e-03
3.508800800059e-03
4.107036886228e-03
3.980241237753e-03
8.592859799445e-04
1.547034277411e-03
4.176239076262e-04
1.070394570900e-03
1.979266825362e-03
1.855761004556e-03
6.004294033104e-03
3.371085177532e-03
3.214383227212e-03
2.908281266231e-03
3.058805010159e-03
3.485464212575e-03
2.732977094722e-03
2.604500201580e-03
3.841503827640e-04
3.236198543244e-04
3.060656703427e-04
6.647160606015e-04
6.581577000321e-04
3.263924797713e-04
3.305090355018e-04
3.687534636856e-04
3.426928691389e-04
7.276657947330e-04
3.652458169496e-04
6.263689979370e-03
6.429661957573e-03
5.575638215618e-03
4.813916559099e-03
1.930730548018e-04
7.281441793908e-03
7.303585138319e-03
7.316272197163e-03
5.653281585857e-03
5.771874585357e-03
7.295973260747e-03
2.380302668437e-03
6.766874206290e-03
6.794003306164e-03
4.078657735926e-03
2.448855719393e-03
4.741055494980e-03
3.946171060162e-03
5.240297528086e-03
4.355645187239e-03
4.807772869383e-03
4.906001192666e-03
1.348213536422e-03
5.694877216708e-03
5.572729302705e-03
6.340372079018e-03
2.435101075140e-03
3.625198179434e-03
1.634181240902e-03
6.103793938724e-03
4.455808678530e-03
2.472866395004e-03
2.922045944040e-03
2.480593121221e-03
2.548294965101e-03
3.175765884293e-03
2.915348090150e-03
4.057830449768e-03
6.504224875686e-03
2.515098693017e-04
4.122344955037e-03
3.397647815131e-03
5.804955160994e-03
3.613197750309e-03
3.153450747077e-03
6.438667608575e-03
6.871138522853e-03
5.448452511067e-03
1.193096137054e-03
5.369101177330e-03
4.782417537975e-03
6.274026708512e-03
2.241716412942e-03
1.604658576971e-03
3.882261673177e-03
4.412489252764e-03
6.911497181442e-03
2.941224530960e-03
3.941273889344e-03
2.499763511697e-03
2.386774572354e-03
4.709805341493e-03
1.967518181885e-03
6.723437776286e-03
5.084946204176e-03
1.274293372260e-03
6.511356635604e-03
2.048608913053e-03
3.975752602638e-03
4.236705030981e-03
4.569646941216e-03
5.407860274355e-03
3.830493785957e-03
4.627253807420e-03
4.423831248532e-03
4.333286237589e-03
3.111683523677e-03
5.759514020975e-03
5.330174391691e-03
6.995291697842e-03
3.731491776639e-03
4.629388645014e-03
6.778358246994e-03
3.163572066032e-03
1.592804230958e-03
4.362779588996e-03
2.132840318777e-03
2.544569586973e-03
3.406871284056e-03
6.906704745955e-03
4.886003312085e-03
3.593038435832e-03
3.340010396745e-03
4.504411593682e-03
5.125075068869e-03
1.809480352949e-03
4.077955085563e-03
3.909832308798e-03
5.949215083271e-03
3.781722293788e-03
5.350482986867e-03
3.456905544157e-03
2.665787891945e-03
4.742485268833e-03
5.702725842373e-03
3.938999353871e-03
4.070648724714e-03
1.694904367516e-03
4.056938407325e-03
3.665392692870e-03
4.862512305595e-03
7.226661844686e-03
4.157937277732e-03
5.707784768362e-03
3.639962228122e-03
3.473831387455e-03
6.737910574749e-04
4.139973985604e-03
3.863384835454e-03
1.787934693614e-03
2.021815897362e-03
5.152782688918e-03
4.074662642536e-03
1.315572734795e-03
4.271876678520e-03
3.714505013735e-03
5.781055322026e-03
4.455820263986e-03
5.117506660778e-03
8.217177547537e-04
3.975759504787e-03
5.485481861731e-03
2.464298601729e-03
2.367392391672e-03
6.051781203522e-03
3.398615559164e-03
2.743843423426e-03
5.392233719475e-03
3.903816162691e-03
2.796884225220e-03
3.156672668323e-03
3.458911023215e-03
2.331844746923e-03
2.139191680294e-03
1.209429180921e-03
5.686472088689e-03
1.053231416147e-03
5.880817952886e-03
1.882121884696e-03
1.472556803192e-03
4.258531289833e-03
5.655532592205e-03
1.552116990913e-03
2.004065263300e-03
1.845423998001e-03
3.111882819446e-03
1.986957423165e-03
2.203913503385e-03
7.071587820421e-03
2.351182514334e-03
7.343671585021e-03
6.069145780044e-03
5.000596760103e-03
3.113072559156e-03
3.233435766004e-03
3.240111677211e-03
2.443944142830e-03
5.665272172129e-03
5.014916607829e-03
2.435434364023e-03
6.666746980674e-03
6.079140267388e-03
6.114823344335e-03
4.219237932165e-03
3.870439793616e-03
6.827230551867e-03
4.731633278615e-03
7.928444080395e-04
4.799252082452e-03
2.949861789454e-03
3.175465494259e-03
3.293386359485e-03
2.508398108453e-03
2.478678145227e-03
2.956113474266e-03
4.966591450358e-03
5.051385006215e-03
4.620682283452e-03
2.961997467921e-03
7.029138246076e-03
5.482317463102e-03
5.771038572996e-03
5.016974392233e-03
3.755695427045e-03
5.311876658748e-03
6.236624814106e-03
6.357693950158e-03
5.905881809668e-03
5.013315018508e-03
7.113272551430e-03
4.313737673578e-03
7.119345403138e-03
5.935429497321e-03
5.428882306876e-03
5.266309959718e-03
5.871903386329e-03
6.813821762045e-03
4.151571216335e-03
6.098339095792e-03
3.042894679228e-03
4.271474371057e-03
5.284773783031e-03
6.198202221709e-03
5.791359567699e-03
6.406024023895e-04
4.151003741449e-04
5.179674455877e-03
6.521658071860e-03
3.802757703892e-03
7.325590092469e-03
4.291759886113e-03
4.704924539339e-03
3.354826691578e-04
5.976449505785e-03
7.104543782656e-03
3.339281907856e-03
4.777899496865e-03
2.269783762887e-03
5.611568120109e-03
1.478891665724e-03
7.144071142979e-03
5.075499156442e-03
7.012458040526e-03
5.691014513056e-03
4.189065174152e-03
5.730440884643e-03
4.573373519391e-03
4.722739710012e-03
6.901235304506e-03
2.779967939594e-03
1.111466365839e-03
7.372712326523e-03
4.842342007885e-04
4.693494327259e-03
6.136559160949e-03
9.707781599647e-04
5.246846898740e-03
6.626901804471e-03
3.997286929370e-03
6.657902561067e-03
3.018296973469e-03
3.208599487906e-03
5.824566747453e-03
5.431590278703e-03
7.081766479257e-03
5.606227022945e-03
4.391809540791e-03
6.414081212490e-03
3.552341832617e-03
5.956280362249e-03
4.620554290738e-03
4.001228458675e-03
4.246458171965e-03
3.169518422392e-04
5.583639724603e-03
3.698607893432e-03
1.861096882720e-03
1.360941448310e-03
2.194954519238e-03
1.724383869262e-03
2.519277438385e-03
2.056903881788e-03
2.706040215078e-03
2.447415382507e-03
2.950752443335e-03
2.796895275464e-03
3.253268490549e-03
3.189321018938e-03
3.583969401185e-03
3.536126069208e-03
3.931702863459e-03
3.920499017042e-03
4.280338582994e-03
4.259660603680e-03


CELL_DATA 2360

SCALARS element_number int
LOOKUP_TABLE default
407
408
409
410
411
412
413
414
415
416
417
418
419
420
421
422
423
424
425
426
427
428
429
430
431
432
433
434
435
436
437
438
439
440
441
442
443
444
445
446
447
448
449
450
451
452
453
454
455
456
457
458
459
460
461
462
463
464
465
466
467
468
469
470
471
472
473
474
475
476
477
478
479
480
481
482
483
484
485
486
487
488
489
490
491
492
493
494
495
496
497
498
499
500
501
502
503
504
505
506
507
508
509
510
511
512
513
514
515
516
517
518
519
520
521
522
523
524
525
526
527
528
529
530
531
532
533
534
535
536
537
538
539
540
541
542
543
544
545
546
547
548
549
550
551
552
553
554
555
556
557
558
559
560
561
562
563
564
565
566
567
568
569
570
571
572
573
574
575
576
577
578
579
580
581
582
583
584
585
586
587
588
589
590
591
592
593
594
595
596
597
598
599
600
601
602
603
604
605
606
607
608
609
610
611
612
613
614
615
616
617
618
619
620
621
622
623
624
625
626
627
628
629
630
631
632
633
634
635
636
637
638
639
640
641
642
643
644
645
646
647
648
649
650
651
652
653
654
655
656
657
658
659
660
661
662
663
664
665
666
667
668
669
670
671
672
673
674
675
676
677
678
679
680
681
682
683
684
685
686
687
688
689
690
691
692
693
694
695
696
697
698
699
700
701
702
703
704
705
706
707
708
709
710
711
712
713
714
715
716
717
718
719
720
721
722
723
724
725
726
727
728
729
730
731
732
733
734
735
736
737
738
739
740
741
742
743
744
745
746
747
748
749
750
751
752
753
754
755
756
757
758
759
760
761
762
763
764
765
766
767
768
769
770
771
772
773
774
775
776
777
778
779
780
781
782
783
784
785
786
787
788
789
790
791
792
793
794
795
796
797
798
799
800
801
802
803
804
805
806
807
808
809
810
811
812
813
814
815
816
817
818
819
820
821
822
823
824
825
826
827
828
829
830
831
832
833
834
835
836
837
838
839
840
841
842
843
844
845
846
847
848
849
850
851
852
853
854
855
856
857
858
859
860
861
862
863
864
865
866
867
868
869
870
871
872
873
874
875
876
877
878
879
880
881
882
883
884
885
886
887
888
889
890
891
892
893
894
895
896
897
898
899
900
901
902
903
904
905
906
907
908
909
910
911
912
913
914
915
916
917
918
919
920
921
922
923
924
925
926
927
928
929
930
931
932
933
934
935
936
937
938
939
940
941
942
943
944
945
946
947
948
949
950
951
952
953
954
955
956
957
958
959
960
961
962
963
964
965
966
967
968
969
970
971
972
973
974
975
976
977
978
979
980
981
982
983
984
985
986
987
988
989
990
991
992
993
994
995
996
997
998
999
1000
1001
1002
1003
1004
1005
1006
1007
1008
1009
1010
1011
1012
1013
1014
1015
1016
1017
1018
1019
1020
1021
1022
1023
1024
1025
1026
1027
1028
1029
1030
1031
1032
1033
1034
1035
1036
1037
1038
1039
1040
1041
1042
1043
1044
1045
1046
1047
1048
1049
1050
1051
1052
1053
1054
1055
1056
1057
1058
1059
1060
1061
1062
1063
1064
1065
1066
1067
1068
1069
1070
1071
1072
1073
1074
1075
1076
1077
1078
1079
1080
1081
1082
1083
1084
1085
1086
1087
1088
1089
1090
1091
1092
1093
1094
1095
1096
1097
1098
1099
1100
1101
1102
1103
1104
1105
1106
1107
1108
1109
1110
1111
1112
1113
1114
1115
1116
1117
1118
1119
1120
1121
1122
1123
1124
1125
1126
1127
1128
1129
1130
1131
1132
1133
1134
1135
1136
1137
1138
1139
1140
1141
1142
1143
1144
1145
1146
1147
1148
1149
1150
1151
1152
1153
1154
1155
1156
1157
1158
1159
1160
1161
1162
1163
1164
1165
1166
1167
1168
1169
1170
1171
1172
1173
1174
1175
1176
1177
1178
1179
1180
1181
1182
1183
1184
1185
1186
1187
1188
1189
1190
1191
1192
1193
1194
1195
1196
1197
1198
1199
1200
1201
1202
1203
1204
1205
1206
1207
1208
1209
1210
1211
1212
1213
1214
1215
1216
1217
1218
1219
1220
1221
1222
1223
1224
1225
1226
1227
1228
1229
1230
1231
1232
1233
1234
1235
1236
1237
1238
1239
1240
1241
1242
1243
1244
1245
1246
1247
1248
1249
1250
1251
1252
1253
1254
1255
1256
1257
1258
1259
1260
1261
1262
1263
1264
1265
1266
1267
1268
1269
1270
1271
1272
1273
1274
1275
1276
1277
1278
1279
1280
1281
1282
1283
1284
1285
1286
1287
1288
1289
1290
1291
1292
1293
1294
1295
1296
1297
1298
1299
1300
1301
1302
1303
1304
1305
1306
1307
1308
1309
1310
1311
1312
1313
1314
1315
1316
1317
1318
1319
1320
1321
1322
1323
1324
1325
1326
1327
1328
1329
1330
1331
1332
1333
1334
1335
1336
1337
1338
1339
1340
1341
1342
1343
1344
1345
1346
1347
1348
1349
1350
1351
1352
1353
1354
1355
1356
1357
1358
1359
1360
1361
1362
1363
1364
1365
1366
1367
1368
1369
1370
1371
1372
1373
1374
1375
1376
1377
1378
1379
1380
1381
1382
1383
1384
1385
1386
1387
1388
1389
1390
1391
1392
1393
1394
1395
1396
1397
1398
1399
1400
1401
1402
1403
1404
1405
1406
1407
1408
1409
1410
1411
1412
1413
1414
1415
1416
1417
1418
1419
1420
1421
1422
1423
1424
1425
1426
1427
1428
1429
1430
1431
1432
1433
1434
1435
1436
1437
1438
1439
1440
1441
1442
1443
1444
1445
1446
1447
1448
1449
1450
1451
1452
1453
1454
1455
1456
1457
1458
1459
1460
1461
1462
1463
1464
1465
1466
1467
1468
1469
1470
1471
1472
1473
1474
1475
1476
1477
1478
1479
1480
1481
1482
1483
1484
1485
1486
1487
1488
1489
1490
1491
1492
1493
1494
1495
1496
1497
1498
1499
1500
1501
1502
1503
1504
1505
1506
1507
1508
1509
1510
1511
1512
1513
1514
1515
1516
1517
1518
1519
1520
1521
1522
1523
1524
1525
1526
1527
1528
1529
1530
1531
1532
1533
1534
1535
1536
1537
1538
1539
1540
1541
1542
1543
1544
1545
1546
1547
1548
1549
1550
1551
1552
1553
1554
1555
1556
1557
1558
1559
1560
1561
1562
1563
1564
1565
1566
1567
1568
1569
1570
1571
1572
1573
1574
1575
1576
1577
1578
1579
1580
1581
1582
1583
1584
1585
1586
1587
1588
1589
1590
1591
1592
1593
1594
1595
1596
1597
1598
1599
1600
1601
1602
1603
1604
1605
1606
1607
1608
1609
1610
1611
1612
1613
1614
1615
1616
1617
1618
1619
1620
1621
1622
1623
1624
1625
1626
1627
1628
1629
1630
1631
1632
1633
1634
1635
1636
1637
1638
1639
1640
1641
1642
1643
1644
1645
1646
1647
1648
1649
1650
1651
1652
1653
1654
1655
1656
1657
1658
1659
1660
1661
1662
1663
1664
1665
1666
1667
1668
1669
1670
1671
1672
1673
1674
1675
1676
1677
1678
1679
1680
1681
1682
1683
1684
1685
1686
1687
1688
1689
1690
1691
1692
1693
1694
1695
1696
1697
1698
1699
1700
1701
1702
1703
1704
1705
1706
1707
1708
1709
1710
1711
1712
1713
1714
1715
1716
1717
1718
1719
1720
1721
1722
1723
1724
1725
1726
1727
1728
1729
1730
1731
1732
1733
1734
1735
1736
1737
1738
1739
1740
1741
1742
1743
1744
1745
1746
1747
1748
1749
1750
1751
1752
1753
1754
1755
1756
1757
1758
1759
1760
1761
1762
1763
1764
1765
1766
1767
1768
1769
1770
1771
1772
1773
1774
1775
1776
1777
1778
1779
1780
1781
1782
1783
1784
1785
1786
1787
1788
1789
1790
1791
1792
1793
1794
1795
1796
1797
1798
1799
1800
1801
1802
1803
1804
1805
1806
1807
1808
1809
1810
1811
1812
1813
1814
1815
1816
1817
1818
1819
1820
1821
1822
1823
1824
1825
1826
1827
1828
1829
1830
1831
1832
1833
1834
1835
1836
1837
1838
1839
1840
1841
1842
1843
1844
1845
1846
1847
1848
1849
1850
1851
1852
1853
1854
1855
1856
1857
1858
1859
1860
1861
1862
1863
1864
1865
1866
1867
1868
1869
1870
1871
1872
1873
1874
1875
1876
1877
1878
1879
1880
1881
1882
1883
1884
1885
1886
1887
1888
1889
1890
1891
1892
1893
1894
1895
1896
1897
1898
1899
1900
1901
1902
1903
1904
1905
1906
1907
1908
1909
1910
1911
1912
1913
1914
1915
1916
1917
1918
1919
1920
1921
1922
1923
1924
1925
1926
1927
1928
1929
1930
1931
1932
1933
1934
1935
1936
1937
1938
1939
1940
1941
1942
1943
1944
1945
1946
1947
1948
1949
1950
1951
1952
1953
1954
1955
1956
1957
1958
1959
1960
1961
1962
1963
1964
1965
1966
1967
1968
1969
1970
1971
1972
1973
1974
1975
1976
1977
1978
1979
1980
1981
1982
1983
1984
1985
1986
1987
1988
1989
1990
1991
1992
1993
1994
1995
1996
1997
1998
1999
2000
2001
2002
2003
2004
2005
2006
2007
2008
2009
2010
2011
2012
2013
2014
2015
2016
2017
2018
2019
2020
2021
2022
2023
2024
2025
2026
2027
2028
2029
2030
2031
2032
2033
2034
2035
2036
2037
2038
2039
2040
2041
2042
2043
2044
2045
2046
2047
2048
2049
2050
2051
2052
2053
2054
2055
2056
2057
2058
2059
2060
2061
2062
2063
2064
2065
2066
2067
2068
2069
2070
2071
2072
2073
2074
2075
2076
2077
2078
2079
2080
2081
2082
2083
2084
2085
2086
2087
2088
2089
2090
2091
2092
2093
2094
2095
2096
2097
2098
2099
2100
2101
2102
2103
2104
2105
2106
2107
2108
2109
2110
2111
2112
2113
2114
2115
2116
2117
2118
2119
2120
2121
2122
2123
2124
2125
2126
2127
2128
2129
2130
2131
2132
2133
2134
2135
2136
2137
2138
2139
2140
2141
2142
2143
2144
2145
2146
2147
2148
2149
2150
2151
2152
2153
2154
2155
2156
2157
2158
2159
2160
2161
2162
2163
2164
2165
2166
2167
2168
2169
2170
2171
2172
2173
2174
2175
2176
2177
2178
2179
2180
2181
2182
2183
2184
2185
2186
2187
2188
2189
2190
2191
2192
2193
2194
2195
2196
2197
2198
2199
2200
2201
2202
2203
2204
2205
2206
2207
2208
2209
2210
2211
2212
2213
2214
2215
2216
2217
2218
2219
2220
2221
2222
2223
2224
2225
2226
2227
2228
2229
2230
2231
2232
2233
2234
2235
2236
2237
2238
2239
2240
2241
2242
2243
2244
2245
2246
2247
2248
2249
2250
2251
2252
2253
2254
2255
2256
2257
2258
2259
2260
2261
2262
2263
2264
2265
2266
2267
2268
2269
2270
2271
2272
2273
2274
2275
2276
2277
2278
2279
2280
2281
2282
2283
2284
2285
2286
2287
2288
2289
2290
2291
2292
2293
2294
2295
2296
2297
2298
2299
2300
2301
2302
2303
2304
2305
2306
2307
2308
2309
2310
2311
2312
2313
2314
2315
2316
2317
2318
2319
2320
2321
2322
2323
2324
2325
2390
2391
2392
2393
2394
2395
2396
2397
2398
2399
2400
2401
2402
2403
2404
2405
2406
2407
2408
2409
2410
2411
2412
2413
2414
2415
2416
2417
2418
2419
2420
2421
2422
2423
2424
2425
2426
2427
2428
2429
2430
2431
2432
2433
2434
2435
2436
2437
2438
2439
2440
2441
2442
2443
2444
2445
2446
2447
2448
2449
2450
2451
2452
2453
2454
2455
2456
2457
2458
2459
2460
2461
2462
2463
2464
2465
2466
2467
2468
2469
2470
2471
2472
2473
2474
2475
2476
2477
2478
2479
2480
2481
2482
2483
2484
2485
2486
2487
2488
2489
2490
2491
2492
2493
2494
2495
2496
2497
2498
2499
2500
2501
2502
2503
2504
2505
2506
2507
2508
2509
2510
2511
2512
2513
2514
2515
2516
2517
2518
2519
2520
2521
2522
2523
2524
2525
2526
2527
2528
2529
2530
2531
2532
2533
2534
2535
2536
2537
2538
2539
2540
2541
2542
2543
2544
2545
2546
2547
2548
2549
2550
2551
2552
2553
2554
2555
2556
2557
2558
2559
2560
2561
2562
2563
2564
2565
2566
2567
2568
2569
2570
2571
2572
2573
2574
2575
2576
2577
2578
2579
2580
2581
2582
2583
2584
2585
2586
2587
2588
2589
2590
2591
2592
2593
2594
2595
2596
2597
2598
2599
2600
2601
2602
2603
2604
2605
2606
2607
2608
2609
2610
2611
2612
2613
2614
2615
2616
2617
2618
2619
2620
2621
2622
2623
2624
2625
2626
2627
2628
2629
2630
2631
2632
2633
2634
2635
2636
2637
2638
2639
2640
2641
2642
2643
2644
2645
2646
2647
2648
2649
2650
2651
2652
2653
2654
2655
2656
2657
2658
2659
2660
2661
2662
2663
2664
2665
2666
2667
2668
2669
2670
2671
2672
2673
2674
2675
2676
2677
2678
2679
2680
2681
2682
2683
2684
2685
2686
2687
2688
2689
2690
2691
2692
2693
2694
2695
2696
2697
2698
2699
2700
2701
2702
2703
2704
2705
2706
2707
2708
2709
2710
2711
2712
2713
2714
2715
2716
2717
2718
2719
2720
2721
2722
2723
2724
2725
2726
2727
2728
2729
2730
2731
2732
2733
2734
2735
2736
2737
2738
2739
2740
2741
2742
2743
2744
2745
2746
2747
2748
2749
2750
2751
2752
2753
2754
2755
2756
2757
2758
2759
2760
2761
2762
2763
2764
2765
2766
2767
2768
2769
2770
2771
2772
2773
2774
2775
2776
2777
2778
2779
2780
2781
2782
2783
2784
2785
2786
2787
2788
2789
2790
2791
2792
2793
2794
2795
2796
2797
2798
2799
2800
2801
2802
2803
2804
2805
2806
2807
2808
2809
2810
2811
2812
2813
2814
2815
2816
2817
2818
2819
2820
2821
2822
2823
2824
2825
2826
2827
2828
2829
2830

SCALARS element_group int
LOOKUP_TABLE default
0
0
0
0
0
0
0
0
0
0
0
0
0
0
0
0
0
0
0
0
0
0
0
0
0
0
0
0
0
0
0
0
0
0
0
0
0
0
0
0
0
0
0
0
0
0
0
0
0
0
0
0
0
0
0
0
0
0
0
0
0
0
0
0
0
0
0
0
0
0
0
0
0
0
0
0
0
0
0
0
0
0
0
0
0
0
0
0
0
0
0
0
0
0
0
0
0
0
0
0
0
0
0
0
0
0
0
0
0
0
0
0
0
0
0
0
0
0
0
0
0
0
0
0
0
0
0
0
0
0
0
0
0
0
0
0
0
0
0
0
0
0
0
0
0
0
0
0
0
0
0
0
0
0
0
0
0
0
0
0
0
0
0
0
0
0
0
0
0
0
0
0
0
0
0
0
0
0
0
0
0
0
0
0
0
0
0
0
0
0
0
0
0
0
0
0
0
0
0
0
0
0
0
0
0
0
0
0
0
0
0
0
0
0
0
0
0
0
0
0
0
0
0
0
0
0
0
0
0
0
0
0
0
0
0
0
0
0
0
0
0
0
0
0
0
0
0
0
0
0
0
0
0
0
0
0
0
0
0
0
0
0
0
0
0
0
0
0
0
0
0
0
0
0
0
0
0
0
0
0
0
0
0
0
0
0
0
0
0
0
0
0
0
0
0
0
0
0
0
0
0
0
0
0
0
0
0
0
0
0
0
0
0
0
0
0
0
0
0
0
0
0
0
0
0
0
0
0
0
0
0
0
0
0
0
0
0
0
0
0
0
0
0
0
0
0
0
0
0
0
0
0
0
0
0
0
0
0
0
0
0
0
0
0
0
0
0
0
0
0
0
0
0
0
0
0
0
0
0
0
0
0
0
0
0
0
0
0
0
0
0
0
0
0
0
0
0
0
0
0
0
0
0
0
0
0
0
0
0
0
0
0
0
0
0
0
0
0
0
0
0
0
0
0
0
0
0
0
0
0
0
0
0
0
0
0
0
0
0
0
0
0
0
0
0
0
0
0
0
0
0
0
0
0
0
0
0
0
0
0
0
0
0
0
0
0
0
0
0
0
0
0
0
0
0
0
0
0
0
0
0
0
0
0
0
0
0
0
0
0
0
0
0
0
0
0
0
0
0
0
0
0
0
0
0
0
0
0
0
0
0
0
0
0
0
0
0
0
0
0
0
0
0
0
0
0
0
0
0
0
0
0
0
0
0
0
0
0
0
0
0
0
0
0
0
0
0
0
0
0
0
0
0
0
0
0
0
0
0
0
0
0
0
0
0
0
0
0
0
0
0
0
0
0
0
0
0
0
0
0
0
0
0
0
0
0
0
0
0
0
0
0
0
0
0
0
0
0
0
0
0
0
0
0
0
0
0
0
0
0
0
0
0
0
0
0
0
0
0
0
0
0
0
0
0
0
0
0
0
0
0
0
0
0
0
0
0
0
0
0
0
0
0
0
0
0
0
0
0
0
0
0
0
0
0
0
0
0
0
0
0
0
0
0
0
0
0
0
0
0
0
0
0
0
0
0
0
0
0
0
0
0
0
0
0
0
0
0
0
0
0
0
0
0
0
0
0
0
0
0
0
0
0
0
0
0
0
0
0
0
0
0
0
0
0
0
0
0
0
0
0
0
0
0
0
0
0
0
0
0
0
0
0
0
0
0
0
0
0
0
0
0
0
0
0
0
0
0
0
0
0
0
0
0
0
0
0
0
0
0
0
0
0
0
0
0
0
0
0
0
0
0
0
0
0
0
0
0
0
0
0
0
0
0
0
0
0
0
0
0
0
0
0
0
0
0
0
0
0
0
0
0
0
0
0
0
0
0
0
0
0
0
0
0
0
0
0
0
0
0
0
0
0
0
0
0
0
0
0
0
0
0
0
0
0
0
0
0
0
0
0
0
0
0
0
0
0
0
0
0
0
0
0
0
0
0
0
0
0
0
0
0
0
0
0
0
0
0
0
0
0
0
0
0
0
0
0
0
0
0
0
0
0
0
0
0
0
0
0
0
0
0
0
0
0
0
0
0
0
0
0
0
0
0
0
0
0
0
0
0
0
0
0
0
0
0
0
0
0
0
0
0
0
0
0
0
0
0
0
0
0
0
0
0
0
0
0
0
0
0
0
0
0
0
0
0
0
0
0
0
0
0
0
0
0
0
0
0
0
0
0
0
0
0
0
0
0
0
0
0
0
0
0
0
0
0
0
0
0
0
0
0
0
0
0
0
0
0
0
0
0
0
0
0
0
0
0
0
0
0
0
0
0
0
0
0
0
0
0
0
0
0
0
0
0
0
0
0
0
0
0
0
0
0
0
0
0
0
0
0
0
0
0
0
0
0
0
0
0
0
0
0
0
0
0
0
0
0
0
0
0
0
0
0
0
0
0
0
0
0
0
0
0
0
0
0
0
0
0
0
0
0
0
0
0
0
0
0
0
0
0
0
0
0
0
0
0
0
0
0
0
0
0
0
0
0
0
0
0
0
0
0
0
0
0
0
0
0
0
0
0
0
0
0
0
0
0
0
0
0
0
0
0
0
0
0
0
0
0
0
0
0
0
0
0
0
0
0
0
0
0
0
0
0
0
0
0
0
0
0
0
0
0
0
0
0
0
0
0
0
0
0
0
0
0
0
0
0
0
0
0
0
0
0
0
0
0
0
0
0
0
0
0
0
0
0
0
0
0
0
0
0
0
0
0
0
0
0
0
0
0
0
0
0
0
0
0
0
0
0
0
0
0
0
0
0
0
0
0
0
0
0
0
0
0
0
0
0
0
0
0
0
0
0
0
0
0
0
0
0
0
0
0
0
0
0
0
0
0
0
0
0
0
0
0
0
0
0
0
0
0
0
0
0
0
0
0
0
0
0
0
0
0
0
0
0
0
0
0
0
0
0
0
0
0
0
0
0
0
0
0
0
0
0
0
0
0
0
0
0
0
0
0
0
0
0
0
0
0
0
0
0
0
0
0
0
0
0
0
0
0
0
0
0
0
0
0
0
0
0
0
0
0
0
0
0
0
0
0
0
0
0
0
0
0
0
0
0
0
0
0
0
0
0
0
0
0
0
0
0
0
0
0
0
0
0
0
0
0
0
0
0
0
0
0
0
0
0
0
0
0
0
0
0
0
0
0
0
0
0
0
0
0
0
0
0
0
0
0
0
0
0
0
0
0
0
0
0
0
0
0
0
0
0
0
0
0
0
0
0
0
0
0
0
0
0
0
0
0
0
0
0
0
0
0
0
0
0
0
0
0
0
0
0
0
0
0
0
0
0
0
0
0
0
0
0
0
0
0
0
0
0
0
0
0
0
0
0
0
0
0
0
0
0
0
0
0
0
0
0
0
0
0
0
0
0
0
0
0
0
0
0
0
0
0
0
0
0
0
0
0
0
0
0
0
0
0
0
0
0
0
0
0
0
0
0
0
0
0
0
0
0
0
0
0
0
0
0
0
0
0
0
0
0
0
0
0
0
0
0
0
0
0
0
0
0
0
0
0
0
0
0
0
0
0
0
0
0
0
0
0
0
0
0
0
0
0
0
0
0
0
0
0
0
0
0
0
0
0
0
0
0
0
0
0
0
0
0
0
0
0
0
0
0
0
0
0
0
0
0
0
0
0
0
0
0
0
0
0
0
0
0
0
0
0
0
0
0
0
0
0
0
0
0
0
0
0
0
0
0
0
0
0
0
0
0
0
0
0
0
0
0
0
0
0
0
0
0
0
0
0
0
0
0
0
0
0
0
0
0
0
0
0
0
0
0
0
0
0
0
0
0
0
0
0
0
0
0
0
0
0
0
0
0
0
0
0
0
0
0
0
0
0
0
0
0
0
0
0
0
0
0
0
0
0
0
0
0
0
0
0
0
0
0
0
0
0
0
0
0
0
0
0
0
0
0
0
0
0
0
0
0
0
0
0
0
0
0
0
0
0
0
0
0
0
0
0
0
0
0
0
0
0
0
0
0
0
0
0
0
0
0
0
0
0
0
0
0
0
0
0
0
0
0
0
0
0
0
0
0
0
0
0
0
0
0
0
0
0
0
0
0
0
0
0
0
0
0
0
0
0
0
0
0
0
0
0
0
0
0
0
0
0
0
0
0
0
0
0
0
0
0
0
0
0
0
0
0
0
0
0
0
0
0
0
0
0
0
0
0
0
0
0
0
0
0
0
0
0
0
0
0
0
0
0
0
0
0
0
0
0
0
0
0
0
0
0
0
0
0
0
0
0
0
0
0
0
0
0
0
0
0
0
0
0
0
0
0
0
0
0
0
0
0
0
0
0
0
0
0
0
0
0
0
0
0
0
0
0
0
0
0
0
0
0
0
0
0
0
0
0
0
0
0
0
0
0
0
0
0
0
0
0
0
0
0
0
0
0
0
0
0
0
0
0
0
0
0
0
0
0
0
0
0
0
0
0
0
0
0
0
0
0
0
0
0
0
0
0
0
0
0
0
0
0
0
0
0
0
0
0
0
0
0
0
0
0
0
0
0
0
0
0
0
0
0
0
0
0
0
0
0
0
0
0
0
0
0
0
0
0
0
0
0
0
0
0
0
0
0
0
0
0
0
0
0
0
0
0
0
0
0
0
0
0
0
0
0
0
0
0
0
0
0
0
0
0
0
0
0
0
0
0
0
0
0
0
0
0
0
0
0
0
0
0
0
0
0
0
0
0
0
0
0
0
0
0
0
0
0
0
0
0
0
0
0
0
0
0
0
0
0
0
0
0
0
0
0
0
0
0
0
0
0
0
0
0
0
0
0
0
0
0
0
0
0
0
0
0
0
0
0
0
0
0
0
0
0
0
0
0
0
0
0
0
0
0
0
0
0
0
0
0
0
0
0
0
0
0
0
0
0
0
0
0
0
0
0
0
0
0
0
0
0
0
0
0
0
0
0
0
0
0
0
0
0
0
0
0
0
0
0
0
0
0
0
0
0
0
0
0
0
0
0
0
0
0
0
0
0
0
0
0
0
0
0
0
0
0
0
0
0
0
0
0
0
0
0
0
0
0
0
0
0
0
0
0
0
0
0
0
0
0
0
0
0
0
0
0
0
0
0
0
0
0
0
0
0
0
0
0
0
0
0
0
0
0
0
0
0
0
0
0
0
0
0
0
0
0
0
0
0
0
0
0
0
0
0
0
0
0
0
0
0
0
0
0
0
0
0
0
0
0
0
0
0
0
0
0
0
0
0
0
0
0
0
0
0
0
0
0
0
0
0
0
0
0
0
0
0
0
0
0
0
0
0
0
0
0
0
0
0
0
0
0
0
0
0
0
0
0
0
0
0
0
0
0
0
0
0
0
0
0
0
0
0
0
0
0
0


VECTORS element_materi_velocity float
2.117465080625e-03 1.235924913459e-02 0.0 
2.242980403059e-03 1.199249493156e-02 0.0 
4.900885853594e-04 1.066064759301e-03 0.0 
6.304866640434e-05 1.498429706493e-03 0.0 
6.902212928995e-04 8.338642769350e-03 0.0 
4.105717067565e-04 5.821391527658e-03 0.0 
5.173881285734e-04 8.260350715072e-03 0.0 
2.211453319486e-03 1.206158088675e-02 0.0 
5.735303798378e-04 8.312257380708e-03 0.0 
9.206857258381e-05 1.534186628666e-03 0.0 
2.310500342693e-04 -1.884643343219e-04 0.0 
2.027313576027e-03 1.252464137080e-02 0.0 
1.070272171151e-04 4.729195658088e-05 0.0 
1.030750751341e-03 7.453481012383e-03 0.0 
8.849778723368e-05 4.033111052814e-05 0.0 
5.066314994368e-05 1.059716141095e-03 0.0 
8.996023623321e-04 8.670029539600e-03 0.0 
4.356868432944e-04 5.168602578446e-03 0.0 
1.070701671757e-04 -8.326082787704e-04 0.0 
9.080236511404e-05 -8.253008054261e-04 0.0 
1.092982030454e-04 1.572182470310e-03 0.0 
2.174918620251e-03 1.192070596561e-02 0.0 
2.251062861296e-03 1.152976578311e-02 0.0 
1.159743202636e-03 5.100866761763e-04 0.0 
1.171857738157e-03 6.494570969234e-03 0.0 
2.550665014797e-04 -1.448603779449e-04 0.0 
1.446753168811e-03 9.470650413489e-03 0.0 
8.920673593695e-04 9.164070022792e-04 0.0 
1.244076744082e-03 6.501406080760e-03 0.0 
9.573865899530e-04 4.090386128223e-04 0.0 
6.247974382943e-04 1.862870739369e-03 0.0 
-2.170715985367e-05 -2.532263257923e-04 0.0 
5.622974465977e-04 1.301604990564e-03 0.0 
7.355967924573e-05 -9.324934623451e-07 0.0 
5.355740110806e-04 1.564802229381e-04 0.0 
1.589312163574e-04 4.465745049799e-05 0.0 
1.462545038692e-04 4.159621388656e-05 0.0 
9.339137565931e-04 5.906229330812e-04 0.0 
4.352983338664e-04 9.211416028193e-03 0.0 
3.955237019696e-04 9.223562244889e-03 0.0 
2.165556602359e-03 1.088021164814e-02 0.0 
5.035551230583e-04 1.694293682249e-04 0.0 
1.826229869610e-03 1.235789122095e-02 0.0 
1.501714060900e-03 9.140609514890e-03 0.0 
3.400770082571e-05 2.119824639306e-03 0.0 
1.894430628618e-03 1.186687790659e-02 0.0 
3.283497195657e-04 1.891033458805e-03 0.0 
3.853817027219e-05 1.801324302619e-03 0.0 
-1.692176388032e-04 1.594420810490e-03 0.0 
1.020045734035e-03 7.909971705102e-03 0.0 
2.218710541826e-03 1.122503172106e-02 0.0 
1.296987705459e-04 -7.944106466652e-04 0.0 
1.321532498458e-03 2.053337832783e-03 0.0 
2.129962715739e-03 1.130417573396e-02 0.0 
3.464006493557e-04 1.063252333756e-03 0.0 
2.684898390876e-04 -6.883207336722e-04 0.0 
1.092979906187e-04 -7.806845649322e-04 0.0 
1.489144173235e-04 8.415881010956e-07 0.0 
1.763172700157e-04 -7.822616463526e-04 0.0 
6.064655088661e-05 1.068727150493e-03 0.0 
-5.348262356133e-04 2.539311124536e-03 0.0 
1.404529230065e-03 1.267249616765e-03 0.0 
2.913541694574e-03 9.602516351828e-03 0.0 
1.090026524838e-03 1.920380047062e-03 0.0 
1.733733118934e-04 5.503221661727e-05 0.0 
2.159613036626e-03 1.164842020083e-02 0.0 
-4.190281855268e-04 2.863189020914e-03 0.0 
6.094717238499e-04 1.271685482151e-03 0.0 
5.590306417346e-04 2.401738230513e-04 0.0 
6.311005892712e-04 9.026845115948e-04 0.0 
3.827854856733e-04 -9.071506304317e-05 0.0 
5.811351852858e-05 3.024163564272e-04 0.0 
1.170510212207e-03 1.247909509981e-03 0.0 
6.422303528778e-06 -8.970208424175e-04 0.0 
2.465676950841e-04 -6.692977899849e-04 0.0 
2.074781927208e-04 1.385214602531e-03 0.0 
4.338142286100e-04 1.290333294945e-03 0.0 
1.300255724776e-03 1.085973851442e-02 0.0 
2.181960440047e-04 -7.547701292079e-04 0.0 
1.256143870730e-03 1.155606568926e-02 0.0 
6.098447305144e-04 4.089251911931e-04 0.0 
8.425451433810e-04 8.401489992918e-03 0.0 
2.258404556766e-03 1.178960053259e-02 0.0 
2.141955571030e-03 1.223488334812e-02 0.0 
6.435834145065e-04 7.768768411248e-03 0.0 
5.888497349476e-04 7.736027946122e-03 0.0 
2.252051568623e-04 -7.594157473247e-05 0.0 
3.956953339572e-05 -2.344388776129e-05 0.0 
1.493337557043e-03 3.627300873937e-03 0.0 
7.426778193232e-04 8.305893789721e-03 0.0 
2.563071237271e-05 -1.595258790187e-04 0.0 
1.428288979960e-03 8.277637388248e-03 0.0 
1.052279879808e-04 4.226073005217e-03 0.0 
1.281093609945e-04 4.567276925384e-03 0.0 
1.156483576941e-04 5.616994842431e-04 0.0 
6.676013560730e-04 4.207644692608e-04 0.0 
9.479240484796e-04 8.438519594627e-03 0.0 
5.827431466763e-04 1.892671688404e-04 0.0 
8.091933261215e-05 6.694376275341e-03 0.0 
2.767558739094e-03 1.020842615009e-02 0.0 
6.750087791614e-04 8.823020033802e-03 0.0 
1.134516136272e-04 4.343938958833e-05 0.0 
2.528704634108e-03 2.437742504502e-03 0.0 
1.421865194349e-03 1.221995243954e-03 0.0 
2.999852706843e-03 8.998912209129e-03 0.0 
1.469519692433e-04 1.575560709070e-03 0.0 
1.239984896311e-04 4.432015503813e-05 0.0 
1.057223394209e-04 3.644406428355e-03 0.0 
-3.786089914567e-04 1.888286574446e-03 0.0 
2.055186550916e-04 5.914947532472e-05 0.0 
1.648036225082e-03 4.087772272368e-03 0.0 
7.679387920945e-06 -8.996033367050e-04 0.0 
3.410042423404e-03 6.912774566430e-03 0.0 
1.805748190458e-03 9.283523788554e-03 0.0 
4.617502305119e-04 -5.254809624520e-04 0.0 
2.689881903848e-03 1.055475405573e-02 0.0 
3.003162326576e-03 9.297715917083e-03 0.0 
3.840859059795e-04 1.140106484056e-04 0.0 
1.032421958987e-04 7.104739175643e-03 0.0 
2.941572004677e-03 9.595418707656e-03 0.0 
4.343754796806e-04 -1.585352349140e-04 0.0 
1.494094396735e-03 8.537178431682e-03 0.0 
8.313215865510e-05 3.342483235522e-03 0.0 
3.023318743380e-03 9.214373104836e-03 0.0 
3.968426840866e-04 8.917687220131e-03 0.0 
2.010128694679e-03 1.013591145594e-02 0.0 
3.982246929772e-04 -5.601867999799e-04 0.0 
2.004073919645e-03 1.057015599903e-02 0.0 
1.568048970596e-04 9.821739239100e-04 0.0 
8.872198093250e-04 8.243586787172e-03 0.0 
3.578124558952e-04 -1.304236916953e-04 0.0 
5.003324002192e-05 1.483114770701e-03 0.0 
2.664332822258e-03 9.119213705106e-03 0.0 
2.090250741502e-03 1.051835551823e-02 0.0 
5.706076870991e-04 1.723526949234e-04 0.0 
7.354292622775e-05 4.457093176143e-05 0.0 
3.170748994487e-04 -6.664294726765e-05 0.0 
2.643941194332e-03 8.722675898295e-03 0.0 
6.879281643841e-04 2.749042994527e-04 0.0 
2.469667907718e-03 9.773835266059e-03 0.0 
1.219287403517e-04 1.096050949756e-03 0.0 
7.221172065969e-04 1.098219005102e-03 0.0 
1.091653661924e-03 7.416704874885e-03 0.0 
2.501625684913e-04 5.532262505977e-03 0.0 
2.570518194145e-03 9.651807215027e-03 0.0 
2.073017230966e-03 1.095121207118e-02 0.0 
2.712693851790e-03 8.200316030316e-03 0.0 
3.216326410951e-03 8.207150382039e-03 0.0 
4.978630899977e-04 8.740032129453e-03 0.0 
3.445729929341e-03 6.559917216133e-03 0.0 
4.377234752836e-05 -3.395737115571e-04 0.0 
1.185130495818e-04 8.001956606663e-03 0.0 
7.888934642021e-05 -8.543996393597e-04 0.0 
1.914169669126e-03 9.722325223047e-03 0.0 
5.638285795613e-04 2.174880613510e-04 0.0 
2.936411243090e-03 9.449765554105e-03 0.0 
1.709735374195e-04 -4.842056660978e-05 0.0 
2.050538356747e-03 1.212330859542e-02 0.0 
2.517629881797e-03 2.561146414414e-03 0.0 
2.788352585295e-04 8.417341904024e-03 0.0 
3.418524345859e-03 6.702845821685e-03 0.0 
1.678318438835e-04 2.124426227956e-05 0.0 
4.798658696196e-04 -4.105385148465e-05 0.0 
1.734877932998e-04 4.804496437323e-05 0.0 
1.987940465090e-03 8.309936056033e-03 0.0 
2.353555101888e-04 6.566825592149e-05 0.0 
1.182863279371e-04 8.497202421574e-03 0.0 
3.142869980360e-03 8.382718811654e-03 0.0 
1.828219609642e-03 9.739170492190e-03 0.0 
1.482814379358e-04 -2.053986253838e-04 0.0 
1.947072610201e-03 1.256081596921e-02 0.0 
3.432599309643e-03 6.292282203368e-03 0.0 
2.169635696429e-04 5.014277786012e-03 0.0 
3.194620178265e-04 8.751499421227e-03 0.0 
3.313622989765e-03 7.640566975981e-03 0.0 
1.923024870551e-03 1.017150647942e-02 0.0 
1.551810082036e-03 2.706408914385e-03 0.0 
4.804318015640e-04 -4.765961866291e-04 0.0 
7.324689135552e-04 7.056658754856e-04 0.0 
7.807659277417e-04 1.080976124351e-03 0.0 
2.528503040408e-03 1.110915604647e-02 0.0 
4.281099133694e-04 -4.653452895523e-04 0.0 
1.652401413995e-03 8.681053951844e-04 0.0 
2.369797773372e-03 1.028859432547e-02 0.0 
2.406034303867e-03 1.146496821004e-02 0.0 
1.855294003143e-03 8.812461226944e-03 0.0 
3.348447604572e-03 7.451705972313e-03 0.0 
8.939121407602e-05 1.157685142131e-03 0.0 
1.409597369445e-03 4.090792636784e-03 0.0 
1.174625428388e-04 3.376728052948e-05 0.0 
1.635859452876e-03 1.145755595060e-02 0.0 
3.363227748225e-03 5.917787476259e-03 0.0 
1.415277335052e-03 3.620849427963e-03 0.0 
-1.301657838887e-03 5.963011371193e-03 0.0 
2.274115370724e-03 1.037891731169e-02 0.0 
1.885635812541e-03 8.625887588698e-04 0.0 
1.347602155979e-04 -7.003281947221e-04 0.0 
5.099798939900e-04 1.384027735980e-03 0.0 
1.296182995410e-03 5.496513843590e-03 0.0 
1.728494303780e-03 3.041655712011e-04 0.0 
1.940711489253e-03 9.426772681408e-04 0.0 
1.412714885571e-03 7.771600695813e-03 0.0 
1.165439653366e-03 6.947208868594e-03 0.0 
9.211456376344e-04 3.747014556156e-04 0.0 
1.138652664175e-03 -1.195203895303e-04 0.0 
2.865867548790e-03 7.537511154853e-03 0.0 
2.119171692973e-03 7.777915027713e-03 0.0 
1.199995501776e-03 5.006723460012e-03 0.0 
1.931996879720e-03 7.851587436564e-03 0.0 
1.944938894486e-03 8.792051039193e-03 0.0 
2.989095745592e-03 2.975447616962e-03 0.0 
1.684408443309e-03 3.139969176000e-03 0.0 
-6.452993203173e-04 5.456417322017e-03 0.0 
2.442878549886e-03 1.136529559211e-02 0.0 
2.677678661304e-03 1.044534474908e-02 0.0 
2.814224182033e-03 8.059082458203e-03 0.0 
1.268396962208e-03 3.613803065435e-03 0.0 
1.399853998275e-03 5.682171549060e-03 0.0 
1.943164565984e-03 8.180887456971e-04 0.0 
3.595553668262e-04 8.627783345306e-03 0.0 
3.374783840048e-03 6.368900019850e-03 0.0 
1.958527188791e-03 7.477942633783e-04 0.0 
6.906723520163e-05 -5.354458310041e-04 0.0 
1.166375217327e-03 4.527827943498e-03 0.0 
1.661961381272e-05 -5.677359163215e-04 0.0 
1.607417248729e-04 -7.307029101583e-04 0.0 
1.596019123673e-03 1.203909462652e-02 0.0 
9.651635037300e-04 -1.611847597218e-04 0.0 
1.054826472998e-03 4.040246185051e-03 0.0 
9.085854582381e-04 -1.237868715069e-04 0.0 
2.323087529668e-03 9.435036992685e-03 0.0 
1.039978820914e-03 1.141491908614e-03 0.0 
5.370111735414e-04 -2.096848556930e-04 0.0 
1.838095575759e-03 9.571484726061e-04 0.0 
2.081769935128e-03 8.270235186993e-03 0.0 
2.056164043580e-04 5.952323917072e-05 0.0 
-1.151637630039e-03 5.456481133411e-03 0.0 
2.754724463483e-03 8.723922233432e-03 0.0 
3.473974763479e-03 5.794867309217e-03 0.0 
2.349986831094e-03 1.071074464901e-02 0.0 
2.009508662975e-03 9.037195714079e-04 0.0 
2.523916246333e-04 6.899614120775e-05 0.0 
1.463027102998e-03 4.562095360144e-03 0.0 
2.995667452624e-03 5.869490850848e-03 0.0 
1.793714737120e-03 8.826759516673e-04 0.0 
1.881697886714e-04 -1.144503767575e-04 0.0 
2.666923666070e-03 7.808537782234e-03 0.0 
1.347506887544e-03 5.034114723313e-03 0.0 
1.162296884294e-03 1.040912305300e-03 0.0 
3.464207264442e-03 5.405362945438e-03 0.0 
2.544395555102e-03 9.383125818019e-03 0.0 
1.886964039007e-03 6.905337969430e-03 0.0 
9.391165081038e-05 5.130673315323e-04 0.0 
2.961479785106e-03 7.373432510093e-03 0.0 
3.388335874414e-03 3.759363418719e-03 0.0 
2.677502327292e-04 7.822423714293e-03 0.0 
4.745526333719e-04 5.230317651219e-04 0.0 
1.842823955754e-03 7.873363897634e-03 0.0 
3.043517518595e-03 6.411956719060e-03 0.0 
2.026888107364e-03 5.382286965863e-03 0.0 
8.506551113265e-04 2.120095468387e-03 0.0 
9.899976975222e-04 4.027413504241e-03 0.0 
2.053677308181e-03 7.330154872899e-03 0.0 
3.160216637725e-03 8.587951330245e-03 0.0 
8.782242261633e-04 3.539317599197e-03 0.0 
1.487224248789e-03 4.092876752779e-03 0.0 
2.509208831436e-03 7.512130442974e-03 0.0 
2.836743985333e-04 7.955877873516e-05 0.0 
3.320771536418e-03 3.422523137303e-03 0.0 
2.342129784381e-03 7.171577376140e-03 0.0 
3.409539358966e-03 6.712576454750e-03 0.0 
3.267317731136e-03 3.340714607403e-03 0.0 
2.494350605113e-03 5.110602669585e-03 0.0 
1.303209528877e-03 8.363766018571e-03 0.0 
3.446311552134e-03 4.605290558215e-03 0.0 
2.398330716039e-03 2.413312831528e-03 0.0 
1.385543528088e-03 4.556760599257e-03 0.0 
-1.365057753032e-03 4.899643833623e-03 0.0 
1.781412766482e-03 7.404724696592e-03 0.0 
3.094146201808e-03 5.408698888583e-03 0.0 
2.763855686875e-03 8.128495140686e-03 0.0 
2.392301325659e-03 4.566379210443e-03 0.0 
1.892922925051e-03 6.423473659312e-03 0.0 
1.704393175321e-04 -1.422866582747e-04 0.0 
2.632942758484e-03 1.027483881379e-02 0.0 
3.171606902906e-03 3.022366155690e-03 0.0 
1.960331964966e-03 7.364126412710e-03 0.0 
1.281199710799e-03 7.748232292973e-03 0.0 
8.723857997850e-04 4.805254514018e-03 0.0 
2.514821166290e-03 2.766738290147e-03 0.0 
2.073554516820e-03 1.958286498474e-03 0.0 
2.514377335535e-03 1.104781220036e-02 0.0 
1.424256583037e-03 5.039956522435e-03 0.0 
2.728606699710e-03 1.008047926427e-02 0.0 
3.397271906708e-03 4.622715886917e-03 0.0 
3.411275718783e-03 5.451665295997e-03 0.0 
1.282916109653e-03 5.024715236292e-03 0.0 
3.436565909483e-03 6.206728333441e-03 0.0 
1.731719759052e-03 9.412865431765e-03 0.0 
1.772965921976e-04 5.235966437141e-04 0.0 
2.343323646892e-04 5.547605367867e-04 0.0 
2.991553623874e-03 6.860291883207e-03 0.0 
2.809275670033e-03 5.790651609524e-03 0.0 
2.532427623060e-03 7.471675883910e-03 0.0 
2.357988699380e-03 6.679681398904e-03 0.0 
2.662763560143e-03 6.282556201307e-03 0.0 
2.190758566406e-03 2.284207990969e-03 0.0 
2.565862848398e-03 7.920484118329e-03 0.0 
1.585313541354e-04 1.332395766384e-03 0.0 
3.269461822488e-03 5.931677556947e-03 0.0 
2.990451020276e-03 3.153226323611e-03 0.0 
2.050091075443e-03 8.737323156781e-03 0.0 
3.268169264360e-04 1.455255354954e-04 0.0 
2.718396560092e-03 6.895430098417e-03 0.0 
2.707451583547e-03 7.299126026288e-03 0.0 
1.576710688750e-03 4.589075372571e-03 0.0 
2.684571527919e-03 1.615036782802e-03 0.0 
3.477407771981e-03 4.967886431791e-03 0.0 
2.162188824406e-03 1.783772161603e-03 0.0 
2.215626564607e-03 7.727149200794e-03 0.0 
2.562806373391e-04 4.332107234460e-04 0.0 
3.286266275049e-03 5.019417392862e-03 0.0 
3.139861906945e-03 2.809182777610e-03 0.0 
2.021383723165e-03 8.003367504529e-03 0.0 
8.375498705280e-04 5.872703786262e-03 0.0 
2.034995882619e-03 8.361901458108e-04 0.0 
2.684199510413e-03 9.822185958458e-03 0.0 
8.404119622325e-04 6.359568030196e-03 0.0 
3.323526478130e-04 4.144349462856e-04 0.0 
1.770571745570e-03 7.140481534239e-04 0.0 
2.546238910564e-04 4.799727295649e-04 0.0 
1.030855198031e-03 6.424616007298e-03 0.0 
1.729663846575e-03 4.078321108083e-03 0.0 
2.255776078280e-03 1.063701549732e-02 0.0 
2.219872555324e-03 8.661225025933e-03 0.0 
2.244471290889e-03 7.234152665651e-03 0.0 
2.165862039052e-03 6.797381310183e-03 0.0 
3.098663850858e-03 7.509961381548e-03 0.0 
3.666331450477e-04 3.766292659768e-04 0.0 
1.316068077635e-03 6.949490186381e-03 0.0 
1.809122649781e-03 8.352122704854e-03 0.0 
3.375436580896e-03 5.031614111052e-03 0.0 
7.641692535621e-04 -1.909653914385e-04 0.0 
2.069727918489e-03 9.210139532699e-03 0.0 
2.877568317670e-03 9.165117013975e-03 0.0 
2.401375014205e-04 8.722864195933e-03 0.0 
2.044012812681e-03 1.505787899634e-03 0.0 
3.228339487199e-03 5.453358658495e-03 0.0 
1.190184042427e-03 4.063513862944e-03 0.0 
2.914072399624e-03 8.645514861646e-03 0.0 
2.270944220357e-03 8.164473014813e-03 0.0 
3.027675048245e-03 2.530291004688e-03 0.0 
2.166185622840e-03 7.086455913465e-04 0.0 
3.685905057141e-04 2.879212645181e-04 0.0 
2.277132566213e-03 9.958060983858e-03 0.0 
2.537709885480e-03 3.426752007091e-03 0.0 
1.729395992952e-03 3.539302569999e-04 0.0 
2.469375850361e-03 1.118161412914e-02 0.0 
2.626699843938e-03 1.030807466627e-02 0.0 
1.256393331912e-03 3.154895151042e-03 0.0 
2.635259387414e-03 6.910331864613e-03 0.0 
2.442012646951e-03 1.059491979401e-02 0.0 
2.251949123932e-03 9.097530979651e-03 0.0 
3.943873189921e-04 2.221273185082e-04 0.0 
9.785356335037e-04 5.902757161055e-04 0.0 
1.187139838413e-03 3.149932904509e-03 0.0 
1.237686190129e-03 4.539755414095e-03 0.0 
2.238917661246e-03 7.855996138904e-04 0.0 
2.950863674420e-03 9.263343019566e-03 0.0 
2.730102952928e-03 5.237179008151e-03 0.0 
3.024042160186e-03 4.915382469260e-03 0.0 
2.804865136024e-03 7.169332971021e-03 0.0 
2.809703880043e-03 1.801797652625e-03 0.0 
1.221242897073e-03 -1.241548768998e-04 0.0 
9.926117731584e-04 3.119061799714e-03 0.0 
2.423800580363e-03 3.016848853076e-03 0.0 
3.213210296154e-03 7.571432156845e-03 0.0 
2.409906405351e-03 7.596563601544e-03 0.0 
3.145534703522e-03 8.405805544737e-03 0.0 
2.456283822913e-04 5.168105469595e-04 0.0 
2.113655933856e-04 5.571137135028e-04 0.0 
5.401401947640e-04 1.388054086015e-03 0.0 
2.189519974915e-03 7.549414783707e-04 0.0 
8.205960445603e-04 3.520136518728e-03 0.0 
2.510374683986e-03 9.961787390717e-03 0.0 
3.223495407589e-03 4.582062927252e-03 0.0 
1.917803023476e-03 4.783644772040e-03 0.0 
2.661022747070e-03 9.893661895853e-03 0.0 
1.176171033157e-03 8.367035932394e-03 0.0 
9.658484085496e-04 6.408326459374e-03 0.0 
8.147943001246e-04 3.817150001565e-04 0.0 
1.401613171152e-03 3.170746387923e-03 0.0 
1.797217764490e-03 6.924159792242e-03 0.0 
2.169869636316e-03 6.311928995712e-03 0.0 
2.115353014903e-03 4.405114176178e-03 0.0 
1.607414992571e-04 3.314490221976e-04 0.0 
3.480022665758e-03 6.047717975854e-03 0.0 
3.216949385643e-03 6.769688835384e-03 0.0 
3.471361710338e-03 5.894727204843e-03 0.0 
3.786221613846e-04 9.915708248365e-03 0.0 
2.217288728536e-04 7.566252349568e-03 0.0 
6.836251459213e-04 -1.485083396343e-04 0.0 
2.933149977716e-03 7.525210093663e-03 0.0 
1.706561177742e-04 7.880670793392e-05 0.0 
2.840499574749e-03 2.494568433817e-03 0.0 
1.726170630380e-03 8.359772720874e-03 0.0 
4.766059434681e-05 -8.693312129329e-04 0.0 
3.008612188194e-03 7.713908483660e-03 0.0 
3.494192536112e-03 5.693231687255e-03 0.0 
1.984136470806e-03 6.394724920204e-03 0.0 
2.840437033066e-04 4.321065063069e-04 0.0 
2.127153141728e-03 8.716221371193e-03 0.0 
2.454633941890e-03 6.603927126536e-03 0.0 
1.328688793144e-03 -5.718469977128e-05 0.0 
9.996176855126e-04 3.569529117851e-03 0.0 
2.094645740362e-03 6.802696687744e-04 0.0 
3.165820821711e-04 4.365699877551e-04 0.0 
1.282029731377e-04 2.547320735335e-04 0.0 
8.283795434765e-05 2.591649935720e-04 0.0 
1.169069555356e-04 2.926820633607e-04 0.0 
1.976502745245e-03 5.913868093703e-03 0.0 
1.063664282139e-03 3.580869325148e-03 0.0 
1.151910677366e-03 2.692913615975e-03 0.0 
3.058986087143e-03 8.681543093540e-03 0.0 
2.855808757347e-03 9.504387333025e-03 0.0 
1.044518858202e-03 -2.454745170942e-04 0.0 
1.055414701120e-03 3.130051527047e-03 0.0 
3.505305129571e-04 3.966878209597e-04 0.0 
8.174503992237e-04 3.073511313277e-03 0.0 
3.084882085425e-03 2.918525854267e-03 0.0 
8.740150830968e-04 3.090890151121e-03 0.0 
2.637331933470e-03 3.790334001714e-03 0.0 
3.260710784310e-03 7.042948057050e-03 0.0 
2.562673875655e-03 1.005074141943e-02 0.0 
2.273281021955e-03 7.385058499069e-03 0.0 
2.242969685358e-04 1.094584179441e-03 0.0 
3.127032922801e-03 8.682805036018e-03 0.0 
1.141398730880e-03 1.350325716268e-03 0.0 
1.147990878675e-03 -1.872268210764e-04 0.0 
1.734224746096e-03 1.136984997182e-03 0.0 
6.450149777184e-04 2.883647054648e-04 0.0 
3.069918389305e-03 8.027161957864e-03 0.0 
1.264209179186e-04 2.252406560313e-04 0.0 
3.816171269876e-04 1.043359668264e-03 0.0 
2.645487297321e-03 6.416200158634e-03 0.0 
-5.038226851489e-05 3.399695874229e-04 0.0 
1.541839838862e-04 2.241364388922e-04 0.0 
7.092291332904e-04 3.722953440250e-04 0.0 
1.845420839971e-03 1.385707760490e-03 0.0 
2.935509873429e-03 2.442848340389e-03 0.0 
3.884970279689e-04 2.781013598804e-04 0.0 
-2.969302141361e-04 2.170395834131e-04 0.0 
3.227690616603e-03 7.842498075771e-03 0.0 
2.453598121030e-03 6.116869941443e-03 0.0 
2.825787080832e-03 6.666539908219e-03 0.0 
2.538077452976e-03 7.011389945203e-03 0.0 
2.557495508081e-03 8.125522207362e-03 0.0 
1.699545495281e-04 2.020013974226e-04 0.0 
3.341564294248e-03 4.237641353902e-03 0.0 
8.071861903603e-04 4.173763415658e-03 0.0 
3.636553784393e-04 1.003403700868e-04 0.0 
-1.239821478896e-04 2.021709525779e-04 0.0 
2.364931016907e-03 9.452419025453e-03 0.0 
7.272655388204e-04 1.534669701783e-03 0.0 
1.981343141285e-03 9.246268331659e-03 0.0 
3.690606856010e-04 1.909947218128e-04 0.0 
1.860571816186e-04 1.819428424397e-04 0.0 
2.071522927977e-03 6.842617690511e-03 0.0 
2.792621128953e-04 1.301504126216e-03 0.0 
4.139154614478e-04 3.959163284768e-03 0.0 
5.631279637438e-04 1.288775838365e-03 0.0 
1.078568679699e-03 2.737489815114e-04 0.0 
1.249116427962e-03 8.675307791463e-03 0.0 
1.673469873047e-03 7.894307667128e-03 0.0 
1.821080274733e-04 1.485406893630e-04 0.0 
1.122489962978e-03 8.675845264083e-03 0.0 
1.544822943541e-04 5.094974856215e-04 0.0 
2.525628954933e-03 3.385973620029e-03 0.0 
9.019305227843e-04 6.886420373866e-03 0.0 
2.676237220482e-03 1.051759495787e-02 0.0 
2.960971914648e-03 2.617899811889e-03 0.0 
1.802733661260e-03 5.845173879162e-03 0.0 
2.020145497280e-04 1.387207847253e-04 0.0 
1.174254091536e-04 2.620784734260e-04 0.0 
9.445863785000e-05 2.644316501421e-04 0.0 
1.991456026754e-03 5.758299464620e-04 0.0 
8.706063828042e-04 -3.563534931358e-04 0.0 
3.329860761613e-03 6.781097736484e-03 0.0 
1.891085195387e-03 5.187854731864e-04 0.0 
2.075430262738e-04 1.217635137542e-04 0.0 
2.912758735954e-03 6.945991374846e-03 0.0 
2.467369967507e-03 2.207783163736e-03 0.0 
2.396943407836e-03 1.736617575115e-03 0.0 
7.801118558738e-04 6.331139234267e-03 0.0 
3.020601824293e-04 1.249373955902e-04 0.0 
1.344343243385e-04 1.073411758489e-03 0.0 
1.822163928826e-04 9.063091705881e-05 0.0 
2.109743768648e-03 1.366294046088e-03 0.0 
1.298597194204e-04 2.079700674147e-04 0.0 
1.219070294614e-03 2.702313406882e-03 0.0 
-4.342107260711e-04 3.741390411147e-04 0.0 
3.354792880769e-03 7.016919375685e-03 0.0 
7.106791875054e-04 3.029537719264e-03 0.0 
1.623980982849e-04 2.124335488629e-04 0.0 
2.067896799681e-03 5.876308549539e-03 0.0 
2.441268716814e-03 2.901454853385e-03 0.0 
1.683775329248e-03 7.877420980878e-03 0.0 
1.147052172953e-03 5.949382993331e-04 0.0 
2.038373496552e-03 1.019275192005e-03 0.0 
2.276431062750e-03 1.476731896867e-03 0.0 
-3.010755107734e-04 1.328762652131e-03 0.0 
1.805759634291e-04 1.946864235371e-04 0.0 
2.326487378245e-03 5.547979829143e-03 0.0 
1.644251976224e-03 6.780881863740e-04 0.0 
8.952670076479e-04 7.425056354153e-03 0.0 
1.392577315840e-03 2.921880182457e-04 0.0 
2.348432125459e-03 1.904163986306e-03 0.0 
2.264337803153e-03 6.256804373944e-03 0.0 
1.864824782409e-04 1.393805751551e-04 0.0 
8.437592768833e-04 -3.424518097496e-04 0.0 
1.935959547127e-03 6.573737966727e-04 0.0 
3.085206809388e-03 6.184572969518e-03 0.0 
2.572100721112e-03 1.319246482863e-03 0.0 
2.633280349107e-03 2.320421055516e-03 0.0 
2.088764827901e-03 7.126929010669e-04 0.0 
3.077893931904e-03 6.679766168810e-03 0.0 
2.434565348640e-03 4.096587731450e-03 0.0 
2.688956582015e-03 2.213105537922e-03 0.0 
3.231997069915e-03 6.269155792277e-03 0.0 
1.469390295341e-03 3.259265417581e-05 0.0 
3.079864744006e-03 7.502284282626e-03 0.0 
9.691019242464e-04 -3.065669616314e-04 0.0 
2.577520323832e-03 3.278890638669e-03 0.0 
3.198451922226e-03 2.876238008699e-03 0.0 
3.528725106569e-04 1.694376249927e-04 0.0 
6.961882174145e-04 2.600557473016e-03 0.0 
1.234669939350e-03 2.048393924526e-04 0.0 
1.868442927183e-04 1.003638047540e-04 0.0 
8.483249716400e-04 4.320006615242e-04 0.0 
3.471622758286e-03 5.427294047497e-03 0.0 
-1.297336912838e-04 1.081810182984e-03 0.0 
2.818714805975e-04 1.089860485883e-04 0.0 
8.541549856475e-04 2.657665219660e-03 0.0 
1.814939257489e-03 1.020914142249e-03 0.0 
1.561608086618e-04 6.671882756152e-05 0.0 
1.877897673613e-03 5.501878263771e-04 0.0 
2.771711388981e-03 9.343598850252e-03 0.0 
1.695010703176e-03 7.418018450066e-03 0.0 
3.283650723470e-03 3.171229916679e-03 0.0 
2.056417186559e-03 5.897841387931e-04 0.0 
2.612904795889e-03 1.464575379342e-03 0.0 
1.372383408376e-03 5.511977636295e-03 0.0 
2.542242614265e-03 8.839950436035e-03 0.0 
2.540109952187e-03 2.196098186400e-03 0.0 
2.080332648737e-04 6.998099500237e-03 0.0 
1.360022588295e-03 -4.904200257057e-05 0.0 
2.796404272264e-03 2.180287882698e-03 0.0 
1.921533971901e-03 8.190341100204e-04 0.0 
1.102394535306e-03 4.529996064242e-05 0.0 
-5.491034594174e-04 7.131296643745e-04 0.0 
3.176431580868e-03 7.930570712717e-03 0.0 
1.991866307330e-03 1.130143052010e-03 0.0 
1.181601860958e-03 -1.225933448597e-04 0.0 
3.398271987560e-03 5.536363478885e-03 0.0 
1.972387592519e-03 6.396555319453e-04 0.0 
7.758946897138e-04 6.812967359289e-03 0.0 
1.704317425575e-03 8.101387855536e-04 0.0 
1.458993737675e-04 5.821856802869e-05 0.0 
2.547269542024e-03 6.030201054131e-03 0.0 
1.029095884238e-03 -1.678055179777e-04 0.0 
2.738601438261e-03 6.302201257508e-03 0.0 
1.075862441377e-03 -1.772523021288e-04 0.0 
-3.857909276698e-04 5.225581142543e-04 0.0 
1.625805918348e-03 6.946711011841e-03 0.0 
3.016238711168e-04 -5.362841281554e-04 0.0 
-3.566200660124e-05 -6.528466051488e-04 0.0 
8.695935007636e-04 -2.686523119798e-04 0.0 
1.799469799176e-03 5.855818895348e-04 0.0 
2.061002038204e-04 3.080991844588e-03 0.0 
2.767783511900e-03 1.638307549754e-03 0.0 
2.657117634687e-03 1.472961860702e-03 0.0 
1.687209242759e-03 8.833172690394e-03 0.0 
1.137078946452e-03 9.299106373238e-03 0.0 
2.681250207901e-04 1.027142427339e-03 0.0 
2.916863332366e-03 6.521577465165e-03 0.0 
-5.210096720964e-05 -6.917879107751e-04 0.0 
4.882167553533e-04 -3.089362040908e-04 0.0 
-8.838780592468e-05 6.724529803459e-04 0.0 
1.101075537393e-03 -8.971096444607e-05 0.0 
1.616681799043e-03 2.676850591342e-03 0.0 
2.352326567927e-04 3.113831370998e-03 0.0 
1.155022256845e-03 2.711880748683e-04 0.0 
9.829169812494e-04 -3.061256937364e-04 0.0 
1.005156231488e-03 4.516206087334e-06 0.0 
1.452488791132e-03 5.764082122450e-04 0.0 
1.468616148586e-03 4.034328639294e-03 0.0 
2.136969001767e-04 -5.486716685716e-04 0.0 
1.465916886476e-04 -6.623335070650e-04 0.0 
2.672906749030e-04 9.670437783492e-05 0.0 
1.359721068300e-04 5.076748055961e-05 0.0 
2.233862160443e-04 -4.698588243068e-04 0.0 
9.250909835016e-04 -2.120147666778e-04 0.0 
1.976561825026e-03 5.316403035049e-04 0.0 
1.341848250474e-03 5.769423666333e-04 0.0 
5.670966478302e-04 -3.457709004112e-04 0.0 
1.536174450455e-03 5.590223046386e-04 0.0 
1.173864132567e-04 -7.652915262701e-04 0.0 
9.097674171416e-04 -2.842522913376e-04 0.0 
1.240311286369e-03 -6.253935568797e-05 0.0 
5.575712474016e-05 -8.212363897045e-04 0.0 
1.778376516793e-04 -5.124546902854e-04 0.0 
6.470451872992e-04 2.575764959473e-03 0.0 
-2.925447854523e-05 -7.657169666401e-04 0.0 
1.257680193872e-03 9.259437104775e-03 0.0 
1.322617819473e-03 9.537477273917e-03 0.0 
2.611549279765e-03 1.581043002683e-03 0.0 
7.274410851241e-05 -6.713142875452e-04 0.0 
1.764404950766e-03 7.191266133305e-04 0.0 
2.327056259255e-03 8.772860474773e-03 0.0 
7.457101274992e-04 1.828849996612e-04 0.0 
6.716813785002e-04 7.840476715695e-04 0.0 
4.269894014533e-04 3.749570076477e-03 0.0 
2.756627187441e-03 1.010185906676e-02 0.0 
2.804188883376e-04 -2.132025548995e-04 0.0 
2.346394820704e-03 9.025398595785e-03 0.0 
8.016862182704e-04 9.277645199258e-03 0.0 
7.535905855943e-04 9.583343611392e-03 0.0 
-1.472301662676e-05 -7.343933889102e-04 0.0 
6.492090679765e-05 -7.685418985724e-04 0.0 
6.836159572055e-05 -8.636819795290e-04 0.0 
7.372130677287e-04 -4.148116144317e-04 0.0 
3.335521601374e-05 -8.438440724585e-04 0.0 
1.832865752771e-04 -4.304155130213e-04 0.0 
-7.312881068938e-04 1.897835971732e-03 0.0 
8.772085595952e-04 -3.680991131502e-04 0.0 
1.822756951633e-04 5.882821864031e-03 0.0 
1.080968030456e-03 9.602271440289e-03 0.0 
1.346072108616e-03 2.315913149430e-03 0.0 
1.758372694280e-03 4.938665113677e-04 0.0 
1.659305775060e-04 6.773051012990e-03 0.0 
3.908761328282e-05 -6.372493604272e-04 0.0 
7.000309465665e-05 -8.538627802980e-04 0.0 
3.372976821690e-05 2.703307453770e-04 0.0 
7.675381262270e-05 5.633149284582e-04 0.0 
8.295312809362e-04 7.380032135505e-03 0.0 
9.101302206841e-04 9.303309844677e-03 0.0 
1.950949487438e-04 -6.221039718190e-04 0.0 
5.040293719182e-05 5.333905222125e-04 0.0 
8.482966097797e-04 -3.567037036365e-04 0.0 
1.199323782540e-03 9.574426354860e-03 0.0 
1.020775155222e-03 9.314847084856e-03 0.0 
2.089658270458e-03 9.650601400613e-03 0.0 
7.164434000649e-05 2.503324920496e-04 0.0 
6.081485659665e-05 5.322123710351e-04 0.0 
3.869057762402e-05 -7.976639869929e-04 0.0 
-2.162994000501e-06 -7.974602799396e-04 0.0 
3.628543881040e-04 -3.603517403940e-04 0.0 
1.348033032908e-03 -5.113973437444e-07 0.0 
8.076256747982e-05 4.671551979842e-05 0.0 
-9.837206057298e-04 2.221768356787e-03 0.0 
5.613041851161e-05 3.885141869099e-03 0.0 
-6.007195881207e-04 1.348389575014e-03 0.0 
2.478490693139e-03 1.307633027171e-03 0.0 
-6.792130308141e-04 1.122812967039e-03 0.0 
-8.215408315875e-04 1.623597130659e-03 0.0 
2.452987516212e-03 1.182597222645e-03 0.0 
3.177083984520e-04 6.821256460523e-05 0.0 
1.536478833316e-04 6.213562654195e-03 0.0 
2.509934454052e-03 8.429536904152e-03 0.0 
4.265695166647e-05 -8.598312540461e-04 0.0 
8.305606013668e-04 -2.053531021005e-05 0.0 
1.220060912179e-05 3.174862441762e-04 0.0 
2.400342520601e-05 5.380329907364e-04 0.0 
9.675588612893e-04 9.606040338235e-03 0.0 
2.461894762674e-03 1.404231956063e-03 0.0 
2.708508837975e-05 2.618816256581e-04 0.0 
2.478600223400e-03 2.799180391470e-03 0.0 
4.212441029196e-05 -8.796620991595e-04 0.0 
2.403051200242e-05 -8.760878892538e-04 0.0 
2.513946956402e-05 -8.860995351361e-04 0.0 
4.337045543276e-05 -5.599455322888e-04 0.0 
6.471628493552e-05 2.541216763439e-05 0.0 
6.589640350910e-06 1.460420691780e-03 0.0 
4.350468954064e-06 -8.781108094289e-04 0.0 
9.436755547943e-05 -4.323866606314e-04 0.0 
2.199666276095e-05 9.937278293948e-06 0.0 
9.095959044292e-05 3.122497343336e-05 0.0 
2.526632328922e-04 8.602581481840e-05 0.0 
3.185026563837e-05 4.854296615700e-03 0.0 
1.230058218699e-05 3.396227123713e-03 0.0 
4.271962217456e-05 1.547488934044e-05 0.0 
4.823996826836e-05 1.575008409291e-05 0.0 
2.749726705275e-05 3.885442272900e-03 0.0 
-2.869004400801e-06 -8.892945704237e-04 0.0 
5.617468039883e-04 9.584788409391e-03 0.0 
8.599951309794e-04 9.599331872041e-03 0.0 
3.500088658911e-06 -8.450322849974e-04 0.0 
7.726772078351e-05 2.306002585444e-05 0.0 
2.436463989180e-04 7.836369312755e-05 0.0 
1.223017340988e-04 3.827477558446e-05 0.0 
-6.878218736725e-06 -8.630423867601e-04 0.0 
-1.495157423920e-05 -8.222208951901e-04 0.0 
1.313185680730e-04 4.593689727532e-05 0.0 
1.213446648192e-04 4.008891754308e-05 0.0 
1.665358077262e-05 5.352724413667e-03 0.0 
2.913612928227e-04 9.589540973977e-03 0.0 
1.519668486576e-05 4.364604740884e-03 0.0 
2.082733612777e-05 7.315022434696e-03 0.0 
1.241258318582e-04 9.585673720507e-03 0.0 
-8.475713776577e-05 -5.964022683786e-04 0.0 
-1.819703237361e-04 -3.202697605869e-04 0.0 
-2.501208544452e-04 -1.338770419353e-04 0.0 
-3.355192664646e-04 9.589405112793e-05 0.0 
4.806704865105e-05 -3.907533733604e-04 0.0 
4.630050682838e-05 -4.769392275060e-04 0.0 
-1.549114496706e-04 -2.400709192676e-04 0.0 
4.931454714575e-05 -1.514664273271e-04 0.0 
-2.193119198891e-04 -3.403360176057e-05 0.0 
5.753483916554e-05 2.592831278159e-04 0.0 
2.331784881207e-05 2.715088965544e-04 0.0 
4.302404440580e-05 2.929841830812e-04 0.0 
1.855208586750e-05 -8.565087648392e-04 0.0 
3.365649522959e-05 -7.068849817332e-04 0.0 
2.218401006472e-05 3.264972535740e-04 0.0 
3.399014585001e-05 1.768857506754e-05 0.0 
1.180281608422e-05 2.205467465602e-04 0.0 
2.498543703308e-05 4.086761157225e-05 0.0 
1.525103780442e-05 4.177775982724e-05 0.0 
8.967096226114e-05 -5.175639458745e-04 0.0 
4.550185887679e-05 5.980061501284e-04 0.0 
3.398682614894e-05 5.470440001343e-04 0.0 
5.897558288309e-05 3.198567488091e-05 0.0 
4.023647483750e-05 4.504458198112e-05 0.0 
4.989161492550e-04 -3.643277472955e-05 0.0 
-4.878014167183e-04 8.936290718826e-04 0.0 
7.473660046615e-04 -3.817388575079e-04 0.0 
3.859879709159e-05 -7.370146137892e-04 0.0 
7.002085620760e-04 1.628529533074e-04 0.0 
1.012031457018e-03 -2.370615301867e-04 0.0 
5.678610514307e-04 6.773473163160e-05 0.0 
6.908367112160e-04 -3.980904824486e-04 0.0 
1.675600503865e-04 -6.573685080339e-04 0.0 
3.964418529203e-04 7.040092638847e-05 0.0 
7.684729920822e-04 -3.064364194239e-04 0.0 
1.646178240413e-04 -5.917399138543e-04 0.0 
5.004954786960e-04 5.140062719163e-05 0.0 
7.578190372512e-05 2.468335920690e-03 0.0 
8.245806871557e-05 -5.979045219823e-04 0.0 
1.731845482097e-03 5.879690241506e-04 0.0 
1.394889949437e-03 1.945700806770e-04 0.0 
5.859817968691e-04 -1.753018818185e-05 0.0 
4.281177207373e-04 -1.836911764113e-05 0.0 
3.256958100977e-03 4.209185112428e-03 0.0 
2.461783955765e-03 9.358516293878e-03 0.0 
3.403204253220e-03 6.008264262663e-03 0.0 
9.237843101070e-04 1.160025559725e-05 0.0 
3.582907725614e-04 4.474514964192e-05 0.0 
2.824453006850e-04 -1.243927102864e-05 0.0 
9.903939997561e-04 -8.226044025248e-06 0.0 
1.432476090652e-04 2.545942023285e-03 0.0 
1.854157547839e-04 3.521653199254e-03 0.0 
3.688624656340e-04 8.103455634999e-03 0.0 
1.017926870309e-03 8.588749237352e-05 0.0 
7.510818624153e-04 -8.346591373919e-06 0.0 
9.792384324932e-05 2.519792493150e-03 0.0 
1.261181583486e-04 3.023163007353e-03 0.0 
1.487184932592e-03 2.123817054180e-04 0.0 
2.707924953097e-04 5.999171086709e-05 0.0 
3.876661734501e-04 3.717380377671e-03 0.0 
2.012741868101e-04 -1.965755276596e-05 0.0 
5.222100044263e-04 1.222885204678e-04 0.0 
1.668105234643e-04 2.571246011993e-03 0.0 
3.339718905723e-04 5.083839981565e-03 0.0 
1.716372865234e-03 5.115423097980e-04 0.0 
3.555146143668e-04 -7.058503133316e-04 0.0 
9.871896280297e-04 1.792130892194e-04 0.0 
2.576922149491e-04 -3.157677119816e-04 0.0 
-2.379661545353e-04 8.722532107105e-04 0.0 
1.524054189280e-04 3.022566624711e-03 0.0 
2.881215030560e-04 5.042480315792e-05 0.0 
-1.749105363601e-04 5.032572913978e-04 0.0 
1.028056570159e-03 2.689600090253e-03 0.0 
4.306018468300e-04 7.612933212144e-03 0.0 
6.572362101614e-04 6.413081514740e-05 0.0 
3.646320262511e-04 2.424599168313e-05 0.0 
1.694330334207e-03 4.726750832551e-04 0.0 
2.953427541218e-04 1.367781761411e-05 0.0 
4.170406005419e-04 8.121271185896e-03 0.0 
2.670323320749e-03 2.073876458303e-03 0.0 
4.000407837790e-04 9.998723414815e-05 0.0 
1.868567108721e-04 -7.754258555193e-04 0.0 
6.444073456015e-04 1.705118598836e-04 0.0 
2.560927203407e-04 4.540419075065e-03 0.0 
2.962612524317e-04 -7.205845987062e-04 0.0 
1.143848622298e-03 6.971290652484e-05 0.0 
4.174021516543e-04 -2.789553750554e-04 0.0 
4.620341759484e-04 6.146052826094e-03 0.0 
9.013079251257e-04 -3.732773005077e-04 0.0 
1.881641913302e-04 3.994118503499e-03 0.0 
2.907135263271e-04 5.534268371418e-03 0.0 
8.727931940640e-04 -1.958788571010e-04 0.0 
3.440143938808e-04 -3.190365740764e-05 0.0 
4.358378996708e-04 1.166344280690e-05 0.0 
2.203968014347e-04 4.504961297006e-03 0.0 
3.755992496900e-04 -6.724932290206e-04 0.0 
7.219006640558e-04 -2.849200101979e-04 0.0 
1.936300521794e-03 1.627542160041e-03 0.0 
2.893431950070e-04 4.095556945683e-03 0.0 
7.122536362384e-04 -3.613234465400e-04 0.0 
1.297066985821e-03 1.400069932719e-04 0.0 
8.298725598264e-04 2.255157170724e-04 0.0 
2.932104463846e-04 5.051741429512e-03 0.0 
3.609728057553e-04 3.446604194756e-03 0.0 
2.126155692447e-04 -5.485002623655e-04 0.0 
2.004711056868e-03 3.888464237467e-03 0.0 
4.196952192834e-04 5.650041913433e-05 0.0 
3.744340746177e-04 5.597384814349e-03 0.0 
3.019661061969e-04 -2.186058027506e-04 0.0 
4.943185449630e-04 7.147925387860e-03 0.0 
1.406246853709e-03 5.266547046965e-04 0.0 
7.144997734516e-04 -2.092765832372e-04 0.0 
5.102969053936e-04 2.706280882299e-05 0.0 
2.982431175609e-04 -7.331791961294e-04 0.0 
5.660212637082e-04 1.380156399830e-04 0.0 
7.707233832996e-04 -2.309999931771e-04 0.0 
2.340525401722e-04 -7.421567669888e-04 0.0 
6.233189755201e-04 -3.128763469516e-04 0.0 
7.959341836197e-04 -4.141936403491e-04 0.0 
7.959362704063e-04 -4.330799977858e-04 0.0 
3.974327691959e-04 -2.012059843403e-04 0.0 
-5.867321733654e-05 -5.484648463351e-04 0.0 
-9.762071397498e-05 -4.106907885151e-04 0.0 
6.620140799433e-04 -3.327375311333e-05 0.0 
3.457712372303e-04 -7.111105714376e-04 0.0 
9.287541098485e-04 5.097788058851e-05 0.0 
1.110195374386e-03 8.729362193735e-05 0.0 
1.275964075193e-03 -1.158517451101e-04 0.0 
1.523575176753e-03 7.065209605676e-04 0.0 
3.308469443550e-04 3.211739746757e-03 0.0 
7.852712563047e-04 6.255830055333e-03 0.0 
6.832094004882e-04 -4.367177892447e-04 0.0 
1.299218840294e-03 5.285537335074e-04 0.0 
2.819850489922e-04 -7.439763920060e-04 0.0 
4.550586777477e-04 6.629336052511e-03 0.0 
4.805944184948e-04 7.645433291374e-03 0.0 
5.152137406551e-04 -4.279281571619e-04 0.0 
1.035820949084e-03 2.992576387480e-04 0.0 
5.018505347239e-04 4.734510136472e-03 0.0 
3.987707835681e-04 -6.757060834238e-04 0.0 
3.387010292190e-04 2.784903315986e-03 0.0 
3.062011168563e-04 2.750806015696e-03 0.0 
4.744225416582e-04 -6.352750492220e-04 0.0 
2.774274537428e-03 1.024654704804e-02 0.0 
6.678841146712e-04 -4.814370664389e-04 0.0 
5.896423740743e-04 1.593283492265e-05 0.0 
5.557504824852e-04 -2.103541992644e-04 0.0 
7.996048922120e-04 2.640833778364e-03 0.0 
2.973944349730e-04 3.179473408672e-03 0.0 
7.546233113741e-04 2.813087544201e-05 0.0 
8.390718500671e-04 5.531978159714e-05 0.0 
5.770821343891e-04 -4.516425989488e-04 0.0 
6.692161061073e-04 3.666673680710e-05 0.0 
4.568799579340e-04 4.702900647665e-03 0.0 
4.574667958654e-04 -2.309105630716e-04 0.0 
4.190731116068e-04 5.630749139959e-03 0.0 
4.036419351555e-04 4.193112283112e-03 0.0 
3.409219089927e-03 3.821244446794e-03 0.0 
2.800312925271e-04 3.620473389790e-03 0.0 
5.716797180705e-04 -3.662287107629e-04 0.0 
6.142689620741e-04 -2.366073325668e-04 0.0 
6.337910463157e-04 -5.089657353729e-04 0.0 
1.396571959760e-03 3.219241931140e-06 0.0 
4.187272961688e-04 5.150118994808e-03 0.0 
1.901634692884e-03 4.228316562298e-04 0.0 
6.256091384738e-04 -5.426024140408e-04 0.0 
3.302345372967e-04 -4.441017777577e-04 0.0 
4.635502291766e-04 5.182548275828e-03 0.0 
6.976953675333e-04 -4.883100402793e-04 0.0 
6.760560008624e-04 1.861355300030e-04 0.0 
3.322053788058e-04 4.605377060074e-03 0.0 
7.303105179462e-04 8.603155429990e-05 0.0 
6.788126417248e-04 3.295067472459e-04 0.0 
6.140420507624e-04 -3.931594011253e-04 0.0 
5.369897785232e-04 -5.907607538153e-04 0.0 
4.037139973708e-04 -4.748434982051e-04 0.0 
1.006841659864e-03 1.190206482261e-04 0.0 
3.274646709727e-04 6.049114343030e-03 0.0 
2.303460828165e-04 -4.825127107421e-04 0.0 
8.092572023863e-04 -4.250283065032e-04 0.0 
1.950050761647e-04 -7.865584636594e-04 0.0 
5.107686928746e-04 6.179024585045e-03 0.0 
7.049304735256e-04 -4.552708886997e-04 0.0 
1.203879404921e-03 1.312866200866e-04 0.0 
5.470004132954e-04 -5.412616620168e-04 0.0 
2.155476252772e-04 3.554774430423e-03 0.0 
8.101127643226e-04 -4.346672482215e-04 0.0 
1.256534070129e-03 2.401431877403e-04 0.0 
9.108027494586e-04 4.134793479035e-05 0.0 
1.195455039063e-03 1.667767264380e-04 0.0 
4.733277595864e-04 -3.080787579417e-04 0.0 
9.053360019210e-04 1.145476369587e-04 0.0 
2.747113666105e-03 2.645713153405e-03 0.0 
2.441827705940e-04 -7.658839725522e-04 0.0 
3.973546094147e-04 7.082869042053e-03 0.0 
2.403590327037e-03 1.179370248313e-03 0.0 
3.130240992544e-03 7.819174623142e-03 0.0 
3.704237750757e-04 6.080132233907e-03 0.0 
1.157602195379e-03 2.647655963315e-04 0.0 
6.660743438414e-04 5.788765472563e-03 0.0 
2.376680791618e-04 -7.714209103228e-04 0.0 
8.800339481810e-04 2.105180063279e-04 0.0 
2.400502908077e-03 1.281283384012e-03 0.0 
2.534660775594e-03 2.072706457812e-03 0.0 
2.451534380635e-04 2.233607835658e-03 0.0 
1.868787497526e-03 4.325113774223e-04 0.0 
4.231537491061e-04 -6.280235670259e-04 0.0 
1.589556130551e-03 3.193436352628e-04 0.0 
8.738217487789e-04 2.508473943579e-04 0.0 
1.654037197098e-03 5.418946519771e-04 0.0 
8.267389525852e-04 8.575638211473e-05 0.0 
3.723217474133e-04 4.638291747707e-03 0.0 
1.531519386550e-03 1.021846695598e-03 0.0 
1.390431612364e-03 2.322603102246e-04 0.0 
7.090353211376e-04 7.272201868199e-03 0.0 
3.550543262218e-04 -6.808880263558e-04 0.0 
9.030326242405e-04 -3.760152857205e-04 0.0 
3.160232317556e-03 5.993233451185e-03 0.0 
1.090685798082e-03 1.559168841413e-04 0.0 
2.870833458032e-03 9.148683836946e-03 0.0 
3.297143290516e-03 6.039608022229e-03 0.0 
5.579731942015e-04 5.245892549283e-03 0.0 
4.080873138642e-04 6.596779785935e-03 0.0 
7.176918131665e-04 6.784438582384e-03 0.0 
5.719108833864e-04 -2.862870792603e-04 0.0 
1.251150834236e-03 3.899315927911e-04 0.0 
1.790628614727e-03 4.323037450889e-04 0.0 
5.464316101514e-04 7.186613376971e-03 0.0 
9.528584580494e-04 2.191903813719e-03 0.0 
2.358257314019e-03 2.021083876628e-03 0.0 
1.284184282889e-03 2.131873291709e-04 0.0 
3.639066576426e-04 4.160932664174e-03 0.0 
1.288984950298e-03 -1.055170527592e-04 0.0 
1.091644169788e-03 -2.484637515321e-04 0.0 
5.232750031683e-04 -5.186174769004e-04 0.0 
1.667566142403e-03 4.204871091096e-04 0.0 
9.864804478014e-04 -3.126561028491e-04 0.0 
5.620829497759e-04 5.727884964578e-03 0.0 
6.668056345809e-04 6.273656780146e-03 0.0 
3.252502090558e-03 2.953910508444e-03 0.0 
1.074126693241e-03 -2.287560491249e-04 0.0 
3.095464578117e-03 4.522687773563e-03 0.0 
9.945645519784e-04 -3.124546158710e-04 0.0 
1.190758541810e-03 -1.737922219457e-04 0.0 
5.677006269377e-04 -5.316908124074e-04 0.0 
1.477520015304e-03 5.038262397620e-04 0.0 
1.808299506711e-03 3.346660115619e-04 0.0 
3.144783865552e-04 3.652934420647e-03 0.0 
2.005070663930e-03 5.277050333647e-04 0.0 
1.686634541077e-03 3.903266960215e-04 0.0 
1.835817971071e-03 3.796384057688e-04 0.0 
3.431894691770e-03 5.267394392317e-03 0.0 
5.088925198492e-04 -5.867221260223e-04 0.0 
1.084151384364e-03 3.325192146734e-04 0.0 
9.352447129161e-04 2.992093022417e-04 0.0 
2.589866236062e-03 4.438775867813e-03 0.0 
1.394510403418e-03 -1.929447635202e-05 0.0 
1.783225118594e-03 3.902192922820e-04 0.0 
5.126305615409e-04 5.696150179930e-03 0.0 
1.171378261644e-03 -1.870663864875e-04 0.0 
3.300123223916e-03 7.549835615178e-03 0.0 
7.269199001473e-04 -4.878728294909e-04 0.0 
1.423340642245e-03 5.212070618656e-04 0.0 
1.490857235359e-03 5.200548804340e-05 0.0 
6.406571771715e-04 -5.405779528168e-04 0.0 
4.225569534340e-04 -6.661044169606e-04 0.0 
1.725372568033e-03 2.873758017489e-04 0.0 
1.483582603925e-03 2.899388744196e-04 0.0 
1.751533923018e-03 2.618046716465e-03 0.0 
-1.204008217025e-04 -4.759530435100e-04 0.0 
2.509363170699e-03 1.253685054217e-03 0.0 
2.158667845255e-03 7.362810732986e-04 0.0 
1.602264020647e-03 1.508488470871e-04 0.0 
6.128901127039e-04 6.243062024438e-03 0.0 
1.844105438842e-03 3.603896202679e-04 0.0 
7.277890373258e-04 -4.809718729855e-04 0.0 
1.693260502502e-03 2.234265744856e-04 0.0 
2.539919807295e-04 4.062697512727e-03 0.0 
6.433265913493e-04 -5.238320535046e-04 0.0 
2.747961613709e-04 -5.786666650763e-04 0.0 
4.236987470803e-04 -5.634803708086e-04 0.0 
1.493715137399e-03 4.475929254981e-04 0.0 
1.285176600821e-03 -6.962455420332e-05 0.0 
2.352975653145e-03 9.643403779093e-04 0.0 
1.889327199189e-03 4.053919337637e-04 0.0 
8.799148620596e-04 2.464123451257e-04 0.0 
3.823856001066e-04 -6.178551473192e-04 0.0 
9.663105079842e-04 6.912630891986e-03 0.0 
5.660806099504e-04 -5.843948842341e-04 0.0 
1.577066920361e-03 5.171282494331e-04 0.0 
2.021705056663e-03 2.910949032668e-03 0.0 
1.716444161949e-03 6.458717118476e-03 0.0 
5.231283415945e-04 3.366874148634e-03 0.0 
1.471432483394e-03 2.281448180863e-03 0.0 
3.366616325753e-03 3.529721854661e-03 0.0 
2.337073358269e-03 3.666276848906e-03 0.0 
1.144829237419e-03 5.051543358379e-04 0.0 
1.548143905173e-03 1.002241826702e-04 0.0 
3.500264898816e-03 5.236606196348e-03 0.0 
1.853452287548e-03 1.822661131385e-03 0.0 
8.233252178813e-04 4.985819106671e-04 0.0 
1.085284764725e-03 -2.514032237230e-04 0.0 
2.041240763830e-03 5.903704333141e-04 0.0 
2.237187389447e-03 8.065053715146e-04 0.0 
5.678808869498e-04 -5.745499414274e-04 0.0 
2.014459580872e-03 5.338484631715e-04 0.0 
2.393157831958e-03 1.067316366791e-03 0.0 
2.690800643358e-03 1.515276607050e-03 0.0 
1.184888635992e-03 -1.604134416730e-04 0.0 
2.566329910733e-03 1.662940985666e-03 0.0 
6.080490663900e-04 5.276178301561e-03 0.0 
2.843787338946e-03 1.899033519318e-03 0.0 
1.305413434319e-03 4.331594798309e-04 0.0 
1.431491649121e-03 8.021580156782e-04 0.0 
1.080872840137e-03 4.273608858436e-04 0.0 
2.187363435662e-03 7.266092249761e-04 0.0 
1.163118805585e-03 1.870935917776e-03 0.0 
2.345166411282e-03 5.712316435835e-03 0.0 
1.245135076715e-03 4.257283584921e-04 0.0 
1.798022743590e-03 5.966530423432e-03 0.0 
6.607316690818e-04 3.005976249734e-03 0.0 
2.349749502452e-03 9.272011262839e-04 0.0 
3.348012225115e-03 7.244564175650e-03 0.0 
1.867446253204e-03 5.468989202763e-03 0.0 
3.137871755800e-03 6.988959693584e-03 0.0 
9.500215901134e-04 4.113908295837e-04 0.0 
2.521678049169e-04 1.430687912810e-03 0.0 
7.024044010477e-04 1.648520580674e-04 0.0 
1.499531811327e-03 9.644673338052e-04 0.0 
2.184662309849e-04 2.653412019569e-03 0.0 
2.354060225500e-03 1.351527045228e-03 0.0 
5.559062598623e-04 6.700995800574e-03 0.0 
5.551865670703e-04 3.840500877214e-03 0.0 
2.580288167155e-03 1.318307219079e-03 0.0 
3.149308485888e-03 2.650841187461e-03 0.0 
3.993601233150e-04 2.403784570267e-03 0.0 
1.338868155105e-03 2.879145514106e-04 0.0 
6.474769586080e-04 4.824026725454e-03 0.0 
2.261426587781e-03 1.049551737720e-03 0.0 
1.230951275317e-03 6.962700943220e-04 0.0 
6.791484960384e-04 4.372635798368e-03 0.0 
8.413891082233e-04 9.531552368562e-04 0.0 
9.692926862137e-04 3.271483153843e-04 0.0 
1.660607327046e-03 1.922147439364e-04 0.0 
6.085752914566e-04 6.733298455319e-03 0.0 
6.538343213046e-04 7.251656496842e-03 0.0 
2.072673791570e-03 5.937195268107e-04 0.0 
1.546574487379e-03 3.782024309675e-04 0.0 
1.579190160516e-03 4.554429382602e-04 0.0 
3.660061350169e-04 -5.434208339003e-04 0.0 
2.846390693897e-03 4.822701830151e-03 0.0 
2.998075306093e-03 2.185201693614e-03 0.0 
2.735388072165e-03 1.669295814818e-03 0.0 
3.351245583547e-03 6.278290744770e-03 0.0 
3.158868552528e-04 1.917192931438e-03 0.0 
9.671535425088e-04 2.680499339705e-03 0.0 
2.461809151371e-04 2.686593026386e-03 0.0 
2.767177145680e-03 8.968084863909e-03 0.0 
8.099754385198e-04 3.971846598390e-03 0.0 
1.459669359426e-03 3.186372570362e-04 0.0 
3.030108946143e-04 2.317558210953e-03 0.0 
8.114802408884e-04 4.902603466127e-03 0.0 
1.730424570907e-03 2.584518675169e-04 0.0 
3.137000501280e-03 2.672445786853e-03 0.0 
6.281698432195e-04 4.345179740876e-03 0.0 
4.439925187147e-04 2.866355303251e-03 0.0 
4.879357399485e-04 4.256911470726e-03 0.0 
5.968976220858e-04 4.795422491155e-03 0.0 
1.137892714583e-03 3.101498893542e-04 0.0 
1.726585355051e-03 1.232899686547e-03 0.0 
1.353699027582e-03 4.021118465686e-04 0.0 
1.588700122145e-03 2.794766958087e-04 0.0 
2.185807308383e-03 1.002649876736e-02 0.0 
2.265089025778e-03 1.387360472341e-03 0.0 
1.129365385237e-03 4.994812396533e-03 0.0 
4.884653343877e-04 -6.309336408648e-04 0.0 
2.900642750285e-03 1.948915137109e-03 0.0 
2.778303967932e-03 1.627520662148e-03 0.0 
2.985678086892e-03 2.341267915569e-03 0.0 
2.194882163881e-03 2.876087736350e-03 0.0 
3.045938788471e-03 2.401511421306e-03 0.0 
2.761756828206e-03 2.025710361324e-03 0.0 
2.410939599349e-03 8.521082332327e-03 0.0 
1.677508421912e-03 2.286312994589e-04 0.0 
8.986063316452e-04 5.895251697320e-03 0.0 
6.130515456587e-04 8.829375110286e-03 0.0 
-3.509390576464e-04 1.167046607985e-02 0.0 
1.678375036538e-03 3.083753037606e-04 0.0 
2.179400976719e-03 1.183717550939e-03 0.0 
7.655203895766e-04 2.228452896787e-03 0.0 
3.178397080398e-03 2.683195997922e-03 0.0 
1.653492012431e-03 2.584047848810e-04 0.0 
7.211776885870e-04 5.817719149779e-03 0.0 
7.527172980040e-04 1.290015724515e-02 0.0 
2.401292583546e-03 1.466270001396e-03 0.0 
2.989838452490e-03 2.195537477969e-03 0.0 
2.367565567610e-03 8.096462705074e-03 0.0 
1.500198334538e-03 3.954824616878e-04 0.0 
1.743494622423e-03 1.528066655370e-03 0.0 
1.507508532722e-03 4.586417432794e-04 0.0 
1.214640941984e-03 4.419852748448e-04 0.0 
2.608559118983e-03 1.797393900521e-03 0.0 
5.329069551219e-04 4.287538073131e-03 0.0 
2.242753348115e-03 2.625076964745e-03 0.0 
1.172461957745e-03 4.036861148558e-04 0.0 
1.452330717868e-03 1.345496162644e-02 0.0 
7.698038232401e-04 5.360292053629e-03 0.0 
1.702575409060e-03 1.415467119283e-03 0.0 
5.105030154949e-04 3.811463443768e-03 0.0 
2.858865468017e-03 2.099247729897e-03 0.0 
3.172422426784e-03 2.693843256337e-03 0.0 
1.019864782973e-03 -1.018292355685e-04 0.0 
1.109621960065e-03 3.838477404653e-03 0.0 
4.026700847209e-04 3.278026745853e-03 0.0 
4.240785304183e-04 -6.537367274080e-04 0.0 
1.775831952030e-03 1.330755421937e-02 0.0 
2.341390024211e-03 3.088210939819e-03 0.0 
2.185857457263e-04 2.201661184433e-03 0.0 
1.417281242732e-03 1.140620373802e-03 0.0 
2.997868194003e-03 5.875256494954e-03 0.0 
7.545276870092e-04 4.878038623500e-03 0.0 
1.398573619232e-03 5.807381364750e-05 0.0 
2.078330600174e-03 2.496872332861e-03 0.0 
3.284277246810e-03 7.358999482771e-03 0.0 
8.973798255130e-04 6.900172196269e-04 0.0 
1.518060384731e-03 1.398117570267e-03 0.0 
1.196500465629e-03 1.018603496588e-03 0.0 
3.048721509252e-03 2.394762867253e-03 0.0 
1.332340612952e-04 4.959441671089e-04 0.0 
1.916549068279e-03 1.285727297644e-02 0.0 
9.325477252473e-04 2.375250536198e-04 0.0 
3.341776526709e-03 3.884668644403e-03 0.0 
9.503164486370e-04 5.427576143304e-03 0.0 
1.699066525277e-03 3.712248100052e-03 0.0 
1.042536879250e-03 3.905459347295e-04 0.0 
1.110198235643e-03 7.939418970275e-04 0.0 
4.804422597505e-04 -5.902990472265e-04 0.0 
2.504034080422e-03 1.827236707869e-03 0.0 
2.413983540567e-03 1.026045743764e-03 0.0 
1.945153428088e-03 1.552262262009e-03 0.0 
3.202340495247e-03 8.354086052000e-03 0.0 
1.030916325312e-03 4.503084199210e-03 0.0 
1.483396450707e-03 9.997956868693e-04 0.0 
7.137317476578e-04 5.333736213075e-03 0.0 
8.157160184760e-04 2.240297289499e-03 0.0 
7.015774843636e-04 3.923270466184e-03 0.0 
7.128579612077e-04 3.475655273294e-03 0.0 
2.415727616170e-03 6.166460759491e-03 0.0 
9.571272100342e-04 2.091306480557e-04 0.0 
7.872264327835e-04 4.423741769083e-03 0.0 
3.410397222146e-03 4.033573513923e-03 0.0 
1.948573746110e-03 1.223154621920e-02 0.0 
1.220921801622e-03 8.176450102564e-04 0.0 
2.533368079449e-03 4.201835417543e-03 0.0 
4.917871883713e-04 -6.087210085055e-04 0.0 
2.162751457637e-03 1.740896884778e-03 0.0 
4.222847027544e-05 -8.372613177564e-04 0.0 
3.335959001501e-03 5.332805093058e-03 0.0 
2.298484556697e-03 1.491969227551e-03 0.0 
5.571469384386e-04 2.533019006559e-03 0.0 
5.270448297439e-04 2.090030016816e-03 0.0 
2.476917322714e-03 1.705331671461e-03 0.0 
5.674152232030e-04 3.395646552025e-03 0.0 
3.436035655710e-03 4.221455188009e-03 0.0 
2.153803699144e-03 3.321044679249e-03 0.0 
1.892499335383e-03 1.149008359156e-02 0.0 
1.106135665007e-03 2.293363587516e-03 0.0 
1.767847252354e-03 1.066302596278e-02 0.0 
1.686755885103e-03 1.022309573044e-02 0.0 
3.308612297291e-03 3.216547605963e-03 0.0 
1.593180679308e-03 9.770094652341e-03 0.0 
3.176189286851e-03 4.067514871841e-03 0.0 
3.486356076409e-03 5.123659327601e-03 0.0 
3.027673905588e-03 2.212477819926e-03 0.0 
1.830294474295e-03 2.352144911655e-03 0.0 
3.247164224526e-03 2.963922778553e-03 0.0 
4.067602122848e-04 2.837812098801e-03 0.0 
8.982578443423e-04 2.193552534531e-03 0.0 
1.137902193316e-03 2.187757530154e-04 0.0 
1.719397663303e-03 1.291959041657e-03 0.0 
2.525090715834e-03 1.193643897508e-03 0.0 
6.620284162614e-04 3.450429008918e-03 0.0 
3.110959313471e-03 2.450185017102e-03 0.0 
7.716992299004e-04 1.614570255534e-04 0.0 
6.504521014977e-04 3.896729338096e-03 0.0 
8.677660034490e-04 3.992766374294e-03 0.0 
2.668752069778e-03 1.725009076117e-03 0.0 
3.357316263146e-03 3.553134006660e-03 0.0 
1.814448779980e-03 2.574786041968e-03 0.0 
2.252551335914e-03 5.776496595968e-03 0.0 
1.722620211254e-03 2.003855202674e-03 0.0 
2.423595861166e-03 3.728304996318e-03 0.0 
3.293274883281e-03 7.784424100125e-03 0.0 
2.915865025011e-03 6.031735276204e-03 0.0 
5.994727813224e-04 1.248797198415e-04 0.0 
8.447948419934e-04 4.447091636913e-03 0.0 
3.293974368652e-03 3.249972028071e-03 0.0 
2.654398428809e-03 4.887363832812e-03 0.0 
2.074188701744e-03 1.202490357141e-03 0.0 
4.412124835892e-04 3.309293510739e-03 0.0 
1.537992039991e-03 2.267966990826e-03 0.0 
1.026116731527e-03 5.931712581234e-03 0.0 
1.692971946204e-03 7.409979661093e-04 0.0 
3.111596101053e-03 2.449550028797e-03 0.0 
2.035733010731e-03 1.113590391906e-03 0.0 
3.286788974130e-03 5.566023154295e-03 0.0 
4.366553687055e-04 2.443533219563e-03 0.0 
1.223607463356e-03 1.866029272252e-03 0.0 
2.876019479951e-03 1.975794155934e-03 0.0 
2.171887149341e-03 3.576198850508e-03 0.0 
2.071314006899e-03 2.268272701690e-03 0.0 
3.210323570249e-03 4.677699176289e-03 0.0 
3.387208242745e-03 3.885907807212e-03 0.0 
2.808089917839e-03 1.932999359545e-03 0.0 
1.708736157225e-03 6.447357792369e-04 0.0 
2.057082757173e-03 3.133884744555e-03 0.0 
3.023624449780e-03 2.217969829052e-03 0.0 
1.780179797304e-03 5.492902793385e-03 0.0 
5.493641717060e-04 1.088944865951e-04 0.0 
1.835683071265e-03 4.998153890138e-03 0.0 
2.194766024411e-03 2.704750069818e-03 0.0 
1.711290255005e-03 5.982952059784e-03 0.0 
1.544033120447e-03 6.949261194068e-03 0.0 
2.315012688986e-03 5.240442182738e-03 0.0 
1.954426960727e-03 1.404840223317e-03 0.0 
1.086094564247e-03 2.335767887044e-04 0.0 
9.315522604988e-04 4.946124669947e-03 0.0 
4.870940993069e-04 2.070845533432e-03 0.0 
1.631434379113e-03 6.467974584601e-03 0.0 
3.178414762551e-03 3.817547930348e-03 0.0 
1.845321371136e-03 1.991187229420e-03 0.0 
3.325276788117e-04 2.339200228884e-03 0.0 
3.402030264122e-03 4.834396311655e-03 0.0 
3.300589470285e-03 4.890534745234e-03 0.0 
3.271070408983e-03 3.538893347515e-03 0.0 
9.663128128422e-04 4.487618149732e-03 0.0 
2.965074984577e-03 8.592074520819e-03 0.0 
3.087771028621e-03 3.687014043658e-03 0.0 
3.058172696615e-03 8.365978090872e-03 0.0 
2.354893978316e-03 1.809329464458e-03 0.0 
1.373601183223e-03 1.375602195701e-03 0.0 
3.170928160895e-03 2.929523812734e-03 0.0 
1.022195839576e-03 3.345836034241e-03 0.0 
6.104009575223e-04 2.123279960171e-03 0.0 
2.848315847996e-03 8.430313484984e-03 0.0 
2.668699441116e-03 1.417066807329e-03 0.0 
1.636361549421e-03 1.654540491145e-03 0.0 
9.952796664185e-04 4.965731406862e-03 0.0 
1.289163970891e-03 3.041584028496e-04 0.0 
3.493247633723e-03 4.900765304664e-03 0.0 
6.668174141793e-04 3.168562955233e-03 0.0 
3.947013134491e-04 8.576959176084e-05 0.0 
2.974010105394e-03 5.404393208665e-03 0.0 
2.707186175142e-03 2.498429340692e-03 0.0 
1.640702867618e-03 2.177540653785e-03 0.0 
2.177297814828e-05 3.291030581255e-03 0.0 
1.363589022371e-03 3.521611391955e-04 0.0 
3.183118603069e-03 6.429483655247e-03 0.0 
1.093899826336e-03 5.946602976987e-03 0.0 
1.365119916332e-03 1.031625021146e-04 0.0 
3.253160230525e-03 3.236970531735e-03 0.0 
7.147747084286e-04 1.392109116026e-04 0.0 
3.144991485727e-03 4.261716464714e-03 0.0 
3.192314838096e-03 3.500228874933e-03 0.0 
2.859783143489e-03 5.092832666660e-03 0.0 
6.026086394618e-04 2.710718431133e-03 0.0 
2.404545912274e-03 3.580284195983e-03 0.0 
2.342900544410e-03 1.703088794134e-03 0.0 
9.482341803607e-04 1.518011777226e-03 0.0 
2.083386395927e-03 2.848584174117e-03 0.0 
2.738467002446e-03 3.552897415665e-03 0.0 
1.060783165095e-03 1.809600521494e-04 0.0 
2.862867171795e-04 1.881151794505e-03 0.0 
9.272195911806e-04 6.478256503934e-04 0.0 
2.164837298528e-03 1.652534201196e-03 0.0 
3.448746440285e-03 4.180203979589e-03 0.0 
2.662509656027e-03 4.328349138999e-03 0.0 
4.492160081804e-04 8.208813154578e-05 0.0 
3.211739264521e-04 -2.952633914933e-04 0.0 
2.282957592413e-03 3.172687167774e-03 0.0 
8.878128382365e-04 5.407404807314e-03 0.0 
8.942940571767e-04 1.801017136349e-04 0.0 
1.288771343209e-03 3.555917190570e-04 0.0 
2.462829291218e-04 9.301421839873e-03 0.0 
1.641795352507e-04 9.302006144659e-03 0.0 
1.665664861061e-03 5.033623407145e-03 0.0 
2.574681322610e-03 3.900168349712e-03 0.0 
1.184044583124e-03 4.492028927127e-05 0.0 
2.182418654265e-03 4.838881817423e-03 0.0 
3.273969929784e-03 4.254057888582e-03 0.0 
1.455244216242e-03 7.312748744872e-04 0.0 
3.474862198450e-03 4.496918222667e-03 0.0 
1.191245604543e-04 5.048948028752e-04 0.0 
1.587028810210e-03 7.919094810791e-03 0.0 
3.333038028695e-03 4.661095050399e-03 0.0 
1.469448882204e-03 1.653467963759e-04 0.0 
2.751705099871e-03 4.331581698684e-03 0.0 
1.566404181428e-03 1.443490095163e-04 0.0 
2.804327818844e-03 4.644019074727e-03 0.0 
2.728533631116e-03 5.819293557436e-03 0.0 
1.081826949365e-03 5.462073275973e-03 0.0 
2.121702778046e-03 4.381700163246e-03 0.0 
1.964907049563e-03 3.983582706070e-03 0.0 
9.299674951008e-05 -8.515759698584e-04 0.0 
1.506856908551e-03 8.217901630814e-05 0.0 
2.947091617842e-03 8.249218155201e-03 0.0 
2.046009789751e-03 5.403386455444e-03 0.0 
1.922852553376e-03 4.970110686982e-03 0.0 
1.739267330890e-03 1.123821016086e-03 0.0 
2.367638440795e-05 -8.178598145339e-04 0.0 
1.674405766714e-03 2.577066635207e-03 0.0 
3.143547127948e-03 5.520087450661e-03 0.0 
1.396769503567e-03 6.404790612995e-06 0.0 
1.761298803608e-03 1.021022466119e-02 0.0 
1.668543950153e-03 9.765103008873e-03 0.0 
1.151309155714e-03 5.475688216166e-03 0.0 
2.212214015014e-03 6.692717271760e-03 0.0 
1.333468338242e-03 5.120079246082e-05 0.0 
2.128760293880e-03 1.087276948112e-03 0.0 
1.784642485885e-03 2.979591064618e-03 0.0 
7.062954242988e-04 7.477382286861e-04 0.0 
5.690624559061e-04 2.963117684743e-03 0.0 
1.079859517079e-03 -1.111468062307e-04 0.0 
9.461423831684e-04 1.667321534177e-04 0.0 
1.297128914074e-04 -7.896293953293e-04 0.0 
2.177851733870e-03 1.028669002917e-03 0.0 
3.044663531171e-03 5.240563682705e-03 0.0 
9.925816632821e-05 -8.330913793491e-04 0.0 
5.255746457137e-04 2.934876355937e-03 0.0 
1.593802346462e-03 3.245689033155e-03 0.0 
2.136196159147e-03 5.358699123641e-03 0.0 
2.814720966332e-03 5.693790019186e-03 0.0 
2.739217368468e-03 1.565074695865e-03 0.0 
2.185235231941e-03 8.202388266923e-04 0.0 
5.163072702092e-04 2.515386705944e-03 0.0 
2.022002135029e-03 7.471747055891e-04 0.0 
3.163861691256e-03 4.876371293636e-03 0.0 
3.204957563921e-03 5.322424923819e-03 0.0 
-9.444340276556e-04 1.061129429721e-02 0.0 
1.275925849283e-03 3.075128201984e-03 0.0 
1.984047338974e-03 2.408750678808e-03 0.0 
1.469272079478e-03 6.467351896332e-03 0.0 
1.806042026915e-03 2.051992101464e-03 0.0 
3.199074586717e-03 6.940592499996e-03 0.0 
1.197574852567e-03 3.603022438521e-03 0.0 
1.695672890662e-03 2.133228025520e-03 0.0 
1.720615449474e-03 9.296585235984e-03 0.0 
1.931100142288e-03 2.468108555151e-03 0.0 
8.745393582130e-04 1.372159741422e-04 0.0 
2.791688779731e-03 4.082180643694e-03 0.0 
1.506857362768e-03 1.271599948124e-04 0.0 
1.546081047650e-03 1.824712678871e-04 0.0 
6.572529484467e-04 2.146177427674e-03 0.0 
2.294103468786e-03 8.798305931811e-04 0.0 
2.782497173418e-03 5.225750695930e-03 0.0 
3.285911707750e-03 3.574195627854e-03 0.0 
1.804860283810e-03 6.603804890777e-04 0.0 
3.417275062918e-03 4.573705637559e-03 0.0 
2.807430265795e-03 3.262756691747e-03 0.0 
2.848703025227e-03 1.816681938218e-03 0.0 
3.058285501558e-03 3.750360093412e-03 0.0 
2.096217199793e-03 4.892958598193e-03 0.0 
2.961140752949e-03 3.361793933724e-03 0.0 
2.403722442080e-03 5.169035660956e-03 0.0 
1.950973575945e-03 1.331089905920e-03 0.0 
2.149390479840e-03 1.472543213476e-03 0.0 
3.461872808690e-03 4.703068998325e-03 0.0 
1.235601038610e-03 5.967053028707e-03 0.0 
7.657665107495e-04 1.283394204087e-04 0.0 
7.001347198186e-04 1.059462554104e-04 0.0 
1.622277944010e-03 7.103517958369e-03 0.0 
2.352597221904e-03 4.708452811837e-03 0.0 
4.356501163716e-04 9.626516218387e-05 0.0 
2.402186182354e-03 1.099055244833e-02 0.0 
1.056003923633e-03 -4.997435537439e-05 0.0 
-2.705710907485e-04 1.074586939346e-02 0.0 
5.990343078813e-04 1.008325133579e-04 0.0 
2.842689998554e-03 3.984196686033e-03 0.0 
2.657719076641e-04 -2.646183979197e-04 0.0 
2.705955049251e-03 2.639650158375e-03 0.0 
1.309844761768e-03 5.975967592652e-03 0.0 
1.390775502278e-03 6.462295693911e-03 0.0 
2.996965082110e-03 4.792668993394e-03 0.0 
1.912159352250e-03 1.105190922571e-02 0.0 
1.843623259813e-03 1.064115305015e-02 0.0 
5.398349472783e-04 8.452172873161e-05 0.0 
2.154900584461e-03 8.370023664872e-04 0.0 
2.684536524545e-03 1.448720241855e-03 0.0 
2.242027688064e-03 1.132137870351e-03 0.0 
2.953490865815e-03 2.006983795178e-03 0.0 
3.008798010511e-03 4.082622121803e-03 0.0 
1.838812516546e-03 1.108731125336e-02 0.0 
1.526796842438e-03 7.445355775955e-03 0.0 
2.073488652854e-04 9.589027972030e-03 0.0 
2.132091249835e-03 1.383328683301e-03 0.0 
3.457396195825e-03 4.412168785076e-03 0.0 
1.219756112755e-03 8.578904565975e-04 0.0 
2.330890668069e-04 2.686221005524e-05 0.0 
2.948804622425e-03 2.013110792609e-03 0.0 
3.635895053406e-04 8.994910911066e-05 0.0 
2.887361490913e-03 2.742117022317e-03 0.0 
1.467073722143e-03 1.147328667914e-03 0.0 
3.054752806221e-03 4.626139131168e-03 0.0 
2.744083915974e-03 3.547838209556e-03 0.0 
1.543838171292e-03 6.877066251061e-04 0.0 
1.613573686708e-03 1.840690463259e-04 0.0 
2.573786124127e-03 4.993442029803e-03 0.0 
2.863909724649e-03 1.799768053180e-03 0.0 
2.615697533521e-03 5.457332431171e-03 0.0 
3.296973897959e-03 6.893898945288e-03 0.0 
2.656694181027e-03 3.045693350997e-03 0.0 
2.840660208614e-03 1.768975521423e-03 0.0 
1.285033003104e-03 9.563432375158e-05 0.0 
2.527547585368e-03 5.554241026741e-03 0.0 
-2.491958465655e-04 7.636815462532e-03 0.0 
3.100225499835e-03 3.114141585159e-03 0.0 
8.882363641478e-04 1.004309661404e-02 0.0 
2.959878405779e-04 -6.554753836325e-04 0.0 
1.158615123287e-03 -4.136988879010e-06 0.0 
1.890437369534e-03 3.019121338228e-03 0.0 
1.464541751933e-03 5.996487587778e-03 0.0 
2.002699534635e-03 1.180768404852e-02 0.0 
6.158972128876e-05 2.456116750593e-04 0.0 
-1.281640025872e-03 9.303777504284e-03 0.0 
1.967180392241e-03 1.144118691782e-02 0.0 
2.588999154938e-03 1.305791751623e-03 0.0 
9.168033606946e-04 -1.423520377388e-04 0.0 
2.179160062305e-03 9.592989192826e-03 0.0 
2.559420160985e-03 1.678254854160e-03 0.0 
2.295699638273e-03 9.127047092102e-04 0.0 
2.870856331688e-03 4.507684927421e-03 0.0 
2.853279991283e-03 2.656500507999e-03 0.0 
1.361481418233e-03 2.742737816619e-03 0.0 
1.898819330985e-03 6.537123254711e-03 0.0 
1.185335499628e-03 -6.053960121002e-05 0.0 
8.537180356342e-04 -1.267689339189e-04 0.0 
1.046354040469e-03 -2.133950123913e-04 0.0 
1.614896192870e-03 8.834461989768e-03 0.0 
1.544931253669e-03 5.999660458274e-03 0.0 
8.462362208292e-05 -5.043282004167e-05 0.0 
9.431393206444e-05 -8.164521703432e-04 0.0 
-3.501034103407e-04 3.572934184194e-03 0.0 
6.964351736591e-04 -2.889766038176e-04 0.0 
7.534842591555e-04 -1.585723433412e-04 0.0 
3.001036916083e-03 2.579232940897e-03 0.0 
2.546262530223e-03 1.841864210109e-03 0.0 
2.697693734755e-03 2.886500720244e-03 0.0 
9.841950796519e-04 -4.170083177920e-05 0.0 
1.583089376447e-03 5.037840350957e-03 0.0 
6.889465723089e-04 -1.380238088977e-04 0.0 
3.099220372129e-03 2.884406688988e-03 0.0 
2.434510955798e-03 4.629767776253e-03 0.0 
9.489419755422e-04 7.907757564991e-03 0.0 
2.348083121830e-03 2.121507377046e-03 0.0 
5.914436070161e-04 -1.624749154913e-04 0.0 
8.849706139310e-04 -7.797260815346e-05 0.0 
2.010497167593e-03 1.245613498352e-02 0.0 
2.876964098323e-03 2.087224353614e-03 0.0 
5.249898028841e-04 -1.384531246202e-04 0.0 
3.535011393437e-05 5.831946961851e-03 0.0 
3.952386928952e-05 6.795845741897e-03 0.0 
2.016739422014e-03 1.215142638441e-02 0.0 
8.127080570265e-04 -6.389113609422e-05 0.0 
2.186644283945e-03 1.121017464849e-03 0.0 
1.713261887194e-03 1.013791184383e-02 0.0 
1.475043070092e-03 1.099100488321e-03 0.0 
7.484501002998e-04 -3.175584088709e-05 0.0 
2.201294945921e-03 1.013185701705e-03 0.0 
3.205544293930e-03 3.451462907033e-03 0.0 
1.932456582530e-03 1.187369480935e-02 0.0 
4.292626516838e-04 -1.566278296621e-04 0.0 
6.182961014098e-05 -7.364701517376e-04 0.0 
1.567416517654e-03 8.385849163911e-03 0.0 
7.169177918830e-04 -9.213892741609e-05 0.0 
2.565085264685e-03 1.242605396944e-03 0.0 
1.227951965176e-03 -5.384664052478e-06 0.0 
-2.834419693256e-05 6.197707150578e-03 0.0 
4.262407867780e-05 3.001308158786e-03 0.0 
2.539515351936e-03 1.383870466463e-03 0.0 
1.685659930701e-03 9.350500785895e-04 0.0 
2.785926266584e-03 3.416915383800e-03 0.0 
6.457025537514e-04 -7.371026327133e-05 0.0 
5.512775300453e-04 -9.557335388187e-05 0.0 
2.900222859021e-03 2.508190378501e-03 0.0 
4.019251954930e-04 1.601500635768e-04 0.0 
1.447326284321e-04 6.992789672939e-03 0.0 
4.805234086231e-04 -7.403943027157e-05 0.0 
1.589505285497e-03 7.492961013932e-04 0.0 
1.833384543261e-03 5.636676581882e-04 0.0 
2.359822373058e-03 4.181501442899e-03 0.0 
2.427130037931e-03 1.123565889345e-02 0.0 
2.203171592591e-03 4.322677679442e-03 0.0 
6.132355457054e-04 2.120355583138e-04 0.0 
-1.283446630390e-03 3.841512926431e-03 0.0 
6.118021304469e-06 2.626776515176e-04 0.0 
1.776579578100e-05 1.236661028026e-05 0.0 
2.518074469207e-05 8.326052901659e-03 0.0 
2.185588976316e-03 8.201934064958e-04 0.0 
2.846549393336e-03 3.946767832897e-03 0.0 
3.102696870872e-03 3.153188935407e-03 0.0 
2.460910139055e-04 -6.363464382979e-04 0.0 
-8.664022517143e-04 9.527443238319e-03 0.0 
1.736465330183e-04 2.164320590898e-03 0.0 
1.610871824105e-03 5.513541373549e-03 0.0 
1.572939128740e-03 9.302866178825e-03 0.0 
3.661210150554e-04 3.423106783554e-04 0.0 
5.184949931934e-05 -7.921732204705e-04 0.0 
3.621718609101e-04 3.089085252787e-04 0.0 
1.529522605604e-03 5.520992305914e-03 0.0 
1.832223641929e-03 3.821848090385e-04 0.0 
2.983504669404e-03 4.205742254398e-03 0.0 
2.081170833094e-03 7.397036133809e-04 0.0 
1.994373893727e-03 1.074786301869e-02 0.0 
1.846134269303e-03 4.973703417069e-04 0.0 
1.623229466956e-03 4.559962532326e-03 0.0 
2.322090694309e-04 4.311003764027e-05 0.0 
2.438476201979e-03 1.304993645187e-03 0.0 
2.119240505947e-03 3.878593392376e-03 0.0 
-1.029688053640e-03 3.365295851665e-03 0.0 
2.786451477896e-03 2.018265184065e-03 0.0 
1.261291684893e-03 4.074677248984e-03 0.0 
1.504228457761e-03 1.077394055654e-04 0.0 
1.583571306793e-03 3.237856488263e-04 0.0 
3.027281469917e-03 4.039991705291e-03 0.0 
1.136261184647e-03 1.396172872225e-03 0.0 
1.909428270799e-03 1.297607941070e-02 0.0 
1.964521535200e-03 1.276712677406e-02 0.0 
1.369520504330e-03 6.625566426793e-05 0.0 
2.493906351707e-03 1.154475255620e-03 0.0 
3.363828088672e-03 4.179446163345e-03 0.0 
2.193977552519e-03 3.816102191417e-03 0.0 
8.251033720077e-04 1.762575979641e-03 0.0 
1.943767794026e-03 1.256820098460e-02 0.0 
6.464525381246e-05 4.832127657723e-03 0.0 
1.059157444877e-03 1.507565140980e-03 0.0 
2.991652046718e-03 3.081941831134e-03 0.0 
8.584356689454e-04 1.085978438210e-02 0.0 
2.494767422473e-03 1.082755099170e-02 0.0 
2.381600957918e-03 9.751362185505e-04 0.0 
1.887362327872e-03 4.026253243568e-03 0.0 
2.485829544883e-03 1.122942335467e-03 0.0 
1.174381090229e-03 6.209269843254e-03 0.0 
2.367253532560e-03 1.054210490518e-03 0.0 
2.195673142373e-03 1.117449170929e-02 0.0 
3.361426860765e-03 3.930214252959e-03 0.0 
2.391273934229e-03 1.039543254733e-03 0.0 
2.932168544458e-03 3.650094458035e-03 0.0 
2.488933904633e-04 6.016873957800e-03 0.0 
1.266713281776e-03 -4.409253879415e-05 0.0 
1.348514291836e-03 9.318004334296e-03 0.0 
2.241344589124e-03 9.441354847897e-04 0.0 
2.315838054986e-03 1.144295588226e-02 0.0 
-3.423638808108e-04 4.008260239491e-03 0.0 
1.570346925968e-05 1.966944647615e-03 0.0 
2.141441109576e-05 2.930078576321e-03 0.0 
-2.002392321709e-05 6.853198973391e-05 0.0 
2.184914833521e-03 9.427037063241e-04 0.0 
8.826189687057e-04 -2.569684199038e-04 0.0 
9.262323786618e-04 -2.793692474892e-04 0.0 
1.822144802156e-03 3.064444023067e-03 0.0 
2.961460302037e-03 3.491318389274e-03 0.0 
2.085450868976e-03 3.385956310311e-03 0.0 
2.672914423552e-03 1.763290374044e-03 0.0 
4.733245261603e-04 9.630437458054e-03 0.0 
4.541529906090e-04 1.441383910184e-04 0.0 
7.583068433108e-04 -3.175817440680e-04 0.0 
1.909809783479e-03 1.112993121246e-03 0.0 
3.289515190964e-03 4.033099675624e-03 0.0 
1.541149379002e-04 -8.128507281497e-04 0.0 
1.874778324863e-03 4.510912238501e-03 0.0 
2.981682992040e-03 2.353415699097e-03 0.0 
2.595857899897e-04 4.880413282122e-04 0.0 
2.663661629446e-03 2.122048513079e-03 0.0 
4.505408868719e-05 -8.005357732674e-05 0.0 
1.705981221258e-03 4.548406605941e-03 0.0 
6.473265178590e-04 2.454902648364e-05 0.0 
1.788787039995e-04 -2.826183617770e-04 0.0 
1.869556613186e-03 3.539737025999e-03 0.0 
2.143724359154e-03 1.916600283228e-03 0.0 
1.605887239495e-03 2.713381390523e-04 0.0 
1.263471816729e-04 -7.268118197013e-04 0.0 
3.206746549237e-03 3.661135044415e-03 0.0 
1.869653316175e-05 6.335856212945e-03 0.0 
2.495744196647e-04 8.571593882552e-04 0.0 
7.949547374278e-04 9.917892996809e-04 0.0 
4.347441990652e-04 1.045032841583e-03 0.0 
8.702747726815e-05 7.675031801046e-03 0.0 
2.828336953866e-04 1.485033842285e-03 0.0 
4.914324387005e-04 9.476719258408e-04 0.0 
2.655027777198e-03 1.602511839093e-03 0.0 
2.319456888106e-03 1.100885559743e-03 0.0 
8.877462435538e-04 4.900482370451e-04 0.0 
-1.093896339766e-03 4.356804046364e-03 0.0 
2.817311491139e-05 -7.675905051401e-04 0.0 
1.323043061988e-04 -2.535400576698e-04 0.0 
1.495640321376e-03 1.452438124930e-04 0.0 
2.306824388825e-03 1.342323175633e-03 0.0 
1.669830928273e-03 1.320267144505e-02 0.0 
1.812489710457e-03 1.313343352454e-02 0.0 
8.135340240145e-04 7.835866293376e-03 0.0 
2.790356314551e-03 2.213413967151e-03 0.0 
3.435996660800e-04 -6.638804175426e-04 0.0 
2.316743970022e-03 2.453963763264e-03 0.0 
1.635789769917e-04 4.889367276996e-05 0.0 
2.086129903070e-04 6.410842249998e-05 0.0 
2.304290699321e-03 9.933936935931e-04 0.0 
1.057272092525e-03 8.444769892604e-03 0.0 
-6.386092569538e-04 3.297519906598e-03 0.0 
1.197503458184e-03 1.275702756870e-02 0.0 
9.993573724257e-04 1.574358242897e-03 0.0 
1.505263912659e-03 1.304768877613e-02 0.0 
3.102783029826e-03 3.501592429190e-03 0.0 
1.950220427287e-03 7.327947236000e-04 0.0 
2.440494364674e-03 1.438599497933e-03 0.0 
1.299994080584e-04 2.221532483862e-03 0.0 
4.862772805684e-05 2.652656146853e-03 0.0 
2.081710613913e-03 8.252040424404e-04 0.0 
1.511232784699e-04 2.114994109732e-03 0.0 
1.294718356062e-04 3.516320559669e-03 0.0 
1.831863042626e-05 5.801638956938e-04 0.0 
3.976245854195e-05 2.230388857420e-05 0.0 
4.600808081984e-05 7.783845593543e-03 0.0 
1.962430372510e-03 5.809969780593e-04 0.0 
1.840950728829e-03 1.316784970557e-02 0.0 
1.949421434307e-03 5.155761311896e-04 0.0 
6.381827854734e-05 1.906070052204e-05 0.0 
2.684534992843e-04 1.165699270282e-02 0.0 
7.715173813483e-04 1.228073404163e-02 0.0 
1.739909785601e-03 1.071168332537e-03 0.0 
7.947640890239e-04 8.713083625212e-03 0.0 
9.129422837279e-05 2.024948366604e-03 0.0 
1.942421255026e-03 3.493770196110e-03 0.0 
1.692007373238e-03 1.477015201367e-03 0.0 
1.474734947272e-03 3.178327814480e-03 0.0 
2.949394171943e-04 7.448079606780e-03 0.0 
1.338336463780e-03 1.061646522967e-04 0.0 
1.442140348124e-03 2.376003102958e-04 0.0 
8.132426532186e-05 5.313308723253e-03 0.0 
1.920290345992e-03 1.790077572888e-03 0.0 
1.378033048211e-03 9.192065865989e-03 0.0 
1.608433310378e-04 8.749851540552e-03 0.0 
1.905436306047e-04 7.896622067350e-03 0.0 
3.391917017459e-04 7.563370427001e-03 0.0 
8.745213069393e-04 2.485016852349e-03 0.0 
1.197952114443e-03 2.562587431889e-05 0.0 
1.316991456881e-04 1.296271057195e-03 0.0 
3.218961995849e-04 6.534014660811e-03 0.0 
6.620728795272e-04 4.377217402319e-04 0.0 
9.112209617172e-04 1.854635962531e-03 0.0 
1.957956601884e-03 4.478447481515e-03 0.0 
4.200120824242e-04 2.054899667784e-03 0.0 
5.676529348885e-04 -4.419484423716e-04 0.0 
5.366383562082e-04 -5.159404456218e-04 0.0 
7.681313946902e-04 2.424400112321e-04 0.0 
-2.607896949175e-04 2.199925498083e-03 0.0 
1.501391777427e-04 -7.464435175654e-04 0.0 
1.800638334368e-04 1.603678359158e-04 0.0 
2.726752026374e-05 -8.699219007036e-04 0.0 
1.978672333713e-04 8.458315723983e-03 0.0 
1.235214133985e-03 6.200596600269e-04 0.0 
1.514622005394e-04 -3.642446671991e-04 0.0 
2.819994116577e-05 -6.618269955453e-04 0.0 
7.882217668760e-05 5.036351581863e-04 0.0 
7.007202115774e-04 9.354346464248e-03 0.0 
1.931831745123e-04 1.404902279093e-03 0.0 
1.164794884286e-03 6.526288423662e-04 0.0 
6.063082589316e-04 9.359473494750e-03 0.0 
-6.468367607691e-04 4.403344486239e-03 0.0 
3.196292878151e-05 1.086532110261e-03 0.0 
2.724477323124e-04 -6.960079486589e-04 0.0 
2.171173705855e-04 1.829344378132e-03 0.0 
5.114156605917e-05 1.599946391061e-05 0.0 
7.341060450325e-04 1.786797808973e-03 0.0 
1.400099869371e-03 2.440189945952e-03 0.0 
1.160258994484e-03 7.810094887495e-03 0.0 
3.441460320212e-04 -4.929853606087e-04 0.0 
2.331566229539e-03 2.345898617722e-03 0.0 
3.459612532919e-04 2.289907131772e-04 0.0 
7.662482449871e-05 4.342135379106e-03 0.0 
3.514897298377e-04 2.120334422062e-04 0.0 
2.377399784308e-04 2.589601004423e-03 0.0 
3.015196155598e-04 8.209550285667e-05 0.0 
1.488164132760e-03 1.841924813057e-03 0.0 
1.242630456331e-04 -8.334949562488e-04 0.0 
7.344305515970e-04 3.177417161923e-04 0.0 
3.391167047225e-04 1.240443615094e-03 0.0 
1.718943711823e-04 9.916060972560e-04 0.0 
4.475081336309e-04 8.633452679507e-03 0.0 
1.449783411863e-03 7.402616019895e-03 0.0 
2.027664473999e-03 1.012454608676e-02 0.0 
5.905526923725e-04 1.095746928942e-03 0.0 
2.694856023511e-04 -6.075467306330e-04 0.0 
9.201593464911e-04 7.439641151034e-03 0.0 
2.138282219174e-03 2.017587613992e-03 0.0 
3.736632879729e-04 9.638372522317e-03 0.0 
4.596587524807e-04 1.702640554664e-03 0.0 
2.579412300582e-06 5.509623836489e-04 0.0 
2.579412300582e-06 2.326177882298e-04 0.0 
-6.490429955145e-07 -9.014873384680e-04 0.0 
1.257084392167e-06 -9.032282474706e-04 0.0 
1.991112300335e-05 9.287217746187e-03 0.0 
4.759516740368e-05 9.623126358888e-03 0.0 
6.904574483838e-06 9.517401816043e-06 0.0 
6.904574483838e-06 2.076177797942e-05 0.0 
1.108752127608e-05 -8.952452836409e-04 0.0 
-9.050780309884e-04 2.551604585954e-03 0.0 
3.085061857644e-04 7.637503321907e-05 0.0 
1.368855458609e-03 1.446779402508e-03 0.0 
2.706763380650e-04 -7.389360493119e-04 0.0 
4.925383637042e-04 1.299598955611e-04 0.0 
7.849675230773e-05 -1.884729542635e-04 0.0 
8.140446405976e-05 -3.462886976637e-04 0.0 
2.174903240321e-04 6.155998448568e-03 0.0 
8.270139434517e-04 1.007148862056e-03 0.0 
2.680901579907e-03 2.915724519483e-03 0.0 
2.149469770125e-04 -7.275492620729e-04 0.0 
4.814594119470e-04 -3.817218067298e-04 0.0 
7.947095672314e-04 1.511820468142e-03 0.0 
9.113828908770e-06 2.428546572697e-03 0.0 
1.571610670225e-04 -3.330208002515e-04 0.0 
1.428290047972e-04 7.137493863979e-03 0.0 
1.221180746182e-03 1.534176543544e-03 0.0 
1.427229977429e-03 2.747402750851e-03 0.0 
1.722607158932e-03 3.605828028680e-03 0.0 
5.159521679721e-04 9.320069157002e-03 0.0 
2.853404140077e-03 2.975500032331e-03 0.0 
5.783939694490e-04 1.761328543926e-03 0.0 
2.177357869700e-04 -7.269005107680e-04 0.0 
-7.676464288809e-05 -4.652703231931e-05 0.0 
1.434888778071e-03 1.894227685818e-03 0.0 
1.934316800650e-03 1.189222692196e-03 0.0 
6.297190524139e-04 1.062942488941e-03 0.0 
1.128021354011e-04 5.417508236743e-03 0.0 
1.719380115992e-04 5.374321794074e-05 0.0 
1.534914541018e-03 1.808400617709e-03 0.0 
1.284747899793e-03 1.476411215800e-03 0.0 
9.436863583295e-05 -1.165501259199e-04 0.0 
-4.782872809113e-04 6.036730591800e-03 0.0 
1.612677438815e-03 1.350390182450e-02 0.0 
2.392772081604e-03 1.098515231050e-02 0.0 
1.211194571211e-03 7.502833020966e-03 0.0 
2.839425423043e-03 3.128170483526e-03 0.0 
1.703621496381e-04 1.769722137437e-03 0.0 
7.551208221382e-04 4.305111285871e-04 0.0 
1.349847526530e-04 6.657575823856e-04 0.0 
1.343004603337e-04 7.047973512921e-05 0.0 
1.174949006178e-03 1.327460840394e-02 0.0 
1.838628363668e-04 4.972724781357e-03 0.0 
4.012789416556e-04 -6.183071573158e-04 0.0 
3.884502752759e-04 1.667150238919e-03 0.0 
1.572004132678e-04 -8.165610751294e-04 0.0 
1.281679039153e-03 7.819694402166e-04 0.0 
7.512409407632e-04 7.756564802975e-03 0.0 
7.430434289586e-04 6.014135970882e-04 0.0 
2.107973122221e-03 2.199433962125e-03 0.0 
1.329604611057e-03 7.480913505923e-03 0.0 
6.489542932601e-04 2.419646009543e-04 0.0 
2.978043392371e-04 1.219416965743e-03 0.0 
2.635196001063e-05 1.271453622310e-03 0.0 
2.256470657335e-04 1.238161518751e-02 0.0 
3.838479911130e-04 2.011287510209e-03 0.0 
6.362019701697e-04 8.168629979341e-04 0.0 
1.335312868519e-03 7.847854580192e-04 0.0 
1.904803508556e-03 1.863858775480e-03 0.0 
8.631125620819e-05 2.583364691552e-05 0.0 
1.648086954657e-03 3.625431136210e-03 0.0 
-1.054055484566e-03 6.474100896795e-03 0.0 
1.329277214311e-03 8.516515535662e-03 0.0 
1.175425012505e-03 2.326206570695e-03 0.0 
1.092220208049e-03 6.892144302411e-03 0.0 
1.637361620358e-04 5.316135395297e-05 0.0 
1.659184571519e-03 1.596050776770e-03 0.0 
3.073782354450e-04 8.873596464365e-05 0.0 
1.585075327319e-04 3.988189481273e-03 0.0 
7.284079533651e-04 5.385126378316e-04 0.0 
8.226978637631e-04 2.872994341159e-04 0.0 
8.537630725608e-04 3.123978934721e-04 0.0 
2.955283904423e-04 -6.288281866473e-04 0.0 
1.410859993308e-04 4.212072637648e-05 0.0 
1.011668200764e-03 8.780606646325e-03 0.0 
1.103307336093e-04 2.051694279380e-03 0.0 
2.414660034332e-04 1.955981327479e-04 0.0 
7.280323876227e-05 2.844314872504e-03 0.0 
1.696692504788e-04 5.369237069802e-03 0.0 
1.513773792502e-05 -8.898076409821e-04 0.0 
1.192460091364e-03 2.672153544193e-03 0.0 
1.615003710744e-03 3.163389641183e-03 0.0 
1.404415147861e-04 1.061541370744e-03 0.0 
5.613686246617e-05 1.958176858352e-03 0.0 
9.510188903415e-04 6.995059012899e-04 0.0 
3.541225992385e-04 7.051121807807e-03 0.0 
-5.082332527399e-06 -4.168393329606e-04 0.0 
3.902693579253e-05 4.816863921881e-03 0.0 
6.764194040206e-05 -4.766049110916e-04 0.0 
3.778383065667e-04 1.922542062460e-05 0.0 
-1.203032744447e-03 7.495374426131e-03 0.0 
4.299851011718e-04 -4.208110879166e-04 0.0 
2.051284304206e-04 5.779333492918e-05 0.0 
7.124672468168e-04 1.842643314489e-03 0.0 
1.388523112673e-03 6.901465235587e-03 0.0 
6.017079161913e-04 -4.650914195230e-04 0.0 
7.550388658334e-04 2.273396792737e-04 0.0 
1.208956764340e-03 5.584929348907e-04 0.0 
8.751591526972e-04 7.471848513293e-04 0.0 
1.044444482453e-03 1.344747692244e-03 0.0 
1.290896736574e-03 2.333486520713e-03 0.0 
2.223683458221e-04 -2.734006617993e-05 0.0 
-3.725107445859e-05 2.891871915022e-03 0.0 
2.842874260274e-04 7.050521122077e-05 0.0 
3.553081200809e-05 -8.824876630620e-04 0.0 
8.715434396238e-06 -8.825158638271e-04 0.0 
-1.743187921052e-04 8.663997306332e-03 0.0 
1.567359192142e-04 -4.472396285959e-04 0.0 
4.983157623693e-04 1.793994854669e-04 0.0 
5.374584189173e-04 8.400745486767e-04 0.0 
1.531376210822e-04 1.765562550719e-03 0.0 
6.807700628895e-04 5.940603546749e-04 0.0 
1.436728926383e-03 6.869381016348e-04 0.0 
2.838758769112e-04 6.503780141023e-03 0.0 
3.579813228180e-05 2.106509751051e-04 0.0 
1.393561971361e-03 1.530781656664e-03 0.0 
6.577441005647e-04 9.675111543196e-03 0.0 
4.609932968916e-04 8.594184065588e-04 0.0 
6.508279427572e-05 -7.033895260506e-04 0.0 
9.938153432752e-05 3.174954800352e-05 0.0 
1.367188523524e-03 8.602483923956e-03 0.0 
1.288829635152e-04 -8.248295649706e-04 0.0 
3.017676254461e-04 -4.627770350463e-04 0.0 
6.105976618409e-04 1.018745186419e-03 0.0 
2.424749147735e-04 1.879197453137e-03 0.0 
2.870636995753e-04 9.684103484360e-04 0.0 
1.720216468967e-04 -6.882458692166e-04 0.0 
8.245516337066e-05 4.238915726564e-03 0.0 
4.055834303341e-04 1.155781646948e-04 0.0 
8.697433605050e-06 4.952954397474e-04 0.0 
2.467037026484e-05 2.188401209630e-05 0.0 
4.509186769542e-05 8.751212772358e-03 0.0 
1.072468591072e-03 5.093302751285e-04 0.0 
1.705431078597e-04 -8.008226069879e-04 0.0 
3.622079266227e-04 1.668836673886e-03 0.0 
5.439764115050e-05 -6.246537287615e-04 0.0 
5.621318740820e-04 2.331211142516e-04 0.0 
3.845234167268e-04 1.257733546428e-03 0.0 
-4.116598643133e-04 4.946120462104e-03 0.0 
1.592336480585e-03 1.786522569996e-03 0.0 
1.576394095603e-04 4.457479270125e-03 0.0 
9.390311074508e-05 1.003941375029e-03 0.0 
1.439467035639e-04 9.026992845194e-05 0.0 
6.722581030952e-05 5.814700229415e-03 0.0 
4.836038641488e-04 8.360178000806e-04 0.0 
4.938718501438e-04 1.711097984476e-03 0.0 
1.324409634985e-04 5.115022955732e-03 0.0 
8.039471190662e-04 1.384978393401e-03 0.0 
3.269354485887e-04 -5.647951322521e-04 0.0 
3.258426244184e-04 9.345140847240e-03 0.0 
1.154191859550e-03 1.090775169860e-03 0.0 
9.169052651491e-06 1.053370139874e-03 0.0 
2.759090359619e-06 -8.964173987534e-04 0.0 
8.838784220731e-05 9.338874076796e-03 0.0 
2.215561228826e-05 3.606797511390e-05 0.0 
3.112909924251e-04 -7.028573743404e-04 0.0 
1.285004975335e-03 6.978135871550e-04 0.0 
6.321113171434e-04 1.826772571741e-03 0.0 
1.107073775646e-04 1.301738741373e-03 0.0 
1.915758601001e-04 -7.958057484098e-04 0.0 
6.134647909546e-04 7.029778879400e-03 0.0 
3.333741540871e-05 -3.055686699457e-04 0.0 
6.214340122789e-05 3.467156302378e-03 0.0 
-1.180358777589e-03 2.943258427398e-03 0.0 
2.204482189077e-04 9.475018333282e-04 0.0 
1.214026105497e-04 6.002463140976e-03 0.0 
7.707171780364e-04 7.803357726298e-04 0.0 
2.309651995681e-04 6.711787725979e-03 0.0 
8.650099339161e-04 8.088748624422e-04 0.0 
6.251962057069e-05 -2.632224684262e-04 0.0 
-1.021369347029e-03 8.156402386931e-03 0.0 
3.751298100214e-04 -6.022778701078e-04 0.0 
4.345155455966e-04 -3.501611215999e-04 0.0 
2.918220516198e-05 -2.241094782698e-04 0.0 
1.235586063967e-03 9.577988870874e-04 0.0 
2.255509564122e-04 -3.942255472505e-04 0.0 
2.895081953422e-04 -3.343678790561e-04 0.0 
1.404307004419e-04 -5.720681001319e-04 0.0 
5.254228801742e-04 1.424240691080e-04 0.0 
1.395092807405e-03 1.941393348361e-03 0.0 
1.300719366239e-03 6.938666877014e-03 0.0 
1.528707395596e-05 9.977031959720e-04 0.0 
3.992140806926e-05 3.719020923078e-05 0.0 
8.588454249905e-05 8.802557381971e-03 0.0 
9.196769285953e-05 6.217140013952e-03 0.0 
3.106565219363e-04 -3.941780798254e-04 0.0 
3.469242065547e-04 -3.601422262763e-04 0.0 
2.123885395772e-04 -3.541253239569e-04 0.0 
1.553808095404e-03 9.146306680588e-04 0.0 
5.613704732621e-04 7.030070375988e-04 0.0 
1.164083232331e-03 1.596410407126e-03 0.0 
1.537464499159e-04 7.692912069008e-03 0.0 
2.675071084606e-04 1.234774853467e-03 0.0 
1.524065257676e-03 8.547419850613e-04 0.0 
2.718499920132e-04 6.905596467798e-03 0.0 
1.066910938216e-03 1.993983023831e-03 0.0 
1.200945571994e-03 9.709173810441e-04 0.0 
9.008463268815e-04 7.132841856764e-04 0.0 
-6.810086273307e-04 7.352886277166e-03 0.0 
1.116634103089e-03 1.996598039616e-03 0.0 
9.569248499064e-04 1.626100527783e-03 0.0 
1.240803290491e-04 -6.232565725786e-04 0.0 
3.467735502031e-04 -4.232862563358e-04 0.0 
-7.370232363119e-04 6.547883928795e-03 0.0 
8.811101962331e-04 1.618324546263e-03 0.0 
1.536295973206e-04 1.859798901897e-02 0.0 
1.756751448557e-04 1.826644590390e-02 0.0 
2.454189803373e-04 1.861258276777e-02 0.0 
2.635096246397e-04 1.828011362630e-02 0.0 
3.281720159621e-04 1.862181144327e-02 0.0 
3.497018768441e-04 1.828746296487e-02 0.0 
4.116986585168e-04 1.862690432439e-02 0.0 
4.337868776080e-04 1.829295797769e-02 0.0 
4.937693213391e-04 1.863157872007e-02 0.0 
5.149001394388e-04 1.829834036819e-02 0.0 
5.725061994849e-04 1.863617195266e-02 0.0 
5.919788814520e-04 1.830350922236e-02 0.0 
6.463677694385e-04 1.863998805846e-02 0.0 
6.639081022788e-04 1.830762763295e-02 0.0 
7.139999191999e-04 1.864193421985e-02 0.0 
7.295913125398e-04 1.830949632311e-02 0.0 
7.741556926471e-04 1.864065572864e-02 0.0 
7.879865536806e-04 1.830762384864e-02 0.0 
8.256718201084e-04 1.863451165093e-02 0.0 
8.381540593955e-04 1.830016444459e-02 0.0 
8.675155838737e-04 1.862145270000e-02 0.0 
8.793506873480e-04 1.828474101052e-02 0.0 
-1.349996544665e-03 1.317342643662e-02 0.0 
8.989455270024e-04 1.859873001999e-02 0.0 
9.111791422633e-04 1.825809120226e-02 0.0 
9.198293706135e-04 1.856226310490e-02 0.0 
-1.027555995900e-03 1.347922030992e-02 0.0 
9.336447125119e-04 1.821575451089e-02 0.0 
9.306458262866e-04 1.850800677620e-02 0.0 
9.471650956233e-04 1.815439956740e-02 0.0 
9.324366433083e-04 1.843341888188e-02 0.0 
9.525676158943e-04 1.807125879931e-02 0.0 
-1.988085656120e-03 1.331435154071e-02 0.0 
9.268909917548e-04 1.833549551502e-02 0.0 
9.511791849752e-04 1.796258391749e-02 0.0 
9.169844222064e-04 1.821033686820e-02 0.0 
9.449437448440e-04 1.782439060172e-02 0.0 
9.085437326736e-04 1.805466584814e-02 0.0 
9.366828519866e-04 1.765432853968e-02 0.0 
9.129530186741e-04 1.786839047378e-02 0.0 
9.289941497838e-04 1.745983378181e-02 0.0 
9.185268008852e-04 1.766213280843e-02 0.0 
8.918061453662e-04 1.725765164687e-02 0.0 
8.511792657817e-04 1.744370537984e-02 0.0 
7.564902403043e-04 1.704286679932e-02 0.0 
-9.522769270058e-04 1.234963706827e-02 0.0 
4.654225617552e-04 1.675316074619e-02 0.0 
6.054111115958e-04 1.718281985956e-02 0.0 
8.506419878387e-05 1.637476012900e-02 0.0 
1.983480539579e-04 1.681957726672e-02 0.0 
-5.723055955717e-04 1.575660168145e-02 0.0 
-5.284488853973e-04 1.634952410567e-02 0.0 
-1.030384379681e-03 1.471127003150e-02 0.0 
-1.360692434643e-03 1.552864132681e-02 0.0 
-1.672736703835e-03 1.439855149120e-02 0.0 
-1.590366038461e-03 1.249056217236e-02 0.0 
1.921394455271e-05 1.842104161434e-02 0.0 
9.546475330524e-05 1.842274125061e-02 0.0 
5.223172260134e-05 1.808318601890e-02 0.0 
6.244697525660e-05 1.876059684605e-02 0.0 
-1.662891106009e-03 1.167681608769e-02 0.0 
1.209828398902e-04 1.725205530144e-02 0.0 
1.569537495871e-04 1.759318942574e-02 0.0 
2.119922781103e-04 1.726582096101e-02 0.0 
2.488043176814e-04 1.760660829769e-02 0.0 
3.001523914109e-04 1.727619378980e-02 0.0 
3.363875592512e-04 1.761535064001e-02 0.0 
3.850125594723e-04 1.728399501441e-02 0.0 
4.204150961565e-04 1.762216099257e-02 0.0 
4.665807757110e-04 1.729122164755e-02 0.0 
5.010833752623e-04 1.762878028079e-02 0.0 
5.447322085777e-04 1.729836400674e-02 0.0 
5.780216547213e-04 1.763526136383e-02 0.0 
6.190794011360e-04 1.730496976589e-02 0.0 
6.505769607069e-04 1.764085719890e-02 0.0 
6.890822612364e-04 1.731006429240e-02 0.0 
7.180047961482e-04 1.764439682970e-02 0.0 
7.541626135057e-04 1.731230448653e-02 0.0 
7.795799909308e-04 1.764437209994e-02 0.0 
8.137898587351e-04 1.730997829724e-02 0.0 
8.346786607719e-04 1.763888283960e-02 0.0 
2.094101021209e-04 1.412488102577e-02 0.0 
8.675480994105e-04 1.730090631342e-02 0.0 
8.828586015084e-04 1.762547622893e-02 0.0 
9.151764046434e-04 1.728228067809e-02 0.0 
-2.077901496464e-04 1.422845430270e-02 0.0 
9.239021057438e-04 1.760090664195e-02 0.0 
9.565053997142e-04 1.725061986433e-02 0.0 
4.193532626088e-04 1.435884462234e-02 0.0 
9.575977781321e-04 1.756129583062e-02 0.0 
9.911806426922e-04 1.720224042323e-02 0.0 
9.837468464088e-04 1.750309189470e-02 0.0 
1.018927671074e-03 1.713401689261e-02 0.0 
1.002476892874e-03 1.742316448274e-02 0.0 
1.039531576556e-03 1.704279999194e-02 0.0 
1.013910492796e-03 1.731798271098e-02 0.0 
1.052223466678e-03 1.692529295893e-02 0.0 
1.017451481495e-03 1.718394789897e-02 0.0 
3.842605044895e-04 1.343755384350e-02 0.0 
1.054816883108e-03 1.677938301265e-02 0.0 
1.010448265770e-03 1.701948840693e-02 0.0 
1.042224264776e-03 1.660814435078e-02 0.0 
9.844999821025e-04 1.683442779155e-02 0.0 
9.233106383578e-04 1.664639169302e-02 0.0 
1.005537126195e-03 1.642546686432e-02 0.0 
8.086140538681e-04 1.644798296902e-02 0.0 
9.348075723372e-04 1.623756159569e-02 0.0 
6.332520239585e-04 1.617583439706e-02 0.0 
8.253643873630e-04 1.601060968013e-02 0.0 
4.003100470485e-04 1.581305364113e-02 0.0 
1.698766344981e-04 1.518086887427e-02 0.0 
6.814233644258e-04 1.568054442973e-02 0.0 
5.289791929370e-04 1.521208481063e-02 0.0 
-3.293974727776e-05 1.354112712043e-02 0.0 
1.541428837710e-05 1.741043342360e-02 0.0 
7.773973496786e-05 1.741427461362e-02 0.0 
4.843206642574e-05 1.774739662129e-02 0.0 
4.472195691922e-05 1.707731141593e-02 0.0 
-2.103532693781e-04 1.310461166795e-02 0.0 
1.165501890879e-04 1.658198244530e-02 0.0 
1.451050970566e-04 1.625017836798e-02 0.0 
2.045762763821e-04 1.659288275938e-02 0.0 
2.330282627128e-04 1.626068191538e-02 0.0 
2.917923381705e-04 1.660320560912e-02 0.0 
3.196053922889e-04 1.627051949249e-02 0.0 
3.765904457504e-04 1.661215204757e-02 0.0 
4.038847303265e-04 1.627967396703e-02 0.0 
4.584725236029e-04 1.662057758886e-02 0.0 
4.855618526037e-04 1.628857526288e-02 0.0 
5.373189380272e-04 1.662880304752e-02 0.0 
5.644755923570e-04 1.629717315956e-02 0.0 
6.129466093221e-04 1.663644252083e-02 0.0 
6.404329144484e-04 1.630485554625e-02 0.0 
6.850710067918e-04 1.664258988480e-02 0.0 
7.132001749031e-04 1.631054854510e-02 0.0 
7.533692467052e-04 1.664593060953e-02 0.0 
7.825434089323e-04 1.631276762313e-02 0.0 
8.175466435370e-04 1.664474769744e-02 0.0 
1.087305539347e-03 1.442416837267e-02 0.0 
8.482676922040e-04 1.630959438388e-02 0.0 
8.773803460407e-04 1.663684845751e-02 0.0 
9.102254207752e-04 1.629860529995e-02 0.0 
1.176549830238e-03 1.444804150361e-02 0.0 
9.327109772801e-04 1.661946760502e-02 0.0 
9.682535802028e-04 1.627684174923e-02 0.0 
9.833223015365e-04 1.658936804468e-02 0.0 
1.022033170767e-03 1.624104251239e-02 0.0 
1.028799133505e-03 1.654323892464e-02 0.0 
8.712358620235e-04 1.466200606398e-02 0.0 
1.071026188356e-03 1.618800049068e-02 0.0 
1.068588522209e-03 1.647792698718e-02 0.0 
1.114563776444e-03 1.611465487841e-02 0.0 
1.101957608990e-03 1.639038029303e-02 0.0 
1.151598387175e-03 1.601814903144e-02 0.0 
1.127485328622e-03 1.627787897830e-02 0.0 
1.180239696831e-03 1.589648132193e-02 0.0 
1.142343236499e-03 1.613933041625e-02 0.0 
1.197356586755e-03 1.575011460942e-02 0.0 
1.141606232369e-03 1.597882314967e-02 0.0 
1.199716686476e-03 1.558419314663e-02 0.0 
1.214795852363e-03 1.395382675953e-02 0.0 
1.188691781644e-03 1.540072249151e-02 0.0 
1.121371862976e-03 1.580455342050e-02 0.0 
1.173806518710e-03 1.518244289018e-02 0.0 
1.084353978843e-03 1.561280583799e-02 0.0 
1.164917636709e-03 1.488468811658e-02 0.0 
1.041010445699e-03 1.536982535899e-02 0.0 
9.974429188403e-04 1.503018247039e-02 0.0 
9.987261750391e-04 1.419166445084e-02 0.0 
1.422197468562e-05 1.640673413273e-02 0.0 
7.211477047411e-05 1.640965462911e-02 0.0 
4.280710193198e-05 1.607362447428e-02 0.0 
4.352964322774e-05 1.674276428755e-02 0.0 
9.059461340634e-04 1.391971894556e-02 0.0 
1.121725442562e-04 1.524079563699e-02 0.0 
1.421979479506e-04 1.557874039519e-02 0.0 
1.975233031633e-04 1.524920980572e-02 0.0 
2.288824386000e-04 1.558844693451e-02 0.0 
2.830631963304e-04 1.525902375733e-02 0.0 
3.150220745616e-04 1.559857262157e-02 0.0 
3.678001373450e-04 1.526894160372e-02 0.0 
3.996777396483e-04 1.560841039410e-02 0.0 
4.511286250983e-04 1.527877289106e-02 0.0 
4.824249447772e-04 1.561803413801e-02 0.0 
5.328147093897e-04 1.528839191809e-02 0.0 
5.631082715459e-04 1.562730315499e-02 0.0 
6.127861607409e-04 1.529733079973e-02 0.0 
6.416397866784e-04 1.563561382972e-02 0.0 
6.910093837597e-04 1.530471926762e-02 0.0 
7.179316796411e-04 1.564191964445e-02 0.0 
7.674548278444e-04 1.530929731779e-02 0.0 
7.918974853335e-04 1.564476323205e-02 0.0 
1.502466646478e-03 1.410222112754e-02 0.0 
8.420974515984e-04 1.530941658185e-02 0.0 
8.634644238642e-04 1.564226765937e-02 0.0 
9.149104262154e-04 1.530302284407e-02 0.0 
1.373015422005e-03 1.438477684495e-02 0.0 
9.325587692897e-04 1.563210641102e-02 0.0 
1.541295880620e-03 1.403733331184e-02 0.0 
9.858245649744e-04 1.528765982281e-02 0.0 
9.990338193826e-04 1.561153285595e-02 0.0 
1.054645409375e-03 1.526055766077e-02 0.0 
1.062576039426e-03 1.557754102176e-02 0.0 
1.121002876839e-03 1.521882313796e-02 0.0 
1.122687063031e-03 1.552708619462e-02 0.0 
1.184366399784e-03 1.515959734481e-02 0.0 
1.178680779344e-03 1.545723953209e-02 0.0 
1.605010554286e-03 1.376025221448e-02 0.0 
1.244049545466e-03 1.508025116901e-02 0.0 
1.229573320750e-03 1.536543525373e-02 0.0 
1.299114858764e-03 1.497858550848e-02 0.0 
1.273894293398e-03 1.524990162982e-02 0.0 
1.309932782789e-03 1.511089138388e-02 0.0 
1.348574029100e-03 1.485352749860e-02 0.0 
1.337612897534e-03 1.494933076101e-02 0.0 
1.392078639462e-03 1.470473753851e-02 0.0 
1.362428635837e-03 1.476119043126e-02 0.0 
1.394253086558e-03 1.452620296472e-02 0.0 
1.433004928227e-03 1.453015897463e-02 0.0 
1.478537400884e-03 1.431703385228e-02 0.0 
1.475559329813e-03 1.404280793188e-02 0.0 
1.391676640576e-05 1.540357286298e-02 0.0 
7.033906646854e-05 1.540545187879e-02 0.0 
4.250189365212e-05 1.573917055949e-02 0.0 
4.175393922218e-05 1.506985418228e-02 0.0 
1.446568455915e-03 1.396057823673e-02 0.0 
1.118708067048e-04 1.457092609740e-02 0.0 
1.408842385472e-04 1.423774987612e-02 0.0 
1.965113313113e-04 1.457808882625e-02 0.0 
2.263616578242e-04 1.424541279168e-02 0.0 
2.815543874066e-04 1.458711059397e-02 0.0 
3.120695336134e-04 1.425461409136e-02 0.0 
3.663564053205e-04 1.459689623687e-02 0.0 
3.975367774918e-04 1.426453397629e-02 0.0 
4.504313949662e-04 1.460694184009e-02 0.0 
4.824925388567e-04 1.427466814768e-02 0.0 
5.335795336012e-04 1.461685697871e-02 0.0 
5.668622490408e-04 1.428449736645e-02 0.0 
6.157753140242e-04 1.462605995056e-02 0.0 
6.506841177631e-04 1.429328157051e-02 0.0 
6.970645615611e-04 1.463365785758e-02 0.0 
7.340480780415e-04 1.429996671931e-02 0.0 
7.775160484434e-04 1.463840580269e-02 0.0 
1.706169072504e-03 1.353659342323e-02 0.0 
8.170628330663e-04 1.430314919511e-02 0.0 
8.572015787323e-04 1.463869406000e-02 0.0 
1.715642188638e-03 1.343492813341e-02 0.0 
8.998344062475e-04 1.430106393128e-02 0.0 
9.361762814648e-04 1.463254163782e-02 0.0 
9.824345040197e-04 1.429158903793e-02 0.0 
1.014434444455e-03 1.461762365597e-02 0.0 
1.064850655987e-03 1.427229930330e-02 0.0 
1.625947512337e-03 1.382832723107e-02 0.0 
1.091852366499e-03 1.459136027496e-02 0.0 
1.146943204839e-03 1.424055183127e-02 0.0 
1.168163085128e-03 1.455103133327e-02 0.0 
1.228475602269e-03 1.419361263307e-02 0.0 
1.242994730733e-03 1.449391558796e-02 0.0 
1.309139478058e-03 1.412873660890e-02 0.0 
1.315879913231e-03 1.441743000267e-02 0.0 
1.388713063657e-03 1.404340969870e-02 0.0 
1.386424233906e-03 1.431938111980e-02 0.0 
1.467174159483e-03 1.393513785730e-02 0.0 
1.793345579298e-03 1.325815893962e-02 0.0 
1.545663493164e-03 1.380189062464e-02 0.0 
1.454544520044e-03 1.419796811476e-02 0.0 
1.626234163174e-03 1.363877751413e-02 0.0 
1.521838858894e-03 1.405129616310e-02 0.0 
1.591865974435e-03 1.387304710316e-02 0.0 
1.713124019132e-03 1.354989274747e-02 0.0 
1.385384313572e-05 1.439927742358e-02 0.0 
6.997440564711e-05 1.440074659428e-02 0.0 
4.213723283069e-05 1.406500558050e-02 0.0 
4.169101595214e-05 1.473501843736e-02 0.0 
1.712756701741e-03 1.354972971578e-02 0.0 
1.115132677678e-04 1.322909816640e-02 0.0 
1.406379019036e-04 1.356647292792e-02 0.0 
1.958647703663e-04 1.323482264477e-02 0.0 
2.259614335228e-04 1.357342355840e-02 0.0 
2.808718504086e-04 1.324269563112e-02 0.0 
3.117872209168e-04 1.358218836178e-02 0.0 
3.664160451552e-04 1.325182566671e-02 0.0 
3.978787300230e-04 1.359188913570e-02 0.0 
4.523654651590e-04 1.326152318351e-02 0.0 
4.840846565182e-04 1.360189433168e-02 0.0 
5.387008861166e-04 1.327118517097e-02 0.0 
5.703914838946e-04 1.361159937472e-02 0.0 
6.255079752843e-04 1.328011147646e-02 0.0 
6.568875441694e-04 1.362023108815e-02 0.0 
7.129490178024e-04 1.328738722691e-02 0.0 
7.437291078765e-04 1.362674657100e-02 0.0 
1.777405590384e-03 1.285402981774e-02 0.0 
8.012236339420e-04 1.329182143185e-02 0.0 
8.310893887300e-04 1.362978497258e-02 0.0 
1.730860826503e-03 1.315813256790e-02 0.0 
8.905317379415e-04 1.329191795267e-02 0.0 
9.191380097930e-04 1.362765204648e-02 0.0 
1.765448954188e-03 1.272626106465e-02 0.0 
9.810656386108e-04 1.328588035554e-02 0.0 
1.008020257620e-03 1.361833964046e-02 0.0 
1.072976615424e-03 1.327164261933e-02 0.0 
1.097807073356e-03 1.359956766413e-02 0.0 
1.166340818094e-03 1.324691906563e-02 0.0 
1.188475239066e-03 1.356884226110e-02 0.0 
1.856452567247e-03 1.260579484290e-02 0.0 
1.261150231087e-03 1.320918479527e-02 0.0 
1.279930714002e-03 1.352347566524e-02 0.0 
1.357442221670e-03 1.315584986668e-02 0.0 
1.372131857262e-03 1.346080785546e-02 0.0 
1.465142938552e-03 1.337799118003e-02 0.0 
1.455302167331e-03 1.308408273056e-02 0.0 
1.559636784069e-03 1.327241313907e-02 0.0 
1.555316733388e-03 1.299123788289e-02 0.0 
1.656421889380e-03 1.314029873074e-02 0.0 
1.657765540846e-03 1.287365150263e-02 0.0 
1.809907803366e-03 1.290989759306e-02 0.0 
1.380514650240e-05 1.339387580387e-02 0.0 
6.981450672030e-05 1.339504048199e-02 0.0 
4.208853619737e-05 1.372985045101e-02 0.0 
4.153111702533e-05 1.305906583485e-02 0.0 
1.829057354241e-03 1.295242356955e-02 0.0 
1.115764506729e-04 1.255790715671e-02 0.0 
1.407237434267e-04 1.222355073900e-02 0.0 
1.958874289843e-04 1.256309146554e-02 0.0 
2.260615845976e-04 1.222931755575e-02 0.0 
2.809493428654e-04 1.257032080769e-02 0.0 
3.122628689689e-04 1.223688361522e-02 0.0 
3.668142007505e-04 1.257889574357e-02 0.0 
3.994236290388e-04 1.224555513974e-02 0.0 
4.535122085795e-04 1.258811911068e-02 0.0 
4.876823553023e-04 1.225463511463e-02 0.0 
5.411518414802e-04 1.259733002675e-02 0.0 
5.772107664200e-04 1.226343619192e-02 0.0 
6.298763024461e-04 1.260580343789e-02 0.0 
6.682382039709e-04 1.227111756443e-02 0.0 
7.199313504421e-04 1.261258174176e-02 0.0 
1.752132102413e-03 1.207727382484e-02 0.0 
7.610641746990e-04 1.227662750920e-02 0.0 
1.722655452870e-03 1.192805206381e-02 0.0 
8.115763681248e-04 1.261650785520e-02 0.0 
8.559648057757e-04 1.227869112472e-02 0.0 
9.050544208044e-04 1.261613768146e-02 0.0 
9.532276865447e-04 1.227571180609e-02 0.0 
1.000632632500e-03 1.260972038636e-02 0.0 
1.053158180464e-03 1.226583683105e-02 0.0 
1.732049463403e-03 1.239032074914e-02 0.0 
1.098547544379e-03 1.259529977910e-02 0.0 
1.156015264783e-03 1.224700891980e-02 0.0 
1.198978080566e-03 1.257070316153e-02 0.0 
1.262015258441e-03 1.221698062264e-02 0.0 
1.302052987991e-03 1.253353906092e-02 0.0 
1.371300248662e-03 1.217306858224e-02 0.0 
1.407908999426e-03 1.248108851803e-02 0.0 
1.484251270243e-03 1.211263703576e-02 0.0 
1.600886210705e-03 1.203227571888e-02 0.0 
1.516954802555e-03 1.241067325951e-02 0.0 
1.823032383420e-03 1.185329839569e-02 0.0 
1.629407370316e-03 1.231893189279e-02 0.0 
1.802949744411e-03 1.216634532000e-02 0.0 
1.383294270699e-05 1.238731234022e-02 0.0 
6.990548583000e-05 1.238827280200e-02 0.0 
4.217951530707e-05 1.205209597767e-02 0.0 
4.155891322992e-05 1.272348916455e-02 0.0 
1.837692886662e-03 1.223563840739e-02 0.0 
1.106737549518e-04 1.121415202886e-02 0.0 
1.401231870016e-04 1.155143839384e-02 0.0 
1.944663975845e-04 1.121826139865e-02 0.0 
2.252411096230e-04 1.155659983402e-02 0.0 
2.792745251568e-04 1.122426878342e-02 0.0 
3.114085262350e-04 1.156354931267e-02 0.0 
3.653610771869e-04 1.123158266881e-02 0.0 
3.988248482093e-04 1.157157636753e-02 0.0 
4.529671419979e-04 1.123945190253e-02 0.0 
4.877360695503e-04 1.157994667869e-02 0.0 
5.424041202303e-04 1.124729073089e-02 0.0 
5.784093309221e-04 1.158808533200e-02 0.0 
6.339327775964e-04 1.125436216439e-02 0.0 
1.649363779667e-03 1.122501914168e-02 0.0 
6.710961146191e-04 1.159502715085e-02 0.0 
7.279207011292e-04 1.125968508703e-02 0.0 
1.647606787457e-03 1.154824535103e-02 0.0 
7.661956147380e-04 1.159982126805e-02 0.0 
8.247376425105e-04 1.126228812846e-02 0.0 
1.609549389929e-03 1.106034504423e-02 0.0 
8.639946401225e-04 1.160127763912e-02 0.0 
9.246822073088e-04 1.126079328796e-02 0.0 
9.648256387024e-04 1.159778089818e-02 0.0 
1.028130391401e-03 1.125352601982e-02 0.0 
1.069057987208e-03 1.158757337241e-02 0.0 
1.716509003285e-03 1.101603362712e-02 0.0 
1.135477609788e-03 1.123874222247e-02 0.0 
1.177045523447e-03 1.156871482181e-02 0.0 
1.289063456738e-03 1.153904966207e-02 0.0 
1.247056537527e-03 1.121447810296e-02 0.0 
1.405436348923e-03 1.149610908724e-02 0.0 
1.363237286549e-03 1.117864860534e-02 0.0 
1.525961541710e-03 1.143691228818e-02 0.0 
1.483755371155e-03 1.112840427545e-02 0.0 
1.714752011075e-03 1.133925983647e-02 0.0 
1.373082094308e-05 1.137995219043e-02 0.0 
6.950122477016e-05 1.138082883005e-02 0.0 
4.207739354316e-05 1.171629478840e-02 0.0 
4.115465217008e-05 1.104448623208e-02 0.0 
1.761279516877e-03 1.143241037534e-02 0.0 
1.100112267521e-04 1.054226008149e-02 0.0 
1.382365081794e-04 1.020725565488e-02 0.0 
1.932422469621e-04 1.054597060705e-02 0.0 
2.223009006757e-04 1.021141050005e-02 0.0 
2.775584668320e-04 1.055137024105e-02 0.0 
3.076847951426e-04 1.021710684713e-02 0.0 
3.633534044194e-04 1.055803874564e-02 0.0 
3.948505656540e-04 1.022370454757e-02 0.0 
4.510005322102e-04 1.056512400574e-02 0.0 
4.840726358792e-04 1.023039699363e-02 0.0 
5.407072963469e-04 1.057206894263e-02 0.0 
5.757538226441e-04 1.023682865944e-02 0.0 
1.499233942338e-03 1.031507830181e-02 0.0 
6.329740932018e-04 1.057832728010e-02 0.0 
1.450678551018e-03 1.013601249473e-02 0.0 
6.704029161792e-04 1.024192507850e-02 0.0 
7.281861870839e-04 1.058261789897e-02 0.0 
7.683977454863e-04 1.024480151082e-02 0.0 
8.266742873042e-04 1.058433555928e-02 0.0 
8.701760401213e-04 1.024456433264e-02 0.0 
9.289269625139e-04 1.058203255065e-02 0.0 
9.761746939773e-04 1.023953058361e-02 0.0 
1.513327759445e-03 1.064415176842e-02 0.0 
1.035234691471e-03 1.057403644256e-02 0.0 
1.086811734018e-03 1.022797055261e-02 0.0 
1.146127056527e-03 1.055862897993e-02 0.0 
1.202528189054e-03 1.020824984923e-02 0.0 
1.323622975482e-03 1.017834304769e-02 0.0 
1.261889756394e-03 1.053412637292e-02 0.0 
1.382963586426e-03 1.049829372100e-02 0.0 
1.557377154329e-03 1.012040211084e-02 0.0 
1.571470971437e-03 1.044947557745e-02 0.0 
1.355540652899e-05 1.037223236662e-02 0.0 
6.866328215633e-05 1.037296265374e-02 0.0 
4.123945092933e-05 1.003668301722e-02 0.0 
4.097923775599e-05 1.070851200314e-02 0.0 
1.625486431365e-03 1.055716084052e-02 0.0 

VECTORS element_materi_displacement float
0.0 0.0 0.0 
0.0 0.0 0.0 
0.0 0.0 0.0 
0.0 0.0 0.0 
0.0 0.0 0.0 
0.0 0.0 0.0 
0.0 0.0 0.0 
0.0 0.0 0.0 
0.0 0.0 0.0 
0.0 0.0 0.0 
0.0 0.0 0.0 
0.0 0.0 0.0 
0.0 0.0 0.0 
0.0 0.0 0.0 
0.0 0.0 0.0 
0.0 0.0 0.0 
0.0 0.0 0.0 
0.0 0.0 0.0 
0.0 0.0 0.0 
0.0 0.0 0.0 
0.0 0.0 0.0 
0.0 0.0 0.0 
0.0 0.0 0.0 
0.0 0.0 0.0 
0.0 0.0 0.0 
0.0 0.0 0.0 
0.0 0.0 0.0 
0.0 0.0 0.0 
0.0 0.0 0.0 
0.0 0.0 0.0 
0.0 0.0 0.0 
0.0 0.0 0.0 
0.0 0.0 0.0 
0.0 0.0 0.0 
0.0 0.0 0.0 
0.0 0.0 0.0 
0.0 0.0 0.0 
0.0 0.0 0.0 
0.0 0.0 0.0 
0.0 0.0 0.0 
0.0 0.0 0.0 
0.0 0.0 0.0 
0.0 0.0 0.0 
0.0 0.0 0.0 
0.0 0.0 0.0 
0.0 0.0 0.0 
0.0 0.0 0.0 
0.0 0.0 0.0 
0.0 0.0 0.0 
0.0 0.0 0.0 
0.0 0.0 0.0 
0.0 0.0 0.0 
0.0 0.0 0.0 
0.0 0.0 0.0 
0.0 0.0 0.0 
0.0 0.0 0.0 
0.0 0.0 0.0 
0.0 0.0 0.0 
0.0 0.0 0.0 
0.0 0.0 0.0 
0.0 0.0 0.0 
0.0 0.0 0.0 
0.0 0.0 0.0 
0.0 0.0 0.0 
0.0 0.0 0.0 
0.0 0.0 0.0 
0.0 0.0 0.0 
0.0 0.0 0.0 
0.0 0.0 0.0 
0.0 0.0 0.0 
0.0 0.0 0.0 
0.0 0.0 0.0 
0.0 0.0 0.0 
0.0 0.0 0.0 
0.0 0.0 0.0 
0.0 0.0 0.0 
0.0 0.0 0.0 
0.0 0.0 0.0 
0.0 0.0 0.0 
0.0 0.0 0.0 
0.0 0.0 0.0 
0.0 0.0 0.0 
0.0 0.0 0.0 
0.0 0.0 0.0 
0.0 0.0 0.0 
0.0 0.0 0.0 
0.0 0.0 0.0 
0.0 0.0 0.0 
0.0 0.0 0.0 
0.0 0.0 0.0 
0.0 0.0 0.0 
0.0 0.0 0.0 
0.0 0.0 0.0 
0.0 0.0 0.0 
0.0 0.0 0.0 
0.0 0.0 0.0 
0.0 0.0 0.0 
0.0 0.0 0.0 
0.0 0.0 0.0 
0.0 0.0 0.0 
0.0 0.0 0.0 
0.0 0.0 0.0 
0.0 0.0 0.0 
0.0 0.0 0.0 
0.0 0.0 0.0 
0.0 0.0 0.0 
0.0 0.0 0.0 
0.0 0.0 0.0 
0.0 0.0 0.0 
0.0 0.0 0.0 
0.0 0.0 0.0 
0.0 0.0 0.0 
0.0 0.0 0.0 
0.0 0.0 0.0 
0.0 0.0 0.0 
0.0 0.0 0.0 
0.0 0.0 0.0 
0.0 0.0 0.0 
0.0 0.0 0.0 
0.0 0.0 0.0 
0.0 0.0 0.0 
0.0 0.0 0.0 
0.0 0.0 0.0 
0.0 0.0 0.0 
0.0 0.0 0.0 
0.0 0.0 0.0 
0.0 0.0 0.0 
0.0 0.0 0.0 
0.0 0.0 0.0 
0.0 0.0 0.0 
0.0 0.0 0.0 
0.0 0.0 0.0 
0.0 0.0 0.0 
0.0 0.0 0.0 
0.0 0.0 0.0 
0.0 0.0 0.0 
0.0 0.0 0.0 
0.0 0.0 0.0 
0.0 0.0 0.0 
0.0 0.0 0.0 
0.0 0.0 0.0 
0.0 0.0 0.0 
0.0 0.0 0.0 
0.0 0.0 0.0 
0.0 0.0 0.0 
0.0 0.0 0.0 
0.0 0.0 0.0 
0.0 0.0 0.0 
0.0 0.0 0.0 
0.0 0.0 0.0 
0.0 0.0 0.0 
0.0 0.0 0.0 
0.0 0.0 0.0 
0.0 0.0 0.0 
0.0 0.0 0.0 
0.0 0.0 0.0 
0.0 0.0 0.0 
0.0 0.0 0.0 
0.0 0.0 0.0 
0.0 0.0 0.0 
0.0 0.0 0.0 
0.0 0.0 0.0 
0.0 0.0 0.0 
0.0 0.0 0.0 
0.0 0.0 0.0 
0.0 0.0 0.0 
0.0 0.0 0.0 
0.0 0.0 0.0 
0.0 0.0 0.0 
0.0 0.0 0.0 
0.0 0.0 0.0 
0.0 0.0 0.0 
0.0 0.0 0.0 
0.0 0.0 0.0 
0.0 0.0 0.0 
0.0 0.0 0.0 
0.0 0.0 0.0 
0.0 0.0 0.0 
0.0 0.0 0.0 
0.0 0.0 0.0 
0.0 0.0 0.0 
0.0 0.0 0.0 
0.0 0.0 0.0 
0.0 0.0 0.0 
0.0 0.0 0.0 
0.0 0.0 0.0 
0.0 0.0 0.0 
0.0 0.0 0.0 
0.0 0.0 0.0 
0.0 0.0 0.0 
0.0 0.0 0.0 
0.0 0.0 0.0 
0.0 0.0 0.0 
0.0 0.0 0.0 
0.0 0.0 0.0 
0.0 0.0 0.0 
0.0 0.0 0.0 
0.0 0.0 0.0 
0.0 0.0 0.0 
0.0 0.0 0.0 
0.0 0.0 0.0 
0.0 0.0 0.0 
0.0 0.0 0.0 
0.0 0.0 0.0 
0.0 0.0 0.0 
0.0 0.0 0.0 
0.0 0.0 0.0 
0.0 0.0 0.0 
0.0 0.0 0.0 
0.0 0.0 0.0 
0.0 0.0 0.0 
0.0 0.0 0.0 
0.0 0.0 0.0 
0.0 0.0 0.0 
0.0 0.0 0.0 
0.0 0.0 0.0 
0.0 0.0 0.0 
0.0 0.0 0.0 
0.0 0.0 0.0 
0.0 0.0 0.0 
0.0 0.0 0.0 
0.0 0.0 0.0 
0.0 0.0 0.0 
0.0 0.0 0.0 
0.0 0.0 0.0 
0.0 0.0 0.0 
0.0 0.0 0.0 
0.0 0.0 0.0 
0.0 0.0 0.0 
0.0 0.0 0.0 
0.0 0.0 0.0 
0.0 0.0 0.0 
0.0 0.0 0.0 
0.0 0.0 0.0 
0.0 0.0 0.0 
0.0 0.0 0.0 
0.0 0.0 0.0 
0.0 0.0 0.0 
0.0 0.0 0.0 
0.0 0.0 0.0 
0.0 0.0 0.0 
0.0 0.0 0.0 
0.0 0.0 0.0 
0.0 0.0 0.0 
0.0 0.0 0.0 
0.0 0.0 0.0 
0.0 0.0 0.0 
0.0 0.0 0.0 
0.0 0.0 0.0 
0.0 0.0 0.0 
0.0 0.0 0.0 
0.0 0.0 0.0 
0.0 0.0 0.0 
0.0 0.0 0.0 
0.0 0.0 0.0 
0.0 0.0 0.0 
0.0 0.0 0.0 
0.0 0.0 0.0 
0.0 0.0 0.0 
0.0 0.0 0.0 
0.0 0.0 0.0 
0.0 0.0 0.0 
0.0 0.0 0.0 
0.0 0.0 0.0 
0.0 0.0 0.0 
0.0 0.0 0.0 
0.0 0.0 0.0 
0.0 0.0 0.0 
0.0 0.0 0.0 
0.0 0.0 0.0 
0.0 0.0 0.0 
0.0 0.0 0.0 
0.0 0.0 0.0 
0.0 0.0 0.0 
0.0 0.0 0.0 
0.0 0.0 0.0 
0.0 0.0 0.0 
0.0 0.0 0.0 
0.0 0.0 0.0 
0.0 0.0 0.0 
0.0 0.0 0.0 
0.0 0.0 0.0 
0.0 0.0 0.0 
0.0 0.0 0.0 
0.0 0.0 0.0 
0.0 0.0 0.0 
0.0 0.0 0.0 
0.0 0.0 0.0 
0.0 0.0 0.0 
0.0 0.0 0.0 
0.0 0.0 0.0 
0.0 0.0 0.0 
0.0 0.0 0.0 
0.0 0.0 0.0 
0.0 0.0 0.0 
0.0 0.0 0.0 
0.0 0.0 0.0 
0.0 0.0 0.0 
0.0 0.0 0.0 
0.0 0.0 0.0 
0.0 0.0 0.0 
0.0 0.0 0.0 
0.0 0.0 0.0 
0.0 0.0 0.0 
0.0 0.0 0.0 
0.0 0.0 0.0 
0.0 0.0 0.0 
0.0 0.0 0.0 
0.0 0.0 0.0 
0.0 0.0 0.0 
0.0 0.0 0.0 
0.0 0.0 0.0 
0.0 0.0 0.0 
0.0 0.0 0.0 
0.0 0.0 0.0 
0.0 0.0 0.0 
0.0 0.0 0.0 
0.0 0.0 0.0 
0.0 0.0 0.0 
0.0 0.0 0.0 
0.0 0.0 0.0 
0.0 0.0 0.0 
0.0 0.0 0.0 
0.0 0.0 0.0 
0.0 0.0 0.0 
0.0 0.0 0.0 
0.0 0.0 0.0 
0.0 0.0 0.0 
0.0 0.0 0.0 
0.0 0.0 0.0 
0.0 0.0 0.0 
0.0 0.0 0.0 
0.0 0.0 0.0 
0.0 0.0 0.0 
0.0 0.0 0.0 
0.0 0.0 0.0 
0.0 0.0 0.0 
0.0 0.0 0.0 
0.0 0.0 0.0 
0.0 0.0 0.0 
0.0 0.0 0.0 
0.0 0.0 0.0 
0.0 0.0 0.0 
0.0 0.0 0.0 
0.0 0.0 0.0 
0.0 0.0 0.0 
0.0 0.0 0.0 
0.0 0.0 0.0 
0.0 0.0 0.0 
0.0 0.0 0.0 
0.0 0.0 0.0 
0.0 0.0 0.0 
0.0 0.0 0.0 
0.0 0.0 0.0 
0.0 0.0 0.0 
0.0 0.0 0.0 
0.0 0.0 0.0 
0.0 0.0 0.0 
0.0 0.0 0.0 
0.0 0.0 0.0 
0.0 0.0 0.0 
0.0 0.0 0.0 
0.0 0.0 0.0 
0.0 0.0 0.0 
0.0 0.0 0.0 
0.0 0.0 0.0 
0.0 0.0 0.0 
0.0 0.0 0.0 
0.0 0.0 0.0 
0.0 0.0 0.0 
0.0 0.0 0.0 
0.0 0.0 0.0 
0.0 0.0 0.0 
0.0 0.0 0.0 
0.0 0.0 0.0 
0.0 0.0 0.0 
0.0 0.0 0.0 
0.0 0.0 0.0 
0.0 0.0 0.0 
0.0 0.0 0.0 
0.0 0.0 0.0 
0.0 0.0 0.0 
0.0 0.0 0.0 
0.0 0.0 0.0 
0.0 0.0 0.0 
0.0 0.0 0.0 
0.0 0.0 0.0 
0.0 0.0 0.0 
0.0 0.0 0.0 
0.0 0.0 0.0 
0.0 0.0 0.0 
0.0 0.0 0.0 
0.0 0.0 0.0 
0.0 0.0 0.0 
0.0 0.0 0.0 
0.0 0.0 0.0 
0.0 0.0 0.0 
0.0 0.0 0.0 
0.0 0.0 0.0 
0.0 0.0 0.0 
0.0 0.0 0.0 
0.0 0.0 0.0 
0.0 0.0 0.0 
0.0 0.0 0.0 
0.0 0.0 0.0 
0.0 0.0 0.0 
0.0 0.0 0.0 
0.0 0.0 0.0 
0.0 0.0 0.0 
0.0 0.0 0.0 
0.0 0.0 0.0 
0.0 0.0 0.0 
0.0 0.0 0.0 
0.0 0.0 0.0 
0.0 0.0 0.0 
0.0 0.0 0.0 
0.0 0.0 0.0 
0.0 0.0 0.0 
0.0 0.0 0.0 
0.0 0.0 0.0 
0.0 0.0 0.0 
0.0 0.0 0.0 
0.0 0.0 0.0 
0.0 0.0 0.0 
0.0 0.0 0.0 
0.0 0.0 0.0 
0.0 0.0 0.0 
0.0 0.0 0.0 
0.0 0.0 0.0 
0.0 0.0 0.0 
0.0 0.0 0.0 
0.0 0.0 0.0 
0.0 0.0 0.0 
0.0 0.0 0.0 
0.0 0.0 0.0 
0.0 0.0 0.0 
0.0 0.0 0.0 
0.0 0.0 0.0 
0.0 0.0 0.0 
0.0 0.0 0.0 
0.0 0.0 0.0 
0.0 0.0 0.0 
0.0 0.0 0.0 
0.0 0.0 0.0 
0.0 0.0 0.0 
0.0 0.0 0.0 
0.0 0.0 0.0 
0.0 0.0 0.0 
0.0 0.0 0.0 
0.0 0.0 0.0 
0.0 0.0 0.0 
0.0 0.0 0.0 
0.0 0.0 0.0 
0.0 0.0 0.0 
0.0 0.0 0.0 
0.0 0.0 0.0 
0.0 0.0 0.0 
0.0 0.0 0.0 
0.0 0.0 0.0 
0.0 0.0 0.0 
0.0 0.0 0.0 
0.0 0.0 0.0 
0.0 0.0 0.0 
0.0 0.0 0.0 
0.0 0.0 0.0 
0.0 0.0 0.0 
0.0 0.0 0.0 
0.0 0.0 0.0 
0.0 0.0 0.0 
0.0 0.0 0.0 
0.0 0.0 0.0 
0.0 0.0 0.0 
0.0 0.0 0.0 
0.0 0.0 0.0 
0.0 0.0 0.0 
0.0 0.0 0.0 
0.0 0.0 0.0 
0.0 0.0 0.0 
0.0 0.0 0.0 
0.0 0.0 0.0 
0.0 0.0 0.0 
0.0 0.0 0.0 
0.0 0.0 0.0 
0.0 0.0 0.0 
0.0 0.0 0.0 
0.0 0.0 0.0 
0.0 0.0 0.0 
0.0 0.0 0.0 
0.0 0.0 0.0 
0.0 0.0 0.0 
0.0 0.0 0.0 
0.0 0.0 0.0 
0.0 0.0 0.0 
0.0 0.0 0.0 
0.0 0.0 0.0 
0.0 0.0 0.0 
0.0 0.0 0.0 
0.0 0.0 0.0 
0.0 0.0 0.0 
0.0 0.0 0.0 
0.0 0.0 0.0 
0.0 0.0 0.0 
0.0 0.0 0.0 
0.0 0.0 0.0 
0.0 0.0 0.0 
0.0 0.0 0.0 
0.0 0.0 0.0 
0.0 0.0 0.0 
0.0 0.0 0.0 
0.0 0.0 0.0 
0.0 0.0 0.0 
0.0 0.0 0.0 
0.0 0.0 0.0 
0.0 0.0 0.0 
0.0 0.0 0.0 
0.0 0.0 0.0 
0.0 0.0 0.0 
0.0 0.0 0.0 
0.0 0.0 0.0 
0.0 0.0 0.0 
0.0 0.0 0.0 
0.0 0.0 0.0 
0.0 0.0 0.0 
0.0 0.0 0.0 
0.0 0.0 0.0 
0.0 0.0 0.0 
0.0 0.0 0.0 
0.0 0.0 0.0 
0.0 0.0 0.0 
0.0 0.0 0.0 
0.0 0.0 0.0 
0.0 0.0 0.0 
0.0 0.0 0.0 
0.0 0.0 0.0 
0.0 0.0 0.0 
0.0 0.0 0.0 
0.0 0.0 0.0 
0.0 0.0 0.0 
0.0 0.0 0.0 
0.0 0.0 0.0 
0.0 0.0 0.0 
0.0 0.0 0.0 
0.0 0.0 0.0 
0.0 0.0 0.0 
0.0 0.0 0.0 
0.0 0.0 0.0 
0.0 0.0 0.0 
0.0 0.0 0.0 
0.0 0.0 0.0 
0.0 0.0 0.0 
0.0 0.0 0.0 
0.0 0.0 0.0 
0.0 0.0 0.0 
0.0 0.0 0.0 
0.0 0.0 0.0 
0.0 0.0 0.0 
0.0 0.0 0.0 
0.0 0.0 0.0 
0.0 0.0 0.0 
0.0 0.0 0.0 
0.0 0.0 0.0 
0.0 0.0 0.0 
0.0 0.0 0.0 
0.0 0.0 0.0 
0.0 0.0 0.0 
0.0 0.0 0.0 
0.0 0.0 0.0 
0.0 0.0 0.0 
0.0 0.0 0.0 
0.0 0.0 0.0 
0.0 0.0 0.0 
0.0 0.0 0.0 
0.0 0.0 0.0 
0.0 0.0 0.0 
0.0 0.0 0.0 
0.0 0.0 0.0 
0.0 0.0 0.0 
0.0 0.0 0.0 
0.0 0.0 0.0 
0.0 0.0 0.0 
0.0 0.0 0.0 
0.0 0.0 0.0 
0.0 0.0 0.0 
0.0 0.0 0.0 
0.0 0.0 0.0 
0.0 0.0 0.0 
0.0 0.0 0.0 
0.0 0.0 0.0 
0.0 0.0 0.0 
0.0 0.0 0.0 
0.0 0.0 0.0 
0.0 0.0 0.0 
0.0 0.0 0.0 
0.0 0.0 0.0 
0.0 0.0 0.0 
0.0 0.0 0.0 
0.0 0.0 0.0 
0.0 0.0 0.0 
0.0 0.0 0.0 
0.0 0.0 0.0 
0.0 0.0 0.0 
0.0 0.0 0.0 
0.0 0.0 0.0 
0.0 0.0 0.0 
0.0 0.0 0.0 
0.0 0.0 0.0 
0.0 0.0 0.0 
0.0 0.0 0.0 
0.0 0.0 0.0 
0.0 0.0 0.0 
0.0 0.0 0.0 
0.0 0.0 0.0 
0.0 0.0 0.0 
0.0 0.0 0.0 
0.0 0.0 0.0 
0.0 0.0 0.0 
0.0 0.0 0.0 
0.0 0.0 0.0 
0.0 0.0 0.0 
0.0 0.0 0.0 
0.0 0.0 0.0 
0.0 0.0 0.0 
0.0 0.0 0.0 
0.0 0.0 0.0 
0.0 0.0 0.0 
0.0 0.0 0.0 
0.0 0.0 0.0 
0.0 0.0 0.0 
0.0 0.0 0.0 
0.0 0.0 0.0 
0.0 0.0 0.0 
0.0 0.0 0.0 
0.0 0.0 0.0 
0.0 0.0 0.0 
0.0 0.0 0.0 
0.0 0.0 0.0 
0.0 0.0 0.0 
0.0 0.0 0.0 
0.0 0.0 0.0 
0.0 0.0 0.0 
0.0 0.0 0.0 
0.0 0.0 0.0 
0.0 0.0 0.0 
0.0 0.0 0.0 
0.0 0.0 0.0 
0.0 0.0 0.0 
0.0 0.0 0.0 
0.0 0.0 0.0 
0.0 0.0 0.0 
0.0 0.0 0.0 
0.0 0.0 0.0 
0.0 0.0 0.0 
0.0 0.0 0.0 
0.0 0.0 0.0 
0.0 0.0 0.0 
0.0 0.0 0.0 
0.0 0.0 0.0 
0.0 0.0 0.0 
0.0 0.0 0.0 
0.0 0.0 0.0 
0.0 0.0 0.0 
0.0 0.0 0.0 
0.0 0.0 0.0 
0.0 0.0 0.0 
0.0 0.0 0.0 
0.0 0.0 0.0 
0.0 0.0 0.0 
0.0 0.0 0.0 
0.0 0.0 0.0 
0.0 0.0 0.0 
0.0 0.0 0.0 
0.0 0.0 0.0 
0.0 0.0 0.0 
0.0 0.0 0.0 
0.0 0.0 0.0 
0.0 0.0 0.0 
0.0 0.0 0.0 
0.0 0.0 0.0 
0.0 0.0 0.0 
0.0 0.0 0.0 
0.0 0.0 0.0 
0.0 0.0 0.0 
0.0 0.0 0.0 
0.0 0.0 0.0 
0.0 0.0 0.0 
0.0 0.0 0.0 
0.0 0.0 0.0 
0.0 0.0 0.0 
0.0 0.0 0.0 
0.0 0.0 0.0 
0.0 0.0 0.0 
0.0 0.0 0.0 
0.0 0.0 0.0 
0.0 0.0 0.0 
0.0 0.0 0.0 
0.0 0.0 0.0 
0.0 0.0 0.0 
0.0 0.0 0.0 
0.0 0.0 0.0 
0.0 0.0 0.0 
0.0 0.0 0.0 
0.0 0.0 0.0 
0.0 0.0 0.0 
0.0 0.0 0.0 
0.0 0.0 0.0 
0.0 0.0 0.0 
0.0 0.0 0.0 
0.0 0.0 0.0 
0.0 0.0 0.0 
0.0 0.0 0.0 
0.0 0.0 0.0 
0.0 0.0 0.0 
0.0 0.0 0.0 
0.0 0.0 0.0 
0.0 0.0 0.0 
0.0 0.0 0.0 
0.0 0.0 0.0 
0.0 0.0 0.0 
0.0 0.0 0.0 
0.0 0.0 0.0 
0.0 0.0 0.0 
0.0 0.0 0.0 
0.0 0.0 0.0 
0.0 0.0 0.0 
0.0 0.0 0.0 
0.0 0.0 0.0 
0.0 0.0 0.0 
0.0 0.0 0.0 
0.0 0.0 0.0 
0.0 0.0 0.0 
0.0 0.0 0.0 
0.0 0.0 0.0 
0.0 0.0 0.0 
0.0 0.0 0.0 
0.0 0.0 0.0 
0.0 0.0 0.0 
0.0 0.0 0.0 
0.0 0.0 0.0 
0.0 0.0 0.0 
0.0 0.0 0.0 
0.0 0.0 0.0 
0.0 0.0 0.0 
0.0 0.0 0.0 
0.0 0.0 0.0 
0.0 0.0 0.0 
0.0 0.0 0.0 
0.0 0.0 0.0 
0.0 0.0 0.0 
0.0 0.0 0.0 
0.0 0.0 0.0 
0.0 0.0 0.0 
0.0 0.0 0.0 
0.0 0.0 0.0 
0.0 0.0 0.0 
0.0 0.0 0.0 
0.0 0.0 0.0 
0.0 0.0 0.0 
0.0 0.0 0.0 
0.0 0.0 0.0 
0.0 0.0 0.0 
0.0 0.0 0.0 
0.0 0.0 0.0 
0.0 0.0 0.0 
0.0 0.0 0.0 
0.0 0.0 0.0 
0.0 0.0 0.0 
0.0 0.0 0.0 
0.0 0.0 0.0 
0.0 0.0 0.0 
0.0 0.0 0.0 
0.0 0.0 0.0 
0.0 0.0 0.0 
0.0 0.0 0.0 
0.0 0.0 0.0 
0.0 0.0 0.0 
0.0 0.0 0.0 
0.0 0.0 0.0 
0.0 0.0 0.0 
0.0 0.0 0.0 
0.0 0.0 0.0 
0.0 0.0 0.0 
0.0 0.0 0.0 
0.0 0.0 0.0 
0.0 0.0 0.0 
0.0 0.0 0.0 
0.0 0.0 0.0 
0.0 0.0 0.0 
0.0 0.0 0.0 
0.0 0.0 0.0 
0.0 0.0 0.0 
0.0 0.0 0.0 
0.0 0.0 0.0 
0.0 0.0 0.0 
0.0 0.0 0.0 
0.0 0.0 0.0 
0.0 0.0 0.0 
0.0 0.0 0.0 
0.0 0.0 0.0 
0.0 0.0 0.0 
0.0 0.0 0.0 
0.0 0.0 0.0 
0.0 0.0 0.0 
0.0 0.0 0.0 
0.0 0.0 0.0 
0.0 0.0 0.0 
0.0 0.0 0.0 
0.0 0.0 0.0 
0.0 0.0 0.0 
0.0 0.0 0.0 
0.0 0.0 0.0 
0.0 0.0 0.0 
0.0 0.0 0.0 
0.0 0.0 0.0 
0.0 0.0 0.0 
0.0 0.0 0.0 
0.0 0.0 0.0 
0.0 0.0 0.0 
0.0 0.0 0.0 
0.0 0.0 0.0 
0.0 0.0 0.0 
0.0 0.0 0.0 
0.0 0.0 0.0 
0.0 0.0 0.0 
0.0 0.0 0.0 
0.0 0.0 0.0 
0.0 0.0 0.0 
0.0 0.0 0.0 
0.0 0.0 0.0 
0.0 0.0 0.0 
0.0 0.0 0.0 
0.0 0.0 0.0 
0.0 0.0 0.0 
0.0 0.0 0.0 
0.0 0.0 0.0 
0.0 0.0 0.0 
0.0 0.0 0.0 
0.0 0.0 0.0 
0.0 0.0 0.0 
0.0 0.0 0.0 
0.0 0.0 0.0 
0.0 0.0 0.0 
0.0 0.0 0.0 
0.0 0.0 0.0 
0.0 0.0 0.0 
0.0 0.0 0.0 
0.0 0.0 0.0 
0.0 0.0 0.0 
0.0 0.0 0.0 
0.0 0.0 0.0 
0.0 0.0 0.0 
0.0 0.0 0.0 
0.0 0.0 0.0 
0.0 0.0 0.0 
0.0 0.0 0.0 
0.0 0.0 0.0 
0.0 0.0 0.0 
0.0 0.0 0.0 
0.0 0.0 0.0 
0.0 0.0 0.0 
0.0 0.0 0.0 
0.0 0.0 0.0 
0.0 0.0 0.0 
0.0 0.0 0.0 
0.0 0.0 0.0 
0.0 0.0 0.0 
0.0 0.0 0.0 
0.0 0.0 0.0 
0.0 0.0 0.0 
0.0 0.0 0.0 
0.0 0.0 0.0 
0.0 0.0 0.0 
0.0 0.0 0.0 
0.0 0.0 0.0 
0.0 0.0 0.0 
0.0 0.0 0.0 
0.0 0.0 0.0 
0.0 0.0 0.0 
0.0 0.0 0.0 
0.0 0.0 0.0 
0.0 0.0 0.0 
0.0 0.0 0.0 
0.0 0.0 0.0 
0.0 0.0 0.0 
0.0 0.0 0.0 
0.0 0.0 0.0 
0.0 0.0 0.0 
0.0 0.0 0.0 
0.0 0.0 0.0 
0.0 0.0 0.0 
0.0 0.0 0.0 
0.0 0.0 0.0 
0.0 0.0 0.0 
0.0 0.0 0.0 
0.0 0.0 0.0 
0.0 0.0 0.0 
0.0 0.0 0.0 
0.0 0.0 0.0 
0.0 0.0 0.0 
0.0 0.0 0.0 
0.0 0.0 0.0 
0.0 0.0 0.0 
0.0 0.0 0.0 
0.0 0.0 0.0 
0.0 0.0 0.0 
0.0 0.0 0.0 
0.0 0.0 0.0 
0.0 0.0 0.0 
0.0 0.0 0.0 
0.0 0.0 0.0 
0.0 0.0 0.0 
0.0 0.0 0.0 
0.0 0.0 0.0 
0.0 0.0 0.0 
0.0 0.0 0.0 
0.0 0.0 0.0 
0.0 0.0 0.0 
0.0 0.0 0.0 
0.0 0.0 0.0 
0.0 0.0 0.0 
0.0 0.0 0.0 
0.0 0.0 0.0 
0.0 0.0 0.0 
0.0 0.0 0.0 
0.0 0.0 0.0 
0.0 0.0 0.0 
0.0 0.0 0.0 
0.0 0.0 0.0 
0.0 0.0 0.0 
0.0 0.0 0.0 
0.0 0.0 0.0 
0.0 0.0 0.0 
0.0 0.0 0.0 
0.0 0.0 0.0 
0.0 0.0 0.0 
0.0 0.0 0.0 
0.0 0.0 0.0 
0.0 0.0 0.0 
0.0 0.0 0.0 
0.0 0.0 0.0 
0.0 0.0 0.0 
0.0 0.0 0.0 
0.0 0.0 0.0 
0.0 0.0 0.0 
0.0 0.0 0.0 
0.0 0.0 0.0 
0.0 0.0 0.0 
0.0 0.0 0.0 
0.0 0.0 0.0 
0.0 0.0 0.0 
0.0 0.0 0.0 
0.0 0.0 0.0 
0.0 0.0 0.0 
0.0 0.0 0.0 
0.0 0.0 0.0 
0.0 0.0 0.0 
0.0 0.0 0.0 
0.0 0.0 0.0 
0.0 0.0 0.0 
0.0 0.0 0.0 
0.0 0.0 0.0 
0.0 0.0 0.0 
0.0 0.0 0.0 
0.0 0.0 0.0 
0.0 0.0 0.0 
0.0 0.0 0.0 
0.0 0.0 0.0 
0.0 0.0 0.0 
0.0 0.0 0.0 
0.0 0.0 0.0 
0.0 0.0 0.0 
0.0 0.0 0.0 
0.0 0.0 0.0 
0.0 0.0 0.0 
0.0 0.0 0.0 
0.0 0.0 0.0 
0.0 0.0 0.0 
0.0 0.0 0.0 
0.0 0.0 0.0 
0.0 0.0 0.0 
0.0 0.0 0.0 
0.0 0.0 0.0 
0.0 0.0 0.0 
0.0 0.0 0.0 
0.0 0.0 0.0 
0.0 0.0 0.0 
0.0 0.0 0.0 
0.0 0.0 0.0 
0.0 0.0 0.0 
0.0 0.0 0.0 
0.0 0.0 0.0 
0.0 0.0 0.0 
0.0 0.0 0.0 
0.0 0.0 0.0 
0.0 0.0 0.0 
0.0 0.0 0.0 
0.0 0.0 0.0 
0.0 0.0 0.0 
0.0 0.0 0.0 
0.0 0.0 0.0 
0.0 0.0 0.0 
0.0 0.0 0.0 
0.0 0.0 0.0 
0.0 0.0 0.0 
0.0 0.0 0.0 
0.0 0.0 0.0 
0.0 0.0 0.0 
0.0 0.0 0.0 
0.0 0.0 0.0 
0.0 0.0 0.0 
0.0 0.0 0.0 
0.0 0.0 0.0 
0.0 0.0 0.0 
0.0 0.0 0.0 
0.0 0.0 0.0 
0.0 0.0 0.0 
0.0 0.0 0.0 
0.0 0.0 0.0 
0.0 0.0 0.0 
0.0 0.0 0.0 
0.0 0.0 0.0 
0.0 0.0 0.0 
0.0 0.0 0.0 
0.0 0.0 0.0 
0.0 0.0 0.0 
0.0 0.0 0.0 
0.0 0.0 0.0 
0.0 0.0 0.0 
0.0 0.0 0.0 
0.0 0.0 0.0 
0.0 0.0 0.0 
0.0 0.0 0.0 
0.0 0.0 0.0 
0.0 0.0 0.0 
0.0 0.0 0.0 
0.0 0.0 0.0 
0.0 0.0 0.0 
0.0 0.0 0.0 
0.0 0.0 0.0 
0.0 0.0 0.0 
0.0 0.0 0.0 
0.0 0.0 0.0 
0.0 0.0 0.0 
0.0 0.0 0.0 
0.0 0.0 0.0 
0.0 0.0 0.0 
0.0 0.0 0.0 
0.0 0.0 0.0 
0.0 0.0 0.0 
0.0 0.0 0.0 
0.0 0.0 0.0 
0.0 0.0 0.0 
0.0 0.0 0.0 
0.0 0.0 0.0 
0.0 0.0 0.0 
0.0 0.0 0.0 
0.0 0.0 0.0 
0.0 0.0 0.0 
0.0 0.0 0.0 
0.0 0.0 0.0 
0.0 0.0 0.0 
0.0 0.0 0.0 
0.0 0.0 0.0 
0.0 0.0 0.0 
0.0 0.0 0.0 
0.0 0.0 0.0 
0.0 0.0 0.0 
0.0 0.0 0.0 
0.0 0.0 0.0 
0.0 0.0 0.0 
0.0 0.0 0.0 
0.0 0.0 0.0 
0.0 0.0 0.0 
0.0 0.0 0.0 
0.0 0.0 0.0 
0.0 0.0 0.0 
0.0 0.0 0.0 
0.0 0.0 0.0 
0.0 0.0 0.0 
0.0 0.0 0.0 
0.0 0.0 0.0 
0.0 0.0 0.0 
0.0 0.0 0.0 
0.0 0.0 0.0 
0.0 0.0 0.0 
0.0 0.0 0.0 
0.0 0.0 0.0 
0.0 0.0 0.0 
0.0 0.0 0.0 
0.0 0.0 0.0 
0.0 0.0 0.0 
0.0 0.0 0.0 
0.0 0.0 0.0 
0.0 0.0 0.0 
0.0 0.0 0.0 
0.0 0.0 0.0 
0.0 0.0 0.0 
0.0 0.0 0.0 
0.0 0.0 0.0 
0.0 0.0 0.0 
0.0 0.0 0.0 
0.0 0.0 0.0 
0.0 0.0 0.0 
0.0 0.0 0.0 
0.0 0.0 0.0 
0.0 0.0 0.0 
0.0 0.0 0.0 
0.0 0.0 0.0 
0.0 0.0 0.0 
0.0 0.0 0.0 
0.0 0.0 0.0 
0.0 0.0 0.0 
0.0 0.0 0.0 
0.0 0.0 0.0 
0.0 0.0 0.0 
0.0 0.0 0.0 
0.0 0.0 0.0 
0.0 0.0 0.0 
0.0 0.0 0.0 
0.0 0.0 0.0 
0.0 0.0 0.0 
0.0 0.0 0.0 
0.0 0.0 0.0 
0.0 0.0 0.0 
0.0 0.0 0.0 
0.0 0.0 0.0 
0.0 0.0 0.0 
0.0 0.0 0.0 
0.0 0.0 0.0 
0.0 0.0 0.0 
0.0 0.0 0.0 
0.0 0.0 0.0 
0.0 0.0 0.0 
0.0 0.0 0.0 
0.0 0.0 0.0 
0.0 0.0 0.0 
0.0 0.0 0.0 
0.0 0.0 0.0 
0.0 0.0 0.0 
0.0 0.0 0.0 
0.0 0.0 0.0 
0.0 0.0 0.0 
0.0 0.0 0.0 
0.0 0.0 0.0 
0.0 0.0 0.0 
0.0 0.0 0.0 
0.0 0.0 0.0 
0.0 0.0 0.0 
0.0 0.0 0.0 
0.0 0.0 0.0 
0.0 0.0 0.0 
0.0 0.0 0.0 
0.0 0.0 0.0 
0.0 0.0 0.0 
0.0 0.0 0.0 
0.0 0.0 0.0 
0.0 0.0 0.0 
0.0 0.0 0.0 
0.0 0.0 0.0 
0.0 0.0 0.0 
0.0 0.0 0.0 
0.0 0.0 0.0 
0.0 0.0 0.0 
0.0 0.0 0.0 
0.0 0.0 0.0 
0.0 0.0 0.0 
0.0 0.0 0.0 
0.0 0.0 0.0 
0.0 0.0 0.0 
0.0 0.0 0.0 
0.0 0.0 0.0 
0.0 0.0 0.0 
0.0 0.0 0.0 
0.0 0.0 0.0 
0.0 0.0 0.0 
0.0 0.0 0.0 
0.0 0.0 0.0 
0.0 0.0 0.0 
0.0 0.0 0.0 
0.0 0.0 0.0 
0.0 0.0 0.0 
0.0 0.0 0.0 
0.0 0.0 0.0 
0.0 0.0 0.0 
0.0 0.0 0.0 
0.0 0.0 0.0 
0.0 0.0 0.0 
0.0 0.0 0.0 
0.0 0.0 0.0 
0.0 0.0 0.0 
0.0 0.0 0.0 
0.0 0.0 0.0 
0.0 0.0 0.0 
0.0 0.0 0.0 
0.0 0.0 0.0 
0.0 0.0 0.0 
0.0 0.0 0.0 
0.0 0.0 0.0 
0.0 0.0 0.0 
0.0 0.0 0.0 
0.0 0.0 0.0 
0.0 0.0 0.0 
0.0 0.0 0.0 
0.0 0.0 0.0 
0.0 0.0 0.0 
0.0 0.0 0.0 
0.0 0.0 0.0 
0.0 0.0 0.0 
0.0 0.0 0.0 
0.0 0.0 0.0 
0.0 0.0 0.0 
0.0 0.0 0.0 
0.0 0.0 0.0 
0.0 0.0 0.0 
0.0 0.0 0.0 
0.0 0.0 0.0 
0.0 0.0 0.0 
0.0 0.0 0.0 
0.0 0.0 0.0 
0.0 0.0 0.0 
0.0 0.0 0.0 
0.0 0.0 0.0 
0.0 0.0 0.0 
0.0 0.0 0.0 
0.0 0.0 0.0 
0.0 0.0 0.0 
0.0 0.0 0.0 
0.0 0.0 0.0 
0.0 0.0 0.0 
0.0 0.0 0.0 
0.0 0.0 0.0 
0.0 0.0 0.0 
0.0 0.0 0.0 
0.0 0.0 0.0 
0.0 0.0 0.0 
0.0 0.0 0.0 
0.0 0.0 0.0 
0.0 0.0 0.0 
0.0 0.0 0.0 
0.0 0.0 0.0 
0.0 0.0 0.0 
0.0 0.0 0.0 
0.0 0.0 0.0 
0.0 0.0 0.0 
0.0 0.0 0.0 
0.0 0.0 0.0 
0.0 0.0 0.0 
0.0 0.0 0.0 
0.0 0.0 0.0 
0.0 0.0 0.0 
0.0 0.0 0.0 
0.0 0.0 0.0 
0.0 0.0 0.0 
0.0 0.0 0.0 
0.0 0.0 0.0 
0.0 0.0 0.0 
0.0 0.0 0.0 
0.0 0.0 0.0 
0.0 0.0 0.0 
0.0 0.0 0.0 
0.0 0.0 0.0 
0.0 0.0 0.0 
0.0 0.0 0.0 
0.0 0.0 0.0 
0.0 0.0 0.0 
0.0 0.0 0.0 
0.0 0.0 0.0 
0.0 0.0 0.0 
0.0 0.0 0.0 
0.0 0.0 0.0 
0.0 0.0 0.0 
0.0 0.0 0.0 
0.0 0.0 0.0 
0.0 0.0 0.0 
0.0 0.0 0.0 
0.0 0.0 0.0 
0.0 0.0 0.0 
0.0 0.0 0.0 
0.0 0.0 0.0 
0.0 0.0 0.0 
0.0 0.0 0.0 
0.0 0.0 0.0 
0.0 0.0 0.0 
0.0 0.0 0.0 
0.0 0.0 0.0 
0.0 0.0 0.0 
0.0 0.0 0.0 
0.0 0.0 0.0 
0.0 0.0 0.0 
0.0 0.0 0.0 
0.0 0.0 0.0 
0.0 0.0 0.0 
0.0 0.0 0.0 
0.0 0.0 0.0 
0.0 0.0 0.0 
0.0 0.0 0.0 
0.0 0.0 0.0 
0.0 0.0 0.0 
0.0 0.0 0.0 
0.0 0.0 0.0 
0.0 0.0 0.0 
0.0 0.0 0.0 
0.0 0.0 0.0 
0.0 0.0 0.0 
0.0 0.0 0.0 
0.0 0.0 0.0 
0.0 0.0 0.0 
0.0 0.0 0.0 
0.0 0.0 0.0 
0.0 0.0 0.0 
0.0 0.0 0.0 
0.0 0.0 0.0 
0.0 0.0 0.0 
0.0 0.0 0.0 
0.0 0.0 0.0 
0.0 0.0 0.0 
0.0 0.0 0.0 
0.0 0.0 0.0 
0.0 0.0 0.0 
0.0 0.0 0.0 
0.0 0.0 0.0 
0.0 0.0 0.0 
0.0 0.0 0.0 
0.0 0.0 0.0 
0.0 0.0 0.0 
0.0 0.0 0.0 
0.0 0.0 0.0 
0.0 0.0 0.0 
0.0 0.0 0.0 
0.0 0.0 0.0 
0.0 0.0 0.0 
0.0 0.0 0.0 
0.0 0.0 0.0 
0.0 0.0 0.0 
0.0 0.0 0.0 
0.0 0.0 0.0 
0.0 0.0 0.0 
0.0 0.0 0.0 
0.0 0.0 0.0 
0.0 0.0 0.0 
0.0 0.0 0.0 
0.0 0.0 0.0 
0.0 0.0 0.0 
0.0 0.0 0.0 
0.0 0.0 0.0 
0.0 0.0 0.0 
0.0 0.0 0.0 
0.0 0.0 0.0 
0.0 0.0 0.0 
0.0 0.0 0.0 
0.0 0.0 0.0 
0.0 0.0 0.0 
0.0 0.0 0.0 
0.0 0.0 0.0 
0.0 0.0 0.0 
0.0 0.0 0.0 
0.0 0.0 0.0 
0.0 0.0 0.0 
0.0 0.0 0.0 
0.0 0.0 0.0 
0.0 0.0 0.0 
0.0 0.0 0.0 
0.0 0.0 0.0 
0.0 0.0 0.0 
0.0 0.0 0.0 
0.0 0.0 0.0 
0.0 0.0 0.0 
0.0 0.0 0.0 
0.0 0.0 0.0 
0.0 0.0 0.0 
0.0 0.0 0.0 
0.0 0.0 0.0 
0.0 0.0 0.0 
0.0 0.0 0.0 
0.0 0.0 0.0 
0.0 0.0 0.0 
0.0 0.0 0.0 
0.0 0.0 0.0 
0.0 0.0 0.0 
0.0 0.0 0.0 
0.0 0.0 0.0 
0.0 0.0 0.0 
0.0 0.0 0.0 
0.0 0.0 0.0 
0.0 0.0 0.0 
0.0 0.0 0.0 
0.0 0.0 0.0 
0.0 0.0 0.0 
0.0 0.0 0.0 
0.0 0.0 0.0 
0.0 0.0 0.0 
0.0 0.0 0.0 
0.0 0.0 0.0 
0.0 0.0 0.0 
0.0 0.0 0.0 
0.0 0.0 0.0 
0.0 0.0 0.0 
0.0 0.0 0.0 
0.0 0.0 0.0 
0.0 0.0 0.0 
0.0 0.0 0.0 
0.0 0.0 0.0 
0.0 0.0 0.0 
0.0 0.0 0.0 
0.0 0.0 0.0 
0.0 0.0 0.0 
0.0 0.0 0.0 
0.0 0.0 0.0 
0.0 0.0 0.0 
0.0 0.0 0.0 
0.0 0.0 0.0 
0.0 0.0 0.0 
0.0 0.0 0.0 
0.0 0.0 0.0 
0.0 0.0 0.0 
0.0 0.0 0.0 
0.0 0.0 0.0 
0.0 0.0 0.0 
0.0 0.0 0.0 
0.0 0.0 0.0 
0.0 0.0 0.0 
0.0 0.0 0.0 
0.0 0.0 0.0 
0.0 0.0 0.0 
0.0 0.0 0.0 
0.0 0.0 0.0 
0.0 0.0 0.0 
0.0 0.0 0.0 
0.0 0.0 0.0 
0.0 0.0 0.0 
0.0 0.0 0.0 
0.0 0.0 0.0 
0.0 0.0 0.0 
0.0 0.0 0.0 
0.0 0.0 0.0 
0.0 0.0 0.0 
0.0 0.0 0.0 
0.0 0.0 0.0 
0.0 0.0 0.0 
0.0 0.0 0.0 
0.0 0.0 0.0 
0.0 0.0 0.0 
0.0 0.0 0.0 
0.0 0.0 0.0 
0.0 0.0 0.0 
0.0 0.0 0.0 
0.0 0.0 0.0 
0.0 0.0 0.0 
0.0 0.0 0.0 
0.0 0.0 0.0 
0.0 0.0 0.0 
0.0 0.0 0.0 
0.0 0.0 0.0 
0.0 0.0 0.0 
0.0 0.0 0.0 
0.0 0.0 0.0 
0.0 0.0 0.0 
0.0 0.0 0.0 
0.0 0.0 0.0 
0.0 0.0 0.0 
0.0 0.0 0.0 
0.0 0.0 0.0 
0.0 0.0 0.0 
0.0 0.0 0.0 
0.0 0.0 0.0 
0.0 0.0 0.0 
0.0 0.0 0.0 
0.0 0.0 0.0 
0.0 0.0 0.0 
0.0 0.0 0.0 
0.0 0.0 0.0 
0.0 0.0 0.0 
0.0 0.0 0.0 
0.0 0.0 0.0 
0.0 0.0 0.0 
0.0 0.0 0.0 
0.0 0.0 0.0 
0.0 0.0 0.0 
0.0 0.0 0.0 
0.0 0.0 0.0 
0.0 0.0 0.0 
0.0 0.0 0.0 
0.0 0.0 0.0 
0.0 0.0 0.0 
0.0 0.0 0.0 
0.0 0.0 0.0 
0.0 0.0 0.0 
0.0 0.0 0.0 
0.0 0.0 0.0 
0.0 0.0 0.0 
0.0 0.0 0.0 
0.0 0.0 0.0 
0.0 0.0 0.0 
0.0 0.0 0.0 
0.0 0.0 0.0 
0.0 0.0 0.0 
0.0 0.0 0.0 
0.0 0.0 0.0 
0.0 0.0 0.0 
0.0 0.0 0.0 
0.0 0.0 0.0 
0.0 0.0 0.0 
0.0 0.0 0.0 
0.0 0.0 0.0 
0.0 0.0 0.0 
0.0 0.0 0.0 
0.0 0.0 0.0 
0.0 0.0 0.0 
0.0 0.0 0.0 
0.0 0.0 0.0 
0.0 0.0 0.0 
0.0 0.0 0.0 
0.0 0.0 0.0 
0.0 0.0 0.0 
0.0 0.0 0.0 
0.0 0.0 0.0 
0.0 0.0 0.0 
0.0 0.0 0.0 
0.0 0.0 0.0 
0.0 0.0 0.0 
0.0 0.0 0.0 
0.0 0.0 0.0 
0.0 0.0 0.0 
0.0 0.0 0.0 
0.0 0.0 0.0 
0.0 0.0 0.0 
0.0 0.0 0.0 
0.0 0.0 0.0 
0.0 0.0 0.0 
0.0 0.0 0.0 
0.0 0.0 0.0 
0.0 0.0 0.0 
0.0 0.0 0.0 
0.0 0.0 0.0 
0.0 0.0 0.0 
0.0 0.0 0.0 
0.0 0.0 0.0 
0.0 0.0 0.0 
0.0 0.0 0.0 
0.0 0.0 0.0 
0.0 0.0 0.0 
0.0 0.0 0.0 
0.0 0.0 0.0 
0.0 0.0 0.0 
0.0 0.0 0.0 
0.0 0.0 0.0 
0.0 0.0 0.0 
0.0 0.0 0.0 
0.0 0.0 0.0 
0.0 0.0 0.0 
0.0 0.0 0.0 
0.0 0.0 0.0 
0.0 0.0 0.0 
0.0 0.0 0.0 
0.0 0.0 0.0 
0.0 0.0 0.0 
0.0 0.0 0.0 
0.0 0.0 0.0 
0.0 0.0 0.0 
0.0 0.0 0.0 
0.0 0.0 0.0 
0.0 0.0 0.0 
0.0 0.0 0.0 
0.0 0.0 0.0 
0.0 0.0 0.0 
0.0 0.0 0.0 
0.0 0.0 0.0 
0.0 0.0 0.0 
0.0 0.0 0.0 
0.0 0.0 0.0 
0.0 0.0 0.0 
0.0 0.0 0.0 
0.0 0.0 0.0 
0.0 0.0 0.0 
0.0 0.0 0.0 
0.0 0.0 0.0 
0.0 0.0 0.0 
0.0 0.0 0.0 
0.0 0.0 0.0 
0.0 0.0 0.0 
0.0 0.0 0.0 
0.0 0.0 0.0 
0.0 0.0 0.0 
0.0 0.0 0.0 
0.0 0.0 0.0 
0.0 0.0 0.0 
0.0 0.0 0.0 
0.0 0.0 0.0 
0.0 0.0 0.0 
0.0 0.0 0.0 
0.0 0.0 0.0 
0.0 0.0 0.0 
0.0 0.0 0.0 
0.0 0.0 0.0 
0.0 0.0 0.0 
0.0 0.0 0.0 
0.0 0.0 0.0 
0.0 0.0 0.0 
0.0 0.0 0.0 
0.0 0.0 0.0 
0.0 0.0 0.0 
0.0 0.0 0.0 
0.0 0.0 0.0 
0.0 0.0 0.0 
0.0 0.0 0.0 
0.0 0.0 0.0 
0.0 0.0 0.0 
0.0 0.0 0.0 
0.0 0.0 0.0 
0.0 0.0 0.0 
0.0 0.0 0.0 
0.0 0.0 0.0 
0.0 0.0 0.0 
0.0 0.0 0.0 
0.0 0.0 0.0 
0.0 0.0 0.0 
0.0 0.0 0.0 
0.0 0.0 0.0 
0.0 0.0 0.0 
0.0 0.0 0.0 
0.0 0.0 0.0 
0.0 0.0 0.0 
0.0 0.0 0.0 
0.0 0.0 0.0 
0.0 0.0 0.0 
0.0 0.0 0.0 
0.0 0.0 0.0 
0.0 0.0 0.0 
0.0 0.0 0.0 
0.0 0.0 0.0 
0.0 0.0 0.0 
0.0 0.0 0.0 
0.0 0.0 0.0 
0.0 0.0 0.0 
0.0 0.0 0.0 
0.0 0.0 0.0 
0.0 0.0 0.0 
0.0 0.0 0.0 
0.0 0.0 0.0 
0.0 0.0 0.0 
0.0 0.0 0.0 
0.0 0.0 0.0 
0.0 0.0 0.0 
0.0 0.0 0.0 
0.0 0.0 0.0 
0.0 0.0 0.0 
0.0 0.0 0.0 
0.0 0.0 0.0 
0.0 0.0 0.0 
0.0 0.0 0.0 
0.0 0.0 0.0 
0.0 0.0 0.0 
0.0 0.0 0.0 
0.0 0.0 0.0 
0.0 0.0 0.0 
0.0 0.0 0.0 
0.0 0.0 0.0 
0.0 0.0 0.0 
0.0 0.0 0.0 
0.0 0.0 0.0 
0.0 0.0 0.0 
0.0 0.0 0.0 
0.0 0.0 0.0 
0.0 0.0 0.0 
0.0 0.0 0.0 
0.0 0.0 0.0 
0.0 0.0 0.0 
0.0 0.0 0.0 
0.0 0.0 0.0 
0.0 0.0 0.0 
0.0 0.0 0.0 
0.0 0.0 0.0 
0.0 0.0 0.0 
0.0 0.0 0.0 
0.0 0.0 0.0 
0.0 0.0 0.0 
0.0 0.0 0.0 
0.0 0.0 0.0 
0.0 0.0 0.0 
0.0 0.0 0.0 
0.0 0.0 0.0 
0.0 0.0 0.0 
0.0 0.0 0.0 
0.0 0.0 0.0 
0.0 0.0 0.0 
0.0 0.0 0.0 
0.0 0.0 0.0 
0.0 0.0 0.0 
0.0 0.0 0.0 
0.0 0.0 0.0 
0.0 0.0 0.0 
0.0 0.0 0.0 
0.0 0.0 0.0 
0.0 0.0 0.0 
0.0 0.0 0.0 
0.0 0.0 0.0 
0.0 0.0 0.0 
0.0 0.0 0.0 
0.0 0.0 0.0 
0.0 0.0 0.0 
0.0 0.0 0.0 
0.0 0.0 0.0 
0.0 0.0 0.0 
0.0 0.0 0.0 
0.0 0.0 0.0 
0.0 0.0 0.0 
0.0 0.0 0.0 
0.0 0.0 0.0 
0.0 0.0 0.0 
0.0 0.0 0.0 
0.0 0.0 0.0 
0.0 0.0 0.0 
0.0 0.0 0.0 
0.0 0.0 0.0 
0.0 0.0 0.0 
0.0 0.0 0.0 
0.0 0.0 0.0 
0.0 0.0 0.0 
0.0 0.0 0.0 
0.0 0.0 0.0 
0.0 0.0 0.0 
0.0 0.0 0.0 
0.0 0.0 0.0 
0.0 0.0 0.0 
0.0 0.0 0.0 
0.0 0.0 0.0 
0.0 0.0 0.0 
0.0 0.0 0.0 
0.0 0.0 0.0 
0.0 0.0 0.0 
0.0 0.0 0.0 
0.0 0.0 0.0 
0.0 0.0 0.0 
0.0 0.0 0.0 
0.0 0.0 0.0 
0.0 0.0 0.0 
0.0 0.0 0.0 
0.0 0.0 0.0 
0.0 0.0 0.0 
0.0 0.0 0.0 
0.0 0.0 0.0 
0.0 0.0 0.0 
0.0 0.0 0.0 
0.0 0.0 0.0 
0.0 0.0 0.0 
0.0 0.0 0.0 
0.0 0.0 0.0 
0.0 0.0 0.0 
0.0 0.0 0.0 
0.0 0.0 0.0 
0.0 0.0 0.0 
0.0 0.0 0.0 
0.0 0.0 0.0 
0.0 0.0 0.0 
0.0 0.0 0.0 
0.0 0.0 0.0 
0.0 0.0 0.0 
0.0 0.0 0.0 
0.0 0.0 0.0 
0.0 0.0 0.0 
0.0 0.0 0.0 
0.0 0.0 0.0 
0.0 0.0 0.0 
0.0 0.0 0.0 
0.0 0.0 0.0 
0.0 0.0 0.0 
0.0 0.0 0.0 
0.0 0.0 0.0 
0.0 0.0 0.0 
0.0 0.0 0.0 
0.0 0.0 0.0 
0.0 0.0 0.0 
0.0 0.0 0.0 
0.0 0.0 0.0 
0.0 0.0 0.0 
0.0 0.0 0.0 
0.0 0.0 0.0 
0.0 0.0 0.0 
0.0 0.0 0.0 
0.0 0.0 0.0 
0.0 0.0 0.0 
0.0 0.0 0.0 
0.0 0.0 0.0 
0.0 0.0 0.0 
0.0 0.0 0.0 
0.0 0.0 0.0 
0.0 0.0 0.0 
0.0 0.0 0.0 
0.0 0.0 0.0 
0.0 0.0 0.0 
0.0 0.0 0.0 
0.0 0.0 0.0 
0.0 0.0 0.0 
0.0 0.0 0.0 
0.0 0.0 0.0 
0.0 0.0 0.0 
0.0 0.0 0.0 
0.0 0.0 0.0 
0.0 0.0 0.0 
0.0 0.0 0.0 
0.0 0.0 0.0 
0.0 0.0 0.0 
0.0 0.0 0.0 
0.0 0.0 0.0 
0.0 0.0 0.0 
0.0 0.0 0.0 
0.0 0.0 0.0 
0.0 0.0 0.0 
0.0 0.0 0.0 
0.0 0.0 0.0 
0.0 0.0 0.0 
0.0 0.0 0.0 
0.0 0.0 0.0 
0.0 0.0 0.0 
0.0 0.0 0.0 
0.0 0.0 0.0 
0.0 0.0 0.0 
0.0 0.0 0.0 
0.0 0.0 0.0 
0.0 0.0 0.0 
0.0 0.0 0.0 
0.0 0.0 0.0 
0.0 0.0 0.0 
0.0 0.0 0.0 
0.0 0.0 0.0 
0.0 0.0 0.0 
0.0 0.0 0.0 
0.0 0.0 0.0 
0.0 0.0 0.0 
0.0 0.0 0.0 
0.0 0.0 0.0 
0.0 0.0 0.0 
0.0 0.0 0.0 
0.0 0.0 0.0 
0.0 0.0 0.0 
0.0 0.0 0.0 
0.0 0.0 0.0 
0.0 0.0 0.0 
0.0 0.0 0.0 
0.0 0.0 0.0 
0.0 0.0 0.0 
0.0 0.0 0.0 
0.0 0.0 0.0 
0.0 0.0 0.0 
0.0 0.0 0.0 
0.0 0.0 0.0 
0.0 0.0 0.0 
0.0 0.0 0.0 
0.0 0.0 0.0 
0.0 0.0 0.0 
0.0 0.0 0.0 
0.0 0.0 0.0 
0.0 0.0 0.0 
0.0 0.0 0.0 
0.0 0.0 0.0 
0.0 0.0 0.0 
0.0 0.0 0.0 
0.0 0.0 0.0 
0.0 0.0 0.0 
0.0 0.0 0.0 
0.0 0.0 0.0 
0.0 0.0 0.0 
0.0 0.0 0.0 
0.0 0.0 0.0 
0.0 0.0 0.0 
0.0 0.0 0.0 
0.0 0.0 0.0 
0.0 0.0 0.0 
0.0 0.0 0.0 
0.0 0.0 0.0 
0.0 0.0 0.0 
0.0 0.0 0.0 
0.0 0.0 0.0 
0.0 0.0 0.0 
0.0 0.0 0.0 
0.0 0.0 0.0 
0.0 0.0 0.0 
0.0 0.0 0.0 
0.0 0.0 0.0 
0.0 0.0 0.0 
0.0 0.0 0.0 
0.0 0.0 0.0 
0.0 0.0 0.0 
0.0 0.0 0.0 
0.0 0.0 0.0 
0.0 0.0 0.0 
0.0 0.0 0.0 
0.0 0.0 0.0 
0.0 0.0 0.0 
0.0 0.0 0.0 
0.0 0.0 0.0 
0.0 0.0 0.0 
0.0 0.0 0.0 
0.0 0.0 0.0 
0.0 0.0 0.0 
0.0 0.0 0.0 
0.0 0.0 0.0 
0.0 0.0 0.0 
0.0 0.0 0.0 
0.0 0.0 0.0 
0.0 0.0 0.0 
0.0 0.0 0.0 
0.0 0.0 0.0 
0.0 0.0 0.0 
0.0 0.0 0.0 
0.0 0.0 0.0 
0.0 0.0 0.0 
0.0 0.0 0.0 
0.0 0.0 0.0 
0.0 0.0 0.0 
0.0 0.0 0.0 
0.0 0.0 0.0 
0.0 0.0 0.0 
0.0 0.0 0.0 
0.0 0.0 0.0 
0.0 0.0 0.0 
0.0 0.0 0.0 
0.0 0.0 0.0 
0.0 0.0 0.0 
0.0 0.0 0.0 
0.0 0.0 0.0 
0.0 0.0 0.0 
0.0 0.0 0.0 
0.0 0.0 0.0 
0.0 0.0 0.0 
0.0 0.0 0.0 
0.0 0.0 0.0 
0.0 0.0 0.0 
0.0 0.0 0.0 
0.0 0.0 0.0 
0.0 0.0 0.0 
0.0 0.0 0.0 
0.0 0.0 0.0 
0.0 0.0 0.0 
0.0 0.0 0.0 
0.0 0.0 0.0 
0.0 0.0 0.0 
0.0 0.0 0.0 
0.0 0.0 0.0 
0.0 0.0 0.0 
0.0 0.0 0.0 
0.0 0.0 0.0 
0.0 0.0 0.0 
0.0 0.0 0.0 
0.0 0.0 0.0 
0.0 0.0 0.0 
0.0 0.0 0.0 
0.0 0.0 0.0 
0.0 0.0 0.0 
0.0 0.0 0.0 
0.0 0.0 0.0 
0.0 0.0 0.0 
0.0 0.0 0.0 
0.0 0.0 0.0 
0.0 0.0 0.0 
0.0 0.0 0.0 
0.0 0.0 0.0 
0.0 0.0 0.0 
0.0 0.0 0.0 
0.0 0.0 0.0 
0.0 0.0 0.0 
0.0 0.0 0.0 
0.0 0.0 0.0 
0.0 0.0 0.0 
0.0 0.0 0.0 
0.0 0.0 0.0 
0.0 0.0 0.0 
0.0 0.0 0.0 
0.0 0.0 0.0 
0.0 0.0 0.0 
0.0 0.0 0.0 
0.0 0.0 0.0 
0.0 0.0 0.0 
0.0 0.0 0.0 
0.0 0.0 0.0 
0.0 0.0 0.0 
0.0 0.0 0.0 
0.0 0.0 0.0 
0.0 0.0 0.0 
0.0 0.0 0.0 
0.0 0.0 0.0 
0.0 0.0 0.0 
0.0 0.0 0.0 
0.0 0.0 0.0 
0.0 0.0 0.0 
0.0 0.0 0.0 
0.0 0.0 0.0 
0.0 0.0 0.0 
0.0 0.0 0.0 
0.0 0.0 0.0 
0.0 0.0 0.0 
0.0 0.0 0.0 
0.0 0.0 0.0 
0.0 0.0 0.0 
0.0 0.0 0.0 
0.0 0.0 0.0 
0.0 0.0 0.0 
0.0 0.0 0.0 
0.0 0.0 0.0 
0.0 0.0 0.0 
0.0 0.0 0.0 
0.0 0.0 0.0 
0.0 0.0 0.0 
0.0 0.0 0.0 
0.0 0.0 0.0 
0.0 0.0 0.0 
0.0 0.0 0.0 
0.0 0.0 0.0 
0.0 0.0 0.0 
0.0 0.0 0.0 
0.0 0.0 0.0 
0.0 0.0 0.0 
0.0 0.0 0.0 
0.0 0.0 0.0 
0.0 0.0 0.0 
0.0 0.0 0.0 
0.0 0.0 0.0 
0.0 0.0 0.0 
0.0 0.0 0.0 
0.0 0.0 0.0 
0.0 0.0 0.0 
0.0 0.0 0.0 
0.0 0.0 0.0 
0.0 0.0 0.0 
0.0 0.0 0.0 
0.0 0.0 0.0 
0.0 0.0 0.0 
0.0 0.0 0.0 
0.0 0.0 0.0 
0.0 0.0 0.0 
0.0 0.0 0.0 
0.0 0.0 0.0 
0.0 0.0 0.0 
0.0 0.0 0.0 
0.0 0.0 0.0 
0.0 0.0 0.0 
0.0 0.0 0.0 
0.0 0.0 0.0 
0.0 0.0 0.0 
0.0 0.0 0.0 
0.0 0.0 0.0 
0.0 0.0 0.0 
0.0 0.0 0.0 
0.0 0.0 0.0 
0.0 0.0 0.0 
0.0 0.0 0.0 
0.0 0.0 0.0 
0.0 0.0 0.0 
0.0 0.0 0.0 
0.0 0.0 0.0 
0.0 0.0 0.0 
0.0 0.0 0.0 
0.0 0.0 0.0 
0.0 0.0 0.0 
0.0 0.0 0.0 
0.0 0.0 0.0 
0.0 0.0 0.0 
0.0 0.0 0.0 
0.0 0.0 0.0 
0.0 0.0 0.0 
0.0 0.0 0.0 
0.0 0.0 0.0 
0.0 0.0 0.0 
0.0 0.0 0.0 
0.0 0.0 0.0 
0.0 0.0 0.0 
0.0 0.0 0.0 
0.0 0.0 0.0 
0.0 0.0 0.0 
0.0 0.0 0.0 
0.0 0.0 0.0 
0.0 0.0 0.0 
0.0 0.0 0.0 
0.0 0.0 0.0 
0.0 0.0 0.0 
0.0 0.0 0.0 
0.0 0.0 0.0 
0.0 0.0 0.0 
0.0 0.0 0.0 
0.0 0.0 0.0 
0.0 0.0 0.0 
0.0 0.0 0.0 
0.0 0.0 0.0 
0.0 0.0 0.0 
0.0 0.0 0.0 
0.0 0.0 0.0 
0.0 0.0 0.0 
0.0 0.0 0.0 
0.0 0.0 0.0 
0.0 0.0 0.0 
0.0 0.0 0.0 
0.0 0.0 0.0 
0.0 0.0 0.0 
0.0 0.0 0.0 
0.0 0.0 0.0 
0.0 0.0 0.0 
0.0 0.0 0.0 
0.0 0.0 0.0 
0.0 0.0 0.0 
0.0 0.0 0.0 
0.0 0.0 0.0 
0.0 0.0 0.0 
0.0 0.0 0.0 
0.0 0.0 0.0 
0.0 0.0 0.0 
0.0 0.0 0.0 
0.0 0.0 0.0 
0.0 0.0 0.0 
0.0 0.0 0.0 
0.0 0.0 0.0 
0.0 0.0 0.0 
0.0 0.0 0.0 
0.0 0.0 0.0 
0.0 0.0 0.0 
0.0 0.0 0.0 
0.0 0.0 0.0 
0.0 0.0 0.0 
0.0 0.0 0.0 
0.0 0.0 0.0 
0.0 0.0 0.0 
0.0 0.0 0.0 
0.0 0.0 0.0 
0.0 0.0 0.0 
0.0 0.0 0.0 
0.0 0.0 0.0 
0.0 0.0 0.0 
0.0 0.0 0.0 
0.0 0.0 0.0 
0.0 0.0 0.0 
0.0 0.0 0.0 
0.0 0.0 0.0 
0.0 0.0 0.0 
0.0 0.0 0.0 
0.0 0.0 0.0 
0.0 0.0 0.0 
0.0 0.0 0.0 
0.0 0.0 0.0 
0.0 0.0 0.0 
0.0 0.0 0.0 
0.0 0.0 0.0 
0.0 0.0 0.0 
0.0 0.0 0.0 
0.0 0.0 0.0 
0.0 0.0 0.0 
0.0 0.0 0.0 
0.0 0.0 0.0 
0.0 0.0 0.0 
0.0 0.0 0.0 
0.0 0.0 0.0 
0.0 0.0 0.0 
0.0 0.0 0.0 
0.0 0.0 0.0 
0.0 0.0 0.0 
0.0 0.0 0.0 
0.0 0.0 0.0 
0.0 0.0 0.0 
0.0 0.0 0.0 
0.0 0.0 0.0 
0.0 0.0 0.0 
0.0 0.0 0.0 
0.0 0.0 0.0 
0.0 0.0 0.0 
0.0 0.0 0.0 
0.0 0.0 0.0 
0.0 0.0 0.0 
0.0 0.0 0.0 
0.0 0.0 0.0 
0.0 0.0 0.0 
0.0 0.0 0.0 
0.0 0.0 0.0 
0.0 0.0 0.0 
0.0 0.0 0.0 
0.0 0.0 0.0 
0.0 0.0 0.0 
0.0 0.0 0.0 
0.0 0.0 0.0 
0.0 0.0 0.0 
0.0 0.0 0.0 
0.0 0.0 0.0 
0.0 0.0 0.0 
0.0 0.0 0.0 
0.0 0.0 0.0 
0.0 0.0 0.0 
0.0 0.0 0.0 
0.0 0.0 0.0 
0.0 0.0 0.0 
0.0 0.0 0.0 
0.0 0.0 0.0 
0.0 0.0 0.0 
0.0 0.0 0.0 
0.0 0.0 0.0 
0.0 0.0 0.0 
0.0 0.0 0.0 
0.0 0.0 0.0 
0.0 0.0 0.0 
0.0 0.0 0.0 
0.0 0.0 0.0 
0.0 0.0 0.0 
0.0 0.0 0.0 
0.0 0.0 0.0 
0.0 0.0 0.0 
0.0 0.0 0.0 
0.0 0.0 0.0 
0.0 0.0 0.0 
0.0 0.0 0.0 
0.0 0.0 0.0 
0.0 0.0 0.0 
0.0 0.0 0.0 
0.0 0.0 0.0 
0.0 0.0 0.0 
0.0 0.0 0.0 
0.0 0.0 0.0 
0.0 0.0 0.0 
0.0 0.0 0.0 
0.0 0.0 0.0 
0.0 0.0 0.0 
0.0 0.0 0.0 
0.0 0.0 0.0 
0.0 0.0 0.0 
0.0 0.0 0.0 
0.0 0.0 0.0 
0.0 0.0 0.0 
0.0 0.0 0.0 
0.0 0.0 0.0 
0.0 0.0 0.0 
0.0 0.0 0.0 
0.0 0.0 0.0 
0.0 0.0 0.0 
0.0 0.0 0.0 
0.0 0.0 0.0 
0.0 0.0 0.0 
0.0 0.0 0.0 
0.0 0.0 0.0 
0.0 0.0 0.0 
0.0 0.0 0.0 
0.0 0.0 0.0 
0.0 0.0 0.0 
0.0 0.0 0.0 
0.0 0.0 0.0 
0.0 0.0 0.0 
0.0 0.0 0.0 
0.0 0.0 0.0 
0.0 0.0 0.0 
0.0 0.0 0.0 
0.0 0.0 0.0 
0.0 0.0 0.0 
0.0 0.0 0.0 
0.0 0.0 0.0 
0.0 0.0 0.0 
0.0 0.0 0.0 
0.0 0.0 0.0 
0.0 0.0 0.0 
0.0 0.0 0.0 
0.0 0.0 0.0 
0.0 0.0 0.0 
0.0 0.0 0.0 
0.0 0.0 0.0 
0.0 0.0 0.0 
0.0 0.0 0.0 
0.0 0.0 0.0 
0.0 0.0 0.0 
0.0 0.0 0.0 
0.0 0.0 0.0 
0.0 0.0 0.0 
0.0 0.0 0.0 
0.0 0.0 0.0 
0.0 0.0 0.0 
0.0 0.0 0.0 
0.0 0.0 0.0 
0.0 0.0 0.0 
0.0 0.0 0.0 
0.0 0.0 0.0 
0.0 0.0 0.0 
0.0 0.0 0.0 
0.0 0.0 0.0 
0.0 0.0 0.0 
0.0 0.0 0.0 
0.0 0.0 0.0 
0.0 0.0 0.0 
0.0 0.0 0.0 
0.0 0.0 0.0 
0.0 0.0 0.0 
0.0 0.0 0.0 
0.0 0.0 0.0 
0.0 0.0 0.0 
0.0 0.0 0.0 
0.0 0.0 0.0 
0.0 0.0 0.0 
0.0 0.0 0.0 
0.0 0.0 0.0 
0.0 0.0 0.0 
0.0 0.0 0.0 
0.0 0.0 0.0 
0.0 0.0 0.0 
0.0 0.0 0.0 
0.0 0.0 0.0 
0.0 0.0 0.0 
0.0 0.0 0.0 
0.0 0.0 0.0 
0.0 0.0 0.0 
0.0 0.0 0.0 
0.0 0.0 0.0 
0.0 0.0 0.0 
0.0 0.0 0.0 
0.0 0.0 0.0 
0.0 0.0 0.0 
0.0 0.0 0.0 
0.0 0.0 0.0 
0.0 0.0 0.0 
0.0 0.0 0.0 
0.0 0.0 0.0 
0.0 0.0 0.0 
0.0 0.0 0.0 
0.0 0.0 0.0 
0.0 0.0 0.0 
0.0 0.0 0.0 
0.0 0.0 0.0 
0.0 0.0 0.0 
0.0 0.0 0.0 
0.0 0.0 0.0 
0.0 0.0 0.0 
0.0 0.0 0.0 
0.0 0.0 0.0 
0.0 0.0 0.0 
0.0 0.0 0.0 
0.0 0.0 0.0 
0.0 0.0 0.0 
0.0 0.0 0.0 
0.0 0.0 0.0 
0.0 0.0 0.0 
0.0 0.0 0.0 
0.0 0.0 0.0 
0.0 0.0 0.0 
0.0 0.0 0.0 
0.0 0.0 0.0 
0.0 0.0 0.0 
0.0 0.0 0.0 
0.0 0.0 0.0 
0.0 0.0 0.0 
0.0 0.0 0.0 
0.0 0.0 0.0 
0.0 0.0 0.0 
0.0 0.0 0.0 
0.0 0.0 0.0 
0.0 0.0 0.0 
0.0 0.0 0.0 
0.0 0.0 0.0 
0.0 0.0 0.0 
0.0 0.0 0.0 
0.0 0.0 0.0 
0.0 0.0 0.0 
0.0 0.0 0.0 
0.0 0.0 0.0 
0.0 0.0 0.0 
0.0 0.0 0.0 
0.0 0.0 0.0 
0.0 0.0 0.0 
0.0 0.0 0.0 
0.0 0.0 0.0 
0.0 0.0 0.0 
0.0 0.0 0.0 

TENSORS element_materi_stress float
-5.155201842991e+01 5.724864981207e+00 0.0 
5.724864981207e+00 -1.058150228416e+02 0.0 
0.0 0.0 -4.681011238144e+01 
-5.281271077200e+01 8.957078881126e+00 0.0 
8.957078881126e+00 -1.029373159396e+02 0.0 
0.0 0.0 -4.632500801347e+01 
-1.529383856331e+02 6.558510640175e+00 0.0 
6.558510640175e+00 -3.548685323563e+02 0.0 
0.0 0.0 -1.519420753968e+02 
-1.478843439209e+02 1.419825248021e+00 0.0 
1.419825248021e+00 -3.434212441793e+02 0.0 
0.0 0.0 -1.469916764301e+02 
-9.286210131310e+01 -3.482082401464e-01 0.0 
-3.482082401464e-01 -2.070439997690e+02 0.0 
0.0 0.0 -8.957183032462e+01 
-3.336116075402e+01 2.938660404178e+01 0.0 
2.938660404178e+01 -1.070648622001e+02 0.0 
0.0 0.0 -4.281056470714e+01 
-9.276276514652e+01 -7.019083131644e-01 0.0 
-7.019083131644e-01 -2.071694085881e+02 0.0 
0.0 0.0 -8.957965212040e+01 
-5.211089042141e+01 9.020705426441e+00 0.0 
9.020705426441e+00 -1.031737265055e+02 0.0 
0.0 0.0 -4.618538507806e+01 
-9.311105365296e+01 1.621445661715e+00 0.0 
1.621445661715e+00 -2.076723850132e+02 0.0 
0.0 0.0 -8.983503159985e+01 
-1.472959744041e+02 2.385502195542e-01 0.0 
2.385502195542e-01 -3.418805022627e+02 0.0 
0.0 0.0 -1.463529430000e+02 
-1.122989004346e+02 -1.375068462905e+00 0.0 
-1.375068462905e+00 -2.551907252205e+02 0.0 
0.0 0.0 -1.098468876965e+02 
-4.458289894982e+01 7.683735357746e+00 0.0 
7.683735357746e+00 -8.568556863267e+01 0.0 
0.0 0.0 -3.868054027475e+01 
-1.593379868447e+02 -1.442234500945e+00 0.0 
-1.442234500945e+00 -3.703023250880e+02 0.0 
0.0 0.0 -1.584920935798e+02 
-1.010660417841e+02 7.712189577586e-01 0.0 
7.712189577586e-01 -2.245937620257e+02 0.0 
0.0 0.0 -9.729794114294e+01 
-1.624247707777e+02 8.268582150480e-02 0.0 
8.268582150480e-02 -3.788060649639e+02 0.0 
0.0 0.0 -1.619692507225e+02 
-1.506784062017e+02 1.057905233145e-01 0.0 
1.057905233145e-01 -3.514778820494e+02 0.0 
0.0 0.0 -1.502468864753e+02 
-9.155429693886e+01 8.194060865660e-01 0.0 
8.194060865660e-01 -2.030703796539e+02 0.0 
0.0 0.0 -8.798740297783e+01 
-2.646398912541e+01 1.615826331795e+01 0.0 
1.615826331795e+01 -1.109900066051e+02 0.0 
0.0 0.0 -4.357555550541e+01 
-3.154934532710e+01 2.358922872228e-01 0.0 
2.358922872228e-01 -7.653224151012e+01 0.0 
0.0 0.0 -3.202447605117e+01 
-3.462018648231e+01 -9.921944089827e-01 0.0 
-9.921944089827e-01 -7.960143317159e+01 0.0 
0.0 0.0 -3.386648589617e+01 
-1.480029213455e+02 2.149522133589e+00 0.0 
2.149522133589e+00 -3.426401824741e+02 0.0 
0.0 0.0 -1.467929311459e+02 
-5.699150053547e+01 4.722358558398e+00 0.0 
4.722358558398e+00 -1.170306659140e+02 0.0 
0.0 0.0 -5.180664993484e+01 
-6.288796254743e+01 6.220757663271e+00 0.0 
6.220757663271e+00 -1.299067213156e+02 0.0 
0.0 0.0 -5.743840515892e+01 
-1.510528529550e+02 2.234549078206e+00 0.0 
2.234549078206e+00 -3.640056570696e+02 0.0 
0.0 0.0 -1.541175530074e+02 
-1.089727193876e+02 1.476209513843e+00 0.0 
1.476209513843e+00 -2.427623871900e+02 0.0 
0.0 0.0 -1.051205319733e+02 
-1.181978848094e+02 -1.912993935098e-01 0.0 
-1.912993935098e-01 -2.693483161469e+02 0.0 
0.0 0.0 -1.158638602869e+02 
-8.608762510895e+01 1.809848891617e+00 0.0 
1.809848891617e+00 -1.873766363489e+02 0.0 
0.0 0.0 -8.163927843736e+01 
-1.570349962736e+02 8.337617977576e+00 0.0 
8.337617977576e+00 -3.698670266479e+02 0.0 
0.0 0.0 -1.576706068765e+02 
-1.097288348054e+02 3.666365656658e+00 0.0 
3.666365656658e+00 -2.433545649223e+02 0.0 
0.0 0.0 -1.055250199183e+02 
-1.548450748277e+02 7.244932447076e-01 0.0 
7.244932447076e-01 -3.714713899573e+02 0.0 
0.0 0.0 -1.574949394355e+02 
-3.533335757611e+01 -2.119715507748e+01 0.0 
-2.119715507748e+01 -9.973379602511e+01 0.0 
0.0 0.0 -3.960705941474e+01 
-7.939244400898e+00 -7.108646101657e-01 0.0 
-7.108646101657e-01 -2.616050348674e+01 0.0 
0.0 0.0 -9.829924366292e+00 
-1.533182086315e+02 6.329534065972e+00 0.0 
6.329534065972e+00 -3.553170404213e+02 0.0 
0.0 0.0 -1.521905747158e+02 
-1.386872514964e+02 5.355439585963e-01 0.0 
5.355439585963e-01 -3.190797015037e+02 0.0 
0.0 0.0 -1.369300859000e+02 
-1.590064860765e+02 -1.986031297334e-01 0.0 
-1.986031297334e-01 -3.744259747369e+02 0.0 
0.0 0.0 -1.596297382440e+02 
-1.664321082865e+02 -2.922197510363e+00 0.0 
-2.922197510363e+00 -3.896788795668e+02 0.0 
0.0 0.0 -1.664332963560e+02 
-1.662044785832e+02 3.122596207294e-01 0.0 
3.122596207294e-01 -3.892964385245e+02 0.0 
0.0 0.0 -1.662502751323e+02 
-1.576378501197e+02 4.607786949505e+00 0.0 
4.607786949505e+00 -3.761943023704e+02 0.0 
0.0 0.0 -1.597496457470e+02 
-8.470658621917e+01 1.426206588072e+00 0.0 
1.426206588072e+00 -1.882291831629e+02 0.0 
0.0 0.0 -8.148073081462e+01 
-8.469495570610e+01 -1.310087770476e+00 0.0 
-1.310087770476e+00 -1.888666436554e+02 0.0 
0.0 0.0 -8.166847980844e+01 
-7.081143950456e+01 5.046041199856e+00 0.0 
5.046041199856e+00 -1.487373150014e+02 0.0 
0.0 0.0 -6.546462635180e+01 
-1.615361482015e+02 -3.014450432705e-01 0.0 
-3.014450432705e-01 -3.806553237401e+02 0.0 
0.0 0.0 -1.622574415825e+02 
-4.025686010640e+01 9.280436447084e+00 0.0 
9.280436447084e+00 -7.596683145902e+01 0.0 
0.0 0.0 -3.446710746962e+01 
-8.658587865202e+01 1.505096706902e+00 0.0 
1.505096706902e+00 -1.881151031809e+02 0.0 
0.0 0.0 -8.201029454986e+01 
-1.434633421476e+02 6.544748687995e-01 0.0 
6.544748687995e-01 -3.321791608752e+02 0.0 
0.0 0.0 -1.422927509068e+02 
-4.328909163669e+01 1.356048225063e+01 0.0 
1.356048225063e+01 -7.670376174977e+01 0.0 
0.0 0.0 -3.559785601594e+01 
-3.178625941219e+01 -2.456129631696e+01 0.0 
-2.456129631696e+01 -9.760395724579e+01 0.0 
0.0 0.0 -3.989898073198e+01 
-1.439254155077e+02 1.391610694185e-01 0.0 
1.391610694185e-01 -3.338326787683e+02 0.0 
0.0 0.0 -1.429274282828e+02 
-3.043022481585e+01 -2.323756455835e+01 0.0 
-2.323756455835e+01 -5.684490593058e+01 0.0 
0.0 0.0 -2.763247451691e+01 
-9.795919162063e+01 2.076366805207e+00 0.0 
2.076366805207e+00 -2.159225050667e+02 0.0 
0.0 0.0 -9.376450900620e+01 
-6.693054846128e+01 5.592516550496e+00 0.0 
5.592516550496e+00 -1.396112463038e+02 0.0 
0.0 0.0 -6.156253842954e+01 
-4.189630075544e+01 -3.214835077441e-02 0.0 
-3.214835077441e-02 -9.627259078561e+01 0.0 
0.0 0.0 -4.105066746232e+01 
-3.923235051812e+01 -1.641415501510e+01 0.0 
-1.641415501510e+01 -1.309098448681e+02 0.0 
0.0 0.0 -5.119125526143e+01 
-6.520928346751e+01 3.398707176524e+00 0.0 
3.398707176524e+00 -1.367395007926e+02 0.0 
0.0 0.0 -6.018463527804e+01 
-1.521573805962e+02 5.084009242916e+00 0.0 
5.084009242916e+00 -3.530033997368e+02 0.0 
0.0 0.0 -1.511482340999e+02 
-5.714749320683e+01 -4.757455100574e-01 0.0 
-4.757455100574e-01 -1.278532029343e+02 0.0 
0.0 0.0 -5.510020884233e+01 
-4.446708832224e+01 -1.213602344465e+00 0.0 
-1.213602344465e+00 -9.977868708809e+01 0.0 
0.0 0.0 -4.287373262310e+01 
-1.386080639032e+02 -1.175897948596e+00 0.0 
-1.175897948596e+00 -3.191130853185e+02 0.0 
0.0 0.0 -1.369163447665e+02 
-2.341167363136e+01 -8.551880827226e-01 0.0 
-8.551880827226e-01 -5.884815310734e+01 0.0 
0.0 0.0 -2.427794802161e+01 
-1.509991212769e+02 1.829374058650e+00 0.0 
1.829374058650e+00 -3.516503734594e+02 0.0 
0.0 0.0 -1.503948484209e+02 
-4.885070508092e+01 -2.207913625958e+01 0.0 
-2.207913625958e+01 -9.824781918678e+01 0.0 
0.0 0.0 -4.515945756350e+01 
-1.491386370657e+02 6.371747619113e+00 0.0 
6.371747619113e+00 -3.556198709075e+02 0.0 
0.0 0.0 -1.510275523919e+02 
-6.760158214002e+01 9.448582954861e+00 0.0 
9.448582954861e+00 -1.486552801773e+02 0.0 
0.0 0.0 -6.447705869518e+01 
-3.314766461708e+01 -1.668630228833e+01 0.0 
-1.668630228833e+01 -1.137998391665e+02 0.0 
0.0 0.0 -4.381837564889e+01 
-1.591766705591e+02 -1.523221621075e-01 0.0 
-1.523221621075e-01 -3.705329877905e+02 0.0 
0.0 0.0 -1.585128975049e+02 
-6.076905640642e+01 3.996711564736e+00 0.0 
3.996711564736e+00 -1.263498508136e+02 0.0 
0.0 0.0 -5.573567216599e+01 
-4.222253503739e+01 -8.661525272904e+00 0.0 
-8.661525272904e+00 -1.209244841848e+02 0.0 
0.0 0.0 -5.017899264931e+01 
-1.541143841284e+02 7.255559030245e+00 0.0 
7.255559030245e+00 -3.561898406662e+02 0.0 
0.0 0.0 -1.526912674384e+02 
-3.678367018780e+01 -8.560371045583e+00 0.0 
-8.560371045583e+00 -7.113167143924e+01 0.0 
0.0 0.0 -3.100301909652e+01 
-1.554338420342e+02 7.775820841398e+00 0.0 
7.775820841398e+00 -3.625023709028e+02 0.0 
0.0 0.0 -1.549808638811e+02 
-1.226268559351e+02 -4.262898532139e-01 0.0 
-4.262898532139e-01 -2.805093685679e+02 0.0 
0.0 0.0 -1.205408673509e+02 
-1.565531942688e+02 3.443930933713e+00 0.0 
3.443930933713e+00 -3.666241199605e+02 0.0 
0.0 0.0 -1.565531942688e+02 
-1.509438494338e+02 7.717061960265e+00 0.0 
7.717061960265e+00 -3.552247571651e+02 0.0 
0.0 0.0 -1.514505819797e+02 
-8.143536368809e+00 -1.145417190527e+00 0.0 
-1.145417190527e+00 -2.986881561355e+01 0.0 
0.0 0.0 -1.100370559471e+01 
-6.001484973360e+01 -1.864995001936e+00 0.0 
-1.864995001936e+00 -1.333421213454e+02 0.0 
0.0 0.0 -5.760709132371e+01 
-1.495994721866e+02 3.294377176070e+00 0.0 
3.294377176070e+00 -3.462087682443e+02 0.0 
0.0 0.0 -1.483424721293e+02 
-1.530994800399e+02 5.495699900188e+00 0.0 
5.495699900188e+00 -3.539620020101e+02 0.0 
0.0 0.0 -1.517184446150e+02 
-3.986281779471e+01 1.838140260399e+01 0.0 
1.838140260399e+01 -6.119071657781e+01 0.0 
0.0 0.0 -2.828326514907e+01 
-2.552016718106e+01 -6.725964281668e-01 0.0 
-6.725964281668e-01 -5.906645876912e+01 0.0 
0.0 0.0 -2.497598778506e+01 
-3.581295073896e+01 1.311849307989e+01 0.0 
1.311849307989e+01 -5.998379630414e+01 0.0 
0.0 0.0 -2.678030865802e+01 
-4.007721705148e+01 -1.287454914964e+01 0.0 
-1.287454914964e+01 -7.103226928368e+01 0.0 
0.0 0.0 -3.143358336286e+01 
-9.159411269338e+01 5.917836209280e-01 0.0 
5.917836209280e-01 -2.026716836272e+02 0.0 
0.0 0.0 -8.787973889617e+01 
-5.922727782563e+01 7.053623543516e+00 0.0 
7.053623543516e+00 -1.210972425176e+02 0.0 
0.0 0.0 -5.369735610295e+01 
-5.213375945464e+01 5.501793069399e+00 0.0 
5.501793069399e+00 -1.054549781341e+02 0.0 
0.0 0.0 -4.687662127662e+01 
-9.752177198276e+01 1.669996853708e+00 0.0 
1.669996853708e+00 -2.179947168218e+02 0.0 
0.0 0.0 -9.425494664138e+01 
-9.714873410440e+01 -3.109012670497e-01 0.0 
-3.109012670497e-01 -2.178060714875e+02 0.0 
0.0 0.0 -9.408644167756e+01 
-1.260845392500e+02 1.060452643990e-01 0.0 
1.060452643990e-01 -2.887092390917e+02 0.0 
0.0 0.0 -1.240381335025e+02 
-1.352248263120e+02 -9.118971215104e-01 0.0 
-9.118971215104e-01 -3.104773010747e+02 0.0 
0.0 0.0 -1.333106382160e+02 
-1.329119450270e+02 6.907035349984e+00 0.0 
6.907035349984e+00 -3.019378977325e+02 0.0 
0.0 0.0 -1.300549528278e+02 
-9.305479656704e+01 1.853407623556e+00 0.0 
1.853407623556e+00 -2.064210945856e+02 0.0 
0.0 0.0 -8.944276734578e+01 
-1.502010746742e+01 -1.354160163337e+00 0.0 
-1.354160163337e+00 -2.614743274422e+01 0.0 
0.0 0.0 -1.230392640650e+01 
-9.382830254339e+01 1.903668065886e+00 0.0 
1.903668065886e+00 -2.055450765313e+02 0.0 
0.0 0.0 -8.941201372240e+01 
-1.245707982007e+02 7.637617039172e-01 0.0 
7.637617039172e-01 -2.856850582334e+02 0.0 
0.0 0.0 -1.226767569303e+02 
-1.235406916975e+02 -2.592037654020e-02 0.0 
-2.592037654020e-02 -2.821923100840e+02 0.0 
0.0 0.0 -1.213199005344e+02 
-1.579424822974e+02 3.845939865854e+00 0.0 
3.845939865854e+00 -3.675521419302e+02 0.0 
0.0 0.0 -1.572483872683e+02 
-1.623217311224e+02 6.526541690108e+00 0.0 
6.526541690108e+00 -3.843537594802e+02 0.0 
0.0 0.0 -1.636026471808e+02 
-9.187321779240e+01 1.333463600090e+00 0.0 
1.333463600090e+00 -2.024147135883e+02 0.0 
0.0 0.0 -8.788637941420e+01 
-1.600705464316e+02 -6.418172405577e-01 0.0 
-6.418172405577e-01 -3.798595059600e+02 0.0 
0.0 0.0 -1.615790157175e+02 
-1.048963757360e+02 7.200481368836e-01 0.0 
7.200481368836e-01 -2.371203724998e+02 0.0 
0.0 0.0 -1.022050244707e+02 
-6.523263000865e+01 1.090854929276e+01 0.0 
1.090854929276e+01 -1.384706996666e+02 0.0 
0.0 0.0 -6.071099890259e+01 
-8.925655209004e+01 1.198674090930e+00 0.0 
1.198674090930e+00 -1.977627393800e+02 0.0 
0.0 0.0 -8.570578744103e+01 
-1.622387852406e+02 -1.527024810232e+00 0.0 
-1.527024810232e+00 -3.785826703659e+02 0.0 
0.0 0.0 -1.618464366819e+02 
-1.263348405724e+02 7.908221227557e+00 0.0 
7.908221227557e+00 -3.096557195046e+02 0.0 
0.0 0.0 -1.303971680231e+02 
-1.493158829482e+02 8.044923794945e+00 0.0 
8.044923794945e+00 -3.560761065352e+02 0.0 
0.0 0.0 -1.512175968450e+02 
-5.825673182025e+01 1.599446974787e+01 0.0 
1.599446974787e+01 -1.333196995855e+02 0.0 
0.0 0.0 -5.707292942173e+01 
-4.304561847973e+01 -2.758464598236e+01 0.0 
-2.758464598236e+01 -7.793506984719e+01 0.0 
0.0 0.0 -3.534806805050e+01 
-1.509597855827e+02 3.535836807687e-01 0.0 
3.535836807687e-01 -3.494933048229e+02 0.0 
0.0 0.0 -1.497359271217e+02 
-1.311032962918e+02 2.029597356401e-01 0.0 
2.029597356401e-01 -3.011429809849e+02 0.0 
0.0 0.0 -1.292738831830e+02 
-4.596605611577e+01 -3.283252407350e+01 0.0 
-3.283252407350e+01 -7.565106815600e+01 0.0 
0.0 0.0 -3.688356413576e+01 
-1.617669555497e+02 -8.038888788595e-01 0.0 
-8.038888788595e-01 -3.773732875449e+02 0.0 
0.0 0.0 -1.613420729284e+02 
-1.276265198811e+02 5.129047539449e+00 0.0 
5.129047539449e+00 -2.905466275380e+02 0.0 
0.0 0.0 -1.250519442257e+02 
-5.490293385473e+00 8.123796858758e-01 0.0 
8.123796858758e-01 -2.178898471821e+01 0.0 
0.0 0.0 -7.153498450664e+00 
-7.582125706588e+01 1.163148998900e+01 0.0 
1.163148998900e+01 -1.858381797384e+02 0.0 
0.0 0.0 -7.809783104127e+01 
-8.661021748711e+01 3.513708955137e+00 0.0 
3.513708955137e+00 -1.868197960142e+02 0.0 
0.0 0.0 -8.162900405039e+01 
-7.292770338017e+01 -1.670705914201e+00 0.0 
-1.670705914201e+00 -1.627346454963e+02 0.0 
0.0 0.0 -7.029870466295e+01 
-6.001058839523e+01 9.413175191924e+00 0.0 
9.413175191924e+00 -1.269788764539e+02 0.0 
0.0 0.0 -5.569683945474e+01 
-6.745401910032e+01 1.263463574149e+01 0.0 
1.263463574149e+01 -1.489334598425e+02 0.0 
0.0 0.0 -6.451624368284e+01 
-1.617297953371e+02 -1.534728722679e+00 0.0 
-1.534728722679e+00 -3.803189186807e+02 0.0 
0.0 0.0 -1.622146142053e+02 
-1.023119296870e+02 -6.154265843159e-01 0.0 
-6.154265843159e-01 -2.305556187385e+02 0.0 
0.0 0.0 -9.946026452764e+01 
-6.356483614014e+01 1.105357596708e+01 0.0 
1.105357596708e+01 -1.405442469707e+02 0.0 
0.0 0.0 -6.083272493325e+01 
-2.995313554114e+01 -3.669023698123e+00 0.0 
-3.669023698123e+00 -6.305171041015e+01 0.0 
0.0 0.0 -2.750145378539e+01 
-9.369737881784e+01 1.701362466101e+00 0.0 
1.701362466101e+00 -2.049241382090e+02 0.0 
0.0 0.0 -8.918645510806e+01 
-1.318188493312e+02 7.593927848823e-01 0.0 
7.593927848823e-01 -3.027751701436e+02 0.0 
0.0 0.0 -1.299782058424e+02 
-6.282569665471e+01 1.434061780478e+01 0.0 
1.434061780478e+01 -1.404534588946e+02 0.0 
0.0 0.0 -6.058374666480e+01 
-3.641412480870e+01 2.680144736508e+01 0.0 
2.680144736508e+01 -5.322490514322e+01 0.0 
0.0 0.0 -2.573568402501e+01 
-7.870846804716e+01 4.163719859087e+00 0.0 
4.163719859087e+00 -1.678345755237e+02 0.0 
0.0 0.0 -7.356291307127e+01 
-7.211293871214e+01 -2.209827518161e+00 0.0 
-2.209827518161e+00 -1.613641009124e+02 0.0 
0.0 0.0 -6.964311188736e+01 
-7.348095892931e+01 2.467421788146e+00 0.0 
2.467421788146e+00 -1.567309751640e+02 0.0 
0.0 0.0 -6.866358022798e+01 
-1.521393140911e+02 2.231843987836e+00 0.0 
2.231843987836e+00 -3.541923791804e+02 0.0 
0.0 0.0 -1.514995079815e+02 
-3.766159754986e+01 2.879098471371e+01 0.0 
2.879098471371e+01 -8.025230362418e+01 0.0 
0.0 0.0 -3.484258230855e+01 
-1.173362006275e+02 -1.806934633018e+00 0.0 
-1.806934633018e+00 -2.678669603179e+02 0.0 
0.0 0.0 -1.151609482836e+02 
-1.476235548110e+02 -2.765158910271e-01 0.0 
-2.765158910271e-01 -3.433816357290e+02 0.0 
0.0 0.0 -1.469015571620e+02 
-8.060471244727e+01 6.311284577740e+00 0.0 
6.311284577740e+00 -1.761396291984e+02 0.0 
0.0 0.0 -7.662330249372e+01 
-7.486473640516e+01 4.571064841186e+00 0.0 
4.571064841186e+00 -1.585691047544e+02 0.0 
0.0 0.0 -6.963015234787e+01 
-1.585306876742e+02 -1.969676590160e+00 0.0 
-1.969676590160e+00 -3.742729485400e+02 0.0 
0.0 0.0 -1.594410908643e+02 
-1.595889636104e+02 6.327870280466e-01 0.0 
6.327870280466e-01 -3.709759273384e+02 0.0 
0.0 0.0 -1.587694672846e+02 
-1.258345602249e+02 -1.661190078893e+00 0.0 
-1.661190078893e+00 -2.886705150724e+02 0.0 
0.0 0.0 -1.239515225892e+02 
-8.523007724399e+01 7.858041296089e+00 0.0 
7.858041296089e+00 -1.861127406278e+02 0.0 
0.0 0.0 -8.100284536154e+01 
-1.603379114738e+02 6.984229004528e-01 0.0 
6.984229004528e-01 -3.826715036652e+02 0.0 
0.0 0.0 -1.625028245417e+02 
-7.703275374151e+01 5.130906433615e+00 0.0 
5.130906433615e+00 -1.660771817956e+02 0.0 
0.0 0.0 -7.253298066113e+01 
-1.503814104538e+02 2.013652832656e+00 0.0 
2.013652832656e+00 -3.493050349434e+02 0.0 
0.0 0.0 -1.495059336192e+02 
-1.556507066057e+02 7.784919431686e+00 0.0 
7.784919431686e+00 -3.625266636116e+02 0.0 
0.0 0.0 -1.550532110652e+02 
-1.012557929407e+02 2.785326882941e+00 0.0 
2.785326882941e+00 -2.240988783184e+02 0.0 
0.0 0.0 -9.720640137773e+01 
-1.151592983173e+02 -1.984809425449e-01 0.0 
-1.984809425449e-01 -2.614784943383e+02 0.0 
0.0 0.0 -1.125913377967e+02 
-7.760303869186e+01 7.657168514648e+00 0.0 
7.657168514648e+00 -1.664730808897e+02 0.0 
0.0 0.0 -7.282283587447e+01 
-6.933750118081e+01 2.770119883405e+00 0.0 
2.770119883405e+00 -1.471405770328e+02 0.0 
0.0 0.0 -6.454342346407e+01 
-8.822096329216e+01 6.495106336611e+00 0.0 
6.495106336611e+00 -1.957211149695e+02 0.0 
0.0 0.0 -8.478262347849e+01 
-6.498730550959e+01 1.492825847819e+01 0.0 
1.492825847819e+01 -1.540635195875e+02 0.0 
0.0 0.0 -6.531524752914e+01 
-8.993639902124e+01 1.106568597746e+00 0.0 
1.106568597746e+00 -2.004276811638e+02 0.0 
0.0 0.0 -8.670922405551e+01 
-7.346256502181e+01 1.360507723829e+01 0.0 
1.360507723829e+01 -1.851807575117e+02 0.0 
0.0 0.0 -7.719299676006e+01 
-1.111420221981e+01 2.015502011210e-01 0.0 
2.015502011210e-01 -2.525569926884e+01 0.0 
0.0 0.0 -1.088641232004e+01 
-9.562429118975e+01 1.543029392441e-01 0.0 
1.543029392441e-01 -2.152288617894e+02 0.0 
0.0 0.0 -9.285594589373e+01 
-2.436892761731e+01 -3.181439398005e-01 0.0 
-3.181439398005e-01 -5.983654419899e+01 0.0 
0.0 0.0 -2.486164154489e+01 
-8.265869077020e+01 3.840982277329e+00 0.0 
3.840982277329e+00 -1.774580950607e+02 0.0 
0.0 0.0 -7.763503574928e+01 
-1.620345043052e+02 7.556498645406e-01 0.0 
7.556498645406e-01 -3.828071579747e+02 0.0 
0.0 0.0 -1.630524986840e+02 
-5.944041039607e+01 1.289649491947e+01 0.0 
1.289649491947e+01 -1.334984571555e+02 0.0 
0.0 0.0 -5.748166026548e+01 
-1.303722830433e+02 -1.346910273362e+00 0.0 
-1.346910273362e+00 -2.989929578205e+02 0.0 
0.0 0.0 -1.284095722591e+02 
-4.602710124329e+01 1.177665872168e+01 0.0 
1.177665872168e+01 -8.499282743760e+01 0.0 
0.0 0.0 -3.890597860427e+01 
-1.269062193987e+02 6.335680582981e+00 0.0 
6.335680582981e+00 -3.096963592682e+02 0.0 
0.0 0.0 -1.305807736001e+02 
-8.993518020362e+01 1.121162590177e-01 0.0 
1.121162590177e-01 -2.018624274142e+02 0.0 
0.0 0.0 -8.713928228534e+01 
-7.079152272227e+01 1.261123349625e+01 0.0 
1.261123349625e+01 -1.793767658466e+02 0.0 
0.0 0.0 -7.465048657065e+01 
-1.426587977190e+02 3.728739675873e-01 0.0 
3.728739675873e-01 -3.291277158601e+02 0.0 
0.0 0.0 -1.411359540737e+02 
-3.590215305519e+01 -7.412509916199e+00 0.0 
-7.412509916199e+00 -6.388265520664e+01 0.0 
0.0 0.0 -2.897161264845e+01 
-1.508169665960e+02 -1.473579058795e+00 0.0 
-1.473579058795e+00 -3.491562578122e+02 0.0 
0.0 0.0 -1.495919673225e+02 
-9.318898020359e+01 3.107795749742e+00 0.0 
3.107795749742e+00 -2.041546972142e+02 0.0 
0.0 0.0 -8.880310322535e+01 
-1.612096944343e+02 -1.271357390331e+00 0.0 
-1.271357390331e+00 -3.763317833829e+02 0.0 
0.0 0.0 -1.608624433452e+02 
-8.941363298068e+01 -4.299282799944e-02 0.0 
-4.299282799944e-02 -2.007405394139e+02 0.0 
0.0 0.0 -8.664625171838e+01 
-6.165800238457e+01 1.401168138246e+01 0.0 
1.401168138246e+01 -1.465742397639e+02 0.0 
0.0 0.0 -6.206967264455e+01 
-8.167207510974e+01 1.952507264368e+00 0.0 
1.952507264368e+00 -1.760056919408e+02 0.0 
0.0 0.0 -7.690333011516e+01 
-1.127223587093e+02 1.933168184997e-02 0.0 
1.933168184997e-02 -2.566724179604e+02 0.0 
0.0 0.0 -1.104184330009e+02 
-4.423082111673e+01 7.692052201751e+00 0.0 
7.692052201751e+00 -8.589654959466e+01 0.0 
0.0 0.0 -3.863821121342e+01 
-6.777840773166e+01 1.408248703284e+01 0.0 
1.408248703284e+01 -1.783822242963e+02 0.0 
0.0 0.0 -7.344818960837e+01 
-1.194604180472e+02 1.495891578495e+00 0.0 
1.495891578495e+00 -2.721076127530e+02 0.0 
0.0 0.0 -1.170704092400e+02 
-8.941973954309e+01 -4.652829386911e-01 0.0 
-4.652829386911e-01 -2.006276598356e+02 0.0 
0.0 0.0 -8.661421981360e+01 
-6.850686803207e+01 1.289717765417e+01 0.0 
1.289717765417e+01 -1.660815772305e+02 0.0 
0.0 0.0 -6.997653357876e+01 
-7.735528135268e+01 2.209701765686e+00 0.0 
2.209701765686e+00 -1.661819045070e+02 0.0 
0.0 0.0 -7.266115575790e+01 
-1.388291458991e+02 6.374602629249e+00 0.0 
6.374602629249e+00 -3.212165644410e+02 0.0 
0.0 0.0 -1.376137131020e+02 
-8.060994796485e+01 -1.903381771892e+00 0.0 
-1.903381771892e+00 -1.806447813140e+02 0.0 
0.0 0.0 -7.797641878366e+01 
-1.581564795519e+02 7.615513140805e+00 0.0 
7.615513140805e+00 -3.715089999503e+02 0.0 
0.0 0.0 -1.584996438507e+02 
-1.560701811111e+02 8.454769376468e+00 0.0 
8.454769376468e+00 -3.638004778436e+02 0.0 
0.0 0.0 -1.555611976864e+02 
-5.820401314734e+01 1.061204470089e+01 0.0 
1.061204470089e+01 -1.186942067771e+02 0.0 
0.0 0.0 -5.266946597732e+01 
-8.121139027935e+01 -2.065751844297e+00 0.0 
-2.065751844297e+00 -1.810199056581e+02 0.0 
0.0 0.0 -7.826938878124e+01 
-1.421358886866e+02 3.455803048644e+00 0.0 
3.455803048644e+00 -3.476807261526e+02 0.0 
0.0 0.0 -1.465449844518e+02 
-7.418124552924e+01 6.342966942483e+00 0.0 
6.342966942483e+00 -1.571548520552e+02 0.0 
0.0 0.0 -6.900082927533e+01 
-5.178684997573e+01 8.586021874224e+00 0.0 
8.586021874224e+00 -1.055848879060e+02 0.0 
0.0 0.0 -4.681152136450e+01 
-8.943895876525e+01 2.376848312219e+00 0.0 
2.376848312219e+00 -1.950711245980e+02 0.0 
0.0 0.0 -8.495302500897e+01 
-7.191556082044e+01 1.384520658150e+01 0.0 
1.384520658150e+01 -1.737811098047e+02 0.0 
0.0 0.0 -7.330900118753e+01 
-1.493489591512e+02 9.315747875709e-01 0.0 
9.315747875709e-01 -3.481562482581e+02 0.0 
0.0 0.0 -1.488515622228e+02 
-1.282050018586e+02 4.338519621141e+00 0.0 
4.338519621141e+00 -2.909309206977e+02 0.0 
0.0 0.0 -1.253407767669e+02 
-1.468451769901e+02 -1.291721549317e+00 0.0 
-1.291721549317e+00 -3.392469696186e+02 0.0 
0.0 0.0 -1.454276439826e+02 
-4.179289226904e+01 1.578213953047e+01 0.0 
1.578213953047e+01 -6.885931660455e+01 0.0 
0.0 0.0 -3.208167059637e+01 
-6.203738186714e+01 1.409074920485e+01 0.0 
1.409074920485e+01 -1.726577002155e+02 0.0 
0.0 0.0 -7.000852462479e+01 
-1.319495879969e+02 4.905212618955e+00 0.0 
4.905212618955e+00 -3.008001656416e+02 0.0 
0.0 0.0 -1.294249260915e+02 
-7.101411448420e+01 2.436824866802e+01 0.0 
2.436824866802e+01 -7.964560149189e+01 0.0 
0.0 0.0 -4.546587314533e+01 
-7.336722387689e+01 4.063545290959e+00 0.0 
4.063545290959e+00 -1.567439214295e+02 0.0 
0.0 0.0 -6.863334359193e+01 
-1.327703656394e+02 1.662972528857e+00 0.0 
1.662972528857e+00 -3.279165109780e+02 0.0 
0.0 0.0 -1.378060629852e+02 
-1.457608160856e+01 -1.032893361582e-01 0.0 
-1.032893361582e-01 -4.208902977364e+01 0.0 
0.0 0.0 -1.659953341466e+01 
-1.513141898973e+02 4.771218036466e+00 0.0 
4.771218036466e+00 -3.497653639650e+02 0.0 
0.0 0.0 -1.499238661587e+02 
-1.170898704630e+02 2.651266587352e+00 0.0 
2.651266587352e+00 -2.625265329183e+02 0.0 
0.0 0.0 -1.134849210144e+02 
-7.345349417883e+01 -9.031107189104e+00 0.0 
-9.031107189104e+00 -1.808631983943e+02 0.0 
0.0 0.0 -7.589500777194e+01 
-1.319117494552e+02 2.879799697161e-01 0.0 
2.879799697161e-01 -3.274157172129e+02 0.0 
0.0 0.0 -1.373982400005e+02 
-1.003590680412e+02 2.509942705559e+00 0.0 
2.509942705559e+00 -2.206715699511e+02 0.0 
0.0 0.0 -9.590919139769e+01 
-1.067396710214e+02 2.852932443727e+00 0.0 
2.852932443727e+00 -2.358125397424e+02 0.0 
0.0 0.0 -1.023656632291e+02 
-1.553758523331e+02 1.675645414300e+00 0.0 
1.675645414300e+00 -3.713337620580e+02 0.0 
0.0 0.0 -1.576128843173e+02 
-5.908861899673e+01 -8.732036134414e+00 0.0 
-8.732036134414e+00 -1.332652203528e+02 0.0 
0.0 0.0 -5.730615180487e+01 
-9.157873318692e+01 7.359485078912e+00 0.0 
7.359485078912e+00 -2.063835746216e+02 0.0 
0.0 0.0 -8.898869234255e+01 
-9.696706406036e+01 3.888213063778e+00 0.0 
3.888213063778e+00 -2.136236910838e+02 0.0 
0.0 0.0 -9.277722654325e+01 
-1.220630480961e+02 4.376363377352e+00 0.0 
4.376363377352e+00 -2.735516284715e+02 0.0 
0.0 0.0 -1.182844029703e+02 
-9.800780733989e+01 4.791325744597e+00 0.0 
4.791325744597e+00 -2.145109051463e+02 0.0 
0.0 0.0 -9.335561374586e+01 
-9.019367548694e+01 4.301923933037e+00 0.0 
4.301923933037e+00 -1.953789537233e+02 0.0 
0.0 0.0 -8.527178876307e+01 
-1.120470901364e+02 7.758658168994e+00 0.0 
7.758658168994e+00 -2.820840963475e+02 0.0 
0.0 0.0 -1.178393559452e+02 
-1.353226957468e+02 7.928604545686e+00 0.0 
7.928604545686e+00 -3.109600949386e+02 0.0 
0.0 0.0 -1.334848372056e+02 
-4.878436894711e+01 2.275759510900e+01 0.0 
2.275759510900e+01 -9.554594021557e+01 0.0 
0.0 0.0 -4.442289985397e+01 
-5.777142972155e+01 8.050833210570e+00 0.0 
8.050833210570e+00 -1.189587642326e+02 0.0 
0.0 0.0 -5.261905818624e+01 
-6.431705080598e+01 8.054230402144e+00 0.0 
8.054230402144e+00 -1.374169293908e+02 0.0 
0.0 0.0 -6.012019405903e+01 
-8.835432827342e+01 8.847393989131e+00 0.0 
8.847393989131e+00 -1.962357156107e+02 0.0 
0.0 0.0 -8.497701316522e+01 
-1.333845948125e+02 6.128131245326e+00 0.0 
6.128131245326e+00 -3.022694324047e+02 0.0 
0.0 0.0 -1.302962081652e+02 
-3.351918992896e+01 2.213993519130e+01 0.0 
2.213993519130e+01 -1.247785466544e+02 0.0 
0.0 0.0 -4.809798871722e+01 
-1.281310812482e+02 6.216258703210e-01 0.0 
6.216258703210e-01 -3.172298242904e+02 0.0 
0.0 0.0 -1.332082716616e+02 
-8.929230516537e+01 1.123240722419e+00 0.0 
1.123240722419e+00 -1.993559734643e+02 0.0 
0.0 0.0 -8.619448358890e+01 
-6.572364985849e+01 1.330989214685e+01 0.0 
1.330989214685e+01 -1.740651667948e+02 0.0 
0.0 0.0 -7.153664499599e+01 
-1.237251796675e+02 -4.285235207986e-01 0.0 
-4.285235207986e-01 -3.063400676983e+02 0.0 
0.0 0.0 -1.286195742098e+02 
-9.294603053071e+00 9.530188600735e-01 0.0 
9.530188600735e-01 -2.850725232403e+01 0.0 
0.0 0.0 -1.094055661313e+01 
-1.248965554524e+02 3.048981341014e+00 0.0 
3.048981341014e+00 -2.821341087487e+02 0.0 
0.0 0.0 -1.217091992604e+02 
-6.281402791495e+00 -5.686119419323e-01 0.0 
-5.686119419323e-01 -2.371183769061e+01 0.0 
0.0 0.0 -8.359213596677e+00 
-1.727777764201e+01 -3.244896397889e-01 0.0 
-3.244896397889e-01 -4.299440178018e+01 0.0 
0.0 0.0 -1.768165382666e+01 
-3.761143787684e+01 1.081036629706e+01 0.0 
1.081036629706e+01 -6.767115954103e+01 0.0 
0.0 0.0 -3.062485748601e+01 
-5.163894682697e+01 -8.423783144375e+00 0.0 
-8.423783144375e+00 -1.125648212940e+02 0.0 
0.0 0.0 -4.886113043629e+01 
-1.298092304301e+02 4.742798336845e+00 0.0 
4.742798336845e+00 -2.931170250413e+02 0.0 
0.0 0.0 -1.264778766414e+02 
-4.933666268596e+01 -7.268276101227e+00 0.0 
-7.268276101227e+00 -1.073947523260e+02 0.0 
0.0 0.0 -4.661942450358e+01 
-4.607442318207e+01 1.848206091477e+01 0.0 
1.848206091477e+01 -1.006846305753e+02 0.0 
0.0 0.0 -4.294088693491e+01 
-4.607696984871e+01 -1.978153705749e+01 0.0 
-1.978153705749e+01 -1.111708004496e+02 0.0 
0.0 0.0 -4.544736468874e+01 
-3.672304617157e+01 -6.514813277760e+00 0.0 
-6.514813277760e+00 -7.133113137485e+01 0.0 
0.0 0.0 -3.193266701275e+01 
-1.366944999393e+02 1.351219552497e+00 0.0 
1.351219552497e+00 -3.372602325052e+02 0.0 
0.0 0.0 -1.417864197333e+02 
-9.391777718635e+01 5.192630176406e+00 0.0 
5.192630176406e+00 -2.045824900212e+02 0.0 
0.0 0.0 -8.915008016227e+01 
-1.591654123272e+02 -1.978947673579e+00 0.0 
-1.978947673579e+00 -3.706720358235e+02 0.0 
0.0 0.0 -1.585512344452e+02 
-5.326587108306e+01 9.498703780437e+00 0.0 
9.498703780437e+00 -1.096909418721e+02 0.0 
0.0 0.0 -4.942874341139e+01 
-5.100721234108e+01 1.722408780616e+01 0.0 
1.722408780616e+01 -1.215267631498e+02 0.0 
0.0 0.0 -5.136019264727e+01 
-7.311655441192e+01 1.156350192496e+01 0.0 
1.156350192496e+01 -1.923237138661e+02 0.0 
0.0 0.0 -7.923208048341e+01 
-6.893624752583e+01 4.568351705294e+00 0.0 
4.568351705294e+00 -1.462797643681e+02 0.0 
0.0 0.0 -6.416480356818e+01 
-1.270222095868e+02 -6.516418551470e-01 0.0 
-6.516418551470e-01 -3.166308120909e+02 0.0 
0.0 0.0 -1.326959065033e+02 
-1.618988040477e+02 -2.085263919099e+00 0.0 
-2.085263919099e+00 -3.784279598850e+02 0.0 
0.0 0.0 -1.616980291798e+02 
-1.255528191769e+02 5.733489168995e+00 0.0 
5.733489168995e+00 -2.823644359629e+02 0.0 
0.0 0.0 -1.219751765419e+02 
-4.855079083943e+01 1.559521709780e+01 0.0 
1.559521709780e+01 -1.503573479154e+02 0.0 
0.0 0.0 -5.927244162646e+01 
-1.372206823735e+02 2.493789946375e+00 0.0 
2.493789946375e+00 -3.374969645763e+02 0.0 
0.0 0.0 -1.420152940849e+02 
-1.215213392424e+02 -1.668031518486e+00 0.0 
-1.668031518486e+00 -2.776990279334e+02 0.0 
0.0 0.0 -1.193661101527e+02 
-9.273257086332e+01 8.018065817846e+00 0.0 
8.018065817846e+00 -2.054863316618e+02 0.0 
0.0 0.0 -8.906567075754e+01 
-1.207622707538e+02 3.151911505525e+00 0.0 
3.151911505525e+00 -2.716651899843e+02 0.0 
0.0 0.0 -1.173282382214e+02 
-1.531746618163e+02 8.139000383295e+00 0.0 
8.139000383295e+00 -3.623026027378e+02 0.0 
0.0 0.0 -1.542431793662e+02 
-7.006492715420e+01 1.245740931717e+01 0.0 
1.245740931717e+01 -1.912174732642e+02 0.0 
0.0 0.0 -7.798472012552e+01 
-4.727036845399e+01 1.904683155857e+01 0.0 
1.904683155857e+01 -1.053994755247e+02 0.0 
0.0 0.0 -4.540095319361e+01 
-1.057815595642e+02 5.209059632496e+00 0.0 
5.209059632496e+00 -2.335504016145e+02 0.0 
0.0 0.0 -1.013995883536e+02 
-1.577318517448e+02 2.973320701497e+00 0.0 
2.973320701497e+00 -3.675840304011e+02 0.0 
0.0 0.0 -1.571947646438e+02 
-9.130235408512e+01 9.651782028934e+00 0.0 
9.651782028934e+00 -2.066794080118e+02 0.0 
0.0 0.0 -8.899452862908e+01 
-8.952717297798e+01 8.313430047541e+00 0.0 
8.313430047541e+00 -2.381049152507e+02 0.0 
0.0 0.0 -9.788962646862e+01 
-9.731677226106e+01 4.591639636330e-01 0.0 
4.591639636330e-01 -2.190461744481e+02 0.0 
0.0 0.0 -9.450888401274e+01 
-3.791538328539e+01 -1.269881106960e+01 0.0 
-1.269881106960e+01 -6.888011244106e+01 0.0 
0.0 0.0 -2.951068734409e+01 
-9.699743294031e+01 2.782130876722e+00 0.0 
2.782130876722e+00 -2.136287972392e+02 0.0 
0.0 0.0 -9.278786905384e+01 
-5.356205920072e+01 1.570900765655e+01 0.0 
1.570900765655e+01 -1.525062879606e+02 0.0 
0.0 0.0 -6.142050414838e+01 
-3.751379144557e+01 1.785457870940e+01 0.0 
1.785457870940e+01 -1.363157640147e+02 0.0 
0.0 0.0 -5.296701742787e+01 
-3.620780628724e+01 -2.136981767704e+01 0.0 
-2.136981767704e+01 -1.236859391535e+02 0.0 
0.0 0.0 -4.861021886624e+01 
-1.288654850117e+02 2.969094985411e+00 0.0 
2.969094985411e+00 -2.923888394706e+02 0.0 
0.0 0.0 -1.259762973447e+02 
-1.017349503225e+02 5.526898371325e+00 0.0 
5.526898371325e+00 -2.239249087236e+02 0.0 
0.0 0.0 -9.729795771383e+01 
-6.671091149359e+01 1.235461990400e+01 0.0 
1.235461990400e+01 -1.542003033301e+02 0.0 
0.0 0.0 -6.587336444709e+01 
-1.337251061009e+02 4.624639403759e+00 0.0 
4.624639403759e+00 -3.033357136091e+02 0.0 
0.0 0.0 -1.307182459130e+02 
-1.292341689373e+02 6.315025857684e+00 0.0 
6.315025857684e+00 -2.919404787596e+02 0.0 
0.0 0.0 -1.259523943091e+02 
-9.698711659602e+01 7.320565642807e+00 0.0 
7.320565642807e+00 -2.147264753429e+02 0.0 
0.0 0.0 -9.311407758168e+01 
-1.623620167957e+02 -1.537354572016e+00 0.0 
-1.537354572016e+00 -3.794725670022e+02 0.0 
0.0 0.0 -1.621503751394e+02 
-9.436776502076e+01 6.167441053525e+00 0.0 
6.167441053525e+00 -2.487599107645e+02 0.0 
0.0 0.0 -1.025383027356e+02 
-1.011905833417e+02 6.750599167632e+00 0.0 
6.750599167632e+00 -2.240292686762e+02 0.0 
0.0 0.0 -9.716595560537e+01 
-7.916719959184e+01 1.272453827017e+01 0.0 
1.272453827017e+01 -1.932737494137e+02 0.0 
0.0 0.0 -8.133228470166e+01 
-9.819652499596e+01 7.661983999195e+00 0.0 
7.661983999195e+00 -2.560127510713e+02 0.0 
0.0 0.0 -1.058627828202e+02 
-4.202937847342e+01 1.343789829380e+01 0.0 
1.343789829380e+01 -1.476563717434e+02 0.0 
0.0 0.0 -5.650572506505e+01 
-9.250208223238e+01 1.416688249064e+00 0.0 
1.416688249064e+00 -2.036600294404e+02 0.0 
0.0 0.0 -8.844863350183e+01 
-7.258358729542e+01 1.031530249472e+01 0.0 
1.031530249472e+01 -2.027877834007e+02 0.0 
0.0 0.0 -8.221141120883e+01 
-5.112557615442e+01 -4.838479354663e+00 0.0 
-4.838479354663e+00 -1.686973960151e+02 0.0 
0.0 0.0 -6.554689165085e+01 
-1.245558793662e+02 3.772784166301e+00 0.0 
3.772784166301e+00 -2.814117706481e+02 0.0 
0.0 0.0 -1.213902950043e+02 
-9.972056675896e+01 3.590289236142e+00 0.0 
3.590289236142e+00 -1.020803374672e+02 0.0 
0.0 0.0 -6.081401244020e+01 
-1.020322376756e+02 4.576754488817e+00 0.0 
4.576754488817e+00 -2.242172591874e+02 0.0 
0.0 0.0 -9.747484905891e+01 
-5.472762226114e+01 1.279526050569e+01 0.0 
1.279526050569e+01 -1.654422238265e+02 0.0 
0.0 0.0 -6.565095382630e+01 
-4.733998930964e+01 1.966018557259e+01 0.0 
1.966018557259e+01 -1.204541100554e+02 0.0 
0.0 0.0 -4.993822980952e+01 
-3.795326306236e+01 1.047886711164e+01 0.0 
1.047886711164e+01 -1.447828876561e+02 0.0 
0.0 0.0 -5.409110315633e+01 
-1.087204715089e+02 3.885921846838e+00 0.0 
3.885921846838e+00 -2.423466846128e+02 0.0 
0.0 0.0 -1.049201468365e+02 
-1.875421126082e+01 -2.006850454107e+00 0.0 
-2.006850454107e+00 -4.247241335827e+01 0.0 
0.0 0.0 -1.796798738573e+01 
-6.862933494278e+01 6.894896856332e+00 0.0 
6.894896856332e+00 -1.468786606563e+02 0.0 
0.0 0.0 -6.425239867973e+01 
-1.029318276775e+02 5.574417529582e+00 0.0 
5.574417529582e+00 -2.664342510716e+02 0.0 
0.0 0.0 -1.104098236247e+02 
-1.008699537834e+02 3.502762352354e+00 0.0 
3.502762352354e+00 -2.230571953328e+02 0.0 
0.0 0.0 -9.677814473486e+01 
-9.999774585952e+01 2.192542980096e+00 0.0 
2.192542980096e+00 -2.210530003882e+02 0.0 
0.0 0.0 -9.591522387431e+01 
-2.969062926596e+01 1.908315410017e+01 0.0 
1.908315410017e+01 -1.271383541705e+02 0.0 
0.0 0.0 -4.839633058220e+01 
-4.859615156175e+01 -2.395338013829e+00 0.0 
-2.395338013829e+00 -1.681648152257e+02 0.0 
0.0 0.0 -6.462829003624e+01 
-4.948208923306e+01 -9.496422137636e+00 0.0 
-9.496422137636e+00 -1.581604881040e+02 0.0 
0.0 0.0 -6.189277320112e+01 
-6.189937234302e+01 9.411376060287e+00 0.0 
9.411376060287e+00 -1.278615358671e+02 0.0 
0.0 0.0 -5.652827246305e+01 
-1.217345380440e+02 5.174562979036e+00 0.0 
5.174562979036e+00 -2.726184244815e+02 0.0 
0.0 0.0 -1.179058887577e+02 
-6.932226414127e+01 9.764429654615e+00 0.0 
9.764429654615e+00 -1.477874609438e+02 0.0 
0.0 0.0 -6.473291752553e+01 
-6.977029279502e+01 9.206842528143e+00 0.0 
9.206842528143e+00 -1.976532595589e+02 0.0 
0.0 0.0 -7.982706570617e+01 
-6.765590236829e+01 1.152969001680e+01 0.0 
1.152969001680e+01 -1.865674584414e+02 0.0 
0.0 0.0 -7.586700824291e+01 
-2.718440244235e+01 1.450050868820e+01 0.0 
1.450050868820e+01 -1.163568493427e+02 0.0 
0.0 0.0 -4.414142740503e+01 
-8.351481104703e+01 1.061496726703e+01 0.0 
1.061496726703e+01 -2.054711346661e+02 0.0 
0.0 0.0 -8.629578371395e+01 
-4.061588331590e+01 2.202990234772e+01 0.0 
2.202990234772e+01 -7.879191200772e+01 0.0 
0.0 0.0 -3.415175319723e+01 
-1.596717896206e+02 5.724032152796e+00 0.0 
5.724032152796e+00 -3.706967804466e+02 0.0 
0.0 0.0 -1.587105710202e+02 
-1.596448711171e+02 6.774010538029e+00 0.0 
6.774010538029e+00 -3.716037582529e+02 0.0 
0.0 0.0 -1.589745888110e+02 
-9.482887283276e+01 8.027625179059e+00 0.0 
8.027625179059e+00 -2.174160571426e+02 0.0 
0.0 0.0 -9.327347899259e+01 
-4.794635851300e+01 1.526583201409e+01 0.0 
1.526583201409e+01 -1.498995400059e+02 0.0 
0.0 0.0 -5.895376955566e+01 
-4.188940141488e+01 2.091771916942e+01 0.0 
2.091771916942e+01 -1.169987483528e+02 0.0 
0.0 0.0 -4.726644493032e+01 
-1.042441793923e+02 5.360993696279e+00 0.0 
5.360993696279e+00 -2.334021928453e+02 0.0 
0.0 0.0 -1.008939116713e+02 
-4.172090272404e+01 1.821336814288e+01 0.0 
1.821336814288e+01 -1.330434498795e+02 0.0 
0.0 0.0 -5.202930578106e+01 
-4.486237189894e+01 -7.226952839969e+00 0.0 
-7.226952839969e+00 -1.567079745277e+02 0.0 
0.0 0.0 -6.007110392800e+01 
-9.239563672060e+01 5.772907643115e+00 0.0 
5.772907643115e+00 -2.047718590578e+02 0.0 
0.0 0.0 -8.875024873352e+01 
-1.507973671475e+02 2.347190821431e+00 0.0 
2.347190821431e+00 -3.500137159386e+02 0.0 
0.0 0.0 -1.498433249258e+02 
-6.034897892849e+01 1.343295156220e+01 0.0 
1.343295156220e+01 -1.694563181745e+02 0.0 
0.0 0.0 -6.854158913090e+01 
-1.130975957078e+02 6.644698871506e+00 0.0 
6.644698871506e+00 -2.823396322701e+02 0.0 
0.0 0.0 -1.182311683934e+02 
-4.390761685557e+01 2.174175792356e+01 0.0 
2.174175792356e+01 -9.831771474514e+01 0.0 
0.0 0.0 -4.083064894920e+01 
-1.680456454880e+02 2.350420715828e+00 0.0 
2.350420715828e+00 -3.978100686789e+02 0.0 
0.0 0.0 -1.693567142501e+02 
-4.740972589601e+01 1.826949728395e+01 0.0 
1.826949728395e+01 -1.354641350349e+02 0.0 
0.0 0.0 -5.446215827927e+01 
-9.586514523381e+01 6.577036701678e+00 0.0 
6.577036701678e+00 -2.152357776317e+02 0.0 
0.0 0.0 -9.293027685967e+01 
-3.265534908448e+01 1.424014829275e+01 0.0 
1.424014829275e+01 -1.373472739233e+02 0.0 
0.0 0.0 -5.208596291344e+01 
-1.090346551303e+02 5.781164359493e-01 0.0 
5.781164359493e-01 -2.825454014826e+02 0.0 
0.0 0.0 -1.170740169839e+02 
-7.534366520388e+01 9.944857966162e+00 0.0 
9.944857966162e+00 -2.038717751058e+02 0.0 
0.0 0.0 -8.336463209289e+01 
-4.982405268989e+01 -9.654294357509e+00 0.0 
-9.654294357509e+00 -1.590897526648e+02 0.0 
0.0 0.0 -6.227414160642e+01 
-9.764341413118e+01 5.983688896842e+00 0.0 
5.983688896842e+00 -2.142958521886e+02 0.0 
0.0 0.0 -9.318177989595e+01 
-1.618517137998e+02 8.100033830531e+00 0.0 
8.100033830531e+00 -3.770620496918e+02 0.0 
0.0 0.0 -1.612741290475e+02 
-6.206266569658e+01 1.079976547581e+01 0.0 
1.079976547581e+01 -1.813380684771e+02 0.0 
0.0 0.0 -7.262022025211e+01 
-1.019448912034e+02 6.251529391939e+00 0.0 
6.251529391939e+00 -2.661517320138e+02 0.0 
0.0 0.0 -1.100289869652e+02 
-3.889276820842e+01 2.268224107398e+01 0.0 
2.268224107398e+01 -9.704063814909e+01 0.0 
0.0 0.0 -3.976220936461e+01 
-1.133448869802e+02 1.009750235844e+00 0.0 
1.009750235844e+00 -2.549355048339e+02 0.0 
0.0 0.0 -1.100841175442e+02 
-1.223465731990e+02 -1.614001571050e+00 0.0 
-1.614001571050e+00 -3.055394706478e+02 0.0 
0.0 0.0 -1.279658131541e+02 
-5.195167479074e+01 1.661681406944e+01 0.0 
1.661681406944e+01 -1.123354397577e+02 0.0 
0.0 0.0 -4.888613436453e+01 
-1.101758061720e+02 2.391307117980e+00 0.0 
2.391307117980e+00 -2.464821692726e+02 0.0 
0.0 0.0 -1.065973926334e+02 
-1.632770251782e+02 8.814740286336e+00 0.0 
8.814740286336e+00 -3.816942595630e+02 0.0 
0.0 0.0 -1.630913854224e+02 
-1.317178504305e+02 -9.844395388539e-01 0.0 
-9.844395388539e-01 -3.245478460659e+02 0.0 
0.0 0.0 -1.364797089489e+02 
-1.613209466795e+02 7.673332115456e+00 0.0 
7.673332115456e+00 -3.753047179689e+02 0.0 
0.0 0.0 -1.605876993945e+02 
-1.101992062761e+02 2.941399746286e+00 0.0 
2.941399746286e+00 -2.451239417378e+02 0.0 
0.0 0.0 -1.061969444042e+02 
-1.283833976602e+02 7.012611330717e+00 0.0 
7.012611330717e+00 -2.914106282019e+02 0.0 
0.0 0.0 -1.255382077586e+02 
-4.620668133055e+01 1.682978232183e+01 0.0 
1.682978232183e+01 -9.079496299855e+01 0.0 
0.0 0.0 -4.070049329873e+01 
-8.996168096623e+01 5.620192620063e+00 0.0 
5.620192620063e+00 -1.952199061782e+02 0.0 
0.0 0.0 -8.515447614332e+01 
-1.006471170359e+02 4.630969714000e+00 0.0 
4.630969714000e+00 -2.233657482631e+02 0.0 
0.0 0.0 -9.680385958968e+01 
-1.053448153952e+02 6.268971514443e+00 0.0 
6.268971514443e+00 -2.334986139140e+02 0.0 
0.0 0.0 -1.012530287928e+02 
-8.674133373970e+01 1.057566927718e+01 0.0 
1.057566927718e+01 -1.980881674448e+02 0.0 
0.0 0.0 -8.504885035536e+01 
-1.643314867747e+02 8.956857497253e+00 0.0 
8.956857497253e+00 -3.853973051890e+02 0.0 
0.0 0.0 -1.645186375891e+02 
-1.060751717426e+02 1.992764320662e+00 0.0 
1.992764320662e+00 -2.350633691772e+02 0.0 
0.0 0.0 -1.019415622759e+02 
-9.428448169028e+01 4.052104743173e+00 0.0 
4.052104743173e+00 -2.054677866261e+02 0.0 
0.0 0.0 -8.952568049490e+01 
-6.427678072481e+01 1.170192504530e+01 0.0 
1.170192504530e+01 -1.851724928730e+02 0.0 
0.0 0.0 -7.443478207936e+01 
-4.453139957778e+01 -7.849189990655e+00 0.0 
-7.849189990655e+00 -9.215683935738e+01 0.0 
0.0 0.0 -4.060647168055e+01 
-8.620110495234e+01 4.760794104010e+00 0.0 
4.760794104010e+00 -1.857511338357e+02 0.0 
0.0 0.0 -8.118567163641e+01 
-5.510282226781e+01 1.492411227821e+01 0.0 
1.492411227821e+01 -1.263855680470e+02 0.0 
0.0 0.0 -5.404651709446e+01 
-8.988925988497e+01 2.869516589259e-01 0.0 
2.869516589259e-01 -2.015155513021e+02 0.0 
0.0 0.0 -8.702144335613e+01 
-5.492283296858e+01 -1.067121585249e+01 0.0 
-1.067121585249e+01 -1.610358194694e+02 0.0 
0.0 0.0 -6.438759573138e+01 
-5.621137172586e+01 1.344112847219e+01 0.0 
1.344112847219e+01 -1.677019590159e+02 0.0 
0.0 0.0 -6.677399922254e+01 
-1.286441210619e+02 3.580245593611e+00 0.0 
3.580245593611e+00 -2.916733926987e+02 0.0 
0.0 0.0 -1.256952541282e+02 
-5.291198726520e+01 1.782365571516e+01 0.0 
1.782365571516e+01 -1.259946160379e+02 0.0 
0.0 0.0 -5.327198099093e+01 
-9.287273662346e+01 4.306424067782e+00 0.0 
4.306424067782e+00 -2.041046674708e+02 0.0 
0.0 0.0 -8.869322122829e+01 
-1.064046929894e+02 4.248436641552e+00 0.0 
4.248436641552e+00 -2.756279925182e+02 0.0 
0.0 0.0 -1.142098056523e+02 
-9.638161947601e+01 -5.399718455627e+00 0.0 
-5.399718455627e+00 -2.448874547962e+02 0.0 
0.0 0.0 -1.019807222817e+02 
-1.661825304248e+02 7.990392907956e+00 0.0 
7.990392907956e+00 -3.912878714926e+02 0.0 
0.0 0.0 -1.668411205752e+02 
-7.830638672170e+01 5.712626817068e+00 0.0 
5.712626817068e+00 -1.670981252456e+02 0.0 
0.0 0.0 -7.322135359019e+01 
-4.506895830340e+01 2.191462764953e+00 0.0 
2.191462764953e+00 -1.635516241118e+02 0.0 
0.0 0.0 -6.218617472457e+01 
-7.231046605610e+01 -8.472478099660e+00 0.0 
-8.472478099660e+00 -1.769969134852e+02 0.0 
0.0 0.0 -7.439221386240e+01 
-5.312991499205e+01 1.231224394707e+01 0.0 
1.231224394707e+01 -1.069207815199e+02 0.0 
0.0 0.0 -4.761520895358e+01 
-5.231874114455e+01 1.311500934805e+01 0.0 
1.311500934805e+01 -1.119407247613e+02 0.0 
0.0 0.0 -4.887783977176e+01 
-1.369897792489e+02 6.633880519551e+00 0.0 
6.633880519551e+00 -3.119250475393e+02 0.0 
0.0 0.0 -1.342744480365e+02 
-1.002440044705e+02 8.095784192012e+00 0.0 
8.095784192012e+00 -2.247419581419e+02 0.0 
0.0 0.0 -9.709578878372e+01 
-6.994371496813e+01 7.265433260603e+00 0.0 
7.265433260603e+00 -1.470303594540e+02 0.0 
0.0 0.0 -6.469222232665e+01 
-8.511538000344e+01 3.895236589340e+00 0.0 
3.895236589340e+00 -1.849831679072e+02 0.0 
0.0 0.0 -8.062956437319e+01 
-1.669357965997e+02 5.030529839625e+00 0.0 
5.030529839625e+00 -3.957348393862e+02 0.0 
0.0 0.0 -1.684011907958e+02 
-1.572007175697e+02 5.749471761555e+00 0.0 
5.749471761555e+00 -3.766120216122e+02 0.0 
0.0 0.0 -1.597438217546e+02 
-1.360708561159e+02 4.707546126169e+00 0.0 
4.707546126169e+00 -3.109383032916e+02 0.0 
0.0 0.0 -1.337027478223e+02 
-1.259096407288e+02 4.938082723828e+00 0.0 
4.938082723828e+00 -2.830331258477e+02 0.0 
0.0 0.0 -1.222828299730e+02 
-9.419185345968e+01 -4.413333645378e+00 0.0 
-4.413333645378e+00 -2.396299995282e+02 0.0 
0.0 0.0 -9.974655589638e+01 
-7.220962628475e+01 1.108627830700e+01 0.0 
1.108627830700e+01 -1.585075206099e+02 0.0 
0.0 0.0 -6.881514406840e+01 
-4.266231695371e+01 1.390714121890e+01 0.0 
1.390714121890e+01 -1.473539391408e+02 0.0 
0.0 0.0 -5.660487682836e+01 
-5.045764272106e+01 1.180007797408e+01 0.0 
1.180007797408e+01 -1.634146028941e+02 0.0 
0.0 0.0 -6.376167368454e+01 
-9.584331583179e+01 8.805127289481e+00 0.0 
8.805127289481e+00 -2.156969602758e+02 0.0 
0.0 0.0 -9.306208283229e+01 
-1.053231093485e+02 2.249099019798e+00 0.0 
2.249099019798e+00 -2.750339085496e+02 0.0 
0.0 0.0 -1.137071053694e+02 
-8.733617152411e+01 -4.352921365382e+00 0.0 
-4.352921365382e+00 -2.022550164834e+02 0.0 
0.0 0.0 -8.647735640226e+01 
-1.363432996430e+02 4.024817926723e+00 0.0 
4.024817926723e+00 -3.115459857265e+02 0.0 
0.0 0.0 -1.339667856108e+02 
-4.551074668588e+01 -1.035960719902e+00 0.0 
-1.035960719902e+00 -1.630198524866e+02 0.0 
0.0 0.0 -6.215917975174e+01 
-8.203757441608e+01 1.157371158374e+01 0.0 
1.157371158374e+01 -1.897462686953e+02 0.0 
0.0 0.0 -8.113515293342e+01 
-9.650225464447e+01 5.139092523851e+00 0.0 
5.139092523851e+00 -2.139209968970e+02 0.0 
0.0 0.0 -9.272697546244e+01 
-7.482006476072e+01 1.212289537686e+01 0.0 
1.212289537686e+01 -1.699084148296e+02 0.0 
0.0 0.0 -7.301854387709e+01 
-1.610272771735e+02 7.256943542183e+00 0.0 
7.256943542183e+00 -3.737181568776e+02 0.0 
0.0 0.0 -1.600236302153e+02 
-1.592042985739e+02 5.963930559573e+00 0.0 
5.963930559573e+00 -3.706970956093e+02 0.0 
0.0 0.0 -1.585704182550e+02 
-1.521913032663e+02 6.841351079138e+00 0.0 
6.841351079138e+00 -3.505760228294e+02 0.0 
0.0 0.0 -1.504301978287e+02 
-1.024086786646e+02 -3.279565991687e+00 0.0 
-3.279565991687e+00 -2.579263033971e+02 0.0 
0.0 0.0 -1.077004946185e+02 
-1.328015937073e+02 2.869758824074e+00 0.0 
2.869758824074e+00 -3.026219268431e+02 0.0 
0.0 0.0 -1.302270561651e+02 
-4.870958928551e+01 1.551525278357e+01 0.0 
1.551525278357e+01 -1.054258110958e+02 0.0 
0.0 0.0 -4.584062011438e+01 
-5.867484928297e+01 1.017370078233e+01 0.0 
1.017370078233e+01 -1.797648362506e+02 0.0 
0.0 0.0 -7.113190566008e+01 
-3.210311501278e+01 1.172034711767e+01 0.0 
1.172034711767e+01 -1.306273358335e+02 0.0 
0.0 0.0 -4.875660305430e+01 
-7.349444843406e+01 8.592544112178e+00 0.0 
8.592544112178e+00 -1.570958515655e+02 0.0 
0.0 0.0 -6.877708999986e+01 
-9.274641366856e+01 1.392956646523e+00 0.0 
1.392956646523e+00 -2.035882617128e+02 0.0 
0.0 0.0 -8.850040261440e+01 
-1.092233352711e+02 1.017987139333e+00 0.0 
1.017987139333e+00 -2.444478795563e+02 0.0 
0.0 0.0 -1.057013644482e+02 
-1.591715814178e+02 2.593254504836e+00 0.0 
2.593254504836e+00 -3.814990601846e+02 0.0 
0.0 0.0 -1.618011924807e+02 
-1.353493893852e+02 5.323043252660e+00 0.0 
5.323043252660e+00 -3.102810533156e+02 0.0 
0.0 0.0 -1.332891328102e+02 
-1.049873048280e+02 3.229520569426e+00 0.0 
3.229520569426e+00 -2.327811869832e+02 0.0 
0.0 0.0 -1.009305475434e+02 
-1.083466693466e+02 4.904724393999e+00 0.0 
4.904724393999e+00 -2.426917447744e+02 0.0 
0.0 0.0 -1.049115242363e+02 
-3.685438084398e+01 9.655615351107e+00 0.0 
9.655615351107e+00 -1.452718715181e+02 0.0 
0.0 0.0 -5.576658882564e+01 
-2.704022484584e+01 -8.029506226919e+00 0.0 
-8.029506226919e+00 -4.706240125824e+01 0.0 
0.0 0.0 -2.054510890347e+01 
-7.840103667952e+01 1.121324468786e+01 0.0 
1.121324468786e+01 -1.985923662730e+02 0.0 
0.0 0.0 -8.269802088575e+01 
-8.937186770529e+01 1.100792684453e+01 0.0 
1.100792684453e+01 -2.091980894709e+02 0.0 
0.0 0.0 -8.917098715285e+01 
-8.131098155342e+01 1.225148291493e+01 0.0 
1.225148291493e+01 -2.048704556282e+02 0.0 
0.0 0.0 -8.545443115448e+01 
-3.325142835185e+01 2.145641476776e+01 0.0 
2.145641476776e+01 -5.227235869380e+01 0.0 
0.0 0.0 -2.476492248237e+01 
-9.676399617255e+01 -1.222507669907e-01 0.0 
-1.222507669907e-01 -2.181505174339e+02 0.0 
0.0 0.0 -9.407435408193e+01 
-4.058378495413e+01 -6.027581602055e+00 0.0 
-6.027581602055e+00 -8.532814114396e+01 0.0 
0.0 0.0 -3.737357782943e+01 
-5.241013498445e+01 1.723031841885e+01 0.0 
1.723031841885e+01 -1.375483291182e+02 0.0 
0.0 0.0 -5.658753923081e+01 
-1.703421238927e+02 2.739193228772e+00 0.0 
2.739193228772e+00 -3.987982890829e+02 0.0 
0.0 0.0 -1.703421238927e+02 
-1.160140467977e+02 6.799911619241e+00 0.0 
6.799911619241e+00 -2.927512667151e+02 0.0 
0.0 0.0 -1.222295940539e+02 
-9.312476450980e+01 2.123413169258e+00 0.0 
2.123413169258e+00 -2.046369919793e+02 0.0 
0.0 0.0 -8.892852694673e+01 
-2.246633094698e+01 -7.978837677040e-01 0.0 
-7.978837677040e-01 -5.871856100696e+01 0.0 
0.0 0.0 -2.395546758618e+01 
-8.729034016560e+01 8.259401954479e+00 0.0 
8.259401954479e+00 -1.978664001307e+02 0.0 
0.0 0.0 -8.514702208888e+01 
-7.574150215487e+01 1.255178250625e+01 0.0 
1.255178250625e+01 -1.977329952526e+02 0.0 
0.0 0.0 -8.164234922225e+01 
-1.094265948086e+02 5.893415965473e+00 0.0 
5.893415965473e+00 -2.430118018109e+02 0.0 
0.0 0.0 -1.053315189859e+02 
-1.622042853471e+02 8.215505077846e+00 0.0 
8.215505077846e+00 -3.784937043486e+02 0.0 
0.0 0.0 -1.618093969087e+02 
-8.915397698608e+01 3.460889271793e+00 0.0 
3.460889271793e+00 -1.945273444830e+02 0.0 
0.0 0.0 -8.470439644074e+01 
-1.045531084048e+02 7.487583103045e+00 0.0 
7.487583103045e+00 -2.339245999550e+02 0.0 
0.0 0.0 -1.011433125080e+02 
-8.588489646184e+01 -6.378888325881e+00 0.0 
-6.378888325881e+00 -2.012055193822e+02 0.0 
0.0 0.0 -8.572712475321e+01 
-1.326594868582e+02 3.499061381680e+00 0.0 
3.499061381680e+00 -3.019375485322e+02 0.0 
0.0 0.0 -1.299791106171e+02 
-1.049288673345e+02 -4.397002977235e+00 0.0 
-4.397002977235e+00 -2.637423314383e+02 0.0 
0.0 0.0 -1.102013596318e+02 
-1.629904066926e+02 8.719950323078e+00 0.0 
8.719950323078e+00 -3.800635676264e+02 0.0 
0.0 0.0 -1.625161922957e+02 
-1.596876341269e+02 7.048210822839e+00 0.0 
7.048210822839e+00 -3.739378129627e+02 0.0 
0.0 0.0 -1.596876341269e+02 
-1.578224235548e+02 5.246263585945e+00 0.0 
5.246263585945e+00 -3.695856549612e+02 0.0 
0.0 0.0 -1.578224235548e+02 
-1.580876182326e+02 6.122100823467e+00 0.0 
6.122100823467e+00 -3.702044425427e+02 0.0 
0.0 0.0 -1.580876182326e+02 
-1.124330315634e+02 4.533269398661e+00 0.0 
4.533269398661e+00 -2.521159134521e+02 0.0 
0.0 0.0 -1.089646835047e+02 
-1.335718569050e+02 5.281695840502e+00 0.0 
5.281695840502e+00 -3.026580547335e+02 0.0 
0.0 0.0 -1.304689734916e+02 
-1.398309357857e+02 5.251247605648e+00 0.0 
5.251247605648e+00 -3.211138601952e+02 0.0 
0.0 0.0 -1.378834387943e+02 
-7.542328478247e+01 9.480749838652e+00 0.0 
9.480749838652e+00 -1.697042708344e+02 0.0 
0.0 0.0 -7.313826668505e+01 
-7.210361688839e+01 8.306065967051e+00 0.0 
8.306065967051e+00 -1.579610734494e+02 0.0 
0.0 0.0 -6.861940710134e+01 
-8.294057774056e+01 -3.842549323372e+00 0.0 
-3.842549323372e+00 -1.895405211521e+02 0.0 
0.0 0.0 -8.134432966778e+01 
-1.373319011994e+02 5.918807758948e+00 0.0 
5.918807758948e+00 -3.123665725501e+02 0.0 
0.0 0.0 -1.345095421248e+02 
-1.637566319228e+02 8.971210901508e+00 0.0 
8.971210901508e+00 -3.834206202995e+02 0.0 
0.0 0.0 -1.637531756667e+02 
-1.365328968719e+02 3.375819353510e+00 0.0 
3.375819353510e+00 -3.119956730521e+02 0.0 
0.0 0.0 -1.341585709772e+02 
-1.070374796827e+02 7.169984719302e+00 0.0 
7.169984719302e+00 -2.742751551253e+02 0.0 
0.0 0.0 -1.139937904424e+02 
-1.374180225028e+02 5.118940485613e+00 0.0 
5.118940485613e+00 -3.127121715703e+02 0.0 
0.0 0.0 -1.346390582219e+02 
-1.204989906758e+02 9.055513972046e+00 0.0 
9.055513972046e+00 -2.858261646188e+02 0.0 
0.0 0.0 -1.214975465884e+02 
-8.583187325823e+01 9.815173050272e+00 0.0 
9.815173050272e+00 -2.013218332544e+02 0.0 
0.0 0.0 -8.574611195378e+01 
-7.277956645232e+01 5.970256624804e+00 0.0 
5.970256624804e+00 -1.563983048508e+02 0.0 
0.0 0.0 -6.835336139093e+01 
-4.416924567977e+01 2.242647417021e+01 0.0 
2.242647417021e+01 -1.187226255875e+02 0.0 
0.0 0.0 -4.772567467639e+01 
-1.507264459303e+02 3.131622742912e+00 0.0 
3.131622742912e+00 -3.508170553193e+02 0.0 
0.0 0.0 -1.500630503749e+02 
-7.120366065375e+01 1.082405940282e+01 0.0 
1.082405940282e+01 -1.619207095570e+02 0.0 
0.0 0.0 -6.953731106322e+01 
-1.506612025041e+02 7.804537361854e+00 0.0 
7.804537361854e+00 -3.526411814466e+02 0.0 
0.0 0.0 -1.505907151852e+02 
-8.188255146946e+01 -5.995118462698e+00 0.0 
-5.995118462698e+00 -1.886298058678e+02 0.0 
0.0 0.0 -8.075370720118e+01 
-5.351184904177e+01 -1.317015225048e+01 0.0 
-1.317015225048e+01 -1.467506445998e+02 0.0 
0.0 0.0 -5.967874809247e+01 
-1.616301236730e+02 1.969493613584e+00 0.0 
1.969493613584e+00 -3.828862747890e+02 0.0 
0.0 0.0 -1.629549195386e+02 
-5.709225623586e+01 1.570764122225e+01 0.0 
1.570764122225e+01 -1.412304311545e+02 0.0 
0.0 0.0 -5.909680621711e+01 
-1.604268603881e+02 7.475713226996e+00 0.0 
7.475713226996e+00 -3.756626742388e+02 0.0 
0.0 0.0 -1.604268603881e+02 
-1.522261402672e+02 5.472256014880e+00 0.0 
5.472256014880e+00 -3.537724460193e+02 0.0 
0.0 0.0 -1.513995758860e+02 
-1.034935258111e+02 6.599582273546e+00 0.0 
6.599582273546e+00 -2.346660767295e+02 0.0 
0.0 0.0 -1.010478807622e+02 
-1.925683840463e+01 -4.413826836772e+00 0.0 
-4.413826836772e+00 -2.517328936066e+01 0.0 
0.0 0.0 -1.326745593189e+01 
-1.617292270520e+02 8.086325166872e+00 0.0 
8.086325166872e+00 -3.787015297880e+02 0.0 
0.0 0.0 -1.617292270520e+02 
-1.612032298065e+02 3.839845701002e+00 0.0 
3.839845701002e+00 -3.821934278113e+02 0.0 
0.0 0.0 -1.626189972853e+02 
-4.772736266660e+01 -1.296302504181e+01 0.0 
-1.296302504181e+01 -1.443431475986e+02 0.0 
0.0 0.0 -5.722115307956e+01 
-1.108911944918e+02 5.960650557901e+00 0.0 
5.960650557901e+00 -2.842215647698e+02 0.0 
0.0 0.0 -1.181338277785e+02 
-1.661921566769e+02 7.377608675620e+00 0.0 
7.377608675620e+00 -3.925705383278e+02 0.0 
0.0 0.0 -1.672288085014e+02 
-4.830622120307e+00 -2.709418685512e-01 0.0 
-2.709418685512e-01 -9.585666874574e+00 0.0 
0.0 0.0 -4.894799841252e+00 
-7.851994048900e+01 1.038678103969e+01 0.0 
1.038678103969e+01 -1.818916921582e+02 0.0 
0.0 0.0 -7.772348979415e+01 
-1.077467616558e+02 6.020903613415e+00 0.0 
6.020903613415e+00 -2.436323936389e+02 0.0 
0.0 0.0 -1.050137465884e+02 
-9.919189199562e+01 7.260169103921e+00 0.0 
7.260169103921e+00 -2.259203583557e+02 0.0 
0.0 0.0 -9.713367510540e+01 
-1.000553097139e+02 5.908603993384e+00 0.0 
5.908603993384e+00 -2.242230111682e+02 0.0 
0.0 0.0 -9.688349626463e+01 
-4.736381113018e+01 1.975032805760e+01 0.0 
1.975032805760e+01 -1.187272483803e+02 0.0 
0.0 0.0 -4.901974715152e+01 
-1.633055729200e+02 8.473715101896e+00 0.0 
8.473715101896e+00 -3.823796701466e+02 0.0 
0.0 0.0 -1.633055729200e+02 
-6.711170690041e+01 8.924011007046e+00 0.0 
8.924011007046e+00 -1.964636142482e+02 0.0 
0.0 0.0 -7.867259634458e+01 
-2.511397046812e+01 4.740815162811e+00 0.0 
4.740815162811e+00 -1.214671453345e+02 0.0 
0.0 0.0 -4.604398969785e+01 
-1.616677333082e+02 -1.627203565952e+00 0.0 
-1.627203565952e+00 -3.796081798372e+02 0.0 
0.0 0.0 -1.619827739436e+02 
-9.932700460561e+00 -2.343367363553e+00 0.0 
-2.343367363553e+00 -2.629292307785e+01 0.0 
0.0 0.0 -1.046768706152e+01 
-8.105346370314e+01 4.428452314135e+00 0.0 
4.428452314135e+00 -1.754974353562e+02 0.0 
0.0 0.0 -7.656526971779e+01 
-3.551193464587e+01 -2.132316806654e+01 0.0 
-2.132316806654e+01 -9.862391153151e+01 0.0 
0.0 0.0 -4.101565772102e+01 
-8.530846052628e+01 2.619618988073e+00 0.0 
2.619618988073e+00 -1.849838179739e+02 0.0 
0.0 0.0 -8.068768355005e+01 
-1.673512574266e+02 4.165237571491e+00 0.0 
4.165237571491e+00 -3.965687407365e+02 0.0 
0.0 0.0 -1.687759994490e+02 
-1.651761814278e+02 8.361279143783e+00 0.0 
8.361279143783e+00 -3.867444233315e+02 0.0 
0.0 0.0 -1.651761814278e+02 
-1.046638670413e+02 4.210114909703e+00 0.0 
4.210114909703e+00 -2.328002827620e+02 0.0 
0.0 0.0 -1.008392449410e+02 
-3.260612242889e+01 -2.200361628396e+01 0.0 
-2.200361628396e+01 -6.720728737172e+01 0.0 
0.0 0.0 -3.004723494707e+01 
-2.692073416959e+01 8.957972124981e+00 0.0 
8.957972124981e+00 -1.257061158706e+02 0.0 
0.0 0.0 -4.813077097878e+01 
-4.261075119096e+01 -2.383232547413e+01 0.0 
-2.383232547413e+01 -8.818596508122e+01 0.0 
0.0 0.0 -3.761903725509e+01 
-1.412946401166e+02 -8.224801762262e-01 0.0 
-8.224801762262e-01 -3.361759344509e+02 0.0 
0.0 0.0 -1.428411723703e+02 
-9.272927620173e+01 1.431757117885e+00 0.0 
1.431757117885e+00 -2.036658291358e+02 0.0 
0.0 0.0 -8.851853160127e+01 
-9.810065701852e+01 3.974267010975e+00 0.0 
3.974267010975e+00 -2.147388796287e+02 0.0 
0.0 0.0 -9.345186099418e+01 
-1.669590604822e+02 7.801682941591e+00 0.0 
7.801682941591e+00 -3.909044744584e+02 0.0 
0.0 0.0 -1.669590604822e+02 
-9.216673616654e+01 1.447040127850e+00 0.0 
1.447040127850e+00 -2.034323861971e+02 0.0 
0.0 0.0 -8.827973670909e+01 
-1.589127418237e+02 5.118619563766e+00 0.0 
5.118619563766e+00 -3.699729145782e+02 0.0 
0.0 0.0 -1.582656969206e+02 
-1.244384127947e+02 7.224911027442e+00 0.0 
7.224911027442e+00 -2.962234334303e+02 0.0 
0.0 0.0 -1.257985538675e+02 
-1.051050497729e+02 6.645223760210e-01 0.0 
6.645223760210e-01 -2.350793867960e+02 0.0 
0.0 0.0 -1.016553309707e+02 
-5.571532235534e+01 1.126262424647e+01 0.0 
1.126262424647e+01 -1.189215130463e+02 0.0 
0.0 0.0 -5.199105062050e+01 
-1.116384336751e+02 5.113563566333e+00 0.0 
5.113563566333e+00 -2.843695273260e+02 0.0 
0.0 0.0 -1.184023883003e+02 
-3.131590201392e+01 1.811040258483e+01 0.0 
1.811040258483e+01 -1.149607719124e+02 0.0 
0.0 0.0 -4.359710766588e+01 
-1.682855871902e+02 6.755856964686e+00 0.0 
6.755856964686e+00 -3.939997034438e+02 0.0 
0.0 0.0 -1.682855871902e+02 
-1.588832815381e+02 6.501343832887e+00 0.0 
6.501343832887e+00 -3.720609902556e+02 0.0 
0.0 0.0 -1.588832815381e+02 
-1.581061637383e+02 5.751704494340e+00 0.0 
5.751704494340e+00 -3.702477153893e+02 0.0 
0.0 0.0 -1.581061637383e+02 
-1.070352685608e+02 -3.223854626093e+00 0.0 
-3.223854626093e+00 -2.648848058063e+02 0.0 
0.0 0.0 -1.111760223101e+02 
-7.829153812418e+01 -3.172549792495e+00 0.0 
-3.172549792495e+00 -1.769128963767e+02 0.0 
0.0 0.0 -7.616133035026e+01 
-8.441716472703e+01 1.185632639125e+01 0.0 
1.185632639125e+01 -2.011703773345e+02 0.0 
0.0 0.0 -8.527626261845e+01 
-1.095128962848e+02 -4.346195344710e+00 0.0 
-4.346195344710e+00 -2.706527162576e+02 0.0 
0.0 0.0 -1.136496837627e+02 
-1.692864878058e+02 5.333122619956e+00 0.0 
5.333122619956e+00 -3.963351382134e+02 0.0 
0.0 0.0 -1.692864878058e+02 
-4.770232146499e+01 1.841196983660e+01 0.0 
1.841196983660e+01 -1.358043727313e+02 0.0 
0.0 0.0 -5.465200825888e+01 
-5.298337621127e+01 -5.662783843509e+00 0.0 
-5.662783843509e+00 -1.720276260169e+02 0.0 
0.0 0.0 -6.710330066845e+01 
-5.774550558728e+01 -7.726881400460e+00 0.0 
-7.726881400460e+00 -1.757005277632e+02 0.0 
0.0 0.0 -6.963381000514e+01 
-1.094596541555e+02 7.026297311059e-01 0.0 
7.026297311059e-01 -2.459028103891e+02 0.0 
0.0 0.0 -1.062087393634e+02 
-1.681295159174e+02 1.592246972199e+00 0.0 
1.592246972199e+00 -3.978851230540e+02 0.0 
0.0 0.0 -1.694043916914e+02 
-4.193953959036e+01 -2.162365438014e+01 0.0 
-2.162365438014e+01 -6.225703172998e+01 0.0 
0.0 0.0 -2.978758879238e+01 
-1.700060745072e+02 3.567873700964e+00 0.0 
3.567873700964e+00 -3.980141738502e+02 0.0 
0.0 0.0 -1.700060745072e+02 
-5.497744416946e+01 -1.071798399447e+01 0.0 
-1.071798399447e+01 -1.621171761720e+02 0.0 
0.0 0.0 -6.472838610245e+01 
-1.612748647602e+02 7.842366358166e+00 0.0 
7.842366358166e+00 -3.776413511072e+02 0.0 
0.0 0.0 -1.612748647602e+02 
-1.406888964044e+02 7.141261677305e+00 0.0 
7.141261677305e+00 -3.219386861173e+02 0.0 
0.0 0.0 -1.383882747565e+02 
-9.955913952895e-01 -3.067558749054e-02 0.0 
-3.067558749054e-02 -6.994473438291e+00 0.0 
0.0 0.0 2.639011063083e-01 
-8.105169571193e+01 1.075620251934e+01 0.0 
1.075620251934e+01 -1.936455488417e+02 0.0 
0.0 0.0 -8.200917336609e+01 
-1.376631035446e+02 4.518603136455e+00 0.0 
4.518603136455e+00 -3.136857118204e+02 0.0 
0.0 0.0 -1.350046446095e+02 
-1.625988957835e+02 8.363349425538e+00 0.0 
8.363349425538e+00 -3.807307568281e+02 0.0 
0.0 0.0 -1.625988957835e+02 
-1.130032546091e+02 6.538506934224e+00 0.0 
6.538506934224e+00 -2.527358782407e+02 0.0 
0.0 0.0 -1.093217398549e+02 
-1.277844317777e+02 6.974659779948e+00 0.0 
6.974659779948e+00 -3.066541009743e+02 0.0 
0.0 0.0 -1.299315598256e+02 
-4.082446061816e+01 2.524323533557e+01 0.0 
2.524323533557e+01 -9.984025755313e+01 0.0 
0.0 0.0 -4.158908231931e+01 
-1.530693309390e+02 3.115673676187e+00 0.0 
3.115673676187e+00 -3.671397754176e+02 0.0 
0.0 0.0 -1.556627319070e+02 
-5.999719282561e+01 -1.091910656905e+01 0.0 
-1.091910656905e+01 -1.659521133460e+02 0.0 
0.0 0.0 -6.738479185149e+01 
-6.183047305113e+01 -8.449288303683e+00 0.0 
-8.449288303683e+00 -1.772982526574e+02 0.0 
0.0 0.0 -7.133861771256e+01 
-4.252897384383e+01 -2.408592298066e+01 0.0 
-2.408592298066e+01 -4.873659641317e+01 0.0 
0.0 0.0 -2.648707071679e+01 
-1.641936953490e+02 8.475776066391e+00 0.0 
8.475776066391e+00 -3.844519558143e+02 0.0 
0.0 0.0 -1.641936953490e+02 
-3.686184156812e+01 1.615341361347e+01 0.0 
1.615341361347e+01 -1.317636822869e+02 0.0 
0.0 0.0 -5.002937365052e+01 
-1.374750400305e+02 1.099803094284e+00 0.0 
1.099803094284e+00 -3.363065524514e+02 0.0 
0.0 0.0 -1.417344777446e+02 
-1.015164943665e+02 2.212931992830e+00 0.0 
2.212931992830e+00 -2.254436187440e+02 0.0 
0.0 0.0 -9.768803393315e+01 
-5.844108667795e+01 -1.050164030864e+01 0.0 
-1.050164030864e+01 -1.381108775816e+02 0.0 
0.0 0.0 -5.856558927787e+01 
-5.662626706673e+01 -7.228581468487e+00 0.0 
-7.228581468487e+00 -1.732500283653e+02 0.0 
0.0 0.0 -6.856288862962e+01 
-1.088174798762e+02 6.955817609286e+00 0.0 
6.955817609286e+00 -2.432887730793e+02 0.0 
0.0 0.0 -1.052318758866e+02 
-1.676837775772e+02 7.400688557705e+00 0.0 
7.400688557705e+00 -3.925954810135e+02 0.0 
0.0 0.0 -1.676837775772e+02 
-8.137276019207e+01 -4.577707309954e+00 0.0 
-4.577707309954e+00 -1.842235938745e+02 0.0 
0.0 0.0 -7.927890621996e+01 
-1.195053519871e+02 -1.411362643161e+00 0.0 
-1.411362643161e+00 -2.951249575669e+02 0.0 
0.0 0.0 -1.239890928662e+02 
-9.789900289469e+01 8.451418851765e+00 0.0 
8.451418851765e+00 -2.284860415599e+02 0.0 
0.0 0.0 -9.751551333637e+01 
-1.054318235638e+02 -2.705018443818e-01 0.0 
-2.705018443818e-01 -2.727277015694e+02 0.0 
0.0 0.0 -1.130478575400e+02 
-5.893693147527e+01 -3.381990921002e+00 0.0 
-3.381990921002e+00 -1.833576861658e+02 0.0 
0.0 0.0 -7.228838529233e+01 
-1.108459046216e+02 -2.284584491377e+00 0.0 
-2.284584491377e+00 -2.764095093098e+02 0.0 
0.0 0.0 -1.157766241794e+02 
-9.416693016705e+01 1.017795973868e+01 0.0 
1.017795973868e+01 -2.175456964911e+02 0.0 
0.0 0.0 -9.311378799744e+01 
-1.220521983287e+02 8.738252416329e+00 0.0 
8.738252416329e+00 -2.840342785698e+02 0.0 
0.0 0.0 -1.214259430695e+02 
-1.204863286986e+02 4.779468699117e+00 0.0 
4.779468699117e+00 -3.024960683162e+02 0.0 
0.0 0.0 -1.264947191044e+02 
-9.327178109385e+01 9.195341983993e+00 0.0 
9.195341983993e+00 -2.205204960574e+02 0.0 
0.0 0.0 -9.373768314539e+01 
-8.178590459846e+01 -7.260867860642e+00 0.0 
-7.260867860642e+00 -1.939409787752e+02 0.0 
0.0 0.0 -8.231806501211e+01 
-5.353222540861e+01 1.760443400819e+01 0.0 
1.760443400819e+01 -1.401105402802e+02 0.0 
0.0 0.0 -5.769282970663e+01 
-7.762176381099e+01 -5.410519147061e+00 0.0 
-5.410519147061e+00 -1.761480137096e+02 0.0 
0.0 0.0 -7.573093325618e+01 
-1.237427001240e+02 8.869371355901e+00 0.0 
8.869371355901e+00 -2.963437581312e+02 0.0 
0.0 0.0 -1.256259374766e+02 
-9.766468838531e+01 4.610640850800e+00 0.0 
4.610640850800e+00 -2.580092230982e+02 0.0 
0.0 0.0 -1.063021734450e+02 
-1.676924650793e+02 3.348657689839e+00 0.0 
3.348657689839e+00 -3.973399337613e+02 0.0 
0.0 0.0 -1.691097196522e+02 
-1.413529935837e+02 4.996981199840e+00 0.0 
4.996981199840e+00 -3.228306507430e+02 0.0 
0.0 0.0 -1.388550932980e+02 
-5.287428599592e+01 -1.167669734774e+01 0.0 
-1.167669734774e+01 -1.216362454581e+02 0.0 
0.0 0.0 -5.195315943621e+01 
-1.696730828138e+02 4.414175234774e+00 0.0 
4.414175234774e+00 -3.972371932323e+02 0.0 
0.0 0.0 -1.696730828138e+02 
-1.591589610285e+02 3.520454685289e+00 0.0 
3.520454685289e+00 -3.813537886771e+02 0.0 
0.0 0.0 -1.617538249117e+02 
-8.606298181391e+01 1.005385334672e+01 0.0 
1.005385334672e+01 -2.171837356385e+02 0.0 
0.0 0.0 -9.057401523573e+01 
-2.722064083483e+01 -1.483982165813e+01 0.0 
-1.483982165813e+01 -3.146885567921e+01 0.0 
0.0 0.0 -1.748127905831e+01 
-1.685088653792e+02 7.654810640386e-01 0.0 
7.654810640386e-01 -3.979165625783e+02 0.0 
0.0 0.0 -1.695276283872e+02 
-1.410090431456e+02 5.597576046723e+00 0.0 
5.597576046723e+00 -3.220253614722e+02 0.0 
0.0 0.0 -1.385103213853e+02 
-5.289463651445e+01 -1.293126521680e+01 0.0 
-1.293126521680e+01 -1.472949245682e+02 0.0 
0.0 0.0 -5.965686832480e+01 
-1.703378471084e+02 1.955301755219e+00 0.0 
1.955301755219e+00 -3.987883099195e+02 0.0 
0.0 0.0 -1.703378471084e+02 
-1.154808603588e+02 -2.295394871125e+00 0.0 
-2.295394871125e+00 -2.836872772286e+02 0.0 
0.0 0.0 -1.193504412762e+02 
-7.632920717219e+01 7.255533450836e+00 0.0 
7.255533450836e+00 -1.668510429319e+02 0.0 
0.0 0.0 -7.255407503122e+01 
-1.012765942906e+02 2.614715795597e+00 0.0 
2.614715795597e+00 -2.235041980523e+02 0.0 
0.0 0.0 -9.703423770288e+01 
-9.309054775156e+01 6.662411354857e+00 0.0 
6.662411354857e+00 -2.483060584057e+02 0.0 
0.0 0.0 -1.020189818472e+02 
-9.875603512965e+01 -4.256436015485e+00 0.0 
-4.256436015485e+00 -2.461317907554e+02 0.0 
0.0 0.0 -1.030663477655e+02 
-1.097523434668e+02 1.187280483376e+00 0.0 
1.187280483376e+00 -2.829911128381e+02 0.0 
0.0 0.0 -1.174230368915e+02 
-1.180450102072e+02 4.548018217050e+00 0.0 
4.548018217050e+00 -2.633194600211e+02 0.0 
0.0 0.0 -1.140093410685e+02 
-8.473119807159e+01 5.480851893332e+00 0.0 
5.480851893332e+00 -1.854374915854e+02 0.0 
0.0 0.0 -8.065060689710e+01 
-1.256822373980e+02 5.370806718945e+00 0.0 
5.370806718945e+00 -3.113325070781e+02 0.0 
0.0 0.0 -1.307044233428e+02 
-1.038575930331e+02 3.583742053496e-01 0.0 
3.583742053496e-01 -2.347764369972e+02 0.0 
0.0 0.0 -1.011902090091e+02 
-8.353266499462e+01 -5.297588952058e+00 0.0 
-5.297588952058e+00 -1.951037024602e+02 0.0 
0.0 0.0 -8.319091023643e+01 
-1.152580463950e+02 3.998888590636e+00 0.0 
3.998888590636e+00 -2.935040490184e+02 0.0 
0.0 0.0 -1.222286286240e+02 
-6.431864548406e+01 -1.032399936134e+01 0.0 
-1.032399936134e+01 -1.678981721939e+02 0.0 
0.0 0.0 -6.926504530337e+01 
-1.142966077230e+02 -3.892270843389e+00 0.0 
-3.892270843389e+00 -2.678761802689e+02 0.0 
0.0 0.0 -1.142518363976e+02 
-1.997218574913e+00 -7.574358876975e-01 0.0 
-7.574358876975e-01 -8.731529480903e+00 0.0 
0.0 0.0 -2.818624416745e+00 
-5.918110918574e+01 1.635524380063e+01 0.0 
1.635524380063e+01 -1.460469841529e+02 0.0 
0.0 0.0 -6.116842800160e+01 
-5.981438505019e+01 -1.082670584390e+01 0.0 
-1.082670584390e+01 -1.641481610525e+02 0.0 
0.0 0.0 -6.678876383080e+01 
-8.991858005914e+01 -5.531507158857e+00 0.0 
-5.531507158857e+00 -2.087519194528e+02 0.0 
0.0 0.0 -8.920114985358e+01 
-9.114453881674e+01 9.670076246606e+00 0.0 
9.670076246606e+00 -2.242996056597e+02 0.0 
0.0 0.0 -9.423324334293e+01 
-1.136395941637e+02 -3.524373372192e+00 0.0 
-3.524373372192e+00 -2.826470404696e+02 0.0 
0.0 0.0 -1.184859903900e+02 
-1.064257098891e+02 2.022877994962e+00 0.0 
2.022877994962e+00 -2.375177729659e+02 0.0 
0.0 0.0 -1.027830448565e+02 
-5.777953759060e+01 -1.218346061037e+01 0.0 
-1.218346061037e+01 -1.495307701799e+02 0.0 
0.0 0.0 -6.179309233114e+01 
-1.703834415486e+02 1.176180451104e+00 0.0 
1.176180451104e+00 -3.988946969467e+02 0.0 
0.0 0.0 -1.703834415486e+02 
-1.078359004253e+02 8.105610430188e+00 0.0 
8.105610430188e+00 -2.440790111157e+02 0.0 
0.0 0.0 -1.051744734623e+02 
-9.387562913035e+01 -4.759149133368e+00 0.0 
-4.759149133368e+00 -2.163803819353e+02 0.0 
0.0 0.0 -9.267680331968e+01 
-1.033838311343e+02 8.709520440494e+00 0.0 
8.709520440494e+00 -2.350415545681e+02 0.0 
0.0 0.0 -1.011276157107e+02 
-9.113348060599e+01 -3.513903133926e+00 0.0 
-3.513903133926e+00 -2.096971197528e+02 0.0 
0.0 0.0 -8.984918010764e+01 
-9.090458015143e+00 -4.380372422945e-01 0.0 
-4.380372422945e-01 -9.670798225416e+00 0.0 
0.0 0.0 -6.202622851417e+00 
-1.060658209044e+02 4.276270570166e+00 0.0 
4.276270570166e+00 -2.340250708201e+02 0.0 
0.0 0.0 -1.016272675173e+02 
-7.624976390760e+01 -2.256339328403e+00 0.0 
-2.256339328403e+00 -1.699250706317e+02 0.0 
0.0 0.0 -7.345245036179e+01 
-2.935350046120e-01 4.852002932165e-02 0.0 
4.852002932165e-02 -9.119528788911e+00 0.0 
0.0 0.0 -2.423382809102e+00 
-8.957627748372e+01 -4.402597281458e+00 0.0 
-4.402597281458e+00 -2.041530639428e+02 0.0 
0.0 0.0 -8.771880242795e+01 
-1.225060919614e+02 -2.754687252667e+00 0.0 
-2.754687252667e+00 -3.016007542476e+02 0.0 
0.0 0.0 -1.268320538627e+02 
-1.346775688917e+02 3.560798849666e-01 0.0 
3.560798849666e-01 -3.099836394153e+02 0.0 
0.0 0.0 -1.329983624921e+02 
-1.009024954726e+02 6.763899489200e-01 0.0 
6.763899489200e-01 -2.653120525964e+02 0.0 
0.0 0.0 -1.094643644207e+02 
-1.042541811552e+02 -8.322796579388e-01 0.0 
-8.322796579388e-01 -2.720917233656e+02 0.0 
0.0 0.0 -1.125037713562e+02 
-9.061558841358e+01 3.289469608187e+00 0.0 
3.289469608187e+00 -1.966472290983e+02 0.0 
0.0 0.0 -8.577884525357e+01 
-8.439963535617e+01 8.837101676741e-01 0.0 
8.837101676741e-01 -1.853792105202e+02 0.0 
0.0 0.0 -8.053365376290e+01 
-1.520251728744e+02 4.371645065328e+00 0.0 
4.371645065328e+00 -3.526475159184e+02 0.0 
0.0 0.0 -1.510018066378e+02 
-9.882656268457e+01 9.410307499768e+00 0.0 
9.410307499768e+00 -2.261657735910e+02 0.0 
0.0 0.0 -9.709770088266e+01 
-1.464743162010e+00 -4.625703278335e-02 0.0 
-4.625703278335e-02 -7.006747880973e+00 0.0 
0.0 0.0 -1.417414412735e+00 
-3.338246176749e+01 -3.487321525787e+00 0.0 
-3.487321525787e+00 -7.078745486108e+01 0.0 
0.0 0.0 -3.085097498857e+01 
-2.328716451043e+01 -8.239439501691e+00 0.0 
-8.239439501691e+00 -2.773999378717e+01 0.0 
0.0 0.0 -1.522974184803e+01 
-5.717079022628e+01 -7.781032855589e+00 0.0 
-7.781032855589e+00 -1.282369459337e+02 0.0 
0.0 0.0 -5.522232084798e+01 
-1.390153960268e+02 8.261518786647e+00 0.0 
8.261518786647e+00 -3.214145682703e+02 0.0 
0.0 0.0 -1.377289892891e+02 
-1.351572609639e+02 2.013117169249e+00 0.0 
2.013117169249e+00 -3.104715955873e+02 0.0 
0.0 0.0 -1.332886569654e+02 
-1.356711943999e+02 -2.687984887969e+00 0.0 
-2.687984887969e+00 -3.235450211774e+02 0.0 
0.0 0.0 -1.373648646732e+02 
-6.287876335325e+01 -5.095616256927e+00 0.0 
-5.095616256927e+00 -1.411412381650e+02 0.0 
0.0 0.0 -6.080600045547e+01 
-1.155911252477e+02 -2.122287649596e+00 0.0 
-2.122287649596e+00 -2.688323307063e+02 0.0 
0.0 0.0 -1.149270367862e+02 
-1.411452531773e+02 -5.430839624474e-01 0.0 
-5.430839624474e-01 -3.433405342290e+02 0.0 
0.0 0.0 -1.449457362219e+02 
-2.857014029433e+01 4.424067372171e+00 0.0 
4.424067372171e+00 -1.303250231614e+02 0.0 
0.0 0.0 -4.883422576594e+01 
-7.624351986920e+01 1.428805533915e-01 0.0 
1.428805533915e-01 -1.699840414851e+02 0.0 
0.0 0.0 -7.346826840630e+01 
-6.308549083321e+01 -1.562778642098e+00 0.0 
-1.562778642098e+00 -1.395812412556e+02 0.0 
0.0 0.0 -6.040001962665e+01 
-1.682416310546e+02 3.177619671426e-02 0.0 
3.177619671426e-02 -3.972458967645e+02 0.0 
0.0 0.0 -1.692462583457e+02 
-1.702001294204e+02 5.561558089395e-01 0.0 
5.561558089395e-01 -3.984669686477e+02 0.0 
0.0 0.0 -1.702001294204e+02 
-8.443496562534e+01 -1.357948871861e-01 0.0 
-1.357948871861e-01 -1.891260473584e+02 0.0 
0.0 0.0 -8.166830389511e+01 
-9.500853072713e+01 -2.733402600092e+00 0.0 
-2.733402600092e+00 -2.173033020171e+02 0.0 
0.0 0.0 -9.329354982326e+01 
-1.009876368245e+02 -5.275639012276e+00 0.0 
-5.275639012276e+00 -2.515558176237e+02 0.0 
0.0 0.0 -1.053630363345e+02 
-1.460572495145e+02 3.297880462681e-01 0.0 
3.297880462681e-01 -3.542126157209e+02 0.0 
0.0 0.0 -1.496809595706e+02 
-3.848772693740e+01 -5.776230288653e+00 0.0 
-5.776230288653e+00 -7.861162562111e+01 0.0 
0.0 0.0 -3.472980576755e+01 
-1.362387037563e+02 -1.358670639725e+00 0.0 
-1.358670639725e+00 -3.320983040314e+02 0.0 
0.0 0.0 -1.401011023363e+02 
-1.459882002720e+01 -4.813551010290e-01 0.0 
-4.813551010290e-01 -4.252572235292e+01 0.0 
0.0 0.0 -1.673736271404e+01 
-8.656554640610e+01 -3.024073951192e+00 0.0 
-3.024073951192e+00 -1.971963341074e+02 0.0 
0.0 0.0 -8.472856415406e+01 
-9.544384915253e+01 -3.833533651481e+00 0.0 
-3.833533651481e+00 -2.222467950578e+02 0.0 
0.0 0.0 -9.490719326310e+01 
-7.120303368986e+00 -7.629261177999e-02 0.0 
-7.629261177999e-02 -2.568297615307e+01 0.0 
0.0 0.0 -9.586805336882e+00 
-8.061746108928e+01 -1.649253892450e+00 0.0 
-1.649253892450e+00 -1.793469113528e+02 0.0 
0.0 0.0 -7.758931173262e+01 
-1.402319989411e+02 3.362583332267e+00 0.0 
3.362583332267e+00 -3.219495965006e+02 0.0 
0.0 0.0 -1.382544786325e+02 
-1.289225192789e+00 -6.401525168363e-02 0.0 
-6.401525168363e-02 -7.525254302286e+00 0.0 
0.0 0.0 -1.464980495851e+00 
-8.507476159415e+01 1.046554682927e+00 0.0 
1.046554682927e+00 -1.858459794841e+02 0.0 
0.0 0.0 -8.087622232349e+01 
-8.548374797758e+01 1.346722394101e+00 0.0 
1.346722394101e+00 -1.864243987329e+02 0.0 
0.0 0.0 -8.117244401315e+01 
-1.143204556026e+02 2.554419039222e+00 0.0 
2.554419039222e+00 -2.928637118028e+02 0.0 
0.0 0.0 -1.217552502216e+02 
-6.268592674114e+01 6.267354510790e-01 0.0 
6.267354510790e-01 -1.392947663794e+02 0.0 
0.0 0.0 -6.019420793616e+01 
-5.775427344875e+01 -1.221467255178e+01 0.0 
-1.221467255178e+01 -1.514246698948e+02 0.0 
0.0 0.0 -6.235368300307e+01 
-4.287839795060e+01 2.110389026613e+01 0.0 
2.110389026613e+01 -1.004758183594e+02 0.0 
0.0 0.0 -4.260626489299e+01 
-1.483945191526e+02 -2.159634124081e+00 0.0 
-2.159634124081e+00 -3.499553988004e+02 0.0 
0.0 0.0 -1.491049753859e+02 
-1.569425583714e+02 8.064919214149e+00 0.0 
8.064919214149e+00 -3.674404939654e+02 0.0 
0.0 0.0 -1.569149157011e+02 
-1.306315695163e+02 2.540830904087e+00 0.0 
2.540830904087e+00 -2.980016347145e+02 0.0 
0.0 0.0 -1.281899612692e+02 
-5.594558082771e+01 1.441953221730e+01 0.0 
1.441953221730e+01 -1.195866252741e+02 0.0 
0.0 0.0 -5.225966183053e+01 
-2.691533020067e+01 -4.783672830300e+00 0.0 
-4.783672830300e+00 -4.918743960377e+01 0.0 
0.0 0.0 -2.195376505191e+01 
-8.592321125533e+01 6.161705645853e+00 0.0 
6.161705645853e+00 -1.857462167483e+02 0.0 
0.0 0.0 -8.110082840110e+01 
-8.424155460530e+01 3.871317111250e-01 0.0 
3.871317111250e-01 -1.857288468330e+02 0.0 
0.0 0.0 -8.059112043149e+01 
-8.371219118182e+01 4.944491531055e-01 0.0 
4.944491531055e-01 -1.854659342720e+02 0.0 
0.0 0.0 -8.035343763614e+01 
-2.769430806119e-01 -6.874116230866e-02 0.0 
-6.874116230866e-02 -9.281533191614e+00 0.0 
0.0 0.0 -2.481765657245e+00 
-7.327224386561e+00 -4.999409754548e-02 0.0 
-4.999409754548e-02 -2.556247309977e+01 0.0 
0.0 0.0 -9.753639285309e+00 
-1.550443855417e+01 5.417001660968e-02 0.0 
5.417001660968e-02 -4.209174328164e+01 0.0 
0.0 0.0 -1.687885455074e+01 
-4.976218097112e+01 -5.969420345529e+00 0.0 
-5.969420345529e+00 -1.071420656908e+02 0.0 
0.0 0.0 -4.667127399858e+01 
-6.694525060995e+00 -2.679264890053e-02 0.0 
-2.679264890053e-02 -2.550428258776e+01 0.0 
0.0 0.0 -8.666686602585e+00 
-8.868904191910e+01 -1.590460952332e+00 0.0 
-1.590460952332e+00 -1.994845584237e+02 0.0 
0.0 0.0 -8.605208010283e+01 
-4.065999326809e+01 -1.226485437535e+01 0.0 
-1.226485437535e+01 -6.044764097061e+01 0.0 
0.0 0.0 -3.090062563676e+01 
-5.791512763897e+01 -6.414291823816e+00 0.0 
-6.414291823816e+00 -1.276160463409e+02 0.0 
0.0 0.0 -5.525935219397e+01 
-1.110105097429e+02 9.331597940218e-02 0.0 
9.331597940218e-02 -2.518256157212e+02 0.0 
0.0 0.0 -1.084508376392e+02 
-8.455660525650e+01 7.690988461464e-01 0.0 
7.690988461464e-01 -1.856223795387e+02 0.0 
0.0 0.0 -8.065369543855e+01 
-1.432933880990e+02 8.100731944504e+00 0.0 
8.100731944504e+00 -3.302507170350e+02 0.0 
0.0 0.0 -1.416632315402e+02 
-1.181932695993e+02 -3.524415225936e+00 0.0 
-3.524415225936e+00 -2.897512092965e+02 0.0 
0.0 0.0 -1.219833436687e+02 
-1.034909888030e+02 -9.800391784460e-02 0.0 
-9.800391784460e-02 -2.341725142374e+02 0.0 
0.0 0.0 -1.008990509121e+02 
-6.707819204630e+01 -1.146937249556e+00 0.0 
-1.146937249556e+00 -1.489920895145e+02 0.0 
0.0 0.0 -6.442108446825e+01 
-1.397516481461e+01 -1.498518044945e-01 0.0 
-1.498518044945e-01 -4.230684288949e+01 0.0 
0.0 0.0 -1.648460231123e+01 
-1.562482778693e+02 2.395255297794e+00 0.0 
2.395255297794e+00 -3.659126483616e+02 0.0 
0.0 0.0 -1.562482778693e+02 
-1.571818409650e+02 2.570540783137e+00 0.0 
2.570540783137e+00 -3.663474781243e+02 0.0 
0.0 0.0 -1.566587957268e+02 
-1.008765616938e+02 1.759514269089e-01 0.0 
1.759514269089e-01 -2.249523858888e+02 0.0 
0.0 0.0 -9.734868427478e+01 
-8.399624335725e+01 5.284797111179e-01 0.0 
5.284797111179e-01 -1.853202966663e+02 0.0 
0.0 0.0 -8.039496200707e+01 
-6.798187096058e+01 -2.156964060780e-01 0.0 
-2.156964060780e-01 -1.511167194271e+02 0.0 
0.0 0.0 -6.532957711631e+01 
-1.570526365968e+02 1.919451380547e+00 0.0 
1.919451380547e+00 -3.660049278109e+02 0.0 
0.0 0.0 -1.565172693223e+02 
-5.442465723419e+01 -4.825242169077e+00 0.0 
-4.825242169077e+00 -1.203235467184e+02 0.0 
0.0 0.0 -5.202446118579e+01 
-8.494434651783e+01 1.067273669054e+00 0.0 
1.067273669054e+00 -1.857922044329e+02 0.0 
0.0 0.0 -8.082096528523e+01 
-8.461891288123e+01 6.350738747645e-01 0.0 
6.350738747645e-01 -1.853597541335e+02 0.0 
0.0 0.0 -8.059360010442e+01 
-8.132400700350e+01 2.998591310231e+00 0.0 
2.998591310231e+00 -1.755083413613e+02 0.0 
0.0 0.0 -7.664970450943e+01 
-1.577324787511e+02 4.864250177237e+00 0.0 
4.864250177237e+00 -3.693757837527e+02 0.0 
0.0 0.0 -1.577324787511e+02 
-1.577757287567e+02 2.123622029634e+00 0.0 
2.123622029634e+00 -3.666058679055e+02 0.0 
0.0 0.0 -1.569144789986e+02 
-6.628545117677e+00 -1.786522880873e-02 0.0 
-1.786522880873e-02 -2.532706916131e+01 0.0 
0.0 0.0 -8.618460461927e+00 
-4.386182452391e-01 -6.997259980045e-02 0.0 
-6.997259980045e-02 -9.310626872030e+00 0.0 
0.0 0.0 -2.417863529043e+00 
-2.926817847313e+01 -4.286024971658e+00 0.0 
-4.286024971658e+00 -5.851653756653e+01 0.0 
0.0 0.0 -2.592284501647e+01 
-9.392030736140e+01 -5.752855063908e+00 0.0 
-5.752855063908e+00 -2.211918676046e+02 0.0 
0.0 0.0 -9.413365248979e+01 
-1.551361575044e+02 -1.260632331538e+00 0.0 
-1.260632331538e+00 -3.598640263115e+02 0.0 
0.0 0.0 -1.541000551448e+02 
-7.579609205186e+01 -2.221832081024e+01 0.0 
-2.221832081024e+01 -7.753680972994e+01 0.0 
0.0 0.0 -4.627591236894e+01 
-1.281843626319e+02 1.057033388752e+00 0.0 
1.057033388752e+00 -2.941079573549e+02 0.0 
0.0 0.0 -1.262876959960e+02 
-2.416640872590e+01 -9.352206198841e+00 0.0 
-9.352206198841e+00 -1.072887433756e+01 0.0 
0.0 0.0 -1.104953495977e+01 
-1.132382724890e+02 -3.802424807175e-01 0.0 
-3.802424807175e-01 -2.900589514597e+02 0.0 
0.0 0.0 -1.205891671846e+02 
-8.252276624072e+00 -4.201005950451e+00 0.0 
-4.201005950451e+00 -1.200955222672e+01 0.0 
0.0 0.0 -5.063496296670e+00 
-3.404228741977e+01 -2.293185035050e+01 0.0 
-2.293185035050e+01 -3.559488783660e+01 0.0 
0.0 0.0 -2.087841295093e+01 
-1.085855991975e+02 -1.689950198493e+00 0.0 
-1.689950198493e+00 -2.792165037153e+02 0.0 
0.0 0.0 -1.159406308738e+02 
-1.509349745248e+02 -1.810619061186e+00 0.0 
-1.810619061186e+00 -3.506987885892e+02 0.0 
0.0 0.0 -1.500901289342e+02 
-1.105824435733e+02 6.619394071912e-01 0.0 
6.619394071912e-01 -2.505542348633e+02 0.0 
0.0 0.0 -1.079410035310e+02 
-8.943075225253e+01 7.098636048503e+00 0.0 
7.098636048503e+00 -1.954673109299e+02 0.0 
0.0 0.0 -8.506941895473e+01 
-6.844424597728e+00 1.983928065945e-02 0.0 
1.983928065945e-02 -2.567287605844e+01 0.0 
0.0 0.0 -9.470020472637e+00 
-1.194343512566e+02 -1.578995330091e+00 0.0 
-1.578995330091e+00 -2.763869252189e+02 0.0 
0.0 0.0 -1.183463829427e+02 
-1.555769972543e+02 8.361119971923e-01 0.0 
8.361119971923e-01 -3.643463269267e+02 0.0 
0.0 0.0 -1.555769972543e+02 
-1.567218390434e+02 1.455274320741e+00 0.0 
1.455274320741e+00 -3.654691255005e+02 0.0 
0.0 0.0 -1.562572893632e+02 
-8.422435984205e+01 5.740355667873e-01 0.0 
5.740355667873e-01 -1.854332946731e+02 0.0 
0.0 0.0 -8.049729635453e+01 
-1.180999740130e+02 8.559445868622e-01 0.0 
8.559445868622e-01 -3.005104267297e+02 0.0 
0.0 0.0 -1.251831202228e+02 
-1.562901665300e+02 1.882196318595e+00 0.0 
1.882196318595e+00 -3.660103885701e+02 0.0 
0.0 0.0 -1.562901665300e+02 
-1.271808200643e+02 8.608882819750e+00 0.0 
8.608882819750e+00 -3.067378311372e+02 0.0 
0.0 0.0 -1.297755953604e+02 
-1.334786826165e+01 -2.523124580263e-01 0.0 
-2.523124580263e-01 -4.127044459442e+01 0.0 
0.0 0.0 -1.598549385682e+01 
-6.568704901001e+00 -4.894379047912e-02 0.0 
-4.894379047912e-02 -2.528095712638e+01 0.0 
0.0 0.0 -8.546125201680e+00 
-6.418943298654e+00 2.185118144469e-01 0.0 
2.185118144469e-01 -2.513398337078e+01 0.0 
0.0 0.0 -9.065878000830e+00 
-7.606085409295e+01 -1.106547018082e+00 0.0 
-1.106547018082e+00 -1.691543161506e+02 0.0 
0.0 0.0 -7.316455107306e+01 
-1.679031586583e+02 -4.366808042092e-01 0.0 
-4.366808042092e-01 -3.922459937458e+02 0.0 
0.0 0.0 -1.676447457212e+02 
-1.482112362119e+02 9.838910612418e-01 0.0 
9.838910612418e-01 -3.440528252008e+02 0.0 
0.0 0.0 -1.472792184238e+02 
-3.200987129319e-01 4.236829438814e-02 0.0 
4.236829438814e-02 -9.253978189891e+00 0.0 
0.0 0.0 -2.306078483684e+00 
-8.905646341705e+01 4.845930872740e-01 0.0 
4.845930872740e-01 -1.996462998662e+02 0.0 
0.0 0.0 -8.621082898497e+01 
-1.678551463664e+02 -7.371991737809e-01 0.0 
-7.371991737809e-01 -3.929953415216e+02 0.0 
0.0 0.0 -1.678551463664e+02 
-1.677780128718e+02 -1.281752018779e+00 0.0 
-1.281752018779e+00 -3.922319895945e+02 0.0 
0.0 0.0 -1.676030007399e+02 
-1.683716123024e+02 -4.495437293107e-01 0.0 
-4.495437293107e-01 -3.965967182713e+02 0.0 
0.0 0.0 -1.690904991721e+02 
-1.201766973092e+02 -7.507423252062e-01 0.0 
-7.507423252062e-01 -2.746238737061e+02 0.0 
0.0 0.0 -1.180401713046e+02 
-1.324136079521e+02 9.016075160268e-01 0.0 
9.016075160268e-01 -3.043262421172e+02 0.0 
0.0 0.0 -1.306219550208e+02 
-1.671831243263e+02 -8.856894652058e-01 0.0 
-8.856894652058e-01 -3.914272900947e+02 0.0 
0.0 0.0 -1.671831243263e+02 
-1.677727964063e+02 -9.846455698827e-01 0.0 
-9.846455698827e-01 -3.928031916148e+02 0.0 
0.0 0.0 -1.677727964063e+02 
-1.283311763523e+02 -5.614094680516e-01 0.0 
-5.614094680516e-01 -2.942524010919e+02 0.0 
0.0 0.0 -1.263750732333e+02 
-9.492206715558e-01 -2.620224703562e-01 0.0 
-2.620224703562e-01 -6.648983148453e+00 0.0 
0.0 0.0 -1.175310205093e+00 
-8.305389556152e+01 1.930408587535e-01 0.0 
1.930408587535e-01 -1.845185008773e+02 0.0 
0.0 0.0 -7.987171893165e+01 
-8.399393598657e+01 3.494800156066e-01 0.0 
3.494800156066e-01 -1.856289930264e+02 0.0 
0.0 0.0 -8.048687870388e+01 
-3.919436386063e-01 -1.078344479637e-02 0.0 
-1.078344479637e-02 -9.275357549433e+00 0.0 
0.0 0.0 -2.381614078555e+00 
-1.689409535029e+02 -1.286650996305e+00 0.0 
-1.286650996305e+00 -3.955288915067e+02 0.0 
0.0 0.0 -1.689409535029e+02 
-1.678593094662e+02 -9.884519893956e-01 0.0 
-9.884519893956e-01 -3.955006332729e+02 0.0 
0.0 0.0 -1.686079828217e+02 
-1.688988191394e+02 -8.663360900439e-01 0.0 
-8.663360900439e-01 -3.954305779920e+02 0.0 
0.0 0.0 -1.688988191394e+02 
-1.052290464530e+00 -9.422212475632e-04 0.0 
-9.422212475632e-04 -7.692378052377e+00 0.0 
0.0 0.0 -1.429579980708e+00 
-1.116683554619e+00 -9.413256258419e-02 0.0 
-9.413256258419e-02 -7.777487183010e+00 0.0 
0.0 0.0 -1.454512258834e+00 
-1.698076749408e+02 -3.647001087543e-02 0.0 
-3.647001087543e-02 -3.975512415285e+02 0.0 
0.0 0.0 -1.698076749408e+02 
-1.694658845426e+02 -4.349292326288e-01 0.0 
-4.349292326288e-01 -3.967537305995e+02 0.0 
0.0 0.0 -1.694658845426e+02 
-1.159292944432e+02 9.539294052617e-01 0.0 
9.539294052617e-01 -2.646921791846e+02 0.0 
0.0 0.0 -1.137864420883e+02 
-8.242426743620e+01 -6.851699437220e-02 0.0 
-6.851699437220e-02 -1.840220269011e+02 0.0 
0.0 0.0 -7.953388830119e+01 
-1.244045493219e+02 9.420584185384e-01 0.0 
9.420584185384e-01 -2.845098998858e+02 0.0 
0.0 0.0 -1.222743347623e+02 
-9.956426008727e+01 9.160841522454e-01 0.0 
9.160841522454e-01 -2.253020596629e+02 0.0 
0.0 0.0 -9.705989592504e+01 
-8.251515524994e+01 -3.231943914509e-02 0.0 
-3.231943914509e-02 -1.840748028540e+02 0.0 
0.0 0.0 -7.957698743119e+01 
-1.519474527068e+00 -8.222938024270e-02 0.0 
-8.222938024270e-02 -7.099605405133e+00 0.0 
0.0 0.0 -1.436358343917e+00 
-9.669455839226e-01 4.484538189300e-01 0.0 
4.484538189300e-01 -7.799483617844e+00 0.0 
0.0 0.0 -1.315399348130e+00 
-5.561173453357e-01 2.746113822700e-01 0.0 
2.746113822700e-01 -7.601743068792e+00 0.0 
0.0 0.0 -1.245476155013e+00 
-6.589756580011e-01 6.776755834466e-02 0.0 
6.776755834466e-02 -7.544577202582e+00 0.0 
0.0 0.0 -3.831625899044e-01 
-9.332276867899e+01 -1.216380083189e+00 0.0 
-1.216380083189e+00 -2.099084680389e+02 0.0 
0.0 0.0 -9.056937101538e+01 
-8.479727875974e+01 -1.125938661776e+00 0.0 
-1.125938661776e+00 -1.894154097446e+02 0.0 
0.0 0.0 -8.186380655129e+01 
-1.278854184253e+00 -7.991596206336e-03 0.0 
-7.991596206336e-03 -9.411033552070e+00 0.0 
0.0 0.0 -3.783993791832e+00 
-1.185114858863e+02 -1.086510096406e+00 0.0 
-1.086510096406e+00 -2.697328912579e+02 0.0 
0.0 0.0 -1.160733131433e+02 
-2.163799831772e+00 -2.789560921616e-01 0.0 
-2.789560921616e-01 -9.461906308339e+00 0.0 
0.0 0.0 -4.059551014806e+00 
-1.569188842669e+02 3.862360247421e+00 0.0 
3.862360247421e+00 -3.674773966228e+02 0.0 
0.0 0.0 -1.569188842669e+02 
-1.559467768655e+02 1.569601141538e+00 0.0 
1.569601141538e+00 -3.652091460195e+02 0.0 
0.0 0.0 -1.559467768655e+02 
-1.562860578119e+02 2.715872490230e+00 0.0 
2.715872490230e+00 -3.660008015610e+02 0.0 
0.0 0.0 -1.562860578119e+02 
-2.849938627269e+01 -1.247533879624e+00 0.0 
-1.247533879624e+00 -6.865381802586e+01 0.0 
0.0 0.0 -2.874596128957e+01 
-5.798746824806e+01 -1.153728975745e+00 0.0 
-1.153728975745e+00 -1.288444860560e+02 0.0 
0.0 0.0 -5.564958629121e+01 
-1.556424656198e+02 1.307485548146e+00 0.0 
1.307485548146e+00 -3.644990864461e+02 0.0 
0.0 0.0 -1.556424656198e+02 
-1.433750303551e+02 -8.598400001643e-01 0.0 
-8.598400001643e-01 -3.304045594702e+02 0.0 
0.0 0.0 -1.417338769476e+02 
-1.564815000238e+02 1.105249926306e+00 0.0 
1.105249926306e+00 -3.664568333889e+02 0.0 
0.0 0.0 -1.564815000238e+02 
-1.513918308690e+02 -8.842416427262e-01 0.0 
-8.842416427262e-01 -3.505170746794e+02 0.0 
0.0 0.0 -1.501726716645e+02 
-1.594090581444e+02 -1.002994115879e+00 0.0 
-1.002994115879e+00 -3.706747872718e+02 0.0 
0.0 0.0 -1.586251536249e+02 
-8.041975447208e+01 5.743771603798e-01 0.0 
5.743771603798e-01 -1.792633623952e+02 0.0 
0.0 0.0 -7.750493506018e+01 
-1.565960844939e+02 1.611387621808e+00 0.0 
1.611387621808e+00 -3.651845370055e+02 0.0 
0.0 0.0 -1.561341864498e+02 
-1.565836284078e+02 7.382243269693e-01 0.0 
7.382243269693e-01 -3.655076012686e+02 0.0 
0.0 0.0 -1.562273689029e+02 
-1.469215145044e+02 6.327374093813e-01 0.0 
6.327374093813e-01 -3.394468000576e+02 0.0 
0.0 0.0 -1.455104943686e+02 
-1.551473660182e+02 6.240195890683e-01 0.0 
6.240195890683e-01 -3.600212724902e+02 0.0 
0.0 0.0 -1.541505915525e+02 
-1.270514965321e+02 -6.473979690122e-01 0.0 
-6.473979690122e-01 -2.920835410518e+02 0.0 
0.0 0.0 -1.253405112752e+02 
-1.539665837319e+01 -2.909223639359e+00 0.0 
-2.909223639359e+00 -9.564581378785e+00 0.0 
0.0 0.0 -8.064848108472e+00 
-8.168944249218e+01 -2.397836569569e+00 0.0 
-2.397836569569e+00 -1.847985623272e+02 0.0 
0.0 0.0 -7.954640144582e+01 
-6.456258444550e+00 1.288480411990e-01 0.0 
1.288480411990e-01 -2.488478640294e+01 0.0 
0.0 0.0 -8.488812214743e+00 
-1.490344927234e+02 -7.941906104498e-01 0.0 
-7.941906104498e-01 -3.504259173326e+02 0.0 
0.0 0.0 -1.494381230168e+02 
-8.575400717066e+01 -5.134090608309e+00 0.0 
-5.134090608309e+00 -1.963947870343e+02 0.0 
0.0 0.0 -8.424463826150e+01 
-1.389307332116e+02 -2.216289618362e+00 0.0 
-2.216289618362e+00 -3.228700589743e+02 0.0 
0.0 0.0 -1.381402376558e+02 
-4.554062815202e+01 -4.081447752123e+00 0.0 
-4.081447752123e+00 -9.931007186451e+01 0.0 
0.0 0.0 -4.305521000496e+01 
-1.730665799060e+01 -1.307759089296e+00 0.0 
-1.307759089296e+00 -4.140996008857e+01 0.0 
0.0 0.0 -1.721498542375e+01 
-1.476635780849e+02 -4.003974975439e-01 0.0 
-4.003974975439e-01 -3.429192083257e+02 0.0 
0.0 0.0 -1.467748359232e+02 
-9.052763027446e+01 -2.250676961367e+00 0.0 
-2.250676961367e+00 -2.050507423222e+02 0.0 
0.0 0.0 -8.827351177899e+01 
-7.144975855881e+01 -1.652769046836e+00 0.0 
-1.652769046836e+00 -1.592412255360e+02 0.0 
0.0 0.0 -6.880729522843e+01 
-1.396561470900e+02 -5.719556201985e-01 0.0 
-5.719556201985e-01 -3.235511172477e+02 0.0 
0.0 0.0 -1.385621793013e+02 
-1.394231244921e+02 -2.261928900420e-01 0.0 
-2.261928900420e-01 -3.220579434944e+02 0.0 
0.0 0.0 -1.380443203960e+02 
-7.165102822065e+01 6.143007915374e-01 0.0 
6.143007915374e-01 -1.592661887202e+02 0.0 
0.0 0.0 -6.887516508226e+01 
-1.283364537146e+02 -6.773094643329e-01 0.0 
-6.773094643329e-01 -3.139740765832e+02 0.0 
0.0 0.0 -1.322931590893e+02 
-1.142687469514e+02 -4.250972295626e+00 0.0 
-4.250972295626e+00 -2.726638238674e+02 0.0 
0.0 0.0 -1.156797712456e+02 
-1.262335689646e+02 -2.465112924085e+00 0.0 
-2.465112924085e+00 -2.913356335673e+02 0.0 
0.0 0.0 -1.248707607596e+02 
-1.301280551428e+02 -1.959634843910e+00 0.0 
-1.959634843910e+00 -2.997925454997e+02 0.0 
0.0 0.0 -1.285761801927e+02 
-6.413521762209e+01 7.699622377336e+00 0.0 
7.699622377336e+00 -1.914014540029e+02 0.0 
0.0 0.0 -7.626100148750e+01 
-8.185516432398e+01 6.784146546515e+00 0.0 
6.784146546515e+00 -1.763174824839e+02 0.0 
0.0 0.0 -7.705179404236e+01 
-8.671719080872e+01 1.171436000256e+01 0.0 
1.171436000256e+01 -2.124801500598e+02 0.0 
0.0 0.0 -8.935920226056e+01 
-1.183444066197e+02 -3.385332852907e+00 0.0 
-3.385332852907e+00 -2.755264187548e+02 0.0 
0.0 0.0 -1.177612476123e+02 
-1.433561543257e+02 -1.967713733820e-01 0.0 
-1.967713733820e-01 -3.317425065646e+02 0.0 
0.0 0.0 -1.421295982671e+02 
-1.340301149076e+02 -1.601534718335e+00 0.0 
-1.601534718335e+00 -3.085842814009e+02 0.0 
0.0 0.0 -1.323843188925e+02 
-4.940107420093e+01 -1.006811713999e+01 0.0 
-1.006811713999e+01 -1.067328830905e+02 0.0 
0.0 0.0 -4.644018718742e+01 
-1.392323186357e+02 1.136425430397e-01 0.0 
1.136425430397e-01 -3.210091993485e+02 0.0 
0.0 0.0 -1.376724553953e+02 
-1.309918304466e+02 2.176603157814e-02 0.0 
2.176603157814e-02 -3.010028733385e+02 0.0 
0.0 0.0 -1.291984111355e+02 
-9.391469200318e+01 -6.540968086235e-01 0.0 
-6.540968086235e-01 -2.108265910168e+02 0.0 
0.0 0.0 -9.102238490598e+01 
-1.226361011420e+02 -3.381284028986e+00 0.0 
-3.381284028986e+00 -2.875897666822e+02 0.0 
0.0 0.0 -1.226677603473e+02 
-1.223270682175e+02 -2.903780644731e+00 0.0 
-2.903780644731e+00 -2.833669893776e+02 0.0 
0.0 0.0 -1.213082172785e+02 
-1.397712646638e+02 1.488027697979e+00 0.0 
1.488027697979e+00 -3.228976300243e+02 0.0 
0.0 0.0 -1.384006684064e+02 
-1.353045850176e+02 -2.769883801058e-03 0.0 
-2.769883801058e-03 -3.117120674513e+02 0.0 
0.0 0.0 -1.337049957407e+02 
-1.117490512046e+02 -3.099497910125e+00 0.0 
-3.099497910125e+00 -2.665642001735e+02 0.0 
0.0 0.0 -1.130939754134e+02 
-1.513617658936e+02 -1.317466582253e-01 0.0 
-1.317466582253e-01 -3.510968111240e+02 0.0 
0.0 0.0 -1.503375731053e+02 
-1.299496626372e+02 8.783124851395e-01 0.0 
8.783124851395e-01 -2.974311544997e+02 0.0 
0.0 0.0 -1.278142451411e+02 
-1.343193081621e+02 1.663343936879e-01 0.0 
1.663343936879e-01 -3.087058449147e+02 0.0 
0.0 0.0 -1.325075459230e+02 
-1.532504564076e+02 -5.187971405625e-01 0.0 
-5.187971405625e-01 -3.590487666088e+02 0.0 
0.0 0.0 -1.532897669049e+02 
-1.394537235779e+02 1.913322357825e+00 0.0 
1.913322357825e+00 -3.215298766240e+02 0.0 
0.0 0.0 -1.378950800606e+02 
-1.192444664727e+02 1.693003771231e+00 0.0 
1.693003771231e+00 -2.708973296924e+02 0.0 
0.0 0.0 -1.166425388495e+02 
-1.240826391716e+02 -1.501144147344e+00 0.0 
-1.501144147344e+00 -3.025406128486e+02 0.0 
0.0 0.0 -1.275869756061e+02 
-4.505924603768e+01 -2.657700132075e+00 0.0 
-2.657700132075e+00 -9.986767279797e+01 0.0 
0.0 0.0 -4.307807565069e+01 
-4.704368533920e+01 -1.182474946128e+01 0.0 
-1.182474946128e+01 -1.007665728519e+02 0.0 
0.0 0.0 -4.394307745733e+01 
-2.204772722167e+01 -1.148236309471e+00 0.0 
-1.148236309471e+00 -4.847444882352e+01 0.0 
0.0 0.0 -2.075665281356e+01 
-2.564528983177e+01 -1.108345579162e+01 0.0 
-1.108345579162e+01 -3.381929053532e+01 0.0 
0.0 0.0 -1.651295249448e+01 
-1.356954565202e+02 1.622552899108e+00 0.0 
1.622552899108e+00 -3.121049162484e+02 0.0 
0.0 0.0 -1.339401118306e+02 
-1.464775161666e+02 -1.632050579916e+00 0.0 
-1.632050579916e+00 -3.392847920535e+02 0.0 
0.0 0.0 -1.453286924660e+02 
-1.538961691875e+01 -5.514267452193e+00 0.0 
-5.514267452193e+00 -2.834106047485e+01 0.0 
0.0 0.0 -1.199445769233e+01 
-1.410165239393e+02 6.422008717026e+00 0.0 
6.422008717026e+00 -3.216989878200e+02 0.0 
0.0 0.0 -1.384146535278e+02 
-9.812585485425e+01 -4.334568357237e-01 0.0 
-4.334568357237e-01 -2.199352564518e+02 0.0 
0.0 0.0 -9.501833339181e+01 
-1.359825752573e+02 -8.691332251131e-01 0.0 
-8.691332251131e-01 -3.157933782661e+02 0.0 
0.0 0.0 -1.351327860570e+02 
-1.382490067668e+02 -1.787460416121e+00 0.0 
-1.787460416121e+00 -3.194562214035e+02 0.0 
0.0 0.0 -1.369115684511e+02 
-6.212845926872e+01 -1.114974100409e+01 0.0 
-1.114974100409e+01 -1.562043731013e+02 0.0 
0.0 0.0 -6.509984971100e+01 
-1.388049591623e+02 -3.430795349726e-02 0.0 
-3.430795349726e-02 -3.200530724750e+02 0.0 
0.0 0.0 -1.372574094912e+02 
-9.428053817490e+01 1.423425802086e+00 0.0 
1.423425802086e+00 -2.109174471578e+02 0.0 
0.0 0.0 -9.115939559980e+01 
-1.199270425988e+02 5.774669309153e+00 0.0 
5.774669309153e+00 -3.024685106181e+02 0.0 
0.0 0.0 -1.263186659651e+02 
-1.569379622578e+02 -2.207622856300e+00 0.0 
-2.207622856300e+00 -3.669603432488e+02 0.0 
0.0 0.0 -1.567694916520e+02 
-4.273596748360e+01 -1.599145157873e+00 0.0 
-1.599145157873e+00 -9.619653864559e+01 0.0 
0.0 0.0 -4.127975183876e+01 
-1.536074486031e+02 -6.542877250595e-01 0.0 
-6.542877250595e-01 -3.622848215167e+02 0.0 
0.0 0.0 -1.543676810359e+02 
-1.235466018028e+02 1.538989138988e+00 0.0 
1.538989138988e+00 -2.817350445012e+02 0.0 
0.0 0.0 -1.211844938912e+02 
-4.875234673930e+01 -2.366648516827e+00 0.0 
-2.366648516827e+00 -1.082743496516e+02 0.0 
0.0 0.0 -4.670800891727e+01 
-5.451300240991e+01 -9.278540913761e+00 0.0 
-9.278540913761e+00 -1.228065065297e+02 0.0 
0.0 0.0 -5.279585268188e+01 
-1.011094760366e+02 -2.351797103092e+00 0.0 
-2.351797103092e+00 -2.289589165417e+02 0.0 
0.0 0.0 -9.862051777347e+01 
-1.100714302568e+02 4.468137005865e-02 0.0 
4.468137005865e-02 -2.489848657892e+02 0.0 
0.0 0.0 -1.073168888138e+02 
-6.948259034924e+01 -5.553077707688e+00 0.0 
-5.553077707688e+00 -1.558490636907e+02 0.0 
0.0 0.0 -6.719949621198e+01 
-1.277901801049e+02 1.499769676200e+00 0.0 
1.499769676200e+00 -2.924778944613e+02 0.0 
0.0 0.0 -1.256804223699e+02 
-1.153135141855e+02 1.536728930470e+00 0.0 
1.536728930470e+00 -2.614543423251e+02 0.0 
0.0 0.0 -1.126303569532e+02 
-9.781985424709e+01 -4.008178904074e+00 0.0 
-4.008178904074e+00 -2.242650578073e+02 0.0 
0.0 0.0 -9.622547361631e+01 
-1.305711596772e+02 -2.201869785741e-01 0.0 
-2.201869785741e-01 -3.001590669273e+02 0.0 
0.0 0.0 -1.288190679813e+02 
-1.351961895808e+02 -3.866677479775e-01 0.0 
-3.866677479775e-01 -3.119378098940e+02 0.0 
0.0 0.0 -1.337401998424e+02 
-1.229134787473e+02 -1.600062528248e-01 0.0 
-1.600062528248e-01 -2.811205808268e+02 0.0 
0.0 0.0 -1.208102178723e+02 
-3.704376506574e+01 -9.883607750221e-01 0.0 
-9.883607750221e-01 -8.354359456201e+01 0.0 
0.0 0.0 -3.577620788833e+01 
-9.347314626700e+01 -3.608883934001e+00 0.0 
-3.608883934001e+00 -2.123397362110e+02 0.0 
0.0 0.0 -9.134386474339e+01 
-1.397559689976e+02 5.654217249107e+00 0.0 
5.654217249107e+00 -3.387024156723e+02 0.0 
0.0 0.0 -1.431375154010e+02 
-1.272897623023e+02 1.838295590444e+00 0.0 
1.838295590444e+00 -2.907198813011e+02 0.0 
0.0 0.0 -1.250028930810e+02 
-8.504578926435e+01 -3.952783749921e+00 0.0 
-3.952783749921e+00 -1.919023394633e+02 0.0 
0.0 0.0 -8.268443861830e+01 
-1.158750134765e+02 -2.614475061801e+00 0.0 
-2.614475061801e+00 -2.737197539592e+02 0.0 
0.0 0.0 -1.164784302307e+02 
-1.499261931736e+02 -4.524457218531e-01 0.0 
-4.524457218531e-01 -3.551351160651e+02 0.0 
0.0 0.0 -1.511183927716e+02 
-1.188613733927e+02 2.856600729098e-02 0.0 
2.856600729098e-02 -2.704565342537e+02 0.0 
0.0 0.0 -1.163953722939e+02 
-2.896096390410e+01 -7.452705100190e+00 0.0 
-7.452705100190e+00 -1.230791857429e+02 0.0 
0.0 0.0 -4.772339978306e+01 
-1.925097537075e+01 -1.660310540405e-01 0.0 
-1.660310540405e-01 -4.665822223817e+01 0.0 
0.0 0.0 -1.937275928267e+01 
-3.449309055774e+01 4.605064061440e+00 0.0 
4.605064061440e+00 -1.429243619204e+02 0.0 
0.0 0.0 -5.252557550885e+01 
-1.427415903965e+02 -1.967695920444e+00 0.0 
-1.967695920444e+00 -3.310990409822e+02 0.0 
0.0 0.0 -1.417521894136e+02 
-1.144056201610e+02 6.148804310748e-02 0.0 
6.148804310748e-02 -2.597066029572e+02 0.0 
0.0 0.0 -1.118336669355e+02 
-1.101130218321e+02 -7.869354016475e-02 0.0 
-7.869354016475e-02 -2.495086757608e+02 0.0 
0.0 0.0 -1.074865092779e+02 
-1.020138424927e+02 -1.328821645946e-01 0.0 
-1.328821645946e-01 -2.293860077582e+02 0.0 
0.0 0.0 -9.901995507526e+01 
-1.419046731632e+02 6.644780533664e-01 0.0 
6.644780533664e-01 -3.439132072134e+02 0.0 
0.0 0.0 -1.453453641130e+02 
-1.016955911956e+02 -3.336178478956e+00 0.0 
-3.336178478956e+00 -2.322874143446e+02 0.0 
0.0 0.0 -9.979490166205e+01 
-1.345354596408e+02 -2.161845837044e+00 0.0 
-2.161845837044e+00 -3.112684226633e+02 0.0 
0.0 0.0 -1.333411646912e+02 
-4.440137308483e+01 -4.225001047257e-01 0.0 
-4.225001047257e-01 -1.001075381964e+02 0.0 
0.0 0.0 -4.295267338436e+01 
-1.529019331039e+02 -2.383231333263e+00 0.0 
-2.383231333263e+00 -3.590101848776e+02 0.0 
0.0 0.0 -1.531736353944e+02 
-9.873881230916e+01 -1.994895318853e+00 0.0 
-1.994895318853e+00 -2.251084994315e+02 0.0 
0.0 0.0 -9.675419352220e+01 
-4.812728976006e+01 -6.335471633427e-02 0.0 
-6.335471633427e-02 -1.085225049352e+02 0.0 
0.0 0.0 -4.659493840858e+01 
-9.414226948004e+01 -1.468958716462e+00 0.0 
-1.468958716462e+00 -2.131238170110e+02 0.0 
0.0 0.0 -9.177982594730e+01 
-7.310070871358e+01 -4.693619984200e+00 0.0 
-4.693619984200e+00 -1.638218081532e+02 0.0 
0.0 0.0 -7.067675506004e+01 
-5.767024428988e+01 -3.879577230181e+00 0.0 
-3.879577230181e+00 -1.280794012010e+02 0.0 
0.0 0.0 -5.532489364727e+01 
-1.092673845949e+02 -2.118385395239e+00 0.0 
-2.118385395239e+00 -2.485868935938e+02 0.0 
0.0 0.0 -1.069562834566e+02 
-1.107688587626e+00 4.051170261884e-01 0.0 
4.051170261884e-01 -9.719320468039e+00 0.0 
0.0 0.0 -2.916583618323e+00 
-1.280335248063e+00 -5.731786629249e-02 0.0 
-5.731786629249e-02 -9.757620955007e+00 0.0 
0.0 0.0 -3.258443150676e+00 
-1.232399810547e+02 -1.093640004384e+00 0.0 
-1.093640004384e+00 -2.841519887985e+02 0.0 
0.0 0.0 -1.218175909559e+02 
-4.067275893256e+01 -7.098714852423e-01 0.0 
-7.098714852423e-01 -9.190679657182e+01 0.0 
0.0 0.0 -3.937386665131e+01 
-1.238387579744e+02 -1.650668558286e+00 0.0 
-1.650668558286e+00 -2.884801163066e+02 0.0 
0.0 0.0 -1.232956622843e+02 
-1.199083476287e+02 -2.132723519733e+00 0.0 
-2.132723519733e+00 -2.810368836360e+02 0.0 
0.0 0.0 -1.198835693794e+02 
-7.797139574058e+01 -6.926384096630e+00 0.0 
-6.926384096630e+00 -1.810717709919e+02 0.0 
0.0 0.0 -7.731295001975e+01 
-5.112767364054e+01 -1.394747236609e+01 0.0 
-1.394747236609e+01 -1.316211834040e+02 0.0 
0.0 0.0 -5.442465711337e+01 
-1.347714047604e+02 2.473859316105e+00 0.0 
2.473859316105e+00 -3.087699795949e+02 0.0 
0.0 0.0 -1.326624153066e+02 
-2.902599007104e+01 2.541068505515e+01 0.0 
2.541068505515e+01 -9.884718399921e+01 0.0 
0.0 0.0 -3.968544984755e+01 
-7.678722181675e+01 -3.890591592315e+00 0.0 
-3.890591592315e+00 -1.721857138251e+02 0.0 
0.0 0.0 -7.429188069255e+01 
-1.465409635297e+02 1.422815693059e+00 0.0 
1.422815693059e+00 -3.542757777982e+02 0.0 
0.0 0.0 -1.498450223983e+02 
-3.537229497603e+01 -2.197038094177e+00 0.0 
-2.197038094177e+00 -7.930391504684e+01 0.0 
0.0 0.0 -3.400286300686e+01 
-1.067997739302e+02 1.478636354999e+00 0.0 
1.478636354999e+00 -2.405124776407e+02 0.0 
0.0 0.0 -1.037936754713e+02 
-9.854836517283e+01 1.387150458705e+00 0.0 
1.387150458705e+00 -2.204632586002e+02 0.0 
0.0 0.0 -9.530348713191e+01 
-3.618022642653e+01 -2.928502886167e+00 0.0 
-2.928502886167e+00 -7.832454105164e+01 0.0 
0.0 0.0 -3.395143024345e+01 
-1.457735583389e+02 -4.505613212384e-01 0.0 
-4.505613212384e-01 -3.475616145498e+02 0.0 
0.0 0.0 -1.476005518666e+02 
-1.226977969036e+02 2.293722170598e+00 0.0 
2.293722170598e+00 -2.782681698262e+02 0.0 
0.0 0.0 -1.198897900189e+02 
-4.159347503028e+01 -2.971386546701e+00 0.0 
-2.971386546701e+00 -9.164151933014e+01 0.0 
0.0 0.0 -3.957049830812e+01 
-1.383696471509e+02 2.741763515406e+00 0.0 
2.741763515406e+00 -3.175356728251e+02 0.0 
0.0 0.0 -1.363715959928e+02 
-1.375759880039e+02 1.231528852778e+00 0.0 
1.231528852778e+00 -3.168618976249e+02 0.0 
0.0 0.0 -1.359313656886e+02 
-4.637695184047e+01 -1.512759603316e+00 0.0 
-1.512759603316e+00 -1.032567498072e+02 0.0 
0.0 0.0 -4.449011049430e+01 
-6.009457948604e+01 1.290786249295e+01 0.0 
1.290786249295e+01 -1.274946758669e+02 0.0 
0.0 0.0 -5.587677660587e+01 
-4.877462837943e+01 -3.329836240811e+00 0.0 
-3.329836240811e+00 -1.073136795579e+02 0.0 
0.0 0.0 -4.642649238119e+01 
-1.315507259631e+02 -7.925782016311e-01 0.0 
-7.925782016311e-01 -3.039224575941e+02 0.0 
0.0 0.0 -1.302419550672e+02 
-1.055234174474e+02 -2.710959287226e+00 0.0 
-2.710959287226e+00 -2.404694866515e+02 0.0 
0.0 0.0 -1.033978712297e+02 
-1.399968436378e+02 3.984988550197e+00 0.0 
3.984988550197e+00 -3.211989205015e+02 0.0 
0.0 0.0 -1.379587292418e+02 
-1.341135020256e+02 7.857218432257e-01 0.0 
7.857218432257e-01 -3.082063479381e+02 0.0 
0.0 0.0 -1.322959549891e+02 
-1.277188264291e+02 -1.207063752426e+00 0.0 
-1.207063752426e+00 -2.961233908185e+02 0.0 
0.0 0.0 -1.267526651743e+02 
-1.266877311476e+02 -2.953225947516e+00 0.0 
-2.953225947516e+00 -2.953035804798e+02 0.0 
0.0 0.0 -1.261973934882e+02 
-4.117106204785e+01 -5.147523085619e+00 0.0 
-5.147523085619e+00 -8.673792311295e+01 0.0 
0.0 0.0 -3.797269554824e+01 
-1.306502470045e+02 -2.547814921044e+00 0.0 
-2.547814921044e+00 -3.031560838937e+02 0.0 
0.0 0.0 -1.297418992695e+02 
-1.220086703107e+02 6.001912125553e-01 0.0 
6.001912125553e-01 -2.776918335299e+02 0.0 
0.0 0.0 -1.195101511522e+02 
-1.062339442888e+02 -7.459669732226e-01 0.0 
-7.459669732226e-01 -2.412064876743e+02 0.0 
0.0 0.0 -1.038321295889e+02 
-1.149836069555e+02 1.717815750641e+00 0.0 
1.717815750641e+00 -2.602284465645e+02 0.0 
0.0 0.0 -1.121636160560e+02 
-1.268733958111e+02 2.233849862743e+00 0.0 
2.233849862743e+00 -2.889808292920e+02 0.0 
0.0 0.0 -1.243562675309e+02 
-8.598587474690e+01 6.948425283124e+00 0.0 
6.948425283124e+00 -2.313904163629e+02 0.0 
0.0 0.0 -9.481288733295e+01 
-1.304229254752e+02 4.610773591981e-01 0.0 
4.610773591981e-01 -2.991924189910e+02 0.0 
0.0 0.0 -1.284846033399e+02 
-8.924182459108e+01 -3.247215791168e+00 0.0 
-3.247215791168e+00 -2.014555391253e+02 0.0 
0.0 0.0 -8.680920911492e+01 
-1.024540156352e+02 -1.319337571883e+00 0.0 
-1.319337571883e+00 -2.330628243379e+02 0.0 
0.0 0.0 -1.002550519919e+02 
-6.840747168461e+01 -4.118926924823e+00 0.0 
-4.118926924823e+00 -1.521132272629e+02 0.0 
0.0 0.0 -6.575620968425e+01 
-7.208039847462e+01 -7.027481847653e+00 0.0 
-7.027481847653e+00 -1.684732199389e+02 0.0 
0.0 0.0 -7.176608552407e+01 
-1.182050645800e+02 3.041626124662e-01 0.0 
3.041626124662e-01 -2.686815732872e+02 0.0 
0.0 0.0 -1.156659913602e+02 
-9.510453236635e+01 -5.008357628636e+00 0.0 
-5.008357628636e+00 -2.337834316871e+02 0.0 
0.0 0.0 -9.826638921603e+01 
-5.214427577444e+01 -2.630872534069e+00 0.0 
-2.630872534069e+00 -1.154506059158e+02 0.0 
0.0 0.0 -4.987846450706e+01 
-2.597730036495e+01 -1.476091295581e+00 0.0 
-1.476091295581e+00 -5.763811555395e+01 0.0 
0.0 0.0 -2.468462477567e+01 
-1.188706798226e+02 1.978166062306e+00 0.0 
1.978166062306e+00 -2.692444922261e+02 0.0 
0.0 0.0 -1.160345516146e+02 
-5.286748648312e+01 -5.165540553124e+00 0.0 
-5.165540553124e+00 -1.151945872522e+02 0.0 
0.0 0.0 -5.001862212060e+01 
-1.535177143908e+02 -2.031985601116e+00 0.0 
-2.031985601116e+00 -3.620491330377e+02 0.0 
0.0 0.0 -1.542700542286e+02 
-1.225089660755e+02 2.585601408347e-01 0.0 
2.585601408347e-01 -2.794246816153e+02 0.0 
0.0 0.0 -1.201800943072e+02 
-1.350664460595e+02 -2.568853003306e+00 0.0 
-2.568853003306e+00 -3.150356559392e+02 0.0 
0.0 0.0 -1.346306305996e+02 
-1.613338639153e+02 3.017468296794e+00 0.0 
3.017468296794e+00 -3.825325689387e+02 0.0 
0.0 0.0 -1.627599298562e+02 
-8.564511436839e+01 -1.614637267875e+00 0.0 
-1.614637267875e+00 -1.928572543100e+02 0.0 
0.0 0.0 -8.315071060352e+01 
-4.733613046167e+01 -4.000392245473e+00 0.0 
-4.000392245473e+00 -1.031132556054e+02 0.0 
0.0 0.0 -4.473481582013e+01 
-3.181849993167e+01 -4.040807022288e+00 0.0 
-4.040807022288e+00 -6.625701387806e+01 0.0 
0.0 0.0 -2.902265414292e+01 
-1.281845156155e+02 -1.609105575104e+00 0.0 
-1.609105575104e+00 -3.005404624496e+02 0.0 
0.0 0.0 -1.282174934195e+02 
-1.106622601999e+02 -1.842086868263e-01 0.0 
-1.842086868263e-01 -2.508104619296e+02 0.0 
0.0 0.0 -1.080418166389e+02 
-2.165172261740e+01 -2.665674681468e+00 0.0 
-2.665674681468e+00 -4.678027051402e+01 0.0 
0.0 0.0 -2.012959793943e+01 
-6.987455364704e+01 -3.226522719016e+00 0.0 
-3.226522719016e+00 -1.565269033255e+02 0.0 
0.0 0.0 -6.752043709176e+01 
-3.887798943920e+01 1.266302136462e-01 0.0 
1.266302136462e-01 -8.903197331273e+01 0.0 
0.0 0.0 -3.797298882558e+01 
-1.107699233527e+02 1.695671219652e+00 0.0 
1.695671219652e+00 -2.495557113680e+02 0.0 
0.0 0.0 -1.076976904162e+02 
-7.365517108521e+01 -2.402703241925e+00 0.0 
-2.402703241925e+00 -1.645588280902e+02 0.0 
0.0 0.0 -7.106419975263e+01 
-1.185053712231e+02 -3.813579861952e+00 0.0 
-3.813579861952e+00 -2.800614128289e+02 0.0 
0.0 0.0 -1.191700352156e+02 
-6.819520102222e+01 -1.609446439922e+00 0.0 
-1.609446439922e+00 -1.523972029461e+02 0.0 
0.0 0.0 -6.577772119050e+01 
-1.314932916556e+02 1.771314902360e+00 0.0 
1.771314902360e+00 -3.015426168386e+02 0.0 
0.0 0.0 -1.295107725482e+02 
-6.127173348943e+01 -5.506315887360e+00 0.0 
-5.506315887360e+00 -1.355773950384e+02 0.0 
0.0 0.0 -5.865473855835e+01 
-1.284170159116e+02 -1.729927306112e+00 0.0 
-1.729927306112e+00 -3.051637580943e+02 0.0 
0.0 0.0 -1.296742322018e+02 
-4.714135107390e+01 -8.948669933846e+00 0.0 
-8.948669933846e+00 -1.014532129466e+02 0.0 
0.0 0.0 -4.417836920616e+01 
-1.241552754718e+02 -1.992588266393e+00 0.0 
-1.992588266393e+00 -2.931317501877e+02 0.0 
0.0 0.0 -1.247861076979e+02 
-9.807761466459e+01 -1.015548823170e+00 0.0 
-1.015548823170e+00 -2.217900171289e+02 0.0 
0.0 0.0 -9.556028953804e+01 
-1.310507108345e+02 -2.914496911276e+00 0.0 
-2.914496911276e+00 -3.072729164189e+02 0.0 
0.0 0.0 -1.310970881760e+02 
-5.697015536295e+01 -1.703716885913e+00 0.0 
-1.703716885913e+00 -1.828574546886e+02 0.0 
0.0 0.0 -7.154828301548e+01 
-3.920418363375e+01 -2.111933993225e+00 0.0 
-2.111933993225e+00 -8.835479622342e+01 0.0 
0.0 0.0 -3.786769395715e+01 
-1.030355740145e+02 1.279989143279e+00 0.0 
1.279989143279e+00 -2.314767278414e+02 0.0 
0.0 0.0 -9.995369055677e+01 
-1.142698245744e+02 3.937709372466e-01 0.0 
3.937709372466e-01 -2.906611357198e+02 0.0 
0.0 0.0 -1.210792880882e+02 
-8.291334906888e+01 9.254301352902e+00 0.0 
9.254301352902e+00 -1.896548388437e+02 0.0 
0.0 0.0 -8.137045637377e+01 
-1.110769496151e+02 1.522385931550e+00 0.0 
1.522385931550e+00 -2.510678252021e+02 0.0 
0.0 0.0 -1.082434324452e+02 
-5.177141954836e+01 -1.114561239626e+01 0.0 
-1.114561239626e+01 -1.174516125235e+02 0.0 
0.0 0.0 -5.036690962155e+01 
-1.136366474411e+02 6.839546487356e-01 0.0 
6.839546487356e-01 -2.564665233820e+02 0.0 
0.0 0.0 -1.106309512469e+02 
-3.443930209521e+01 -2.454621804767e-03 0.0 
-2.454621804767e-03 -8.013348655671e+01 0.0 
0.0 0.0 -3.397183659558e+01 
-1.453438230677e+02 -7.611132225020e-01 0.0 
-7.611132225020e-01 -3.435732838471e+02 0.0 
0.0 0.0 -1.462751320744e+02 
-1.187405512033e+02 1.659204999390e+00 0.0 
1.659204999390e+00 -3.009544883627e+02 0.0 
0.0 0.0 -1.255085118698e+02 
-1.250766939133e+02 6.530648981045e+00 0.0 
6.530648981045e+00 -3.113058829647e+02 0.0 
0.0 0.0 -1.305147730634e+02 
-1.426056919008e+02 2.706983535278e+00 0.0 
2.706983535278e+00 -3.288834312017e+02 0.0 
0.0 0.0 -1.410467369307e+02 
-1.032037455673e+02 -3.968917763225e+00 0.0 
-3.968917763225e+00 -2.527768904897e+02 0.0 
0.0 0.0 -1.063941908171e+02 
-3.817348456948e+01 -3.342870728312e+00 0.0 
-3.342870728312e+00 -8.327943896521e+01 0.0 
0.0 0.0 -3.603587706041e+01 
-1.158133494231e+02 -2.730406498875e+00 0.0 
-2.730406498875e+00 -2.787590270276e+02 0.0 
0.0 0.0 -1.179717129352e+02 
-1.492283404417e+02 -1.974035275578e+00 0.0 
-1.974035275578e+00 -3.545019561882e+02 0.0 
0.0 0.0 -1.507190889890e+02 
-6.166580894513e+01 -1.089900461646e+01 0.0 
-1.089900461646e+01 -1.533588993491e+02 0.0 
0.0 0.0 -6.410741248826e+01 
-1.321251890698e+02 -1.227803262524e+00 0.0 
-1.227803262524e+00 -3.080964857962e+02 0.0 
0.0 0.0 -1.316665024598e+02 
-1.230644427790e+02 1.939414083042e+00 0.0 
1.939414083042e+00 -2.799422865140e+02 0.0 
0.0 0.0 -1.205020187879e+02 
-4.636796835513e+01 -1.512920271475e+01 0.0 
-1.512920271475e+01 -1.281169704430e+02 0.0 
0.0 0.0 -5.194548163944e+01 
-1.200362996218e+02 -2.373841652212e+00 0.0 
-2.373841652212e+00 -2.858766584424e+02 0.0 
0.0 0.0 -1.213738874193e+02 
-1.022818099406e+02 1.746401738781e+00 0.0 
1.746401738781e+00 -2.281777431133e+02 0.0 
0.0 0.0 -9.873786591614e+01 
-5.385350176465e+01 -7.402007207700e-01 0.0 
-7.402007207700e-01 -1.201968812552e+02 0.0 
0.0 0.0 -5.181511490594e+01 
-6.630073394748e+01 -4.107014615628e+00 0.0 
-4.107014615628e+00 -1.487222443215e+02 0.0 
0.0 0.0 -6.410689348070e+01 
-9.688837306558e+01 1.043241419914e+01 0.0 
1.043241419914e+01 -2.284624415388e+02 0.0 
0.0 0.0 -9.720524438132e+01 
-1.269306426264e+02 -3.257437253969e+00 0.0 
-3.257437253969e+00 -2.996458944378e+02 0.0 
0.0 0.0 -1.275729611193e+02 
-7.655933618970e+01 9.877247152946e+00 0.0 
9.877247152946e+00 -1.674764478942e+02 0.0 
0.0 0.0 -7.281073522516e+01 
-9.189829413997e+01 1.108840259343e+01 0.0 
1.108840259343e+01 -2.203432032122e+02 0.0 
0.0 0.0 -9.327244920564e+01 
-1.178211290563e+02 6.425951638598e-01 0.0 
6.425951638598e-01 -2.670484940225e+02 0.0 
0.0 0.0 -1.150608869236e+02 
-1.062446730226e+02 -2.112978033805e-01 0.0 
-2.112978033805e-01 -2.399955627394e+02 0.0 
0.0 0.0 -1.034720707286e+02 
-1.055421472108e+02 3.611376802710e-01 0.0 
3.611376802710e-01 -2.368287150867e+02 0.0 
0.0 0.0 -1.023112586892e+02 
-9.742446261939e+01 -2.865615181112e+00 0.0 
-2.865615181112e+00 -2.209358222247e+02 0.0 
0.0 0.0 -9.510808545322e+01 
-1.416000888241e+02 -3.033130552975e-01 0.0 
-3.033130552975e-01 -3.402283535141e+02 0.0 
0.0 0.0 -1.441485327015e+02 
-1.114815425083e+02 -3.025073269649e+00 0.0 
-3.025073269649e+00 -2.717701084962e+02 0.0 
0.0 0.0 -1.145754953014e+02 
-1.024369897447e+02 1.439431933101e+00 0.0 
1.439431933101e+00 -2.298234518537e+02 0.0 
0.0 0.0 -9.927813247954e+01 
-1.453982509492e+02 7.274276078957e+00 0.0 
7.274276078957e+00 -3.329772386476e+02 0.0 
0.0 0.0 -1.431126468790e+02 
-1.302520890105e+02 7.158540519302e+00 0.0 
7.158540519302e+00 -3.199991409773e+02 0.0 
0.0 0.0 -1.346753689963e+02 
-1.227165136619e+02 -3.596727836347e+00 0.0 
-3.596727836347e+00 -2.921683504575e+02 0.0 
0.0 0.0 -1.240654592358e+02 
-1.262246959226e+02 5.504060094255e-01 0.0 
5.504060094255e-01 -2.884229448919e+02 0.0 
0.0 0.0 -1.239942922444e+02 
-7.559458420476e+01 -5.825927127544e+00 0.0 
-5.825927127544e+00 -1.749674955970e+02 0.0 
0.0 0.0 -7.476862394053e+01 
-7.112079385739e+01 -5.063503465948e+00 0.0 
-5.063503465948e+00 -1.617274702534e+02 0.0 
0.0 0.0 -6.945447923324e+01 
-3.927465619428e+01 -2.421697433684e+00 0.0 
-2.421697433684e+00 -8.653480534939e+01 0.0 
0.0 0.0 -3.734283846310e+01 
-1.199062537884e+02 -2.190446723376e+00 0.0 
-2.190446723376e+00 -2.907667854975e+02 0.0 
0.0 0.0 -1.228019117858e+02 
-7.468037526465e+01 -4.066903548153e+00 0.0 
-4.066903548153e+00 -1.691989052018e+02 0.0 
0.0 0.0 -7.276378413994e+01 
-1.146667112591e+02 2.025944197033e+00 0.0 
2.025944197033e+00 -2.585301281778e+02 0.0 
0.0 0.0 -1.115590518311e+02 
-1.104686015636e+02 2.070641745955e+00 0.0 
2.070641745955e+00 -2.478933277696e+02 0.0 
0.0 0.0 -1.071085788000e+02 
-8.806385505763e+01 5.259451034395e+00 0.0 
5.259451034395e+00 -2.403339276504e+02 0.0 
0.0 0.0 -9.811933481241e+01 
-6.247416906140e+01 -7.518153732810e+00 0.0 
-7.518153732810e+00 -1.404707413320e+02 0.0 
0.0 0.0 -6.048347311801e+01 
-5.629880674538e+01 9.142460924309e+00 0.0 
9.142460924309e+00 -1.760885097151e+02 0.0 
0.0 0.0 -6.931619493815e+01 
-6.593173099278e+01 -6.488071933451e+00 0.0 
-6.488071933451e+00 -1.480375536441e+02 0.0 
0.0 0.0 -6.379078539106e+01 
-7.017603407886e+01 -7.336935656374e+00 0.0 
-7.336935656374e+00 -1.608249614611e+02 0.0 
0.0 0.0 -6.890029866200e+01 
-4.413531143614e+01 -4.573712848672e+00 0.0 
-4.573712848672e+00 -9.488866453931e+01 0.0 
0.0 0.0 -4.130719279264e+01 
-1.372665198308e+02 -8.489888318586e-02 0.0 
-8.489888318586e-02 -3.327991570780e+02 0.0 
0.0 0.0 -1.406197030726e+02 
-8.110678623321e+01 -7.995338341210e+00 0.0 
-7.995338341210e+00 -2.003326660757e+02 0.0 
0.0 0.0 -8.403183569266e+01 
-1.310319498969e+02 2.144882525709e+00 0.0 
2.144882525709e+00 -2.997348570139e+02 0.0 
0.0 0.0 -1.288300420732e+02 
-8.452960346162e+01 -7.431077186586e+00 0.0 
-7.431077186586e+00 -2.133887432994e+02 0.0 
0.0 0.0 -8.897550402829e+01 
-1.140086025977e+02 -4.175773130359e+00 0.0 
-4.175773130359e+00 -2.776783843915e+02 0.0 
0.0 0.0 -1.171060960968e+02 
-9.717284198552e+01 -5.958300215783e+00 0.0 
-5.958300215783e+00 -2.390932712432e+02 0.0 
0.0 0.0 -1.004798339686e+02 
-8.917081424445e+01 1.114199719082e+01 0.0 
1.114199719082e+01 -2.237810594391e+02 0.0 
0.0 0.0 -9.348556210508e+01 
-4.285820187185e+01 -2.001618111311e+00 0.0 
-2.001618111311e+00 -9.495712738272e+01 0.0 
0.0 0.0 -4.094459877637e+01 
-1.448279526686e+02 -1.755406031366e+00 0.0 
-1.755406031366e+00 -3.468173193431e+02 0.0 
0.0 0.0 -1.470935816035e+02 
-1.508098357371e+02 1.554367950196e-01 0.0 
1.554367950196e-01 -3.600373508298e+02 0.0 
0.0 0.0 -1.528541559701e+02 
-1.178631388055e+02 7.246396674639e+00 0.0 
7.246396674639e+00 -2.751550038525e+02 0.0 
0.0 0.0 -1.175054427974e+02 
-7.404211547769e+01 -7.950154555675e+00 0.0 
-7.950154555675e+00 -1.738401913034e+02 0.0 
0.0 0.0 -7.396469203434e+01 
-1.055074997749e+02 -5.022571964613e+00 0.0 
-5.022571964613e+00 -2.584062039011e+02 0.0 
0.0 0.0 -1.087741111028e+02 
-1.139445356261e+02 3.043746145069e-01 0.0 
3.043746145069e-01 -2.579370615804e+02 0.0 
0.0 0.0 -1.111644791620e+02 
-7.924501437935e+01 -4.787277537628e+00 0.0 
-4.787277537628e+00 -1.820809827311e+02 0.0 
0.0 0.0 -7.799779913313e+01 
-7.720491489511e+01 1.265176583799e+01 0.0 
1.265176583799e+01 -1.818347814617e+02 0.0 
0.0 0.0 -7.731190890705e+01 
-6.105285590479e+01 -3.058444109956e+00 0.0 
-3.058444109956e+00 -1.360258877205e+02 0.0 
0.0 0.0 -5.872362308760e+01 
-5.521464286045e+01 -1.229376528452e+01 0.0 
-1.229376528452e+01 -1.337181725603e+02 0.0 
0.0 0.0 -5.627984462623e+01 
-7.973166813152e+01 -6.306286094635e+00 0.0 
-6.306286094635e+00 -1.883517076806e+02 0.0 
0.0 0.0 -8.002501274365e+01 
-5.616306656376e+01 -4.436338495188e+00 0.0 
-4.436338495188e+00 -1.233635084921e+02 0.0 
0.0 0.0 -5.345797251675e+01 
-5.004618856811e+01 -1.089889119721e+00 0.0 
-1.089889119721e+00 -1.116815292939e+02 0.0 
0.0 0.0 -4.811831535860e+01 
-9.938424863358e+01 -4.472810803405e+00 0.0 
-4.472810803405e+00 -2.403565040416e+02 0.0 
0.0 0.0 -1.015222258026e+02 
-1.184114319530e+02 -3.915003903902e+00 0.0 
-3.915003903902e+00 -2.848497322039e+02 0.0 
0.0 0.0 -1.205783492471e+02 
-1.379945511124e+02 6.892963536475e+00 0.0 
6.892963536475e+00 -3.220930800372e+02 0.0 
0.0 0.0 -1.376262893449e+02 
-1.128921338248e+00 -8.949176672735e-02 0.0 
-8.949176672735e-02 -8.562790976977e+00 0.0 
0.0 0.0 -1.513963478034e+00 
-7.864568936438e+01 -5.957577634671e+00 0.0 
-5.957577634671e+00 -2.143522562832e+02 0.0 
0.0 0.0 -8.749938369428e+01 
-7.990565506852e+01 -7.715639180904e+00 0.0 
-7.715639180904e+00 -2.073838753456e+02 0.0 
0.0 0.0 -8.578685912422e+01 
-7.763305729687e+01 -8.176106263640e+00 0.0 
-8.176106263640e+00 -1.870748017154e+02 0.0 
0.0 0.0 -7.901235770367e+01 
-1.097330656666e+02 3.359956150015e-01 0.0 
3.359956150015e-01 -2.472955321953e+02 0.0 
0.0 0.0 -1.067085793586e+02 
-8.902855069005e+01 -6.963961414034e+00 0.0 
-6.963961414034e+00 -2.197292879000e+02 0.0 
0.0 0.0 -9.222735157702e+01 
-6.475625970199e+01 -4.730406109454e+00 0.0 
-4.730406109454e+00 -1.436910902934e+02 0.0 
0.0 0.0 -6.213420499862e+01 
-8.359850590751e+01 -6.420483185612e+00 0.0 
-6.420483185612e+00 -2.017342614547e+02 0.0 
0.0 0.0 -8.519983020867e+01 
-1.266674289846e+02 1.750539914201e-01 0.0 
1.750539914201e-01 -2.901788862549e+02 0.0 
0.0 0.0 -1.246538945718e+02 
-6.448069537381e+01 -2.344017967537e+00 0.0 
-2.344017967537e+00 -1.441046687234e+02 0.0 
0.0 0.0 -6.217560922916e+01 
-2.484479313810e+01 -2.614313218381e+00 0.0 
-2.614313218381e+00 -5.455658981653e+01 0.0 
0.0 0.0 -2.342041488639e+01 
-3.491162791393e+01 -3.642826913450e+00 0.0 
-3.642826913450e+00 -7.485230771481e+01 0.0 
0.0 0.0 -3.252918068862e+01 
-5.548618429653e+01 -1.246350034610e+01 0.0 
-1.246350034610e+01 -1.364520976255e+02 0.0 
0.0 0.0 -5.718148457661e+01 
-6.648451728638e+01 -8.446147437295e+00 0.0 
-8.446147437295e+00 -1.536890200512e+02 0.0 
0.0 0.0 -6.565206120127e+01 
-8.334673898035e+01 -6.427356590619e+00 0.0 
-6.427356590619e+00 -2.200763874329e+02 0.0 
0.0 0.0 -9.062693792397e+01 
-8.722661076497e+01 -6.128619907296e+00 0.0 
-6.128619907296e+00 -2.148356731727e+02 0.0 
0.0 0.0 -9.021868518131e+01 
-4.472948333041e+01 -1.062896414894e+01 0.0 
-1.062896414894e+01 -9.502396078529e+01 0.0 
0.0 0.0 -4.115036416370e+01 
-3.279227691467e+01 -9.931346830514e-01 0.0 
-9.931346830514e-01 -7.451069794224e+01 0.0 
0.0 0.0 -3.179089245707e+01 
-1.056741091890e+02 2.585551548200e+00 0.0 
2.585551548200e+00 -2.353042457858e+02 0.0 
0.0 0.0 -1.018935064924e+02 
-5.566053998104e+01 -1.996707236059e+00 0.0 
-1.996707236059e+00 -1.236828807131e+02 0.0 
0.0 0.0 -5.340302620825e+01 
-1.315136921492e+02 -2.107523326692e+00 0.0 
-2.107523326692e+00 -3.205611157823e+02 0.0 
0.0 0.0 -1.352224423795e+02 
-1.336945099964e+02 6.964754817672e+00 0.0 
6.964754817672e+00 -3.134991042838e+02 0.0 
0.0 0.0 -1.337580842841e+02 
-1.098386837148e+02 4.917973550507e+00 0.0 
4.917973550507e+00 -2.433029401683e+02 0.0 
0.0 0.0 -1.055424871649e+02 
-1.333019853532e+02 1.741393834432e+00 0.0 
1.741393834432e+00 -3.050468265144e+02 0.0 
0.0 0.0 -1.311046435603e+02 
-1.422754619735e+02 6.783313157046e+00 0.0 
6.783313157046e+00 -3.308019726072e+02 0.0 
0.0 0.0 -1.415232303742e+02 
-8.432980864141e+01 7.214928380846e+00 0.0 
7.214928380846e+00 -2.307454271439e+02 0.0 
0.0 0.0 -9.412257073560e+01 
-1.257262400124e+02 7.055606278718e+00 0.0 
7.055606278718e+00 -2.943245401877e+02 0.0 
0.0 0.0 -1.256152340600e+02 
-4.950872783755e+01 -1.361365338611e+01 0.0 
-1.361365338611e+01 -1.132440922071e+02 0.0 
0.0 0.0 -4.811156480571e+01 
-8.756166612214e+01 -5.523559706115e+00 0.0 
-5.523559706115e+00 -2.081420305232e+02 0.0 
0.0 0.0 -8.831110899361e+01 
-8.083625710319e+01 1.020453106882e+01 0.0 
1.020453106882e+01 -2.104571121153e+02 0.0 
0.0 0.0 -8.698801076555e+01 
-4.245764155465e+01 -1.195211137455e+01 0.0 
-1.195211137455e+01 -1.426325515449e+02 0.0 
0.0 0.0 -5.508587524247e+01 
-4.432785105784e+01 -1.350818074022e+01 0.0 
-1.350818074022e+01 -9.111271234383e+01 0.0 
0.0 0.0 -3.887476554955e+01 
-7.389016670305e+01 -6.330965348898e+00 0.0 
-6.330965348898e+00 -1.683685853998e+02 0.0 
0.0 0.0 -7.227762563085e+01 
-8.290045704217e+01 -6.686018478425e+00 0.0 
-6.686018478425e+00 -2.089035361448e+02 0.0 
0.0 0.0 -8.714119795608e+01 
-8.618849542166e+01 -5.664343017864e+00 0.0 
-5.664343017864e+00 -2.214543258444e+02 0.0 
0.0 0.0 -9.189284637981e+01 
-5.958546899864e+01 -3.762327834323e+00 0.0 
-3.762327834323e+00 -1.316149807637e+02 0.0 
0.0 0.0 -5.696013492869e+01 
-9.263681814529e+01 -6.310994329247e+00 0.0 
-6.310994329247e+00 -2.324524077820e+02 0.0 
0.0 0.0 -9.712676777820e+01 
-8.150784220352e+01 -5.596864488186e+00 0.0 
-5.596864488186e+00 -2.156507741345e+02 0.0 
0.0 0.0 -8.874758490140e+01 
-8.245227658991e+01 -3.981841499769e+00 0.0 
-3.981841499769e+00 -2.261345821157e+02 0.0 
0.0 0.0 -9.217605761170e+01 
-6.770942748727e+01 -6.197667096337e+00 0.0 
-6.197667096337e+00 -1.546870780268e+02 0.0 
0.0 0.0 -6.631895165421e+01 
-1.190958450012e+02 3.770736445356e+00 0.0 
3.770736445356e+00 -3.024133695848e+02 0.0 
0.0 0.0 -1.260527643758e+02 
-1.185338690397e+02 2.360546361353e+00 0.0 
2.360546361353e+00 -2.676358344770e+02 0.0 
0.0 0.0 -1.154509110550e+02 
-7.803589457765e+01 -2.641567494266e+00 0.0 
-2.641567494266e+00 -2.201639382298e+02 0.0 
0.0 0.0 -8.905994984224e+01 
-1.406448798774e+02 -1.599790479214e+00 0.0 
-1.599790479214e+00 -3.395422593703e+02 0.0 
0.0 0.0 -1.436561417743e+02 
-5.178430619032e+01 -1.419270369640e+01 0.0 
-1.419270369640e+01 -1.306144331230e+02 0.0 
0.0 0.0 -5.431962179400e+01 
-1.507886414054e+02 -2.421164256077e-01 0.0 
-2.421164256077e-01 -3.627944366781e+02 0.0 
0.0 0.0 -1.536749234250e+02 
-8.801844977606e+01 -6.503879288869e+00 0.0 
-6.503879288869e+00 -2.260649836585e+02 0.0 
0.0 0.0 -9.382503003037e+01 
-1.470948827721e+02 6.589098392430e+00 0.0 
6.589098392430e+00 -3.413304213534e+02 0.0 
0.0 0.0 -1.461275912376e+02 
-1.122058432186e+02 7.575100610481e+00 0.0 
7.575100610481e+00 -2.532680932571e+02 0.0 
0.0 0.0 -1.092421809427e+02 
-4.922940930671e+01 -1.361663994691e+01 0.0 
-1.361663994691e+01 -1.158314846544e+02 0.0 
0.0 0.0 -4.911826818833e+01 
-1.135083577301e+02 5.562352029148e+00 0.0 
5.562352029148e+00 -2.526839554837e+02 0.0 
0.0 0.0 -1.094576939641e+02 
-1.367479715363e+02 2.758394562065e+00 0.0 
2.758394562065e+00 -3.129783141064e+02 0.0 
0.0 0.0 -1.345178856928e+02 
-9.170000485945e+01 -5.269287681216e+00 0.0 
-5.269287681216e+00 -2.383857498378e+02 0.0 
0.0 0.0 -9.862572640917e+01 
-6.592744356740e+01 1.492641061612e+01 0.0 
1.492641061612e+01 -1.654084724254e+02 0.0 
0.0 0.0 -6.900077479783e+01 
-1.171317039704e+02 6.187539818424e+00 0.0 
6.187539818424e+00 -2.622450347482e+02 0.0 
0.0 0.0 -1.134130216156e+02 
-9.036501715522e+01 8.873432529691e+00 0.0 
8.873432529691e+00 -2.091579379124e+02 0.0 
0.0 0.0 -8.945688652028e+01 
-4.515784502509e+01 -1.379561068099e+01 0.0 
-1.379561068099e+01 -9.444792215354e+01 0.0 
0.0 0.0 -4.112709575706e+01 
-1.489606454579e+02 2.302344049741e+00 0.0 
2.302344049741e+00 -3.450160759187e+02 0.0 
0.0 0.0 -1.477930164130e+02 
-4.247920873590e+01 -1.090079610320e+01 0.0 
-1.090079610320e+01 -7.938488209222e+01 0.0 
0.0 0.0 -3.548182973895e+01 
-1.478735107241e+02 5.792771051347e+00 0.0 
5.792771051347e+00 -3.577895151962e+02 0.0 
0.0 0.0 -1.512989077761e+02 
-1.381652388721e+02 6.771162740051e-01 0.0 
6.771162740051e-01 -3.187996994804e+02 0.0 
0.0 0.0 -1.366894815057e+02 
-1.234395864705e+02 2.856956778841e+00 0.0 
2.856956778841e+00 -3.109375703315e+02 0.0 
0.0 0.0 -1.299131470406e+02 
-1.057341781134e+02 -2.896693238925e-02 0.0 
-2.896693238925e-02 -2.380791992485e+02 0.0 
0.0 0.0 -1.027440132086e+02 
-1.303426539734e+02 3.050734761547e+00 0.0 
3.050734761547e+00 -2.965453436518e+02 0.0 
0.0 0.0 -1.276663992876e+02 
-8.476138077791e+01 -3.817952150420e+00 0.0 
-3.817952150420e+00 -2.271498708417e+02 0.0 
0.0 0.0 -9.317337548588e+01 
-9.692311240197e+01 5.027774147340e+00 0.0 
5.027774147340e+00 -2.577788117206e+02 0.0 
0.0 0.0 -1.060105772368e+02 
-1.411582683119e+02 2.040445223283e+00 0.0 
2.040445223283e+00 -3.247301653894e+02 0.0 
0.0 0.0 -1.393665301104e+02 
-1.269999323941e+02 -3.250620821617e+00 0.0 
-3.250620821617e+00 -3.042243013520e+02 0.0 
0.0 0.0 -1.289672701238e+02 
-1.224389646684e+02 2.720240961404e+00 0.0 
2.720240961404e+00 -2.767934136051e+02 0.0 
0.0 0.0 -1.193697134820e+02 
-1.176514742744e+02 -1.123382064446e+00 0.0 
-1.123382064446e+00 -2.976337914609e+02 0.0 
0.0 0.0 -1.241855797206e+02 
-4.567404315920e+01 -1.537839301810e+01 0.0 
-1.537839301810e+01 -1.114328713710e+02 0.0 
0.0 0.0 -4.673207435907e+01 
-1.263266822798e+02 3.135110760387e+00 0.0 
3.135110760387e+00 -2.859497115722e+02 0.0 
0.0 0.0 -1.232829181556e+02 
-1.573703728592e+02 8.495679474577e+00 0.0 
8.495679474577e+00 -3.684129688821e+02 0.0 
0.0 0.0 -1.573350025224e+02 
-1.503234183622e+02 -1.335995669014e+00 0.0 
-1.335995669014e+00 -3.593583679710e+02 0.0 
0.0 0.0 -1.525045358999e+02 
-8.544310161774e+01 -7.276522155310e+00 0.0 
-7.276522155310e+00 -2.068614449063e+02 0.0 
0.0 0.0 -8.729136395722e+01 
-1.064324249446e+02 1.780360942721e+00 0.0 
1.780360942721e+00 -2.386179545153e+02 0.0 
0.0 0.0 -1.031151138380e+02 
-1.014570110889e+02 -2.233947024480e-02 0.0 
-2.233947024480e-02 -2.275365203983e+02 0.0 
0.0 0.0 -9.829805944618e+01 
-9.068224302743e+01 -5.416167532685e+00 0.0 
-5.416167532685e+00 -2.274329253012e+02 0.0 
0.0 0.0 -9.503455049858e+01 
-1.226443416475e+02 -3.432453470384e+00 0.0 
-3.432453470384e+00 -2.969308177968e+02 0.0 
0.0 0.0 -1.254725478333e+02 
-1.270070911486e+02 -2.822160389675e+00 0.0 
-2.822160389675e+00 -3.088438425689e+02 0.0 
0.0 0.0 -1.303552801153e+02 
-2.945403057424e+01 -1.225952159613e+00 0.0 
-1.225952159613e+00 -6.588919401794e+01 0.0 
0.0 0.0 -2.820296737765e+01 
-4.887954143308e+01 1.103976477009e+01 0.0 
1.103976477009e+01 -1.614846551658e+02 0.0 
0.0 0.0 -6.270925897967e+01 
-8.253033889467e+01 -3.827950012241e-01 0.0 
-3.827950012241e-01 -2.305983302293e+02 0.0 
0.0 0.0 -9.353860073720e+01 
-7.993226863447e+01 -2.855047439225e+00 0.0 
-2.855047439225e+00 -2.209144355197e+02 0.0 
0.0 0.0 -8.985401124626e+01 
-8.849932807317e+01 9.933713099825e+00 0.0 
9.933713099825e+00 -2.128592009222e+02 0.0 
0.0 0.0 -9.000755869862e+01 
-1.458581135829e+02 3.561801779088e+00 0.0 
3.561801779088e+00 -3.356707663058e+02 0.0 
0.0 0.0 -1.440586639666e+02 
-1.399520166965e+02 4.728073181173e+00 0.0 
4.728073181173e+00 -3.209649655998e+02 0.0 
0.0 0.0 -1.378750946889e+02 
-1.387411553839e+02 2.302150813903e+00 0.0 
2.302150813903e+00 -3.192275654579e+02 0.0 
0.0 0.0 -1.369906162525e+02 
-8.087408238222e+01 8.813621081163e+00 0.0 
8.813621081163e+00 -1.765767075307e+02 0.0 
0.0 0.0 -7.683523697387e+01 
-1.290387856474e+02 2.378084348322e+00 0.0 
2.378084348322e+00 -2.932668641003e+02 0.0 
0.0 0.0 -1.262916949243e+02 
-1.242138702534e+02 -1.987357835703e+00 0.0 
-1.987357835703e+00 -2.979106504241e+02 0.0 
0.0 0.0 -1.262373562032e+02 
-1.413979026630e+02 1.463526171983e+00 0.0 
1.463526171983e+00 -3.263251608516e+02 0.0 
0.0 0.0 -1.399169190544e+02 
-1.222821364171e+02 3.215471092464e+00 0.0 
3.215471092464e+00 -2.753835410224e+02 0.0 
0.0 0.0 -1.188997032319e+02 
-9.139128262790e+01 -5.429031594084e+00 0.0 
-5.429031594084e+00 -2.210711000692e+02 0.0 
0.0 0.0 -9.333871480913e+01 
-7.867696502773e+01 1.627908241534e+00 0.0 
1.627908241534e+00 -2.235768712144e+02 0.0 
0.0 0.0 -9.027615087263e+01 
-1.254514116690e+02 1.397866451229e+00 0.0 
1.397866451229e+00 -2.852873446576e+02 0.0 
0.0 0.0 -1.228216268980e+02 
-1.381717795029e+02 3.371459349434e+00 0.0 
3.371459349434e+00 -3.163393408463e+02 0.0 
0.0 0.0 -1.359533361048e+02 
-1.257993870799e+02 9.283686685809e-01 0.0 
9.283686685809e-01 -2.867832166550e+02 0.0 
0.0 0.0 -1.233747811205e+02 
-1.216432584038e+02 9.972384015259e-01 0.0 
9.972384015259e-01 -2.761677752123e+02 0.0 
0.0 0.0 -1.189433100848e+02 
-1.402447411699e+02 -2.308427893249e+00 0.0 
-2.308427893249e+00 -3.353850017540e+02 0.0 
0.0 0.0 -1.422889228772e+02 
-1.437396672520e+02 6.429964818868e+00 0.0 
6.429964818868e+00 -3.485642494659e+02 0.0 
0.0 0.0 -1.472911750154e+02 
-1.359437898170e+02 -2.247659807263e+00 0.0 
-2.247659807263e+00 -3.279388622025e+02 0.0 
0.0 0.0 -1.387647956059e+02 
-1.099362723216e+02 -4.666279612847e+00 0.0 
-4.666279612847e+00 -2.654417498437e+02 0.0 
0.0 0.0 -1.122134066496e+02 
-7.731435398122e+01 3.458004101365e+00 0.0 
3.458004101365e+00 -1.659136409236e+02 0.0 
0.0 0.0 -7.256839847143e+01 
-1.282440493837e+02 3.912877121191e+00 0.0 
3.912877121191e+00 -3.204966959788e+02 0.0 
0.0 0.0 -1.342222236087e+02 
-1.211006071446e+02 2.559108015929e+00 0.0 
2.559108015929e+00 -2.727697257825e+02 0.0 
0.0 0.0 -1.177610998781e+02 
-5.073665246792e+01 -3.462692971383e+00 0.0 
-3.462692971383e+00 -1.114606651875e+02 0.0 
0.0 0.0 -4.825919529664e+01 
-8.359277385863e+01 -5.737831439035e-01 0.0 
-5.737831439035e-01 -2.310039451167e+02 0.0 
0.0 0.0 -9.397901569259e+01 
-9.541259304066e+01 -1.348808997966e+00 0.0 
-1.348808997966e+00 -2.544870347179e+02 0.0 
0.0 0.0 -1.045698883276e+02 
-1.058628365147e+02 4.882799825034e+00 0.0 
4.882799825034e+00 -2.755290214303e+02 0.0 
0.0 0.0 -1.140175573835e+02 
-4.089114159220e+01 -3.119861805434e+00 0.0 
-3.119861805434e+00 -1.543564861463e+02 0.0 
0.0 0.0 -5.802331830173e+01 
-7.897503465006e+01 1.203366647098e+00 0.0 
1.203366647098e+00 -2.236003841406e+02 0.0 
0.0 0.0 -9.037262563721e+01 
-1.148922183293e+02 4.814279329411e+00 0.0 
4.814279329411e+00 -2.935220375584e+02 0.0 
0.0 0.0 -1.221242767663e+02 
-8.882368042560e+01 4.839130604471e+00 0.0 
4.839130604471e+00 -1.947494390922e+02 0.0 
0.0 0.0 -8.467193585533e+01 
-9.343495229328e+01 -6.372101372227e+00 0.0 
-6.372101372227e+00 -2.264781830091e+02 0.0 
0.0 0.0 -9.557394059073e+01 
-1.142700609160e+02 2.855618731413e+00 0.0 
2.855618731413e+00 -2.555636119969e+02 0.0 
0.0 0.0 -1.105501018739e+02 
-8.873373907862e+01 -3.213434298703e-01 0.0 
-3.213434298703e-01 -1.975931011965e+02 0.0 
0.0 0.0 -8.549805208255e+01 
-2.385584025210e+01 1.154976538524e+01 0.0 
1.154976538524e+01 -2.780037726161e+01 0.0 
0.0 0.0 -1.420567715805e+01 
-1.075296785180e+02 -3.564014711619e+00 0.0 
-3.564014711619e+00 -2.595823548449e+02 0.0 
0.0 0.0 -1.097336100089e+02 
-1.273117805997e+02 1.116950559923e+00 0.0 
1.116950559923e+00 -3.187178449324e+02 0.0 
0.0 0.0 -1.334088876596e+02 
-1.438339475954e+02 4.419762680175e+00 0.0 
4.419762680175e+00 -3.307294185405e+02 0.0 
0.0 0.0 -1.419690098408e+02 
-9.243298086685e+01 3.296433286211e+00 0.0 
3.296433286211e+00 -2.493178774512e+02 0.0 
0.0 0.0 -1.021252574954e+02 
-1.016080425339e+02 -5.496257234919e+00 0.0 
-5.496257234919e+00 -2.459996606591e+02 0.0 
0.0 0.0 -1.038823109579e+02 
-1.143758483235e+02 2.392633432334e+00 0.0 
2.392633432334e+00 -2.570574304039e+02 0.0 
0.0 0.0 -1.110299836182e+02 
-2.826578072497e+01 7.532489861846e+00 0.0 
7.532489861846e+00 -4.459296614273e+01 0.0 
0.0 0.0 -2.027133861165e+01 
-1.231151422444e+02 1.967180470184e+00 0.0 
1.967180470184e+00 -3.106080805986e+02 0.0 
0.0 0.0 -1.297169668529e+02 
-1.010230391760e+02 3.534974948215e+00 0.0 
3.534974948215e+00 -2.666641787903e+02 0.0 
0.0 0.0 -1.099061653899e+02 
-9.357129677310e+01 6.512719124329e+00 0.0 
6.512719124329e+00 -2.048609672615e+02 0.0 
0.0 0.0 -8.912967921039e+01 
-1.284476280910e+02 -1.469712802605e+00 0.0 
-1.469712802605e+00 -3.097468638969e+02 0.0 
0.0 0.0 -1.310583475964e+02 
-4.873343096557e+01 -1.338814561123e+01 0.0 
-1.338814561123e+01 -1.450930192832e+02 0.0 
0.0 0.0 -5.774793507464e+01 
-1.327946424342e+02 -8.281563295743e-01 0.0 
-8.281563295743e-01 -3.213826191951e+02 0.0 
0.0 0.0 -1.358531784888e+02 
-1.455361715158e+02 -9.613804120930e-01 0.0 
-9.613804120930e-01 -3.510546290130e+02 0.0 
0.0 0.0 -1.485772401586e+02 
-1.190829975781e+02 2.933943669205e+00 0.0 
2.933943669205e+00 -3.022282065865e+02 0.0 
0.0 0.0 -1.259933612494e+02 
-1.265175740014e+02 2.646730844787e+00 0.0 
2.646730844787e+00 -2.873826806349e+02 0.0 
0.0 0.0 -1.237700763909e+02 
-1.322069247399e+02 8.636818378444e+00 0.0 
8.636818378444e+00 -3.154081478153e+02 0.0 
0.0 0.0 -1.338845217666e+02 
-1.463742908035e+02 4.199770487030e-01 0.0 
4.199770487030e-01 -3.516616990683e+02 0.0 
0.0 0.0 -1.490107969615e+02 
-3.413172673485e+01 5.733431501923e+00 0.0 
5.733431501923e+00 -6.294658021774e+01 0.0 
0.0 0.0 -2.872349208578e+01 
-1.183718917583e+02 2.766078719506e+00 0.0 
2.766078719506e+00 -2.662136659744e+02 0.0 
0.0 0.0 -1.149756673198e+02 
-1.444121791106e+02 7.523525575298e+00 0.0 
7.523525575298e+00 -3.473038827236e+02 0.0 
0.0 0.0 -1.471148185503e+02 
-1.295463537063e+02 1.313335014039e+00 0.0 
1.313335014039e+00 -2.959125587501e+02 0.0 
0.0 0.0 -1.272376737369e+02 
-1.100878129728e+02 2.986206675063e+00 0.0 
2.986206675063e+00 -2.843066979814e+02 0.0 
0.0 0.0 -1.179183532862e+02 
-8.331173301351e+01 3.434573651384e+00 0.0 
3.434573651384e+00 -2.321441669904e+02 0.0 
0.0 0.0 -9.423677000118e+01 
-1.020003842133e+02 -4.286788438240e+00 0.0 
-4.286788438240e+00 -2.362316651066e+02 0.0 
0.0 0.0 -1.010696147960e+02 
-2.750890269860e+01 6.391497604455e+00 0.0 
6.391497604455e+00 -1.326345976308e+02 0.0 
0.0 0.0 -4.939576647518e+01 
-1.336585771532e+02 1.200527952804e+00 0.0 
1.200527952804e+00 -3.065321545983e+02 0.0 
0.0 0.0 -1.316572195254e+02 
-5.437690157640e+01 -3.024213029195e+00 0.0 
-3.024213029195e+00 -1.199977524430e+02 0.0 
0.0 0.0 -5.191239620583e+01 
-4.163346736235e+01 4.428893687705e+00 0.0 
4.428893687705e+00 -8.162909790322e+01 0.0 
0.0 0.0 -3.657876957967e+01 
-1.287118833281e+02 8.773945178486e+00 0.0 
8.773945178486e+00 -3.049546084512e+02 0.0 
0.0 0.0 -1.296999475338e+02 
-1.420864001039e+02 9.985342834512e-01 0.0 
9.985342834512e-01 -3.283496992976e+02 0.0 
0.0 0.0 -1.407308298204e+02 
-4.879269580772e+01 -1.629931947131e+01 0.0 
-1.629931947131e+01 -1.294251588002e+02 0.0 
0.0 0.0 -5.247507786625e+01 
-1.017358815205e+02 9.773950382721e+00 0.0 
9.773950382721e+00 -2.368724719983e+02 0.0 
0.0 0.0 -1.011825060556e+02 
-1.213826970203e+02 1.445697045562e+00 0.0 
1.445697045562e+00 -2.747100793279e+02 0.0 
0.0 0.0 -1.184278329044e+02 
-9.955685076069e+01 -3.969544442638e+00 0.0 
-3.969544442638e+00 -2.347218591230e+02 0.0 
0.0 0.0 -9.988361296509e+01 
-4.354108595932e+01 -6.649605455873e+00 0.0 
-6.649605455873e+00 -1.548982423840e+02 0.0 
0.0 0.0 -5.913179850299e+01 
-6.368302912919e+01 1.419174452260e+01 0.0 
1.419174452260e+01 -1.603229520260e+02 0.0 
0.0 0.0 -6.680179434657e+01 
-4.357897848955e+01 -1.563668848900e+01 0.0 
-1.563668848900e+01 -9.038537489791e+01 0.0 
0.0 0.0 -3.873802378029e+01 
-4.189664003965e+01 -1.511015259771e+01 0.0 
-1.511015259771e+01 -1.268145736934e+02 0.0 
0.0 0.0 -5.021336411992e+01 
-4.176613832344e+01 -1.661510197467e+01 0.0 
-1.661510197467e+01 -1.087719294154e+02 0.0 
0.0 0.0 -4.454602583119e+01 
-1.012079558610e+02 3.104418083676e+00 0.0 
3.104418083676e+00 -2.666507331188e+02 0.0 
0.0 0.0 -1.099576066939e+02 
-1.593692772786e+02 4.700369905502e+00 0.0 
4.700369905502e+00 -3.698504850557e+02 0.0 
0.0 0.0 -1.583659287003e+02 
-4.933344729938e+01 3.344743992310e+00 0.0 
3.344743992310e+00 -1.005725605381e+02 0.0 
0.0 0.0 -4.457180235124e+01 
-1.444830735163e+02 -2.259257865976e+00 0.0 
-2.259257865976e+00 -3.428611239481e+02 0.0 
0.0 0.0 -1.458032592393e+02 
-7.225945703494e+01 6.598125633769e+00 0.0 
6.598125633769e+00 -2.073495243402e+02 0.0 
0.0 0.0 -8.348269441254e+01 
-1.182539720439e+02 3.315013628512e+00 0.0 
3.315013628512e+00 -2.649795785273e+02 0.0 
0.0 0.0 -1.145700651714e+02 
-3.210347608788e+01 3.763644115383e+00 0.0 
3.763644115383e+00 -1.410500543266e+02 0.0 
0.0 0.0 -5.336682629641e+01 
-1.511697441275e+02 1.063270182856e+00 0.0 
1.063270182856e+00 -3.628509997298e+02 0.0 
0.0 0.0 -1.538062231572e+02 
-4.840423461590e+01 -1.667508406849e+01 0.0 
-1.667508406849e+01 -1.111915745737e+02 0.0 
0.0 0.0 -4.621440910152e+01 
-6.364719934226e+01 -3.237907522248e+00 0.0 
-3.237907522248e+00 -1.406781947769e+02 0.0 
0.0 0.0 -6.089761823573e+01 
-1.242382610593e+02 3.839620774919e+00 0.0 
3.839620774919e+00 -3.115842921818e+02 0.0 
0.0 0.0 -1.303467659723e+02 
-8.949847817214e+01 -4.283629674138e+00 0.0 
-4.283629674138e+00 -2.332828673352e+02 0.0 
0.0 0.0 -9.643440365221e+01 
-1.395179267523e+02 7.020744490130e+00 0.0 
7.020744490130e+00 -3.388557567329e+02 0.0 
0.0 0.0 -1.431121050456e+02 
-7.014202803889e+01 1.346905230678e+01 0.0 
1.346905230678e+01 -1.619444602843e+02 0.0 
0.0 0.0 -6.922594649697e+01 
-1.259691833638e+02 4.236543039734e+00 0.0 
4.236543039734e+00 -2.836843930682e+02 0.0 
0.0 0.0 -1.224960729296e+02 
-1.480895953979e+02 4.479024803440e+00 0.0 
4.479024803440e+00 -3.575933175527e+02 0.0 
0.0 0.0 -1.513048738852e+02 
-1.174982627648e+02 1.025216002890e+00 0.0 
1.025216002890e+00 -2.655663952479e+02 0.0 
0.0 0.0 -1.145193974038e+02 
-1.445048500468e+02 6.226950649781e+00 0.0 
6.226950649781e+00 -3.314021635116e+02 0.0 
0.0 0.0 -1.423721040675e+02 
-1.301279836989e+02 3.570190265443e+00 0.0 
3.570190265443e+00 -2.950787300056e+02 0.0 
0.0 0.0 -1.271620141114e+02 
-1.339031782682e+02 4.030605537486e+00 0.0 
4.030605537486e+00 -3.043455180588e+02 0.0 
0.0 0.0 -1.310746088981e+02 
-4.269785663012e+01 1.874738697290e+01 0.0 
1.874738697290e+01 -1.349676734820e+02 0.0 
0.0 0.0 -5.285070823645e+01 
-1.398390448624e+02 -2.528722974584e+00 0.0 
-2.528722974584e+00 -3.309357476560e+02 0.0 
0.0 0.0 -1.408324377555e+02 
-1.252535475177e+02 1.909842345758e+00 0.0 
1.909842345758e+00 -2.839874752912e+02 0.0 
0.0 0.0 -1.223723068427e+02 
-9.131689656896e+01 7.693427371556e+00 0.0 
7.693427371556e+00 -2.387413989928e+02 0.0 
0.0 0.0 -9.861748866852e+01 
-5.718840114688e+01 2.392090932985e+00 0.0 
2.392090932985e+00 -1.196707483947e+02 0.0 
0.0 0.0 -5.265774486248e+01 
-1.532528113919e+02 6.521126433831e+00 0.0 
6.521126433831e+00 -3.669826934229e+02 0.0 
0.0 0.0 -1.556706514444e+02 
-4.293010910516e+01 7.809883377181e+00 0.0 
7.809883377181e+00 -1.572861895605e+02 0.0 
0.0 0.0 -5.966488959971e+01 
-5.940030800060e+01 -1.368111886192e+00 0.0 
-1.368111886192e+00 -1.320323980030e+02 0.0 
0.0 0.0 -5.702981180107e+01 
-1.346738351888e+02 5.140614492974e+00 0.0 
5.140614492974e+00 -3.298083122321e+02 0.0 
0.0 0.0 -1.389446442263e+02 
-3.383773556807e+01 7.915055799875e-01 0.0 
7.915055799875e-01 -7.964302020774e+01 0.0 
0.0 0.0 -3.364422673274e+01 
-9.446708094268e+01 1.082145841858e+01 0.0 
1.082145841858e+01 -2.314473940577e+02 0.0 
0.0 0.0 -9.737434250010e+01 
-1.281702535289e+02 2.954174557803e+00 0.0 
2.954174557803e+00 -3.202821016358e+02 0.0 
0.0 0.0 -1.341357065494e+02 
-1.412766962076e+02 4.270079111027e+00 0.0 
4.270079111027e+00 -3.234931359089e+02 0.0 
0.0 0.0 -1.390309496349e+02 
-1.450653179032e+02 4.794058364187e+00 0.0 
4.794058364187e+00 -3.332258658187e+02 0.0 
0.0 0.0 -1.430873551166e+02 
-1.240109327997e+02 4.810399667855e+00 0.0 
4.810399667855e+00 -3.116902020227e+02 0.0 
0.0 0.0 -1.303103404467e+02 
-1.341211635216e+02 3.481755620247e+00 0.0 
3.481755620247e+00 -3.056922917192e+02 0.0 
0.0 0.0 -1.315440365723e+02 
-7.778698613985e+01 7.942296100424e+00 0.0 
7.942296100424e+00 -2.143614769516e+02 0.0 
0.0 0.0 -8.724453892742e+01 
-1.300681718320e+02 8.627063460954e+00 0.0 
8.627063460954e+00 -3.033560162000e+02 0.0 
0.0 0.0 -1.296272564096e+02 
-6.531673746942e+01 1.715063370652e+00 0.0 
1.715063370652e+00 -1.389087616040e+02 0.0 
0.0 0.0 -6.086764972204e+01 
-1.428774414270e+02 5.825194235122e+00 0.0 
5.825194235122e+00 -3.298509960118e+02 0.0 
0.0 0.0 -1.414185312317e+02 
-7.338507895342e+01 1.308224845738e+00 0.0 
1.308224845738e+00 -1.581365242417e+02 0.0 
0.0 0.0 -6.905648095854e+01 
-7.800847420850e+01 1.310032290572e+00 0.0 
1.310032290572e+00 -1.678108260181e+02 0.0 
0.0 0.0 -7.334579006797e+01 
-8.904273480392e+01 5.092016169798e+00 0.0 
5.092016169798e+00 -2.407139855524e+02 0.0 
0.0 0.0 -9.852701610690e+01 
-8.160300706025e+01 9.675093652138e-01 0.0 
9.675093652138e-01 -1.776090851252e+02 0.0 
0.0 0.0 -7.736362765563e+01 
-1.052909193742e+02 9.466634802590e+00 0.0 
9.466634802590e+00 -2.610044694129e+02 0.0 
0.0 0.0 -1.094886166361e+02 
-8.373818734680e+01 1.124543741537e+01 0.0 
1.124543741537e+01 -2.164560293624e+02 0.0 
0.0 0.0 -8.965826501277e+01 
-8.766030749986e+01 1.580894628431e+00 0.0 
1.580894628431e+00 -2.403441138742e+02 0.0 
0.0 0.0 -9.800132641223e+01 
-3.813991962829e+01 -8.961824837565e+00 0.0 
-8.961824837565e+00 -1.421234901722e+02 0.0 
0.0 0.0 -5.331948765149e+01 
-8.376725611156e+01 3.584829962289e+00 0.0 
3.584829962289e+00 -2.323699061006e+02 0.0 
0.0 0.0 -9.444114866364e+01 
-1.373630404407e+02 1.630660512626e+00 0.0 
1.630660512626e+00 -3.156986786571e+02 0.0 
0.0 0.0 -1.355185157293e+02 
-1.444063272951e+02 5.026704373304e+00 0.0 
5.026704373304e+00 -3.323909178994e+02 0.0 
0.0 0.0 -1.426391735584e+02 
-1.312507574840e+02 -3.016864033655e+00 0.0 
-3.016864033655e+00 -3.116115517626e+02 0.0 
0.0 0.0 -1.324586927740e+02 
-1.438244987286e+02 5.088528327030e+00 0.0 
5.088528327030e+00 -3.483142724211e+02 0.0 
0.0 0.0 -1.472416313449e+02 
-8.702215887888e+01 -4.835206136459e+00 0.0 
-4.835206136459e+00 -2.321106023460e+02 0.0 
0.0 0.0 -9.533982836746e+01 
-1.330498977279e+02 2.273114446303e+00 0.0 
2.273114446303e+00 -3.036791656728e+02 0.0 
0.0 0.0 -1.306187190202e+02 
-8.734958896360e+01 1.623059979731e+00 0.0 
1.623059979731e+00 -2.402213933208e+02 0.0 
0.0 0.0 -9.787129468533e+01 
-1.439659636961e+02 -2.402838854669e+00 0.0 
-2.402838854669e+00 -3.385401025462e+02 0.0 
0.0 0.0 -1.443518198727e+02 
-1.292423320669e+02 1.846960190832e+00 0.0 
1.846960190832e+00 -2.944116110977e+02 0.0 
0.0 0.0 -1.266961829494e+02 
-1.299350510854e+02 4.137042600150e+00 0.0 
4.137042600150e+00 -2.939610897794e+02 0.0 
0.0 0.0 -1.267688422594e+02 
-1.139995014218e+02 1.842649703655e+00 0.0 
1.842649703655e+00 -2.925723546554e+02 0.0 
0.0 0.0 -1.215715568232e+02 
-8.057371892327e+01 5.746255077195e+00 0.0 
5.746255077195e+00 -2.238123343543e+02 0.0 
0.0 0.0 -9.091581598328e+01 
-1.379526919524e+02 8.521273576348e+00 0.0 
8.521273576348e+00 -3.222316634105e+02 0.0 
0.0 0.0 -1.376553066089e+02 
-1.119165803105e+02 5.538863144144e+00 0.0 
5.538863144144e+00 -2.527507042521e+02 0.0 
0.0 0.0 -1.090001853688e+02 
-4.318086155534e+01 -1.235783846102e+01 0.0 
-1.235783846102e+01 -1.440036942874e+02 0.0 
0.0 0.0 -5.574149273541e+01 
-4.100202262442e+01 4.209713896879e+00 0.0 
4.209713896879e+00 -1.554420826969e+02 0.0 
0.0 0.0 -5.838901794834e+01 
-7.375975511106e+01 1.157121720540e+01 0.0 
1.157121720540e+01 -1.740684059203e+02 0.0 
0.0 0.0 -7.394844830941e+01 
-1.024157434710e+02 7.758013060398e+00 0.0 
7.758013060398e+00 -2.367579620939e+02 0.0 
0.0 0.0 -1.013521116695e+02 
-1.479713930569e+02 -2.261222179109e+00 0.0 
-2.261222179109e+00 -3.464333849884e+02 0.0 
0.0 0.0 -1.479214334136e+02 
-1.261186919630e+02 3.676063006273e+00 0.0 
3.676063006273e+00 -2.846559291433e+02 0.0 
0.0 0.0 -1.228323863319e+02 
-7.928175177772e+01 5.602012898764e+00 0.0 
5.602012898764e+00 -2.232332125867e+02 0.0 
0.0 0.0 -9.035448930933e+01 
-1.141552450688e+02 8.916643955515e+00 0.0 
8.916643955515e+00 -2.647040703627e+02 0.0 
0.0 0.0 -1.132577946295e+02 
-1.323736478256e+02 2.104289485165e+00 0.0 
2.104289485165e+00 -3.288897456693e+02 0.0 
0.0 0.0 -1.379790180485e+02 
-1.343851835672e+02 2.937869927736e+00 0.0 
2.937869927736e+00 -3.071457953765e+02 0.0 
0.0 0.0 -1.320592936831e+02 
-1.422015687256e+02 8.323370821443e+00 0.0 
8.323370821443e+00 -3.310075207540e+02 0.0 
0.0 0.0 -1.415627268439e+02 
-1.133231981955e+02 1.574145556906e+00 0.0 
1.574145556906e+00 -2.540421302088e+02 0.0 
0.0 0.0 -1.098095985213e+02 
-1.366501546420e+02 -9.653621432831e-02 0.0 
-9.653621432831e-02 -3.356956194018e+02 0.0 
0.0 0.0 -1.413037322131e+02 
-9.213529219436e+01 3.467920666847e+00 0.0 
3.467920666847e+00 -2.492286584626e+02 0.0 
0.0 0.0 -1.020091851971e+02 
-1.326579597028e+02 3.127789101447e+00 0.0 
3.127789101447e+00 -3.291461704165e+02 0.0 
0.0 0.0 -1.381412390358e+02 
-9.607210231176e+01 9.166051180774e+00 0.0 
9.166051180774e+00 -2.317737232681e+02 0.0 
0.0 0.0 -9.795374767397e+01 
-1.417120689518e+02 3.713800368695e+00 0.0 
3.713800368695e+00 -3.252114825386e+02 0.0 
0.0 0.0 -1.396770654471e+02 
-1.475791683950e+02 8.573633936592e+00 0.0 
8.573633936592e+00 -3.417112029862e+02 0.0 
0.0 0.0 -1.463871114143e+02 
-1.050081016681e+02 1.741595001705e+00 0.0 
1.741595001705e+00 -2.747866611429e+02 0.0 
0.0 0.0 -1.135384288433e+02 
-3.830023502942e+01 2.716076707059e+00 0.0 
2.716076707059e+00 -1.511612468291e+02 0.0 
0.0 0.0 -5.630323235736e+01 
-1.361254777135e+02 6.797999692910e+00 0.0 
6.797999692910e+00 -3.254863411369e+02 0.0 
0.0 0.0 -1.380835456551e+02 
-1.023625105470e+02 1.005319245076e+01 0.0 
1.005319245076e+01 -2.502572707718e+02 0.0 
0.0 0.0 -1.053859343956e+02 
-7.567581116268e+01 7.958641755218e+00 0.0 
7.958641755218e+00 -2.134708426339e+02 0.0 
0.0 0.0 -8.634399613896e+01 
-1.100072473852e+02 3.635171287535e+00 0.0 
3.635171287535e+00 -2.844114793294e+02 0.0 
0.0 0.0 -1.179256180144e+02 
-1.327978354057e+02 1.853541930953e-01 0.0 
1.853541930953e-01 -3.252242231242e+02 0.0 
0.0 0.0 -1.370066175590e+02 
-3.854608978859e+01 -1.820843305943e+00 0.0 
-1.820843305943e+00 -1.501710455627e+02 0.0 
0.0 0.0 -5.589777855847e+01 
-9.613184243460e+01 1.671630107026e+00 0.0 
1.671630107026e+00 -2.573242470818e+02 0.0 
0.0 0.0 -1.056368268549e+02 
-1.164302875332e+02 4.248401927489e+00 0.0 
4.248401927489e+00 -2.615745552268e+02 0.0 
0.0 0.0 -1.130014528280e+02 
-1.486578500199e+02 -6.015369504895e-01 0.0 
-6.015369504895e-01 -3.470573460089e+02 0.0 
0.0 0.0 -1.483145588086e+02 
-1.200781176800e+02 4.862497413746e+00 0.0 
4.862497413746e+00 -2.712957567617e+02 0.0 
0.0 0.0 -1.170121623325e+02 
-1.325999716708e+02 6.997887195681e+00 0.0 
6.997887195681e+00 -3.152335428729e+02 0.0 
0.0 0.0 -1.339500543631e+02 
-1.127062727679e+02 3.630483614849e+00 0.0 
3.630483614849e+00 -2.519787635165e+02 0.0 
0.0 0.0 -1.090055108853e+02 
-1.048521771831e+02 2.320168305476e+00 0.0 
2.320168305476e+00 -2.330711837176e+02 0.0 
0.0 0.0 -1.009770082702e+02 
-1.154144521131e+02 6.095306160711e+00 0.0 
6.095306160711e+00 -2.629559181429e+02 0.0 
0.0 0.0 -1.131111110768e+02 
-1.386370526693e+02 4.431064530372e+00 0.0 
4.431064530372e+00 -3.391723188443e+02 0.0 
0.0 0.0 -1.429428114541e+02 
-1.368696416247e+02 -1.180247492107e+00 0.0 
-1.180247492107e+00 -3.243957229127e+02 0.0 
0.0 0.0 -1.379796093612e+02 
-1.212474777868e+02 2.003458486763e+00 0.0 
2.003458486763e+00 -2.736659603416e+02 0.0 
0.0 0.0 -1.180740314385e+02 
-1.443841224475e+02 3.205160683360e+00 0.0 
3.205160683360e+00 -3.326510269516e+02 0.0 
0.0 0.0 -1.427105448198e+02 
-1.089271693635e+02 2.996877511909e+00 0.0 
2.996877511909e+00 -2.425404585712e+02 0.0 
0.0 0.0 -1.050402883804e+02 
-6.195437855539e+01 6.748880485464e+00 0.0 
6.748880485464e+00 -1.902596331067e+02 0.0 
0.0 0.0 -7.526420349864e+01 
-1.406791133977e+02 8.517180056551e+00 0.0 
8.517180056551e+00 -3.343401741932e+02 0.0 
0.0 0.0 -1.421057862773e+02 
-1.422541374038e+02 3.297225134625e+00 0.0 
3.297225134625e+00 -3.269926409858e+02 0.0 
0.0 0.0 -1.403740335169e+02 
-9.377125682252e+01 9.028992878261e+00 0.0 
9.028992878261e+00 -2.353644227768e+02 0.0 
0.0 0.0 -9.834070387981e+01 
-9.884674511612e+01 8.810850848837e+00 0.0 
8.810850848837e+00 -2.428193977476e+02 0.0 
0.0 0.0 -1.020998428591e+02 
-7.058333691771e+01 6.090455267680e+00 0.0 
6.090455267680e+00 -2.065257778130e+02 0.0 
0.0 0.0 -8.273273441922e+01 
-1.250545039108e+02 2.461701911361e+00 0.0 
2.461701911361e+00 -2.829589784646e+02 0.0 
0.0 0.0 -1.220040447126e+02 
-7.974858533945e+01 8.380515983396e+00 0.0 
8.380515983396e+00 -1.781378011090e+02 0.0 
0.0 0.0 -7.696591593454e+01 
-1.097452811800e+02 7.430153064666e+00 0.0 
7.430153064666e+00 -2.718100146022e+02 0.0 
0.0 0.0 -1.140665887347e+02 
-7.944339281911e+01 1.087927563066e+01 0.0 
1.087927563066e+01 -1.784945447911e+02 0.0 
0.0 0.0 -7.698138128308e+01 
-1.294569459601e+02 4.559027848529e+00 0.0 
4.559027848529e+00 -3.207665008285e+02 0.0 
0.0 0.0 -1.346670340366e+02 
-1.491142849824e+02 8.358926942040e+00 0.0 
8.358926942040e+00 -3.525817629018e+02 0.0 
0.0 0.0 -1.501088143652e+02 
-7.458740751191e+01 3.458327656846e+00 0.0 
3.458327656846e+00 -2.155086529190e+02 0.0 
0.0 0.0 -8.662881812928e+01 
-2.778825916096e+01 -5.362400584614e+00 0.0 
-5.362400584614e+00 -1.289070386463e+02 0.0 
0.0 0.0 -4.820243181711e+01 
-1.441873959125e+02 3.812329006467e+00 0.0 
3.812329006467e+00 -3.318757766565e+02 0.0 
0.0 0.0 -1.424189517707e+02 
-8.398785654121e+01 7.391624788295e+00 0.0 
7.391624788295e+00 -1.867068636213e+02 0.0 
0.0 0.0 -8.080841604876e+01 
-9.104479571987e+01 -3.091644048319e+00 0.0 
-3.091644048319e+00 -2.435858820048e+02 0.0 
0.0 0.0 -9.998920331740e+01 
-1.448915033991e+02 6.687162015211e+00 0.0 
6.687162015211e+00 -3.445136674294e+02 0.0 
0.0 0.0 -1.464215512485e+02 
-1.221249571951e+02 3.760868170286e+00 0.0 
3.760868170286e+00 -2.743383614710e+02 0.0 
0.0 0.0 -1.185389955998e+02 
-1.327107202019e+02 -1.350340062982e+00 0.0 
-1.350340062982e+00 -3.170394276109e+02 0.0 
0.0 0.0 -1.345250443438e+02 
-7.820232172002e+01 1.100408609271e+01 0.0 
1.100408609271e+01 -2.095126121740e+02 0.0 
0.0 0.0 -8.591448016821e+01 
-2.487162486097e+01 -3.333733981814e+00 0.0 
-3.333733981814e+00 -1.256299447256e+02 0.0 
0.0 0.0 -4.726898870229e+01 
-1.526115040404e+02 -3.311018713569e-01 0.0 
-3.311018713569e-01 -3.561275831622e+02 0.0 
0.0 0.0 -1.522217261608e+02 
-1.055225761145e+02 8.026937754837e+00 0.0 
8.026937754837e+00 -2.476198794861e+02 0.0 
0.0 0.0 -1.055427366802e+02 
-1.210462217721e+02 7.430347887847e+00 0.0 
7.430347887847e+00 -3.008842262953e+02 0.0 
0.0 0.0 -1.261791344202e+02 
-1.418332457230e+02 7.028289391701e+00 0.0 
7.028289391701e+00 -3.328965549832e+02 0.0 
0.0 0.0 -1.420189402119e+02 
-3.612610865525e+01 -9.657778754919e-01 0.0 
-9.657778754919e-01 -1.247042893074e+02 0.0 
0.0 0.0 -5.010259361350e+01 
-1.313972795219e+02 -2.803684241122e+00 0.0 
-2.803684241122e+00 -3.161609499253e+02 0.0 
0.0 0.0 -1.338674688342e+02 
-5.454273354061e+01 1.609178039015e+01 0.0 
1.609178039015e+01 -1.543300336283e+02 0.0 
0.0 0.0 -6.226183015068e+01 
-1.143031872102e+02 3.358017372837e+00 0.0 
3.358017372837e+00 -2.547478972173e+02 0.0 
0.0 0.0 -1.103153253283e+02 
-1.076825116113e+02 -3.281841888669e+00 0.0 
-3.281841888669e+00 -2.542766747843e+02 0.0 
0.0 0.0 -1.081877559187e+02 
-7.522933638457e+01 3.998000590854e+00 0.0 
3.998000590854e+00 -2.159083180826e+02 0.0 
0.0 0.0 -8.694129634014e+01 
-1.447800886173e+02 -8.315718792516e-01 0.0 
-8.315718792516e-01 -3.392320717970e+02 0.0 
0.0 0.0 -1.448036481243e+02 
-1.067182358353e+02 8.074736485004e+00 0.0 
8.074736485004e+00 -2.613060022309e+02 0.0 
0.0 0.0 -1.100072714199e+02 
-6.681982309812e+01 4.558539034634e+00 0.0 
4.558539034634e+00 -2.000092372513e+02 0.0 
0.0 0.0 -7.964871810483e+01 
-1.094510496325e+02 9.397445809382e+00 0.0 
9.397445809382e+00 -2.560830493346e+02 0.0 
0.0 0.0 -1.092602296901e+02 
-3.072742611304e+01 -1.764760624049e+01 0.0 
-1.764760624049e+01 -1.228363098294e+02 0.0 
0.0 0.0 -4.717746741590e+01 
-1.253579307304e+02 8.828458586689e+00 0.0 
8.828458586689e+00 -2.945147186195e+02 0.0 
0.0 0.0 -1.255617948050e+02 
-1.290781305742e+02 5.685414021167e+00 0.0 
5.685414021167e+00 -3.208473610656e+02 0.0 
0.0 0.0 -1.345776474919e+02 
-1.501760303788e+02 8.025369656041e+00 0.0 
8.025369656041e+00 -3.480113308912e+02 0.0 
0.0 0.0 -1.490562083810e+02 
-1.335221137576e+02 8.695480582606e+00 0.0 
8.695480582606e+00 -3.137682409800e+02 0.0 
0.0 0.0 -1.337871064213e+02 
-4.888851498820e+01 3.884081343036e+00 0.0 
3.884081343036e+00 -1.692043648397e+02 0.0 
0.0 0.0 -6.502786394837e+01 
-1.325021069875e+02 -1.453487431299e+00 0.0 
-1.453487431299e+00 -3.124938860642e+02 0.0 
0.0 0.0 -1.330987979155e+02 
-1.452528102220e+02 1.968729025828e+00 0.0 
1.968729025828e+00 -3.353220568533e+02 0.0 
0.0 0.0 -1.437724601226e+02 
-1.579462119371e+02 7.162297115456e+00 0.0 
7.162297115456e+00 -3.752884145457e+02 0.0 
0.0 0.0 -1.595703879448e+02 
-1.342633917570e+02 6.401930506820e+00 0.0 
6.401930506820e+00 -3.299039333254e+02 0.0 
0.0 0.0 -1.388501975247e+02 
-8.101126984010e+01 9.189072435169e+00 0.0 
9.189072435169e+00 -2.204106002766e+02 0.0 
0.0 0.0 -9.002656103502e+01 
-1.173225813577e+02 9.078320710449e+00 0.0 
9.078320710449e+00 -2.752752312844e+02 0.0 
0.0 0.0 -1.173793437926e+02 
-1.469153950393e+02 -1.931261292593e+00 0.0 
-1.931261292593e+00 -3.422240841412e+02 0.0 
0.0 0.0 -1.463418437542e+02 
-1.015531092283e+02 -3.102974087190e-01 0.0 
-3.102974087190e-01 -2.296799328953e+02 0.0 
0.0 0.0 -9.896991263710e+01 
-1.291376779107e+02 7.102263801528e+00 0.0 
7.102263801528e+00 -3.047924763194e+02 0.0 
0.0 0.0 -1.297790462690e+02 
-1.173602259359e+02 1.507403193021e+00 0.0 
1.507403193021e+00 -2.643052432380e+02 0.0 
0.0 0.0 -1.140996407522e+02 
-1.408731334823e+02 -1.016577879242e+00 0.0 
-1.016577879242e+00 -3.317063305913e+02 0.0 
0.0 0.0 -1.413738392221e+02 
-1.370897724125e+02 -8.820637221765e-01 0.0 
-8.820637221765e-01 -3.287270777149e+02 0.0 
0.0 0.0 -1.393450550382e+02 
-8.250218382397e+01 8.339043033763e-02 0.0 
8.339043033763e-02 -1.842913054843e+02 0.0 
0.0 0.0 -7.963804679248e+01 
-8.245362800481e+01 -1.109830755294e-01 0.0 
-1.109830755294e-01 -1.842227269135e+02 0.0 
0.0 0.0 -7.960290647548e+01 
-1.213214178253e+02 5.958638870504e+00 0.0 
5.958638870504e+00 -2.721544124379e+02 0.0 
0.0 0.0 -1.176427490789e+02 
-1.211474441954e+02 7.324819023807e+00 0.0 
7.324819023807e+00 -2.857231539100e+02 0.0 
0.0 0.0 -1.216611794316e+02 
-1.117098203426e+02 -2.702052278794e+00 0.0 
-2.702052278794e+00 -2.615291131041e+02 0.0 
0.0 0.0 -1.115716800340e+02 
-1.198612918469e+02 7.658965239838e+00 0.0 
7.658965239838e+00 -2.725192720991e+02 0.0 
0.0 0.0 -1.173141691838e+02 
-1.016570058363e+02 8.157347627949e+00 0.0 
8.157347627949e+00 -2.535188385745e+02 0.0 
0.0 0.0 -1.061527533232e+02 
-1.457161173266e+02 1.843515042402e+00 0.0 
1.843515042402e+00 -3.544779426077e+02 0.0 
0.0 0.0 -1.496582179803e+02 
-8.324588650819e+01 8.702702605929e+00 0.0 
8.702702605929e+00 -2.212539704956e+02 0.0 
0.0 0.0 -9.094995710113e+01 
-1.583246476247e+02 4.363663641417e+00 0.0 
4.363663641417e+00 -3.685949284178e+02 0.0 
0.0 0.0 -1.576758728128e+02 
-9.752877725415e+01 2.089367987549e+00 0.0 
2.089367987549e+00 -2.143773515982e+02 0.0 
0.0 0.0 -9.317183865571e+01 
-9.715387534984e+01 1.023743167924e+01 0.0 
1.023743167924e+01 -2.424138653800e+02 0.0 
0.0 0.0 -1.014703222190e+02 
-1.059520732144e+02 -4.971083825667e+00 0.0 
-4.971083825667e+00 -2.531540172714e+02 0.0 
0.0 0.0 -1.073318271457e+02 
-4.502103571659e+01 8.884334849392e+00 0.0 
8.884334849392e+00 -1.593678966616e+02 0.0 
0.0 0.0 -6.091667971345e+01 
-9.549952702575e+01 -4.702895645305e+00 0.0 
-4.702895645305e+00 -2.277232105594e+02 0.0 
0.0 0.0 -9.656682127553e+01 
-1.132627283787e+02 7.641431656664e+00 0.0 
7.641431656664e+00 -2.666700199483e+02 0.0 
0.0 0.0 -1.135798244981e+02 
-1.068254829281e+02 7.128864280624e+00 0.0 
7.128864280624e+00 -2.452702561254e+02 0.0 
0.0 0.0 -1.052287217160e+02 
-1.172512438316e+02 2.076752409082e+00 0.0 
2.076752409082e+00 -2.634331825933e+02 0.0 
0.0 0.0 -1.138053279275e+02 
-1.231112184986e+02 6.170208030561e+00 0.0 
6.170208030561e+00 -2.822573690652e+02 0.0 
0.0 0.0 -1.212105762691e+02 
-1.275208189970e+02 7.748697613940e+00 0.0 
7.748697613940e+00 -2.916984022578e+02 0.0 
0.0 0.0 -1.253657663764e+02 
-2.262976387406e+01 1.750590712667e-01 0.0 
1.750590712667e-01 -5.874610671422e+01 0.0 
0.0 0.0 -2.401276117648e+01 
-8.970858760972e+01 -6.512729449803e+00 0.0 
-6.512729449803e+00 -2.138401470044e+02 0.0 
0.0 0.0 -9.066462038423e+01 
-8.386704483597e+01 9.835013507604e+00 0.0 
9.835013507604e+00 -1.870630396805e+02 0.0 
0.0 0.0 -8.087902535494e+01 
-1.159916528380e+02 5.167317515909e+00 0.0 
5.167317515909e+00 -2.619126237856e+02 0.0 
0.0 0.0 -1.129712829871e+02 
-1.207098197387e+02 6.784650540234e+00 0.0 
6.784650540234e+00 -2.721093107922e+02 0.0 
0.0 0.0 -1.174457391593e+02 
-1.424860204832e+02 3.796790683752e+00 0.0 
3.796790683752e+00 -3.475457098553e+02 0.0 
0.0 0.0 -1.466095191016e+02 
-3.849643776203e+01 -1.166108167674e+00 0.0 
-1.166108167674e+00 -8.882602162486e+01 0.0 
0.0 0.0 -3.779673781607e+01 
-3.739330158309e+01 -8.641413409812e+00 0.0 
-8.641413409812e+00 -1.421796392997e+02 0.0 
0.0 0.0 -5.388853556453e+01 
-1.008613643231e+02 8.599523005769e+00 0.0 
8.599523005769e+00 -2.395552945816e+02 0.0 
0.0 0.0 -1.017249976714e+02 
-9.150949683316e+01 -4.654998492978e+00 0.0 
-4.654998492978e+00 -2.150047038156e+02 0.0 
0.0 0.0 -9.155426019463e+01 
-7.874434248963e+01 3.308167447527e+00 0.0 
3.308167447527e+00 -1.687099888824e+02 0.0 
0.0 0.0 -7.383629941160e+01 
-8.286131137109e+01 2.932094338379e+00 0.0 
2.932094338379e+00 -1.785339332844e+02 0.0 
0.0 0.0 -7.801857339665e+01 
-1.181614253211e+02 3.836225575273e+00 0.0 
3.836225575273e+00 -2.641159068812e+02 0.0 
0.0 0.0 -1.142831996607e+02 
-3.688938751521e+01 2.023138483252e+01 0.0 
2.023138483252e+01 -1.155217514768e+02 0.0 
0.0 0.0 -4.522038718074e+01 
-1.020122943668e+02 -5.077922698768e+00 0.0 
-5.077922698768e+00 -2.409175633951e+02 0.0 
0.0 0.0 -1.024789573286e+02 
-1.278903517925e+02 2.095921898576e+00 0.0 
2.095921898576e+00 -3.191758380527e+02 0.0 
0.0 0.0 -1.337198569535e+02 
-3.457150949638e+01 -3.622303964550e+00 0.0 
-3.622303964550e+00 -1.422809688736e+02 0.0 
0.0 0.0 -5.376064079948e+01 
-1.574241820924e+02 8.089617150394e+00 0.0 
8.089617150394e+00 -3.693225903953e+02 0.0 
0.0 0.0 -1.576240317463e+02 
-1.376648870631e+02 3.806639546384e+00 0.0 
3.806639546384e+00 -3.144437549772e+02 0.0 
0.0 0.0 -1.352325926121e+02 
-9.933942397082e+01 -3.088220330140e+00 0.0 
-3.088220330140e+00 -2.296061587802e+02 0.0 
0.0 0.0 -9.828367482532e+01 
-1.354242998592e+02 -2.775624141651e+00 0.0 
-2.775624141651e+00 -3.191476263513e+02 0.0 
0.0 0.0 -1.359715778631e+02 
-1.631657356104e+01 -1.783479628850e-01 0.0 
-1.783479628850e-01 -4.241494197140e+01 0.0 
0.0 0.0 -1.721945465973e+01 
-1.233091819652e+02 1.011293207120e+00 0.0 
1.011293207120e+00 -3.089435189719e+02 0.0 
0.0 0.0 -1.292758102811e+02 
-1.045871467643e+02 9.894591918491e+00 0.0 
9.894591918491e+00 -2.476139605624e+02 0.0 
0.0 0.0 -1.052603321980e+02 
-1.600306602180e+01 -2.067277085188e-01 0.0 
-2.067277085188e-01 -4.225995839117e+01 0.0 
0.0 0.0 -1.707890732389e+01 
-1.369329140587e+02 2.225334013384e+00 0.0 
2.225334013384e+00 -3.139299283535e+02 0.0 
0.0 0.0 -1.348588527236e+02 
-3.244398167597e+01 -2.942674126829e+00 0.0 
-2.942674126829e+00 -1.383337091235e+02 0.0 
0.0 0.0 -5.202718144128e+01 
-1.164513501021e+02 7.125307976843e+00 0.0 
7.125307976843e+00 -2.625358526642e+02 0.0 
0.0 0.0 -1.132961608299e+02 
-1.064380802336e+02 9.151927089606e+00 0.0 
9.151927089606e+00 -2.454957195944e+02 0.0 
0.0 0.0 -1.051801399484e+02 
-8.828238375344e+01 -1.852043846074e+00 0.0 
-1.852043846074e+00 -2.378667227964e+02 0.0 
0.0 0.0 -9.744473196495e+01 
-1.089297732281e+02 -3.375552835432e+00 0.0 
-3.375552835432e+00 -2.753699957499e+02 0.0 
0.0 0.0 -1.148899306934e+02 
-1.405121178962e+02 2.686593398738e+00 0.0 
2.686593398738e+00 -3.230268048277e+02 0.0 
0.0 0.0 -1.386616768172e+02 
-1.178638790959e+02 -2.601198913923e+00 0.0 
-2.601198913923e+00 -2.941763974569e+02 0.0 
0.0 0.0 -1.232120829658e+02 
-1.037751578082e+02 8.470016096633e+00 0.0 
8.470016096633e+00 -2.505126002284e+02 0.0 
0.0 0.0 -1.058863274110e+02 
-9.959641972280e+01 1.038885702492e+01 0.0 
1.038885702492e+01 -2.393962852910e+02 0.0 
0.0 0.0 -1.012978115041e+02 
-2.235988368145e+01 1.418129533094e+01 0.0 
1.418129533094e+01 -2.076153051679e+01 0.0 
0.0 0.0 -1.240490384808e+01 
-2.880903600305e+01 -3.761248588822e+00 0.0 
-3.761248588822e+00 -1.322016597472e+02 0.0 
0.0 0.0 -4.963288232810e+01 
-1.369129955293e+02 8.590537713908e+00 0.0 
8.590537713908e+00 -3.238876296219e+02 0.0 
0.0 0.0 -1.378401875454e+02 
-1.100625940099e+02 4.222353156132e+00 0.0 
4.222353156132e+00 -2.438770045398e+02 0.0 
0.0 0.0 -1.057818795649e+02 
-1.406468390346e+02 6.985429528098e+00 0.0 
6.985429528098e+00 -3.339280178734e+02 0.0 
0.0 0.0 -1.419724570724e+02 
-5.880428863789e+01 1.519045508840e+01 0.0 
1.519045508840e+01 -1.559409230641e+02 0.0 
0.0 0.0 -6.402356351060e+01 
-1.323175024098e+02 4.185140388277e+00 0.0 
4.185140388277e+00 -3.012720656555e+02 0.0 
0.0 0.0 -1.296768704196e+02 
-1.417604831375e+02 8.665935332142e+00 0.0 
8.665935332142e+00 -3.330359685001e+02 0.0 
0.0 0.0 -1.420389354913e+02 
-8.580546071295e+01 1.667845507969e+00 0.0 
1.667845507969e+00 -1.860775947576e+02 0.0 
0.0 0.0 -8.116491664115e+01 
-1.371279465494e+02 7.045326461996e+00 0.0 
7.045326461996e+00 -3.235924738660e+02 0.0 
0.0 0.0 -1.378161261246e+02 
-1.364851970323e+02 -1.169406634041e+00 0.0 
-1.169406634041e+00 -3.199607934946e+02 0.0 
0.0 0.0 -1.365337971581e+02 
-1.164177815508e+02 7.597722858912e+00 0.0 
7.597722858912e+00 -2.773057348074e+02 0.0 
0.0 0.0 -1.177170549074e+02 
-9.776884420783e+01 -5.740219055359e+00 0.0 
-5.740219055359e+00 -2.335763589067e+02 0.0 
0.0 0.0 -9.900356093435e+01 
-1.035652976982e+02 -3.879041721152e+00 0.0 
-3.879041721152e+00 -2.471830760787e+02 0.0 
0.0 0.0 -1.048245121331e+02 
-1.453087491831e+02 5.658027757064e+00 0.0 
5.658027757064e+00 -3.331436645706e+02 0.0 
0.0 0.0 -1.431357241261e+02 
-1.002173936994e+02 -4.261035593956e+00 0.0 
-4.261035593956e+00 -2.567932720461e+02 0.0 
0.0 0.0 -1.067031997237e+02 
-1.100861526594e+02 7.482658858623e+00 0.0 
7.482658858623e+00 -2.559784603060e+02 0.0 
0.0 0.0 -1.094193838896e+02 
-9.958507697516e+01 6.863302001725e+00 0.0 
6.863302001725e+00 -2.564599297962e+02 0.0 
0.0 0.0 -1.064135020314e+02 
-1.269939094032e+02 -1.912676045961e+00 0.0 
-1.912676045961e+00 -3.131455579855e+02 0.0 
0.0 0.0 -1.316418402166e+02 
-9.180218290744e+01 1.020865948773e+01 0.0 
1.020865948773e+01 -2.347754936142e+02 0.0 
0.0 0.0 -9.757330295648e+01 
-5.330532812648e+01 1.928861018317e+00 0.0 
1.928861018317e+00 -1.772703564282e+02 0.0 
0.0 0.0 -6.877270536641e+01 
-1.000925928571e+02 2.840619621210e-01 0.0 
2.840619621210e-01 -2.648760995594e+02 0.0 
0.0 0.0 -1.090906077249e+02 
-5.857848188281e+01 5.320026936180e+00 0.0 
5.320026936180e+00 -1.847954212779e+02 0.0 
0.0 0.0 -7.261217094820e+01 
-1.195592452897e+02 5.706165010653e+00 0.0 
5.706165010653e+00 -2.719924257879e+02 0.0 
0.0 0.0 -1.170655013233e+02 
-5.739863371849e+01 3.656597100511e+00 0.0 
3.656597100511e+00 -1.839255136200e+02 0.0 
0.0 0.0 -7.199724420156e+01 
-1.155118776081e+02 8.104260886745e+00 0.0 
8.104260886745e+00 -2.633877952686e+02 0.0 
0.0 0.0 -1.132699018630e+02 
-1.383653487267e+02 5.674466350048e+00 0.0 
5.674466350048e+00 -3.393311783640e+02 0.0 
0.0 0.0 -1.429089581272e+02 
-1.333492657453e+02 3.763686542571e+00 0.0 
3.763686542571e+00 -3.297622598929e+02 0.0 
0.0 0.0 -1.385334576915e+02 
-8.857480736434e+01 9.027724686542e+00 0.0 
9.027724686542e+00 -2.282112803516e+02 0.0 
0.0 0.0 -9.463582631479e+01 
-1.132818840003e+02 2.130141388398e+00 0.0 
2.130141388398e+00 -2.533004380244e+02 0.0 
0.0 0.0 -1.095746966074e+02 
-1.394820767682e+02 -2.518097492309e+00 0.0 
-2.518097492309e+00 -3.268259236999e+02 0.0 
0.0 0.0 -1.394924001405e+02 
-1.403718421587e+02 -8.882955748711e-01 0.0 
-8.882955748711e-01 -3.275775628472e+02 0.0 
0.0 0.0 -1.399848215017e+02 
-3.567614737130e+01 2.330074296220e+01 0.0 
2.330074296220e+01 -9.705464444729e+01 0.0 
0.0 0.0 -3.890200553202e+01 
-1.188294517778e+02 6.542156222601e+00 0.0 
6.542156222601e+00 -2.732527870656e+02 0.0 
0.0 0.0 -1.172246716530e+02 
-1.523096876387e+02 -2.277574413136e+00 0.0 
-2.277574413136e+00 -3.553657326207e+02 0.0 
0.0 0.0 -1.519026260778e+02 
-6.488089685674e+01 5.399971449089e+00 0.0 
5.399971449089e+00 -1.368054007999e+02 0.0 
0.0 0.0 -6.010588929698e+01 
-1.074442202014e+02 -2.614927802760e+00 0.0 
-2.614927802760e+00 -2.492726173909e+02 0.0 
0.0 0.0 -1.066150512777e+02 
-3.611701637407e+01 1.929518644549e+01 0.0 
1.929518644549e+01 -3.174758120621e+01 0.0 
0.0 0.0 -1.920952248429e+01 
-1.434111597328e+02 -2.252597149582e+00 0.0 
-2.252597149582e+00 -3.346159326263e+02 0.0 
0.0 0.0 -1.430081277077e+02 
-5.060707403137e+01 6.375945197743e+00 0.0 
6.375945197743e+00 -1.704833624735e+02 0.0 
0.0 0.0 -6.592713095145e+01 
-1.041189362505e+02 -1.542260458707e+00 0.0 
-1.542260458707e+00 -2.355508712511e+02 0.0 
0.0 0.0 -1.015009422505e+02 
-1.217785315436e+02 6.084772428251e+00 0.0 
6.084772428251e+00 -3.009660548566e+02 0.0 
0.0 0.0 -1.264233759201e+02 
-1.142407336948e+02 3.947703545984e+00 0.0 
3.947703545984e+00 -2.540458538609e+02 0.0 
0.0 0.0 -1.100859762667e+02 
-1.094794905504e+02 2.315992919624e+00 0.0 
2.315992919624e+00 -2.432738349725e+02 0.0 
0.0 0.0 -1.054259976569e+02 
-1.085738377759e+02 8.063141025826e+00 0.0 
8.063141025826e+00 -2.584619313235e+02 0.0 
0.0 0.0 -1.097107307298e+02 
-7.071877142784e+01 3.741324828240e+00 0.0 
3.741324828240e+00 -1.494377439862e+02 0.0 
0.0 0.0 -6.564695462422e+01 
-7.485804738487e+01 3.293722273345e+00 0.0 
3.293722273345e+00 -1.592095783576e+02 0.0 
0.0 0.0 -6.982028772275e+01 
-1.441044043056e+02 -6.472448179888e-01 0.0 
-6.472448179888e-01 -3.352867486864e+02 0.0 
0.0 0.0 -1.434173458976e+02 
-1.147804117992e+02 -1.206816771088e+00 0.0 
-1.206816771088e+00 -2.875536650255e+02 0.0 
0.0 0.0 -1.203002230474e+02 
-9.679166499954e+01 -1.001943565646e+00 0.0 
-1.001943565646e+00 -2.551523898071e+02 0.0 
0.0 0.0 -1.051832164420e+02 
-1.224006425048e+02 1.493500739651e-02 0.0 
1.493500739651e-02 -3.083793708633e+02 0.0 
0.0 0.0 -1.288340040104e+02 
-9.126541984274e+01 -3.138866660151e-02 0.0 
-3.138866660151e-02 -2.475553962861e+02 0.0 
0.0 0.0 -1.012462448386e+02 
-5.341161163650e+01 7.635483078679e+00 0.0 
7.635483078679e+00 -1.745272812323e+02 0.0 
0.0 0.0 -6.798166786065e+01 
-6.984532883994e+01 1.624743222428e+00 0.0 
1.624743222428e+00 -1.483779874189e+02 0.0 
0.0 0.0 -6.506699487764e+01 
-1.020856319272e+02 3.629156730708e+00 0.0 
3.629156730708e+00 -2.247341411555e+02 0.0 
0.0 0.0 -9.764593192481e+01 
-8.251816758120e+01 5.966865017124e-03 0.0 
5.966865017124e-03 -1.844520124748e+02 0.0 
0.0 0.0 -7.969105401680e+01 
-1.331825652116e+02 4.854259169745e+00 0.0 
4.854259169745e+00 -3.299126551739e+02 0.0 
0.0 0.0 -1.385285661157e+02 
-8.641476660333e+01 9.892713825393e+00 0.0 
9.892713825393e+00 -2.274743114113e+02 0.0 
0.0 0.0 -9.376672340439e+01 
-1.530737056751e+02 5.189758216928e+00 0.0 
5.189758216928e+00 -3.665302429063e+02 0.0 
0.0 0.0 -1.554811845744e+02 
-1.423394191796e+02 -1.587537504634e+00 0.0 
-1.587537504634e+00 -3.286220586377e+02 0.0 
0.0 0.0 -1.408884433452e+02 
-9.644200769479e+01 1.926995943429e+00 0.0 
1.926995943429e+00 -2.575132321231e+02 0.0 
0.0 0.0 -1.057865719454e+02 
-1.570785900124e+02 -4.290871532090e-01 0.0 
-4.290871532090e-01 -3.672916238157e+02 0.0 
0.0 0.0 -1.569110641484e+02 
-6.202805408721e+01 3.246046250318e-01 0.0 
3.246046250318e-01 -1.918529341931e+02 0.0 
0.0 0.0 -7.576429648410e+01 
-1.484464343652e+02 5.704274733355e+00 0.0 
5.704274733355e+00 -3.567118330815e+02 0.0 
0.0 0.0 -1.511474802340e+02 
-1.074694050514e+02 9.770255451520e+00 0.0 
9.770255451520e+00 -2.583615541656e+02 0.0 
0.0 0.0 -1.093492877651e+02 
-1.195725872861e+02 7.372312255206e+00 0.0 
7.372312255206e+00 -2.877665489729e+02 0.0 
0.0 0.0 -1.218017408777e+02 
-1.420706539616e+02 1.926610092481e+00 0.0 
1.926610092481e+00 -3.463991961431e+02 0.0 
0.0 0.0 -1.461409550314e+02 
-7.601326313077e+01 -7.402452019387e+00 0.0 
-7.402452019387e+00 -1.822990527981e+02 0.0 
0.0 0.0 -7.709369477866e+01 
-1.145167126286e+02 6.981691981135e+00 0.0 
6.981691981135e+00 -2.645423488783e+02 0.0 
0.0 0.0 -1.133177184521e+02 
-9.219128431385e+01 9.061186684295e-02 0.0 
9.061186684295e-02 -2.479744145027e+02 0.0 
0.0 0.0 -1.016497096450e+02 
-1.109974966243e+02 8.589870097828e+00 0.0 
8.589870097828e+00 -2.542945375081e+02 0.0 
0.0 0.0 -1.091876102397e+02 
-6.027886211410e+01 1.570706483492e+01 0.0 
1.570706483492e+01 -1.591961252336e+02 0.0 
0.0 0.0 -6.544249620430e+01 
-1.229028011294e+02 6.929910513723e+00 0.0 
6.929910513723e+00 -2.983032955014e+02 0.0 
0.0 0.0 -1.259618289892e+02 
-8.667798076231e+01 -1.957765957799e+00 0.0 
-1.957765957799e+00 -2.371633029523e+02 0.0 
0.0 0.0 -9.675238511438e+01 
-1.101920338928e+02 -4.425464845108e+00 0.0 
-4.425464845108e+00 -2.604774469284e+02 0.0 
0.0 0.0 -1.108008442464e+02 
-1.111390962376e+02 6.577486426449e+00 0.0 
6.577486426449e+00 -2.539698880089e+02 0.0 
0.0 0.0 -1.091326952740e+02 
-3.847351350939e+01 3.237519568653e+01 0.0 
3.237519568653e+01 -5.876704930115e+01 0.0 
0.0 0.0 -2.889923926019e+01 
-1.080912470666e+02 6.191505694228e+00 0.0 
6.191505694228e+00 -2.745335950380e+02 0.0 
0.0 0.0 -1.143874526314e+02 
-3.824902024335e+01 2.217966138750e+01 0.0 
2.217966138750e+01 -5.593192146255e+01 0.0 
0.0 0.0 -2.632850812647e+01 
-2.821033071656e+01 -2.634397775026e+00 0.0 
-2.634397775026e+00 -6.351042125629e+01 0.0 
0.0 0.0 -2.711622559186e+01 
-1.060858193607e+02 -4.425896821425e+00 0.0 
-4.425896821425e+00 -2.482443981830e+02 0.0 
0.0 0.0 -1.058990652631e+02 
-1.345543561198e+02 8.424601928490e+00 0.0 
8.424601928490e+00 -3.122170040184e+02 0.0 
0.0 0.0 -1.336314080415e+02 
-1.130214079410e+02 2.845549423537e+00 0.0 
2.845549423537e+00 -2.522361911485e+02 0.0 
0.0 0.0 -1.091772797269e+02 
-6.285031550505e+01 4.524160068043e+00 0.0 
4.524160068043e+00 -1.305375905092e+02 0.0 
0.0 0.0 -5.761637180427e+01 
-1.574869354748e+02 4.250382921911e+00 0.0 
4.250382921911e+00 -3.688028494413e+02 0.0 
0.0 0.0 -1.574869354748e+02 
-3.713843275957e+01 2.537981538298e+01 0.0 
2.537981538298e+01 -2.786192579031e+01 0.0 
0.0 0.0 -1.982088779900e+01 
-6.681580024350e+01 3.820998366026e+00 0.0 
3.820998366026e+00 -1.400427233694e+02 0.0 
0.0 0.0 -6.165755708386e+01 
-9.973734253782e+01 -2.323637882544e+00 0.0 
-2.323637882544e+00 -2.612332536884e+02 0.0 
0.0 0.0 -1.078911788679e+02 
-1.031520949717e+02 -2.368642220977e+00 0.0 
-2.368642220977e+00 -2.371680772448e+02 0.0 
0.0 0.0 -1.016960516649e+02 
-8.234161475886e+01 5.148357273529e+00 0.0 
5.148357273529e+00 -1.765788855320e+02 0.0 
0.0 0.0 -7.727615008726e+01 
-6.583632662591e+01 -6.211181720673e+00 0.0 
-6.211181720673e+00 -1.923354694127e+02 0.0 
0.0 0.0 -7.705153881158e+01 
-1.060850302694e+02 -2.114534015286e+00 0.0 
-2.114534015286e+00 -2.690881295159e+02 0.0 
0.0 0.0 -1.121519479356e+02 
-1.124608745141e+02 9.436777143081e+00 0.0 
9.436777143081e+00 -2.667151948142e+02 0.0 
0.0 0.0 -1.133528207985e+02 
-1.168012939521e+02 5.717498577399e+00 0.0 
5.717498577399e+00 -2.928771588502e+02 0.0 
0.0 0.0 -1.225035358407e+02 
-1.387305808024e+02 5.844284187159e+00 0.0 
5.844284187159e+00 -3.199121547787e+02 0.0 
0.0 0.0 -1.371928206743e+02 
-3.982094851067e+01 2.403551867840e+01 0.0 
2.403551867840e+01 -1.214279900337e+02 0.0 
0.0 0.0 -4.857630499000e+01 
-9.798403449194e+01 -4.994351732862e+00 0.0 
-4.994351732862e+00 -2.286097724892e+02 0.0 
0.0 0.0 -9.757814209433e+01 
-1.059679147255e+02 -3.629408434937e+00 0.0 
-3.629408434937e+00 -2.440802179562e+02 0.0 
0.0 0.0 -1.046144398045e+02 
-5.959691409077e+01 -6.172735899511e+00 0.0 
-6.172735899511e+00 -1.338192700277e+02 0.0 
0.0 0.0 -5.762485523555e+01 
-8.962288225534e+01 1.362470058935e+00 0.0 
1.362470058935e+00 -1.956886076129e+02 0.0 
0.0 0.0 -8.519344696048e+01 
-1.138127704005e+02 4.733374649495e+00 0.0 
4.733374649495e+00 -2.529510640270e+02 0.0 
0.0 0.0 -1.096291503282e+02 
-1.305235707888e+02 5.641627888652e-01 0.0 
5.641627888652e-01 -2.991259603178e+02 0.0 
0.0 0.0 -1.284948593320e+02 
-1.417417295961e+01 -2.934286457615e-01 0.0 
-2.934286457615e-01 -4.214718398619e+01 0.0 
0.0 0.0 -1.649640708374e+01 
-4.434684198300e+01 -6.784665930108e+00 0.0 
-6.784665930108e+00 -1.192334629684e+02 0.0 
0.0 0.0 -5.045248279423e+01 
-4.296867016610e+01 -5.053624893267e+00 0.0 
-5.053624893267e+00 -9.219150723573e+01 0.0 
0.0 0.0 -4.014805322055e+01 
-1.069438652851e+02 -1.715126211725e+00 0.0 
-1.715126211725e+00 -2.449412833087e+02 0.0 
0.0 0.0 -1.051655445781e+02 
-7.044611526471e+01 7.959352539789e-01 0.0 
7.959352539789e-01 -2.074322281430e+02 0.0 
0.0 0.0 -8.296350302231e+01 
-6.411450444191e+01 -5.451296384689e+00 0.0 
-5.451296384689e+00 -1.887338362825e+02 0.0 
0.0 0.0 -7.545450221731e+01 
-5.373556058804e+01 -2.882796011489e-01 0.0 
-2.882796011489e-01 -1.769780605453e+02 0.0 
0.0 0.0 -6.881408634000e+01 
-1.101106761363e+02 -3.815566989313e+00 0.0 
-3.815566989313e+00 -2.558413355723e+02 0.0 
0.0 0.0 -1.093856035126e+02 
-1.204582863063e+02 3.978006420376e+00 0.0 
3.978006420376e+00 -2.712376263088e+02 0.0 
0.0 0.0 -1.171087737845e+02 
-1.098655221898e+02 -3.019720533051e+00 0.0 
-3.019720533051e+00 -2.520826442883e+02 0.0 
0.0 0.0 -1.081844499434e+02 
-7.012810261943e+01 1.684018758748e+00 0.0 
1.684018758748e+00 -2.075055769988e+02 0.0 
0.0 0.0 -8.289010388546e+01 
-1.187627911687e+02 8.513590987860e+00 0.0 
8.513590987860e+00 -2.735916210914e+02 0.0 
0.0 0.0 -1.173063236780e+02 
-9.722503146129e+01 5.027738148717e-01 0.0 
5.027738148717e-01 -2.156375206082e+02 0.0 
0.0 0.0 -9.345876562085e+01 
-1.308361571595e+02 5.772410528052e+00 0.0 
5.772410528052e+00 -3.200041293995e+02 0.0 
0.0 0.0 -1.348520859677e+02 
-1.107036049076e+02 -1.101676658901e+00 0.0 
-1.101676658901e+00 -2.528965790628e+02 0.0 
0.0 0.0 -1.086800551911e+02 
-1.112726137352e+02 -1.987841879515e+00 0.0 
-1.987841879515e+00 -2.567910675188e+02 0.0 
0.0 0.0 -1.100191043762e+02 
-5.502763695503e+01 5.578068451675e+00 0.0 
5.578068451675e+00 -1.111244919764e+02 0.0 
0.0 0.0 -4.944563867943e+01 
-7.513767184006e+01 -1.342299292682e+00 0.0 
-1.342299292682e+00 -2.144920490934e+02 0.0 
0.0 0.0 -8.648891628004e+01 
-1.136823388765e+02 -2.429030590580e+00 0.0 
-2.429030590580e+00 -2.601251625860e+02 0.0 
0.0 0.0 -1.117422504388e+02 
-1.122917349150e+02 -5.900400019751e-01 0.0 
-5.900400019751e-01 -2.553571282209e+02 0.0 
0.0 0.0 -1.098946589407e+02 
-1.047117570860e+02 -6.625093442549e-01 0.0 
-6.625093442549e-01 -2.371663417454e+02 0.0 
0.0 0.0 -1.021634296494e+02 
-5.900035866180e+01 4.832513894201e+00 0.0 
4.832513894201e+00 -1.210929869422e+02 0.0 
0.0 0.0 -5.362800368121e+01 
-1.140895610815e+02 -3.247458370195e+00 0.0 
-3.247458370195e+00 -2.636685133829e+02 0.0 
0.0 0.0 -1.129274223393e+02 
-6.665533189676e+01 -8.817301806021e+00 0.0 
-8.817301806021e+00 -1.813578650308e+02 0.0 
0.0 0.0 -7.400395907827e+01 
-4.144908356459e+01 1.846833478976e+01 0.0 
1.846833478976e+01 -7.901156555388e+01 0.0 
0.0 0.0 -3.391037109476e+01 
-1.487260077187e+02 7.019796440677e+00 0.0 
7.019796440677e+00 -3.572556531379e+02 0.0 
0.0 0.0 -1.513944982570e+02 
-4.288256175066e+01 -9.204983077716e+00 0.0 
-9.204983077716e+00 -8.548433624154e+01 0.0 
0.0 0.0 -3.806159778615e+01 
-6.748808788835e+01 -9.185337409233e+00 0.0 
-9.185337409233e+00 -1.841439405620e+02 0.0 
0.0 0.0 -7.508960853509e+01 
-1.033489935729e+02 8.320536405632e+00 0.0 
8.320536405632e+00 -2.637600553841e+02 0.0 
0.0 0.0 -1.097327146871e+02 
-6.174197044190e+01 2.197492763478e+00 0.0 
2.197492763478e+00 -1.290604170303e+02 0.0 
0.0 0.0 -5.684071624165e+01 
-1.145121018785e+02 -5.199827962304e-01 0.0 
-5.199827962304e-01 -2.611529692035e+02 0.0 
0.0 0.0 -1.122995213246e+02 
-5.341807780064e+01 8.012073371876e-01 0.0 
8.012073371876e-01 -1.194611546651e+02 0.0 
0.0 0.0 -5.146376973973e+01 
-9.379740903351e+01 3.090097272196e+00 0.0 
3.090097272196e+00 -2.038627551183e+02 0.0 
0.0 0.0 -8.889804924555e+01 
-1.150539722189e+02 -1.418350161130e+00 0.0 
-1.418350161130e+00 -2.645337522916e+02 0.0 
0.0 0.0 -1.134763173532e+02 
-9.300168495112e+01 -2.706419715813e+00 0.0 
-2.706419715813e+00 -2.445059816899e+02 0.0 
0.0 0.0 -1.008522999923e+02 
-1.035792121659e+02 -3.279525125096e+00 0.0 
-3.279525125096e+00 -2.419964078498e+02 0.0 
0.0 0.0 -1.032726860047e+02 
-3.357233252658e+01 2.712896856121e+01 0.0 
2.712896856121e+01 -8.415929687293e+01 0.0 
0.0 0.0 -3.651387887776e+01 
-1.354470004789e+02 1.015724972892e+00 0.0 
1.015724972892e+00 -3.129152134011e+02 0.0 
0.0 0.0 -1.341086641640e+02 
-7.676285829101e+01 -5.108166523854e+00 0.0 
-5.108166523854e+00 -2.101584165121e+02 0.0 
0.0 0.0 -8.567638244093e+01 
-1.417964802289e+02 2.291725314976e+00 0.0 
2.291725314976e+00 -3.476222810465e+02 0.0 
0.0 0.0 -1.464256283826e+02 
-1.186827042002e+02 8.951943765693e+00 0.0 
8.951943765693e+00 -2.878109207172e+02 0.0 
0.0 0.0 -1.215480874752e+02 
-1.179893303085e+02 -2.727932520890e+00 0.0 
-2.727932520890e+00 -2.716293925093e+02 0.0 
0.0 0.0 -1.164856168453e+02 
-1.187983892344e+02 -9.226581417046e-01 0.0 
-9.226581417046e-01 -2.724162266313e+02 0.0 
0.0 0.0 -1.169643847597e+02 
-6.541434688522e+01 -1.176230157293e+00 0.0 
-1.176230157293e+00 -1.982221384802e+02 0.0 
0.0 0.0 -7.869094560964e+01 
-3.537378163072e+01 -9.041819759739e+00 0.0 
-9.041819759739e+00 -5.919005883772e+01 0.0 
0.0 0.0 -2.683093048684e+01 
-3.198033908140e+01 3.051275834898e+01 0.0 
3.051275834898e+01 -8.691908508229e+01 0.0 
0.0 0.0 -3.707120676043e+01 
-1.218663398593e+02 -2.221406632631e+00 0.0 
-2.221406632631e+00 -2.797353164474e+02 0.0 
0.0 0.0 -1.200804968920e+02 
-1.413325175913e+02 8.410587019151e-01 0.0 
8.410587019151e-01 -3.461388043854e+02 0.0 
0.0 0.0 -1.458413965930e+02 
-6.846270402897e+01 -9.495699098648e+00 0.0 
-9.495699098648e+00 -1.722227290714e+02 0.0 
0.0 0.0 -7.180562993011e+01 
-1.222945478612e+02 6.849704258649e+00 0.0 
6.849704258649e+00 -2.837663551379e+02 0.0 
0.0 0.0 -1.214182708997e+02 
-6.058064867198e+01 6.143863149494e+00 0.0 
6.143863149494e+00 -1.263018938552e+02 0.0 
0.0 0.0 -5.566476275814e+01 
-1.232574565855e+02 8.119816898013e+00 0.0 
8.119816898013e+00 -2.827099319748e+02 0.0 
0.0 0.0 -1.213902165681e+02 
-1.601588063005e+02 -6.813607656253e-01 0.0 
-6.813607656253e-01 -3.807277701503e+02 0.0 
0.0 0.0 -1.618659729352e+02 
-1.046836480871e+02 -1.378549892980e+00 0.0 
-1.378549892980e+00 -1.031530757553e+02 0.0 
0.0 0.0 -6.262788816315e+01 
-1.561431141082e+02 5.838421973873e-01 0.0 
5.838421973873e-01 -3.656672662526e+02 0.0 
0.0 0.0 -1.561431141082e+02 
-1.674778737004e+02 -4.717630116151e-01 0.0 
-4.717630116151e-01 -3.921150386342e+02 0.0 
0.0 0.0 -1.674778737004e+02 
-9.142601774652e+01 8.004539229801e-01 0.0 
8.004539229801e-01 -2.055034243113e+02 0.0 
0.0 0.0 -8.867883261734e+01 
-7.851662384588e+01 -7.077215679762e+00 0.0 
-7.077215679762e+00 -2.035569529812e+02 0.0 
0.0 0.0 -8.422207304812e+01 
-1.155204830739e+02 9.265824484062e+00 0.0 
9.265824484062e+00 -2.773211195920e+02 0.0 
0.0 0.0 -1.174524807998e+02 
-6.596775368666e+01 3.530312156765e+00 0.0 
3.530312156765e+00 -1.994133918702e+02 0.0 
0.0 0.0 -7.921434366706e+01 
-2.283523003168e+01 -2.436387884797e-01 0.0 
-2.436387884797e-01 -5.491064475490e+01 0.0 
0.0 0.0 -2.292376243597e+01 
-4.039259500138e+01 2.445034722128e+01 0.0 
2.445034722128e+01 -2.792596414533e+01 0.0 
0.0 0.0 -1.974729248860e+01 
-1.426774288947e+02 2.008496362864e+00 0.0 
2.008496362864e+00 -3.299157916030e+02 0.0 
0.0 0.0 -1.413779661493e+02 
-1.176622044872e+02 5.381473592909e+00 0.0 
5.381473592909e+00 -2.626296171250e+02 0.0 
0.0 0.0 -1.136875464836e+02 
-8.700527968342e+01 2.880246223756e+00 0.0 
2.880246223756e+00 -1.892224486678e+02 0.0 
0.0 0.0 -8.246831850537e+01 
-1.651658011033e+02 8.803135565172e+00 0.0 
8.803135565172e+00 -3.875245608673e+02 0.0 
0.0 0.0 -1.654071085912e+02 
-4.375358417254e+01 8.461111079837e-01 0.0 
8.461111079837e-01 -9.970607043429e+01 0.0 
0.0 0.0 -4.263789638205e+01 
-1.653590493732e+02 8.479382944876e+00 0.0 
8.479382944876e+00 -3.893661412262e+02 0.0 
0.0 0.0 -1.660175571798e+02 
-1.167953306993e+02 3.403674702107e+00 0.0 
3.403674702107e+00 -2.617795232513e+02 0.0 
0.0 0.0 -1.131724561852e+02 
-7.964359077976e+01 -7.310564880976e+00 0.0 
-7.310564880976e+00 -1.959794202223e+02 0.0 
0.0 0.0 -8.228690330062e+01 
-1.116009460904e+02 7.873380025721e+00 0.0 
7.873380025721e+00 -2.691363590026e+02 0.0 
0.0 0.0 -1.138211915279e+02 
-7.213715464358e+01 -9.038020307603e+00 0.0 
-9.038020307603e+00 -1.889543538723e+02 0.0 
0.0 0.0 -7.792745255478e+01 
-4.274653625913e+01 1.506806852232e+01 0.0 
1.506806852232e+01 -8.351149611518e+01 0.0 
0.0 0.0 -3.674318563841e+01 
-6.924665206774e+01 -9.873630128054e+00 0.0 
-9.873630128054e+00 -1.754023498011e+02 0.0 
0.0 0.0 -7.299470056067e+01 
-1.241143569571e+02 4.527024928384e+00 0.0 
4.527024928384e+00 -2.808772893652e+02 0.0 
0.0 0.0 -1.210974938967e+02 
-1.469562472681e+02 9.256404034369e-02 0.0 
9.256404034369e-02 -3.398887978973e+02 0.0 
0.0 0.0 -1.456535135496e+02 
-7.050746131480e+01 -7.245788082237e+00 0.0 
-7.245788082237e+00 -1.969600106168e+02 0.0 
0.0 0.0 -7.984024157948e+01 
-1.266192372887e+02 6.536983166875e+00 0.0 
6.536983166875e+00 -2.925889223518e+02 0.0 
0.0 0.0 -1.253624478922e+02 
-6.546061546259e+01 -2.760780366430e+00 0.0 
-2.760780366430e+00 -1.124104542417e+02 0.0 
0.0 0.0 -5.386257643452e+01 
-6.957318273262e+01 -3.417417448043e+00 0.0 
-3.417417448043e+00 -2.037258424071e+02 0.0 
0.0 0.0 -8.158970754192e+01 
-1.296460018374e+02 5.550264465625e+00 0.0 
5.550264465625e+00 -2.926038823487e+02 0.0 
0.0 0.0 -1.262749652558e+02 
-7.007975428427e+01 -8.980115906410e+00 0.0 
-8.980115906410e+00 -1.671588833170e+02 0.0 
0.0 0.0 -7.077159128038e+01 
-6.529854679769e+01 -9.594242226577e+00 0.0 
-9.594242226577e+00 -1.578597131301e+02 0.0 
0.0 0.0 -6.654747797833e+01 
-1.104294315742e+02 9.415491626963e+00 0.0 
9.415491626963e+00 -2.690028609638e+02 0.0 
0.0 0.0 -1.134296877614e+02 
-3.860401080479e+01 -1.700893987985e+01 0.0 
-1.700893987985e+01 -1.081514814241e+02 0.0 
0.0 0.0 -4.311769226399e+01 
-4.645652780485e+01 6.375428353547e+00 0.0 
6.375428353547e+00 -9.023423394796e+01 0.0 
0.0 0.0 -4.060722852584e+01 
-5.172777955170e+01 6.169377460702e+00 0.0 
6.169377460702e+00 -1.021119714669e+02 0.0 
0.0 0.0 -4.575192530558e+01 
-6.289510612063e+01 -9.624252294430e+00 0.0 
-9.624252294430e+00 -1.473766835008e+02 0.0 
0.0 0.0 -6.268153688641e+01 
-1.014082681957e+02 -1.739576190810e+00 0.0 
-1.739576190810e+00 -2.620944035441e+02 0.0 
0.0 0.0 -1.086508015219e+02 
-9.653721517095e+01 8.057813339649e+00 0.0 
8.057813339649e+00 -2.460680784801e+02 0.0 
0.0 0.0 -1.023815880953e+02 
-1.266310308850e+02 8.433650366244e+00 0.0 
8.433650366244e+00 -2.929036113234e+02 0.0 
0.0 0.0 -1.254603926625e+02 
-1.472487634087e+02 5.917225910601e+00 0.0 
5.917225910601e+00 -3.407206916172e+02 0.0 
0.0 0.0 -1.459908365078e+02 
-5.355092919341e+01 2.984827967913e+00 0.0 
2.984827967913e+00 -1.097275614824e+02 0.0 
0.0 0.0 -4.858354720275e+01 
-1.204599394141e+02 1.160241582509e+00 0.0 
1.160241582509e+00 -2.749542566999e+02 0.0 
0.0 0.0 -1.182242588342e+02 
-1.493500992131e+02 7.152416609270e+00 0.0 
7.152416609270e+00 -3.487802629041e+02 0.0 
0.0 0.0 -1.490391086351e+02 
-6.166087101635e+01 1.766543497095e+00 0.0 
1.766543497095e+00 -1.920217300430e+02 0.0 
0.0 0.0 -7.570478031781e+01 
-3.413480030896e+01 1.654226621357e+01 0.0 
1.654226621357e+01 -5.481878009577e+01 0.0 
0.0 0.0 -2.470721629794e+01 
-6.629314875621e+01 8.072311632677e+00 0.0 
8.072311632677e+00 -1.380817643332e+02 0.0 
0.0 0.0 -6.091247392682e+01 
-9.768376794926e+01 -3.148792808854e+00 0.0 
-3.148792808854e+00 -2.510646771431e+02 0.0 
0.0 0.0 -1.042245335277e+02 
-1.271557606356e+02 5.839931660996e+00 0.0 
5.839931660996e+00 -2.911973106381e+02 0.0 
0.0 0.0 -1.251059213821e+02 
-9.554060878850e+01 -3.845777701167e+00 0.0 
-3.845777701167e+00 -2.500048243495e+02 0.0 
0.0 0.0 -1.032636299414e+02 
-3.129278447147e+01 2.405638527954e+01 0.0 
2.405638527954e+01 -9.976804240375e+01 0.0 
0.0 0.0 -3.895765924867e+01 
-1.100539333175e+02 -8.625215294703e-01 0.0 
-8.625215294703e-01 -2.800180920370e+02 0.0 
0.0 0.0 -1.166216076063e+02 
-4.542059633839e+01 1.277326607444e+01 0.0 
1.277326607444e+01 -9.075771552644e+01 0.0 
0.0 0.0 -4.045349355945e+01 
-9.478695867406e+01 9.010900500056e+00 0.0 
9.010900500056e+00 -2.455201178127e+02 0.0 
0.0 0.0 -1.016921229460e+02 
-1.042268618657e+02 -3.028786341730e+00 0.0 
-3.028786341730e+00 -2.680989626485e+02 0.0 
0.0 0.0 -1.112977473543e+02 
-1.147009307356e+02 7.480568448730e+00 0.0 
7.480568448730e+00 -2.797002933900e+02 0.0 
0.0 0.0 -1.179203672377e+02 
-1.108916337390e+02 1.122074465128e+00 0.0 
1.122074465128e+00 -2.506333173944e+02 0.0 
0.0 0.0 -1.080574853400e+02 
-6.456103185846e+01 -7.540213598825e+00 0.0 
-7.540213598825e+00 -1.484918824980e+02 0.0 
0.0 0.0 -6.351587430695e+01 
-3.923042274510e+01 2.251137531443e+01 0.0 
2.251137531443e+01 -7.664385175401e+01 0.0 
0.0 0.0 -3.333525981978e+01 
-1.131730708702e+02 -2.286413934187e+00 0.0 
-2.286413934187e+00 -2.866407120000e+02 0.0 
0.0 0.0 -1.195441348611e+02 
-4.868845849778e+01 1.064232661368e+01 0.0 
1.064232661368e+01 -9.804751525158e+01 0.0 
0.0 0.0 -4.362079212481e+01 
-4.170513269884e+01 8.949465918797e+00 0.0 
8.949465918797e+00 -1.209202463839e+02 0.0 
0.0 0.0 -5.019540205084e+01 
-1.431397332482e+02 -4.902723567017e-01 0.0 
-4.902723567017e-01 -3.316737113699e+02 0.0 
0.0 0.0 -1.420440333854e+02 
-1.358575651272e+02 -6.095128283318e-01 0.0 
-6.095128283318e-01 -3.131829437391e+02 0.0 
0.0 0.0 -1.343121526599e+02 
-1.626442618658e+01 -2.170701538178e+00 0.0 
-2.170701538178e+00 -2.483621096609e+01 0.0 
0.0 0.0 -1.224206865112e+01 
-1.189395654869e+02 -9.073455509990e-02 0.0 
-9.073455509990e-02 -2.983564496255e+02 0.0 
0.0 0.0 -1.247888045337e+02 
-5.155658950746e+01 -5.980647833925e+00 0.0 
-5.980647833925e+00 -1.132667666481e+02 0.0 
0.0 0.0 -4.904700684666e+01 
-5.471739100015e+01 -7.459949958742e+00 0.0 
-7.459949958742e+00 -1.197932822249e+02 0.0 
0.0 0.0 -5.195320196751e+01 
-1.345184382585e+02 6.581695859267e+00 0.0 
6.581695859267e+00 -3.120332801251e+02 0.0 
0.0 0.0 -1.335655155151e+02 
-1.135727587514e+02 8.860193781584e+00 0.0 
8.860193781584e+00 -2.794891137750e+02 0.0 
0.0 0.0 -1.175185617579e+02 
-1.301703831853e+02 6.808654776609e+00 0.0 
6.808654776609e+00 -3.030670653666e+02 0.0 
0.0 0.0 -1.295712345656e+02 
-7.186570129139e+01 -4.037905837756e+00 0.0 
-4.037905837756e+00 -2.045287947631e+02 0.0 
0.0 0.0 -8.251834881635e+01 
-8.289340878317e+01 5.217457253684e-02 0.0 
5.217457253684e-02 -1.844340172075e+02 0.0 
0.0 0.0 -7.979822779721e+01 
-1.611379681362e+02 -4.595292875044e-01 0.0 
-4.595292875044e-01 -3.798681027650e+02 0.0 
0.0 0.0 -1.619018212703e+02 
-4.687089804281e+01 -6.863463780656e+00 0.0 
-6.863463780656e+00 -9.930863956096e+01 0.0 
0.0 0.0 -4.345386128113e+01 
-1.373447449294e+02 4.060245341956e+00 0.0 
4.060245341956e+00 -3.382490636791e+02 0.0 
0.0 0.0 -1.422781425826e+02 
-1.000444533169e+02 9.365769853505e+00 0.0 
9.365769853505e+00 -2.531201323902e+02 0.0 
0.0 0.0 -1.055493757121e+02 
-3.327544097966e+01 -1.441198731298e+00 0.0 
-1.441198731298e+00 -7.605852336027e+01 0.0 
0.0 0.0 -3.240018930198e+01 
-1.235839186434e+02 5.366837363481e+00 0.0 
5.366837363481e+00 -2.810326968698e+02 0.0 
0.0 0.0 -1.209849846540e+02 
-7.391540659305e+01 -7.468651657837e-01 0.0 
-7.468651657837e-01 -2.141228902101e+02 0.0 
0.0 0.0 -8.601148904094e+01 
-3.137668807573e+01 -9.970913605129e+00 0.0 
-9.970913605129e+00 -4.652728423169e+01 0.0 
0.0 0.0 -2.222165611308e+01 
-6.124404823130e+01 -4.391707839052e+00 0.0 
-4.391707839052e+00 -1.877368614379e+02 0.0 
0.0 0.0 -7.429427290077e+01 
-1.269833680925e+02 -9.420957025450e-01 0.0 
-9.420957025450e-01 -2.903641847512e+02 0.0 
0.0 0.0 -1.248042658531e+02 
-1.249333985428e+02 6.516580525497e+00 0.0 
6.516580525497e+00 -2.818878353644e+02 0.0 
0.0 0.0 -1.216463701722e+02 
-3.820732060096e+01 -7.169518857320e+00 0.0 
-7.169518857320e+00 -7.913087589430e+01 0.0 
0.0 0.0 -3.477684465778e+01 
-1.049984262040e+02 -1.205221121914e-01 0.0 
-1.205221121914e-01 -2.363596005325e+02 0.0 
0.0 0.0 -1.020074080209e+02 
-1.309029373705e+02 6.244111836286e+00 0.0 
6.244111836286e+00 -3.017098679158e+02 0.0 
0.0 0.0 -1.293838415859e+02 
-1.353989911274e+02 7.547104418356e+00 0.0 
7.547104418356e+00 -3.286314083584e+02 0.0 
0.0 0.0 -1.388091198457e+02 
-6.614986759917e+01 -1.002399978745e+01 0.0 
-1.002399978745e+01 -1.613361747673e+02 0.0 
0.0 0.0 -6.784581270995e+01 
-5.377083189250e+01 -1.485115012956e+00 0.0 
-1.485115012956e+00 -1.196845849074e+02 0.0 
0.0 0.0 -5.163662503997e+01 
-1.047129861977e+02 7.243137649959e+00 0.0 
7.243137649959e+00 -2.641263081676e+02 0.0 
0.0 0.0 -1.102517883096e+02 
-1.081037299164e+02 8.822845780323e-01 0.0 
8.822845780323e-01 -2.448591023844e+02 0.0 
0.0 0.0 -1.054888496902e+02 
-3.247310727856e+01 -1.523945249519e+01 0.0 
-1.523945249519e+01 -5.040680732910e+01 0.0 
0.0 0.0 -2.408907971181e+01 
-1.567775712418e+02 8.444906923706e+00 0.0 
8.444906923706e+00 -3.665980693129e+02 0.0 
0.0 0.0 -1.566126921664e+02 
-1.522479799790e+02 5.992198426582e+00 0.0 
5.992198426582e+00 -3.545539915044e+02 0.0 
0.0 0.0 -1.516405914450e+02 
-9.661859375858e+01 8.411580732564e-01 0.0 
8.411580732564e-01 -2.173722105561e+02 0.0 
0.0 0.0 -9.379724129439e+01 
-1.498175442956e+02 4.203733747902e+00 0.0 
4.203733747902e+00 -3.457667968419e+02 0.0 
0.0 0.0 -1.482753023413e+02 
-1.539458227120e+02 6.540382809419e+00 0.0 
6.540382809419e+00 -3.585092073852e+02 0.0 
0.0 0.0 -1.533365090292e+02 
-7.404030442413e+01 -4.999833804217e+00 0.0 
-4.999833804217e+00 -2.090378991958e+02 0.0 
0.0 0.0 -8.452346108597e+01 
-7.387656573430e+01 -7.094019947575e+00 0.0 
-7.094019947575e+00 -1.984206281682e+02 0.0 
0.0 0.0 -8.128915817075e+01 
-1.586880522850e+02 4.529233808472e+00 0.0 
4.529233808472e+00 -3.806255884402e+02 0.0 
0.0 0.0 -1.613940922175e+02 
-6.088804975996e+01 3.685914511858e+00 0.0 
3.685914511858e+00 -1.093976359415e+02 0.0 
0.0 0.0 -5.163631789323e+01 
-4.837184696318e+01 -1.159983043133e+00 0.0 
-1.159983043133e+00 -1.088091258545e+02 0.0 
0.0 0.0 -4.675429184530e+01 
-1.060250899117e+02 -1.350503893348e+00 0.0 
-1.350503893348e+00 -2.406335826712e+02 0.0 
0.0 0.0 -1.035976017749e+02 
-6.870610470776e+01 -8.313755336555e+00 0.0 
-8.313755336555e+00 -1.628551291403e+02 0.0 
0.0 0.0 -6.906837015441e+01 
-6.261422451044e+01 -8.801789499202e+00 0.0 
-8.801789499202e+00 -1.796427875165e+02 0.0 
0.0 0.0 -7.227710360807e+01 
-3.973370269754e+01 8.184165256100e+00 0.0 
8.184165256100e+00 -7.066966378813e+01 0.0 
0.0 0.0 -3.272100994570e+01 
-4.446933079043e+01 8.139473033550e+00 0.0 
8.139473033550e+00 -8.367442449284e+01 0.0 
0.0 0.0 -3.804312658498e+01 
-9.836896352931e+01 1.650861838586e+00 0.0 
1.650861838586e+00 -2.183071860202e+02 0.0 
0.0 0.0 -9.460284486484e+01 
-6.691690376694e+01 -2.240557088900e+00 0.0 
-2.240557088900e+00 -1.986037035700e+02 0.0 
0.0 0.0 -7.925618220108e+01 
-5.760580523690e+01 -2.447153388117e+00 0.0 
-2.447153388117e+00 -1.277649930810e+02 0.0 
0.0 0.0 -5.521123949536e+01 
-1.313189194797e+02 6.644288562086e+00 0.0 
6.644288562086e+00 -3.170540488994e+02 0.0 
0.0 0.0 -1.341118905137e+02 
-1.688135569324e+02 -1.334602030773e+00 0.0 
-1.334602030773e+00 -3.956467512911e+02 0.0 
0.0 0.0 -1.689380924670e+02 
-1.679556337347e+02 -8.813984139448e-01 0.0 
-8.813984139448e-01 -3.951822958807e+02 0.0 
0.0 0.0 -1.685413788846e+02 
-7.524816886501e+01 -7.705265625776e+00 0.0 
-7.705265625776e+00 -2.020130689061e+02 0.0 
0.0 0.0 -8.277837133132e+01 
-9.183784954613e+01 6.286446156780e-01 0.0 
6.286446156780e-01 -2.022990054751e+02 0.0 
0.0 0.0 -8.784105650636e+01 
-6.428132052566e+01 -3.827189619453e-01 0.0 
-3.827189619453e-01 -1.099177113279e+02 0.0 
0.0 0.0 -5.324199351318e+01 
-3.737330606839e+01 1.157941934246e+01 0.0 
1.157941934246e+01 -5.516799161311e+01 0.0 
0.0 0.0 -2.655114511554e+01 
-4.182614150717e+01 -2.090669270486e+01 0.0 
-2.090669270486e+01 -1.145354944129e+02 0.0 
0.0 0.0 -4.569244123964e+01 
-3.878207212718e+01 1.004486143719e+01 0.0 
1.004486143719e+01 -6.415940933013e+01 0.0 
0.0 0.0 -3.040612362816e+01 
-1.084460563599e+02 8.687395090970e+00 0.0 
8.687395090970e+00 -2.714670040015e+02 0.0 
0.0 0.0 -1.135739181084e+02 
-6.476208835781e+01 -1.052111143693e+01 0.0 
-1.052111143693e+01 -1.704650637977e+02 0.0 
0.0 0.0 -7.016814564664e+01 
-6.909885924004e+01 -6.610074922693e+00 0.0 
-6.610074922693e+00 -1.936258393553e+02 0.0 
0.0 0.0 -7.841740957861e+01 
-3.532941499245e+01 -2.698374487948e+01 0.0 
-2.698374487948e+01 -1.001842761253e+02 0.0 
0.0 0.0 -4.077590271870e+01 
-1.366722756624e+02 2.430237583935e-01 0.0 
2.430237583935e-01 -3.162647260042e+02 0.0 
0.0 0.0 -1.354811005000e+02 
-7.119405061468e+01 -8.603667307413e+00 0.0 
-8.603667307413e+00 -1.858367640353e+02 0.0 
0.0 0.0 -7.670924439498e+01 
-1.423833448371e+02 5.020205753153e-01 0.0 
5.020205753153e-01 -3.294562618140e+02 0.0 
0.0 0.0 -1.411518819953e+02 
-1.311292867364e+02 1.110945651346e+00 0.0 
1.110945651346e+00 -3.008052898432e+02 0.0 
0.0 0.0 -1.291803729739e+02 
-1.566107848090e+02 3.891593477256e-01 0.0 
3.891593477256e-01 -3.653202964941e+02 0.0 
0.0 0.0 -1.561793243909e+02 
-1.683747668877e+02 -7.754414011240e-01 0.0 
-7.754414011240e-01 -3.927672572781e+02 0.0 
0.0 0.0 -1.679426072497e+02 
-9.658127717087e+01 -5.791471390054e-01 0.0 
-5.791471390054e-01 -2.178257560517e+02 0.0 
0.0 0.0 -9.392210996678e+01 
-7.550867857863e+01 -8.069374112097e+00 0.0 
-8.069374112097e+00 -1.906149873763e+02 0.0 
0.0 0.0 -7.943709978649e+01 
-4.538550403000e+01 3.816290646888e+00 0.0 
3.816290646888e+00 -9.013791844689e+01 0.0 
0.0 0.0 -4.025702674307e+01 
-7.670947357033e+01 -8.615736718778e+00 0.0 
-8.615736718778e+00 -1.944254419587e+02 0.0 
0.0 0.0 -8.094047465870e+01 
-1.687689767190e+02 -1.182256903428e+00 0.0 
-1.182256903428e+00 -3.951276123444e+02 0.0 
0.0 0.0 -1.687689767190e+02 
-3.551983398943e+01 1.594135217722e+01 0.0 
1.594135217722e+01 -3.755202687220e+01 0.0 
0.0 0.0 -2.018400375898e+01 
-3.602384997808e+01 1.279858935071e+01 0.0 
1.279858935071e+01 -4.658604312644e+01 0.0 
0.0 0.0 -2.273135813790e+01 
-1.420995925813e+02 4.834013278855e+00 0.0 
4.834013278855e+00 -3.474996004022e+02 0.0 
0.0 0.0 -1.464797578950e+02 
-9.138739608745e+01 6.424063265345e-01 0.0 
6.424063265345e-01 -2.025507014142e+02 0.0 
0.0 0.0 -8.778142925051e+01 
-1.430282901679e+02 2.003126946592e-02 0.0 
2.003126946592e-02 -3.313862476813e+02 0.0 
0.0 0.0 -1.419243613548e+02 
-1.310543608523e+02 8.160817926860e+00 0.0 
8.160817926860e+00 -3.019468584991e+02 0.0 
0.0 0.0 -1.295003658054e+02 
-1.443355755057e+02 6.066133085074e+00 0.0 
6.066133085074e+00 -3.467442023147e+02 0.0 
0.0 0.0 -1.469239333461e+02 
-1.363241843624e+02 7.439031060341e+00 0.0 
7.439031060341e+00 -3.114089271135e+02 0.0 
0.0 0.0 -1.339199334428e+02 
-9.851331176955e+01 -4.428926629618e-01 0.0 
-4.428926629618e-01 -2.214692710445e+02 0.0 
0.0 0.0 -9.559477484421e+01 
-6.158991452154e+01 -8.990902098433e+00 0.0 
-8.990902098433e+00 -1.430946727758e+02 0.0 
0.0 0.0 -6.100537618921e+01 
-5.934071289757e+01 -1.095737142973e+01 0.0 
-1.095737142973e+01 -1.417697148020e+02 0.0 
0.0 0.0 -5.993312830987e+01 
-1.163194282893e+02 -5.308978124650e-01 0.0 
-5.308978124650e-01 -2.645076040143e+02 0.0 
0.0 0.0 -1.138481096911e+02 
-1.400205550713e+02 8.077518904400e+00 0.0 
8.077518904400e+00 -3.363360220740e+02 0.0 
0.0 0.0 -1.425069731436e+02 
-8.569668079086e+01 1.231159898138e+00 0.0 
1.231159898138e+00 -1.866774004472e+02 0.0 
0.0 0.0 -8.131222437141e+01 
-8.961064645868e+01 3.840017746791e-02 0.0 
3.840017746791e-02 -2.009220648694e+02 0.0 
0.0 0.0 -8.675981339842e+01 
-9.652813693499e+01 4.242673695291e-01 0.0 
4.242673695291e-01 -2.168469365105e+02 0.0 
0.0 0.0 -9.361252203365e+01 
-9.884871925842e+01 1.308393026751e+00 0.0 
1.308393026751e+00 -2.225076551711e+02 0.0 
0.0 0.0 -9.600691232887e+01 
-2.761439810342e+01 -1.341004086862e+01 0.0 
-1.341004086862e+01 -1.166283241303e+02 0.0 
0.0 0.0 -4.451851110337e+01 
-5.601407430440e+01 -9.993261768179e+00 0.0 
-9.993261768179e+00 -1.272939562963e+02 0.0 
0.0 0.0 -5.459240918020e+01 
-1.507180537490e+02 1.556738964816e+00 0.0 
1.556738964816e+00 -3.500732514373e+02 0.0 
0.0 0.0 -1.498373915559e+02 
-1.072008279365e+02 1.362885845072e+00 0.0 
1.362885845072e+00 -2.417809062434e+02 0.0 
0.0 0.0 -1.042945202540e+02 
-1.619378299570e+02 5.469978403625e+00 0.0 
5.469978403625e+00 -3.838154716553e+02 0.0 
0.0 0.0 -1.633259904837e+02 
-1.487432907506e+02 7.538685718810e+00 0.0 
7.538685718810e+00 -3.424490659508e+02 0.0 
0.0 0.0 -1.469577070104e+02 
-1.240844985595e+02 7.307202833690e+00 0.0 
7.307202833690e+00 -2.817608781722e+02 0.0 
0.0 0.0 -1.213536130195e+02 
-1.447405005317e+02 3.971301546601e+00 0.0 
3.971301546601e+00 -3.331962764268e+02 0.0 
0.0 0.0 -1.429810330875e+02 
-8.030424273531e+01 -3.091054206860e+00 0.0 
-3.091054206860e+00 -1.794511777370e+02 0.0 
0.0 0.0 -7.752662614169e+01 
-7.307819341173e+01 -3.242201821078e+00 0.0 
-3.242201821078e+00 -1.637267439122e+02 0.0 
0.0 0.0 -7.064148119719e+01 
-1.536942641509e+02 -1.282871052888e+00 0.0 
-1.282871052888e+00 -3.648691848207e+02 0.0 
0.0 0.0 -1.551690346915e+02 
-3.540851631751e+01 -1.905548148778e+01 0.0 
-1.905548148778e+01 -9.914362389502e+01 0.0 
0.0 0.0 -4.176001984098e+01 
-5.105372411610e+01 -1.685459681833e-01 0.0 
-1.685459681833e-01 -1.148946176784e+02 0.0 
0.0 0.0 -4.938450253834e+01 
-1.660685325949e+02 8.219758032765e+00 0.0 
8.219758032765e+00 -3.888265760548e+02 0.0 
0.0 0.0 -1.660685325949e+02 
-2.288835292311e+01 9.147090721196e-01 0.0 
9.147090721196e-01 -5.748594502269e+01 0.0 
0.0 0.0 -2.371228938374e+01 
-8.972425490048e+01 3.613222932994e-03 0.0 
3.613222932994e-03 -2.010018527196e+02 0.0 
0.0 0.0 -8.681783228602e+01 
-1.512460339225e+02 3.067455301053e+00 0.0 
3.067455301053e+00 -3.667050566805e+02 0.0 
0.0 0.0 -1.549853271809e+02 
-1.836386741589e+01 -2.711357213051e+00 0.0 
-2.711357213051e+00 -3.979980147248e+01 0.0 
0.0 0.0 -1.704910066651e+01 
-5.999496332498e+00 1.524568621867e-01 0.0 
1.524568621867e-01 -2.357201783744e+01 0.0 
0.0 0.0 -7.990409494404e+00 
-1.578116695561e+02 3.365156035979e+00 0.0 
3.365156035979e+00 -3.672821602004e+02 0.0 
0.0 0.0 -1.571281489270e+02 
-8.342559260790e+01 -9.837801137198e-02 0.0 
-9.837801137198e-02 -1.845370450691e+02 0.0 
0.0 0.0 -7.998879130309e+01 
-1.495606171847e+02 1.619799020766e+00 0.0 
1.619799020766e+00 -3.465234843889e+02 0.0 
0.0 0.0 -1.484252304721e+02 
-1.527755793001e+02 3.766729192571e+00 0.0 
3.766729192571e+00 -3.670391019759e+02 0.0 
0.0 0.0 -1.555444043828e+02 
-8.316652303867e+01 4.268797029049e-01 0.0 
4.268797029049e-01 -1.841485395639e+02 0.0 
0.0 0.0 -7.979451878076e+01 
-6.160371761752e+01 6.229801106681e+00 0.0 
6.229801106681e+00 -1.092051230555e+02 0.0 
0.0 0.0 -5.230368983578e+01 
-1.496055206431e+02 8.765103117558e-01 0.0 
8.765103117558e-01 -3.486698052979e+02 0.0 
0.0 0.0 -1.490825977823e+02 
-2.716444600927e+01 -7.333654176104e-03 0.0 
-7.333654176104e-03 -6.325247893918e+01 0.0 
0.0 0.0 -2.672507748453e+01 
-1.445461038265e+02 1.615336562765e+00 0.0 
1.615336562765e+00 -3.352205069590e+02 0.0 
0.0 0.0 -1.435299832356e+02 
-1.682953663688e+02 -1.202641342251e+00 0.0 
-1.202641342251e+00 -3.940225215271e+02 0.0 
0.0 0.0 -1.682953663688e+02 
-1.473450307260e+02 6.470446269739e+00 0.0 
6.470446269739e+00 -3.397620647983e+02 0.0 
0.0 0.0 -1.457321286573e+02 
-3.276155656467e+01 -1.031903886022e+01 0.0 
-1.031903886022e+01 -1.290706597355e+02 0.0 
0.0 0.0 -4.967097215479e+01 
-9.961650157377e+01 1.684508723477e+00 0.0 
1.684508723477e+00 -2.201995637527e+02 0.0 
0.0 0.0 -9.554481959795e+01 
-8.099471466288e+01 -8.613790371587e-01 0.0 
-8.613790371587e-01 -1.820084904210e+02 0.0 
0.0 0.0 -7.850096152516e+01 
-1.309527368215e+02 8.070725980627e+00 0.0 
8.070725980627e+00 -3.170500605304e+02 0.0 
0.0 0.0 -1.340008392056e+02 
-1.671882790190e+02 7.113709180693e+00 0.0 
7.113709180693e+00 -3.945664672244e+02 0.0 
0.0 0.0 -1.681264238730e+02 
-1.246893887902e+02 -2.110335156864e-01 0.0 
-2.110335156864e-01 -2.856215286846e+02 0.0 
0.0 0.0 -1.226932752424e+02 
-1.671439350373e+02 5.431676779625e+00 0.0 
5.431676779625e+00 -3.955931078460e+02 0.0 
0.0 0.0 -1.684211128650e+02 
-2.872087855036e+01 -1.416356667209e+01 0.0 
-1.416356667209e+01 -1.157849829168e+02 0.0 
0.0 0.0 -4.552545158917e+01 
-1.623035878811e+02 -8.689301753346e-01 0.0 
-8.689301753346e-01 -3.800064830382e+02 0.0 
0.0 0.0 -1.622930212758e+02 
-3.754445916465e+01 -1.381130544072e+01 0.0 
-1.381130544072e+01 -1.269536456889e+02 0.0 
0.0 0.0 -4.883634935532e+01 
-2.366119258175e+01 -7.996619561582e-01 0.0 
-7.996619561582e-01 -5.749814170367e+01 0.0 
0.0 0.0 -2.394780028563e+01 
-1.601830648527e+02 2.224477880546e+00 0.0 
2.224477880546e+00 -3.828106438098e+02 0.0 
0.0 0.0 -1.624981125987e+02 
-1.530812034772e+02 4.854577961531e+00 0.0 
4.854577961531e+00 -3.536930241211e+02 0.0 
0.0 0.0 -1.516322682795e+02 
-1.525390671975e+02 3.654414444132e+00 0.0 
3.654414444132e+00 -3.543501999436e+02 0.0 
0.0 0.0 -1.516667801423e+02 
-8.942311982187e+01 -5.700058335850e-01 0.0 
-5.700058335850e-01 -1.998836207112e+02 0.0 
0.0 0.0 -8.639202215992e+01 
-1.010246609398e+02 1.708874137183e+00 0.0 
1.708874137183e+00 -2.233353167863e+02 0.0 
0.0 0.0 -9.690799331782e+01 
-4.332763385399e+01 1.917720034506e+01 0.0 
1.917720034506e+01 -8.372503683902e+01 0.0 
0.0 0.0 -3.733220919767e+01 
-1.558411299658e+02 7.716107200440e+00 0.0 
7.716107200440e+00 -3.606734467639e+02 0.0 
0.0 0.0 -1.545543730189e+02 
-6.841055894093e+01 -2.033921435961e+00 0.0 
-2.033921435961e+00 -1.514070918887e+02 0.0 
0.0 0.0 -6.554529524889e+01 
-3.067335860566e+01 2.610527471378e+01 0.0 
2.610527471378e+01 -7.782240113340e+01 0.0 
0.0 0.0 -3.264724849581e+01 
-1.357611875521e+02 6.290403260176e+00 0.0 
6.290403260176e+00 -3.285478572470e+02 0.0 
0.0 0.0 -1.388927134397e+02 
-8.251553502494e+01 1.771574556848e-01 0.0 
1.771574556848e-01 -1.836504379301e+02 0.0 
0.0 0.0 -7.944979188651e+01 
-1.471364982569e+02 3.775472661322e+00 0.0 
3.775472661322e+00 -3.401545013940e+02 0.0 
0.0 0.0 -1.457872998953e+02 
-1.560512969980e+02 7.832829137146e-01 0.0 
7.832829137146e-01 -3.638138504481e+02 0.0 
0.0 0.0 -1.555595442338e+02 
-1.563656540313e+02 2.458763820732e-01 0.0 
2.458763820732e-01 -3.661865260730e+02 0.0 
0.0 0.0 -1.563656540313e+02 
-1.237630900101e+00 2.965959047820e-01 0.0 
2.965959047820e-01 -6.304874073478e+00 0.0 
0.0 0.0 -1.243725633800e+00 
-1.576965587482e+00 -5.914145426167e-01 0.0 
-5.914145426167e-01 -1.069213276342e+01 0.0 
0.0 0.0 -2.190215111684e+00 
-8.322977631738e+01 6.846871865535e-01 0.0 
6.846871865535e-01 -1.860174596131e+02 0.0 
0.0 0.0 -8.037417077915e+01 
-8.179388004720e+01 -1.059504061761e-01 0.0 
-1.059504061761e-01 -1.835001679196e+02 0.0 
0.0 0.0 -7.918821439005e+01 
-1.675795341518e+02 -2.684795293276e-01 0.0 
-2.684795293276e-01 -3.923522463543e+02 0.0 
0.0 0.0 -1.675795341518e+02 
-1.673436632307e+02 -7.836995158388e-01 0.0 
-7.836995158388e-01 -3.900120173428e+02 0.0 
0.0 0.0 -1.668067041721e+02 
-6.032001666419e+00 -6.435940027756e-01 0.0 
-6.435940027756e-01 -2.302685605097e+01 0.0 
0.0 0.0 -7.716697768135e+00 
-6.197214660834e+01 -4.592126227470e+00 0.0 
-4.592126227470e+00 -1.130278038896e+02 0.0 
0.0 0.0 -5.300041149658e+01 
-1.546282335486e+02 -1.588483877934e+00 0.0 
-1.588483877934e+00 -3.607354406394e+02 0.0 
0.0 0.0 -1.542091022564e+02 
-1.492164017093e+02 6.941925074601e+00 0.0 
6.941925074601e+00 -3.530199889840e+02 0.0 
0.0 0.0 -1.502709172080e+02 
-3.174359907078e+01 -4.798635054679e-01 0.0 
-4.798635054679e-01 -7.404710932699e+01 0.0 
0.0 0.0 -3.133721251933e+01 
-1.564222737783e+02 -7.664743258259e-01 0.0 
-7.664743258259e-01 -3.675097685052e+02 0.0 
0.0 0.0 -1.567796126851e+02 
-1.131142040030e+02 -2.802983968380e-02 0.0 
-2.802983968380e-02 -2.568282614708e+02 0.0 
0.0 0.0 -1.105827396421e+02 
-9.815384005428e+01 5.369523331199e-01 0.0 
5.369523331199e-01 -2.215710466262e+02 0.0 
0.0 0.0 -9.551746600415e+01 
-1.108751280149e+02 -2.606428531136e-03 0.0 
-2.606428531136e-03 -2.516262194738e+02 0.0 
0.0 0.0 -1.083504042466e+02 
-4.209607464573e+01 -1.830576260585e+01 0.0 
-1.830576260585e+01 -8.987664294247e+01 0.0 
0.0 0.0 -3.749948519124e+01 
-1.221658330289e+02 8.433652036598e+00 0.0 
8.433652036598e+00 -2.982671960996e+02 0.0 
0.0 0.0 -1.257299087386e+02 
-2.437811909333e+01 -1.315666368730e+00 0.0 
-1.315666368730e+00 -5.927015823681e+01 0.0 
0.0 0.0 -2.469448319904e+01 
-9.001803021836e+01 -1.026930891061e+00 0.0 
-1.026930891061e+00 -2.020883357503e+02 0.0 
0.0 0.0 -8.723190979059e+01 
-1.496937780407e+02 6.449593286397e+00 0.0 
6.449593286397e+00 -3.469622340404e+02 0.0 
0.0 0.0 -1.485968036244e+02 
-1.402849929873e+02 8.906121718198e-01 0.0 
8.906121718198e-01 -3.241753900849e+02 0.0 
0.0 0.0 -1.389381149217e+02 
-9.820610291610e+01 -1.028195446114e+00 0.0 
-1.028195446114e+00 -2.203521325350e+02 0.0 
0.0 0.0 -9.516747063532e+01 
-1.023730757151e+02 9.066944350148e-01 0.0 
9.066944350148e-01 -2.311629198573e+02 0.0 
0.0 0.0 -9.966079867173e+01 
-1.502760798740e+02 7.908041413909e+00 0.0 
7.908041413909e+00 -3.523983676061e+02 0.0 
0.0 0.0 -1.504023342440e+02 
-1.397358479216e+02 7.827133601252e+00 0.0 
7.827133601252e+00 -3.207526804010e+02 0.0 
0.0 0.0 -1.377465584968e+02 
-1.318602828034e+02 7.573641681072e+00 0.0 
7.573641681072e+00 -3.011896024090e+02 0.0 
0.0 0.0 -1.295149655637e+02 
-8.293840217582e+01 1.111892222178e-01 0.0 
1.111892222178e-01 -1.843517953571e+02 0.0 
0.0 0.0 -7.978705925989e+01 
-1.171545711578e+02 8.234385539351e+00 0.0 
8.234385539351e+00 -2.902187604461e+02 0.0 
0.0 0.0 -1.218119994812e+02 
-1.465166718821e+02 4.582318065112e+00 0.0 
4.582318065112e+00 -3.388151177290e+02 0.0 
0.0 0.0 -1.451995368833e+02 
-5.145863634811e+01 -1.615475001453e+00 0.0 
-1.615475001453e+00 -1.147132956252e+02 0.0 
0.0 0.0 -4.945157959200e+01 
-8.147188539970e+00 -9.301999806550e-01 0.0 
-9.301999806550e-01 -2.569903337125e+01 0.0 
0.0 0.0 -9.753866573367e+00 
-1.452083949072e+02 8.402866439579e+00 0.0 
8.402866439579e+00 -3.394317435495e+02 0.0 
0.0 0.0 -1.449920415370e+02 
-1.372392405383e+02 3.034686276751e+00 0.0 
3.034686276751e+00 -3.381061035750e+02 0.0 
0.0 0.0 -1.422036032340e+02 
-3.868789673324e+01 -1.881311553558e+01 0.0 
-1.881311553558e+01 -8.074879055838e+01 0.0 
0.0 0.0 -3.503212128171e+01 
-1.167595245287e+02 9.065666978801e-01 0.0 
9.065666978801e-01 -2.656824794116e+02 0.0 
0.0 0.0 -1.143326011821e+02 
-1.606734070300e+02 -8.389673540548e-01 0.0 
-8.389673540548e-01 -3.755644417192e+02 0.0 
0.0 0.0 -1.604713546247e+02 
-1.446489561876e+02 7.222818158771e+00 0.0 
7.222818158771e+00 -3.411554018901e+02 0.0 
0.0 0.0 -1.453413074233e+02 
-1.502815329398e+02 8.345396250411e+00 0.0 
8.345396250411e+00 -3.537448450986e+02 0.0 
0.0 0.0 -1.508079134115e+02 
-1.217679308216e+02 6.132340285773e-01 0.0 
6.132340285773e-01 -2.778694843795e+02 0.0 
0.0 0.0 -1.194912245603e+02 
-3.517530972423e+01 2.646812046906e+01 0.0 
2.646812046906e+01 -9.937815962899e+01 0.0 
0.0 0.0 -4.171821665702e+01 
-3.710234306651e+01 5.376969159188e+00 0.0 
5.376969159188e+00 -6.990351864037e+01 0.0 
0.0 0.0 -3.170175851207e+01 
-4.957478741826e+01 1.453891660546e+01 0.0 
1.453891660546e+01 -9.820967468482e+01 0.0 
0.0 0.0 -4.393533863093e+01 
-9.993671001794e+01 1.691076775302e+00 0.0 
1.691076775302e+00 -2.202392726490e+02 0.0 
0.0 0.0 -9.565279480007e+01 
-1.181011127610e+02 6.806984769833e+00 0.0 
6.806984769833e+00 -2.903755611834e+02 0.0 
0.0 0.0 -1.221430021833e+02 
-1.456233737026e+02 2.307541579643e+00 0.0 
2.307541579643e+00 -3.373710975921e+02 0.0 
0.0 0.0 -1.444983413884e+02 
-1.604224876230e+02 4.242727870315e+00 0.0 
4.242727870315e+00 -3.807446842770e+02 0.0 
0.0 0.0 -1.619501515700e+02 
-3.308446784847e+01 -1.284616672667e+01 0.0 
-1.284616672667e+01 -5.181894498437e+01 0.0 
0.0 0.0 -2.330150082558e+01 
-2.122836762312e+01 -4.524678694988e+00 0.0 
-4.524678694988e+00 -4.300031519396e+01 0.0 
0.0 0.0 -1.861883113976e+01 
-3.094125831219e+01 6.495097348263e+00 0.0 
6.495097348263e+00 -5.376759968095e+01 0.0 
0.0 0.0 -2.476848585481e+01 
-1.191604713123e+02 -6.306804942927e-01 0.0 
-6.306804942927e-01 -2.713862568908e+02 0.0 
0.0 0.0 -1.167640184609e+02 
-6.327339576088e+01 -1.033849264438e+00 0.0 
-1.033849264438e+00 -1.413596773684e+02 0.0 
0.0 0.0 -6.098992193878e+01 
-1.478084887500e+02 4.409579672204e+00 0.0 
4.409579672204e+00 -3.410528064482e+02 0.0 
0.0 0.0 -1.462583885595e+02 
-2.954416150836e+01 2.737363683442e-01 0.0 
2.737363683442e-01 -7.087132780282e+01 0.0 
0.0 0.0 -2.972464679335e+01 
-1.512771416423e+02 4.088429673100e+00 0.0 
4.088429673100e+00 -3.641082287393e+02 0.0 
0.0 0.0 -1.542156111145e+02 
-9.769707007662e+01 1.224274313775e-01 0.0 
1.224274313775e-01 -2.175423604780e+02 0.0 
0.0 0.0 -9.417182916638e+01 
-1.596693520441e+02 7.242745585813e+00 0.0 
7.242745585813e+00 -3.760303083691e+02 0.0 
0.0 0.0 -1.603098981239e+02 
-1.359433490341e+02 8.497272831540e+00 0.0 
8.497272831540e+00 -3.258652220731e+02 0.0 
0.0 0.0 -1.381425713322e+02 
-1.004118183096e+02 2.517907480317e+00 0.0 
2.517907480317e+00 -2.206910005791e+02 0.0 
0.0 0.0 -9.593084566660e+01 
-1.606153833800e+02 5.999455339081e-01 0.0 
5.999455339081e-01 -3.823068833250e+02 0.0 
0.0 0.0 -1.624766800115e+02 
-1.525649246020e+02 3.938180164102e+00 0.0 
3.938180164102e+00 -3.534670978191e+02 0.0 
0.0 0.0 -1.514096067263e+02 
-1.508643960277e+02 1.424042178058e-01 0.0 
1.424042178058e-01 -3.500292535258e+02 0.0 
0.0 0.0 -1.498680948661e+02 
-2.456761332380e+01 8.140910031950e+00 0.0 
8.140910031950e+00 -3.479208840189e+01 0.0 
0.0 0.0 -1.571268796988e+01 
-1.441342724221e+02 2.557084135265e+00 0.0 
2.557084135265e+00 -3.327840616760e+02 0.0 
0.0 0.0 -1.426755002294e+02 
-1.562381225571e+02 7.836673943172e+00 0.0 
7.836673943172e+00 -3.653101015960e+02 0.0 
0.0 0.0 -1.560644672459e+02 
-1.504869434490e+02 4.816746471531e+00 0.0 
4.816746471531e+00 -3.642319995486e+02 0.0 
0.0 0.0 -1.540156828993e+02 
-1.400099978256e+02 6.351349622974e+00 0.0 
6.351349622974e+00 -3.357589515491e+02 0.0 
0.0 0.0 -1.423306848124e+02 
-1.691081149620e+02 -1.209380348221e+00 0.0 
-1.209380348221e+00 -3.959189349114e+02 0.0 
0.0 0.0 -1.691081149620e+02 
-1.312280716591e+02 5.547043350385e+00 0.0 
5.547043350385e+00 -3.005243405389e+02 0.0 
0.0 0.0 -1.291257236594e+02 
-4.775196760404e+01 1.822556455090e+01 0.0 
1.822556455090e+01 -7.161581576620e+01 0.0 
0.0 0.0 -3.636207791160e+01 
-3.652738517449e+01 2.533159575921e+01 0.0 
2.533159575921e+01 -7.525994855930e+01 0.0 
0.0 0.0 -3.175857045247e+01 
-1.437066955632e+02 7.565932945821e+00 0.0 
7.565932945821e+00 -3.306714425552e+02 0.0 
0.0 0.0 -1.419134414355e+02 
-1.056856480226e+02 1.309179770088e+00 0.0 
1.309179770088e+00 -2.349177359051e+02 0.0 
0.0 0.0 -1.017810151783e+02 
-1.548474527082e+02 1.163292649160e-01 0.0 
1.163292649160e-01 -3.592446266739e+02 0.0 
0.0 0.0 -1.538276238146e+02 
-1.448338907774e+02 8.345936144541e+00 0.0 
8.345936144541e+00 -3.448452514573e+02 0.0 
0.0 0.0 -1.465037426704e+02 
-1.624898865883e+02 -9.738097217285e-01 0.0 
-9.738097217285e-01 -3.809230785779e+02 0.0 
0.0 0.0 -1.626238895498e+02 
-1.277624657620e+02 -3.234320018393e-01 0.0 
-3.234320018393e-01 -2.921531098871e+02 0.0 
0.0 0.0 -1.255746726947e+02 
-1.601049233194e+02 6.868171976427e+00 0.0 
6.868171976427e+00 -3.780242831312e+02 0.0 
0.0 0.0 -1.610387619352e+02 
-1.551824419533e+02 5.729311189411e-01 0.0 
5.729311189411e-01 -3.696417739803e+02 0.0 
0.0 0.0 -1.570472647801e+02 
-1.548496139717e+02 -5.667968761419e-01 0.0 
-5.667968761419e-01 -3.693517263379e+02 0.0 
0.0 0.0 -1.568604020929e+02 
-6.560806816472e+01 -7.489450420725e-01 0.0 
-7.489450420725e-01 -1.464372371443e+02 0.0 
0.0 0.0 -6.321359159270e+01 
-1.692000411824e+02 -1.339127478444e+00 0.0 
-1.339127478444e+00 -3.954527134471e+02 0.0 
0.0 0.0 -1.689958263889e+02 
-9.150467379945e+01 9.575706979532e-01 0.0 
9.575706979532e-01 -2.014972735693e+02 0.0 
0.0 0.0 -8.750058421063e+01 
-1.436628634665e+02 1.645205654805e+00 0.0 
1.645205654805e+00 -3.319424435906e+02 0.0 
0.0 0.0 -1.422815921171e+02 
-2.695979900340e+01 -5.619325908568e+00 0.0 
-5.619325908568e+00 -4.328904062323e+01 0.0 
0.0 0.0 -1.977482842207e+01 
-1.379655712272e+02 9.239645037491e-01 0.0 
9.239645037491e-01 -3.171584909861e+02 0.0 
0.0 0.0 -1.361372186640e+02 
-1.177287366281e+02 5.197604640325e-01 0.0 
5.197604640325e-01 -2.675108509714e+02 0.0 
0.0 0.0 -1.151718762799e+02 
-1.377869350369e+01 6.973100124675e-01 0.0 
6.973100124675e-01 -4.159519000065e+01 0.0 
0.0 0.0 -1.621216505130e+01 
-3.400788244960e+01 -1.301074910783e+01 0.0 
-1.301074910783e+01 -1.328530772940e+02 0.0 
0.0 0.0 -5.058651729069e+01 
-1.349033723298e+02 5.950836684616e+00 0.0 
5.950836684616e+00 -3.107079817105e+02 0.0 
0.0 0.0 -1.332834062121e+02 
-1.502443422996e+02 2.366156445116e+00 0.0 
2.366156445116e+00 -3.499228506360e+02 0.0 
0.0 0.0 -1.496501578807e+02 
-1.443590649454e+02 1.126944742734e+00 0.0 
1.126944742734e+00 -3.345320594972e+02 0.0 
0.0 0.0 -1.432673373328e+02 
-1.575049021081e+02 5.775410056138e+00 0.0 
5.775410056138e+00 -3.751341223405e+02 0.0 
0.0 0.0 -1.593917073346e+02 
-1.023678862895e+02 -5.478727830124e-01 0.0 
-5.478727830124e-01 -2.308034332757e+02 0.0 
0.0 0.0 -9.955139586955e+01 
-6.768642239971e+00 1.186988492720e-01 0.0 
1.186988492720e-01 -2.483348658048e+01 0.0 
0.0 0.0 -8.971994883246e+00 
-3.363706728358e+01 2.030776416264e+01 0.0 
2.030776416264e+01 -1.139896247968e+02 0.0 
0.0 0.0 -4.586096925992e+01 
-1.096311575238e+01 -1.545933348338e+00 0.0 
-1.545933348338e+00 -2.830279113321e+01 0.0 
0.0 0.0 -1.137977206568e+01 
-2.907062384956e+01 -4.941046576231e+00 0.0 
-4.941046576231e+00 -5.771083592124e+01 0.0 
0.0 0.0 -2.541594417309e+01 
-4.228289512377e+01 3.532502494197e+01 0.0 
3.532502494197e+01 -5.766393296961e+01 0.0 
0.0 0.0 -3.043449964270e+01 
-8.791427339139e+01 -2.378625521992e+00 0.0 
-2.378625521992e+00 -1.966415031809e+02 0.0 
0.0 0.0 -8.496673297169e+01 
-1.547649892960e+02 -1.545157358954e+00 0.0 
-1.545157358954e+00 -3.591588300964e+02 0.0 
0.0 0.0 -1.537771458177e+02 
-1.472847985842e+02 5.130765452126e+00 0.0 
5.130765452126e+00 -3.400084237796e+02 0.0 
0.0 0.0 -1.457879667091e+02 
-1.066614308093e+02 3.542753785979e+00 0.0 
3.542753785979e+00 -2.351620713275e+02 0.0 
0.0 0.0 -1.021470506410e+02 
-7.702236693250e+01 -1.458182254500e+00 0.0 
-1.458182254500e+00 -1.727854136776e+02 0.0 
0.0 0.0 -7.454233418302e+01 
-1.542286371336e+02 -2.492942885286e-01 0.0 
-2.492942885286e-01 -3.655967117588e+02 0.0 
0.0 0.0 -1.555476046677e+02 
-1.505505193245e+02 1.062516494799e+00 0.0 
1.062516494799e+00 -3.642164607077e+02 0.0 
0.0 0.0 -1.540300940097e+02 
-1.584365728690e+02 7.469596244324e+00 0.0 
7.469596244324e+00 -3.754015763552e+02 0.0 
0.0 0.0 -1.597514447673e+02 
-1.507164593656e+02 7.914578247767e+00 0.0 
7.914578247767e+00 -3.523993527263e+02 0.0 
0.0 0.0 -1.505347436276e+02 
-1.424685330360e+02 6.284496915688e+00 0.0 
6.284496915688e+00 -3.297262777020e+02 0.0 
0.0 0.0 -1.412584432214e+02 
-2.618139769795e+01 -4.873600384276e+00 0.0 
-4.873600384276e+00 -4.235746360629e+01 0.0 
0.0 0.0 -1.950958700511e+01 
-3.555458999604e+01 -1.728475444731e+01 0.0 
-1.728475444731e+01 -1.131113727857e+02 0.0 
0.0 0.0 -4.636224513072e+01 
-1.551885211403e+02 -4.465380634173e-01 0.0 
-4.465380634173e-01 -3.614963234154e+02 0.0 
0.0 0.0 -1.546054533667e+02 
-1.498100844201e+01 -1.844048124265e-01 0.0 
-1.844048124265e-01 -4.127233054958e+01 0.0 
0.0 0.0 -1.647600169748e+01 
-1.810925157264e+01 -1.298796761881e+00 0.0 
-1.298796761881e+00 -4.906536901381e+01 0.0 
0.0 0.0 -1.975238617593e+01 
-3.365159198517e+01 2.768194238015e+01 0.0 
2.768194238015e+01 -5.638963870076e+01 0.0 
0.0 0.0 -2.727486230843e+01 
-1.560112737291e+01 -2.483640833457e-02 0.0 
-2.483640833457e-02 -3.849806972747e+01 0.0 
0.0 0.0 -1.582975913011e+01 
-1.621725505473e+02 2.507212237716e-01 0.0 
2.507212237716e-01 -3.830999918763e+02 0.0 
0.0 0.0 -1.631817627271e+02 
-1.556789964341e+02 7.903933273047e+00 0.0 
7.903933273047e+00 -3.628658105427e+02 0.0 
0.0 0.0 -1.551634420930e+02 
-1.452228859784e+02 8.155428143769e-01 0.0 
8.155428143769e-01 -3.373226014363e+02 0.0 
0.0 0.0 -1.443636462244e+02 
-1.594886648298e+02 7.627689301358e+00 0.0 
7.627689301358e+00 -3.756927993129e+02 0.0 
0.0 0.0 -1.601544392428e+02 
-1.459368663831e+02 2.704344790077e+00 0.0 
2.704344790077e+00 -3.547271444013e+02 0.0 
0.0 0.0 -1.497992032353e+02 
-1.071979539047e+02 -6.174750313219e-01 0.0 
-6.174750313219e-01 -2.420414237641e+02 0.0 
0.0 0.0 -1.043718133006e+02 
-1.571768625804e+02 3.122773471675e+00 0.0 
3.122773471675e+00 -3.680793460209e+02 0.0 
0.0 0.0 -1.571768625804e+02 
-4.599339731530e+01 -1.760594579501e+01 0.0 
-1.760594579501e+01 -1.309290913539e+02 0.0 
0.0 0.0 -5.179280128543e+01 
-8.312146681179e+01 2.378499325643e-01 0.0 
2.378499325643e-01 -1.836402896717e+02 0.0 
0.0 0.0 -7.962852694505e+01 
-4.307583222643e+01 -1.921096156341e+01 0.0 
-1.921096156341e+01 -7.391825884630e+01 0.0 
0.0 0.0 -3.287749990617e+01 
-7.410628476761e+00 -2.353425594645e-01 0.0 
-2.353425594645e-01 -2.465668311608e+01 0.0 
0.0 0.0 -9.802413076036e+00 
-1.688429911068e+02 -1.461336897930e+00 0.0 
-1.461336897930e+00 -3.938394950256e+02 0.0 
0.0 0.0 -1.684047458397e+02 
-9.372549875783e+01 2.139280939760e+00 0.0 
2.139280939760e+00 -2.051515518855e+02 0.0 
0.0 0.0 -8.926311519301e+01 
-2.234830005005e+01 -5.938674144136e-01 0.0 
-5.938674144136e-01 -5.704401907055e+01 0.0 
0.0 0.0 -2.341769573618e+01 
-8.402234849108e+01 -2.298619203380e+00 0.0 
-2.298619203380e+00 -1.885118892169e+02 0.0 
0.0 0.0 -8.136027131239e+01 
-1.564541414381e+02 7.715898649598e+00 0.0 
7.715898649598e+00 -3.632922676107e+02 0.0 
0.0 0.0 -1.555239227146e+02 
-1.454090024129e+02 2.868466762177e+00 0.0 
2.868466762177e+00 -3.361359125810e+02 0.0 
0.0 0.0 -1.440634744982e+02 
-1.521532377349e+02 4.728310604476e+00 0.0 
4.728310604476e+00 -3.540661926216e+02 0.0 
0.0 0.0 -1.514658291069e+02 
-5.970049002428e+01 2.871135796105e-02 0.0 
2.871135796105e-02 -1.331879290765e+02 0.0 
0.0 0.0 -5.746652573024e+01 
-3.619597482096e+01 2.931852036920e+00 0.0 
2.931852036920e+00 -1.233362992207e+02 0.0 
0.0 0.0 -4.978951515598e+01 
-1.617530988149e+02 -7.999549485670e-01 0.0 
-7.999549485670e-01 -3.806386410010e+02 0.0 
0.0 0.0 -1.623175219448e+02 
-1.574878410795e+02 2.207557419884e-01 0.0 
2.207557419884e-01 -3.665093858477e+02 0.0 
0.0 0.0 -1.567991680782e+02 
-1.682392044561e+02 -2.749690715515e-01 0.0 
-2.749690715515e-01 -3.925656213102e+02 0.0 
0.0 0.0 -1.678414477299e+02 
-8.827290354240e+01 -5.083170485262e-01 0.0 
-5.083170485262e-01 -1.979182473734e+02 0.0 
0.0 0.0 -8.545734527473e+01 
-1.535102901622e+02 2.426692728717e+00 0.0 
2.426692728717e+00 -3.681538252093e+02 0.0 
0.0 0.0 -1.560992346115e+02 
-2.453413182814e+01 2.585494006116e-02 0.0 
2.585494006116e-02 -5.830852275209e+01 0.0 
0.0 0.0 -2.445279637407e+01 
-1.471934092665e+02 3.033325471537e+00 0.0 
3.033325471537e+00 -3.409488903244e+02 0.0 
0.0 0.0 -1.460426898773e+02 
-7.406356781071e+00 1.290150198480e-01 0.0 
1.290150198480e-01 -2.349868643455e+01 0.0 
0.0 0.0 -9.231676889690e+00 
-1.623997788621e+02 1.479974979134e+00 0.0 
1.479974979134e+00 -3.845189976744e+02 0.0 
0.0 0.0 -1.636756329610e+02 
-1.526946738746e+02 4.644339302725e+00 0.0 
4.644339302725e+00 -3.536247484445e+02 0.0 
0.0 0.0 -1.514958266957e+02 
-3.947640632660e+01 1.228929757184e+01 0.0 
1.228929757184e+01 -1.194618133881e+02 0.0 
0.0 0.0 -4.904774011817e+01 
-1.446239625567e+02 8.470655999006e+00 0.0 
8.470655999006e+00 -3.418016698355e+02 0.0 
0.0 0.0 -1.455276897177e+02 
-1.237986005817e+02 1.221344142826e+00 0.0 
1.221344142826e+00 -2.821350045112e+02 0.0 
0.0 0.0 -1.213800815279e+02 
-1.505790194074e+02 1.836118442627e+00 0.0 
1.836118442627e+00 -3.508914353733e+02 0.0 
0.0 0.0 -1.500411364342e+02 
-1.695718978390e+02 6.116017724638e+00 0.0 
6.116017724638e+00 -3.970010949577e+02 0.0 
0.0 0.0 -1.695718978390e+02 
-1.124015915052e+02 1.339876477696e+00 0.0 
1.339876477696e+00 -2.553711125298e+02 0.0 
0.0 0.0 -1.099318112105e+02 
-1.554181207312e+02 7.265339017160e+00 0.0 
7.265339017160e+00 -3.622276526171e+02 0.0 
0.0 0.0 -1.548937320045e+02 
-1.480105299799e+02 5.181224417828e+00 0.0 
5.181224417828e+00 -3.412158625902e+02 0.0 
0.0 0.0 -1.463679177710e+02 
-1.170826165719e+02 2.803060771534e-01 0.0 
2.803060771534e-01 -2.669956827947e+02 0.0 
0.0 0.0 -1.148234898100e+02 
-1.509007941084e+02 7.228074372811e+00 0.0 
7.228074372811e+00 -3.500330683731e+02 0.0 
0.0 0.0 -1.498801587445e+02 
-7.244108296931e+01 -7.763875598471e-01 0.0 
-7.763875598471e-01 -1.606857030047e+02 0.0 
0.0 0.0 -6.953803579221e+01 
-8.214889101298e+01 1.574260220320e-01 0.0 
1.574260220320e-01 -1.835144345331e+02 0.0 
0.0 0.0 -7.929899766381e+01 
-1.528865255508e+02 7.086121639749e+00 0.0 
7.086121639749e+00 -3.624032850915e+02 0.0 
0.0 0.0 -1.541869431927e+02 
-1.512060263925e+02 -2.464853666972e-01 0.0 
-2.464853666972e-01 -3.519666482366e+02 0.0 
0.0 0.0 -1.505518023887e+02 
-3.187586916668e-01 5.516441741677e-02 0.0 
5.516441741677e-02 -8.832307778907e+00 0.0 
0.0 0.0 -1.995750972975e+00 
-8.205634953076e+01 -2.039131626815e-01 0.0 
-2.039131626815e-01 -1.836908895571e+02 0.0 
0.0 0.0 -7.932417172636e+01 
-1.626685742150e+02 2.688293020814e-01 0.0 
2.688293020814e-01 -3.787901199818e+02 0.0 
0.0 0.0 -1.620376082590e+02 
-3.278257658276e+01 -2.267040994372e+00 0.0 
-2.267040994372e+00 -7.331851948197e+01 0.0 
0.0 0.0 -3.143032881942e+01 
-1.507925852595e+02 3.490558694324e+00 0.0 
3.490558694324e+00 -3.661792422239e+02 0.0 
0.0 0.0 -1.546915482450e+02 
-1.482398074602e+02 5.870502530850e+00 0.0 
5.870502530850e+00 -3.403606906979e+02 0.0 
0.0 0.0 -1.461801494474e+02 
-1.506684403888e+02 2.189637649340e+00 0.0 
2.189637649340e+00 -3.497800608090e+02 0.0 
0.0 0.0 -1.497345503593e+02 
-3.011163483096e+01 -1.571469339510e+00 0.0 
-1.571469339510e+00 -7.028455832120e+01 0.0 
0.0 0.0 -2.971885794565e+01 
-3.689964292277e+01 3.140017581029e+01 0.0 
3.140017581029e+01 -8.991587196285e+01 0.0 
0.0 0.0 -3.722292483750e+01 
-1.015967618586e+02 -1.586639635109e+00 0.0 
-1.586639635109e+00 -2.302292203061e+02 0.0 
0.0 0.0 -9.914779464939e+01 
-1.316285063340e+02 2.615968860970e-02 0.0 
2.615968860970e-02 -3.031952376210e+02 0.0 
0.0 0.0 -1.300471231865e+02 
-1.058673713557e+02 -3.687891790671e+00 0.0 
-3.687891790671e+00 -9.739885205368e+01 0.0 
0.0 0.0 -6.120425153562e+01 
-1.520073300554e+02 4.045592041248e+00 0.0 
4.045592041248e+00 -3.538946336398e+02 0.0 
0.0 0.0 -1.513705891086e+02 
-1.098216264975e+02 6.664700865398e-02 0.0 
6.664700865398e-02 -2.494093897653e+02 0.0 
0.0 0.0 -1.073693048788e+02 
-4.515941940844e+01 -1.722513033750e+01 0.0 
-1.722513033750e+01 -9.062174413637e+01 0.0 
0.0 0.0 -3.847416784420e+01 
-1.040558662892e+02 4.212592565303e-02 0.0 
4.212592565303e-02 -2.356646262441e+02 0.0 
0.0 0.0 -1.015161477600e+02 
-1.579866325052e+02 8.697601329524e+00 0.0 
8.697601329524e+00 -3.728145170879e+02 0.0 
0.0 0.0 -1.588403448779e+02 
-1.065989537026e+02 1.012899847684e+00 0.0 
1.012899847684e+00 -2.413609434473e+02 0.0 
0.0 0.0 -1.039879691450e+02 
-4.155448572640e+01 3.193080903495e+01 0.0 
3.193080903495e+01 -2.905735535268e+01 0.0 
0.0 0.0 -2.192969165389e+01 
-6.545651827214e+01 -2.328760969401e+00 0.0 
-2.328760969401e+00 -1.456970399853e+02 0.0 
0.0 0.0 -6.294606747725e+01 
-9.391241837714e+01 -2.157893176678e+00 0.0 
-2.157893176678e+00 -2.115947418128e+02 0.0 
0.0 0.0 -9.125214805699e+01 
-1.108926574869e+02 -1.597269084057e+00 0.0 
-1.597269084057e+00 -2.507323257196e+02 0.0 
0.0 0.0 -1.080874949619e+02 
-1.527679961800e+02 7.424070662021e+00 0.0 
7.424070662021e+00 -3.645476458209e+02 0.0 
0.0 0.0 -1.547946926003e+02 
-9.149020171458e+01 -8.907120736815e-02 0.0 
-8.907120736815e-02 -2.060636794944e+02 0.0 
0.0 0.0 -8.886616436268e+01 
-9.725060987472e+01 -1.457897039941e+00 0.0 
-1.457897039941e+00 -2.187587194755e+02 0.0 
0.0 0.0 -9.440279880506e+01 
-1.501688639900e+01 -1.528292254652e+00 0.0 
-1.528292254652e+00 -3.702724487611e+01 0.0 
0.0 0.0 -1.521323938253e+01 
-1.561294331003e+02 -1.849154217393e+00 0.0 
-1.849154217393e+00 -3.677291575531e+02 0.0 
0.0 0.0 -1.567575771960e+02 
-1.450119497585e+02 7.114985362529e+00 0.0 
7.114985362529e+00 -3.395426241429e+02 0.0 
0.0 0.0 -1.449663721704e+02 
-3.797797885151e+01 2.803164300687e+01 0.0 
2.803164300687e+01 -1.052908228953e+02 0.0 
0.0 0.0 -4.368727424332e+01 
-1.510520532657e+02 5.928485160260e-01 0.0 
5.928485160260e-01 -3.513636784059e+02 0.0 
0.0 0.0 -1.503247195015e+02 
-1.621439559866e+02 -8.766406331606e-01 0.0 
-8.766406331606e-01 -3.780839581579e+02 0.0 
0.0 0.0 -1.616683742434e+02 
-8.868735215566e+01 6.532483627668e-01 0.0 
6.532483627668e-01 -1.989619242510e+02 0.0 
0.0 0.0 -8.589478292200e+01 
-1.099609028257e+02 6.080758907767e-02 0.0 
6.080758907767e-02 -2.494569617650e+02 0.0 
0.0 0.0 -1.074253593772e+02 
-9.174261144983e+01 -1.960569213504e+00 0.0 
-1.960569213504e+00 -2.058725915333e+02 0.0 
0.0 0.0 -8.888456089494e+01 
-9.492640610794e+01 -7.856936494727e-01 0.0 
-7.856936494727e-01 -2.129594292053e+02 0.0 
0.0 0.0 -9.196575059397e+01 
-9.717323808716e+01 -6.690915690530e-01 0.0 
-6.690915690530e-01 -2.195466050580e+02 0.0 
0.0 0.0 -9.461595294354e+01 
-1.456467213308e+02 3.270652951922e+00 0.0 
3.270652951922e+00 -3.544052824904e+02 0.0 
0.0 0.0 -1.496156011464e+02 
-3.784110035802e+01 -1.524381722959e+01 0.0 
-1.524381722959e+01 -6.732269846220e+01 0.0 
0.0 0.0 -2.985877649463e+01 
-1.500840910706e+02 8.654467520553e+00 0.0 
8.654467520553e+00 -3.501052100455e+02 0.0 
0.0 0.0 -1.496567903348e+02 
-9.581899490831e+01 -1.589882696439e-01 0.0 
-1.589882696439e-01 -2.158103000302e+02 0.0 
0.0 0.0 -9.308878848155e+01 
-1.523793113576e+02 4.356412493668e+00 0.0 
4.356412493668e+00 -3.526562347961e+02 0.0 
0.0 0.0 -1.511106638461e+02 
-1.458423228983e+02 4.077544490847e+00 0.0 
4.077544490847e+00 -3.543447808592e+02 0.0 
0.0 0.0 -1.496561311272e+02 
-1.049196864140e+02 5.995627161877e-01 0.0 
5.995627161877e-01 -2.363827756106e+02 0.0 
0.0 0.0 -1.019907386074e+02 
-1.455708039123e+02 6.489521372607e+00 0.0 
6.489521372607e+00 -3.371318669152e+02 0.0 
0.0 0.0 -1.444108012482e+02 
-1.526218305785e+02 6.317285982344e+00 0.0 
6.317285982344e+00 -3.639199607362e+02 0.0 
0.0 0.0 -1.545625373944e+02 
-1.583642820822e+02 7.548211160324e+00 0.0 
7.548211160324e+00 -3.766269176493e+02 0.0 
0.0 0.0 -1.600973599194e+02 
-3.796241935512e+01 3.284833462671e+01 0.0 
3.284833462671e+01 -6.790324604880e+01 0.0 
0.0 0.0 -3.273967625084e+01 
-1.460730000296e+02 7.694816032923e+00 0.0 
7.694816032923e+00 -3.375370889239e+02 0.0 
0.0 0.0 -1.446830266860e+02 
-1.502203897099e+02 6.796828963520e+00 0.0 
6.796828963520e+00 -3.486672763010e+02 0.0 
0.0 0.0 -1.492662998033e+02 
-1.341529879634e+01 1.814293354277e-01 0.0 
1.814293354277e-01 -3.782034198936e+01 0.0 
0.0 0.0 -1.497069223571e+01 
-8.748422711577e+01 -8.105958726013e-01 0.0 
-8.105958726013e-01 -1.959816983812e+02 0.0 
0.0 0.0 -8.463977764910e+01 
-4.431462954885e+01 3.481557820554e+01 0.0 
3.481557820554e+01 -6.886120160171e+01 0.0 
0.0 0.0 -3.491526876762e+01 
-1.508223230293e+02 7.751062507674e+00 0.0 
7.751062507674e+00 -3.486623911384e+02 0.0 
0.0 0.0 -1.494454142503e+02 
-5.280383122977e+00 4.255976584837e-01 0.0 
4.255976584837e-01 -7.924585974271e+00 0.0 
0.0 0.0 -3.561490729175e+00 
-7.044748108116e+00 -9.227417654862e-02 0.0 
-9.227417654862e-02 -9.882540011550e+00 0.0 
0.0 0.0 -5.010033257890e+00 
-5.359173377056e+00 1.726570785094e-01 0.0 
1.726570785094e-01 -9.619955267586e+00 0.0 
0.0 0.0 -4.093738593392e+00 
-6.868636155451e+00 -1.341016976076e-02 0.0 
-1.341016976076e-02 -9.925505215108e+00 0.0 
0.0 0.0 -4.904907777434e+00 
-5.424791317669e+00 7.848733786419e-02 0.0 
7.848733786419e-02 -9.712943370950e+00 0.0 
0.0 0.0 -4.141320406586e+00 
-6.755043485028e+00 -6.243619358851e-02 0.0 
-6.243619358851e-02 -9.928525963915e+00 0.0 
0.0 0.0 -4.860542555827e+00 
-5.384412778288e+00 1.969588547984e-02 0.0 
1.969588547984e-02 -9.744844523426e+00 0.0 
0.0 0.0 -4.138777190514e+00 
-6.634446016803e+00 -1.073892144750e-01 0.0 
-1.073892144750e-01 -9.940623756088e+00 0.0 
0.0 0.0 -4.824543702220e+00 
-5.263554954273e+00 -1.653774798643e-02 0.0 
-1.653774798643e-02 -9.754671025228e+00 0.0 
0.0 0.0 -4.105467793850e+00 
-6.485680512966e+00 -1.457564510715e-01 0.0 
-1.457564510715e-01 -9.955801803871e+00 0.0 
0.0 0.0 -4.783506294195e+00 
-5.081287187194e+00 -3.990132526359e-02 0.0 
-3.990132526359e-02 -9.751275544448e+00 0.0 
0.0 0.0 -4.049768819493e+00 
-6.303087587535e+00 -1.800489919844e-01 0.0 
-1.800489919844e-01 -9.972102620179e+00 0.0 
0.0 0.0 -4.733858778586e+00 
-4.848490413621e+00 -5.639926761481e-02 0.0 
-5.639926761481e-02 -9.740670282132e+00 0.0 
0.0 0.0 -3.976748208726e+00 
-6.086817268759e+00 -2.121383114459e-01 0.0 
-2.121383114459e-01 -9.989085513964e+00 0.0 
0.0 0.0 -4.674961808456e+00 
-4.570975012188e+00 -6.932808869104e-02 0.0 
-6.932808869104e-02 -9.726091359039e+00 0.0 
0.0 0.0 -3.889119911368e+00 
-5.839205455302e+00 -2.431129035728e-01 0.0 
-2.431129035728e-01 -1.000672049913e+01 0.0 
0.0 0.0 -4.607247237704e+00 
-4.251739398034e+00 -8.042692716912e-02 0.0 
-8.042692716912e-02 -9.709119740553e+00 0.0 
0.0 0.0 -3.788257741576e+00 
-5.563614620730e+00 -2.735574537719e-01 0.0 
-2.735574537719e-01 -1.002511110379e+01 0.0 
0.0 0.0 -4.531630078961e+00 
-3.892306754987e+00 -9.057273688283e-02 0.0 
-9.057273688283e-02 -9.690489815999e+00 0.0 
0.0 0.0 -3.674838971296e+00 
-5.264262351331e+00 -3.037589494203e-01 0.0 
-3.037589494203e-01 -1.004442762777e+01 0.0 
0.0 0.0 -4.449359520631e+00 
-3.493535522744e+00 -1.001083703261e-01 0.0 
-1.001083703261e-01 -9.670548536733e+00 0.0 
0.0 0.0 -3.549225217843e+00 
-4.946465120968e+00 -3.337710065856e-01 0.0 
-3.337710065856e-01 -1.006488353499e+01 0.0 
0.0 0.0 -4.362038199476e+00 
-1.129903147757e+01 5.611220758906e+00 0.0 
5.611220758906e+00 -1.330196726654e+01 0.0 
0.0 0.0 -5.921153859311e+00 
-3.056312955660e+00 -1.088666318941e-01 0.0 
-1.088666318941e-01 -9.649616486566e+00 0.0 
0.0 0.0 -3.411778832668e+00 
-4.617062946561e+00 -3.631984048943e-01 0.0 
-3.631984048943e-01 -1.008658350013e+01 0.0 
0.0 0.0 -4.271740846346e+00 
-2.582396265308e+00 -1.162559312278e-01 0.0 
-1.162559312278e-01 -9.628049540740e+00 0.0 
0.0 0.0 -3.263133741814e+00 
-1.635656913875e+01 3.837676943935e+00 0.0 
3.837676943935e+00 -1.168119281901e+01 0.0 
0.0 0.0 -8.038472956763e+00 
-4.285145650704e+00 -3.912322919516e-01 0.0 
-3.912322919516e-01 -1.010964503719e+01 0.0 
0.0 0.0 -4.181234646911e+00 
-2.075148537835e+00 -1.213387942791e-01 0.0 
-1.213387942791e-01 -9.606072971083e+00 0.0 
0.0 0.0 -3.104366452676e+00 
-3.962588128291e+00 -4.165884387451e-01 0.0 
-4.165884387451e-01 -1.013405794785e+01 0.0 
0.0 0.0 -4.094173505634e+00 
-1.540118888987e+00 -1.231154063348e-01 0.0 
-1.231154063348e-01 -9.583727950711e+00 0.0 
0.0 0.0 -2.937154051909e+00 
-3.665126520328e+00 -4.379545860722e-01 0.0 
-4.379545860722e-01 -1.016033869526e+01 0.0 
0.0 0.0 -4.015356538633e+00 
1.733626340980e-01 1.497618221548e+00 0.0 
1.497618221548e+00 -5.655675680362e+00 0.0 
0.0 0.0 -4.434845702017e-01 
-9.857794109094e-01 -1.195998205208e-01 0.0 
-1.195998205208e-01 -9.561666838820e+00 0.0 
0.0 0.0 -2.764233874919e+00 
-3.412108975149e+00 -4.520790447074e-01 0.0 
-4.520790447074e-01 -1.018792676550e+01 0.0 
0.0 0.0 -3.951435033006e+00 
-4.257772334007e-01 -1.086486143544e-01 0.0 
-1.086486143544e-01 -9.540718703440e+00 0.0 
0.0 0.0 -2.589948781052e+00 
-3.228770230825e+00 -4.555022014061e-01 0.0 
-4.555022014061e-01 -1.021796036248e+01 0.0 
0.0 0.0 -3.909888290246e+00 
1.175030558954e-01 -8.318211932358e-02 0.0 
-8.318211932358e-02 -9.526234300758e+00 0.0 
0.0 0.0 -2.422619373459e+00 
-3.141363973425e+00 -4.354638624791e-01 0.0 
-4.354638624791e-01 -1.024604190440e+01 0.0 
0.0 0.0 -3.898279679335e+00 
6.007356707831e-01 -3.350814452235e-02 0.0 
-3.350814452235e-02 -9.526801122883e+00 0.0 
0.0 0.0 -2.277819635630e+00 
-3.183656482733e+00 -3.823218418103e-01 0.0 
-3.823218418103e-01 -1.029087731365e+01 0.0 
0.0 0.0 -3.928943996309e+00 
9.995894004264e-01 6.576570193193e-02 0.0 
6.576570193193e-02 -9.533687389692e+00 0.0 
0.0 0.0 -2.122410535841e+00 
-3.361871075894e+00 -2.680604101005e-01 0.0 
-2.680604101005e-01 -1.034141201625e+01 0.0 
0.0 0.0 -4.004803899830e+00 
9.967121487266e-01 1.856739903510e-01 0.0 
1.856739903510e-01 -9.485520124171e+00 0.0 
0.0 0.0 -1.905401107001e+00 
-3.754440311026e+00 -1.630682463808e-01 0.0 
-1.630682463808e-01 -1.049920007303e+01 0.0 
0.0 0.0 -4.166824197798e+00 
-2.420249011933e+01 1.061100985805e+01 0.0 
1.061100985805e+01 -1.403897535430e+01 0.0 
0.0 0.0 -1.006480621058e+01 
-4.461456796681e+00 -9.997089693954e-02 0.0 
-9.997089693954e-02 -1.060669281672e+01 0.0 
0.0 0.0 -4.426851948806e+00 
9.929197954412e-01 2.685158500518e-01 0.0 
2.685158500518e-01 -9.183429183433e+00 0.0 
0.0 0.0 -1.275610348676e+00 
-5.962064555870e+00 -2.121433797205e-01 0.0 
-2.121433797205e-01 -1.097779984195e+01 0.0 
0.0 0.0 -4.963340384928e+00 
9.960775013427e-01 1.973030961560e-01 0.0 
1.973030961560e-01 -8.924416845849e+00 0.0 
0.0 0.0 -8.717549352973e-01 
-8.438963701966e+00 -1.546424393758e-01 0.0 
-1.546424393758e-01 -1.093651566913e+01 0.0 
0.0 0.0 -5.746497568511e+00 
9.998564596870e-01 3.653444593947e-02 0.0 
3.653444593947e-02 -8.298891109210e+00 0.0 
0.0 0.0 3.038971396426e-01 
-1.099602161020e+01 7.980650273180e-01 0.0 
7.980650273180e-01 -1.095094466343e+01 0.0 
0.0 0.0 -6.379331951479e+00 
9.999647057871e-01 1.885087167986e-02 0.0 
1.885087167986e-02 -9.068374776743e+00 0.0 
0.0 0.0 -8.684177269856e-01 
-4.568373966969e-01 1.475300117134e+00 0.0 
1.475300117134e+00 -1.120922745533e+01 0.0 
0.0 0.0 -3.099819455607e+00 
-1.485877211116e+01 3.721758682070e+00 0.0 
3.721758682070e+00 1.265724994045e-01 0.0 
0.0 0.0 -3.836563182385e+00 
-6.416840037042e+00 1.476574351369e+00 0.0 
1.476574351369e+00 -1.022439873364e+01 0.0 
0.0 0.0 -4.546186655047e+00 
-6.692515914706e+00 -1.358151820647e+00 0.0 
-1.358151820647e+00 -8.441562394268e+00 0.0 
0.0 0.0 -4.140223492692e+00 
-8.526943662430e+00 1.826677792788e-01 0.0 
1.826677792788e-01 -1.449018790515e+01 0.0 
0.0 0.0 -6.505139470275e+00 
-4.497566495968e+00 -7.081259449017e-02 0.0 
-7.081259449017e-02 -4.286025510203e+00 0.0 
0.0 0.0 -2.235077601851e+00 
-2.593083232880e+01 1.164676246747e+01 0.0 
1.164676246747e+01 -1.180248334372e+01 0.0 
0.0 0.0 -1.062839390090e+01 
-1.544455957366e+01 3.080647700116e-01 0.0 
3.080647700116e-01 -3.121033866268e+01 0.0 
0.0 0.0 -1.359646947090e+01 
-1.438809653298e+01 -2.894858072767e-01 0.0 
-2.894858072767e-01 -2.935922254495e+01 0.0 
0.0 0.0 -1.272419572338e+01 
-1.463169956156e+01 1.890538233258e-02 0.0 
1.890538233258e-02 -2.942941884486e+01 0.0 
0.0 0.0 -1.281833552192e+01 
-1.421874480700e+01 -9.983070419673e-02 0.0 
-9.983070419673e-02 -2.921959800234e+01 0.0 
0.0 0.0 -1.263150284280e+01 
-1.450412479159e+01 -5.423349107783e-02 0.0 
-5.423349107783e-02 -2.933360044619e+01 0.0 
0.0 0.0 -1.275131757134e+01 
-1.411394508048e+01 -1.432469205944e-01 0.0 
-1.432469205944e-01 -2.922409063953e+01 0.0 
0.0 0.0 -1.260141071600e+01 
-1.441389965311e+01 -1.204584109699e-01 0.0 
-1.204584109699e-01 -2.934616883768e+01 0.0 
0.0 0.0 -1.272802054724e+01 
-1.401219470172e+01 -2.081004231811e-01 0.0 
-2.081004231811e-01 -2.923796556486e+01 0.0 
0.0 0.0 -1.257504807997e+01 
-1.432198236587e+01 -1.827832035212e-01 0.0 
-1.827832035212e-01 -2.936140136543e+01 0.0 
0.0 0.0 -1.270501511939e+01 
-1.389152785009e+01 -2.733105958423e-01 0.0 
-2.733105958423e-01 -2.924639459338e+01 0.0 
0.0 0.0 -1.254137673304e+01 
-1.422345387509e+01 -2.388551408609e-01 0.0 
-2.388551408609e-01 -2.937359632120e+01 0.0 
0.0 0.0 -1.267911505889e+01 
-1.374458051001e+01 -3.352169194166e-01 0.0 
-3.352169194166e-01 -2.924861989365e+01 0.0 
0.0 0.0 -1.249796012110e+01 
-1.411649733340e+01 -2.888965071800e-01 0.0 
-2.888965071800e-01 -2.938451304098e+01 0.0 
0.0 0.0 -1.265030311231e+01 
-1.356987340605e+01 -3.935835616731e-01 0.0 
-3.935835616731e-01 -2.924603396720e+01 0.0 
0.0 0.0 -1.244477221198e+01 
-1.400075881663e+01 -3.337649771148e-01 0.0 
-3.337649771148e-01 -2.939572521205e+01 0.0 
0.0 0.0 -1.261894520861e+01 
-1.336818410904e+01 -4.486877413687e-01 0.0 
-4.486877413687e-01 -2.924002850747e+01 0.0 
0.0 0.0 -1.238246378495e+01 
-1.387716493780e+01 -3.740395571764e-01 0.0 
-3.740395571764e-01 -2.940816087833e+01 0.0 
0.0 0.0 -1.258559774484e+01 
-1.314123919050e+01 -5.005147597672e-01 0.0 
-5.005147597672e-01 -2.923163877637e+01 0.0 
0.0 0.0 -1.231186339006e+01 
-1.374798631773e+01 -4.097734983800e-01 0.0 
-4.097734983800e-01 -2.942240002768e+01 0.0 
0.0 0.0 -1.255111590362e+01 
-1.289140979485e+01 -5.485502423784e-01 0.0 
-5.485502423784e-01 -2.922170480469e+01 0.0 
0.0 0.0 -1.223393437986e+01 
-2.114888521483e+01 6.282835831968e+00 0.0 
6.282835831968e+00 -3.439076810840e+01 0.0 
0.0 0.0 -1.555468764109e+01 
-1.361672550364e+01 -4.404412952485e-01 0.0 
-4.404412952485e-01 -2.943892281009e+01 0.0 
0.0 0.0 -1.251669449412e+01 
-1.262177908480e+01 -5.916465958267e-01 0.0 
-5.916465958267e-01 -2.921116615943e+01 0.0 
0.0 0.0 -1.214988357327e+01 
-1.348820818161e+01 -4.648551145190e-01 0.0 
-4.648551145190e-01 -2.945839553976e+01 0.0 
0.0 0.0 -1.248398111641e+01 
-1.511090168079e+01 4.097071594676e+00 0.0 
4.097071594676e+00 -2.743072785328e+01 0.0 
0.0 0.0 -1.203407662133e+01 
-1.233631288664e+01 -6.278044390103e-01 0.0 
-6.278044390103e-01 -2.920157896990e+01 0.0 
0.0 0.0 -1.206136755696e+01 
-1.336811634497e+01 -4.804190580216e-01 0.0 
-4.804190580216e-01 -2.948151577104e+01 0.0 
0.0 0.0 -1.245488963480e+01 
-2.394174163908e+01 4.209908630542e+00 0.0 
4.209908630542e+00 -3.137492033965e+01 0.0 
0.0 0.0 -1.538932152026e+01 
-1.204066715101e+01 -6.537448823421e-01 0.0 
-6.537448823421e-01 -2.919374871270e+01 0.0 
0.0 0.0 -1.197032475911e+01 
-1.326480145719e+01 -4.840261837152e-01 0.0 
-4.840261837152e-01 -2.950888289885e+01 0.0 
0.0 0.0 -1.243210530681e+01 
-1.174265814538e+01 -6.652323320784e-01 0.0 
-6.652323320784e-01 -2.918948881108e+01 0.0 
0.0 0.0 -1.187964408694e+01 
-1.318901189010e+01 -4.703819939445e-01 0.0 
-4.703819939445e-01 -2.954094605956e+01 0.0 
0.0 0.0 -1.241898738490e+01 
-1.145406360499e+01 -6.566280708329e-01 0.0 
-6.566280708329e-01 -2.918805358864e+01 0.0 
0.0 0.0 -1.179263515809e+01 
-1.315802430142e+01 -4.364108523925e-01 0.0 
-4.364108523925e-01 -2.957927699661e+01 0.0 
0.0 0.0 -1.242119038941e+01 
-1.118841741966e+01 -6.216751089496e-01 0.0 
-6.216751089496e-01 -2.919694624526e+01 0.0 
0.0 0.0 -1.171560909948e+01 
-1.318617887611e+01 -3.707039808144e-01 0.0 
-3.707039808144e-01 -2.962478523340e+01 0.0 
0.0 0.0 -1.244328923285e+01 
-1.096675112443e+01 -5.509285724736e-01 0.0 
-5.509285724736e-01 -2.920970566583e+01 0.0 
0.0 0.0 -1.165293703708e+01 
-2.705237782044e+01 7.639654695158e+00 0.0 
7.639654695158e+00 -3.531192291080e+01 0.0 
0.0 0.0 -1.729279915156e+01 
-1.330804980580e+01 -2.755123184810e-01 0.0 
-2.755123184810e-01 -2.968457519250e+01 0.0 
0.0 0.0 -1.249778749949e+01 
-1.080260524333e+01 -4.369504023960e-01 0.0 
-4.369504023960e-01 -2.925256462933e+01 0.0 
0.0 0.0 -1.161655096180e+01 
-1.353545128999e+01 -1.254275093115e-01 0.0 
-1.254275093115e-01 -2.976291782657e+01 0.0 
0.0 0.0 -1.258951073497e+01 
-1.071031978070e+01 -2.788747184611e-01 0.0 
-2.788747184611e-01 -2.927265248449e+01 0.0 
0.0 0.0 -1.159489167956e+01 
-1.064997148091e+01 -7.869113370168e-02 0.0 
-7.869113370168e-02 -2.935452550263e+01 0.0 
0.0 0.0 -1.160134909506e+01 
-1.397407777921e+01 3.890572463413e-02 0.0 
3.890572463413e-02 -2.987775454187e+01 0.0 
0.0 0.0 -1.275554969632e+01 
-1.064193235232e+01 1.612784936461e-01 0.0 
1.612784936461e-01 -2.923676747350e+01 0.0 
0.0 0.0 -1.156360994775e+01 
-1.472276598722e+01 3.208063085064e-01 0.0 
3.208063085064e-01 -2.995477393742e+01 0.0 
0.0 0.0 -1.292293687376e+01 
-1.079268793562e+01 6.321083252119e-01 0.0 
6.321083252119e-01 -2.943432587318e+01 0.0 
0.0 0.0 -1.166810414264e+01 
-1.604794349737e+01 6.199497270531e-01 0.0 
6.199497270531e-01 -2.997337974123e+01 0.0 
0.0 0.0 -1.321325723492e+01 
-1.154074130469e+01 1.274993374085e+00 0.0 
1.274993374085e+00 -2.920524424006e+01 0.0 
0.0 0.0 -1.182379566342e+01 
-1.335380307046e+01 2.911392210218e+00 0.0 
2.911392210218e+00 -3.079534025930e+01 0.0 
0.0 0.0 -1.284474299893e+01 
-1.780689695953e+01 1.378237625707e+00 0.0 
1.378237625707e+00 -2.992676582404e+01 0.0 
0.0 0.0 -1.341872184377e+01 
-2.020697680579e+01 2.091874862813e+00 0.0 
2.091874862813e+00 -3.004690750892e+01 0.0 
0.0 0.0 -1.420350584988e+01 
-2.214853382435e+01 5.290066940453e+00 0.0 
5.290066940453e+00 -2.502629359272e+01 0.0 
0.0 0.0 -1.265066933260e+01 
-1.527838447570e+01 1.467002726752e+00 0.0 
1.467002726752e+00 -2.911862974281e+01 0.0 
0.0 0.0 -1.291910426555e+01 
-1.494446422799e+01 -1.407951536952e+00 0.0 
-1.407951536952e+00 -3.109046464322e+01 0.0 
0.0 0.0 -1.341047866136e+01 
-1.301457238403e+01 1.641513640633e-01 0.0 
1.641513640633e-01 -2.496132158890e+01 0.0 
0.0 0.0 -1.099276819188e+01 
-1.713901717285e+01 -1.454907924117e-01 0.0 
-1.454907924117e-01 -3.511805169154e+01 0.0 
0.0 0.0 -1.527712065932e+01 
-2.254372412217e+01 8.539589820857e+00 0.0 
8.539589820857e+00 -2.928853009525e+01 0.0 
0.0 0.0 -1.360438247774e+01 
-2.231894957038e+01 1.790054183490e-01 0.0 
1.790054183490e-01 -4.725058198835e+01 0.0 
0.0 0.0 -2.047085946762e+01 
-2.326295909640e+01 -3.624152519224e-01 0.0 
-3.624152519224e-01 -4.893867381757e+01 0.0 
0.0 0.0 -2.126048987419e+01 
-2.294757122245e+01 -9.658450028490e-02 0.0 
-9.658450028490e-02 -4.883311938694e+01 0.0 
0.0 0.0 -2.113420718282e+01 
-2.328871130962e+01 -2.032422935166e-01 0.0 
-2.032422935166e-01 -4.904370088673e+01 0.0 
0.0 0.0 -2.129972365890e+01 
-2.288076850322e+01 -1.479678041696e-01 0.0 
-1.479678041696e-01 -4.887910243998e+01 0.0 
0.0 0.0 -2.112796128296e+01 
-2.325328286644e+01 -2.519509616865e-01 0.0 
-2.519509616865e-01 -4.906258813300e+01 0.0 
0.0 0.0 -2.129476129983e+01 
-2.278312495527e+01 -2.020617858345e-01 0.0 
-2.020617858345e-01 -4.887436120938e+01 0.0 
0.0 0.0 -2.109724584940e+01 
-2.320788193592e+01 -3.184853786360e-01 0.0 
-3.184853786360e-01 -4.908315696998e+01 0.0 
0.0 0.0 -2.128731167177e+01 
-2.268654150429e+01 -2.639920557849e-01 0.0 
-2.639920557849e-01 -4.887870602174e+01 0.0 
0.0 0.0 -2.106957425781e+01 
-2.315909576737e+01 -3.892630536114e-01 0.0 
-3.892630536114e-01 -4.910341595600e+01 0.0 
0.0 0.0 -2.127875351701e+01 
-2.258526895181e+01 -3.267236338384e-01 0.0 
-3.267236338384e-01 -4.888449816688e+01 0.0 
0.0 0.0 -2.104093013561e+01 
-2.310942693054e+01 -4.598035429151e-01 0.0 
-4.598035429151e-01 -4.912181007222e+01 0.0 
0.0 0.0 -2.126937110083e+01 
-2.247509560089e+01 -3.862837579906e-01 0.0 
-3.862837579906e-01 -4.888790899846e+01 0.0 
0.0 0.0 -2.100890137981e+01 
-2.306058077156e+01 -5.278213192265e-01 0.0 
-5.278213192265e-01 -4.913880225099e+01 0.0 
0.0 0.0 -2.125981490676e+01 
-2.235491630224e+01 -4.408731690438e-01 0.0 
-4.408731690438e-01 -4.888875934514e+01 0.0 
0.0 0.0 -2.097310269422e+01 
-2.301359506520e+01 -5.917613040323e-01 0.0 
-5.917613040323e-01 -4.915522973540e+01 0.0 
0.0 0.0 -2.125064744018e+01 
-2.222587340673e+01 -4.892876874601e-01 0.0 
-4.892876874601e-01 -4.888848063918e+01 0.0 
0.0 0.0 -2.093430621377e+01 
-2.297046361217e+01 -6.499695243924e-01 0.0 
-6.499695243924e-01 -4.917188475519e+01 0.0 
0.0 0.0 -2.124270451021e+01 
-2.209067293946e+01 -5.302328059090e-01 0.0 
-5.302328059090e-01 -4.888866881172e+01 0.0 
0.0 0.0 -2.089380252535e+01 
-2.908538840165e+01 5.749217177248e+00 0.0 
5.749217177248e+00 -5.321682559447e+01 0.0 
0.0 0.0 -2.429066419884e+01 
-2.293433318530e+01 -7.005337296214e-01 0.0 
-7.005337296214e-01 -4.918957289434e+01 0.0 
0.0 0.0 -2.123717182389e+01 
-2.195340613772e+01 -5.618338355192e-01 0.0 
-5.618338355192e-01 -4.889117762294e+01 0.0 
0.0 0.0 -2.085337512820e+01 
-2.291034851220e+01 -7.409446613227e-01 0.0 
-7.409446613227e-01 -4.920940895783e+01 0.0 
0.0 0.0 -2.123592724101e+01 
-2.959594807127e+01 3.888628479538e+00 0.0 
3.888628479538e+00 -5.063791801064e+01 0.0 
0.0 0.0 -2.367015982457e+01 
-2.181947480957e+01 -5.814836391543e-01 0.0 
-5.814836391543e-01 -4.889801767167e+01 0.0 
0.0 0.0 -2.081524774437e+01 
-2.290561752938e+01 -7.681850596554e-01 0.0 
-7.681850596554e-01 -4.923350237887e+01 0.0 
0.0 0.0 -2.124173597247e+01 
-2.169585887226e+01 -5.849840494982e-01 0.0 
-5.849840494982e-01 -4.891291500139e+01 0.0 
0.0 0.0 -2.078263216210e+01 
-2.292411203396e+01 -7.760741938156e-01 0.0 
-7.760741938156e-01 -4.926234561188e+01 0.0 
0.0 0.0 -2.125593729375e+01 
-2.159215913107e+01 -5.663043356249e-01 0.0 
-5.663043356249e-01 -4.893938413790e+01 0.0 
0.0 0.0 -2.075946298069e+01 
-2.575528876536e+01 4.320673522238e+00 0.0 
4.320673522238e+00 -4.657155159679e+01 0.0 
0.0 0.0 -2.129805210864e+01 
-2.297883618895e+01 -7.576792443290e-01 0.0 
-7.576792443290e-01 -4.929862471093e+01 0.0 
0.0 0.0 -2.128323826996e+01 
-2.152083481080e+01 -5.173483433661e-01 0.0 
-5.173483433661e-01 -4.898186620786e+01 0.0 
0.0 0.0 -2.075081030560e+01 
-2.307494561239e+01 -7.010940815630e-01 0.0 
-7.010940815630e-01 -4.934007724953e+01 0.0 
0.0 0.0 -2.132450685857e+01 
-2.149846075493e+01 -4.294987871776e-01 0.0 
-4.294987871776e-01 -4.904029538814e+01 0.0 
0.0 0.0 -2.076162684292e+01 
-2.325136991818e+01 -6.019454312282e-01 0.0 
-6.019454312282e-01 -4.939861577751e+01 0.0 
0.0 0.0 -2.139499570871e+01 
-2.154521210887e+01 -2.895695101238e-01 0.0 
-2.895695101238e-01 -4.912919610984e+01 0.0 
0.0 0.0 -2.080232246561e+01 
-2.348741871037e+01 -4.333555838665e-01 0.0 
-4.333555838665e-01 -4.946057513301e+01 0.0 
0.0 0.0 -2.148439815301e+01 
-2.168733557620e+01 -8.658422044510e-02 0.0 
-8.658422044510e-02 -4.923624199008e+01 0.0 
0.0 0.0 -2.087707326988e+01 
-2.388975919119e+01 -2.062731658566e-01 0.0 
-2.062731658566e-01 -4.956730065512e+01 0.0 
0.0 0.0 -2.163711795389e+01 
-2.195872790996e+01 2.039898803407e-01 0.0 
2.039898803407e-01 -4.941722993984e+01 0.0 
0.0 0.0 -2.101278735494e+01 
-2.432693403313e+01 1.643909502583e-01 0.0 
1.643909502583e-01 -4.964133683768e+01 0.0 
0.0 0.0 -2.179048126124e+01 
-3.332964581288e+01 6.146766761876e+00 0.0 
6.146766761876e+00 -5.425247604387e+01 0.0 
0.0 0.0 -2.587463655703e+01 
-2.515595391445e+01 5.804018955076e-01 0.0 
5.804018955076e-01 -4.983358339342e+01 0.0 
0.0 0.0 -2.209686119236e+01 
-2.241415468983e+01 5.931645896571e-01 0.0 
5.931645896571e-01 -4.957126733332e+01 0.0 
0.0 0.0 -2.119562660694e+01 
-2.578507969909e+01 1.394212706282e+00 0.0 
1.394212706282e+00 -4.979779858995e+01 0.0 
0.0 0.0 -2.227486348671e+01 
-2.302119345960e+01 1.158799242682e+00 0.0 
1.158799242682e+00 -4.994179280980e+01 0.0 
0.0 0.0 -2.148889588082e+01 
-2.754216442834e+01 2.097128619330e+00 0.0 
2.097128619330e+00 -5.024449515991e+01 0.0 
0.0 0.0 -2.293599787648e+01 
-2.400747093774e+01 1.947026579346e+00 0.0 
1.947026579346e+00 -5.004104404808e+01 0.0 
0.0 0.0 -2.181455449575e+01 
-2.525191151840e+01 3.192514203656e+00 0.0 
3.192514203656e+00 -5.117315545032e+01 0.0 
0.0 0.0 -2.252752009062e+01 
-2.866524311869e+01 4.826987583123e+00 0.0 
4.826987583123e+00 -4.426941073231e+01 0.0 
0.0 0.0 -2.148039615530e+01 
-2.276598622644e+01 1.435694637594e+00 0.0 
1.435694637594e+00 -4.949131451782e+01 0.0 
0.0 0.0 -2.127719022328e+01 
-2.310600788747e+01 -1.494705585143e+00 0.0 
-1.494705585143e+00 -4.749567832744e+01 0.0 
0.0 0.0 -2.078050586448e+01 
-2.520226793403e+01 1.088099171130e-01 0.0 
1.088099171130e-01 -5.360670343796e+01 0.0 
0.0 0.0 -2.324269141160e+01 
-2.073391696914e+01 -2.064373548946e-01 0.0 
-2.064373548946e-01 -4.350615121622e+01 0.0 
0.0 0.0 -1.887202045561e+01 
-2.867300599872e+01 7.219359107641e+00 0.0 
7.219359107641e+00 -4.757633687673e+01 0.0 
0.0 0.0 -2.236470299917e+01 
-3.264204825748e+01 1.894514574148e-01 0.0 
1.894514574148e-01 -7.034416161738e+01 0.0 
0.0 0.0 -3.049586296246e+01 
-3.164617205945e+01 -3.980877899943e-01 0.0 
-3.980877899943e-01 -6.849950406469e+01 0.0 
0.0 0.0 -2.964370283724e+01 
-3.191888007950e+01 -1.232678553608e-01 0.0 
-1.232678553608e-01 -6.858179095705e+01 0.0 
0.0 0.0 -2.975020131096e+01 
-3.155832016075e+01 -2.401317705715e-01 0.0 
-2.401317705715e-01 -6.833945487270e+01 0.0 
0.0 0.0 -2.956933251003e+01 
-3.187338288869e+01 -1.976977186458e-01 0.0 
-1.976977186458e-01 -6.846546442710e+01 0.0 
0.0 0.0 -2.970165419474e+01 
-3.150664753989e+01 -2.903750944115e-01 0.0 
-2.903750944115e-01 -6.832043903773e+01 0.0 
0.0 0.0 -2.954812597329e+01 
-3.186133731569e+01 -2.623052199146e-01 0.0 
-2.623052199146e-01 -6.846325591011e+01 0.0 
0.0 0.0 -2.969737796774e+01 
-3.145280320476e+01 -3.577598642499e-01 0.0 
-3.577598642499e-01 -6.832130659726e+01 0.0 
0.0 0.0 -2.953223294061e+01 
-3.185331711231e+01 -3.274979718453e-01 0.0 
-3.274979718453e-01 -6.847962699125e+01 0.0 
0.0 0.0 -2.969988323107e+01 
-3.139809444135e+01 -4.288395731717e-01 0.0 
-4.288395731717e-01 -6.832774619528e+01 0.0 
0.0 0.0 -2.951775219099e+01 
-3.185101753976e+01 -3.904990288194e-01 0.0 
-3.904990288194e-01 -6.850112618733e+01 0.0 
0.0 0.0 -2.970564311813e+01 
-3.134363723600e+01 -4.987540123218e-01 0.0 
-4.987540123218e-01 -6.833496745163e+01 0.0 
0.0 0.0 -2.950358140629e+01 
-3.185686929916e+01 -4.489330584904e-01 0.0 
-4.489330584904e-01 -6.852324645583e+01 0.0 
0.0 0.0 -2.971403472650e+01 
-3.129026454840e+01 -5.643852468985e-01 0.0 
-5.643852468985e-01 -6.834139773027e+01 0.0 
0.0 0.0 -2.948949868360e+01 
-3.187420910270e+01 -5.017030350912e-01 0.0 
-5.017030350912e-01 -6.854549703202e+01 0.0 
0.0 0.0 -2.972591184041e+01 
-3.123962509561e+01 -6.237115710346e-01 0.0 
-6.237115710346e-01 -6.834929980636e+01 0.0 
0.0 0.0 -2.947667747059e+01 
-3.190342641704e+01 -5.466411664545e-01 0.0 
-5.466411664545e-01 -6.856889569416e+01 0.0 
0.0 0.0 -2.974169663336e+01 
-3.119405337864e+01 -6.737987419297e-01 0.0 
-6.737987419297e-01 -6.836026087695e+01 0.0 
0.0 0.0 -2.946629427668e+01 
-3.716342575769e+01 4.665175361988e+00 0.0 
4.665175361988e+00 -7.293260661017e+01 0.0 
0.0 0.0 -3.262880971036e+01 
-3.194725832827e+01 -5.812095415474e-01 0.0 
-5.812095415474e-01 -6.859470691554e+01 0.0 
0.0 0.0 -2.976258957315e+01 
-3.115741664432e+01 -7.112147350360e-01 0.0 
-7.112147350360e-01 -6.837676763206e+01 0.0 
0.0 0.0 -2.946025528291e+01 
-3.201026092006e+01 -6.016074305012e-01 0.0 
-6.016074305012e-01 -6.862469277837e+01 0.0 
0.0 0.0 -2.979048610953e+01 
-3.438636031332e+01 3.539004671048e+00 0.0 
3.539004671048e+00 -6.621428555820e+01 0.0 
0.0 0.0 -2.978019376146e+01 
-3.113524459247e+01 -7.315784073175e-01 0.0 
-7.315784073175e-01 -6.840083314513e+01 0.0 
0.0 0.0 -2.946082332128e+01 
-3.768480975953e+01 3.223910824446e+00 0.0 
3.223910824446e+00 -7.073086015047e+01 0.0 
0.0 0.0 -3.212470097300e+01 
-3.210023746745e+01 -6.035930131775e-01 0.0 
-6.035930131775e-01 -6.866092377107e+01 0.0 
0.0 0.0 -2.982834837155e+01 
-3.113473374728e+01 -7.301385171196e-01 0.0 
-7.301385171196e-01 -6.843477355397e+01 0.0 
0.0 0.0 -2.947085219037e+01 
-3.222630862857e+01 -5.851772678104e-01 0.0 
-5.851772678104e-01 -6.870770244037e+01 0.0 
0.0 0.0 -2.988020332068e+01 
-3.116559276375e+01 -7.005525186391e-01 0.0 
-7.005525186391e-01 -6.849246731472e+01 0.0 
0.0 0.0 -2.949741802354e+01 
-3.238498963126e+01 -5.327706449679e-01 0.0 
-5.327706449679e-01 -6.876712200256e+01 0.0 
0.0 0.0 -2.994563349014e+01 
-3.123779431395e+01 -6.306632739906e-01 0.0 
-6.306632739906e-01 -6.856952700260e+01 0.0 
0.0 0.0 -2.954219639497e+01 
-3.259498567590e+01 -4.430742929457e-01 0.0 
-4.430742929457e-01 -6.884463108637e+01 0.0 
0.0 0.0 -3.003188502868e+01 
-3.136889612672e+01 -5.076468885149e-01 0.0 
-5.076468885149e-01 -6.869262844964e+01 0.0 
0.0 0.0 -2.961845737291e+01 
-4.073264338907e+01 4.875833132906e+00 0.0 
4.875833132906e+00 -7.393838711652e+01 0.0 
0.0 0.0 -3.400130915168e+01 
-3.285201165001e+01 -2.813112735610e-01 0.0 
-2.813112735610e-01 -6.893653432204e+01 0.0 
0.0 0.0 -3.013656379161e+01 
-3.157340761057e+01 -3.144132873319e-01 0.0 
-3.144132873319e-01 -6.881670372642e+01 0.0 
0.0 0.0 -2.971703340110e+01 
-3.322931306259e+01 -7.878557045950e-02 0.0 
-7.878557045950e-02 -6.906600982811e+01 0.0 
0.0 0.0 -3.028859686721e+01 
-3.188652046465e+01 -3.759883380808e-02 0.0 
-3.759883380808e-02 -6.905847922634e+01 0.0 
0.0 0.0 -2.988349990730e+01 
-3.231579942296e+01 3.508451615012e-01 0.0 
3.508451615012e-01 -6.922806119593e+01 0.0 
0.0 0.0 -3.006315818567e+01 
-3.363048882085e+01 2.718654357013e-01 0.0 
2.718654357013e-01 -6.920231322852e+01 0.0 
0.0 0.0 -3.044984061481e+01 
-3.294226907934e+01 8.778416895920e-01 0.0 
8.778416895920e-01 -6.974378527883e+01 0.0 
0.0 0.0 -3.040581630745e+01 
-3.430994067365e+01 6.219542494829e-01 0.0 
6.219542494829e-01 -6.943788178453e+01 0.0 
0.0 0.0 -3.072434673745e+01 
-3.373304881915e+01 1.582671824113e+00 0.0 
1.582671824113e+00 -6.984680483771e+01 0.0 
0.0 0.0 -3.067395609706e+01 
-3.491637616287e+01 2.572635655052e+00 0.0 
2.572635655052e+00 -7.110415700544e+01 0.0 
0.0 0.0 -3.140615995050e+01 
-3.479033703200e+01 1.347716638727e+00 0.0 
1.347716638727e+00 -6.959033582481e+01 0.0 
0.0 0.0 -3.091420185704e+01 
-3.623379937666e+01 1.834170387771e+00 0.0 
1.834170387771e+00 -7.009115173653e+01 0.0 
0.0 0.0 -3.149748533396e+01 
-3.642112928568e+01 4.147989119746e+00 0.0 
4.147989119746e+00 -6.419628927973e+01 0.0 
0.0 0.0 -2.978522556962e+01 
-3.216148026111e+01 1.445792011074e+00 0.0 
1.445792011074e+00 -6.820266253350e+01 0.0 
0.0 0.0 -2.970924283838e+01 
-3.183580584968e+01 -1.503312857009e+00 0.0 
-1.503312857009e+00 -7.010410219821e+01 0.0 
0.0 0.0 -3.018197241436e+01 
-2.967621491428e+01 9.869800063011e-02 0.0 
9.869800063011e-02 -6.404591305854e+01 0.0 
0.0 0.0 -2.771663839185e+01 
-3.425184839314e+01 -1.986133786706e-01 0.0 
-1.986133786706e-01 -7.412197943473e+01 0.0 
0.0 0.0 -3.211214834836e+01 
-3.645877374511e+01 5.677588960152e+00 0.0 
5.677588960152e+00 -6.665117791627e+01 0.0 
0.0 0.0 -3.053298549841e+01 
-3.948923730315e+01 1.956569409482e-01 0.0 
1.956569409482e-01 -8.632093605729e+01 0.0 
0.0 0.0 -3.734305200813e+01 
-4.049931575283e+01 -3.699118647627e-01 0.0 
-3.699118647627e-01 -8.805545628207e+01 0.0 
0.0 0.0 -3.816643161047e+01 
-4.022734150720e+01 -1.375757819812e-01 0.0 
-1.375757819812e-01 -8.796820095501e+01 0.0 
0.0 0.0 -3.805866273866e+01 
-4.057603551258e+01 -2.398168873734e-01 0.0 
-2.398168873734e-01 -8.815654646649e+01 0.0 
0.0 0.0 -3.821977459372e+01 
-4.025604692229e+01 -2.157522533357e-01 0.0 
-2.157522533357e-01 -8.802501383882e+01 0.0 
0.0 0.0 -3.808431822833e+01 
-4.060433973594e+01 -3.038958721999e-01 0.0 
-3.038958721999e-01 -8.816326095550e+01 0.0 
0.0 0.0 -3.823028020743e+01 
-4.024154704507e+01 -2.755972035127e-01 0.0 
-2.755972035127e-01 -8.801707861198e+01 0.0 
0.0 0.0 -3.807758769711e+01 
-4.063262954096e+01 -3.733273273607e-01 0.0 
-3.733273273607e-01 -8.817749464494e+01 0.0 
0.0 0.0 -3.824303725577e+01 
-4.022801093218e+01 -3.330559546273e-01 0.0 
-3.330559546273e-01 -8.802057923763e+01 0.0 
0.0 0.0 -3.807457705094e+01 
-4.066725808415e+01 -4.392526527850e-01 0.0 
-4.392526527850e-01 -8.819804740687e+01 0.0 
0.0 0.0 -3.825959164731e+01 
-4.022168443826e+01 -3.876787078217e-01 0.0 
-3.876787078217e-01 -8.803268228381e+01 0.0 
0.0 0.0 -3.807631001662e+01 
-4.070924619851e+01 -4.997526943203e-01 0.0 
-4.997526943203e-01 -8.822052369544e+01 0.0 
0.0 0.0 -3.827893096818e+01 
-4.022562932408e+01 -4.363103446297e-01 0.0 
-4.363103446297e-01 -8.805035318065e+01 0.0 
0.0 0.0 -3.808279475142e+01 
-4.076775239568e+01 -5.525143285435e-01 0.0 
-5.525143285435e-01 -8.824349330735e+01 0.0 
0.0 0.0 -3.830337371091e+01 
-4.024125295307e+01 -4.778679903686e-01 0.0 
-4.778679903686e-01 -8.806859934955e+01 0.0 
0.0 0.0 -3.809295569079e+01 
-4.084621390668e+01 -5.986598663568e-01 0.0 
-5.986598663568e-01 -8.826987975804e+01 0.0 
0.0 0.0 -3.833482809942e+01 
-4.027065371952e+01 -5.090474735733e-01 0.0 
-5.090474735733e-01 -8.809242606661e+01 0.0 
0.0 0.0 -3.810892393584e+01 
-4.550627583127e+01 3.912336866782e+00 0.0 
3.912336866782e+00 -9.260118285154e+01 0.0 
0.0 0.0 -4.103223760484e+01 
-4.094169214704e+01 -6.328293431169e-01 0.0 
-6.328293431169e-01 -8.830038531611e+01 0.0 
0.0 0.0 -3.837262323894e+01 
-4.031767621562e+01 -5.253133370872e-01 0.0 
-5.253133370872e-01 -8.812568198602e+01 0.0 
0.0 0.0 -3.813300746049e+01 
-4.606786620332e+01 2.492398011703e+00 0.0 
2.492398011703e+00 -9.070320134980e+01 0.0 
0.0 0.0 -4.063132026594e+01 
-4.105657919948e+01 -6.496766460416e-01 0.0 
-6.496766460416e-01 -8.833749500585e+01 0.0 
0.0 0.0 -3.841822226160e+01 
-4.038838099711e+01 -5.204066942639e-01 0.0 
-5.204066942639e-01 -8.817363962482e+01 0.0 
0.0 0.0 -3.816860618658e+01 
-4.120103282899e+01 -6.417821300515e-01 0.0 
-6.417821300515e-01 -8.838338564343e+01 0.0 
0.0 0.0 -3.847532554172e+01 
-4.048976411719e+01 -4.890867146788e-01 0.0 
-4.890867146788e-01 -8.823648595381e+01 0.0 
0.0 0.0 -3.821787502130e+01 
-4.138506517608e+01 -6.039638132092e-01 0.0 
-6.039638132092e-01 -8.843970465106e+01 0.0 
0.0 0.0 -3.854743094814e+01 
-4.306530362925e+01 2.878558665359e+00 0.0 
2.878558665359e+00 -8.603132832591e+01 0.0 
0.0 0.0 -3.832898958655e+01 
-4.062868610225e+01 -4.285656189837e-01 0.0 
-4.285656189837e-01 -8.831324987897e+01 0.0 
0.0 0.0 -3.828258079437e+01 
-4.162450205107e+01 -5.403472309126e-01 0.0 
-5.403472309126e-01 -8.852400640161e+01 0.0 
0.0 0.0 -3.864455253580e+01 
-4.081399413669e+01 -3.257351276279e-01 0.0 
-3.257351276279e-01 -8.843479918191e+01 0.0 
0.0 0.0 -3.837463799558e+01 
-4.187166504052e+01 -4.186394862796e-01 0.0 
-4.186394862796e-01 -8.862331247178e+01 0.0 
0.0 0.0 -3.874849325369e+01 
-4.105991852085e+01 -1.657160180278e-01 0.0 
-1.657160180278e-01 -8.859614105792e+01 0.0 
0.0 0.0 -3.849681787363e+01 
-4.221787976850e+01 -2.434886361248e-01 0.0 
-2.434886361248e-01 -8.877795301287e+01 0.0 
0.0 0.0 -3.889874983441e+01 
-4.138360855102e+01 7.735363893608e-02 0.0 
7.735363893608e-02 -8.884359375774e+01 0.0 
0.0 0.0 -3.866816069263e+01 
-4.252569864262e+01 6.412709560656e-02 0.0 
6.412709560656e-02 -8.891515268909e+01 0.0 
0.0 0.0 -3.903225539951e+01 
-4.180326903058e+01 4.036698160616e-01 0.0 
4.036698160616e-01 -8.907190708674e+01 0.0 
0.0 0.0 -3.886255283519e+01 
-4.315263679575e+01 3.833416361041e-01 0.0 
3.833416361041e-01 -8.920706841845e+01 0.0 
0.0 0.0 -3.930791156426e+01 
-4.854864904798e+01 3.734736841127e+00 0.0 
3.734736841127e+00 -9.379812950136e+01 0.0 
0.0 0.0 -4.230403356480e+01 
-4.346537092724e+01 1.014681461019e+00 0.0 
1.014681461019e+00 -8.936232468194e+01 0.0 
0.0 0.0 -3.944830868275e+01 
-4.234950635059e+01 8.650505621257e-01 0.0 
8.650505621257e-01 -8.954668746458e+01 0.0 
0.0 0.0 -3.916885814455e+01 
-4.477152729911e+01 1.425831228004e+00 0.0 
1.425831228004e+00 -8.999095612893e+01 0.0 
0.0 0.0 -4.002874502841e+01 
-4.302170859452e+01 1.428196033943e+00 0.0 
1.428196033943e+00 -8.976534026656e+01 0.0 
0.0 0.0 -3.943611465832e+01 
-4.389978233614e+01 2.226257115809e+00 0.0 
2.226257115809e+00 -9.084570820114e+01 0.0 
0.0 0.0 -4.002364716119e+01 
-4.452564832919e+01 3.243067032707e+00 0.0 
3.243067032707e+00 -8.450271807494e+01 0.0 
0.0 0.0 -3.830850992124e+01 
-3.994454033206e+01 1.455266646314e+00 0.0 
1.455266646314e+00 -8.849608467324e+01 0.0 
0.0 0.0 -3.813218750159e+01 
-4.027711476485e+01 -1.490924300730e+00 0.0 
-1.490924300730e+00 -8.655351599134e+01 0.0 
0.0 0.0 -3.764918922686e+01 
-4.242555714068e+01 1.129538031519e-01 0.0 
1.129538031519e-01 -9.263398477004e+01 0.0 
0.0 0.0 -4.011786257322e+01 
-3.786618641630e+01 -1.913694369707e-01 0.0 
-1.913694369707e-01 -8.255543482211e+01 0.0 
0.0 0.0 -3.572648637152e+01 
-4.423074003762e+01 4.341508851822e+00 0.0 
4.341508851822e+00 -8.600469746603e+01 0.0 
0.0 0.0 -3.867063125110e+01 
-4.986087525009e+01 2.246661284601e-01 0.0 
2.246661284601e-01 -1.093849440050e+02 0.0 
0.0 0.0 -4.737374577654e+01 
-4.886554179933e+01 -3.576559274821e-01 0.0 
-3.576559274821e-01 -1.075766503906e+02 0.0 
0.0 0.0 -4.653265765697e+01 
-4.917731353462e+01 -1.038780997643e-01 0.0 
-1.038780997643e-01 -1.076733370367e+02 0.0 
0.0 0.0 -4.665519517139e+01 
-4.883548996789e+01 -2.177569256825e-01 0.0 
-2.177569256825e-01 -1.074286068622e+02 0.0 
0.0 0.0 -4.647922904903e+01 
-4.919158858712e+01 -1.873450684332e-01 0.0 
-1.873450684332e-01 -1.075730488833e+02 0.0 
0.0 0.0 -4.662939124113e+01 
-4.885718004063e+01 -2.758347647558e-01 0.0 
-2.758347647558e-01 -1.074198883331e+02 0.0 
0.0 0.0 -4.648312051211e+01 
-4.923774544755e+01 -2.496796081383e-01 0.0 
-2.496796081383e-01 -1.075723626988e+02 0.0 
0.0 0.0 -4.664303244391e+01 
-4.888281266478e+01 -3.363506085480e-01 0.0 
-3.363506085480e-01 -1.074279219339e+02 0.0 
0.0 0.0 -4.649322037959e+01 
-4.930470847990e+01 -3.026800007345e-01 0.0 
-3.026800007345e-01 -1.075912105373e+02 0.0 
0.0 0.0 -4.666877570517e+01 
-4.891592481773e+01 -3.913148185616e-01 0.0 
-3.913148185616e-01 -1.074449364519e+02 0.0 
0.0 0.0 -4.650825838089e+01 
-4.938318756868e+01 -3.499241279528e-01 0.0 
-3.499241279528e-01 -1.076186143888e+02 0.0 
0.0 0.0 -4.670054058726e+01 
-4.896064204789e+01 -4.386291218558e-01 0.0 
-4.386291218558e-01 -1.074737806773e+02 0.0 
0.0 0.0 -4.653032681756e+01 
-4.947425245290e+01 -3.817547825391e-01 0.0 
-3.817547825391e-01 -1.076520730211e+02 0.0 
0.0 0.0 -4.673789764219e+01 
-4.902021918047e+01 -4.722744429572e-01 0.0 
-4.722744429572e-01 -1.074992491385e+02 0.0 
0.0 0.0 -4.655584049570e+01 
-4.959235872391e+01 -4.037836751243e-01 0.0 
-4.037836751243e-01 -1.076856236280e+02 0.0 
0.0 0.0 -4.678339470556e+01 
-4.909997957452e+01 -4.946799889189e-01 0.0 
-4.946799889189e-01 -1.075286663163e+02 0.0 
0.0 0.0 -4.658859376726e+01 
-5.351536684088e+01 3.180429127311e+00 0.0 
3.180429127311e+00 -1.119856763873e+02 0.0 
0.0 0.0 -4.925031296846e+01 
-4.974325033237e+01 -4.183215941928e-01 0.0 
-4.183215941928e-01 -1.077270038792e+02 0.0 
0.0 0.0 -4.684107626349e+01 
-4.920431223860e+01 -5.041285294128e-01 0.0 
-5.041285294128e-01 -1.075798321964e+02 0.0 
0.0 0.0 -4.663524333051e+01 
-5.136505078514e+01 2.351659392963e+00 0.0 
2.351659392963e+00 -1.053758442630e+02 0.0 
0.0 0.0 -4.662226851445e+01 
-4.989650161012e+01 -4.168551521653e-01 0.0 
-4.168551521653e-01 -1.077761431511e+02 0.0 
0.0 0.0 -4.690179342837e+01 
-4.933493511713e+01 -4.889766769337e-01 0.0 
-4.889766769337e-01 -1.076536588137e+02 0.0 
0.0 0.0 -4.669657817925e+01 
-5.422055172525e+01 1.967945815102e+00 0.0 
1.967945815102e+00 -1.101867400646e+02 0.0 
0.0 0.0 -4.892218753696e+01 
-5.007969171693e+01 -3.850008235810e-01 0.0 
-3.850008235810e-01 -1.078408910118e+02 0.0 
0.0 0.0 -4.697617481862e+01 
-4.949935607838e+01 -4.402521105580e-01 0.0 
-4.402521105580e-01 -1.077461398920e+02 0.0 
0.0 0.0 -4.677364879112e+01 
-5.030720009689e+01 -3.173476703450e-01 0.0 
-3.173476703450e-01 -1.079210527722e+02 0.0 
0.0 0.0 -4.706847586071e+01 
-4.970662897969e+01 -3.526302175790e-01 0.0 
-3.526302175790e-01 -1.078566868595e+02 0.0 
0.0 0.0 -4.686899475176e+01 
-5.057171210805e+01 -2.114715766683e-01 0.0 
-2.114715766683e-01 -1.080120179931e+02 0.0 
0.0 0.0 -4.717511903033e+01 
-4.996109697968e+01 -2.253308822753e-01 0.0 
-2.253308822753e-01 -1.079760612350e+02 0.0 
0.0 0.0 -4.698114746442e+01 
-5.613163541970e+01 2.895569126110e+00 0.0 
2.895569126110e+00 -1.131484173056e+02 0.0 
0.0 0.0 -5.038401581760e+01 
-5.091778521200e+01 -1.022856121540e-01 0.0 
-1.022856121540e-01 -1.081552376614e+02 0.0 
0.0 0.0 -4.732190686201e+01 
-5.028138180064e+01 -4.645113409125e-02 0.0 
-4.645113409125e-02 -1.082459849121e+02 0.0 
0.0 0.0 -4.715821001381e+01 
-5.119883931212e+01 1.328484802896e-01 0.0 
1.328484802896e-01 -1.083226789836e+02 0.0 
0.0 0.0 -4.745645548872e+01 
-5.065398159919e+01 2.234685282990e-01 0.0 
2.234685282990e-01 -1.084621906178e+02 0.0 
0.0 0.0 -4.733485166510e+01 
-5.113977496952e+01 6.024623519473e-01 0.0 
6.024623519473e-01 -1.090146641185e+02 0.0 
0.0 0.0 -4.764633172641e+01 
-5.167625098041e+01 3.528808957987e-01 0.0 
3.528808957987e-01 -1.085981672278e+02 0.0 
0.0 0.0 -4.768232546247e+01 
-5.167009375803e+01 1.100028659965e+00 0.0 
1.100028659965e+00 -1.090811346638e+02 0.0 
0.0 0.0 -4.782536852654e+01 
-5.191334375411e+01 9.242602851735e-01 0.0 
9.242602851735e-01 -1.087990199323e+02 0.0 
0.0 0.0 -4.781370910593e+01 
-5.238824050832e+01 1.696862486748e+00 0.0 
1.696862486748e+00 -1.101823537045e+02 0.0 
0.0 0.0 -4.837117826384e+01 
-5.313028331758e+01 1.147227179380e+00 0.0 
1.147227179380e+00 -1.093761621653e+02 0.0 
0.0 0.0 -4.835193364487e+01 
-5.233848074240e+01 2.762163100419e+00 0.0 
2.762163100419e+00 -1.040794796957e+02 0.0 
0.0 0.0 -4.652538813143e+01 
-4.939358580699e+01 1.461726418716e+00 0.0 
1.461726418716e+00 -1.072348500528e+02 0.0 
0.0 0.0 -4.658853075795e+01 
-4.906172444689e+01 -1.486477548646e+00 0.0 
-1.486477548646e+00 -1.091651159387e+02 0.0 
0.0 0.0 -4.706805211568e+01 
-4.690496934077e+01 1.127772875655e-01 0.0 
1.127772875655e-01 -1.030859465703e+02 0.0 
0.0 0.0 -4.459727477331e+01 
-5.147024300058e+01 -1.865868039371e-01 0.0 
-1.865868039371e-01 -1.131539637994e+02 0.0 
0.0 0.0 -4.898726204000e+01 
-5.233290689668e+01 3.539203542755e+00 0.0 
3.539203542755e+00 -1.053216296343e+02 0.0 
0.0 0.0 -4.689636095930e+01 
-5.673443652043e+01 2.491270611425e-01 0.0 
2.491270611425e-01 -1.254232536359e+02 0.0 
0.0 0.0 -5.424730704689e+01 
-5.767166139715e+01 -3.025869168713e-01 0.0 
-3.025869168713e-01 -1.271409757218e+02 0.0 
0.0 0.0 -5.504379113568e+01 
-5.750416921997e+01 -7.091545096872e-02 0.0 
-7.091545096872e-02 -1.271026669692e+02 0.0 
0.0 0.0 -5.498205085674e+01 
-5.780754664594e+01 -1.556516966764e-01 0.0 
-1.556516966764e-01 -1.272517066766e+02 0.0 
0.0 0.0 -5.511777599675e+01 
-5.758521156545e+01 -1.522739167317e-01 0.0 
-1.522739167317e-01 -1.271581691661e+02 0.0 
0.0 0.0 -5.502301421946e+01 
-5.785781123065e+01 -2.208330512206e-01 0.0 
-2.208330512206e-01 -1.272689401321e+02 0.0 
0.0 0.0 -5.513802540883e+01 
-5.764358446967e+01 -1.960822198570e-01 0.0 
-1.960822198570e-01 -1.271859870838e+02 0.0 
0.0 0.0 -5.504887146603e+01 
-5.795717904495e+01 -2.669799079665e-01 0.0 
-2.669799079665e-01 -1.272924742260e+02 0.0 
0.0 0.0 -5.517489598129e+01 
-5.770874828728e+01 -2.351548118557e-01 0.0 
-2.351548118557e-01 -1.272006367546e+02 0.0 
0.0 0.0 -5.507281551256e+01 
-5.805446891585e+01 -3.113456837564e-01 0.0 
-3.113456837564e-01 -1.273214695800e+02 0.0 
0.0 0.0 -5.521278154876e+01 
-5.778945424085e+01 -2.641359353079e-01 0.0 
-2.641359353079e-01 -1.272332366239e+02 0.0 
0.0 0.0 -5.510680725943e+01 
-5.817708853642e+01 -3.457292258811e-01 0.0 
-3.457292258811e-01 -1.273668268489e+02 0.0 
0.0 0.0 -5.526317461559e+01 
-5.788873305640e+01 -2.760353139234e-01 0.0 
-2.760353139234e-01 -1.272858610959e+02 0.0 
0.0 0.0 -5.515237824570e+01 
-5.828705298548e+01 -3.495055204219e-01 0.0 
-3.495055204219e-01 -1.274012173575e+02 0.0 
0.0 0.0 -5.530648110290e+01 
-5.801584026374e+01 -2.696628379518e-01 0.0 
-2.696628379518e-01 -1.273404138876e+02 0.0 
0.0 0.0 -5.520687624539e+01 
-6.173142515713e+01 2.742687469029e+00 0.0 
2.742687469029e+00 -1.313219287078e+02 0.0 
0.0 0.0 -5.751600615949e+01 
-5.848950391908e+01 -3.412107914646e-01 0.0 
-3.412107914646e-01 -1.274440136691e+02 0.0 
0.0 0.0 -5.538005527646e+01 
-6.243852716479e+01 1.547718817066e+00 0.0 
1.547718817066e+00 -1.298145796363e+02 0.0 
0.0 0.0 -5.727593204032e+01 
-5.816047193913e+01 -2.646817022490e-01 0.0 
-2.646817022490e-01 -1.273671876283e+02 0.0 
0.0 0.0 -5.525829787024e+01 
-5.866759902771e+01 -3.458845665942e-01 0.0 
-3.458845665942e-01 -1.275069732885e+02 0.0 
0.0 0.0 -5.545237169486e+01 
-5.833546314211e+01 -2.300557835995e-01 0.0 
-2.300557835995e-01 -1.274670533924e+02 0.0 
0.0 0.0 -5.534075496037e+01 
-5.885643493601e+01 -3.016397986159e-01 0.0 
-3.016397986159e-01 -1.275931860199e+02 0.0 
0.0 0.0 -5.553488628677e+01 
-5.854834376340e+01 -1.535236697854e-01 0.0 
-1.535236697854e-01 -1.276010791202e+02 0.0 
0.0 0.0 -5.544482686509e+01 
-5.911773258091e+01 -2.103075011173e-01 0.0 
-2.103075011173e-01 -1.277005612987e+02 0.0 
0.0 0.0 -5.564548816389e+01 
-5.974098289908e+01 1.899279457441e+00 0.0 
1.899279457441e+00 -1.248011278555e+02 0.0 
0.0 0.0 -5.496263322637e+01 
-5.880112798107e+01 -4.076726902685e-02 0.0 
-4.076726902685e-02 -1.277402178352e+02 0.0 
0.0 0.0 -5.556240374489e+01 
-5.940476718802e+01 -8.385706647379e-02 0.0 
-8.385706647379e-02 -1.278231909790e+02 0.0 
0.0 0.0 -5.576838745012e+01 
-5.910260650964e+01 1.181334513994e-01 0.0 
1.181334513994e-01 -1.279174382634e+02 0.0 
0.0 0.0 -5.570601343192e+01 
-5.969252815793e+01 1.095057564746e-01 0.0 
1.095057564746e-01 -1.279413775053e+02 0.0 
0.0 0.0 -5.589017169897e+01 
-5.945148853103e+01 3.025093518041e-01 0.0 
3.025093518041e-01 -1.280672120724e+02 0.0 
0.0 0.0 -5.585561018104e+01 
-6.022345517898e+01 2.336608646769e-01 0.0 
2.336608646769e-01 -1.282500598545e+02 0.0 
0.0 0.0 -5.614205451004e+01 
-5.986422065020e+01 5.861751188805e-01 0.0 
5.861751188805e-01 -1.285419021058e+02 0.0 
0.0 0.0 -5.612183682680e+01 
-6.030640124687e+01 6.574894892662e-01 0.0 
6.574894892662e-01 -1.284331984304e+02 0.0 
0.0 0.0 -5.622187990318e+01 
-6.145623922607e+01 8.590593700549e-01 0.0 
8.590593700549e-01 -1.290937433762e+02 0.0 
0.0 0.0 -5.676499478069e+01 
-6.033266579536e+01 9.473823967118e-01 0.0 
9.473823967118e-01 -1.287964684627e+02 0.0 
0.0 0.0 -5.633874027742e+01 
-6.415946560806e+01 2.259359531526e+00 0.0 
2.259359531526e+00 -1.326140872284e+02 0.0 
0.0 0.0 -5.863206585094e+01 
-6.088752589535e+01 1.465269840140e+00 0.0 
1.465269840140e+00 -1.297387782618e+02 0.0 
0.0 0.0 -5.678789124716e+01 
-6.047583649501e+01 2.180913974592e+00 0.0 
2.180913974592e+00 -1.236983750961e+02 0.0 
0.0 0.0 -5.485226347733e+01 
-5.714548582136e+01 1.469932194727e+00 0.0 
1.469932194727e+00 -1.275567471303e+02 0.0 
0.0 0.0 -5.501066988549e+01 
-5.747813336482e+01 -1.467786046474e+00 0.0 
-1.467786046474e+00 -1.256189318076e+02 0.0 
0.0 0.0 -5.452911955173e+01 
-5.960267178209e+01 1.264321066046e-01 0.0 
1.264321066046e-01 -1.317077244449e+02 0.0 
0.0 0.0 -5.699311886810e+01 
-5.510248681882e+01 -1.738674725084e-01 0.0 
-1.738674725084e-01 -1.216291993753e+02 0.0 
0.0 0.0 -5.261950585823e+01 
-6.038256904757e+01 2.812701993960e+00 0.0 
2.812701993960e+00 -1.245647804834e+02 0.0 
0.0 0.0 -5.508420485928e+01 
-6.685730274693e+01 3.092911858490e-01 0.0 
3.092911858490e-01 -1.485192220512e+02 0.0 
0.0 0.0 -6.421295743944e+01 
-6.605095822249e+01 -2.492002893112e-01 0.0 
-2.492002893112e-01 -1.466926683142e+02 0.0 
0.0 0.0 -6.342308796102e+01 
-6.635100409721e+01 2.379920855657e-02 0.0 
2.379920855657e-02 -1.467744602068e+02 0.0 
0.0 0.0 -6.353763929121e+01 
-6.606450339859e+01 -8.388220631123e-02 0.0 
-8.388220631123e-02 -1.465179390994e+02 0.0 
0.0 0.0 -6.337473274940e+01 
-6.636801322195e+01 -9.792811666088e-02 0.0 
-9.792811666088e-02 -1.466496321689e+02 0.0 
0.0 0.0 -6.350529361726e+01 
-6.614029077995e+01 -1.440538706895e-01 0.0 
-1.440538706895e-01 -1.465947257471e+02 0.0 
0.0 0.0 -6.342050495813e+01 
-6.642355663287e+01 -9.666784404946e-02 0.0 
-9.666784404946e-02 -1.466968826604e+02 0.0 
0.0 0.0 -6.353613178797e+01 
-6.622026695631e+01 -1.565861815625e-01 0.0 
-1.565861815625e-01 -1.465730126859e+02 0.0 
0.0 0.0 -6.343798389265e+01 
-6.661192674547e+01 -1.355996172320e-01 0.0 
-1.355996172320e-01 -1.467249874105e+02 0.0 
0.0 0.0 -6.360107424678e+01 
-6.633371760342e+01 -1.908221693082e-01 0.0 
-1.908221693082e-01 -1.466397165177e+02 0.0 
0.0 0.0 -6.349203023634e+01 
-6.670158953995e+01 -1.464489598313e-01 0.0 
-1.464489598313e-01 -1.467652217098e+02 0.0 
0.0 0.0 -6.364004337492e+01 
-6.645415570546e+01 -1.958980609023e-01 0.0 
-1.958980609023e-01 -1.466799835767e+02 0.0 
0.0 0.0 -6.354024178464e+01 
-6.690601459766e+01 -1.636076974447e-01 0.0 
-1.636076974447e-01 -1.468383670768e+02 0.0 
0.0 0.0 -6.372331450233e+01 
-6.989011894866e+01 2.322075934327e+00 0.0 
2.322075934327e+00 -1.505934335788e+02 0.0 
0.0 0.0 -6.574506575823e+01 
-6.660905521615e+01 -1.914045862217e-01 0.0 
-1.914045862217e-01 -1.468192225624e+02 0.0 
0.0 0.0 -6.362848333358e+01 
-6.702970936677e+01 -7.341119255537e-02 0.0 
-7.341119255537e-02 -1.468987784452e+02 0.0 
0.0 0.0 -6.377854634360e+01 
-6.786940090718e+01 1.553212641122e+00 0.0 
1.553212641122e+00 -1.440577872988e+02 0.0 
0.0 0.0 -6.317815646180e+01 
-6.677295809250e+01 -1.334464059648e-01 0.0 
-1.334464059648e-01 -1.467720734071e+02 0.0 
0.0 0.0 -6.366350944988e+01 
-6.727342771618e+01 -9.265854436656e-02 0.0 
-9.265854436656e-02 -1.469252445965e+02 0.0 
0.0 0.0 -6.385960169381e+01 
-7.048774090875e+01 1.284678610711e+00 0.0 
1.284678610711e+00 -1.490531222530e+02 0.0 
0.0 0.0 -6.546225894853e+01 
-6.698407981758e+01 -1.077857141198e-01 0.0 
-1.077857141198e-01 -1.469120951315e+02 0.0 
0.0 0.0 -6.376885248474e+01 
-6.745889175133e+01 -5.551990459851e-02 0.0 
-5.551990459851e-02 -1.470351536439e+02 0.0 
0.0 0.0 -6.394821361857e+01 
-6.722388083696e+01 -2.491529630569e-02 0.0 
-2.491529630569e-02 -1.471172264554e+02 0.0 
0.0 0.0 -6.390233218772e+01 
-6.771345864246e+01 8.223565808938e-02 0.0 
8.223565808938e-02 -1.471795494325e+02 0.0 
0.0 0.0 -6.406790242250e+01 
-6.749829468099e+01 1.169665434679e-01 0.0 
1.169665434679e-01 -1.472552061989e+02 0.0 
0.0 0.0 -6.402605026397e+01 
-7.222526668329e+01 1.853626801045e+00 0.0 
1.853626801045e+00 -1.518387153814e+02 0.0 
0.0 0.0 -6.681919461940e+01 
-6.805315684365e+01 2.164754757800e-01 0.0 
2.164754757800e-01 -1.473273952372e+02 0.0 
0.0 0.0 -6.421416562424e+01 
-6.782037894153e+01 2.853625203161e-01 0.0 
2.853625203161e-01 -1.474596184039e+02 0.0 
0.0 0.0 -6.418399920363e+01 
-6.819770026463e+01 5.282125501010e-01 0.0 
5.282125501010e-01 -1.477867790876e+02 0.0 
0.0 0.0 -6.439534380566e+01 
-6.834163909641e+01 3.793918810637e-01 0.0 
3.793918810637e-01 -1.475070620302e+02 0.0 
0.0 0.0 -6.435461033798e+01 
-6.857875574925e+01 7.908462332824e-01 0.0 
7.908462332824e-01 -1.477457611851e+02 0.0 
0.0 0.0 -6.449735508032e+01 
-6.850046235878e+01 7.275120893082e-01 0.0 
7.275120893082e-01 -1.476185031996e+02 0.0 
0.0 0.0 -6.443568966752e+01 
-6.910758915188e+01 1.128497902439e+00 0.0 
1.128497902439e+00 -1.489693035421e+02 0.0 
0.0 0.0 -6.502306780819e+01 
-6.951676182828e+01 6.381003862177e-01 0.0 
6.381003862177e-01 -1.481952223079e+02 0.0 
0.0 0.0 -6.491359524086e+01 
-6.862668470199e+01 1.848754731378e+00 0.0 
1.848754731378e+00 -1.431154047789e+02 0.0 
0.0 0.0 -6.312262684426e+01 
-6.658693653287e+01 1.431586139499e+00 0.0 
1.431586139499e+00 -1.462326959214e+02 0.0 
0.0 0.0 -6.344588973628e+01 
-6.621359907856e+01 -1.507463082789e+00 0.0 
-1.507463082789e+00 -1.483965288265e+02 0.0 
0.0 0.0 -6.398303837153e+01 
-6.409361259344e+01 9.993552864371e-02 0.0 
9.993552864371e-02 -1.421865863380e+02 0.0 
0.0 0.0 -6.148405967945e+01 
-6.860730429370e+01 -2.360061330521e-01 0.0 
-2.360061330521e-01 -1.522484767609e+02 0.0 
0.0 0.0 -6.585673431639e+01 
-6.841119170282e+01 2.272811426763e+00 0.0 
2.272811426763e+00 -1.437507968917e+02 0.0 
0.0 0.0 -6.324859657835e+01 
-7.391571525660e+01 4.491276225968e-01 0.0 
4.491276225968e-01 -1.649888512404e+02 0.0 
0.0 0.0 -7.127136994911e+01 
-7.488665911370e+01 -1.267620532247e-02 0.0 
-1.267620532247e-02 -1.662749785361e+02 0.0 
0.0 0.0 -7.194849129495e+01 
-7.467277599887e+01 3.490423611710e-02 0.0 
3.490423611710e-02 -1.661919279774e+02 0.0 
0.0 0.0 -7.185941119288e+01 
-7.474034821304e+01 -3.178723371146e-03 0.0 
-3.178723371146e-03 -1.663037672824e+02 0.0 
0.0 0.0 -7.191323464865e+01 
-7.479922585452e+01 -2.754555472378e-02 0.0 
-2.754555472378e-02 -1.663224616449e+02 0.0 
0.0 0.0 -7.193650624983e+01 
-7.490603468639e+01 -8.387624933184e-02 0.0 
-8.387624933184e-02 -1.664794838182e+02 0.0 
0.0 0.0 -7.201565555137e+01 
-7.492174262703e+01 3.425834300231e-02 0.0 
3.425834300231e-02 -1.665259833134e+02 0.0 
0.0 0.0 -7.203431778214e+01 
-7.513833456445e+01 3.282721689973e-02 0.0 
3.282721689973e-02 -1.664369701889e+02 0.0 
0.0 0.0 -7.207259142602e+01 
-7.503082704022e+01 -2.311056078673e-02 0.0 
-2.311056078673e-02 -1.663690880982e+02 0.0 
0.0 0.0 -7.201997454153e+01 
-7.521821348775e+01 -9.006248943339e-02 0.0 
-9.006248943339e-02 -1.665252281849e+02 0.0 
0.0 0.0 -7.212303250178e+01 
-7.518858524665e+01 1.740435989387e-02 0.0 
1.740435989387e-02 -1.665682116921e+02 0.0 
0.0 0.0 -7.212703908162e+01 
-7.535739007646e+01 5.016807558743e-03 0.0 
5.016807558743e-03 -1.665599880788e+02 0.0 
0.0 0.0 -7.217521344659e+01 
-7.799128962427e+01 2.171313154573e+00 0.0 
2.171313154573e+00 -1.699265904369e+02 0.0 
0.0 0.0 -7.397536401836e+01 
-7.536868856402e+01 3.868996818453e-02 0.0 
3.868996818453e-02 -1.665846063316e+02 0.0 
0.0 0.0 -7.218598846868e+01 
-7.792444519132e+01 1.022177304080e+00 0.0 
1.022177304080e+00 -1.683292165411e+02 0.0 
0.0 0.0 -7.347609851973e+01 
-7.589330926287e+01 -6.397823276267e-02 0.0 
-6.397823276267e-02 -1.667745887242e+02 0.0 
0.0 0.0 -7.240036939613e+01 
-7.553491585194e+01 9.093961793361e-02 0.0 
9.093961793361e-02 -1.667442602440e+02 0.0 
0.0 0.0 -7.228375282877e+01 
-7.564578704731e+01 1.215713573378e-01 0.0 
1.215713573378e-01 -1.666443246248e+02 0.0 
0.0 0.0 -7.228703350162e+01 
-7.574333587458e+01 1.318120478449e-01 0.0 
1.318120478449e-01 -1.666883636328e+02 0.0 
0.0 0.0 -7.232950985220e+01 
-7.592827515573e+01 7.833257573899e-02 0.0 
7.833257573899e-02 -1.668091177544e+02 0.0 
0.0 0.0 -7.242121787305e+01 
-7.601016543597e+01 2.501203170243e-01 0.0 
2.501203170243e-01 -1.669881255747e+02 0.0 
0.0 0.0 -7.249948730321e+01 
-7.634621804611e+01 2.189352068989e-01 0.0 
2.189352068989e-01 -1.670509638159e+02 0.0 
0.0 0.0 -7.261915455860e+01 
-7.605840882746e+01 1.336623042869e+00 0.0 
1.336623042869e+00 -1.634590653060e+02 0.0 
0.0 0.0 -7.145524224005e+01 
-7.630652808123e+01 4.178849722876e-01 0.0 
4.178849722876e-01 -1.672300447897e+02 0.0 
0.0 0.0 -7.266097186127e+01 
-7.665461613042e+01 4.400036779672e-01 0.0 
4.400036779672e-01 -1.671844049111e+02 0.0 
0.0 0.0 -7.275170631247e+01 
-7.662198565887e+01 5.783750687035e-01 0.0 
5.783750687035e-01 -1.673213291393e+02 0.0 
0.0 0.0 -7.278299443946e+01 
-7.706027103729e+01 5.546599448381e-01 0.0 
5.546599448381e-01 -1.673960283117e+02 0.0 
0.0 0.0 -7.293688980469e+01 
-7.748162832381e+01 7.052728497638e-01 0.0 
7.052728497638e-01 -1.677527862074e+02 0.0 
0.0 0.0 -7.317032435938e+01 
-7.695265534312e+01 7.570047965828e-01 0.0 
7.570047965828e-01 -1.675994332725e+02 0.0 
0.0 0.0 -7.296562658469e+01 
-7.730517525186e+01 1.067335759198e+00 0.0 
1.067335759198e+00 -1.681628332834e+02 0.0 
0.0 0.0 -7.324040256059e+01 
-8.028338791648e+01 1.581095637752e+00 0.0 
1.581095637752e+00 -1.712793087526e+02 0.0 
0.0 0.0 -7.506880900073e+01 
-7.670950006801e+01 1.547176953905e+00 0.0 
1.547176953905e+00 -1.625714783789e+02 0.0 
0.0 0.0 -7.138429353407e+01 
-7.412758219236e+01 1.303435602171e+00 0.0 
1.303435602171e+00 -1.662821723965e+02 0.0 
0.0 0.0 -7.172292637665e+01 
-7.434569015270e+01 -1.583808621159e+00 0.0 
-1.583808621159e+00 -1.650019241135e+02 0.0 
0.0 0.0 -7.140428427987e+01 
-7.634930810187e+01 -7.852935927334e-02 0.0 
-7.852935927334e-02 -1.707961667139e+02 0.0 
0.0 0.0 -7.374364244472e+01 
-7.221580188641e+01 -2.576321286899e-01 0.0 
-2.576321286899e-01 -1.606683044773e+02 0.0 
0.0 0.0 -6.946523190910e+01 
-7.651710748989e+01 1.982939660505e+00 0.0 
1.982939660505e+00 -1.631216442757e+02 0.0 
0.0 0.0 -7.149162552966e+01 

TENSORS element_materi_strain_total float
-6.355094042434e-04 9.084095022487e-04 0.0 
9.084095022487e-04 3.155960694038e-03 0.0 
0.0 0.0 0.0 
-7.170173001831e-04 9.806505790375e-04 0.0 
9.806505790375e-04 3.214321028459e-03 0.0 
0.0 0.0 0.0 
-9.020580086594e-05 7.684913103823e-04 0.0 
7.684913103823e-04 8.188065318387e-03 0.0 
0.0 0.0 0.0 
-1.176510653783e-04 6.218821996125e-05 0.0 
6.218821996125e-05 8.687989234412e-03 0.0 
0.0 0.0 0.0 
-4.007750885886e-04 1.084870911263e-04 0.0 
1.084870911263e-04 5.920652239539e-03 0.0 
0.0 0.0 0.0 
1.177173078443e-03 2.741835255334e-03 0.0 
2.741835255334e-03 -3.477730716542e-03 0.0 
0.0 0.0 0.0 
-3.691686701436e-04 8.917861127553e-05 0.0 
8.917861127553e-05 5.933251645791e-03 0.0 
0.0 0.0 0.0 
-7.200769967383e-04 1.188454380432e-03 0.0 
1.188454380432e-03 2.919770434176e-03 0.0 
0.0 0.0 0.0 
-4.040284379094e-04 1.593963316425e-05 0.0 
1.593963316425e-05 5.941164152043e-03 0.0 
0.0 0.0 0.0 
-1.101014241790e-04 1.745052093773e-04 0.0 
1.745052093773e-04 8.647498674669e-03 0.0 
0.0 0.0 0.0 
-4.244301720784e-04 -9.103505377622e-05 0.0 
-9.103505377622e-05 5.067492007094e-03 0.0 
0.0 0.0 0.0 
-7.167857521680e-04 1.004809214925e-03 0.0 
1.004809214925e-03 2.896728748374e-03 0.0 
0.0 0.0 0.0 
-1.404286853594e-04 -5.826238351579e-05 0.0 
-5.826238351579e-05 7.176514977265e-03 0.0 
0.0 0.0 0.0 
-4.464172741314e-04 2.195210747775e-04 0.0 
2.195210747775e-04 6.220799445025e-03 0.0 
0.0 0.0 0.0 
-8.070217171874e-05 -1.432664244127e-04 0.0 
-1.432664244127e-04 7.297456508287e-03 0.0 
0.0 0.0 0.0 
-7.275911915827e-05 1.451281013723e-04 0.0 
1.451281013723e-04 8.834318678063e-03 0.0 
0.0 0.0 0.0 
-4.491527799888e-04 1.086128998667e-04 0.0 
1.086128998667e-04 5.813399606613e-03 0.0 
0.0 0.0 0.0 
1.483002419600e-03 1.400382820889e-03 0.0 
1.400382820889e-03 -3.815143213883e-03 0.0 
0.0 0.0 0.0 
-3.313024419005e-05 -5.172271914831e-05 0.0 
-5.172271914831e-05 1.499949225601e-03 0.0 
0.0 0.0 0.0 
-1.619746474504e-04 -6.121655180624e-05 0.0 
-6.121655180624e-05 1.606950153732e-03 0.0 
0.0 0.0 0.0 
-1.314468342988e-04 1.181388663087e-04 0.0 
1.181388663087e-04 8.657135231191e-03 0.0 
0.0 0.0 0.0 
-6.114557822972e-04 6.848762199633e-04 0.0 
6.848762199633e-04 3.621229973000e-03 0.0 
0.0 0.0 0.0 
-6.516347622351e-04 7.388423257287e-04 0.0 
7.388423257287e-04 3.735381835843e-03 0.0 
0.0 0.0 0.0 
3.893646795283e-04 4.709478181291e-05 0.0 
4.709478181291e-05 5.866385041480e-03 0.0 
0.0 0.0 0.0 
-4.430455055868e-04 3.272965710628e-04 0.0 
3.272965710628e-04 6.517177273268e-03 0.0 
0.0 0.0 0.0 
-4.168963637934e-04 -1.371262736557e-04 0.0 
-1.371262736557e-04 5.275869553875e-03 0.0 
0.0 0.0 0.0 
-5.299143401640e-04 2.228792294617e-04 0.0 
2.228792294617e-04 5.376215813113e-03 0.0 
0.0 0.0 0.0 
9.319437158584e-05 9.674542374212e-04 0.0 
9.674542374212e-04 7.218831814178e-03 0.0 
0.0 0.0 0.0 
-4.962630783154e-04 2.917989928855e-04 0.0 
2.917989928855e-04 6.520328230070e-03 0.0 
0.0 0.0 0.0 
3.122797206636e-04 5.394501181240e-05 0.0 
5.394501181240e-05 6.140079623512e-03 0.0 
0.0 0.0 0.0 
9.823727524036e-04 -2.381046727591e-03 0.0 
-2.381046727591e-03 -2.232385793820e-03 0.0 
0.0 0.0 0.0 
2.173019964731e-04 -9.833960534520e-05 0.0 
-9.833960534520e-05 2.922973417872e-04 0.0 
0.0 0.0 0.0 
-1.650842161800e-04 7.983986986565e-04 0.0 
7.983986986565e-04 8.238303568363e-03 0.0 
0.0 0.0 0.0 
-3.082230985212e-04 -6.186451721572e-05 0.0 
-6.186451721572e-05 6.243168874497e-03 0.0 
0.0 0.0 0.0 
8.636449323562e-05 -2.758185689859e-04 0.0 
-2.758185689859e-04 6.630693385986e-03 0.0 
0.0 0.0 0.0 
-4.734743738566e-05 -2.013435164742e-04 0.0 
-2.013435164742e-04 7.307023929458e-03 0.0 
0.0 0.0 0.0 
-1.519576907616e-05 -3.100330413509e-04 0.0 
-3.100330413509e-04 7.300290705362e-03 0.0 
0.0 0.0 0.0 
2.949739200058e-04 5.691317668117e-04 0.0 
5.691317668117e-04 6.381379482779e-03 0.0 
0.0 0.0 0.0 
-3.760078227567e-04 -2.804085438877e-05 0.0 
-2.804085438877e-05 5.528785546838e-03 0.0 
0.0 0.0 0.0 
-3.566460552276e-04 7.019657463613e-05 0.0 
7.019657463613e-05 5.544752904837e-03 0.0 
0.0 0.0 0.0 
-6.285783735643e-04 5.620918965362e-04 0.0 
5.620918965362e-04 4.278935652566e-03 0.0 
0.0 0.0 0.0 
1.026907052182e-04 -1.564554221588e-04 0.0 
-1.564554221588e-04 6.601915314254e-03 0.0 
0.0 0.0 0.0 
-7.089732444936e-04 1.355389797694e-03 0.0 
1.355389797694e-03 2.321662589974e-03 0.0 
0.0 0.0 0.0 
-5.288880111053e-04 2.323658574252e-04 0.0 
2.323658574252e-04 5.389122224095e-03 0.0 
0.0 0.0 0.0 
-1.600602668977e-04 1.732285126793e-05 0.0 
1.732285126793e-05 8.478956472564e-03 0.0 
0.0 0.0 0.0 
-9.243197073968e-04 1.617662075796e-03 0.0 
1.617662075796e-03 2.345999958445e-03 0.0 
0.0 0.0 0.0 
1.000481933424e-03 -2.268814867051e-03 0.0 
-2.268814867051e-03 -2.899763127185e-03 0.0 
0.0 0.0 0.0 
-1.047015999851e-04 5.803311786842e-05 0.0 
5.803311786842e-05 8.507983818578e-03 0.0 
0.0 0.0 0.0 
-2.398836554303e-04 -2.015965430262e-03 0.0 
-2.015965430262e-03 -1.260917304987e-03 0.0 
0.0 0.0 0.0 
-4.783607980202e-04 1.435554018788e-04 0.0 
1.435554018788e-04 6.061159680965e-03 0.0 
0.0 0.0 0.0 
-6.395597369797e-04 6.488755734588e-04 0.0 
6.488755734588e-04 4.006554650457e-03 0.0 
0.0 0.0 0.0 
-1.696475651323e-04 -5.279586968896e-05 0.0 
-5.279586968896e-05 1.965642757405e-03 0.0 
0.0 0.0 0.0 
1.674010503028e-03 -1.997600578647e-03 0.0 
-1.997600578647e-03 -2.768647110524e-03 0.0 
0.0 0.0 0.0 
-5.846575151875e-04 5.358855301059e-04 0.0 
5.358855301059e-04 4.078932904371e-03 0.0 
0.0 0.0 0.0 
-9.931739554903e-05 6.119551683036e-04 0.0 
6.119551683036e-04 8.470757853549e-03 0.0 
0.0 0.0 0.0 
-3.689000895273e-04 -1.650883718166e-04 0.0 
-1.650883718166e-04 2.637349936664e-03 0.0 
0.0 0.0 0.0 
-2.757796783063e-04 -6.655613078496e-05 0.0 
-6.655613078496e-05 2.060591242582e-03 0.0 
0.0 0.0 0.0 
-3.076862896133e-04 -4.170850162569e-05 0.0 
-4.170850162569e-05 6.243723627324e-03 0.0 
0.0 0.0 0.0 
7.410490996862e-05 -1.051536542279e-04 0.0 
-1.051536542279e-04 1.065489771148e-03 0.0 
0.0 0.0 0.0 
-8.263821458387e-05 9.261051489283e-05 0.0 
9.261051489283e-05 8.835066858100e-03 0.0 
0.0 0.0 0.0 
-3.199081181766e-04 -1.913525142497e-03 0.0 
-1.913525142497e-03 -3.708411095254e-03 0.0 
0.0 0.0 0.0 
2.702826179042e-04 8.543405802410e-04 0.0 
8.543405802410e-04 6.375890360401e-03 0.0 
0.0 0.0 0.0 
-3.329124798854e-04 1.345269113170e-03 0.0 
1.345269113170e-03 3.187766970860e-03 0.0 
0.0 0.0 0.0 
1.585795757918e-03 -2.021229303848e-03 0.0 
-2.021229303848e-03 -2.311150799627e-03 0.0 
0.0 0.0 0.0 
-1.194156433483e-04 -1.842642977143e-04 0.0 
-1.842642977143e-04 7.106766163862e-03 0.0 
0.0 0.0 0.0 
-6.048999106705e-04 5.983076193167e-04 0.0 
5.983076193167e-04 3.848684051741e-03 0.0 
0.0 0.0 0.0 
6.895596597001e-04 -7.506655236517e-04 0.0 
-7.506655236517e-04 -5.061040634765e-03 0.0 
0.0 0.0 0.0 
-1.642552015080e-04 8.216190146531e-04 0.0 
8.216190146531e-04 8.154077859448e-03 0.0 
0.0 0.0 0.0 
-5.013585862654e-04 -1.274187517360e-03 0.0 
-1.274187517360e-03 8.454080226521e-04 0.0 
0.0 0.0 0.0 
-3.233276024772e-05 9.156833671254e-04 0.0 
9.156833671254e-04 7.745078343156e-03 0.0 
0.0 0.0 0.0 
-3.710615754895e-04 -1.928638705052e-04 0.0 
-1.928638705052e-04 5.440371461600e-03 0.0 
0.0 0.0 0.0 
0.0 4.188926092032e-04 0.0 
4.188926092032e-04 8.961958883095e-03 0.0 
0.0 0.0 0.0 
8.420034297840e-05 8.918725599489e-04 0.0 
8.918725599489e-04 6.888415981591e-03 0.0 
0.0 0.0 0.0 
3.561374875785e-04 -4.697971774367e-06 0.0 
-4.697971774367e-06 3.478160041808e-04 0.0 
0.0 0.0 0.0 
-4.245201507548e-04 -1.499122629456e-04 0.0 
-1.499122629456e-04 2.768839553281e-03 0.0 
0.0 0.0 0.0 
-1.420141472941e-04 2.930581326899e-04 0.0 
2.930581326899e-04 8.651642200729e-03 0.0 
0.0 0.0 0.0 
-1.788397618399e-04 6.635104235693e-04 0.0 
6.635104235693e-04 8.437421226225e-03 0.0 
0.0 0.0 0.0 
-8.848440297906e-04 2.119558036976e-03 0.0 
2.119558036976e-03 1.582412482600e-03 0.0 
0.0 0.0 0.0 
-8.747718152802e-05 -1.024390996216e-04 0.0 
-1.024390996216e-04 1.146910493539e-03 0.0 
0.0 0.0 0.0 
-6.445340501923e-04 1.717632372461e-03 0.0 
1.717632372461e-03 1.565271856761e-03 0.0 
0.0 0.0 0.0 
-6.810389367566e-04 -1.553108237258e-03 0.0 
-1.553108237258e-03 8.894270069886e-04 0.0 
0.0 0.0 0.0 
-4.279725596803e-04 9.706010888854e-05 0.0 
9.706010888854e-05 5.819701023007e-03 0.0 
0.0 0.0 0.0 
-6.777016335153e-04 8.469186655196e-04 0.0 
8.469186655196e-04 3.479888916840e-03 0.0 
0.0 0.0 0.0 
-6.374265758478e-04 7.403507765835e-04 0.0 
7.403507765835e-04 3.349755329304e-03 0.0 
0.0 0.0 0.0 
-4.219630567713e-04 4.878727503761e-05 0.0 
4.878727503761e-05 6.154593946558e-03 0.0 
0.0 0.0 0.0 
-3.811305206680e-04 1.074783961134e-04 0.0 
1.074783961134e-04 6.153996004263e-03 0.0 
0.0 0.0 0.0 
-3.740548145923e-04 -1.254787688247e-04 0.0 
-1.254787688247e-04 5.647990204003e-03 0.0 
0.0 0.0 0.0 
-3.383208317602e-04 9.806549018158e-06 0.0 
9.806549018158e-06 6.091582619661e-03 0.0 
0.0 0.0 0.0 
-3.211727319989e-04 7.021087580055e-04 0.0 
7.021087580055e-04 7.113956394712e-03 0.0 
0.0 0.0 0.0 
-4.314594085966e-04 4.166750948947e-05 0.0 
4.166750948947e-05 5.906164637296e-03 0.0 
0.0 0.0 0.0 
-2.318153000790e-04 -1.565989376157e-04 0.0 
-1.565989376157e-04 4.877286634906e-04 0.0 
0.0 0.0 0.0 
-5.196747357163e-04 2.565882879824e-04 0.0 
2.565882879824e-04 5.761639535101e-03 0.0 
0.0 0.0 0.0 
-2.467791186531e-04 2.310233732990e-05 0.0 
2.310233732990e-05 7.564169726644e-03 0.0 
0.0 0.0 0.0 
-2.715890706818e-04 6.966423799383e-05 0.0 
6.966423799383e-05 7.491699582272e-03 0.0 
0.0 0.0 0.0 
-9.443294611156e-05 4.577171675563e-04 0.0 
4.577171675563e-04 8.948555156192e-03 0.0 
0.0 0.0 0.0 
1.683451392249e-04 5.958702928338e-04 0.0 
5.958702928338e-04 6.746442205348e-03 0.0 
0.0 0.0 0.0 
-4.579102613287e-04 9.774291993778e-05 0.0 
9.774291993778e-05 5.805321809875e-03 0.0 
0.0 0.0 0.0 
1.391513660809e-04 -2.115299411939e-04 0.0 
-2.115299411939e-04 6.656639368886e-03 0.0 
0.0 0.0 0.0 
-3.172671270973e-04 -1.092016436558e-05 0.0 
-1.092016436558e-05 6.568867328975e-03 0.0 
0.0 0.0 0.0 
-5.011261961876e-04 1.290161450089e-03 0.0 
1.290161450089e-03 3.341978077396e-03 0.0 
0.0 0.0 0.0 
-4.164486483481e-04 3.345910908221e-05 0.0 
3.345910908221e-05 5.725876124351e-03 0.0 
0.0 0.0 0.0 
-9.447851120536e-05 -1.026846919493e-04 0.0 
-1.026846919493e-04 7.294932721044e-03 0.0 
0.0 0.0 0.0 
5.695975063713e-04 7.577743138423e-04 0.0 
7.577743138423e-04 5.027453944557e-03 0.0 
0.0 0.0 0.0 
2.698450252410e-04 7.696277213776e-04 0.0 
7.696277213776e-04 6.389366280951e-03 0.0 
0.0 0.0 0.0 
-8.167869569620e-05 1.874078692324e-03 0.0 
1.874078692324e-03 2.257394880579e-03 0.0 
0.0 0.0 0.0 
-2.652336207615e-04 -2.820636123034e-03 0.0 
-2.820636123034e-03 -1.465165631892e-03 0.0 
0.0 0.0 0.0 
-2.136239951797e-04 -1.067298591280e-04 0.0 
-1.067298591280e-04 6.786677167057e-03 0.0 
0.0 0.0 0.0 
-2.388448314344e-04 7.228706971869e-05 0.0 
7.228706971869e-05 7.868340889377e-03 0.0 
0.0 0.0 0.0 
-6.603195314309e-04 -2.953722853430e-03 0.0 
-2.953722853430e-03 -2.264575361076e-03 0.0 
0.0 0.0 0.0 
-3.535741259753e-05 -2.255078655827e-04 0.0 
-2.255078655827e-04 7.126169659871e-03 0.0 
0.0 0.0 0.0 
-2.890928454331e-04 7.390329797877e-04 0.0 
7.390329797877e-04 6.802491952395e-03 0.0 
0.0 0.0 0.0 
5.004785604299e-04 2.291113499605e-05 0.0 
2.291113499605e-05 1.189374026340e-04 0.0 
0.0 0.0 0.0 
3.636870713069e-04 1.573518132148e-03 0.0 
1.573518132148e-03 2.465036243864e-03 0.0 
0.0 0.0 0.0 
-5.822614202314e-04 3.530524489357e-04 0.0 
3.530524489357e-04 5.244214632955e-03 0.0 
0.0 0.0 0.0 
-4.634285149879e-04 -2.796159631412e-04 0.0 
-2.796159631412e-04 3.305870981254e-03 0.0 
0.0 0.0 0.0 
-4.681502849355e-04 1.312312445396e-03 0.0 
1.312312445396e-03 2.991606551506e-03 0.0 
0.0 0.0 0.0 
-2.975002049136e-04 1.441004588823e-03 0.0 
1.441004588823e-03 3.180543756893e-03 0.0 
0.0 0.0 0.0 
2.399138643172e-05 -2.282467196578e-04 0.0 
-2.282467196578e-04 6.867435850682e-03 0.0 
0.0 0.0 0.0 
-3.227679857134e-04 4.457669777352e-05 0.0 
4.457669777352e-05 6.431472580137e-03 0.0 
0.0 0.0 0.0 
-2.787054492052e-04 1.553252391338e-03 0.0 
1.553252391338e-03 2.753389832818e-03 0.0 
0.0 0.0 0.0 
-3.913729586003e-04 -6.819244250847e-04 0.0 
-6.819244250847e-04 1.140394313095e-03 0.0 
0.0 0.0 0.0 
-5.211097671783e-04 3.026284166461e-04 0.0 
3.026284166461e-04 5.687104084821e-03 0.0 
0.0 0.0 0.0 
-1.936542211255e-04 3.430577463369e-05 0.0 
3.430577463369e-05 7.900262972061e-03 0.0 
0.0 0.0 0.0 
-2.105142899669e-04 1.637099503612e-03 0.0 
1.637099503612e-03 2.749322528395e-03 0.0 
0.0 0.0 0.0 
-6.393456281295e-04 2.774743523170e-03 0.0 
2.774743523170e-03 3.296640931003e-04 0.0 
0.0 0.0 0.0 
-6.062911763817e-04 4.360119763833e-04 0.0 
4.360119763833e-04 4.759205823581e-03 0.0 
0.0 0.0 0.0 
-4.605601945571e-04 -2.537766435711e-04 0.0 
-2.537766435711e-04 3.265778073052e-03 0.0 
0.0 0.0 0.0 
-5.630757148638e-04 4.296767454604e-04 0.0 
4.296767454604e-04 4.545748974569e-03 0.0 
0.0 0.0 0.0 
-7.857298457881e-05 3.807192630726e-04 0.0 
3.807192630726e-04 8.770701326836e-03 0.0 
0.0 0.0 0.0 
1.727980695285e-04 2.964312350468e-03 0.0 
2.964312350468e-03 -1.034670493978e-03 0.0 
0.0 0.0 0.0 
-3.857498360297e-04 -1.412547341922e-04 0.0 
-1.412547341922e-04 5.276031076480e-03 0.0 
0.0 0.0 0.0 
-1.087158175064e-04 1.144964517053e-04 0.0 
1.144964517053e-04 8.689543639320e-03 0.0 
0.0 0.0 0.0 
-4.458162636597e-04 9.161178264551e-04 0.0 
9.161178264551e-04 4.284348670702e-03 0.0 
0.0 0.0 0.0 
-6.177182670140e-04 4.879992864153e-04 0.0 
4.879992864153e-04 4.523514030245e-03 0.0 
0.0 0.0 0.0 
1.020621424301e-04 -1.996157703111e-04 0.0 
-1.996157703111e-04 6.632223202532e-03 0.0 
0.0 0.0 0.0 
-1.380582859495e-04 -1.131256433076e-04 0.0 
-1.131256433076e-04 7.186963265100e-03 0.0 
0.0 0.0 0.0 
-3.534416420151e-04 -1.164508647163e-04 0.0 
-1.164508647163e-04 5.648230901641e-03 0.0 
0.0 0.0 0.0 
-4.722851261162e-04 8.735986765049e-04 0.0 
8.735986765049e-04 4.597306778045e-03 0.0 
0.0 0.0 0.0 
2.621875881748e-04 -6.829563219982e-06 0.0 
-6.829563219982e-06 6.493370320529e-03 0.0 
0.0 0.0 0.0 
-5.173859962165e-04 7.757556392561e-04 0.0 
7.757556392561e-04 4.317699423778e-03 0.0 
0.0 0.0 0.0 
-6.967734823160e-05 2.425889060619e-04 0.0 
2.425889060619e-04 8.746333640151e-03 0.0 
0.0 0.0 0.0 
-6.600182038152e-05 9.706065374553e-04 0.0 
9.706065374553e-04 7.810884342596e-03 0.0 
0.0 0.0 0.0 
-4.882665999200e-04 1.737015367108e-04 0.0 
1.737015367108e-04 6.212100742584e-03 0.0 
0.0 0.0 0.0 
-3.004533707865e-04 1.017165020046e-04 0.0 
1.017165020046e-04 7.068097184297e-03 0.0 
0.0 0.0 0.0 
-5.455352608854e-04 8.510491040582e-04 0.0 
8.510491040582e-04 4.314547599073e-03 0.0 
0.0 0.0 0.0 
-5.744626037034e-04 4.752924345515e-04 0.0 
4.752924345515e-04 4.303944235760e-03 0.0 
0.0 0.0 0.0 
-3.769123952949e-04 9.338588431537e-04 0.0 
9.338588431537e-04 4.564640429416e-03 0.0 
0.0 0.0 0.0 
1.158221913571e-04 1.751832690150e-03 0.0 
1.751832690150e-03 2.467971743997e-03 0.0 
0.0 0.0 0.0 
-3.871574910561e-04 1.097375184045e-05 0.0 
1.097375184045e-05 5.788058037632e-03 0.0 
0.0 0.0 0.0 
5.524002222932e-04 1.530674368600e-03 0.0 
1.530674368600e-03 2.469579568325e-03 0.0 
0.0 0.0 0.0 
-1.140848533621e-05 -4.101547993941e-05 0.0 
-4.101547993941e-05 4.001180237345e-04 0.0 
0.0 0.0 0.0 
-3.430631713696e-04 1.048745639508e-05 0.0 
1.048745639508e-05 6.107971274746e-03 0.0 
0.0 0.0 0.0 
-3.142074068174e-05 -4.388899246826e-05 0.0 
-4.388899246826e-05 1.158227296886e-03 0.0 
0.0 0.0 0.0 
-5.944253446373e-04 3.920485573101e-04 0.0 
3.920485573101e-04 5.000923730686e-03 0.0 
0.0 0.0 0.0 
1.463017333159e-04 -3.617261669546e-05 0.0 
-3.617261669546e-05 6.496355275698e-03 0.0 
0.0 0.0 0.0 
-1.962112437647e-04 1.779394790827e-03 0.0 
1.779394790827e-03 2.264547598260e-03 0.0 
0.0 0.0 0.0 
-3.550272957773e-04 -4.917412778407e-05 0.0 
-4.917412778407e-05 5.871457105576e-03 0.0 
0.0 0.0 0.0 
-8.485295079218e-04 1.365672606449e-03 0.0 
1.365672606449e-03 2.650498550168e-03 0.0 
0.0 0.0 0.0 
5.146240979457e-04 8.668081024584e-04 0.0 
8.668081024584e-04 5.017708537305e-03 0.0 
0.0 0.0 0.0 
-3.547251271441e-04 1.859150464463e-05 0.0 
1.859150464463e-05 5.826758445679e-03 0.0 
0.0 0.0 0.0 
5.600591757442e-04 1.692465704920e-03 0.0 
1.692465704920e-03 1.839106213043e-03 0.0 
0.0 0.0 0.0 
-2.772725437354e-04 -1.143114435379e-04 0.0 
-1.143114435379e-04 6.403142263040e-03 0.0 
0.0 0.0 0.0 
-7.190040030883e-04 -8.878473068129e-04 0.0 
-8.878473068129e-04 1.182227225755e-03 0.0 
0.0 0.0 0.0 
-2.064995775390e-04 -6.571191155823e-05 0.0 
-6.571191155823e-05 6.782322737114e-03 0.0 
0.0 0.0 0.0 
-5.173131937133e-04 5.126825388068e-04 0.0 
5.126825388068e-04 5.415494974964e-03 0.0 
0.0 0.0 0.0 
-1.043109634807e-04 -2.166689909519e-04 0.0 
-2.166689909519e-04 7.142705704356e-03 0.0 
0.0 0.0 0.0 
-3.424564582120e-04 1.066127795088e-05 0.0 
1.066127795088e-05 5.801720948618e-03 0.0 
0.0 0.0 0.0 
1.153625831858e-04 1.865203410814e-03 0.0 
1.865203410814e-03 1.874555155290e-03 0.0 
0.0 0.0 0.0 
-5.433201089945e-04 3.581286498895e-04 0.0 
3.581286498895e-04 5.012129425680e-03 0.0 
0.0 0.0 0.0 
-4.563471948213e-04 -8.914237473421e-05 0.0 
-8.914237473421e-05 5.069563836119e-03 0.0 
0.0 0.0 0.0 
-6.990017324042e-04 1.170051224113e-03 0.0 
1.170051224113e-03 2.592902586898e-03 0.0 
0.0 0.0 0.0 
7.985188419355e-04 1.589182328769e-03 0.0 
1.589182328769e-03 1.852011418906e-03 0.0 
0.0 0.0 0.0 
-2.984953499081e-04 3.488297349842e-05 0.0 
3.488297349842e-05 7.285686587823e-03 0.0 
0.0 0.0 0.0 
-3.597450477371e-04 4.334396907091e-05 0.0 
4.334396907091e-05 5.798365225579e-03 0.0 
0.0 0.0 0.0 
2.576135022838e-04 1.718966528650e-03 0.0 
1.718966528650e-03 2.133813338584e-03 0.0 
0.0 0.0 0.0 
-5.587058773089e-04 3.877486487793e-04 0.0 
3.877486487793e-04 4.776344599018e-03 0.0 
0.0 0.0 0.0 
-1.098263565512e-04 8.907310991447e-04 0.0 
8.907310991447e-04 6.926655125685e-03 0.0 
0.0 0.0 0.0 
-4.641736895836e-04 -3.040340167162e-04 0.0 
-3.040340167162e-04 3.585140952931e-03 0.0 
0.0 0.0 0.0 
7.723559653483e-05 9.028448792693e-04 0.0 
9.028448792693e-04 7.141810668391e-03 0.0 
0.0 0.0 0.0 
-5.021015332374e-05 9.757178334780e-04 0.0 
9.757178334780e-04 7.685388947027e-03 0.0 
0.0 0.0 0.0 
-6.409123104271e-04 1.262786626865e-03 0.0 
1.262786626865e-03 3.159669589768e-03 0.0 
0.0 0.0 0.0 
-4.766161321624e-04 -2.355330493178e-04 0.0 
-2.355330493178e-04 3.676388862904e-03 0.0 
0.0 0.0 0.0 
5.620735286025e-04 1.781291048496e-04 0.0 
1.781291048496e-04 5.375927290658e-03 0.0 
0.0 0.0 0.0 
-6.035074991378e-04 7.083752906006e-04 0.0 
7.083752906006e-04 4.315655700820e-03 0.0 
0.0 0.0 0.0 
-5.992807486543e-04 1.216630482365e-03 0.0 
1.216630482365e-03 2.857626050509e-03 0.0 
0.0 0.0 0.0 
-5.328233127370e-04 4.219900735970e-04 0.0 
4.219900735970e-04 5.338139102843e-03 0.0 
0.0 0.0 0.0 
2.563206384856e-04 1.604795206137e-03 0.0 
1.604795206137e-03 2.728827031573e-03 0.0 
0.0 0.0 0.0 
-7.351542654643e-05 1.944527248234e-04 0.0 
1.944527248234e-04 8.754370761889e-03 0.0 
0.0 0.0 0.0 
-3.272536078319e-04 6.522185971095e-04 0.0 
6.522185971095e-04 7.046967146748e-03 0.0 
0.0 0.0 0.0 
-2.497788459209e-04 -2.629101988249e-05 0.0 
-2.629101988249e-05 6.619859607228e-03 0.0 
0.0 0.0 0.0 
-9.352003428418e-04 1.854094879256e-03 0.0 
1.854094879256e-03 1.989857277396e-03 0.0 
0.0 0.0 0.0 
1.089887552476e-03 1.594196231310e-03 0.0 
1.594196231310e-03 1.172549134256e-03 0.0 
0.0 0.0 0.0 
-2.796281233709e-04 7.178772374836e-04 0.0 
7.178772374836e-04 7.109231638315e-03 0.0 
0.0 0.0 0.0 
-2.214180916035e-03 2.111914884562e-03 0.0 
2.111914884562e-03 -2.730012551196e-03 0.0 
0.0 0.0 0.0 
-5.589806200434e-04 6.305768600389e-04 0.0 
6.305768600389e-04 4.317135845747e-03 0.0 
0.0 0.0 0.0 
6.319684306735e-04 -7.148623035211e-05 0.0 
-7.148623035211e-05 4.825985470533e-03 0.0 
0.0 0.0 0.0 
2.194396803279e-04 -8.179382247742e-05 0.0 
-8.179382247742e-05 6.844289355694e-04 0.0 
0.0 0.0 0.0 
-1.373038010694e-04 7.273589483582e-04 0.0 
7.273589483582e-04 8.271569986738e-03 0.0 
0.0 0.0 0.0 
-4.200237647417e-04 4.531356087461e-04 0.0 
4.531356087461e-04 6.784371652617e-03 0.0 
0.0 0.0 0.0 
2.183226654500e-04 -1.147052698052e-03 0.0 
-1.147052698052e-03 2.357633806018e-03 0.0 
0.0 0.0 0.0 
6.857361195987e-04 6.638750301182e-05 0.0 
6.638750301182e-05 4.816548681764e-03 0.0 
0.0 0.0 0.0 
-5.241083210903e-04 3.099742906547e-04 0.0 
3.099742906547e-04 6.026666557756e-03 0.0 
0.0 0.0 0.0 
-4.928739191736e-04 2.515757500705e-04 0.0 
2.515757500705e-04 6.406156361338e-03 0.0 
0.0 0.0 0.0 
2.820005345658e-04 -1.703877140030e-05 0.0 
-1.703877140030e-05 6.122049082416e-03 0.0 
0.0 0.0 0.0 
-3.339198633545e-04 -1.062504843653e-03 0.0 
-1.062504843653e-03 2.176404165706e-03 0.0 
0.0 0.0 0.0 
-2.644710088743e-04 1.037277739180e-03 0.0 
1.037277739180e-03 4.494527638495e-03 0.0 
0.0 0.0 0.0 
-4.857027002320e-04 6.045728548442e-04 0.0 
6.045728548442e-04 5.474995277245e-03 0.0 
0.0 0.0 0.0 
-4.444685410777e-04 4.144297092085e-04 0.0 
4.144297092085e-04 7.038248424426e-03 0.0 
0.0 0.0 0.0 
-5.501308503617e-04 4.830383179723e-04 0.0 
4.830383179723e-04 5.676696721578e-03 0.0 
0.0 0.0 0.0 
-5.770918042218e-04 4.405337319294e-04 0.0 
4.405337319294e-04 5.338244755727e-03 0.0 
0.0 0.0 0.0 
7.910002060139e-04 7.554729385893e-04 0.0 
7.554729385893e-04 4.088335381156e-03 0.0 
0.0 0.0 0.0 
-1.877200795241e-04 8.187883244910e-04 0.0 
8.187883244910e-04 6.887274552325e-03 0.0 
0.0 0.0 0.0 
-3.779939880724e-04 1.972324909446e-03 0.0 
1.972324909446e-03 -3.456697340197e-03 0.0 
0.0 0.0 0.0 
-5.779055378784e-04 1.109521649269e-03 0.0 
1.109521649269e-03 3.140671442894e-03 0.0 
0.0 0.0 0.0 
-4.801816026814e-04 1.152195156367e-03 0.0 
1.152195156367e-03 3.364321136688e-03 0.0 
0.0 0.0 0.0 
-3.605894548769e-04 9.872688081563e-04 0.0 
9.872688081563e-04 4.557300788411e-03 0.0 
0.0 0.0 0.0 
-3.551347833556e-04 6.104330919587e-04 0.0 
6.104330919587e-04 7.334545198591e-03 0.0 
0.0 0.0 0.0 
1.912226832896e-03 2.243237537882e-03 0.0 
2.243237537882e-03 -3.466548155812e-03 0.0 
0.0 0.0 0.0 
6.271467446570e-04 -1.952341779209e-04 0.0 
-1.952341779209e-04 4.589065660088e-03 0.0 
0.0 0.0 0.0 
-3.695774577778e-04 -1.198791036641e-05 0.0 
-1.198791036641e-05 5.770062131015e-03 0.0 
0.0 0.0 0.0 
8.059600803336e-04 1.768356146786e-03 0.0 
1.768356146786e-03 1.149432460652e-03 0.0 
0.0 0.0 0.0 
5.909770420169e-04 -3.195746418575e-04 0.0 
-3.195746418575e-04 4.393545043513e-03 0.0 
0.0 0.0 0.0 
1.974994563658e-04 -3.029905665528e-05 0.0 
-3.029905665528e-05 4.052058133541e-04 0.0 
0.0 0.0 0.0 
-3.716789408647e-04 5.041379249925e-04 0.0 
5.041379249925e-04 7.144875146210e-03 0.0 
0.0 0.0 0.0 
3.829536844266e-04 -7.669171904442e-05 0.0 
-7.669171904442e-05 2.111081540741e-04 0.0 
0.0 0.0 0.0 
3.289527019446e-05 -5.535116006631e-05 0.0 
-5.535116006631e-05 7.560900373971e-04 0.0 
0.0 0.0 0.0 
-6.721743337085e-04 1.532652109668e-03 0.0 
1.532652109668e-03 1.973426424728e-03 0.0 
0.0 0.0 0.0 
-4.562511878480e-04 -1.035944365124e-03 0.0 
-1.035944365124e-03 1.917995179156e-03 0.0 
0.0 0.0 0.0 
-3.920415588370e-04 4.609765662332e-04 0.0 
4.609765662332e-04 7.399864627947e-03 0.0 
0.0 0.0 0.0 
-4.342422949919e-04 -1.125493817859e-03 0.0 
-1.125493817859e-03 1.645067769622e-03 0.0 
0.0 0.0 0.0 
-1.256088888970e-04 2.382997120908e-03 0.0 
2.382997120908e-03 8.774296802687e-04 0.0 
0.0 0.0 0.0 
4.390549417477e-04 -2.469873588296e-03 0.0 
-2.469873588296e-03 -1.086941487680e-03 0.0 
0.0 0.0 0.0 
-6.489579099960e-04 -7.673245730721e-04 0.0 
-7.673245730721e-04 1.367547480682e-03 0.0 
0.0 0.0 0.0 
6.428928826290e-04 1.754342242928e-04 0.0 
1.754342242928e-04 5.068765575953e-03 0.0 
0.0 0.0 0.0 
-5.552916960989e-04 5.313097340049e-04 0.0 
5.313097340049e-04 5.414785947819e-03 0.0 
0.0 0.0 0.0 
-1.204654714579e-04 -1.359429396907e-04 0.0 
-1.359429396907e-04 7.109430165370e-03 0.0 
0.0 0.0 0.0 
-3.325510648782e-04 8.232209943045e-04 0.0 
8.232209943045e-04 -4.753250945053e-03 0.0 
0.0 0.0 0.0 
1.019122002586e-04 2.294934131222e-03 0.0 
2.294934131222e-03 9.609136250848e-04 0.0 
0.0 0.0 0.0 
8.463887706998e-04 1.542854204382e-03 0.0 
1.542854204382e-03 1.620102363558e-03 0.0 
0.0 0.0 0.0 
-5.586116354184e-04 7.163604977387e-04 0.0 
7.163604977387e-04 4.036127121771e-03 0.0 
0.0 0.0 0.0 
7.009176490318e-04 -6.237678277955e-05 0.0 
-6.237678277955e-05 4.579864564678e-03 0.0 
0.0 0.0 0.0 
-7.494256619245e-05 -2.077019732987e-04 0.0 
-2.077019732987e-04 7.138467960078e-03 0.0 
0.0 0.0 0.0 
-4.124530196211e-04 5.687029379343e-04 0.0 
5.687029379343e-04 6.978605330913e-03 0.0 
0.0 0.0 0.0 
1.438390512638e-03 1.797285068584e-03 0.0 
1.797285068584e-03 -1.086871762551e-04 0.0 
0.0 0.0 0.0 
6.040017527760e-04 5.996623103921e-05 0.0 
5.996623103921e-05 5.069560491765e-03 0.0 
0.0 0.0 0.0 
-3.985298941326e-04 -5.534458670328e-05 0.0 
-5.534458670328e-05 5.480386082729e-03 0.0 
0.0 0.0 0.0 
-4.002957980637e-04 8.834606924321e-04 0.0 
8.834606924321e-04 4.888463854603e-03 0.0 
0.0 0.0 0.0 
-3.966964288755e-04 5.191515248734e-04 0.0 
5.191515248734e-04 6.882783576371e-03 0.0 
0.0 0.0 0.0 
1.594682819928e-04 8.232251537200e-04 0.0 
8.232251537200e-04 6.722748583780e-03 0.0 
0.0 0.0 0.0 
1.081510430952e-03 1.372092924950e-03 0.0 
1.372092924950e-03 1.643929341197e-03 0.0 
0.0 0.0 0.0 
-1.795661583209e-04 2.288397623922e-03 0.0 
2.288397623922e-03 1.550487566655e-03 0.0 
0.0 0.0 0.0 
-5.127340326379e-04 5.246030952970e-04 0.0 
5.246030952970e-04 6.015133283557e-03 0.0 
0.0 0.0 0.0 
-7.276705228798e-05 4.290150484573e-04 0.0 
4.290150484573e-04 8.986479985038e-03 0.0 
0.0 0.0 0.0 
-2.197251610413e-04 1.074067409140e-03 0.0 
1.074067409140e-03 4.489713728081e-03 0.0 
0.0 0.0 0.0 
1.124036568726e-03 8.315451995373e-04 0.0 
8.315451995373e-04 2.585271351688e-03 0.0 
0.0 0.0 0.0 
-3.557397256442e-04 2.369425389112e-05 0.0 
2.369425389112e-05 6.187979750056e-03 0.0 
0.0 0.0 0.0 
-5.214174169962e-04 -1.668204792358e-03 0.0 
-1.668204792358e-03 4.262059420126e-04 0.0 
0.0 0.0 0.0 
-5.096019626452e-04 4.724786186167e-04 0.0 
4.724786186167e-04 5.678110993842e-03 0.0 
0.0 0.0 0.0 
1.062389115887e-03 2.074980291517e-03 0.0 
2.074980291517e-03 -1.484365101095e-04 0.0 
0.0 0.0 0.0 
1.960761962876e-03 2.057454198689e-03 0.0 
2.057454198689e-03 -2.945995763957e-03 0.0 
0.0 0.0 0.0 
1.653302089982e-03 -2.158817803253e-03 0.0 
-2.158817803253e-03 -3.526602529158e-03 0.0 
0.0 0.0 0.0 
-3.419565617618e-04 4.886460884344e-04 0.0 
4.886460884344e-04 7.396093301259e-03 0.0 
0.0 0.0 0.0 
-5.156700410647e-04 5.712645427789e-04 0.0 
5.712645427789e-04 5.746012930737e-03 0.0 
0.0 0.0 0.0 
-3.424554047082e-05 1.667983648008e-03 0.0 
1.667983648008e-03 2.482423228189e-03 0.0 
0.0 0.0 0.0 
-3.571592067039e-04 4.421475804655e-04 0.0 
4.421475804655e-04 7.645799227864e-03 0.0 
0.0 0.0 0.0 
-3.693983168137e-04 6.345122891834e-04 0.0 
6.345122891834e-04 7.051007212353e-03 0.0 
0.0 0.0 0.0 
-4.303526830234e-04 7.954811611817e-04 0.0 
7.954811611817e-04 5.201864533621e-03 0.0 
0.0 0.0 0.0 
-7.936605385450e-06 -2.347152127962e-04 0.0 
-2.347152127962e-04 7.010222388320e-03 0.0 
0.0 0.0 0.0 
1.088848084189e-03 8.126127686088e-04 0.0 
8.126127686088e-04 2.607651114278e-03 0.0 
0.0 0.0 0.0 
-4.516334646368e-04 7.200981380113e-04 0.0 
7.200981380113e-04 5.505002970866e-03 0.0 
0.0 0.0 0.0 
3.569413384399e-04 1.448077952892e-03 0.0 
1.448077952892e-03 3.038297337546e-03 0.0 
0.0 0.0 0.0 
1.030743573445e-03 7.406608232428e-04 0.0 
7.406608232428e-04 3.115496414078e-03 0.0 
0.0 0.0 0.0 
1.903747795218e-03 1.784031853399e-03 0.0 
1.784031853399e-03 -2.169114239333e-03 0.0 
0.0 0.0 0.0 
-5.080778479626e-04 2.111725521948e-04 0.0 
2.111725521948e-04 5.761753963073e-03 0.0 
0.0 0.0 0.0 
1.293486278159e-03 1.095328823276e-03 0.0 
1.095328823276e-03 1.510486414646e-03 0.0 
0.0 0.0 0.0 
1.879577959787e-03 -8.907231111233e-04 0.0 
-8.907231111233e-04 -1.213749050846e-03 0.0 
0.0 0.0 0.0 
-3.663537688182e-04 5.865137039019e-04 0.0 
5.865137039019e-04 6.974817145992e-03 0.0 
0.0 0.0 0.0 
-3.371901374292e-03 3.111584004656e-04 0.0 
3.111584004656e-04 -3.339172486308e-03 0.0 
0.0 0.0 0.0 
-5.411357898472e-04 4.429264945492e-04 0.0 
4.429264945492e-04 5.932253952061e-03 0.0 
0.0 0.0 0.0 
1.453082599322e-03 1.688998330699e-03 0.0 
1.688998330699e-03 -4.604210192864e-04 0.0 
0.0 0.0 0.0 
3.941226124946e-04 2.348810728121e-03 0.0 
2.348810728121e-03 9.520177077271e-04 0.0 
0.0 0.0 0.0 
2.263620116913e-03 1.145415639354e-03 0.0 
1.145415639354e-03 -2.063334005086e-03 0.0 
0.0 0.0 0.0 
-4.412527448763e-04 6.000671269611e-04 0.0 
6.000671269611e-04 6.080727083377e-03 0.0 
0.0 0.0 0.0 
-1.565683194829e-04 -3.906951485434e-04 0.0 
-3.906951485434e-04 7.257552617981e-04 0.0 
0.0 0.0 0.0 
-5.000561030698e-04 1.003544360522e-03 0.0 
1.003544360522e-03 3.712447486663e-03 0.0 
0.0 0.0 0.0 
9.958083860084e-04 7.322648498271e-04 0.0 
7.322648498271e-04 3.169778202176e-03 0.0 
0.0 0.0 0.0 
-4.829778803388e-04 5.572254641277e-04 0.0 
5.572254641277e-04 5.748198809643e-03 0.0 
0.0 0.0 0.0 
-5.103684056934e-04 2.602789325124e-04 0.0 
2.602789325124e-04 6.084096894986e-03 0.0 
0.0 0.0 0.0 
2.022099755330e-03 1.782263970952e-03 0.0 
1.782263970952e-03 -4.285834914316e-03 0.0 
0.0 0.0 0.0 
2.083370893349e-03 -3.035239343768e-04 0.0 
-3.035239343768e-04 -1.305439202187e-03 0.0 
0.0 0.0 0.0 
1.605354647123e-03 -1.509298270986e-03 0.0 
-1.509298270986e-03 -1.335925928279e-03 0.0 
0.0 0.0 0.0 
-6.261699397156e-04 1.089981710069e-03 0.0 
1.089981710069e-03 3.469768916738e-03 0.0 
0.0 0.0 0.0 
-4.468016446503e-04 4.985403627305e-04 0.0 
4.985403627305e-04 6.887086063415e-03 0.0 
0.0 0.0 0.0 
-5.195676087555e-04 1.124691958503e-03 0.0 
1.124691958503e-03 3.694425097785e-03 0.0 
0.0 0.0 0.0 
1.340929472117e-03 1.212536164244e-03 0.0 
1.212536164244e-03 8.227797889155e-04 0.0 
0.0 0.0 0.0 
1.109858825631e-03 1.525156010412e-03 0.0 
1.525156010412e-03 9.263060738938e-04 0.0 
0.0 0.0 0.0 
2.035916017085e-03 1.497951659674e-03 0.0 
1.497951659674e-03 -3.213505695386e-03 0.0 
0.0 0.0 0.0 
4.266156170984e-04 1.428120631382e-03 0.0 
1.428120631382e-03 2.841094301939e-03 0.0 
0.0 0.0 0.0 
-3.593824438436e-04 2.580288494948e-03 0.0 
2.580288494948e-03 8.974570237159e-04 0.0 
0.0 0.0 0.0 
-9.464235635626e-05 6.935706301692e-04 0.0 
6.935706301692e-04 8.752432907855e-03 0.0 
0.0 0.0 0.0 
-1.034851233594e-04 7.994039706330e-04 0.0 
7.994039706330e-04 8.597739451198e-03 0.0 
0.0 0.0 0.0 
-1.299925905370e-04 1.113191413381e-03 0.0 
1.113191413381e-03 4.408899776906e-03 0.0 
0.0 0.0 0.0 
1.462045615138e-03 2.017559434489e-03 0.0 
2.017559434489e-03 -1.122048825902e-03 0.0 
0.0 0.0 0.0 
7.541294792457e-04 2.514784727149e-03 0.0 
2.514784727149e-03 7.756335656173e-05 0.0 
0.0 0.0 0.0 
-3.718485256035e-04 7.847709970573e-04 0.0 
7.847709970573e-04 5.520443538020e-03 0.0 
0.0 0.0 0.0 
1.386445297561e-03 2.148071942240e-03 0.0 
2.148071942240e-03 -5.898160322816e-04 0.0 
0.0 0.0 0.0 
1.972322653281e-03 -9.351082984795e-04 0.0 
-9.351082984795e-04 -1.427270579136e-03 0.0 
0.0 0.0 0.0 
-4.052914145450e-04 8.398673561429e-04 0.0 
8.398673561429e-04 4.896254849019e-03 0.0 
0.0 0.0 0.0 
-1.438266607687e-04 2.641352694660e-04 0.0 
2.641352694660e-04 8.747118005149e-03 0.0 
0.0 0.0 0.0 
1.107315915445e-03 1.777777281240e-03 0.0 
1.777777281240e-03 3.794152478160e-04 0.0 
0.0 0.0 0.0 
7.019384562950e-04 8.813649762825e-04 0.0 
8.813649762825e-04 4.073524911610e-03 0.0 
0.0 0.0 0.0 
1.468421085427e-04 2.627226426747e-03 0.0 
2.627226426747e-03 5.542872582698e-06 0.0 
0.0 0.0 0.0 
1.796126374005e-04 1.478862196407e-04 0.0 
1.478862196407e-04 6.886360097521e-03 0.0 
0.0 0.0 0.0 
9.535034245767e-04 2.416968268497e-03 0.0 
2.416968268497e-03 -6.304213920758e-04 0.0 
0.0 0.0 0.0 
-3.109888489540e-04 9.390201272219e-04 0.0 
9.390201272219e-04 4.856817058111e-03 0.0 
0.0 0.0 0.0 
2.385376662410e-03 1.491018073047e-03 0.0 
1.491018073047e-03 -3.917256299989e-03 0.0 
0.0 0.0 0.0 
1.028630730773e-03 7.277550256004e-05 0.0 
7.277550256004e-05 3.396468486747e-03 0.0 
0.0 0.0 0.0 
1.084841838604e-03 1.315074005222e-03 0.0 
1.315074005222e-03 1.476795191141e-03 0.0 
0.0 0.0 0.0 
1.592912228957e-03 -1.263928411508e-03 0.0 
-1.263928411508e-03 -5.893605597567e-04 0.0 
0.0 0.0 0.0 
-5.133315196935e-04 6.282343625321e-04 0.0 
6.282343625321e-04 5.472074503284e-03 0.0 
0.0 0.0 0.0 
-6.350895357099e-05 9.546138078841e-04 0.0 
9.546138078841e-04 8.333063172572e-03 0.0 
0.0 0.0 0.0 
1.405768280955e-03 1.423172922965e-03 0.0 
1.423172922965e-03 1.916308808876e-04 0.0 
0.0 0.0 0.0 
1.074333621786e-03 5.534220753479e-04 0.0 
5.534220753479e-04 3.194564380198e-03 0.0 
0.0 0.0 0.0 
3.708486809895e-04 2.733583367981e-03 0.0 
2.733583367981e-03 -1.002935070349e-05 0.0 
0.0 0.0 0.0 
-3.934079763824e-04 2.617887479320e-04 0.0 
2.617887479320e-04 6.851913440623e-03 0.0 
0.0 0.0 0.0 
6.863860247852e-04 -1.935491215792e-04 0.0 
-1.935491215792e-04 4.377247450427e-03 0.0 
0.0 0.0 0.0 
-3.284139751262e-04 1.980966011798e-03 0.0 
1.980966011798e-03 2.109013739950e-03 0.0 
0.0 0.0 0.0 
-4.402647585895e-04 1.760232506599e-04 0.0 
1.760232506599e-04 6.699192246213e-03 0.0 
0.0 0.0 0.0 
-1.192111978920e-05 1.043820172595e-03 0.0 
1.043820172595e-03 7.960060001980e-03 0.0 
0.0 0.0 0.0 
5.785939651388e-04 -1.245427817182e-04 0.0 
-1.245427817182e-04 4.902581763060e-03 0.0 
0.0 0.0 0.0 
-8.130893126923e-05 9.093004355155e-04 0.0 
9.093004355155e-04 8.431581001664e-03 0.0 
0.0 0.0 0.0 
-4.648146339369e-04 2.299295709897e-04 0.0 
2.299295709897e-04 6.623005885732e-03 0.0 
0.0 0.0 0.0 
-3.153530658251e-04 7.294150089924e-04 0.0 
7.294150089924e-04 6.804702780543e-03 0.0 
0.0 0.0 0.0 
-6.412147170008e-04 2.009638478121e-03 0.0 
2.009638478121e-03 2.049667946346e-03 0.0 
0.0 0.0 0.0 
-5.574842241679e-04 5.919214491859e-04 0.0 
5.919214491859e-04 5.149500192663e-03 0.0 
0.0 0.0 0.0 
-4.367203712241e-04 6.976974628101e-04 0.0 
6.976974628101e-04 5.508122377478e-03 0.0 
0.0 0.0 0.0 
-4.649198094926e-04 6.563817894671e-04 0.0 
6.563817894671e-04 5.797109541915e-03 0.0 
0.0 0.0 0.0 
-1.379047382182e-04 1.190388041525e-03 0.0 
1.190388041525e-03 4.106409628184e-03 0.0 
0.0 0.0 0.0 
3.156411131067e-05 1.028359892784e-03 0.0 
1.028359892784e-03 7.695706770968e-03 0.0 
0.0 0.0 0.0 
-4.715356619803e-04 3.435099348105e-04 0.0 
3.435099348105e-04 6.318271182872e-03 0.0 
0.0 0.0 0.0 
-5.683830209102e-04 3.992490388558e-04 0.0 
3.992490388558e-04 5.589699567576e-03 0.0 
0.0 0.0 0.0 
1.364566870473e-03 1.277510174547e-03 0.0 
1.277510174547e-03 9.623597306285e-04 0.0 
0.0 0.0 0.0 
-5.911132422745e-04 -9.465694014826e-04 0.0 
-9.465694014826e-04 1.660802188914e-03 0.0 
0.0 0.0 0.0 
-5.874668922110e-04 4.871941982158e-04 0.0 
4.871941982158e-04 5.080945145669e-03 0.0 
0.0 0.0 0.0 
-7.567819755105e-05 2.007887195164e-03 0.0 
2.007887195164e-03 1.673584743770e-03 0.0 
0.0 0.0 0.0 
-3.515389017753e-04 9.361287246120e-06 0.0 
9.361287246120e-06 5.814875466526e-03 0.0 
0.0 0.0 0.0 
1.203371086971e-03 -1.652484814211e-03 0.0 
-1.652484814211e-03 -5.295406196457e-04 0.0 
0.0 0.0 0.0 
1.417850833647e-03 1.508167773876e-03 0.0 
1.508167773876e-03 4.163056465567e-04 0.0 
0.0 0.0 0.0 
-3.426277179994e-04 5.697201740556e-04 0.0 
5.697201740556e-04 7.243168934265e-03 0.0 
0.0 0.0 0.0 
1.140450447621e-04 2.116481473473e-03 0.0 
2.116481473473e-03 1.658639243610e-03 0.0 
0.0 0.0 0.0 
-4.819567493790e-04 6.635218121792e-04 0.0 
6.635218121792e-04 5.194504600944e-03 0.0 
0.0 0.0 0.0 
1.028041290833e-03 5.537196230469e-04 0.0 
5.537196230469e-04 3.295867640823e-03 0.0 
0.0 0.0 0.0 
6.528904132834e-04 -6.836308339059e-04 0.0 
-6.836308339059e-04 3.144579772317e-03 0.0 
0.0 0.0 0.0 
1.207941703101e-04 8.868830298382e-04 0.0 
8.868830298382e-04 7.313184347636e-03 0.0 
0.0 0.0 0.0 
-5.978774090299e-04 6.198522790465e-04 0.0 
6.198522790465e-04 4.576801156196e-03 0.0 
0.0 0.0 0.0 
2.231062148442e-03 3.033170377998e-04 0.0 
3.033170377998e-04 -1.862704218704e-03 0.0 
0.0 0.0 0.0 
1.790771787449e-04 -1.323515493024e-03 0.0 
-1.323515493024e-03 1.929840365132e-03 0.0 
0.0 0.0 0.0 
-6.545828932760e-04 1.469172166329e-03 0.0 
1.469172166329e-03 2.821652823565e-03 0.0 
0.0 0.0 0.0 
-3.841125781308e-04 1.796837878973e-03 0.0 
1.796837878973e-03 2.129440915270e-03 0.0 
0.0 0.0 0.0 
-3.078965344655e-04 6.745929718853e-04 0.0 
6.745929718853e-04 7.404671705912e-03 0.0 
0.0 0.0 0.0 
-3.333146140536e-04 8.803067578689e-04 0.0 
8.803067578689e-04 5.192371328808e-03 0.0 
0.0 0.0 0.0 
-6.142380872931e-04 8.060205508304e-04 0.0 
8.060205508304e-04 4.028776398411e-03 0.0 
0.0 0.0 0.0 
-5.216178031346e-04 6.196219256631e-04 0.0 
6.196219256631e-04 4.886133931308e-03 0.0 
0.0 0.0 0.0 
1.895442854463e-04 5.040378941510e-04 0.0 
5.040378941510e-04 6.937479369637e-03 0.0 
0.0 0.0 0.0 
3.346510846494e-04 4.968261346554e-04 0.0 
4.968261346554e-04 6.406047114129e-03 0.0 
0.0 0.0 0.0 
-2.640017836082e-04 6.966200921822e-04 0.0 
6.966200921822e-04 7.399359231551e-03 0.0 
0.0 0.0 0.0 
-4.231441751743e-04 4.795686828315e-04 0.0 
4.795686828315e-04 7.149539875591e-03 0.0 
0.0 0.0 0.0 
6.530939605736e-04 -8.195515988585e-04 0.0 
-8.195515988585e-04 2.740988238156e-03 0.0 
0.0 0.0 0.0 
-3.598900204131e-04 1.276113822865e-03 0.0 
1.276113822865e-03 3.577166223149e-03 0.0 
0.0 0.0 0.0 
1.849556996394e-03 1.577774244349e-03 0.0 
1.577774244349e-03 -1.054852932451e-03 0.0 
0.0 0.0 0.0 
1.765677412448e-03 1.295558533325e-03 0.0 
1.295558533325e-03 -4.020494268304e-04 0.0 
0.0 0.0 0.0 
-2.831276139967e-04 9.720773512245e-04 0.0 
9.720773512245e-04 4.851791182881e-03 0.0 
0.0 0.0 0.0 
1.081558174564e-03 2.895673378504e-05 0.0 
2.895673378504e-05 3.155704348487e-03 0.0 
0.0 0.0 0.0 
-2.231005922538e-04 -7.559645608048e-04 0.0 
-7.559645608048e-04 3.419469964196e-03 0.0 
0.0 0.0 0.0 
-2.808895782852e-04 6.186919244168e-04 0.0 
6.186919244168e-04 7.598874565680e-03 0.0 
0.0 0.0 0.0 
2.179443818399e-03 -3.841281725543e-04 0.0 
-3.841281725543e-04 -1.755477827183e-03 0.0 
0.0 0.0 0.0 
-3.531619179220e-05 1.313698572745e-03 0.0 
1.313698572745e-03 3.692831177909e-03 0.0 
0.0 0.0 0.0 
-4.239729497147e-04 7.616849755787e-04 0.0 
7.616849755787e-04 5.208301242711e-03 0.0 
0.0 0.0 0.0 
-1.506524876744e-04 1.385240820723e-03 0.0 
1.385240820723e-03 3.424957741283e-03 0.0 
0.0 0.0 0.0 
-9.122417036411e-05 8.604302907885e-04 0.0 
8.604302907885e-04 8.519263787606e-03 0.0 
0.0 0.0 0.0 
-9.606043278643e-05 7.562916369418e-04 0.0 
7.562916369418e-04 8.669786671104e-03 0.0 
0.0 0.0 0.0 
-1.861598379161e-04 6.834037193498e-04 0.0 
6.834037193498e-04 8.278342381731e-03 0.0 
0.0 0.0 0.0 
6.218915172145e-04 -6.741391584975e-04 0.0 
-6.741391584975e-04 3.232987774310e-03 0.0 
0.0 0.0 0.0 
-3.058858658155e-04 4.748088969120e-04 0.0 
4.748088969120e-04 7.641413909494e-03 0.0 
0.0 0.0 0.0 
-3.131304316579e-04 2.087162344490e-03 0.0 
2.087162344490e-03 1.574297967851e-03 0.0 
0.0 0.0 0.0 
1.655211917705e-03 1.078525617899e-03 0.0 
1.078525617899e-03 2.430688356956e-04 0.0 
0.0 0.0 0.0 
2.269687772057e-03 1.371853928040e-03 0.0 
1.371853928040e-03 -2.831557164347e-03 0.0 
0.0 0.0 0.0 
-5.364036108689e-04 9.729905564527e-04 0.0 
9.729905564527e-04 4.008065478376e-03 0.0 
0.0 0.0 0.0 
-4.886478652818e-04 1.664394793320e-04 0.0 
1.664394793320e-04 5.790282386496e-03 0.0 
0.0 0.0 0.0 
-4.197164177729e-04 2.664195594563e-04 0.0 
2.664195594563e-04 6.619461123158e-03 0.0 
0.0 0.0 0.0 
3.244626572541e-04 1.810269077742e-04 0.0 
1.810269077742e-04 6.394885734519e-03 0.0 
0.0 0.0 0.0 
-2.239396103114e-04 7.778599241010e-04 0.0 
7.778599241010e-04 7.153080864142e-03 0.0 
0.0 0.0 0.0 
-4.748019860225e-04 5.202444765586e-04 0.0 
5.202444765586e-04 6.015577572259e-03 0.0 
0.0 0.0 0.0 
-3.876799887099e-04 7.254264596263e-04 0.0 
7.254264596263e-04 5.831158701895e-03 0.0 
0.0 0.0 0.0 
2.367284774006e-03 1.310669421431e-03 0.0 
1.310669421431e-03 -3.212435879238e-03 0.0 
0.0 0.0 0.0 
-5.370178240617e-04 -1.033491236985e-03 0.0 
-1.033491236985e-03 5.834993761482e-04 0.0 
0.0 0.0 0.0 
6.164730540885e-04 1.501330591279e-03 0.0 
1.501330591279e-03 2.258123192254e-03 0.0 
0.0 0.0 0.0 
5.325002913814e-05 1.233870204562e-03 0.0 
1.233870204562e-03 3.988632705461e-03 0.0 
0.0 0.0 0.0 
6.056072079803e-04 1.363438689168e-03 0.0 
1.363438689168e-03 2.849419386172e-03 0.0 
0.0 0.0 0.0 
-4.545121340925e-04 2.289718086989e-03 0.0 
2.289718086989e-03 3.198794975874e-04 0.0 
0.0 0.0 0.0 
-3.397204730923e-04 3.677202861921e-05 0.0 
3.677202861921e-05 6.174406360671e-03 0.0 
0.0 0.0 0.0 
-4.859816598741e-04 -9.629906669583e-04 0.0 
-9.629906669583e-04 1.428519694506e-03 0.0 
0.0 0.0 0.0 
5.917165289240e-04 2.287676960925e-03 0.0 
2.287676960925e-03 3.535300285160e-04 0.0 
0.0 0.0 0.0 
0.0 1.999992656782e-04 0.0 
1.999992656782e-04 6.887327957343e-03 0.0 
0.0 0.0 0.0 
8.346851607954e-04 6.215467115544e-04 0.0 
6.215467115544e-04 4.171984837869e-03 0.0 
0.0 0.0 0.0 
-5.249445904046e-04 3.922518819601e-04 0.0 
3.922518819601e-04 5.590392581813e-03 0.0 
0.0 0.0 0.0 
1.470613616641e-04 -1.313854521138e-05 0.0 
-1.313854521138e-05 1.051443924607e-03 0.0 
0.0 0.0 0.0 
-2.046962687867e-04 1.152094778990e-03 0.0 
1.152094778990e-03 4.111978248988e-03 0.0 
0.0 0.0 0.0 
8.267737645831e-04 1.391383099874e-03 0.0 
1.391383099874e-03 2.272554010263e-03 0.0 
0.0 0.0 0.0 
-4.709107750094e-04 6.036982538291e-04 0.0 
6.036982538291e-04 6.080385534848e-03 0.0 
0.0 0.0 0.0 
-4.428172048998e-05 1.001591496614e-03 0.0 
1.001591496614e-03 8.212998019164e-03 0.0 
0.0 0.0 0.0 
-5.197141499227e-04 5.622907600910e-04 0.0 
5.622907600910e-04 5.152723034187e-03 0.0 
0.0 0.0 0.0 
-3.712600231358e-04 8.024903883052e-04 0.0 
8.024903883052e-04 5.518164290086e-03 0.0 
0.0 0.0 0.0 
-1.349500416816e-04 -7.633023972875e-04 0.0 
-7.633023972875e-04 3.420074537517e-03 0.0 
0.0 0.0 0.0 
-3.142333099225e-04 5.545671612346e-04 0.0 
5.545671612346e-04 7.504228555312e-03 0.0 
0.0 0.0 0.0 
6.141902823853e-04 -5.530147589315e-04 0.0 
-5.530147589315e-04 3.614460464983e-03 0.0 
0.0 0.0 0.0 
-3.501398155836e-05 1.025208434935e-03 0.0 
1.025208434935e-03 8.090501804447e-03 0.0 
0.0 0.0 0.0 
0.0 8.472589957905e-04 0.0 
8.472589957905e-04 8.475309653489e-03 0.0 
0.0 0.0 0.0 
0.0 6.331040529072e-04 0.0 
6.331040529072e-04 8.791030372816e-03 0.0 
0.0 0.0 0.0 
0.0 7.390013218501e-04 0.0 
7.390013218501e-04 8.632852390418e-03 0.0 
0.0 0.0 0.0 
-3.951942043308e-04 6.769430379373e-04 0.0 
6.769430379373e-04 6.130100596846e-03 0.0 
0.0 0.0 0.0 
-3.645900298408e-04 5.257598775521e-04 0.0 
5.257598775521e-04 7.508198798946e-03 0.0 
0.0 0.0 0.0 
-2.113474414306e-04 7.651560097879e-04 0.0 
7.651560097879e-04 7.465178741907e-03 0.0 
0.0 0.0 0.0 
-2.227362722574e-04 1.323880478375e-03 0.0 
1.323880478375e-03 3.432705181843e-03 0.0 
0.0 0.0 0.0 
-3.822206378989e-04 1.183742686050e-03 0.0 
1.183742686050e-03 3.588895209158e-03 0.0 
0.0 0.0 0.0 
-3.194340002302e-04 -6.791217609040e-04 0.0 
-6.791217609040e-04 3.365445852615e-03 0.0 
0.0 0.0 0.0 
-3.306625099441e-04 5.906283308333e-04 0.0 
5.906283308333e-04 7.603299873276e-03 0.0 
0.0 0.0 0.0 
1.020404907881e-05 1.042898224702e-03 0.0 
1.042898224702e-03 7.824681599355e-03 0.0 
0.0 0.0 0.0 
-2.788341790162e-04 5.366758067729e-04 0.0 
5.366758067729e-04 7.752621278514e-03 0.0 
0.0 0.0 0.0 
9.344709526633e-04 6.715628663813e-04 0.0 
6.715628663813e-04 3.645397756848e-03 0.0 
0.0 0.0 0.0 
-3.293675919499e-04 5.069342075863e-04 0.0 
5.069342075863e-04 7.756915622062e-03 0.0 
0.0 0.0 0.0 
1.930486392840e-04 9.545753222705e-04 0.0 
9.545753222705e-04 5.402808328250e-03 0.0 
0.0 0.0 0.0 
6.177286714015e-05 1.333333593722e-03 0.0 
1.333333593722e-03 3.539517992800e-03 0.0 
0.0 0.0 0.0 
-5.088300100540e-04 8.809714590107e-04 0.0 
8.809714590107e-04 4.017626483849e-03 0.0 
0.0 0.0 0.0 
8.181832830272e-04 2.709064950015e-03 0.0 
2.709064950015e-03 -1.017212633462e-03 0.0 
0.0 0.0 0.0 
-8.628906545571e-05 4.434376241561e-04 0.0 
4.434376241561e-04 8.646450341715e-03 0.0 
0.0 0.0 0.0 
-1.405900400733e-04 1.488947029641e-03 0.0 
1.488947029641e-03 2.987589407423e-03 0.0 
0.0 0.0 0.0 
4.783150085697e-05 9.022625887022e-04 0.0 
9.022625887022e-04 7.041372946565e-03 0.0 
0.0 0.0 0.0 
-2.629484673182e-04 -7.026188734677e-04 0.0 
-7.026188734677e-04 3.368651201966e-03 0.0 
0.0 0.0 0.0 
7.650192525830e-04 -1.976870764169e-03 0.0 
-1.976870764169e-03 -3.069593372709e-04 0.0 
0.0 0.0 0.0 
1.803180894477e-04 1.397752984028e-04 0.0 
1.397752984028e-04 6.407850400823e-03 0.0 
0.0 0.0 0.0 
3.179202128973e-04 2.093005182593e-03 0.0 
2.093005182593e-03 1.174858148404e-03 0.0 
0.0 0.0 0.0 
0.0 8.946642358894e-04 0.0 
8.946642358894e-04 8.382985699810e-03 0.0 
0.0 0.0 0.0 
-1.138824867646e-04 6.536463841006e-04 0.0 
6.536463841006e-04 8.415973084806e-03 0.0 
0.0 0.0 0.0 
-2.507539678073e-04 9.326670006540e-04 0.0 
9.326670006540e-04 5.166396757077e-03 0.0 
0.0 0.0 0.0 
-5.011936841152e-04 -4.680393019611e-04 0.0 
-4.680393019611e-04 6.035825455490e-04 0.0 
0.0 0.0 0.0 
0.0 9.623368562490e-04 0.0 
9.623368562490e-04 8.151605844568e-03 0.0 
0.0 0.0 0.0 
1.891614521350e-04 3.352838209938e-04 0.0 
3.352838209938e-04 6.417193646486e-03 0.0 
0.0 0.0 0.0 
1.199778273775e-03 -1.690713434266e-03 0.0 
-1.690713434266e-03 -3.525482366630e-04 0.0 
0.0 0.0 0.0 
9.617668684330e-04 5.138541092655e-04 0.0 
5.138541092655e-04 3.742046983425e-03 0.0 
0.0 0.0 0.0 
1.286357642354e-04 8.059467470715e-04 0.0 
8.059467470715e-04 7.197417945495e-03 0.0 
0.0 0.0 0.0 
5.562069148590e-06 -2.348162860777e-05 0.0 
-2.348162860777e-05 8.738291419497e-05 0.0 
0.0 0.0 0.0 
-2.884422214344e-05 1.414799892900e-03 0.0 
1.414799892900e-03 3.248538966458e-03 0.0 
0.0 0.0 0.0 
-2.914504937366e-04 8.603260125854e-04 0.0 
8.603260125854e-04 5.514211112490e-03 0.0 
0.0 0.0 0.0 
-1.972663267171e-04 1.017641151374e-03 0.0 
1.017641151374e-03 4.798744168043e-03 0.0 
0.0 0.0 0.0 
-3.460061969209e-04 8.559682125208e-04 0.0 
8.559682125208e-04 5.195844758800e-03 0.0 
0.0 0.0 0.0 
3.926184807992e-04 2.560433820447e-03 0.0 
2.560433820447e-03 7.273986588596e-05 0.0 
0.0 0.0 0.0 
0.0 9.898784417900e-04 0.0 
9.898784417900e-04 7.891691959050e-03 0.0 
0.0 0.0 0.0 
1.537124649096e-03 9.114147453480e-04 0.0 
9.114147453480e-04 8.689164977433e-04 0.0 
0.0 0.0 0.0 
2.041994024114e-03 4.183776709437e-04 0.0 
4.183776709437e-04 -4.057807017719e-03 0.0 
0.0 0.0 0.0 
-2.807234391056e-06 -2.658291293121e-04 0.0 
-2.658291293121e-04 6.970553347034e-03 0.0 
0.0 0.0 0.0 
-1.965552260952e-07 -3.492616890213e-04 0.0 
-3.492616890213e-04 2.858325379533e-04 0.0 
0.0 0.0 0.0 
-5.193482676104e-04 6.893507546052e-04 0.0 
6.893507546052e-04 4.611640757339e-03 0.0 
0.0 0.0 0.0 
8.598159188165e-04 -2.188457798439e-03 0.0 
-2.188457798439e-03 -1.961595953889e-03 0.0 
0.0 0.0 0.0 
-5.399662859886e-04 4.604080349309e-04 0.0 
4.604080349309e-04 5.084144105263e-03 0.0 
0.0 0.0 0.0 
1.899315591125e-04 3.702803171116e-04 0.0 
3.702803171116e-04 6.893198336699e-03 0.0 
0.0 0.0 0.0 
0.0 9.644831751562e-04 0.0 
9.644831751562e-04 7.626516304758e-03 0.0 
0.0 0.0 0.0 
-4.422169563475e-04 6.439580636212e-04 0.0 
6.439580636212e-04 5.798724954286e-03 0.0 
0.0 0.0 0.0 
8.411215249549e-05 -2.215113292187e-03 0.0 
-2.215113292187e-03 -9.088995034081e-04 0.0 
0.0 0.0 0.0 
1.842268351332e-03 7.769178950997e-04 0.0 
7.769178950997e-04 -4.680338319853e-03 0.0 
0.0 0.0 0.0 
2.017071548077e-05 -2.683667998447e-03 0.0 
-2.683667998447e-03 -1.051916220386e-03 0.0 
0.0 0.0 0.0 
1.389922021038e-04 -3.400315648670e-04 0.0 
-3.400315648670e-04 5.714032387706e-03 0.0 
0.0 0.0 0.0 
-5.046097324994e-04 2.031534391331e-04 0.0 
2.031534391331e-04 5.751889634720e-03 0.0 
0.0 0.0 0.0 
-5.546794906411e-04 3.623758601585e-04 0.0 
3.623758601585e-04 5.827458658098e-03 0.0 
0.0 0.0 0.0 
0.0 8.774145988337e-04 0.0 
8.774145988337e-04 7.373365191808e-03 0.0 
0.0 0.0 0.0 
-4.906975887848e-04 1.574662133582e-04 0.0 
1.574662133582e-04 5.780230978011e-03 0.0 
0.0 0.0 0.0 
-8.926314452473e-05 6.341391838483e-04 0.0 
6.341391838483e-04 8.819322792289e-03 0.0 
0.0 0.0 0.0 
2.293192662255e-04 9.718340814828e-04 0.0 
9.718340814828e-04 5.376189382652e-03 0.0 
0.0 0.0 0.0 
-4.196467418631e-04 2.150851131720e-04 0.0 
2.150851131720e-04 6.456722031555e-03 0.0 
0.0 0.0 0.0 
-4.464708386344e-04 1.554373503424e-03 0.0 
1.554373503424e-03 2.581463373263e-03 0.0 
0.0 0.0 0.0 
8.986520938143e-04 6.702378412342e-04 0.0 
6.702378412342e-04 3.720521158038e-03 0.0 
0.0 0.0 0.0 
1.734446925500e-03 2.187671838890e-03 0.0 
2.187671838890e-03 -2.141748819747e-03 0.0 
0.0 0.0 0.0 
0.0 7.238512253549e-04 0.0 
7.238512253549e-04 7.145500790449e-03 0.0 
0.0 0.0 0.0 
0.0 7.975527848035e-04 0.0 
7.975527848035e-04 8.560145991150e-03 0.0 
0.0 0.0 0.0 
0.0 6.828701711956e-04 0.0 
6.828701711956e-04 8.725543189893e-03 0.0 
0.0 0.0 0.0 
4.640522421773e-04 -6.594354162350e-04 0.0 
-6.594354162350e-04 3.631074221361e-03 0.0 
0.0 0.0 0.0 
-3.867476443199e-04 -5.828439570694e-04 0.0 
-5.828439570694e-04 3.284299118582e-03 0.0 
0.0 0.0 0.0 
1.890166781959e-04 1.340738535062e-03 0.0 
1.340738535062e-03 3.537635770629e-03 0.0 
0.0 0.0 0.0 
4.593892729332e-04 -5.393124672956e-04 0.0 
-5.393124672956e-04 3.994668787530e-03 0.0 
0.0 0.0 0.0 
0.0 5.391257432048e-04 0.0 
5.391257432048e-04 6.979962168548e-03 0.0 
0.0 0.0 0.0 
9.561060557224e-04 2.172271958981e-03 0.0 
2.172271958981e-03 3.687106548436e-04 0.0 
0.0 0.0 0.0 
1.822546719821e-03 -7.395066235440e-04 0.0 
-7.395066235440e-04 -6.449205202363e-04 0.0 
0.0 0.0 0.0 
1.514311249440e-03 -1.017548833012e-03 0.0 
-1.017548833012e-03 4.072904391128e-05 0.0 
0.0 0.0 0.0 
-3.946404863620e-04 2.128650725575e-04 0.0 
2.128650725575e-04 6.694861509738e-03 0.0 
0.0 0.0 0.0 
1.378682268851e-04 3.213895599849e-05 0.0 
3.213895599849e-05 6.907903797526e-03 0.0 
0.0 0.0 0.0 
-7.657123579323e-04 -2.327288891355e-03 0.0 
-2.327288891355e-03 -3.683228769634e-04 0.0 
0.0 0.0 0.0 
0.0 3.074427095760e-04 0.0 
3.074427095760e-04 6.883847060118e-03 0.0 
0.0 0.0 0.0 
1.224067647623e-03 -1.400093351993e-03 0.0 
-1.400093351993e-03 1.604420018806e-04 0.0 
0.0 0.0 0.0 
0.0 9.349799758562e-04 0.0 
9.349799758562e-04 8.280748181367e-03 0.0 
0.0 0.0 0.0 
-2.602957312580e-04 7.402566718160e-04 0.0 
7.402566718160e-04 7.469784642818e-03 0.0 
0.0 0.0 0.0 
8.424641663958e-04 -1.981835669517e-05 0.0 
-1.981835669517e-05 -1.926899657633e-04 0.0 
0.0 0.0 0.0 
1.943750823448e-04 1.451587278926e-03 0.0 
1.451587278926e-03 3.038698306379e-03 0.0 
0.0 0.0 0.0 
-3.163257878366e-04 4.247647706826e-04 0.0 
4.247647706826e-04 7.884620556996e-03 0.0 
0.0 0.0 0.0 
0.0 9.827911536045e-04 0.0 
9.827911536045e-04 8.028397578230e-03 0.0 
0.0 0.0 0.0 
-4.151490622371e-04 6.801104786541e-04 0.0 
6.801104786541e-04 6.129770212912e-03 0.0 
0.0 0.0 0.0 
3.210307091410e-04 9.339895915267e-04 0.0 
9.339895915267e-04 5.373787746748e-03 0.0 
0.0 0.0 0.0 
5.468792836134e-04 2.791202187289e-03 0.0 
2.791202187289e-03 -1.104768319520e-03 0.0 
0.0 0.0 0.0 
3.605100868380e-04 2.673100068187e-04 0.0 
2.673100068187e-04 5.944023889526e-03 0.0 
0.0 0.0 0.0 
8.988955665952e-04 -1.425370485504e-03 0.0 
-1.425370485504e-03 8.368734314437e-04 0.0 
0.0 0.0 0.0 
1.201587310551e-03 -1.359076411028e-03 0.0 
-1.359076411028e-03 8.773136280649e-05 0.0 
0.0 0.0 0.0 
-1.169666341736e-03 -2.374540210474e-03 0.0 
-2.374540210474e-03 -5.456809759109e-04 0.0 
0.0 0.0 0.0 
0.0 9.837937703130e-04 0.0 
9.837937703130e-04 7.757957145794e-03 0.0 
0.0 0.0 0.0 
1.839175494522e-03 1.911294139136e-03 0.0 
1.911294139136e-03 -1.683717145042e-03 0.0 
0.0 0.0 0.0 
5.258311159377e-04 -1.254687955650e-04 0.0 
-1.254687955650e-04 5.135471126497e-03 0.0 
0.0 0.0 0.0 
-4.577820846022e-04 1.266912433642e-04 0.0 
1.266912433642e-04 6.274894749781e-03 0.0 
0.0 0.0 0.0 
-6.922896909878e-05 -1.588922730182e-03 0.0 
-1.588922730182e-03 1.317026415341e-03 0.0 
0.0 0.0 0.0 
1.536002810978e-03 -1.207964132605e-03 0.0 
-1.207964132605e-03 -5.758657812045e-04 0.0 
0.0 0.0 0.0 
-3.981424090833e-04 7.362575336729e-04 0.0 
7.362575336729e-04 5.829741871605e-03 0.0 
0.0 0.0 0.0 
0.0 8.038669093215e-04 0.0 
8.038669093215e-04 7.257371115477e-03 0.0 
0.0 0.0 0.0 
-3.949188516401e-04 -5.045111877358e-04 0.0 
-5.045111877358e-04 3.531226721292e-03 0.0 
0.0 0.0 0.0 
5.252669492422e-04 -4.357765075012e-04 0.0 
-4.357765075012e-04 4.231597099937e-03 0.0 
0.0 0.0 0.0 
2.069168470942e-05 1.156115427393e-03 0.0 
1.156115427393e-03 4.311601257911e-03 0.0 
0.0 0.0 0.0 
9.575690864232e-04 -2.926091239696e-04 0.0 
-2.926091239696e-04 3.172111708137e-03 0.0 
0.0 0.0 0.0 
1.732702649537e-03 -7.018043716856e-04 0.0 
-7.018043716856e-04 -4.170392364028e-04 0.0 
0.0 0.0 0.0 
5.787085153253e-04 -5.463665633400e-04 0.0 
-5.463665633400e-04 3.730215263559e-03 0.0 
0.0 0.0 0.0 
-5.677544471960e-05 1.131170845273e-03 0.0 
1.131170845273e-03 4.406173059750e-03 0.0 
0.0 0.0 0.0 
-1.549184379945e-05 9.228613380529e-04 0.0 
9.228613380529e-04 5.824315730287e-03 0.0 
0.0 0.0 0.0 
7.978461428906e-04 6.248162895291e-04 0.0 
6.248162895291e-04 4.260775744732e-03 0.0 
0.0 0.0 0.0 
1.304366429273e-04 1.247759789158e-03 0.0 
1.247759789158e-03 3.863179324325e-03 0.0 
0.0 0.0 0.0 
-4.167177247050e-05 -8.880039382493e-04 0.0 
-8.880039382493e-04 3.099147254395e-03 0.0 
0.0 0.0 0.0 
6.027054086040e-04 2.074947754829e-03 0.0 
2.074947754829e-03 1.175982364363e-03 0.0 
0.0 0.0 0.0 
-3.609819323223e-04 -6.176768673742e-04 0.0 
-6.176768673742e-04 3.289381148367e-03 0.0 
0.0 0.0 0.0 
2.989718470614e-04 9.218041518885e-04 0.0 
9.218041518885e-04 5.384441370767e-03 0.0 
0.0 0.0 0.0 
1.139020138121e-03 6.016263026654e-04 0.0 
6.016263026654e-04 2.720152624607e-03 0.0 
0.0 0.0 0.0 
1.837556420121e-04 2.526926449265e-04 0.0 
2.526926449265e-04 6.885572607106e-03 0.0 
0.0 0.0 0.0 
-2.898369619203e-04 4.878083363895e-04 0.0 
4.878083363895e-04 7.999792452070e-03 0.0 
0.0 0.0 0.0 
-2.133128068721e-04 -1.485294735970e-03 0.0 
-1.485294735970e-03 1.536011409496e-03 0.0 
0.0 0.0 0.0 
0.0 4.202626919153e-04 0.0 
4.202626919153e-04 6.903125945343e-03 0.0 
0.0 0.0 0.0 
3.606111615806e-04 2.961842564006e-04 0.0 
2.961842564006e-04 6.404976319576e-03 0.0 
0.0 0.0 0.0 
6.432165007595e-04 1.336053351897e-03 0.0 
1.336053351897e-03 2.689494585965e-03 0.0 
0.0 0.0 0.0 
-7.091111279405e-04 -1.488985024770e-03 0.0 
-1.488985024770e-03 3.571630339494e-04 0.0 
0.0 0.0 0.0 
1.460258855641e-04 -5.077002896168e-05 0.0 
-5.077002896168e-05 6.948476135594e-03 0.0 
0.0 0.0 0.0 
-2.975017700446e-04 5.728364186598e-04 0.0 
5.728364186598e-04 7.856761942640e-03 0.0 
0.0 0.0 0.0 
8.252413300014e-04 -1.683433273681e-03 0.0 
-1.683433273681e-03 4.197756688846e-04 0.0 
0.0 0.0 0.0 
0.0 9.260839566593e-05 0.0 
9.260839566593e-05 6.885364395601e-03 0.0 
0.0 0.0 0.0 
4.338601858760e-04 -5.399931568158e-04 0.0 
-5.399931568158e-04 4.106463907871e-03 0.0 
0.0 0.0 0.0 
-4.201445380355e-04 1.038792640143e-03 0.0 
1.038792640143e-03 3.949861263743e-03 0.0 
0.0 0.0 0.0 
-4.958447838735e-04 4.417441977696e-04 0.0 
4.417441977696e-04 5.932198255363e-03 0.0 
0.0 0.0 0.0 
1.187328441258e-03 6.077501707170e-04 0.0 
6.077501707170e-04 2.633107404564e-03 0.0 
0.0 0.0 0.0 
4.820848856608e-04 -7.949043878634e-04 0.0 
-7.949043878634e-04 3.161577932291e-03 0.0 
0.0 0.0 0.0 
9.773173809333e-04 -1.053284995880e-04 0.0 
-1.053284995880e-04 3.425791960431e-03 0.0 
0.0 0.0 0.0 
-4.711783999151e-04 4.331531374094e-04 0.0 
4.331531374094e-04 6.787483992289e-03 0.0 
0.0 0.0 0.0 
-4.621827745572e-04 8.140761558922e-04 0.0 
8.140761558922e-04 4.605364842727e-03 0.0 
0.0 0.0 0.0 
6.755609153564e-04 7.082513555378e-04 0.0 
7.082513555378e-04 4.677534234617e-03 0.0 
0.0 0.0 0.0 
-3.427891863603e-04 2.865741460527e-05 0.0 
2.865741460527e-05 6.520428414064e-03 0.0 
0.0 0.0 0.0 
-1.517188266000e-04 -8.849974077593e-04 0.0 
-8.849974077593e-04 3.099316126305e-03 0.0 
0.0 0.0 0.0 
9.156512736621e-04 5.186792542749e-04 0.0 
5.186792542749e-04 3.856255420051e-03 0.0 
0.0 0.0 0.0 
5.782956929465e-04 -1.589635543112e-03 0.0 
-1.589635543112e-03 8.590573353693e-04 0.0 
0.0 0.0 0.0 
-1.119673334921e-04 -4.390940775299e-04 0.0 
-4.390940775299e-04 4.819770784400e-03 0.0 
0.0 0.0 0.0 
3.426568898424e-04 -1.238024187105e-04 0.0 
-1.238024187105e-04 -1.033598525799e-04 0.0 
0.0 0.0 0.0 
3.257231379370e-04 1.926687568105e-03 0.0 
1.926687568105e-03 1.863721457806e-03 0.0 
0.0 0.0 0.0 
8.597322956481e-04 -1.666908600978e-03 0.0 
-1.666908600978e-03 2.001258837008e-04 0.0 
0.0 0.0 0.0 
-2.110062101771e-04 -6.462834287410e-04 0.0 
-6.462834287410e-04 3.715966665663e-03 0.0 
0.0 0.0 0.0 
4.636942019074e-04 1.294024168755e-03 0.0 
1.294024168755e-03 3.234678265682e-03 0.0 
0.0 0.0 0.0 
5.629878746078e-04 -4.379291766128e-04 0.0 
-4.379291766128e-04 4.090724062646e-03 0.0 
0.0 0.0 0.0 
-4.324531813169e-04 1.311982416360e-04 0.0 
1.311982416360e-04 6.533447793177e-03 0.0 
0.0 0.0 0.0 
4.624788392751e-04 -1.840146727800e-03 0.0 
-1.840146727800e-03 4.463215790445e-04 0.0 
0.0 0.0 0.0 
0.0 8.352286232850e-06 0.0 
8.352286232850e-06 6.930633445070e-03 0.0 
0.0 0.0 0.0 
-2.736564589019e-04 8.721810392452e-04 0.0 
8.721810392452e-04 5.512503793484e-03 0.0 
0.0 0.0 0.0 
-2.740668683098e-04 -5.371113502022e-04 0.0 
-5.371113502022e-04 3.989407546642e-03 0.0 
0.0 0.0 0.0 
-2.171124989219e-04 9.493546547456e-04 0.0 
9.493546547456e-04 5.163900813657e-03 0.0 
0.0 0.0 0.0 
-2.832253019261e-04 -6.369727756358e-04 0.0 
-6.369727756358e-04 3.714980822987e-03 0.0 
0.0 0.0 0.0 
-2.502790475229e-04 -3.796322766552e-05 0.0 
-3.796322766552e-05 1.971046496025e-04 0.0 
0.0 0.0 0.0 
-5.270448976291e-04 4.117883786633e-04 0.0 
4.117883786633e-04 6.181685933288e-03 0.0 
0.0 0.0 0.0 
-4.869423217424e-04 -1.649343282854e-04 0.0 
-1.649343282854e-04 3.481361953895e-03 0.0 
0.0 0.0 0.0 
4.602283725195e-04 1.334079272260e-05 0.0 
1.334079272260e-05 -9.930618580201e-05 0.0 
0.0 0.0 0.0 
-3.599906096500e-04 -4.748202391761e-04 0.0 
-4.748202391761e-04 3.884977353451e-03 0.0 
0.0 0.0 0.0 
5.001105652318e-04 -3.395328569877e-04 0.0 
-3.395328569877e-04 4.571844750168e-03 0.0 
0.0 0.0 0.0 
-2.042805317606e-04 1.701222981939e-04 0.0 
1.701222981939e-04 8.028703304413e-03 0.0 
0.0 0.0 0.0 
1.092960762868e-03 -1.727193739899e-04 0.0 
-1.727193739899e-04 2.853697405833e-03 0.0 
0.0 0.0 0.0 
1.044558479671e-03 -1.100035629610e-04 0.0 
-1.100035629610e-04 3.140078156657e-03 0.0 
0.0 0.0 0.0 
-5.726149706291e-04 3.207951110829e-04 0.0 
3.207951110829e-04 5.483304464233e-03 0.0 
0.0 0.0 0.0 
-4.882719294441e-04 1.108249092866e-04 0.0 
1.108249092866e-04 5.430124349088e-03 0.0 
0.0 0.0 0.0 
-8.890033496534e-05 5.183050630487e-04 0.0 
5.183050630487e-04 8.589127541385e-03 0.0 
0.0 0.0 0.0 
-1.461090043212e-04 1.034842755546e-03 0.0 
1.034842755546e-03 4.796287282519e-03 0.0 
0.0 0.0 0.0 
7.517120176022e-04 -1.256611471368e-05 0.0 
-1.256611471368e-05 -1.914301148839e-04 0.0 
0.0 0.0 0.0 
-3.923298456473e-04 -6.157120379556e-04 0.0 
-6.157120379556e-04 1.339005142150e-03 0.0 
0.0 0.0 0.0 
-6.533889496355e-04 -8.465423771582e-04 0.0 
-8.465423771582e-04 5.448892942268e-04 0.0 
0.0 0.0 0.0 
-3.436518501599e-04 -1.178016664640e-03 0.0 
-1.178016664640e-03 1.875818980067e-03 0.0 
0.0 0.0 0.0 
-1.208894466940e-04 8.543785563728e-04 0.0 
8.543785563728e-04 6.928254900416e-03 0.0 
0.0 0.0 0.0 
-2.320862960695e-04 1.197293313707e-04 0.0 
1.197293313707e-04 8.034834714470e-03 0.0 
0.0 0.0 0.0 
1.467043837116e-04 -3.123087469953e-04 0.0 
-3.123087469953e-04 5.564477231746e-03 0.0 
0.0 0.0 0.0 
-3.654556464369e-04 -8.339178899923e-04 0.0 
-8.339178899923e-04 2.440413367464e-03 0.0 
0.0 0.0 0.0 
-1.929057398240e-04 -4.639363890714e-04 0.0 
-4.639363890714e-04 4.824294826286e-03 0.0 
0.0 0.0 0.0 
4.692546578218e-04 -6.951712603804e-05 0.0 
-6.951712603804e-05 5.419990185537e-03 0.0 
0.0 0.0 0.0 
2.525148379922e-03 4.132275230825e-04 0.0 
4.132275230825e-04 -3.740358704815e-03 0.0 
0.0 0.0 0.0 
-4.769976592639e-04 -1.374693141791e-04 0.0 
-1.374693141791e-04 3.480867179322e-03 0.0 
0.0 0.0 0.0 
-4.303921675641e-04 -7.919848257508e-05 0.0 
-7.919848257508e-05 2.898822317148e-03 0.0 
0.0 0.0 0.0 
1.015457877203e-04 -1.308535488646e-04 0.0 
-1.308535488646e-04 6.990077428232e-03 0.0 
0.0 0.0 0.0 
0.0 -8.051985255580e-05 0.0 
-8.051985255580e-05 6.966285824565e-03 0.0 
0.0 0.0 0.0 
-4.918330230120e-04 -1.385517220696e-04 0.0 
-1.385517220696e-04 3.836330566420e-03 0.0 
0.0 0.0 0.0 
-3.327586104224e-04 -5.279992989408e-04 0.0 
-5.279992989408e-04 3.988358617159e-03 0.0 
0.0 0.0 0.0 
4.855876522232e-04 -6.612864161983e-04 0.0 
-6.612864161983e-04 3.545720228433e-03 0.0 
0.0 0.0 0.0 
4.659485079561e-04 2.780261194375e-05 0.0 
2.780261194375e-05 5.641689000910e-03 0.0 
0.0 0.0 0.0 
-5.562267322176e-04 -6.547187661989e-04 0.0 
-6.547187661989e-04 1.532522381123e-03 0.0 
0.0 0.0 0.0 
4.624416780319e-04 -1.668663266933e-04 0.0 
-1.668663266933e-04 5.221981618125e-03 0.0 
0.0 0.0 0.0 
2.579556362348e-04 -4.990964536420e-05 0.0 
-4.990964536420e-05 6.623056957986e-04 0.0 
0.0 0.0 0.0 
-3.621666660869e-04 -5.630014520046e-04 0.0 
-5.630014520046e-04 3.633079382263e-03 0.0 
0.0 0.0 0.0 
-1.821472856867e-04 -6.910619927478e-04 0.0 
-6.910619927478e-04 3.777802952066e-03 0.0 
0.0 0.0 0.0 
2.914038414048e-04 -3.772143457074e-06 0.0 
-3.772143457074e-06 2.675294697045e-04 0.0 
0.0 0.0 0.0 
-4.898178503792e-04 -9.036997387014e-05 0.0 
-9.036997387014e-05 3.672007926006e-03 0.0 
0.0 0.0 0.0 
-2.373503134337e-04 5.204123267819e-04 0.0 
5.204123267819e-04 7.993722247600e-03 0.0 
0.0 0.0 0.0 
6.987101493092e-04 -1.211043072414e-06 0.0 
-1.211043072414e-06 -1.703107163691e-04 0.0 
0.0 0.0 0.0 
-5.018562281052e-04 1.459737985137e-04 0.0 
1.459737985137e-04 5.414882078853e-03 0.0 
0.0 0.0 0.0 
-5.064993175803e-04 1.766504420402e-04 0.0 
1.766504420402e-04 5.384173623022e-03 0.0 
0.0 0.0 0.0 
9.584401101841e-04 6.840459977873e-05 0.0 
6.840459977873e-05 3.724957750055e-03 0.0 
0.0 0.0 0.0 
-4.156236620059e-04 -4.664410265208e-05 0.0 
-4.664410265208e-05 2.900017602404e-03 0.0 
0.0 0.0 0.0 
5.251948782716e-04 -1.582054305402e-03 0.0 
-1.582054305402e-03 1.065016677627e-03 0.0 
0.0 0.0 0.0 
2.582648752658e-05 2.570541079592e-03 0.0 
2.570541079592e-03 8.524837745532e-04 0.0 
0.0 0.0 0.0 
4.251238279118e-05 -2.514940445400e-04 0.0 
-2.514940445400e-04 6.282782566184e-03 0.0 
0.0 0.0 0.0 
7.544051696007e-06 9.347154375155e-04 0.0 
9.347154375155e-04 7.473887609501e-03 0.0 
0.0 0.0 0.0 
-2.967350107849e-04 1.864597371773e-04 0.0 
1.864597371773e-04 7.760929530087e-03 0.0 
0.0 0.0 0.0 
-4.084447925194e-04 1.714274512267e-03 0.0 
1.714274512267e-03 2.561237947958e-03 0.0 
0.0 0.0 0.0 
-5.266184883396e-04 -4.987443370564e-04 0.0 
-4.987443370564e-04 9.670529680534e-04 0.0 
0.0 0.0 0.0 
-5.565709776304e-04 6.621331220226e-04 0.0 
6.621331220226e-04 4.880780866497e-03 0.0 
0.0 0.0 0.0 
-4.244126258247e-04 5.081388496858e-05 0.0 
5.081388496858e-05 5.468252971914e-03 0.0 
0.0 0.0 0.0 
-4.155520554329e-04 4.219952676557e-05 0.0 
4.219952676557e-05 5.455031330189e-03 0.0 
0.0 0.0 0.0 
4.666282663803e-04 1.577724343583e-06 0.0 
1.577724343583e-06 -9.602902158912e-05 0.0 
0.0 0.0 0.0 
2.580701829675e-04 -7.558986734491e-06 0.0 
-7.558986734491e-06 2.806184620798e-04 0.0 
0.0 0.0 0.0 
1.326994694610e-04 -3.022341397692e-05 0.0 
-3.022341397692e-05 6.974229047541e-04 0.0 
0.0 0.0 0.0 
-4.900672079686e-04 -6.762628568055e-04 0.0 
-6.762628568055e-04 2.060046150313e-03 0.0 
0.0 0.0 0.0 
4.885861079633e-04 -5.762840055285e-06 0.0 
-5.762840055285e-06 2.040788934576e-04 0.0 
0.0 0.0 0.0 
-4.988295680891e-04 -8.912432676064e-05 0.0 
-8.912432676064e-05 4.048630145818e-03 0.0 
0.0 0.0 0.0 
-8.458118613817e-04 -1.062954045864e-03 0.0 
-1.062954045864e-03 -2.068184012468e-03 0.0 
0.0 0.0 0.0 
-4.456185528897e-04 -7.375473209891e-04 0.0 
-7.375473209891e-04 2.385510922007e-03 0.0 
0.0 0.0 0.0 
-3.006552894429e-04 5.016822279063e-05 0.0 
5.016822279063e-05 6.874741094370e-03 0.0 
0.0 0.0 0.0 
-4.691128594531e-04 1.082584827440e-04 0.0 
1.082584827440e-04 5.420315620381e-03 0.0 
0.0 0.0 0.0 
-1.479925890298e-04 8.384221067718e-04 0.0 
8.384221067718e-04 7.253053574628e-03 0.0 
0.0 0.0 0.0 
4.201722094734e-04 -4.322234113593e-04 0.0 
-4.322234113593e-04 4.451680228597e-03 0.0 
0.0 0.0 0.0 
-3.213948539686e-04 3.880933725242e-05 0.0 
3.880933725242e-05 6.510596755573e-03 0.0 
0.0 0.0 0.0 
-4.486718200765e-04 -1.605780666872e-05 0.0 
-1.605780666872e-05 3.094781314061e-03 0.0 
0.0 0.0 0.0 
3.116641331180e-04 -3.201779281338e-05 0.0 
-3.201779281338e-05 6.362551378696e-04 0.0 
0.0 0.0 0.0 
0.0 2.813469704128e-04 0.0 
2.813469704128e-04 9.045477987264e-03 0.0 
0.0 0.0 0.0 
-7.841065106429e-05 3.158642565493e-04 0.0 
3.158642565493e-04 9.032082333154e-03 0.0 
0.0 0.0 0.0 
-4.122419350282e-04 1.738964531825e-04 0.0 
1.738964531825e-04 6.271301609450e-03 0.0 
0.0 0.0 0.0 
-4.518586688004e-04 6.476127715195e-05 0.0 
6.476127715195e-05 5.455051279055e-03 0.0 
0.0 0.0 0.0 
-4.417817867413e-04 -1.127495170887e-04 0.0 
-1.127495170887e-04 3.123290728759e-03 0.0 
0.0 0.0 0.0 
-6.686167093806e-05 2.221643997588e-04 0.0 
2.221643997588e-04 9.072241767537e-03 0.0 
0.0 0.0 0.0 
-4.002087021184e-04 -7.895866639250e-04 0.0 
-7.895866639250e-04 2.140405321708e-03 0.0 
0.0 0.0 0.0 
-4.869326034005e-04 1.372335326748e-04 0.0 
1.372335326748e-04 5.399547046224e-03 0.0 
0.0 0.0 0.0 
-4.618304464787e-04 8.848112242264e-05 0.0 
8.848112242264e-05 5.441250612178e-03 0.0 
0.0 0.0 0.0 
-5.478357925841e-04 5.071079492272e-04 0.0 
5.071079492272e-04 4.840688273205e-03 0.0 
0.0 0.0 0.0 
0.0 5.804033547816e-04 0.0 
5.804033547816e-04 8.851604932238e-03 0.0 
0.0 0.0 0.0 
-6.824274826489e-05 2.722650738097e-04 0.0 
2.722650738097e-04 9.057678638855e-03 0.0 
0.0 0.0 0.0 
4.845516860723e-04 -4.838853074274e-06 0.0 
-4.838853074274e-06 2.014634141938e-04 0.0 
0.0 0.0 0.0 
4.845466964580e-04 5.532945462613e-07 0.0 
5.532945462613e-07 -9.689426027137e-05 0.0 
0.0 0.0 0.0 
-4.929860931888e-04 -4.643034025674e-04 0.0 
-4.643034025674e-04 1.162881472718e-03 0.0 
0.0 0.0 0.0 
-8.569285065119e-05 -6.840606732611e-04 0.0 
-6.840606732611e-04 3.776227677968e-03 0.0 
0.0 0.0 0.0 
-1.843549796821e-04 -1.808000144116e-05 0.0 
-1.808000144116e-05 7.003007966139e-03 0.0 
0.0 0.0 0.0 
-2.558415572520e-03 -1.925587803554e-03 0.0 
-1.925587803554e-03 -2.470041514803e-03 0.0 
0.0 0.0 0.0 
-2.363933435666e-04 -7.626793117708e-06 0.0 
-7.626793117708e-06 7.731268560370e-03 0.0 
0.0 0.0 0.0 
-1.136795726398e-03 -8.105245372329e-04 0.0 
-8.105245372329e-04 5.312806225624e-04 0.0 
0.0 0.0 0.0 
9.277377962700e-04 -4.742138072316e-05 0.0 
-4.742138072316e-05 3.701302128863e-03 0.0 
0.0 0.0 0.0 
-1.253115893424e-04 -5.330682048898e-04 0.0 
-5.330682048898e-04 -1.254349170389e-04 0.0 
0.0 0.0 0.0 
-1.106029268509e-03 -2.030510995196e-03 0.0 
-2.030510995196e-03 -9.688259258444e-04 0.0 
0.0 0.0 0.0 
9.158067277359e-04 -2.156266005813e-04 0.0 
-2.156266005813e-04 3.486931000633e-03 0.0 
0.0 0.0 0.0 
-1.661564333881e-04 -1.461885576600e-04 0.0 
-1.461885576600e-04 6.728271404911e-03 0.0 
0.0 0.0 0.0 
-3.218425716273e-04 2.096990088913e-05 0.0 
2.096990088913e-05 6.846040098492e-03 0.0 
0.0 0.0 0.0 
-4.918837238932e-04 7.761580967420e-04 0.0 
7.761580967420e-04 4.900946800814e-03 0.0 
0.0 0.0 0.0 
3.118886816478e-04 -7.766648053232e-06 0.0 
-7.766648053232e-06 2.586595906393e-04 0.0 
0.0 0.0 0.0 
-2.479100203655e-04 -3.861740998732e-04 0.0 
-3.861740998732e-04 5.097936540045e-03 0.0 
0.0 0.0 0.0 
0.0 8.690345186125e-05 0.0 
8.690345186125e-05 9.086939325394e-03 0.0 
0.0 0.0 0.0 
-6.211283332458e-05 8.566459155329e-05 0.0 
8.566459155329e-05 9.099219862737e-03 0.0 
0.0 0.0 0.0 
-4.490992855203e-04 8.403108803582e-05 0.0 
8.403108803582e-05 5.431871121748e-03 0.0 
0.0 0.0 0.0 
9.044225228381e-04 1.091365451068e-04 0.0 
1.091365451068e-04 3.959935670672e-03 0.0 
0.0 0.0 0.0 
0.0 2.406937749417e-04 0.0 
2.406937749417e-04 9.070698759376e-03 0.0 
0.0 0.0 0.0 
3.840004798235e-04 8.677248123483e-04 0.0 
8.677248123483e-04 5.383079196848e-03 0.0 
0.0 0.0 0.0 
3.153351129601e-04 -9.782575228650e-06 0.0 
-9.782575228650e-06 6.114925195531e-04 0.0 
0.0 0.0 0.0 
4.993398913693e-04 -9.374187439604e-06 0.0 
-9.374187439604e-06 1.982079502094e-04 0.0 
0.0 0.0 0.0 
3.204917296518e-04 2.573895593001e-06 0.0 
2.573895593001e-06 2.611743783911e-04 0.0 
0.0 0.0 0.0 
-4.822853192481e-04 -1.588055149662e-05 0.0 
-1.588055149662e-05 3.485481073570e-03 0.0 
0.0 0.0 0.0 
-6.800796701145e-05 -1.802420008137e-04 0.0 
-1.802420008137e-04 7.521854966230e-03 0.0 
0.0 0.0 0.0 
-1.031341877378e-04 -2.906105594133e-05 0.0 
-2.906105594133e-05 8.704160883170e-03 0.0 
0.0 0.0 0.0 
4.997751877949e-04 -1.036828660771e-06 0.0 
-1.036828660771e-06 -1.091162168675e-04 0.0 
0.0 0.0 0.0 
-4.976914246714e-04 -6.416549764142e-05 0.0 
-6.416549764142e-05 4.048594149290e-03 0.0 
0.0 0.0 0.0 
0.0 -1.262589077447e-04 0.0 
-1.262589077447e-04 7.563990636331e-03 0.0 
0.0 0.0 0.0 
-6.991419859825e-05 -1.964786356121e-04 0.0 
-1.964786356121e-04 7.480884031033e-03 0.0 
0.0 0.0 0.0 
1.012773557525e-04 -1.951789555025e-04 0.0 
-1.951789555025e-04 7.042347650809e-03 0.0 
0.0 0.0 0.0 
-2.715799790057e-04 4.593298685975e-05 0.0 
4.593298685975e-05 7.341701605845e-03 0.0 
0.0 0.0 0.0 
-2.103361837305e-04 -2.863475686531e-05 0.0 
-2.863475686531e-05 7.932654986812e-03 0.0 
0.0 0.0 0.0 
0.0 -1.653379219633e-04 0.0 
-1.653379219633e-04 7.493937756374e-03 0.0 
0.0 0.0 0.0 
0.0 -2.048691057726e-04 0.0 
-2.048691057726e-04 7.467267778579e-03 0.0 
0.0 0.0 0.0 
-2.299709023744e-04 4.430729949347e-05 0.0 
4.430729949347e-05 7.733098358726e-03 0.0 
0.0 0.0 0.0 
7.159937503778e-04 2.513434466756e-05 0.0 
2.513434466756e-05 -2.023811591410e-04 0.0 
0.0 0.0 0.0 
-3.835086566708e-04 2.494347724489e-05 0.0 
2.494347724489e-05 5.445845234951e-03 0.0 
0.0 0.0 0.0 
-4.335108980567e-04 6.714714667710e-05 0.0 
6.714714667710e-05 5.452408038699e-03 0.0 
0.0 0.0 0.0 
4.886536247148e-04 2.540374331670e-06 0.0 
2.540374331670e-06 -9.808701596403e-05 0.0 
0.0 0.0 0.0 
0.0 -2.562009097950e-04 0.0 
-2.562009097950e-04 7.309109638415e-03 0.0 
0.0 0.0 0.0 
5.552752546745e-05 -2.392381926424e-04 0.0 
-2.392381926424e-04 7.100733434604e-03 0.0 
0.0 0.0 0.0 
0.0 -2.285531174807e-04 0.0 
-2.285531174807e-04 7.129291075642e-03 0.0 
0.0 0.0 0.0 
6.697368871229e-04 5.173511317883e-06 0.0 
5.173511317883e-06 -1.604325786229e-04 0.0 
0.0 0.0 0.0 
6.759780527044e-04 1.447547319822e-06 0.0 
1.447547319822e-06 -1.617507017392e-04 0.0 
0.0 0.0 0.0 
0.0 -1.404213266941e-04 0.0 
-1.404213266941e-04 7.012878105928e-03 0.0 
0.0 0.0 0.0 
0.0 -1.965565797582e-04 0.0 
-1.965565797582e-04 7.069461290026e-03 0.0 
0.0 0.0 0.0 
-2.924499917843e-04 -3.186350825587e-05 0.0 
-3.186350825587e-05 7.140900931735e-03 0.0 
0.0 0.0 0.0 
-3.536822629219e-04 1.301932641947e-05 0.0 
1.301932641947e-05 5.439258657760e-03 0.0 
0.0 0.0 0.0 
-2.507591373779e-04 -3.047140559556e-05 0.0 
-3.047140559556e-05 7.538342969660e-03 0.0 
0.0 0.0 0.0 
-3.352037006328e-04 -3.215591054940e-05 0.0 
-3.215591054940e-05 6.324382721774e-03 0.0 
0.0 0.0 0.0 
-3.365805051505e-04 4.954431848027e-06 0.0 
4.954431848027e-06 5.436893664725e-03 0.0 
0.0 0.0 0.0 
7.917928220251e-04 -3.436301059202e-06 0.0 
-3.436301059202e-06 -1.931996829720e-04 0.0 
0.0 0.0 0.0 
7.728323956482e-04 -5.257500445463e-06 0.0 
-5.257500445463e-06 -1.675553159616e-04 0.0 
0.0 0.0 0.0 
7.447486684857e-04 -1.722331060556e-05 0.0 
-1.722331060556e-05 -1.789212491833e-04 0.0 
0.0 0.0 0.0 
8.017346803515e-04 -2.129203425438e-05 0.0 
-2.129203425438e-05 -1.899171001772e-04 0.0 
0.0 0.0 0.0 
-4.990479253710e-04 -5.435424846614e-06 0.0 
-5.435424846614e-06 4.247389229870e-03 0.0 
0.0 0.0 0.0 
-4.963996187345e-04 -1.312037048726e-05 0.0 
-1.312037048726e-05 3.866644717526e-03 0.0 
0.0 0.0 0.0 
2.171120993235e-04 -6.926050045491e-07 0.0 
-6.926050045491e-07 1.241369559013e-05 0.0 
0.0 0.0 0.0 
-4.285701087937e-04 4.315615344513e-06 0.0 
4.315615344513e-06 5.338918804886e-03 0.0 
0.0 0.0 0.0 
1.642984358630e-04 -2.417619465401e-05 0.0 
-2.417619465401e-05 2.738982429706e-05 0.0 
0.0 0.0 0.0 
0.0 4.758207115141e-04 0.0 
4.758207115141e-04 8.933889014971e-03 0.0 
0.0 0.0 0.0 
0.0 2.016539664572e-04 0.0 
2.016539664572e-04 9.073736512866e-03 0.0 
0.0 0.0 0.0 
0.0 3.294112695649e-04 0.0 
3.294112695649e-04 9.017722748771e-03 0.0 
0.0 0.0 0.0 
-7.907022828713e-06 -6.276183634281e-06 0.0 
-6.276183634281e-06 1.320529465286e-03 0.0 
0.0 0.0 0.0 
-3.848838216892e-04 -1.458376566119e-05 0.0 
-1.458376566119e-05 2.685327607707e-03 0.0 
0.0 0.0 0.0 
0.0 1.582615048624e-04 0.0 
1.582615048624e-04 9.071067918094e-03 0.0 
0.0 0.0 0.0 
-2.859861329942e-04 1.299504433351e-05 0.0 
1.299504433351e-05 6.462021640963e-03 0.0 
0.0 0.0 0.0 
0.0 1.228886651625e-04 0.0 
1.228886651625e-04 9.120408606767e-03 0.0 
0.0 0.0 0.0 
-2.230852961218e-04 1.828446868599e-05 0.0 
1.828446868599e-05 6.834310317500e-03 0.0 
0.0 0.0 0.0 
-1.465390785500e-04 2.291870817799e-05 0.0 
2.291870817799e-05 7.200634913978e-03 0.0 
0.0 0.0 0.0 
-4.893165704623e-04 -6.362025931055e-05 0.0 
-6.362025931055e-05 3.671997968837e-03 0.0 
0.0 0.0 0.0 
-7.646585569032e-05 1.778041465291e-04 0.0 
1.778041465291e-04 9.072342072804e-03 0.0 
0.0 0.0 0.0 
-6.231301015602e-05 1.665969446678e-04 0.0 
1.665969446678e-04 9.089751256625e-03 0.0 
0.0 0.0 0.0 
-2.516833504518e-04 -6.489933895783e-05 0.0 
-6.489933895783e-05 6.622208088709e-03 0.0 
0.0 0.0 0.0 
-1.839755261637e-04 -6.610929488591e-05 0.0 
-6.610929488591e-05 7.005726297855e-03 0.0 
0.0 0.0 0.0 
-3.172229515445e-04 -2.429520242703e-04 0.0 
-2.429520242703e-04 5.590715017552e-03 0.0 
0.0 0.0 0.0 
-6.354235562755e-04 -2.521327154111e-04 0.0 
-2.521327154111e-04 3.696358084018e-04 0.0 
0.0 0.0 0.0 
-4.178879854763e-04 -4.760039455869e-04 0.0 
-4.760039455869e-04 3.527316965440e-03 0.0 
0.0 0.0 0.0 
4.672725442700e-04 -1.481618027389e-05 0.0 
-1.481618027389e-05 2.123863490568e-04 0.0 
0.0 0.0 0.0 
5.777116895977e-08 -3.068092288243e-04 0.0 
-3.068092288243e-04 6.288488038241e-03 0.0 
0.0 0.0 0.0 
-3.160079615252e-04 -5.839162704247e-04 0.0 
-5.839162704247e-04 3.635981725019e-03 0.0 
0.0 0.0 0.0 
-1.793377430845e-04 -2.112187602131e-04 0.0 
-2.112187602131e-04 6.119142184339e-03 0.0 
0.0 0.0 0.0 
-4.008939485002e-04 -6.875801082629e-04 0.0 
-6.875801082629e-04 1.837802958542e-03 0.0 
0.0 0.0 0.0 
-1.487399887801e-05 -1.072287168111e-04 0.0 
-1.072287168111e-04 7.418330787494e-04 0.0 
0.0 0.0 0.0 
-1.798120958910e-04 -2.272092842531e-04 0.0 
-2.272092842531e-04 6.510435916905e-03 0.0 
0.0 0.0 0.0 
-3.953917316714e-04 -4.571326032478e-04 0.0 
-4.571326032478e-04 3.882365491379e-03 0.0 
0.0 0.0 0.0 
-4.746894515072e-04 -8.716844196175e-05 0.0 
-8.716844196175e-05 3.290633798311e-03 0.0 
0.0 0.0 0.0 
-2.200815636818e-04 -2.481287693002e-04 0.0 
-2.481287693002e-04 6.125258117351e-03 0.0 
0.0 0.0 0.0 
-1.564765253144e-04 9.821656080693e-05 0.0 
9.821656080693e-05 8.276529122236e-03 0.0 
0.0 0.0 0.0 
-4.653602230758e-04 -5.732304849418e-05 0.0 
-5.732304849418e-05 3.291197661488e-03 0.0 
0.0 0.0 0.0 
4.632146547126e-04 -3.423356765650e-04 0.0 
-3.423356765650e-04 4.735252902422e-03 0.0 
0.0 0.0 0.0 
8.601445550505e-05 -5.030179104006e-04 0.0 
-5.030179104006e-04 4.609321908613e-03 0.0 
0.0 0.0 0.0 
-2.743137909362e-04 -2.222517876468e-04 0.0 
-2.222517876468e-04 5.587268842397e-03 0.0 
0.0 0.0 0.0 
-2.999566524280e-04 -1.589030471447e-04 0.0 
-1.589030471447e-04 5.810633611397e-03 0.0 
0.0 0.0 0.0 
1.600722893654e-03 1.012709867313e-03 0.0 
1.012709867313e-03 1.669625693723e-04 0.0 
0.0 0.0 0.0 
-5.516959435767e-04 7.465159872715e-04 0.0 
7.465159872715e-04 4.603672179042e-03 0.0 
0.0 0.0 0.0 
4.156153366637e-04 1.308704311546e-03 0.0 
1.308704311546e-03 3.380783253851e-03 0.0 
0.0 0.0 0.0 
-1.815237664134e-04 -3.632446512546e-04 0.0 
-3.632446512546e-04 5.094008815300e-03 0.0 
0.0 0.0 0.0 
-2.351100398811e-04 -1.997625320452e-04 0.0 
-1.997625320452e-04 6.355756534950e-03 0.0 
0.0 0.0 0.0 
-3.119284397295e-04 -9.782506179386e-05 0.0 
-9.782506179386e-05 6.020625340052e-03 0.0 
0.0 0.0 0.0 
-4.724107597186e-04 -1.246510742276e-03 0.0 
-1.246510742276e-03 1.666132244789e-03 0.0 
0.0 0.0 0.0 
-1.670949769812e-04 1.555774562178e-04 0.0 
1.555774562178e-04 8.245450705661e-03 0.0 
0.0 0.0 0.0 
-2.231855839752e-04 1.377160736253e-04 0.0 
1.377160736253e-04 7.859395946455e-03 0.0 
0.0 0.0 0.0 
-3.556860940571e-04 7.164309809128e-05 0.0 
7.164309809128e-05 6.014426054225e-03 0.0 
0.0 0.0 0.0 
-9.392466624281e-05 -3.727669803800e-04 0.0 
-3.727669803800e-04 5.209758830738e-03 0.0 
0.0 0.0 0.0 
-2.352539049951e-04 -2.908153607289e-04 0.0 
-2.908153607289e-04 5.349542490520e-03 0.0 
0.0 0.0 0.0 
-1.809767067839e-04 4.701821750142e-05 0.0 
4.701821750142e-05 8.291446660298e-03 0.0 
0.0 0.0 0.0 
-1.968770732013e-04 1.195307058475e-04 0.0 
1.195307058475e-04 8.073339194000e-03 0.0 
0.0 0.0 0.0 
7.965417198075e-05 -6.178400380156e-04 0.0 
-6.178400380156e-04 4.286700692945e-03 0.0 
0.0 0.0 0.0 
-1.824152461780e-04 -1.864716266756e-04 0.0 
-1.864716266756e-04 6.731925951867e-03 0.0 
0.0 0.0 0.0 
-2.595508484708e-04 2.330515955456e-04 0.0 
2.330515955456e-04 7.755312553632e-03 0.0 
0.0 0.0 0.0 
-3.274163506298e-04 -1.163986744891e-04 0.0 
-1.163986744891e-04 6.020607866602e-03 0.0 
0.0 0.0 0.0 
-3.807993037896e-05 -2.940363365866e-04 0.0 
-2.940363365866e-04 6.578877029247e-03 0.0 
0.0 0.0 0.0 
-1.935060457455e-04 1.025230959396e-04 0.0 
1.025230959396e-04 8.254418107880e-03 0.0 
0.0 0.0 0.0 
-3.184748115895e-04 7.587074927573e-05 0.0 
7.587074927573e-05 7.253153126024e-03 0.0 
0.0 0.0 0.0 
3.930487060115e-04 -4.365220713866e-04 0.0 
-4.365220713866e-04 4.587129974329e-03 0.0 
0.0 0.0 0.0 
-3.317042875712e-04 -2.305003965199e-04 0.0 
-2.305003965199e-04 2.050871338317e-03 0.0 
0.0 0.0 0.0 
-4.829955076743e-04 -1.499416819108e-03 0.0 
-1.499416819108e-03 1.363620604635e-03 0.0 
0.0 0.0 0.0 
-2.219538468855e-04 -3.359647723406e-04 0.0 
-3.359647723406e-04 9.434730464803e-04 0.0 
0.0 0.0 0.0 
-6.404528060028e-04 -1.252367407418e-03 0.0 
-1.252367407418e-03 5.893104106436e-05 0.0 
0.0 0.0 0.0 
-2.099811907366e-04 6.852114566346e-05 0.0 
6.852114566346e-05 8.078332080775e-03 0.0 
0.0 0.0 0.0 
-2.133518050623e-04 -1.133149445369e-04 0.0 
-1.133149445369e-04 6.561325895906e-03 0.0 
0.0 0.0 0.0 
-2.558453198301e-04 -7.045992348401e-04 0.0 
-7.045992348401e-04 2.385233690227e-04 0.0 
0.0 0.0 0.0 
-2.894574422971e-04 6.530860983738e-04 0.0 
6.530860983738e-04 7.684970747148e-03 0.0 
0.0 0.0 0.0 
-3.526164199759e-04 8.553864603511e-05 0.0 
8.553864603511e-05 6.204964679768e-03 0.0 
0.0 0.0 0.0 
-1.899921345027e-04 -3.008474282798e-04 0.0 
-3.008474282798e-04 5.879665187674e-03 0.0 
0.0 0.0 0.0 
-2.595237274985e-04 -1.329798027572e-04 0.0 
-1.329798027572e-04 6.183817781126e-03 0.0 
0.0 0.0 0.0 
2.977802863291e-04 -1.438810801433e-03 0.0 
-1.438810801433e-03 1.593342323860e-03 0.0 
0.0 0.0 0.0 
-2.872928891379e-04 -1.645977048426e-04 0.0 
-1.645977048426e-04 6.188507853885e-03 0.0 
0.0 0.0 0.0 
-3.732930111222e-04 1.759325712351e-06 0.0 
1.759325712351e-06 6.012876624383e-03 0.0 
0.0 0.0 0.0 
8.467744983240e-04 4.877003182785e-04 0.0 
4.877003182785e-04 4.280684512470e-03 0.0 
0.0 0.0 0.0 
-4.727945118388e-05 -2.105932348016e-04 0.0 
-2.105932348016e-04 6.838191969669e-03 0.0 
0.0 0.0 0.0 
-2.611053228679e-04 -1.176147478642e-04 0.0 
-1.176147478642e-04 1.978869566204e-03 0.0 
0.0 0.0 0.0 
4.886502913792e-05 -2.960083894153e-04 0.0 
-2.960083894153e-04 6.451695565559e-03 0.0 
0.0 0.0 0.0 
-2.884786372569e-04 6.849565275937e-05 0.0 
6.849565275937e-05 7.474348711105e-03 0.0 
0.0 0.0 0.0 
-3.439005981208e-04 -1.819097068869e-04 0.0 
-1.819097068869e-04 2.240488932281e-03 0.0 
0.0 0.0 0.0 
-3.063034070150e-04 -1.400163899581e-03 0.0 
-1.400163899581e-03 1.524692239308e-03 0.0 
0.0 0.0 0.0 
-4.441847342613e-04 -1.912684296197e-04 0.0 
-1.912684296197e-04 4.545287769999e-03 0.0 
0.0 0.0 0.0 
-3.438996847271e-04 1.374995515458e-04 0.0 
1.374995515458e-04 6.803545543781e-03 0.0 
0.0 0.0 0.0 
-4.050349301622e-04 -6.305942171164e-04 0.0 
-6.305942171164e-04 2.947684963293e-03 0.0 
0.0 0.0 0.0 
-2.584168381567e-04 5.513401413143e-05 0.0 
5.513401413143e-05 7.693084509554e-03 0.0 
0.0 0.0 0.0 
-3.203370660034e-04 4.531586481767e-05 0.0 
4.531586481767e-05 7.066051710790e-03 0.0 
0.0 0.0 0.0 
-3.260146774892e-04 -4.360382849198e-04 0.0 
-4.360382849198e-04 4.245358615201e-03 0.0 
0.0 0.0 0.0 
-3.322614827502e-04 -1.777061914575e-04 0.0 
-1.777061914575e-04 5.812013782854e-03 0.0 
0.0 0.0 0.0 
-2.787854173975e-04 -2.196061709431e-04 0.0 
-2.196061709431e-04 5.971777458844e-03 0.0 
0.0 0.0 0.0 
-2.668930253996e-04 1.211331402855e-04 0.0 
1.211331402855e-04 7.466757795001e-03 0.0 
0.0 0.0 0.0 
-2.213396561533e-04 -2.608521390840e-04 0.0 
-2.608521390840e-04 1.671636310059e-03 0.0 
0.0 0.0 0.0 
-3.964566594479e-04 -3.759167657530e-04 0.0 
-3.759167657530e-04 4.121064244009e-03 0.0 
0.0 0.0 0.0 
4.671462338710e-04 7.468962155359e-04 0.0 
7.468962155359e-04 5.601016034002e-03 0.0 
0.0 0.0 0.0 
-2.799021480344e-04 9.867343916342e-05 0.0 
9.867343916342e-05 7.647791652831e-03 0.0 
0.0 0.0 0.0 
-4.225905958587e-04 -3.985164875954e-04 0.0 
-3.985164875954e-04 3.756180482582e-03 0.0 
0.0 0.0 0.0 
-1.901023235740e-05 -5.464333722336e-04 0.0 
-5.464333722336e-04 4.616960332189e-03 0.0 
0.0 0.0 0.0 
1.106371263933e-04 -2.989907637222e-04 0.0 
-2.989907637222e-04 6.171604243348e-03 0.0 
0.0 0.0 0.0 
-2.902384266741e-04 1.268072847977e-04 0.0 
1.268072847977e-04 7.247117400044e-03 0.0 
0.0 0.0 0.0 
1.681993837581e-03 -6.550510193647e-04 0.0 
-6.550510193647e-04 -4.527256656402e-03 0.0 
0.0 0.0 0.0 
-2.662077886306e-05 -1.761791156604e-04 0.0 
-1.761791156604e-04 8.616002447281e-04 0.0 
0.0 0.0 0.0 
2.539077529637e-03 3.848834778608e-04 0.0 
3.848834778608e-04 -3.060803993797e-03 0.0 
0.0 0.0 0.0 
-2.055968205573e-04 -1.615113234833e-04 0.0 
-1.615113234833e-04 6.349812393617e-03 0.0 
0.0 0.0 0.0 
-3.189352274766e-04 1.331453739717e-04 0.0 
1.331453739717e-04 7.026767988421e-03 0.0 
0.0 0.0 0.0 
-4.418223752917e-04 -1.691952994159e-04 0.0 
-1.691952994159e-04 4.906513060988e-03 0.0 
0.0 0.0 0.0 
-3.618752491563e-04 1.074366669408e-04 0.0 
1.074366669408e-04 6.400017753338e-03 0.0 
0.0 0.0 0.0 
4.174398183516e-04 -1.717228770284e-04 0.0 
-1.717228770284e-04 5.435068000072e-03 0.0 
0.0 0.0 0.0 
-3.674507579738e-04 -3.407539177665e-04 0.0 
-3.407539177665e-04 4.483422690171e-03 0.0 
0.0 0.0 0.0 
-2.408064679709e-04 -1.885122544687e-04 0.0 
-1.885122544687e-04 5.966792377276e-03 0.0 
0.0 0.0 0.0 
-2.534807597298e-04 -1.834444802299e-04 0.0 
-1.834444802299e-04 2.042742748116e-03 0.0 
0.0 0.0 0.0 
-1.724191048691e-05 -2.314772909060e-04 0.0 
-2.314772909060e-04 6.581466773564e-03 0.0 
0.0 0.0 0.0 
-3.752565882269e-04 -4.275790736405e-04 0.0 
-4.275790736405e-04 4.244331551508e-03 0.0 
0.0 0.0 0.0 
-2.834820011671e-04 -1.429812212259e-04 0.0 
-1.429812212259e-04 2.234070902898e-03 0.0 
0.0 0.0 0.0 
-4.276197941695e-04 -3.605938544711e-04 0.0 
-3.605938544711e-04 4.118768417628e-03 0.0 
0.0 0.0 0.0 
-4.245537660130e-04 -5.178411417935e-04 0.0 
-5.178411417935e-04 3.177503088087e-03 0.0 
0.0 0.0 0.0 
-3.970021874447e-04 -6.630629161039e-04 0.0 
-6.630629161039e-04 2.373579993051e-03 0.0 
0.0 0.0 0.0 
-4.164543210298e-04 -1.691590913835e-04 0.0 
-1.691590913835e-04 4.906268808144e-03 0.0 
0.0 0.0 0.0 
4.239237540244e-04 4.857589095523e-05 0.0 
4.857589095523e-05 -7.262231015071e-05 0.0 
0.0 0.0 0.0 
3.620840801541e-04 -7.923344805575e-06 0.0 
-7.923344805575e-06 -3.371746271474e-05 0.0 
0.0 0.0 0.0 
-2.889944684286e-04 -3.131201961782e-04 0.0 
-3.131201961782e-04 5.353285017214e-03 0.0 
0.0 0.0 0.0 
-2.248487260258e-04 -2.169936845959e-04 0.0 
-2.169936845959e-04 1.859009352172e-03 0.0 
0.0 0.0 0.0 
-1.679747740155e-04 -4.064500110041e-04 0.0 
-4.064500110041e-04 5.215369664234e-03 0.0 
0.0 0.0 0.0 
-1.015591130865e-04 -4.753168958140e-04 0.0 
-4.753168958140e-04 4.926408579695e-03 0.0 
0.0 0.0 0.0 
-1.986397209196e-04 -8.315984488915e-04 0.0 
-8.315984488915e-04 3.080330705402e-03 0.0 
0.0 0.0 0.0 
3.613076127200e-04 -1.809455473179e-03 0.0 
-1.809455473179e-03 7.620399293127e-04 0.0 
0.0 0.0 0.0 
-2.558292813987e-04 1.730582030884e-04 0.0 
1.730582030884e-04 7.980487693913e-03 0.0 
0.0 0.0 0.0 
1.235415736221e-03 2.353706778936e-03 0.0 
2.353706778936e-03 -2.734452788383e-03 0.0 
0.0 0.0 0.0 
-4.443561147378e-04 -4.165585086807e-04 0.0 
-4.165585086807e-04 3.395473270287e-03 0.0 
0.0 0.0 0.0 
4.122058850997e-04 -6.138257148228e-05 0.0 
-6.138257148228e-05 5.633623844369e-03 0.0 
0.0 0.0 0.0 
-2.192630041260e-04 -1.694870366583e-04 0.0 
-1.694870366583e-04 1.610280483086e-03 0.0 
0.0 0.0 0.0 
-3.718722706387e-04 5.935275026447e-05 0.0 
5.935275026447e-05 6.630435599025e-03 0.0 
0.0 0.0 0.0 
-3.846266149892e-04 2.857818655846e-05 0.0 
2.857818655846e-05 6.212724879328e-03 0.0 
0.0 0.0 0.0 
-3.440466425156e-04 -5.308450407848e-04 0.0 
-5.308450407848e-04 1.510115251322e-03 0.0 
0.0 0.0 0.0 
1.896658470741e-04 -2.894727520911e-04 0.0 
-2.894727520911e-04 5.863419957318e-03 0.0 
0.0 0.0 0.0 
-3.419680791875e-04 1.549524452967e-04 0.0 
1.549524452967e-04 7.375291982103e-03 0.0 
0.0 0.0 0.0 
-3.340080422460e-04 -2.814522955079e-04 0.0 
-2.814522955079e-04 1.873069069046e-03 0.0 
0.0 0.0 0.0 
-2.413527018713e-04 2.179931550939e-04 0.0 
2.179931550939e-04 8.135295234866e-03 0.0 
0.0 0.0 0.0 
-2.038405360733e-04 2.612398154982e-04 0.0 
2.612398154982e-04 8.128317462776e-03 0.0 
0.0 0.0 0.0 
-3.167032872492e-04 -3.468286253541e-04 0.0 
-3.468286253541e-04 2.070818633245e-03 0.0 
0.0 0.0 0.0 
-4.786945603920e-04 1.492375232328e-03 0.0 
1.492375232328e-03 2.974337058474e-03 0.0 
0.0 0.0 0.0 
-3.843737999724e-04 -5.856492536027e-04 0.0 
-5.856492536027e-04 2.045263675420e-03 0.0 
0.0 0.0 0.0 
-2.557544825587e-04 -2.777234102512e-04 0.0 
-2.777234102512e-04 5.737962669187e-03 0.0 
0.0 0.0 0.0 
-3.979178257969e-04 -2.513606780966e-04 0.0 
-2.513606780966e-04 4.703990433596e-03 0.0 
0.0 0.0 0.0 
-2.454456689647e-04 6.018251159077e-04 0.0 
6.018251159077e-04 7.851371930673e-03 0.0 
0.0 0.0 0.0 
-2.232886917325e-04 2.201078387999e-04 0.0 
2.201078387999e-04 7.974852287032e-03 0.0 
0.0 0.0 0.0 
-2.190706636844e-04 -3.403810364416e-04 0.0 
-3.403810364416e-04 5.485945575356e-03 0.0 
0.0 0.0 0.0 
-1.587394905742e-04 -3.089360749023e-04 0.0 
-3.089360749023e-04 5.480778038417e-03 0.0 
0.0 0.0 0.0 
-4.887665374164e-04 -5.659972936669e-04 0.0 
-5.659972936669e-04 1.711478911508e-03 0.0 
0.0 0.0 0.0 
-2.075036372098e-04 -2.474112121256e-04 0.0 
-2.474112121256e-04 5.733040356773e-03 0.0 
0.0 0.0 0.0 
-3.053109196675e-04 2.016047439123e-04 0.0 
2.016047439123e-04 7.369719470800e-03 0.0 
0.0 0.0 0.0 
-4.279170345788e-04 -2.462502398543e-04 0.0 
-2.462502398543e-04 4.703378744705e-03 0.0 
0.0 0.0 0.0 
-3.476487024245e-04 8.364173176448e-05 0.0 
8.364173176448e-05 7.032625542655e-03 0.0 
0.0 0.0 0.0 
-3.060829911098e-04 1.454782388252e-04 0.0 
1.454782388252e-04 7.596688188524e-03 0.0 
0.0 0.0 0.0 
1.176693440990e-03 9.139581270693e-04 0.0 
9.139581270693e-04 2.029047150217e-03 0.0 
0.0 0.0 0.0 
-2.394994342914e-04 1.831368290843e-04 0.0 
1.831368290843e-04 7.811199428689e-03 0.0 
0.0 0.0 0.0 
-4.499991344058e-04 -3.055063922387e-04 0.0 
-3.055063922387e-04 3.992436964797e-03 0.0 
0.0 0.0 0.0 
-4.079526709346e-04 -3.338320613214e-04 0.0 
-3.338320613214e-04 4.482584690400e-03 0.0 
0.0 0.0 0.0 
-4.543944877330e-04 -4.093555848869e-04 0.0 
-4.093555848869e-04 3.038745680054e-03 0.0 
0.0 0.0 0.0 
-1.420434421839e-04 -1.107953032569e-03 0.0 
-1.107953032569e-03 2.422316826671e-03 0.0 
0.0 0.0 0.0 
-3.130430834594e-04 1.651660265829e-04 0.0 
1.651660265829e-04 7.200572738932e-03 0.0 
0.0 0.0 0.0 
3.223043148959e-04 -8.811176982382e-04 0.0 
-8.811176982382e-04 3.122125809161e-03 0.0 
0.0 0.0 0.0 
-3.766653322141e-04 -4.942278553134e-04 0.0 
-4.942278553134e-04 2.249467893854e-03 0.0 
0.0 0.0 0.0 
-2.102024858263e-04 -3.227494523358e-04 0.0 
-3.227494523358e-04 1.144021486859e-03 0.0 
0.0 0.0 0.0 
-3.454260552505e-04 1.173593496307e-04 0.0 
1.173593496307e-04 7.206262449284e-03 0.0 
0.0 0.0 0.0 
-4.621012500422e-04 -5.681903129826e-04 0.0 
-5.681903129826e-04 2.261439001318e-03 0.0 
0.0 0.0 0.0 
8.404748204738e-05 -2.283956276827e-04 0.0 
-2.283956276827e-04 6.444832633011e-03 0.0 
0.0 0.0 0.0 
-2.829245089933e-04 1.583381600557e-04 0.0 
1.583381600557e-04 7.421691257286e-03 0.0 
0.0 0.0 0.0 
-1.384590342984e-04 -2.619259076614e-04 0.0 
-2.619259076614e-04 5.873461717006e-03 0.0 
0.0 0.0 0.0 
1.847297749311e-04 2.282405174914e-04 0.0 
2.282405174914e-04 6.388657256863e-03 0.0 
0.0 0.0 0.0 
-4.386664886801e-04 -3.787689777839e-04 0.0 
-3.787689777839e-04 3.752217743760e-03 0.0 
0.0 0.0 0.0 
-4.189730345970e-04 -4.097443970171e-04 0.0 
-4.097443970171e-04 2.081138187722e-03 0.0 
0.0 0.0 0.0 
-4.145990112686e-04 -4.113269100635e-04 0.0 
-4.113269100635e-04 1.318860393889e-03 0.0 
0.0 0.0 0.0 
-8.451975611490e-05 -4.115025354413e-04 0.0 
-4.115025354413e-04 5.330457347536e-03 0.0 
0.0 0.0 0.0 
-3.234834889344e-04 1.076556900046e-04 0.0 
1.076556900046e-04 6.849597127727e-03 0.0 
0.0 0.0 0.0 
-2.156008123847e-04 -2.574753368317e-04 0.0 
-2.574753368317e-04 8.842651238952e-04 0.0 
0.0 0.0 0.0 
-4.004320270713e-04 -5.814440702614e-04 0.0 
-5.814440702614e-04 2.940109230066e-03 0.0 
0.0 0.0 0.0 
-1.573667267392e-04 -1.042955387429e-04 0.0 
-1.042955387429e-04 1.797603847427e-03 0.0 
0.0 0.0 0.0 
-3.741577290757e-04 8.993661128203e-05 0.0 
8.993661128203e-05 6.809152485564e-03 0.0 
0.0 0.0 0.0 
-4.190222585760e-04 -4.778909276446e-04 0.0 
-4.778909276446e-04 3.171357581927e-03 0.0 
0.0 0.0 0.0 
-1.232642860582e-05 -4.382546976888e-04 0.0 
-4.382546976888e-04 4.919977833371e-03 0.0 
0.0 0.0 0.0 
-4.325613921617e-04 -3.655784035046e-04 0.0 
-3.655784035046e-04 3.034118746963e-03 0.0 
0.0 0.0 0.0 
-2.462084202918e-04 8.467988453287e-05 0.0 
8.467988453287e-05 7.866411142483e-03 0.0 
0.0 0.0 0.0 
-4.422948325598e-04 -6.156374979715e-04 0.0 
-6.156374979715e-04 2.608341249611e-03 0.0 
0.0 0.0 0.0 
8.290535070099e-05 -4.447158161944e-04 0.0 
-4.447158161944e-04 5.137760531493e-03 0.0 
0.0 0.0 0.0 
-4.568670316607e-04 -1.356762309637e-03 0.0 
-1.356762309637e-03 1.341115177845e-03 0.0 
0.0 0.0 0.0 
-7.740962879588e-06 -4.689897291588e-04 0.0 
-4.689897291588e-04 5.028303246348e-03 0.0 
0.0 0.0 0.0 
-4.521022841566e-04 -2.628832419538e-04 0.0 
-2.628832419538e-04 4.346695262770e-03 0.0 
0.0 0.0 0.0 
-8.082379641794e-05 -3.141526480020e-04 0.0 
-3.141526480020e-04 5.607711877228e-03 0.0 
0.0 0.0 0.0 
1.890703459229e-03 -2.253070997984e-04 0.0 
-2.253070997984e-04 -4.842195118210e-04 0.0 
0.0 0.0 0.0 
-2.394532737461e-04 -1.432245073072e-04 0.0 
-1.432245073072e-04 1.808736790980e-03 0.0 
0.0 0.0 0.0 
-3.652567543041e-04 3.415602089361e-05 0.0 
3.415602089361e-05 6.445955796299e-03 0.0 
0.0 0.0 0.0 
8.532673143720e-04 -2.080151415707e-04 0.0 
-2.080151415707e-04 3.725585156587e-03 0.0 
0.0 0.0 0.0 
-1.257340098277e-04 1.278398961298e-03 0.0 
1.278398961298e-03 3.698196411543e-03 0.0 
0.0 0.0 0.0 
-3.474893119919e-04 5.376585939748e-05 0.0 
5.376585939748e-05 6.851365703650e-03 0.0 
0.0 0.0 0.0 
-2.593960606894e-04 -1.669196259801e-03 0.0 
-1.669196259801e-03 1.095629369212e-03 0.0 
0.0 0.0 0.0 
-3.663670938001e-04 2.106161889324e-04 0.0 
2.106161889324e-04 6.921845254108e-03 0.0 
0.0 0.0 0.0 
-1.283613590214e-04 -1.345672410535e-04 0.0 
-1.345672410535e-04 1.593859555614e-03 0.0 
0.0 0.0 0.0 
6.114591379869e-05 -3.302207611041e-04 0.0 
-3.302207611041e-04 6.019118969360e-03 0.0 
0.0 0.0 0.0 
8.606571786960e-04 -4.487512273260e-05 0.0 
-4.487512273260e-05 3.983274288465e-03 0.0 
0.0 0.0 0.0 
7.294115256553e-04 5.898583329964e-04 0.0 
5.898583329964e-04 4.693711387982e-03 0.0 
0.0 0.0 0.0 
-1.969049408653e-04 1.999441001916e-04 0.0 
1.999441001916e-04 8.364437374445e-03 0.0 
0.0 0.0 0.0 
3.291436577790e-04 -7.476442781986e-04 0.0 
-7.476442781986e-04 3.559600277793e-03 0.0 
0.0 0.0 0.0 
-3.470577562513e-04 -3.237840931438e-04 0.0 
-3.237840931438e-04 1.686855532340e-03 0.0 
0.0 0.0 0.0 
1.949007958473e-04 -5.791818100783e-04 0.0 
-5.791818100783e-04 4.367478633560e-03 0.0 
0.0 0.0 0.0 
1.461136149719e-04 -2.237067440457e-04 0.0 
-2.237067440457e-04 6.159732405008e-03 0.0 
0.0 0.0 0.0 
2.404745128208e-04 -1.657660801999e-03 0.0 
-1.657660801999e-03 1.077565127476e-03 0.0 
0.0 0.0 0.0 
-1.450518929320e-04 -3.552581020881e-04 0.0 
-3.552581020881e-04 5.614350278723e-03 0.0 
0.0 0.0 0.0 
-3.133282736966e-04 1.084822057917e-04 0.0 
1.084822057917e-04 7.427622871762e-03 0.0 
0.0 0.0 0.0 
6.816751926586e-04 -1.975472502528e-03 0.0 
-1.975472502528e-03 5.869790900026e-05 0.0 
0.0 0.0 0.0 
8.528390695006e-05 -5.257883211276e-04 0.0 
-5.257883211276e-04 4.707595939335e-03 0.0 
0.0 0.0 0.0 
-4.193330096692e-04 9.291809945193e-05 0.0 
9.291809945193e-05 6.354087745403e-03 0.0 
0.0 0.0 0.0 
-3.481997865697e-04 -2.299963699199e-04 0.0 
-2.299963699199e-04 2.459952888785e-03 0.0 
0.0 0.0 0.0 
-3.822536671383e-04 -6.996492232445e-04 0.0 
-6.996492232445e-04 2.697330944643e-03 0.0 
0.0 0.0 0.0 
1.173300955895e-04 1.152743035276e-03 0.0 
1.152743035276e-03 4.311589807603e-03 0.0 
0.0 0.0 0.0 
-6.272850324063e-06 -3.671861767532e-04 0.0 
-3.671861767532e-04 5.323174818966e-03 0.0 
0.0 0.0 0.0 
-4.082194554472e-04 1.125149433957e-03 0.0 
1.125149433957e-03 3.937660540357e-03 0.0 
0.0 0.0 0.0 
2.532717376662e-04 1.233867459012e-03 0.0 
1.233867459012e-03 3.864569527102e-03 0.0 
0.0 0.0 0.0 
-3.366312735640e-04 2.069855212297e-04 0.0 
2.069855212297e-04 7.146726160298e-03 0.0 
0.0 0.0 0.0 
-3.439967791772e-04 1.108817354974e-04 0.0 
1.108817354974e-04 6.624362457523e-03 0.0 
0.0 0.0 0.0 
-3.908712028309e-04 1.709060769938e-04 0.0 
1.709060769938e-04 6.528032611435e-03 0.0 
0.0 0.0 0.0 
-4.251373936845e-04 -2.844204731054e-04 0.0 
-2.844204731054e-04 4.351080829479e-03 0.0 
0.0 0.0 0.0 
2.858392946352e-04 -2.823427654891e-04 0.0 
-2.823427654891e-04 5.555320567567e-03 0.0 
0.0 0.0 0.0 
3.213044072945e-04 -6.255983175544e-04 0.0 
-6.255983175544e-04 4.008332297872e-03 0.0 
0.0 0.0 0.0 
-3.962151440030e-04 6.230946294719e-05 0.0 
6.230946294719e-05 6.405290662839e-03 0.0 
0.0 0.0 0.0 
-2.431354844702e-04 7.147743383263e-04 0.0 
7.147743383263e-04 7.785021435484e-03 0.0 
0.0 0.0 0.0 
6.044889249397e-04 6.669890571641e-04 0.0 
6.669890571641e-04 5.108959925581e-03 0.0 
0.0 0.0 0.0 
8.526376035745e-05 -4.189494217568e-04 0.0 
-4.189494217568e-04 5.020046667718e-03 0.0 
0.0 0.0 0.0 
-2.725912680979e-04 1.931878806864e-04 0.0 
1.931878806864e-04 7.590993706158e-03 0.0 
0.0 0.0 0.0 
-2.116367888501e-04 -9.492606941233e-04 0.0 
-9.492606941233e-04 2.765229275213e-03 0.0 
0.0 0.0 0.0 
-3.191134025079e-04 -8.367766996388e-04 0.0 
-8.367766996388e-04 2.750734881137e-03 0.0 
0.0 0.0 0.0 
-3.238315693319e-04 -4.662307073198e-04 0.0 
-4.662307073198e-04 1.695158753978e-03 0.0 
0.0 0.0 0.0 
3.017224403905e-04 -5.174395460613e-04 0.0 
-5.174395460613e-04 4.465273423512e-03 0.0 
0.0 0.0 0.0 
-3.540874763216e-04 -7.025872480975e-04 0.0 
-7.025872480975e-04 3.026492830115e-03 0.0 
0.0 0.0 0.0 
-3.759205331715e-04 1.230689430461e-04 0.0 
1.230689430461e-04 6.982286574408e-03 0.0 
0.0 0.0 0.0 
-4.050471778021e-04 1.271234365301e-04 0.0 
1.271234365301e-04 6.757180853704e-03 0.0 
0.0 0.0 0.0 
1.324885390448e-03 4.241041256331e-04 0.0 
4.241041256331e-04 2.158025226006e-03 0.0 
0.0 0.0 0.0 
-3.633748467243e-04 -8.988177948221e-04 0.0 
-8.988177948221e-04 2.449736097310e-03 0.0 
0.0 0.0 0.0 
1.716818091481e-03 1.205436248104e-03 0.0 
1.205436248104e-03 -5.608054606910e-04 0.0 
0.0 0.0 0.0 
-3.852243075790e-04 -7.570566956764e-04 0.0 
-7.570566956764e-04 2.706242978308e-03 0.0 
0.0 0.0 0.0 
-2.753756804511e-04 -8.807886293945e-04 0.0 
-8.807886293945e-04 2.757263097117e-03 0.0 
0.0 0.0 0.0 
-4.457930184416e-04 -4.864672991082e-04 0.0 
-4.864672991082e-04 1.899094620072e-03 0.0 
0.0 0.0 0.0 
3.932665345039e-04 -2.653417878134e-04 0.0 
-2.653417878134e-04 5.236643572216e-03 0.0 
0.0 0.0 0.0 
2.816379394954e-04 -1.009243013511e-03 0.0 
-1.009243013511e-03 2.714882031124e-03 0.0 
0.0 0.0 0.0 
-2.693014812548e-04 1.332272611638e-04 0.0 
1.332272611638e-04 7.817168585339e-03 0.0 
0.0 0.0 0.0 
4.887947380399e-04 -9.455703054622e-04 0.0 
-9.455703054622e-04 2.686943603443e-03 0.0 
0.0 0.0 0.0 
3.186468789855e-04 -5.088256494829e-04 0.0 
-5.088256494829e-04 4.356025928186e-03 0.0 
0.0 0.0 0.0 
3.358940562883e-04 -7.411246141255e-04 0.0 
-7.411246141255e-04 3.503301097193e-03 0.0 
0.0 0.0 0.0 
6.245754825633e-04 1.222458187244e-03 0.0 
1.222458187244e-03 3.244563343002e-03 0.0 
0.0 0.0 0.0 
-3.165378284566e-04 -4.025814612233e-04 0.0 
-4.025814612233e-04 1.884358113731e-03 0.0 
0.0 0.0 0.0 
2.385802805949e-04 -2.163913611607e-04 0.0 
-2.163913611607e-04 5.849500910341e-03 0.0 
0.0 0.0 0.0 
2.186138774978e-04 -2.441666345985e-04 0.0 
-2.441666345985e-04 6.074595377994e-03 0.0 
0.0 0.0 0.0 
1.535552348786e-05 9.883434044876e-04 0.0 
9.883434044876e-04 5.430181839236e-03 0.0 
0.0 0.0 0.0 
-1.199098697051e-04 -9.724607919968e-04 0.0 
-9.724607919968e-04 2.768263544507e-03 0.0 
0.0 0.0 0.0 
3.348269083188e-04 -6.192562670798e-04 0.0 
-6.192562670798e-04 3.923447392776e-03 0.0 
0.0 0.0 0.0 
-3.407320613510e-04 1.703953979831e-04 0.0 
1.703953979831e-04 6.976681407651e-03 0.0 
0.0 0.0 0.0 
-2.698027740289e-04 -8.071797061693e-04 0.0 
-8.071797061693e-04 3.077006346107e-03 0.0 
0.0 0.0 0.0 
9.264871975456e-05 1.450792605355e-03 0.0 
1.450792605355e-03 3.242265926870e-03 0.0 
0.0 0.0 0.0 
-4.027155134106e-04 -5.535834689201e-04 0.0 
-5.535834689201e-04 2.598525756950e-03 0.0 
0.0 0.0 0.0 
6.743883934446e-05 -1.841611800528e-03 0.0 
-1.841611800528e-03 7.687477769103e-04 0.0 
0.0 0.0 0.0 
-6.508924353588e-05 -1.024946562130e-03 0.0 
-1.024946562130e-03 2.749208795677e-03 0.0 
0.0 0.0 0.0 
-4.479842415784e-04 -4.735419768723e-04 0.0 
-4.735419768723e-04 2.461659255070e-03 0.0 
0.0 0.0 0.0 
-3.278210388440e-04 -2.859077423126e-04 0.0 
-2.859077423126e-04 2.265155550304e-03 0.0 
0.0 0.0 0.0 
1.828662988765e-04 -8.029588602239e-04 0.0 
-8.029588602239e-04 3.513678498110e-03 0.0 
0.0 0.0 0.0 
1.937724528509e-04 -4.670506942354e-04 0.0 
-4.670506942354e-04 4.697954049158e-03 0.0 
0.0 0.0 0.0 
-9.756787987647e-06 9.247538343303e-04 0.0 
9.247538343303e-04 6.580455811013e-03 0.0 
0.0 0.0 0.0 
6.994155937123e-04 -7.408851226693e-06 0.0 
-7.408851226693e-06 -1.658554750269e-04 0.0 
0.0 0.0 0.0 
1.098950753836e-03 -7.785360029995e-04 0.0 
-7.785360029995e-04 1.737685043200e-03 0.0 
0.0 0.0 0.0 
6.861290176527e-04 -9.946301679129e-04 0.0 
-9.946301679129e-04 2.234095298777e-03 0.0 
0.0 0.0 0.0 
7.291006367360e-05 -1.017595297717e-03 0.0 
-1.017595297717e-03 2.747428776452e-03 0.0 
0.0 0.0 0.0 
-3.663806183386e-04 1.715878890082e-04 0.0 
1.715878890082e-04 6.751955352668e-03 0.0 
0.0 0.0 0.0 
3.190337243291e-04 -8.721198164245e-04 0.0 
-8.721198164245e-04 3.098798562185e-03 0.0 
0.0 0.0 0.0 
-4.453522791367e-04 -5.070084467937e-04 0.0 
-5.070084467937e-04 2.825118335753e-03 0.0 
0.0 0.0 0.0 
1.095514870428e-04 -1.050637311400e-03 0.0 
-1.050637311400e-03 2.722237072682e-03 0.0 
0.0 0.0 0.0 
-2.545974369113e-04 1.492271762722e-04 0.0 
1.492271762722e-04 7.641842925529e-03 0.0 
0.0 0.0 0.0 
-4.157697848259e-04 -4.574865778361e-04 0.0 
-4.574865778361e-04 2.817256594107e-03 0.0 
0.0 0.0 0.0 
-2.135440314796e-04 -2.422067586747e-04 0.0 
-2.422067586747e-04 1.064639550300e-03 0.0 
0.0 0.0 0.0 
-3.726076172402e-04 -3.706453384625e-04 0.0 
-3.706453384625e-04 1.508177851892e-03 0.0 
0.0 0.0 0.0 
1.356890949680e-04 -1.603391010737e-03 0.0 
-1.603391010737e-03 1.318047503059e-03 0.0 
0.0 0.0 0.0 
-2.153854373068e-04 -1.036717114244e-03 0.0 
-1.036717114244e-03 2.461058018016e-03 0.0 
0.0 0.0 0.0 
8.803971733768e-04 -8.300669519084e-04 0.0 
-8.300669519084e-04 2.225891853642e-03 0.0 
0.0 0.0 0.0 
2.979798713294e-04 -1.023534268216e-03 0.0 
-1.023534268216e-03 2.701006502916e-03 0.0 
0.0 0.0 0.0 
-4.106543881746e-04 -1.588162854609e-03 0.0 
-1.588162854609e-03 9.521329442419e-04 0.0 
0.0 0.0 0.0 
-2.079277805118e-04 -2.809379801536e-04 0.0 
-2.809379801536e-04 1.494111854402e-03 0.0 
0.0 0.0 0.0 
-4.728043495412e-04 1.723813184421e-04 0.0 
1.723813184421e-04 6.456426736304e-03 0.0 
0.0 0.0 0.0 
-3.819500753792e-04 -4.145355517290e-04 0.0 
-4.145355517290e-04 2.452285326587e-03 0.0 
0.0 0.0 0.0 
4.289653196545e-04 -2.582714293980e-04 0.0 
-2.582714293980e-04 5.054992042171e-03 0.0 
0.0 0.0 0.0 
5.469134850045e-05 9.392015403301e-04 0.0 
9.392015403301e-04 6.197978372720e-03 0.0 
0.0 0.0 0.0 
-5.041120578435e-04 4.863101196487e-04 0.0 
4.863101196487e-04 6.277366220733e-03 0.0 
0.0 0.0 0.0 
-2.667904080906e-04 3.361134377631e-04 0.0 
3.361134377631e-04 7.840576593627e-03 0.0 
0.0 0.0 0.0 
-4.860250312833e-05 9.125983076326e-04 0.0 
9.125983076326e-04 6.941217882686e-03 0.0 
0.0 0.0 0.0 
1.301736355558e-03 6.830057169053e-04 0.0 
6.830057169053e-04 2.062934056321e-03 0.0 
0.0 0.0 0.0 
4.026496099363e-05 9.579286365454e-04 0.0 
9.579286365454e-04 5.806145472635e-03 0.0 
0.0 0.0 0.0 
-1.395441139074e-04 -1.978937493739e-03 0.0 
-1.978937493739e-03 5.346815633973e-04 0.0 
0.0 0.0 0.0 
-6.439452218454e-06 -9.262384250088e-04 0.0 
-9.262384250088e-04 3.105118395744e-03 0.0 
0.0 0.0 0.0 
8.484822528365e-04 1.349878052006e-03 0.0 
1.349878052006e-03 2.105364633802e-03 0.0 
0.0 0.0 0.0 
1.642202947005e-03 -1.576877180530e-03 0.0 
-1.576877180530e-03 -1.213804723321e-03 0.0 
0.0 0.0 0.0 
-3.329692905681e-04 -1.877861847546e-03 0.0 
-1.877861847546e-03 4.408491981869e-04 0.0 
0.0 0.0 0.0 
-3.218451267132e-04 -7.423746889156e-04 0.0 
-7.423746889156e-04 3.032383943527e-03 0.0 
0.0 0.0 0.0 
4.691665345691e-04 -1.106204580998e-03 0.0 
-1.106204580998e-03 2.254943546779e-03 0.0 
0.0 0.0 0.0 
6.710757649384e-04 -9.826398075081e-04 0.0 
-9.826398075081e-04 2.251651996452e-03 0.0 
0.0 0.0 0.0 
-4.453279585158e-04 -3.892830241553e-04 0.0 
-3.892830241553e-04 2.661447537037e-03 0.0 
0.0 0.0 0.0 
4.967567604215e-04 -7.972307528134e-04 0.0 
-7.972307528134e-04 3.108280578841e-03 0.0 
0.0 0.0 0.0 
8.833081214215e-04 -9.805359522226e-04 0.0 
-9.805359522226e-04 1.774233809002e-03 0.0 
0.0 0.0 0.0 
1.224159854086e-03 -5.228637955505e-04 0.0 
-5.228637955505e-04 1.818625168662e-03 0.0 
0.0 0.0 0.0 
-2.803393670670e-04 -9.885682267470e-04 0.0 
-9.885682267470e-04 2.454259239061e-03 0.0 
0.0 0.0 0.0 
9.061802463894e-04 2.243118569116e-04 0.0 
2.243118569116e-04 4.060379761585e-03 0.0 
0.0 0.0 0.0 
-3.763806930632e-04 1.625581969467e-04 0.0 
1.625581969467e-04 7.151989237235e-03 0.0 
0.0 0.0 0.0 
1.407926753091e-03 -3.511299404861e-04 0.0 
-3.511299404861e-04 1.366192246584e-03 0.0 
0.0 0.0 0.0 
3.481683538948e-04 -1.943685344685e-04 0.0 
-1.943685344685e-04 5.541639044059e-03 0.0 
0.0 0.0 0.0 
2.778053334409e-04 -2.104286440143e-03 0.0 
-2.104286440143e-03 8.028279154915e-05 0.0 
0.0 0.0 0.0 
3.533225133576e-04 -2.703123552707e-05 0.0 
-2.703123552707e-05 5.955630023606e-03 0.0 
0.0 0.0 0.0 
6.774012285347e-04 -8.309627718195e-04 0.0 
-8.309627718195e-04 2.682378396106e-03 0.0 
0.0 0.0 0.0 
-6.233598885197e-05 9.280095339286e-04 0.0 
9.280095339286e-04 7.318936230929e-03 0.0 
0.0 0.0 0.0 
-3.165854305345e-04 8.054250023411e-04 0.0 
8.054250023411e-04 5.845363386951e-03 0.0 
0.0 0.0 0.0 
-9.626418642372e-05 -1.750592777331e-03 0.0 
-1.750592777331e-03 1.107157056935e-03 0.0 
0.0 0.0 0.0 
-4.693540524056e-04 5.612901936098e-04 0.0 
5.612901936098e-04 6.356023528106e-03 0.0 
0.0 0.0 0.0 
-2.657836002825e-04 4.600357506094e-04 0.0 
4.600357506094e-04 7.879963546590e-03 0.0 
0.0 0.0 0.0 
8.351423314070e-04 -6.770202524699e-04 0.0 
-6.770202524699e-04 2.718014931286e-03 0.0 
0.0 0.0 0.0 
4.681618386786e-04 1.727449777151e-03 0.0 
1.727449777151e-03 2.131476728609e-03 0.0 
0.0 0.0 0.0 
-4.225966956390e-04 6.334869117135e-04 0.0 
6.334869117135e-04 6.419113868607e-03 0.0 
0.0 0.0 0.0 
-4.416606676072e-05 1.219656616091e-03 0.0 
1.219656616091e-03 3.991331402670e-03 0.0 
0.0 0.0 0.0 
-4.496801689899e-04 -1.759200314221e-03 0.0 
-1.759200314221e-03 9.802966996613e-04 0.0 
0.0 0.0 0.0 
-1.257764945792e-04 4.144152183903e-04 0.0 
4.144152183903e-04 8.578236650852e-03 0.0 
0.0 0.0 0.0 
-7.310122899221e-04 -1.337134045912e-03 0.0 
-1.337134045912e-03 1.201079802225e-03 0.0 
0.0 0.0 0.0 
4.758145473540e-04 4.774810768255e-04 0.0 
4.774810768255e-04 5.869018430163e-03 0.0 
0.0 0.0 0.0 
-1.870251941193e-04 2.052503889378e-04 0.0 
2.052503889378e-04 8.190335709482e-03 0.0 
0.0 0.0 0.0 
8.343252743430e-04 1.051584906568e-04 0.0 
1.051584906568e-04 4.281850216728e-03 0.0 
0.0 0.0 0.0 
-3.658082931818e-04 1.410736681345e-04 0.0 
1.410736681345e-04 6.573266249118e-03 0.0 
0.0 0.0 0.0 
-3.260034812079e-04 2.437397114035e-04 0.0 
2.437397114035e-04 7.696595860867e-03 0.0 
0.0 0.0 0.0 
1.048924160669e-03 -7.531073827425e-04 0.0 
-7.531073827425e-04 1.857190915499e-03 0.0 
0.0 0.0 0.0 
1.196276824075e-03 3.921644946671e-04 0.0 
3.921644946671e-04 2.749462805049e-03 0.0 
0.0 0.0 0.0 
-2.002345645472e-04 3.734729468631e-04 0.0 
3.734729468631e-04 8.205461545331e-03 0.0 
0.0 0.0 0.0 
1.752045377765e-04 -3.822178511821e-04 0.0 
-3.822178511821e-04 5.127468949479e-03 0.0 
0.0 0.0 0.0 
-3.729387755885e-04 2.069115620089e-04 0.0 
2.069115620089e-04 7.315138336393e-03 0.0 
0.0 0.0 0.0 
8.100238174094e-04 -1.357192613212e-04 0.0 
-1.357192613212e-04 4.031696638397e-03 0.0 
0.0 0.0 0.0 
8.501708867814e-05 -2.009139201269e-03 0.0 
-2.009139201269e-03 5.380438109295e-04 0.0 
0.0 0.0 0.0 
-3.656541775964e-04 2.555569473869e-04 0.0 
2.555569473869e-04 7.470579896132e-03 0.0 
0.0 0.0 0.0 
5.133364957466e-05 9.850535935227e-04 0.0 
9.850535935227e-04 7.390748167996e-03 0.0 
0.0 0.0 0.0 
2.495914593330e-04 -1.477054558733e-04 0.0 
-1.477054558733e-04 6.052802687409e-03 0.0 
0.0 0.0 0.0 
1.352787001034e-04 -9.025510451663e-04 0.0 
-9.025510451663e-04 3.100684128627e-03 0.0 
0.0 0.0 0.0 
-3.985508962357e-04 9.003929800311e-05 0.0 
9.003929800311e-05 6.578086012045e-03 0.0 
0.0 0.0 0.0 
-3.863782338770e-04 1.390202307893e-04 0.0 
1.390202307893e-04 6.348696720671e-03 0.0 
0.0 0.0 0.0 
4.846976454822e-04 -9.446732625235e-04 0.0 
-9.446732625235e-04 2.700971235965e-03 0.0 
0.0 0.0 0.0 
2.907742566118e-04 -4.120017328939e-04 0.0 
-4.120017328939e-04 4.797606069358e-03 0.0 
0.0 0.0 0.0 
3.706108131327e-04 -3.411773394261e-04 0.0 
-3.411773394261e-04 4.914585206081e-03 0.0 
0.0 0.0 0.0 
-1.985322468772e-04 -3.148238527502e-04 0.0 
-3.148238527502e-04 1.302361904581e-03 0.0 
0.0 0.0 0.0 
1.821728021679e-03 1.459797726750e-03 0.0 
1.459797726750e-03 -1.336984789731e-03 0.0 
0.0 0.0 0.0 
1.417414810234e-03 -5.465398672451e-05 0.0 
-5.465398672451e-05 1.600827120266e-03 0.0 
0.0 0.0 0.0 
1.259286074485e-03 -6.335956367917e-04 0.0 
-6.335956367917e-04 1.414619692772e-03 0.0 
0.0 0.0 0.0 
2.640782533276e-04 1.339988711790e-03 0.0 
1.339988711790e-03 3.376987704811e-03 0.0 
0.0 0.0 0.0 
-1.949690964622e-04 3.132742888334e-04 0.0 
3.132742888334e-04 8.431568169631e-03 0.0 
0.0 0.0 0.0 
-2.427513500393e-04 6.825017638912e-04 0.0 
6.825017638912e-04 7.681406570623e-03 0.0 
0.0 0.0 0.0 
-2.146616434143e-04 1.565972368223e-04 0.0 
1.565972368223e-04 8.194184904954e-03 0.0 
0.0 0.0 0.0 
-4.465606338362e-04 9.900560561132e-04 0.0 
9.900560561132e-04 4.277694262878e-03 0.0 
0.0 0.0 0.0 
-3.277787925057e-04 4.134664381385e-04 0.0 
4.134664381385e-04 7.516493578714e-03 0.0 
0.0 0.0 0.0 
1.844012050900e-04 -4.840202620651e-04 0.0 
-4.840202620651e-04 4.809168325947e-03 0.0 
0.0 0.0 0.0 
-1.868053964675e-04 3.089519462345e-04 0.0 
3.089519462345e-04 8.286333935174e-03 0.0 
0.0 0.0 0.0 
-4.027573462742e-04 2.656285992674e-04 0.0 
2.656285992674e-04 7.241439429179e-03 0.0 
0.0 0.0 0.0 
1.555721823894e-04 -9.255378540134e-04 0.0 
-9.255378540134e-04 3.108062485889e-03 0.0 
0.0 0.0 0.0 
1.507595427302e-03 2.082748597425e-04 0.0 
2.082748597425e-04 1.265231919798e-03 0.0 
0.0 0.0 0.0 
-3.206080066279e-04 2.961959528847e-04 0.0 
2.961959528847e-04 7.465690300480e-03 0.0 
0.0 0.0 0.0 
-2.670487923264e-04 2.787013598288e-04 0.0 
2.787013598288e-04 8.071549072085e-03 0.0 
0.0 0.0 0.0 
-2.957381692025e-04 2.421346933876e-04 0.0 
2.421346933876e-04 7.533460488507e-03 0.0 
0.0 0.0 0.0 
-3.303915398264e-04 2.494718572534e-04 0.0 
2.494718572534e-04 7.310042095056e-03 0.0 
0.0 0.0 0.0 
2.032937720655e-04 -2.653951940656e-04 0.0 
-2.653951940656e-04 5.701451751653e-03 0.0 
0.0 0.0 0.0 
4.964332991599e-04 5.643160919386e-04 0.0 
5.643160919386e-04 5.726410997893e-03 0.0 
0.0 0.0 0.0 
3.113993921295e-04 -2.672260108249e-04 0.0 
-2.672260108249e-04 5.382025915609e-03 0.0 
0.0 0.0 0.0 
2.015202456624e-04 -5.645180714221e-04 0.0 
-5.645180714221e-04 4.277509016941e-03 0.0 
0.0 0.0 0.0 
-5.534664758128e-04 5.584593754648e-04 0.0 
5.584593754648e-04 4.590776939401e-03 0.0 
0.0 0.0 0.0 
7.768299369533e-04 2.447199501854e-04 0.0 
2.447199501854e-04 4.605285627456e-03 0.0 
0.0 0.0 0.0 
-3.945615529872e-04 4.392394100351e-04 0.0 
4.392394100351e-04 7.034429969996e-03 0.0 
0.0 0.0 0.0 
-4.085606659339e-04 -3.441572560333e-04 0.0 
-3.441572560333e-04 2.274419935742e-03 0.0 
0.0 0.0 0.0 
1.332701024168e-03 -3.365991823968e-04 0.0 
-3.365991823968e-04 1.646793377990e-03 0.0 
0.0 0.0 0.0 
1.162552272562e-03 -1.802852118671e-04 0.0 
-1.802852118671e-04 2.569344637733e-03 0.0 
0.0 0.0 0.0 
1.072668207956e-03 3.723031387169e-04 0.0 
3.723031387169e-04 3.321791748978e-03 0.0 
0.0 0.0 0.0 
2.295597139508e-03 -3.905941500994e-04 0.0 
-3.905941500994e-04 -2.222903022271e-03 0.0 
0.0 0.0 0.0 
1.478559471987e-03 -1.053465472005e-04 0.0 
-1.053465472005e-04 1.318280109605e-03 0.0 
0.0 0.0 0.0 
9.506615743489e-04 3.613900468469e-04 0.0 
3.613900468469e-04 3.879385263858e-03 0.0 
0.0 0.0 0.0 
-4.748930379382e-04 7.318513441868e-04 0.0 
7.318513441868e-04 4.907164144001e-03 0.0 
0.0 0.0 0.0 
1.750357990202e-04 -7.857066491434e-04 0.0 
-7.857066491434e-04 3.475770814622e-03 0.0 
0.0 0.0 0.0 
-4.382408374872e-04 2.218773171195e-04 0.0 
2.218773171195e-04 6.855525644984e-03 0.0 
0.0 0.0 0.0 
-3.880499105203e-04 7.530154257016e-05 0.0 
7.530154257016e-05 5.726919041159e-03 0.0 
0.0 0.0 0.0 
-6.877187773388e-04 1.344270532316e-03 0.0 
1.344270532316e-03 1.320274061045e-03 0.0 
0.0 0.0 0.0 
1.952264147531e-04 -6.864155183922e-04 0.0 
-6.864155183922e-04 3.934523451816e-03 0.0 
0.0 0.0 0.0 
7.770963316036e-04 1.419222536852e-04 0.0 
1.419222536852e-04 4.511813297007e-03 0.0 
0.0 0.0 0.0 
-2.129943441070e-04 6.647430798082e-04 0.0 
6.647430798082e-04 7.937330436650e-03 0.0 
0.0 0.0 0.0 
1.267037946476e-03 4.285881251201e-04 0.0 
4.285881251201e-04 2.295685279603e-03 0.0 
0.0 0.0 0.0 
1.961382635891e-04 -6.716510876374e-04 0.0 
-6.716510876374e-04 3.869181047707e-03 0.0 
0.0 0.0 0.0 
-4.091782160788e-04 1.688751160760e-04 0.0 
1.688751160760e-04 6.926695518698e-03 0.0 
0.0 0.0 0.0 
-6.770555286644e-04 1.099067202672e-03 0.0 
1.099067202672e-03 1.916437046758e-03 0.0 
0.0 0.0 0.0 
8.508404585905e-04 2.515667037801e-04 0.0 
2.515667037801e-04 4.259701373570e-03 0.0 
0.0 0.0 0.0 
1.158029335986e-03 1.963511576190e-04 0.0 
1.963511576190e-04 2.926364913848e-03 0.0 
0.0 0.0 0.0 
-5.061827984688e-04 6.951669247553e-04 0.0 
6.951669247553e-04 5.190025543955e-03 0.0 
0.0 0.0 0.0 
2.724914405516e-04 -4.242053252163e-04 0.0 
-4.242053252163e-04 4.927677414626e-03 0.0 
0.0 0.0 0.0 
1.156573951898e-03 -1.998996401444e-03 0.0 
-1.998996401444e-03 -1.157600471092e-03 0.0 
0.0 0.0 0.0 
3.436925628346e-04 -3.504325082294e-04 0.0 
-3.504325082294e-04 5.069497806049e-03 0.0 
0.0 0.0 0.0 
3.591745488580e-04 -1.147722301804e-04 0.0 
-1.147722301804e-04 5.727457327897e-03 0.0 
0.0 0.0 0.0 
8.989226546485e-04 3.770569715714e-04 0.0 
3.770569715714e-04 4.037512607655e-03 0.0 
0.0 0.0 0.0 
-3.358618319028e-04 1.975205270166e-04 0.0 
1.975205270166e-04 7.538934493767e-03 0.0 
0.0 0.0 0.0 
2.696026274702e-04 8.788695509557e-04 0.0 
8.788695509557e-04 5.806729718185e-03 0.0 
0.0 0.0 0.0 
3.135835226127e-04 -2.061581934287e-04 0.0 
-2.061581934287e-04 5.739227161855e-03 0.0 
0.0 0.0 0.0 
-7.228842210236e-04 9.316921359130e-04 0.0 
9.316921359130e-04 2.454252943408e-03 0.0 
0.0 0.0 0.0 
-4.073186142450e-04 2.154970616561e-04 0.0 
2.154970616561e-04 7.087910827988e-03 0.0 
0.0 0.0 0.0 
3.859423116115e-04 7.179514932370e-04 0.0 
7.179514932370e-04 5.995357494279e-03 0.0 
0.0 0.0 0.0 
-2.835418364698e-04 2.874081803833e-04 0.0 
2.874081803833e-04 7.691286406519e-03 0.0 
0.0 0.0 0.0 
1.020833447443e-03 3.861455158163e-04 0.0 
3.861455158163e-04 3.474588034183e-03 0.0 
0.0 0.0 0.0 
1.427834860382e-03 1.849415687034e-04 0.0 
1.849415687034e-04 1.710959401932e-03 0.0 
0.0 0.0 0.0 
-2.378604246127e-04 -4.823848698542e-04 0.0 
-4.823848698542e-04 4.350154955090e-03 0.0 
0.0 0.0 0.0 
2.456754436752e-03 6.237404115903e-04 0.0 
6.237404115903e-04 -4.324503057660e-03 0.0 
0.0 0.0 0.0 
-2.446863729451e-04 2.760278337404e-04 0.0 
2.760278337404e-04 7.912812827034e-03 0.0 
0.0 0.0 0.0 
-4.079392652668e-04 -2.762288390567e-04 0.0 
-2.762288390567e-04 2.466165403371e-03 0.0 
0.0 0.0 0.0 
-6.548031696393e-04 7.224226204727e-04 0.0 
7.224226204727e-04 2.879481023122e-03 0.0 
0.0 0.0 0.0 
1.871618881544e-04 9.140207857038e-04 0.0 
9.140207857038e-04 5.798248458309e-03 0.0 
0.0 0.0 0.0 
-1.658670057224e-04 2.465899964553e-04 0.0 
2.465899964553e-04 8.358340246631e-03 0.0 
0.0 0.0 0.0 
6.336549353392e-04 -2.299107450239e-03 0.0 
-2.299107450239e-03 -7.799156884576e-04 0.0 
0.0 0.0 0.0 
4.543089102915e-06 1.071224281129e-03 0.0 
1.071224281129e-03 4.728853321154e-03 0.0 
0.0 0.0 0.0 
-3.554115345860e-04 3.039361276426e-04 0.0 
3.039361276426e-04 7.236889726856e-03 0.0 
0.0 0.0 0.0 
-6.421189091799e-05 -7.186712096154e-04 0.0 
-7.186712096154e-04 3.827895294645e-03 0.0 
0.0 0.0 0.0 
2.041389082770e-03 -1.121937131723e-03 0.0 
-1.121937131723e-03 -2.105923856373e-03 0.0 
0.0 0.0 0.0 
4.627570942510e-04 1.890342845793e-03 0.0 
1.890342845793e-03 1.470851098110e-03 0.0 
0.0 0.0 0.0 
-2.904666750677e-04 -1.986027284573e-03 0.0 
-1.986027284573e-03 4.585993550359e-04 0.0 
0.0 0.0 0.0 
1.076116706787e-03 -1.989679065975e-03 0.0 
-1.989679065975e-03 -8.199594381246e-04 0.0 
0.0 0.0 0.0 
4.119043067681e-04 -2.196115277587e-03 0.0 
-2.196115277587e-03 -1.835481920932e-04 0.0 
0.0 0.0 0.0 
1.142588039619e-03 4.024544703738e-04 0.0 
4.024544703738e-04 2.895744395979e-03 0.0 
0.0 0.0 0.0 
-8.639191262416e-05 5.767831371895e-04 0.0 
5.767831371895e-04 8.877722359155e-03 0.0 
0.0 0.0 0.0 
-6.026805232462e-04 5.699742749013e-04 0.0 
5.699742749013e-04 3.324608819547e-03 0.0 
0.0 0.0 0.0 
1.112741424112e-04 -2.601657336733e-04 0.0 
-2.601657336733e-04 6.007434136613e-03 0.0 
0.0 0.0 0.0 
1.482151258838e-03 8.658222092461e-04 0.0 
8.658222092461e-04 8.530426553945e-04 0.0 
0.0 0.0 0.0 
-4.372243252855e-04 2.757460415873e-04 0.0 
2.757460415873e-04 7.010870308115e-03 0.0 
0.0 0.0 0.0 
2.644118025552e-03 4.619903877578e-04 0.0 
4.619903877578e-04 -3.848903759045e-03 0.0 
0.0 0.0 0.0 
3.140651025662e-04 -1.235368727277e-04 0.0 
-1.235368727277e-04 5.950151878291e-03 0.0 
0.0 0.0 0.0 
7.781003635721e-05 -2.263442117826e-03 0.0 
-2.263442117826e-03 -1.764306011732e-04 0.0 
0.0 0.0 0.0 
-4.496905077683e-04 -3.060796230742e-04 0.0 
-3.060796230742e-04 2.876714238258e-03 0.0 
0.0 0.0 0.0 
7.998818576749e-04 4.954809106947e-04 0.0 
4.954809106947e-04 4.405417243969e-03 0.0 
0.0 0.0 0.0 
8.437960496861e-04 -8.104731384015e-04 0.0 
-8.104731384015e-04 2.301572737151e-03 0.0 
0.0 0.0 0.0 
5.014661156715e-04 6.502436237068e-04 0.0 
6.502436237068e-04 5.613449858196e-03 0.0 
0.0 0.0 0.0 
-3.656326396706e-05 1.553890836429e-03 0.0 
1.553890836429e-03 2.979023654017e-03 0.0 
0.0 0.0 0.0 
-4.137265078404e-04 3.965477283224e-04 0.0 
3.965477283224e-04 7.282107466083e-03 0.0 
0.0 0.0 0.0 
4.507042290769e-04 5.741225580750e-04 0.0 
5.741225580750e-04 5.854384156546e-03 0.0 
0.0 0.0 0.0 
-3.630444129878e-04 2.554318564803e-04 0.0 
2.554318564803e-04 7.083365116259e-03 0.0 
0.0 0.0 0.0 
-2.595938807044e-04 6.366702212387e-04 0.0 
6.366702212387e-04 7.941804882802e-03 0.0 
0.0 0.0 0.0 
-3.544588243393e-04 3.082421771753e-04 0.0 
3.082421771753e-04 7.617412246807e-03 0.0 
0.0 0.0 0.0 
-3.384775915264e-04 3.643030311399e-04 0.0 
3.643030311399e-04 7.756490687428e-03 0.0 
0.0 0.0 0.0 
1.429501656620e-03 2.375069881658e-03 0.0 
2.375069881658e-03 -1.759917923152e-03 0.0 
0.0 0.0 0.0 
5.908986327130e-05 -2.909684469273e-04 0.0 
-2.909684469273e-04 5.862373400788e-03 0.0 
0.0 0.0 0.0 
-3.440157942137e-04 3.565961009321e-04 0.0 
3.565961009321e-04 7.382267555174e-03 0.0 
0.0 0.0 0.0 
9.854789709196e-04 1.015362451156e-03 0.0 
1.015362451156e-03 2.560372691746e-03 0.0 
0.0 0.0 0.0 
-5.794815034845e-04 4.496654443919e-04 0.0 
4.496654443919e-04 3.773720554986e-03 0.0 
0.0 0.0 0.0 
3.629115792578e-04 5.722100405697e-04 0.0 
5.722100405697e-04 6.232167149961e-03 0.0 
0.0 0.0 0.0 
2.187354581814e-03 1.044399689494e-03 0.0 
1.044399689494e-03 -2.196071814579e-03 0.0 
0.0 0.0 0.0 
-3.936741846789e-04 -3.377574020668e-04 0.0 
-3.377574020668e-04 2.653722235824e-03 0.0 
0.0 0.0 0.0 
5.746899527308e-04 6.755328258574e-04 0.0 
6.755328258574e-04 5.196633644056e-03 0.0 
0.0 0.0 0.0 
-8.819156787321e-05 -5.377620283634e-06 0.0 
-5.377620283634e-06 1.598389689683e-03 0.0 
0.0 0.0 0.0 
4.466489960238e-04 1.188366083572e-03 0.0 
1.188366083572e-03 3.748313012180e-03 0.0 
0.0 0.0 0.0 
7.728474440076e-04 3.740031037440e-04 0.0 
3.740031037440e-04 4.588039524568e-03 0.0 
0.0 0.0 0.0 
-2.691117765852e-04 4.059424983407e-04 0.0 
4.059424983407e-04 8.110374220885e-03 0.0 
0.0 0.0 0.0 
-2.426817253328e-04 4.717313708675e-04 0.0 
4.717313708675e-04 8.239946298251e-03 0.0 
0.0 0.0 0.0 
8.260507199231e-04 3.584534912377e-04 0.0 
3.584534912377e-04 4.425226754733e-03 0.0 
0.0 0.0 0.0 
-3.118618144060e-04 2.945695451291e-04 0.0 
2.945695451291e-04 7.845687957237e-03 0.0 
0.0 0.0 0.0 
1.260361042135e-03 1.045611181395e-03 0.0 
1.045611181395e-03 1.435938223355e-03 0.0 
0.0 0.0 0.0 
1.329853211551e-06 9.004282486146e-04 0.0 
9.004282486146e-04 6.199872371370e-03 0.0 
0.0 0.0 0.0 
-5.648811635953e-04 3.596263183526e-04 0.0 
3.596263183526e-04 4.226618922098e-03 0.0 
0.0 0.0 0.0 
-1.702879247956e-04 8.123680921643e-04 0.0 
8.123680921643e-04 7.504452719267e-03 0.0 
0.0 0.0 0.0 
-5.511638282880e-04 3.000583698199e-04 0.0 
3.000583698199e-04 4.681580794187e-03 0.0 
0.0 0.0 0.0 
-5.321654910825e-04 2.735985848861e-04 0.0 
2.735985848861e-04 4.907023637446e-03 0.0 
0.0 0.0 0.0 
1.251565260463e-03 6.666353965082e-04 0.0 
6.666353965082e-04 2.122854502984e-03 0.0 
0.0 0.0 0.0 
-5.304282923556e-04 2.646712376714e-04 0.0 
2.646712376714e-04 5.137686600139e-03 0.0 
0.0 0.0 0.0 
6.004484601010e-04 9.987666691294e-04 0.0 
9.987666691294e-04 4.078395227329e-03 0.0 
0.0 0.0 0.0 
8.264862941889e-04 1.228751372193e-03 0.0 
1.228751372193e-03 2.704658466763e-03 0.0 
0.0 0.0 0.0 
1.338507987220e-03 -5.803294996411e-05 0.0 
-5.803294996411e-05 1.956519008612e-03 0.0 
0.0 0.0 0.0 
2.127881371522e-03 -1.172932354625e-03 0.0 
-1.172932354625e-03 -2.274773741460e-03 0.0 
0.0 0.0 0.0 
1.397202057234e-03 4.672255069872e-04 0.0 
4.672255069872e-04 1.668288722688e-03 0.0 
0.0 0.0 0.0 
-2.257684904758e-04 3.240459956142e-04 0.0 
3.240459956142e-04 8.066006625287e-03 0.0 
0.0 0.0 0.0 
-1.924759705670e-04 7.604885709832e-04 0.0 
7.604885709832e-04 7.782687390246e-03 0.0 
0.0 0.0 0.0 
7.553358654100e-05 -3.473032504355e-04 0.0 
-3.473032504355e-04 5.438856202167e-03 0.0 
0.0 0.0 0.0 
4.664260559135e-04 6.578591964721e-04 0.0 
6.578591964721e-04 5.712652222221e-03 0.0 
0.0 0.0 0.0 
1.027831897755e-03 -6.279780329939e-04 0.0 
-6.279780329939e-04 2.271961510163e-03 0.0 
0.0 0.0 0.0 
-2.884751295265e-04 4.025319690463e-04 0.0 
4.025319690463e-04 7.751699557755e-03 0.0 
0.0 0.0 0.0 
1.364923139990e-03 2.089770485927e-04 0.0 
2.089770485927e-04 1.916463783322e-03 0.0 
0.0 0.0 0.0 
-9.104940177695e-06 -2.629242652026e-04 0.0 
-2.629242652026e-04 6.145106757674e-03 0.0 
0.0 0.0 0.0 
-3.064803976220e-04 3.472693128824e-04 0.0 
3.472693128824e-04 7.612654619908e-03 0.0 
0.0 0.0 0.0 
-3.784342153204e-04 3.800505287559e-04 0.0 
3.800505287559e-04 7.520844078202e-03 0.0 
0.0 0.0 0.0 
9.776602101574e-04 2.367800469254e-04 0.0 
2.367800469254e-04 3.699188855916e-03 0.0 
0.0 0.0 0.0 
1.364721257584e-03 7.531798303283e-04 0.0 
7.531798303283e-04 1.502604240298e-03 0.0 
0.0 0.0 0.0 
8.785261355948e-06 8.911806152273e-04 0.0 
8.911806152273e-04 6.582692284388e-03 0.0 
0.0 0.0 0.0 
-3.199848533653e-04 7.998771108216e-04 0.0 
7.998771108216e-04 5.846129877797e-03 0.0 
0.0 0.0 0.0 
1.644027216198e-03 -1.877540830318e-03 0.0 
-1.877540830318e-03 -2.159271726223e-03 0.0 
0.0 0.0 0.0 
2.343750697319e-03 3.113690787475e-04 0.0 
3.113690787475e-04 -2.079692963574e-03 0.0 
0.0 0.0 0.0 
9.714208453926e-05 1.559451904350e-03 0.0 
1.559451904350e-03 2.736627605863e-03 0.0 
0.0 0.0 0.0 
-6.858282096267e-05 1.069527152791e-03 0.0 
1.069527152791e-03 4.729447191358e-03 0.0 
0.0 0.0 0.0 
-6.105100971243e-05 -2.302574600717e-04 0.0 
-2.302574600717e-04 6.416396441124e-03 0.0 
0.0 0.0 0.0 
-3.934954213798e-04 3.208655146321e-04 0.0 
3.208655146321e-04 7.386686410558e-03 0.0 
0.0 0.0 0.0 
1.459579981393e-03 4.708360193138e-04 0.0 
4.708360193138e-04 1.545253719416e-03 0.0 
0.0 0.0 0.0 
-4.466730899111e-05 9.548507260552e-04 0.0 
9.548507260552e-04 5.464256694658e-03 0.0 
0.0 0.0 0.0 
7.211144395569e-04 2.716550183775e-04 0.0 
2.716550183775e-04 4.815846155956e-03 0.0 
0.0 0.0 0.0 
-2.841980318610e-04 2.311102308655e-04 0.0 
2.311102308655e-04 7.918462353953e-03 0.0 
0.0 0.0 0.0 
-5.770825691065e-05 8.948413221684e-04 0.0 
8.948413221684e-04 6.943155047017e-03 0.0 
0.0 0.0 0.0 
-4.168386711084e-04 3.160602208847e-04 0.0 
3.160602208847e-04 6.774123907158e-03 0.0 
0.0 0.0 0.0 
5.736270296692e-04 -1.238162795534e-05 0.0 
-1.238162795534e-05 5.117943708950e-03 0.0 
0.0 0.0 0.0 
1.288896000458e-03 1.879864116651e-04 0.0 
1.879864116651e-04 2.331792771697e-03 0.0 
0.0 0.0 0.0 
7.037892397330e-04 1.415111732433e-04 0.0 
1.415111732433e-04 4.827894660579e-03 0.0 
0.0 0.0 0.0 
3.093826531297e-04 1.233539884429e-03 0.0 
1.233539884429e-03 3.742329297403e-03 0.0 
0.0 0.0 0.0 
-2.471394792749e-04 3.337477025111e-04 0.0 
3.337477025111e-04 8.209654092290e-03 0.0 
0.0 0.0 0.0 
-9.138863754510e-05 8.841375524206e-04 0.0 
8.841375524206e-04 7.321648815081e-03 0.0 
0.0 0.0 0.0 
1.103124654535e-03 2.241383183014e-04 0.0 
2.241383183014e-04 3.125009511833e-03 0.0 
0.0 0.0 0.0 
2.454680819118e-03 3.866943670823e-04 0.0 
3.866943670823e-04 -2.877655487785e-03 0.0 
0.0 0.0 0.0 
2.866272836048e-04 8.954095012053e-04 0.0 
8.954095012053e-04 5.819056089948e-03 0.0 
0.0 0.0 0.0 
4.570515656994e-04 1.084331427315e-03 0.0 
1.084331427315e-03 4.134814267794e-03 0.0 
0.0 0.0 0.0 
1.418141335955e-03 7.830807396611e-04 0.0 
7.830807396611e-04 1.475917363093e-03 0.0 
0.0 0.0 0.0 
1.031484753748e-03 2.087560862319e-04 0.0 
2.087560862319e-04 3.501049761915e-03 0.0 
0.0 0.0 0.0 
5.080509994535e-04 -2.374118917864e-04 0.0 
-2.374118917864e-04 4.917525032284e-03 0.0 
0.0 0.0 0.0 
2.414183621976e-03 -4.819005501441e-04 0.0 
-4.819005501441e-04 -2.736703432520e-03 0.0 
0.0 0.0 0.0 
1.231098983205e-03 2.143123727791e-04 0.0 
2.143123727791e-04 2.532670814634e-03 0.0 
0.0 0.0 0.0 
-3.950717281005e-04 6.378270561897e-04 0.0 
6.378270561897e-04 6.418407545895e-03 0.0 
0.0 0.0 0.0 
-9.755811866130e-05 -2.845543544242e-04 0.0 
-2.845543544242e-04 6.424174013052e-03 0.0 
0.0 0.0 0.0 
-3.451086303949e-04 7.071815430217e-04 0.0 
7.071815430217e-04 6.465705090586e-03 0.0 
0.0 0.0 0.0 
2.181867676967e-04 9.370081867093e-04 0.0 
9.370081867093e-04 5.798544642356e-03 0.0 
0.0 0.0 0.0 
-4.341582060536e-04 5.648311139395e-04 0.0 
5.648311139395e-04 6.355404267786e-03 0.0 
0.0 0.0 0.0 
-4.830482238629e-04 4.201450304814e-04 0.0 
4.201450304814e-04 6.180102872860e-03 0.0 
0.0 0.0 0.0 
-2.399774857341e-04 8.620460289579e-04 0.0 
8.620460289579e-04 5.845336484525e-03 0.0 
0.0 0.0 0.0 
5.740077285064e-04 5.805397578880e-04 0.0 
5.805397578880e-04 5.326842280887e-03 0.0 
0.0 0.0 0.0 
7.405928310855e-05 -3.783663068035e-04 0.0 
-3.783663068035e-04 5.575435387368e-03 0.0 
0.0 0.0 0.0 
-3.785309653783e-04 3.655780534851e-04 0.0 
3.655780534851e-04 7.148358344667e-03 0.0 
0.0 0.0 0.0 
-1.979958629623e-04 5.039797247754e-04 0.0 
5.039797247754e-04 8.235727185576e-03 0.0 
0.0 0.0 0.0 
-4.634573024236e-04 4.911480052282e-04 0.0 
4.911480052282e-04 6.276516638519e-03 0.0 
0.0 0.0 0.0 
1.756108071234e-03 6.249109758289e-04 0.0 
6.249109758289e-04 2.282273445415e-04 0.0 
0.0 0.0 0.0 
2.261389040221e-04 8.569805274746e-04 0.0 
8.569805274746e-04 6.235012756609e-03 0.0 
0.0 0.0 0.0 
-2.201223886394e-04 2.612215206014e-04 0.0 
2.612215206014e-04 8.291955295560e-03 0.0 
0.0 0.0 0.0 
6.473951014863e-04 1.199983236706e-03 0.0 
1.199983236706e-03 3.129949778651e-03 0.0 
0.0 0.0 0.0 
4.812501134932e-04 1.178192723792e-03 0.0 
1.178192723792e-03 3.643924408347e-03 0.0 
0.0 0.0 0.0 
1.602766778233e-03 5.357319732754e-04 0.0 
5.357319732754e-04 9.039684412191e-04 0.0 
0.0 0.0 0.0 
-3.633204498346e-04 4.256545282914e-04 0.0 
4.256545282914e-04 7.278028187030e-03 0.0 
0.0 0.0 0.0 
-2.892613568539e-04 1.179153010086e-03 0.0 
1.179153010086e-03 3.838607016832e-03 0.0 
0.0 0.0 0.0 
6.057382634093e-04 9.910615865628e-04 0.0 
9.910615865628e-04 4.044498377612e-03 0.0 
0.0 0.0 0.0 
-2.374876338902e-04 1.240966976451e-03 0.0 
1.240966976451e-03 3.829961841086e-03 0.0 
0.0 0.0 0.0 
6.898645660423e-04 5.952712053834e-04 0.0 
5.952712053834e-04 4.795255407261e-03 0.0 
0.0 0.0 0.0 
1.624260320019e-04 8.622749750812e-04 0.0 
8.622749750812e-04 6.657629558102e-03 0.0 
0.0 0.0 0.0 
1.575740352541e-03 1.889429866016e-04 0.0 
1.889429866016e-04 1.061641908060e-03 0.0 
0.0 0.0 0.0 
2.345520438381e-03 -5.844042429163e-04 0.0 
-5.844042429163e-04 -4.128398824758e-03 0.0 
0.0 0.0 0.0 
-2.046801067577e-04 5.891736575439e-04 0.0 
5.891736575439e-04 8.108679354599e-03 0.0 
0.0 0.0 0.0 
-3.411582613514e-04 1.046477393295e-03 0.0 
1.046477393295e-03 4.211398876923e-03 0.0 
0.0 0.0 0.0 
1.122274540073e-03 -4.052251888444e-04 0.0 
-4.052251888444e-04 2.385947146891e-03 0.0 
0.0 0.0 0.0 
2.499388608883e-04 8.851968768402e-04 0.0 
8.851968768402e-04 6.265575607401e-03 0.0 
0.0 0.0 0.0 
-4.288326772298e-04 3.345231737512e-04 0.0 
3.345231737512e-04 7.152227351149e-03 0.0 
0.0 0.0 0.0 
1.652025058358e-04 -4.031311462774e-04 0.0 
-4.031311462774e-04 5.258115310040e-03 0.0 
0.0 0.0 0.0 
1.053284202964e-03 1.193678604213e-03 0.0 
1.193678604213e-03 2.127691715818e-03 0.0 
0.0 0.0 0.0 
2.128106731283e-03 -2.968398272389e-04 0.0 
-2.968398272389e-04 -4.392768235384e-03 0.0 
0.0 0.0 0.0 
-1.259816120665e-04 -2.582149262624e-04 0.0 
-2.582149262624e-04 6.703091957825e-03 0.0 
0.0 0.0 0.0 
6.987377084822e-05 1.094067112196e-03 0.0 
1.094067112196e-03 4.654509964547e-03 0.0 
0.0 0.0 0.0 
7.004211976778e-04 6.989457425308e-04 0.0 
6.989457425308e-04 4.593841553478e-03 0.0 
0.0 0.0 0.0 
5.814331316167e-05 9.398064023857e-04 0.0 
9.398064023857e-04 6.607924353399e-03 0.0 
0.0 0.0 0.0 
1.211295363048e-03 -8.370074920930e-05 0.0 
-8.370074920930e-05 -4.859135965404e-03 0.0 
0.0 0.0 0.0 
2.524363599996e-04 -3.300799417811e-04 0.0 
-3.300799417811e-04 5.246292714345e-03 0.0 
0.0 0.0 0.0 
1.056487785452e-03 1.863328030287e-03 0.0 
1.863328030287e-03 7.410724872017e-04 0.0 
0.0 0.0 0.0 
-4.697873438668e-04 2.860955750865e-04 0.0 
2.860955750865e-04 6.777678499575e-03 0.0 
0.0 0.0 0.0 
-3.718364080529e-05 -6.311223619101e-04 0.0 
-6.311223619101e-04 4.216058928887e-03 0.0 
0.0 0.0 0.0 
1.534680996853e-03 5.213275381652e-04 0.0 
5.213275381652e-04 1.006831869582e-03 0.0 
0.0 0.0 0.0 
-5.693140212759e-05 -3.157148541877e-04 0.0 
-3.157148541877e-04 6.153531559505e-03 0.0 
0.0 0.0 0.0 
4.812734250514e-04 1.079228809062e-03 0.0 
1.079228809062e-03 4.066838432256e-03 0.0 
0.0 0.0 0.0 
1.681758335366e-03 5.974696438917e-04 0.0 
5.974696438917e-04 3.062800205473e-04 0.0 
0.0 0.0 0.0 
4.841598609695e-05 1.014869322181e-03 0.0 
1.014869322181e-03 5.071138412481e-03 0.0 
0.0 0.0 0.0 
1.835437715583e-03 -1.681368965126e-03 0.0 
-1.681368965126e-03 -4.141965115336e-03 0.0 
0.0 0.0 0.0 
8.945035500307e-05 9.268500190895e-04 0.0 
9.268500190895e-04 5.810161015535e-03 0.0 
0.0 0.0 0.0 
7.262284574914e-04 4.731869950875e-04 0.0 
4.731869950875e-04 4.813328228833e-03 0.0 
0.0 0.0 0.0 
-1.105058970653e-04 8.615319135050e-04 0.0 
8.615319135050e-04 7.602748151472e-03 0.0 
0.0 0.0 0.0 
8.843122670865e-05 9.008672506817e-04 0.0 
9.008672506817e-04 6.203114379215e-03 0.0 
0.0 0.0 0.0 
2.118008864832e-03 2.576736331152e-04 0.0 
2.576736331152e-04 -1.184046507827e-03 0.0 
0.0 0.0 0.0 
-1.910553363738e-06 -4.016479300192e-04 0.0 
-4.016479300192e-04 5.447887308245e-03 0.0 
0.0 0.0 0.0 
-1.523115339744e-04 3.580667637539e-04 0.0 
3.580667637539e-04 8.429790748686e-03 0.0 
0.0 0.0 0.0 
2.349090833134e-04 6.621699082815e-04 0.0 
6.621699082815e-04 6.599970800524e-03 0.0 
0.0 0.0 0.0 
6.151896447764e-04 5.715525079279e-04 0.0 
5.715525079279e-04 5.211931617584e-03 0.0 
0.0 0.0 0.0 
1.211650930848e-03 9.473772099817e-04 0.0 
9.473772099817e-04 2.051641757590e-03 0.0 
0.0 0.0 0.0 
7.596894858342e-05 9.655983827493e-04 0.0 
9.655983827493e-04 5.432947407472e-03 0.0 
0.0 0.0 0.0 
-1.510138445128e-04 -1.853878883327e-04 0.0 
-1.853878883327e-04 6.502995627006e-03 0.0 
0.0 0.0 0.0 
-4.628034505487e-04 -1.832603479451e-04 0.0 
-1.832603479451e-04 4.543981844938e-03 0.0 
0.0 0.0 0.0 
1.337487071047e-04 9.537365493378e-04 0.0 
9.537365493378e-04 5.792833532657e-03 0.0 
0.0 0.0 0.0 
-3.876575089716e-04 3.100303768659e-04 0.0 
3.100303768659e-04 7.006817106330e-03 0.0 
0.0 0.0 0.0 
5.004137879627e-07 -3.481420579986e-04 0.0 
-3.481420579986e-04 5.871493394978e-03 0.0 
0.0 0.0 0.0 
2.349008275362e-04 -3.473480845560e-04 0.0 
-3.473480845560e-04 5.394883902199e-03 0.0 
0.0 0.0 0.0 
-3.513490374867e-04 4.695354435743e-06 0.0 
4.695354435743e-06 5.447286424165e-03 0.0 
0.0 0.0 0.0 
-3.453709520866e-04 8.714983957954e-06 0.0 
8.714983957954e-06 5.444304719239e-03 0.0 
0.0 0.0 0.0 
-4.230591342578e-04 5.971058836810e-04 0.0 
5.971058836810e-04 6.701063349770e-03 0.0 
0.0 0.0 0.0 
1.250290011774e-04 9.898674401224e-04 0.0 
9.898674401224e-04 5.397823559589e-03 0.0 
0.0 0.0 0.0 
-1.228767575177e-04 -5.457747021117e-04 0.0 
-5.457747021117e-04 4.532034736808e-03 0.0 
0.0 0.0 0.0 
-2.672789213323e-04 8.073739701752e-04 0.0 
8.073739701752e-04 6.181508067655e-03 0.0 
0.0 0.0 0.0 
6.337484099102e-04 1.084079578854e-03 0.0 
1.084079578854e-03 3.581077220711e-03 0.0 
0.0 0.0 0.0 
4.822716963047e-04 1.898161110611e-04 0.0 
1.898161110611e-04 5.576272451560e-03 0.0 
0.0 0.0 0.0 
1.041227685324e-03 1.148857421471e-03 0.0 
1.148857421471e-03 2.022476905357e-03 0.0 
0.0 0.0 0.0 
-8.648677787582e-05 5.123240879721e-04 0.0 
5.123240879721e-04 8.920359625420e-03 0.0 
0.0 0.0 0.0 
-5.048998137908e-04 3.658496874296e-04 0.0 
3.658496874296e-04 5.827284844642e-03 0.0 
0.0 0.0 0.0 
6.211574192019e-04 1.100370480788e-03 0.0 
1.100370480788e-03 3.654990108017e-03 0.0 
0.0 0.0 0.0 
7.613946765495e-05 -5.956780648009e-04 0.0 
-5.956780648009e-04 4.209606254436e-03 0.0 
0.0 0.0 0.0 
2.094535757558e-03 9.154506945922e-04 0.0 
9.154506945922e-04 -1.253594936872e-03 0.0 
0.0 0.0 0.0 
3.587792819149e-05 -8.220696463627e-04 0.0 
-8.220696463627e-04 3.482238641124e-03 0.0 
0.0 0.0 0.0 
1.042193790264e-04 1.037682605410e-03 0.0 
1.037682605410e-03 5.017454916096e-03 0.0 
0.0 0.0 0.0 
-1.403661402876e-04 9.920064985028e-04 0.0 
9.920064985028e-04 5.121923350068e-03 0.0 
0.0 0.0 0.0 
-4.099291236530e-04 3.757614532673e-04 0.0 
3.757614532673e-04 6.911928436421e-03 0.0 
0.0 0.0 0.0 
-1.926523919662e-04 8.653040053209e-04 0.0 
8.653040053209e-04 6.189111861350e-03 0.0 
0.0 0.0 0.0 
-2.235737332159e-04 8.118401042785e-04 0.0 
8.118401042785e-04 6.525525200597e-03 0.0 
0.0 0.0 0.0 
1.338340712740e-04 -5.088490194848e-05 0.0 
-5.088490194848e-05 1.056708743962e-03 0.0 
0.0 0.0 0.0 
1.439744813148e-05 -7.925764981282e-04 0.0 
-7.925764981282e-04 3.452262583008e-03 0.0 
0.0 0.0 0.0 
-3.078092897123e-04 1.106695065427e-03 0.0 
1.106695065427e-03 4.204263716101e-03 0.0 
0.0 0.0 0.0 
-3.378884431451e-04 7.481427790882e-04 0.0 
7.481427790882e-04 6.161512645102e-03 0.0 
0.0 0.0 0.0 
-3.654702341697e-04 7.045985805117e-04 0.0 
7.045985805117e-04 6.466419305186e-03 0.0 
0.0 0.0 0.0 
5.458239990714e-04 4.773526437186e-04 0.0 
4.773526437186e-04 5.469088363669e-03 0.0 
0.0 0.0 0.0 
-1.805360672680e-04 -1.435476859717e-05 0.0 
-1.435476859717e-05 1.813671743002e-03 0.0 
0.0 0.0 0.0 
2.240914983531e-03 -1.368557379299e-03 0.0 
-1.368557379299e-03 -3.076292891828e-03 0.0 
0.0 0.0 0.0 
1.789139396733e-04 1.164815140430e-03 0.0 
1.164815140430e-03 4.213918914702e-03 0.0 
0.0 0.0 0.0 
-1.024149624426e-04 -8.052810638593e-04 0.0 
-8.052810638593e-04 3.454841950225e-03 0.0 
0.0 0.0 0.0 
-5.906255920657e-04 2.868634179120e-04 0.0 
2.868634179120e-04 4.904912604747e-03 0.0 
0.0 0.0 0.0 
-5.762485157282e-04 2.655554273872e-04 0.0 
2.655554273872e-04 5.137784709422e-03 0.0 
0.0 0.0 0.0 
-4.591750521592e-04 3.507785583592e-04 0.0 
3.507785583592e-04 6.915027578630e-03 0.0 
0.0 0.0 0.0 
1.199318561247e-03 2.482046676834e-03 0.0 
2.482046676834e-03 -9.815253691959e-04 0.0 
0.0 0.0 0.0 
-4.971071243975e-05 -6.010667002075e-04 0.0 
-6.010667002075e-04 4.145199686812e-03 0.0 
0.0 0.0 0.0 
7.404821511463e-04 9.432609328493e-06 0.0 
9.432609328493e-06 4.532130166971e-03 0.0 
0.0 0.0 0.0 
2.508685569195e-03 -4.538398237036e-04 0.0 
-4.538398237036e-04 -3.275655556876e-03 0.0 
0.0 0.0 0.0 
3.329948088315e-05 9.161057453182e-04 0.0 
9.161057453182e-04 7.309419692291e-03 0.0 
0.0 0.0 0.0 
-2.930449186865e-04 3.500420688051e-04 0.0 
3.500420688051e-04 7.980786864893e-03 0.0 
0.0 0.0 0.0 
-2.491175733013e-04 -5.835150224944e-04 0.0 
-5.835150224944e-04 4.074366204103e-03 0.0 
0.0 0.0 0.0 
-6.207948835324e-06 -3.079522009740e-04 0.0 
-3.079522009740e-04 5.732691405709e-03 0.0 
0.0 0.0 0.0 
7.977585361529e-05 -3.265795152484e-05 0.0 
-3.265795152484e-05 7.219062006754e-04 0.0 
0.0 0.0 0.0 
7.458915213863e-04 -1.333722628901e-04 0.0 
-1.333722628901e-04 4.272710207126e-03 0.0 
0.0 0.0 0.0 
1.598915680439e-04 1.076831375523e-03 0.0 
1.076831375523e-03 4.656548503312e-03 0.0 
0.0 0.0 0.0 
1.355713402020e-04 -2.623609100468e-05 0.0 
-2.623609100468e-05 6.989196462770e-04 0.0 
0.0 0.0 0.0 
-2.461890595595e-04 3.877274749695e-04 0.0 
3.877274749695e-04 7.977338554694e-03 0.0 
0.0 0.0 0.0 
2.581767642612e-03 -5.469566316122e-04 0.0 
-5.469566316122e-04 -3.683047915843e-03 0.0 
0.0 0.0 0.0 
-3.465781199576e-04 7.499976784194e-04 0.0 
7.499976784194e-04 6.161279964058e-03 0.0 
0.0 0.0 0.0 
-8.789742003046e-05 9.940414985451e-04 0.0 
9.940414985451e-04 5.121411231430e-03 0.0 
0.0 0.0 0.0 
1.158970394669e-03 -5.025821966037e-04 0.0 
-5.025821966037e-04 2.020222094208e-03 0.0 
0.0 0.0 0.0 
7.137389818053e-04 -4.240602049309e-04 0.0 
-4.240602049309e-04 3.711765804575e-03 0.0 
0.0 0.0 0.0 
-2.259429294468e-04 4.436574174937e-04 0.0 
4.436574174937e-04 8.108012749857e-03 0.0 
0.0 0.0 0.0 
6.391309903484e-04 -3.206190681952e-04 0.0 
-3.206190681952e-04 4.213909615258e-03 0.0 
0.0 0.0 0.0 
3.352878137037e-04 1.137622582717e-03 0.0 
1.137622582717e-03 4.127439938688e-03 0.0 
0.0 0.0 0.0 
2.919381886621e-04 1.136383668207e-03 0.0 
1.136383668207e-03 4.217494482542e-03 0.0 
0.0 0.0 0.0 
-7.178696581949e-04 1.478931595976e-03 0.0 
1.478931595976e-03 9.736048430509e-04 0.0 
0.0 0.0 0.0 
2.492255525369e-03 -4.013736800793e-04 0.0 
-4.013736800793e-04 -3.904079213065e-03 0.0 
0.0 0.0 0.0 
1.670502613036e-04 8.914261239259e-04 0.0 
8.914261239259e-04 6.202679494461e-03 0.0 
0.0 0.0 0.0 
-5.100403241086e-04 3.852152930706e-04 0.0 
3.852152930706e-04 6.428965675578e-03 0.0 
0.0 0.0 0.0 
1.949971489834e-04 9.198627540276e-04 0.0 
9.198627540276e-04 6.223856798029e-03 0.0 
0.0 0.0 0.0 
7.297563779260e-04 2.015619888842e-03 0.0 
2.015619888842e-03 7.198810391238e-04 0.0 
0.0 0.0 0.0 
-3.069559196153e-04 6.345072372604e-04 0.0 
6.345072372604e-04 7.329341157662e-03 0.0 
0.0 0.0 0.0 
7.399335152347e-05 8.952295853018e-04 0.0 
8.952295853018e-04 6.611150548235e-03 0.0 
0.0 0.0 0.0 
-5.323857917571e-04 3.346893326990e-04 0.0 
3.346893326990e-04 5.246713823176e-03 0.0 
0.0 0.0 0.0 
1.272205088603e-04 9.273380794968e-04 0.0 
9.273380794968e-04 6.196723615460e-03 0.0 
0.0 0.0 0.0 
-7.032966050124e-05 -3.571283990412e-04 0.0 
-3.571283990412e-04 5.740871044012e-03 0.0 
0.0 0.0 0.0 
2.267029815215e-04 1.023942637991e-03 0.0 
1.023942637991e-03 4.972548086216e-03 0.0 
0.0 0.0 0.0 
5.290589466367e-05 -6.936519952049e-04 0.0 
-6.936519952049e-04 3.823384977020e-03 0.0 
0.0 0.0 0.0 
6.390372900444e-05 -7.179989109870e-04 0.0 
-7.179989109870e-04 3.877035889340e-03 0.0 
0.0 0.0 0.0 
-2.602562123756e-04 5.579430946116e-04 0.0 
5.579430946116e-04 8.119443480586e-03 0.0 
0.0 0.0 0.0 
7.796932194026e-04 -5.426656243864e-04 0.0 
-5.426656243864e-04 3.213142681998e-03 0.0 
0.0 0.0 0.0 
-2.026231005170e-05 1.026735791176e-03 0.0 
1.026735791176e-03 5.069837965563e-03 0.0 
0.0 0.0 0.0 
9.211921608820e-04 9.091496343941e-04 0.0 
9.091496343941e-04 3.094781128244e-03 0.0 
0.0 0.0 0.0 
5.533061850533e-04 -2.345526090444e-04 0.0 
-2.345526090444e-04 4.718986306809e-03 0.0 
0.0 0.0 0.0 
8.043847877124e-04 1.091397843433e-03 0.0 
1.091397843433e-03 3.144954134211e-03 0.0 
0.0 0.0 0.0 
2.017962908949e-03 2.585830851677e-04 0.0 
2.585830851677e-04 -9.613460857457e-04 0.0 
0.0 0.0 0.0 
1.153471913306e-03 3.384835948119e-05 0.0 
3.384835948119e-05 2.818946030931e-03 0.0 
0.0 0.0 0.0 
1.839690273244e-03 7.006177177022e-04 0.0 
7.006177177022e-04 -4.487299301772e-04 0.0 
0.0 0.0 0.0 
-2.696507832476e-04 8.137237404661e-04 0.0 
8.137237404661e-04 6.180614710065e-03 0.0 
0.0 0.0 0.0 
1.916656096919e-03 2.214309515100e-04 0.0 
2.214309515100e-04 -3.747597946238e-04 0.0 
0.0 0.0 0.0 
-2.228878421102e-04 8.616071832144e-04 0.0 
8.616071832144e-04 5.845317294041e-03 0.0 
0.0 0.0 0.0 
5.977342978774e-04 4.706585378965e-04 0.0 
4.706585378965e-04 5.343607791334e-03 0.0 
0.0 0.0 0.0 
6.772814805580e-04 4.823995127102e-04 0.0 
4.823995127102e-04 4.945659786048e-03 0.0 
0.0 0.0 0.0 
8.348261847964e-04 1.195434067031e-03 0.0 
1.195434067031e-03 2.589565751612e-03 0.0 
0.0 0.0 0.0 
-4.344552941210e-04 3.879050090476e-04 0.0 
3.879050090476e-04 6.669745630559e-03 0.0 
0.0 0.0 0.0 
-7.080564879258e-05 -2.667079945381e-04 0.0 
-2.667079945381e-04 6.009434178369e-03 0.0 
0.0 0.0 0.0 
-1.226293248309e-04 -3.129768600698e-04 0.0 
-3.129768600698e-04 6.017200185748e-03 0.0 
0.0 0.0 0.0 
7.767981689069e-04 2.655964047007e-03 0.0 
2.655964047007e-03 -1.083324992831e-03 0.0 
0.0 0.0 0.0 
-1.502352623005e-04 9.109050168057e-04 0.0 
9.109050168057e-04 5.834613959296e-03 0.0 
0.0 0.0 0.0 
-9.766443833936e-05 -1.935287912139e-04 0.0 
-1.935287912139e-04 6.688019769313e-03 0.0 
0.0 0.0 0.0 
-5.651131730176e-04 8.184438855403e-04 0.0 
8.184438855403e-04 3.772325709063e-03 0.0 
0.0 0.0 0.0 
-2.194251244906e-04 -5.240303866399e-04 0.0 
-5.240303866399e-04 4.443805465335e-03 0.0 
0.0 0.0 0.0 
-1.338003169984e-03 1.983790770056e-03 0.0 
1.983790770056e-03 1.348193734403e-03 0.0 
0.0 0.0 0.0 
-1.182738078802e-04 -2.253941912915e-04 0.0 
-2.253941912915e-04 6.267618792631e-03 0.0 
0.0 0.0 0.0 
2.007511468699e-03 8.448431035899e-04 0.0 
8.448431035899e-04 -1.274015882426e-03 0.0 
0.0 0.0 0.0 
-4.527343606053e-04 -1.177010220392e-04 0.0 
-1.177010220392e-04 4.706009985732e-03 0.0 
0.0 0.0 0.0 
6.364600492894e-04 8.194101966584e-04 0.0 
8.194101966584e-04 4.579685067382e-03 0.0 
0.0 0.0 0.0 
-4.866444858173e-04 3.660678700930e-04 0.0 
3.660678700930e-04 6.672801348069e-03 0.0 
0.0 0.0 0.0 
-4.604853822185e-04 4.016033822512e-04 0.0 
4.016033822512e-04 6.426621491083e-03 0.0 
0.0 0.0 0.0 
2.101136746977e-04 1.089480574046e-03 0.0 
1.089480574046e-03 4.584942258275e-03 0.0 
0.0 0.0 0.0 
-6.133273154793e-04 3.582048569623e-04 0.0 
3.582048569623e-04 4.444184978758e-03 0.0 
0.0 0.0 0.0 
-5.993876810948e-04 3.244970261918e-04 0.0 
3.244970261918e-04 4.678020829643e-03 0.0 
0.0 0.0 0.0 
-1.593363583018e-04 -2.691528197391e-04 0.0 
-2.691528197391e-04 6.275078160145e-03 0.0 
0.0 0.0 0.0 
6.662195915383e-04 -4.184492254203e-04 0.0 
-4.184492254203e-04 3.869893736653e-03 0.0 
0.0 0.0 0.0 
1.058859769810e-03 -3.896693845300e-04 0.0 
-3.896693845300e-04 2.604603410035e-03 0.0 
0.0 0.0 0.0 
8.091853352974e-04 1.003038327217e-05 0.0 
1.003038327217e-05 4.254595489185e-03 0.0 
0.0 0.0 0.0 
1.281939164987e-03 -8.764219389846e-06 0.0 
-8.764219389846e-06 2.224170954350e-03 0.0 
0.0 0.0 0.0 
1.921832593516e-03 7.467235296299e-04 0.0 
7.467235296299e-04 -4.901551467509e-04 0.0 
0.0 0.0 0.0 
-5.484386226209e-04 3.200203362188e-04 0.0 
3.200203362188e-04 4.452062979748e-03 0.0 
0.0 0.0 0.0 
-5.394621532087e-04 3.409221224635e-04 0.0 
3.409221224635e-04 6.068996177512e-03 0.0 
0.0 0.0 0.0 
-3.468892316669e-04 6.284809022121e-06 0.0 
6.284809022121e-06 5.447572068844e-03 0.0 
0.0 0.0 0.0 
6.963085420764e-04 3.645384162472e-04 0.0 
3.645384162472e-04 4.962258900004e-03 0.0 
0.0 0.0 0.0 
1.002886502491e-03 1.045154122313e-03 0.0 
1.045154122313e-03 2.610462178953e-03 0.0 
0.0 0.0 0.0 
3.523006284745e-04 6.514057077614e-04 0.0 
6.514057077614e-04 6.216633151484e-03 0.0 
0.0 0.0 0.0 
-2.634225683124e-04 -7.740433297678e-05 0.0 
-7.740433297678e-05 6.398216281168e-03 0.0 
0.0 0.0 0.0 
1.207354146852e-03 -1.255848601658e-05 0.0 
-1.255848601658e-05 2.568564070839e-03 0.0 
0.0 0.0 0.0 
-6.189787610389e-05 -2.701024072852e-04 0.0 
-2.701024072852e-04 6.844581023435e-03 0.0 
0.0 0.0 0.0 
1.791165011940e-03 -2.203023028343e-04 0.0 
-2.203023028343e-04 -8.552345748414e-05 0.0 
0.0 0.0 0.0 
3.606068753719e-04 7.313422839219e-04 0.0 
7.313422839219e-04 6.090315308261e-03 0.0 
0.0 0.0 0.0 
3.110522126135e-04 1.050686775843e-03 0.0 
1.050686775843e-03 4.590208054468e-03 0.0 
0.0 0.0 0.0 
3.397640068397e-04 9.846428956068e-04 0.0 
9.846428956068e-04 4.942383711490e-03 0.0 
0.0 0.0 0.0 
5.127481977600e-04 -8.812583100031e-06 0.0 
-8.812583100031e-06 5.362503720261e-03 0.0 
0.0 0.0 0.0 
4.138504956375e-05 -1.173611124260e-03 0.0 
-1.173611124260e-03 2.362626553140e-03 0.0 
0.0 0.0 0.0 
-9.346439458424e-05 9.664039837570e-04 0.0 
9.664039837570e-04 5.463097800766e-03 0.0 
0.0 0.0 0.0 
1.210661181819e-03 -2.491961826342e-04 0.0 
-2.491961826342e-04 2.261208147142e-03 0.0 
0.0 0.0 0.0 
-1.629806550628e-04 9.243170649295e-04 0.0 
9.243170649295e-04 5.491259172136e-03 0.0 
0.0 0.0 0.0 
7.329628205459e-04 1.821641359548e-03 0.0 
1.821641359548e-03 1.479451514817e-03 0.0 
0.0 0.0 0.0 
4.386629383135e-04 9.341952863873e-04 0.0 
9.341952863873e-04 4.950571600715e-03 0.0 
0.0 0.0 0.0 
1.282752793937e-03 -2.592886746693e-04 0.0 
-2.592886746693e-04 1.980544498127e-03 0.0 
0.0 0.0 0.0 
-2.614817775315e-05 -5.174060081275e-04 0.0 
-5.174060081275e-04 4.526661587875e-03 0.0 
0.0 0.0 0.0 
-1.973886417175e-04 9.214073585409e-04 0.0 
9.214073585409e-04 5.491801453780e-03 0.0 
0.0 0.0 0.0 
-5.679380751957e-04 3.088422221076e-03 0.0 
3.088422221076e-03 -8.197683724082e-04 0.0 
0.0 0.0 0.0 
8.489603103377e-04 8.251831329571e-04 0.0 
8.251831329571e-04 3.625031286534e-03 0.0 
0.0 0.0 0.0 
-7.976051087525e-04 2.441095971852e-03 0.0 
2.441095971852e-03 1.044410885859e-03 0.0 
0.0 0.0 0.0 
-2.024853717912e-04 -2.202238159320e-04 0.0 
-2.202238159320e-04 1.253356800171e-03 0.0 
0.0 0.0 0.0 
-1.361150016401e-04 -5.102945593654e-04 0.0 
-5.102945593654e-04 4.440761070977e-03 0.0 
0.0 0.0 0.0 
-6.845488093243e-05 8.764611475640e-04 0.0 
8.764611475640e-04 6.568294762272e-03 0.0 
0.0 0.0 0.0 
-4.443541769369e-04 4.674407977430e-04 0.0 
4.674407977430e-04 6.528959378776e-03 0.0 
0.0 0.0 0.0 
-6.377203468576e-04 4.637092509768e-04 0.0 
4.637092509768e-04 3.980983898823e-03 0.0 
0.0 0.0 0.0 
0.0 5.275471815311e-04 0.0 
5.275471815311e-04 8.905467510865e-03 0.0 
0.0 0.0 0.0 
-1.421208307204e-03 2.288455791615e-03 0.0 
2.288455791615e-03 2.170376360355e-04 0.0 
0.0 0.0 0.0 
-6.194882042382e-04 4.126212194513e-04 0.0 
4.126212194513e-04 4.218213237384e-03 0.0 
0.0 0.0 0.0 
1.019933280528e-03 -3.050014025804e-04 0.0 
-3.050014025804e-04 2.937760109103e-03 0.0 
0.0 0.0 0.0 
-3.046794030718e-04 -4.835668574883e-04 0.0 
-4.835668574883e-04 4.350794300682e-03 0.0 
0.0 0.0 0.0 
-5.928981049567e-04 5.483783789745e-04 0.0 
5.483783789745e-04 4.832570985887e-03 0.0 
0.0 0.0 0.0 
1.423688560201e-03 -8.213514262069e-04 0.0 
-8.213514262069e-04 6.424424432616e-04 0.0 
0.0 0.0 0.0 
7.336374010865e-04 -5.308927911506e-04 0.0 
-5.308927911506e-04 3.346367787759e-03 0.0 
0.0 0.0 0.0 
1.843768532750e-04 1.009781335719e-03 0.0 
1.009781335719e-03 5.021184971852e-03 0.0 
0.0 0.0 0.0 
7.685963996980e-04 7.591019704424e-04 0.0 
7.591019704424e-04 4.153765428048e-03 0.0 
0.0 0.0 0.0 
-1.756011781939e-04 8.295463825217e-04 0.0 
8.295463825217e-04 7.200331857040e-03 0.0 
0.0 0.0 0.0 
1.313247134795e-03 2.641037762912e-03 0.0 
2.641037762912e-03 -2.229757277500e-03 0.0 
0.0 0.0 0.0 
-1.684868757575e-04 -5.804012885788e-04 0.0 
-5.804012885788e-04 4.073402783626e-03 0.0 
0.0 0.0 0.0 
-2.938946093238e-04 -3.893533544999e-04 0.0 
-3.893533544999e-04 4.608102211469e-03 0.0 
0.0 0.0 0.0 
-3.496141033411e-04 -9.874413918326e-04 0.0 
-9.874413918326e-04 2.169523032155e-03 0.0 
0.0 0.0 0.0 
-5.244909481770e-04 3.210279888431e-04 0.0 
3.210279888431e-04 5.482798096616e-03 0.0 
0.0 0.0 0.0 
-4.902438076970e-04 4.555839511384e-04 0.0 
4.555839511384e-04 6.530847190127e-03 0.0 
0.0 0.0 0.0 
-3.582392044768e-04 -6.419581615295e-05 0.0 
-6.419581615295e-05 5.871832746819e-03 0.0 
0.0 0.0 0.0 
2.916298328346e-04 -3.825916347499e-05 0.0 
-3.825916347499e-05 6.388260638790e-04 0.0 
0.0 0.0 0.0 
5.291555369731e-04 -5.880043806094e-04 0.0 
-5.880043806094e-04 -4.766412480796e-03 0.0 
0.0 0.0 0.0 
-4.358211707696e-04 -8.147932992136e-04 0.0 
-8.147932992136e-04 1.636783173016e-03 0.0 
0.0 0.0 0.0 
-3.485965966298e-04 -3.904504417068e-04 0.0 
-3.904504417068e-04 4.608646613151e-03 0.0 
0.0 0.0 0.0 
1.628213807498e-03 -1.579174828596e-04 0.0 
-1.579174828596e-04 6.418361980318e-04 0.0 
0.0 0.0 0.0 
1.452737156382e-03 -9.715423764149e-04 0.0 
-9.715423764149e-04 1.245772572545e-04 0.0 
0.0 0.0 0.0 
1.971170542583e-03 -2.939924579126e-04 0.0 
-2.939924579126e-04 -8.784642877738e-04 0.0 
0.0 0.0 0.0 
-2.075142064213e-04 -4.231890937743e-04 0.0 
-4.231890937743e-04 4.717204222820e-03 0.0 
0.0 0.0 0.0 
-3.841641226966e-04 6.075903917570e-04 0.0 
6.075903917570e-04 6.698651201598e-03 0.0 
0.0 0.0 0.0 
-3.368450151071e-04 -3.020765478794e-04 0.0 
-3.020765478794e-04 4.846832632588e-03 0.0 
0.0 0.0 0.0 
1.661207317267e-03 2.155517992554e-04 0.0 
2.155517992554e-04 5.805901035030e-04 0.0 
0.0 0.0 0.0 
-1.215300734362e-04 9.001622143830e-04 0.0 
9.001622143830e-04 5.835890448784e-03 0.0 
0.0 0.0 0.0 
-4.364064046304e-04 1.721416305901e-04 0.0 
1.721416305901e-04 6.061534632031e-03 0.0 
0.0 0.0 0.0 
5.543297811552e-04 7.716489361543e-04 0.0 
7.716489361543e-04 5.096298511662e-03 0.0 
0.0 0.0 0.0 
-3.806294585041e-04 -3.038009512856e-04 0.0 
-3.038009512856e-04 4.847427035097e-03 0.0 
0.0 0.0 0.0 
-2.763664455019e-04 -4.343575200918e-04 0.0 
-4.343575200918e-04 4.719689950390e-03 0.0 
0.0 0.0 0.0 
-6.829889266876e-04 6.003852834287e-04 0.0 
6.003852834287e-04 3.530088679417e-03 0.0 
0.0 0.0 0.0 
1.460580019372e-03 -4.367915373150e-04 0.0 
-4.367915373150e-04 1.002947643664e-03 0.0 
0.0 0.0 0.0 
-3.671723152380e-04 -2.197849155536e-04 0.0 
-2.197849155536e-04 5.069044438863e-03 0.0 
0.0 0.0 0.0 
-3.017752065558e-04 3.691959656658e-05 0.0 
3.691959656658e-05 6.948784597558e-03 0.0 
0.0 0.0 0.0 
-3.250839970573e-04 3.501157352991e-05 0.0 
3.501157352991e-05 6.571779472503e-03 0.0 
0.0 0.0 0.0 
-6.546732778754e-04 5.312861998915e-04 0.0 
5.312861998915e-04 3.759020753366e-03 0.0 
0.0 0.0 0.0 
-2.640292200404e-04 -3.398384568456e-04 0.0 
-3.398384568456e-04 4.974654870719e-03 0.0 
0.0 0.0 0.0 
9.026641207273e-04 -1.400834360267e-03 0.0 
-1.400834360267e-03 7.150953769088e-04 0.0 
0.0 0.0 0.0 
-3.635123373190e-04 2.296637412339e-03 0.0 
2.296637412339e-03 8.935628613842e-04 0.0 
0.0 0.0 0.0 
3.862588621761e-04 6.450853262133e-04 0.0 
6.450853262133e-04 6.109476100575e-03 0.0 
0.0 0.0 0.0 
-6.753114836935e-04 -1.134082249281e-03 0.0 
-1.134082249281e-03 1.458317038662e-03 0.0 
0.0 0.0 0.0 
9.241047553734e-04 -1.200093339553e-03 0.0 
-1.200093339553e-03 1.275210857961e-03 0.0 
0.0 0.0 0.0 
8.704174816001e-04 8.301405572040e-04 0.0 
8.301405572040e-04 3.592590576603e-03 0.0 
0.0 0.0 0.0 
-5.630032014133e-04 3.936273819204e-04 0.0 
3.936273819204e-04 4.000611467724e-03 0.0 
0.0 0.0 0.0 
-4.019408543933e-04 -2.232556061157e-04 0.0 
-2.232556061157e-04 5.070445094272e-03 0.0 
0.0 0.0 0.0 
-3.396569720990e-04 -4.172089115571e-05 0.0 
-4.172089115571e-05 2.488311693501e-03 0.0 
0.0 0.0 0.0 
-5.498892446261e-04 2.837311302465e-04 0.0 
2.837311302465e-04 5.679036831480e-03 0.0 
0.0 0.0 0.0 
-3.199354636614e-04 -3.508650208013e-04 0.0 
-3.508650208013e-04 4.977007503021e-03 0.0 
0.0 0.0 0.0 
9.745155223093e-04 -6.074401227320e-04 0.0 
-6.074401227320e-04 2.420964128124e-03 0.0 
0.0 0.0 0.0 
-1.487522018914e-04 -6.190811376454e-04 0.0 
-6.190811376454e-04 4.148750572876e-03 0.0 
0.0 0.0 0.0 
3.846117384656e-04 2.435698030545e-03 0.0 
2.435698030545e-03 -2.484744132067e-03 0.0 
0.0 0.0 0.0 
-2.048707635085e-04 -3.736484478989e-06 0.0 
-3.736484478989e-06 8.105599437451e-03 0.0 
0.0 0.0 0.0 
1.115826273744e-03 -9.202513637391e-04 0.0 
-9.202513637391e-04 1.283950869528e-03 0.0 
0.0 0.0 0.0 
5.833550470467e-04 2.975913222066e-04 0.0 
2.975913222066e-04 5.382148335322e-03 0.0 
0.0 0.0 0.0 
4.248466143939e-04 9.252097477245e-04 0.0 
9.252097477245e-04 4.952661855772e-03 0.0 
0.0 0.0 0.0 
-3.063515378197e-04 -2.616138272398e-04 0.0 
-2.616138272398e-04 5.213771638406e-03 0.0 
0.0 0.0 0.0 
-3.510859837197e-04 -2.709644946863e-04 0.0 
-2.709644946863e-04 5.215710822885e-03 0.0 
0.0 0.0 0.0 
1.718365429769e-03 -1.602932231417e-04 0.0 
-1.602932231417e-04 2.529746628497e-04 0.0 
0.0 0.0 0.0 
-7.699208262607e-04 -1.095879918599e-03 0.0 
-1.095879918599e-03 9.797345158338e-04 0.0 
0.0 0.0 0.0 
5.686607881819e-04 2.719773341897e-03 0.0 
2.719773341897e-03 -2.542773120804e-03 0.0 
0.0 0.0 0.0 
-3.357031269999e-04 -1.877969613255e-04 0.0 
-1.877969613255e-04 5.439205567172e-03 0.0 
0.0 0.0 0.0 
5.492680607251e-04 1.000018606886e-04 0.0 
1.000018606886e-04 5.366403740920e-03 0.0 
0.0 0.0 0.0 
3.548305011170e-04 -1.467255512689e-03 0.0 
-1.467255512689e-03 1.432988502234e-03 0.0 
0.0 0.0 0.0 
-5.491365502108e-05 9.436764442718e-04 0.0 
9.436764442718e-04 5.821645739608e-03 0.0 
0.0 0.0 0.0 
-5.730678039388e-04 9.224513877863e-04 0.0 
9.224513877863e-04 3.505117842034e-03 0.0 
0.0 0.0 0.0 
-1.803811816855e-04 8.528753106726e-04 0.0 
8.528753106726e-04 6.190790645383e-03 0.0 
0.0 0.0 0.0 
1.843632924288e-04 -1.486506206644e-04 0.0 
-1.486506206644e-04 6.595019414307e-03 0.0 
0.0 0.0 0.0 
-3.644832526740e-03 -1.194743240582e-04 0.0 
-1.194743240582e-04 -3.272228048938e-03 0.0 
0.0 0.0 0.0 
0.0 4.997954087439e-05 0.0 
4.997954087439e-05 9.115309361285e-03 0.0 
0.0 0.0 0.0 
0.0 -8.016230799138e-05 0.0 
-8.016230799138e-05 7.570611558919e-03 0.0 
0.0 0.0 0.0 
-3.405859156268e-04 -2.867258400691e-05 0.0 
-2.867258400691e-05 5.902134034216e-03 0.0 
0.0 0.0 0.0 
6.711585615329e-04 -1.162513313774e-03 0.0 
-1.162513313774e-03 1.771993342991e-03 0.0 
0.0 0.0 0.0 
3.135061706030e-04 9.784867703881e-04 0.0 
9.784867703881e-04 4.979466751095e-03 0.0 
0.0 0.0 0.0 
1.736655026128e-03 2.004891432712e-04 0.0 
2.004891432712e-04 3.692987177950e-04 0.0 
0.0 0.0 0.0 
-1.107463762484e-05 -1.621901475516e-04 0.0 
-1.621901475516e-04 1.031540946467e-03 0.0 
0.0 0.0 0.0 
-1.640675891592e-03 2.384009049071e-03 0.0 
2.384009049071e-03 9.786447524818e-04 0.0 
0.0 0.0 0.0 
-1.781440480031e-04 1.441037248233e-04 0.0 
1.441037248233e-04 8.409439242618e-03 0.0 
0.0 0.0 0.0 
-4.623648864998e-04 5.266566691306e-04 0.0 
5.266566691306e-04 6.625711942996e-03 0.0 
0.0 0.0 0.0 
-5.754064115446e-04 2.490812409047e-04 0.0 
2.490812409047e-04 5.383831349162e-03 0.0 
0.0 0.0 0.0 
6.530161255758e-05 1.001612340876e-03 0.0 
1.001612340876e-03 7.567167263524e-03 0.0 
0.0 0.0 0.0 
-2.346568623806e-04 -2.978838066032e-05 0.0 
-2.978838066032e-05 2.057626917681e-03 0.0 
0.0 0.0 0.0 
7.681851421926e-05 9.509847391631e-04 0.0 
9.509847391631e-04 7.435984225007e-03 0.0 
0.0 0.0 0.0 
-4.192770974643e-04 5.397029679767e-04 0.0 
5.397029679767e-04 6.623171440024e-03 0.0 
0.0 0.0 0.0 
2.520581160330e-04 -1.172235967261e-03 0.0 
-1.172235967261e-03 2.301096856645e-03 0.0 
0.0 0.0 0.0 
3.448592496949e-04 1.054167554999e-03 0.0 
1.054167554999e-03 4.527569083634e-03 0.0 
0.0 0.0 0.0 
6.746365403936e-04 -1.174579118817e-03 0.0 
-1.174579118817e-03 1.808473993002e-03 0.0 
0.0 0.0 0.0 
-4.819019896222e-04 2.008855689222e-03 0.0 
2.008855689222e-03 1.526106090969e-03 0.0 
0.0 0.0 0.0 
3.985448294204e-04 -1.269424328782e-03 0.0 
-1.269424328782e-03 1.920698796977e-03 0.0 
0.0 0.0 0.0 
-3.398880474832e-04 6.757238770935e-04 0.0 
6.757238770935e-04 6.758775666850e-03 0.0 
0.0 0.0 0.0 
-2.324155866200e-04 -1.524968097296e-04 0.0 
-1.524968097296e-04 6.567817632408e-03 0.0 
0.0 0.0 0.0 
1.162939859577e-03 -9.533078856618e-04 0.0 
-9.533078856618e-04 1.202184748490e-03 0.0 
0.0 0.0 0.0 
-1.096894970620e-04 9.045806927270e-04 0.0 
9.045806927270e-04 6.191423740251e-03 0.0 
0.0 0.0 0.0 
-1.005163382433e-03 -2.392676317573e-04 0.0 
-2.392676317573e-04 -4.639727956477e-03 0.0 
0.0 0.0 0.0 
1.539490343306e-03 -4.584312320308e-04 0.0 
-4.584312320308e-04 7.267641240309e-04 0.0 
0.0 0.0 0.0 
-3.929775811933e-04 5.451797737207e-04 0.0 
5.451797737207e-04 7.247987942132e-03 0.0 
0.0 0.0 0.0 
-1.638305576845e-05 -1.124077852415e-03 0.0 
-1.124077852415e-03 2.424135844451e-03 0.0 
0.0 0.0 0.0 
7.375662504749e-05 -1.466691126975e-03 0.0 
-1.466691126975e-03 1.598294252848e-03 0.0 
0.0 0.0 0.0 
4.496940432659e-04 9.966633295709e-04 0.0 
9.966633295709e-04 4.536290440500e-03 0.0 
0.0 0.0 0.0 
8.496368976421e-04 -2.144299040076e-03 0.0 
-2.144299040076e-03 -1.129771381330e-03 0.0 
0.0 0.0 0.0 
-7.545582045891e-04 7.589274363414e-04 0.0 
7.589274363414e-04 3.119112647178e-03 0.0 
0.0 0.0 0.0 
-6.963942942322e-04 6.901279868916e-04 0.0 
6.901279868916e-04 3.309500455972e-03 0.0 
0.0 0.0 0.0 
-1.324814018729e-04 -1.209372053695e-03 0.0 
-1.209372053695e-03 2.133259188414e-03 0.0 
0.0 0.0 0.0 
8.955876163119e-04 -4.825896169189e-04 0.0 
-4.825896169189e-04 2.972160320411e-03 0.0 
0.0 0.0 0.0 
8.031435551308e-04 1.068482110988e-03 0.0 
1.068482110988e-03 3.080240528853e-03 0.0 
0.0 0.0 0.0 
-8.924746005678e-05 8.829279782314e-04 0.0 
8.829279782314e-04 6.193828364818e-03 0.0 
0.0 0.0 0.0 
-1.362492956122e-04 7.944494811020e-04 0.0 
7.944494811020e-04 7.819862116916e-03 0.0 
0.0 0.0 0.0 
-5.810625676940e-04 4.928719540017e-04 0.0 
4.928719540017e-04 3.551429186023e-03 0.0 
0.0 0.0 0.0 
-2.713328217598e-04 -1.649568197950e-05 0.0 
-1.649568197950e-05 7.346485228162e-03 0.0 
0.0 0.0 0.0 
-2.114751164695e-05 9.199037039584e-04 0.0 
9.199037039584e-04 7.311329766941e-03 0.0 
0.0 0.0 0.0 
1.831090748265e-03 2.313877962416e-04 0.0 
2.313877962416e-04 -1.566946674652e-04 0.0 
0.0 0.0 0.0 
-5.453830993257e-04 1.988807648325e-03 0.0 
1.988807648325e-03 1.027918673572e-03 0.0 
0.0 0.0 0.0 
-6.229899564625e-04 9.293514603741e-04 0.0 
9.293514603741e-04 3.753087038757e-03 0.0 
0.0 0.0 0.0 
7.933613776914e-04 -6.602003177568e-04 0.0 
-6.602003177568e-04 2.824837800831e-03 0.0 
0.0 0.0 0.0 
-2.195665780086e-04 8.299380393153e-04 0.0 
8.299380393153e-04 6.523217767939e-03 0.0 
0.0 0.0 0.0 
9.496914376546e-04 -4.977127898834e-04 0.0 
-4.977127898834e-04 2.799283765064e-03 0.0 
0.0 0.0 0.0 
1.242758339825e-03 2.580990925318e-03 0.0 
2.580990925318e-03 -2.145469134961e-03 0.0 
0.0 0.0 0.0 
8.111899789023e-04 -3.742531123021e-04 0.0 
-3.742531123021e-04 3.511514206979e-03 0.0 
0.0 0.0 0.0 
-5.935073881361e-04 1.779446332151e-03 0.0 
1.779446332151e-03 2.037753886968e-03 0.0 
0.0 0.0 0.0 
9.414088485939e-04 9.259029573133e-04 0.0 
9.259029573133e-04 3.099895414606e-03 0.0 
0.0 0.0 0.0 
8.669880922303e-04 -3.815460076313e-04 0.0 
-3.815460076313e-04 3.322554105891e-03 0.0 
0.0 0.0 0.0 
4.652094410516e-04 9.967148265773e-04 0.0 
9.967148265773e-04 4.502465166499e-03 0.0 
0.0 0.0 0.0 
-3.181506289105e-04 2.849212237732e-05 0.0 
2.849212237732e-05 6.846718652831e-03 0.0 
0.0 0.0 0.0 
-2.327688431782e-04 -1.164691095762e-03 0.0 
-1.164691095762e-03 2.127622458144e-03 0.0 
0.0 0.0 0.0 
-1.275250224093e-04 2.563669552506e-03 0.0 
2.563669552506e-03 7.645572411707e-05 0.0 
0.0 0.0 0.0 
7.794434369588e-04 -2.803682892323e-04 0.0 
-2.803682892323e-04 3.848586040364e-03 0.0 
0.0 0.0 0.0 
-5.896595028299e-04 1.498512761457e-03 0.0 
1.498512761457e-03 2.447184347122e-03 0.0 
0.0 0.0 0.0 
7.358233438401e-04 7.756203796291e-04 0.0 
7.756203796291e-04 -4.909403292976e-03 0.0 
0.0 0.0 0.0 
-1.269100466532e-04 5.053278770359e-05 0.0 
5.053278770359e-05 8.471061048112e-03 0.0 
0.0 0.0 0.0 
-1.843483130656e-04 4.866021023677e-05 0.0 
4.866021023677e-05 8.107665133816e-03 0.0 
0.0 0.0 0.0 
-3.379014889943e-04 -2.549624599778e-04 0.0 
-2.549624599778e-04 5.336769365258e-04 0.0 
0.0 0.0 0.0 
7.219383286412e-04 -2.781636659137e-04 0.0 
-2.781636659137e-04 4.048806490753e-03 0.0 
0.0 0.0 0.0 
-4.121198798305e-04 -9.365890861629e-04 0.0 
-9.365890861629e-04 1.896641782140e-03 0.0 
0.0 0.0 0.0 
-4.579812775769e-04 -8.752756791835e-04 0.0 
-8.752756791835e-04 2.155678026569e-03 0.0 
0.0 0.0 0.0 
-7.639836358309e-05 9.060114914759e-04 0.0 
9.060114914759e-04 6.566413983240e-03 0.0 
0.0 0.0 0.0 
5.648383503565e-04 9.153454027592e-04 0.0 
9.153454027592e-04 4.513051830742e-03 0.0 
0.0 0.0 0.0 
-2.638277594702e-05 9.301863925796e-04 0.0 
9.301863925796e-04 6.196184116761e-03 0.0 
0.0 0.0 0.0 
1.357718136998e-03 -7.848222934026e-04 0.0 
-7.848222934026e-04 7.883471909533e-04 0.0 
0.0 0.0 0.0 
-3.692482054435e-04 2.147528744187e-05 0.0 
2.147528744187e-05 5.445326862440e-03 0.0 
0.0 0.0 0.0 
6.743327704539e-05 -2.022054968925e-04 0.0 
-2.022054968925e-04 6.679503215996e-03 0.0 
0.0 0.0 0.0 
-5.288332413708e-04 -7.977079545073e-04 0.0 
-7.977079545073e-04 1.854100328363e-03 0.0 
0.0 0.0 0.0 
6.370627117167e-04 2.719541634423e-04 0.0 
2.719541634423e-04 5.131052677436e-03 0.0 
0.0 0.0 0.0 
7.657512838453e-04 9.771881978739e-04 0.0 
9.771881978739e-04 3.597697830329e-03 0.0 
0.0 0.0 0.0 
-1.274577103063e-04 -8.283674544734e-05 0.0 
-8.283674544734e-05 1.519425364026e-03 0.0 
0.0 0.0 0.0 
-2.855740077855e-04 7.717513048988e-04 0.0 
7.717513048988e-04 6.495709050933e-03 0.0 
0.0 0.0 0.0 
1.561957501146e-03 -1.045060593309e-04 0.0 
-1.045060593309e-04 9.448664534297e-04 0.0 
0.0 0.0 0.0 
-6.959420613883e-04 -1.159559685238e-03 0.0 
-1.159559685238e-03 7.702294554259e-04 0.0 
0.0 0.0 0.0 
1.678433827645e-03 -5.838049204976e-04 0.0 
-5.838049204976e-04 6.695572850735e-05 0.0 
0.0 0.0 0.0 
-3.843957863162e-04 5.196893929419e-06 0.0 
5.196893929419e-06 5.718889201160e-03 0.0 
0.0 0.0 0.0 
-3.730685581835e-04 6.658138821056e-04 0.0 
6.658138821056e-04 6.761547489513e-03 0.0 
0.0 0.0 0.0 
-5.056096634044e-04 -1.134556485366e-03 0.0 
-1.134556485366e-03 1.167794002451e-03 0.0 
0.0 0.0 0.0 
-4.718746637450e-04 -1.030053372006e-04 0.0 
-1.030053372006e-04 4.703063368002e-03 0.0 
0.0 0.0 0.0 
-1.496644295501e-04 8.750611986633e-04 0.0 
8.750611986633e-04 6.547942190197e-03 0.0 
0.0 0.0 0.0 
4.860831431623e-04 7.341991135006e-04 0.0 
7.341991135006e-04 5.517443538925e-03 0.0 
0.0 0.0 0.0 
1.213199087882e-04 -1.280794921661e-03 0.0 
-1.280794921661e-03 2.036520481391e-03 0.0 
0.0 0.0 0.0 
-3.652291085128e-04 -6.912593843983e-05 0.0 
-6.912593843983e-05 2.487708342942e-03 0.0 
0.0 0.0 0.0 
7.597148391512e-04 9.648600801302e-04 0.0 
9.648600801302e-04 3.574513229409e-03 0.0 
0.0 0.0 0.0 
-3.097645170400e-04 -3.036976644528e-05 0.0 
-3.036976644528e-05 6.729990621403e-03 0.0 
0.0 0.0 0.0 
-5.496353338097e-04 -1.671533028903e-03 0.0 
-1.671533028903e-03 3.595261058200e-04 0.0 
0.0 0.0 0.0 
-3.743071314677e-06 9.900985254534e-04 0.0 
9.900985254534e-04 7.549080581052e-03 0.0 
0.0 0.0 0.0 
-9.072150115608e-05 7.341341122252e-04 0.0 
7.341341122252e-04 8.286218503197e-03 0.0 
0.0 0.0 0.0 
-3.319878005859e-04 -1.991828050185e-05 0.0 
-1.991828050185e-05 6.154006717824e-03 0.0 
0.0 0.0 0.0 
-1.734626686991e-04 3.682595731797e-04 0.0 
3.682595731797e-04 8.585039755612e-03 0.0 
0.0 0.0 0.0 
-6.692842025613e-05 8.385371984046e-04 0.0 
8.385371984046e-04 8.118455273547e-03 0.0 
0.0 0.0 0.0 
1.325048633816e-03 -6.603190064723e-04 0.0 
-6.603190064723e-04 1.235256227823e-03 0.0 
0.0 0.0 0.0 
9.069391455561e-04 -1.174632293039e-03 0.0 
-1.174632293039e-03 1.244792620681e-03 0.0 
0.0 0.0 0.0 
3.298223181663e-04 4.071208907700e-04 0.0 
4.071208907700e-04 6.450103002618e-03 0.0 
0.0 0.0 0.0 
-8.018167617834e-04 3.194459243610e-04 0.0 
3.194459243610e-04 -4.528783672437e-03 0.0 
0.0 0.0 0.0 
-2.999507385288e-04 -1.386714893453e-05 0.0 
-1.386714893453e-05 2.261337633946e-03 0.0 
0.0 0.0 0.0 
-4.602685978445e-04 -3.935920059525e-05 0.0 
-3.935920059525e-05 4.808634281954e-03 0.0 
0.0 0.0 0.0 
-5.075659399800e-05 -1.282870299251e-03 0.0 
-1.282870299251e-03 2.038280761426e-03 0.0 
0.0 0.0 0.0 
1.207484092741e-03 -1.156580795785e-03 0.0 
-1.156580795785e-03 6.820805893057e-04 0.0 
0.0 0.0 0.0 
-8.849581555281e-04 9.871487434831e-04 0.0 
9.871487434831e-04 2.705258207200e-03 0.0 
0.0 0.0 0.0 
-7.940739931735e-04 9.410027464286e-04 0.0 
9.410027464286e-04 2.845626845156e-03 0.0 
0.0 0.0 0.0 
-4.434208893912e-04 1.002879627836e-04 0.0 
1.002879627836e-04 6.139200390771e-03 0.0 
0.0 0.0 0.0 
1.593807372365e-03 -5.547888922515e-04 0.0 
-5.547888922515e-04 3.195090130648e-04 0.0 
0.0 0.0 0.0 
-4.182732030681e-04 -2.168211708924e-04 0.0 
-2.168211708924e-04 2.642680216561e-03 0.0 
0.0 0.0 0.0 
3.936912266567e-04 8.861129001137e-04 0.0 
8.861129001137e-04 5.415762660033e-03 0.0 
0.0 0.0 0.0 
1.372322588700e-05 -2.819118187805e-04 0.0 
-2.819118187805e-04 7.268347335058e-03 0.0 
0.0 0.0 0.0 
3.266932017110e-05 -2.806713566463e-04 0.0 
-2.806713566463e-04 7.170191296285e-03 0.0 
0.0 0.0 0.0 
9.133807441877e-04 -1.004764693093e-03 0.0 
-1.004764693093e-03 1.740891649179e-03 0.0 
0.0 0.0 0.0 
-4.591244330600e-04 1.500569648455e-04 0.0 
1.500569648455e-04 5.780965756192e-03 0.0 
0.0 0.0 0.0 
-9.567416744146e-04 -3.316897670193e-05 0.0 
-3.316897670193e-05 -4.060582781104e-03 0.0 
0.0 0.0 0.0 
-1.063216511889e-03 1.340114766383e-03 0.0 
1.340114766383e-03 2.226487712093e-03 0.0 
0.0 0.0 0.0 
9.376850416096e-04 -2.512515314659e-03 0.0 
-2.512515314659e-03 -1.954352811241e-03 0.0 
0.0 0.0 0.0 
-1.002218661279e-03 1.182626031406e-03 0.0 
1.182626031406e-03 2.482439173797e-03 0.0 
0.0 0.0 0.0 
7.124689926634e-04 8.838061728862e-04 0.0 
8.838061728862e-04 4.056666705188e-03 0.0 
0.0 0.0 0.0 
6.252870014867e-04 -1.369633811301e-03 0.0 
-1.369633811301e-03 1.419721198923e-03 0.0 
0.0 0.0 0.0 
1.171278259375e-03 -1.119793696722e-03 0.0 
-1.119793696722e-03 6.915418737437e-04 0.0 
0.0 0.0 0.0 
8.736734917578e-04 -2.579092823501e-03 0.0 
-2.579092823501e-03 -3.262194162914e-03 0.0 
0.0 0.0 0.0 
-1.635596172163e-04 4.997864821987e-05 0.0 
4.997864821987e-05 8.174544474471e-03 0.0 
0.0 0.0 0.0 
6.471150814038e-04 -1.365847115088e-03 0.0 
-1.365847115088e-03 1.300619839627e-03 0.0 
0.0 0.0 0.0 
-1.444947274123e-04 1.893555259905e-04 0.0 
1.893555259905e-04 8.402211938484e-03 0.0 
0.0 0.0 0.0 
-2.206433894332e-04 4.444157319658e-05 0.0 
4.444157319658e-05 7.860594237590e-03 0.0 
0.0 0.0 0.0 
-6.315145960178e-05 8.085410410753e-05 0.0 
8.085410410753e-05 9.100907522543e-03 0.0 
0.0 0.0 0.0 
-7.505039893052e-05 -1.000379357593e-04 0.0 
-1.000379357593e-04 7.568143865639e-03 0.0 
0.0 0.0 0.0 
-3.386349663241e-04 2.884207561782e-05 0.0 
2.884207561782e-05 6.165304749448e-03 0.0 
0.0 0.0 0.0 
4.290632016750e-04 -1.281792010163e-03 0.0 
-1.281792010163e-03 1.828437869468e-03 0.0 
0.0 0.0 0.0 
-6.110932129820e-04 6.230438864877e-04 0.0 
6.230438864877e-04 3.105376673254e-03 0.0 
0.0 0.0 0.0 
4.602768005229e-04 -1.104539147386e-03 0.0 
-1.104539147386e-03 2.288292133534e-03 0.0 
0.0 0.0 0.0 
0.0 -2.543661865701e-04 0.0 
-2.543661865701e-04 7.364005029270e-03 0.0 
0.0 0.0 0.0 
-1.224364750561e-03 1.721344053324e-03 0.0 
1.721344053324e-03 1.711605833968e-03 0.0 
0.0 0.0 0.0 
-1.111805658474e-03 1.480476267871e-03 0.0 
1.480476267871e-03 1.952934137213e-03 0.0 
0.0 0.0 0.0 
5.618448713214e-04 3.870158705054e-04 0.0 
3.870158705054e-04 5.476312215974e-03 0.0 
0.0 0.0 0.0 
-4.215176885066e-04 8.991478460057e-05 0.0 
8.991478460057e-05 5.809643882721e-03 0.0 
0.0 0.0 0.0 
-1.352733093994e-04 1.356522705852e-04 0.0 
1.356522705852e-04 8.454090935883e-03 0.0 
0.0 0.0 0.0 
-1.459736885296e-04 8.486538999165e-04 0.0 
8.486538999165e-04 6.549598736238e-03 0.0 
0.0 0.0 0.0 
3.594361666246e-04 7.932624065032e-04 0.0 
7.932624065032e-04 5.976813747719e-03 0.0 
0.0 0.0 0.0 
-2.683445278269e-04 7.557132733573e-04 0.0 
7.557132733573e-04 7.158958640466e-03 0.0 
0.0 0.0 0.0 
-3.388657458914e-04 6.383152309447e-05 0.0 
6.383152309447e-05 6.240238972135e-03 0.0 
0.0 0.0 0.0 
-1.690475418556e-04 -1.365083012770e-03 0.0 
-1.365083012770e-03 1.759528548033e-03 0.0 
0.0 0.0 0.0 
-1.936271109071e-05 -1.398390520062e-03 0.0 
-1.398390520062e-03 1.763251537217e-03 0.0 
0.0 0.0 0.0 
-2.789607603531e-04 5.497351265192e-05 0.0 
5.497351265192e-05 7.135719978030e-03 0.0 
0.0 0.0 0.0 
3.653639162551e-04 7.698683900832e-04 0.0 
7.698683900832e-04 5.897338803202e-03 0.0 
0.0 0.0 0.0 
-5.095466449614e-04 1.868347006754e-04 0.0 
1.868347006754e-04 5.397640057370e-03 0.0 
0.0 0.0 0.0 
-3.453729796307e-04 1.133030197561e-05 0.0 
1.133030197561e-05 5.801979789657e-03 0.0 
0.0 0.0 0.0 
-3.436171175767e-04 1.132150006345e-05 0.0 
1.132150006345e-05 6.141791225869e-03 0.0 
0.0 0.0 0.0 
-3.670226127911e-04 7.206016681449e-06 0.0 
7.206016681449e-06 6.261302271175e-03 0.0 
0.0 0.0 0.0 
1.944981752204e-03 -1.360901254299e-03 0.0 
-1.360901254299e-03 -3.396356002454e-03 0.0 
0.0 0.0 0.0 
-2.826946228990e-04 -1.258038422574e-03 0.0 
-1.258038422574e-03 1.886930364335e-03 0.0 
0.0 0.0 0.0 
-1.247523109396e-04 2.488357223610e-04 0.0 
2.488357223610e-04 8.764970688940e-03 0.0 
0.0 0.0 0.0 
-3.454758725550e-04 2.890085427969e-05 0.0 
2.890085427969e-05 6.662866879946e-03 0.0 
0.0 0.0 0.0 
1.805537777726e-04 6.601883216525e-04 0.0 
6.601883216525e-04 6.730224577145e-03 0.0 
0.0 0.0 0.0 
-2.012785766228e-04 7.997466320802e-04 0.0 
7.997466320802e-04 7.821160367017e-03 0.0 
0.0 0.0 0.0 
-2.983789758427e-04 7.638756357666e-04 0.0 
7.638756357666e-04 6.497283670282e-03 0.0 
0.0 0.0 0.0 
-2.247944194247e-04 3.909497457649e-04 0.0 
3.909497457649e-04 8.326130005632e-03 0.0 
0.0 0.0 0.0 
-4.568492372173e-04 -3.231666213889e-04 0.0 
-3.231666213889e-04 3.596211753459e-03 0.0 
0.0 0.0 0.0 
-4.673181628688e-04 -3.385459366081e-04 0.0 
-3.385459366081e-04 3.281984032899e-03 0.0 
0.0 0.0 0.0 
1.408729709669e-04 -1.861457958326e-04 0.0 
-1.861457958326e-04 6.303824936762e-03 0.0 
0.0 0.0 0.0 
5.504636387006e-04 -1.651475062274e-03 0.0 
-1.651475062274e-03 -3.764784944428e-03 0.0 
0.0 0.0 0.0 
-2.883548807502e-04 -6.636234136849e-05 0.0 
-6.636234136849e-05 2.377887667575e-03 0.0 
0.0 0.0 0.0 
0.0 9.261853301932e-04 0.0 
9.261853301932e-04 7.497943384133e-03 0.0 
0.0 0.0 0.0 
6.105950937352e-05 -9.240179051508e-06 0.0 
-9.240179051508e-06 1.060051349884e-03 0.0 
0.0 0.0 0.0 
-3.421098393137e-04 1.542807383767e-05 0.0 
1.542807383767e-05 5.805835926933e-03 0.0 
0.0 0.0 0.0 
4.500456197578e-04 2.181254308946e-04 0.0 
2.181254308946e-04 5.970860129686e-03 0.0 
0.0 0.0 0.0 
-1.794306730623e-04 -2.912524757954e-04 0.0 
-2.912524757954e-04 6.982264912860e-04 0.0 
0.0 0.0 0.0 
4.621957273714e-04 -4.135787032562e-05 0.0 
-4.135787032562e-05 1.862977878231e-04 0.0 
0.0 0.0 0.0 
-7.722040421920e-05 3.429312040908e-04 0.0 
3.429312040908e-04 9.020788447895e-03 0.0 
0.0 0.0 0.0 
-4.011674666754e-04 4.855954912391e-05 0.0 
4.855954912391e-05 5.446088258322e-03 0.0 
0.0 0.0 0.0 
-1.258917897577e-04 3.412156586767e-04 0.0 
3.412156586767e-04 8.658219203741e-03 0.0 
0.0 0.0 0.0 
3.375342930543e-04 3.551560293105e-04 0.0 
3.551560293105e-04 5.976910720076e-03 0.0 
0.0 0.0 0.0 
-3.980803016583e-04 1.914358479859e-05 0.0 
1.914358479859e-05 5.443744204806e-03 0.0 
0.0 0.0 0.0 
-8.060024077510e-04 5.399160959124e-04 0.0 
5.399160959124e-04 -4.011891596342e-03 0.0 
0.0 0.0 0.0 
-6.655849748116e-05 4.560532957934e-05 0.0 
4.560532957934e-05 8.794858991743e-03 0.0 
0.0 0.0 0.0 
-1.047529974769e-04 -1.641472112323e-04 0.0 
-1.641472112323e-04 1.250459927806e-03 0.0 
0.0 0.0 0.0 
-1.381128107761e-04 2.790870792076e-04 0.0 
2.790870792076e-04 8.470954510061e-03 0.0 
0.0 0.0 0.0 
0.0 -2.258702793561e-04 0.0 
-2.258702793561e-04 7.439057204555e-03 0.0 
0.0 0.0 0.0 
-2.062835367290e-04 6.870153189557e-04 0.0 
6.870153189557e-04 8.011752345912e-03 0.0 
0.0 0.0 0.0 
2.137172829135e-03 -1.257585228960e-03 0.0 
-1.257585228960e-03 -3.061560679074e-03 0.0 
0.0 0.0 0.0 
-4.789907370196e-04 2.275873007026e-04 0.0 
2.275873007026e-04 6.094276620766e-03 0.0 
0.0 0.0 0.0 
-4.839819890184e-04 -2.120928678624e-04 0.0 
-2.120928678624e-04 3.663082167057e-03 0.0 
0.0 0.0 0.0 
4.434446978323e-04 7.961204534568e-04 0.0 
7.961204534568e-04 5.422425026790e-03 0.0 
0.0 0.0 0.0 
1.346343975359e-04 7.025419126048e-04 0.0 
7.025419126048e-04 7.125228532842e-03 0.0 
0.0 0.0 0.0 
-2.542814642875e-04 5.559665598851e-05 0.0 
5.559665598851e-05 7.561519675716e-03 0.0 
0.0 0.0 0.0 
1.515547842819e-04 6.172167432098e-04 0.0 
6.172167432098e-04 7.018093241247e-03 0.0 
0.0 0.0 0.0 
1.456396330030e-03 -1.227509111581e-03 0.0 
-1.227509111581e-03 -4.205291985910e-03 0.0 
0.0 0.0 0.0 
-2.103999665504e-05 -2.836488249838e-04 0.0 
-2.836488249838e-04 7.038738740945e-03 0.0 
0.0 0.0 0.0 
1.558581441822e-03 -1.901820554425e-03 0.0 
-1.901820554425e-03 -1.709570266418e-03 0.0 
0.0 0.0 0.0 
-4.268298743115e-06 -5.019661623579e-05 0.0 
-5.019661623579e-05 1.087633840520e-03 0.0 
0.0 0.0 0.0 
2.767754438424e-04 6.902671112014e-05 0.0 
6.902671112014e-05 6.449912822480e-03 0.0 
0.0 0.0 0.0 
-1.704954502092e-04 5.552318670163e-04 0.0 
5.552318670163e-04 8.573654993717e-03 0.0 
0.0 0.0 0.0 
-1.064496791640e-04 3.415187396536e-04 0.0 
3.415187396536e-04 8.770441261095e-03 0.0 
0.0 0.0 0.0 
-3.617626743271e-04 6.345266796462e-05 0.0 
6.345266796462e-05 5.780811591127e-03 0.0 
0.0 0.0 0.0 
-4.913819594623e-04 3.464971106288e-04 0.0 
3.464971106288e-04 6.065582379186e-03 0.0 
0.0 0.0 0.0 
-5.674002253842e-04 2.286646731919e-03 0.0 
2.286646731919e-03 1.539582514907e-03 0.0 
0.0 0.0 0.0 
-1.290885876382e-04 8.721935293854e-04 0.0 
8.721935293854e-04 8.100598610811e-03 0.0 
0.0 0.0 0.0 
-4.557665492979e-04 -1.594695249387e-04 0.0 
-1.594695249387e-04 3.121376052672e-03 0.0 
0.0 0.0 0.0 
5.503666628492e-04 2.648482141141e-03 0.0 
2.648482141141e-03 -1.120414128380e-03 0.0 
0.0 0.0 0.0 
4.444946242013e-04 8.205805795043e-04 0.0 
8.205805795043e-04 5.506219291117e-03 0.0 
0.0 0.0 0.0 
-3.593637733453e-04 1.012374557941e-05 0.0 
1.012374557941e-05 5.427935259112e-03 0.0 
0.0 0.0 0.0 
-1.584575619684e-04 5.572380150104e-04 0.0 
5.572380150104e-04 8.311718535625e-03 0.0 
0.0 0.0 0.0 
-5.018078569041e-05 -2.382783795261e-05 0.0 
-2.382783795261e-05 9.083239273711e-03 0.0 
0.0 0.0 0.0 
0.0 2.509039284515e-05 0.0 
2.509039284515e-05 9.130894949616e-03 0.0 
0.0 0.0 0.0 
7.312998799855e-04 3.402388731184e-05 0.0 
3.402388731184e-05 -1.827315624787e-04 0.0 
0.0 0.0 0.0 
5.778759975199e-04 -3.164757399715e-05 0.0 
-3.164757399715e-05 -1.606506026309e-04 0.0 
0.0 0.0 0.0 
-3.403749604102e-04 -2.501936974322e-05 0.0 
-2.501936974322e-05 5.481071153316e-03 0.0 
0.0 0.0 0.0 
-3.481304115210e-04 4.609730450427e-06 0.0 
4.609730450427e-06 5.429568404039e-03 0.0 
0.0 0.0 0.0 
0.0 -3.704733199788e-05 0.0 
-3.704733199788e-05 7.591501494570e-03 0.0 
0.0 0.0 0.0 
-7.409466399555e-05 1.951842141142e-05 0.0 
1.951842141142e-05 7.552464651747e-03 0.0 
0.0 0.0 0.0 
5.107479004138e-04 1.939942361052e-05 0.0 
1.939942361052e-05 1.169996470007e-04 0.0 
0.0 0.0 0.0 
-7.775503763523e-04 -3.979842730474e-04 0.0 
-3.979842730474e-04 -4.768671173148e-03 0.0 
0.0 0.0 0.0 
-1.109821854340e-04 -1.731258180375e-04 0.0 
-1.731258180375e-04 6.865939555893e-03 0.0 
0.0 0.0 0.0 
1.669655831533e-04 9.498021411937e-04 0.0 
9.498021411937e-04 6.674607540621e-03 0.0 
0.0 0.0 0.0 
-7.449505242740e-05 -1.678663883868e-04 0.0 
-1.678663883868e-04 1.443694435545e-03 0.0 
0.0 0.0 0.0 
6.857234545299e-06 -2.779158635840e-04 0.0 
-2.779158635840e-04 6.665633718072e-03 0.0 
0.0 0.0 0.0 
-4.352045485538e-04 -4.307180877925e-05 0.0 
-4.307180877925e-05 5.109772744543e-03 0.0 
0.0 0.0 0.0 
-4.943138266644e-04 -6.417207903474e-05 0.0 
-6.417207903474e-05 4.444098948475e-03 0.0 
0.0 0.0 0.0 
-3.289317717113e-04 6.358957170396e-05 0.0 
6.358957170396e-05 6.868663252058e-03 0.0 
0.0 0.0 0.0 
-5.258195270108e-05 -2.252081876960e-03 0.0 
-2.252081876960e-03 -1.908286502023e-04 0.0 
0.0 0.0 0.0 
5.116573997084e-04 8.459777545045e-04 0.0 
8.459777545045e-04 4.961633694175e-03 0.0 
0.0 0.0 0.0 
1.832212089758e-05 -1.616999332985e-04 0.0 
-1.616999332985e-04 1.099616644300e-03 0.0 
0.0 0.0 0.0 
-4.553230066444e-04 -2.784508370830e-04 0.0 
-2.784508370830e-04 3.989879106780e-03 0.0 
0.0 0.0 0.0 
-1.036446912623e-04 8.424016617637e-04 0.0 
8.424016617637e-04 7.808611157323e-03 0.0 
0.0 0.0 0.0 
-1.633952728185e-04 -2.797233923216e-05 0.0 
-2.797233923216e-05 8.322229387917e-03 0.0 
0.0 0.0 0.0 
-4.754392925858e-04 -6.625447406609e-05 0.0 
-6.625447406609e-05 4.443857495191e-03 0.0 
0.0 0.0 0.0 
-3.372540919278e-04 -6.713179346360e-06 0.0 
-6.713179346360e-06 6.445351799982e-03 0.0 
0.0 0.0 0.0 
2.695702194799e-05 9.755246324328e-04 0.0 
9.755246324328e-04 7.125921858947e-03 0.0 
0.0 0.0 0.0 
-2.113059759172e-04 8.009516920868e-04 0.0 
8.009516920868e-04 7.204692120273e-03 0.0 
0.0 0.0 0.0 
-2.547932927538e-04 7.800977773419e-04 0.0 
7.800977773419e-04 6.845982752893e-03 0.0 
0.0 0.0 0.0 
-3.812149872872e-04 2.187079288105e-05 0.0 
2.187079288105e-05 5.448568494747e-03 0.0 
0.0 0.0 0.0 
6.474505200391e-04 8.107986103087e-04 0.0 
8.107986103087e-04 4.532424389057e-03 0.0 
0.0 0.0 0.0 
-1.611717183184e-04 6.337761677082e-04 0.0 
6.337761677082e-04 8.162790809567e-03 0.0 
0.0 0.0 0.0 
-3.635152485445e-04 -1.393334084579e-04 0.0 
-1.393334084579e-04 2.390834723826e-03 0.0 
0.0 0.0 0.0 
1.690457343855e-04 -1.895061910023e-04 0.0 
-1.895061910023e-04 2.690417756319e-04 0.0 
0.0 0.0 0.0 
-3.600055744846e-06 8.964281274297e-04 0.0 
8.964281274297e-04 6.944877897885e-03 0.0 
0.0 0.0 0.0 
6.404114271812e-04 3.786116871283e-04 0.0 
3.786116871283e-04 5.123929643126e-03 0.0 
0.0 0.0 0.0 
5.366807995011e-05 -2.155656512016e-03 0.0 
-2.155656512016e-03 -5.651650550101e-04 0.0 
0.0 0.0 0.0 
-3.025584301551e-04 8.606941243142e-06 0.0 
8.606941243142e-06 7.159257698476e-03 0.0 
0.0 0.0 0.0 
-6.389839254228e-05 -1.896182559875e-04 0.0 
-1.896182559875e-04 7.159247620856e-03 0.0 
0.0 0.0 0.0 
1.121949757665e-04 9.131924199038e-04 0.0 
9.131924199038e-04 6.587182038013e-03 0.0 
0.0 0.0 0.0 
8.255635044163e-05 9.509444077947e-04 0.0 
9.509444077947e-04 6.968710890151e-03 0.0 
0.0 0.0 0.0 
-4.010383275471e-04 -6.789300818104e-05 0.0 
-6.789300818104e-05 5.480635806877e-03 0.0 
0.0 0.0 0.0 
5.670519341752e-04 2.293903773985e-03 0.0 
2.293903773985e-03 -3.825309319987e-03 0.0 
0.0 0.0 0.0 
-6.699863170940e-04 7.955916707190e-04 0.0 
7.955916707190e-04 2.687778798065e-03 0.0 
0.0 0.0 0.0 
-6.617959982307e-04 1.707040798904e-03 0.0 
1.707040798904e-03 2.455355257057e-03 0.0 
0.0 0.0 0.0 
-4.715071359332e-04 2.347951841720e-04 0.0 
2.347951841720e-04 6.099860132932e-03 0.0 
0.0 0.0 0.0 
5.669734029992e-04 9.191609121414e-04 0.0 
9.191609121414e-04 4.519661291138e-03 0.0 
0.0 0.0 0.0 
-1.465857847501e-04 1.783529719931e-04 0.0 
1.783529719931e-04 8.537440718154e-03 0.0 
0.0 0.0 0.0 
1.974144574695e-04 4.497463854241e-04 0.0 
4.497463854241e-04 6.437468362167e-03 0.0 
0.0 0.0 0.0 
-6.613236619075e-04 -1.547338264865e-03 0.0 
-1.547338264865e-03 2.469882227885e-04 0.0 
0.0 0.0 0.0 
-3.566518591440e-04 -6.279117563916e-04 0.0 
-6.279117563916e-04 6.413759165957e-04 0.0 
0.0 0.0 0.0 
-6.919788600417e-04 1.015719574803e-03 0.0 
1.015719574803e-03 2.197550140696e-03 0.0 
0.0 0.0 0.0 
-2.735004455210e-04 1.034188839592e-04 0.0 
1.034188839592e-04 7.272077061478e-03 0.0 
0.0 0.0 0.0 
-4.131401185731e-04 -2.676432102649e-04 0.0 
-2.676432102649e-04 2.865945712583e-03 0.0 
0.0 0.0 0.0 
-1.871018393046e-04 4.419131533673e-04 0.0 
4.419131533673e-04 8.427355849020e-03 0.0 
0.0 0.0 0.0 
-2.158844861100e-06 -8.474521466452e-05 0.0 
-8.474521466452e-05 1.359429980559e-03 0.0 
0.0 0.0 0.0 
3.785991900311e-04 4.550670428210e-04 0.0 
4.550670428210e-04 5.956293604938e-03 0.0 
0.0 0.0 0.0 
-3.997658438947e-04 1.333760889998e-04 0.0 
1.333760889998e-04 6.131380946680e-03 0.0 
0.0 0.0 0.0 
1.190463267782e-04 8.073725824120e-04 0.0 
8.073725824120e-04 6.905862395603e-03 0.0 
0.0 0.0 0.0 
3.304557503747e-04 8.297381796520e-04 0.0 
8.297381796520e-04 5.830952857966e-03 0.0 
0.0 0.0 0.0 
-5.000367613627e-04 2.591288321019e-04 0.0 
2.591288321019e-04 6.080922353081e-03 0.0 
0.0 0.0 0.0 
2.204933714900e-04 -9.681597849285e-05 0.0 
-9.681597849285e-05 6.540062788135e-03 0.0 
0.0 0.0 0.0 
-1.504469072304e-04 5.309657586976e-04 0.0 
5.309657586976e-04 8.618529362417e-03 0.0 
0.0 0.0 0.0 
-1.047563954920e-04 5.796352802804e-05 0.0 
5.796352802804e-05 8.814238296284e-03 0.0 
0.0 0.0 0.0 
-6.255486084891e-04 1.134129756890e-03 0.0 
1.134129756890e-03 1.680927390727e-03 0.0 
0.0 0.0 0.0 
-1.752127801429e-04 4.251589456167e-04 0.0 
4.251589456167e-04 8.323467886154e-03 0.0 
0.0 0.0 0.0 
-1.056895514484e-05 9.378936740346e-04 0.0 
9.378936740346e-04 7.614799101732e-03 0.0 
0.0 0.0 0.0 
4.583444694515e-04 4.074036437759e-04 0.0 
4.074036437759e-04 5.972494736462e-03 0.0 
0.0 0.0 0.0 
3.456384663449e-04 8.575617571984e-04 0.0 
8.575617571984e-04 5.877353283843e-03 0.0 
0.0 0.0 0.0 
0.0 -2.476860504723e-04 0.0 
-2.476860504723e-04 7.233851853864e-03 0.0 
0.0 0.0 0.0 
-2.298983279356e-04 8.026150933941e-04 0.0 
8.026150933941e-04 6.842786898827e-03 0.0 
0.0 0.0 0.0 
-9.871237733450e-04 1.579548927744e-03 0.0 
1.579548927744e-03 -2.577146766943e-03 0.0 
0.0 0.0 0.0 
-1.715618942710e-05 2.841007875056e-03 0.0 
2.841007875056e-03 8.632448665957e-05 0.0 
0.0 0.0 0.0 
-2.135358559694e-04 7.945792780408e-04 0.0 
7.945792780408e-04 7.508194909237e-03 0.0 
0.0 0.0 0.0 
-4.422418621893e-04 2.674100927064e-04 0.0 
2.674100927064e-04 6.402397784490e-03 0.0 
0.0 0.0 0.0 
-1.653392146720e-04 -1.461334376844e-04 0.0 
-1.461334376844e-04 6.935955929132e-03 0.0 
0.0 0.0 0.0 
2.606348601490e-04 8.132674071741e-04 0.0 
8.132674071741e-04 6.276295918462e-03 0.0 
0.0 0.0 0.0 
1.472159625604e-05 -2.535950444678e-04 0.0 
-2.535950444678e-04 6.951403813259e-03 0.0 
0.0 0.0 0.0 
-2.362592853571e-04 1.126261584321e-04 0.0 
1.126261584321e-04 7.686106657835e-03 0.0 
0.0 0.0 0.0 
1.222884546996e-04 7.445570048707e-04 0.0 
7.445570048707e-04 6.800626257030e-03 0.0 
0.0 0.0 0.0 
2.117645686019e-04 -1.648612571980e-04 0.0 
-1.648612571980e-04 6.230426190598e-03 0.0 
0.0 0.0 0.0 
2.339220000982e-04 -8.989298677873e-05 0.0 
-8.989298677873e-05 6.223573501465e-03 0.0 
0.0 0.0 0.0 
-4.257254083273e-04 -1.830838050626e-04 0.0 
-1.830838050626e-04 3.000193927124e-03 0.0 
0.0 0.0 0.0 
-3.589069212051e-06 -2.819987968952e-04 0.0 
-2.819987968952e-04 7.340483464231e-03 0.0 
0.0 0.0 0.0 
-4.598538504635e-04 1.328558653591e-04 0.0 
1.328558653591e-04 5.757382167445e-03 0.0 
0.0 0.0 0.0 
-1.517848022037e-04 8.356840211498e-05 0.0 
8.356840211498e-05 8.460563587952e-03 0.0 
0.0 0.0 0.0 
-5.518056035946e-04 -7.468739334286e-04 0.0 
-7.468739334286e-04 8.585846299949e-04 0.0 
0.0 0.0 0.0 
-1.947108306005e-04 3.367121517768e-05 0.0 
3.367121517768e-05 8.181941106092e-03 0.0 
0.0 0.0 0.0 
-3.027933821751e-04 4.555548233662e-05 0.0 
4.555548233662e-05 7.189675797286e-03 0.0 
0.0 0.0 0.0 
2.869899734741e-04 2.155082720354e-05 0.0 
2.155082720354e-05 6.433421078524e-04 0.0 
0.0 0.0 0.0 
2.175166525159e-03 -1.474674805155e-03 0.0 
-1.474674805155e-03 -3.738939710580e-03 0.0 
0.0 0.0 0.0 
-1.706797160766e-04 8.521264812257e-04 0.0 
8.521264812257e-04 6.886416824112e-03 0.0 
0.0 0.0 0.0 
-8.218207060617e-05 2.782528326191e-04 0.0 
2.782528326191e-04 8.742385566252e-03 0.0 
0.0 0.0 0.0 
-1.457702753525e-04 3.078308612563e-05 0.0 
3.078308612563e-05 8.519371452028e-03 0.0 
0.0 0.0 0.0 
2.681492773784e-04 7.635875674706e-04 0.0 
7.635875674706e-04 6.601750182078e-03 0.0 
0.0 0.0 0.0 
-3.420073461979e-04 9.237116929354e-05 0.0 
9.237116929354e-05 6.437148672477e-03 0.0 
0.0 0.0 0.0 
3.613353992953e-04 -1.429901950131e-05 0.0 
-1.429901950131e-05 2.043938325362e-04 0.0 
0.0 0.0 0.0 
1.141752969732e-03 1.788209411484e-03 0.0 
1.788209411484e-03 -4.255568744580e-03 0.0 
0.0 0.0 0.0 
1.972393180538e-05 -9.016001256497e-05 0.0 
-9.016001256497e-05 4.229404657716e-04 0.0 
0.0 0.0 0.0 
-4.574169894009e-04 -8.200962570415e-04 0.0 
-8.200962570415e-04 9.752966657506e-04 0.0 
0.0 0.0 0.0 
-1.026860941693e-03 3.061502161638e-03 0.0 
3.061502161638e-03 -1.969493168937e-03 0.0 
0.0 0.0 0.0 
-4.781269345763e-04 -2.404921258535e-04 0.0 
-2.404921258535e-04 3.933856950552e-03 0.0 
0.0 0.0 0.0 
-1.574721562209e-04 -1.031036786809e-04 0.0 
-1.031036786809e-04 6.935040253736e-03 0.0 
0.0 0.0 0.0 
-1.713669652854e-04 7.314011861295e-04 0.0 
7.314011861295e-04 8.017869832714e-03 0.0 
0.0 0.0 0.0 
-5.150797351384e-04 3.240096109894e-04 0.0 
3.240096109894e-04 6.316984586551e-03 0.0 
0.0 0.0 0.0 
-4.427166819829e-04 -3.941061215746e-04 0.0 
-3.941061215746e-04 3.392241829425e-03 0.0 
0.0 0.0 0.0 
1.367354906439e-04 -2.558386490321e-04 0.0 
-2.558386490321e-04 6.327782942218e-03 0.0 
0.0 0.0 0.0 
4.422298026965e-04 1.478549296493e-04 0.0 
1.478549296493e-04 5.890654577192e-03 0.0 
0.0 0.0 0.0 
1.781584661924e-04 8.908274600496e-04 0.0 
8.908274600496e-04 6.966822652914e-03 0.0 
0.0 0.0 0.0 
-6.142717538071e-06 9.040053412745e-04 0.0 
9.040053412745e-04 7.237521385676e-03 0.0 
0.0 0.0 0.0 
-1.247814727502e-04 8.756196101959e-04 0.0 
8.756196101959e-04 7.250568271362e-03 0.0 
0.0 0.0 0.0 
-5.535378926098e-04 -5.726431641050e-04 0.0 
-5.726431641050e-04 8.408151606460e-04 0.0 
0.0 0.0 0.0 
9.366634450054e-04 -1.498012052100e-03 0.0 
-1.498012052100e-03 -4.257462273403e-03 0.0 
0.0 0.0 0.0 
-1.355251387580e-04 -2.150297079035e-04 0.0 
-2.150297079035e-04 6.880112961871e-03 0.0 
0.0 0.0 0.0 
1.536028809184e-04 -7.896798735015e-06 0.0 
-7.896798735015e-06 6.714257696816e-04 0.0 
0.0 0.0 0.0 
1.589137317113e-04 8.242160095026e-06 0.0 
8.242160095026e-06 8.375676286254e-04 0.0 
0.0 0.0 0.0 
-3.224971733091e-04 2.622096771337e-03 0.0 
2.622096771337e-03 -7.314916210533e-04 0.0 
0.0 0.0 0.0 
1.005943724897e-05 -1.436910160502e-04 0.0 
-1.436910160502e-04 7.027270640418e-04 0.0 
0.0 0.0 0.0 
1.041821311356e-04 -1.061229848949e-04 0.0 
-1.061229848949e-04 6.579004133155e-03 0.0 
0.0 0.0 0.0 
-6.135577037047e-05 8.904676716689e-04 0.0 
8.904676716689e-04 7.930301447383e-03 0.0 
0.0 0.0 0.0 
-1.320284710098e-04 2.224721610108e-04 0.0 
2.224721610108e-04 8.539971057727e-03 0.0 
0.0 0.0 0.0 
7.760815064350e-05 8.610937126391e-04 0.0 
8.610937126391e-04 7.062730727211e-03 0.0 
0.0 0.0 0.0 
4.725664808880e-04 1.087951290124e-04 0.0 
1.087951290124e-04 5.586526156268e-03 0.0 
0.0 0.0 0.0 
-3.242247823989e-04 9.560037427949e-05 0.0 
9.560037427949e-05 6.668986809327e-03 0.0 
0.0 0.0 0.0 
0.0 3.753807062188e-04 0.0 
3.753807062188e-04 9.026012122171e-03 0.0 
0.0 0.0 0.0 
1.049849586450e-03 -2.319647056576e-03 0.0 
-2.319647056576e-03 -1.723707755379e-03 0.0 
0.0 0.0 0.0 
-3.902708733853e-04 3.388929566695e-05 0.0 
3.388929566695e-05 5.417919053623e-03 0.0 
0.0 0.0 0.0 
-5.909307886715e-04 -2.242095043870e-03 0.0 
-2.242095043870e-03 -5.416176033113e-05 0.0 
0.0 0.0 0.0 
2.078318263703e-04 -6.562804541312e-06 0.0 
-6.562804541312e-06 2.797419005265e-04 0.0 
0.0 0.0 0.0 
-4.221946520211e-05 -2.312350154665e-04 0.0 
-2.312350154665e-04 7.450896203528e-03 0.0 
0.0 0.0 0.0 
-5.213138690345e-04 2.343763704883e-04 0.0 
2.343763704883e-04 5.740045154248e-03 0.0 
0.0 0.0 0.0 
1.348345735821e-04 -6.459792892864e-05 0.0 
-6.459792892864e-05 1.005773623861e-03 0.0 
0.0 0.0 0.0 
-4.925720297612e-04 -1.543892081145e-04 0.0 
-1.543892081145e-04 3.838579762527e-03 0.0 
0.0 0.0 0.0 
-8.996098152581e-05 9.302632032116e-04 0.0 
9.302632032116e-04 7.996367764784e-03 0.0 
0.0 0.0 0.0 
-1.763961087202e-04 2.464472174006e-04 0.0 
2.464472174006e-04 8.482036216728e-03 0.0 
0.0 0.0 0.0 
-9.353348748464e-05 5.706054105505e-04 0.0 
5.706054105505e-04 8.558066877613e-03 0.0 
0.0 0.0 0.0 
-3.825735890893e-04 -9.535213364899e-05 0.0 
-9.535213364899e-05 2.769231677094e-03 0.0 
0.0 0.0 0.0 
1.178106829035e-03 2.540938431997e-04 0.0 
2.540938431997e-04 -4.701532734599e-03 0.0 
0.0 0.0 0.0 
2.669137877476e-05 -2.869685243432e-04 0.0 
-2.869685243432e-04 6.884569121424e-03 0.0 
0.0 0.0 0.0 
-5.071662131695e-05 4.231186776425e-05 0.0 
4.231186776425e-05 9.125082693857e-03 0.0 
0.0 0.0 0.0 
-8.436136330281e-05 -6.270516014531e-05 0.0 
-6.270516014531e-05 7.584020940339e-03 0.0 
0.0 0.0 0.0 
-3.404528809854e-04 2.212103977110e-05 0.0 
2.212103977110e-05 5.739232748172e-03 0.0 
0.0 0.0 0.0 
3.247106600770e-04 1.716810017591e-04 0.0 
1.716810017591e-04 5.966881101617e-03 0.0 
0.0 0.0 0.0 
-6.386313548545e-06 -6.348105073593e-05 0.0 
-6.348105073593e-05 1.103466353099e-03 0.0 
0.0 0.0 0.0 
-1.578985901899e-04 4.774430002777e-04 0.0 
4.774430002777e-04 8.430177253712e-03 0.0 
0.0 0.0 0.0 
2.013609324081e-04 -1.325357924797e-05 0.0 
-1.325357924797e-05 2.740503684195e-04 0.0 
0.0 0.0 0.0 
1.377714244133e-04 4.234796666724e-05 0.0 
4.234796666724e-05 6.490589772258e-03 0.0 
0.0 0.0 0.0 
-1.569948506032e-04 6.361633428250e-04 0.0 
6.361633428250e-04 8.493504193391e-03 0.0 
0.0 0.0 0.0 
8.295155952696e-04 1.065072456226e-03 0.0 
1.065072456226e-03 -4.918448706810e-03 0.0 
0.0 0.0 0.0 
1.317502141291e-04 8.947175410710e-04 0.0 
8.947175410710e-04 6.593243730156e-03 0.0 
0.0 0.0 0.0 
-2.636147307763e-04 3.059079613230e-05 0.0 
3.059079613230e-05 7.488015124927e-03 0.0 
0.0 0.0 0.0 
-6.570036573950e-05 2.063631626151e-04 0.0 
2.063631626151e-04 8.795453825114e-03 0.0 
0.0 0.0 0.0 
0.0 6.320270574412e-04 0.0 
6.320270574412e-04 7.097605400928e-03 0.0 
0.0 0.0 0.0 
-3.021594871293e-04 -2.845428713016e-05 0.0 
-2.845428713016e-05 6.947999909891e-03 0.0 
0.0 0.0 0.0 
-5.669537212705e-05 8.748204189482e-04 0.0 
8.748204189482e-04 8.058172514615e-03 0.0 
0.0 0.0 0.0 
-2.068426283024e-04 5.325032939827e-04 0.0 
5.325032939827e-04 8.321801529881e-03 0.0 
0.0 0.0 0.0 
-2.743362010532e-04 4.043343761411e-05 0.0 
4.043343761411e-05 7.187500848315e-03 0.0 
0.0 0.0 0.0 
-9.873926737747e-05 8.524554362968e-04 0.0 
8.524554362968e-04 7.758936586343e-03 0.0 
0.0 0.0 0.0 
-4.569390661666e-04 -1.965172888866e-04 0.0 
-1.965172888866e-04 3.287889813743e-03 0.0 
0.0 0.0 0.0 
-3.628861475922e-04 4.717084452363e-06 0.0 
4.717084452363e-06 5.432400763347e-03 0.0 
0.0 0.0 0.0 
1.721378372290e-04 8.915925997740e-04 0.0 
8.915925997740e-04 6.732786407297e-03 0.0 
0.0 0.0 0.0 
-6.972220825519e-05 4.470926293531e-05 0.0 
4.470926293531e-05 8.854604753780e-03 0.0 
0.0 0.0 0.0 
5.134527277237e-04 1.158427854332e-05 0.0 
1.158427854332e-05 -1.371186444972e-04 0.0 
0.0 0.0 0.0 
-3.453780802570e-04 1.044708689303e-05 0.0 
1.044708689303e-05 5.433472903067e-03 0.0 
0.0 0.0 0.0 
-1.016727154992e-04 -5.673714695899e-05 0.0 
-5.673714695899e-05 7.341641856221e-03 0.0 
0.0 0.0 0.0 
-2.173715672085e-04 -2.187361008569e-04 0.0 
-2.187361008569e-04 1.472562749699e-03 0.0 
0.0 0.0 0.0 
4.625311306214e-04 3.253391045666e-04 0.0 
3.253391045666e-04 5.976992318701e-03 0.0 
0.0 0.0 0.0 
-2.243547947515e-04 6.238391370987e-04 0.0 
6.238391370987e-04 8.170962065964e-03 0.0 
0.0 0.0 0.0 
-1.245021202588e-04 1.699302553657e-04 0.0 
1.699302553657e-04 8.774574199407e-03 0.0 
0.0 0.0 0.0 
-7.760794304634e-05 -1.227201426165e-04 0.0 
-1.227201426165e-04 1.372891547619e-03 0.0 
0.0 0.0 0.0 
5.581058346225e-04 3.192027415864e-03 0.0 
3.192027415864e-03 -2.016912088927e-03 0.0 
0.0 0.0 0.0 
-4.867324295691e-04 1.872205479197e-05 0.0 
1.872205479197e-05 4.621416074934e-03 0.0 
0.0 0.0 0.0 
-2.187806517198e-04 5.520953401521e-05 0.0 
5.520953401521e-05 7.911212871703e-03 0.0 
0.0 0.0 0.0 
-3.870803717742e-03 -3.196172885248e-04 0.0 
-3.196172885248e-04 -2.942398800469e-03 0.0 
0.0 0.0 0.0 
-8.314987125846e-05 4.749177221353e-04 0.0 
4.749177221353e-04 8.664887325348e-03 0.0 
0.0 0.0 0.0 
-2.995715751009e-04 3.323232269254e-05 0.0 
3.323232269254e-05 6.827015717908e-03 0.0 
0.0 0.0 0.0 
-2.163091206967e-04 -2.180343375286e-03 0.0 
-2.180343375286e-03 -1.818661939245e-04 0.0 
0.0 0.0 0.0 
-3.296640923711e-04 4.812756695778e-05 0.0 
4.812756695778e-05 6.542620078233e-03 0.0 
0.0 0.0 0.0 
1.199403107535e-04 9.164987692214e-04 0.0 
9.164987692214e-04 7.123636252728e-03 0.0 
0.0 0.0 0.0 
-4.721480303643e-04 -6.633674944451e-05 0.0 
-6.633674944451e-05 4.812552384724e-03 0.0 
0.0 0.0 0.0 
-1.719466956707e-03 2.963020023166e-03 0.0 
2.963020023166e-03 2.143559103887e-04 0.0 
0.0 0.0 0.0 
-4.642488386928e-04 -2.208696525571e-04 0.0 
-2.208696525571e-04 3.012290651283e-03 0.0 
0.0 0.0 0.0 
-4.613908111665e-04 -2.280238814823e-04 0.0 
-2.280238814823e-04 4.236633359864e-03 0.0 
0.0 0.0 0.0 
-4.546686121468e-04 2.570480765272e-05 0.0 
2.570480765272e-05 4.986708929090e-03 0.0 
0.0 0.0 0.0 
2.730431467926e-04 7.299934383716e-04 0.0 
7.299934383716e-04 6.449241240308e-03 0.0 
0.0 0.0 0.0 
-4.897575876517e-04 -1.356509420653e-04 0.0 
-1.356509420653e-04 4.150571491914e-03 0.0 
0.0 0.0 0.0 
-4.692503897175e-04 -1.438943161945e-04 0.0 
-1.438943161945e-04 4.401626637307e-03 0.0 
0.0 0.0 0.0 
-1.161566995012e-05 -1.403674934796e-04 0.0 
-1.403674934796e-04 6.405977657022e-04 0.0 
0.0 0.0 0.0 
1.566888854754e-05 -2.386072973829e-04 0.0 
-2.386072973829e-04 6.674173541671e-03 0.0 
0.0 0.0 0.0 
-3.586567794645e-06 9.385348681227e-04 0.0 
9.385348681227e-04 6.949326722383e-03 0.0 
0.0 0.0 0.0 
9.049823299632e-04 2.788972719444e-03 0.0 
2.788972719444e-03 -2.235244524775e-03 0.0 
0.0 0.0 0.0 
-5.211697170526e-05 1.930676439071e-05 0.0 
1.930676439071e-05 8.842471420801e-03 0.0 
0.0 0.0 0.0 
-8.974576723186e-05 -2.439797212282e-05 0.0 
-2.439797212282e-05 7.331769552385e-03 0.0 
0.0 0.0 0.0 
-3.441679406158e-04 -1.826512021721e-05 0.0 
-1.826512021721e-05 5.760508460734e-03 0.0 
0.0 0.0 0.0 
-3.149941456738e-04 2.754480218811e-05 0.0 
2.754480218811e-05 6.824930602401e-03 0.0 
0.0 0.0 0.0 
-4.857560217795e-04 -1.583814213519e-04 0.0 
-1.583814213519e-04 4.153094520050e-03 0.0 
0.0 0.0 0.0 
-4.713710258808e-04 -1.893142324061e-04 0.0 
-1.893142324061e-04 4.218355798588e-03 0.0 
0.0 0.0 0.0 
-4.925604784902e-04 -1.197952558648e-04 0.0 
-1.197952558648e-04 4.387847410403e-03 0.0 
0.0 0.0 0.0 
4.955007119505e-04 3.878759763874e-04 0.0 
3.878759763874e-04 5.628713928129e-03 0.0 
0.0 0.0 0.0 
-4.717663452999e-04 -1.821621317648e-03 0.0 
-1.821621317648e-03 5.019018651737e-04 0.0 
0.0 0.0 0.0 
-3.675609588782e-05 9.321463684522e-04 0.0 
9.321463684522e-04 7.306392886159e-03 0.0 
0.0 0.0 0.0 
-3.343303584656e-04 2.776307396532e-05 0.0 
2.776307396532e-05 6.124049327061e-03 0.0 
0.0 0.0 0.0 
-1.588665346328e-04 4.391578697565e-04 0.0 
4.391578697565e-04 8.658583316639e-03 0.0 
0.0 0.0 0.0 
4.700510504185e-04 3.009860963354e-04 0.0 
3.009860963354e-04 5.617997608816e-03 0.0 
0.0 0.0 0.0 
-3.434393534681e-04 3.637025125030e-05 0.0 
3.637025125030e-05 6.549005456955e-03 0.0 
0.0 0.0 0.0 
-1.341482138298e-04 8.507701522160e-04 0.0 
8.507701522160e-04 7.517755929548e-03 0.0 
0.0 0.0 0.0 
2.463324362196e-04 7.723376525189e-04 0.0 
7.723376525189e-04 6.435053544185e-03 0.0 
0.0 0.0 0.0 
2.116026042647e-04 8.212958374860e-04 0.0 
8.212958374860e-04 6.852263929852e-03 0.0 
0.0 0.0 0.0 
-4.052665900366e-04 2.880344057423e-03 0.0 
2.880344057423e-03 -1.961374919001e-03 0.0 
0.0 0.0 0.0 
-1.636705497112e-04 8.327398681317e-04 0.0 
8.327398681317e-04 7.519846862160e-03 0.0 
0.0 0.0 0.0 
-1.033886981539e-04 9.256187333233e-04 0.0 
9.256187333233e-04 7.625499443127e-03 0.0 
0.0 0.0 0.0 
2.143740871448e-04 -8.961998716952e-05 0.0 
-8.961998716952e-05 5.960009858943e-04 0.0 
0.0 0.0 0.0 
-4.822406002117e-04 -1.960898103771e-04 0.0 
-1.960898103771e-04 3.943362121145e-03 0.0 
0.0 0.0 0.0 
-7.996603071688e-04 3.030425007457e-03 0.0 
3.030425007457e-03 -2.017207493182e-03 0.0 
0.0 0.0 0.0 
-1.587257453085e-04 8.610554403222e-04 0.0 
8.610554403222e-04 7.802293902241e-03 0.0 
0.0 0.0 0.0 
-1.779707741242e-04 8.637078918210e-06 0.0 
8.637078918210e-06 1.512163263293e-03 0.0 
0.0 0.0 0.0 
-1.752688372043e-04 1.516887971823e-05 0.0 
1.516887971823e-05 1.522257586663e-03 0.0 
0.0 0.0 0.0 
-1.362393034783e-04 3.571667132670e-06 0.0 
3.571667132670e-06 1.523010985945e-03 0.0 
0.0 0.0 0.0 
-1.700654521327e-04 -9.202221744018e-06 0.0 
-9.202221744018e-06 1.529202034888e-03 0.0 
0.0 0.0 0.0 
-1.374709466994e-04 -4.895629329136e-06 0.0 
-4.895629329136e-06 1.528669322430e-03 0.0 
0.0 0.0 0.0 
-1.639120267720e-04 -1.746973922625e-05 0.0 
-1.746973922625e-05 1.528175257358e-03 0.0 
0.0 0.0 0.0 
-1.320934352376e-04 -1.073981366524e-05 0.0 
-1.073981366524e-05 1.527095654824e-03 0.0 
0.0 0.0 0.0 
-1.564960881909e-04 -2.308019952156e-05 0.0 
-2.308019952156e-05 1.524919186305e-03 0.0 
0.0 0.0 0.0 
-1.208640203565e-04 -1.454272932452e-05 0.0 
-1.454272932452e-05 1.523182404375e-03 0.0 
0.0 0.0 0.0 
-1.470750172722e-04 -2.793332246046e-05 0.0 
-2.793332246046e-05 1.520240215869e-03 0.0 
0.0 0.0 0.0 
-1.052815699404e-04 -1.742333385839e-05 0.0 
-1.742333385839e-05 1.517618480979e-03 0.0 
0.0 0.0 0.0 
-1.354520889046e-04 -3.254404229398e-05 0.0 
-3.254404229398e-05 1.514354333749e-03 0.0 
0.0 0.0 0.0 
-8.611263711877e-05 -1.989514878558e-05 0.0 
-1.989514878558e-05 1.510582474455e-03 0.0 
0.0 0.0 0.0 
-1.216934610093e-04 -3.707663077551e-05 0.0 
-3.707663077551e-05 1.507401577958e-03 0.0 
0.0 0.0 0.0 
-6.374857329361e-05 -2.212798731126e-05 0.0 
-2.212798731126e-05 1.502175414478e-03 0.0 
0.0 0.0 0.0 
-1.059681413095e-04 -4.154490048469e-05 0.0 
-4.154490048469e-05 1.499501053101e-03 0.0 
0.0 0.0 0.0 
-3.841466940313e-05 -2.413847989864e-05 0.0 
-2.413847989864e-05 1.492472475718e-03 0.0 
0.0 0.0 0.0 
-8.849666596134e-05 -4.589211760093e-05 0.0 
-4.589211760093e-05 1.490767560541e-03 0.0 
0.0 0.0 0.0 
-1.027438204049e-05 -2.587823988943e-05 0.0 
-2.587823988943e-05 1.481540947420e-03 0.0 
0.0 0.0 0.0 
-6.954832728179e-05 -5.002700861475e-05 0.0 
-5.002700861475e-05 1.481326041935e-03 0.0 
0.0 0.0 0.0 
2.051468974096e-05 -2.727131211065e-05 0.0 
-2.727131211065e-05 1.469455086584e-03 0.0 
0.0 0.0 0.0 
-4.945941050305e-05 -5.383917159568e-05 0.0 
-5.383917159568e-05 1.471327588934e-03 0.0 
0.0 0.0 0.0 
-4.246402840712e-04 6.690024792081e-04 0.0 
6.690024792081e-04 1.441696022612e-03 0.0 
0.0 0.0 0.0 
5.376043743244e-05 -2.822787281402e-05 0.0 
-2.822787281402e-05 1.456311362416e-03 0.0 
0.0 0.0 0.0 
-2.865614689851e-05 -5.720488167941e-05 0.0 
-5.720488167941e-05 1.460958686136e-03 0.0 
0.0 0.0 0.0 
8.919145665010e-05 -2.864969916325e-05 0.0 
-2.864969916325e-05 1.442237681310e-03 0.0 
0.0 0.0 0.0 
-6.870246487555e-04 4.697574439401e-04 0.0 
4.697574439401e-04 1.684060366344e-03 0.0 
0.0 0.0 0.0 
-7.697573252363e-06 -5.998237335195e-05 0.0 
-5.998237335195e-05 1.450458606646e-03 0.0 
0.0 0.0 0.0 
1.264085122870e-04 -2.841260628596e-05 0.0 
-2.841260628596e-05 1.427404476301e-03 0.0 
0.0 0.0 0.0 
1.269428456840e-05 -6.198488807539e-05 0.0 
-6.198488807539e-05 1.440127147373e-03 0.0 
0.0 0.0 0.0 
1.648380136718e-04 -2.735198027255e-05 0.0 
-2.735198027255e-05 1.412037492609e-03 0.0 
0.0 0.0 0.0 
3.155806328459e-05 -6.294958976578e-05 0.0 
-6.294958976578e-05 1.430371107066e-03 0.0 
0.0 0.0 0.0 
1.215578355904e-04 3.332621118208e-04 0.0 
3.332621118208e-04 1.143287835618e-03 0.0 
0.0 0.0 0.0 
2.036650269137e-04 -2.516304388361e-05 0.0 
-2.516304388361e-05 1.396426038146e-03 0.0 
0.0 0.0 0.0 
4.779268176658e-05 -6.250436454389e-05 0.0 
-6.250436454389e-05 1.421522973679e-03 0.0 
0.0 0.0 0.0 
2.425396447578e-04 -2.151214343817e-05 0.0 
-2.151214343817e-05 1.380762411156e-03 0.0 
0.0 0.0 0.0 
5.986353829313e-05 -6.022317365880e-05 0.0 
-6.022317365880e-05 1.414253074093e-03 0.0 
0.0 0.0 0.0 
2.795917506051e-04 -1.591340387906e-05 0.0 
-1.591340387906e-05 1.365587574661e-03 0.0 
0.0 0.0 0.0 
6.618999208019e-05 -5.518018609527e-05 0.0 
-5.518018609527e-05 1.409268059789e-03 0.0 
0.0 0.0 0.0 
3.112820583648e-04 -7.205673000458e-06 0.0 
-7.205673000458e-06 1.351534985238e-03 0.0 
0.0 0.0 0.0 
6.489267266785e-05 -4.557412434334e-05 0.0 
-4.557412434334e-05 1.407021947018e-03 0.0 
0.0 0.0 0.0 
3.425037783855e-04 6.763835067822e-06 0.0 
6.763835067822e-06 1.337917158635e-03 0.0 
0.0 0.0 0.0 
5.581768511798e-05 -3.027377710620e-05 0.0 
-3.027377710620e-05 1.407330901272e-03 0.0 
0.0 0.0 0.0 
3.780123717632e-04 2.670088613532e-05 0.0 
2.670088613532e-05 1.323835616948e-03 0.0 
0.0 0.0 0.0 
3.575695161273e-05 -1.117807721329e-05 0.0 
-1.117807721329e-05 1.408669289234e-03 0.0 
0.0 0.0 0.0 
-1.130375237638e-03 1.192587339840e-03 0.0 
1.192587339840e-03 1.861201519292e-03 0.0 
0.0 0.0 0.0 
-2.734098332846e-06 2.941094769797e-06 0.0 
2.941094769797e-06 1.417112687952e-03 0.0 
0.0 0.0 0.0 
4.673059911118e-04 4.869028627972e-05 0.0 
4.869028627972e-05 1.301162214695e-03 0.0 
0.0 0.0 0.0 
-8.417284641626e-05 1.659249823274e-05 0.0 
1.659249823274e-05 1.436557216751e-03 0.0 
0.0 0.0 0.0 
5.103832926652e-04 6.408712279770e-05 0.0 
6.408712279770e-05 1.287928174689e-03 0.0 
0.0 0.0 0.0 
-2.296355930090e-04 2.954124802421e-05 0.0 
2.954124802421e-05 1.491521799907e-03 0.0 
0.0 0.0 0.0 
6.617566225009e-04 7.795633747320e-05 0.0 
7.795633747320e-05 1.258051776043e-03 0.0 
0.0 0.0 0.0 
-3.814095775115e-04 1.679681460905e-04 0.0 
1.679681460905e-04 1.570168255711e-03 0.0 
0.0 0.0 0.0 
4.475060410714e-04 1.316087072538e-04 0.0 
1.316087072538e-04 1.277725975571e-03 0.0 
0.0 0.0 0.0 
1.021947002764e-04 3.394177161951e-04 0.0 
3.394177161951e-04 1.319273964623e-03 0.0 
0.0 0.0 0.0 
-9.157983386471e-04 4.634242029850e-04 0.0 
4.634242029850e-04 1.981147518374e-03 0.0 
0.0 0.0 0.0 
-2.338044516307e-04 -5.005342586861e-05 0.0 
-5.005342586861e-05 1.585136327044e-03 0.0 
0.0 0.0 0.0 
-1.978557234787e-04 5.965774838852e-05 0.0 
5.965774838852e-05 1.510409840966e-03 0.0 
0.0 0.0 0.0 
-2.161125342702e-04 -3.938950889607e-06 0.0 
-3.938950889607e-06 1.658688012257e-03 0.0 
0.0 0.0 0.0 
-2.152273459131e-04 1.497929990194e-05 0.0 
1.497929990194e-05 1.439371345096e-03 0.0 
0.0 0.0 0.0 
-1.216314204565e-03 1.225994035459e-03 0.0 
1.225994035459e-03 1.336292390832e-03 0.0 
0.0 0.0 0.0 
-2.064802522178e-04 -7.208487663861e-06 0.0 
-7.208487663861e-06 2.023488000761e-03 0.0 
0.0 0.0 0.0 
-1.752688372043e-04 3.085795621907e-06 0.0 
3.085795621907e-06 1.974834594465e-03 0.0 
0.0 0.0 0.0 
-1.988748313029e-04 -7.422025043187e-06 0.0 
-7.422025043187e-06 1.974061220678e-03 0.0 
0.0 0.0 0.0 
-1.700654521327e-04 -1.860173393370e-05 0.0 
-1.860173393370e-05 1.969549562806e-03 0.0 
0.0 0.0 0.0 
-1.935255470978e-04 -1.607383859933e-05 0.0 
-1.607383859933e-05 1.969919327673e-03 0.0 
0.0 0.0 0.0 
-1.639120267720e-04 -2.806202353473e-05 0.0 
-2.806202353473e-05 1.966818539346e-03 0.0 
0.0 0.0 0.0 
-1.878849210951e-04 -2.446329605108e-05 0.0 
-2.446329605108e-05 1.967514041173e-03 0.0 
0.0 0.0 0.0 
-1.564960881909e-04 -3.653317537559e-05 0.0 
-3.653317537559e-05 1.963689942892e-03 0.0 
0.0 0.0 0.0 
-1.816063419252e-04 -3.208545131095e-05 0.0 
-3.208545131095e-05 1.964777432853e-03 0.0 
0.0 0.0 0.0 
-1.470750172722e-04 -4.458137034073e-05 0.0 
-4.458137034073e-05 1.959863303292e-03 0.0 
0.0 0.0 0.0 
-1.745110794913e-04 -3.899168870828e-05 0.0 
-3.899168870828e-05 1.961518502840e-03 0.0 
0.0 0.0 0.0 
-1.354520889046e-04 -5.224910993975e-05 0.0 
-5.224910993975e-05 1.955213131323e-03 0.0 
0.0 0.0 0.0 
-1.665442807381e-04 -4.526079073935e-05 0.0 
-4.526079073935e-05 1.957658032866e-03 0.0 
0.0 0.0 0.0 
-1.216934610093e-04 -5.953584617844e-05 0.0 
-5.953584617844e-05 1.949703693622e-03 0.0 
0.0 0.0 0.0 
-1.577870420544e-04 -5.090882888394e-05 0.0 
-5.090882888394e-05 1.953212446422e-03 0.0 
0.0 0.0 0.0 
-1.059681413095e-04 -6.637534060146e-05 0.0 
-6.637534060146e-05 1.943357821019e-03 0.0 
0.0 0.0 0.0 
-1.484305429509e-04 -5.587906784418e-05 0.0 
-5.587906784418e-05 1.948263133824e-03 0.0 
0.0 0.0 0.0 
-8.849666596134e-05 -7.263645190674e-05 0.0 
-7.263645190674e-05 1.936233878853e-03 0.0 
0.0 0.0 0.0 
-1.387542201599e-04 -6.004855357886e-05 0.0 
-6.004855357886e-05 1.942934015565e-03 0.0 
0.0 0.0 0.0 
-6.954832728179e-05 -7.812742463445e-05 0.0 
-7.812742463445e-05 1.928419666539e-03 0.0 
0.0 0.0 0.0 
-6.173971213371e-04 7.603909059647e-04 0.0 
7.603909059647e-04 1.895325450014e-03 0.0 
0.0 0.0 0.0 
-1.291288590037e-04 -6.323053770262e-05 0.0 
-6.323053770262e-05 1.937388336277e-03 0.0 
0.0 0.0 0.0 
-4.945941050305e-05 -8.259466159551e-05 0.0 
-8.259466159551e-05 1.920037610599e-03 0.0 
0.0 0.0 0.0 
-1.200342857988e-04 -6.517273460616e-05 0.0 
-6.517273460616e-05 1.931836925283e-03 0.0 
0.0 0.0 0.0 
-3.814095775115e-04 6.298930585658e-04 0.0 
6.298930585658e-04 1.692056092934e-03 0.0 
0.0 0.0 0.0 
-2.865614689851e-05 -8.572056248849e-05 0.0 
-8.572056248849e-05 1.911258463963e-03 0.0 
0.0 0.0 0.0 
-1.121025891646e-04 -6.558143701504e-05 0.0 
-6.558143701504e-05 1.926543429331e-03 0.0 
0.0 0.0 0.0 
-7.421288939136e-04 5.865139313336e-04 0.0 
5.865139313336e-04 2.100385367789e-03 0.0 
0.0 0.0 0.0 
-7.697573252363e-06 -8.711877566727e-05 0.0 
-8.711877566727e-05 1.902266328497e-03 0.0 
0.0 0.0 0.0 
-1.061094828321e-04 -6.406270812121e-05 0.0 
-6.406270812121e-05 1.921814541735e-03 0.0 
0.0 0.0 0.0 
1.269428456840e-05 -8.629786730870e-05 0.0 
-8.629786730870e-05 1.893308082767e-03 0.0 
0.0 0.0 0.0 
-1.030408019103e-04 -6.016445662285e-05 0.0 
-6.016445662285e-05 1.918015373854e-03 0.0 
0.0 0.0 0.0 
3.155806328459e-05 -8.261675258913e-05 0.0 
-8.261675258913e-05 1.884591286124e-03 0.0 
0.0 0.0 0.0 
-1.040455072167e-04 -5.315603759364e-05 0.0 
-5.315603759364e-05 1.915559164738e-03 0.0 
0.0 0.0 0.0 
4.779268176658e-05 -7.530130247736e-05 0.0 
-7.530130247736e-05 1.876582457138e-03 0.0 
0.0 0.0 0.0 
-1.108107883362e-04 -4.239073689463e-05 0.0 
-4.239073689463e-05 1.915052236274e-03 0.0 
0.0 0.0 0.0 
5.986353829313e-05 -6.321079078601e-05 0.0 
-6.321079078601e-05 1.869312661185e-03 0.0 
0.0 0.0 0.0 
-8.781348817453e-04 1.002619562688e-03 0.0 
1.002619562688e-03 2.079522671236e-03 0.0 
0.0 0.0 0.0 
-1.249880303038e-04 -2.635739141343e-05 0.0 
-2.635739141343e-05 1.916975927394e-03 0.0 
0.0 0.0 0.0 
6.618999208019e-05 -4.498070100777e-05 0.0 
-4.498070100777e-05 1.863618801705e-03 0.0 
0.0 0.0 0.0 
-1.496896846466e-04 -4.841633559581e-06 0.0 
-4.841633559581e-06 1.921772411379e-03 0.0 
0.0 0.0 0.0 
6.489267266785e-05 -1.998138184530e-05 0.0 
-1.998138184530e-05 1.859143989925e-03 0.0 
0.0 0.0 0.0 
5.581768511798e-05 1.328107802951e-05 0.0 
1.328107802951e-05 1.859120309755e-03 0.0 
0.0 0.0 0.0 
-1.880718160342e-04 2.533652060865e-05 0.0 
2.533652060865e-05 1.931424697235e-03 0.0 
0.0 0.0 0.0 
3.575695161273e-05 5.644409858816e-05 0.0 
5.644409858816e-05 1.861145667831e-03 0.0 
0.0 0.0 0.0 
-2.424481507126e-04 6.211112156352e-05 0.0 
6.211112156352e-05 1.947204647277e-03 0.0 
0.0 0.0 0.0 
-2.734098332846e-06 1.303179618132e-04 0.0 
1.303179618132e-04 1.870692148815e-03 0.0 
0.0 0.0 0.0 
-3.203846009292e-04 1.211855799892e-04 0.0 
1.211855799892e-04 1.979674151876e-03 0.0 
0.0 0.0 0.0 
-8.417284641626e-05 2.368895828627e-04 0.0 
2.368895828627e-04 1.873656175235e-03 0.0 
0.0 0.0 0.0 
-2.296355930090e-04 4.639656949185e-04 0.0 
4.639656949185e-04 1.864093308715e-03 0.0 
0.0 0.0 0.0 
-4.207954329988e-04 1.984003429983e-04 0.0 
1.984003429983e-04 2.012706757475e-03 0.0 
0.0 0.0 0.0 
-5.563592666384e-04 3.458590232153e-04 0.0 
3.458590232153e-04 2.074827440455e-03 0.0 
0.0 0.0 0.0 
-7.928674843537e-04 7.030307968950e-04 0.0 
7.030307968950e-04 2.027447581878e-03 0.0 
0.0 0.0 0.0 
-1.970467935561e-04 -5.422254108363e-05 0.0 
-5.422254108363e-05 1.970445501285e-03 0.0 
0.0 0.0 0.0 
-2.280708308972e-04 5.789689877666e-05 0.0 
5.789689877666e-05 2.026000038766e-03 0.0 
0.0 0.0 0.0 
-2.161125342702e-04 -3.282847113684e-06 0.0 
-3.282847113684e-06 1.888864826277e-03 0.0 
0.0 0.0 0.0 
-2.092395665874e-04 8.391284071018e-06 0.0 
8.391284071018e-06 2.104993256935e-03 0.0 
0.0 0.0 0.0 
-6.870246487555e-04 1.071789614804e-03 0.0 
1.071789614804e-03 1.632228055069e-03 0.0 
0.0 0.0 0.0 
-2.064802522178e-04 -2.001384668007e-05 0.0 
-2.001384668007e-05 2.373939443473e-03 0.0 
0.0 0.0 0.0 
-2.279300001783e-04 -9.233448177860e-06 0.0 
-9.233448177860e-06 2.414502476799e-03 0.0 
0.0 0.0 0.0 
-1.988748313029e-04 -1.563906672169e-05 0.0 
-1.563906672169e-05 2.414952235668e-03 0.0 
0.0 0.0 0.0 
-2.253168903027e-04 -2.751442745475e-05 0.0 
-2.751442745475e-05 2.416050810137e-03 0.0 
0.0 0.0 0.0 
-1.935255470978e-04 -2.341583274274e-05 0.0 
-2.341583274274e-05 2.415472080981e-03 0.0 
0.0 0.0 0.0 
-2.225009267655e-04 -3.732202336441e-05 0.0 
-3.732202336441e-05 2.414488194581e-03 0.0 
0.0 0.0 0.0 
-1.878849210951e-04 -3.192011417314e-05 0.0 
-3.192011417314e-05 2.413452303193e-03 0.0 
0.0 0.0 0.0 
-2.195681151790e-04 -4.674338769963e-05 0.0 
-4.674338769963e-05 2.412539586750e-03 0.0 
0.0 0.0 0.0 
-1.816063419252e-04 -4.029315955815e-05 0.0 
-4.029315955815e-05 2.410948180329e-03 0.0 
0.0 0.0 0.0 
-2.165597111068e-04 -5.603811912967e-05 0.0 
-5.603811912967e-05 2.410444275966e-03 0.0 
0.0 0.0 0.0 
-1.745110794913e-04 -4.822910334637e-05 0.0 
-4.822910334637e-05 2.408082376342e-03 0.0 
0.0 0.0 0.0 
-2.134797791368e-04 -6.502107995936e-05 0.0 
-6.502107995936e-05 2.408202630129e-03 0.0 
0.0 0.0 0.0 
-1.665442807381e-04 -5.552551358466e-05 0.0 
-5.552551358466e-05 2.404795599161e-03 0.0 
0.0 0.0 0.0 
-2.103703819363e-04 -7.347056090837e-05 0.0 
-7.347056090837e-05 2.405805508693e-03 0.0 
0.0 0.0 0.0 
-1.577870420544e-04 -6.200845995295e-05 0.0 
-6.200845995295e-05 2.401034132310e-03 0.0 
0.0 0.0 0.0 
-2.073808747959e-04 -8.114938629869e-05 0.0 
-8.114938629869e-05 2.403290335761e-03 0.0 
0.0 0.0 0.0 
-1.484305429509e-04 -6.748555898627e-05 0.0 
-6.748555898627e-05 2.396794655572e-03 0.0 
0.0 0.0 0.0 
-2.047507695071e-04 -8.779051545763e-05 0.0 
-8.779051545763e-05 2.400735790850e-03 0.0 
0.0 0.0 0.0 
-1.387542201599e-04 -7.170905080933e-05 0.0 
-7.170905080933e-05 2.392109911355e-03 0.0 
0.0 0.0 0.0 
-6.950334680639e-04 6.821090263094e-04 0.0 
6.821090263094e-04 2.394452789052e-03 0.0 
0.0 0.0 0.0 
-2.028137677840e-04 -9.306235600180e-05 0.0 
-9.306235600180e-05 2.398261392949e-03 0.0 
0.0 0.0 0.0 
-1.291288590037e-04 -7.435399639583e-05 0.0 
-7.435399639583e-05 2.387049027072e-03 0.0 
0.0 0.0 0.0 
-2.019928690424e-04 -9.654359162681e-05 0.0 
-9.654359162681e-05 2.396025987103e-03 0.0 
0.0 0.0 0.0 
-6.854603332589e-04 5.513182821677e-04 0.0 
5.513182821677e-04 2.513143459068e-03 0.0 
0.0 0.0 0.0 
-1.200342857988e-04 -7.499222173000e-05 0.0 
-7.499222173000e-05 2.381714542727e-03 0.0 
0.0 0.0 0.0 
-2.028233163250e-04 -9.768306208860e-05 0.0 
-9.768306208860e-05 2.394247111869e-03 0.0 
0.0 0.0 0.0 
-1.121025891646e-04 -7.308929410948e-05 0.0 
-7.308929410948e-05 2.376280182444e-03 0.0 
0.0 0.0 0.0 
-2.060956552276e-04 -9.586604715547e-05 0.0 
-9.586604715547e-05 2.393185603814e-03 0.0 
0.0 0.0 0.0 
-1.061094828321e-04 -6.797811891842e-05 0.0 
-6.797811891842e-05 2.370921508670e-03 0.0 
0.0 0.0 0.0 
-5.563592666384e-04 6.308678089091e-04 0.0 
6.308678089091e-04 2.213734407256e-03 0.0 
0.0 0.0 0.0 
-2.125967567370e-04 -9.026847151913e-05 0.0 
-9.026847151913e-05 2.393113742839e-03 0.0 
0.0 0.0 0.0 
-1.030408019103e-04 -5.880681709178e-05 0.0 
-5.880681709178e-05 2.365846630890e-03 0.0 
0.0 0.0 0.0 
-2.235597429594e-04 -7.997206298353e-05 0.0 
-7.997206298353e-05 2.394304421942e-03 0.0 
0.0 0.0 0.0 
-1.040455072167e-04 -4.444929589544e-05 0.0 
-4.444929589544e-05 2.361129300360e-03 0.0 
0.0 0.0 0.0 
-2.397863137324e-04 -6.338767157357e-05 0.0 
-6.338767157357e-05 2.397130336061e-03 0.0 
0.0 0.0 0.0 
-1.108107883362e-04 -2.342357744317e-05 0.0 
-2.342357744317e-05 2.357215230574e-03 0.0 
0.0 0.0 0.0 
-2.637541080218e-04 -3.929563817297e-05 0.0 
-3.929563817297e-05 2.401844990497e-03 0.0 
0.0 0.0 0.0 
-1.249880303038e-04 6.382778344302e-06 0.0 
6.382778344302e-06 2.353594175082e-03 0.0 
0.0 0.0 0.0 
-2.953763948084e-04 -4.169039414816e-06 0.0 
-4.169039414816e-06 2.408823128637e-03 0.0 
0.0 0.0 0.0 
-1.496896846466e-04 4.731896960856e-05 0.0 
4.731896960856e-05 2.351747238037e-03 0.0 
0.0 0.0 0.0 
-3.406308518077e-04 4.301370902055e-05 0.0 
4.301370902055e-05 2.418757536835e-03 0.0 
0.0 0.0 0.0 
-8.614034625408e-04 8.508003674796e-04 0.0 
8.508003674796e-04 2.523245931522e-03 0.0 
0.0 0.0 0.0 
-3.955670027139e-04 1.130375672156e-04 0.0 
1.130375672156e-04 2.433639253832e-03 0.0 
0.0 0.0 0.0 
-1.880718160342e-04 1.040800770786e-04 0.0 
1.040800770786e-04 2.349215502865e-03 0.0 
0.0 0.0 0.0 
-4.782695209982e-04 2.001955424003e-04 0.0 
2.001955424003e-04 2.454391071692e-03 0.0 
0.0 0.0 0.0 
-2.424481507126e-04 1.810115088887e-04 0.0 
1.810115088887e-04 2.353764807703e-03 0.0 
0.0 0.0 0.0 
-5.464359980810e-04 3.421042265907e-04 0.0 
3.421042265907e-04 2.470226741013e-03 0.0 
0.0 0.0 0.0 
-3.203846009292e-04 2.942509468861e-04 0.0 
2.942509468861e-04 2.346545262978e-03 0.0 
0.0 0.0 0.0 
-4.207954329988e-04 4.616777460317e-04 0.0 
4.616777460317e-04 2.339870336641e-03 0.0 
0.0 0.0 0.0 
-8.073490971766e-04 6.767412017816e-04 0.0 
6.767412017816e-04 2.441224650989e-03 0.0 
0.0 0.0 0.0 
-2.358731911432e-04 -5.923163818819e-05 0.0 
-5.923163818819e-05 2.432651619275e-03 0.0 
0.0 0.0 0.0 
-2.017497499929e-04 4.733158603066e-05 0.0 
4.733158603066e-05 2.371347485077e-03 0.0 
0.0 0.0 0.0 
-2.278711894613e-04 -1.154317268735e-05 0.0 
-1.154317268735e-05 2.518497186821e-03 0.0 
0.0 0.0 0.0 
-2.092395665874e-04 1.309712650276e-06 0.0 
1.309712650276e-06 2.288278326997e-03 0.0 
0.0 0.0 0.0 
-7.421288939136e-04 9.657691801604e-04 0.0 
9.657691801604e-04 2.160536532979e-03 0.0 
0.0 0.0 0.0 
-2.515464570801e-04 -2.247394834942e-05 0.0 
-2.247394834942e-05 2.900539173589e-03 0.0 
0.0 0.0 0.0 
-2.279300001783e-04 -1.261733554233e-05 0.0 
-1.261733554233e-05 2.860075549201e-03 0.0 
0.0 0.0 0.0 
-2.518016820386e-04 -1.990965718790e-05 0.0 
-1.990965718790e-05 2.859486560328e-03 0.0 
0.0 0.0 0.0 
-2.253168903027e-04 -3.077899473410e-05 0.0 
-3.077899473410e-05 2.856664594077e-03 0.0 
0.0 0.0 0.0 
-2.516242929661e-04 -2.798544246248e-05 0.0 
-2.798544246248e-05 2.857140863950e-03 0.0 
0.0 0.0 0.0 
-2.225009267655e-04 -4.044958038640e-05 0.0 
-4.044958038640e-05 2.855622816200e-03 0.0 
0.0 0.0 0.0 
-2.515865611130e-04 -3.663598384060e-05 0.0 
-3.663598384060e-05 2.856505979564e-03 0.0 
0.0 0.0 0.0 
-2.195681151790e-04 -4.975487616443e-05 0.0 
-4.975487616443e-05 2.854455627121e-03 0.0 
0.0 0.0 0.0 
-2.519210343034e-04 -4.511255834776e-05 0.0 
-4.511255834776e-05 2.855847068129e-03 0.0 
0.0 0.0 0.0 
-2.165597111068e-04 -5.889717744904e-05 0.0 
-5.889717744904e-05 2.853082078138e-03 0.0 
0.0 0.0 0.0 
-2.527539844074e-04 -5.315859967704e-05 0.0 
-5.315859967704e-05 2.855194880013e-03 0.0 
0.0 0.0 0.0 
-2.134797791368e-04 -6.760214307926e-05 0.0 
-6.760214307926e-05 2.851455450671e-03 0.0 
0.0 0.0 0.0 
-2.541772607660e-04 -6.050903156546e-05 0.0 
-6.050903156546e-05 2.854556651245e-03 0.0 
0.0 0.0 0.0 
-2.103703819363e-04 -7.554138501718e-05 0.0 
-7.554138501718e-05 2.849498038124e-03 0.0 
0.0 0.0 0.0 
-2.562911536390e-04 -6.683109398590e-05 0.0 
-6.683109398590e-05 2.853916612599e-03 0.0 
0.0 0.0 0.0 
-2.073808747959e-04 -8.233374453850e-05 0.0 
-8.233374453850e-05 2.847211910682e-03 0.0 
0.0 0.0 0.0 
-2.593587226344e-04 -7.179440030862e-05 0.0 
-7.179440030862e-05 2.853325702127e-03 0.0 
0.0 0.0 0.0 
-2.047507695071e-04 -8.758181474078e-05 0.0 
-8.758181474078e-05 2.844590356828e-03 0.0 
0.0 0.0 0.0 
-6.334843571251e-04 5.337671081689e-04 0.0 
5.337671081689e-04 2.800483755846e-03 0.0 
0.0 0.0 0.0 
-2.636729821225e-04 -7.501313817477e-05 0.0 
-7.501313817477e-05 2.852839602434e-03 0.0 
0.0 0.0 0.0 
-2.028137677840e-04 -9.081113880005e-05 0.0 
-9.081113880005e-05 2.841647269942e-03 0.0 
0.0 0.0 0.0 
-2.695849864315e-04 -7.603124133538e-05 0.0 
-7.603124133538e-05 2.852534119513e-03 0.0 
0.0 0.0 0.0 
-5.464359980810e-04 5.111073979534e-04 0.0 
5.111073979534e-04 2.642279798034e-03 0.0 
0.0 0.0 0.0 
-2.019928690424e-04 -9.143736988802e-05 0.0 
-9.143736988802e-05 2.838381890028e-03 0.0 
0.0 0.0 0.0 
-6.268599626424e-04 4.530336196109e-04 0.0 
4.530336196109e-04 2.879561145784e-03 0.0 
0.0 0.0 0.0 
-2.774684496227e-04 -7.425699905024e-05 0.0 
-7.425699905024e-05 2.852481896176e-03 0.0 
0.0 0.0 0.0 
-2.028233163250e-04 -8.869372001212e-05 0.0 
-8.869372001212e-05 2.834779313321e-03 0.0 
0.0 0.0 0.0 
-2.877906440688e-04 -6.879133165339e-05 0.0 
-6.879133165339e-05 2.852814632256e-03 0.0 
0.0 0.0 0.0 
-2.060956552276e-04 -8.161489501823e-05 0.0 
-8.161489501823e-05 2.831121296704e-03 0.0 
0.0 0.0 0.0 
-3.014890829951e-04 -5.893613458268e-05 0.0 
-5.893613458268e-05 2.853761823776e-03 0.0 
0.0 0.0 0.0 
-2.125967567370e-04 -6.914198705253e-05 0.0 
-6.914198705253e-05 2.827146306625e-03 0.0 
0.0 0.0 0.0 
-3.190811071483e-04 -4.321865657554e-05 0.0 
-4.321865657554e-05 2.855375595331e-03 0.0 
0.0 0.0 0.0 
-2.235597429594e-04 -4.983599370307e-05 0.0 
-4.983599370307e-05 2.823378725152e-03 0.0 
0.0 0.0 0.0 
-7.368868435526e-04 6.668731147269e-04 0.0 
6.668731147269e-04 2.897520772189e-03 0.0 
0.0 0.0 0.0 
-3.418397423562e-04 -2.103716166010e-05 0.0 
-2.103716166010e-05 2.857722562871e-03 0.0 
0.0 0.0 0.0 
-2.397863137324e-04 -2.192224482423e-05 0.0 
-2.192224482423e-05 2.818277604652e-03 0.0 
0.0 0.0 0.0 
-3.693626418400e-04 1.137119137726e-05 0.0 
1.137119137726e-05 2.860583130665e-03 0.0 
0.0 0.0 0.0 
-2.637541080218e-04 1.716784743060e-05 0.0 
1.716784743060e-05 2.814397272202e-03 0.0 
0.0 0.0 0.0 
-2.953763948084e-04 7.033554359328e-05 0.0 
7.033554359328e-05 2.805492184282e-03 0.0 
0.0 0.0 0.0 
-4.054792919247e-04 5.281312367290e-05 0.0 
5.281312367290e-05 2.863994406910e-03 0.0 
0.0 0.0 0.0 
-3.406308518077e-04 1.423289229956e-04 0.0 
1.423289229956e-04 2.801211989944e-03 0.0 
0.0 0.0 0.0 
-4.453274845780e-04 1.137640104184e-04 0.0 
1.137640104184e-04 2.866950267183e-03 0.0 
0.0 0.0 0.0 
-3.955670027139e-04 2.398081440263e-04 0.0 
2.398081440263e-04 2.779403669122e-03 0.0 
0.0 0.0 0.0 
-4.782695209982e-04 3.777323095176e-04 0.0 
3.777323095176e-04 2.773546199950e-03 0.0 
0.0 0.0 0.0 
-5.014483686838e-04 1.857841520999e-04 0.0 
1.857841520999e-04 2.869399432431e-03 0.0 
0.0 0.0 0.0 
-5.381711011844e-04 3.035175776976e-04 0.0 
3.035175776976e-04 2.867293571427e-03 0.0 
0.0 0.0 0.0 
-7.050493712946e-04 5.603059508607e-04 0.0 
5.603059508607e-04 2.802758895667e-03 0.0 
0.0 0.0 0.0 
-2.213713411443e-04 -5.930438235249e-05 0.0 
-5.930438235249e-05 2.839138035995e-03 0.0 
0.0 0.0 0.0 
-2.572026215646e-04 4.620926518460e-05 0.0 
4.620926518460e-05 2.903528073311e-03 0.0 
0.0 0.0 0.0 
-2.278711894613e-04 -1.228795757112e-05 0.0 
-1.228795757112e-05 2.753369696793e-03 0.0 
0.0 0.0 0.0 
-2.513545828499e-04 1.144588289003e-06 0.0 
1.144588289003e-06 2.986101553438e-03 0.0 
0.0 0.0 0.0 
-6.854603332589e-04 7.555868161849e-04 0.0 
7.555868161849e-04 2.602580770834e-03 0.0 
0.0 0.0 0.0 
-2.515464570801e-04 -2.279689692441e-05 0.0 
-2.279689692441e-05 3.256713200087e-03 0.0 
0.0 0.0 0.0 
-2.761665713130e-04 -1.243474176073e-05 0.0 
-1.243474176073e-05 3.299062229038e-03 0.0 
0.0 0.0 0.0 
-2.518016820386e-04 -2.072333769090e-05 0.0 
-2.072333769090e-05 3.299736918118e-03 0.0 
0.0 0.0 0.0 
-2.774341702814e-04 -3.111662383989e-05 0.0 
-3.111662383989e-05 3.302704134922e-03 0.0 
0.0 0.0 0.0 
-2.516242929661e-04 -2.838454007114e-05 0.0 
-2.838454007114e-05 3.302237998809e-03 0.0 
0.0 0.0 0.0 
-2.792946551903e-04 -4.044901258302e-05 0.0 
-4.044901258302e-05 3.303274575926e-03 0.0 
0.0 0.0 0.0 
-2.515865611130e-04 -3.631186049153e-05 0.0 
-3.631186049153e-05 3.302345558216e-03 0.0 
0.0 0.0 0.0 
-2.819010935617e-04 -4.906951872123e-05 0.0 
-4.906951872123e-05 3.303686220885e-03 0.0 
0.0 0.0 0.0 
-2.519210343034e-04 -4.390012247429e-05 0.0 
-4.390012247429e-05 3.302208232344e-03 0.0 
0.0 0.0 0.0 
-2.853866177434e-04 -5.733123005833e-05 0.0 
-5.733123005833e-05 3.304154573365e-03 0.0 
0.0 0.0 0.0 
-2.527539844074e-04 -5.088964825932e-05 0.0 
-5.088964825932e-05 3.301918974145e-03 0.0 
0.0 0.0 0.0 
-2.899137539405e-04 -6.499941268716e-05 0.0 
-6.499941268716e-05 3.304704500941e-03 0.0 
0.0 0.0 0.0 
-2.541772607660e-04 -5.696627674603e-05 0.0 
-5.696627674603e-05 3.301432087091e-03 0.0 
0.0 0.0 0.0 
-2.954551173411e-04 -7.171013802403e-05 0.0 
-7.171013802403e-05 3.305241484952e-03 0.0 
0.0 0.0 0.0 
-2.562911536390e-04 -6.165619449576e-05 0.0 
-6.165619449576e-05 3.300559917795e-03 0.0 
0.0 0.0 0.0 
-3.021850596667e-04 -7.684631519437e-05 0.0 
-7.684631519437e-05 3.305815866048e-03 0.0 
0.0 0.0 0.0 
-2.593587226344e-04 -6.451113786811e-05 0.0 
-6.451113786811e-05 3.299349675068e-03 0.0 
0.0 0.0 0.0 
-6.019393674880e-04 4.254847329806e-04 0.0 
4.254847329806e-04 3.220294188270e-03 0.0 
0.0 0.0 0.0 
-3.104481166247e-04 -7.995331245787e-05 0.0 
-7.995331245787e-05 3.306470361450e-03 0.0 
0.0 0.0 0.0 
-2.636729821225e-04 -6.503271366835e-05 0.0 
-6.503271366835e-05 3.297772599483e-03 0.0 
0.0 0.0 0.0 
-5.895997850154e-04 3.564457166432e-04 0.0 
3.564457166432e-04 3.280758093607e-03 0.0 
0.0 0.0 0.0 
-3.205721919055e-04 -8.046412851762e-05 0.0 
-8.046412851762e-05 3.307230244184e-03 0.0 
0.0 0.0 0.0 
-2.695849864315e-04 -6.265707439081e-05 0.0 
-6.265707439081e-05 3.295798207029e-03 0.0 
0.0 0.0 0.0 
-3.327221945841e-04 -7.773459080432e-05 0.0 
-7.773459080432e-05 3.308002432597e-03 0.0 
0.0 0.0 0.0 
-2.774684496227e-04 -5.659882187346e-05 0.0 
-5.659882187346e-05 3.293214895661e-03 0.0 
0.0 0.0 0.0 
-3.470956352961e-04 -7.083383970593e-05 0.0 
-7.083383970593e-05 3.308624390499e-03 0.0 
0.0 0.0 0.0 
-5.381711011844e-04 4.252616107768e-04 0.0 
4.252616107768e-04 3.065601312472e-03 0.0 
0.0 0.0 0.0 
-2.877906440688e-04 -4.570703875697e-05 0.0 
-4.570703875697e-05 3.289685733867e-03 0.0 
0.0 0.0 0.0 
-3.639086363983e-04 -5.813038487944e-05 0.0 
-5.813038487944e-05 3.309237006636e-03 0.0 
0.0 0.0 0.0 
-3.014890829951e-04 -2.889425332374e-05 0.0 
-2.889425332374e-05 3.285659327102e-03 0.0 
0.0 0.0 0.0 
-3.849315978907e-04 -3.908783074931e-05 0.0 
-3.908783074931e-05 3.309816309150e-03 0.0 
0.0 0.0 0.0 
-3.190811071483e-04 -4.715340021573e-06 0.0 
-4.715340021573e-06 3.280397406690e-03 0.0 
0.0 0.0 0.0 
-4.086743157884e-04 -1.118744533457e-05 0.0 
-1.118744533457e-05 3.310062282458e-03 0.0 
0.0 0.0 0.0 
-3.418397423562e-04 2.834627969575e-05 0.0 
2.834627969575e-05 3.274474714390e-03 0.0 
0.0 0.0 0.0 
-4.388804950223e-04 2.520661527868e-05 0.0 
2.520661527868e-05 3.309084661620e-03 0.0 
0.0 0.0 0.0 
-3.693626418400e-04 7.343247704167e-05 0.0 
7.343247704167e-05 3.263944818823e-03 0.0 
0.0 0.0 0.0 
-4.683505280653e-04 7.833643353840e-05 0.0 
7.833643353840e-05 3.306590893844e-03 0.0 
0.0 0.0 0.0 
-6.533699880489e-04 5.197146061124e-04 0.0 
5.197146061124e-04 3.287881108986e-03 0.0 
0.0 0.0 0.0 
-5.110395381377e-04 1.399717487179e-04 0.0 
1.399717487179e-04 3.300071200287e-03 0.0 
0.0 0.0 0.0 
-4.054792919247e-04 1.323173353397e-04 0.0 
1.323173353397e-04 3.254718184066e-03 0.0 
0.0 0.0 0.0 
-5.326334228036e-04 2.380076353721e-04 0.0 
2.380076353721e-04 3.286653198037e-03 0.0 
0.0 0.0 0.0 
-4.453274845780e-04 2.119985836326e-04 0.0 
2.119985836326e-04 3.229359972137e-03 0.0 
0.0 0.0 0.0 
-5.014483686838e-04 3.171144569801e-04 0.0 
3.171144569801e-04 3.211969562211e-03 0.0 
0.0 0.0 0.0 
-6.298774182432e-04 4.513836824605e-04 0.0 
4.513836824605e-04 3.164623607716e-03 0.0 
0.0 0.0 0.0 
-2.813075070486e-04 -5.907465731353e-05 0.0 
-5.907465731353e-05 3.316822201199e-03 0.0 
0.0 0.0 0.0 
-2.461904420735e-04 4.631091632979e-05 0.0 
4.631091632979e-05 3.253705981358e-03 0.0 
0.0 0.0 0.0 
-2.754922157466e-04 -1.197672700038e-05 0.0 
-1.197672700038e-05 3.403405124928e-03 0.0 
0.0 0.0 0.0 
-2.513545828499e-04 1.159417504321e-06 0.0 
1.159417504321e-06 3.170308145789e-03 0.0 
0.0 0.0 0.0 
-6.268599626424e-04 5.889041287687e-04 0.0 
5.889041287687e-04 3.038432586833e-03 0.0 
0.0 0.0 0.0 
-2.989531117367e-04 -2.141912496464e-05 0.0 
-2.141912496464e-05 3.784208889049e-03 0.0 
0.0 0.0 0.0 
-2.761665713130e-04 -1.085390893694e-05 0.0 
-1.085390893694e-05 3.743570125862e-03 0.0 
0.0 0.0 0.0 
-3.008416277736e-04 -1.861914372251e-05 0.0 
-1.861914372251e-05 3.742855290025e-03 0.0 
0.0 0.0 0.0 
-2.774341702814e-04 -2.846854289839e-05 0.0 
-2.846854289839e-05 3.741048672683e-03 0.0 
0.0 0.0 0.0 
-3.039569314879e-04 -2.535870179156e-05 0.0 
-2.535870179156e-05 3.741664339381e-03 0.0 
0.0 0.0 0.0 
-2.792946551903e-04 -3.641981120149e-05 0.0 
-3.641981120149e-05 3.741597892516e-03 0.0 
0.0 0.0 0.0 
-3.085003120720e-04 -3.206959184643e-05 0.0 
-3.206959184643e-05 3.742759992955e-03 0.0 
0.0 0.0 0.0 
-2.819010935617e-04 -4.342332125238e-05 0.0 
-4.342332125238e-05 3.742263992742e-03 0.0 
0.0 0.0 0.0 
-3.141696334517e-04 -3.824153765146e-05 0.0 
-3.824153765146e-05 3.744063634577e-03 0.0 
0.0 0.0 0.0 
-2.853866177434e-04 -4.975499329217e-05 0.0 
-4.975499329217e-05 3.742840780315e-03 0.0 
0.0 0.0 0.0 
-3.212608222197e-04 -4.357476817706e-05 0.0 
-4.357476817706e-05 3.745502017448e-03 0.0 
0.0 0.0 0.0 
-2.899137539405e-04 -5.516368070617e-05 0.0 
-5.516368070617e-05 3.743288124771e-03 0.0 
0.0 0.0 0.0 
-3.297732272012e-04 -4.802024786789e-05 0.0 
-4.802024786789e-05 3.747009022629e-03 0.0 
0.0 0.0 0.0 
-2.954551173411e-04 -5.932072343955e-05 0.0 
-5.932072343955e-05 3.743126193230e-03 0.0 
0.0 0.0 0.0 
-3.395840462472e-04 -5.084616978673e-05 0.0 
-5.084616978673e-05 3.748281171843e-03 0.0 
0.0 0.0 0.0 
-3.021850596667e-04 -6.149900696658e-05 0.0 
-6.149900696658e-05 3.742330303152e-03 0.0 
0.0 0.0 0.0 
-5.846512911785e-04 3.291098999658e-04 0.0 
3.291098999658e-04 3.661174941897e-03 0.0 
0.0 0.0 0.0 
-3.506652511139e-04 -5.135585344833e-05 0.0 
-5.135585344833e-05 3.749349031921e-03 0.0 
0.0 0.0 0.0 
-3.104481166247e-04 -6.096041623343e-05 0.0 
-6.096041623343e-05 3.741133737943e-03 0.0 
0.0 0.0 0.0 
-5.326334228036e-04 3.334996272052e-04 0.0 
3.334996272052e-04 3.508063052949e-03 0.0 
0.0 0.0 0.0 
-3.640223687525e-04 -4.904849576624e-05 0.0 
-4.904849576624e-05 3.750438088927e-03 0.0 
0.0 0.0 0.0 
-3.205721919055e-04 -5.718801066009e-05 0.0 
-5.718801066009e-05 3.739401886310e-03 0.0 
0.0 0.0 0.0 
-5.677894621189e-04 2.849406040305e-04 0.0 
2.849406040305e-04 3.701128780568e-03 0.0 
0.0 0.0 0.0 
-3.793827862473e-04 -4.359053427874e-05 0.0 
-4.359053427874e-05 3.751328049507e-03 0.0 
0.0 0.0 0.0 
-3.327221945841e-04 -4.944652438601e-05 0.0 
-4.944652438601e-05 3.736662745734e-03 0.0 
0.0 0.0 0.0 
-3.965298190771e-04 -3.414582192828e-05 0.0 
-3.414582192828e-05 3.751585853404e-03 0.0 
0.0 0.0 0.0 
-3.470956352961e-04 -3.661897499928e-05 0.0 
-3.661897499928e-05 3.732401160056e-03 0.0 
0.0 0.0 0.0 
-4.157549279751e-04 -1.954700274458e-05 0.0 
-1.954700274458e-05 3.750750079801e-03 0.0 
0.0 0.0 0.0 
-3.639086363983e-04 -1.706682346652e-05 0.0 
-1.706682346652e-05 3.725620788539e-03 0.0 
0.0 0.0 0.0 
-6.119735020081e-04 4.051499932767e-04 0.0 
4.051499932767e-04 3.713281198319e-03 0.0 
0.0 0.0 0.0 
-4.362735255917e-04 3.422814479680e-06 0.0 
3.422814479680e-06 3.748828234019e-03 0.0 
0.0 0.0 0.0 
-3.849315978907e-04 1.088264992633e-05 0.0 
1.088264992633e-05 3.719447999194e-03 0.0 
0.0 0.0 0.0 
-4.620670312583e-04 3.191655545031e-05 0.0 
3.191655545031e-05 3.746070598646e-03 0.0 
0.0 0.0 0.0 
-4.086743157884e-04 4.825399673170e-05 0.0 
4.825399673170e-05 3.707244291530e-03 0.0 
0.0 0.0 0.0 
-4.388804950223e-04 9.758401904885e-05 0.0 
9.758401904885e-05 3.698217536791e-03 0.0 
0.0 0.0 0.0 
-4.865423194976e-04 7.440891009730e-05 0.0 
7.440891009730e-05 3.740627102809e-03 0.0 
0.0 0.0 0.0 
-4.683505280653e-04 1.621833033436e-04 0.0 
1.621833033436e-04 3.668725689250e-03 0.0 
0.0 0.0 0.0 
-5.201260976816e-04 1.194068334206e-04 0.0 
1.194068334206e-04 3.731441915982e-03 0.0 
0.0 0.0 0.0 
-5.110395381377e-04 2.489632644964e-04 0.0 
2.489632644964e-04 3.654146106415e-03 0.0 
0.0 0.0 0.0 
-5.285387345776e-04 1.976573959499e-04 0.0 
1.976573959499e-04 3.712840484410e-03 0.0 
0.0 0.0 0.0 
-5.947851800492e-04 3.539080194863e-04 0.0 
3.539080194863e-04 3.572624083807e-03 0.0 
0.0 0.0 0.0 
-2.688043503981e-04 -5.893933395418e-05 0.0 
-5.893933395418e-05 3.723852160189e-03 0.0 
0.0 0.0 0.0 
-3.043006192135e-04 4.674746660038e-05 0.0 
4.674746660038e-05 3.787620560817e-03 0.0 
0.0 0.0 0.0 
-2.754922157466e-04 -1.156082860592e-05 0.0 
-1.156082860592e-05 3.637821726757e-03 0.0 
0.0 0.0 0.0 
-2.983514308765e-04 1.602722755145e-06 0.0 
1.602722755145e-06 3.869997364152e-03 0.0 
0.0 0.0 0.0 
-5.895997850154e-04 4.583034228857e-04 0.0 
4.583034228857e-04 3.466932331649e-03 0.0 
0.0 0.0 0.0 
-2.989531117367e-04 -1.974495407890e-05 0.0 
-1.974495407890e-05 4.140142097121e-03 0.0 
0.0 0.0 0.0 
-3.187497194567e-04 -7.577613166094e-06 0.0 
-7.577613166094e-06 4.181126483323e-03 0.0 
0.0 0.0 0.0 
-3.008416277736e-04 -1.535558068332e-05 0.0 
-1.535558068332e-05 4.181859509845e-03 0.0 
0.0 0.0 0.0 
-3.208318129454e-04 -2.314006297879e-05 0.0 
-2.314006297879e-05 4.184562319786e-03 0.0 
0.0 0.0 0.0 
-3.039569314879e-04 -2.015285481385e-05 0.0 
-2.015285481385e-05 4.184019317353e-03 0.0 
0.0 0.0 0.0 
-3.259306265486e-04 -2.881739515094e-05 0.0 
-2.881739515094e-05 4.186221837746e-03 0.0 
0.0 0.0 0.0 
-3.085003120720e-04 -2.506511619225e-05 0.0 
-2.506511619225e-05 4.185297078810e-03 0.0 
0.0 0.0 0.0 
-3.317679000858e-04 -3.387805701374e-05 0.0 
-3.387805701374e-05 4.187688679445e-03 0.0 
0.0 0.0 0.0 
-3.141696334517e-04 -2.886258157710e-05 0.0 
-2.886258157710e-05 4.186159837670e-03 0.0 
0.0 0.0 0.0 
-3.400499299125e-04 -3.785372779133e-05 0.0 
-3.785372779133e-05 4.189573403299e-03 0.0 
0.0 0.0 0.0 
-3.212608222197e-04 -3.168077416439e-05 0.0 
-3.168077416439e-05 4.187298762288e-03 0.0 
0.0 0.0 0.0 
-3.495051008735e-04 -4.083483563421e-05 0.0 
-4.083483563421e-05 4.191418323022e-03 0.0 
0.0 0.0 0.0 
-3.297732272012e-04 -3.308518817149e-05 0.0 
-3.308518817149e-05 4.188101657779e-03 0.0 
0.0 0.0 0.0 
-3.617065016258e-04 -4.270542340845e-05 0.0 
-4.270542340845e-05 4.193146577032e-03 0.0 
0.0 0.0 0.0 
-3.395840462472e-04 -3.275652856430e-05 0.0 
-3.275652856430e-05 4.188282120879e-03 0.0 
0.0 0.0 0.0 
-5.771907314691e-04 2.603243365635e-04 0.0 
2.603243365635e-04 4.110965643151e-03 0.0 
0.0 0.0 0.0 
-3.737601543603e-04 -4.248769293596e-05 0.0 
-4.248769293596e-05 4.193725841039e-03 0.0 
0.0 0.0 0.0 
-5.532252536841e-04 2.261623750531e-04 0.0 
2.261623750531e-04 4.136858399258e-03 0.0 
0.0 0.0 0.0 
-3.506652511139e-04 -2.916150189830e-05 0.0 
-2.916150189830e-05 4.186559875596e-03 0.0 
0.0 0.0 0.0 
-3.887474279006e-04 -3.817528860693e-05 0.0 
-3.817528860693e-05 4.194460419976e-03 0.0 
0.0 0.0 0.0 
-3.640223687525e-04 -2.244738595675e-05 0.0 
-2.244738595675e-05 4.185051152455e-03 0.0 
0.0 0.0 0.0 
-4.062327285046e-04 -3.091784832673e-05 0.0 
-3.091784832673e-05 4.194955802364e-03 0.0 
0.0 0.0 0.0 
-3.793827862473e-04 -1.214540111197e-05 0.0 
-1.214540111197e-05 4.182600429513e-03 0.0 
0.0 0.0 0.0 
-4.246788860967e-04 -1.980932189546e-05 0.0 
-1.980932189546e-05 4.194066029343e-03 0.0 
0.0 0.0 0.0 
-5.285387345776e-04 2.728493007415e-04 0.0 
2.728493007415e-04 3.955230198573e-03 0.0 
0.0 0.0 0.0 
-3.965298190771e-04 3.125666993447e-06 0.0 
3.125666993447e-06 4.177771619979e-03 0.0 
0.0 0.0 0.0 
-4.450378179153e-04 -3.061468267213e-06 0.0 
-3.061468267213e-06 4.191520444349e-03 0.0 
0.0 0.0 0.0 
-4.157549279751e-04 2.443573903953e-05 0.0 
2.443573903953e-05 4.170554254350e-03 0.0 
0.0 0.0 0.0 
-4.675063631736e-04 1.954667904952e-05 0.0 
1.954667904952e-05 4.186063457736e-03 0.0 
0.0 0.0 0.0 
-4.362735255917e-04 5.463449361798e-05 0.0 
5.463449361798e-05 4.157675964936e-03 0.0 
0.0 0.0 0.0 
-4.870337105258e-04 5.597797940149e-05 0.0 
5.597797940149e-05 4.179183519406e-03 0.0 
0.0 0.0 0.0 
-4.620670312583e-04 9.309167059617e-05 0.0 
9.309167059617e-05 4.147837311740e-03 0.0 
0.0 0.0 0.0 
-5.182731068569e-04 9.354333067680e-05 0.0 
9.354333067680e-05 4.168613491054e-03 0.0 
0.0 0.0 0.0 
-5.242082525830e-04 1.573888495438e-04 0.0 
1.573888495438e-04 4.151085157800e-03 0.0 
0.0 0.0 0.0 
-4.865423194976e-04 1.439674604739e-04 0.0 
1.439674604739e-04 4.123197261241e-03 0.0 
0.0 0.0 0.0 
-5.842681021955e-04 3.198861822995e-04 0.0 
3.198861822995e-04 4.151019125789e-03 0.0 
0.0 0.0 0.0 
-5.201260976816e-04 2.082364352197e-04 0.0 
2.082364352197e-04 4.107127370748e-03 0.0 
0.0 0.0 0.0 
-5.682293379071e-04 2.796562098363e-04 0.0 
2.796562098363e-04 3.991556446584e-03 0.0 
0.0 0.0 0.0 
-3.256340323721e-04 -5.794552809452e-05 0.0 
-5.794552809452e-05 4.198395979892e-03 0.0 
0.0 0.0 0.0 
-2.912918518194e-04 4.847517791066e-05 0.0 
4.847517791066e-05 4.136726302234e-03 0.0 
0.0 0.0 0.0 
-3.178923882776e-04 -9.995688422941e-06 0.0 
-9.995688422941e-06 4.284538766834e-03 0.0 
0.0 0.0 0.0 
-2.983514308765e-04 2.706656259276e-06 0.0 
2.706656259276e-06 4.054188697355e-03 0.0 
0.0 0.0 0.0 
-5.677894621189e-04 3.622203979599e-04 0.0 
3.622203979599e-04 3.917159602431e-03 0.0 
0.0 0.0 0.0 
-3.367944935893e-04 -1.763590583389e-05 0.0 
-1.763590583389e-05 4.661761060289e-03 0.0 
0.0 0.0 0.0 
-3.187497194567e-04 -3.854198493480e-06 0.0 
-3.854198493480e-06 4.619834724746e-03 0.0 
0.0 0.0 0.0 
-3.349198577783e-04 -1.171749935266e-05 0.0 
-1.171749935266e-05 4.618965582564e-03 0.0 
0.0 0.0 0.0 
-3.208318129454e-04 -1.662156870262e-05 0.0 
-1.662156870262e-05 4.616196695976e-03 0.0 
0.0 0.0 0.0 
-3.405822412322e-04 -1.194635153056e-05 0.0 
-1.194635153056e-05 4.617175500609e-03 0.0 
0.0 0.0 0.0 
-3.259306265486e-04 -1.911322012166e-05 0.0 
-1.911322012166e-05 4.618415949320e-03 0.0 
0.0 0.0 0.0 
-3.489493705237e-04 -1.538908992727e-05 0.0 
-1.538908992727e-05 4.619610813780e-03 0.0 
0.0 0.0 0.0 
-3.317679000858e-04 -2.180423207204e-05 0.0 
-2.180423207204e-05 4.618054623182e-03 0.0 
0.0 0.0 0.0 
-3.557450681037e-04 -1.553764880652e-05 0.0 
-1.553764880652e-05 4.620416273276e-03 0.0 
0.0 0.0 0.0 
-3.400499299125e-04 -2.190661620992e-05 0.0 
-2.190661620992e-05 4.620261883650e-03 0.0 
0.0 0.0 0.0 
-3.679471245878e-04 -1.627150386178e-05 0.0 
-1.627150386178e-05 4.623119517597e-03 0.0 
0.0 0.0 0.0 
-3.495051008735e-04 -2.161186144741e-05 0.0 
-2.161186144741e-05 4.619971300674e-03 0.0 
0.0 0.0 0.0 
-3.790016496844e-04 -1.357169553549e-05 0.0 
-1.357169553549e-05 4.624532243460e-03 0.0 
0.0 0.0 0.0 
-5.676496302456e-04 2.081884543905e-04 0.0 
2.081884543905e-04 4.562024568586e-03 0.0 
0.0 0.0 0.0 
-3.617065016258e-04 -1.863186066940e-05 0.0 
-1.863186066940e-05 4.622157547843e-03 0.0 
0.0 0.0 0.0 
-3.951758792343e-04 -1.290872729140e-05 0.0 
-1.290872729140e-05 4.626703762998e-03 0.0 
0.0 0.0 0.0 
-5.242082525830e-04 2.201884781510e-04 0.0 
2.201884781510e-04 4.406932549004e-03 0.0 
0.0 0.0 0.0 
-3.737601543603e-04 -1.476964486295e-05 0.0 
-1.476964486295e-05 4.617861835506e-03 0.0 
0.0 0.0 0.0 
-4.092987968876e-04 -5.120410577148e-06 0.0 
-5.120410577148e-06 4.625460418050e-03 0.0 
0.0 0.0 0.0 
-5.390367798638e-04 1.896544202105e-04 0.0 
1.896544202105e-04 4.573405390170e-03 0.0 
0.0 0.0 0.0 
-3.887474279006e-04 -5.535315834333e-06 0.0 
-5.535315834333e-06 4.615806038152e-03 0.0 
0.0 0.0 0.0 
-4.278132484348e-04 5.370228007160e-06 0.0 
5.370228007160e-06 4.625600460175e-03 0.0 
0.0 0.0 0.0 
-4.062327285046e-04 7.069745137417e-06 0.0 
7.069745137417e-06 4.613425598722e-03 0.0 
0.0 0.0 0.0 
-4.469955145477e-04 1.741326728067e-05 0.0 
1.741326728067e-05 4.624385158988e-03 0.0 
0.0 0.0 0.0 
-4.246788860967e-04 2.390970780737e-05 0.0 
2.390970780737e-05 4.606634360369e-03 0.0 
0.0 0.0 0.0 
-5.661246787115e-04 2.601483857513e-04 0.0 
2.601483857513e-04 4.595512755435e-03 0.0 
0.0 0.0 0.0 
-4.662203097078e-04 3.564760542547e-05 0.0 
3.564760542547e-05 4.620094645361e-03 0.0 
0.0 0.0 0.0 
-4.450378179153e-04 4.737887976005e-05 0.0 
4.737887976005e-05 4.597522207095e-03 0.0 
0.0 0.0 0.0 
-4.675063631736e-04 7.739018956271e-05 0.0 
7.739018956271e-05 4.586459588249e-03 0.0 
0.0 0.0 0.0 
-4.878632272468e-04 6.027203725036e-05 0.0 
6.027203725036e-05 4.613642488577e-03 0.0 
0.0 0.0 0.0 
-4.870337105258e-04 1.182493691616e-04 0.0 
1.182493691616e-04 4.558134090273e-03 0.0 
0.0 0.0 0.0 
-5.135744997813e-04 8.656917999739e-05 0.0 
8.656917999739e-05 4.601829617371e-03 0.0 
0.0 0.0 0.0 
-5.182731068569e-04 1.723773286647e-04 0.0 
1.723773286647e-04 4.552546414486e-03 0.0 
0.0 0.0 0.0 
-5.143361613564e-04 1.415892298784e-04 0.0 
1.415892298784e-04 4.584042143357e-03 0.0 
0.0 0.0 0.0 
-5.530675804110e-04 2.253144350377e-04 0.0 
2.253144350377e-04 4.430450899614e-03 0.0 
0.0 0.0 0.0 
-3.055911916445e-04 -5.594255788485e-05 0.0 
-5.594255788485e-05 4.598463219510e-03 0.0 
0.0 0.0 0.0 
-3.431783872735e-04 5.167572892899e-05 0.0 
5.167572892899e-05 4.665843737672e-03 0.0 
0.0 0.0 0.0 
-3.178923882776e-04 -7.800041552788e-06 0.0 
-7.800041552788e-06 4.516598337574e-03 0.0 
0.0 0.0 0.0 
-3.316434330336e-04 6.101751064053e-06 0.0 
6.101751064053e-06 4.743444465322e-03 0.0 
0.0 0.0 0.0 
-5.532252536841e-04 2.882582154964e-04 0.0 
2.882582154964e-04 4.367546537473e-03 0.0 
0.0 0.0 0.0 
-3.367944935893e-04 -1.885237091865e-05 0.0 
-1.885237091865e-05 5.022814913398e-03 0.0 
0.0 0.0 0.0 
-3.365805051505e-04 -4.884510996029e-06 0.0 
-4.884510996029e-06 5.048917801833e-03 0.0 
0.0 0.0 0.0 
-3.349198577783e-04 -3.914855846355e-06 0.0 
-3.914855846355e-06 5.048797978572e-03 0.0 
0.0 0.0 0.0 
-3.468892316669e-04 -6.920813046006e-06 0.0 
-6.920813046006e-06 5.053266845814e-03 0.0 
0.0 0.0 0.0 
-3.405822412322e-04 -2.584750482915e-06 0.0 
-2.584750482915e-06 5.052452555436e-03 0.0 
0.0 0.0 0.0 
-3.536822629219e-04 -5.496456908112e-06 0.0 
-5.496456908112e-06 5.057513228806e-03 0.0 
0.0 0.0 0.0 
-3.489493705237e-04 -4.267324231472e-06 0.0 
-4.267324231472e-06 5.057158513956e-03 0.0 
0.0 0.0 0.0 
-3.593637733453e-04 -9.516419718080e-06 0.0 
-9.516419718080e-06 5.055780742740e-03 0.0 
0.0 0.0 0.0 
-3.557450681037e-04 -3.298201225858e-08 0.0 
-3.298201225858e-08 5.052913237162e-03 0.0 
0.0 0.0 0.0 
-3.692482054435e-04 -1.848566953255e-06 0.0 
-1.848566953255e-06 5.059080699056e-03 0.0 
0.0 0.0 0.0 
-3.679471245878e-04 2.482467441967e-06 0.0 
2.482467441967e-06 5.057511580593e-03 0.0 
0.0 0.0 0.0 
-3.835086566708e-04 -2.393940470375e-06 0.0 
-2.393940470375e-06 5.059580154957e-03 0.0 
0.0 0.0 0.0 
-5.562626183574e-04 1.759059010597e-04 0.0 
1.759059010597e-04 5.010423109877e-03 0.0 
0.0 0.0 0.0 
-3.790016496844e-04 8.898453219861e-06 0.0 
8.898453219861e-06 5.054739304840e-03 0.0 
0.0 0.0 0.0 
-5.299143401640e-04 1.650073931876e-04 0.0 
1.650073931876e-04 5.014911099008e-03 0.0 
0.0 0.0 0.0 
-3.902708733853e-04 8.411728583944e-06 0.0 
8.411728583944e-06 5.060584863723e-03 0.0 
0.0 0.0 0.0 
-3.951758792343e-04 1.638008471073e-05 0.0 
1.638008471073e-05 5.057106606495e-03 0.0 
0.0 0.0 0.0 
-4.155520554329e-04 1.057634945817e-05 0.0 
1.057634945817e-05 5.059588232964e-03 0.0 
0.0 0.0 0.0 
-4.092987968876e-04 2.842659513915e-05 0.0 
2.842659513915e-05 5.049699942054e-03 0.0 
0.0 0.0 0.0 
-4.335108980567e-04 2.613025198173e-05 0.0 
2.613025198173e-05 5.058522206972e-03 0.0 
0.0 0.0 0.0 
-4.278132484348e-04 4.253229455528e-05 0.0 
4.253229455528e-05 5.048381070375e-03 0.0 
0.0 0.0 0.0 
-4.490992855203e-04 4.064711983985e-05 0.0 
4.064711983985e-05 5.055571295606e-03 0.0 
0.0 0.0 0.0 
-5.143361613564e-04 1.944461287238e-04 0.0 
1.944461287238e-04 4.854657576703e-03 0.0 
0.0 0.0 0.0 
-4.469955145477e-04 6.092860252051e-05 0.0 
6.092860252051e-05 5.042227778888e-03 0.0 
0.0 0.0 0.0 
-4.691128594531e-04 5.888909647466e-05 0.0 
5.888909647466e-05 5.048848621355e-03 0.0 
0.0 0.0 0.0 
-4.662203097078e-04 8.604780425732e-05 0.0 
8.604780425732e-05 5.029317451194e-03 0.0 
0.0 0.0 0.0 
-4.869326034005e-04 8.702958494373e-05 0.0 
8.702958494373e-05 5.038431728305e-03 0.0 
0.0 0.0 0.0 
-5.064993175803e-04 1.242990469797e-04 0.0 
1.242990469797e-04 5.026448065047e-03 0.0 
0.0 0.0 0.0 
-4.878632272468e-04 1.191825683070e-04 0.0 
1.191825683070e-04 5.013980204208e-03 0.0 
0.0 0.0 0.0 
-5.135744997813e-04 1.569270924953e-04 0.0 
1.569270924953e-04 5.000777508287e-03 0.0 
0.0 0.0 0.0 
-5.445140794271e-04 2.212547260557e-04 0.0 
2.212547260557e-04 5.039130086202e-03 0.0 
0.0 0.0 0.0 
-5.317230052231e-04 1.936158604755e-04 0.0 
1.936158604755e-04 4.864750223526e-03 0.0 
0.0 0.0 0.0 
-3.509766169585e-04 -4.910841268110e-05 0.0 
-4.910841268110e-05 5.057109264549e-03 0.0 
0.0 0.0 0.0 
-3.293658506524e-04 5.831250376544e-05 0.0 
5.831250376544e-05 5.018269376964e-03 0.0 
0.0 0.0 0.0 
-3.481304115210e-04 2.113251651429e-06 0.0 
2.113251651429e-06 5.153858310434e-03 0.0 
0.0 0.0 0.0 
-3.316434330336e-04 9.362470127663e-06 0.0 
9.362470127663e-06 4.925394300603e-03 0.0 
0.0 0.0 0.0 
-5.390367798638e-04 2.409165286891e-04 0.0 
2.409165286891e-04 4.824437868613e-03 0.0 
0.0 0.0 0.0 

TENSORS element_materi_strain_plasti float
-6.466164772809e-04 8.245090744215e-04 0.0 
8.245090744215e-04 2.707374572581e-03 0.0 
0.0 0.0 -4.220722639049e-04 
-5.850828050599e-04 4.087408186800e-04 0.0 
4.087408186800e-04 2.442724633431e-03 0.0 
0.0 0.0 -4.303330772826e-04 
-1.282095494807e-03 4.001741098009e-04 0.0 
4.001741098009e-04 8.226379453025e-03 0.0 
0.0 0.0 -1.278236581085e-03 
-1.295884943363e-03 -1.217266030679e-04 0.0 
-1.217266030679e-04 8.480174258718e-03 0.0 
0.0 0.0 -1.255598393855e-03 
-9.118044046819e-04 2.773302772114e-04 0.0 
2.773302772114e-04 5.301634366726e-03 0.0 
0.0 0.0 -7.961861350945e-04 
2.510626383067e-04 3.899924767601e-04 0.0 
3.899924767601e-04 -1.017744063535e-06 0.0 
0.0 0.0 -1.071620975328e-04 
-8.944012644099e-04 3.000213301662e-04 0.0 
3.000213301662e-04 5.255597081572e-03 0.0 
0.0 0.0 -8.011023898636e-04 
-6.111001276048e-04 8.133198202813e-04 0.0 
8.133198202813e-04 2.541489709150e-03 0.0 
0.0 0.0 -4.045669272905e-04 
-9.178969371214e-04 -2.491713150355e-04 0.0 
-2.491713150355e-04 5.331335701126e-03 0.0 
0.0 0.0 -7.977904104816e-04 
-1.281432177268e-03 3.076617140319e-04 0.0 
3.076617140319e-04 8.397045163972e-03 0.0 
0.0 0.0 -1.253060141438e-03 
-1.093573439511e-03 5.627509268443e-05 0.0 
5.627509268443e-05 5.667510059544e-03 0.0 
0.0 0.0 -8.816510380685e-04 
-5.787511837025e-04 6.777709678412e-04 0.0 
6.777709678412e-04 2.088119972159e-03 0.0 
0.0 0.0 -3.735031833740e-04 
-1.326305648993e-03 1.334625464656e-04 0.0 
1.334625464656e-04 8.251440389062e-03 0.0 
0.0 0.0 -1.259187713256e-03 
-9.724653634380e-04 3.053641968768e-04 0.0 
3.053641968768e-04 5.663135226582e-03 0.0 
0.0 0.0 -8.526168115438e-04 
-1.330762641967e-03 -3.008650578863e-04 0.0 
-3.008650578863e-04 8.383102825445e-03 0.0 
0.0 0.0 -1.289538875031e-03 
-1.321345684109e-03 2.719191787034e-04 0.0 
2.719191787034e-04 8.617215783831e-03 0.0 
0.0 0.0 -1.285984941237e-03 
-9.140896497734e-04 7.519541139523e-05 0.0 
7.519541139523e-05 5.296976735505e-03 0.0 
0.0 0.0 -7.740676797406e-04 
0.0 0.0 0.0 
0.0 0.0 0.0 
0.0 0.0 0.0 
-3.519099227855e-04 -1.443334347486e-04 0.0 
-1.443334347486e-04 1.817532010240e-03 0.0 
0.0 0.0 -2.776016825098e-04 
-3.997644766498e-04 4.954726061119e-05 0.0 
4.954726061119e-05 1.673764597630e-03 0.0 
0.0 0.0 -3.031105466646e-04 
-1.276969282696e-03 -1.363061038713e-04 0.0 
-1.363061038713e-04 8.471794626493e-03 0.0 
0.0 0.0 -1.250388265701e-03 
-6.432162703731e-04 5.512102898043e-04 0.0 
5.512102898043e-04 2.885045796034e-03 0.0 
0.0 0.0 -4.811142067971e-04 
-6.884954101540e-04 3.994199898237e-04 0.0 
3.994199898237e-04 3.234457200495e-03 0.0 
0.0 0.0 -5.091556215902e-04 
-1.086615628820e-03 -2.931322765965e-04 0.0 
-2.931322765965e-04 7.458132473520e-03 0.0 
0.0 0.0 -1.210372970477e-03 
-1.022288100468e-03 3.987168263927e-04 0.0 
3.987168263927e-04 6.009421001038e-03 0.0 
0.0 0.0 -9.130988374533e-04 
-1.132573975630e-03 -2.410939857696e-04 0.0 
-2.410939857696e-04 6.073086075411e-03 0.0 
0.0 0.0 -9.179597371190e-04 
-8.591992327558e-04 1.320513177097e-04 0.0 
1.320513177097e-04 4.879471040969e-03 0.0 
0.0 0.0 -7.148082707961e-04 
-1.227939719405e-03 4.897213587292e-04 0.0 
4.897213587292e-04 8.231185118654e-03 0.0 
0.0 0.0 -1.266047838742e-03 
-1.043323281561e-03 -5.190539471628e-05 0.0 
-5.190539471628e-05 6.052750555350e-03 0.0 
0.0 0.0 -9.113908267906e-04 
-1.155289536852e-03 -1.768880545786e-05 0.0 
-1.768880545786e-05 7.700571454284e-03 0.0 
0.0 0.0 -1.237914324842e-03 
3.591818895870e-04 -1.087919908418e-03 0.0 
-1.087919908418e-03 2.306926407283e-04 0.0 
0.0 0.0 -2.528033701351e-04 
-5.253251415500e-05 -7.346267826167e-05 0.0 
-7.346267826167e-05 5.706227414438e-04 0.0 
0.0 0.0 -1.059755802940e-04 
-1.328657286874e-03 4.996781592111e-04 0.0 
4.996781592111e-04 8.531045122136e-03 0.0 
0.0 0.0 -1.261301343383e-03 
-1.246135843572e-03 -2.165566539215e-04 0.0 
-2.165566539215e-04 7.113329539199e-03 0.0 
0.0 0.0 -1.090200430068e-03 
-1.222640564805e-03 -5.172125954847e-04 0.0 
-5.172125954847e-04 8.023175699372e-03 0.0 
0.0 0.0 -1.254989870190e-03 
-1.362336754091e-03 1.038272021812e-04 0.0 
1.038272021812e-04 8.593232231463e-03 0.0 
0.0 0.0 -1.314886350686e-03 
-1.333817909252e-03 -6.741910836282e-04 0.0 
-6.741910836282e-04 8.572481383167e-03 0.0 
0.0 0.0 -1.314653105918e-03 
-1.152787385481e-03 3.395804623759e-04 0.0 
3.395804623759e-04 7.780236807800e-03 0.0 
0.0 0.0 -1.264739017786e-03 
-8.345100331917e-04 -3.032908507100e-04 0.0 
-3.032908507100e-04 4.793915913410e-03 0.0 
0.0 0.0 -7.380763454961e-04 
-8.314689275844e-04 3.674750294880e-04 0.0 
3.674750294880e-04 4.862282802739e-03 0.0 
0.0 0.0 -7.371174501546e-04 
-7.446435526587e-04 2.495366517639e-04 0.0 
2.495366517639e-04 3.730189536197e-03 0.0 
0.0 0.0 -5.794556523337e-04 
-1.240577876015e-03 -2.606603701506e-04 0.0 
-2.606603701506e-04 7.945807599574e-03 0.0 
0.0 0.0 -1.280756488215e-03 
-5.279799311040e-04 1.102170611227e-03 0.0 
1.102170611227e-03 1.773978523889e-03 0.0 
0.0 0.0 -3.207852484642e-04 
-8.673432961900e-04 2.038482856540e-04 0.0 
2.038482856540e-04 4.641456270313e-03 0.0 
0.0 0.0 -7.350059072715e-04 
-1.271467539957e-03 -7.879660805606e-05 0.0 
-7.879660805606e-05 8.302426141521e-03 0.0 
0.0 0.0 -1.212858513926e-03 
-5.775885694842e-04 8.848405614820e-04 0.0 
8.848405614820e-04 1.777381832978e-03 0.0 
0.0 0.0 -3.198426158856e-04 
2.130878448261e-04 -2.803383724960e-04 0.0 
-2.803383724960e-04 -1.640750498910e-05 0.0 
0.0 0.0 -8.429157421588e-05 
-1.252952730617e-03 9.194498370430e-05 0.0 
9.194498370430e-05 8.113365198973e-03 0.0 
0.0 0.0 -1.234743356787e-03 
1.618564024128e-06 -4.086337075161e-06 0.0 
-4.086337075161e-06 6.435399236568e-07 0.0 
0.0 0.0 -9.694731204794e-07 
-9.377652680597e-04 -7.279277581159e-05 0.0 
-7.279277581159e-05 5.473641853479e-03 0.0 
0.0 0.0 -8.229436299569e-04 
-7.184238485782e-04 3.283816114982e-04 0.0 
3.283816114982e-04 3.500159598670e-03 0.0 
0.0 0.0 -5.440916476828e-04 
-4.407403860860e-04 -1.000193585770e-04 0.0 
-1.000193585770e-04 2.276874889741e-03 0.0 
0.0 0.0 -3.443810396916e-04 
3.693556118723e-04 -1.150080954677e-03 0.0 
-1.150080954677e-03 2.564828416198e-04 0.0 
0.0 0.0 -2.682164800680e-04 
-6.981340931129e-04 4.826618162809e-04 0.0 
4.826618162809e-04 3.375109354798e-03 0.0 
0.0 0.0 -5.489460876789e-04 
-1.294047200749e-03 3.426820678350e-04 0.0 
3.426820678350e-04 8.360890520438e-03 0.0 
0.0 0.0 -1.282189168212e-03 
-6.426921289281e-04 -2.477141885566e-04 0.0 
-2.477141885566e-04 2.972149177427e-03 0.0 
0.0 0.0 -4.512233509908e-04 
-5.071100590753e-04 7.724547813732e-05 0.0 
7.724547813732e-05 2.167123717160e-03 0.0 
0.0 0.0 -3.694212080277e-04 
-1.248804674603e-03 1.204053078386e-04 0.0 
1.204053078386e-04 7.152497866114e-03 0.0 
0.0 0.0 -1.087734043503e-03 
-2.199405617637e-04 -6.207470745057e-05 0.0 
-6.207470745057e-05 1.342683867831e-03 0.0 
0.0 0.0 -2.189683579105e-04 
-1.315587936217e-03 -1.318704737137e-04 0.0 
-1.318704737137e-04 8.629398526663e-03 0.0 
0.0 0.0 -1.285320035817e-03 
0.0 0.0 0.0 
0.0 0.0 0.0 
0.0 0.0 0.0 
-1.104248090582e-03 6.042449065024e-04 0.0 
6.042449065024e-04 7.502345308807e-03 0.0 
0.0 0.0 -1.210824713543e-03 
-6.118289487359e-04 1.052783847498e-03 0.0 
1.052783847498e-03 3.133960488999e-03 0.0 
0.0 0.0 -5.497085007362e-04 
3.930006713422e-04 -1.150166211052e-03 0.0 
-1.150166211052e-03 2.323329664583e-04 0.0 
0.0 0.0 -2.680001304859e-04 
-1.319367167403e-03 -3.421260873299e-04 0.0 
-3.421260873299e-04 8.223808012733e-03 0.0 
0.0 0.0 -1.257478522087e-03 
-6.824305458781e-04 5.038519007458e-04 0.0 
5.038519007458e-04 3.122644429912e-03 0.0 
0.0 0.0 -5.137572693775e-04 
0.0 0.0 0.0 
0.0 0.0 0.0 
0.0 0.0 0.0 
-1.302579274791e-03 3.856077973971e-04 0.0 
3.856077973971e-04 8.474035595977e-03 0.0 
0.0 0.0 -1.261660853087e-03 
-3.055720632183e-04 -1.064577386819e-03 0.0 
-1.064577386819e-03 1.239084830307e-03 0.0 
0.0 0.0 -3.052032381971e-04 
-1.275451108923e-03 4.835577884085e-04 0.0 
4.835577884085e-04 8.123671911160e-03 0.0 
0.0 0.0 -1.282376455277e-03 
-1.145904955508e-03 -3.118374997867e-04 0.0 
-3.118374997867e-04 6.272168097955e-03 0.0 
0.0 0.0 -9.556290573178e-04 
-1.338499280800e-03 2.408371898962e-04 0.0 
2.408371898962e-04 8.775782511843e-03 0.0 
0.0 0.0 -1.338499280800e-03 
-1.192625588921e-03 4.461210467852e-04 0.0 
4.461210467852e-04 7.634783606740e-03 0.0 
0.0 0.0 -1.232909111256e-03 
-2.127254236185e-05 1.891430361426e-04 0.0 
1.891430361426e-04 5.160571140730e-04 0.0 
0.0 0.0 -1.295286970291e-04 
-6.935849542252e-04 2.344127444435e-05 0.0 
2.344127444435e-05 2.990888035910e-03 0.0 
0.0 0.0 -4.777371989943e-04 
-1.295701123542e-03 1.509088819434e-05 0.0 
1.509088819434e-05 8.469943460322e-03 0.0 
0.0 0.0 -1.262626981217e-03 
-1.324502073679e-03 3.744328644392e-04 0.0 
3.744328644392e-04 8.596934185840e-03 0.0 
0.0 0.0 -1.265352048664e-03 
-2.411922616665e-04 1.053006289260e-03 0.0 
1.053006289260e-03 1.157414957781e-03 0.0 
0.0 0.0 -3.599094611647e-04 
-2.769907565586e-04 -8.829481836090e-05 0.0 
-8.829481836090e-05 1.134623594574e-03 0.0 
0.0 0.0 -2.366757893512e-04 
-2.181753936334e-04 1.161392611074e-03 0.0 
1.161392611074e-03 1.149876313961e-03 0.0 
0.0 0.0 -3.564703237892e-04 
-2.758740996359e-04 -8.746279552454e-04 0.0 
-8.746279552454e-04 1.152039496951e-03 0.0 
0.0 0.0 -3.439500825601e-04 
-8.978965614641e-04 9.154439014956e-05 0.0 
9.154439014956e-05 5.029293334098e-03 0.0 
0.0 0.0 -7.918363975426e-04 
-6.733819819602e-04 4.712092501630e-04 0.0 
4.712092501630e-04 3.018715837704e-03 0.0 
0.0 0.0 -4.749402310763e-04 
-6.256408849580e-04 5.270574211380e-04 0.0 
5.270574211380e-04 2.559551606748e-03 0.0 
0.0 0.0 -4.438329512050e-04 
-9.725152992593e-04 -1.918915712341e-04 0.0 
-1.918915712341e-04 5.553894553160e-03 0.0 
0.0 0.0 -8.336771054075e-04 
-9.515395304919e-04 2.688463451821e-04 0.0 
2.688463451821e-04 5.521722972354e-03 0.0 
0.0 0.0 -8.358076868167e-04 
-1.183410575090e-03 -2.693387168119e-04 0.0 
-2.693387168119e-04 6.452199734420e-03 0.0 
0.0 0.0 -9.867109252839e-04 
-1.231001359755e-03 1.776752657648e-04 0.0 
1.776752657648e-04 6.972617785685e-03 0.0 
0.0 0.0 -1.058576829647e-03 
-1.159508113008e-03 2.069980553471e-04 0.0 
2.069980553471e-04 7.153965750682e-03 0.0 
0.0 0.0 -1.085941371602e-03 
-9.167398449037e-04 -2.379223024375e-04 0.0 
-2.379223024375e-04 5.214431434648e-03 0.0 
0.0 0.0 -7.983229688164e-04 
-9.629239381275e-05 -7.847678025284e-05 0.0 
-7.847678025284e-05 3.293444492904e-04 0.0 
0.0 0.0 -9.987945234756e-05 
-9.298280525188e-04 1.832074445445e-04 0.0 
1.832074445445e-04 5.072594773826e-03 0.0 
0.0 0.0 -7.928983479555e-04 
-1.152068192651e-03 -8.618068735251e-05 0.0 
-8.618068735251e-05 7.066072062095e-03 0.0 
0.0 0.0 -1.069439317440e-03 
-1.125567912536e-03 1.438213412546e-04 0.0 
1.438213412546e-04 7.130378012797e-03 0.0 
0.0 0.0 -1.046447409317e-03 
-1.354248964991e-03 2.488047583645e-04 0.0 
2.488047583645e-04 9.041954327214e-03 0.0 
0.0 0.0 -1.319970921405e-03 
-1.236862548615e-03 6.047335938228e-05 0.0 
6.047335938228e-05 8.106142459015e-03 0.0 
0.0 0.0 -1.294194962782e-03 
-9.013588349204e-04 -3.564785080674e-05 0.0 
-3.564785080674e-05 5.032133509131e-03 0.0 
0.0 0.0 -7.889745663688e-04 
-1.254766552398e-03 -3.118115606911e-04 0.0 
-3.118115606911e-04 8.236373731402e-03 0.0 
0.0 0.0 -1.263183913703e-03 
-9.880175404899e-04 -1.466486724576e-04 0.0 
-1.466486724576e-04 5.952185502159e-03 0.0 
0.0 0.0 -9.040008563810e-04 
-6.291314004619e-04 6.895076894316e-04 0.0 
6.895076894316e-04 3.149500208419e-03 0.0 
0.0 0.0 -5.198799001330e-04 
-8.730449846052e-04 -1.408519575968e-04 0.0 
-1.408519575968e-04 5.083535477325e-03 0.0 
0.0 0.0 -7.643292725053e-04 
-1.347992785810e-03 5.931491654167e-05 0.0 
5.931491654167e-05 8.400156878011e-03 0.0 
0.0 0.0 -1.287517816355e-03 
-8.262228282774e-04 1.447902815746e-04 0.0 
1.447902815746e-04 6.297334361413e-03 0.0 
0.0 0.0 -1.043751955586e-03 
-1.104569420112e-03 1.448019849648e-04 0.0 
1.448019849648e-04 7.556047747294e-03 0.0 
0.0 0.0 -1.209599240962e-03 
-4.538367894760e-04 9.757826283503e-04 0.0 
9.757826283503e-04 2.565554738313e-03 0.0 
0.0 0.0 -4.747543016519e-04 
2.029884590449e-04 -8.599336091252e-04 0.0 
-8.599336091252e-04 2.611091082078e-04 0.0 
0.0 0.0 -1.988989573940e-04 
-1.297459135418e-03 -2.747475562559e-04 0.0 
-2.747475562559e-04 7.787009671767e-03 0.0 
0.0 0.0 -1.189902873528e-03 
-1.189086276409e-03 1.093944519264e-04 0.0 
1.093944519264e-04 7.587261230545e-03 0.0 
0.0 0.0 -1.108790581071e-03 
7.624507231963e-05 -2.164748674539e-04 0.0 
-2.164748674539e-04 4.178589710884e-05 0.0 
0.0 0.0 -5.058470118363e-05 
-1.283662232086e-03 -3.116749921630e-04 0.0 
-3.116749921630e-04 8.203749873262e-03 0.0 
0.0 0.0 -1.285127980003e-03 
-1.117454671525e-03 5.890310527375e-04 0.0 
5.890310527375e-04 6.771147145683e-03 0.0 
0.0 0.0 -1.051491716222e-03 
2.129630744421e-04 -9.499020889305e-05 0.0 
-9.499020889305e-05 2.730652041404e-04 0.0 
0.0 0.0 -1.433710470045e-04 
-4.646091997464e-04 1.130911332871e-03 0.0 
1.130911332871e-03 3.315295093012e-03 0.0 
0.0 0.0 -6.309931931857e-04 
-8.659480951891e-04 9.706201231431e-05 0.0 
9.706201231431e-05 4.691930850523e-03 0.0 
0.0 0.0 -7.153918394734e-04 
-8.128195131981e-04 -2.696429011542e-04 0.0 
-2.696429011542e-04 3.582326768313e-03 0.0 
0.0 0.0 -5.772375537024e-04 
-5.795319369569e-04 9.930078575254e-04 0.0 
9.930078575254e-04 2.722691248666e-03 0.0 
0.0 0.0 -4.852398935310e-04 
-5.900753072712e-04 6.920056491215e-04 0.0 
6.920056491215e-04 3.182816884513e-03 0.0 
0.0 0.0 -5.471823052058e-04 
-1.301859315623e-03 -1.904737940513e-04 0.0 
-1.904737940513e-04 8.142812636608e-03 0.0 
0.0 0.0 -1.283833066805e-03 
-9.523212659311e-04 1.958273368285e-04 0.0 
1.958273368285e-04 5.865970295395e-03 0.0 
0.0 0.0 -8.766975940251e-04 
-5.541698138184e-04 1.190551615049e-03 0.0 
1.190551615049e-03 2.836925707114e-03 0.0 
0.0 0.0 -5.122473358773e-04 
-4.084206622420e-04 -7.278847424947e-04 0.0 
-7.278847424947e-04 1.354708172608e-03 0.0 
0.0 0.0 -2.295267891405e-04 
-9.046551402062e-04 3.103540058347e-04 0.0 
3.103540058347e-04 5.221480629983e-03 0.0 
0.0 0.0 -7.744920945421e-04 
-1.163420538902e-03 -6.301653344554e-05 0.0 
-6.301653344554e-05 7.412623996309e-03 0.0 
0.0 0.0 -1.129288753466e-03 
-5.271843801054e-04 7.884919210617e-04 0.0 
7.884919210617e-04 2.864417005275e-03 0.0 
0.0 0.0 -5.109724225979e-04 
5.534592465795e-05 9.039028363928e-04 0.0 
9.039028363928e-04 4.831251439840e-04 0.0 
0.0 0.0 -2.307733151323e-04 
-8.073832098114e-04 1.503125105248e-04 0.0 
1.503125105248e-04 4.217521397372e-03 0.0 
0.0 0.0 -6.470401313398e-04 
-8.043937078593e-04 -1.245165173277e-04 0.0 
-1.245165173277e-04 3.751204721582e-03 0.0 
0.0 0.0 -5.578851714504e-04 
-7.622885537649e-04 4.316670476422e-04 0.0 
4.316670476422e-04 3.890857300125e-03 0.0 
0.0 0.0 -6.167189930163e-04 
-1.313795093192e-03 3.745855682538e-04 0.0 
3.745855682538e-04 8.614675897131e-03 0.0 
0.0 0.0 -1.290671971449e-03 
1.991130479106e-04 9.381873505590e-04 0.0 
9.381873505590e-04 3.095528624407e-04 0.0 
0.0 0.0 -2.179996758648e-04 
-1.118912346163e-03 3.069253467211e-05 0.0 
3.069253467211e-05 5.953637467028e-03 0.0 
0.0 0.0 -9.216843799351e-04 
-1.302832962065e-03 2.769223245220e-04 0.0 
2.769223245220e-04 8.470819943817e-03 0.0 
0.0 0.0 -1.256690274141e-03 
-7.596340248727e-04 7.382796594352e-04 0.0 
7.382796594352e-04 4.031537584483e-03 0.0 
0.0 0.0 -6.588732905211e-04 
-7.779772953584e-04 1.836806670251e-04 0.0 
1.836806670251e-04 3.983301519145e-03 0.0 
0.0 0.0 -6.139229799761e-04 
-1.231803605678e-03 -5.782093166128e-05 0.0 
-5.782093166128e-05 8.028152931577e-03 0.0 
0.0 0.0 -1.254964138299e-03 
-1.328106245368e-03 -3.359343714767e-04 0.0 
-3.359343714767e-04 8.269862829300e-03 0.0 
0.0 0.0 -1.261070974318e-03 
-1.177616370787e-03 5.503788424212e-05 0.0 
5.503788424212e-05 6.447345049328e-03 0.0 
0.0 0.0 -9.873713238705e-04 
-7.975389004980e-04 3.851368616877e-04 0.0 
3.851368616877e-04 4.370903509068e-03 0.0 
0.0 0.0 -6.916138708610e-04 
-1.195768822005e-03 -1.347190958518e-04 0.0 
-1.347190958518e-04 8.136693957771e-03 0.0 
0.0 0.0 -1.270330610962e-03 
-7.600104695776e-04 6.621541633523e-04 0.0 
6.621541633523e-04 3.915062890853e-03 0.0 
0.0 0.0 -6.326048069937e-04 
-1.276977184880e-03 1.361446544635e-04 0.0 
1.361446544635e-04 8.444479482518e-03 0.0 
0.0 0.0 -1.283174495648e-03 
-1.281656246909e-03 5.918270400850e-04 0.0 
5.918270400850e-04 8.394460336114e-03 0.0 
0.0 0.0 -1.267437373369e-03 
-9.916900482218e-04 -1.353869196216e-04 0.0 
-1.353869196216e-04 5.594925371490e-03 0.0 
0.0 0.0 -8.543707170918e-04 
-1.059679930627e-03 2.378363673836e-04 0.0 
2.378363673836e-04 6.573353481791e-03 0.0 
0.0 0.0 -9.817831382938e-04 
-7.605699351815e-04 3.748556655775e-04 0.0 
3.748556655775e-04 3.967103975153e-03 0.0 
0.0 0.0 -6.293189184696e-04 
-7.420000060583e-04 4.704307559795e-04 0.0 
4.704307559795e-04 3.646692949105e-03 0.0 
0.0 0.0 -5.830241378053e-04 
-8.001161774359e-04 7.418992546282e-04 0.0 
7.418992546282e-04 4.429271101410e-03 0.0 
0.0 0.0 -7.211932326589e-04 
-4.509036314279e-04 9.161005774141e-04 0.0 
9.161005774141e-04 2.969896787124e-03 0.0 
0.0 0.0 -5.383041810906e-04 
-8.768683131663e-04 -1.698577199285e-04 0.0 
-1.698577199285e-04 5.218733852389e-03 0.0 
0.0 0.0 -7.693993191400e-04 
-3.984078038155e-04 7.031353492297e-04 0.0 
7.031353492297e-04 3.390130310364e-03 0.0 
0.0 0.0 -6.275039421266e-04 
-8.830553488541e-05 -1.169663280731e-04 0.0 
-1.169663280731e-04 3.137961635653e-04 0.0 
0.0 0.0 -9.663884086279e-05 
-9.202478516251e-04 -5.770930012148e-06 0.0 
-5.770930012148e-06 5.620779502953e-03 0.0 
0.0 0.0 -8.171079392438e-04 
-3.114395398576e-04 -3.263303537109e-05 0.0 
-3.263303537109e-05 1.213615237241e-03 0.0 
0.0 0.0 -2.373169254524e-04 
-8.400103073364e-04 1.183268532165e-04 0.0 
1.183268532165e-04 4.465364634510e-03 0.0 
0.0 0.0 -6.809683978454e-04 
-1.226720591274e-03 -2.033245432446e-04 0.0 
-2.033245432446e-04 7.901279716244e-03 0.0 
0.0 0.0 -1.284796145094e-03 
-5.032521871548e-04 1.323397128945e-03 0.0 
1.323397128945e-03 2.524146629484e-03 0.0 
0.0 0.0 -4.767992880414e-04 
-1.206015416419e-03 1.351161918146e-04 0.0 
1.351161918146e-04 6.706761080456e-03 0.0 
0.0 0.0 -1.021089721936e-03 
-5.854397783758e-04 6.900577011398e-04 0.0 
6.900577011398e-04 2.034319527358e-03 0.0 
0.0 0.0 -3.540742325023e-04 
-8.487428613626e-04 6.354315705334e-04 0.0 
6.354315705334e-04 6.259047629254e-03 0.0 
0.0 0.0 -1.044905595188e-03 
-9.023795236384e-04 1.774952439286e-05 0.0 
1.774952439286e-05 5.056579998417e-03 0.0 
0.0 0.0 -7.899655494116e-04 
-3.675306969511e-04 1.198984270489e-03 0.0 
1.198984270489e-03 2.958001668599e-03 0.0 
0.0 0.0 -5.931463391684e-04 
-1.266256333575e-03 -2.932543747909e-04 0.0 
-2.932543747909e-04 7.348938270472e-03 0.0 
0.0 0.0 -1.120963572432e-03 
-3.905834582402e-04 -4.908595614848e-04 0.0 
-4.908595614848e-04 1.232002034576e-03 0.0 
0.0 0.0 -2.722262904030e-04 
-1.289444217002e-03 1.239965470747e-04 0.0 
1.239965470747e-04 7.777003841897e-03 0.0 
0.0 0.0 -1.189111243166e-03 
-9.083262515729e-04 4.866804809917e-04 0.0 
4.866804809917e-04 4.963586243701e-03 0.0 
0.0 0.0 -7.711223959738e-04 
-1.340203078278e-03 -2.129693675799e-04 0.0 
-2.129693675799e-04 8.439560912258e-03 0.0 
0.0 0.0 -1.265987209193e-03 
-8.868772565119e-04 2.877464608834e-05 0.0 
2.877464608834e-05 5.056912107765e-03 0.0 
0.0 0.0 -7.842605076999e-04 
-4.245977401382e-04 1.301715382003e-03 0.0 
1.301715382003e-03 2.484999694538e-03 0.0 
0.0 0.0 -5.042822341261e-04 
-8.141088315077e-04 3.778227072886e-04 0.0 
3.778227072886e-04 4.370548075301e-03 0.0 
0.0 0.0 -6.840799553763e-04 
-1.128956121950e-03 -1.816355743224e-04 0.0 
-1.816355743224e-04 5.879621026637e-03 0.0 
0.0 0.0 -8.722824885218e-04 
-5.657686865338e-04 1.006813399921e-03 0.0 
1.006813399921e-03 2.114854539436e-03 0.0 
0.0 0.0 -3.514598124168e-04 
-2.840077947560e-04 7.374002385130e-04 0.0 
7.374002385130e-04 3.016923521918e-03 0.0 
0.0 0.0 -5.911455407098e-04 
-1.107826402130e-03 -1.895219266089e-04 0.0 
-1.895219266089e-04 6.838398808500e-03 0.0 
0.0 0.0 -1.016465148841e-03 
-8.846022414820e-04 1.673369808483e-04 0.0 
1.673369808483e-04 5.274165376609e-03 0.0 
0.0 0.0 -7.680022369673e-04 
-4.363801896578e-04 1.202422263910e-03 0.0 
1.202422263910e-03 2.876866297868e-03 0.0 
0.0 0.0 -5.666226778950e-04 
-8.017363352442e-04 3.924823248397e-04 0.0 
3.924823248397e-04 4.130177357856e-03 0.0 
0.0 0.0 -6.498546761489e-04 
-1.141214369151e-03 6.765310758862e-04 0.0 
6.765310758862e-04 7.271411604946e-03 0.0 
0.0 0.0 -1.136725521675e-03 
-8.548535662047e-04 -2.781485263044e-04 0.0 
-2.781485263044e-04 4.164865359686e-03 0.0 
0.0 0.0 -6.189190723244e-04 
-1.237707508229e-03 4.856674807990e-04 0.0 
4.856674807990e-04 7.956457412847e-03 0.0 
0.0 0.0 -1.285202198870e-03 
-1.271584492805e-03 4.859423083683e-04 0.0 
4.859423083683e-04 8.362652585957e-03 0.0 
0.0 0.0 -1.265486236287e-03 
-6.208228587870e-04 6.861521722427e-04 0.0 
6.861521722427e-04 2.794482215749e-03 0.0 
0.0 0.0 -4.595713030950e-04 
-8.601834141272e-04 -1.130024456241e-04 0.0 
-1.130024456241e-04 3.988529893684e-03 0.0 
0.0 0.0 -6.385407451345e-04 
-9.728705791535e-04 -2.427476520657e-04 0.0 
-2.427476520657e-04 7.014843591236e-03 0.0 
0.0 0.0 -1.152822474774e-03 
-7.582637832037e-04 3.173029778375e-04 0.0 
3.173029778375e-04 3.850177976745e-03 0.0 
0.0 0.0 -6.037256927378e-04 
-5.932602371824e-04 9.450171731982e-04 0.0 
9.450171731982e-04 2.345539596427e-03 0.0 
0.0 0.0 -4.251746348339e-04 
-8.883854653183e-04 4.319931064094e-04 0.0 
4.319931064094e-04 4.807571306798e-03 0.0 
0.0 0.0 -7.443430781256e-04 
-4.655628622191e-04 8.097546048135e-04 0.0 
8.097546048135e-04 3.367415080588e-03 0.0 
0.0 0.0 -6.011186688906e-04 
-1.309467600587e-03 2.274324864678e-04 0.0 
2.274324864678e-04 8.467271508597e-03 0.0 
0.0 0.0 -1.279059907835e-03 
-1.139712663312e-03 5.524271265546e-04 0.0 
5.524271265546e-04 6.895093066062e-03 0.0 
0.0 0.0 -1.060691896764e-03 
-1.282894195515e-03 1.713163621167e-04 0.0 
1.713163621167e-04 7.580646218946e-03 0.0 
0.0 0.0 -1.155968210243e-03 
-4.263760736077e-04 9.726189065638e-04 0.0 
9.726189065638e-04 1.483303861492e-03 0.0 
0.0 0.0 -3.328149423972e-04 
-1.567783780417e-04 7.459959337790e-04 0.0 
7.459959337790e-04 2.633807870816e-03 0.0 
0.0 0.0 -5.558335581882e-04 
-1.150277857659e-03 5.855176210150e-04 0.0 
5.855176210150e-04 7.056066340815e-03 0.0 
0.0 0.0 -1.089453766084e-03 
0.0 0.0 0.0 
0.0 0.0 0.0 
0.0 0.0 0.0 
-7.560981228119e-04 5.568058696449e-04 0.0 
5.568058696449e-04 3.796632807166e-03 0.0 
0.0 0.0 -6.073871274648e-04 
-8.851342185419e-04 -4.312210323728e-04 0.0 
-4.312210323728e-04 6.519433320506e-03 0.0 
0.0 0.0 -1.080675545910e-03 
-1.164869828715e-04 -1.456841600207e-04 0.0 
-1.456841600207e-04 9.923335266216e-04 0.0 
0.0 0.0 -1.605608400042e-04 
-1.274326596506e-03 6.277067703956e-04 0.0 
6.277067703956e-04 8.332587857653e-03 0.0 
0.0 0.0 -1.257517519450e-03 
-1.082557255636e-03 4.467183423513e-04 0.0 
4.467183423513e-04 6.398503814141e-03 0.0 
0.0 0.0 -9.749624431058e-04 
-5.927975267284e-04 -7.287134833264e-04 0.0 
-7.287134833264e-04 3.408230795765e-03 0.0 
0.0 0.0 -5.995223474422e-04 
-8.718953006962e-04 8.285847793953e-05 0.0 
8.285847793953e-05 6.481498684251e-03 0.0 
0.0 0.0 -1.082135573042e-03 
-9.644421873602e-04 1.848918456793e-04 0.0 
1.848918456793e-04 5.622214910538e-03 0.0 
0.0 0.0 -8.259898420369e-04 
-9.976541713563e-04 8.643209894894e-06 0.0 
8.643209894894e-06 5.944166007327e-03 0.0 
0.0 0.0 -8.838609275114e-04 
-1.149666595734e-03 -3.245227479459e-04 0.0 
-3.245227479459e-04 7.662117469895e-03 0.0 
0.0 0.0 -1.237791025003e-03 
-6.377976835771e-04 -6.114567573414e-04 0.0 
-6.114567573414e-04 2.689173763955e-03 0.0 
0.0 0.0 -4.583583101839e-04 
-7.880409547895e-04 7.989113980148e-04 0.0 
7.989113980148e-04 4.542855302031e-03 0.0 
0.0 0.0 -7.480401524272e-04 
-9.214234162491e-04 5.351887786335e-04 0.0 
5.351887786335e-04 5.111262659093e-03 0.0 
0.0 0.0 -7.988399675000e-04 
-1.125534786672e-03 7.028976634264e-05 0.0 
7.028976634264e-05 6.721724443554e-03 0.0 
0.0 0.0 -1.008548823165e-03 
-9.505406595461e-04 1.355801735478e-04 0.0 
1.355801735478e-04 5.273089753614e-03 0.0 
0.0 0.0 -8.035999206669e-04 
-8.920793708860e-04 1.354006487991e-04 0.0 
1.354006487991e-04 4.845817227354e-03 0.0 
0.0 0.0 -7.415510827328e-04 
-6.524274381720e-04 1.661117945530e-04 0.0 
1.661117945530e-04 5.489508378744e-03 0.0 
0.0 0.0 -9.414312740916e-04 
-1.133549865804e-03 2.632851943964e-04 0.0 
2.632851943964e-04 7.143578184647e-03 0.0 
0.0 0.0 -1.105110859848e-03 
0.0 0.0 0.0 
0.0 0.0 0.0 
0.0 0.0 0.0 
-5.963424256803e-04 8.235655420392e-04 0.0 
8.235655420392e-04 2.727118741511e-03 0.0 
0.0 0.0 -4.649757541953e-04 
-6.413935052421e-04 9.083237096948e-04 0.0 
9.083237096948e-04 3.060885376631e-03 0.0 
0.0 0.0 -5.249394872960e-04 
-7.860598654059e-04 4.409893248632e-04 0.0 
4.409893248632e-04 4.491993588337e-03 0.0 
0.0 0.0 -7.181710532390e-04 
-1.182550884137e-03 1.586567680609e-04 0.0 
1.586567680609e-04 7.254490089636e-03 0.0 
0.0 0.0 -1.095076276885e-03 
4.583279132942e-04 6.488863092727e-04 0.0 
6.488863092727e-04 -1.405418918228e-05 0.0 
0.0 0.0 -1.904030246194e-04 
-8.562318666799e-04 -4.982168400307e-04 0.0 
-4.982168400307e-04 6.277290697447e-03 0.0 
0.0 0.0 -1.043355442177e-03 
-8.774345447710e-04 -2.186708792855e-04 0.0 
-2.186708792855e-04 5.055368522856e-03 0.0 
0.0 0.0 -7.763349569542e-04 
-2.555112241128e-04 1.229664321452e-03 0.0 
1.229664321452e-03 2.574406854457e-03 0.0 
0.0 0.0 -5.576783925304e-04 
-8.394427967850e-04 -5.648718734432e-04 0.0 
-5.648718734432e-04 6.055308780542e-03 0.0 
0.0 0.0 -1.006238978475e-03 
-7.021339785738e-05 -2.257880490566e-04 0.0 
-2.257880490566e-04 5.234298020475e-04 0.0 
0.0 0.0 -1.250635456846e-04 
-1.135452312747e-03 4.797857508759e-04 0.0 
4.797857508759e-04 6.834881249119e-03 0.0 
0.0 0.0 -1.040010908530e-03 
8.624072222387e-05 -5.482403482058e-05 0.0 
-5.482403482058e-05 4.623552898900e-04 0.0 
0.0 0.0 -1.166360257537e-04 
-1.840491842350e-04 -5.445744923588e-05 0.0 
-5.445744923588e-05 7.493422687288e-04 0.0 
0.0 0.0 -1.819418517600e-04 
-3.913654307844e-04 1.191507394513e-03 0.0 
1.191507394513e-03 1.470311877001e-03 0.0 
0.0 0.0 -3.246947309473e-04 
-6.091026736672e-04 -6.117663185554e-04 0.0 
-6.117663185554e-04 2.275310364661e-03 0.0 
0.0 0.0 -3.935955730116e-04 
-1.177121720242e-03 9.986808741325e-05 0.0 
9.986808741325e-05 7.155425965963e-03 0.0 
0.0 0.0 -1.073797489760e-03 
-5.625078577902e-04 -9.911531115061e-04 0.0 
-9.911531115061e-04 2.166295973773e-03 0.0 
0.0 0.0 -3.637595386041e-04 
-2.431075708166e-04 1.562437016590e-03 0.0 
1.562437016590e-03 1.376800568989e-03 0.0 
0.0 0.0 -3.890718233399e-04 
1.128852675938e-04 -1.510947419960e-03 0.0 
-1.510947419960e-03 7.754974600039e-04 0.0 
0.0 0.0 -3.807354546848e-04 
-5.007957256990e-04 -4.054148446658e-04 0.0 
-4.054148446658e-04 1.463133010542e-03 0.0 
0.0 0.0 -2.670040094673e-04 
-9.159310068134e-04 1.166570594862e-04 0.0 
1.166570594862e-04 6.711157580750e-03 0.0 
0.0 0.0 -1.117524173959e-03 
-9.108885203266e-04 1.625635707661e-04 0.0 
1.625635707661e-04 5.002433540525e-03 0.0 
0.0 0.0 -7.687972329812e-04 
-1.323980336649e-03 7.113171737239e-05 0.0 
7.113171737239e-05 8.245489008711e-03 0.0 
0.0 0.0 -1.256743614961e-03 
0.0 0.0 0.0 
0.0 0.0 0.0 
0.0 0.0 0.0 
-3.330839468946e-04 1.604359709376e-03 0.0 
1.604359709376e-03 1.727019779997e-03 0.0 
0.0 0.0 -4.044045206172e-04 
-3.067142002033e-04 1.081368075103e-03 0.0 
1.081368075103e-03 3.044773964149e-03 0.0 
0.0 0.0 -6.230907113744e-04 
-7.160262700323e-04 6.408733665596e-04 0.0 
6.408733665596e-04 3.506266837881e-03 0.0 
0.0 0.0 -5.709397776106e-04 
-8.360378415299e-04 -1.180231066696e-05 0.0 
-1.180231066696e-05 6.234265106431e-03 0.0 
0.0 0.0 -1.045235091131e-03 
-1.333473067012e-03 -5.395820062031e-05 0.0 
-5.395820062031e-05 8.405361436706e-03 0.0 
0.0 0.0 -1.275930989368e-03 
-1.131889764436e-03 1.436010865761e-04 0.0 
1.436010865761e-04 6.812686989612e-03 0.0 
0.0 0.0 -1.029499106509e-03 
5.269662907404e-05 8.913991735483e-04 0.0 
8.913991735483e-04 1.741226620489e-03 0.0 
0.0 0.0 -4.564841486881e-04 
-9.276981546427e-04 -3.123244619600e-04 0.0 
-3.123244619600e-04 6.731635440410e-03 0.0 
0.0 0.0 -1.116166892424e-03 
-1.162987388940e-03 1.784362897977e-04 0.0 
1.784362897977e-04 6.231822734238e-03 0.0 
0.0 0.0 -9.512440159151e-04 
-8.362061665926e-04 3.771233097708e-04 0.0 
3.771233097708e-04 4.773003845214e-03 0.0 
0.0 0.0 -7.537083776970e-04 
-1.102280810414e-03 4.919717221224e-04 0.0 
4.919717221224e-04 6.560511914991e-03 0.0 
0.0 0.0 -1.003200534345e-03 
-1.172867451038e-03 2.356902410022e-04 0.0 
2.356902410022e-04 7.744999640819e-03 0.0 
0.0 0.0 -1.239730878702e-03 
-2.254924367538e-04 5.849015682570e-04 0.0 
5.849015682570e-04 3.115409937203e-03 0.0 
0.0 0.0 -6.206208101913e-04 
-3.928189268474e-04 1.275344444358e-03 0.0 
1.275344444358e-03 1.843263560049e-03 0.0 
0.0 0.0 -3.752687577596e-04 
-9.992253787165e-04 1.463025209614e-04 0.0 
1.463025209614e-04 5.687199852232e-03 0.0 
0.0 0.0 -8.662621843288e-04 
-1.349788229223e-03 3.426545086550e-04 0.0 
3.426545086550e-04 9.036920857709e-03 0.0 
0.0 0.0 -1.323568725688e-03 
-7.650406542385e-04 4.751592665984e-04 0.0 
4.751592665984e-04 4.601158149833e-03 0.0 
0.0 0.0 -7.453270327204e-04 
-3.775537039009e-04 2.220958575008e-04 0.0 
2.220958575008e-04 4.208109464666e-03 0.0 
0.0 0.0 -7.768443034385e-04 
-9.417507759690e-04 -3.219991258082e-05 0.0 
-3.219991258082e-05 5.716819141930e-03 0.0 
0.0 0.0 -8.293613651800e-04 
-1.509886751970e-04 -1.135282332652e-03 0.0 
-1.135282332652e-03 1.017427284165e-03 0.0 
0.0 0.0 -3.579782397794e-04 
-9.508294649731e-04 4.627212186017e-04 0.0 
4.627212186017e-04 5.212868888400e-03 0.0 
0.0 0.0 -8.060563724883e-04 
-7.773528700208e-05 1.427065922566e-03 0.0 
1.427065922566e-03 1.665502982993e-03 0.0 
0.0 0.0 -4.590591740919e-04 
3.797527258111e-04 1.020114754415e-03 0.0 
1.020114754415e-03 1.842831286956e-04 0.0 
0.0 0.0 -2.417296519314e-04 
4.052395816326e-04 -6.135338758200e-04 0.0 
-6.135338758200e-04 -1.137161459370e-06 0.0 
0.0 0.0 -1.731867515028e-04 
-1.167546277040e-03 4.626490460642e-04 0.0 
4.626490460642e-04 7.101376568989e-03 0.0 
0.0 0.0 -1.075985979751e-03 
-9.623797546726e-04 1.845333678616e-04 0.0 
1.845333678616e-04 5.429528329259e-03 0.0 
0.0 0.0 -8.312490730234e-04 
-5.046075129470e-04 1.194499845990e-03 0.0 
1.194499845990e-03 2.882799900291e-03 0.0 
0.0 0.0 -5.429493831729e-04 
-1.206327788760e-03 8.269099761282e-05 0.0 
8.269099761282e-05 7.415962584707e-03 0.0 
0.0 0.0 -1.109763131677e-03 
-1.142751356386e-03 1.744200963682e-04 0.0 
1.744200963682e-04 6.974478761757e-03 0.0 
0.0 0.0 -1.057773507355e-03 
-8.833943353455e-04 3.220642776102e-04 0.0 
3.220642776102e-04 5.046401869676e-03 0.0 
0.0 0.0 -7.887050335656e-04 
-1.278006429871e-03 -2.029556331096e-04 0.0 
-2.029556331096e-04 8.153709597249e-03 0.0 
0.0 0.0 -1.288412101370e-03 
-4.271610777015e-04 5.562024212731e-04 0.0 
5.562024212731e-04 4.316314637617e-03 0.0 
0.0 0.0 -8.078958932737e-04 
-9.266589239438e-04 2.700924202998e-04 0.0 
2.700924202998e-04 5.312918686649e-03 0.0 
0.0 0.0 -8.238265297874e-04 
-4.963470151794e-04 6.905692722870e-04 0.0 
6.905692722870e-04 3.767490595173e-03 0.0 
0.0 0.0 -6.656476441012e-04 
-4.749686160319e-04 1.532444199585e-04 0.0 
1.532444199585e-04 4.696915836540e-03 0.0 
0.0 0.0 -8.413031780454e-04 
2.625503227397e-04 1.238828002540e-03 0.0 
1.238828002540e-03 6.651443892644e-04 0.0 
0.0 0.0 -3.865807678710e-04 
-9.465847814334e-04 1.767858078852e-04 0.0 
1.767858078852e-04 5.036126749418e-03 0.0 
0.0 0.0 -7.898058234521e-04 
-1.895610884557e-04 4.026718807994e-04 0.0 
4.026718807994e-04 3.226201886936e-03 0.0 
0.0 0.0 -6.486359607860e-04 
1.616252847495e-04 -9.427764674384e-04 0.0 
-9.427764674384e-04 1.519153345857e-03 0.0 
0.0 0.0 -4.681053320140e-04 
-1.124321372716e-03 5.190781523116e-04 0.0 
5.190781523116e-04 6.737556221388e-03 0.0 
0.0 0.0 -1.032318248600e-03 
0.0 0.0 0.0 
0.0 0.0 0.0 
0.0 0.0 0.0 
-9.848011893069e-04 9.254887770331e-05 0.0 
9.254887770331e-05 5.522315715833e-03 0.0 
0.0 0.0 -8.386390795737e-04 
1.936986156422e-05 1.160151507078e-03 0.0 
1.160151507078e-03 1.716486351178e-03 0.0 
0.0 0.0 -4.870240021111e-04 
-2.325836748457e-04 1.289855956993e-03 0.0 
1.289855956993e-03 1.788704446122e-03 0.0 
0.0 0.0 -4.015254440178e-04 
4.595658441768e-04 4.744943126908e-04 0.0 
4.744943126908e-04 7.528832652437e-04 0.0 
0.0 0.0 -4.054414645912e-04 
-1.008402327414e-03 5.265744671369e-04 0.0 
5.265744671369e-04 5.786538932645e-03 0.0 
0.0 0.0 -8.965110541436e-04 
-2.494216096235e-04 -4.335362183750e-04 0.0 
-4.335362183750e-04 9.422411490062e-04 0.0 
0.0 0.0 -1.609926926485e-04 
-6.820720035477e-04 8.119732659470e-04 0.0 
8.119732659470e-04 3.361151585438e-03 0.0 
0.0 0.0 -5.613503766092e-04 
-5.249648680804e-04 4.982973278599e-04 0.0 
4.982973278599e-04 4.821038106347e-03 0.0 
0.0 0.0 -8.726802719924e-04 
-9.620382926610e-04 5.073054538474e-04 0.0 
5.073054538474e-04 5.367475776694e-03 0.0 
0.0 0.0 -8.336838631977e-04 
-9.866522304222e-04 1.405170818081e-04 0.0 
1.405170818081e-04 5.654603971252e-03 0.0 
0.0 0.0 -8.301023967811e-04 
2.987392461190e-04 2.567812312072e-04 0.0 
2.567812312072e-04 -6.027321301994e-05 0.0 
0.0 0.0 -1.021997284710e-04 
2.232246709604e-04 -1.918559463565e-04 0.0 
-1.918559463565e-04 1.424673883171e-03 0.0 
0.0 0.0 -4.706942212664e-04 
9.862482380878e-05 -1.372550038116e-03 0.0 
-1.372550038116e-03 1.318021718147e-03 0.0 
0.0 0.0 -4.311372127493e-04 
-6.563785485795e-04 5.486582363547e-04 0.0 
5.486582363547e-04 3.058796699974e-03 0.0 
0.0 0.0 -4.957039317942e-04 
-1.115649045089e-03 1.001564757614e-04 0.0 
1.001564757614e-04 6.632881085886e-03 0.0 
0.0 0.0 -1.000663671924e-03 
-6.796028561542e-04 5.568827768722e-04 0.0 
5.568827768722e-04 3.430251503350e-03 0.0 
0.0 0.0 -5.577786207633e-04 
-1.458115086374e-04 8.292196236090e-04 0.0 
8.292196236090e-04 2.768893991105e-03 0.0 
0.0 0.0 -6.151539951222e-04 
-1.886011553539e-04 1.051832417911e-03 0.0 
1.051832417911e-03 2.651380485181e-03 0.0 
0.0 0.0 -5.868308051845e-04 
4.119056616429e-04 4.824818133927e-04 0.0 
4.824818133927e-04 -5.163543584123e-05 0.0 
0.0 0.0 -1.544015253436e-04 
-5.103402652263e-04 1.016313603146e-03 0.0 
1.016313603146e-03 3.773155867782e-03 0.0 
0.0 0.0 -6.959382511914e-04 
-1.626884107157e-04 1.342060582958e-03 0.0 
1.342060582958e-03 1.124683386977e-03 0.0 
0.0 0.0 -3.635305771564e-04 
-1.332783064049e-03 3.949756871870e-04 0.0 
3.949756871870e-04 8.970989248616e-03 0.0 
0.0 0.0 -1.321446319728e-03 
-1.363423366848e-03 4.246461146743e-04 0.0 
4.246461146743e-04 8.919856195938e-03 0.0 
0.0 0.0 -1.318029376683e-03 
-7.707229978672e-04 8.349277957258e-04 0.0 
8.349277957258e-04 4.657152987880e-03 0.0 
0.0 0.0 -7.755312068111e-04 
8.477148352467e-05 1.389041319869e-03 0.0 
1.389041319869e-03 1.180405502280e-03 0.0 
0.0 0.0 -4.232985079168e-04 
-7.785189424599e-05 1.403831464932e-03 0.0 
1.403831464932e-03 1.344103223027e-03 0.0 
0.0 0.0 -3.659709354871e-04 
-9.354111606034e-04 6.403030867596e-04 0.0 
6.403030867596e-04 5.396292848320e-03 0.0 
0.0 0.0 -8.539191708179e-04 
9.999732188838e-05 1.139160073047e-03 0.0 
1.139160073047e-03 1.275333839354e-03 0.0 
0.0 0.0 -3.930530440640e-04 
2.202450365264e-04 -6.175447713642e-04 0.0 
-6.175447713642e-04 1.218766433543e-03 0.0 
0.0 0.0 -4.339875075689e-04 
-8.457389435740e-04 6.790973874792e-04 0.0 
6.790973874792e-04 4.708791579724e-03 0.0 
0.0 0.0 -7.563811545761e-04 
-1.327783261122e-03 1.214241298840e-04 0.0 
1.214241298840e-04 8.708921592335e-03 0.0 
0.0 0.0 -1.266640259566e-03 
-1.253349979010e-04 1.227176291700e-03 0.0 
1.227176291700e-03 2.155279357023e-03 0.0 
0.0 0.0 -5.226246958029e-04 
-6.857827131982e-04 6.109821481705e-04 0.0 
6.109821481705e-04 5.443563599872e-03 0.0 
0.0 0.0 -9.428115367422e-04 
1.005352414743e-05 1.485881480078e-03 0.0 
1.485881480078e-03 9.313511271754e-04 0.0 
0.0 0.0 -4.034591362812e-04 
-1.256876494634e-03 -1.116338181287e-04 0.0 
-1.116338181287e-04 8.512233064138e-03 0.0 
0.0 0.0 -1.322863172658e-03 
-5.368107279651e-05 1.667223674442e-03 0.0 
1.667223674442e-03 1.192784921883e-03 0.0 
0.0 0.0 -3.959736908235e-04 
-8.401524306230e-04 7.380205594863e-04 0.0 
7.380205594863e-04 4.834030021030e-03 0.0 
0.0 0.0 -7.835188407615e-04 
5.148731166168e-04 5.137437753511e-04 0.0 
5.137437753511e-04 -7.966675073374e-05 0.0 
0.0 0.0 -1.865170139499e-04 
-5.892765440230e-04 4.534415622219e-05 0.0 
4.534415622219e-05 5.187712345136e-03 0.0 
0.0 0.0 -9.211625808215e-04 
-2.619705547916e-04 9.063726296434e-04 0.0 
9.063726296434e-04 3.144147236726e-03 0.0 
0.0 0.0 -6.516619296807e-04 
5.136778266446e-05 -8.544458010471e-04 0.0 
-8.544458010471e-04 1.672478035934e-03 0.0 
0.0 0.0 -4.625367401933e-04 
-9.230469363571e-04 2.192959829449e-04 0.0 
2.192959829449e-04 5.165828729947e-03 0.0 
0.0 0.0 -7.963903837170e-04 
-1.338316942917e-03 5.052217518095e-04 0.0 
5.052217518095e-04 8.833234944730e-03 0.0 
0.0 0.0 -1.324865334549e-03 
-6.025361920259e-05 9.743864967892e-04 0.0 
9.743864967892e-04 2.246037318888e-03 0.0 
0.0 0.0 -5.510338386786e-04 
-4.966114613551e-04 2.324572275960e-05 0.0 
2.324572275960e-05 4.887340644677e-03 0.0 
0.0 0.0 -8.703234504572e-04 
-4.984372673971e-05 1.535578283139e-03 0.0 
1.535578283139e-03 1.001433575544e-03 0.0 
0.0 0.0 -3.453408408593e-04 
-1.068497402403e-03 3.485541216510e-04 0.0 
3.485541216510e-04 6.344714792472e-03 0.0 
0.0 0.0 -9.576894438039e-04 
-8.089599515326e-04 -1.073379708431e-04 0.0 
-1.073379708431e-04 5.996798576901e-03 0.0 
0.0 0.0 -1.008345180213e-03 
-4.736853950805e-04 1.081684251561e-03 0.0 
1.081684251561e-03 2.201297944192e-03 0.0 
0.0 0.0 -4.109515902261e-04 
-1.055848474588e-03 -6.244673246336e-05 0.0 
-6.244673246336e-05 6.209225770776e-03 0.0 
0.0 0.0 -9.257128893455e-04 
-1.318413144677e-03 5.597520288916e-04 0.0 
5.597520288916e-04 8.736177841961e-03 0.0 
0.0 0.0 -1.322580803729e-03 
-9.099621181087e-04 -7.844937670166e-05 0.0 
-7.844937670166e-05 6.486423483438e-03 0.0 
0.0 0.0 -1.075861678316e-03 
-1.339852007458e-03 4.885566376854e-04 0.0 
4.885566376854e-04 8.877779505668e-03 0.0 
0.0 0.0 -1.322091174222e-03 
-1.037601774292e-03 -4.998348071015e-05 0.0 
-4.998348071015e-05 6.134914618430e-03 0.0 
0.0 0.0 -9.196498359204e-04 
-1.117033596766e-03 2.433107206605e-04 0.0 
2.433107206605e-04 6.851288038562e-03 0.0 
0.0 0.0 -1.048263655743e-03 
-5.132028134043e-04 1.102114687126e-03 0.0 
1.102114687126e-03 1.849180492075e-03 0.0 
0.0 0.0 -3.491910591611e-04 
-8.752311967057e-04 2.096761775609e-04 0.0 
2.096761775609e-04 4.753971328354e-03 0.0 
0.0 0.0 -7.343713905235e-04 
-9.300305532746e-04 5.926935085268e-04 0.0 
5.926935085268e-04 5.253991145748e-03 0.0 
0.0 0.0 -8.263924940540e-04 
-9.692706598054e-04 2.261418497641e-04 0.0 
2.261418497641e-04 5.579447270465e-03 0.0 
0.0 0.0 -8.589723558544e-04 
-7.013973697775e-04 5.476600750058e-04 0.0 
5.476600750058e-04 4.307373761106e-03 0.0 
0.0 0.0 -7.101745248689e-04 
-1.306990612628e-03 5.041978193775e-04 0.0 
5.041978193775e-04 8.672501482610e-03 0.0 
0.0 0.0 -1.322334986692e-03 
-9.943643695485e-04 3.416073873728e-04 0.0 
3.416073873728e-04 5.867113055505e-03 0.0 
0.0 0.0 -8.810748613436e-04 
-9.323244271653e-04 9.613325556177e-05 0.0 
9.613325556177e-05 5.115490294310e-03 0.0 
0.0 0.0 -7.763708431881e-04 
-1.001832059306e-04 5.266866745758e-04 0.0 
5.266866745758e-04 2.724835239940e-03 0.0 
0.0 0.0 -5.843899590101e-04 
-5.790296725673e-04 -5.326125379184e-04 0.0 
-5.326125379184e-04 1.882091514832e-03 0.0 
0.0 0.0 -3.280768480529e-04 
-8.597084284199e-04 1.491840850699e-04 0.0 
1.491840850699e-04 4.593177939361e-03 0.0 
0.0 0.0 -7.069124235890e-04 
-4.246089693938e-04 1.428928262105e-03 0.0 
1.428928262105e-03 2.122954743528e-03 0.0 
0.0 0.0 -4.404772202000e-04 
-8.726090169173e-04 -3.101571305491e-05 0.0 
-3.101571305491e-05 5.309765821533e-03 0.0 
0.0 0.0 -7.696142143080e-04 
-7.647244692160e-05 -1.455292213990e-03 0.0 
-1.455292213990e-03 1.759408115361e-03 0.0 
0.0 0.0 -4.595640944490e-04 
-1.784270519958e-05 6.865399459054e-04 0.0 
6.865399459054e-04 2.226340647437e-03 0.0 
0.0 0.0 -5.202658224677e-04 
-1.156111700983e-03 5.188644452185e-04 0.0 
5.188644452185e-04 7.007873302369e-03 0.0 
0.0 0.0 -1.069052450572e-03 
-3.544111730508e-04 1.143529289652e-03 0.0 
1.143529289652e-03 2.186339618849e-03 0.0 
0.0 0.0 -4.372567615832e-04 
-8.838010647401e-04 5.805967859428e-04 0.0 
5.805967859428e-04 4.846530847442e-03 0.0 
0.0 0.0 -7.640689829422e-04 
-5.498264973309e-04 3.710435615581e-04 0.0 
3.710435615581e-04 5.012164832543e-03 0.0 
0.0 0.0 -9.014246907137e-04 
-6.358980608267e-04 -4.313104688366e-04 0.0 
-4.313104688366e-04 4.627036023584e-03 0.0 
0.0 0.0 -8.035328976187e-04 
-1.261046308643e-03 3.887646222973e-04 0.0 
3.887646222973e-04 8.565225437675e-03 0.0 
0.0 0.0 -1.324762665914e-03 
-7.961969453534e-04 2.495159098011e-04 0.0 
2.495159098011e-04 4.113140991581e-03 0.0 
0.0 0.0 -6.390224077203e-04 
3.053061856643e-04 2.267805296744e-04 0.0 
2.267805296744e-04 1.077273840324e-03 0.0 
0.0 0.0 -4.422638729430e-04 
-5.704666668683e-04 -1.178468115440e-03 0.0 
-1.178468115440e-03 3.201154498828e-03 0.0 
0.0 0.0 -5.691257024010e-04 
-5.951122843918e-04 8.042220484985e-04 0.0 
8.042220484985e-04 2.449547643677e-03 0.0 
0.0 0.0 -4.184705811166e-04 
-5.000320666269e-04 1.320407470952e-03 0.0 
1.320407470952e-03 2.143724443106e-03 0.0 
0.0 0.0 -4.141309408042e-04 
-1.196454144110e-03 1.993133203818e-04 0.0 
1.993133203818e-04 7.413315256709e-03 0.0 
0.0 0.0 -1.123886314723e-03 
-8.766172246535e-04 3.573442557890e-04 0.0 
3.573442557890e-04 5.175634424808e-03 0.0 
0.0 0.0 -8.161479701220e-04 
-7.263474599636e-04 3.526993364896e-04 0.0 
3.526993364896e-04 3.570072660402e-03 0.0 
0.0 0.0 -5.672387349321e-04 
-8.352265289735e-04 5.640695091739e-04 0.0 
5.640695091739e-04 4.443467777814e-03 0.0 
0.0 0.0 -7.023794137935e-04 
-1.258131779879e-03 1.361172827669e-04 0.0 
1.361172827669e-04 8.496942290822e-03 0.0 
0.0 0.0 -1.320675234999e-03 
-1.143815948478e-03 -2.922836025437e-06 0.0 
-2.922836025437e-06 7.935052382313e-03 0.0 
0.0 0.0 -1.258064670439e-03 
-1.185356167607e-03 5.772655224951e-04 0.0 
5.772655224951e-04 7.334174599953e-03 0.0 
0.0 0.0 -1.126590436115e-03 
-1.146342777142e-03 1.032030268662e-04 0.0 
1.032030268662e-04 6.902588040038e-03 0.0 
0.0 0.0 -1.037522200811e-03 
-6.004564824823e-04 -8.741253658515e-04 0.0 
-8.741253658515e-04 4.400886106663e-03 0.0 
0.0 0.0 -7.721428985420e-04 
-6.499827822082e-04 6.306060725170e-04 0.0 
6.306060725170e-04 3.517235102446e-03 0.0 
0.0 0.0 -5.842812205453e-04 
2.208852054121e-04 7.449773440899e-04 0.0 
7.449773440899e-04 1.272300042131e-03 0.0 
0.0 0.0 -4.203166018451e-04 
1.283124150736e-04 5.457702178093e-04 0.0 
5.457702178093e-04 1.800318710438e-03 0.0 
0.0 0.0 -4.843489805398e-04 
-8.229602156181e-04 4.179326389388e-04 0.0 
4.179326389388e-04 4.894594765891e-03 0.0 
0.0 0.0 -7.808727949117e-04 
-5.351512224978e-04 -3.319303625282e-04 0.0 
-3.319303625282e-04 5.022677570586e-03 0.0 
0.0 0.0 -8.900964085843e-04 
-8.296790490015e-04 -7.574227516101e-04 0.0 
-7.574227516101e-04 4.266073095582e-03 0.0 
0.0 0.0 -6.810091006415e-04 
-1.209161835961e-03 5.397487415350e-04 0.0 
5.397487415350e-04 7.456423275886e-03 0.0 
0.0 0.0 -1.134236807130e-03 
2.970140770782e-04 -5.886898203256e-04 0.0 
-5.886898203256e-04 1.178529551260e-03 0.0 
0.0 0.0 -4.395655422792e-04 
-6.321441937111e-04 6.212871376415e-04 0.0 
6.212871376415e-04 4.001931118120e-03 0.0 
0.0 0.0 -6.750378637491e-04 
-8.881105026694e-04 6.325939136900e-04 0.0 
6.325939136900e-04 4.979851951469e-03 0.0 
0.0 0.0 -7.913284153978e-04 
-6.067465934174e-04 6.691797761234e-04 0.0 
6.691797761234e-04 3.597583737962e-03 0.0 
0.0 0.0 -6.122259156574e-04 
-1.324329620218e-03 4.629903675986e-04 0.0 
4.629903675986e-04 8.904888157841e-03 0.0 
0.0 0.0 -1.320088186226e-03 
-1.359586791555e-03 4.788353102242e-04 0.0 
4.788353102242e-04 8.942288232093e-03 0.0 
0.0 0.0 -1.318462653075e-03 
-1.290025244180e-03 1.809732516489e-04 0.0 
1.809732516489e-04 8.380056929833e-03 0.0 
0.0 0.0 -1.256494544188e-03 
-6.742581298534e-04 -7.798202117693e-04 0.0 
-7.798202117693e-04 4.873866166937e-03 0.0 
0.0 0.0 -8.375255977276e-04 
-1.194824314076e-03 4.521929309845e-04 0.0 
4.521929309845e-04 7.360058874814e-03 0.0 
0.0 0.0 -1.112065035246e-03 
-4.430818055786e-04 1.485014206495e-03 0.0 
1.485014206495e-03 1.784679357047e-03 0.0 
0.0 0.0 -3.785953687517e-04 
2.729854799726e-05 3.936097668604e-04 0.0 
3.936097668604e-04 2.328364048534e-03 0.0 
0.0 0.0 -5.483018170244e-04 
5.295881833206e-04 7.121810223511e-04 0.0 
7.121810223511e-04 1.629388308909e-04 0.0 
0.0 0.0 -2.967972918049e-04 
-7.211884972610e-04 4.566068001278e-04 0.0 
4.566068001278e-04 3.698308171073e-03 0.0 
0.0 0.0 -5.936226173563e-04 
-9.121582442551e-04 9.143313993339e-05 0.0 
9.143313993339e-05 5.030258123682e-03 0.0 
0.0 0.0 -7.914980036671e-04 
-1.035929216748e-03 3.563880147614e-04 0.0 
3.563880147614e-04 6.090521981813e-03 0.0 
0.0 0.0 -9.214502702889e-04 
-1.168840555119e-03 -8.744363195648e-05 0.0 
-8.744363195648e-05 8.066384051930e-03 0.0 
0.0 0.0 -1.265403586923e-03 
-1.162609015209e-03 6.330590177409e-04 0.0 
6.330590177409e-04 7.197897661744e-03 0.0 
0.0 0.0 -1.117224974728e-03 
-9.919773035698e-04 4.807053877499e-04 0.0 
4.807053877499e-04 5.626646372679e-03 0.0 
0.0 0.0 -8.687609488834e-04 
-9.791621869581e-04 6.007006909595e-04 0.0 
6.007006909595e-04 5.670050972566e-03 0.0 
0.0 0.0 -8.891947744737e-04 
4.804557488344e-04 9.476988486698e-04 0.0 
9.476988486698e-04 9.767658471985e-05 0.0 
0.0 0.0 -2.477710000947e-04 
-2.208441256582e-04 -6.752013946383e-04 0.0 
-6.752013946383e-04 8.882775518556e-04 0.0 
0.0 0.0 -2.467363499356e-04 
-4.153429420499e-04 1.059032103328e-03 0.0 
1.059032103328e-03 3.417216683434e-03 0.0 
0.0 0.0 -6.594106982652e-04 
-6.669546155335e-04 5.596997560711e-04 0.0 
5.596997560711e-04 4.411048143991e-03 0.0 
0.0 0.0 -7.376142925499e-04 
-4.466823138591e-04 6.032870064143e-04 0.0 
6.032870064143e-04 3.840807050757e-03 0.0 
0.0 0.0 -6.931905564144e-04 
6.417191678250e-05 8.603242808997e-04 0.0 
8.603242808997e-04 4.417253736716e-04 0.0 
0.0 0.0 -2.168131244803e-04 
-9.528466809374e-04 9.473419018348e-05 0.0 
9.473419018348e-05 5.427141204722e-03 0.0 
0.0 0.0 -8.462285223656e-04 
-5.049741343807e-04 -8.812005228938e-04 0.0 
-8.812005228938e-04 1.770302560701e-03 0.0 
0.0 0.0 -2.972104253142e-04 
-2.017300964170e-04 1.588765395916e-03 0.0 
1.588765395916e-03 1.677129549565e-03 0.0 
0.0 0.0 -4.314049239902e-04 
-1.341153861134e-03 -7.479496163088e-05 0.0 
-7.479496163088e-05 8.257374884626e-03 0.0 
0.0 0.0 -1.341153861134e-03 
-6.757643640114e-04 6.444207577368e-05 0.0 
6.444207577368e-05 5.692433792017e-03 0.0 
0.0 0.0 -9.717687626070e-04 
-9.402714050330e-04 4.164454812488e-04 0.0 
4.164454812488e-04 5.059115903313e-03 0.0 
0.0 0.0 -7.790007367612e-04 
-1.996455075654e-04 1.120227626459e-04 0.0 
1.120227626459e-04 1.363834974093e-03 0.0 
0.0 0.0 -2.176483604987e-04 
-7.316139978666e-04 8.725598858698e-04 0.0 
8.725598858698e-04 4.250250205740e-03 0.0 
0.0 0.0 -7.126719623954e-04 
-3.416312472277e-04 6.071238986655e-04 0.0 
6.071238986655e-04 3.482434275960e-03 0.0 
0.0 0.0 -6.569982659716e-04 
-1.010067214733e-03 1.858710736428e-04 0.0 
1.858710736428e-04 5.842461225268e-03 0.0 
0.0 0.0 -8.940630110299e-04 
-1.333890643160e-03 5.791621130684e-04 0.0 
5.791621130684e-04 8.805315107962e-03 0.0 
0.0 0.0 -1.323832587333e-03 
-8.707338927728e-04 5.246940464045e-04 0.0 
5.246940464045e-04 4.704277736275e-03 0.0 
0.0 0.0 -7.366500567795e-04 
-9.271217876491e-04 3.071330387493e-04 0.0 
3.071330387493e-04 5.453258810761e-03 0.0 
0.0 0.0 -8.513774089097e-04 
-8.050460189817e-04 -4.209308180889e-04 0.0 
-4.209308180889e-04 4.202095383354e-03 0.0 
0.0 0.0 -6.837695253815e-04 
-1.187192617587e-03 5.026303496446e-04 0.0 
5.026303496446e-04 7.280339694805e-03 0.0 
0.0 0.0 -1.105258581891e-03 
-7.119244178252e-04 -3.438823351423e-04 0.0 
-3.438823351423e-04 5.099696206057e-03 0.0 
0.0 0.0 -8.691653677727e-04 
-1.316090240167e-03 5.389588138701e-04 0.0 
5.389588138701e-04 8.780826577697e-03 0.0 
0.0 0.0 -1.322174839672e-03 
-1.340103718614e-03 4.728281156223e-04 0.0 
4.728281156223e-04 8.628873091994e-03 0.0 
0.0 0.0 -1.340103718614e-03 
-1.341028575724e-03 3.568557509173e-04 0.0 
3.568557509173e-04 8.716110367900e-03 0.0 
0.0 0.0 -1.341028575724e-03 
-1.338044909071e-03 4.168385009661e-04 0.0 
4.168385009661e-04 8.630348436964e-03 0.0 
0.0 0.0 -1.338044909071e-03 
-1.019072052988e-03 5.681193801066e-04 0.0 
5.681193801066e-04 5.940654999783e-03 0.0 
0.0 0.0 -9.244680137507e-04 
-1.198675717763e-03 1.360258094172e-04 0.0 
1.360258094172e-04 7.335887667339e-03 0.0 
0.0 0.0 -1.103002250422e-03 
-1.198479165231e-03 6.200957679300e-04 0.0 
6.200957679300e-04 7.509008113829e-03 0.0 
0.0 0.0 -1.155914796392e-03 
-6.394343852437e-04 1.004430984718e-03 0.0 
1.004430984718e-03 3.542163334784e-03 0.0 
0.0 0.0 -6.147330147620e-04 
-6.675475430971e-04 9.277672711453e-04 0.0 
9.277672711453e-04 3.456421744926e-03 0.0 
0.0 0.0 -5.872917534094e-04 
-8.247859078912e-04 -6.922016390902e-04 0.0 
-6.922016390902e-04 4.077408079033e-03 0.0 
0.0 0.0 -6.436934073013e-04 
-1.217910302125e-03 1.553299834490e-04 0.0 
1.553299834490e-04 7.518311075799e-03 0.0 
0.0 0.0 -1.131852245309e-03 
-1.311936692750e-03 5.307865598084e-04 0.0 
5.307865598084e-04 8.695029491200e-03 0.0 
0.0 0.0 -1.322440284024e-03 
-1.214240069696e-03 4.882095922708e-04 0.0 
4.882095922708e-04 7.535305569948e-03 0.0 
0.0 0.0 -1.141180801552e-03 
-5.747438901480e-04 1.003283814169e-04 0.0 
1.003283814169e-04 5.194431951746e-03 0.0 
0.0 0.0 -9.063345769726e-04 
-1.227388762698e-03 1.265853976664e-04 0.0 
1.265853976664e-04 7.592479060989e-03 0.0 
0.0 0.0 -1.138864741757e-03 
-8.838474672112e-04 3.395282227197e-04 0.0 
3.395282227197e-04 6.126324240512e-03 0.0 
0.0 0.0 -9.903545940741e-04 
-6.357684789507e-04 9.653705253964e-04 0.0 
9.653705253964e-04 4.033111277517e-03 0.0 
0.0 0.0 -7.049739924763e-04 
-7.219643329354e-04 7.270984363887e-04 0.0 
7.270984363887e-04 3.640512255542e-03 0.0 
0.0 0.0 -5.967387615352e-04 
1.271449544166e-04 1.530874377193e-03 0.0 
1.530874377193e-03 7.660888374693e-04 0.0 
0.0 0.0 -3.828144822368e-04 
-1.311008186282e-03 3.440606395408e-04 0.0 
3.440606395408e-04 8.440809804770e-03 0.0 
0.0 0.0 -1.282213402295e-03 
-5.754210014705e-04 1.101723762793e-03 0.0 
1.101723762793e-03 3.231346314138e-03 0.0 
0.0 0.0 -5.792479259103e-04 
-1.176826657867e-03 4.517387013495e-04 0.0 
4.517387013495e-04 7.668341186852e-03 0.0 
0.0 0.0 -1.230767059693e-03 
-8.116549819174e-04 -3.660838800677e-04 0.0 
-3.660838800677e-04 4.013024169842e-03 0.0 
0.0 0.0 -6.465396845166e-04 
-1.917368362491e-04 -1.670915138255e-03 0.0 
-1.670915138255e-03 1.673857297907e-03 0.0 
0.0 0.0 -4.222915044375e-04 
-1.218810452461e-03 -6.182829621563e-05 0.0 
-6.182829621563e-05 7.834853919449e-03 0.0 
0.0 0.0 -1.284312900220e-03 
-3.227899414303e-04 1.463352553329e-03 0.0 
1.463352553329e-03 2.102017459643e-03 0.0 
0.0 0.0 -4.669824892858e-04 
-1.341987455608e-03 4.935381790995e-04 0.0 
4.935381790995e-04 8.595598521703e-03 0.0 
0.0 0.0 -1.341987455608e-03 
-1.324901016307e-03 3.587683922887e-04 0.0 
3.587683922887e-04 8.344464300183e-03 0.0 
0.0 0.0 -1.282654109251e-03 
-8.850522684098e-04 7.214064072268e-04 0.0 
7.214064072268e-04 5.245748206413e-03 0.0 
0.0 0.0 -8.462542048450e-04 
-8.057611890132e-05 -1.710152855484e-04 0.0 
-1.710152855484e-04 3.103213667799e-04 0.0 
0.0 0.0 -9.846224909082e-05 
-1.340954708391e-03 5.230440169069e-04 0.0 
5.230440169069e-04 8.529172830874e-03 0.0 
0.0 0.0 -1.340954708391e-03 
-1.218199846518e-03 4.994387147231e-06 0.0 
4.994387147231e-06 7.808383985296e-03 0.0 
0.0 0.0 -1.284661450484e-03 
-4.838292351495e-05 -1.134502527952e-03 0.0 
-1.134502527952e-03 1.589566893982e-03 0.0 
0.0 0.0 -4.253660281670e-04 
-6.012411031331e-04 -5.471211505199e-06 0.0 
-5.471211505199e-06 5.388600975266e-03 0.0 
0.0 0.0 -9.353130867196e-04 
-1.284222320321e-03 3.331079903689e-04 0.0 
3.331079903689e-04 8.551492227036e-03 0.0 
0.0 0.0 -1.323014926434e-03 
0.0 0.0 0.0 
0.0 0.0 0.0 
0.0 0.0 0.0 
-6.023691884067e-04 1.029224405588e-03 0.0 
1.029224405588e-03 3.627406800571e-03 0.0 
0.0 0.0 -6.425506931502e-04 
-9.361925531562e-04 6.770287321789e-04 0.0 
6.770287321789e-04 5.532046743254e-03 0.0 
0.0 0.0 -8.816033652580e-04 
-8.298014528126e-04 7.768529914014e-04 0.0 
7.768529914014e-04 4.954128457589e-03 0.0 
0.0 0.0 -8.109139232486e-04 
-8.897770840316e-04 6.877783995216e-04 0.0 
6.877783995216e-04 5.117343312454e-03 0.0 
0.0 0.0 -8.186613860469e-04 
-1.469792992645e-04 1.697477444243e-03 0.0 
1.697477444243e-03 1.268784698810e-03 0.0 
0.0 0.0 -3.960833248805e-04 
-1.341360672448e-03 5.109795992512e-04 0.0 
5.109795992512e-04 8.445730971081e-03 0.0 
0.0 0.0 -1.341360672448e-03 
-7.719693981544e-05 2.760009161414e-04 0.0 
2.760009161414e-04 2.850848330235e-03 0.0 
0.0 0.0 -6.123778370825e-04 
1.753729935007e-04 1.501404700023e-05 0.0 
1.501404700023e-05 -5.243892185943e-05 0.0 
0.0 0.0 -5.268603070342e-05 
-1.302465582654e-03 -2.496096405259e-04 0.0 
-2.496096405259e-04 8.365120953103e-03 0.0 
0.0 0.0 -1.272354826527e-03 
-1.485058388714e-04 -2.923397016935e-04 0.0 
-2.923397016935e-04 5.768067641683e-04 0.0 
0.0 0.0 -1.019437782286e-04 
-7.982614346128e-04 6.111031080938e-04 0.0 
6.111031080938e-04 4.181968739078e-03 0.0 
0.0 0.0 -6.678899790658e-04 
2.246133581427e-04 -6.808997986787e-04 0.0 
-6.808997986787e-04 1.445508393424e-04 0.0 
0.0 0.0 -1.582132274936e-04 
-8.489872345980e-04 4.667487785959e-04 0.0 
4.667487785959e-04 4.536973076965e-03 0.0 
0.0 0.0 -7.094882865497e-04 
-1.255369180247e-03 1.858612183136e-05 0.0 
1.858612183136e-05 8.476379217670e-03 0.0 
0.0 0.0 -1.321823097425e-03 
-1.341255375116e-03 4.796779653900e-04 0.0 
4.796779653900e-04 8.398188684786e-03 0.0 
0.0 0.0 -1.341255375116e-03 
-9.721290586981e-04 5.581628762271e-04 0.0 
5.581628762271e-04 5.522703984207e-03 0.0 
0.0 0.0 -8.613793510407e-04 
1.600321873614e-04 -6.162664284866e-04 0.0 
-6.162664284866e-04 1.802849776087e-04 0.0 
0.0 0.0 -1.458502135586e-04 
3.109225001715e-06 1.120621869491e-06 0.0 
1.120621869491e-06 -8.787071989552e-07 0.0 
0.0 0.0 -9.559362011826e-07 
1.535176122475e-04 -1.236399581379e-03 0.0 
-1.236399581379e-03 5.447751134409e-04 0.0 
0.0 0.0 -2.992683110093e-04 
-1.116873810569e-03 -5.374998991881e-04 0.0 
-5.374998991881e-04 7.110713391746e-03 0.0 
0.0 0.0 -1.121833217354e-03 
-9.101085565852e-04 1.581356444995e-04 0.0 
1.581356444995e-04 5.291968435283e-03 0.0 
0.0 0.0 -7.704300227928e-04 
-9.627171074924e-04 3.587877174801e-05 0.0 
3.587877174801e-05 5.332601127641e-03 0.0 
0.0 0.0 -8.109332722942e-04 
-1.342502730507e-03 4.025374877915e-04 0.0 
4.025374877915e-04 8.333596175980e-03 0.0 
0.0 0.0 -1.342502730507e-03 
-9.258687689408e-04 6.411213788910e-05 0.0 
6.411213788910e-05 5.298171403091e-03 0.0 
0.0 0.0 -7.720444664677e-04 
-1.356038484680e-03 3.810509766439e-04 0.0 
3.810509766439e-04 8.994012411350e-03 0.0 
0.0 0.0 -1.322852565091e-03 
-9.095582700075e-04 6.913502515422e-04 0.0 
6.913502515422e-04 6.199031272495e-03 0.0 
0.0 0.0 -1.020998643257e-03 
-1.011415993933e-03 3.149863478337e-04 0.0 
3.149863478337e-04 5.896378527379e-03 0.0 
0.0 0.0 -8.907448815977e-04 
-5.714615022677e-04 1.156558804127e-03 0.0 
1.156558804127e-03 2.460117787699e-03 0.0 
0.0 0.0 -4.477608806526e-04 
-6.254234584821e-04 4.541246643039e-04 0.0 
4.541246643039e-04 5.320880420055e-03 0.0 
0.0 0.0 -9.378661514434e-04 
3.838669366307e-04 1.236207229742e-03 0.0 
1.236207229742e-03 2.839536722242e-04 0.0 
0.0 0.0 -2.862088323664e-04 
-1.340754991027e-03 2.766872434976e-04 0.0 
2.766872434976e-04 8.283487658048e-03 0.0 
0.0 0.0 -1.340754991027e-03 
-1.339984467612e-03 4.682059719065e-04 0.0 
4.682059719065e-04 8.622431533437e-03 0.0 
0.0 0.0 -1.339984467612e-03 
-1.340417744004e-03 3.687782300389e-04 0.0 
3.687782300389e-04 8.691962583590e-03 0.0 
0.0 0.0 -1.340417744004e-03 
-7.614631425941e-04 -7.600693639472e-04 0.0 
-7.600693639472e-04 5.166067953467e-03 0.0 
0.0 0.0 -8.666500598261e-04 
-8.083534389449e-04 -6.157792834396e-04 0.0 
-6.157792834396e-04 3.875634950425e-03 0.0 
0.0 0.0 -6.062238016986e-04 
-5.875577080076e-04 6.263804956418e-04 0.0 
6.263804956418e-04 4.098789747432e-03 0.0 
0.0 0.0 -7.021192356133e-04 
-7.972896345737e-04 -3.252844081748e-04 0.0 
-3.252844081748e-04 5.374062371917e-03 0.0 
0.0 0.0 -8.981573260837e-04 
-1.339627896631e-03 1.538435656171e-04 0.0 
1.538435656171e-04 8.249387984378e-03 0.0 
0.0 0.0 -1.339627896631e-03 
-7.499431316128e-05 1.153135812952e-03 0.0 
1.153135812952e-03 1.745463721331e-03 0.0 
0.0 0.0 -4.287941800800e-04 
9.963389295363e-05 -4.974640475465e-04 0.0 
-4.974640475465e-04 1.806583108532e-03 0.0 
0.0 0.0 -4.991860405784e-04 
-4.325429609302e-05 -6.957715566116e-04 0.0 
-6.957715566116e-04 2.198402972482e-03 0.0 
0.0 0.0 -5.272458293186e-04 
-1.040852931917e-03 3.039409917234e-04 0.0 
3.039409917234e-04 6.156930146379e-03 0.0 
0.0 0.0 -9.279583942086e-04 
-1.296158163173e-03 -2.117115631842e-04 0.0 
-2.117115631842e-04 8.526713660580e-03 0.0 
0.0 0.0 -1.323537156312e-03 
5.620572206727e-05 -9.064776901539e-04 0.0 
-9.064776901539e-04 4.833799193028e-04 0.0 
0.0 0.0 -2.312509891586e-04 
-1.340775759057e-03 -3.546022348330e-06 0.0 
-3.546022348330e-06 8.220355043040e-03 0.0 
0.0 0.0 -1.340775759057e-03 
-1.115561951243e-04 -9.424028116119e-04 0.0 
-9.424028116119e-04 2.079879554815e-03 0.0 
0.0 0.0 -4.905422085546e-04 
-1.342877878941e-03 5.106164496302e-04 0.0 
5.106164496302e-04 8.578886692927e-03 0.0 
0.0 0.0 -1.342877878941e-03 
-1.213674372651e-03 2.426946528992e-04 0.0 
2.426946528992e-04 7.585431715108e-03 0.0 
0.0 0.0 -1.152765850879e-03 
7.551303923517e-04 -3.431961155864e-05 0.0 
-3.431961155864e-05 -8.356761588733e-06 0.0 
0.0 0.0 -1.964897908492e-04 
-5.576622204016e-04 1.038766121166e-03 0.0 
1.038766121166e-03 3.693734829533e-03 0.0 
0.0 0.0 -6.690559060524e-04 
-1.231945608432e-03 6.630499771306e-05 0.0 
6.630499771306e-05 7.672705385687e-03 0.0 
0.0 0.0 -1.146019594970e-03 
-1.341220131281e-03 5.159350734491e-04 0.0 
5.159350734491e-04 8.502743697500e-03 0.0 
0.0 0.0 -1.341220131281e-03 
-1.018091222593e-03 2.268797553762e-04 0.0 
2.268797553762e-04 5.997567393014e-03 0.0 
0.0 0.0 -9.220067723808e-04 
-9.140544266384e-04 6.590381545290e-04 0.0 
6.590381545290e-04 6.350398110146e-03 0.0 
0.0 0.0 -1.049000704964e-03 
1.948485511646e-04 1.206910249746e-03 0.0 
1.206910249746e-03 4.719329916516e-04 0.0 
0.0 0.0 -2.857635183498e-04 
-1.092933677572e-03 -5.430090234953e-06 0.0 
-5.430090234953e-06 7.417148133219e-03 0.0 
0.0 0.0 -1.228682347183e-03 
-2.597655749325e-04 -9.580958323714e-04 0.0 
-9.580958323714e-04 2.468405464320e-03 0.0 
0.0 0.0 -5.184025592846e-04 
-1.467448334793e-04 -1.253609516085e-03 0.0 
-1.253609516085e-03 2.277465230796e-03 0.0 
0.0 0.0 -5.242929400402e-04 
8.350711239017e-05 -5.741871043008e-04 0.0 
-5.741871043008e-04 2.364507936714e-04 0.0 
0.0 0.0 -1.371248168835e-04 
-1.341079611575e-03 4.984530224516e-04 0.0 
4.984530224516e-04 8.418558490732e-03 0.0 
0.0 0.0 -1.341079611575e-03 
3.309852724411e-04 1.022663251937e-03 0.0 
1.022663251937e-03 7.457111261596e-04 0.0 
0.0 0.0 -3.670041082731e-04 
-9.538216450079e-04 -4.415701274725e-04 0.0 
-4.415701274725e-04 6.798030040948e-03 0.0 
0.0 0.0 -1.110501492391e-03 
-9.815143922996e-04 -1.301923920288e-04 0.0 
-1.301923920288e-04 5.716261133104e-03 0.0 
0.0 0.0 -8.555322119248e-04 
-5.211778943541e-04 -1.357561140200e-03 0.0 
-1.357561140200e-03 2.381396269316e-03 0.0 
0.0 0.0 -4.411586999297e-04 
5.027865284572e-06 -1.162974144005e-03 0.0 
-1.162974144005e-03 1.893137919142e-03 0.0 
0.0 0.0 -4.964677435772e-04 
-9.740976170288e-04 2.668400150695e-04 0.0 
2.668400150695e-04 5.727433876448e-03 0.0 
0.0 0.0 -8.867075537039e-04 
-1.342259935407e-03 3.249478019742e-04 0.0 
3.249478019742e-04 8.304746317588e-03 0.0 
0.0 0.0 -1.342259935407e-03 
-8.513383339797e-04 -2.155531084130e-04 0.0 
-2.155531084130e-04 4.042684079104e-03 0.0 
0.0 0.0 -6.378868265889e-04 
-8.326579327741e-04 -6.269168235212e-04 0.0 
-6.269168235212e-04 5.839362625743e-03 0.0 
0.0 0.0 -9.693340058278e-04 
-7.491524898005e-04 8.473182538136e-04 0.0 
8.473182538136e-04 4.765927930056e-03 0.0 
0.0 0.0 -8.030799362305e-04 
-5.836032186753e-04 -5.383312615796e-04 0.0 
-5.383312615796e-04 5.022073810354e-03 0.0 
0.0 0.0 -8.811160271665e-04 
4.293152286993e-05 -8.173969837308e-04 0.0 
-8.173969837308e-04 2.098601697323e-03 0.0 
0.0 0.0 -5.326451291888e-04 
-7.517931783722e-04 -6.967384815080e-04 0.0 
-6.967384815080e-04 5.353981326588e-03 0.0 
0.0 0.0 -9.031726653527e-04 
-7.384492594485e-04 4.981620025079e-04 0.0 
4.981620025079e-04 4.715692557206e-03 0.0 
0.0 0.0 -7.729461360948e-04 
-9.594660891244e-04 3.310922572756e-04 0.0 
3.310922572756e-04 6.288208991268e-03 0.0 
0.0 0.0 -9.982497011217e-04 
-7.260155598219e-04 4.211913378779e-04 0.0 
4.211913378779e-04 5.817009197579e-03 0.0 
0.0 0.0 -1.003134534203e-03 
-6.776109950317e-04 9.016603010913e-04 0.0 
9.016603010913e-04 4.450317334473e-03 0.0 
0.0 0.0 -7.676694601592e-04 
-7.429113511032e-04 -5.174574473206e-04 0.0 
-5.174574473206e-04 3.948133648233e-03 0.0 
0.0 0.0 -6.551190094499e-04 
-2.218900255169e-04 1.098460281572e-03 0.0 
1.098460281572e-03 2.169381084645e-03 0.0 
0.0 0.0 -4.640097282922e-04 
-8.062369115313e-04 -2.975304159246e-04 0.0 
-2.975304159246e-04 3.811084005570e-03 0.0 
0.0 0.0 -6.091269606258e-04 
-8.824461864644e-04 3.062506020875e-04 0.0 
3.062506020875e-04 6.271794679198e-03 0.0 
0.0 0.0 -1.018204129641e-03 
-4.460788929649e-04 4.040748578588e-04 0.0 
4.040748578588e-04 4.503525698480e-03 0.0 
0.0 0.0 -8.365169925761e-04 
-1.261002707828e-03 -7.504870971913e-05 0.0 
-7.504870971913e-05 8.505176480558e-03 0.0 
0.0 0.0 -1.321929620191e-03 
-1.247677519614e-03 1.094732648068e-04 0.0 
1.094732648068e-04 7.850453942976e-03 0.0 
0.0 0.0 -1.174325249119e-03 
-5.404813862772e-04 -9.466285983316e-04 0.0 
-9.466285983316e-04 2.223885193950e-03 0.0 
0.0 0.0 -4.069995479128e-04 
-1.341047338368e-03 7.540167646977e-05 0.0 
7.540167646977e-05 8.197352777791e-03 0.0 
0.0 0.0 -1.341047338368e-03 
-1.130691151971e-03 -1.784363264906e-05 0.0 
-1.784363264906e-05 8.053842301100e-03 0.0 
0.0 0.0 -1.266414110344e-03 
-4.715184922734e-04 9.294387903624e-04 0.0 
9.294387903624e-04 3.876101003561e-03 0.0 
0.0 0.0 -7.237787631415e-04 
3.035840363914e-05 -4.057342954642e-04 0.0 
-4.057342954642e-04 2.137280708151e-04 0.0 
0.0 0.0 -1.046084890518e-04 
-1.265736625837e-03 -2.342234423567e-04 0.0 
-2.342234423567e-04 8.560274388960e-03 0.0 
0.0 0.0 -1.323469717371e-03 
-1.248103745975e-03 1.754263225543e-04 0.0 
1.754263225543e-04 7.767855351365e-03 0.0 
0.0 0.0 -1.167157861819e-03 
-2.143426304924e-04 -1.125447243117e-03 0.0 
-1.125447243117e-03 2.012406359622e-03 0.0 
0.0 0.0 -4.535238702637e-04 
-1.341709311524e-03 -1.537021795728e-04 0.0 
-1.537021795728e-04 8.247140811223e-03 0.0 
0.0 0.0 -1.341709311524e-03 
-8.340634901946e-04 -6.821178693031e-04 0.0 
-6.821178693031e-04 5.639816405277e-03 0.0 
0.0 0.0 -9.325599965574e-04 
-7.159156796781e-04 8.199594821406e-04 0.0 
8.199594821406e-04 3.747642167749e-03 0.0 
0.0 0.0 -6.229492605273e-04 
-9.690599654105e-04 4.302709909689e-04 0.0 
4.302709909689e-04 5.467189617691e-03 0.0 
0.0 0.0 -8.408860858065e-04 
-3.919357097026e-04 6.068237325882e-05 0.0 
6.068237325882e-05 4.381455962217e-03 0.0 
0.0 0.0 -8.054665293395e-04 
-6.923438558252e-04 -8.520265330426e-04 0.0 
-8.520265330426e-04 4.695093275442e-03 0.0 
0.0 0.0 -8.008683130455e-04 
-6.056515233478e-04 -4.164522829612e-04 0.0 
-4.164522829612e-04 5.267235237804e-03 0.0 
0.0 0.0 -9.181754741429e-04 
-1.093523269899e-03 7.798311719689e-05 0.0 
7.798311719689e-05 6.464920900132e-03 0.0 
0.0 0.0 -9.721028620036e-04 
-8.031200443167e-04 6.781379836070e-04 0.0 
6.781379836070e-04 4.309322447368e-03 0.0 
0.0 0.0 -6.945885048819e-04 
-7.991042375162e-04 4.855628797920e-04 0.0 
4.855628797920e-04 6.126908297853e-03 0.0 
0.0 0.0 -1.039409037654e-03 
-9.955657075652e-04 -4.803366383392e-06 0.0 
-4.803366383392e-06 6.069270927012e-03 0.0 
0.0 0.0 -8.839498032872e-04 
-7.742968154824e-04 -8.517460638285e-04 0.0 
-8.517460638285e-04 4.014337168077e-03 0.0 
0.0 0.0 -6.521967345917e-04 
-6.549358325978e-04 3.442178195061e-04 0.0 
3.442178195061e-04 5.516212137862e-03 0.0 
0.0 0.0 -9.664699797409e-04 
-3.659361313913e-04 -1.389777863593e-03 0.0 
-1.389777863593e-03 2.536314572587e-03 0.0 
0.0 0.0 -5.155438399970e-04 
-1.017459211522e-03 -2.035278755390e-04 0.0 
-2.035278755390e-04 5.749338419273e-03 0.0 
0.0 0.0 -9.093720595694e-04 
2.256137386907e-04 -1.163159502201e-04 0.0 
-1.163159502201e-04 1.137935582799e-04 0.0 
0.0 0.0 -4.585464485956e-05 
-3.462420398140e-04 1.018466210769e-03 0.0 
1.018466210769e-03 2.570297332312e-03 0.0 
0.0 0.0 -4.997308803768e-04 
-2.322903734365e-04 -1.457188189013e-03 0.0 
-1.457188189013e-03 2.158535862862e-03 0.0 
0.0 0.0 -4.875765080988e-04 
-8.614851687078e-04 -3.337722832802e-04 0.0 
-3.337722832802e-04 4.446512628758e-03 0.0 
0.0 0.0 -7.126562430121e-04 
-5.635163873739e-04 9.119017880977e-04 0.0 
9.119017880977e-04 4.220442908307e-03 0.0 
0.0 0.0 -7.595228636782e-04 
-7.920931595490e-04 -2.649669687123e-04 0.0 
-2.649669687123e-04 5.573841345894e-03 0.0 
0.0 0.0 -9.350600278798e-04 
-1.013052504013e-03 -8.823570252137e-05 0.0 
-8.823570252137e-05 6.008966805305e-03 0.0 
0.0 0.0 -8.962969588583e-04 
-3.359179918489e-04 -1.568493616469e-03 0.0 
-1.568493616469e-03 2.089144442065e-03 0.0 
0.0 0.0 -4.505554202764e-04 
-1.341827844788e-03 -1.871667057256e-04 0.0 
-1.871667057256e-04 8.296019085882e-03 0.0 
0.0 0.0 -1.341827844788e-03 
-9.219930325587e-04 3.393896039245e-04 0.0 
3.393896039245e-04 5.591653643792e-03 0.0 
0.0 0.0 -8.789935771182e-04 
-9.115582794458e-04 -2.493035172872e-04 0.0 
-2.493035172872e-04 4.677595953812e-03 0.0 
0.0 0.0 -7.413896480605e-04 
-8.652400327000e-04 3.890590998056e-04 0.0 
3.890590998056e-04 5.305115327796e-03 0.0 
0.0 0.0 -8.436662038215e-04 
-8.817818309206e-04 -6.648690080579e-04 0.0 
-6.648690080579e-04 4.510392914982e-03 0.0 
0.0 0.0 -7.098625721847e-04 
0.0 0.0 0.0 
0.0 0.0 0.0 
0.0 0.0 0.0 
-1.015724792628e-03 8.235652516452e-05 0.0 
8.235652516452e-05 5.775865579893e-03 0.0 
0.0 0.0 -8.733545218784e-04 
-8.401387806922e-04 6.123016035238e-05 0.0 
6.123016035238e-05 3.850164849745e-03 0.0 
0.0 0.0 -5.956302995864e-04 
2.119608216236e-04 1.827144702945e-05 0.0 
1.827144702945e-05 -6.337242555222e-05 0.0 
0.0 0.0 -6.368074117344e-05 
-9.031369501237e-04 -1.865236162329e-04 0.0 
-1.865236162329e-04 4.464828183770e-03 0.0 
0.0 0.0 -7.041275119738e-04 
-8.760607814048e-04 -2.015865901798e-04 0.0 
-2.015865901798e-04 6.047567037496e-03 0.0 
0.0 0.0 -1.001254648526e-03 
-1.205696135514e-03 2.785240829935e-04 0.0 
2.785240829935e-04 7.656838420364e-03 0.0 
0.0 0.0 -1.146946825052e-03 
-5.022948978825e-04 -4.626796724593e-04 0.0 
-4.626796724593e-04 4.761985454285e-03 0.0 
0.0 0.0 -8.532270185794e-04 
-5.545620008577e-04 -7.574531854601e-05 0.0 
-7.574531854601e-05 4.939516714005e-03 0.0 
0.0 0.0 -8.841559964380e-04 
-9.029537400273e-04 7.141549008008e-05 0.0 
7.141549008008e-05 4.945239925053e-03 0.0 
0.0 0.0 -7.495231765994e-04 
-8.844827213453e-04 6.847338950965e-05 0.0 
6.847338950965e-05 4.625730514937e-03 0.0 
0.0 0.0 -7.312625299844e-04 
-1.286320179804e-03 2.788583147739e-04 0.0 
2.788583147739e-04 8.406193484283e-03 0.0 
0.0 0.0 -1.286111585339e-03 
-8.045597696771e-04 4.385655444655e-04 0.0 
4.385655444655e-04 5.012857215938e-03 0.0 
0.0 0.0 -8.082854548548e-04 
6.621891051064e-04 -1.711434374491e-05 0.0 
-1.711434374491e-05 -4.360569155907e-05 0.0 
0.0 0.0 -9.362473743294e-05 
-4.298982998579e-04 -6.269550114416e-04 0.0 
-6.269550114416e-04 1.549337747066e-03 0.0 
0.0 0.0 -2.569639750501e-04 
-5.557804512661e-05 -2.649152406900e-04 0.0 
-2.649152406900e-04 2.900758507811e-04 0.0 
0.0 0.0 -1.004990595662e-04 
-6.031978273067e-04 -1.007320967644e-03 0.0 
-1.007320967644e-03 2.552633295107e-03 0.0 
0.0 0.0 -4.284133232656e-04 
-1.143923933864e-03 2.767605230601e-04 0.0 
2.767605230601e-04 7.311015416728e-03 0.0 
0.0 0.0 -1.134523071099e-03 
-1.214790267536e-03 -1.094816465951e-04 0.0 
-1.094816465951e-04 7.712260942966e-03 0.0 
0.0 0.0 -1.144649651339e-03 
-1.087508141976e-03 -1.587001134092e-04 0.0 
-1.587001134092e-04 6.822768700719e-03 0.0 
0.0 0.0 -1.087427768671e-03 
-6.685965332887e-04 -7.845956287838e-04 0.0 
-7.845956287838e-04 2.990542570396e-03 0.0 
0.0 0.0 -4.827803379924e-04 
-1.041668217069e-03 -5.600095855462e-04 0.0 
-5.600095855462e-04 5.820984951314e-03 0.0 
0.0 0.0 -9.063168105749e-04 
-1.002226704218e-03 -4.489969858519e-05 0.0 
-4.489969858519e-05 6.971386371707e-03 0.0 
0.0 0.0 -1.142106164841e-03 
5.911862038656e-04 5.961670165533e-05 0.0 
5.961670165533e-05 -1.764561884350e-04 0.0 
0.0 0.0 -1.777414351845e-04 
-8.306874199400e-04 -2.997045909462e-04 0.0 
-2.997045909462e-04 3.873272421704e-03 0.0 
0.0 0.0 -5.942115541274e-04 
-6.956533125248e-04 1.124846661467e-04 0.0 
1.124846661467e-04 3.135833764917e-03 0.0 
0.0 0.0 -4.980019828625e-04 
-1.307918774452e-03 -2.672149718263e-04 0.0 
-2.672149718263e-04 8.583156667317e-03 0.0 
0.0 0.0 -1.322396863610e-03 
-1.341641872583e-03 -2.574400453278e-04 0.0 
-2.574400453278e-04 8.313092341430e-03 0.0 
0.0 0.0 -1.341641872583e-03 
-9.100844780323e-04 -2.535656636935e-04 0.0 
-2.535656636935e-04 4.283598396940e-03 0.0 
0.0 0.0 -6.580288049735e-04 
-9.226849417219e-04 -5.822088138657e-04 0.0 
-5.822088138657e-04 4.742725005737e-03 0.0 
0.0 0.0 -7.385580096348e-04 
-7.259593438489e-04 -4.081287369355e-04 0.0 
-4.081287369355e-04 4.909588067259e-03 0.0 
0.0 0.0 -8.323457052078e-04 
-1.025384663725e-03 -1.558037465638e-06 0.0 
-1.558037465638e-06 7.232536331843e-03 0.0 
0.0 0.0 -1.177278300149e-03 
-5.185769804222e-04 -3.082242823645e-04 0.0 
-3.082242823645e-04 1.649765607481e-03 0.0 
0.0 0.0 -2.880367495917e-04 
-9.770068768367e-04 -9.822974250100e-05 0.0 
-9.822974250100e-05 6.742502940673e-03 0.0 
0.0 0.0 -1.104707344597e-03 
-8.864038043829e-05 -1.638440655004e-05 0.0 
-1.638440655004e-05 9.863844244366e-04 0.0 
0.0 0.0 -1.612556504808e-04 
-8.754272683905e-04 -6.018300858025e-04 0.0 
-6.018300858025e-04 4.312432546832e-03 0.0 
0.0 0.0 -6.724657308136e-04 
-8.826884309659e-04 -7.176448192389e-04 0.0 
-7.176448192389e-04 4.701849927849e-03 0.0 
0.0 0.0 -7.470513223636e-04 
-3.546308527174e-05 5.679765794383e-06 0.0 
5.679765794383e-06 2.993710717870e-04 0.0 
0.0 0.0 -1.131034227923e-04 
-8.541374211011e-04 1.051307269510e-04 0.0 
1.051307269510e-04 4.063038016891e-03 0.0 
0.0 0.0 -6.267591816330e-04 
-1.242827358992e-03 4.579768759709e-04 0.0 
4.579768759709e-04 7.784562517271e-03 0.0 
0.0 0.0 -1.176862138969e-03 
5.856171802454e-04 8.673890813667e-06 0.0 
8.673890813667e-06 6.976119991761e-06 0.0 
0.0 0.0 -9.786084279852e-05 
-8.702582028195e-04 1.105447853201e-04 0.0 
1.105447853201e-04 4.607072405037e-03 0.0 
0.0 0.0 -7.322753781719e-04 
-8.459002629386e-04 1.198690024363e-04 0.0 
1.198690024363e-04 4.870014320209e-03 0.0 
0.0 0.0 -7.130472889423e-04 
-6.411087712709e-04 -3.059567672411e-04 0.0 
-3.059567672411e-04 5.528224217795e-03 0.0 
0.0 0.0 -9.552000144736e-04 
-6.940260095912e-04 -2.019223501579e-04 0.0 
-2.019223501579e-04 3.181147651246e-03 0.0 
0.0 0.0 -4.943513106837e-04 
-3.551699552598e-04 -1.046898701828e-03 0.0 
-1.046898701828e-03 2.386678131376e-03 0.0 
0.0 0.0 -4.817493388239e-04 
-2.903941216122e-04 1.483074513055e-03 0.0 
1.483074513055e-03 1.457235103792e-03 0.0 
0.0 0.0 -3.398054741319e-04 
-1.199955943827e-03 -1.286515075727e-04 0.0 
-1.286515075727e-04 7.503949585872e-03 0.0 
0.0 0.0 -1.180895453064e-03 
-1.276254635442e-03 4.715115445783e-04 0.0 
4.715115445783e-04 8.059382999082e-03 0.0 
0.0 0.0 -1.286194385238e-03 
-1.186217889961e-03 -6.749121568718e-05 0.0 
-6.749121568718e-05 7.409362913807e-03 0.0 
0.0 0.0 -1.101088927253e-03 
-5.347000365982e-04 9.291634402025e-04 0.0 
9.291634402025e-04 2.503086312716e-03 0.0 
0.0 0.0 -4.457015571677e-04 
-3.190037393042e-04 -1.683187168607e-04 0.0 
-1.683187168607e-04 9.740026393817e-04 0.0 
0.0 0.0 -2.223875638571e-04 
-8.385442436262e-04 2.562372654306e-04 0.0 
2.562372654306e-04 4.497930936177e-03 0.0 
0.0 0.0 -6.999131133628e-04 
-8.425527780140e-04 3.452494000883e-05 0.0 
3.452494000883e-05 4.643700331840e-03 0.0 
0.0 0.0 -7.345111139194e-04 
-8.389403033821e-04 -1.305466340479e-06 0.0 
-1.305466340479e-06 4.908724598573e-03 0.0 
0.0 0.0 -7.144802219087e-04 
2.118993314013e-04 1.507058348733e-05 0.0 
1.507058348733e-05 -6.339593750257e-05 0.0 
0.0 0.0 -6.364431167088e-05 
-5.587289192583e-05 -6.452329894431e-06 0.0 
-6.452329894431e-06 2.977317204857e-04 0.0 
0.0 0.0 -1.036537836685e-04 
-1.659582098733e-04 -6.983629749951e-05 0.0 
-6.983629749951e-05 7.156238265913e-04 0.0 
0.0 0.0 -1.795416262981e-04 
-6.042827533109e-04 -3.178261870528e-04 0.0 
-3.178261870528e-04 2.298196668838e-03 0.0 
0.0 0.0 -3.820941496288e-04 
1.745656339544e-04 -6.881620967810e-06 0.0 
-6.881620967810e-06 5.205015129475e-04 0.0 
0.0 0.0 -1.430998070711e-04 
-9.621077650285e-04 9.743124488288e-05 0.0 
9.743124488288e-05 4.540703172736e-03 0.0 
0.0 0.0 -6.918148876825e-04 
0.0 0.0 0.0 
0.0 0.0 0.0 
0.0 0.0 0.0 
-6.636885702572e-04 -3.632840591834e-04 0.0 
-3.632840591834e-04 2.727769964994e-03 0.0 
0.0 0.0 -4.482372226011e-04 
-1.037073112810e-03 8.416167581821e-05 0.0 
8.416167581821e-05 6.231636848545e-03 0.0 
0.0 0.0 -9.582560723523e-04 
-8.428951159850e-04 8.320649882269e-05 0.0 
8.320649882269e-05 4.895786071823e-03 0.0 
0.0 0.0 -7.120344407548e-04 
-1.176195464104e-03 2.727173431630e-04 0.0 
2.727173431630e-04 7.571205441829e-03 0.0 
0.0 0.0 -1.169483110168e-03 
-8.724458015180e-04 -2.535481835564e-04 0.0 
-2.535481835564e-04 5.840199633402e-03 0.0 
0.0 0.0 -9.641449249716e-04 
-9.956049472303e-04 9.460602026458e-05 0.0 
9.460602026458e-05 5.823804297189e-03 0.0 
0.0 0.0 -8.988447104697e-04 
-7.453270263773e-04 1.666868432523e-04 0.0 
1.666868432523e-04 3.393805001824e-03 0.0 
0.0 0.0 -5.269378630653e-04 
-6.611997545445e-05 -3.806127284770e-05 0.0 
-3.806127284770e-05 9.766559638682e-04 0.0 
0.0 0.0 -1.602995255322e-04 
-1.340974968048e-03 1.475163558745e-04 0.0 
1.475163558745e-04 8.789407210591e-03 0.0 
0.0 0.0 -1.340974968048e-03 
-1.353375445294e-03 1.861681106883e-04 0.0 
1.861681106883e-04 9.067632799309e-03 0.0 
0.0 0.0 -1.320295381545e-03 
-9.653313430370e-04 3.172946590342e-04 0.0 
3.172946590342e-04 5.653212768820e-03 0.0 
0.0 0.0 -8.588387843224e-04 
-8.723549553050e-04 3.791940437681e-05 0.0 
3.791940437681e-05 4.638744233564e-03 0.0 
0.0 0.0 -7.326073368542e-04 
-7.433675000171e-04 -1.881116571238e-04 0.0 
-1.881116571238e-04 3.464526545461e-03 0.0 
0.0 0.0 -5.314511797787e-04 
-1.343039576571e-03 1.116238935560e-04 0.0 
1.116238935560e-04 9.058435864628e-03 0.0 
0.0 0.0 -1.322576402756e-03 
-6.088517818817e-04 -7.427980185432e-04 0.0 
-7.427980185432e-04 2.573085079122e-03 0.0 
0.0 0.0 -4.166600706249e-04 
-8.421343191380e-04 8.947296271354e-05 0.0 
8.947296271354e-05 4.867861189812e-03 0.0 
0.0 0.0 -7.125614225629e-04 
-8.442475580862e-04 6.688277321944e-05 0.0 
6.688277321944e-05 4.629764896323e-03 0.0 
0.0 0.0 -7.312775522649e-04 
-8.183075665077e-04 4.944600713478e-04 0.0 
4.944600713478e-04 4.297011605974e-03 0.0 
0.0 0.0 -6.755779900756e-04 
-1.341823989366e-03 3.176700121755e-04 0.0 
3.176700121755e-04 8.755155514573e-03 0.0 
0.0 0.0 -1.341823989366e-03 
-1.316183787817e-03 1.764356624828e-04 0.0 
1.764356624828e-04 9.061441417317e-03 0.0 
0.0 0.0 -1.322582685247e-03 
1.706419388007e-04 -6.581066488368e-06 0.0 
-6.581066488368e-06 5.083643028934e-04 0.0 
0.0 0.0 -1.414504174366e-04 
2.407344509661e-04 1.323517305793e-05 0.0 
1.323517305793e-05 -7.208659109850e-05 0.0 
0.0 0.0 -7.227765422896e-05 
-4.260081866660e-04 -1.856958100474e-04 0.0 
-1.856958100474e-04 1.223914747001e-03 0.0 
0.0 0.0 -2.229509930541e-04 
-8.539532720431e-04 -3.709598021116e-04 0.0 
-3.709598021116e-04 4.637819177533e-03 0.0 
0.0 0.0 -7.497705102653e-04 
-1.319228459702e-03 1.823496012509e-04 0.0 
1.823496012509e-04 8.037185883931e-03 0.0 
0.0 0.0 -1.224669017856e-03 
0.0 0.0 0.0 
0.0 0.0 0.0 
0.0 0.0 0.0 
-1.164534197096e-03 -1.984727069524e-04 0.0 
-1.984727069524e-04 7.327097077271e-03 0.0 
0.0 0.0 -1.092518628634e-03 
0.0 0.0 0.0 
0.0 0.0 0.0 
0.0 0.0 0.0 
-6.586480689668e-04 -2.893406478862e-05 0.0 
-2.893406478862e-05 5.445033550024e-03 0.0 
0.0 0.0 -9.493083249531e-04 
6.413544779552e-05 -3.379620450346e-04 0.0 
-3.379620450346e-04 1.394736970074e-04 0.0 
0.0 0.0 -8.691392457031e-05 
1.450430834232e-05 -8.616792963926e-05 0.0 
-8.616792963926e-05 3.294529381564e-05 0.0 
0.0 0.0 -2.033554378198e-05 
-6.338862404721e-04 -1.383285000905e-04 0.0 
-1.383285000905e-04 5.212576859225e-03 0.0 
0.0 0.0 -9.122568895951e-04 
-1.285900318348e-03 2.146352195215e-05 0.0 
2.146352195215e-05 7.759528202279e-03 0.0 
0.0 0.0 -1.192963836147e-03 
-1.029044917040e-03 -7.279636213487e-05 0.0 
-7.279636213487e-05 6.446740060124e-03 0.0 
0.0 0.0 -9.361271490834e-04 
-8.407421483093e-04 3.218859450769e-04 0.0 
3.218859450769e-04 4.639661762171e-03 0.0 
0.0 0.0 -7.268406435589e-04 
-3.072399208747e-05 -1.897210475410e-05 0.0 
-1.897210475410e-05 2.991997316549e-04 0.0 
0.0 0.0 -1.150610312432e-04 
-1.088521664505e-03 -4.986556758640e-04 0.0 
-4.986556758640e-04 6.052818965112e-03 0.0 
0.0 0.0 -9.349022313484e-04 
-1.337797817327e-03 2.888082420915e-05 0.0 
2.888082420915e-05 8.797778454419e-03 0.0 
0.0 0.0 -1.337797817327e-03 
-1.344206616167e-03 -8.091836582187e-05 0.0 
-8.091836582187e-05 9.064612422815e-03 0.0 
0.0 0.0 -1.322354755130e-03 
-8.386635614455e-04 6.856267782852e-05 0.0 
6.856267782852e-05 4.896920748213e-03 0.0 
0.0 0.0 -7.125764448434e-04 
-6.958258556128e-04 6.990936182405e-05 0.0 
6.990936182405e-05 5.692375670829e-03 0.0 
0.0 0.0 -9.863757069361e-04 
-1.341607717199e-03 1.551401879936e-04 0.0 
1.551401879936e-04 8.810609962061e-03 0.0 
0.0 0.0 -1.341607717199e-03 
-8.875903164710e-04 2.432432692731e-04 0.0 
2.432432692731e-04 6.412529175352e-03 0.0 
0.0 0.0 -1.046710270629e-03 
-7.224987108801e-05 2.416900893393e-05 0.0 
2.416900893393e-05 9.236508622773e-04 0.0 
0.0 0.0 -1.589907658001e-04 
1.844060408699e-04 -1.026478452949e-05 0.0 
-1.026478452949e-05 5.130263938471e-04 0.0 
0.0 0.0 -1.435574244405e-04 
-2.891409061342e-05 -3.272758998480e-05 0.0 
-3.272758998480e-05 3.203427987140e-04 0.0 
0.0 0.0 -1.200048127433e-04 
-8.246082063499e-04 1.600403801409e-04 0.0 
1.600403801409e-04 3.844559296729e-03 0.0 
0.0 0.0 -5.933358154923e-04 
-1.368440753648e-03 -2.847926622310e-04 0.0 
-2.847926622310e-04 8.814363085181e-03 0.0 
0.0 0.0 -1.322828574513e-03 
-1.280689091558e-03 -2.286632291646e-04 0.0 
-2.286632291646e-04 8.487923234130e-03 0.0 
0.0 0.0 -1.258329778789e-03 
2.520020944074e-04 -9.417495015486e-06 0.0 
-9.417495015486e-06 -7.547411903337e-05 0.0 
0.0 0.0 -7.565484658888e-05 
-9.449458894061e-04 -2.123271304103e-04 0.0 
-2.123271304103e-04 4.512069341782e-03 0.0 
0.0 0.0 -6.938761155152e-04 
-1.344798314369e-03 -1.247366253674e-04 0.0 
-1.247366253674e-04 8.595631148609e-03 0.0 
0.0 0.0 -1.344798314369e-03 
-1.373531731671e-03 -1.707869213026e-04 0.0 
-1.707869213026e-04 8.832402882049e-03 0.0 
0.0 0.0 -1.318785251170e-03 
-1.282177360506e-03 -3.124369979244e-04 0.0 
-3.124369979244e-04 8.610103347005e-03 0.0 
0.0 0.0 -1.321151187552e-03 
-1.113562773683e-03 2.219946434219e-04 0.0 
2.219946434219e-04 6.878878469590e-03 0.0 
0.0 0.0 -1.027148381742e-03 
-1.180769122149e-03 -2.135481498419e-04 0.0 
-2.135481498419e-04 7.573759840694e-03 0.0 
0.0 0.0 -1.125709525796e-03 
-1.338030260144e-03 -1.771563366243e-04 0.0 
-1.771563366243e-04 8.542675147626e-03 0.0 
0.0 0.0 -1.338030260144e-03 
-1.340754991027e-03 -2.390663127656e-04 0.0 
-2.390663127656e-04 8.545998822267e-03 0.0 
0.0 0.0 -1.340754991027e-03 
-1.152960594027e-03 1.859255734492e-04 0.0 
1.859255734492e-04 7.333872638941e-03 0.0 
0.0 0.0 -1.092518628634e-03 
6.040404689232e-04 9.568591753019e-05 0.0 
9.568591753019e-05 -6.408932826674e-05 0.0 
0.0 0.0 -9.235885521468e-05 
-8.216739313019e-04 1.642653897250e-05 0.0 
1.642653897250e-05 4.866544847831e-03 0.0 
0.0 0.0 -7.139539158865e-04 
-8.429301589013e-04 7.371775731573e-05 0.0 
7.371775731573e-05 4.924292125164e-03 0.0 
0.0 0.0 -7.133642253441e-04 
2.432336519054e-04 6.949879094711e-06 0.0 
6.949879094711e-06 -7.294262653964e-05 0.0 
0.0 0.0 -7.298186801390e-05 
-1.342313591240e-03 -2.893823135638e-04 0.0 
-2.893823135638e-04 8.501007321383e-03 0.0 
0.0 0.0 -1.342313591240e-03 
-1.327713446301e-03 -3.071447071229e-04 0.0 
-3.071447071229e-04 8.654446540322e-03 0.0 
0.0 0.0 -1.318355947622e-03 
-1.337959751097e-03 -3.069413126871e-04 0.0 
-3.069413126871e-04 8.377273660842e-03 0.0 
0.0 0.0 -1.337959751097e-03 
5.382873424725e-04 1.051034098534e-05 0.0 
1.051034098534e-05 3.447207322761e-05 0.0 
0.0 0.0 -9.875111991497e-05 
5.465365996427e-04 1.921140548757e-05 0.0 
1.921140548757e-05 3.586604406774e-05 0.0 
0.0 0.0 -1.001629653630e-04 
-1.340754991027e-03 -2.745211848364e-04 0.0 
-2.745211848364e-04 8.326750669152e-03 0.0 
0.0 0.0 -1.340754991027e-03 
-1.340396196526e-03 -3.177254258607e-04 0.0 
-3.177254258607e-04 8.348861196928e-03 0.0 
0.0 0.0 -1.340396196526e-03 
-1.100408733265e-03 -2.290747800904e-04 0.0 
-2.290747800904e-04 6.654648242085e-03 0.0 
0.0 0.0 -9.936726122374e-04 
-8.156679351147e-04 3.791493186346e-05 0.0 
3.791493186346e-05 4.866771241895e-03 0.0 
0.0 0.0 -7.124851972278e-04 
-1.126282978383e-03 -2.242329370711e-04 0.0 
-2.242329370711e-04 7.103431173965e-03 0.0 
0.0 0.0 -1.060142436171e-03 
-9.808195587630e-04 -2.230997408213e-04 0.0 
-2.230997408213e-04 5.708119715060e-03 0.0 
0.0 0.0 -8.626607521899e-04 
-7.941305620824e-04 1.551089981454e-05 0.0 
1.551089981454e-05 4.869359917574e-03 0.0 
0.0 0.0 -7.121912678902e-04 
7.040827403612e-04 7.380490456996e-06 0.0 
7.380490456996e-06 -3.505683220774e-05 0.0 
0.0 0.0 -9.491348420367e-05 
6.357527662839e-04 -8.824699617213e-05 0.0 
-8.824699617213e-05 3.733323429846e-05 0.0 
0.0 0.0 -1.068803031330e-04 
5.856552846093e-04 -8.204592747125e-05 0.0 
-8.204592747125e-05 2.270090481132e-05 0.0 
0.0 0.0 -9.934895370439e-05 
6.682124726064e-04 -5.433044528850e-05 0.0 
-5.433044528850e-05 2.762423436657e-05 0.0 
0.0 0.0 -1.574260069802e-04 
-9.875526380001e-04 1.999683647263e-04 0.0 
1.999683647263e-04 4.756922496595e-03 0.0 
0.0 0.0 -7.271325101417e-04 
-9.022422993743e-04 1.689219604000e-04 0.0 
1.689219604000e-04 4.293373185727e-03 0.0 
0.0 0.0 -6.600769387058e-04 
0.0 0.0 0.0 
0.0 0.0 0.0 
0.0 0.0 0.0 
-1.139432736752e-03 1.969596473993e-04 0.0 
1.969596473993e-04 6.092355855196e-03 0.0 
0.0 0.0 -9.221709323543e-04 
0.0 0.0 0.0 
0.0 0.0 0.0 
0.0 0.0 0.0 
-1.341471640605e-03 2.821656468085e-04 0.0 
2.821656468085e-04 8.748357117342e-03 0.0 
0.0 0.0 -1.341471640605e-03 
-1.340968685557e-03 1.312437350478e-04 0.0 
1.312437350478e-04 8.782913575074e-03 0.0 
0.0 0.0 -1.340968685557e-03 
-1.339320413496e-03 1.880713074898e-04 0.0 
1.880713074898e-04 8.789181418084e-03 0.0 
0.0 0.0 -1.339320413496e-03 
-2.891904725790e-04 2.036868385329e-04 0.0 
2.036868385329e-04 1.487086439737e-03 0.0 
0.0 0.0 -2.599136149544e-04 
-6.430141663801e-04 1.708121578067e-04 0.0 
1.708121578067e-04 2.925097320677e-03 0.0 
0.0 0.0 -4.607467809507e-04 
-1.337132911908e-03 8.989218137943e-05 0.0 
8.989218137943e-05 8.798780956337e-03 0.0 
0.0 0.0 -1.337132911908e-03 
-1.268709771428e-03 1.750290220288e-04 0.0 
1.750290220288e-04 7.410750387042e-03 0.0 
0.0 0.0 -1.124956933753e-03 
-1.344556937803e-03 5.420067643192e-05 0.0 
5.420067643192e-05 8.841140369170e-03 0.0 
0.0 0.0 -1.344556937803e-03 
-1.309963082983e-03 1.898374887779e-04 0.0 
1.898374887779e-04 7.848623061347e-03 0.0 
0.0 0.0 -1.192538251246e-03 
-1.338506523092e-03 2.196897297750e-04 0.0 
2.196897297750e-04 8.286254789378e-03 0.0 
0.0 0.0 -1.259905836238e-03 
-8.634449756302e-04 -2.267992264203e-04 0.0 
-2.267992264203e-04 4.063283112415e-03 0.0 
0.0 0.0 -6.267460875326e-04 
-1.354536289335e-03 7.630110527830e-05 0.0 
7.630110527830e-05 9.083283423121e-03 0.0 
0.0 0.0 -1.318101597465e-03 
-1.353127036110e-03 2.052350059942e-04 0.0 
2.052350059942e-04 9.070380165704e-03 0.0 
0.0 0.0 -1.321689849711e-03 
-1.286890123680e-03 -2.394731622084e-04 0.0 
-2.394731622084e-04 7.571755325092e-03 0.0 
0.0 0.0 -1.157495185000e-03 
-1.323365826624e-03 -2.403819852103e-04 0.0 
-2.403819852103e-04 8.033634754339e-03 0.0 
0.0 0.0 -1.225777420818e-03 
-1.161453211646e-03 -3.736884005785e-04 0.0 
-3.736884005785e-04 6.493225178424e-03 0.0 
0.0 0.0 -9.925156490314e-04 
0.0 0.0 0.0 
0.0 0.0 0.0 
0.0 0.0 0.0 
-8.671818712195e-04 -5.363828857818e-04 0.0 
-5.363828857818e-04 4.105500038503e-03 0.0 
0.0 0.0 -6.350241097613e-04 
1.538446466672e-04 -5.196602102228e-05 0.0 
-5.196602102228e-05 5.032465276658e-04 0.0 
0.0 0.0 -1.372732375194e-04 
-1.212742551210e-03 -4.759587518373e-04 0.0 
-4.759587518373e-04 7.564630454968e-03 0.0 
0.0 0.0 -1.177819030284e-03 
-8.605651419967e-04 -2.779235020759e-04 0.0 
-2.779235020759e-04 4.247159815615e-03 0.0 
0.0 0.0 -6.753691525988e-04 
-1.209845026625e-03 -3.828065324347e-05 0.0 
-3.828065324347e-05 7.089490121300e-03 0.0 
0.0 0.0 -1.099016898379e-03 
-5.359685570494e-04 -6.677092728244e-04 0.0 
-6.677092728244e-04 2.153205781578e-03 0.0 
0.0 0.0 -3.504775146279e-04 
-1.805242587165e-04 1.222080852242e-05 0.0 
1.222080852242e-05 7.550645308543e-04 0.0 
0.0 0.0 -1.735952156319e-04 
-1.264456075116e-03 -3.850163355986e-04 0.0 
-3.850163355986e-04 7.592925326403e-03 0.0 
0.0 0.0 -1.161668299909e-03 
-9.012428398998e-04 -5.241478665253e-04 0.0 
-5.241478665253e-04 4.532812848754e-03 0.0 
0.0 0.0 -7.012080445024e-04 
-8.068122859681e-04 1.121430841948e-04 0.0 
1.121430841948e-04 3.618999234990e-03 0.0 
0.0 0.0 -5.611363230934e-04 
-1.221373729773e-03 -3.971185644326e-04 0.0 
-3.971185644326e-04 7.158861497178e-03 0.0 
0.0 0.0 -1.096102707776e-03 
-1.225888037185e-03 2.356398892211e-04 0.0 
2.356398892211e-04 7.926332987898e-03 0.0 
0.0 0.0 -1.188907866872e-03 
-7.850590963076e-04 -2.211249008548e-04 0.0 
-2.211249008548e-04 3.627921543623e-03 0.0 
0.0 0.0 -5.602736785587e-04 
-9.153466014746e-04 -5.672710459790e-04 0.0 
-5.672710459790e-04 6.328544019957e-03 0.0 
0.0 0.0 -1.035646790376e-03 
-9.544485914901e-04 -2.692006228927e-04 0.0 
-2.692006228927e-04 5.706833288183e-03 0.0 
0.0 0.0 -9.181742748318e-04 
-1.151482432891e-03 -1.721733511891e-05 0.0 
-1.721733511891e-05 6.426989542900e-03 0.0 
0.0 0.0 -9.952786863929e-04 
-1.189685403522e-03 2.186394532171e-05 0.0 
2.186394532171e-05 6.656907816596e-03 0.0 
0.0 0.0 -1.024224580100e-03 
-2.906015399770e-05 6.908185225539e-04 0.0 
6.908185225539e-04 2.388123543614e-03 0.0 
0.0 0.0 -5.788817793163e-04 
-8.005376655691e-04 3.171132398136e-04 0.0 
3.171132398136e-04 4.241491794382e-03 0.0 
0.0 0.0 -6.651338130661e-04 
-5.426647513542e-04 5.869195559815e-04 0.0 
5.869195559815e-04 4.187651392435e-03 0.0 
0.0 0.0 -7.293057621918e-04 
-1.068839531754e-03 -1.396982746719e-04 0.0 
-1.396982746719e-04 5.983670003937e-03 0.0 
0.0 0.0 -9.378562126457e-04 
-1.253909417431e-03 -3.654180260376e-04 0.0 
-3.654180260376e-04 7.384129283890e-03 0.0 
0.0 0.0 -1.125100902632e-03 
-1.223048658493e-03 8.194922759041e-05 0.0 
8.194922759041e-05 6.885373196445e-03 0.0 
0.0 0.0 -1.053755873404e-03 
-5.843499511654e-04 -7.478811802874e-04 0.0 
-7.478811802874e-04 2.078474299742e-03 0.0 
0.0 0.0 -3.685493992842e-04 
-1.215420929976e-03 2.914568716421e-04 0.0 
2.914568716421e-04 7.912104441246e-03 0.0 
0.0 0.0 -1.183514100502e-03 
-1.184839979766e-03 2.716593684437e-04 0.0 
2.716593684437e-04 7.456605698874e-03 0.0 
0.0 0.0 -1.117084069417e-03 
-9.160676408920e-04 2.566629763440e-04 0.0 
2.566629763440e-04 5.389449650205e-03 0.0 
0.0 0.0 -8.110481619253e-04 
-1.072043250355e-03 -1.594447290691e-04 0.0 
-1.594447290691e-04 6.194419037886e-03 0.0 
0.0 0.0 -9.753747863247e-04 
-1.113512703567e-03 -7.830874303778e-05 0.0 
-7.830874303778e-05 6.209473753146e-03 0.0 
0.0 0.0 -9.665592132828e-04 
-1.247553885459e-03 -1.638883659802e-04 0.0 
-1.638883659802e-04 8.032779373469e-03 0.0 
0.0 0.0 -1.185362187646e-03 
-1.209218779800e-03 2.395415248872e-04 0.0 
2.395415248872e-04 7.733666527183e-03 0.0 
0.0 0.0 -1.150972777267e-03 
-9.235989750770e-04 -6.984337716094e-04 0.0 
-6.984337716094e-04 5.520417486699e-03 0.0 
0.0 0.0 -8.866930489607e-04 
-1.284523920474e-03 -3.501071659254e-04 0.0 
-3.501071659254e-04 7.805517890163e-03 0.0 
0.0 0.0 -1.190872049285e-03 
-1.177897572884e-03 3.138623603337e-04 0.0 
3.138623603337e-04 7.354283994280e-03 0.0 
0.0 0.0 -1.103416240745e-03 
-1.224145241381e-03 -2.616286438841e-04 0.0 
-2.616286438841e-04 6.885317791912e-03 0.0 
0.0 0.0 -1.053748284807e-03 
-1.251504070725e-03 -4.981478354757e-04 0.0 
-4.981478354757e-04 7.817749108824e-03 0.0 
0.0 0.0 -1.210017230578e-03 
-1.240161038229e-03 -1.265963501437e-04 0.0 
-1.265963501437e-04 7.971776447579e-03 0.0 
0.0 0.0 -1.181737430652e-03 
-1.104792332721e-03 -1.417124884619e-04 0.0 
-1.417124884619e-04 6.803117520475e-03 0.0 
0.0 0.0 -1.011817915138e-03 
-9.092260506378e-04 -6.128458239001e-04 0.0 
-6.128458239001e-04 6.116526816133e-03 0.0 
0.0 0.0 -9.985655989919e-04 
-5.244393316962e-04 -3.327701467071e-07 0.0 
-3.327701467071e-07 2.217192403788e-03 0.0 
0.0 0.0 -3.644364776638e-04 
-5.557520001356e-04 -9.492103982614e-04 0.0 
-9.492103982614e-04 1.854328414375e-03 0.0 
0.0 0.0 -3.414758422231e-04 
-2.976977379688e-04 -4.729019177062e-04 0.0 
-4.729019177062e-04 1.065430610337e-03 0.0 
0.0 0.0 -1.876370064529e-04 
-1.394869518500e-05 -5.836024776206e-04 0.0 
-5.836024776206e-04 3.988673203720e-04 0.0 
0.0 0.0 -1.649651250801e-04 
-1.208849354757e-03 -1.442002111852e-04 0.0 
-1.442002111852e-04 7.751975943977e-03 0.0 
0.0 0.0 -1.150998037120e-03 
-1.270626804187e-03 5.625887811154e-05 0.0 
5.625887811154e-05 7.521765115722e-03 0.0 
0.0 0.0 -1.156839719840e-03 
-1.128430539847e-04 -4.533921113002e-04 0.0 
-4.533921113002e-04 5.125802596057e-04 0.0 
0.0 0.0 -1.512448671109e-04 
-1.224260673069e-03 1.930240191298e-04 0.0 
1.930240191298e-04 7.672098389018e-03 0.0 
0.0 0.0 -1.160298666437e-03 
-9.269777591648e-04 2.462098102623e-04 0.0 
2.462098102623e-04 5.566246555216e-03 0.0 
0.0 0.0 -8.436798659344e-04 
-1.183821186611e-03 -4.510450975400e-04 0.0 
-4.510450975400e-04 6.938898886609e-03 0.0 
0.0 0.0 -1.067477449466e-03 
-1.234042430495e-03 4.386686661325e-05 0.0 
4.386686661325e-05 7.085000705368e-03 0.0 
0.0 0.0 -1.090430023688e-03 
-4.688031105262e-04 -9.449998288247e-04 0.0 
-9.449998288247e-04 2.708853865005e-03 0.0 
0.0 0.0 -5.090628918580e-04 
-1.241127751091e-03 -3.232486977457e-04 0.0 
-3.232486977457e-04 7.146083644213e-03 0.0 
0.0 0.0 -1.087955833448e-03 
-9.128116180444e-04 -2.432084876036e-04 0.0 
-2.432084876036e-04 5.398327604704e-03 0.0 
0.0 0.0 -8.100176300978e-04 
-7.075550094797e-04 -2.554204369628e-05 0.0 
-2.554204369628e-05 5.888227624213e-03 0.0 
0.0 0.0 -1.000388816061e-03 
-1.275643571196e-03 -3.853184117788e-05 0.0 
-3.853184117788e-05 7.999890426169e-03 0.0 
0.0 0.0 -1.242964905849e-03 
-4.891437223720e-04 4.195566496952e-05 0.0 
4.195566496952e-05 2.125578513997e-03 0.0 
0.0 0.0 -3.542437553904e-04 
-1.232067324065e-03 -4.786069064869e-04 0.0 
-4.786069064869e-04 7.807210147599e-03 0.0 
0.0 0.0 -1.215045542354e-03 
-1.132051344136e-03 -1.297668119058e-04 0.0 
-1.297668119058e-04 7.059354268222e-03 0.0 
0.0 0.0 -1.048288725887e-03 
-5.597857793192e-04 4.639966247623e-05 0.0 
4.639966247623e-05 2.420049368412e-03 0.0 
0.0 0.0 -3.930611257745e-04 
-5.609737831535e-04 -1.192047374110e-03 0.0 
-1.192047374110e-03 2.290088636828e-03 0.0 
0.0 0.0 -4.034900192350e-04 
-1.019435653485e-03 2.510797196313e-05 0.0 
2.510797196313e-05 5.114500101547e-03 0.0 
0.0 0.0 -7.909606353592e-04 
-1.046153520856e-03 2.672543322815e-04 0.0 
2.672543322815e-04 6.254372891690e-03 0.0 
0.0 0.0 -9.409807611877e-04 
-7.501439557545e-04 -2.986549649001e-04 0.0 
-2.986549649001e-04 3.375633566619e-03 0.0 
0.0 0.0 -5.429771841545e-04 
-1.160690986180e-03 -1.496920489451e-04 0.0 
-1.496920489451e-04 7.303854633305e-03 0.0 
0.0 0.0 -1.085119818393e-03 
-1.069476201499e-03 -1.757346183128e-04 0.0 
-1.757346183128e-04 6.567285104211e-03 0.0 
0.0 0.0 -9.816794289629e-04 
-9.579280571301e-04 -1.773255598002e-04 0.0 
-1.773255598002e-04 4.907486764764e-03 0.0 
0.0 0.0 -7.700930343086e-04 
-1.202171244896e-03 -3.172466399621e-04 0.0 
-3.172466399621e-04 6.703539097156e-03 0.0 
0.0 0.0 -1.021757709120e-03 
-1.211296574698e-03 -3.721899322367e-04 0.0 
-3.721899322367e-04 6.940479911899e-03 0.0 
0.0 0.0 -1.058696934625e-03 
-1.135291475184e-03 2.700006977273e-04 0.0 
2.700006977273e-04 6.997454425646e-03 0.0 
0.0 0.0 -1.050681058959e-03 
-4.173596233207e-04 -3.503884104976e-04 0.0 
-3.503884104976e-04 1.875894239502e-03 0.0 
0.0 0.0 -3.058749225436e-04 
-9.447771700352e-04 -1.262936496125e-04 0.0 
-1.262936496125e-04 4.694024374325e-03 0.0 
0.0 0.0 -7.328582426338e-04 
-9.670495794898e-04 5.137281078932e-04 0.0 
5.137281078932e-04 6.920842306521e-03 0.0 
0.0 0.0 -1.141128458404e-03 
-1.159905672637e-03 -1.212910240168e-04 0.0 
-1.212910240168e-04 7.261813298966e-03 0.0 
0.0 0.0 -1.078198857115e-03 
-8.846237530489e-04 -1.118837918711e-04 0.0 
-1.118837918711e-04 4.234828904613e-03 0.0 
0.0 0.0 -6.666835465145e-04 
-9.866099674588e-04 -6.396910670883e-04 0.0 
-6.396910670883e-04 5.776957758952e-03 0.0 
0.0 0.0 -9.153036164073e-04 
-1.180273166295e-03 -5.195576023231e-04 0.0 
-5.195576023231e-04 7.573511676705e-03 0.0 
0.0 0.0 -1.187586327529e-03 
-1.090487437882e-03 2.486631283317e-04 0.0 
2.486631283317e-04 6.750183946417e-03 0.0 
0.0 0.0 -1.013969106439e-03 
4.266683345687e-05 -1.829982136319e-05 0.0 
-1.829982136319e-05 -1.175196824509e-05 0.0 
0.0 0.0 -1.324922794790e-05 
-2.207289874608e-04 -3.235795152871e-04 0.0 
-3.235795152871e-04 1.003256593638e-03 0.0 
0.0 0.0 -1.835536028976e-04 
6.095472518787e-04 -2.844414826135e-05 0.0 
-2.844414826135e-05 2.461208838896e-04 0.0 
0.0 0.0 -3.667149153293e-04 
-1.247686431213e-03 1.804464591039e-05 0.0 
1.804464591039e-05 7.316811787833e-03 0.0 
0.0 0.0 -1.127837695838e-03 
-1.073532930030e-03 2.556328204713e-04 0.0 
2.556328204713e-04 6.504084694261e-03 0.0 
0.0 0.0 -9.775003154318e-04 
-1.065496431756e-03 -3.247503852032e-04 0.0 
-3.247503852032e-04 5.643495466523e-03 0.0 
0.0 0.0 -8.513051444990e-04 
-9.769664875946e-04 2.379062424114e-04 0.0 
2.379062424114e-04 5.801214914582e-03 0.0 
0.0 0.0 -8.745614812816e-04 
-1.019950067796e-03 -4.586219499737e-04 0.0 
-4.586219499737e-04 7.042194348422e-03 0.0 
0.0 0.0 -1.139196670502e-03 
-1.001595776578e-03 -1.032368991806e-04 0.0 
-1.032368991806e-04 5.128573561517e-03 0.0 
0.0 0.0 -7.988714448434e-04 
-1.198933731184e-03 -2.304563849883e-06 0.0 
-2.304563849883e-06 6.870961844438e-03 0.0 
0.0 0.0 -1.061632825506e-03 
-4.894390167554e-04 -2.936556089740e-04 0.0 
-2.936556089740e-04 2.281659796893e-03 0.0 
0.0 0.0 -3.615122310665e-04 
-1.252320573339e-03 -4.986115071304e-05 0.0 
-4.986115071304e-05 7.805865228042e-03 0.0 
0.0 0.0 -1.211531131004e-03 
-9.705690281363e-04 -5.093762920131e-04 0.0 
-5.093762920131e-04 4.972659776742e-03 0.0 
0.0 0.0 -7.673127347790e-04 
-5.395948498915e-04 -2.749809582872e-04 0.0 
-2.749809582872e-04 2.502960479934e-03 0.0 
0.0 0.0 -3.889166325194e-04 
-9.539878925134e-04 -4.665681980887e-04 0.0 
-4.665681980887e-04 4.746329446601e-03 0.0 
0.0 0.0 -7.311132045151e-04 
-7.861451495527e-04 -2.221214863257e-04 0.0 
-2.221214863257e-04 3.593397886981e-03 0.0 
0.0 0.0 -5.716673668464e-04 
-6.390151670991e-04 -6.536657789763e-04 0.0 
-6.536657789763e-04 2.791763486177e-03 0.0 
0.0 0.0 -4.452767020142e-04 
-1.072653987371e-03 2.886861907429e-05 0.0 
2.886861907429e-05 5.536656976787e-03 0.0 
0.0 0.0 -8.564950983273e-04 
2.053402963574e-04 2.693149737115e-05 0.0 
2.693149737115e-05 -6.111100134196e-05 0.0 
0.0 0.0 -6.181255500660e-05 
1.464512989776e-04 -5.911592787119e-06 0.0 
-5.911592787119e-06 -4.332551876097e-05 0.0 
0.0 0.0 -4.419676295000e-05 
-1.129321225881e-03 -4.366761249298e-04 0.0 
-4.366761249298e-04 6.278524906094e-03 0.0 
0.0 0.0 -9.636005660098e-04 
-4.459230001805e-04 -3.109429784165e-04 0.0 
-3.109429784165e-04 2.087500805873e-03 0.0 
0.0 0.0 -3.336449385292e-04 
-1.093345380725e-03 -5.267841385720e-04 0.0 
-5.267841385720e-04 6.263877748210e-03 0.0 
0.0 0.0 -9.724388998541e-04 
-1.043259012928e-03 -5.809617148742e-04 0.0 
-5.809617148742e-04 6.025832941714e-03 0.0 
0.0 0.0 -9.438473481109e-04 
-7.593501897991e-04 -4.626236543671e-04 0.0 
-4.626236543671e-04 3.770567817408e-03 0.0 
0.0 0.0 -6.177757646845e-04 
-3.406532554668e-04 -1.201349069570e-03 0.0 
-1.201349069570e-03 1.971960000255e-03 0.0 
0.0 0.0 -4.162223005415e-04 
-1.210770017431e-03 -8.268587528123e-05 0.0 
-8.268587528123e-05 7.661732423863e-03 0.0 
0.0 0.0 -1.137719822027e-03 
2.217423052273e-04 3.028948149786e-04 0.0 
3.028948149786e-04 -1.208394326890e-05 0.0 
0.0 0.0 -8.985358369644e-05 
-8.285748112363e-04 -1.587478080269e-04 0.0 
-1.587478080269e-04 3.819529826762e-03 0.0 
0.0 0.0 -6.004815939293e-04 
-1.049679539983e-03 -3.693865297615e-04 0.0 
-3.693865297615e-04 7.240151455212e-03 0.0 
0.0 0.0 -1.175533656463e-03 
-3.983359874590e-04 4.184586300730e-05 0.0 
4.184586300730e-05 1.714439103962e-03 0.0 
0.0 0.0 -2.977570873278e-04 
-1.020229649597e-03 -1.375914676709e-04 0.0 
-1.375914676709e-04 6.101662351483e-03 0.0 
0.0 0.0 -9.088859120638e-04 
-9.450324784717e-04 -1.832830397253e-04 0.0 
-1.832830397253e-04 5.623770961517e-03 0.0 
0.0 0.0 -8.416286270284e-04 
-4.351237697251e-04 -5.540829146340e-04 0.0 
-5.540829146340e-04 1.723099038299e-03 0.0 
0.0 0.0 -2.842394630762e-04 
-1.127395628762e-03 -5.008482085009e-04 0.0 
-5.008482085009e-04 7.317936875090e-03 0.0 
0.0 0.0 -1.158722036769e-03 
-1.133506044246e-03 -8.767361897690e-05 0.0 
-8.767361897690e-05 6.959505034578e-03 0.0 
0.0 0.0 -1.034898561726e-03 
-4.951489600236e-04 -4.786425625421e-05 0.0 
-4.786425625421e-05 2.022039619189e-03 0.0 
0.0 0.0 -3.364655670308e-04 
-1.234708714507e-03 -3.925269914934e-05 0.0 
-3.925269914934e-05 7.851562311589e-03 0.0 
0.0 0.0 -1.166520446339e-03 
-1.230308234664e-03 3.090146298482e-04 0.0 
3.090146298482e-04 7.789607374426e-03 0.0 
0.0 0.0 -1.169001632583e-03 
-5.233675107163e-04 -4.314455861334e-04 0.0 
-4.314455861334e-04 2.327927411805e-03 0.0 
0.0 0.0 -3.701904734684e-04 
-5.932851689167e-04 7.473876325445e-04 0.0 
7.473876325445e-04 2.806018980480e-03 0.0 
0.0 0.0 -4.801335248058e-04 
-5.599793527513e-04 -5.941268921314e-04 0.0 
-5.941268921314e-04 2.361270480637e-03 0.0 
0.0 0.0 -3.791106726259e-04 
-1.172251179922e-03 -4.180665988864e-04 0.0 
-4.180665988864e-04 6.718010438057e-03 0.0 
0.0 0.0 -1.029923508343e-03 
-1.041340644124e-03 -3.282174640750e-05 0.0 
-3.282174640750e-05 5.343281569417e-03 0.0 
0.0 0.0 -8.276368238623e-04 
-1.238338552957e-03 5.129188831146e-04 0.0 
5.129188831146e-04 7.705442663502e-03 0.0 
0.0 0.0 -1.169529464977e-03 
-1.205798657677e-03 3.040238914407e-04 0.0 
3.040238914407e-04 7.606656415098e-03 0.0 
0.0 0.0 -1.140030709108e-03 
-1.136504455291e-03 -4.715376891294e-04 0.0 
-4.715376891294e-04 6.495059726217e-03 0.0 
0.0 0.0 -1.001167767022e-03 
-1.120337032388e-03 -1.059796522353e-04 0.0 
-1.059796522353e-04 6.426005632212e-03 0.0 
0.0 0.0 -1.004093472296e-03 
-5.274441073591e-04 -2.397572524931e-04 0.0 
-2.397572524931e-04 1.862294635062e-03 0.0 
0.0 0.0 -3.158693332420e-04 
-1.161634108540e-03 -5.320117127017e-05 0.0 
-5.320117127017e-05 6.648981173758e-03 0.0 
0.0 0.0 -1.032853941699e-03 
-1.125917341076e-03 2.991763443149e-04 0.0 
2.991763443149e-04 6.905438798140e-03 0.0 
0.0 0.0 -1.037144748481e-03 
-1.044631038411e-03 -3.631995376833e-04 0.0 
-3.631995376833e-04 5.407625222663e-03 0.0 
0.0 0.0 -8.248712778174e-04 
-1.078523674622e-03 -1.304712665821e-04 0.0 
-1.304712665821e-04 6.557738951195e-03 0.0 
0.0 0.0 -9.752741834902e-04 
-1.159347625089e-03 -9.624416522510e-05 0.0 
-9.624416522510e-05 7.210996352120e-03 0.0 
0.0 0.0 -1.071415751597e-03 
-3.318515090644e-04 6.235225383972e-04 0.0 
6.235225383972e-04 3.802912303128e-03 0.0 
0.0 0.0 -7.435371925967e-04 
-1.181769783394e-03 2.863535825742e-04 0.0 
2.863535825742e-04 7.408927706841e-03 0.0 
0.0 0.0 -1.110258267496e-03 
-9.356896319010e-04 -4.816204734149e-05 0.0 
-4.816204734149e-05 4.523878489702e-03 0.0 
0.0 0.0 -6.965171720950e-04 
-1.013439798328e-03 -4.389789435164e-04 0.0 
-4.389789435164e-04 5.194362623047e-03 0.0 
0.0 0.0 -7.960639764766e-04 
-7.588476473929e-04 -1.047638361378e-04 0.0 
-1.047638361378e-04 3.390478407872e-03 0.0 
0.0 0.0 -5.342291996904e-04 
-6.729613587978e-04 -9.978092115441e-04 0.0 
-9.978092115441e-04 3.336051263368e-03 0.0 
0.0 0.0 -5.581583723280e-04 
-1.100329888420e-03 2.776105336716e-04 0.0 
2.776105336716e-04 6.705832396394e-03 0.0 
0.0 0.0 -1.007339817349e-03 
-7.155066052029e-04 -8.941200741794e-04 0.0 
-8.941200741794e-04 4.520636252880e-03 0.0 
0.0 0.0 -7.637833264599e-04 
-5.880444497108e-04 -5.324378047215e-04 0.0 
-5.324378047215e-04 2.570561499900e-03 0.0 
0.0 0.0 -4.077494273363e-04 
-3.167379964521e-04 -3.896430801043e-04 0.0 
-3.896430801043e-04 1.286713823890e-03 0.0 
0.0 0.0 -2.185673950299e-04 
-1.104743277708e-03 -1.081634182050e-04 0.0 
-1.081634182050e-04 6.759513962222e-03 0.0 
0.0 0.0 -1.005115000480e-03 
-6.259157449930e-04 -2.410202634238e-04 0.0 
-2.410202634238e-04 2.506664290233e-03 0.0 
0.0 0.0 -4.107160730352e-04 
-1.199872170886e-03 -1.045804178386e-04 0.0 
-1.045804178386e-04 7.736983325214e-03 0.0 
0.0 0.0 -1.218716866995e-03 
-1.124972404341e-03 2.718592290333e-04 0.0 
2.718592290333e-04 6.955187210285e-03 0.0 
0.0 0.0 -1.043883448597e-03 
-1.171061824699e-03 -7.858396141652e-05 0.0 
-7.858396141652e-05 6.870002089505e-03 0.0 
0.0 0.0 -1.070373463590e-03 
-1.223592225032e-03 -6.654680312814e-05 0.0 
-6.654680312814e-05 7.796071319491e-03 0.0 
0.0 0.0 -1.284729618418e-03 
-8.862225412837e-04 -4.776674958030e-04 0.0 
-4.776674958030e-04 4.314456893826e-03 0.0 
0.0 0.0 -6.637377122259e-04 
-5.666876201447e-04 -1.260874714856e-04 0.0 
-1.260874714856e-04 2.263003673050e-03 0.0 
0.0 0.0 -3.731618544809e-04 
-4.219134531154e-04 -1.222472695970e-04 0.0 
-1.222472695970e-04 1.397809828057e-03 0.0 
0.0 0.0 -2.496210768721e-04 
-1.097286575279e-03 -5.440934378647e-04 0.0 
-5.440934378647e-04 6.473058930747e-03 0.0 
0.0 0.0 -1.009908742814e-03 
-1.043727317765e-03 2.472408857258e-04 0.0 
2.472408857258e-04 6.306661261885e-03 0.0 
0.0 0.0 -9.473489374553e-04 
-2.695681844680e-04 -5.290039554231e-05 0.0 
-5.290039554231e-05 9.382689285882e-04 0.0 
0.0 0.0 -1.858848441742e-04 
-7.364560019706e-04 -6.036242025600e-04 0.0 
-6.036242025600e-04 3.440005901319e-03 0.0 
0.0 0.0 -5.400474096907e-04 
-4.035403746382e-04 -2.305403145177e-04 0.0 
-2.305403145177e-04 2.024884021199e-03 0.0 
0.0 0.0 -3.246070344129e-04 
-1.046680963677e-03 -1.140431221757e-04 0.0 
-1.140431221757e-04 6.307213054075e-03 0.0 
0.0 0.0 -9.387834224271e-04 
-7.632592856577e-04 -5.393132933556e-04 0.0 
-5.393132933556e-04 3.657861775186e-03 0.0 
0.0 0.0 -5.687878759048e-04 
-1.016724206552e-03 -2.154888859726e-04 0.0 
-2.154888859726e-04 5.955453979487e-03 0.0 
0.0 0.0 -9.467935652645e-04 
-7.568020148065e-04 -4.521860907560e-04 0.0 
-4.521860907560e-04 3.415229586271e-03 0.0 
0.0 0.0 -5.337555413938e-04 
-1.189199624854e-03 -1.376681473433e-04 0.0 
-1.376681473433e-04 7.515170933533e-03 0.0 
0.0 0.0 -1.114809527198e-03 
-6.923550043241e-04 -2.768469088006e-04 0.0 
-2.768469088006e-04 2.945508556802e-03 0.0 
0.0 0.0 -4.768663991247e-04 
-1.044644236131e-03 -5.895775659962e-04 0.0 
-5.895775659962e-04 6.433247658548e-03 0.0 
0.0 0.0 -1.018590841688e-03 
-5.377186267121e-04 -1.162421830740e-03 0.0 
-1.162421830740e-03 1.924594638442e-03 0.0 
0.0 0.0 -3.376433569222e-04 
-1.043635089924e-03 -5.925974921427e-04 0.0 
-5.925974921427e-04 6.227817584456e-03 0.0 
0.0 0.0 -9.812220007866e-04 
-9.943565397434e-04 -3.497380212248e-04 0.0 
-3.497380212248e-04 4.987357588882e-03 0.0 
0.0 0.0 -7.604224332210e-04 
-1.126398211161e-03 -1.231258313828e-04 0.0 
-1.231258313828e-04 6.641179692916e-03 0.0 
0.0 0.0 -1.041555045145e-03 
9.223743664251e-05 -1.553032727052e-04 0.0 
-1.553032727052e-04 2.018845935385e-03 0.0 
0.0 0.0 -5.350282927002e-04 
-4.513551852745e-04 7.961954421126e-05 0.0 
7.961954421126e-05 1.942718085049e-03 0.0 
0.0 0.0 -3.277310168338e-04 
-9.768870302484e-04 -1.535527430477e-04 0.0 
-1.535527430477e-04 5.889109902335e-03 0.0 
0.0 0.0 -8.787268422831e-04 
-6.833158998415e-04 -4.842839122641e-04 0.0 
-4.842839122641e-04 5.519329349180e-03 0.0 
0.0 0.0 -9.464297096767e-04 
-6.696248071327e-04 9.527190214272e-04 0.0 
9.527190214272e-04 3.942995259938e-03 0.0 
0.0 0.0 -6.776081642141e-04 
-1.047238839157e-03 -1.563485093405e-04 0.0 
-1.563485093405e-04 6.341652196106e-03 0.0 
0.0 0.0 -9.453210152248e-04 
-5.135632802951e-04 -1.406486370917e-03 0.0 
-1.406486370917e-03 1.993823835031e-03 0.0 
0.0 0.0 -3.758914132629e-04 
-1.070153882220e-03 3.026802387506e-04 0.0 
3.026802387506e-04 6.407668419037e-03 0.0 
0.0 0.0 -9.642804585795e-04 
-3.826150946160e-04 -2.687090143275e-04 0.0 
-2.687090143275e-04 1.814458781029e-03 0.0 
0.0 0.0 -2.947674122297e-04 
-1.169970312209e-03 -5.285152303079e-04 0.0 
-5.285152303079e-04 7.359319887074e-03 0.0 
0.0 0.0 -1.150402778756e-03 
-7.093705364921e-04 -3.773457786927e-04 0.0 
-3.773457786927e-04 5.766663180528e-03 0.0 
0.0 0.0 -9.834711240942e-04 
-7.789396793629e-04 4.773750927831e-05 0.0 
4.773750927831e-05 6.190226744614e-03 0.0 
0.0 0.0 -1.037051012011e-03 
-1.266259122541e-03 -6.932227906499e-05 0.0 
-6.932227906499e-05 8.127793637496e-03 0.0 
0.0 0.0 -1.204463612412e-03 
-7.768385389529e-04 -8.073428107716e-04 0.0 
-8.073428107716e-04 4.980090398291e-03 0.0 
0.0 0.0 -8.294769417472e-04 
-4.699473644088e-04 -6.813726004672e-05 0.0 
-6.813726004672e-05 1.813879272209e-03 0.0 
0.0 0.0 -3.081489256106e-04 
-9.161062287207e-04 -6.850931603516e-04 0.0 
-6.850931603516e-04 5.713761905663e-03 0.0 
0.0 0.0 -9.239488535170e-04 
-1.173047693050e-03 -1.052473736579e-04 0.0 
-1.052473736579e-04 7.508097487322e-03 0.0 
0.0 0.0 -1.189963100592e-03 
-4.497409859123e-04 -1.426160803811e-03 0.0 
-1.426160803811e-03 2.458822638814e-03 0.0 
0.0 0.0 -4.786098583285e-04 
-1.143974714499e-03 -4.976969720053e-04 0.0 
-4.976969720053e-04 6.710156245847e-03 0.0 
0.0 0.0 -1.038675661098e-03 
-1.132883010551e-03 -1.192006961438e-04 0.0 
-1.192006961438e-04 7.009605316192e-03 0.0 
0.0 0.0 -1.041631482750e-03 
-1.897791220570e-04 -1.328549867833e-03 0.0 
-1.328549867833e-03 1.573915984256e-03 0.0 
0.0 0.0 -3.880698300753e-04 
-9.832169528241e-04 -6.401107558717e-04 0.0 
-6.401107558717e-04 5.975097252107e-03 0.0 
0.0 0.0 -9.525765839929e-04 
-9.785039199354e-04 -1.168734358181e-04 0.0 
-1.168734358181e-04 5.790498942477e-03 0.0 
0.0 0.0 -8.663127257149e-04 
-5.996048706546e-04 -3.316912815730e-04 0.0 
-3.316912815730e-04 2.740125406625e-03 0.0 
0.0 0.0 -4.280652785065e-04 
-7.035123059792e-04 -6.874159131133e-04 0.0 
-6.874159131133e-04 3.217847307373e-03 0.0 
0.0 0.0 -5.113914792957e-04 
-7.105655773308e-04 4.972009427012e-04 0.0 
4.972009427012e-04 4.827811336805e-03 0.0 
0.0 0.0 -8.004334922225e-04 
-1.074750193164e-03 -1.697498961518e-04 0.0 
-1.697498961518e-04 6.403492678198e-03 0.0 
0.0 0.0 -1.012809740122e-03 
-7.035308576128e-04 5.382426947374e-04 0.0 
5.382426947374e-04 3.806026837703e-03 0.0 
0.0 0.0 -6.201901524263e-04 
-6.308101104936e-04 5.457451351616e-04 0.0 
5.457451351616e-04 4.514197146446e-03 0.0 
0.0 0.0 -7.649884091348e-04 
-1.098080609149e-03 3.025878807238e-04 0.0 
3.025878807238e-04 6.656267622990e-03 0.0 
0.0 0.0 -1.000670320419e-03 
-1.014704614523e-03 2.583884235807e-04 0.0 
2.583884235807e-04 6.049064620228e-03 0.0 
0.0 0.0 -9.110000341593e-04 
-1.009261189838e-03 2.792149560740e-04 0.0 
2.792149560740e-04 5.955274274962e-03 0.0 
0.0 0.0 -8.984003255416e-04 
-9.871449342436e-04 -7.213431481816e-05 0.0 
-7.213431481816e-05 4.924174820230e-03 0.0 
0.0 0.0 -7.627602282935e-04 
-1.065656897570e-03 -5.121112680600e-04 0.0 
-5.121112680600e-04 7.066736918301e-03 0.0 
0.0 0.0 -1.130631056169e-03 
-8.421677165310e-04 -7.268506017030e-04 0.0 
-7.268506017030e-04 5.443918430101e-03 0.0 
0.0 0.0 -8.953295484280e-04 
-9.945000348060e-04 -1.248826091764e-04 0.0 
-1.248826091764e-04 5.857149722276e-03 0.0 
0.0 0.0 -8.720525204519e-04 
-1.238633943108e-03 1.686741563001e-04 0.0 
1.686741563001e-04 7.876441362665e-03 0.0 
0.0 0.0 -1.193584144721e-03 
-8.522957180035e-04 9.316442431590e-05 0.0 
9.316442431590e-05 6.488948212224e-03 0.0 
0.0 0.0 -1.073433710836e-03 
-1.015779217143e-03 -2.144660185469e-04 0.0 
-2.144660185469e-04 6.157749518334e-03 0.0 
0.0 0.0 -9.841343610905e-04 
-1.152967284980e-03 2.909720530725e-04 0.0 
2.909720530725e-04 7.156656236309e-03 0.0 
0.0 0.0 -1.073677668998e-03 
-7.263162190416e-04 -8.886940194724e-04 0.0 
-8.886940194724e-04 3.588121008828e-03 0.0 
0.0 0.0 -5.862626530914e-04 
-7.235359723586e-04 -7.958794651799e-04 0.0 
-7.958794651799e-04 3.410683047674e-03 0.0 
0.0 0.0 -5.488365039436e-04 
-4.694757851361e-04 -5.127005261343e-04 0.0 
-5.127005261343e-04 1.922171349029e-03 0.0 
0.0 0.0 -3.130684191733e-04 
-9.104943950574e-04 -6.552016600707e-04 0.0 
-6.552016600707e-04 5.911258485735e-03 0.0 
0.0 0.0 -9.612598090090e-04 
-7.654832124176e-04 -7.002445478485e-04 0.0 
-7.002445478485e-04 3.645865785489e-03 0.0 
0.0 0.0 -5.775003002374e-04 
-1.075243583964e-03 -1.050257747268e-04 0.0 
-1.050257747268e-04 6.505297040680e-03 0.0 
0.0 0.0 -9.686535345556e-04 
-1.046091552134e-03 -1.046643629052e-04 0.0 
-1.046643629052e-04 6.253743570569e-03 0.0 
0.0 0.0 -9.322463471790e-04 
-3.156258732897e-04 -6.342992802895e-05 0.0 
-6.342992802895e-05 4.063447682096e-03 0.0 
0.0 0.0 -7.690363516573e-04 
-6.768678335791e-04 -4.944889426237e-04 0.0 
-4.944889426237e-04 2.924353115240e-03 0.0 
0.0 0.0 -4.860199686152e-04 
7.378566886558e-05 8.261792693270e-04 0.0 
8.261792693270e-04 1.831438910589e-03 0.0 
0.0 0.0 -5.148587792422e-04 
-7.140205863396e-04 -3.895142562213e-04 0.0 
-3.895142562213e-04 3.153467660832e-03 0.0 
0.0 0.0 -5.143448975765e-04 
-7.166082742775e-04 -4.898417450174e-04 0.0 
-4.898417450174e-04 3.345585253682e-03 0.0 
0.0 0.0 -5.517963299543e-04 
-5.453825262275e-04 -1.801577044467e-04 0.0 
-1.801577044467e-04 2.063785108327e-03 0.0 
0.0 0.0 -3.446931235564e-04 
-9.991919087570e-04 -5.159677692080e-04 0.0 
-5.159677692080e-04 6.812973713771e-03 0.0 
0.0 0.0 -1.101849228969e-03 
-6.361621297383e-04 -6.326273812119e-04 0.0 
-6.326273812119e-04 3.840813039186e-03 0.0 
0.0 0.0 -6.642957827475e-04 
-1.186458515100e-03 -1.053251154620e-04 0.0 
-1.053251154620e-04 7.463739247015e-03 0.0 
0.0 0.0 -1.107989045227e-03 
-5.978205852497e-04 -6.030872319160e-04 0.0 
-6.030872319160e-04 3.997835835114e-03 0.0 
0.0 0.0 -7.013039408444e-04 
-8.766496605348e-04 -2.938506230370e-04 0.0 
-2.938506230370e-04 5.643098139245e-03 0.0 
0.0 0.0 -9.268471029391e-04 
-7.458770769302e-04 -4.494771908485e-04 0.0 
-4.494771908485e-04 4.730820068739e-03 0.0 
0.0 0.0 -7.951651613512e-04 
-5.061128914291e-04 5.136368614140e-04 0.0 
5.136368614140e-04 4.289096613620e-03 0.0 
0.0 0.0 -7.567435594048e-04 
-4.924031779586e-04 -4.582157831525e-04 0.0 
-4.582157831525e-04 2.128157277405e-03 0.0 
0.0 0.0 -3.417109511102e-04 
-1.119466152649e-03 -1.285123435513e-04 0.0 
-1.285123435513e-04 7.241871223374e-03 0.0 
0.0 0.0 -1.161691925552e-03 
-1.157276862038e-03 -5.152756470004e-04 0.0 
-5.152756470004e-04 7.595110461611e-03 0.0 
0.0 0.0 -1.198716319349e-03 
-9.186810373389e-04 7.206447187045e-04 0.0 
7.206447187045e-04 5.929294122594e-03 0.0 
0.0 0.0 -9.650368815299e-04 
-7.024384046348e-04 -5.668947943432e-04 0.0 
-5.668947943432e-04 3.521466880882e-03 0.0 
0.0 0.0 -5.892385666867e-04 
-8.092329254756e-04 -3.679333936268e-04 0.0 
-3.679333936268e-04 5.184879506691e-03 0.0 
0.0 0.0 -8.609535187098e-04 
-1.070645862318e-03 2.880325294516e-04 0.0 
2.880325294516e-04 6.451710160525e-03 0.0 
0.0 0.0 -9.708520278613e-04 
-7.765899253724e-04 -7.845646391497e-04 0.0 
-7.845646391497e-04 3.835907640370e-03 0.0 
0.0 0.0 -6.148791393494e-04 
-5.560475869297e-04 7.086124654578e-04 0.0 
7.086124654578e-04 3.695652655845e-03 0.0 
0.0 0.0 -6.394234923164e-04 
-6.747584532598e-04 -5.770366254477e-04 0.0 
-5.770366254477e-04 3.009985049056e-03 0.0 
0.0 0.0 -4.739097840058e-04 
-4.381090568186e-04 -1.552304285074e-03 0.0 
-1.552304285074e-03 2.041510460725e-03 0.0 
0.0 0.0 -4.132304097957e-04 
-7.141863963918e-04 -9.568035345241e-04 0.0 
-9.568035345241e-04 3.752753679619e-03 0.0 
0.0 0.0 -6.236739531379e-04 
-6.528961987011e-04 -1.781186145787e-04 0.0 
-1.781186145787e-04 2.715857529516e-03 0.0 
0.0 0.0 -4.393534411964e-04 
-5.596275213697e-04 -3.829013705402e-04 0.0 
-3.829013705402e-04 2.536190508459e-03 0.0 
0.0 0.0 -3.988888273503e-04 
-7.947060353366e-04 -8.306305145241e-04 0.0 
-8.306305145241e-04 4.800715564885e-03 0.0 
0.0 0.0 -7.922809795675e-04 
-9.495117069836e-04 -2.555007117944e-04 0.0 
-2.555007117944e-04 5.904688651206e-03 0.0 
0.0 0.0 -9.554846610150e-04 
-1.106451546740e-03 6.547273223382e-04 0.0 
6.547273223382e-04 7.113693437201e-03 0.0 
0.0 0.0 -1.128610778606e-03 
5.517197538679e-04 6.942037793557e-07 0.0 
6.942037793557e-07 5.222913432921e-05 0.0 
0.0 0.0 -1.143255210630e-04 
-3.502562365249e-04 -5.244252159893e-04 0.0 
-5.244252159893e-04 3.531851922803e-03 0.0 
0.0 0.0 -6.818868151028e-04 
-4.968184483203e-04 -6.518828778024e-04 0.0 
-6.518828778024e-04 3.693766435261e-03 0.0 
0.0 0.0 -6.732431144785e-04 
-6.734388902022e-04 -6.179988430692e-04 0.0 
-6.179988430692e-04 3.684173063462e-03 0.0 
0.0 0.0 -6.268095852860e-04 
-1.038674892423e-03 2.849365380829e-04 0.0 
2.849365380829e-04 6.200994707550e-03 0.0 
0.0 0.0 -9.344164207832e-04 
-6.877399303223e-04 -5.371529877498e-04 0.0 
-5.371529877498e-04 4.282013621241e-03 0.0 
0.0 0.0 -7.295442444478e-04 
-7.236126278911e-04 -1.940798346154e-04 0.0 
-1.940798346154e-04 3.162977138653e-03 0.0 
0.0 0.0 -5.055050897130e-04 
-6.903954199582e-04 -9.883908706268e-04 0.0 
-9.883908706268e-04 3.912237901394e-03 0.0 
0.0 0.0 -6.611654675676e-04 
-1.160544064243e-03 2.681116606983e-04 0.0 
2.681116606983e-04 7.207667667947e-03 0.0 
0.0 0.0 -1.080452943103e-03 
-7.185620229440e-04 -5.086767079658e-04 0.0 
-5.086767079658e-04 3.228512561114e-03 0.0 
0.0 0.0 -5.025663706543e-04 
-3.033530584322e-04 -3.126589283008e-05 0.0 
-3.126589283008e-05 1.124202721504e-03 0.0 
0.0 0.0 -2.132551421006e-04 
-4.445863950683e-04 -1.098673452603e-04 0.0 
-1.098673452603e-04 1.624443337862e-03 0.0 
0.0 0.0 -2.784575373548e-04 
-4.556609783406e-04 -1.046441961485e-03 0.0 
-1.046441961485e-03 2.312897280805e-03 0.0 
0.0 0.0 -4.444240490352e-04 
-6.671697262521e-04 -6.094353393578e-04 0.0 
-6.094353393578e-04 3.102567689836e-03 0.0 
0.0 0.0 -5.239304829885e-04 
-4.604694554278e-04 -5.460587614430e-04 0.0 
-5.460587614430e-04 3.852686059404e-03 0.0 
0.0 0.0 -7.099160536912e-04 
-6.597409171735e-04 -9.847744191674e-04 0.0 
-9.847744191674e-04 4.070104714955e-03 0.0 
0.0 0.0 -6.984076724203e-04 
-4.347846215514e-04 -1.333971923402e-03 0.0 
-1.333971923402e-03 1.612936656771e-03 0.0 
0.0 0.0 -3.343205611582e-04 
-3.976613437580e-04 -3.897326152451e-04 0.0 
-3.897326152451e-04 1.671878635782e-03 0.0 
0.0 0.0 -2.765202162382e-04 
-1.033660003461e-03 -1.033996314703e-04 0.0 
-1.033996314703e-04 5.926247048388e-03 0.0 
0.0 0.0 -8.885078876198e-04 
-6.226964712633e-04 -4.829751825411e-04 0.0 
-4.829751825411e-04 2.780306463648e-03 0.0 
0.0 0.0 -4.363975895258e-04 
-9.598608129299e-04 -1.512388155027e-04 0.0 
-1.512388155027e-04 6.520728160314e-03 0.0 
0.0 0.0 -1.067401112627e-03 
-1.044199175907e-03 6.711789122637e-04 0.0 
6.711789122637e-04 6.814869566682e-03 0.0 
0.0 0.0 -1.093380752811e-03 
-1.033158695296e-03 1.201714905428e-04 0.0 
1.201714905428e-04 5.943900742884e-03 0.0 
0.0 0.0 -9.013836717722e-04 
-1.202438437016e-03 3.703852775580e-04 0.0 
3.703852775580e-04 7.497052002657e-03 0.0 
0.0 0.0 -1.126084317643e-03 
-1.147719962247e-03 6.494223347106e-04 0.0 
6.494223347106e-04 7.391690108111e-03 0.0 
0.0 0.0 -1.164310864388e-03 
-2.878547429469e-04 1.154238477974e-04 0.0 
1.154238477974e-04 3.877857573592e-03 0.0 
0.0 0.0 -7.408850503417e-04 
-9.791568623396e-04 6.928855181129e-04 0.0 
6.928855181129e-04 6.367692588182e-03 0.0 
0.0 0.0 -1.029042339204e-03 
-3.868820834042e-04 -1.598175067219e-03 0.0 
-1.598175067219e-03 1.640588266591e-03 0.0 
0.0 0.0 -3.684254322556e-04 
-7.608485108981e-04 -8.950598342909e-04 0.0 
-8.950598342909e-04 4.184728790858e-03 0.0 
0.0 0.0 -6.894573431515e-04 
-3.726378683448e-04 9.309707187506e-04 0.0 
9.309707187506e-04 3.521132831243e-03 0.0 
0.0 0.0 -6.879681371099e-04 
1.475700378225e-04 -1.082055056136e-03 0.0 
-1.082055056136e-03 1.153328364632e-03 0.0 
0.0 0.0 -4.001859895708e-04 
-2.322378270667e-04 -1.414305700121e-03 0.0 
-1.414305700121e-03 1.285051000812e-03 0.0 
0.0 0.0 -3.718692805502e-04 
-7.624977688682e-04 -3.873820506890e-04 0.0 
-3.873820506890e-04 3.581246965727e-03 0.0 
0.0 0.0 -5.804062017457e-04 
-5.687072458126e-04 -1.053499292402e-03 0.0 
-1.053499292402e-03 3.769545573336e-03 0.0 
0.0 0.0 -6.703429011759e-04 
-5.303660715230e-04 -9.834601585863e-04 0.0 
-9.834601585863e-04 3.928073668805e-03 0.0 
0.0 0.0 -7.070647534220e-04 
-6.858142190642e-04 -1.264292236945e-04 0.0 
-1.264292236945e-04 2.925987856864e-03 0.0 
0.0 0.0 -4.680152132766e-04 
-6.589899224581e-04 -5.005558218905e-04 0.0 
-5.005558218905e-04 4.450521373462e-03 0.0 
0.0 0.0 -7.666177146937e-04 
-4.231487579380e-04 -9.909487264928e-04 0.0 
-9.909487264928e-04 3.613001704936e-03 0.0 
0.0 0.0 -6.790125122095e-04 
-3.369199789232e-04 -3.555417311412e-04 0.0 
-3.555417311412e-04 3.718100603305e-03 0.0 
0.0 0.0 -7.183521444552e-04 
-6.803758157452e-04 -9.028741567956e-04 0.0 
-9.028741567956e-04 3.171875899076e-03 0.0 
0.0 0.0 -5.205443542100e-04 
-6.888642757158e-04 -2.049706033719e-04 0.0 
-2.049706033719e-04 5.802071078045e-03 0.0 
0.0 0.0 -9.921115096417e-04 
-1.107658319106e-03 -8.404497540785e-05 0.0 
-8.404497540785e-05 6.709473481144e-03 0.0 
0.0 0.0 -9.984673180475e-04 
-2.379293217191e-04 -2.443881819662e-04 0.0 
-2.443881819662e-04 3.409073247204e-03 0.0 
0.0 0.0 -6.904379518788e-04 
-1.046303389369e-03 -1.114400525399e-04 0.0 
-1.114400525399e-04 6.996162598283e-03 0.0 
0.0 0.0 -1.133495712197e-03 
-3.268910950442e-04 -1.748504239578e-03 0.0 
-1.748504239578e-03 1.649599373731e-03 0.0 
0.0 0.0 -3.849690761666e-04 
-1.105326955299e-03 -1.209562394880e-05 0.0 
-1.209562394880e-05 7.506917461540e-03 0.0 
0.0 0.0 -1.208505026952e-03 
-5.639712272191e-04 -5.345864669017e-04 0.0 
-5.345864669017e-04 4.155944038547e-03 0.0 
0.0 0.0 -7.381355003807e-04 
-1.181963174499e-03 7.139086798359e-04 0.0 
7.139086798359e-04 7.734753846791e-03 0.0 
0.0 0.0 -1.203459118631e-03 
-9.741416899861e-04 2.978325655321e-04 0.0 
2.978325655321e-04 5.872577927131e-03 0.0 
0.0 0.0 -9.144069900286e-04 
-4.654888822043e-04 -1.140967963864e-03 0.0 
-1.140967963864e-03 1.931638852762e-03 0.0 
0.0 0.0 -3.788569260404e-04 
-1.047582909248e-03 1.584393688340e-04 0.0 
1.584393688340e-04 6.105623494628e-03 0.0 
0.0 0.0 -9.292863832265e-04 
-1.220879085669e-03 4.419497771274e-04 0.0 
4.419497771274e-04 7.616026390278e-03 0.0 
0.0 0.0 -1.148369591821e-03 
-5.398601850951e-04 -4.406973068625e-04 0.0 
-4.406973068625e-04 4.330390544396e-03 0.0 
0.0 0.0 -7.747733155264e-04 
-3.603331338578e-04 8.676550475076e-04 0.0 
8.676550475076e-04 2.963522800416e-03 0.0 
0.0 0.0 -5.621395992319e-04 
-1.057553285601e-03 1.944669215669e-04 0.0 
1.944669215669e-04 6.263161490160e-03 0.0 
0.0 0.0 -9.572423940436e-04 
-7.057059362099e-04 9.012515937016e-04 0.0 
9.012515937016e-04 4.348665847300e-03 0.0 
0.0 0.0 -7.402445244775e-04 
-4.362988120307e-04 -1.127161443736e-03 0.0 
-1.127161443736e-03 1.552148016574e-03 0.0 
0.0 0.0 -3.359502462693e-04 
-1.283659217910e-03 4.297574681589e-04 0.0 
4.297574681589e-04 8.390487106861e-03 0.0 
0.0 0.0 -1.259077240559e-03 
-4.445080952730e-04 -7.847967672699e-04 0.0 
-7.847967672699e-04 1.460661056520e-03 0.0 
0.0 0.0 -3.199353184197e-04 
-1.015479846412e-03 -4.911816191571e-05 0.0 
-4.911816191571e-05 7.389564650234e-03 0.0 
0.0 0.0 -1.194426649262e-03 
-1.235108043989e-03 2.931339570481e-04 0.0 
2.931339570481e-04 7.856142431297e-03 0.0 
0.0 0.0 -1.175981821618e-03 
-7.472334457018e-04 -2.848888603522e-04 0.0 
-2.848888603522e-04 6.030064979728e-03 0.0 
0.0 0.0 -1.020516803968e-03 
-1.010840280569e-03 2.871682712165e-04 0.0 
2.871682712165e-04 5.990467797945e-03 0.0 
0.0 0.0 -9.041796124736e-04 
-1.188290086785e-03 -4.131460252783e-05 0.0 
-4.131460252783e-05 7.360236208895e-03 0.0 
0.0 0.0 -1.094228678348e-03 
-3.956150081579e-04 -8.444363927456e-04 0.0 
-8.444363927456e-04 3.798159061747e-03 0.0 
0.0 0.0 -7.154996274706e-04 
-4.250562518241e-04 -8.715186287138e-05 0.0 
-8.715186287138e-05 4.576837397274e-03 0.0 
0.0 0.0 -8.337527902170e-04 
-1.236732889268e-03 3.932687216903e-04 0.0 
3.932687216903e-04 7.932024372295e-03 0.0 
0.0 0.0 -1.191782302182e-03 
-1.016762164362e-03 -2.009947599505e-04 0.0 
-2.009947599505e-04 6.362580938042e-03 0.0 
0.0 0.0 -1.021464098896e-03 
-1.135162035509e-03 -5.768530929232e-05 0.0 
-5.768530929232e-05 6.910041935378e-03 0.0 
0.0 0.0 -1.028225029406e-03 
-7.343430317228e-04 -7.671896480507e-05 0.0 
-7.671896480507e-05 5.717453709460e-03 0.0 
0.0 0.0 -9.780777104595e-04 
-3.572725597686e-04 -1.352690279400e-03 0.0 
-1.352690279400e-03 1.583802329561e-03 0.0 
0.0 0.0 -3.505936111242e-04 
-1.159722748538e-03 -3.230530369319e-05 0.0 
-3.230530369319e-05 7.104974861712e-03 0.0 
0.0 0.0 -1.057861461704e-03 
-1.213686028729e-03 4.975227447854e-04 0.0 
4.975227447854e-04 8.277647080915e-03 0.0 
0.0 0.0 -1.268085107495e-03 
-1.141634375887e-03 -6.383832911746e-05 0.0 
-6.383832911746e-05 7.496062386316e-03 0.0 
0.0 0.0 -1.202195648613e-03 
-7.172722051064e-04 -5.438382500790e-04 0.0 
-5.438382500790e-04 4.116936776522e-03 0.0 
0.0 0.0 -6.923681691211e-04 
-1.013061704463e-03 -1.285173007321e-04 0.0 
-1.285173007321e-04 6.040176746182e-03 0.0 
0.0 0.0 -9.020111041354e-04 
-9.803558555424e-04 2.819126364211e-04 0.0 
2.819126364211e-04 5.747481973327e-03 0.0 
0.0 0.0 -8.677534307045e-04 
-6.277772364563e-04 -9.505441527148e-04 0.0 
-9.505441527148e-04 4.228315103377e-03 0.0 
0.0 0.0 -7.352749011056e-04 
-9.471295400473e-04 -2.290448642546e-04 0.0 
-2.290448642546e-04 6.104893151692e-03 0.0 
0.0 0.0 -9.927925938929e-04 
-9.496787292750e-04 -1.931802113086e-04 0.0 
-1.931802113086e-04 6.308676304585e-03 0.0 
0.0 0.0 -1.030113165296e-03 
-3.367468350593e-04 -4.171493311675e-04 0.0 
-4.171493311675e-04 1.462207300335e-03 0.0 
0.0 0.0 -2.466400652194e-04 
1.723252799301e-04 1.006036226683e-03 0.0 
1.006036226683e-03 1.258635118435e-03 0.0 
0.0 0.0 -4.508272210452e-04 
-2.636139264689e-04 -4.295683990350e-05 0.0 
-4.295683990350e-05 3.648292398008e-03 0.0 
0.0 0.0 -7.269793770173e-04 
-2.881552402749e-04 -7.723163841178e-04 0.0 
-7.723163841178e-04 3.494059092135e-03 0.0 
0.0 0.0 -6.875569550716e-04 
-5.987135522068e-04 9.581338196100e-04 0.0 
9.581338196100e-04 4.121697912248e-03 0.0 
0.0 0.0 -7.320784846625e-04 
-1.264443641134e-03 9.169602624826e-06 0.0 
9.169602624826e-06 8.228641212544e-03 0.0 
0.0 0.0 -1.225426844749e-03 
-1.225437596415e-03 5.454708430458e-04 0.0 
5.454708430458e-04 7.618255897701e-03 0.0 
0.0 0.0 -1.162686153705e-03 
-1.236580353686e-03 -8.584500076515e-05 0.0 
-8.584500076515e-05 7.903871079557e-03 0.0 
0.0 0.0 -1.173632101657e-03 
-7.521471418708e-04 4.524177914914e-04 0.0 
4.524177914914e-04 4.089944836528e-03 0.0 
0.0 0.0 -6.556197767577e-04 
-1.172411158405e-03 4.147315892345e-04 0.0 
4.147315892345e-04 7.176351707369e-03 0.0 
0.0 0.0 -1.082713561900e-03 
-9.808832725520e-04 -6.235651659416e-04 0.0 
-6.235651659416e-04 6.175367423925e-03 0.0 
0.0 0.0 -9.899156953211e-04 
-1.256868554146e-03 3.642260226585e-04 0.0 
3.642260226585e-04 8.010570571666e-03 0.0 
0.0 0.0 -1.198415070424e-03 
-1.131244473165e-03 -2.609112415896e-05 0.0 
-2.609112415896e-05 6.847199996424e-03 0.0 
0.0 0.0 -1.021631336281e-03 
-7.398403296460e-04 -9.100435650523e-04 0.0 
-9.100435650523e-04 4.351978419830e-03 0.0 
0.0 0.0 -7.266350563285e-04 
-1.966131980491e-04 1.343789576191e-04 0.0 
1.343789576191e-04 3.379385752975e-03 0.0 
0.0 0.0 -6.989458521267e-04 
-1.152804453403e-03 3.500950542230e-04 0.0 
3.500950542230e-04 7.051163395974e-03 0.0 
0.0 0.0 -1.060111126929e-03 
-1.235067592862e-03 -2.698356757779e-05 0.0 
-2.698356757779e-05 7.807694952398e-03 0.0 
0.0 0.0 -1.160283895044e-03 
-1.152447904070e-03 3.233521508878e-04 0.0 
3.233521508878e-04 7.106400049278e-03 0.0 
0.0 0.0 -1.066842251349e-03 
-1.126824314787e-03 3.260890582423e-04 0.0 
3.260890582423e-04 6.856832929645e-03 0.0 
0.0 0.0 -1.030428295937e-03 
-1.098624795041e-03 -1.306628866347e-04 0.0 
-1.306628866347e-04 7.036525786255e-03 0.0 
0.0 0.0 -1.124756152480e-03 
-9.788942539780e-04 1.410494860673e-05 0.0 
1.410494860673e-05 7.171321125896e-03 0.0 
0.0 0.0 -1.167530213646e-03 
-1.029227773633e-03 -1.448576550575e-04 0.0 
-1.448576550575e-04 6.777818390463e-03 0.0 
0.0 0.0 -1.096139997395e-03 
-8.853909467236e-04 -3.202143432842e-04 0.0 
-3.202143432842e-04 5.450131718365e-03 0.0 
0.0 0.0 -8.895595506238e-04 
-7.841401063913e-04 5.175313733597e-04 0.0 
5.175313733597e-04 4.039507771945e-03 0.0 
0.0 0.0 -6.419897747600e-04 
-7.984394936658e-04 -1.887921339689e-04 0.0 
-1.887921339689e-04 6.295485930606e-03 0.0 
0.0 0.0 -1.057160997780e-03 
-1.115933343197e-03 4.349000973092e-04 0.0 
4.349000973092e-04 6.664037002129e-03 0.0 
0.0 0.0 -1.010795753303e-03 
-5.956699057430e-04 -8.811439702695e-05 0.0 
-8.811439702695e-05 2.473036601140e-03 0.0 
0.0 0.0 -4.018221946533e-04 
-2.915622310354e-04 -5.737426198503e-04 0.0 
-5.737426198503e-04 3.731241780433e-03 0.0 
0.0 0.0 -7.241222962603e-04 
-4.504794563628e-04 -1.267768640868e-04 0.0 
-1.267768640868e-04 4.437238068048e-03 0.0 
0.0 0.0 -8.193994707270e-04 
-5.327307368017e-04 -1.017456922387e-04 0.0 
-1.017456922387e-04 5.084928060617e-03 0.0 
0.0 0.0 -8.986564694586e-04 
3.950181268846e-04 -2.404122539236e-04 0.0 
-2.404122539236e-04 7.824137722745e-04 0.0 
0.0 0.0 -4.157903644632e-04 
-2.054344188629e-04 -4.192766465647e-04 0.0 
-4.192766465647e-04 3.464515105753e-03 0.0 
0.0 0.0 -6.962026719631e-04 
-6.398120247413e-04 -1.116949900707e-04 0.0 
-1.116949900707e-04 5.588791715487e-03 0.0 
0.0 0.0 -9.636952012155e-04 
-8.444842612221e-04 6.249200502653e-04 0.0 
6.249200502653e-04 4.582153886631e-03 0.0 
0.0 0.0 -7.294090860402e-04 
-7.683331433156e-04 -4.669157271009e-04 0.0 
-4.669157271009e-04 4.555612432421e-03 0.0 
0.0 0.0 -7.579899565570e-04 
-1.071508205892e-03 -5.121927920590e-05 0.0 
-5.121927920590e-05 6.390736393491e-03 0.0 
0.0 0.0 -9.556638187253e-04 
-8.714266706772e-04 2.063026129845e-04 0.0 
2.063026129845e-04 5.095248433608e-03 0.0 
0.0 0.0 -7.638029664831e-04 
-6.864860403863e-05 6.865817311915e-04 0.0 
6.865817311915e-04 5.756289586921e-04 0.0 
0.0 0.0 -2.172772948515e-04 
-8.538627514522e-04 -7.550684867704e-04 0.0 
-7.550684867704e-04 5.254936553017e-03 0.0 
0.0 0.0 -8.580817703278e-04 
-8.031553766191e-04 9.023974365030e-05 0.0 
9.023974365030e-05 6.192888911591e-03 0.0 
0.0 0.0 -1.051835763028e-03 
-1.248237691654e-03 5.633939617195e-04 0.0 
5.633939617195e-04 7.887034516043e-03 0.0 
0.0 0.0 -1.196871286280e-03 
-3.729352427207e-04 2.857944806302e-04 0.0 
2.857944806302e-04 4.199383336330e-03 0.0 
0.0 0.0 -7.999758813884e-04 
-8.246860114036e-04 -3.906175878888e-04 0.0 
-3.906175878888e-04 5.000590526334e-03 0.0 
0.0 0.0 -8.237210115815e-04 
-1.081299147246e-03 -7.697289611938e-05 0.0 
-7.697289611938e-05 6.459732028031e-03 0.0 
0.0 0.0 -9.620958722924e-04 
-2.880056971411e-04 8.925028292911e-04 0.0 
8.925028292911e-04 1.145866698786e-03 0.0 
0.0 0.0 -3.038018182983e-04 
-7.446793118804e-04 1.621554593950e-04 0.0 
1.621554593950e-04 5.956534969945e-03 0.0 
0.0 0.0 -1.023361637732e-03 
-4.737891057000e-04 -2.200266757859e-04 0.0 
-2.200266757859e-04 4.791461031182e-03 0.0 
0.0 0.0 -8.619475031456e-04 
-8.828155885906e-04 2.614625346270e-04 0.0 
2.614625346270e-04 4.904715470600e-03 0.0 
0.0 0.0 -7.615729788896e-04 
-9.809961927394e-04 -5.936604313144e-04 0.0 
-5.936604313144e-04 6.379528294436e-03 0.0 
0.0 0.0 -1.027225276160e-03 
-1.932500912873e-05 -1.677380896941e-03 0.0 
-1.677380896941e-03 1.233986358287e-03 0.0 
0.0 0.0 -3.946419382404e-04 
-9.859370989770e-04 -5.573179193325e-04 0.0 
-5.573179193325e-04 6.591591148133e-03 0.0 
0.0 0.0 -1.064556537081e-03 
-1.075263487039e-03 -6.290518893134e-05 0.0 
-6.290518893134e-05 7.229861812646e-03 0.0 
0.0 0.0 -1.170878753521e-03 
-6.948674803166e-04 2.455637071472e-04 0.0 
2.455637071472e-04 5.729378568502e-03 0.0 
0.0 0.0 -9.948919501216e-04 
-1.162320360260e-03 -6.372562573002e-05 0.0 
-6.372562573002e-05 7.161310363851e-03 0.0 
0.0 0.0 -1.064574987933e-03 
-9.584753352366e-04 2.606905829813e-04 0.0 
2.606905829813e-04 6.727836890182e-03 0.0 
0.0 0.0 -1.082686220397e-03 
-1.082949588594e-03 -4.851124086325e-04 0.0 
-4.851124086325e-04 7.296469259281e-03 0.0 
0.0 0.0 -1.168035910845e-03 
-5.459113610208e-04 8.695894781593e-04 0.0 
8.695894781593e-04 1.682549247342e-03 0.0 
0.0 0.0 -2.917408095836e-04 
-1.104897704515e-03 -4.845952140229e-05 0.0 
-4.845952140229e-05 6.655011128943e-03 0.0 
0.0 0.0 -9.919185416031e-04 
-1.022193057884e-03 1.318252200891e-04 0.0 
1.318252200891e-04 7.257050403107e-03 0.0 
0.0 0.0 -1.173906618061e-03 
-1.179945511942e-03 3.471716249997e-04 0.0 
3.471716249997e-04 7.305593288174e-03 0.0 
0.0 0.0 -1.096489272820e-03 
-5.875834666640e-04 2.546818746217e-04 0.0 
2.546818746217e-04 5.224796690614e-03 0.0 
0.0 0.0 -9.297700869391e-04 
-2.515263867691e-04 -2.254429621664e-04 0.0 
-2.254429621664e-04 3.754254559254e-03 0.0 
0.0 0.0 -7.325247082200e-04 
-9.641389493889e-04 -2.217264104135e-04 0.0 
-2.217264104135e-04 5.113633075458e-03 0.0 
0.0 0.0 -8.069452076110e-04 
4.285236195004e-04 1.396212384085e-04 0.0 
1.396212384085e-04 -1.219952762883e-04 0.0 
0.0 0.0 -1.313692899480e-04 
-1.204146700831e-03 3.439641556613e-04 0.0 
3.439641556613e-04 7.554548687955e-03 0.0 
0.0 0.0 -1.132911322290e-03 
-6.253175333027e-04 -2.826075305287e-05 0.0 
-2.826075305287e-05 2.680000675139e-03 0.0 
0.0 0.0 -4.309687334850e-04 
-5.749579867921e-04 6.771703350766e-04 0.0 
6.771703350766e-04 2.115308728038e-03 0.0 
0.0 0.0 -3.582286249851e-04 
-9.529535044554e-04 3.072244071368e-04 0.0 
3.072244071368e-04 6.570888144221e-03 0.0 
0.0 0.0 -1.054483161448e-03 
-1.255167442230e-03 3.201007171124e-04 0.0 
3.201007171124e-04 8.070344212991e-03 0.0 
0.0 0.0 -1.206783194404e-03 
-8.215496895040e-05 -1.772999525451e-03 0.0 
-1.772999525451e-03 1.193950944070e-03 0.0 
0.0 0.0 -3.966701258844e-04 
-7.833558623484e-04 4.482971625863e-04 0.0 
4.482971625863e-04 5.133302818514e-03 0.0 
0.0 0.0 -8.358581584049e-04 
-1.123137751770e-03 3.572847673877e-04 0.0 
3.572847673877e-04 6.794615582447e-03 0.0 
0.0 0.0 -1.023814440555e-03 
-8.765385540671e-04 -7.492880491734e-04 0.0 
-7.492880491734e-04 4.884441485584e-03 0.0 
0.0 0.0 -7.840072721007e-04 
2.874574446344e-04 -1.091275984428e-03 0.0 
-1.091275984428e-03 9.021895657290e-04 0.0 
0.0 0.0 -4.027365510179e-04 
-3.368056399330e-04 1.320783307670e-03 0.0 
1.320783307670e-03 2.512908282168e-03 0.0 
0.0 0.0 -5.292697486782e-04 
-2.272190685037e-04 -1.261695231052e-03 0.0 
-1.261695231052e-03 1.204255834380e-03 0.0 
0.0 0.0 -3.563018015714e-04 
-5.481856080810e-06 -1.360265015014e-03 0.0 
-1.360265015014e-03 1.114057395476e-03 0.0 
0.0 0.0 -3.608158092454e-04 
-1.672715856143e-04 -1.512279546231e-03 0.0 
-1.512279546231e-03 1.180506359655e-03 0.0 
0.0 0.0 -3.382523083772e-04 
-4.805060594133e-04 2.668098062439e-04 0.0 
2.668098062439e-04 4.715407643663e-03 0.0 
0.0 0.0 -8.647910268431e-04 
-1.323581223665e-03 3.388354907586e-04 0.0 
3.388354907586e-04 9.015003947055e-03 0.0 
0.0 0.0 -1.324146187826e-03 
-6.144383844702e-04 5.601929244688e-04 0.0 
5.601929244688e-04 2.582601934857e-03 0.0 
0.0 0.0 -4.244337567297e-04 
-1.156564282164e-03 -1.287267705775e-04 0.0 
-1.287267705775e-04 7.284536477905e-03 0.0 
0.0 0.0 -1.153422328581e-03 
-1.335800596959e-04 5.879693086389e-04 0.0 
5.879693086389e-04 2.932124141139e-03 0.0 
0.0 0.0 -6.430507458085e-04 
-1.103593163525e-03 -2.311027910085e-05 0.0 
-2.311027910085e-05 6.594057391582e-03 0.0 
0.0 0.0 -9.856407671940e-04 
6.097401795475e-04 2.716157955159e-04 0.0 
2.716157955159e-04 -1.627804699296e-04 0.0 
0.0 0.0 -1.915541612648e-04 
-1.121189365028e-03 -4.313739104837e-04 0.0 
-4.313739104837e-04 7.519397857683e-03 0.0 
0.0 0.0 -1.206759618350e-03 
-1.369628119913e-04 -1.636536330447e-03 0.0 
-1.636536330447e-03 1.233538073419e-03 0.0 
0.0 0.0 -4.045577262616e-04 
-7.109907021558e-04 -5.092194229215e-05 0.0 
-5.092194229215e-05 3.143336407810e-03 0.0 
0.0 0.0 -4.995972236199e-04 
-7.610689947692e-04 3.254275537369e-04 0.0 
3.254275537369e-04 6.017676875730e-03 0.0 
0.0 0.0 -1.031547093314e-03 
-5.009347095537e-04 -8.784504666191e-04 0.0 
-8.784504666191e-04 4.097798542798e-03 0.0 
0.0 0.0 -7.436172176343e-04 
-9.490922030985e-04 8.355820245775e-05 0.0 
8.355820245775e-05 6.977686204134e-03 0.0 
0.0 0.0 -1.139062866688e-03 
-5.334594474911e-04 7.731459396832e-04 0.0 
7.731459396832e-04 3.293236008727e-03 0.0 
0.0 0.0 -5.762899171568e-04 
-1.157169932203e-03 5.876132975745e-05 0.0 
5.876132975745e-05 6.976179943537e-03 0.0 
0.0 0.0 -1.044446328659e-03 
-1.026845760321e-03 3.718808168871e-04 0.0 
3.718808168871e-04 7.294887320679e-03 0.0 
0.0 0.0 -1.198892520503e-03 
-1.098955546930e-03 3.331596057930e-04 0.0 
3.331596057930e-04 6.603659082882e-03 0.0 
0.0 0.0 -9.940794652285e-04 
-1.269540035819e-03 1.940023298487e-04 0.0 
1.940023298487e-04 7.944098741491e-03 0.0 
0.0 0.0 -1.194784139986e-03 
-1.184726223875e-03 -2.348624992813e-06 0.0 
-2.348624992813e-06 7.294407597930e-03 0.0 
0.0 0.0 -1.087318097122e-03 
-1.210012004909e-03 2.996776911562e-05 0.0 
2.996776911562e-05 7.486490191622e-03 0.0 
0.0 0.0 -1.116677092124e-03 
1.863822195981e-04 1.500592688013e-03 0.0 
1.500592688013e-03 6.610975863953e-04 0.0 
0.0 0.0 -3.632056311400e-04 
-1.142912226621e-03 -1.436249115933e-04 0.0 
-1.436249115933e-04 7.061947710655e-03 0.0 
0.0 0.0 -1.115908039155e-03 
-1.147672819159e-03 3.821528619329e-04 0.0 
3.821528619329e-04 6.988478452450e-03 0.0 
0.0 0.0 -1.053364550114e-03 
-4.264879333549e-04 6.971974912426e-04 0.0 
6.971974912426e-04 4.141626674137e-03 0.0 
0.0 0.0 -7.792489223127e-04 
-6.776919640089e-04 4.847017937331e-04 0.0 
4.847017937331e-04 3.056038122043e-03 0.0 
0.0 0.0 -4.908673385051e-04 
-1.078927379078e-03 1.409149927546e-05 0.0 
1.409149927546e-05 7.640444635147e-03 0.0 
0.0 0.0 -1.232292820449e-03 
3.227356576489e-04 7.350862602758e-04 0.0 
7.350862602758e-04 8.113095771019e-04 0.0 
0.0 0.0 -4.142712813041e-04 
-6.537509052586e-04 -4.383754105270e-04 0.0 
-4.383754105270e-04 2.983336896445e-03 0.0 
0.0 0.0 -4.655197245388e-04 
-9.005107576278e-04 4.600258062660e-04 0.0 
4.600258062660e-04 6.613923225017e-03 0.0 
0.0 0.0 -1.105063927110e-03 
-3.654007350969e-04 -1.479495410984e-04 0.0 
-1.479495410984e-04 1.815899396191e-03 0.0 
0.0 0.0 -2.939799329518e-04 
-5.977371900919e-04 5.010127079244e-04 0.0 
5.010127079244e-04 4.620714897895e-03 0.0 
0.0 0.0 -7.924235178053e-04 
-8.040024099011e-04 2.359492841355e-04 0.0 
2.359492841355e-04 6.229578808837e-03 0.0 
0.0 0.0 -1.059843925468e-03 
-1.255635553756e-03 7.173795077007e-05 0.0 
7.173795077007e-05 7.907591642771e-03 0.0 
0.0 0.0 -1.181155146799e-03 
-1.282202030770e-03 1.124926252761e-04 0.0 
1.124926252761e-04 8.112071435222e-03 0.0 
0.0 0.0 -1.210943746944e-03 
-7.487229487199e-04 -1.168956266195e-04 0.0 
-1.168956266195e-04 6.087931342050e-03 0.0 
0.0 0.0 -1.028825005900e-03 
-1.212248021085e-03 -1.436521725135e-05 0.0 
-1.436521725135e-05 7.552882477900e-03 0.0 
0.0 0.0 -1.123737208958e-03 
-2.386760142168e-04 7.145577053840e-04 0.0 
7.145577053840e-04 3.288051445445e-03 0.0 
0.0 0.0 -6.793824814287e-04 
-1.022910334669e-03 3.054988306638e-04 0.0 
3.054988306638e-04 6.728691543712e-03 0.0 
0.0 0.0 -1.062452857821e-03 
-7.369445152822e-04 4.219749857923e-04 0.0 
4.219749857923e-04 3.529735228100e-03 0.0 
0.0 0.0 -5.576509564599e-04 
-1.225600923705e-03 6.150358502408e-04 0.0 
6.150358502408e-04 7.637406645108e-03 0.0 
0.0 0.0 -1.181751882508e-03 
-8.003950005641e-04 3.733577663785e-04 0.0 
3.733577663785e-04 4.007249233080e-03 0.0 
0.0 0.0 -6.243763318321e-04 
-7.858165178840e-04 3.201249060732e-04 0.0 
3.201249060732e-04 4.232155620723e-03 0.0 
0.0 0.0 -6.577503189808e-04 
-3.421685830446e-04 4.506546569180e-04 0.0 
4.506546569180e-04 3.987712693438e-03 0.0 
0.0 0.0 -7.717627972493e-04 
-8.541855867529e-04 3.616408520390e-04 0.0 
3.616408520390e-04 4.495910448337e-03 0.0 
0.0 0.0 -6.911701761307e-04 
-6.466553023066e-04 3.566499724765e-04 0.0 
3.566499724765e-04 5.190189138744e-03 0.0 
0.0 0.0 -8.833033330409e-04 
-4.075558796588e-04 5.082935923898e-04 0.0 
5.082935923898e-04 3.946901844573e-03 0.0 
0.0 0.0 -7.209687761305e-04 
-3.183347553168e-04 -3.900876355230e-04 0.0 
-3.900876355230e-04 3.990865140146e-03 0.0 
0.0 0.0 -7.606211034647e-04 
4.197691498195e-04 -7.924817374046e-04 0.0 
-7.924817374046e-04 5.841418248199e-04 0.0 
0.0 0.0 -3.925496596906e-04 
-2.632176995851e-04 3.130804871778e-04 0.0 
3.130804871778e-04 3.673894068274e-03 0.0 
0.0 0.0 -7.353490689725e-04 
-1.228427596361e-03 3.654441690398e-04 0.0 
3.654441690398e-04 7.753036613507e-03 0.0 
0.0 0.0 -1.162517914204e-03 
-1.234586540092e-03 6.496817172604e-04 0.0 
6.496817172604e-04 7.840810725913e-03 0.0 
0.0 0.0 -1.195263893373e-03 
-1.079254607357e-03 -1.716834017040e-04 0.0 
-1.716834017040e-04 6.610697418479e-03 0.0 
0.0 0.0 -1.050100468764e-03 
-9.999924356562e-04 4.337068162590e-04 0.0 
4.337068162590e-04 7.101876474641e-03 0.0 
0.0 0.0 -1.170266998156e-03 
-4.393592797757e-04 -4.178536690016e-04 0.0 
-4.178536690016e-04 4.023524415681e-03 0.0 
0.0 0.0 -7.463264885205e-04 
-1.196792592392e-03 4.110574340668e-04 0.0 
4.110574340668e-04 7.430663622206e-03 0.0 
0.0 0.0 -1.119019617531e-03 
-3.103812770642e-04 1.366237006987e-04 0.0 
1.366237006987e-04 3.912213435347e-03 0.0 
0.0 0.0 -7.634232545038e-04 
-1.186941185396e-03 -1.093564622626e-04 0.0 
-1.093564622626e-04 7.299889317220e-03 0.0 
0.0 0.0 -1.144395376583e-03 
-1.175446045210e-03 3.743988593539e-04 0.0 
3.743988593539e-04 7.239811730626e-03 0.0 
0.0 0.0 -1.089631904438e-03 
-1.184480952279e-03 4.301367348574e-05 0.0 
4.301367348574e-05 7.231184503722e-03 0.0 
0.0 0.0 -1.080451501872e-03 
-6.366755747078e-04 1.541674785508e-04 0.0 
1.541674785508e-04 5.452650900242e-03 0.0 
0.0 0.0 -9.580909834143e-04 
-2.389238927474e-04 5.103421139426e-04 0.0 
5.103421139426e-04 3.464348160629e-03 0.0 
0.0 0.0 -7.073300717972e-04 
-1.091479932409e-03 3.053404772209e-04 0.0 
3.053404772209e-04 7.161436277653e-03 0.0 
0.0 0.0 -1.126038590206e-03 
-9.842000416471e-04 6.396846099915e-04 0.0 
6.396846099915e-04 5.813603015757e-03 0.0 
0.0 0.0 -9.169694165663e-04 
1.883793847700e-04 -1.613056327393e-03 0.0 
-1.613056327393e-03 7.099727485344e-04 0.0 
0.0 0.0 -3.670597958229e-04 
4.158840995285e-04 -1.069455846307e-04 0.0 
-1.069455846307e-04 9.093131002263e-04 0.0 
0.0 0.0 -4.209936697170e-04 
-5.253520320544e-04 1.113226159763e-03 0.0 
1.113226159763e-03 3.274387380493e-03 0.0 
0.0 0.0 -6.061407060701e-04 
-8.148800044768e-04 7.943320417803e-04 0.0 
7.943320417803e-04 5.072587073095e-03 0.0 
0.0 0.0 -8.384786063130e-04 
-1.230266496445e-03 -6.856974243120e-05 0.0 
-6.856974243120e-05 7.537797729461e-03 0.0 
0.0 0.0 -1.173545322487e-03 
-1.159784806983e-03 4.546774843700e-06 0.0 
4.546774843700e-06 7.042624556690e-03 0.0 
0.0 0.0 -1.051102540299e-03 
-2.045778073669e-04 -2.934353049160e-05 0.0 
-2.934353049160e-05 3.544788899175e-03 0.0 
0.0 0.0 -7.045205360201e-04 
-9.013823451461e-04 3.641498331546e-04 0.0 
3.641498331546e-04 5.853350218943e-03 0.0 
0.0 0.0 -9.344940742331e-04 
-8.532834150584e-04 1.785665259931e-04 0.0 
1.785665259931e-04 6.467721788847e-03 0.0 
0.0 0.0 -1.088599101970e-03 
-1.213199839846e-03 -4.701032574329e-05 0.0 
-4.701032574329e-05 7.611187462875e-03 0.0 
0.0 0.0 -1.130578931274e-03 
-1.163123546776e-03 3.469650352866e-04 0.0 
3.469650352866e-04 7.457428311297e-03 0.0 
0.0 0.0 -1.160781586281e-03 
-1.064121038643e-03 3.592685452389e-04 0.0 
3.592685452389e-04 6.295822569873e-03 0.0 
0.0 0.0 -9.517943393003e-04 
-9.431187375283e-04 -8.030312093776e-06 0.0 
-8.030312093776e-06 6.723807310886e-03 0.0 
0.0 0.0 -1.113435711030e-03 
-3.640285380992e-04 -2.251334255899e-04 0.0 
-2.251334255899e-04 4.276860424883e-03 0.0 
0.0 0.0 -7.971871449874e-04 
-8.575470034421e-04 -2.591277644309e-04 0.0 
-2.591277644309e-04 6.522660233149e-03 0.0 
0.0 0.0 -1.086118700983e-03 
-6.488096190532e-04 8.782975641900e-04 0.0 
8.782975641900e-04 4.555098411154e-03 0.0 
0.0 0.0 -7.951163407912e-04 
-1.259477151619e-03 2.377000778179e-05 0.0 
2.377000778179e-05 7.994105241717e-03 0.0 
0.0 0.0 -1.188704642750e-03 
-1.188566355983e-03 2.821785558319e-04 0.0 
2.821785558319e-04 7.789552889991e-03 0.0 
0.0 0.0 -1.200489323427e-03 
-5.291595357548e-04 1.464001696405e-04 0.0 
1.464001696405e-04 4.944674619640e-03 0.0 
0.0 0.0 -8.929891684399e-04 
5.077877396978e-04 3.026021049410e-04 0.0 
3.026021049410e-04 3.943566526323e-04 0.0 
0.0 0.0 -3.866333109986e-04 
-9.967575789130e-04 6.124990556396e-04 0.0 
6.124990556396e-04 6.815699392306e-03 0.0 
0.0 0.0 -1.113685640909e-03 
-6.605390437865e-04 4.261094964972e-04 0.0 
4.261094964972e-04 5.059149157301e-03 0.0 
0.0 0.0 -8.555605426019e-04 
-1.830081198130e-04 1.866635750844e-04 0.0 
1.866635750844e-04 3.368216116446e-03 0.0 
0.0 0.0 -6.765734244908e-04 
-5.817203437328e-04 -2.125841840423e-04 0.0 
-2.125841840423e-04 5.299242741235e-03 0.0 
0.0 0.0 -9.269463096178e-04 
-9.296871453603e-04 -5.069518437094e-04 0.0 
-5.069518437094e-04 6.554705833196e-03 0.0 
0.0 0.0 -1.072977024862e-03 
5.145493605139e-04 -6.481882605914e-04 0.0 
-6.481882605914e-04 5.138628621790e-04 0.0 
0.0 0.0 -3.958212347391e-04 
-4.207868633399e-04 1.388755270071e-04 0.0 
1.388755270071e-04 4.431893145968e-03 0.0 
0.0 0.0 -8.281205301186e-04 
-1.057518774056e-03 5.392644449481e-04 0.0 
5.392644449481e-04 6.206831668111e-03 0.0 
0.0 0.0 -9.596127204057e-04 
-1.238644968873e-03 -4.648423040969e-04 0.0 
-4.648423040969e-04 7.603472997752e-03 0.0 
0.0 0.0 -1.170838755190e-03 
-1.067041670428e-03 5.715302009941e-04 0.0 
5.715302009941e-04 6.356528225694e-03 0.0 
0.0 0.0 -9.876491701490e-04 
-9.841945622355e-04 6.610492595006e-04 0.0 
6.610492595006e-04 6.661208694162e-03 0.0 
0.0 0.0 -1.085374163265e-03 
-1.045085745863e-03 5.003784013052e-04 0.0 
5.003784013052e-04 6.049842854282e-03 0.0 
0.0 0.0 -9.316602363005e-04 
-1.022837492668e-03 4.381275546802e-04 0.0 
4.381275546802e-04 5.716010034056e-03 0.0 
0.0 0.0 -8.756372412555e-04 
-9.850681647526e-04 6.675723233926e-04 0.0 
6.675723233926e-04 5.952563133260e-03 0.0 
0.0 0.0 -9.447135688329e-04 
-9.326630633240e-04 3.930283305116e-04 0.0 
3.930283305116e-04 6.810995827980e-03 0.0 
0.0 0.0 -1.133505030480e-03 
-1.106660061021e-03 -5.521563816417e-04 0.0 
-5.521563816417e-04 6.894855264338e-03 0.0 
0.0 0.0 -1.084522140297e-03 
-1.120799229937e-03 3.838899692646e-04 0.0 
3.838899692646e-04 6.737454909863e-03 0.0 
0.0 0.0 -1.017300281410e-03 
-1.265839226480e-03 4.523982644349e-04 0.0 
4.523982644349e-04 8.063487692737e-03 0.0 
0.0 0.0 -1.212886757924e-03 
-1.030324522425e-03 4.628372417255e-04 0.0 
4.628372417255e-04 5.887641382241e-03 0.0 
0.0 0.0 -9.037302385344e-04 
2.653135269754e-05 8.001600084414e-05 0.0 
8.001600084414e-05 2.476344782206e-03 0.0 
0.0 0.0 -5.760585567884e-04 
-1.044239643313e-03 2.376498451470e-04 0.0 
2.376498451470e-04 7.187723140536e-03 0.0 
0.0 0.0 -1.146733564437e-03 
-1.253924981079e-03 -4.907598213233e-05 0.0 
-4.907598213233e-05 8.057805599269e-03 0.0 
0.0 0.0 -1.196744929305e-03 
-5.355464959753e-04 8.349410411799e-04 0.0 
8.349410411799e-04 4.335085481445e-03 0.0 
0.0 0.0 -7.869228524964e-04 
-6.233378135021e-04 8.291713004523e-04 0.0 
8.291713004523e-04 4.669146782253e-03 0.0 
0.0 0.0 -8.226527892688e-04 
-9.042297380502e-05 1.578503348626e-05 0.0 
1.578503348626e-05 3.015977975308e-03 0.0 
0.0 0.0 -6.402419685743e-04 
-1.145557266538e-03 4.246140586136e-04 0.0 
4.246140586136e-04 6.921583184568e-03 0.0 
0.0 0.0 -1.046609947212e-03 
-6.981713726155e-04 9.056832497172e-04 0.0 
9.056832497172e-04 3.852457966674e-03 0.0 
0.0 0.0 -6.500746975200e-04 
-6.825381544126e-04 6.942299752500e-04 0.0 
6.942299752500e-04 5.269578602974e-03 0.0 
0.0 0.0 -9.137630964162e-04 
-6.717413934869e-04 5.961928435860e-04 0.0 
5.961928435860e-04 3.907642713709e-03 0.0 
0.0 0.0 -6.476280927198e-04 
-8.299310340804e-04 4.003109170218e-04 0.0 
4.003109170218e-04 6.314977660297e-03 0.0 
0.0 0.0 -1.068254633495e-03 
-1.134995185088e-03 2.756692802088e-04 0.0 
2.756692802088e-04 7.594750376581e-03 0.0 
0.0 0.0 -1.211228670573e-03 
-1.360533559688e-04 -2.215574873168e-04 0.0 
-2.215574873168e-04 3.223027219763e-03 0.0 
0.0 0.0 -6.682047883386e-04 
4.373904628404e-04 -2.393257178328e-04 0.0 
-2.393257178328e-04 -1.132865459339e-04 0.0 
0.0 0.0 -1.389016786742e-04 
-1.258599255868e-03 5.175436206336e-04 0.0 
5.175436206336e-04 7.974357198458e-03 0.0 
0.0 0.0 -1.207184308065e-03 
-7.509449296831e-04 8.117398232865e-04 0.0 
8.117398232865e-04 4.141196512392e-03 0.0 
0.0 0.0 -6.853381776776e-04 
-4.357225566231e-04 -2.745654093134e-04 0.0 
-2.745654093134e-04 4.218247831069e-03 0.0 
0.0 0.0 -7.828151049093e-04 
-1.060590658414e-03 6.112856710438e-04 0.0 
6.112856710438e-04 7.289270463529e-03 0.0 
0.0 0.0 -1.177925372349e-03 
-1.133119087327e-03 1.716253131945e-05 0.0 
1.716253131945e-05 6.790529249754e-03 0.0 
0.0 0.0 -1.015069748350e-03 
-1.047918274143e-03 -5.722033483047e-04 0.0 
-5.722033483047e-04 6.640384232333e-03 0.0 
0.0 0.0 -1.055879354346e-03 
-3.002045645479e-04 4.799822856897e-04 0.0 
4.799822856897e-04 3.594772661625e-03 0.0 
0.0 0.0 -6.851017020021e-04 
1.437633437549e-04 -1.583243096343e-05 0.0 
-1.583243096343e-05 -4.287346076812e-05 0.0 
0.0 0.0 -4.323852128003e-05 
-1.294332022630e-03 -4.590388614896e-04 0.0 
-4.590388614896e-04 7.891763322768e-03 0.0 
0.0 0.0 -1.202131160132e-03 
-7.979241755136e-04 7.967983468878e-04 0.0 
7.967983468878e-04 5.189819245057e-03 0.0 
0.0 0.0 -8.660506973337e-04 
-7.515738742409e-04 1.099645178349e-04 0.0 
1.099645178349e-04 5.981619188890e-03 0.0 
0.0 0.0 -1.007142642412e-03 
-1.115772722662e-03 6.613759768766e-04 0.0 
6.613759768766e-04 7.287802445254e-03 0.0 
0.0 0.0 -1.157822513452e-03 
0.0 0.0 0.0 
0.0 0.0 0.0 
0.0 0.0 0.0 
-1.020410346766e-03 -1.741879484343e-04 0.0 
-1.741879484343e-04 6.569036879710e-03 0.0 
0.0 0.0 -1.058763633038e-03 
-1.044584882710e-04 9.374141262810e-04 0.0 
9.374141262810e-04 2.179572843365e-03 0.0 
0.0 0.0 -4.919579008500e-04 
-1.074016419554e-03 -9.865194451983e-06 0.0 
-9.865194451983e-06 6.344021920267e-03 0.0 
0.0 0.0 -9.498437721210e-04 
-9.305727240655e-04 -6.933921297842e-04 0.0 
-6.933921297842e-04 5.329347824549e-03 0.0 
0.0 0.0 -8.496012432876e-04 
-1.513106441093e-04 3.496683072490e-04 0.0 
3.496683072490e-04 3.137268859880e-03 0.0 
0.0 0.0 -6.709551114794e-04 
-1.200608795278e-03 -4.872905826385e-04 0.0 
-4.872905826385e-04 7.367763642178e-03 0.0 
0.0 0.0 -1.141635569211e-03 
-6.896908437113e-04 7.588366273899e-04 0.0 
7.588366273899e-04 5.123258515759e-03 0.0 
0.0 0.0 -8.859145181037e-04 
-3.682506920307e-05 4.047925217802e-04 0.0 
4.047925217802e-04 2.589749957424e-03 0.0 
0.0 0.0 -6.067458373204e-04 
-8.340011645670e-04 4.008480374015e-04 0.0 
4.008480374015e-04 5.557081142302e-03 0.0 
0.0 0.0 -8.989548790023e-04 
3.022096838876e-04 -3.038195152345e-04 0.0 
-3.038195152345e-04 -5.124151784209e-05 0.0 
0.0 0.0 -1.075577854481e-04 
-9.546355211556e-04 3.234338831530e-04 0.0 
3.234338831530e-04 6.429567223705e-03 0.0 
0.0 0.0 -1.026417656363e-03 
-8.158927749848e-04 -3.909777349409e-05 0.0 
-3.909777349409e-05 6.386420010715e-03 0.0 
0.0 0.0 -1.065496432940e-03 
-1.247055565640e-03 3.319997532961e-04 0.0 
3.319997532961e-04 7.921779384989e-03 0.0 
0.0 0.0 -1.233600908384e-03 
-1.025284337354e-03 2.945178670449e-04 0.0 
2.945178670449e-04 6.877652576001e-03 0.0 
0.0 0.0 -1.090749533212e-03 
2.434503745851e-04 -1.578934998957e-04 0.0 
-1.578934998957e-04 1.529841444305e-03 0.0 
0.0 0.0 -4.758149136988e-04 
-1.100855494631e-03 -5.513580386133e-04 0.0 
-5.513580386133e-04 6.680884096093e-03 0.0 
0.0 0.0 -1.047231727503e-03 
-1.252169978070e-03 3.748871630309e-04 0.0 
3.748871630309e-04 8.183246127380e-03 0.0 
0.0 0.0 -1.228155452712e-03 
-1.172998084832e-03 8.287498321717e-05 0.0 
8.287498321717e-05 7.902166307926e-03 0.0 
0.0 0.0 -1.267145247477e-03 
-8.845763971731e-04 3.343706134048e-05 0.0 
3.343706134048e-05 6.685188464531e-03 0.0 
0.0 0.0 -1.102242875413e-03 
-2.824655770355e-04 3.019818645340e-04 0.0 
3.019818645340e-04 3.719180698001e-03 0.0 
0.0 0.0 -7.127912709901e-04 
-8.914221389397e-04 3.576211756874e-04 0.0 
3.576211756874e-04 5.989320852496e-03 0.0 
0.0 0.0 -9.624716764950e-04 
-1.265622827008e-03 -3.602381928261e-05 0.0 
-3.602381928261e-05 7.525688479598e-03 0.0 
0.0 0.0 -1.164316760544e-03 
-1.026823558190e-03 -3.127358117122e-04 0.0 
-3.127358117122e-04 5.188290229651e-03 0.0 
0.0 0.0 -7.878971455476e-04 
-9.790335059978e-04 6.764140397440e-04 0.0 
6.764140397440e-04 6.506573428341e-03 0.0 
0.0 0.0 -1.057196955382e-03 
-1.092783271967e-03 3.587775336083e-04 0.0 
3.587775336083e-04 6.543365283594e-03 0.0 
0.0 0.0 -9.877098122506e-04 
-1.155871143424e-03 -5.200772835953e-04 0.0 
-5.200772835953e-04 7.131963810306e-03 0.0 
0.0 0.0 -1.112977059762e-03 
-1.053791982519e-03 -5.418051239347e-04 0.0 
-5.418051239347e-04 6.849369446006e-03 0.0 
0.0 0.0 -1.093234982489e-03 
-8.344751970142e-04 -5.063632387036e-06 0.0 
-5.063632387036e-06 4.624983012521e-03 0.0 
0.0 0.0 -7.313513689239e-04 
-8.293658591313e-04 3.666703434100e-05 0.0 
3.666703434100e-05 4.623218336322e-03 0.0 
0.0 0.0 -7.310574395863e-04 
-1.097030069405e-03 1.613810298079e-04 0.0 
1.613810298079e-04 6.539696336596e-03 0.0 
0.0 0.0 -9.927888931629e-04 
-9.125545325387e-04 7.100995827850e-04 0.0 
7.100995827850e-04 6.060357295598e-03 0.0 
0.0 0.0 -9.930598132463e-04 
-9.889474269995e-04 -6.231936758992e-04 0.0 
-6.231936758992e-04 5.582412655685e-03 0.0 
0.0 0.0 -8.780428295617e-04 
-1.024071250989e-03 2.871939654452e-04 0.0 
2.871939654452e-04 6.293682207182e-03 0.0 
0.0 0.0 -9.775429604617e-04 
-6.061110354643e-04 7.542189021973e-04 0.0 
7.542189021973e-04 4.796279324774e-03 0.0 
0.0 0.0 -8.502279965035e-04 
-1.039665177067e-03 6.008961477257e-05 0.0 
6.008961477257e-05 7.149947818513e-03 0.0 
0.0 0.0 -1.180288150054e-03 
-3.419429553987e-04 7.892463912468e-04 0.0 
7.892463912468e-04 3.645374748844e-03 0.0 
0.0 0.0 -7.154845226688e-04 
-1.354053466570e-03 2.682798114320e-04 0.0 
2.682798114320e-04 9.013564030942e-03 0.0 
0.0 0.0 -1.323793839065e-03 
-9.392924140876e-04 3.695422570173e-04 0.0 
3.695422570173e-04 5.310514062737e-03 0.0 
0.0 0.0 -8.119939454945e-04 
-5.728660710208e-04 4.262528038404e-04 0.0 
4.262528038404e-04 4.737723853376e-03 0.0 
0.0 0.0 -8.199314282332e-04 
-8.958346709753e-04 -3.297015998196e-04 0.0 
-3.297015998196e-04 5.260659561238e-03 0.0 
0.0 0.0 -8.523954645778e-04 
2.690092700999e-04 2.909500152897e-04 0.0 
2.909500152897e-04 1.354854423747e-03 0.0 
0.0 0.0 -4.479040077299e-04 
-8.117880315537e-04 -8.289707142058e-04 0.0 
-8.289707142058e-04 4.623452632362e-03 0.0 
0.0 0.0 -7.551671247638e-04 
-8.525904846397e-04 7.508503903319e-04 0.0 
7.508503903319e-04 5.621343722007e-03 0.0 
0.0 0.0 -9.293281999836e-04 
-8.758111121474e-04 7.483431883641e-04 0.0 
7.483431883641e-04 5.371889788881e-03 0.0 
0.0 0.0 -8.738309435711e-04 
-1.092742745582e-03 3.915524889603e-04 0.0 
3.915524889603e-04 6.485907170089e-03 0.0 
0.0 0.0 -9.814596669550e-04 
-1.035952161766e-03 6.611052853446e-04 0.0 
6.611052853446e-04 6.380857888035e-03 0.0 
0.0 0.0 -1.008022096355e-03 
-1.077652724168e-03 2.805726221407e-04 0.0 
2.805726221407e-04 6.715783923999e-03 0.0 
0.0 0.0 -1.040850218070e-03 
-2.023974518503e-04 -1.321133762499e-04 0.0 
-1.321133762499e-04 1.384394093772e-03 0.0 
0.0 0.0 -2.163717569139e-04 
-7.893601242255e-04 -4.562798916239e-04 0.0 
-4.562798916239e-04 4.381521976835e-03 0.0 
0.0 0.0 -7.209013985657e-04 
-7.313998078972e-04 5.086544562021e-04 0.0 
5.086544562021e-04 4.197814066076e-03 0.0 
0.0 0.0 -6.825522065409e-04 
-1.028318523239e-03 6.006171887521e-04 0.0 
6.006171887521e-04 6.085692307244e-03 0.0 
0.0 0.0 -9.521954671713e-04 
-1.067646735267e-03 2.331910673829e-04 0.0 
2.331910673829e-04 6.426373394987e-03 0.0 
0.0 0.0 -9.850634846466e-04 
-9.716546386639e-04 2.965949022534e-04 0.0 
2.965949022534e-04 6.988702290933e-03 0.0 
0.0 0.0 -1.160108757481e-03 
-4.472950566148e-04 1.734158785359e-04 0.0 
1.734158785359e-04 1.999281221139e-03 0.0 
0.0 0.0 -3.273996513303e-04 
5.013762340144e-04 -1.239269767564e-03 0.0 
-1.239269767564e-03 2.218446430556e-04 0.0 
0.0 0.0 -3.099518044586e-04 
-7.265319955109e-04 8.390462931927e-04 0.0 
8.390462931927e-04 4.877510016991e-03 0.0 
0.0 0.0 -8.305977116616e-04 
-8.244303094237e-04 -8.036957222691e-04 0.0 
-8.036957222691e-04 4.446645084886e-03 0.0 
0.0 0.0 -7.181358556540e-04 
-8.207218427826e-04 3.111449193767e-07 0.0 
3.111449193767e-07 4.297525914166e-03 0.0 
0.0 0.0 -6.554599841463e-04 
-8.454650530547e-04 2.288116945552e-05 0.0 
2.288116945552e-05 4.550895634799e-03 0.0 
0.0 0.0 -6.889204951115e-04 
-1.102411452052e-03 3.661135033764e-05 0.0 
3.661135033764e-05 6.536305471285e-03 0.0 
0.0 0.0 -9.793492904611e-04 
1.401876311920e-04 1.457319982698e-03 0.0 
1.457319982698e-03 8.276000244946e-04 0.0 
0.0 0.0 -3.371109590424e-04 
-9.056307504124e-04 -3.219601326285e-04 0.0 
-3.219601326285e-04 5.073216074597e-03 0.0 
0.0 0.0 -8.154759146177e-04 
-8.139515461008e-04 -3.444279104294e-04 0.0 
-3.444279104294e-04 6.262709696181e-03 0.0 
0.0 0.0 -1.049209916622e-03 
5.784646720155e-04 -2.798136268851e-04 0.0 
-2.798136268851e-04 4.491531344292e-05 0.0 
0.0 0.0 -2.671628509107e-04 
-1.269607203850e-03 4.300111845681e-04 0.0 
4.300111845681e-04 8.005085435650e-03 0.0 
0.0 0.0 -1.285586381397e-03 
-1.234701409080e-03 4.026661623699e-05 0.0 
4.026661623699e-05 7.724712803764e-03 0.0 
0.0 0.0 -1.152455342817e-03 
-9.332307083252e-04 -6.317385210980e-04 0.0 
-6.317385210980e-04 4.943755293323e-03 0.0 
0.0 0.0 -7.756113943005e-04 
-1.132361128818e-03 -1.347962173953e-04 0.0 
-1.347962173953e-04 6.852501733015e-03 0.0 
0.0 0.0 -1.078722419643e-03 
-1.782286125890e-04 -3.440225614963e-05 0.0 
-3.440225614963e-05 7.356149739106e-04 0.0 
0.0 0.0 -1.797547709840e-04 
-7.836878423569e-04 -4.420353483476e-04 0.0 
-4.420353483476e-04 6.015976224596e-03 0.0 
0.0 0.0 -1.012471576362e-03 
-7.618878641414e-04 4.386001518409e-04 0.0 
4.386001518409e-04 5.252415903850e-03 0.0 
0.0 0.0 -8.634366945984e-04 
-1.365202202974e-04 -1.663937919944e-05 0.0 
-1.663937919944e-05 7.240163383166e-04 0.0 
0.0 0.0 -1.788519809851e-04 
-1.221296204116e-03 3.897303876191e-04 0.0 
3.897303876191e-04 7.675470665632e-03 0.0 
0.0 0.0 -1.154859126927e-03 
6.541694671517e-04 -5.838497479074e-04 0.0 
-5.838497479074e-04 -1.165985658389e-04 0.0 
0.0 0.0 -2.303875291341e-04 
-1.022773715161e-03 2.649419741860e-04 0.0 
2.649419741860e-04 6.147018606592e-03 0.0 
0.0 0.0 -9.496453321265e-04 
-8.501477431051e-04 4.017489682252e-04 0.0 
4.017489682252e-04 5.430956065029e-03 0.0 
0.0 0.0 -8.712718144564e-04 
-3.870813166907e-04 -6.841434598879e-04 0.0 
-6.841434598879e-04 4.009053170529e-03 0.0 
0.0 0.0 -7.519815330289e-04 
-7.080628147866e-04 -2.630245850535e-04 0.0 
-2.630245850535e-04 5.293137348391e-03 0.0 
0.0 0.0 -9.052548162676e-04 
-1.248469741651e-03 4.216386458729e-04 0.0 
4.216386458729e-04 7.872413297340e-03 0.0 
0.0 0.0 -1.182898372388e-03 
-7.959805508824e-04 -1.903636579771e-04 0.0 
-1.903636579771e-04 5.775075989453e-03 0.0 
0.0 0.0 -9.716005391689e-04 
-7.058567601375e-04 8.071090420181e-04 0.0 
8.071090420181e-04 4.993912000440e-03 0.0 
0.0 0.0 -8.581765416018e-04 
-6.834773769761e-04 4.720321187624e-04 0.0 
4.720321187624e-04 4.941232986507e-03 0.0 
0.0 0.0 -8.279616112547e-04 
1.200725464497e-05 4.997720012563e-04 0.0 
4.997720012563e-04 2.980647594779e-04 0.0 
0.0 0.0 -1.328880060527e-04 
5.267325684764e-04 -1.507976047628e-04 0.0 
-1.507976047628e-04 -1.515568147922e-04 0.0 
0.0 0.0 -1.607896087218e-04 
-1.031637425544e-03 2.938257107745e-04 0.0 
2.938257107745e-04 7.016823171402e-03 0.0 
0.0 0.0 -1.118331045454e-03 
-1.047581819557e-03 3.855603907834e-05 0.0 
3.855603907834e-05 6.024362043911e-03 0.0 
0.0 0.0 -9.085367473448e-04 
-1.068580773740e-03 6.289177231850e-04 0.0 
6.289177231850e-04 7.124997701846e-03 0.0 
0.0 0.0 -1.148691026115e-03 
-2.168784888490e-04 1.398227562360e-03 0.0 
1.398227562360e-03 2.112550911132e-03 0.0 
0.0 0.0 -4.942977111402e-04 
-1.176051745943e-03 5.435901405529e-04 0.0 
5.435901405529e-04 7.176283028080e-03 0.0 
0.0 0.0 -1.097950598811e-03 
-1.105546950119e-03 2.883637130323e-04 0.0 
2.883637130323e-04 7.335184708628e-03 0.0 
0.0 0.0 -1.155407764312e-03 
-8.481473499091e-04 3.802854440166e-04 0.0 
3.802854440166e-04 4.634623972028e-03 0.0 
0.0 0.0 -7.179420443741e-04 
-1.053414342459e-03 6.334862389143e-04 0.0 
6.334862389143e-04 6.950110385841e-03 0.0 
0.0 0.0 -1.120992621467e-03 
-1.150488405997e-03 -5.115596481821e-04 0.0 
-5.115596481821e-04 6.921289775542e-03 0.0 
0.0 0.0 -1.075946734593e-03 
-8.430169137080e-04 7.309466471044e-04 0.0 
7.309466471044e-04 5.750606817071e-03 0.0 
0.0 0.0 -9.571162043194e-04 
-8.407412319889e-04 -3.923326874810e-04 0.0 
-3.923326874810e-04 4.820090656330e-03 0.0 
0.0 0.0 -7.866383436874e-04 
-8.661293961769e-04 -7.636305903076e-04 0.0 
-7.636305903076e-04 5.068827859701e-03 0.0 
0.0 0.0 -8.209012074946e-04 
-1.276631957823e-03 1.351613779989e-04 0.0 
1.351613779989e-04 8.067600813718e-03 0.0 
0.0 0.0 -1.204704583718e-03 
-6.220699559740e-04 -3.467517458205e-04 0.0 
-3.467517458205e-04 4.812375804049e-03 0.0 
0.0 0.0 -8.396599866114e-04 
-8.640312315529e-04 7.564773801915e-04 0.0 
7.564773801915e-04 5.496513579944e-03 0.0 
0.0 0.0 -9.015555482168e-04 
-5.139647083066e-04 6.286602551559e-04 0.0 
6.286602551559e-04 4.638431100819e-03 0.0 
0.0 0.0 -8.433600309793e-04 
-8.878790724241e-04 -1.375747034556e-04 0.0 
-1.375747034556e-04 6.258870962336e-03 0.0 
0.0 0.0 -1.038364586984e-03 
-4.800211114771e-04 4.132947089942e-04 0.0 
4.132947089942e-04 4.403087062058e-03 0.0 
0.0 0.0 -7.842421616061e-04 
1.708764263770e-04 1.828302604937e-04 0.0 
1.828302604937e-04 1.696323968062e-03 0.0 
0.0 0.0 -5.065804551108e-04 
-4.825363659521e-04 1.845931219475e-05 0.0 
1.845931219475e-05 4.680497453253e-03 0.0 
0.0 0.0 -8.561803240471e-04 
8.082119994225e-05 4.790974331332e-04 0.0 
4.790974331332e-04 2.023860804843e-03 0.0 
0.0 0.0 -5.426160209679e-04 
-1.033438603377e-03 6.383788790857e-04 0.0 
6.383788790857e-04 6.235509335954e-03 0.0 
0.0 0.0 -9.799122972177e-04 
1.114946380246e-04 -1.909482610686e-04 0.0 
-1.909482610686e-04 2.113077183239e-03 0.0 
0.0 0.0 -5.399485503623e-04 
-9.706412986079e-04 3.184758127264e-04 0.0 
3.184758127264e-04 6.013389094156e-03 0.0 
0.0 0.0 -9.420580210740e-04 
-9.265946290547e-04 -4.225709154864e-05 0.0 
-4.225709154864e-05 6.885841307398e-03 0.0 
0.0 0.0 -1.130549445556e-03 
-8.685442447111e-04 3.124266913747e-04 0.0 
3.124266913747e-04 6.514082051094e-03 0.0 
0.0 0.0 -1.096529089934e-03 
-4.417150057457e-04 8.260625217284e-04 0.0 
8.260625217284e-04 3.995231427087e-03 0.0 
0.0 0.0 -7.512528815036e-04 
-1.059191105034e-03 4.065855107728e-04 0.0 
4.065855107728e-04 6.228287830528e-03 0.0 
0.0 0.0 -9.460253849645e-04 
-1.179141908394e-03 -9.694575707592e-05 0.0 
-9.694575707592e-05 7.087490944073e-03 0.0 
0.0 0.0 -1.107441567342e-03 
-1.193835214950e-03 -4.719824871619e-04 0.0 
-4.719824871619e-04 7.155436910273e-03 0.0 
0.0 0.0 -1.104747680386e-03 
1.944125303692e-04 1.273132647232e-03 0.0 
1.273132647232e-03 5.121470870520e-04 0.0 
0.0 0.0 -3.028112646091e-04 
-9.836336619932e-04 6.878362883605e-04 0.0 
6.878362883605e-04 6.089006481299e-03 0.0 
0.0 0.0 -9.724793438395e-04 
-1.268204156625e-03 7.721982515826e-06 0.0 
7.721982515826e-06 7.786698253164e-03 0.0 
0.0 0.0 -1.205818386895e-03 
-6.870681417228e-04 7.008927199053e-04 0.0 
7.008927199053e-04 3.265237971609e-03 0.0 
0.0 0.0 -5.357889572170e-04 
-9.885170178391e-04 -5.948066208015e-04 0.0 
-5.948066208015e-04 5.380783060798e-03 0.0 
0.0 0.0 -8.409532000723e-04 
-7.799555259595e-05 6.230825562270e-04 0.0 
6.230825562270e-04 5.570487652900e-04 0.0 
0.0 0.0 -2.053085197260e-04 
-1.219579480668e-03 -6.033820998881e-05 0.0 
-6.033820998881e-05 7.313003609483e-03 0.0 
0.0 0.0 -1.136235114959e-03 
2.012100085966e-04 5.845223729044e-04 0.0 
5.845223729044e-04 1.434306137738e-03 0.0 
0.0 0.0 -4.785631936959e-04 
-1.042459381450e-03 3.192310209748e-05 0.0 
3.192310209748e-05 5.237687487302e-03 0.0 
0.0 0.0 -8.166178341775e-04 
-7.748148319910e-04 5.841265057534e-04 0.0 
5.841265057534e-04 5.931280080680e-03 0.0 
0.0 0.0 -1.008721701990e-03 
-1.070450976463e-03 4.786712554870e-05 0.0 
4.786712554870e-05 6.281594191104e-03 0.0 
0.0 0.0 -9.438854677472e-04 
-1.019990029507e-03 4.017679917675e-04 0.0 
4.017679917675e-04 5.968797618871e-03 0.0 
0.0 0.0 -9.108073647308e-04 
-7.821076712380e-04 7.813500369489e-04 0.0 
7.813500369489e-04 5.311710917371e-03 0.0 
0.0 0.0 -8.936906232635e-04 
-7.622603984916e-04 6.791341036292e-05 0.0 
6.791341036292e-05 3.813852506224e-03 0.0 
0.0 0.0 -5.884905393267e-04 
-7.846644250761e-04 7.808219167046e-05 0.0 
7.808219167046e-05 4.065403212213e-03 0.0 
0.0 0.0 -6.218825813656e-04 
-1.233191643352e-03 -4.261165376934e-04 0.0 
-4.261165376934e-04 7.382821542764e-03 0.0 
0.0 0.0 -1.133400347077e-03 
-7.515727621129e-04 -6.277168771854e-04 0.0 
-6.277168771854e-04 5.560136738189e-03 0.0 
0.0 0.0 -9.394087121358e-04 
-4.848945124793e-04 -6.056685510147e-04 0.0 
-6.056685510147e-04 4.517787566476e-03 0.0 
0.0 0.0 -8.164864906097e-04 
-7.633590365807e-04 1.747203192895e-05 0.0 
1.747203192895e-05 5.952051370355e-03 0.0 
0.0 0.0 -1.014986374720e-03 
-3.745762426959e-04 -1.208773656876e-05 0.0 
-1.208773656876e-05 4.169816033916e-03 0.0 
0.0 0.0 -7.915105747055e-04 
1.470981817100e-04 1.699633256222e-04 0.0 
1.699633256222e-04 1.922517798804e-03 0.0 
0.0 0.0 -5.119962057136e-04 
-7.251559287553e-04 3.584185138835e-04 0.0 
3.584185138835e-04 3.747261506519e-03 0.0 
0.0 0.0 -5.908395828668e-04 
-9.989176313813e-04 5.279041160422e-05 0.0 
5.279041160422e-05 5.610761613461e-03 0.0 
0.0 0.0 -8.442294783838e-04 
-8.140722277822e-04 1.153536144127e-05 0.0 
1.153536144127e-05 4.902728731460e-03 0.0 
0.0 0.0 -7.121995050294e-04 
-8.606102061483e-04 -1.123280902614e-04 0.0 
-1.123280902614e-04 6.585165240131e-03 0.0 
0.0 0.0 -1.093598669875e-03 
-3.829181500835e-04 3.755711815579e-04 0.0 
3.755711815579e-04 4.064228922124e-03 0.0 
0.0 0.0 -7.486350631496e-04 
-1.089919498544e-03 4.032533245885e-04 0.0 
4.032533245885e-04 7.584210826506e-03 0.0 
0.0 0.0 -1.233571955743e-03 
-1.258849103109e-03 1.203645015164e-04 0.0 
1.203645015164e-04 7.318640773608e-03 0.0 
0.0 0.0 -1.121177773779e-03 
-4.277541990728e-04 -3.591296022275e-04 0.0 
-3.591296022275e-04 4.511429067315e-03 0.0 
0.0 0.0 -8.252461108756e-04 
-1.288851597356e-03 -4.658297080141e-04 0.0 
-4.658297080141e-04 8.043612715449e-03 0.0 
0.0 0.0 -1.241472629463e-03 
3.242839641495e-05 -4.968694073408e-04 0.0 
-4.968694073408e-04 2.366486634827e-03 0.0 
0.0 0.0 -5.682622744621e-04 
-1.077966235092e-03 4.739436140623e-04 0.0 
4.739436140623e-04 7.389804662751e-03 0.0 
0.0 0.0 -1.204482468497e-03 
-7.429375265798e-04 4.078626067565e-04 0.0 
4.078626067565e-04 5.376339153074e-03 0.0 
0.0 0.0 -8.910665706739e-04 
-8.382327257171e-04 6.914183336446e-04 0.0 
6.914183336446e-04 5.885419181804e-03 0.0 
0.0 0.0 -9.848034212814e-04 
-9.867962554531e-04 -3.515709155634e-04 0.0 
-3.515709155634e-04 7.009894236266e-03 0.0 
0.0 0.0 -1.146785027167e-03 
-6.480751664788e-04 -1.064130565160e-03 0.0 
-1.064130565160e-03 3.485571623010e-03 0.0 
0.0 0.0 -5.958228065582e-04 
-9.264979844569e-04 7.226480241173e-04 0.0 
7.226480241173e-04 5.798649245259e-03 0.0 
0.0 0.0 -9.369464185080e-04 
-3.976862535672e-04 -5.140984221878e-04 0.0 
-5.140984221878e-04 4.248707874465e-03 0.0 
0.0 0.0 -7.886172400246e-04 
-9.126908566727e-04 3.597233129020e-04 0.0 
3.597233129020e-04 5.721921232905e-03 0.0 
0.0 0.0 -9.065670216064e-04 
-2.413614743732e-04 9.207248143764e-04 0.0 
9.207248143764e-04 2.576101931259e-03 0.0 
0.0 0.0 -5.268093404353e-04 
-8.396821970539e-04 6.672060837292e-04 0.0 
6.672060837292e-04 6.048287273264e-03 0.0 
0.0 0.0 -1.013229387512e-03 
-3.452329379355e-04 -1.792312499866e-04 0.0 
-1.792312499866e-04 3.927967745038e-03 0.0 
0.0 0.0 -7.548706880268e-04 
-9.599399109740e-04 -2.677314431030e-04 0.0 
-2.677314431030e-04 5.510906117541e-03 0.0 
0.0 0.0 -8.810281692460e-04 
-9.326422123301e-04 7.027170698306e-04 0.0 
7.027170698306e-04 5.663041666324e-03 0.0 
0.0 0.0 -9.091416541300e-04 
1.310354464969e-04 5.651438564875e-04 0.0 
5.651438564875e-04 1.741573510573e-04 0.0 
0.0 0.0 -1.307969132375e-04 
-6.049604556670e-04 5.771719455814e-04 0.0 
5.771719455814e-04 5.135535656328e-03 0.0 
0.0 0.0 -9.082496170556e-04 
-8.264119998562e-05 1.037717303205e-03 0.0 
1.037717303205e-03 8.249845298322e-04 0.0 
0.0 0.0 -3.181471413628e-04 
-3.486990110529e-04 1.618131580725e-05 0.0 
1.618131580725e-05 1.379681923450e-03 0.0 
0.0 0.0 -2.410360834028e-04 
-9.637368636999e-04 -2.534336696837e-04 0.0 
-2.534336696837e-04 5.310722216845e-03 0.0 
0.0 0.0 -8.438072171805e-04 
-1.086820871417e-03 2.926579608564e-04 0.0 
2.926579608564e-04 7.015412211803e-03 0.0 
0.0 0.0 -1.098354823938e-03 
-1.049951667635e-03 4.416530287396e-04 0.0 
4.416530287396e-04 6.131491265693e-03 0.0 
0.0 0.0 -9.387552692591e-04 
-7.056421761476e-04 1.432307568262e-04 0.0 
1.432307568262e-04 3.346065552913e-03 0.0 
0.0 0.0 -5.215302833573e-04 
-1.342322198460e-03 3.183613232645e-04 0.0 
3.183613232645e-04 8.773669276182e-03 0.0 
0.0 0.0 -1.342322198460e-03 
3.836307119602e-05 1.777435835148e-04 0.0 
1.777435835148e-04 5.796280456300e-05 0.0 
0.0 0.0 -4.128251818244e-05 
-7.274210317143e-04 1.629360554579e-04 0.0 
1.629360554579e-04 3.588533030425e-03 0.0 
0.0 0.0 -5.549805679787e-04 
-5.340066039334e-04 -2.072389055199e-04 0.0 
-2.072389055199e-04 4.712236291548e-03 0.0 
0.0 0.0 -8.472740691906e-04 
-9.827474692013e-04 -5.565690633406e-04 0.0 
-5.565690633406e-04 5.178751046310e-03 0.0 
0.0 0.0 -8.042584860449e-04 
-8.272148132873e-04 2.043748305373e-04 0.0 
2.043748305373e-04 4.358943672927e-03 0.0 
0.0 0.0 -6.733236465360e-04 
-1.391682779442e-04 -5.660980208305e-04 0.0 
-5.660980208305e-04 2.708178146588e-03 0.0 
0.0 0.0 -5.908717820549e-04 
-6.655440375533e-04 -6.952663529849e-04 0.0 
-6.952663529849e-04 5.066823485387e-03 0.0 
0.0 0.0 -8.733819075714e-04 
-8.196031050189e-04 3.838546333042e-04 0.0 
3.838546333042e-04 5.685766128825e-03 0.0 
0.0 0.0 -9.266779469803e-04 
-6.990167424859e-04 5.271708541357e-04 0.0 
5.271708541357e-04 5.638282256463e-03 0.0 
0.0 0.0 -9.734188451722e-04 
-1.186630910785e-03 6.460835059358e-04 0.0 
6.460835059358e-04 7.362442267771e-03 0.0 
0.0 0.0 -1.144302277022e-03 
2.969246869216e-04 1.115918954902e-03 0.0 
1.115918954902e-03 3.039667145196e-04 0.0 
0.0 0.0 -2.575248863319e-04 
-9.117889324076e-04 -2.951149434616e-04 0.0 
-2.951149434616e-04 4.877432515646e-03 0.0 
0.0 0.0 -7.784793977761e-04 
-1.012208946591e-03 -1.496092469439e-04 0.0 
-1.496092469439e-04 5.343186025449e-03 0.0 
0.0 0.0 -8.356154970834e-04 
-6.331046465697e-04 -9.049418944168e-04 0.0 
-9.049418944168e-04 2.758073297942e-03 0.0 
0.0 0.0 -4.544023106810e-04 
-8.924169308788e-04 4.058945008041e-04 0.0 
4.058945008041e-04 4.880366770900e-03 0.0 
0.0 0.0 -7.518103749233e-04 
-1.063894881261e-03 9.071629636426e-05 0.0 
9.071629636426e-05 6.191505659791e-03 0.0 
0.0 0.0 -9.362314798257e-04 
-1.205869425098e-03 -2.261798490425e-04 0.0 
-2.261798490425e-04 6.678201842620e-03 0.0 
0.0 0.0 -1.023451880212e-03 
-7.015472354662e-05 -2.565736168466e-05 0.0 
-2.565736168466e-05 9.612203433626e-04 0.0 
0.0 0.0 -1.605242656235e-04 
0.0 0.0 0.0 
0.0 0.0 0.0 
0.0 0.0 0.0 
-5.147384921578e-04 -7.536249502610e-04 0.0 
-7.536249502610e-04 1.966691460963e-03 0.0 
0.0 0.0 -3.233707900025e-04 
-1.027484224102e-03 -4.836123400480e-04 0.0 
-4.836123400480e-04 5.407088060702e-03 0.0 
0.0 0.0 -8.330087554115e-04 
-8.882847245791e-05 -4.537970764089e-04 0.0 
-4.537970764089e-04 2.924964268328e-03 0.0 
0.0 0.0 -6.322020076307e-04 
-9.059460685547e-05 -9.981933794838e-04 0.0 
-9.981933794838e-04 2.441338825064e-03 0.0 
0.0 0.0 -5.605319560360e-04 
1.602068840710e-04 -5.380164516261e-04 0.0 
-5.380164516261e-04 1.784200169895e-03 0.0 
0.0 0.0 -5.041580933422e-04 
-1.016808142495e-03 -1.850132427343e-04 0.0 
-1.850132427343e-04 5.546831112907e-03 0.0 
0.0 0.0 -8.721335634590e-04 
-1.089492890547e-03 5.256596706488e-04 0.0 
5.256596706488e-04 6.464473810732e-03 0.0 
0.0 0.0 -9.956198530692e-04 
-1.055480845035e-03 -8.073487003007e-05 0.0 
-8.073487003007e-05 5.564073531230e-03 0.0 
0.0 0.0 -8.643287579461e-04 
-7.969352206199e-05 1.392070136612e-04 0.0 
1.392070136612e-04 2.839214225501e-03 0.0 
0.0 0.0 -6.348607296063e-04 
-9.652452647080e-04 3.246353242036e-04 0.0 
3.246353242036e-04 6.148089658116e-03 0.0 
0.0 0.0 -9.699423737970e-04 
-9.336187348190e-04 2.571357999357e-04 0.0 
2.571357999357e-04 5.466318221896e-03 0.0 
0.0 0.0 -8.236220363599e-04 
-8.699149514131e-04 5.427467141130e-04 0.0 
5.427467141130e-04 6.422709640430e-03 0.0 
0.0 0.0 -1.076197569190e-03 
-1.067019444508e-03 -4.166446150284e-04 0.0 
-4.166446150284e-04 5.628158977285e-03 0.0 
0.0 0.0 -8.617642947636e-04 
-1.037211549759e-03 -5.241557810677e-04 0.0 
-5.241557810677e-04 5.613837274242e-03 0.0 
0.0 0.0 -8.694825820363e-04 
-6.540642588821e-04 2.339053685670e-04 0.0 
2.339053685670e-04 2.854376740045e-03 0.0 
0.0 0.0 -4.548485160793e-04 
-1.830897456311e-04 -6.409178638984e-04 0.0 
-6.409178638984e-04 3.204685697947e-03 0.0 
0.0 0.0 -6.598952468721e-04 
-1.092100602406e-03 -1.853786207342e-05 0.0 
-1.853786207342e-05 5.772593500168e-03 0.0 
0.0 0.0 -8.930692851043e-04 
-1.055598751707e-03 1.761127934755e-04 0.0 
1.761127934755e-04 6.440216787672e-03 0.0 
0.0 0.0 -9.615701295831e-04 
-1.001453888758e-03 1.848581000640e-04 0.0 
1.848581000640e-04 6.057549413992e-03 0.0 
0.0 0.0 -8.972249362023e-04 
-6.770179440789e-04 2.249366581215e-04 0.0 
2.249366581215e-04 3.121369932688e-03 0.0 
0.0 0.0 -4.879487645214e-04 
-1.064022376908e-03 -1.167841295241e-04 0.0 
-1.167841295241e-04 5.775583557860e-03 0.0 
0.0 0.0 -9.007118478549e-04 
-2.859853618183e-04 -1.273336407491e-03 0.0 
-1.273336407491e-03 2.641008784054e-03 0.0 
0.0 0.0 -5.517684601482e-04 
-1.131468898778e-04 1.392096794452e-03 0.0 
1.392096794452e-03 1.091258670637e-03 0.0 
0.0 0.0 -4.029896332773e-04 
-1.047918758114e-03 7.340593604256e-05 0.0 
7.340593604256e-05 7.456724692606e-03 0.0 
0.0 0.0 -1.202908440308e-03 
-5.627131210403e-04 -6.726340984242e-04 0.0 
-6.726340984242e-04 1.683903901649e-03 0.0 
0.0 0.0 -3.052185142707e-04 
-3.169146226738e-04 -8.080615281722e-04 0.0 
-8.080615281722e-04 2.922160059009e-03 0.0 
0.0 0.0 -5.822209219963e-04 
-5.594905133051e-04 2.180548040984e-04 0.0 
2.180548040984e-04 5.015163126878e-03 0.0 
0.0 0.0 -8.766521650092e-04 
-6.622241155769e-04 4.063560181712e-04 0.0 
4.063560181712e-04 3.270370974807e-03 0.0 
0.0 0.0 -5.239962781855e-04 
-1.100749507766e-03 -3.563808608849e-04 0.0 
-3.563808608849e-04 5.849825024464e-03 0.0 
0.0 0.0 -8.905656347129e-04 
-5.985345031535e-04 -2.223177207573e-04 0.0 
-2.223177207573e-04 2.732572505037e-03 0.0 
0.0 0.0 -4.282508963332e-04 
-9.076266712889e-04 3.184539997901e-05 0.0 
3.184539997901e-05 5.036430824459e-03 0.0 
0.0 0.0 -7.823486082854e-04 
-1.081370140730e-03 -4.558826803401e-04 0.0 
-4.558826803401e-04 5.841011814907e-03 0.0 
0.0 0.0 -8.981647654366e-04 
-4.858836919803e-04 -7.457674947231e-04 0.0 
-7.457674947231e-04 4.297440458521e-03 0.0 
0.0 0.0 -7.800125773855e-04 
-9.348538294518e-04 -6.697112536075e-04 0.0 
-6.697112536075e-04 5.140798604724e-03 0.0 
0.0 0.0 -8.126672281948e-04 
8.703935028516e-05 1.690415104804e-04 0.0 
1.690415104804e-04 1.245018223100e-05 0.0 
0.0 0.0 -4.263837107835e-05 
-1.241448931941e-03 -1.835319642593e-04 0.0 
-1.835319642593e-04 7.812891284508e-03 0.0 
0.0 0.0 -1.152567315725e-03 
-3.081364130084e-04 -9.550871966768e-04 0.0 
-9.550871966768e-04 3.298658843063e-03 0.0 
0.0 0.0 -6.514572604261e-04 
-9.718772757445e-04 1.979502564842e-04 0.0 
1.979502564842e-04 7.009305473662e-03 0.0 
0.0 0.0 -1.154039482800e-03 
-8.056057162638e-04 2.987492427290e-04 0.0 
2.987492427290e-04 5.959106481257e-03 0.0 
0.0 0.0 -9.821191134873e-04 
-1.105426206004e-03 -5.038601752530e-05 0.0 
-5.038601752530e-05 5.994681172748e-03 0.0 
0.0 0.0 -9.293965016571e-04 
-1.119004413752e-03 -3.820015781438e-04 0.0 
-3.820015781438e-04 6.058753668650e-03 0.0 
0.0 0.0 -9.268654845074e-04 
-3.123142997184e-05 -1.167065523526e-04 0.0 
-1.167065523526e-04 2.573595127563e-03 0.0 
0.0 0.0 -5.989583036242e-04 
-3.157644098559e-04 -6.245110788433e-04 0.0 
-6.245110788433e-04 1.110181514534e-03 0.0 
0.0 0.0 -2.862240160649e-04 
8.762727446402e-05 1.506685699699e-04 0.0 
1.506685699699e-04 5.297682451371e-06 0.0 
0.0 0.0 -3.982498153517e-05 
-1.139236581336e-03 9.449893671701e-06 0.0 
9.449893671701e-06 6.206332100994e-03 0.0 
0.0 0.0 -9.583065114985e-04 
-9.895576341864e-04 5.422021304530e-05 0.0 
5.422021304530e-05 6.999392542925e-03 0.0 
0.0 0.0 -1.148056181429e-03 
-4.775145294270e-04 -1.288589848279e-03 0.0 
-1.288589848279e-03 2.885723426917e-03 0.0 
0.0 0.0 -5.426247857783e-04 
-9.796725008080e-04 7.000708170444e-04 0.0 
7.000708170444e-04 6.228639819323e-03 0.0 
0.0 0.0 -1.000702849114e-03 
-6.472337897981e-04 7.799664963271e-04 0.0 
7.799664963271e-04 2.970737159620e-03 0.0 
0.0 0.0 -5.002094317253e-04 
-1.024167741003e-03 2.983156923563e-04 0.0 
2.983156923563e-04 6.439902929080e-03 0.0 
0.0 0.0 -1.005614027492e-03 
-1.230125729383e-03 -1.791987086205e-04 0.0 
-1.791987086205e-04 8.178224384408e-03 0.0 
0.0 0.0 -1.266534580134e-03 
0.0 0.0 0.0 
0.0 0.0 0.0 
0.0 0.0 0.0 
-1.341620833825e-03 -1.240232465015e-06 0.0 
-1.240232465015e-06 8.838044206909e-03 0.0 
0.0 0.0 -1.341620833825e-03 
-1.340051318819e-03 -7.855236063614e-05 0.0 
-7.855236063614e-05 8.625114056382e-03 0.0 
0.0 0.0 -1.340051318819e-03 
-8.980163173550e-04 -1.960905146637e-04 0.0 
-1.960905146637e-04 5.236321733421e-03 0.0 
0.0 0.0 -7.955197795907e-04 
-4.661383092836e-04 -1.098309243055e-03 0.0 
-1.098309243055e-03 3.461471777819e-03 0.0 
0.0 0.0 -6.428246066218e-04 
-8.082931774475e-04 3.508972968720e-04 0.0 
3.508972968720e-04 5.820381814417e-03 0.0 
0.0 0.0 -9.543595451430e-04 
-1.549769366623e-05 -2.109424872969e-04 0.0 
-2.109424872969e-04 2.675607327827e-03 0.0 
0.0 0.0 -6.041149214933e-04 
-2.283359273976e-04 -2.821495717667e-04 0.0 
-2.821495717667e-04 1.216165341166e-03 0.0 
0.0 0.0 -2.095884814006e-04 
5.244130076390e-06 5.299579131201e-04 0.0 
5.299579131201e-04 3.292147719476e-04 0.0 
0.0 0.0 -1.433395294388e-04 
-1.275023357737e-03 -5.993191991654e-05 0.0 
-5.993191991654e-05 8.163058981243e-03 0.0 
0.0 0.0 -1.209499414335e-03 
-1.082712059579e-03 1.205245821570e-04 0.0 
1.205245821570e-04 6.373245931173e-03 0.0 
0.0 0.0 -9.648175333861e-04 
-9.046820331639e-04 -1.080196974862e-06 0.0 
-1.080196974862e-06 4.867817697865e-03 0.0 
0.0 0.0 -7.224789237173e-04 
-1.279272833011e-03 4.773478504551e-04 0.0 
4.773478504551e-04 8.632757308161e-03 0.0 
0.0 0.0 -1.323661129950e-03 
-4.995343539176e-04 -2.062360200378e-04 0.0 
-2.062360200378e-04 2.288215934898e-03 0.0 
0.0 0.0 -3.615704333793e-04 
-1.305160647697e-03 4.322097678811e-04 0.0 
4.322097678811e-04 8.590809380930e-03 0.0 
0.0 0.0 -1.324908485340e-03 
-1.072336849723e-03 4.894356542548e-04 0.0 
4.894356542548e-04 6.310526310337e-03 0.0 
0.0 0.0 -9.670422101491e-04 
-6.106684104583e-04 -1.077307355153e-03 0.0 
-1.077307355153e-03 3.630162810958e-03 0.0 
0.0 0.0 -6.336394413500e-04 
-7.688592567693e-04 7.436159055388e-04 0.0 
7.436159055388e-04 5.436722305107e-03 0.0 
0.0 0.0 -9.212972352143e-04 
-4.366727405360e-04 -7.825680509829e-04 0.0 
-7.825680509829e-04 3.244703639757e-03 0.0 
0.0 0.0 -6.094834619596e-04 
-3.265911223950e-04 1.405912834574e-03 0.0 
1.405912834574e-03 1.452640584362e-03 0.0 
0.0 0.0 -3.649795199019e-04 
-4.990879049153e-04 -8.274194353689e-04 0.0 
-8.274194353689e-04 3.123468955199e-03 0.0 
0.0 0.0 -5.728018649490e-04 
-1.102176339442e-03 5.667634332671e-04 0.0 
5.667634332671e-04 6.620528006741e-03 0.0 
0.0 0.0 -1.023749757194e-03 
-1.274902778913e-03 -3.210380531188e-04 0.0 
-3.210380531188e-04 7.572738005346e-03 0.0 
0.0 0.0 -1.155390781228e-03 
-2.640863970045e-04 -6.506791704026e-04 0.0 
-6.506791704026e-04 3.044637194059e-03 0.0 
0.0 0.0 -6.181853003094e-04 
-1.037039327620e-03 6.760843031957e-04 0.0 
6.760843031957e-04 6.523249431128e-03 0.0 
0.0 0.0 -1.036271578259e-03 
0.0 0.0 0.0 
0.0 0.0 0.0 
0.0 0.0 0.0 
-1.285700230911e-04 -3.245101064007e-04 0.0 
-3.245101064007e-04 2.885767451406e-03 0.0 
0.0 0.0 -6.266282162577e-04 
-1.167206438241e-03 1.283137067331e-04 0.0 
1.283137067331e-04 7.080432372571e-03 0.0 
0.0 0.0 -1.066385360782e-03 
-6.379492421497e-04 -6.916022810517e-04 0.0 
-6.916022810517e-04 3.261870100237e-03 0.0 
0.0 0.0 -5.616069800515e-04 
-5.397721604140e-04 -1.270380268010e-03 0.0 
-1.270380268010e-03 2.784654802048e-03 0.0 
0.0 0.0 -5.052880831394e-04 
-7.290893412698e-04 3.613081104682e-04 0.0 
3.613081104682e-04 5.503308908361e-03 0.0 
0.0 0.0 -9.187611816440e-04 
1.265644672670e-04 -1.340381834312e-03 0.0 
-1.340381834312e-03 6.478378418571e-04 0.0 
0.0 0.0 -3.318867039103e-04 
-6.343393029067e-04 4.127806247347e-04 0.0 
4.127806247347e-04 2.352701282119e-03 0.0 
0.0 0.0 -3.867203691650e-04 
-5.980790938116e-04 3.108972139281e-04 0.0 
3.108972139281e-04 2.666414110552e-03 0.0 
0.0 0.0 -4.195921675762e-04 
-6.113097074720e-04 -7.505403763561e-04 0.0 
-7.505403763561e-04 2.857444945758e-03 0.0 
0.0 0.0 -4.973376392308e-04 
-5.765164058635e-04 -6.636526940974e-04 0.0 
-6.636526940974e-04 4.795423287764e-03 0.0 
0.0 0.0 -8.444178005646e-04 
-5.181015510014e-04 7.402765764373e-04 0.0 
7.402765764373e-04 4.473477357902e-03 0.0 
0.0 0.0 -8.147327860212e-04 
-1.021689517365e-03 3.040232263138e-04 0.0 
3.040232263138e-04 6.577677469830e-03 0.0 
0.0 0.0 -1.033897369924e-03 
-1.251489828841e-03 5.632464710330e-04 0.0 
5.632464710330e-04 7.903464121438e-03 0.0 
0.0 0.0 -1.224260864640e-03 
-6.076375545199e-04 4.683737268985e-04 0.0 
4.683737268985e-04 2.798103792701e-03 0.0 
0.0 0.0 -4.570814260163e-04 
-1.106194698900e-03 -2.340999049272e-04 0.0 
-2.340999049272e-04 6.875726326228e-03 0.0 
0.0 0.0 -1.028620860735e-03 
-1.222609548103e-03 6.000551956434e-04 0.0 
6.000551956434e-04 7.771092725331e-03 0.0 
0.0 0.0 -1.228414553209e-03 
4.319177178305e-05 1.565747196534e-04 0.0 
1.565747196534e-04 2.280131923741e-03 0.0 
0.0 0.0 -5.707601703556e-04 
-5.280303941059e-05 1.110289152965e-03 0.0 
1.110289152965e-03 8.099165551708e-04 0.0 
0.0 0.0 -3.244772210401e-04 
-6.896815476543e-04 4.595022377507e-04 0.0 
4.595022377507e-04 3.325524470954e-03 0.0 
0.0 0.0 -5.330167430730e-04 
-5.818026759286e-04 -7.746098819789e-04 0.0 
-7.746098819789e-04 4.581482398683e-03 0.0 
0.0 0.0 -8.082977034869e-04 
-1.084938189841e-03 6.476212573913e-04 0.0 
6.476212573913e-04 6.662130643566e-03 0.0 
0.0 0.0 -1.043024347135e-03 
-5.304647567233e-04 -3.288241115645e-04 0.0 
-3.288241115645e-04 4.511932891327e-03 0.0 
0.0 0.0 -8.108276944599e-04 
3.467916788336e-04 9.922084021829e-04 0.0 
9.922084021829e-04 1.937891863132e-04 0.0 
0.0 0.0 -2.316775136343e-04 
-6.676153210682e-04 -5.990024928293e-04 0.0 
-5.990024928293e-04 5.284713461811e-03 0.0 
0.0 0.0 -9.096068616062e-04 
-5.138764303910e-04 1.344859878066e-03 0.0 
1.344859878066e-03 1.832201827426e-03 0.0 
0.0 0.0 -3.508512830963e-04 
-4.693960867252e-04 2.899164946168e-04 0.0 
2.899164946168e-04 4.538651858574e-03 0.0 
0.0 0.0 -8.123573650817e-04 
-6.214317139949e-04 -2.381023826960e-04 0.0 
-2.381023826960e-04 5.000123203670e-03 0.0 
0.0 0.0 -8.756097305517e-04 
-7.629475729046e-04 6.967977887081e-04 0.0 
6.967977887081e-04 5.582110193462e-03 0.0 
0.0 0.0 -9.491391837787e-04 
-1.021932421091e-03 -1.375086625343e-04 0.0 
-1.375086625343e-04 6.258245616270e-03 0.0 
0.0 0.0 -9.494079867578e-04 
-6.355506189440e-04 -1.022411834394e-03 0.0 
-1.022411834394e-03 2.931807144820e-03 0.0 
0.0 0.0 -4.933620968966e-04 
6.896550266056e-05 1.225367383845e-03 0.0 
1.225367383845e-03 6.646895526308e-04 0.0 
0.0 0.0 -3.144235951249e-04 
-7.142483767440e-04 -1.644248298722e-04 0.0 
-1.644248298722e-04 5.495494976155e-03 0.0 
0.0 0.0 -9.415329344942e-04 
-5.361770105980e-04 1.152355576541e-03 0.0 
1.152355576541e-03 2.110820043480e-03 0.0 
0.0 0.0 -3.857152600925e-04 
0.0 0.0 0.0 
0.0 0.0 0.0 
0.0 0.0 0.0 
-1.255338616422e-03 1.860461172355e-04 0.0 
1.860461172355e-04 8.124850663151e-03 0.0 
0.0 0.0 -1.223389224544e-03 
-1.207848204117e-03 2.029693107177e-04 0.0 
2.029693107177e-04 7.752368092309e-03 0.0 
0.0 0.0 -1.157435638217e-03 
-8.808053059829e-05 -1.336699866714e-04 0.0 
-1.336699866714e-04 3.185750404010e-04 0.0 
0.0 0.0 -9.878336134402e-05 
-7.608266853487e-04 -5.406000089435e-04 0.0 
-5.406000089435e-04 5.776368912984e-03 0.0 
0.0 0.0 -9.758309632659e-04 
-5.833464932257e-04 -8.365325477788e-04 0.0 
-8.365325477788e-04 2.366888082298e-03 0.0 
0.0 0.0 -3.887237773309e-04 
-6.380037561636e-04 -4.574933655184e-04 0.0 
-4.574933655184e-04 2.507620922393e-03 0.0 
0.0 0.0 -4.195855280820e-04 
-1.094549564148e-03 6.711957006790e-04 0.0 
6.711957006790e-04 6.969957179569e-03 0.0 
0.0 0.0 -1.100737838324e-03 
-7.238835271569e-04 2.949238833770e-04 0.0 
2.949238833770e-04 5.642634368299e-03 0.0 
0.0 0.0 -9.467522836136e-04 
-1.039311302789e-03 6.802059572137e-04 0.0 
6.802059572137e-04 6.671189751840e-03 0.0 
0.0 0.0 -1.064854740548e-03 
-1.894001647684e-04 -8.697409082608e-04 0.0 
-8.697409082608e-04 2.974808611893e-03 0.0 
0.0 0.0 -6.238888496032e-04 
-8.115909482746e-04 3.390698231069e-05 0.0 
3.390698231069e-05 4.912143948729e-03 0.0 
0.0 0.0 -7.105917616147e-04 
-1.280305692054e-03 -3.247592506175e-04 0.0 
-3.247592506175e-04 7.975043847607e-03 0.0 
0.0 0.0 -1.281538364137e-03 
-5.868717402319e-04 -4.057488537009e-04 0.0 
-4.057488537009e-04 2.082970857728e-03 0.0 
0.0 0.0 -3.541816848729e-04 
-9.117200011925e-04 -1.598675323878e-04 0.0 
-1.598675323878e-04 6.764763677517e-03 0.0 
0.0 0.0 -1.121221582973e-03 
-5.590520355925e-04 3.309762878068e-04 0.0 
3.309762878068e-04 4.865889443216e-03 0.0 
0.0 0.0 -8.477100451819e-04 
-3.408380194667e-04 8.413428919704e-05 0.0 
8.413428919704e-05 1.600517951916e-03 0.0 
0.0 0.0 -2.892354545592e-04 
-1.075499676593e-03 6.132508001275e-04 0.0 
6.132508001275e-04 6.500844839128e-03 0.0 
0.0 0.0 -1.015166614560e-03 
-1.491725305372e-04 -7.955548992598e-05 0.0 
-7.955548992598e-05 3.115280814632e-03 0.0 
0.0 0.0 -6.628028861993e-04 
-1.315718485168e-04 -5.908276789213e-04 0.0 
-5.908276789213e-04 6.660589264853e-04 0.0 
0.0 0.0 -2.290658905579e-04 
-1.579860261374e-05 -4.063804822263e-04 0.0 
-4.063804822263e-04 2.360331977056e-03 0.0 
0.0 0.0 -5.632129589051e-04 
-1.187081976134e-03 1.736903763000e-04 0.0 
1.736903763000e-04 6.532498131095e-03 0.0 
0.0 0.0 -9.915417172310e-04 
-1.109173126604e-03 2.020871397918e-04 0.0 
2.020871397918e-04 6.702082758585e-03 0.0 
0.0 0.0 -1.020980360542e-03 
-4.812617878824e-04 -1.026396368797e-03 0.0 
-1.026396368797e-03 1.558368541222e-03 0.0 
0.0 0.0 -2.729600395538e-04 
-1.020281891755e-03 -1.851201749546e-04 0.0 
-1.851201749546e-04 5.386783464776e-03 0.0 
0.0 0.0 -8.076288038732e-04 
-1.089791995769e-03 6.678096790371e-04 0.0 
6.678096790371e-04 6.824575659747e-03 0.0 
0.0 0.0 -1.071782534217e-03 
-9.193547229402e-04 1.602334611530e-04 0.0 
1.602334611530e-04 6.776867929495e-03 0.0 
0.0 0.0 -1.109893377180e-03 
-5.608358153244e-04 -8.240965468318e-04 0.0 
-8.240965468318e-04 2.993251789866e-03 0.0 
0.0 0.0 -5.351738145117e-04 
-6.136579298705e-04 1.191680586993e-04 0.0 
1.191680586993e-04 2.664357051373e-03 0.0 
0.0 0.0 -4.333934152438e-04 
-5.989414354874e-04 6.742429676008e-04 0.0 
6.742429676008e-04 4.956197001293e-03 0.0 
0.0 0.0 -8.786267582723e-04 
-1.011039081455e-03 -2.136688597495e-04 0.0 
-2.136688597495e-04 6.164847278727e-03 0.0 
0.0 0.0 -9.278975173457e-04 
-2.430528072630e-05 -7.015609586409e-04 0.0 
-7.015609586409e-04 4.939718425864e-04 0.0 
0.0 0.0 -2.012856693686e-04 
-1.258632814515e-03 5.164131841311e-04 0.0 
5.164131841311e-04 8.325970250847e-03 0.0 
0.0 0.0 -1.269179263065e-03 
-1.319279019144e-03 4.296204971761e-04 0.0 
4.296204971761e-04 8.281943168671e-03 0.0 
0.0 0.0 -1.281197857596e-03 
-9.262453737932e-04 -1.856372937015e-04 0.0 
-1.856372937015e-04 5.467657039050e-03 0.0 
0.0 0.0 -8.387747867703e-04 
-1.294839307706e-03 7.871963389554e-06 0.0 
7.871963389554e-06 8.477109428305e-03 0.0 
0.0 0.0 -1.255037608383e-03 
-1.299621148244e-03 5.434080431767e-04 0.0 
5.434080431767e-04 8.249757004039e-03 0.0 
0.0 0.0 -1.285499913836e-03 
-2.377664936208e-04 -4.540001535470e-04 0.0 
-4.540001535470e-04 3.213325829595e-03 0.0 
0.0 0.0 -6.542748834104e-04 
-3.508305791302e-04 -1.119634461832e-03 0.0 
-1.119634461832e-03 3.128022697751e-03 0.0 
0.0 0.0 -6.153450468602e-04 
-1.170236808513e-03 2.917458807147e-05 0.0 
2.917458807147e-05 8.079333353292e-03 0.0 
0.0 0.0 -1.265535665854e-03 
0.0 0.0 0.0 
0.0 0.0 0.0 
0.0 0.0 0.0 
-5.539334103609e-04 1.733294296074e-04 0.0 
1.733294296074e-04 2.467698966066e-03 0.0 
0.0 0.0 -3.941707820484e-04 
-1.082833857300e-03 1.553689403231e-04 0.0 
1.553689403231e-04 5.370486721227e-03 0.0 
0.0 0.0 -8.329475646481e-04 
-6.135075657535e-04 -1.124689673499e-03 0.0 
-1.124689673499e-03 3.074168344220e-03 0.0 
0.0 0.0 -5.313546330462e-04 
-1.846585695015e-04 -7.875180783751e-04 0.0 
-7.875180783751e-04 2.568069228426e-03 0.0 
0.0 0.0 -5.546931404481e-04 
-5.968432958156e-04 5.557088425757e-04 0.0 
5.557088425757e-04 1.865682370622e-03 0.0 
0.0 0.0 -3.196518454468e-04 
-5.899426228830e-04 4.711635003752e-04 0.0 
4.711635003752e-04 2.207717411959e-03 0.0 
0.0 0.0 -3.528063275151e-04 
-9.460265979009e-04 -8.557345978762e-05 0.0 
-8.557345978762e-05 5.600872725538e-03 0.0 
0.0 0.0 -8.290026594306e-04 
-7.188891017227e-05 -7.212145557604e-04 0.0 
-7.212145557604e-04 2.661537409605e-03 0.0 
0.0 0.0 -5.962921515785e-04 
-6.690915239770e-04 -9.469087844435e-06 0.0 
-9.469087844435e-06 2.860475934858e-03 0.0 
0.0 0.0 -4.583473518421e-04 
-9.261983765854e-04 6.205491161324e-04 0.0 
6.205491161324e-04 6.527766796007e-03 0.0 
0.0 0.0 -1.077832113627e-03 
-1.322048612324e-03 -3.324926188937e-04 0.0 
-3.324926188937e-04 8.713395146875e-03 0.0 
0.0 0.0 -1.324978758543e-03 
-1.338720177887e-03 -4.085669882089e-04 0.0 
-4.085669882089e-04 8.670321911685e-03 0.0 
0.0 0.0 -1.320624918399e-03 
-3.849795069765e-04 -6.739500110508e-04 0.0 
-6.739500110508e-04 3.380834248484e-03 0.0 
0.0 0.0 -6.457427040837e-04 
-9.004898588244e-04 1.911488629734e-04 0.0 
1.911488629734e-04 5.018763151201e-03 0.0 
0.0 0.0 -7.877541558771e-04 
0.0 0.0 0.0 
0.0 0.0 0.0 
0.0 0.0 0.0 
-4.359472798887e-04 6.731301800727e-04 0.0 
6.731301800727e-04 1.407239997486e-03 0.0 
0.0 0.0 -3.106513839132e-04 
2.755733972267e-04 -1.401203893809e-03 0.0 
-1.401203893809e-03 4.875020493235e-04 0.0 
0.0 0.0 -3.270323342358e-04 
-5.716509711487e-04 6.241427470327e-04 0.0 
6.241427470327e-04 1.685665452150e-03 0.0 
0.0 0.0 -2.953478464511e-04 
-6.435501651802e-04 2.617971966709e-04 0.0 
2.617971966709e-04 5.324938194352e-03 0.0 
0.0 0.0 -9.116044729693e-04 
-3.892042169670e-04 -9.156083068677e-04 0.0 
-9.156083068677e-04 2.815259890772e-03 0.0 
0.0 0.0 -5.459662534218e-04 
-2.243152923797e-04 -1.093841073510e-03 0.0 
-1.093841073510e-03 2.791137140625e-03 0.0 
0.0 0.0 -5.879858557453e-04 
2.757241657395e-04 -4.810032012259e-04 0.0 
-4.810032012259e-04 1.809007699404e-05 0.0 
0.0 0.0 -1.259203897429e-04 
-1.236651515782e-03 5.783317831820e-05 0.0 
5.783317831820e-05 7.720546241133e-03 0.0 
0.0 0.0 -1.176327079312e-03 
-4.101458141136e-04 -1.240391896891e-03 0.0 
-1.240391896891e-03 2.995120791313e-03 0.0 
0.0 0.0 -5.792774345575e-04 
-1.250725797448e-03 2.916941522596e-04 0.0 
2.916941522596e-04 8.087181627586e-03 0.0 
0.0 0.0 -1.212957849656e-03 
-1.169197980018e-03 -1.036807665068e-04 0.0 
-1.036807665068e-04 7.436974066249e-03 0.0 
0.0 0.0 -1.117460450001e-03 
-1.345176874521e-03 9.425392127595e-05 0.0 
9.425392127595e-05 9.101263988686e-03 0.0 
0.0 0.0 -1.319418651152e-03 
-1.362446196828e-03 -6.566602865703e-05 0.0 
-6.566602865703e-05 8.851718670119e-03 0.0 
0.0 0.0 -1.324849633189e-03 
-9.396876737499e-04 1.580696553299e-04 0.0 
1.580696553299e-04 5.609093298548e-03 0.0 
0.0 0.0 -8.315138651140e-04 
-5.177493296675e-04 -1.164892507562e-03 0.0 
-1.164892507562e-03 3.321630420665e-03 0.0 
0.0 0.0 -6.063493599946e-04 
-5.551169256275e-04 5.845973941815e-04 0.0 
5.845973941815e-04 2.336169535734e-03 0.0 
0.0 0.0 -3.884917441798e-04 
-5.432002518243e-04 -7.156839301842e-04 0.0 
-7.156839301842e-04 3.555258553905e-03 0.0 
0.0 0.0 -6.367902913543e-04 
-1.343328350294e-03 -3.038078432126e-04 0.0 
-3.038078432126e-04 8.521823212692e-03 0.0 
0.0 0.0 -1.343328350294e-03 
-1.737665181201e-04 6.795203959292e-04 0.0 
6.795203959292e-04 8.236163112489e-04 0.0 
0.0 0.0 -2.785070541980e-04 
-2.927518060600e-04 7.425303816206e-04 0.0 
7.425303816206e-04 1.136932491594e-03 0.0 
0.0 0.0 -3.329621070679e-04 
-9.737974110450e-04 -6.386389399083e-05 0.0 
-6.386389399083e-05 7.060307194164e-03 0.0 
0.0 0.0 -1.156027955174e-03 
-8.805235058694e-04 6.847913926848e-05 0.0 
6.847913926848e-05 5.301659598337e-03 0.0 
0.0 0.0 -7.715229432315e-04 
-1.258879221168e-03 2.678324544629e-04 0.0 
2.678324544629e-04 8.150871359494e-03 0.0 
0.0 0.0 -1.219279742240e-03 
-1.080906081071e-03 2.827660258438e-04 0.0 
2.827660258438e-04 6.867060617251e-03 0.0 
0.0 0.0 -1.069611963270e-03 
-1.039924564934e-03 5.350617449269e-04 0.0 
5.350617449269e-04 7.190727662860e-03 0.0 
0.0 0.0 -1.175036385391e-03 
-1.173553033698e-03 2.219944962555e-04 0.0 
2.219944962555e-04 7.297927893888e-03 0.0 
0.0 0.0 -1.113576918908e-03 
-9.402009665324e-04 2.044311077690e-04 0.0 
2.044311077690e-04 5.536177417769e-03 0.0 
0.0 0.0 -8.542750875040e-04 
-5.858259911149e-04 -1.171742995146e-03 0.0 
-1.171742995146e-03 2.676462786012e-03 0.0 
0.0 0.0 -4.674384380614e-04 
-5.422750806607e-04 -8.975033256362e-04 0.0 
-8.975033256362e-04 2.600446559473e-03 0.0 
0.0 0.0 -4.715697005044e-04 
-1.061085808578e-03 2.019693127978e-04 0.0 
2.019693127978e-04 6.591258911724e-03 0.0 
0.0 0.0 -9.963059934037e-04 
-9.926320276344e-04 1.396335034036e-04 0.0 
1.396335034036e-04 7.047433757094e-03 0.0 
0.0 0.0 -1.142506377625e-03 
-8.640826483478e-04 1.602683523403e-04 0.0 
1.602683523403e-04 4.592644147598e-03 0.0 
0.0 0.0 -7.345222264051e-04 
-8.659076808803e-04 1.600457319012e-05 0.0 
1.600457319012e-05 5.296211653200e-03 0.0 
0.0 0.0 -7.676068998053e-04 
-9.151607957151e-04 -5.089667725815e-05 0.0 
-5.089667725815e-05 5.629549572959e-03 0.0 
0.0 0.0 -8.242303029217e-04 
-9.674728246486e-04 -2.123760912739e-04 0.0 
-2.123760912739e-04 5.717004610309e-03 0.0 
0.0 0.0 -8.467401457521e-04 
3.499479768906e-04 -3.973954247046e-04 0.0 
-3.973954247046e-04 -4.658979670494e-05 0.0 
0.0 0.0 -1.300106486510e-04 
-5.930015542773e-04 -7.839114719970e-04 0.0 
-7.839114719970e-04 2.465147057737e-03 0.0 
0.0 0.0 -4.335179088089e-04 
-1.317738620986e-03 2.278366908206e-04 0.0 
2.278366908206e-04 8.695066743648e-03 0.0 
0.0 0.0 -1.269310366786e-03 
-1.008653577782e-03 -1.784318379198e-04 0.0 
-1.784318379198e-04 6.114212471042e-03 0.0 
0.0 0.0 -9.150577043801e-04 
-1.235075525051e-03 3.722470533434e-04 0.0 
3.722470533434e-04 8.051470811527e-03 0.0 
0.0 0.0 -1.295322057178e-03 
-1.262105533747e-03 2.927877395666e-04 0.0 
2.927877395666e-04 8.092325804024e-03 0.0 
0.0 0.0 -1.215577547940e-03 
-1.074267791218e-03 2.611694470269e-04 0.0 
2.611694470269e-04 6.569995446378e-03 0.0 
0.0 0.0 -1.012565562176e-03 
-1.287214307820e-03 9.354055678567e-05 0.0 
9.354055678567e-05 8.149418825250e-03 0.0 
0.0 0.0 -1.214907066889e-03 
-8.465721316982e-04 -1.105505135888e-04 0.0 
-1.105505135888e-04 3.950044235392e-03 0.0 
0.0 0.0 -6.304496659280e-04 
-8.228220456719e-04 -1.151102242294e-04 0.0 
-1.151102242294e-04 3.762441621980e-03 0.0 
0.0 0.0 -5.666856080635e-04 
-1.213791714024e-03 -1.499272758312e-04 0.0 
-1.499272758312e-04 7.648587280659e-03 0.0 
0.0 0.0 -1.226851238141e-03 
0.0 0.0 0.0 
0.0 0.0 0.0 
0.0 0.0 0.0 
-5.508530862850e-04 -1.035100482519e-04 0.0 
-1.035100482519e-04 2.701800587875e-03 0.0 
0.0 0.0 -4.071640756073e-04 
-1.342405754833e-03 4.276126013738e-04 0.0 
4.276126013738e-04 8.356626582993e-03 0.0 
0.0 0.0 -1.342405754833e-03 
-2.369285988354e-04 -1.770299306038e-04 0.0 
-1.770299306038e-04 1.161644229230e-03 0.0 
0.0 0.0 -2.265802816212e-04 
-8.772316900263e-04 3.022985570029e-05 0.0 
3.022985570029e-05 5.030285682320e-03 0.0 
0.0 0.0 -7.870118106326e-04 
-1.087488399424e-03 -9.544139039346e-05 0.0 
-9.544139039346e-05 7.678102904648e-03 0.0 
0.0 0.0 -1.213461936786e-03 
-2.217204533164e-04 -1.125363679953e-04 0.0 
-1.125363679953e-04 8.293133150009e-04 0.0 
0.0 0.0 -1.562362318669e-04 
1.575931452750e-04 -1.091415967636e-04 0.0 
-1.091415967636e-04 4.514811203493e-04 0.0 
0.0 0.0 -1.320567747312e-04 
-1.342371808075e-03 1.025686952786e-04 0.0 
1.025686952786e-04 9.039344740884e-03 0.0 
0.0 0.0 -1.324389858384e-03 
-8.327656305072e-04 1.141712868856e-04 0.0 
1.141712868856e-04 4.641243707897e-03 0.0 
0.0 0.0 -7.294542769151e-04 
-1.288909957265e-03 4.016661537540e-04 0.0 
4.016661537540e-04 8.513544320093e-03 0.0 
0.0 0.0 -1.261418349269e-03 
-1.134288891980e-03 5.741233190870e-05 0.0 
5.741233190870e-05 7.407101021319e-03 0.0 
0.0 0.0 -1.231858344535e-03 
-8.347679035328e-04 -3.570531223968e-05 0.0 
-3.570531223968e-05 4.629434413509e-03 0.0 
0.0 0.0 -7.289279708929e-04 
0.0 0.0 0.0 
0.0 0.0 0.0 
0.0 0.0 0.0 
-1.305379233758e-03 -6.071779487898e-05 0.0 
-6.071779487898e-05 8.461113597457e-03 0.0 
0.0 0.0 -1.284140717546e-03 
-3.100289480378e-04 -3.270232557407e-04 0.0 
-3.270232557407e-04 1.355870936008e-03 0.0 
0.0 0.0 -2.433545560381e-04 
-1.282233343865e-03 2.781824875359e-04 0.0 
2.781824875359e-04 8.180219452641e-03 0.0 
0.0 0.0 -1.232184317627e-03 
-1.343095105526e-03 -2.432827260553e-04 0.0 
-2.432827260553e-04 8.545412507579e-03 0.0 
0.0 0.0 -1.343095105526e-03 
-1.292199045367e-03 2.524866178233e-04 0.0 
2.524866178233e-04 8.014541847179e-03 0.0 
0.0 0.0 -1.225700354592e-03 
4.686342162084e-04 -7.265370554805e-04 0.0 
-7.265370554805e-04 5.162950173444e-06 0.0 
0.0 0.0 -2.030559284494e-04 
-9.540260339352e-04 1.631930893359e-04 0.0 
1.631930893359e-04 5.653552826698e-03 0.0 
0.0 0.0 -8.279144014868e-04 
-8.950557039055e-04 -2.748800359507e-04 0.0 
-2.748800359507e-04 4.199615522516e-03 0.0 
0.0 0.0 -6.271989868224e-04 
-8.983235361331e-04 1.933150702716e-04 0.0 
1.933150702716e-04 6.546966492063e-03 0.0 
0.0 0.0 -1.077599360682e-03 
-1.273669225217e-03 1.720409005563e-04 0.0 
1.720409005563e-04 8.518730660981e-03 0.0 
0.0 0.0 -1.326997735404e-03 
-1.142899871982e-03 1.477724546960e-04 0.0 
1.477724546960e-04 7.166026161736e-03 0.0 
0.0 0.0 -1.061614915164e-03 
-1.285004601792e-03 2.929428446180e-04 0.0 
2.929428446180e-04 8.490810498827e-03 0.0 
0.0 0.0 -1.325870641008e-03 
0.0 0.0 0.0 
0.0 0.0 0.0 
0.0 0.0 0.0 
-1.297780734717e-03 -4.166830862430e-04 0.0 
-4.166830862430e-04 8.366714279713e-03 0.0 
0.0 0.0 -1.277656510522e-03 
2.368160629241e-04 -1.409681499125e-03 0.0 
-1.409681499125e-03 7.013780298968e-04 0.0 
0.0 0.0 -3.431348957073e-04 
-2.589194545670e-04 3.821483992917e-05 0.0 
3.821483992917e-05 1.124631262589e-03 0.0 
0.0 0.0 -2.298118214877e-04 
-1.194197405020e-03 -2.475227437211e-04 0.0 
-2.475227437211e-04 8.105636908585e-03 0.0 
0.0 0.0 -1.270335377537e-03 
-1.315524425911e-03 2.690035540339e-04 0.0 
2.690035540339e-04 8.643806800304e-03 0.0 
0.0 0.0 -1.270603359501e-03 
-1.320702306464e-03 4.960564232440e-05 0.0 
4.960564232440e-05 8.625092567998e-03 0.0 
0.0 0.0 -1.289850838753e-03 
-8.753308640926e-04 2.257063470840e-04 0.0 
2.257063470840e-04 5.095730312348e-03 0.0 
0.0 0.0 -7.762633204683e-04 
-9.835570351374e-04 3.967893708127e-04 0.0 
3.967893708127e-04 5.483942639045e-03 0.0 
0.0 0.0 -8.489529362435e-04 
-3.868195665133e-04 1.249245404028e-03 0.0 
1.249245404028e-03 1.493087960549e-03 0.0 
0.0 0.0 -3.390228113434e-04 
-1.290611125717e-03 4.069284773612e-04 0.0 
4.069284773612e-04 8.488337706707e-03 0.0 
0.0 0.0 -1.273041473476e-03 
-7.431920671866e-04 3.360733235591e-05 0.0 
3.360733235591e-05 3.408921231342e-03 0.0 
0.0 0.0 -5.357483711987e-04 
2.011032744506e-04 7.720499985605e-04 0.0 
7.720499985605e-04 2.146802318038e-04 0.0 
0.0 0.0 -1.781929312519e-04 
-9.370458151346e-04 5.508245939114e-04 0.0 
5.508245939114e-04 6.747683680752e-03 0.0 
0.0 0.0 -1.110141529071e-03 
-8.032989009541e-04 -1.045980115988e-05 0.0 
-1.045980115988e-05 4.870464455063e-03 0.0 
0.0 0.0 -7.096328662732e-04 
-1.279256756890e-03 4.600607687250e-04 0.0 
4.600607687250e-04 8.175326591168e-03 0.0 
0.0 0.0 -1.237729719596e-03 
-1.329072194852e-03 -1.834247142824e-04 0.0 
-1.834247142824e-04 8.977472730193e-03 0.0 
0.0 0.0 -1.321509982054e-03 
-1.343732204276e-03 7.562212797617e-06 0.0 
7.562212797617e-06 8.849786333364e-03 0.0 
0.0 0.0 -1.343732204276e-03 
6.465688167897e-04 1.663781779480e-05 0.0 
1.663781779480e-05 -3.978289505741e-05 0.0 
0.0 0.0 -8.420285294201e-05 
3.868700612373e-04 3.921670605925e-05 0.0 
3.921670605925e-05 -6.204561696291e-05 0.0 
0.0 0.0 -1.378576441850e-04 
-8.247124983758e-04 -1.687178518224e-04 0.0 
-1.687178518224e-04 4.737962601015e-03 0.0 
0.0 0.0 -7.318233512793e-04 
-8.319071836255e-04 2.758419797137e-05 0.0 
2.758419797137e-05 4.882188569804e-03 0.0 
0.0 0.0 -7.096011290571e-04 
-1.343732204276e-03 -2.755821224564e-05 0.0 
-2.755821224564e-05 8.606219025581e-03 0.0 
0.0 0.0 -1.343732204276e-03 
-1.349068194300e-03 1.748780922349e-04 0.0 
1.748780922349e-04 8.742452044457e-03 0.0 
0.0 0.0 -1.321509982054e-03 
2.267983165528e-04 1.503551410355e-04 0.0 
1.503551410355e-04 3.801820683437e-04 0.0 
0.0 0.0 -1.379425883790e-04 
0.0 0.0 0.0 
0.0 0.0 0.0 
0.0 0.0 0.0 
-1.304839210467e-03 -7.091443056662e-05 0.0 
-7.091443056662e-05 7.889011230752e-03 0.0 
0.0 0.0 -1.230181737024e-03 
-1.133789878205e-03 6.963372694564e-04 0.0 
6.963372694564e-04 7.661762773916e-03 0.0 
0.0 0.0 -1.209364118140e-03 
-3.105423637276e-04 -2.525564358258e-04 0.0 
-2.525564358258e-04 1.694140784916e-03 0.0 
0.0 0.0 -2.712674790923e-04 
-1.264304018708e-03 -4.229761773583e-04 0.0 
-4.229761773583e-04 7.912894217144e-03 0.0 
0.0 0.0 -1.240191881334e-03 
-1.104648569634e-03 -8.128511201330e-05 0.0 
-8.128511201330e-05 5.687324916732e-03 0.0 
0.0 0.0 -8.888375990210e-04 
-1.026907705388e-03 -2.214158958103e-04 0.0 
-2.214158958103e-04 5.060294452777e-03 0.0 
0.0 0.0 -7.610796297342e-04 
-1.050200639505e-03 1.276309243533e-04 0.0 
1.276309243533e-04 6.471471583772e-03 0.0 
0.0 0.0 -9.400782610458e-04 
-2.965318753647e-05 -1.331164902240e-03 0.0 
-1.331164902240e-03 9.056852696167e-04 0.0 
0.0 0.0 -3.754423208915e-04 
-8.088866268099e-04 2.301224893319e-04 0.0 
2.301224893319e-04 6.098327421906e-03 0.0 
0.0 0.0 -1.011657465016e-03 
-2.272445053013e-04 -9.535102935050e-05 0.0 
-9.535102935050e-05 1.388764162386e-03 0.0 
0.0 0.0 -2.181484037039e-04 
-9.136007493904e-04 -3.789003197154e-04 0.0 
-3.789003197154e-04 4.494388172482e-03 0.0 
0.0 0.0 -6.997415131527e-04 
-1.249092671204e-03 5.668738205519e-04 0.0 
5.668738205519e-04 7.979681115669e-03 0.0 
0.0 0.0 -1.240519096027e-03 
-1.238391952882e-03 -2.103174549131e-04 0.0 
-2.103174549131e-04 8.038627661496e-03 0.0 
0.0 0.0 -1.191726112421e-03 
-9.811853638777e-04 4.571159586099e-05 0.0 
4.571159586099e-05 4.872542694396e-03 0.0 
0.0 0.0 -7.690942022927e-04 
-9.767560317632e-04 -1.705867274286e-04 0.0 
-1.705867274286e-04 5.944945665690e-03 0.0 
0.0 0.0 -8.745659502648e-04 
-1.201104368766e-03 5.803220864547e-04 0.0 
5.803220864547e-04 7.939240582663e-03 0.0 
0.0 0.0 -1.217119345309e-03 
-1.179845702415e-03 2.452002266232e-04 0.0 
2.452002266232e-04 7.438662012216e-03 0.0 
0.0 0.0 -1.140944809983e-03 
-1.127959464392e-03 2.474309966313e-04 0.0 
2.474309966313e-04 7.001139959042e-03 0.0 
0.0 0.0 -1.076426999079e-03 
-8.393109454079e-04 2.446878724435e-05 0.0 
2.446878724435e-05 4.620539471492e-03 0.0 
0.0 0.0 -7.312123441678e-04 
-7.325714353874e-04 1.943037271299e-04 0.0 
1.943037271299e-04 5.805049329063e-03 0.0 
0.0 0.0 -9.763781674015e-04 
-1.278424948200e-03 4.732838707970e-04 0.0 
4.732838707970e-04 8.049805466019e-03 0.0 
0.0 0.0 -1.231404929774e-03 
-6.063671140810e-04 1.348850002822e-06 0.0 
1.348850002822e-06 2.558361798436e-03 0.0 
0.0 0.0 -4.167967844001e-04 
-7.171547725390e-05 -2.177777186911e-04 0.0 
-2.177777186911e-04 5.764019490181e-04 0.0 
0.0 0.0 -1.015157820784e-04 
-1.170824655935e-03 3.363594053323e-04 0.0 
3.363594053323e-04 7.539332247117e-03 0.0 
0.0 0.0 -1.185975225609e-03 
-9.133715629689e-04 2.312110862865e-04 0.0 
2.312110862865e-04 6.719277881344e-03 0.0 
0.0 0.0 -1.123538223191e-03 
1.132049243546e-04 -1.050372997865e-03 0.0 
-1.050372997865e-03 4.871548077874e-04 0.0 
0.0 0.0 -2.572970280609e-04 
-1.081558890546e-03 -1.399243451463e-04 0.0 
-1.399243451463e-04 6.772240372319e-03 0.0 
0.0 0.0 -9.893338170986e-04 
-1.329126769976e-03 -2.338155039388e-04 0.0 
-2.338155039388e-04 8.188960966632e-03 0.0 
0.0 0.0 -1.282739585886e-03 
-1.129882241773e-03 5.744296922873e-04 0.0 
5.744296922873e-04 7.355375345581e-03 0.0 
0.0 0.0 -1.182073443778e-03 
-1.178192896547e-03 4.553534655183e-04 0.0 
4.553534655183e-04 7.891430484162e-03 0.0 
0.0 0.0 -1.215129606110e-03 
-1.157436434489e-03 -2.420799146488e-04 0.0 
-2.420799146488e-04 6.201441230335e-03 0.0 
0.0 0.0 -9.537126495859e-04 
0.0 0.0 0.0 
0.0 0.0 0.0 
0.0 0.0 0.0 
-5.231800249051e-04 6.591753538455e-04 0.0 
6.591753538455e-04 1.847843507099e-03 0.0 
0.0 0.0 -3.212443691966e-04 
-5.564787132596e-04 8.940027195274e-04 0.0 
8.940027195274e-04 2.137708509351e-03 0.0 
0.0 0.0 -3.834349432650e-04 
-9.473774776597e-04 1.764703939582e-04 0.0 
1.764703939582e-04 5.384019631323e-03 0.0 
0.0 0.0 -8.471429939415e-04 
-7.614839710960e-04 6.584444641784e-04 0.0 
6.584444641784e-04 5.752238999582e-03 0.0 
0.0 0.0 -9.781602908260e-04 
-1.285624241878e-03 -4.326792981855e-05 0.0 
-4.326792981855e-05 8.288168648148e-03 0.0 
0.0 0.0 -1.236541257690e-03 
-1.217308294029e-03 1.640866066604e-04 0.0 
1.640866066604e-04 7.793774931469e-03 0.0 
0.0 0.0 -1.282325209426e-03 
-8.954075940437e-05 -8.680076304404e-04 0.0 
-8.680076304404e-04 7.337139848585e-04 0.0 
0.0 0.0 -2.760742394804e-04 
-3.009716750380e-04 -4.715458723185e-04 0.0 
-4.715458723185e-04 9.308600569539e-04 0.0 
0.0 0.0 -1.704796444516e-04 
-4.318023328758e-04 9.056222759074e-04 0.0 
9.056222759074e-04 1.421929475039e-03 0.0 
0.0 0.0 -2.747970858071e-04 
-1.085049996288e-03 3.161557202625e-04 0.0 
3.161557202625e-04 6.749947888276e-03 0.0 
0.0 0.0 -1.019242131223e-03 
-7.105673598930e-04 -3.560858813606e-04 0.0 
-3.560858813606e-04 3.243394900527e-03 0.0 
0.0 0.0 -4.953283059016e-04 
-1.294058250345e-03 1.194991635526e-04 0.0 
1.194991635526e-04 8.278027413572e-03 0.0 
0.0 0.0 -1.241298427557e-03 
-2.801916649698e-04 -2.169380665087e-04 0.0 
-2.169380665087e-04 1.598671665653e-03 0.0 
0.0 0.0 -2.623907620756e-04 
-1.097220766083e-03 2.014729423047e-04 0.0 
2.014729423047e-04 7.397517373048e-03 0.0 
0.0 0.0 -1.221152601860e-03 
-9.286181991470e-04 2.455314232276e-04 0.0 
2.455314232276e-04 5.488935049062e-03 0.0 
0.0 0.0 -8.343732341398e-04 
-1.223283272536e-03 3.593359299497e-04 0.0 
3.593359299497e-04 7.932879470025e-03 0.0 
0.0 0.0 -1.286815605725e-03 
-9.712654839318e-04 1.866157351704e-04 0.0 
1.866157351704e-04 6.891208363551e-03 0.0 
0.0 0.0 -1.111121968474e-03 
-9.581999826764e-04 8.182036761545e-05 0.0 
8.182036761545e-05 5.388937206970e-03 0.0 
0.0 0.0 -8.465141837044e-04 
-1.209961591988e-03 -2.976225161964e-04 0.0 
-2.976225161964e-04 8.170684166123e-03 0.0 
0.0 0.0 -1.269142588751e-03 
-1.323046623582e-03 3.793136222843e-04 0.0 
3.793136222843e-04 8.658663539059e-03 0.0 
0.0 0.0 -1.272727265576e-03 
-1.289749640490e-03 9.124365830308e-05 0.0 
9.124365830308e-05 8.709454540694e-03 0.0 
0.0 0.0 -1.271339345674e-03 
-1.626085801218e-04 8.571684415748e-04 0.0 
8.571684415748e-04 8.875192706734e-04 0.0 
0.0 0.0 -3.044868356389e-04 
-1.267095409920e-03 4.070899744542e-04 0.0 
4.070899744542e-04 8.089876134210e-03 0.0 
0.0 0.0 -1.218309553141e-03 
-1.282164121305e-03 5.174305312528e-04 0.0 
5.174305312528e-04 8.083053308233e-03 0.0 
0.0 0.0 -1.286645293131e-03 
-1.059215435768e-03 -2.009543418022e-05 0.0 
-2.009543418022e-05 7.573607372665e-03 0.0 
0.0 0.0 -1.211735819529e-03 
-9.987418032593e-04 6.142229130813e-04 0.0 
6.142229130813e-04 6.982246170552e-03 0.0 
0.0 0.0 -1.143254064081e-03 
-1.342665167303e-03 -2.857461739196e-04 0.0 
-2.857461739196e-04 8.440143907241e-03 0.0 
0.0 0.0 -1.342665167303e-03 
-1.126760089934e-03 6.437426727216e-04 0.0 
6.437426727216e-04 6.937086787485e-03 0.0 
0.0 0.0 -1.079065255302e-03 
0.0 0.0 0.0 
0.0 0.0 0.0 
0.0 0.0 0.0 
6.191816026709e-05 1.291205818517e-03 0.0 
1.291205818517e-03 7.179353342320e-04 0.0 
0.0 0.0 -3.342229262139e-04 
-1.235056862706e-03 2.777301788060e-04 0.0 
2.777301788060e-04 7.736779237008e-03 0.0 
0.0 0.0 -1.176936364471e-03 
-9.923017078165e-04 3.078956919309e-04 0.0 
3.078956919309e-04 5.849121224287e-03 0.0 
0.0 0.0 -8.884613587993e-04 
-1.298948170332e-03 -3.124306146209e-04 0.0 
-3.124306146209e-04 7.977511740223e-03 0.0 
0.0 0.0 -1.221994126432e-03 
-1.061095181676e-03 1.799058826279e-04 0.0 
1.799058826279e-04 7.334426391334e-03 0.0 
0.0 0.0 -1.177009544428e-03 
-1.289141827740e-03 -3.383964038360e-04 0.0 
-3.383964038360e-04 8.125835853115e-03 0.0 
0.0 0.0 -1.292249833993e-03 
-1.132172011691e-03 2.813138638496e-04 0.0 
2.813138638496e-04 7.272270790879e-03 0.0 
0.0 0.0 -1.085521458831e-03 
-1.247617681667e-03 2.986308671608e-04 0.0 
2.986308671608e-04 7.907076372021e-03 0.0 
0.0 0.0 -1.288973456333e-03 
-1.183175849056e-03 -4.290305750124e-04 0.0 
-4.290305750124e-04 7.735436170610e-03 0.0 
0.0 0.0 -1.233322439334e-03 
-1.175389870133e-03 -8.154118169286e-05 0.0 
-8.154118169286e-05 7.695545006504e-03 0.0 
0.0 0.0 -1.235043566395e-03 
-7.287005066558e-04 -2.363504694994e-04 0.0 
-2.363504694994e-04 3.412626924282e-03 0.0 
0.0 0.0 -5.104964012366e-04 
-1.311532395302e-03 -3.318821641935e-04 0.0 
-3.318821641935e-04 8.754426494470e-03 0.0 
0.0 0.0 -1.325641941534e-03 
-8.790480836699e-04 9.973280973964e-05 0.0 
9.973280973964e-05 5.256747279211e-03 0.0 
0.0 0.0 -7.662153309038e-04 
-1.249481013832e-03 -1.180321759362e-04 0.0 
-1.180321759362e-04 8.200814515591e-03 0.0 
0.0 0.0 -1.217406395242e-03 
-1.652940304057e-04 -5.197313760388e-04 0.0 
-5.197313760388e-04 7.163944105236e-04 0.0 
0.0 0.0 -2.361858771934e-04 
-1.199456095747e-03 -9.281141696113e-05 0.0 
-9.281141696113e-05 7.932283218576e-03 0.0 
0.0 0.0 -1.163202487293e-03 
-1.073812189916e-03 1.019150907596e-06 0.0 
1.019150907596e-06 6.842466406292e-03 0.0 
0.0 0.0 -9.926133712568e-04 
-8.677292434787e-05 -7.776541442063e-05 0.0 
-7.776541442063e-05 9.098025117225e-04 0.0 
0.0 0.0 -1.628620303624e-04 
5.265410319422e-04 -6.941530982861e-04 0.0 
-6.941530982861e-04 -3.231659341296e-05 0.0 
0.0 0.0 -2.118104736554e-04 
-1.137863848184e-03 6.727746037847e-04 0.0 
6.727746037847e-04 7.103743294949e-03 0.0 
0.0 0.0 -1.107581195644e-03 
-1.316054950297e-03 1.463718814179e-04 0.0 
1.463718814179e-04 8.450854861123e-03 0.0 
0.0 0.0 -1.285368862661e-03 
-1.275071184009e-03 -1.337709164893e-04 0.0 
-1.337709164893e-04 8.307471815085e-03 0.0 
0.0 0.0 -1.223917301752e-03 
-1.160153297854e-03 5.261040585439e-04 0.0 
5.261040585439e-04 7.939180437512e-03 0.0 
0.0 0.0 -1.264779455601e-03 
-9.786681000752e-04 2.797069543092e-04 0.0 
2.797069543092e-04 5.828399650514e-03 0.0 
0.0 0.0 -8.807565902733e-04 
6.088519586403e-05 -4.917250620978e-05 0.0 
-4.917250620978e-05 4.869793999348e-04 0.0 
0.0 0.0 -1.094929743475e-04 
6.111566355022e-05 5.640636810902e-05 0.0 
5.640636810902e-05 -1.157323767526e-05 0.0 
0.0 0.0 -2.123246823213e-05 
-1.420251948107e-04 8.764175524857e-05 0.0 
8.764175524857e-05 4.773240057954e-04 0.0 
0.0 0.0 -1.256389127973e-04 
-3.632499277279e-04 -7.837444408696e-04 0.0 
-7.837444408696e-04 1.194209396961e-03 0.0 
0.0 0.0 -2.225718436208e-04 
0.0 0.0 0.0 
0.0 0.0 0.0 
0.0 0.0 0.0 
-8.980038842560e-04 -6.868916122841e-05 0.0 
-6.868916122841e-05 4.504377363934e-03 0.0 
0.0 0.0 -6.753304527203e-04 
-1.294165048711e-03 6.161991819009e-05 0.0 
6.161991819009e-05 7.969168976077e-03 0.0 
0.0 0.0 -1.222305993939e-03 
-1.264474650052e-03 5.734696938905e-04 0.0 
5.734696938905e-04 8.077312517039e-03 0.0 
0.0 0.0 -1.222833113937e-03 
-1.006464770387e-03 3.394189907578e-05 0.0 
3.394189907578e-05 5.834781281692e-03 0.0 
0.0 0.0 -8.826313165011e-04 
-8.266334947460e-04 -5.354606523691e-04 0.0 
-5.354606523691e-04 3.869366937566e-03 0.0 
0.0 0.0 -5.988529843847e-04 
-1.198642937147e-03 -4.684662880526e-04 0.0 
-4.684662880526e-04 7.783754842457e-03 0.0 
0.0 0.0 -1.221067908166e-03 
-1.068035990990e-03 1.115403335333e-04 0.0 
1.115403335333e-04 7.531635864011e-03 0.0 
0.0 0.0 -1.208702654310e-03 
-1.208049507468e-03 4.869249044164e-04 0.0 
4.869249044164e-04 8.191633662499e-03 0.0 
0.0 0.0 -1.272252409145e-03 
-1.227816291176e-03 4.361504529360e-04 0.0 
4.361504529360e-04 7.755209047765e-03 0.0 
0.0 0.0 -1.237422270938e-03 
-1.191139084829e-03 6.619264216726e-04 0.0 
6.619264216726e-04 7.533865048847e-03 0.0 
0.0 0.0 -1.171232062679e-03 
-1.920899935495e-04 -3.005289282689e-04 0.0 
-3.005289282689e-04 6.978999469600e-04 0.0 
0.0 0.0 -2.167756943188e-04 
0.0 0.0 0.0 
0.0 0.0 0.0 
0.0 0.0 0.0 
-1.308655472056e-03 -3.526594848147e-04 0.0 
-3.526594848147e-04 8.026041467974e-03 0.0 
0.0 0.0 -1.223662873675e-03 
-1.521155326843e-04 1.616990335056e-05 0.0 
1.616990335056e-05 7.009749630609e-04 0.0 
0.0 0.0 -1.761523314621e-04 
-1.768246005743e-04 2.416090922495e-04 0.0 
2.416090922495e-04 1.018026141244e-03 0.0 
0.0 0.0 -1.933333333332e-04 
1.266269026244e-04 4.459901967828e-04 0.0 
4.459901967828e-04 1.149333659383e-04 0.0 
0.0 0.0 -1.035258293840e-04 
-1.677849962930e-04 -2.830770546558e-04 0.0 
-2.830770546558e-04 8.015651116380e-04 0.0 
0.0 0.0 -1.580296812506e-04 
-1.271854076500e-03 -2.557043152436e-04 0.0 
-2.557043152436e-04 7.945254530657e-03 0.0 
0.0 0.0 -1.288571152055e-03 
-1.306788030849e-03 4.109202426763e-04 0.0 
4.109202426763e-04 8.216249132470e-03 0.0 
0.0 0.0 -1.290113636706e-03 
-1.294468783320e-03 3.035835675296e-04 0.0 
3.035835675296e-04 8.293038568859e-03 0.0 
0.0 0.0 -1.236907757659e-03 
-1.272697522653e-03 4.000546130428e-04 0.0 
4.000546130428e-04 7.992915461605e-03 0.0 
0.0 0.0 -1.292605224168e-03 
-1.039048517881e-03 -2.511628389219e-04 0.0 
-2.511628389219e-04 7.217306455236e-03 0.0 
0.0 0.0 -1.176879138244e-03 
-9.963056410622e-04 2.982297539881e-04 0.0 
2.982297539881e-04 6.108837095234e-03 0.0 
0.0 0.0 -9.170130443517e-04 
-1.345069444888e-03 2.094806773474e-04 0.0 
2.094806773474e-04 8.819921791921e-03 0.0 
0.0 0.0 -1.345069444888e-03 
1.552293122710e-04 -1.587596842018e-03 0.0 
-1.587596842018e-03 7.594496357434e-04 0.0 
0.0 0.0 -3.920052634348e-04 
-7.958568066072e-04 2.655126968941e-05 0.0 
2.655126968941e-05 4.862635053177e-03 0.0 
0.0 0.0 -7.083073883397e-04 
-3.709027017310e-05 -1.154290083415e-03 0.0 
-1.154290083415e-03 8.071251517729e-04 0.0 
0.0 0.0 -3.300149492570e-04 
-8.078687300304e-05 2.766710122456e-05 0.0 
2.766710122456e-05 2.705585081320e-04 0.0 
0.0 0.0 -8.133070076957e-05 
-1.328088305276e-03 -2.091716352919e-04 0.0 
-2.091716352919e-04 8.801339781229e-03 0.0 
0.0 0.0 -1.323850096553e-03 
-9.077000763770e-04 9.794404475147e-05 0.0 
9.794404475147e-05 5.306610706151e-03 0.0 
0.0 0.0 -7.731261162940e-04 
-1.693805322071e-04 -2.625883935893e-05 0.0 
-2.625883935893e-05 1.305243597625e-03 0.0 
0.0 0.0 -2.115341463249e-04 
-9.189085389785e-04 8.964891235688e-05 0.0 
8.964891235688e-05 4.273021875062e-03 0.0 
0.0 0.0 -6.570498647039e-04 
-1.286146232063e-03 5.231039738263e-04 0.0 
5.231039738263e-04 8.474365430469e-03 0.0 
0.0 0.0 -1.276804206569e-03 
-1.288400651325e-03 -4.306470642737e-06 0.0 
-4.306470642737e-06 8.274343384212e-03 0.0 
0.0 0.0 -1.228616961883e-03 
-1.323624610775e-03 3.216369829918e-04 0.0 
3.216369829918e-04 8.408100187569e-03 0.0 
0.0 0.0 -1.289666537713e-03 
-6.585033223124e-04 -1.956809026779e-04 0.0 
-1.956809026779e-04 3.104860358543e-03 0.0 
0.0 0.0 -4.695399720401e-04 
0.0 0.0 0.0 
0.0 0.0 0.0 
0.0 0.0 0.0 
-1.295369683638e-03 -4.352781909349e-04 0.0 
-4.352781909349e-04 8.328377963407e-03 0.0 
0.0 0.0 -1.273144391159e-03 
-1.316384665971e-03 4.635940691717e-05 0.0 
4.635940691717e-05 9.091692367136e-03 0.0 
0.0 0.0 -1.325353038101e-03 
-1.373672636792e-03 -7.774901455504e-05 0.0 
-7.774901455504e-05 8.873813327292e-03 0.0 
0.0 0.0 -1.323783523096e-03 
-8.637809619907e-04 1.323503679534e-04 0.0 
1.323503679534e-04 5.089707097874e-03 0.0 
0.0 0.0 -7.673431308700e-04 
-1.131532193974e-03 -7.726473612600e-05 0.0 
-7.726473612600e-05 7.445464928452e-03 0.0 
0.0 0.0 -1.231867668451e-03 
-2.317572587520e-04 -1.314436244158e-04 0.0 
-1.314436244158e-04 1.130415722071e-03 0.0 
0.0 0.0 -2.324200178898e-04 
-1.299745087394e-03 4.291095854891e-04 0.0 
4.291095854891e-04 8.286657472724e-03 0.0 
0.0 0.0 -1.241575510934e-03 
-4.846130298420e-05 -4.886976193625e-05 0.0 
-4.886976193625e-05 2.622595636012e-04 0.0 
0.0 0.0 -9.162782597871e-05 
-1.263516092246e-03 -1.718330630488e-04 0.0 
-1.718330630488e-04 7.907025787409e-03 0.0 
0.0 0.0 -1.290713494763e-03 
-1.321680158597e-03 4.673078731777e-04 0.0 
4.673078731777e-04 8.597815189326e-03 0.0 
0.0 0.0 -1.268585396830e-03 
0.0 0.0 0.0 
0.0 0.0 0.0 
0.0 0.0 0.0 
-1.124591088079e-03 3.211880423142e-04 0.0 
3.211880423142e-04 7.458066064736e-03 0.0 
0.0 0.0 -1.178018281593e-03 
-1.107869427890e-03 -1.505180591586e-04 0.0 
-1.505180591586e-04 7.012739571933e-03 0.0 
0.0 0.0 -1.053859681778e-03 
-1.308771083341e-03 9.446579517484e-05 0.0 
9.446579517484e-05 8.493525012630e-03 0.0 
0.0 0.0 -1.289687241943e-03 
-1.346242744377e-03 2.039443759450e-04 0.0 
2.039443759450e-04 8.307404063276e-03 0.0 
0.0 0.0 -1.346242744377e-03 
-1.050842893348e-03 -2.891538303944e-04 0.0 
-2.891538303944e-04 6.421171579649e-03 0.0 
0.0 0.0 -9.627310317561e-04 
-1.303758961951e-03 4.903154082554e-04 0.0 
4.903154082554e-04 8.278630388455e-03 0.0 
0.0 0.0 -1.292510612804e-03 
-1.300990074097e-03 1.669276888751e-04 0.0 
1.669276888751e-04 8.244189692926e-03 0.0 
0.0 0.0 -1.236507170568e-03 
-1.088170666265e-03 3.228048852164e-05 0.0 
3.228048852164e-05 6.587667922864e-03 0.0 
0.0 0.0 -1.009625451247e-03 
-1.257890102395e-03 4.520446479729e-04 0.0 
4.520446479729e-04 7.985706155656e-03 0.0 
0.0 0.0 -1.247605899893e-03 
-7.721939041237e-04 -2.584607340664e-04 0.0 
-2.584607340664e-04 3.598089332548e-03 0.0 
0.0 0.0 -5.668522599723e-04 
-8.446801208318e-04 -1.785300824749e-05 0.0 
-1.785300824749e-05 4.608085736335e-03 0.0 
0.0 0.0 -7.287847301676e-04 
-1.179784032877e-03 5.549241153248e-04 0.0 
5.549241153248e-04 7.775803262496e-03 0.0 
0.0 0.0 -1.239219007812e-03 
-1.299529222104e-03 1.321426560981e-04 0.0 
1.321426560981e-04 8.646134742124e-03 0.0 
0.0 0.0 -1.286506427510e-03 
2.831255439195e-04 1.360672473440e-05 0.0 
1.360672473440e-05 -8.482055415176e-05 0.0 
0.0 0.0 -8.498785275758e-05 
-8.370484008237e-04 5.623912198418e-05 0.0 
5.623912198418e-05 4.626828224470e-03 0.0 
0.0 0.0 -7.284590636140e-04 
-1.335071484274e-03 -1.600713729454e-04 0.0 
-1.600713729454e-04 8.440371416104e-03 0.0 
0.0 0.0 -1.288082484959e-03 
-3.767414468585e-04 -4.451842935601e-05 0.0 
-4.451842935601e-05 1.577633672495e-03 0.0 
0.0 0.0 -2.765646858065e-04 
-1.088631360797e-03 4.564803545026e-05 0.0 
4.564803545026e-05 7.667059339477e-03 0.0 
0.0 0.0 -1.213252366005e-03 
-1.271794335805e-03 2.301245021833e-04 0.0 
2.301245021833e-04 8.183403677429e-03 0.0 
0.0 0.0 -1.225943235494e-03 
-1.312602819485e-03 -3.967668182090e-05 0.0 
-3.967668182090e-05 8.691988746778e-03 0.0 
0.0 0.0 -1.269037835114e-03 
-3.083660169777e-04 2.694773361529e-05 0.0 
2.694773361529e-05 1.528069924280e-03 0.0 
0.0 0.0 -2.647987373252e-04 
3.113151605038e-04 9.413576912784e-04 0.0 
9.413576912784e-04 1.991549585730e-04 0.0 
0.0 0.0 -2.187729081758e-04 
-1.068435724364e-03 3.124616463362e-04 0.0 
3.124616463362e-04 5.213213290896e-03 0.0 
0.0 0.0 -7.939471195916e-04 
-1.202568648909e-03 1.058847220047e-04 0.0 
1.058847220047e-04 7.572272609772e-03 0.0 
0.0 0.0 -1.120841203304e-03 
0.0 0.0 0.0 
0.0 0.0 0.0 
0.0 0.0 0.0 
-1.320199164535e-03 2.485994904543e-04 0.0 
2.485994904543e-04 8.472368730029e-03 0.0 
0.0 0.0 -1.292233508669e-03 
-1.037229848653e-03 5.491249721839e-05 0.0 
5.491249721839e-05 6.181123680978e-03 0.0 
0.0 0.0 -9.501928138396e-04 
-2.112219927373e-05 -1.374997492072e-03 0.0 
-1.374997492072e-03 9.175924767207e-04 0.0 
0.0 0.0 -3.842015474773e-04 
-1.012609583766e-03 8.895330680236e-05 0.0 
8.895330680236e-05 5.872726185200e-03 0.0 
0.0 0.0 -9.030544305944e-04 
-1.225691657466e-03 3.254133079920e-04 0.0 
3.254133079920e-04 8.211721301461e-03 0.0 
0.0 0.0 -1.271643562581e-03 
-1.073143154962e-03 -3.082428058209e-04 0.0 
-3.082428058209e-04 5.482950483311e-03 0.0 
0.0 0.0 -8.272804529250e-04 
-2.827346317561e-05 3.913664802728e-04 0.0 
3.913664802728e-04 5.072477959961e-05 0.0 
0.0 0.0 -9.621992753142e-06 
-7.676399437614e-04 -3.808740375144e-05 0.0 
-3.808740375144e-05 3.237219166554e-03 0.0 
0.0 0.0 -5.209635072927e-04 
-9.628338005869e-04 -8.201294567373e-05 0.0 
-8.201294567373e-05 4.764994978367e-03 0.0 
0.0 0.0 -7.319997505002e-04 
-1.071554526652e-03 3.282695898754e-04 0.0 
3.282695898754e-04 5.655927594763e-03 0.0 
0.0 0.0 -8.599999999992e-04 
-1.135384068353e-03 1.731479619930e-04 0.0 
1.731479619930e-04 7.715574497297e-03 0.0 
0.0 0.0 -1.232780192057e-03 
-9.798919804233e-04 -2.558628748534e-04 0.0 
-2.558628748534e-04 4.608642650891e-03 0.0 
0.0 0.0 -7.175509632692e-04 
-9.821029958470e-04 -3.508647879924e-05 0.0 
-3.508647879924e-05 4.890525845077e-03 0.0 
0.0 0.0 -7.596628988333e-04 
-1.837560013843e-04 -1.583099615282e-05 0.0 
-1.583099615282e-05 7.060885550868e-04 0.0 
0.0 0.0 -1.551230728613e-04 
-1.279400136320e-03 -1.566945304177e-04 0.0 
-1.566945304177e-04 7.936225660633e-03 0.0 
0.0 0.0 -1.240629869904e-03 
-1.185998620198e-03 6.438056067403e-04 0.0 
6.438056067403e-04 7.550199019485e-03 0.0 
0.0 0.0 -1.186362110037e-03 
2.427830448571e-04 7.191273176983e-04 0.0 
7.191273176983e-04 1.478022189351e-04 0.0 
0.0 0.0 -1.673936844824e-04 
-1.279430862365e-03 -6.414688066309e-05 0.0 
-6.414688066309e-05 8.547621756056e-03 0.0 
0.0 0.0 -1.290349483557e-03 
-1.338884708819e-03 1.031550988355e-04 0.0 
1.031550988355e-04 8.369469127644e-03 0.0 
0.0 0.0 -1.290356026000e-03 
-8.661241169029e-04 -1.497599566473e-04 0.0 
-1.497599566473e-04 5.210623571048e-03 0.0 
0.0 0.0 -7.639788432047e-04 
-1.031081386504e-03 4.454962226943e-05 0.0 
4.454962226943e-05 6.379322053578e-03 0.0 
0.0 0.0 -9.358343396975e-04 
-9.489099175762e-04 2.306915430345e-05 0.0 
2.306915430345e-05 4.686801294291e-03 0.0 
0.0 0.0 -7.108516105536e-04 
-9.490845872611e-04 -2.424415655702e-04 0.0 
-2.424415655702e-04 4.770889395299e-03 0.0 
0.0 0.0 -7.343037059241e-04 
-1.020778085259e-03 -1.236146397605e-04 0.0 
-1.236146397605e-04 5.063951457963e-03 0.0 
0.0 0.0 -7.498489858827e-04 
-1.029397936689e-03 2.088387744417e-04 0.0 
2.088387744417e-04 7.190812739883e-03 0.0 
0.0 0.0 -1.180929064624e-03 
-9.345291821784e-05 -1.000980982166e-03 0.0 
-1.000980982166e-03 8.249248585122e-04 0.0 
0.0 0.0 -3.134879744119e-04 
-1.217539983379e-03 3.641850333419e-04 0.0 
3.641850333419e-04 7.975823276789e-03 0.0 
0.0 0.0 -1.217816617926e-03 
-9.353852917844e-04 8.308411466891e-05 0.0 
8.308411466891e-05 5.379160797006e-03 0.0 
0.0 0.0 -8.376728236383e-04 
-1.321070874734e-03 1.232042406106e-04 0.0 
1.232042406106e-04 8.662379723599e-03 0.0 
0.0 0.0 -1.272153791098e-03 
-1.041736228558e-03 -1.048021857426e-04 0.0 
-1.048021857426e-04 7.166745997700e-03 0.0 
0.0 0.0 -1.181257232468e-03 
-9.798440822242e-04 -3.118370163861e-05 0.0 
-3.118370163861e-05 6.079525789277e-03 0.0 
0.0 0.0 -8.902468719969e-04 
-1.234647512165e-03 5.766899331800e-04 0.0 
5.766899331800e-04 7.752454878246e-03 0.0 
0.0 0.0 -1.201032862555e-03 
-1.158629351689e-03 4.496790680983e-04 0.0 
4.496790680983e-04 7.611289473110e-03 0.0 
0.0 0.0 -1.236767197193e-03 
-1.208868880085e-03 3.342350738492e-04 0.0 
3.342350738492e-04 8.181025928136e-03 0.0 
0.0 0.0 -1.270271405117e-03 
3.097542277650e-05 6.697677954973e-05 0.0 
6.697677954973e-05 7.281263968875e-06 0.0 
0.0 0.0 -1.639572289087e-05 
-1.241892221072e-03 3.317116238901e-04 0.0 
3.317116238901e-04 7.798927866879e-03 0.0 
0.0 0.0 -1.198686027802e-03 
-1.247779771289e-03 6.731204463031e-04 0.0 
6.731204463031e-04 8.074479962319e-03 0.0 
0.0 0.0 -1.227078865044e-03 
-6.925802389634e-05 -2.106877258132e-04 0.0 
-2.106877258132e-04 8.393317830722e-04 0.0 
0.0 0.0 -1.488313462956e-04 
-9.198582411310e-04 -2.516763361700e-04 0.0 
-2.516763361700e-04 4.361749592167e-03 0.0 
0.0 0.0 -6.841365946973e-04 
8.862067450551e-06 2.614979262087e-05 0.0 
2.614979262087e-05 5.345349754712e-06 0.0 
0.0 0.0 -6.088893087970e-06 
-1.270183579808e-03 3.785933793144e-04 0.0 
3.785933793144e-04 8.183372897712e-03 0.0 
0.0 0.0 -1.230789928679e-03 
-1.445556555502e-04 -5.649610296742e-05 0.0 
-5.649610296742e-05 6.191870734237e-04 0.0 
0.0 0.0 -1.155555555556e-04 
-1.145815398298e-04 4.633195003822e-05 0.0 
4.633195003822e-05 3.844424045572e-04 0.0 
0.0 0.0 -1.156546563117e-04 
-1.421238444497e-04 -2.278389267629e-05 0.0 
-2.278389267629e-05 7.308386532640e-04 0.0 
0.0 0.0 -1.155555555556e-04 
-1.198757460646e-04 -1.608001406284e-05 0.0 
-1.608001406284e-05 3.998759483491e-04 0.0 
0.0 0.0 -1.200000866933e-04 
-1.417923566277e-04 -2.339573055473e-05 0.0 
-2.339573055473e-05 7.404322015642e-04 0.0 
0.0 0.0 -1.155555555556e-04 
-1.204682759428e-04 -2.411720489715e-05 0.0 
-2.411720489715e-05 4.022097119129e-04 0.0 
0.0 0.0 -1.207463297015e-04 
-1.396939065194e-04 -2.489358081366e-05 0.0 
-2.489358081366e-05 7.418437125651e-04 0.0 
0.0 0.0 -1.155555555556e-04 
-1.206141473480e-04 -2.754626853413e-05 0.0 
-2.754626853413e-05 4.028920867745e-04 0.0 
0.0 0.0 -1.209762597542e-04 
-1.360520220087e-04 -2.621891566472e-05 0.0 
-2.621891566472e-05 7.416689066503e-04 0.0 
0.0 0.0 -1.155555555556e-04 
-1.205935894802e-04 -3.060219340187e-05 0.0 
-3.060219340187e-05 4.030210444283e-04 0.0 
0.0 0.0 -1.210403378349e-04 
-1.314388669618e-04 -2.793043800442e-05 0.0 
-2.793043800442e-05 7.406379526970e-04 0.0 
0.0 0.0 -1.155555555556e-04 
-1.204765888220e-04 -3.387959264400e-05 0.0 
-3.387959264400e-05 4.028666922167e-04 0.0 
0.0 0.0 -1.210243300263e-04 
-1.261172015834e-04 -3.001442451793e-05 0.0 
-3.001442451793e-05 7.390112763724e-04 0.0 
0.0 0.0 -1.155555555556e-04 
-1.202977006515e-04 -3.738262090039e-05 0.0 
-3.738262090039e-05 4.025494751225e-04 0.0 
0.0 0.0 -1.209650462019e-04 
-1.202100201114e-04 -3.223910591608e-05 0.0 
-3.223910591608e-05 7.369351621648e-04 0.0 
0.0 0.0 -1.155555555556e-04 
-1.200782434704e-04 -4.095023101676e-05 0.0 
-4.095023101676e-05 4.021311436269e-04 0.0 
0.0 0.0 -1.208798143528e-04 
-1.138018147323e-04 -3.433629242130e-05 0.0 
-3.433629242130e-05 7.345027378515e-04 0.0 
0.0 0.0 -1.155555555556e-04 
-1.198349593454e-04 -4.436760988139e-05 0.0 
-4.436760988139e-05 4.016478512437e-04 0.0 
0.0 0.0 -1.207769536707e-04 
-1.069827296762e-04 -3.605720538583e-05 0.0 
-3.605720538583e-05 7.317862428499e-04 0.0 
0.0 0.0 -1.155555555556e-04 
-1.195843579388e-04 -4.740246599665e-05 0.0 
-4.740246599665e-05 4.011265574579e-04 0.0 
0.0 0.0 -1.206609426510e-04 
-9.986730605651e-05 -3.719050669812e-05 0.0 
-3.719050669812e-05 7.288586631103e-04 0.0 
0.0 0.0 -1.155555555556e-04 
-1.193446149056e-04 -4.982470204984e-05 0.0 
-4.982470204984e-05 4.005942026356e-04 0.0 
0.0 0.0 -1.205355375985e-04 
-1.539845930873e-04 3.653933602059e-04 0.0 
3.653933602059e-04 6.099810102609e-04 0.0 
0.0 0.0 -1.954270359315e-04 
-9.260216079712e-05 -3.758552943307e-05 0.0 
-3.758552943307e-05 7.258128479760e-04 0.0 
0.0 0.0 -1.155555555556e-04 
-1.191295485017e-04 -5.145537317715e-05 0.0 
-5.145537317715e-05 4.000659547303e-04 0.0 
0.0 0.0 -1.204013169551e-04 
-8.536134686934e-05 -3.714837024702e-05 0.0 
-3.714837024702e-05 7.227526061054e-04 0.0 
0.0 0.0 -1.155555555556e-04 
-1.020911327988e-04 2.743175509314e-04 0.0 
2.743175509314e-04 4.193501568124e-04 0.0 
0.0 0.0 -1.359681531487e-04 
-1.189499013318e-04 -5.215114943230e-05 0.0 
-5.215114943230e-05 3.995517809510e-04 0.0 
0.0 0.0 -1.202579484082e-04 
-7.834592922142e-05 -3.579315489686e-05 0.0 
-3.579315489686e-05 7.197745967854e-04 0.0 
0.0 0.0 -1.155555555556e-04 
-1.188089137264e-04 -5.176111343497e-05 0.0 
-5.176111343497e-05 3.990402223294e-04 0.0 
0.0 0.0 -1.200991322584e-04 
-7.179392267034e-05 -3.336395678040e-05 0.0 
-3.336395678040e-05 7.169627860611e-04 0.0 
0.0 0.0 -1.155555555556e-04 
-1.187251844824e-04 -4.998705127904e-05 0.0 
-4.998705127904e-05 3.985618033484e-04 0.0 
0.0 0.0 -1.199299795140e-04 
-8.791130780871e-05 4.069370652399e-04 0.0 
4.069370652399e-04 4.519324299817e-04 0.0 
0.0 0.0 -1.560090523598e-04 
-6.602324885598e-05 -2.959545221028e-05 0.0 
-2.959545221028e-05 7.144257839063e-04 0.0 
0.0 0.0 -1.155555555556e-04 
-1.186317336380e-04 -4.664836133848e-05 0.0 
-4.664836133848e-05 3.978916556600e-04 0.0 
0.0 0.0 -1.196828237237e-04 
-6.057744492751e-05 -2.419186038825e-05 0.0 
-2.419186038825e-05 7.120513599855e-04 0.0 
0.0 0.0 -1.155555555556e-04 
-1.185531971508e-04 -4.149263240722e-05 0.0 
-4.149263240722e-05 3.971217056150e-04 0.0 
0.0 0.0 -1.193865036275e-04 
-5.610774882782e-05 -1.740857374203e-05 0.0 
-1.740857374203e-05 7.101230905829e-04 0.0 
0.0 0.0 -1.155555555556e-04 
-1.183832858107e-04 -3.487996936083e-05 0.0 
-3.487996936083e-05 3.959890914720e-04 0.0 
0.0 0.0 -1.189739167120e-04 
-5.374829041318e-05 -8.603267617041e-06 0.0 
-8.603267617041e-06 7.086689363557e-04 0.0 
0.0 0.0 -1.155555555556e-04 
-1.183710991269e-04 -2.487912943956e-05 0.0 
-2.487912943956e-05 3.952728694583e-04 0.0 
0.0 0.0 -1.186721872849e-04 
-4.614636237580e-05 2.128281800776e-06 0.0 
2.128281800776e-06 7.065954507948e-04 0.0 
0.0 0.0 -1.180768129515e-04 
-1.180930059217e-04 -1.408374979499e-05 0.0 
-1.408374979499e-05 3.938693139519e-04 0.0 
0.0 0.0 -1.181898462986e-04 
-5.142418330927e-06 2.121828060980e-05 0.0 
2.121828060980e-05 6.935854016159e-04 0.0 
0.0 0.0 -1.316383079311e-04 
-1.183786241798e-04 5.909008279417e-06 0.0 
5.909008279417e-06 3.946351150373e-04 0.0 
0.0 0.0 -1.183956389389e-04 
-1.082132904289e-04 5.459329709520e-04 0.0 
5.459329709520e-04 5.821226040415e-04 0.0 
0.0 0.0 -2.031039915483e-04 
-1.170856516425e-04 2.321047834245e-05 0.0 
2.321047834245e-05 3.909038119352e-04 0.0 
0.0 0.0 -1.173506401255e-04 
1.030416585513e-04 5.083782521713e-05 0.0 
5.083782521713e-05 6.632925714143e-04 0.0 
0.0 0.0 -1.676583867370e-04 
-1.166357916736e-04 6.995651561702e-05 0.0 
6.995651561702e-05 3.943468851759e-04 0.0 
0.0 0.0 -1.190190400724e-04 
1.591658013972e-04 9.397504226169e-05 0.0 
9.397504226169e-05 6.409313046224e-04 0.0 
0.0 0.0 -1.893386800925e-04 
-1.118093887419e-04 8.588718554023e-05 0.0 
8.588718554023e-05 3.813580635506e-04 0.0 
0.0 0.0 -1.155208606323e-04 
3.463107569082e-04 1.495800376502e-04 0.0 
1.495800376502e-04 5.929418108653e-04 0.0 
0.0 0.0 -2.551293911888e-04 
-1.060581135744e-04 1.976050207793e-04 0.0 
1.976050207793e-04 3.971686064842e-04 0.0 
0.0 0.0 -1.247616398185e-04 
9.321698838875e-05 2.599499300831e-04 0.0 
2.599499300831e-04 6.404707891521e-04 0.0 
0.0 0.0 -1.923625751756e-04 
-2.424193003847e-04 4.231167454203e-04 0.0 
4.231167454203e-04 7.509782134875e-04 0.0 
0.0 0.0 -1.155555555556e-04 
-8.645288545534e-05 2.817435677445e-04 0.0 
2.817435677445e-04 3.802490780486e-04 0.0 
0.0 0.0 -1.259126539685e-04 
-2.014268236016e-04 -3.560464059745e-04 0.0 
-3.560464059745e-04 6.475023754447e-04 0.0 
0.0 0.0 -1.297456650772e-04 
-1.033237135709e-04 3.547284790225e-04 0.0 
3.547284790225e-04 4.565258791023e-04 0.0 
0.0 0.0 -1.266666666667e-04 
-1.897783931724e-04 -3.954031685421e-05 0.0 
-3.954031685421e-05 6.129477655022e-04 0.0 
0.0 0.0 -1.488888888889e-04 
-1.235894195340e-04 4.223278284885e-05 0.0 
4.223278284885e-05 5.015646082647e-04 0.0 
0.0 0.0 -1.044444444444e-04 
-1.398737198164e-05 4.332159098885e-04 0.0 
4.332159098885e-04 3.030512002631e-04 0.0 
0.0 0.0 -1.238844978349e-04 
-2.507568877565e-04 -6.781486879639e-05 0.0 
-6.781486879639e-05 1.034467775160e-03 0.0 
0.0 0.0 -2.044444444444e-04 
-2.132863225946e-04 5.634913117177e-05 0.0 
5.634913117177e-05 1.212092474557e-03 0.0 
0.0 0.0 -1.822222222222e-04 
-2.461610589791e-04 -1.812098302402e-05 0.0 
-1.812098302402e-05 8.981328864429e-04 0.0 
0.0 0.0 -2.044444444444e-04 
-2.147267041248e-04 -1.989947913997e-05 0.0 
-1.989947913997e-05 1.202740032189e-03 0.0 
0.0 0.0 -1.822222222222e-04 
-2.460600324532e-04 -2.274720541184e-05 0.0 
-2.274720541184e-05 8.914949546044e-04 0.0 
0.0 0.0 -2.044444444444e-04 
-2.150479374063e-04 -3.129458083310e-05 0.0 
-3.129458083310e-05 1.203006354940e-03 0.0 
0.0 0.0 -1.822222222222e-04 
-2.462198430306e-04 -2.804713420072e-05 0.0 
-2.804713420072e-05 8.921980041224e-04 0.0 
0.0 0.0 -2.044444444444e-04 
-2.141656031950e-04 -3.699561073311e-05 0.0 
-3.699561073311e-05 1.203365013804e-03 0.0 
0.0 0.0 -1.822222222222e-04 
-2.459136250081e-04 -3.248848067824e-05 0.0 
-3.248848067824e-05 8.927753519548e-04 0.0 
0.0 0.0 -2.044444444444e-04 
-2.122841426835e-04 -4.178890406880e-05 0.0 
-4.178890406880e-05 1.203187073411e-03 0.0 
0.0 0.0 -1.822222222222e-04 
-2.451128265315e-04 -3.658181966735e-05 0.0 
-3.658181966735e-05 8.928179900179e-04 0.0 
0.0 0.0 -2.044444444444e-04 
-2.096338774208e-04 -4.639395384728e-05 0.0 
-4.639395384728e-05 1.202492533832e-03 0.0 
0.0 0.0 -1.822222222222e-04 
-2.439185593551e-04 -4.044618690082e-05 0.0 
-4.044618690082e-05 8.924006711282e-04 0.0 
0.0 0.0 -2.044444444444e-04 
-2.064069130785e-04 -5.085054166689e-05 0.0 
-5.085054166689e-05 1.201368601297e-03 0.0 
0.0 0.0 -1.822222222222e-04 
-2.424743071365e-04 -4.396506173464e-05 0.0 
-4.396506173464e-05 8.916444911649e-04 0.0 
0.0 0.0 -2.044444444444e-04 
-2.027612687777e-04 -5.497813936568e-05 0.0 
-5.497813936568e-05 1.199902319193e-03 0.0 
0.0 0.0 -1.822222222222e-04 
-2.409391640056e-04 -4.692461244445e-05 0.0 
-4.692461244445e-05 8.906630498378e-04 0.0 
0.0 0.0 -2.044444444444e-04 
-1.988396521453e-04 -5.851701212049e-05 0.0 
-5.851701212049e-05 1.198169967889e-03 0.0 
0.0 0.0 -1.822222222222e-04 
-2.394698953818e-04 -4.906970077185e-05 0.0 
-4.906970077185e-05 8.895564174281e-04 0.0 
0.0 0.0 -2.044444444444e-04 
-1.947893468717e-04 -6.117280725664e-05 0.0 
-6.117280725664e-05 1.196248658912e-03 0.0 
0.0 0.0 -1.822222222222e-04 
-3.712898523905e-04 4.317569343883e-04 0.0 
4.317569343883e-04 1.145241708059e-03 0.0 
0.0 0.0 -2.387231874441e-04 
-2.382372826229e-04 -5.011791756217e-05 0.0 
-5.011791756217e-05 8.884259014391e-04 0.0 
0.0 0.0 -2.044444444444e-04 
-1.907840217257e-04 -6.263724658105e-05 0.0 
-6.263724658105e-05 1.194237656955e-03 0.0 
0.0 0.0 -1.822222222222e-04 
-2.374457179260e-04 -4.977058269570e-05 0.0 
-4.977058269570e-05 8.873972864172e-04 0.0 
0.0 0.0 -2.044444444444e-04 
-3.059992964472e-04 5.496270407213e-04 0.0 
5.496270407213e-04 9.802526694908e-04 0.0 
0.0 0.0 -1.912478907564e-04 
-1.870497738819e-04 -6.262168888187e-05 0.0 
-6.262168888187e-05 1.192299008639e-03 0.0 
0.0 0.0 -1.822222222222e-04 
-2.374007187279e-04 -4.789023730634e-05 0.0 
-4.789023730634e-05 8.866288055825e-04 0.0 
0.0 0.0 -2.044444444444e-04 
-2.590753996177e-04 4.433103667067e-04 0.0 
4.433103667067e-04 9.165365716902e-04 0.0 
0.0 0.0 -2.581562493347e-04 
-1.838234548438e-04 -6.092177172858e-05 0.0 
-6.092177172858e-05 1.190518626697e-03 0.0 
0.0 0.0 -1.822222222222e-04 
-2.383869275768e-04 -4.422754439846e-05 0.0 
-4.422754439846e-05 8.862463774891e-04 0.0 
0.0 0.0 -2.044444444444e-04 
-1.814000525890e-04 -5.728879705715e-05 0.0 
-5.728879705715e-05 1.189050181082e-03 0.0 
0.0 0.0 -1.822222222222e-04 
-2.407497892372e-04 -3.879603429531e-05 0.0 
-3.879603429531e-05 8.863629034362e-04 0.0 
0.0 0.0 -2.044444444444e-04 
-1.800070268731e-04 -5.141797290055e-05 0.0 
-5.141797290055e-05 1.187749772327e-03 0.0 
0.0 0.0 -1.822222222222e-04 
-2.446310126199e-04 -3.066752743924e-05 0.0 
-3.066752743924e-05 8.870377818067e-04 0.0 
0.0 0.0 -2.044444444444e-04 
-1.801194860395e-04 -4.284558607012e-05 0.0 
-4.284558607012e-05 1.187187231994e-03 0.0 
0.0 0.0 -1.822222222222e-04 
-2.508714636983e-04 -2.052611711476e-05 0.0 
-2.052611711476e-05 8.885596674327e-04 0.0 
0.0 0.0 -2.044444444444e-04 
-1.818281296921e-04 -3.092729567660e-05 0.0 
-3.092729567660e-05 1.186454831232e-03 0.0 
0.0 0.0 -1.822222222222e-04 
-3.027578764596e-04 6.810323115478e-04 0.0 
6.810323115478e-04 1.082461611564e-03 0.0 
0.0 0.0 -2.704531460172e-04 
-2.592097415346e-04 -4.959314290161e-06 0.0 
-4.959314290161e-06 8.909419718993e-04 0.0 
0.0 0.0 -2.044444444444e-04 
-1.865741924096e-04 -1.422333226689e-05 0.0 
-1.422333226689e-05 1.187628875113e-03 0.0 
0.0 0.0 -1.822222222222e-04 
-2.721526143227e-04 1.205750116150e-05 0.0 
1.205750116150e-05 8.945788037620e-04 0.0 
0.0 0.0 -2.044444444444e-04 
-1.939924474556e-04 8.375520842673e-06 0.0 
8.375520842673e-06 1.186772148575e-03 0.0 
0.0 0.0 -1.822222222222e-04 
-2.088572636642e-04 4.020195256732e-05 0.0 
4.020195256732e-05 1.193284487300e-03 0.0 
0.0 0.0 -1.822222222222e-04 
-2.869104932953e-04 4.392938228072e-05 0.0 
4.392938228072e-05 8.997935616271e-04 0.0 
0.0 0.0 -2.044444444444e-04 
-2.263439955462e-04 8.493325827766e-05 0.0 
8.493325827766e-05 1.188374875619e-03 0.0 
0.0 0.0 -1.822222222222e-04 
-2.962624122326e-04 6.861581631927e-05 0.0 
6.861581631927e-05 9.023866303304e-04 0.0 
0.0 0.0 -2.097994513533e-04 
-2.608257251636e-04 1.510704805897e-04 0.0 
1.510704805897e-04 1.205986921017e-03 0.0 
0.0 0.0 -1.822222222222e-04 
-2.920322184050e-04 1.349132072892e-04 0.0 
1.349132072892e-04 9.037865644230e-04 0.0 
0.0 0.0 -2.173204268883e-04 
-2.909264463953e-04 2.527803142173e-04 0.0 
2.527803142173e-04 1.175603940766e-03 0.0 
0.0 0.0 -1.822222222222e-04 
-3.677392756981e-04 4.232900733992e-04 0.0 
4.232900733992e-04 1.215367293503e-03 0.0 
0.0 0.0 -1.822222222222e-04 
-2.783565001642e-04 1.579061642074e-04 0.0 
1.579061642074e-04 8.944232141228e-04 0.0 
0.0 0.0 -2.378695771978e-04 
-2.720135245397e-04 3.291264035430e-04 0.0 
3.291264035430e-04 9.008560657141e-04 0.0 
0.0 0.0 -2.359550740796e-04 
-2.236360071778e-04 4.891166574447e-04 0.0 
4.891166574447e-04 8.467084884124e-04 0.0 
0.0 0.0 -2.539167787760e-04 
-1.859091753436e-04 -3.627255548042e-04 0.0 
-3.627255548042e-04 1.014404375981e-03 0.0 
0.0 0.0 -1.933333333333e-04 
-2.884587484561e-04 3.598387306250e-04 0.0 
3.598387306250e-04 1.198265490527e-03 0.0 
0.0 0.0 -1.933333333333e-04 
-2.120006153946e-04 -3.501859733167e-05 0.0 
-3.501859733167e-05 1.050583898463e-03 0.0 
0.0 0.0 -1.711111111111e-04 
-2.634307576369e-04 4.200097216007e-05 0.0 
4.200097216007e-05 1.153429501950e-03 0.0 
0.0 0.0 -2.155555555556e-04 
-1.864124031819e-04 6.633836606594e-04 0.0 
6.633836606594e-04 8.396123738653e-04 0.0 
0.0 0.0 -2.741306969431e-04 
-2.952013322010e-04 -7.105529920730e-05 0.0 
-7.105529920730e-05 1.557070950825e-03 0.0 
0.0 0.0 -2.488888888889e-04 
-3.254937786982e-04 4.435174731084e-05 0.0 
4.435174731084e-05 1.364389529670e-03 0.0 
0.0 0.0 -2.711111111111e-04 
-2.906055034236e-04 -1.453682006066e-05 0.0 
-1.453682006066e-05 1.677746848914e-03 0.0 
0.0 0.0 -2.488888888889e-04 
-3.240490716854e-04 -1.980019069996e-05 0.0 
-1.980019069996e-05 1.371639947660e-03 0.0 
0.0 0.0 -2.711111111111e-04 
-2.905044768976e-04 -2.118391276276e-05 0.0 
-2.118391276276e-05 1.682793203478e-03 0.0 
0.0 0.0 -2.488888888889e-04 
-3.238735021039e-04 -3.097254670317e-05 0.0 
-3.097254670317e-05 1.372144297900e-03 0.0 
0.0 0.0 -2.711111111111e-04 
-2.906642874751e-04 -2.881618546829e-05 0.0 
-2.881618546829e-05 1.683024523281e-03 0.0 
0.0 0.0 -2.488888888889e-04 
-3.242298033971e-04 -3.828264310236e-05 0.0 
-3.828264310236e-05 1.372623957039e-03 0.0 
0.0 0.0 -2.711111111111e-04 
-2.903580694526e-04 -3.482769611358e-05 0.0 
-3.482769611358e-05 1.683295155425e-03 0.0 
0.0 0.0 -2.488888888889e-04 
-3.247078271869e-04 -4.460397563338e-05 0.0 
-4.460397563338e-05 1.373026131789e-03 0.0 
0.0 0.0 -2.711111111111e-04 
-2.895572709759e-04 -3.982611016076e-05 0.0 
-3.982611016076e-05 1.683413827941e-03 0.0 
0.0 0.0 -2.488888888889e-04 
-3.251193850062e-04 -5.034287914678e-05 0.0 
-5.034287914678e-05 1.373191785427e-03 0.0 
0.0 0.0 -2.711111111111e-04 
-2.883630037996e-04 -4.409517578428e-05 0.0 
-4.409517578428e-05 1.683198481667e-03 0.0 
0.0 0.0 -2.488888888889e-04 
-3.254151180985e-04 -5.545209315080e-05 0.0 
-5.545209315080e-05 1.373095522970e-03 0.0 
0.0 0.0 -2.711111111111e-04 
-2.869187515810e-04 -4.759890393832e-05 0.0 
-4.759890393832e-05 1.682613264279e-03 0.0 
0.0 0.0 -2.488888888889e-04 
-3.257031917389e-04 -5.972681323178e-05 0.0 
-5.972681323178e-05 1.372798579125e-03 0.0 
0.0 0.0 -2.711111111111e-04 
-2.853836084500e-04 -5.016125214612e-05 0.0 
-5.016125214612e-05 1.681711994663e-03 0.0 
0.0 0.0 -2.488888888889e-04 
-3.261227584480e-04 -6.291964668725e-05 0.0 
-6.291964668725e-05 1.372375856526e-03 0.0 
0.0 0.0 -2.711111111111e-04 
-2.839143398263e-04 -5.151108192776e-05 0.0 
-5.151108192776e-05 1.680553878395e-03 0.0 
0.0 0.0 -2.488888888889e-04 
-5.376302160352e-04 3.676870752292e-04 0.0 
3.676870752292e-04 1.634100272328e-03 0.0 
0.0 0.0 -2.581395122151e-04 
-3.268375609068e-04 -6.469886553588e-05 0.0 
-6.469886553588e-05 1.371913930166e-03 0.0 
0.0 0.0 -2.711111111111e-04 
-2.826817270674e-04 -5.132346130166e-05 0.0 
-5.132346130166e-05 1.679214132172e-03 0.0 
0.0 0.0 -2.488888888889e-04 
-3.279874699837e-04 -6.465677529104e-05 0.0 
-6.465677529104e-05 1.371505513672e-03 0.0 
0.0 0.0 -2.711111111111e-04 
-4.430031296563e-04 4.286076278821e-04 0.0 
4.286076278821e-04 1.401460279639e-03 0.0 
0.0 0.0 -2.711111111111e-04 
-2.818901623705e-04 -4.919394600659e-05 0.0 
-4.919394600659e-05 1.677776825315e-03 0.0 
0.0 0.0 -2.488888888889e-04 
-3.297313591709e-04 -6.221404717026e-05 0.0 
-6.221404717026e-05 1.371311311535e-03 0.0 
0.0 0.0 -2.711111111111e-04 
-2.818451631723e-04 -4.478135297260e-05 0.0 
-4.478135297260e-05 1.676460250739e-03 0.0 
0.0 0.0 -2.488888888889e-04 
-3.326316221874e-04 -5.721256738290e-05 0.0 
-5.721256738290e-05 1.371518769163e-03 0.0 
0.0 0.0 -2.711111111111e-04 
-2.828313720213e-04 -3.779681966187e-05 0.0 
-3.779681966187e-05 1.675403564516e-03 0.0 
0.0 0.0 -2.488888888889e-04 
-4.059827130491e-04 5.128188739634e-04 0.0 
5.128188739634e-04 1.447928969661e-03 0.0 
0.0 0.0 -2.359172899929e-04 
-3.367560482028e-04 -4.920587402124e-05 0.0 
-4.920587402124e-05 1.372225012167e-03 0.0 
0.0 0.0 -2.711111111111e-04 
-2.851942336816e-04 -2.793992133343e-05 0.0 
-2.793992133343e-05 1.674760364641e-03 0.0 
0.0 0.0 -2.488888888889e-04 
-3.429661620733e-04 -3.842115182948e-05 0.0 
-3.842115182948e-05 1.373431633602e-03 0.0 
0.0 0.0 -2.711111111111e-04 
-2.890754570644e-04 -1.445213534676e-05 0.0 
-1.445213534676e-05 1.674169463168e-03 0.0 
0.0 0.0 -2.488888888889e-04 
-3.500116600226e-04 -2.243813506759e-05 0.0 
-2.243813506759e-05 1.375221853135e-03 0.0 
0.0 0.0 -2.711111111111e-04 
-2.953159081427e-04 3.344893535129e-06 0.0 
3.344893535129e-06 1.674433168629e-03 0.0 
0.0 0.0 -2.488888888889e-04 
-3.612701041623e-04 -3.476308475759e-06 0.0 
-3.476308475759e-06 1.377558106542e-03 0.0 
0.0 0.0 -2.711111111111e-04 
-3.036541859790e-04 2.777348823242e-05 0.0 
2.777348823242e-05 1.673611019722e-03 0.0 
0.0 0.0 -2.488888888889e-04 
-3.712585986873e-04 2.741593658551e-05 0.0 
2.741593658551e-05 1.380550073854e-03 0.0 
0.0 0.0 -2.711111111111e-04 
-3.165970587671e-04 5.927969329141e-05 0.0 
5.927969329141e-05 1.675687817617e-03 0.0 
0.0 0.0 -2.488888888889e-04 
-3.919160560217e-04 5.753298666299e-05 0.0 
5.753298666299e-05 1.383609464570e-03 0.0 
0.0 0.0 -2.711111111111e-04 
-4.845532836930e-04 6.361611629006e-04 0.0 
6.361611629006e-04 1.559816627148e-03 0.0 
0.0 0.0 -2.692506233262e-04 
-4.015567445774e-04 1.254721392100e-04 0.0 
1.254721392100e-04 1.388599622368e-03 0.0 
0.0 0.0 -2.711111111111e-04 
-3.313549377398e-04 1.053449586166e-04 0.0 
1.053449586166e-04 1.670659921373e-03 0.0 
0.0 0.0 -2.488888888889e-04 
-4.451618937031e-04 1.587275490449e-04 0.0 
1.587275490449e-04 1.390823225084e-03 0.0 
0.0 0.0 -2.711111111111e-04 
-3.585379161073e-04 1.611644823792e-04 0.0 
1.611644823792e-04 1.681904763770e-03 0.0 
0.0 0.0 -2.488888888889e-04 
-4.183460080304e-04 3.207061591643e-04 0.0 
3.207061591643e-04 1.388074283355e-03 0.0 
0.0 0.0 -2.711111111111e-04 
-3.792207315119e-04 2.510172866857e-04 0.0 
2.510172866857e-04 1.655063246402e-03 0.0 
0.0 0.0 -2.488888888889e-04 
-4.335703981462e-04 3.699863634296e-04 0.0 
3.699863634296e-04 1.684714290038e-03 0.0 
0.0 0.0 -2.488888888889e-04 
-4.316907614535e-04 5.168045558219e-04 0.0 
5.168045558219e-04 1.304541632207e-03 0.0 
0.0 0.0 -2.470284011040e-04 
-3.668442042028e-04 -3.673170135593e-04 0.0 
-3.673170135593e-04 1.584542391469e-03 0.0 
0.0 0.0 -2.600000000000e-04 
-2.602062413331e-04 3.537454734861e-04 0.0 
3.537454734861e-04 1.393329098535e-03 0.0 
0.0 0.0 -2.600000000000e-04 
-3.402634464058e-04 -4.194673100763e-05 0.0 
-4.194673100763e-05 1.545600451328e-03 0.0 
0.0 0.0 -2.822222222222e-04 
-2.856529798592e-04 3.840190014896e-05 0.0 
3.840190014896e-05 1.441014104028e-03 0.0 
0.0 0.0 -2.377777777778e-04 
-4.405270692946e-04 6.801827816630e-04 0.0 
6.801827816630e-04 1.355982589248e-03 0.0 
0.0 0.0 -2.451177686753e-04 
-4.033215092896e-04 -7.778614931741e-05 0.0 
-7.778614931741e-05 1.971836168127e-03 0.0 
0.0 0.0 -3.377777777778e-04 
-3.699382231426e-04 4.376721251435e-05 0.0 
4.376721251435e-05 2.156467211136e-03 0.0 
0.0 0.0 -3.155555555556e-04 
-4.016272998768e-04 -1.845288611326e-05 0.0 
-1.845288611326e-05 1.842668774100e-03 0.0 
0.0 0.0 -3.377777777778e-04 
-3.684935161298e-04 -1.993514923582e-05 0.0 
-1.993514923582e-05 2.145630754397e-03 0.0 
0.0 0.0 -3.155555555556e-04 
-4.011855839344e-04 -2.170328035969e-05 0.0 
-2.170328035969e-05 1.834448861866e-03 0.0 
0.0 0.0 -3.377777777778e-04 
-3.683179465484e-04 -3.056747774146e-05 0.0 
-3.056747774146e-05 2.144778837340e-03 0.0 
0.0 0.0 -3.155555555556e-04 
-4.018211954014e-04 -2.780572956267e-05 0.0 
-2.780572956267e-05 1.833993179013e-03 0.0 
0.0 0.0 -3.377777777778e-04 
-3.686742478415e-04 -3.749804252556e-05 0.0 
-3.749804252556e-05 2.145064232920e-03 0.0 
0.0 0.0 -3.155555555556e-04 
-4.030678757072e-04 -3.345880157567e-05 0.0 
-3.345880157567e-05 1.834535971790e-03 0.0 
0.0 0.0 -3.377777777778e-04 
-3.691522716313e-04 -4.346216221499e-05 0.0 
-4.346216221499e-05 2.145503780732e-03 0.0 
0.0 0.0 -3.155555555556e-04 
-4.045993123101e-04 -3.863070102539e-05 0.0 
-3.863070102539e-05 1.835247857122e-03 0.0 
0.0 0.0 -3.377777777778e-04 
-3.695638294507e-04 -4.875359068941e-05 0.0 
-4.875359068941e-05 2.145731130156e-03 0.0 
0.0 0.0 -3.155555555556e-04 
-4.062427089130e-04 -4.320299965925e-05 0.0 
-4.320299965925e-05 1.835799445565e-03 0.0 
0.0 0.0 -3.377777777778e-04 
-3.698595625429e-04 -5.325599390528e-05 0.0 
-5.325599390528e-05 2.145551511058e-03 0.0 
0.0 0.0 -3.155555555556e-04 
-4.078831686855e-04 -4.670032855598e-05 0.0 
-4.670032855598e-05 1.836058440315e-03 0.0 
0.0 0.0 -3.377777777778e-04 
-3.701476361833e-04 -5.655748343099e-05 0.0 
-5.655748343099e-05 2.145061402005e-03 0.0 
0.0 0.0 -3.155555555556e-04 
-4.097865858263e-04 -4.883766509846e-05 0.0 
-4.883766509846e-05 1.836127398507e-03 0.0 
0.0 0.0 -3.377777777778e-04 
-3.705672028925e-04 -5.837184754707e-05 0.0 
-5.837184754707e-05 2.144289684407e-03 0.0 
0.0 0.0 -3.155555555556e-04 
-5.653935967421e-04 2.589038202600e-04 0.0 
2.589038202600e-04 2.091415995100e-03 0.0 
0.0 0.0 -3.249092970522e-04 
-4.121128011224e-04 -4.928328914799e-05 0.0 
-4.928328914799e-05 1.836067549886e-03 0.0 
0.0 0.0 -3.377777777778e-04 
-3.712820053512e-04 -5.834505686051e-05 0.0 
-5.834505686051e-05 2.143300562424e-03 0.0 
0.0 0.0 -3.155555555556e-04 
-4.149822806298e-04 -4.778386138389e-05 0.0 
-4.778386138389e-05 1.835943141923e-03 0.0 
0.0 0.0 -3.377777777778e-04 
-4.499219717492e-04 4.087873195919e-04 0.0 
4.087873195919e-04 1.908948706133e-03 0.0 
0.0 0.0 -3.026870748299e-04 
-3.724319144282e-04 -5.606781584101e-05 0.0 
-5.606781584101e-05 2.142071630317e-03 0.0 
0.0 0.0 -3.155555555556e-04 
-4.827616455878e-04 3.472560296512e-04 0.0 
3.472560296512e-04 1.843206052276e-03 0.0 
0.0 0.0 -3.377777777778e-04 
-4.183491724233e-04 -4.389120914971e-05 0.0 
-4.389120914971e-05 1.835749541912e-03 0.0 
0.0 0.0 -3.377777777778e-04 
-3.741758036154e-04 -5.083009705685e-05 0.0 
-5.083009705685e-05 2.140541387055e-03 0.0 
0.0 0.0 -3.155555555556e-04 
-4.222392951633e-04 -3.615193688630e-05 0.0 
-3.615193688630e-05 1.835642333740e-03 0.0 
0.0 0.0 -3.377777777778e-04 
-3.770760666319e-04 -4.180068680568e-05 0.0 
-4.180068680568e-05 2.139581124162e-03 0.0 
0.0 0.0 -3.155555555556e-04 
-4.278559952098e-04 -2.552535737092e-05 0.0 
-2.552535737092e-05 1.836068605962e-03 0.0 
0.0 0.0 -3.377777777778e-04 
-3.812004926473e-04 -2.896900661336e-05 0.0 
-2.896900661336e-05 2.138403848176e-03 0.0 
0.0 0.0 -3.155555555556e-04 
-4.347234955002e-04 -9.637769040496e-06 0.0 
-9.637769040496e-06 1.836924698108e-03 0.0 
0.0 0.0 -3.377777777778e-04 
-3.874106065177e-04 -1.167986006356e-05 0.0 
-1.167986006356e-05 2.138695774024e-03 0.0 
0.0 0.0 -3.155555555556e-04 
-4.895249511417e-04 4.886018197501e-04 0.0 
4.886018197501e-04 2.001115148190e-03 0.0 
0.0 0.0 -3.360204081633e-04 
-4.442787057398e-04 6.686297430374e-06 0.0 
6.686297430374e-06 1.838164453285e-03 0.0 
0.0 0.0 -3.377777777778e-04 
-3.944561044670e-04 1.065381348907e-05 0.0 
1.065381348907e-05 2.135804588402e-03 0.0 
0.0 0.0 -3.155555555556e-04 
-4.522783493514e-04 3.639854830083e-05 0.0 
3.639854830083e-05 1.839070031720e-03 0.0 
0.0 0.0 -3.377777777778e-04 
-4.057145486068e-04 4.085282605461e-05 0.0 
4.085282605461e-05 2.138451035408e-03 0.0 
0.0 0.0 -3.155555555556e-04 
-4.157030431317e-04 7.985792585969e-05 0.0 
7.985792585969e-05 2.128672667394e-03 0.0 
0.0 0.0 -3.155555555556e-04 
-4.676008918457e-04 5.850290515757e-05 0.0 
5.850290515757e-05 1.840319811209e-03 0.0 
0.0 0.0 -3.377777777778e-04 
-4.363605004662e-04 1.324986197952e-04 0.0 
1.324986197952e-04 2.139391523019e-03 0.0 
0.0 0.0 -3.155555555556e-04 
-4.723537878857e-04 1.197226175932e-04 0.0 
1.197226175932e-04 1.839901082374e-03 0.0 
0.0 0.0 -3.377777777778e-04 
-4.460011890219e-04 2.052865052064e-04 0.0 
2.052865052064e-04 2.103272782201e-03 0.0 
0.0 0.0 -3.155555555556e-04 
-4.896063381476e-04 3.095411054930e-04 0.0 
3.095411054930e-04 2.142928166934e-03 0.0 
0.0 0.0 -3.155555555556e-04 
-5.032944312987e-04 1.379640868204e-04 0.0 
1.379640868204e-04 1.839108820748e-03 0.0 
0.0 0.0 -3.377777777778e-04 
-4.654683285949e-04 2.891122881816e-04 0.0 
2.891122881816e-04 1.829855770762e-03 0.0 
0.0 0.0 -3.377777777778e-04 
-4.437359018442e-04 4.016271209655e-04 0.0 
4.016271209655e-04 1.738543147369e-03 0.0 
0.0 0.0 -3.137981859410e-04 
-3.355107645077e-04 -3.692127132912e-04 0.0 
-3.692127132912e-04 1.948567742905e-03 0.0 
0.0 0.0 -3.266666666667e-04 
-4.405370571709e-04 3.529927589174e-04 0.0 
3.529927589174e-04 2.136779321243e-03 0.0 
0.0 0.0 -3.266666666667e-04 
-3.624856686281e-04 -4.168356858480e-05 0.0 
-4.168356858480e-05 1.986351279017e-03 0.0 
0.0 0.0 -3.044444444444e-04 
-4.148028011910e-04 3.671549554757e-05 0.0 
3.671549554757e-05 2.089175803146e-03 0.0 
0.0 0.0 -3.488888888889e-04 
-4.763364629896e-04 5.270582126101e-04 0.0 
5.270582126101e-04 1.817268558159e-03 0.0 
0.0 0.0 -3.044444444444e-04 
-4.477659537340e-04 -7.950766361317e-05 0.0 
-7.950766361317e-05 2.497018706570e-03 0.0 
0.0 0.0 -3.822222222222e-04 
-4.784277234196e-04 3.924857303742e-05 0.0 
3.924857303742e-05 2.307222145021e-03 0.0 
0.0 0.0 -4.044444444444e-04 
-4.460717443213e-04 -1.760020650506e-05 0.0 
-1.760020650506e-05 2.620785785757e-03 0.0 
0.0 0.0 -3.822222222222e-04 
-4.776693350914e-04 -2.066498720173e-05 0.0 
-2.066498720173e-05 2.315002141673e-03 0.0 
0.0 0.0 -4.044444444444e-04 
-4.456300283789e-04 -1.937202289743e-05 0.0 
-1.937202289743e-05 2.625987173940e-03 0.0 
0.0 0.0 -3.822222222222e-04 
-4.779872738303e-04 -2.822274065139e-05 0.0 
-2.822274065139e-05 2.315244018536e-03 0.0 
0.0 0.0 -4.044444444444e-04 
-4.462656398459e-04 -2.485353904084e-05 0.0 
-2.485353904084e-05 2.625990326394e-03 0.0 
0.0 0.0 -3.822222222222e-04 
-4.792475399562e-04 -3.342896736660e-05 0.0 
-3.342896736660e-05 2.315783639058e-03 0.0 
0.0 0.0 -4.044444444444e-04 
-4.475123201517e-04 -3.007054614652e-05 0.0 
-3.007054614652e-05 2.626417310746e-03 0.0 
0.0 0.0 -3.822222222222e-04 
-4.811666376616e-04 -3.852533363394e-05 0.0 
-3.852533363394e-05 2.316598516972e-03 0.0 
0.0 0.0 -4.044444444444e-04 
-4.490437567545e-04 -3.458165382954e-05 0.0 
-3.458165382954e-05 2.627026792857e-03 0.0 
0.0 0.0 -3.822222222222e-04 
-4.837308784237e-04 -4.337502502547e-05 0.0 
-4.337502502547e-05 2.317420315081e-03 0.0 
0.0 0.0 -4.044444444444e-04 
-4.506871533574e-04 -3.830542708958e-05 0.0 
-3.830542708958e-05 2.627509373180e-03 0.0 
0.0 0.0 -3.822222222222e-04 
-4.863200757723e-04 -4.765112576718e-05 0.0 
-4.765112576718e-05 2.317829627755e-03 0.0 
0.0 0.0 -4.044444444444e-04 
-4.523276131299e-04 -4.048193732763e-05 0.0 
-4.048193732763e-05 2.627337923777e-03 0.0 
0.0 0.0 -3.822222222222e-04 
-4.889760674818e-04 -4.992492022024e-05 0.0 
-4.992492022024e-05 2.317964787574e-03 0.0 
0.0 0.0 -4.044444444444e-04 
-4.542310302707e-04 -4.078738031685e-05 0.0 
-4.078738031685e-05 2.626808748623e-03 0.0 
0.0 0.0 -3.822222222222e-04 
-6.056480292920e-04 1.728310757190e-04 0.0 
1.728310757190e-04 2.555848462997e-03 0.0 
0.0 0.0 -3.914586414276e-04 
-4.922399223678e-04 -5.021620544214e-05 0.0 
-5.021620544214e-05 2.317987519249e-03 0.0 
0.0 0.0 -4.044444444444e-04 
-4.565572455669e-04 -3.901111557492e-05 0.0 
-3.901111557492e-05 2.626026613918e-03 0.0 
0.0 0.0 -3.822222222222e-04 
-5.228769148866e-04 2.808757779245e-04 0.0 
2.808757779245e-04 2.304765565320e-03 0.0 
0.0 0.0 -4.044444444444e-04 
-4.963590350670e-04 -4.831763838805e-05 0.0 
-4.831763838805e-05 2.318011659797e-03 0.0 
0.0 0.0 -4.044444444444e-04 
-4.594267250742e-04 -3.511032177588e-05 0.0 
-3.511032177588e-05 2.625123327231e-03 0.0 
0.0 0.0 -3.822222222222e-04 
-5.009386741324e-04 -4.422694573305e-05 0.0 
-4.422694573305e-05 2.317812085855e-03 0.0 
0.0 0.0 -4.044444444444e-04 
-4.627936168678e-04 -2.842261320259e-05 0.0 
-2.842261320259e-05 2.623716732034e-03 0.0 
0.0 0.0 -3.822222222222e-04 
-5.056117799861e-04 -3.698061845559e-05 0.0 
-3.698061845559e-05 2.317065889197e-03 0.0 
0.0 0.0 -4.044444444444e-04 
-4.969269700224e-04 3.515730528913e-04 0.0 
3.515730528913e-04 2.377160801008e-03 0.0 
0.0 0.0 -3.692364192054e-04 
-4.666837396077e-04 -1.712937022343e-05 0.0 
-1.712937022343e-05 2.621232610088e-03 0.0 
0.0 0.0 -3.822222222222e-04 
-5.100907895199e-04 -2.260058306738e-05 0.0 
-2.260058306738e-05 2.316567452783e-03 0.0 
0.0 0.0 -4.044444444444e-04 
-4.723004396542e-04 -1.327751191981e-06 0.0 
-1.327751191981e-06 2.619762185472e-03 0.0 
0.0 0.0 -3.822222222222e-04 
-5.187011541432e-04 -5.611483876821e-06 0.0 
-5.611483876821e-06 2.316745085829e-03 0.0 
0.0 0.0 -4.044444444444e-04 
-4.791679399447e-04 1.929342974835e-05 0.0 
1.929342974835e-05 2.617894304883e-03 0.0 
0.0 0.0 -3.822222222222e-04 
-5.254608326116e-04 1.982980625916e-05 0.0 
1.982980625916e-05 2.317371002369e-03 0.0 
0.0 0.0 -4.044444444444e-04 
-4.887231501843e-04 4.328459530924e-05 0.0 
4.328459530924e-05 2.618567802256e-03 0.0 
0.0 0.0 -3.822222222222e-04 
-5.405598583973e-04 3.929786731890e-05 0.0 
3.929786731890e-05 2.316713537828e-03 0.0 
0.0 0.0 -4.044444444444e-04 
-4.967227937958e-04 7.689551929933e-05 0.0 
7.689551929933e-05 2.610977742846e-03 0.0 
0.0 0.0 -3.822222222222e-04 
-5.395854524473e-04 9.022698348543e-05 0.0 
9.022698348543e-05 2.315628932318e-03 0.0 
0.0 0.0 -4.044444444444e-04 
-5.147397320452e-04 3.920748264294e-04 0.0 
3.920748264294e-04 2.461392887946e-03 0.0 
0.0 0.0 -4.025697525387e-04 
-5.673385880599e-04 1.040653775258e-04 0.0 
1.040653775258e-04 2.310397031327e-03 0.0 
0.0 0.0 -4.044444444444e-04 
-5.120453362902e-04 1.146925732443e-04 0.0 
1.146925732443e-04 2.616352280690e-03 0.0 
0.0 0.0 -3.822222222222e-04 
-5.260367371211e-04 2.288711912235e-04 0.0 
2.288711912235e-04 2.301155937859e-03 0.0 
0.0 0.0 -4.044444444444e-04 
-5.167982323301e-04 1.764431880484e-04 0.0 
1.764431880484e-04 2.586781747074e-03 0.0 
0.0 0.0 -3.822222222222e-04 
-5.477388757432e-04 2.483443472200e-04 0.0 
2.483443472200e-04 2.612103741230e-03 0.0 
0.0 0.0 -3.822222222222e-04 
-4.714062865373e-04 3.406357459183e-04 0.0 
3.406357459183e-04 2.189922889939e-03 0.0 
0.0 0.0 -3.803475303165e-04 
-5.175702617414e-04 -3.703955333214e-04 0.0 
-3.703955333214e-04 2.521693289409e-03 0.0 
0.0 0.0 -3.933333333333e-04 
-4.117702287809e-04 3.510487114528e-04 0.0 
3.510487114528e-04 2.332080967614e-03 0.0 
0.0 0.0 -3.933333333333e-04 
-4.910475754552e-04 -4.353211321374e-05 0.0 
-4.353211321374e-05 2.483691270875e-03 0.0 
0.0 0.0 -4.155555555556e-04 
-4.370250234133e-04 3.548953741690e-05 0.0 
3.548953741690e-05 2.379928122617e-03 0.0 
0.0 0.0 -3.711111111111e-04 
-5.160949789211e-04 4.252800565549e-04 0.0 
4.252800565549e-04 2.291829436572e-03 0.0 
0.0 0.0 -3.711111111111e-04 
-5.545130018070e-04 -8.178037886237e-05 0.0 
-8.178037886237e-05 2.909623846630e-03 0.0 
0.0 0.0 -4.711111111111e-04 
-5.228721678640e-04 4.028587622300e-05 0.0 
4.028587622300e-05 3.096271718330e-03 0.0 
0.0 0.0 -4.488888888889e-04 
-5.533691474050e-04 -1.923275015253e-05 0.0 
-1.923275015253e-05 2.782205362795e-03 0.0 
0.0 0.0 -4.711111111111e-04 
-5.221137795359e-04 -1.919255201181e-05 0.0 
-1.919255201181e-05 3.085550305381e-03 0.0 
0.0 0.0 -4.488888888889e-04 
-5.530109392803e-04 -1.824425838804e-05 0.0 
-1.824425838804e-05 2.774559112815e-03 0.0 
0.0 0.0 -4.711111111111e-04 
-5.224317182748e-04 -2.502826317864e-05 0.0 
-2.502826317864e-05 3.085006659223e-03 0.0 
0.0 0.0 -4.488888888889e-04 
-5.547362962008e-04 -2.086138494889e-05 0.0 
-2.086138494889e-05 2.774413059491e-03 0.0 
0.0 0.0 -4.711111111111e-04 
-5.236919844007e-04 -2.854587035644e-05 0.0 
-2.854587035644e-05 3.085493683001e-03 0.0 
0.0 0.0 -4.488888888889e-04 
-5.568332374198e-04 -2.401854184227e-05 0.0 
-2.401854184227e-05 2.775119097809e-03 0.0 
0.0 0.0 -4.711111111111e-04 
-5.256110821061e-04 -3.168208470033e-05 0.0 
-3.168208470033e-05 3.086241768691e-03 0.0 
0.0 0.0 -4.488888888889e-04 
-5.598758616072e-04 -2.649602084230e-05 0.0 
-2.649602084230e-05 2.776179524696e-03 0.0 
0.0 0.0 -4.711111111111e-04 
-5.281753228681e-04 -3.429831362401e-05 0.0 
-3.429831362401e-05 3.087276348172e-03 0.0 
0.0 0.0 -4.488888888889e-04 
-5.637335880510e-04 -2.986966676234e-05 0.0 
-2.986966676234e-05 2.777348666577e-03 0.0 
0.0 0.0 -4.711111111111e-04 
-5.307645202168e-04 -3.678054343318e-05 0.0 
-3.678054343318e-05 3.087110497831e-03 0.0 
0.0 0.0 -4.488888888889e-04 
-5.672516091013e-04 -3.170316921858e-05 0.0 
-3.170316921858e-05 2.777585456228e-03 0.0 
0.0 0.0 -4.711111111111e-04 
-5.334205119262e-04 -3.725348252055e-05 0.0 
-3.725348252055e-05 3.086025479628e-03 0.0 
0.0 0.0 -4.488888888889e-04 
-6.732559192872e-04 1.069454178643e-04 0.0 
1.069454178643e-04 3.029509612801e-03 0.0 
0.0 0.0 -4.582426303855e-04 
-5.702546095882e-04 -3.020263056991e-05 0.0 
-3.020263056991e-05 2.777240536398e-03 0.0 
0.0 0.0 -4.711111111111e-04 
-5.366843668123e-04 -3.453855403530e-05 0.0 
-3.453855403530e-05 3.085220328545e-03 0.0 
0.0 0.0 -4.488888888889e-04 
-5.576127008399e-04 2.593782929634e-04 0.0 
2.593782929634e-04 2.842420570206e-03 0.0 
0.0 0.0 -4.360204081633e-04 
-5.755921041128e-04 -2.584209849049e-05 0.0 
-2.584209849049e-05 2.777326176010e-03 0.0 
0.0 0.0 -4.711111111111e-04 
-5.408034795114e-04 -2.962006398500e-05 0.0 
-2.962006398500e-05 3.084571096852e-03 0.0 
0.0 0.0 -4.488888888889e-04 
-5.797090102450e-04 2.287706001101e-04 0.0 
2.287706001101e-04 2.761834444076e-03 0.0 
0.0 0.0 -4.711111111111e-04 
-5.815224328378e-04 -2.044759247011e-05 0.0 
-2.044759247011e-05 2.777381230694e-03 0.0 
0.0 0.0 -4.711111111111e-04 
-5.453831185768e-04 -2.258268294197e-05 0.0 
-2.258268294197e-05 3.083167530034e-03 0.0 
0.0 0.0 -4.488888888889e-04 
-5.869514963865e-04 -1.328471433010e-05 0.0 
-1.328471433010e-05 2.776586963506e-03 0.0 
0.0 0.0 -4.711111111111e-04 
-5.500562244305e-04 -1.211537895153e-05 0.0 
-1.211537895153e-05 3.080223364949e-03 0.0 
0.0 0.0 -4.488888888889e-04 
-5.924946390174e-04 -2.438932199996e-06 0.0 
-2.438932199996e-06 2.774392434348e-03 0.0 
0.0 0.0 -4.711111111111e-04 
-5.545352339644e-04 4.923705994677e-06 0.0 
4.923705994677e-06 3.074068870883e-03 0.0 
0.0 0.0 -4.488888888889e-04 
-5.832002113227e-04 3.084013380276e-04 0.0 
3.084013380276e-04 2.928576946329e-03 0.0 
0.0 0.0 -4.693537414966e-04 
-5.957418463706e-04 2.457513506605e-05 0.0 
2.457513506605e-05 2.772161347741e-03 0.0 
0.0 0.0 -4.711111111111e-04 
-5.631455985877e-04 2.981682976181e-05 0.0 
2.981682976181e-05 3.075944045931e-03 0.0 
0.0 0.0 -4.488888888889e-04 
-6.088382110079e-04 4.080604098374e-05 0.0 
4.080604098374e-05 2.772254412647e-03 0.0 
0.0 0.0 -4.711111111111e-04 
-5.699052770561e-04 5.777344855823e-05 0.0 
5.777344855823e-05 3.067169222988e-03 0.0 
0.0 0.0 -4.488888888889e-04 
-5.850043028418e-04 9.074123042683e-05 0.0 
9.074123042683e-05 3.079028566329e-03 0.0 
0.0 0.0 -4.488888888889e-04 
-6.115132190535e-04 8.765179825616e-05 0.0 
8.765179825616e-05 2.771111166917e-03 0.0 
0.0 0.0 -4.711111111111e-04 
-5.840298968917e-04 1.336949722933e-04 0.0 
1.336949722933e-04 3.039780976699e-03 0.0 
0.0 0.0 -4.488888888889e-04 
-6.359355392830e-04 7.860855074454e-05 0.0 
7.860855074454e-05 2.767946632045e-03 0.0 
0.0 0.0 -4.711111111111e-04 
-6.117830325044e-04 2.038036979565e-04 0.0 
2.038036979565e-04 3.073336866825e-03 0.0 
0.0 0.0 -4.488888888889e-04 
-5.855262073870e-04 1.964620808073e-04 0.0 
1.964620808073e-04 2.752718067293e-03 0.0 
0.0 0.0 -4.711111111111e-04 
-5.381153397062e-04 2.290411015667e-04 0.0 
2.290411015667e-04 2.647470749537e-03 0.0 
0.0 0.0 -4.471315192744e-04 
-4.856995794812e-04 -3.712445804859e-04 0.0 
-3.712445804859e-04 2.886533165746e-03 0.0 
0.0 0.0 -4.600000000000e-04 
-5.915156838414e-04 3.511510416328e-04 0.0 
3.511510416328e-04 3.076032758812e-03 0.0 
0.0 0.0 -4.600000000000e-04 
-5.132697976774e-04 -4.266972038985e-05 0.0 
-4.266972038985e-05 2.924617726937e-03 0.0 
0.0 0.0 -4.377777777778e-04 
-5.653819698478e-04 3.554715819272e-05 0.0 
3.554715819272e-05 3.026667072190e-03 0.0 
0.0 0.0 -4.822222222222e-04 
-5.562102482200e-04 3.031448983604e-04 0.0 
3.031448983604e-04 2.748233394595e-03 0.0 
0.0 0.0 -4.377777777778e-04 
-5.989574462514e-04 -8.267193208917e-05 0.0 
-8.267193208917e-05 3.437613023720e-03 0.0 
0.0 0.0 -5.155555555556e-04 
-6.287787412402e-04 3.729317259218e-05 0.0 
3.729317259218e-05 3.247326925229e-03 0.0 
0.0 0.0 -5.377777777778e-04 
-5.978135918495e-04 -1.841914986540e-05 0.0 
-1.841914986540e-05 3.561201795145e-03 0.0 
0.0 0.0 -5.155555555556e-04 
-6.254961344599e-04 -1.930049853369e-05 0.0 
-1.930049853369e-05 3.253947423147e-03 0.0 
0.0 0.0 -5.377777777778e-04 
-5.974553837247e-04 -1.391156406088e-05 0.0 
-1.391156406088e-05 3.564621634950e-03 0.0 
0.0 0.0 -5.155555555556e-04 
-6.279936331018e-04 -1.935706142364e-05 0.0 
-1.935706142364e-05 3.255345558208e-03 0.0 
0.0 0.0 -5.377777777778e-04 
-5.991807406452e-04 -1.614264760927e-05 0.0 
-1.614264760927e-05 3.566069321236e-03 0.0 
0.0 0.0 -5.155555555556e-04 
-6.284144790130e-04 -2.147959664663e-05 0.0 
-2.147959664663e-05 3.255656571766e-03 0.0 
0.0 0.0 -5.377777777778e-04 
-6.012776818642e-04 -1.696499576587e-05 0.0 
-1.696499576587e-05 3.566126567533e-03 0.0 
0.0 0.0 -5.155555555556e-04 
-6.315481358764e-04 -2.174087039821e-05 0.0 
-2.174087039821e-05 3.256770810453e-03 0.0 
0.0 0.0 -5.377777777778e-04 
-6.043203060517e-04 -1.757798620874e-05 0.0 
-1.757798620874e-05 3.567144862765e-03 0.0 
0.0 0.0 -5.155555555556e-04 
-6.347436721796e-04 -2.174327211569e-05 0.0 
-2.174327211569e-05 3.258179294352e-03 0.0 
0.0 0.0 -5.377777777778e-04 
-6.081780324954e-04 -1.832425526294e-05 0.0 
-1.832425526294e-05 3.568559060354e-03 0.0 
0.0 0.0 -5.155555555556e-04 
-6.411680495803e-04 -2.482988994377e-05 0.0 
-2.482988994377e-05 3.259134830210e-03 0.0 
0.0 0.0 -5.377777777778e-04 
-6.116960535458e-04 -1.877149855027e-05 0.0 
-1.877149855027e-05 3.568744272090e-03 0.0 
0.0 0.0 -5.155555555556e-04 
-7.366276609701e-04 4.524951182865e-05 0.0 
4.524951182865e-05 3.507320200516e-03 0.0 
0.0 0.0 -5.247732426303e-04 
-6.420523831112e-04 -2.583218201805e-05 0.0 
-2.583218201805e-05 3.257046679515e-03 0.0 
0.0 0.0 -5.377777777778e-04 
-6.435781206746e-04 1.840534884814e-04 0.0 
1.840534884814e-04 3.241318968686e-03 0.0 
0.0 0.0 -5.377777777778e-04 
-6.146990540326e-04 -1.244484207344e-05 0.0 
-1.244484207344e-05 3.564885876854e-03 0.0 
0.0 0.0 -5.155555555556e-04 
-6.478721701654e-04 -1.639725233752e-05 0.0 
-1.639725233752e-05 3.256970335869e-03 0.0 
0.0 0.0 -5.377777777778e-04 
-6.200365485572e-04 -5.018436089581e-06 0.0 
-5.018436089581e-06 3.564885905457e-03 0.0 
0.0 0.0 -5.155555555556e-04 
-6.561429566816e-04 -9.551464893356e-06 0.0 
-9.551464893356e-06 3.257786223678e-03 0.0 
0.0 0.0 -5.377777777778e-04 
-6.259668772823e-04 2.319967205521e-06 0.0 
2.319967205521e-06 3.565031180513e-03 0.0 
0.0 0.0 -5.155555555556e-04 
-6.615288143992e-04 -3.165343597243e-06 0.0 
-3.165343597243e-06 3.256616812139e-03 0.0 
0.0 0.0 -5.377777777778e-04 
-6.169661166839e-04 2.164901621932e-04 0.0 
2.164901621932e-04 3.318852114050e-03 0.0 
0.0 0.0 -5.025510204081e-04 
-6.313959408309e-04 1.331766061821e-05 0.0 
1.331766061821e-05 3.562071063365e-03 0.0 
0.0 0.0 -5.155555555556e-04 
-6.676626850749e-04 8.412288321031e-06 0.0 
8.412288321031e-06 3.254047861299e-03 0.0 
0.0 0.0 -5.377777777778e-04 
-6.369390834618e-04 2.839501316983e-05 0.0 
2.839501316983e-05 3.557766628637e-03 0.0 
0.0 0.0 -5.155555555556e-04 
-6.757465811746e-04 2.011236031009e-05 0.0 
2.011236031009e-05 3.248279072062e-03 0.0 
0.0 0.0 -5.377777777778e-04 
-6.401862908150e-04 5.683403292324e-05 0.0 
5.683403292324e-05 3.544903684413e-03 0.0 
0.0 0.0 -5.155555555556e-04 
-6.710900969960e-04 7.145474225899e-05 0.0 
7.145474225899e-05 3.246321760371e-03 0.0 
0.0 0.0 -5.377777777778e-04 
-6.532826554523e-04 8.457965391973e-05 0.0 
8.457965391973e-05 3.553131858142e-03 0.0 
0.0 0.0 -5.155555555556e-04 
-7.020590348485e-04 7.312181654746e-05 0.0 
7.312181654746e-05 3.244705541191e-03 0.0 
0.0 0.0 -5.377777777778e-04 
-6.554115117610e-04 1.658740749447e-04 0.0 
1.658740749447e-04 3.237354480524e-03 0.0 
0.0 0.0 -5.377777777778e-04 
-6.559576634980e-04 1.237219721845e-04 0.0 
1.237219721845e-04 3.531755926188e-03 0.0 
0.0 0.0 -5.155555555556e-04 
-6.411111436525e-04 2.481500458011e-04 0.0 
2.481500458011e-04 3.407080026122e-03 0.0 
0.0 0.0 -5.358843537414e-04 
-6.803799837275e-04 1.624927648151e-04 0.0 
1.624927648151e-04 3.558426467577e-03 0.0 
0.0 0.0 -5.155555555556e-04 
-5.945151412269e-04 1.812873307433e-04 0.0 
1.812873307433e-04 3.113616278940e-03 0.0 
0.0 0.0 -5.136621315192e-04 
-6.672833179301e-04 -3.706793032750e-04 0.0 
-3.706793032750e-04 3.459056007774e-03 0.0 
0.0 0.0 -5.266666666667e-04 
-5.623773213514e-04 3.513666038768e-04 0.0 
3.513666038768e-04 3.271176697744e-03 0.0 
0.0 0.0 -5.266666666667e-04 
-6.406200246206e-04 -4.190627532401e-05 0.0 
-4.190627532401e-05 3.422026805713e-03 0.0 
0.0 0.0 -5.488888888889e-04 
-5.876041920701e-04 3.555034108668e-05 0.0 
3.555034108668e-05 3.319473246611e-03 0.0 
0.0 0.0 -5.044444444444e-04 
-6.130423435783e-04 2.369057836334e-04 0.0 
2.369057836334e-04 3.223253934296e-03 0.0 
0.0 0.0 -5.044444444444e-04 
-7.120623447180e-04 -8.888228388160e-05 0.0 
-8.888228388160e-05 3.852748437753e-03 0.0 
0.0 0.0 -6.044444444444e-04 
-6.732231856846e-04 3.548631982699e-05 0.0 
3.548631982699e-05 4.032087244247e-03 0.0 
0.0 0.0 -5.822222222222e-04 
-6.955393523700e-04 -2.756019485512e-05 0.0 
-2.756019485512e-05 3.717267839696e-03 0.0 
0.0 0.0 -6.044444444444e-04 
-6.699405789043e-04 -1.870355497797e-05 0.0 
-1.870355497797e-05 4.017496801865e-03 0.0 
0.0 0.0 -5.822222222222e-04 
-6.969243199369e-04 -6.918496173234e-06 0.0 
-6.918496173234e-06 3.707462619531e-03 0.0 
0.0 0.0 -6.044444444444e-04 
-6.724380775462e-04 -1.325710265715e-05 0.0 
-1.325710265715e-05 4.022403973257e-03 0.0 
0.0 0.0 -5.822222222222e-04 
-7.031503284102e-04 -1.402242021930e-05 0.0 
-1.402242021930e-05 3.711320333832e-03 0.0 
0.0 0.0 -6.044444444444e-04 
-6.728589234574e-04 -1.646685933992e-05 0.0 
-1.646685933992e-05 4.018646007482e-03 0.0 
0.0 0.0 -5.822222222222e-04 
-6.992489626615e-04 -7.571363959488e-06 0.0 
-7.571363959488e-06 3.708933191906e-03 0.0 
0.0 0.0 -6.044444444444e-04 
-6.759925803209e-04 -1.073738973976e-05 0.0 
-1.073738973976e-05 4.021950250257e-03 0.0 
0.0 0.0 -5.822222222222e-04 
-7.070575680629e-04 -7.158521352799e-06 0.0 
-7.158521352799e-06 3.711746084396e-03 0.0 
0.0 0.0 -6.044444444444e-04 
-6.791881166240e-04 -9.268059005098e-06 0.0 
-9.268059005098e-06 4.020971144871e-03 0.0 
0.0 0.0 -5.822222222222e-04 
-7.076120858666e-04 1.215276486099e-06 0.0 
1.215276486099e-06 3.712281244356e-03 0.0 
0.0 0.0 -6.044444444444e-04 
-7.999876507941e-04 1.388374683100e-05 0.0 
1.388374683100e-05 3.980152954303e-03 0.0 
0.0 0.0 -5.915759637188e-04 
-6.856124940247e-04 -4.086926393719e-06 0.0 
-4.086926393719e-06 4.027577169899e-03 0.0 
0.0 0.0 -5.822222222222e-04 
-7.178528616705e-04 -1.309284787321e-05 0.0 
-1.309284787321e-05 3.714901656250e-03 0.0 
0.0 0.0 -6.044444444444e-04 
-6.869874754798e-04 1.711534318409e-04 0.0 
1.711534318409e-04 3.792214840593e-03 0.0 
0.0 0.0 -5.693537414966e-04 
-6.864968275557e-04 -6.408579358671e-06 0.0 
-6.408579358671e-06 4.016159600688e-03 0.0 
0.0 0.0 -5.822222222222e-04 
-7.178783193932e-04 5.819993202574e-06 0.0 
5.819993202574e-06 3.708927247396e-03 0.0 
0.0 0.0 -6.044444444444e-04 
-7.079394544223e-04 1.566312145644e-04 0.0 
1.566312145644e-04 3.702391321003e-03 0.0 
0.0 0.0 -6.044444444444e-04 
-6.923166146099e-04 7.612225445440e-06 0.0 
7.612225445440e-06 4.017109289765e-03 0.0 
0.0 0.0 -5.822222222222e-04 
-7.279989213735e-04 2.036390614473e-05 0.0 
2.036390614473e-05 3.710913040149e-03 0.0 
0.0 0.0 -6.044444444444e-04 
-7.005874011261e-04 1.845814163449e-05 0.0 
1.845814163449e-05 4.020938657480e-03 0.0 
0.0 0.0 -5.822222222222e-04 
-7.354917532623e-04 2.057235382585e-05 0.0 
2.057235382585e-05 3.711839010969e-03 0.0 
0.0 0.0 -6.044444444444e-04 
-7.059732588437e-04 2.754521474697e-05 0.0 
2.754521474697e-05 4.015383430286e-03 0.0 
0.0 0.0 -5.822222222222e-04 
-7.002855080047e-04 1.990014593216e-04 0.0 
1.990014593216e-04 3.872918840521e-03 0.0 
0.0 0.0 -6.026870748299e-04 
-7.379521818037e-04 3.377279504907e-05 0.0 
3.377279504907e-05 3.707685656258e-03 0.0 
0.0 0.0 -6.044444444444e-04 
-7.121071295194e-04 4.529492266530e-05 0.0 
4.529492266530e-05 4.010298093341e-03 0.0 
0.0 0.0 -5.822222222222e-04 
-7.201910256190e-04 6.322353710792e-05 0.0 
6.322353710792e-05 4.009272868238e-03 0.0 
0.0 0.0 -5.822222222222e-04 
-7.467651792935e-04 5.478281511635e-05 0.0 
5.478281511635e-05 3.704632746345e-03 0.0 
0.0 0.0 -6.044444444444e-04 
-7.155345414404e-04 9.941872455418e-05 0.0 
9.941872455418e-05 3.968551508246e-03 0.0 
0.0 0.0 -5.822222222222e-04 
-7.657386443158e-04 4.703626451468e-05 0.0 
4.703626451468e-05 3.695451234596e-03 0.0 
0.0 0.0 -6.044444444444e-04 
-7.465034792929e-04 1.491483542401e-04 0.0 
1.491483542401e-04 4.023442400313e-03 0.0 
0.0 0.0 -5.822222222222e-04 
-7.198395015582e-04 1.725743928124e-04 0.0 
1.725743928124e-04 3.686227600280e-03 0.0 
0.0 0.0 -6.044444444444e-04 
-6.565140853496e-04 1.301780499699e-04 0.0 
1.301780499699e-04 3.583317050774e-03 0.0 
0.0 0.0 -5.804648526077e-04 
-6.267004692735e-04 -3.600267132829e-04 0.0 
-3.600267132829e-04 3.813319755553e-03 0.0 
0.0 0.0 -5.933333333333e-04 
-7.431964593305e-04 3.646450588748e-04 0.0 
3.646450588748e-04 4.021679577105e-03 0.0 
0.0 0.0 -5.933333333333e-04 
-6.628422468428e-04 -3.292224140382e-05 0.0 
-3.292224140382e-05 3.861928425764e-03 0.0 
0.0 0.0 -5.711111111111e-04 
-7.088162572225e-04 5.311123185713e-05 0.0 
5.311123185713e-05 3.959617699405e-03 0.0 
0.0 0.0 -6.155555555556e-04 
-6.769114540080e-04 1.825624503540e-04 0.0 
1.825624503540e-04 3.695515009073e-03 0.0 
0.0 0.0 -5.711111111111e-04 
-7.565067891625e-04 -1.155535297541e-04 0.0 
-1.155535297541e-04 4.407218847534e-03 0.0 
0.0 0.0 -6.488888888889e-04 
-7.530504053033e-04 -7.571813069496e-06 0.0 
-7.571813069496e-06 4.174991140514e-03 0.0 
0.0 0.0 -6.711111111111e-04 
-7.399837968145e-04 -1.387977928634e-05 0.0 
-1.387977928634e-05 4.486504988785e-03 0.0 
0.0 0.0 -6.488888888889e-04 
-7.729838338639e-04 -1.329064737435e-05 0.0 
-1.329064737435e-05 4.184890785187e-03 0.0 
0.0 0.0 -6.711111111111e-04 
-7.413687643813e-04 -3.949381470416e-07 0.0 
-3.949381470416e-07 4.494790911899e-03 0.0 
0.0 0.0 -6.488888888889e-04 
-7.742938489980e-04 3.545636067961e-06 0.0 
3.545636067961e-06 4.195489456373e-03 0.0 
0.0 0.0 -6.711111111111e-04 
-7.475947728547e-04 -1.447276125001e-05 0.0 
-1.447276125001e-05 4.508658415556e-03 0.0 
0.0 0.0 -6.488888888889e-04 
-7.647771457920e-04 -2.472289036545e-05 0.0 
-2.472289036545e-05 4.185138013304e-03 0.0 
0.0 0.0 -6.711111111111e-04 
-7.436934071060e-04 3.939866511849e-06 0.0 
3.939866511849e-06 4.492058634297e-03 0.0 
0.0 0.0 -6.488888888889e-04 
-7.721102977711e-04 1.191369759528e-05 0.0 
1.191369759528e-05 4.191715436034e-03 0.0 
0.0 0.0 -6.711111111111e-04 
-7.515020125074e-04 1.948179168996e-06 0.0 
1.948179168996e-06 4.504635429055e-03 0.0 
0.0 0.0 -6.488888888889e-04 
-7.788311265265e-04 -5.657460917598e-06 0.0 
-5.657460917598e-06 4.190705067530e-03 0.0 
0.0 0.0 -6.711111111111e-04 
-8.662964799625e-04 -2.454914467333e-05 0.0 
-2.454914467333e-05 4.459732268515e-03 0.0 
0.0 0.0 -6.580807474504e-04 
-7.520565303110e-04 1.109064528774e-05 0.0 
1.109064528774e-05 4.498175075181e-03 0.0 
0.0 0.0 -6.488888888889e-04 
-8.155020730708e-04 1.528373870012e-04 0.0 
1.528373870012e-04 4.186625771973e-03 0.0 
0.0 0.0 -6.711111111111e-04 
-7.586605293786e-04 2.791301751342e-05 0.0 
2.791301751342e-05 4.190794983268e-03 0.0 
0.0 0.0 -6.711111111111e-04 
-7.622973061150e-04 1.699730231297e-05 0.0 
1.699730231297e-05 4.505906138033e-03 0.0 
0.0 0.0 -6.488888888889e-04 
-7.955711925846e-04 8.033031112466e-08 0.0 
8.033031112466e-08 4.188331241414e-03 0.0 
0.0 0.0 -6.711111111111e-04 
-7.623227638377e-04 3.400576865185e-05 0.0 
3.400576865185e-05 4.489689491926e-03 0.0 
0.0 0.0 -6.488888888889e-04 
-8.006770446683e-04 3.868285750203e-05 0.0 
3.868285750203e-05 4.189917974469e-03 0.0 
0.0 0.0 -6.711111111111e-04 
-7.724433658179e-04 4.171040082635e-05 0.0 
4.171040082635e-05 4.499618609463e-03 0.0 
0.0 0.0 -6.488888888889e-04 
-7.971982277132e-04 4.334547048389e-05 0.0 
4.334547048389e-05 4.190772542348e-03 0.0 
0.0 0.0 -6.711111111111e-04 
-7.512535823419e-04 1.572109300169e-04 0.0 
1.572109300169e-04 4.272969555894e-03 0.0 
0.0 0.0 -6.358585252281e-04 
-7.799361977067e-04 4.942380984451e-05 0.0 
4.942380984451e-05 4.500436321571e-03 0.0 
0.0 0.0 -6.488888888889e-04 
-8.019717863413e-04 4.151088876834e-05 0.0 
4.151088876834e-05 4.184126944351e-03 0.0 
0.0 0.0 -6.711111111111e-04 
-7.823966262481e-04 7.184392993936e-05 0.0 
7.184392993936e-05 4.484862014071e-03 0.0 
0.0 0.0 -6.488888888889e-04 
-8.006840076862e-04 7.791811278218e-05 0.0 
7.791811278218e-05 4.176001510023e-03 0.0 
0.0 0.0 -6.711111111111e-04 
-8.039640851074e-04 1.263508000003e-04 0.0 
1.263508000003e-04 4.174705869658e-03 0.0 
0.0 0.0 -6.711111111111e-04 
-7.912096237380e-04 1.071509718730e-04 0.0 
1.071509718730e-04 4.477799006040e-03 0.0 
0.0 0.0 -6.488888888889e-04 
-8.101830887602e-04 1.288493200629e-04 0.0 
1.288493200629e-04 4.489610393156e-03 0.0 
0.0 0.0 -6.488888888889e-04 
-7.617757652904e-04 1.684528749010e-04 0.0 
1.684528749010e-04 4.355354044839e-03 0.0 
0.0 0.0 -6.691918585615e-04 
-7.171747419539e-04 1.190543822742e-04 0.0 
1.190543822742e-04 4.056731334660e-03 0.0 
0.0 0.0 -6.469696363393e-04 
-8.025731129306e-04 -3.241456630719e-04 0.0 
-3.241456630719e-04 4.358910586267e-03 0.0 
0.0 0.0 -6.600000000000e-04 
-7.344440083408e-04 3.911518351984e-04 0.0 
3.911518351984e-04 4.236731495882e-03 0.0 
0.0 0.0 -6.600000000000e-04 
-8.045282767906e-04 1.783825891024e-05 0.0 
1.783825891024e-05 4.360632635982e-03 0.0 
0.0 0.0 -6.822222222222e-04 
-7.310384794447e-04 6.338117589491e-05 0.0 
6.338117589491e-05 4.247438367621e-03 0.0 
0.0 0.0 -6.377777777778e-04 
-7.412727877556e-04 1.381235162240e-04 0.0 
1.381235162240e-04 4.183483937710e-03 0.0 
0.0 0.0 -6.377777777778e-04 

SCALARS element_materi_plasti_kappa_shear float
LOOKUP_TABLE default
2.048251484052e-03
1.753493670412e-03
5.503175940454e-03
5.633931869583e-03
3.565227349428e-03
4.312193749307e-04
3.536826958687e-03
1.942063469917e-03
3.582504689508e-03
5.588174946624e-03
3.844209359202e-03
1.631469581520e-03
5.512057153719e-03
3.809200862045e-03
5.604521952288e-03
5.734301458091e-03
3.547028291065e-03
0.0
1.240065727301e-03
1.171297693899e-03
5.622446392520e-03
2.066758337528e-03
2.250687853245e-03
4.978061567755e-03
4.048291547957e-03
4.106723662793e-03
3.275000549148e-03
5.494131578830e-03
4.059702375831e-03
5.136982028010e-03
1.134770329222e-03
3.832632936293e-04
5.695120532744e-03
4.786861567557e-03
5.372391993923e-03
5.735141668292e-03
5.753517229623e-03
5.201200685639e-03
3.236338684528e-03
3.281036968799e-03
2.549446708275e-03
5.321786045187e-03
1.684174276636e-03
3.149604634892e-03
5.511212370387e-03
1.565690788834e-03
3.220151479937e-04
5.403179619290e-03
4.290285994556e-06
3.669652725762e-03
2.409350294786e-03
1.545192749097e-03
1.201581906209e-03
2.359715905779e-03
5.581390730100e-03
2.049040073899e-03
1.507776831990e-03
4.806180650684e-03
9.040347839122e-04
5.734539432202e-03
0.0
5.036447355686e-03
2.389363153128e-03
1.200719454992e-03
5.502622384469e-03
2.208078500699e-03
0.0
5.645939813077e-03
1.388688876148e-03
5.450080675048e-03
4.240450452081e-03
5.844447616816e-03
5.127619557211e-03
3.940968838013e-04
2.067872878458e-03
5.628694369718e-03
5.723406412389e-03
1.349407449673e-03
8.084468878613e-04
1.429030436914e-03
1.215963319167e-03
3.393097464491e-03
2.129508046084e-03
1.864830702236e-03
3.733526205207e-03
3.714125906962e-03
4.361075697200e-03
4.690746124938e-03
4.783172209268e-03
3.514212606547e-03
2.589608648574e-04
3.431550400288e-03
4.721859888672e-03
4.746077057757e-03
5.997543046696e-03
5.411150761547e-03
3.393913313148e-03
5.491004293201e-03
3.985594967259e-03
2.258571385844e-03
3.410992711845e-03
5.611034212900e-03
4.179507938013e-03
5.032886742806e-03
2.003062331599e-03
8.956760759698e-04
5.221382607798e-03
5.045193140480e-03
2.261908350144e-04
5.486842463624e-03
4.573653062054e-03
3.479980613031e-04
2.502076270832e-03
3.167763418157e-03
2.487000496226e-03
2.126059688753e-03
2.273861626040e-03
5.451016480833e-03
3.919789090778e-03
2.281181173819e-03
1.213076248653e-03
3.513689619667e-03
4.941959880695e-03
2.106608397090e-03
9.726897685994e-04
2.859921274722e-03
2.565005698292e-03
2.680460766149e-03
5.737782286007e-03
9.785758943600e-04
4.027728111069e-03
5.636355074510e-03
2.835365156538e-03
2.709046400113e-03
5.353249069116e-03
5.532349028915e-03
4.348743351020e-03
2.978900291729e-03
5.411429688504e-03
2.744221608962e-03
5.616125922486e-03
5.613692443858e-03
3.766204035722e-03
4.391065799997e-03
2.718404295077e-03
2.533253388883e-03
3.087137023846e-03
2.200470782986e-03
3.492820352654e-03
2.363376362537e-03
2.621382727248e-04
3.747049311015e-03
8.605114628174e-04
3.020514546332e-03
5.290806449770e-03
2.186313469297e-03
4.518027699077e-03
1.606142966517e-03
4.209701847448e-03
3.408465456370e-03
2.321856290079e-03
4.941287181334e-03
1.029170670083e-03
5.207270841350e-03
3.386399557435e-03
5.629077659096e-03
3.402534046100e-03
2.143777464895e-03
2.980585492464e-03
3.978529564445e-03
1.797981043136e-03
2.131947395522e-03
4.565545625096e-03
3.526561441315e-03
2.292273163024e-03
2.831954602171e-03
4.902639283245e-03
2.846109516762e-03
5.344131269156e-03
5.581762834167e-03
2.045482988632e-03
2.739998364567e-03
4.670836610536e-03
2.636378907130e-03
1.901753547338e-03
3.276383508295e-03
2.394214224877e-03
5.640432630144e-03
4.649191975422e-03
5.084010659974e-03
1.450852845402e-03
1.891185196908e-03
4.756649167095e-03
0.0
2.645910748192e-03
4.353987082835e-03
6.693198157630e-04
5.577145383260e-03
4.311674069402e-03
2.424063329831e-03
4.308254875087e-03
3.768016172911e-03
3.975429040763e-03
5.123403257528e-03
1.968551576487e-03
3.168679698929e-03
3.489417411141e-03
4.497775965736e-03
3.554143506731e-03
3.272990497602e-03
3.636148199777e-03
4.777873359821e-03
0.0
2.054332000673e-03
2.292338041600e-03
3.059823040950e-03
4.848669964181e-03
7.411939793980e-04
4.203239612195e-03
3.403528574950e-03
2.120618832016e-03
4.069098148087e-03
4.246264766717e-04
4.599464078276e-03
3.476148306084e-04
5.410341703710e-04
1.592193211171e-03
1.719248331945e-03
4.782293510667e-03
1.815734887217e-03
1.844404593867e-03
1.618505664870e-03
1.146822852731e-03
4.464359441945e-03
3.377702223347e-03
5.506088258921e-03
0.0
2.009805297429e-03
2.302243100894e-03
2.481153461484e-03
4.143768537590e-03
5.606441244158e-03
4.559795208237e-03
1.455328493326e-03
4.488396010045e-03
4.213382192652e-03
3.236971907541e-03
4.423237357451e-03
5.173514376653e-03
2.134179776736e-03
1.811135889082e-03
3.825403090103e-03
5.999008670889e-03
3.128792099484e-03
2.778892560238e-03
3.812433277429e-03
1.356034459876e-03
3.547869395678e-03
1.821956586395e-03
1.071898620409e-03
6.878759182499e-04
4.770342255613e-03
3.657761913000e-03
2.301185800403e-03
4.951131887675e-03
4.665409177490e-03
3.411799966359e-03
5.452188912108e-03
2.908585602061e-03
3.583300261965e-03
2.605219249823e-03
3.100950466365e-03
1.347698524684e-03
3.414342947476e-03
2.155049212513e-03
1.385737165103e-03
4.542488046730e-03
0.0
3.716563633638e-03
1.636449720064e-03
1.774524551335e-03
8.033729531876e-04
3.926631031118e-03
7.929613934373e-04
2.439400741018e-03
3.230296274809e-03
3.653257839111e-03
3.792551444783e-03
3.394897168044e-04
9.779464977479e-04
1.639638944485e-03
2.170597973029e-03
4.441924025952e-03
2.403845489855e-03
2.012179680430e-03
2.055407645936e-03
5.690441180566e-04
2.724975474439e-03
1.566269675286e-03
5.958720739140e-03
5.939193914372e-03
3.244445123059e-03
1.612814842720e-03
1.675996184199e-03
3.688319290740e-03
1.425607672630e-03
1.036406456605e-03
3.253099720127e-03
5.778400585500e-03
1.895871873376e-03
3.666527252036e-03
1.635469508028e-03
5.660443835014e-03
1.865154342382e-03
3.342266076335e-03
6.537557986607e-04
3.435463054255e-03
2.276354288028e-03
1.404210939028e-03
3.486331641573e-03
5.890375541845e-03
1.783256592407e-03
3.221814678744e-03
1.690872941280e-03
4.262668196764e-03
3.989554513863e-03
1.870987437432e-03
4.157903845114e-03
5.833143474624e-03
4.319705339619e-03
5.914245466119e-03
4.107732014025e-03
4.587246752330e-03
1.718940221779e-03
3.216971996294e-03
3.590070658515e-03
3.756282744682e-03
2.945710028404e-03
5.788099092437e-03
3.944002213719e-03
3.448909530710e-03
1.863265499764e-03
1.455277505311e-03
3.108638757878e-03
2.053960887931e-03
3.540174196265e-03
1.877423184664e-03
1.615583361797e-03
4.717172209803e-03
1.879339039984e-03
3.325468032698e-03
3.338062058546e-03
3.118061036030e-03
5.704944762880e-03
2.801276760200e-03
7.929235320680e-04
2.475643465383e-03
1.888885188254e-03
2.000012791094e-03
4.954048188006e-03
3.495259464146e-03
2.461309541375e-03
3.062435080318e-03
5.651875251926e-03
5.274977967438e-03
4.935750800823e-03
4.617112825186e-03
3.065607714073e-03
2.469090313365e-03
1.133689513580e-03
1.302424423879e-03
3.315397022365e-03
3.332601828915e-03
2.997347446124e-03
5.010744987465e-03
1.001431061527e-03
2.758819764694e-03
3.419306053386e-03
2.519448693487e-03
5.922741708313e-03
5.955236189705e-03
5.576307705796e-03
3.343577244616e-03
4.936203495640e-03
1.952709186338e-03
1.572206337786e-03
8.348386301078e-04
2.556685105344e-03
3.397790353165e-03
4.097341444589e-03
5.360765443340e-03
4.855340331115e-03
3.816589750238e-03
3.860243568889e-03
1.042497557085e-03
9.358115372942e-04
2.519797185523e-03
3.004979550758e-03
2.619929927174e-03
9.216036177595e-04
3.654326841485e-03
1.535889856870e-03
1.965274985910e-03
5.542217875605e-03
3.765591558978e-03
3.443419406157e-03
9.148022967595e-04
3.000502477848e-03
2.382905503139e-03
3.927650911988e-03
5.879566310260e-03
3.223720713770e-03
3.674901719203e-03
2.887355925381e-03
4.891146742092e-03
3.418978839809e-03
5.856068981647e-03
5.774980459743e-03
5.817447372982e-03
5.770330115021e-03
4.031402203216e-03
4.901935106937e-03
5.053219238746e-03
2.608302338338e-03
2.534090737437e-03
2.864377718296e-03
5.021604322951e-03
5.804877108405e-03
5.054229152364e-03
3.432032663523e-03
5.068372728808e-03
4.092526629085e-03
2.882253780088e-03
2.587573265554e-03
1.635529725768e-03
5.632439227330e-03
2.459501711046e-03
5.142282866550e-03
2.763464966763e-03
2.028101785968e-03
5.246511047736e-03
2.055425638514e-03
5.758655944435e-03
5.581996474530e-03
3.601464432629e-03
2.874317802878e-04
5.722474487266e-03
5.230794359338e-03
1.560316552400e-03
3.558601806016e-03
5.699626342238e-03
0.0
2.660857434825e-03
3.779907730678e-03
3.423227498078e-03
3.515796245568e-03
1.920364726314e-03
5.673636790495e-03
1.884624729070e-03
1.324523675438e-04
5.578498981548e-03
5.002872014388e-04
2.903489307071e-03
7.102088304151e-04
3.105385424469e-03
5.637939698663e-03
5.643493109987e-03
3.759896198982e-03
6.466604743843e-04
2.581016059875e-06
1.306561031608e-03
4.781936084338e-03
3.544667014514e-03
3.591768567502e-03
5.600982036969e-03
3.550458207037e-03
5.978204257671e-03
4.194064998041e-03
3.966369650588e-03
2.069110227023e-03
3.555873876722e-03
1.287977702152e-03
5.563443599679e-03
5.770828452205e-03
5.803925315002e-03
3.535689664887e-03
2.718540240995e-03
2.810036151372e-03
3.607200195359e-03
5.538358032675e-03
1.640374573165e-03
1.295740147429e-03
1.612091026105e-03
4.134625190794e-03
5.683102620147e-03
9.751937677048e-04
5.520122581297e-03
1.677390207142e-03
5.751046272795e-03
5.068488904679e-03
5.986160827208e-04
2.695519082935e-03
5.116907936890e-03
5.706785168037e-03
4.029434435152e-03
4.284615340903e-03
1.266337359964e-03
4.952953356985e-03
1.912176692629e-03
1.970550124934e-03
6.041211163241e-04
5.656733513692e-03
1.182133657821e-03
4.542952953280e-03
3.833323984522e-03
2.139158319596e-03
1.714726693588e-03
3.853402172132e-03
5.579172664692e-03
2.774393020232e-03
3.942313972036e-03
3.310099650091e-03
3.368941039505e-03
1.606723124076e-03
3.637032700867e-03
3.197994162511e-03
4.208731222359e-03
3.883013032915e-03
3.120071939876e-03
2.732828783826e-03
1.823514764933e-03
2.627670573605e-03
4.181475254094e-03
3.004073412555e-03
5.656674172997e-03
5.232907453581e-03
1.823811427345e-03
5.507514049442e-03
5.342333532244e-03
2.747952667688e-03
4.382088383837e-04
5.694608369003e-03
5.185125812822e-03
1.765229900576e-03
5.538258443366e-03
3.827720443377e-03
2.679180912128e-03
3.704599732640e-03
2.883358424601e-03
3.255701293151e-03
3.509234741566e-03
4.329946724555e-03
2.998532943868e-03
4.098742247154e-03
4.047052255275e-03
2.859932710936e-03
3.672333583241e-03
2.211642543694e-03
3.881327088903e-03
2.317754686702e-04
2.007422663305e-03
2.062503183499e-03
3.040900024033e-03
2.964066277893e-03
3.726763647670e-03
4.021852142269e-03
2.125448120930e-03
5.567560434823e-03
3.763638072718e-03
3.188675817690e-03
3.577463415310e-03
3.136039882304e-03
0.0
3.881554513065e-03
2.640906468370e-03
1.601175916693e-04
3.049084665278e-03
4.039018151325e-03
5.107511769800e-03
3.179382722343e-03
3.272183804054e-03
3.333812579699e-03
3.138774507407e-03
5.602858950169e-03
3.388266387592e-03
4.889835681516e-04
1.262830355438e-03
3.403732711760e-04
2.039797041705e-03
4.886593675055e-03
5.135074580473e-03
4.569733804699e-03
2.205347307067e-03
3.963428270317e-03
4.644691033612e-03
4.480010223362e-04
2.667099209261e-03
2.160248377513e-03
5.721042981994e-03
5.580105102775e-03
2.939481999310e-03
3.271315706566e-03
3.310083848978e-03
4.812160421875e-03
1.230172725071e-03
4.495251994924e-03
6.428633528680e-04
2.999374668151e-03
3.265631012540e-03
2.192679874259e-04
2.777613716051e-03
5.213183738870e-03
4.661553375830e-04
3.125223871850e-03
3.264611202798e-03
3.668691180678e-03
2.191299816666e-03
1.929490898901e-03
1.801992614561e-03
5.021357309615e-03
5.413378247578e-03
4.938730896674e-03
1.962629389648e-03
7.396549693111e-04
3.052559415623e-03
3.136955965337e-03
3.283077438816e-03
1.598687307509e-04
2.193472717883e-04
5.176799582362e-04
1.646399827615e-03
4.476010659486e-04
3.103497725519e-03
0.0
1.933359932912e-03
4.174873570305e-03
3.277162825819e-03
5.055738530347e-03
3.910516641519e-03
3.910699350519e-03
2.335203039295e-03
6.321407009922e-04
5.850638891353e-03
6.009929428425e-03
3.804106063636e-03
3.142498704503e-03
2.378074668671e-03
6.000434500276e-03
1.932646254916e-03
3.261134435714e-03
3.129035808385e-03
2.954670140417e-03
5.838142907149e-03
5.995969196951e-03
4.354125543212e-04
1.813212541407e-04
9.186762200650e-04
3.162862848184e-03
5.377931686408e-03
0.0
4.886021985717e-03
0.0
3.610910406558e-03
3.669816600871e-04
9.031669178808e-05
3.461382625694e-03
5.195804270535e-03
4.290192669085e-03
3.148248508174e-03
2.197475915269e-04
4.109795966881e-03
5.851848957563e-03
6.003781657386e-03
3.276367122740e-03
3.775548124396e-03
5.863438389457e-03
4.268339267121e-03
6.020741917649e-04
4.453789533022e-04
2.347376138707e-04
2.636386499780e-03
5.872831094669e-03
5.638106297545e-03
1.897411018069e-04
3.087998710896e-03
5.740465009782e-03
5.879140074132e-03
5.731117611362e-03
4.595061384764e-03
5.043133831470e-03
5.707378045359e-03
5.713124045283e-03
4.886059613206e-03
4.831364360602e-04
3.253485872106e-03
3.293767224568e-03
1.826916767147e-04
5.690406926254e-03
5.768685902519e-03
5.617484584069e-03
4.524110312699e-04
4.596449148217e-04
5.588283914655e-03
5.603110956582e-03
4.452788727497e-03
3.251601896083e-03
4.737759423841e-03
3.834702661819e-03
3.246459497800e-03
5.228246461019e-04
4.912700086981e-04
4.440043287774e-04
5.321378525866e-04
3.250169139528e-03
2.937145446359e-03
0.0
4.118703550062e-03
0.0
5.832195033359e-03
5.846499430745e-03
5.850716816551e-03
1.037380994288e-03
2.016748291347e-03
5.852662976723e-03
4.973191529565e-03
5.880964851940e-03
5.257570989653e-03
5.538666694917e-03
2.787880833422e-03
6.016271676808e-03
6.012463975420e-03
5.083244388473e-03
5.379690173722e-03
4.387421699504e-03
0.0
2.857162677749e-03
4.252814149356e-04
5.079913712272e-03
2.910266083999e-03
4.760106554014e-03
1.643649883448e-03
5.383120855226e-04
5.098955867833e-03
3.125495581336e-03
2.489884669676e-03
4.818967528395e-03
5.278656552725e-03
2.495305030192e-03
4.255398696545e-03
3.844899893988e-03
4.331079183945e-03
4.483284984887e-03
1.722961733981e-03
2.890176896868e-03
2.847631786202e-03
4.036906121347e-03
4.963877593991e-03
4.634026856991e-03
1.657361628813e-03
5.268660436221e-03
4.977116357189e-03
3.619668627054e-03
4.170717328187e-03
4.186883659402e-03
5.342654512253e-03
5.152017188016e-03
3.775019514809e-03
5.233037882857e-03
4.914729909785e-03
4.640974992130e-03
5.247897151359e-03
5.303240859678e-03
4.541244193091e-03
4.128098936937e-03
1.538774070067e-03
1.637170348017e-03
8.927698521496e-04
6.525183474627e-04
5.158931490191e-03
5.044076979222e-03
5.868956833529e-04
5.121589647054e-03
3.733179451095e-03
4.678226682694e-03
4.762287906690e-03
2.074136809097e-03
4.809627862754e-03
3.622602601676e-03
3.895447150765e-03
5.345962366384e-03
1.472811966339e-03
5.235843009349e-03
4.707105507548e-03
1.674998648871e-03
1.997272543898e-03
3.477442011437e-03
4.193455430159e-03
2.343630985594e-03
4.867641149368e-03
4.387482060233e-03
3.338211884839e-03
4.524321097962e-03
4.677832988922e-03
4.679006337696e-03
1.339663578638e-03
3.198638979897e-03
4.633717260275e-03
4.840387351562e-03
2.897016443790e-03
3.936845676204e-03
5.082736818756e-03
4.511744960805e-03
3.674133562231e-05
7.677090780190e-04
5.119753373391e-04
4.910516809545e-03
4.354991661180e-03
3.826914815962e-03
3.891439679492e-03
4.711856603341e-03
3.483739004670e-03
4.620031677450e-03
1.591598461033e-03
5.218249190632e-03
3.412412426767e-03
1.736686848489e-03
3.262202328444e-03
2.478917580480e-03
2.035103586398e-03
3.755154455874e-03
1.564516804578e-04
1.127981756129e-04
4.252374733298e-03
1.464746990371e-03
4.246030270520e-03
4.094375942875e-03
2.616673579752e-03
1.812766898726e-03
5.102254688752e-03
3.465488540583e-04
2.625027282395e-03
4.837002714089e-03
1.192572476611e-03
4.082383260840e-03
3.767466409166e-03
1.326156531730e-03
4.910591653427e-03
4.645125771511e-03
1.410538395916e-03
5.226535373693e-03
5.199234746316e-03
1.660825990560e-03
2.070362284012e-03
1.741360747490e-03
4.534233564243e-03
3.626195608604e-03
5.169455195403e-03
5.078103462266e-03
4.392922361779e-03
4.325015664707e-03
1.344427675979e-03
4.473065100284e-03
4.621187335039e-03
3.681381110047e-03
4.381240135388e-03
4.808400950473e-03
2.590644772933e-03
4.947620929573e-03
3.085734269788e-03
3.550246213813e-03
2.335827574008e-03
2.490782004144e-03
4.488879741826e-03
3.165999505287e-03
1.852051741298e-03
9.795830009428e-04
4.513242120104e-03
1.766306002376e-03
5.166203144739e-03
4.649805208552e-03
4.614388070238e-03
5.225667178668e-03
2.979037457551e-03
1.585841628710e-03
1.011992460365e-03
4.379665078225e-03
4.223445145250e-03
6.765581779647e-04
2.432707948999e-03
1.398956561073e-03
4.216513153533e-03
2.555838114567e-03
4.011146820245e-03
2.390150431536e-03
5.006027676207e-03
2.059652164516e-03
4.350001019912e-03
1.794811250637e-03
4.222069039724e-03
3.406036415107e-03
4.462021920913e-03
1.339917336666e-03
1.350299010952e-03
3.939048831294e-03
3.691324572909e-03
2.830557802011e-03
4.239747352825e-03
1.991260803131e-03
4.297758287115e-03
1.272590086592e-03
4.947061823839e-03
3.839114394118e-03
4.100469873386e-03
5.406352818554e-03
3.435279919526e-03
1.276251192001e-03
3.890812531652e-03
5.018055530162e-03
2.209550982896e-03
4.531906710769e-03
4.676467859059e-03
1.712191406574e-03
4.059355262125e-03
3.877866350654e-03
1.909658390552e-03
2.315039142321e-03
3.261954618660e-03
4.303145841247e-03
2.635421671348e-03
3.059028444222e-03
4.459399445595e-03
4.056901073063e-03
3.999117941319e-03
3.350783493908e-03
4.741842824469e-03
3.716486713275e-03
3.922920566098e-03
5.252343855285e-03
4.304735037625e-03
4.138095280470e-03
4.783696522489e-03
2.607621039471e-03
2.469838949813e-03
1.432823964346e-03
4.007204605408e-03
2.590823974833e-03
4.347452842024e-03
4.183394403681e-03
2.669547662572e-03
2.085784252470e-03
1.474019061621e-03
2.212107321881e-03
2.350809507915e-03
1.463075537230e-03
4.569504511566e-03
2.669001313969e-03
4.972812165115e-03
2.750604982809e-03
3.790160523716e-03
3.207941504412e-03
2.889645016640e-03
1.541106990513e-03
4.841361927258e-03
5.091339779464e-03
4.032052527629e-03
2.472525954974e-03
3.495149155929e-03
4.324118500003e-03
2.732643322525e-03
2.578422691737e-03
2.150698556139e-03
2.106845042594e-03
2.726649439388e-03
1.894721435353e-03
1.784390543315e-03
3.334917325845e-03
3.967235808941e-03
4.797201624805e-03
4.779022984785e-04
2.400918837851e-03
2.556449603619e-03
2.577694805079e-03
4.159825931864e-03
2.931072335017e-03
2.192293877224e-03
2.827325159198e-03
4.815904702500e-03
2.276675714295e-03
8.000720813987e-04
1.154840506689e-03
1.907795704095e-03
2.221538328191e-03
2.622719745119e-03
2.913483858148e-03
1.764083930753e-03
1.225103944880e-03
3.978408581491e-03
1.973233867528e-03
4.352924711069e-03
4.600918209764e-03
3.992519858040e-03
5.014455028265e-03
4.977573847804e-03
2.548565445421e-03
4.312209701199e-03
1.977881610171e-03
2.972886214248e-03
2.522487306746e-03
1.343329153242e-03
1.686644144900e-03
2.487335316614e-03
2.744769011227e-03
2.804656212940e-03
2.029273826370e-03
3.023258905964e-03
2.603498899914e-03
2.484258941744e-03
2.359041018273e-03
3.843548607210e-03
4.482822863784e-03
2.260889845850e-03
4.670023540639e-03
2.097337949930e-03
5.002347225511e-03
2.827679967364e-03
5.203491602560e-03
3.947077556836e-03
1.774963125665e-03
4.099246498151e-03
5.100371074435e-03
2.915547663855e-03
2.161634842982e-03
4.202460859535e-03
3.063723291000e-03
1.589122566935e-03
5.594818322494e-03
1.323577671794e-03
4.905374215111e-03
5.240056690777e-03
4.004250475148e-03
4.022036132739e-03
4.908739948371e-03
2.656489500895e-03
3.014023661640e-03
5.295279977407e-03
4.266560699203e-03
4.614700973159e-03
3.798037729663e-03
1.755388368310e-03
4.742604083367e-03
5.518069405150e-03
5.004957839638e-03
2.836493463261e-03
4.042556476747e-03
3.862526569830e-03
2.990307102709e-03
4.091149418794e-03
4.218450148723e-03
1.096098833511e-03
1.326857373094e-03
2.403878583947e-03
2.433427464003e-03
2.925956778214e-03
5.469614393342e-03
5.117047102826e-03
5.259865256129e-03
2.804866215072e-03
4.812380906171e-03
4.181034339560e-03
5.346185944049e-03
4.575117160927e-03
3.073764877658e-03
2.227900412936e-03
4.723026116701e-03
5.199457669429e-03
4.754736712479e-03
4.593382364392e-03
4.706207203460e-03
4.760938801400e-03
4.529156841862e-03
3.673004527565e-03
2.793183285108e-03
4.176641122849e-03
4.482872570103e-03
1.720752477746e-03
2.523073950019e-03
2.936964334964e-03
3.355527503238e-03
6.764221038374e-04
2.312131514981e-03
3.694823953479e-03
3.162738673778e-03
3.106094428709e-03
4.275586722866e-03
3.420444478414e-03
8.056313501550e-04
3.608028323111e-03
4.113825723424e-03
5.289575565493e-03
2.786040332148e-03
3.385556211389e-03
4.320502265356e-03
1.220460717409e-03
3.955179298540e-03
3.165570628649e-03
3.317308554295e-03
4.304146306300e-03
1.881742204703e-03
4.432932293431e-03
4.823215265074e-03
3.806542070162e-03
4.778108728742e-03
4.481570645652e-03
4.886746565618e-03
1.498086320626e-03
4.448193879400e-03
4.826216477314e-03
4.887560636574e-03
3.468158111994e-03
2.473653699252e-03
3.471604947544e-03
3.515654411097e-04
5.048129172683e-03
1.854985291829e-03
1.640845901064e-03
4.384273219759e-03
5.379705512614e-03
1.962931709496e-03
3.460402464098e-03
4.556944250926e-03
3.383719843055e-03
1.271639043888e-03
2.155596217494e-03
1.530379692595e-03
1.562946298421e-03
1.725992673059e-03
3.128123404018e-03
5.978757202265e-03
1.878932715142e-03
4.874265144994e-03
2.021312508689e-03
4.410645559788e-03
5.446402050903e-04
5.032053835528e-03
1.857540691758e-03
2.167450437020e-03
4.007316872521e-03
2.865792508923e-03
4.633094935503e-03
2.352487737097e-03
4.663962013380e-03
4.869204411424e-03
4.429689118342e-03
5.301599282418e-03
4.867555126114e-03
4.994292368551e-03
1.585731642834e-03
4.731482311295e-03
4.686031286375e-03
2.832067385881e-03
2.158927091379e-03
5.079003029780e-03
9.596911832810e-04
2.094098399874e-03
4.422688948064e-03
1.248071604352e-03
3.111224166074e-03
4.143397073039e-03
5.269510986050e-03
5.404504160547e-03
4.032131518505e-03
5.035214563043e-03
2.288963266599e-03
4.497236254835e-03
2.449891336582e-03
5.141368132137e-03
2.751749660152e-03
2.878729614697e-03
2.670941398414e-03
3.064327322831e-03
3.458691017845e-03
2.658280149013e-03
2.653753714281e-03
9.811593336372e-04
2.441082358799e-03
5.179437752949e-03
5.268578940823e-03
4.434728242993e-03
4.747389467128e-03
2.702179599475e-03
4.975773677779e-03
2.582283479392e-03
4.888861475009e-03
4.848446586374e-03
4.829227704648e-03
3.615324373437e-03
2.341624150185e-03
4.784583869030e-03
3.957491419921e-03
1.700601644229e-03
7.020950745825e-04
2.481218771102e-03
3.497363371298e-03
5.046415826891e-03
4.704605430921e-03
2.322695645322e-03
3.926363227239e-03
4.300034730448e-03
5.071297943610e-03
4.988482903574e-03
4.232489050894e-03
4.476485377380e-03
2.821806331728e-03
4.336206174646e-03
3.171626869689e-03
5.322298740709e-03
5.194634648291e-03
3.273686732189e-03
5.984151931342e-04
4.585743008913e-03
3.386888275758e-03
2.214504551746e-03
3.505745048799e-03
4.392421827443e-03
8.649412715447e-04
2.929672516780e-03
4.200855765301e-03
5.106738436651e-03
4.301405107969e-03
4.492473167653e-03
4.094600791655e-03
3.873742424529e-03
4.049253002460e-03
4.546913092459e-03
4.646225374320e-03
4.523702894857e-03
5.390087395958e-03
3.985020216099e-03
1.618655921058e-03
4.788488793259e-03
5.359924628782e-03
3.005660619524e-03
3.223226449347e-03
1.971525089256e-03
4.648699280585e-03
2.766011387022e-03
3.573201295524e-03
2.703531881720e-03
4.214659544867e-03
5.069771484117e-03
2.121431133426e-03
4.058193802695e-04
5.341003982022e-03
2.920796651996e-03
2.806031036896e-03
4.893352200413e-03
4.541058644014e-03
4.477853504311e-03
2.415871683082e-03
1.091173224408e-04
5.297107160487e-03
3.566992170965e-03
3.964772993216e-03
4.908749566295e-03
0.0
4.396335016970e-03
1.721264210827e-03
4.247426129010e-03
3.657351708374e-03
2.094475387503e-03
4.954039962137e-03
3.497476297263e-03
1.752352387144e-03
3.730384878291e-03
3.763523260525e-04
4.296335070821e-03
4.232332728486e-03
5.300157964833e-03
4.591233936654e-03
1.028298279476e-03
4.511210016349e-03
5.453521427974e-03
5.267588892161e-03
4.434702429965e-03
2.462650568201e-03
4.009248660887e-03
5.046804183108e-03
3.535212461732e-03
4.396897747975e-03
4.393389450935e-03
4.800902351973e-03
4.606296382435e-03
3.122680214006e-03
3.120274423476e-03
4.382256899136e-03
4.111044512030e-03
3.813633009546e-03
4.221320453715e-03
3.279774802709e-03
4.769766446077e-03
2.542727818687e-03
5.983048558158e-03
3.591210545370e-03
3.168624506568e-03
3.557292247720e-03
9.531416278352e-04
3.230009085735e-03
3.834311612934e-03
3.683361306900e-03
4.361379102542e-03
4.324884584528e-03
4.497716242812e-03
9.296305416927e-04
3.000738260246e-03
2.877206011431e-03
4.129391706327e-03
4.309346871824e-03
4.660717579237e-03
1.390083491195e-03
1.337430359801e-03
3.372007376568e-03
3.118387867984e-03
2.908488767762e-03
3.071482520293e-03
4.375276169837e-03
1.579296571718e-03
3.441254145347e-03
4.169540997438e-03
5.233780527266e-04
5.376588438414e-03
5.149299469470e-03
3.407577951504e-03
4.596633708749e-03
5.291684185247e-04
4.017860612446e-03
3.529401166009e-03
5.097626183355e-04
5.132298664917e-03
7.847782572496e-04
4.127046447011e-03
3.654659147826e-03
2.736631618381e-03
3.532903553380e-03
5.264031271081e-03
3.850209962935e-03
3.431861875086e-03
3.323620881928e-03
5.457679815637e-04
4.250590229058e-04
4.681238603658e-03
4.043631383605e-03
4.795280597812e-03
2.001212315518e-03
4.830518942521e-03
4.896214853729e-03
3.151597474926e-03
4.683508434643e-03
4.666996016599e-03
3.909137558089e-03
3.276352252530e-03
3.497938959203e-03
5.375951367089e-03
3.220959364287e-03
3.760026043850e-03
3.137860209432e-03
4.172566943858e-03
2.940253828480e-03
1.143043258969e-03
3.094440534048e-03
1.421741084883e-03
4.229813709731e-03
1.395709131982e-03
4.036588971796e-03
4.570721815773e-03
4.340933322800e-03
2.781057843546e-03
4.194893651729e-03
4.753168581798e-03
4.818117472809e-03
1.337755850323e-03
4.137746118188e-03
5.209940225679e-03
2.346590375691e-03
3.683805328026e-03
7.449910221542e-04
4.902778118811e-03
1.132231217255e-03
3.562582783365e-03
3.984078078079e-03
4.208916939956e-03
4.023939684233e-03
3.635866043279e-03
2.594201963328e-03
2.755506096816e-03
4.964224152630e-03
3.752359726194e-03
3.049378824758e-03
3.951824469440e-03
2.751998479851e-03
1.270610342763e-03
2.569385874887e-03
3.772607831582e-03
3.271605333460e-03
4.369076492911e-03
2.705575969413e-03
5.066065955323e-03
4.914430261524e-03
2.994647378897e-03
5.394625854804e-03
1.628019428153e-03
4.948546199405e-03
3.599675338089e-03
3.985333370223e-03
4.676994841526e-03
2.599416272208e-03
3.952410327413e-03
2.849041735521e-03
3.845590045576e-03
1.946537266926e-03
4.082691990806e-03
2.599671966463e-03
3.723013565829e-03
3.865662068831e-03
5.887470109934e-04
3.453775351858e-03
1.200495782290e-03
9.684342886303e-04
3.597379235346e-03
4.690298881192e-03
4.138119897075e-03
2.292437587727e-03
5.849140828973e-03
1.853697180041e-04
2.448985812848e-03
3.130150269505e-03
3.550843563428e-03
2.957877931277e-03
1.876075245636e-03
3.442132234492e-03
3.806568376354e-03
3.777536702449e-03
4.965844843458e-03
1.161492389179e-03
3.317749060185e-03
3.622478808599e-03
2.112089838123e-03
3.317999481308e-03
4.153535609678e-03
4.505816054949e-03
6.237202834362e-04
0.0
1.573012222717e-03
3.691965033318e-03
1.969230988537e-03
1.898292932230e-03
1.294352397267e-03
3.753016074333e-03
4.366198405172e-03
3.768697917664e-03
1.871438903480e-03
4.121048902823e-03
3.672677354322e-03
4.305538666813e-03
3.830322098392e-03
3.828543141580e-03
1.984443132618e-03
2.202423137923e-03
3.907189118964e-03
4.304428646692e-03
4.049985857339e-03
2.152295599124e-03
3.904305982153e-03
2.181745308855e-03
1.601820863611e-03
4.956049478681e-03
1.401476559850e-03
2.111889315513e-03
3.321047263052e-03
2.268346872781e-03
3.969667780703e-03
1.889119106673e-03
3.396365532197e-03
3.971070620537e-03
2.946304068913e-03
3.537025974587e-03
1.811375157662e-04
5.205294236013e-03
2.387586220924e-03
4.665614783562e-03
3.968807703245e-03
4.049703598051e-03
4.107544981389e-03
1.695791505847e-03
1.026663475019e-03
1.642477002779e-04
4.189723483468e-03
4.659166707092e-03
2.346343365980e-03
4.226192121581e-03
2.191228217425e-03
4.314363055978e-03
5.445403603490e-03
0.0
5.877232482387e-03
5.753927133567e-03
3.517916756623e-03
2.567108847699e-03
3.885798105456e-03
1.761253100682e-03
8.753437067106e-04
5.824479928858e-04
5.430593790634e-03
4.272773126407e-03
3.281421806576e-03
5.755399577457e-03
1.584674166795e-03
5.735458500834e-03
4.260634587508e-03
2.681067374150e-03
3.703032091483e-03
2.313425682848e-03
1.747876205062e-03
2.269306335304e-03
4.472296584069e-03
5.084185534072e-03
2.122483088170e-03
4.416764738030e-03
0.0
1.927997949303e-03
4.734679441239e-03
2.334640526172e-03
2.293466231138e-03
3.672079540127e-03
1.427206149762e-03
1.708336649171e-03
1.861547325864e-03
2.108699433633e-03
3.250126257064e-03
3.062054677212e-03
4.401537229797e-03
5.307742241174e-03
1.980497234217e-03
4.592105580898e-03
5.228738582180e-03
1.508615138678e-03
1.258398003978e-03
2.320259230208e-03
3.145384584978e-03
4.507488684930e-03
3.013439603112e-03
1.036494360999e-03
3.559288459622e-03
1.877421539577e-03
3.009312651742e-03
3.329936939808e-03
3.782961951353e-03
4.184693822016e-03
2.263846250652e-03
1.320964814853e-03
3.656275706453e-03
1.881021925859e-03
0.0
5.409655559408e-03
5.162683398980e-03
2.729094268368e-04
3.875711687704e-03
1.849949503547e-03
1.815075747793e-03
4.705943890402e-03
3.753312262213e-03
4.510634549489e-03
2.148267383418e-03
3.276008673573e-03
5.353793394855e-03
1.533498694127e-03
4.496561684191e-03
3.235629882711e-03
1.109441694527e-03
4.399839461737e-03
2.050705679004e-03
7.682699673756e-04
1.606426913977e-03
4.404965734730e-03
4.489139406804e-03
1.520865044627e-03
3.643992042794e-03
4.612769071813e-03
4.502280914076e-03
2.204419621287e-03
1.846579794431e-03
3.359329712729e-03
4.124746711535e-03
7.891390788467e-04
5.560751100390e-03
5.548964266607e-03
3.671227968295e-03
5.630388145665e-03
5.535998868057e-03
2.170965590618e-03
2.370185578734e-03
5.368043001176e-03
0.0
1.709110066567e-03
3.659126116834e-03
2.387294836944e-03
1.879148258664e-03
1.458848135816e-03
1.621284849436e-03
3.747506275773e-03
1.892131702059e-03
1.979788942566e-03
4.392042265884e-03
5.804343183405e-03
5.787944820255e-03
2.351876001022e-03
3.390799711467e-03
0.0
1.230366790518e-03
1.463542949792e-03
1.380432272447e-03
3.535543274713e-03
2.106380670562e-03
2.153393122630e-03
5.222734221172e-04
5.154439084150e-03
2.367565598648e-03
5.388275058918e-03
4.954992804617e-03
6.024570796398e-03
5.886693922548e-03
3.753433328928e-03
2.527170991278e-03
1.725379432797e-03
2.498420104998e-03
5.703744763384e-03
9.120404607056e-04
1.119100263323e-03
4.692417281221e-03
3.538901703328e-03
5.427938698995e-03
4.594213998741e-03
4.821231617115e-03
4.878843592401e-03
3.720203756123e-03
2.190074141244e-03
2.006325653896e-03
4.404135688044e-03
4.687878422867e-03
3.117837671459e-03
3.529702774384e-03
3.752961490192e-03
3.830800216791e-03
4.743220089301e-04
1.891519218784e-03
5.771465514508e-03
4.089532321688e-03
5.391930956668e-03
5.395352371543e-03
4.403465603732e-03
5.428295798469e-03
2.711349306453e-03
2.579117857356e-03
5.122665484976e-03
0.0
1.840758435860e-03
5.616042079043e-03
8.237432765106e-04
3.385098086166e-03
5.098464473505e-03
5.994795909040e-04
3.983112400915e-04
5.989580935828e-03
3.133104392698e-03
5.665785838847e-03
4.960111850706e-03
3.124857482388e-03
0.0
5.632893496604e-03
9.982363891210e-04
5.455855807356e-03
5.714313673249e-03
5.360106047106e-03
8.140468256158e-04
3.782530279231e-03
2.880362090628e-03
4.355508239889e-03
5.671711904199e-03
4.776155304540e-03
5.663484683731e-03
0.0
5.589551347142e-03
1.512890600852e-03
7.914478455334e-04
5.397054391262e-03
5.743402050252e-03
5.733536642357e-03
3.426595864351e-03
3.717007925183e-03
1.646038233533e-03
5.655472529231e-03
2.339881504149e-03
8.036133470503e-04
4.521262599813e-03
3.249064134649e-03
5.466053350077e-03
5.951132079152e-03
5.885235530218e-03
4.854921181183e-04
3.182268852090e-04
3.189601210708e-03
3.264417416490e-03
5.744673122169e-03
5.821030348919e-03
4.049503436329e-04
0.0
5.287127657436e-03
5.147388720085e-03
1.173728759617e-03
5.308389383186e-03
3.861412420017e-03
3.447396140137e-03
4.313090326591e-03
1.487039342624e-03
4.054223007771e-03
9.352616087626e-04
3.085786119638e-03
5.355845819130e-03
5.346807489972e-03
3.320434685778e-03
3.970741636665e-03
5.313594699531e-03
4.970757498224e-03
4.685070856500e-03
3.121604600955e-03
3.851714109814e-03
5.392942080287e-03
1.774965986013e-03
4.406585063081e-04
5.044417363226e-03
4.474595389771e-03
1.114377206921e-03
4.510176921097e-03
5.486912845254e-03
4.947561165270e-03
5.266766084571e-03
4.198063581823e-03
0.0
1.470518372103e-03
1.753101937548e-03
3.631135606701e-03
3.881045925371e-03
5.513487264780e-03
5.223998920856e-03
1.020852490991e-03
8.247746946980e-04
1.369961284446e-03
4.515742145024e-03
2.251628283076e-03
5.512574297706e-03
1.101239483144e-03
4.944710226892e-03
3.686457503037e-03
5.316904859013e-03
4.584108386174e-03
3.633631005452e-03
5.441228742427e-03
5.760973095862e-03
5.768457653903e-03
1.076429508706e-03
5.403578302253e-03
5.433000637951e-03
5.028809833893e-03
4.690494387880e-03
5.655330995816e-03
4.686381379503e-03
0.0
1.396280660218e-03
5.170660034106e-03
3.932337476204e-03
5.342833454285e-03
4.884276764452e-03
5.447158665414e-03
4.847067005331e-03
5.305854444718e-03
5.181492536697e-03
5.139590615884e-03
2.342515450525e-03
5.825123485813e-03
3.511800923746e-03
5.448173838807e-03
7.428025292534e-04
5.262596336557e-03
4.547206860874e-03
6.035790654862e-04
8.086025518277e-04
4.796988799160e-03
5.631992981559e-03
5.519397513834e-03
5.310091205384e-03
3.912116890080e-03
3.336829723450e-04
7.216677684811e-05
3.636648382109e-04
1.164636641950e-03
0.0
3.057585890836e-03
5.327921971227e-03
5.411971840112e-03
3.914684461503e-03
2.701530490713e-03
5.213565150943e-03
5.007366373899e-03
5.467264405238e-03
5.207424473042e-03
5.074998992932e-03
6.015575377216e-04
0.0
5.376601054342e-03
4.998770260557e-04
7.354796995695e-04
4.650576109338e-04
6.246802752465e-04
5.332466837785e-03
5.508668632613e-03
5.527152150685e-03
5.370182133116e-03
4.813648012505e-03
4.090345476850e-03
5.872497858860e-03
1.688844706779e-03
3.242062731608e-03
1.296527781915e-03
2.048831776387e-04
5.850745223492e-03
3.550974671321e-03
8.641995463890e-04
2.926275799080e-03
5.656777809006e-03
5.503877635999e-03
5.618051296971e-03
2.129346423962e-03
0.0
5.566911874099e-03
6.011875443670e-03
5.902551827901e-03
3.412317331757e-03
4.981747800379e-03
7.975484814360e-04
5.534656444521e-03
1.991551371557e-04
5.305266967479e-03
5.730842396305e-03
0.0
4.981060490428e-03
4.675346069498e-03
5.654646432844e-03
5.577265656584e-03
4.298496663279e-03
5.550848395389e-03
5.494928221657e-03
4.409266495861e-03
5.352947711999e-03
2.479552746464e-03
3.115289873894e-03
5.217348424536e-03
5.739897385503e-03
2.130598970231e-04
3.124201721815e-03
5.632614020689e-03
1.101480850632e-03
5.091661295346e-03
5.450633370530e-03
5.763755232995e-03
1.048262864143e-03
9.819337037051e-04
3.563851573438e-03
5.043841388328e-03
0.0
5.651156742465e-03
4.142985444651e-03
1.530326117569e-03
3.945008028744e-03
5.471691496627e-03
3.728983518662e-03
3.951320679395e-04
2.244711810372e-03
3.243419354848e-03
3.838568504311e-03
5.141366330764e-03
3.163902532595e-03
3.328394715870e-03
5.059368158880e-04
5.311799105867e-03
5.084872395273e-03
7.504975414656e-04
5.677168446605e-03
5.592115835300e-03
3.482521557627e-03
4.251403145156e-03
3.187364706085e-03
3.251257493807e-03
3.439701907309e-03
4.794833467625e-03
1.169016289084e-03
5.320349723071e-03
3.618781519640e-03
5.751198579347e-03
4.781103524799e-03
4.050232424031e-03
5.211038119851e-03
5.105861927613e-03
5.449330151016e-03
7.104254593752e-05
5.217846714948e-03
5.418217703554e-03
5.880291415762e-04
2.994215514378e-03
2.729319316379e-05
5.459819003965e-03
4.364900820947e-04
2.921195578601e-04
4.970357444734e-04
3.005451525233e-04
5.024950650496e-04
3.028105059814e-04
5.027495866096e-04
3.036032867209e-04
5.016261060423e-04
3.039823959412e-04
4.997529787712e-04
3.042031267103e-04
4.973678209741e-04
3.043632234340e-04
4.945867148507e-04
3.044955602241e-04
4.914768013506e-04
3.045991340332e-04
4.880907938595e-04
3.046542232361e-04
4.844871908454e-04
3.046333873269e-04
5.823968987633e-04
4.807471281790e-04
3.045044338593e-04
4.769696764663e-04
4.149152140079e-04
3.042384795344e-04
4.732589659936e-04
3.037955285614e-04
4.697194085980e-04
3.031537673578e-04
5.258719838504e-04
4.664901768796e-04
3.021415992227e-04
4.633973360115e-04
3.008410048574e-04
4.608339032516e-04
2.991838522631e-04
4.591459963974e-04
2.976809155676e-04
4.658404708105e-04
2.959448490273e-04
5.015775427020e-04
2.962524682636e-04
6.940707878655e-04
2.942811329307e-04
5.997213442918e-04
3.038686760161e-04
6.635823435275e-04
2.984337526045e-04
8.595180576708e-04
3.559692405025e-04
7.479489223246e-04
6.865348358170e-04
3.986962631374e-04
5.902750417136e-04
4.846104566718e-04
4.538386176635e-04
3.580346138277e-04
4.866417354954e-04
7.321707340775e-04
8.160713321414e-04
6.492041153339e-04
8.093994555289e-04
6.454908964317e-04
8.100092406204e-04
6.461533472615e-04
8.101931322880e-04
6.466009290983e-04
8.097632652097e-04
6.466006866449e-04
8.088264904123e-04
6.462280519908e-04
8.074914891814e-04
6.455850362013e-04
8.058422939469e-04
6.447644756657e-04
8.039423756516e-04
6.438441965014e-04
8.018498727297e-04
9.443944293245e-04
6.429033510968e-04
7.996395752428e-04
6.420464545931e-04
8.993112986242e-04
7.974400540373e-04
6.414476041782e-04
8.104640710795e-04
7.953515923743e-04
6.412611384576e-04
7.935379176620e-04
6.416895100564e-04
7.919858671216e-04
6.428148585451e-04
7.911835860965e-04
6.451930832692e-04
7.906974009089e-04
1.043478559365e-03
6.488280680812e-04
7.922708773299e-04
6.550535599372e-04
7.938530396349e-04
8.029556655580e-04
6.640767376592e-04
8.088257507124e-04
6.719923155100e-04
8.388261853805e-04
6.833318788760e-04
8.553368924240e-04
9.634094282349e-04
6.841959459369e-04
7.437750547271e-04
7.951248194132e-04
7.840978980929e-04
9.067201485113e-04
7.182952173455e-04
8.056560068066e-04
9.074976820290e-04
1.058681690343e-03
9.613642980480e-04
1.124673614868e-03
9.642913636796e-04
1.127661580992e-03
9.648233326171e-04
1.128011847827e-03
9.654698872071e-04
1.128246407529e-03
9.661174501393e-04
1.128241949394e-03
9.666192092129e-04
1.127921452004e-03
9.669326403947e-04
1.127297441789e-03
9.671031816598e-04
1.126433431619e-03
9.671889276695e-04
1.125391184152e-03
1.237353525443e-03
9.672563440909e-04
1.124245166346e-03
9.673661569137e-04
1.105389387161e-03
1.123086879016e-03
9.676222955820e-04
1.122129503599e-03
9.683134754468e-04
1.121554665225e-03
1.145945620184e-03
9.695365254224e-04
1.121594875715e-03
9.716448673927e-04
1.122152112965e-03
9.743449953803e-04
1.124077529975e-03
9.789309549986e-04
1.126440635360e-03
9.841542575440e-04
1.132759419617e-03
9.937341327789e-04
1.290961962115e-03
1.005880637927e-03
1.137696293842e-03
1.025859589004e-03
1.158967738296e-03
1.053157411498e-03
1.166075290220e-03
1.230270836602e-03
1.084626999933e-03
1.156949487112e-03
1.018044811625e-03
1.073261720169e-03
9.841122625308e-04
1.197570165166e-03
1.355008650809e-03
1.443841627123e-03
1.277845312024e-03
1.436630652410e-03
1.273019814809e-03
1.436273584903e-03
1.273066868925e-03
1.436708570989e-03
1.273891527970e-03
1.437272560770e-03
1.274910118152e-03
1.437696030249e-03
1.275870775207e-03
1.437840220204e-03
1.276638694493e-03
1.437769401218e-03
1.277333767015e-03
1.437521807662e-03
1.492050320424e-03
1.278020419144e-03
1.437163248107e-03
1.278761654515e-03
1.383228364698e-03
1.436706649559e-03
1.348539767128e-03
1.279533274446e-03
1.436149555039e-03
1.280413992586e-03
1.436171304189e-03
1.282119732342e-03
1.436411458420e-03
1.284501989481e-03
1.438201695272e-03
1.478819618675e-03
1.288143499654e-03
1.438650527887e-03
1.291639997313e-03
1.444130028297e-03
1.443167385266e-03
1.297946882526e-03
1.459520057261e-03
1.303387863510e-03
1.450252832353e-03
1.504413949298e-03
1.314489036099e-03
1.321928407648e-03
1.288355325782e-03
1.366973093525e-03
1.498427822904e-03
1.340309289946e-03
1.427497875249e-03
1.381941815066e-03
1.683449326718e-03
1.587854795547e-03
1.752598431419e-03
1.591766725301e-03
1.755487976330e-03
1.592117775931e-03
1.755748046157e-03
1.592908272950e-03
1.756447334746e-03
1.594070061262e-03
1.757338428947e-03
1.595439880482e-03
1.758184168094e-03
1.596577541790e-03
1.758623494902e-03
1.597525668631e-03
1.758893612162e-03
1.775142239222e-03
1.598533292336e-03
1.759097363679e-03
1.623922942480e-03
1.599734639697e-03
1.759352779785e-03
1.600889530669e-03
1.759429545330e-03
1.601695349041e-03
1.661375170989e-03
1.759017839227e-03
1.602504728646e-03
1.759776800456e-03
1.605089372780e-03
1.760876941343e-03
1.607636798844e-03
1.764585957995e-03
1.612270932848e-03
1.763785538860e-03
1.613389646122e-03
1.731789320293e-03
1.619837371080e-03
1.773607484692e-03
1.614639726010e-03
1.763145728161e-03
1.795737480388e-03
1.548841017464e-03
1.759407810678e-03
1.617423548206e-03
1.696652227122e-03
1.608070457612e-03
1.637166809082e-03
1.978075538529e-03
2.068879625806e-03
1.902590828716e-03
2.062161995598e-03
1.898060516849e-03
2.062005351751e-03
1.898519902904e-03
2.062707203719e-03
1.899593226571e-03
2.063756227685e-03
1.901151117505e-03
2.065159394734e-03
1.903035017397e-03
2.065878819387e-03
1.904260045321e-03
2.066054267018e-03
2.081255348113e-03
1.904941591621e-03
2.066518291686e-03
1.946229207625e-03
1.906538266237e-03
2.067300682488e-03
1.912400718489e-03
1.908299225307e-03
2.067775509969e-03
1.909424505434e-03
2.067392831623e-03
1.909798919589e-03
2.065159627985e-03
2.019164063614e-03
1.909657238486e-03
2.069050084578e-03
1.913990891757e-03
2.066625557090e-03
2.079233419176e-03
1.915722788534e-03
2.058653760931e-03
1.921030618245e-03
2.092125439694e-03
1.905326932506e-03
1.827911328399e-03
1.974792546786e-03
2.109959634287e-03
1.963899074007e-03
2.050594123143e-03
1.898921720586e-03
2.308296873625e-03
2.212383277902e-03
2.377889872021e-03
2.214994051217e-03
2.379726867620e-03
2.216547427580e-03
2.381089610341e-03
2.216872246426e-03
2.381752235969e-03
2.218454871060e-03
2.383250492322e-03
2.220224400099e-03
2.385222509952e-03
2.222734674364e-03
2.386383023483e-03
2.391862537500e-03
2.221806440899e-03
2.220677278307e-03
2.385011920154e-03
2.223422370937e-03
2.386582139412e-03
2.226346237541e-03
2.388440069183e-03
2.227280475162e-03
2.250484607725e-03
2.388398609737e-03
2.227668810492e-03
2.387714431866e-03
2.226868736979e-03
2.381778775207e-03
2.225381309291e-03
2.391304783019e-03
2.233950156438e-03
2.220516966315e-03
2.381499207426e-03
2.320752866227e-03
2.406602035383e-03
2.125680874572e-03
2.371949036351e-03
2.230910756870e-03
2.319921770893e-03
2.232416445766e-03
2.197022376616e-03
2.606499819159e-03
2.690961257714e-03
2.522000530317e-03
2.681395089224e-03
2.516611695707e-03
2.684936923134e-03
2.520724084807e-03
2.682910389250e-03
2.518155025397e-03
2.685720127669e-03
2.522107693972e-03
2.686100147812e-03
2.522572435250e-03
2.701698277203e-03
2.691814660839e-03
2.527183984821e-03
2.558519512118e-03
2.685492272813e-03
2.523715955889e-03
2.521830125806e-03
2.687781338981e-03
2.527976907291e-03
2.692519047907e-03
2.530769531241e-03
2.691005186238e-03
2.620190236794e-03
2.529256469091e-03
2.690152839742e-03
2.692355677766e-03
2.530525369073e-03
2.668560171641e-03
2.530830175599e-03
2.711856376190e-03
2.517118108963e-03
2.429701944538e-03
2.579121291386e-03
2.733210654048e-03
2.586513322999e-03
2.669335382215e-03
2.501112406734e-03
2.952964194819e-03
2.821859864007e-03
2.991596827692e-03
2.833511162691e-03
2.996758346163e-03
2.839990296122e-03
3.006645179008e-03
2.831291115803e-03
2.995872769527e-03
2.837184649027e-03
3.005449104704e-03
2.838583631022e-03
3.016774272030e-03
3.001904421592e-03
2.851312415787e-03
2.832771918756e-03
3.009442756207e-03
2.842210225621e-03
3.000234049433e-03
2.844919680408e-03
3.009082672670e-03
2.844437144164e-03
2.872310885887e-03
3.011912840164e-03
2.842005763748e-03
3.004113999591e-03
2.837696132236e-03
2.839675268707e-03
3.003734450339e-03
3.017107183080e-03
2.932857225621e-03
2.738763543566e-03
2.957508157438e-03
2.875589959643e-03
2.947488772035e-03
2.848489924599e-03
2.817296966531e-03

SCALARS element_materi_plasti_phimob float
LOOKUP_TABLE default
1.136371513057e+01
1.097551523619e+01
2.018894580679e+01
2.006543597527e+01
1.743041467205e+01
2.897348975388e+01
1.744712552312e+01
1.111755821227e+01
1.745406183689e+01
2.004488326722e+01
1.868307926435e+01
8.565044765703e+00
2.032624212166e+01
1.786447688679e+01
2.042530485118e+01
2.017904731092e+01
1.727680708895e+01
2.771963329681e+01
8.131128787153e+00
8.134584581383e+00
2.003518484794e+01
1.238499440173e+01
1.350040445730e+01
2.105020271263e+01
1.828886772696e+01
1.895252496838e+01
1.663587564668e+01
2.060194861736e+01
1.827689594268e+01
2.100104862529e+01
2.134377446427e+01
-1.761149630121e+01
2.018278375066e+01
1.972567246985e+01
2.055948324099e+01
2.055265125900e+01
2.055082447570e+01
2.093361923296e+01
1.682022768707e+01
1.686800271169e+01
1.474071785834e+01
2.063144097453e+01
7.135758563535e+00
1.664564457347e+01
1.992349279575e+01
7.953676464446e+00
2.514039709432e+01
1.995458703504e+01
1.642771878137e+01
1.758953583111e+01
1.418135601814e+01
1.080953353824e+01
2.430797857658e+01
1.397754055706e+01
2.016311101840e+01
1.379358012992e+01
1.111021933846e+01
1.973175779674e+01
3.865838170778e+00
2.016970861646e+01
1.466249579117e+01
2.074858882264e+01
1.524283178975e+01
2.405106928087e+01
2.033994447557e+01
1.320492988627e+01
1.864565981288e+01
2.017529179339e+01
6.813280129181e+00
2.030504962467e+01
1.916054353318e+01
2.036423214627e+01
2.043809546055e+01
-1.146496859317e+01
1.415044528273e+01
2.007128543074e+01
2.014776724480e+01
7.915797234823e+00
2.823377436266e+00
5.645085107919e+00
7.796099161321e+00
1.724637097822e+01
1.281322846611e+01
1.120569414647e+01
1.774805419650e+01
1.776262204909e+01
1.929066969110e+01
1.960543901874e+01
1.944080136116e+01
1.737841238417e+01
-2.120010783287e+01
1.725803038943e+01
1.925838732311e+01
1.917521545842e+01
2.031678347474e+01
2.082775178494e+01
1.720788413916e+01
2.080174140249e+01
1.827978691494e+01
1.451111440912e+01
1.710903432619e+01
2.042845127208e+01
2.096378112940e+01
2.078416227383e+01
1.598420576377e+01
1.765346822186e+01
2.010249897663e+01
1.948753598277e+01
2.126355878791e+01
2.041548043368e+01
1.928911617829e+01
-2.389409059965e+01
1.873410274876e+01
1.656231118480e+01
1.583755888623e+01
1.365378990359e+01
1.546239071059e+01
2.057850282677e+01
1.811012076749e+01
1.492899735752e+01
3.793615027155e+00
1.722669891135e+01
1.950920425519e+01
1.535487034777e+01
1.795889493121e+01
1.575366996742e+01
1.579880700482e+01
1.522043656102e+01
2.019256083916e+01
2.178693857729e+01
1.894366006612e+01
2.007669935027e+01
1.631921108997e+01
1.529185669130e+01
2.062745802862e+01
2.033339274556e+01
1.930585543782e+01
1.671163674079e+01
2.096921874772e+01
1.578017233225e+01
2.012731956919e+01
2.029528918141e+01
1.782913338577e+01
1.878968497049e+01
1.582695219170e+01
1.468144801162e+01
1.711353314098e+01
1.734684554520e+01
1.723437222507e+01
1.959020989585e+01
-2.187603207390e+01
1.772523586741e+01
3.771125171425e+00
1.618972858928e+01
2.071454494482e+01
1.484196983083e+01
1.944771596673e+01
8.925791826232e+00
2.082067595281e+01
1.732973482634e+01
1.942111259871e+01
1.986226650502e+01
4.137021182172e+00
2.009987310291e+01
1.722632165519e+01
2.041218867096e+01
1.729781246141e+01
1.695498839193e+01
1.614219010678e+01
1.872433480153e+01
8.668018364590e+00
2.045473987524e+01
1.899641113617e+01
1.728995167824e+01
1.797402813886e+01
1.571266173437e+01
1.981363516489e+01
1.661424099563e+01
2.053570347593e+01
2.031704375389e+01
1.287493225222e+01
1.658935848781e+01
2.127219306816e+01
1.527166382209e+01
1.152502227755e+01
1.691060226485e+01
1.828269794983e+01
2.014182958126e+01
1.926556065039e+01
1.998272615682e+01
7.593405892428e+00
2.156220482516e+01
1.943901534372e+01
9.914535035282e+00
1.525855359304e+01
2.128338359570e+01
-2.486175268356e+00
2.010260461975e+01
1.871718903768e+01
1.844367678740e+01
2.139659192717e+01
1.769372115210e+01
1.808363996294e+01
2.090719478089e+01
1.448697635325e+01
1.756122349954e+01
1.753821614082e+01
1.890754540762e+01
1.752094514622e+01
1.688712083060e+01
2.123958660904e+01
1.965060673172e+01
1.453190750463e+01
1.275862648038e+01
1.432947903867e+01
1.718924567500e+01
1.942062667980e+01
2.828772482359e+01
2.121128901626e+01
1.721555419969e+01
2.036303728336e+01
2.107155973100e+01
-1.485365951955e+01
1.909560024147e+01
-2.069106496051e+01
-3.997914378262e+00
6.032528819269e+00
1.263995612818e+01
1.926070927058e+01
1.204706679682e+01
1.456563372342e+01
1.761263911277e+01
5.903695347719e+00
2.136235087899e+01
1.721816129117e+01
2.034596665559e+01
1.164645391841e+01
1.676202743415e+01
2.058918950950e+01
1.466951932405e+01
2.137189379294e+01
2.044065202507e+01
1.908069310256e+01
2.338278505355e+01
2.129281095011e+01
1.911091601318e+01
1.742270968110e+01
1.889954176215e+01
2.063792425502e+01
2.150370686417e+01
1.541390832465e+01
1.804821306768e+01
2.032564459501e+01
1.765146666151e+01
2.179581284272e+01
1.782421771976e+01
7.928311235183e+00
1.752721357772e+01
2.161919065117e+01
2.676100606411e+01
2.613354423790e+01
1.927900169951e+01
1.780771226860e+01
1.633240253501e+01
1.943285364006e+01
1.925805266791e+01
1.765056348298e+01
2.044797035985e+01
2.172602860139e+01
1.787108060765e+01
1.896449400210e+01
2.164897933545e+01
2.559167911021e+01
1.723963415298e+01
2.220137614967e+01
2.435090317066e+01
1.908918366261e+01
4.843291347797e+00
1.779183275760e+01
2.299737565828e+01
1.900873215517e+01
2.668392871146e+01
1.829679267371e+01
-4.936668798875e+00
1.484010791806e+01
2.160277041821e+01
1.780245667865e+01
1.774240750389e+01
3.012342453978e+01
2.527110409055e+01
2.350527938162e+01
1.354173321323e+01
1.889238861980e+01
1.498833050366e+01
2.229272786077e+01
2.151043245541e+01
2.794554295251e+01
1.929178711662e+01
1.415940717369e+01
2.033306454475e+01
2.036551436458e+01
1.799285275443e+01
2.350811050542e+01
2.142854926887e+01
1.815347670990e+01
2.393397736478e+01
2.513462279081e+01
1.736340869072e+01
2.012932871022e+01
2.156495554865e+01
2.100696277097e+01
1.672086917331e+01
2.089160781660e+01
2.164357985478e+01
1.775723347396e+01
2.893133782485e+01
2.183898874400e+01
2.145686084529e+01
2.354550667383e+01
1.755162965757e+01
2.042536313007e+01
2.259496919242e+01
2.182224185302e+01
1.954637362495e+01
1.859946046237e+01
2.127642947622e+01
1.402696753345e+01
1.839964344860e+01
2.051999117457e+01
2.118250956010e+01
2.039772482844e+01
1.833112512611e+01
1.929289231946e+01
1.112317243682e+01
1.691495631470e+01
1.784742391838e+01
1.808916879070e+01
1.749629537497e+01
2.063310290588e+01
1.808674923255e+01
1.723266972532e+01
2.249051003625e+01
9.997046255989e+00
1.653456183530e+01
1.545540181390e+01
1.731034983972e+01
2.185548289073e+01
2.287647263937e+01
1.926574944652e+01
1.711181408112e+01
1.726083193505e+01
2.175119086282e+01
2.073799513133e+01
2.076246120288e+01
1.575957738463e+01
2.604820162365e+01
1.812002818349e+01
1.198347480845e+01
1.292216205887e+01
1.958290318521e+01
1.800450606261e+01
1.472906861279e+01
1.656038790353e+01
2.092982411564e+01
2.104743673110e+01
1.958633304363e+01
1.908150833463e+01
2.063255551624e+01
1.578654226519e+01
2.529857037965e+01
2.431331459511e+01
1.782640731639e+01
2.191119966016e+01
1.759845635946e+01
1.959034149350e+01
2.572092710845e+01
1.746093888532e+01
1.760683306977e+01
1.655568534437e+01
2.036372565659e+01
2.035634611921e+01
2.009402875125e+01
2.073918010898e+01
1.945106432163e+01
1.329832730594e+01
2.355496154435e+01
2.729104831968e+01
1.541519656557e+01
1.721460529832e+01
1.835762011684e+01
2.107210565908e+01
1.960581784611e+01
1.804698938622e+01
1.834918746228e+01
2.727418509674e+01
-5.362230734865e-01
1.984830585837e+01
1.821649512261e+01
1.997675086988e+01
1.186212702471e+01
1.781326320145e+01
8.903356796143e+00
1.955399740572e+01
2.062115097532e+01
2.142775682813e+01
1.725673601936e+01
4.507380095944e+00
1.737584412682e+01
2.065747326994e+01
1.829970792834e+01
2.045015027379e+01
1.690571723089e+01
1.818624450147e+01
1.773453711260e+01
1.943519164105e+01
2.081617372203e+01
2.046077867689e+01
2.046881921905e+01
2.040767828762e+01
2.042407143016e+01
1.853945414117e+01
1.941933042818e+01
1.974903706254e+01
1.637445059793e+01
1.562631508533e+01
1.709289888461e+01
1.957531539555e+01
2.057647517152e+01
1.959376965666e+01
2.153121520016e+01
1.957855581429e+01
1.986961835485e+01
1.797379870350e+01
1.533135574046e+01
2.125295250612e+01
2.015991511477e+01
1.617819988915e+01
2.027915149313e+01
1.715285735901e+01
2.006552467763e+01
2.078676546162e+01
1.799839784197e+01
2.048972307706e+01
2.018521541019e+01
1.829093114183e+01
-1.997246823040e+01
2.052441388148e+01
2.081323689929e+01
2.209188718520e+01
2.166366812465e+01
2.084406295119e+01
-5.606666345799e+01
1.714609375874e+01
1.845074147262e+01
1.813684772752e+01
1.795637494235e+01
1.866079855954e+01
2.056015401251e+01
2.299384919566e+01
2.875647788441e+01
2.053528958746e+01
-1.841751333900e+01
1.618762712977e+01
2.104623633466e+01
1.652932127608e+01
2.091898306216e+01
2.059184422443e+01
1.807895439085e+01
1.575911633078e+01
2.907871579067e+01
1.651677811414e+01
2.044416981581e+01
1.722134815540e+01
1.751916873895e+01
2.061421449071e+01
1.725223375705e+01
2.034568563514e+01
2.004853160695e+01
1.815447327079e+01
1.327007140581e+01
2.149738158461e+01
2.603060565071e+01
2.062233075717e+01
2.044506183869e+01
2.041954567997e+01
2.043758306595e+01
1.654477339161e+01
1.851511697386e+01
2.052273707294e+01
2.062297103453e+01
2.161489041091e+01
2.419435281793e+01
2.303759046131e+01
1.841528388549e+01
2.088148904809e+01
1.008493226425e+01
2.062031508595e+01
2.203693766443e+01
2.051178283101e+01
1.974309219547e+01
8.898992220815e+01
1.827604947616e+01
1.959756970912e+01
2.054530224095e+01
1.854978757655e+01
2.037995363921e+01
2.064298225964e+01
2.096712027665e+01
2.077174954843e+01
2.181045516779e+01
1.217304742973e+01
2.057624538648e+01
2.573788260282e+01
2.113923101502e+01
1.788434001064e+01
1.580255556358e+01
2.302335328808e+01
1.836899919409e+01
2.062083403560e+01
1.684914755957e+01
2.085464111728e+01
1.843569547768e+01
2.163258455595e+01
2.363033577659e+01
2.081056360290e+01
1.809535236769e+01
1.939192370221e+01
2.139886980118e+01
1.861011017000e+01
1.785406076213e+01
1.968122087728e+01
1.658036539032e+01
2.024482914928e+01
2.192019417429e+01
2.091666893287e+01
1.972570478475e+01
1.445780827655e+01
2.062102734371e+01
2.106922199973e+01
2.015576607450e+01
-1.743715847700e-02
2.082500556995e+01
1.971909373189e+01
2.039352764629e+01
2.061754163860e+01
2.055949780764e+01
1.597133234063e+01
1.779183413182e+01
2.201529154059e+01
2.026904893891e+01
2.172679465273e+01
1.870229450228e+01
1.665374524732e+01
2.119361145840e+01
1.822841624848e+01
1.745356669326e+01
2.160880114823e+01
1.945137712095e+01
1.916108935223e+01
-5.780939977148e+01
1.826840142569e+01
2.050677359024e+01
1.781718784457e+01
1.969469295612e+01
2.086139629624e+01
1.819437863714e+01
1.871505157205e+01
2.061599639194e+01
1.849344289690e+01
1.795887493216e+01
1.834988834623e+01
1.775568793656e+01
-5.552229021030e+01
1.804480879701e+01
1.614988332291e+01
8.999999999681e+01
1.753685151136e+01
2.087892959149e+01
1.961759095216e+01
2.189764306655e+01
2.183869996601e+01
1.692944153248e+01
1.663099146425e+01
2.015590220991e+01
1.821499234202e+01
8.999999999681e+01
5.863262007743e+00
-1.229455476792e+01
1.405385010999e+01
1.982399011122e+01
1.961074347793e+01
2.036757841298e+01
1.479693695830e+01
1.910059487456e+01
2.107354397160e+01
2.847994296204e+01
1.614563997874e+01
1.452752442290e+01
2.081669782389e+01
2.061175001313e+01
1.690754013178e+01
1.790804597203e+01
2.038785521411e+01
2.110907992210e+01
7.527827416458e+00
2.100457637767e+01
-2.043962629999e+00
1.731003700615e+01
1.817288799975e+01
-1.776138450606e+01
1.650936997941e+01
1.974869568082e+01
8.999999999681e+01
1.660658970101e+01
1.661521047588e+01
2.172923080006e+01
1.453455021599e+01
1.910245039121e+01
1.736012815582e+01
2.037212815952e+01
2.042516870850e+01
1.939656065140e+01
1.364996680048e+01
-1.408821704129e+00
1.658409075113e+01
1.667077263986e+01
1.669849559898e+01
8.999999999681e+01
-1.818735603747e+01
-3.345711175354e+00
1.185505845275e+01
-1.767193385559e+01
1.727703122205e+01
3.218873580100e+00
1.381558070984e+01
1.860487515666e+01
1.663513530505e+01
1.989736897938e+01
2.061374089848e+01
1.822222040392e+01
1.510682249363e+01
-1.683813705704e+00
2.035095371345e+01
2.031469275219e+01
1.789897447998e+01
1.666191908946e+01
1.522485319290e+01
2.030966664952e+01
1.320251821082e+01
1.661423480013e+01
1.660920218459e+01
1.614335432563e+01
2.040155370698e+01
2.029296064190e+01
-1.793975899588e+01
-5.565994230694e+01
2.176685375685e+00
1.837218780096e+01
2.021740725856e+01
9.117551784395e+00
1.938354641378e+01
-1.065484486121e+01
2.167329457492e+01
-4.097414310709e+01
1.393765193194e+01
2.160190251545e+01
2.014305870079e+01
1.857170556194e+01
1.700496627232e+01
-1.750697597063e+01
1.918504908530e+01
2.033115010078e+01
2.030912840547e+01
1.665011416604e+01
2.166432100522e+01
2.034932235914e+01
2.054616390650e+01
-2.152773975226e+00
-1.796683049488e+01
-1.808918422104e+01
1.609421252750e+01
2.054725231146e+01
2.006863198210e+01
8.999999999681e+01
1.725387098590e+01
2.057022989921e+01
2.055299724897e+01
2.075106296917e+01
1.906050957082e+01
1.953431123518e+01
2.055828956702e+01
2.056916440938e+01
1.938012463319e+01
8.999999999681e+01
1.668525817324e+01
1.668536710946e+01
-5.576859781601e+01
2.059079033677e+01
2.075027444002e+01
2.058915574559e+01
8.999999999681e+01
8.999999999681e+01
2.060454561978e+01
2.059868543938e+01
1.888873312778e+01
1.670421393444e+01
1.921993608522e+01
1.801922532980e+01
1.670000760888e+01
8.999999999681e+01
8.999999999681e+01
8.999999999681e+01
8.999999999681e+01
1.757867813346e+01
1.689870416907e+01
-5.559338397565e+01
1.895047588570e+01
-5.566782476171e+01
2.037520663420e+01
2.034092923184e+01
2.035360634206e+01
6.147752269926e+00
1.382237092455e+01
2.033368789761e+01
1.986808613670e+01
2.035065743755e+01
2.011336469724e+01
2.033337292151e+01
1.651689696718e+01
2.030691583906e+01
2.031636772776e+01
1.998478878795e+01
2.022117758716e+01
1.936954626960e+01
-3.787973013564e+01
1.683940700914e+01
-1.860905174605e+01
2.029754791164e+01
1.734846333005e+01
1.984861695355e+01
1.095340280131e+01
-5.472360998963e+00
2.005972962130e+01
1.749837842326e+01
1.566365086303e+01
1.983082086095e+01
1.979096033727e+01
1.563994833871e+01
2.087544140627e+01
1.969123780943e+01
1.939179190119e+01
1.949414815184e+01
2.318814429631e+01
1.622887069128e+01
1.945225480243e+01
1.922275380990e+01
1.991421743945e+01
1.960344793613e+01
1.218216655216e+01
1.976431391310e+01
1.948856770418e+01
1.758786851807e+01
1.948125813328e+01
1.930443597434e+01
1.980260981263e+01
1.964610477771e+01
1.956223780749e+01
2.013280537173e+01
1.941073951565e+01
1.959024676153e+01
2.029139419496e+01
1.977245082069e+01
1.895684995330e+01
2.064386669277e+01
1.107210017785e+01
1.173512266660e+01
-1.833822459964e+00
-4.804060548409e+00
1.964002751764e+01
2.000345430844e+01
-1.457168529395e+01
1.971207649151e+01
1.781464042954e+01
1.975727561236e+01
1.976458281077e+01
1.819727207565e+01
1.975375317577e+01
1.756620945114e+01
2.152781787386e+01
2.034395327186e+01
1.067902426085e+01
2.048933788411e+01
1.915711265120e+01
1.202902976668e+01
1.377646997898e+01
1.811546401364e+01
1.852828206874e+01
1.560898296830e+01
1.934248392154e+01
1.878017390149e+01
1.810829162731e+01
1.948040214973e+01
1.966056309194e+01
1.916862834481e+01
8.741416585535e+00
1.773319266630e+01
2.097319286810e+01
1.930216336993e+01
1.707914145663e+01
1.943629005574e+01
2.052905600461e+01
1.895960188475e+01
2.678224210067e+01
-2.232930384724e+00
2.761551661417e+01
1.992675984864e+01
1.875625317907e+01
1.855159842489e+01
1.806645643764e+01
2.098757032487e+01
1.826195830004e+01
1.967544082335e+01
1.117512005949e+01
2.035198994018e+01
1.807400209522e+01
1.213099046810e+01
1.771547278990e+01
1.595943359948e+01
1.381161737799e+01
1.856775144698e+01
-5.441974004909e+01
-5.441981328524e+01
1.927644745118e+01
1.009246070936e+01
1.941861056076e+01
1.935486443373e+01
1.696475341279e+01
1.806471462272e+01
1.957035758126e+01
2.790577649237e+01
1.630892588861e+01
2.103389801563e+01
7.956613930693e+00
1.832485583511e+01
1.781541792089e+01
7.580373796432e+00
2.061681538648e+01
1.906377026827e+01
9.948025664793e+00
1.969145663649e+01
1.970792457891e+01
1.147734626108e+01
1.398586334186e+01
1.189203440201e+01
1.956841761215e+01
1.841829827515e+01
1.973722188745e+01
1.958356399184e+01
1.949090591248e+01
1.952388640339e+01
9.052933436513e+00
1.959440493991e+01
1.907855395496e+01
1.839996248918e+01
1.874485613626e+01
1.925740338187e+01
2.187058619188e+01
1.945160618847e+01
1.737460677945e+01
1.823934151761e+01
1.532243646409e+01
1.658426904312e+01
1.892211109341e+01
1.968651309748e+01
1.271639314632e+01
2.116350765406e+00
1.890748925162e+01
1.267048847705e+01
2.048975606388e+01
1.912158895922e+01
1.978388168471e+01
2.081214279675e+01
1.707583637409e+01
1.139015952908e+01
4.673875039404e+00
1.964478844434e+01
1.857859131566e+01
-2.592352811794e+00
1.558581187633e+01
9.742529192823e+00
1.851118585685e+01
1.593603319051e+01
1.956463192292e+01
1.533816774480e+01
1.948212024023e+01
1.435775906521e+01
2.004277502309e+01
1.149705061651e+01
1.971704652492e+01
1.792895720239e+01
1.974521904276e+01
2.427188963928e+01
9.567760870904e+00
1.810913443343e+01
2.151141216544e+01
1.720972376237e+01
1.856485483132e+01
1.374914140416e+01
1.865345171079e+01
8.302145288271e+00
2.036085415730e+01
2.157745851723e+01
2.133177624101e+01
1.986010611883e+01
1.997178401553e+01
8.574091714362e+00
1.998326241501e+01
2.059956438190e+01
1.778610018024e+01
1.969284068655e+01
1.911171821292e+01
1.973979233234e+01
1.982832616061e+01
1.798147154229e+01
1.316493402729e+01
1.520405107998e+01
1.879409813973e+01
1.981669900935e+01
1.609326675778e+01
1.906502449698e+01
1.887313490373e+01
1.833523329370e+01
1.821716796614e+01
1.793689604633e+01
2.073276289238e+01
2.018553620396e+01
1.806167499951e+01
1.987257768315e+01
2.112923638917e+01
1.992677099389e+01
1.927070660032e+01
1.668572600113e+01
1.597782912286e+01
9.139679525461e+00
2.034631807945e+01
1.626310153175e+01
1.868634701756e+01
1.844967386273e+01
2.235175572841e+01
1.485638673048e+01
2.378559738415e+01
1.523871167741e+01
1.605198188795e+01
1.032156551310e+01
2.087543406542e+01
1.906710917085e+01
1.943978420276e+01
1.992110707617e+01
2.027686744201e+01
1.985377472689e+01
2.024566156431e+01
1.041582733692e+01
2.072197626322e+01
2.077270894381e+01
1.926486974021e+01
1.697336764033e+01
2.009879374000e+01
1.870302701159e+01
1.688356044832e+01
1.777466245328e+01
1.437033264173e+01
1.644674224766e+01
1.752883452831e+01
1.338900806201e+01
1.238602712033e+01
1.942038304646e+01
2.007899613752e+01
1.989309082129e+01
-5.845397987010e+01
2.170430607805e+01
2.043304423636e+01
1.807698526333e+01
1.846674483818e+01
1.951957704351e+01
1.485542184887e+01
1.846587020309e+01
1.931544836283e+01
1.488433025161e+01
1.003062030504e+00
6.861120042546e+00
1.697041316894e+01
1.581069136658e+01
2.112370264360e+01
1.930966642844e+01
1.108130385428e+01
7.005210840290e+00
1.813155798442e+01
1.343544161031e+01
2.087160936696e+01
1.988870882225e+01
1.827633428066e+01
1.951204818585e+01
1.996086043214e+01
2.226143772839e+01
1.960288038427e+01
1.431417958535e+01
1.824803390515e+01
2.074147627069e+01
2.410896100578e+01
1.141896785371e+01
1.631522167722e+01
1.972182476104e+01
2.047945795758e+01
1.402413671891e+01
2.019546086437e+01
2.102355549597e+01
2.210190062635e+01
1.570098969061e+01
2.166190489463e+01
1.885763850442e+01
2.258546782342e+01
2.084714705938e+01
1.761298959730e+01
2.099354850678e+01
2.061386842049e+01
2.005609117585e+01
1.864165615423e+01
1.509677786766e+01
1.850323194363e+01
1.961588430821e+01
2.114732700927e+01
1.905005706302e+01
1.872543254052e+01
1.786435456880e+01
1.140110388872e+01
2.006320407215e+01
8.394301804409e+00
2.112607897489e+01
1.974441631307e+01
2.156891336820e+01
1.827018675946e+01
1.935786556690e+01
2.157486435349e+01
2.208670648207e+01
1.979261970505e+01
2.024182725408e+01
1.901764678517e+01
2.148187730716e+01
1.618227938053e+01
1.916864516255e+01
2.043963917265e+01
2.080193177379e+01
1.873311508781e+01
1.825180068529e+01
1.800349662444e+01
2.003701549649e+01
2.040763233332e+01
2.067095512996e+01
4.772242301946e+00
2.456850561256e+01
2.260821235431e+01
2.212486723651e+01
1.888731415741e+01
1.992045984370e+01
1.973459443773e+01
1.973050845286e+01
1.639781057667e+01
1.930208463857e+01
2.017455129800e+01
1.983417982107e+01
1.896808758567e+01
1.900807031351e+01
2.283273151148e+01
1.918919923033e+01
1.966120585191e+01
1.922936616001e+01
1.903585744368e+01
2.056925476772e+01
2.110146229075e+01
2.070183019710e+01
1.986751143462e+01
1.570761159004e+01
2.150497476274e+01
1.892476682851e+01
1.230757360337e+01
2.235813061174e+01
2.203789280532e+01
2.187616057444e+01
2.638278851209e+01
2.274359716562e+01
2.170082556253e+01
1.696668094534e+01
1.922199253644e+01
1.857358020669e+01
1.713978115388e+01
-7.049199905419e+00
1.973822755459e+01
2.150512949681e+01
1.986357074207e+01
2.222250740742e+01
1.958956122400e+01
1.863661228535e+01
-2.290649494246e+00
2.159660387020e+01
2.204143668201e+01
1.728524404177e+01
2.046618788387e+01
2.185948317459e+01
2.069885099282e+01
2.094406639384e+01
2.163776764030e+01
1.921455001905e+01
2.038168244683e+01
2.084891532560e+01
3.319908317577e+00
1.880478584285e+01
2.090114514176e+01
1.937513131723e+01
2.180019601825e+01
2.261358905402e+01
1.845912023520e+01
2.992940412303e+01
1.954700869177e+01
1.310355466853e+01
7.650706588191e+00
2.008666938323e+01
1.986653845400e+01
1.921142290171e+01
1.861983212146e+01
1.898934699571e+01
1.866409102824e+01
2.537618756905e+01
1.883764686871e+01
1.163921963391e+01
2.165305481200e+01
1.788995237778e+01
2.198982704359e+01
2.031881633276e+01
1.059608570890e+01
2.045604442427e+01
2.273585156641e+01
1.875821727346e+01
2.859152265783e+01
2.093601442098e+01
1.531771204809e+01
1.461216316572e+01
2.147986071119e+01
2.107050909546e+01
2.105135204097e+01
1.676596989857e+01
1.910104799619e+01
2.105803498921e+01
1.882679255926e+01
1.985988176268e+01
1.931441112581e+01
1.945836410093e+01
2.397237981853e+01
2.025992253091e+01
1.914808219777e+01
2.137351916531e+01
1.267608615942e+01
2.096191973090e+01
2.623563672094e+01
1.405689855579e+01
2.112772497173e+01
8.284586280772e+00
1.981034929216e+01
2.149038409023e+01
1.974979793269e+01
1.988470166821e+01
2.154768515605e+01
1.949481147398e+01
2.205272747312e+01
1.967294059870e+01
1.419424155795e+01
1.989112410420e+01
1.535644692498e+01
1.578726101105e+01
2.213007591239e+01
1.627477703545e+01
2.058286675312e+01
2.079240711094e+01
2.239752438242e+01
2.581966249456e+01
2.251606469824e+01
1.967827672071e+01
1.989227958465e+01
2.011341243807e+01
2.104708764004e+01
2.160731310959e+01
1.947558054130e+01
2.246731675515e+01
2.018319443961e+01
1.933445741129e+01
1.928383514625e+01
2.176381471854e+01
2.239363964029e+01
1.992975323001e+01
1.861405100654e+01
2.409633536985e+01
2.658767171782e+01
1.745181817040e+01
1.849578514833e+01
2.015885452660e+01
1.912975970230e+01
2.269321540519e+01
1.906310558647e+01
2.144452599833e+01
1.953274102726e+01
1.998237466334e+01
1.855858034612e+01
2.123522132828e+01
2.229199427910e+01
2.142112566284e+01
1.935022340593e+01
1.978421875147e+01
2.005651090393e+01
2.195381459655e+01
2.709152309394e+01
2.051199237032e+01
2.008235832037e+01
2.257696614718e+01
2.183658715590e+01
2.103834143903e+01
2.673288416390e+01
2.218201528959e+01
1.872443879441e+01
2.014179823718e+01
1.893634475649e+01
2.025286610518e+01
1.850793740457e+01
1.806779709833e+01
1.886981648046e+01
2.119652865663e+01
2.021519443688e+01
1.895331171640e+01
1.989533882036e+01
1.828673529346e+01
2.374360547338e+01
2.049384882390e+01
1.981550696602e+01
2.037963731460e+01
1.999992190415e+01
2.314059943576e+01
1.911861340390e+01
1.661169627635e+01
2.066874964223e+01
1.674984182212e+01
2.130445431488e+01
2.054431925241e+01
2.302831980515e+01
2.875720105165e+01
1.988146674584e+01
1.685424072306e+01
2.190346760685e+01
2.057373091152e+01
1.893478265139e+01
2.032471712757e+01
2.145122923286e+01
2.987450634479e+01
2.022692659952e+01
1.894058543282e+01
2.118514652225e+01
2.013438923634e+01
2.222284098769e+01
2.050145491196e+01
2.162014351825e+01
1.853426803630e+01
1.909190139817e+01
2.289594454805e+01
2.009365392460e+01
2.023354642852e+01
2.339947202723e+01
1.907846674072e+01
2.802712230597e+01
1.974383288243e+01
2.140098402519e+01
2.012176941462e+01
1.998743538302e+01
2.537467820844e+01
1.994760008414e+01
1.993649707172e+01
2.084859211377e+01
2.123192451565e+01
2.197339814173e+01
1.944617712998e+01
2.007720312040e+01
1.811726274020e+01
1.994589579378e+01
1.877858186848e+01
2.013498931547e+01
2.055555173506e+01
1.671777739198e+01
1.671694038064e+01
1.890413219640e+01
1.967360474737e+01
1.902588946854e+01
1.902882681332e+01
2.054452210768e+01
2.119273039797e+01
2.141360680321e+01
2.033075814074e+01
1.752787130466e+01
2.043976744447e+01
1.939295025673e+01
2.571732804879e+01
1.879898019076e+01
1.934592204325e+01
1.861116074332e+01
1.874680588464e+01
1.922910914010e+01
1.936225459519e+01
4.373387629239e+00
1.850945898739e+01
1.695699186473e+01
1.877569955530e+01
1.894826922114e+01
2.120295624077e+01
9.769874167943e+00
2.620069027444e+01
1.910319190445e+01
1.812101410381e+01
1.581398357012e+01
1.624703488979e+01
1.872712915418e+01
2.356582258393e+01
1.886587422938e+01
2.143897594512e+01
2.737235420761e+01
2.049340417630e+01
1.962206076520e+01
1.828766339843e+01
2.001974243415e+01
-3.744075172674e+00
2.139922512931e+01
1.924098877356e+01
-3.621271305727e+00
1.963901862512e+01
2.774455054640e+01
1.879295981394e+01
1.867792308992e+01
2.192860476015e+01
2.113984585693e+01
1.976940939755e+01
2.111034640446e+01
1.970694132387e+01
1.948114638765e+01
-2.089797435756e+00
2.871374164419e+01
2.026706508794e+01
1.828462686548e+01
2.043211850691e+01
2.004155122328e+01
1.943225098398e+01
2.019446691364e+01
1.656175617116e+01
2.016680240892e+01
1.988864714236e+01
1.980134172873e+01
1.900960760470e+01
1.922610975742e+01
1.987328472414e+01
2.115269308164e+01
1.891304528608e+01
2.133388760400e+01
2.106468722298e+01
2.087956608903e+01
2.482221397377e+01
2.204366772804e+01
2.407342320873e+01
1.900645353262e+01
2.432418105756e+01
1.890474307022e+01
2.127511814210e+01
2.135186211207e+01
2.085243995911e+01
1.852674372546e+01
1.996439209762e+01
1.993178522568e+01
2.175835655552e+01
1.911507593763e+01
2.022044655621e+01
1.408062370075e+01
1.873005564342e+01
7.713173414161e+00
2.001011644951e+01
2.497757711651e+01
1.825349519595e+01
2.101414475676e+01
1.850775850402e+01
1.828280432663e+01
1.949229175185e+01
1.479305745988e+01
1.533019155024e+01
1.999395519767e+01
2.109410994062e+01
2.176698994629e+01
2.152716572494e+01
2.229356156475e+01
2.457380176465e+01
1.474456784754e+01
1.780937649680e+01
1.672860506184e+01
2.140888056943e+01
2.139548972793e+01
2.093864497216e+01
1.986308857986e+01
2.212803363746e+01
2.034523402466e+01
2.378054672121e+01
2.094253677232e+01
1.980083940165e+01
2.020473768856e+01
2.116810052956e+01
1.774755001450e+01
1.900964075351e+01
2.210165679715e+01
1.878586161731e+01
2.015507764673e+01
2.055037647629e+01
2.227940675970e+01
1.925284590209e+01
1.873610657262e+01
2.467518048338e+01
2.129381080199e+01
1.122122755298e+01
4.212076887327e+00
1.878432088384e+01
1.974365141890e+01
1.849496556746e+01
1.351860425235e+01
2.039032426830e+01
2.134400743597e+01
1.419187930261e+01
2.173906611369e+01
1.841326401241e+01
1.616908437064e+01
2.264980205626e+01
2.110138586039e+01
1.959137187975e+01
2.125054032050e+01
1.976981435091e+01
2.473295513740e+01
1.834942436243e+01
1.857826689724e+01
1.437103208424e+01
1.693308314868e+01
1.848862930803e+01
1.944321667517e+01
-2.036941006343e+00
1.684128396471e+01
9.974015488076e+00
1.854443004174e+01
2.318903405895e+01
2.265955871604e+01
2.457825473190e+01
1.887225141137e+01
1.890400912739e+01
1.870330228182e+01
2.331145623777e+01
1.915444718579e+01
1.762470440795e+01
2.099243009183e+01
1.867932082375e+01
1.883064584687e+01
1.176743300973e+01
2.268525926356e+01
1.882855447059e+01
1.869034977288e+01
1.829549936391e+01
1.272751814010e+01
1.896947110901e+01
2.078296325825e+01
1.112579535540e+01
2.095863911352e+01
9.034254443496e+00
2.097679756117e+01
2.129452813858e+01
1.340305563811e+01
1.881737891066e+01
1.311624179239e+01
1.715678990134e+01
1.893951662968e+01
2.149838492640e+01
1.863909375038e+01
2.333593600377e+01
1.968279603025e+01
2.166054208539e+01
2.131855426278e+01
2.044058890678e+01
1.907267035929e+01
1.905118133577e+01
2.354788590237e+01
3.514175456776e+00
2.787636600351e+01
1.917794243893e+01
2.127258794581e+01
1.867390533454e+01
1.934748511015e+01
1.330631112688e+01
1.925700108340e+01
2.085277282233e+01
4.419888469856e+00
2.034260428856e+01
2.056308497979e+01
1.744825303590e+01
2.026412920934e+01
2.004916646790e+01
2.357430916038e+01
1.540405316877e+00
1.885062508247e+01
1.989002686997e+01
1.870150681739e+01
1.670092112798e+01
2.065805817706e+01
1.120074442108e+01
2.075675438924e+01
1.870506298378e+01
1.880631808550e+01
1.998513755802e+01
2.017515592462e+01
1.021598839408e+01
1.898999360909e+01
1.909781208240e+01
1.999733872679e+01
2.182339046841e+01
1.944087747652e+01
1.009546172357e+01
2.298210366558e+01
1.925480912232e+01
1.717758484569e+01
1.716667244139e+01
2.028546699091e+01
1.956884052847e+01
9.135049846055e+00
1.071406616369e+01
1.595568549738e+01
2.142772184562e+01
2.092784398810e+01
1.946954268785e+01
2.002471266108e+01
1.161929277827e+01
1.905761129831e+01
2.018219596879e+01
2.395312912549e+01
6.115913219964e+00
1.418394405927e+01
2.109511982988e+01
1.934817989900e+01
2.151849916073e+01
2.560196991580e+01
2.135332636045e+01
1.033549637345e+01
2.134473294613e+01
2.143401928769e+01
2.041285120466e+01
1.855511802897e+01
1.547175670600e+01
1.476415273796e+01
2.135456906923e+01
1.088332897229e+01
1.896057781285e+01
1.992344091514e+01
1.966929131586e+01
-2.276795004955e+01
2.128225403376e+01
1.259383600649e+01
1.322335439852e+01
1.972461294203e+01
2.067740413253e+01
1.964074504839e+01
2.236398587738e+01
1.669325461142e+01
2.063487859250e+01
1.094938991864e+01
2.134741337250e+01
2.093664321140e+01
7.389750925755e+00
1.914253219453e+01
2.301238284025e+01
-5.799837561574e-01
2.350124196184e+01
1.930455744414e+01
1.910479312162e+01
7.918146651120e+00
1.823108243573e+01
1.954286082848e+01
2.093492011536e+01
1.757076883555e+01
1.310872150651e+01
2.097983350477e+01
1.845693564138e+01
3.755098587111e+00
2.039362814329e+01
2.021067774601e+01
1.777847204936e+01
2.004892712832e+01
2.025061198376e+01
2.234469394228e+01
2.094344049321e+01
2.109796659714e+01
1.018056680650e+01
1.215106152153e+01
1.838604246786e+01
1.678867225301e+01
2.194055230701e+01
5.507963662911e+00
8.184834324227e+00
1.770105346656e+01
2.309871496719e+01
1.374584165501e+01
2.065207966773e+01
2.061842079384e+01
2.071277526731e+01
2.107605770620e+01
1.720114588814e+01
9.559046903690e+00
2.858455689870e+00
2.092907761048e+01
4.288008193832e+00
2.096471418132e+01
1.976480682541e+01
2.175193883791e+01
2.495436848622e+01
1.973565675113e+01
1.995699873734e+01
1.988823597005e+01
1.947367541079e+01
2.030933222605e+01
2.054024723698e+01
1.780833123031e+01
1.929060931626e+01
9.057363355595e+00
1.954306243393e+01
2.058747265340e+01
1.845603024438e+00
1.790631262330e+00
2.127801944182e+01
1.725549484640e+01
1.991950139799e+01
1.955863455234e+01
2.084361404802e+01
1.960708545915e+01
1.787571959726e+01
1.545649510204e+01
1.631652993275e+01
1.885430393986e+01
2.077057457222e+01
1.661493285603e+01
1.729354810918e+01
1.775311446319e+01
1.791266076286e+01
2.737578645787e+01
1.421260398401e+01
2.013392922819e+01
1.836248943348e+01
2.083459959177e+01
2.001354573363e+01
1.915861036051e+01
1.989748070286e+01
1.655858083821e+01
1.592894815778e+01
2.067923820599e+01
2.002470929749e+01
1.274784103035e+01
2.060527424348e+01
3.350364568833e+00
1.728940960578e+01
2.123311498403e+01
-6.733056454428e+00
-2.075294413564e+01
2.031380549277e+01
1.665303943364e+01
2.007986253598e+01
2.101250747370e+01
1.664694025969e+01
9.990392953021e+00
2.014506349165e+01
4.211896071241e+00
1.996956398991e+01
2.057904439213e+01
1.999144333719e+01
2.625556578541e+01
1.771857145759e+01
1.668048884999e+01
2.075261102303e+01
2.083286530173e+01
1.924819952662e+01
2.089237905595e+01
2.661386621286e+01
2.046525083144e+01
2.369560829352e+01
2.761081608546e+00
2.100843838287e+01
2.013764553389e+01
2.018090934334e+01
1.723926485353e+01
1.779673373661e+01
1.197306636485e+01
2.022990395895e+01
1.521861800714e+01
2.322207029127e+01
2.083689300441e+01
1.666741640773e+01
2.000296604487e+01
2.029163738269e+01
2.034692585463e+01
8.999999999681e+01
-5.128250786432e+01
1.678402191620e+01
1.672147979059e+01
2.056477843723e+01
2.051176271362e+01
-2.182933352871e+01
1.072059488655e+01
2.026909171588e+01
2.053599422074e+01
7.054028960708e+00
2.044131837125e+01
1.870549902713e+01
1.790942432546e+01
1.860429678093e+01
1.360160622225e+01
2.073466326189e+01
3.458237314825e+00
1.733936654068e+01
2.010342165902e+01
1.981879566100e+01
1.783421974411e+01
1.813979757558e+01
2.032582580165e+01
1.975814458562e+01
1.947809510647e+01
1.668290210426e+01
2.097659932948e+01
1.999405323642e+01
1.267643427652e+01
-1.858255329666e+01
2.012898070950e+01
2.134484176681e+01
1.317573723194e+01
1.887994467033e+01
2.041510226579e+01
2.034597328488e+01
2.044202749905e+01
1.910123420651e+01
2.455983911815e+01
5.140921876512e+00
1.139644208311e+01
1.769637625195e+01
2.075584020717e+01
1.998591447506e+01
2.083107158541e+01
3.586435691326e+00
-4.249756331022e+00
5.133502816651e-01
1.898221040906e+01
1.470429959671e+01
1.999994452979e+01
6.592943499064e+00
2.103448590283e+01
1.770385272891e+01
2.063292822766e+01
2.061568377193e+01
1.769088771209e+01
2.089857016436e+01
2.015306368556e+01
2.012418982101e+01
-6.500208285364e+00
1.991128735390e+01
2.036922868058e+01
2.118257025055e+01
2.069010953799e+01
2.059357600954e+01
1.947393068205e+01
7.491149031230e+00
1.841243164264e+01
1.988585685217e+01
1.810479871585e+01
2.021207994281e+01
2.064291457523e+01
2.050396282525e+01
1.932978747153e+01
2.070853459747e+01
2.080583633474e+01
2.083739022738e+01
1.499687751244e+01
2.057607222245e+01
1.717539008718e+01
1.990598675881e+01
-4.124299211600e+00
1.969676568711e+01
1.890000525450e+01
-2.200781286952e+00
2.688532200869e+01
1.965036914498e+01
2.015434712446e+01
1.995577759324e+01
2.088785920841e+01
1.811969323825e+01
-1.901518216645e+01
2.521564652780e+01
-1.649912583468e+01
2.146424896469e+00
2.715198524912e+01
1.715139390471e+01
2.021443570594e+01
1.999580773953e+01
1.805820771625e+01
1.631206680137e+01
2.064702992054e+01
2.114558486620e+01
2.078408166135e+01
2.025253369912e+01
1.991119742321e+01
-5.150991930618e+00
2.263847269494e+01
2.026380215054e+01
-3.713222119379e+00
9.115799548115e-01
2.066940118325e+01
-7.285786904243e+00
2.071428983621e+01
2.030475908637e+01
2.000311560180e+01
2.064215583250e+01
2.117966872423e+01
1.837492225054e+01
2.037465725755e+01
2.119856043544e+01
1.661167213854e+01
1.029741452752e+01
-1.995834245432e+01
2.054870459947e+01
1.724169593336e+01
3.444660229160e+00
1.690703300160e+01
2.027878364081e+01
1.995741707324e+01
2.019490583504e+01
1.415774760344e+01
2.189945991731e+01
2.059695743752e+01
2.030230281969e+01
2.054072000377e+01
1.720169962071e+01
2.096912051306e+01
2.693271154764e+00
2.002378714844e+01
-2.220650186347e+01
2.078621006090e+01
2.015394738144e+01
2.046484745854e+01
2.042975627145e+01
1.915791630221e+01
2.016703215883e+01
2.063661656375e+01
1.868478507860e+01
2.029467734632e+01
1.999808819199e+01
1.891827408168e+01
2.014391171013e+01
1.569282232741e+01
1.669027424144e+01
2.067450731348e+01
2.016789818438e+01
8.999999999681e+01
1.671229090252e+01
2.041348543770e+01
6.690661527489e+00
2.127059541481e+01
1.996167829498e+01
2.012815694675e+01
6.197390314149e+00
2.579024512560e+01
1.814711736930e+01
1.953590310358e+01
5.512736556095e+00
2.019445921951e+01
1.856672757620e+01
1.225010555163e+01
1.826192683552e+01
2.068146929811e+01
1.838251019347e+01
3.499586537224e+01
1.494752482569e+01
1.764153575534e+01
1.856105114737e+01
2.086693466533e+01
1.747873411389e+01
1.781430931303e+01
-8.250013747322e+00
2.050867862749e+01
2.014583854062e+01
2.493389391452e+01
2.015685758509e+01
2.041814210085e+01
1.723854977665e+01
1.855949830746e+01
1.745050534240e+01
1.764098904064e+01
1.786547978564e+01
2.120757673615e+01
7.881146311481e+00
2.019643165221e+01
1.774547345616e+01
2.013844476506e+01
2.117638142481e+01
1.823835689968e+01
1.999708415697e+01
2.082465441780e+01
2.088902020805e+01
2.518444783799e+01
1.999191245340e+01
2.013269731389e+01
-6.076596211842e+00
1.713498613090e+01
2.424671919093e+01
2.010795875281e+01
-6.101798365794e+01
-5.522492825603e+01
-5.576686709013e+01
-5.506620022589e+01
-5.550049767253e+01
-5.503913380630e+01
-5.540170397254e+01
-5.498258682366e+01
-5.535990623174e+01
-5.491351501355e+01
-5.535251752214e+01
-5.483786486281e+01
-5.536277936840e+01
-5.475707793942e+01
-5.538138587708e+01
-5.467143116586e+01
-5.540373177214e+01
-5.458087156952e+01
-5.542767472534e+01
-5.448522139183e+01
-5.543422850557e+01
-5.438429184197e+01
-3.308226355561e+01
-5.536355067880e+01
-5.427852329795e+01
-5.528215156749e+01
-3.333425187056e+01
-5.416868335195e+01
-5.519001963912e+01
-5.400294624486e+01
-5.508844649906e+01
-5.381338296223e+01
8.794691116205e+01
-5.497775025640e+01
-5.363575374146e+01
-5.485938365635e+01
-5.347702753142e+01
8.954786681324e+01
-5.336648238653e+01
8.769046221799e+01
-5.325889082330e+01
8.614039684530e+01
-5.319637005588e+01
8.614059729539e+01
-5.285617744334e+01
-9.159294229956e+00
-5.276620274262e+01
8.614191649652e+01
-5.179030536391e+01
8.614307442614e+01
-5.219654102532e+01
8.614584819174e+01
-4.997762465276e+01
8.614245594797e+01
-4.848358860611e+01
-3.380371602524e+01
-5.243038875990e+01
-5.721860248332e+01
-4.240329075831e+01
8.999999999681e+01
-4.074167433681e+00
-1.472983277725e+01
-1.669921746959e+01
-1.668041703981e+01
-1.684035966125e+01
-1.676859538595e+01
-1.680735677009e+01
-1.672906004258e+01
-1.676200956135e+01
-1.668500848825e+01
-1.671794770565e+01
-1.664264915602e+01
-1.667450494208e+01
-1.659951183868e+01
-1.662967653143e+01
-1.655365089041e+01
-1.658197925128e+01
-1.650422392774e+01
-1.653062173189e+01
-1.645117266075e+01
-1.647525906981e+01
-9.083874583176e+00
-1.639490977893e+01
-1.641566922433e+01
-1.633600681218e+01
-1.718491701924e+01
-1.635117907217e+01
-1.627534513183e+01
-1.342206185497e+01
-1.628265881838e+01
-1.621464768031e+01
-1.606969810543e+01
-1.615657422339e+01
-1.582174755487e+01
-1.610369431092e+01
-1.557932337587e+01
-1.605898806319e+01
-1.537246443970e+01
-7.224338769126e+00
-1.602126040092e+01
-1.517267742584e+01
-1.598747837291e+01
-1.507250102035e+01
-1.489950356894e+01
-1.595833935034e+01
-1.507273962248e+01
-1.597533959296e+01
-1.485466330547e+01
-1.615951819674e+01
-1.570878941079e+01
-1.401507990894e+01
-1.621123520995e+01
-1.628353377579e+01
-1.708508251780e+01
-1.700026079314e+01
-1.457898964638e+01
-2.248164393913e+01
-1.099027339044e+01
-9.561964881520e+00
-2.696275915378e+00
-1.877914822956e+00
-1.871272309811e+00
-1.824141834522e+00
-1.827638765514e+00
-1.803903679660e+00
-1.806956592839e+00
-1.779838816671e+00
-1.780748092632e+00
-1.754792073318e+00
-1.752296874703e+00
-1.730349002315e+00
-1.722990967379e+00
-1.706713115608e+00
-1.692757316742e+00
-1.683721238755e+00
-1.661089746174e+00
-1.661487465797e+00
-1.627764284828e+00
1.643172219161e-01
-1.640418000641e+00
-1.592756346106e+00
-1.621245440864e+00
-1.774244583846e+00
-1.556288502523e+00
-1.604606260098e+00
-1.517986767015e+00
-1.591506660408e+00
-1.478263371257e+00
-3.185235527792e+00
-1.583755283447e+00
-1.437636630554e+00
-1.584322663886e+00
-1.400084003470e+00
-1.595017956088e+00
-1.361453538237e+00
-1.618998027578e+00
-1.334115470268e+00
-1.654308287116e+00
-1.290664500137e+00
-1.712464413051e+00
3.503448613333e-02
-1.780346996624e+00
-1.298301322673e+00
-1.890309557080e+00
-1.195041397759e+00
-1.938716312107e+00
-1.290127904721e+00
-7.458491917146e-01
-4.896289273890e+00
-1.375262689999e+00
-2.650439226137e+00
2.719548053405e-01
-4.834509347781e+00
-1.845510792151e+00
5.689456629273e+00
5.253195226059e+00
5.226091512629e+00
5.212869520598e+00
5.194641152994e+00
5.216801810621e+00
5.196686583686e+00
5.228416068904e+00
5.204588231940e+00
5.242345189183e+00
5.213257705767e+00
5.256632481970e+00
5.220589551699e+00
5.270499821316e+00
5.225714886806e+00
5.284352428603e+00
5.228853335800e+00
5.298191726296e+00
5.983140378571e+00
5.229835334239e+00
5.312008323550e+00
5.228283534053e+00
4.105165028786e+00
5.325272016591e+00
5.023049562851e+00
5.223290263512e+00
5.337230758750e+00
5.214538540160e+00
5.350682709367e+00
5.203271313783e+00
5.361949357120e+00
5.187856604714e+00
5.376901992879e+00
5.698025579983e+00
5.167866323812e+00
5.377373545600e+00
5.138252599057e+00
5.398138886894e+00
5.374308329957e+00
5.108675626958e+00
5.438531361451e+00
5.063708414233e+00
5.346354673675e+00
5.601235150718e+00
5.046003328727e+00
4.967624872961e+00
3.066676819844e+00
5.076541135780e+00
5.796552202047e+00
4.001015161768e+00
6.599593553675e+00
4.222686425834e+00
9.001274988956e+00
9.246324970023e+00
9.270174985877e+00
9.256613705976e+00
9.278967365829e+00
9.253772958353e+00
9.279770277765e+00
9.252801741476e+00
9.283145274465e+00
9.252313886499e+00
9.287373706790e+00
9.251081640912e+00
9.291199916517e+00
9.247211838476e+00
9.293193917015e+00
9.240813696857e+00
9.294137806610e+00
9.587444702518e+00
9.232472017083e+00
9.294237430222e+00
9.005961840236e+00
9.222298067668e+00
9.293652478310e+00
9.209031115575e+00
9.291226166501e+00
9.191371697798e+00
8.410214348232e+00
9.285618846551e+00
9.170931111890e+00
9.282601389120e+00
9.152407897001e+00
9.278821639544e+00
9.130586133732e+00
9.282706664918e+00
9.111612529620e+00
9.267853791126e+00
9.078307614391e+00
9.366463217893e+00
9.071013427372e+00
9.292742585175e+00
9.013835624444e+00
9.244281690157e+00
9.371734423699e+00
7.814721843884e+00
9.457994971779e+00
8.943977187531e+00
9.963481530180e+00
8.335154245019e+00
8.315646271522e+00
1.202940255820e+01
1.186532438538e+01
1.183664839212e+01
1.184379723425e+01
1.181753852038e+01
1.183934362006e+01
1.181096693966e+01
1.183724860695e+01
1.180478784107e+01
1.183564109840e+01
1.179844503011e+01
1.183439964954e+01
1.179130955967e+01
1.183040543359e+01
1.178030760706e+01
1.182415532842e+01
1.200178083890e+01
1.176596081055e+01
1.181806367720e+01
1.115365800078e+01
1.175255883513e+01
1.181197929650e+01
1.157676902019e+01
1.173746628199e+01
1.180411779732e+01
1.171863433686e+01
1.179313227120e+01
1.169640846057e+01
1.177695386089e+01
1.182726690986e+01
1.167178002413e+01
1.177733186486e+01
1.166078952536e+01
1.176169263428e+01
1.178861462298e+01
1.164121756297e+01
1.172998723671e+01
1.164614307931e+01
1.182350981917e+01
1.157685941566e+01
1.079373495624e+01
1.174186973580e+01
1.211690868403e+01
1.135463213053e+01
1.241868060924e+01
1.104870611727e+01
1.352128030468e+01
1.363372031892e+01
1.364925653986e+01
1.363118328255e+01
1.364655103444e+01
1.362728531933e+01
1.364300062281e+01
1.361809233172e+01
1.363686470334e+01
1.360990109971e+01
1.363116233046e+01
1.360071900394e+01
1.362577147199e+01
1.359159524234e+01
1.361713657906e+01
1.370577571629e+01
1.357206158695e+01
1.340812824259e+01
1.360265265373e+01
1.355828813845e+01
1.359403632909e+01
1.354616745556e+01
1.358520640294e+01
1.352782979082e+01
1.307221805663e+01
1.357215563185e+01
1.350841240748e+01
1.355827428950e+01
1.348853125214e+01
1.353521326713e+01
1.346410271783e+01
1.354779014364e+01
1.347948553522e+01
1.342685499361e+01
1.352573867496e+01
1.357122434783e+01
1.358541053586e+01
1.283163710685e+01
1.376194826548e+01
1.346192534375e+01
1.398534959888e+01
1.320451687756e+01
1.297707116143e+01
1.507832732187e+01
1.497370681998e+01
1.494906449640e+01
1.495336527211e+01
1.493385295660e+01
1.495322339168e+01
1.493276403192e+01
1.494204869056e+01
1.491496603308e+01
1.493666020938e+01
1.490937348281e+01
1.492764865571e+01
1.489464586741e+01
1.497937649025e+01
1.492541757104e+01
1.488740849832e+01
1.449145479404e+01
1.490221333390e+01
1.486338647163e+01
1.474400911094e+01
1.489388330219e+01
1.485472125719e+01
1.488936216503e+01
1.484219478031e+01
1.487394815023e+01
1.485390920206e+01
1.482083295971e+01
1.486058336804e+01
1.485464852427e+01
1.480870001055e+01
1.480956645477e+01
1.480428160430e+01
1.488340810677e+01
1.475467319143e+01
1.430483592794e+01
1.487043312314e+01
1.514180897022e+01
1.470046740441e+01
1.527267156178e+01
1.440519749056e+01
1.593694164099e+01
1.595467232090e+01
1.596852795091e+01
1.597175412365e+01
1.596757161744e+01
1.597092929316e+01
1.597348488608e+01
1.594411392048e+01
1.594873741427e+01
1.594405492477e+01
1.595078925181e+01
1.593334549240e+01
1.598025016649e+01
1.593441675851e+01
1.583986236512e+01
1.589943896241e+01
1.593216034797e+01
1.591234079783e+01
1.590661839377e+01
1.589905835523e+01
1.590698042983e+01
1.587941038647e+01
1.558707520372e+01
1.589945215507e+01
1.586120650109e+01
1.587684219996e+01
1.584037229297e+01
1.583108484101e+01
1.586948518587e+01
1.588584099927e+01
1.587216354334e+01
1.544118592367e+01
1.603420785576e+01
1.589995392594e+01
1.620489042510e+01
1.571305543033e+01
1.551489239920e+01


