# vtk DataFile Version 2.0
Calculation C:\Users\NickSteudtner\Documents\GitHub\TOCHNOG\standsicherheit_phiC at time 6.000000000000e+00 
ASCII
DATASET UNSTRUCTURED_GRID
Field FieldData 1
Time 1 1 double
6.000000000000e+00

POINTS 1137 float
0.0 0.0 0.0 
5.000000000000e+01 -1.000000000000e+01 0.0 
0.0 -2.000000000000e+01 0.0 
5.000000000000e+01 -2.000000000000e+01 0.0 
0.0 -9.999999999991e-01 0.0 
0.0 -1.999999999998e+00 0.0 
0.0 -2.999999999997e+00 0.0 
0.0 -3.999999999994e+00 0.0 
0.0 -4.999999999991e+00 0.0 
0.0 -5.999999999988e+00 0.0 
0.0 -6.999999999985e+00 0.0 
0.0 -7.999999999982e+00 0.0 
0.0 -8.999999999983e+00 0.0 
0.0 -9.999999999985e+00 0.0 
0.0 -1.099999999999e+01 0.0 
0.0 -1.199999999999e+01 0.0 
0.0 -1.299999999999e+01 0.0 
0.0 -1.399999999999e+01 0.0 
0.0 -1.499999999999e+01 0.0 
0.0 -1.599999999999e+01 0.0 
0.0 -1.700000000000e+01 0.0 
0.0 -1.800000000000e+01 0.0 
0.0 -1.900000000000e+01 0.0 
4.900000000001e+01 -2.000000000000e+01 0.0 
4.800000000001e+01 -2.000000000000e+01 0.0 
4.700000000002e+01 -2.000000000000e+01 0.0 
4.600000000003e+01 -2.000000000000e+01 0.0 
4.500000000004e+01 -2.000000000000e+01 0.0 
4.400000000004e+01 -2.000000000000e+01 0.0 
4.300000000005e+01 -2.000000000000e+01 0.0 
4.200000000006e+01 -2.000000000000e+01 0.0 
4.100000000006e+01 -2.000000000000e+01 0.0 
4.000000000007e+01 -2.000000000000e+01 0.0 
3.900000000008e+01 -2.000000000000e+01 0.0 
3.800000000009e+01 -2.000000000000e+01 0.0 
3.700000000009e+01 -2.000000000000e+01 0.0 
3.600000000010e+01 -2.000000000000e+01 0.0 
3.500000000011e+01 -2.000000000000e+01 0.0 
3.400000000011e+01 -2.000000000000e+01 0.0 
3.300000000012e+01 -2.000000000000e+01 0.0 
3.200000000013e+01 -2.000000000000e+01 0.0 
3.100000000013e+01 -2.000000000000e+01 0.0 
3.000000000013e+01 -2.000000000000e+01 0.0 
2.900000000013e+01 -2.000000000000e+01 0.0 
2.800000000013e+01 -2.000000000000e+01 0.0 
2.700000000013e+01 -2.000000000000e+01 0.0 
2.600000000013e+01 -2.000000000000e+01 0.0 
2.500000000013e+01 -2.000000000000e+01 0.0 
2.400000000013e+01 -2.000000000000e+01 0.0 
2.300000000013e+01 -2.000000000000e+01 0.0 
2.200000000013e+01 -2.000000000000e+01 0.0 
2.100000000013e+01 -2.000000000000e+01 0.0 
2.000000000013e+01 -2.000000000000e+01 0.0 
1.900000000013e+01 -2.000000000000e+01 0.0 
1.800000000013e+01 -2.000000000000e+01 0.0 
1.700000000012e+01 -2.000000000000e+01 0.0 
1.600000000011e+01 -2.000000000000e+01 0.0 
1.500000000011e+01 -2.000000000000e+01 0.0 
1.400000000010e+01 -2.000000000000e+01 0.0 
1.300000000009e+01 -2.000000000000e+01 0.0 
1.200000000009e+01 -2.000000000000e+01 0.0 
1.100000000008e+01 -2.000000000000e+01 0.0 
1.000000000007e+01 -2.000000000000e+01 0.0 
9.000000000064e+00 -2.000000000000e+01 0.0 
8.000000000057e+00 -2.000000000000e+01 0.0 
7.000000000050e+00 -2.000000000000e+01 0.0 
6.000000000043e+00 -2.000000000000e+01 0.0 
5.000000000036e+00 -2.000000000000e+01 0.0 
4.000000000028e+00 -2.000000000000e+01 0.0 
3.000000000021e+00 -2.000000000000e+01 0.0 
2.000000000014e+00 -2.000000000000e+01 0.0 
1.000000000007e+00 -2.000000000000e+01 0.0 
5.000000000000e+01 -1.100000000000e+01 0.0 
5.000000000000e+01 -1.200000000000e+01 0.0 
5.000000000000e+01 -1.300000000000e+01 0.0 
5.000000000000e+01 -1.400000000000e+01 0.0 
5.000000000000e+01 -1.500000000000e+01 0.0 
5.000000000000e+01 -1.600000000000e+01 0.0 
5.000000000000e+01 -1.700000000000e+01 0.0 
5.000000000000e+01 -1.800000000000e+01 0.0 
5.000000000000e+01 -1.900000000000e+01 0.0 
2.000000000000e+01 0.0 0.0 
3.500000000000e+01 -1.000000000000e+01 0.0 
2.150000000000e+01 -1.000000000000e+00 0.0 
2.300000000000e+01 -2.000000000000e+00 0.0 
2.450000000000e+01 -3.000000000000e+00 0.0 
2.600000000000e+01 -4.000000000000e+00 0.0 
2.750000000000e+01 -5.000000000000e+00 0.0 
2.900000000000e+01 -6.000000000000e+00 0.0 
3.050000000000e+01 -7.000000000000e+00 0.0 
3.200000000000e+01 -8.000000000000e+00 0.0 
3.350000000000e+01 -9.000000000000e+00 0.0 
5.000000000000e+01 -5.000000000000e+00 0.0 
5.000000000000e+01 -6.000000000000e+00 0.0 
5.000000000000e+01 -7.000000000000e+00 0.0 
5.000000000000e+01 -8.000000000000e+00 0.0 
5.000000000000e+01 -9.000000000000e+00 0.0 
4.900000000000e+01 -1.000000000000e+01 0.0 
4.800000000000e+01 -1.000000000000e+01 0.0 
4.700000000000e+01 -1.000000000000e+01 0.0 
4.600000000000e+01 -1.000000000000e+01 0.0 
4.500000000000e+01 -1.000000000000e+01 0.0 
4.400000000000e+01 -1.000000000000e+01 0.0 
4.300000000000e+01 -1.000000000000e+01 0.0 
4.200000000000e+01 -1.000000000000e+01 0.0 
4.100000000000e+01 -1.000000000000e+01 0.0 
4.000000000000e+01 -1.000000000000e+01 0.0 
3.900000000000e+01 -1.000000000000e+01 0.0 
3.800000000000e+01 -1.000000000000e+01 0.0 
3.700000000000e+01 -1.000000000000e+01 0.0 
3.600000000000e+01 -1.000000000000e+01 0.0 
1.900000000000e+01 0.0 0.0 
1.800000000000e+01 0.0 0.0 
1.700000000000e+01 0.0 0.0 
1.600000000000e+01 0.0 0.0 
1.500000000000e+01 0.0 0.0 
1.400000000000e+01 0.0 0.0 
1.300000000000e+01 0.0 0.0 
1.200000000000e+01 0.0 0.0 
1.100000000000e+01 0.0 0.0 
1.000000000000e+01 0.0 0.0 
9.000000000000e+00 0.0 0.0 
8.000000000000e+00 0.0 0.0 
7.000000000000e+00 0.0 0.0 
6.000000000000e+00 0.0 0.0 
5.000000000000e+00 0.0 0.0 
4.000000000000e+00 0.0 0.0 
3.000000000000e+00 0.0 0.0 
2.000000000000e+00 0.0 0.0 
1.000000000000e+00 0.0 0.0 
2.847826086957e+01 -5.000000000000e+00 0.0 
2.945652173913e+01 -5.000000000000e+00 0.0 
3.043478260870e+01 -5.000000000000e+00 0.0 
3.141304347826e+01 -5.000000000000e+00 0.0 
3.239130434783e+01 -5.000000000000e+00 0.0 
3.336956521739e+01 -5.000000000000e+00 0.0 
3.434782608696e+01 -5.000000000000e+00 0.0 
3.532608695652e+01 -5.000000000000e+00 0.0 
3.630434782609e+01 -5.000000000000e+00 0.0 
3.728260869565e+01 -5.000000000000e+00 0.0 
3.826086956522e+01 -5.000000000000e+00 0.0 
3.923913043478e+01 -5.000000000000e+00 0.0 
4.021739130435e+01 -5.000000000000e+00 0.0 
4.119565217391e+01 -5.000000000000e+00 0.0 
4.217391304348e+01 -5.000000000000e+00 0.0 
4.315217391304e+01 -5.000000000000e+00 0.0 
4.413043478261e+01 -5.000000000000e+00 0.0 
4.510869565217e+01 -5.000000000000e+00 0.0 
4.608695652174e+01 -5.000000000000e+00 0.0 
4.706521739130e+01 -5.000000000000e+00 0.0 
4.804347826087e+01 -5.000000000000e+00 0.0 
4.902173913043e+01 -5.000000000000e+00 0.0 
4.900000000001e+01 -6.000000000000e+00 0.0 
4.800000000003e+01 -6.000000000000e+00 0.0 
4.700000000004e+01 -6.000000000000e+00 0.0 
4.600000000006e+01 -6.000000000000e+00 0.0 
4.500000000007e+01 -6.000000000000e+00 0.0 
4.400000000009e+01 -6.000000000000e+00 0.0 
4.300000000010e+01 -6.000000000000e+00 0.0 
4.200000000012e+01 -6.000000000000e+00 0.0 
4.100000000013e+01 -6.000000000000e+00 0.0 
4.000000000014e+01 -6.000000000000e+00 0.0 
3.900000000014e+01 -6.000000000000e+00 0.0 
3.800000000012e+01 -6.000000000000e+00 0.0 
3.700000000010e+01 -6.000000000000e+00 0.0 
3.600000000008e+01 -6.000000000000e+00 0.0 
3.500000000006e+01 -6.000000000000e+00 0.0 
3.400000000005e+01 -6.000000000000e+00 0.0 
3.300000000003e+01 -6.000000000000e+00 0.0 
3.200000000001e+01 -6.000000000000e+00 0.0 
3.100000000000e+01 -6.000000000000e+00 0.0 
3.000000000000e+01 -6.000000000000e+00 0.0 
3.147499999998e+01 -7.000000000000e+00 0.0 
3.244999999998e+01 -7.000000000000e+00 0.0 
3.342499999998e+01 -7.000000000000e+00 0.0 
3.439999999998e+01 -7.000000000000e+00 0.0 
3.537499999998e+01 -7.000000000000e+00 0.0 
3.634999999998e+01 -7.000000000000e+00 0.0 
3.732499999998e+01 -7.000000000000e+00 0.0 
3.829999999998e+01 -7.000000000000e+00 0.0 
3.927499999999e+01 -7.000000000000e+00 0.0 
4.024999999999e+01 -7.000000000000e+00 0.0 
4.122499999999e+01 -7.000000000000e+00 0.0 
4.219999999999e+01 -7.000000000000e+00 0.0 
4.317499999999e+01 -7.000000000000e+00 0.0 
4.414999999999e+01 -7.000000000000e+00 0.0 
4.512499999999e+01 -7.000000000000e+00 0.0 
4.609999999999e+01 -7.000000000000e+00 0.0 
4.707500000000e+01 -7.000000000000e+00 0.0 
4.805000000000e+01 -7.000000000000e+00 0.0 
4.902500000000e+01 -7.000000000000e+00 0.0 
4.900000000000e+01 -8.000000000000e+00 0.0 
4.800000000000e+01 -8.000000000000e+00 0.0 
4.700000000000e+01 -8.000000000000e+00 0.0 
4.600000000000e+01 -8.000000000000e+00 0.0 
4.500000000000e+01 -8.000000000000e+00 0.0 
4.400000000000e+01 -8.000000000000e+00 0.0 
4.300000000000e+01 -8.000000000000e+00 0.0 
4.200000000000e+01 -8.000000000000e+00 0.0 
4.100000000000e+01 -8.000000000000e+00 0.0 
4.000000000000e+01 -8.000000000000e+00 0.0 
3.900000000000e+01 -8.000000000000e+00 0.0 
3.800000000000e+01 -8.000000000000e+00 0.0 
3.700000000000e+01 -8.000000000000e+00 0.0 
3.600000000000e+01 -8.000000000000e+00 0.0 
3.500000000000e+01 -8.000000000000e+00 0.0 
3.400000000000e+01 -8.000000000000e+00 0.0 
3.300000000000e+01 -8.000000000000e+00 0.0 
3.447058823527e+01 -9.000000000000e+00 0.0 
3.544117647055e+01 -9.000000000000e+00 0.0 
3.641176470582e+01 -9.000000000000e+00 0.0 
3.738235294109e+01 -9.000000000000e+00 0.0 
3.835294117637e+01 -9.000000000000e+00 0.0 
3.932352941164e+01 -9.000000000000e+00 0.0 
4.029411764691e+01 -9.000000000000e+00 0.0 
4.126470588219e+01 -9.000000000000e+00 0.0 
4.223529411748e+01 -9.000000000000e+00 0.0 
4.320588235279e+01 -9.000000000000e+00 0.0 
4.417647058811e+01 -9.000000000000e+00 0.0 
4.514705882342e+01 -9.000000000000e+00 0.0 
4.611764705874e+01 -9.000000000000e+00 0.0 
4.708823529405e+01 -9.000000000000e+00 0.0 
4.805882352937e+01 -9.000000000000e+00 0.0 
4.902941176468e+01 -9.000000000000e+00 0.0 
2.075000000000e+01 -5.000000000006e-01 0.0 
2.225000000000e+01 -1.500000000000e+00 0.0 
2.375000000000e+01 -2.500000000000e+00 0.0 
2.525000000000e+01 -3.500000000000e+00 0.0 
2.675000000000e+01 -4.500000000000e+00 0.0 
2.825000000000e+01 -5.500000000000e+00 0.0 
2.975000000000e+01 -6.500000000000e+00 0.0 
3.125000000000e+01 -7.500000000000e+00 0.0 
3.275000000000e+01 -8.500000000000e+00 0.0 
3.425000000000e+01 -9.500000000000e+00 0.0 
2.226951693683e+01 -2.403913980114e+00 0.0 
1.650149491944e+01 -1.913490915758e+01 0.0 
1.050042386896e+01 -8.504605092970e-01 0.0 
1.553146524712e+01 -8.281255032105e-01 0.0 
1.150000000008e+01 -1.913397459621e+01 0.0 
2.530060260647e+01 -4.428336431260e+00 0.0 
8.651114563942e-01 -1.052096295641e+01 0.0 
2.050000000013e+01 -1.913397459622e+01 0.0 
2.819198729811e+01 -6.399519052838e+00 0.0 
2.445670302931e+01 -1.915649188023e+01 0.0 
3.117591465718e+01 -8.394293040695e+00 0.0 
7.465053044742e+00 -1.920411160581e+01 0.0 
6.398295709691e+00 -8.230098819370e-01 0.0 
2.849659607461e+01 -1.914296187762e+01 0.0 
3.418732642882e+01 -1.040265792588e+01 0.0 
8.386450935063e-01 -6.533605142809e+00 0.0 
9.178661865596e-01 -1.329769195597e+01 0.0 
3.149448624493e+01 -1.910466733764e+01 0.0 
3.552916747426e+01 -1.914628590759e+01 0.0 
4.449210346537e+01 -1.914359085008e+01 0.0 
4.140975975145e+01 -1.906941860733e+01 0.0 
3.847475958753e+01 -1.916622382724e+01 0.0 
3.653774794640e+01 -1.088712800241e+01 0.0 
4.047886341787e+01 -1.090139014048e+01 0.0 
4.348006339825e+01 -1.092792621489e+01 0.0 
4.919519968029e+01 -1.451526755068e+01 0.0 
4.500000000032e+00 -1.913397459621e+01 0.0 
1.856136921614e+01 -8.212235170404e-01 0.0 
3.499895312306e+00 -8.661165539723e-01 0.0 
9.076088696565e-01 -1.642306201891e+01 0.0 
4.655174095477e+01 -1.086183387525e+01 0.0 
9.430688970604e-01 -3.496112672958e+00 0.0 
3.353992337063e+01 -1.901202090820e+01 0.0 
2.249746016977e+01 -1.921262287282e+01 0.0 
2.650122741777e+01 -1.916123026018e+01 0.0 
1.863571384842e+01 -1.908325534840e+01 0.0 
1.450089971693e+01 -1.917691901860e+01 0.0 
1.350044695317e+01 -8.659695299584e-01 0.0 
3.849987469880e+01 -1.084154983397e+01 0.0 
9.454419857884e+00 -1.900818879936e+01 0.0 
4.917398660523e+01 -1.645692866081e+01 0.0 
8.500000000000e+00 -8.660254037844e-01 0.0 
8.660319230785e-01 -8.500111697188e+00 0.0 
4.649022621545e+01 -1.930506220113e+01 0.0 
2.667688107845e+01 -5.420288124331e+00 0.0 
2.379251615665e+01 -3.412225477429e+00 0.0 
2.966631491830e+01 -7.389030232731e+00 0.0 
3.267915035995e+01 -9.396934932445e+00 0.0 
2.074836922338e+01 -1.320054020319e+00 0.0 
4.915985743621e+01 -1.261973384855e+01 0.0 
2.527129768623e+00 -1.931592414663e+01 0.0 
1.538676247410e+00 -8.436956619311e-01 0.0 
4.908096641539e+01 -1.842484004551e+01 0.0 
3.478612492673e+01 -1.090889364140e+01 0.0 
3.409757055860e+01 -1.131991530427e+01 0.0 
3.501895309466e+01 -1.177687842717e+01 0.0 
3.407758073088e+01 -1.224293381580e+01 0.0 
3.484541875390e+01 -1.277051428430e+01 0.0 
3.400322025842e+01 -1.319022775640e+01 0.0 
3.321672625034e+01 -1.266779191233e+01 0.0 
3.315244139236e+01 -1.360984106532e+01 0.0 
3.236335186892e+01 -1.308463225210e+01 0.0 
3.478337442841e+01 -1.372341158982e+01 0.0 
3.230105923633e+01 -1.403023731610e+01 0.0 
3.150954055289e+01 -1.350301767700e+01 0.0 
3.144604792090e+01 -1.444931742516e+01 0.0 
3.065653897123e+01 -1.392357262981e+01 0.0 
3.071897610812e+01 -1.297447031198e+01 0.0 
2.986790411740e+01 -1.339226181535e+01 0.0 
2.993181466745e+01 -1.244703272398e+01 0.0 
2.908023061869e+01 -1.286254537734e+01 0.0 
2.901619051372e+01 -1.380881655279e+01 0.0 
2.822986160390e+01 -1.327695262116e+01 0.0 
2.829453476870e+01 -1.233265343811e+01 0.0 
2.744542905518e+01 -1.274510491105e+01 0.0 
2.751120089246e+01 -1.180368086886e+01 0.0 
2.666218649885e+01 -1.221619339205e+01 0.0 
2.672371209234e+01 -1.127125228527e+01 0.0 
2.587763216302e+01 -1.168539979114e+01 0.0 
2.581165585299e+01 -1.262994410089e+01 0.0 
2.502890882577e+01 -1.209827323619e+01 0.0 
2.509631327757e+01 -1.115492410304e+01 0.0 
2.424662989877e+01 -1.156630981079e+01 0.0 
2.431704046904e+01 -1.062389179334e+01 0.0 
2.346445438728e+01 -1.103427680694e+01 0.0 
2.339382552877e+01 -1.197964871788e+01 0.0 
2.260936050780e+01 -1.144513277642e+01 0.0 
2.268075012022e+01 -1.049911928216e+01 0.0 
2.182525737661e+01 -1.090920811464e+01 0.0 
2.189682319817e+01 -9.961716944568e+00 0.0 
2.104174127792e+01 -1.037266986667e+01 0.0 
2.111304367575e+01 -9.424179358711e+00 0.0 
2.025306185381e+01 -9.832727364719e+00 0.0 
2.018141124247e+01 -1.079140628871e+01 0.0 
1.938594498257e+01 -1.025147354112e+01 0.0 
1.946106490453e+01 -9.288010758448e+00 0.0 
1.858929958352e+01 -9.706319802516e+00 0.0 
1.851540991219e+01 -1.067205988724e+01 0.0 
1.771485303178e+01 -1.012504443115e+01 0.0 
1.764134552256e+01 -1.109360378538e+01 0.0 
1.683745148095e+01 -1.054496365337e+01 0.0 
1.691852964353e+01 -9.582555261178e+00 0.0 
1.603603813062e+01 -1.000160132379e+01 0.0 
1.595824239350e+01 -1.096750698862e+01 0.0 
1.515080624291e+01 -1.041639501931e+01 0.0 
1.523171602559e+01 -9.451711491453e+00 0.0 
1.434621060709e+01 -9.871956467464e+00 0.0 
1.426777178765e+01 -1.083749501371e+01 0.0 
1.345775282374e+01 -1.028803175500e+01 0.0 
1.354103873368e+01 -9.324918457162e+00 0.0 
1.265072018622e+01 -9.742612837270e+00 0.0 
1.257285762070e+01 -1.071557782384e+01 0.0 
1.175874815690e+01 -1.015972324288e+01 0.0 
1.184203019714e+01 -9.193604071377e+00 0.0 
1.094927709905e+01 -9.612103238656e+00 0.0 
1.086938022910e+01 -1.058685085646e+01 0.0 
1.005424098961e+01 -1.002939116380e+01 0.0 
9.977974613295e+00 -1.101324897989e+01 0.0 
1.012915646404e+01 -9.051815821181e+00 0.0 
9.237127782494e+00 -9.471239055559e+00 0.0 
9.308426593771e+00 -8.483376461131e+00 0.0 
8.418806073345e+00 -8.910712374517e+00 0.0 
2.253688464062e+01 -1.239459402279e+01 0.0 
8.495126726666e+00 -7.921646665254e+00 0.0 
9.389727383206e+00 -7.512103628377e+00 0.0 
7.601560812974e+00 -8.349460349344e+00 0.0 
7.525680547759e+00 -9.339736686940e+00 0.0 
7.677888324502e+00 -7.359727833346e+00 0.0 
6.782001206724e+00 -7.788454494773e+00 0.0 
6.858778622885e+00 -6.797338062822e+00 0.0 
2.196596590865e+01 -8.979025665442e+00 0.0 
2.816540108272e+01 -1.422634142353e+01 0.0 
5.961601194403e+00 -7.226824010712e+00 0.0 
6.038171749656e+00 -6.234825887079e+00 0.0 
6.936257279557e+00 -5.805287640737e+00 0.0 
6.115068918323e+00 -5.242109758768e+00 0.0 
3.564391741903e+01 -1.329240553876e+01 0.0 
3.558115605778e+01 -1.425902892003e+01 0.0 
3.645445282201e+01 -1.381970786460e+01 0.0 
3.639744204358e+01 -1.479198128612e+01 0.0 
3.727266909778e+01 -1.435399586226e+01 0.0 
5.216667013081e+00 -5.671788584287e+00 0.0 
3.220697293295e+01 -1.499594545107e+01 0.0 
3.551112158269e+01 -1.523479869250e+01 0.0 
2.836056961467e+01 -1.139032434851e+01 0.0 
2.516730388602e+01 -1.021382726837e+01 0.0 
1.844436907403e+01 -1.164097215196e+01 0.0 
5.885434318740e+00 -8.218694781467e+00 0.0 
5.064071066867e+00 -7.656614643901e+00 0.0 
4.988089103470e+00 -8.649722082718e+00 0.0 
1.079421050408e+01 -1.157014985435e+01 0.0 
9.902420005256e+00 -1.199903342656e+01 0.0 
1.071994252214e+01 -1.255727909771e+01 0.0 
9.826974788171e+00 -1.298659581767e+01 0.0 
1.064607883789e+01 -1.354595476388e+01 0.0 
9.751541265343e+00 -1.397556905071e+01 0.0 
8.932296185869e+00 -1.341553353988e+01 0.0 
8.856399248106e+00 -1.440570715508e+01 0.0 
8.036186803543e+00 -1.384470558472e+01 0.0 
1.057112875118e+01 -1.453516759081e+01 0.0 
1.146582585687e+01 -1.410539926903e+01 0.0 
7.959894480382e+00 -1.483563350928e+01 0.0 
7.138792279156e+00 -1.427465094140e+01 0.0 
7.062506792418e+00 -1.526615385482e+01 0.0 
6.240693558277e+00 -1.470508863040e+01 0.0 
6.316957575451e+00 -1.371212581281e+01 0.0 
5.418183007107e+00 -1.414253605022e+01 0.0 
5.494748364428e+00 -1.314886770603e+01 0.0 
1.756825565873e+01 -1.206433872514e+01 0.0 
1.837565773345e+01 -1.261356468266e+01 0.0 
1.749574831391e+01 -1.303769280014e+01 0.0 
1.830539187332e+01 -1.358828364284e+01 0.0 
1.742278925170e+01 -1.401367746928e+01 0.0 
1.823303007798e+01 -1.456432294258e+01 0.0 
1.734941694138e+01 -1.499213734361e+01 0.0 
1.653760041637e+01 -1.443920312098e+01 0.0 
3.056237977307e+01 -1.487132260174e+01 0.0 
1.866469084762e+01 -8.742953000418e+00 0.0 
1.953669694916e+01 -8.326038909849e+00 0.0 
1.874194303780e+01 -7.780688158966e+00 0.0 
1.961032016741e+01 -7.366854697285e+00 0.0 
1.881715755159e+01 -6.821102209649e+00 0.0 
1.968369797150e+01 -6.407747217358e+00 0.0 
1.889237123259e+01 -5.858375520026e+00 0.0 
1.802038875366e+01 -6.276202618170e+00 0.0 
1.809793837984e+01 -5.307629520489e+00 0.0 
1.721985207997e+01 -5.728242054488e+00 0.0 
1.729850893523e+01 -4.756990819347e+00 0.0 
1.641745664240e+01 -5.174636548624e+00 0.0 
2.495978509456e+01 -1.304406404294e+01 0.0 
1.911567814831e+01 -1.413854250293e+01 0.0 
1.904387332608e+01 -1.511463127723e+01 0.0 
1.992115934240e+01 -1.468788025898e+01 0.0 
7.013706899628e+00 -4.812582868662e+00 0.0 
5.342091874585e+00 -1.513658157269e+01 0.0 
1.139098043784e+01 -1.509488509480e+01 0.0 
1.228151810610e+01 -1.465617481983e+01 0.0 
1.646373110164e+01 -1.541993323337e+01 0.0 
5.293328636712e+00 -4.678385108584e+00 0.0 
1.975965862987e+01 -5.448124345648e+00 0.0 
2.054318374236e+01 -5.992561293251e+00 0.0 
3.721453439063e+01 -1.533216152738e+01 0.0 
3.809302733893e+01 -1.489235527381e+01 0.0 
1.220852788900e+01 -1.565304565230e+01 0.0 
4.394120899730e+00 -5.108397613210e+00 0.0 
8.779354620288e+00 -1.539524721159e+01 0.0 
1.817791047702e+01 -4.338570146253e+00 0.0 
4.518860013839e+00 -1.457343189307e+01 0.0 
4.442712140414e+00 -1.556841391069e+01 0.0 
8.115343466391e+00 -1.285760324283e+01 0.0 
1.985334703171e+01 -1.566478400426e+01 0.0 
2.071953850276e+01 -1.522074243119e+01 0.0 
1.634012953883e+01 -6.154777738301e+00 0.0 
1.553479994708e+01 -5.593730508879e+00 0.0 
1.561265946942e+01 -4.617761762647e+00 0.0 
1.470674212978e+01 -5.064576488228e+00 0.0 
1.464498299883e+01 -6.026514471420e+00 0.0 
1.383271561817e+01 -5.467796261169e+00 0.0 
1.389241253067e+01 -4.504338666645e+00 0.0 
1.301868735463e+01 -4.907185188626e+00 0.0 
1.294514184846e+01 -5.888160903592e+00 0.0 
1.212955968622e+01 -5.328262335277e+00 0.0 
1.220721122383e+01 -4.341264976687e+00 0.0 
1.131324345897e+01 -4.766773516508e+00 0.0 
5.266597955397e+00 -1.613148974258e+01 0.0 
1.737805990867e+01 -3.786677807525e+00 0.0 
3.078438094513e+01 -1.203225297748e+01 0.0 
1.131569882285e+01 -1.608511932110e+01 0.0 
1.728478341782e+01 -1.596017432313e+01 0.0 
3.803465906019e+01 -1.587509751228e+01 0.0 
3.891681276677e+01 -1.543395196905e+01 0.0 
3.897340985302e+01 -1.444710288980e+01 0.0 
3.980095968193e+01 -1.499059496613e+01 0.0 
3.974334598189e+01 -1.597921884150e+01 0.0 
4.062964983717e+01 -1.553518690417e+01 0.0 
4.068729602479e+01 -1.454434445295e+01 0.0 
4.151772679790e+01 -1.508974196007e+01 0.0 
4.157505195739e+01 -1.409694289912e+01 0.0 
4.240699932656e+01 -1.464347955968e+01 0.0 
4.234898051011e+01 -1.563721375790e+01 0.0 
4.323934606035e+01 -1.519082036405e+01 0.0 
4.329740528208e+01 -1.419587509788e+01 0.0 
4.413056841369e+01 -1.474359631875e+01 0.0 
4.418850110108e+01 -1.374786684042e+01 0.0 
4.502219770667e+01 -1.429605103525e+01 0.0 
4.496411937907e+01 -1.529215882720e+01 0.0 
4.490027319897e+00 -4.154167794594e+00 0.0 
1.565080385988e+01 -1.486411982419e+01 0.0 
1.557610691279e+01 -1.584855627870e+01 0.0 
4.195350646612e+00 -8.089117689096e+00 0.0 
4.124027797830e+00 -9.082831955007e+00 0.0 
4.917944318925e+00 -9.643530901533e+00 0.0 
4.020105689502e+00 -1.007439673661e+01 0.0 
4.587185899277e+01 -1.484039992728e+01 0.0 
4.580078661551e+01 -1.584043391042e+01 0.0 
2.061956522375e+01 -5.046701343981e+00 0.0 
2.139572955529e+01 -5.579553449826e+00 0.0 
3.715344357292e+01 -1.631485124583e+01 0.0 
3.618886196443e+00 -1.500471207167e+01 0.0 
3.695606940204e+00 -1.400939692294e+01 0.0 
2.438890661143e+01 -9.686110599723e+00 0.0 
2.523267572778e+01 -9.276766000622e+00 0.0 
2.446094171539e+01 -8.751904591412e+00 0.0 
2.529089822738e+01 -8.321495612547e+00 0.0 
2.606882688827e+01 -8.864724051119e+00 0.0 
2.452116646430e+01 -7.792756462004e+00 0.0 
1.235543269617e+01 -1.365845617339e+01 0.0 
4.318116874181e+01 -1.618567469992e+01 0.0 
7.835066111909e+00 -5.376366223896e+00 0.0 
7.905687335704e+00 -4.382539065697e+00 0.0 
3.542640009567e+00 -1.600035116542e+01 0.0 
1.572431503071e+01 -1.388358386695e+01 0.0 
2.574684696680e+01 -1.357896141127e+01 0.0 
2.488842657651e+01 -1.399674354505e+01 0.0 
2.568301775611e+01 -1.453552048595e+01 0.0 
2.481535572009e+01 -1.495542756508e+01 0.0 
2.561729699688e+01 -1.549784648532e+01 0.0 
2.474623061296e+01 -1.592058894178e+01 0.0 
2.394234041695e+01 -1.537572575827e+01 0.0 
2.065825452567e+01 -1.621899055217e+01 0.0 
2.387180528935e+01 -1.634552264687e+01 0.0 
4.585364400844e+01 -1.383912334080e+01 0.0 
1.998744432052e+01 -1.370317155541e+01 0.0 
1.205356951443e+01 -6.313580285498e+00 0.0 
5.396543905849e+00 -3.731818611283e+00 0.0 
1.139652573295e+01 -3.745819399350e+00 0.0 
3.574124306703e+00 -4.551456826011e+00 0.0 
3.494140761930e+00 -5.539787055649e+00 0.0 
1.213651452413e+01 -1.664505033022e+01 0.0 
2.555045568519e+01 -1.646529356744e+01 0.0 
2.641671114986e+01 -1.603899382371e+01 0.0 
2.612920721894e+01 -7.906435260873e+00 0.0 
2.690339829698e+01 -8.456969591431e+00 0.0 
1.978024383368e+01 -1.664410216353e+01 0.0 
3.732829979082e+01 -1.336926601859e+01 0.0 
4.074336584605e+01 -1.355133328401e+01 0.0 
4.163204691081e+01 -1.310280943992e+01 0.0 
3.773826114429e+00 -3.493444309145e+00 0.0 
1.228783001032e+01 -3.374822835872e+00 0.0 
4.057110462520e+01 -1.652588478000e+01 0.0 
2.132535497898e+01 -6.523623360525e+00 0.0 
2.216932532211e+01 -6.110044769206e+00 0.0 
1.825781152128e+01 -3.370146817147e+00 0.0 
1.745679445888e+01 -2.812942552063e+00 0.0 
4.666517057280e+01 -1.539981381543e+01 0.0 
4.660575894464e+01 -1.639014410186e+01 0.0 
4.838230979954e+00 -1.063643436446e+01 0.0 
3.938942630206e+00 -1.106778981745e+01 0.0 
1.302967218620e+01 -1.621373452436e+01 0.0 
1.049548003190e+01 -4.204825123240e+00 0.0 
4.573571907195e+01 -1.683820511148e+01 0.0 
1.483686335807e+01 -1.430849689310e+01 0.0 
1.490982658890e+01 -1.332679386284e+01 0.0 
3.190805600162e+00 -9.510968358545e+00 0.0 
2.146625721848e+01 -4.642437303115e+00 0.0 
2.069866208266e+01 -4.111852942193e+00 0.0 
1.286859345584e+01 -6.873252723348e+00 0.0 
1.041794493184e+01 -5.194814260291e+00 0.0 
2.671081808965e+00 -4.976806516331e+00 0.0 
1.295786792925e+01 -1.720506531799e+01 0.0 
3.968438206511e+01 -1.696869067241e+01 0.0 
2.308550456051e+01 -1.579963151273e+01 0.0 
2.315593682844e+01 -1.482967445235e+01 0.0 
2.299471449450e+01 -1.677069968132e+01 0.0 
1.057344714696e+01 -3.214252277840e+00 0.0 
1.124057603753e+01 -1.707713739755e+01 0.0 
2.718402535754e+00 -1.543629882103e+01 0.0 
2.638549692805e+01 -1.696744916809e+01 0.0 
2.723416349007e+01 -1.658104204545e+01 0.0 
2.210193351704e+01 -7.046769643417e+00 0.0 
2.295180925161e+01 -6.657397605239e+00 0.0 
2.301355235833e+01 -5.709111896800e+00 0.0 
2.379052718281e+01 -6.254965406962e+00 0.0 
3.243528601237e+01 -1.214181853533e+01 0.0 
2.287977995457e+01 -7.583722368300e+00 0.0 
2.999876029544e+01 -1.150837653096e+01 0.0 
3.084435366963e+01 -1.109693775882e+01 0.0 
3.006650579669e+01 -1.057778994262e+01 0.0 
2.683802665066e+01 -9.386863216633e+00 0.0 
2.768641973621e+01 -8.988883915666e+00 0.0 
2.040296980397e+01 -7.903629133404e+00 0.0 
1.925235024054e+01 -1.218872783130e+01 0.0 
5.735667000424e+00 -1.020577277283e+01 0.0 
6.396559909872e+00 -1.272326295703e+01 0.0 
1.161199420714e+01 -1.212812778229e+01 0.0 
4.229046132615e+01 -1.663084237572e+01 0.0 
4.312275399692e+01 -1.718087491556e+01 0.0 
4.335502068163e+01 -1.320039231514e+01 0.0 
4.424630298089e+01 -1.275160688731e+01 0.0 
7.090116643816e+00 -3.818998061530e+00 0.0 
7.989472176569e+00 -3.389238711200e+00 0.0 
9.085824861778e+00 -1.144036167408e+01 0.0 
1.041972423731e+01 -1.651614080893e+01 0.0 
3.797525112640e+01 -1.686052038746e+01 0.0 
3.709114253394e+01 -1.730125999865e+01 0.0 
3.626966748340e+01 -1.675477052919e+01 0.0 
1.385164591440e+01 -1.677597757552e+01 0.0 
1.787152588784e+01 -8.198993896093e+00 0.0 
1.668849729812e+01 -1.248560611628e+01 0.0 
1.659546177905e+01 -3.232482605530e+00 0.0 
2.332214717345e+01 -1.292598167641e+01 0.0 
7.168238450786e+00 -2.824711686516e+00 0.0 
2.894878403906e+01 -1.475427524446e+01 0.0 
2.646763248247e+00 -1.643270107952e+01 0.0 
3.467431944285e+00 -1.699648837348e+01 0.0 
2.059475877282e+01 -1.719473628526e+01 0.0 
3.333868355437e+01 -1.080596971682e+01 0.0 
2.246451062637e+01 -1.334557761546e+01 0.0 
2.167821896388e+01 -1.280847834858e+01 0.0 
3.089653185767e+01 -1.017198487212e+01 0.0 
3.012604365669e+01 -9.657298805968e+00 0.0 
2.929627299435e+01 -1.006100135274e+01 0.0 
2.936201435219e+01 -9.136748899251e+00 0.0 
1.198219052702e+01 -7.291887238230e+00 0.0 
1.116702076035e+01 -6.731976101053e+00 0.0 
2.551388807505e+01 -1.746927036981e+01 0.0 
2.378639090370e+01 -1.728678807149e+01 0.0 
2.718543627188e+01 -1.748668016909e+01 0.0 
2.804681050301e+01 -1.712626668293e+01 0.0 
1.970737034667e+01 -1.762317646822e+01 0.0 
1.889535776135e+01 -1.707158098231e+01 0.0 
2.593777711283e+00 -5.971157087874e+00 0.0 
2.773468281110e+01 -8.067164273938e+00 0.0 
4.051205884347e+01 -1.751819982458e+01 0.0 
3.166903145421e+01 -1.068032992414e+01 0.0 
1.033042452886e+01 -1.748285844336e+01 0.0 
9.519274604626e+00 -1.694349240233e+01 0.0 
1.668308673328e+01 -2.255861778986e+00 0.0 
1.570531902832e+01 -2.676795860126e+00 0.0 
4.655826903379e+01 -1.736656245706e+01 0.0 
2.384148070773e+01 -5.328744256413e+00 0.0 
2.460255123641e+01 -5.852182672816e+00 0.0 
2.306638135119e+01 -4.798935440613e+00 0.0 
8.467720450578e-01 -1.849576263072e+01 0.0 
4.849657322345e+01 -1.084860705506e+01 0.0 
2.565860899507e+00 -1.742859793981e+01 0.0 
2.764418872564e+01 -9.927142821799e+00 0.0 
4.565165880064e+01 -1.785336695404e+01 0.0 
2.162231831329e+01 -1.376528337468e+01 0.0 
2.360646352969e+01 -9.136041963102e+00 0.0 
1.392738739903e+01 -1.578285505772e+01 0.0 
4.756405947478e+01 -1.683706841809e+01 0.0 
4.740895034054e+01 -1.793766756892e+01 0.0 
4.080779328826e+01 -1.257387192544e+01 0.0 
4.168907939671e+01 -1.210739129181e+01 0.0 
3.991197722154e+01 -1.300815793917e+01 0.0 
1.905536506762e+01 -3.940076697685e+00 0.0 
1.923879596617e+01 -2.875000734166e+00 0.0 
4.401386745746e+01 -1.673483229438e+01 0.0 
4.247233362525e+00 -7.094581653070e+00 0.0 
3.286051630211e+00 -7.635300020553e+00 0.0 
9.609533347623e+00 -4.594311677967e+00 0.0 
9.523554636369e+00 -5.595597029530e+00 0.0 
5.660336628893e+00 -1.119290329628e+01 0.0 
6.558070063295e+00 -1.076385809362e+01 0.0 
2.809866407414e+01 -1.518037766799e+01 0.0 
2.888868674504e+01 -1.570360690070e+01 0.0 
2.654431550819e+01 -1.411217777162e+01 0.0 
1.402158265969e+01 -1.375404617952e+01 0.0 
1.409592494026e+01 -1.277071998942e+01 0.0 
1.499355196178e+01 -1.235270737023e+01 0.0 
4.221535326155e+01 -1.759335617494e+01 0.0 
4.305583287033e+01 -1.822663146802e+01 0.0 
1.280748808359e+01 -7.834332838285e+00 0.0 
1.368988389326e+01 -7.420529606172e+00 0.0 
1.110091796060e+01 -7.683966794328e+00 0.0 
3.963446145980e+01 -1.794331310122e+01 0.0 
3.423932362213e+00 -1.796415590455e+01 0.0 
4.280814572302e+00 -1.752272834860e+01 0.0 
8.050136380041e+00 -2.421582378631e+00 0.0 
8.888674091650e+00 -2.984264211327e+00 0.0 
2.152839430898e+01 -3.732609965436e+00 0.0 
2.077799585292e+01 -3.183896021866e+00 0.0 
3.618719395821e+01 -1.770276572576e+01 0.0 
3.538165138340e+01 -1.718709995539e+01 0.0 
3.702925326420e+01 -1.828844288807e+01 0.0 
1.756739438711e+00 -5.353284859169e+00 0.0 
2.233710191104e+01 -1.527265621324e+01 0.0 
1.389483555057e+01 -1.771797164730e+01 0.0 
1.475634224300e+01 -1.728357428390e+01 0.0 
1.298797563052e+01 -1.825968924755e+01 0.0 
2.145331271866e+01 -1.673705379077e+01 0.0 
2.133282821169e+01 -1.769400773673e+01 0.0 
2.292139194136e+01 -1.774915400288e+01 0.0 
1.750750053243e+01 -1.861475593469e+00 0.0 
4.830478841772e+01 -1.752611802221e+01 0.0 
4.341203507805e+01 -1.220326745522e+01 0.0 
1.685254151866e+01 -1.443085301632e+00 0.0 
4.431538535165e+01 -1.171841387375e+01 0.0 
4.511308610496e+01 -1.229557320599e+01 0.0 
4.510133242889e+01 -1.123680627466e+01 0.0 
1.846818030617e+00 -4.410877617069e+00 0.0 
3.995468694584e+01 -1.186571542989e+01 0.0 
3.901387459804e+01 -1.242507616755e+01 0.0 
8.966735877533e+00 -1.837818700423e+00 0.0 
4.049310011091e+01 -1.848269508791e+01 0.0 
7.278862053803e+00 -1.918523922691e+00 0.0 
6.429715522129e+00 -2.316676521184e+00 0.0 
9.443505505022e+00 -1.792198868094e+01 0.0 
8.620386951051e+00 -1.737590365556e+01 0.0 
8.571868171503e+00 -1.834436667826e+01 0.0 
7.758629848526e+00 -1.775677907213e+01 0.0 
7.806648388584e+00 -1.680761266021e+01 0.0 
6.908555145436e+00 -1.723746463044e+01 0.0 
4.251709122090e+01 -1.156937480156e+01 0.0 
6.931136405615e+00 -1.832465719263e+01 0.0 
6.015545461353e+00 -1.768865355295e+01 0.0 
5.960535926343e+00 -1.872011001764e+01 0.0 
3.023253444786e+01 -8.761960642196e+00 0.0 
2.454622702599e+01 -6.749421992767e+00 0.0 
2.537499741604e+01 -6.347634963783e+00 0.0 
2.544077378460e+01 -5.431358513649e+00 0.0 
2.801367161747e+01 -1.820907270221e+01 0.0 
2.884507806914e+01 -1.762032095326e+01 0.0 
1.821474531936e+00 -1.588901260460e+01 0.0 
1.821006262604e+00 -1.489370287756e+01 0.0 
4.599962488908e+01 -1.176478780598e+01 0.0 
4.705457470007e+01 -1.172182804229e+01 0.0 
4.667668314802e+01 -1.263464558483e+01 0.0 
4.759648056504e+01 -1.252380987933e+01 0.0 
4.728041618103e+01 -1.341928568376e+01 0.0 
4.825209352360e+01 -1.330491640804e+01 0.0 
4.778118233428e+01 -1.420151961695e+01 0.0 
2.388192727579e+01 -1.826934810142e+01 0.0 
2.381714684947e+01 -4.385917965223e+00 0.0 
3.172733219247e+01 -9.758744265248e+00 0.0 
1.882012070658e+01 -1.805540597212e+01 0.0 
1.805667505243e+01 -1.742221226236e+01 0.0 
2.852599958080e+01 -8.597196079481e+00 0.0 
2.856486123437e+01 -7.661382718527e+00 0.0 
1.111792842875e+01 -1.818223852980e+01 0.0 
2.203322722466e+01 -7.986646678802e+00 0.0 
3.955703676900e+01 -1.903246763601e+01 0.0 
1.944842206513e+01 -8.038750575182e-01 0.0 
1.909882767783e+01 -1.746322740933e+00 0.0 
2.281147422941e+01 -8.525912918334e+00 0.0 
2.850633001468e+01 -9.533271335986e+00 0.0 
2.532883344309e+01 -7.308951659710e+00 0.0 
2.620475466461e+01 -6.979208585400e+00 0.0 
1.396278270396e+01 -1.475095389807e+01 0.0 
9.791001166724e+00 -2.554159793552e+00 0.0 
2.229293380421e+01 -4.269762271052e+00 0.0 
4.677238984118e+01 -1.430071795514e+01 0.0 
2.228658385918e+01 -3.344747535984e+00 0.0 
8.940223674553e-01 -1.543595733415e+01 0.0 
2.118566862474e+01 -8.435876987696e+00 0.0 
2.678325936437e+01 -1.032621195706e+01 0.0 
2.223400220487e+01 -5.179046761770e+00 0.0 
2.375370625384e+01 -7.251580562134e+00 0.0 
3.156971327386e+01 -1.255534750737e+01 0.0 
3.328226391312e+01 -1.172914813316e+01 0.0 
3.250948774219e+01 -1.120157009348e+01 0.0 
2.032993445717e+01 -8.867880112202e+00 0.0 
2.697226974856e+01 -7.536633082045e+00 0.0 
2.707377810386e+01 -6.590835263295e+00 0.0 
2.914099246827e+01 -1.191678458549e+01 0.0 
3.544824072239e+01 -1.621126558525e+01 0.0 
3.456511855436e+01 -1.665054783843e+01 0.0 
3.448395810225e+01 -1.759117813016e+01 0.0 
3.368378673938e+01 -1.708037781328e+01 0.0 
3.375560452567e+01 -1.610973066913e+01 0.0 
3.288001547988e+01 -1.654324255651e+01 0.0 
3.282475929147e+01 -1.749725654692e+01 0.0 
3.199880906313e+01 -1.697294088625e+01 0.0 
3.197001272932e+01 -1.811667776864e+01 0.0 
3.111884713021e+01 -1.742166785755e+01 0.0 
3.120418962865e+01 -1.642155709385e+01 0.0 
3.034666704371e+01 -1.683123833816e+01 0.0 
3.026224379976e+01 -1.772592851714e+01 0.0 
3.046632362943e+01 -1.582232843075e+01 0.0 
1.961344017324e+01 -1.857459447985e+01 0.0 
2.274975894774e+01 -9.532738811922e+00 0.0 
1.833923246887e+01 -2.396746883672e+00 0.0 
1.988859500848e+01 -2.249244376594e+00 0.0 
2.758045562861e+01 -1.086434261689e+01 0.0 
3.247300178163e+01 -1.909930104252e+01 0.0 
3.461947482503e+01 -1.911879848019e+01 0.0 
2.047161538662e+01 -6.941478180358e+00 0.0 
2.750230940214e+01 -1.915490590764e+01 0.0 
3.165081350803e+01 -1.161860780120e+01 0.0 
1.897456727641e+01 -4.889634688522e+00 0.0 
2.549338539756e+01 -1.914858252089e+01 0.0 
3.462873135081e+01 -1.567482276144e+01 0.0 
3.384432415243e+01 -1.512280684518e+01 0.0 
3.471433767690e+01 -1.469086942990e+01 0.0 
3.651470373046e+01 -1.918207952149e+01 0.0 
3.901742690249e+01 -1.345028556517e+01 0.0 
2.153224102692e+01 -1.920169709333e+01 0.0 
1.918382939341e+01 -1.316226275662e+01 0.0 
2.005389162382e+01 -1.271962165174e+01 0.0 
2.011472087878e+01 -1.175029352900e+01 0.0 
3.210679478412e+01 -1.598038618242e+01 0.0 
1.752175226543e+01 -1.914713022656e+01 0.0 
1.696897240059e+01 -1.832772588765e+01 0.0 
1.599682523337e+01 -1.832599992024e+01 0.0 
1.644507199462e+01 -1.743697981535e+01 0.0 
1.549987712903e+01 -1.915192375101e+01 0.0 
3.050250861901e+01 -1.918943550234e+01 0.0 
2.949944061527e+01 -1.922950455235e+01 0.0 
1.375892575273e+01 -6.447160534926e+00 0.0 
1.457223670180e+01 -7.006709243857e+00 0.0 
1.450818793236e+01 -7.965943451779e+00 0.0 
1.538804712402e+01 -7.553409623699e+00 0.0 
1.545817644768e+01 -6.580929593419e+00 0.0 
1.626506893751e+01 -7.129032608911e+00 0.0 
1.619833811522e+01 -8.086588580887e+00 0.0 
1.714448609609e+01 -6.697429609777e+00 0.0 
2.887616543568e+01 -1.668015232137e+01 0.0 
1.349814589130e+01 -1.918225301544e+01 0.0 
1.153887772210e+01 -1.311384581217e+01 0.0 
1.242708159886e+01 -1.267046795531e+01 0.0 
1.249799674267e+01 -1.169005616014e+01 0.0 
6.631723893693e+00 -9.774184881867e+00 0.0 
7.451471631867e+00 -1.033148796006e+01 0.0 
7.377795355458e+00 -1.132196345268e+01 0.0 
5.810931797536e+00 -9.211654212252e+00 0.0 
2.402683899133e+01 -1.441378562320e+01 0.0 
1.249768692036e+01 -1.917388426624e+01 0.0 
1.580373499437e+01 -1.290751860664e+01 0.0 
8.344650507834e+00 -9.898403995170e+00 0.0 
3.750622115305e+01 -1.086526401533e+01 0.0 
3.699391251667e+01 -1.171695900794e+01 0.0 
3.606517829518e+01 -1.173717504500e+01 0.0 
3.650257641795e+01 -1.270047380221e+01 0.0 
3.808951488918e+01 -1.183518714175e+01 0.0 
4.760380962420e+00 -1.162484888315e+01 0.0 
3.861210370848e+00 -1.205657631736e+01 0.0 
3.038284309476e+00 -1.149851280664e+01 0.0 
2.961598794889e+00 -1.248856794980e+01 0.0 
2.138953225512e+00 -1.193212674534e+01 0.0 
2.227383593457e+00 -1.096258903918e+01 0.0 
2.043265419276e+00 -1.292158472959e+01 0.0 
1.252449446028e+00 -1.225502002753e+01 0.0 
3.949985210740e+01 -1.086594001795e+01 0.0 
1.453499444792e+01 -8.768805922472e-01 0.0 
1.403518950933e+01 -1.749965556633e+00 0.0 
1.300715031023e+01 -1.714737233040e+00 0.0 
1.350929389899e+01 -2.527443911291e+00 0.0 
1.449600910711e+01 -2.595486162864e+00 0.0 
1.395693872901e+01 -3.484211041558e+00 0.0 
1.495105865208e+01 -3.364609636216e+00 0.0 
1.508822528740e+01 -1.766586020494e+00 0.0 
1.250223858430e+01 -8.634590186802e-01 0.0 
1.200279523409e+01 -1.709044504992e+00 0.0 
1.150086239419e+01 -8.592789190668e-01 0.0 
1.101482754194e+01 -1.677730591922e+00 0.0 
1.148018564526e+01 -2.659323866909e+00 0.0 
8.800552119754e+00 -3.989875954728e+00 0.0 
3.452790439430e+00 -1.901136170646e+01 0.0 
8.658451825200e-01 -9.503462241795e+00 0.0 
1.694787786797e+00 -9.000589234502e+00 0.0 
1.703436717094e+00 -8.038819004041e+00 0.0 
2.594197971110e+00 -8.563955242845e+00 0.0 
1.630513735412e+00 -9.907244747511e+00 0.0 
8.566859292791e-01 -7.512203837972e+00 0.0 
1.685461277022e+00 -7.164280248030e+00 0.0 
2.506394468801e+00 -8.623386730818e-01 0.0 
2.007475081581e+00 -1.727729545205e+00 0.0 
9.211534699767e-01 -1.628791366312e+00 0.0 
1.500000000020e+00 -2.598063549486e+00 0.0 
2.482078929963e+00 -2.553580088725e+00 0.0 
2.999795253092e+00 -1.732169015019e+00 0.0 
3.999712607169e+00 -1.728832897453e+00 0.0 
4.499752199340e+00 -8.656478679175e-01 0.0 
4.964377774841e+00 -1.730129617941e+00 0.0 
4.425017908337e+00 -2.597541756243e+00 0.0 
5.446573195014e+00 -8.410144840023e-01 0.0 
4.915722346614e+01 -1.550640962770e+01 0.0 
4.826794919243e+01 -1.600000000000e+01 0.0 
1.053139533193e+01 -1.911782884365e+01 0.0 
4.156049861949e+01 -1.095160998589e+01 0.0 
9.494526624416e+00 -8.650570090219e-01 0.0 
4.555762166964e+01 -1.897098103585e+01 0.0 
4.250656411371e+01 -1.914387356218e+01 0.0 
4.350906466345e+01 -1.917234727395e+01 0.0 
8.759665722424e-01 -1.746422130609e+01 0.0 
1.698936011838e+00 -1.795012186674e+01 0.0 
4.742476811029e+01 -1.900090177972e+01 0.0 
7.749196752349e+00 -6.368049313489e+00 0.0 
3.361572113416e+01 -1.798765193915e+01 0.0 
4.484660149212e+01 -1.728661231383e+01 0.0 
1.984038172228e+01 -4.502575320116e+00 0.0 
1.035080352627e+01 -6.166639575753e+00 0.0 
2.753558010652e+00 -1.444909521181e+01 0.0 
7.217069543032e+00 -1.328635391078e+01 0.0 
4.364336727739e+00 -1.655585677381e+01 0.0 
4.595208426108e+00 -1.357919665443e+01 0.0 
6.164967006980e+00 -1.569873454630e+01 0.0 
1.487855768353e+01 -1.826523774028e+01 0.0 
2.791876456372e+00 -4.019632415181e+00 0.0 
4.246464893515e+01 -1.364898659620e+01 0.0 
4.503855590351e+01 -1.329552780944e+01 0.0 
4.407239109604e+01 -1.573900004093e+01 0.0 
5.141054449252e+00 -6.664290382472e+00 0.0 
3.141083947149e+00 -1.055790764912e+01 0.0 
6.196463198741e+00 -4.256497932609e+00 0.0 
2.599618716181e+01 -1.836893455464e+01 0.0 
2.923057372337e+01 -1.098461757645e+01 0.0 
1.168343877486e+01 -1.114079645041e+01 0.0 
6.706222096238e+00 -8.780364234441e+00 0.0 
8.567858614669e+00 -6.943121440850e+00 0.0 
1.123755132901e+01 -5.753525820030e+00 0.0 
2.353456234423e+01 -1.008536320953e+01 0.0 
9.162073319168e+00 -1.045593739109e+01 0.0 
9.676343469685e+00 -1.496493008366e+01 0.0 
4.490637882905e+01 -1.628778970202e+01 0.0 
7.398129387772e+00 -9.639977982323e-01 0.0 
1.049641705805e+01 -1.552503975272e+01 0.0 
9.010356286268e+00 -1.242805042052e+01 0.0 
3.985573925497e+01 -1.399863651620e+01 0.0 
1.816196318262e+01 -1.554066497931e+01 0.0 
1.306332244168e+01 -3.963646550326e+00 0.0 
4.145850903932e+01 -1.608094559275e+01 0.0 
3.794664933633e+01 -1.779020121986e+01 0.0 
3.819614412903e+01 -1.290749321016e+01 0.0 
6.270014188119e+00 -3.255093186826e+00 0.0 
4.251165370388e+01 -1.263870364997e+01 0.0 
1.207347709171e+01 -1.763942826023e+01 0.0 
3.633240829927e+01 -1.577330481104e+01 0.0 
4.319052668832e+00 -6.101812561904e+00 0.0 
1.676492415806e+01 -1.151547901392e+01 0.0 
2.594059220037e+01 -1.074225223009e+01 0.0 
3.340750911501e+01 -9.898764354137e+00 0.0 
4.397619591281e+01 -1.769773736461e+01 0.0 
2.175611595028e+01 -1.185718747128e+01 0.0 
1.641818733106e+01 -1.640685203215e+01 0.0 
1.661211421753e+01 -1.346121366338e+01 0.0 
3.428853504935e+00 -6.551993389271e+00 0.0 
8.700728832502e+00 -1.638460872825e+01 0.0 
1.931369795309e+01 -1.121629383702e+01 0.0 
4.139798872363e+01 -1.706922153459e+01 0.0 
2.647837478700e+01 -1.507353829290e+01 0.0 
1.779469616424e+01 -9.161615782908e+00 0.0 
3.885879219319e+01 -1.642026488918e+01 0.0 
1.338194936770e+01 -1.125916521471e+01 0.0 
1.897071181111e+01 -1.609204322578e+01 0.0 
2.844308548793e+01 -1.046221003096e+01 0.0 
2.659854702194e+01 -1.316109415760e+01 0.0 
2.979604503271e+01 -1.433296157755e+01 0.0 
2.417694041347e+01 -1.251231397779e+01 0.0 
1.807401327411e+00 -1.388891148480e+01 0.0 
9.599810618782e+00 -1.595439365034e+01 0.0 
1.652144692160e+01 -4.205392788472e+00 0.0 
2.367839450246e+01 -8.188385218643e+00 0.0 
3.814894930468e+01 -1.390748338767e+01 0.0 
2.466448215774e+01 -1.685878545680e+01 0.0 
4.134044524611e+01 -1.806610045954e+01 0.0 
2.600511411958e+01 -9.801774120648e+00 0.0 
7.882158050716e+00 -1.582364037353e+01 0.0 
3.881607873422e+01 -1.737970515013e+01 0.0 
8.270182347708e+00 -1.088622154920e+01 0.0 
8.672520392520e-01 -4.532984309881e+00 0.0 
1.993447205337e+01 -3.579061902667e+00 0.0 
1.794616079549e+01 -7.238038888498e+00 0.0 
2.097277068165e+01 -1.132450168636e+01 0.0 
8.194803300681e+00 -1.187214224265e+01 0.0 
3.522279404911e+01 -1.823342818178e+01 0.0 
6.984481050295e+00 -1.625271465557e+01 0.0 
1.309433007797e+01 -1.521718594215e+01 0.0 
2.150246167611e+01 -1.885399038185e+00 0.0 
3.250689370209e+01 -1.028789870535e+01 0.0 
6.085886272238e+00 -1.668342132851e+01 0.0 
1.588455661727e+01 -1.193498985921e+01 0.0 
1.809323400821e+01 -1.651110084195e+01 0.0 
1.348885082381e+00 -1.136065576512e+01 0.0 
2.497670221995e+01 -1.834631276173e+01 0.0 
2.937062818424e+01 -8.233711194470e+00 0.0 
5.185823744469e+00 -1.711566910207e+01 0.0 
1.477497877209e+01 -1.530177014512e+01 0.0 
2.125346158933e+01 -7.473003997367e+00 0.0 
4.751561118290e+01 -1.084897772632e+01 0.0 
5.056026576843e+00 -1.825750475525e+01 0.0 
1.473948554523e+01 -1.634577436309e+01 0.0 
2.410566630936e+01 -1.345970002612e+01 0.0 
1.507337507513e+01 -1.138527895328e+01 0.0 
3.189857338687e+01 -8.887781229006e+00 0.0 
7.298712468334e+00 -1.230231046246e+01 0.0 
2.738235495295e+01 -1.368931690364e+01 0.0 
3.750141041969e+01 -1.920449893070e+01 0.0 
1.557271965640e+01 -1.683317951731e+01 0.0 
3.393731848929e+01 -1.413034777044e+01 0.0 
6.482156824153e+00 -1.174575135362e+01 0.0 
2.077971718439e+01 -1.421279621836e+01 0.0 
3.455084320178e+00 -2.562590040585e+00 0.0 
3.099056096250e+01 -9.270280416035e+00 0.0 
5.580176125418e+00 -1.217387969259e+01 0.0 
1.707247630389e+01 -7.660651981710e+00 0.0 
1.418658814174e+01 -1.180390575393e+01 0.0 
2.049103025389e+01 -1.811296706038e+01 0.0 
4.680386172316e+00 -1.260396879301e+01 0.0 
1.699679896554e+01 -8.624561788199e+00 0.0 
3.779470168555e+00 -1.303424899720e+01 0.0 
3.036589870126e+01 -7.879832518349e+00 0.0 
3.306993001774e+01 -1.457671062095e+01 0.0 
2.840150110165e+00 -1.346530088269e+01 0.0 
2.732011135052e+01 -1.464591214560e+01 0.0 
5.423639259568e+00 -2.659711955016e+00 0.0 
2.324455961696e+01 -1.387269388211e+01 0.0 
1.752768355571e+00 -1.693128613594e+01 0.0 
1.020244783051e+01 -8.076834012808e+00 0.0 
1.330873875224e+01 -1.222417528206e+01 0.0 
3.297727364880e+01 -1.555480372087e+01 0.0 
2.890929955439e+01 -6.868664170731e+00 0.0 
1.323294664622e+01 -1.320754260334e+01 0.0 
2.726532861246e+01 -1.560593120806e+01 0.0 
2.240020643398e+01 -1.429299177247e+01 0.0 
2.090445823633e+01 -1.228128621332e+01 0.0 
1.315809881502e+01 -1.420739326938e+01 0.0 
2.781328038068e+01 -7.181956082300e+00 0.0 
8.614200829057e+00 -5.936933226306e+00 0.0 
8.714765730069e+00 -4.979270529687e+00 0.0 
1.611881701099e+01 -9.041973294003e+00 0.0 
2.806830314340e+01 -1.614622947108e+01 0.0 
2.084435391396e+00 -3.385085422913e+00 0.0 
3.133211811152e+01 -1.542347619750e+01 0.0 
9.693114650768e+00 -3.590281506442e+00 0.0 
1.531883592202e+01 -8.504584946143e+00 0.0 
2.151589117094e+01 -1.578915763018e+01 0.0 
4.918943882696e+01 -1.355538828056e+01 0.0 
1.443236615188e+01 -8.918701794549e+00 0.0 
8.276250966452e-01 -5.537685192197e+00 0.0 
1.362790867918e+01 -8.374718262212e+00 0.0 
2.083767477370e+01 -1.324843956035e+01 0.0 
1.273834678703e+01 -8.790890389337e+00 0.0 
1.192275845670e+01 -8.242261327467e+00 0.0 
4.477236023583e+01 -1.824312396664e+01 0.0 
1.102989384254e+01 -8.649855800911e+00 0.0 
4.849096516045e+01 -1.917293752213e+01 0.0 
1.588996752238e+00 -1.910230934687e+01 0.0 
4.904245197583e+01 -1.159839008158e+01 0.0 
2.753852929608e+01 -5.782128488093e+00 0.0 
1.756133602833e+01 -8.306130313187e-01 0.0 
2.615423700951e+01 -6.153865090092e+00 0.0 
1.028818761294e+01 -7.122020845892e+00 0.0 
2.970818901196e+01 -1.527821347593e+01 0.0 
4.801461623449e+01 -1.164472570985e+01 0.0 
9.455722100419e+00 -6.546069291118e+00 0.0 
3.089099236677e+01 -1.835339328261e+01 0.0 
2.350000000013e+01 -1.920825896750e+01 0.0 
4.830620531887e+01 -1.506626155470e+01 0.0 
1.725381944701e+01 -1.688794487850e+01 0.0 
2.156246225273e+01 -1.475893794002e+01 0.0 
4.919319648787e+01 -1.742767505896e+01 0.0 
4.437935623576e+01 -1.077662927266e+01 0.0 
1.001520521978e+01 -1.652692675208e+00 0.0 
9.067160240050e-01 -1.441937727541e+01 0.0 
2.603365149390e+01 -4.755996613848e+00 0.0 
2.458344439002e+01 -4.873645517696e+00 0.0 
2.304312390142e+01 -3.836552768096e+00 0.0 
2.546923202198e+00 -6.902480355749e+00 0.0 
1.251534969393e+01 -2.490989965776e+00 0.0 
2.454061833377e+01 -3.933354231935e+00 0.0 
1.788186558740e+01 -1.827424884923e+01 0.0 
4.090785243552e+01 -1.166553231904e+01 0.0 
2.230128851568e+01 -1.623015738726e+01 0.0 
2.302362347568e+01 -2.916239960270e+00 0.0 
3.878119254461e+01 -1.830091164002e+01 0.0 
2.210081359958e+01 -1.829238229150e+01 0.0 
8.443704882233e+00 -1.921993252862e+01 0.0 
2.218405824691e+01 -1.724557581508e+01 0.0 
2.151157503963e+01 -2.790636689331e+00 0.0 
3.741658958955e+01 -1.250400191722e+01 0.0 
2.697247663737e+01 -1.838290202309e+01 0.0 
4.743362342862e+01 -1.585850773010e+01 0.0 
6.671345075358e+00 -1.924977576322e+01 0.0 
3.900825404537e+01 -1.157220003875e+01 0.0 
4.649692961375e+01 -1.836335837481e+01 0.0 
1.578831424832e+01 -3.678284023361e+00 0.0 
4.814208768888e+01 -1.841249298770e+01 0.0 
2.964123298315e+01 -1.625739458193e+01 0.0 
4.580760351902e+01 -1.284294554687e+01 0.0 
3.561520879615e+01 -1.245548941949e+01 0.0 
2.555418095658e+00 -1.841101588290e+01 0.0 
3.288468366144e+01 -1.834258164109e+01 0.0 
2.065894391445e+01 -2.240688571739e+00 0.0 
4.739171429915e+01 -1.496536413446e+01 0.0 
3.478086729185e+00 -8.576434653209e+00 0.0 
1.606010630246e+01 -1.588421807951e+00 0.0 
1.018329200594e+01 -1.834320874317e+01 0.0 
2.957213339430e+01 -1.720496954591e+01 0.0 
4.142712790164e+00 -1.837794506222e+01 0.0 
6.698721532573e-01 -2.499999999997e+00 0.0 
8.037039123140e+00 -1.571229354954e+00 0.0 
1.203541361428e+01 -1.847784298001e+01 0.0 
2.899968332038e+01 -1.848264722179e+01 0.0 
1.469229460948e+01 -4.219485753730e+00 0.0 
4.049590781957e+01 -1.932812501995e+01 0.0 
1.996211678340e+01 -1.506329754720e+00 0.0 
4.250588298353e+01 -1.067383247529e+01 0.0 
5.831497011152e+00 -1.635396227234e+00 0.0 
5.317606125670e+00 -1.923927974868e+01 0.0 
4.208546426993e+01 -1.842830665025e+01 0.0 
2.327553405011e+00 -9.459409929662e+00 0.0 
3.568351902251e+01 -1.096637218582e+01 0.0 
1.682104374890e+00 -6.231413350963e+00 0.0 
2.451812238018e+01 -1.766524914339e+01 0.0 
1.058003429638e+01 -2.391839617098e+00 0.0 
4.399988753123e+01 -1.851998776342e+01 0.0 
1.400000000010e+01 -1.852293523028e+01 0.0 
3.604719565984e+01 -1.850662876800e+01 0.0 
1.951297136734e+01 -1.938092349694e+01 0.0 
1.821365318472e+01 -1.531276353287e+00 0.0 
2.298031859732e+01 -1.854635324722e+01 0.0 
1.552168066204e+01 -1.764280741977e+01 0.0 
4.572957713638e+01 -1.073347898229e+01 0.0 
3.429637429624e+01 -1.838861552790e+01 0.0 
2.427434426052e+00 -7.705577451869e+00 0.0 
4.662792031485e+00 -3.359424455416e+00 0.0 
4.926794919243e+01 -1.926794919243e+01 0.0 
7.320508075690e-01 -7.320508075688e-01 0.0 
4.926794919243e+01 -1.073205080757e+01 0.0 
7.320508075705e-01 -1.926794919243e+01 0.0 
2.917460242467e+00 -3.202866455310e+00 0.0 
4.838200575963e+01 -1.232674147454e+01 0.0 
2.998445708009e+01 -1.854403752148e+01 0.0 
5.949940090766e-01 -1.152762038165e+01 0.0 
4.844763495759e+01 -1.678092548787e+01 0.0 
1.301685480160e+01 -3.170056592566e+00 0.0 
1.650046335855e+01 -6.731535384067e-01 0.0 
4.854881540991e+01 -1.405224059779e+01 0.0 
2.119545114693e+01 -1.846813384545e+01 0.0 
3.797852849897e+01 -1.857978513215e+01 0.0 
4.649823708745e+01 -1.338351810816e+01 0.0 
2.012685900976e+01 -2.889659035009e+00 0.0 
2.953271913273e+01 -1.791558075192e+01 0.0 
2.408509097292e+00 -1.021949208421e+01 0.0 
2.642589566221e+01 -1.773216561448e+01 0.0 
1.730010270775e+01 -1.763165076721e+01 0.0 
2.017406551304e+01 -8.513536440582e-01 0.0 
5.254761581934e-01 -1.249999999999e+01 0.0 
6.640448215642e+00 -1.545337834885e+00 0.0 
7.843361506349e+00 -1.852719839527e+01 0.0 
1.588442191088e+00 -1.066158564320e+01 0.0 
2.880770112393e+01 -5.415638864241e+00 0.0 
4.951086956522e+01 -5.500000000000e+00 0.0 
3.031250000000e+01 -6.420918367347e+00 0.0 
4.951250000000e+01 -6.500000000000e+00 0.0 
3.180701530612e+01 -7.414795918363e+00 0.0 
4.951250000000e+01 -7.500000000000e+00 0.0 
3.331250000000e+01 -8.420918367347e+00 0.0 
4.951470588234e+01 -8.500000000000e+00 0.0 
3.480610198624e+01 -9.413633635267e+00 0.0 
4.951470588234e+01 -9.500000000000e+00 0.0 

CELLS 2134 8536 
3 278 748 1024 
3 748 278 1026 
3 758 251 769 
3 871 636 1060 
3 638 698 864 
3 728 641 767 
3 258 680 682 
3 278 705 1026 
3 680 258 698 
3 631 866 1060 
3 250 825 826 
3 705 278 1040 
3 870 1022 1066 
3 687 818 908 
3 1022 284 1066 
3 277 871 1060 
3 686 257 827 
3 641 728 766 
3 265 685 1007 
3 685 265 945 
3 866 631 1019 
3 996 242 1002 
3 723 996 1002 
3 673 672 882 
3 372 528 817 
3 825 250 934 
3 110 82 1087 
3 717 243 959 
3 370 372 817 
3 882 672 1092 
3 622 832 834 
3 275 688 865 
3 758 769 1067 
3 19 263 738 
3 273 692 694 
3 701 66 1058 
3 66 701 1084 
3 720 269 764 
3 684 101 1037 
3 101 684 1098 
3 960 702 986 
3 238 724 863 
3 1041 239 1045 
3 82 287 1087 
3 679 286 1036 
3 718 1041 1045 
3 832 622 835 
3 286 679 1062 
3 828 829 835 
3 818 687 1059 
3 280 723 960 
3 670 685 945 
3 448 1061 1079 
3 280 960 986 
3 770 252 950 
3 1043 615 1088 
3 670 945 1014 
3 263 708 738 
3 531 859 977 
3 866 277 1060 
3 237 1071 1112 
3 1051 677 1053 
3 497 525 731 
3 1061 834 1079 
3 842 661 1066 
3 723 280 996 
3 1071 681 1112 
3 251 758 1031 
3 558 519 840 
3 247 706 772 
3 934 877 988 
3 33 32 726 
3 717 959 1089 
3 4 5 852 
3 849 1043 1088 
3 689 254 940 
3 770 950 1099 
3 737 1042 1049 
3 859 531 1101 
3 1042 279 1049 
3 519 532 840 
3 257 686 1047 
3 242 748 1002 
3 748 242 1024 
3 698 638 910 
3 680 698 910 
3 709 934 1039 
3 18 19 738 
3 763 760 1008 
3 638 864 1047 
3 865 688 1038 
3 289 816 1087 
3 862 1033 1057 
3 1057 1033 1069 
3 255 33 726 
3 764 269 1094 
3 686 827 1059 
3 863 724 1072 
3 283 715 1012 
3 731 525 732 
3 864 698 1082 
3 284 842 1066 
3 445 1011 1035 
3 676 1051 1053 
3 566 564 742 
3 829 832 835 
3 869 870 992 
3 635 862 1057 
3 237 828 835 
3 965 260 1084 
3 410 763 1008 
3 4 852 1103 
3 633 729 765 
3 600 916 954 
3 644 846 1070 
3 704 731 732 
3 499 497 731 
3 273 694 1052 
3 715 283 1107 
3 703 499 731 
3 734 664 1009 
3 287 289 1087 
3 862 635 1110 
3 499 703 742 
3 1054 953 1068 
3 719 969 978 
3 846 644 1100 
3 969 244 978 
3 254 689 1080 
3 666 1054 1068 
3 825 934 988 
3 636 871 1062 
3 573 630 730 
3 244 702 978 
3 692 273 1072 
3 870 627 1022 
3 709 877 934 
3 730 630 930 
3 674 802 1092 
3 606 722 730 
3 656 867 868 
3 706 247 1078 
3 908 818 1055 
3 515 487 736 
3 722 573 730 
3 702 244 986 
3 630 768 930 
3 742 568 937 
3 258 682 1037 
3 729 364 765 
3 688 275 1076 
3 1023 1029 1107 
3 853 265 1007 
3 281 719 954 
3 802 674 811 
3 703 566 742 
3 738 709 1039 
3 705 239 1041 
3 1011 671 1035 
3 264 710 711 
3 725 364 729 
3 708 263 992 
3 558 734 1009 
3 870 629 992 
3 745 618 773 
3 260 965 1074 
3 1023 628 1029 
3 564 568 742 
3 916 281 954 
3 250 826 1123 
3 239 705 1040 
3 364 725 739 
3 487 538 736 
3 710 264 1098 
3 568 729 937 
3 719 281 969 
3 612 801 1006 
3 846 547 1070 
3 243 717 1032 
3 772 706 1056 
3 704 732 1026 
3 547 846 1086 
3 789 919 973 
3 722 606 960 
3 705 704 1026 
3 745 600 954 
3 729 633 937 
3 253 866 1019 
3 376 785 995 
3 263 869 992 
3 718 279 1042 
3 574 739 963 
3 760 785 1008 
3 81 111 727 
3 606 702 960 
3 962 634 966 
3 858 990 1083 
3 873 266 1099 
3 371 296 778 
3 993 352 1020 
3 482 962 966 
3 816 289 1065 
3 817 528 1055 
3 672 674 1092 
3 1003 894 1030 
3 740 311 768 
3 570 460 773 
3 377 371 778 
3 567 745 773 
3 618 745 954 
3 516 976 1016 
3 801 650 1006 
3 727 261 728 
3 732 748 1026 
3 732 525 747 
3 630 740 768 
3 785 755 995 
3 641 640 946 
3 634 733 952 
3 684 710 1098 
3 739 725 963 
3 430 952 1001 
3 690 900 1124 
3 776 377 778 
3 900 246 1124 
3 858 859 990 
3 279 718 1045 
3 1003 646 1004 
3 750 377 776 
3 646 645 1004 
3 626 735 741 
3 452 833 905 
3 664 841 1009 
3 919 482 973 
3 618 570 773 
3 661 842 1074 
3 111 261 727 
3 535 565 741 
3 325 364 739 
3 723 722 960 
3 733 634 962 
3 701 965 1084 
3 987 376 995 
3 434 416 771 
3 482 966 973 
3 934 250 1039 
3 768 378 930 
3 777 778 974 
3 677 1051 1096 
3 325 739 746 
3 565 626 741 
3 295 567 743 
3 726 32 1080 
3 311 740 915 
3 784 327 923 
3 711 710 712 
3 840 532 1044 
3 567 744 745 
3 534 434 771 
3 640 774 875 
3 622 834 1061 
3 377 750 912 
3 460 743 773 
3 499 742 937 
3 750 589 912 
3 785 376 1008 
3 378 749 891 
3 245 699 1058 
3 575 784 923 
3 303 569 749 
3 633 765 896 
3 575 783 784 
3 417 433 774 
3 815 256 816 
3 329 326 746 
3 446 797 798 
3 777 987 995 
3 111 112 261 
3 567 293 744 
3 416 414 771 
3 490 535 741 
3 419 417 774 
3 298 295 743 
3 688 734 1038 
3 526 616 747 
3 575 782 783 
3 743 567 773 
3 815 816 817 
3 536 641 766 
3 446 798 800 
3 447 450 797 
3 732 747 748 
3 777 974 987 
3 525 526 747 
3 412 329 746 
3 739 574 746 
3 536 640 641 
3 765 321 896 
3 665 735 737 
3 37 252 770 
3 39 266 769 
3 312 311 915 
3 433 416 434 
3 489 490 548 
3 304 303 749 
3 433 434 489 
3 446 447 797 
3 378 891 930 
3 867 656 1085 
3 771 574 963 
3 976 632 1016 
3 665 548 735 
3 270 57 790 
3 489 434 490 
3 309 378 768 
3 536 440 640 
3 812 505 920 
3 326 325 746 
3 450 794 797 
3 569 460 570 
3 42 791 792 
3 414 412 574 
3 575 403 782 
3 549 548 665 
3 780 465 903 
3 952 733 1001 
3 565 566 624 
3 639 780 903 
3 268 45 772 
3 542 634 952 
3 41 251 791 
3 908 528 938 
3 763 410 1028 
3 626 624 718 
3 571 570 603 
3 303 460 569 
3 303 301 460 
3 379 915 941 
3 243 47 775 
3 370 817 1065 
3 744 600 745 
3 574 412 746 
3 645 841 1004 
3 603 618 719 
3 565 564 566 
3 264 711 964 
3 450 793 794 
3 414 574 771 
3 754 776 777 
3 535 564 565 
3 569 570 571 
3 403 405 782 
3 578 805 892 
3 50 267 781 
3 606 604 702 
3 418 420 800 
3 659 993 1020 
3 625 704 705 
3 624 566 625 
3 760 757 785 
3 309 307 378 
3 616 722 723 
3 571 603 604 
3 54 269 786 
3 269 720 1046 
3 757 755 785 
3 777 776 778 
3 805 345 892 
3 497 498 525 
3 417 416 433 
3 415 414 416 
3 311 309 768 
3 592 812 920 
3 360 806 807 
3 753 751 754 
3 420 446 800 
3 494 379 495 
3 749 569 891 
3 496 495 497 
3 251 40 769 
3 266 38 770 
3 266 873 1067 
3 578 804 805 
3 589 491 912 
3 565 624 626 
3 413 412 414 
3 640 440 774 
3 526 573 616 
3 814 815 818 
3 780 908 938 
3 790 788 882 
3 761 760 763 
3 295 293 567 
3 302 301 303 
3 440 419 774 
3 837 839 840 
3 364 323 765 
3 317 315 379 
3 323 321 765 
3 234 953 1054 
3 711 712 713 
3 841 645 1009 
3 490 534 535 
3 57 56 790 
3 424 426 516 
3 288 600 744 
3 265 853 1075 
3 915 740 941 
3 325 323 364 
3 301 298 743 
3 247 43 792 
3 603 570 618 
3 307 304 749 
3 360 807 813 
3 751 750 776 
3 578 803 804 
3 44 247 772 
3 41 40 251 
3 37 36 252 
3 39 38 266 
3 300 298 301 
3 754 751 776 
3 759 757 760 
3 497 495 498 
3 525 498 526 
3 809 806 893 
3 753 754 755 
3 46 268 775 
3 668 589 750 
3 782 516 783 
3 668 750 751 
3 509 507 810 
3 317 379 494 
3 616 573 722 
3 489 548 549 
3 255 726 1050 
3 496 497 499 
3 890 609 959 
3 806 360 893 
3 451 454 793 
3 270 790 882 
3 535 563 564 
3 42 41 791 
3 266 770 1099 
3 308 307 309 
3 837 838 839 
3 44 43 247 
3 235 786 787 
3 450 451 793 
3 405 424 782 
3 241 51 781 
3 119 236 838 
3 494 495 496 
3 306 304 307 
3 310 309 311 
3 378 307 749 
3 548 490 741 
3 46 45 268 
3 411 329 412 
3 537 536 766 
3 699 245 1125 
3 838 236 839 
3 605 604 606 
3 832 833 834 
3 719 618 954 
3 235 55 786 
3 48 47 243 
3 460 301 743 
3 829 831 832 
3 678 537 766 
3 832 831 833 
3 922 620 935 
3 814 256 815 
3 290 288 744 
3 50 49 267 
3 272 814 818 
3 252 36 779 
3 512 509 810 
3 639 687 780 
3 625 703 704 
3 424 516 782 
3 640 875 946 
3 52 51 241 
3 40 39 769 
3 38 37 770 
3 578 386 803 
3 381 383 809 
3 317 494 896 
3 386 388 803 
3 54 53 269 
3 490 434 534 
3 797 796 798 
3 794 795 796 
3 529 639 903 
3 58 270 802 
3 829 830 831 
3 56 55 235 
3 793 658 794 
3 43 42 792 
3 759 760 761 
3 118 119 838 
3 494 633 896 
3 588 491 589 
3 45 44 772 
3 300 301 302 
3 555 512 556 
3 549 665 666 
3 788 787 789 
3 550 657 658 
3 794 658 795 
3 828 271 829 
3 47 46 775 
3 774 433 875 
3 542 590 634 
3 639 686 687 
3 876 608 895 
3 794 796 797 
3 302 303 304 
3 51 50 781 
3 383 485 809 
3 394 430 500 
3 314 312 315 
3 653 546 654 
3 798 796 799 
3 803 500 804 
3 315 312 915 
3 651 508 925 
3 424 425 426 
3 316 315 317 
3 353 355 813 
3 535 534 563 
3 381 809 893 
3 556 512 810 
3 380 403 575 
3 56 235 790 
3 667 589 668 
3 551 876 895 
3 55 54 786 
3 235 787 788 
3 322 321 323 
3 829 271 830 
3 59 802 811 
3 752 751 753 
3 454 550 793 
3 58 57 270 
3 388 394 803 
3 526 572 573 
3 293 290 744 
3 380 575 923 
3 384 578 892 
3 546 505 812 
3 778 296 974 
3 605 730 930 
3 426 444 445 
3 713 712 714 
3 355 360 813 
3 405 407 424 
3 550 607 657 
3 577 399 878 
3 117 118 836 
3 564 563 568 
3 550 658 793 
3 806 648 807 
3 320 318 321 
3 394 500 803 
3 529 637 639 
3 454 517 550 
3 59 58 802 
3 306 307 308 
3 576 647 648 
3 308 309 310 
3 576 648 806 
3 836 118 838 
3 292 290 293 
3 845 844 846 
3 246 124 860 
3 485 540 576 
3 394 429 430 
3 874 544 899 
3 654 812 956 
3 654 546 812 
3 288 248 600 
3 272 108 814 
3 669 779 972 
3 310 311 312 
3 124 125 860 
3 664 584 841 
3 830 836 837 
3 646 1003 1030 
3 562 612 1006 
3 642 874 899 
3 439 922 935 
3 363 361 872 
3 401 399 577 
3 542 553 590 
3 459 440 536 
3 276 844 845 
3 249 848 849 
3 238 60 811 
3 60 59 811 
3 844 843 847 
3 576 540 647 
3 384 386 578 
3 590 672 673 
3 584 503 841 
3 437 522 542 
3 858 856 859 
3 485 576 809 
3 807 648 808 
3 262 855 856 
3 276 843 844 
3 588 589 667 
3 125 126 857 
3 109 256 814 
3 109 110 256 
3 505 409 920 
3 249 10 848 
3 550 517 607 
3 735 548 741 
3 695 693 696 
3 775 268 890 
3 579 473 906 
3 625 566 703 
3 688 664 734 
3 571 604 605 
3 105 257 864 
3 104 105 864 
3 125 857 860 
3 857 856 858 
3 851 853 854 
3 427 368 502 
3 262 850 855 
3 843 240 847 
3 237 115 828 
3 368 363 872 
3 716 714 736 
3 107 108 272 
3 612 707 801 
3 388 393 394 
3 713 714 715 
3 10 11 848 
3 851 854 855 
3 30 29 867 
3 254 30 867 
3 639 637 686 
3 257 106 827 
3 848 845 849 
3 28 253 868 
3 502 368 872 
3 108 109 814 
3 107 272 827 
3 603 719 978 
3 36 35 779 
3 867 29 868 
3 262 856 857 
3 126 262 857 
3 663 584 664 
3 807 808 944 
3 869 627 870 
3 114 115 237 
3 274 861 862 
3 116 271 828 
3 545 505 546 
3 116 117 271 
3 115 116 828 
3 652 546 653 
3 598 661 662 
3 715 714 716 
3 891 605 930 
3 850 851 855 
3 400 401 880 
3 25 24 871 
3 277 25 871 
3 106 107 827 
3 481 409 505 
3 29 28 868 
3 555 556 671 
3 851 852 853 
3 850 285 851 
3 851 285 852 
3 11 12 276 
3 284 69 842 
3 80 79 286 
3 128 285 850 
3 13 240 843 
3 70 69 284 
3 68 260 842 
3 61 238 863 
3 76 259 861 
3 78 77 274 
3 69 68 842 
3 68 67 260 
3 274 77 861 
3 128 129 285 
3 102 103 258 
3 105 106 257 
3 262 127 850 
3 65 64 245 
3 273 62 863 
3 63 62 273 
3 127 128 850 
3 126 127 262 
3 61 60 238 
3 62 61 863 
3 76 75 259 
3 99 100 264 
3 77 76 861 
3 74 73 283 
3 97 98 628 
3 123 124 246 
3 121 122 275 
3 120 121 865 
3 119 120 236 
3 13 14 240 
3 12 13 843 
3 121 275 865 
3 16 17 250 
3 236 120 865 
3 34 33 255 
3 28 27 253 
3 31 30 254 
3 6 7 265 
3 9 10 249 
3 27 26 866 
3 19 20 263 
3 26 25 277 
3 20 21 869 
3 21 22 627 
3 276 12 843 
3 253 27 866 
3 26 277 866 
3 263 20 869 
3 21 627 869 
3 492 493 877 
3 271 117 836 
3 383 484 485 
3 857 858 860 
3 695 696 697 
3 576 806 809 
3 458 442 879 
3 427 502 503 
3 990 691 1083 
3 598 662 879 
3 485 486 540 
3 276 845 848 
3 442 504 879 
3 635 636 679 
3 11 276 848 
3 430 429 437 
3 392 390 443 
3 492 441 493 
3 560 492 877 
3 411 412 413 
3 605 606 730 
3 321 318 896 
3 400 399 401 
3 504 597 598 
3 708 560 709 
3 551 645 646 
3 623 544 631 
3 539 488 544 
3 684 683 710 
3 398 396 399 
3 441 400 880 
3 635 623 636 
3 539 623 635 
3 443 390 902 
3 598 629 661 
3 501 473 579 
3 708 709 738 
3 699 697 700 
3 631 544 874 
3 478 476 479 
3 394 393 429 
3 438 520 521 
3 457 543 551 
3 663 664 688 
3 830 271 836 
3 539 544 623 
3 598 597 629 
3 837 836 838 
3 756 755 757 
3 682 582 683 
3 428 442 458 
3 504 560 597 
3 607 608 659 
3 597 560 708 
3 682 683 684 
3 424 407 425 
3 699 700 701 
3 670 552 685 
3 694 693 695 
3 487 479 488 
3 521 552 615 
3 551 646 876 
3 823 821 824 
3 475 477 581 
3 362 366 381 
3 538 488 539 
3 478 487 515 
3 647 540 819 
3 709 560 877 
3 504 492 560 
3 487 488 538 
3 480 432 518 
3 540 486 541 
3 513 599 675 
3 479 886 899 
3 485 484 486 
3 392 443 878 
3 692 620 693 
3 478 479 487 
3 621 537 678 
3 595 690 691 
3 421 419 440 
3 504 598 879 
3 477 476 478 
3 825 823 826 
3 581 582 680 
3 542 522 553 
3 819 541 820 
3 442 492 504 
3 521 520 552 
3 695 697 699 
3 540 541 819 
3 615 552 670 
3 541 486 888 
3 381 382 383 
3 367 363 368 
3 822 823 825 
3 123 246 900 
3 275 122 900 
3 493 441 880 
3 438 480 520 
3 398 399 400 
3 399 396 878 
3 355 359 360 
3 454 455 517 
3 501 579 580 
3 767 641 1117 
3 383 483 484 
3 590 553 672 
3 520 480 531 
3 581 477 582 
3 680 582 682 
3 583 503 584 
3 619 586 620 
3 472 470 473 
3 438 432 480 
3 655 579 924 
3 580 579 655 
3 375 432 438 
3 704 703 731 
3 369 368 427 
3 442 441 492 
3 820 821 822 
3 668 751 752 
3 501 580 642 
3 428 400 441 
3 398 400 428 
3 427 503 583 
3 428 441 442 
3 472 473 474 
3 822 821 823 
3 475 476 477 
3 474 473 501 
3 327 328 923 
3 886 642 899 
3 486 547 888 
3 820 541 821 
3 483 382 643 
3 357 354 358 
3 475 474 476 
3 349 351 384 
3 367 369 375 
3 595 584 663 
3 472 474 475 
3 367 368 369 
3 692 693 694 
3 479 476 886 
3 428 458 881 
3 235 788 790 
3 486 484 547 
3 375 369 432 
3 583 584 595 
3 397 396 398 
3 478 515 885 
3 595 663 690 
3 381 366 382 
3 685 552 883 
3 475 581 884 
3 383 382 483 
3 396 392 878 
3 483 643 644 
3 544 488 899 
3 366 363 367 
3 391 395 439 
3 551 543 645 
3 395 392 396 
3 824 821 888 
3 397 398 881 
3 798 799 980 
3 552 520 883 
3 683 582 885 
3 545 546 652 
3 495 379 941 
3 477 478 885 
3 457 551 895 
3 469 471 529 
3 520 531 883 
3 696 693 922 
3 481 505 545 
3 426 425 444 
3 580 655 656 
3 384 385 386 
3 518 432 889 
3 389 387 390 
3 619 620 692 
3 607 517 608 
3 398 428 881 
3 476 474 886 
3 451 453 454 
3 391 390 392 
3 637 530 638 
3 521 615 921 
3 362 363 366 
3 314 315 316 
3 395 396 397 
3 526 498 572 
3 316 317 318 
3 471 470 472 
3 582 477 885 
3 529 530 637 
3 821 541 888 
3 559 461 586 
3 386 387 388 
3 581 680 910 
3 758 757 759 
3 445 444 513 
3 391 392 395 
3 474 501 886 
3 355 357 359 
3 359 361 362 
3 427 583 889 
3 388 389 393 
3 362 381 893 
3 471 472 884 
3 529 471 530 
3 331 333 380 
3 872 361 894 
3 413 414 415 
3 362 361 363 
3 359 357 361 
3 369 427 889 
3 437 461 522 
3 350 348 352 
3 501 642 886 
3 346 348 349 
3 388 387 389 
3 384 351 385 
3 320 321 322 
3 432 369 889 
3 559 586 619 
3 559 619 724 
3 506 508 651 
3 355 354 357 
3 386 385 387 
3 472 475 884 
3 360 359 893 
3 494 496 633 
3 366 367 887 
3 517 455 895 
3 353 354 355 
3 367 375 887 
3 438 521 913 
3 385 351 585 
3 389 390 391 
3 524 561 562 
3 122 123 900 
3 342 340 343 
3 346 344 347 
3 353 352 354 
3 530 471 884 
3 349 350 351 
3 382 366 887 
3 350 352 353 
3 488 479 899 
3 643 382 887 
3 595 691 909 
3 889 583 909 
3 608 517 895 
3 357 358 894 
3 342 344 345 
3 349 348 350 
3 457 519 543 
3 518 889 909 
3 780 687 908 
3 887 375 913 
3 437 429 461 
3 510 523 524 
3 294 293 295 
3 533 467 554 
3 562 611 612 
3 328 331 923 
3 508 510 925 
3 455 456 457 
3 353 813 897 
3 324 323 325 
3 447 449 450 
3 519 456 532 
3 359 362 893 
3 346 347 348 
3 345 344 346 
3 643 887 913 
3 349 384 892 
3 342 343 344 
3 338 340 341 
3 361 357 894 
3 408 406 409 
3 469 470 471 
3 338 336 339 
3 522 461 559 
3 454 453 455 
3 672 553 674 
3 345 346 892 
3 612 706 707 
3 305 304 306 
3 455 457 895 
3 297 295 298 
3 587 491 588 
3 345 805 928 
3 568 725 729 
3 299 298 300 
3 379 315 915 
3 457 456 519 
3 689 660 726 
3 543 519 558 
3 720 614 721 
3 874 642 917 
3 431 409 481 
3 884 581 910 
3 468 467 533 
3 341 340 342 
3 380 402 403 
3 617 554 660 
3 391 439 898 
3 466 468 469 
3 545 652 733 
3 455 453 456 
3 466 464 467 
3 775 890 959 
3 559 724 911 
3 350 353 897 
3 530 884 910 
3 638 530 910 
3 346 349 892 
3 393 389 898 
3 429 393 901 
3 583 595 909 
3 415 416 417 
3 334 336 337 
3 338 339 340 
3 318 317 896 
3 617 660 689 
3 753 755 756 
3 642 580 917 
3 573 572 630 
3 463 435 491 
3 389 391 898 
3 655 924 940 
3 436 464 465 
3 351 350 897 
3 334 332 335 
3 466 467 468 
3 533 554 617 
3 473 470 906 
3 469 468 470 
3 620 586 935 
3 613 527 614 
3 586 461 901 
3 390 387 902 
3 702 604 978 
3 408 431 462 
3 373 371 377 
3 375 438 913 
3 337 336 338 
3 654 956 968 
3 403 404 405 
3 420 422 446 
3 334 335 336 
3 405 406 407 
3 571 605 891 
3 585 351 897 
3 465 780 938 
3 698 258 1082 
3 84 225 234 
3 387 385 902 
3 431 481 482 
3 752 753 873 
3 380 333 402 
3 385 585 902 
3 469 529 903 
3 85 226 279 
3 408 409 431 
3 404 402 592 
3 569 571 891 
3 393 898 901 
3 450 449 451 
3 461 429 901 
3 553 522 911 
3 407 406 408 
3 470 468 906 
3 514 512 555 
3 522 559 911 
3 86 227 239 
3 465 466 903 
3 675 599 676 
3 468 533 906 
3 405 404 406 
3 333 332 334 
3 975 647 979 
3 459 536 537 
3 579 906 924 
3 913 521 921 
3 87 228 278 
3 511 509 512 
3 580 656 917 
3 451 452 453 
3 313 312 314 
3 465 464 466 
3 944 808 949 
3 446 422 447 
3 568 563 725 
3 532 456 905 
3 451 449 452 
3 453 452 905 
3 403 402 404 
3 779 35 972 
3 88 229 242 
3 693 620 922 
3 330 329 411 
3 374 436 938 
3 421 440 459 
3 674 553 911 
3 456 453 905 
3 644 643 921 
3 425 407 904 
3 342 345 928 
3 513 527 599 
3 496 499 937 
3 373 377 912 
3 613 614 720 
3 466 469 903 
3 753 756 873 
3 464 463 927 
3 463 491 587 
3 433 489 875 
3 696 922 942 
3 436 463 464 
3 327 784 948 
3 89 230 280 
3 613 720 764 
3 418 417 419 
3 643 913 921 
3 513 444 527 
3 265 7 945 
3 319 318 320 
3 408 462 904 
3 587 588 907 
3 588 667 669 
3 407 408 904 
3 554 467 927 
3 328 326 329 
3 510 524 925 
3 90 231 244 
3 759 761 762 
3 91 232 281 
3 233 91 916 
3 331 380 923 
3 82 233 248 
3 601 356 602 
3 322 323 324 
3 334 337 914 
3 447 422 448 
3 331 332 333 
3 533 617 924 
3 756 757 758 
3 439 395 942 
3 599 527 613 
3 341 342 928 
3 463 587 927 
3 333 334 914 
3 697 696 951 
3 467 464 927 
3 491 435 912 
3 409 406 920 
3 328 330 331 
3 524 523 561 
3 302 304 305 
3 447 448 449 
3 418 419 420 
3 633 496 937 
3 310 312 313 
3 700 697 955 
3 436 435 463 
3 331 330 332 
3 506 651 931 
3 462 431 919 
3 906 533 924 
3 562 561 611 
3 528 374 938 
3 634 590 966 
3 402 333 914 
3 431 482 919 
3 316 318 319 
3 660 554 943 
3 612 611 706 
3 404 592 920 
3 420 419 421 
3 514 555 557 
3 319 356 594 
3 328 329 330 
3 406 404 920 
3 437 542 952 
3 420 421 422 
3 592 402 914 
3 297 298 299 
3 700 955 961 
3 299 300 410 
3 511 512 514 
3 294 295 297 
3 291 290 292 
3 305 306 365 
3 614 527 929 
3 922 439 942 
3 374 435 436 
3 588 669 907 
3 292 293 294 
3 411 413 591 
3 514 557 610 
3 924 617 940 
3 320 322 918 
3 319 320 356 
3 330 411 926 
3 435 373 912 
3 572 498 941 
3 601 602 632 
3 498 495 941 
3 444 425 929 
3 610 677 717 
3 335 332 926 
3 459 537 593 
3 667 668 950 
3 630 572 740 
3 968 341 981 
3 610 557 677 
3 374 373 435 
3 898 439 935 
3 324 325 326 
3 593 537 621 
3 961 662 965 
3 313 314 423 
3 426 445 976 
3 561 523 609 
3 621 678 681 
3 901 898 935 
3 534 771 963 
3 372 374 528 
3 443 949 970 
3 332 330 926 
3 697 951 955 
3 594 356 601 
3 411 591 926 
3 313 423 506 
3 593 621 622 
3 508 509 510 
3 425 904 929 
3 707 706 1078 
3 510 511 523 
3 418 800 947 
3 395 397 942 
3 617 689 940 
3 764 241 982 
3 527 444 929 
3 327 326 328 
3 506 507 508 
3 879 662 961 
3 823 824 958 
3 510 509 511 
3 436 465 938 
3 696 942 951 
3 586 901 935 
3 99 264 964 
3 628 98 964 
3 297 299 376 
3 508 507 509 
3 577 878 970 
3 305 365 596 
3 602 356 918 
3 789 973 1097 
3 324 326 327 
3 34 255 972 
3 289 288 290 
3 356 320 918 
3 443 902 949 
3 415 417 418 
3 585 897 944 
3 506 423 507 
3 308 310 931 
3 372 373 374 
3 596 365 649 
3 596 649 650 
3 854 853 1007 
3 897 813 944 
3 740 572 941 
3 300 302 932 
3 410 300 932 
3 721 614 957 
3 7 8 945 
3 448 422 936 
3 314 316 933 
3 813 807 944 
3 91 281 916 
3 248 233 916 
3 372 371 373 
3 489 549 875 
3 949 808 970 
3 482 481 962 
3 422 421 936 
3 243 775 959 
3 927 587 943 
3 648 647 975 
3 942 397 951 
3 859 856 977 
3 545 733 962 
3 423 314 933 
3 855 854 977 
3 554 927 943 
3 421 459 936 
3 302 305 932 
3 310 313 931 
3 338 341 968 
3 804 500 997 
3 587 907 943 
3 500 430 1001 
3 319 594 933 
3 316 319 933 
3 225 83 953 
3 459 593 936 
3 511 514 939 
3 291 292 296 
3 514 610 939 
3 563 534 963 
3 755 754 995 
3 609 523 939 
3 600 248 916 
3 523 511 939 
3 397 881 951 
3 810 507 967 
3 585 944 949 
3 902 585 949 
3 668 752 950 
3 805 804 994 
3 313 506 931 
3 784 783 1000 
3 430 437 952 
3 918 322 948 
3 947 800 980 
3 812 592 956 
3 591 413 947 
3 305 596 932 
3 591 947 980 
3 365 306 971 
3 614 929 957 
3 929 904 957 
3 322 324 948 
3 370 371 372 
3 951 881 955 
3 881 458 955 
3 549 666 946 
3 365 971 989 
3 700 961 965 
3 616 723 1002 
3 577 975 979 
3 234 225 953 
3 955 458 961 
3 415 418 947 
3 826 823 958 
3 976 445 1035 
3 370 296 371 
3 291 296 370 
3 423 933 967 
3 90 244 969 
3 281 232 969 
3 458 879 961 
3 997 500 1001 
3 654 968 981 
3 481 545 962 
3 914 337 956 
3 413 415 947 
3 232 90 969 
3 289 290 291 
3 98 99 964 
3 904 462 957 
3 324 327 948 
3 613 764 982 
3 597 708 992 
3 592 914 956 
3 701 700 965 
3 980 799 984 
3 676 599 982 
3 933 594 967 
3 556 810 991 
3 590 673 966 
3 354 352 993 
3 931 651 971 
3 956 337 968 
3 308 931 971 
3 725 563 963 
3 671 556 999 
3 337 338 968 
3 878 443 970 
3 306 308 971 
3 1068 282 1081 
3 783 516 1016 
3 737 234 1054 
3 518 909 990 
3 577 970 975 
3 524 562 998 
3 296 292 974 
3 89 280 986 
3 35 34 972 
3 83 224 282 
3 244 231 986 
3 653 654 981 
3 647 819 979 
3 604 603 978 
3 1010 795 1013 
3 994 804 997 
3 507 423 967 
3 516 426 976 
3 761 1063 1073 
3 875 549 946 
3 808 648 975 
3 979 819 983 
3 872 894 1003 
3 287 248 288 
3 292 294 974 
3 18 738 1039 
3 856 855 977 
3 681 678 1025 
3 841 503 1004 
3 819 820 983 
3 335 984 1005 
3 796 795 1010 
3 800 798 980 
3 401 577 979 
3 297 376 987 
3 983 820 985 
3 335 926 984 
3 971 651 989 
3 687 686 1059 
3 445 513 1011 
3 820 822 985 
3 401 979 983 
3 88 242 996 
3 339 336 1005 
3 985 822 988 
3 259 75 1012 
3 74 283 1012 
3 280 230 996 
3 880 401 983 
3 658 657 1015 
3 737 735 1042 
3 599 613 982 
3 645 543 1009 
3 1015 657 1017 
3 1000 783 1016 
3 231 89 986 
3 822 825 988 
3 9 249 1014 
3 287 288 289 
3 880 983 985 
3 341 928 981 
3 970 808 975 
3 728 767 1081 
3 1036 274 1110 
3 343 340 1013 
3 919 789 1034 
3 556 991 999 
3 493 880 985 
3 493 985 988 
3 984 799 1005 
3 558 840 1090 
3 767 1068 1081 
3 877 493 988 
3 966 673 973 
3 607 659 1018 
3 651 925 989 
3 748 747 1002 
3 649 365 989 
3 724 238 1077 
3 112 113 1025 
3 24 23 1021 
3 71 70 1022 
3 73 72 1023 
3 347 344 1017 
3 810 967 991 
3 926 591 984 
3 909 691 990 
3 83 282 953 
3 874 917 1019 
3 294 297 987 
3 82 248 287 
3 48 243 1032 
3 945 8 1014 
3 267 49 1032 
3 974 294 987 
3 352 348 1020 
3 967 594 991 
3 347 1017 1018 
3 626 718 1042 
3 1018 659 1020 
3 376 299 1008 
3 629 597 992 
3 343 1013 1015 
3 649 989 998 
3 1025 113 1112 
3 339 1005 1010 
3 754 777 995 
3 358 354 993 
3 659 608 1027 
3 594 601 991 
3 833 452 1079 
3 87 278 1024 
3 242 229 1024 
3 358 1027 1030 
3 653 981 994 
3 918 948 1000 
3 989 925 998 
3 758 759 1031 
3 230 88 996 
3 861 259 1033 
3 706 611 1056 
3 591 980 984 
3 234 737 1049 
3 747 616 1002 
3 928 805 994 
3 596 650 1028 
3 981 928 994 
3 641 946 1117 
3 652 653 997 
3 718 624 1041 
3 948 784 1000 
3 653 994 997 
3 991 601 999 
3 515 736 1116 
3 894 358 1030 
3 665 737 1054 
3 652 997 1001 
3 625 705 1041 
3 1025 678 1095 
3 286 79 1036 
3 78 274 1036 
3 839 236 1038 
3 733 652 1001 
3 502 1003 1004 
3 502 872 1003 
3 998 562 1006 
3 601 632 999 
3 925 524 998 
3 339 1010 1013 
3 101 102 1037 
3 273 863 1072 
3 503 502 1004 
3 462 919 1034 
3 602 918 1000 
3 685 883 1007 
3 410 932 1028 
3 336 335 1005 
3 837 840 1044 
3 799 796 1010 
3 17 18 1039 
3 299 410 1008 
3 543 558 1009 
3 826 958 1109 
3 650 649 1006 
3 513 675 1011 
3 993 659 1027 
3 1014 249 1088 
3 602 1000 1016 
3 75 74 1012 
3 831 830 1044 
3 890 268 1056 
3 769 266 1067 
3 283 1023 1107 
3 726 660 1050 
3 791 251 1031 
3 340 339 1013 
3 343 1015 1017 
3 787 786 1046 
3 261 112 1025 
3 8 9 1014 
3 826 1109 1123 
3 358 993 1027 
3 795 658 1015 
3 86 239 1040 
3 278 228 1040 
3 686 637 1047 
3 1005 799 1010 
3 921 615 1043 
3 555 671 1048 
3 245 64 1052 
3 63 273 1052 
3 344 343 1017 
3 272 818 1059 
3 681 1025 1112 
3 85 279 1045 
3 834 833 1079 
3 239 227 1045 
3 632 602 1016 
3 657 607 1018 
3 1013 795 1015 
3 835 622 1071 
3 679 1036 1110 
3 1017 657 1018 
3 631 874 1019 
3 539 635 1057 
3 871 24 1021 
3 70 284 1022 
3 283 73 1023 
3 347 1018 1020 
3 229 87 1024 
3 348 347 1020 
3 66 65 1058 
3 84 234 1049 
3 279 226 1049 
3 721 957 1034 
3 864 257 1047 
3 636 623 1060 
3 649 998 1006 
3 675 676 1053 
3 761 763 1063 
3 712 710 1064 
3 1027 876 1030 
3 608 876 1027 
3 1033 259 1113 
3 1048 675 1053 
3 256 110 1087 
3 628 964 1029 
3 711 713 1029 
3 710 683 1064 
3 593 622 1061 
3 876 646 1030 
3 656 868 1091 
3 885 515 1064 
3 241 764 1094 
3 759 762 1031 
3 932 596 1028 
3 943 907 1050 
3 547 484 1070 
3 483 644 1070 
3 724 619 1072 
3 237 835 1071 
3 670 1014 1088 
3 49 48 1032 
3 6 265 1075 
3 964 711 1029 
3 788 789 1097 
3 663 688 1076 
3 246 860 1083 
3 31 254 1080 
3 104 864 1082 
3 940 254 1085 
3 787 1046 1121 
3 258 103 1082 
3 261 1025 1095 
3 871 1021 1062 
3 518 990 1101 
3 656 655 1085 
3 67 66 1084 
3 756 758 1067 
3 448 936 1061 
3 818 815 1055 
3 846 844 1086 
3 671 1011 1048 
3 52 241 1094 
3 862 861 1033 
3 269 53 1094 
3 622 621 1071 
3 699 701 1058 
3 449 448 1079 
3 854 1007 1106 
3 270 882 1092 
3 779 669 1093 
3 689 726 1080 
3 682 684 1037 
3 289 291 1065 
3 735 626 1042 
3 791 1031 1108 
3 849 845 1100 
3 666 1068 1117 
3 1011 675 1048 
3 100 101 1098 
3 669 667 1093 
3 3 80 1102 
3 23 3 1102 
3 129 0 1103 
3 0 4 1103 
3 72 1 1104 
3 1 97 1104 
3 2 71 1105 
3 22 2 1105 
3 852 285 1103 
3 114 237 1112 
3 965 662 1074 
3 610 717 1089 
3 531 480 1101 
3 695 699 1125 
3 16 250 1123 
3 240 14 1109 
3 736 714 1116 
3 905 833 1111 
3 671 999 1035 
3 990 859 1101 
3 888 547 1119 
3 1031 762 1108 
3 79 78 1036 
3 958 240 1109 
3 713 715 1107 
3 609 890 1120 
3 1063 801 1073 
3 1028 650 1063 
3 102 258 1037 
3 632 976 1035 
3 950 752 1099 
3 615 670 1088 
3 236 865 1038 
3 561 609 1120 
3 957 462 1034 
3 833 831 1111 
3 716 1033 1113 
3 842 260 1074 
3 609 939 1089 
3 959 609 1089 
3 250 17 1039 
3 727 728 1081 
3 228 86 1040 
3 624 625 1041 
3 815 817 1055 
3 999 632 1035 
3 917 656 1091 
3 786 269 1046 
3 830 837 1044 
3 839 1038 1090 
3 227 85 1045 
3 736 538 1069 
3 644 921 1043 
3 907 669 1115 
3 1007 883 1106 
3 720 721 1046 
3 637 638 1047 
3 781 267 1051 
3 557 555 1048 
3 817 816 1065 
3 811 674 1077 
3 669 972 1115 
3 1021 286 1062 
3 226 84 1049 
3 660 943 1050 
3 268 772 1056 
3 1046 721 1121 
3 557 1048 1053 
3 64 63 1052 
3 763 1028 1063 
3 81 727 1122 
3 666 665 1054 
3 762 761 1073 
3 528 908 1055 
3 629 870 1066 
3 677 557 1053 
3 245 1052 1125 
3 538 539 1057 
3 241 781 1114 
3 911 724 1077 
3 674 911 1077 
3 1043 849 1100 
3 65 245 1058 
3 827 272 1059 
3 623 631 1060 
3 840 839 1090 
3 635 679 1110 
3 716 736 1069 
3 852 5 1075 
3 936 593 1061 
3 650 801 1063 
3 254 867 1085 
3 679 636 1062 
3 982 241 1114 
3 683 885 1064 
3 275 900 1076 
3 766 728 1095 
3 900 690 1076 
3 734 558 1090 
3 224 81 1122 
3 547 1086 1119 
3 661 629 1066 
3 873 756 1067 
3 291 370 1065 
3 484 483 1070 
3 619 692 1072 
3 673 882 1097 
3 1051 267 1096 
3 890 1056 1120 
3 801 707 1073 
3 1038 734 1090 
3 621 681 1071 
3 662 661 1074 
3 853 852 1075 
3 5 6 1075 
3 953 282 1068 
3 690 663 1076 
3 238 811 1077 
3 247 792 1078 
3 1019 917 1091 
3 267 1032 1096 
3 973 673 1097 
3 1064 515 1116 
3 32 31 1080 
3 452 449 1079 
3 103 104 1082 
3 831 1044 1111 
3 860 858 1083 
3 260 67 1084 
3 816 256 1087 
3 977 854 1106 
3 844 847 1086 
3 1078 792 1108 
3 655 940 1085 
3 252 779 1093 
3 249 849 1088 
3 678 766 1095 
3 1052 694 1125 
3 1021 23 1102 
3 71 1022 1105 
3 1023 72 1104 
3 882 788 1097 
3 531 977 1106 
3 1050 907 1115 
3 246 1083 1124 
3 802 270 1092 
3 950 252 1093 
3 728 261 1095 
3 939 610 1089 
3 538 1057 1069 
3 868 253 1091 
3 53 52 1094 
3 259 1012 1113 
3 792 791 1108 
3 667 950 1093 
3 1033 716 1069 
3 1078 1108 1118 
3 845 846 1100 
3 264 100 1098 
3 717 677 1096 
3 80 286 1102 
3 285 129 1103 
3 97 628 1104 
3 627 22 1105 
3 480 518 1101 
3 789 787 1121 
3 752 873 1099 
3 253 1019 1091 
3 883 531 1106 
3 1068 767 1117 
3 14 15 1109 
3 274 862 1110 
3 113 114 1112 
3 972 255 1115 
3 715 716 1113 
3 532 905 1111 
3 714 712 1116 
3 1032 717 1096 
3 1109 15 1123 
3 282 224 1122 
3 644 1043 1100 
3 824 888 1119 
3 15 16 1123 
3 676 982 1114 
3 847 240 1126 
3 958 824 1126 
3 691 690 1124 
3 694 695 1125 
3 611 561 1120 
3 946 666 1117 
3 286 1021 1102 
3 1022 627 1105 
3 628 1023 1104 
3 1012 715 1113 
3 1119 847 1126 
3 824 1119 1126 
3 240 958 1126 
3 721 1034 1121 
3 1044 532 1111 
3 1056 611 1120 
3 1029 713 1107 
3 255 1050 1115 
3 1034 789 1121 
3 712 1064 1116 
3 762 1073 1118 
3 1051 676 1114 
3 781 1051 1114 
3 1081 282 1122 
3 1073 707 1118 
3 707 1078 1118 
3 1083 691 1124 
3 1086 847 1119 
3 727 1081 1122 
3 1108 762 1118 
3 150 151 152 
3 150 152 153 
3 149 150 153 
3 149 153 154 
3 148 149 154 
3 155 148 154 
3 155 147 148 
3 155 156 147 
3 156 146 147 
3 156 157 146 
3 157 145 146 
3 157 158 145 
3 158 144 145 
3 158 159 144 
3 144 159 143 
3 159 160 143 
3 160 142 143 
3 131 88 1127 
3 160 161 142 
3 161 141 142 
3 171 88 131 
3 161 162 141 
3 162 140 141 
3 162 163 140 
3 140 163 139 
3 163 164 139 
3 130 131 1127 
3 139 164 138 
3 164 165 138 
3 138 165 137 
3 165 166 137 
3 137 166 136 
3 166 167 136 
3 136 167 135 
3 167 168 135 
3 135 168 134 
3 168 169 134 
3 88 229 1127 
3 169 170 133 
3 169 133 134 
3 170 171 132 
3 133 170 132 
3 132 171 131 
3 229 130 1127 
3 92 93 1128 
3 152 151 1128 
3 93 152 1128 
3 151 92 1128 
3 229 87 130 
3 189 190 152 
3 153 189 152 
3 188 189 153 
3 154 188 153 
3 187 188 154 
3 155 187 154 
3 186 187 155 
3 156 186 155 
3 185 186 156 
3 185 156 157 
3 184 185 157 
3 158 184 157 
3 183 184 158 
3 159 183 158 
3 182 183 159 
3 160 182 159 
3 89 170 1129 
3 181 182 160 
3 181 160 161 
3 170 171 1129 
3 181 161 180 
3 180 161 162 
3 170 89 172 
3 179 180 162 
3 179 162 163 
3 178 179 163 
3 178 163 164 
3 177 178 164 
3 165 177 164 
3 230 89 1129 
3 176 177 165 
3 176 165 166 
3 175 176 166 
3 175 166 167 
3 174 167 168 
3 174 175 167 
3 168 169 173 
3 174 168 173 
3 169 170 172 
3 169 172 173 
3 171 230 1129 
3 94 93 1130 
3 152 190 1130 
3 93 152 1130 
3 190 94 1130 
3 171 88 230 
3 189 190 191 
3 192 189 191 
3 188 189 192 
3 193 188 192 
3 187 188 193 
3 194 187 193 
3 186 187 194 
3 195 186 194 
3 185 186 195 
3 196 185 195 
3 184 185 196 
3 197 184 196 
3 183 184 197 
3 183 197 198 
3 182 183 198 
3 173 90 1131 
3 199 182 198 
3 90 173 207 
3 182 199 181 
3 199 200 181 
3 181 200 180 
3 200 201 180 
3 201 179 180 
3 179 201 202 
3 172 173 1131 
3 179 202 178 
3 202 203 178 
3 203 177 178 
3 203 204 177 
3 204 176 177 
3 205 176 204 
3 176 205 175 
3 175 205 206 
3 174 206 207 
3 174 175 206 
3 90 231 1131 
3 173 174 207 
3 231 172 1131 
3 94 95 1132 
3 191 190 1132 
3 95 191 1132 
3 190 94 1132 
3 89 172 231 
3 222 223 191 
3 192 222 191 
3 221 222 192 
3 193 221 192 
3 220 221 193 
3 194 220 193 
3 219 220 194 
3 195 219 194 
3 218 219 195 
3 196 218 195 
3 217 218 196 
3 197 217 196 
3 216 217 197 
3 91 206 1133 
3 216 197 198 
3 215 216 198 
3 206 207 1133 
3 199 215 198 
3 215 199 214 
3 206 91 208 
3 199 200 214 
3 200 213 214 
3 200 201 213 
3 201 212 213 
3 201 202 212 
3 232 91 1133 
3 202 211 212 
3 202 203 211 
3 203 204 210 
3 203 210 211 
3 204 205 209 
3 204 209 210 
3 205 206 208 
3 205 208 209 
3 207 232 1133 
3 96 95 1134 
3 191 223 1134 
3 95 191 1134 
3 223 96 1134 
3 90 232 207 
3 222 223 97 
3 222 97 98 
3 221 222 98 
3 221 98 99 
3 220 221 99 
3 220 99 100 
3 219 220 100 
3 219 100 101 
3 218 219 101 
3 218 101 102 
3 217 218 102 
3 217 102 103 
3 209 82 1135 
3 216 217 103 
3 110 82 209 
3 216 103 104 
3 215 216 104 
3 105 215 104 
3 214 215 105 
3 106 214 105 
3 213 214 106 
3 213 106 107 
3 208 209 1135 
3 213 107 212 
3 107 108 212 
3 108 211 212 
3 108 109 211 
3 109 110 210 
3 211 109 210 
3 210 110 209 
3 82 233 1135 
3 233 208 1135 
3 96 1 1136 
3 97 223 1136 
3 1 97 1136 
3 223 96 1136 
3 233 91 208 

CELL_TYPES 2134
5
5
5
5
5
5
5
5
5
5
5
5
5
5
5
5
5
5
5
5
5
5
5
5
5
5
5
5
5
5
5
5
5
5
5
5
5
5
5
5
5
5
5
5
5
5
5
5
5
5
5
5
5
5
5
5
5
5
5
5
5
5
5
5
5
5
5
5
5
5
5
5
5
5
5
5
5
5
5
5
5
5
5
5
5
5
5
5
5
5
5
5
5
5
5
5
5
5
5
5
5
5
5
5
5
5
5
5
5
5
5
5
5
5
5
5
5
5
5
5
5
5
5
5
5
5
5
5
5
5
5
5
5
5
5
5
5
5
5
5
5
5
5
5
5
5
5
5
5
5
5
5
5
5
5
5
5
5
5
5
5
5
5
5
5
5
5
5
5
5
5
5
5
5
5
5
5
5
5
5
5
5
5
5
5
5
5
5
5
5
5
5
5
5
5
5
5
5
5
5
5
5
5
5
5
5
5
5
5
5
5
5
5
5
5
5
5
5
5
5
5
5
5
5
5
5
5
5
5
5
5
5
5
5
5
5
5
5
5
5
5
5
5
5
5
5
5
5
5
5
5
5
5
5
5
5
5
5
5
5
5
5
5
5
5
5
5
5
5
5
5
5
5
5
5
5
5
5
5
5
5
5
5
5
5
5
5
5
5
5
5
5
5
5
5
5
5
5
5
5
5
5
5
5
5
5
5
5
5
5
5
5
5
5
5
5
5
5
5
5
5
5
5
5
5
5
5
5
5
5
5
5
5
5
5
5
5
5
5
5
5
5
5
5
5
5
5
5
5
5
5
5
5
5
5
5
5
5
5
5
5
5
5
5
5
5
5
5
5
5
5
5
5
5
5
5
5
5
5
5
5
5
5
5
5
5
5
5
5
5
5
5
5
5
5
5
5
5
5
5
5
5
5
5
5
5
5
5
5
5
5
5
5
5
5
5
5
5
5
5
5
5
5
5
5
5
5
5
5
5
5
5
5
5
5
5
5
5
5
5
5
5
5
5
5
5
5
5
5
5
5
5
5
5
5
5
5
5
5
5
5
5
5
5
5
5
5
5
5
5
5
5
5
5
5
5
5
5
5
5
5
5
5
5
5
5
5
5
5
5
5
5
5
5
5
5
5
5
5
5
5
5
5
5
5
5
5
5
5
5
5
5
5
5
5
5
5
5
5
5
5
5
5
5
5
5
5
5
5
5
5
5
5
5
5
5
5
5
5
5
5
5
5
5
5
5
5
5
5
5
5
5
5
5
5
5
5
5
5
5
5
5
5
5
5
5
5
5
5
5
5
5
5
5
5
5
5
5
5
5
5
5
5
5
5
5
5
5
5
5
5
5
5
5
5
5
5
5
5
5
5
5
5
5
5
5
5
5
5
5
5
5
5
5
5
5
5
5
5
5
5
5
5
5
5
5
5
5
5
5
5
5
5
5
5
5
5
5
5
5
5
5
5
5
5
5
5
5
5
5
5
5
5
5
5
5
5
5
5
5
5
5
5
5
5
5
5
5
5
5
5
5
5
5
5
5
5
5
5
5
5
5
5
5
5
5
5
5
5
5
5
5
5
5
5
5
5
5
5
5
5
5
5
5
5
5
5
5
5
5
5
5
5
5
5
5
5
5
5
5
5
5
5
5
5
5
5
5
5
5
5
5
5
5
5
5
5
5
5
5
5
5
5
5
5
5
5
5
5
5
5
5
5
5
5
5
5
5
5
5
5
5
5
5
5
5
5
5
5
5
5
5
5
5
5
5
5
5
5
5
5
5
5
5
5
5
5
5
5
5
5
5
5
5
5
5
5
5
5
5
5
5
5
5
5
5
5
5
5
5
5
5
5
5
5
5
5
5
5
5
5
5
5
5
5
5
5
5
5
5
5
5
5
5
5
5
5
5
5
5
5
5
5
5
5
5
5
5
5
5
5
5
5
5
5
5
5
5
5
5
5
5
5
5
5
5
5
5
5
5
5
5
5
5
5
5
5
5
5
5
5
5
5
5
5
5
5
5
5
5
5
5
5
5
5
5
5
5
5
5
5
5
5
5
5
5
5
5
5
5
5
5
5
5
5
5
5
5
5
5
5
5
5
5
5
5
5
5
5
5
5
5
5
5
5
5
5
5
5
5
5
5
5
5
5
5
5
5
5
5
5
5
5
5
5
5
5
5
5
5
5
5
5
5
5
5
5
5
5
5
5
5
5
5
5
5
5
5
5
5
5
5
5
5
5
5
5
5
5
5
5
5
5
5
5
5
5
5
5
5
5
5
5
5
5
5
5
5
5
5
5
5
5
5
5
5
5
5
5
5
5
5
5
5
5
5
5
5
5
5
5
5
5
5
5
5
5
5
5
5
5
5
5
5
5
5
5
5
5
5
5
5
5
5
5
5
5
5
5
5
5
5
5
5
5
5
5
5
5
5
5
5
5
5
5
5
5
5
5
5
5
5
5
5
5
5
5
5
5
5
5
5
5
5
5
5
5
5
5
5
5
5
5
5
5
5
5
5
5
5
5
5
5
5
5
5
5
5
5
5
5
5
5
5
5
5
5
5
5
5
5
5
5
5
5
5
5
5
5
5
5
5
5
5
5
5
5
5
5
5
5
5
5
5
5
5
5
5
5
5
5
5
5
5
5
5
5
5
5
5
5
5
5
5
5
5
5
5
5
5
5
5
5
5
5
5
5
5
5
5
5
5
5
5
5
5
5
5
5
5
5
5
5
5
5
5
5
5
5
5
5
5
5
5
5
5
5
5
5
5
5
5
5
5
5
5
5
5
5
5
5
5
5
5
5
5
5
5
5
5
5
5
5
5
5
5
5
5
5
5
5
5
5
5
5
5
5
5
5
5
5
5
5
5
5
5
5
5
5
5
5
5
5
5
5
5
5
5
5
5
5
5
5
5
5
5
5
5
5
5
5
5
5
5
5
5
5
5
5
5
5
5
5
5
5
5
5
5
5
5
5
5
5
5
5
5
5
5
5
5
5
5
5
5
5
5
5
5
5
5
5
5
5
5
5
5
5
5
5
5
5
5
5
5
5
5
5
5
5
5
5
5
5
5
5
5
5
5
5
5
5
5
5
5
5
5
5
5
5
5
5
5
5
5
5
5
5
5
5
5
5
5
5
5
5
5
5
5
5
5
5
5
5
5
5
5
5
5
5
5
5
5
5
5
5
5
5
5
5
5
5
5
5
5
5
5
5
5
5
5
5
5
5
5
5
5
5
5
5
5
5
5
5
5
5
5
5
5
5
5
5
5
5
5
5
5
5
5
5
5
5
5
5
5
5
5
5
5
5
5
5
5
5
5
5
5
5
5
5
5
5
5
5
5
5
5
5
5
5
5
5
5
5
5
5
5
5
5
5
5
5
5
5
5
5
5
5
5
5
5
5
5
5
5
5
5
5
5
5
5
5
5
5
5
5
5
5
5
5
5
5
5
5
5
5
5
5
5
5
5
5
5
5
5
5
5
5
5
5
5
5
5
5
5
5
5
5
5
5
5
5
5
5
5
5
5
5
5
5
5
5
5
5
5
5
5
5
5
5
5
5
5
5
5
5
5
5
5
5
5
5
5
5
5
5
5
5
5
5
5
5
5
5
5
5
5
5
5
5
5
5
5
5
5
5
5
5
5
5
5
5
5
5
5
5
5
5
5
5
5
5
5
5
5
5
5
5
5
5
5
5
5
5
5
5
5
5
5
5
5
5
5
5
5
5
5
5
5
5
5
5
5
5
5
5
5
5
5
5
5
5
5
5
5
5
5
5
5
5
5
5
5
5
5
5
5
5
5
5
5
5
5
5
5
5
5
5
5
5
5
5
5
5
5
5
5
5
5
5
5
5
5
5
5
5
5
5
5
5
5
5
5
5
5
5
5
5
5
5
5
5
5
5
5
5
5
5
5
5
5
5
5
5
5
5
5
5
5
5
5
5
5
5
5
5
5
5
5
5
5
5
5
5
5
5
5
5
5
5
5
5
5
5
5
5
5
5
5
5
5
5
5
5
5
5
5
5
5
5
5
5
5
5
5
5
5
5
5
5
5
5
5
5
5
5
5
5
5
5
5
5
5
5
5
5
5
5
5
5
5
5
5
5
5
5
5
5
5
5
5
5
5
5
5
5
5
5
5
5
5
5
5
5
5
5
5
5
5
5
5
5
5
5
5
5
5
5
5
5
5
5
5
5
5
5
5
5
5
5
5
5
5
5
5
5
5
5
5
5
5
5
5
5
5
5
5
5
5
5
5
5
5
5
5
5
5
5
5
5
5
5
5
5
5
5
5
5
5
5
5
5
5
5
5
5
5
5
5
5
5
5
5
5
5
5
5
5
5
5
5
5
5
5
5
5
5
5
5
5
5
5
5
5
5
5
5
5
5
5
5
5
5
5
5
5
5
5
5
5
5
5
5
5
5
5
5
5
5
5
5
5
5
5
5
5
5
5
5
5
5
5
5
5
5
5
5
5
5
5
5
5
5
5
5
5
5
5
5
5
5
5
5
5
5
5
5
5
5
5
5
5
5
5
5
5
5
5
5
5
5
5
5
5
5
5
5
5
5
5
5
5
5
5
5
5
5
5
5
5
5
5
5
5
5
5
5
5
5
5
5
5
5
5
5
5
5
5
5
5
5
5
5
5
5
5
5
5
5
5
5
5
5
5
5
5
5
5
5
5
5
5
5
5
5
5
5
5
5
5
5
5
5
5
5
5
5
5
5
5
5
5
5
5
5
5
5
5
5
5
5
5
5
5
5
5
5
5
5
5
5
5
5
5
5
5
5
5
5
5
5
5
5
5
5
5
5
5
5
5
5
5
5
5
5

POINT_DATA 1137

VECTORS coord float
0.0 0.0 0.0 
5.000000000000e+01 -1.000000000000e+01 0.0 
0.0 -2.000000000000e+01 0.0 
5.000000000000e+01 -2.000000000000e+01 0.0 
0.0 -9.999999999991e-01 0.0 
0.0 -1.999999999998e+00 0.0 
0.0 -2.999999999997e+00 0.0 
0.0 -3.999999999994e+00 0.0 
0.0 -4.999999999991e+00 0.0 
0.0 -5.999999999988e+00 0.0 
0.0 -6.999999999985e+00 0.0 
0.0 -7.999999999982e+00 0.0 
0.0 -8.999999999983e+00 0.0 
0.0 -9.999999999985e+00 0.0 
0.0 -1.099999999999e+01 0.0 
0.0 -1.199999999999e+01 0.0 
0.0 -1.299999999999e+01 0.0 
0.0 -1.399999999999e+01 0.0 
0.0 -1.499999999999e+01 0.0 
0.0 -1.599999999999e+01 0.0 
0.0 -1.700000000000e+01 0.0 
0.0 -1.800000000000e+01 0.0 
0.0 -1.900000000000e+01 0.0 
4.900000000001e+01 -2.000000000000e+01 0.0 
4.800000000001e+01 -2.000000000000e+01 0.0 
4.700000000002e+01 -2.000000000000e+01 0.0 
4.600000000003e+01 -2.000000000000e+01 0.0 
4.500000000004e+01 -2.000000000000e+01 0.0 
4.400000000004e+01 -2.000000000000e+01 0.0 
4.300000000005e+01 -2.000000000000e+01 0.0 
4.200000000006e+01 -2.000000000000e+01 0.0 
4.100000000006e+01 -2.000000000000e+01 0.0 
4.000000000007e+01 -2.000000000000e+01 0.0 
3.900000000008e+01 -2.000000000000e+01 0.0 
3.800000000009e+01 -2.000000000000e+01 0.0 
3.700000000009e+01 -2.000000000000e+01 0.0 
3.600000000010e+01 -2.000000000000e+01 0.0 
3.500000000011e+01 -2.000000000000e+01 0.0 
3.400000000011e+01 -2.000000000000e+01 0.0 
3.300000000012e+01 -2.000000000000e+01 0.0 
3.200000000013e+01 -2.000000000000e+01 0.0 
3.100000000013e+01 -2.000000000000e+01 0.0 
3.000000000013e+01 -2.000000000000e+01 0.0 
2.900000000013e+01 -2.000000000000e+01 0.0 
2.800000000013e+01 -2.000000000000e+01 0.0 
2.700000000013e+01 -2.000000000000e+01 0.0 
2.600000000013e+01 -2.000000000000e+01 0.0 
2.500000000013e+01 -2.000000000000e+01 0.0 
2.400000000013e+01 -2.000000000000e+01 0.0 
2.300000000013e+01 -2.000000000000e+01 0.0 
2.200000000013e+01 -2.000000000000e+01 0.0 
2.100000000013e+01 -2.000000000000e+01 0.0 
2.000000000013e+01 -2.000000000000e+01 0.0 
1.900000000013e+01 -2.000000000000e+01 0.0 
1.800000000013e+01 -2.000000000000e+01 0.0 
1.700000000012e+01 -2.000000000000e+01 0.0 
1.600000000011e+01 -2.000000000000e+01 0.0 
1.500000000011e+01 -2.000000000000e+01 0.0 
1.400000000010e+01 -2.000000000000e+01 0.0 
1.300000000009e+01 -2.000000000000e+01 0.0 
1.200000000009e+01 -2.000000000000e+01 0.0 
1.100000000008e+01 -2.000000000000e+01 0.0 
1.000000000007e+01 -2.000000000000e+01 0.0 
9.000000000064e+00 -2.000000000000e+01 0.0 
8.000000000057e+00 -2.000000000000e+01 0.0 
7.000000000050e+00 -2.000000000000e+01 0.0 
6.000000000043e+00 -2.000000000000e+01 0.0 
5.000000000036e+00 -2.000000000000e+01 0.0 
4.000000000028e+00 -2.000000000000e+01 0.0 
3.000000000021e+00 -2.000000000000e+01 0.0 
2.000000000014e+00 -2.000000000000e+01 0.0 
1.000000000007e+00 -2.000000000000e+01 0.0 
5.000000000000e+01 -1.100000000000e+01 0.0 
5.000000000000e+01 -1.200000000000e+01 0.0 
5.000000000000e+01 -1.300000000000e+01 0.0 
5.000000000000e+01 -1.400000000000e+01 0.0 
5.000000000000e+01 -1.500000000000e+01 0.0 
5.000000000000e+01 -1.600000000000e+01 0.0 
5.000000000000e+01 -1.700000000000e+01 0.0 
5.000000000000e+01 -1.800000000000e+01 0.0 
5.000000000000e+01 -1.900000000000e+01 0.0 
2.000000000000e+01 0.0 0.0 
3.500000000000e+01 -1.000000000000e+01 0.0 
2.150000000000e+01 -1.000000000000e+00 0.0 
2.300000000000e+01 -2.000000000000e+00 0.0 
2.450000000000e+01 -3.000000000000e+00 0.0 
2.600000000000e+01 -4.000000000000e+00 0.0 
2.750000000000e+01 -5.000000000000e+00 0.0 
2.900000000000e+01 -6.000000000000e+00 0.0 
3.050000000000e+01 -7.000000000000e+00 0.0 
3.200000000000e+01 -8.000000000000e+00 0.0 
3.350000000000e+01 -9.000000000000e+00 0.0 
5.000000000000e+01 -5.000000000000e+00 0.0 
5.000000000000e+01 -6.000000000000e+00 0.0 
5.000000000000e+01 -7.000000000000e+00 0.0 
5.000000000000e+01 -8.000000000000e+00 0.0 
5.000000000000e+01 -9.000000000000e+00 0.0 
4.900000000000e+01 -1.000000000000e+01 0.0 
4.800000000000e+01 -1.000000000000e+01 0.0 
4.700000000000e+01 -1.000000000000e+01 0.0 
4.600000000000e+01 -1.000000000000e+01 0.0 
4.500000000000e+01 -1.000000000000e+01 0.0 
4.400000000000e+01 -1.000000000000e+01 0.0 
4.300000000000e+01 -1.000000000000e+01 0.0 
4.200000000000e+01 -1.000000000000e+01 0.0 
4.100000000000e+01 -1.000000000000e+01 0.0 
4.000000000000e+01 -1.000000000000e+01 0.0 
3.900000000000e+01 -1.000000000000e+01 0.0 
3.800000000000e+01 -1.000000000000e+01 0.0 
3.700000000000e+01 -1.000000000000e+01 0.0 
3.600000000000e+01 -1.000000000000e+01 0.0 
1.900000000000e+01 0.0 0.0 
1.800000000000e+01 0.0 0.0 
1.700000000000e+01 0.0 0.0 
1.600000000000e+01 0.0 0.0 
1.500000000000e+01 0.0 0.0 
1.400000000000e+01 0.0 0.0 
1.300000000000e+01 0.0 0.0 
1.200000000000e+01 0.0 0.0 
1.100000000000e+01 0.0 0.0 
1.000000000000e+01 0.0 0.0 
9.000000000000e+00 0.0 0.0 
8.000000000000e+00 0.0 0.0 
7.000000000000e+00 0.0 0.0 
6.000000000000e+00 0.0 0.0 
5.000000000000e+00 0.0 0.0 
4.000000000000e+00 0.0 0.0 
3.000000000000e+00 0.0 0.0 
2.000000000000e+00 0.0 0.0 
1.000000000000e+00 0.0 0.0 
2.847826086957e+01 -5.000000000000e+00 0.0 
2.945652173913e+01 -5.000000000000e+00 0.0 
3.043478260870e+01 -5.000000000000e+00 0.0 
3.141304347826e+01 -5.000000000000e+00 0.0 
3.239130434783e+01 -5.000000000000e+00 0.0 
3.336956521739e+01 -5.000000000000e+00 0.0 
3.434782608696e+01 -5.000000000000e+00 0.0 
3.532608695652e+01 -5.000000000000e+00 0.0 
3.630434782609e+01 -5.000000000000e+00 0.0 
3.728260869565e+01 -5.000000000000e+00 0.0 
3.826086956522e+01 -5.000000000000e+00 0.0 
3.923913043478e+01 -5.000000000000e+00 0.0 
4.021739130435e+01 -5.000000000000e+00 0.0 
4.119565217391e+01 -5.000000000000e+00 0.0 
4.217391304348e+01 -5.000000000000e+00 0.0 
4.315217391304e+01 -5.000000000000e+00 0.0 
4.413043478261e+01 -5.000000000000e+00 0.0 
4.510869565217e+01 -5.000000000000e+00 0.0 
4.608695652174e+01 -5.000000000000e+00 0.0 
4.706521739130e+01 -5.000000000000e+00 0.0 
4.804347826087e+01 -5.000000000000e+00 0.0 
4.902173913043e+01 -5.000000000000e+00 0.0 
4.900000000001e+01 -6.000000000000e+00 0.0 
4.800000000003e+01 -6.000000000000e+00 0.0 
4.700000000004e+01 -6.000000000000e+00 0.0 
4.600000000006e+01 -6.000000000000e+00 0.0 
4.500000000007e+01 -6.000000000000e+00 0.0 
4.400000000009e+01 -6.000000000000e+00 0.0 
4.300000000010e+01 -6.000000000000e+00 0.0 
4.200000000012e+01 -6.000000000000e+00 0.0 
4.100000000013e+01 -6.000000000000e+00 0.0 
4.000000000014e+01 -6.000000000000e+00 0.0 
3.900000000014e+01 -6.000000000000e+00 0.0 
3.800000000012e+01 -6.000000000000e+00 0.0 
3.700000000010e+01 -6.000000000000e+00 0.0 
3.600000000008e+01 -6.000000000000e+00 0.0 
3.500000000006e+01 -6.000000000000e+00 0.0 
3.400000000005e+01 -6.000000000000e+00 0.0 
3.300000000003e+01 -6.000000000000e+00 0.0 
3.200000000001e+01 -6.000000000000e+00 0.0 
3.100000000000e+01 -6.000000000000e+00 0.0 
3.000000000000e+01 -6.000000000000e+00 0.0 
3.147499999998e+01 -7.000000000000e+00 0.0 
3.244999999998e+01 -7.000000000000e+00 0.0 
3.342499999998e+01 -7.000000000000e+00 0.0 
3.439999999998e+01 -7.000000000000e+00 0.0 
3.537499999998e+01 -7.000000000000e+00 0.0 
3.634999999998e+01 -7.000000000000e+00 0.0 
3.732499999998e+01 -7.000000000000e+00 0.0 
3.829999999998e+01 -7.000000000000e+00 0.0 
3.927499999999e+01 -7.000000000000e+00 0.0 
4.024999999999e+01 -7.000000000000e+00 0.0 
4.122499999999e+01 -7.000000000000e+00 0.0 
4.219999999999e+01 -7.000000000000e+00 0.0 
4.317499999999e+01 -7.000000000000e+00 0.0 
4.414999999999e+01 -7.000000000000e+00 0.0 
4.512499999999e+01 -7.000000000000e+00 0.0 
4.609999999999e+01 -7.000000000000e+00 0.0 
4.707500000000e+01 -7.000000000000e+00 0.0 
4.805000000000e+01 -7.000000000000e+00 0.0 
4.902500000000e+01 -7.000000000000e+00 0.0 
4.900000000000e+01 -8.000000000000e+00 0.0 
4.800000000000e+01 -8.000000000000e+00 0.0 
4.700000000000e+01 -8.000000000000e+00 0.0 
4.600000000000e+01 -8.000000000000e+00 0.0 
4.500000000000e+01 -8.000000000000e+00 0.0 
4.400000000000e+01 -8.000000000000e+00 0.0 
4.300000000000e+01 -8.000000000000e+00 0.0 
4.200000000000e+01 -8.000000000000e+00 0.0 
4.100000000000e+01 -8.000000000000e+00 0.0 
4.000000000000e+01 -8.000000000000e+00 0.0 
3.900000000000e+01 -8.000000000000e+00 0.0 
3.800000000000e+01 -8.000000000000e+00 0.0 
3.700000000000e+01 -8.000000000000e+00 0.0 
3.600000000000e+01 -8.000000000000e+00 0.0 
3.500000000000e+01 -8.000000000000e+00 0.0 
3.400000000000e+01 -8.000000000000e+00 0.0 
3.300000000000e+01 -8.000000000000e+00 0.0 
3.447058823527e+01 -9.000000000000e+00 0.0 
3.544117647055e+01 -9.000000000000e+00 0.0 
3.641176470582e+01 -9.000000000000e+00 0.0 
3.738235294109e+01 -9.000000000000e+00 0.0 
3.835294117637e+01 -9.000000000000e+00 0.0 
3.932352941164e+01 -9.000000000000e+00 0.0 
4.029411764691e+01 -9.000000000000e+00 0.0 
4.126470588219e+01 -9.000000000000e+00 0.0 
4.223529411748e+01 -9.000000000000e+00 0.0 
4.320588235279e+01 -9.000000000000e+00 0.0 
4.417647058811e+01 -9.000000000000e+00 0.0 
4.514705882342e+01 -9.000000000000e+00 0.0 
4.611764705874e+01 -9.000000000000e+00 0.0 
4.708823529405e+01 -9.000000000000e+00 0.0 
4.805882352937e+01 -9.000000000000e+00 0.0 
4.902941176468e+01 -9.000000000000e+00 0.0 
2.075000000000e+01 -5.000000000006e-01 0.0 
2.225000000000e+01 -1.500000000000e+00 0.0 
2.375000000000e+01 -2.500000000000e+00 0.0 
2.525000000000e+01 -3.500000000000e+00 0.0 
2.675000000000e+01 -4.500000000000e+00 0.0 
2.825000000000e+01 -5.500000000000e+00 0.0 
2.975000000000e+01 -6.500000000000e+00 0.0 
3.125000000000e+01 -7.500000000000e+00 0.0 
3.275000000000e+01 -8.500000000000e+00 0.0 
3.425000000000e+01 -9.500000000000e+00 0.0 
2.226951693683e+01 -2.403913980114e+00 0.0 
1.650149491944e+01 -1.913490915758e+01 0.0 
1.050042386896e+01 -8.504605092970e-01 0.0 
1.553146524712e+01 -8.281255032105e-01 0.0 
1.150000000008e+01 -1.913397459621e+01 0.0 
2.530060260647e+01 -4.428336431260e+00 0.0 
8.651114563942e-01 -1.052096295641e+01 0.0 
2.050000000013e+01 -1.913397459622e+01 0.0 
2.819198729811e+01 -6.399519052838e+00 0.0 
2.445670302931e+01 -1.915649188023e+01 0.0 
3.117591465718e+01 -8.394293040695e+00 0.0 
7.465053044742e+00 -1.920411160581e+01 0.0 
6.398295709691e+00 -8.230098819370e-01 0.0 
2.849659607461e+01 -1.914296187762e+01 0.0 
3.418732642882e+01 -1.040265792588e+01 0.0 
8.386450935063e-01 -6.533605142809e+00 0.0 
9.178661865596e-01 -1.329769195597e+01 0.0 
3.149448624493e+01 -1.910466733764e+01 0.0 
3.552916747426e+01 -1.914628590759e+01 0.0 
4.449210346537e+01 -1.914359085008e+01 0.0 
4.140975975145e+01 -1.906941860733e+01 0.0 
3.847475958753e+01 -1.916622382724e+01 0.0 
3.653774794640e+01 -1.088712800241e+01 0.0 
4.047886341787e+01 -1.090139014048e+01 0.0 
4.348006339825e+01 -1.092792621489e+01 0.0 
4.919519968029e+01 -1.451526755068e+01 0.0 
4.500000000032e+00 -1.913397459621e+01 0.0 
1.856136921614e+01 -8.212235170404e-01 0.0 
3.499895312306e+00 -8.661165539723e-01 0.0 
9.076088696565e-01 -1.642306201891e+01 0.0 
4.655174095477e+01 -1.086183387525e+01 0.0 
9.430688970604e-01 -3.496112672958e+00 0.0 
3.353992337063e+01 -1.901202090820e+01 0.0 
2.249746016977e+01 -1.921262287282e+01 0.0 
2.650122741777e+01 -1.916123026018e+01 0.0 
1.863571384842e+01 -1.908325534840e+01 0.0 
1.450089971693e+01 -1.917691901860e+01 0.0 
1.350044695317e+01 -8.659695299584e-01 0.0 
3.849987469880e+01 -1.084154983397e+01 0.0 
9.454419857884e+00 -1.900818879936e+01 0.0 
4.917398660523e+01 -1.645692866081e+01 0.0 
8.500000000000e+00 -8.660254037844e-01 0.0 
8.660319230785e-01 -8.500111697188e+00 0.0 
4.649022621545e+01 -1.930506220113e+01 0.0 
2.667688107845e+01 -5.420288124331e+00 0.0 
2.379251615665e+01 -3.412225477429e+00 0.0 
2.966631491830e+01 -7.389030232731e+00 0.0 
3.267915035995e+01 -9.396934932445e+00 0.0 
2.074836922338e+01 -1.320054020319e+00 0.0 
4.915985743621e+01 -1.261973384855e+01 0.0 
2.527129768623e+00 -1.931592414663e+01 0.0 
1.538676247410e+00 -8.436956619311e-01 0.0 
4.908096641539e+01 -1.842484004551e+01 0.0 
3.478612492673e+01 -1.090889364140e+01 0.0 
3.409757055860e+01 -1.131991530427e+01 0.0 
3.501895309466e+01 -1.177687842717e+01 0.0 
3.407758073088e+01 -1.224293381580e+01 0.0 
3.484541875390e+01 -1.277051428430e+01 0.0 
3.400322025842e+01 -1.319022775640e+01 0.0 
3.321672625034e+01 -1.266779191233e+01 0.0 
3.315244139236e+01 -1.360984106532e+01 0.0 
3.236335186892e+01 -1.308463225210e+01 0.0 
3.478337442841e+01 -1.372341158982e+01 0.0 
3.230105923633e+01 -1.403023731610e+01 0.0 
3.150954055289e+01 -1.350301767700e+01 0.0 
3.144604792090e+01 -1.444931742516e+01 0.0 
3.065653897123e+01 -1.392357262981e+01 0.0 
3.071897610812e+01 -1.297447031198e+01 0.0 
2.986790411740e+01 -1.339226181535e+01 0.0 
2.993181466745e+01 -1.244703272398e+01 0.0 
2.908023061869e+01 -1.286254537734e+01 0.0 
2.901619051372e+01 -1.380881655279e+01 0.0 
2.822986160390e+01 -1.327695262116e+01 0.0 
2.829453476870e+01 -1.233265343811e+01 0.0 
2.744542905518e+01 -1.274510491105e+01 0.0 
2.751120089246e+01 -1.180368086886e+01 0.0 
2.666218649885e+01 -1.221619339205e+01 0.0 
2.672371209234e+01 -1.127125228527e+01 0.0 
2.587763216302e+01 -1.168539979114e+01 0.0 
2.581165585299e+01 -1.262994410089e+01 0.0 
2.502890882577e+01 -1.209827323619e+01 0.0 
2.509631327757e+01 -1.115492410304e+01 0.0 
2.424662989877e+01 -1.156630981079e+01 0.0 
2.431704046904e+01 -1.062389179334e+01 0.0 
2.346445438728e+01 -1.103427680694e+01 0.0 
2.339382552877e+01 -1.197964871788e+01 0.0 
2.260936050780e+01 -1.144513277642e+01 0.0 
2.268075012022e+01 -1.049911928216e+01 0.0 
2.182525737661e+01 -1.090920811464e+01 0.0 
2.189682319817e+01 -9.961716944568e+00 0.0 
2.104174127792e+01 -1.037266986667e+01 0.0 
2.111304367575e+01 -9.424179358711e+00 0.0 
2.025306185381e+01 -9.832727364719e+00 0.0 
2.018141124247e+01 -1.079140628871e+01 0.0 
1.938594498257e+01 -1.025147354112e+01 0.0 
1.946106490453e+01 -9.288010758448e+00 0.0 
1.858929958352e+01 -9.706319802516e+00 0.0 
1.851540991219e+01 -1.067205988724e+01 0.0 
1.771485303178e+01 -1.012504443115e+01 0.0 
1.764134552256e+01 -1.109360378538e+01 0.0 
1.683745148095e+01 -1.054496365337e+01 0.0 
1.691852964353e+01 -9.582555261178e+00 0.0 
1.603603813062e+01 -1.000160132379e+01 0.0 
1.595824239350e+01 -1.096750698862e+01 0.0 
1.515080624291e+01 -1.041639501931e+01 0.0 
1.523171602559e+01 -9.451711491453e+00 0.0 
1.434621060709e+01 -9.871956467464e+00 0.0 
1.426777178765e+01 -1.083749501371e+01 0.0 
1.345775282374e+01 -1.028803175500e+01 0.0 
1.354103873368e+01 -9.324918457162e+00 0.0 
1.265072018622e+01 -9.742612837270e+00 0.0 
1.257285762070e+01 -1.071557782384e+01 0.0 
1.175874815690e+01 -1.015972324288e+01 0.0 
1.184203019714e+01 -9.193604071377e+00 0.0 
1.094927709905e+01 -9.612103238656e+00 0.0 
1.086938022910e+01 -1.058685085646e+01 0.0 
1.005424098961e+01 -1.002939116380e+01 0.0 
9.977974613295e+00 -1.101324897989e+01 0.0 
1.012915646404e+01 -9.051815821181e+00 0.0 
9.237127782494e+00 -9.471239055559e+00 0.0 
9.308426593771e+00 -8.483376461131e+00 0.0 
8.418806073345e+00 -8.910712374517e+00 0.0 
2.253688464062e+01 -1.239459402279e+01 0.0 
8.495126726666e+00 -7.921646665254e+00 0.0 
9.389727383206e+00 -7.512103628377e+00 0.0 
7.601560812974e+00 -8.349460349344e+00 0.0 
7.525680547759e+00 -9.339736686940e+00 0.0 
7.677888324502e+00 -7.359727833346e+00 0.0 
6.782001206724e+00 -7.788454494773e+00 0.0 
6.858778622885e+00 -6.797338062822e+00 0.0 
2.196596590865e+01 -8.979025665442e+00 0.0 
2.816540108272e+01 -1.422634142353e+01 0.0 
5.961601194403e+00 -7.226824010712e+00 0.0 
6.038171749656e+00 -6.234825887079e+00 0.0 
6.936257279557e+00 -5.805287640737e+00 0.0 
6.115068918323e+00 -5.242109758768e+00 0.0 
3.564391741903e+01 -1.329240553876e+01 0.0 
3.558115605778e+01 -1.425902892003e+01 0.0 
3.645445282201e+01 -1.381970786460e+01 0.0 
3.639744204358e+01 -1.479198128612e+01 0.0 
3.727266909778e+01 -1.435399586226e+01 0.0 
5.216667013081e+00 -5.671788584287e+00 0.0 
3.220697293295e+01 -1.499594545107e+01 0.0 
3.551112158269e+01 -1.523479869250e+01 0.0 
2.836056961467e+01 -1.139032434851e+01 0.0 
2.516730388602e+01 -1.021382726837e+01 0.0 
1.844436907403e+01 -1.164097215196e+01 0.0 
5.885434318740e+00 -8.218694781467e+00 0.0 
5.064071066867e+00 -7.656614643901e+00 0.0 
4.988089103470e+00 -8.649722082718e+00 0.0 
1.079421050408e+01 -1.157014985435e+01 0.0 
9.902420005256e+00 -1.199903342656e+01 0.0 
1.071994252214e+01 -1.255727909771e+01 0.0 
9.826974788171e+00 -1.298659581767e+01 0.0 
1.064607883789e+01 -1.354595476388e+01 0.0 
9.751541265343e+00 -1.397556905071e+01 0.0 
8.932296185869e+00 -1.341553353988e+01 0.0 
8.856399248106e+00 -1.440570715508e+01 0.0 
8.036186803543e+00 -1.384470558472e+01 0.0 
1.057112875118e+01 -1.453516759081e+01 0.0 
1.146582585687e+01 -1.410539926903e+01 0.0 
7.959894480382e+00 -1.483563350928e+01 0.0 
7.138792279156e+00 -1.427465094140e+01 0.0 
7.062506792418e+00 -1.526615385482e+01 0.0 
6.240693558277e+00 -1.470508863040e+01 0.0 
6.316957575451e+00 -1.371212581281e+01 0.0 
5.418183007107e+00 -1.414253605022e+01 0.0 
5.494748364428e+00 -1.314886770603e+01 0.0 
1.756825565873e+01 -1.206433872514e+01 0.0 
1.837565773345e+01 -1.261356468266e+01 0.0 
1.749574831391e+01 -1.303769280014e+01 0.0 
1.830539187332e+01 -1.358828364284e+01 0.0 
1.742278925170e+01 -1.401367746928e+01 0.0 
1.823303007798e+01 -1.456432294258e+01 0.0 
1.734941694138e+01 -1.499213734361e+01 0.0 
1.653760041637e+01 -1.443920312098e+01 0.0 
3.056237977307e+01 -1.487132260174e+01 0.0 
1.866469084762e+01 -8.742953000418e+00 0.0 
1.953669694916e+01 -8.326038909849e+00 0.0 
1.874194303780e+01 -7.780688158966e+00 0.0 
1.961032016741e+01 -7.366854697285e+00 0.0 
1.881715755159e+01 -6.821102209649e+00 0.0 
1.968369797150e+01 -6.407747217358e+00 0.0 
1.889237123259e+01 -5.858375520026e+00 0.0 
1.802038875366e+01 -6.276202618170e+00 0.0 
1.809793837984e+01 -5.307629520489e+00 0.0 
1.721985207997e+01 -5.728242054488e+00 0.0 
1.729850893523e+01 -4.756990819347e+00 0.0 
1.641745664240e+01 -5.174636548624e+00 0.0 
2.495978509456e+01 -1.304406404294e+01 0.0 
1.911567814831e+01 -1.413854250293e+01 0.0 
1.904387332608e+01 -1.511463127723e+01 0.0 
1.992115934240e+01 -1.468788025898e+01 0.0 
7.013706899628e+00 -4.812582868662e+00 0.0 
5.342091874585e+00 -1.513658157269e+01 0.0 
1.139098043784e+01 -1.509488509480e+01 0.0 
1.228151810610e+01 -1.465617481983e+01 0.0 
1.646373110164e+01 -1.541993323337e+01 0.0 
5.293328636712e+00 -4.678385108584e+00 0.0 
1.975965862987e+01 -5.448124345648e+00 0.0 
2.054318374236e+01 -5.992561293251e+00 0.0 
3.721453439063e+01 -1.533216152738e+01 0.0 
3.809302733893e+01 -1.489235527381e+01 0.0 
1.220852788900e+01 -1.565304565230e+01 0.0 
4.394120899730e+00 -5.108397613210e+00 0.0 
8.779354620288e+00 -1.539524721159e+01 0.0 
1.817791047702e+01 -4.338570146253e+00 0.0 
4.518860013839e+00 -1.457343189307e+01 0.0 
4.442712140414e+00 -1.556841391069e+01 0.0 
8.115343466391e+00 -1.285760324283e+01 0.0 
1.985334703171e+01 -1.566478400426e+01 0.0 
2.071953850276e+01 -1.522074243119e+01 0.0 
1.634012953883e+01 -6.154777738301e+00 0.0 
1.553479994708e+01 -5.593730508879e+00 0.0 
1.561265946942e+01 -4.617761762647e+00 0.0 
1.470674212978e+01 -5.064576488228e+00 0.0 
1.464498299883e+01 -6.026514471420e+00 0.0 
1.383271561817e+01 -5.467796261169e+00 0.0 
1.389241253067e+01 -4.504338666645e+00 0.0 
1.301868735463e+01 -4.907185188626e+00 0.0 
1.294514184846e+01 -5.888160903592e+00 0.0 
1.212955968622e+01 -5.328262335277e+00 0.0 
1.220721122383e+01 -4.341264976687e+00 0.0 
1.131324345897e+01 -4.766773516508e+00 0.0 
5.266597955397e+00 -1.613148974258e+01 0.0 
1.737805990867e+01 -3.786677807525e+00 0.0 
3.078438094513e+01 -1.203225297748e+01 0.0 
1.131569882285e+01 -1.608511932110e+01 0.0 
1.728478341782e+01 -1.596017432313e+01 0.0 
3.803465906019e+01 -1.587509751228e+01 0.0 
3.891681276677e+01 -1.543395196905e+01 0.0 
3.897340985302e+01 -1.444710288980e+01 0.0 
3.980095968193e+01 -1.499059496613e+01 0.0 
3.974334598189e+01 -1.597921884150e+01 0.0 
4.062964983717e+01 -1.553518690417e+01 0.0 
4.068729602479e+01 -1.454434445295e+01 0.0 
4.151772679790e+01 -1.508974196007e+01 0.0 
4.157505195739e+01 -1.409694289912e+01 0.0 
4.240699932656e+01 -1.464347955968e+01 0.0 
4.234898051011e+01 -1.563721375790e+01 0.0 
4.323934606035e+01 -1.519082036405e+01 0.0 
4.329740528208e+01 -1.419587509788e+01 0.0 
4.413056841369e+01 -1.474359631875e+01 0.0 
4.418850110108e+01 -1.374786684042e+01 0.0 
4.502219770667e+01 -1.429605103525e+01 0.0 
4.496411937907e+01 -1.529215882720e+01 0.0 
4.490027319897e+00 -4.154167794594e+00 0.0 
1.565080385988e+01 -1.486411982419e+01 0.0 
1.557610691279e+01 -1.584855627870e+01 0.0 
4.195350646612e+00 -8.089117689096e+00 0.0 
4.124027797830e+00 -9.082831955007e+00 0.0 
4.917944318925e+00 -9.643530901533e+00 0.0 
4.020105689502e+00 -1.007439673661e+01 0.0 
4.587185899277e+01 -1.484039992728e+01 0.0 
4.580078661551e+01 -1.584043391042e+01 0.0 
2.061956522375e+01 -5.046701343981e+00 0.0 
2.139572955529e+01 -5.579553449826e+00 0.0 
3.715344357292e+01 -1.631485124583e+01 0.0 
3.618886196443e+00 -1.500471207167e+01 0.0 
3.695606940204e+00 -1.400939692294e+01 0.0 
2.438890661143e+01 -9.686110599723e+00 0.0 
2.523267572778e+01 -9.276766000622e+00 0.0 
2.446094171539e+01 -8.751904591412e+00 0.0 
2.529089822738e+01 -8.321495612547e+00 0.0 
2.606882688827e+01 -8.864724051119e+00 0.0 
2.452116646430e+01 -7.792756462004e+00 0.0 
1.235543269617e+01 -1.365845617339e+01 0.0 
4.318116874181e+01 -1.618567469992e+01 0.0 
7.835066111909e+00 -5.376366223896e+00 0.0 
7.905687335704e+00 -4.382539065697e+00 0.0 
3.542640009567e+00 -1.600035116542e+01 0.0 
1.572431503071e+01 -1.388358386695e+01 0.0 
2.574684696680e+01 -1.357896141127e+01 0.0 
2.488842657651e+01 -1.399674354505e+01 0.0 
2.568301775611e+01 -1.453552048595e+01 0.0 
2.481535572009e+01 -1.495542756508e+01 0.0 
2.561729699688e+01 -1.549784648532e+01 0.0 
2.474623061296e+01 -1.592058894178e+01 0.0 
2.394234041695e+01 -1.537572575827e+01 0.0 
2.065825452567e+01 -1.621899055217e+01 0.0 
2.387180528935e+01 -1.634552264687e+01 0.0 
4.585364400844e+01 -1.383912334080e+01 0.0 
1.998744432052e+01 -1.370317155541e+01 0.0 
1.205356951443e+01 -6.313580285498e+00 0.0 
5.396543905849e+00 -3.731818611283e+00 0.0 
1.139652573295e+01 -3.745819399350e+00 0.0 
3.574124306703e+00 -4.551456826011e+00 0.0 
3.494140761930e+00 -5.539787055649e+00 0.0 
1.213651452413e+01 -1.664505033022e+01 0.0 
2.555045568519e+01 -1.646529356744e+01 0.0 
2.641671114986e+01 -1.603899382371e+01 0.0 
2.612920721894e+01 -7.906435260873e+00 0.0 
2.690339829698e+01 -8.456969591431e+00 0.0 
1.978024383368e+01 -1.664410216353e+01 0.0 
3.732829979082e+01 -1.336926601859e+01 0.0 
4.074336584605e+01 -1.355133328401e+01 0.0 
4.163204691081e+01 -1.310280943992e+01 0.0 
3.773826114429e+00 -3.493444309145e+00 0.0 
1.228783001032e+01 -3.374822835872e+00 0.0 
4.057110462520e+01 -1.652588478000e+01 0.0 
2.132535497898e+01 -6.523623360525e+00 0.0 
2.216932532211e+01 -6.110044769206e+00 0.0 
1.825781152128e+01 -3.370146817147e+00 0.0 
1.745679445888e+01 -2.812942552063e+00 0.0 
4.666517057280e+01 -1.539981381543e+01 0.0 
4.660575894464e+01 -1.639014410186e+01 0.0 
4.838230979954e+00 -1.063643436446e+01 0.0 
3.938942630206e+00 -1.106778981745e+01 0.0 
1.302967218620e+01 -1.621373452436e+01 0.0 
1.049548003190e+01 -4.204825123240e+00 0.0 
4.573571907195e+01 -1.683820511148e+01 0.0 
1.483686335807e+01 -1.430849689310e+01 0.0 
1.490982658890e+01 -1.332679386284e+01 0.0 
3.190805600162e+00 -9.510968358545e+00 0.0 
2.146625721848e+01 -4.642437303115e+00 0.0 
2.069866208266e+01 -4.111852942193e+00 0.0 
1.286859345584e+01 -6.873252723348e+00 0.0 
1.041794493184e+01 -5.194814260291e+00 0.0 
2.671081808965e+00 -4.976806516331e+00 0.0 
1.295786792925e+01 -1.720506531799e+01 0.0 
3.968438206511e+01 -1.696869067241e+01 0.0 
2.308550456051e+01 -1.579963151273e+01 0.0 
2.315593682844e+01 -1.482967445235e+01 0.0 
2.299471449450e+01 -1.677069968132e+01 0.0 
1.057344714696e+01 -3.214252277840e+00 0.0 
1.124057603753e+01 -1.707713739755e+01 0.0 
2.718402535754e+00 -1.543629882103e+01 0.0 
2.638549692805e+01 -1.696744916809e+01 0.0 
2.723416349007e+01 -1.658104204545e+01 0.0 
2.210193351704e+01 -7.046769643417e+00 0.0 
2.295180925161e+01 -6.657397605239e+00 0.0 
2.301355235833e+01 -5.709111896800e+00 0.0 
2.379052718281e+01 -6.254965406962e+00 0.0 
3.243528601237e+01 -1.214181853533e+01 0.0 
2.287977995457e+01 -7.583722368300e+00 0.0 
2.999876029544e+01 -1.150837653096e+01 0.0 
3.084435366963e+01 -1.109693775882e+01 0.0 
3.006650579669e+01 -1.057778994262e+01 0.0 
2.683802665066e+01 -9.386863216633e+00 0.0 
2.768641973621e+01 -8.988883915666e+00 0.0 
2.040296980397e+01 -7.903629133404e+00 0.0 
1.925235024054e+01 -1.218872783130e+01 0.0 
5.735667000424e+00 -1.020577277283e+01 0.0 
6.396559909872e+00 -1.272326295703e+01 0.0 
1.161199420714e+01 -1.212812778229e+01 0.0 
4.229046132615e+01 -1.663084237572e+01 0.0 
4.312275399692e+01 -1.718087491556e+01 0.0 
4.335502068163e+01 -1.320039231514e+01 0.0 
4.424630298089e+01 -1.275160688731e+01 0.0 
7.090116643816e+00 -3.818998061530e+00 0.0 
7.989472176569e+00 -3.389238711200e+00 0.0 
9.085824861778e+00 -1.144036167408e+01 0.0 
1.041972423731e+01 -1.651614080893e+01 0.0 
3.797525112640e+01 -1.686052038746e+01 0.0 
3.709114253394e+01 -1.730125999865e+01 0.0 
3.626966748340e+01 -1.675477052919e+01 0.0 
1.385164591440e+01 -1.677597757552e+01 0.0 
1.787152588784e+01 -8.198993896093e+00 0.0 
1.668849729812e+01 -1.248560611628e+01 0.0 
1.659546177905e+01 -3.232482605530e+00 0.0 
2.332214717345e+01 -1.292598167641e+01 0.0 
7.168238450786e+00 -2.824711686516e+00 0.0 
2.894878403906e+01 -1.475427524446e+01 0.0 
2.646763248247e+00 -1.643270107952e+01 0.0 
3.467431944285e+00 -1.699648837348e+01 0.0 
2.059475877282e+01 -1.719473628526e+01 0.0 
3.333868355437e+01 -1.080596971682e+01 0.0 
2.246451062637e+01 -1.334557761546e+01 0.0 
2.167821896388e+01 -1.280847834858e+01 0.0 
3.089653185767e+01 -1.017198487212e+01 0.0 
3.012604365669e+01 -9.657298805968e+00 0.0 
2.929627299435e+01 -1.006100135274e+01 0.0 
2.936201435219e+01 -9.136748899251e+00 0.0 
1.198219052702e+01 -7.291887238230e+00 0.0 
1.116702076035e+01 -6.731976101053e+00 0.0 
2.551388807505e+01 -1.746927036981e+01 0.0 
2.378639090370e+01 -1.728678807149e+01 0.0 
2.718543627188e+01 -1.748668016909e+01 0.0 
2.804681050301e+01 -1.712626668293e+01 0.0 
1.970737034667e+01 -1.762317646822e+01 0.0 
1.889535776135e+01 -1.707158098231e+01 0.0 
2.593777711283e+00 -5.971157087874e+00 0.0 
2.773468281110e+01 -8.067164273938e+00 0.0 
4.051205884347e+01 -1.751819982458e+01 0.0 
3.166903145421e+01 -1.068032992414e+01 0.0 
1.033042452886e+01 -1.748285844336e+01 0.0 
9.519274604626e+00 -1.694349240233e+01 0.0 
1.668308673328e+01 -2.255861778986e+00 0.0 
1.570531902832e+01 -2.676795860126e+00 0.0 
4.655826903379e+01 -1.736656245706e+01 0.0 
2.384148070773e+01 -5.328744256413e+00 0.0 
2.460255123641e+01 -5.852182672816e+00 0.0 
2.306638135119e+01 -4.798935440613e+00 0.0 
8.467720450578e-01 -1.849576263072e+01 0.0 
4.849657322345e+01 -1.084860705506e+01 0.0 
2.565860899507e+00 -1.742859793981e+01 0.0 
2.764418872564e+01 -9.927142821799e+00 0.0 
4.565165880064e+01 -1.785336695404e+01 0.0 
2.162231831329e+01 -1.376528337468e+01 0.0 
2.360646352969e+01 -9.136041963102e+00 0.0 
1.392738739903e+01 -1.578285505772e+01 0.0 
4.756405947478e+01 -1.683706841809e+01 0.0 
4.740895034054e+01 -1.793766756892e+01 0.0 
4.080779328826e+01 -1.257387192544e+01 0.0 
4.168907939671e+01 -1.210739129181e+01 0.0 
3.991197722154e+01 -1.300815793917e+01 0.0 
1.905536506762e+01 -3.940076697685e+00 0.0 
1.923879596617e+01 -2.875000734166e+00 0.0 
4.401386745746e+01 -1.673483229438e+01 0.0 
4.247233362525e+00 -7.094581653070e+00 0.0 
3.286051630211e+00 -7.635300020553e+00 0.0 
9.609533347623e+00 -4.594311677967e+00 0.0 
9.523554636369e+00 -5.595597029530e+00 0.0 
5.660336628893e+00 -1.119290329628e+01 0.0 
6.558070063295e+00 -1.076385809362e+01 0.0 
2.809866407414e+01 -1.518037766799e+01 0.0 
2.888868674504e+01 -1.570360690070e+01 0.0 
2.654431550819e+01 -1.411217777162e+01 0.0 
1.402158265969e+01 -1.375404617952e+01 0.0 
1.409592494026e+01 -1.277071998942e+01 0.0 
1.499355196178e+01 -1.235270737023e+01 0.0 
4.221535326155e+01 -1.759335617494e+01 0.0 
4.305583287033e+01 -1.822663146802e+01 0.0 
1.280748808359e+01 -7.834332838285e+00 0.0 
1.368988389326e+01 -7.420529606172e+00 0.0 
1.110091796060e+01 -7.683966794328e+00 0.0 
3.963446145980e+01 -1.794331310122e+01 0.0 
3.423932362213e+00 -1.796415590455e+01 0.0 
4.280814572302e+00 -1.752272834860e+01 0.0 
8.050136380041e+00 -2.421582378631e+00 0.0 
8.888674091650e+00 -2.984264211327e+00 0.0 
2.152839430898e+01 -3.732609965436e+00 0.0 
2.077799585292e+01 -3.183896021866e+00 0.0 
3.618719395821e+01 -1.770276572576e+01 0.0 
3.538165138340e+01 -1.718709995539e+01 0.0 
3.702925326420e+01 -1.828844288807e+01 0.0 
1.756739438711e+00 -5.353284859169e+00 0.0 
2.233710191104e+01 -1.527265621324e+01 0.0 
1.389483555057e+01 -1.771797164730e+01 0.0 
1.475634224300e+01 -1.728357428390e+01 0.0 
1.298797563052e+01 -1.825968924755e+01 0.0 
2.145331271866e+01 -1.673705379077e+01 0.0 
2.133282821169e+01 -1.769400773673e+01 0.0 
2.292139194136e+01 -1.774915400288e+01 0.0 
1.750750053243e+01 -1.861475593469e+00 0.0 
4.830478841772e+01 -1.752611802221e+01 0.0 
4.341203507805e+01 -1.220326745522e+01 0.0 
1.685254151866e+01 -1.443085301632e+00 0.0 
4.431538535165e+01 -1.171841387375e+01 0.0 
4.511308610496e+01 -1.229557320599e+01 0.0 
4.510133242889e+01 -1.123680627466e+01 0.0 
1.846818030617e+00 -4.410877617069e+00 0.0 
3.995468694584e+01 -1.186571542989e+01 0.0 
3.901387459804e+01 -1.242507616755e+01 0.0 
8.966735877533e+00 -1.837818700423e+00 0.0 
4.049310011091e+01 -1.848269508791e+01 0.0 
7.278862053803e+00 -1.918523922691e+00 0.0 
6.429715522129e+00 -2.316676521184e+00 0.0 
9.443505505022e+00 -1.792198868094e+01 0.0 
8.620386951051e+00 -1.737590365556e+01 0.0 
8.571868171503e+00 -1.834436667826e+01 0.0 
7.758629848526e+00 -1.775677907213e+01 0.0 
7.806648388584e+00 -1.680761266021e+01 0.0 
6.908555145436e+00 -1.723746463044e+01 0.0 
4.251709122090e+01 -1.156937480156e+01 0.0 
6.931136405615e+00 -1.832465719263e+01 0.0 
6.015545461353e+00 -1.768865355295e+01 0.0 
5.960535926343e+00 -1.872011001764e+01 0.0 
3.023253444786e+01 -8.761960642196e+00 0.0 
2.454622702599e+01 -6.749421992767e+00 0.0 
2.537499741604e+01 -6.347634963783e+00 0.0 
2.544077378460e+01 -5.431358513649e+00 0.0 
2.801367161747e+01 -1.820907270221e+01 0.0 
2.884507806914e+01 -1.762032095326e+01 0.0 
1.821474531936e+00 -1.588901260460e+01 0.0 
1.821006262604e+00 -1.489370287756e+01 0.0 
4.599962488908e+01 -1.176478780598e+01 0.0 
4.705457470007e+01 -1.172182804229e+01 0.0 
4.667668314802e+01 -1.263464558483e+01 0.0 
4.759648056504e+01 -1.252380987933e+01 0.0 
4.728041618103e+01 -1.341928568376e+01 0.0 
4.825209352360e+01 -1.330491640804e+01 0.0 
4.778118233428e+01 -1.420151961695e+01 0.0 
2.388192727579e+01 -1.826934810142e+01 0.0 
2.381714684947e+01 -4.385917965223e+00 0.0 
3.172733219247e+01 -9.758744265248e+00 0.0 
1.882012070658e+01 -1.805540597212e+01 0.0 
1.805667505243e+01 -1.742221226236e+01 0.0 
2.852599958080e+01 -8.597196079481e+00 0.0 
2.856486123437e+01 -7.661382718527e+00 0.0 
1.111792842875e+01 -1.818223852980e+01 0.0 
2.203322722466e+01 -7.986646678802e+00 0.0 
3.955703676900e+01 -1.903246763601e+01 0.0 
1.944842206513e+01 -8.038750575182e-01 0.0 
1.909882767783e+01 -1.746322740933e+00 0.0 
2.281147422941e+01 -8.525912918334e+00 0.0 
2.850633001468e+01 -9.533271335986e+00 0.0 
2.532883344309e+01 -7.308951659710e+00 0.0 
2.620475466461e+01 -6.979208585400e+00 0.0 
1.396278270396e+01 -1.475095389807e+01 0.0 
9.791001166724e+00 -2.554159793552e+00 0.0 
2.229293380421e+01 -4.269762271052e+00 0.0 
4.677238984118e+01 -1.430071795514e+01 0.0 
2.228658385918e+01 -3.344747535984e+00 0.0 
8.940223674553e-01 -1.543595733415e+01 0.0 
2.118566862474e+01 -8.435876987696e+00 0.0 
2.678325936437e+01 -1.032621195706e+01 0.0 
2.223400220487e+01 -5.179046761770e+00 0.0 
2.375370625384e+01 -7.251580562134e+00 0.0 
3.156971327386e+01 -1.255534750737e+01 0.0 
3.328226391312e+01 -1.172914813316e+01 0.0 
3.250948774219e+01 -1.120157009348e+01 0.0 
2.032993445717e+01 -8.867880112202e+00 0.0 
2.697226974856e+01 -7.536633082045e+00 0.0 
2.707377810386e+01 -6.590835263295e+00 0.0 
2.914099246827e+01 -1.191678458549e+01 0.0 
3.544824072239e+01 -1.621126558525e+01 0.0 
3.456511855436e+01 -1.665054783843e+01 0.0 
3.448395810225e+01 -1.759117813016e+01 0.0 
3.368378673938e+01 -1.708037781328e+01 0.0 
3.375560452567e+01 -1.610973066913e+01 0.0 
3.288001547988e+01 -1.654324255651e+01 0.0 
3.282475929147e+01 -1.749725654692e+01 0.0 
3.199880906313e+01 -1.697294088625e+01 0.0 
3.197001272932e+01 -1.811667776864e+01 0.0 
3.111884713021e+01 -1.742166785755e+01 0.0 
3.120418962865e+01 -1.642155709385e+01 0.0 
3.034666704371e+01 -1.683123833816e+01 0.0 
3.026224379976e+01 -1.772592851714e+01 0.0 
3.046632362943e+01 -1.582232843075e+01 0.0 
1.961344017324e+01 -1.857459447985e+01 0.0 
2.274975894774e+01 -9.532738811922e+00 0.0 
1.833923246887e+01 -2.396746883672e+00 0.0 
1.988859500848e+01 -2.249244376594e+00 0.0 
2.758045562861e+01 -1.086434261689e+01 0.0 
3.247300178163e+01 -1.909930104252e+01 0.0 
3.461947482503e+01 -1.911879848019e+01 0.0 
2.047161538662e+01 -6.941478180358e+00 0.0 
2.750230940214e+01 -1.915490590764e+01 0.0 
3.165081350803e+01 -1.161860780120e+01 0.0 
1.897456727641e+01 -4.889634688522e+00 0.0 
2.549338539756e+01 -1.914858252089e+01 0.0 
3.462873135081e+01 -1.567482276144e+01 0.0 
3.384432415243e+01 -1.512280684518e+01 0.0 
3.471433767690e+01 -1.469086942990e+01 0.0 
3.651470373046e+01 -1.918207952149e+01 0.0 
3.901742690249e+01 -1.345028556517e+01 0.0 
2.153224102692e+01 -1.920169709333e+01 0.0 
1.918382939341e+01 -1.316226275662e+01 0.0 
2.005389162382e+01 -1.271962165174e+01 0.0 
2.011472087878e+01 -1.175029352900e+01 0.0 
3.210679478412e+01 -1.598038618242e+01 0.0 
1.752175226543e+01 -1.914713022656e+01 0.0 
1.696897240059e+01 -1.832772588765e+01 0.0 
1.599682523337e+01 -1.832599992024e+01 0.0 
1.644507199462e+01 -1.743697981535e+01 0.0 
1.549987712903e+01 -1.915192375101e+01 0.0 
3.050250861901e+01 -1.918943550234e+01 0.0 
2.949944061527e+01 -1.922950455235e+01 0.0 
1.375892575273e+01 -6.447160534926e+00 0.0 
1.457223670180e+01 -7.006709243857e+00 0.0 
1.450818793236e+01 -7.965943451779e+00 0.0 
1.538804712402e+01 -7.553409623699e+00 0.0 
1.545817644768e+01 -6.580929593419e+00 0.0 
1.626506893751e+01 -7.129032608911e+00 0.0 
1.619833811522e+01 -8.086588580887e+00 0.0 
1.714448609609e+01 -6.697429609777e+00 0.0 
2.887616543568e+01 -1.668015232137e+01 0.0 
1.349814589130e+01 -1.918225301544e+01 0.0 
1.153887772210e+01 -1.311384581217e+01 0.0 
1.242708159886e+01 -1.267046795531e+01 0.0 
1.249799674267e+01 -1.169005616014e+01 0.0 
6.631723893693e+00 -9.774184881867e+00 0.0 
7.451471631867e+00 -1.033148796006e+01 0.0 
7.377795355458e+00 -1.132196345268e+01 0.0 
5.810931797536e+00 -9.211654212252e+00 0.0 
2.402683899133e+01 -1.441378562320e+01 0.0 
1.249768692036e+01 -1.917388426624e+01 0.0 
1.580373499437e+01 -1.290751860664e+01 0.0 
8.344650507834e+00 -9.898403995170e+00 0.0 
3.750622115305e+01 -1.086526401533e+01 0.0 
3.699391251667e+01 -1.171695900794e+01 0.0 
3.606517829518e+01 -1.173717504500e+01 0.0 
3.650257641795e+01 -1.270047380221e+01 0.0 
3.808951488918e+01 -1.183518714175e+01 0.0 
4.760380962420e+00 -1.162484888315e+01 0.0 
3.861210370848e+00 -1.205657631736e+01 0.0 
3.038284309476e+00 -1.149851280664e+01 0.0 
2.961598794889e+00 -1.248856794980e+01 0.0 
2.138953225512e+00 -1.193212674534e+01 0.0 
2.227383593457e+00 -1.096258903918e+01 0.0 
2.043265419276e+00 -1.292158472959e+01 0.0 
1.252449446028e+00 -1.225502002753e+01 0.0 
3.949985210740e+01 -1.086594001795e+01 0.0 
1.453499444792e+01 -8.768805922472e-01 0.0 
1.403518950933e+01 -1.749965556633e+00 0.0 
1.300715031023e+01 -1.714737233040e+00 0.0 
1.350929389899e+01 -2.527443911291e+00 0.0 
1.449600910711e+01 -2.595486162864e+00 0.0 
1.395693872901e+01 -3.484211041558e+00 0.0 
1.495105865208e+01 -3.364609636216e+00 0.0 
1.508822528740e+01 -1.766586020494e+00 0.0 
1.250223858430e+01 -8.634590186802e-01 0.0 
1.200279523409e+01 -1.709044504992e+00 0.0 
1.150086239419e+01 -8.592789190668e-01 0.0 
1.101482754194e+01 -1.677730591922e+00 0.0 
1.148018564526e+01 -2.659323866909e+00 0.0 
8.800552119754e+00 -3.989875954728e+00 0.0 
3.452790439430e+00 -1.901136170646e+01 0.0 
8.658451825200e-01 -9.503462241795e+00 0.0 
1.694787786797e+00 -9.000589234502e+00 0.0 
1.703436717094e+00 -8.038819004041e+00 0.0 
2.594197971110e+00 -8.563955242845e+00 0.0 
1.630513735412e+00 -9.907244747511e+00 0.0 
8.566859292791e-01 -7.512203837972e+00 0.0 
1.685461277022e+00 -7.164280248030e+00 0.0 
2.506394468801e+00 -8.623386730818e-01 0.0 
2.007475081581e+00 -1.727729545205e+00 0.0 
9.211534699767e-01 -1.628791366312e+00 0.0 
1.500000000020e+00 -2.598063549486e+00 0.0 
2.482078929963e+00 -2.553580088725e+00 0.0 
2.999795253092e+00 -1.732169015019e+00 0.0 
3.999712607169e+00 -1.728832897453e+00 0.0 
4.499752199340e+00 -8.656478679175e-01 0.0 
4.964377774841e+00 -1.730129617941e+00 0.0 
4.425017908337e+00 -2.597541756243e+00 0.0 
5.446573195014e+00 -8.410144840023e-01 0.0 
4.915722346614e+01 -1.550640962770e+01 0.0 
4.826794919243e+01 -1.600000000000e+01 0.0 
1.053139533193e+01 -1.911782884365e+01 0.0 
4.156049861949e+01 -1.095160998589e+01 0.0 
9.494526624416e+00 -8.650570090219e-01 0.0 
4.555762166964e+01 -1.897098103585e+01 0.0 
4.250656411371e+01 -1.914387356218e+01 0.0 
4.350906466345e+01 -1.917234727395e+01 0.0 
8.759665722424e-01 -1.746422130609e+01 0.0 
1.698936011838e+00 -1.795012186674e+01 0.0 
4.742476811029e+01 -1.900090177972e+01 0.0 
7.749196752349e+00 -6.368049313489e+00 0.0 
3.361572113416e+01 -1.798765193915e+01 0.0 
4.484660149212e+01 -1.728661231383e+01 0.0 
1.984038172228e+01 -4.502575320116e+00 0.0 
1.035080352627e+01 -6.166639575753e+00 0.0 
2.753558010652e+00 -1.444909521181e+01 0.0 
7.217069543032e+00 -1.328635391078e+01 0.0 
4.364336727739e+00 -1.655585677381e+01 0.0 
4.595208426108e+00 -1.357919665443e+01 0.0 
6.164967006980e+00 -1.569873454630e+01 0.0 
1.487855768353e+01 -1.826523774028e+01 0.0 
2.791876456372e+00 -4.019632415181e+00 0.0 
4.246464893515e+01 -1.364898659620e+01 0.0 
4.503855590351e+01 -1.329552780944e+01 0.0 
4.407239109604e+01 -1.573900004093e+01 0.0 
5.141054449252e+00 -6.664290382472e+00 0.0 
3.141083947149e+00 -1.055790764912e+01 0.0 
6.196463198741e+00 -4.256497932609e+00 0.0 
2.599618716181e+01 -1.836893455464e+01 0.0 
2.923057372337e+01 -1.098461757645e+01 0.0 
1.168343877486e+01 -1.114079645041e+01 0.0 
6.706222096238e+00 -8.780364234441e+00 0.0 
8.567858614669e+00 -6.943121440850e+00 0.0 
1.123755132901e+01 -5.753525820030e+00 0.0 
2.353456234423e+01 -1.008536320953e+01 0.0 
9.162073319168e+00 -1.045593739109e+01 0.0 
9.676343469685e+00 -1.496493008366e+01 0.0 
4.490637882905e+01 -1.628778970202e+01 0.0 
7.398129387772e+00 -9.639977982323e-01 0.0 
1.049641705805e+01 -1.552503975272e+01 0.0 
9.010356286268e+00 -1.242805042052e+01 0.0 
3.985573925497e+01 -1.399863651620e+01 0.0 
1.816196318262e+01 -1.554066497931e+01 0.0 
1.306332244168e+01 -3.963646550326e+00 0.0 
4.145850903932e+01 -1.608094559275e+01 0.0 
3.794664933633e+01 -1.779020121986e+01 0.0 
3.819614412903e+01 -1.290749321016e+01 0.0 
6.270014188119e+00 -3.255093186826e+00 0.0 
4.251165370388e+01 -1.263870364997e+01 0.0 
1.207347709171e+01 -1.763942826023e+01 0.0 
3.633240829927e+01 -1.577330481104e+01 0.0 
4.319052668832e+00 -6.101812561904e+00 0.0 
1.676492415806e+01 -1.151547901392e+01 0.0 
2.594059220037e+01 -1.074225223009e+01 0.0 
3.340750911501e+01 -9.898764354137e+00 0.0 
4.397619591281e+01 -1.769773736461e+01 0.0 
2.175611595028e+01 -1.185718747128e+01 0.0 
1.641818733106e+01 -1.640685203215e+01 0.0 
1.661211421753e+01 -1.346121366338e+01 0.0 
3.428853504935e+00 -6.551993389271e+00 0.0 
8.700728832502e+00 -1.638460872825e+01 0.0 
1.931369795309e+01 -1.121629383702e+01 0.0 
4.139798872363e+01 -1.706922153459e+01 0.0 
2.647837478700e+01 -1.507353829290e+01 0.0 
1.779469616424e+01 -9.161615782908e+00 0.0 
3.885879219319e+01 -1.642026488918e+01 0.0 
1.338194936770e+01 -1.125916521471e+01 0.0 
1.897071181111e+01 -1.609204322578e+01 0.0 
2.844308548793e+01 -1.046221003096e+01 0.0 
2.659854702194e+01 -1.316109415760e+01 0.0 
2.979604503271e+01 -1.433296157755e+01 0.0 
2.417694041347e+01 -1.251231397779e+01 0.0 
1.807401327411e+00 -1.388891148480e+01 0.0 
9.599810618782e+00 -1.595439365034e+01 0.0 
1.652144692160e+01 -4.205392788472e+00 0.0 
2.367839450246e+01 -8.188385218643e+00 0.0 
3.814894930468e+01 -1.390748338767e+01 0.0 
2.466448215774e+01 -1.685878545680e+01 0.0 
4.134044524611e+01 -1.806610045954e+01 0.0 
2.600511411958e+01 -9.801774120648e+00 0.0 
7.882158050716e+00 -1.582364037353e+01 0.0 
3.881607873422e+01 -1.737970515013e+01 0.0 
8.270182347708e+00 -1.088622154920e+01 0.0 
8.672520392520e-01 -4.532984309881e+00 0.0 
1.993447205337e+01 -3.579061902667e+00 0.0 
1.794616079549e+01 -7.238038888498e+00 0.0 
2.097277068165e+01 -1.132450168636e+01 0.0 
8.194803300681e+00 -1.187214224265e+01 0.0 
3.522279404911e+01 -1.823342818178e+01 0.0 
6.984481050295e+00 -1.625271465557e+01 0.0 
1.309433007797e+01 -1.521718594215e+01 0.0 
2.150246167611e+01 -1.885399038185e+00 0.0 
3.250689370209e+01 -1.028789870535e+01 0.0 
6.085886272238e+00 -1.668342132851e+01 0.0 
1.588455661727e+01 -1.193498985921e+01 0.0 
1.809323400821e+01 -1.651110084195e+01 0.0 
1.348885082381e+00 -1.136065576512e+01 0.0 
2.497670221995e+01 -1.834631276173e+01 0.0 
2.937062818424e+01 -8.233711194470e+00 0.0 
5.185823744469e+00 -1.711566910207e+01 0.0 
1.477497877209e+01 -1.530177014512e+01 0.0 
2.125346158933e+01 -7.473003997367e+00 0.0 
4.751561118290e+01 -1.084897772632e+01 0.0 
5.056026576843e+00 -1.825750475525e+01 0.0 
1.473948554523e+01 -1.634577436309e+01 0.0 
2.410566630936e+01 -1.345970002612e+01 0.0 
1.507337507513e+01 -1.138527895328e+01 0.0 
3.189857338687e+01 -8.887781229006e+00 0.0 
7.298712468334e+00 -1.230231046246e+01 0.0 
2.738235495295e+01 -1.368931690364e+01 0.0 
3.750141041969e+01 -1.920449893070e+01 0.0 
1.557271965640e+01 -1.683317951731e+01 0.0 
3.393731848929e+01 -1.413034777044e+01 0.0 
6.482156824153e+00 -1.174575135362e+01 0.0 
2.077971718439e+01 -1.421279621836e+01 0.0 
3.455084320178e+00 -2.562590040585e+00 0.0 
3.099056096250e+01 -9.270280416035e+00 0.0 
5.580176125418e+00 -1.217387969259e+01 0.0 
1.707247630389e+01 -7.660651981710e+00 0.0 
1.418658814174e+01 -1.180390575393e+01 0.0 
2.049103025389e+01 -1.811296706038e+01 0.0 
4.680386172316e+00 -1.260396879301e+01 0.0 
1.699679896554e+01 -8.624561788199e+00 0.0 
3.779470168555e+00 -1.303424899720e+01 0.0 
3.036589870126e+01 -7.879832518349e+00 0.0 
3.306993001774e+01 -1.457671062095e+01 0.0 
2.840150110165e+00 -1.346530088269e+01 0.0 
2.732011135052e+01 -1.464591214560e+01 0.0 
5.423639259568e+00 -2.659711955016e+00 0.0 
2.324455961696e+01 -1.387269388211e+01 0.0 
1.752768355571e+00 -1.693128613594e+01 0.0 
1.020244783051e+01 -8.076834012808e+00 0.0 
1.330873875224e+01 -1.222417528206e+01 0.0 
3.297727364880e+01 -1.555480372087e+01 0.0 
2.890929955439e+01 -6.868664170731e+00 0.0 
1.323294664622e+01 -1.320754260334e+01 0.0 
2.726532861246e+01 -1.560593120806e+01 0.0 
2.240020643398e+01 -1.429299177247e+01 0.0 
2.090445823633e+01 -1.228128621332e+01 0.0 
1.315809881502e+01 -1.420739326938e+01 0.0 
2.781328038068e+01 -7.181956082300e+00 0.0 
8.614200829057e+00 -5.936933226306e+00 0.0 
8.714765730069e+00 -4.979270529687e+00 0.0 
1.611881701099e+01 -9.041973294003e+00 0.0 
2.806830314340e+01 -1.614622947108e+01 0.0 
2.084435391396e+00 -3.385085422913e+00 0.0 
3.133211811152e+01 -1.542347619750e+01 0.0 
9.693114650768e+00 -3.590281506442e+00 0.0 
1.531883592202e+01 -8.504584946143e+00 0.0 
2.151589117094e+01 -1.578915763018e+01 0.0 
4.918943882696e+01 -1.355538828056e+01 0.0 
1.443236615188e+01 -8.918701794549e+00 0.0 
8.276250966452e-01 -5.537685192197e+00 0.0 
1.362790867918e+01 -8.374718262212e+00 0.0 
2.083767477370e+01 -1.324843956035e+01 0.0 
1.273834678703e+01 -8.790890389337e+00 0.0 
1.192275845670e+01 -8.242261327467e+00 0.0 
4.477236023583e+01 -1.824312396664e+01 0.0 
1.102989384254e+01 -8.649855800911e+00 0.0 
4.849096516045e+01 -1.917293752213e+01 0.0 
1.588996752238e+00 -1.910230934687e+01 0.0 
4.904245197583e+01 -1.159839008158e+01 0.0 
2.753852929608e+01 -5.782128488093e+00 0.0 
1.756133602833e+01 -8.306130313187e-01 0.0 
2.615423700951e+01 -6.153865090092e+00 0.0 
1.028818761294e+01 -7.122020845892e+00 0.0 
2.970818901196e+01 -1.527821347593e+01 0.0 
4.801461623449e+01 -1.164472570985e+01 0.0 
9.455722100419e+00 -6.546069291118e+00 0.0 
3.089099236677e+01 -1.835339328261e+01 0.0 
2.350000000013e+01 -1.920825896750e+01 0.0 
4.830620531887e+01 -1.506626155470e+01 0.0 
1.725381944701e+01 -1.688794487850e+01 0.0 
2.156246225273e+01 -1.475893794002e+01 0.0 
4.919319648787e+01 -1.742767505896e+01 0.0 
4.437935623576e+01 -1.077662927266e+01 0.0 
1.001520521978e+01 -1.652692675208e+00 0.0 
9.067160240050e-01 -1.441937727541e+01 0.0 
2.603365149390e+01 -4.755996613848e+00 0.0 
2.458344439002e+01 -4.873645517696e+00 0.0 
2.304312390142e+01 -3.836552768096e+00 0.0 
2.546923202198e+00 -6.902480355749e+00 0.0 
1.251534969393e+01 -2.490989965776e+00 0.0 
2.454061833377e+01 -3.933354231935e+00 0.0 
1.788186558740e+01 -1.827424884923e+01 0.0 
4.090785243552e+01 -1.166553231904e+01 0.0 
2.230128851568e+01 -1.623015738726e+01 0.0 
2.302362347568e+01 -2.916239960270e+00 0.0 
3.878119254461e+01 -1.830091164002e+01 0.0 
2.210081359958e+01 -1.829238229150e+01 0.0 
8.443704882233e+00 -1.921993252862e+01 0.0 
2.218405824691e+01 -1.724557581508e+01 0.0 
2.151157503963e+01 -2.790636689331e+00 0.0 
3.741658958955e+01 -1.250400191722e+01 0.0 
2.697247663737e+01 -1.838290202309e+01 0.0 
4.743362342862e+01 -1.585850773010e+01 0.0 
6.671345075358e+00 -1.924977576322e+01 0.0 
3.900825404537e+01 -1.157220003875e+01 0.0 
4.649692961375e+01 -1.836335837481e+01 0.0 
1.578831424832e+01 -3.678284023361e+00 0.0 
4.814208768888e+01 -1.841249298770e+01 0.0 
2.964123298315e+01 -1.625739458193e+01 0.0 
4.580760351902e+01 -1.284294554687e+01 0.0 
3.561520879615e+01 -1.245548941949e+01 0.0 
2.555418095658e+00 -1.841101588290e+01 0.0 
3.288468366144e+01 -1.834258164109e+01 0.0 
2.065894391445e+01 -2.240688571739e+00 0.0 
4.739171429915e+01 -1.496536413446e+01 0.0 
3.478086729185e+00 -8.576434653209e+00 0.0 
1.606010630246e+01 -1.588421807951e+00 0.0 
1.018329200594e+01 -1.834320874317e+01 0.0 
2.957213339430e+01 -1.720496954591e+01 0.0 
4.142712790164e+00 -1.837794506222e+01 0.0 
6.698721532573e-01 -2.499999999997e+00 0.0 
8.037039123140e+00 -1.571229354954e+00 0.0 
1.203541361428e+01 -1.847784298001e+01 0.0 
2.899968332038e+01 -1.848264722179e+01 0.0 
1.469229460948e+01 -4.219485753730e+00 0.0 
4.049590781957e+01 -1.932812501995e+01 0.0 
1.996211678340e+01 -1.506329754720e+00 0.0 
4.250588298353e+01 -1.067383247529e+01 0.0 
5.831497011152e+00 -1.635396227234e+00 0.0 
5.317606125670e+00 -1.923927974868e+01 0.0 
4.208546426993e+01 -1.842830665025e+01 0.0 
2.327553405011e+00 -9.459409929662e+00 0.0 
3.568351902251e+01 -1.096637218582e+01 0.0 
1.682104374890e+00 -6.231413350963e+00 0.0 
2.451812238018e+01 -1.766524914339e+01 0.0 
1.058003429638e+01 -2.391839617098e+00 0.0 
4.399988753123e+01 -1.851998776342e+01 0.0 
1.400000000010e+01 -1.852293523028e+01 0.0 
3.604719565984e+01 -1.850662876800e+01 0.0 
1.951297136734e+01 -1.938092349694e+01 0.0 
1.821365318472e+01 -1.531276353287e+00 0.0 
2.298031859732e+01 -1.854635324722e+01 0.0 
1.552168066204e+01 -1.764280741977e+01 0.0 
4.572957713638e+01 -1.073347898229e+01 0.0 
3.429637429624e+01 -1.838861552790e+01 0.0 
2.427434426052e+00 -7.705577451869e+00 0.0 
4.662792031485e+00 -3.359424455416e+00 0.0 
4.926794919243e+01 -1.926794919243e+01 0.0 
7.320508075690e-01 -7.320508075688e-01 0.0 
4.926794919243e+01 -1.073205080757e+01 0.0 
7.320508075705e-01 -1.926794919243e+01 0.0 
2.917460242467e+00 -3.202866455310e+00 0.0 
4.838200575963e+01 -1.232674147454e+01 0.0 
2.998445708009e+01 -1.854403752148e+01 0.0 
5.949940090766e-01 -1.152762038165e+01 0.0 
4.844763495759e+01 -1.678092548787e+01 0.0 
1.301685480160e+01 -3.170056592566e+00 0.0 
1.650046335855e+01 -6.731535384067e-01 0.0 
4.854881540991e+01 -1.405224059779e+01 0.0 
2.119545114693e+01 -1.846813384545e+01 0.0 
3.797852849897e+01 -1.857978513215e+01 0.0 
4.649823708745e+01 -1.338351810816e+01 0.0 
2.012685900976e+01 -2.889659035009e+00 0.0 
2.953271913273e+01 -1.791558075192e+01 0.0 
2.408509097292e+00 -1.021949208421e+01 0.0 
2.642589566221e+01 -1.773216561448e+01 0.0 
1.730010270775e+01 -1.763165076721e+01 0.0 
2.017406551304e+01 -8.513536440582e-01 0.0 
5.254761581934e-01 -1.249999999999e+01 0.0 
6.640448215642e+00 -1.545337834885e+00 0.0 
7.843361506349e+00 -1.852719839527e+01 0.0 
1.588442191088e+00 -1.066158564320e+01 0.0 
2.880770112393e+01 -5.415638864241e+00 0.0 
4.951086956522e+01 -5.500000000000e+00 0.0 
3.031250000000e+01 -6.420918367347e+00 0.0 
4.951250000000e+01 -6.500000000000e+00 0.0 
3.180701530612e+01 -7.414795918363e+00 0.0 
4.951250000000e+01 -7.500000000000e+00 0.0 
3.331250000000e+01 -8.420918367347e+00 0.0 
4.951470588234e+01 -8.500000000000e+00 0.0 
3.480610198624e+01 -9.413633635267e+00 0.0 
4.951470588234e+01 -9.500000000000e+00 0.0 

SCALARS node_number int
LOOKUP_TABLE default
1
2
3
4
5
6
7
8
9
10
11
12
13
14
15
16
17
18
19
20
21
22
23
24
25
26
27
28
29
30
31
32
33
34
35
36
37
38
39
40
41
42
43
44
45
46
47
48
49
50
51
52
53
54
55
56
57
58
59
60
61
62
63
64
65
66
67
68
69
70
71
72
73
74
75
76
77
78
79
80
81
82
84
85
86
87
88
89
90
91
92
93
98
99
100
101
102
104
105
106
107
108
109
110
111
112
113
114
115
116
117
118
119
120
121
122
123
124
125
126
127
128
129
130
131
132
133
134
135
136
268
269
270
271
272
273
274
275
276
277
278
279
280
281
282
283
284
285
286
287
288
289
290
291
292
293
294
295
296
297
298
299
300
301
302
303
304
305
306
307
308
309
310
311
312
313
314
315
316
317
318
319
320
321
322
323
324
325
326
327
328
329
330
331
332
333
334
335
336
337
338
339
340
341
342
343
344
345
346
347
348
349
350
351
352
353
354
355
356
357
358
359
360
361
362
363
364
365
366
367
368
369
370
371
372
373
374
375
376
377
378
379
380
381
382
383
384
385
386
387
388
389
390
391
392
393
394
395
396
397
398
399
400
401
402
403
404
405
406
407
408
409
410
411
412
413
414
415
416
417
418
419
420
421
422
423
424
425
426
427
428
429
430
431
432
433
434
435
436
437
438
439
440
441
442
443
444
445
446
447
448
449
450
451
452
453
454
455
456
457
458
459
460
461
462
463
464
465
466
467
468
469
470
471
472
473
474
475
476
477
478
479
480
481
482
483
484
485
486
487
488
489
490
491
492
493
494
495
496
497
498
499
500
501
502
503
504
505
506
507
508
509
510
511
512
513
514
515
516
517
518
519
520
521
522
523
524
525
526
527
528
529
530
531
532
533
534
535
536
537
538
539
540
541
542
543
544
545
546
547
548
549
550
551
552
553
554
555
556
557
558
559
560
561
562
563
564
565
566
567
568
569
570
571
572
573
574
575
576
577
578
579
580
581
582
583
584
585
586
587
588
589
590
591
592
593
594
595
596
597
598
599
600
601
602
603
604
605
606
607
608
609
610
611
612
613
614
615
616
617
618
619
620
621
622
623
624
625
626
627
628
629
630
631
632
633
634
635
636
637
638
639
640
641
642
643
644
645
646
647
648
649
650
651
652
653
654
655
656
657
658
659
660
661
662
663
664
665
666
667
668
669
670
671
672
673
674
675
676
677
678
679
680
681
682
683
684
685
686
687
688
689
690
691
692
693
694
695
696
697
698
699
700
701
702
703
704
705
706
707
708
709
710
711
712
713
714
715
716
717
718
719
720
721
722
723
724
725
726
727
728
729
730
731
732
733
734
735
736
737
738
739
740
741
742
743
744
745
746
747
748
749
750
751
752
753
754
755
756
757
758
759
760
761
762
763
764
765
766
767
768
769
770
771
772
773
774
775
776
777
778
779
780
781
782
783
784
785
786
787
788
789
790
791
792
793
794
795
796
797
798
799
800
801
802
803
804
805
806
807
808
809
810
811
812
813
814
815
816
817
818
819
820
821
822
823
824
825
826
827
828
829
830
831
832
833
834
835
836
837
838
839
840
841
842
843
844
845
846
847
848
849
850
851
852
853
854
855
856
857
858
859
860
861
862
863
864
865
866
867
868
869
870
871
872
873
874
875
876
877
878
879
880
881
882
883
884
885
886
887
888
889
890
891
892
893
894
895
896
897
898
899
900
901
902
903
904
905
906
907
908
909
910
911
912
913
914
915
916
917
918
919
920
921
922
923
924
925
926
927
928
929
930
931
932
933
934
935
936
937
938
939
940
941
942
943
944
945
946
947
948
949
950
951
952
953
954
955
956
957
958
959
960
961
962
963
964
965
966
967
968
969
970
971
972
973
974
975
976
977
978
979
980
981
982
983
984
985
986
987
988
989
990
991
992
993
994
995
996
997
998
999
1000
1001
1002
1003
1004
1005
1006
1007
1008
1009
1010
1011
1012
1013
1014
1015
1016
1017
1018
1019
1020
1021
1022
1023
1024
1025
1026
1027
1028
1029
1030
1031
1032
1033
1034
1035
1036
1037
1038
1039
1040
1041
1042
1043
1044
1045
1046
1047
1048
1049
1050
1051
1052
1053
1054
1055
1056
1057
1058
1059
1060
1061
1062
1063
1064
1065
1066
1067
1068
1069
1070
1071
1072
1073
1074
1075
1076
1077
1078
1079
1080
1081
1082
1083
1084
1085
1086
1087
1088
1089
1090
1091
1092
1093
1094
1095
1096
1097
1098
1099
1100
1101
1102
1103
1104
1105
1106
1107
1108
1109
1110
1111
1112
1113
1114
1115
1116
1117
1118
1119
1120
1121
1122
1123
1124
1125
1126
1127
1128
1129
1130
1131
1132
1133
1134
1135
1136
1137
1138
1139
1140
1141
1142
1143
1144
1145
1146
1147
1148
1149
1150
1151
1152
1153
1154
1155
1156
1157
1158
1159
1160
1161
1162
1163
1164
1165
1166
1167
1168
1169
1170
1171
1172
1173
1174
1175
1176
1177
1178
1179
1180
1181
1182
1183
1184
1185
1186
1187
1188
1189
1190
1191
1192
1193
1194
1195
1196
1197
1198
1199
1200
1201
1202
1203
1204
1205
1206
1207
1208
1209
1210
1211
1212
1213
1214
1215
1216
1217
1218
1219
1220
1221
1222
1223
1224
1225
1226
1227
1228
1229
1230
1231
1232
1233
1234
1235
1236
1237
1238
1239
1240
1241
1242
1243
1244
1245
1246
1247
1248
1249
1250
1251
1252
1253
1254
1255
1256
1257
1258
1259
1260
1261
1262
1263
1264
1275
1276
1277
1278
1279
1280
1281
1282
1283
1284

VECTORS node_mesh_deformation float
0.0 7.855864616279e-02 0.0 
0.000000000000e+00 1.120383327071e-01 0.0 
0.0 0.000000000000e+00 0.0 
0.000000000000e+00 0.000000000000e+00 0.0 
0.0 7.845322814766e-02 0.0 
0.0 7.797177754999e-02 0.0 
0.0 7.711641786193e-02 0.0 
0.0 7.588493900088e-02 0.0 
0.0 7.426468135920e-02 0.0 
0.0 7.226291171445e-02 0.0 
0.0 6.987846236326e-02 0.0 
0.0 6.710452557510e-02 0.0 
0.0 6.393665754422e-02 0.0 
0.0 6.036495040730e-02 0.0 
0.0 5.637298181928e-02 0.0 
0.0 5.195044210225e-02 0.0 
0.0 4.709370376797e-02 0.0 
0.0 4.181546283563e-02 0.0 
0.0 3.606515146939e-02 0.0 
0.0 2.984151017872e-02 0.0 
0.0 2.313718071340e-02 0.0 
0.0 1.593108633638e-02 0.0 
0.0 8.209207691738e-03 0.0 
0.000000000000e+00 0.000000000000e+00 0.0 
0.000000000000e+00 0.000000000000e+00 0.0 
0.000000000000e+00 0.000000000000e+00 0.0 
0.000000000000e+00 0.000000000000e+00 0.0 
0.000000000000e+00 0.000000000000e+00 0.0 
0.000000000000e+00 0.000000000000e+00 0.0 
0.000000000000e+00 0.000000000000e+00 0.0 
0.000000000000e+00 0.000000000000e+00 0.0 
0.000000000000e+00 0.000000000000e+00 0.0 
0.000000000000e+00 0.000000000000e+00 0.0 
0.000000000000e+00 0.000000000000e+00 0.0 
0.000000000000e+00 0.000000000000e+00 0.0 
0.000000000000e+00 0.000000000000e+00 0.0 
0.000000000000e+00 0.000000000000e+00 0.0 
0.000000000000e+00 0.000000000000e+00 0.0 
0.000000000000e+00 0.000000000000e+00 0.0 
0.000000000000e+00 0.000000000000e+00 0.0 
0.000000000000e+00 0.000000000000e+00 0.0 
0.000000000000e+00 0.000000000000e+00 0.0 
0.000000000000e+00 0.000000000000e+00 0.0 
0.000000000000e+00 0.000000000000e+00 0.0 
0.000000000000e+00 0.000000000000e+00 0.0 
0.000000000000e+00 0.000000000000e+00 0.0 
0.000000000000e+00 0.000000000000e+00 0.0 
0.000000000000e+00 0.000000000000e+00 0.0 
0.000000000000e+00 0.000000000000e+00 0.0 
0.000000000000e+00 0.000000000000e+00 0.0 
0.000000000000e+00 0.000000000000e+00 0.0 
0.000000000000e+00 0.000000000000e+00 0.0 
0.000000000000e+00 0.000000000000e+00 0.0 
0.000000000000e+00 0.000000000000e+00 0.0 
0.000000000000e+00 0.000000000000e+00 0.0 
0.000000000000e+00 0.000000000000e+00 0.0 
0.000000000000e+00 0.000000000000e+00 0.0 
0.000000000000e+00 0.000000000000e+00 0.0 
0.000000000000e+00 0.000000000000e+00 0.0 
0.000000000000e+00 0.000000000000e+00 0.0 
0.000000000000e+00 0.000000000000e+00 0.0 
0.000000000000e+00 0.000000000000e+00 0.0 
0.000000000000e+00 0.000000000000e+00 0.0 
0.000000000000e+00 0.000000000000e+00 0.0 
0.000000000000e+00 0.000000000000e+00 0.0 
0.000000000000e+00 0.000000000000e+00 0.0 
0.000000000000e+00 0.000000000000e+00 0.0 
0.000000000000e+00 0.000000000000e+00 0.0 
0.000000000000e+00 0.000000000000e+00 0.0 
0.000000000000e+00 0.000000000000e+00 0.0 
0.000000000000e+00 0.000000000000e+00 0.0 
0.000000000000e+00 0.000000000000e+00 0.0 
0.000000000000e+00 1.026441491411e-01 0.0 
0.000000000000e+00 9.283129081021e-02 0.0 
0.000000000000e+00 8.259997958584e-02 0.0 
0.000000000000e+00 7.196728626418e-02 0.0 
0.000000000000e+00 6.092954034062e-02 0.0 
0.000000000000e+00 4.950148888158e-02 0.0 
0.000000000000e+00 3.768778276341e-02 0.0 
0.000000000000e+00 2.549471552278e-02 0.0 
0.000000000000e+00 1.293133088260e-02 0.0 
-9.475615426084e-03 1.012130748463e-01 0.0 
8.458030896769e-03 1.104942582733e-01 0.0 
-6.677724600049e-03 1.089615846155e-01 0.0 
-3.735131533212e-03 1.172595033147e-01 0.0 
-4.166992594499e-04 1.249954343336e-01 0.0 
3.014784405853e-03 1.311704564147e-01 0.0 
5.997874849303e-03 1.347647399172e-01 0.0 
8.264265482193e-03 1.340397069772e-01 0.0 
9.302842573877e-03 1.304542641435e-01 0.0 
9.516111054637e-03 1.250597269272e-01 0.0 
9.173679345494e-03 1.183073603231e-01 0.0 
0.000000000000e+00 1.526095740079e-01 0.0 
0.000000000000e+00 1.453213483760e-01 0.0 
0.000000000000e+00 1.376568045909e-01 0.0 
0.000000000000e+00 1.295325828381e-01 0.0 
0.000000000000e+00 1.210118306008e-01 0.0 
4.766857684331e-04 1.120438078224e-01 0.0 
9.447656839257e-04 1.120595195197e-01 0.0 
1.423731185390e-03 1.120812088818e-01 0.0 
1.910003164461e-03 1.121000708484e-01 0.0 
2.402450991632e-03 1.121282963898e-01 0.0 
2.905844040754e-03 1.121395999421e-01 0.0 
3.425287525943e-03 1.121489031373e-01 0.0 
3.953347989373e-03 1.121334304794e-01 0.0 
4.511314453133e-03 1.121053916679e-01 0.0 
5.093348826506e-03 1.120282327141e-01 0.0 
5.698372602410e-03 1.119005733997e-01 0.0 
6.334396842014e-03 1.117099519225e-01 0.0 
7.002191860700e-03 1.114284401866e-01 0.0 
7.707096770766e-03 1.110280844113e-01 0.0 
-8.636012174314e-03 9.697850634165e-02 0.0 
-7.577971870962e-03 9.348462532678e-02 0.0 
-6.493362630312e-03 9.059811413440e-02 0.0 
-5.468834367404e-03 8.823544664355e-02 0.0 
-4.553509455491e-03 8.631234850100e-02 0.0 
-3.731418526487e-03 8.472582934629e-02 0.0 
-3.004076119959e-03 8.342046534282e-02 0.0 
-2.378268277019e-03 8.235286631977e-02 0.0 
-1.844348020979e-03 8.148656897166e-02 0.0 
-1.395806451713e-03 8.079568490954e-02 0.0 
-1.036600630020e-03 8.023083589024e-02 0.0 
-7.324265458859e-04 7.980170182306e-02 0.0 
-4.811456552840e-04 7.944352364102e-02 0.0 
-3.101611431378e-04 7.915980845801e-02 0.0 
-1.952775298539e-04 7.895266534113e-02 0.0 
-1.090654416260e-04 7.879995691866e-02 0.0 
-4.797529599188e-05 7.868722236560e-02 0.0 
-8.314847482316e-06 7.861253907194e-02 0.0 
-6.602897601127e-06 7.856284563678e-02 0.0 
5.396321677452e-03 1.394019126358e-01 0.0 
5.420439441561e-03 1.426232183483e-01 0.0 
5.430184732774e-03 1.450825505185e-01 0.0 
5.478663290393e-03 1.469955542144e-01 0.0 
5.513918910559e-03 1.484808665020e-01 0.0 
5.514663941881e-03 1.496302820620e-01 0.0 
5.469430546860e-03 1.505134918843e-01 0.0 
5.374374528508e-03 1.511836457596e-01 0.0 
5.229418547707e-03 1.516850245907e-01 0.0 
5.037211472249e-03 1.520524388193e-01 0.0 
4.801550161844e-03 1.523143781108e-01 0.0 
4.526669525745e-03 1.524937814389e-01 0.0 
4.216857237118e-03 1.526096446442e-01 0.0 
3.876479096448e-03 1.526775918323e-01 0.0 
3.509834537738e-03 1.527104265786e-01 0.0 
3.121088470451e-03 1.527186683923e-01 0.0 
2.714272317185e-03 1.527109307001e-01 0.0 
2.293464842111e-03 1.526942539571e-01 0.0 
1.863074870805e-03 1.526741117770e-01 0.0 
1.428256004722e-03 1.526534529483e-01 0.0 
9.944553305985e-04 1.526278898678e-01 0.0 
5.232604445169e-04 1.525894201077e-01 0.0 
4.846040855497e-04 1.453636767404e-01 0.0 
9.629384204288e-04 1.453766364502e-01 0.0 
1.429331550618e-03 1.454021825615e-01 0.0 
1.887324366571e-03 1.454271491621e-01 0.0 
2.338061765428e-03 1.454516597547e-01 0.0 
2.780895775913e-03 1.454726245500e-01 0.0 
3.214321455260e-03 1.454844797253e-01 0.0 
3.636275829571e-03 1.454798813982e-01 0.0 
4.044600262326e-03 1.454492978796e-01 0.0 
4.437341749849e-03 1.453810376172e-01 0.0 
4.812865317838e-03 1.452607162625e-01 0.0 
5.169816426061e-03 1.450708499115e-01 0.0 
5.507358133350e-03 1.447901067575e-01 0.0 
5.825697979155e-03 1.443912061762e-01 0.0 
6.128302103029e-03 1.438416368109e-01 0.0 
6.419525452365e-03 1.430988918506e-01 0.0 
6.711297429021e-03 1.421151680019e-01 0.0 
7.013769566903e-03 1.408160083708e-01 0.0 
7.361514982513e-03 1.391386774518e-01 0.0 
7.742184920712e-03 1.369350646100e-01 0.0 
8.686205381853e-03 1.323404103310e-01 0.0 
8.149045725375e-03 1.338109197288e-01 0.0 
7.628055165377e-03 1.349237423943e-01 0.0 
7.149402245091e-03 1.357861386874e-01 0.0 
6.691835039199e-03 1.364282958220e-01 0.0 
6.250319450942e-03 1.369051714357e-01 0.0 
5.814844291315e-03 1.372461517963e-01 0.0 
5.382076024148e-03 1.374844123358e-01 0.0 
4.949228857491e-03 1.376431281039e-01 0.0 
4.514818951662e-03 1.377409904380e-01 0.0 
4.077747945537e-03 1.377932795617e-01 0.0 
3.637077076313e-03 1.378128437803e-01 0.0 
3.193144539850e-03 1.378104878951e-01 0.0 
2.746235549381e-03 1.377946036906e-01 0.0 
2.296317836162e-03 1.377709890258e-01 0.0 
1.842993057707e-03 1.377440687278e-01 0.0 
1.385782974879e-03 1.377160204151e-01 0.0 
9.245357445096e-04 1.376863318167e-01 0.0 
4.619307322073e-04 1.376404116798e-01 0.0 
4.727865925105e-04 1.295676069468e-01 0.0 
9.485240677023e-04 1.295729119769e-01 0.0 
1.424347012517e-03 1.296009335766e-01 0.0 
1.901038813813e-03 1.296298557768e-01 0.0 
2.378181663680e-03 1.296579231350e-01 0.0 
2.857594299783e-03 1.296812355498e-01 0.0 
3.339895039680e-03 1.296953164169e-01 0.0 
3.827500879211e-03 1.296936623352e-01 0.0 
4.319783409855e-03 1.296680608282e-01 0.0 
4.819567832975e-03 1.296038377391e-01 0.0 
5.329899187466e-03 1.294872375929e-01 0.0 
5.852838369805e-03 1.293018789058e-01 0.0 
6.392399554564e-03 1.290255601817e-01 0.0 
6.954142418230e-03 1.286329219200e-01 0.0 
7.539199386002e-03 1.280785163759e-01 0.0 
8.167517192291e-03 1.273413060183e-01 0.0 
8.812880391496e-03 1.263457520395e-01 0.0 
8.457490657761e-03 1.191320336215e-01 0.0 
7.789256144648e-03 1.197772922899e-01 0.0 
7.132661597801e-03 1.202318195748e-01 0.0 
6.515132673378e-03 1.205691538730e-01 0.0 
5.927521191126e-03 1.208054584803e-01 0.0 
5.363917544024e-03 1.209637372596e-01 0.0 
4.821689345405e-03 1.210650057109e-01 0.0 
4.298092240717e-03 1.211192596101e-01 0.0 
3.787643873281e-03 1.211373771821e-01 0.0 
3.291711544023e-03 1.211406359386e-01 0.0 
2.804419121183e-03 1.211265789631e-01 0.0 
2.326748456603e-03 1.211064828631e-01 0.0 
1.853346401781e-03 1.210794075044e-01 0.0 
1.386012091203e-03 1.210544651012e-01 0.0 
9.231741530726e-04 1.210272157538e-01 0.0 
4.590630495400e-04 1.209850587742e-01 0.0 
-8.035241278225e-03 1.049271776686e-01 0.0 
-5.241613481047e-03 1.131150535936e-01 0.0 
-2.086305648383e-03 1.212660561375e-01 0.0 
1.337557805222e-03 1.283450647223e-01 0.0 
4.692127738913e-03 1.334308909342e-01 0.0 
7.376252297188e-03 1.348373610353e-01 0.0 
8.940545327583e-03 1.325043352536e-01 0.0 
9.510512160798e-03 1.279478336635e-01 0.0 
9.416465892436e-03 1.218307753437e-01 0.0 
8.864158453612e-03 1.145180780107e-01 0.0 
-1.332000769420e-03 1.113467313245e-01 0.0 
2.274629025575e-03 7.974674007272e-03 0.0 
-9.458020669317e-04 8.088442410271e-02 0.0 
-3.331878887119e-03 8.692881931128e-02 0.0 
1.493566273231e-03 7.490321831860e-03 0.0 
5.462073699352e-03 1.242157676229e-01 0.0 
4.873595527216e-04 5.835296420658e-02 0.0 
2.790420958593e-03 8.605901817464e-03 0.0 
9.900833125446e-03 1.280475284805e-01 0.0 
2.886297859718e-03 9.101545731383e-03 0.0 
1.059666613663e-02 1.204000811778e-01 0.0 
8.399727705326e-04 6.710879057447e-03 0.0 
-1.064697357585e-04 7.912127903405e-02 0.0 
2.657039270844e-03 9.977122838862e-03 0.0 
9.228320268271e-03 1.061687024673e-01 0.0 
3.290891780382e-04 7.104564770462e-02 0.0 
5.144342107795e-04 4.559759851286e-02 0.0 
2.330031623515e-03 1.087271961218e-02 0.0 
1.560242947832e-03 1.075649151784e-02 0.0 
4.409126985365e-04 1.107152751004e-02 0.0 
8.112873229607e-04 1.198081177683e-02 0.0 
1.093014920599e-03 1.065741759966e-02 0.0 
7.457538517592e-03 1.029042138429e-01 0.0 
4.827000458285e-03 1.035764497210e-01 0.0 
3.153501740329e-03 1.034364620842e-01 0.0 
3.031355064849e-04 6.633240902156e-02 0.0 
5.035682732153e-04 7.199356447728e-03 0.0 
-5.379480407623e-03 9.495720749685e-02 0.0 
4.740621709143e-05 7.862410776560e-02 0.0 
3.585324056165e-04 2.707138278771e-02 0.0 
1.615842104790e-03 1.040205429760e-01 0.0 
1.713705417381e-04 7.657349095467e-02 0.0 
2.173136995836e-03 1.224190482905e-02 0.0 
2.668581239718e-03 8.156721805445e-03 0.0 
2.785901030329e-03 9.418623877195e-03 0.0 
2.727011687593e-03 8.770286063786e-03 0.0 
1.864626334100e-03 7.367296700068e-03 0.0 
-2.136751098242e-03 8.371031901662e-02 0.0 
6.073518230714e-03 1.038870873031e-01 0.0 
1.353927566443e-03 8.416719144979e-03 0.0 
2.222612772016e-04 4.415055609312e-02 0.0 
-4.351571436381e-04 7.979929119347e-02 0.0 
4.347082090781e-04 6.557650742146e-02 0.0 
2.163617442861e-04 9.012970517251e-03 0.0 
8.285611786551e-03 1.272577448128e-01 0.0 
2.076422983752e-03 1.184246953615e-01 0.0 
1.059462845755e-02 1.253257078478e-01 0.0 
1.009013722506e-02 1.139010828634e-01 0.0 
-4.808413222577e-03 1.042046707425e-01 0.0 
3.696762193002e-04 8.654756622257e-02 0.0 
2.322888476711e-04 5.679547070191e-03 0.0 
2.049553222716e-05 7.850744794880e-02 0.0 
1.195595978629e-04 2.020845035607e-02 0.0 
8.814612326837e-03 1.017804810821e-01 0.0 
9.424699670653e-03 9.734170953159e-02 0.0 
8.647708056451e-03 9.347472174698e-02 0.0 
9.362185037332e-03 8.820673569335e-02 0.0 
8.588544488482e-03 8.332219601653e-02 0.0 
9.115157334477e-03 7.847304221625e-02 0.0 
9.976847283141e-03 8.325828921218e-02 0.0 
9.584567963493e-03 7.350732245171e-02 0.0 
1.052025386532e-02 7.827405954193e-02 0.0 
8.231219391590e-03 7.332053327336e-02 0.0 
9.964291237260e-03 6.844071845195e-02 0.0 
1.096806265979e-02 7.317554610233e-02 0.0 
1.023641099992e-02 6.331537021469e-02 0.0 
1.129352923102e-02 6.798756404291e-02 0.0 
1.192506269267e-02 7.759263115888e-02 0.0 
1.229734501377e-02 7.236544028343e-02 0.0 
1.281373436775e-02 8.163196758712e-02 0.0 
1.322152379057e-02 7.633877391206e-02 0.0 
1.251855728396e-02 6.712326566828e-02 0.0 
1.346330514818e-02 7.105065968003e-02 0.0 
1.404412329981e-02 7.989061543576e-02 0.0 
1.428892628212e-02 7.454690682068e-02 0.0 
1.473824657466e-02 8.297485134066e-02 0.0 
1.496829045366e-02 7.755788113800e-02 0.0 
1.528092933121e-02 8.558086318295e-02 0.0 
1.547908264561e-02 8.010549039814e-02 0.0 
1.500086201959e-02 7.223734524714e-02 0.0 
1.547583616458e-02 7.478695786219e-02 0.0 
1.579165472866e-02 8.217071403070e-02 0.0 
1.574531239944e-02 7.688437194934e-02 0.0 
1.588282150290e-02 8.376560436219e-02 0.0 
1.579166471080e-02 7.854268642891e-02 0.0 
1.551324015597e-02 7.180120778813e-02 0.0 
1.552332625545e-02 7.357332032045e-02 0.0 
1.560422434300e-02 7.980558450609e-02 0.0 
1.530791381407e-02 7.498642674173e-02 0.0 
1.518128975110e-02 8.071183733291e-02 0.0 
1.487150958880e-02 7.607501284692e-02 0.0 
1.453348056654e-02 8.129674930376e-02 0.0 
1.422256167757e-02 7.688467029964e-02 0.0 
1.442815721451e-02 7.167943223211e-02 0.0 
1.378925149180e-02 7.271007043897e-02 0.0 
1.337997469077e-02 7.747184306022e-02 0.0 
1.297481633978e-02 7.355221421373e-02 0.0 
1.324909803389e-02 6.879611833429e-02 0.0 
1.247024466010e-02 6.989730519783e-02 0.0 
1.261849984218e-02 6.511500631655e-02 0.0 
1.188275768065e-02 6.646643479305e-02 0.0 
1.156629165373e-02 7.083095813380e-02 0.0 
1.103180617924e-02 6.765145188934e-02 0.0 
1.122871459136e-02 6.321938743059e-02 0.0 
1.043137157505e-02 6.467229650570e-02 0.0 
1.008692392756e-02 6.874557497302e-02 0.0 
9.557104037315e-03 6.598613432495e-02 0.0 
9.785044830146e-03 6.182016927863e-02 0.0 
8.973468776736e-03 6.337453022165e-02 0.0 
8.629157249667e-03 6.721988232426e-02 0.0 
8.116898162426e-03 6.482118949952e-02 0.0 
8.356976823428e-03 6.082190370867e-02 0.0 
7.562226957727e-03 6.251189529413e-02 0.0 
7.233502874422e-03 6.620162032818e-02 0.0 
6.749196488961e-03 6.408478095439e-02 0.0 
6.979795835138e-03 6.022643357243e-02 0.0 
6.227027572208e-03 6.201921387394e-02 0.0 
6.370323207712e-03 5.798038839503e-02 0.0 
5.920279552580e-03 6.561877313064e-02 0.0 
5.466392575137e-03 6.372460702170e-02 0.0 
5.102661445930e-03 6.710301800087e-02 0.0 
4.715415799764e-03 6.535353343628e-02 0.0 
1.511355661660e-02 6.693177070253e-02 0.0 
4.325995562557e-03 6.849405300991e-02 0.0 
4.618888263062e-03 7.003963266801e-02 0.0 
3.992193026651e-03 6.690265705388e-02 0.0 
4.286969777778e-03 6.359698425014e-02 0.0 
3.592885453479e-03 6.981073231582e-02 0.0 
3.307479314130e-03 6.836788697918e-02 0.0 
2.915837427858e-03 7.105292886990e-02 0.0 
1.467054960039e-02 8.620922070249e-02 0.0 
1.257073626318e-02 6.189005161541e-02 0.0 
2.672184700172e-03 6.975094286264e-02 0.0 
2.305419521816e-03 7.221757616560e-02 0.0 
2.452545895241e-03 7.335977807703e-02 0.0 
1.883924097510e-03 7.430801205706e-02 0.0 
7.769640487346e-03 7.829025757204e-02 0.0 
7.323783129287e-03 6.792606878430e-02 0.0 
6.939205430029e-03 7.299672497255e-02 0.0 
6.406095828453e-03 6.235660400261e-02 0.0 
6.096187578088e-03 6.743181071411e-02 0.0 
1.765313000747e-03 7.330088396092e-02 0.0 
9.139584386318e-03 5.808430501139e-02 0.0 
6.649254562795e-03 5.712903841130e-02 0.0 
1.431195345105e-02 8.845329366144e-02 0.0 
1.577685373557e-02 8.922927383929e-02 0.0 
1.320618747553e-02 6.358614600826e-02 0.0 
2.973627053802e-03 6.690114436336e-02 0.0 
2.375132776913e-03 6.842029703207e-02 0.0 
2.598116370725e-03 6.540131019882e-02 0.0 
7.032757941047e-03 5.591312268374e-02 0.0 
6.344973831281e-03 5.350522806195e-02 0.0 
6.898630155421e-03 5.114478608608e-02 0.0 
6.147547901630e-03 4.858124669050e-02 0.0 
6.574782066815e-03 4.591881900687e-02 0.0 
5.777219000043e-03 4.319783207793e-02 0.0 
5.404234454520e-03 4.602225488686e-02 0.0 
5.001058061843e-03 4.046913178082e-02 0.0 
4.676789052668e-03 4.344997745840e-02 0.0 
6.061482121213e-03 4.022843098166e-02 0.0 
6.913268479769e-03 4.310979932018e-02 0.0 
4.254476851187e-03 3.772256566103e-02 0.0 
3.972878472013e-03 4.084751354370e-02 0.0 
3.544928932395e-03 3.493964545161e-02 0.0 
3.300126937316e-03 3.820486426329e-02 0.0 
3.617755243600e-03 4.383777044337e-02 0.0 
2.979599685528e-03 4.133333464956e-02 0.0 
3.205308195921e-03 4.669579504061e-02 0.0 
1.246281793044e-02 5.987577691810e-02 0.0 
1.285229082206e-02 5.791121559542e-02 0.0 
1.200680268614e-02 5.417337184462e-02 0.0 
1.218769998179e-02 5.177119966124e-02 0.0 
1.125148933497e-02 4.800183285529e-02 0.0 
1.121447829487e-02 4.516866408795e-02 0.0 
1.019610954937e-02 4.135788584946e-02 0.0 
1.026949663963e-02 4.437372657005e-02 0.0 
1.039097832716e-02 5.809241072077e-02 0.0 
1.237307466453e-02 7.786193361001e-02 0.0 
1.262207831566e-02 8.179208994759e-02 0.0 
1.143233651889e-02 8.173738494425e-02 0.0 
1.149977968329e-02 8.566361865989e-02 0.0 
1.014124051283e-02 8.517061993598e-02 0.0 
9.995354989794e-03 8.910923666086e-02 0.0 
8.483401254068e-03 8.819522552286e-02 0.0 
8.713108220366e-03 8.459930578222e-02 0.0 
6.937602943562e-03 8.724652790990e-02 0.0 
7.257264498516e-03 8.401076074844e-02 0.0 
5.413099914552e-03 8.630754089250e-02 0.0 
5.817144273838e-03 8.345252796599e-02 0.0 
1.484213550633e-02 6.705728466418e-02 0.0 
1.217824435091e-02 4.911438047716e-02 0.0 
1.097889981164e-02 4.206683941085e-02 0.0 
1.196344059428e-02 4.617203626129e-02 0.0 
1.932504709831e-03 7.529354325928e-02 0.0 
2.664653131161e-03 3.550981799310e-02 0.0 
6.236934711799e-03 3.709665502173e-02 0.0 
7.144885840026e-03 4.019066405669e-02 0.0 
9.143967905416e-03 3.766586191613e-02 0.0 
1.397216846839e-03 7.517716702126e-02 0.0 
8.093846114988e-03 9.215202458378e-02 0.0 
9.668217924759e-03 9.344439053852e-02 0.0 
5.500602770695e-03 5.651434606796e-02 0.0 
5.265601563138e-03 6.164553691511e-02 0.0 
6.283020405473e-03 3.379640632101e-02 0.0 
1.298622025045e-03 7.429680238236e-02 0.0 
4.444580610704e-03 3.445280227909e-02 0.0 
4.828043350365e-03 8.950485521411e-02 0.0 
2.371640838474e-03 3.877615599604e-02 0.0 
2.072279819122e-03 3.275886902815e-02 0.0 
4.962193962035e-03 4.869981502890e-02 0.0 
1.053341709203e-02 3.866973068668e-02 0.0 
1.156029170213e-02 4.303908440823e-02 0.0 
7.441601603144e-03 8.106778164680e-02 0.0 
6.083424096598e-03 8.086625865374e-02 0.0 
4.441826474261e-03 8.294341868384e-02 0.0 
4.835991175016e-03 8.058808283322e-02 0.0 
6.235343130513e-03 7.845995602975e-02 0.0 
5.034611814636e-03 7.856913083468e-02 0.0 
3.652090204975e-03 8.044614839683e-02 0.0 
3.925594847603e-03 7.869422413117e-02 0.0 
5.137736650623e-03 7.664845722948e-02 0.0 
4.101592865270e-03 7.702242161715e-02 0.0 
2.927002998184e-03 7.884803850430e-02 0.0 
3.168922258594e-03 7.739407184945e-02 0.0 
2.264406553519e-03 2.920969857417e-02 0.0 
3.276730579341e-03 8.822521796836e-02 0.0 
1.225921899680e-02 8.686334944325e-02 0.0 
5.358240417653e-03 3.060017913765e-02 0.0 
8.860720644545e-03 3.433841329089e-02 0.0 
4.621837327463e-03 5.046615515761e-02 0.0 
4.458495444339e-03 5.566063221843e-02 0.0 
4.976468763232e-03 6.674120794396e-02 0.0 
4.235063651130e-03 6.079150112936e-02 0.0 
3.686642656554e-03 4.948397304682e-02 0.0 
3.526883703508e-03 5.468580757517e-02 0.0 
3.964523913695e-03 6.585957522060e-02 0.0 
3.314263143658e-03 5.981453828156e-02 0.0 
3.657058037739e-03 7.084123376028e-02 0.0 
3.059268922264e-03 6.485924858369e-02 0.0 
2.702676673799e-03 5.361587936518e-02 0.0 
2.496290477815e-03 5.874289749998e-02 0.0 
2.770763684985e-03 6.982519831161e-02 0.0 
2.249991625789e-03 6.378937729177e-02 0.0 
2.454630276681e-03 7.470080496542e-02 0.0 
1.970261776918e-03 6.874950105862e-02 0.0 
1.768736863930e-03 5.762556565437e-02 0.0 
1.009474096603e-03 7.590173600870e-02 0.0 
9.261024801281e-03 4.086686676982e-02 0.0 
8.075530622165e-03 3.406591939021e-02 0.0 
2.045645796087e-03 6.704708148462e-02 0.0 
2.210182646574e-03 6.385493497146e-02 0.0 
2.755934708764e-03 6.197994427106e-02 0.0 
2.279281410112e-03 6.027063485951e-02 0.0 
1.518577693716e-03 6.272557096871e-02 0.0 
1.329870980392e-03 5.134801579148e-02 0.0 
7.520418090255e-03 9.651905538721e-02 0.0 
9.133813853037e-03 9.821545642983e-02 0.0 
4.710308429381e-03 4.520725571933e-02 0.0 
1.799035379577e-03 3.615876432228e-02 0.0 
2.016666968369e-03 4.190470322678e-02 0.0 
1.567823264309e-02 9.028143917533e-02 0.0 
1.540943830866e-02 9.592790790326e-02 0.0 
1.510439387919e-02 9.644004968432e-02 0.0 
1.463175974536e-02 1.024055002597e-01 0.0 
1.490851502252e-02 1.018250846243e-01 0.0 
1.407992353224e-02 1.023596949448e-01 0.0 
7.786446458642e-03 4.610606614723e-02 0.0 
2.138549030960e-03 4.728197421666e-02 0.0 
2.530800929825e-03 7.448823740286e-02 0.0 
1.899964777975e-03 7.626925074363e-02 0.0 
1.530582147069e-03 2.994100617167e-02 0.0 
1.016515979165e-02 4.717170396436e-02 0.0 
1.420585763361e-02 6.402606407682e-02 0.0 
1.388914590912e-02 5.893813247966e-02 0.0 
1.308781143037e-02 5.543163781625e-02 0.0 
1.260997651468e-02 5.043004619503e-02 0.0 
1.163852421028e-02 4.645567248007e-02 0.0 
1.098998312521e-02 4.152805541724e-02 0.0 
1.196816101733e-02 4.556786102544e-02 0.0 
9.865298419477e-03 3.491675567929e-02 0.0 
1.018322504882e-02 3.670833093826e-02 0.0 
1.690847754467e-03 7.371980720436e-02 0.0 
1.307530364079e-02 5.328484742690e-02 0.0 
5.142480973227e-03 7.483253067659e-02 0.0 
1.033542098323e-03 7.662507863764e-02 0.0 
2.030046944936e-03 7.904828738068e-02 0.0 
9.092122153240e-04 7.518973693595e-02 0.0 
1.137828896132e-03 7.337563841554e-02 0.0 
5.206322224280e-03 2.694575084107e-02 0.0 
9.842057828326e-03 3.709529595561e-02 0.0 
1.051148987113e-02 4.209071437501e-02 0.0 
1.391301679449e-02 1.086137003723e-01 0.0 
1.416109594824e-02 1.078759472784e-01 0.0 
8.763756643443e-03 3.070205893341e-02 0.0 
6.503955985984e-03 7.807011774865e-02 0.0 
4.280523398400e-03 7.668081268550e-02 0.0 
3.895378623220e-03 8.149584426945e-02 0.0 
6.685996514331e-04 7.673697470023e-02 0.0 
1.678867708735e-03 8.029604637110e-02 0.0 
2.963409732388e-03 4.314989804377e-02 0.0 
1.111969184807e-02 9.467418732803e-02 0.0 
1.063259181593e-02 9.977654499022e-02 0.0 
2.404430608991e-03 9.137768947265e-02 0.0 
8.693812243372e-04 8.977582911270e-02 0.0 
1.120845917761e-03 5.641366271993e-02 0.0 
9.522777280111e-04 4.493912213328e-02 0.0 
2.829929495257e-03 5.815671925095e-02 0.0 
2.308278622366e-03 5.626734650663e-02 0.0 
6.178890544742e-03 3.028547865442e-02 0.0 
2.353633581766e-03 7.774984371843e-02 0.0 
1.091332910583e-03 3.961398699234e-02 0.0 
9.202387156391e-03 4.383520575015e-02 0.0 
9.899992802719e-03 4.976411414530e-02 0.0 
1.743917062751e-03 6.228622502637e-02 0.0 
6.694979006461e-03 1.013602587600e-01 0.0 
4.973382326202e-03 9.920579191513e-02 0.0 
6.185849503833e-03 7.421095585798e-02 0.0 
3.300907813928e-03 7.600657103902e-02 0.0 
7.599427674516e-04 7.438867703424e-02 0.0 
4.883223350769e-03 2.308023609185e-02 0.0 
2.995212477430e-03 3.781447812330e-02 0.0 
1.117554875392e-02 4.084995842437e-02 0.0 
1.276126290390e-02 4.925250260301e-02 0.0 
9.240177472794e-03 3.203353449980e-02 0.0 
1.350757019269e-03 7.913766674320e-02 0.0 
4.278831579574e-03 2.360204018517e-02 0.0 
1.271997521762e-03 3.347484420283e-02 0.0 
8.629763567601e-03 3.273705824939e-02 0.0 
9.244588820895e-03 3.734887193950e-02 0.0 
1.240934942927e-02 9.574398820717e-02 0.0 
1.200370965620e-02 1.010852804103e-01 0.0 
9.922072059311e-03 1.053402977130e-01 0.0 
1.132525357715e-02 1.068960173464e-01 0.0 
1.079976019928e-02 8.780289351790e-02 0.0 
1.352659570242e-02 9.650883541313e-02 0.0 
1.302571474422e-02 9.058040417095e-02 0.0 
1.230656050790e-02 9.579716546430e-02 0.0 
1.293194891531e-02 9.920674473616e-02 0.0 
1.490711531108e-02 1.007404901335e-01 0.0 
1.412357767914e-02 1.065928799597e-01 0.0 
1.273063588433e-02 8.607026402110e-02 0.0 
1.362542631247e-02 6.184380618916e-02 0.0 
3.339426367667e-03 5.999738197888e-02 0.0 
3.830575577074e-03 4.899552698203e-02 0.0 
7.648972388093e-03 5.372776025132e-02 0.0 
2.248329276810e-03 4.200183629139e-02 0.0 
1.695853323504e-03 3.544777150745e-02 0.0 
2.967499335227e-03 8.052327053953e-02 0.0 
2.596106746168e-03 8.522122079915e-02 0.0 
1.376007927954e-03 7.686038027871e-02 0.0 
1.243050407727e-03 7.768779704315e-02 0.0 
5.743571226068e-03 5.574925427874e-02 0.0 
4.476179058551e-03 2.740880378913e-02 0.0 
3.798720895844e-03 3.891556670253e-02 0.0 
3.720207250872e-03 3.352905617371e-02 0.0 
4.706754740731e-03 3.987389523025e-02 0.0 
5.901898693086e-03 2.654983266823e-02 0.0 
1.124435700135e-02 7.811730358455e-02 0.0 
1.165498148957e-02 5.636018625198e-02 0.0 
1.841621701146e-03 8.709005644245e-02 0.0 
1.491450498291e-02 6.468816207929e-02 0.0 
8.147335518514e-04 7.806127938396e-02 0.0 
1.151479241288e-02 5.764017975584e-02 0.0 
1.048551469823e-03 2.705343125191e-02 0.0 
1.213518434369e-03 2.323832136804e-02 0.0 
7.859047673264e-03 2.653923726273e-02 0.0 
1.003710716150e-02 1.016393575693e-01 0.0 
1.438510624276e-02 5.989812135402e-02 0.0 
1.456880634275e-02 6.230189283675e-02 0.0 
1.206768480510e-02 1.043595209908e-01 0.0 
1.253493121843e-02 1.074846529642e-01 0.0 
1.345269262823e-02 1.021628179671e-01 0.0 
1.288188819769e-02 1.102058390128e-01 0.0 
6.024143806734e-03 7.228366451045e-02 0.0 
5.053444095466e-03 7.312622686653e-02 0.0 
7.601511687330e-03 2.704750797626e-02 0.0 
8.110032187897e-03 2.774399486969e-02 0.0 
7.266758299444e-03 2.784543319807e-02 0.0 
7.865066620028e-03 3.219299495555e-02 0.0 
6.655192882764e-03 2.229468764342e-02 0.0 
7.599774152581e-03 2.658428208919e-02 0.0 
9.184594530574e-04 7.240429667324e-02 0.0 
1.318709898250e-02 1.138449829303e-01 0.0 
2.272236103437e-03 3.124247952197e-02 0.0 
1.150821575844e-02 1.008907939419e-01 0.0 
3.438984763381e-03 2.043969762598e-02 0.0 
3.652483861643e-03 2.421534706149e-02 0.0 
-4.873498699993e-04 8.838055978313e-02 0.0 
5.800412269359e-04 8.585252755402e-02 0.0 
7.475681208717e-04 3.325905741598e-02 0.0 
8.959917178263e-03 1.112746532861e-01 0.0 
1.034501694548e-02 1.130679036633e-01 0.0 
7.375872823907e-03 1.090644738202e-01 0.0 
1.586993517919e-04 1.218371731294e-02 0.0 
6.971899052672e-04 1.041133035293e-01 0.0 
7.881245087855e-04 2.014994361052e-02 0.0 
1.466747027565e-02 9.900683060079e-02 0.0 
7.979356616516e-04 2.729441834004e-02 0.0 
1.372477023628e-02 5.534146999283e-02 0.0 
1.531160137277e-02 9.098189838264e-02 0.0 
7.185719166854e-03 3.364915451511e-02 0.0 
6.086497031035e-04 3.965299136365e-02 0.0 
4.478715178777e-04 2.626947238924e-02 0.0 
4.471905653958e-03 8.695226610716e-02 0.0 
4.041834874606e-03 9.176335552900e-02 0.0 
4.920049951728e-03 8.235473606629e-02 0.0 
4.092471365684e-03 9.307726508801e-02 0.0 
1.058060478595e-03 9.548410066980e-02 0.0 
1.629066371841e-03 4.081789706834e-02 0.0 
1.836987533233e-03 6.984951901678e-02 0.0 
1.514808643202e-03 6.829830614787e-02 0.0 
2.498012920027e-03 7.662896326624e-02 0.0 
3.312757497802e-03 7.472792551670e-02 0.0 
3.388061017993e-03 5.595688397543e-02 0.0 
3.937176492468e-03 5.792659281405e-02 0.0 
1.136198951456e-02 5.239825837664e-02 0.0 
1.019380994004e-02 4.785002110774e-02 0.0 
1.339532957158e-02 6.059185729817e-02 0.0 
8.986962980675e-03 4.659541144176e-02 0.0 
9.495739870491e-03 5.216923726975e-02 0.0 
1.034114350261e-02 5.520051099648e-02 0.0 
1.718705985787e-03 3.040592921841e-02 0.0 
1.143167729310e-03 2.262831140353e-02 0.0 
7.035832835335e-03 7.146558430037e-02 0.0 
7.276000243065e-03 7.360990096283e-02 0.0 
5.773997323152e-03 7.051936641266e-02 0.0 
2.171727315627e-03 2.598952769259e-02 0.0 
8.725035562853e-04 1.625651930609e-02 0.0 
1.294096254093e-03 1.954444753567e-02 0.0 
6.007993532986e-04 7.871831606364e-02 0.0 
1.026819912884e-03 7.850562529619e-02 0.0 
3.875322952069e-03 1.040507408818e-01 0.0 
2.034079268910e-03 1.015352149012e-01 0.0 
3.583437069132e-03 2.855407293071e-02 0.0 
4.604756787579e-03 3.457549217318e-02 0.0 
2.533842290269e-03 2.152733341804e-02 0.0 
5.459116980255e-04 7.364094054493e-02 0.0 
1.194977562075e-02 4.450111312259e-02 0.0 
4.485294962484e-03 1.938986630985e-02 0.0 
5.558944516597e-03 2.302765575509e-02 0.0 
3.284542412576e-03 1.488660373364e-02 0.0 
9.056044455896e-03 3.114284415003e-02 0.0 
6.850452189695e-03 2.248150001133e-02 0.0 
6.912073349017e-03 2.278877026940e-02 0.0 
-1.706847142565e-03 9.089132982354e-02 0.0 
3.395444769296e-04 3.132117080079e-02 0.0 
3.088442385170e-03 9.083851220075e-02 0.0 
-2.586994297818e-03 8.947071964506e-02 0.0 
2.671531134169e-03 9.570020449211e-02 0.0 
2.229459859414e-03 8.989567460067e-02 0.0 
2.312037734406e-03 1.004209330029e-01 0.0 
4.491112625249e-04 7.530743863196e-02 0.0 
5.097122852064e-03 9.407809482745e-02 0.0 
5.611354824048e-03 8.827489215956e-02 0.0 
1.428462761233e-04 7.954785531871e-02 0.0 
1.468200824583e-03 1.934439455823e-02 0.0 
3.098979190472e-04 7.885411751302e-02 0.0 
5.171400707473e-04 7.833398127272e-02 0.0 
2.641608480747e-03 1.698974736522e-02 0.0 
2.889856438602e-03 2.096439189065e-02 0.0 
1.921996009735e-03 1.365620073399e-02 0.0 
2.246982869212e-03 1.806867146521e-02 0.0 
3.018018400113e-03 2.491695503975e-02 0.0 
2.351811400121e-03 2.177532804515e-02 0.0 
3.627464516647e-03 9.716861621548e-02 0.0 
1.543393588181e-03 1.369519100389e-02 0.0 
1.744624619266e-03 1.842619506056e-02 0.0 
1.016937761862e-03 1.053932058628e-02 0.0 
1.179261419058e-02 1.154127003919e-01 0.0 
1.237908943286e-02 1.082069670594e-01 0.0 
1.140353947515e-02 1.146089583410e-01 0.0 
8.956456189591e-03 1.199787736065e-01 0.0 
5.315216329937e-03 2.039680670289e-02 0.0 
6.524967483681e-03 2.725351495911e-02 0.0 
7.936561566668e-04 3.058325240937e-02 0.0 
9.073799061328e-04 3.673277638382e-02 0.0 
1.842812759392e-03 9.522701935195e-02 0.0 
1.344168476621e-03 9.563416024498e-02 0.0 
1.464770721839e-03 8.641872980102e-02 0.0 
1.056681161259e-03 8.755210215242e-02 0.0 
1.129040362777e-03 7.821766230898e-02 0.0 
7.265320932888e-04 7.942098596520e-02 0.0 
8.597467443394e-04 6.979288267257e-02 0.0 
5.555920608316e-03 1.811681484039e-02 0.0 
5.913037753022e-03 1.149688732783e-01 0.0 
1.112824339012e-02 1.093967081161e-01 0.0 
5.395887041530e-03 1.811945807598e-02 0.0 
6.575004419346e-03 2.324439016166e-02 0.0 
1.314032388532e-02 1.123354466877e-01 0.0 
1.197854017759e-02 1.198541469741e-01 0.0 
2.842304215957e-03 1.521461438352e-02 0.0 
1.372945950063e-02 9.130643265525e-02 0.0 
1.100178388313e-03 1.239906940494e-02 0.0 
-5.989043430052e-03 9.842853212331e-02 0.0 
-2.529034477767e-03 9.629336140600e-02 0.0 
1.461694979977e-02 9.150141922231e-02 0.0 
1.386020753555e-02 1.046541127412e-01 0.0 
1.328529637832e-02 1.088144032092e-01 0.0 
1.244586580057e-02 1.149896282748e-01 0.0 
8.228481683242e-03 4.047970901931e-02 0.0 
6.818954526118e-04 7.937711115308e-02 0.0 
5.667029833141e-03 1.065995706046e-01 0.0 
1.248904777491e-03 6.870566825694e-02 0.0 
2.417977936968e-03 1.091624842890e-01 0.0 
4.161755373461e-04 3.341835689814e-02 0.0 
1.379318805806e-02 8.629035487120e-02 0.0 
1.526654401579e-02 9.332191649653e-02 0.0 
8.375953437639e-03 1.034053870497e-01 0.0 
1.322609431049e-02 1.018975245396e-01 0.0 
1.142215015670e-02 8.276790989879e-02 0.0 
1.011980311306e-02 9.267855749854e-02 0.0 
1.081492806893e-02 9.702131414328e-02 0.0 
1.366543616034e-02 8.170188992250e-02 0.0 
1.298461942527e-02 1.147361376586e-01 0.0 
1.121680029385e-02 1.217477474826e-01 0.0 
1.362191846444e-02 8.527923766349e-02 0.0 
5.740964966535e-03 4.600444718940e-02 0.0 
5.705176232944e-03 4.065325941070e-02 0.0 
4.416098390536e-03 2.956628555457e-02 0.0 
5.552707278348e-03 3.537504739432e-02 0.0 
6.845204204417e-03 4.657755942874e-02 0.0 
6.764190664427e-03 4.127482994059e-02 0.0 
5.268814981690e-03 3.023142459883e-02 0.0 
6.548311449624e-03 3.599839632566e-02 0.0 
4.434430638895e-03 2.272641057186e-02 0.0 
6.123689526717e-03 3.050434418287e-02 0.0 
7.854194834543e-03 4.181592016634e-02 0.0 
7.569343786976e-03 3.678045307143e-02 0.0 
5.823110410507e-03 2.668361637527e-02 0.0 
9.184554742145e-03 4.789717726343e-02 0.0 
4.258217134510e-03 1.369817394027e-02 0.0 
1.532751367679e-02 8.576246768339e-02 0.0 
-3.376744611892e-04 9.290749614990e-02 0.0 
-1.069487855975e-03 9.897177362994e-02 0.0 
1.486794433949e-02 9.113006527666e-02 0.0 
2.168289173170e-03 1.105913461828e-02 0.0 
1.765243179868e-03 1.102447101352e-02 0.0 
1.139641428185e-02 8.998411303459e-02 0.0 
2.729520851258e-03 9.669542486073e-03 0.0 
1.157495964605e-02 9.200156722602e-02 0.0 
6.446941224770e-03 9.085108177318e-02 0.0 
2.881532828034e-03 9.374063060619e-03 0.0 
6.802131313478e-03 5.185289670471e-02 0.0 
7.874177052663e-03 5.767158438844e-02 0.0 
7.640629042392e-03 6.284118314700e-02 0.0 
1.351422964056e-03 1.036685537139e-02 0.0 
5.354122591740e-03 7.755878961142e-02 0.0 
2.646226821788e-03 8.101026232666e-03 0.0 
1.306043726384e-02 5.571117595054e-02 0.0 
1.385823780587e-02 5.994170625789e-02 0.0 
1.430470585241e-02 6.605377076299e-02 0.0 
8.002039985001e-03 4.723292065996e-02 0.0 
2.389805286949e-03 7.988577703845e-03 0.0 
4.290515298464e-03 1.516904336299e-02 0.0 
4.015083665962e-03 1.493528630939e-02 0.0 
5.977735987326e-03 2.244999483057e-02 0.0 
2.084006075512e-03 7.710133289802e-03 0.0 
2.262746120739e-03 9.726318114559e-03 0.0 
2.283667422493e-03 9.118874048752e-03 0.0 
6.257599340302e-03 7.627305982014e-02 0.0 
7.438431181122e-03 7.588878705057e-02 0.0 
8.392473496130e-03 7.298887233245e-02 0.0 
8.636742196980e-03 7.553030030754e-02 0.0 
7.496973039631e-03 7.837661703348e-02 0.0 
8.776845858037e-03 7.829655714219e-02 0.0 
9.815346095774e-03 7.517936958839e-02 0.0 
8.801289883962e-03 8.132385435926e-02 0.0 
8.484469971762e-03 3.751580362569e-02 0.0 
1.716468856358e-03 7.240230292961e-03 0.0 
7.385175085258e-03 4.866380179819e-02 0.0 
8.197628735523e-03 5.149518735351e-02 0.0 
8.384993653754e-03 5.639081212081e-02 0.0 
3.826964976124e-03 6.180603486253e-02 0.0 
4.469383061220e-03 5.987937499736e-02 0.0 
4.531852895503e-03 5.574898030122e-02 0.0 
3.199120527406e-03 6.365383454344e-02 0.0 
1.340226638193e-02 5.401158990254e-02 0.0 
1.565588866237e-03 7.224280675860e-03 0.0 
1.079636234086e-02 5.299397913143e-02 0.0 
4.980907300721e-03 6.181579089528e-02 0.0 
6.757400878833e-03 1.034362135740e-01 0.0 
7.107964578339e-03 9.494492916055e-02 0.0 
7.812644773871e-03 9.439737179335e-02 0.0 
7.319828669701e-03 8.481663617444e-02 0.0 
6.320905784868e-03 9.407559112122e-02 0.0 
2.831522476699e-03 5.393493045285e-02 0.0 
2.274281912107e-03 5.186632846663e-02 0.0 
1.777489727604e-03 5.433002861993e-02 0.0 
1.721616961663e-03 4.974240248431e-02 0.0 
1.244310043474e-03 5.232086099174e-02 0.0 
1.285196351059e-03 5.657962003556e-02 0.0 
1.167629178819e-03 4.755502785667e-02 0.0 
7.199452943216e-04 5.079155999428e-02 0.0 
5.433176300023e-03 1.038188208309e-01 0.0 
-2.662406275084e-03 8.517487095061e-02 0.0 
-9.278774691062e-04 8.391142925653e-02 0.0 
-6.971764253958e-04 8.263960702045e-02 0.0 
4.575068582628e-04 8.255962591113e-02 0.0 
4.952818333663e-04 8.385363992112e-02 0.0 
2.036535143874e-03 8.205208247684e-02 0.0 
1.937602232333e-03 8.371084757826e-02 0.0 
-1.209091474365e-03 8.555566982665e-02 0.0 
-1.675198461248e-03 8.256500477210e-02 0.0 
-4.541587644447e-04 8.162568305790e-02 0.0 
-1.277043583697e-03 8.163002483829e-02 0.0 
-2.921772841979e-04 8.083527485748e-02 0.0 
7.576836198400e-04 8.039837383755e-02 0.0 
1.809474534930e-03 7.719783169068e-02 0.0 
4.482877846996e-04 8.176750240636e-03 0.0 
4.689634265954e-04 6.219798240057e-02 0.0 
8.915091947244e-04 6.395951313855e-02 0.0 
8.131463482677e-04 6.701847431451e-02 0.0 
1.313665819852e-03 6.544939504297e-02 0.0 
8.967427187225e-04 6.073114083886e-02 0.0 
3.855507944660e-04 6.851411283940e-02 0.0 
7.287261263085e-04 6.947844576599e-02 0.0 
4.471413170704e-05 7.854209245083e-02 0.0 
1.213037371586e-04 7.818890649992e-02 0.0 
4.362629433252e-05 7.820309958142e-02 0.0 
1.744492427693e-04 7.754991624569e-02 0.0 
2.783171704084e-04 7.761749358570e-02 0.0 
1.822907028890e-04 7.824135274990e-02 0.0 
2.260684224398e-04 7.834033714745e-02 0.0 
2.550350090846e-05 7.874928384194e-02 0.0 
2.539000529964e-04 7.847587300780e-02 0.0 
4.913636378285e-04 7.775640499633e-02 0.0 
-2.145373544327e-05 7.891268644529e-02 0.0 
2.720986976996e-04 5.519412715427e-02 0.0 
5.183214745657e-04 4.950805402319e-02 0.0 
1.354888390365e-03 7.557165886883e-03 0.0 
4.200323356059e-03 1.031678705822e-01 0.0 
-6.476634604109e-04 8.028309370551e-02 0.0 
4.136471555043e-04 1.329761359220e-02 0.0 
6.306988973535e-04 1.104581732640e-02 0.0 
5.131025632963e-04 1.069829670076e-02 0.0 
2.616983178104e-04 1.986005413676e-02 0.0 
4.252524413491e-04 1.632265883721e-02 0.0 
2.198567061598e-04 1.292372682073e-02 0.0 
3.096434488842e-03 7.233620203316e-02 0.0 
4.101912362216e-03 2.464467808455e-02 0.0 
1.179394684947e-03 3.420595665154e-02 0.0 
5.826894412127e-03 9.478366775707e-02 0.0 
4.145969076220e-03 7.394404227230e-02 0.0 
1.437923103914e-03 3.936850040901e-02 0.0 
4.280859792896e-03 4.627652133780e-02 0.0 
1.708268563054e-03 2.631711055618e-02 0.0 
2.599169211311e-03 4.432681884001e-02 0.0 
2.879234882914e-03 3.210095382217e-02 0.0 
3.834678155103e-03 1.520420315457e-02 0.0 
6.057572874347e-04 7.594327577950e-02 0.0 
3.322392713486e-03 7.572758490883e-02 0.0 
2.137236905583e-03 7.952832911396e-02 0.0 
1.976168234442e-03 5.249500507337e-02 0.0 
2.097299899444e-03 7.105131918343e-02 0.0 
1.803322783550e-03 5.830047789686e-02 0.0 
1.430556842775e-03 7.601678725581e-02 0.0 
5.172793862457e-03 1.789486032515e-02 0.0 
1.368609770448e-02 9.389917431828e-02 0.0 
7.705726448954e-03 5.835060859665e-02 0.0 
3.614249279999e-03 6.529052812104e-02 0.0 
3.825904724295e-03 7.121390448256e-02 0.0 
4.175101465909e-03 7.543393746880e-02 0.0 
1.573375445447e-02 8.494186030271e-02 0.0 
5.680716733867e-03 5.994621293457e-02 0.0 
5.235836671364e-03 3.734897470936e-02 0.0 
1.505065008132e-03 4.612205267832e-02 0.0 
-1.831081850421e-04 7.937579768147e-02 0.0 
5.361533917840e-03 3.406338045224e-02 0.0 
5.652812034821e-03 5.110706725838e-02 0.0 
4.646194921321e-03 7.177011912388e-02 0.0 
9.933735617121e-03 3.811307537740e-02 0.0 
2.622314552552e-03 8.028922934897e-02 0.0 
2.862668548509e-03 4.843236541604e-02 0.0 
2.849000077880e-03 2.771950101138e-02 0.0 
6.057600523498e-03 8.313300660796e-02 0.0 
9.486882769121e-04 7.738141261531e-02 0.0 
3.507509064335e-03 8.636325341908e-02 0.0 
3.911953917390e-03 1.958242926475e-02 0.0 
5.664330970838e-03 5.127898404278e-02 0.0 
1.584418960837e-03 7.226139556307e-02 0.0 
1.191530071914e-02 6.163829334581e-02 0.0 
1.563728174692e-02 8.765408661964e-02 0.0 
9.719388792462e-03 1.101565332188e-01 0.0 
1.220105420742e-03 2.917600721635e-02 0.0 
1.510111872403e-02 6.886374750387e-02 0.0 
7.734200417357e-03 3.046042424509e-02 0.0 
1.110570971396e-02 5.060135110353e-02 0.0 
1.353666919188e-03 7.113531517643e-02 0.0 
3.739743133419e-03 2.795981307700e-02 0.0 
1.386635315590e-02 6.750915909744e-02 0.0 
2.301567970996e-03 3.672394128872e-02 0.0 
1.212272935970e-02 5.151783763565e-02 0.0 
1.201751039351e-02 7.422862697588e-02 0.0 
3.781982845474e-03 4.423299056574e-02 0.0 
9.098322813818e-03 5.908077265222e-02 0.0 
9.456954860113e-03 3.456026487443e-02 0.0 
1.424750344946e-02 9.668705807742e-02 0.0 
1.434163871379e-02 6.924301968617e-02 0.0 
1.149300787998e-02 6.286788634643e-02 0.0 
1.528217360671e-02 6.963683295533e-02 0.0 
9.802934595806e-04 4.246871133317e-02 0.0 
4.525678985948e-03 3.102474836282e-02 0.0 
3.967483873510e-03 8.548000223194e-02 0.0 
1.448753557323e-02 9.664266851438e-02 0.0 
5.737146329210e-03 7.249610091057e-02 0.0 
9.084976625495e-03 3.252798905600e-02 0.0 
1.624806835714e-03 2.456112542505e-02 0.0 
1.545731430199e-02 9.489500953361e-02 0.0 
3.698524233307e-03 3.154398077178e-02 0.0 
2.965176688903e-03 3.279192380471e-02 0.0 
5.113625537252e-03 5.786443969239e-02 0.0 
2.172336413148e-04 7.507929331433e-02 0.0 
3.242235009129e-03 9.705822028876e-02 0.0 
1.014518852216e-02 8.156735112668e-02 0.0 
1.487020377221e-02 7.042537784768e-02 0.0 
5.108681672541e-03 5.349784135570e-02 0.0 
3.157991831131e-03 2.197633235499e-02 0.0 
3.002161323797e-03 2.859079296034e-02 0.0 
7.237679284895e-03 3.703091360059e-02 0.0 
-3.010380964508e-03 1.076763874607e-01 0.0 
1.064643965993e-02 1.056056812652e-01 0.0 
2.362798223191e-03 2.557876605301e-02 0.0 
1.115319203059e-02 5.834635414946e-02 0.0 
8.349418713163e-03 3.065061321514e-02 0.0 
7.801452140082e-04 5.484849865011e-02 0.0 
5.308057905033e-03 1.774908430115e-02 0.0 
1.202441518956e-02 1.177047595166e-01 0.0 
1.785856350828e-03 2.250133051689e-02 0.0 
8.237547609877e-03 3.736651463506e-02 0.0 
1.266154379759e-02 9.071106563793e-02 0.0 
1.157023114708e-03 1.041168422894e-01 0.0 
1.131222243577e-03 1.411582662102e-02 0.0 
6.949343166808e-03 3.005453464323e-02 0.0 
1.450301977817e-02 6.203100416736e-02 0.0 
1.051758371030e-02 6.015351494258e-02 0.0 
1.041840677791e-02 1.173492839295e-01 0.0 
4.468335089293e-03 5.123771586985e-02 0.0 
1.352758782187e-02 6.582387096398e-02 0.0 
1.171856695102e-03 1.013740258848e-02 0.0 
6.648755316311e-03 2.681672153841e-02 0.0 
8.629852055719e-03 6.851488087992e-02 0.0 
3.939724744424e-03 5.366289323033e-02 0.0 
1.291675632383e-02 5.077758549594e-02 0.0 
3.857502883697e-04 7.768151788937e-02 0.0 
1.150742927710e-02 1.125308186241e-01 0.0 
3.343553734209e-03 5.152401340682e-02 0.0 
1.003152446816e-02 7.824903950290e-02 0.0 
9.766102378673e-03 5.721780205932e-02 0.0 
5.642665472998e-03 1.823819272560e-02 0.0 
2.754532685223e-03 4.933431054432e-02 0.0 
1.095356936687e-02 7.474383816927e-02 0.0 
2.176642494539e-03 4.709306477533e-02 0.0 
1.070356403365e-02 1.230716441906e-01 0.0 
8.929908331709e-03 6.318629924384e-02 0.0 
1.593518933572e-03 4.478902110659e-02 0.0 
1.244193256020e-02 5.669707903801e-02 0.0 
6.000479206358e-04 7.785233033369e-02 0.0 
1.400177415081e-02 5.720069699411e-02 0.0 
6.167734189177e-04 2.363252759602e-02 0.0 
5.457413214996e-03 6.880829343619e-02 0.0 
8.995315936025e-03 5.438570682670e-02 0.0 
7.996825710045e-03 5.243849018567e-02 0.0 
1.032626846267e-02 1.271494346515e-01 0.0 
8.654560918096e-03 4.915255521839e-02 0.0 
1.102762534218e-02 4.724597003041e-02 0.0 
1.335013161356e-02 5.252271469446e-02 0.0 
1.454137491497e-02 6.432985926487e-02 0.0 
8.068564427157e-03 4.336220659046e-02 0.0 
1.182157199247e-02 1.207519960862e-01 0.0 
3.198188516553e-03 7.360955547707e-02 0.0 
2.546616507944e-03 7.555410007421e-02 0.0 
1.056323041638e-02 7.163510717914e-02 0.0 
9.797489554671e-03 4.252825639621e-02 0.0 
3.522497751649e-04 7.673901313605e-02 0.0 
9.219183494263e-03 5.284172018744e-02 0.0 
1.619277654807e-03 7.816531034626e-02 0.0 
9.497935935070e-03 7.234512663989e-02 0.0 
1.089263827605e-02 3.929432792006e-02 0.0 
3.283444451938e-04 7.674605901400e-02 0.0 
9.098538626132e-03 6.969573129577e-02 0.0 
2.673443932647e-04 7.324330028091e-02 0.0 
8.071013973471e-03 7.061802582521e-02 0.0 
1.388616769229e-02 5.774942700294e-02 0.0 
7.685341755870e-03 6.833933362008e-02 0.0 
6.722982154530e-03 6.944227134932e-02 0.0 
8.113152352607e-04 2.244952429971e-02 0.0 
6.349031339621e-03 6.749389127293e-02 0.0 
1.054388859885e-04 1.072002964160e-02 0.0 
1.870932097843e-04 7.434992238448e-03 0.0 
4.357160817747e-04 9.683164783722e-02 0.0 
8.768509369727e-03 1.295424446681e-01 0.0 
-4.666549700762e-03 9.173244141242e-02 0.0 
1.064111437056e-02 1.198599406359e-01 0.0 
4.871090578613e-03 7.156341745530e-02 0.0 
1.039477297633e-02 5.304203118814e-02 0.0 
9.055359459396e-04 9.637992459578e-02 0.0 
4.008844564442e-03 7.258063900755e-02 0.0 
4.237545043381e-03 1.965503334545e-02 0.0 
2.708778353547e-03 8.371551505864e-03 0.0 
5.900823015779e-04 6.020367821775e-02 0.0 
7.308863596325e-03 2.719613988938e-02 0.0 
1.251207609377e-02 4.768029138114e-02 0.0 
1.670892038774e-04 3.251748065162e-02 0.0 
2.693196296647e-03 1.048520076553e-01 0.0 
-1.356588654602e-04 8.019197150771e-02 0.0 
4.725347624182e-04 3.947020174073e-02 0.0 
6.302346284947e-03 1.272581557606e-01 0.0 
7.412519138629e-03 1.175948168866e-01 0.0 
4.083022174260e-03 1.122101264771e-01 0.0 
1.058080045972e-03 7.020263741748e-02 0.0 
4.906670566474e-04 8.147488370018e-02 0.0 
3.867275442879e-03 1.214364595039e-01 0.0 
4.640124205704e-03 1.589105471669e-02 0.0 
4.536546620706e-03 9.613942468704e-02 0.0 
1.025623615926e-02 3.628958998843e-02 0.0 
4.053185188795e-04 1.149017870634e-01 0.0 
2.039016031134e-03 2.151541433354e-02 0.0 
5.400965221526e-03 1.719087178352e-02 0.0 
9.506112879230e-04 6.601464715654e-03 0.0 
8.068010567342e-03 2.709223138281e-02 0.0 
5.165962388283e-04 1.060695536578e-01 0.0 
6.691708425187e-03 8.711409582858e-02 0.0 
5.014837125525e-03 1.809186112943e-02 0.0 
7.960844702382e-04 5.115452629019e-02 0.0 
6.814544062195e-04 6.302634031019e-03 0.0 
5.722129721327e-03 9.685165592128e-02 0.0 
4.942351257498e-04 2.096679232857e-02 0.0 
2.692000392029e-03 8.477695918682e-02 0.0 
2.463938000972e-04 2.035074070564e-02 0.0 
8.916967918434e-03 4.260198204124e-02 0.0 
1.841791334982e-03 8.426440290252e-02 0.0 
8.050929265998e-03 8.694282720977e-02 0.0 
5.148644246020e-04 1.285941400974e-02 0.0 
3.671284426694e-03 2.024055986524e-02 0.0 
-1.284459099157e-03 1.025602017662e-01 0.0 
9.256854712092e-04 6.132498728832e-02 0.0 
1.772094321357e-03 6.546180856023e-02 0.0 
-1.906417280939e-03 8.754629858808e-02 0.0 
2.360767688824e-03 1.380901960594e-02 0.0 
7.168081251010e-03 3.221213754856e-02 0.0 
8.614809696050e-04 1.314335962846e-02 0.0 
7.190567186233e-05 7.759551312093e-02 0.0 
5.348496111779e-05 7.931991772771e-02 0.0 
2.650862787803e-03 1.295136178428e-02 0.0 
4.379568243724e-03 1.764129764305e-02 0.0 
3.433487287039e-03 8.205334564064e-02 0.0 
6.761420558874e-04 8.653709555450e-03 0.0 
-3.701863856111e-03 1.001402719340e-01 0.0 
3.681971301361e-03 1.058322206957e-01 0.0 
2.317042057429e-04 7.868182216489e-02 0.0 
5.446556933624e-04 6.356835784818e-03 0.0 
1.199449194800e-03 2.007420146217e-02 0.0 
1.256750337363e-03 6.239150525303e-02 0.0 
8.109952041167e-03 1.017679207931e-01 0.0 
6.247509719244e-04 7.178005250213e-02 0.0 
7.156927831847e-03 2.447715251330e-02 0.0 
5.013095315061e-04 7.998820828322e-02 0.0 
8.115098937083e-04 1.896424551451e-02 0.0 
3.085433001386e-03 1.287529759471e-02 0.0 
2.486098688337e-03 1.872659871366e-02 0.0 
1.933878579525e-03 6.055117192687e-03 0.0 
-2.922522827792e-03 9.331238637521e-02 0.0 
4.715102170156e-03 1.498437854794e-02 0.0 
5.230223547501e-03 2.044609810000e-02 0.0 
2.022466096939e-03 1.052467697503e-01 0.0 
3.166344507903e-03 1.993726729281e-02 0.0 
1.125912673934e-03 6.802009228127e-02 0.0 
7.726576242346e-04 7.698454732381e-02 0.0 
4.627560055326e-05 9.499908184537e-03 0.0 
2.191351628045e-06 7.848837122458e-02 0.0 
3.386979833451e-04 1.052015470344e-01 0.0 
7.491897167011e-05 6.063707902655e-03 0.0 
4.543878102039e-04 7.699352727657e-02 0.0 
7.162884558980e-04 8.954145261287e-02 0.0 
4.007384418848e-03 1.719748962518e-02 0.0 
3.372833614868e-04 5.410562501736e-02 0.0 
3.934580500129e-04 4.030360823337e-02 0.0 
1.452358162949e-03 8.128734352029e-02 0.0 
-4.329389929193e-03 8.904340267765e-02 0.0 
5.684014777003e-04 7.140676472399e-02 0.0 
4.787434844669e-03 1.516727743767e-02 0.0 
1.908352657644e-03 1.798937350118e-02 0.0 
1.471892332511e-03 7.858744165437e-02 0.0 
1.054297974967e-03 9.907969445376e-02 0.0 
5.627464441478e-03 2.424275068001e-02 0.0 
1.352351170892e-03 5.958203727583e-02 0.0 
6.797964710188e-03 2.482545413147e-02 0.0 
5.873204753755e-03 2.116285192975e-02 0.0 
-6.252291388318e-03 1.017075699059e-01 0.0 
3.058160636106e-04 4.958487898638e-02 0.0 
1.685906216098e-04 7.890016384653e-02 0.0 
1.567678528295e-03 1.215467325142e-02 0.0 
8.981917876014e-04 5.778342437784e-02 0.0 
6.741963978268e-03 1.376211625144e-01 0.0 
2.581342477228e-04 1.490187655684e-01 0.0 
8.427331683240e-03 1.344871256487e-01 0.0 
2.252050728870e-04 1.415486912761e-01 0.0 
9.013436766878e-03 1.295451158800e-01 0.0 
2.381563811227e-04 1.336538923073e-01 0.0 
8.934925672492e-03 1.231128624370e-01 0.0 
2.205507332746e-04 1.253288559406e-01 0.0 
8.406482096568e-03 1.156852467123e-01 0.0 
2.353713832051e-04 1.165750745748e-01 0.0 

VECTORS node_bounda_dof_materi_velocity_x float
1.000000000000e+00 0.0 0.0 
1.000000000000e+00 0.0 0.0 
1.000000000000e+00 0.0 0.0 
1.000000000000e+00 0.0 0.0 
1.000000000000e+00 0.0 0.0 
1.000000000000e+00 0.0 0.0 
1.000000000000e+00 0.0 0.0 
1.000000000000e+00 0.0 0.0 
1.000000000000e+00 0.0 0.0 
1.000000000000e+00 0.0 0.0 
1.000000000000e+00 0.0 0.0 
1.000000000000e+00 0.0 0.0 
1.000000000000e+00 0.0 0.0 
1.000000000000e+00 0.0 0.0 
1.000000000000e+00 0.0 0.0 
1.000000000000e+00 0.0 0.0 
1.000000000000e+00 0.0 0.0 
1.000000000000e+00 0.0 0.0 
1.000000000000e+00 0.0 0.0 
1.000000000000e+00 0.0 0.0 
1.000000000000e+00 0.0 0.0 
1.000000000000e+00 0.0 0.0 
1.000000000000e+00 0.0 0.0 
1.000000000000e+00 0.0 0.0 
1.000000000000e+00 0.0 0.0 
1.000000000000e+00 0.0 0.0 
1.000000000000e+00 0.0 0.0 
1.000000000000e+00 0.0 0.0 
1.000000000000e+00 0.0 0.0 
1.000000000000e+00 0.0 0.0 
1.000000000000e+00 0.0 0.0 
1.000000000000e+00 0.0 0.0 
1.000000000000e+00 0.0 0.0 
1.000000000000e+00 0.0 0.0 
1.000000000000e+00 0.0 0.0 
1.000000000000e+00 0.0 0.0 
1.000000000000e+00 0.0 0.0 
1.000000000000e+00 0.0 0.0 
1.000000000000e+00 0.0 0.0 
1.000000000000e+00 0.0 0.0 
1.000000000000e+00 0.0 0.0 
1.000000000000e+00 0.0 0.0 
1.000000000000e+00 0.0 0.0 
1.000000000000e+00 0.0 0.0 
1.000000000000e+00 0.0 0.0 
1.000000000000e+00 0.0 0.0 
1.000000000000e+00 0.0 0.0 
1.000000000000e+00 0.0 0.0 
1.000000000000e+00 0.0 0.0 
1.000000000000e+00 0.0 0.0 
1.000000000000e+00 0.0 0.0 
1.000000000000e+00 0.0 0.0 
1.000000000000e+00 0.0 0.0 
1.000000000000e+00 0.0 0.0 
1.000000000000e+00 0.0 0.0 
1.000000000000e+00 0.0 0.0 
1.000000000000e+00 0.0 0.0 
1.000000000000e+00 0.0 0.0 
1.000000000000e+00 0.0 0.0 
1.000000000000e+00 0.0 0.0 
1.000000000000e+00 0.0 0.0 
1.000000000000e+00 0.0 0.0 
1.000000000000e+00 0.0 0.0 
1.000000000000e+00 0.0 0.0 
1.000000000000e+00 0.0 0.0 
1.000000000000e+00 0.0 0.0 
1.000000000000e+00 0.0 0.0 
1.000000000000e+00 0.0 0.0 
1.000000000000e+00 0.0 0.0 
1.000000000000e+00 0.0 0.0 
1.000000000000e+00 0.0 0.0 
1.000000000000e+00 0.0 0.0 
1.000000000000e+00 0.0 0.0 
1.000000000000e+00 0.0 0.0 
1.000000000000e+00 0.0 0.0 
1.000000000000e+00 0.0 0.0 
1.000000000000e+00 0.0 0.0 
1.000000000000e+00 0.0 0.0 
1.000000000000e+00 0.0 0.0 
1.000000000000e+00 0.0 0.0 
1.000000000000e+00 0.0 0.0 
0.0 0.0 0.0 
0.0 0.0 0.0 
0.0 0.0 0.0 
0.0 0.0 0.0 
0.0 0.0 0.0 
0.0 0.0 0.0 
0.0 0.0 0.0 
0.0 0.0 0.0 
0.0 0.0 0.0 
0.0 0.0 0.0 
0.0 0.0 0.0 
1.000000000000e+00 0.0 0.0 
1.000000000000e+00 0.0 0.0 
1.000000000000e+00 0.0 0.0 
1.000000000000e+00 0.0 0.0 
1.000000000000e+00 0.0 0.0 
0.0 0.0 0.0 
0.0 0.0 0.0 
0.0 0.0 0.0 
0.0 0.0 0.0 
0.0 0.0 0.0 
0.0 0.0 0.0 
0.0 0.0 0.0 
0.0 0.0 0.0 
0.0 0.0 0.0 
0.0 0.0 0.0 
0.0 0.0 0.0 
0.0 0.0 0.0 
0.0 0.0 0.0 
0.0 0.0 0.0 
0.0 0.0 0.0 
0.0 0.0 0.0 
0.0 0.0 0.0 
0.0 0.0 0.0 
0.0 0.0 0.0 
0.0 0.0 0.0 
0.0 0.0 0.0 
0.0 0.0 0.0 
0.0 0.0 0.0 
0.0 0.0 0.0 
0.0 0.0 0.0 
0.0 0.0 0.0 
0.0 0.0 0.0 
0.0 0.0 0.0 
0.0 0.0 0.0 
0.0 0.0 0.0 
0.0 0.0 0.0 
0.0 0.0 0.0 
0.0 0.0 0.0 
0.0 0.0 0.0 
0.0 0.0 0.0 
0.0 0.0 0.0 
0.0 0.0 0.0 
0.0 0.0 0.0 
0.0 0.0 0.0 
0.0 0.0 0.0 
0.0 0.0 0.0 
0.0 0.0 0.0 
0.0 0.0 0.0 
0.0 0.0 0.0 
0.0 0.0 0.0 
0.0 0.0 0.0 
0.0 0.0 0.0 
0.0 0.0 0.0 
0.0 0.0 0.0 
0.0 0.0 0.0 
0.0 0.0 0.0 
0.0 0.0 0.0 
0.0 0.0 0.0 
0.0 0.0 0.0 
0.0 0.0 0.0 
0.0 0.0 0.0 
0.0 0.0 0.0 
0.0 0.0 0.0 
0.0 0.0 0.0 
0.0 0.0 0.0 
0.0 0.0 0.0 
0.0 0.0 0.0 
0.0 0.0 0.0 
0.0 0.0 0.0 
0.0 0.0 0.0 
0.0 0.0 0.0 
0.0 0.0 0.0 
0.0 0.0 0.0 
0.0 0.0 0.0 
0.0 0.0 0.0 
0.0 0.0 0.0 
0.0 0.0 0.0 
0.0 0.0 0.0 
0.0 0.0 0.0 
0.0 0.0 0.0 
0.0 0.0 0.0 
0.0 0.0 0.0 
0.0 0.0 0.0 
0.0 0.0 0.0 
0.0 0.0 0.0 
0.0 0.0 0.0 
0.0 0.0 0.0 
0.0 0.0 0.0 
0.0 0.0 0.0 
0.0 0.0 0.0 
0.0 0.0 0.0 
0.0 0.0 0.0 
0.0 0.0 0.0 
0.0 0.0 0.0 
0.0 0.0 0.0 
0.0 0.0 0.0 
0.0 0.0 0.0 
0.0 0.0 0.0 
0.0 0.0 0.0 
0.0 0.0 0.0 
0.0 0.0 0.0 
0.0 0.0 0.0 
0.0 0.0 0.0 
0.0 0.0 0.0 
0.0 0.0 0.0 
0.0 0.0 0.0 
0.0 0.0 0.0 
0.0 0.0 0.0 
0.0 0.0 0.0 
0.0 0.0 0.0 
0.0 0.0 0.0 
0.0 0.0 0.0 
0.0 0.0 0.0 
0.0 0.0 0.0 
0.0 0.0 0.0 
0.0 0.0 0.0 
0.0 0.0 0.0 
0.0 0.0 0.0 
0.0 0.0 0.0 
0.0 0.0 0.0 
0.0 0.0 0.0 
0.0 0.0 0.0 
0.0 0.0 0.0 
0.0 0.0 0.0 
0.0 0.0 0.0 
0.0 0.0 0.0 
0.0 0.0 0.0 
0.0 0.0 0.0 
0.0 0.0 0.0 
0.0 0.0 0.0 
0.0 0.0 0.0 
0.0 0.0 0.0 
0.0 0.0 0.0 
0.0 0.0 0.0 
0.0 0.0 0.0 
0.0 0.0 0.0 
0.0 0.0 0.0 
0.0 0.0 0.0 
0.0 0.0 0.0 
0.0 0.0 0.0 
0.0 0.0 0.0 
0.0 0.0 0.0 
0.0 0.0 0.0 
0.0 0.0 0.0 
0.0 0.0 0.0 
0.0 0.0 0.0 
0.0 0.0 0.0 
0.0 0.0 0.0 
0.0 0.0 0.0 
0.0 0.0 0.0 
0.0 0.0 0.0 
0.0 0.0 0.0 
0.0 0.0 0.0 
0.0 0.0 0.0 
0.0 0.0 0.0 
0.0 0.0 0.0 
0.0 0.0 0.0 
0.0 0.0 0.0 
0.0 0.0 0.0 
0.0 0.0 0.0 
0.0 0.0 0.0 
0.0 0.0 0.0 
0.0 0.0 0.0 
0.0 0.0 0.0 
0.0 0.0 0.0 
0.0 0.0 0.0 
0.0 0.0 0.0 
0.0 0.0 0.0 
0.0 0.0 0.0 
0.0 0.0 0.0 
0.0 0.0 0.0 
0.0 0.0 0.0 
0.0 0.0 0.0 
0.0 0.0 0.0 
0.0 0.0 0.0 
0.0 0.0 0.0 
0.0 0.0 0.0 
0.0 0.0 0.0 
0.0 0.0 0.0 
0.0 0.0 0.0 
0.0 0.0 0.0 
0.0 0.0 0.0 
0.0 0.0 0.0 
0.0 0.0 0.0 
0.0 0.0 0.0 
0.0 0.0 0.0 
0.0 0.0 0.0 
0.0 0.0 0.0 
0.0 0.0 0.0 
0.0 0.0 0.0 
0.0 0.0 0.0 
0.0 0.0 0.0 
0.0 0.0 0.0 
0.0 0.0 0.0 
0.0 0.0 0.0 
0.0 0.0 0.0 
0.0 0.0 0.0 
0.0 0.0 0.0 
0.0 0.0 0.0 
0.0 0.0 0.0 
0.0 0.0 0.0 
0.0 0.0 0.0 
0.0 0.0 0.0 
0.0 0.0 0.0 
0.0 0.0 0.0 
0.0 0.0 0.0 
0.0 0.0 0.0 
0.0 0.0 0.0 
0.0 0.0 0.0 
0.0 0.0 0.0 
0.0 0.0 0.0 
0.0 0.0 0.0 
0.0 0.0 0.0 
0.0 0.0 0.0 
0.0 0.0 0.0 
0.0 0.0 0.0 
0.0 0.0 0.0 
0.0 0.0 0.0 
0.0 0.0 0.0 
0.0 0.0 0.0 
0.0 0.0 0.0 
0.0 0.0 0.0 
0.0 0.0 0.0 
0.0 0.0 0.0 
0.0 0.0 0.0 
0.0 0.0 0.0 
0.0 0.0 0.0 
0.0 0.0 0.0 
0.0 0.0 0.0 
0.0 0.0 0.0 
0.0 0.0 0.0 
0.0 0.0 0.0 
0.0 0.0 0.0 
0.0 0.0 0.0 
0.0 0.0 0.0 
0.0 0.0 0.0 
0.0 0.0 0.0 
0.0 0.0 0.0 
0.0 0.0 0.0 
0.0 0.0 0.0 
0.0 0.0 0.0 
0.0 0.0 0.0 
0.0 0.0 0.0 
0.0 0.0 0.0 
0.0 0.0 0.0 
0.0 0.0 0.0 
0.0 0.0 0.0 
0.0 0.0 0.0 
0.0 0.0 0.0 
0.0 0.0 0.0 
0.0 0.0 0.0 
0.0 0.0 0.0 
0.0 0.0 0.0 
0.0 0.0 0.0 
0.0 0.0 0.0 
0.0 0.0 0.0 
0.0 0.0 0.0 
0.0 0.0 0.0 
0.0 0.0 0.0 
0.0 0.0 0.0 
0.0 0.0 0.0 
0.0 0.0 0.0 
0.0 0.0 0.0 
0.0 0.0 0.0 
0.0 0.0 0.0 
0.0 0.0 0.0 
0.0 0.0 0.0 
0.0 0.0 0.0 
0.0 0.0 0.0 
0.0 0.0 0.0 
0.0 0.0 0.0 
0.0 0.0 0.0 
0.0 0.0 0.0 
0.0 0.0 0.0 
0.0 0.0 0.0 
0.0 0.0 0.0 
0.0 0.0 0.0 
0.0 0.0 0.0 
0.0 0.0 0.0 
0.0 0.0 0.0 
0.0 0.0 0.0 
0.0 0.0 0.0 
0.0 0.0 0.0 
0.0 0.0 0.0 
0.0 0.0 0.0 
0.0 0.0 0.0 
0.0 0.0 0.0 
0.0 0.0 0.0 
0.0 0.0 0.0 
0.0 0.0 0.0 
0.0 0.0 0.0 
0.0 0.0 0.0 
0.0 0.0 0.0 
0.0 0.0 0.0 
0.0 0.0 0.0 
0.0 0.0 0.0 
0.0 0.0 0.0 
0.0 0.0 0.0 
0.0 0.0 0.0 
0.0 0.0 0.0 
0.0 0.0 0.0 
0.0 0.0 0.0 
0.0 0.0 0.0 
0.0 0.0 0.0 
0.0 0.0 0.0 
0.0 0.0 0.0 
0.0 0.0 0.0 
0.0 0.0 0.0 
0.0 0.0 0.0 
0.0 0.0 0.0 
0.0 0.0 0.0 
0.0 0.0 0.0 
0.0 0.0 0.0 
0.0 0.0 0.0 
0.0 0.0 0.0 
0.0 0.0 0.0 
0.0 0.0 0.0 
0.0 0.0 0.0 
0.0 0.0 0.0 
0.0 0.0 0.0 
0.0 0.0 0.0 
0.0 0.0 0.0 
0.0 0.0 0.0 
0.0 0.0 0.0 
0.0 0.0 0.0 
0.0 0.0 0.0 
0.0 0.0 0.0 
0.0 0.0 0.0 
0.0 0.0 0.0 
0.0 0.0 0.0 
0.0 0.0 0.0 
0.0 0.0 0.0 
0.0 0.0 0.0 
0.0 0.0 0.0 
0.0 0.0 0.0 
0.0 0.0 0.0 
0.0 0.0 0.0 
0.0 0.0 0.0 
0.0 0.0 0.0 
0.0 0.0 0.0 
0.0 0.0 0.0 
0.0 0.0 0.0 
0.0 0.0 0.0 
0.0 0.0 0.0 
0.0 0.0 0.0 
0.0 0.0 0.0 
0.0 0.0 0.0 
0.0 0.0 0.0 
0.0 0.0 0.0 
0.0 0.0 0.0 
0.0 0.0 0.0 
0.0 0.0 0.0 
0.0 0.0 0.0 
0.0 0.0 0.0 
0.0 0.0 0.0 
0.0 0.0 0.0 
0.0 0.0 0.0 
0.0 0.0 0.0 
0.0 0.0 0.0 
0.0 0.0 0.0 
0.0 0.0 0.0 
0.0 0.0 0.0 
0.0 0.0 0.0 
0.0 0.0 0.0 
0.0 0.0 0.0 
0.0 0.0 0.0 
0.0 0.0 0.0 
0.0 0.0 0.0 
0.0 0.0 0.0 
0.0 0.0 0.0 
0.0 0.0 0.0 
0.0 0.0 0.0 
0.0 0.0 0.0 
0.0 0.0 0.0 
0.0 0.0 0.0 
0.0 0.0 0.0 
0.0 0.0 0.0 
0.0 0.0 0.0 
0.0 0.0 0.0 
0.0 0.0 0.0 
0.0 0.0 0.0 
0.0 0.0 0.0 
0.0 0.0 0.0 
0.0 0.0 0.0 
0.0 0.0 0.0 
0.0 0.0 0.0 
0.0 0.0 0.0 
0.0 0.0 0.0 
0.0 0.0 0.0 
0.0 0.0 0.0 
0.0 0.0 0.0 
0.0 0.0 0.0 
0.0 0.0 0.0 
0.0 0.0 0.0 
0.0 0.0 0.0 
0.0 0.0 0.0 
0.0 0.0 0.0 
0.0 0.0 0.0 
0.0 0.0 0.0 
0.0 0.0 0.0 
0.0 0.0 0.0 
0.0 0.0 0.0 
0.0 0.0 0.0 
0.0 0.0 0.0 
0.0 0.0 0.0 
0.0 0.0 0.0 
0.0 0.0 0.0 
0.0 0.0 0.0 
0.0 0.0 0.0 
0.0 0.0 0.0 
0.0 0.0 0.0 
0.0 0.0 0.0 
0.0 0.0 0.0 
0.0 0.0 0.0 
0.0 0.0 0.0 
0.0 0.0 0.0 
0.0 0.0 0.0 
0.0 0.0 0.0 
0.0 0.0 0.0 
0.0 0.0 0.0 
0.0 0.0 0.0 
0.0 0.0 0.0 
0.0 0.0 0.0 
0.0 0.0 0.0 
0.0 0.0 0.0 
0.0 0.0 0.0 
0.0 0.0 0.0 
0.0 0.0 0.0 
0.0 0.0 0.0 
0.0 0.0 0.0 
0.0 0.0 0.0 
0.0 0.0 0.0 
0.0 0.0 0.0 
0.0 0.0 0.0 
0.0 0.0 0.0 
0.0 0.0 0.0 
0.0 0.0 0.0 
0.0 0.0 0.0 
0.0 0.0 0.0 
0.0 0.0 0.0 
0.0 0.0 0.0 
0.0 0.0 0.0 
0.0 0.0 0.0 
0.0 0.0 0.0 
0.0 0.0 0.0 
0.0 0.0 0.0 
0.0 0.0 0.0 
0.0 0.0 0.0 
0.0 0.0 0.0 
0.0 0.0 0.0 
0.0 0.0 0.0 
0.0 0.0 0.0 
0.0 0.0 0.0 
0.0 0.0 0.0 
0.0 0.0 0.0 
0.0 0.0 0.0 
0.0 0.0 0.0 
0.0 0.0 0.0 
0.0 0.0 0.0 
0.0 0.0 0.0 
0.0 0.0 0.0 
0.0 0.0 0.0 
0.0 0.0 0.0 
0.0 0.0 0.0 
0.0 0.0 0.0 
0.0 0.0 0.0 
0.0 0.0 0.0 
0.0 0.0 0.0 
0.0 0.0 0.0 
0.0 0.0 0.0 
0.0 0.0 0.0 
0.0 0.0 0.0 
0.0 0.0 0.0 
0.0 0.0 0.0 
0.0 0.0 0.0 
0.0 0.0 0.0 
0.0 0.0 0.0 
0.0 0.0 0.0 
0.0 0.0 0.0 
0.0 0.0 0.0 
0.0 0.0 0.0 
0.0 0.0 0.0 
0.0 0.0 0.0 
0.0 0.0 0.0 
0.0 0.0 0.0 
0.0 0.0 0.0 
0.0 0.0 0.0 
0.0 0.0 0.0 
0.0 0.0 0.0 
0.0 0.0 0.0 
0.0 0.0 0.0 
0.0 0.0 0.0 
0.0 0.0 0.0 
0.0 0.0 0.0 
0.0 0.0 0.0 
0.0 0.0 0.0 
0.0 0.0 0.0 
0.0 0.0 0.0 
0.0 0.0 0.0 
0.0 0.0 0.0 
0.0 0.0 0.0 
0.0 0.0 0.0 
0.0 0.0 0.0 
0.0 0.0 0.0 
0.0 0.0 0.0 
0.0 0.0 0.0 
0.0 0.0 0.0 
0.0 0.0 0.0 
0.0 0.0 0.0 
0.0 0.0 0.0 
0.0 0.0 0.0 
0.0 0.0 0.0 
0.0 0.0 0.0 
0.0 0.0 0.0 
0.0 0.0 0.0 
0.0 0.0 0.0 
0.0 0.0 0.0 
0.0 0.0 0.0 
0.0 0.0 0.0 
0.0 0.0 0.0 
0.0 0.0 0.0 
0.0 0.0 0.0 
0.0 0.0 0.0 
0.0 0.0 0.0 
0.0 0.0 0.0 
0.0 0.0 0.0 
0.0 0.0 0.0 
0.0 0.0 0.0 
0.0 0.0 0.0 
0.0 0.0 0.0 
0.0 0.0 0.0 
0.0 0.0 0.0 
0.0 0.0 0.0 
0.0 0.0 0.0 
0.0 0.0 0.0 
0.0 0.0 0.0 
0.0 0.0 0.0 
0.0 0.0 0.0 
0.0 0.0 0.0 
0.0 0.0 0.0 
0.0 0.0 0.0 
0.0 0.0 0.0 
0.0 0.0 0.0 
0.0 0.0 0.0 
0.0 0.0 0.0 
0.0 0.0 0.0 
0.0 0.0 0.0 
0.0 0.0 0.0 
0.0 0.0 0.0 
0.0 0.0 0.0 
0.0 0.0 0.0 
0.0 0.0 0.0 
0.0 0.0 0.0 
0.0 0.0 0.0 
0.0 0.0 0.0 
0.0 0.0 0.0 
0.0 0.0 0.0 
0.0 0.0 0.0 
0.0 0.0 0.0 
0.0 0.0 0.0 
0.0 0.0 0.0 
0.0 0.0 0.0 
0.0 0.0 0.0 
0.0 0.0 0.0 
0.0 0.0 0.0 
0.0 0.0 0.0 
0.0 0.0 0.0 
0.0 0.0 0.0 
0.0 0.0 0.0 
0.0 0.0 0.0 
0.0 0.0 0.0 
0.0 0.0 0.0 
0.0 0.0 0.0 
0.0 0.0 0.0 
0.0 0.0 0.0 
0.0 0.0 0.0 
0.0 0.0 0.0 
0.0 0.0 0.0 
0.0 0.0 0.0 
0.0 0.0 0.0 
0.0 0.0 0.0 
0.0 0.0 0.0 
0.0 0.0 0.0 
0.0 0.0 0.0 
0.0 0.0 0.0 
0.0 0.0 0.0 
0.0 0.0 0.0 
0.0 0.0 0.0 
0.0 0.0 0.0 
0.0 0.0 0.0 
0.0 0.0 0.0 
0.0 0.0 0.0 
0.0 0.0 0.0 
0.0 0.0 0.0 
0.0 0.0 0.0 
0.0 0.0 0.0 
0.0 0.0 0.0 
0.0 0.0 0.0 
0.0 0.0 0.0 
0.0 0.0 0.0 
0.0 0.0 0.0 
0.0 0.0 0.0 
0.0 0.0 0.0 
0.0 0.0 0.0 
0.0 0.0 0.0 
0.0 0.0 0.0 
0.0 0.0 0.0 
0.0 0.0 0.0 
0.0 0.0 0.0 
0.0 0.0 0.0 
0.0 0.0 0.0 
0.0 0.0 0.0 
0.0 0.0 0.0 
0.0 0.0 0.0 
0.0 0.0 0.0 
0.0 0.0 0.0 
0.0 0.0 0.0 
0.0 0.0 0.0 
0.0 0.0 0.0 
0.0 0.0 0.0 
0.0 0.0 0.0 
0.0 0.0 0.0 
0.0 0.0 0.0 
0.0 0.0 0.0 
0.0 0.0 0.0 
0.0 0.0 0.0 
0.0 0.0 0.0 
0.0 0.0 0.0 
0.0 0.0 0.0 
0.0 0.0 0.0 
0.0 0.0 0.0 
0.0 0.0 0.0 
0.0 0.0 0.0 
0.0 0.0 0.0 
0.0 0.0 0.0 
0.0 0.0 0.0 
0.0 0.0 0.0 
0.0 0.0 0.0 
0.0 0.0 0.0 
0.0 0.0 0.0 
0.0 0.0 0.0 
0.0 0.0 0.0 
0.0 0.0 0.0 
0.0 0.0 0.0 
0.0 0.0 0.0 
0.0 0.0 0.0 
0.0 0.0 0.0 
0.0 0.0 0.0 
0.0 0.0 0.0 
0.0 0.0 0.0 
0.0 0.0 0.0 
0.0 0.0 0.0 
0.0 0.0 0.0 
0.0 0.0 0.0 
0.0 0.0 0.0 
0.0 0.0 0.0 
0.0 0.0 0.0 
0.0 0.0 0.0 
0.0 0.0 0.0 
0.0 0.0 0.0 
0.0 0.0 0.0 
0.0 0.0 0.0 
0.0 0.0 0.0 
0.0 0.0 0.0 
0.0 0.0 0.0 
0.0 0.0 0.0 
0.0 0.0 0.0 
0.0 0.0 0.0 
0.0 0.0 0.0 
0.0 0.0 0.0 
0.0 0.0 0.0 
0.0 0.0 0.0 
0.0 0.0 0.0 
0.0 0.0 0.0 
0.0 0.0 0.0 
0.0 0.0 0.0 
0.0 0.0 0.0 
0.0 0.0 0.0 
0.0 0.0 0.0 
0.0 0.0 0.0 
0.0 0.0 0.0 
0.0 0.0 0.0 
0.0 0.0 0.0 
0.0 0.0 0.0 
0.0 0.0 0.0 
0.0 0.0 0.0 
0.0 0.0 0.0 
0.0 0.0 0.0 
0.0 0.0 0.0 
0.0 0.0 0.0 
0.0 0.0 0.0 
0.0 0.0 0.0 
0.0 0.0 0.0 
0.0 0.0 0.0 
0.0 0.0 0.0 
0.0 0.0 0.0 
0.0 0.0 0.0 
0.0 0.0 0.0 
0.0 0.0 0.0 
0.0 0.0 0.0 
0.0 0.0 0.0 
0.0 0.0 0.0 
0.0 0.0 0.0 
0.0 0.0 0.0 
0.0 0.0 0.0 
0.0 0.0 0.0 
0.0 0.0 0.0 
0.0 0.0 0.0 
0.0 0.0 0.0 
0.0 0.0 0.0 
0.0 0.0 0.0 
0.0 0.0 0.0 
0.0 0.0 0.0 
0.0 0.0 0.0 
0.0 0.0 0.0 
0.0 0.0 0.0 
0.0 0.0 0.0 
0.0 0.0 0.0 
0.0 0.0 0.0 
0.0 0.0 0.0 
0.0 0.0 0.0 
0.0 0.0 0.0 
0.0 0.0 0.0 
0.0 0.0 0.0 
0.0 0.0 0.0 
0.0 0.0 0.0 
0.0 0.0 0.0 
0.0 0.0 0.0 
0.0 0.0 0.0 
0.0 0.0 0.0 
0.0 0.0 0.0 
0.0 0.0 0.0 
0.0 0.0 0.0 
0.0 0.0 0.0 
0.0 0.0 0.0 
0.0 0.0 0.0 
0.0 0.0 0.0 
0.0 0.0 0.0 
0.0 0.0 0.0 
0.0 0.0 0.0 
0.0 0.0 0.0 
0.0 0.0 0.0 
0.0 0.0 0.0 
0.0 0.0 0.0 
0.0 0.0 0.0 
0.0 0.0 0.0 
0.0 0.0 0.0 
0.0 0.0 0.0 
0.0 0.0 0.0 
0.0 0.0 0.0 
0.0 0.0 0.0 
0.0 0.0 0.0 
0.0 0.0 0.0 
0.0 0.0 0.0 
0.0 0.0 0.0 
0.0 0.0 0.0 
0.0 0.0 0.0 
0.0 0.0 0.0 
0.0 0.0 0.0 
0.0 0.0 0.0 
0.0 0.0 0.0 
0.0 0.0 0.0 
0.0 0.0 0.0 
0.0 0.0 0.0 
0.0 0.0 0.0 
0.0 0.0 0.0 
0.0 0.0 0.0 
0.0 0.0 0.0 
0.0 0.0 0.0 
0.0 0.0 0.0 
0.0 0.0 0.0 
0.0 0.0 0.0 
0.0 0.0 0.0 
0.0 0.0 0.0 
0.0 0.0 0.0 
0.0 0.0 0.0 
0.0 0.0 0.0 
0.0 0.0 0.0 
0.0 0.0 0.0 
0.0 0.0 0.0 
0.0 0.0 0.0 
0.0 0.0 0.0 
0.0 0.0 0.0 
0.0 0.0 0.0 
0.0 0.0 0.0 
0.0 0.0 0.0 
0.0 0.0 0.0 
0.0 0.0 0.0 
0.0 0.0 0.0 
0.0 0.0 0.0 
0.0 0.0 0.0 
0.0 0.0 0.0 
0.0 0.0 0.0 
0.0 0.0 0.0 
0.0 0.0 0.0 
0.0 0.0 0.0 
0.0 0.0 0.0 
0.0 0.0 0.0 
0.0 0.0 0.0 
0.0 0.0 0.0 
0.0 0.0 0.0 
0.0 0.0 0.0 
0.0 0.0 0.0 
0.0 0.0 0.0 
0.0 0.0 0.0 
0.0 0.0 0.0 
0.0 0.0 0.0 
0.0 0.0 0.0 
0.0 0.0 0.0 
0.0 0.0 0.0 
0.0 0.0 0.0 
0.0 0.0 0.0 
0.0 0.0 0.0 
0.0 0.0 0.0 
0.0 0.0 0.0 
0.0 0.0 0.0 
0.0 0.0 0.0 
0.0 0.0 0.0 
0.0 0.0 0.0 
0.0 0.0 0.0 
0.0 0.0 0.0 
0.0 0.0 0.0 
0.0 0.0 0.0 
0.0 0.0 0.0 
0.0 0.0 0.0 
0.0 0.0 0.0 
0.0 0.0 0.0 
0.0 0.0 0.0 
0.0 0.0 0.0 
0.0 0.0 0.0 
0.0 0.0 0.0 
0.0 0.0 0.0 
0.0 0.0 0.0 
0.0 0.0 0.0 
0.0 0.0 0.0 
0.0 0.0 0.0 
0.0 0.0 0.0 
0.0 0.0 0.0 
0.0 0.0 0.0 
0.0 0.0 0.0 
0.0 0.0 0.0 
0.0 0.0 0.0 
0.0 0.0 0.0 
0.0 0.0 0.0 
0.0 0.0 0.0 
0.0 0.0 0.0 
0.0 0.0 0.0 
0.0 0.0 0.0 
0.0 0.0 0.0 
0.0 0.0 0.0 
0.0 0.0 0.0 
0.0 0.0 0.0 
0.0 0.0 0.0 
0.0 0.0 0.0 
0.0 0.0 0.0 
0.0 0.0 0.0 
0.0 0.0 0.0 
0.0 0.0 0.0 
0.0 0.0 0.0 
0.0 0.0 0.0 
0.0 0.0 0.0 
0.0 0.0 0.0 
0.0 0.0 0.0 
0.0 0.0 0.0 
0.0 0.0 0.0 
0.0 0.0 0.0 
0.0 0.0 0.0 
0.0 0.0 0.0 
0.0 0.0 0.0 
0.0 0.0 0.0 
0.0 0.0 0.0 
0.0 0.0 0.0 
0.0 0.0 0.0 
0.0 0.0 0.0 
0.0 0.0 0.0 
0.0 0.0 0.0 
0.0 0.0 0.0 
0.0 0.0 0.0 
0.0 0.0 0.0 
0.0 0.0 0.0 
0.0 0.0 0.0 
0.0 0.0 0.0 
0.0 0.0 0.0 
0.0 0.0 0.0 
0.0 0.0 0.0 
0.0 0.0 0.0 
0.0 0.0 0.0 
0.0 0.0 0.0 
0.0 0.0 0.0 
0.0 0.0 0.0 
0.0 0.0 0.0 
0.0 0.0 0.0 
0.0 0.0 0.0 
0.0 0.0 0.0 
0.0 0.0 0.0 
0.0 0.0 0.0 
0.0 0.0 0.0 
0.0 0.0 0.0 
0.0 0.0 0.0 
0.0 0.0 0.0 
0.0 0.0 0.0 
0.0 0.0 0.0 
0.0 0.0 0.0 
0.0 0.0 0.0 
0.0 0.0 0.0 
0.0 0.0 0.0 
0.0 0.0 0.0 
0.0 0.0 0.0 
0.0 0.0 0.0 
0.0 0.0 0.0 
0.0 0.0 0.0 
0.0 0.0 0.0 
0.0 0.0 0.0 
0.0 0.0 0.0 
0.0 0.0 0.0 
0.0 0.0 0.0 
0.0 0.0 0.0 
0.0 0.0 0.0 
0.0 0.0 0.0 
0.0 0.0 0.0 
0.0 0.0 0.0 
0.0 0.0 0.0 
0.0 0.0 0.0 
0.0 0.0 0.0 
0.0 0.0 0.0 
0.0 0.0 0.0 
0.0 0.0 0.0 
0.0 0.0 0.0 
0.0 0.0 0.0 
0.0 0.0 0.0 
0.0 0.0 0.0 
0.0 0.0 0.0 
0.0 0.0 0.0 
0.0 0.0 0.0 
0.0 0.0 0.0 
0.0 0.0 0.0 
0.0 0.0 0.0 
0.0 0.0 0.0 
0.0 0.0 0.0 
0.0 0.0 0.0 
0.0 0.0 0.0 
0.0 0.0 0.0 
0.0 0.0 0.0 
0.0 0.0 0.0 
0.0 0.0 0.0 
0.0 0.0 0.0 
0.0 0.0 0.0 
0.0 0.0 0.0 
0.0 0.0 0.0 
0.0 0.0 0.0 
0.0 0.0 0.0 
0.0 0.0 0.0 
0.0 0.0 0.0 
0.0 0.0 0.0 
0.0 0.0 0.0 
0.0 0.0 0.0 
0.0 0.0 0.0 
0.0 0.0 0.0 
0.0 0.0 0.0 
0.0 0.0 0.0 
0.0 0.0 0.0 
0.0 0.0 0.0 
0.0 0.0 0.0 
0.0 0.0 0.0 
0.0 0.0 0.0 
0.0 0.0 0.0 
0.0 0.0 0.0 
0.0 0.0 0.0 
0.0 0.0 0.0 
0.0 0.0 0.0 
0.0 0.0 0.0 
0.0 0.0 0.0 
0.0 0.0 0.0 
0.0 0.0 0.0 
0.0 0.0 0.0 
0.0 0.0 0.0 
0.0 0.0 0.0 
0.0 0.0 0.0 
0.0 0.0 0.0 
0.0 0.0 0.0 
0.0 0.0 0.0 
0.0 0.0 0.0 
0.0 0.0 0.0 
0.0 0.0 0.0 
0.0 0.0 0.0 
0.0 0.0 0.0 
0.0 0.0 0.0 
0.0 0.0 0.0 
0.0 0.0 0.0 
0.0 0.0 0.0 
0.0 0.0 0.0 
0.0 0.0 0.0 
0.0 0.0 0.0 
0.0 0.0 0.0 
0.0 0.0 0.0 
0.0 0.0 0.0 
0.0 0.0 0.0 
0.0 0.0 0.0 
0.0 0.0 0.0 
0.0 0.0 0.0 
0.0 0.0 0.0 
0.0 0.0 0.0 
0.0 0.0 0.0 
0.0 0.0 0.0 
0.0 0.0 0.0 
0.0 0.0 0.0 
0.0 0.0 0.0 
0.0 0.0 0.0 
0.0 0.0 0.0 
0.0 0.0 0.0 
0.0 0.0 0.0 
0.0 0.0 0.0 
0.0 0.0 0.0 
0.0 0.0 0.0 
0.0 0.0 0.0 
0.0 0.0 0.0 
0.0 0.0 0.0 
0.0 0.0 0.0 
0.0 0.0 0.0 
0.0 0.0 0.0 
0.0 0.0 0.0 
0.0 0.0 0.0 
0.0 0.0 0.0 
0.0 0.0 0.0 
0.0 0.0 0.0 
0.0 0.0 0.0 
0.0 0.0 0.0 
0.0 0.0 0.0 
0.0 0.0 0.0 
0.0 0.0 0.0 
0.0 0.0 0.0 
0.0 0.0 0.0 
0.0 0.0 0.0 
0.0 0.0 0.0 
0.0 0.0 0.0 
0.0 0.0 0.0 
0.0 0.0 0.0 
0.0 0.0 0.0 
0.0 0.0 0.0 
0.0 0.0 0.0 
0.0 0.0 0.0 
0.0 0.0 0.0 
0.0 0.0 0.0 
0.0 0.0 0.0 
0.0 0.0 0.0 

VECTORS node_bounda_dof_materi_velocity_y float
0.0 0.0 0.0 
0.0 0.0 0.0 
0.0 1.000000000000e+00 0.0 
0.0 1.000000000000e+00 0.0 
0.0 0.0 0.0 
0.0 0.0 0.0 
0.0 0.0 0.0 
0.0 0.0 0.0 
0.0 0.0 0.0 
0.0 0.0 0.0 
0.0 0.0 0.0 
0.0 0.0 0.0 
0.0 0.0 0.0 
0.0 0.0 0.0 
0.0 0.0 0.0 
0.0 0.0 0.0 
0.0 0.0 0.0 
0.0 0.0 0.0 
0.0 0.0 0.0 
0.0 0.0 0.0 
0.0 0.0 0.0 
0.0 0.0 0.0 
0.0 0.0 0.0 
0.0 1.000000000000e+00 0.0 
0.0 1.000000000000e+00 0.0 
0.0 1.000000000000e+00 0.0 
0.0 1.000000000000e+00 0.0 
0.0 1.000000000000e+00 0.0 
0.0 1.000000000000e+00 0.0 
0.0 1.000000000000e+00 0.0 
0.0 1.000000000000e+00 0.0 
0.0 1.000000000000e+00 0.0 
0.0 1.000000000000e+00 0.0 
0.0 1.000000000000e+00 0.0 
0.0 1.000000000000e+00 0.0 
0.0 1.000000000000e+00 0.0 
0.0 1.000000000000e+00 0.0 
0.0 1.000000000000e+00 0.0 
0.0 1.000000000000e+00 0.0 
0.0 1.000000000000e+00 0.0 
0.0 1.000000000000e+00 0.0 
0.0 1.000000000000e+00 0.0 
0.0 1.000000000000e+00 0.0 
0.0 1.000000000000e+00 0.0 
0.0 1.000000000000e+00 0.0 
0.0 1.000000000000e+00 0.0 
0.0 1.000000000000e+00 0.0 
0.0 1.000000000000e+00 0.0 
0.0 1.000000000000e+00 0.0 
0.0 1.000000000000e+00 0.0 
0.0 1.000000000000e+00 0.0 
0.0 1.000000000000e+00 0.0 
0.0 1.000000000000e+00 0.0 
0.0 1.000000000000e+00 0.0 
0.0 1.000000000000e+00 0.0 
0.0 1.000000000000e+00 0.0 
0.0 1.000000000000e+00 0.0 
0.0 1.000000000000e+00 0.0 
0.0 1.000000000000e+00 0.0 
0.0 1.000000000000e+00 0.0 
0.0 1.000000000000e+00 0.0 
0.0 1.000000000000e+00 0.0 
0.0 1.000000000000e+00 0.0 
0.0 1.000000000000e+00 0.0 
0.0 1.000000000000e+00 0.0 
0.0 1.000000000000e+00 0.0 
0.0 1.000000000000e+00 0.0 
0.0 1.000000000000e+00 0.0 
0.0 1.000000000000e+00 0.0 
0.0 1.000000000000e+00 0.0 
0.0 1.000000000000e+00 0.0 
0.0 1.000000000000e+00 0.0 
0.0 0.0 0.0 
0.0 0.0 0.0 
0.0 0.0 0.0 
0.0 0.0 0.0 
0.0 0.0 0.0 
0.0 0.0 0.0 
0.0 0.0 0.0 
0.0 0.0 0.0 
0.0 0.0 0.0 
0.0 0.0 0.0 
0.0 0.0 0.0 
0.0 0.0 0.0 
0.0 0.0 0.0 
0.0 0.0 0.0 
0.0 0.0 0.0 
0.0 0.0 0.0 
0.0 0.0 0.0 
0.0 0.0 0.0 
0.0 0.0 0.0 
0.0 0.0 0.0 
0.0 0.0 0.0 
0.0 0.0 0.0 
0.0 0.0 0.0 
0.0 0.0 0.0 
0.0 0.0 0.0 
0.0 0.0 0.0 
0.0 0.0 0.0 
0.0 0.0 0.0 
0.0 0.0 0.0 
0.0 0.0 0.0 
0.0 0.0 0.0 
0.0 0.0 0.0 
0.0 0.0 0.0 
0.0 0.0 0.0 
0.0 0.0 0.0 
0.0 0.0 0.0 
0.0 0.0 0.0 
0.0 0.0 0.0 
0.0 0.0 0.0 
0.0 0.0 0.0 
0.0 0.0 0.0 
0.0 0.0 0.0 
0.0 0.0 0.0 
0.0 0.0 0.0 
0.0 0.0 0.0 
0.0 0.0 0.0 
0.0 0.0 0.0 
0.0 0.0 0.0 
0.0 0.0 0.0 
0.0 0.0 0.0 
0.0 0.0 0.0 
0.0 0.0 0.0 
0.0 0.0 0.0 
0.0 0.0 0.0 
0.0 0.0 0.0 
0.0 0.0 0.0 
0.0 0.0 0.0 
0.0 0.0 0.0 
0.0 0.0 0.0 
0.0 0.0 0.0 
0.0 0.0 0.0 
0.0 0.0 0.0 
0.0 0.0 0.0 
0.0 0.0 0.0 
0.0 0.0 0.0 
0.0 0.0 0.0 
0.0 0.0 0.0 
0.0 0.0 0.0 
0.0 0.0 0.0 
0.0 0.0 0.0 
0.0 0.0 0.0 
0.0 0.0 0.0 
0.0 0.0 0.0 
0.0 0.0 0.0 
0.0 0.0 0.0 
0.0 0.0 0.0 
0.0 0.0 0.0 
0.0 0.0 0.0 
0.0 0.0 0.0 
0.0 0.0 0.0 
0.0 0.0 0.0 
0.0 0.0 0.0 
0.0 0.0 0.0 
0.0 0.0 0.0 
0.0 0.0 0.0 
0.0 0.0 0.0 
0.0 0.0 0.0 
0.0 0.0 0.0 
0.0 0.0 0.0 
0.0 0.0 0.0 
0.0 0.0 0.0 
0.0 0.0 0.0 
0.0 0.0 0.0 
0.0 0.0 0.0 
0.0 0.0 0.0 
0.0 0.0 0.0 
0.0 0.0 0.0 
0.0 0.0 0.0 
0.0 0.0 0.0 
0.0 0.0 0.0 
0.0 0.0 0.0 
0.0 0.0 0.0 
0.0 0.0 0.0 
0.0 0.0 0.0 
0.0 0.0 0.0 
0.0 0.0 0.0 
0.0 0.0 0.0 
0.0 0.0 0.0 
0.0 0.0 0.0 
0.0 0.0 0.0 
0.0 0.0 0.0 
0.0 0.0 0.0 
0.0 0.0 0.0 
0.0 0.0 0.0 
0.0 0.0 0.0 
0.0 0.0 0.0 
0.0 0.0 0.0 
0.0 0.0 0.0 
0.0 0.0 0.0 
0.0 0.0 0.0 
0.0 0.0 0.0 
0.0 0.0 0.0 
0.0 0.0 0.0 
0.0 0.0 0.0 
0.0 0.0 0.0 
0.0 0.0 0.0 
0.0 0.0 0.0 
0.0 0.0 0.0 
0.0 0.0 0.0 
0.0 0.0 0.0 
0.0 0.0 0.0 
0.0 0.0 0.0 
0.0 0.0 0.0 
0.0 0.0 0.0 
0.0 0.0 0.0 
0.0 0.0 0.0 
0.0 0.0 0.0 
0.0 0.0 0.0 
0.0 0.0 0.0 
0.0 0.0 0.0 
0.0 0.0 0.0 
0.0 0.0 0.0 
0.0 0.0 0.0 
0.0 0.0 0.0 
0.0 0.0 0.0 
0.0 0.0 0.0 
0.0 0.0 0.0 
0.0 0.0 0.0 
0.0 0.0 0.0 
0.0 0.0 0.0 
0.0 0.0 0.0 
0.0 0.0 0.0 
0.0 0.0 0.0 
0.0 0.0 0.0 
0.0 0.0 0.0 
0.0 0.0 0.0 
0.0 0.0 0.0 
0.0 0.0 0.0 
0.0 0.0 0.0 
0.0 0.0 0.0 
0.0 0.0 0.0 
0.0 0.0 0.0 
0.0 0.0 0.0 
0.0 0.0 0.0 
0.0 0.0 0.0 
0.0 0.0 0.0 
0.0 0.0 0.0 
0.0 0.0 0.0 
0.0 0.0 0.0 
0.0 0.0 0.0 
0.0 0.0 0.0 
0.0 0.0 0.0 
0.0 0.0 0.0 
0.0 0.0 0.0 
0.0 0.0 0.0 
0.0 0.0 0.0 
0.0 0.0 0.0 
0.0 0.0 0.0 
0.0 0.0 0.0 
0.0 0.0 0.0 
0.0 0.0 0.0 
0.0 0.0 0.0 
0.0 0.0 0.0 
0.0 0.0 0.0 
0.0 0.0 0.0 
0.0 0.0 0.0 
0.0 0.0 0.0 
0.0 0.0 0.0 
0.0 0.0 0.0 
0.0 0.0 0.0 
0.0 0.0 0.0 
0.0 0.0 0.0 
0.0 0.0 0.0 
0.0 0.0 0.0 
0.0 0.0 0.0 
0.0 0.0 0.0 
0.0 0.0 0.0 
0.0 0.0 0.0 
0.0 0.0 0.0 
0.0 0.0 0.0 
0.0 0.0 0.0 
0.0 0.0 0.0 
0.0 0.0 0.0 
0.0 0.0 0.0 
0.0 0.0 0.0 
0.0 0.0 0.0 
0.0 0.0 0.0 
0.0 0.0 0.0 
0.0 0.0 0.0 
0.0 0.0 0.0 
0.0 0.0 0.0 
0.0 0.0 0.0 
0.0 0.0 0.0 
0.0 0.0 0.0 
0.0 0.0 0.0 
0.0 0.0 0.0 
0.0 0.0 0.0 
0.0 0.0 0.0 
0.0 0.0 0.0 
0.0 0.0 0.0 
0.0 0.0 0.0 
0.0 0.0 0.0 
0.0 0.0 0.0 
0.0 0.0 0.0 
0.0 0.0 0.0 
0.0 0.0 0.0 
0.0 0.0 0.0 
0.0 0.0 0.0 
0.0 0.0 0.0 
0.0 0.0 0.0 
0.0 0.0 0.0 
0.0 0.0 0.0 
0.0 0.0 0.0 
0.0 0.0 0.0 
0.0 0.0 0.0 
0.0 0.0 0.0 
0.0 0.0 0.0 
0.0 0.0 0.0 
0.0 0.0 0.0 
0.0 0.0 0.0 
0.0 0.0 0.0 
0.0 0.0 0.0 
0.0 0.0 0.0 
0.0 0.0 0.0 
0.0 0.0 0.0 
0.0 0.0 0.0 
0.0 0.0 0.0 
0.0 0.0 0.0 
0.0 0.0 0.0 
0.0 0.0 0.0 
0.0 0.0 0.0 
0.0 0.0 0.0 
0.0 0.0 0.0 
0.0 0.0 0.0 
0.0 0.0 0.0 
0.0 0.0 0.0 
0.0 0.0 0.0 
0.0 0.0 0.0 
0.0 0.0 0.0 
0.0 0.0 0.0 
0.0 0.0 0.0 
0.0 0.0 0.0 
0.0 0.0 0.0 
0.0 0.0 0.0 
0.0 0.0 0.0 
0.0 0.0 0.0 
0.0 0.0 0.0 
0.0 0.0 0.0 
0.0 0.0 0.0 
0.0 0.0 0.0 
0.0 0.0 0.0 
0.0 0.0 0.0 
0.0 0.0 0.0 
0.0 0.0 0.0 
0.0 0.0 0.0 
0.0 0.0 0.0 
0.0 0.0 0.0 
0.0 0.0 0.0 
0.0 0.0 0.0 
0.0 0.0 0.0 
0.0 0.0 0.0 
0.0 0.0 0.0 
0.0 0.0 0.0 
0.0 0.0 0.0 
0.0 0.0 0.0 
0.0 0.0 0.0 
0.0 0.0 0.0 
0.0 0.0 0.0 
0.0 0.0 0.0 
0.0 0.0 0.0 
0.0 0.0 0.0 
0.0 0.0 0.0 
0.0 0.0 0.0 
0.0 0.0 0.0 
0.0 0.0 0.0 
0.0 0.0 0.0 
0.0 0.0 0.0 
0.0 0.0 0.0 
0.0 0.0 0.0 
0.0 0.0 0.0 
0.0 0.0 0.0 
0.0 0.0 0.0 
0.0 0.0 0.0 
0.0 0.0 0.0 
0.0 0.0 0.0 
0.0 0.0 0.0 
0.0 0.0 0.0 
0.0 0.0 0.0 
0.0 0.0 0.0 
0.0 0.0 0.0 
0.0 0.0 0.0 
0.0 0.0 0.0 
0.0 0.0 0.0 
0.0 0.0 0.0 
0.0 0.0 0.0 
0.0 0.0 0.0 
0.0 0.0 0.0 
0.0 0.0 0.0 
0.0 0.0 0.0 
0.0 0.0 0.0 
0.0 0.0 0.0 
0.0 0.0 0.0 
0.0 0.0 0.0 
0.0 0.0 0.0 
0.0 0.0 0.0 
0.0 0.0 0.0 
0.0 0.0 0.0 
0.0 0.0 0.0 
0.0 0.0 0.0 
0.0 0.0 0.0 
0.0 0.0 0.0 
0.0 0.0 0.0 
0.0 0.0 0.0 
0.0 0.0 0.0 
0.0 0.0 0.0 
0.0 0.0 0.0 
0.0 0.0 0.0 
0.0 0.0 0.0 
0.0 0.0 0.0 
0.0 0.0 0.0 
0.0 0.0 0.0 
0.0 0.0 0.0 
0.0 0.0 0.0 
0.0 0.0 0.0 
0.0 0.0 0.0 
0.0 0.0 0.0 
0.0 0.0 0.0 
0.0 0.0 0.0 
0.0 0.0 0.0 
0.0 0.0 0.0 
0.0 0.0 0.0 
0.0 0.0 0.0 
0.0 0.0 0.0 
0.0 0.0 0.0 
0.0 0.0 0.0 
0.0 0.0 0.0 
0.0 0.0 0.0 
0.0 0.0 0.0 
0.0 0.0 0.0 
0.0 0.0 0.0 
0.0 0.0 0.0 
0.0 0.0 0.0 
0.0 0.0 0.0 
0.0 0.0 0.0 
0.0 0.0 0.0 
0.0 0.0 0.0 
0.0 0.0 0.0 
0.0 0.0 0.0 
0.0 0.0 0.0 
0.0 0.0 0.0 
0.0 0.0 0.0 
0.0 0.0 0.0 
0.0 0.0 0.0 
0.0 0.0 0.0 
0.0 0.0 0.0 
0.0 0.0 0.0 
0.0 0.0 0.0 
0.0 0.0 0.0 
0.0 0.0 0.0 
0.0 0.0 0.0 
0.0 0.0 0.0 
0.0 0.0 0.0 
0.0 0.0 0.0 
0.0 0.0 0.0 
0.0 0.0 0.0 
0.0 0.0 0.0 
0.0 0.0 0.0 
0.0 0.0 0.0 
0.0 0.0 0.0 
0.0 0.0 0.0 
0.0 0.0 0.0 
0.0 0.0 0.0 
0.0 0.0 0.0 
0.0 0.0 0.0 
0.0 0.0 0.0 
0.0 0.0 0.0 
0.0 0.0 0.0 
0.0 0.0 0.0 
0.0 0.0 0.0 
0.0 0.0 0.0 
0.0 0.0 0.0 
0.0 0.0 0.0 
0.0 0.0 0.0 
0.0 0.0 0.0 
0.0 0.0 0.0 
0.0 0.0 0.0 
0.0 0.0 0.0 
0.0 0.0 0.0 
0.0 0.0 0.0 
0.0 0.0 0.0 
0.0 0.0 0.0 
0.0 0.0 0.0 
0.0 0.0 0.0 
0.0 0.0 0.0 
0.0 0.0 0.0 
0.0 0.0 0.0 
0.0 0.0 0.0 
0.0 0.0 0.0 
0.0 0.0 0.0 
0.0 0.0 0.0 
0.0 0.0 0.0 
0.0 0.0 0.0 
0.0 0.0 0.0 
0.0 0.0 0.0 
0.0 0.0 0.0 
0.0 0.0 0.0 
0.0 0.0 0.0 
0.0 0.0 0.0 
0.0 0.0 0.0 
0.0 0.0 0.0 
0.0 0.0 0.0 
0.0 0.0 0.0 
0.0 0.0 0.0 
0.0 0.0 0.0 
0.0 0.0 0.0 
0.0 0.0 0.0 
0.0 0.0 0.0 
0.0 0.0 0.0 
0.0 0.0 0.0 
0.0 0.0 0.0 
0.0 0.0 0.0 
0.0 0.0 0.0 
0.0 0.0 0.0 
0.0 0.0 0.0 
0.0 0.0 0.0 
0.0 0.0 0.0 
0.0 0.0 0.0 
0.0 0.0 0.0 
0.0 0.0 0.0 
0.0 0.0 0.0 
0.0 0.0 0.0 
0.0 0.0 0.0 
0.0 0.0 0.0 
0.0 0.0 0.0 
0.0 0.0 0.0 
0.0 0.0 0.0 
0.0 0.0 0.0 
0.0 0.0 0.0 
0.0 0.0 0.0 
0.0 0.0 0.0 
0.0 0.0 0.0 
0.0 0.0 0.0 
0.0 0.0 0.0 
0.0 0.0 0.0 
0.0 0.0 0.0 
0.0 0.0 0.0 
0.0 0.0 0.0 
0.0 0.0 0.0 
0.0 0.0 0.0 
0.0 0.0 0.0 
0.0 0.0 0.0 
0.0 0.0 0.0 
0.0 0.0 0.0 
0.0 0.0 0.0 
0.0 0.0 0.0 
0.0 0.0 0.0 
0.0 0.0 0.0 
0.0 0.0 0.0 
0.0 0.0 0.0 
0.0 0.0 0.0 
0.0 0.0 0.0 
0.0 0.0 0.0 
0.0 0.0 0.0 
0.0 0.0 0.0 
0.0 0.0 0.0 
0.0 0.0 0.0 
0.0 0.0 0.0 
0.0 0.0 0.0 
0.0 0.0 0.0 
0.0 0.0 0.0 
0.0 0.0 0.0 
0.0 0.0 0.0 
0.0 0.0 0.0 
0.0 0.0 0.0 
0.0 0.0 0.0 
0.0 0.0 0.0 
0.0 0.0 0.0 
0.0 0.0 0.0 
0.0 0.0 0.0 
0.0 0.0 0.0 
0.0 0.0 0.0 
0.0 0.0 0.0 
0.0 0.0 0.0 
0.0 0.0 0.0 
0.0 0.0 0.0 
0.0 0.0 0.0 
0.0 0.0 0.0 
0.0 0.0 0.0 
0.0 0.0 0.0 
0.0 0.0 0.0 
0.0 0.0 0.0 
0.0 0.0 0.0 
0.0 0.0 0.0 
0.0 0.0 0.0 
0.0 0.0 0.0 
0.0 0.0 0.0 
0.0 0.0 0.0 
0.0 0.0 0.0 
0.0 0.0 0.0 
0.0 0.0 0.0 
0.0 0.0 0.0 
0.0 0.0 0.0 
0.0 0.0 0.0 
0.0 0.0 0.0 
0.0 0.0 0.0 
0.0 0.0 0.0 
0.0 0.0 0.0 
0.0 0.0 0.0 
0.0 0.0 0.0 
0.0 0.0 0.0 
0.0 0.0 0.0 
0.0 0.0 0.0 
0.0 0.0 0.0 
0.0 0.0 0.0 
0.0 0.0 0.0 
0.0 0.0 0.0 
0.0 0.0 0.0 
0.0 0.0 0.0 
0.0 0.0 0.0 
0.0 0.0 0.0 
0.0 0.0 0.0 
0.0 0.0 0.0 
0.0 0.0 0.0 
0.0 0.0 0.0 
0.0 0.0 0.0 
0.0 0.0 0.0 
0.0 0.0 0.0 
0.0 0.0 0.0 
0.0 0.0 0.0 
0.0 0.0 0.0 
0.0 0.0 0.0 
0.0 0.0 0.0 
0.0 0.0 0.0 
0.0 0.0 0.0 
0.0 0.0 0.0 
0.0 0.0 0.0 
0.0 0.0 0.0 
0.0 0.0 0.0 
0.0 0.0 0.0 
0.0 0.0 0.0 
0.0 0.0 0.0 
0.0 0.0 0.0 
0.0 0.0 0.0 
0.0 0.0 0.0 
0.0 0.0 0.0 
0.0 0.0 0.0 
0.0 0.0 0.0 
0.0 0.0 0.0 
0.0 0.0 0.0 
0.0 0.0 0.0 
0.0 0.0 0.0 
0.0 0.0 0.0 
0.0 0.0 0.0 
0.0 0.0 0.0 
0.0 0.0 0.0 
0.0 0.0 0.0 
0.0 0.0 0.0 
0.0 0.0 0.0 
0.0 0.0 0.0 
0.0 0.0 0.0 
0.0 0.0 0.0 
0.0 0.0 0.0 
0.0 0.0 0.0 
0.0 0.0 0.0 
0.0 0.0 0.0 
0.0 0.0 0.0 
0.0 0.0 0.0 
0.0 0.0 0.0 
0.0 0.0 0.0 
0.0 0.0 0.0 
0.0 0.0 0.0 
0.0 0.0 0.0 
0.0 0.0 0.0 
0.0 0.0 0.0 
0.0 0.0 0.0 
0.0 0.0 0.0 
0.0 0.0 0.0 
0.0 0.0 0.0 
0.0 0.0 0.0 
0.0 0.0 0.0 
0.0 0.0 0.0 
0.0 0.0 0.0 
0.0 0.0 0.0 
0.0 0.0 0.0 
0.0 0.0 0.0 
0.0 0.0 0.0 
0.0 0.0 0.0 
0.0 0.0 0.0 
0.0 0.0 0.0 
0.0 0.0 0.0 
0.0 0.0 0.0 
0.0 0.0 0.0 
0.0 0.0 0.0 
0.0 0.0 0.0 
0.0 0.0 0.0 
0.0 0.0 0.0 
0.0 0.0 0.0 
0.0 0.0 0.0 
0.0 0.0 0.0 
0.0 0.0 0.0 
0.0 0.0 0.0 
0.0 0.0 0.0 
0.0 0.0 0.0 
0.0 0.0 0.0 
0.0 0.0 0.0 
0.0 0.0 0.0 
0.0 0.0 0.0 
0.0 0.0 0.0 
0.0 0.0 0.0 
0.0 0.0 0.0 
0.0 0.0 0.0 
0.0 0.0 0.0 
0.0 0.0 0.0 
0.0 0.0 0.0 
0.0 0.0 0.0 
0.0 0.0 0.0 
0.0 0.0 0.0 
0.0 0.0 0.0 
0.0 0.0 0.0 
0.0 0.0 0.0 
0.0 0.0 0.0 
0.0 0.0 0.0 
0.0 0.0 0.0 
0.0 0.0 0.0 
0.0 0.0 0.0 
0.0 0.0 0.0 
0.0 0.0 0.0 
0.0 0.0 0.0 
0.0 0.0 0.0 
0.0 0.0 0.0 
0.0 0.0 0.0 
0.0 0.0 0.0 
0.0 0.0 0.0 
0.0 0.0 0.0 
0.0 0.0 0.0 
0.0 0.0 0.0 
0.0 0.0 0.0 
0.0 0.0 0.0 
0.0 0.0 0.0 
0.0 0.0 0.0 
0.0 0.0 0.0 
0.0 0.0 0.0 
0.0 0.0 0.0 
0.0 0.0 0.0 
0.0 0.0 0.0 
0.0 0.0 0.0 
0.0 0.0 0.0 
0.0 0.0 0.0 
0.0 0.0 0.0 
0.0 0.0 0.0 
0.0 0.0 0.0 
0.0 0.0 0.0 
0.0 0.0 0.0 
0.0 0.0 0.0 
0.0 0.0 0.0 
0.0 0.0 0.0 
0.0 0.0 0.0 
0.0 0.0 0.0 
0.0 0.0 0.0 
0.0 0.0 0.0 
0.0 0.0 0.0 
0.0 0.0 0.0 
0.0 0.0 0.0 
0.0 0.0 0.0 
0.0 0.0 0.0 
0.0 0.0 0.0 
0.0 0.0 0.0 
0.0 0.0 0.0 
0.0 0.0 0.0 
0.0 0.0 0.0 
0.0 0.0 0.0 
0.0 0.0 0.0 
0.0 0.0 0.0 
0.0 0.0 0.0 
0.0 0.0 0.0 
0.0 0.0 0.0 
0.0 0.0 0.0 
0.0 0.0 0.0 
0.0 0.0 0.0 
0.0 0.0 0.0 
0.0 0.0 0.0 
0.0 0.0 0.0 
0.0 0.0 0.0 
0.0 0.0 0.0 
0.0 0.0 0.0 
0.0 0.0 0.0 
0.0 0.0 0.0 
0.0 0.0 0.0 
0.0 0.0 0.0 
0.0 0.0 0.0 
0.0 0.0 0.0 
0.0 0.0 0.0 
0.0 0.0 0.0 
0.0 0.0 0.0 
0.0 0.0 0.0 
0.0 0.0 0.0 
0.0 0.0 0.0 
0.0 0.0 0.0 
0.0 0.0 0.0 
0.0 0.0 0.0 
0.0 0.0 0.0 
0.0 0.0 0.0 
0.0 0.0 0.0 
0.0 0.0 0.0 
0.0 0.0 0.0 
0.0 0.0 0.0 
0.0 0.0 0.0 
0.0 0.0 0.0 
0.0 0.0 0.0 
0.0 0.0 0.0 
0.0 0.0 0.0 
0.0 0.0 0.0 
0.0 0.0 0.0 
0.0 0.0 0.0 
0.0 0.0 0.0 
0.0 0.0 0.0 
0.0 0.0 0.0 
0.0 0.0 0.0 
0.0 0.0 0.0 
0.0 0.0 0.0 
0.0 0.0 0.0 
0.0 0.0 0.0 
0.0 0.0 0.0 
0.0 0.0 0.0 
0.0 0.0 0.0 
0.0 0.0 0.0 
0.0 0.0 0.0 
0.0 0.0 0.0 
0.0 0.0 0.0 
0.0 0.0 0.0 
0.0 0.0 0.0 
0.0 0.0 0.0 
0.0 0.0 0.0 
0.0 0.0 0.0 
0.0 0.0 0.0 
0.0 0.0 0.0 
0.0 0.0 0.0 
0.0 0.0 0.0 
0.0 0.0 0.0 
0.0 0.0 0.0 
0.0 0.0 0.0 
0.0 0.0 0.0 
0.0 0.0 0.0 
0.0 0.0 0.0 
0.0 0.0 0.0 
0.0 0.0 0.0 
0.0 0.0 0.0 
0.0 0.0 0.0 
0.0 0.0 0.0 
0.0 0.0 0.0 
0.0 0.0 0.0 
0.0 0.0 0.0 
0.0 0.0 0.0 
0.0 0.0 0.0 
0.0 0.0 0.0 
0.0 0.0 0.0 
0.0 0.0 0.0 
0.0 0.0 0.0 
0.0 0.0 0.0 
0.0 0.0 0.0 
0.0 0.0 0.0 
0.0 0.0 0.0 
0.0 0.0 0.0 
0.0 0.0 0.0 
0.0 0.0 0.0 
0.0 0.0 0.0 
0.0 0.0 0.0 
0.0 0.0 0.0 
0.0 0.0 0.0 
0.0 0.0 0.0 
0.0 0.0 0.0 
0.0 0.0 0.0 
0.0 0.0 0.0 
0.0 0.0 0.0 
0.0 0.0 0.0 
0.0 0.0 0.0 
0.0 0.0 0.0 
0.0 0.0 0.0 
0.0 0.0 0.0 
0.0 0.0 0.0 
0.0 0.0 0.0 
0.0 0.0 0.0 
0.0 0.0 0.0 
0.0 0.0 0.0 
0.0 0.0 0.0 
0.0 0.0 0.0 
0.0 0.0 0.0 
0.0 0.0 0.0 
0.0 0.0 0.0 
0.0 0.0 0.0 
0.0 0.0 0.0 
0.0 0.0 0.0 
0.0 0.0 0.0 
0.0 0.0 0.0 
0.0 0.0 0.0 
0.0 0.0 0.0 
0.0 0.0 0.0 
0.0 0.0 0.0 
0.0 0.0 0.0 
0.0 0.0 0.0 
0.0 0.0 0.0 
0.0 0.0 0.0 
0.0 0.0 0.0 
0.0 0.0 0.0 
0.0 0.0 0.0 
0.0 0.0 0.0 
0.0 0.0 0.0 
0.0 0.0 0.0 
0.0 0.0 0.0 
0.0 0.0 0.0 
0.0 0.0 0.0 
0.0 0.0 0.0 
0.0 0.0 0.0 
0.0 0.0 0.0 
0.0 0.0 0.0 
0.0 0.0 0.0 
0.0 0.0 0.0 
0.0 0.0 0.0 
0.0 0.0 0.0 
0.0 0.0 0.0 
0.0 0.0 0.0 
0.0 0.0 0.0 
0.0 0.0 0.0 
0.0 0.0 0.0 
0.0 0.0 0.0 
0.0 0.0 0.0 
0.0 0.0 0.0 
0.0 0.0 0.0 
0.0 0.0 0.0 
0.0 0.0 0.0 
0.0 0.0 0.0 
0.0 0.0 0.0 
0.0 0.0 0.0 
0.0 0.0 0.0 
0.0 0.0 0.0 
0.0 0.0 0.0 
0.0 0.0 0.0 
0.0 0.0 0.0 
0.0 0.0 0.0 
0.0 0.0 0.0 
0.0 0.0 0.0 
0.0 0.0 0.0 
0.0 0.0 0.0 
0.0 0.0 0.0 
0.0 0.0 0.0 
0.0 0.0 0.0 
0.0 0.0 0.0 
0.0 0.0 0.0 
0.0 0.0 0.0 
0.0 0.0 0.0 
0.0 0.0 0.0 
0.0 0.0 0.0 
0.0 0.0 0.0 
0.0 0.0 0.0 
0.0 0.0 0.0 
0.0 0.0 0.0 
0.0 0.0 0.0 
0.0 0.0 0.0 
0.0 0.0 0.0 
0.0 0.0 0.0 
0.0 0.0 0.0 
0.0 0.0 0.0 
0.0 0.0 0.0 
0.0 0.0 0.0 
0.0 0.0 0.0 
0.0 0.0 0.0 
0.0 0.0 0.0 
0.0 0.0 0.0 
0.0 0.0 0.0 
0.0 0.0 0.0 
0.0 0.0 0.0 
0.0 0.0 0.0 
0.0 0.0 0.0 
0.0 0.0 0.0 
0.0 0.0 0.0 
0.0 0.0 0.0 
0.0 0.0 0.0 
0.0 0.0 0.0 
0.0 0.0 0.0 
0.0 0.0 0.0 
0.0 0.0 0.0 
0.0 0.0 0.0 
0.0 0.0 0.0 
0.0 0.0 0.0 
0.0 0.0 0.0 
0.0 0.0 0.0 
0.0 0.0 0.0 
0.0 0.0 0.0 
0.0 0.0 0.0 
0.0 0.0 0.0 
0.0 0.0 0.0 
0.0 0.0 0.0 
0.0 0.0 0.0 
0.0 0.0 0.0 
0.0 0.0 0.0 
0.0 0.0 0.0 
0.0 0.0 0.0 
0.0 0.0 0.0 
0.0 0.0 0.0 
0.0 0.0 0.0 
0.0 0.0 0.0 
0.0 0.0 0.0 
0.0 0.0 0.0 
0.0 0.0 0.0 
0.0 0.0 0.0 
0.0 0.0 0.0 
0.0 0.0 0.0 
0.0 0.0 0.0 
0.0 0.0 0.0 
0.0 0.0 0.0 
0.0 0.0 0.0 
0.0 0.0 0.0 
0.0 0.0 0.0 
0.0 0.0 0.0 
0.0 0.0 0.0 
0.0 0.0 0.0 
0.0 0.0 0.0 
0.0 0.0 0.0 
0.0 0.0 0.0 
0.0 0.0 0.0 
0.0 0.0 0.0 
0.0 0.0 0.0 
0.0 0.0 0.0 
0.0 0.0 0.0 
0.0 0.0 0.0 
0.0 0.0 0.0 
0.0 0.0 0.0 
0.0 0.0 0.0 
0.0 0.0 0.0 
0.0 0.0 0.0 
0.0 0.0 0.0 
0.0 0.0 0.0 
0.0 0.0 0.0 
0.0 0.0 0.0 
0.0 0.0 0.0 
0.0 0.0 0.0 
0.0 0.0 0.0 
0.0 0.0 0.0 
0.0 0.0 0.0 
0.0 0.0 0.0 
0.0 0.0 0.0 
0.0 0.0 0.0 
0.0 0.0 0.0 
0.0 0.0 0.0 
0.0 0.0 0.0 
0.0 0.0 0.0 
0.0 0.0 0.0 
0.0 0.0 0.0 
0.0 0.0 0.0 
0.0 0.0 0.0 
0.0 0.0 0.0 
0.0 0.0 0.0 
0.0 0.0 0.0 
0.0 0.0 0.0 
0.0 0.0 0.0 
0.0 0.0 0.0 
0.0 0.0 0.0 
0.0 0.0 0.0 
0.0 0.0 0.0 
0.0 0.0 0.0 
0.0 0.0 0.0 
0.0 0.0 0.0 
0.0 0.0 0.0 
0.0 0.0 0.0 
0.0 0.0 0.0 
0.0 0.0 0.0 
0.0 0.0 0.0 
0.0 0.0 0.0 
0.0 0.0 0.0 
0.0 0.0 0.0 
0.0 0.0 0.0 
0.0 0.0 0.0 
0.0 0.0 0.0 
0.0 0.0 0.0 
0.0 0.0 0.0 
0.0 0.0 0.0 
0.0 0.0 0.0 
0.0 0.0 0.0 
0.0 0.0 0.0 
0.0 0.0 0.0 
0.0 0.0 0.0 
0.0 0.0 0.0 
0.0 0.0 0.0 
0.0 0.0 0.0 
0.0 0.0 0.0 
0.0 0.0 0.0 
0.0 0.0 0.0 
0.0 0.0 0.0 
0.0 0.0 0.0 
0.0 0.0 0.0 
0.0 0.0 0.0 
0.0 0.0 0.0 
0.0 0.0 0.0 
0.0 0.0 0.0 
0.0 0.0 0.0 
0.0 0.0 0.0 
0.0 0.0 0.0 
0.0 0.0 0.0 
0.0 0.0 0.0 
0.0 0.0 0.0 
0.0 0.0 0.0 
0.0 0.0 0.0 
0.0 0.0 0.0 
0.0 0.0 0.0 
0.0 0.0 0.0 
0.0 0.0 0.0 
0.0 0.0 0.0 
0.0 0.0 0.0 
0.0 0.0 0.0 
0.0 0.0 0.0 
0.0 0.0 0.0 
0.0 0.0 0.0 
0.0 0.0 0.0 
0.0 0.0 0.0 
0.0 0.0 0.0 
0.0 0.0 0.0 
0.0 0.0 0.0 
0.0 0.0 0.0 
0.0 0.0 0.0 
0.0 0.0 0.0 
0.0 0.0 0.0 
0.0 0.0 0.0 
0.0 0.0 0.0 
0.0 0.0 0.0 
0.0 0.0 0.0 
0.0 0.0 0.0 
0.0 0.0 0.0 
0.0 0.0 0.0 
0.0 0.0 0.0 
0.0 0.0 0.0 
0.0 0.0 0.0 
0.0 0.0 0.0 
0.0 0.0 0.0 
0.0 0.0 0.0 
0.0 0.0 0.0 
0.0 0.0 0.0 
0.0 0.0 0.0 
0.0 0.0 0.0 
0.0 0.0 0.0 
0.0 0.0 0.0 
0.0 0.0 0.0 
0.0 0.0 0.0 
0.0 0.0 0.0 
0.0 0.0 0.0 
0.0 0.0 0.0 

SCALARS node_boundary float
LOOKUP_TABLE default
1.000000000000e+00 
1.000000000000e+00 
1.000000000000e+00 
1.000000000000e+00 
1.000000000000e+00 
1.000000000000e+00 
1.000000000000e+00 
1.000000000000e+00 
1.000000000000e+00 
1.000000000000e+00 
1.000000000000e+00 
1.000000000000e+00 
1.000000000000e+00 
1.000000000000e+00 
1.000000000000e+00 
1.000000000000e+00 
1.000000000000e+00 
1.000000000000e+00 
1.000000000000e+00 
1.000000000000e+00 
1.000000000000e+00 
1.000000000000e+00 
1.000000000000e+00 
1.000000000000e+00 
1.000000000000e+00 
1.000000000000e+00 
1.000000000000e+00 
1.000000000000e+00 
1.000000000000e+00 
1.000000000000e+00 
1.000000000000e+00 
1.000000000000e+00 
1.000000000000e+00 
1.000000000000e+00 
1.000000000000e+00 
1.000000000000e+00 
1.000000000000e+00 
1.000000000000e+00 
1.000000000000e+00 
1.000000000000e+00 
1.000000000000e+00 
1.000000000000e+00 
1.000000000000e+00 
1.000000000000e+00 
1.000000000000e+00 
1.000000000000e+00 
1.000000000000e+00 
1.000000000000e+00 
1.000000000000e+00 
1.000000000000e+00 
1.000000000000e+00 
1.000000000000e+00 
1.000000000000e+00 
1.000000000000e+00 
1.000000000000e+00 
1.000000000000e+00 
1.000000000000e+00 
1.000000000000e+00 
1.000000000000e+00 
1.000000000000e+00 
1.000000000000e+00 
1.000000000000e+00 
1.000000000000e+00 
1.000000000000e+00 
1.000000000000e+00 
1.000000000000e+00 
1.000000000000e+00 
1.000000000000e+00 
1.000000000000e+00 
1.000000000000e+00 
1.000000000000e+00 
1.000000000000e+00 
1.000000000000e+00 
1.000000000000e+00 
1.000000000000e+00 
1.000000000000e+00 
1.000000000000e+00 
1.000000000000e+00 
1.000000000000e+00 
1.000000000000e+00 
1.000000000000e+00 
1.000000000000e+00 
0.0
1.000000000000e+00 
1.000000000000e+00 
1.000000000000e+00 
1.000000000000e+00 
1.000000000000e+00 
0.0
0.0
0.0
0.0
1.000000000000e+00 
1.000000000000e+00 
1.000000000000e+00 
1.000000000000e+00 
1.000000000000e+00 
0.0
0.0
0.0
0.0
0.0
0.0
0.0
0.0
0.0
0.0
0.0
0.0
0.0
0.0
1.000000000000e+00 
1.000000000000e+00 
1.000000000000e+00 
1.000000000000e+00 
1.000000000000e+00 
1.000000000000e+00 
1.000000000000e+00 
1.000000000000e+00 
1.000000000000e+00 
1.000000000000e+00 
1.000000000000e+00 
1.000000000000e+00 
1.000000000000e+00 
1.000000000000e+00 
1.000000000000e+00 
1.000000000000e+00 
1.000000000000e+00 
1.000000000000e+00 
1.000000000000e+00 
1.000000000000e+00 
1.000000000000e+00 
1.000000000000e+00 
1.000000000000e+00 
1.000000000000e+00 
1.000000000000e+00 
1.000000000000e+00 
1.000000000000e+00 
1.000000000000e+00 
1.000000000000e+00 
1.000000000000e+00 
1.000000000000e+00 
1.000000000000e+00 
1.000000000000e+00 
1.000000000000e+00 
1.000000000000e+00 
1.000000000000e+00 
1.000000000000e+00 
1.000000000000e+00 
1.000000000000e+00 
1.000000000000e+00 
1.000000000000e+00 
0.0
0.0
0.0
0.0
0.0
0.0
0.0
0.0
0.0
0.0
0.0
0.0
0.0
0.0
0.0
0.0
0.0
0.0
0.0
0.0
0.0
0.0
0.0
0.0
0.0
0.0
0.0
0.0
0.0
0.0
0.0
0.0
0.0
0.0
0.0
0.0
0.0
0.0
0.0
0.0
0.0
0.0
0.0
0.0
0.0
0.0
0.0
0.0
0.0
0.0
0.0
0.0
0.0
0.0
0.0
0.0
0.0
0.0
0.0
0.0
0.0
0.0
0.0
0.0
0.0
0.0
0.0
0.0
0.0
0.0
0.0
0.0
1.000000000000e+00 
1.000000000000e+00 
1.000000000000e+00 
1.000000000000e+00 
1.000000000000e+00 
0.0
0.0
0.0
0.0
0.0
0.0
0.0
0.0
0.0
0.0
0.0
0.0
0.0
0.0
0.0
0.0
0.0
0.0
0.0
0.0
0.0
0.0
0.0
0.0
0.0
0.0
0.0
0.0
0.0
0.0
0.0
0.0
0.0
0.0
0.0
0.0
0.0
0.0
0.0
0.0
0.0
0.0
0.0
0.0
0.0
0.0
0.0
0.0
0.0
0.0
0.0
0.0
0.0
0.0
0.0
0.0
0.0
0.0
0.0
0.0
0.0
0.0
0.0
0.0
0.0
0.0
0.0
0.0
0.0
0.0
0.0
0.0
0.0
0.0
0.0
0.0
0.0
0.0
0.0
0.0
0.0
0.0
0.0
0.0
0.0
0.0
0.0
0.0
0.0
0.0
0.0
0.0
0.0
0.0
0.0
0.0
0.0
0.0
0.0
0.0
0.0
0.0
0.0
0.0
0.0
0.0
0.0
0.0
0.0
0.0
0.0
0.0
0.0
0.0
0.0
0.0
0.0
0.0
0.0
0.0
0.0
0.0
0.0
0.0
0.0
0.0
0.0
0.0
0.0
0.0
0.0
0.0
0.0
0.0
0.0
0.0
0.0
0.0
0.0
0.0
0.0
0.0
0.0
0.0
0.0
0.0
0.0
0.0
0.0
0.0
0.0
0.0
0.0
0.0
0.0
0.0
0.0
0.0
0.0
0.0
0.0
0.0
0.0
0.0
0.0
0.0
0.0
0.0
0.0
0.0
0.0
0.0
0.0
0.0
0.0
0.0
0.0
0.0
0.0
0.0
0.0
0.0
0.0
0.0
0.0
0.0
0.0
0.0
0.0
0.0
0.0
0.0
0.0
0.0
0.0
0.0
0.0
0.0
0.0
0.0
0.0
0.0
0.0
0.0
0.0
0.0
0.0
0.0
0.0
0.0
0.0
0.0
0.0
0.0
0.0
0.0
0.0
0.0
0.0
0.0
0.0
0.0
0.0
0.0
0.0
0.0
0.0
0.0
0.0
0.0
0.0
0.0
0.0
0.0
0.0
0.0
0.0
0.0
0.0
0.0
0.0
0.0
0.0
0.0
0.0
0.0
0.0
0.0
0.0
0.0
0.0
0.0
0.0
0.0
0.0
0.0
0.0
0.0
0.0
0.0
0.0
0.0
0.0
0.0
0.0
0.0
0.0
0.0
0.0
0.0
0.0
0.0
0.0
0.0
0.0
0.0
0.0
0.0
0.0
0.0
0.0
0.0
0.0
0.0
0.0
0.0
0.0
0.0
0.0
0.0
0.0
0.0
0.0
0.0
0.0
0.0
0.0
0.0
0.0
0.0
0.0
0.0
0.0
0.0
0.0
0.0
0.0
0.0
0.0
0.0
0.0
0.0
0.0
0.0
0.0
0.0
0.0
0.0
0.0
0.0
0.0
0.0
0.0
0.0
0.0
0.0
0.0
0.0
0.0
0.0
0.0
0.0
0.0
0.0
0.0
0.0
0.0
0.0
0.0
0.0
0.0
0.0
0.0
0.0
0.0
0.0
0.0
0.0
0.0
0.0
0.0
0.0
0.0
0.0
0.0
0.0
0.0
0.0
0.0
0.0
0.0
0.0
0.0
0.0
0.0
0.0
0.0
0.0
0.0
0.0
0.0
0.0
0.0
0.0
0.0
0.0
0.0
0.0
0.0
0.0
0.0
0.0
0.0
0.0
0.0
0.0
0.0
0.0
0.0
0.0
0.0
0.0
0.0
0.0
0.0
0.0
0.0
0.0
0.0
0.0
0.0
0.0
0.0
0.0
0.0
0.0
0.0
0.0
0.0
0.0
0.0
0.0
0.0
0.0
0.0
0.0
0.0
0.0
0.0
0.0
0.0
0.0
0.0
0.0
0.0
0.0
0.0
0.0
0.0
0.0
0.0
0.0
0.0
0.0
0.0
0.0
0.0
0.0
0.0
0.0
0.0
0.0
0.0
0.0
0.0
0.0
0.0
0.0
0.0
0.0
0.0
0.0
0.0
0.0
0.0
0.0
0.0
0.0
0.0
0.0
0.0
0.0
0.0
0.0
0.0
0.0
0.0
0.0
0.0
0.0
0.0
0.0
0.0
0.0
0.0
0.0
0.0
0.0
0.0
0.0
0.0
0.0
0.0
0.0
0.0
0.0
0.0
0.0
0.0
0.0
0.0
0.0
0.0
0.0
0.0
0.0
0.0
0.0
0.0
0.0
0.0
0.0
0.0
0.0
0.0
0.0
0.0
0.0
0.0
0.0
0.0
0.0
0.0
0.0
0.0
0.0
0.0
0.0
0.0
0.0
0.0
0.0
0.0
0.0
0.0
0.0
0.0
0.0
0.0
0.0
0.0
0.0
0.0
0.0
0.0
0.0
0.0
0.0
0.0
0.0
0.0
0.0
0.0
0.0
0.0
0.0
0.0
0.0
0.0
0.0
0.0
0.0
0.0
0.0
0.0
0.0
0.0
0.0
0.0
0.0
0.0
0.0
0.0
0.0
0.0
0.0
0.0
0.0
0.0
0.0
0.0
0.0
0.0
0.0
0.0
0.0
0.0
0.0
0.0
0.0
0.0
0.0
0.0
0.0
0.0
0.0
0.0
0.0
0.0
0.0
0.0
0.0
0.0
0.0
0.0
0.0
0.0
0.0
0.0
0.0
0.0
0.0
0.0
0.0
0.0
0.0
0.0
0.0
0.0
0.0
0.0
0.0
0.0
0.0
0.0
0.0
0.0
0.0
0.0
0.0
0.0
0.0
0.0
0.0
0.0
0.0
0.0
0.0
0.0
0.0
0.0
0.0
0.0
0.0
0.0
0.0
0.0
0.0
0.0
0.0
0.0
0.0
0.0
0.0
0.0
0.0
0.0
0.0
0.0
0.0
0.0
0.0
0.0
0.0
0.0
0.0
0.0
0.0
0.0
0.0
0.0
0.0
0.0
0.0
0.0
0.0
0.0
0.0
0.0
0.0
0.0
0.0
0.0
0.0
0.0
0.0
0.0
0.0
0.0
0.0
0.0
0.0
0.0
0.0
0.0
0.0
0.0
0.0
0.0
0.0
0.0
0.0
0.0
0.0
0.0
0.0
0.0
0.0
0.0
0.0
0.0
0.0
0.0
0.0
0.0
0.0
0.0
0.0
0.0
0.0
0.0
0.0
0.0
0.0
0.0
0.0
0.0
0.0
0.0
0.0
0.0
0.0
0.0
0.0
0.0
0.0
0.0
0.0
0.0
0.0
0.0
0.0
0.0
0.0
0.0
0.0
0.0
0.0
0.0
0.0
0.0
0.0
0.0
0.0
0.0
0.0
0.0
0.0
0.0
0.0
0.0
0.0
0.0
0.0
0.0
0.0
0.0
0.0
0.0
0.0
0.0
0.0
0.0
0.0
0.0
0.0
0.0
0.0
0.0
0.0
0.0
0.0
0.0
0.0
0.0
0.0
0.0
0.0
0.0
0.0
0.0
0.0
0.0
0.0
0.0
0.0
0.0
0.0
0.0
0.0
0.0
0.0
0.0
0.0
0.0
0.0
0.0
0.0
0.0
0.0
0.0
0.0
0.0
0.0
0.0
0.0
0.0
0.0
0.0
0.0
0.0
0.0
0.0
0.0
0.0
0.0
0.0
0.0
0.0
0.0
0.0
0.0
0.0
0.0
0.0
0.0
0.0
0.0
0.0
0.0
0.0
0.0
0.0
0.0
0.0
0.0
0.0
0.0
0.0
0.0
0.0
0.0
0.0
0.0
0.0
0.0
0.0
0.0
0.0
0.0
0.0
0.0
0.0
0.0
0.0
0.0
0.0
0.0
0.0
0.0
0.0
0.0
0.0
0.0
0.0
0.0
0.0
0.0
0.0
0.0
0.0
0.0
0.0
0.0
0.0
0.0
0.0
0.0
0.0
0.0
0.0
0.0
0.0
0.0
0.0
0.0
0.0
0.0
0.0
0.0
0.0
0.0
0.0
0.0
0.0
0.0
0.0
0.0
0.0
0.0
0.0
0.0
0.0
0.0
0.0
0.0
0.0
0.0

VECTORS node_force_gravity float
0.0 -1.962000000000e+01 0.0 
0.0 -1.962000000000e+01 0.0 
0.0 -1.962000000000e+01 0.0 
0.0 -1.962000000000e+01 0.0 
0.0 -1.962000000000e+01 0.0 
0.0 -1.962000000000e+01 0.0 
0.0 -1.962000000000e+01 0.0 
0.0 -1.962000000000e+01 0.0 
0.0 -1.962000000000e+01 0.0 
0.0 -1.962000000000e+01 0.0 
0.0 -1.962000000000e+01 0.0 
0.0 -1.962000000000e+01 0.0 
0.0 -1.962000000000e+01 0.0 
0.0 -1.962000000000e+01 0.0 
0.0 -1.962000000000e+01 0.0 
0.0 -1.962000000000e+01 0.0 
0.0 -1.962000000000e+01 0.0 
0.0 -1.962000000000e+01 0.0 
0.0 -1.962000000000e+01 0.0 
0.0 -1.962000000000e+01 0.0 
0.0 -1.962000000000e+01 0.0 
0.0 -1.962000000000e+01 0.0 
0.0 -1.962000000000e+01 0.0 
0.0 -1.962000000000e+01 0.0 
0.0 -1.962000000000e+01 0.0 
0.0 -1.962000000000e+01 0.0 
0.0 -1.962000000000e+01 0.0 
0.0 -1.962000000000e+01 0.0 
0.0 -1.962000000000e+01 0.0 
0.0 -1.962000000000e+01 0.0 
0.0 -1.962000000000e+01 0.0 
0.0 -1.962000000000e+01 0.0 
0.0 -1.962000000000e+01 0.0 
0.0 -1.962000000000e+01 0.0 
0.0 -1.962000000000e+01 0.0 
0.0 -1.962000000000e+01 0.0 
0.0 -1.962000000000e+01 0.0 
0.0 -1.962000000000e+01 0.0 
0.0 -1.962000000000e+01 0.0 
0.0 -1.962000000000e+01 0.0 
0.0 -1.962000000000e+01 0.0 
0.0 -1.962000000000e+01 0.0 
0.0 -1.962000000000e+01 0.0 
0.0 -1.962000000000e+01 0.0 
0.0 -1.962000000000e+01 0.0 
0.0 -1.962000000000e+01 0.0 
0.0 -1.962000000000e+01 0.0 
0.0 -1.962000000000e+01 0.0 
0.0 -1.962000000000e+01 0.0 
0.0 -1.962000000000e+01 0.0 
0.0 -1.962000000000e+01 0.0 
0.0 -1.962000000000e+01 0.0 
0.0 -1.962000000000e+01 0.0 
0.0 -1.962000000000e+01 0.0 
0.0 -1.962000000000e+01 0.0 
0.0 -1.962000000000e+01 0.0 
0.0 -1.962000000000e+01 0.0 
0.0 -1.962000000000e+01 0.0 
0.0 -1.962000000000e+01 0.0 
0.0 -1.962000000000e+01 0.0 
0.0 -1.962000000000e+01 0.0 
0.0 -1.962000000000e+01 0.0 
0.0 -1.962000000000e+01 0.0 
0.0 -1.962000000000e+01 0.0 
0.0 -1.962000000000e+01 0.0 
0.0 -1.962000000000e+01 0.0 
0.0 -1.962000000000e+01 0.0 
0.0 -1.962000000000e+01 0.0 
0.0 -1.962000000000e+01 0.0 
0.0 -1.962000000000e+01 0.0 
0.0 -1.962000000000e+01 0.0 
0.0 -1.962000000000e+01 0.0 
0.0 -1.962000000000e+01 0.0 
0.0 -1.962000000000e+01 0.0 
0.0 -1.962000000000e+01 0.0 
0.0 -1.962000000000e+01 0.0 
0.0 -1.962000000000e+01 0.0 
0.0 -1.962000000000e+01 0.0 
0.0 -1.962000000000e+01 0.0 
0.0 -1.962000000000e+01 0.0 
0.0 -1.962000000000e+01 0.0 
0.0 -1.962000000000e+01 0.0 
0.0 -1.962000000000e+01 0.0 
0.0 -1.962000000000e+01 0.0 
0.0 -1.962000000000e+01 0.0 
0.0 -1.962000000000e+01 0.0 
0.0 -1.962000000000e+01 0.0 
0.0 -1.962000000000e+01 0.0 
0.0 -1.962000000000e+01 0.0 
0.0 -1.962000000000e+01 0.0 
0.0 -1.962000000000e+01 0.0 
0.0 -1.962000000000e+01 0.0 
0.0 -1.962000000000e+01 0.0 
0.0 -1.962000000000e+01 0.0 
0.0 -1.962000000000e+01 0.0 
0.0 -1.962000000000e+01 0.0 
0.0 -1.962000000000e+01 0.0 
0.0 -1.962000000000e+01 0.0 
0.0 -1.962000000000e+01 0.0 
0.0 -1.962000000000e+01 0.0 
0.0 -1.962000000000e+01 0.0 
0.0 -1.962000000000e+01 0.0 
0.0 -1.962000000000e+01 0.0 
0.0 -1.962000000000e+01 0.0 
0.0 -1.962000000000e+01 0.0 
0.0 -1.962000000000e+01 0.0 
0.0 -1.962000000000e+01 0.0 
0.0 -1.962000000000e+01 0.0 
0.0 -1.962000000000e+01 0.0 
0.0 -1.962000000000e+01 0.0 
0.0 -1.962000000000e+01 0.0 
0.0 -1.962000000000e+01 0.0 
0.0 -1.962000000000e+01 0.0 
0.0 -1.962000000000e+01 0.0 
0.0 -1.962000000000e+01 0.0 
0.0 -1.962000000000e+01 0.0 
0.0 -1.962000000000e+01 0.0 
0.0 -1.962000000000e+01 0.0 
0.0 -1.962000000000e+01 0.0 
0.0 -1.962000000000e+01 0.0 
0.0 -1.962000000000e+01 0.0 
0.0 -1.962000000000e+01 0.0 
0.0 -1.962000000000e+01 0.0 
0.0 -1.962000000000e+01 0.0 
0.0 -1.962000000000e+01 0.0 
0.0 -1.962000000000e+01 0.0 
0.0 -1.962000000000e+01 0.0 
0.0 -1.962000000000e+01 0.0 
0.0 -1.962000000000e+01 0.0 
0.0 -1.962000000000e+01 0.0 
0.0 -1.962000000000e+01 0.0 
0.0 -1.962000000000e+01 0.0 
0.0 -1.962000000000e+01 0.0 
0.0 -1.962000000000e+01 0.0 
0.0 -1.962000000000e+01 0.0 
0.0 -1.962000000000e+01 0.0 
0.0 -1.962000000000e+01 0.0 
0.0 -1.962000000000e+01 0.0 
0.0 -1.962000000000e+01 0.0 
0.0 -1.962000000000e+01 0.0 
0.0 -1.962000000000e+01 0.0 
0.0 -1.962000000000e+01 0.0 
0.0 -1.962000000000e+01 0.0 
0.0 -1.962000000000e+01 0.0 
0.0 -1.962000000000e+01 0.0 
0.0 -1.962000000000e+01 0.0 
0.0 -1.962000000000e+01 0.0 
0.0 -1.962000000000e+01 0.0 
0.0 -1.962000000000e+01 0.0 
0.0 -1.962000000000e+01 0.0 
0.0 -1.962000000000e+01 0.0 
0.0 -1.962000000000e+01 0.0 
0.0 -1.962000000000e+01 0.0 
0.0 -1.962000000000e+01 0.0 
0.0 -1.962000000000e+01 0.0 
0.0 -1.962000000000e+01 0.0 
0.0 -1.962000000000e+01 0.0 
0.0 -1.962000000000e+01 0.0 
0.0 -1.962000000000e+01 0.0 
0.0 -1.962000000000e+01 0.0 
0.0 -1.962000000000e+01 0.0 
0.0 -1.962000000000e+01 0.0 
0.0 -1.962000000000e+01 0.0 
0.0 -1.962000000000e+01 0.0 
0.0 -1.962000000000e+01 0.0 
0.0 -1.962000000000e+01 0.0 
0.0 -1.962000000000e+01 0.0 
0.0 -1.962000000000e+01 0.0 
0.0 -1.962000000000e+01 0.0 
0.0 -1.962000000000e+01 0.0 
0.0 -1.962000000000e+01 0.0 
0.0 -1.962000000000e+01 0.0 
0.0 -1.962000000000e+01 0.0 
0.0 -1.962000000000e+01 0.0 
0.0 -1.962000000000e+01 0.0 
0.0 -1.962000000000e+01 0.0 
0.0 -1.962000000000e+01 0.0 
0.0 -1.962000000000e+01 0.0 
0.0 -1.962000000000e+01 0.0 
0.0 -1.962000000000e+01 0.0 
0.0 -1.962000000000e+01 0.0 
0.0 -1.962000000000e+01 0.0 
0.0 -1.962000000000e+01 0.0 
0.0 -1.962000000000e+01 0.0 
0.0 -1.962000000000e+01 0.0 
0.0 -1.962000000000e+01 0.0 
0.0 -1.962000000000e+01 0.0 
0.0 -1.962000000000e+01 0.0 
0.0 -1.962000000000e+01 0.0 
0.0 -1.962000000000e+01 0.0 
0.0 -1.962000000000e+01 0.0 
0.0 -1.962000000000e+01 0.0 
0.0 -1.962000000000e+01 0.0 
0.0 -1.962000000000e+01 0.0 
0.0 -1.962000000000e+01 0.0 
0.0 -1.962000000000e+01 0.0 
0.0 -1.962000000000e+01 0.0 
0.0 -1.962000000000e+01 0.0 
0.0 -1.962000000000e+01 0.0 
0.0 -1.962000000000e+01 0.0 
0.0 -1.962000000000e+01 0.0 
0.0 -1.962000000000e+01 0.0 
0.0 -1.962000000000e+01 0.0 
0.0 -1.962000000000e+01 0.0 
0.0 -1.962000000000e+01 0.0 
0.0 -1.962000000000e+01 0.0 
0.0 -1.962000000000e+01 0.0 
0.0 -1.962000000000e+01 0.0 
0.0 -1.962000000000e+01 0.0 
0.0 -1.962000000000e+01 0.0 
0.0 -1.962000000000e+01 0.0 
0.0 -1.962000000000e+01 0.0 
0.0 -1.962000000000e+01 0.0 
0.0 -1.962000000000e+01 0.0 
0.0 -1.962000000000e+01 0.0 
0.0 -1.962000000000e+01 0.0 
0.0 -1.962000000000e+01 0.0 
0.0 -1.962000000000e+01 0.0 
0.0 -1.962000000000e+01 0.0 
0.0 -1.962000000000e+01 0.0 
0.0 -1.962000000000e+01 0.0 
0.0 -1.962000000000e+01 0.0 
0.0 -1.962000000000e+01 0.0 
0.0 -1.962000000000e+01 0.0 
0.0 -1.962000000000e+01 0.0 
0.0 -1.962000000000e+01 0.0 
0.0 -1.962000000000e+01 0.0 
0.0 -1.962000000000e+01 0.0 
0.0 -1.962000000000e+01 0.0 
0.0 -1.962000000000e+01 0.0 
0.0 -1.962000000000e+01 0.0 
0.0 -1.962000000000e+01 0.0 
0.0 -1.962000000000e+01 0.0 
0.0 -1.962000000000e+01 0.0 
0.0 -1.962000000000e+01 0.0 
0.0 -1.962000000000e+01 0.0 
0.0 -1.962000000000e+01 0.0 
0.0 -1.962000000000e+01 0.0 
0.0 -1.962000000000e+01 0.0 
0.0 -1.962000000000e+01 0.0 
0.0 -1.962000000000e+01 0.0 
0.0 -1.962000000000e+01 0.0 
0.0 -1.962000000000e+01 0.0 
0.0 -1.962000000000e+01 0.0 
0.0 -1.962000000000e+01 0.0 
0.0 -1.962000000000e+01 0.0 
0.0 -1.962000000000e+01 0.0 
0.0 -1.962000000000e+01 0.0 
0.0 -1.962000000000e+01 0.0 
0.0 -1.962000000000e+01 0.0 
0.0 -1.962000000000e+01 0.0 
0.0 -1.962000000000e+01 0.0 
0.0 -1.962000000000e+01 0.0 
0.0 -1.962000000000e+01 0.0 
0.0 -1.962000000000e+01 0.0 
0.0 -1.962000000000e+01 0.0 
0.0 -1.962000000000e+01 0.0 
0.0 -1.962000000000e+01 0.0 
0.0 -1.962000000000e+01 0.0 
0.0 -1.962000000000e+01 0.0 
0.0 -1.962000000000e+01 0.0 
0.0 -1.962000000000e+01 0.0 
0.0 -1.962000000000e+01 0.0 
0.0 -1.962000000000e+01 0.0 
0.0 -1.962000000000e+01 0.0 
0.0 -1.962000000000e+01 0.0 
0.0 -1.962000000000e+01 0.0 
0.0 -1.962000000000e+01 0.0 
0.0 -1.962000000000e+01 0.0 
0.0 -1.962000000000e+01 0.0 
0.0 -1.962000000000e+01 0.0 
0.0 -1.962000000000e+01 0.0 
0.0 -1.962000000000e+01 0.0 
0.0 -1.962000000000e+01 0.0 
0.0 -1.962000000000e+01 0.0 
0.0 -1.962000000000e+01 0.0 
0.0 -1.962000000000e+01 0.0 
0.0 -1.962000000000e+01 0.0 
0.0 -1.962000000000e+01 0.0 
0.0 -1.962000000000e+01 0.0 
0.0 -1.962000000000e+01 0.0 
0.0 -1.962000000000e+01 0.0 
0.0 -1.962000000000e+01 0.0 
0.0 -1.962000000000e+01 0.0 
0.0 -1.962000000000e+01 0.0 
0.0 -1.962000000000e+01 0.0 
0.0 -1.962000000000e+01 0.0 
0.0 -1.962000000000e+01 0.0 
0.0 -1.962000000000e+01 0.0 
0.0 -1.962000000000e+01 0.0 
0.0 -1.962000000000e+01 0.0 
0.0 -1.962000000000e+01 0.0 
0.0 -1.962000000000e+01 0.0 
0.0 -1.962000000000e+01 0.0 
0.0 -1.962000000000e+01 0.0 
0.0 -1.962000000000e+01 0.0 
0.0 -1.962000000000e+01 0.0 
0.0 -1.962000000000e+01 0.0 
0.0 -1.962000000000e+01 0.0 
0.0 -1.962000000000e+01 0.0 
0.0 -1.962000000000e+01 0.0 
0.0 -1.962000000000e+01 0.0 
0.0 -1.962000000000e+01 0.0 
0.0 -1.962000000000e+01 0.0 
0.0 -1.962000000000e+01 0.0 
0.0 -1.962000000000e+01 0.0 
0.0 -1.962000000000e+01 0.0 
0.0 -1.962000000000e+01 0.0 
0.0 -1.962000000000e+01 0.0 
0.0 -1.962000000000e+01 0.0 
0.0 -1.962000000000e+01 0.0 
0.0 -1.962000000000e+01 0.0 
0.0 -1.962000000000e+01 0.0 
0.0 -1.962000000000e+01 0.0 
0.0 -1.962000000000e+01 0.0 
0.0 -1.962000000000e+01 0.0 
0.0 -1.962000000000e+01 0.0 
0.0 -1.962000000000e+01 0.0 
0.0 -1.962000000000e+01 0.0 
0.0 -1.962000000000e+01 0.0 
0.0 -1.962000000000e+01 0.0 
0.0 -1.962000000000e+01 0.0 
0.0 -1.962000000000e+01 0.0 
0.0 -1.962000000000e+01 0.0 
0.0 -1.962000000000e+01 0.0 
0.0 -1.962000000000e+01 0.0 
0.0 -1.962000000000e+01 0.0 
0.0 -1.962000000000e+01 0.0 
0.0 -1.962000000000e+01 0.0 
0.0 -1.962000000000e+01 0.0 
0.0 -1.962000000000e+01 0.0 
0.0 -1.962000000000e+01 0.0 
0.0 -1.962000000000e+01 0.0 
0.0 -1.962000000000e+01 0.0 
0.0 -1.962000000000e+01 0.0 
0.0 -1.962000000000e+01 0.0 
0.0 -1.962000000000e+01 0.0 
0.0 -1.962000000000e+01 0.0 
0.0 -1.962000000000e+01 0.0 
0.0 -1.962000000000e+01 0.0 
0.0 -1.962000000000e+01 0.0 
0.0 -1.962000000000e+01 0.0 
0.0 -1.962000000000e+01 0.0 
0.0 -1.962000000000e+01 0.0 
0.0 -1.962000000000e+01 0.0 
0.0 -1.962000000000e+01 0.0 
0.0 -1.962000000000e+01 0.0 
0.0 -1.962000000000e+01 0.0 
0.0 -1.962000000000e+01 0.0 
0.0 -1.962000000000e+01 0.0 
0.0 -1.962000000000e+01 0.0 
0.0 -1.962000000000e+01 0.0 
0.0 -1.962000000000e+01 0.0 
0.0 -1.962000000000e+01 0.0 
0.0 -1.962000000000e+01 0.0 
0.0 -1.962000000000e+01 0.0 
0.0 -1.962000000000e+01 0.0 
0.0 -1.962000000000e+01 0.0 
0.0 -1.962000000000e+01 0.0 
0.0 -1.962000000000e+01 0.0 
0.0 -1.962000000000e+01 0.0 
0.0 -1.962000000000e+01 0.0 
0.0 -1.962000000000e+01 0.0 
0.0 -1.962000000000e+01 0.0 
0.0 -1.962000000000e+01 0.0 
0.0 -1.962000000000e+01 0.0 
0.0 -1.962000000000e+01 0.0 
0.0 -1.962000000000e+01 0.0 
0.0 -1.962000000000e+01 0.0 
0.0 -1.962000000000e+01 0.0 
0.0 -1.962000000000e+01 0.0 
0.0 -1.962000000000e+01 0.0 
0.0 -1.962000000000e+01 0.0 
0.0 -1.962000000000e+01 0.0 
0.0 -1.962000000000e+01 0.0 
0.0 -1.962000000000e+01 0.0 
0.0 -1.962000000000e+01 0.0 
0.0 -1.962000000000e+01 0.0 
0.0 -1.962000000000e+01 0.0 
0.0 -1.962000000000e+01 0.0 
0.0 -1.962000000000e+01 0.0 
0.0 -1.962000000000e+01 0.0 
0.0 -1.962000000000e+01 0.0 
0.0 -1.962000000000e+01 0.0 
0.0 -1.962000000000e+01 0.0 
0.0 -1.962000000000e+01 0.0 
0.0 -1.962000000000e+01 0.0 
0.0 -1.962000000000e+01 0.0 
0.0 -1.962000000000e+01 0.0 
0.0 -1.962000000000e+01 0.0 
0.0 -1.962000000000e+01 0.0 
0.0 -1.962000000000e+01 0.0 
0.0 -1.962000000000e+01 0.0 
0.0 -1.962000000000e+01 0.0 
0.0 -1.962000000000e+01 0.0 
0.0 -1.962000000000e+01 0.0 
0.0 -1.962000000000e+01 0.0 
0.0 -1.962000000000e+01 0.0 
0.0 -1.962000000000e+01 0.0 
0.0 -1.962000000000e+01 0.0 
0.0 -1.962000000000e+01 0.0 
0.0 -1.962000000000e+01 0.0 
0.0 -1.962000000000e+01 0.0 
0.0 -1.962000000000e+01 0.0 
0.0 -1.962000000000e+01 0.0 
0.0 -1.962000000000e+01 0.0 
0.0 -1.962000000000e+01 0.0 
0.0 -1.962000000000e+01 0.0 
0.0 -1.962000000000e+01 0.0 
0.0 -1.962000000000e+01 0.0 
0.0 -1.962000000000e+01 0.0 
0.0 -1.962000000000e+01 0.0 
0.0 -1.962000000000e+01 0.0 
0.0 -1.962000000000e+01 0.0 
0.0 -1.962000000000e+01 0.0 
0.0 -1.962000000000e+01 0.0 
0.0 -1.962000000000e+01 0.0 
0.0 -1.962000000000e+01 0.0 
0.0 -1.962000000000e+01 0.0 
0.0 -1.962000000000e+01 0.0 
0.0 -1.962000000000e+01 0.0 
0.0 -1.962000000000e+01 0.0 
0.0 -1.962000000000e+01 0.0 
0.0 -1.962000000000e+01 0.0 
0.0 -1.962000000000e+01 0.0 
0.0 -1.962000000000e+01 0.0 
0.0 -1.962000000000e+01 0.0 
0.0 -1.962000000000e+01 0.0 
0.0 -1.962000000000e+01 0.0 
0.0 -1.962000000000e+01 0.0 
0.0 -1.962000000000e+01 0.0 
0.0 -1.962000000000e+01 0.0 
0.0 -1.962000000000e+01 0.0 
0.0 -1.962000000000e+01 0.0 
0.0 -1.962000000000e+01 0.0 
0.0 -1.962000000000e+01 0.0 
0.0 -1.962000000000e+01 0.0 
0.0 -1.962000000000e+01 0.0 
0.0 -1.962000000000e+01 0.0 
0.0 -1.962000000000e+01 0.0 
0.0 -1.962000000000e+01 0.0 
0.0 -1.962000000000e+01 0.0 
0.0 -1.962000000000e+01 0.0 
0.0 -1.962000000000e+01 0.0 
0.0 -1.962000000000e+01 0.0 
0.0 -1.962000000000e+01 0.0 
0.0 -1.962000000000e+01 0.0 
0.0 -1.962000000000e+01 0.0 
0.0 -1.962000000000e+01 0.0 
0.0 -1.962000000000e+01 0.0 
0.0 -1.962000000000e+01 0.0 
0.0 -1.962000000000e+01 0.0 
0.0 -1.962000000000e+01 0.0 
0.0 -1.962000000000e+01 0.0 
0.0 -1.962000000000e+01 0.0 
0.0 -1.962000000000e+01 0.0 
0.0 -1.962000000000e+01 0.0 
0.0 -1.962000000000e+01 0.0 
0.0 -1.962000000000e+01 0.0 
0.0 -1.962000000000e+01 0.0 
0.0 -1.962000000000e+01 0.0 
0.0 -1.962000000000e+01 0.0 
0.0 -1.962000000000e+01 0.0 
0.0 -1.962000000000e+01 0.0 
0.0 -1.962000000000e+01 0.0 
0.0 -1.962000000000e+01 0.0 
0.0 -1.962000000000e+01 0.0 
0.0 -1.962000000000e+01 0.0 
0.0 -1.962000000000e+01 0.0 
0.0 -1.962000000000e+01 0.0 
0.0 -1.962000000000e+01 0.0 
0.0 -1.962000000000e+01 0.0 
0.0 -1.962000000000e+01 0.0 
0.0 -1.962000000000e+01 0.0 
0.0 -1.962000000000e+01 0.0 
0.0 -1.962000000000e+01 0.0 
0.0 -1.962000000000e+01 0.0 
0.0 -1.962000000000e+01 0.0 
0.0 -1.962000000000e+01 0.0 
0.0 -1.962000000000e+01 0.0 
0.0 -1.962000000000e+01 0.0 
0.0 -1.962000000000e+01 0.0 
0.0 -1.962000000000e+01 0.0 
0.0 -1.962000000000e+01 0.0 
0.0 -1.962000000000e+01 0.0 
0.0 -1.962000000000e+01 0.0 
0.0 -1.962000000000e+01 0.0 
0.0 -1.962000000000e+01 0.0 
0.0 -1.962000000000e+01 0.0 
0.0 -1.962000000000e+01 0.0 
0.0 -1.962000000000e+01 0.0 
0.0 -1.962000000000e+01 0.0 
0.0 -1.962000000000e+01 0.0 
0.0 -1.962000000000e+01 0.0 
0.0 -1.962000000000e+01 0.0 
0.0 -1.962000000000e+01 0.0 
0.0 -1.962000000000e+01 0.0 
0.0 -1.962000000000e+01 0.0 
0.0 -1.962000000000e+01 0.0 
0.0 -1.962000000000e+01 0.0 
0.0 -1.962000000000e+01 0.0 
0.0 -1.962000000000e+01 0.0 
0.0 -1.962000000000e+01 0.0 
0.0 -1.962000000000e+01 0.0 
0.0 -1.962000000000e+01 0.0 
0.0 -1.962000000000e+01 0.0 
0.0 -1.962000000000e+01 0.0 
0.0 -1.962000000000e+01 0.0 
0.0 -1.962000000000e+01 0.0 
0.0 -1.962000000000e+01 0.0 
0.0 -1.962000000000e+01 0.0 
0.0 -1.962000000000e+01 0.0 
0.0 -1.962000000000e+01 0.0 
0.0 -1.962000000000e+01 0.0 
0.0 -1.962000000000e+01 0.0 
0.0 -1.962000000000e+01 0.0 
0.0 -1.962000000000e+01 0.0 
0.0 -1.962000000000e+01 0.0 
0.0 -1.962000000000e+01 0.0 
0.0 -1.962000000000e+01 0.0 
0.0 -1.962000000000e+01 0.0 
0.0 -1.962000000000e+01 0.0 
0.0 -1.962000000000e+01 0.0 
0.0 -1.962000000000e+01 0.0 
0.0 -1.962000000000e+01 0.0 
0.0 -1.962000000000e+01 0.0 
0.0 -1.962000000000e+01 0.0 
0.0 -1.962000000000e+01 0.0 
0.0 -1.962000000000e+01 0.0 
0.0 -1.962000000000e+01 0.0 
0.0 -1.962000000000e+01 0.0 
0.0 -1.962000000000e+01 0.0 
0.0 -1.962000000000e+01 0.0 
0.0 -1.962000000000e+01 0.0 
0.0 -1.962000000000e+01 0.0 
0.0 -1.962000000000e+01 0.0 
0.0 -1.962000000000e+01 0.0 
0.0 -1.962000000000e+01 0.0 
0.0 -1.962000000000e+01 0.0 
0.0 -1.962000000000e+01 0.0 
0.0 -1.962000000000e+01 0.0 
0.0 -1.962000000000e+01 0.0 
0.0 -1.962000000000e+01 0.0 
0.0 -1.962000000000e+01 0.0 
0.0 -1.962000000000e+01 0.0 
0.0 -1.962000000000e+01 0.0 
0.0 -1.962000000000e+01 0.0 
0.0 -1.962000000000e+01 0.0 
0.0 -1.962000000000e+01 0.0 
0.0 -1.962000000000e+01 0.0 
0.0 -1.962000000000e+01 0.0 
0.0 -1.962000000000e+01 0.0 
0.0 -1.962000000000e+01 0.0 
0.0 -1.962000000000e+01 0.0 
0.0 -1.962000000000e+01 0.0 
0.0 -1.962000000000e+01 0.0 
0.0 -1.962000000000e+01 0.0 
0.0 -1.962000000000e+01 0.0 
0.0 -1.962000000000e+01 0.0 
0.0 -1.962000000000e+01 0.0 
0.0 -1.962000000000e+01 0.0 
0.0 -1.962000000000e+01 0.0 
0.0 -1.962000000000e+01 0.0 
0.0 -1.962000000000e+01 0.0 
0.0 -1.962000000000e+01 0.0 
0.0 -1.962000000000e+01 0.0 
0.0 -1.962000000000e+01 0.0 
0.0 -1.962000000000e+01 0.0 
0.0 -1.962000000000e+01 0.0 
0.0 -1.962000000000e+01 0.0 
0.0 -1.962000000000e+01 0.0 
0.0 -1.962000000000e+01 0.0 
0.0 -1.962000000000e+01 0.0 
0.0 -1.962000000000e+01 0.0 
0.0 -1.962000000000e+01 0.0 
0.0 -1.962000000000e+01 0.0 
0.0 -1.962000000000e+01 0.0 
0.0 -1.962000000000e+01 0.0 
0.0 -1.962000000000e+01 0.0 
0.0 -1.962000000000e+01 0.0 
0.0 -1.962000000000e+01 0.0 
0.0 -1.962000000000e+01 0.0 
0.0 -1.962000000000e+01 0.0 
0.0 -1.962000000000e+01 0.0 
0.0 -1.962000000000e+01 0.0 
0.0 -1.962000000000e+01 0.0 
0.0 -1.962000000000e+01 0.0 
0.0 -1.962000000000e+01 0.0 
0.0 -1.962000000000e+01 0.0 
0.0 -1.962000000000e+01 0.0 
0.0 -1.962000000000e+01 0.0 
0.0 -1.962000000000e+01 0.0 
0.0 -1.962000000000e+01 0.0 
0.0 -1.962000000000e+01 0.0 
0.0 -1.962000000000e+01 0.0 
0.0 -1.962000000000e+01 0.0 
0.0 -1.962000000000e+01 0.0 
0.0 -1.962000000000e+01 0.0 
0.0 -1.962000000000e+01 0.0 
0.0 -1.962000000000e+01 0.0 
0.0 -1.962000000000e+01 0.0 
0.0 -1.962000000000e+01 0.0 
0.0 -1.962000000000e+01 0.0 
0.0 -1.962000000000e+01 0.0 
0.0 -1.962000000000e+01 0.0 
0.0 -1.962000000000e+01 0.0 
0.0 -1.962000000000e+01 0.0 
0.0 -1.962000000000e+01 0.0 
0.0 -1.962000000000e+01 0.0 
0.0 -1.962000000000e+01 0.0 
0.0 -1.962000000000e+01 0.0 
0.0 -1.962000000000e+01 0.0 
0.0 -1.962000000000e+01 0.0 
0.0 -1.962000000000e+01 0.0 
0.0 -1.962000000000e+01 0.0 
0.0 -1.962000000000e+01 0.0 
0.0 -1.962000000000e+01 0.0 
0.0 -1.962000000000e+01 0.0 
0.0 -1.962000000000e+01 0.0 
0.0 -1.962000000000e+01 0.0 
0.0 -1.962000000000e+01 0.0 
0.0 -1.962000000000e+01 0.0 
0.0 -1.962000000000e+01 0.0 
0.0 -1.962000000000e+01 0.0 
0.0 -1.962000000000e+01 0.0 
0.0 -1.962000000000e+01 0.0 
0.0 -1.962000000000e+01 0.0 
0.0 -1.962000000000e+01 0.0 
0.0 -1.962000000000e+01 0.0 
0.0 -1.962000000000e+01 0.0 
0.0 -1.962000000000e+01 0.0 
0.0 -1.962000000000e+01 0.0 
0.0 -1.962000000000e+01 0.0 
0.0 -1.962000000000e+01 0.0 
0.0 -1.962000000000e+01 0.0 
0.0 -1.962000000000e+01 0.0 
0.0 -1.962000000000e+01 0.0 
0.0 -1.962000000000e+01 0.0 
0.0 -1.962000000000e+01 0.0 
0.0 -1.962000000000e+01 0.0 
0.0 -1.962000000000e+01 0.0 
0.0 -1.962000000000e+01 0.0 
0.0 -1.962000000000e+01 0.0 
0.0 -1.962000000000e+01 0.0 
0.0 -1.962000000000e+01 0.0 
0.0 -1.962000000000e+01 0.0 
0.0 -1.962000000000e+01 0.0 
0.0 -1.962000000000e+01 0.0 
0.0 -1.962000000000e+01 0.0 
0.0 -1.962000000000e+01 0.0 
0.0 -1.962000000000e+01 0.0 
0.0 -1.962000000000e+01 0.0 
0.0 -1.962000000000e+01 0.0 
0.0 -1.962000000000e+01 0.0 
0.0 -1.962000000000e+01 0.0 
0.0 -1.962000000000e+01 0.0 
0.0 -1.962000000000e+01 0.0 
0.0 -1.962000000000e+01 0.0 
0.0 -1.962000000000e+01 0.0 
0.0 -1.962000000000e+01 0.0 
0.0 -1.962000000000e+01 0.0 
0.0 -1.962000000000e+01 0.0 
0.0 -1.962000000000e+01 0.0 
0.0 -1.962000000000e+01 0.0 
0.0 -1.962000000000e+01 0.0 
0.0 -1.962000000000e+01 0.0 
0.0 -1.962000000000e+01 0.0 
0.0 -1.962000000000e+01 0.0 
0.0 -1.962000000000e+01 0.0 
0.0 -1.962000000000e+01 0.0 
0.0 -1.962000000000e+01 0.0 
0.0 -1.962000000000e+01 0.0 
0.0 -1.962000000000e+01 0.0 
0.0 -1.962000000000e+01 0.0 
0.0 -1.962000000000e+01 0.0 
0.0 -1.962000000000e+01 0.0 
0.0 -1.962000000000e+01 0.0 
0.0 -1.962000000000e+01 0.0 
0.0 -1.962000000000e+01 0.0 
0.0 -1.962000000000e+01 0.0 
0.0 -1.962000000000e+01 0.0 
0.0 -1.962000000000e+01 0.0 
0.0 -1.962000000000e+01 0.0 
0.0 -1.962000000000e+01 0.0 
0.0 -1.962000000000e+01 0.0 
0.0 -1.962000000000e+01 0.0 
0.0 -1.962000000000e+01 0.0 
0.0 -1.962000000000e+01 0.0 
0.0 -1.962000000000e+01 0.0 
0.0 -1.962000000000e+01 0.0 
0.0 -1.962000000000e+01 0.0 
0.0 -1.962000000000e+01 0.0 
0.0 -1.962000000000e+01 0.0 
0.0 -1.962000000000e+01 0.0 
0.0 -1.962000000000e+01 0.0 
0.0 -1.962000000000e+01 0.0 
0.0 -1.962000000000e+01 0.0 
0.0 -1.962000000000e+01 0.0 
0.0 -1.962000000000e+01 0.0 
0.0 -1.962000000000e+01 0.0 
0.0 -1.962000000000e+01 0.0 
0.0 -1.962000000000e+01 0.0 
0.0 -1.962000000000e+01 0.0 
0.0 -1.962000000000e+01 0.0 
0.0 -1.962000000000e+01 0.0 
0.0 -1.962000000000e+01 0.0 
0.0 -1.962000000000e+01 0.0 
0.0 -1.962000000000e+01 0.0 
0.0 -1.962000000000e+01 0.0 
0.0 -1.962000000000e+01 0.0 
0.0 -1.962000000000e+01 0.0 
0.0 -1.962000000000e+01 0.0 
0.0 -1.962000000000e+01 0.0 
0.0 -1.962000000000e+01 0.0 
0.0 -1.962000000000e+01 0.0 
0.0 -1.962000000000e+01 0.0 
0.0 -1.962000000000e+01 0.0 
0.0 -1.962000000000e+01 0.0 
0.0 -1.962000000000e+01 0.0 
0.0 -1.962000000000e+01 0.0 
0.0 -1.962000000000e+01 0.0 
0.0 -1.962000000000e+01 0.0 
0.0 -1.962000000000e+01 0.0 
0.0 -1.962000000000e+01 0.0 
0.0 -1.962000000000e+01 0.0 
0.0 -1.962000000000e+01 0.0 
0.0 -1.962000000000e+01 0.0 
0.0 -1.962000000000e+01 0.0 
0.0 -1.962000000000e+01 0.0 
0.0 -1.962000000000e+01 0.0 
0.0 -1.962000000000e+01 0.0 
0.0 -1.962000000000e+01 0.0 
0.0 -1.962000000000e+01 0.0 
0.0 -1.962000000000e+01 0.0 
0.0 -1.962000000000e+01 0.0 
0.0 -1.962000000000e+01 0.0 
0.0 -1.962000000000e+01 0.0 
0.0 -1.962000000000e+01 0.0 
0.0 -1.962000000000e+01 0.0 
0.0 -1.962000000000e+01 0.0 
0.0 -1.962000000000e+01 0.0 
0.0 -1.962000000000e+01 0.0 
0.0 -1.962000000000e+01 0.0 
0.0 -1.962000000000e+01 0.0 
0.0 -1.962000000000e+01 0.0 
0.0 -1.962000000000e+01 0.0 
0.0 -1.962000000000e+01 0.0 
0.0 -1.962000000000e+01 0.0 
0.0 -1.962000000000e+01 0.0 
0.0 -1.962000000000e+01 0.0 
0.0 -1.962000000000e+01 0.0 
0.0 -1.962000000000e+01 0.0 
0.0 -1.962000000000e+01 0.0 
0.0 -1.962000000000e+01 0.0 
0.0 -1.962000000000e+01 0.0 
0.0 -1.962000000000e+01 0.0 
0.0 -1.962000000000e+01 0.0 
0.0 -1.962000000000e+01 0.0 
0.0 -1.962000000000e+01 0.0 
0.0 -1.962000000000e+01 0.0 
0.0 -1.962000000000e+01 0.0 
0.0 -1.962000000000e+01 0.0 
0.0 -1.962000000000e+01 0.0 
0.0 -1.962000000000e+01 0.0 
0.0 -1.962000000000e+01 0.0 
0.0 -1.962000000000e+01 0.0 
0.0 -1.962000000000e+01 0.0 
0.0 -1.962000000000e+01 0.0 
0.0 -1.962000000000e+01 0.0 
0.0 -1.962000000000e+01 0.0 
0.0 -1.962000000000e+01 0.0 
0.0 -1.962000000000e+01 0.0 
0.0 -1.962000000000e+01 0.0 
0.0 -1.962000000000e+01 0.0 
0.0 -1.962000000000e+01 0.0 
0.0 -1.962000000000e+01 0.0 
0.0 -1.962000000000e+01 0.0 
0.0 -1.962000000000e+01 0.0 
0.0 -1.962000000000e+01 0.0 
0.0 -1.962000000000e+01 0.0 
0.0 -1.962000000000e+01 0.0 
0.0 -1.962000000000e+01 0.0 
0.0 -1.962000000000e+01 0.0 
0.0 -1.962000000000e+01 0.0 
0.0 -1.962000000000e+01 0.0 
0.0 -1.962000000000e+01 0.0 
0.0 -1.962000000000e+01 0.0 
0.0 -1.962000000000e+01 0.0 
0.0 -1.962000000000e+01 0.0 
0.0 -1.962000000000e+01 0.0 
0.0 -1.962000000000e+01 0.0 
0.0 -1.962000000000e+01 0.0 
0.0 -1.962000000000e+01 0.0 
0.0 -1.962000000000e+01 0.0 
0.0 -1.962000000000e+01 0.0 
0.0 -1.962000000000e+01 0.0 
0.0 -1.962000000000e+01 0.0 
0.0 -1.962000000000e+01 0.0 
0.0 -1.962000000000e+01 0.0 
0.0 -1.962000000000e+01 0.0 
0.0 -1.962000000000e+01 0.0 
0.0 -1.962000000000e+01 0.0 
0.0 -1.962000000000e+01 0.0 
0.0 -1.962000000000e+01 0.0 
0.0 -1.962000000000e+01 0.0 
0.0 -1.962000000000e+01 0.0 
0.0 -1.962000000000e+01 0.0 
0.0 -1.962000000000e+01 0.0 
0.0 -1.962000000000e+01 0.0 
0.0 -1.962000000000e+01 0.0 
0.0 -1.962000000000e+01 0.0 
0.0 -1.962000000000e+01 0.0 
0.0 -1.962000000000e+01 0.0 
0.0 -1.962000000000e+01 0.0 
0.0 -1.962000000000e+01 0.0 
0.0 -1.962000000000e+01 0.0 
0.0 -1.962000000000e+01 0.0 
0.0 -1.962000000000e+01 0.0 
0.0 -1.962000000000e+01 0.0 
0.0 -1.962000000000e+01 0.0 
0.0 -1.962000000000e+01 0.0 
0.0 -1.962000000000e+01 0.0 
0.0 -1.962000000000e+01 0.0 
0.0 -1.962000000000e+01 0.0 
0.0 -1.962000000000e+01 0.0 
0.0 -1.962000000000e+01 0.0 
0.0 -1.962000000000e+01 0.0 
0.0 -1.962000000000e+01 0.0 
0.0 -1.962000000000e+01 0.0 
0.0 -1.962000000000e+01 0.0 
0.0 -1.962000000000e+01 0.0 
0.0 -1.962000000000e+01 0.0 
0.0 -1.962000000000e+01 0.0 
0.0 -1.962000000000e+01 0.0 
0.0 -1.962000000000e+01 0.0 
0.0 -1.962000000000e+01 0.0 
0.0 -1.962000000000e+01 0.0 
0.0 -1.962000000000e+01 0.0 
0.0 -1.962000000000e+01 0.0 
0.0 -1.962000000000e+01 0.0 
0.0 -1.962000000000e+01 0.0 
0.0 -1.962000000000e+01 0.0 
0.0 -1.962000000000e+01 0.0 
0.0 -1.962000000000e+01 0.0 
0.0 -1.962000000000e+01 0.0 
0.0 -1.962000000000e+01 0.0 
0.0 -1.962000000000e+01 0.0 
0.0 -1.962000000000e+01 0.0 
0.0 -1.962000000000e+01 0.0 
0.0 -1.962000000000e+01 0.0 
0.0 -1.962000000000e+01 0.0 
0.0 -1.962000000000e+01 0.0 
0.0 -1.962000000000e+01 0.0 
0.0 -1.962000000000e+01 0.0 
0.0 -1.962000000000e+01 0.0 
0.0 -1.962000000000e+01 0.0 
0.0 -1.962000000000e+01 0.0 
0.0 -1.962000000000e+01 0.0 
0.0 -1.962000000000e+01 0.0 
0.0 -1.962000000000e+01 0.0 
0.0 -1.962000000000e+01 0.0 
0.0 -1.962000000000e+01 0.0 
0.0 -1.962000000000e+01 0.0 
0.0 -1.962000000000e+01 0.0 
0.0 -1.962000000000e+01 0.0 
0.0 -1.962000000000e+01 0.0 
0.0 -1.962000000000e+01 0.0 
0.0 -1.962000000000e+01 0.0 
0.0 -1.962000000000e+01 0.0 
0.0 -1.962000000000e+01 0.0 
0.0 -1.962000000000e+01 0.0 
0.0 -1.962000000000e+01 0.0 
0.0 -1.962000000000e+01 0.0 
0.0 -1.962000000000e+01 0.0 
0.0 -1.962000000000e+01 0.0 
0.0 -1.962000000000e+01 0.0 
0.0 -1.962000000000e+01 0.0 
0.0 -1.962000000000e+01 0.0 
0.0 -1.962000000000e+01 0.0 
0.0 -1.962000000000e+01 0.0 
0.0 -1.962000000000e+01 0.0 
0.0 -1.962000000000e+01 0.0 
0.0 -1.962000000000e+01 0.0 
0.0 -1.962000000000e+01 0.0 
0.0 -1.962000000000e+01 0.0 
0.0 -1.962000000000e+01 0.0 
0.0 -1.962000000000e+01 0.0 
0.0 -1.962000000000e+01 0.0 
0.0 -1.962000000000e+01 0.0 
0.0 -1.962000000000e+01 0.0 
0.0 -1.962000000000e+01 0.0 
0.0 -1.962000000000e+01 0.0 
0.0 -1.962000000000e+01 0.0 
0.0 -1.962000000000e+01 0.0 
0.0 -1.962000000000e+01 0.0 
0.0 -1.962000000000e+01 0.0 
0.0 -1.962000000000e+01 0.0 
0.0 -1.962000000000e+01 0.0 
0.0 -1.962000000000e+01 0.0 
0.0 -1.962000000000e+01 0.0 
0.0 -1.962000000000e+01 0.0 
0.0 -1.962000000000e+01 0.0 
0.0 -1.962000000000e+01 0.0 
0.0 -1.962000000000e+01 0.0 
0.0 -1.962000000000e+01 0.0 
0.0 -1.962000000000e+01 0.0 
0.0 -1.962000000000e+01 0.0 
0.0 -1.962000000000e+01 0.0 
0.0 -1.962000000000e+01 0.0 
0.0 -1.962000000000e+01 0.0 
0.0 -1.962000000000e+01 0.0 
0.0 -1.962000000000e+01 0.0 
0.0 -1.962000000000e+01 0.0 
0.0 -1.962000000000e+01 0.0 
0.0 -1.962000000000e+01 0.0 
0.0 -1.962000000000e+01 0.0 
0.0 -1.962000000000e+01 0.0 
0.0 -1.962000000000e+01 0.0 
0.0 -1.962000000000e+01 0.0 
0.0 -1.962000000000e+01 0.0 
0.0 -1.962000000000e+01 0.0 
0.0 -1.962000000000e+01 0.0 
0.0 -1.962000000000e+01 0.0 
0.0 -1.962000000000e+01 0.0 
0.0 -1.962000000000e+01 0.0 
0.0 -1.962000000000e+01 0.0 
0.0 -1.962000000000e+01 0.0 
0.0 -1.962000000000e+01 0.0 
0.0 -1.962000000000e+01 0.0 
0.0 -1.962000000000e+01 0.0 
0.0 -1.962000000000e+01 0.0 
0.0 -1.962000000000e+01 0.0 
0.0 -1.962000000000e+01 0.0 
0.0 -1.962000000000e+01 0.0 
0.0 -1.962000000000e+01 0.0 
0.0 -1.962000000000e+01 0.0 
0.0 -1.962000000000e+01 0.0 
0.0 -1.962000000000e+01 0.0 
0.0 -1.962000000000e+01 0.0 
0.0 -1.962000000000e+01 0.0 
0.0 -1.962000000000e+01 0.0 
0.0 -1.962000000000e+01 0.0 
0.0 -1.962000000000e+01 0.0 
0.0 -1.962000000000e+01 0.0 
0.0 -1.962000000000e+01 0.0 
0.0 -1.962000000000e+01 0.0 
0.0 -1.962000000000e+01 0.0 
0.0 -1.962000000000e+01 0.0 
0.0 -1.962000000000e+01 0.0 
0.0 -1.962000000000e+01 0.0 
0.0 -1.962000000000e+01 0.0 
0.0 -1.962000000000e+01 0.0 
0.0 -1.962000000000e+01 0.0 
0.0 -1.962000000000e+01 0.0 
0.0 -1.962000000000e+01 0.0 
0.0 -1.962000000000e+01 0.0 
0.0 -1.962000000000e+01 0.0 
0.0 -1.962000000000e+01 0.0 
0.0 -1.962000000000e+01 0.0 
0.0 -1.962000000000e+01 0.0 
0.0 -1.962000000000e+01 0.0 
0.0 -1.962000000000e+01 0.0 
0.0 -1.962000000000e+01 0.0 
0.0 -1.962000000000e+01 0.0 
0.0 -1.962000000000e+01 0.0 
0.0 -1.962000000000e+01 0.0 
0.0 -1.962000000000e+01 0.0 
0.0 -1.962000000000e+01 0.0 
0.0 -1.962000000000e+01 0.0 
0.0 -1.962000000000e+01 0.0 
0.0 -1.962000000000e+01 0.0 
0.0 -1.962000000000e+01 0.0 
0.0 -1.962000000000e+01 0.0 
0.0 -1.962000000000e+01 0.0 
0.0 -1.962000000000e+01 0.0 
0.0 -1.962000000000e+01 0.0 
0.0 -1.962000000000e+01 0.0 
0.0 -1.962000000000e+01 0.0 
0.0 -1.962000000000e+01 0.0 
0.0 -1.962000000000e+01 0.0 
0.0 -1.962000000000e+01 0.0 
0.0 -1.962000000000e+01 0.0 
0.0 -1.962000000000e+01 0.0 
0.0 -1.962000000000e+01 0.0 
0.0 -1.962000000000e+01 0.0 
0.0 -1.962000000000e+01 0.0 
0.0 -1.962000000000e+01 0.0 
0.0 -1.962000000000e+01 0.0 
0.0 -1.962000000000e+01 0.0 
0.0 -1.962000000000e+01 0.0 
0.0 -1.962000000000e+01 0.0 
0.0 -1.962000000000e+01 0.0 
0.0 -1.962000000000e+01 0.0 
0.0 -1.962000000000e+01 0.0 
0.0 -1.962000000000e+01 0.0 
0.0 -1.962000000000e+01 0.0 
0.0 -1.962000000000e+01 0.0 
0.0 -1.962000000000e+01 0.0 
0.0 -1.962000000000e+01 0.0 
0.0 -1.962000000000e+01 0.0 
0.0 -1.962000000000e+01 0.0 
0.0 -1.962000000000e+01 0.0 
0.0 -1.962000000000e+01 0.0 
0.0 -1.962000000000e+01 0.0 
0.0 -1.962000000000e+01 0.0 
0.0 -1.962000000000e+01 0.0 
0.0 -1.962000000000e+01 0.0 
0.0 -1.962000000000e+01 0.0 
0.0 -1.962000000000e+01 0.0 
0.0 -1.962000000000e+01 0.0 
0.0 -1.962000000000e+01 0.0 
0.0 -1.962000000000e+01 0.0 
0.0 -1.962000000000e+01 0.0 
0.0 -1.962000000000e+01 0.0 
0.0 -1.962000000000e+01 0.0 
0.0 -1.962000000000e+01 0.0 
0.0 -1.962000000000e+01 0.0 
0.0 -1.962000000000e+01 0.0 
0.0 -1.962000000000e+01 0.0 
0.0 -1.962000000000e+01 0.0 
0.0 -1.962000000000e+01 0.0 
0.0 -1.962000000000e+01 0.0 
0.0 -1.962000000000e+01 0.0 
0.0 -1.962000000000e+01 0.0 
0.0 -1.962000000000e+01 0.0 
0.0 -1.962000000000e+01 0.0 
0.0 -1.962000000000e+01 0.0 
0.0 -1.962000000000e+01 0.0 
0.0 -1.962000000000e+01 0.0 
0.0 -1.962000000000e+01 0.0 
0.0 -1.962000000000e+01 0.0 
0.0 -1.962000000000e+01 0.0 
0.0 -1.962000000000e+01 0.0 
0.0 -1.962000000000e+01 0.0 
0.0 -1.962000000000e+01 0.0 
0.0 -1.962000000000e+01 0.0 
0.0 -1.962000000000e+01 0.0 
0.0 -1.962000000000e+01 0.0 
0.0 -1.962000000000e+01 0.0 
0.0 -1.962000000000e+01 0.0 
0.0 -1.962000000000e+01 0.0 
0.0 -1.962000000000e+01 0.0 
0.0 -1.962000000000e+01 0.0 
0.0 -1.962000000000e+01 0.0 
0.0 -1.962000000000e+01 0.0 
0.0 -1.962000000000e+01 0.0 
0.0 -1.962000000000e+01 0.0 
0.0 -1.962000000000e+01 0.0 
0.0 -1.962000000000e+01 0.0 
0.0 -1.962000000000e+01 0.0 
0.0 -1.962000000000e+01 0.0 
0.0 -1.962000000000e+01 0.0 
0.0 -1.962000000000e+01 0.0 
0.0 -1.962000000000e+01 0.0 
0.0 -1.962000000000e+01 0.0 
0.0 -1.962000000000e+01 0.0 
0.0 -1.962000000000e+01 0.0 
0.0 -1.962000000000e+01 0.0 
0.0 -1.962000000000e+01 0.0 
0.0 -1.962000000000e+01 0.0 
0.0 -1.962000000000e+01 0.0 
0.0 -1.962000000000e+01 0.0 
0.0 -1.962000000000e+01 0.0 
0.0 -1.962000000000e+01 0.0 
0.0 -1.962000000000e+01 0.0 
0.0 -1.962000000000e+01 0.0 
0.0 -1.962000000000e+01 0.0 
0.0 -1.962000000000e+01 0.0 
0.0 -1.962000000000e+01 0.0 
0.0 -1.962000000000e+01 0.0 
0.0 -1.962000000000e+01 0.0 
0.0 -1.962000000000e+01 0.0 
0.0 -1.962000000000e+01 0.0 
0.0 -1.962000000000e+01 0.0 
0.0 -1.962000000000e+01 0.0 
0.0 -1.962000000000e+01 0.0 
0.0 -1.962000000000e+01 0.0 
0.0 -1.962000000000e+01 0.0 
0.0 -1.962000000000e+01 0.0 
0.0 -1.962000000000e+01 0.0 
0.0 -1.962000000000e+01 0.0 
0.0 -1.962000000000e+01 0.0 
0.0 -1.962000000000e+01 0.0 
0.0 -1.962000000000e+01 0.0 
0.0 -1.962000000000e+01 0.0 
0.0 -1.962000000000e+01 0.0 
0.0 -1.962000000000e+01 0.0 
0.0 -1.962000000000e+01 0.0 
0.0 -1.962000000000e+01 0.0 
0.0 -1.962000000000e+01 0.0 
0.0 -1.962000000000e+01 0.0 
0.0 -1.962000000000e+01 0.0 
0.0 -1.962000000000e+01 0.0 
0.0 -1.962000000000e+01 0.0 
0.0 -1.962000000000e+01 0.0 
0.0 -1.962000000000e+01 0.0 
0.0 -1.962000000000e+01 0.0 
0.0 -1.962000000000e+01 0.0 
0.0 -1.962000000000e+01 0.0 
0.0 -1.962000000000e+01 0.0 
0.0 -1.962000000000e+01 0.0 
0.0 -1.962000000000e+01 0.0 
0.0 -1.962000000000e+01 0.0 
0.0 -1.962000000000e+01 0.0 
0.0 -1.962000000000e+01 0.0 
0.0 -1.962000000000e+01 0.0 
0.0 -1.962000000000e+01 0.0 
0.0 -1.962000000000e+01 0.0 
0.0 -1.962000000000e+01 0.0 
0.0 -1.962000000000e+01 0.0 
0.0 -1.962000000000e+01 0.0 
0.0 -1.962000000000e+01 0.0 
0.0 -1.962000000000e+01 0.0 
0.0 -1.962000000000e+01 0.0 
0.0 -1.962000000000e+01 0.0 
0.0 -1.962000000000e+01 0.0 
0.0 -1.962000000000e+01 0.0 
0.0 -1.962000000000e+01 0.0 
0.0 -1.962000000000e+01 0.0 
0.0 -1.962000000000e+01 0.0 
0.0 -1.962000000000e+01 0.0 
0.0 -1.962000000000e+01 0.0 
0.0 -1.962000000000e+01 0.0 
0.0 -1.962000000000e+01 0.0 
0.0 -1.962000000000e+01 0.0 
0.0 -1.962000000000e+01 0.0 
0.0 -1.962000000000e+01 0.0 
0.0 -1.962000000000e+01 0.0 
0.0 -1.962000000000e+01 0.0 
0.0 -1.962000000000e+01 0.0 
0.0 -1.962000000000e+01 0.0 
0.0 -1.962000000000e+01 0.0 
0.0 -1.962000000000e+01 0.0 
0.0 -1.962000000000e+01 0.0 
0.0 -1.962000000000e+01 0.0 
0.0 -1.962000000000e+01 0.0 
0.0 -1.962000000000e+01 0.0 

VECTORS node_rhside_materi_fixed float
-1.605414934140e+00 0.0 0.0 
4.897690059409e+01 0.0 0.0 
-8.167127869772e+01 -1.953130544965e+02 0.0 
6.198775106279e+01 -1.486486985180e+02 0.0 
-7.390037776011e+00 0.0 0.0 
-1.536156283992e+01 0.0 0.0 
-2.182610854898e+01 0.0 0.0 
-3.004706234789e+01 0.0 0.0 
-3.717922979113e+01 0.0 0.0 
-4.462474544824e+01 0.0 0.0 
-5.211839729595e+01 0.0 0.0 
-5.966391731964e+01 0.0 0.0 
-6.732082422269e+01 0.0 0.0 
-7.505030414084e+01 0.0 0.0 
-8.340852210168e+01 0.0 0.0 
-9.184845962482e+01 0.0 0.0 
-9.997925405569e+01 0.0 0.0 
-1.089619656231e+02 0.0 0.0 
-1.179818001548e+02 0.0 0.0 
-1.272504878711e+02 0.0 0.0 
-1.367719308122e+02 0.0 0.0 
-1.465108283354e+02 0.0 0.0 
-1.568082164085e+02 0.0 0.0 
3.861167330804e-01 -2.961959706521e+02 0.0 
5.981535508034e-01 -2.973797454100e+02 0.0 
2.477922793828e+00 -2.966232437956e+02 0.0 
1.362886537405e+00 -2.968230081266e+02 0.0 
3.013391155877e+00 -2.976206406988e+02 0.0 
3.486963770231e+00 -2.971711973564e+02 0.0 
3.907461152504e+00 -2.979488591065e+02 0.0 
4.699154251999e+00 -2.986908263661e+02 0.0 
6.348993266783e+00 -2.984898682515e+02 0.0 
5.615979522304e+00 -2.992443315172e+02 0.0 
7.619826997570e+00 -3.007863220543e+02 0.0 
8.537075220849e+00 -3.009454555500e+02 0.0 
9.349353877895e+00 -3.027661761269e+02 0.0 
1.033143450388e+01 -3.038195414807e+02 0.0 
1.163710621642e+01 -3.053874174666e+02 0.0 
1.243647219766e+01 -3.077373273224e+02 0.0 
1.443654934904e+01 -3.098562444271e+02 0.0 
1.547578494643e+01 -3.125294712524e+02 0.0 
1.669486187748e+01 -3.153532279295e+02 0.0 
1.773414365828e+01 -3.182185326471e+02 0.0 
1.826060419581e+01 -3.217112131766e+02 0.0 
1.956278245226e+01 -3.258071487729e+02 0.0 
2.009755191680e+01 -3.295548184746e+02 0.0 
2.070863070521e+01 -3.336495415378e+02 0.0 
2.106691739623e+01 -3.381533264280e+02 0.0 
2.108603848791e+01 -3.422608743674e+02 0.0 
2.094289027772e+01 -3.463651412529e+02 0.0 
2.055226800439e+01 -3.507163116192e+02 0.0 
2.011073397730e+01 -3.549827504721e+02 0.0 
1.962025326552e+01 -3.586900570954e+02 0.0 
1.830437966588e+01 -3.620870248008e+02 0.0 
1.761184034874e+01 -3.662249858721e+02 0.0 
1.665393112719e+01 -3.689894882543e+02 0.0 
1.562485371319e+01 -3.721008510483e+02 0.0 
1.437233451433e+01 -3.747092611202e+02 0.0 
1.332934180994e+01 -3.770378642517e+02 0.0 
1.214595140957e+01 -3.792915035286e+02 0.0 
1.095828134597e+01 -3.811409554666e+02 0.0 
9.906687796606e+00 -3.827867350874e+02 0.0 
8.870916525232e+00 -3.845727269439e+02 0.0 
7.882658960136e+00 -3.856084258690e+02 0.0 
6.839420768277e+00 -3.865827946890e+02 0.0 
5.846889357347e+00 -3.872941130249e+02 0.0 
5.060707027577e+00 -3.888097561494e+02 0.0 
3.938008284258e+00 -3.886337886183e+02 0.0 
3.129686308989e+00 -3.897607568830e+02 0.0 
2.596146236427e+00 -3.896266122449e+02 0.0 
1.576635583295e+00 -3.900706020261e+02 0.0 
7.309687533275e-01 -3.901064103723e+02 0.0 
5.693672960865e+01 0.0 0.0 
6.553799644535e+01 0.0 0.0 
7.360864536980e+01 0.0 0.0 
8.143397542354e+01 0.0 0.0 
8.925147094023e+01 0.0 0.0 
9.729249553370e+01 0.0 0.0 
1.047726577597e+02 0.0 0.0 
1.118084044492e+02 0.0 0.0 
1.200368102472e+02 0.0 0.0 
0.0 0.0 0.0 
0.0 0.0 0.0 
0.0 0.0 0.0 
0.0 0.0 0.0 
0.0 0.0 0.0 
0.0 0.0 0.0 
0.0 0.0 0.0 
0.0 0.0 0.0 
0.0 0.0 0.0 
0.0 0.0 0.0 
0.0 0.0 0.0 
5.051851525152e+00 0.0 0.0 
1.594225914462e+01 0.0 0.0 
2.403948030442e+01 0.0 0.0 
3.238889944725e+01 0.0 0.0 
4.077607869900e+01 0.0 0.0 
0.0 0.0 0.0 
0.0 0.0 0.0 
0.0 0.0 0.0 
0.0 0.0 0.0 
0.0 0.0 0.0 
0.0 0.0 0.0 
0.0 0.0 0.0 
0.0 0.0 0.0 
0.0 0.0 0.0 
0.0 0.0 0.0 
0.0 0.0 0.0 
0.0 0.0 0.0 
0.0 0.0 0.0 
0.0 0.0 0.0 
0.0 0.0 0.0 
0.0 0.0 0.0 
0.0 0.0 0.0 
0.0 0.0 0.0 
0.0 0.0 0.0 
0.0 0.0 0.0 
0.0 0.0 0.0 
0.0 0.0 0.0 
0.0 0.0 0.0 
0.0 0.0 0.0 
0.0 0.0 0.0 
0.0 0.0 0.0 
0.0 0.0 0.0 
0.0 0.0 0.0 
0.0 0.0 0.0 
0.0 0.0 0.0 
0.0 0.0 0.0 
0.0 0.0 0.0 
0.0 0.0 0.0 
0.0 0.0 0.0 
0.0 0.0 0.0 
0.0 0.0 0.0 
0.0 0.0 0.0 
0.0 0.0 0.0 
0.0 0.0 0.0 
0.0 0.0 0.0 
0.0 0.0 0.0 
0.0 0.0 0.0 
0.0 0.0 0.0 
0.0 0.0 0.0 
0.0 0.0 0.0 
0.0 0.0 0.0 
0.0 0.0 0.0 
0.0 0.0 0.0 
0.0 0.0 0.0 
0.0 0.0 0.0 
0.0 0.0 0.0 
0.0 0.0 0.0 
0.0 0.0 0.0 
0.0 0.0 0.0 
0.0 0.0 0.0 
0.0 0.0 0.0 
0.0 0.0 0.0 
0.0 0.0 0.0 
0.0 0.0 0.0 
0.0 0.0 0.0 
0.0 0.0 0.0 
0.0 0.0 0.0 
0.0 0.0 0.0 
0.0 0.0 0.0 
0.0 0.0 0.0 
0.0 0.0 0.0 
0.0 0.0 0.0 
0.0 0.0 0.0 
0.0 0.0 0.0 
0.0 0.0 0.0 
0.0 0.0 0.0 
0.0 0.0 0.0 
0.0 0.0 0.0 
0.0 0.0 0.0 
0.0 0.0 0.0 
0.0 0.0 0.0 
0.0 0.0 0.0 
0.0 0.0 0.0 
0.0 0.0 0.0 
0.0 0.0 0.0 
0.0 0.0 0.0 
0.0 0.0 0.0 
0.0 0.0 0.0 
0.0 0.0 0.0 
0.0 0.0 0.0 
0.0 0.0 0.0 
0.0 0.0 0.0 
0.0 0.0 0.0 
0.0 0.0 0.0 
0.0 0.0 0.0 
0.0 0.0 0.0 
0.0 0.0 0.0 
0.0 0.0 0.0 
0.0 0.0 0.0 
0.0 0.0 0.0 
0.0 0.0 0.0 
0.0 0.0 0.0 
0.0 0.0 0.0 
0.0 0.0 0.0 
0.0 0.0 0.0 
0.0 0.0 0.0 
0.0 0.0 0.0 
0.0 0.0 0.0 
0.0 0.0 0.0 
0.0 0.0 0.0 
0.0 0.0 0.0 
0.0 0.0 0.0 
0.0 0.0 0.0 
0.0 0.0 0.0 
0.0 0.0 0.0 
0.0 0.0 0.0 
0.0 0.0 0.0 
0.0 0.0 0.0 
0.0 0.0 0.0 
0.0 0.0 0.0 
0.0 0.0 0.0 
0.0 0.0 0.0 
0.0 0.0 0.0 
0.0 0.0 0.0 
0.0 0.0 0.0 
0.0 0.0 0.0 
0.0 0.0 0.0 
0.0 0.0 0.0 
0.0 0.0 0.0 
0.0 0.0 0.0 
0.0 0.0 0.0 
0.0 0.0 0.0 
0.0 0.0 0.0 
0.0 0.0 0.0 
0.0 0.0 0.0 
0.0 0.0 0.0 
0.0 0.0 0.0 
0.0 0.0 0.0 
0.0 0.0 0.0 
0.0 0.0 0.0 
0.0 0.0 0.0 
0.0 0.0 0.0 
0.0 0.0 0.0 
0.0 0.0 0.0 
0.0 0.0 0.0 
0.0 0.0 0.0 
0.0 0.0 0.0 
0.0 0.0 0.0 
0.0 0.0 0.0 
0.0 0.0 0.0 
0.0 0.0 0.0 
0.0 0.0 0.0 
0.0 0.0 0.0 
0.0 0.0 0.0 
0.0 0.0 0.0 
0.0 0.0 0.0 
0.0 0.0 0.0 
0.0 0.0 0.0 
0.0 0.0 0.0 
0.0 0.0 0.0 
0.0 0.0 0.0 
0.0 0.0 0.0 
0.0 0.0 0.0 
0.0 0.0 0.0 
0.0 0.0 0.0 
0.0 0.0 0.0 
0.0 0.0 0.0 
0.0 0.0 0.0 
0.0 0.0 0.0 
0.0 0.0 0.0 
0.0 0.0 0.0 
0.0 0.0 0.0 
0.0 0.0 0.0 
0.0 0.0 0.0 
0.0 0.0 0.0 
0.0 0.0 0.0 
0.0 0.0 0.0 
0.0 0.0 0.0 
0.0 0.0 0.0 
0.0 0.0 0.0 
0.0 0.0 0.0 
0.0 0.0 0.0 
0.0 0.0 0.0 
0.0 0.0 0.0 
0.0 0.0 0.0 
0.0 0.0 0.0 
0.0 0.0 0.0 
0.0 0.0 0.0 
0.0 0.0 0.0 
0.0 0.0 0.0 
0.0 0.0 0.0 
0.0 0.0 0.0 
0.0 0.0 0.0 
0.0 0.0 0.0 
0.0 0.0 0.0 
0.0 0.0 0.0 
0.0 0.0 0.0 
0.0 0.0 0.0 
0.0 0.0 0.0 
0.0 0.0 0.0 
0.0 0.0 0.0 
0.0 0.0 0.0 
0.0 0.0 0.0 
0.0 0.0 0.0 
0.0 0.0 0.0 
0.0 0.0 0.0 
0.0 0.0 0.0 
0.0 0.0 0.0 
0.0 0.0 0.0 
0.0 0.0 0.0 
0.0 0.0 0.0 
0.0 0.0 0.0 
0.0 0.0 0.0 
0.0 0.0 0.0 
0.0 0.0 0.0 
0.0 0.0 0.0 
0.0 0.0 0.0 
0.0 0.0 0.0 
0.0 0.0 0.0 
0.0 0.0 0.0 
0.0 0.0 0.0 
0.0 0.0 0.0 
0.0 0.0 0.0 
0.0 0.0 0.0 
0.0 0.0 0.0 
0.0 0.0 0.0 
0.0 0.0 0.0 
0.0 0.0 0.0 
0.0 0.0 0.0 
0.0 0.0 0.0 
0.0 0.0 0.0 
0.0 0.0 0.0 
0.0 0.0 0.0 
0.0 0.0 0.0 
0.0 0.0 0.0 
0.0 0.0 0.0 
0.0 0.0 0.0 
0.0 0.0 0.0 
0.0 0.0 0.0 
0.0 0.0 0.0 
0.0 0.0 0.0 
0.0 0.0 0.0 
0.0 0.0 0.0 
0.0 0.0 0.0 
0.0 0.0 0.0 
0.0 0.0 0.0 
0.0 0.0 0.0 
0.0 0.0 0.0 
0.0 0.0 0.0 
0.0 0.0 0.0 
0.0 0.0 0.0 
0.0 0.0 0.0 
0.0 0.0 0.0 
0.0 0.0 0.0 
0.0 0.0 0.0 
0.0 0.0 0.0 
0.0 0.0 0.0 
0.0 0.0 0.0 
0.0 0.0 0.0 
0.0 0.0 0.0 
0.0 0.0 0.0 
0.0 0.0 0.0 
0.0 0.0 0.0 
0.0 0.0 0.0 
0.0 0.0 0.0 
0.0 0.0 0.0 
0.0 0.0 0.0 
0.0 0.0 0.0 
0.0 0.0 0.0 
0.0 0.0 0.0 
0.0 0.0 0.0 
0.0 0.0 0.0 
0.0 0.0 0.0 
0.0 0.0 0.0 
0.0 0.0 0.0 
0.0 0.0 0.0 
0.0 0.0 0.0 
0.0 0.0 0.0 
0.0 0.0 0.0 
0.0 0.0 0.0 
0.0 0.0 0.0 
0.0 0.0 0.0 
0.0 0.0 0.0 
0.0 0.0 0.0 
0.0 0.0 0.0 
0.0 0.0 0.0 
0.0 0.0 0.0 
0.0 0.0 0.0 
0.0 0.0 0.0 
0.0 0.0 0.0 
0.0 0.0 0.0 
0.0 0.0 0.0 
0.0 0.0 0.0 
0.0 0.0 0.0 
0.0 0.0 0.0 
0.0 0.0 0.0 
0.0 0.0 0.0 
0.0 0.0 0.0 
0.0 0.0 0.0 
0.0 0.0 0.0 
0.0 0.0 0.0 
0.0 0.0 0.0 
0.0 0.0 0.0 
0.0 0.0 0.0 
0.0 0.0 0.0 
0.0 0.0 0.0 
0.0 0.0 0.0 
0.0 0.0 0.0 
0.0 0.0 0.0 
0.0 0.0 0.0 
0.0 0.0 0.0 
0.0 0.0 0.0 
0.0 0.0 0.0 
0.0 0.0 0.0 
0.0 0.0 0.0 
0.0 0.0 0.0 
0.0 0.0 0.0 
0.0 0.0 0.0 
0.0 0.0 0.0 
0.0 0.0 0.0 
0.0 0.0 0.0 
0.0 0.0 0.0 
0.0 0.0 0.0 
0.0 0.0 0.0 
0.0 0.0 0.0 
0.0 0.0 0.0 
0.0 0.0 0.0 
0.0 0.0 0.0 
0.0 0.0 0.0 
0.0 0.0 0.0 
0.0 0.0 0.0 
0.0 0.0 0.0 
0.0 0.0 0.0 
0.0 0.0 0.0 
0.0 0.0 0.0 
0.0 0.0 0.0 
0.0 0.0 0.0 
0.0 0.0 0.0 
0.0 0.0 0.0 
0.0 0.0 0.0 
0.0 0.0 0.0 
0.0 0.0 0.0 
0.0 0.0 0.0 
0.0 0.0 0.0 
0.0 0.0 0.0 
0.0 0.0 0.0 
0.0 0.0 0.0 
0.0 0.0 0.0 
0.0 0.0 0.0 
0.0 0.0 0.0 
0.0 0.0 0.0 
0.0 0.0 0.0 
0.0 0.0 0.0 
0.0 0.0 0.0 
0.0 0.0 0.0 
0.0 0.0 0.0 
0.0 0.0 0.0 
0.0 0.0 0.0 
0.0 0.0 0.0 
0.0 0.0 0.0 
0.0 0.0 0.0 
0.0 0.0 0.0 
0.0 0.0 0.0 
0.0 0.0 0.0 
0.0 0.0 0.0 
0.0 0.0 0.0 
0.0 0.0 0.0 
0.0 0.0 0.0 
0.0 0.0 0.0 
0.0 0.0 0.0 
0.0 0.0 0.0 
0.0 0.0 0.0 
0.0 0.0 0.0 
0.0 0.0 0.0 
0.0 0.0 0.0 
0.0 0.0 0.0 
0.0 0.0 0.0 
0.0 0.0 0.0 
0.0 0.0 0.0 
0.0 0.0 0.0 
0.0 0.0 0.0 
0.0 0.0 0.0 
0.0 0.0 0.0 
0.0 0.0 0.0 
0.0 0.0 0.0 
0.0 0.0 0.0 
0.0 0.0 0.0 
0.0 0.0 0.0 
0.0 0.0 0.0 
0.0 0.0 0.0 
0.0 0.0 0.0 
0.0 0.0 0.0 
0.0 0.0 0.0 
0.0 0.0 0.0 
0.0 0.0 0.0 
0.0 0.0 0.0 
0.0 0.0 0.0 
0.0 0.0 0.0 
0.0 0.0 0.0 
0.0 0.0 0.0 
0.0 0.0 0.0 
0.0 0.0 0.0 
0.0 0.0 0.0 
0.0 0.0 0.0 
0.0 0.0 0.0 
0.0 0.0 0.0 
0.0 0.0 0.0 
0.0 0.0 0.0 
0.0 0.0 0.0 
0.0 0.0 0.0 
0.0 0.0 0.0 
0.0 0.0 0.0 
0.0 0.0 0.0 
0.0 0.0 0.0 
0.0 0.0 0.0 
0.0 0.0 0.0 
0.0 0.0 0.0 
0.0 0.0 0.0 
0.0 0.0 0.0 
0.0 0.0 0.0 
0.0 0.0 0.0 
0.0 0.0 0.0 
0.0 0.0 0.0 
0.0 0.0 0.0 
0.0 0.0 0.0 
0.0 0.0 0.0 
0.0 0.0 0.0 
0.0 0.0 0.0 
0.0 0.0 0.0 
0.0 0.0 0.0 
0.0 0.0 0.0 
0.0 0.0 0.0 
0.0 0.0 0.0 
0.0 0.0 0.0 
0.0 0.0 0.0 
0.0 0.0 0.0 
0.0 0.0 0.0 
0.0 0.0 0.0 
0.0 0.0 0.0 
0.0 0.0 0.0 
0.0 0.0 0.0 
0.0 0.0 0.0 
0.0 0.0 0.0 
0.0 0.0 0.0 
0.0 0.0 0.0 
0.0 0.0 0.0 
0.0 0.0 0.0 
0.0 0.0 0.0 
0.0 0.0 0.0 
0.0 0.0 0.0 
0.0 0.0 0.0 
0.0 0.0 0.0 
0.0 0.0 0.0 
0.0 0.0 0.0 
0.0 0.0 0.0 
0.0 0.0 0.0 
0.0 0.0 0.0 
0.0 0.0 0.0 
0.0 0.0 0.0 
0.0 0.0 0.0 
0.0 0.0 0.0 
0.0 0.0 0.0 
0.0 0.0 0.0 
0.0 0.0 0.0 
0.0 0.0 0.0 
0.0 0.0 0.0 
0.0 0.0 0.0 
0.0 0.0 0.0 
0.0 0.0 0.0 
0.0 0.0 0.0 
0.0 0.0 0.0 
0.0 0.0 0.0 
0.0 0.0 0.0 
0.0 0.0 0.0 
0.0 0.0 0.0 
0.0 0.0 0.0 
0.0 0.0 0.0 
0.0 0.0 0.0 
0.0 0.0 0.0 
0.0 0.0 0.0 
0.0 0.0 0.0 
0.0 0.0 0.0 
0.0 0.0 0.0 
0.0 0.0 0.0 
0.0 0.0 0.0 
0.0 0.0 0.0 
0.0 0.0 0.0 
0.0 0.0 0.0 
0.0 0.0 0.0 
0.0 0.0 0.0 
0.0 0.0 0.0 
0.0 0.0 0.0 
0.0 0.0 0.0 
0.0 0.0 0.0 
0.0 0.0 0.0 
0.0 0.0 0.0 
0.0 0.0 0.0 
0.0 0.0 0.0 
0.0 0.0 0.0 
0.0 0.0 0.0 
0.0 0.0 0.0 
0.0 0.0 0.0 
0.0 0.0 0.0 
0.0 0.0 0.0 
0.0 0.0 0.0 
0.0 0.0 0.0 
0.0 0.0 0.0 
0.0 0.0 0.0 
0.0 0.0 0.0 
0.0 0.0 0.0 
0.0 0.0 0.0 
0.0 0.0 0.0 
0.0 0.0 0.0 
0.0 0.0 0.0 
0.0 0.0 0.0 
0.0 0.0 0.0 
0.0 0.0 0.0 
0.0 0.0 0.0 
0.0 0.0 0.0 
0.0 0.0 0.0 
0.0 0.0 0.0 
0.0 0.0 0.0 
0.0 0.0 0.0 
0.0 0.0 0.0 
0.0 0.0 0.0 
0.0 0.0 0.0 
0.0 0.0 0.0 
0.0 0.0 0.0 
0.0 0.0 0.0 
0.0 0.0 0.0 
0.0 0.0 0.0 
0.0 0.0 0.0 
0.0 0.0 0.0 
0.0 0.0 0.0 
0.0 0.0 0.0 
0.0 0.0 0.0 
0.0 0.0 0.0 
0.0 0.0 0.0 
0.0 0.0 0.0 
0.0 0.0 0.0 
0.0 0.0 0.0 
0.0 0.0 0.0 
0.0 0.0 0.0 
0.0 0.0 0.0 
0.0 0.0 0.0 
0.0 0.0 0.0 
0.0 0.0 0.0 
0.0 0.0 0.0 
0.0 0.0 0.0 
0.0 0.0 0.0 
0.0 0.0 0.0 
0.0 0.0 0.0 
0.0 0.0 0.0 
0.0 0.0 0.0 
0.0 0.0 0.0 
0.0 0.0 0.0 
0.0 0.0 0.0 
0.0 0.0 0.0 
0.0 0.0 0.0 
0.0 0.0 0.0 
0.0 0.0 0.0 
0.0 0.0 0.0 
0.0 0.0 0.0 
0.0 0.0 0.0 
0.0 0.0 0.0 
0.0 0.0 0.0 
0.0 0.0 0.0 
0.0 0.0 0.0 
0.0 0.0 0.0 
0.0 0.0 0.0 
0.0 0.0 0.0 
0.0 0.0 0.0 
0.0 0.0 0.0 
0.0 0.0 0.0 
0.0 0.0 0.0 
0.0 0.0 0.0 
0.0 0.0 0.0 
0.0 0.0 0.0 
0.0 0.0 0.0 
0.0 0.0 0.0 
0.0 0.0 0.0 
0.0 0.0 0.0 
0.0 0.0 0.0 
0.0 0.0 0.0 
0.0 0.0 0.0 
0.0 0.0 0.0 
0.0 0.0 0.0 
0.0 0.0 0.0 
0.0 0.0 0.0 
0.0 0.0 0.0 
0.0 0.0 0.0 
0.0 0.0 0.0 
0.0 0.0 0.0 
0.0 0.0 0.0 
0.0 0.0 0.0 
0.0 0.0 0.0 
0.0 0.0 0.0 
0.0 0.0 0.0 
0.0 0.0 0.0 
0.0 0.0 0.0 
0.0 0.0 0.0 
0.0 0.0 0.0 
0.0 0.0 0.0 
0.0 0.0 0.0 
0.0 0.0 0.0 
0.0 0.0 0.0 
0.0 0.0 0.0 
0.0 0.0 0.0 
0.0 0.0 0.0 
0.0 0.0 0.0 
0.0 0.0 0.0 
0.0 0.0 0.0 
0.0 0.0 0.0 
0.0 0.0 0.0 
0.0 0.0 0.0 
0.0 0.0 0.0 
0.0 0.0 0.0 
0.0 0.0 0.0 
0.0 0.0 0.0 
0.0 0.0 0.0 
0.0 0.0 0.0 
0.0 0.0 0.0 
0.0 0.0 0.0 
0.0 0.0 0.0 
0.0 0.0 0.0 
0.0 0.0 0.0 
0.0 0.0 0.0 
0.0 0.0 0.0 
0.0 0.0 0.0 
0.0 0.0 0.0 
0.0 0.0 0.0 
0.0 0.0 0.0 
0.0 0.0 0.0 
0.0 0.0 0.0 
0.0 0.0 0.0 
0.0 0.0 0.0 
0.0 0.0 0.0 
0.0 0.0 0.0 
0.0 0.0 0.0 
0.0 0.0 0.0 
0.0 0.0 0.0 
0.0 0.0 0.0 
0.0 0.0 0.0 
0.0 0.0 0.0 
0.0 0.0 0.0 
0.0 0.0 0.0 
0.0 0.0 0.0 
0.0 0.0 0.0 
0.0 0.0 0.0 
0.0 0.0 0.0 
0.0 0.0 0.0 
0.0 0.0 0.0 
0.0 0.0 0.0 
0.0 0.0 0.0 
0.0 0.0 0.0 
0.0 0.0 0.0 
0.0 0.0 0.0 
0.0 0.0 0.0 
0.0 0.0 0.0 
0.0 0.0 0.0 
0.0 0.0 0.0 
0.0 0.0 0.0 
0.0 0.0 0.0 
0.0 0.0 0.0 
0.0 0.0 0.0 
0.0 0.0 0.0 
0.0 0.0 0.0 
0.0 0.0 0.0 
0.0 0.0 0.0 
0.0 0.0 0.0 
0.0 0.0 0.0 
0.0 0.0 0.0 
0.0 0.0 0.0 
0.0 0.0 0.0 
0.0 0.0 0.0 
0.0 0.0 0.0 
0.0 0.0 0.0 
0.0 0.0 0.0 
0.0 0.0 0.0 
0.0 0.0 0.0 
0.0 0.0 0.0 
0.0 0.0 0.0 
0.0 0.0 0.0 
0.0 0.0 0.0 
0.0 0.0 0.0 
0.0 0.0 0.0 
0.0 0.0 0.0 
0.0 0.0 0.0 
0.0 0.0 0.0 
0.0 0.0 0.0 
0.0 0.0 0.0 
0.0 0.0 0.0 
0.0 0.0 0.0 
0.0 0.0 0.0 
0.0 0.0 0.0 
0.0 0.0 0.0 
0.0 0.0 0.0 
0.0 0.0 0.0 
0.0 0.0 0.0 
0.0 0.0 0.0 
0.0 0.0 0.0 
0.0 0.0 0.0 
0.0 0.0 0.0 
0.0 0.0 0.0 
0.0 0.0 0.0 
0.0 0.0 0.0 
0.0 0.0 0.0 
0.0 0.0 0.0 
0.0 0.0 0.0 
0.0 0.0 0.0 
0.0 0.0 0.0 
0.0 0.0 0.0 
0.0 0.0 0.0 
0.0 0.0 0.0 
0.0 0.0 0.0 
0.0 0.0 0.0 
0.0 0.0 0.0 
0.0 0.0 0.0 
0.0 0.0 0.0 
0.0 0.0 0.0 
0.0 0.0 0.0 
0.0 0.0 0.0 
0.0 0.0 0.0 
0.0 0.0 0.0 
0.0 0.0 0.0 
0.0 0.0 0.0 
0.0 0.0 0.0 
0.0 0.0 0.0 
0.0 0.0 0.0 
0.0 0.0 0.0 
0.0 0.0 0.0 
0.0 0.0 0.0 
0.0 0.0 0.0 
0.0 0.0 0.0 
0.0 0.0 0.0 
0.0 0.0 0.0 
0.0 0.0 0.0 
0.0 0.0 0.0 
0.0 0.0 0.0 
0.0 0.0 0.0 
0.0 0.0 0.0 
0.0 0.0 0.0 
0.0 0.0 0.0 
0.0 0.0 0.0 
0.0 0.0 0.0 
0.0 0.0 0.0 
0.0 0.0 0.0 
0.0 0.0 0.0 
0.0 0.0 0.0 
0.0 0.0 0.0 
0.0 0.0 0.0 
0.0 0.0 0.0 
0.0 0.0 0.0 
0.0 0.0 0.0 
0.0 0.0 0.0 
0.0 0.0 0.0 
0.0 0.0 0.0 
0.0 0.0 0.0 
0.0 0.0 0.0 
0.0 0.0 0.0 
0.0 0.0 0.0 
0.0 0.0 0.0 
0.0 0.0 0.0 
0.0 0.0 0.0 
0.0 0.0 0.0 
0.0 0.0 0.0 
0.0 0.0 0.0 
0.0 0.0 0.0 
0.0 0.0 0.0 
0.0 0.0 0.0 
0.0 0.0 0.0 
0.0 0.0 0.0 
0.0 0.0 0.0 
0.0 0.0 0.0 
0.0 0.0 0.0 
0.0 0.0 0.0 
0.0 0.0 0.0 
0.0 0.0 0.0 
0.0 0.0 0.0 
0.0 0.0 0.0 
0.0 0.0 0.0 
0.0 0.0 0.0 
0.0 0.0 0.0 
0.0 0.0 0.0 
0.0 0.0 0.0 
0.0 0.0 0.0 
0.0 0.0 0.0 
0.0 0.0 0.0 
0.0 0.0 0.0 
0.0 0.0 0.0 
0.0 0.0 0.0 
0.0 0.0 0.0 
0.0 0.0 0.0 
0.0 0.0 0.0 
0.0 0.0 0.0 
0.0 0.0 0.0 
0.0 0.0 0.0 
0.0 0.0 0.0 
0.0 0.0 0.0 
0.0 0.0 0.0 
0.0 0.0 0.0 
0.0 0.0 0.0 
0.0 0.0 0.0 
0.0 0.0 0.0 
0.0 0.0 0.0 
0.0 0.0 0.0 
0.0 0.0 0.0 
0.0 0.0 0.0 
0.0 0.0 0.0 
0.0 0.0 0.0 
0.0 0.0 0.0 
0.0 0.0 0.0 
0.0 0.0 0.0 
0.0 0.0 0.0 
0.0 0.0 0.0 
0.0 0.0 0.0 
0.0 0.0 0.0 
0.0 0.0 0.0 
0.0 0.0 0.0 
0.0 0.0 0.0 
0.0 0.0 0.0 
0.0 0.0 0.0 
0.0 0.0 0.0 
0.0 0.0 0.0 
0.0 0.0 0.0 
0.0 0.0 0.0 
0.0 0.0 0.0 
0.0 0.0 0.0 
0.0 0.0 0.0 
0.0 0.0 0.0 
0.0 0.0 0.0 
0.0 0.0 0.0 
0.0 0.0 0.0 
0.0 0.0 0.0 
0.0 0.0 0.0 
0.0 0.0 0.0 
0.0 0.0 0.0 
0.0 0.0 0.0 
0.0 0.0 0.0 
0.0 0.0 0.0 
0.0 0.0 0.0 
0.0 0.0 0.0 
0.0 0.0 0.0 
0.0 0.0 0.0 
0.0 0.0 0.0 
0.0 0.0 0.0 
0.0 0.0 0.0 
0.0 0.0 0.0 
0.0 0.0 0.0 
0.0 0.0 0.0 
0.0 0.0 0.0 
0.0 0.0 0.0 
0.0 0.0 0.0 
0.0 0.0 0.0 
0.0 0.0 0.0 
0.0 0.0 0.0 
0.0 0.0 0.0 
0.0 0.0 0.0 
0.0 0.0 0.0 
0.0 0.0 0.0 
0.0 0.0 0.0 
0.0 0.0 0.0 
0.0 0.0 0.0 
0.0 0.0 0.0 
0.0 0.0 0.0 
0.0 0.0 0.0 
0.0 0.0 0.0 
0.0 0.0 0.0 
0.0 0.0 0.0 
0.0 0.0 0.0 
0.0 0.0 0.0 
0.0 0.0 0.0 
0.0 0.0 0.0 
0.0 0.0 0.0 
0.0 0.0 0.0 
0.0 0.0 0.0 
0.0 0.0 0.0 
0.0 0.0 0.0 
0.0 0.0 0.0 
0.0 0.0 0.0 
0.0 0.0 0.0 
0.0 0.0 0.0 
0.0 0.0 0.0 
0.0 0.0 0.0 
0.0 0.0 0.0 
0.0 0.0 0.0 
0.0 0.0 0.0 
0.0 0.0 0.0 
0.0 0.0 0.0 
0.0 0.0 0.0 
0.0 0.0 0.0 
0.0 0.0 0.0 
0.0 0.0 0.0 
0.0 0.0 0.0 
0.0 0.0 0.0 
0.0 0.0 0.0 
0.0 0.0 0.0 
0.0 0.0 0.0 
0.0 0.0 0.0 
0.0 0.0 0.0 
0.0 0.0 0.0 
0.0 0.0 0.0 
0.0 0.0 0.0 
0.0 0.0 0.0 
0.0 0.0 0.0 
0.0 0.0 0.0 
0.0 0.0 0.0 
0.0 0.0 0.0 
0.0 0.0 0.0 
0.0 0.0 0.0 
0.0 0.0 0.0 
0.0 0.0 0.0 
0.0 0.0 0.0 
0.0 0.0 0.0 
0.0 0.0 0.0 
0.0 0.0 0.0 
0.0 0.0 0.0 
0.0 0.0 0.0 
0.0 0.0 0.0 
0.0 0.0 0.0 
0.0 0.0 0.0 
0.0 0.0 0.0 
0.0 0.0 0.0 
0.0 0.0 0.0 
0.0 0.0 0.0 
0.0 0.0 0.0 
0.0 0.0 0.0 
0.0 0.0 0.0 
0.0 0.0 0.0 
0.0 0.0 0.0 
0.0 0.0 0.0 
0.0 0.0 0.0 
0.0 0.0 0.0 
0.0 0.0 0.0 
0.0 0.0 0.0 
0.0 0.0 0.0 
0.0 0.0 0.0 
0.0 0.0 0.0 
0.0 0.0 0.0 
0.0 0.0 0.0 
0.0 0.0 0.0 
0.0 0.0 0.0 
0.0 0.0 0.0 
0.0 0.0 0.0 
0.0 0.0 0.0 
0.0 0.0 0.0 
0.0 0.0 0.0 
0.0 0.0 0.0 
0.0 0.0 0.0 
0.0 0.0 0.0 
0.0 0.0 0.0 
0.0 0.0 0.0 
0.0 0.0 0.0 
0.0 0.0 0.0 
0.0 0.0 0.0 
0.0 0.0 0.0 
0.0 0.0 0.0 
0.0 0.0 0.0 
0.0 0.0 0.0 
0.0 0.0 0.0 
0.0 0.0 0.0 
0.0 0.0 0.0 
0.0 0.0 0.0 
0.0 0.0 0.0 
0.0 0.0 0.0 
0.0 0.0 0.0 
0.0 0.0 0.0 
0.0 0.0 0.0 
0.0 0.0 0.0 
0.0 0.0 0.0 
0.0 0.0 0.0 
0.0 0.0 0.0 
0.0 0.0 0.0 
0.0 0.0 0.0 
0.0 0.0 0.0 
0.0 0.0 0.0 
0.0 0.0 0.0 
0.0 0.0 0.0 
0.0 0.0 0.0 
0.0 0.0 0.0 
0.0 0.0 0.0 
0.0 0.0 0.0 
0.0 0.0 0.0 
0.0 0.0 0.0 
0.0 0.0 0.0 
0.0 0.0 0.0 
0.0 0.0 0.0 
0.0 0.0 0.0 
0.0 0.0 0.0 
0.0 0.0 0.0 
0.0 0.0 0.0 
0.0 0.0 0.0 
0.0 0.0 0.0 
0.0 0.0 0.0 
0.0 0.0 0.0 
0.0 0.0 0.0 
0.0 0.0 0.0 
0.0 0.0 0.0 
0.0 0.0 0.0 
0.0 0.0 0.0 
0.0 0.0 0.0 
0.0 0.0 0.0 
0.0 0.0 0.0 
0.0 0.0 0.0 
0.0 0.0 0.0 
0.0 0.0 0.0 
0.0 0.0 0.0 
0.0 0.0 0.0 
0.0 0.0 0.0 
0.0 0.0 0.0 
0.0 0.0 0.0 
0.0 0.0 0.0 
0.0 0.0 0.0 
0.0 0.0 0.0 
0.0 0.0 0.0 
0.0 0.0 0.0 
0.0 0.0 0.0 
0.0 0.0 0.0 
0.0 0.0 0.0 
0.0 0.0 0.0 
0.0 0.0 0.0 
0.0 0.0 0.0 
0.0 0.0 0.0 
0.0 0.0 0.0 
0.0 0.0 0.0 
0.0 0.0 0.0 
0.0 0.0 0.0 
0.0 0.0 0.0 
0.0 0.0 0.0 
0.0 0.0 0.0 
0.0 0.0 0.0 
0.0 0.0 0.0 
0.0 0.0 0.0 
0.0 0.0 0.0 
0.0 0.0 0.0 
0.0 0.0 0.0 
0.0 0.0 0.0 
0.0 0.0 0.0 
0.0 0.0 0.0 
0.0 0.0 0.0 
0.0 0.0 0.0 
0.0 0.0 0.0 
0.0 0.0 0.0 
0.0 0.0 0.0 
0.0 0.0 0.0 

VECTORS node_materi_velocity float
0.0 -5.591260047569e-04 0.0 
0.0 9.903249238025e-03 0.0 
0.0 0.0 0.0 
0.0 0.0 0.0 
0.0 -5.554637606412e-04 0.0 
0.0 -5.495565055511e-04 0.0 
0.0 -5.402495937701e-04 0.0 
0.0 -5.266688997714e-04 0.0 
0.0 -5.074186969871e-04 0.0 
0.0 -4.827545467542e-04 0.0 
0.0 -4.527694807867e-04 0.0 
0.0 -4.176016024133e-04 0.0 
0.0 -3.779433350523e-04 0.0 
0.0 -3.345827528940e-04 0.0 
0.0 -2.886252614806e-04 0.0 
0.0 -2.416367748988e-04 0.0 
0.0 -1.949487078639e-04 0.0 
0.0 -1.494686144428e-04 0.0 
0.0 -1.073908347477e-04 0.0 
0.0 -7.022397328701e-05 0.0 
0.0 -3.936106831131e-05 0.0 
0.0 -1.669769698915e-05 0.0 
0.0 -3.926296782229e-06 0.0 
0.0 0.0 0.0 
0.0 0.0 0.0 
0.0 0.0 0.0 
0.0 0.0 0.0 
0.0 0.0 0.0 
0.0 0.0 0.0 
0.0 0.0 0.0 
0.0 0.0 0.0 
0.0 0.0 0.0 
0.0 0.0 0.0 
0.0 0.0 0.0 
0.0 0.0 0.0 
0.0 0.0 0.0 
0.0 0.0 0.0 
0.0 0.0 0.0 
0.0 0.0 0.0 
0.0 0.0 0.0 
0.0 0.0 0.0 
0.0 0.0 0.0 
0.0 0.0 0.0 
0.0 0.0 0.0 
0.0 0.0 0.0 
0.0 0.0 0.0 
0.0 0.0 0.0 
0.0 0.0 0.0 
0.0 0.0 0.0 
0.0 0.0 0.0 
0.0 0.0 0.0 
0.0 0.0 0.0 
0.0 0.0 0.0 
0.0 0.0 0.0 
0.0 0.0 0.0 
0.0 0.0 0.0 
0.0 0.0 0.0 
0.0 0.0 0.0 
0.0 0.0 0.0 
0.0 0.0 0.0 
0.0 0.0 0.0 
0.0 0.0 0.0 
0.0 0.0 0.0 
0.0 0.0 0.0 
0.0 0.0 0.0 
0.0 0.0 0.0 
0.0 0.0 0.0 
0.0 0.0 0.0 
0.0 0.0 0.0 
0.0 0.0 0.0 
0.0 0.0 0.0 
0.0 0.0 0.0 
0.0 8.890546038469e-03 0.0 
0.0 7.878642028237e-03 0.0 
0.0 6.869095814633e-03 0.0 
0.0 5.862976108088e-03 0.0 
0.0 4.862437776213e-03 0.0 
0.0 3.868872624808e-03 0.0 
0.0 2.884205594030e-03 0.0 
0.0 1.910236752158e-03 0.0 
0.0 9.487952878962e-04 0.0 
-1.052714592454e-03 1.217881889192e-03 0.0 
1.822000275477e-03 9.426246399613e-03 0.0 
-9.427728922815e-04 1.721282708130e-03 0.0 
-8.974093843379e-04 2.439015343150e-03 0.0 
-8.145488204515e-04 3.518842377701e-03 0.0 
-4.423938472001e-04 5.298344012184e-03 0.0 
1.083090861972e-04 8.580880224240e-03 0.0 
1.099618749301e-03 1.017509094609e-02 0.0 
1.641696919808e-03 1.059754437605e-02 0.0 
1.872496072336e-03 1.049528215620e-02 0.0 
1.909978563068e-03 1.006769679170e-02 0.0 
0.0 1.499530436487e-02 0.0 
0.0 1.395676689146e-02 0.0 
0.0 1.294083848209e-02 0.0 
0.0 1.192875640212e-02 0.0 
0.0 1.091608429108e-02 0.0 
1.046457321467e-04 9.904896560458e-03 0.0 
2.103930511335e-04 9.909908174717e-03 0.0 
3.171974927567e-04 9.916860555201e-03 0.0 
4.251972719915e-04 9.924745915013e-03 0.0 
5.345462773722e-04 9.931893895577e-03 0.0 
6.450785521287e-04 9.937136643125e-03 0.0 
7.578387060863e-04 9.939573135760e-03 0.0 
8.727049906392e-04 9.936184854086e-03 0.0 
9.910044930547e-04 9.925508164636e-03 0.0 
1.113407030211e-03 9.903717957121e-03 0.0 
1.240409731850e-03 9.865864329457e-03 0.0 
1.373527999340e-03 9.806656039684e-03 0.0 
1.513794454653e-03 9.719718842078e-03 0.0 
1.662479156975e-03 9.595986852284e-03 0.0 
-9.722927200707e-04 9.092031245017e-04 0.0 
-8.607209394149e-04 6.233984281834e-04 0.0 
-7.388495177871e-04 3.780909751613e-04 0.0 
-6.149938386013e-04 1.730460324178e-04 0.0 
-5.018174837146e-04 4.264914308184e-06 0.0 
-3.995123065662e-04 -1.320982628506e-04 0.0 
-3.088595640790e-04 -2.405163407943e-04 0.0 
-2.307703753239e-04 -3.260467317791e-04 0.0 
-1.648399065053e-04 -3.920573415586e-04 0.0 
-1.108069623202e-04 -4.418457653085e-04 0.0 
-6.802087412035e-05 -4.796672651979e-04 0.0 
-3.480600157571e-05 -5.061480468277e-04 0.0 
-1.135857281333e-05 -5.253286942185e-04 0.0 
5.023212837116e-06 -5.385105652888e-04 0.0 
1.454621823506e-05 -5.476152136458e-04 0.0 
1.831970739315e-05 -5.531130614652e-04 0.0 
1.746343313284e-05 -5.563280969718e-04 0.0 
1.330292237497e-05 -5.583310898538e-04 0.0 
7.221645926379e-06 -5.590124529402e-04 0.0 
-1.608158531533e-04 1.053218933528e-02 0.0 
7.383840750919e-05 1.165544723567e-02 0.0 
2.746304761245e-04 1.249296975827e-02 0.0 
4.752146854772e-04 1.311868672180e-02 0.0 
6.537952496867e-04 1.360365746800e-02 0.0 
7.985014595338e-04 1.397165789011e-02 0.0 
9.086849697691e-04 1.425520204444e-02 0.0 
9.847012676192e-04 1.446933899798e-02 0.0 
1.029554688518e-03 1.463121140897e-02 0.0 
1.046877874711e-03 1.475150849627e-02 0.0 
1.040516808391e-03 1.483963147669e-02 0.0 
1.013685517665e-03 1.490231246248e-02 0.0 
9.692321758324e-04 1.494541778527e-02 0.0 
9.098732433948e-04 1.497367763572e-02 0.0 
8.381082002547e-04 1.499083998318e-02 0.0 
7.562143921610e-04 1.499991941763e-02 0.0 
6.662715896539e-04 1.500329317650e-02 0.0 
5.705347237623e-04 1.500295527250e-02 0.0 
4.718616233878e-04 1.500041150621e-02 0.0 
3.744644849734e-04 1.499608904948e-02 0.0 
2.843642683676e-04 1.498704257745e-02 0.0 
1.667414330773e-04 1.498946863281e-02 0.0 
1.254177193219e-04 1.396338134798e-02 0.0 
2.425674404935e-04 1.397422537974e-02 0.0 
3.517987739928e-04 1.398162315622e-02 0.0 
4.566430076427e-04 1.398675425004e-02 0.0 
5.579187383958e-04 1.399074601975e-02 0.0 
6.550459688119e-04 1.399294204546e-02 0.0 
7.468852865450e-04 1.399175557892e-02 0.0 
8.320836599438e-04 1.398506074540e-02 0.0 
9.092044704680e-04 1.397023539521e-02 0.0 
9.767513945369e-04 1.394395233725e-02 0.0 
1.033222448783e-03 1.390201465576e-02 0.0 
1.077149826279e-03 1.383913147814e-02 0.0 
1.107163787263e-03 1.374882858223e-02 0.0 
1.122308308096e-03 1.362297543575e-02 0.0 
1.122249357316e-03 1.345090594490e-02 0.0 
1.108161669186e-03 1.321844531059e-02 0.0 
1.082926710926e-03 1.290741232158e-02 0.0 
1.053857290111e-03 1.249257856060e-02 0.0 
1.032872148581e-03 1.194315884049e-02 0.0 
1.030574889719e-03 1.120618751466e-02 0.0 
1.538235773752e-03 1.123547331959e-02 0.0 
1.466458784317e-03 1.171100242003e-02 0.0 
1.404022095053e-03 1.206913633593e-02 0.0 
1.350129589089e-03 1.233870188091e-02 0.0 
1.298211503814e-03 1.253880092095e-02 0.0 
1.244695975419e-03 1.268601993790e-02 0.0 
1.186988140654e-03 1.279231690337e-02 0.0 
1.123881374458e-03 1.286736338422e-02 0.0 
1.054870445079e-03 1.291842893182e-02 0.0 
9.799517912054e-04 1.295131933705e-02 0.0 
8.993921079088e-04 1.297072000303e-02 0.0 
8.136623231889e-04 1.298038503474e-02 0.0 
7.233637014286e-04 1.298328934080e-02 0.0 
6.290743438770e-04 1.298173191926e-02 0.0 
5.312856335188e-04 1.297745206864e-02 0.0 
4.302548122541e-04 1.297154255501e-02 0.0 
3.259747860687e-04 1.296422308380e-02 0.0 
2.186334736193e-04 1.295506133342e-02 0.0 
1.092624019481e-04 1.294632299010e-02 0.0 
1.077228747614e-04 1.193153549531e-02 0.0 
2.168383753133e-04 1.193967034984e-02 0.0 
3.254130227633e-04 1.194874732031e-02 0.0 
4.325472823024e-04 1.195715502535e-02 0.0 
5.379329646105e-04 1.196436993441e-02 0.0 
6.415526803065e-04 1.196975540445e-02 0.0 
7.433027454257e-04 1.197209560999e-02 0.0 
8.432247570458e-04 1.196939256122e-02 0.0 
9.412391852061e-04 1.195914465690e-02 0.0 
1.037394069461e-03 1.193784348508e-02 0.0 
1.132036998729e-03 1.190105947758e-02 0.0 
1.225789860856e-03 1.184334553290e-02 0.0 
1.319709996835e-03 1.175778799208e-02 0.0 
1.415500679741e-03 1.163576416558e-02 0.0 
1.515225206894e-03 1.146514453273e-02 0.0 
1.622595267916e-03 1.123272865675e-02 0.0 
1.737904083145e-03 1.091871390130e-02 0.0 
1.762320525170e-03 1.033438655084e-02 0.0 
1.628713399934e-03 1.053095598761e-02 0.0 
1.500759327168e-03 1.067498721598e-02 0.0 
1.380415127604e-03 1.077920246189e-02 0.0 
1.265436634783e-03 1.085197628564e-02 0.0 
1.154350633652e-03 1.090072165889e-02 0.0 
1.045941408169e-03 1.093129733642e-02 0.0 
9.392448048112e-04 1.094831201704e-02 0.0 
8.337043100136e-04 1.095585941246e-02 0.0 
7.289871494013e-04 1.095704175782e-02 0.0 
6.245178552212e-04 1.095358163764e-02 0.0 
5.201575102361e-04 1.094765443761e-02 0.0 
4.156597045300e-04 1.094008007224e-02 0.0 
3.110406982247e-04 1.093182414188e-02 0.0 
2.067534273090e-04 1.092404881430e-02 0.0 
1.032630207305e-04 1.091835535917e-02 0.0 
-9.801990473738e-04 1.450473645928e-03 0.0 
-9.184882690646e-04 2.046009888581e-03 0.0 
-8.670990114481e-04 2.920858001810e-03 0.0 
-7.028435067264e-04 4.278920470638e-03 0.0 
-2.366949221806e-04 6.990398532281e-03 0.0 
7.011056981401e-04 9.580791304241e-03 0.0 
1.430908837273e-03 1.046647126050e-02 0.0 
1.790899812332e-03 1.059458121029e-02 0.0 
1.913103573285e-03 1.031229362810e-02 0.0 
1.879749678258e-03 9.767873707788e-03 0.0 
-6.761413890403e-04 2.035033693930e-03 0.0 
3.431623436336e-04 8.932865872438e-05 0.0 
-8.375020956127e-05 -4.358913399364e-04 0.0 
-4.143022622127e-04 5.318236764389e-05 0.0 
1.968902118803e-04 3.024959654930e-05 0.0 
-1.767486465525e-05 4.345252679421e-03 0.0 
5.682849427517e-05 -3.109929830827e-04 0.0 
4.837881081360e-04 1.830815604169e-04 0.0 
1.607786821813e-03 8.653850216499e-03 0.0 
5.759377403937e-04 3.172950428020e-04 0.0 
2.146432317529e-03 9.649091804001e-03 0.0 
1.025750329419e-04 9.206196360019e-06 0.0 
1.646368939917e-05 -5.381158640153e-04 0.0 
5.938773891435e-04 4.982037491343e-04 0.0 
2.007863322962e-03 8.833402086335e-03 0.0 
3.696412759857e-05 -4.676687797266e-04 0.0 
6.025305093221e-05 -1.806518133048e-04 0.0 
5.476082537789e-04 6.436765672962e-04 0.0 
3.767904461253e-04 7.243495308939e-04 0.0 
1.024239599426e-04 8.064606382378e-04 0.0 
1.931862104044e-04 8.635571521988e-04 0.0 
2.625794529180e-04 7.512772905392e-04 0.0 
1.640623367676e-03 8.758513999270e-03 0.0 
1.068687565414e-03 8.993131839348e-03 0.0 
7.014312086300e-04 8.992877961193e-03 0.0 
6.734351702608e-05 5.346707648404e-03 0.0 
6.044299891555e-05 1.809534918937e-06 0.0 
-7.072425854908e-04 7.400257961541e-04 0.0 
2.481339218898e-05 -5.539285543476e-04 0.0 
4.200400497532e-05 -5.588203416554e-05 0.0 
3.604805478409e-04 9.044602051344e-03 0.0 
2.064870797087e-05 -5.347945430770e-04 0.0 
5.200755929296e-04 7.860346288435e-04 0.0 
4.975490520006e-04 2.257200816125e-04 0.0 
5.922152265252e-04 4.006954604134e-04 0.0 
4.415072163648e-04 1.401892006651e-04 0.0 
2.651432827684e-04 5.627325608593e-05 0.0 
-2.475331429465e-04 -2.192222634171e-04 0.0 
1.338697699103e-03 8.976263076343e-03 0.0 
1.712289475393e-04 1.959381239759e-05 0.0 
5.128391968994e-05 3.417380458397e-03 0.0 
-1.867935084718e-05 -5.047210499619e-04 0.0 
4.944938277058e-05 -3.984419183522e-04 0.0 
5.129155763787e-05 6.560640835096e-04 0.0 
8.770060578839e-04 6.451664594333e-03 0.0 
-4.895218713010e-04 2.930221384771e-03 0.0 
1.993672206839e-03 9.501357324258e-03 0.0 
2.133781485700e-03 9.375577736101e-03 0.0 
-7.965851067813e-04 1.429666998635e-03 0.0 
8.156258450146e-05 7.253218121746e-03 0.0 
2.700698845405e-05 -5.057765755651e-07 0.0 
1.287892210676e-05 -5.562533878507e-04 0.0 
2.812428876512e-05 1.498594485555e-03 0.0 
1.941004506574e-03 8.453877147627e-03 0.0 
2.095208078880e-03 7.885851314891e-03 0.0 
1.936554051856e-03 7.622832957421e-03 0.0 
2.111295533965e-03 6.965498966115e-03 0.0 
1.953428761776e-03 6.597813428677e-03 0.0 
2.080743705142e-03 6.027512182336e-03 0.0 
2.258899516563e-03 6.345073079559e-03 0.0 
2.191277882794e-03 5.444431758693e-03 0.0 
2.383774248374e-03 5.720983579765e-03 0.0 
1.891688786589e-03 5.652860506385e-03 0.0 
2.275165637981e-03 4.857138520814e-03 0.0 
2.478386019304e-03 5.091888800632e-03 0.0 
2.326981878529e-03 4.275564707815e-03 0.0 
2.535697584245e-03 4.469440867051e-03 0.0 
2.662565357478e-03 5.259192015375e-03 0.0 
2.721707931637e-03 4.595408359027e-03 0.0 
2.821287470638e-03 5.346607639159e-03 0.0 
2.877309365573e-03 4.638391623019e-03 0.0 
2.735645384024e-03 3.958838190971e-03 0.0 
2.883839845446e-03 3.968682814103e-03 0.0 
2.995141992159e-03 4.591953560635e-03 0.0 
2.988631623667e-03 3.893650236132e-03 0.0 
3.065781764831e-03 4.449372371507e-03 0.0 
3.041750522436e-03 3.731206279111e-03 0.0 
3.079932776865e-03 4.207862983452e-03 0.0 
3.036583343059e-03 3.489024140071e-03 0.0 
2.970839446517e-03 3.093016872238e-03 0.0 
2.951078129009e-03 2.864345797140e-03 0.0 
2.968188810332e-03 3.180304423525e-03 0.0 
2.872202611214e-03 2.584795179069e-03 0.0 
2.835947191300e-03 2.823843458265e-03 0.0 
2.736990518193e-03 2.271950265356e-03 0.0 
2.749930212428e-03 2.083414303372e-03 0.0 
2.617939704242e-03 1.814258147779e-03 0.0 
2.552512910451e-03 1.944943457853e-03 0.0 
2.444965592132e-03 1.537937049434e-03 0.0 
2.330429892626e-03 1.622103743721e-03 0.0 
2.241747246616e-03 1.267511213086e-03 0.0 
2.084924633421e-03 1.317191786725e-03 0.0 
2.018719403836e-03 1.011442664292e-03 0.0 
2.141179293163e-03 9.771953233960e-04 0.0 
1.939552145778e-03 7.613819308129e-04 0.0 
1.787457409117e-03 7.771787695734e-04 0.0 
1.731019279841e-03 5.638664643161e-04 0.0 
1.847956317234e-03 5.596122512486e-04 0.0 
1.660205652248e-03 3.926072009871e-04 0.0 
1.745494877467e-03 3.985947186530e-04 0.0 
1.577218215969e-03 2.569522273110e-04 0.0 
1.474347239955e-03 2.428931678893e-04 0.0 
1.409302789253e-03 1.290465518205e-04 0.0 
1.484546723699e-03 1.515700242388e-04 0.0 
1.332716005151e-03 4.161687194620e-05 0.0 
1.244110052637e-03 1.423288683049e-05 0.0 
1.183930932121e-03 -5.663298359608e-05 0.0 
1.248494214970e-03 -2.294597903386e-05 0.0 
1.113706425441e-03 -1.080673761339e-04 0.0 
1.040040653504e-03 -1.437627809792e-04 0.0 
9.830556939433e-04 -1.834721434174e-04 0.0 
1.037460286282e-03 -1.425500198240e-04 0.0 
9.181144730870e-04 -2.089650039020e-04 0.0 
8.574632642661e-04 -2.499501430172e-04 0.0 
8.037398700324e-04 -2.670557098120e-04 0.0 
8.480543848091e-04 -2.224023656818e-04 0.0 
7.433434561399e-04 -2.742635218798e-04 0.0 
7.733966322374e-04 -2.268811407137e-04 0.0 
6.932217211621e-04 -3.185048197645e-04 0.0 
6.426569813067e-04 -3.198731341772e-04 0.0 
5.889949756376e-04 -3.630601557960e-04 0.0 
5.472461070585e-04 -3.595510559063e-04 0.0 
2.607600237360e-03 1.664817349022e-03 0.0 
4.937076985313e-04 -4.003365279402e-04 0.0 
5.227338393399e-04 -4.002207754125e-04 0.0 
4.584690564091e-04 -3.935717414810e-04 0.0 
4.992745578568e-04 -3.505071547024e-04 0.0 
4.065816997802e-04 -4.316246278399e-04 0.0 
3.767940818455e-04 -4.224761798338e-04 0.0 
3.281583118639e-04 -4.574991340662e-04 0.0 
2.125817392350e-03 1.690018457763e-03 0.0 
2.703136196922e-03 3.362205060416e-03 0.0 
3.027689264035e-04 -4.468330297516e-04 0.0 
2.587715219498e-04 -4.785911911610e-04 0.0 
2.731282720096e-04 -4.862834600277e-04 0.0 
2.105386311908e-04 -5.040067379110e-04 0.0 
1.777297734422e-03 6.203786818816e-03 0.0 
1.693524989214e-03 5.243156562613e-03 0.0 
1.596517679635e-03 5.775585700816e-03 0.0 
1.489498393778e-03 4.808637993750e-03 0.0 
1.409922052080e-03 5.315907674696e-03 0.0 
1.984143759085e-04 -4.956585449131e-04 0.0 
2.100153138671e-03 3.995484862276e-03 0.0 
1.552273705180e-03 4.291527053608e-03 0.0 
3.035259163212e-03 5.237847216344e-03 0.0 
2.908247048453e-03 3.484501933554e-03 0.0 
1.907245328818e-03 5.516692643261e-04 0.0 
3.404213718942e-04 -4.094020177717e-04 0.0 
2.706210632440e-04 -4.330091677947e-04 0.0 
2.984421567074e-04 -3.935788345981e-04 0.0 
8.693993746317e-04 -1.752725595919e-04 0.0 
7.813902542136e-04 -1.782997402398e-04 0.0 
8.651378814681e-04 -1.280542376171e-04 0.0 
7.659023138075e-04 -1.305176500462e-04 0.0 
8.339135559805e-04 -8.303046371989e-05 0.0 
7.261743614706e-04 -8.567042968104e-05 0.0 
6.685834054749e-04 -1.277122151224e-04 0.0 
6.228529025387e-04 -8.366379831682e-05 0.0 
5.743807902559e-04 -1.210767661812e-04 0.0 
7.752718110137e-04 -4.252782459538e-05 0.0 
8.941402683645e-04 -3.366118621963e-05 0.0 
5.249705351081e-04 -7.840520929251e-05 0.0 
4.843277823329e-04 -1.118468025796e-04 0.0 
4.334155612092e-04 -7.109253387332e-05 0.0 
3.993842713964e-04 -1.009830951069e-04 0.0 
4.362701646399e-04 -1.448926009064e-04 0.0 
3.573184283849e-04 -1.310207359549e-04 0.0 
3.828005471405e-04 -1.770530678289e-04 0.0 
1.776944388795e-03 4.009268567426e-04 0.0 
1.907497597631e-03 5.369387083308e-04 0.0 
1.753115311897e-03 3.969994693382e-04 0.0 
1.847383051912e-03 5.125810487757e-04 0.0 
1.673242361872e-03 3.843974718441e-04 0.0 
1.727152000023e-03 4.768479369026e-04 0.0 
1.537149192733e-03 3.612546646318e-04 0.0 
1.498863409229e-03 2.849608243767e-04 0.0 
2.343445721513e-03 3.699337881487e-03 0.0 
1.559049079685e-03 5.677235127706e-04 0.0 
1.575423870797e-03 7.917193329097e-04 0.0 
1.336816113290e-03 5.754269346142e-04 0.0 
1.309394295922e-03 8.089997150731e-04 0.0 
1.072167579733e-03 5.905535381720e-04 0.0 
9.986997746974e-04 8.351381553958e-04 0.0 
7.746103570447e-04 6.178757157744e-04 0.0 
8.617840628026e-04 4.027391464507e-04 0.0 
5.820267130331e-04 4.309089169389e-04 0.0 
6.766572329634e-04 2.404875368232e-04 0.0 
4.178625420938e-04 2.679845699592e-04 0.0 
5.143906098975e-04 1.001288792293e-04 0.0 
2.861397757579e-03 2.537324702469e-03 0.0 
1.916996464453e-03 6.249574422429e-04 0.0 
1.751624967365e-03 5.606972036499e-04 0.0 
1.954898463527e-03 7.276196782924e-04 0.0 
2.142138808131e-04 -5.082637326037e-04 0.0 
3.202533988255e-04 -8.914507862859e-05 0.0 
8.128675884914e-04 5.513703905269e-07 0.0 
9.436813660894e-04 1.601900932594e-05 0.0 
1.349825580219e-03 2.714354511412e-04 0.0 
1.576948626132e-04 -5.176924354809e-04 0.0 
6.574669633198e-04 8.759352303622e-04 0.0 
8.916775416107e-04 1.127778475740e-03 0.0 
1.285232345461e-03 4.343698675835e-03 0.0 
1.223311900295e-03 4.833479306533e-03 0.0 
8.355652654652e-04 4.201989623275e-05 0.0 
1.468777713390e-04 -5.094665950219e-04 0.0 
5.557983706029e-04 -4.537629816508e-05 0.0 
2.921887026847e-04 4.742785182448e-04 0.0 
2.829661453092e-04 -1.164785769351e-04 0.0 
2.475363319495e-04 -7.681904636766e-05 0.0 
6.051583190671e-04 -1.677779904504e-04 0.0 
1.740727716087e-03 6.303239859215e-04 0.0 
1.958955195672e-03 8.154397304809e-04 0.0 
7.452682830309e-04 8.646298840517e-05 0.0 
5.863219528444e-04 -3.446412621776e-05 0.0 
3.734511814651e-04 -2.142020457012e-05 0.0 
4.532995861770e-04 -1.420509470645e-04 0.0 
6.373370554175e-04 -1.406430336574e-04 0.0 
5.028150420757e-04 -2.290359778691e-04 0.0 
3.334509775197e-04 -2.297617732003e-04 0.0 
3.855503408141e-04 -3.036926383273e-04 0.0 
5.365557495507e-04 -2.950647422330e-04 0.0 
4.229484790319e-04 -3.577285335409e-04 0.0 
2.846780620011e-04 -3.645738001315e-04 0.0 
3.248717386883e-04 -4.088060712566e-04 0.0 
2.721694561308e-04 -5.317967856644e-05 0.0 
1.547023868820e-04 3.087856886318e-04 0.0 
2.717703678653e-03 6.074747138256e-03 0.0 
7.015663852366e-04 2.629200072350e-05 0.0 
1.348837979332e-03 3.270277327384e-04 0.0 
1.084278165154e-03 3.858700722782e-03 0.0 
1.039610531171e-03 4.333922539548e-03 0.0 
1.148477763368e-03 5.323934018905e-03 0.0 
9.810380259854e-04 4.808658376870e-03 0.0 
8.621000019273e-04 3.821635494778e-03 0.0 
8.194824811073e-04 4.285686126239e-03 0.0 
9.123341081992e-04 5.281889160604e-03 0.0 
7.651679622767e-04 4.748589665657e-03 0.0 
8.362603460214e-04 5.751359046164e-03 0.0 
7.018960354413e-04 5.209077056938e-03 0.0 
6.254573221786e-04 4.210885103447e-03 0.0 
5.742193844030e-04 4.665341923836e-03 0.0 
6.319878764941e-04 5.667640121980e-03 0.0 
5.147815917594e-04 5.118661420822e-03 0.0 
5.571508802152e-04 6.123513714760e-03 0.0 
4.487521887785e-04 5.570600867518e-03 0.0 
4.054210368266e-04 4.570505727752e-03 0.0 
1.158523175517e-04 -5.277506750850e-04 0.0 
1.326905700797e-03 2.090050777615e-04 0.0 
1.167517212952e-03 2.028387234192e-04 0.0 
2.344539947624e-04 -4.169159183075e-04 0.0 
2.537978093190e-04 -3.756300422199e-04 0.0 
3.191333657744e-04 -3.497866028046e-04 0.0 
2.647418264050e-04 -3.311721263696e-04 0.0 
3.460565675568e-04 5.023671101381e-03 0.0 
3.057894555526e-04 4.025294794857e-03 0.0 
5.081723194406e-04 1.181607582791e-03 0.0 
7.483012825756e-04 1.476034775421e-03 0.0 
1.110861428339e-03 3.384567152100e-03 0.0 
2.138262788430e-04 -1.018368120424e-04 0.0 
2.389765784756e-04 -1.441457393589e-04 0.0 
2.717458457695e-03 3.042687029285e-03 0.0 
2.761574496441e-03 3.764679154954e-03 0.0 
2.507201400628e-03 3.235586651700e-03 0.0 
2.507395079680e-03 4.015676029066e-03 0.0 
2.764295781802e-03 4.632601270791e-03 0.0 
2.177539908905e-03 3.390010234381e-03 0.0 
1.017915121760e-03 -1.820042791198e-05 0.0 
4.955990078321e-04 3.672317103094e-03 0.0 
2.787431070993e-04 -4.889852217721e-04 0.0 
2.082937421509e-04 -5.071796974954e-04 0.0 
1.817649245951e-04 -6.475518157380e-05 0.0 
1.437531312723e-03 2.043476098012e-04 0.0 
2.834857321787e-03 2.694140410281e-03 0.0 
2.700852756354e-03 2.200553469518e-03 0.0 
2.628471082101e-03 2.291861142793e-03 0.0 
2.469258312125e-03 1.856854498429e-03 0.0 
2.350305689866e-03 1.887082843188e-03 0.0 
2.164886842114e-03 1.509219497566e-03 0.0 
2.282814750157e-03 1.484793733887e-03 0.0 
1.687877273910e-03 6.781477527669e-04 0.0 
1.954385258277e-03 1.186183600562e-03 0.0 
3.835230732173e-04 6.030750023868e-03 0.0 
2.104088237617e-03 8.108862864327e-04 0.0 
5.542859137077e-04 -3.417613483702e-04 0.0 
1.190722298744e-04 -5.324865354695e-04 0.0 
1.972291263877e-04 -4.136226046132e-04 0.0 
1.041690982762e-04 -5.200903180129e-04 0.0 
1.288488978397e-04 -4.985254439131e-04 0.0 
6.949929105253e-04 5.761041754063e-05 0.0 
1.997319572629e-03 1.480628479015e-03 0.0 
2.182640582880e-03 1.859239117140e-03 0.0 
2.466857458937e-03 4.990053642405e-03 0.0 
2.707366023418e-03 5.662082762543e-03 0.0 
1.459723147906e-03 5.174104311986e-04 0.0 
1.486341486534e-03 6.309427648679e-03 0.0 
9.748325506633e-04 6.289724762124e-03 0.0 
8.815072839430e-04 6.762858737664e-03 0.0 
8.015583971332e-05 -5.370108753851e-04 0.0 
1.474771900735e-04 -3.617623283558e-04 0.0 
6.944890181861e-04 3.302291479098e-03 0.0 
1.161743491716e-03 1.428696614147e-03 0.0 
1.037758419059e-03 1.831467899688e-03 0.0 
4.934743961094e-06 5.305778929869e-04 0.0 
-1.047369400806e-04 3.601851570130e-04 0.0 
2.568122274413e-04 4.464451548274e-03 0.0 
2.193634018315e-04 3.481340357813e-03 0.0 
3.308723638725e-04 -3.031379558772e-04 0.0 
2.698734976267e-04 -2.840630268265e-04 0.0 
8.396314880935e-04 8.005914118998e-05 0.0 
2.421383738417e-04 -4.498072902005e-04 0.0 
2.520485700147e-04 3.038719118248e-03 0.0 
1.281043055263e-03 1.414687311767e-04 0.0 
1.358162980298e-03 1.227012302343e-04 0.0 
2.009188012360e-04 -3.574454622659e-04 0.0 
3.194478314871e-04 1.539103988972e-03 0.0 
1.262123029442e-04 1.252686437677e-03 0.0 
6.776149299763e-04 -2.775221460351e-04 0.0 
3.501531623086e-04 -4.381227373723e-04 0.0 
8.688767206053e-05 -5.104842513872e-04 0.0 
6.654030853235e-04 8.236038258736e-05 0.0 
7.064396921020e-04 2.849146526729e-03 0.0 
2.076622814967e-03 1.175644005588e-03 0.0 
2.352227906328e-03 1.419907014073e-03 0.0 
1.726004986204e-03 9.176067664635e-04 0.0 
1.343410031482e-04 -4.528140570651e-04 0.0 
5.612360264152e-04 4.125786840828e-05 0.0 
1.505273139633e-04 -8.732435266239e-05 0.0 
1.801332360061e-03 1.421935938489e-03 0.0 
1.969809591494e-03 1.774474289024e-03 0.0 
1.466818481708e-03 1.786607871409e-03 0.0 
1.385972915002e-03 2.268682193386e-03 0.0 
8.795597717203e-04 2.319073206098e-03 0.0 
1.264141201893e-03 2.852124426524e-03 0.0 
2.423531820565e-03 6.612668028474e-03 0.0 
1.806492369192e-03 2.210793266769e-03 0.0 
2.848429308762e-03 6.125713393714e-03 0.0 
2.701280689513e-03 6.915639942310e-03 0.0 
2.799245356924e-03 6.935163055486e-03 0.0 
2.923102799268e-03 5.169955824397e-03 0.0 
2.836701044406e-03 6.208333490631e-03 0.0 
1.568509363810e-03 1.064723318204e-03 0.0 
2.056746139499e-03 7.143246545057e-04 0.0 
3.900728642503e-04 -3.210560172651e-04 0.0 
4.593818873899e-04 -1.921680889709e-04 0.0 
9.649143057419e-04 -1.184040854388e-04 0.0 
5.242703415594e-04 3.223736047685e-03 0.0 
3.955100737343e-04 2.690936272137e-03 0.0 
6.706399471101e-04 6.676954689027e-03 0.0 
5.840617033762e-04 7.134139691212e-03 0.0 
1.545098305299e-04 -5.232234584648e-04 0.0 
1.385939035195e-04 -5.177043136678e-04 0.0 
6.959269164621e-04 -2.244640613956e-04 0.0 
5.771095489082e-04 1.634658967014e-05 0.0 
8.991424443244e-04 2.898913303580e-03 0.0 
8.849370259005e-04 2.442687826501e-03 0.0 
1.114684873057e-03 2.912686934801e-03 0.0 
8.204776848177e-04 1.123761190197e-04 0.0 
1.341954329281e-03 3.847863745094e-04 0.0 
1.640753825300e-03 2.829045067096e-04 0.0 
3.845183405608e-05 1.660657077777e-04 0.0 
2.688832627027e-03 1.877907586704e-03 0.0 
9.730921739981e-05 -5.309293152004e-04 0.0 
2.525698396713e-03 3.301746231440e-03 0.0 
1.237223096114e-04 -5.292252231072e-05 0.0 
1.434929279702e-04 -3.454061477201e-05 0.0 
1.352781164007e-03 5.283861198674e-04 0.0 
2.207064342234e-03 8.192640981724e-03 0.0 
2.525219149314e-03 1.499578155392e-03 0.0 
2.450483317029e-03 1.319548296076e-03 0.0 
2.608715764924e-03 7.777921868880e-03 0.0 
2.668311160830e-03 7.771309313809e-03 0.0 
2.862029469130e-03 6.844602671809e-03 0.0 
2.688674199852e-03 7.648217375813e-03 0.0 
6.737040584247e-04 -3.173035233312e-04 0.0 
5.569756918650e-04 -3.725093049631e-04 0.0 
1.551529161840e-03 1.064738368019e-03 0.0 
1.562442136422e-03 8.876686016075e-04 0.0 
1.556234358337e-03 1.295816243686e-03 0.0 
1.715236682912e-03 1.623517362712e-03 0.0 
1.113829950025e-03 3.889236935942e-04 0.0 
1.232502661939e-03 3.883449020085e-04 0.0 
1.041664079602e-04 -4.861491795040e-04 0.0 
2.571035543501e-03 6.828079690973e-03 0.0 
5.363853019524e-04 2.333022220694e-03 0.0 
2.519514026157e-03 7.689920701262e-03 0.0 
4.428131627661e-04 2.995870349975e-05 0.0 
4.636187957373e-04 9.386299500994e-06 0.0 
-1.981057596695e-04 2.131428782042e-04 0.0 
-5.388185466241e-05 2.228527099667e-05 0.0 
1.718252081466e-04 2.522183029529e-03 0.0 
6.819741733326e-04 2.905263611704e-03 0.0 
1.086538624799e-03 3.555986405794e-03 0.0 
3.532645567075e-04 2.375071386776e-03 0.0 
1.864646243113e-05 -8.009145105249e-06 0.0 
1.554893668616e-04 9.046882914369e-03 0.0 
9.255152802502e-05 -2.592637892390e-05 0.0 
2.997515528551e-03 5.612526782922e-03 0.0 
1.856425145874e-04 2.046918593240e-03 0.0 
2.350014996436e-03 1.191926489332e-03 0.0 
2.461680939990e-03 2.587735600378e-03 0.0 
9.944550303731e-04 1.119884421060e-04 0.0 
1.399230140708e-04 3.041561955894e-03 0.0 
1.031896751457e-04 1.968116145632e-03 0.0 
1.006942545467e-03 7.288369872379e-03 0.0 
9.041771503340e-04 7.779728094556e-03 0.0 
1.115130871424e-03 6.820414001985e-03 0.0 
1.420225911759e-04 7.222001727577e-04 0.0 
-2.056281520806e-04 8.303586783645e-04 0.0 
3.778256573942e-04 3.134267204139e-03 0.0 
2.079636102100e-04 -4.534589529028e-04 0.0 
1.723865149634e-04 -4.341387716688e-04 0.0 
2.654097217097e-04 -4.721076304477e-04 0.0 
3.595436037716e-04 -4.552275243588e-04 0.0 
3.993950668036e-04 -2.730551483250e-04 0.0 
4.644079244385e-04 -2.894332246048e-04 0.0 
2.452380238237e-03 2.769673020533e-03 0.0 
2.244996967255e-03 2.665390875681e-03 0.0 
2.755170450613e-03 2.793551874026e-03 0.0 
1.217062760742e-03 7.253083998933e-05 0.0 
1.265792076284e-03 4.311350761388e-05 0.0 
1.392483342649e-03 9.870866177205e-05 0.0 
4.028459694006e-04 2.280511422303e-03 0.0 
2.679923857273e-04 1.675243536229e-03 0.0 
8.013025323070e-04 -2.514627167863e-04 0.0 
8.137161855522e-04 -2.008487040534e-04 0.0 
6.549310429359e-04 -3.432872231197e-04 0.0 
5.171206645280e-04 1.909483194086e-03 0.0 
1.023307795109e-04 -1.328099480067e-05 0.0 
1.533816994333e-04 -1.870029249061e-05 0.0 
7.475146516638e-05 -5.210207369146e-04 0.0 
1.134082554140e-04 -5.036736863858e-04 0.0 
-8.470395171098e-05 1.612715375879e-03 0.0 
-2.331771129051e-04 1.336626392777e-03 0.0 
8.551525765578e-04 2.028226405138e-03 0.0 
1.093672445407e-03 2.455166614457e-03 0.0 
6.079325502537e-04 1.523754965191e-03 0.0 
6.215071273108e-05 -5.009159053908e-04 0.0 
2.148916777750e-03 1.128301424633e-03 0.0 
6.263312059596e-04 1.032332269351e-04 0.0 
7.930486374164e-04 1.394770675807e-04 0.0 
4.488032529458e-04 7.087074398265e-05 0.0 
1.601315491358e-03 7.046806945142e-04 0.0 
1.214558222798e-03 5.131540520066e-04 0.0 
1.296907418077e-03 6.534377534189e-04 0.0 
-3.509153843813e-04 4.121003380071e-04 0.0 
7.745262403033e-05 2.368364866868e-03 0.0 
6.924777678730e-04 7.692063612475e-03 0.0 
-3.983658114034e-04 2.810799404096e-04 0.0 
5.964850742779e-04 8.185530904112e-03 0.0 
4.984444557432e-04 7.596061313123e-03 0.0 
5.152854617553e-04 8.672441815605e-03 0.0 
5.250119212791e-05 -5.206405015055e-04 0.0 
1.139313673467e-03 7.990899881853e-03 0.0 
1.263969259963e-03 7.380472940428e-03 0.0 
2.785129157709e-05 -5.011943824507e-04 0.0 
3.488688595337e-04 1.408813660146e-03 0.0 
4.982181866394e-05 -5.313094762351e-04 0.0 
6.923445242152e-05 -5.396599243098e-04 0.0 
3.345214495048e-04 2.051199592264e-05 0.0 
3.613445505011e-04 5.774906122236e-06 0.0 
2.404600873959e-04 1.558091629408e-05 0.0 
2.771884864250e-04 4.557179019931e-06 0.0 
3.729737085932e-04 -1.378563848228e-05 0.0 
2.871379745347e-04 -1.192816946088e-05 0.0 
8.089867245625e-04 8.336391019363e-03 0.0 
1.878670909506e-04 5.135151953892e-06 0.0 
2.105471118630e-04 -8.730129933356e-06 0.0 
1.226771281942e-04 2.645640365455e-06 0.0 
2.440670561480e-03 8.663211629042e-03 0.0 
1.657908530875e-03 3.476958311266e-03 0.0 
1.527533439364e-03 4.361076328475e-03 0.0 
8.313601530770e-04 4.469609165408e-03 0.0 
1.167173302950e-03 1.001956658779e-03 0.0 
1.451904590243e-03 1.444762114975e-03 0.0 
9.348520558932e-05 -7.262399295304e-05 0.0 
1.068856051661e-04 -1.102422561211e-04 0.0 
4.112052205613e-04 8.131061008928e-03 0.0 
3.004017931366e-04 8.168812495341e-03 0.0 
3.275342456584e-04 7.245904207018e-03 0.0 
2.363343615354e-04 7.353919535346e-03 0.0 
2.547849633249e-04 6.450588180460e-03 0.0 
1.639824371499e-04 6.563362280757e-03 0.0 
1.938669995518e-04 5.662269297950e-03 0.0 
1.081924043442e-03 5.899742127778e-04 0.0 
6.863564755460e-05 2.910300158551e-03 0.0 
2.384230379417e-03 8.601484021502e-03 0.0 
8.780912622150e-04 2.776360132326e-04 0.0 
1.039511892186e-03 2.978209284569e-04 0.0 
2.667195661993e-03 7.320537301040e-03 0.0 
2.323207720455e-03 8.096887009017e-03 0.0 
3.717884482403e-04 4.210701743082e-05 0.0 
1.829378066720e-03 1.742349332474e-03 0.0 
2.639047821951e-04 8.828972376555e-04 0.0 
-7.987143178884e-04 1.014724080905e-03 0.0 
-5.165886205046e-04 8.532300662299e-04 0.0 
2.142900002054e-03 2.143110257798e-03 0.0 
2.880155504435e-03 6.613737757062e-03 0.0 
2.092437051035e-03 4.215340166869e-03 0.0 
2.044031317860e-03 5.332026312219e-03 0.0 
1.128198639582e-03 9.629969396307e-05 0.0 
7.427054468710e-05 -4.799465915370e-04 0.0 
1.051730022084e-04 1.951998233811e-03 0.0 
2.829716334182e-04 5.564697859372e-03 0.0 
-3.228685684584e-04 1.997433008824e-03 0.0 
4.889244181878e-05 -9.010090957448e-05 0.0 
1.842749377571e-03 1.357834035235e-03 0.0 
3.042820430745e-03 4.689063827737e-03 0.0 
5.690640136008e-04 1.885353429102e-03 0.0 
1.795943299395e-03 2.803505389460e-03 0.0 
2.561922720100e-03 5.936696449471e-03 0.0 
2.263519238495e-03 7.266980661359e-03 0.0 
2.394538048483e-03 7.530427283378e-03 0.0 
1.826851853884e-03 1.040132178940e-03 0.0 
2.373445265339e-03 6.162038015136e-03 0.0 
1.869467918642e-03 6.740494878530e-03 0.0 
2.949291805151e-03 5.342547294618e-03 0.0 
1.352105115722e-03 3.361403134174e-03 0.0 
1.345862119017e-03 2.877577174749e-03 0.0 
1.049271266616e-03 2.032711676293e-03 0.0 
1.309032797933e-03 2.415823008652e-03 0.0 
1.602224032696e-03 3.276597152117e-03 0.0 
1.579847204607e-03 2.787736087558e-03 0.0 
1.238697324301e-03 1.981810655246e-03 0.0 
1.522838657238e-03 2.321034304572e-03 0.0 
1.039493774050e-03 1.414697413546e-03 0.0 
1.415093515942e-03 1.864888178764e-03 0.0 
1.803605655268e-03 2.640151177707e-03 0.0 
1.722673102659e-03 2.193162318799e-03 0.0 
1.331328615581e-03 1.545610053116e-03 0.0 
2.080497245691e-03 2.955480623551e-03 0.0 
7.131156545526e-04 2.480310459458e-04 0.0 
2.400921902729e-03 2.056150439618e-03 0.0 
-2.732007517188e-04 5.993738881397e-04 0.0 
-4.497696209111e-04 1.077934416554e-03 0.0 
3.070781627595e-03 5.023014158877e-03 0.0 
5.137259201763e-04 6.839552611187e-04 0.0 
4.261402168621e-04 7.263736348168e-04 0.0 
1.250538621567e-03 1.090822924777e-03 0.0 
5.959770732169e-04 4.474764799235e-04 0.0 
2.570770729992e-03 6.810067760495e-03 0.0 
4.568749553899e-04 6.625793045740e-04 0.0 
5.944246666452e-04 3.630072487580e-04 0.0 
1.591738111638e-03 3.777884577352e-03 0.0 
1.829162457044e-03 4.181407298915e-03 0.0 
1.772638202436e-03 4.712997881177e-03 0.0 
3.273888807509e-04 7.094165479778e-04 0.0 
1.221038481598e-03 6.334829074178e-03 0.0 
4.761754990300e-04 1.974438190699e-04 0.0 
2.018835427234e-03 6.755732428313e-04 0.0 
2.184981173800e-03 8.802025804981e-04 0.0 
2.196262778130e-03 9.341696190573e-04 0.0 
1.849702691296e-03 3.146658991799e-03 0.0 
3.726171752239e-04 1.055127499554e-04 0.0 
6.567481936287e-04 1.707567479690e-04 0.0 
5.965307417002e-04 1.384011984539e-04 0.0 
8.969467121280e-04 2.077608005624e-04 0.0 
3.048173752839e-04 7.259605816579e-05 0.0 
5.248373787192e-04 5.484701040482e-04 0.0 
5.210554900456e-04 4.852727446401e-04 0.0 
6.658329180006e-04 -2.196848024873e-04 0.0 
8.112747681850e-04 -1.304575492685e-04 0.0 
9.630175596358e-04 -1.110820162344e-04 0.0 
9.705152566361e-04 -2.578458499004e-05 0.0 
7.891538509975e-04 -3.569938448594e-05 0.0 
9.574676639568e-04 8.494596436410e-05 0.0 
1.142146429731e-03 9.438928042040e-05 0.0 
9.211306250159e-04 2.265395161603e-04 0.0 
1.878642079219e-03 2.038879732210e-03 0.0 
2.372949524880e-04 4.636993430862e-05 0.0 
9.448434311111e-04 -7.425658757258e-05 0.0 
1.057098320383e-03 -5.767214507093e-05 0.0 
1.062828599441e-03 -9.996286241230e-05 0.0 
4.466360471410e-04 -3.371545595173e-04 0.0 
5.272232981803e-04 -3.036174087108e-04 0.0 
5.406227658773e-04 -2.545372721984e-04 0.0 
3.700485592137e-04 -3.671153005951e-04 0.0 
2.538003114996e-03 1.777930037585e-03 0.0 
2.114318905793e-04 3.656558169338e-05 0.0 
1.500614326558e-03 1.919097467082e-04 0.0 
5.869609317432e-04 -3.143239386440e-04 0.0 
1.486969081203e-03 8.880327664682e-03 0.0 
1.589272147212e-03 7.959112606383e-03 0.0 
1.746925960930e-03 7.830400358126e-03 0.0 
1.660791346067e-03 6.905474332572e-03 0.0 
1.414878991211e-03 7.931422297197e-03 0.0 
3.333944569317e-04 -2.550206472032e-04 0.0 
2.673754401962e-04 -2.360888329381e-04 0.0 
2.076705313954e-04 -2.643822236688e-04 0.0 
2.020483114811e-04 -2.167648696885e-04 0.0 
1.453812651461e-04 -2.442817048503e-04 0.0 
1.494168582063e-04 -2.905292087101e-04 0.0 
1.368259923103e-04 -1.972841423130e-04 0.0 
8.448269858093e-05 -2.293012282911e-04 0.0 
1.199149300863e-03 9.000323875990e-03 0.0 
-3.227488751480e-04 -9.744111531483e-05 0.0 
-1.499826313027e-04 -1.846788765491e-04 0.0 
-1.043833960587e-04 -2.877273235931e-04 0.0 
-3.187963116569e-06 -2.550832929322e-04 0.0 
-2.331451416211e-05 -1.469781461893e-04 0.0 
1.505496574275e-04 -2.213469590700e-04 0.0 
1.121542870684e-04 -9.919958397054e-05 0.0 
-2.062523615543e-04 -4.802723808227e-05 0.0 
-1.831961740394e-04 -3.111482356610e-04 0.0 
-6.267936135144e-05 -3.658373058370e-04 0.0 
-1.286222195907e-04 -3.825810471505e-04 0.0 
-3.262449526316e-05 -4.234806940295e-04 0.0 
6.291960793239e-05 -4.089792985951e-04 0.0 
1.948978451871e-04 -4.983077136338e-04 0.0 
5.290779955054e-05 -6.959449822128e-08 0.0 
5.381413703772e-05 -3.566138159149e-04 0.0 
1.015419260458e-04 -3.784994018988e-04 0.0 
9.296256136661e-05 -4.170514281881e-04 0.0 
1.501870269478e-04 -3.975583362523e-04 0.0 
1.042970825963e-04 -3.390792490319e-04 0.0 
4.372343512570e-05 -4.355883760506e-04 0.0 
8.200636409120e-05 -4.483507042791e-04 0.0 
1.989715045855e-05 -5.553290431091e-04 0.0 
2.321103598525e-05 -5.518031127492e-04 0.0 
1.045359902163e-05 -5.525192474845e-04 0.0 
2.458308183760e-05 -5.456017349958e-04 0.0 
3.914463002280e-05 -5.456425080141e-04 0.0 
3.289911358937e-05 -5.513657081565e-04 0.0 
4.034309036816e-05 -5.507243255000e-04 0.0 
2.647978538173e-05 -5.513642957062e-04 0.0 
4.501271010694e-05 -5.485902582884e-04 0.0 
6.519752028694e-05 -5.452158574857e-04 0.0 
2.385624254761e-05 -5.465040529947e-04 0.0 
6.239843561766e-05 4.358013550457e-03 0.0 
1.186490795991e-04 3.867766202627e-03 0.0 
1.754038638449e-04 2.341509912591e-05 0.0 
9.318662690971e-04 8.960643383731e-03 0.0 
-4.587343088465e-05 -4.759937298246e-04 0.0 
9.668067997197e-05 9.708248154720e-04 0.0 
1.503498507619e-04 7.995149421517e-04 0.0 
1.198441516536e-04 7.764511918493e-04 0.0 
3.078452349731e-05 -2.736677406883e-05 0.0 
4.994383871210e-05 -1.649236549480e-05 0.0 
5.265670727496e-05 9.452660756949e-04 0.0 
3.453890788716e-04 -4.638172207046e-04 0.0 
9.737398039445e-04 1.636751542106e-03 0.0 
2.737796573065e-04 2.596036873848e-03 0.0 
3.089453786121e-04 9.343372123923e-04 0.0 
4.522874879360e-04 -4.182107586439e-04 0.0 
1.700856311161e-04 -1.271585168652e-04 0.0 
5.191848057261e-04 -1.572855749068e-04 0.0 
2.037486517635e-04 -4.368835386979e-05 0.0 
3.091403048156e-04 -1.607778182052e-04 0.0 
3.489265547464e-04 -6.246519790672e-05 0.0 
5.514139016095e-04 1.118780312107e-04 0.0 
7.074020055089e-05 -5.285164430899e-04 0.0 
7.550229764527e-04 6.216251855684e-03 0.0 
4.829348924699e-04 6.581456056653e-03 0.0 
4.553817843649e-04 4.121642262887e-03 0.0 
2.366939829552e-04 -4.672891070206e-04 0.0 
2.096996994624e-04 -3.091848303584e-04 0.0 
1.609311669174e-04 -5.225337496098e-04 0.0 
1.077440462651e-03 7.338839659096e-04 0.0 
2.943741618520e-03 6.085085089156e-03 0.0 
9.552034087596e-04 -1.642465193118e-04 0.0 
4.168790140588e-04 -3.820298949653e-04 0.0 
4.290862618723e-04 -4.351515402260e-04 0.0 
4.451210049926e-04 -3.948897750557e-04 0.0 
2.643634773832e-03 2.440972236720e-03 0.0 
6.787569703404e-04 -2.732006446169e-04 0.0 
6.621865663069e-04 -4.592328874323e-05 0.0 
3.473415748634e-04 3.579453877374e-03 0.0 
7.308303251300e-06 -5.263574385863e-04 0.0 
6.895065078699e-04 -8.681094844903e-06 0.0 
6.929558692330e-04 -1.752441666002e-04 0.0 
1.064863125528e-03 5.810896865054e-03 0.0 
1.547845961560e-03 4.288500599230e-04 0.0 
2.351615746841e-04 -3.052523597155e-04 0.0 
6.666962913443e-04 3.757757835801e-03 0.0 
6.796041964656e-04 2.013639530586e-03 0.0 
1.373310981533e-03 6.842192434640e-03 0.0 
1.115800611626e-04 -5.348882785582e-04 0.0 
7.889947962863e-04 7.244796105718e-03 0.0 
5.223870376142e-04 6.083884155670e-05 0.0 
1.329682683319e-03 3.850239015014e-03 0.0 
1.787551601324e-04 -4.844049252674e-04 0.0 
1.634368114642e-03 2.719568922166e-04 0.0 
3.029024332121e-03 3.878796437862e-03 0.0 
2.087102310993e-03 9.125109567025e-03 0.0 
2.842696928419e-04 2.191677649151e-03 0.0 
2.484431639763e-03 1.438272017506e-03 0.0 
1.151501558639e-03 2.469338685376e-04 0.0 
1.595752414420e-03 2.879711743680e-04 0.0 
1.532618788408e-04 -4.704291112256e-04 0.0 
4.682322906989e-04 -1.491160180109e-05 0.0 
2.029096295573e-03 7.408449030975e-04 0.0 
5.399757299415e-04 2.783236007728e-03 0.0 
2.505431132306e-03 2.323982095472e-03 0.0 
1.524897634529e-03 3.874257450744e-04 0.0 
8.899137858803e-04 3.359161477168e-03 0.0 
1.157631894857e-03 -6.921345222627e-05 0.0 
1.523436591212e-03 4.822785767283e-04 0.0 
2.999057114826e-03 5.915044467107e-03 0.0 
2.933069727638e-03 3.259019785275e-03 0.0 
2.554403909194e-03 3.872419390556e-03 0.0 
2.832583950707e-03 2.329376383854e-03 0.0 
1.154794686972e-04 -1.530937638388e-04 0.0 
5.742950376948e-04 -1.347599436649e-05 0.0 
2.778996676542e-04 1.299073068075e-04 0.0 
2.181758643489e-03 2.707869156706e-03 0.0 
1.318158068849e-03 5.825013260748e-03 0.0 
1.797570946327e-03 1.165996523926e-03 0.0 
3.823877077771e-04 1.816633764184e-03 0.0 
2.942168336793e-03 4.262189594000e-03 0.0 
4.573440834026e-04 -4.205777213804e-05 0.0 
7.037805879891e-04 2.428615413809e-03 0.0 
6.107941863983e-04 -2.661263497043e-04 0.0 
2.564160418199e-05 -5.173425926798e-04 0.0 
-2.554195379649e-05 1.010982731912e-03 0.0 
1.118170341552e-03 3.885968069163e-04 0.0 
2.326085212320e-03 1.205908150476e-03 0.0 
6.172638719025e-04 -2.166937910977e-04 0.0 
7.558750518655e-04 1.507520406129e-03 0.0 
3.672500327964e-04 -3.725143841274e-05 0.0 
9.776220932948e-04 6.503549142405e-05 0.0 
-7.337911259436e-04 1.701759337293e-03 0.0 
2.313254024533e-03 8.419217126845e-03 0.0 
2.861210785304e-04 -3.147450164329e-05 0.0 
1.516266386919e-03 1.738071549329e-04 0.0 
1.311496356577e-03 3.675466520024e-04 0.0 
9.059012157430e-05 -2.717282197298e-04 0.0 
1.071648839874e-03 6.546574285167e-04 0.0 
2.424739900567e-03 8.434609156554e-03 0.0 
2.142812589830e-04 -2.515468295670e-05 0.0 
1.159367146463e-03 1.521022911732e-04 0.0 
1.531895265001e-03 1.391101267462e-03 0.0 
2.582270646400e-04 9.051494765660e-03 0.0 
1.350428216315e-04 -3.655824053157e-06 0.0 
9.860386750636e-04 1.520187368740e-04 0.0 
2.721064202803e-03 2.060543124732e-03 0.0 
1.383383792697e-03 7.091063443631e-05 0.0 
2.160853106854e-03 9.547725122351e-03 0.0 
5.380075336277e-04 -2.054243812029e-04 0.0 
2.842507304042e-03 3.351993939072e-03 0.0 
2.818503222015e-04 7.047506156855e-04 0.0 
9.684822290704e-04 1.871404905114e-04 0.0 
1.988043757539e-03 5.119213078185e-03 0.0 
4.690176467147e-04 -2.406112457155e-04 0.0 
2.160013187108e-03 9.377870525610e-04 0.0 
5.230524170783e-05 -5.459492079638e-04 0.0 
2.428017779466e-03 8.679378310907e-03 0.0 
3.970447889071e-04 -2.245334712160e-04 0.0 
1.140637895086e-03 2.247202935360e-04 0.0 
1.276778550787e-03 1.126205395884e-05 0.0 
9.729938280382e-04 3.694555195232e-04 0.0 
3.261970854643e-04 -2.071219948559e-04 0.0 
1.327717552567e-03 2.311768554005e-04 0.0 
2.569984011587e-04 -1.890749675526e-04 0.0 
2.098983678777e-03 9.613269794223e-03 0.0 
2.057565153127e-03 4.541951444437e-03 0.0 
1.876121654145e-04 -1.708857062018e-04 0.0 
2.625602523622e-03 2.816113118552e-03 0.0 
7.694241245864e-05 -5.430117125388e-04 0.0 
2.556556261118e-03 1.656959220334e-03 0.0 
7.244052579670e-05 -4.006869802376e-05 0.0 
6.253214935413e-04 -3.582715976270e-04 0.0 
1.168136503078e-03 -3.052180240980e-05 0.0 
1.855502683606e-03 3.655256889211e-03 0.0 
1.828737677335e-03 9.201366763970e-03 0.0 
1.142815688274e-03 6.385822473447e-06 0.0 
2.337383460748e-03 2.292086658375e-03 0.0 
2.375203245118e-03 1.323193519567e-03 0.0 
2.339655826783e-03 1.130311118399e-03 0.0 
1.079455779874e-03 3.906576263914e-05 0.0 
2.179252971098e-03 7.505687312008e-03 0.0 
3.524432342018e-04 -4.646938880613e-04 0.0 
2.764371266783e-04 -4.849401695673e-04 0.0 
1.294129198516e-03 1.094463030371e-04 0.0 
2.125057785507e-03 2.195179766138e-03 0.0 
4.438207102551e-05 -5.365792709353e-04 0.0 
2.106622140408e-03 3.452845589879e-03 0.0 
1.695932409480e-04 -4.805279145873e-04 0.0 
1.123449417129e-03 -7.829806604601e-06 0.0 
1.912851970313e-03 8.760908123263e-04 0.0 
7.437927466975e-05 6.310159582665e-03 0.0 
1.088545805038e-03 -8.600238579704e-05 0.0 
3.055356336567e-05 -4.950500855883e-04 0.0 
9.400593743613e-04 -1.743248974612e-04 0.0 
2.283362519737e-03 1.040133336838e-03 0.0 
9.048103426405e-04 -2.193994869530e-04 0.0 
7.755497499271e-04 -2.860398349895e-04 0.0 
1.903452671224e-04 1.666826148397e-03 0.0 
7.390504704122e-04 -3.074845279287e-04 0.0 
2.634631321593e-05 7.820119468265e-04 0.0 
2.165867897256e-05 -1.028612064677e-06 0.0 
9.699982196009e-05 8.285907157365e-03 0.0 
1.151687100401e-03 8.042945166282e-03 0.0 
-6.059156545964e-04 4.694667797204e-04 0.0 
1.475114055724e-03 5.448595868748e-03 0.0 
5.452020105965e-04 -3.911816861652e-04 0.0 
2.319046340681e-03 3.167491426321e-03 0.0 
2.016694507279e-04 8.242314901427e-03 0.0 
4.443453182461e-04 -4.314524164793e-04 0.0 
9.815612869874e-04 1.157195102884e-03 0.0 
5.231644227269e-04 2.609324402512e-04 0.0 
1.338726612093e-04 4.795605590903e-03 0.0 
1.120514850994e-03 2.827496143913e-04 0.0 
2.172418324366e-03 1.043211669942e-03 0.0 
3.847983984290e-05 2.465876505808e-03 0.0 
5.996125248736e-04 9.144468783124e-03 0.0 
-6.527216184805e-06 -4.667967341981e-04 0.0 
5.548361672458e-05 -1.309870722782e-04 0.0 
2.175489048694e-04 5.392413297663e-03 0.0 
3.711650522673e-04 3.553954816087e-03 0.0 
-1.748666152196e-04 2.400339308765e-03 0.0 
1.196343310393e-04 -4.582576501768e-04 0.0 
2.002490509446e-05 -3.398098127749e-04 0.0 
-2.993962715815e-04 3.536588426847e-03 0.0 
7.318783046390e-04 2.104327835990e-04 0.0 
1.011415269625e-03 8.219724533746e-03 0.0 
1.860892125000e-03 9.296773236132e-04 0.0 
-5.967886529744e-04 2.431628674138e-03 0.0 
4.885513606227e-04 1.554197626476e-03 0.0 
9.878390187247e-04 4.444551325804e-04 0.0 
1.174769458554e-04 1.166940248557e-05 0.0 
1.470100950014e-03 6.942623271561e-04 0.0 
-4.497804813017e-04 1.660091310486e-03 0.0 
1.511002942359e-03 7.195051402823e-03 0.0 
1.073239299677e-03 8.123672238894e-04 0.0 
1.814388988928e-04 4.007945094849e-03 0.0 
8.317128894010e-05 6.177509928045e-06 0.0 
1.275007461122e-03 8.253991671335e-03 0.0 
1.147020547545e-04 1.555154743393e-03 0.0 
1.634565642538e-04 1.538045625984e-05 0.0 
5.832136682481e-05 1.510311766389e-03 0.0 
1.998444281154e-03 2.469031855729e-03 0.0 
4.137258317324e-04 7.038368192136e-03 0.0 
1.822485601612e-03 7.036667666927e-03 0.0 
6.018472906563e-05 -7.501568381160e-06 0.0 
8.699621532660e-04 1.298325913833e-03 0.0 
-5.342310927207e-04 1.348676893572e-03 0.0 
2.103051405556e-04 4.898021388515e-03 0.0 
2.030164039932e-04 -3.970527105179e-04 0.0 
-3.052497597335e-04 1.177157326463e-04 0.0 
3.026767259597e-04 2.948241636128e-05 0.0 
1.613793858561e-03 1.813506903958e-03 0.0 
1.017461633165e-04 -5.094429127969e-06 0.0 
1.069558029835e-05 -5.455757830258e-04 0.0 
2.570647481304e-05 -5.186274460885e-04 0.0 
3.543472998739e-04 4.988495248771e-05 0.0 
9.842539512572e-04 9.274150841972e-04 0.0 
2.857693077016e-04 -1.428064778997e-04 0.0 
1.620912067476e-04 6.179182317483e-04 0.0 
-6.652118750795e-04 1.145585809684e-03 0.0 
8.165768934714e-04 9.251022483685e-03 0.0 
4.357662286984e-05 -5.445371900995e-04 0.0 
6.501198648100e-05 3.612649712475e-06 0.0 
2.817099682414e-04 1.475914922727e-03 0.0 
1.452218053076e-04 -3.591837432605e-04 0.0 
1.787260370099e-03 8.558737217203e-03 0.0 
7.054249753579e-05 -4.777031127769e-04 0.0 
1.416411609514e-03 8.593802760287e-04 0.0 
4.901762526107e-05 -4.493919565784e-04 0.0 
1.902010088138e-04 1.399240195768e-03 0.0 
4.330383297095e-04 8.077106789258e-05 0.0 
5.975262675705e-04 1.298073736346e-03 0.0 
3.236990812508e-04 1.117561983535e-04 0.0 
-4.930205125081e-04 6.086303197451e-04 0.0 
8.909444907029e-04 4.357552509777e-04 0.0 
7.637611397815e-04 1.580406878843e-04 0.0 
4.502117840476e-04 9.180968823024e-03 0.0 
7.555692733702e-04 1.332924290797e-03 0.0 
1.274998451520e-04 -4.298543300985e-04 0.0 
9.208319502610e-05 -5.380018107341e-04 0.0 
1.110538201457e-05 6.927167624557e-04 0.0 
6.046176897646e-06 -5.564833695981e-04 0.0 
7.578058329857e-05 9.162772490615e-03 0.0 
8.397536350173e-06 -1.369261987623e-06 0.0 
5.748004313845e-05 -5.393668261238e-04 0.0 
1.598600199167e-04 7.551005104612e-03 0.0 
9.170323442206e-04 9.590900736099e-04 0.0 
4.001222456838e-05 -2.639038602927e-04 0.0 
8.893795855374e-05 3.098277246488e-03 0.0 
1.100763351592e-04 -3.055039221199e-04 0.0 
-5.360268907424e-04 2.381183587562e-04 0.0 
1.279557850086e-04 5.811354109703e-03 0.0 
8.479312742015e-04 3.465508915479e-04 0.0 
4.582258475367e-04 1.280730546691e-03 0.0 
3.314022779674e-04 6.489507251129e-03 0.0 
-2.737467867791e-04 1.120152311723e-03 0.0 
1.271778450802e-03 1.337053755415e-03 0.0 
1.571760153242e-04 -3.253538748764e-04 0.0 
1.427495117481e-03 1.071381588627e-03 0.0 
9.069542934381e-04 2.372104057862e-04 0.0 
-8.523586946294e-04 1.249685637335e-03 0.0 
3.528842975989e-05 -2.179534571201e-04 0.0 
3.763003422983e-05 -5.380116843217e-04 0.0 
1.934487342714e-04 1.078787269676e-05 0.0 
1.051188524663e-04 -3.045330458764e-04 0.0 
4.780572275002e-04 1.053418668914e-02 0.0 
7.397023591739e-05 1.446996439360e-02 0.0 
1.311630026087e-03 1.102991455828e-02 0.0 
5.778723917121e-05 1.344994191148e-02 0.0 
1.680551593400e-03 1.098685371983e-02 0.0 
5.317404564174e-05 1.243624897146e-02 0.0 
1.806070271009e-03 1.059389100189e-02 0.0 
5.189901478389e-05 1.142347856894e-02 0.0 
1.775950819925e-03 9.983443823760e-03 0.0 
5.110832653832e-05 1.041039409940e-02 0.0 

VECTORS node_materi_displacement float
0.0 7.855864616279e-02 0.0 
0.0 1.120383327071e-01 0.0 
0.0 0.0 0.0 
0.0 0.0 0.0 
0.0 7.845322814766e-02 0.0 
0.0 7.797177754999e-02 0.0 
0.0 7.711641786193e-02 0.0 
0.0 7.588493900088e-02 0.0 
0.0 7.426468135920e-02 0.0 
0.0 7.226291171445e-02 0.0 
0.0 6.987846236326e-02 0.0 
0.0 6.710452557510e-02 0.0 
0.0 6.393665754422e-02 0.0 
0.0 6.036495040730e-02 0.0 
0.0 5.637298181928e-02 0.0 
0.0 5.195044210225e-02 0.0 
0.0 4.709370376797e-02 0.0 
0.0 4.181546283564e-02 0.0 
0.0 3.606515146939e-02 0.0 
0.0 2.984151017872e-02 0.0 
0.0 2.313718071340e-02 0.0 
0.0 1.593108633638e-02 0.0 
0.0 8.209207691740e-03 0.0 
0.0 0.0 0.0 
0.0 0.0 0.0 
0.0 0.0 0.0 
0.0 0.0 0.0 
0.0 0.0 0.0 
0.0 0.0 0.0 
0.0 0.0 0.0 
0.0 0.0 0.0 
0.0 0.0 0.0 
0.0 0.0 0.0 
0.0 0.0 0.0 
0.0 0.0 0.0 
0.0 0.0 0.0 
0.0 0.0 0.0 
0.0 0.0 0.0 
0.0 0.0 0.0 
0.0 0.0 0.0 
0.0 0.0 0.0 
0.0 0.0 0.0 
0.0 0.0 0.0 
0.0 0.0 0.0 
0.0 0.0 0.0 
0.0 0.0 0.0 
0.0 0.0 0.0 
0.0 0.0 0.0 
0.0 0.0 0.0 
0.0 0.0 0.0 
0.0 0.0 0.0 
0.0 0.0 0.0 
0.0 0.0 0.0 
0.0 0.0 0.0 
0.0 0.0 0.0 
0.0 0.0 0.0 
0.0 0.0 0.0 
0.0 0.0 0.0 
0.0 0.0 0.0 
0.0 0.0 0.0 
0.0 0.0 0.0 
0.0 0.0 0.0 
0.0 0.0 0.0 
0.0 0.0 0.0 
0.0 0.0 0.0 
0.0 0.0 0.0 
0.0 0.0 0.0 
0.0 0.0 0.0 
0.0 0.0 0.0 
0.0 0.0 0.0 
0.0 0.0 0.0 
0.0 0.0 0.0 
0.0 1.026441491411e-01 0.0 
0.0 9.283129081021e-02 0.0 
0.0 8.259997958584e-02 0.0 
0.0 7.196728626418e-02 0.0 
0.0 6.092954034062e-02 0.0 
0.0 4.950148888158e-02 0.0 
0.0 3.768778276341e-02 0.0 
0.0 2.549471552278e-02 0.0 
0.0 1.293133088260e-02 0.0 
-9.475615426082e-03 1.012130748463e-01 0.0 
8.458030896768e-03 1.104942582733e-01 0.0 
-6.677724600051e-03 1.089615846155e-01 0.0 
-3.735131533211e-03 1.172595033147e-01 0.0 
-4.166992594499e-04 1.249954343336e-01 0.0 
3.014784405851e-03 1.311704564147e-01 0.0 
5.997874849304e-03 1.347647399172e-01 0.0 
8.264265482194e-03 1.340397069772e-01 0.0 
9.302842573879e-03 1.304542641436e-01 0.0 
9.516111054637e-03 1.250597269272e-01 0.0 
9.173679345497e-03 1.183073603231e-01 0.0 
0.0 1.526095740079e-01 0.0 
0.0 1.453213483760e-01 0.0 
0.0 1.376568045909e-01 0.0 
0.0 1.295325828381e-01 0.0 
0.0 1.210118306008e-01 0.0 
4.766857684316e-04 1.120438078224e-01 0.0 
9.447656839286e-04 1.120595195197e-01 0.0 
1.423731185388e-03 1.120812088818e-01 0.0 
1.910003164462e-03 1.121000708484e-01 0.0 
2.402450991631e-03 1.121282963898e-01 0.0 
2.905844040753e-03 1.121395999421e-01 0.0 
3.425287525941e-03 1.121489031373e-01 0.0 
3.953347989372e-03 1.121334304794e-01 0.0 
4.511314453130e-03 1.121053916679e-01 0.0 
5.093348826508e-03 1.120282327141e-01 0.0 
5.698372602413e-03 1.119005733997e-01 0.0 
6.334396842017e-03 1.117099519225e-01 0.0 
7.002191860701e-03 1.114284401866e-01 0.0 
7.707096770764e-03 1.110280844113e-01 0.0 
-8.636012174314e-03 9.697850634165e-02 0.0 
-7.577971870961e-03 9.348462532678e-02 0.0 
-6.493362630312e-03 9.059811413440e-02 0.0 
-5.468834367404e-03 8.823544664355e-02 0.0 
-4.553509455491e-03 8.631234850100e-02 0.0 
-3.731418526487e-03 8.472582934629e-02 0.0 
-3.004076119958e-03 8.342046534282e-02 0.0 
-2.378268277019e-03 8.235286631977e-02 0.0 
-1.844348020979e-03 8.148656897166e-02 0.0 
-1.395806451713e-03 8.079568490954e-02 0.0 
-1.036600630019e-03 8.023083589024e-02 0.0 
-7.324265458856e-04 7.980170182306e-02 0.0 
-4.811456552841e-04 7.944352364102e-02 0.0 
-3.101611431379e-04 7.915980845801e-02 0.0 
-1.952775298543e-04 7.895266534113e-02 0.0 
-1.090654416260e-04 7.879995691866e-02 0.0 
-4.797529599201e-05 7.868722236560e-02 0.0 
-8.314847482246e-06 7.861253907194e-02 0.0 
-6.602897601158e-06 7.856284563678e-02 0.0 
5.396321677453e-03 1.394019126358e-01 0.0 
5.420439441560e-03 1.426232183483e-01 0.0 
5.430184732774e-03 1.450825505185e-01 0.0 
5.478663290393e-03 1.469955542144e-01 0.0 
5.513918910559e-03 1.484808665020e-01 0.0 
5.514663941880e-03 1.496302820620e-01 0.0 
5.469430546858e-03 1.505134918843e-01 0.0 
5.374374528504e-03 1.511836457596e-01 0.0 
5.229418547703e-03 1.516850245907e-01 0.0 
5.037211472246e-03 1.520524388193e-01 0.0 
4.801550161845e-03 1.523143781108e-01 0.0 
4.526669525745e-03 1.524937814389e-01 0.0 
4.216857237116e-03 1.526096446442e-01 0.0 
3.876479096446e-03 1.526775918323e-01 0.0 
3.509834537735e-03 1.527104265786e-01 0.0 
3.121088470449e-03 1.527186683923e-01 0.0 
2.714272317188e-03 1.527109307001e-01 0.0 
2.293464842112e-03 1.526942539571e-01 0.0 
1.863074870808e-03 1.526741117770e-01 0.0 
1.428256004725e-03 1.526534529483e-01 0.0 
9.944553305981e-04 1.526278898678e-01 0.0 
5.232604445178e-04 1.525894201077e-01 0.0 
4.846040855524e-04 1.453636767404e-01 0.0 
9.629384204296e-04 1.453766364502e-01 0.0 
1.429331550616e-03 1.454021825615e-01 0.0 
1.887324366568e-03 1.454271491622e-01 0.0 
2.338061765431e-03 1.454516597547e-01 0.0 
2.780895775910e-03 1.454726245500e-01 0.0 
3.214321455260e-03 1.454844797253e-01 0.0 
3.636275829568e-03 1.454798813982e-01 0.0 
4.044600262326e-03 1.454492978796e-01 0.0 
4.437341749852e-03 1.453810376172e-01 0.0 
4.812865317838e-03 1.452607162625e-01 0.0 
5.169816426064e-03 1.450708499115e-01 0.0 
5.507358133353e-03 1.447901067575e-01 0.0 
5.825697979153e-03 1.443912061762e-01 0.0 
6.128302103032e-03 1.438416368109e-01 0.0 
6.419525452368e-03 1.430988918505e-01 0.0 
6.711297429023e-03 1.421151680019e-01 0.0 
7.013769566907e-03 1.408160083708e-01 0.0 
7.361514982512e-03 1.391386774518e-01 0.0 
7.742184920712e-03 1.369350646100e-01 0.0 
8.686205381854e-03 1.323404103310e-01 0.0 
8.149045725377e-03 1.338109197288e-01 0.0 
7.628055165374e-03 1.349237423943e-01 0.0 
7.149402245087e-03 1.357861386874e-01 0.0 
6.691835039202e-03 1.364282958220e-01 0.0 
6.250319450939e-03 1.369051714357e-01 0.0 
5.814844291317e-03 1.372461517963e-01 0.0 
5.382076024145e-03 1.374844123358e-01 0.0 
4.949228857492e-03 1.376431281039e-01 0.0 
4.514818951662e-03 1.377409904380e-01 0.0 
4.077747945539e-03 1.377932795617e-01 0.0 
3.637077076312e-03 1.378128437803e-01 0.0 
3.193144539852e-03 1.378104878951e-01 0.0 
2.746235549381e-03 1.377946036906e-01 0.0 
2.296317836160e-03 1.377709890258e-01 0.0 
1.842993057707e-03 1.377440687278e-01 0.0 
1.385782974880e-03 1.377160204151e-01 0.0 
9.245357445113e-04 1.376863318167e-01 0.0 
4.619307322100e-04 1.376404116798e-01 0.0 
4.727865925133e-04 1.295676069468e-01 0.0 
9.485240677011e-04 1.295729119769e-01 0.0 
1.424347012519e-03 1.296009335766e-01 0.0 
1.901038813814e-03 1.296298557768e-01 0.0 
2.378181663682e-03 1.296579231350e-01 0.0 
2.857594299780e-03 1.296812355498e-01 0.0 
3.339895039679e-03 1.296953164169e-01 0.0 
3.827500879214e-03 1.296936623352e-01 0.0 
4.319783409852e-03 1.296680608282e-01 0.0 
4.819567832974e-03 1.296038377391e-01 0.0 
5.329899187463e-03 1.294872375929e-01 0.0 
5.852838369805e-03 1.293018789058e-01 0.0 
6.392399554561e-03 1.290255601817e-01 0.0 
6.954142418229e-03 1.286329219200e-01 0.0 
7.539199386004e-03 1.280785163759e-01 0.0 
8.167517192293e-03 1.273413060183e-01 0.0 
8.812880391498e-03 1.263457520395e-01 0.0 
8.457490657762e-03 1.191320336215e-01 0.0 
7.789256144646e-03 1.197772922899e-01 0.0 
7.132661597801e-03 1.202318195748e-01 0.0 
6.515132673381e-03 1.205691538730e-01 0.0 
5.927521191128e-03 1.208054584803e-01 0.0 
5.363917544026e-03 1.209637372596e-01 0.0 
4.821689345403e-03 1.210650057109e-01 0.0 
4.298092240719e-03 1.211192596101e-01 0.0 
3.787643873279e-03 1.211373771821e-01 0.0 
3.291711544021e-03 1.211406359386e-01 0.0 
2.804419121182e-03 1.211265789631e-01 0.0 
2.326748456606e-03 1.211064828631e-01 0.0 
1.853346401779e-03 1.210794075044e-01 0.0 
1.386012091203e-03 1.210544651012e-01 0.0 
9.231741530756e-04 1.210272157538e-01 0.0 
4.590630495371e-04 1.209850587742e-01 0.0 
-8.035241278226e-03 1.049271776686e-01 0.0 
-5.241613481049e-03 1.131150535936e-01 0.0 
-2.086305648384e-03 1.212660561375e-01 0.0 
1.337557805221e-03 1.283450647223e-01 0.0 
4.692127738915e-03 1.334308909342e-01 0.0 
7.376252297189e-03 1.348373610353e-01 0.0 
8.940545327583e-03 1.325043352536e-01 0.0 
9.510512160796e-03 1.279478336635e-01 0.0 
9.416465892433e-03 1.218307753437e-01 0.0 
8.864158453612e-03 1.145180780107e-01 0.0 
-1.332000769421e-03 1.113467313245e-01 0.0 
2.274629025575e-03 7.974674007272e-03 0.0 
-9.458020669313e-04 8.088442410271e-02 0.0 
-3.331878887119e-03 8.692881931128e-02 0.0 
1.493566273231e-03 7.490321831860e-03 0.0 
5.462073699353e-03 1.242157676229e-01 0.0 
4.873595527216e-04 5.835296420658e-02 0.0 
2.790420958592e-03 8.605901817465e-03 0.0 
9.900833125447e-03 1.280475284805e-01 0.0 
2.886297859716e-03 9.101545731384e-03 0.0 
1.059666613663e-02 1.204000811778e-01 0.0 
8.399727705325e-04 6.710879057446e-03 0.0 
-1.064697357587e-04 7.912127903405e-02 0.0 
2.657039270845e-03 9.977122838863e-03 0.0 
9.228320268268e-03 1.061687024673e-01 0.0 
3.290891780382e-04 7.104564770462e-02 0.0 
5.144342107795e-04 4.559759851286e-02 0.0 
2.330031623514e-03 1.087271961218e-02 0.0 
1.560242947831e-03 1.075649151784e-02 0.0 
4.409126985354e-04 1.107152751004e-02 0.0 
8.112873229633e-04 1.198081177683e-02 0.0 
1.093014920596e-03 1.065741759966e-02 0.0 
7.457538517590e-03 1.029042138429e-01 0.0 
4.827000458281e-03 1.035764497210e-01 0.0 
3.153501740332e-03 1.034364620842e-01 0.0 
3.031355064857e-04 6.633240902156e-02 0.0 
5.035682732157e-04 7.199356447729e-03 0.0 
-5.379480407623e-03 9.495720749685e-02 0.0 
4.740621709145e-05 7.862410776560e-02 0.0 
3.585324056164e-04 2.707138278772e-02 0.0 
1.615842104791e-03 1.040205429760e-01 0.0 
1.713705417381e-04 7.657349095467e-02 0.0 
2.173136995834e-03 1.224190482906e-02 0.0 
2.668581239717e-03 8.156721805446e-03 0.0 
2.785901030328e-03 9.418623877197e-03 0.0 
2.727011687592e-03 8.770286063786e-03 0.0 
1.864626334100e-03 7.367296700067e-03 0.0 
-2.136751098242e-03 8.371031901662e-02 0.0 
6.073518230715e-03 1.038870873031e-01 0.0 
1.353927566443e-03 8.416719144980e-03 0.0 
2.222612772032e-04 4.415055609312e-02 0.0 
-4.351571436383e-04 7.979929119347e-02 0.0 
4.347082090781e-04 6.557650742146e-02 0.0 
2.163617442845e-04 9.012970517251e-03 0.0 
8.285611786550e-03 1.272577448128e-01 0.0 
2.076422983752e-03 1.184246953615e-01 0.0 
1.059462845755e-02 1.253257078478e-01 0.0 
1.009013722506e-02 1.139010828634e-01 0.0 
-4.808413222577e-03 1.042046707425e-01 0.0 
3.696762192989e-04 8.654756622257e-02 0.0 
2.322888476711e-04 5.679547070189e-03 0.0 
2.049553222711e-05 7.850744794880e-02 0.0 
1.195595978609e-04 2.020845035607e-02 0.0 
8.814612326841e-03 1.017804810821e-01 0.0 
9.424699670655e-03 9.734170953159e-02 0.0 
8.647708056449e-03 9.347472174698e-02 0.0 
9.362185037333e-03 8.820673569335e-02 0.0 
8.588544488481e-03 8.332219601653e-02 0.0 
9.115157334477e-03 7.847304221625e-02 0.0 
9.976847283138e-03 8.325828921218e-02 0.0 
9.584567963495e-03 7.350732245171e-02 0.0 
1.052025386532e-02 7.827405954193e-02 0.0 
8.231219391591e-03 7.332053327336e-02 0.0 
9.964291237260e-03 6.844071845195e-02 0.0 
1.096806265979e-02 7.317554610233e-02 0.0 
1.023641099992e-02 6.331537021469e-02 0.0 
1.129352923102e-02 6.798756404291e-02 0.0 
1.192506269267e-02 7.759263115888e-02 0.0 
1.229734501378e-02 7.236544028343e-02 0.0 
1.281373436775e-02 8.163196758712e-02 0.0 
1.322152379057e-02 7.633877391206e-02 0.0 
1.251855728396e-02 6.712326566828e-02 0.0 
1.346330514818e-02 7.105065968003e-02 0.0 
1.404412329982e-02 7.989061543576e-02 0.0 
1.428892628212e-02 7.454690682068e-02 0.0 
1.473824657466e-02 8.297485134066e-02 0.0 
1.496829045366e-02 7.755788113800e-02 0.0 
1.528092933121e-02 8.558086318295e-02 0.0 
1.547908264561e-02 8.010549039814e-02 0.0 
1.500086201959e-02 7.223734524714e-02 0.0 
1.547583616458e-02 7.478695786218e-02 0.0 
1.579165472866e-02 8.217071403070e-02 0.0 
1.574531239944e-02 7.688437194934e-02 0.0 
1.588282150289e-02 8.376560436219e-02 0.0 
1.579166471080e-02 7.854268642891e-02 0.0 
1.551324015597e-02 7.180120778813e-02 0.0 
1.552332625545e-02 7.357332032045e-02 0.0 
1.560422434301e-02 7.980558450609e-02 0.0 
1.530791381407e-02 7.498642674173e-02 0.0 
1.518128975110e-02 8.071183733291e-02 0.0 
1.487150958880e-02 7.607501284692e-02 0.0 
1.453348056654e-02 8.129674930376e-02 0.0 
1.422256167757e-02 7.688467029964e-02 0.0 
1.442815721451e-02 7.167943223211e-02 0.0 
1.378925149180e-02 7.271007043897e-02 0.0 
1.337997469077e-02 7.747184306022e-02 0.0 
1.297481633978e-02 7.355221421373e-02 0.0 
1.324909803389e-02 6.879611833429e-02 0.0 
1.247024466011e-02 6.989730519783e-02 0.0 
1.261849984218e-02 6.511500631655e-02 0.0 
1.188275768065e-02 6.646643479305e-02 0.0 
1.156629165373e-02 7.083095813380e-02 0.0 
1.103180617924e-02 6.765145188934e-02 0.0 
1.122871459136e-02 6.321938743059e-02 0.0 
1.043137157505e-02 6.467229650570e-02 0.0 
1.008692392756e-02 6.874557497302e-02 0.0 
9.557104037314e-03 6.598613432495e-02 0.0 
9.785044830146e-03 6.182016927863e-02 0.0 
8.973468776735e-03 6.337453022165e-02 0.0 
8.629157249666e-03 6.721988232426e-02 0.0 
8.116898162426e-03 6.482118949952e-02 0.0 
8.356976823428e-03 6.082190370867e-02 0.0 
7.562226957728e-03 6.251189529413e-02 0.0 
7.233502874423e-03 6.620162032818e-02 0.0 
6.749196488962e-03 6.408478095439e-02 0.0 
6.979795835137e-03 6.022643357243e-02 0.0 
6.227027572208e-03 6.201921387394e-02 0.0 
6.370323207712e-03 5.798038839503e-02 0.0 
5.920279552581e-03 6.561877313064e-02 0.0 
5.466392575137e-03 6.372460702170e-02 0.0 
5.102661445929e-03 6.710301800087e-02 0.0 
4.715415799764e-03 6.535353343628e-02 0.0 
1.511355661660e-02 6.693177070253e-02 0.0 
4.325995562557e-03 6.849405300991e-02 0.0 
4.618888263062e-03 7.003963266801e-02 0.0 
3.992193026651e-03 6.690265705388e-02 0.0 
4.286969777777e-03 6.359698425014e-02 0.0 
3.592885453479e-03 6.981073231582e-02 0.0 
3.307479314130e-03 6.836788697918e-02 0.0 
2.915837427859e-03 7.105292886990e-02 0.0 
1.467054960039e-02 8.620922070249e-02 0.0 
1.257073626318e-02 6.189005161541e-02 0.0 
2.672184700172e-03 6.975094286264e-02 0.0 
2.305419521816e-03 7.221757616560e-02 0.0 
2.452545895241e-03 7.335977807703e-02 0.0 
1.883924097510e-03 7.430801205706e-02 0.0 
7.769640487345e-03 7.829025757204e-02 0.0 
7.323783129285e-03 6.792606878431e-02 0.0 
6.939205430027e-03 7.299672497255e-02 0.0 
6.406095828450e-03 6.235660400261e-02 0.0 
6.096187578091e-03 6.743181071411e-02 0.0 
1.765313000747e-03 7.330088396092e-02 0.0 
9.139584386318e-03 5.808430501139e-02 0.0 
6.649254562795e-03 5.712903841130e-02 0.0 
1.431195345105e-02 8.845329366145e-02 0.0 
1.577685373557e-02 8.922927383929e-02 0.0 
1.320618747553e-02 6.358614600826e-02 0.0 
2.973627053802e-03 6.690114436336e-02 0.0 
2.375132776913e-03 6.842029703207e-02 0.0 
2.598116370725e-03 6.540131019882e-02 0.0 
7.032757941048e-03 5.591312268374e-02 0.0 
6.344973831281e-03 5.350522806195e-02 0.0 
6.898630155420e-03 5.114478608608e-02 0.0 
6.147547901630e-03 4.858124669050e-02 0.0 
6.574782066816e-03 4.591881900687e-02 0.0 
5.777219000043e-03 4.319783207793e-02 0.0 
5.404234454521e-03 4.602225488686e-02 0.0 
5.001058061844e-03 4.046913178082e-02 0.0 
4.676789052669e-03 4.344997745840e-02 0.0 
6.061482121214e-03 4.022843098166e-02 0.0 
6.913268479768e-03 4.310979932018e-02 0.0 
4.254476851187e-03 3.772256566103e-02 0.0 
3.972878472013e-03 4.084751354370e-02 0.0 
3.544928932394e-03 3.493964545161e-02 0.0 
3.300126937316e-03 3.820486426329e-02 0.0 
3.617755243600e-03 4.383777044337e-02 0.0 
2.979599685528e-03 4.133333464956e-02 0.0 
3.205308195920e-03 4.669579504061e-02 0.0 
1.246281793044e-02 5.987577691811e-02 0.0 
1.285229082206e-02 5.791121559542e-02 0.0 
1.200680268614e-02 5.417337184462e-02 0.0 
1.218769998179e-02 5.177119966124e-02 0.0 
1.125148933498e-02 4.800183285529e-02 0.0 
1.121447829487e-02 4.516866408795e-02 0.0 
1.019610954937e-02 4.135788584946e-02 0.0 
1.026949663963e-02 4.437372657005e-02 0.0 
1.039097832716e-02 5.809241072077e-02 0.0 
1.237307466454e-02 7.786193361001e-02 0.0 
1.262207831566e-02 8.179208994759e-02 0.0 
1.143233651889e-02 8.173738494425e-02 0.0 
1.149977968329e-02 8.566361865989e-02 0.0 
1.014124051283e-02 8.517061993598e-02 0.0 
9.995354989795e-03 8.910923666086e-02 0.0 
8.483401254067e-03 8.819522552286e-02 0.0 
8.713108220367e-03 8.459930578222e-02 0.0 
6.937602943561e-03 8.724652790990e-02 0.0 
7.257264498518e-03 8.401076074844e-02 0.0 
5.413099914551e-03 8.630754089250e-02 0.0 
5.817144273838e-03 8.345252796599e-02 0.0 
1.484213550633e-02 6.705728466418e-02 0.0 
1.217824435091e-02 4.911438047716e-02 0.0 
1.097889981164e-02 4.206683941085e-02 0.0 
1.196344059428e-02 4.617203626129e-02 0.0 
1.932504709831e-03 7.529354325928e-02 0.0 
2.664653131161e-03 3.550981799310e-02 0.0 
6.236934711798e-03 3.709665502173e-02 0.0 
7.144885840026e-03 4.019066405669e-02 0.0 
9.143967905415e-03 3.766586191613e-02 0.0 
1.397216846839e-03 7.517716702126e-02 0.0 
8.093846114989e-03 9.215202458378e-02 0.0 
9.668217924760e-03 9.344439053852e-02 0.0 
5.500602770697e-03 5.651434606796e-02 0.0 
5.265601563139e-03 6.164553691511e-02 0.0 
6.283020405472e-03 3.379640632101e-02 0.0 
1.298622025045e-03 7.429680238236e-02 0.0 
4.444580610703e-03 3.445280227909e-02 0.0 
4.828043350365e-03 8.950485521411e-02 0.0 
2.371640838474e-03 3.877615599604e-02 0.0 
2.072279819122e-03 3.275886902815e-02 0.0 
4.962193962035e-03 4.869981502890e-02 0.0 
1.053341709203e-02 3.866973068668e-02 0.0 
1.156029170213e-02 4.303908440823e-02 0.0 
7.441601603145e-03 8.106778164680e-02 0.0 
6.083424096597e-03 8.086625865374e-02 0.0 
4.441826474261e-03 8.294341868384e-02 0.0 
4.835991175016e-03 8.058808283322e-02 0.0 
6.235343130512e-03 7.845995602975e-02 0.0 
5.034611814637e-03 7.856913083468e-02 0.0 
3.652090204976e-03 8.044614839683e-02 0.0 
3.925594847603e-03 7.869422413117e-02 0.0 
5.137736650623e-03 7.664845722948e-02 0.0 
4.101592865271e-03 7.702242161715e-02 0.0 
2.927002998185e-03 7.884803850430e-02 0.0 
3.168922258594e-03 7.739407184945e-02 0.0 
2.264406553519e-03 2.920969857417e-02 0.0 
3.276730579340e-03 8.822521796836e-02 0.0 
1.225921899680e-02 8.686334944325e-02 0.0 
5.358240417653e-03 3.060017913765e-02 0.0 
8.860720644544e-03 3.433841329090e-02 0.0 
4.621837327462e-03 5.046615515761e-02 0.0 
4.458495444342e-03 5.566063221843e-02 0.0 
4.976468763231e-03 6.674120794396e-02 0.0 
4.235063651130e-03 6.079150112936e-02 0.0 
3.686642656552e-03 4.948397304682e-02 0.0 
3.526883703508e-03 5.468580757516e-02 0.0 
3.964523913691e-03 6.585957522060e-02 0.0 
3.314263143656e-03 5.981453828156e-02 0.0 
3.657058037740e-03 7.084123376028e-02 0.0 
3.059268922267e-03 6.485924858369e-02 0.0 
2.702676673797e-03 5.361587936518e-02 0.0 
2.496290477816e-03 5.874289749998e-02 0.0 
2.770763684987e-03 6.982519831161e-02 0.0 
2.249991625789e-03 6.378937729177e-02 0.0 
2.454630276678e-03 7.470080496542e-02 0.0 
1.970261776921e-03 6.874950105863e-02 0.0 
1.768736863927e-03 5.762556565437e-02 0.0 
1.009474096602e-03 7.590173600870e-02 0.0 
9.261024801282e-03 4.086686676982e-02 0.0 
8.075530622165e-03 3.406591939021e-02 0.0 
2.045645796086e-03 6.704708148462e-02 0.0 
2.210182646574e-03 6.385493497146e-02 0.0 
2.755934708764e-03 6.197994427106e-02 0.0 
2.279281410112e-03 6.027063485951e-02 0.0 
1.518577693716e-03 6.272557096871e-02 0.0 
1.329870980391e-03 5.134801579148e-02 0.0 
7.520418090255e-03 9.651905538721e-02 0.0 
9.133813853037e-03 9.821545642983e-02 0.0 
4.710308429379e-03 4.520725571933e-02 0.0 
1.799035379577e-03 3.615876432228e-02 0.0 
2.016666968369e-03 4.190470322678e-02 0.0 
1.567823264309e-02 9.028143917533e-02 0.0 
1.540943830866e-02 9.592790790326e-02 0.0 
1.510439387919e-02 9.644004968432e-02 0.0 
1.463175974536e-02 1.024055002597e-01 0.0 
1.490851502252e-02 1.018250846243e-01 0.0 
1.407992353224e-02 1.023596949448e-01 0.0 
7.786446458641e-03 4.610606614723e-02 0.0 
2.138549030956e-03 4.728197421666e-02 0.0 
2.530800929824e-03 7.448823740286e-02 0.0 
1.899964777975e-03 7.626925074363e-02 0.0 
1.530582147069e-03 2.994100617167e-02 0.0 
1.016515979165e-02 4.717170396436e-02 0.0 
1.420585763361e-02 6.402606407681e-02 0.0 
1.388914590912e-02 5.893813247966e-02 0.0 
1.308781143037e-02 5.543163781625e-02 0.0 
1.260997651468e-02 5.043004619503e-02 0.0 
1.163852421028e-02 4.645567248007e-02 0.0 
1.098998312521e-02 4.152805541724e-02 0.0 
1.196816101733e-02 4.556786102544e-02 0.0 
9.865298419476e-03 3.491675567929e-02 0.0 
1.018322504882e-02 3.670833093826e-02 0.0 
1.690847754466e-03 7.371980720436e-02 0.0 
1.307530364078e-02 5.328484742690e-02 0.0 
5.142480973226e-03 7.483253067659e-02 0.0 
1.033542098323e-03 7.662507863764e-02 0.0 
2.030046944936e-03 7.904828738068e-02 0.0 
9.092122153241e-04 7.518973693595e-02 0.0 
1.137828896132e-03 7.337563841554e-02 0.0 
5.206322224280e-03 2.694575084107e-02 0.0 
9.842057828325e-03 3.709529595561e-02 0.0 
1.051148987113e-02 4.209071437501e-02 0.0 
1.391301679449e-02 1.086137003723e-01 0.0 
1.416109594824e-02 1.078759472784e-01 0.0 
8.763756643441e-03 3.070205893341e-02 0.0 
6.503955985986e-03 7.807011774865e-02 0.0 
4.280523398399e-03 7.668081268550e-02 0.0 
3.895378623217e-03 8.149584426945e-02 0.0 
6.685996514328e-04 7.673697470023e-02 0.0 
1.678867708735e-03 8.029604637110e-02 0.0 
2.963409732387e-03 4.314989804377e-02 0.0 
1.111969184807e-02 9.467418732803e-02 0.0 
1.063259181593e-02 9.977654499022e-02 0.0 
2.404430608992e-03 9.137768947265e-02 0.0 
8.693812243367e-04 8.977582911270e-02 0.0 
1.120845917762e-03 5.641366271993e-02 0.0 
9.522777280101e-04 4.493912213328e-02 0.0 
2.829929495257e-03 5.815671925095e-02 0.0 
2.308278622366e-03 5.626734650663e-02 0.0 
6.178890544742e-03 3.028547865442e-02 0.0 
2.353633581766e-03 7.774984371843e-02 0.0 
1.091332910587e-03 3.961398699234e-02 0.0 
9.202387156390e-03 4.383520575015e-02 0.0 
9.899992802718e-03 4.976411414530e-02 0.0 
1.743917062751e-03 6.228622502637e-02 0.0 
6.694979006461e-03 1.013602587600e-01 0.0 
4.973382326201e-03 9.920579191513e-02 0.0 
6.185849503833e-03 7.421095585798e-02 0.0 
3.300907813929e-03 7.600657103902e-02 0.0 
7.599427674516e-04 7.438867703424e-02 0.0 
4.883223350768e-03 2.308023609185e-02 0.0 
2.995212477427e-03 3.781447812330e-02 0.0 
1.117554875392e-02 4.084995842437e-02 0.0 
1.276126290390e-02 4.925250260301e-02 0.0 
9.240177472795e-03 3.203353449980e-02 0.0 
1.350757019270e-03 7.913766674320e-02 0.0 
4.278831579575e-03 2.360204018518e-02 0.0 
1.271997521762e-03 3.347484420283e-02 0.0 
8.629763567602e-03 3.273705824939e-02 0.0 
9.244588820893e-03 3.734887193950e-02 0.0 
1.240934942927e-02 9.574398820717e-02 0.0 
1.200370965620e-02 1.010852804103e-01 0.0 
9.922072059313e-03 1.053402977130e-01 0.0 
1.132525357715e-02 1.068960173464e-01 0.0 
1.079976019928e-02 8.780289351790e-02 0.0 
1.352659570242e-02 9.650883541313e-02 0.0 
1.302571474422e-02 9.058040417095e-02 0.0 
1.230656050790e-02 9.579716546430e-02 0.0 
1.293194891531e-02 9.920674473616e-02 0.0 
1.490711531108e-02 1.007404901335e-01 0.0 
1.412357767914e-02 1.065928799597e-01 0.0 
1.273063588434e-02 8.607026402110e-02 0.0 
1.362542631247e-02 6.184380618916e-02 0.0 
3.339426367667e-03 5.999738197888e-02 0.0 
3.830575577074e-03 4.899552698203e-02 0.0 
7.648972388092e-03 5.372776025132e-02 0.0 
2.248329276810e-03 4.200183629139e-02 0.0 
1.695853323501e-03 3.544777150745e-02 0.0 
2.967499335224e-03 8.052327053953e-02 0.0 
2.596106746171e-03 8.522122079915e-02 0.0 
1.376007927954e-03 7.686038027871e-02 0.0 
1.243050407728e-03 7.768779704315e-02 0.0 
5.743571226068e-03 5.574925427874e-02 0.0 
4.476179058551e-03 2.740880378913e-02 0.0 
3.798720895845e-03 3.891556670253e-02 0.0 
3.720207250871e-03 3.352905617371e-02 0.0 
4.706754740731e-03 3.987389523026e-02 0.0 
5.901898693086e-03 2.654983266823e-02 0.0 
1.124435700135e-02 7.811730358455e-02 0.0 
1.165498148957e-02 5.636018625198e-02 0.0 
1.841621701146e-03 8.709005644245e-02 0.0 
1.491450498291e-02 6.468816207929e-02 0.0 
8.147335518514e-04 7.806127938396e-02 0.0 
1.151479241288e-02 5.764017975584e-02 0.0 
1.048551469823e-03 2.705343125191e-02 0.0 
1.213518434369e-03 2.323832136804e-02 0.0 
7.859047673265e-03 2.653923726273e-02 0.0 
1.003710716150e-02 1.016393575693e-01 0.0 
1.438510624276e-02 5.989812135402e-02 0.0 
1.456880634276e-02 6.230189283675e-02 0.0 
1.206768480510e-02 1.043595209908e-01 0.0 
1.253493121843e-02 1.074846529642e-01 0.0 
1.345269262823e-02 1.021628179671e-01 0.0 
1.288188819769e-02 1.102058390128e-01 0.0 
6.024143806734e-03 7.228366451045e-02 0.0 
5.053444095466e-03 7.312622686653e-02 0.0 
7.601511687331e-03 2.704750797626e-02 0.0 
8.110032187897e-03 2.774399486969e-02 0.0 
7.266758299442e-03 2.784543319807e-02 0.0 
7.865066620026e-03 3.219299495555e-02 0.0 
6.655192882765e-03 2.229468764342e-02 0.0 
7.599774152583e-03 2.658428208918e-02 0.0 
9.184594530575e-04 7.240429667324e-02 0.0 
1.318709898250e-02 1.138449829303e-01 0.0 
2.272236103436e-03 3.124247952197e-02 0.0 
1.150821575844e-02 1.008907939419e-01 0.0 
3.438984763380e-03 2.043969762598e-02 0.0 
3.652483861643e-03 2.421534706149e-02 0.0 
-4.873498699992e-04 8.838055978313e-02 0.0 
5.800412269356e-04 8.585252755402e-02 0.0 
7.475681208737e-04 3.325905741598e-02 0.0 
8.959917178263e-03 1.112746532861e-01 0.0 
1.034501694548e-02 1.130679036633e-01 0.0 
7.375872823907e-03 1.090644738202e-01 0.0 
1.586993517919e-04 1.218371731294e-02 0.0 
6.971899052702e-04 1.041133035293e-01 0.0 
7.881245087854e-04 2.014994361052e-02 0.0 
1.466747027565e-02 9.900683060079e-02 0.0 
7.979356616528e-04 2.729441834004e-02 0.0 
1.372477023628e-02 5.534146999283e-02 0.0 
1.531160137277e-02 9.098189838264e-02 0.0 
7.185719166854e-03 3.364915451511e-02 0.0 
6.086497031070e-04 3.965299136365e-02 0.0 
4.478715178772e-04 2.626947238924e-02 0.0 
4.471905653956e-03 8.695226610716e-02 0.0 
4.041834874603e-03 9.176335552900e-02 0.0 
4.920049951725e-03 8.235473606629e-02 0.0 
4.092471365684e-03 9.307726508801e-02 0.0 
1.058060478595e-03 9.548410066980e-02 0.0 
1.629066371840e-03 4.081789706834e-02 0.0 
1.836987533233e-03 6.984951901678e-02 0.0 
1.514808643202e-03 6.829830614787e-02 0.0 
2.498012920028e-03 7.662896326624e-02 0.0 
3.312757497802e-03 7.472792551670e-02 0.0 
3.388061017993e-03 5.595688397543e-02 0.0 
3.937176492468e-03 5.792659281405e-02 0.0 
1.136198951456e-02 5.239825837664e-02 0.0 
1.019380994004e-02 4.785002110774e-02 0.0 
1.339532957158e-02 6.059185729817e-02 0.0 
8.986962980675e-03 4.659541144176e-02 0.0 
9.495739870492e-03 5.216923726975e-02 0.0 
1.034114350261e-02 5.520051099648e-02 0.0 
1.718705985791e-03 3.040592921841e-02 0.0 
1.143167729314e-03 2.262831140353e-02 0.0 
7.035832835334e-03 7.146558430037e-02 0.0 
7.276000243066e-03 7.360990096283e-02 0.0 
5.773997323151e-03 7.051936641266e-02 0.0 
2.171727315627e-03 2.598952769259e-02 0.0 
8.725035562854e-04 1.625651930609e-02 0.0 
1.294096254093e-03 1.954444753567e-02 0.0 
6.007993532981e-04 7.871831606364e-02 0.0 
1.026819912884e-03 7.850562529619e-02 0.0 
3.875322952069e-03 1.040507408818e-01 0.0 
2.034079268911e-03 1.015352149012e-01 0.0 
3.583437069129e-03 2.855407293071e-02 0.0 
4.604756787580e-03 3.457549217318e-02 0.0 
2.533842290268e-03 2.152733341804e-02 0.0 
5.459116980255e-04 7.364094054493e-02 0.0 
1.194977562075e-02 4.450111312259e-02 0.0 
4.485294962483e-03 1.938986630985e-02 0.0 
5.558944516596e-03 2.302765575509e-02 0.0 
3.284542412576e-03 1.488660373364e-02 0.0 
9.056044455897e-03 3.114284415003e-02 0.0 
6.850452189696e-03 2.248150001134e-02 0.0 
6.912073349017e-03 2.278877026940e-02 0.0 
-1.706847142564e-03 9.089132982354e-02 0.0 
3.395444769292e-04 3.132117080079e-02 0.0 
3.088442385168e-03 9.083851220075e-02 0.0 
-2.586994297818e-03 8.947071964506e-02 0.0 
2.671531134172e-03 9.570020449211e-02 0.0 
2.229459859417e-03 8.989567460067e-02 0.0 
2.312037734408e-03 1.004209330029e-01 0.0 
4.491112625249e-04 7.530743863196e-02 0.0 
5.097122852063e-03 9.407809482745e-02 0.0 
5.611354824045e-03 8.827489215956e-02 0.0 
1.428462761237e-04 7.954785531871e-02 0.0 
1.468200824581e-03 1.934439455823e-02 0.0 
3.098979190470e-04 7.885411751302e-02 0.0 
5.171400707477e-04 7.833398127272e-02 0.0 
2.641608480747e-03 1.698974736521e-02 0.0 
2.889856438601e-03 2.096439189065e-02 0.0 
1.921996009734e-03 1.365620073399e-02 0.0 
2.246982869212e-03 1.806867146521e-02 0.0 
3.018018400113e-03 2.491695503974e-02 0.0 
2.351811400121e-03 2.177532804515e-02 0.0 
3.627464516647e-03 9.716861621548e-02 0.0 
1.543393588181e-03 1.369519100389e-02 0.0 
1.744624619266e-03 1.842619506056e-02 0.0 
1.016937761861e-03 1.053932058628e-02 0.0 
1.179261419058e-02 1.154127003919e-01 0.0 
1.237908943285e-02 1.082069670594e-01 0.0 
1.140353947515e-02 1.146089583410e-01 0.0 
8.956456189589e-03 1.199787736065e-01 0.0 
5.315216329936e-03 2.039680670289e-02 0.0 
6.524967483681e-03 2.725351495911e-02 0.0 
7.936561566668e-04 3.058325240937e-02 0.0 
9.073799061327e-04 3.673277638382e-02 0.0 
1.842812759393e-03 9.522701935194e-02 0.0 
1.344168476621e-03 9.563416024498e-02 0.0 
1.464770721841e-03 8.641872980102e-02 0.0 
1.056681161260e-03 8.755210215242e-02 0.0 
1.129040362778e-03 7.821766230898e-02 0.0 
7.265320932864e-04 7.942098596520e-02 0.0 
8.597467443407e-04 6.979288267257e-02 0.0 
5.555920608317e-03 1.811681484039e-02 0.0 
5.913037753020e-03 1.149688732783e-01 0.0 
1.112824339012e-02 1.093967081161e-01 0.0 
5.395887041530e-03 1.811945807598e-02 0.0 
6.575004419345e-03 2.324439016166e-02 0.0 
1.314032388532e-02 1.123354466877e-01 0.0 
1.197854017760e-02 1.198541469741e-01 0.0 
2.842304215957e-03 1.521461438352e-02 0.0 
1.372945950063e-02 9.130643265525e-02 0.0 
1.100178388312e-03 1.239906940494e-02 0.0 
-5.989043430053e-03 9.842853212331e-02 0.0 
-2.529034477766e-03 9.629336140600e-02 0.0 
1.461694979977e-02 9.150141922231e-02 0.0 
1.386020753555e-02 1.046541127412e-01 0.0 
1.328529637832e-02 1.088144032092e-01 0.0 
1.244586580057e-02 1.149896282748e-01 0.0 
8.228481683242e-03 4.047970901931e-02 0.0 
6.818954526123e-04 7.937711115308e-02 0.0 
5.667029833139e-03 1.065995706046e-01 0.0 
1.248904777488e-03 6.870566825694e-02 0.0 
2.417977936970e-03 1.091624842890e-01 0.0 
4.161755373460e-04 3.341835689814e-02 0.0 
1.379318805806e-02 8.629035487120e-02 0.0 
1.526654401579e-02 9.332191649653e-02 0.0 
8.375953437641e-03 1.034053870497e-01 0.0 
1.322609431049e-02 1.018975245396e-01 0.0 
1.142215015670e-02 8.276790989879e-02 0.0 
1.011980311306e-02 9.267855749854e-02 0.0 
1.081492806893e-02 9.702131414328e-02 0.0 
1.366543616034e-02 8.170188992250e-02 0.0 
1.298461942527e-02 1.147361376586e-01 0.0 
1.121680029385e-02 1.217477474826e-01 0.0 
1.362191846444e-02 8.527923766349e-02 0.0 
5.740964966534e-03 4.600444718940e-02 0.0 
5.705176232942e-03 4.065325941069e-02 0.0 
4.416098390535e-03 2.956628555456e-02 0.0 
5.552707278351e-03 3.537504739432e-02 0.0 
6.845204204418e-03 4.657755942874e-02 0.0 
6.764190664424e-03 4.127482994059e-02 0.0 
5.268814981689e-03 3.023142459883e-02 0.0 
6.548311449621e-03 3.599839632566e-02 0.0 
4.434430638894e-03 2.272641057186e-02 0.0 
6.123689526717e-03 3.050434418287e-02 0.0 
7.854194834542e-03 4.181592016634e-02 0.0 
7.569343786975e-03 3.678045307143e-02 0.0 
5.823110410506e-03 2.668361637527e-02 0.0 
9.184554742146e-03 4.789717726343e-02 0.0 
4.258217134511e-03 1.369817394027e-02 0.0 
1.532751367680e-02 8.576246768339e-02 0.0 
-3.376744611892e-04 9.290749614990e-02 0.0 
-1.069487855974e-03 9.897177362994e-02 0.0 
1.486794433949e-02 9.113006527666e-02 0.0 
2.168289173170e-03 1.105913461828e-02 0.0 
1.765243179868e-03 1.102447101352e-02 0.0 
1.139641428186e-02 8.998411303459e-02 0.0 
2.729520851257e-03 9.669542486074e-03 0.0 
1.157495964605e-02 9.200156722602e-02 0.0 
6.446941224769e-03 9.085108177318e-02 0.0 
2.881532828035e-03 9.374063060619e-03 0.0 
6.802131313475e-03 5.185289670471e-02 0.0 
7.874177052663e-03 5.767158438844e-02 0.0 
7.640629042394e-03 6.284118314700e-02 0.0 
1.351422964058e-03 1.036685537139e-02 0.0 
5.354122591742e-03 7.755878961142e-02 0.0 
2.646226821790e-03 8.101026232665e-03 0.0 
1.306043726384e-02 5.571117595054e-02 0.0 
1.385823780587e-02 5.994170625789e-02 0.0 
1.430470585241e-02 6.605377076299e-02 0.0 
8.002039984999e-03 4.723292065996e-02 0.0 
2.389805286948e-03 7.988577703846e-03 0.0 
4.290515298463e-03 1.516904336299e-02 0.0 
4.015083665963e-03 1.493528630939e-02 0.0 
5.977735987327e-03 2.244999483057e-02 0.0 
2.084006075511e-03 7.710133289800e-03 0.0 
2.262746120737e-03 9.726318114560e-03 0.0 
2.283667422494e-03 9.118874048753e-03 0.0 
6.257599340302e-03 7.627305982014e-02 0.0 
7.438431181122e-03 7.588878705057e-02 0.0 
8.392473496130e-03 7.298887233245e-02 0.0 
8.636742196980e-03 7.553030030754e-02 0.0 
7.496973039631e-03 7.837661703348e-02 0.0 
8.776845858036e-03 7.829655714219e-02 0.0 
9.815346095775e-03 7.517936958839e-02 0.0 
8.801289883962e-03 8.132385435926e-02 0.0 
8.484469971762e-03 3.751580362569e-02 0.0 
1.716468856359e-03 7.240230292962e-03 0.0 
7.385175085257e-03 4.866380179819e-02 0.0 
8.197628735523e-03 5.149518735352e-02 0.0 
8.384993653754e-03 5.639081212081e-02 0.0 
3.826964976124e-03 6.180603486253e-02 0.0 
4.469383061220e-03 5.987937499736e-02 0.0 
4.531852895503e-03 5.574898030122e-02 0.0 
3.199120527407e-03 6.365383454344e-02 0.0 
1.340226638193e-02 5.401158990254e-02 0.0 
1.565588866236e-03 7.224280675860e-03 0.0 
1.079636234086e-02 5.299397913143e-02 0.0 
4.980907300721e-03 6.181579089528e-02 0.0 
6.757400878835e-03 1.034362135740e-01 0.0 
7.107964578340e-03 9.494492916055e-02 0.0 
7.812644773873e-03 9.439737179334e-02 0.0 
7.319828669702e-03 8.481663617444e-02 0.0 
6.320905784869e-03 9.407559112122e-02 0.0 
2.831522476699e-03 5.393493045285e-02 0.0 
2.274281912107e-03 5.186632846663e-02 0.0 
1.777489727604e-03 5.433002861993e-02 0.0 
1.721616961663e-03 4.974240248431e-02 0.0 
1.244310043474e-03 5.232086099174e-02 0.0 
1.285196351059e-03 5.657962003556e-02 0.0 
1.167629178819e-03 4.755502785668e-02 0.0 
7.199452943216e-04 5.079155999427e-02 0.0 
5.433176300023e-03 1.038188208309e-01 0.0 
-2.662406275083e-03 8.517487095061e-02 0.0 
-9.278774691053e-04 8.391142925653e-02 0.0 
-6.971764253959e-04 8.263960702045e-02 0.0 
4.575068582629e-04 8.255962591113e-02 0.0 
4.952818333657e-04 8.385363992112e-02 0.0 
2.036535143874e-03 8.205208247684e-02 0.0 
1.937602232333e-03 8.371084757826e-02 0.0 
-1.209091474365e-03 8.555566982665e-02 0.0 
-1.675198461248e-03 8.256500477210e-02 0.0 
-4.541587644441e-04 8.162568305790e-02 0.0 
-1.277043583697e-03 8.163002483829e-02 0.0 
-2.921772841985e-04 8.083527485748e-02 0.0 
7.576836198393e-04 8.039837383755e-02 0.0 
1.809474534930e-03 7.719783169068e-02 0.0 
4.482877846996e-04 8.176750240636e-03 0.0 
4.689634265954e-04 6.219798240057e-02 0.0 
8.915091947244e-04 6.395951313855e-02 0.0 
8.131463482676e-04 6.701847431450e-02 0.0 
1.313665819852e-03 6.544939504297e-02 0.0 
8.967427187225e-04 6.073114083887e-02 0.0 
3.855507944660e-04 6.851411283940e-02 0.0 
7.287261263085e-04 6.947844576599e-02 0.0 
4.471413170714e-05 7.854209245083e-02 0.0 
1.213037371585e-04 7.818890649992e-02 0.0 
4.362629433252e-05 7.820309958142e-02 0.0 
1.744492427692e-04 7.754991624569e-02 0.0 
2.783171704085e-04 7.761749358570e-02 0.0 
1.822907028889e-04 7.824135274990e-02 0.0 
2.260684224400e-04 7.834033714745e-02 0.0 
2.550350090842e-05 7.874928384194e-02 0.0 
2.539000529964e-04 7.847587300780e-02 0.0 
4.913636378290e-04 7.775640499633e-02 0.0 
-2.145373544317e-05 7.891268644529e-02 0.0 
2.720986977004e-04 5.519412715427e-02 0.0 
5.183214745674e-04 4.950805402319e-02 0.0 
1.354888390365e-03 7.557165886884e-03 0.0 
4.200323356056e-03 1.031678705822e-01 0.0 
-6.476634604107e-04 8.028309370551e-02 0.0 
4.136471555077e-04 1.329761359220e-02 0.0 
6.306988973507e-04 1.104581732640e-02 0.0 
5.131025632986e-04 1.069829670076e-02 0.0 
2.616983178104e-04 1.986005413677e-02 0.0 
4.252524413490e-04 1.632265883721e-02 0.0 
2.198567061568e-04 1.292372682073e-02 0.0 
3.096434488842e-03 7.233620203316e-02 0.0 
4.101912362214e-03 2.464467808455e-02 0.0 
1.179394684946e-03 3.420595665154e-02 0.0 
5.826894412128e-03 9.478366775707e-02 0.0 
4.145969076219e-03 7.394404227230e-02 0.0 
1.437923103914e-03 3.936850040901e-02 0.0 
4.280859792896e-03 4.627652133780e-02 0.0 
1.708268563055e-03 2.631711055618e-02 0.0 
2.599169211311e-03 4.432681884001e-02 0.0 
2.879234882914e-03 3.210095382217e-02 0.0 
3.834678155104e-03 1.520420315457e-02 0.0 
6.057572874349e-04 7.594327577950e-02 0.0 
3.322392713487e-03 7.572758490883e-02 0.0 
2.137236905582e-03 7.952832911396e-02 0.0 
1.976168234444e-03 5.249500507337e-02 0.0 
2.097299899444e-03 7.105131918344e-02 0.0 
1.803322783550e-03 5.830047789686e-02 0.0 
1.430556842775e-03 7.601678725581e-02 0.0 
5.172793862457e-03 1.789486032515e-02 0.0 
1.368609770448e-02 9.389917431828e-02 0.0 
7.705726448954e-03 5.835060859665e-02 0.0 
3.614249279999e-03 6.529052812104e-02 0.0 
3.825904724294e-03 7.121390448256e-02 0.0 
4.175101465910e-03 7.543393746880e-02 0.0 
1.573375445447e-02 8.494186030271e-02 0.0 
5.680716733867e-03 5.994621293457e-02 0.0 
5.235836671364e-03 3.734897470936e-02 0.0 
1.505065008132e-03 4.612205267832e-02 0.0 
-1.831081850419e-04 7.937579768147e-02 0.0 
5.361533917841e-03 3.406338045224e-02 0.0 
5.652812034820e-03 5.110706725838e-02 0.0 
4.646194921323e-03 7.177011912388e-02 0.0 
9.933735617120e-03 3.811307537740e-02 0.0 
2.622314552551e-03 8.028922934897e-02 0.0 
2.862668548512e-03 4.843236541604e-02 0.0 
2.849000077877e-03 2.771950101138e-02 0.0 
6.057600523497e-03 8.313300660796e-02 0.0 
9.486882769118e-04 7.738141261531e-02 0.0 
3.507509064334e-03 8.636325341908e-02 0.0 
3.911953917390e-03 1.958242926475e-02 0.0 
5.664330970835e-03 5.127898404279e-02 0.0 
1.584418960837e-03 7.226139556307e-02 0.0 
1.191530071914e-02 6.163829334581e-02 0.0 
1.563728174692e-02 8.765408661964e-02 0.0 
9.719388792463e-03 1.101565332188e-01 0.0 
1.220105420740e-03 2.917600721635e-02 0.0 
1.510111872403e-02 6.886374750387e-02 0.0 
7.734200417357e-03 3.046042424509e-02 0.0 
1.110570971396e-02 5.060135110353e-02 0.0 
1.353666919188e-03 7.113531517643e-02 0.0 
3.739743133420e-03 2.795981307700e-02 0.0 
1.386635315591e-02 6.750915909744e-02 0.0 
2.301567970994e-03 3.672394128872e-02 0.0 
1.212272935970e-02 5.151783763565e-02 0.0 
1.201751039351e-02 7.422862697588e-02 0.0 
3.781982845476e-03 4.423299056574e-02 0.0 
9.098322813817e-03 5.908077265222e-02 0.0 
9.456954860112e-03 3.456026487443e-02 0.0 
1.424750344946e-02 9.668705807742e-02 0.0 
1.434163871379e-02 6.924301968617e-02 0.0 
1.149300787998e-02 6.286788634643e-02 0.0 
1.528217360671e-02 6.963683295533e-02 0.0 
9.802934595806e-04 4.246871133317e-02 0.0 
4.525678985948e-03 3.102474836282e-02 0.0 
3.967483873508e-03 8.548000223193e-02 0.0 
1.448753557323e-02 9.664266851438e-02 0.0 
5.737146329207e-03 7.249610091057e-02 0.0 
9.084976625495e-03 3.252798905600e-02 0.0 
1.624806835716e-03 2.456112542505e-02 0.0 
1.545731430199e-02 9.489500953361e-02 0.0 
3.698524233308e-03 3.154398077178e-02 0.0 
2.965176688904e-03 3.279192380471e-02 0.0 
5.113625537252e-03 5.786443969239e-02 0.0 
2.172336413148e-04 7.507929331433e-02 0.0 
3.242235009130e-03 9.705822028876e-02 0.0 
1.014518852215e-02 8.156735112668e-02 0.0 
1.487020377221e-02 7.042537784768e-02 0.0 
5.108681672541e-03 5.349784135570e-02 0.0 
3.157991831127e-03 2.197633235499e-02 0.0 
3.002161323797e-03 2.859079296034e-02 0.0 
7.237679284896e-03 3.703091360059e-02 0.0 
-3.010380964509e-03 1.076763874607e-01 0.0 
1.064643965993e-02 1.056056812652e-01 0.0 
2.362798223191e-03 2.557876605301e-02 0.0 
1.115319203059e-02 5.834635414946e-02 0.0 
8.349418713161e-03 3.065061321514e-02 0.0 
7.801452140081e-04 5.484849865011e-02 0.0 
5.308057905034e-03 1.774908430115e-02 0.0 
1.202441518956e-02 1.177047595166e-01 0.0 
1.785856350828e-03 2.250133051689e-02 0.0 
8.237547609876e-03 3.736651463506e-02 0.0 
1.266154379759e-02 9.071106563793e-02 0.0 
1.157023114708e-03 1.041168422894e-01 0.0 
1.131222243577e-03 1.411582662102e-02 0.0 
6.949343166807e-03 3.005453464323e-02 0.0 
1.450301977817e-02 6.203100416736e-02 0.0 
1.051758371030e-02 6.015351494258e-02 0.0 
1.041840677791e-02 1.173492839295e-01 0.0 
4.468335089293e-03 5.123771586985e-02 0.0 
1.352758782187e-02 6.582387096398e-02 0.0 
1.171856695102e-03 1.013740258848e-02 0.0 
6.648755316312e-03 2.681672153840e-02 0.0 
8.629852055719e-03 6.851488087992e-02 0.0 
3.939724744424e-03 5.366289323033e-02 0.0 
1.291675632383e-02 5.077758549594e-02 0.0 
3.857502883696e-04 7.768151788937e-02 0.0 
1.150742927710e-02 1.125308186241e-01 0.0 
3.343553734209e-03 5.152401340682e-02 0.0 
1.003152446816e-02 7.824903950290e-02 0.0 
9.766102378674e-03 5.721780205932e-02 0.0 
5.642665472998e-03 1.823819272560e-02 0.0 
2.754532685224e-03 4.933431054432e-02 0.0 
1.095356936687e-02 7.474383816927e-02 0.0 
2.176642494539e-03 4.709306477533e-02 0.0 
1.070356403366e-02 1.230716441906e-01 0.0 
8.929908331710e-03 6.318629924384e-02 0.0 
1.593518933572e-03 4.478902110659e-02 0.0 
1.244193256020e-02 5.669707903801e-02 0.0 
6.000479206362e-04 7.785233033369e-02 0.0 
1.400177415081e-02 5.720069699411e-02 0.0 
6.167734189178e-04 2.363252759602e-02 0.0 
5.457413214995e-03 6.880829343619e-02 0.0 
8.995315936024e-03 5.438570682670e-02 0.0 
7.996825710047e-03 5.243849018567e-02 0.0 
1.032626846267e-02 1.271494346515e-01 0.0 
8.654560918096e-03 4.915255521839e-02 0.0 
1.102762534218e-02 4.724597003041e-02 0.0 
1.335013161356e-02 5.252271469446e-02 0.0 
1.454137491497e-02 6.432985926487e-02 0.0 
8.068564427157e-03 4.336220659045e-02 0.0 
1.182157199247e-02 1.207519960862e-01 0.0 
3.198188516553e-03 7.360955547707e-02 0.0 
2.546616507944e-03 7.555410007421e-02 0.0 
1.056323041638e-02 7.163510717914e-02 0.0 
9.797489554671e-03 4.252825639621e-02 0.0 
3.522497751647e-04 7.673901313605e-02 0.0 
9.219183494262e-03 5.284172018744e-02 0.0 
1.619277654808e-03 7.816531034626e-02 0.0 
9.497935935070e-03 7.234512663989e-02 0.0 
1.089263827605e-02 3.929432792006e-02 0.0 
3.283444451956e-04 7.674605901400e-02 0.0 
9.098538626133e-03 6.969573129577e-02 0.0 
2.673443932647e-04 7.324330028091e-02 0.0 
8.071013973471e-03 7.061802582521e-02 0.0 
1.388616769229e-02 5.774942700294e-02 0.0 
7.685341755870e-03 6.833933362008e-02 0.0 
6.722982154530e-03 6.944227134932e-02 0.0 
8.113152352623e-04 2.244952429971e-02 0.0 
6.349031339620e-03 6.749389127293e-02 0.0 
1.054388859872e-04 1.072002964160e-02 0.0 
1.870932097843e-04 7.434992238450e-03 0.0 
4.357160817772e-04 9.683164783722e-02 0.0 
8.768509369727e-03 1.295424446681e-01 0.0 
-4.666549700761e-03 9.173244141242e-02 0.0 
1.064111437056e-02 1.198599406359e-01 0.0 
4.871090578612e-03 7.156341745530e-02 0.0 
1.039477297633e-02 5.304203118815e-02 0.0 
9.055359459431e-04 9.637992459578e-02 0.0 
4.008844564442e-03 7.258063900755e-02 0.0 
4.237545043380e-03 1.965503334545e-02 0.0 
2.708778353549e-03 8.371551505863e-03 0.0 
5.900823015782e-04 6.020367821775e-02 0.0 
7.308863596326e-03 2.719613988938e-02 0.0 
1.251207609377e-02 4.768029138114e-02 0.0 
1.670892038742e-04 3.251748065162e-02 0.0 
2.693196296646e-03 1.048520076553e-01 0.0 
-1.356588654594e-04 8.019197150771e-02 0.0 
4.725347624182e-04 3.947020174073e-02 0.0 
6.302346284948e-03 1.272581557606e-01 0.0 
7.412519138629e-03 1.175948168866e-01 0.0 
4.083022174261e-03 1.122101264771e-01 0.0 
1.058080045972e-03 7.020263741748e-02 0.0 
4.906670566476e-04 8.147488370018e-02 0.0 
3.867275442880e-03 1.214364595039e-01 0.0 
4.640124205704e-03 1.589105471669e-02 0.0 
4.536546620707e-03 9.613942468704e-02 0.0 
1.025623615926e-02 3.628958998843e-02 0.0 
4.053185188796e-04 1.149017870634e-01 0.0 
2.039016031136e-03 2.151541433354e-02 0.0 
5.400965221525e-03 1.719087178352e-02 0.0 
9.506112879228e-04 6.601464715655e-03 0.0 
8.068010567343e-03 2.709223138281e-02 0.0 
5.165962388298e-04 1.060695536578e-01 0.0 
6.691708425189e-03 8.711409582858e-02 0.0 
5.014837125524e-03 1.809186112943e-02 0.0 
7.960844702389e-04 5.115452629019e-02 0.0 
6.814544062192e-04 6.302634031019e-03 0.0 
5.722129721326e-03 9.685165592128e-02 0.0 
4.942351257531e-04 2.096679232857e-02 0.0 
2.692000392030e-03 8.477695918682e-02 0.0 
2.463938001006e-04 2.035074070564e-02 0.0 
8.916967918435e-03 4.260198204125e-02 0.0 
1.841791334986e-03 8.426440290252e-02 0.0 
8.050929265998e-03 8.694282720977e-02 0.0 
5.148644246020e-04 1.285941400973e-02 0.0 
3.671284426694e-03 2.024055986524e-02 0.0 
-1.284459099157e-03 1.025602017662e-01 0.0 
9.256854712097e-04 6.132498728832e-02 0.0 
1.772094321357e-03 6.546180856023e-02 0.0 
-1.906417280939e-03 8.754629858808e-02 0.0 
2.360767688824e-03 1.380901960594e-02 0.0 
7.168081251009e-03 3.221213754856e-02 0.0 
8.614809696052e-04 1.314335962846e-02 0.0 
7.190567186227e-05 7.759551312093e-02 0.0 
5.348496111852e-05 7.931991772771e-02 0.0 
2.650862787803e-03 1.295136178428e-02 0.0 
4.379568243723e-03 1.764129764305e-02 0.0 
3.433487287039e-03 8.205334564064e-02 0.0 
6.761420558904e-04 8.653709555449e-03 0.0 
-3.701863856112e-03 1.001402719340e-01 0.0 
3.681971301360e-03 1.058322206957e-01 0.0 
2.317042057429e-04 7.868182216489e-02 0.0 
5.446556933626e-04 6.356835784818e-03 0.0 
1.199449194799e-03 2.007420146217e-02 0.0 
1.256750337363e-03 6.239150525303e-02 0.0 
8.109952041167e-03 1.017679207931e-01 0.0 
6.247509719244e-04 7.178005250213e-02 0.0 
7.156927831847e-03 2.447715251330e-02 0.0 
5.013095315060e-04 7.998820828322e-02 0.0 
8.115098937073e-04 1.896424551451e-02 0.0 
3.085433001386e-03 1.287529759471e-02 0.0 
2.486098688338e-03 1.872659871366e-02 0.0 
1.933878579524e-03 6.055117192689e-03 0.0 
-2.922522827790e-03 9.331238637521e-02 0.0 
4.715102170156e-03 1.498437854794e-02 0.0 
5.230223547502e-03 2.044609810000e-02 0.0 
2.022466096942e-03 1.052467697503e-01 0.0 
3.166344507906e-03 1.993726729282e-02 0.0 
1.125912673934e-03 6.802009228127e-02 0.0 
7.726576242342e-04 7.698454732381e-02 0.0 
4.627560055030e-05 9.499908184538e-03 0.0 
2.191351628092e-06 7.848837122458e-02 0.0 
3.386979833428e-04 1.052015470344e-01 0.0 
7.491897167017e-05 6.063707902657e-03 0.0 
4.543878102040e-04 7.699352727657e-02 0.0 
7.162884558945e-04 8.954145261287e-02 0.0 
4.007384418849e-03 1.719748962517e-02 0.0 
3.372833614868e-04 5.410562501736e-02 0.0 
3.934580500145e-04 4.030360823337e-02 0.0 
1.452358162949e-03 8.128734352029e-02 0.0 
-4.329389929192e-03 8.904340267765e-02 0.0 
5.684014776994e-04 7.140676472399e-02 0.0 
4.787434844670e-03 1.516727743767e-02 0.0 
1.908352657641e-03 1.798937350118e-02 0.0 
1.471892332513e-03 7.858744165437e-02 0.0 
1.054297974968e-03 9.907969445376e-02 0.0 
5.627464441476e-03 2.424275068000e-02 0.0 
1.352351170892e-03 5.958203727583e-02 0.0 
6.797964710187e-03 2.482545413147e-02 0.0 
5.873204753755e-03 2.116285192975e-02 0.0 
-6.252291388317e-03 1.017075699059e-01 0.0 
3.058160636105e-04 4.958487898638e-02 0.0 
1.685906216101e-04 7.890016384653e-02 0.0 
1.567678528295e-03 1.215467325142e-02 0.0 
8.981917876014e-04 5.778342437784e-02 0.0 
6.741963978269e-03 1.376211625144e-01 0.0 
2.581342477238e-04 1.490187655684e-01 0.0 
8.427331683240e-03 1.344871256487e-01 0.0 
2.252050728871e-04 1.415486912761e-01 0.0 
9.013436766877e-03 1.295451158800e-01 0.0 
2.381563811240e-04 1.336538923073e-01 0.0 
8.934925672490e-03 1.231128624370e-01 0.0 
2.205507332725e-04 1.253288559406e-01 0.0 
8.406482096568e-03 1.156852467123e-01 0.0 
2.353713832066e-04 1.165750745748e-01 0.0 

TENSORS node_materi_stress float
-3.825714624399e+00 2.411714101409e-02 0.0 
2.411714101409e-02 -8.537015853522e+00 0.0 
0.0 0.0 -3.627072418457e+00 
-4.907321647198e+01 4.357835796282e-01 0.0 
4.357835796282e-01 -9.846046954502e+01 0.0 
0.0 0.0 -4.386010580510e+01 
-1.623784683016e+02 -5.350853868864e-02 0.0 
-5.350853868864e-02 -3.819576232420e+02 0.0 
0.0 0.0 -1.629008274631e+02 
-1.233247937202e+02 6.109690109833e-01 0.0 
6.109690109833e-01 -2.877180462681e+02 0.0 
0.0 0.0 -1.229128519965e+02 
-8.295866102154e+00 -2.819967765450e-01 0.0 
-2.819967765450e-01 -2.076576260902e+01 0.0 
0.0 0.0 -8.530657463405e+00 
-1.537741214229e+01 -6.393536694327e-01 0.0 
-6.393536694327e-01 -4.036968779780e+01 0.0 
0.0 0.0 -1.632412998203e+01 
-2.208206756102e+01 -5.079457389777e-01 0.0 
-5.079457389777e-01 -5.861585709219e+01 0.0 
0.0 0.0 -2.380937739596e+01 
-2.989109226029e+01 -4.729014039622e-01 0.0 
-4.729014039622e-01 -7.949155553454e+01 0.0 
0.0 0.0 -3.241479433845e+01 
-3.720253401873e+01 -3.518042558074e-01 0.0 
-3.518042558074e-01 -9.952795690034e+01 0.0 
0.0 0.0 -4.061914727572e+01 
-4.470959883240e+01 -3.294312240100e-01 0.0 
-3.294312240100e-01 -1.192792023521e+02 0.0 
0.0 0.0 -4.879664035535e+01 
-5.217351638337e+01 -3.525168958165e-01 0.0 
-3.525168958165e-01 -1.390099827459e+02 0.0 
0.0 0.0 -5.695504973877e+01 
-5.966393092127e+01 -3.020457315534e-01 0.0 
-3.020457315534e-01 -1.586962204911e+02 0.0 
0.0 0.0 -6.510804542370e+01 
-6.733962922468e+01 -2.799646772469e-01 0.0 
-2.799646772469e-01 -1.783437548871e+02 0.0 
0.0 0.0 -7.330501523353e+01 
-7.515007885612e+01 -3.282063726625e-01 0.0 
-3.282063726625e-01 -1.981309568354e+02 0.0 
0.0 0.0 -8.158431070747e+01 
-8.330509041909e+01 -4.698673518122e-01 0.0 
-4.698673518122e-01 -2.183464732947e+02 0.0 
0.0 0.0 -9.009546911413e+01 
-9.178150576200e+01 -4.797319856229e-01 0.0 
-4.797319856229e-01 -2.378504992506e+02 0.0 
0.0 0.0 -9.848960150379e+01 
-9.974862767142e+01 -5.990013960019e-01 0.0 
-5.990013960019e-01 -2.555764122122e+02 0.0 
0.0 0.0 -1.061975119651e+02 
-1.084375958910e+02 -1.458845542697e-01 0.0 
-1.458845542697e-01 -2.749870230175e+02 0.0 
0.0 0.0 -1.146273856726e+02 
-1.177185771436e+02 -1.031250617413e-01 0.0 
-1.031250617413e-01 -2.948184268008e+02 0.0 
0.0 0.0 -1.233611011833e+02 
-1.269935058576e+02 -8.128901588211e-02 0.0 
-8.128901588211e-02 -3.139809042044e+02 0.0 
0.0 0.0 -1.318923230186e+02 
-1.365500971507e+02 -3.678804464227e-02 0.0 
-3.678804464227e-02 -3.332086026296e+02 0.0 
0.0 0.0 -1.405276099341e+02 
-1.464409996711e+02 -5.499549646725e-02 0.0 
-5.499549646725e-02 -3.525121799092e+02 0.0 
0.0 0.0 -1.492859538741e+02 
-1.561057930833e+02 -1.225061552297e-01 0.0 
-1.225061552297e-01 -3.708594051744e+02 0.0 
0.0 0.0 -1.576895594773e+02 
-1.237329792308e+02 6.020262515483e-01 0.0 
6.020262515483e-01 -2.888638621540e+02 0.0 
0.0 0.0 -1.233790524155e+02 
-1.231856823672e+02 1.064540453038e+00 0.0 
1.064540453038e+00 -2.878495821203e+02 0.0 
0.0 0.0 -1.229105793462e+02 
-1.233413224908e+02 1.821963783746e+00 0.0 
1.821963783746e+00 -2.881669313659e+02 0.0 
0.0 0.0 -1.230524761570e+02 
-1.233250468204e+02 1.984358362695e+00 0.0 
1.984358362695e+00 -2.882516999843e+02 0.0 
0.0 0.0 -1.230730240414e+02 
-1.232164969159e+02 2.679367919436e+00 0.0 
2.679367919436e+00 -2.877589710335e+02 0.0 
0.0 0.0 -1.228926403848e+02 
-1.235955738156e+02 3.268547164866e+00 0.0 
3.268547164866e+00 -2.885807743131e+02 0.0 
0.0 0.0 -1.232529044386e+02 
-1.240387221769e+02 3.938676111837e+00 0.0 
3.938676111837e+00 -2.891313788111e+02 0.0 
0.0 0.0 -1.235510302964e+02 
-1.238995294763e+02 4.733526930801e+00 0.0 
4.733526930801e+00 -2.891659737701e+02 0.0 
0.0 0.0 -1.235196509739e+02 
-1.245319337825e+02 5.623144483297e+00 0.0 
5.623144483297e+00 -2.903997594010e+02 0.0 
0.0 0.0 -1.240795079550e+02 
-1.246805077529e+02 6.158525811848e+00 0.0 
6.158525811848e+00 -2.909328798899e+02 0.0 
0.0 0.0 -1.242840162928e+02 
-1.248992496362e+02 7.146491465440e+00 0.0 
7.146491465440e+00 -2.910251227900e+02 0.0 
0.0 0.0 -1.243773117279e+02 
-1.254933727575e+02 8.113347047672e+00 0.0 
8.113347047672e+00 -2.925000058050e+02 0.0 
0.0 0.0 -1.249980135687e+02 
-1.264425514032e+02 9.129390955072e+00 0.0 
9.129390955072e+00 -2.941513858716e+02 0.0 
0.0 0.0 -1.257781811824e+02 
-1.266444152817e+02 1.018772630877e+01 0.0 
1.018772630877e+01 -2.950631501665e+02 0.0 
0.0 0.0 -1.261122696344e+02 
-1.274521017049e+02 1.130371176965e+01 0.0 
1.130371176965e+01 -2.963921974260e+02 0.0 
0.0 0.0 -1.267532897393e+02 
-1.277600885838e+02 1.230155886708e+01 0.0 
1.230155886708e+01 -2.975181625826e+02 0.0 
0.0 0.0 -1.271834753499e+02 
-1.287090108971e+02 1.348825652275e+01 0.0 
1.348825652275e+01 -2.995715767235e+02 0.0 
0.0 0.0 -1.280841762862e+02 
-1.303695384840e+02 1.467253611372e+01 0.0 
1.467253611372e+01 -3.029928870156e+02 0.0 
0.0 0.0 -1.296087276499e+02 
-1.315918439304e+02 1.581266447002e+01 0.0 
1.581266447002e+01 -3.062952171207e+02 0.0 
0.0 0.0 -1.309661183153e+02 
-1.329660027111e+02 1.687622678633e+01 0.0 
1.687622678633e+01 -3.098568357361e+02 0.0 
0.0 0.0 -1.324468515342e+02 
-1.342755370121e+02 1.770295123632e+01 0.0 
1.770295123632e+01 -3.132798174337e+02 0.0 
0.0 0.0 -1.338666063337e+02 
-1.359255561755e+02 1.859332394163e+01 0.0 
1.859332394163e+01 -3.169590646616e+02 0.0 
0.0 0.0 -1.354653862511e+02 
-1.373991040311e+02 1.922352380945e+01 0.0 
1.922352380945e+01 -3.209565817198e+02 0.0 
0.0 0.0 -1.371067057253e+02 
-1.390477007539e+02 1.970657937380e+01 0.0 
1.970657937380e+01 -3.251273345581e+02 0.0 
0.0 0.0 -1.388525105936e+02 
-1.408709853108e+02 1.998422695456e+01 0.0 
1.998422695456e+01 -3.296963844413e+02 0.0 
0.0 0.0 -1.407702109256e+02 
-1.427991541385e+02 2.012276640486e+01 0.0 
2.012276640486e+01 -3.343372374804e+02 0.0 
0.0 0.0 -1.427409174857e+02 
-1.444080901524e+02 2.000384417336e+01 0.0 
2.000384417336e+01 -3.387849187821e+02 0.0 
0.0 0.0 -1.445579026803e+02 
-1.462661797905e+02 1.969598215391e+01 0.0 
1.969598215391e+01 -3.431631964449e+02 0.0 
0.0 0.0 -1.464288128706e+02 
-1.477156406726e+02 1.920940704836e+01 0.0 
1.920940704836e+01 -3.470866979528e+02 0.0 
0.0 0.0 -1.480407015876e+02 
-1.497573424976e+02 1.874714866057e+01 0.0 
1.874714866057e+01 -3.516371689083e+02 0.0 
0.0 0.0 -1.500183534218e+02 
-1.509320320988e+02 1.767804781804e+01 0.0 
1.767804781804e+01 -3.552150078716e+02 0.0 
0.0 0.0 -1.514441119911e+02 
-1.519791483951e+02 1.688970388705e+01 0.0 
1.688970388705e+01 -3.577411863208e+02 0.0 
0.0 0.0 -1.525161004148e+02 
-1.534148040975e+02 1.590309752197e+01 0.0 
1.590309752197e+01 -3.611157446716e+02 0.0 
0.0 0.0 -1.539591646307e+02 
-1.547651822235e+02 1.493110117948e+01 0.0 
1.493110117948e+01 -3.643199035151e+02 0.0 
0.0 0.0 -1.553255257216e+02 
-1.559592121163e+02 1.386282992835e+01 0.0 
1.386282992835e+01 -3.671563427036e+02 0.0 
0.0 0.0 -1.565346664460e+02 
-1.570129345086e+02 1.280428868013e+01 0.0 
1.280428868013e+01 -3.696414409961e+02 0.0 
0.0 0.0 -1.575963126514e+02 
-1.579834055860e+02 1.170560250929e+01 0.0 
1.170560250929e+01 -3.718786439499e+02 0.0 
0.0 0.0 -1.585586148608e+02 
-1.586496049963e+02 1.059655533069e+01 0.0 
1.059655533069e+01 -3.735295302462e+02 0.0 
0.0 0.0 -1.592537405728e+02 
-1.592665344223e+02 9.579641233296e+00 0.0 
9.579641233296e+00 -3.749153215864e+02 0.0 
0.0 0.0 -1.598545568026e+02 
-1.596440724025e+02 8.483997978445e+00 0.0 
8.483997978445e+00 -3.759703735896e+02 0.0 
0.0 0.0 -1.602843337976e+02 
-1.604300106263e+02 7.609624762161e+00 0.0 
7.609624762161e+00 -3.775357492698e+02 0.0 
0.0 0.0 -1.609897279688e+02 
-1.613885205354e+02 6.558651338859e+00 0.0 
6.558651338859e+00 -3.794476018243e+02 0.0 
0.0 0.0 -1.618508367079e+02 
-1.618954141325e+02 5.763982017554e+00 0.0 
5.763982017554e+00 -3.805198300464e+02 0.0 
0.0 0.0 -1.623245732537e+02 
-1.608355431228e+02 4.764453868591e+00 0.0 
4.764453868591e+00 -3.789005872101e+02 0.0 
0.0 0.0 -1.615208390999e+02 
-1.623301049835e+02 3.825122289777e+00 0.0 
3.825122289777e+00 -3.814840897057e+02 0.0 
0.0 0.0 -1.627442584068e+02 
-1.620483652213e+02 3.051188131618e+00 0.0 
3.051188131618e+00 -3.811353442222e+02 0.0 
0.0 0.0 -1.625551128330e+02 
-1.625348161704e+02 2.490571978187e+00 0.0 
2.490571978187e+00 -3.819905914899e+02 0.0 
0.0 0.0 -1.629576222981e+02 
-1.629298895918e+02 1.483926142288e+00 0.0 
1.483926142288e+00 -3.828501788145e+02 0.0 
0.0 0.0 -1.633340205219e+02 
-1.629080221504e+02 8.707157054154e-01 0.0 
8.707157054154e-01 -3.828876197727e+02 0.0 
0.0 0.0 -1.633386925769e+02 
-5.769298715637e+01 3.180643695344e-01 0.0 
3.180643695344e-01 -1.182721643676e+02 0.0 
0.0 0.0 -5.238954545719e+01 
-6.574800283445e+01 3.802053786460e-01 0.0 
3.802053786460e-01 -1.380091129226e+02 0.0 
0.0 0.0 -6.072713472710e+01 
-7.381804788710e+01 3.892447632113e-01 0.0 
3.892447632113e-01 -1.576078630905e+02 0.0 
0.0 0.0 -6.902777329327e+01 
-8.155457610495e+01 4.380488305520e-01 0.0 
4.380488305520e-01 -1.768562773465e+02 0.0 
0.0 0.0 -7.712325603542e+01 
-8.932482226562e+01 4.151743113504e-01 0.0 
4.151743113504e-01 -1.965873260441e+02 0.0 
0.0 0.0 -8.537364449290e+01 
-9.720949239333e+01 4.744413781245e-01 0.0 
4.744413781245e-01 -2.164689418623e+02 0.0 
0.0 0.0 -9.370353027669e+01 
-1.046230905106e+02 4.491214924001e-01 0.0 
4.491214924001e-01 -2.361538117018e+02 0.0 
0.0 0.0 -1.018330706637e+02 
-1.118549894749e+02 5.333827495516e-01 0.0 
5.333827495516e-01 -2.557218229275e+02 0.0 
0.0 0.0 -1.098730437207e+02 
-1.193749701342e+02 5.850230184534e-01 0.0 
5.850230184534e-01 -2.759365302377e+02 0.0 
0.0 0.0 -1.181934501116e+02 
-1.498800160673e+01 4.541317464032e+00 0.0 
4.541317464032e+00 -6.917196725923e+00 0.0 
0.0 0.0 -6.554014399746e+00 
-5.515230139125e+01 2.002902040273e+00 0.0 
2.002902040273e+00 -1.002430339841e+02 0.0 
0.0 0.0 -4.621860061260e+01 
-1.861112757293e+01 1.121691739136e+01 0.0 
1.121691739136e+01 -1.401862029928e+01 0.0 
0.0 0.0 -9.424783700469e+00 
-2.055601888890e+01 1.358797416904e+01 0.0 
1.358797416904e+01 -1.745986269669e+01 0.0 
0.0 0.0 -1.100476447568e+01 
-2.040450133517e+01 1.409586899448e+01 0.0 
1.409586899448e+01 -1.829630364371e+01 0.0 
0.0 0.0 -1.121024149366e+01 
-1.877453550896e+01 1.306290768229e+01 0.0 
1.306290768229e+01 -1.706860447786e+01 0.0 
0.0 0.0 -1.035294199605e+01 
-1.768757787099e+01 8.721331638238e+00 0.0 
8.721331638238e+00 -1.457593219562e+01 0.0 
0.0 0.0 -9.279053019981e+00 
-1.897515558882e+01 4.697756458985e+00 0.0 
4.697756458985e+00 -2.144333623095e+01 0.0 
0.0 0.0 -1.172554754593e+01 
-2.838610416431e+01 3.459458790282e+00 0.0 
3.459458790282e+00 -4.089031358647e+01 0.0 
0.0 0.0 -2.038292532523e+01 
-3.767979741731e+01 2.594926128247e+00 0.0 
2.594926128247e+00 -6.033969310933e+01 0.0 
0.0 0.0 -2.900584715799e+01 
-4.648578241045e+01 2.153012261778e+00 0.0 
2.153012261778e+00 -7.977694111064e+01 0.0 
0.0 0.0 -3.747881705633e+01 
-1.080815833745e+01 7.201098490847e-01 0.0 
7.201098490847e-01 -7.276112290178e+00 0.0 
0.0 0.0 -5.025281188289e+00 
-1.589340000788e+01 8.175843682442e-01 0.0 
8.175843682442e-01 -1.972750279146e+01 0.0 
0.0 0.0 -1.028627083980e+01 
-2.403774383064e+01 6.191076074330e-01 0.0 
6.191076074330e-01 -3.929832216057e+01 0.0 
0.0 0.0 -1.860081979736e+01 
-3.237076961366e+01 7.580730520942e-01 0.0 
7.580730520942e-01 -5.879367424055e+01 0.0 
0.0 0.0 -2.694933315626e+01 
-4.074222557517e+01 5.376686134981e-01 0.0 
5.376686134981e-01 -7.819305857236e+01 0.0 
0.0 0.0 -3.528058524426e+01 
-4.821205504132e+01 -2.431932308178e-01 0.0 
-2.431932308178e-01 -9.584257562779e+01 0.0 
0.0 0.0 -4.281638920073e+01 
-4.887742119684e+01 -5.781426384467e-02 0.0 
-5.781426384467e-02 -9.701556622642e+01 0.0 
0.0 0.0 -4.336789622698e+01 
-4.891296933846e+01 -6.734363199748e-02 0.0 
-6.734363199748e-02 -9.703744416345e+01 0.0 
0.0 0.0 -4.338512405058e+01 
-4.897102985530e+01 -2.593746158433e-02 0.0 
-2.593746158433e-02 -9.679973091453e+01 0.0 
0.0 0.0 -4.333122823095e+01 
-5.035708153143e+01 -4.021628484194e-02 0.0 
-4.021628484194e-02 -9.943665784182e+01 0.0 
0.0 0.0 -4.453812181198e+01 
-4.948538439501e+01 -6.774506151835e-02 0.0 
-6.774506151835e-02 -9.709137925501e+01 0.0 
0.0 0.0 -4.357302909501e+01 
-4.978236295219e+01 -1.072511496487e-02 0.0 
-1.072511496487e-02 -9.692510177878e+01 0.0 
0.0 0.0 -4.361223941929e+01 
-5.008556444162e+01 -5.684190703856e-02 0.0 
-5.684190703856e-02 -9.712443819273e+01 0.0 
0.0 0.0 -4.376300079031e+01 
-5.054793567321e+01 4.315622472933e-02 0.0 
4.315622472933e-02 -9.759186817039e+01 0.0 
0.0 0.0 -4.404194115308e+01 
-5.092101695940e+01 9.085825949538e-02 0.0 
9.085825949538e-02 -9.758217187187e+01 0.0 
0.0 0.0 -4.415095664938e+01 
-5.148852720161e+01 2.653214366294e-01 0.0 
2.653214366294e-01 -9.763606704148e+01 0.0 
0.0 0.0 -4.433737827293e+01 
-5.200498603405e+01 4.955794669809e-01 0.0 
4.955794669809e-01 -9.772906341588e+01 0.0 
0.0 0.0 -4.452021483498e+01 
-5.279619093830e+01 7.722523191554e-01 0.0 
7.722523191554e-01 -9.807545447553e+01 0.0 
0.0 0.0 -4.486149362415e+01 
-5.369141990663e+01 1.210311309381e+00 0.0 
1.210311309381e+00 -9.874826340425e+01 0.0 
0.0 0.0 -4.533190499326e+01 
-1.651805389162e+01 1.700513829026e+00 0.0 
1.700513829026e+00 -6.452512039857e+00 0.0 
0.0 0.0 -6.805069621062e+00 
-1.846392777998e+01 2.662629038630e-01 0.0 
2.662629038630e-01 -7.299423000346e+00 0.0 
0.0 0.0 -7.645875961693e+00 
-1.861243869514e+01 -4.795543528591e-01 0.0 
-4.795543528591e-01 -7.034266542148e+00 0.0 
0.0 0.0 -7.594430078934e+00 
-1.757044984310e+01 -4.682698153237e-01 0.0 
-4.682698153237e-01 -7.062823304206e+00 0.0 
0.0 0.0 -7.290124059928e+00 
-1.602930962657e+01 -5.526553124478e-01 0.0 
-5.526553124478e-01 -8.055061424419e+00 0.0 
0.0 0.0 -7.148089770348e+00 
-1.473192518996e+01 -6.767456954570e-01 0.0 
-6.767456954570e-01 -8.457245928720e+00 0.0 
0.0 0.0 -6.883734682516e+00 
-1.335626334973e+01 -6.755675899229e-01 0.0 
-6.755675899229e-01 -8.390387757047e+00 0.0 
0.0 0.0 -6.449487392992e+00 
-1.199694252031e+01 -6.247799202184e-01 0.0 
-6.247799202184e-01 -8.288109232292e+00 0.0 
0.0 0.0 -6.010264185531e+00 
-1.068811613039e+01 -5.884735080581e-01 0.0 
-5.884735080581e-01 -8.269086428917e+00 0.0 
0.0 0.0 -5.610465148723e+00 
-9.522159741215e+00 -5.229381830322e-01 0.0 
-5.229381830322e-01 -8.288477335635e+00 0.0 
0.0 0.0 -5.267137513979e+00 
-8.370064145261e+00 -4.158453002417e-01 0.0 
-4.158453002417e-01 -8.395094763537e+00 0.0 
0.0 0.0 -4.955223496284e+00 
-7.667007795712e+00 -4.716098616911e-01 0.0 
-4.716098616911e-01 -8.964435368905e+00 0.0 
0.0 0.0 -4.926102194054e+00 
-6.552837539999e+00 -5.192394163744e-01 0.0 
-5.192394163744e-01 -8.652199866946e+00 0.0 
0.0 0.0 -4.493400964325e+00 
-5.487316658979e+00 -3.975209714724e-01 0.0 
-3.975209714724e-01 -7.906026928831e+00 0.0 
0.0 0.0 -3.936228005892e+00 
-4.743241985372e+00 -3.090378407423e-01 0.0 
-3.090378407423e-01 -8.040329380435e+00 0.0 
0.0 0.0 -3.758033893289e+00 
-4.208807527998e+00 -2.556581581608e-01 0.0 
-2.556581581608e-01 -8.312609254518e+00 0.0 
0.0 0.0 -3.682176637187e+00 
-3.750859855844e+00 -1.643651167347e-01 0.0 
-1.643651167347e-01 -8.345590002251e+00 0.0 
0.0 0.0 -3.554318871546e+00 
-3.380524634272e+00 -1.648564380070e-01 0.0 
-1.648564380070e-01 -7.933301663653e+00 0.0 
0.0 0.0 -3.317040593268e+00 
-3.188714967517e+00 2.610632812152e-02 0.0 
2.610632812152e-02 -7.330334006981e+00 0.0 
0.0 0.0 -3.064130966738e+00 
-9.033614240916e+00 2.430473919003e+00 0.0 
2.430473919003e+00 -4.934730012377e+00 0.0 
0.0 0.0 -3.790503275988e+00 
-7.058873777477e+00 1.545225894180e+00 0.0 
1.545225894180e+00 -9.731595585777e+00 0.0 
0.0 0.0 -4.637140808976e+00 
-5.668045287361e+00 4.694044207461e-01 0.0 
4.694044207461e-01 -1.010648607842e+01 0.0 
0.0 0.0 -4.332359409734e+00 
-4.956048110737e+00 7.973411059026e-03 0.0 
7.973411059026e-03 -9.788807743415e+00 0.0 
0.0 0.0 -4.023456756245e+00 
-5.027635057568e+00 -2.334057385773e-01 0.0 
-2.334057385773e-01 -9.760593992326e+00 0.0 
0.0 0.0 -4.036468714968e+00 
-5.354835182275e+00 -3.247417217414e-01 0.0 
-3.247417217414e-01 -9.721237946155e+00 0.0 
0.0 0.0 -4.122821938529e+00 
-5.928048882972e+00 -3.716665563508e-01 0.0 
-3.716665563508e-01 -9.731734607083e+00 0.0 
0.0 0.0 -4.297935047016e+00 
-6.555160586895e+00 -3.736813035497e-01 0.0 
-3.736813035497e-01 -9.731004695887e+00 0.0 
0.0 0.0 -4.485849584835e+00 
-7.206598067065e+00 -3.546484819413e-01 0.0 
-3.546484819413e-01 -9.745089196512e+00 0.0 
0.0 0.0 -4.685506179073e+00 
-7.819475798757e+00 -3.241111456800e-01 0.0 
-3.241111456800e-01 -9.760219248906e+00 0.0 
0.0 0.0 -4.873908514299e+00 
-8.392483145099e+00 -2.944079808244e-01 0.0 
-2.944079808244e-01 -9.777015969017e+00 0.0 
0.0 0.0 -5.050849734235e+00 
-8.917845987290e+00 -2.647751723487e-01 0.0 
-2.647751723487e-01 -9.790037375926e+00 0.0 
0.0 0.0 -5.212365008965e+00 
-9.389315181564e+00 -2.336642931007e-01 0.0 
-2.336642931007e-01 -9.802535265498e+00 0.0 
0.0 0.0 -5.357555134119e+00 
-9.801932514631e+00 -2.026806215824e-01 0.0 
-2.026806215824e-01 -9.814823169255e+00 0.0 
0.0 0.0 -5.485026705166e+00 
-1.015594538118e+01 -1.726340959760e-01 0.0 
-1.726340959760e-01 -9.825634606979e+00 0.0 
0.0 0.0 -5.594473996448e+00 
-1.045509150086e+01 -1.433615802295e-01 0.0 
-1.433615802295e-01 -9.833185008728e+00 0.0 
0.0 0.0 -5.686482952877e+00 
-1.069946949500e+01 -1.102129582524e-01 0.0 
-1.102129582524e-01 -9.835143514650e+00 0.0 
0.0 0.0 -5.760383902894e+00 
-1.088279145250e+01 -6.712926654175e-02 0.0 
-6.712926654175e-02 -9.828133313780e+00 0.0 
0.0 0.0 -5.813277429883e+00 
-1.099741628260e+01 -5.516553368258e-03 0.0 
-5.516553368258e-03 -9.805600987034e+00 0.0 
0.0 0.0 -5.840905180891e+00 
-1.103380456121e+01 8.402747736717e-02 0.0 
8.402747736717e-02 -9.751532985871e+00 0.0 
0.0 0.0 -5.835601264124e+00 
-1.102761369597e+01 1.931651917736e-01 0.0 
1.931651917736e-01 -9.158710770331e+00 0.0 
0.0 0.0 -5.655897339890e+00 
-1.089055025173e+01 -2.886588358730e-01 0.0 
-2.886588358730e-01 -6.884185844233e+00 0.0 
0.0 0.0 -4.932420828788e+00 
-1.578173237079e+01 -2.570361756585e-01 0.0 
-2.570361756585e-01 -1.967881174976e+01 0.0 
0.0 0.0 -1.023816323617e+01 
-1.549456045419e+01 -4.849707842273e-02 0.0 
-4.849707842273e-02 -1.955905783501e+01 0.0 
0.0 0.0 -1.011608548676e+01 
-1.538114956616e+01 -4.852415412779e-02 0.0 
-4.852415412779e-02 -1.953785178048e+01 0.0 
0.0 0.0 -1.007570040399e+01 
-1.527932071037e+01 -1.146816706388e-01 0.0 
-1.146816706388e-01 -1.955465624787e+01 0.0 
0.0 0.0 -1.005019308747e+01 
-1.515965434272e+01 -1.790085839370e-01 0.0 
-1.790085839370e-01 -1.956962825594e+01 0.0 
0.0 0.0 -1.001878477960e+01 
-1.500950494787e+01 -2.386002148448e-01 0.0 
-2.386002148448e-01 -1.957946453357e+01 0.0 
0.0 0.0 -9.976690844433e+00 
-1.482597764548e+01 -2.932456949878e-01 0.0 
-2.932456949878e-01 -1.958459025290e+01 0.0 
0.0 0.0 -9.923170369514e+00 
-1.461192555285e+01 -3.474860178211e-01 0.0 
-3.474860178211e-01 -1.958436463363e+01 0.0 
0.0 0.0 -9.858887055945e+00 
-1.436736573398e+01 -4.042606438407e-01 0.0 
-4.042606438407e-01 -1.958491577500e+01 0.0 
0.0 0.0 -9.785684452693e+00 
-1.408782612959e+01 -4.607587973202e-01 0.0 
-4.607587973202e-01 -1.958853362253e+01 0.0 
0.0 0.0 -9.702907925636e+00 
-1.378347525143e+01 -5.111970320848e-01 0.0 
-5.111970320848e-01 -1.959522252438e+01 0.0 
0.0 0.0 -9.613609332743e+00 
-1.346761310948e+01 -5.523767172484e-01 0.0 
-5.523767172484e-01 -1.960255756923e+01 0.0 
0.0 0.0 -9.521051203612e+00 
-1.315423620008e+01 -5.846566437894e-01 0.0 
-5.846566437894e-01 -1.960693344203e+01 0.0 
0.0 0.0 -9.428350892632e+00 
-1.286390250798e+01 -6.031171390478e-01 0.0 
-6.031171390478e-01 -1.963565128551e+01 0.0 
0.0 0.0 -9.349866138047e+00 
-1.261419138416e+01 -5.711315013089e-01 0.0 
-5.711315013089e-01 -1.967516420679e+01 0.0 
0.0 0.0 -9.286806677286e+00 
-1.249505263372e+01 -4.724115829063e-01 0.0 
-4.724115829063e-01 -1.977215470000e+01 0.0 
0.0 0.0 -9.280162200117e+00 
-1.256117359740e+01 -2.365657550962e-01 0.0 
-2.365657550962e-01 -1.984150759686e+01 0.0 
0.0 0.0 -9.320804358277e+00 
-1.304371258429e+01 1.294763822649e-01 0.0 
1.294763822649e-01 -2.010052691687e+01 0.0 
0.0 0.0 -9.543271850350e+00 
-1.479439843254e+01 1.077853846428e+00 0.0 
1.077853846428e+00 -2.149924254691e+01 0.0 
0.0 0.0 -1.048809229384e+01 
-1.450979695863e+01 1.862287128062e+00 0.0 
1.862287128062e+00 -1.801846341459e+01 0.0 
0.0 0.0 -9.358478111967e+00 
-2.571229695053e+01 1.646850026904e+00 0.0 
1.646850026904e+00 -3.784692028600e+01 0.0 
0.0 0.0 -1.866776517096e+01 
-2.620605941253e+01 1.033333173360e+00 0.0 
1.033333173360e+00 -4.123606523385e+01 0.0 
0.0 0.0 -1.983263739391e+01 
-2.466724683627e+01 1.513236340241e-01 0.0 
1.513236340241e-01 -3.987167483172e+01 0.0 
0.0 0.0 -1.896167650040e+01 
-2.404736684140e+01 -2.417491334673e-01 0.0 
-2.417491334673e-01 -3.951361884001e+01 0.0 
0.0 0.0 -1.866829570442e+01 
-2.376495248369e+01 -4.784069027746e-01 0.0 
-4.784069027746e-01 -3.937584875200e+01 0.0 
0.0 0.0 -1.854224037071e+01 
-2.355614691879e+01 -5.700554737390e-01 0.0 
-5.700554737390e-01 -3.924734202803e+01 0.0 
0.0 0.0 -1.844104668405e+01 
-2.346832104378e+01 -6.097712234090e-01 0.0 
-6.097712234090e-01 -3.921716864766e+01 0.0 
0.0 0.0 -1.840564690743e+01 
-2.344738601142e+01 -6.160383604203e-01 0.0 
-6.160383604203e-01 -3.918712266355e+01 0.0 
0.0 0.0 -1.839035260249e+01 
-2.347003224596e+01 -5.947892475716e-01 0.0 
-5.947892475716e-01 -3.916029945237e+01 0.0 
0.0 0.0 -1.838909950950e+01 
-2.352718383394e+01 -5.492272625328e-01 0.0 
-5.492272625328e-01 -3.913911669581e+01 0.0 
0.0 0.0 -1.839989015893e+01 
-2.359098949772e+01 -4.847529328722e-01 0.0 
-4.847529328722e-01 -3.913604035473e+01 0.0 
0.0 0.0 -1.841810895574e+01 
-2.364660205178e+01 -4.236778484008e-01 0.0 
-4.236778484008e-01 -3.914104118929e+01 0.0 
0.0 0.0 -1.843629297232e+01 
-2.371438645762e+01 -3.645189953986e-01 0.0 
-3.645189953986e-01 -3.913661796371e+01 0.0 
0.0 0.0 -1.845530132640e+01 
-2.377438465194e+01 -2.974344427076e-01 0.0 
-2.974344427076e-01 -3.912470495917e+01 0.0 
0.0 0.0 -1.846972688333e+01 
-2.383003432516e+01 -2.282832974576e-01 0.0 
-2.282832974576e-01 -3.911444491130e+01 0.0 
0.0 0.0 -1.848334377094e+01 
-2.388282374662e+01 -1.651778507848e-01 0.0 
-1.651778507848e-01 -3.910074874240e+01 0.0 
0.0 0.0 -1.849507174670e+01 
-2.394578921413e+01 -1.080893499505e-01 0.0 
-1.080893499505e-01 -3.910724054205e+01 0.0 
0.0 0.0 -1.851590892685e+01 
-2.400474500792e+01 -5.304568826639e-02 0.0 
-5.304568826639e-02 -3.917606269462e+01 0.0 
0.0 0.0 -1.855424231076e+01 
-2.403281710522e+01 -4.820549285911e-01 0.0 
-4.820549285911e-01 -3.926427457281e+01 0.0 
0.0 0.0 -1.858912750341e+01 
-3.236117021162e+01 -3.672795369990e-01 0.0 
-3.672795369990e-01 -5.879845712734e+01 0.0 
0.0 0.0 -2.694788820169e+01 
-3.241060707746e+01 -1.684953308551e-01 0.0 
-1.684953308551e-01 -5.869449544846e+01 0.0 
0.0 0.0 -2.693153075777e+01 
-3.242280569178e+01 -1.702901776065e-01 0.0 
-1.702901776065e-01 -5.865554230087e+01 0.0 
0.0 0.0 -2.692350439779e+01 
-3.243102326221e+01 -2.218909183156e-01 0.0 
-2.218909183156e-01 -5.866603610367e+01 0.0 
0.0 0.0 -2.692911780976e+01 
-3.247138168040e+01 -2.878674926333e-01 0.0 
-2.878674926333e-01 -5.866866872062e+01 0.0 
0.0 0.0 -2.694201512031e+01 
-3.250401245367e+01 -3.588529230719e-01 0.0 
-3.588529230719e-01 -5.868210543045e+01 0.0 
0.0 0.0 -2.695583536524e+01 
-3.256250273645e+01 -4.247239651484e-01 0.0 
-4.247239651484e-01 -5.870724903825e+01 0.0 
0.0 0.0 -2.698092553241e+01 
-3.263072255795e+01 -4.633821396431e-01 0.0 
-4.633821396431e-01 -5.870513122017e+01 0.0 
0.0 0.0 -2.700075613343e+01 
-3.274094351968e+01 -5.259482675725e-01 0.0 
-5.259482675725e-01 -5.869122946068e+01 0.0 
0.0 0.0 -2.702965189411e+01 
-3.286202648141e+01 -5.687872893406e-01 0.0 
-5.687872893406e-01 -5.874248857582e+01 0.0 
0.0 0.0 -2.708135451717e+01 
-3.304094154918e+01 -5.555151245440e-01 0.0 
-5.555151245440e-01 -5.880079475849e+01 0.0 
0.0 0.0 -2.715252089230e+01 
-3.329900436141e+01 -5.059565502662e-01 0.0 
-5.059565502662e-01 -5.885812021288e+01 0.0 
0.0 0.0 -2.724713737229e+01 
-3.362393723473e+01 -3.969228787808e-01 0.0 
-3.969228787808e-01 -5.895441445534e+01 0.0 
0.0 0.0 -2.737350550702e+01 
-3.405627692855e+01 -2.048298288118e-01 0.0 
-2.048298288118e-01 -5.903571751394e+01 0.0 
0.0 0.0 -2.752759833275e+01 
-3.470524700471e+01 5.618950242307e-02 0.0 
5.618950242307e-02 -5.941467761844e+01 0.0 
0.0 0.0 -2.783597738694e+01 
-3.614395106573e+01 8.145805690806e-01 0.0 
8.145805690806e-01 -6.089938947781e+01 0.0 
0.0 0.0 -2.871300216306e+01 
-3.564460496736e+01 1.323552071342e+00 0.0 
1.323552071342e+00 -5.756875917967e+01 0.0 
0.0 0.0 -2.756400924411e+01 
-4.468569844060e+01 1.154407072203e+00 0.0 
1.154407072203e+00 -7.708125608025e+01 0.0 
0.0 0.0 -3.613008635625e+01 
-4.509491900604e+01 8.273238521840e-01 0.0 
8.273238521840e-01 -8.027444789882e+01 0.0 
0.0 0.0 -3.721081007146e+01 
-4.380398530612e+01 2.865528055865e-01 0.0 
2.865528055865e-01 -7.892784561663e+01 0.0 
0.0 0.0 -3.641954927683e+01 
-4.323786661032e+01 2.530629804557e-02 0.0 
2.530629804557e-02 -7.867587448496e+01 0.0 
0.0 0.0 -3.617412232858e+01 
-4.273497259462e+01 -1.147495423954e-01 0.0 
-1.147495423954e-01 -7.855489959456e+01 0.0 
0.0 0.0 -3.598696165676e+01 
-4.232119346139e+01 -2.375355945346e-01 0.0 
-2.375355945346e-01 -7.847646440043e+01 0.0 
0.0 0.0 -3.583929735855e+01 
-4.197319889959e+01 -3.022786510920e-01 0.0 
-3.022786510920e-01 -7.833754863608e+01 0.0 
0.0 0.0 -3.569322426070e+01 
-4.169413420084e+01 -2.724368011212e-01 0.0 
-2.724368011212e-01 -7.828299853688e+01 0.0 
0.0 0.0 -3.559313982131e+01 
-4.155809786623e+01 -2.828488630887e-01 0.0 
-2.828488630887e-01 -7.833904442284e+01 0.0 
0.0 0.0 -3.556914268672e+01 
-4.132455545161e+01 -2.486470316235e-01 0.0 
-2.486470316235e-01 -7.828253831095e+01 0.0 
0.0 0.0 -3.548212812877e+01 
-4.117610163447e+01 -2.258706592566e-01 0.0 
-2.258706592566e-01 -7.825487338652e+01 0.0 
0.0 0.0 -3.542929250630e+01 
-4.106425409980e+01 -1.558382504285e-01 0.0 
-1.558382504285e-01 -7.824804135211e+01 0.0 
0.0 0.0 -3.539368863557e+01 
-4.094638590285e+01 -1.464288314674e-01 0.0 
-1.464288314674e-01 -7.826884989030e+01 0.0 
0.0 0.0 -3.536457073795e+01 
-4.086463569547e+01 -8.926710483107e-02 0.0 
-8.926710483107e-02 -7.821741486518e+01 0.0 
0.0 0.0 -3.532461516820e+01 
-4.082585523521e+01 4.113889250660e-02 0.0 
4.113889250660e-02 -7.837504606854e+01 0.0 
0.0 0.0 -3.536027039112e+01 
-4.071988388888e+01 -4.981373312890e-01 0.0 
-4.981373312890e-01 -7.846775602166e+01 0.0 
0.0 0.0 -3.535629197316e+01 
-1.620019891690e+01 8.548779061065e+00 0.0 
8.548779061065e+00 -1.014271003193e+01 0.0 
0.0 0.0 -7.595271731436e+00 
-1.991300920226e+01 1.273730876261e+01 0.0 
1.273730876261e+01 -1.631345047305e+01 0.0 
0.0 0.0 -1.046793790259e+01 
-2.059302416374e+01 1.395933724113e+01 0.0 
1.395933724113e+01 -1.797732201654e+01 0.0 
0.0 0.0 -1.117110385409e+01 
-1.989961775258e+01 1.376819772822e+01 0.0 
1.376819772822e+01 -1.835756690185e+01 0.0 
0.0 0.0 -1.107715539633e+01 
-1.999251210808e+01 1.315827086940e+01 0.0 
1.315827086940e+01 -1.792567150192e+01 0.0 
0.0 0.0 -1.097545508300e+01 
-1.720040052178e+01 5.841548514308e+00 0.0 
5.841548514308e+00 -1.440890097804e+01 0.0 
0.0 0.0 -9.082790449948e+00 
-2.516240284374e+01 4.135835882642e+00 0.0 
4.135835882642e+00 -3.303000679347e+01 0.0 
0.0 0.0 -1.705772289116e+01 
-3.447923716988e+01 2.998938248458e+00 0.0 
2.998938248458e+00 -5.251055552001e+01 0.0 
0.0 0.0 -2.569693780697e+01 
-4.344067072211e+01 2.349273230565e+00 0.0 
2.349273230565e+00 -7.196032086565e+01 0.0 
0.0 0.0 -3.422029747633e+01 
-5.193944149200e+01 2.008777429944e+00 0.0 
2.008777429944e+00 -9.150111868056e+01 0.0 
0.0 0.0 -4.263216805177e+01 
-1.978148984590e+01 1.220839646368e+01 0.0 
1.220839646368e+01 -2.419444077283e+01 0.0 
0.0 0.0 -1.279277918562e+01 
-1.491621764357e+02 1.508798893289e+01 0.0 
1.508798893289e+01 -3.547830188045e+02 0.0 
0.0 0.0 -1.507835585721e+02 
-1.234664995518e+01 -9.546362565847e-01 0.0 
-9.546362565847e-01 -1.681780645229e+01 0.0 
0.0 0.0 -8.736636947094e+00 
-1.714970061399e+01 -7.842623063910e-01 0.0 
-7.842623063910e-01 -1.604965123192e+01 0.0 
0.0 0.0 -9.946713284336e+00 
-1.539001371022e+02 9.766950372540e+00 0.0 
9.766950372540e+00 -3.662292233701e+02 0.0 
0.0 0.0 -1.556388081417e+02 
-2.116748060549e+01 1.443386661800e+01 0.0 
1.443386661800e+01 -2.742204707818e+01 0.0 
0.0 0.0 -1.417685830510e+01 
-7.950193901294e+01 4.582776350755e-02 0.0 
4.582776350755e-02 -2.089700047046e+02 0.0 
0.0 0.0 -8.614158311525e+01 
-1.436510879068e+02 1.832338867807e+01 0.0 
1.832338867807e+01 -3.400945593990e+02 0.0 
0.0 0.0 -1.447236941917e+02 
-2.734416900664e+01 9.816296105132e+00 0.0 
9.816296105132e+00 -3.493284986138e+01 0.0 
0.0 0.0 -1.828310566041e+01 
-1.383816734421e+02 1.961591792291e+01 0.0 
1.961591792291e+01 -3.238073397406e+02 0.0 
0.0 0.0 -1.382567039548e+02 
-4.356277398567e+01 4.637355999201e+00 0.0 
4.637355999201e+00 -7.055080357671e+01 0.0 
0.0 0.0 -3.383407326872e+01 
-1.571168486887e+02 5.910871943970e+00 0.0 
5.910871943970e+00 -3.724969223979e+02 0.0 
0.0 0.0 -1.584841313260e+02 
-8.761085657548e+00 -6.489682197050e-01 0.0 
-6.489682197050e-01 -1.619440783239e+01 0.0 
0.0 0.0 -7.496331674133e+00 
-1.327082606346e+02 1.779772414087e+01 0.0 
1.779772414087e+01 -3.068174682476e+02 0.0 
0.0 0.0 -1.314577186647e+02 
-5.979633855438e+01 3.042420694896e+00 0.0 
3.042420694896e+00 -1.090772624687e+02 0.0 
0.0 0.0 -5.026208030692e+01 
-4.879156560423e+01 -2.414687482603e-01 0.0 
-2.414687482603e-01 -1.300751199816e+02 0.0 
0.0 0.0 -5.326000567575e+01 
-1.025881029235e+02 1.979023084047e-01 0.0 
1.979023084047e-01 -2.622588839607e+02 0.0 
0.0 0.0 -1.090540960653e+02 
-1.289972992967e+02 1.494023709388e+01 0.0 
1.494023709388e+01 -2.958435677092e+02 0.0 
0.0 0.0 -1.270522601018e+02 
-1.251359832921e+02 1.034146475208e+01 0.0 
1.034146475208e+01 -2.875037759294e+02 0.0 
0.0 0.0 -1.233919277665e+02 
-1.209662863389e+02 2.983903242820e+00 0.0 
2.983903242820e+00 -2.803302626229e+02 0.0 
0.0 0.0 -1.199889646885e+02 
-1.213067799308e+02 4.886555105004e+00 0.0 
4.886555105004e+00 -2.797233655871e+02 0.0 
0.0 0.0 -1.199090436554e+02 
-1.232910465004e+02 7.549286267205e+00 0.0 
7.549286267205e+00 -2.841280526863e+02 0.0 
0.0 0.0 -1.218257297560e+02 
-6.160459698398e+01 1.760024865373e+00 0.0 
1.760024865373e+00 -1.166799199789e+02 0.0 
0.0 0.0 -5.308535508885e+01 
-5.878121051633e+01 5.230780190876e-01 0.0 
5.230780190876e-01 -1.155546150388e+02 0.0 
0.0 0.0 -5.190074766653e+01 
-5.813872551707e+01 3.327597626799e-01 0.0 
3.327597626799e-01 -1.166812380476e+02 0.0 
0.0 0.0 -5.204598906940e+01 
-8.557256424507e+01 3.435483737145e-01 0.0 
3.435483737145e-01 -1.868363417600e+02 0.0 
0.0 0.0 -8.132267180151e+01 
-1.574890553514e+02 3.501372777657e+00 0.0 
3.501372777657e+00 -3.732965964826e+02 0.0 
0.0 0.0 -1.588356955502e+02 
-1.746431821114e+01 1.272342642193e+00 0.0 
1.272342642193e+00 -1.481462050449e+01 0.0 
0.0 0.0 -9.683945488401e+00 
-7.393764871708e+00 -3.709792419846e-01 0.0 
-3.709792419846e-01 -1.721519891700e+01 0.0 
0.0 0.0 -7.371689423182e+00 
-1.313983208326e+02 4.952833441313e-01 0.0 
4.952833441313e-01 -3.229051966256e+02 0.0 
0.0 0.0 -1.358910552375e+02 
-5.623946052495e+01 -2.096331080440e-03 0.0 
-2.096331080440e-03 -1.143412399636e+02 0.0 
0.0 0.0 -5.077421014657e+01 
-2.590593382590e+01 -2.781536607305e-01 0.0 
-2.781536607305e-01 -6.901132222681e+01 0.0 
0.0 0.0 -2.807517681581e+01 
-1.256904794659e+02 1.241771488911e+01 0.0 
1.241771488911e+01 -2.876416529523e+02 0.0 
0.0 0.0 -1.235996397254e+02 
-1.416270594702e+02 1.939617311473e+01 0.0 
1.939617311473e+01 -3.334323325280e+02 0.0 
0.0 0.0 -1.421178175995e+02 
-1.354156779795e+02 1.906034200448e+01 0.0 
1.906034200448e+01 -3.149257170606e+02 0.0 
0.0 0.0 -1.347024185120e+02 
-1.456587001209e+02 1.692100499749e+01 0.0 
1.692100499749e+01 -3.463945616511e+02 0.0 
0.0 0.0 -1.472159785316e+02 
-1.516441234214e+02 1.306296251433e+01 0.0 
1.306296251433e+01 -3.607499681789e+02 0.0 
0.0 0.0 -1.533182274801e+02 
-1.547945871473e+01 -1.147135064843e+00 0.0 
-1.147135064843e+00 -1.717248724493e+01 0.0 
0.0 0.0 -9.784785412116e+00 
-5.972875602293e+01 9.340763849986e-01 0.0 
9.340763849986e-01 -1.152723233172e+02 0.0 
0.0 0.0 -5.210032380203e+01 
-1.537109062761e+02 7.657836483688e+00 0.0 
7.657836483688e+00 -3.663448733445e+02 0.0 
0.0 0.0 -1.556167338862e+02 
-1.006319664745e+02 4.394333590621e-01 0.0 
4.394333590621e-01 -2.258370634246e+02 0.0 
0.0 0.0 -9.754070896974e+01 
-1.058200507661e+01 -8.482067929935e-01 0.0 
-8.482067929935e-01 -1.708164765754e+01 0.0 
0.0 0.0 -8.299964619751e+00 
-6.348241671794e+01 -9.920550871909e-02 0.0 
-9.920550871909e-02 -1.686397841548e+02 0.0 
0.0 0.0 -6.923666026183e+01 
-1.217083917550e+02 1.839997812631e+00 0.0 
1.839997812631e+00 -2.828790745799e+02 0.0 
0.0 0.0 -1.209762399004e+02 
-2.377893779633e+01 1.416005164818e+01 0.0 
1.416005164818e+01 -3.034934742625e+01 0.0 
0.0 0.0 -1.583848556677e+01 
-2.079997446149e+01 1.399011435360e+01 0.0 
1.399011435360e+01 -2.661126709365e+01 0.0 
0.0 0.0 -1.382337246654e+01 
-3.521769094376e+01 6.608870944465e+00 0.0 
6.608870944465e+00 -5.164885325580e+01 0.0 
0.0 0.0 -2.565996325987e+01 
-5.174825256474e+01 3.674531507498e+00 0.0 
3.674531507498e+00 -8.948978263468e+01 0.0 
0.0 0.0 -4.197141055983e+01 
-1.717133076725e+01 8.552197329059e+00 0.0 
8.552197329059e+00 -1.759402585009e+01 0.0 
0.0 0.0 -1.007887501889e+01 
-7.056846068637e+01 1.343414602902e-01 0.0 
1.343414602902e-01 -1.493651629449e+02 0.0 
0.0 0.0 -6.558008708938e+01 
-1.594629788118e+02 1.959086226205e+00 0.0 
1.959086226205e+00 -3.770796583874e+02 0.0 
0.0 0.0 -1.605627911598e+02 
-6.658543203356e+00 -2.335167818547e-01 0.0 
-2.335167818547e-01 -1.637258656502e+01 0.0 
0.0 0.0 -6.865204671991e+00 
-1.151749661720e+02 4.494900817790e-01 0.0 
4.494900817790e-01 -2.646683521266e+02 0.0 
0.0 0.0 -1.135529954896e+02 
-6.365943671197e+01 2.981864975307e+00 0.0 
2.981864975307e+00 -1.181286374385e+02 0.0 
0.0 0.0 -5.413642224513e+01 
-6.795907920680e+01 4.154492622653e+00 0.0 
4.154492622653e+00 -1.272586404238e+02 0.0 
0.0 0.0 -5.816531588918e+01 
-7.122144073585e+01 3.750256085256e+00 0.0 
3.750256085256e+00 -1.360238158709e+02 0.0 
0.0 0.0 -6.177357698204e+01 
-7.615595995470e+01 5.323102505993e+00 0.0 
5.323102505993e+00 -1.469539127781e+02 0.0 
0.0 0.0 -6.653296181985e+01 
-7.978935074190e+01 5.046558966041e+00 0.0 
5.046558966041e+00 -1.565609356678e+02 0.0 
0.0 0.0 -7.050508592291e+01 
-8.409373918898e+01 6.392710932522e+00 0.0 
6.392710932522e+00 -1.665994734670e+02 0.0 
0.0 0.0 -7.480796379679e+01 
-8.066212630873e+01 6.763747701714e+00 0.0 
6.763747701714e+00 -1.572431883016e+02 0.0 
0.0 0.0 -7.097159438311e+01 
-8.842862482824e+01 7.821894575887e+00 0.0 
7.821894575887e+00 -1.770916294582e+02 0.0 
0.0 0.0 -7.925607628592e+01 
-8.492719391199e+01 8.280406234408e+00 0.0 
8.280406234408e+00 -1.678823268823e+02 0.0 
0.0 0.0 -7.544285623828e+01 
-8.778224184981e+01 6.150916138813e+00 0.0 
6.150916138813e+00 -1.764414346458e+02 0.0 
0.0 0.0 -7.886710294867e+01 
-9.256552546010e+01 9.281948923355e+00 0.0 
9.281948923355e+00 -1.879372741438e+02 0.0 
0.0 0.0 -8.375083988117e+01 
-8.904494887263e+01 9.816770855031e+00 0.0 
9.816770855031e+00 -1.789824736066e+02 0.0 
0.0 0.0 -8.000822674377e+01 
-9.654569194248e+01 1.071134921992e+01 0.0 
1.071134921992e+01 -1.991466218066e+02 0.0 
0.0 0.0 -8.830769412472e+01 
-9.299464363606e+01 1.130469085644e+01 0.0 
1.130469085644e+01 -1.905298934335e+02 0.0 
0.0 0.0 -8.465736112087e+01 
-8.544959822227e+01 1.050897196899e+01 0.0 
1.050897196899e+01 -1.704137021186e+02 0.0 
0.0 0.0 -7.635899010227e+01 
-8.931793659469e+01 1.201321221006e+01 0.0 
1.201321221006e+01 -1.823196981306e+02 0.0 
0.0 0.0 -8.109129041758e+01 
-8.172494396540e+01 1.135147599110e+01 0.0 
1.135147599110e+01 -1.621605449751e+02 0.0 
0.0 0.0 -7.276564668216e+01 
-8.549529496394e+01 1.285372562333e+01 0.0 
1.285372562333e+01 -1.745128888650e+02 0.0 
0.0 0.0 -7.760245514868e+01 
-9.302964809321e+01 1.333823019713e+01 0.0 
1.333823019713e+01 -1.945984142086e+02 0.0 
0.0 0.0 -8.588841869054e+01 
-8.910161903177e+01 1.410816144235e+01 0.0 
1.410816144235e+01 -1.872013798688e+02 0.0 
0.0 0.0 -8.249089967016e+01 
-8.145209606871e+01 1.379478063655e+01 0.0 
1.379478063655e+01 -1.671288749042e+02 0.0 
0.0 0.0 -7.417429129188e+01 
-8.493842874663e+01 1.490782085835e+01 0.0 
1.490782085835e+01 -1.802273792775e+02 0.0 
0.0 0.0 -7.914974240725e+01 
-7.721622650434e+01 1.477733089630e+01 0.0 
1.477733089630e+01 -1.602865980665e+02 0.0 
0.0 0.0 -7.085084737125e+01 
-8.060019714036e+01 1.566781650821e+01 0.0 
1.566781650821e+01 -1.737960290360e+02 0.0 
0.0 0.0 -7.591886785292e+01 
-7.277480858715e+01 1.571963864012e+01 0.0 
1.571963864012e+01 -1.540117365417e+02 0.0 
0.0 0.0 -6.763596353864e+01 
-7.608279613012e+01 1.630581446028e+01 0.0 
1.630581446028e+01 -1.678791228692e+02 0.0 
0.0 0.0 -7.278857569981e+01 
-8.395389014206e+01 1.617835020436e+01 0.0 
1.617835020436e+01 -1.873022843927e+02 0.0 
0.0 0.0 -8.097685236043e+01 
-7.937980935715e+01 1.650675433756e+01 0.0 
1.650675433756e+01 -1.815501890811e+02 0.0 
0.0 0.0 -7.787899953146e+01 
-7.142701439476e+01 1.671852367055e+01 0.0 
1.671852367055e+01 -1.624504616034e+02 0.0 
0.0 0.0 -6.976324279946e+01 
-7.472572172129e+01 1.658064415774e+01 0.0 
1.658064415774e+01 -1.761634243378e+02 0.0 
0.0 0.0 -7.486674381774e+01 
-6.672812482868e+01 1.679885607709e+01 0.0 
1.679885607709e+01 -1.574381746181e+02 0.0 
0.0 0.0 -6.684988983402e+01 
-7.007187828623e+01 1.632478709170e+01 0.0 
1.632478709170e+01 -1.710217208692e+02 0.0 
0.0 0.0 -7.192807974664e+01 
-7.812972690067e+01 1.619269451687e+01 0.0 
1.619269451687e+01 -1.894927867498e+02 0.0 
0.0 0.0 -7.988675409513e+01 
-7.354683518955e+01 1.566829888676e+01 0.0 
1.566829888676e+01 -1.841558911394e+02 0.0 
0.0 0.0 -7.691081789869e+01 
-6.548790837723e+01 1.570327303841e+01 0.0 
1.570327303841e+01 -1.659540800015e+02 0.0 
0.0 0.0 -6.903259651360e+01 
-6.906460159783e+01 1.482189321982e+01 0.0 
1.482189321982e+01 -1.788194742485e+02 0.0 
0.0 0.0 -7.396522275390e+01 
-6.107455668911e+01 1.471711478519e+01 0.0 
1.471711478519e+01 -1.608468457696e+02 0.0 
0.0 0.0 -6.617642073763e+01 
-6.477761866029e+01 1.366587546593e+01 0.0 
1.366587546593e+01 -1.733972847068e+02 0.0 
0.0 0.0 -7.105247101012e+01 
-5.692575904072e+01 1.339158547485e+01 0.0 
1.339158547485e+01 -1.555849982547e+02 0.0 
0.0 0.0 -6.335322718862e+01 
-6.070990344029e+01 1.223093269013e+01 0.0 
1.223093269013e+01 -1.676884374166e+02 0.0 
0.0 0.0 -6.811950225706e+01 
-6.860840298344e+01 1.262196521822e+01 0.0 
1.262196521822e+01 -1.854285755232e+02 0.0 
0.0 0.0 -7.581109355199e+01 
-6.461978875351e+01 1.114314231269e+01 0.0 
1.114314231269e+01 -1.793250037658e+02 0.0 
0.0 0.0 -7.278343775580e+01 
-5.692359131035e+01 1.059652339042e+01 0.0 
1.059652339042e+01 -1.616373392289e+02 0.0 
0.0 0.0 -6.516827916177e+01 
-6.086006020594e+01 9.506220140958e+00 0.0 
9.506220140958e+00 -1.727918553808e+02 0.0 
0.0 0.0 -6.969557467603e+01 
-6.864729857745e+01 1.013781681093e+01 0.0 
1.013781681093e+01 -1.905674630468e+02 0.0 
0.0 0.0 -7.736442848728e+01 
-6.489048621989e+01 8.535671666207e+00 0.0 
8.535671666207e+00 -1.835730226507e+02 0.0 
0.0 0.0 -7.413905266117e+01 
-7.277904963301e+01 9.236885161759e+00 0.0 
9.236885161759e+00 -2.014537770621e+02 0.0 
0.0 0.0 -8.186984800852e+01 
-6.901363853743e+01 7.685890946359e+00 0.0 
7.685890946359e+00 -1.940505868979e+02 0.0 
0.0 0.0 -7.851926763059e+01 
-6.138710384590e+01 6.896710912587e+00 0.0 
6.896710912587e+00 -1.762276127999e+02 0.0 
0.0 0.0 -7.088441499374e+01 
-6.546348426875e+01 6.128009786851e+00 0.0 
6.128009786851e+00 -1.862913136129e+02 0.0 
0.0 0.0 -7.512643936450e+01 
-7.321165625528e+01 6.952172897803e+00 0.0 
6.952172897803e+00 -2.042443744918e+02 0.0 
0.0 0.0 -8.283680922412e+01 
-6.959117859503e+01 5.481955467903e+00 0.0 
5.481955467903e+00 -1.960879134488e+02 0.0 
0.0 0.0 -7.930372761316e+01 
-6.210077527355e+01 4.615614020588e+00 0.0 
4.615614020588e+00 -1.781439212650e+02 0.0 
0.0 0.0 -7.167340896158e+01 
-6.615642507677e+01 4.075551578496e+00 0.0 
4.075551578496e+00 -1.876231075155e+02 0.0 
0.0 0.0 -7.573385977768e+01 
-7.379151634246e+01 4.949503160105e+00 0.0 
4.949503160105e+00 -2.057267853002e+02 0.0 
0.0 0.0 -8.345549049281e+01 
-7.026512754367e+01 3.645032851741e+00 0.0 
3.645032851741e+00 -1.969499426698e+02 0.0 
0.0 0.0 -7.976452106403e+01 
-6.285375650092e+01 2.769080895444e+00 0.0 
2.769080895444e+00 -1.788042980214e+02 0.0 
0.0 0.0 -7.209741635669e+01 
-6.685496639428e+01 2.451354689384e+00 0.0 
2.451354689384e+00 -1.878791855272e+02 0.0 
0.0 0.0 -7.602024557645e+01 
-7.446272582429e+01 3.315059689973e+00 0.0 
3.315059689973e+00 -2.062585762116e+02 0.0 
0.0 0.0 -8.381639061076e+01 
-7.090307662460e+01 2.222250227574e+00 0.0 
2.222250227574e+00 -1.968753898447e+02 0.0 
0.0 0.0 -7.993353994080e+01 
-6.350259890278e+01 1.387859791773e+00 0.0 
1.387859791773e+00 -1.784456791820e+02 0.0 
0.0 0.0 -7.218448342543e+01 
-6.740828540180e+01 1.253817142855e+00 0.0 
1.253817142855e+00 -1.872077188927e+02 0.0 
0.0 0.0 -7.598480128836e+01 
-7.502087242825e+01 2.060940705622e+00 0.0 
2.060940705622e+00 -2.058844490630e+02 0.0 
0.0 0.0 -8.387159644738e+01 
-7.136187943435e+01 1.180199789720e+00 0.0 
1.180199789720e+00 -1.959564552394e+02 0.0 
0.0 0.0 -7.979550040211e+01 
-7.917289150222e+01 1.951475437956e+00 0.0 
1.951475437956e+00 -2.148338296531e+02 0.0 
0.0 0.0 -8.780201634658e+01 
-6.388332287473e+01 4.258915881139e-01 0.0 
4.258915881139e-01 -1.771157180043e+02 0.0 
0.0 0.0 -7.189971226370e+01 
-6.770106013444e+01 4.408419555240e-01 0.0 
4.408419555240e-01 -1.857355919230e+02 0.0 
0.0 0.0 -7.563099561723e+01 
-6.032739158352e+01 -2.461488673827e-01 0.0 
-2.461488673827e-01 -1.666876255145e+02 0.0 
0.0 0.0 -6.770450512941e+01 
-6.404180054349e+01 -1.485086000847e-01 0.0 
-1.485086000847e-01 -1.752887475512e+02 0.0 
0.0 0.0 -7.139916442840e+01 
-8.167649283574e+01 1.564514155709e+01 0.0 
1.564514155709e+01 -2.024368238508e+02 0.0 
0.0 0.0 -8.483399500595e+01 
-5.675795432988e+01 -7.461123547725e-01 0.0 
-7.461123547725e-01 -1.560705239999e+02 0.0 
0.0 0.0 -6.344854349892e+01 
-5.330158776932e+01 -8.720492597202e-01 0.0 
-8.720492597202e-01 -1.477550479277e+02 0.0 
0.0 0.0 -5.991699070911e+01 
-6.036244310742e+01 -5.837628457217e-01 0.0 
-5.837628457217e-01 -1.646708159322e+02 0.0 
0.0 0.0 -6.710997771188e+01 
-6.783975259259e+01 -3.226335426391e-02 0.0 
-3.226335426391e-02 -1.840216216905e+02 0.0 
0.0 0.0 -7.515841228492e+01 
-5.312814709119e+01 -1.084853397615e+00 0.0 
-1.084853397615e+00 -1.452857459811e+02 0.0 
0.0 0.0 -5.912416792167e+01 
-5.663970059535e+01 -8.831642554850e-01 0.0 
-8.831642554850e-01 -1.539020976434e+02 0.0 
0.0 0.0 -6.276253947162e+01 
-4.943864959716e+01 -1.291644497615e+00 0.0 
-1.291644497615e+00 -1.343931187214e+02 0.0 
0.0 0.0 -5.474953049556e+01 
-5.311231964433e+01 1.454348856867e+01 0.0 
1.454348856867e+01 -1.426306557765e+02 0.0 
0.0 0.0 -5.832289262624e+01 
-9.664430460231e+01 1.445835402706e+01 0.0 
1.445835402706e+01 -2.071653746293e+02 0.0 
0.0 0.0 -9.074290376949e+01 
-5.285964645315e+01 -1.063269858776e+00 0.0 
-1.063269858776e+00 -1.430245921663e+02 0.0 
0.0 0.0 -5.836527158585e+01 
-4.565838546066e+01 -1.351266463336e+00 0.0 
-1.351266463336e+00 -1.234035533341e+02 0.0 
0.0 0.0 -5.031858163843e+01 
-4.241173625151e+01 -1.596337118501e+00 0.0 
-1.596337118501e+00 -1.148004063791e+02 0.0 
0.0 0.0 -4.676364278919e+01 
-3.864980845312e+01 -1.559054277700e+00 0.0 
-1.559054277700e+00 -1.037450554994e+02 0.0 
0.0 0.0 -4.231845918576e+01 
-8.355295633887e+01 4.991368041130e+00 0.0 
4.991368041130e+00 -1.665665375687e+02 0.0 
0.0 0.0 -7.463584817228e+01 
-9.115503661817e+01 5.903674272474e+00 0.0 
5.903674272474e+00 -1.863810512250e+02 0.0 
0.0 0.0 -8.286082635296e+01 
-8.669065882814e+01 4.757065286783e+00 0.0 
4.757065286783e+00 -1.759925980328e+02 0.0 
0.0 0.0 -7.840497705828e+01 
-9.447095829695e+01 5.756258142605e+00 0.0 
5.756258142605e+00 -1.963675861246e+02 0.0 
0.0 0.0 -8.685156332647e+01 
-9.026595137625e+01 4.680320103617e+00 0.0 
4.680320103617e+00 -1.865006890053e+02 0.0 
0.0 0.0 -8.262999211446e+01 
-4.181432716622e+01 -1.283323096142e+00 0.0 
-1.283323096142e+00 -1.123147644383e+02 0.0 
0.0 0.0 -4.583872748135e+01 
-1.000430227531e+02 1.023036513287e+01 0.0 
1.023036513287e+01 -2.082560333400e+02 0.0 
0.0 0.0 -9.208971682792e+01 
-9.863337356447e+01 6.918623392707e+00 0.0 
6.918623392707e+00 -2.064515583337e+02 0.0 
0.0 0.0 -9.112547956946e+01 
-7.370811052059e+01 1.346556415959e+01 0.0 
1.346556415959e+01 -1.469411337778e+02 0.0 
0.0 0.0 -6.579477328952e+01 
-6.346644662852e+01 1.697969332692e+01 0.0 
1.697969332692e+01 -1.433668759695e+02 0.0 
0.0 0.0 -6.164999677939e+01 
-7.675421220864e+01 1.072913933938e+01 0.0 
1.072913933938e+01 -2.085087772270e+02 0.0 
0.0 0.0 -8.517889683068e+01 
-6.020929367336e+01 -6.702641124329e-01 0.0 
-6.702641124329e-01 -1.625499497079e+02 0.0 
0.0 0.0 -6.642777301439e+01 
-5.634825848665e+01 -8.387882492816e-01 0.0 
-8.387882492816e-01 -1.517004741235e+02 0.0 
0.0 0.0 -6.201461978304e+01 
-6.378117784801e+01 -4.529478182378e-01 0.0 
-4.529478182378e-01 -1.712463023512e+02 0.0 
0.0 0.0 -7.010824405977e+01 
-8.300350257993e+01 2.881421522040e+00 0.0 
2.881421522040e+00 -2.246682629684e+02 0.0 
0.0 0.0 -9.190152966448e+01 
-8.731026604609e+01 2.728540864613e+00 0.0 
2.728540864613e+00 -2.337253042153e+02 0.0 
0.0 0.0 -9.591067107841e+01 
-9.132387853629e+01 3.696637785506e+00 0.0 
3.696637785506e+00 -2.434814581439e+02 0.0 
0.0 0.0 -1.000416010041e+02 
-9.576566133748e+01 3.499048917950e+00 0.0 
3.499048917950e+00 -2.526031170869e+02 0.0 
0.0 0.0 -1.041106335273e+02 
-9.996985936810e+01 4.499013405977e+00 0.0 
4.499013405977e+00 -2.622960861822e+02 0.0 
0.0 0.0 -1.082797836651e+02 
-1.045332782270e+02 4.251443402919e+00 0.0 
4.251443402919e+00 -2.714615984632e+02 0.0 
0.0 0.0 -1.123984630070e+02 
-1.002110056379e+02 3.317828994782e+00 0.0 
3.317828994782e+00 -2.616153617205e+02 0.0 
0.0 0.0 -1.081479102075e+02 
-1.090977268137e+02 4.015575309176e+00 0.0 
4.015575309176e+00 -2.805094169821e+02 0.0 
0.0 0.0 -1.164821431387e+02 
-1.046562853060e+02 3.138926318055e+00 0.0 
3.138926318055e+00 -2.705328993828e+02 0.0 
0.0 0.0 -1.121567554066e+02 
-1.089287715164e+02 5.277604765679e+00 0.0 
5.277604765679e+00 -2.810957520458e+02 0.0 
0.0 0.0 -1.166073570687e+02 
-1.042295676425e+02 5.588576360253e+00 0.0 
5.588576360253e+00 -2.717227708788e+02 0.0 
0.0 0.0 -1.123857015564e+02 
-1.136585751686e+02 3.774922119000e+00 0.0 
3.774922119000e+00 -2.894451236150e+02 0.0 
0.0 0.0 -1.205311096351e+02 
-1.090962503498e+02 2.944760372175e+00 0.0 
2.944760372175e+00 -2.793576393565e+02 0.0 
0.0 0.0 -1.161361669119e+02 
-1.182173191514e+02 3.512054565015e+00 0.0 
3.512054565015e+00 -2.982814851608e+02 0.0 
0.0 0.0 -1.245496412937e+02 
-1.135294025330e+02 2.727150341831e+00 0.0 
2.727150341831e+00 -2.880982507153e+02 0.0 
0.0 0.0 -1.200882959745e+02 
-1.045656321680e+02 2.210225757268e+00 0.0 
2.210225757268e+00 -2.690760074451e+02 0.0 
0.0 0.0 -1.116924918840e+02 
-1.088629299335e+02 2.034051753602e+00 0.0 
2.034051753602e+00 -2.777283575151e+02 0.0 
0.0 0.0 -1.155773862346e+02 
-1.000899193496e+02 1.587089849957e+00 0.0 
1.587089849957e+00 -2.587039631283e+02 0.0 
0.0 0.0 -1.072381647434e+02 
-8.097990572772e+01 9.905898996031e+00 0.0 
9.905898996031e+00 -2.194824937696e+02 0.0 
0.0 0.0 -8.973871984918e+01 
-8.513203287340e+01 1.129768425726e+01 0.0 
1.129768425726e+01 -2.266241619136e+02 0.0 
0.0 0.0 -9.312685843609e+01 
-8.945637862805e+01 1.055488411988e+01 0.0 
1.055488411988e+01 -2.376592283318e+02 0.0 
0.0 0.0 -9.773468208795e+01 
-9.375001173649e+01 1.186589166859e+01 0.0 
1.186589166859e+01 -2.448965251473e+02 0.0 
0.0 0.0 -1.011939610652e+02 
-9.819418981935e+01 1.121148937759e+01 0.0 
1.121148937759e+01 -2.559757208081e+02 0.0 
0.0 0.0 -1.058509731882e+02 
-1.025858005003e+02 1.246194158701e+01 0.0 
1.246194158701e+01 -2.632942516589e+02 0.0 
0.0 0.0 -1.093640156477e+02 
-1.071611945875e+02 1.189488197130e+01 0.0 
1.189488197130e+01 -2.743693530188e+02 0.0 
0.0 0.0 -1.140591642819e+02 
-1.027629843472e+02 1.061437545149e+01 0.0 
1.061437545149e+01 -2.667598593185e+02 0.0 
0.0 0.0 -1.104568530997e+02 
-1.003500385689e+02 1.208185202298e+01 0.0 
1.208185202298e+01 -2.106725806845e+02 0.0 
0.0 0.0 -9.290678577601e+01 
-5.342857576892e+01 8.811497907134e+00 0.0 
8.811497907134e+00 -1.551623624222e+02 0.0 
0.0 0.0 -6.217728145733e+01 
-4.958759829970e+01 9.971950001482e+00 0.0 
9.971950001482e+00 -1.440865741388e+02 0.0 
0.0 0.0 -5.770225173155e+01 
-4.642486030377e+01 8.039167439935e+00 0.0 
8.039167439935e+00 -1.376741465105e+02 0.0 
0.0 0.0 -5.482970204429e+01 
-4.272468895811e+01 9.250831188367e+00 0.0 
9.250831188367e+00 -1.267024046815e+02 0.0 
0.0 0.0 -5.042812809189e+01 
-3.993690037120e+01 7.192021479945e+00 0.0 
7.192021479945e+00 -1.203000345978e+02 0.0 
0.0 0.0 -4.767108049070e+01 
-3.645328759019e+01 8.447036107218e+00 0.0 
8.447036107218e+00 -1.094525750432e+02 0.0 
0.0 0.0 -4.337175879002e+01 
-3.405733546393e+01 6.302739224102e+00 0.0 
6.302739224102e+00 -1.029591247379e+02 0.0 
0.0 0.0 -4.070493806056e+01 
-3.743416653673e+01 5.157433260079e+00 0.0 
5.157433260079e+00 -1.132511836137e+02 0.0 
0.0 0.0 -4.480560504512e+01 
-3.193191028784e+01 4.239020424592e+00 0.0 
4.239020424592e+00 -9.574475355653e+01 0.0 
0.0 0.0 -3.790299915331e+01 
-3.516105717017e+01 3.239948121644e+00 0.0 
3.239948121644e+00 -1.055190644736e+02 0.0 
0.0 0.0 -4.180403649313e+01 
-2.997681555104e+01 2.342439432801e+00 0.0 
2.342439432801e+00 -8.778630993054e+01 0.0 
0.0 0.0 -3.492893764447e+01 
-3.300641873418e+01 1.521665336601e+00 0.0 
1.521665336601e+00 -9.705282341276e+01 0.0 
0.0 0.0 -3.861777264408e+01 
-8.733331313958e+01 1.638235752813e+01 0.0 
1.638235752813e+01 -2.006696036686e+02 0.0 
0.0 0.0 -8.600087504245e+01 
-9.814708184676e+01 1.307331618327e+01 0.0 
1.307331618327e+01 -2.518826395509e+02 0.0 
0.0 0.0 -1.046089164193e+02 
-1.070669502321e+02 1.361515700208e+01 0.0 
1.361515700208e+01 -2.704153428126e+02 0.0 
0.0 0.0 -1.128446879134e+02 
-1.025898329683e+02 1.415009969949e+01 0.0 
1.415009969949e+01 -2.586032892610e+02 0.0 
0.0 0.0 -1.079579366688e+02 
-3.553437424882e+01 -1.773229456421e+00 0.0 
-1.773229456421e+00 -9.517295162058e+01 0.0 
0.0 0.0 -3.881219776082e+01 
-1.179544873151e+02 2.474306865195e+00 0.0 
2.474306865195e+00 -2.967729546815e+02 0.0 
0.0 0.0 -1.240182325990e+02 
-1.133946651132e+02 6.391721147371e+00 0.0 
6.391721147371e+00 -2.904925105080e+02 0.0 
0.0 0.0 -1.207661526864e+02 
-1.085495310829e+02 6.747905684824e+00 0.0 
6.747905684824e+00 -2.808492313468e+02 0.0 
0.0 0.0 -1.164196287289e+02 
-1.118920160820e+02 1.136160523445e+01 0.0 
1.136160523445e+01 -2.852026082833e+02 0.0 
0.0 0.0 -1.187283873096e+02 
-3.483219584033e+01 -1.413406311195e+00 0.0 
-1.413406311195e+00 -9.278100061005e+01 0.0 
0.0 0.0 -3.788395893511e+01 
-3.091858370732e+01 7.626373969100e+00 0.0 
7.626373969100e+00 -9.232315792802e+01 0.0 
0.0 0.0 -3.657252249060e+01 
-3.312881417936e+01 9.820351180386e+00 0.0 
9.820351180386e+00 -9.800977924474e+01 0.0 
0.0 0.0 -3.894157802723e+01 
-9.778516547955e+01 5.620467850774e+00 0.0 
5.620467850774e+00 -2.065062842715e+02 0.0 
0.0 0.0 -9.088743492530e+01 
-9.367541253090e+01 4.600815266922e+00 0.0 
4.600815266922e+00 -1.967458499249e+02 0.0 
0.0 0.0 -8.672637873675e+01 
-1.179556153570e+02 7.567279661237e+00 0.0 
7.567279661237e+00 -2.996662143267e+02 0.0 
0.0 0.0 -1.248865489051e+02 
-3.796276335651e+01 -1.170416703865e+00 0.0 
-1.170416703865e+00 -1.013312564947e+02 0.0 
0.0 0.0 -4.138820595538e+01 
-1.182806690978e+02 4.692750275130e+00 0.0 
4.692750275130e+00 -2.993578072713e+02 0.0 
0.0 0.0 -1.248915429107e+02 
-2.717093111411e+01 3.355978777988e+00 0.0 
3.355978777988e+00 -7.828386789818e+01 0.0 
0.0 0.0 -3.123643970369e+01 
-1.131600233837e+02 1.816260783587e+00 0.0 
1.816260783587e+00 -2.863327202899e+02 0.0 
0.0 0.0 -1.194478231021e+02 
-1.223446029131e+02 2.180274989891e+00 0.0 
2.180274989891e+00 -3.053720004042e+02 0.0 
0.0 0.0 -1.279149809952e+02 
-9.596016864412e+01 2.486029248309e+00 0.0 
2.486029248309e+00 -2.515971809195e+02 0.0 
0.0 0.0 -1.038672048691e+02 
-1.115889529079e+02 1.466684649451e+01 0.0 
1.466684649451e+01 -2.773698917373e+02 0.0 
0.0 0.0 -1.162876533936e+02 
-1.070546335946e+02 1.507686391819e+01 0.0 
1.507686391819e+01 -2.651592329318e+02 0.0 
0.0 0.0 -1.112641599579e+02 
-3.857336107846e+01 2.456515570560e+00 0.0 
2.456515570560e+00 -1.151004588558e+02 0.0 
0.0 0.0 -4.570214598029e+01 
-3.619420047237e+01 9.786155321914e-01 0.0 
9.786155321914e-01 -1.062610590637e+02 0.0 
0.0 0.0 -4.233657786082e+01 
-3.095888912831e+01 1.536117544247e-01 0.0 
1.536117544247e-01 -8.831644960390e+01 0.0 
0.0 0.0 -3.538260161966e+01 
-3.423979723064e+01 -2.672735762123e-01 0.0 
-2.672735762123e-01 -9.763410692690e+01 0.0 
0.0 0.0 -3.916217124726e+01 
-3.956568294659e+01 5.031194844041e-01 0.0 
5.031194844041e-01 -1.155421222734e+02 0.0 
0.0 0.0 -4.613234156601e+01 
-3.704685548183e+01 -6.497781360950e-01 0.0 
-6.497781360950e-01 -1.058313366944e+02 0.0 
0.0 0.0 -4.246345765288e+01 
-3.166842274719e+01 -1.351887105924e+00 0.0 
-1.351887105924e+00 -8.746412068797e+01 0.0 
0.0 0.0 -3.533976303055e+01 
-3.442830043597e+01 -1.453752094027e+00 0.0 
-1.453752094027e+00 -9.572285040865e+01 0.0 
0.0 0.0 -3.864534525339e+01 
-4.019084589780e+01 -8.283737983093e-01 0.0 
-8.283737983093e-01 -1.144537292122e+02 0.0 
0.0 0.0 -4.599337253301e+01 
-3.735094233623e+01 -1.531587830855e+00 0.0 
-1.531587830855e+00 -1.041573198910e+02 0.0 
0.0 0.0 -4.205247866817e+01 
-3.167383650757e+01 -1.972496808081e+00 0.0 
-1.972496808081e+00 -8.510970152877e+01 0.0 
0.0 0.0 -3.463506141090e+01 
-3.432415476888e+01 -1.950912261737e+00 0.0 
-1.950912261737e+00 -9.345559841641e+01 0.0 
0.0 0.0 -3.793392595559e+01 
-1.272746081495e+02 2.880243793120e+00 0.0 
2.880243793120e+00 -3.156934450081e+02 0.0 
0.0 0.0 -1.324904159473e+02 
-2.557952113879e+01 1.536932387638e+00 0.0 
1.536932387638e+00 -7.005136760737e+01 0.0 
0.0 0.0 -2.828926662385e+01 
-7.771222203249e+01 9.671270360036e+00 0.0 
9.671270360036e+00 -1.502598572987e+02 0.0 
0.0 0.0 -6.799162379936e+01 
-1.228619681003e+02 7.166408004506e+00 0.0 
7.166408004506e+00 -3.092187271350e+02 0.0 
0.0 0.0 -1.292242085706e+02 
-1.162971531660e+02 1.261352482691e+01 0.0 
1.261352482691e+01 -2.926472750246e+02 0.0 
0.0 0.0 -1.222833284572e+02 
-1.011028162491e+02 5.472456107201e+00 0.0 
5.472456107201e+00 -2.167910177011e+02 0.0 
0.0 0.0 -9.496815018506e+01 
-9.708821265862e+01 4.505283487272e+00 0.0 
4.505283487272e+00 -2.071588880439e+02 0.0 
0.0 0.0 -9.087413021076e+01 
-8.946064434922e+01 3.646471484499e+00 0.0 
3.646471484499e+00 -1.871220064734e+02 0.0 
0.0 0.0 -8.257479524679e+01 
-9.301393455170e+01 3.616117161163e+00 0.0 
3.616117161163e+00 -1.977286572647e+02 0.0 
0.0 0.0 -8.682277754493e+01 
-1.005056344016e+02 4.399737120181e+00 0.0 
4.399737120181e+00 -2.177555296732e+02 0.0 
0.0 0.0 -9.507834922243e+01 
-9.656002790698e+01 3.555308440842e+00 0.0 
3.555308440842e+00 -2.083804306767e+02 0.0 
0.0 0.0 -9.108213757511e+01 
-8.890798531192e+01 2.850903938420e+00 0.0 
2.850903938420e+00 -1.884136015252e+02 0.0 
0.0 0.0 -8.279647605112e+01 
-9.259780290216e+01 2.817898895674e+00 0.0 
2.817898895674e+00 -1.990855298468e+02 0.0 
0.0 0.0 -8.710499982468e+01 
-8.482778260571e+01 2.192150566113e+00 0.0 
2.192150566113e+00 -1.791662864539e+02 0.0 
0.0 0.0 -7.879822071788e+01 
-8.862900469008e+01 2.180086248546e+00 0.0 
2.180086248546e+00 -1.898903080310e+02 0.0 
0.0 0.0 -8.315579381633e+01 
-9.629539624878e+01 2.747266955796e+00 0.0 
2.747266955796e+00 -2.098134973633e+02 0.0 
0.0 0.0 -9.143266808363e+01 
-9.243895585905e+01 2.149983899230e+00 0.0 
2.149983899230e+00 -2.006925344695e+02 0.0 
0.0 0.0 -8.753944709858e+01 
-8.464930665652e+01 1.635619334195e+00 0.0 
1.635619334195e+00 -1.808265056643e+02 0.0 
0.0 0.0 -7.924274369626e+01 
-8.857205883081e+01 1.641318876753e+00 0.0 
1.641318876753e+00 -1.916260004734e+02 0.0 
0.0 0.0 -8.365941779127e+01 
-8.067639892634e+01 1.204182628202e+00 0.0 
1.204182628202e+00 -1.717832488501e+02 0.0 
0.0 0.0 -7.533789433293e+01 
-8.472212439422e+01 1.231864254495e+00 0.0 
1.231864254495e+00 -1.825165625720e+02 0.0 
0.0 0.0 -7.977160608985e+01 
-9.251635423323e+01 1.556540000769e+00 0.0 
1.556540000769e+00 -2.024783812345e+02 0.0 
0.0 0.0 -8.809842064033e+01 
-3.124651685083e+01 -1.219399751339e+00 0.0 
-1.219399751339e+00 -8.231042592765e+01 0.0 
0.0 0.0 -3.366708283354e+01 
-1.074529420001e+02 1.007035643223e+01 0.0 
1.007035643223e+01 -2.773020274675e+02 0.0 
0.0 0.0 -1.150264908403e+02 
-1.168032293917e+02 1.085660969221e+01 0.0 
1.085660969221e+01 -2.959080813407e+02 0.0 
0.0 0.0 -1.234133932197e+02 
-5.997947988612e+01 -5.131783376992e-01 0.0 
-5.131783376992e-01 -1.609380761861e+02 0.0 
0.0 0.0 -6.587526682166e+01 
-6.727199700695e+01 -2.224379433492e-01 0.0 
-2.224379433492e-01 -1.796897227848e+02 0.0 
0.0 0.0 -7.368851593752e+01 
-7.141011874583e+01 -1.390043370640e-01 0.0 
-1.390043370640e-01 -1.906694197283e+02 0.0 
0.0 0.0 -7.822386154223e+01 
-7.524871063575e+01 2.676941628784e-03 0.0 
2.676941628784e-03 -1.994720653773e+02 0.0 
0.0 0.0 -8.201623280391e+01 
-8.871776948923e+01 1.152350418463e+00 0.0 
1.152350418463e+00 -1.932669535524e+02 0.0 
0.0 0.0 -8.419541691249e+01 
-9.639214440286e+01 1.402084829511e+00 0.0 
1.402084829511e+00 -2.133532534305e+02 0.0 
0.0 0.0 -9.252361935002e+01 
-2.801013419558e+01 9.082312272989e+00 0.0 
9.082312272989e+00 -8.109031222330e+01 0.0 
0.0 0.0 -3.233013392566e+01 
-3.002512496900e+01 1.123098386523e+01 0.0 
1.123098386523e+01 -8.590186861537e+01 0.0 
0.0 0.0 -3.437809807531e+01 
-1.050411949532e+02 6.527202985984e+00 0.0 
6.527202985984e+00 -2.266185295380e+02 0.0 
0.0 0.0 -9.909791734734e+01 
-1.174432857383e+02 1.568636865879e+00 0.0 
1.568636865879e+00 -2.949326640565e+02 0.0 
0.0 0.0 -1.233127849384e+02 
-1.084300154468e+02 1.255363172639e+00 0.0 
1.255363172639e+00 -2.758493904326e+02 0.0 
0.0 0.0 -1.148838217638e+02 
-5.877121948402e+01 1.702246726293e+01 0.0 
1.702246726293e+01 -1.387883267682e+02 0.0 
0.0 0.0 -5.886786387565e+01 
-5.549273835244e+01 1.722194496104e+01 0.0 
1.722194496104e+01 -1.242631284674e+02 0.0 
0.0 0.0 -5.352676004594e+01 
-5.087455484069e+01 1.719409664959e+01 0.0 
1.719409664959e+01 -1.201397780920e+02 0.0 
0.0 0.0 -5.090429987982e+01 
-4.741768944644e+01 1.735441338063e+01 0.0 
1.735441338063e+01 -1.048088459676e+02 0.0 
0.0 0.0 -4.526796062421e+01 
-5.213200676851e+01 1.690769081908e+01 0.0 
1.690769081908e+01 -1.090836540956e+02 0.0 
0.0 0.0 -4.796469825924e+01 
-4.300107653120e+01 1.720705051994e+01 0.0 
1.720705051994e+01 -1.011095131078e+02 0.0 
0.0 0.0 -4.283317689171e+01 
-9.946073718547e+01 5.903551838941e+00 0.0 
5.903551838941e+00 -2.620181201842e+02 0.0 
0.0 0.0 -1.080436572109e+02 
-1.000088982913e+02 2.648737145452e+00 0.0 
2.648737145452e+00 -2.206475353777e+02 0.0 
0.0 0.0 -9.579693010068e+01 
-3.926454411631e+01 -1.826450196939e+00 0.0 
-1.826450196939e+00 -1.062886758920e+02 0.0 
0.0 0.0 -4.326596600250e+01 
-3.262741281709e+01 -1.964105044195e+00 0.0 
-1.964105044195e+00 -8.674311572929e+01 0.0 
0.0 0.0 -3.541115856392e+01 
-1.266884693476e+02 1.849634112574e+00 0.0 
1.849634112574e+00 -3.139590567857e+02 0.0 
0.0 0.0 -1.317942578400e+02 
-9.841687069532e+01 9.288926504887e+00 0.0 
9.288926504887e+00 -2.588385674040e+02 0.0 
0.0 0.0 -1.067766314298e+02 
-9.180994954983e+01 1.615073187969e+01 0.0 
1.615073187969e+01 -2.066999803752e+02 0.0 
0.0 0.0 -8.915297897750e+01 
-9.530500506006e+01 1.637201043393e+01 0.0 
1.637201043393e+01 -2.198573602049e+02 0.0 
0.0 0.0 -9.414870957948e+01 
-9.967853693872e+01 1.624806194347e+01 0.0 
1.624806194347e+01 -2.261726460184e+02 0.0 
0.0 0.0 -9.735535488713e+01 
-1.033127160163e+02 1.649936652822e+01 0.0 
1.649936652822e+01 -2.391605601026e+02 0.0 
0.0 0.0 -1.023419828357e+02 
-1.075375351379e+02 1.649598120055e+01 0.0 
1.649598120055e+01 -2.457001475075e+02 0.0 
0.0 0.0 -1.055713047936e+02 
-1.112917703233e+02 1.680777656217e+01 0.0 
1.680777656217e+01 -2.584619194405e+02 0.0 
0.0 0.0 -1.105261069291e+02 
-1.070856600611e+02 1.660025440392e+01 0.0 
1.660025440392e+01 -2.520314513195e+02 0.0 
0.0 0.0 -1.073351334142e+02 
-1.160864676407e+02 1.561063291532e+01 0.0 
1.561063291532e+01 -2.841621393002e+02 0.0 
0.0 0.0 -1.196745820823e+02 
-1.152393223313e+02 1.702308309832e+01 0.0 
1.702308309832e+01 -2.711773681654e+02 0.0 
0.0 0.0 -1.155250071490e+02 
-8.085514865530e+01 8.081856963758e-01 0.0 
8.081856963758e-01 -1.731334359182e+02 0.0 
0.0 0.0 -7.579657537205e+01 
-9.374800965245e+01 1.370119273385e+01 0.0 
1.370119273385e+01 -2.399468714988e+02 0.0 
0.0 0.0 -9.970846434538e+01 
-4.345773963974e+01 -9.233914038604e-01 0.0 
-9.233914038604e-01 -1.231394614773e+02 0.0 
0.0 0.0 -4.957916033511e+01 
-2.791620491157e+01 -1.354764209967e+00 0.0 
-1.354764209967e+00 -7.349364359569e+01 0.0 
0.0 0.0 -3.002295455218e+01 
-2.832674236649e+01 -2.200491020258e+00 0.0 
-2.200491020258e+00 -7.372397857027e+01 0.0 
0.0 0.0 -3.021521628103e+01 
-3.389278064538e+01 -1.030200254407e+00 0.0 
-1.030200254407e+00 -9.004787767978e+01 0.0 
0.0 0.0 -3.678219749755e+01 
-4.111775595113e+01 -9.508671846214e-01 0.0 
-9.508671846214e-01 -1.098460817659e+02 0.0 
0.0 0.0 -4.488915131512e+01 
-1.276471116486e+02 8.372094158892e+00 0.0 
8.372094158892e+00 -3.184102711134e+02 0.0 
0.0 0.0 -1.334172148286e+02 
-1.153285829875e+02 1.692360556576e+01 0.0 
1.692360556576e+01 -2.651670589383e+02 0.0 
0.0 0.0 -1.137486925778e+02 
-1.114742777025e+02 1.638533159848e+01 0.0 
1.638533159848e+01 -2.523425631243e+02 0.0 
0.0 0.0 -1.087450522480e+02 
-4.392783637876e+01 1.693012577669e+01 0.0 
1.693012577669e+01 -8.907496627269e+01 0.0 
0.0 0.0 -3.950084079544e+01 
-4.869810382357e+01 1.581270874206e+01 0.0 
1.581270874206e+01 -9.359987830637e+01 0.0 
0.0 0.0 -4.228939463898e+01 
-1.207893689643e+02 1.532588465924e+01 0.0 
1.532588465924e+01 -2.961411523852e+02 0.0 
0.0 0.0 -1.246791564048e+02 
-8.248112187124e+01 3.704533458338e+00 0.0 
3.704533458338e+00 -1.665166152915e+02 0.0 
0.0 0.0 -7.429932114882e+01 
-8.104927789740e+01 2.152980769465e+00 0.0 
2.152980769465e+00 -1.685638120746e+02 0.0 
0.0 0.0 -7.448392699161e+01 
-7.679091183137e+01 1.565891638558e+00 0.0 
1.565891638558e+00 -1.592816225063e+02 0.0 
0.0 0.0 -7.042176030131e+01 
-2.628320665507e+01 -9.429452451246e-01 0.0 
-9.429452451246e-01 -6.874006692442e+01 0.0 
0.0 0.0 -2.810698207384e+01 
-2.631493318771e+01 -2.208986009798e+00 0.0 
-2.208986009798e+00 -6.619431640245e+01 0.0 
0.0 0.0 -2.735277487705e+01 
-1.039606640083e+02 4.244980991407e+00 0.0 
4.244980991407e+00 -2.284341744674e+02 0.0 
0.0 0.0 -9.931845154271e+01 
-3.565376326717e+01 1.191158428069e+01 0.0 
1.191158428069e+01 -1.028938156997e+02 0.0 
0.0 0.0 -4.116427369005e+01 
-3.242137191060e+01 1.325271933354e+01 0.0 
1.325271933354e+01 -9.002661189241e+01 0.0 
0.0 0.0 -3.633439514090e+01 
-2.319253879394e+01 2.642548850196e+00 0.0 
2.642548850196e+00 -6.063518386608e+01 0.0 
0.0 0.0 -2.474831679801e+01 
-2.186814090588e+01 8.975278986225e-01 0.0 
8.975278986225e-01 -5.212674615845e+01 0.0 
0.0 0.0 -2.179846611930e+01 
-9.270493207077e+01 9.259828236418e-01 0.0 
9.259828236418e-01 -2.038549277889e+02 0.0 
0.0 0.0 -8.856795795789e+01 
-1.002949004026e+02 1.179456587909e+00 0.0 
1.179456587909e+00 -2.238182854861e+02 0.0 
0.0 0.0 -9.683395576661e+01 
-7.939134471238e+01 2.713690181078e-01 0.0 
2.713690181078e-01 -2.101042143995e+02 0.0 
0.0 0.0 -8.644866773357e+01 
-8.322446886014e+01 3.670706935913e-01 0.0 
3.670706935913e-01 -2.188211460029e+02 0.0 
0.0 0.0 -9.021368445890e+01 
-1.226346137031e+02 8.797948431518e+00 0.0 
8.797948431518e+00 -3.086544869626e+02 0.0 
0.0 0.0 -1.289867301997e+02 
-3.115411450086e+01 -2.160486729010e+00 0.0 
-2.160486729010e+00 -8.259107658292e+01 0.0 
0.0 0.0 -3.372355732513e+01 
-1.040084101802e+02 1.706485009509e+00 0.0 
1.706485009509e+00 -2.333861459391e+02 0.0 
0.0 0.0 -1.008183668358e+02 
-1.030707932769e+02 8.764254963700e+00 0.0 
8.764254963700e+00 -2.691236473224e+02 0.0 
0.0 0.0 -1.112583321798e+02 
-9.418261165886e+01 7.953931768535e+00 0.0 
7.953931768535e+00 -2.506336213187e+02 0.0 
0.0 0.0 -1.030448698933e+02 
-7.107924702020e+01 -2.226068818168e-01 0.0 
-2.226068818168e-01 -1.883880028314e+02 0.0 
0.0 0.0 -7.744017495547e+01 
-2.541993000154e+01 1.057821075167e+01 0.0 
1.057821075167e+01 -6.918231978328e+01 0.0 
0.0 0.0 -2.798067493545e+01 
-2.380895881915e+01 8.423569676227e+00 0.0 
8.423569676227e+00 -6.444333013044e+01 0.0 
0.0 0.0 -2.607568668488e+01 
-4.636779084031e+01 -8.729102811660e-02 0.0 
-8.729102811660e-02 -1.331639899094e+02 0.0 
0.0 0.0 -5.345953422492e+01 
-3.727270898514e+01 -1.913060350556e+00 0.0 
-1.913060350556e+00 -1.020099766948e+02 0.0 
0.0 0.0 -4.138480570397e+01 
-3.704545216667e+01 -7.483925858150e-01 0.0 
-7.483925858150e-01 -9.859267428346e+01 0.0 
0.0 0.0 -4.029143793504e+01 
-1.324543856333e+02 9.617652246327e+00 0.0 
9.617652246327e+00 -3.272951209988e+02 0.0 
0.0 0.0 -1.375248519896e+02 
-1.077239576136e+02 5.113500880295e+00 0.0 
5.113500880295e+00 -2.377678728374e+02 0.0 
0.0 0.0 -1.032475491353e+02 
-1.110878068004e+02 1.664620174609e+01 0.0 
1.664620174609e+01 -2.647405665662e+02 0.0 
0.0 0.0 -1.123485120100e+02 
-1.026576270905e+02 1.629376222711e+01 0.0 
1.629376222711e+01 -2.456439959032e+02 0.0 
0.0 0.0 -1.040904868981e+02 
-1.196215166176e+02 1.714383914303e+01 0.0 
1.714383914303e+01 -2.839089688500e+02 0.0 
0.0 0.0 -1.206591456403e+02 
-2.551279061179e+01 -2.184557051116e+00 0.0 
-2.184557051116e+00 -6.319635923476e+01 0.0 
0.0 0.0 -2.621274495396e+01 
-1.327494027506e+02 7.942953366577e+00 0.0 
7.942953366577e+00 -3.281815531842e+02 0.0 
0.0 0.0 -1.378792867804e+02 
-1.216910829280e+02 1.271352075279e+00 0.0 
1.271352075279e+00 -3.035463260428e+02 0.0 
0.0 0.0 -1.271712226912e+02 
-1.186850669547e+02 1.686233000579e+01 0.0 
1.686233000579e+01 -2.711727923906e+02 0.0 
0.0 0.0 -1.165573578036e+02 
-1.151851137966e+02 1.621117974929e+01 0.0 
1.621117974929e+01 -2.593039180982e+02 0.0 
0.0 0.0 -1.119467095684e+02 
-3.855476678653e+01 1.379945740467e+01 0.0 
1.379945740467e+01 -1.071492889408e+02 0.0 
0.0 0.0 -4.331121671821e+01 
-3.533424076123e+01 1.501589678394e+01 0.0 
1.501589678394e+01 -9.378824141549e+01 0.0 
0.0 0.0 -3.833674465301e+01 
-2.940627947294e+01 1.443228997546e+01 0.0 
1.443228997546e+01 -7.638030661899e+01 0.0 
0.0 0.0 -3.133597582758e+01 
-3.205580086883e+01 1.592027391490e+01 0.0 
1.592027391490e+01 -7.940365554485e+01 0.0 
0.0 0.0 -3.303783692410e+01 
-7.702150203743e+01 7.246525977191e+00 0.0 
7.246525977191e+00 -1.479181199449e+02 0.0 
0.0 0.0 -6.708188659469e+01 
-4.207715772586e+01 1.540613580233e+01 0.0 
1.540613580233e+01 -1.113043721070e+02 0.0 
0.0 0.0 -4.561445894985e+01 
-7.390874007577e+01 1.063090825773e+01 0.0 
1.063090825773e+01 -1.418638547973e+02 0.0 
0.0 0.0 -6.433177846192e+01 
-6.970643847860e+01 8.746774264076e+00 0.0 
8.746774264076e+00 -1.300338754836e+02 0.0 
0.0 0.0 -5.952209418865e+01 
-6.589090561103e+01 9.776747312962e+00 0.0 
9.776747312962e+00 -1.215858845456e+02 0.0 
0.0 0.0 -5.584303704699e+01 
-5.684954326956e+01 1.587449676314e+01 0.0 
1.587449676314e+01 -1.139096078664e+02 0.0 
0.0 0.0 -5.082774534079e+01 
-5.333010306926e+01 1.423781268087e+01 0.0 
1.423781268087e+01 -9.918659603278e+01 0.0 
0.0 0.0 -4.535500973061e+01 
-4.580202501163e+01 1.122845615932e+01 0.0 
1.122845615932e+01 -1.324260154452e+02 0.0 
0.0 0.0 -5.306841213704e+01 
-8.089767582367e+01 1.211071104027e+01 0.0 
1.211071104027e+01 -2.152039351035e+02 0.0 
0.0 0.0 -8.843048327816e+01 
-7.550088414500e+01 1.762140018352e-01 0.0 
1.762140018352e-01 -2.014459717571e+02 0.0 
0.0 0.0 -8.268405677063e+01 
-9.593047931899e+01 1.687521004175e+00 0.0 
1.687521004175e+00 -2.500846939923e+02 0.0 
0.0 0.0 -1.034045519934e+02 
-8.688036857423e+01 3.920831273332e+00 0.0 
3.920831273332e+00 -2.342039711793e+02 0.0 
0.0 0.0 -9.592530192607e+01 
-1.036817375203e+02 3.301446367355e+00 0.0 
3.301446367355e+00 -2.297039302513e+02 0.0 
0.0 0.0 -9.961570033145e+01 
-1.073397906894e+02 3.129157906749e+00 0.0 
3.129157906749e+00 -2.406755602695e+02 0.0 
0.0 0.0 -1.040046052877e+02 
-7.666152306192e+01 1.139281458690e+00 0.0 
1.139281458690e+00 -1.610133030615e+02 0.0 
0.0 0.0 -7.090244783702e+01 
-7.270692775725e+01 8.018210934245e-01 0.0 
8.018210934245e-01 -1.519238474654e+02 0.0 
0.0 0.0 -6.698923256680e+01 
-2.882821587271e+01 -1.792040049842e+00 0.0 
-1.792040049842e+00 -7.551255498025e+01 0.0 
0.0 0.0 -3.090223125589e+01 
-2.608460055096e+01 -1.944783769784e+00 0.0 
-1.944783769784e+00 -6.713616729753e+01 0.0 
0.0 0.0 -2.756623035455e+01 
-8.335587076107e+01 1.877337056902e+00 0.0 
1.877337056902e+00 -2.237512122912e+02 0.0 
0.0 0.0 -9.173212491569e+01 
-1.277294927793e+02 6.754599414615e+00 0.0 
6.754599414615e+00 -3.185465591164e+02 0.0 
0.0 0.0 -1.334828155687e+02 
-1.081161987042e+02 6.270214008245e+00 0.0 
6.270214008245e+00 -2.366910526003e+02 0.0 
0.0 0.0 -1.030421753913e+02 
-1.118802379969e+02 7.389853902971e+00 0.0 
7.389853902971e+00 -2.466155851874e+02 0.0 
0.0 0.0 -1.071487469553e+02 
-1.088788485126e+02 7.674489112071e+00 0.0 
7.674489112071e+00 -2.365351553126e+02 0.0 
0.0 0.0 -1.032242011476e+02 
-1.272612686670e+02 1.006161261582e+01 0.0 
1.006161261582e+01 -3.171454755639e+02 0.0 
0.0 0.0 -1.329220232693e+02 
-5.023432192921e+01 6.968854666076e+00 0.0 
6.968854666076e+00 -1.482448786553e+02 0.0 
0.0 0.0 -5.914376017534e+01 
-8.529650898043e+01 9.172129227907e+00 0.0 
9.172129227907e+00 -2.301335139193e+02 0.0 
0.0 0.0 -9.422900686991e+01 
-2.402828257880e+01 1.333823168524e-01 0.0 
1.333823168524e-01 -6.118636018209e+01 0.0 
0.0 0.0 -2.516439282827e+01 
-8.623720703085e+01 1.611702755620e+01 0.0 
1.611702755620e+01 -2.080562248605e+02 0.0 
0.0 0.0 -8.788802956740e+01 
-2.227919991968e+01 -1.638143455378e+00 0.0 
-1.638143455378e+00 -5.603419428686e+01 0.0 
0.0 0.0 -2.309401826196e+01 
-1.004136040860e+02 1.384716677486e+01 0.0 
1.384716677486e+01 -2.145637922408e+02 0.0 
0.0 0.0 -9.409321889806e+01 
-1.311278752022e+02 1.459382174353e+00 0.0 
1.459382174353e+00 -3.225997708177e+02 0.0 
0.0 0.0 -1.357182938060e+02 
-1.361762286299e+02 2.093065476391e+00 0.0 
2.093065476391e+00 -3.328010721780e+02 0.0 
0.0 0.0 -1.402931902424e+02 
-1.251248278954e+02 1.632963631508e+01 0.0 
1.632963631508e+01 -3.028992518072e+02 0.0 
0.0 0.0 -1.280072239108e+02 
-6.439668165354e+01 4.463648952545e+00 0.0 
4.463648952545e+00 -1.182524506620e+02 0.0 
0.0 0.0 -5.439473969465e+01 
-8.988753595238e+01 1.568594276549e+01 0.0 
1.568594276549e+01 -2.208364974114e+02 0.0 
0.0 0.0 -9.281721000913e+01 
-8.540527690983e+01 1.499692456502e+01 0.0 
1.499692456502e+01 -2.150295763538e+02 0.0 
0.0 0.0 -8.973045597908e+01 
-6.145955184134e+01 7.648829516482e+00 0.0 
7.648829516482e+00 -1.099813096749e+02 0.0 
0.0 0.0 -5.103225845488e+01 
-5.758778435065e+01 8.721627567980e+00 0.0 
8.721627567980e+00 -1.013423939640e+02 0.0 
0.0 0.0 -4.727905349441e+01 
-6.191709515858e+01 1.101979886511e+01 0.0 
1.101979886511e+01 -1.135285380811e+02 0.0 
0.0 0.0 -5.223368997190e+01 
-5.362692157647e+01 1.011419494701e+01 0.0 
1.011419494701e+01 -9.313932393346e+01 0.0 
0.0 0.0 -4.362987365298e+01 
-4.984907853663e+01 -2.062092702200e-01 0.0 
-2.062092702200e-01 -1.418129663689e+02 0.0 
0.0 0.0 -5.709861347167e+01 
-4.674390002704e+01 -9.393511025470e-01 0.0 
-9.393511025470e-01 -1.316007177939e+02 0.0 
0.0 0.0 -5.310338534629e+01 
-1.236637588147e+02 1.765015470366e+01 0.0 
1.765015470366e+01 -2.860016156056e+02 0.0 
0.0 0.0 -1.224996123261e+02 
-1.233561823170e+02 1.757835907845e+01 0.0 
1.757835907845e+01 -2.901158014910e+02 0.0 
0.0 0.0 -1.236415951424e+02 
-1.222925831470e+02 1.697828422423e+01 0.0 
1.697828422423e+01 -2.785397581868e+02 0.0 
0.0 0.0 -1.198497024001e+02 
-1.190458158869e+02 1.607854874255e+01 0.0 
1.607854874255e+01 -2.671155738978e+02 0.0 
0.0 0.0 -1.154484169354e+02 
-1.301474417439e+02 1.615564365268e+01 0.0 
1.615564365268e+01 -3.147839951270e+02 0.0 
0.0 0.0 -1.330794310613e+02 
-1.255485800452e+02 1.501870551539e+01 0.0 
1.501870551539e+01 -3.075762421563e+02 0.0 
0.0 0.0 -1.295374466605e+02 
-4.402406665260e+01 -6.486377206771e-01 0.0 
-6.486377206771e-01 -1.178436665632e+02 0.0 
0.0 0.0 -4.816031996475e+01 
-4.502353114790e+01 1.370773163480e+01 0.0 
1.370773163480e+01 -7.843880047627e+01 0.0 
0.0 0.0 -3.663869948725e+01 
-1.111881068277e+02 4.889322854766e+00 0.0 
4.889322854766e+00 -2.484374272569e+02 0.0 
0.0 0.0 -1.074876602254e+02 
-6.520631623211e+01 6.789680592361e+00 0.0 
6.789680592361e+00 -1.188311779872e+02 0.0 
0.0 0.0 -5.481124826579e+01 
-1.375530362743e+02 7.458720264031e+00 0.0 
7.458720264031e+00 -3.370202657192e+02 0.0 
0.0 0.0 -1.419719905981e+02 
-1.326392416553e+02 6.351970462332e+00 0.0 
6.351970462332e+00 -3.277678808847e+02 0.0 
0.0 0.0 -1.377221367620e+02 
-2.079064145095e+01 -2.815929267937e-01 0.0 
-2.815929267937e-01 -4.294264143159e+01 0.0 
0.0 0.0 -1.871998486476e+01 
-2.232492661508e+01 -1.007410941210e+00 0.0 
-1.007410941210e+00 -5.105620598744e+01 0.0 
0.0 0.0 -2.161433978076e+01 
-1.078645693136e+02 1.448089957245e+00 0.0 
1.448089957245e+00 -2.441486416280e+02 0.0 
0.0 0.0 -1.052039632825e+02 
-2.666676648620e+01 1.522735164016e+01 0.0 
1.522735164016e+01 -6.163816254003e+01 0.0 
0.0 0.0 -2.609147870787e+01 
-2.879630049042e+01 1.628276626102e+01 0.0 
1.628276626102e+01 -6.345669781311e+01 0.0 
0.0 0.0 -2.727589949106e+01 
-2.480652371185e+01 1.376073516046e+01 0.0 
1.376073516046e+01 -5.928027287907e+01 0.0 
0.0 0.0 -2.482603897727e+01 
-1.512160900948e+02 5.790069367445e-01 0.0 
5.790069367445e-01 -3.613724441466e+02 0.0 
0.0 0.0 -1.533765602724e+02 
-5.590934814795e+01 3.493495485231e-02 0.0 
3.493495485231e-02 -1.138810491838e+02 0.0 
0.0 0.0 -5.053711919953e+01 
-1.408454549291e+02 1.625837634340e+00 0.0 
1.625837634340e+00 -3.415626788130e+02 0.0 
0.0 0.0 -1.443224401226e+02 
-6.146971088842e+01 1.449348077923e+01 0.0 
1.449348077923e+01 -1.198174450448e+02 0.0 
0.0 0.0 -5.398614677996e+01 
-1.116144826438e+02 1.967812091035e+00 0.0 
1.967812091035e+00 -2.538194681161e+02 0.0 
0.0 0.0 -1.092301852280e+02 
-9.381521128127e+01 1.517813610224e+01 0.0 
1.517813610224e+01 -2.334636530100e+02 0.0 
0.0 0.0 -9.778365928738e+01 
-5.405329270973e+01 1.657214411853e+01 0.0 
1.657214411853e+01 -1.341463487158e+02 0.0 
0.0 0.0 -5.605989242765e+01 
-1.175741298775e+02 9.228089013520e+00 0.0 
9.228089013520e+00 -2.985609409824e+02 0.0 
0.0 0.0 -1.244405212580e+02 
-1.038006639830e+02 1.013670608659e+00 0.0 
1.013670608659e+00 -2.334414869892e+02 0.0 
0.0 0.0 -1.007726452917e+02 
-1.117626317585e+02 1.090907512786e+00 0.0 
1.090907512786e+00 -2.553749117346e+02 0.0 
0.0 0.0 -1.097412630479e+02 
-7.295589321529e+01 1.450869544892e+00 0.0 
1.450869544892e+00 -1.487136858244e+02 0.0 
0.0 0.0 -6.610087371190e+01 
-6.832015682265e+01 1.072368301104e+00 0.0 
1.072368301104e+00 -1.389388395405e+02 0.0 
0.0 0.0 -6.177769890895e+01 
-7.701038738841e+01 2.057959389558e+00 0.0 
2.057959389558e+00 -1.574543842846e+02 0.0 
0.0 0.0 -6.993943150191e+01 
-2.456046423545e+01 4.640404504832e+00 0.0 
4.640404504832e+00 -6.829502007518e+01 0.0 
0.0 0.0 -2.745664529319e+01 
-2.065434109766e+01 4.204518850362e+00 0.0 
4.204518850362e+00 -4.919051433503e+01 0.0 
0.0 0.0 -2.055345662981e+01 
-1.036759537731e+02 2.470447049450e+00 0.0 
2.470447049450e+00 -2.314325914296e+02 0.0 
0.0 0.0 -1.001325635608e+02 
-5.237075466747e+01 -8.495962577473e-01 0.0 
-8.495962577473e-01 -1.408105240523e+02 0.0 
0.0 0.0 -5.755438361593e+01 
-5.641109089977e+01 -6.530566813654e-01 0.0 
-6.530566813654e-01 -1.514787891540e+02 0.0 
0.0 0.0 -6.196696401614e+01 
-3.374823207988e+01 -2.091406209301e+00 0.0 
-2.091406209301e+00 -9.056044850682e+01 0.0 
0.0 0.0 -3.689260417601e+01 
-4.010459108354e+01 -1.820517205604e+00 0.0 
-1.820517205604e+00 -1.098947481613e+02 0.0 
0.0 0.0 -4.459980177344e+01 
-8.350441097828e+01 6.559879588113e-01 0.0 
6.559879588113e-01 -2.206983890652e+02 0.0 
0.0 0.0 -9.086084001304e+01 
-7.953302157729e+01 6.114497551574e-01 0.0 
6.114497551574e-01 -2.120349608224e+02 0.0 
0.0 0.0 -8.707039471991e+01 
-1.041087512863e+02 1.487343255377e+01 0.0 
1.487343255377e+01 -2.270884936091e+02 0.0 
0.0 0.0 -9.895917346861e+01 
-1.077357098860e+02 1.441479004755e+01 0.0 
1.441479004755e+01 -2.345661242943e+02 0.0 
0.0 0.0 -1.022905502541e+02 
-9.611526276194e+01 1.578734947674e+01 0.0 
1.578734947674e+01 -2.130933711809e+02 0.0 
0.0 0.0 -9.236259018284e+01 
-9.881827123280e+01 7.476905748502e+00 0.0 
7.476905748502e+00 -2.606949851978e+02 0.0 
0.0 0.0 -1.074539769292e+02 
-9.009919218477e+01 6.644431577451e+00 0.0 
6.644431577451e+00 -2.421828048044e+02 0.0 
0.0 0.0 -9.928459909677e+01 
-8.565576995903e+01 7.153135904993e+00 0.0 
7.153135904993e+00 -2.323274200837e+02 0.0 
0.0 0.0 -9.499495701281e+01 
-1.106042151452e+02 3.819956689011e+00 0.0 
3.819956689011e+00 -2.492820084094e+02 0.0 
0.0 0.0 -1.075658670664e+02 
-1.150745885700e+02 3.534180667308e+00 0.0 
3.534180667308e+00 -2.625153285948e+02 0.0 
0.0 0.0 -1.128769751494e+02 
-5.286042731720e+01 7.481699118962e-01 0.0 
7.481699118962e-01 -1.515481726622e+02 0.0 
0.0 0.0 -6.092257999381e+01 
-4.921404970557e+01 9.928489494881e-01 0.0 
9.928489494881e-01 -1.427212250022e+02 0.0 
0.0 0.0 -5.718058241233e+01 
-5.329646171129e+01 -2.673518042073e-01 0.0 
-2.673518042073e-01 -1.501535898700e+02 0.0 
0.0 0.0 -6.063501547439e+01 
-1.147412612274e+02 5.774671843472e+00 0.0 
5.774671843472e+00 -2.578615524564e+02 0.0 
0.0 0.0 -1.113808441051e+02 
-1.457623311039e+02 2.264635577081e+00 0.0 
2.264635577081e+00 -3.513912361504e+02 0.0 
0.0 0.0 -1.487460701763e+02 
-1.412325760796e+02 2.835064283072e+00 0.0 
2.835064283072e+00 -3.428427053838e+02 0.0 
0.0 0.0 -1.448225844390e+02 
-1.988286446056e+01 -1.656513823184e+00 0.0 
-1.656513823184e+00 -4.785522369072e+01 0.0 
0.0 0.0 -1.992142644539e+01 
-2.337667388501e+01 -1.955009131211e+00 0.0 
-1.955009131211e+00 -5.858921668213e+01 0.0 
0.0 0.0 -2.418976717014e+01 
-2.196860368564e+01 1.012015580571e+01 0.0 
1.012015580571e+01 -5.285716543498e+01 0.0 
0.0 0.0 -2.204773073619e+01 
-2.076629275664e+01 8.059714306491e+00 0.0 
8.059714306491e+00 -4.862936305726e+01 0.0 
0.0 0.0 -2.041869674417e+01 
-1.153160560677e+02 8.532997171724e+00 0.0 
8.532997171724e+00 -2.562140485146e+02 0.0 
0.0 0.0 -1.110590313747e+02 
-1.127335378528e+02 8.907219954346e+00 0.0 
8.907219954346e+00 -2.469436981319e+02 0.0 
0.0 0.0 -1.075031707954e+02 
-1.189305748543e+02 8.239849671520e+00 0.0 
8.239849671520e+00 -2.680658285920e+02 0.0 
0.0 0.0 -1.156989210339e+02 
-3.954639868259e+01 -5.426630189626e-01 0.0 
-5.426630189626e-01 -1.053491392831e+02 0.0 
0.0 0.0 -4.306866138970e+01 
-1.067537665398e+02 1.607126435127e+01 0.0 
1.607126435127e+01 -2.583844838025e+02 0.0 
0.0 0.0 -1.091414751027e+02 
-1.368510632270e+02 1.092961263762e+01 0.0 
1.092961263762e+01 -3.348551270622e+02 0.0 
0.0 0.0 -1.411118570868e+02 
-1.314764694251e+02 1.137462303812e+01 0.0 
1.137462303812e+01 -3.247140976496e+02 0.0 
0.0 0.0 -1.364571701224e+02 
-1.434315778344e+02 1.058743620143e+01 0.0 
1.058743620143e+01 -3.472910837798e+02 0.0 
0.0 0.0 -1.468167984842e+02 
-1.203133007736e+02 1.650302748826e+01 0.0 
1.650302748826e+01 -2.905674819975e+02 0.0 
0.0 0.0 -1.228642348313e+02 
-1.289618863330e+02 1.720089872382e+01 0.0 
1.720089872382e+01 -3.090071150181e+02 0.0 
0.0 0.0 -1.309907004053e+02 
-1.280132503549e+02 1.778196292424e+01 0.0 
1.778196292424e+01 -3.027001757313e+02 0.0 
0.0 0.0 -1.288140278259e+02 
-1.895454218515e+01 4.298826263744e-01 0.0 
4.298826263744e-01 -3.458160798158e+01 0.0 
0.0 0.0 -1.566084505002e+01 
-1.091389701574e+02 7.910290417551e-01 0.0 
7.910290417551e-01 -2.483434698630e+02 0.0 
0.0 0.0 -1.068447320061e+02 
-6.812181461391e+01 7.213637139649e-01 0.0 
7.213637139649e-01 -1.402863092411e+02 0.0 
0.0 0.0 -6.212243715651e+01 
-1.889948512689e+01 -2.782204456030e-01 0.0 
-2.782204456030e-01 -2.747393998072e+01 0.0 
0.0 0.0 -1.365241832323e+01 
-6.417423275398e+01 4.474157685882e-01 0.0 
4.474157685882e-01 -1.313982562812e+02 0.0 
0.0 0.0 -5.827174671055e+01 
-6.859647445724e+01 5.302281590227e-01 0.0 
5.302281590227e-01 -1.427316179867e+02 0.0 
0.0 0.0 -6.299842773317e+01 
-5.965334337669e+01 2.550386528480e-01 0.0 
2.550386528480e-01 -1.213192471884e+02 0.0 
0.0 0.0 -5.389177716953e+01 
-3.242616745599e+01 -5.550569383871e-01 0.0 
-5.550569383871e-01 -8.596272601093e+01 0.0 
0.0 0.0 -3.511666804008e+01 
-6.748248106653e+01 1.329732608934e+00 0.0 
1.329732608934e+00 -1.346414246241e+02 0.0 
0.0 0.0 -6.023717170720e+01 
-7.318652268456e+01 2.087054791883e+00 0.0 
2.087054791883e+00 -1.468514508323e+02 0.0 
0.0 0.0 -6.561139205506e+01 
-1.658186379406e+01 -1.611758104467e+00 0.0 
-1.611758104467e+00 -3.616917970446e+01 0.0 
0.0 0.0 -1.553592630833e+01 
-1.177747205716e+02 5.353067889798e+00 0.0 
5.353067889798e+00 -2.681228415514e+02 0.0 
0.0 0.0 -1.153692686369e+02 
-1.602980308593e+01 -1.292536003015e+00 0.0 
-1.292536003015e+00 -3.762366900091e+01 0.0 
0.0 0.0 -1.569461076890e+01 
-1.857957714828e+01 -1.233609288269e+00 0.0 
-1.233609288269e+00 -4.554768528033e+01 0.0 
0.0 0.0 -1.883817872858e+01 
-1.426199000097e+02 6.957762401446e+00 0.0 
6.957762401446e+00 -3.463635998565e+02 0.0 
0.0 0.0 -1.462950499599e+02 
-1.374723882632e+02 5.916103018463e+00 0.0 
5.916103018463e+00 -3.367169702614e+02 0.0 
0.0 0.0 -1.418568075574e+02 
-1.471546715366e+02 6.486845408369e+00 0.0 
6.486845408369e+00 -3.547074234624e+02 0.0 
0.0 0.0 -1.501586284997e+02 
-1.419645993760e+02 5.414443640686e+00 0.0 
5.414443640686e+00 -3.449020035803e+02 0.0 
0.0 0.0 -1.456599808869e+02 
-1.324574387508e+02 4.956687055247e+00 0.0 
4.956687055247e+00 -3.268879104475e+02 0.0 
0.0 0.0 -1.374036047595e+02 
-1.373192526689e+02 4.530990544675e+00 0.0 
4.530990544675e+00 -3.359756562978e+02 0.0 
0.0 0.0 -1.415884726900e+02 
-6.374209174272e+01 6.758749182212e-01 0.0 
6.758749182212e-01 -1.291546055191e+02 0.0 
0.0 0.0 -5.746900917854e+01 
-1.483080025811e+02 5.075299078039e+00 0.0 
5.075299078039e+00 -3.564815031216e+02 0.0 
0.0 0.0 -1.510368517108e+02 
-1.423675263567e+02 4.064145860033e+00 0.0 
4.064145860033e+00 -3.452046121416e+02 0.0 
0.0 0.0 -1.458716415495e+02 
-1.531411565215e+02 4.506882221778e+00 0.0 
4.506882221778e+00 -3.657812786785e+02 0.0 
0.0 0.0 -1.552767305600e+02 
-4.898909900313e+01 7.340302812952e+00 0.0 
7.340302812952e+00 -8.136076372182e+01 0.0 
0.0 0.0 -3.870495881749e+01 
-3.526841602691e+01 1.698542420059e+01 0.0 
1.698542420059e+01 -8.195806846124e+01 0.0 
0.0 0.0 -3.476794534645e+01 
-3.185774878423e+01 1.676509379487e+01 0.0 
1.676509379487e+01 -6.556504953532e+01 0.0 
0.0 0.0 -2.882683949586e+01 
-2.525123361456e+01 1.560897674278e+01 0.0 
1.560897674278e+01 -4.523937615399e+01 0.0 
0.0 0.0 -2.074718293056e+01 
-1.267506201866e+02 1.705320313058e+01 0.0 
1.705320313058e+01 -2.892263316128e+02 0.0 
0.0 0.0 -1.243930855398e+02 
-1.217205300822e+02 1.574047657808e+01 0.0 
1.574047657808e+01 -2.736621453068e+02 0.0 
0.0 0.0 -1.182148026167e+02 
-1.262673893682e+02 9.067049203833e-01 0.0 
9.067049203833e-01 -3.126877799590e+02 0.0 
0.0 0.0 -1.312865507982e+02 
-1.169592885270e+02 7.424917321211e-01 0.0 
7.424917321211e-01 -2.934566738638e+02 0.0 
0.0 0.0 -1.227247887173e+02 
-6.402605651688e+01 2.585109613684e-01 0.0 
2.585109613684e-01 -1.325077082941e+02 0.0 
0.0 0.0 -5.856012944331e+01 
-6.340897425175e+01 2.259031277357e-01 0.0 
2.259031277357e-01 -1.314700949346e+02 0.0 
0.0 0.0 -5.806372075590e+01 
-7.083888890030e+01 2.578964993696e-01 0.0 
2.578964993696e-01 -1.493250847597e+02 0.0 
0.0 0.0 -6.564919209799e+01 
-6.967662905880e+01 2.897827709333e-01 0.0 
2.897827709333e-01 -1.469161238484e+02 0.0 
0.0 0.0 -6.457782587215e+01 
-7.702896915903e+01 3.278459612211e-01 0.0 
3.278459612211e-01 -1.648977504453e+02 0.0 
0.0 0.0 -7.217801588131e+01 
-7.588753784240e+01 3.387185100306e-01 0.0 
3.387185100306e-01 -1.621641707765e+02 0.0 
0.0 0.0 -7.101551258566e+01 
-8.331911738925e+01 6.008197837034e-01 0.0 
6.008197837034e-01 -1.805361735624e+02 0.0 
0.0 0.0 -7.875658728550e+01 
-1.317051341991e+02 1.845317523074e+01 0.0 
1.845317523074e+01 -3.092434901239e+02 0.0 
0.0 0.0 -1.318845872969e+02 
-2.268996789573e+01 1.443353781737e+01 0.0 
1.443353781737e+01 -4.411254133359e+01 0.0 
0.0 0.0 -1.964075276880e+01 
-5.673072306514e+01 5.535721098817e+00 0.0 
5.535721098817e+00 -9.925582533951e+01 0.0 
0.0 0.0 -4.639596452139e+01 
-1.350086292373e+02 1.592149500305e+01 0.0 
1.592149500305e+01 -3.260230970035e+02 0.0 
0.0 0.0 -1.379095178722e+02 
-1.296867561787e+02 1.461613152662e+01 0.0 
1.461613152662e+01 -3.173329442876e+02 0.0 
0.0 0.0 -1.337059101399e+02 
-4.933457219267e+01 1.180685583451e+01 0.0 
1.180685583451e+01 -8.506291213378e+01 0.0 
0.0 0.0 -3.991924529793e+01 
-4.070941221222e+01 1.041357633074e+01 0.0 
1.041357633074e+01 -6.432458455571e+01 0.0 
0.0 0.0 -3.111019903038e+01 
-1.440165329646e+02 8.672777374563e+00 0.0 
8.672777374563e+00 -3.489773458753e+02 0.0 
0.0 0.0 -1.474981636520e+02 
-4.547190246793e+01 1.424659912774e+01 0.0 
1.424659912774e+01 -1.245827489900e+02 0.0 
0.0 0.0 -5.061639543739e+01 
-1.219343651808e+02 6.418879086055e+00 0.0 
6.418879086055e+00 -2.803327553851e+02 0.0 
0.0 0.0 -1.202801361698e+02 
-1.604956349279e+01 3.342781501186e+00 0.0 
3.342781501186e+00 -1.364279891596e+01 0.0 
0.0 0.0 -8.869414301724e+00 
-1.813225119786e+01 3.129043803324e+00 0.0 
3.129043803324e+00 -3.003508524287e+01 0.0 
0.0 0.0 -1.416249558705e+01 
-4.946647108641e+01 1.562186970944e+01 0.0 
1.562186970944e+01 -1.291742855471e+02 0.0 
0.0 0.0 -5.319222699004e+01 
-5.778012512161e+01 1.254307505120e+01 0.0 
1.254307505120e+01 -1.060139288896e+02 0.0 
0.0 0.0 -4.873821620336e+01 
-3.926174907916e+01 1.727459334906e+01 0.0 
1.727459334906e+01 -8.493062555941e+01 0.0 
0.0 0.0 -3.685771239157e+01 
-3.606280945935e+01 1.679249174193e+01 0.0 
1.679249174193e+01 -6.933936261648e+01 0.0 
0.0 0.0 -3.122065162275e+01 
-1.079583222141e+02 8.334199213124e+00 0.0 
8.334199213124e+00 -2.795063926836e+02 0.0 
0.0 0.0 -1.158394144693e+02 
-2.142407749933e+01 -2.036718936638e+00 0.0 
-2.036718936638e+00 -5.090407141926e+01 0.0 
0.0 0.0 -2.129844467558e+01 
-2.336872079102e+01 1.208347720140e+01 0.0 
1.208347720140e+01 -5.651932945617e+01 0.0 
0.0 0.0 -2.356641507416e+01 
-8.446195401910e+01 6.203096160811e-01 0.0 
6.203096160811e-01 -1.827948327545e+02 0.0 
0.0 0.0 -7.977703603208e+01 
-2.078542110958e+01 1.180370385465e+01 0.0 
1.180370385465e+01 -4.012171000236e+01 0.0 
0.0 0.0 -1.787213933358e+01 
-1.219358400442e+02 4.054012145689e-01 0.0 
4.054012145689e-01 -3.036210599995e+02 0.0 
0.0 0.0 -1.272670700131e+02 
-4.926486261279e+01 1.303766077079e+01 0.0 
1.303766077079e+01 -1.376893401819e+02 0.0 
0.0 0.0 -5.568626083841e+01 
-6.487082031135e+01 1.580845799525e+01 0.0 
1.580845799525e+01 -1.340453911828e+02 0.0 
0.0 0.0 -5.927486344825e+01 
-2.722943779826e+01 1.261873985614e+01 0.0 
1.261873985614e+01 -7.309288468302e+01 0.0 
0.0 0.0 -2.969669674438e+01 
-3.893238194849e+01 1.643106334941e+01 0.0 
1.643106334941e+01 -9.759849300939e+01 0.0 
0.0 0.0 -4.055926248736e+01 
-8.134197345471e+01 8.889901534033e+00 0.0 
8.889901534033e+00 -1.589141359085e+02 0.0 
0.0 0.0 -7.167683280896e+01 
-7.253287319104e+01 5.679340518575e+00 0.0 
5.679340518575e+00 -1.374984029112e+02 0.0 
0.0 0.0 -6.260938283068e+01 
-6.893185163843e+01 6.120283026861e+00 0.0 
6.120283026861e+00 -1.281981459686e+02 0.0 
0.0 0.0 -5.873899928210e+01 
-5.307858594393e+01 1.178986082287e+01 0.0 
1.178986082287e+01 -1.500007299315e+02 0.0 
0.0 0.0 -6.052379476264e+01 
-4.043055618683e+01 1.548780418994e+01 0.0 
1.548780418994e+01 -7.290142746544e+01 0.0 
0.0 0.0 -3.359959509568e+01 
-3.128070656528e+01 1.426460625533e+01 0.0 
1.426460625533e+01 -4.996083406247e+01 0.0 
0.0 0.0 -2.397246218832e+01 
-7.779908622866e+01 1.234492799166e+01 0.0 
1.234492799166e+01 -1.542768451894e+02 0.0 
0.0 0.0 -6.922277942542e+01 
-1.058231036390e+02 7.899811084935e+00 0.0 
7.899811084935e+00 -2.266406040040e+02 0.0 
0.0 0.0 -9.933911229290e+01 
-1.096338728190e+02 9.149181837496e+00 0.0 
9.149181837496e+00 -2.370093299521e+02 0.0 
0.0 0.0 -1.035929608313e+02 
-1.161383236870e+02 1.013314007848e+01 0.0 
1.013314007848e+01 -2.566844942579e+02 0.0 
0.0 0.0 -1.114468453835e+02 
-1.134357612640e+02 1.046441348000e+01 0.0 
1.046441348000e+01 -2.476534593714e+02 0.0 
0.0 0.0 -1.079267661906e+02 
-1.066533840359e+02 9.487416249804e+00 0.0 
9.487416249804e+00 -2.274924757981e+02 0.0 
0.0 0.0 -9.984375795020e+01 
-1.105290483300e+02 1.085342656061e+01 0.0 
1.085342656061e+01 -2.383170512530e+02 0.0 
0.0 0.0 -1.042538298749e+02 
-1.170130005377e+02 1.173102509415e+01 0.0 
1.173102509415e+01 -2.584353470203e+02 0.0 
0.0 0.0 -1.122345042674e+02 
-1.145779994695e+02 1.219041086864e+01 0.0 
1.219041086864e+01 -2.500724934946e+02 0.0 
0.0 0.0 -1.089951478892e+02 
-1.220635339274e+02 1.338157182061e+01 0.0 
1.338157182061e+01 -2.736413655891e+02 0.0 
0.0 0.0 -1.183114698549e+02 
-1.181701758310e+02 1.359282008047e+01 0.0 
1.359282008047e+01 -2.614316187799e+02 0.0 
0.0 0.0 -1.134805383833e+02 
-1.111165349778e+02 1.251920890817e+01 0.0 
1.251920890817e+01 -2.404396383400e+02 0.0 
0.0 0.0 -1.050668519953e+02 
-1.145667569070e+02 1.374248637890e+01 0.0 
1.374248637890e+01 -2.515388689444e+02 0.0 
0.0 0.0 -1.094316877554e+02 
-1.211562876686e+02 1.475494036855e+01 0.0 
1.475494036855e+01 -2.709877661023e+02 0.0 
0.0 0.0 -1.172432161313e+02 
-1.076181628603e+02 1.290371918336e+01 0.0 
1.290371918336e+01 -2.311229721543e+02 0.0 
0.0 0.0 -1.012223405044e+02 
-1.394693886545e+02 1.707110495945e+01 0.0 
1.707110495945e+01 -3.330046872897e+02 0.0 
0.0 0.0 -1.413422227833e+02 
-5.741677585094e+01 1.569170701024e+01 0.0 
1.569170701024e+01 -1.475855687749e+02 0.0 
0.0 0.0 -6.110070338774e+01 
-2.021730610410e+01 1.910188815038e+00 0.0 
1.910188815038e+00 -4.296071302554e+01 0.0 
0.0 0.0 -1.855340573889e+01 
-1.878494831362e+01 5.202734734273e+00 0.0 
5.202734734273e+00 -3.675883593925e+01 0.0 
0.0 0.0 -1.626313527586e+01 
-6.939637564324e+01 1.465247822923e+01 0.0 
1.465247822923e+01 -1.401719226152e+02 0.0 
0.0 0.0 -6.247048947753e+01 
-1.275311641132e+02 1.379819971288e+01 0.0 
1.379819971288e+01 -2.926388961942e+02 0.0 
0.0 0.0 -1.256510180922e+02 
-1.258454531813e+02 1.139875937678e+01 0.0 
1.139875937678e+01 -2.885728843791e+02 0.0 
0.0 0.0 -1.239255012681e+02 
-3.910887263885e+01 1.055845011341e+01 0.0 
1.055845011341e+01 -1.151131010387e+02 0.0 
0.0 0.0 -4.586659210326e+01 
-1.340353768890e+02 1.852643856377e+01 0.0 
1.852643856377e+01 -3.104859251122e+02 0.0 
0.0 0.0 -1.329563906003e+02 
-7.342098691068e+01 7.896505696792e+00 0.0 
7.896505696792e+00 -1.388675387613e+02 0.0 
0.0 0.0 -6.328655770159e+01 
-2.893100477205e+01 5.440795802020e+00 0.0 
5.440795802020e+00 -8.568545511883e+01 0.0 
0.0 0.0 -3.398493796726e+01 
-1.369430952957e+02 1.948524054225e+01 0.0 
1.948524054225e+01 -3.192945212279e+02 0.0 
0.0 0.0 -1.364712849571e+02 
-1.027085412156e+02 8.158366824644e+00 0.0 
8.158366824644e+00 -2.168144298266e+02 0.0 
0.0 0.0 -9.545689131266e+01 
-9.943060924211e+01 8.471885961915e+00 0.0 
8.471885961915e+00 -2.069653023306e+02 0.0 
0.0 0.0 -9.151877347182e+01 
-9.535273292757e+01 7.143823410753e+00 0.0 
7.143823410753e+00 -1.964984517723e+02 0.0 
0.0 0.0 -8.715535540996e+01 
-1.247729856285e+02 9.450679863032e+00 0.0 
9.450679863032e+00 -2.866031907170e+02 0.0 
0.0 0.0 -1.230128529037e+02 
-8.139706862163e+01 2.799169501499e+00 0.0 
2.799169501499e+00 -1.669996188084e+02 0.0 
0.0 0.0 -7.411900622899e+01 
-1.429789860733e+02 1.911397090954e+01 0.0 
1.911397090954e+01 -3.371888681370e+02 0.0 
0.0 0.0 -1.436503562631e+02 
-8.941538800715e+01 1.258049844268e+01 0.0 
1.258049844268e+01 -2.334609877522e+02 0.0 
0.0 0.0 -9.646291272780e+01 
-8.513828423531e+01 1.332333772623e+01 0.0 
1.332333772623e+01 -2.215151241086e+02 0.0 
0.0 0.0 -9.159602250319e+01 
-7.674667061023e+01 1.297324300627e+01 0.0 
1.297324300627e+01 -2.033361302818e+02 0.0 
0.0 0.0 -8.362484026762e+01 
-1.073354406065e+02 1.119463274852e+01 0.0 
1.119463274852e+01 -2.289273377241e+02 0.0 
0.0 0.0 -1.004788334992e+02 
-1.477907839888e+02 1.599003751551e+01 0.0 
1.599003751551e+01 -3.515220732754e+02 0.0 
0.0 0.0 -1.493938571793e+02 
-1.399977048812e+02 1.458086551262e+01 0.0 
1.458086551262e+01 -3.381801771413e+02 0.0 
0.0 0.0 -1.430533646067e+02 
-1.411237716743e+02 1.371549951036e+01 0.0 
1.371549951036e+01 -3.410229571642e+02 0.0 
0.0 0.0 -1.442440186516e+02 
-1.315048595239e+02 1.320304356318e+01 0.0 
1.320304356318e+01 -3.231589364544e+02 0.0 
0.0 0.0 -1.359991387935e+02 
-1.502963447418e+02 1.401364066737e+01 0.0 
1.401364066737e+01 -3.577199272019e+02 0.0 
0.0 0.0 -1.520048815831e+02 
-1.304587980714e+02 1.602537630114e+01 0.0 
1.602537630114e+01 -3.003445476925e+02 0.0 
0.0 0.0 -1.288410037292e+02 
-1.317695329303e+02 1.703024794017e+01 0.0 
1.703024794017e+01 -3.042061145273e+02 0.0 
0.0 0.0 -1.303926942373e+02 
-4.291275704075e+01 1.287286400430e-01 0.0 
1.287286400430e-01 -1.243537197972e+02 0.0 
0.0 0.0 -4.977994305138e+01 
-4.562854653009e+01 1.371239796017e+00 0.0 
1.371239796017e+00 -1.337927909877e+02 0.0 
0.0 0.0 -5.342640125534e+01 
-5.210508071886e+01 2.288334589829e+00 0.0 
2.288334589829e+00 -1.518294608654e+02 0.0 
0.0 0.0 -6.078036247529e+01 
-4.836582643384e+01 2.799882008572e+00 0.0 
2.799882008572e+00 -1.425861265011e+02 0.0 
0.0 0.0 -5.688558588049e+01 
-4.204988339152e+01 1.868004222539e+00 0.0 
1.868004222539e+00 -1.245282518733e+02 0.0 
0.0 0.0 -4.957344057946e+01 
-4.465202131314e+01 3.420551686042e+00 0.0 
3.420551686042e+00 -1.330524694625e+02 0.0 
0.0 0.0 -5.291134723270e+01 
-5.117995801777e+01 4.376638124607e+00 0.0 
4.376638124607e+00 -1.508106247719e+02 0.0 
0.0 0.0 -6.019717483691e+01 
-4.097850258005e+01 4.194766286826e+00 0.0 
4.194766286826e+00 -1.232440775379e+02 0.0 
0.0 0.0 -4.886677403540e+01 
-1.149950707167e+02 1.507067917598e+01 0.0 
1.507067917598e+01 -2.545049675597e+02 0.0 
0.0 0.0 -1.104500114829e+02 
-1.526199387122e+02 1.190503283545e+01 0.0 
1.190503283545e+01 -3.631524432450e+02 0.0 
0.0 0.0 -1.543317145871e+02 
-9.538523246799e+01 4.762507358432e+00 0.0 
4.762507358432e+00 -2.529445205620e+02 0.0 
0.0 0.0 -1.040989259090e+02 
-9.075722713769e+01 5.049555914745e+00 0.0 
5.049555914745e+00 -2.433044051312e+02 0.0 
0.0 0.0 -9.981848968067e+01 
-8.243342352759e+01 4.181647646733e+00 0.0 
4.181647646733e+00 -2.247411519368e+02 0.0 
0.0 0.0 -9.175237263930e+01 
-7.166922108050e+01 8.651096739057e-02 0.0 
8.651096739057e-02 -1.927756069373e+02 0.0 
0.0 0.0 -7.893344840534e+01 
-7.557120451113e+01 5.551277500772e-01 0.0 
5.551277500772e-01 -2.033004083143e+02 0.0 
0.0 0.0 -8.326148384764e+01 
-8.355175515593e+01 1.158124826178e+00 0.0 
1.158124826178e+00 -2.224450125960e+02 0.0 
0.0 0.0 -9.139903032559e+01 
-6.773041593867e+01 -2.524204249805e-01 0.0 
-2.524204249805e-01 -1.820791481543e+02 0.0 
0.0 0.0 -7.454286922788e+01 
-9.889601284285e+01 1.639343485398e+01 0.0 
1.639343485398e+01 -2.328433618521e+02 0.0 
0.0 0.0 -9.912181240848e+01 
-1.534369304071e+02 1.094092540352e+01 0.0 
1.094092540352e+01 -3.649533592784e+02 0.0 
0.0 0.0 -1.551170869056e+02 
-8.969821127813e+01 8.523413264594e+00 0.0 
8.523413264594e+00 -2.405019380841e+02 0.0 
0.0 0.0 -9.866004480868e+01 
-7.161205730336e+01 4.901863388178e-01 0.0 
4.901863388178e-01 -1.944937407934e+02 0.0 
0.0 0.0 -7.943173942902e+01 
-6.064292508832e+01 1.370607749687e+00 0.0 
1.370607749687e+00 -1.159806249440e+02 0.0 
0.0 0.0 -5.258706500970e+01 
-6.877879095299e+01 2.303320806596e+00 0.0 
2.303320806596e+00 -1.336210144069e+02 0.0 
0.0 0.0 -6.031994160797e+01 
-6.993602831287e+01 3.070770201260e+00 0.0 
3.070770201260e+00 -1.345465991762e+02 0.0 
0.0 0.0 -6.094478824673e+01 
-7.760702928247e+01 3.698319068840e+00 0.0 
3.698319068840e+00 -1.532175710114e+02 0.0 
0.0 0.0 -6.884738008816e+01 
-6.873832763975e+01 2.054445769199e+00 0.0 
2.054445769199e+00 -1.349434499122e+02 0.0 
0.0 0.0 -6.070453326557e+01 
-8.744827207136e+01 6.812782623778e-01 0.0 
6.812782623778e-01 -2.293445725442e+02 0.0 
0.0 0.0 -9.463785338468e+01 
-9.137492501290e+01 6.636725392471e-01 0.0 
6.636725392471e-01 -2.379404609401e+02 0.0 
0.0 0.0 -9.839461578591e+01 
-8.707586928421e+01 3.409806329893e-01 0.0 
3.409806329893e-01 -2.274874113298e+02 0.0 
0.0 0.0 -9.396898418420e+01 
-9.531819256643e+01 6.003555684558e-01 0.0 
6.003555684558e-01 -2.464748101505e+02 0.0 
0.0 0.0 -1.021379008151e+02 
-9.074781276955e+01 3.489758419104e-01 0.0 
3.489758419104e-01 -2.355831842154e+02 0.0 
0.0 0.0 -9.749929909549e+01 
-8.325700135969e+01 1.878010326324e-01 0.0 
1.878010326324e-01 -2.179059848163e+02 0.0 
0.0 0.0 -8.994889585279e+01 
-9.912911855786e+01 4.971698192629e-01 0.0 
4.971698192629e-01 -2.546123028825e+02 0.0 
0.0 0.0 -1.057224264321e+02 
-9.380733135227e+01 1.801486615293e-01 0.0 
1.801486615293e-01 -2.424135191580e+02 0.0 
0.0 0.0 -1.004662551531e+02 
-5.924063557418e+01 8.042059647530e-01 0.0 
8.042059647530e-01 -1.152230702735e+02 0.0 
0.0 0.0 -5.193911175430e+01 
-1.640876341932e+01 -1.042557210170e+00 0.0 
-1.042557210170e+00 -1.717007230211e+01 0.0 
0.0 0.0 -1.006351052263e+01 
-1.890369882355e+01 -1.736874907888e+00 0.0 
-1.736874907888e+00 -3.383959157138e+01 0.0 
0.0 0.0 -1.555092994398e+01 
-1.844135702577e+01 -1.756810725127e+00 0.0 
-1.756810725127e+00 -3.348668824989e+01 0.0 
0.0 0.0 -1.530696304588e+01 
-2.208388781421e+01 -2.014082355425e+00 0.0 
-2.014082355425e+00 -4.936179703526e+01 0.0 
0.0 0.0 -2.103370545484e+01 
-2.222832959433e+01 -1.715188180295e+00 0.0 
-1.715188180295e+00 -5.037335500038e+01 0.0 
0.0 0.0 -2.138050537841e+01 
-2.636504053823e+01 -1.706093408359e+00 0.0 
-1.706093408359e+00 -6.734788001422e+01 0.0 
0.0 0.0 -2.771387616573e+01 
-2.555099603537e+01 -1.157290214646e+00 0.0 
-1.157290214646e+00 -6.462585546844e+01 0.0 
0.0 0.0 -2.665305545114e+01 
-1.921910760705e+01 -1.416807116972e+00 0.0 
-1.416807116972e+00 -3.375533875308e+01 0.0 
0.0 0.0 -1.563276025843e+01 
-1.442437059337e+01 -1.118445093388e+00 0.0 
-1.118445093388e+00 -1.699578543695e+01 0.0 
0.0 0.0 -9.416752712349e+00 
-1.771895395336e+01 -1.796654381674e+00 0.0 
-1.796654381674e+00 -3.350018429683e+01 0.0 
0.0 0.0 -1.510250182276e+01 
-1.329888670763e+01 -1.086612181139e+00 0.0 
-1.086612181139e+00 -1.683747519419e+01 0.0 
0.0 0.0 -9.036109895688e+00 
-1.696847263397e+01 -1.777756652984e+00 0.0 
-1.777756652984e+00 -3.305831280496e+01 0.0 
0.0 0.0 -1.474288507541e+01 
-2.222423942404e+01 -2.170156410572e+00 0.0 
-2.170156410572e+00 -5.194419857094e+01 0.0 
0.0 0.0 -2.185053139849e+01 
-2.995210280269e+01 -2.071009690430e+00 0.0 
-2.071009690430e+00 -7.871318517199e+01 0.0 
0.0 0.0 -3.219958639241e+01 
-1.563884367495e+02 2.512110680682e+00 0.0 
2.512110680682e+00 -3.713500165709e+02 0.0 
0.0 0.0 -1.579215359961e+02 
-7.111587171972e+01 -8.258849701608e-02 0.0 
-8.258849701608e-02 -1.880968712164e+02 0.0 
0.0 0.0 -7.736382288083e+01 
-6.722322871492e+01 -2.600921303867e-01 0.0 
-2.600921303867e-01 -1.786293204420e+02 0.0 
0.0 0.0 -7.335576474708e+01 
-5.998768116554e+01 -3.661152637832e-01 0.0 
-3.661152637832e-01 -1.597285662183e+02 0.0 
0.0 0.0 -6.551487421516e+01 
-6.377428051946e+01 -3.277631026218e-01 0.0 
-3.277631026218e-01 -1.699098995637e+02 0.0 
0.0 0.0 -6.970525402493e+01 
-7.405588750847e+01 -1.515224836899e-01 0.0 
-1.515224836899e-01 -1.958426713351e+02 0.0 
0.0 0.0 -8.056956765308e+01 
-5.602750273359e+01 -2.354514216574e-01 0.0 
-2.354514216574e-01 -1.492990693280e+02 0.0 
0.0 0.0 -6.119797161849e+01 
-5.335096704021e+01 -4.687133234064e-01 0.0 
-4.687133234064e-01 -1.422672503511e+02 0.0 
0.0 0.0 -5.828546521739e+01 
-7.045637494899e+00 -2.234872289806e-01 0.0 
-2.234872289806e-01 -1.718999375330e+01 0.0 
0.0 0.0 -7.258576704214e+00 
-1.296242880006e+01 -3.186115005002e-01 0.0 
-3.186115005002e-01 -3.379125731126e+01 0.0 
0.0 0.0 -1.373006610649e+01 
-1.232546287804e+01 -3.079998833440e-01 0.0 
-3.079998833440e-01 -3.214204646919e+01 0.0 
0.0 0.0 -1.297471959189e+01 
-1.901678085489e+01 -3.979581205543e-01 0.0 
-3.979581205543e-01 -5.058012390664e+01 0.0 
0.0 0.0 -2.047907142846e+01 
-1.922895360683e+01 -5.571715027455e-01 0.0 
-5.571715027455e-01 -5.023027380436e+01 0.0 
0.0 0.0 -2.043776822336e+01 
-1.340356465359e+01 -5.434327193731e-01 0.0 
-5.434327193731e-01 -3.409662073331e+01 0.0 
0.0 0.0 -1.397723716511e+01 
-1.361072953239e+01 -7.505454548885e-01 0.0 
-7.505454548885e-01 -3.409330647109e+01 0.0 
0.0 0.0 -1.404486489100e+01 
-7.760747537273e+00 -4.521510865840e-01 0.0 
-4.521510865840e-01 -1.705671653734e+01 0.0 
0.0 0.0 -7.439817827034e+00 
-1.384781360960e+01 -8.411247861622e-01 0.0 
-8.411247861622e-01 -3.395479100647e+01 0.0 
0.0 0.0 -1.410214625989e+01 
-1.984252384972e+01 -1.044583943412e+00 0.0 
-1.044583943412e+00 -5.102668122809e+01 0.0 
0.0 0.0 -2.086076152334e+01 
-8.116448406521e+00 -5.317962491549e-01 0.0 
-5.317962491549e-01 -1.647460045642e+01 0.0 
0.0 0.0 -7.389051678842e+00 
-9.337768933123e+01 3.828724202573e-01 0.0 
3.828724202573e-01 -2.067128675115e+02 0.0 
0.0 0.0 -8.962716705283e+01 
-9.747803264847e+01 6.799067210772e-01 0.0 
6.799067210772e-01 -2.175092449292e+02 0.0 
0.0 0.0 -9.409618327329e+01 
-1.542805458519e+02 8.884286049703e+00 0.0 
8.884286049703e+00 -3.671783466675e+02 0.0 
0.0 0.0 -1.560376677558e+02 
-5.905831185243e+01 5.740429386716e-01 0.0 
5.740429386716e-01 -1.171104582737e+02 0.0 
0.0 0.0 -5.245063103783e+01 
-1.144344365359e+01 -9.200705087137e-01 0.0 
-9.200705087137e-01 -1.711481108269e+01 0.0 
0.0 0.0 -8.551640064721e+00 
-1.196951999544e+02 2.260589598756e+00 0.0 
2.260589598756e+00 -2.769244658824e+02 0.0 
0.0 0.0 -1.185858997511e+02 
-1.216084570197e+02 4.212661045226e+00 0.0 
4.212661045226e+00 -2.809858219664e+02 0.0 
0.0 0.0 -1.203782836958e+02 
-1.214808655711e+02 3.486780928293e+00 0.0 
3.486780928293e+00 -2.810070031336e+02 0.0 
0.0 0.0 -1.203463606114e+02 
-1.412382703989e+02 5.174560642064e-01 0.0 
5.174560642064e-01 -3.423638209197e+02 0.0 
0.0 0.0 -1.446806273956e+02 
-1.460989805765e+02 1.118974579996e+00 0.0 
1.118974579996e+00 -3.517186460997e+02 0.0 
0.0 0.0 -1.489452880029e+02 
-1.195965127817e+02 1.242574782496e+00 0.0 
1.242574782496e+00 -2.772487126757e+02 0.0 
0.0 0.0 -1.186535676372e+02 
-4.608616502230e+01 -1.505647584605e+00 0.0 
-1.505647584605e+00 -1.257840907101e+02 0.0 
0.0 0.0 -5.116107671973e+01 
-1.200142453667e+02 1.141988606037e+01 0.0 
1.141988606037e+01 -2.673353342104e+02 0.0 
0.0 0.0 -1.158048738731e+02 
-1.073989218724e+02 2.230433007890e+00 0.0 
2.230433007890e+00 -2.422988182191e+02 0.0 
0.0 0.0 -1.045093220275e+02 
-2.628549150229e+01 6.849274315509e+00 0.0 
6.849274315509e+00 -7.541961866995e+01 0.0 
0.0 0.0 -3.011153305167e+01 
-4.354043638678e+01 -1.471376016213e+00 0.0 
-1.471376016213e+00 -1.210237450862e+02 0.0 
0.0 0.0 -4.896925444188e+01 
-1.126219142840e+02 1.033333806121e+00 0.0 
1.033333806121e+00 -2.844888179829e+02 0.0 
0.0 0.0 -1.187332196801e+02 
-1.002750641894e+02 2.357868337452e+00 0.0 
2.357868337452e+00 -2.603915914517e+02 0.0 
0.0 0.0 -1.077999966923e+02 
-1.316804305348e+02 2.502191674848e+00 0.0 
2.502191674848e+00 -3.242199060926e+02 0.0 
0.0 0.0 -1.363701009882e+02 
-1.042563499597e+02 1.447525954182e+00 0.0 
1.447525954182e+00 -2.673031966685e+02 0.0 
0.0 0.0 -1.110678639885e+02 
-1.227681478647e+02 3.217572913187e+00 0.0 
3.217572913187e+00 -3.070368224999e+02 0.0 
0.0 0.0 -1.285414911094e+02 
-1.414948852649e+02 1.242160791946e+01 0.0 
1.242160791946e+01 -3.428435365543e+02 0.0 
0.0 0.0 -1.449015265458e+02 
-3.014559513268e+01 -7.468230406932e-01 0.0 
-7.468230406932e-01 -7.937609540617e+01 0.0 
0.0 0.0 -3.245650716165e+01 
-8.071635549420e+01 1.604278101238e+00 0.0 
1.604278101238e+00 -1.699703123093e+02 0.0 
0.0 0.0 -7.480600034104e+01 
-7.678022480658e+01 8.222058539107e-01 0.0 
8.222058539107e-01 -1.626829352845e+02 0.0 
0.0 0.0 -7.143894802733e+01 
-9.625916199168e+01 2.062141476164e+00 0.0 
2.062141476164e+00 -2.115389623693e+02 0.0 
0.0 0.0 -9.193943730830e+01 
-4.894041920891e+01 -1.090372530013e+00 0.0 
-1.090372530013e+00 -1.320173145379e+02 0.0 
0.0 0.0 -5.388732012405e+01 
-7.930735874979e+01 1.462455675325e-01 0.0 
1.462455675325e-01 -2.089249596092e+02 0.0 
0.0 0.0 -8.606969550771e+01 
-3.170675586568e+01 -1.620898993653e+00 0.0 
-1.620898993653e+00 -8.416925688081e+01 0.0 
0.0 0.0 -3.436280382395e+01 
-1.302096969951e+02 1.829861759814e+01 0.0 
1.829861759814e+01 -3.014309494603e+02 0.0 
0.0 0.0 -1.290921939366e+02 
-6.996221928196e+01 1.176052949491e+01 0.0 
1.176052949491e+01 -1.339402109795e+02 0.0 
0.0 0.0 -6.077072907845e+01 
-7.871144879276e+01 3.068827647971e+00 0.0 
3.068827647971e+00 -2.155007532437e+02 0.0 
0.0 0.0 -8.786366061094e+01 
-6.404141917317e+01 -4.155396973534e-01 0.0 
-4.155396973534e-01 -1.733692678123e+02 0.0 
0.0 0.0 -7.082320609564e+01 
-4.973156378479e+01 -1.269195453150e+00 0.0 
-1.269195453150e+00 -1.368172766900e+02 0.0 
0.0 0.0 -5.556465214244e+01 
-4.042589766896e+01 -1.520036065867e+00 0.0 
-1.520036065867e+00 -1.127233064107e+02 0.0 
0.0 0.0 -4.554476122390e+01 
-6.204268258733e+01 1.646647597237e+01 0.0 
1.646647597237e+01 -1.525878129164e+02 0.0 
0.0 0.0 -6.398914865111e+01 
-7.538111496273e+01 1.153881065112e+00 0.0 
1.153881065112e+00 -2.047659895267e+02 0.0 
0.0 0.0 -8.364413134683e+01 
-1.136047161377e+02 4.982258550810e+00 0.0 
4.982258550810e+00 -2.902890415622e+02 0.0 
0.0 0.0 -1.207681273100e+02 
-1.000649978333e+02 1.919785531206e+00 0.0 
1.919785531206e+00 -2.224203170079e+02 0.0 
0.0 0.0 -9.634559445236e+01 
-1.040278866497e+01 -8.954941259439e-01 0.0 
-8.954941259439e-01 -1.905990660021e+01 0.0 
0.0 0.0 -8.724107410677e+00 
-1.181931650775e+02 6.031307844300e+00 0.0 
6.031307844300e+00 -2.998636644200e+02 0.0 
0.0 0.0 -1.250170488492e+02 
-9.163127800350e+01 2.603157113225e+00 0.0 
2.603157113225e+00 -2.426979133548e+02 0.0 
0.0 0.0 -9.989875740750e+01 
-8.520769422318e+01 2.825545343081e+00 0.0 
2.825545343081e+00 -1.777671396590e+02 0.0 
0.0 0.0 -7.849245016466e+01 
-1.116238086982e+02 1.311042194448e+01 0.0 
1.311042194448e+01 -2.817535858332e+02 0.0 
0.0 0.0 -1.176132183594e+02 
-2.940810944918e+01 -1.854933895105e+00 0.0 
-1.854933895105e+00 -7.745646338647e+01 0.0 
0.0 0.0 -3.165937185069e+01 
-1.001340743375e+02 3.433439717203e+00 0.0 
3.433439717203e+00 -2.190658242313e+02 0.0 
0.0 0.0 -9.535996957066e+01 
-1.144757662044e+02 6.962784453922e+00 0.0 
6.962784453922e+00 -2.558629525342e+02 0.0 
0.0 0.0 -1.107016156216e+02 
-7.768303201052e+01 2.889237978062e+00 0.0 
2.889237978062e+00 -1.564149778007e+02 0.0 
0.0 0.0 -6.982940294338e+01 
-2.499071324017e+01 -1.545199922845e+00 0.0 
-1.545199922845e+00 -6.460260826382e+01 0.0 
0.0 0.0 -2.647799645120e+01 
-7.240137131400e+01 1.071369944233e+00 0.0 
1.071369944233e+00 -1.498605328141e+02 0.0 
0.0 0.0 -6.627857123843e+01 
-1.376592035728e+02 9.127723017599e+00 0.0 
9.127723017599e+00 -3.369743811775e+02 0.0 
0.0 0.0 -1.419900754251e+02 
-1.018362748288e+02 6.719759661226e+00 0.0 
6.719759661226e+00 -2.164496073142e+02 0.0 
0.0 0.0 -9.508576464289e+01 
-4.507573005870e+01 -1.018564875587e+00 0.0 
-1.018564875587e+00 -1.209569051082e+02 0.0 
0.0 0.0 -4.940979055007e+01 
-7.700133329923e+01 8.444269370639e+00 0.0 
8.444269370639e+00 -2.120266451949e+02 0.0 
0.0 0.0 -8.630839354825e+01 
-6.817078542761e+01 1.650618990642e+01 0.0 
1.650618990642e+01 -1.483768751123e+02 0.0 
0.0 0.0 -6.456429816198e+01 
-5.586995366634e+01 3.348223784362e+00 0.0 
3.348223784362e+00 -9.912120980224e+01 0.0 
0.0 0.0 -4.609734904057e+01 
-1.106293644696e+02 2.767326637315e+00 0.0 
2.767326637315e+00 -2.508909283322e+02 0.0 
0.0 0.0 -1.080560878405e+02 
-7.716877845417e+01 1.490296626411e+01 0.0 
1.490296626411e+01 -1.968306248047e+02 0.0 
0.0 0.0 -8.179982097766e+01 
-1.212728080131e+02 1.216597016913e+01 0.0 
1.216597016913e+01 -3.036724294531e+02 0.0 
0.0 0.0 -1.270835712399e+02 
-9.388787204392e+01 9.886863430402e+00 0.0 
9.886863430402e+00 -2.483847466903e+02 0.0 
0.0 0.0 -1.022817856203e+02 
-4.841890318332e+01 -7.859754794943e-01 0.0 
-7.859754794943e-01 -1.297447449782e+02 0.0 
0.0 0.0 -5.304909444846e+01 
-1.277573453996e+02 5.340307877661e+00 0.0 
5.340307877661e+00 -3.181452051851e+02 0.0 
0.0 0.0 -1.333707651754e+02 
-7.262111275529e+01 1.163770432775e+01 0.0 
1.163770432775e+01 -1.971651890757e+02 0.0 
0.0 0.0 -8.053589054931e+01 
-1.074432222077e+02 4.034879328105e+00 0.0 
4.034879328105e+00 -2.390968420370e+02 0.0 
0.0 0.0 -1.035620192734e+02 
-1.038456082207e+02 1.601498154958e+01 0.0 
1.601498154958e+01 -2.327761310978e+02 0.0 
0.0 0.0 -1.005865217955e+02 
-5.736412940006e+01 7.786600763429e+00 0.0 
7.786600763429e+00 -1.658497344227e+02 0.0 
0.0 0.0 -6.656415914682e+01 
-1.043501349386e+02 5.302892650439e+00 0.0 
5.302892650439e+00 -2.271250622153e+02 0.0 
0.0 0.0 -9.904255914617e+01 
-7.805551415937e+01 4.519347076625e+00 0.0 
4.519347076625e+00 -2.152229258936e+02 0.0 
0.0 0.0 -8.758353201588e+01 
-1.161853438465e+02 1.424446451615e+01 0.0 
1.424446451615e+01 -2.890240556353e+02 0.0 
0.0 0.0 -1.211628198445e+02 
-6.583109232080e+01 1.305771185371e+01 0.0 
1.305771185371e+01 -1.265733765937e+02 0.0 
0.0 0.0 -5.732134067435e+01 
-8.836401610195e+01 1.567831449124e+01 0.0 
1.567831449124e+01 -1.934518763655e+02 0.0 
0.0 0.0 -8.414476774022e+01 
-9.674777693002e+01 1.265787007208e+01 0.0 
1.265787007208e+01 -2.023797737708e+02 0.0 
0.0 0.0 -8.933826521024e+01 
-8.274847646743e+01 1.641554045126e+01 0.0 
1.641554045126e+01 -1.949563804429e+02 0.0 
0.0 0.0 -8.291145707311e+01 
-1.079017829856e+02 5.375013515098e-01 0.0 
5.375013515098e-01 -2.740769117295e+02 0.0 
0.0 0.0 -1.141936084145e+02 
-1.229754179507e+02 5.687626797823e+00 0.0 
5.687626797823e+00 -3.090804422533e+02 0.0 
0.0 0.0 -1.292167580612e+02 
-2.807805703813e+01 7.500484174674e-01 0.0 
7.500484174674e-01 -7.919828410853e+01 0.0 
0.0 0.0 -3.178290234400e+01 
-4.632713574422e+01 1.660418101050e+01 0.0 
1.660418101050e+01 -1.158683117836e+02 0.0 
0.0 0.0 -4.825863425834e+01 
-8.589074683176e+01 3.683245831607e+00 0.0 
3.683245831607e+00 -1.766673875503e+02 0.0 
0.0 0.0 -7.836744031461e+01 
-1.189965895522e+02 1.731222839057e+01 0.0 
1.731222839057e+01 -2.773115334207e+02 0.0 
0.0 0.0 -1.184924368919e+02 
-1.144945910178e+02 4.513829407207e+00 0.0 
4.513829407207e+00 -2.589689818019e+02 0.0 
0.0 0.0 -1.116390718459e+02 
-6.019546682563e+01 1.673752636380e+01 0.0 
1.673752636380e+01 -1.288066083614e+02 0.0 
0.0 0.0 -5.630062255612e+01 
-1.229449310206e+02 4.388410856751e+00 0.0 
4.388410856751e+00 -3.082715986923e+02 0.0 
0.0 0.0 -1.289649589139e+02 
-1.111115042070e+02 6.000386664092e+00 0.0 
6.000386664092e+00 -2.467358276177e+02 0.0 
0.0 0.0 -1.069541995474e+02 
-7.945477053647e+01 1.150067400760e+00 0.0 
1.150067400760e+00 -2.136157991230e+02 0.0 
0.0 0.0 -8.752117089784e+01 
-3.413562469012e+01 -2.697566105250e-01 0.0 
-2.697566105250e-01 -9.105307414384e+01 0.0 
0.0 0.0 -3.715660965019e+01 
-2.269276975912e+01 6.385304235381e+00 0.0 
6.385304235381e+00 -5.902568721025e+01 0.0 
0.0 0.0 -2.411553709081e+01 
-4.356802345571e+01 6.085882432416e+00 0.0 
6.085882432416e+00 -1.307322114504e+02 0.0 
0.0 0.0 -5.189007047184e+01 
-7.279546604174e+01 1.389011330839e+01 0.0 
1.389011330839e+01 -1.912089696590e+02 0.0 
0.0 0.0 -7.880133071021e+01 
-8.756785736525e+01 1.821969043871e+00 0.0 
1.821969043871e+00 -2.326420723824e+02 0.0 
0.0 0.0 -9.566297892431e+01 
-1.197791418516e+02 9.942843633042e+00 0.0 
9.942843633042e+00 -2.690809286222e+02 0.0 
0.0 0.0 -1.162580211421e+02 
-1.276073175300e+02 4.048937610591e+00 0.0 
4.048937610591e+00 -3.170781218378e+02 0.0 
0.0 0.0 -1.330056318104e+02 
-1.130036608037e+02 7.965719551848e+00 0.0 
7.965719551848e+00 -2.897982564593e+02 0.0 
0.0 0.0 -1.204405751789e+02 
-1.868229071698e+01 1.059656239031e+01 0.0 
1.059656239031e+01 -2.174073870020e+01 0.0 
0.0 0.0 -1.172690882516e+01 
-6.060567691536e+01 4.921607690995e+00 0.0 
4.921607690995e+00 -1.086270195289e+02 0.0 
0.0 0.0 -5.036980893327e+01 
-1.322704385090e+02 3.674905745158e+00 0.0 
3.674905745158e+00 -3.258720242505e+02 0.0 
0.0 0.0 -1.370427388279e+02 
-8.129660320801e+01 7.751712292516e+00 0.0 
7.751712292516e+00 -2.223096780744e+02 0.0 
0.0 0.0 -9.068188438473e+01 
-1.207509530645e+02 1.380797042108e+01 0.0 
1.380797042108e+01 -2.999652184097e+02 0.0 
0.0 0.0 -1.258148514422e+02 
-8.602272080745e+01 1.282760141718e-01 0.0 
1.282760141718e-01 -2.241478152228e+02 0.0 
0.0 0.0 -9.265116080908e+01 
-1.311950954209e+02 1.858303927959e+01 0.0 
1.858303927959e+01 -3.054540732926e+02 0.0 
0.0 0.0 -1.305947506141e+02 
-4.489985463761e+01 8.720812251888e+00 0.0 
8.720812251888e+00 -7.251425370773e+01 0.0 
0.0 0.0 -3.482423250360e+01 
-1.369628066801e+02 3.250522839588e+00 0.0 
3.250522839588e+00 -3.348863736527e+02 0.0 
0.0 0.0 -1.411547540998e+02 
-1.123892858902e+02 9.603711414374e+00 0.0 
9.603711414374e+00 -2.879475927303e+02 0.0 
0.0 0.0 -1.197010635861e+02 
-4.208840835141e+01 1.252251123738e+01 0.0 
1.252251123738e+01 -1.200897930815e+02 0.0 
0.0 0.0 -4.825346042988e+01 
-5.626271549323e+01 3.408474182276e-02 0.0 
3.408474182276e-02 -1.144787555568e+02 0.0 
0.0 0.0 -5.082244131502e+01 
-1.482232570152e+02 3.556923737427e+00 0.0 
3.556923737427e+00 -3.562860925343e+02 0.0 
0.0 0.0 -1.509528048649e+02 
-1.220330599443e+02 1.047709272271e+01 0.0 
1.047709272271e+01 -3.067530250690e+02 0.0 
0.0 0.0 -1.282358255040e+02 
-9.080042998817e+01 1.634605879548e+01 0.0 
1.634605879548e+01 -2.138306399426e+02 0.0 
0.0 0.0 -9.098932097923e+01 
-7.746226483305e+01 6.329401252622e+00 0.0 
6.329401252622e+00 -2.141678397629e+02 0.0 
0.0 0.0 -8.708903137879e+01 
-4.770762744713e+01 4.095516107624e+00 0.0 
4.095516107624e+00 -7.987487943282e+01 0.0 
0.0 0.0 -3.787475206398e+01 
-9.177344420649e+01 1.763328651588e+00 0.0 
1.763328651588e+00 -2.414419149910e+02 0.0 
0.0 0.0 -9.956460775924e+01 
-9.260100515443e+01 1.508858770129e+01 0.0 
1.508858770129e+01 -2.000691167264e+02 0.0 
0.0 0.0 -8.740103656425e+01 
-1.241349114420e+02 8.416893479071e+00 0.0 
8.416893479071e+00 -2.856326649008e+02 0.0 
0.0 0.0 -1.225302729029e+02 
-1.262347808046e+02 1.174271215052e+01 0.0 
1.174271215052e+01 -3.140182218641e+02 0.0 
0.0 0.0 -1.316759008006e+02 
-9.191226517731e+01 7.450147796129e+00 0.0 
7.450147796129e+00 -1.865574655743e+02 0.0 
0.0 0.0 -8.314091922547e+01 
-8.761606870085e+01 1.152401864958e+00 0.0 
1.152401864958e+00 -2.311232346579e+02 0.0 
0.0 0.0 -9.522179100763e+01 
-9.808732246367e+01 1.466284091458e+01 0.0 
1.466284091458e+01 -2.461204676120e+02 0.0 
0.0 0.0 -1.028623370227e+02 
-1.951647251617e+01 -7.956843319635e-01 0.0 
-7.956843319635e-01 -5.035507255231e+01 0.0 
0.0 0.0 -2.056146352054e+01 
-5.290682317511e+01 6.300587401870e+00 0.0 
6.300587401870e+00 -9.020638364865e+01 0.0 
0.0 0.0 -4.253396204713e+01 
-9.166520628854e+01 1.128436056918e+00 0.0 
1.128436056918e+00 -2.397536082499e+02 0.0 
0.0 0.0 -9.902564436152e+01 
-4.733166810978e+01 5.151284510406e+00 0.0 
5.151284510406e+00 -1.408998737666e+02 0.0 
0.0 0.0 -5.606946256291e+01 
-8.177572071116e+01 5.810333383942e+00 0.0 
5.810333383942e+00 -2.239021954513e+02 0.0 
0.0 0.0 -9.130337484874e+01 
-1.340698913208e+02 1.717935481848e+01 0.0 
1.717935481848e+01 -3.211821559406e+02 0.0 
0.0 0.0 -1.361756141784e+02 
-9.571624887535e+01 1.069013516885e+00 0.0 
1.069013516885e+00 -2.483692898854e+02 0.0 
0.0 0.0 -1.028256616282e+02 
-5.415157692537e+01 6.054628422659e+00 0.0 
6.054628422659e+00 -1.585364636597e+02 0.0 
0.0 0.0 -6.340641217552e+01 
-9.975848851740e+01 9.653283468247e-01 0.0 
9.653283468247e-01 -2.569205428917e+02 0.0 
0.0 0.0 -1.066037094227e+02 
-3.939028836890e+01 5.486852599126e+00 0.0 
5.486852599126e+00 -6.089822454010e+01 0.0 
0.0 0.0 -2.968655387270e+01 
-9.605161759588e+01 8.851492728791e+00 0.0 
8.851492728791e+00 -1.972932945310e+02 0.0 
0.0 0.0 -8.760347363805e+01 
-1.038164853373e+02 8.181368794153e-01 0.0 
8.181368794153e-01 -2.653949418435e+02 0.0 
0.0 0.0 -1.103634281543e+02 
-1.002207101680e+02 1.534697783063e+01 0.0 
1.534697783063e+01 -2.198915036124e+02 0.0 
0.0 0.0 -9.563366413413e+01 
-2.066417129190e+01 -1.149051656153e+00 0.0 
-1.149051656153e+00 -5.269084622185e+01 0.0 
0.0 0.0 -2.160650525413e+01 
-9.439871541815e+01 1.615206816186e+01 0.0 
1.615206816186e+01 -2.267343639449e+02 0.0 
0.0 0.0 -9.593992380890e+01 
-1.359826696084e+02 1.001145704956e+00 0.0 
1.001145704956e+00 -3.320533975763e+02 0.0 
0.0 0.0 -1.400108201554e+02 
-5.675407931551e+01 -2.808111228910e-01 0.0 
-2.808111228910e-01 -1.583467308800e+02 0.0 
0.0 0.0 -6.413024305867e+01 
-8.618013968233e+01 5.381015083960e+00 0.0 
5.381015083960e+00 -2.335519969435e+02 0.0 
0.0 0.0 -9.551964098776e+01 
-1.034305116435e+02 9.851983300242e+00 0.0 
9.851983300242e+00 -2.178273009004e+02 0.0 
0.0 0.0 -9.597734376315e+01 
-3.103580763763e+01 7.956483715216e+00 0.0 
7.956483715216e+00 -4.258056444885e+01 0.0 
0.0 0.0 -2.168491162595e+01 
-9.470230742721e+01 6.235820727992e+00 0.0 
6.235820727992e+00 -2.520751362019e+02 0.0 
0.0 0.0 -1.036332330887e+02 
-1.077858486647e+02 1.571805972669e+01 0.0 
1.571805972669e+01 -2.397111622593e+02 0.0 
0.0 0.0 -1.038491032772e+02 
-9.822566751367e+01 1.582438993756e+01 0.0 
1.582438993756e+01 -2.394492623140e+02 0.0 
0.0 0.0 -1.009024789483e+02 
-8.101742947702e+01 1.410275440650e+01 0.0 
1.410275440650e+01 -2.092485292371e+02 0.0 
0.0 0.0 -8.667978761423e+01 
-1.036464658090e+02 7.094319314097e+00 0.0 
7.094319314097e+00 -2.708571790161e+02 0.0 
0.0 0.0 -1.119510934475e+02 
-3.668684754881e+01 1.236160861927e+01 0.0 
1.236160861927e+01 -5.771260395940e+01 0.0 
0.0 0.0 -2.791983545246e+01 
-4.293983758801e+01 -1.705411456193e+00 0.0 
-1.705411456193e+00 -1.175265370408e+02 0.0 
0.0 0.0 -4.773991238864e+01 
-3.639166006401e+01 -1.964810735757e+00 0.0 
-1.964810735757e+00 -9.826582443769e+01 0.0 
0.0 0.0 -3.999724535051e+01 
-5.811265934495e+01 5.274886125357e+00 0.0 
5.274886125357e+00 -1.684972222154e+02 0.0 
0.0 0.0 -6.758296446809e+01 
-1.115421130876e+02 1.538218920072e+01 0.0 
1.538218920072e+01 -2.470239126165e+02 0.0 
0.0 0.0 -1.071698077112e+02 
-2.528275624727e+01 -4.583337517426e-01 0.0 
-4.583337517426e-01 -6.692298320112e+01 0.0 
0.0 0.0 -2.726172183452e+01 
-1.039340574141e+02 1.162235268961e+01 0.0 
1.162235268961e+01 -2.196322402285e+02 0.0 
0.0 0.0 -9.666988929278e+01 
-2.751273054803e+01 -2.143356730239e+00 0.0 
-2.143356730239e+00 -7.078111652774e+01 0.0 
0.0 0.0 -2.908815412273e+01 
-5.504086684870e+01 3.726424147353e+00 0.0 
3.726424147353e+00 -1.603764586452e+02 0.0 
0.0 0.0 -6.422519764816e+01 
-1.114418313237e+02 1.587659380606e+01 0.0 
1.587659380606e+01 -2.715958418060e+02 0.0 
0.0 0.0 -1.145113019389e+02 
-7.831296836735e+01 3.467351393887e-01 0.0 
3.467351393887e-01 -1.684139309134e+02 0.0 
0.0 0.0 -7.361806978422e+01 
-5.893074761796e+01 3.190889901623e+00 0.0 
3.190889901623e+00 -1.696896205415e+02 0.0 
0.0 0.0 -6.818611044784e+01 
-4.146803872665e+01 -2.742026553605e-01 0.0 
-2.742026553605e-01 -1.106746325616e+02 0.0 
0.0 0.0 -4.524280138648e+01 
-5.585399095089e+01 1.888519646421e+00 0.0 
1.888519646421e+00 -1.608040178968e+02 0.0 
0.0 0.0 -6.459740265432e+01 
-8.942931698223e+01 1.433506985121e+01 0.0 
1.433506985121e+01 -2.275128446956e+02 0.0 
0.0 0.0 -9.468264850335e+01 
-5.966509117060e+01 1.598625123850e+00 0.0 
1.598625123850e+00 -1.696952522033e+02 0.0 
0.0 0.0 -6.840810301217e+01 
-5.650732288042e+01 5.785348907914e-01 0.0 
5.785348907914e-01 -1.601625624042e+02 0.0 
0.0 0.0 -6.460096558537e+01 
-1.145214638772e+02 2.567457170100e+00 0.0 
2.567457170100e+00 -2.620809190595e+02 0.0 
0.0 0.0 -1.125807148810e+02 
-6.017188265359e+01 4.696090776983e-01 0.0 
4.696090776983e-01 -1.686456631469e+02 0.0 
0.0 0.0 -6.824526374014e+01 
-1.210465433459e+02 7.895480386684e-01 0.0 
7.895480386684e-01 -2.806365881455e+02 0.0 
0.0 0.0 -1.201049394474e+02 
-1.572810142728e+02 1.203583567739e+00 0.0 
1.203583567739e+00 -3.729155477166e+02 0.0 
0.0 0.0 -1.586589685968e+02 
-6.236480022521e+01 1.974069866444e-01 0.0 
1.974069866444e-01 -1.294416218812e+02 0.0 
0.0 0.0 -5.714192663193e+01 
-2.260195937977e+01 1.076518512173e+01 0.0 
1.076518512173e+01 -2.644730262823e+01 0.0 
0.0 0.0 -1.431477860240e+01 
-1.818520461222e+01 6.987863958027e-02 0.0 
6.987863958027e-02 -1.678458194539e+01 0.0 
0.0 0.0 -1.035548849672e+01 
-2.980372090163e+01 1.610859195745e+01 0.0 
1.610859195745e+01 -5.240294347532e+01 0.0 
0.0 0.0 -2.426199931309e+01 
-4.999678720847e+01 -9.276900796617e-01 0.0 
-9.276900796617e-01 -1.397157511148e+02 0.0 
0.0 0.0 -5.651376149699e+01 
-1.040318005409e+02 1.332017511378e+01 0.0 
1.332017511378e+01 -2.224505545893e+02 0.0 
0.0 0.0 -9.754470653907e+01 
-6.279476721692e+01 8.983527646282e-02 0.0 
8.983527646282e-02 -1.301880323993e+02 0.0 
0.0 0.0 -5.749483988486e+01 
-4.659506506811e+01 -1.420486048192e+00 0.0 
-1.420486048192e+00 -1.288779925697e+02 0.0 
0.0 0.0 -5.224191729135e+01 
-1.247642734730e+02 1.469479377914e+01 0.0 
1.469479377914e+01 -2.818363830256e+02 0.0 
0.0 0.0 -1.215801969496e+02 
-1.401233501432e+02 1.972304135160e+01 0.0 
1.972304135160e+01 -3.288096923776e+02 0.0 
0.0 0.0 -1.402799127562e+02 
-8.967445313385e+01 5.256478811333e-01 0.0 
5.256478811333e-01 -1.970413857709e+02 0.0 
0.0 0.0 -8.561475167142e+01 
-1.252869375180e+02 1.333731516668e+01 0.0 
1.333731516668e+01 -3.101011307338e+02 0.0 
0.0 0.0 -1.302164204755e+02 
-1.025304562413e+02 1.545842523863e+01 0.0 
1.545842523863e+01 -2.524328458268e+02 0.0 
0.0 0.0 -1.060889906204e+02 
-1.073836910154e+02 4.406998018245e-01 0.0 
4.406998018245e-01 -2.440341432235e+02 0.0 
0.0 0.0 -1.050253502717e+02 
-5.634463812664e+01 3.940088778833e-01 0.0 
3.940088778833e-01 -1.130761576598e+02 0.0 
0.0 0.0 -5.042623873593e+01 
-1.636811242046e+01 -1.656935457595e+00 0.0 
-1.656935457595e+00 -3.299979618151e+01 0.0 
0.0 0.0 -1.453339975607e+01 
-1.126061543502e+02 2.954204508986e-01 0.0 
2.954204508986e-01 -2.840127560820e+02 0.0 
0.0 0.0 -1.185856731297e+02 
-2.061541822256e+01 1.416412435180e+01 0.0 
1.416412435180e+01 -2.424227308374e+01 0.0 
0.0 0.0 -1.305730739189e+01 
-2.391233487763e+01 1.531202982108e+01 0.0 
1.531202982108e+01 -4.537931021993e+01 0.0 
0.0 0.0 -2.038749352927e+01 
-2.173710484823e+01 1.327800290378e+01 0.0 
1.327800290378e+01 -4.233128462825e+01 0.0 
0.0 0.0 -1.882051684295e+01 
-5.096005415398e+01 -5.913157855491e-01 0.0 
-5.913157855491e-01 -1.366917052805e+02 0.0 
0.0 0.0 -5.589552783036e+01 
-2.185187230811e+01 -2.129004462367e+00 0.0 
-2.129004462367e+00 -4.908278723018e+01 0.0 
0.0 0.0 -2.088039786149e+01 
-2.098964005422e+01 1.434648903539e+01 0.0 
1.434648903539e+01 -2.731283697042e+01 0.0 
0.0 0.0 -1.409074310739e+01 
-1.384021913484e+02 1.539238422709e+01 0.0 
1.539238422709e+01 -3.339780333399e+02 0.0 
0.0 0.0 -1.413140674065e+02 
-6.545501862208e+01 1.144890463677e+00 0.0 
1.144890463677e+00 -1.309499605817e+02 0.0 
0.0 0.0 -5.852149376114e+01 
-1.154729767325e+02 1.658411149675e+01 0.0 
1.658411149675e+01 -2.774574966720e+02 0.0 
0.0 0.0 -1.174791420214e+02 
-2.038209422993e+01 1.324113948352e+01 0.0 
1.324113948352e+01 -2.560308997186e+01 0.0 
0.0 0.0 -1.339555526054e+01 
-1.175681710581e+02 6.751884772585e+00 0.0 
6.751884772585e+00 -2.661402157812e+02 0.0 
0.0 0.0 -1.147125160518e+02 
-1.339628535246e+02 1.817307208669e+01 0.0 
1.817307208669e+01 -3.178238159385e+02 0.0 
0.0 0.0 -1.351360008389e+02 
-1.563464169833e+02 6.878645749487e+00 0.0 
6.878645749487e+00 -3.712472741983e+02 0.0 
0.0 0.0 -1.578781073545e+02 
-1.243113931177e+02 1.720280822966e+01 0.0 
1.720280822966e+01 -2.968387134365e+02 0.0 
0.0 0.0 -1.259450319662e+02 
-1.981188346245e+01 1.001600639544e+01 0.0 
1.001600639544e+01 -3.700014653019e+01 0.0 
0.0 0.0 -1.664360899779e+01 
-7.518047541872e+01 3.050723729290e+00 0.0 
3.050723729290e+00 -1.487523199113e+02 0.0 
0.0 0.0 -6.677983859901e+01 
-1.289208490903e+02 1.791749580653e+01 0.0 
1.791749580653e+01 -2.969244198439e+02 0.0 
0.0 0.0 -1.273535806803e+02 
-9.599632276744e+01 8.301013001607e-01 0.0 
8.301013001607e-01 -2.127330392020e+02 0.0 
0.0 0.0 -9.221880859085e+01 
-1.578357818515e+02 5.092462358071e+00 0.0 
5.092462358071e+00 -3.738395251810e+02 0.0 
0.0 0.0 -1.591025921098e+02 
-6.570695810185e+01 1.370774432697e+00 0.0 
1.370774432697e+00 -1.289518212226e+02 0.0 
0.0 0.0 -5.799763379734e+01 
-1.151304011205e+02 1.603354917988e+00 0.0 
1.603354917988e+00 -2.644762467199e+02 0.0 
0.0 0.0 -1.134819943521e+02 
-2.627940744537e+01 -4.665636850239e-01 0.0 
-4.665636850239e-01 -7.062657634834e+01 0.0 
0.0 0.0 -2.867179513811e+01 
-1.150521796703e+02 7.708451092707e-01 0.0 
7.708451092707e-01 -2.645934106768e+02 0.0 
0.0 0.0 -1.134936771041e+02 
-1.112533739289e+02 1.407250439444e+01 0.0 
1.407250439444e+01 -2.427357846268e+02 0.0 
0.0 0.0 -1.057967475667e+02 
-7.316595098697e+01 4.518729420370e-01 0.0 
4.518729420370e-01 -1.542132156303e+02 0.0 
0.0 0.0 -6.781374998518e+01 
-7.646455062450e+01 4.004321032562e+00 0.0 
4.004321032562e+00 -1.491014133290e+02 0.0 
0.0 0.0 -6.726978918605e+01 
-1.507467042083e+02 1.756037371489e+00 0.0 
1.756037371489e+00 -3.604540710804e+02 0.0 
0.0 0.0 -1.529602325866e+02 
-1.224669947618e+02 1.268003961586e+01 0.0 
1.268003961586e+01 -2.759499017075e+02 0.0 
0.0 0.0 -1.191250689408e+02 
-1.862078657804e+01 7.560882046681e+00 0.0 
7.560882046681e+00 -3.312105482408e+01 0.0 
0.0 0.0 -1.512255242064e+01 
-8.956143092702e+01 5.514909346286e-01 0.0 
5.514909346286e-01 -1.959783403026e+02 0.0 
0.0 0.0 -8.526193136888e+01 
-6.360937494258e+01 -3.303291628515e-01 0.0 
-3.303291628515e-01 -1.700809226350e+02 0.0 
0.0 0.0 -6.970708927328e+01 
-1.915132651245e+01 -9.006479628856e-01 0.0 
-9.006479628856e-01 -3.074411859320e+01 0.0 
0.0 0.0 -1.476107330266e+01 
-1.463309489958e+02 7.810712266150e+00 0.0 
7.810712266150e+00 -3.532000082207e+02 0.0 
0.0 0.0 -1.494592871650e+02 
-1.177838579680e+02 1.480937367002e+01 0.0 
1.480937367002e+01 -2.618909770868e+02 0.0 
0.0 0.0 -1.135024505164e+02 
-1.496166702903e+02 2.823028440792e+00 0.0 
2.823028440792e+00 -3.587923153891e+02 0.0 
0.0 0.0 -1.521226957038e+02 
-1.884862469207e+01 -3.279148609865e-01 0.0 
-3.279148609865e-01 -4.989053605933e+01 0.0 
0.0 0.0 -2.022174822542e+01 
-1.453982649976e+01 -1.437721820394e+00 0.0 
-1.437721820394e+00 -3.115006860891e+01 0.0 
0.0 0.0 -1.338888702245e+01 
-1.463883156756e+02 9.821151919634e+00 0.0 
9.821151919634e+00 -3.530419363049e+02 0.0 
0.0 0.0 -1.494290755942e+02 
-1.274092047625e+02 1.649789671937e+01 0.0 
1.649789671937e+01 -2.903590305370e+02 0.0 
0.0 0.0 -1.249304705899e+02 
-2.952919965408e+01 -9.171606443041e-01 0.0 
-9.171606443041e-01 -8.020246057340e+01 0.0 
0.0 0.0 -3.251949806824e+01 
-1.235013136239e+02 5.785693701947e+00 0.0 
5.785693701947e+00 -2.857077742578e+02 0.0 
0.0 0.0 -1.223627263645e+02 
-1.693901281673e+01 5.551764146390e+00 0.0 
5.551764146390e+00 -2.364823935772e+01 0.0 
0.0 0.0 -1.185797963738e+01 
-5.612783518665e+01 2.213329314918e-01 0.0 
2.213329314918e-01 -1.110429948994e+02 0.0 
0.0 0.0 -4.975124902580e+01 
-1.382448798928e+01 -8.870295357065e-01 0.0 
-8.870295357065e-01 -3.235322100081e+01 0.0 
0.0 0.0 -1.362908230170e+01 
-1.581455809849e+02 4.279514423595e+00 0.0 
4.279514423595e+00 -3.743507441516e+02 0.0 
0.0 0.0 -1.593488975409e+02 
-1.165285971248e+02 4.082960263035e+00 0.0 
4.082960263035e+00 -2.663117652094e+02 0.0 
0.0 0.0 -1.144521087003e+02 
-7.061133595703e+01 -3.121009969816e-01 0.0 
-3.121009969816e-01 -1.871959458671e+02 0.0 
0.0 0.0 -7.694218454722e+01 
-6.284665475775e+01 2.296301043841e+00 0.0 
2.296301043841e+00 -1.178681210830e+02 0.0 
0.0 0.0 -5.381443275223e+01 
-4.642942527725e+01 -5.163788089910e-01 0.0 
-5.163788089910e-01 -1.240348491543e+02 0.0 
0.0 0.0 -5.073928232946e+01 
-1.257756993274e+02 1.777604121500e+01 0.0 
1.777604121500e+01 -2.939214735866e+02 0.0 
0.0 0.0 -1.255091518742e+02 
-2.047738792832e+01 -2.093149281138e+00 0.0 
-2.093149281138e+00 -4.622833774450e+01 0.0 
0.0 0.0 -1.961171770185e+01 
-1.166556177665e+02 3.116897329981e+00 0.0 
3.116897329981e+00 -2.677509057316e+02 0.0 
0.0 0.0 -1.149219570494e+02 
-1.451069953321e+02 1.187147481395e+01 0.0 
1.187147481395e+01 -3.499449933048e+02 0.0 
0.0 0.0 -1.481155965911e+02 
-1.208538936352e+02 9.283250681395e+00 0.0 
9.283250681395e+00 -2.734881832432e+02 0.0 
0.0 0.0 -1.179026230635e+02 
-1.474639896592e+02 1.809721242702e+01 0.0 
1.809721242702e+01 -3.487284896534e+02 0.0 
0.0 0.0 -1.484577437938e+02 
-1.848780097399e+01 1.124555805857e+00 0.0 
1.124555805857e+00 -2.798154729007e+01 0.0 
0.0 0.0 -1.364265878614e+01 
-1.351962233533e+02 1.881827374527e+01 0.0 
1.881827374527e+01 -3.187985521615e+02 0.0 
0.0 0.0 -1.357984326544e+02 
-1.343477332576e+02 1.240331544962e+01 0.0 
1.240331544962e+01 -3.294298728977e+02 0.0 
0.0 0.0 -1.387332818466e+02 
-5.587124893623e+01 -9.060829046087e-02 0.0 
-9.060829046087e-02 -1.128746574934e+02 0.0 
0.0 0.0 -5.022377192888e+01 
-1.214338602036e+02 1.085198197319e+01 0.0 
1.085198197319e+01 -2.736312816154e+02 0.0 
0.0 0.0 -1.181195425457e+02 
-5.706941465055e+01 -5.665959970410e-01 0.0 
-5.665959970410e-01 -1.524230487778e+02 0.0 
0.0 0.0 -6.244773902850e+01 
-2.541317966064e+01 -1.023636612807e+00 0.0 
-1.023636612807e+00 -6.595597258018e+01 0.0 
0.0 0.0 -2.701074567225e+01 
-1.217490683870e+02 4.803041028539e-01 0.0 
4.803041028539e-01 -2.826730280806e+02 0.0 
0.0 0.0 -1.209266289403e+02 
-5.931305419376e+00 -4.299641223599e-02 0.0 
-4.299641223599e-02 -1.414344190132e+01 0.0 
0.0 0.0 -5.934775270875e+00 
-5.492678955715e+01 9.719864488825e-02 0.0 
9.719864488825e-02 -1.118143402551e+02 0.0 
0.0 0.0 -4.962233894366e+01 
-1.595774112088e+02 3.823950784802e-01 0.0 
3.823950784802e-01 -3.771293333336e+02 0.0 
0.0 0.0 -1.606120233627e+02 
-2.418159601236e+01 -7.519676226877e-01 0.0 
-7.519676226877e-01 -6.302739820389e+01 0.0 
0.0 0.0 -2.576269826487e+01 
-6.842708396148e+01 2.693626499230e-01 0.0 
2.693626499230e-01 -1.438124152721e+02 0.0 
0.0 0.0 -6.327184977007e+01 
-1.267706706070e+02 1.578841273821e+01 0.0 
1.578841273821e+01 -2.879688040674e+02 0.0 
0.0 0.0 -1.240218424023e+02 
-8.808235273376e+01 2.862785743348e-02 0.0 
2.862785743348e-02 -2.291501769590e+02 0.0 
0.0 0.0 -9.476975890783e+01 
-1.031974098862e+02 8.559042944561e-01 0.0 
8.559042944561e-01 -2.326580909238e+02 0.0 
0.0 0.0 -1.003566502430e+02 
-2.511866004579e+01 -2.117889936175e+00 0.0 
-2.117889936175e+00 -6.153669926086e+01 0.0 
0.0 0.0 -2.559660779200e+01 
-1.785280116531e+01 -5.412587032060e-01 0.0 
-5.412587032060e-01 -1.440636921141e+01 0.0 
0.0 0.0 -9.695023750552e+00 
-8.251614544862e+01 4.925639360114e-01 0.0 
4.925639360114e-01 -1.787608655394e+02 0.0 
0.0 0.0 -7.798310329642e+01 
-1.365776158798e+02 1.785179461861e+01 0.0 
1.785179461861e+01 -3.252128457535e+02 0.0 
0.0 0.0 -1.381371384900e+02 
-1.198518109893e+02 7.634705731765e+00 0.0 
7.634705731765e+00 -2.723211544493e+02 0.0 
0.0 0.0 -1.172518896316e+02 
-7.740549656944e+01 4.254692899845e-01 0.0 
4.254692899845e-01 -1.650437294033e+02 0.0 
0.0 0.0 -7.233476779184e+01 
-2.039753520431e+01 6.283666236831e+00 0.0 
6.283666236831e+00 -4.569783058215e+01 0.0 
0.0 0.0 -1.942860973594e+01 
-1.231990129572e+02 1.551142151916e+01 0.0 
1.551142151916e+01 -2.775959652756e+02 0.0 
0.0 0.0 -1.198384934698e+02 
-7.676813454283e+01 -1.127200730231e-02 0.0 
-1.127200730231e-02 -2.019790447612e+02 0.0 
0.0 0.0 -8.322415379120e+01 
-1.248291820794e+02 1.765004726976e+01 0.0 
1.765004726976e+01 -2.869278979062e+02 0.0 
0.0 0.0 -1.231271239957e+02 
-1.327791774773e+02 1.423729866905e+01 0.0 
1.423729866905e+01 -3.244264581678e+02 0.0 
0.0 0.0 -1.367616906935e+02 
-1.567236022693e+01 6.161488531105e+00 0.0 
6.161488531105e+00 -1.253127003276e+01 0.0 
0.0 0.0 -8.328168055013e+00 
-9.534739787875e+01 3.530262424992e-02 0.0 
3.530262424992e-02 -2.460028933260e+02 0.0 
0.0 0.0 -1.020050873614e+02 
-1.358749984547e+01 -9.120967641678e-01 0.0 
-9.120967641678e-01 -3.030902949603e+01 0.0 
0.0 0.0 -1.287051035196e+01 
-1.500238441961e+02 6.033445378285e+00 0.0 
6.033445378285e+00 -3.598710903388e+02 0.0 
0.0 0.0 -1.525684803605e+02 
-8.015742138092e+01 8.991680824689e-02 0.0 
8.991680824689e-02 -2.104175094110e+02 0.0 
0.0 0.0 -8.677247923757e+01 
-1.004637687423e+01 2.580049412997e+00 0.0 
2.580049412997e+00 -7.823794111549e+00 0.0 
0.0 0.0 -4.961051295733e+00 
-1.177624131160e+01 9.635994353949e-02 0.0 
9.635994353949e-02 -9.364479080947e+00 0.0 
0.0 0.0 -5.942216117764e+00 
-2.141736707911e+01 2.765361445307e+00 0.0 
2.765361445307e+00 -2.890059969853e+01 0.0 
0.0 0.0 -1.469539003329e+01 
-2.016252166900e+01 -2.601935496528e-02 0.0 
-2.601935496528e-02 -3.007493312074e+01 0.0 
0.0 0.0 -1.467123643692e+01 
-3.169307539070e+01 2.240996399941e+00 0.0 
2.240996399941e+00 -4.886089119475e+01 0.0 
0.0 0.0 -2.376618997564e+01 
-2.794648658692e+01 -2.998045072596e-02 0.0 
-2.998045072596e-02 -4.849405668014e+01 0.0 
0.0 0.0 -2.253216298012e+01 
-4.108846653424e+01 1.845372117619e+00 0.0 
1.845372117619e+00 -6.843732851946e+01 0.0 
0.0 0.0 -3.245773851611e+01 
-3.681217463187e+01 -7.288704383897e-02 0.0 
-7.288704383897e-02 -6.912340526529e+01 0.0 
0.0 0.0 -3.138067396915e+01 
-4.983875192667e+01 1.683188635900e+00 0.0 
1.683188635900e+00 -8.805723140571e+01 0.0 
0.0 0.0 -4.096879499971e+01 
-4.453531901881e+01 -1.673996448330e-01 0.0 
-1.673996448330e-01 -8.749577980311e+01 0.0 
0.0 0.0 -3.920932964657e+01 

TENSORS node_materi_strain_total float
-1.804727804311e-06 1.005949672498e-06 0.0 
1.005949672498e-06 1.028074199791e-04 0.0 
0.0 0.0 0.0 
-4.752623212596e-04 -1.835421454478e-05 0.0 
-1.835421454478e-05 9.195137284227e-03 0.0 
0.0 0.0 0.0 
5.117060926330e-05 4.407814073875e-05 0.0 
4.407814073875e-05 8.246193363942e-03 0.0 
0.0 0.0 0.0 
-3.160682296360e-05 4.357153712812e-06 0.0 
4.357153712812e-06 1.295422339814e-02 0.0 
0.0 0.0 0.0 
2.294454517397e-05 -6.552120586640e-06 0.0 
-6.552120586640e-06 2.971973676077e-04 0.0 
0.0 0.0 0.0 
7.436443375826e-05 7.969832836321e-06 0.0 
7.969832836321e-06 6.813271775929e-04 0.0 
0.0 0.0 0.0 
1.466755949722e-04 8.069723002190e-06 0.0 
8.069723002190e-06 1.033774903854e-03 0.0 
0.0 0.0 0.0 
2.152997116737e-04 6.266045016380e-06 0.0 
6.266045016380e-06 1.431944045296e-03 0.0 
0.0 0.0 0.0 
2.856242689807e-04 4.399660662625e-06 0.0 
4.399660662625e-06 1.817077806883e-03 0.0 
0.0 0.0 0.0 
3.569642587919e-04 4.372948147255e-06 0.0 
4.372948147255e-06 2.197448746928e-03 0.0 
0.0 0.0 0.0 
4.208798142038e-04 5.872753875793e-06 0.0 
5.872753875793e-06 2.581476063904e-03 0.0 
0.0 0.0 0.0 
4.759406833685e-04 6.357174116345e-06 0.0 
6.357174116345e-06 2.971639225252e-03 0.0 
0.0 0.0 0.0 
5.217652650177e-04 8.232146731758e-06 0.0 
8.232146731758e-06 3.368942472696e-03 0.0 
0.0 0.0 0.0 
5.523984995218e-04 1.307767511485e-05 0.0 
1.307767511485e-05 3.780865610044e-03 0.0 
0.0 0.0 0.0 
5.649730586798e-04 2.181647322430e-05 0.0 
2.181647322430e-05 4.216255081428e-03 0.0 
0.0 0.0 0.0 
5.741963405207e-04 2.481222842598e-05 0.0 
2.481222842598e-05 4.644552155146e-03 0.0 
0.0 0.0 0.0 
5.694608036615e-04 3.463562203638e-05 0.0 
3.463562203638e-05 5.042781682541e-03 0.0 
0.0 0.0 0.0 
5.391932628490e-04 2.123158177342e-05 0.0 
2.123158177342e-05 5.497271785021e-03 0.0 
0.0 0.0 0.0 
4.920738281684e-04 2.325452892283e-05 0.0 
2.325452892283e-05 5.975936236436e-03 0.0 
0.0 0.0 0.0 
4.285050075033e-04 2.603534106591e-05 0.0 
2.603534106591e-05 6.452366305825e-03 0.0 
0.0 0.0 0.0 
3.454364325735e-04 2.730778582248e-05 0.0 
2.730778582248e-05 6.946261214830e-03 0.0 
0.0 0.0 0.0 
2.426796697090e-04 3.312261976567e-05 0.0 
3.312261976567e-05 7.457167114724e-03 0.0 
0.0 0.0 0.0 
1.414952596025e-04 3.827014854511e-05 0.0 
3.827014854511e-05 7.953616867343e-03 0.0 
0.0 0.0 0.0 
-2.182796409507e-05 4.895320666105e-05 0.0 
4.895320666105e-05 1.297000225270e-02 0.0 
0.0 0.0 0.0 
-2.638704252137e-05 9.073453839281e-05 0.0 
9.073453839281e-05 1.294841502352e-02 0.0 
0.0 0.0 0.0 
-2.626052633529e-05 1.259231535023e-04 0.0 
1.259231535023e-04 1.295091623378e-02 0.0 
0.0 0.0 0.0 
-2.661267909865e-05 1.870412710136e-04 0.0 
1.870412710136e-04 1.294414323553e-02 0.0 
0.0 0.0 0.0 
-3.314589277596e-05 2.280124864037e-04 0.0 
2.280124864037e-04 1.292519116029e-02 0.0 
0.0 0.0 0.0 
-3.000291042798e-05 2.838116782731e-04 0.0 
2.838116782731e-04 1.292696359852e-02 0.0 
0.0 0.0 0.0 
-3.266102008181e-05 3.428305534515e-04 0.0 
3.428305534515e-04 1.291394813255e-02 0.0 
0.0 0.0 0.0 
-3.673790221226e-05 4.054771553263e-04 0.0 
4.054771553263e-04 1.288847502352e-02 0.0 
0.0 0.0 0.0 
-3.766830985630e-05 4.658653801162e-04 0.0 
4.658653801162e-04 1.287700836486e-02 0.0 
0.0 0.0 0.0 
-3.644220943233e-05 5.474451937166e-04 0.0 
5.474451937166e-04 1.284501281510e-02 0.0 
0.0 0.0 0.0 
-4.805685884664e-05 6.159201925796e-04 0.0 
6.159201925796e-04 1.279887541644e-02 0.0 
0.0 0.0 0.0 
-4.519529407813e-05 7.007494878925e-04 0.0 
7.007494878925e-04 1.276307245447e-02 0.0 
0.0 0.0 0.0 
-4.880581728258e-05 7.911608741378e-04 0.0 
7.911608741378e-04 1.270868734322e-02 0.0 
0.0 0.0 0.0 
-4.949417451294e-05 8.815148349727e-04 0.0 
8.815148349727e-04 1.263632210281e-02 0.0 
0.0 0.0 0.0 
-5.566680156051e-05 9.744120379046e-04 0.0 
9.744120379046e-04 1.255253453100e-02 0.0 
0.0 0.0 0.0 
-5.600554938127e-05 1.071118301893e-03 0.0 
1.071118301893e-03 1.244673324732e-02 0.0 
0.0 0.0 0.0 
-6.120071126592e-05 1.167702990393e-03 0.0 
1.167702990393e-03 1.233526241202e-02 0.0 
0.0 0.0 0.0 
-5.967046251561e-05 1.272439425204e-03 0.0 
1.272439425204e-03 1.221189643953e-02 0.0 
0.0 0.0 0.0 
-5.407082567884e-05 1.368296867763e-03 0.0 
1.368296867763e-03 1.207287506067e-02 0.0 
0.0 0.0 0.0 
-4.524401716092e-05 1.460105807930e-03 0.0 
1.460105807930e-03 1.191789904410e-02 0.0 
0.0 0.0 0.0 
-3.678780488732e-05 1.542722857634e-03 0.0 
1.542722857634e-03 1.173664955319e-02 0.0 
0.0 0.0 0.0 
-3.697081083076e-05 1.610886077053e-03 0.0 
1.610886077053e-03 1.154195510790e-02 0.0 
0.0 0.0 0.0 
-2.567100455061e-05 1.667651418269e-03 0.0 
1.667651418269e-03 1.133554041333e-02 0.0 
0.0 0.0 0.0 
-1.760338388938e-05 1.707088855739e-03 0.0 
1.707088855739e-03 1.111944321500e-02 0.0 
0.0 0.0 0.0 
-1.018423808793e-05 1.731323543405e-03 0.0 
1.731323543405e-03 1.090196430406e-02 0.0 
0.0 0.0 0.0 
1.378327807444e-07 1.741535615402e-03 0.0 
1.741535615402e-03 1.068462574557e-02 0.0 
0.0 0.0 0.0 
8.424124608183e-06 1.730759023160e-03 0.0 
1.730759023160e-03 1.046666736918e-02 0.0 
0.0 0.0 0.0 
2.036236463184e-05 1.704725082366e-03 0.0 
1.704725082366e-03 1.025225657804e-02 0.0 
0.0 0.0 0.0 
2.484190025146e-05 1.661884005697e-03 0.0 
1.661884005697e-03 1.004000374286e-02 0.0 
0.0 0.0 0.0 
2.401878671924e-05 1.606839172606e-03 0.0 
1.606839172606e-03 9.863062568881e-03 0.0 
0.0 0.0 0.0 
4.055084792494e-05 1.549356618878e-03 0.0 
1.549356618878e-03 9.661276283033e-03 0.0 
0.0 0.0 0.0 
4.587087805434e-05 1.469250742126e-03 0.0 
1.469250742126e-03 9.463208947838e-03 0.0 
0.0 0.0 0.0 
4.846281805504e-05 1.378245155851e-03 0.0 
1.378245155851e-03 9.291766142654e-03 0.0 
0.0 0.0 0.0 
4.903283239980e-05 1.289892669870e-03 0.0 
1.289892669870e-03 9.154995738173e-03 0.0 
0.0 0.0 0.0 
5.349552295283e-05 1.200490286272e-03 0.0 
1.200490286272e-03 9.021430874256e-03 0.0 
0.0 0.0 0.0 
4.538024597086e-05 1.104396353102e-03 0.0 
1.104396353102e-03 8.902444421568e-03 0.0 
0.0 0.0 0.0 
5.583843462313e-05 1.013444526121e-03 0.0 
1.013444526121e-03 8.799359737269e-03 0.0 
0.0 0.0 0.0 
4.817195671943e-05 9.181666448071e-04 0.0 
9.181666448071e-04 8.696638370249e-03 0.0 
0.0 0.0 0.0 
5.676064357774e-05 8.268721561066e-04 0.0 
8.268721561066e-04 8.607243105486e-03 0.0 
0.0 0.0 0.0 
4.938737470169e-05 7.362140301034e-04 0.0 
7.362140301034e-04 8.525774442967e-03 0.0 
0.0 0.0 0.0 
4.168531398530e-05 6.519380122469e-04 0.0 
6.519380122469e-04 8.475301178491e-03 0.0 
0.0 0.0 0.0 
4.384758842731e-05 5.737668916359e-04 0.0 
5.737668916359e-04 8.447736296871e-03 0.0 
0.0 0.0 0.0 
4.794489024063e-05 4.942210204002e-04 0.0 
4.942210204002e-04 8.415730069884e-03 0.0 
0.0 0.0 0.0 
5.340788588776e-05 4.074010418976e-04 0.0 
4.074010418976e-04 8.306912901629e-03 0.0 
0.0 0.0 0.0 
4.506613877978e-05 3.334054515059e-04 0.0 
3.334054515059e-04 8.335877366911e-03 0.0 
0.0 0.0 0.0 
3.773889601710e-05 2.647487099231e-04 0.0 
2.647487099231e-04 8.291761263759e-03 0.0 
0.0 0.0 0.0 
3.302846696392e-05 1.955670475936e-04 0.0 
1.955670475936e-04 8.285539777739e-03 0.0 
0.0 0.0 0.0 
3.558774549539e-05 1.369479043995e-04 0.0 
1.369479043995e-04 8.291577377854e-03 0.0 
0.0 0.0 0.0 
3.459209452017e-05 7.504611195605e-05 0.0 
7.504611195605e-05 8.282805779393e-03 0.0 
0.0 0.0 0.0 
-4.591841295319e-04 -1.170697990166e-05 0.0 
-1.170697990166e-05 9.619366724912e-03 0.0 
0.0 0.0 0.0 
-4.482129770827e-04 -1.152056990148e-05 0.0 
-1.152056990148e-05 1.003960880637e-02 0.0 
0.0 0.0 0.0 
-4.237395224598e-04 -9.514465537799e-06 0.0 
-9.514465537799e-06 1.044697966490e-02 0.0 
0.0 0.0 0.0 
-3.912365770604e-04 -8.210866438978e-06 0.0 
-8.210866438978e-06 1.083989612104e-02 0.0 
0.0 0.0 0.0 
-3.497489835640e-04 -4.677604691665e-06 0.0 
-4.677604691665e-06 1.123385121074e-02 0.0 
0.0 0.0 0.0 
-2.957126711276e-04 -3.469060084290e-06 0.0 
-3.469060084290e-06 1.162037071194e-02 0.0 
0.0 0.0 0.0 
-2.369807367708e-04 -7.284887261506e-07 0.0 
-7.284887261506e-07 1.199717017316e-02 0.0 
0.0 0.0 0.0 
-1.658896135998e-04 5.505168792141e-07 0.0 
5.505168792141e-07 1.236501604621e-02 0.0 
0.0 0.0 0.0 
-9.373348703097e-05 2.526788104847e-07 0.0 
2.526788104847e-07 1.273461697868e-02 0.0 
0.0 0.0 0.0 
-7.190723568400e-04 4.097847752510e-04 0.0 
4.097847752510e-04 4.686220702361e-04 0.0 
0.0 0.0 0.0 
-7.785818352633e-04 1.703777415395e-04 0.0 
1.703777415395e-04 9.236028563780e-03 0.0 
0.0 0.0 0.0 
-7.942324523030e-04 9.931111933035e-04 0.0 
9.931111933035e-04 1.268756589061e-03 0.0 
0.0 0.0 0.0 
-8.319981440498e-04 1.210805025882e-03 0.0 
1.210805025882e-03 2.535722475618e-03 0.0 
0.0 0.0 0.0 
-8.044048324763e-04 1.255509096650e-03 0.0 
1.255509096650e-03 3.898006224933e-03 0.0 
0.0 0.0 0.0 
-7.498651132366e-04 1.165811694433e-03 0.0 
1.165811694433e-03 5.256335565345e-03 0.0 
0.0 0.0 0.0 
-7.305099776046e-04 7.840662385178e-04 0.0 
7.840662385178e-04 6.765363307028e-03 0.0 
0.0 0.0 0.0 
-6.070584591916e-04 4.050384622237e-04 0.0 
4.050384622237e-04 7.385916010404e-03 0.0 
0.0 0.0 0.0 
-6.783674690178e-04 3.001423706593e-04 0.0 
3.001423706593e-04 7.852592455258e-03 0.0 
0.0 0.0 0.0 
-7.383498911373e-04 2.250602646540e-04 0.0 
2.250602646540e-04 8.316040629583e-03 0.0 
0.0 0.0 0.0 
-7.677402987810e-04 1.850203938818e-04 0.0 
1.850203938818e-04 8.768524195734e-03 0.0 
0.0 0.0 0.0 
-5.313147915379e-04 -2.034603067818e-05 0.0 
-2.034603067818e-05 7.224844305285e-03 0.0 
0.0 0.0 0.0 
-4.897271059173e-04 -3.145540005082e-05 0.0 
-3.145540005082e-05 7.473194993588e-03 0.0 
0.0 0.0 0.0 
-4.745088134460e-04 -2.949948716216e-05 0.0 
-2.949948716216e-05 7.894590868897e-03 0.0 
0.0 0.0 0.0 
-4.721418181666e-04 -3.438593555476e-05 0.0 
-3.438593555476e-05 8.323723051335e-03 0.0 
0.0 0.0 0.0 
-4.713559946042e-04 -2.427781949694e-05 0.0 
-2.427781949694e-05 8.750453215667e-03 0.0 
0.0 0.0 0.0 
-4.714412321260e-04 6.416301187962e-06 0.0 
6.416301187962e-06 9.137502224243e-03 0.0 
0.0 0.0 0.0 
-4.732863579906e-04 -2.877882217364e-06 0.0 
-2.877882217364e-06 9.165897593257e-03 0.0 
0.0 0.0 0.0 
-4.813866267683e-04 -3.652695343538e-06 0.0 
-3.652695343538e-06 9.171478225647e-03 0.0 
0.0 0.0 0.0 
-4.892469506878e-04 -5.781556336954e-06 0.0 
-5.781556336954e-06 9.169697100132e-03 0.0 
0.0 0.0 0.0 
-4.970260151232e-04 -1.156135721986e-06 0.0 
-1.156135721986e-06 9.230675358030e-03 0.0 
0.0 0.0 0.0 
-5.105470893793e-04 -3.163919879374e-06 0.0 
-3.163919879374e-06 9.186019882850e-03 0.0 
0.0 0.0 0.0 
-5.241253940353e-04 -4.005427547938e-06 0.0 
-4.005427547938e-06 9.185874195182e-03 0.0 
0.0 0.0 0.0 
-5.406875593379e-04 9.813204349434e-07 0.0 
9.813204349434e-07 9.195413129429e-03 0.0 
0.0 0.0 0.0 
-5.665890755659e-04 4.952011719406e-06 0.0 
4.952011719406e-06 9.212134736480e-03 0.0 
0.0 0.0 0.0 
-5.921970042144e-04 1.419866905852e-05 0.0 
1.419866905852e-05 9.215369028711e-03 0.0 
0.0 0.0 0.0 
-6.174505076712e-04 2.654254989737e-05 0.0 
2.654254989737e-05 9.217058503972e-03 0.0 
0.0 0.0 0.0 
-6.498302685162e-04 4.467137386902e-05 0.0 
4.467137386902e-05 9.218824554363e-03 0.0 
0.0 0.0 0.0 
-6.835751299852e-04 7.466394457914e-05 0.0 
7.466394457914e-05 9.219156430000e-03 0.0 
0.0 0.0 0.0 
-7.226602028487e-04 1.154428329219e-04 0.0 
1.154428329219e-04 9.223070143884e-03 0.0 
0.0 0.0 0.0 
-8.379008277604e-04 1.394274830115e-04 0.0 
1.394274830115e-04 5.095332670225e-04 0.0 
0.0 0.0 0.0 
-9.420115652153e-04 2.071473348730e-05 0.0 
2.071473348730e-05 5.295942748704e-04 0.0 
0.0 0.0 0.0 
-9.417389317379e-04 -3.813345705559e-05 0.0 
-3.813345705559e-05 5.091513720858e-04 0.0 
0.0 0.0 0.0 
-8.726465286772e-04 -5.102675633917e-05 0.0 
-5.102675633917e-05 4.744517680632e-04 0.0 
0.0 0.0 0.0 
-7.729420037593e-04 -6.334662192177e-05 0.0 
-6.334662192177e-05 4.397008256863e-04 0.0 
0.0 0.0 0.0 
-6.912554493815e-04 -6.172048225466e-05 0.0 
-6.172048225466e-05 4.098031900487e-04 0.0 
0.0 0.0 0.0 
-6.062423144798e-04 -5.826960741871e-05 0.0 
-5.826960741871e-05 3.745947399990e-04 0.0 
0.0 0.0 0.0 
-5.205702624447e-04 -5.481811151510e-05 0.0 
-5.481811151510e-05 3.371431945625e-04 0.0 
0.0 0.0 0.0 
-4.403725235379e-04 -5.287778855263e-05 0.0 
-5.287778855263e-05 3.030102961500e-04 0.0 
0.0 0.0 0.0 
-3.646718841800e-04 -4.926853378203e-05 0.0 
-4.926853378203e-05 2.700005747052e-04 0.0 
0.0 0.0 0.0 
-2.921664410763e-04 -4.417233829090e-05 0.0 
-4.417233829090e-05 2.435359622495e-04 0.0 
0.0 0.0 0.0 
-2.480005980343e-04 -3.854715594481e-05 0.0 
-3.854715594481e-05 2.274794234784e-04 0.0 
0.0 0.0 0.0 
-1.833162624331e-04 -3.039602452598e-05 0.0 
-3.039602452598e-05 1.961786234512e-04 0.0 
0.0 0.0 0.0 
-1.232488823657e-04 -2.980871333219e-05 0.0 
-2.980871333219e-05 1.643816054803e-04 0.0 
0.0 0.0 0.0 
-8.157017614063e-05 -2.898242900241e-05 0.0 
-2.898242900241e-05 1.471686335368e-04 0.0 
0.0 0.0 0.0 
-5.637643613761e-05 -2.134850993073e-05 0.0 
-2.134850993073e-05 1.384717347028e-04 0.0 
0.0 0.0 0.0 
-3.281820718770e-05 -1.142341843880e-05 0.0 
-1.142341843880e-05 1.280896430356e-04 0.0 
0.0 0.0 0.0 
-5.752591344203e-06 -5.251952068302e-07 0.0 
-5.251952068302e-07 1.089428785357e-04 0.0 
0.0 0.0 0.0 
3.900229411324e-06 4.609520425311e-06 0.0 
4.609520425311e-06 9.539160158223e-05 0.0 
0.0 0.0 0.0 
-3.895116859967e-04 2.197658014723e-04 0.0 
2.197658014723e-04 7.072645338101e-03 0.0 
0.0 0.0 0.0 
-1.978454946024e-04 1.227426622704e-04 0.0 
1.227426622704e-04 7.091896412239e-03 0.0 
0.0 0.0 0.0 
-1.070507420194e-04 5.116139385480e-05 0.0 
5.116139385480e-05 7.097668949310e-03 0.0 
0.0 0.0 0.0 
-8.738349277119e-05 -8.876669237131e-07 0.0 
-8.876669237131e-07 7.094654490925e-03 0.0 
0.0 0.0 0.0 
-8.855715730486e-05 -1.665380917353e-05 0.0 
-1.665380917353e-05 7.102704979820e-03 0.0 
0.0 0.0 0.0 
-1.124163235515e-04 -2.636881556736e-05 0.0 
-2.636881556736e-05 7.111008073661e-03 0.0 
0.0 0.0 0.0 
-1.448767684085e-04 -2.907102200414e-05 0.0 
-2.907102200414e-05 7.125149386337e-03 0.0 
0.0 0.0 0.0 
-1.826499076697e-04 -3.025673921160e-05 0.0 
-3.025673921160e-05 7.139753253295e-03 0.0 
0.0 0.0 0.0 
-2.209984714710e-04 -2.969923764129e-05 0.0 
-2.969923764129e-05 7.155479317546e-03 0.0 
0.0 0.0 0.0 
-2.583060931644e-04 -2.845259205918e-05 0.0 
-2.845259205918e-05 7.170953166828e-03 0.0 
0.0 0.0 0.0 
-2.929461437700e-04 -2.642633256610e-05 0.0 
-2.642633256610e-05 7.185628866026e-03 0.0 
0.0 0.0 0.0 
-3.244032229393e-04 -2.414789945828e-05 0.0 
-2.414789945828e-05 7.198787785390e-03 0.0 
0.0 0.0 0.0 
-3.524601976791e-04 -2.177224545530e-05 0.0 
-2.177224545530e-05 7.210444000879e-03 0.0 
0.0 0.0 0.0 
-3.770195825624e-04 -1.932202103547e-05 0.0 
-1.932202103547e-05 7.220574209345e-03 0.0 
0.0 0.0 0.0 
-3.980438195554e-04 -1.674860570871e-05 0.0 
-1.674860570871e-05 7.229119990204e-03 0.0 
0.0 0.0 0.0 
-4.155556867868e-04 -1.395990561119e-05 0.0 
-1.395990561119e-05 7.236079054970e-03 0.0 
0.0 0.0 0.0 
-4.296164250026e-04 -1.083435276646e-05 0.0 
-1.083435276646e-05 7.241608568283e-03 0.0 
0.0 0.0 0.0 
-4.402834480193e-04 -6.930764746443e-06 0.0 
-6.930764746443e-06 7.246152867290e-03 0.0 
0.0 0.0 0.0 
-4.474761721328e-04 -1.529760509215e-06 0.0 
-1.529760509215e-06 7.250178098826e-03 0.0 
0.0 0.0 0.0 
-4.514384422838e-04 5.875923658334e-06 0.0 
5.875923658334e-06 7.252657878012e-03 0.0 
0.0 0.0 0.0 
-4.678136358469e-04 1.230380822038e-05 0.0 
1.230380822038e-05 7.243601562875e-03 0.0 
0.0 0.0 0.0 
-5.027167908581e-04 2.852899075013e-05 0.0 
2.852899075013e-05 7.203989689625e-03 0.0 
0.0 0.0 0.0 
-4.837162637930e-04 1.446004339657e-05 0.0 
1.446004339657e-05 7.472459401732e-03 0.0 
0.0 0.0 0.0 
-4.676616169484e-04 3.055314920217e-06 0.0 
3.055314920217e-06 7.469971308754e-03 0.0 
0.0 0.0 0.0 
-4.603644696897e-04 -5.216783996334e-06 0.0 
-5.216783996334e-06 7.467258708218e-03 0.0 
0.0 0.0 0.0 
-4.537271855444e-04 -1.095040514932e-05 0.0 
-1.095040514932e-05 7.463609184822e-03 0.0 
0.0 0.0 0.0 
-4.464592726418e-04 -1.640216645111e-05 0.0 
-1.640216645111e-05 7.460145418732e-03 0.0 
0.0 0.0 0.0 
-4.377906812102e-04 -2.157451992366e-05 0.0 
-2.157451992366e-05 7.456456949429e-03 0.0 
0.0 0.0 0.0 
-4.272433996886e-04 -2.666410059472e-05 0.0 
-2.666410059472e-05 7.452014705107e-03 0.0 
0.0 0.0 0.0 
-4.145533253352e-04 -3.166363930315e-05 0.0 
-3.166363930315e-05 7.446445211372e-03 0.0 
0.0 0.0 0.0 
-3.997253158234e-04 -3.644183237949e-05 0.0 
-3.644183237949e-05 7.439813244749e-03 0.0 
0.0 0.0 0.0 
-3.831292897583e-04 -4.094388279498e-05 0.0 
-4.094388279498e-05 7.432308171231e-03 0.0 
0.0 0.0 0.0 
-3.649807098400e-04 -4.511860130010e-05 0.0 
-4.511860130010e-05 7.423988285261e-03 0.0 
0.0 0.0 0.0 
-3.456247914701e-04 -4.866071006951e-05 0.0 
-4.866071006951e-05 7.414834941968e-03 0.0 
0.0 0.0 0.0 
-3.258137732179e-04 -5.083752266612e-05 0.0 
-5.083752266612e-05 7.405009530006e-03 0.0 
0.0 0.0 0.0 
-3.071502774891e-04 -5.028568343648e-05 0.0 
-5.028568343648e-05 7.395891604805e-03 0.0 
0.0 0.0 0.0 
-2.923538365112e-04 -4.674106503388e-05 0.0 
-4.674106503388e-05 7.387880830219e-03 0.0 
0.0 0.0 0.0 
-2.838592176041e-04 -3.705894149464e-05 0.0 
-3.705894149464e-05 7.382383989739e-03 0.0 
0.0 0.0 0.0 
-2.870126556322e-04 -2.009463460610e-05 0.0 
-2.009463460610e-05 7.377444423109e-03 0.0 
0.0 0.0 0.0 
-3.025548349301e-04 1.669986567588e-05 0.0 
1.669986567588e-05 7.376630961890e-03 0.0 
0.0 0.0 0.0 
-3.658589320150e-04 8.892811328634e-05 0.0 
8.892811328634e-05 7.400979393302e-03 0.0 
0.0 0.0 0.0 
-4.024121368384e-04 1.634815024264e-04 0.0 
1.634815024264e-04 7.334465972242e-03 0.0 
0.0 0.0 0.0 
-5.670073981101e-04 1.473235818377e-04 0.0 
1.473235818377e-04 7.817588441109e-03 0.0 
0.0 0.0 0.0 
-5.468368011141e-04 8.337260244444e-05 0.0 
8.337260244444e-05 7.897962996047e-03 0.0 
0.0 0.0 0.0 
-4.979476507751e-04 1.917730245761e-05 0.0 
1.917730245761e-05 7.881898325275e-03 0.0 
0.0 0.0 0.0 
-4.733321160801e-04 -1.715201838321e-05 0.0 
-1.715201838321e-05 7.880084323406e-03 0.0 
0.0 0.0 0.0 
-4.553222483164e-04 -3.707437397299e-05 0.0 
-3.707437397299e-05 7.880451926498e-03 0.0 
0.0 0.0 0.0 
-4.465063482894e-04 -4.896225996088e-05 0.0 
-4.896225996088e-05 7.880551149986e-03 0.0 
0.0 0.0 0.0 
-4.430191749270e-04 -5.351667632667e-05 0.0 
-5.351667632667e-05 7.883250349501e-03 0.0 
0.0 0.0 0.0 
-4.425852822130e-04 -5.364549350495e-05 0.0 
-5.364549350495e-05 7.885462163351e-03 0.0 
0.0 0.0 0.0 
-4.441406315172e-04 -5.133217701826e-05 0.0 
-5.133217701826e-05 7.887530091582e-03 0.0 
0.0 0.0 0.0 
-4.466965105623e-04 -4.769901982679e-05 0.0 
-4.769901982679e-05 7.889441016802e-03 0.0 
0.0 0.0 0.0 
-4.501838529938e-04 -4.326035630459e-05 0.0 
-4.326035630459e-05 7.891635686392e-03 0.0 
0.0 0.0 0.0 
-4.540218837394e-04 -3.777848634071e-05 0.0 
-3.777848634071e-05 7.893698380572e-03 0.0 
0.0 0.0 0.0 
-4.571822756638e-04 -3.188701399085e-05 0.0 
-3.188701399085e-05 7.895017518838e-03 0.0 
0.0 0.0 0.0 
-4.603151944957e-04 -2.611089032352e-05 0.0 
-2.611089032352e-05 7.896144460514e-03 0.0 
0.0 0.0 0.0 
-4.634475599767e-04 -2.057441460846e-05 0.0 
-2.057441460846e-05 7.897535203418e-03 0.0 
0.0 0.0 0.0 
-4.670747392104e-04 -1.560161525305e-05 0.0 
-1.560161525305e-05 7.899371885925e-03 0.0 
0.0 0.0 0.0 
-4.710385127394e-04 -1.224264461318e-05 0.0 
-1.224264461318e-05 7.901068017431e-03 0.0 
0.0 0.0 0.0 
-4.748588889158e-04 -1.107026883758e-05 0.0 
-1.107026883758e-05 7.900522667695e-03 0.0 
0.0 0.0 0.0 
-4.751688021588e-04 1.077340154325e-05 0.0 
1.077340154325e-05 7.896929288073e-03 0.0 
0.0 0.0 0.0 
-4.748553286286e-04 4.029413401377e-06 0.0 
4.029413401377e-06 8.327523584839e-03 0.0 
0.0 0.0 0.0 
-4.755097087705e-04 -1.146471191949e-05 0.0 
-1.146471191949e-05 8.329873462199e-03 0.0 
0.0 0.0 0.0 
-4.759098111417e-04 -1.676580883352e-05 0.0 
-1.676580883352e-05 8.331130109434e-03 0.0 
0.0 0.0 0.0 
-4.767275607790e-04 -2.087062063535e-05 0.0 
-2.087062063535e-05 8.332029713223e-03 0.0 
0.0 0.0 0.0 
-4.777850949939e-04 -2.538647748889e-05 0.0 
-2.538647748889e-05 8.332630580690e-03 0.0 
0.0 0.0 0.0 
-4.806423012054e-04 -3.066028806922e-05 0.0 
-3.066028806922e-05 8.334122896327e-03 0.0 
0.0 0.0 0.0 
-4.843481937544e-04 -3.576957743441e-05 0.0 
-3.576957743441e-05 8.335984690467e-03 0.0 
0.0 0.0 0.0 
-4.896105604030e-04 -4.152845177012e-05 0.0 
-4.152845177012e-05 8.337734503871e-03 0.0 
0.0 0.0 0.0 
-4.953125910237e-04 -4.515953834447e-05 0.0 
-4.515953834447e-05 8.338434054900e-03 0.0 
0.0 0.0 0.0 
-5.040732554590e-04 -4.681783329449e-05 0.0 
-4.681783329449e-05 8.340907784973e-03 0.0 
0.0 0.0 0.0 
-5.151949051876e-04 -4.693985367169e-05 0.0 
-4.693985367169e-05 8.343533465792e-03 0.0 
0.0 0.0 0.0 
-5.290472524034e-04 -4.326138570921e-05 0.0 
-4.326138570921e-05 8.345530740960e-03 0.0 
0.0 0.0 0.0 
-5.475818680579e-04 -3.428973585887e-05 0.0 
-3.428973585887e-05 8.347779289088e-03 0.0 
0.0 0.0 0.0 
-5.704879191629e-04 -1.700742750469e-05 0.0 
-1.700742750469e-05 8.346715113712e-03 0.0 
0.0 0.0 0.0 
-5.974222150503e-04 1.607595162373e-05 0.0 
1.607595162373e-05 8.348525831991e-03 0.0 
0.0 0.0 0.0 
-6.424392113573e-04 6.826647295677e-05 0.0 
6.826647295677e-05 8.366915742892e-03 0.0 
0.0 0.0 0.0 
-6.616313444266e-04 1.174201411771e-04 0.0 
1.174201411771e-04 8.285634508987e-03 0.0 
0.0 0.0 0.0 
-7.048345209500e-04 1.081538635671e-04 0.0 
1.081538635671e-04 8.732952891947e-03 0.0 
0.0 0.0 0.0 
-6.883567173686e-04 7.053891145789e-05 0.0 
7.053891145789e-05 8.814574771219e-03 0.0 
0.0 0.0 0.0 
-6.486857201062e-04 3.066307340548e-05 0.0 
3.066307340548e-05 8.800602868782e-03 0.0 
0.0 0.0 0.0 
-6.151126382275e-04 7.313480353526e-06 0.0 
7.313480353526e-06 8.797363568339e-03 0.0 
0.0 0.0 0.0 
-5.885273824344e-04 -8.551408663580e-06 0.0 
-8.551408663580e-06 8.794776784089e-03 0.0 
0.0 0.0 0.0 
-5.656731556258e-04 -1.675066524814e-05 0.0 
-1.675066524814e-05 8.790892574238e-03 0.0 
0.0 0.0 0.0 
-5.463441460146e-04 -2.108746064091e-05 0.0 
-2.108746064091e-05 8.785012424053e-03 0.0 
0.0 0.0 0.0 
-5.301682268701e-04 -2.406273854036e-05 0.0 
-2.406273854036e-05 8.780820834584e-03 0.0 
0.0 0.0 0.0 
-5.149034109731e-04 -2.219941998652e-05 0.0 
-2.219941998652e-05 8.777270926916e-03 0.0 
0.0 0.0 0.0 
-5.046305180251e-04 -2.141855129970e-05 0.0 
-2.141855129970e-05 8.772246421430e-03 0.0 
0.0 0.0 0.0 
-4.952024118946e-04 -1.846074781161e-05 0.0 
-1.846074781161e-05 8.768463124918e-03 0.0 
0.0 0.0 0.0 
-4.882294811123e-04 -1.739558066459e-05 0.0 
-1.739558066459e-05 8.764843613496e-03 0.0 
0.0 0.0 0.0 
-4.835751393847e-04 -1.426317304120e-05 0.0 
-1.426317304120e-05 8.763018499112e-03 0.0 
0.0 0.0 0.0 
-4.785845032204e-04 -1.266585642370e-05 0.0 
-1.266585642370e-05 8.758713853331e-03 0.0 
0.0 0.0 0.0 
-4.756490339623e-04 -1.340572322112e-05 0.0 
-1.340572322112e-05 8.758532699284e-03 0.0 
0.0 0.0 0.0 
-4.763420803071e-04 1.303576672123e-05 0.0 
1.303576672123e-05 8.759113906598e-03 0.0 
0.0 0.0 0.0 
-7.356925864467e-04 7.511820971755e-04 0.0 
7.511820971755e-04 7.466590277005e-04 0.0 
0.0 0.0 0.0 
-8.274268828727e-04 1.135900338598e-03 0.0 
1.135900338598e-03 1.888568468271e-03 0.0 
0.0 0.0 0.0 
-8.215780908622e-04 1.251376050275e-03 0.0 
1.251376050275e-03 3.214564341900e-03 0.0 
0.0 0.0 0.0 
-7.733163471272e-04 1.234242582076e-03 0.0 
1.234242582076e-03 4.591519072718e-03 0.0 
0.0 0.0 0.0 
-7.930040853777e-04 1.157560992725e-03 0.0 
1.157560992725e-03 5.968996504352e-03 0.0 
0.0 0.0 0.0 
-6.612651806162e-04 5.222392709306e-04 0.0 
5.222392709306e-04 7.198656313856e-03 0.0 
0.0 0.0 0.0 
-6.712827296004e-04 3.686920190561e-04 0.0 
3.686920190561e-04 7.675794634895e-03 0.0 
0.0 0.0 0.0 
-7.291636391105e-04 2.742797617190e-04 0.0 
2.742797617190e-04 8.136280856126e-03 0.0 
0.0 0.0 0.0 
-7.678252140680e-04 2.149982405464e-04 0.0 
2.149982405464e-04 8.589165102498e-03 0.0 
0.0 0.0 0.0 
-7.745707487282e-04 1.865571934063e-04 0.0 
1.865571934063e-04 9.034738005425e-03 0.0 
0.0 0.0 0.0 
-6.122568338009e-04 1.059544757349e-03 0.0 
1.059544757349e-03 2.272868639183e-03 0.0 
0.0 0.0 0.0 
1.456536934443e-04 1.300427319466e-03 0.0 
1.300427319466e-03 8.991674933377e-03 0.0 
0.0 0.0 0.0 
-3.127964088119e-04 -8.839778797550e-05 0.0 
-8.839778797550e-05 3.858212275804e-04 0.0 
0.0 0.0 0.0 
-6.228954409582e-04 -8.252906537701e-05 0.0 
-8.252906537701e-05 5.107913564277e-04 0.0 
0.0 0.0 0.0 
1.509515572143e-04 8.568875336007e-04 0.0 
8.568875336007e-04 8.424819614819e-03 0.0 
0.0 0.0 0.0 
-6.182755781506e-04 1.263803401620e-03 0.0 
1.263803401620e-03 4.949416964240e-03 0.0 
0.0 0.0 0.0 
5.634543271909e-04 -1.940847447242e-07 0.0 
-1.940847447242e-07 4.012423252113e-03 0.0 
0.0 0.0 0.0 
9.345455331057e-05 1.594588751476e-03 0.0 
1.594588751476e-03 9.695528021084e-03 0.0 
0.0 0.0 0.0 
-7.913036276060e-04 8.348409321187e-04 0.0 
8.348409321187e-04 7.323047544162e-03 0.0 
0.0 0.0 0.0 
-8.546855884806e-06 1.701999650567e-03 0.0 
1.701999650567e-03 1.060955456902e-02 0.0 
0.0 0.0 0.0 
-8.504692518127e-04 4.036298113994e-04 0.0 
4.036298113994e-04 8.443309775452e-03 0.0 
0.0 0.0 0.0 
1.315299050042e-04 5.184331932086e-04 0.0 
5.184331932086e-04 8.216010566254e-03 0.0 
0.0 0.0 0.0 
-1.060415189178e-04 -5.212223856047e-05 0.0 
-5.212223856047e-05 2.847126326023e-04 0.0 
0.0 0.0 0.0 
-1.086114119938e-04 1.545470522283e-03 0.0 
1.545470522283e-03 1.150107178000e-02 0.0 
0.0 0.0 0.0 
-8.322974067215e-04 2.715736593784e-04 0.0 
2.715736593784e-04 9.373062796485e-03 0.0 
0.0 0.0 0.0 
3.940369312794e-04 -1.754993674628e-05 0.0 
-1.754993674628e-05 2.406611167838e-03 0.0 
0.0 0.0 0.0 
5.584788326313e-04 2.378367141403e-05 0.0 
2.378367141403e-05 5.200294058015e-03 0.0 
0.0 0.0 0.0 
-1.627764479847e-04 1.290002687209e-03 0.0 
1.290002687209e-03 1.201007488794e-02 0.0 
0.0 0.0 0.0 
-1.514772719995e-04 9.049419301843e-04 0.0 
9.049419301843e-04 1.247565162126e-02 0.0 
0.0 0.0 0.0 
-9.026071378104e-05 2.498105847787e-04 0.0 
2.498105847787e-04 1.278454154600e-02 0.0 
0.0 0.0 0.0 
-1.207743927141e-04 4.289011886633e-04 0.0 
4.289011886633e-04 1.271243458449e-02 0.0 
0.0 0.0 0.0 
-1.321551109444e-04 6.433477075352e-04 0.0 
6.433477075352e-04 1.265727101219e-02 0.0 
0.0 0.0 0.0 
-7.365374707270e-04 1.582671928297e-04 0.0 
1.582671928297e-04 9.601578089812e-03 0.0 
0.0 0.0 0.0 
-5.956572221715e-04 5.114411716866e-05 0.0 
5.114411716866e-05 9.604966756281e-03 0.0 
0.0 0.0 0.0 
-5.246638419229e-04 2.263243028626e-05 0.0 
2.263243028626e-05 9.614462498689e-03 0.0 
0.0 0.0 0.0 
-3.709235993206e-04 1.244759237249e-05 0.0 
1.244759237249e-05 1.104115930577e-02 0.0 
0.0 0.0 0.0 
1.189909665310e-04 2.979103251884e-04 0.0 
2.979103251884e-04 8.095435867611e-03 0.0 
0.0 0.0 0.0 
-6.691521479716e-04 1.011232150586e-04 0.0 
1.011232150586e-04 5.892953991669e-04 0.0 
0.0 0.0 0.0 
-9.320800356668e-06 -2.938918726938e-05 0.0 
-2.938918726938e-05 2.616336349910e-04 0.0 
0.0 0.0 0.0 
3.913451627020e-04 4.234527080682e-05 0.0 
4.234527080682e-05 6.681464156860e-03 0.0 
0.0 0.0 0.0 
-4.818294022561e-04 9.624724750411e-06 0.0 
9.624724750411e-06 9.547598489696e-03 0.0 
0.0 0.0 0.0 
1.780191074853e-04 -2.296746429738e-05 0.0 
-2.296746429738e-05 1.232391307774e-03 0.0 
0.0 0.0 0.0 
-1.864336773354e-04 1.078842985234e-03 0.0 
1.078842985234e-03 1.223787427813e-02 0.0 
0.0 0.0 0.0 
4.313701801821e-05 1.687771827691e-03 0.0 
1.687771827691e-03 1.017803441171e-02 0.0 
0.0 0.0 0.0 
-6.364100188352e-05 1.654412312064e-03 0.0 
1.654412312064e-03 1.107623419208e-02 0.0 
0.0 0.0 0.0 
1.335563674492e-04 1.472732795819e-03 0.0 
1.472732795819e-03 9.311840456668e-03 0.0 
0.0 0.0 0.0 
1.417378186634e-04 1.123917543187e-03 0.0 
1.123917543187e-03 8.739636773682e-03 0.0 
0.0 0.0 0.0 
-4.976848546207e-04 -9.816776839181e-05 0.0 
-9.816776839181e-05 4.768208368939e-04 0.0 
0.0 0.0 0.0 
-6.584572317325e-04 8.807409618007e-05 0.0 
8.807409618007e-05 9.596677731055e-03 0.0 
0.0 0.0 0.0 
1.616499141025e-04 6.687672393668e-04 0.0 
6.687672393668e-04 8.199725298260e-03 0.0 
0.0 0.0 0.0 
-2.732098595444e-04 2.292869691769e-05 0.0 
2.292869691769e-05 1.180210824954e-02 0.0 
0.0 0.0 0.0 
-1.971094888483e-04 -8.092228170615e-05 0.0 
-8.092228170615e-05 3.440886987777e-04 0.0 
0.0 0.0 0.0 
5.010197515454e-04 -1.183355215802e-05 0.0 
-1.183355215802e-05 3.171772955315e-03 0.0 
0.0 0.0 0.0 
-7.134019932946e-05 1.542452416919e-04 0.0 
1.542452416919e-04 1.284906208535e-02 0.0 
0.0 0.0 0.0 
-7.023660044596e-04 1.219636645979e-03 0.0 
1.219636645979e-03 6.277941984988e-03 0.0 
0.0 0.0 0.0 
-6.120512909506e-04 1.216198326517e-03 0.0 
1.216198326517e-03 3.580728802689e-03 0.0 
0.0 0.0 0.0 
-8.375184977189e-04 5.690180174642e-04 0.0 
5.690180174642e-04 7.945956439688e-03 0.0 
0.0 0.0 0.0 
-8.514554699518e-04 3.149288120613e-04 0.0 
3.149288120613e-04 8.911793497418e-03 0.0 
0.0 0.0 0.0 
-6.200725557333e-04 7.339129940595e-04 0.0 
7.339129940595e-04 1.091670121074e-03 0.0 
0.0 0.0 0.0 
-4.334474258387e-04 7.554181883092e-06 0.0 
7.554181883092e-06 1.027655395814e-02 0.0 
0.0 0.0 0.0 
9.124912541965e-05 1.634376630615e-04 0.0 
1.634376630615e-04 8.148746840196e-03 0.0 
0.0 0.0 0.0 
2.441525088050e-05 -5.605605174904e-06 0.0 
-5.605605174904e-06 2.295418546331e-04 0.0 
0.0 0.0 0.0 
-1.306525222069e-04 3.888893811042e-05 0.0 
3.888893811042e-05 1.252872635755e-02 0.0 
0.0 0.0 0.0 
-8.211238392549e-04 2.638002568252e-04 0.0 
2.638002568252e-04 9.580895534556e-03 0.0 
0.0 0.0 0.0 
-8.485563391682e-04 3.625390970026e-04 0.0 
3.625390970026e-04 9.708166678404e-03 0.0 
0.0 0.0 0.0 
-8.134571468481e-04 3.358880324109e-04 0.0 
3.358880324109e-04 9.923732457215e-03 0.0 
0.0 0.0 0.0 
-8.400808985340e-04 4.572800800951e-04 0.0 
4.572800800951e-04 1.004974988446e-02 0.0 
0.0 0.0 0.0 
-8.066377475045e-04 4.374310059444e-04 0.0 
4.374310059444e-04 1.028896062998e-02 0.0 
0.0 0.0 0.0 
-8.108890221744e-04 5.503195491238e-04 0.0 
5.503195491238e-04 1.038347890054e-02 0.0 
0.0 0.0 0.0 
-8.443981051521e-04 5.826198729796e-04 0.0 
5.826198729796e-04 1.013360582243e-02 0.0 
0.0 0.0 0.0 
-7.983116543997e-04 6.733883991684e-04 0.0 
6.733883991684e-04 1.045278362645e-02 0.0 
0.0 0.0 0.0 
-8.264441895796e-04 7.148213971798e-04 0.0 
7.148213971798e-04 1.018294814116e-02 0.0 
0.0 0.0 0.0 
-7.686767130914e-04 5.283358486035e-04 0.0 
5.283358486035e-04 1.062680133967e-02 0.0 
0.0 0.0 0.0 
-7.667865341982e-04 7.990427475405e-04 0.0 
7.990427475405e-04 1.049267288253e-02 0.0 
0.0 0.0 0.0 
-7.867453082734e-04 8.476215190992e-04 0.0 
8.476215190992e-04 1.020058506459e-02 0.0 
0.0 0.0 0.0 
-7.159685652768e-04 9.239005951057e-04 0.0 
9.239005951057e-04 1.050341024054e-02 0.0 
0.0 0.0 0.0 
-7.257422416265e-04 9.762517009594e-04 0.0 
9.762517009594e-04 1.018804667371e-02 0.0 
0.0 0.0 0.0 
-7.919058495693e-04 9.090549728045e-04 0.0 
9.090549728045e-04 9.889945255599e-03 0.0 
0.0 0.0 0.0 
-7.169262175815e-04 1.039574926570e-03 0.0 
1.039574926570e-03 9.850102878307e-03 0.0 
0.0 0.0 0.0 
-7.797361199856e-04 9.835072866756e-04 0.0 
9.835072866756e-04 9.556276901962e-03 0.0 
0.0 0.0 0.0 
-6.875497748786e-04 1.113228951905e-03 0.0 
1.113228951905e-03 9.485038162768e-03 0.0 
0.0 0.0 0.0 
-6.225285820106e-04 1.154831434624e-03 0.0 
1.154831434624e-03 9.784724706190e-03 0.0 
0.0 0.0 0.0 
-5.760088317671e-04 1.221069783845e-03 0.0 
1.221069783845e-03 9.389243555267e-03 0.0 
0.0 0.0 0.0 
-6.339618819149e-04 1.194938144362e-03 0.0 
1.194938144362e-03 9.086780900793e-03 0.0 
0.0 0.0 0.0 
-5.042094039280e-04 1.290985844231e-03 0.0 
1.290985844231e-03 8.960283428547e-03 0.0 
0.0 0.0 0.0 
-5.542203232161e-04 1.280873766489e-03 0.0 
1.280873766489e-03 8.651565126035e-03 0.0 
0.0 0.0 0.0 
-4.074236740813e-04 1.357340434573e-03 0.0 
1.357340434573e-03 8.496100917035e-03 0.0 
0.0 0.0 0.0 
-4.475451729874e-04 1.362442813011e-03 0.0 
1.362442813011e-03 8.173842611630e-03 0.0 
0.0 0.0 0.0 
-2.867186703090e-04 1.412678980451e-03 0.0 
1.412678980451e-03 7.995574807532e-03 0.0 
0.0 0.0 0.0 
-2.586772665292e-04 1.401072270207e-03 0.0 
1.401072270207e-03 8.342585147841e-03 0.0 
0.0 0.0 0.0 
-1.307705809604e-04 1.430259072891e-03 0.0 
1.430259072891e-03 7.829123928605e-03 0.0 
0.0 0.0 0.0 
-1.449945346265e-04 1.449075532784e-03 0.0 
1.449075532784e-03 7.461745808447e-03 0.0 
0.0 0.0 0.0 
1.155176175334e-05 1.437212047033e-03 0.0 
1.437212047033e-03 7.291697637167e-03 0.0 
0.0 0.0 0.0 
9.896498105936e-06 1.456546216807e-03 0.0 
1.456546216807e-03 6.901535278375e-03 0.0 
0.0 0.0 0.0 
1.605555921549e-04 1.415762112623e-03 0.0 
1.415762112623e-03 6.736555816399e-03 0.0 
0.0 0.0 0.0 
1.518672073357e-04 1.403926964469e-03 0.0 
1.403926964469e-03 7.148141270359e-03 0.0 
0.0 0.0 0.0 
2.911511971657e-04 1.358199133618e-03 0.0 
1.358199133618e-03 6.606121607498e-03 0.0 
0.0 0.0 0.0 
3.069582031197e-04 1.361159726336e-03 0.0 
1.361159726336e-03 6.171912346332e-03 0.0 
0.0 0.0 0.0 
4.237792554595e-04 1.284211440623e-03 0.0 
1.284211440623e-03 6.064619525820e-03 0.0 
0.0 0.0 0.0 
4.410535092290e-04 1.273908759128e-03 0.0 
1.273908759128e-03 5.611956554232e-03 0.0 
0.0 0.0 0.0 
5.424611430787e-04 1.184372698697e-03 0.0 
1.184372698697e-03 5.533536438386e-03 0.0 
0.0 0.0 0.0 
5.557960898000e-04 1.159434711808e-03 0.0 
1.159434711808e-03 5.066889242184e-03 0.0 
0.0 0.0 0.0 
6.408138074092e-04 1.060264833995e-03 0.0 
1.060264833995e-03 5.017744046964e-03 0.0 
0.0 0.0 0.0 
6.227694621402e-04 1.093796943292e-03 0.0 
1.093796943292e-03 5.487677081393e-03 0.0 
0.0 0.0 0.0 
7.060356557982e-04 9.652531796826e-04 0.0 
9.652531796826e-04 4.999653137298e-03 0.0 
0.0 0.0 0.0 
7.131761224506e-04 9.179907750640e-04 0.0 
9.179907750640e-04 4.526117764663e-03 0.0 
0.0 0.0 0.0 
7.646693681141e-04 8.232001396853e-04 0.0 
8.232001396853e-04 4.536582742805e-03 0.0 
0.0 0.0 0.0 
7.545281483058e-04 8.776757429172e-04 0.0 
8.776757429172e-04 5.010269760874e-03 0.0 
0.0 0.0 0.0 
8.008004297579e-04 7.388723171911e-04 0.0 
7.388723171911e-04 4.573292291839e-03 0.0 
0.0 0.0 0.0 
7.872734342241e-04 7.994298613343e-04 0.0 
7.994298613343e-04 5.046069329482e-03 0.0 
0.0 0.0 0.0 
8.232002356297e-04 6.654464862304e-04 0.0 
6.654464862304e-04 4.632737416730e-03 0.0 
0.0 0.0 0.0 
8.224628993542e-04 5.969531819370e-04 0.0 
5.969531819370e-04 4.168685538468e-03 0.0 
0.0 0.0 0.0 
8.368373326551e-04 5.309346884569e-04 0.0 
5.309346884569e-04 4.249183842113e-03 0.0 
0.0 0.0 0.0 
8.336927361178e-04 6.021865426216e-04 0.0 
6.021865426216e-04 4.710910783384e-03 0.0 
0.0 0.0 0.0 
8.410612642715e-04 4.749251727946e-04 0.0 
4.749251727946e-04 4.344712172606e-03 0.0 
0.0 0.0 0.0 
8.287669800812e-04 3.995934646215e-04 0.0 
3.995934646215e-04 3.894861125188e-03 0.0 
0.0 0.0 0.0 
8.294425941715e-04 3.539167366095e-04 0.0 
3.539167366095e-04 4.007095482582e-03 0.0 
0.0 0.0 0.0 
8.367880487608e-04 4.294463740149e-04 0.0 
4.294463740149e-04 4.455628384906e-03 0.0 
0.0 0.0 0.0 
8.229038689073e-04 3.171685784534e-04 0.0 
3.171685784534e-04 4.131580692058e-03 0.0 
0.0 0.0 0.0 
8.006758130559e-04 2.410004749735e-04 0.0 
2.410004749735e-04 3.695674697188e-03 0.0 
0.0 0.0 0.0 
7.941589590286e-04 2.142050988446e-04 0.0 
2.142050988446e-04 3.831246342393e-03 0.0 
0.0 0.0 0.0 
8.105338148354e-04 2.887937086318e-04 0.0 
2.887937086318e-04 4.268848676255e-03 0.0 
0.0 0.0 0.0 
7.827986324336e-04 1.937708016692e-04 0.0 
1.937708016692e-04 3.975166120225e-03 0.0 
0.0 0.0 0.0 
7.527621434190e-04 1.220570614685e-04 0.0 
1.220570614685e-04 3.550658884576e-03 0.0 
0.0 0.0 0.0 
7.440664808619e-04 1.106808836314e-04 0.0 
1.106808836314e-04 3.700406496627e-03 0.0 
0.0 0.0 0.0 
7.676274129398e-04 1.797848170634e-04 0.0 
1.797848170634e-04 4.128304649242e-03 0.0 
0.0 0.0 0.0 
7.321699662217e-04 1.038056862195e-04 0.0 
1.038056862195e-04 3.856633401573e-03 0.0 
0.0 0.0 0.0 
7.487947566223e-04 1.699974729422e-04 0.0 
1.699974729422e-04 4.288014491748e-03 0.0 
0.0 0.0 0.0 
6.961542331074e-04 3.922096776989e-05 0.0 
3.922096776989e-05 3.438080588255e-03 0.0 
0.0 0.0 0.0 
6.891399414269e-04 3.947010106896e-05 0.0 
3.947010106896e-05 3.598080131128e-03 0.0 
0.0 0.0 0.0 
6.413993829910e-04 -1.877597104785e-05 0.0 
-1.877597104785e-05 3.187731001608e-03 0.0 
0.0 0.0 0.0 
6.403422606311e-04 -1.199656877274e-05 0.0 
-1.199656877274e-05 3.351766988489e-03 0.0 
0.0 0.0 0.0 
2.729483949500e-04 1.356586573097e-03 0.0 
1.356586573097e-03 7.034750994464e-03 0.0 
0.0 0.0 0.0 
5.830586590456e-04 -6.251515870056e-05 0.0 
-6.251515870056e-05 2.949818003515e-03 0.0 
0.0 0.0 0.0 
5.753086959144e-04 -7.216525487842e-05 0.0 
-7.216525487842e-05 2.792569877784e-03 0.0 
0.0 0.0 0.0 
5.882713113132e-04 -5.059522373878e-05 0.0 
-5.059522373878e-05 3.115750909976e-03 0.0 
0.0 0.0 0.0 
6.367806325669e-04 -3.127868824572e-06 0.0 
-3.127868824572e-06 3.522198979892e-03 0.0 
0.0 0.0 0.0 
5.232723885267e-04 -9.322721551661e-05 0.0 
-9.322721551661e-05 2.720188966642e-03 0.0 
0.0 0.0 0.0 
5.347247390636e-04 -7.710890271858e-05 0.0 
-7.710890271858e-05 2.887319913716e-03 0.0 
0.0 0.0 0.0 
4.630895025273e-04 -1.109047333726e-04 0.0 
-1.109047333726e-04 2.498109693115e-03 0.0 
0.0 0.0 0.0 
4.502099204752e-04 1.258885728715e-03 0.0 
1.258885728715e-03 5.144458782260e-03 0.0 
0.0 0.0 0.0 
-5.143089952180e-04 1.250755390209e-03 0.0 
1.250755390209e-03 9.701010011099e-03 0.0 
0.0 0.0 0.0 
4.807725731485e-04 -9.174655869883e-05 0.0 
-9.174655869883e-05 2.665261112834e-03 0.0 
0.0 0.0 0.0 
4.047678933899e-04 -1.175754989110e-04 0.0 
-1.175754989110e-04 2.281067150353e-03 0.0 
0.0 0.0 0.0 
3.781695180461e-04 -1.369605997864e-04 0.0 
-1.369605997864e-04 2.117093840078e-03 0.0 
0.0 0.0 0.0 
3.189017169043e-04 -1.349866863241e-04 0.0 
-1.349866863241e-04 1.903509687938e-03 0.0 
0.0 0.0 0.0 
-7.634725113718e-04 4.228720516756e-04 0.0 
4.228720516756e-04 1.051767757721e-02 0.0 
0.0 0.0 0.0 
-7.166054695881e-04 5.120683528100e-04 0.0 
5.120683528100e-04 1.086468672388e-02 0.0 
0.0 0.0 0.0 
-7.139247243560e-04 4.080407027195e-04 0.0 
4.080407027195e-04 1.073743209367e-02 0.0 
0.0 0.0 0.0 
-6.607434283718e-04 4.976653088407e-04 0.0 
4.976653088407e-04 1.109574723803e-02 0.0 
0.0 0.0 0.0 
-6.602555651137e-04 4.010186468678e-04 0.0 
4.010186468678e-04 1.096702847265e-02 0.0 
0.0 0.0 0.0 
3.502415991707e-04 -1.149241322248e-04 0.0 
-1.149241322248e-04 2.066008910726e-03 0.0 
0.0 0.0 0.0 
-6.888970939998e-04 8.826947207847e-04 0.0 
8.826947207847e-04 1.080167662770e-02 0.0 
0.0 0.0 0.0 
-6.503964251139e-04 6.012627915874e-04 0.0 
6.012627915874e-04 1.120357698196e-02 0.0 
0.0 0.0 0.0 
-6.890480422090e-04 1.167634607090e-03 0.0 
1.167634607090e-03 8.797253077681e-03 0.0 
0.0 0.0 0.0 
-1.581501950794e-04 1.472153817648e-03 0.0 
1.472153817648e-03 7.096737889314e-03 0.0 
0.0 0.0 0.0 
7.294463922083e-04 9.280379403422e-04 0.0 
9.280379403422e-04 5.486708084033e-03 0.0 
0.0 0.0 0.0 
5.435936153647e-04 -6.062810858449e-05 0.0 
-6.062810858449e-05 3.057403130959e-03 0.0 
0.0 0.0 0.0 
4.956261796933e-04 -7.206251575953e-05 0.0 
-7.206251575953e-05 2.835134137484e-03 0.0 
0.0 0.0 0.0 
5.495495853927e-04 -4.487191400505e-05 0.0 
-4.487191400505e-05 3.230767289371e-03 0.0 
0.0 0.0 0.0 
7.716465871510e-04 2.500905347969e-04 0.0 
2.500905347969e-04 4.570320711735e-03 0.0 
0.0 0.0 0.0 
7.459226768023e-04 2.368970625400e-04 0.0 
2.368970625400e-04 4.731797215279e-03 0.0 
0.0 0.0 0.0 
7.559707930437e-04 3.205807086254e-04 0.0 
3.205807086254e-04 5.024367545972e-03 0.0 
0.0 0.0 0.0 
7.235205445868e-04 3.034571673220e-04 0.0 
3.034571673220e-04 5.186996297245e-03 0.0 
0.0 0.0 0.0 
7.205927161673e-04 3.900661721487e-04 0.0 
3.900661721487e-04 5.489367646501e-03 0.0 
0.0 0.0 0.0 
6.817532210745e-04 3.688841196380e-04 0.0 
3.688841196380e-04 5.653509534775e-03 0.0 
0.0 0.0 0.0 
6.880278147147e-04 2.873323686092e-04 0.0 
2.873323686092e-04 5.356192049195e-03 0.0 
0.0 0.0 0.0 
6.396533443732e-04 3.476567406337e-04 0.0 
3.476567406337e-04 5.824698002646e-03 0.0 
0.0 0.0 0.0 
6.501190295988e-04 2.712196431006e-04 0.0 
2.712196431006e-04 5.531215017798e-03 0.0 
0.0 0.0 0.0 
6.659604846000e-04 4.580270332044e-04 0.0 
4.580270332044e-04 5.964955895748e-03 0.0 
0.0 0.0 0.0 
7.071835793774e-04 4.839078302481e-04 0.0 
4.839078302481e-04 5.806764641166e-03 0.0 
0.0 0.0 0.0 
5.953012115891e-04 3.258300222194e-04 0.0 
3.258300222194e-04 6.001824968913e-03 0.0 
0.0 0.0 0.0 
6.103831565192e-04 2.543260521826e-04 0.0 
2.543260521826e-04 5.711742430391e-03 0.0 
0.0 0.0 0.0 
5.494132590581e-04 3.029919225387e-04 0.0 
3.029919225387e-04 6.185174364491e-03 0.0 
0.0 0.0 0.0 
5.694673463528e-04 2.352219730135e-04 0.0 
2.352219730135e-04 5.897237369672e-03 0.0 
0.0 0.0 0.0 
6.180538899133e-04 1.909561318251e-04 0.0 
1.909561318251e-04 5.431815277856e-03 0.0 
0.0 0.0 0.0 
5.829316003107e-04 1.758580217317e-04 0.0 
1.758580217317e-04 5.618120458777e-03 0.0 
0.0 0.0 0.0 
6.193094983803e-04 1.363727806473e-04 0.0 
1.363727806473e-04 5.163087035004e-03 0.0 
0.0 0.0 0.0 
7.586132462420e-04 8.567029491642e-04 0.0 
8.567029491642e-04 5.522227954186e-03 0.0 
0.0 0.0 0.0 
6.921871221658e-04 9.768961772493e-04 0.0 
9.768961772493e-04 5.964910224465e-03 0.0 
0.0 0.0 0.0 
7.170898448139e-04 9.127592661001e-04 0.0 
9.127592661001e-04 6.000237266242e-03 0.0 
0.0 0.0 0.0 
6.442056399494e-04 1.025824980205e-03 0.0 
1.025824980205e-03 6.443048061342e-03 0.0 
0.0 0.0 0.0 
6.633148797623e-04 9.692462016668e-04 0.0 
9.692462016668e-04 6.480318422147e-03 0.0 
0.0 0.0 0.0 
5.857649843156e-04 1.077074429573e-03 0.0 
1.077074429573e-03 6.921819129267e-03 0.0 
0.0 0.0 0.0 
5.969874368093e-04 1.028250000079e-03 0.0 
1.028250000079e-03 6.961976644064e-03 0.0 
0.0 0.0 0.0 
6.671890100479e-04 9.181441025002e-04 0.0 
9.181441025002e-04 6.538959770987e-03 0.0 
0.0 0.0 0.0 
-6.479276581386e-04 1.044205928702e-03 0.0 
1.044205928702e-03 1.048549729957e-02 0.0 
0.0 0.0 0.0 
7.571241194127e-04 7.632442553511e-04 0.0 
7.632442553511e-04 4.066319915743e-03 0.0 
0.0 0.0 0.0 
7.019891333413e-04 8.637975669865e-04 0.0 
8.637975669865e-04 4.054191594798e-03 0.0 
0.0 0.0 0.0 
7.270493454991e-04 6.969044635036e-04 0.0 
6.969044635036e-04 3.600961972448e-03 0.0 
0.0 0.0 0.0 
6.661278220699e-04 8.016023746899e-04 0.0 
8.016023746899e-04 3.587514786789e-03 0.0 
0.0 0.0 0.0 
6.683893643234e-04 6.243545575977e-04 0.0 
6.243545575977e-04 3.143656189596e-03 0.0 
0.0 0.0 0.0 
5.975416113785e-04 7.326015126441e-04 0.0 
7.326015126441e-04 3.131213827426e-03 0.0 
0.0 0.0 0.0 
5.729762839348e-04 5.481099434855e-04 0.0 
5.481099434855e-04 2.697983776867e-03 0.0 
0.0 0.0 0.0 
6.372172139509e-04 4.497177631783e-04 0.0 
4.497177631783e-04 2.742823918532e-03 0.0 
0.0 0.0 0.0 
5.143869307667e-04 3.713342690796e-04 0.0 
3.713342690796e-04 2.310570241721e-03 0.0 
0.0 0.0 0.0 
5.758417434997e-04 2.844167799479e-04 0.0 
2.844167799479e-04 2.385877476879e-03 0.0 
0.0 0.0 0.0 
4.268442301610e-04 2.073930881674e-04 0.0 
2.073930881674e-04 1.969750516628e-03 0.0 
0.0 0.0 0.0 
4.881561066178e-04 1.360238357843e-04 0.0 
1.360238357843e-04 2.070012320747e-03 0.0 
0.0 0.0 0.0 
-1.156247241461e-04 1.418990523274e-03 0.0 
1.418990523274e-03 8.198971833548e-03 0.0 
0.0 0.0 0.0 
5.582917013351e-04 1.130497995487e-03 0.0 
1.130497995487e-03 6.902340953628e-03 0.0 
0.0 0.0 0.0 
4.983494968387e-04 1.178595268307e-03 0.0 
1.178595268307e-03 7.377798781900e-03 0.0 
0.0 0.0 0.0 
4.639172388557e-04 1.224825157153e-03 0.0 
1.224825157153e-03 7.370091745474e-03 0.0 
0.0 0.0 0.0 
2.824453377083e-04 -1.534161762353e-04 0.0 
-1.534161762353e-04 1.742580555337e-03 0.0 
0.0 0.0 0.0 
5.282343751078e-04 2.131221032871e-04 0.0 
2.131221032871e-04 6.087254726180e-03 0.0 
0.0 0.0 0.0 
6.395484594534e-04 5.532334800982e-04 0.0 
5.532334800982e-04 6.291787164054e-03 0.0 
0.0 0.0 0.0 
6.820694709961e-04 5.830364281794e-04 0.0 
5.830364281794e-04 6.138788044278e-03 0.0 
0.0 0.0 0.0 
5.924553103274e-04 9.842923896039e-04 0.0 
9.842923896039e-04 7.026514510438e-03 0.0 
0.0 0.0 0.0 
2.654647584788e-04 -1.239850679361e-04 0.0 
-1.239850679361e-04 1.694273905958e-03 0.0 
0.0 0.0 0.0 
4.873555878641e-04 6.607610391934e-04 0.0 
6.607610391934e-04 2.690515192129e-03 0.0 
0.0 0.0 0.0 
5.024116050873e-04 8.510550263543e-04 0.0 
8.510550263543e-04 3.158468251507e-03 0.0 
0.0 0.0 0.0 
-5.983236663052e-04 4.839940717912e-04 0.0 
4.839940717912e-04 1.131925970089e-02 0.0 
0.0 0.0 0.0 
-6.007095702287e-04 3.944558010657e-04 0.0 
3.944558010657e-04 1.118497469548e-02 0.0 
0.0 0.0 0.0 
6.016218307539e-04 6.538836540452e-04 0.0 
6.538836540452e-04 6.634408273275e-03 0.0 
0.0 0.0 0.0 
2.998188525877e-04 -1.038633218263e-04 0.0 
-1.038633218263e-04 1.854525794336e-03 0.0 
0.0 0.0 0.0 
5.715819033034e-04 4.054868738957e-04 0.0 
4.054868738957e-04 6.304711083583e-03 0.0 
0.0 0.0 0.0 
3.486303674803e-04 2.971745144677e-04 0.0 
2.971745144677e-04 1.895965915990e-03 0.0 
0.0 0.0 0.0 
5.478682135270e-04 1.581495821617e-04 0.0 
1.581495821617e-04 5.808288919688e-03 0.0 
0.0 0.0 0.0 
4.866816750728e-04 1.881251125112e-04 0.0 
1.881251125112e-04 6.280571653932e-03 0.0 
0.0 0.0 0.0 
6.857608409393e-04 2.147995054834e-04 0.0 
2.147995054834e-04 5.072824364997e-03 0.0 
0.0 0.0 0.0 
4.060033805835e-04 1.271798120394e-03 0.0 
1.271798120394e-03 7.841647978369e-03 0.0 
0.0 0.0 0.0 
3.653952432698e-04 1.305881675384e-03 0.0 
1.305881675384e-03 7.841682634629e-03 0.0 
0.0 0.0 0.0 
6.184872441064e-04 2.148802655699e-04 0.0 
2.148802655699e-04 2.486433200754e-03 0.0 
0.0 0.0 0.0 
5.308931528526e-04 8.258527661931e-05 0.0 
8.258527661931e-05 2.189597028732e-03 0.0 
0.0 0.0 0.0 
3.816784602777e-04 1.284355852961e-05 0.0 
1.284355852961e-05 1.802806532309e-03 0.0 
0.0 0.0 0.0 
4.276262636907e-04 -2.247682610363e-05 0.0 
-2.247682610363e-05 1.935026065459e-03 0.0 
0.0 0.0 0.0 
5.674643377330e-04 4.438746082658e-05 0.0 
4.438746082658e-05 2.317637824852e-03 0.0 
0.0 0.0 0.0 
4.719475689486e-04 -5.139632874724e-05 0.0 
-5.139632874724e-05 2.059589513740e-03 0.0 
0.0 0.0 0.0 
3.252606919821e-04 -1.076269328410e-04 0.0 
-1.076269328410e-04 1.684229255821e-03 0.0 
0.0 0.0 0.0 
3.693717906411e-04 -1.222475124775e-04 0.0 
-1.222475124775e-04 1.821930855516e-03 0.0 
0.0 0.0 0.0 
5.054470264625e-04 -6.835168122476e-05 0.0 
-6.835168122476e-05 2.200813693733e-03 0.0 
0.0 0.0 0.0 
4.104660098986e-04 -1.305660727863e-04 0.0 
-1.305660727863e-04 1.966923153134e-03 0.0 
0.0 0.0 0.0 
2.645662119972e-04 -1.706352639582e-04 0.0 
-1.706352639582e-04 1.598341172189e-03 0.0 
0.0 0.0 0.0 
3.150986564900e-04 -1.695801814495e-04 0.0 
-1.695801814495e-04 1.744380199045e-03 0.0 
0.0 0.0 0.0 
4.548403510484e-04 2.475913603754e-04 0.0 
2.475913603754e-04 6.567275750784e-03 0.0 
0.0 0.0 0.0 
2.361031788598e-04 1.360042002077e-04 0.0 
1.360042002077e-04 1.575296434018e-03 0.0 
0.0 0.0 0.0 
-8.467045027521e-04 8.374415481843e-04 0.0 
8.374415481843e-04 9.595657425759e-03 0.0 
0.0 0.0 0.0 
5.526529092385e-04 6.210545966186e-04 0.0 
6.210545966186e-04 6.785976425446e-03 0.0 
0.0 0.0 0.0 
5.163455548238e-04 1.092738826996e-03 0.0 
1.092738826996e-03 7.444541630065e-03 0.0 
0.0 0.0 0.0 
-5.310040499479e-04 4.711391169012e-04 0.0 
4.711391169012e-04 1.153784018431e-02 0.0 
0.0 0.0 0.0 
-5.376078862553e-04 3.872400862472e-04 0.0 
3.872400862472e-04 1.139899001331e-02 0.0 
0.0 0.0 0.0 
-5.946208189071e-04 3.153206258727e-04 0.0 
3.153206258727e-04 1.103308312166e-02 0.0 
0.0 0.0 0.0 
-5.373348091837e-04 3.122781553589e-04 0.0 
3.122781553589e-04 1.124638086938e-02 0.0 
0.0 0.0 0.0 
-4.713953609619e-04 3.775832654209e-04 0.0 
3.775832654209e-04 1.160959455736e-02 0.0 
0.0 0.0 0.0 
-4.771595878902e-04 3.063760954058e-04 0.0 
3.063760954058e-04 1.145590274706e-02 0.0 
0.0 0.0 0.0 
-5.322578940021e-04 2.462439056286e-04 0.0 
2.462439056286e-04 1.108253294751e-02 0.0 
0.0 0.0 0.0 
-4.778324559589e-04 2.434774028876e-04 0.0 
2.434774028876e-04 1.129173801113e-02 0.0 
0.0 0.0 0.0 
-5.230966531185e-04 1.891920034096e-04 0.0 
1.891920034096e-04 1.090916107263e-02 0.0 
0.0 0.0 0.0 
-4.751561908362e-04 1.893057722859e-04 0.0 
1.893057722859e-04 1.111950751722e-02 0.0 
0.0 0.0 0.0 
-4.218419885827e-04 2.373933163352e-04 0.0 
2.373933163352e-04 1.149900253511e-02 0.0 
0.0 0.0 0.0 
-4.254879583102e-04 1.851796871653e-04 0.0 
1.851796871653e-04 1.132809608174e-02 0.0 
0.0 0.0 0.0 
-4.712468838596e-04 1.434998211352e-04 0.0 
1.434998211352e-04 1.094150417774e-02 0.0 
0.0 0.0 0.0 
-4.274987328581e-04 1.402876308139e-04 0.0 
1.402876308139e-04 1.115166463384e-02 0.0 
0.0 0.0 0.0 
-4.669076933646e-04 1.048973716927e-04 0.0 
1.048973716927e-04 1.075842992688e-02 0.0 
0.0 0.0 0.0 
-4.281631901463e-04 1.022233723876e-04 0.0 
1.022233723876e-04 1.096895084206e-02 0.0 
0.0 0.0 0.0 
-3.823995895874e-04 1.340386462405e-04 0.0 
1.340386462405e-04 1.136047816802e-02 0.0 
0.0 0.0 0.0 
2.190006207326e-04 -1.060277401666e-04 0.0 
-1.060277401666e-04 1.493707338764e-03 0.0 
0.0 0.0 0.0 
6.563484099964e-04 8.731812228819e-04 0.0 
8.731812228819e-04 6.617985914794e-03 0.0 
0.0 0.0 0.0 
5.710167504267e-04 9.454104086516e-04 0.0 
9.454104086516e-04 7.116064255970e-03 0.0 
0.0 0.0 0.0 
5.071899435963e-04 -5.610261205827e-05 0.0 
-5.610261205827e-05 3.018574753566e-03 0.0 
0.0 0.0 0.0 
5.561977811681e-04 -3.199179235179e-05 0.0 
-3.199179235179e-05 3.401670807339e-03 0.0 
0.0 0.0 0.0 
5.897599349742e-04 -1.101829983410e-05 0.0 
-1.101829983410e-05 3.635254367147e-03 0.0 
0.0 0.0 0.0 
5.886874172923e-04 -9.606583218593e-07 0.0 
-9.606583218593e-07 3.816269764684e-03 0.0 
0.0 0.0 0.0 
-3.896773198489e-04 9.640464549206e-05 0.0 
9.640464549206e-05 1.117791261596e-02 0.0 
0.0 0.0 0.0 
-3.382872903937e-04 1.237770771811e-04 0.0 
1.237770771811e-04 1.156857545977e-02 0.0 
0.0 0.0 0.0 
3.742117762777e-04 7.868674831239e-04 0.0 
7.868674831239e-04 2.728793815661e-03 0.0 
0.0 0.0 0.0 
3.771015447661e-04 9.750737854157e-04 0.0 
9.750737854157e-04 3.235996092824e-03 0.0 
0.0 0.0 0.0 
-5.153055704254e-04 5.635972899349e-04 0.0 
5.635972899349e-04 1.166017145575e-02 0.0 
0.0 0.0 0.0 
5.119078712750e-04 1.361107672207e-04 0.0 
1.361107672207e-04 6.004618288369e-03 0.0 
0.0 0.0 0.0 
5.611525921286e-04 1.113957950409e-04 0.0 
1.113957950409e-04 5.540246830742e-03 0.0 
0.0 0.0 0.0 
7.815391957766e-06 1.475966725710e-03 0.0 
1.475966725710e-03 6.510869343069e-03 0.0 
0.0 0.0 0.0 
-1.711390555767e-04 1.493990166242e-03 0.0 
1.493990166242e-03 6.732608715062e-03 0.0 
0.0 0.0 0.0 
2.880037601090e-06 1.489520449352e-03 0.0 
1.489520449352e-03 6.116167025063e-03 0.0 
0.0 0.0 0.0 
-1.867703434268e-04 1.506370105370e-03 0.0 
1.506370105370e-03 6.362681149352e-03 0.0 
0.0 0.0 0.0 
-3.638286172495e-04 1.470126527093e-03 0.0 
1.470126527093e-03 6.991902839166e-03 0.0 
0.0 0.0 0.0 
-1.315580960187e-05 1.486575777897e-03 0.0 
1.486575777897e-03 5.708794569134e-03 0.0 
0.0 0.0 0.0 
7.437653907615e-04 5.108404745054e-04 0.0 
5.108404745054e-04 5.653081529993e-03 0.0 
0.0 0.0 0.0 
-3.651181706838e-04 2.270082383281e-04 0.0 
2.270082383281e-04 1.170447216952e-02 0.0 
0.0 0.0 0.0 
3.466424562666e-04 -1.540708364815e-04 0.0 
-1.540708364815e-04 1.957031819219e-03 0.0 
0.0 0.0 0.0 
2.404295369987e-04 -1.678434371561e-04 0.0 
-1.678434371561e-04 1.586809764464e-03 0.0 
0.0 0.0 0.0 
4.433993583953e-04 1.597177135109e-04 0.0 
1.597177135109e-04 6.481580366675e-03 0.0 
0.0 0.0 0.0 
7.245235441894e-04 8.049048617030e-04 0.0 
8.049048617030e-04 6.131306578566e-03 0.0 
0.0 0.0 0.0 
-2.301336849662e-04 1.397951095676e-03 0.0 
1.397951095676e-03 8.695973602550e-03 0.0 
0.0 0.0 0.0 
-9.961673558301e-05 1.417678566050e-03 0.0 
1.417678566050e-03 8.572177395706e-03 0.0 
0.0 0.0 0.0 
-2.007033627671e-04 1.405878970125e-03 0.0 
1.405878970125e-03 9.055097639761e-03 0.0 
0.0 0.0 0.0 
-8.276750946090e-05 1.429085436175e-03 0.0 
1.429085436175e-03 8.948261805428e-03 0.0 
0.0 0.0 0.0 
-1.699037204228e-04 1.426949022770e-03 0.0 
1.426949022770e-03 9.419260282846e-03 0.0 
0.0 0.0 0.0 
-6.618167753664e-05 1.455212387721e-03 0.0 
1.455212387721e-03 9.327321937552e-03 0.0 
0.0 0.0 0.0 
2.210911298626e-05 1.438947285135e-03 0.0 
1.438947285135e-03 8.856958627713e-03 0.0 
0.0 0.0 0.0 
3.146640701237e-04 1.356767445241e-03 0.0 
1.356767445241e-03 8.307126024721e-03 0.0 
0.0 0.0 0.0 
2.296366955355e-05 1.473540385080e-03 0.0 
1.473540385080e-03 9.253755319002e-03 0.0 
0.0 0.0 0.0 
-4.286629743512e-04 7.412951472821e-05 0.0 
7.412951472821e-05 1.077682563202e-02 0.0 
0.0 0.0 0.0 
5.153436418657e-04 1.186880807948e-03 0.0 
1.186880807948e-03 6.898409289425e-03 0.0 
0.0 0.0 0.0 
5.322679563132e-04 -7.724834833886e-05 0.0 
-7.724834833886e-05 2.349889384014e-03 0.0 
0.0 0.0 0.0 
1.791109112507e-04 -1.253839527549e-04 0.0 
-1.253839527549e-04 1.330352663441e-03 0.0 
0.0 0.0 0.0 
1.605323841574e-04 -1.906398130739e-04 0.0 
-1.906398130739e-04 1.375373079666e-03 0.0 
0.0 0.0 0.0 
2.546823507028e-04 -8.605229981164e-05 0.0 
-8.605229981164e-05 1.638655236714e-03 0.0 
0.0 0.0 0.0 
3.305780266827e-04 -8.073750920467e-05 0.0 
-8.073750920467e-05 2.017352367839e-03 0.0 
0.0 0.0 0.0 
5.020866615864e-04 7.247551773479e-04 0.0 
7.247551773479e-04 7.136925488015e-03 0.0 
0.0 0.0 0.0 
-1.386592939185e-04 1.464085555801e-03 0.0 
1.464085555801e-03 9.788313441883e-03 0.0 
0.0 0.0 0.0 
-2.377093571115e-04 1.417451870596e-03 0.0 
1.417451870596e-03 9.867121065956e-03 0.0 
0.0 0.0 0.0 
-3.854011071318e-04 1.477580105589e-03 0.0 
1.477580105589e-03 6.666466485793e-03 0.0 
0.0 0.0 0.0 
-5.587324911529e-04 1.373467679475e-03 0.0 
1.373467679475e-03 7.280635692464e-03 0.0 
0.0 0.0 0.0 
3.413324064060e-04 1.329740836771e-03 0.0 
1.329740836771e-03 8.310527658200e-03 0.0 
0.0 0.0 0.0 
-6.965649353301e-04 3.203111698849e-04 0.0 
3.203111698849e-04 1.059958403381e-02 0.0 
0.0 0.0 0.0 
-5.690726626300e-04 1.860197161166e-04 0.0 
1.860197161166e-04 1.069773215239e-02 0.0 
0.0 0.0 0.0 
-5.504349677421e-04 1.366150654029e-04 0.0 
1.366150654029e-04 1.051364385137e-02 0.0 
0.0 0.0 0.0 
1.727672524315e-04 -8.883028984903e-05 0.0 
-8.883028984903e-05 1.234129333017e-03 0.0 
0.0 0.0 0.0 
9.999185892675e-05 -1.890462838037e-04 0.0 
-1.890462838037e-04 1.250348020102e-03 0.0 
0.0 0.0 0.0 
-4.038280314341e-04 3.646037847469e-04 0.0 
3.646037847469e-04 1.181715594697e-02 0.0 
0.0 0.0 0.0 
4.766617863880e-04 1.033413631197e-03 0.0 
1.033413631197e-03 3.671252631390e-03 0.0 
0.0 0.0 0.0 
3.385392636402e-04 1.150169735220e-03 0.0 
1.150169735220e-03 3.792099203394e-03 0.0 
0.0 0.0 0.0 
1.299660553958e-04 2.337535003890e-04 0.0 
2.337535003890e-04 1.501229941272e-03 0.0 
0.0 0.0 0.0 
-3.965938906429e-06 7.886257007295e-05 0.0 
7.886257007295e-05 1.201883511175e-03 0.0 
0.0 0.0 0.0 
-3.494543295441e-04 8.976152836811e-05 0.0 
8.976152836811e-05 1.138264712505e-02 0.0 
0.0 0.0 0.0 
-2.930734379414e-04 1.090215364810e-04 0.0 
1.090215364810e-04 1.176660467690e-02 0.0 
0.0 0.0 0.0 
6.160559512055e-04 2.242331023602e-05 0.0 
2.242331023602e-05 4.050594460549e-03 0.0 
0.0 0.0 0.0 
6.059727618466e-04 2.630196119488e-05 0.0 
2.630196119488e-05 4.233835569637e-03 0.0 
0.0 0.0 0.0 
5.524963449111e-04 7.600565548960e-04 0.0 
7.600565548960e-04 6.995249792062e-03 0.0 
0.0 0.0 0.0 
2.220724852271e-04 -1.877392358721e-04 0.0 
-1.877392358721e-04 1.528738367976e-03 0.0 
0.0 0.0 0.0 
-2.735408624707e-04 1.483690480616e-04 0.0 
1.483690480616e-04 1.194632982308e-02 0.0 
0.0 0.0 0.0 
7.084004614946e-04 7.611445794530e-04 0.0 
7.611445794530e-04 6.228394603043e-03 0.0 
0.0 0.0 0.0 
7.673647558829e-04 6.899384747031e-04 0.0 
6.899384747031e-04 5.743756500993e-03 0.0 
0.0 0.0 0.0 
5.606013638107e-04 -1.216991502878e-05 0.0 
-1.216991502878e-05 3.578568973900e-03 0.0 
0.0 0.0 0.0 
2.210934427716e-04 9.202004821087e-04 0.0 
9.202004821087e-04 2.827293416761e-03 0.0 
0.0 0.0 0.0 
1.946594987352e-04 7.323200825633e-04 0.0 
7.323200825633e-04 2.322457555364e-03 0.0 
0.0 0.0 0.0 
6.154144598282e-04 -3.860817140086e-06 0.0 
-3.860817140086e-06 2.595341917134e-03 0.0 
0.0 0.0 0.0 
3.580707806938e-04 -1.643090417755e-04 0.0 
-1.643090417755e-04 1.895186092905e-03 0.0 
0.0 0.0 0.0 
2.860865008807e-04 -6.403929279055e-05 0.0 
-6.403929279055e-05 1.801106052820e-03 0.0 
0.0 0.0 0.0 
4.413140046478e-04 8.371782281150e-04 0.0 
8.371782281150e-04 7.506134367585e-03 0.0 
0.0 0.0 0.0 
-3.858766893052e-04 4.393771258537e-04 0.0 
4.393771258537e-04 1.195840005824e-02 0.0 
0.0 0.0 0.0 
1.081024548819e-04 1.437579854744e-03 0.0 
1.437579854744e-03 8.788235134835e-03 0.0 
0.0 0.0 0.0 
1.228824252653e-04 1.412141464356e-03 0.0 
1.412141464356e-03 8.372702313008e-03 0.0 
0.0 0.0 0.0 
9.560469707896e-05 1.481829382876e-03 0.0 
1.481829382876e-03 9.200182815498e-03 0.0 
0.0 0.0 0.0 
6.785255134073e-05 -1.921381386014e-04 0.0 
-1.921381386014e-04 1.176784834985e-03 0.0 
0.0 0.0 0.0 
4.433190760042e-04 6.873056442113e-04 0.0 
6.873056442113e-04 7.297691766431e-03 0.0 
0.0 0.0 0.0 
4.734826634083e-04 1.094525540088e-04 0.0 
1.094525540088e-04 6.207332036197e-03 0.0 
0.0 0.0 0.0 
-1.936248773219e-04 1.465692312004e-03 0.0 
1.465692312004e-03 1.021382438834e-02 0.0 
0.0 0.0 0.0 
-2.828503789744e-04 1.404547121976e-03 0.0 
1.404547121976e-03 1.028848659370e-02 0.0 
0.0 0.0 0.0 
4.106299918395e-04 1.198103253867e-03 0.0 
1.198103253867e-03 4.226957985695e-03 0.0 
0.0 0.0 0.0 
2.580631904198e-04 1.299346154841e-03 0.0 
1.299346154841e-03 4.399350129157e-03 0.0 
0.0 0.0 0.0 
1.659277368284e-04 1.252229499488e-03 0.0 
1.252229499488e-03 3.988415163083e-03 0.0 
0.0 0.0 0.0 
8.180639582978e-05 1.385121829813e-03 0.0 
1.385121829813e-03 4.636830976889e-03 0.0 
0.0 0.0 0.0 
-8.693294547500e-04 6.257856778074e-04 0.0 
6.257856778074e-04 9.872234332112e-03 0.0 
0.0 0.0 0.0 
3.042484067199e-04 1.334733794048e-03 0.0 
1.334733794048e-03 4.830622939082e-03 0.0 
0.0 0.0 0.0 
-8.332961609028e-04 9.208773579836e-04 0.0 
9.208773579836e-04 9.271575288124e-03 0.0 
0.0 0.0 0.0 
-8.863743901233e-04 7.572846644089e-04 0.0 
7.572846644089e-04 9.305454450661e-03 0.0 
0.0 0.0 0.0 
-8.743684699105e-04 8.476854970785e-04 0.0 
8.476854970785e-04 8.993991797008e-03 0.0 
0.0 0.0 0.0 
-5.252890668854e-04 1.376423929153e-03 0.0 
1.376423929153e-03 7.564868854329e-03 0.0 
0.0 0.0 0.0 
-6.941489702977e-04 1.233223940576e-03 0.0 
1.233223940576e-03 7.808424468830e-03 0.0 
0.0 0.0 0.0 
6.284093027917e-04 9.725655871184e-04 0.0 
9.725655871184e-04 4.071252662638e-03 0.0 
0.0 0.0 0.0 
6.518802669247e-04 1.047806356208e-03 0.0 
1.047806356208e-03 5.950317400042e-03 0.0 
0.0 0.0 0.0 
6.236627763725e-04 1.552427515759e-05 0.0 
1.552427515759e-05 3.872220816986e-03 0.0 
0.0 0.0 0.0 
6.480978152819e-04 1.449727895029e-04 0.0 
1.449727895029e-04 4.980531650467e-03 0.0 
0.0 0.0 0.0 
7.843118613995e-04 3.402037794064e-04 0.0 
3.402037794064e-04 4.868260643439e-03 0.0 
0.0 0.0 0.0 
-3.526463169084e-04 2.842332703146e-04 0.0 
2.842332703146e-04 1.186574379546e-02 0.0 
0.0 0.0 0.0 
-2.905416381695e-04 2.666621753550e-04 0.0 
2.666621753550e-04 1.207082846571e-02 0.0 
0.0 0.0 0.0 
-5.028953806079e-04 1.033049192759e-04 0.0 
1.033049192759e-04 1.054420748930e-02 0.0 
0.0 0.0 0.0 
-4.910666453663e-04 6.994362582667e-05 0.0 
6.994362582667e-05 1.035299349260e-02 0.0 
0.0 0.0 0.0 
1.788497422390e-04 -1.561746455555e-04 0.0 
-1.561746455555e-04 1.372572882572e-03 0.0 
0.0 0.0 0.0 
1.225976082620e-04 -1.646685926754e-04 0.0 
-1.646685926754e-04 1.222606476334e-03 0.0 
0.0 0.0 0.0 
7.268481540540e-04 1.629669048108e-04 0.0 
1.629669048108e-04 4.454365506729e-03 0.0 
0.0 0.0 0.0 
4.969931299648e-04 5.875959080683e-04 0.0 
5.875959080683e-04 6.945149847971e-03 0.0 
0.0 0.0 0.0 
-4.401519563902e-04 5.433384925684e-04 0.0 
5.433384925684e-04 1.187514158400e-02 0.0 
0.0 0.0 0.0 
-4.112049825802e-04 6.390401632898e-04 0.0 
6.390401632898e-04 1.198637918434e-02 0.0 
0.0 0.0 0.0 
-4.896390263811e-04 6.634630423062e-04 0.0 
6.634630423062e-04 1.176389142071e-02 0.0 
0.0 0.0 0.0 
4.947608150139e-04 8.724554914014e-04 0.0 
8.724554914014e-04 7.366781977862e-03 0.0 
0.0 0.0 0.0 
7.712669865779e-04 6.040335279213e-04 0.0 
6.040335279213e-04 3.643764267956e-03 0.0 
0.0 0.0 0.0 
7.739230761287e-04 7.934808282001e-04 0.0 
7.934808282001e-04 5.577991952001e-03 0.0 
0.0 0.0 0.0 
9.721664551438e-05 6.217567087116e-06 0.0 
6.217567087116e-06 1.306201737236e-03 0.0 
0.0 0.0 0.0 
1.427168943030e-04 1.397194199702e-03 0.0 
1.397194199702e-03 7.556623957217e-03 0.0 
0.0 0.0 0.0 
7.064757381662e-05 -1.438085690055e-04 0.0 
-1.438085690055e-04 1.010889077169e-03 0.0 
0.0 0.0 0.0 
-5.516591944150e-04 1.199375586199e-03 0.0 
1.199375586199e-03 1.008983074969e-02 0.0 
0.0 0.0 0.0 
3.995054355189e-04 1.267494652716e-04 0.0 
1.267494652716e-04 6.688910624978e-03 0.0 
0.0 0.0 0.0 
3.589527481472e-04 1.814153995511e-04 0.0 
1.814153995511e-04 6.967352163790e-03 0.0 
0.0 0.0 0.0 
2.553419820043e-04 1.416141943630e-03 0.0 
1.416141943630e-03 8.759567153811e-03 0.0 
0.0 0.0 0.0 
-8.701477463782e-04 3.925596609194e-04 0.0 
3.925596609194e-04 9.478916850755e-03 0.0 
0.0 0.0 0.0 
2.529425971054e-04 1.360850431716e-03 0.0 
1.360850431716e-03 7.461210066848e-03 0.0 
0.0 0.0 0.0 
3.734345924476e-04 1.300626503789e-03 0.0 
1.300626503789e-03 6.954345302338e-03 0.0 
0.0 0.0 0.0 
-9.063321515356e-04 6.647657598161e-04 0.0 
6.647657598161e-04 9.015532744260e-03 0.0 
0.0 0.0 0.0 
-8.963605573498e-04 7.578318912874e-04 0.0 
7.578318912874e-04 8.723346405365e-03 0.0 
0.0 0.0 0.0 
-8.423252626866e-04 9.567991646847e-04 0.0 
9.567991646847e-04 8.652192243824e-03 0.0 
0.0 0.0 0.0 
-8.700582952466e-04 8.784641569020e-04 0.0 
8.784641569020e-04 8.392247329313e-03 0.0 
0.0 0.0 0.0 
6.291710390561e-04 -1.537896341513e-05 0.0 
-1.537896341513e-05 2.741562553374e-03 0.0 
0.0 0.0 0.0 
5.525836075635e-04 -7.985955831298e-05 0.0 
-7.985955831298e-05 2.498765536060e-03 0.0 
0.0 0.0 0.0 
-1.053780941536e-04 1.530695504499e-03 0.0 
1.530695504499e-03 1.018886992640e-02 0.0 
0.0 0.0 0.0 
2.392404173168e-05 1.534389540523e-03 0.0 
1.534389540523e-03 9.644801453909e-03 0.0 
0.0 0.0 0.0 
-2.162125220261e-04 1.468770672096e-03 0.0 
1.468770672096e-03 1.062037573438e-02 0.0 
0.0 0.0 0.0 
-3.006170074333e-04 1.393261499585e-03 0.0 
1.393261499585e-03 1.069501115638e-02 0.0 
0.0 0.0 0.0 
2.707963998196e-04 1.398658215613e-03 0.0 
1.398658215613e-03 8.772490944035e-03 0.0 
0.0 0.0 0.0 
3.534369573751e-04 1.301049311416e-03 0.0 
1.301049311416e-03 8.328687296556e-03 0.0 
0.0 0.0 0.0 
3.547307444217e-04 -5.909667370600e-05 0.0 
-5.909667370600e-05 2.171243321506e-03 0.0 
0.0 0.0 0.0 
-7.302354261844e-04 1.189162704637e-03 0.0 
1.189162704637e-03 7.562003535928e-03 0.0 
0.0 0.0 0.0 
-3.111901685506e-04 4.186608350487e-04 0.0 
4.186608350487e-04 1.216486764753e-02 0.0 
0.0 0.0 0.0 
-9.033052083262e-04 5.900353867449e-04 0.0 
5.900353867449e-04 9.290553018684e-03 0.0 
0.0 0.0 0.0 
3.774407732286e-04 6.443183076944e-04 0.0 
6.443183076944e-04 7.449082179962e-03 0.0 
0.0 0.0 0.0 
4.385991828267e-04 5.523147007299e-04 0.0 
5.523147007299e-04 7.119235857149e-03 0.0 
0.0 0.0 0.0 
-1.697743871763e-04 -2.764045420961e-05 0.0 
-2.764045420961e-05 9.569254951053e-04 0.0 
0.0 0.0 0.0 
-5.909009197115e-05 -9.823994095619e-05 0.0 
-9.823994095619e-05 1.060526242089e-03 0.0 
0.0 0.0 0.0 
-2.259254068781e-04 1.263793330256e-04 0.0 
1.263793330256e-04 1.214716601504e-02 0.0 
0.0 0.0 0.0 
-5.255427339655e-05 1.319588393046e-03 0.0 
1.319588393046e-03 4.254158612744e-03 0.0 
0.0 0.0 0.0 
-1.378550486981e-04 1.415167757713e-03 0.0 
1.415167757713e-03 4.926531755704e-03 0.0 
0.0 0.0 0.0 
1.797800775286e-07 1.191647694722e-03 0.0 
1.191647694722e-03 3.603123233419e-03 0.0 
0.0 0.0 0.0 
1.871387472736e-04 5.254221630700e-05 0.0 
5.254221630700e-05 7.695221799204e-03 0.0 
0.0 0.0 0.0 
-4.661556556309e-04 1.547264056956e-06 0.0 
1.547264056956e-06 9.527685054275e-03 0.0 
0.0 0.0 0.0 
3.103010276047e-04 1.420077143637e-04 0.0 
1.420077143637e-04 7.180994094591e-03 0.0 
0.0 0.0 0.0 
-6.516533114504e-04 1.256233653703e-03 0.0 
1.256233653703e-03 8.075169008542e-03 0.0 
0.0 0.0 0.0 
-1.976054858593e-04 1.723707475974e-04 0.0 
1.723707475974e-04 1.232250918071e-02 0.0 
0.0 0.0 0.0 
3.428546533178e-04 1.316530133836e-03 0.0 
1.316530133836e-03 7.399798303694e-03 0.0 
0.0 0.0 0.0 
1.738363441208e-04 1.440249592799e-03 0.0 
1.440249592799e-03 5.899291833093e-03 0.0 
0.0 0.0 0.0 
5.945811005402e-04 7.953905862293e-04 0.0 
7.953905862293e-04 6.860142183249e-03 0.0 
0.0 0.0 0.0 
-2.548657822667e-04 7.946137712857e-05 0.0 
7.946137712857e-05 1.194665605644e-02 0.0 
0.0 0.0 0.0 
-1.799496912169e-04 1.009543264563e-04 0.0 
1.009543264563e-04 1.235628759112e-02 0.0 
0.0 0.0 0.0 
-5.850880425173e-04 1.305345750351e-04 0.0 
1.305345750351e-04 1.029807805408e-02 0.0 
0.0 0.0 0.0 
-5.657647226665e-04 8.395520471391e-05 0.0 
8.395520471391e-05 1.009590836072e-02 0.0 
0.0 0.0 0.0 
-6.116175262817e-04 1.799499812398e-04 0.0 
1.799499812398e-04 1.047220507660e-02 0.0 
0.0 0.0 0.0 
2.495379228466e-04 4.036472165401e-04 0.0 
4.036472165401e-04 1.856789932798e-03 0.0 
0.0 0.0 0.0 
-1.610392534370e-05 3.635773953270e-04 0.0 
3.635773953270e-04 1.439475990260e-03 0.0 
0.0 0.0 0.0 
-3.090461056125e-04 2.121191556658e-04 0.0 
2.121191556658e-04 1.190790505839e-02 0.0 
0.0 0.0 0.0 
4.482925984999e-04 -7.563416199618e-05 0.0 
-7.563416199618e-05 2.618723357554e-03 0.0 
0.0 0.0 0.0 
4.683912450619e-04 -4.923193969373e-05 0.0 
-4.923193969373e-05 2.830346489826e-03 0.0 
0.0 0.0 0.0 
2.719735831505e-04 -1.810460709775e-04 0.0 
-1.810460709775e-04 1.670750658106e-03 0.0 
0.0 0.0 0.0 
3.913397829613e-04 -1.561964831013e-04 0.0 
-1.561964831013e-04 2.037924416541e-03 0.0 
0.0 0.0 0.0 
6.398746698131e-04 5.559882955617e-05 0.0 
5.559882955617e-05 4.293399335522e-03 0.0 
0.0 0.0 0.0 
6.544385048109e-04 5.218997925220e-05 0.0 
5.218997925220e-05 4.115347701366e-03 0.0 
0.0 0.0 0.0 
-4.487100921629e-04 1.287264419189e-03 0.0 
1.287264419189e-03 1.002093966815e-02 0.0 
0.0 0.0 0.0 
-4.754755258890e-04 1.249577600076e-03 0.0 
1.249577600076e-03 1.040556913807e-02 0.0 
0.0 0.0 0.0 
-3.256841053168e-04 1.365836582540e-03 0.0 
1.365836582540e-03 9.167242148466e-03 0.0 
0.0 0.0 0.0 
7.474764017377e-04 6.482862605699e-04 0.0 
6.482862605699e-04 5.856510793124e-03 0.0 
0.0 0.0 0.0 
7.951019231203e-04 5.759833302714e-04 0.0 
5.759833302714e-04 5.378315300103e-03 0.0 
0.0 0.0 0.0 
8.090374046048e-04 6.193354787963e-04 0.0 
6.193354787963e-04 5.269923493059e-03 0.0 
0.0 0.0 0.0 
-2.688277806325e-04 3.259770504183e-04 0.0 
3.259770504183e-04 1.221392538724e-02 0.0 
0.0 0.0 0.0 
-1.946034575236e-04 3.054043655447e-04 0.0 
3.054043655447e-04 1.245369417488e-02 0.0 
0.0 0.0 0.0 
6.984765277162e-04 6.673964482122e-05 0.0 
6.673964482122e-05 2.998487234763e-03 0.0 
0.0 0.0 0.0 
6.897571369607e-04 8.864955626388e-05 0.0 
8.864955626388e-05 2.859100822617e-03 0.0 
0.0 0.0 0.0 
6.372353918679e-04 -2.109856352055e-05 0.0 
-2.109856352055e-05 2.886488238684e-03 0.0 
0.0 0.0 0.0 
-2.827090417520e-04 4.973207514211e-04 0.0 
4.973207514211e-04 1.229642936940e-02 0.0 
0.0 0.0 0.0 
2.619802899693e-04 2.047239511675e-04 0.0 
2.047239511675e-04 7.461134235404e-03 0.0 
0.0 0.0 0.0 
3.043183927959e-04 2.384531485112e-04 0.0 
2.384531485112e-04 7.252908208529e-03 0.0 
0.0 0.0 0.0 
-8.830801033755e-07 -1.500621799496e-04 0.0 
-1.500621799496e-04 8.713394374262e-04 0.0 
0.0 0.0 0.0 
5.711860819491e-05 -1.730031877848e-04 0.0 
-1.730031877848e-04 1.074932284968e-03 0.0 
0.0 0.0 0.0 
1.058520565996e-06 8.766899204076e-04 0.0 
8.766899204076e-04 2.436739977869e-03 0.0 
0.0 0.0 0.0 
-2.849554770910e-05 6.900209606317e-04 0.0 
6.900209606317e-04 1.923740739931e-03 0.0 
0.0 0.0 0.0 
-3.704287759106e-04 7.396377472411e-04 0.0 
7.396377472411e-04 1.206958271857e-02 0.0 
0.0 0.0 0.0 
-4.536693833480e-04 7.719511615841e-04 0.0 
7.719511615841e-04 1.185034242412e-02 0.0 
0.0 0.0 0.0 
-2.781921796564e-04 7.140527633286e-04 0.0 
7.140527633286e-04 1.231580928440e-02 0.0 
0.0 0.0 0.0 
3.069254562243e-04 -4.025506714922e-05 0.0 
-4.025506714922e-05 1.929674675400e-03 0.0 
0.0 0.0 0.0 
2.069052709813e-04 1.395871803426e-03 0.0 
1.395871803426e-03 8.322958147532e-03 0.0 
0.0 0.0 0.0 
3.718694823098e-04 9.532893817593e-04 0.0 
9.532893817593e-04 7.873046011425e-03 0.0 
0.0 0.0 0.0 
4.310900859538e-04 9.945857741192e-04 0.0 
9.945857741192e-04 7.746594193755e-03 0.0 
0.0 0.0 0.0 
2.955678711670e-04 9.224495049335e-04 0.0 
9.224495049335e-04 8.086416400480e-03 0.0 
0.0 0.0 0.0 
2.261128630871e-04 1.429248005250e-03 0.0 
1.429248005250e-03 8.755385437201e-03 0.0 
0.0 0.0 0.0 
1.722245702332e-04 1.487238073492e-03 0.0 
1.487238073492e-03 9.182869379916e-03 0.0 
0.0 0.0 0.0 
7.196051070398e-05 1.544273647486e-03 0.0 
1.544273647486e-03 9.615355111645e-03 0.0 
0.0 0.0 0.0 
-2.865944145975e-04 3.086512354150e-05 0.0 
3.086512354150e-05 8.444138067379e-04 0.0 
0.0 0.0 0.0 
-1.964770004421e-04 6.015763686351e-05 0.0 
6.015763686351e-05 1.222847123922e-02 0.0 
0.0 0.0 0.0 
-5.200143730133e-04 6.172748567165e-05 0.0 
6.172748567165e-05 1.011582902817e-02 0.0 
0.0 0.0 0.0 
-4.511844679558e-04 -3.988468564445e-05 0.0 
-3.988468564445e-05 6.986617099436e-04 0.0 
0.0 0.0 0.0 
-5.027186008459e-04 3.856797927195e-05 0.0 
3.856797927195e-05 9.922394371696e-03 0.0 
0.0 0.0 0.0 
-4.829659512512e-04 4.509842155990e-05 0.0 
4.509842155990e-05 1.015648522787e-02 0.0 
0.0 0.0 0.0 
-4.941845122407e-04 1.988396116208e-05 0.0 
1.988396116208e-05 9.703206918203e-03 0.0 
0.0 0.0 0.0 
2.380055964415e-04 -4.312497104556e-05 0.0 
-4.312497104556e-05 1.558732817917e-03 0.0 
0.0 0.0 0.0 
-6.200230282002e-04 1.099214093955e-04 0.0 
1.099214093955e-04 1.000813778431e-02 0.0 
0.0 0.0 0.0 
-6.525133684519e-04 1.731347658838e-04 0.0 
1.731347658838e-04 1.025166768317e-02 0.0 
0.0 0.0 0.0 
-9.396334706476e-05 -1.380429003349e-04 0.0 
-1.380429003349e-04 6.647978083713e-04 0.0 
0.0 0.0 0.0 
-1.988039311651e-04 4.656579356907e-04 0.0 
4.656579356907e-04 1.249504030531e-02 0.0 
0.0 0.0 0.0 
-3.864333494872e-05 -1.184531218347e-04 0.0 
-1.184531218347e-04 6.761475886101e-04 0.0 
0.0 0.0 0.0 
2.595548310415e-05 -1.152820651998e-04 0.0 
-1.152820651998e-04 8.086951482524e-04 0.0 
0.0 0.0 0.0 
3.281858068520e-04 6.103458828603e-04 0.0 
6.103458828603e-04 7.627134422722e-03 0.0 
0.0 0.0 0.0 
3.821903309992e-04 5.120549817642e-04 0.0 
5.120549817642e-04 7.292898434184e-03 0.0 
0.0 0.0 0.0 
2.594329395428e-04 5.588378856204e-04 0.0 
5.588378856204e-04 7.793055186827e-03 0.0 
0.0 0.0 0.0 
3.149807224903e-04 4.761325169360e-04 0.0 
4.761325169360e-04 7.461423421444e-03 0.0 
0.0 0.0 0.0 
4.295736426430e-04 4.270904307497e-04 0.0 
4.270904307497e-04 6.970586624358e-03 0.0 
0.0 0.0 0.0 
3.721561788298e-04 3.959094973613e-04 0.0 
3.959094973613e-04 7.168184932315e-03 0.0 
0.0 0.0 0.0 
-5.473295620326e-04 5.124801955229e-05 0.0 
5.124801955229e-05 9.886608877050e-03 0.0 
0.0 0.0 0.0 
2.418896842990e-04 4.486841835844e-04 0.0 
4.486841835844e-04 7.735216043062e-03 0.0 
0.0 0.0 0.0 
3.085720273018e-04 3.544624309880e-04 0.0 
3.544624309880e-04 7.377636580030e-03 0.0 
0.0 0.0 0.0 
1.823031045409e-04 3.955321761840e-04 0.0 
3.955321761840e-04 7.946709775328e-03 0.0 
0.0 0.0 0.0 
-8.943964490953e-04 6.381907248266e-04 0.0 
6.381907248266e-04 8.457611424697e-03 0.0 
0.0 0.0 0.0 
-5.001463490885e-05 1.473598895742e-03 0.0 
1.473598895742e-03 5.300217073527e-03 0.0 
0.0 0.0 0.0 
-2.692204747576e-04 1.454296393901e-03 0.0 
1.454296393901e-03 5.638652170672e-03 0.0 
0.0 0.0 0.0 
-3.967511595833e-04 1.372857465592e-03 0.0 
1.372857465592e-03 5.351384958946e-03 0.0 
0.0 0.0 0.0 
-1.995902619513e-04 1.480651704903e-03 0.0 
1.480651704903e-03 1.106885832279e-02 0.0 
0.0 0.0 0.0 
-3.007813000442e-04 1.375097060719e-03 0.0 
1.375097060719e-03 1.104839957167e-02 0.0 
0.0 0.0 0.0 
4.346824007128e-04 7.912359989616e-05 0.0 
7.912359989616e-05 6.428141612757e-03 0.0 
0.0 0.0 0.0 
4.974307700864e-04 6.660474845963e-05 0.0 
6.660474845963e-05 5.949652161964e-03 0.0 
0.0 0.0 0.0 
-4.792950885622e-04 2.599765384984e-05 0.0 
2.599765384984e-05 9.935989944752e-03 0.0 
0.0 0.0 0.0 
-4.660165191575e-04 1.545263425446e-05 0.0 
1.545263425446e-05 9.908595551067e-03 0.0 
0.0 0.0 0.0 
-4.539724433327e-04 3.824999035177e-05 0.0 
3.824999035177e-05 1.028474183373e-02 0.0 
0.0 0.0 0.0 
-4.458320031612e-04 2.155889779023e-05 0.0 
2.155889779023e-05 1.023132880964e-02 0.0 
0.0 0.0 0.0 
-4.267191864106e-04 4.357951279798e-05 0.0 
4.357951279798e-05 1.060379109603e-02 0.0 
0.0 0.0 0.0 
-4.196954032341e-04 2.227299276569e-05 0.0 
2.227299276569e-05 1.054296371130e-02 0.0 
0.0 0.0 0.0 
-3.925899437493e-04 3.732497593327e-05 0.0 
3.732497593327e-05 1.091731596405e-02 0.0 
0.0 0.0 0.0 
1.341802234862e-05 1.612305469250e-03 0.0 
1.612305469250e-03 1.008860837819e-02 0.0 
0.0 0.0 0.0 
-2.648198575902e-04 1.255533843165e-03 0.0 
1.255533843165e-03 3.890185892958e-03 0.0 
0.0 0.0 0.0 
-8.969376597661e-04 4.817376988952e-04 0.0 
4.817376988952e-04 8.985190576140e-03 0.0 
0.0 0.0 0.0 
2.621478610113e-04 1.374324346244e-03 0.0 
1.374324346244e-03 8.796035967488e-03 0.0 
0.0 0.0 0.0 
3.457685516546e-04 1.265036691850e-03 0.0 
1.265036691850e-03 8.339241487849e-03 0.0 
0.0 0.0 0.0 
-8.189591321022e-04 1.024280886118e-03 0.0 
1.024280886118e-03 8.012018130842e-03 0.0 
0.0 0.0 0.0 
-8.377434965684e-04 9.079810586962e-04 0.0 
9.079810586962e-04 7.794784284037e-03 0.0 
0.0 0.0 0.0 
2.959307262280e-04 7.586199239961e-04 0.0 
7.586199239961e-04 7.880680538610e-03 0.0 
0.0 0.0 0.0 
4.440789448977e-04 1.235541652207e-03 0.0 
1.235541652207e-03 4.676384406416e-03 0.0 
0.0 0.0 0.0 
-1.431485368545e-04 5.547680177711e-04 0.0 
5.547680177711e-04 1.265347398726e-02 0.0 
0.0 0.0 0.0 
-6.126447523082e-04 2.868977552441e-04 0.0 
2.868977552441e-04 6.158997776054e-04 0.0 
0.0 0.0 0.0 
-3.378205558209e-04 2.769527516164e-04 0.0 
2.769527516164e-04 9.482248588636e-04 0.0 
0.0 0.0 0.0 
3.219493559244e-04 1.355318254412e-03 0.0 
1.355318254412e-03 5.271684494951e-03 0.0 
0.0 0.0 0.0 
-7.861160272083e-04 1.087671950801e-03 0.0 
1.087671950801e-03 8.261129617891e-03 0.0 
0.0 0.0 0.0 
-2.058361175370e-04 1.501696460906e-03 0.0 
1.501696460906e-03 5.985549080794e-03 0.0 
0.0 0.0 0.0 
-4.139428142311e-04 1.456844298472e-03 0.0 
1.456844298472e-03 6.358165965142e-03 0.0 
0.0 0.0 0.0 
6.822632773702e-04 7.226216462051e-04 0.0 
7.226216462051e-04 6.350503751406e-03 0.0 
0.0 0.0 0.0 
-8.405693970851e-06 -1.777856434212e-04 0.0 
-1.777856434212e-04 9.459616722252e-04 0.0 
0.0 0.0 0.0 
1.391029404565e-05 1.046107796150e-03 0.0 
1.046107796150e-03 2.997617073268e-03 0.0 
0.0 0.0 0.0 
-3.995822661712e-04 6.803812378931e-05 0.0 
6.803812378931e-05 1.096566612953e-02 0.0 
0.0 0.0 0.0 
-2.530098497274e-04 1.023258766188e-03 0.0 
1.023258766188e-03 2.629296631442e-03 0.0 
0.0 0.0 0.0 
4.637642540048e-04 3.693036639500e-05 0.0 
3.693036639500e-05 6.194689218845e-03 0.0 
0.0 0.0 0.0 
5.551133304498e-04 1.128301630439e-03 0.0 
1.128301630439e-03 4.591819018199e-03 0.0 
0.0 0.0 0.0 
-4.877327701613e-04 1.370125293805e-03 0.0 
1.370125293805e-03 7.863276318785e-03 0.0 
0.0 0.0 0.0 
2.132136803503e-04 1.096436263034e-03 0.0 
1.096436263034e-03 3.383478426030e-03 0.0 
0.0 0.0 0.0 
1.386474737109e-04 1.419490473418e-03 0.0 
1.419490473418e-03 5.051827509473e-03 0.0 
0.0 0.0 0.0 
-8.433708077269e-04 7.689279704784e-04 0.0 
7.689279704784e-04 9.898126170688e-03 0.0 
0.0 0.0 0.0 
-8.699969132304e-04 4.886443902272e-04 0.0 
4.886443902272e-04 9.809429907224e-03 0.0 
0.0 0.0 0.0 
-8.903874942772e-04 5.325287030447e-04 0.0 
5.325287030447e-04 9.555593950891e-03 0.0 
0.0 0.0 0.0 
6.438900411205e-04 1.020404636595e-03 0.0 
1.020404636595e-03 4.544376327942e-03 0.0 
0.0 0.0 0.0 
-5.943325612900e-04 1.347478480665e-03 0.0 
1.347478480665e-03 7.024716703020e-03 0.0 
0.0 0.0 0.0 
-6.367513678019e-04 1.237827848279e-03 0.0 
1.237827848279e-03 6.764017102716e-03 0.0 
0.0 0.0 0.0 
-7.464851094859e-04 1.070322572949e-03 0.0 
1.070322572949e-03 9.194352206222e-03 0.0 
0.0 0.0 0.0 
-5.622470523535e-04 6.870616931325e-04 0.0 
6.870616931325e-04 1.153237256055e-02 0.0 
0.0 0.0 0.0 
-5.263276683297e-04 7.971820603494e-04 0.0 
7.971820603494e-04 1.160790231019e-02 0.0 
0.0 0.0 0.0 
-4.072022660994e-04 8.781758311488e-04 0.0 
8.781758311488e-04 1.190236419834e-02 0.0 
0.0 0.0 0.0 
-4.810166314713e-04 9.090136603264e-04 0.0 
9.090136603264e-04 1.166022886553e-02 0.0 
0.0 0.0 0.0 
-5.918906613069e-04 8.234703021093e-04 0.0 
8.234703021093e-04 1.135511837220e-02 0.0 
0.0 0.0 0.0 
-5.432433629620e-04 9.375271719045e-04 0.0 
9.375271719045e-04 1.139700170088e-02 0.0 
0.0 0.0 0.0 
-4.168482290456e-04 1.022039105516e-03 0.0 
1.022039105516e-03 1.169721023196e-02 0.0 
0.0 0.0 0.0 
-4.778151823874e-04 1.056480599469e-03 0.0 
1.056480599469e-03 1.142387963012e-02 0.0 
0.0 0.0 0.0 
-3.264886617646e-04 1.153914109506e-03 0.0 
1.153914109506e-03 1.177316077994e-02 0.0 
0.0 0.0 0.0 
-4.055460585805e-04 1.170668801049e-03 0.0 
1.170668801049e-03 1.141662613051e-02 0.0 
0.0 0.0 0.0 
-5.234468950131e-04 1.086468189404e-03 0.0 
1.086468189404e-03 1.111174380324e-02 0.0 
0.0 0.0 0.0 
-4.521553938064e-04 1.191809916481e-03 0.0 
1.191809916481e-03 1.109214622596e-02 0.0 
0.0 0.0 0.0 
-3.448301721887e-04 1.275729097575e-03 0.0 
1.275729097575e-03 1.136618112382e-02 0.0 
0.0 0.0 0.0 
-5.566429954981e-04 1.117313869646e-03 0.0 
1.117313869646e-03 1.078754612736e-02 0.0 
0.0 0.0 0.0 
1.725259424148e-04 1.477254900141e-03 0.0 
1.477254900141e-03 9.230379453121e-03 0.0 
0.0 0.0 0.0 
3.189461365930e-04 1.361185246151e-03 0.0 
1.361185246151e-03 5.726237522359e-03 0.0 
0.0 0.0 0.0 
-1.376512957873e-04 1.694583779577e-04 0.0 
1.694583779577e-04 1.109054522836e-03 0.0 
0.0 0.0 0.0 
-2.230909451268e-04 4.697163229600e-04 0.0 
4.697163229600e-04 1.283254740654e-03 0.0 
0.0 0.0 0.0 
-6.032849594343e-04 1.270859125992e-03 0.0 
1.270859125992e-03 8.356062939188e-03 0.0 
0.0 0.0 0.0 
-1.680702009384e-04 1.197201547838e-03 0.0 
1.197201547838e-03 1.213877423496e-02 0.0 
0.0 0.0 0.0 
-1.689239649493e-04 9.879542938929e-04 0.0 
9.879542938929e-04 1.238787390638e-02 0.0 
0.0 0.0 0.0 
5.843188729860e-04 9.152139470533e-04 0.0 
9.152139470533e-04 3.607561275440e-03 0.0 
0.0 0.0 0.0 
-9.227088318266e-05 1.605063974487e-03 0.0 
1.605063974487e-03 1.129209522368e-02 0.0 
0.0 0.0 0.0 
-8.840995912930e-04 6.831164837654e-04 0.0 
6.831164837654e-04 9.596074150791e-03 0.0 
0.0 0.0 0.0 
4.340249709318e-04 4.732253241283e-04 0.0 
4.732253241283e-04 2.270550372145e-03 0.0 
0.0 0.0 0.0 
-3.915953716656e-05 1.684143187845e-03 0.0 
1.684143187845e-03 1.084809817952e-02 0.0 
0.0 0.0 0.0 
-6.279159517220e-04 7.106644967047e-04 0.0 
7.106644967047e-04 1.129080031165e-02 0.0 
0.0 0.0 0.0 
-6.850703578659e-04 7.335876355871e-04 0.0 
7.335876355871e-04 1.103546606288e-02 0.0 
0.0 0.0 0.0 
-7.081040553170e-04 6.204991524057e-04 0.0 
6.204991524057e-04 1.096155003388e-02 0.0 
0.0 0.0 0.0 
-1.468277136743e-04 8.120970875355e-04 0.0 
8.120970875355e-04 1.255497722359e-02 0.0 
0.0 0.0 0.0 
-6.335433308168e-04 2.427527385278e-04 0.0 
2.427527385278e-04 1.065076356282e-02 0.0 
0.0 0.0 0.0 
5.800503579878e-05 1.652396030704e-03 0.0 
1.652396030704e-03 9.968297617536e-03 0.0 
0.0 0.0 0.0 
6.095029866692e-04 1.087885317849e-03 0.0 
1.087885317849e-03 6.426587105993e-03 0.0 
0.0 0.0 0.0 
5.583278681908e-04 1.153935675867e-03 0.0 
1.153935675867e-03 6.427525201100e-03 0.0 
0.0 0.0 0.0 
5.946696106283e-04 1.124082122611e-03 0.0 
1.124082122611e-03 5.957370688190e-03 0.0 
0.0 0.0 0.0 
-5.924296118598e-04 9.674660024616e-04 0.0 
9.674660024616e-04 1.110983925473e-02 0.0 
0.0 0.0 0.0 
1.368584039672e-04 1.388363185416e-03 0.0 
1.388363185416e-03 9.146025450558e-03 0.0 
0.0 0.0 0.0 
2.612789117364e-04 1.262322003154e-03 0.0 
1.262322003154e-03 8.626969124799e-03 0.0 
0.0 0.0 0.0 
2.719276498600e-04 1.182173216215e-03 0.0 
1.182173216215e-03 8.479539361324e-03 0.0 
0.0 0.0 0.0 
3.780820882078e-04 1.144515119617e-03 0.0 
1.144515119617e-03 8.083343421391e-03 0.0 
0.0 0.0 0.0 
1.510411907191e-04 1.214330651570e-03 0.0 
1.214330651570e-03 8.850021863410e-03 0.0 
0.0 0.0 0.0 
-1.385832503703e-04 1.387626989893e-03 0.0 
1.387626989893e-03 1.187584791955e-02 0.0 
0.0 0.0 0.0 
-1.201463371597e-04 1.474187110337e-03 0.0 
1.474187110337e-03 1.171180455129e-02 0.0 
0.0 0.0 0.0 
5.953052874593e-04 1.515561326316e-05 0.0 
1.515561326316e-05 2.452592713178e-03 0.0 
0.0 0.0 0.0 
6.746127505047e-04 1.200885785013e-04 0.0 
1.200885785013e-04 2.726757035065e-03 0.0 
0.0 0.0 0.0 
7.510016605593e-04 1.987557082322e-04 0.0 
1.987557082322e-04 3.145999346641e-03 0.0 
0.0 0.0 0.0 
7.379984574808e-04 2.425872527290e-04 0.0 
2.425872527290e-04 3.026252300493e-03 0.0 
0.0 0.0 0.0 
6.513112666467e-04 1.616855228251e-04 0.0 
1.616855228251e-04 2.601719968130e-03 0.0 
0.0 0.0 0.0 
7.157907074838e-04 2.974794434953e-04 0.0 
2.974794434953e-04 2.915410031930e-03 0.0 
0.0 0.0 0.0 
7.810517614725e-04 3.784358160660e-04 0.0 
3.784358160660e-04 3.352861298105e-03 0.0 
0.0 0.0 0.0 
6.831322068168e-04 3.656298484605e-04 0.0 
3.656298484605e-04 2.817873155290e-03 0.0 
0.0 0.0 0.0 
-3.922514419381e-04 1.305956672685e-03 0.0 
1.305956672685e-03 1.073104308826e-02 0.0 
0.0 0.0 0.0 
1.488859980040e-04 1.036079125764e-03 0.0 
1.036079125764e-03 8.628843664952e-03 0.0 
0.0 0.0 0.0 
7.556773407894e-04 4.127768520951e-04 0.0 
4.127768520951e-04 5.331994873370e-03 0.0 
0.0 0.0 0.0 
7.852256166256e-04 4.376137718024e-04 0.0 
4.376137718024e-04 5.179707640696e-03 0.0 
0.0 0.0 0.0 
8.076018373946e-04 3.636938982009e-04 0.0 
3.636938982009e-04 4.718845330640e-03 0.0 
0.0 0.0 0.0 
6.309693237344e-04 6.271228001485e-06 0.0 
6.271228001485e-06 3.696466941664e-03 0.0 
0.0 0.0 0.0 
6.679247743470e-04 4.753998013531e-05 0.0 
4.753998013531e-05 3.939511683978e-03 0.0 
0.0 0.0 0.0 
6.811270427039e-04 9.960268320937e-05 0.0 
9.960268320937e-05 4.366435472929e-03 0.0 
0.0 0.0 0.0 
5.907440015350e-04 -2.418245120498e-05 0.0 
-2.418245120498e-05 3.460856512289e-03 0.0 
0.0 0.0 0.0 
1.979552776021e-05 1.420428731151e-03 0.0 
1.420428731151e-03 8.461860509408e-03 0.0 
0.0 0.0 0.0 
1.472547666866e-04 9.439833763517e-04 0.0 
9.439833763517e-04 8.526563117988e-03 0.0 
0.0 0.0 0.0 
7.766020371179e-04 7.381064174931e-04 0.0 
7.381064174931e-04 5.651888042575e-03 0.0 
0.0 0.0 0.0 
6.796587687695e-04 4.287550450136e-05 0.0 
4.287550450136e-05 3.766101959605e-03 0.0 
0.0 0.0 0.0 
-7.003987943525e-04 1.163064794783e-04 0.0 
1.163064794783e-04 9.605407234292e-03 0.0 
0.0 0.0 0.0 
-7.301601053075e-04 2.067211625853e-04 0.0 
2.067211625853e-04 9.955651922975e-03 0.0 
0.0 0.0 0.0 
-7.781057491419e-04 2.563058338157e-04 0.0 
2.563058338157e-04 9.948360603383e-03 0.0 
0.0 0.0 0.0 
-7.456245384353e-04 3.110661581537e-04 0.0 
3.110661581537e-04 1.032017899758e-02 0.0 
0.0 0.0 0.0 
-6.898825088888e-04 1.638287483098e-04 0.0 
1.638287483098e-04 9.999465541859e-03 0.0 
0.0 0.0 0.0 
6.238114762760e-04 5.706388294102e-05 0.0 
5.706388294102e-05 4.474946972065e-03 0.0 
0.0 0.0 0.0 
6.077208914677e-04 5.583097259470e-05 0.0 
5.583097259470e-05 4.658986332047e-03 0.0 
0.0 0.0 0.0 
5.971267082829e-04 2.999761501735e-05 0.0 
2.999761501735e-05 4.418759400096e-03 0.0 
0.0 0.0 0.0 
5.918408644264e-04 5.042242368564e-05 0.0 
5.042242368564e-05 4.845024158290e-03 0.0 
0.0 0.0 0.0 
5.889998238071e-04 2.457407371435e-05 0.0 
2.457407371435e-05 4.593752426630e-03 0.0 
0.0 0.0 0.0 
5.873441978466e-04 1.008121853870e-05 0.0 
1.008121853870e-05 4.202852079916e-03 0.0 
0.0 0.0 0.0 
5.770080107264e-04 3.863738586582e-05 0.0 
3.863738586582e-05 5.024795060793e-03 0.0 
0.0 0.0 0.0 
5.789477989012e-04 1.934374739179e-05 0.0 
1.934374739179e-05 4.745134613844e-03 0.0 
0.0 0.0 0.0 
-6.285821340246e-04 6.308247767908e-05 0.0 
6.308247767908e-05 9.598109974725e-03 0.0 
0.0 0.0 0.0 
-5.539821305421e-04 -9.441335319573e-05 0.0 
-9.441335319573e-05 5.018674578527e-04 0.0 
0.0 0.0 0.0 
-2.924361476607e-04 -1.453621344136e-04 0.0 
-1.453621344136e-04 7.225866347483e-04 0.0 
0.0 0.0 0.0 
-2.680813121974e-04 -1.565302070915e-04 0.0 
-1.565302070915e-04 6.947322767028e-04 0.0 
0.0 0.0 0.0 
-8.835909410508e-05 -1.766643069723e-04 0.0 
-1.766643069723e-04 9.766996518829e-04 0.0 
0.0 0.0 0.0 
-7.677819792634e-05 -1.389286172666e-04 0.0 
-1.389286172666e-04 1.010394280331e-03 0.0 
0.0 0.0 0.0 
1.239112369666e-04 -1.465965763800e-04 0.0 
-1.465965763800e-04 1.308194105966e-03 0.0 
0.0 0.0 0.0 
1.019190937835e-04 -1.129753296954e-04 0.0 
-1.129753296954e-04 1.281450060585e-03 0.0 
0.0 0.0 0.0 
-3.134340764767e-04 -1.284597481683e-04 0.0 
-1.284597481683e-04 7.404487743812e-04 0.0 
0.0 0.0 0.0 
-4.352149338588e-04 -9.809197267589e-05 0.0 
-9.809197267589e-05 4.444818874297e-04 0.0 
0.0 0.0 0.0 
-2.260779052863e-04 -1.544728325513e-04 0.0 
-1.544728325513e-04 6.737732131970e-04 0.0 
0.0 0.0 0.0 
-3.692476269791e-04 -9.333479711722e-05 0.0 
-9.333479711722e-05 4.125770285632e-04 0.0 
0.0 0.0 0.0 
-1.897291689565e-04 -1.539130285726e-04 0.0 
-1.539130285726e-04 6.447063962787e-04 0.0 
0.0 0.0 0.0 
-2.795405121782e-05 -1.859221469589e-04 0.0 
-1.859221469589e-04 9.859441703833e-04 0.0 
0.0 0.0 0.0 
1.914506542967e-04 -1.796037985109e-04 0.0 
-1.796037985109e-04 1.444092083627e-03 0.0 
0.0 0.0 0.0 
1.258164032584e-04 2.267331166683e-04 0.0 
2.267331166683e-04 8.009359992045e-03 0.0 
0.0 0.0 0.0 
5.386761241305e-04 -4.817957635159e-06 0.0 
-4.817957635159e-06 3.571214022780e-03 0.0 
0.0 0.0 0.0 
5.224800629446e-04 -1.315898492329e-05 0.0 
-1.315898492329e-05 3.376673137544e-03 0.0 
0.0 0.0 0.0 
4.831504022523e-04 -2.279774305487e-05 0.0 
-2.279774305487e-05 2.992941448539e-03 0.0 
0.0 0.0 0.0 
5.096443772904e-04 -3.101869784096e-05 0.0 
-3.101869784096e-05 3.199428817119e-03 0.0 
0.0 0.0 0.0 
5.539305649861e-04 -2.663887497615e-06 0.0 
-2.663887497615e-06 3.734133204016e-03 0.0 
0.0 0.0 0.0 
4.514227280291e-04 -1.350591614027e-05 0.0 
-1.350591614027e-05 2.784714494395e-03 0.0 
0.0 0.0 0.0 
4.317696196916e-04 -2.925973686648e-05 0.0 
-2.925973686648e-05 2.644274967323e-03 0.0 
0.0 0.0 0.0 
1.213903399163e-05 -2.050312584996e-05 0.0 
-2.050312584996e-05 2.505917380081e-04 0.0 
0.0 0.0 0.0 
6.384141604062e-05 -3.517140515077e-05 0.0 
-3.517140515077e-05 5.454468217244e-04 0.0 
0.0 0.0 0.0 
5.622941995522e-05 -1.805176112394e-05 0.0 
-1.805176112394e-05 5.130927285089e-04 0.0 
0.0 0.0 0.0 
1.143050467818e-04 -2.961114965837e-05 0.0 
-2.961114965837e-05 8.765761725117e-04 0.0 
0.0 0.0 0.0 
1.100650484398e-04 -5.230682281952e-05 0.0 
-5.230682281952e-05 8.708826989942e-04 0.0 
0.0 0.0 0.0 
5.356399296789e-05 -4.681800598256e-05 0.0 
-4.681800598256e-05 5.534563243405e-04 0.0 
0.0 0.0 0.0 
3.728618254908e-05 -5.946544190090e-05 0.0 
-5.946544190090e-05 5.617076443263e-04 0.0 
0.0 0.0 0.0 
-3.117868557654e-05 -4.029992313962e-05 0.0 
-4.029992313962e-05 2.685933666197e-04 0.0 
0.0 0.0 0.0 
2.104699028443e-05 -7.479959835328e-05 0.0 
-7.479959835328e-05 5.685015162624e-04 0.0 
0.0 0.0 0.0 
9.468938537305e-05 -8.514719357162e-05 0.0 
-8.514719357162e-05 8.956145138759e-04 0.0 
0.0 0.0 0.0 
-5.971598938526e-05 -4.865777541435e-05 0.0 
-4.865777541435e-05 2.713700753639e-04 0.0 
0.0 0.0 0.0 
-3.247146566710e-04 1.891126087325e-05 0.0 
1.891126087325e-05 1.143239934581e-02 0.0 
0.0 0.0 0.0 
-2.972568109576e-04 4.759747577882e-05 0.0 
4.759747577882e-05 1.164352121800e-02 0.0 
0.0 0.0 0.0 
1.494090614989e-04 7.679935157212e-04 0.0 
7.679935157212e-04 8.340050159508e-03 0.0 
0.0 0.0 0.0 
-5.668378221195e-04 3.698211492718e-05 0.0 
3.698211492718e-05 9.632004719054e-03 0.0 
0.0 0.0 0.0 
-2.484843773102e-04 -7.872683121634e-05 0.0 
-7.872683121634e-05 3.651369912911e-04 0.0 
0.0 0.0 0.0 
-1.000843965365e-04 1.954007498105e-04 0.0 
1.954007498105e-04 1.273566863810e-02 0.0 
0.0 0.0 0.0 
-1.036838713193e-04 3.591134660681e-04 0.0 
3.591134660681e-04 1.276114403874e-02 0.0 
0.0 0.0 0.0 
-9.100568150324e-05 3.068779480430e-04 0.0 
3.068779480430e-04 1.278128460731e-02 0.0 
0.0 0.0 0.0 
2.986584385189e-04 4.927362217628e-05 0.0 
4.927362217628e-05 7.186373527088e-03 0.0 
0.0 0.0 0.0 
2.532819243496e-04 9.893156978196e-05 0.0 
9.893156978196e-05 7.438971154693e-03 0.0 
0.0 0.0 0.0 
-8.874068154243e-05 1.106606461115e-04 0.0 
1.106606461115e-04 1.275460663628e-02 0.0 
0.0 0.0 0.0 
4.419526996474e-04 -1.287767262579e-04 0.0 
-1.287767262579e-04 2.333432784851e-03 0.0 
0.0 0.0 0.0 
-3.581930910078e-04 9.951919939903e-04 0.0 
9.951919939903e-04 1.194593964683e-02 0.0 
0.0 0.0 0.0 
-2.534037989900e-04 1.946056862898e-04 0.0 
1.946056862898e-04 1.211063478837e-02 0.0 
0.0 0.0 0.0 
3.313040649994e-04 5.932257930326e-04 0.0 
5.932257930326e-04 2.271660130685e-03 0.0 
0.0 0.0 0.0 
4.724957679963e-04 -1.263239823979e-04 0.0 
-1.263239823979e-04 2.266774293745e-03 0.0 
0.0 0.0 0.0 
5.309025514641e-04 9.087919799081e-05 0.0 
9.087919799081e-05 5.738239542535e-03 0.0 
0.0 0.0 0.0 
6.525958460040e-04 2.037400685881e-04 0.0 
2.037400685881e-04 5.250461385770e-03 0.0 
0.0 0.0 0.0 
4.061387975055e-04 2.156541825909e-04 0.0 
2.156541825909e-04 6.761775955649e-03 0.0 
0.0 0.0 0.0 
5.900843134808e-04 1.254807862095e-04 0.0 
1.254807862095e-04 5.350041015599e-03 0.0 
0.0 0.0 0.0 
5.022065501960e-04 2.771562359757e-04 0.0 
2.771562359757e-04 6.374259775182e-03 0.0 
0.0 0.0 0.0 
2.932401640485e-04 1.088073300311e-03 0.0 
1.088073300311e-03 8.291067477543e-03 0.0 
0.0 0.0 0.0 
2.136355407132e-04 -6.708361681693e-05 0.0 
-6.708361681693e-05 1.434703370802e-03 0.0 
0.0 0.0 0.0 
-5.123582985318e-04 1.422047538349e-04 0.0 
1.422047538349e-04 1.072745175217e-02 0.0 
0.0 0.0 0.0 
-4.618789713568e-04 7.453779312403e-05 0.0 
7.453779312403e-05 1.057008414784e-02 0.0 
0.0 0.0 0.0 
-3.748233963348e-04 1.770388588289e-04 0.0 
1.770388588289e-04 1.153534698067e-02 0.0 
0.0 0.0 0.0 
4.268790589113e-04 -9.692284828924e-05 0.0 
-9.692284828924e-05 2.447429438931e-03 0.0 
0.0 0.0 0.0 
5.884079037149e-04 5.903956493333e-06 0.0 
5.903956493333e-06 4.012422152886e-03 0.0 
0.0 0.0 0.0 
2.250022348786e-04 -1.430226475359e-04 0.0 
-1.430226475359e-04 1.532872137285e-03 0.0 
0.0 0.0 0.0 
-9.387930580405e-05 1.588041988710e-03 0.0 
1.588041988710e-03 1.065500672334e-02 0.0 
0.0 0.0 0.0 
-7.997726851800e-04 1.019259611775e-03 0.0 
1.019259611775e-03 8.918267703515e-03 0.0 
0.0 0.0 0.0 
7.933864648471e-04 2.668978997381e-04 0.0 
2.668978997381e-04 4.415560627578e-03 0.0 
0.0 0.0 0.0 
5.908277441922e-04 -3.742724554693e-05 0.0 
-3.742724554693e-05 3.286737753529e-03 0.0 
0.0 0.0 0.0 
5.085710800178e-04 -1.076864970911e-04 0.0 
-1.076864970911e-04 2.558618707613e-03 0.0 
0.0 0.0 0.0 
4.451997832302e-04 -1.303707620494e-04 0.0 
-1.303707620494e-04 2.118270696741e-03 0.0 
0.0 0.0 0.0 
1.684603574645e-04 1.429529841699e-03 0.0 
1.429529841699e-03 6.321081359916e-03 0.0 
0.0 0.0 0.0 
7.175549310593e-04 1.006541824055e-04 0.0 
1.006541824055e-04 4.020590760449e-03 0.0 
0.0 0.0 0.0 
6.204693369921e-04 4.326226989137e-04 0.0 
4.326226989137e-04 6.131005985070e-03 0.0 
0.0 0.0 0.0 
-3.244653526910e-04 1.650018617387e-04 0.0 
1.650018617387e-04 1.174153517196e-02 0.0 
0.0 0.0 0.0 
-1.520990249004e-04 -6.876392159711e-05 0.0 
-6.876392159711e-05 3.569957312540e-04 0.0 
0.0 0.0 0.0 
5.919558847186e-04 5.242999404802e-04 0.0 
5.242999404802e-04 6.450436175791e-03 0.0 
0.0 0.0 0.0 
7.170142410966e-04 2.254790934444e-04 0.0 
2.254790934444e-04 4.899497413313e-03 0.0 
0.0 0.0 0.0 
-5.844761334903e-04 2.465364806483e-04 0.0 
2.465364806483e-04 1.087017845862e-02 0.0 
0.0 0.0 0.0 
5.160740154115e-04 1.133274932734e-03 0.0 
1.133274932734e-03 7.401141110861e-03 0.0 
0.0 0.0 0.0 
2.076193076523e-04 -1.619101780031e-04 0.0 
-1.619101780031e-04 1.472256055174e-03 0.0 
0.0 0.0 0.0 
-4.153565751533e-04 2.970412163595e-04 0.0 
2.970412163595e-04 1.166220134998e-02 0.0 
0.0 0.0 0.0 
-3.321275336040e-04 6.068653780165e-04 0.0 
6.068653780165e-04 1.218637488593e-02 0.0 
0.0 0.0 0.0 
-6.769801568181e-04 2.376630164933e-04 0.0 
2.376630164933e-04 1.043055569184e-02 0.0 
0.0 0.0 0.0 
1.268832362837e-04 -1.364321488561e-04 0.0 
-1.364321488561e-04 1.163806494060e-03 0.0 
0.0 0.0 0.0 
-5.373004251275e-04 9.536953249491e-05 0.0 
9.536953249491e-05 1.031959670023e-02 0.0 
0.0 0.0 0.0 
3.742548273467e-04 7.933367099747e-04 0.0 
7.933367099747e-04 7.652513881481e-03 0.0 
0.0 0.0 0.0 
-5.859039558852e-04 5.821223540690e-04 0.0 
5.821223540690e-04 1.143597316899e-02 0.0 
0.0 0.0 0.0 
3.777833344860e-04 -9.381872865611e-05 0.0 
-9.381872865611e-05 2.231365509482e-03 0.0 
0.0 0.0 0.0 
8.061268444441e-04 7.305887682300e-04 0.0 
7.305887682300e-04 5.103594874812e-03 0.0 
0.0 0.0 0.0 
-3.139762352727e-04 1.430890505871e-03 0.0 
1.430890505871e-03 7.654636659764e-03 0.0 
0.0 0.0 0.0 
-8.392907519660e-04 2.856480347386e-04 0.0 
2.856480347386e-04 9.141852149773e-03 0.0 
0.0 0.0 0.0 
-2.310461554983e-04 2.438473201899e-04 0.0 
2.438473201899e-04 1.226095458313e-02 0.0 
0.0 0.0 0.0 
4.002723528705e-04 1.291381918250e-03 0.0 
1.291381918250e-03 6.510725044716e-03 0.0 
0.0 0.0 0.0 
5.001642933338e-04 1.057731898876e-03 0.0 
1.057731898876e-03 7.527016201804e-03 0.0 
0.0 0.0 0.0 
7.275646768547e-04 8.553552368437e-04 0.0 
8.553552368437e-04 6.056213715438e-03 0.0 
0.0 0.0 0.0 
4.016898972235e-04 -7.018418510486e-05 0.0 
-7.018418510486e-05 2.402610698757e-03 0.0 
0.0 0.0 0.0 
4.840871334325e-04 4.597352106480e-04 0.0 
4.597352106480e-04 6.796071431230e-03 0.0 
0.0 0.0 0.0 
6.848423308234e-04 1.007786186356e-03 0.0 
1.007786186356e-03 5.474233192449e-03 0.0 
0.0 0.0 0.0 
-3.368190318513e-04 3.481046046036e-04 0.0 
3.481046046036e-04 1.202086378185e-02 0.0 
0.0 0.0 0.0 
-2.823595168073e-04 1.385329058682e-03 0.0 
1.385329058682e-03 9.514185906099e-03 0.0 
0.0 0.0 0.0 
7.964883057193e-04 6.740154510607e-04 0.0 
6.740154510607e-04 4.105984336237e-03 0.0 
0.0 0.0 0.0 
-4.593138351040e-04 4.569028045606e-04 0.0 
4.569028045606e-04 1.174955632543e-02 0.0 
0.0 0.0 0.0 
8.250057818195e-04 3.925845655636e-04 0.0 
3.925845655636e-04 4.580058613216e-03 0.0 
0.0 0.0 0.0 
4.291521936843e-04 1.235018320780e-03 0.0 
1.235018320780e-03 7.853729271463e-03 0.0 
0.0 0.0 0.0 
-7.406031270503e-04 1.132509817901e-03 0.0 
1.132509817901e-03 8.524036304342e-03 0.0 
0.0 0.0 0.0 
-3.668683766933e-04 1.357634906737e-03 0.0 
1.357634906737e-03 8.827206163208e-03 0.0 
0.0 0.0 0.0 
-6.460337418331e-04 1.095282968034e-03 0.0 
1.095282968034e-03 1.014749715138e-02 0.0 
0.0 0.0 0.0 
1.364922723968e-05 1.422606484258e-03 0.0 
1.422606484258e-03 7.681587684455e-03 0.0 
0.0 0.0 0.0 
5.457291847640e-04 5.522593812294e-05 0.0 
5.522593812294e-05 5.481220748971e-03 0.0 
0.0 0.0 0.0 
5.389473896943e-04 4.942225070075e-04 0.0 
4.942225070075e-04 6.620038234043e-03 0.0 
0.0 0.0 0.0 
3.162602854894e-04 6.529206465597e-05 0.0 
6.529206465597e-05 1.672438159489e-03 0.0 
0.0 0.0 0.0 
1.674221328696e-04 1.438823652353e-03 0.0 
1.438823652353e-03 5.476385868459e-03 0.0 
0.0 0.0 0.0 
-6.472012103355e-04 3.166132177642e-04 0.0 
3.166132177642e-04 1.081680199048e-02 0.0 
0.0 0.0 0.0 
-5.031955746028e-05 1.497135260966e-03 0.0 
1.497135260966e-03 9.698355753762e-03 0.0 
0.0 0.0 0.0 
-2.424611481335e-04 3.945439694939e-04 0.0 
3.945439694939e-04 1.236462049175e-02 0.0 
0.0 0.0 0.0 
-3.395305759762e-04 1.452393311205e-03 0.0 
1.452393311205e-03 7.320439565388e-03 0.0 
0.0 0.0 0.0 
5.216486809280e-04 3.775552570919e-04 0.0 
3.775552570919e-04 6.482770474730e-03 0.0 
0.0 0.0 0.0 
-3.625284575132e-04 5.212185843521e-04 0.0 
5.212185843521e-04 1.208069669747e-02 0.0 
0.0 0.0 0.0 
7.003678520849e-04 9.985659503192e-05 0.0 
9.985659503192e-05 4.191199279023e-03 0.0 
0.0 0.0 0.0 
2.594486424898e-04 -2.168903400550e-05 0.0 
-2.168903400550e-05 1.653772292135e-03 0.0 
0.0 0.0 0.0 
1.269520105702e-04 5.521154171044e-04 0.0 
5.521154171044e-04 1.886575385901e-03 0.0 
0.0 0.0 0.0 
7.200422752079e-04 5.286696477462e-04 0.0 
5.286696477462e-04 3.188543270940e-03 0.0 
0.0 0.0 0.0 
5.190177946533e-04 1.203804876172e-03 0.0 
1.203804876172e-03 5.993419897612e-03 0.0 
0.0 0.0 0.0 
7.024081294443e-04 1.573506782003e-04 0.0 
1.573506782003e-04 4.626566139908e-03 0.0 
0.0 0.0 0.0 
-3.090128548377e-04 8.660094263454e-04 0.0 
8.660094263454e-04 1.217012452729e-02 0.0 
0.0 0.0 0.0 
4.701909387654e-04 3.490185465177e-04 0.0 
3.490185465177e-04 6.668439471148e-03 0.0 
0.0 0.0 0.0 
6.446814247730e-04 6.869198690542e-04 0.0 
6.869198690542e-04 6.489638516952e-03 0.0 
0.0 0.0 0.0 
-6.035837683092e-04 9.221419050541e-04 0.0 
9.221419050541e-04 1.656565619681e-03 0.0 
0.0 0.0 0.0 
-8.847280383345e-04 4.311119373470e-04 0.0 
4.311119373470e-04 9.234529414580e-03 0.0 
0.0 0.0 0.0 
4.170757667402e-04 3.163850937172e-04 0.0 
3.163850937172e-04 6.861897241738e-03 0.0 
0.0 0.0 0.0 
8.130722293187e-04 6.710600449478e-04 0.0 
6.710600449478e-04 5.179043262529e-03 0.0 
0.0 0.0 0.0 
4.350784977370e-04 1.197392846600e-03 0.0 
1.197392846600e-03 7.877390038329e-03 0.0 
0.0 0.0 0.0 
5.831949424469e-04 1.065614166653e-05 0.0 
1.065614166653e-05 4.337512709352e-03 0.0 
0.0 0.0 0.0 
-4.968715930753e-05 1.605908434182e-03 0.0 
1.605908434182e-03 1.040379421837e-02 0.0 
0.0 0.0 0.0 
-8.746319420048e-04 7.610678373781e-04 0.0 
7.610678373781e-04 8.151124299722e-03 0.0 
0.0 0.0 0.0 
3.619915875989e-04 2.794155027871e-04 0.0 
2.794155027871e-04 7.067430547954e-03 0.0 
0.0 0.0 0.0 
6.323989175265e-04 8.358682331150e-04 0.0 
8.358682331150e-04 6.729449243152e-03 0.0 
0.0 0.0 0.0 
5.329803196562e-04 1.086238890485e-03 0.0 
1.086238890485e-03 4.123678994994e-03 0.0 
0.0 0.0 0.0 
-4.714176108058e-04 4.843525595517e-06 0.0 
4.843525595517e-06 9.544397036509e-03 0.0 
0.0 0.0 0.0 
2.346046880816e-04 3.116028890294e-04 0.0 
3.116028890294e-04 7.642853947237e-03 0.0 
0.0 0.0 0.0 
5.344117551380e-04 9.091117478696e-04 0.0 
9.091117478696e-04 7.240517047077e-03 0.0 
0.0 0.0 0.0 
1.639385887590e-05 1.416059187888e-03 0.0 
1.416059187888e-03 8.071269719225e-03 0.0 
0.0 0.0 0.0 
8.338932413121e-04 5.480821900006e-04 0.0 
5.480821900006e-04 4.804250395656e-03 0.0 
0.0 0.0 0.0 
-8.507815520808e-04 3.501858362216e-04 0.0 
3.501858362216e-04 8.680169510971e-03 0.0 
0.0 0.0 0.0 
6.760656263064e-04 1.518242924983e-04 0.0 
1.518242924983e-04 4.802596911568e-03 0.0 
0.0 0.0 0.0 
-4.528818833872e-04 1.305320762043e-03 0.0 
1.305320762043e-03 9.279651574725e-03 0.0 
0.0 0.0 0.0 
-1.339897949008e-04 7.303468168899e-04 0.0 
7.303468168899e-04 1.261673199672e-02 0.0 
0.0 0.0 0.0 
4.628333683194e-04 1.016091517259e-03 0.0 
1.016091517259e-03 7.616731523414e-03 0.0 
0.0 0.0 0.0 
-7.585246899106e-04 6.420935625892e-04 0.0 
6.420935625892e-04 1.071015540305e-02 0.0 
0.0 0.0 0.0 
6.602807890732e-04 9.858051749876e-05 0.0 
9.858051749876e-05 4.543005360709e-03 0.0 
0.0 0.0 0.0 
4.129371632887e-04 1.270146105364e-03 0.0 
1.270146105364e-03 7.372763533868e-03 0.0 
0.0 0.0 0.0 
1.044930531853e-04 -7.204977167393e-05 0.0 
-7.204977167393e-05 8.768806333647e-04 0.0 
0.0 0.0 0.0 
-8.990356335581e-04 5.484731132182e-04 0.0 
5.484731132182e-04 8.732790433619e-03 0.0 
0.0 0.0 0.0 
6.380983587025e-04 9.613444133633e-05 0.0 
9.613444133633e-05 4.723055666995e-03 0.0 
0.0 0.0 0.0 
7.566486657724e-04 4.467266056033e-04 0.0 
4.467266056033e-04 3.260807116207e-03 0.0 
0.0 0.0 0.0 
8.247778643036e-04 5.032986130936e-04 0.0 
5.032986130936e-04 4.912825636722e-03 0.0 
0.0 0.0 0.0 
1.895991387468e-04 1.495261341565e-03 0.0 
1.495261341565e-03 9.202242122316e-03 0.0 
0.0 0.0 0.0 
6.154064434219e-04 9.162774504148e-05 0.0 
9.162774504148e-05 4.907068234735e-03 0.0 
0.0 0.0 0.0 
8.014791834795e-04 5.240410442859e-04 0.0 
5.240410442859e-04 3.711493216517e-03 0.0 
0.0 0.0 0.0 
5.924014844000e-04 8.398948035205e-05 0.0 
8.398948035205e-05 5.093781401411e-03 0.0 
0.0 0.0 0.0 
-8.402439745850e-04 4.728225873730e-04 0.0 
4.728225873730e-04 8.203424319659e-03 0.0 
0.0 0.0 0.0 
-7.324052831154e-04 7.620520536882e-04 0.0 
7.620520536882e-04 1.077030829884e-02 0.0 
0.0 0.0 0.0 
5.702486315724e-04 7.097555252203e-05 0.0 
7.097555252203e-05 5.281752808671e-03 0.0 
0.0 0.0 0.0 
-3.988261596610e-04 1.326983639802e-03 0.0 
1.326983639802e-03 9.608142234723e-03 0.0 
0.0 0.0 0.0 
8.420323367383e-05 -1.094965989381e-04 0.0 
-1.094965989381e-04 9.344365787339e-04 0.0 
0.0 0.0 0.0 
1.328689272741e-04 1.399046329976e-03 0.0 
1.399046329976e-03 7.963845658826e-03 0.0 
0.0 0.0 0.0 
3.532023607235e-04 9.125113989507e-05 0.0 
9.125113989507e-05 6.923320976377e-03 0.0 
0.0 0.0 0.0 
6.404776452305e-04 -2.231069854083e-05 0.0 
-2.231069854083e-05 3.033339920067e-03 0.0 
0.0 0.0 0.0 
8.084435300287e-04 4.672494968251e-04 0.0 
4.672494968251e-04 5.037805590404e-03 0.0 
0.0 0.0 0.0 
-6.465234218487e-04 8.507947941611e-04 0.0 
8.507947941611e-04 1.108618555791e-02 0.0 
0.0 0.0 0.0 
-8.132659651779e-04 6.789505074694e-04 0.0 
6.789505074694e-04 7.667824236301e-03 0.0 
0.0 0.0 0.0 
7.733123365173e-04 5.405585842086e-04 0.0 
5.405585842086e-04 5.507407090587e-03 0.0 
0.0 0.0 0.0 
-3.419932881590e-04 1.359444321109e-03 0.0 
1.359444321109e-03 9.945801676370e-03 0.0 
0.0 0.0 0.0 
2.313178846835e-04 1.373911436087e-03 0.0 
1.373911436087e-03 7.888967091184e-03 0.0 
0.0 0.0 0.0 
4.892219162288e-04 1.222606230817e-03 0.0 
1.222606230817e-03 6.452362771891e-03 0.0 
0.0 0.0 0.0 
7.196995588781e-04 6.140384079070e-04 0.0 
6.140384079070e-04 5.991572918510e-03 0.0 
0.0 0.0 0.0 
-7.648320221354e-04 1.079969622348e-03 0.0 
1.079969622348e-03 7.373260934296e-03 0.0 
0.0 0.0 0.0 
4.173545777533e-04 -1.436420801790e-04 0.0 
-1.436420801790e-04 2.178225478943e-03 0.0 
0.0 0.0 0.0 
3.118794295767e-04 -1.693185028564e-04 0.0 
-1.693185028564e-04 1.809210743316e-03 0.0 
0.0 0.0 0.0 
8.200924433922e-04 4.561781587042e-04 0.0 
4.561781587042e-04 3.796530618848e-03 0.0 
0.0 0.0 0.0 
-3.794984126850e-04 1.331699441830e-03 0.0 
1.331699441830e-03 1.035457814201e-02 0.0 
0.0 0.0 0.0 
1.676835033347e-04 -5.121998455102e-05 0.0 
-5.121998455102e-05 1.195162845986e-03 0.0 
0.0 0.0 0.0 
-6.295953843290e-04 1.003232778912e-03 0.0 
1.003232778912e-03 1.080648197799e-02 0.0 
0.0 0.0 0.0 
1.374558814350e-04 -1.906285362966e-04 0.0 
-1.906285362966e-04 1.304729611666e-03 0.0 
0.0 0.0 0.0 
7.953605251672e-04 3.222174214835e-04 0.0 
3.222174214835e-04 3.456891762782e-03 0.0 
0.0 0.0 0.0 
2.702263353611e-04 1.378643254737e-03 0.0 
1.378643254737e-03 8.311165497471e-03 0.0 
0.0 0.0 0.0 
-4.074869211308e-04 6.000720568015e-06 0.0 
6.000720568015e-06 1.066838229490e-02 0.0 
0.0 0.0 0.0 
8.014612428873e-04 2.769041661077e-04 0.0 
2.769041661077e-04 3.571411413865e-03 0.0 
0.0 0.0 0.0 
3.280626394609e-04 -1.920209619166e-05 0.0 
-1.920209619166e-05 2.031327014593e-03 0.0 
0.0 0.0 0.0 
7.570161960149e-04 1.646645262732e-04 0.0 
1.646645262732e-04 3.273247930947e-03 0.0 
0.0 0.0 0.0 
4.539401249515e-04 1.243043403788e-03 0.0 
1.243043403788e-03 6.910568101880e-03 0.0 
0.0 0.0 0.0 
7.573353066772e-04 1.398852454469e-04 0.0 
1.398852454469e-04 3.409096076911e-03 0.0 
0.0 0.0 0.0 
7.018755257048e-04 5.196949372372e-05 0.0 
5.196949372372e-05 3.140808716376e-03 0.0 
0.0 0.0 0.0 
-1.739406403895e-04 2.197450481766e-04 0.0 
2.197450481766e-04 1.246515274905e-02 0.0 
0.0 0.0 0.0 
7.007921769448e-04 4.329243837392e-05 0.0 
4.329243837392e-05 3.286834004640e-03 0.0 
0.0 0.0 0.0 
-7.150658637943e-05 6.188820863863e-05 0.0 
6.188820863863e-05 1.281716700325e-02 0.0 
0.0 0.0 0.0 
1.199512437605e-04 1.013017008046e-04 0.0 
1.013017008046e-04 8.018950171774e-03 0.0 
0.0 0.0 0.0 
-4.553148031891e-04 -3.989604342478e-07 0.0 
-3.989604342478e-07 9.858376798382e-03 0.0 
0.0 0.0 0.0 
-7.315679287857e-04 9.440427007944e-04 0.0 
9.440427007944e-04 6.949965410224e-03 0.0 
0.0 0.0 0.0 
-6.759801166108e-04 7.743130441016e-06 0.0 
7.743130441016e-06 5.859011645883e-04 0.0 
0.0 0.0 0.0 
-4.726182735191e-04 1.387375049393e-03 0.0 
1.387375049393e-03 6.053698925752e-03 0.0 
0.0 0.0 0.0 
5.662445511378e-04 -7.797815622424e-05 0.0 
-7.797815622424e-05 2.644270793439e-03 0.0 
0.0 0.0 0.0 
-5.660561800681e-04 1.154659265151e-03 0.0 
1.154659265151e-03 1.044884678218e-02 0.0 
0.0 0.0 0.0 
-4.579871870207e-04 1.204417545196e-05 0.0 
1.204417545196e-05 9.877246695705e-03 0.0 
0.0 0.0 0.0 
4.915764787627e-04 -1.180469003825e-04 0.0 
-1.180469003825e-04 2.410628773634e-03 0.0 
0.0 0.0 0.0 
-2.726669563502e-04 1.274118908121e-03 0.0 
1.274118908121e-03 1.167966398587e-02 0.0 
0.0 0.0 0.0 
1.258393953030e-05 1.700949757759e-03 0.0 
1.700949757759e-03 1.039954246944e-02 0.0 
0.0 0.0 0.0 
-3.516469790503e-04 3.959995258561e-05 0.0 
3.959995258561e-05 1.124579118483e-02 0.0 
0.0 0.0 0.0 
4.169696248727e-04 1.162628320074e-03 0.0 
1.162628320074e-03 7.922585730551e-03 0.0 
0.0 0.0 0.0 
3.089900638510e-04 1.342531586882e-03 0.0 
1.342531586882e-03 7.853845998868e-03 0.0 
0.0 0.0 0.0 
-2.115900628541e-04 2.846184944291e-05 0.0 
2.846184944291e-05 1.214953901407e-02 0.0 
0.0 0.0 0.0 
-5.080937314725e-04 6.339580068195e-06 0.0 
6.339580068195e-06 9.530392192191e-03 0.0 
0.0 0.0 0.0 
-1.558393527485e-04 -1.431743932546e-04 0.0 
-1.431743932546e-04 6.263094955679e-04 0.0 
0.0 0.0 0.0 
5.182707328846e-04 3.098719355418e-05 0.0 
3.098719355418e-05 5.714848720577e-03 0.0 
0.0 0.0 0.0 
-6.647547006351e-04 1.231175469659e-03 0.0 
1.231175469659e-03 5.583435854892e-03 0.0 
0.0 0.0 0.0 
-3.055066246131e-04 1.327331567101e-03 0.0 
1.327331567101e-03 4.562446055549e-03 0.0 
0.0 0.0 0.0 
-2.557626208044e-04 1.149995361816e-03 0.0 
1.149995361816e-03 3.241287146492e-03 0.0 
0.0 0.0 0.0 
4.162835684775e-04 -4.973375516759e-05 0.0 
-4.973375516759e-05 2.537208929889e-03 0.0 
0.0 0.0 0.0 
-7.489023087705e-05 -1.808323833825e-04 0.0 
-1.808323833825e-04 9.540071061705e-04 0.0 
0.0 0.0 0.0 
-5.961730759126e-04 1.247792428959e-03 0.0 
1.247792428959e-03 4.254269777721e-03 0.0 
0.0 0.0 0.0 
2.447516635871e-04 1.324842382829e-03 0.0 
1.324842382829e-03 8.757032568623e-03 0.0 
0.0 0.0 0.0 
-5.885680765806e-04 7.555885834143e-05 0.0 
7.555885834143e-05 9.928806054378e-03 0.0 
0.0 0.0 0.0 
1.780147405615e-04 1.432708930403e-03 0.0 
1.432708930403e-03 8.757133379718e-03 0.0 
0.0 0.0 0.0 
-6.040050504652e-04 1.151017286039e-03 0.0 
1.151017286039e-03 2.914279630041e-03 0.0 
0.0 0.0 0.0 
-2.519259149311e-04 5.778499936827e-04 0.0 
5.778499936827e-04 1.239018728559e-02 0.0 
0.0 0.0 0.0 
9.792247266351e-05 1.578322116735e-03 0.0 
1.578322116735e-03 9.668198796314e-03 0.0 
0.0 0.0 0.0 
1.289343326476e-04 5.874947953552e-04 0.0 
5.874947953552e-04 8.252123661056e-03 0.0 
0.0 0.0 0.0 
1.458343969834e-04 1.489416314068e-03 0.0 
1.489416314068e-03 9.189760691995e-03 0.0 
0.0 0.0 0.0 
-2.795621170068e-04 8.665916151470e-04 0.0 
8.665916151470e-04 2.052221111829e-03 0.0 
0.0 0.0 0.0 
-7.119644240572e-04 2.426006866203e-04 0.0 
2.426006866203e-04 1.026200067177e-02 0.0 
0.0 0.0 0.0 
-1.417770214433e-04 1.548156028044e-03 0.0 
1.548156028044e-03 1.088442363627e-02 0.0 
0.0 0.0 0.0 
-3.200939069771e-04 7.040443701934e-05 0.0 
7.040443701934e-05 1.155279980730e-02 0.0 
0.0 0.0 0.0 
1.198189574001e-04 4.708834409793e-04 0.0 
4.708834409793e-04 8.204596551189e-03 0.0 
0.0 0.0 0.0 
-6.508501595327e-04 1.179582267094e-04 0.0 
1.179582267094e-04 9.887146009278e-03 0.0 
0.0 0.0 0.0 
-1.442545406756e-04 1.446892013619e-04 0.0 
1.446892013619e-04 1.251995562149e-02 0.0 
0.0 0.0 0.0 
2.037317130513e-04 -4.667822136783e-05 0.0 
-4.667822136783e-05 1.427849735245e-03 0.0 
0.0 0.0 0.0 
-1.344936000000e-04 7.588868454853e-05 0.0 
7.588868454853e-05 1.252763522230e-02 0.0 
0.0 0.0 0.0 
-4.776961828838e-04 1.218349246120e-03 0.0 
1.218349246120e-03 1.076053644399e-02 0.0 
0.0 0.0 0.0 
-4.586513286975e-04 5.392924492105e-05 0.0 
5.392924492105e-05 1.039010587356e-02 0.0 
0.0 0.0 0.0 
-7.852122186937e-04 3.534217043560e-04 0.0 
3.534217043560e-04 1.020409442305e-02 0.0 
0.0 0.0 0.0 
1.965397936509e-04 1.564715866038e-04 0.0 
1.564715866038e-04 7.687911070184e-03 0.0 
0.0 0.0 0.0 
-2.994561280477e-04 1.086593642553e-03 0.0 
1.086593642553e-03 1.196703156595e-02 0.0 
0.0 0.0 0.0 
-3.014851411422e-04 6.632753695035e-04 0.0 
6.632753695035e-04 1.495406271897e-03 0.0 
0.0 0.0 0.0 
-3.622746993609e-04 6.638814201986e-05 0.0 
6.638814201986e-05 1.122596663517e-02 0.0 
0.0 0.0 0.0 
5.231863498454e-04 -3.826861235615e-05 0.0 
-3.826861235615e-05 3.202440015852e-03 0.0 
0.0 0.0 0.0 
-3.735662575129e-04 -8.958516562505e-05 0.0 
-8.958516562505e-05 7.221676545843e-04 0.0 
0.0 0.0 0.0 
2.639858383061e-04 6.960104754475e-04 0.0 
6.960104754475e-04 7.892784595913e-03 0.0 
0.0 0.0 0.0 
-3.801637045588e-04 1.282678300353e-03 0.0 
1.282678300353e-03 1.105943872376e-02 0.0 
0.0 0.0 0.0 
2.082420918236e-04 2.633106090357e-04 0.0 
2.633106090357e-04 7.681787214449e-03 0.0 
0.0 0.0 0.0 
1.115846809592e-04 -1.487352690132e-05 0.0 
-1.487352690132e-05 8.623122225021e-04 0.0 
0.0 0.0 0.0 
-1.006997833687e-04 -1.166177200154e-04 0.0 
-1.166177200154e-04 5.630339434262e-04 0.0 
0.0 0.0 0.0 
2.573148700822e-04 8.565471803347e-04 0.0 
8.565471803347e-04 8.114461750904e-03 0.0 
0.0 0.0 0.0 
-2.153469371066e-04 1.433323662189e-03 0.0 
1.433323662189e-03 1.137684751818e-02 0.0 
0.0 0.0 0.0 
2.661651184849e-04 -7.219674634519e-05 0.0 
-7.219674634519e-05 1.587159840450e-03 0.0 
0.0 0.0 0.0 
-9.926807024809e-05 4.991186806750e-04 0.0 
4.991186806750e-04 1.277742778572e-02 0.0 
0.0 0.0 0.0 
-4.405024035703e-04 4.757434235283e-04 0.0 
4.757434235283e-04 9.942702685787e-04 0.0 
0.0 0.0 0.0 
-5.410863330759e-04 2.227408209108e-05 0.0 
2.227408209108e-05 9.497887635220e-03 0.0 
0.0 0.0 0.0 
-1.264711829822e-05 -8.617176470660e-05 0.0 
-8.617176470660e-05 5.510101360900e-04 0.0 
0.0 0.0 0.0 
1.130250941517e-04 3.449692327098e-04 0.0 
3.449692327098e-04 8.150885136657e-03 0.0 
0.0 0.0 0.0 
-1.880507547611e-04 3.660790515385e-04 0.0 
3.660790515385e-04 1.250503534623e-02 0.0 
0.0 0.0 0.0 
5.470530462638e-04 -8.442220565018e-06 0.0 
-8.442220565018e-06 3.552772716479e-03 0.0 
0.0 0.0 0.0 
-7.742842055108e-04 2.128677080461e-04 0.0 
2.128677080461e-04 9.601317400705e-03 0.0 
0.0 0.0 0.0 
3.711312588111e-04 -3.559734335237e-05 0.0 
-3.559734335237e-05 2.289420639370e-03 0.0 
0.0 0.0 0.0 
-3.119833201848e-05 1.560486828734e-03 0.0 
1.560486828734e-03 9.996668539858e-03 0.0 
0.0 0.0 0.0 
-6.062258590460e-05 -1.758019579174e-04 0.0 
-1.758019579174e-04 8.718821111009e-04 0.0 
0.0 0.0 0.0 
-1.599478271238e-04 2.628765270542e-04 0.0 
2.628765270542e-04 1.255635499834e-02 0.0 
0.0 0.0 0.0 
2.535614951068e-04 1.025781179372e-03 0.0 
1.025781179372e-03 8.330714019686e-03 0.0 
0.0 0.0 0.0 
-2.616504477786e-04 8.091883945114e-04 0.0 
8.091883945114e-04 1.232025122837e-02 0.0 
0.0 0.0 0.0 
8.320459247324e-05 1.569007483739e-03 0.0 
1.569007483739e-03 9.640784623882e-03 0.0 
0.0 0.0 0.0 
-4.043426242857e-04 1.144948232228e-04 0.0 
1.144948232228e-04 7.770662283629e-04 0.0 
0.0 0.0 0.0 
4.335200592651e-05 1.626072760594e-03 0.0 
1.626072760594e-03 9.997169273058e-03 0.0 
0.0 0.0 0.0 
3.703439999670e-04 1.090586739886e-03 0.0 
1.090586739886e-03 8.041746496843e-03 0.0 
0.0 0.0 0.0 
-4.907782294516e-04 1.540535264233e-05 0.0 
1.540535264233e-05 9.519632275796e-03 0.0 
0.0 0.0 0.0 
-2.875182030453e-04 9.605371094350e-04 0.0 
9.605371094350e-04 1.213431993842e-02 0.0 
0.0 0.0 0.0 
4.634418521534e-04 -3.525738172890e-05 0.0 
-3.525738172890e-05 2.847609936646e-03 0.0 
0.0 0.0 0.0 
1.504845692491e-04 -1.110657066732e-04 0.0 
-1.110657066732e-04 1.185159134446e-03 0.0 
0.0 0.0 0.0 
-5.678674897591e-05 2.777403135476e-05 0.0 
2.777403135476e-05 1.285724716339e-02 0.0 
0.0 0.0 0.0 
1.033452854782e-05 -5.819360901863e-06 0.0 
-5.819360901863e-06 1.863499625526e-04 0.0 
0.0 0.0 0.0 
-4.665474259854e-04 -2.537442971773e-06 0.0 
-2.537442971773e-06 9.482125749041e-03 0.0 
0.0 0.0 0.0 
9.080474642311e-05 5.379637446344e-05 0.0 
5.379637446344e-05 8.124030327910e-03 0.0 
0.0 0.0 0.0 
1.560799137918e-04 -6.700868065075e-05 0.0 
-6.700868065075e-05 1.121614566215e-03 0.0 
0.0 0.0 0.0 
-4.431059230117e-04 1.031261655871e-05 0.0 
1.031261655871e-05 1.016254769475e-02 0.0 
0.0 0.0 0.0 
-2.335270330155e-04 1.363736096563e-03 0.0 
1.363736096563e-03 1.156848554227e-02 0.0 
0.0 0.0 0.0 
5.756405573724e-04 7.277113214434e-06 0.0 
7.277113214434e-06 4.449410257689e-03 0.0 
0.0 0.0 0.0 
-2.489947179314e-04 4.375402569108e-05 0.0 
4.375402569108e-05 1.193447459531e-02 0.0 
0.0 0.0 0.0 
6.006143812247e-05 -1.773337879105e-04 0.0 
-1.773337879105e-04 1.179948198489e-03 0.0 
0.0 0.0 0.0 
-6.976687317414e-04 -4.809638919287e-05 0.0 
-4.809638919287e-05 5.191452133924e-04 0.0 
0.0 0.0 0.0 
-3.905754321960e-04 2.227336078258e-05 0.0 
2.227336078258e-05 1.088052568359e-02 0.0 
0.0 0.0 0.0 
1.271268115813e-04 1.565173642370e-03 0.0 
1.565173642370e-03 9.536379248676e-03 0.0 
0.0 0.0 0.0 
-2.328164360906e-04 6.534105957924e-04 0.0 
6.534105957924e-04 1.244261986207e-02 0.0 
0.0 0.0 0.0 
-4.359574579579e-04 5.670220983600e-05 0.0 
5.670220983600e-05 1.060935656225e-02 0.0 
0.0 0.0 0.0 
-7.690855883546e-05 5.212561590007e-04 0.0 
5.212561590007e-04 1.604962301680e-03 0.0 
0.0 0.0 0.0 
-2.976267231105e-04 1.349240514103e-03 0.0 
1.349240514103e-03 1.129535174489e-02 0.0 
0.0 0.0 0.0 
5.734201117013e-04 -2.336409896649e-06 0.0 
-2.336409896649e-06 3.860681881883e-03 0.0 
0.0 0.0 0.0 
-1.609548347839e-04 1.521919688295e-03 0.0 
1.521919688295e-03 1.053034312533e-02 0.0 
0.0 0.0 0.0 
3.278107857668e-04 1.229915093345e-03 0.0 
1.229915093345e-03 8.343027844294e-03 0.0 
0.0 0.0 0.0 
-6.287081302927e-04 5.251371795170e-04 0.0 
5.251371795170e-04 6.819512541298e-04 0.0 
0.0 0.0 0.0 
5.716931701382e-04 1.260782439903e-05 0.0 
1.260782439903e-05 4.826994361499e-03 0.0 
0.0 0.0 0.0 
-6.234847733086e-05 -9.396983956219e-05 0.0 
-9.396983956219e-05 5.283740578867e-04 0.0 
0.0 0.0 0.0 
2.134119381119e-04 5.132309987345e-04 0.0 
5.132309987345e-04 7.889241167376e-03 0.0 
0.0 0.0 0.0 
5.736656344523e-04 1.113683384410e-06 0.0 
1.113683384410e-06 4.041560441165e-03 0.0 
0.0 0.0 0.0 
-3.913888920682e-04 2.138391169437e-04 0.0 
2.138391169437e-04 7.203212818703e-03 0.0 
0.0 0.0 0.0 
-5.097074258162e-04 6.533039032309e-06 0.0 
6.533039032309e-06 7.256755663043e-03 0.0 
0.0 0.0 0.0 
-5.475615355684e-04 2.214115627885e-04 0.0 
2.214115627885e-04 7.620117859234e-03 0.0 
0.0 0.0 0.0 
-4.791157478459e-04 -4.209907078923e-06 0.0 
-4.209907078923e-06 7.694222958911e-03 0.0 
0.0 0.0 0.0 
-6.536282428087e-04 1.763641560259e-04 0.0 
1.763641560259e-04 8.078988265743e-03 0.0 
0.0 0.0 0.0 
-4.733730437361e-04 -4.788728905075e-06 0.0 
-4.788728905075e-06 8.098108606162e-03 0.0 
0.0 0.0 0.0 
-7.169667670411e-04 1.407826164953e-04 0.0 
1.407826164953e-04 8.534298807616e-03 0.0 
0.0 0.0 0.0 
-4.727442491724e-04 -2.502344360769e-06 0.0 
-2.502344360769e-06 8.552165072986e-03 0.0 
0.0 0.0 0.0 
-7.396992752870e-04 1.284615351581e-04 0.0 
1.284615351581e-04 8.975613470274e-03 0.0 
0.0 0.0 0.0 
-4.749183924334e-04 4.103274566006e-06 0.0 
4.103274566006e-06 8.956522897443e-03 0.0 
0.0 0.0 0.0 

TENSORS node_materi_strain_plasti float
-1.741775845211e-05 -2.168405097446e-06 0.0 
-2.168405097446e-06 1.395813736689e-04 0.0 
0.0 0.0 -3.282868849617e-05 
-7.193710724364e-04 -1.122442495584e-04 0.0 
-1.122442495584e-04 4.531072016065e-03 0.0 
0.0 0.0 -6.959116756397e-04 
-1.326721611229e-03 9.743109485019e-05 0.0 
9.743109485019e-05 8.921087027136e-03 0.0 
0.0 0.0 -1.332621093165e-03 
-1.328526300077e-03 -9.718698781147e-05 0.0 
-9.718698781147e-05 8.927311597372e-03 0.0 
0.0 0.0 -1.332621093165e-03 
-8.193859278094e-05 3.577520009453e-05 0.0 
3.577520009453e-05 3.368763971302e-04 0.0 
0.0 0.0 -8.453455331316e-05 
-1.695924659271e-04 1.267609683743e-04 0.0 
1.267609683743e-04 8.452299049113e-04 0.0 
0.0 0.0 -1.619080202416e-04 
-2.296336673595e-04 1.041833740939e-04 0.0 
1.041833740939e-04 1.224476071287e-03 0.0 
0.0 0.0 -2.266090766362e-04 
-2.971855348456e-04 9.450166671955e-05 0.0 
9.450166671955e-05 1.745895085854e-03 0.0 
0.0 0.0 -2.937643997455e-04 
-3.715291688780e-04 6.977872566520e-05 0.0 
6.977872566520e-05 2.214517262813e-03 0.0 
0.0 0.0 -3.610469555860e-04 
-4.249688263073e-04 6.584730845625e-05 0.0 
6.584730845625e-05 2.664484643095e-03 0.0 
0.0 0.0 -4.277228197774e-04 
-4.875317281638e-04 7.284843635977e-05 0.0 
7.284843635977e-05 3.123402469253e-03 0.0 
0.0 0.0 -4.940119848999e-04 
-5.560650258811e-04 6.506894170195e-05 0.0 
6.506894170195e-05 3.586726731214e-03 0.0 
0.0 0.0 -5.601824523721e-04 
-6.219544696599e-04 6.499150418632e-05 0.0 
6.499150418632e-05 4.044891981262e-03 0.0 
0.0 0.0 -6.267196139102e-04 
-6.989301157160e-04 8.304445482453e-05 0.0 
8.304445482453e-05 4.516508974108e-03 0.0 
0.0 0.0 -6.936951881209e-04 
-7.842461813792e-04 1.250766207627e-04 0.0 
1.250766207627e-04 5.027932232893e-03 0.0 
0.0 0.0 -7.607197531558e-04 
-8.342478146059e-04 1.327780010266e-04 0.0 
1.327780010266e-04 5.490101288131e-03 0.0 
0.0 0.0 -8.270758575053e-04 
-8.797786789152e-04 1.730981527131e-04 0.0 
1.730981527131e-04 5.870913224211e-03 0.0 
0.0 0.0 -8.903361771248e-04 
-9.530636179412e-04 6.774981962024e-05 0.0 
6.774981962024e-05 6.360455625450e-03 0.0 
0.0 0.0 -9.558084330571e-04 
-1.021468397639e-03 6.438406854748e-05 0.0 
6.438406854748e-05 6.838909130196e-03 0.0 
0.0 0.0 -1.024523475697e-03 
-1.087303877607e-03 6.616077821805e-05 0.0 
6.616077821805e-05 7.302617105742e-03 0.0 
0.0 0.0 -1.091244731156e-03 
-1.157611465321e-03 6.099216604961e-05 0.0 
6.099216604961e-05 7.775325521779e-03 0.0 
0.0 0.0 -1.158330123333e-03 
-1.229956863987e-03 7.577779225234e-05 0.0 
7.577779225234e-05 8.251739665694e-03 0.0 
0.0 0.0 -1.226073836101e-03 
-1.285597262298e-03 9.777469733004e-05 0.0 
9.777469733004e-05 8.717344745921e-03 0.0 
0.0 0.0 -1.289832767750e-03 
-1.328056332164e-03 -6.444803612929e-06 0.0 
-6.444803612929e-06 8.942057407760e-03 0.0 
0.0 0.0 -1.336902025401e-03 
-1.335490548137e-03 -3.051268407678e-06 0.0 
-3.051268407678e-06 8.928554519845e-03 0.0 
0.0 0.0 -1.332945767435e-03 
-1.336130347494e-03 -6.396074884476e-05 0.0 
-6.396074884476e-05 8.918857970665e-03 0.0 
0.0 0.0 -1.334903170087e-03 
-1.339230604727e-03 3.012709249351e-05 0.0 
3.012709249351e-05 8.923856553285e-03 0.0 
0.0 0.0 -1.334459899807e-03 
-1.337146058389e-03 -8.398799894874e-06 0.0 
-8.398799894874e-06 8.911324906834e-03 0.0 
0.0 0.0 -1.332067731643e-03 
-1.335355832928e-03 1.075181302724e-06 0.0 
1.075181302724e-06 8.911332561918e-03 0.0 
0.0 0.0 -1.335050935171e-03 
-1.325449513940e-03 2.957247517956e-06 0.0 
2.957247517956e-06 8.920139941522e-03 0.0 
0.0 0.0 -1.335055123498e-03 
-1.337345353037e-03 -9.523690686198e-06 0.0 
-9.523690686198e-06 8.921732771433e-03 0.0 
0.0 0.0 -1.333530254363e-03 
-1.334717977068e-03 -4.294761687245e-05 0.0 
-4.294761687245e-05 8.930458145260e-03 0.0 
0.0 0.0 -1.336259905589e-03 
-1.337792100019e-03 2.741258004611e-05 0.0 
2.741258004611e-05 8.934606220421e-03 0.0 
0.0 0.0 -1.335712483792e-03 
-1.336136187727e-03 -6.884802183741e-06 0.0 
-6.884802183741e-06 8.921957108707e-03 0.0 
0.0 0.0 -1.333313947604e-03 
-1.338126723765e-03 -4.814512478212e-06 0.0 
-4.814512478212e-06 8.924502617003e-03 0.0 
0.0 0.0 -1.335862559377e-03 
-1.327324523368e-03 -1.060172701918e-07 0.0 
-1.060172701918e-07 8.942333996565e-03 0.0 
0.0 0.0 -1.336097458551e-03 
-1.338609928482e-03 -2.842890241029e-06 0.0 
-2.842890241029e-06 8.932107808072e-03 0.0 
0.0 0.0 -1.335235043394e-03 
-1.329400644355e-03 -1.048596426291e-05 0.0 
-1.048596426291e-05 8.921074213048e-03 0.0 
0.0 0.0 -1.334297546486e-03 
-1.338340837827e-03 9.966400157381e-06 0.0 
9.966400157381e-06 8.903421378777e-03 0.0 
0.0 0.0 -1.332308435384e-03 
-1.339067962771e-03 -2.558483156548e-06 0.0 
-2.558483156548e-06 8.895896267544e-03 0.0 
0.0 0.0 -1.332019584455e-03 
-1.327125647707e-03 1.639257363248e-06 0.0 
1.639257363248e-06 8.917700513123e-03 0.0 
0.0 0.0 -1.333392124151e-03 
-1.334568721853e-03 -4.268105943785e-06 0.0 
-4.268105943785e-06 8.928545997729e-03 0.0 
0.0 0.0 -1.334727449481e-03 
-1.336827804858e-03 -5.001027102512e-06 0.0 
-5.001027102512e-06 8.928021219148e-03 0.0 
0.0 0.0 -1.336576889699e-03 
-1.337235537648e-03 1.693416763899e-05 0.0 
1.693416763899e-05 8.930023700079e-03 0.0 
0.0 0.0 -1.335888391555e-03 
-1.331872643832e-03 -1.070662442944e-06 0.0 
-1.070662442944e-06 8.931108733201e-03 0.0 
0.0 0.0 -1.334783226448e-03 
-1.335383687196e-03 3.225376233218e-06 0.0 
3.225376233218e-06 8.925108831379e-03 0.0 
0.0 0.0 -1.335053869153e-03 
-1.335647092676e-03 -1.629379981326e-06 0.0 
-1.629379981326e-06 8.920485307702e-03 0.0 
0.0 0.0 -1.334960189349e-03 
-1.336340449165e-03 -1.285585314755e-06 0.0 
-1.285585314755e-06 8.933772799625e-03 0.0 
0.0 0.0 -1.334889991128e-03 
-1.330589077276e-03 -4.874946038578e-06 0.0 
-4.874946038578e-06 8.935469598915e-03 0.0 
0.0 0.0 -1.335774086633e-03 
-1.341165284707e-03 -5.814943729686e-06 0.0 
-5.814943729686e-06 8.933862901487e-03 0.0 
0.0 0.0 -1.336605656894e-03 
-1.330240946256e-03 -4.520075279768e-06 0.0 
-4.520075279768e-06 8.938118272604e-03 0.0 
0.0 0.0 -1.336508443943e-03 
-1.338673330008e-03 -5.862543655719e-06 0.0 
-5.862543655719e-06 8.942517447788e-03 0.0 
0.0 0.0 -1.335343284290e-03 
-1.336600650314e-03 -3.582742261962e-05 0.0 
-3.582742261962e-05 8.951381047284e-03 0.0 
0.0 0.0 -1.337998490269e-03 
-1.341076503417e-03 3.451828262941e-05 0.0 
3.451828262941e-05 8.946627943271e-03 0.0 
0.0 0.0 -1.337247094005e-03 
-1.334448453648e-03 1.095281049644e-05 0.0 
1.095281049644e-05 8.923080866366e-03 0.0 
0.0 0.0 -1.333783489999e-03 
-1.333263826439e-03 -4.659210696345e-08 0.0 
-4.659210696345e-08 8.908320836892e-03 0.0 
0.0 0.0 -1.334548731617e-03 
-1.334150017560e-03 -8.272198035470e-06 0.0 
-8.272198035470e-06 8.929832025163e-03 0.0 
0.0 0.0 -1.334619746794e-03 
-1.331619300726e-03 -1.909948370258e-06 0.0 
-1.909948370258e-06 8.928586538444e-03 0.0 
0.0 0.0 -1.335242115105e-03 
-1.340870630612e-03 -1.061733168398e-05 0.0 
-1.061733168398e-05 8.926675419192e-03 0.0 
0.0 0.0 -1.335691437541e-03 
-1.329659514104e-03 -2.082049369196e-06 0.0 
-2.082049369196e-06 8.934711562866e-03 0.0 
0.0 0.0 -1.335646478247e-03 
-1.339117702311e-03 -4.029677061322e-07 0.0 
-4.029677061322e-07 8.924836081587e-03 0.0 
0.0 0.0 -1.334931242407e-03 
-1.328302087749e-03 -6.726834891335e-06 0.0 
-6.726834891335e-06 8.915098302923e-03 0.0 
0.0 0.0 -1.334100791702e-03 
-1.338339244626e-03 1.868410609640e-06 0.0 
1.868410609640e-06 8.913909047127e-03 0.0 
0.0 0.0 -1.332237298415e-03 
-1.340573467967e-03 -1.512560094744e-05 0.0 
-1.512560094744e-05 8.916790452845e-03 0.0 
0.0 0.0 -1.333749945600e-03 
-1.332872318884e-03 1.070088453614e-05 0.0 
1.070088453614e-05 8.939654193892e-03 0.0 
0.0 0.0 -1.336652505695e-03 
-1.326343527950e-03 -1.064817557574e-05 0.0 
-1.064817557574e-05 8.953327537606e-03 0.0 
0.0 0.0 -1.337094627689e-03 
-1.334975160234e-03 -1.103658676067e-05 0.0 
-1.103658676067e-05 8.887287544370e-03 0.0 
0.0 0.0 -1.328990728106e-03 
-1.326727222271e-03 3.789706117049e-06 0.0 
3.789706117049e-06 8.937395178325e-03 0.0 
0.0 0.0 -1.335900064369e-03 
-1.338702731113e-03 6.248103656252e-07 0.0 
6.248103656252e-07 8.926718973225e-03 0.0 
0.0 0.0 -1.332523500780e-03 
-1.338833780446e-03 -4.056504769856e-05 0.0 
-4.056504769856e-05 8.921997078910e-03 0.0 
0.0 0.0 -1.335219049675e-03 
-1.336003357241e-03 1.668194413568e-05 0.0 
1.668194413568e-05 8.951047853454e-03 0.0 
0.0 0.0 -1.336566422126e-03 
-1.338588357839e-03 -8.318316932400e-07 0.0 
-8.318316932400e-07 8.955066587464e-03 0.0 
0.0 0.0 -1.335855682064e-03 
-7.644479361830e-04 -7.854511718928e-05 0.0 
-7.854511718928e-05 4.967324475694e-03 0.0 
0.0 0.0 -7.648954205800e-04 
-8.429692067441e-04 -8.894340543493e-05 0.0 
-8.894340543493e-05 5.465473064469e-03 0.0 
0.0 0.0 -8.298981322982e-04 
-9.045101262401e-04 -8.649802336555e-05 0.0 
-8.649802336555e-05 5.927599153875e-03 0.0 
0.0 0.0 -8.959277352460e-04 
-9.682355907570e-04 -9.235019684030e-05 0.0 
-9.235019684030e-05 6.375436758553e-03 0.0 
0.0 0.0 -9.610467530554e-04 
-1.034301386645e-03 -8.131875668407e-05 0.0 
-8.131875668407e-05 6.841207604472e-03 0.0 
0.0 0.0 -1.026987810050e-03 
-1.084652817885e-03 -8.917462571015e-05 0.0 
-8.917462571015e-05 7.307643626561e-03 0.0 
0.0 0.0 -1.092790196867e-03 
-1.153469442186e-03 -7.930470280165e-05 0.0 
-7.930470280165e-05 7.768901773096e-03 0.0 
0.0 0.0 -1.158290425478e-03 
-1.218602686822e-03 -9.135197616384e-05 0.0 
-9.135197616384e-05 8.209166370611e-03 0.0 
0.0 0.0 -1.224481705251e-03 
-1.280117147855e-03 -1.008986322443e-04 0.0 
-1.008986322443e-04 8.709401710635e-03 0.0 
0.0 0.0 -1.288782062784e-03 
-1.752208263143e-05 3.240785673633e-05 0.0 
3.240785673633e-05 1.037696529891e-04 0.0 
0.0 0.0 -2.939528373048e-05 
-6.988773385000e-04 -6.414203901489e-06 0.0 
-6.414203901489e-06 4.541118799231e-03 0.0 
0.0 0.0 -6.945495707198e-04 
-1.068839245990e-04 4.195670543775e-05 0.0 
4.195670543775e-05 4.592598232630e-04 0.0 
0.0 0.0 -1.088012745759e-04 
-1.837805977244e-04 6.636119579700e-05 0.0 
6.636119579700e-05 9.280212819520e-04 0.0 
0.0 0.0 -1.795578361538e-04 
-2.541701604253e-04 6.773423425557e-05 0.0 
6.773423425557e-05 1.406381745625e-03 0.0 
0.0 0.0 -2.466011808795e-04 
-3.308726835263e-04 6.738605727004e-05 0.0 
6.738605727004e-05 1.832720200710e-03 0.0 
0.0 0.0 -3.108790080757e-04 
-3.779091195443e-04 5.643499307442e-05 0.0 
5.643499307442e-05 2.305161362540e-03 0.0 
0.0 0.0 -3.761379623603e-04 
-4.034182833337e-04 -4.200861776735e-06 0.0 
-4.200861776735e-06 2.629562399744e-03 0.0 
0.0 0.0 -4.246591878591e-04 
-4.761223259385e-04 6.452176696026e-07 0.0 
6.452176696026e-07 3.097474449594e-03 0.0 
0.0 0.0 -4.913636896408e-04 
-5.446829016033e-04 3.333337451639e-07 0.0 
3.333337451639e-07 3.565252150871e-03 0.0 
0.0 0.0 -5.580753662734e-04 
-6.120040484324e-04 -3.148004277915e-06 0.0 
-3.148004277915e-06 4.032884488981e-03 0.0 
0.0 0.0 -6.248674136757e-04 
-4.123543274994e-04 -1.655111018644e-04 0.0 
-1.655111018644e-04 2.415471889671e-03 0.0 
0.0 0.0 -3.822222222222e-04 
-4.304425780171e-04 -2.046254239306e-04 0.0 
-2.046254239306e-04 2.664768429398e-03 0.0 
0.0 0.0 -4.266666666667e-04 
-4.966420638955e-04 -1.663109596127e-04 0.0 
-1.663109596127e-04 3.128374407042e-03 0.0 
0.0 0.0 -4.933333333333e-04 
-5.622839918589e-04 -2.001712001392e-04 0.0 
-2.001712001392e-04 3.590232611973e-03 0.0 
0.0 0.0 -5.600000000000e-04 
-6.246804992584e-04 -1.417515320002e-04 0.0 
-1.417515320002e-04 4.042867570769e-03 0.0 
0.0 0.0 -6.266666666667e-04 
-6.913130996727e-04 5.498609571768e-05 0.0 
5.498609571768e-05 4.454824349021e-03 0.0 
0.0 0.0 -6.874962403976e-04 
-6.868874145389e-04 4.265374631682e-06 0.0 
4.265374631682e-06 4.486723904769e-03 0.0 
0.0 0.0 -6.910932206029e-04 
-6.934978988667e-04 4.367505525820e-06 0.0 
4.367505525820e-06 4.491335876748e-03 0.0 
0.0 0.0 -6.911911970487e-04 
-6.907997940409e-04 -7.067285999291e-06 0.0 
-7.067285999291e-06 4.485601554890e-03 0.0 
0.0 0.0 -6.903356507966e-04 
-6.907918205776e-04 4.658551261964e-06 0.0 
4.658551261964e-06 4.562156077984e-03 0.0 
0.0 0.0 -6.980756478071e-04 
-6.892878188424e-04 5.414637571099e-06 0.0 
5.414637571099e-06 4.494915586897e-03 0.0 
0.0 0.0 -6.911448554634e-04 
-6.797647522222e-04 -6.151835168632e-06 0.0 
-6.151835168632e-06 4.487621365133e-03 0.0 
0.0 0.0 -6.903833977050e-04 
-6.832908759363e-04 1.181523808990e-05 0.0 
1.181523808990e-05 4.498914041665e-03 0.0 
0.0 0.0 -6.905588330458e-04 
-6.949806625349e-04 2.423611152395e-06 0.0 
2.423611152395e-06 4.508372842652e-03 0.0 
0.0 0.0 -6.922444453805e-04 
-6.970682970385e-04 1.264857313784e-05 0.0 
1.264857313784e-05 4.510203072304e-03 0.0 
0.0 0.0 -6.916098530255e-04 
-6.888508586807e-04 7.096050778982e-06 0.0 
7.096050778982e-06 4.506612582973e-03 0.0 
0.0 0.0 -6.911665914957e-04 
-6.923116819991e-04 3.442306794673e-06 0.0 
3.442306794673e-06 4.500662587744e-03 0.0 
0.0 0.0 -6.911615840689e-04 
-6.874005628903e-04 1.547082050469e-05 0.0 
1.547082050469e-05 4.496710901947e-03 0.0 
0.0 0.0 -6.914992001314e-04 
-6.904170598993e-04 2.109837221789e-05 0.0 
2.109837221789e-05 4.507680445908e-03 0.0 
0.0 0.0 -6.922481495424e-04 
-2.592440264170e-05 -1.590076434165e-05 0.0 
-1.590076434165e-05 1.361807839619e-04 0.0 
0.0 0.0 -2.981554499673e-05 
-3.446067835921e-05 -4.722769694990e-06 0.0 
-4.722769694990e-06 1.514232641041e-04 0.0 
0.0 0.0 -3.001360406192e-05 
-1.576164107189e-05 6.855840384388e-06 0.0 
6.855840384388e-06 1.420727738414e-04 0.0 
0.0 0.0 -2.891678940537e-05 
-1.058332407340e-05 -2.088674468891e-05 0.0 
-2.088674468891e-05 1.367187831328e-04 0.0 
0.0 0.0 -2.889836327124e-05 
-3.364373544555e-05 -3.089965635258e-05 0.0 
-3.089965635258e-05 1.595260388365e-04 0.0 
0.0 0.0 -3.040745255895e-05 
-4.176671741931e-05 -6.138377296778e-06 0.0 
-6.138377296778e-06 1.798263625009e-04 0.0 
0.0 0.0 -3.068777868300e-05 
-3.824342451581e-05 5.591674158897e-07 0.0 
5.591674158897e-07 1.791426173783e-04 0.0 
0.0 0.0 -3.058835961954e-05 
-3.226360630243e-05 -1.341036859017e-06 0.0 
-1.341036859017e-06 1.722310666212e-04 0.0 
0.0 0.0 -3.053879953887e-05 
-3.075195274388e-05 -3.753502375186e-06 0.0 
-3.753502375186e-06 1.736984769830e-04 0.0 
0.0 0.0 -3.044251428418e-05 
-2.638860610343e-05 -7.894449171806e-06 0.0 
-7.894449171806e-06 1.709687444738e-04 0.0 
0.0 0.0 -3.048531495051e-05 
-2.681419529694e-05 -1.626482453990e-05 0.0 
-1.626482453990e-05 1.776638784057e-04 0.0 
0.0 0.0 -3.060061046523e-05 
-4.178895109071e-05 4.651397470156e-06 0.0 
4.651397470156e-06 1.936858804511e-04 0.0 
0.0 0.0 -3.133350520012e-05 
-3.584663091299e-05 2.920944978626e-05 0.0 
2.920944978626e-05 1.814285478668e-04 0.0 
0.0 0.0 -3.101487170496e-05 
-1.892508329030e-05 9.286208390834e-06 0.0 
9.286208390834e-06 1.578481945027e-04 0.0 
0.0 0.0 -3.010388419214e-05 
-2.660519595212e-05 -4.398298942812e-06 0.0 
-4.398298942812e-06 1.591906609278e-04 0.0 
0.0 0.0 -3.041972112533e-05 
-4.134075465171e-05 1.617060886410e-06 0.0 
1.617060886410e-06 1.756452327158e-04 0.0 
0.0 0.0 -3.060566238437e-05 
-4.636580504523e-05 5.643116689733e-06 0.0 
5.643116689733e-06 1.798643178415e-04 0.0 
0.0 0.0 -3.058114983003e-05 
-3.066571027210e-05 2.752472550755e-05 0.0 
2.752472550755e-05 1.500341931887e-04 0.0 
0.0 0.0 -3.041506914824e-05 
-1.475246436935e-05 4.693943976226e-06 0.0 
4.693943976226e-06 1.322021267255e-04 0.0 
0.0 0.0 -2.944997384815e-05 
-3.086737559139e-04 1.824945698421e-05 0.0 
1.824945698421e-05 2.288568038967e-03 0.0 
0.0 0.0 -3.735650202110e-04 
-3.748024024906e-04 -2.235383045031e-05 0.0 
-2.235383045031e-05 2.464316447346e-03 0.0 
0.0 0.0 -3.868404318249e-04 
-3.809209289213e-04 2.095935478028e-05 0.0 
2.095935478028e-05 2.489945112447e-03 0.0 
0.0 0.0 -3.896296296296e-04 
-3.961885383449e-04 -3.157391764324e-06 0.0 
-3.157391764324e-06 2.486170094999e-03 0.0 
0.0 0.0 -3.896296296296e-04 
-3.922857039092e-04 7.149376339684e-06 0.0 
7.149376339684e-06 2.490647689043e-03 0.0 
0.0 0.0 -3.896296296296e-04 
-3.952714720565e-04 3.550933967119e-06 0.0 
3.550933967119e-06 2.488055979507e-03 0.0 
0.0 0.0 -3.896296296296e-04 
-3.932298655887e-04 6.280159092519e-06 0.0 
6.280159092519e-06 2.487930533394e-03 0.0 
0.0 0.0 -3.896296296296e-04 
-3.929392504541e-04 4.257947525426e-06 0.0 
4.257947525426e-06 2.486185214772e-03 0.0 
0.0 0.0 -3.896296296296e-04 
-3.921334708080e-04 2.073928253912e-06 0.0 
2.073928253912e-06 2.485828364242e-03 0.0 
0.0 0.0 -3.896296296296e-04 
-3.926532248077e-04 -7.259188671702e-07 0.0 
-7.259188671702e-07 2.486285282346e-03 0.0 
0.0 0.0 -3.896296296296e-04 
-3.929675444581e-04 -1.821948455967e-06 0.0 
-1.821948455967e-06 2.487081791559e-03 0.0 
0.0 0.0 -3.896296296296e-04 
-3.928911677807e-04 -2.401435709440e-06 0.0 
-2.401435709440e-06 2.487371242379e-03 0.0 
0.0 0.0 -3.896296296296e-04 
-3.926706231967e-04 -3.042680106472e-06 0.0 
-3.042680106472e-06 2.487527464117e-03 0.0 
0.0 0.0 -3.896296296296e-04 
-3.925173753718e-04 -3.512734330002e-06 0.0 
-3.512734330002e-06 2.487675088085e-03 0.0 
0.0 0.0 -3.896296296296e-04 
-3.923459291749e-04 -3.573968114921e-06 0.0 
-3.573968114921e-06 2.487672428302e-03 0.0 
0.0 0.0 -3.896296296296e-04 
-3.919059089244e-04 -3.070470649277e-06 0.0 
-3.070470649277e-06 2.487311751662e-03 0.0 
0.0 0.0 -3.896296296296e-04 
-3.911919699833e-04 -2.565126102516e-06 0.0 
-2.565126102516e-06 2.486606253154e-03 0.0 
0.0 0.0 -3.896296296296e-04 
-3.905551956890e-04 -2.225789958983e-06 0.0 
-2.225789958983e-06 2.485958895747e-03 0.0 
0.0 0.0 -3.896296296296e-04 
-3.902081729475e-04 -2.103318434599e-06 0.0 
-2.103318434599e-06 2.485636920543e-03 0.0 
0.0 0.0 -3.896296296296e-04 
-3.905571194995e-04 -2.812915426974e-06 0.0 
-2.812915426974e-06 2.483890479082e-03 0.0 
0.0 0.0 -3.896296296296e-04 
-3.918945146163e-04 -8.874350133334e-06 0.0 
-8.874350133334e-06 2.439030578698e-03 0.0 
0.0 0.0 -3.896296296296e-04 
-3.685677964255e-04 1.070921797182e-04 0.0 
1.070921797182e-04 2.368698213185e-03 0.0 
0.0 0.0 -3.822222222222e-04 
-4.299402721252e-04 7.347302390729e-05 0.0 
7.347302390729e-05 2.663982272910e-03 0.0 
0.0 0.0 -4.266666666667e-04 
-4.281937864377e-04 1.451679010037e-05 0.0 
1.451679010037e-05 2.661695578936e-03 0.0 
0.0 0.0 -4.266666666667e-04 
-4.272255423018e-04 -2.022714610518e-06 0.0 
-2.022714610518e-06 2.660645160847e-03 0.0 
0.0 0.0 -4.266666666667e-04 
-4.272027915601e-04 -2.022654054574e-06 0.0 
-2.022654054574e-06 2.660662658724e-03 0.0 
0.0 0.0 -4.266666666667e-04 
-4.275839105045e-04 -1.776178353133e-06 0.0 
-1.776178353133e-06 2.661218520015e-03 0.0 
0.0 0.0 -4.266666666667e-04 
-4.282801255787e-04 -1.791669274238e-06 0.0 
-1.791669274238e-06 2.662030669155e-03 0.0 
0.0 0.0 -4.266666666667e-04 
-4.290001024384e-04 -2.498947391547e-06 0.0 
-2.498947391547e-06 2.662671095001e-03 0.0 
0.0 0.0 -4.266666666667e-04 
-4.292899889364e-04 -3.096368850653e-06 0.0 
-3.096368850653e-06 2.662653268105e-03 0.0 
0.0 0.0 -4.266666666667e-04 
-4.293129381118e-04 -2.811819826603e-06 0.0 
-2.811819826603e-06 2.662413292682e-03 0.0 
0.0 0.0 -4.266666666667e-04 
-4.297697120825e-04 -2.022907387796e-06 0.0 
-2.022907387796e-06 2.662395731629e-03 0.0 
0.0 0.0 -4.266666666667e-04 
-4.302589968875e-04 -1.629717038830e-06 0.0 
-1.629717038830e-06 2.662394761870e-03 0.0 
0.0 0.0 -4.266666666667e-04 
-4.302560929618e-04 -1.576122482616e-06 0.0 
-1.576122482616e-06 2.661898826988e-03 0.0 
0.0 0.0 -4.266666666667e-04 
-4.295703799059e-04 -3.345604087401e-07 0.0 
-3.345604087401e-07 2.660486684286e-03 0.0 
0.0 0.0 -4.266666666667e-04 
-4.292671254285e-04 3.968937228656e-06 0.0 
3.968937228656e-06 2.660659650919e-03 0.0 
0.0 0.0 -4.266666666667e-04 
-4.306471619154e-04 5.513996825783e-06 0.0 
5.513996825783e-06 2.661538482777e-03 0.0 
0.0 0.0 -4.266666666667e-04 
-4.319020466915e-04 7.766791381144e-06 0.0 
7.766791381144e-06 2.665023339729e-03 0.0 
0.0 0.0 -4.266666666667e-04 
-4.328473215748e-04 8.154616711558e-07 0.0 
8.154616711558e-07 2.662572037119e-03 0.0 
0.0 0.0 -4.266666666667e-04 
-4.258499713217e-04 1.095715842585e-05 0.0 
1.095715842585e-05 2.664926400988e-03 0.0 
0.0 0.0 -4.266666666667e-04 
-4.219848975642e-04 -8.971773474757e-06 0.0 
-8.971773474757e-06 2.691197449249e-03 0.0 
0.0 0.0 -4.293391642371e-04 
-3.746379728484e-04 4.166569321960e-06 0.0 
4.166569321960e-06 2.570236127040e-03 0.0 
0.0 0.0 -4.186734693878e-04 
-4.417760951276e-04 9.193159012092e-06 0.0 
9.193159012092e-06 3.032321566953e-03 0.0 
0.0 0.0 -4.852947845805e-04 
-4.904405177129e-04 -1.236587849357e-05 0.0 
-1.236587849357e-05 3.156055993877e-03 0.0 
0.0 0.0 -4.959669582118e-04 
-4.967982216663e-04 1.212517501771e-05 0.0 
1.212517501771e-05 3.134098180657e-03 0.0 
0.0 0.0 -4.933333333333e-04 
-5.004792842088e-04 7.599146367907e-06 0.0 
7.599146367907e-06 3.126678995157e-03 0.0 
0.0 0.0 -4.933333333333e-04 
-4.960205318575e-04 8.775115201624e-06 0.0 
8.775115201624e-06 3.126031319544e-03 0.0 
0.0 0.0 -4.933333333333e-04 
-4.965309946115e-04 8.850955263351e-07 0.0 
8.850955263351e-07 3.123763413131e-03 0.0 
0.0 0.0 -4.933333333333e-04 
-4.975874164433e-04 -1.339673929123e-06 0.0 
-1.339673929123e-06 3.126915566987e-03 0.0 
0.0 0.0 -4.933333333333e-04 
-4.976423867723e-04 -5.110045370488e-07 0.0 
-5.110045370488e-07 3.127848901976e-03 0.0 
0.0 0.0 -4.933333333333e-04 
-4.971264610240e-04 4.324488759023e-07 0.0 
4.324488759023e-07 3.127700753298e-03 0.0 
0.0 0.0 -4.933333333333e-04 
-4.956643920610e-04 -1.986474812227e-07 0.0 
-1.986474812227e-07 3.126840649999e-03 0.0 
0.0 0.0 -4.933333333333e-04 
-4.952008726881e-04 -2.496870911332e-06 0.0 
-2.496870911332e-06 3.127189740971e-03 0.0 
0.0 0.0 -4.933333333333e-04 
-4.957950968528e-04 -2.119478958632e-06 0.0 
-2.119478958632e-06 3.128109892710e-03 0.0 
0.0 0.0 -4.933333333333e-04 
-4.947282309581e-04 -5.907354459501e-07 0.0 
-5.907354459501e-07 3.127398294072e-03 0.0 
0.0 0.0 -4.933333333333e-04 
-4.939115212163e-04 -6.664772443831e-07 0.0 
-6.664772443831e-07 3.126242560420e-03 0.0 
0.0 0.0 -4.933333333333e-04 
-4.934010452772e-04 -1.579724324278e-06 0.0 
-1.579724324278e-06 3.125563968915e-03 0.0 
0.0 0.0 -4.933333333333e-04 
-4.934695658846e-04 -2.572403036742e-06 0.0 
-2.572403036742e-06 3.125197225552e-03 0.0 
0.0 0.0 -4.933333333333e-04 
-4.937822211755e-04 -5.749801901612e-06 0.0 
-5.749801901612e-06 3.125650090747e-03 0.0 
0.0 0.0 -4.933333333333e-04 
-4.958153218285e-04 -1.294595170899e-05 0.0 
-1.294595170899e-05 3.127747100962e-03 0.0 
0.0 0.0 -4.933333333333e-04 
-4.967157033350e-04 1.051029907090e-04 0.0 
1.051029907090e-04 3.128775367421e-03 0.0 
0.0 0.0 -4.933333333333e-04 
-5.657042211010e-04 7.172061321592e-05 0.0 
7.172061321592e-05 3.594572891729e-03 0.0 
0.0 0.0 -5.600000000000e-04 
-5.606564277312e-04 6.276433509236e-06 0.0 
6.276433509236e-06 3.589330402058e-03 0.0 
0.0 0.0 -5.600000000000e-04 
-5.593036989964e-04 -4.014653548583e-06 0.0 
-4.014653548583e-06 3.587906727700e-03 0.0 
0.0 0.0 -5.600000000000e-04 
-5.598957549005e-04 -3.280148762673e-06 0.0 
-3.280148762673e-06 3.589229298695e-03 0.0 
0.0 0.0 -5.600000000000e-04 
-5.585733264525e-04 -8.759229213482e-07 0.0 
-8.759229213482e-07 3.588940559384e-03 0.0 
0.0 0.0 -5.600000000000e-04 
-5.598002868747e-04 8.805971940143e-07 0.0 
8.805971940143e-07 3.590399635312e-03 0.0 
0.0 0.0 -5.600000000000e-04 
-5.606115027376e-04 2.079665756902e-06 0.0 
2.079665756902e-06 3.592266060973e-03 0.0 
0.0 0.0 -5.600000000000e-04 
-5.616801369451e-04 -2.737332668778e-06 0.0 
-2.737332668778e-06 3.592113678054e-03 0.0 
0.0 0.0 -5.600000000000e-04 
-5.603339834742e-04 8.452896903076e-07 0.0 
8.452896903076e-07 3.589104110669e-03 0.0 
0.0 0.0 -5.600000000000e-04 
-5.630816852247e-04 4.954130230059e-06 0.0 
4.954130230059e-06 3.591539403390e-03 0.0 
0.0 0.0 -5.600000000000e-04 
-5.648651149249e-04 2.409580910900e-06 0.0 
2.409580910900e-06 3.593050534195e-03 0.0 
0.0 0.0 -5.600000000000e-04 
-5.645521133457e-04 1.176363961052e-06 0.0 
1.176363961052e-06 3.591815920478e-03 0.0 
0.0 0.0 -5.600000000000e-04 
-5.658777849897e-04 2.204939376018e-07 0.0 
2.204939376018e-07 3.591458064609e-03 0.0 
0.0 0.0 -5.600000000000e-04 
-5.646691075266e-04 1.488981984672e-06 0.0 
1.488981984672e-06 3.584085442749e-03 0.0 
0.0 0.0 -5.600000000000e-04 
-5.620855148441e-04 2.241238949414e-05 0.0 
2.241238949414e-05 3.592013185388e-03 0.0 
0.0 0.0 -5.600000000000e-04 
-5.610961373633e-04 -4.661019393758e-06 0.0 
-4.661019393758e-06 3.625654344184e-03 0.0 
0.0 0.0 -5.626724975705e-04 
-5.133198511328e-04 5.424589988168e-06 0.0 
5.424589988168e-06 3.504617598641e-03 0.0 
0.0 0.0 -5.520068027211e-04 
-5.819676487162e-04 1.621050128568e-05 0.0 
1.621050128568e-05 3.968047816962e-03 0.0 
0.0 0.0 -6.186195084094e-04 
-6.343601883411e-04 -2.324978129448e-06 0.0 
-2.324978129448e-06 4.083322615344e-03 0.0 
0.0 0.0 -6.292929119699e-04 
-6.353679309005e-04 1.165699384264e-05 0.0 
1.165699384264e-05 4.057988551565e-03 0.0 
0.0 0.0 -6.266666666667e-04 
-6.295881338101e-04 1.024053571249e-05 0.0 
1.024053571249e-05 4.054182088558e-03 0.0 
0.0 0.0 -6.266666666667e-04 
-6.303664344858e-04 2.787103354708e-06 0.0 
2.787103354708e-06 4.057331405365e-03 0.0 
0.0 0.0 -6.266666666667e-04 
-6.305754933791e-04 7.671505889705e-06 0.0 
7.671505889705e-06 4.059447051202e-03 0.0 
0.0 0.0 -6.266666666667e-04 
-6.287463439774e-04 1.022004490747e-05 0.0 
1.022004490747e-05 4.054187203252e-03 0.0 
0.0 0.0 -6.266666666667e-04 
-6.280820473115e-04 -9.030982197010e-07 0.0 
-9.030982197010e-07 4.053941923266e-03 0.0 
0.0 0.0 -6.266666666667e-04 
-6.225272954156e-04 4.628296295670e-06 0.0 
4.628296295670e-06 4.057329077379e-03 0.0 
0.0 0.0 -6.266666666667e-04 
-6.249534833788e-04 2.617162153450e-07 0.0 
2.617162153450e-07 4.054948637219e-03 0.0 
0.0 0.0 -6.266666666667e-04 
-6.238122874529e-04 2.229418647929e-06 0.0 
2.229418647929e-06 4.053346801204e-03 0.0 
0.0 0.0 -6.266666666667e-04 
-6.234471408791e-04 -7.779197921569e-06 0.0 
-7.779197921569e-06 4.052220848929e-03 0.0 
0.0 0.0 -6.266666666667e-04 
-6.264844917596e-04 -3.145348628054e-06 0.0 
-3.145348628054e-06 4.054722692316e-03 0.0 
0.0 0.0 -6.266666666667e-04 
-6.251160575234e-04 -9.858748010009e-06 0.0 
-9.858748010009e-06 4.049423160403e-03 0.0 
0.0 0.0 -6.266666666667e-04 
-6.286316808084e-04 -3.394218781005e-05 0.0 
-3.394218781005e-05 4.059813257993e-03 0.0 
0.0 0.0 -6.266666666667e-04 
-6.381641142781e-04 1.124153375325e-04 0.0 
1.124153375325e-04 4.068774124134e-03 0.0 
0.0 0.0 -6.266666666667e-04 
-6.112648154111e-05 2.057582376640e-05 0.0 
2.057582376640e-05 2.373049901765e-04 0.0 
0.0 0.0 -7.119425116788e-05 
-1.546216371726e-04 6.400049167789e-05 0.0 
6.400049167789e-05 7.010998205819e-04 0.0 
0.0 0.0 -1.457676002711e-04 
-2.180259668060e-04 8.313364542166e-05 0.0 
8.313364542166e-05 1.168903010383e-03 0.0 
0.0 0.0 -2.130143027807e-04 
-2.888761379291e-04 8.199755792821e-05 0.0 
8.199755792821e-05 1.646730006386e-03 0.0 
0.0 0.0 -2.801731950103e-04 
-3.556189171031e-04 3.435503475525e-05 0.0 
3.435503475525e-05 2.100711759407e-03 0.0 
0.0 0.0 -3.440931072323e-04 
-3.554966514658e-04 3.194346604781e-05 0.0 
3.194346604781e-05 2.438311747236e-03 0.0 
0.0 0.0 -3.977576770754e-04 
-4.339038949759e-04 2.050581845431e-05 0.0 
2.050581845431e-05 2.896351248714e-03 0.0 
0.0 0.0 -4.650267612653e-04 
-4.998008163795e-04 2.874356037189e-05 0.0 
2.874356037189e-05 3.362017349155e-03 0.0 
0.0 0.0 -5.317697887215e-04 
-5.672864552025e-04 2.278912112814e-05 0.0 
2.278912112814e-05 3.826790215475e-03 0.0 
0.0 0.0 -5.985602557689e-04 
-6.332370943918e-04 2.492629895563e-05 0.0 
2.492629895563e-05 4.302559779817e-03 0.0 
0.0 0.0 -6.652967104836e-04 
-1.935964666812e-04 2.967460992316e-06 0.0 
2.967460992316e-06 9.892888486110e-04 0.0 
0.0 0.0 -1.870278901045e-04 
-1.298255034363e-03 -1.439677610187e-05 0.0 
-1.439677610187e-05 8.770849623045e-03 0.0 
0.0 0.0 -1.303388942653e-03 
-5.711706292193e-05 -1.132529147633e-05 0.0 
-1.132529147633e-05 2.965576224762e-04 0.0 
0.0 0.0 -5.718844814378e-05 
-5.424579011881e-05 -2.911933097958e-05 0.0 
-2.911933097958e-05 2.725297638317e-04 0.0 
0.0 0.0 -5.560925106410e-05 
-1.303094143304e-03 2.083700262783e-05 0.0 
2.083700262783e-05 8.775603321897e-03 0.0 
0.0 0.0 -1.303360877099e-03 
-3.337502689384e-04 2.573658945227e-05 0.0 
2.573658945227e-05 1.945399262405e-03 0.0 
0.0 0.0 -3.213286234882e-04 
-7.420382513691e-04 -8.331648497424e-06 0.0 
-8.331648497424e-06 4.783425200817e-03 0.0 
0.0 0.0 -7.300567563597e-04 
-1.300502925116e-03 1.312346542057e-05 0.0 
1.312346542057e-05 8.760360600138e-03 0.0 
0.0 0.0 -1.300998267065e-03 
-4.558051091763e-04 -3.180946065212e-05 0.0 
-3.180946065212e-05 2.815581106164e-03 0.0 
0.0 0.0 -4.497936382440e-04 
-1.301730818783e-03 3.906861163014e-06 0.0 
3.906861163014e-06 8.781071212001e-03 0.0 
0.0 0.0 -1.304014651794e-03 
-5.931132187703e-04 3.451249603952e-06 0.0 
3.451249603952e-06 3.770920661498e-03 0.0 
0.0 0.0 -5.857980290939e-04 
-1.294626432424e-03 1.231524946250e-05 0.0 
1.231524946250e-05 8.803233335001e-03 0.0 
0.0 0.0 -1.307658508868e-03 
-5.100449476858e-05 8.243347627931e-06 0.0 
8.243347627931e-06 2.661035943334e-04 0.0 
0.0 0.0 -5.457498774670e-05 
-1.304712708061e-03 6.002193481849e-06 0.0 
6.002193481849e-06 8.782841008775e-03 0.0 
0.0 0.0 -1.304481600125e-03 
-7.263025570845e-04 1.579439830825e-05 0.0 
1.579439830825e-05 4.732739805173e-03 0.0 
0.0 0.0 -7.203075318094e-04 
-4.572752679378e-04 6.754709539216e-06 0.0 
6.754709539216e-06 2.913924238746e-03 0.0 
0.0 0.0 -4.640473930190e-04 
-9.144584483086e-04 1.326427603790e-05 0.0 
1.326427603790e-05 6.048992087784e-03 0.0 
0.0 0.0 -9.125512086551e-04 
-1.295486455605e-03 -9.635721854317e-06 0.0 
-9.635721854317e-06 8.767400550756e-03 0.0 
0.0 0.0 -1.301280071178e-03 
-1.304620553661e-03 1.736330334082e-05 0.0 
1.736330334082e-05 8.785218481020e-03 0.0 
0.0 0.0 -1.304294760550e-03 
-1.308798115864e-03 -1.758872586472e-05 0.0 
-1.758872586472e-05 8.782113468746e-03 0.0 
0.0 0.0 -1.303238611779e-03 
-1.297364651419e-03 1.079949245934e-05 0.0 
1.079949245934e-05 8.741492182535e-03 0.0 
0.0 0.0 -1.297727402575e-03 
-1.310467176952e-03 -2.184753791196e-05 0.0 
-2.184753791196e-05 8.795852425490e-03 0.0 
0.0 0.0 -1.305306183856e-03 
-7.504043158260e-04 1.146340899483e-05 0.0 
1.146340899483e-05 4.928957716144e-03 0.0 
0.0 0.0 -7.522011426764e-04 
-7.523353912946e-04 1.162137769546e-05 0.0 
1.162137769546e-05 4.926512636401e-03 0.0 
0.0 0.0 -7.529849494387e-04 
-7.546537283985e-04 -1.241349829200e-05 0.0 
-1.241349829200e-05 4.950472109635e-03 0.0 
0.0 0.0 -7.580270452736e-04 
-9.976077557880e-04 -3.465320003220e-05 0.0 
-3.465320003220e-05 6.602229680106e-03 0.0 
0.0 0.0 -9.950081682429e-04 
-1.300592036334e-03 -1.108396441711e-05 0.0 
-1.108396441711e-05 8.788475349475e-03 0.0 
0.0 0.0 -1.302874185639e-03 
-4.947082956208e-05 -1.829296119630e-05 0.0 
-1.829296119630e-05 2.690780974868e-04 0.0 
0.0 0.0 -5.461765089469e-05 
-6.582489508630e-05 5.524694071905e-06 0.0 
5.524694071905e-06 3.064286723342e-04 0.0 
0.0 0.0 -5.841730026856e-05 
-1.120911548220e-03 -1.158571369125e-06 0.0 
-1.158571369125e-06 7.515613535503e-03 0.0 
0.0 0.0 -1.122886395833e-03 
-7.582082522979e-04 1.961281355476e-05 0.0 
1.961281355476e-05 4.902933380827e-03 0.0 
0.0 0.0 -7.500338828344e-04 
-2.694321437334e-04 2.278372598534e-06 0.0 
2.278372598534e-06 1.494554554088e-03 0.0 
0.0 0.0 -2.594501920933e-04 
-1.298427704971e-03 5.282056354333e-06 0.0 
5.282056354333e-06 8.696713485831e-03 0.0 
0.0 0.0 -1.293200138473e-03 
-1.306703206650e-03 1.354031549595e-05 0.0 
1.354031549595e-05 8.802982423650e-03 0.0 
0.0 0.0 -1.307307853467e-03 
-1.306558631645e-03 5.032010017838e-06 0.0 
5.032010017838e-06 8.775985095811e-03 0.0 
0.0 0.0 -1.304733450272e-03 
-1.299335994773e-03 1.249139207268e-05 0.0 
1.249139207268e-05 8.749655727550e-03 0.0 
0.0 0.0 -1.297928233296e-03 
-1.308929768589e-03 -1.641174944338e-05 0.0 
-1.641174944338e-05 8.785621003878e-03 0.0 
0.0 0.0 -1.305578568836e-03 
-6.266603041308e-05 2.501207789151e-06 0.0 
2.501207789151e-06 3.071735198218e-04 0.0 
0.0 0.0 -5.851952868526e-05 
-7.474245186294e-04 1.424161896037e-05 0.0 
1.424161896037e-05 4.916877911110e-03 0.0 
0.0 0.0 -7.500980793755e-04 
-1.296702677324e-03 1.017615489427e-05 0.0 
1.017615489427e-05 8.704965271547e-03 0.0 
0.0 0.0 -1.293180865222e-03 
-1.128899365850e-03 -3.031105506872e-05 0.0 
-3.031105506872e-05 7.537413441575e-03 0.0 
0.0 0.0 -1.123598490052e-03 
-5.732050020511e-05 -1.482205262677e-05 0.0 
-1.482205262677e-05 2.925850224953e-04 0.0 
0.0 0.0 -5.798785095132e-05 
-5.914251289981e-04 -6.471482804739e-06 0.0 
-6.471482804739e-06 3.820964198355e-03 0.0 
0.0 0.0 -5.937437734062e-04 
-1.319868342544e-03 -1.044247080556e-05 0.0 
-1.044247080556e-05 8.859569502417e-03 0.0 
0.0 0.0 -1.311981303940e-03 
-4.039407312574e-04 -1.513566039237e-05 0.0 
-1.513566039237e-05 2.425755132442e-03 0.0 
0.0 0.0 -3.897472533596e-04 
-2.622920170020e-04 7.443498411069e-06 0.0 
7.443498411069e-06 1.467365751784e-03 0.0 
0.0 0.0 -2.548795656134e-04 
-5.270389969687e-04 -7.501595445452e-06 0.0 
-7.501595445452e-06 3.294996993381e-03 0.0 
0.0 0.0 -5.178568985205e-04 
-6.568994839779e-04 -7.061170510265e-06 0.0 
-7.061170510265e-06 4.237934581571e-03 0.0 
0.0 0.0 -6.527703211191e-04 
-1.172487669235e-04 -1.455488225111e-05 0.0 
-1.455488225111e-05 4.809709659116e-04 0.0 
0.0 0.0 -1.118557093815e-04 
-8.696005125465e-04 -8.177489350787e-06 0.0 
-8.177489350787e-06 5.725890687358e-03 0.0 
0.0 0.0 -8.684787984471e-04 
-1.317974587429e-03 -1.269961975259e-05 0.0 
-1.269961975259e-05 8.865515668911e-03 0.0 
0.0 0.0 -1.313906642692e-03 
-5.185989643578e-05 2.926503183834e-05 0.0 
2.926503183834e-05 2.746618289318e-04 0.0 
0.0 0.0 -5.836448670120e-05 
-1.244012605559e-03 -1.337379541831e-07 0.0 
-1.337379541831e-07 8.417025004517e-03 0.0 
0.0 0.0 -1.253930875827e-03 
-7.490231005429e-04 1.074391793060e-05 0.0 
1.074391793060e-05 4.928373640173e-03 0.0 
0.0 0.0 -7.532271817479e-04 
-7.806985373677e-04 4.966139412122e-06 0.0 
4.966139412122e-06 5.109831204569e-03 0.0 
0.0 0.0 -7.809350190597e-04 
-8.062001814621e-04 2.173167671068e-05 0.0 
2.173167671068e-05 5.343609321704e-03 0.0 
0.0 0.0 -8.115578932774e-04 
-8.489268176994e-04 -8.110940848539e-06 0.0 
-8.110940848539e-06 5.566485028911e-03 0.0 
0.0 0.0 -8.428390908522e-04 
-8.804673106023e-04 1.251244415454e-07 0.0 
1.251244415454e-07 5.795279077470e-03 0.0 
0.0 0.0 -8.784658474099e-04 
-9.121627378671e-04 -7.430796722992e-06 0.0 
-7.430796722992e-06 6.000836909727e-03 0.0 
0.0 0.0 -9.060409163497e-04 
-8.756777626728e-04 -7.143189004675e-06 0.0 
-7.143189004675e-06 5.761383353658e-03 0.0 
0.0 0.0 -8.711257577414e-04 
-9.375016757267e-04 -9.018261483619e-06 0.0 
-9.018261483619e-06 6.200512371454e-03 0.0 
0.0 0.0 -9.341442283280e-04 
-9.034456709669e-04 -5.627619604456e-06 0.0 
-5.627619604456e-06 5.955351813444e-03 0.0 
0.0 0.0 -8.989774131092e-04 
-9.375397006910e-04 -9.487100187186e-06 0.0 
-9.487100187186e-06 6.248793060300e-03 0.0 
0.0 0.0 -9.415083590319e-04 
-9.651447206159e-04 -1.078565163385e-05 0.0 
-1.078565163385e-05 6.396664073004e-03 0.0 
0.0 0.0 -9.622976032585e-04 
-9.304266532056e-04 -6.330576673761e-06 0.0 
-6.330576673761e-06 6.148924780633e-03 0.0 
0.0 0.0 -9.268639294333e-04 
-9.923459703203e-04 -8.832674575488e-06 0.0 
-8.832674575488e-06 6.591396283471e-03 0.0 
0.0 0.0 -9.903372159162e-04 
-9.579486406670e-04 -6.976346530304e-06 0.0 
-6.976346530304e-06 6.343540435811e-03 0.0 
0.0 0.0 -9.547708836903e-04 
-8.957338589247e-04 -3.445195682093e-06 0.0 
-3.445195682093e-06 5.904490313780e-03 0.0 
0.0 0.0 -8.916807130883e-04 
-9.234034349690e-04 -3.140263271690e-06 0.0 
-3.140263271690e-06 6.097553141781e-03 0.0 
0.0 0.0 -9.194532194038e-04 
-8.597658352201e-04 -5.745984387997e-07 0.0 
-5.745984387997e-07 5.659471370407e-03 0.0 
0.0 0.0 -8.565021464485e-04 
-8.876676417698e-04 -1.521204235315e-06 0.0 
-1.521204235315e-06 5.852313305850e-03 0.0 
0.0 0.0 -8.841639842141e-04 
-9.508204613182e-04 -2.297031587626e-06 0.0 
-2.297031587626e-06 6.292146332209e-03 0.0 
0.0 0.0 -9.471984275390e-04 
-9.148993498349e-04 -3.275082318903e-06 0.0 
-3.275082318903e-06 6.045345094116e-03 0.0 
0.0 0.0 -9.118195294070e-04 
-8.520584533063e-04 -1.219021611571e-06 0.0 
-1.219021611571e-06 5.605756351829e-03 0.0 
0.0 0.0 -8.488396520500e-04 
-8.789321886970e-04 -2.050593653236e-06 0.0 
-2.050593653236e-06 5.797286878756e-03 0.0 
0.0 0.0 -8.764089341820e-04 
-8.161164546335e-04 3.435109532195e-07 0.0 
3.435109532195e-07 5.359457664966e-03 0.0 
0.0 0.0 -8.135623229517e-04 
-8.427829602136e-04 -1.073992276181e-06 0.0 
-1.073992276181e-06 5.550412011619e-03 0.0 
0.0 0.0 -8.410744910442e-04 
-7.803403629458e-04 1.482617336376e-07 0.0 
1.482617336376e-07 5.112144953619e-03 0.0 
0.0 0.0 -7.781617608290e-04 
-8.069161494671e-04 -9.832122125782e-07 0.0 
-9.832122125782e-07 5.303670065228e-03 0.0 
0.0 0.0 -8.056965831182e-04 
-8.693622760752e-04 -2.102828341541e-06 0.0 
-2.102828341541e-06 5.742393281941e-03 0.0 
0.0 0.0 -8.686949506212e-04 
-8.339431778097e-04 -6.526060624204e-07 0.0 
-6.526060624204e-07 5.495228078517e-03 0.0 
0.0 0.0 -8.332427817419e-04 
-7.711323033224e-04 2.736293388884e-07 0.0 
2.736293388884e-07 5.056666474078e-03 0.0 
0.0 0.0 -7.703313069557e-04 
-7.984646574761e-04 4.457733912405e-07 0.0 
4.457733912405e-07 5.248286890054e-03 0.0 
0.0 0.0 -7.977945042040e-04 
-7.355637814562e-04 1.290713586090e-06 0.0 
1.290713586090e-06 4.810484252267e-03 0.0 
0.0 0.0 -7.349073124327e-04 
-7.625544307914e-04 1.894462684329e-06 0.0 
1.894462684329e-06 4.999988831075e-03 0.0 
0.0 0.0 -7.622392297106e-04 
-8.257237067376e-04 1.120212681242e-06 0.0 
1.120212681242e-06 5.439584299338e-03 0.0 
0.0 0.0 -8.253152238873e-04 
-7.900934727742e-04 5.597935307226e-07 0.0 
5.597935307226e-07 5.191568262959e-03 0.0 
0.0 0.0 -7.896995018144e-04 
-7.266613947029e-04 4.187926819445e-07 0.0 
4.187926819445e-07 4.748654817893e-03 0.0 
0.0 0.0 -7.264132926704e-04 
-7.549260771137e-04 -7.052768559295e-07 0.0 
-7.052768559295e-07 4.942867002026e-03 0.0 
0.0 0.0 -7.539848323805e-04 
-6.914939078145e-04 -3.149044509630e-06 0.0 
-3.149044509630e-06 4.497991263930e-03 0.0 
0.0 0.0 -6.903858661722e-04 
-7.195945743336e-04 -6.350033753655e-09 0.0 
-6.350033753655e-09 4.694794432778e-03 0.0 
0.0 0.0 -7.182351804274e-04 
-6.554914090724e-04 -2.338725356747e-06 0.0 
-2.338725356747e-06 4.247612436471e-03 0.0 
0.0 0.0 -6.542402593883e-04 
-6.835277346369e-04 5.013350338703e-07 0.0 
5.013350338703e-07 4.443250069824e-03 0.0 
0.0 0.0 -6.821763112594e-04 
-7.475539329935e-04 -2.134179080386e-07 0.0 
-2.134179080386e-07 4.889262543532e-03 0.0 
0.0 0.0 -7.460902125261e-04 
-7.115638396740e-04 -9.716415016319e-07 0.0 
-9.716415016319e-07 4.638756710994e-03 0.0 
0.0 0.0 -7.100832486075e-04 
-6.472258987921e-04 -7.491708784538e-07 0.0 
-7.491708784538e-07 4.191362599469e-03 0.0 
0.0 0.0 -6.458624074531e-04 
-6.748538623222e-04 -1.344545062167e-06 0.0 
-1.344545062167e-06 4.385359401490e-03 0.0 
0.0 0.0 -6.737786430284e-04 
-7.391037565522e-04 -1.870094726724e-06 0.0 
-1.870094726724e-06 4.833803711944e-03 0.0 
0.0 0.0 -7.381473126730e-04 
-7.024920060125e-04 -1.771787760386e-06 0.0 
-1.771787760386e-06 4.579736205562e-03 0.0 
0.0 0.0 -7.017500108595e-04 
-7.668451599419e-04 -2.200372036207e-06 0.0 
-2.200372036207e-06 5.029184891420e-03 0.0 
0.0 0.0 -7.662494016216e-04 
-7.304037803269e-04 -1.328124908122e-06 0.0 
-1.328124908122e-06 4.775158829539e-03 0.0 
0.0 0.0 -7.297828278826e-04 
-6.661738894366e-04 -1.523527640984e-06 0.0 
-1.523527640984e-06 4.327585164653e-03 0.0 
0.0 0.0 -6.655364893108e-04 
-6.940255140087e-04 -3.189861404592e-07 0.0 
-3.189861404592e-07 4.522445273198e-03 0.0 
0.0 0.0 -6.934067383651e-04 
-7.582740677644e-04 -6.702170425948e-07 0.0 
-6.702170425948e-07 4.970550121083e-03 0.0 
0.0 0.0 -7.577868799165e-04 
-7.219132454206e-04 -3.552688473153e-07 0.0 
-3.552688473153e-07 4.715591284682e-03 0.0 
0.0 0.0 -7.212202614536e-04 
-6.579749567302e-04 -8.528343255419e-07 0.0 
-8.528343255419e-07 4.269380617602e-03 0.0 
0.0 0.0 -6.571136838490e-04 
-6.854396942303e-04 1.404532946379e-06 0.0 
1.404532946379e-06 4.463099019341e-03 0.0 
0.0 0.0 -6.848379476561e-04 
-7.499209568980e-04 9.788669448940e-07 0.0 
9.788669448940e-07 4.910836491420e-03 0.0 
0.0 0.0 -7.491645792950e-04 
-7.130866886284e-04 2.531462605068e-06 0.0 
2.531462605068e-06 4.656380230421e-03 0.0 
0.0 0.0 -7.127097857715e-04 
-6.490463142765e-04 2.026928070045e-06 0.0 
2.026928070045e-06 4.209801950481e-03 0.0 
0.0 0.0 -6.486049398320e-04 
-6.764658608434e-04 3.508718195961e-06 0.0 
3.508718195961e-06 4.404145734277e-03 0.0 
0.0 0.0 -6.763006240845e-04 
-7.410587565243e-04 2.977071001622e-06 0.0 
2.977071001622e-06 4.853988703533e-03 0.0 
0.0 0.0 -7.409416231994e-04 
-7.040690402047e-04 2.351563892333e-06 0.0 
2.351563892333e-06 4.597607851949e-03 0.0 
0.0 0.0 -7.042275185679e-04 
-6.395068044754e-04 3.551759029581e-06 0.0 
3.551759029581e-06 4.148883800447e-03 0.0 
0.0 0.0 -6.398389559308e-04 
-6.666949009551e-04 4.033462501374e-06 0.0 
4.033462501374e-06 4.341905952590e-03 0.0 
0.0 0.0 -6.674633383154e-04 
-7.319239687128e-04 2.339911819127e-06 0.0 
2.339911819127e-06 4.794577675996e-03 0.0 
0.0 0.0 -7.324886333286e-04 
-6.941465830900e-04 3.043408887515e-06 0.0 
3.043408887515e-06 4.534944571325e-03 0.0 
0.0 0.0 -6.954027321055e-04 
-7.599625173411e-04 1.739203305330e-06 0.0 
1.739203305330e-06 4.991507953981e-03 0.0 
0.0 0.0 -7.608997874520e-04 
-6.288087524291e-04 4.620726933368e-06 0.0 
4.620726933368e-06 4.080538413552e-03 0.0 
0.0 0.0 -6.302092384919e-04 
-6.562200550336e-04 2.527596513767e-06 0.0 
2.527596513767e-06 4.273760246295e-03 0.0 
0.0 0.0 -6.580989212857e-04 
-5.905021683275e-04 5.113861583962e-06 0.0 
5.113861583962e-06 3.817210818870e-03 0.0 
0.0 0.0 -5.925517106747e-04 
-6.180070563344e-04 1.748353135852e-06 0.0 
1.748353135852e-06 4.012241935297e-03 0.0 
0.0 0.0 -6.207111136070e-04 
-8.536335610934e-04 1.348609631239e-06 0.0 
1.348609631239e-06 5.632618076260e-03 0.0 
0.0 0.0 -8.529317679587e-04 
-5.517808621481e-04 4.295824092782e-06 0.0 
4.295824092782e-06 3.553884541992e-03 0.0 
0.0 0.0 -5.549884598765e-04 
-5.256512596245e-04 6.824695261327e-06 0.0 
6.824695261327e-06 3.365117692800e-03 0.0 
0.0 0.0 -5.276250340903e-04 
-5.798411198688e-04 -4.887552469896e-09 0.0 
-4.887552469896e-09 3.751124839276e-03 0.0 
0.0 0.0 -5.833260987948e-04 
-6.468648656294e-04 -6.634229100666e-07 0.0 
-6.634229100666e-07 4.212613913655e-03 0.0 
0.0 0.0 -6.493616581942e-04 
-5.137698154976e-04 1.586824553395e-06 0.0 
1.586824553395e-06 3.290773483107e-03 0.0 
0.0 0.0 -5.173870653820e-04 
-5.418307247046e-04 -1.136001153091e-06 0.0 
-1.136001153091e-06 3.490016299043e-03 0.0 
0.0 0.0 -5.459094278256e-04 
-4.770030151011e-04 2.075579507917e-06 0.0 
2.075579507917e-06 3.029794249274e-03 0.0 
0.0 0.0 -4.798161731008e-04 
-6.265889875599e-04 -3.099894472635e-06 0.0 
-3.099894472635e-06 4.044775427509e-03 0.0 
0.0 0.0 -6.252159162693e-04 
-9.779259260500e-04 -4.603917606303e-06 0.0 
-4.603917606303e-06 6.486620776824e-03 0.0 
0.0 0.0 -9.750716696758e-04 
-5.048311626822e-04 8.069914569390e-07 0.0 
8.069914569390e-07 3.230775089179e-03 0.0 
0.0 0.0 -5.084495576641e-04 
-4.414277464692e-04 -9.314775103287e-07 0.0 
-9.314775103287e-07 2.769397101649e-03 0.0 
0.0 0.0 -4.423119711188e-04 
-4.126781969750e-04 2.777234300813e-06 0.0 
2.777234300813e-06 2.568725273303e-03 0.0 
0.0 0.0 -4.136824817550e-04 
-3.752383636154e-04 2.627021531008e-07 0.0 
2.627021531008e-07 2.307149796782e-03 0.0 
0.0 0.0 -3.761903503575e-04 
-9.032923406135e-04 -1.942635711141e-05 0.0 
-1.942635711141e-05 6.054768473392e-03 0.0 
0.0 0.0 -9.126358703463e-04 
-9.750351070606e-04 8.331650577882e-07 0.0 
8.331650577882e-07 6.501449499714e-03 0.0 
0.0 0.0 -9.772611937912e-04 
-9.426936007589e-04 -8.476577603347e-06 0.0 
-8.476577603347e-06 6.285634427722e-03 0.0 
0.0 0.0 -9.468612964576e-04 
-1.013350986754e-03 -2.420793703441e-06 0.0 
-2.420793703441e-06 6.752430832338e-03 0.0 
0.0 0.0 -1.012955122490e-03 
-9.819905249802e-04 -9.218190891348e-06 0.0 
-9.218190891348e-06 6.546568860747e-03 0.0 
0.0 0.0 -9.835180958883e-04 
-4.033189249179e-04 -7.405594451634e-06 0.0 
-7.405594451634e-06 2.507023825451e-03 0.0 
0.0 0.0 -4.047791634435e-04 
-1.026297749493e-03 -7.873848128133e-06 0.0 
-7.873848128133e-06 6.842470359288e-03 0.0 
0.0 0.0 -1.026687169009e-03 
-1.041976492741e-03 3.297528438812e-06 0.0 
3.297528438812e-06 6.953471480802e-03 0.0 
0.0 0.0 -1.042264213861e-03 
-7.894126093117e-04 1.238093184232e-06 0.0 
1.238093184232e-06 5.169984540206e-03 0.0 
0.0 0.0 -7.861871271282e-04 
-7.083334352114e-04 1.160791963841e-06 0.0 
1.160791963841e-06 4.619009573669e-03 0.0 
0.0 0.0 -7.076088937226e-04 
-8.034448321062e-04 -3.641604808747e-06 0.0 
-3.641604808747e-06 5.283437919380e-03 0.0 
0.0 0.0 -8.027518904046e-04 
-5.699317647335e-04 -5.077104347272e-06 0.0 
-5.077104347272e-06 3.690391390143e-03 0.0 
0.0 0.0 -5.745905038755e-04 
-5.325923514100e-04 1.264931689767e-06 0.0 
1.264931689767e-06 3.434700451156e-03 0.0 
0.0 0.0 -5.371338854166e-04 
-6.021414154153e-04 -1.123287284887e-05 0.0 
-1.123287284887e-05 3.895898666929e-03 0.0 
0.0 0.0 -6.033452624549e-04 
-7.975586205945e-04 7.346724402818e-07 0.0 
7.346724402818e-07 5.250837552225e-03 0.0 
0.0 0.0 -7.980428604176e-04 
-8.260589898796e-04 8.470418803899e-07 0.0 
8.470418803899e-07 5.449813526142e-03 0.0 
0.0 0.0 -8.266132305475e-04 
-8.633840041631e-04 4.108677631331e-07 0.0 
4.108677631331e-07 5.709024598085e-03 0.0 
0.0 0.0 -8.638188500004e-04 
-8.921637692903e-04 4.125221993886e-07 0.0 
4.125221993886e-07 5.908664068470e-03 0.0 
0.0 0.0 -8.924533907576e-04 
-9.293171742377e-04 3.033539280724e-07 0.0 
3.033539280724e-07 6.168083546012e-03 0.0 
0.0 0.0 -9.297164513315e-04 
-9.582709124814e-04 8.513827699182e-07 0.0 
8.513827699182e-07 6.368400937687e-03 0.0 
0.0 0.0 -9.583747859490e-04 
-9.209100768105e-04 -4.256218772019e-07 0.0 
-4.256218772019e-07 6.108351576790e-03 0.0 
0.0 0.0 -9.210728288235e-04 
-9.873571107966e-04 -7.195723232199e-07 0.0 
-7.195723232199e-07 6.568673837727e-03 0.0 
0.0 0.0 -9.870277070005e-04 
-9.496224461858e-04 -1.641275594905e-06 0.0 
-1.641275594905e-06 6.308003890192e-03 0.0 
0.0 0.0 -9.497007337289e-04 
-9.952004913145e-04 1.269240357803e-06 0.0 
1.269240357803e-06 6.627713601016e-03 0.0 
0.0 0.0 -9.956835613869e-04 
-9.665012269537e-04 -8.709086142666e-07 0.0 
-8.709086142666e-07 6.427165842683e-03 0.0 
0.0 0.0 -9.668198671257e-04 
-1.015999965498e-03 -2.659789521343e-06 0.0 
-2.659789521343e-06 6.768164853945e-03 0.0 
0.0 0.0 -1.015681523326e-03 
-9.780689760982e-04 -1.773026811882e-06 0.0 
-1.773026811882e-06 6.507705614272e-03 0.0 
0.0 0.0 -9.783260305705e-04 
-1.043750394909e-03 -2.772279525245e-06 0.0 
-2.772279525245e-06 6.967527210065e-03 0.0 
0.0 0.0 -1.044362401637e-03 
-1.005977853166e-03 -2.262113223733e-06 0.0 
-2.262113223733e-06 6.706658029639e-03 0.0 
0.0 0.0 -1.007007767922e-03 
-9.404749716457e-04 -1.193534276169e-06 0.0 
-1.193534276169e-06 6.246239019973e-03 0.0 
0.0 0.0 -9.408676861799e-04 
-9.684909118554e-04 -8.529271608882e-07 0.0 
-8.529271608882e-07 6.444829778042e-03 0.0 
0.0 0.0 -9.695029660748e-04 
-9.037723104013e-04 -2.350012697831e-06 0.0 
-2.350012697831e-06 5.986848649888e-03 0.0 
0.0 0.0 -9.035672079865e-04 
-8.314464570683e-04 -3.616594317093e-06 0.0 
-3.616594317093e-06 5.479880314984e-03 0.0 
0.0 0.0 -8.309624794500e-04 
-8.682753299778e-04 -4.472916759991e-06 0.0 
-4.472916759991e-06 5.735257211893e-03 0.0 
0.0 0.0 -8.675775700443e-04 
-8.962132157840e-04 -3.994715245400e-06 0.0 
-3.994715245400e-06 5.931796623670e-03 0.0 
0.0 0.0 -8.958500940740e-04 
-9.334915543322e-04 -5.104595478856e-06 0.0 
-5.104595478856e-06 6.188168080628e-03 0.0 
0.0 0.0 -9.325549191312e-04 
-9.611906856984e-04 -4.832422115391e-06 0.0 
-4.832422115391e-06 6.384949120317e-03 0.0 
0.0 0.0 -9.609176734917e-04 
-9.993166695243e-04 -5.921015935412e-06 0.0 
-5.921015935412e-06 6.642197475408e-03 0.0 
0.0 0.0 -9.976363410588e-04 
-1.026869107811e-03 -5.279541534858e-06 0.0 
-5.279541534858e-06 6.837737939095e-03 0.0 
0.0 0.0 -1.026032504441e-03 
-9.888890578615e-04 -3.536873257959e-06 0.0 
-3.536873257959e-06 6.582021445560e-03 0.0 
0.0 0.0 -9.892761093610e-04 
-1.020948249731e-03 -5.775826579251e-06 0.0 
-5.775826579251e-06 6.785097853957e-03 0.0 
0.0 0.0 -1.018102500310e-03 
-6.106564943980e-04 -8.377932010845e-07 0.0 
-8.377932010845e-07 3.937861241286e-03 0.0 
0.0 0.0 -6.095594541484e-04 
-5.829707017920e-04 -8.761996172263e-07 0.0 
-8.761996172263e-07 3.743841342214e-03 0.0 
0.0 0.0 -5.816898710390e-04 
-5.468224651884e-04 3.532374184789e-07 0.0 
3.532374184789e-07 3.491149788400e-03 0.0 
0.0 0.0 -5.454521931755e-04 
-5.191424428683e-04 -2.726566039411e-07 0.0 
-2.726566039411e-07 3.297674531074e-03 0.0 
0.0 0.0 -5.176388733440e-04 
-4.833226440277e-04 2.092058671683e-06 0.0 
2.092058671683e-06 3.045002640289e-03 0.0 
0.0 0.0 -4.814163979944e-04 
-4.557758029647e-04 1.050100037043e-06 0.0 
1.050100037043e-06 2.852852491029e-03 0.0 
0.0 0.0 -4.537165770244e-04 
-4.203756978464e-04 3.745088126667e-06 0.0 
3.745088126667e-06 2.598843361212e-03 0.0 
0.0 0.0 -4.172264234068e-04 
-4.466735727578e-04 5.480427942948e-06 0.0 
5.480427942948e-06 2.790981770740e-03 0.0 
0.0 0.0 -4.450327826477e-04 
-3.836326554130e-04 7.904997896638e-06 0.0 
7.904997896638e-06 2.342835906920e-03 0.0 
0.0 0.0 -3.805252178390e-04 
-4.084193757356e-04 7.242552144165e-06 0.0 
7.242552144165e-06 2.535005811079e-03 0.0 
0.0 0.0 -4.085362445790e-04 
-3.461331758914e-04 8.763341315882e-06 0.0 
8.763341315882e-06 2.084280570054e-03 0.0 
0.0 0.0 -3.437934912881e-04 
-3.698709012629e-04 8.292346557800e-06 0.0 
8.292346557800e-06 2.277114687721e-03 0.0 
0.0 0.0 -3.717096690223e-04 
-8.965032625882e-04 -1.627591660537e-06 0.0 
-1.627591660537e-06 5.934603885101e-03 0.0 
0.0 0.0 -8.963565068603e-04 
-9.708908500796e-04 -5.045480792177e-06 0.0 
-5.045480792177e-06 6.444533853224e-03 0.0 
0.0 0.0 -9.691568884624e-04 
-1.036699855876e-03 -2.770010414118e-06 0.0 
-2.770010414118e-06 6.900219655108e-03 0.0 
0.0 0.0 -1.034312087004e-03 
-1.006639220865e-03 -3.033633605173e-06 0.0 
-3.033633605173e-06 6.698197690662e-03 0.0 
0.0 0.0 -1.005320805676e-03 
-3.491849021404e-04 5.274199756899e-07 0.0 
5.274199756899e-07 2.108115059856e-03 0.0 
0.0 0.0 -3.475522021424e-04 
-1.033063842021e-03 -2.635650059539e-06 0.0 
-2.635650059539e-06 6.905166544597e-03 0.0 
0.0 0.0 -1.035773625862e-03 
-1.032236772368e-03 -1.431372014452e-06 0.0 
-1.431372014452e-06 6.887149851833e-03 0.0 
0.0 0.0 -1.032922975483e-03 
-1.003745583219e-03 -3.564129010567e-06 0.0 
-3.564129010567e-06 6.683661322661e-03 0.0 
0.0 0.0 -1.003739924893e-03 
-1.054629030311e-03 -7.601280977916e-07 0.0 
-7.601280977916e-07 7.036563315422e-03 0.0 
0.0 0.0 -1.054598834243e-03 
-3.382801587767e-04 -2.979708598297e-06 0.0 
-2.979708598297e-06 2.049061231215e-03 0.0 
0.0 0.0 -3.392587823741e-04 
-3.925929468368e-04 -3.827429239250e-07 0.0 
-3.827429239250e-07 2.409736501278e-03 0.0 
0.0 0.0 -3.899405068163e-04 
-4.274717193387e-04 -8.415189167588e-08 0.0 
-8.415189167588e-08 2.658832617141e-03 0.0 
0.0 0.0 -4.261104576107e-04 
-1.049394948444e-03 -6.226283885082e-06 0.0 
-6.226283885082e-06 7.001982288460e-03 0.0 
0.0 0.0 -1.048874596840e-03 
-1.017918189327e-03 -8.563044135185e-06 0.0 
-8.563044135185e-06 6.794247194180e-03 0.0 
0.0 0.0 -1.019458214591e-03 
-1.069216758149e-03 -3.894499857362e-06 0.0 
-3.894499857362e-06 7.146438403505e-03 0.0 
0.0 0.0 -1.070157681403e-03 
-3.646275857636e-04 -4.854414982731e-06 0.0 
-4.854414982731e-06 2.250210390791e-03 0.0 
0.0 0.0 -3.675747464493e-04 
-1.054357939260e-03 -2.436299897803e-06 0.0 
-2.436299897803e-06 7.029823091953e-03 0.0 
0.0 0.0 -1.052997445444e-03 
-3.197645753904e-04 1.264604075083e-05 0.0 
1.264604075083e-05 1.895364248012e-03 0.0 
0.0 0.0 -3.160508651072e-04 
-9.953050425208e-04 1.480628501674e-06 0.0 
1.480628501674e-06 6.643084749548e-03 0.0 
0.0 0.0 -9.982306137915e-04 
-1.060585647238e-03 -1.664106558644e-06 0.0 
-1.664106558644e-06 7.103829563321e-03 0.0 
0.0 0.0 -1.064501221861e-03 
-8.833816014428e-04 -1.312725406789e-06 0.0 
-1.312725406789e-06 5.848632048973e-03 0.0 
0.0 0.0 -8.838659695519e-04 
-1.072126527592e-03 1.342848407726e-06 0.0 
1.342848407726e-06 7.156046509616e-03 0.0 
0.0 0.0 -1.070909199420e-03 
-1.040873144494e-03 -1.559728385194e-06 0.0 
-1.559728385194e-06 6.945723517804e-03 0.0 
0.0 0.0 -1.041442769611e-03 
-4.361432558224e-04 3.964498909281e-06 0.0 
3.964498909281e-06 2.732385665183e-03 0.0 
0.0 0.0 -4.368024751037e-04 
-4.014490958451e-04 -4.456139007885e-06 0.0 
-4.456139007885e-06 2.476345149205e-03 0.0 
0.0 0.0 -4.000028750317e-04 
-3.379276697082e-04 -9.389203743798e-07 0.0 
-9.389203743798e-07 2.030025360652e-03 0.0 
0.0 0.0 -3.362177140684e-04 
-3.635969428549e-04 1.373767669547e-06 0.0 
1.373767669547e-06 2.244616072891e-03 0.0 
0.0 0.0 -3.646174584383e-04 
-4.300938244296e-04 1.567544356461e-06 0.0 
1.567544356461e-06 2.681550340782e-03 0.0 
0.0 0.0 -4.284477484795e-04 
-3.889085083712e-04 9.835552761999e-06 0.0 
9.835552761999e-06 2.418297915731e-03 0.0 
0.0 0.0 -3.914172224959e-04 
-3.204770754165e-04 1.907323267818e-05 0.0 
1.907323267818e-05 1.962571053019e-03 0.0 
0.0 0.0 -3.275549428413e-04 
-3.502907991612e-04 7.488671342929e-06 0.0 
7.488671342929e-06 2.156719423535e-03 0.0 
0.0 0.0 -3.541853722931e-04 
-4.167106155496e-04 6.881429257417e-06 0.0 
6.881429257417e-06 2.610903268491e-03 0.0 
0.0 0.0 -4.192720002935e-04 
-3.788914181042e-04 4.343078442188e-06 0.0 
4.343078442188e-06 2.349536149817e-03 0.0 
0.0 0.0 -3.818909459020e-04 
-3.084459074469e-04 6.289188176421e-07 0.0 
6.289188176421e-07 1.890259859557e-03 0.0 
0.0 0.0 -3.163726278224e-04 
-3.419617535017e-04 -1.002237531258e-06 0.0 
-1.002237531258e-06 2.083935112305e-03 0.0 
0.0 0.0 -3.442135738104e-04 
-1.099071483736e-03 -4.059536723358e-06 0.0 
-4.059536723358e-06 7.365286043721e-03 0.0 
0.0 0.0 -1.101875158976e-03 
-2.778270531889e-04 5.606786558079e-06 0.0 
5.606786558079e-06 1.634146459113e-03 0.0 
0.0 0.0 -2.790856233436e-04 
-8.331232600789e-04 -1.470432704222e-06 0.0 
-1.470432704222e-06 5.468049203594e-03 0.0 
0.0 0.0 -8.288706041983e-04 
-1.097753538925e-03 -6.819421046418e-08 0.0 
-6.819421046418e-08 7.345996197340e-03 0.0 
0.0 0.0 -1.099012274073e-03 
-1.093116720620e-03 -8.666493399362e-07 0.0 
-8.666493399362e-07 7.286837829642e-03 0.0 
0.0 0.0 -1.090660416876e-03 
-1.084365567575e-03 -6.280824779015e-06 0.0 
-6.280824779015e-06 7.252032631151e-03 0.0 
0.0 0.0 -1.085032576515e-03 
-1.054657705810e-03 -6.435631966191e-06 0.0 
-6.435631966191e-06 7.045218181684e-03 0.0 
0.0 0.0 -1.055603631703e-03 
-9.875851288997e-04 -1.413805567774e-06 0.0 
-1.413805567774e-06 6.584177510452e-03 0.0 
0.0 0.0 -9.897378988699e-04 
-1.026769546168e-03 -2.237330550586e-06 0.0 
-2.237330550586e-06 6.840866959104e-03 0.0 
0.0 0.0 -1.026001677571e-03 
-1.092973095107e-03 -7.454569989634e-06 0.0 
-7.454569989634e-06 7.301089234385e-03 0.0 
0.0 0.0 -1.091942449670e-03 
-1.064751991023e-03 -3.501272267723e-06 0.0 
-3.501272267723e-06 7.095620902661e-03 0.0 
0.0 0.0 -1.062342898562e-03 
-9.988564979816e-04 -1.668871402227e-06 0.0 
-1.668871402227e-06 6.635005463114e-03 0.0 
0.0 0.0 -9.962627399151e-04 
-1.034436478479e-03 -1.481002808395e-06 0.0 
-1.481002808395e-06 6.886326563749e-03 0.0 
0.0 0.0 -1.032646955902e-03 
-9.669903561008e-04 -1.588757973807e-06 0.0 
-1.588757973807e-06 6.424013170772e-03 0.0 
0.0 0.0 -9.664557332607e-04 
-1.003700280699e-03 7.299281571934e-07 0.0 
7.299281571934e-07 6.676052297610e-03 0.0 
0.0 0.0 -1.002889032254e-03 
-1.069539961128e-03 -1.406306334207e-06 0.0 
-1.406306334207e-06 7.137459283332e-03 0.0 
0.0 0.0 -1.069134413525e-03 
-1.040251277345e-03 -2.304501535982e-06 0.0 
-2.304501535982e-06 6.929939891367e-03 0.0 
0.0 0.0 -1.039387411609e-03 
-9.757356294361e-04 3.492291009935e-06 0.0 
3.492291009935e-06 6.469291385121e-03 0.0 
0.0 0.0 -9.730575354659e-04 
-1.011311036558e-03 -3.920010342729e-06 0.0 
-3.920010342729e-06 6.721391753202e-03 0.0 
0.0 0.0 -1.009574527126e-03 
-9.473976655285e-04 1.069754497067e-06 0.0 
1.069754497067e-06 6.259448801403e-03 0.0 
0.0 0.0 -9.431603702596e-04 
-9.787243902099e-04 -9.076392670580e-06 0.0 
-9.076392670580e-06 6.505694726987e-03 0.0 
0.0 0.0 -9.796061197752e-04 
-1.045613844249e-03 -1.722974318907e-06 0.0 
-1.722974318907e-06 6.974649094867e-03 0.0 
0.0 0.0 -1.046101832713e-03 
-2.943775444909e-04 -6.928567678537e-07 0.0 
-6.928567678537e-07 1.805789486149e-03 0.0 
0.0 0.0 -3.035957800550e-04 
-1.017758437714e-03 8.339975111545e-07 0.0 
8.339975111545e-07 6.780275813963e-03 0.0 
0.0 0.0 -1.017732614895e-03 
-1.085695951343e-03 9.008470653890e-06 0.0 
9.008470653890e-06 7.238624846316e-03 0.0 
0.0 0.0 -1.083831836677e-03 
-5.709103913775e-04 -2.325431224868e-05 0.0 
-2.325431224868e-05 3.664168357293e-03 0.0 
0.0 0.0 -5.671321338944e-04 
-6.324387949388e-04 -2.542767452305e-05 0.0 
-2.542767452305e-05 4.079572971033e-03 0.0 
0.0 0.0 -6.325382687906e-04 
-6.703304024063e-04 2.057485422877e-06 0.0 
2.057485422877e-06 4.353279279577e-03 0.0 
0.0 0.0 -6.695659616924e-04 
-6.965174910300e-04 -2.385319859375e-06 0.0 
-2.385319859375e-06 4.560833435242e-03 0.0 
0.0 0.0 -6.986863204145e-04 
-1.013217864429e-03 -6.931448216209e-06 0.0 
-6.931448216209e-06 6.760757040862e-03 0.0 
0.0 0.0 -1.015477767897e-03 
-1.085754476307e-03 4.526117246953e-06 0.0 
4.526117246953e-06 7.228792746516e-03 0.0 
0.0 0.0 -1.082739357160e-03 
-3.632786350414e-04 -5.324944036109e-07 0.0 
-5.324944036109e-07 2.218076515491e-03 0.0 
0.0 0.0 -3.630904347118e-04 
-3.989196443092e-04 3.443700858679e-06 0.0 
3.443700858679e-06 2.465366928233e-03 0.0 
0.0 0.0 -3.987635198617e-04 
-1.114604240908e-03 -4.187271034194e-06 0.0 
-4.187271034194e-06 7.457266297093e-03 0.0 
0.0 0.0 -1.114382729655e-03 
-1.023827423401e-03 3.244776890839e-07 0.0 
3.244776890839e-07 6.846372715936e-03 0.0 
0.0 0.0 -1.027045364000e-03 
-9.591711885291e-04 5.195306824484e-06 0.0 
5.195306824484e-06 6.383348184143e-03 0.0 
0.0 0.0 -9.609938998495e-04 
-6.727539858769e-04 1.372459178985e-06 0.0 
1.372459178985e-06 4.373266699251e-03 0.0 
0.0 0.0 -6.721935305596e-04 
-6.457182263887e-04 2.843205903296e-06 0.0 
2.843205903296e-06 4.180265241662e-03 0.0 
0.0 0.0 -6.449639573754e-04 
-6.090109741668e-04 -1.269187225415e-06 0.0 
-1.269187225415e-06 3.932858286179e-03 0.0 
0.0 0.0 -6.093131083769e-04 
-5.816903259702e-04 4.641891431383e-06 0.0 
4.641891431383e-06 3.732340485873e-03 0.0 
0.0 0.0 -5.812298138028e-04 
-6.200283683434e-04 9.586645545115e-06 0.0 
9.586645545115e-06 3.992414838426e-03 0.0 
0.0 0.0 -6.173664885638e-04 
-5.434193891668e-04 -9.403867661906e-06 0.0 
-9.403867661906e-06 3.478668698050e-03 0.0 
0.0 0.0 -5.448148816535e-04 
-9.373928058819e-04 -1.601369738935e-06 0.0 
-1.601369738935e-06 6.221929865538e-03 0.0 
0.0 0.0 -9.373051277721e-04 
-1.105789133782e-03 -5.097961888920e-06 0.0 
-5.097961888920e-06 7.391609738888e-03 0.0 
0.0 0.0 -1.105708206284e-03 
-3.854345613970e-04 8.443027839813e-06 0.0 
8.443027839813e-06 2.371646984252e-03 0.0 
0.0 0.0 -3.852871208612e-04 
-3.201910169614e-04 4.758000015084e-06 0.0 
4.758000015084e-06 1.911169802832e-03 0.0 
0.0 0.0 -3.193625892355e-04 
-1.092402492623e-03 -1.167819157760e-06 0.0 
-1.167819157760e-06 7.309660398486e-03 0.0 
0.0 0.0 -1.093300181677e-03 
-9.522712570359e-04 -2.708707742726e-07 0.0 
-2.708707742726e-07 6.324723503682e-03 0.0 
0.0 0.0 -9.522822042369e-04 
-9.318364452749e-04 -3.558001127041e-06 0.0 
-3.558001127041e-06 6.182417451607e-03 0.0 
0.0 0.0 -9.319735432435e-04 
-9.592391997822e-04 -2.458009781541e-06 0.0 
-2.458009781541e-06 6.375907434676e-03 0.0 
0.0 0.0 -9.598347391831e-04 
-9.950739296232e-04 -4.572796618511e-06 0.0 
-4.572796618511e-06 6.625947379230e-03 0.0 
0.0 0.0 -9.957130113267e-04 
-1.022389104434e-03 -1.719325875493e-06 0.0 
-1.719325875493e-06 6.820013246431e-03 0.0 
0.0 0.0 -1.023751803962e-03 
-1.059370439720e-03 -5.405362556150e-06 0.0 
-5.405362556150e-06 7.072199763533e-03 0.0 
0.0 0.0 -1.059873349132e-03 
-1.087678763415e-03 -2.923161999986e-06 0.0 
-2.923161999986e-06 7.265128234670e-03 0.0 
0.0 0.0 -1.087854580038e-03 
-1.051303081442e-03 5.171402569271e-07 0.0 
5.171402569271e-07 7.018896459243e-03 0.0 
0.0 0.0 -1.051791170495e-03 
-1.103769166383e-03 7.691851827851e-06 0.0 
7.691851827851e-06 7.404894528321e-03 0.0 
0.0 0.0 -1.107463318235e-03 
-1.117712624745e-03 -3.586966882198e-06 0.0 
-3.586966882198e-06 7.467456065743e-03 0.0 
0.0 0.0 -1.115916943430e-03 
-9.389683298366e-04 8.173508751278e-06 0.0 
8.173508751278e-06 6.277342985551e-03 0.0 
0.0 0.0 -9.487150400336e-04 
-9.410739694122e-04 -1.111791304632e-06 0.0 
-1.111791304632e-06 6.241243045591e-03 0.0 
0.0 0.0 -9.398448712237e-04 
-4.457204000865e-04 5.557813324762e-06 0.0 
5.557813324762e-06 2.807268937135e-03 0.0 
0.0 0.0 -4.474652294669e-04 
-2.787239558753e-04 -1.594210911545e-05 0.0 
-1.594210911545e-05 1.590980471387e-03 0.0 
0.0 0.0 -2.752498982733e-04 
-2.801629165477e-04 1.388173637535e-07 0.0 
1.388173637535e-07 1.614413284500e-03 0.0 
0.0 0.0 -2.770275614452e-04 
-3.257086370933e-04 6.463444473954e-06 0.0 
6.463444473954e-06 1.982032803988e-03 0.0 
0.0 0.0 -3.299748606085e-04 
-3.924316838372e-04 3.341960258366e-06 0.0 
3.341960258366e-06 2.447443434601e-03 0.0 
0.0 0.0 -3.961554456411e-04 
-1.134349550786e-03 -1.652632845533e-06 0.0 
-1.652632845533e-06 7.607275251226e-03 0.0 
0.0 0.0 -1.136360603439e-03 
-1.125800754315e-03 -5.253853129254e-06 0.0 
-5.253853129254e-06 7.520991050392e-03 0.0 
0.0 0.0 -1.124065295910e-03 
-1.096791908378e-03 -5.220402544479e-06 0.0 
-5.220402544479e-06 7.320289406060e-03 0.0 
0.0 0.0 -1.095615423988e-03 
-5.557080703907e-04 2.060507655022e-05 0.0 
2.060507655022e-05 3.553838567094e-03 0.0 
0.0 0.0 -5.539799138139e-04 
-5.938414920039e-04 6.065843658374e-06 0.0 
6.065843658374e-06 3.806784454423e-03 0.0 
0.0 0.0 -5.905304635153e-04 
-1.132061157024e-03 2.994999273291e-06 0.0 
2.994999273291e-06 7.609332849678e-03 0.0 
0.0 0.0 -1.136278651916e-03 
-9.052603845710e-04 -1.496793008832e-06 0.0 
-1.496793008832e-06 6.089428360264e-03 0.0 
0.0 0.0 -9.177848451843e-04 
-9.302886435713e-04 -1.143901140747e-06 0.0 
-1.143901140747e-06 6.175006027383e-03 0.0 
0.0 0.0 -9.302130594432e-04 
-8.986318941468e-04 1.808913455717e-06 0.0 
1.808913455717e-06 5.958837749668e-03 0.0 
0.0 0.0 -9.001900590098e-04 
-2.448154097378e-04 -1.421673720980e-05 0.0 
-1.421673720980e-05 1.469020257813e-03 0.0 
0.0 0.0 -2.595221258752e-04 
-2.425141975507e-04 4.798340757492e-06 0.0 
4.798340757492e-06 1.427444744679e-03 0.0 
0.0 0.0 -2.525597767350e-04 
-1.129866785975e-03 -6.589135683459e-06 0.0 
-6.589135683459e-06 7.556758245339e-03 0.0 
0.0 0.0 -1.128363834889e-03 
-4.625030533362e-04 2.152653740831e-06 0.0 
2.152653740831e-06 2.905591162520e-03 0.0 
0.0 0.0 -4.615872697407e-04 
-4.348533942840e-04 3.201452625959e-06 0.0 
3.201452625959e-06 2.712395630356e-03 0.0 
0.0 0.0 -4.342639779644e-04 
-2.556862254962e-04 9.465200077470e-06 0.0 
9.465200077470e-06 1.446637132955e-03 0.0 
0.0 0.0 -2.508181872060e-04 
-2.123142658657e-04 2.153637718006e-06 0.0 
2.153637718006e-06 1.175585796085e-03 0.0 
0.0 0.0 -2.143868084631e-04 
-1.042731456099e-03 1.901936730496e-05 0.0 
1.901936730496e-05 6.995442815012e-03 0.0 
0.0 0.0 -1.051814883004e-03 
-1.110984337992e-03 1.360393105763e-05 0.0 
1.360393105763e-05 7.468547826848e-03 0.0 
0.0 0.0 -1.117859435171e-03 
-7.312716402703e-04 -2.190675999974e-06 0.0 
-2.190675999974e-06 4.814374156657e-03 0.0 
0.0 0.0 -7.356929296387e-04 
-7.645892286358e-04 -1.102166449941e-05 0.0 
-1.102166449941e-05 5.018862629850e-03 0.0 
0.0 0.0 -7.648299719236e-04 
-1.105578814045e-03 -4.864618337802e-06 0.0 
-4.864618337802e-06 7.407304501986e-03 0.0 
0.0 0.0 -1.107558395918e-03 
-3.066920262703e-04 -9.941053824017e-07 0.0 
-9.941053824017e-07 1.825477502809e-03 0.0 
0.0 0.0 -3.060794667268e-04 
-1.146252104278e-03 9.473611415293e-07 0.0 
9.473611415293e-07 7.693660702169e-03 0.0 
0.0 0.0 -1.149181664990e-03 
-9.819770468004e-04 3.151631864564e-06 0.0 
3.151631864564e-06 6.525650668115e-03 0.0 
0.0 0.0 -9.807908033776e-04 
-9.159380280943e-04 1.195442860185e-06 0.0 
1.195442860185e-06 6.068082639928e-03 0.0 
0.0 0.0 -9.152404036620e-04 
-6.511413906152e-04 1.424536279068e-05 0.0 
1.424536279068e-05 4.294241389317e-03 0.0 
0.0 0.0 -6.604623333687e-04 
-3.374810340454e-04 6.844433927066e-06 0.0 
6.844433927066e-06 2.031763814607e-03 0.0 
0.0 0.0 -3.366432492119e-04 
-3.027001806187e-04 4.554754580629e-06 0.0 
4.554754580629e-06 1.781580953441e-03 0.0 
0.0 0.0 -3.009099309908e-04 
-4.837618896287e-04 7.408810593372e-06 0.0 
7.408810593372e-06 3.065907824054e-03 0.0 
0.0 0.0 -4.845585894574e-04 
-3.706525314116e-04 2.979043878704e-06 0.0 
2.979043878704e-06 2.283251894813e-03 0.0 
0.0 0.0 -3.723415964733e-04 
-3.535775650443e-04 1.642795960174e-06 0.0 
1.642795960174e-06 2.183712345689e-03 0.0 
0.0 0.0 -3.583452993329e-04 
-1.171956394673e-03 7.296733533157e-06 0.0 
7.296733533157e-06 7.865937936914e-03 0.0 
0.0 0.0 -1.173829981771e-03 
-1.155496536768e-03 -7.585900876951e-06 0.0 
-7.585900876951e-06 7.757441294242e-03 0.0 
0.0 0.0 -1.157575248917e-03 
-1.081331483118e-03 -1.018192650106e-05 0.0 
-1.018192650106e-05 7.219793718708e-03 0.0 
0.0 0.0 -1.080172819833e-03 
-1.016976595983e-03 3.080934612030e-08 0.0 
3.080934612030e-08 6.767850029250e-03 0.0 
0.0 0.0 -1.015677837919e-03 
-1.139278177336e-03 -7.940019038832e-06 0.0 
-7.940019038832e-06 7.665797132760e-03 0.0 
0.0 0.0 -1.144955025780e-03 
-2.327287223154e-04 -5.619721676041e-06 0.0 
-5.619721676041e-06 1.369838176642e-03 0.0 
0.0 0.0 -2.399185640008e-04 
-1.167065302037e-03 -2.167295117500e-06 0.0 
-2.167295117500e-06 7.816099518397e-03 0.0 
0.0 0.0 -1.165794428787e-03 
-1.057599608467e-03 -1.462585030755e-06 0.0 
-1.462585030755e-06 7.053925433098e-03 0.0 
0.0 0.0 -1.056136825731e-03 
-1.166821884924e-03 8.580756338007e-06 0.0 
8.580756338007e-06 7.754116842770e-03 0.0 
0.0 0.0 -1.157598467365e-03 
-1.133408506306e-03 -8.435792570124e-07 0.0 
-8.435792570124e-07 7.569033753462e-03 0.0 
0.0 0.0 -1.131219827106e-03 
-4.984456519411e-04 4.300557589694e-06 0.0 
4.300557589694e-06 3.150357815837e-03 0.0 
0.0 0.0 -4.968499830348e-04 
-4.727344614058e-04 -4.063132868511e-06 0.0 
-4.063132868511e-06 2.963684111716e-03 0.0 
0.0 0.0 -4.705806478706e-04 
-4.091383170964e-04 2.862069894884e-06 0.0 
2.862069894884e-06 2.529363987017e-03 0.0 
0.0 0.0 -4.078257031896e-04 
-4.471058786427e-04 1.072951437627e-05 0.0 
1.072951437627e-05 2.788633828474e-03 0.0 
0.0 0.0 -4.438024830152e-04 
-8.440631779025e-04 -4.493147098186e-06 0.0 
-4.493147098186e-06 5.518369027804e-03 0.0 
0.0 0.0 -8.361670615231e-04 
-5.357092529257e-04 -9.292843077281e-07 0.0 
-9.292843077281e-07 3.402933662769e-03 0.0 
0.0 0.0 -5.333915535664e-04 
-7.972227851670e-04 -9.360487058620e-07 0.0 
-9.360487058620e-07 5.222669072684e-03 0.0 
0.0 0.0 -7.939299641313e-04 
-7.702508874020e-04 -1.538210288695e-06 0.0 
-1.538210288695e-06 5.031866795854e-03 0.0 
0.0 0.0 -7.665196690739e-04 
-7.355056886190e-04 7.347932434331e-07 0.0 
7.347932434331e-07 4.791036993934e-03 0.0 
0.0 0.0 -7.319524942586e-04 
-6.561872916338e-04 1.268419360779e-06 0.0 
1.268419360779e-06 4.239606973166e-03 0.0 
0.0 0.0 -6.527873785750e-04 
-6.291613184762e-04 -1.439650198950e-06 0.0 
-1.439650198950e-06 4.053875822961e-03 0.0 
0.0 0.0 -6.261871041946e-04 
-5.548406946331e-04 -1.134560045618e-06 0.0 
-1.134560045618e-06 3.546628030902e-03 0.0 
0.0 0.0 -5.534964465553e-04 
-8.399940984115e-04 -3.577201230982e-06 0.0 
-3.577201230982e-06 5.537581821643e-03 0.0 
0.0 0.0 -8.390310526140e-04 
-7.058409553933e-04 5.047899970867e-07 0.0 
5.047899970867e-07 4.614117323526e-03 0.0 
0.0 0.0 -7.069621042110e-04 
-8.747594299032e-04 -2.558061717813e-06 0.0 
-2.558061717813e-06 5.788017369400e-03 0.0 
0.0 0.0 -8.751042800696e-04 
-8.345970192924e-04 7.968047685775e-07 0.0 
7.968047685775e-07 5.508873449258e-03 0.0 
0.0 0.0 -8.350146568664e-04 
-1.135366159085e-03 -3.784163045634e-06 0.0 
-3.784163045634e-06 7.595187475630e-03 0.0 
0.0 0.0 -1.135109731873e-03 
-1.173430748718e-03 -9.063019793227e-06 0.0 
-9.063019793227e-06 7.855172062360e-03 0.0 
0.0 0.0 -1.171938512032e-03 
-9.103494794309e-04 9.134385712292e-06 0.0 
9.134385712292e-06 6.008446285683e-03 0.0 
0.0 0.0 -9.065739516476e-04 
-8.719468559850e-04 9.049287930901e-07 0.0 
9.049287930901e-07 5.790867004059e-03 0.0 
0.0 0.0 -8.764137937918e-04 
-2.822142401262e-04 -1.729015805195e-06 0.0 
-1.729015805195e-06 1.647043850495e-03 0.0 
0.0 0.0 -2.813159824896e-04 
-2.590672524344e-04 7.758668078397e-06 0.0 
7.758668078397e-06 1.453070456664e-03 0.0 
0.0 0.0 -2.532569443854e-04 
-7.885436432884e-04 5.287197584798e-07 0.0 
5.287197584798e-07 5.190389624089e-03 0.0 
0.0 0.0 -7.894497706086e-04 
-1.129157536929e-03 4.394584270073e-06 0.0 
4.394584270073e-06 7.545263270116e-03 0.0 
0.0 0.0 -1.127529358476e-03 
-1.150499129859e-03 -1.601096256601e-07 0.0 
-1.601096256601e-07 7.703368893988e-03 0.0 
0.0 0.0 -1.150095860580e-03 
-1.180515255213e-03 -2.827683268633e-06 0.0 
-2.827683268633e-06 7.908952217123e-03 0.0 
0.0 0.0 -1.179372829571e-03 
-1.142938913333e-03 -3.318694813209e-06 0.0 
-3.318694813209e-06 7.657003561438e-03 0.0 
0.0 0.0 -1.143369325255e-03 
-1.140111309187e-03 8.981293941539e-07 0.0 
8.981293941539e-07 7.659653688633e-03 0.0 
0.0 0.0 -1.144273392007e-03 
-5.742583376343e-04 1.322470560158e-07 0.0 
1.322470560158e-07 3.685291735877e-03 0.0 
0.0 0.0 -5.733740095480e-04 
-8.593234151619e-04 -2.874076436987e-06 0.0 
-2.874076436987e-06 5.675695790787e-03 0.0 
0.0 0.0 -8.590966742019e-04 
-2.435677437140e-04 -1.068446741352e-05 0.0 
-1.068446741352e-05 1.382271228051e-03 0.0 
0.0 0.0 -2.423215009416e-04 
-8.888171571716e-04 7.702896638082e-07 0.0 
7.702896638082e-07 5.879388839658e-03 0.0 
0.0 0.0 -8.884627649733e-04 
-2.162237035634e-04 -3.672272412206e-06 0.0 
-3.672272412206e-06 1.184819371308e-03 0.0 
0.0 0.0 -2.162536877156e-04 
-1.014212058360e-03 -1.424401912203e-06 0.0 
-1.424401912203e-06 6.732806316095e-03 0.0 
0.0 0.0 -1.010319580236e-03 
-1.121146682577e-03 5.393536553208e-07 0.0 
5.393536553208e-07 7.512550218556e-03 0.0 
0.0 0.0 -1.122815839103e-03 
-1.157064342210e-03 3.278319440530e-08 0.0 
3.278319440530e-08 7.769042756358e-03 0.0 
0.0 0.0 -1.159213750608e-03 
-1.166424981014e-03 1.813592645858e-06 0.0 
1.813592645858e-06 7.856112587899e-03 0.0 
0.0 0.0 -1.171959308352e-03 
-7.504080630279e-04 1.142017006433e-05 0.0 
1.142017006433e-05 4.900584458038e-03 0.0 
0.0 0.0 -7.470952864203e-04 
-9.172347539122e-04 2.804117413104e-06 0.0 
2.804117413104e-06 6.075069916316e-03 0.0 
0.0 0.0 -9.162722660995e-04 
-8.822868772853e-04 1.786082975062e-06 0.0 
1.786082975062e-06 5.828052429250e-03 0.0 
0.0 0.0 -8.808726170640e-04 
-7.075025449257e-04 3.734403442009e-06 0.0 
3.734403442009e-06 4.602949033638e-03 0.0 
0.0 0.0 -7.048691535495e-04 
-6.736902723486e-04 3.915004124941e-06 0.0 
3.915004124941e-06 4.364959797177e-03 0.0 
0.0 0.0 -6.707530558731e-04 
-7.003926698376e-04 3.499859416459e-06 0.0 
3.499859416459e-06 4.548937086678e-03 0.0 
0.0 0.0 -6.972958566626e-04 
-6.396081130525e-04 3.801189656200e-06 0.0 
3.801189656200e-06 4.126284090508e-03 0.0 
0.0 0.0 -6.359606378414e-04 
-5.113814833483e-04 4.985013341203e-06 0.0 
4.985013341203e-06 3.258506878652e-03 0.0 
0.0 0.0 -5.122594947013e-04 
-4.735906672379e-04 3.101741148863e-06 0.0 
3.101741148863e-06 2.998270021668e-03 0.0 
0.0 0.0 -4.750188804659e-04 
-1.196527535369e-03 2.030860363372e-06 0.0 
2.030860363372e-06 8.017120294099e-03 0.0 
0.0 0.0 -1.192042136895e-03 
-1.179471908673e-03 2.186350744695e-05 0.0 
2.186350744695e-05 7.917990259976e-03 0.0 
0.0 0.0 -1.178660172201e-03 
-1.197525366512e-03 -5.361254674991e-06 0.0 
-5.361254674991e-06 8.017772106938e-03 0.0 
0.0 0.0 -1.193029175878e-03 
-1.157007599871e-03 -4.254495392400e-07 0.0 
-4.254495392400e-07 7.831852404544e-03 0.0 
0.0 0.0 -1.168165168231e-03 
-1.184219832489e-03 -2.995135238730e-06 0.0 
-2.995135238730e-06 8.054139615854e-03 0.0 
0.0 0.0 -1.200910491468e-03 
-1.156433585434e-03 -1.143666503596e-06 0.0 
-1.143666503596e-06 7.807020133364e-03 0.0 
0.0 0.0 -1.164168769488e-03 
-4.264796299706e-04 -5.762809161309e-06 0.0 
-5.762809161309e-06 2.638842137297e-03 0.0 
0.0 0.0 -4.227350873389e-04 
-5.681760473819e-04 2.318592575125e-06 0.0 
2.318592575125e-06 3.626581176623e-03 0.0 
0.0 0.0 -5.646260317871e-04 
-1.184636686047e-03 -1.016095806200e-05 0.0 
-1.016095806200e-05 8.009054334469e-03 0.0 
0.0 0.0 -1.194151889699e-03 
-7.414862310133e-04 3.192804147242e-06 0.0 
3.192804147242e-06 4.838396811126e-03 0.0 
0.0 0.0 -7.390869131010e-04 
-1.198370689590e-03 -4.208230376650e-06 0.0 
-4.208230376650e-06 8.000236790466e-03 0.0 
0.0 0.0 -1.192835421428e-03 
-1.157965586969e-03 3.621187988979e-06 0.0 
3.621187988979e-06 7.751872966735e-03 0.0 
0.0 0.0 -1.156047193884e-03 
-1.679677723564e-04 -6.471467774982e-06 0.0 
-6.471467774982e-06 9.157850137994e-04 0.0 
0.0 0.0 -1.776502893165e-04 
-2.010012491603e-04 -2.186198543601e-05 0.0 
-2.186198543601e-05 1.109886420371e-03 0.0 
0.0 0.0 -2.034953494974e-04 
-1.179928424182e-03 1.756406795433e-06 0.0 
1.756406795433e-06 7.951460578279e-03 0.0 
0.0 0.0 -1.184588873336e-03 
-3.838885301584e-04 -2.308315346769e-07 0.0 
-2.308315346769e-07 2.344842445821e-03 0.0 
0.0 0.0 -3.811925308841e-04 
-4.219559892701e-04 7.989363516761e-06 0.0 
7.989363516761e-06 2.586701229719e-03 0.0 
0.0 0.0 -4.158690271831e-04 
-3.474814854535e-04 -1.898705035349e-06 0.0 
-1.898705035349e-06 2.092244309525e-03 0.0 
0.0 0.0 -3.459699425273e-04 
-1.258412294817e-03 4.723230244952e-06 0.0 
4.723230244952e-06 8.451854294521e-03 0.0 
0.0 0.0 -1.258310293365e-03 
-7.484881504011e-04 -2.960864060488e-06 0.0 
-2.960864060488e-06 4.893199602045e-03 0.0 
0.0 0.0 -7.479256703001e-04 
-1.180456674817e-03 2.203572108547e-06 0.0 
2.203572108547e-06 7.969948982011e-03 0.0 
0.0 0.0 -1.189418985649e-03 
-6.915459890032e-04 2.639723401417e-07 0.0 
2.639723401417e-07 4.488659587491e-03 0.0 
0.0 0.0 -6.884682336192e-04 
-1.207477073685e-03 3.654066082017e-06 0.0 
3.654066082017e-06 8.169097270233e-03 0.0 
0.0 0.0 -1.216510697198e-03 
-9.459891485395e-04 2.183343284693e-06 0.0 
2.183343284693e-06 6.276634781059e-03 0.0 
0.0 0.0 -9.449116413281e-04 
-6.354655665352e-04 7.994205054123e-06 0.0 
7.994205054123e-06 4.117898953292e-03 0.0 
0.0 0.0 -6.353966017694e-04 
-1.078683645924e-03 -8.754256551644e-06 0.0 
-8.754256551644e-06 7.202760317135e-03 0.0 
0.0 0.0 -1.078177493492e-03 
-1.141578224773e-03 -1.678015124368e-05 0.0 
-1.678015124368e-05 7.703318796330e-03 0.0 
0.0 0.0 -1.149140729088e-03 
-1.226390364052e-03 1.281801736302e-05 0.0 
1.281801736302e-05 8.221773688784e-03 0.0 
0.0 0.0 -1.221625961084e-03 
-8.548571335587e-04 9.585095622167e-06 0.0 
9.585095622167e-06 5.710330831809e-03 0.0 
0.0 0.0 -8.638707813346e-04 
-8.315226367925e-04 -1.796676276346e-05 0.0 
-1.796676276346e-05 5.471080815741e-03 0.0 
0.0 0.0 -8.327709333130e-04 
-8.913153694948e-04 3.187001622880e-06 0.0 
3.187001622880e-06 5.908304703834e-03 0.0 
0.0 0.0 -8.925140200429e-04 
-2.901697666162e-04 2.957652242772e-06 0.0 
2.957652242772e-06 1.700907778148e-03 0.0 
0.0 0.0 -2.887053311254e-04 
-2.259876589124e-04 -1.628476741978e-06 0.0 
-1.628476741978e-06 1.207242233753e-03 0.0 
0.0 0.0 -2.186270541161e-04 
-1.144042553285e-03 -3.972510573142e-06 0.0 
-3.972510573142e-06 7.644643748638e-03 0.0 
0.0 0.0 -1.142090266074e-03 
-5.015691225624e-04 -4.004972649499e-06 0.0 
-4.004972649499e-06 3.172327891301e-03 0.0 
0.0 0.0 -5.006138788623e-04 
-5.490396028458e-04 1.473261204921e-05 0.0 
1.473261204921e-05 3.431798845594e-03 0.0 
0.0 0.0 -5.359218444892e-04 
-3.334097721274e-04 4.182676571656e-07 0.0 
4.182676571656e-07 2.008435002854e-03 0.0 
0.0 0.0 -3.328711069468e-04 
-3.967994371980e-04 3.163349435476e-06 0.0 
3.163349435476e-06 2.463726324997e-03 0.0 
0.0 0.0 -3.985542937016e-04 
-7.704918098594e-04 -2.506920414946e-06 0.0 
-2.506920414946e-06 5.073323433467e-03 0.0 
0.0 0.0 -7.728092966600e-04 
-7.429755971663e-04 -1.604665722884e-06 0.0 
-1.604665722884e-06 4.873825415622e-03 0.0 
0.0 0.0 -7.441750962829e-04 
-1.041105417575e-03 -3.532804275445e-06 0.0 
-3.532804275445e-06 6.930458439110e-03 0.0 
0.0 0.0 -1.038692069610e-03 
-1.077691050121e-03 5.915919111681e-07 0.0 
5.915919111681e-07 7.178307862229e-03 0.0 
0.0 0.0 -1.074129358999e-03 
-9.680145315127e-04 -4.800744221086e-06 0.0 
-4.800744221086e-06 6.431374472253e-03 0.0 
0.0 0.0 -9.675620497173e-04 
-9.449072701309e-04 5.755247327846e-07 0.0 
5.755247327846e-07 6.268683015175e-03 0.0 
0.0 0.0 -9.439558448496e-04 
-8.793469056982e-04 2.651871179318e-07 0.0 
2.651871179318e-07 5.812169911194e-03 0.0 
0.0 0.0 -8.783802297791e-04 
-8.506353188413e-04 -1.205932606214e-06 0.0 
-1.205932606214e-06 5.614865789540e-03 0.0 
0.0 0.0 -8.502765121185e-04 
-1.205371287344e-03 -1.017172525849e-05 0.0 
-1.017172525849e-05 8.044519540676e-03 0.0 
0.0 0.0 -1.199867006878e-03 
-1.246871842620e-03 -1.782584577441e-06 0.0 
-1.782584577441e-06 8.370823131876e-03 0.0 
0.0 0.0 -1.242728214876e-03 
-5.491066158241e-04 3.796504913762e-06 0.0 
3.796504913762e-06 3.515286504074e-03 0.0 
0.0 0.0 -5.488632449009e-04 
-5.218883337207e-04 5.205294616504e-06 0.0 
5.205294616504e-06 3.322312941731e-03 0.0 
0.0 0.0 -5.212126360957e-04 
-5.377854580404e-04 4.143852354848e-06 0.0 
4.143852354848e-06 3.445251353484e-03 0.0 
0.0 0.0 -5.390128571062e-04 
-1.214529256448e-03 -6.301616693034e-06 0.0 
-6.301616693034e-06 8.215301645721e-03 0.0 
0.0 0.0 -1.223056365294e-03 
-1.220614911318e-03 1.691106897423e-05 0.0 
1.691106897423e-05 8.234319209605e-03 0.0 
0.0 0.0 -1.224004481682e-03 
-1.202636442924e-03 -1.450484537664e-05 0.0 
-1.450484537664e-05 8.019827799738e-03 0.0 
0.0 0.0 -1.195820777905e-03 
-1.923031463658e-04 -1.299529721398e-05 0.0 
-1.299529721398e-05 1.005842812599e-03 0.0 
0.0 0.0 -1.880780275778e-04 
-2.380587333974e-04 -7.138126159536e-06 0.0 
-7.138126159536e-06 1.256954979671e-03 0.0 
0.0 0.0 -2.247092568812e-04 
-2.809188805545e-04 -7.804988416388e-07 0.0 
-7.804988416388e-07 1.601881524077e-03 0.0 
0.0 0.0 -2.751197234063e-04 
-2.390831316059e-04 -1.697522519503e-05 0.0 
-1.697522519503e-05 1.345355817379e-03 0.0 
0.0 0.0 -2.407125716443e-04 
-1.208745358061e-03 2.226513834236e-07 0.0 
2.226513834236e-07 8.094728759758e-03 0.0 
0.0 0.0 -1.207258722210e-03 
-1.173002429905e-03 -1.580225171693e-08 0.0 
-1.580225171693e-08 7.865013445176e-03 0.0 
0.0 0.0 -1.172631524865e-03 
-1.245587066994e-03 -1.350830728445e-07 0.0 
-1.350830728445e-07 8.403006214559e-03 0.0 
0.0 0.0 -1.247471551777e-03 
-3.784912276642e-04 1.355145565509e-05 0.0 
1.355145565509e-05 2.351827936340e-03 0.0 
0.0 0.0 -3.801539159394e-04 
-1.045351836581e-03 6.057785964129e-06 0.0 
6.057785964129e-06 6.969505785323e-03 0.0 
0.0 0.0 -1.045322365442e-03 
-1.205298536187e-03 1.211257299849e-05 0.0 
1.211257299849e-05 8.100207033564e-03 0.0 
0.0 0.0 -1.207899217314e-03 
-1.178583019777e-03 1.757022163117e-05 0.0 
1.757022163117e-05 7.916687945301e-03 0.0 
0.0 0.0 -1.178012378629e-03 
-1.242442001561e-03 9.743401619652e-06 0.0 
9.743401619652e-06 8.382783963078e-03 0.0 
0.0 0.0 -1.244624083072e-03 
-1.137070212873e-03 -2.028754131516e-06 0.0 
-2.028754131516e-06 7.646903784891e-03 0.0 
0.0 0.0 -1.142102124289e-03 
-1.209034666392e-03 -7.012965144915e-06 0.0 
-7.012965144915e-06 8.081623741308e-03 0.0 
0.0 0.0 -1.205428683694e-03 
-1.206763234680e-03 6.340388102829e-06 0.0 
6.340388102829e-06 8.101632159503e-03 0.0 
0.0 0.0 -1.209323031234e-03 
-1.526588308959e-04 -1.278274148856e-05 0.0 
-1.278274148856e-05 7.096255753314e-04 0.0 
0.0 0.0 -1.515181680101e-04 
-1.197635794990e-03 -1.679642684386e-05 0.0 
-1.679642684386e-05 8.038463106289e-03 0.0 
0.0 0.0 -1.199992767657e-03 
-8.372255126925e-04 -1.581405743953e-06 0.0 
-1.581405743953e-06 5.516497338344e-03 0.0 
0.0 0.0 -8.371571859873e-04 
-1.098991945020e-04 -3.154449405104e-05 0.0 
-3.154449405104e-05 5.330743413541e-04 0.0 
0.0 0.0 -1.134605161963e-04 
-7.981850025034e-04 -4.161080113950e-07 0.0 
-4.161080113950e-07 5.308479178574e-03 0.0 
0.0 0.0 -8.070151920887e-04 
-8.429634412097e-04 -1.709371110809e-06 0.0 
-1.709371110809e-06 5.581100165216e-03 0.0 
0.0 0.0 -8.451615393777e-04 
-7.696584184700e-04 -4.438777502839e-06 0.0 
-4.438777502839e-06 5.046252634616e-03 0.0 
0.0 0.0 -7.748096441827e-04 
-3.107010397172e-04 9.959927229299e-06 0.0 
9.959927229299e-06 1.894638977858e-03 0.0 
0.0 0.0 -3.155299188714e-04 
-8.095068364426e-04 -1.064416675758e-05 0.0 
-1.064416675758e-05 5.359424365734e-03 0.0 
0.0 0.0 -8.174106193842e-04 
-8.516632903957e-04 -1.548663215885e-05 0.0 
-1.548663215885e-05 5.659882039523e-03 0.0 
0.0 0.0 -8.556612431672e-04 
-1.454483653541e-04 3.285604104460e-06 0.0 
3.285604104460e-06 7.139538730244e-04 0.0 
0.0 0.0 -1.421329337195e-04 
-1.249632985061e-03 3.450770483262e-06 0.0 
3.450770483262e-06 8.450128189206e-03 0.0 
0.0 0.0 -1.259301554906e-03 
-1.652376678941e-04 -1.286666981350e-05 0.0 
-1.286666981350e-05 7.455520390207e-04 0.0 
0.0 0.0 -1.556443337539e-04 
-1.771144640534e-04 -1.673852043284e-05 0.0 
-1.673852043284e-05 9.409763732997e-04 0.0 
0.0 0.0 -1.806578101979e-04 
-1.211541890789e-03 1.467961613667e-05 0.0 
1.467961613667e-05 8.216069586299e-03 0.0 
0.0 0.0 -1.221214701962e-03 
-1.182137557378e-03 -1.347893005093e-06 0.0 
-1.347893005093e-06 7.946617508211e-03 0.0 
0.0 0.0 -1.184344882880e-03 
-1.248636598491e-03 -6.710766209692e-06 0.0 
-6.710766209692e-06 8.399111666310e-03 0.0 
0.0 0.0 -1.247726601234e-03 
-1.216304493113e-03 1.376146948642e-05 0.0 
1.376146948642e-05 8.121468603000e-03 0.0 
0.0 0.0 -1.211018817991e-03 
-1.146160367712e-03 -4.978228076892e-06 0.0 
-4.978228076892e-06 7.680298396241e-03 0.0 
0.0 0.0 -1.147066289601e-03 
-1.174333499691e-03 6.447300312268e-06 0.0 
6.447300312268e-06 7.890872304648e-03 0.0 
0.0 0.0 -1.176490610025e-03 
-8.022613359355e-04 -1.465561338710e-05 0.0 
-1.465561338710e-05 5.265642214057e-03 0.0 
0.0 0.0 -7.985989294648e-04 
-1.243628943204e-03 1.764986030868e-05 0.0 
1.764986030868e-05 8.400828657624e-03 0.0 
0.0 0.0 -1.249018369598e-03 
-1.202560827820e-03 4.472912903621e-06 0.0 
4.472912903621e-06 8.095627160272e-03 0.0 
0.0 0.0 -1.207442871744e-03 
-1.280707394095e-03 9.871433926351e-06 0.0 
9.871433926351e-06 8.646120131381e-03 0.0 
0.0 0.0 -1.277927415301e-03 
-6.139046463498e-04 4.062295408107e-06 0.0 
4.062295408107e-06 3.949909662933e-03 0.0 
0.0 0.0 -6.108003466767e-04 
-4.855763441254e-04 3.057596715552e-06 0.0 
3.057596715552e-06 3.031592722143e-03 0.0 
0.0 0.0 -4.789358348571e-04 
-4.592668061051e-04 2.643196690510e-06 0.0 
2.643196690510e-06 2.831145132009e-03 0.0 
0.0 0.0 -4.527251363391e-04 
-3.939664762502e-04 4.015896243431e-05 0.0 
4.015896243431e-05 2.394779108390e-03 0.0 
0.0 0.0 -3.875663759467e-04 
-1.235451159508e-03 5.414867173208e-06 0.0 
5.414867173208e-06 8.338545045283e-03 0.0 
0.0 0.0 -1.240180566941e-03 
-1.197541601819e-03 2.184484790426e-05 0.0 
2.184484790426e-05 8.058909055166e-03 0.0 
0.0 0.0 -1.200590015451e-03 
-1.087867486780e-03 1.085013592536e-06 0.0 
1.085013592536e-06 7.270465583492e-03 0.0 
0.0 0.0 -1.087555896896e-03 
-1.022984886136e-03 4.510930018279e-06 0.0 
4.510930018279e-06 6.802736585016e-03 0.0 
0.0 0.0 -1.020738973070e-03 
-8.163996236660e-04 7.186741062486e-06 0.0 
7.186741062486e-06 5.339991771102e-03 0.0 
0.0 0.0 -8.108182148135e-04 
-8.104965103200e-04 -8.251273631930e-06 0.0 
-8.251273631930e-06 5.308853861974e-03 0.0 
0.0 0.0 -8.077352941366e-04 
-8.720514006204e-04 3.179792081281e-05 0.0 
3.179792081281e-05 5.733381675574e-03 0.0 
0.0 0.0 -8.678526801547e-04 
-8.648510791426e-04 -7.111218047977e-06 0.0 
-7.111218047977e-06 5.661166370703e-03 0.0 
0.0 0.0 -8.609153521579e-04 
-9.263549734801e-04 3.033239231763e-05 0.0 
3.033239231763e-05 6.105443762298e-03 0.0 
0.0 0.0 -9.200517378055e-04 
-9.083479877114e-04 -1.416522287393e-05 0.0 
-1.416522287393e-05 6.036653926986e-03 0.0 
0.0 0.0 -9.108947733944e-04 
-9.698621139042e-04 -2.949214397537e-05 0.0 
-2.949214397537e-05 6.467199866666e-03 0.0 
0.0 0.0 -9.726914458129e-04 
-1.247222366311e-03 2.606056517105e-05 0.0 
2.606056517105e-05 8.375150940582e-03 0.0 
0.0 0.0 -1.245087786853e-03 
-3.186375953883e-04 9.254464651408e-06 0.0 
9.254464651408e-06 1.904578218722e-03 0.0 
0.0 0.0 -3.180830487989e-04 
-6.795655702328e-04 3.950407328760e-06 0.0 
3.950407328760e-06 4.416747400763e-03 0.0 
0.0 0.0 -6.783069842581e-04 
-1.217523867403e-03 -1.107710803929e-05 0.0 
-1.107710803929e-05 8.250220171501e-03 0.0 
0.0 0.0 -1.228261380050e-03 
-1.189954932966e-03 -3.389414248198e-06 0.0 
-3.389414248198e-06 7.976695802146e-03 0.0 
0.0 0.0 -1.187396807988e-03 
-6.030585832721e-04 2.040094254721e-06 0.0 
2.040094254721e-06 3.869813641297e-03 0.0 
0.0 0.0 -6.000944487132e-04 
-5.459736888774e-04 1.094222006431e-05 0.0 
1.094222006431e-05 3.457763009942e-03 0.0 
0.0 0.0 -5.401620014017e-04 
-1.244604975369e-03 1.395843640125e-05 0.0 
1.395843640125e-05 8.345755076324e-03 0.0 
0.0 0.0 -1.238794375355e-03 
-5.618086059147e-04 1.672788938571e-06 0.0 
1.672788938571e-06 3.593027472553e-03 0.0 
0.0 0.0 -5.600314934590e-04 
-1.295241739404e-03 -3.069672707254e-06 0.0 
-3.069672707254e-06 8.734931616820e-03 0.0 
0.0 0.0 -1.295459716840e-03 
-4.726518995237e-05 -5.619949717465e-06 0.0 
-5.619949717465e-06 2.661811301103e-04 0.0 
0.0 0.0 -5.690003420298e-05 
-1.291194022147e-04 1.153791065658e-05 0.0 
1.153791065658e-05 6.783732708889e-04 0.0 
0.0 0.0 -1.353443326634e-04 
-5.978702258073e-04 2.845759187998e-06 0.0 
2.845759187998e-06 3.846572588730e-03 0.0 
0.0 0.0 -5.969207367497e-04 
-6.645061217588e-04 1.210892726737e-06 0.0 
1.210892726737e-06 4.303380572845e-03 0.0 
0.0 0.0 -6.620222007989e-04 
-5.132181813278e-04 9.130074641216e-06 0.0 
9.130074641216e-06 3.278288147999e-03 0.0 
0.0 0.0 -5.157319100482e-04 
-4.860075133994e-04 2.990028342247e-06 0.0 
2.990028342247e-06 3.124396954495e-03 0.0 
0.0 0.0 -4.917183783407e-04 
-1.011317378684e-03 6.487621353879e-07 0.0 
6.487621353879e-07 6.733904614894e-03 0.0 
0.0 0.0 -1.010552660601e-03 
-1.970258742010e-04 -2.540004491898e-06 0.0 
-2.540004491898e-06 1.065332307301e-03 0.0 
0.0 0.0 -1.995083582888e-04 
-3.139166667020e-04 -2.253789274829e-06 0.0 
-2.253789274829e-06 1.850494599455e-03 0.0 
0.0 0.0 -3.106934562087e-04 
-9.732483420248e-04 2.855591412457e-05 0.0 
2.855591412457e-05 6.524849625929e-03 0.0 
0.0 0.0 -9.796923013958e-04 
-2.492954901946e-04 5.421975703899e-07 0.0 
5.421975703899e-07 1.421478567984e-03 0.0 
0.0 0.0 -2.487700610537e-04 
-1.054075874997e-03 3.591188931398e-06 0.0 
3.591188931398e-06 7.044165573929e-03 0.0 
0.0 0.0 -1.055800198362e-03 
-5.906078188001e-04 -3.257939390685e-06 0.0 
-3.257939390685e-06 3.796619652219e-03 0.0 
0.0 0.0 -5.891999696964e-04 
-7.180999395262e-04 1.178684334047e-07 0.0 
1.178684334047e-07 4.675154024113e-03 0.0 
0.0 0.0 -7.153500975001e-04 
-3.728153202837e-04 5.624284337173e-06 0.0 
5.624284337173e-06 2.280349559801e-03 0.0 
0.0 0.0 -3.721998919698e-04 
-5.103591414383e-04 -9.070033728056e-06 0.0 
-9.070033728056e-06 3.229749929793e-03 0.0 
0.0 0.0 -5.080103017801e-04 
-8.695833745558e-04 -3.060324942152e-06 0.0 
-3.060324942152e-06 5.711345853531e-03 0.0 
0.0 0.0 -8.638580894607e-04 
-8.186088136840e-04 -7.130242765285e-06 0.0 
-7.130242765285e-06 5.325410070609e-03 0.0 
0.0 0.0 -8.086477316853e-04 
-7.808475722582e-04 4.208348100211e-06 0.0 
4.208348100211e-06 5.088284712977e-03 0.0 
0.0 0.0 -7.738406155293e-04 
-6.192436331633e-04 -2.766602775267e-06 0.0 
-2.766602775267e-06 3.995359302638e-03 0.0 
0.0 0.0 -6.178822433291e-04 
-5.311490319336e-04 1.040423507352e-05 0.0 
1.040423507352e-05 3.373878795457e-03 0.0 
0.0 0.0 -5.288330985435e-04 
-4.650941372062e-04 3.123945634319e-06 0.0 
3.123945634319e-06 2.898874049441e-03 0.0 
0.0 0.0 -4.617239487405e-04 
-8.245081772930e-04 8.576273436613e-07 0.0 
8.576273436613e-07 5.414129368543e-03 0.0 
0.0 0.0 -8.213029907542e-04 
-1.107776256753e-03 4.822798209617e-06 0.0 
4.822798209617e-06 7.407183480602e-03 0.0 
0.0 0.0 -1.107475121065e-03 
-1.139123580733e-03 8.505935532769e-06 0.0 
8.505935532769e-06 7.608538315330e-03 0.0 
0.0 0.0 -1.136341617999e-03 
-1.199876040135e-03 -5.928463898231e-08 0.0 
-5.928463898231e-08 8.046533922637e-03 0.0 
0.0 0.0 -1.199268560344e-03 
-1.168168474149e-03 4.195650786351e-06 0.0 
4.195650786351e-06 7.812169121329e-03 0.0 
0.0 0.0 -1.164598082371e-03 
-1.102136352719e-03 2.455120919179e-06 0.0 
2.455120919179e-06 7.358887921961e-03 0.0 
0.0 0.0 -1.100413285504e-03 
-1.128466826395e-03 -6.206260029614e-06 0.0 
-6.206260029614e-06 7.555420673368e-03 0.0 
0.0 0.0 -1.129075729544e-03 
-1.196306272628e-03 1.070052804672e-05 0.0 
1.070052804672e-05 8.004295185816e-03 0.0 
0.0 0.0 -1.193594387005e-03 
-1.153224420722e-03 -4.335162698783e-08 0.0 
-4.335162698783e-08 7.767660328472e-03 0.0 
0.0 0.0 -1.159256375294e-03 
-1.235596637609e-03 -1.164422989244e-05 0.0 
-1.164422989244e-05 8.301735673801e-03 0.0 
0.0 0.0 -1.234286862126e-03 
-1.186419994292e-03 -1.475121185166e-05 0.0 
-1.475121185166e-05 7.963391228364e-03 0.0 
0.0 0.0 -1.187309181180e-03 
-1.120005548931e-03 2.940168057849e-06 0.0 
2.940168057849e-06 7.498615446152e-03 0.0 
0.0 0.0 -1.120864512401e-03 
-1.154875778754e-03 1.588860619796e-06 0.0 
1.588860619796e-06 7.686132635796e-03 0.0 
0.0 0.0 -1.147759711419e-03 
-1.213465252650e-03 -6.064802065587e-06 0.0 
-6.064802065587e-06 8.128624196229e-03 0.0 
0.0 0.0 -1.207767947030e-03 
-1.084932373400e-03 -2.016919157352e-06 0.0 
-2.016919157352e-06 7.235951787837e-03 0.0 
0.0 0.0 -1.082593982084e-03 
-1.254330692315e-03 -4.481726023153e-06 0.0 
-4.481726023153e-06 8.484172233715e-03 0.0 
0.0 0.0 -1.264544343569e-03 
-6.624416308103e-04 2.474610527068e-06 0.0 
2.474610527068e-06 4.298662523578e-03 0.0 
0.0 0.0 -6.621140475474e-04 
-1.785384896329e-04 7.817361308922e-06 0.0 
7.817361308922e-06 9.797346640556e-04 0.0 
0.0 0.0 -1.850918921636e-04 
-1.812548087705e-04 3.762529197936e-05 0.0 
3.762529197936e-05 9.321215546565e-04 0.0 
0.0 0.0 -1.767209935827e-04 
-7.539589003549e-04 1.955358916857e-06 0.0 
1.955358916857e-06 4.924010090496e-03 0.0 
0.0 0.0 -7.509174086159e-04 
-1.304930514548e-03 2.715145444445e-06 0.0 
2.715145444445e-06 8.760435441101e-03 0.0 
0.0 0.0 -1.299806302097e-03 
-1.304281806298e-03 1.236291441074e-07 0.0 
1.236291441074e-07 8.779429009152e-03 0.0 
0.0 0.0 -1.301753673823e-03 
-4.909194379315e-04 2.965411161768e-07 0.0 
2.965411161768e-07 3.101621980483e-03 0.0 
0.0 0.0 -4.895692906686e-04 
-1.302172698065e-03 -1.121402078097e-06 0.0 
-1.121402078097e-06 8.776859442822e-03 0.0 
0.0 0.0 -1.303413959896e-03 
-8.069978020622e-04 -2.494686579793e-06 0.0 
-2.494686579793e-06 5.276076784830e-03 0.0 
0.0 0.0 -8.012154088905e-04 
-3.570511327705e-04 3.379375906477e-06 0.0 
3.379375906477e-06 2.154968683645e-03 0.0 
0.0 0.0 -3.530685601169e-04 
-1.302556100553e-03 -9.155318300837e-06 0.0 
-9.155318300837e-06 8.779430224672e-03 0.0 
0.0 0.0 -1.304286792737e-03 
-1.070880273795e-03 7.212077137724e-06 0.0 
7.212077137724e-06 7.154951258216e-03 0.0 
0.0 0.0 -1.071440646998e-03 
-1.034235002280e-03 -1.284962224456e-06 0.0 
-1.284962224456e-06 6.899499474228e-03 0.0 
0.0 0.0 -1.034857077839e-03 
-1.003722632452e-03 2.735580280874e-06 0.0 
2.735580280874e-06 6.699806917378e-03 0.0 
0.0 0.0 -1.006057961993e-03 
-1.300150248326e-03 -1.392366785442e-05 0.0 
-1.392366785442e-05 8.797329976127e-03 0.0 
0.0 0.0 -1.305867370806e-03 
-9.260727886855e-04 3.160967958320e-07 0.0 
3.160967958320e-07 6.120955206479e-03 0.0 
0.0 0.0 -9.232948652302e-04 
-1.306196713142e-03 -8.296229578560e-06 0.0 
-8.296229578560e-06 8.804073325104e-03 0.0 
0.0 0.0 -1.306016332489e-03 
-9.052728605033e-04 -4.849094365272e-06 0.0 
-4.849094365272e-06 5.990555075409e-03 0.0 
0.0 0.0 -9.039903713831e-04 
-8.761060883680e-04 -1.507187481036e-06 0.0 
-1.507187481036e-06 5.787161046779e-03 0.0 
0.0 0.0 -8.747633066757e-04 
-8.116067085345e-04 -5.312091982631e-07 0.0 
-5.312091982631e-07 5.336659872116e-03 0.0 
0.0 0.0 -8.101682821885e-04 
-1.090435695547e-03 -5.471004820639e-06 0.0 
-5.471004820639e-06 7.297274492399e-03 0.0 
0.0 0.0 -1.092245366321e-03 
-1.304752605298e-03 5.119868144785e-06 0.0 
5.119868144785e-06 8.772978853590e-03 0.0 
0.0 0.0 -1.302677999426e-03 
-1.251945645214e-03 -2.706015879675e-06 0.0 
-2.706015879675e-06 8.407016214184e-03 0.0 
0.0 0.0 -1.248400714067e-03 
-1.246920299523e-03 -1.300681603293e-05 0.0 
-1.300681603293e-05 8.402409073512e-03 0.0 
0.0 0.0 -1.248426544684e-03 
-1.200536970879e-03 5.026882822928e-07 0.0 
5.026882822928e-07 8.002917905198e-03 0.0 
0.0 0.0 -1.189114855724e-03 
-1.300430795451e-03 -3.697458701872e-07 0.0 
-3.697458701872e-07 8.777742711435e-03 0.0 
0.0 0.0 -1.303398793257e-03 
-1.305040401458e-03 -2.477912411246e-06 0.0 
-2.477912411246e-06 8.792831145886e-03 0.0 
0.0 0.0 -1.306665994082e-03 
-1.309321026579e-03 -3.535422289683e-06 0.0 
-3.535422289683e-06 8.803291043654e-03 0.0 
0.0 0.0 -1.308500709484e-03 
-4.563282024571e-04 7.998262252195e-06 0.0 
7.998262252195e-06 2.871636865217e-03 0.0 
0.0 0.0 -4.564773689951e-04 
-4.946429183726e-04 2.495592359639e-06 0.0 
2.495592359639e-06 3.130328514227e-03 0.0 
0.0 0.0 -4.934415926888e-04 
-5.584596756046e-04 8.667542274345e-07 0.0 
8.667542274345e-07 3.577137698620e-03 0.0 
0.0 0.0 -5.576035839405e-04 
-5.302623041630e-04 -1.383760277083e-07 0.0 
-1.383760277083e-07 3.381956619872e-03 0.0 
0.0 0.0 -5.298816096007e-04 
-4.659671190879e-04 -4.163529231501e-07 0.0 
-4.163529231501e-07 2.931155601344e-03 0.0 
0.0 0.0 -4.652367627802e-04 
-5.016537237261e-04 2.063261409927e-06 0.0 
2.063261409927e-06 3.184734037305e-03 0.0 
0.0 0.0 -5.016361848483e-04 
-5.661735479295e-04 -1.745642799837e-06 0.0 
-1.745642799837e-06 3.632429034736e-03 0.0 
0.0 0.0 -5.657331850765e-04 
-4.736975024202e-04 4.166873871236e-06 0.0 
4.166873871236e-06 2.986059562016e-03 0.0 
0.0 0.0 -4.731795164401e-04 
-1.136859235010e-03 -3.377117996029e-07 0.0 
-3.377117996029e-07 7.623291641590e-03 0.0 
0.0 0.0 -1.138512926666e-03 
-1.305247072706e-03 8.619226715452e-06 0.0 
8.619226715452e-06 8.792398553622e-03 0.0 
0.0 0.0 -1.305779161548e-03 
-9.003036646772e-04 5.242872872448e-08 0.0 
5.242872872448e-08 5.967493708530e-03 0.0 
0.0 0.0 -9.007942405787e-04 
-8.714438606503e-04 -2.881495108046e-08 0.0 
-2.881495108046e-08 5.762779516703e-03 0.0 
0.0 0.0 -8.713600568839e-04 
-8.060291522058e-04 2.568870968060e-06 0.0 
2.568870968060e-06 5.307363937555e-03 0.0 
0.0 0.0 -8.059887332522e-04 
-6.767854044607e-04 -2.452778344729e-06 0.0 
-2.452778344729e-06 4.414816973838e-03 0.0 
0.0 0.0 -6.781883600425e-04 
-7.139648610369e-04 -1.142183076086e-06 0.0 
-1.142183076086e-06 4.673969170683e-03 0.0 
0.0 0.0 -7.153987595530e-04 
-7.802120795526e-04 -1.536270118745e-06 0.0 
-1.536270118745e-06 5.133033430624e-03 0.0 
0.0 0.0 -7.812419408864e-04 
-6.404629301344e-04 -4.612028746678e-06 0.0 
-4.612028746678e-06 4.156213633446e-03 0.0 
0.0 0.0 -6.407943132712e-04 
-9.874131908799e-04 -6.712457213211e-07 0.0 
-6.712457213211e-07 6.570776206516e-03 0.0 
0.0 0.0 -9.876394229526e-04 
-1.303361853095e-03 -8.460317239526e-06 0.0 
-8.460317239526e-06 8.788997264875e-03 0.0 
0.0 0.0 -1.305003056577e-03 
-8.872565026320e-04 -1.178797543573e-06 0.0 
-1.178797543573e-06 5.871190587017e-03 0.0 
0.0 0.0 -8.871663004355e-04 
-6.846436599198e-04 7.853769409709e-07 0.0 
7.853769409709e-07 4.472455721995e-03 0.0 
0.0 0.0 -6.865966444657e-04 
-7.539028914794e-04 -4.959050989123e-06 0.0 
-4.959050989123e-06 4.922681506756e-03 0.0 
0.0 0.0 -7.516786372745e-04 
-8.065421024266e-04 1.420005202741e-05 0.0 
1.420005202741e-05 5.322326400601e-03 0.0 
0.0 0.0 -8.094822736869e-04 
-8.086043951130e-04 -1.965516725366e-05 0.0 
-1.965516725366e-05 5.337498560082e-03 0.0 
0.0 0.0 -8.097394517040e-04 
-8.597670883848e-04 -1.890965562487e-05 0.0 
-1.890965562487e-05 5.752558822544e-03 0.0 
0.0 0.0 -8.733121467894e-04 
-8.092120706639e-04 -2.844643670808e-05 0.0 
-2.844643670808e-05 5.361887279047e-03 0.0 
0.0 0.0 -8.155917408702e-04 
-8.008122296240e-04 -3.960466263451e-06 0.0 
-3.960466263451e-06 5.274822743462e-03 0.0 
0.0 0.0 -8.015266587451e-04 
-8.309313177437e-04 -3.374628280102e-06 0.0 
-3.374628280102e-06 5.475720121039e-03 0.0 
0.0 0.0 -8.302790088839e-04 
-7.940624788884e-04 8.919203165535e-07 0.0 
8.919203165535e-07 5.224020544311e-03 0.0 
0.0 0.0 -7.937858958383e-04 
-8.582675862212e-04 -3.216784494388e-06 0.0 
-3.216784494388e-06 5.673950666655e-03 0.0 
0.0 0.0 -8.590670690980e-04 
-8.174868470622e-04 -1.134099850245e-05 0.0 
-1.134099850245e-05 5.408679153658e-03 0.0 
0.0 0.0 -8.213578559547e-04 
-7.534944197864e-04 -1.238974191223e-05 0.0 
-1.238974191223e-05 4.986891128186e-03 0.0 
0.0 0.0 -7.608744282309e-04 
-8.810221771506e-04 -8.901330273927e-06 0.0 
-8.901330273927e-06 5.862708610279e-03 0.0 
0.0 0.0 -8.866101721103e-04 
-8.418977428013e-04 7.461726785173e-06 0.0 
7.461726785173e-06 5.581554122099e-03 0.0 
0.0 0.0 -8.437388122980e-04 
-7.467365547974e-04 -1.323074519904e-05 0.0 
-1.323074519904e-05 4.916042254111e-03 0.0 
0.0 0.0 -7.509531518293e-04 
-6.281984343026e-05 -8.116789961930e-06 0.0 
-8.116789961930e-06 3.039228182762e-04 0.0 
0.0 0.0 -5.875963060191e-05 
-1.355333239518e-04 1.033404853999e-05 0.0 
1.033404853999e-05 6.720001517331e-04 0.0 
0.0 0.0 -1.336704791874e-04 
-1.282422711095e-04 -8.546555161091e-06 0.0 
-8.546555161091e-06 6.602474725937e-04 0.0 
0.0 0.0 -1.318084371690e-04 
-1.928083139696e-04 -4.221005670817e-06 0.0 
-4.221005670817e-06 1.041957248050e-03 0.0 
0.0 0.0 -1.954650243430e-04 
-2.029746956204e-04 1.944205005125e-05 0.0 
1.944205005125e-05 1.074330231207e-03 0.0 
0.0 0.0 -1.996745964068e-04 
-2.516532851573e-04 2.529704688843e-06 0.0 
2.529704688843e-06 1.468491691138e-03 0.0 
0.0 0.0 -2.586654344069e-04 
-2.430663838691e-04 -2.535368885229e-05 0.0 
-2.535368885229e-05 1.426461466079e-03 0.0 
0.0 0.0 -2.494736616194e-04 
-1.355920943443e-04 -1.133959606156e-05 0.0 
-1.133959606156e-05 6.743890404386e-04 0.0 
0.0 0.0 -1.329747880817e-04 
-5.916993316135e-05 -2.320129164534e-06 0.0 
-2.320129164534e-06 2.981065881978e-04 0.0 
0.0 0.0 -5.794854899120e-05 
-1.308876834567e-04 2.474427720982e-06 0.0 
2.474427720982e-06 6.544145800914e-04 0.0 
0.0 0.0 -1.315689628225e-04 
-5.700489183936e-05 1.676517162921e-06 0.0 
1.676517162921e-06 2.920832994483e-04 0.0 
0.0 0.0 -5.719792189481e-05 
-1.267870388794e-04 3.184293719907e-07 0.0 
3.184293719907e-07 6.426508649646e-04 0.0 
0.0 0.0 -1.299421249981e-04 
-1.994525793344e-04 4.316150581238e-06 0.0 
4.316150581238e-06 1.086316860704e-03 0.0 
0.0 0.0 -2.038865569970e-04 
-2.958463202673e-04 -2.325840138199e-07 0.0 
-2.325840138199e-07 1.726726422813e-03 0.0 
0.0 0.0 -2.925150634556e-04 
-1.301927001702e-03 1.803371535176e-05 0.0 
1.803371535176e-05 8.724914391627e-03 0.0 
0.0 0.0 -1.294874803588e-03 
-6.623633125061e-04 4.679424212470e-06 0.0 
4.679424212470e-06 4.281040174428e-03 0.0 
0.0 0.0 -6.595503360071e-04 
-6.354861751500e-04 1.876466608711e-05 0.0 
1.876466608711e-05 4.076331016795e-03 0.0 
0.0 0.0 -6.264797819744e-04 
-5.600446600074e-04 1.786449294601e-05 0.0 
1.786449294601e-05 3.606391450714e-03 0.0 
0.0 0.0 -5.641716646261e-04 
-6.018396249447e-04 -5.225124560815e-06 0.0 
-5.225124560815e-06 3.865969919156e-03 0.0 
0.0 0.0 -5.974662984275e-04 
-6.971605018600e-04 2.093612217768e-05 0.0 
2.093612217768e-05 4.459125829408e-03 0.0 
0.0 0.0 -6.865721209800e-04 
-5.253766316691e-04 1.379974747341e-05 0.0 
1.379974747341e-05 3.365120840458e-03 0.0 
0.0 0.0 -5.286920563404e-04 
-4.997160733495e-04 2.272416899081e-05 0.0 
2.272416899081e-05 3.215754431319e-03 0.0 
0.0 0.0 -5.038291843518e-04 
-6.458044435335e-05 -2.268465343287e-06 0.0 
-2.268465343287e-06 3.061057402813e-04 0.0 
0.0 0.0 -5.826474687103e-05 
-1.365107396446e-04 -1.511681688150e-05 0.0 
-1.511681688150e-05 6.671209083265e-04 0.0 
0.0 0.0 -1.338235891287e-04 
-1.329944671514e-04 1.728312419841e-05 0.0 
1.728312419841e-05 6.296869018316e-04 0.0 
0.0 0.0 -1.329549719063e-04 
-2.100970973320e-04 9.757108246001e-06 0.0 
9.757108246001e-06 1.064616598962e-03 0.0 
0.0 0.0 -1.976702944042e-04 
-1.907673612492e-04 -8.037251829827e-06 0.0 
-8.037251829827e-06 1.054607848416e-03 0.0 
0.0 0.0 -1.960684762570e-04 
-1.291399276806e-04 5.589927262183e-07 0.0 
5.589927262183e-07 6.717799826529e-04 0.0 
0.0 0.0 -1.329856363161e-04 
-1.332115243410e-04 1.116366171220e-05 0.0 
1.116366171220e-05 6.698553752902e-04 0.0 
0.0 0.0 -1.328726424774e-04 
-6.123018265424e-05 -2.226991271334e-06 0.0 
-2.226991271334e-06 2.966407899736e-04 0.0 
0.0 0.0 -5.786540529839e-05 
-1.318562850821e-04 -3.804233771788e-06 0.0 
-3.804233771788e-06 6.638255964620e-04 0.0 
0.0 0.0 -1.308611123410e-04 
-1.930153503724e-04 1.076682971486e-05 0.0 
1.076682971486e-05 1.064256298509e-03 0.0 
0.0 0.0 -1.994574706984e-04 
-5.202007941151e-05 -5.137534308526e-06 0.0 
-5.137534308526e-06 2.737802621695e-04 0.0 
0.0 0.0 -5.534513975842e-05 
-1.060096701056e-03 -2.854203109810e-05 0.0 
-2.854203109810e-05 7.080511066382e-03 0.0 
0.0 0.0 -1.060427308513e-03 
-1.101245431622e-03 -2.265554676241e-05 0.0 
-2.265554676241e-05 7.326835296988e-03 0.0 
0.0 0.0 -1.097082233180e-03 
-1.303771853134e-03 -3.955883839532e-06 0.0 
-3.955883839532e-06 8.773017437093e-03 0.0 
0.0 0.0 -1.300897016293e-03 
-7.525731418622e-04 -2.553654618204e-05 0.0 
-2.553654618204e-05 4.964909214712e-03 0.0 
0.0 0.0 -7.584009903415e-04 
-5.671099606197e-05 2.025225744353e-06 0.0 
2.025225744353e-06 2.971089711715e-04 0.0 
0.0 0.0 -5.884959645353e-05 
-1.296052575560e-03 -1.034030830046e-06 0.0 
-1.034030830046e-06 8.715505616406e-03 0.0 
0.0 0.0 -1.292107529982e-03 
-1.300241625373e-03 -1.196764903617e-05 0.0 
-1.196764903617e-05 8.782711832524e-03 0.0 
0.0 0.0 -1.303172775453e-03 
-1.297505069925e-03 9.380535181792e-06 0.0 
9.380535181792e-06 8.784349503541e-03 0.0 
0.0 0.0 -1.304823151597e-03 
-1.190737660973e-03 8.854859890109e-06 0.0 
8.854859890109e-06 7.990764728896e-03 0.0 
0.0 0.0 -1.191058493115e-03 
-1.217720710694e-03 3.907545697900e-06 0.0 
3.907545697900e-06 8.218811643119e-03 0.0 
0.0 0.0 -1.224322658093e-03 
-1.301588133362e-03 5.941663257033e-06 0.0 
5.941663257033e-06 8.722214772172e-03 0.0 
0.0 0.0 -1.294569364341e-03 
-4.491538872292e-04 3.425462149105e-06 0.0 
3.425462149105e-06 2.829494640627e-03 0.0 
0.0 0.0 -4.512809064328e-04 
-1.219121534789e-03 1.093707084892e-05 0.0 
1.093707084892e-05 8.264877250953e-03 0.0 
0.0 0.0 -1.225740639889e-03 
-1.181600644536e-03 2.602984545223e-06 0.0 
2.602984545223e-06 7.898254142128e-03 0.0 
0.0 0.0 -1.178628832109e-03 
-3.271245572877e-04 -7.559619564853e-07 0.0 
-7.559619564853e-07 1.969290585494e-03 0.0 
0.0 0.0 -3.268383546744e-04 
-4.353641825211e-04 2.390544681031e-06 0.0 
2.390544681031e-06 2.735090082528e-03 0.0 
0.0 0.0 -4.373623857420e-04 
-9.887113880157e-04 2.647202920691e-06 0.0 
2.647202920691e-06 6.590846789922e-03 0.0 
0.0 0.0 -9.899674718230e-04 
-9.119629022756e-04 -1.217041315454e-06 0.0 
-1.217041315454e-06 6.048161892543e-03 0.0 
0.0 0.0 -9.123979313600e-04 
-1.130689760044e-03 -2.404858458420e-06 0.0 
-2.404858458420e-06 7.563292742476e-03 0.0 
0.0 0.0 -1.130390451587e-03 
-9.324694232768e-04 5.707369417895e-08 0.0 
5.707369417895e-08 6.185987888161e-03 0.0 
0.0 0.0 -9.322225209316e-04 
-1.071273223037e-03 -3.400166334340e-06 0.0 
-3.400166334340e-06 7.166794807332e-03 0.0 
0.0 0.0 -1.073123358692e-03 
-1.246132006402e-03 2.306789458164e-05 0.0 
2.306789458164e-05 8.374889379432e-03 0.0 
0.0 0.0 -1.244129926109e-03 
-2.805652380377e-04 -4.717906580370e-06 0.0 
-4.717906580370e-06 1.732830044642e-03 0.0 
0.0 0.0 -2.939217362394e-04 
-9.366102056304e-04 6.334636788504e-06 0.0 
6.334636788504e-06 6.210934504197e-03 0.0 
0.0 0.0 -9.364826870394e-04 
-9.120035044512e-04 6.559904903544e-06 0.0 
6.559904903544e-06 6.042070421320e-03 0.0 
0.0 0.0 -9.130351872960e-04 
-1.076387052139e-03 -3.360138210610e-06 0.0 
-3.360138210610e-06 7.184148688862e-03 0.0 
0.0 0.0 -1.075939795031e-03 
-4.728102684627e-04 -4.847791376242e-06 0.0 
-4.847791376242e-06 2.971951481931e-03 0.0 
0.0 0.0 -4.709579147287e-04 
-7.280869989337e-04 -1.354131871897e-05 0.0 
-1.354131871897e-05 4.780585004203e-03 0.0 
0.0 0.0 -7.304257169629e-04 
-3.156217836785e-04 -5.089469505305e-06 0.0 
-5.089469505305e-06 1.850033331779e-03 0.0 
0.0 0.0 -3.104331955072e-04 
-1.248490279357e-03 4.323593742206e-06 0.0 
4.323593742206e-06 8.417241528006e-03 0.0 
0.0 0.0 -1.251461238623e-03 
-7.622164195474e-04 2.744443297155e-08 0.0 
2.744443297155e-08 4.979735740211e-03 0.0 
0.0 0.0 -7.590395520047e-04 
-7.692339302932e-04 1.865673827942e-06 0.0 
1.865673827942e-06 5.052106796517e-03 0.0 
0.0 0.0 -7.694287042311e-04 
-6.089514047186e-04 -2.827610219257e-06 0.0 
-2.827610219257e-06 3.952389816829e-03 0.0 
0.0 0.0 -6.120242822960e-04 
-4.863994982411e-04 4.620884363832e-06 0.0 
4.620884363832e-06 3.095071946727e-03 0.0 
0.0 0.0 -4.894362539292e-04 
-4.085285658609e-04 2.731393984732e-06 0.0 
2.731393984732e-06 2.545768838986e-03 0.0 
0.0 0.0 -4.100935076628e-04 
-6.992575820324e-04 4.870514854636e-06 0.0 
4.870514854636e-06 4.559959934010e-03 0.0 
0.0 0.0 -6.990242139688e-04 
-7.223263303115e-04 1.302313524923e-06 0.0 
1.302313524923e-06 4.731940689569e-03 0.0 
0.0 0.0 -7.237531747479e-04 
-1.024699739881e-03 1.653915686908e-06 0.0 
1.653915686908e-06 6.828723699735e-03 0.0 
0.0 0.0 -1.024340108609e-03 
-1.114669738223e-03 -2.759101931811e-06 0.0 
-2.759101931811e-06 7.438940293733e-03 0.0 
0.0 0.0 -1.112552678551e-03 
-7.837510010112e-05 1.769113863607e-05 0.0 
1.769113863607e-05 3.475076993490e-04 0.0 
0.0 0.0 -7.176178390651e-05 
-1.061119640742e-03 3.173187948495e-06 0.0 
3.173187948495e-06 7.087064478518e-03 0.0 
0.0 0.0 -1.061672265243e-03 
-8.547259828446e-04 -2.557127369416e-07 0.0 
-2.557127369416e-07 5.648936137093e-03 0.0 
0.0 0.0 -8.552253422611e-04 
-9.623974161653e-04 3.311768495871e-06 0.0 
3.311768495871e-06 6.381924133008e-03 0.0 
0.0 0.0 -9.599091010803e-04 
-1.065648191468e-03 -5.923271574244e-06 0.0 
-5.923271574244e-06 7.096345784584e-03 0.0 
0.0 0.0 -1.062640036239e-03 
-2.783998705011e-04 -2.298480854765e-06 0.0 
-2.298480854765e-06 1.715267207971e-03 0.0 
0.0 0.0 -2.909097700217e-04 
-1.100348444179e-03 -1.047118262863e-06 0.0 
-1.047118262863e-06 7.347575470432e-03 0.0 
0.0 0.0 -1.098747615487e-03 
-1.217488030174e-03 6.848117353236e-06 0.0 
6.848117353236e-06 8.139341092548e-03 0.0 
0.0 0.0 -1.212453547082e-03 
-8.838417845426e-04 -2.547521654431e-05 0.0 
-2.547521654431e-05 5.856172789859e-03 0.0 
0.0 0.0 -8.875094802107e-04 
-2.462642296247e-04 -5.029644419068e-06 0.0 
-5.029644419068e-06 1.395111957816e-03 0.0 
0.0 0.0 -2.442495876194e-04 
-8.759046619095e-04 5.034941322772e-06 0.0 
5.034941322772e-06 5.740576630140e-03 0.0 
0.0 0.0 -8.692469099983e-04 
-1.203793389362e-03 4.534763565553e-06 0.0 
4.534763565553e-06 8.059936526887e-03 0.0 
0.0 0.0 -1.202705989510e-03 
-1.079080060508e-03 -5.136331410960e-07 0.0 
-5.136331410960e-07 7.205755043523e-03 0.0 
0.0 0.0 -1.078220320736e-03 
-4.314372885713e-04 -1.108621221044e-05 0.0 
-1.108621221044e-05 2.708353444584e-03 0.0 
0.0 0.0 -4.336020471383e-04 
-7.948364969142e-04 -2.495821117444e-06 0.0 
-2.495821117444e-06 5.224923007330e-03 0.0 
0.0 0.0 -7.943514531093e-04 
-7.442299034792e-04 7.080946299357e-07 0.0 
7.080946299357e-07 4.865637424934e-03 0.0 
0.0 0.0 -7.428158978947e-04 
-6.789224573103e-04 -9.062719812239e-06 0.0 
-9.062719812239e-06 4.471649261705e-03 0.0 
0.0 0.0 -6.865907729104e-04 
-1.214586438871e-03 8.024689911949e-06 0.0 
8.024689911949e-06 8.094834481891e-03 0.0 
0.0 0.0 -1.206557591227e-03 
-8.183792108392e-04 -4.169826119578e-07 0.0 
-4.169826119578e-07 5.384604412960e-03 0.0 
0.0 0.0 -8.172945450070e-04 
-1.123489439230e-03 6.695635103151e-06 0.0 
6.695635103151e-06 7.497291039553e-03 0.0 
0.0 0.0 -1.120054252910e-03 
-9.239887439884e-04 -3.012520915634e-06 0.0 
-3.012520915634e-06 6.128004255690e-03 0.0 
0.0 0.0 -9.240809108919e-04 
-4.625644487372e-04 -4.132620430702e-06 0.0 
-4.132620430702e-06 2.914638302916e-03 0.0 
0.0 0.0 -4.629711029823e-04 
-1.121328625940e-03 -6.182944165264e-06 0.0 
-6.182944165264e-06 7.491651595506e-03 0.0 
0.0 0.0 -1.118919378802e-03 
-7.755037056979e-04 -1.629710765724e-06 0.0 
-1.629710765724e-06 5.087191610180e-03 0.0 
0.0 0.0 -7.743986277066e-04 
-1.165062879850e-03 -3.169874330988e-06 0.0 
-3.169874330988e-06 7.809274989077e-03 0.0 
0.0 0.0 -1.164614768973e-03 
-1.031438669585e-03 -5.272017896759e-06 0.0 
-5.272017896759e-06 6.875819044251e-03 0.0 
0.0 0.0 -1.031533309622e-03 
-6.383681651354e-04 -1.646563539618e-06 0.0 
-1.646563539618e-06 4.132113027582e-03 0.0 
0.0 0.0 -6.375205594687e-04 
-1.120494149395e-03 -5.362450288203e-06 0.0 
-5.362450288203e-06 7.500323563236e-03 0.0 
0.0 0.0 -1.121170216299e-03 
-7.780649319143e-04 1.815637845543e-06 0.0 
1.815637845543e-06 5.106477756252e-03 0.0 
0.0 0.0 -7.773091661689e-04 
-1.101658644117e-03 9.961254279969e-07 0.0 
9.961254279969e-07 7.356355521752e-03 0.0 
0.0 0.0 -1.099429584637e-03 
-7.271456150642e-04 1.682914491918e-06 0.0 
1.682914491918e-06 4.735785920808e-03 0.0 
0.0 0.0 -7.240542973723e-04 
-9.053111554421e-04 -2.304698340662e-06 0.0 
-2.304698340662e-06 5.989601996014e-03 0.0 
0.0 0.0 -9.041109700986e-04 
-9.863008524358e-04 -3.464876425113e-06 0.0 
-3.464876425113e-06 6.537147458197e-03 0.0 
0.0 0.0 -9.824247929831e-04 
-8.612973840953e-04 -1.473763680939e-07 0.0 
-1.473763680939e-07 5.687311619382e-03 0.0 
0.0 0.0 -8.608216255090e-04 
-9.529955923155e-04 1.728497531751e-05 0.0 
1.728497531751e-05 6.336375010902e-03 0.0 
0.0 0.0 -9.534332399069e-04 
-1.092284604608e-03 2.589702392293e-06 0.0 
2.589702392293e-06 7.290468944473e-03 0.0 
0.0 0.0 -1.090315851396e-03 
-3.119597294079e-04 5.757369509239e-07 0.0 
5.757369509239e-07 1.828570008309e-03 0.0 
0.0 0.0 -3.071334217218e-04 
-5.718786607335e-04 -4.107371137152e-07 0.0 
-4.107371137152e-07 3.675898340669e-03 0.0 
0.0 0.0 -5.719042557127e-04 
-9.488327861295e-04 -5.202841950027e-06 0.0 
-5.202841950027e-06 6.331676782321e-03 0.0 
0.0 0.0 -9.536514739466e-04 
-1.157212024015e-03 -6.515732433126e-06 0.0 
-6.515732433126e-06 7.701144359915e-03 0.0 
0.0 0.0 -1.150585697120e-03 
-1.224312444037e-03 6.690841738719e-06 0.0 
6.690841738719e-06 8.269264616708e-03 0.0 
0.0 0.0 -1.229329624135e-03 
-6.820956806615e-04 3.615386019445e-06 0.0 
3.615386019445e-06 4.429302489243e-03 0.0 
0.0 0.0 -6.801182747099e-04 
-1.081664045678e-03 -5.547367653078e-06 0.0 
-5.547367653078e-06 7.227268260236e-03 0.0 
0.0 0.0 -1.081576975854e-03 
-1.187584404498e-03 2.370146928347e-06 0.0 
2.370146928347e-06 7.946791552093e-03 0.0 
0.0 0.0 -1.185355684152e-03 
-7.511569300737e-04 3.681739321960e-07 0.0 
3.681739321960e-07 4.931952546785e-03 0.0 
0.0 0.0 -7.524367508395e-04 
-3.356805227239e-04 3.379744479997e-06 0.0 
3.379744479997e-06 2.005119320146e-03 0.0 
0.0 0.0 -3.333104686742e-04 
-2.618377986137e-04 -2.555233257220e-06 0.0 
-2.555233257220e-06 1.542022096797e-03 0.0 
0.0 0.0 -2.654833071040e-04 
-5.104550227812e-04 2.453007206903e-06 0.0 
2.453007206903e-06 3.238650363468e-03 0.0 
0.0 0.0 -5.092532232582e-04 
-7.832353398933e-04 -9.887778154527e-09 0.0 
-9.887778154527e-09 5.137653853930e-03 0.0 
0.0 0.0 -7.817448632792e-04 
-8.173389799679e-04 -1.106611203690e-06 0.0 
-1.106611203690e-06 5.390375532825e-03 0.0 
0.0 0.0 -8.181699076276e-04 
-1.246124432281e-03 8.592622963370e-06 0.0 
8.592622963370e-06 8.369587963902e-03 0.0 
0.0 0.0 -1.242275372262e-03 
-1.107849420052e-03 -3.778759467000e-06 0.0 
-3.778759467000e-06 7.425444910215e-03 0.0 
0.0 0.0 -1.110186454522e-03 
-1.040708302916e-03 -6.884984211961e-06 0.0 
-6.884984211961e-06 6.941970815521e-03 0.0 
0.0 0.0 -1.040857148505e-03 
-1.527209700993e-04 7.546329121728e-06 0.0 
7.546329121728e-06 7.439800217049e-04 0.0 
0.0 0.0 -1.519369657486e-04 
-7.102565865705e-04 9.145208254839e-06 0.0 
9.145208254839e-06 4.653234839291e-03 0.0 
0.0 0.0 -7.126371066839e-04 
-1.135597595821e-03 -4.213475059661e-06 0.0 
-4.213475059661e-06 7.626732622695e-03 0.0 
0.0 0.0 -1.139074001596e-03 
-8.226822624900e-04 -1.510040807146e-06 0.0 
-1.510040807146e-06 5.420363658064e-03 0.0 
0.0 0.0 -8.223634564932e-04 
-1.130518051871e-03 1.404153544755e-06 0.0 
1.404153544755e-06 7.542933512680e-03 0.0 
0.0 0.0 -1.126725356868e-03 
-7.730615027956e-04 -9.222257900534e-07 0.0 
-9.222257900534e-07 5.135473060459e-03 0.0 
0.0 0.0 -7.817916451012e-04 
-1.247411460160e-03 -9.243273431591e-06 0.0 
-9.243273431591e-06 8.408376939559e-03 0.0 
0.0 0.0 -1.249754184115e-03 
-5.771690213087e-04 1.052821776229e-05 0.0 
1.052821776229e-05 3.703652171226e-03 0.0 
0.0 0.0 -5.757576642514e-04 
-1.170100609579e-03 -4.592953287663e-06 0.0 
-4.592953287663e-06 7.841109684677e-03 0.0 
0.0 0.0 -1.168790087466e-03 
-1.048740829087e-03 7.093154405142e-06 0.0 
7.093154405142e-06 6.993148920806e-03 0.0 
0.0 0.0 -1.047452346298e-03 
-5.261911269690e-04 1.909166490890e-06 0.0 
1.909166490890e-06 3.348024093927e-03 0.0 
0.0 0.0 -5.248669331578e-04 
-7.497340550746e-04 3.779029275090e-06 0.0 
3.779029275090e-06 4.910648048132e-03 0.0 
0.0 0.0 -7.498068730476e-04 
-1.245763281564e-03 6.672330238115e-06 0.0 
6.672330238115e-06 8.371772027766e-03 0.0 
0.0 0.0 -1.243807156011e-03 
-1.117703748533e-03 2.194090469607e-06 0.0 
2.194090469607e-06 7.455079503703e-03 0.0 
0.0 0.0 -1.114542488500e-03 
-9.240113812816e-04 -1.198482106941e-06 0.0 
-1.198482106941e-06 6.127698402996e-03 0.0 
0.0 0.0 -9.240346875991e-04 
-7.861216138727e-04 -9.318371199114e-07 0.0 
-9.318371199114e-07 5.164682558518e-03 0.0 
0.0 0.0 -7.856950878877e-04 
-6.177367695525e-04 -9.517786211573e-06 0.0 
-9.517786211573e-06 3.998918706787e-03 0.0 
0.0 0.0 -6.191377506773e-04 
-8.459389819467e-04 -1.995047945311e-06 0.0 
-1.995047945311e-06 5.590510800112e-03 0.0 
0.0 0.0 -8.467704336814e-04 
-9.417404110639e-04 -4.713677469947e-06 0.0 
-4.713677469947e-06 6.237570578551e-03 0.0 
0.0 0.0 -9.395224721591e-04 
-1.301810218994e-03 1.765430740838e-06 0.0 
1.765430740838e-06 8.802491938361e-03 0.0 
0.0 0.0 -1.306889097489e-03 
-1.157353199815e-03 -3.220404905638e-06 0.0 
-3.220404905638e-06 7.685679656852e-03 0.0 
0.0 0.0 -1.148622835147e-03 
-9.680073786691e-04 -7.171826150583e-06 0.0 
-7.171826150583e-06 6.444265355765e-03 0.0 
0.0 0.0 -9.696660045843e-04 
-8.086257517039e-04 -2.588621595210e-06 0.0 
-2.588621595210e-06 5.331381971752e-03 0.0 
0.0 0.0 -8.097439408559e-04 
-9.758814597954e-04 -1.266881133520e-06 0.0 
-1.266881133520e-06 6.485358460050e-03 0.0 
0.0 0.0 -9.749840279683e-04 
-1.830817571470e-04 -6.180925807537e-06 0.0 
-6.180925807537e-06 1.047535156777e-03 0.0 
0.0 0.0 -1.970089232863e-04 
-6.448165884168e-04 4.844410112103e-06 0.0 
4.844410112103e-06 4.184395435775e-03 0.0 
0.0 0.0 -6.447622526173e-04 
-8.380376970069e-04 -3.326700526506e-06 0.0 
-3.326700526506e-06 5.530905952602e-03 0.0 
0.0 0.0 -8.382314227178e-04 
-5.380831595537e-04 5.638960694935e-07 0.0 
5.638960694935e-07 3.435054469080e-03 0.0 
0.0 0.0 -5.374563060555e-04 
-8.145911171393e-04 -5.272270294570e-07 0.0 
-5.272270294570e-07 5.360444702331e-03 0.0 
0.0 0.0 -8.136389561866e-04 
-1.227174802196e-03 1.276784792667e-05 0.0 
1.276784792667e-05 8.302917635780e-03 0.0 
0.0 0.0 -1.234277959947e-03 
-8.676280294557e-04 -2.040186177139e-06 0.0 
-2.040186177139e-06 5.731120870230e-03 0.0 
0.0 0.0 -8.668853676281e-04 
-6.021329393958e-04 -1.386838022326e-06 0.0 
-1.386838022326e-06 3.881394728410e-03 0.0 
0.0 0.0 -6.015264011954e-04 
-8.964491756309e-04 6.553805878159e-07 0.0 
6.553805878159e-07 5.929532426753e-03 0.0 
0.0 0.0 -8.955981815692e-04 
-5.512424861372e-04 -5.409275769173e-06 0.0 
-5.409275769173e-06 3.527258760375e-03 0.0 
0.0 0.0 -5.519888345566e-04 
-9.985595773763e-04 -1.015463228060e-05 0.0 
-1.015463228060e-05 6.646851321069e-03 0.0 
0.0 0.0 -9.983267706061e-04 
-9.215064714085e-04 1.407126120722e-07 0.0 
1.407126120722e-07 6.123536504565e-03 0.0 
0.0 0.0 -9.243533921793e-04 
-1.004433427129e-03 -6.175544373060e-06 0.0 
-6.175544373060e-06 6.679704057184e-03 0.0 
0.0 0.0 -1.003151257071e-03 
-2.014979142818e-04 -1.982424414306e-05 0.0 
-1.982424414306e-05 1.118628598720e-03 0.0 
0.0 0.0 -2.040322045631e-04 
-9.524490800155e-04 -1.599154771264e-06 0.0 
-1.599154771264e-06 6.321577882661e-03 0.0 
0.0 0.0 -9.517466134248e-04 
-1.151323095747e-03 8.970357597703e-06 0.0 
8.970357597703e-06 7.737810625971e-03 0.0 
0.0 0.0 -1.155419075730e-03 
-5.642242598448e-04 4.052530886118e-06 0.0 
4.052530886118e-06 3.629354201895e-03 0.0 
0.0 0.0 -5.654343806685e-04 
-8.430123869833e-04 1.789712430457e-06 0.0 
1.789712430457e-06 5.558821852331e-03 0.0 
0.0 0.0 -8.420324705410e-04 
-1.064235786948e-03 -6.087517053101e-06 0.0 
-6.087517053101e-06 7.102031703649e-03 0.0 
0.0 0.0 -1.063653581392e-03 
-4.868392782288e-04 -2.122282903202e-05 0.0 
-2.122282903202e-05 3.049667270729e-03 0.0 
0.0 0.0 -4.839843007303e-04 
-9.081670479201e-04 2.415755652887e-07 0.0 
2.415755652887e-07 6.014517114267e-03 0.0 
0.0 0.0 -9.074658271045e-04 
-1.068096740286e-03 -5.575043742402e-06 0.0 
-5.575043742402e-06 7.125147388201e-03 0.0 
0.0 0.0 -1.067288052377e-03 
-9.808487270250e-04 4.928616331384e-06 0.0 
4.928616331384e-06 6.520553626334e-03 0.0 
0.0 0.0 -9.801762873724e-04 
-8.470889807538e-04 7.350311736936e-07 0.0 
7.350311736936e-07 5.583629027931e-03 0.0 
0.0 0.0 -8.455731917576e-04 
-9.738610544212e-04 -1.605198629588e-06 0.0 
-1.605198629588e-06 6.476533283027e-03 0.0 
0.0 0.0 -9.738262179588e-04 
-5.107285056985e-04 1.726041735434e-05 0.0 
1.726041735434e-05 3.222108758113e-03 0.0 
0.0 0.0 -5.057041985798e-04 
-4.224983753940e-04 8.320492048848e-06 0.0 
8.320492048848e-06 2.639215696168e-03 0.0 
0.0 0.0 -4.238464704258e-04 
-3.592226638991e-04 1.930188485194e-06 0.0 
1.930188485194e-06 2.185168436497e-03 0.0 
0.0 0.0 -3.586180353125e-04 
-6.301304693072e-04 -1.957277653515e-06 0.0 
-1.957277653515e-06 4.076615728565e-03 0.0 
0.0 0.0 -6.294631353604e-04 
-1.103647244802e-03 -2.847244464937e-06 0.0 
-2.847244464937e-06 7.378786394117e-03 0.0 
0.0 0.0 -1.103081964739e-03 
-2.559482480597e-04 -2.299545213333e-05 0.0 
-2.299545213333e-05 1.449439224095e-03 0.0 
0.0 0.0 -2.521214004998e-04 
-1.054932560315e-03 -8.075575040893e-06 0.0 
-8.075575040893e-06 7.041307941420e-03 0.0 
0.0 0.0 -1.054898413167e-03 
-2.650995954687e-04 -9.741906018410e-06 0.0 
-9.741906018410e-06 1.540523614087e-03 0.0 
0.0 0.0 -2.660187670962e-04 
-5.941857965254e-04 -1.478675907496e-06 0.0 
-1.478675907496e-06 3.826673915507e-03 0.0 
0.0 0.0 -5.935709857392e-04 
-1.072876015775e-03 5.343583090757e-06 0.0 
5.343583090757e-06 7.192683716525e-03 0.0 
0.0 0.0 -1.077081564483e-03 
-9.321388457540e-04 -4.809931635802e-05 0.0 
-4.809931635802e-05 6.189086367178e-03 0.0 
0.0 0.0 -9.315431351609e-04 
-6.217808576270e-04 7.207492673147e-07 0.0 
7.207492673147e-07 4.019499781701e-03 0.0 
0.0 0.0 -6.211106552582e-04 
-3.980785928309e-04 9.124267879167e-06 0.0 
9.124267879167e-06 2.462820491612e-03 0.0 
0.0 0.0 -3.989951351066e-04 
-5.857792725331e-04 1.985647166887e-06 0.0 
1.985647166887e-06 3.767357559114e-03 0.0 
0.0 0.0 -5.850331209179e-04 
-9.112445775697e-04 1.341366700758e-06 0.0 
1.341366700758e-06 6.030641515549e-03 0.0 
0.0 0.0 -9.098959706900e-04 
-6.128747489382e-04 2.675469426563e-06 0.0 
2.675469426563e-06 3.959229262623e-03 0.0 
0.0 0.0 -6.124823626799e-04 
-5.756573688349e-04 3.659606376921e-06 0.0 
3.659606376921e-06 3.704306399129e-03 0.0 
0.0 0.0 -5.760838601101e-04 
-1.248717565768e-03 -5.535813130875e-06 0.0 
-5.535813130875e-06 8.366851373818e-03 0.0 
0.0 0.0 -1.242975171717e-03 
-6.019390184711e-04 5.185969946808e-06 0.0 
5.185969946808e-06 3.892334269077e-03 0.0 
0.0 0.0 -6.030381679152e-04 
-1.295271260153e-03 -1.307857609192e-05 0.0 
-1.307857609192e-05 8.801391727423e-03 0.0 
0.0 0.0 -1.305370344976e-03 
-1.297876901994e-03 -6.017750132337e-06 0.0 
-6.017750132337e-06 8.756844234735e-03 0.0 
0.0 0.0 -1.298405437673e-03 
-8.024513087945e-04 -3.501513188686e-05 0.0 
-3.501513188686e-05 5.274019348334e-03 0.0 
0.0 0.0 -7.997855503562e-04 
-4.254874939528e-04 2.211998048864e-05 0.0 
2.211998048864e-05 2.578130903576e-03 0.0 
0.0 0.0 -4.121418992062e-04 
-6.508445551723e-05 3.373963354786e-06 0.0 
3.373963354786e-06 3.129607731290e-04 0.0 
0.0 0.0 -6.767973558354e-05 
-4.292600751844e-04 -1.740584050413e-05 0.0 
-1.740584050413e-05 2.722306669060e-03 0.0 
0.0 0.0 -4.369243393394e-04 
-4.999202719491e-04 4.843301359549e-06 0.0 
4.843301359549e-06 3.182731173832e-03 0.0 
0.0 0.0 -5.013603847490e-04 
-1.049593438910e-03 4.881772467908e-07 0.0 
4.881772467908e-07 6.980157933883e-03 0.0 
0.0 0.0 -1.045752072333e-03 
-8.016418655660e-04 8.516902983695e-06 0.0 
8.516902983695e-06 5.282246051091e-03 0.0 
0.0 0.0 -8.029817139903e-04 
-4.608886666597e-04 1.012378092170e-05 0.0 
1.012378092170e-05 2.916090626050e-03 0.0 
0.0 0.0 -4.630712860745e-04 
-1.246806949158e-03 1.140227857429e-06 0.0 
1.140227857429e-06 8.413894031447e-03 0.0 
0.0 0.0 -1.250093291501e-03 
-1.307722546221e-03 -1.676098542474e-05 0.0 
-1.676098542474e-05 8.791128539895e-03 0.0 
0.0 0.0 -1.306737725957e-03 
-1.028575866269e-03 -1.191239422521e-05 0.0 
-1.191239422521e-05 6.846657277970e-03 0.0 
0.0 0.0 -1.028769680629e-03 
-1.163087821654e-03 1.345534459019e-05 0.0 
1.345534459019e-05 7.719562356736e-03 0.0 
0.0 0.0 -1.152835590205e-03 
-1.010012111677e-03 5.602799068574e-06 0.0 
5.602799068574e-06 6.735304706068e-03 0.0 
0.0 0.0 -1.010595862668e-03 
-1.192917845756e-03 -1.946426676376e-05 0.0 
-1.946426676376e-05 7.943592006894e-03 0.0 
0.0 0.0 -1.185717314024e-03 
-7.402744024553e-04 -5.561571203005e-05 0.0 
-5.561571203005e-05 4.875197844443e-03 0.0 
0.0 0.0 -7.451086181774e-04 
-1.274079564101e-04 8.533594738937e-07 0.0 
8.533594738937e-07 6.386951496409e-04 0.0 
0.0 0.0 -1.305770345747e-04 
-9.879127130266e-04 1.076817561927e-05 0.0 
1.076817561927e-05 6.567110452730e-03 0.0 
0.0 0.0 -9.879584850274e-04 
-3.534515362331e-04 7.236051672545e-06 0.0 
7.236051672545e-06 2.087202708593e-03 0.0 
0.0 0.0 -3.437331075899e-04 
-3.524709716392e-04 5.779652155075e-07 0.0 
5.779652155075e-07 2.140761807693e-03 0.0 
0.0 0.0 -3.524505972177e-04 
-2.862323044565e-04 -1.529779689611e-06 0.0 
-1.529779689611e-06 1.660184670344e-03 0.0 
0.0 0.0 -2.832406441101e-04 
-4.971401695179e-04 3.027225826669e-06 0.0 
3.027225826669e-06 3.086653370969e-03 0.0 
0.0 0.0 -4.856826860430e-04 
-1.849802147030e-04 7.362673378517e-06 0.0 
7.362673378517e-06 1.024898749324e-03 0.0 
0.0 0.0 -1.942844358666e-04 
-2.871589559832e-04 8.860091783219e-06 0.0 
8.860091783219e-06 1.702387296045e-03 0.0 
0.0 0.0 -2.888902821290e-04 
-1.252722980053e-03 -1.832850037119e-05 0.0 
-1.832850037119e-05 8.369674222349e-03 0.0 
0.0 0.0 -1.245112051941e-03 
-7.926742292647e-04 -4.732996368776e-05 0.0 
-4.732996368776e-05 5.282443543312e-03 0.0 
0.0 0.0 -8.050116406322e-04 
-1.106262153398e-03 -9.161465296467e-06 0.0 
-9.161465296467e-06 7.422861484469e-03 0.0 
0.0 0.0 -1.110409235593e-03 
-2.195876704695e-04 6.903728268407e-06 0.0 
6.903728268407e-06 1.223775342103e-03 0.0 
0.0 0.0 -2.210826640180e-04 
-1.251801969841e-03 -1.462670654940e-05 0.0 
-1.462670654940e-05 8.397461752409e-03 0.0 
0.0 0.0 -1.247366155457e-03 
-1.250359073208e-03 6.645071777190e-06 0.0 
6.645071777190e-06 8.395286537502e-03 0.0 
0.0 0.0 -1.246608778627e-03 
-1.310061522223e-03 -1.730900586737e-05 0.0 
-1.730900586737e-05 8.803293803047e-03 0.0 
0.0 0.0 -1.306249356034e-03 
-1.172119357565e-03 -2.987465004677e-06 0.0 
-2.987465004677e-06 7.878008992010e-03 0.0 
0.0 0.0 -1.176371721005e-03 
-2.180388128944e-04 -2.924544915677e-06 0.0 
-2.924544915677e-06 1.180274271759e-03 0.0 
0.0 0.0 -2.130604828246e-04 
-8.442593127821e-04 -4.359073983630e-05 0.0 
-4.359073983630e-05 5.668047935442e-03 0.0 
0.0 0.0 -8.603500797662e-04 
-1.256774464996e-03 -9.387217042972e-06 0.0 
-9.387217042972e-06 8.415646483150e-03 0.0 
0.0 0.0 -1.250827372426e-03 
-1.072962494745e-03 -3.075351322496e-06 0.0 
-3.075351322496e-06 7.220489030587e-03 0.0 
0.0 0.0 -1.080253149739e-03 
-1.299956315864e-03 5.907340655945e-05 0.0 
5.907340655945e-05 8.822006705032e-03 0.0 
0.0 0.0 -1.309985050881e-03 
-7.806106637019e-04 -1.684448248675e-06 0.0 
-1.684448248675e-06 5.212548371629e-03 0.0 
0.0 0.0 -7.979019438933e-04 
-1.254167562389e-03 1.146355027257e-05 0.0 
1.146355027257e-05 8.413941643761e-03 0.0 
0.0 0.0 -1.252774941638e-03 
-2.773224831107e-04 -1.248540399819e-05 0.0 
-1.248540399819e-05 1.578602427722e-03 0.0 
0.0 0.0 -2.737139294578e-04 
-1.253589576776e-03 1.816421682347e-05 0.0 
1.816421682347e-05 8.411285343410e-03 0.0 
0.0 0.0 -1.254166199180e-03 
-1.115104807484e-03 -2.535602796037e-06 0.0 
-2.535602796037e-06 7.430825592014e-03 0.0 
0.0 0.0 -1.110316242656e-03 
-8.788088159188e-04 2.953384655569e-05 0.0 
2.953384655569e-05 5.848517526204e-03 0.0 
0.0 0.0 -8.840149073763e-04 
-8.453655219936e-04 1.276109640112e-05 0.0 
1.276109640112e-05 5.644378390582e-03 0.0 
0.0 0.0 -8.570326279659e-04 
-1.251636506986e-03 8.563362149544e-06 0.0 
8.563362149544e-06 8.428656629745e-03 0.0 
0.0 0.0 -1.256337174517e-03 
-1.259327999631e-03 -2.468624830891e-05 0.0 
-2.468624830891e-05 8.412107540714e-03 0.0 
0.0 0.0 -1.249505442739e-03 
-1.752421740852e-04 1.599785091568e-05 0.0 
1.599785091568e-05 9.248205746742e-04 0.0 
0.0 0.0 -1.769373265848e-04 
-1.014009013286e-03 3.718452203742e-05 0.0 
3.718452203742e-05 6.827048883928e-03 0.0 
0.0 0.0 -1.024357608964e-03 
-6.037112023629e-04 -1.928016981804e-05 0.0 
-1.928016981804e-05 3.870166564208e-03 0.0 
0.0 0.0 -5.984289768806e-04 
-1.136473903534e-04 -2.305801768327e-05 0.0 
-2.305801768327e-05 5.992740239482e-04 0.0 
0.0 0.0 -1.205697443558e-04 
-1.256657915508e-03 3.816415809551e-05 0.0 
3.816415809551e-05 8.403684845898e-03 0.0 
0.0 0.0 -1.249521112489e-03 
-1.181297459508e-03 -1.601502097610e-06 0.0 
-1.601502097610e-06 7.855797415998e-03 0.0 
0.0 0.0 -1.172189067419e-03 
-1.260809781498e-03 3.729628833421e-05 0.0 
3.729628833421e-05 8.413738862441e-03 0.0 
0.0 0.0 -1.251863004148e-03 
-2.027346260532e-04 2.709152210168e-05 0.0 
2.709152210168e-05 1.045860090397e-03 0.0 
0.0 0.0 -1.953152674555e-04 
-1.282550990439e-04 1.596967550411e-05 0.0 
1.596967550411e-05 5.957593377885e-04 0.0 
0.0 0.0 -1.273034037094e-04 
-1.264740521524e-03 1.076136126608e-05 0.0 
1.076136126608e-05 8.488256231164e-03 0.0 
0.0 0.0 -1.258522865334e-03 
-1.257630123801e-03 7.011893020694e-06 0.0 
7.011893020694e-06 8.461160637007e-03 0.0 
0.0 0.0 -1.257106814994e-03 
-2.964921431859e-04 1.458101898901e-05 0.0 
1.458101898901e-05 1.817377003358e-03 0.0 
0.0 0.0 -3.034980657766e-04 
-1.315300675602e-03 -4.616213654092e-06 0.0 
-4.616213654092e-06 8.874722920157e-03 0.0 
0.0 0.0 -1.314710167832e-03 
-1.230668747668e-04 -1.081893831765e-05 0.0 
-1.081893831765e-05 5.709731362741e-04 0.0 
0.0 0.0 -1.229206800733e-04 
-7.274132408296e-04 6.183789390248e-06 0.0 
6.183789390248e-06 4.811004360547e-03 0.0 
0.0 0.0 -7.389643750272e-04 
-1.204537552605e-04 -1.859174322407e-05 0.0 
-1.859174322407e-05 6.217166808925e-04 0.0 
0.0 0.0 -1.247417965529e-04 
-1.299793796178e-03 -5.184403467026e-05 0.0 
-5.184403467026e-05 8.811604799613e-03 0.0 
0.0 0.0 -1.308531455474e-03 
-1.262934174837e-03 2.444499081752e-05 0.0 
2.444499081752e-05 8.445031740868e-03 0.0 
0.0 0.0 -1.254845750201e-03 
-6.580718270352e-04 3.721306501344e-05 0.0 
3.721306501344e-05 4.264446760778e-03 0.0 
0.0 0.0 -6.564513288157e-04 
-7.456337922437e-04 2.770990182635e-05 0.0 
2.770990182635e-05 4.941313475091e-03 0.0 
0.0 0.0 -7.541421605440e-04 
-4.450321519268e-04 1.831097352036e-05 0.0 
1.831097352036e-05 2.791375237210e-03 0.0 
0.0 0.0 -4.426424662127e-04 
-1.211596464916e-03 3.979318020067e-05 0.0 
3.979318020067e-05 8.090084984478e-03 0.0 
0.0 0.0 -1.203498912175e-03 
-1.699334618160e-04 1.120862622914e-05 0.0 
1.120862622914e-05 9.446237105804e-04 0.0 
0.0 0.0 -1.843356288727e-04 
-1.269994123481e-03 -1.450914975509e-05 0.0 
-1.450914975509e-05 8.504040731719e-03 0.0 
0.0 0.0 -1.260296891839e-03 
-1.268600913962e-03 -6.159942340755e-06 0.0 
-6.159942340755e-06 8.509424202183e-03 0.0 
0.0 0.0 -1.261416966621e-03 
-1.266492101745e-03 9.280004247674e-06 0.0 
9.280004247674e-06 8.502341661499e-03 0.0 
0.0 0.0 -1.260618436842e-03 
-1.320646394007e-03 1.164813461384e-06 0.0 
1.164813461384e-06 8.896090470956e-03 0.0 
0.0 0.0 -1.317725628150e-03 
-1.063917710965e-04 3.406664009707e-05 0.0 
3.406664009707e-05 5.707022560972e-04 0.0 
0.0 0.0 -1.219614697575e-04 
-1.271929683323e-03 -9.688594658062e-06 0.0 
-9.688594658062e-06 8.520583266263e-03 0.0 
0.0 0.0 -1.263090216482e-03 
-1.211976787312e-03 3.126546850388e-05 0.0 
3.126546850388e-05 8.084092320638e-03 0.0 
0.0 0.0 -1.202239909569e-03 
-7.453046702514e-04 4.651614229788e-05 0.0 
4.651614229788e-05 4.880400084605e-03 0.0 
0.0 0.0 -7.439744481034e-04 
-1.252851707889e-03 4.006401018330e-05 0.0 
4.006401018330e-05 8.422629498426e-03 0.0 
0.0 0.0 -1.252574368527e-03 
-5.410687361656e-04 2.769520936264e-05 0.0 
2.769520936264e-05 3.454688790362e-03 0.0 
0.0 0.0 -5.383891422301e-04 
-2.371733345551e-04 -4.470106712643e-05 0.0 
-4.470106712643e-05 1.418248240622e-03 0.0 
0.0 0.0 -2.492021827984e-04 
-1.298998890690e-03 -2.770464845181e-05 0.0 
-2.770464845181e-05 8.833071909488e-03 0.0 
0.0 0.0 -1.313490227100e-03 
-4.294380069032e-05 -4.186010349487e-06 0.0 
-4.186010349487e-06 2.320436162997e-04 0.0 
0.0 0.0 -5.297760877488e-05 
-7.470694764219e-04 -2.192265105751e-05 0.0 
-2.192265105751e-05 4.855390412225e-03 0.0 
0.0 0.0 -7.402411036050e-04 
-1.312354484328e-03 4.131093532365e-05 0.0 
4.131093532365e-05 8.846630708308e-03 0.0 
0.0 0.0 -1.313492844077e-03 
-2.211400451138e-04 -3.676306702309e-06 0.0 
-3.676306702309e-06 1.335213202641e-03 0.0 
0.0 0.0 -2.401910970206e-04 
-8.452827785452e-04 -2.606429286923e-05 0.0 
-2.606429286923e-05 5.603903241888e-03 0.0 
0.0 0.0 -8.489638187885e-04 
-1.255507124853e-03 -9.186014831588e-06 0.0 
-9.186014831588e-06 8.480922712531e-03 0.0 
0.0 0.0 -1.260211869575e-03 
-8.025976065576e-04 9.592064473731e-06 0.0 
9.592064473731e-06 5.261098351640e-03 0.0 
0.0 0.0 -7.986629621775e-04 
-1.151240916671e-03 -6.084869299023e-05 0.0 
-6.084869299023e-05 7.669030971500e-03 0.0 
0.0 0.0 -1.148445367820e-03 
-2.192829735373e-04 1.243334644933e-05 0.0 
1.243334644933e-05 1.310510961281e-03 0.0 
0.0 0.0 -2.379222736554e-04 
-3.921137447337e-05 -2.374603163355e-06 0.0 
-2.374603163355e-06 2.327919393127e-04 0.0 
0.0 0.0 -4.855001867800e-05 
-9.645913781641e-04 -4.083102734348e-05 0.0 
-4.083102734348e-05 6.424950689754e-03 0.0 
0.0 0.0 -9.668795991591e-04 
-1.266746155896e-03 3.603621751399e-05 0.0 
3.603621751399e-05 8.474273100537e-03 0.0 
0.0 0.0 -1.258714341260e-03 
-1.271487619191e-03 -1.652780192111e-05 0.0 
-1.652780192111e-05 8.532655002207e-03 0.0 
0.0 0.0 -1.263997700767e-03 
-9.164544161815e-04 3.965640940801e-05 0.0 
3.965640940801e-05 6.111358236627e-03 0.0 
0.0 0.0 -9.199601189493e-04 
-2.093975888614e-04 -4.665649638259e-05 0.0 
-4.665649638259e-05 1.197818786362e-03 0.0 
0.0 0.0 -2.164625706183e-04 
-1.227420417668e-03 9.834631553152e-06 0.0 
9.834631553152e-06 8.219790599597e-03 0.0 
0.0 0.0 -1.221038716794e-03 
-6.921621610821e-04 -2.719005194231e-06 0.0 
-2.719005194231e-06 4.614590635001e-03 0.0 
0.0 0.0 -7.060606045913e-04 
-1.222382248160e-03 -1.550215016824e-05 0.0 
-1.550215016824e-05 8.147929268757e-03 0.0 
0.0 0.0 -1.208939113964e-03 
-1.221146925072e-03 -7.968249279324e-06 0.0 
-7.968249279324e-06 8.100682442682e-03 0.0 
0.0 0.0 -1.203806565432e-03 
-5.670525863277e-05 -1.771698635756e-05 0.0 
-1.771698635756e-05 2.585053466943e-04 0.0 
0.0 0.0 -6.449378323916e-05 
-8.615762060500e-04 1.909652726141e-05 0.0 
1.909652726141e-05 5.665696184107e-03 0.0 
0.0 0.0 -8.562696210230e-04 
-1.225143862683e-04 -2.984290666861e-05 0.0 
-2.984290666861e-05 5.860977302170e-04 0.0 
0.0 0.0 -1.223049983750e-04 
-1.270837356719e-03 -1.933520143368e-05 0.0 
-1.933520143368e-05 8.510135783999e-03 0.0 
0.0 0.0 -1.263714160583e-03 
-7.340830126836e-04 -1.335821332731e-05 0.0 
-1.335821332731e-05 4.821918862365e-03 0.0 
0.0 0.0 -7.344436328926e-04 
-3.365637611374e-04 -1.953033103199e-05 0.0 
-1.953033103199e-05 2.395340660532e-03 0.0 
0.0 0.0 -3.859030858720e-04 
-3.974252423505e-04 -3.636312148892e-06 0.0 
-3.636312148892e-06 2.393351786518e-03 0.0 
0.0 0.0 -3.933333333333e-04 
-4.176772664277e-04 -3.650619160946e-05 0.0 
-3.650619160946e-05 2.860283649269e-03 0.0 
0.0 0.0 -4.526870748299e-04 
-4.632043610658e-04 -3.909792630531e-06 0.0 
-3.909792630531e-06 2.935876671509e-03 0.0 
0.0 0.0 -4.600000000000e-04 
-4.858491939109e-04 -3.571106393788e-05 0.0 
-3.571106393788e-05 3.331481419020e-03 0.0 
0.0 0.0 -5.192176870747e-04 
-5.307983311465e-04 -4.380846350984e-06 0.0 
-4.380846350984e-06 3.321472726831e-03 0.0 
0.0 0.0 -5.266666666667e-04 
-5.549907469666e-04 -3.829926739680e-05 0.0 
-3.829926739680e-05 3.794910893621e-03 0.0 
0.0 0.0 -5.860204081633e-04 
-5.953475250696e-04 7.629065543884e-06 0.0 
7.629065543884e-06 3.863201785318e-03 0.0 
0.0 0.0 -5.933333333333e-04 
-6.234948668458e-04 -3.482962657316e-05 0.0 
-3.482962657316e-05 4.267925272266e-03 0.0 
0.0 0.0 -6.525251918948e-04 
-6.733326468399e-04 3.722248756973e-05 0.0 
3.722248756973e-05 4.248015244343e-03 0.0 
0.0 0.0 -6.600000000000e-04 

SCALARS node_materi_plasti_kappa_shear float
LOOKUP_TABLE default
1.154246033666e-04
3.030366954187e-03
5.919693902231e-03
5.923852315190e-03
2.859947626271e-04
6.218445993993e-04
8.718334659108e-04
1.197083009525e-03
1.504800919970e-03
1.797006115044e-03
2.096281833338e-03
2.401455262769e-03
2.703248692656e-03
3.016765538726e-03
3.359027883223e-03
3.663996831824e-03
3.908074174929e-03
4.228433772035e-03
4.543227631705e-03
4.848753617487e-03
5.161467818816e-03
5.477271259315e-03
5.779376537800e-03
5.932061195851e-03
5.925336573631e-03
5.920984287690e-03
5.924407700450e-03
5.915528138253e-03
5.915864416857e-03
5.918097125373e-03
5.921994664725e-03
5.927387718192e-03
5.930449677587e-03
5.921712747723e-03
5.924515498722e-03
5.931743115084e-03
5.928847067526e-03
5.919544915052e-03
5.911436947506e-03
5.907167024861e-03
5.916691287179e-03
5.925466264875e-03
5.926352037367e-03
5.927462665333e-03
5.926179788313e-03
5.923807961778e-03
5.921183308973e-03
5.929039143344e-03
5.928617810733e-03
5.930983770204e-03
5.930261081197e-03
5.934897168252e-03
5.940412066917e-03
5.938845524630e-03
5.922011629466e-03
5.913355498151e-03
5.926067531878e-03
5.924785671547e-03
5.926499683681e-03
5.927876554226e-03
5.924703349372e-03
5.915717987273e-03
5.917408892843e-03
5.920280365368e-03
5.931958681328e-03
5.938110150403e-03
5.906803770761e-03
5.928713183382e-03
5.925023434437e-03
5.923453604397e-03
5.939442334280e-03
5.942268996102e-03
3.313640150810e-03
3.643609585951e-03
3.947542440608e-03
4.242858391353e-03
4.550358348147e-03
4.852089997296e-03
5.156894848885e-03
5.448757344777e-03
5.772918013305e-03
9.252120421733e-05
3.026620073330e-03
3.625369357502e-04
6.731817662417e-04
9.805698534579e-04
1.254524899220e-03
1.554489268384e-03
1.761739050222e-03
2.071596637440e-03
2.380436576739e-03
2.688785350789e-03
1.644361852971e-03
1.805240586308e-03
2.108589051748e-03
2.410886229173e-03
2.706771452633e-03
2.974381815992e-03
2.988250338395e-03
2.992834626340e-03
2.988540146830e-03
3.040036634150e-03
2.993658303481e-03
2.986565369329e-03
2.994325014933e-03
3.003444053817e-03
3.004893136958e-03
3.000286560446e-03
2.997851424533e-03
2.994316307864e-03
3.001824735141e-03
9.621576344537e-05
1.072789967255e-04
9.631852337867e-05
9.634646192605e-05
1.161697218308e-04
1.255618245920e-04
1.234927640208e-04
1.176143698925e-04
1.181040846592e-04
1.155364499888e-04
1.206715439587e-04
1.365993450730e-04
1.279414962217e-04
1.070815165248e-04
1.087456221067e-04
1.225517974272e-04
1.266454771602e-04
1.116507655708e-04
1.010315185056e-04
1.518851734939e-03
1.644635244290e-03
1.660298419287e-03
1.662286955040e-03
1.663723793726e-03
1.663069511788e-03
1.662413546332e-03
1.661314416327e-03
1.660871307165e-03
1.661284374280e-03
1.661835631304e-03
1.661981342352e-03
1.662008810633e-03
1.662050630831e-03
1.661999645319e-03
1.661663253473e-03
1.661048790843e-03
1.660490585856e-03
1.660204288143e-03
1.659299352966e-03
1.634626530046e-03
1.598626655327e-03
1.795031686062e-03
1.783773745531e-03
1.782623055880e-03
1.782626379155e-03
1.783057178786e-03
1.783727354425e-03
1.784306026727e-03
1.784380359053e-03
1.784248010391e-03
1.784368936443e-03
1.784509361012e-03
1.784222028420e-03
1.783208560618e-03
1.783225774654e-03
1.784136159459e-03
1.786530570038e-03
1.785403695648e-03
1.784867355603e-03
1.800532715687e-03
1.713377617146e-03
2.018704063446e-03
2.107896464569e-03
2.095467463099e-03
2.092115637880e-03
2.090444484697e-03
2.089262768386e-03
2.091381496790e-03
2.091935832999e-03
2.091701405459e-03
2.090782435672e-03
2.090851254199e-03
2.091553502457e-03
2.090833695651e-03
2.089930293994e-03
2.089391547646e-03
2.089200621047e-03
2.089561437809e-03
2.092034405906e-03
2.102852006717e-03
2.407656875407e-03
2.395972459848e-03
2.394599199124e-03
2.395531468110e-03
2.394981263883e-03
2.396176998543e-03
2.397491354676e-03
2.397714307114e-03
2.395585196249e-03
2.397789855342e-03
2.399172565538e-03
2.398368259276e-03
2.398547875961e-03
2.393984296182e-03
2.398022086534e-03
2.418470853755e-03
2.331238587604e-03
2.637929620288e-03
2.723228742168e-03
2.707307494023e-03
2.703362484179e-03
2.705380261164e-03
2.706672240760e-03
2.703116806963e-03
2.702772263136e-03
2.703136713816e-03
2.702441216446e-03
2.701188865917e-03
2.700451988879e-03
2.702758821159e-03
2.699325300696e-03
2.707024502910e-03
2.723902039593e-03
2.292941970270e-04
5.236807730249e-04
8.235808296834e-04
1.134523506932e-03
1.423638051930e-03
1.629703414510e-03
1.935057087960e-03
2.241665025770e-03
2.548701800634e-03
2.861688706248e-03
7.103606478164e-04
5.814911313878e-03
2.047918518275e-04
1.970502068753e-04
5.819197632046e-03
1.328946267278e-03
3.191329080053e-03
5.810273490245e-03
1.892382905539e-03
5.822030968612e-03
2.522985579042e-03
5.833950524206e-03
1.864247367510e-04
5.824179591591e-03
3.155514371104e-03
1.957918245127e-03
4.023649944342e-03
5.811714724389e-03
5.825466270030e-03
5.824996473377e-03
5.797525205523e-03
5.833870913862e-03
3.279705906600e-03
3.278932509466e-03
3.299538154266e-03
4.392988308338e-03
5.825782847880e-03
1.875803799628e-04
2.130243859940e-04
4.990941270632e-03
3.266764248665e-03
1.027578116983e-03
5.770593586357e-03
5.837121425949e-03
5.820649096206e-03
5.802522940311e-03
5.827315517430e-03
2.124904197991e-04
3.271394634805e-03
5.775055632193e-03
5.005410343617e-03
2.049450714895e-04
2.556345996281e-03
5.876876022666e-03
1.638575426776e-03
1.018536859922e-03
2.209222523540e-03
2.829980156742e-03
3.757872655430e-04
3.812034731290e-03
5.879774981020e-03
2.000834389720e-04
5.582228690945e-03
3.282968380463e-03
3.405879163641e-03
3.554924991576e-03
3.706761369563e-03
3.858428676321e-03
3.994172834541e-03
3.835090176788e-03
4.124628089981e-03
3.963011153955e-03
4.154617485841e-03
4.253890367715e-03
4.090560016023e-03
4.382096032079e-03
4.218726563058e-03
3.929419603329e-03
4.056695462337e-03
3.767499058174e-03
3.894823734663e-03
4.184913419616e-03
4.022005877425e-03
3.732190171091e-03
3.858313833382e-03
3.569562641982e-03
3.695377336778e-03
3.406514106271e-03
3.532562577704e-03
3.821712444257e-03
3.658737601044e-03
3.369644961438e-03
3.495886750392e-03
3.207187652528e-03
3.332149617847e-03
3.621982769517e-03
3.458496973122e-03
3.166845774337e-03
3.294707675905e-03
3.002130027116e-03
3.131260622861e-03
2.837304896117e-03
2.965670032421e-03
3.259556182238e-03
3.094478366317e-03
2.799648397582e-03
2.927396624230e-03
3.222929756525e-03
3.055408384458e-03
3.351641860097e-03
3.184131490321e-03
2.889094859221e-03
3.017387565719e-03
3.312807633971e-03
3.144807155985e-03
2.850539984923e-03
2.978148191045e-03
3.273453875391e-03
3.105701933788e-03
2.811118638057e-03
2.939152856274e-03
3.235930558971e-03
3.066878938369e-03
2.770729598448e-03
2.897992444106e-03
3.196676201024e-03
3.025458962526e-03
3.326539777395e-03
2.725836099392e-03
2.853445082624e-03
2.552546008883e-03
2.681203652163e-03
3.749361599789e-03
2.379164116958e-03
2.254416588919e-03
2.509143601858e-03
2.813194765712e-03
2.206243071564e-03
2.337199456257e-03
2.035089294135e-03
2.704627779472e-03
4.313057656759e-03
2.166880539926e-03
1.864421071359e-03
1.732868546084e-03
1.561342170473e-03
4.024498791055e-03
4.321449536869e-03
4.179690524695e-03
4.487558501959e-03
4.351378253477e-03
1.692293086120e-03
4.547507496043e-03
4.620310667296e-03
3.444574795783e-03
3.081228819560e-03
3.519317618785e-03
2.468789982299e-03
2.300880945692e-03
2.604574973058e-03
3.497581244636e-03
3.628764160508e-03
3.799698635942e-03
3.931379681523e-03
4.102448612731e-03
4.234588908537e-03
4.063072780301e-03
4.366751221426e-03
4.194735028229e-03
4.405545622725e-03
4.273365102485e-03
4.498318737704e-03
4.326379418243e-03
4.629602997623e-03
4.457503609016e-03
4.153929470569e-03
4.284864263683e-03
3.982884066866e-03
3.648745610141e-03
3.817193794493e-03
3.946719407469e-03
4.115926409861e-03
4.245574739592e-03
4.415539763342e-03
4.544399560802e-03
4.375426891281e-03
4.509920023172e-03
2.632653377112e-03
2.504948411976e-03
2.338614636793e-03
2.211400256376e-03
2.045332097660e-03
1.919061142858e-03
1.752635209565e-03
1.878513981748e-03
1.584910331352e-03
1.710339413602e-03
1.415942396810e-03
1.540924270131e-03
3.948384266438e-03
4.285218450736e-03
4.585788453075e-03
4.452548000313e-03
1.432045145505e-03
4.588120534621e-03
4.576656745919e-03
4.442906503729e-03
4.675416510747e-03
1.391840176144e-03
1.627976054006e-03
1.791438559949e-03
4.652375729059e-03
4.515073750359e-03
4.747734229222e-03
1.522378979602e-03
4.671085369189e-03
1.291851135584e-03
4.415253925120e-03
4.718848314431e-03
3.891705484867e-03
4.754278458359e-03
4.616084921715e-03
1.839848146906e-03
1.672605894671e-03
1.378135101855e-03
1.515420670763e-03
1.805900116599e-03
1.632448232839e-03
1.332653763525e-03
1.460848178870e-03
1.759405537371e-03
1.587950129179e-03
1.285510927899e-03
1.415480434626e-03
4.891516996896e-03
1.121510096864e-03
3.641366942474e-03
4.879243427220e-03
4.841045972056e-03
4.817221487039e-03
4.680859314151e-03
4.376749942027e-03
4.546436710308e-03
4.850021688501e-03
4.714841530376e-03
4.411085338888e-03
4.576823668989e-03
4.271643822444e-03
4.438121527056e-03
4.742306724662e-03
4.605607762388e-03
4.302170490177e-03
4.468415119196e-03
4.164526586705e-03
4.326213013675e-03
4.634793358128e-03
1.226849014185e-03
4.506378239639e-03
4.809738295993e-03
2.453146888506e-03
2.728545033659e-03
2.907124081246e-03
3.043059147020e-03
4.493803980505e-03
4.803851567309e-03
1.501869364537e-03
1.664240495932e-03
4.952759396910e-03
4.548949919362e-03
4.244032685451e-03
2.918967585879e-03
2.792586959038e-03
2.629168594188e-03
2.499093692646e-03
2.668968419875e-03
2.332626947432e-03
4.138292167915e-03
4.909939925648e-03
1.603914124137e-03
1.302913386403e-03
4.855203702972e-03
4.205737706829e-03
4.111791117138e-03
4.239349827017e-03
4.404279031402e-03
4.532163345971e-03
4.698797086860e-03
4.826101189867e-03
4.663500232458e-03
4.917627217648e-03
4.959771601570e-03
4.174662190372e-03
4.151213148999e-03
1.888480938751e-03
1.096487228566e-03
1.112867725487e-03
1.347315636886e-03
1.652113615696e-03
5.051413102721e-03
4.995155339568e-03
4.862932033424e-03
2.379373966366e-03
2.546273267233e-03
5.051913667086e-03
4.046495241742e-03
4.106805891897e-03
3.964719198022e-03
1.001701890259e-03
9.814910827122e-04
5.018736248123e-03
1.953490702354e-03
1.826326942528e-03
1.000603477325e-03
8.270248169059e-04
4.649062039121e-03
4.959360782526e-03
3.209003612840e-03
3.344763241722e-03
4.919412739713e-03
1.246851632543e-03
5.108760944892e-03
4.338688324758e-03
4.036566623443e-03
2.862194265683e-03
1.379647792169e-03
1.216950747748e-03
2.058445277619e-03
1.544704251302e-03
1.478187698947e-03
5.222097844678e-03
5.150166074507e-03
4.796698922503e-03
4.498570299624e-03
5.089656245451e-03
9.457015925929e-04
5.189931181500e-03
4.686738709315e-03
5.150549732461e-03
5.027069730600e-03
2.114316632000e-03
1.991901980435e-03
1.705778784395e-03
1.877221421128e-03
3.675799238899e-03
2.280051155843e-03
3.479503618634e-03
3.353779208918e-03
3.194968393760e-03
2.831556800728e-03
2.708824037533e-03
2.375496384323e-03
3.686936591630e-03
3.078073203987e-03
3.851596386181e-03
3.667740788258e-03
5.044158210038e-03
5.215830386065e-03
3.998289725651e-03
3.853491964182e-03
1.131663708096e-03
1.005870343686e-03
3.457686078413e-03
5.011327749084e-03
5.115127262102e-03
5.250667570774e-03
5.084339547061e-03
5.085185550635e-03
2.466333230067e-03
3.777777636612e-03
9.588302078742e-04
3.912004250684e-03
8.314503266492e-04
4.475699055473e-03
4.989278594651e-03
5.157849786265e-03
5.214381496867e-03
3.266010047436e-03
4.041180497852e-03
3.878621153168e-03
3.070483235828e-03
2.913482248638e-03
3.035157386404e-03
2.755770959431e-03
2.184615498058e-03
2.013559352505e-03
5.319773126116e-03
5.255640298353e-03
5.321605394694e-03
5.197016645099e-03
5.342046142709e-03
5.180952194182e-03
1.777196002727e-03
2.427249311879e-03
5.314454420742e-03
3.225902650504e-03
5.312357786981e-03
5.147322410379e-03
6.540445478407e-04
7.723794913411e-04
5.277227190096e-03
1.587049601255e-03
1.745337399366e-03
1.421339300996e-03
5.610035015994e-03
3.257775872683e-03
5.289370763037e-03
2.995256057925e-03
5.420258365801e-03
4.174507003320e-03
2.750543209626e-03
4.785821545599e-03
5.111095174845e-03
5.457139877325e-03
3.797889722827e-03
3.646479732755e-03
3.931549897695e-03
1.164427047641e-03
8.448239735480e-04
5.077361997568e-03
2.130717764018e-03
2.299994958429e-03
1.365911109574e-03
1.662041853713e-03
3.380077755549e-03
3.249013876936e-03
4.605823304079e-03
4.769919328613e-03
4.276226867883e-03
4.169358572453e-03
3.867935193715e-03
3.737504250769e-03
5.341787835815e-03
5.553309217008e-03
2.353647089942e-03
2.227016294383e-03
2.307076216506e-03
5.450349556697e-03
5.463341176944e-03
5.325739410321e-03
7.148670898350e-04
8.870883348093e-04
1.101873869960e-03
9.316626042025e-04
5.373764850267e-03
5.221517258001e-03
5.572702457976e-03
1.582372335378e-03
4.632172669378e-03
5.375893312072e-03
5.254154539084e-03
5.559534277686e-03
5.076810545238e-03
5.365925183894e-03
5.378240200423e-03
5.392140300883e-04
5.334646512646e-03
3.675752576569e-03
3.994140177194e-04
3.535833562514e-03
3.716995656290e-03
3.370679194070e-03
1.282169154075e-03
3.567296707678e-03
3.765939256375e-03
5.126327859221e-04
5.605887865963e-03
5.560267422025e-04
6.660332016854e-04
5.449756143397e-03
5.274590684749e-03
5.572244234080e-03
5.392478454778e-03
5.099677131758e-03
5.238383322142e-03
3.509567093749e-03
5.572364392840e-03
5.374148307929e-03
5.737141131835e-03
2.638726436383e-03
2.039901378839e-03
1.905448348708e-03
1.617406521166e-03
5.530794330127e-03
5.348359015461e-03
4.829734702657e-03
4.521447046327e-03
3.557349194756e-03
3.532569652196e-03
3.813584889458e-03
3.767894522616e-03
4.058668074403e-03
4.012436085661e-03
4.295379223318e-03
5.556472121404e-03
1.300890945793e-03
2.946721722792e-03
5.471988497703e-03
5.293800497184e-03
2.587723201717e-03
2.314665718403e-03
5.537328889683e-03
2.406283520918e-03
5.792762283983e-03
1.858040090612e-04
4.857765212982e-04
2.573038789786e-03
2.873030274745e-03
2.199216706967e-03
2.091680435174e-03
4.476442988489e-03
7.504877515353e-04
1.263024816417e-03
4.334362747608e-03
9.849535248275e-04
4.679903303412e-03
2.540562741112e-03
3.118474233540e-03
1.542099058054e-03
2.168158947901e-03
3.802386178974e-03
3.549362578402e-03
3.391116114852e-03
2.670946485909e-03
2.260803135557e-03
1.949223813238e-03
3.605674145861e-03
4.919767447334e-03
5.053137848748e-03
5.341032503505e-03
5.187217989567e-03
4.888560595270e-03
5.017653317247e-03
5.314535410036e-03
5.156798542278e-03
5.508315270460e-03
5.286399283860e-03
4.980351695302e-03
5.106165886697e-03
5.394021959470e-03
4.807746362982e-03
5.628111934766e-03
2.871243858978e-03
6.965101933152e-04
6.551789095587e-04
3.282360146456e-03
5.809860564826e-03
5.821157866103e-03
2.082528349660e-03
5.819524766679e-03
3.515099545658e-03
1.460932159611e-03
5.821354656771e-03
4.753391499877e-03
4.585238946775e-03
4.452711673430e-03
5.831503303158e-03
4.073161563167e-03
5.837134571400e-03
3.985700881929e-03
3.851791908228e-03
3.554575317505e-03
4.847344029507e-03
5.817888275316e-03
5.575635814432e-03
5.571525256645e-03
5.311966086722e-03
5.819541179728e-03
5.830698806893e-03
5.838402623043e-03
1.930986719212e-03
2.101024040918e-03
2.394475490464e-03
2.266384359489e-03
1.970817861414e-03
2.136867911929e-03
2.431134490451e-03
2.006483688020e-03
5.062450549600e-03
5.830124137920e-03
3.970119493304e-03
3.835301643933e-03
3.534841884466e-03
2.946573758729e-03
3.117318954907e-03
3.419825569632e-03
2.776365598311e-03
4.367919564161e-03
5.827346570942e-03
3.906600699280e-03
2.984402664609e-03
3.276820545210e-03
3.539493379070e-03
3.549133742473e-03
3.824596042644e-03
3.567726925698e-03
3.513236360802e-03
3.646056828441e-03
3.479442829320e-03
3.776440321699e-03
3.600754084134e-03
3.319682840169e-03
3.899235541114e-03
3.712790048005e-03
3.270946734921e-03
2.113632266740e-04
4.663590485079e-04
4.566049970039e-04
7.156745567247e-04
7.373279452377e-04
1.003154234088e-03
9.722585000682e-04
4.717549759512e-04
2.060508248568e-04
4.540770013058e-04
2.016183866916e-04
4.467968440683e-04
7.550412036772e-04
1.182852220765e-03
5.788845613533e-03
2.859709310104e-03
2.724978007808e-03
2.413348020450e-03
2.580932184492e-03
2.979254934651e-03
2.254988964791e-03
2.151777952318e-03
2.124248935492e-04
4.645380525494e-04
4.620287622045e-04
7.358870940255e-04
7.228556758076e-04
4.637229493946e-04
4.638167508819e-04
2.058552859172e-04
4.611112548755e-04
7.280621305049e-04
1.906731245643e-04
4.704546691336e-03
4.866377932286e-03
5.817051415440e-03
3.306461396406e-03
2.060812032613e-04
5.781234699132e-03
5.822288119502e-03
5.823020880709e-03
5.305314190989e-03
5.454685450902e-03
5.787205338867e-03
1.904164271810e-03
5.481003932717e-03
5.244910374535e-03
1.337919885917e-03
1.840104844977e-03
4.380249884781e-03
4.023192351168e-03
5.022936148851e-03
4.114296708411e-03
4.760794110996e-03
5.555554324813e-03
1.179594138024e-03
4.131571153262e-03
4.020912679793e-03
4.773210184270e-03
1.997971753623e-03
3.186209854797e-03
1.264320056221e-03
5.581499467917e-03
3.319123411055e-03
3.366608306896e-03
2.641689808122e-03
2.077782102881e-03
1.716997042932e-03
3.042088607286e-03
3.155408692379e-03
4.538280633475e-03
4.941818270038e-03
2.600596271960e-04
4.708539861147e-03
3.760089428882e-03
4.244105085551e-03
4.715328609436e-03
1.167410736667e-03
4.880974533881e-03
5.403313920794e-03
3.898336749169e-03
9.671126416541e-04
3.824252090180e-03
5.351558397039e-03
4.786917829570e-03
1.824211420534e-03
3.480609807162e-03
3.243878701939e-03
2.980785244645e-03
5.375575519212e-03
3.585995865997e-03
4.980015277352e-03
4.076017659110e-03
1.959475074490e-03
4.975844888606e-03
3.389984283037e-03
5.185084528177e-03
4.569389381663e-03
2.760527645323e-03
4.981119205122e-03
3.402542523838e-03
4.886475886782e-03
3.158193069385e-03
3.984904577625e-03
4.346595079122e-03
3.785347613028e-03
4.212795144997e-03
4.843183184598e-03
1.250416126476e-03
2.458873987470e-03
4.209667670053e-03
5.115121627223e-03
5.486043343848e-03
2.956453768341e-03
4.801040750307e-03
5.276018678210e-03
3.287319671934e-03
1.360173557846e-03
1.054118268605e-03
2.172491032492e-03
3.423285296841e-03
3.589532674148e-03
5.552240847616e-03
4.931191158355e-03
4.613419327886e-03
5.464000382780e-04
3.101627176124e-03
5.063754079328e-03
3.609293720743e-03
5.009794558603e-03
3.416052821844e-03
5.575482653537e-03
2.475536180774e-03
5.206362114330e-03
4.647615435026e-03
2.244695150429e-03
3.268136202907e-03
5.555008699614e-03
4.952886856145e-03
4.075675641162e-03
3.440761170649e-03
2.670689667684e-03
3.721275175177e-03
4.148714793035e-03
5.835319629331e-03
5.106135759620e-03
4.284472671237e-03
3.550391241370e-03
4.312448323242e-03
7.156855192345e-04
2.792869111198e-03
3.682084945283e-03
2.301558692687e-03
3.569870679035e-03
5.507448749153e-03
3.814302881920e-03
2.595277141504e-03
3.945212643466e-03
2.359824458181e-03
4.418520852231e-03
4.072359630917e-03
4.440337999663e-03
7.757686492746e-04
4.203718467632e-03
5.137853672774e-03
2.428401079217e-03
3.700926420415e-03
4.718919712422e-03
2.045517196664e-03
4.001751556342e-03
4.734200010830e-03
4.335389309684e-03
3.717467635180e-03
4.306468150559e-03
2.158315669710e-03
1.778111948175e-03
1.480789573342e-03
2.723576269686e-03
4.901358873080e-03
9.907929562044e-04
4.678560104240e-03
1.061568277770e-03
2.558752785224e-03
4.777870338073e-03
4.115757970203e-03
2.685651994210e-03
1.661993244650e-03
2.519680303368e-03
4.012449715584e-03
2.645863061595e-03
2.477781824869e-03
5.552773111685e-03
2.601556434606e-03
5.832588277671e-03
5.807498199141e-03
3.510356051034e-03
1.737451315662e-03
2.405479085723e-04
1.829108936978e-03
2.134121346790e-03
4.639057668376e-03
3.513173410346e-03
1.958554503757e-03
5.579740788869e-03
5.830554327362e-03
4.549382429434e-03
5.128190593651e-03
4.477241356342e-03
5.275457844279e-03
3.249070074697e-03
4.477567605621e-04
4.366937944895e-03
1.414652943865e-03
1.454830351756e-03
1.141526190888e-03
2.071482774289e-03
7.048676555722e-04
1.168371653297e-03
5.554008919411e-03
3.515193931760e-03
4.930134979137e-03
8.572356047719e-04
5.572156000341e-03
5.569776879399e-03
5.838339516943e-03
5.230953075188e-03
8.277135440665e-04
3.767849181542e-03
5.583236268413e-03
4.792801184414e-03
5.849741729017e-03
3.467504393821e-03
5.585086652784e-03
1.085481836247e-03
5.581941862217e-03
4.937207249790e-03
3.891365713394e-03
3.752927955089e-03
5.593723576573e-03
5.582903556172e-03
6.530334131599e-04
4.532821262706e-03
2.586505146794e-03
4.309456059287e-04
5.577341518437e-03
5.218037136217e-03
5.584899765061e-03
7.371716874997e-04
4.403063957911e-04
5.630357557198e-03
5.612012503027e-03
1.230585207076e-03
5.884366405666e-03
4.092504687394e-04
3.203199811466e-03
4.370733977465e-04
5.843994283019e-03
5.604234858726e-03
2.845335710462e-03
3.286444788878e-03
1.873211432721e-03
5.369777350956e-03
6.577588307219e-04
5.641946929749e-03
5.644321122624e-03
5.639466704751e-03
5.898898139880e-03
4.211607310232e-04
5.652386425481e-03
5.366048530729e-03
3.253953958084e-03
5.587679770306e-03
2.309938481824e-03
9.687550335973e-04
5.854893632795e-03
1.859115235788e-04
3.234858844656e-03
5.866847427828e-03
9.109470946294e-04
3.727440323860e-03
5.623149802079e-03
3.507013142730e-03
5.092976750137e-03
8.975669244277e-04
1.659950822664e-04
4.270563646727e-03
5.623311015092e-03
5.659663736694e-03
4.061400799491e-03
8.220481444570e-04
5.453937277557e-03
3.071062049363e-03
5.407469273276e-03
5.377966207611e-03
2.102243503153e-04
3.774256867795e-03
4.259532598859e-04
5.646002650816e-03
3.210355763876e-03
1.593862915393e-03
1.630621312590e-03
1.904403431918e-03
1.978503866699e-03
2.215256382710e-03
2.237857692827e-03
2.521729557575e-03
2.586604075054e-03
2.833800295395e-03
2.849139881866e-03

SCALARS node_materi_plasti_phimob float
LOOKUP_TABLE default
1.828064408888e+01
1.005675951108e+01
2.059834272410e+01
1.941732936323e+01
-3.141553725528e+01
-6.031966131720e+00
4.362161609460e+00
1.041781640712e+01
1.398254195319e+01
1.615979955372e+01
1.771427516202e+01
1.885975010480e+01
1.967396825113e+01
2.030052548508e+01
2.077141885502e+01
2.099052431626e+01
2.108594342272e+01
2.118846838305e+01
2.119336755101e+01
2.113763599009e+01
2.104317280795e+01
2.090901935867e+01
2.075197286019e+01
1.943963579201e+01
1.943287820988e+01
1.943877646541e+01
1.944500702605e+01
1.943558906803e+01
1.945078861907e+01
1.945363414677e+01
1.947298748200e+01
1.949604498398e+01
1.951925499190e+01
1.952668009614e+01
1.956888183514e+01
1.960159784935e+01
1.965252410991e+01
1.968661721356e+01
1.974312515610e+01
1.980131570230e+01
1.987270818888e+01
1.996457601799e+01
2.006284736637e+01
2.016958217462e+01
2.023938176941e+01
2.035291166172e+01
2.043960338040e+01
2.051529985687e+01
2.056905576141e+01
2.064738434885e+01
2.066635736946e+01
2.071020026553e+01
2.070555831036e+01
2.074380047501e+01
2.073558174422e+01
2.072375436142e+01
2.071632054160e+01
2.070573476459e+01
2.069441244594e+01
2.067944655675e+01
2.067145240437e+01
2.065598744543e+01
2.065466791556e+01
2.063343709828e+01
2.061025763701e+01
2.060076204922e+01
2.063607096050e+01
2.058544111087e+01
2.059792788019e+01
2.058269716261e+01
2.058107698236e+01
2.058574093185e+01
1.232585283143e+01
1.399556729063e+01
1.523577174241e+01
1.619997551895e+01
1.700835055631e+01
1.766785690813e+01
1.824021785892e+01
1.873157547611e+01
1.916332336670e+01
-3.396131016046e+01
9.543647111923e+00
-1.155580498808e+01
-3.897700548126e+00
-2.523751619248e+00
-5.881434369649e+00
-1.994819155494e+01
-2.482051017049e+01
-8.525600948597e+00
7.424529126338e-01
6.024927009165e+00
-5.100344931540e+01
-3.305846731731e+01
-9.724506157462e+00
9.418060068203e-01
6.488740654489e+00
9.635641066286e+00
9.766379824123e+00
9.767019175719e+00
9.716650638572e+00
1.001664447329e+01
9.692858592967e+00
9.619035017880e+00
9.610387263906e+00
9.625465221187e+00
9.572465019499e+00
9.502496099501e+00
9.445554830748e+00
9.401155289650e+00
9.410723905259e+00
-3.589494919568e+01
-3.277533822408e+01
-3.227303227103e+01
-3.472144489144e+01
-3.871581518386e+01
-4.181090281459e+01
-4.525217873886e+01
-4.886109040635e+01
-5.246782031397e+01
-5.572035216872e+01
-5.822083035739e+01
-5.762569767949e+01
-5.868078904645e+01
-6.118966858278e+01
-6.084021794439e+01
-5.994527701385e+01
-5.982914327246e+01
-9.564406099591e+00
4.023592699558e+01
2.699046251215e+00
-1.214013601867e+01
-5.386418883665e+01
-5.509506421911e+01
-5.511406173627e+01
-5.529901716736e+01
-5.526419030092e+01
-5.530531839633e+01
-5.529830772080e+01
-5.529165086574e+01
-5.525431167643e+01
-5.519473509984e+01
-5.507830770327e+01
-5.482719193348e+01
-5.429794514527e+01
-5.357347574749e+01
-5.290694160574e+01
-5.239760817005e+01
-5.207250967498e+01
-5.193879738135e+01
-5.181522043404e+01
-5.163391002059e+01
-3.341882830544e+01
-3.471366843482e+01
-3.487010420045e+01
-3.499267875800e+01
-3.515672328252e+01
-3.537374815697e+01
-3.563560036207e+01
-3.589419882469e+01
-3.604127285894e+01
-3.610535714266e+01
-3.611420813915e+01
-3.608947643608e+01
-3.604792958039e+01
-3.597213120384e+01
-3.589259863998e+01
-3.577755987541e+01
-3.572665883724e+01
-3.546936036399e+01
-3.277955817404e+01
-3.531764746318e+01
-1.113762880119e+01
-9.204572045374e+00
-1.009326211008e+01
-1.021703378114e+01
-1.024861559547e+01
-1.029736028385e+01
-1.030333430073e+01
-1.032518237805e+01
-1.035714553383e+01
-1.039358711531e+01
-1.041940869145e+01
-1.043599375956e+01
-1.046088098204e+01
-1.049043956316e+01
-1.051851937139e+01
-1.054841039357e+01
-1.055395461015e+01
-1.031376311730e+01
-9.619675137178e+00
6.929203840452e-01
6.317061367234e-01
6.196803567306e-01
6.247314394454e-01
6.206743743735e-01
6.226494681185e-01
6.238455366416e-01
6.115697929467e-01
5.864559365291e-01
5.855810960515e-01
5.756706786055e-01
5.484055501441e-01
5.205403749084e-01
4.698021933465e-01
4.975639930311e-01
9.103388177189e-01
-2.390784178803e-01
5.507201677360e+00
6.243731483179e+00
6.059792097757e+00
6.087399856159e+00
6.139120317409e+00
6.187973206704e+00
6.209337455384e+00
6.241703417933e+00
6.281554568679e+00
6.304689497903e+00
6.322197696638e+00
6.338606495649e+00
6.363844238631e+00
6.366684192814e+00
6.449116242279e+00
6.598503562766e+00
-2.195976826601e+01
-6.498163926854e+00
-2.853848034740e+00
-3.563621725890e+00
-5.417910564673e+00
-2.767853367605e+01
-1.375686981627e+01
-2.259182253859e+00
4.192608538279e+00
8.192307475456e+00
-5.408831916508e+00
2.090505005117e+01
-3.855287990395e+01
-3.226161532205e+01
2.086040886591e+01
-1.196038340372e-01
2.057053641539e+01
2.080188828431e+01
-7.187230067087e+00
2.043911921449e+01
3.940313874634e+00
2.075342510378e+01
-4.152990813662e+01
1.988798471656e+01
1.061189345607e+01
1.707132439033e+01
2.115878607913e+01
1.956953586130e+01
1.938193885472e+01
1.925908086973e+01
1.922317976604e+01
1.931502394780e+01
1.157291173268e+01
1.175395769068e+01
1.199678905044e+01
1.662328462273e+01
2.072970542860e+01
-3.224218861963e+01
-3.964885461686e+01
2.109862269940e+01
1.189341389643e+01
7.791324201152e+00
1.938621263484e+01
2.066022199154e+01
2.017575515859e+01
2.090400278256e+01
2.089206184850e+01
-3.365159647719e+01
1.158882496972e+01
2.085948151555e+01
1.796128467039e+01
-3.987623336311e+01
1.932212929028e+01
1.931681976476e+01
-8.359146626772e-01
-7.222216757822e-01
-1.664602688611e+00
7.825552563099e+00
-1.783360836898e+01
1.473811264276e+01
2.069359130738e+01
-1.548880379307e+01
1.893046985762e+01
1.159537085957e+01
1.243060674022e+01
1.317302569494e+01
1.396470020065e+01
1.458674910861e+01
1.515923436419e+01
1.462058146464e+01
1.570479894632e+01
1.525599567033e+01
1.566376297483e+01
1.623706636389e+01
1.586993298361e+01
1.675017667209e+01
1.645946108695e+01
1.551643965579e+01
1.619301408345e+01
1.518239807459e+01
1.595949406574e+01
1.682036568281e+01
1.666361286186e+01
1.577359096559e+01
1.655265266072e+01
1.564766728988e+01
1.649295057392e+01
1.558755693496e+01
1.653502910527e+01
1.723813907159e+01
1.756723287552e+01
1.697026222306e+01
1.816347787384e+01
1.769893084744e+01
1.880115148782e+01
1.911338150940e+01
1.966384417480e+01
1.942587554812e+01
2.018648203779e+01
1.998202729999e+01
2.063575714668e+01
2.041248284601e+01
2.096789070847e+01
2.112143759886e+01
2.137753576112e+01
2.114917569471e+01
2.149710385026e+01
2.167129746905e+01
2.174284384582e+01
2.187248530061e+01
2.190695381487e+01
2.168097125967e+01
2.182520117681e+01
2.200525160417e+01
2.191005272155e+01
2.161794437436e+01
2.170629042899e+01
2.195000292072e+01
2.175167912010e+01
2.138920515525e+01
2.145891040747e+01
2.176666400445e+01
2.149687653523e+01
2.106399594926e+01
2.113976089204e+01
2.151292251877e+01
2.119103654238e+01
2.150997832255e+01
2.068820404235e+01
2.079266216093e+01
2.013698145959e+01
2.031138657183e+01
1.986364929114e+01
1.948350195095e+01
1.918520538263e+01
1.974696745987e+01
2.046129505435e+01
1.872590335868e+01
1.909258960478e+01
1.784933167405e+01
1.966736967694e+01
1.739326457510e+01
1.834094498320e+01
1.683482540188e+01
1.606055248197e+01
1.463253282480e+01
1.517241653009e+01
1.615348160146e+01
1.569390525564e+01
1.660630965696e+01
1.621810268293e+01
1.562454065034e+01
1.705959190643e+01
1.697804421321e+01
1.465687134405e+01
1.628864514076e+01
2.173476181471e+01
1.940212415384e+01
1.875767986126e+01
1.968572330923e+01
2.173106913472e+01
2.168885345005e+01
2.182967644560e+01
2.175887847881e+01
2.183546199347e+01
2.174453807580e+01
2.168121362506e+01
2.164865396478e+01
2.159956963014e+01
2.176930659894e+01
2.187003353680e+01
2.154950268892e+01
2.151547183867e+01
2.144803477202e+01
2.143023595434e+01
2.145334917924e+01
2.138930173905e+01
2.136505086389e+01
2.190478597833e+01
2.173195266002e+01
2.187461949722e+01
2.168642019399e+01
2.180077435340e+01
2.161143665695e+01
2.169491865245e+01
2.185233987491e+01
1.724244727042e+01
2.114922747988e+01
2.071485908738e+01
2.051882302793e+01
1.992937339010e+01
1.942471816776e+01
1.854807212778e+01
1.755887635162e+01
1.857181176722e+01
1.609777079811e+01
1.732633247762e+01
1.410686590953e+01
1.564128238459e+01
1.809340877279e+01
2.145649594537e+01
2.139222562835e+01
2.119789126003e+01
1.342905814664e+01
2.134588131824e+01
2.175842138289e+01
2.186300134051e+01
2.171902084464e+01
1.293746557381e+01
1.617367671400e+01
1.732745119119e+01
1.702773419628e+01
1.668176578517e+01
2.171173133587e+01
1.419288097952e+01
2.155500502381e+01
1.202323136818e+01
2.132468063483e+01
2.126671586659e+01
2.157885711931e+01
2.115851012635e+01
2.092689995858e+01
1.823631028537e+01
1.682597854632e+01
1.356808393411e+01
1.506089737192e+01
1.775559364464e+01
1.618767323294e+01
1.278206705745e+01
1.427556952249e+01
1.710244346340e+01
1.549137740633e+01
1.183087324141e+01
1.351345741442e+01
2.125224521819e+01
8.771833757383e+00
1.434335106448e+01
2.159708196274e+01
2.155858052934e+01
1.741990958204e+01
1.711166459193e+01
1.632181184536e+01
1.679478783844e+01
1.751249183000e+01
1.722401736611e+01
1.646004335698e+01
1.691719736257e+01
1.609525966630e+01
1.658978890433e+01
1.733152221640e+01
1.703682962103e+01
1.624182778374e+01
1.671997153528e+01
1.585905507594e+01
1.636746247276e+01
1.714881375578e+01
1.087322300985e+01
2.185341584390e+01
2.169541890964e+01
1.917903182290e+01
1.992981330959e+01
2.034249697250e+01
2.047462223839e+01
1.682432286532e+01
1.754154245538e+01
1.425598418652e+01
1.562030764279e+01
1.772095246117e+01
2.126652047721e+01
2.128440396450e+01
1.716274831139e+01
1.548638294454e+01
1.650124013647e+01
1.446138028163e+01
1.338332779979e+01
1.554868394029e+01
2.196025855927e+01
1.771122063938e+01
1.513384543003e+01
1.191363606865e+01
2.120056944737e+01
2.197643149194e+01
1.783638077351e+01
1.856256440281e+01
1.835578894027e+01
1.898507421039e+01
1.881481706605e+01
1.937128923512e+01
1.959348393603e+01
2.092413368830e+01
1.987790745346e+01
1.595663048468e+01
2.122196396715e+01
1.783972145987e+01
8.892484635170e+00
8.769031205649e+00
1.242085888790e+01
1.523026857797e+01
2.151874589432e+01
1.924078962248e+01
1.881385204765e+01
1.175554360782e+01
1.096407697581e+01
2.109203015230e+01
1.524505809406e+01
1.554741880585e+01
1.510024697776e+01
7.399194179651e+00
6.169326583907e+00
1.787885641795e+01
1.796552031837e+01
1.639245034437e+01
5.203110910674e+00
2.514019187651e-01
1.722346335303e+01
1.787058880638e+01
2.076684756549e+01
2.085939417570e+01
2.163191969628e+01
1.109429763751e+01
1.813702062467e+01
2.195803837385e+01
2.205381722221e+01
2.008116799654e+01
1.161728767188e+01
9.220985318795e+00
1.896464920474e+01
1.483879989472e+01
1.374938595513e+01
2.141830023007e+01
1.812872891896e+01
2.008104523170e+01
1.987957460933e+01
2.025226867801e+01
4.979052900482e+00
2.139878381086e+01
2.122087370103e+01
1.922084266493e+01
1.888500485585e+01
1.815359250647e+01
1.662257030085e+01
1.420476211905e+01
1.452198974766e+01
1.405086449513e+01
1.793187759403e+01
1.390408318643e+01
1.283642504312e+01
1.223754162628e+01
1.295425875942e+01
1.097269158886e+01
2.011611845168e+01
2.151122577674e+01
2.069299715116e+01
2.140168051398e+01
2.188876083434e+01
1.796418964057e+01
1.829490256489e+01
1.527678452780e+01
1.477913267932e+01
9.304603701682e+00
6.791561963339e+00
2.149482583668e+01
2.147829426650e+01
1.805551575421e+01
1.832496138264e+01
1.801167071187e+01
2.152675595566e+01
2.094683898908e+01
2.200646152538e+01
4.679460268909e+00
1.939139318159e+01
2.478848540161e+00
1.753156987760e+01
2.112553050923e+01
2.108255283484e+01
2.090645875781e+01
1.157050917418e+01
2.003917729417e+01
2.044543794063e+01
1.084124800556e+01
9.965631551145e+00
1.168474307294e+01
9.148433704085e+00
1.937981380613e+01
1.841046799850e+01
1.966700851363e+01
2.012290783784e+01
1.929360346755e+01
1.898118098830e+01
2.100072534827e+01
2.118745191834e+01
1.609844719294e+01
8.030000098459e+00
1.843832624453e+01
1.168961689326e+01
2.126214645813e+01
2.135128243881e+01
-5.840404918718e+00
-7.802734733520e-01
1.843203427183e+01
1.099854629292e+01
1.130490645194e+01
9.884823666989e+00
2.081418093439e+01
1.187253022077e+01
2.098410203662e+01
1.300898421905e+01
1.865807836206e+01
2.053872087373e+01
1.800180336355e+01
2.173293040456e+01
1.815133375965e+01
1.872114845887e+01
1.441922803577e+01
1.381425815243e+01
1.489977688777e+01
9.146852992846e+00
-4.286111651152e-01
1.805658146118e+01
1.804680517194e+01
1.867288181433e+01
1.276263869154e+01
1.581170640809e+01
2.103468558799e+01
2.099971215192e+01
1.800575782494e+01
1.813384145030e+01
1.784159590500e+01
2.201673280347e+01
2.207484640862e+01
2.209031854311e+01
1.851302536115e+01
1.884603194262e+01
2.017305907584e+01
1.987726040043e+01
1.969285167607e+01
1.866646159420e+01
2.094017844903e+01
2.102951551092e+01
-1.923317645759e+00
3.390030741403e+00
5.278787629354e+00
1.603630772101e+00
1.858190902930e+01
1.830451590349e+01
1.889059503288e+01
1.464023733638e+01
2.033214605773e+01
2.129161263605e+01
2.142941915357e+01
2.114371881692e+01
2.072018687277e+01
2.076277183244e+01
2.040197281499e+01
-1.306552252095e+01
1.855525817940e+01
1.399008335653e+01
-2.145231343008e+01
1.335990665503e+01
1.422576180112e+01
1.251850351858e+01
1.163890102128e+01
1.337407443406e+01
1.419758443092e+01
-1.149822782077e+01
1.894007430387e+01
-9.147858712168e+00
-3.063538462004e+00
2.112914233448e+01
2.122300063568e+01
2.101535786875e+01
2.109889005164e+01
2.128595366369e+01
2.116823967167e+01
1.311679577938e+01
2.094301333336e+01
2.103752820500e+01
2.086526770483e+01
6.685892578902e+00
1.414143831788e+01
1.064776437035e+01
5.743986684208e+00
1.945731866062e+01
1.908840622173e+01
2.116226206927e+01
2.121967740885e+01
1.350494985349e+01
1.345609467356e+01
1.470402075358e+01
1.456952337457e+01
1.559796819730e+01
1.545793812169e+01
1.633536365613e+01
2.032812895743e+01
5.238010756229e+00
9.352160194728e+00
2.106043967795e+01
2.124340720008e+01
8.402490954186e+00
3.851889202897e+00
2.113324202442e+01
1.912982995897e+01
1.922336662651e+01
-3.226417003586e+01
-1.682726213739e+01
1.867352110095e+01
1.124169651310e+01
1.305243662348e+01
9.707132081873e+00
2.190410033631e+01
-5.189124181299e-01
8.047866455529e+00
1.640746264555e+01
5.702995102023e-01
2.117588352029e+01
2.001702386658e+01
1.444289119769e+01
1.326656667660e+01
1.635868735903e+01
1.479928122552e+01
1.328173919733e+01
1.252722455544e+01
2.066808029556e+01
8.224655351235e+00
2.960722902700e+00
1.488791164123e+01
1.768585399951e+01
1.800770796349e+01
1.857444749298e+01
1.831969996015e+01
1.770319098902e+01
1.804736695329e+01
1.862695277882e+01
1.839517392784e+01
1.901496631043e+01
1.872714054988e+01
1.815396928008e+01
1.850272748964e+01
1.898845477050e+01
1.791580980982e+01
2.089565515439e+01
1.911598881673e+01
-5.403324265811e+00
-8.517878215810e+00
1.450518164475e+01
1.950708046657e+01
1.940039180110e+01
1.910900007825e+01
2.000580450911e+01
1.345052191311e+01
1.442579300379e+01
2.030269819511e+01
1.734178020127e+01
1.698011857459e+01
1.656916289503e+01
1.935279709106e+01
1.537958712073e+01
2.071847809749e+01
2.149889486052e+01
2.122178768767e+01
2.119492236960e+01
1.777188674110e+01
2.091203553307e+01
2.112713469847e+01
2.112985445390e+01
2.135273560532e+01
2.090964685729e+01
1.968718292058e+01
1.980219748639e+01
1.843156297548e+01
1.948864418383e+01
2.058618403114e+01
2.028455842814e+01
1.895357042115e+01
1.986753270444e+01
2.086772167457e+01
1.931175345191e+01
1.864767283672e+01
2.088483350181e+01
2.191878465696e+01
2.198766392613e+01
2.193165887437e+01
2.058950118819e+01
2.094744718271e+01
2.125853526276e+01
2.017460542976e+01
1.928744294220e+01
2.086480379182e+01
2.205248767166e+01
2.087802944081e+01
1.158083466072e+01
1.311725573853e+01
1.312128625307e+01
1.442447062328e+01
1.327798868171e+01
2.107218540741e+01
2.110493336880e+01
2.093266438008e+01
2.112338680618e+01
2.097608720187e+01
2.072476537820e+01
2.112687032925e+01
2.101816197321e+01
1.164455912165e+01
-3.233290560401e+01
-1.394294991726e+01
-1.419247404405e+01
-1.672422629495e+00
-1.068533722243e+00
6.687023638572e+00
5.812807871867e+00
-1.435494345375e+01
-3.534480352844e+01
-1.414469601568e+01
-3.704858431327e+01
-1.440541937092e+01
-2.696238749558e-01
1.011128589113e+01
2.075173908194e+01
2.002318608337e+01
1.976471387743e+01
1.893961013601e+01
1.944190323154e+01
2.029873553386e+01
1.837595631713e+01
1.795891377779e+01
-3.961311948614e+01
-1.224127973768e+01
-1.408645343109e+01
5.878147917199e-01
2.918466890667e-01
-1.221407865130e+01
-1.238888025444e+01
-4.006188410932e+01
-1.285841630713e+01
4.311315310672e-01
-4.123828357993e+01
1.735736857599e+01
1.771161389858e+01
2.085292293390e+01
1.195192753484e+01
-3.926904667022e+01
1.918733935035e+01
1.925428303727e+01
1.925836053962e+01
2.097832586290e+01
2.090476565105e+01
1.920545988611e+01
1.726089027064e+01
1.883607240179e+01
1.837170024090e+01
1.219233606348e+01
1.724017525209e+01
2.124967980892e+01
2.151694574649e+01
2.117058052398e+01
2.132709005002e+01
2.134720161539e+01
2.117197743025e+01
1.024155563266e+01
1.569933480109e+01
1.542087963438e+01
1.744050303637e+01
1.749311843667e+01
2.062301824079e+01
1.139470939733e+01
1.989035562167e+01
1.351348183432e+01
2.175867548804e+01
1.997310627366e+01
1.829280943182e+01
1.648324290124e+01
1.844124180567e+01
2.122639292659e+01
2.166413596298e+01
1.780848210325e+01
-3.588456097156e+01
2.164596606482e+01
2.163689124767e+01
1.595178649198e+01
2.151178031251e+01
9.887597113345e+00
1.761201334072e+01
1.860177627651e+01
1.473985113303e+01
6.050161083245e+00
1.459628429774e+01
2.127630183469e+01
1.736059393575e+01
1.645008598293e+01
2.200023729785e+01
1.569482316396e+01
9.298925611627e+00
1.858573920790e+01
2.033008903389e+01
2.155735480998e+01
2.195183880573e+01
1.716054752233e+01
2.141124366046e+01
2.148121206965e+01
1.821035143765e+01
1.836396593819e+01
2.146205983571e+01
1.778597844074e+01
2.195367678313e+01
2.130730852908e+01
1.320474142527e+01
1.722858092007e+01
1.701486403053e+01
1.857622832035e+01
2.121338224798e+01
2.153131795877e+01
1.155211183362e+01
1.737753381076e+01
1.580816936297e+01
1.973223891085e+01
1.872585104975e+01
1.467564978027e+01
2.144140365044e+01
1.836807468224e+01
2.124806849474e+01
1.264044934123e+01
5.941589622421e+00
2.005907623628e+01
2.076205869534e+01
2.146993974222e+01
1.890351469830e+01
2.132577169162e+01
2.181497192593e+01
-1.029146142958e+01
1.051446337216e+01
2.121610074109e+01
2.206923819682e+01
2.138647147077e+01
2.078483976348e+01
2.008845406852e+01
5.190327037710e+00
2.112645219230e+01
2.181677985661e+01
1.929094944280e+01
1.191703030085e+01
2.092585288890e+01
2.162832179525e+01
1.894789447168e+01
2.205224390501e+01
6.027002443152e+00
2.143768290635e+01
1.729014939235e+01
1.933664876992e+01
2.150086134480e+01
1.613657710004e+01
2.125753138245e+01
2.091883903243e+01
1.605522571257e-01
8.068958956579e+00
2.125462401585e+01
2.052589225088e+01
2.206013904749e+01
2.087535486980e+01
2.124956142599e+01
2.125633298889e+01
2.123951367629e+01
1.301643642123e+00
1.660853979188e+01
2.121798214184e+01
1.790677275673e+01
9.495476779983e-01
1.964539107377e+01
2.104907840749e+01
1.993638612667e+01
2.203728624174e+01
1.738485506134e+01
-5.005211403762e+00
2.202991774328e+01
1.843276425901e+01
2.019550718598e+01
2.084095563032e+01
2.195325260998e+01
3.093014637850e+00
1.657827282564e+01
1.405432681761e+01
2.147384746053e+01
1.852817414787e+01
7.154041998022e+00
1.749930121830e+01
7.793589767528e+00
2.111086586632e+01
2.067032083526e+01
1.579185065905e+01
2.127880347603e+01
1.529045367774e+01
2.080132194409e+01
2.088934069445e+01
2.095690296177e+01
2.039360047184e+01
1.885949477258e+01
2.055893329791e+01
1.926001849287e+01
2.072291272001e+01
1.331855034873e+01
-9.730019383058e+00
-3.039838681069e+01
6.742117114266e+00
1.884297414181e+01
1.770449437965e+01
1.337038089564e+01
1.781067761117e+01
1.922162790413e+01
2.055734805949e+01
1.700733529971e+01
2.139374395479e+01
2.061635169817e+01
1.845850696294e+01
1.170007488605e+01
-1.424412090640e+01
2.120307851032e+01
-1.344008771877e+00
6.271459799914e+00
3.347017468092e+00
1.770828265525e+01
-1.733098204990e+00
1.325743122325e-01
2.109466011170e+01
1.316307611884e+01
2.044242903391e+01
-2.597538810961e+00
1.887626304224e+01
2.065218449307e+01
2.079561190145e+01
2.055031881261e+01
-3.484279593402e+00
1.421296122034e+01
1.970323018810e+01
1.753257616253e+01
2.073116413964e+01
1.287259681267e+01
1.892675703931e+01
8.499547225547e+00
1.893774268691e+01
1.830091501379e+01
1.496441526233e+01
1.413536755746e+01
2.082249756126e+01
1.908031667418e+01
-9.285518139778e+00
1.694854387914e+01
1.954316317553e+01
-1.793417624251e+01
2.105712918928e+01
1.880132012794e+01
2.088390045297e+01
3.773652426663e-01
-1.547505222212e+01
2.107716360365e+01
1.944522066846e+01
1.104601491340e+01
1.935048142181e+01
-1.990645189817e+01
1.139835325484e+01
-1.472551930682e+01
2.071301265598e+01
1.893183060223e+01
2.005041999487e+01
1.161044967110e+01
1.662029114888e+01
2.001795223941e+01
-3.221145682222e+00
1.898405944362e+01
2.110251773313e+01
1.902435700525e+01
2.083246207527e+01
-2.023638277239e+01
2.054459786883e+01
2.133454568131e+01
1.172758300026e+01
1.901597370000e+01
1.862238733970e+01
6.611964605678e+00
1.930281312358e+01
-1.468131594543e+01
1.168660415226e+01
2.067516492665e+01
5.760506788822e+00
1.437292078394e+01
1.937166022491e+01
2.087239157731e+01
1.815713341429e+01
4.419182704061e+00
-3.289439758749e+01
1.627104467449e+01
2.079489574578e+01
1.901746566632e+01
1.558142029659e+01
-1.557592446707e+00
1.915981480733e+01
2.037956940210e+01
1.953765561532e+01
2.126246536720e+01
-2.798472692795e+01
2.106023490791e+01
-1.637888663738e+01
2.093456063729e+01
2.058510292837e+01
-7.264014219586e+00
-4.826012791940e+01
-1.794048126627e+01
-1.742303603375e+01
-3.731835023825e+00
-3.301700760037e+00
3.436744277076e+00
4.439105855259e+00
7.733807091443e+00
8.431237244535e+00

SCALARS node_materi_stress_average_a_sig float
LOOKUP_TABLE default
-5.329934298793e+00
-6.379793060737e+01
-2.357456396689e+02
-1.779852306616e+02
-1.253076205819e+01
-2.402374330737e+01
-3.483576734972e+01
-4.726581404443e+01
-5.911654606493e+01
-7.092848051328e+01
-8.271284962267e+01
-9.448939894534e+01
-1.063294664484e+02
-1.182884487997e+02
-1.305823442760e+02
-1.427072021721e+02
-1.538408506162e+02
-1.660173348604e+02
-1.786327017092e+02
-1.909555776935e+02
-2.034287699048e+02
-2.160797111515e+02
-2.282182525783e+02
-1.786586312668e+02
-1.779819479446e+02
-1.781869100046e+02
-1.782165902820e+02
-1.779560361114e+02
-1.784764175224e+02
-1.789070437615e+02
-1.788617180734e+02
-1.796704003795e+02
-1.799658013119e+02
-1.801005613847e+02
-1.809971307104e+02
-1.821240394858e+02
-1.826066116942e+02
-1.835325296234e+02
-1.841539088388e+02
-1.854549213023e+02
-1.876570510499e+02
-1.896177264555e+02
-1.917565633271e+02
-1.938073202599e+02
-1.961166690294e+02
-1.984874638254e+02
-2.010091819685e+02
-2.037791935592e+02
-2.066257697015e+02
-2.092503038716e+02
-2.119527297020e+02
-2.142810134044e+02
-2.171376216092e+02
-2.191970506538e+02
-2.207454783769e+02
-2.228299044666e+02
-2.248035371534e+02
-2.265500737553e+02
-2.280835627187e+02
-2.294735547989e+02
-2.304776252718e+02
-2.313454709371e+02
-2.319662599299e+02
-2.329851626216e+02
-2.342289863559e+02
-2.349132724775e+02
-2.337523231443e+02
-2.355194843653e+02
-2.352462740922e+02
-2.358276766528e+02
-2.363713629761e+02
-2.363781115000e+02
-7.611823232705e+01
-8.816141682804e+01
-1.001512280903e+02
-1.118447031623e+02
-1.237619309342e+02
-1.357939881774e+02
-1.475366576254e+02
-1.591499520411e+02
-1.711683168278e+02
-9.486404244134e+00
-6.720464532930e+01
-1.401817719089e+01
-1.634021535375e+01
-1.663701549085e+01
-1.539869399429e+01
-1.384752102886e+01
-1.738134645524e+01
-2.988644769200e+01
-4.234177922821e+01
-5.458051352581e+01
-7.703183938640e+00
-1.530239121305e+01
-2.731229526286e+01
-3.937125900349e+01
-5.140528979727e+01
-6.229033995661e+01
-6.308696121674e+01
-6.311184585083e+01
-6.303399633359e+01
-6.477728706174e+01
-6.338326424834e+01
-6.343990138342e+01
-6.365766780822e+01
-6.406058166556e+01
-6.421804849355e+01
-6.448732417201e+01
-6.475142142830e+01
-6.524437967933e+01
-6.592386276805e+01
-9.925211850848e+00
-1.113640891401e+01
-1.108037843874e+01
-1.064113240241e+01
-1.041082027378e+01
-1.002430193373e+01
-9.398712833255e+00
-8.765105312712e+00
-8.189222569344e+00
-7.692591530277e+00
-7.240127468361e+00
-7.185848452890e+00
-6.566146123757e+00
-5.776523864567e+00
-5.513868419699e+00
-5.401197806567e+00
-5.216922909880e+00
-4.876955630397e+00
-4.527726647079e+00
-5.919615843094e+00
-7.142536724077e+00
-6.702296925171e+00
-6.256104203466e+00
-6.274899254954e+00
-6.399631688986e+00
-6.652572845690e+00
-6.924004955872e+00
-7.212397814217e+00
-7.484534520654e+00
-7.740116282784e+00
-7.973416124060e+00
-8.183135193727e+00
-8.367260796350e+00
-8.525351328202e+00
-8.658253154155e+00
-8.764998970847e+00
-8.841400732054e+00
-8.881307483509e+00
-8.873646270401e+00
-8.614073935397e+00
-7.569052308250e+00
-1.523290245224e+01
-1.505656792532e+01
-1.499823391688e+01
-1.496139001524e+01
-1.491602245942e+01
-1.485522010863e+01
-1.477791275596e+01
-1.468505908081e+01
-1.457932198722e+01
-1.445975589259e+01
-1.433076903618e+01
-1.419707396077e+01
-1.406317351158e+01
-1.394980664385e+01
-1.385872075608e+01
-1.384912317795e+01
-1.390782851751e+01
-1.422917045051e+01
-1.559391109110e+01
-1.396224616173e+01
-2.740899413583e+01
-2.909158734676e+01
-2.783353272280e+01
-2.740976046194e+01
-2.722768053547e+01
-2.708151187696e+01
-2.703037886629e+01
-2.700828709249e+01
-2.700647706928e+01
-2.702206356289e+01
-2.704837960273e+01
-2.707464540447e+01
-2.710210191591e+01
-2.712293883148e+01
-2.714260766913e+01
-2.715954807857e+01
-2.718964622768e+01
-2.724501667110e+01
-2.729540639382e+01
-3.936917184688e+01
-3.934554442790e+01
-3.933395079681e+01
-3.934205905855e+01
-3.936068850711e+01
-3.938065108312e+01
-3.941689243570e+01
-3.944553663718e+01
-3.948727495816e+01
-3.956195652480e+01
-3.966475239999e+01
-3.980142064886e+01
-3.998395239903e+01
-4.020653092508e+01
-4.065196733670e+01
-4.191878090220e+01
-4.025912446371e+01
-5.263234695903e+01
-5.419339232544e+01
-5.305046006653e+01
-5.269595447462e+01
-5.242561128198e+01
-5.221231840679e+01
-5.200132393212e+01
-5.185675751968e+01
-5.182209499193e+01
-5.169640729711e+01
-5.162008917576e+01
-5.156866136250e+01
-5.152660217703e+01
-5.146888857628e+01
-5.152039056495e+01
-5.151464396123e+01
-1.131272689342e+01
-1.556479919263e+01
-1.658048334479e+01
-1.644478001692e+01
-1.629787956433e+01
-1.356403064992e+01
-2.508337750946e+01
-3.756224349895e+01
-4.987376302136e+01
-6.202424274144e+01
-1.892290326812e+01
-2.182429179374e+02
-1.263369778485e+01
-1.438202171008e+01
-2.252560562047e+02
-2.092212866292e+01
-1.248711756109e+02
-2.094897804992e+02
-2.685337484281e+01
-2.001485723792e+02
-4.931588361037e+01
-2.293659674709e+02
-1.081727505469e+01
-1.903278158489e+02
-7.304522710999e+01
-7.737556375386e+01
-1.579670276499e+02
-1.839643757025e+02
-1.786772289960e+02
-1.737618378834e+02
-1.736463963911e+02
-1.764149429809e+02
-7.712329068390e+01
-7.541219107388e+01
-7.562198421136e+01
-1.179105259355e+02
-2.298737824614e+02
-1.398762806801e+01
-1.066021773730e+01
-1.967315242319e+02
-7.378497021172e+01
-4.099747762284e+01
-1.789772573812e+02
-2.057257365326e+02
-1.950146045174e+02
-2.130897467679e+02
-2.219041063602e+02
-1.414557712393e+01
-7.570046771404e+01
-2.252241711690e+02
-1.413365796230e+02
-1.198787245130e+01
-1.004529537115e+02
-1.751879020784e+02
-2.332225692978e+01
-2.041153800722e+01
-3.750883581981e+01
-6.106981525308e+01
-1.494807721208e+01
-9.517123690688e+01
-2.323684761196e+02
-9.965444813457e+00
-1.644654379294e+02
-7.864149879852e+01
-8.446101183992e+01
-8.967294452961e+01
-9.654761151756e+01
-1.022851241109e+02
-1.085003921509e+02
-1.029589696645e+02
-1.149254435241e+02
-1.094174590108e+02
-1.143635931481e+02
-1.214178798283e+02
-1.160118830743e+02
-1.280000026246e+02
-1.227272993968e+02
-1.107407634811e+02
-1.175763083810e+02
-1.055503785409e+02
-1.125368796592e+02
-1.245054936641e+02
-1.195979661902e+02
-1.075850874216e+02
-1.147718501438e+02
-1.027845573140e+02
-1.101050313431e+02
-9.814083622248e+01
-1.055834982331e+02
-1.174110089651e+02
-1.129363326566e+02
-1.012135729326e+02
-1.085852966256e+02
-9.700539642692e+01
-1.043405596340e+02
-1.158364225819e+02
-1.115378480759e+02
-1.001581949641e+02
-1.072830995334e+02
-9.603260773213e+01
-1.030757914591e+02
-9.195466149467e+01
-9.883928103798e+01
-1.099493573529e+02
-1.055760767584e+02
-9.457640323367e+01
-1.011158300876e+02
-1.121930633705e+02
-1.075341871772e+02
-1.187008915679e+02
-1.138611643553e+02
-1.028330438799e+02
-1.089604124154e+02
-1.200976133237e+02
-1.149942732190e+02
-1.039727018334e+02
-1.098377974567e+02
-1.209912640452e+02
-1.156598637592e+02
-1.045851569597e+02
-1.102514658326e+02
-1.215125642155e+02
-1.159040021367e+02
-1.047109205034e+02
-1.102002685276e+02
-1.215923059795e+02
-1.157046116919e+02
-1.272695791673e+02
-1.042995843809e+02
-1.096892158916e+02
-9.823984074248e+01
-1.035765708410e+02
-1.229824372308e+02
-9.209234060955e+01
-8.699120880205e+01
-9.738107891717e+01
-1.090065955227e+02
-8.584602033131e+01
-9.110144590344e+01
-7.952709960469e+01
-8.468862268235e+01
-1.315175276670e+02
-8.474983673511e+01
-7.312684014440e+01
-6.799192847328e+01
-6.157110771276e+01
-1.082517806933e+02
-1.201323047321e+02
-1.136960779731e+02
-1.258967025827e+02
-1.197988774987e+02
-6.665593969529e+01
-1.334629243070e+02
-1.320701371559e+02
-9.548133919598e+01
-8.949443979246e+01
-1.234806287554e+02
-9.639567213190e+01
-9.002111746438e+01
-1.017119080863e+02
-1.331910984043e+02
-1.389820804466e+02
-1.449489792281e+02
-1.508264706506e+02
-1.568485764051e+02
-1.627977798991e+02
-1.566580925220e+02
-1.686964289782e+02
-1.624486466985e+02
-1.688772935436e+02
-1.627793466926e+02
-1.745449361395e+02
-1.681966855394e+02
-1.803494818686e+02
-1.739053164076e+02
-1.617780438324e+02
-1.673895578944e+02
-1.553440157404e+02
-1.300670397821e+02
-1.349610177410e+02
-1.416167630159e+02
-1.466134993163e+02
-1.533402946052e+02
-1.584146892690e+02
-1.651965706294e+02
-1.599932322551e+02
-1.346431350098e+02
-9.025607321614e+01
-8.379214139002e+01
-7.964290295287e+01
-7.328507391051e+01
-6.930267181990e+01
-6.309254047448e+01
-5.924046608747e+01
-6.516365173184e+01
-5.519322099923e+01
-6.082805271229e+01
-5.089735437535e+01
-5.622567159700e+01
-1.246679306169e+02
-1.515462126056e+02
-1.634423269861e+02
-1.563836862993e+02
-5.650650787674e+01
-1.795818915319e+02
-1.748844427692e+02
-1.686061303862e+02
-1.719410038916e+02
-5.516571846183e+01
-5.327142137531e+01
-5.669339048378e+01
-1.317262948921e+02
-1.257158803975e+02
-1.808361261963e+02
-6.022740860221e+01
-1.808433397599e+02
-4.556374623866e+01
-1.729801889252e+02
-1.852105281042e+02
-1.504748514776e+02
-1.684154993463e+02
-1.611593421614e+02
-6.645865530486e+01
-6.159727913230e+01
-5.155264678396e+01
-5.701202513494e+01
-6.708004892868e+01
-6.178054994304e+01
-5.149076882190e+01
-5.626549869934e+01
-6.687931588102e+01
-6.118691363179e+01
-5.047286648242e+01
-5.523789304696e+01
-1.918194897016e+02
-4.130671845667e+01
-9.865456771019e+01
-1.871016346020e+02
-1.770759188826e+02
-1.376206613784e+02
-1.317070769711e+02
-1.197191486898e+02
-1.258551231204e+02
-1.377798377657e+02
-1.320075320529e+02
-1.200393542961e+02
-1.262627775245e+02
-1.142640965925e+02
-1.205583688458e+02
-1.325138538986e+02
-1.268903124757e+02
-1.149061853390e+02
-1.212858256985e+02
-1.092658473698e+02
-1.156700976853e+02
-1.276977187027e+02
-4.907467520401e+01
-1.665938201027e+02
-1.787082346507e+02
-9.559760763128e+01
-1.068834119097e+02
-1.134344666721e+02
-1.189123362723e+02
-1.220600466514e+02
-1.340896723945e+02
-4.714352678151e+01
-5.010169721989e+01
-1.435858806128e+02
-1.785629115777e+02
-1.663877425477e+02
-8.547580337594e+01
-7.776087562191e+01
-7.397287760418e+01
-6.583149867942e+01
-6.972678637446e+01
-6.231458884358e+01
-1.565075048602e+02
-1.388177879232e+02
-6.293972867027e+01
-5.159389570343e+01
-1.908139279911e+02
-1.546773565097e+02
-1.292209696342e+02
-1.364370249481e+02
-1.410688459481e+02
-1.482717529849e+02
-1.529363291463e+02
-1.600932655643e+02
-1.554840815983e+02
-1.733077296744e+02
-1.673138992153e+02
-1.099283866485e+02
-1.444677818322e+02
-7.205878715072e+01
-4.381093435315e+01
-4.408864573926e+01
-5.357428527423e+01
-6.528432967739e+01
-1.931581991969e+02
-1.647481115012e+02
-1.575206310249e+02
-5.750121448230e+01
-6.152912558964e+01
-1.805365592514e+02
-1.077656861039e+02
-1.080323389879e+02
-1.021647648797e+02
-4.104341855111e+01
-3.995400815574e+01
-1.439044300061e+02
-5.990395088563e+01
-5.292745964797e+01
-3.619201315267e+01
-3.193111772788e+01
-1.283759392725e+02
-1.403157138851e+02
-1.253147422818e+02
-1.307530997740e+02
-1.867586102885e+02
-4.915624946964e+01
-1.460709743184e+02
-1.611509242597e+02
-1.492870342903e+02
-1.123024749357e+02
-4.086097490675e+01
-3.810932521149e+01
-7.766377165822e+01
-6.022249712795e+01
-5.864318812839e+01
-1.990914528739e+02
-1.495797931954e+02
-1.627256284588e+02
-1.507973699639e+02
-1.747298770360e+02
-3.830729826684e+01
-1.996034142384e+02
-1.841362105540e+02
-1.688050723829e+02
-1.621452471544e+02
-6.300509081519e+01
-5.581974227658e+01
-4.570752063984e+01
-4.816576444593e+01
-9.734050285900e+01
-6.633199626089e+01
-9.336812444500e+01
-8.642080271695e+01
-8.110660906788e+01
-7.386229882559e+01
-6.595723627755e+01
-7.709881753128e+01
-1.281773647351e+02
-1.198769708909e+02
-1.498065751016e+02
-1.390032138932e+02
-1.443337893677e+02
-1.506733187489e+02
-1.028590913201e+02
-9.720666926315e+01
-4.508100070295e+01
-4.026233273435e+01
-1.329464026560e+02
-1.932529558215e+02
-1.492831422319e+02
-1.552148567132e+02
-1.495460683243e+02
-1.924429225001e+02
-8.587432025327e+01
-1.365530099232e+02
-3.679301186305e+01
-1.273938204862e+02
-3.380247082283e+01
-1.363568717416e+02
-1.964819799419e+02
-2.030901636834e+02
-1.853437678711e+02
-7.901462400338e+01
-1.345137477910e+02
-1.300551030809e+02
-7.415770665705e+01
-6.873641060303e+01
-7.589310773720e+01
-6.346537305430e+01
-8.292021945907e+01
-7.714933438909e+01
-1.773883289154e+02
-1.790378596501e+02
-1.735606812446e+02
-1.672032689067e+02
-1.926702893107e+02
-1.875540896207e+02
-7.000935106020e+01
-5.336701037047e+01
-1.557043981033e+02
-7.961624749504e+01
-2.055150975305e+02
-1.993764197673e+02
-2.748442258244e+01
-3.166515746109e+01
-1.524057247414e+02
-3.813213591137e+01
-3.984296593153e+01
-3.630427852273e+01
-2.219883648379e+02
-7.344250551043e+01
-2.089101912883e+02
-7.842443423773e+01
-1.582213786626e+02
-1.416875078595e+02
-8.141984461772e+01
-1.801918640393e+02
-1.460049320880e+02
-1.589596021804e+02
-9.592348425053e+01
-8.967889842404e+01
-1.014680677250e+02
-4.010404320127e+01
-3.013277068750e+01
-1.450803695878e+02
-8.357855411190e+01
-8.995228135665e+01
-5.373376158757e+01
-6.486638033941e+01
-1.316878800188e+02
-1.262127923732e+02
-1.433854727880e+02
-1.481974614781e+02
-1.338570747086e+02
-1.556557444533e+02
-1.438555320287e+02
-1.376593823518e+02
-1.558173635404e+02
-1.634889641047e+02
-8.844372665772e+01
-8.303861904003e+01
-8.802835568523e+01
-1.613278859297e+02
-2.152998791435e+02
-2.096326219675e+02
-2.921983819889e+01
-3.538521924576e+01
-3.229116661893e+01
-2.993811751936e+01
-1.608630453190e+02
-1.557268022600e+02
-1.675651081601e+02
-6.265473311845e+01
-1.580932418150e+02
-2.042726824586e+02
-1.975492457324e+02
-2.125131533661e+02
-1.779150058674e+02
-1.896532339188e+02
-1.865091513041e+02
-2.306566507225e+01
-1.547757240088e+02
-9.017685367052e+01
-2.000861447695e+01
-8.461474524857e+01
-9.144217339236e+01
-7.828812257822e+01
-5.116852050233e+01
-8.745369246596e+01
-9.521645519065e+01
-2.276232326895e+01
-1.670889435866e+02
-2.311602761858e+01
-2.765514705240e+01
-2.117595166087e+02
-2.053487220273e+02
-2.173402411662e+02
-2.108421946144e+02
-1.989163179859e+02
-2.049611272189e+02
-8.345523548011e+01
-2.186087858045e+02
-2.111479266826e+02
-2.247330552533e+02
-5.635160718081e+01
-5.066480994487e+01
-4.208321260514e+01
-3.041259756637e+01
-1.801233457797e+02
-1.711991593352e+02
-1.900805733751e+02
-1.777135837027e+02
-8.503129808478e+01
-8.431426331408e+01
-9.527105525265e+01
-9.372352625978e+01
-1.047015784952e+02
-1.030224070682e+02
-1.142039594124e+02
-1.909444038733e+02
-2.881442066604e+01
-6.746083764201e+01
-1.996470813710e+02
-1.935752035354e+02
-5.810557654146e+01
-4.538139859944e+01
-2.134973474973e+02
-7.355701563178e+01
-1.741824189119e+02
-1.285392557016e+01
-2.077661067593e+01
-7.727766120784e+01
-7.084409007151e+01
-5.368336234338e+01
-4.554094123286e+01
-1.677680431224e+02
-3.120886453139e+01
-3.448482177378e+01
-1.156779409352e+02
-2.625975681517e+01
-1.842746566856e+02
-8.088015454437e+01
-8.606369164748e+01
-4.333967307522e+01
-5.903004581508e+01
-1.039776473907e+02
-9.088021964431e+01
-8.528966562970e+01
-8.786770354603e+01
-4.897719291598e+01
-3.507133427202e+01
-1.004329036145e+02
-1.439342733120e+02
-1.500787212008e+02
-1.614232211095e+02
-1.563386622754e+02
-1.446632059281e+02
-1.510333098193e+02
-1.625609506085e+02
-1.578818802845e+02
-1.713387897905e+02
-1.643607776647e+02
-1.522076751044e+02
-1.585124378689e+02
-1.697957566341e+02
-1.466544918397e+02
-2.046054329092e+02
-8.870101600451e+01
-2.724380828951e+01
-2.393563984291e+01
-9.067959591199e+01
-1.819403594666e+02
-1.794479462762e+02
-6.669618859360e+01
-1.924925642005e+02
-9.185836112451e+01
-4.953379928605e+01
-1.975696338269e+02
-1.383266207850e+02
-1.326382283482e+02
-1.263355133699e+02
-1.781296764164e+02
-1.075052312197e+02
-2.079394034911e+02
-1.397797628290e+02
-1.327498102824e+02
-1.212358803866e+02
-1.455805372766e+02
-2.162355714811e+02
-2.070770822097e+02
-2.087969158300e+02
-1.968876449239e+02
-2.200070511756e+02
-1.865481164977e+02
-1.887894472316e+02
-7.234880662977e+01
-7.761591292438e+01
-8.823830135319e+01
-8.261251293849e+01
-7.205052528144e+01
-7.687194600279e+01
-8.739591920886e+01
-7.102978471779e+01
-1.599833499198e+02
-2.233680321814e+02
-1.508095596463e+02
-1.446267073165e+02
-1.329756493679e+02
-1.144594254744e+02
-1.207110322244e+02
-1.324652660258e+02
-1.081174777736e+02
-1.436203957011e+02
-2.245024588637e+02
-1.429533980570e+02
-1.151791791753e+02
-7.640353834734e+01
-8.757324898929e+01
-8.847580524527e+01
-9.989066012735e+01
-8.812877027249e+01
-1.371435660001e+02
-1.425700005797e+02
-1.361774215994e+02
-1.479769678440e+02
-1.412767653602e+02
-1.303706273429e+02
-1.531546159575e+02
-1.455623685545e+02
-7.546760586732e+01
-1.454744874802e+01
-2.276474011297e+01
-2.241166944051e+01
-3.082646343477e+01
-3.132739665771e+01
-4.047559890606e+01
-3.894330231832e+01
-2.286906887285e+01
-1.361230291422e+01
-2.210721335765e+01
-1.305749059917e+01
-2.158989017145e+01
-3.200632313116e+01
-4.695495812236e+01
-2.285533297722e+02
-1.121921886056e+02
-1.064027713013e+02
-9.507704053301e+01
-1.011298113693e+02
-1.168227088322e+02
-8.884151456004e+01
-8.463456086957e+01
-1.049806931747e+01
-2.016125073927e+01
-1.914740964637e+01
-3.002532539666e+01
-2.996566521152e+01
-2.049247418400e+01
-2.058296696483e+01
-1.075242730055e+01
-2.063491695865e+01
-3.057665553372e+01
-1.066003351393e+01
-1.299059079652e+02
-1.363611536170e+02
-2.258321867584e+02
-7.620646705465e+01
-1.236996493366e+01
-1.717351885293e+02
-1.743241875606e+02
-1.742780764387e+02
-2.094275729047e+02
-2.155876382264e+02
-1.718329310315e+02
-7.434377748405e+01
-1.677181511501e+02
-1.514023540397e+02
-4.393888107464e+01
-7.117781197161e+01
-1.719479839823e+02
-1.561555507778e+02
-1.974234792052e+02
-1.608758035389e+02
-1.861154871580e+02
-2.097466494550e+02
-4.732606590017e+01
-1.084975560482e+02
-1.036340360395e+02
-1.332458538898e+02
-7.828168462362e+01
-1.247673379556e+02
-5.007960552348e+01
-1.869109467973e+02
-8.822438644665e+01
-1.273586208825e+02
-1.027446310270e+02
-8.070449753908e+01
-6.623132176786e+01
-9.287321471828e+01
-1.212637452788e+02
-1.748872950033e+02
-1.396103030979e+02
-1.272893422529e+01
-1.810246261156e+02
-1.447426495886e+02
-1.138224280156e+02
-1.703302042970e+02
-4.617464822878e+01
-1.381866227132e+02
-1.603467781201e+02
-1.013091375849e+02
-3.869043931840e+01
-9.618015845551e+01
-2.055412200584e+02
-1.377905489286e+02
-7.181414190566e+01
-1.251121240141e+02
-9.370398623397e+01
-6.702950416972e+01
-1.565254602141e+02
-1.185997414122e+02
-1.840096029020e+02
-1.481848014515e+02
-7.707091420333e+01
-1.930911052534e+02
-1.167740641268e+02
-1.500340278394e+02
-1.457360870380e+02
-9.659267432318e+01
-1.435059187667e+02
-1.269539906896e+02
-1.754574064421e+02
-8.324193652962e+01
-1.219868867359e+02
-1.294886053037e+02
-1.202054379945e+02
-1.653907677099e+02
-1.870908727551e+02
-4.635308116355e+01
-7.015136059538e+01
-1.136418582322e+02
-1.716001866216e+02
-1.617008815552e+02
-8.176756591440e+01
-1.867271628756e+02
-1.549338437907e+02
-1.268639135191e+02
-5.411510282805e+01
-3.527799802006e+01
-7.539676845932e+01
-1.142685888036e+02
-1.386243028907e+02
-1.683726972053e+02
-1.925636903927e+02
-1.744141641473e+02
-1.738331274745e+01
-7.320083512583e+01
-1.983950671958e+02
-1.314293885557e+02
-1.821770076388e+02
-1.342738989464e+02
-1.890813064425e+02
-5.074611361631e+01
-2.043346448109e+02
-1.733459807355e+02
-7.014388728761e+01
-7.385463745502e+01
-2.184873848048e+02
-1.856739701724e+02
-1.318734636367e+02
-1.262397119916e+02
-5.515241964798e+01
-1.442599889856e+02
-1.266903861484e+02
-1.774326164152e+02
-1.906429678231e+02
-1.205368833257e+02
-1.379870314555e+02
-1.490233756995e+02
-3.014433619634e+01
-6.188238962363e+01
-1.434814863000e+02
-8.143366814642e+01
-1.323270970037e+02
-1.971425538133e+02
-1.489704001297e+02
-9.203148425353e+01
-1.544275802773e+02
-4.332502226057e+01
-1.269827952550e+02
-1.598582851117e+02
-1.385819593049e+02
-3.165384092263e+01
-1.390243343906e+02
-2.026822957800e+02
-9.307701775141e+01
-1.384172592045e+02
-1.390783854357e+02
-3.176709457081e+01
-1.501368922393e+02
-1.504487047337e+02
-1.461924695920e+02
-1.256485821094e+02
-1.621515794242e+02
-4.077309565356e+01
-6.940209567248e+01
-5.821824328407e+01
-9.806428200947e+01
-1.552452778051e+02
-3.982248709430e+01
-1.400787289785e+02
-4.246066706616e+01
-9.321417438067e+01
-1.658496583562e+02
-1.067816563550e+02
-9.893549286910e+01
-6.579515755824e+01
-9.375180383401e+01
-1.372082700604e+02
-9.925614879535e+01
-9.375695028999e+01
-1.630610326059e+02
-9.902093651353e+01
-1.739293569796e+02
-2.296185101954e+02
-8.298278291279e+01
-2.112134687013e+01
-1.510842501811e+01
-3.548955456335e+01
-8.207543327343e+01
-1.413423538898e+02
-8.349254650036e+01
-7.590499164307e+01
-1.760602844827e+02
-2.030709850924e+02
-1.241101968587e+02
-1.885348295758e+02
-1.536840975628e+02
-1.521477281702e+02
-7.328234484079e+01
-2.130043611935e+01
-1.717348611873e+02
-1.930499956606e+01
-2.989304620894e+01
-2.762963543981e+01
-8.118242908829e+01
-3.060501913326e+01
-2.079774004401e+01
-2.045647640316e+02
-8.497549098832e+01
-1.701365384753e+02
-1.979357982078e+01
-1.661403009637e+02
-1.956408901007e+02
-2.284905995120e+02
-1.823650461735e+02
-2.448521299681e+01
-9.690421130969e+01
-1.843996165382e+02
-1.336493901868e+02
-2.302592997141e+02
-8.421880437394e+01
-1.643628807308e+02
-4.185925964394e+01
-1.643797558171e+02
-1.532619687075e+02
-9.839763886748e+01
-9.761191771318e+01
-2.213870026251e+02
-1.725139884700e+02
-2.228813127425e+01
-1.236005675328e+02
-1.011324622836e+02
-2.155217280277e+01
-2.163300814605e+02
-1.643924285238e+02
-2.201772271277e+02
-2.965363632561e+01
-1.969292737704e+01
-2.162864425249e+02
-1.808995686298e+02
-4.741705276524e+01
-1.771906047487e+02
-1.748174393728e+01
-7.230735970394e+01
-1.993559709726e+01
-2.306150742258e+02
-1.657641570115e+02
-1.115831554571e+02
-7.817640286434e+01
-7.373451892033e+01
-1.817354415961e+02
-2.877248112489e+01
-1.664428268492e+02
-2.143891950760e+02
-1.707482333140e+02
-2.148834077021e+02
-2.003733568340e+01
-1.965977360564e+02
-2.008369626673e+02
-7.298989278616e+01
-1.710615614549e+02
-9.064673415228e+01
-3.945996597102e+01
-1.751162418026e+02
-8.669840863858e+00
-7.212115625196e+01
-2.324395893017e+02
-3.765723082704e+01
-9.183711633455e+01
-1.795871056922e+02
-1.373340962002e+02
-1.454040503510e+02
-3.741732236622e+01
-1.398473137576e+01
-1.130867047615e+02
-1.999758667078e+02
-1.698082850234e+02
-1.049279979215e+02
-2.850799184080e+01
-1.735444905675e+02
-1.206571110317e+02
-1.782947346604e+02
-1.979891087795e+02
-1.217726610490e+01
-1.477851261887e+02
-1.892234656448e+01
-2.208211382984e+02
-1.257824700098e+02
-7.610407427169e+00
-9.027645503437e+00
-2.167111893697e+01
-2.163623040889e+01
-3.477338552036e+01
-3.299090208239e+01
-4.732784452327e+01
-4.577208462211e+01
-5.962159277736e+01
-5.708014282283e+01

SCALARS node_materi_stress_size_dev_sd_sig float
LOOKUP_TABLE default
3.930515333134e+00
4.261696240320e+01
1.790727739397e+02
1.343977962828e+02
1.009502149397e+01
2.005119785672e+01
2.915899208855e+01
3.951429398897e+01
4.955509402781e+01
5.928960665722e+01
6.903427310962e+01
7.873230311703e+01
8.830082833444e+01
9.789358632089e+01
1.075979074410e+02
1.166247402065e+02
1.246864002188e+02
1.335319763913e+02
1.423538702702e+02
1.507144945427e+02
1.589720745408e+02
1.671070935904e+02
1.747026954412e+02
1.349762085542e+02
1.345683837037e+02
1.347222641887e+02
1.347942697771e+02
1.345341489833e+02
1.349291650783e+02
1.351119954572e+02
1.352605927291e+02
1.358485490401e+02
1.361854334182e+02
1.362302036061e+02
1.370441980623e+02
1.378118346141e+02
1.384826006830e+02
1.391465015492e+02
1.399285674295e+02
1.410601924852e+02
1.427739074042e+02
1.446400073404e+02
1.465989779455e+02
1.484499543568e+02
1.503191808844e+02
1.524373895750e+02
1.545467285134e+02
1.567847319451e+02
1.589817022638e+02
1.611494445393e+02
1.630955441608e+02
1.649062771491e+02
1.668476477648e+02
1.684532127648e+02
1.694768548979e+02
1.708520576041e+02
1.721721733656e+02
1.733196641540e+02
1.743158602532e+02
1.751942402513e+02
1.758423377201e+02
1.763580589615e+02
1.767765214532e+02
1.773648149163e+02
1.780977487245e+02
1.785173478314e+02
1.778978996465e+02
1.788514688250e+02
1.787293458548e+02
1.790471775555e+02
1.794116801344e+02
1.794412523686e+02
5.176578557825e+01
6.115621701375e+01
7.045334446731e+01
7.968663149609e+01
8.923820875429e+01
9.883960897587e+01
1.085531921249e+02
1.182866113242e+02
1.283197191015e+02
9.312058828719e+00
4.105157031494e+01
1.714155560897e+01
2.041469396608e+01
2.106618399704e+01
1.951726503419e+01
1.372117962914e+01
9.755300164048e+00
1.541391393980e+01
2.317268534031e+01
3.165633555231e+01
4.246355583324e+00
6.813901663089e+00
1.520012898367e+01
2.411826396316e+01
3.304345270322e+01
4.127109967796e+01
4.173618902737e+01
4.173376257177e+01
4.154626667187e+01
4.264787632596e+01
4.149509220785e+01
4.124225273355e+01
4.123143154830e+01
4.132418746050e+01
4.114219806905e+01
4.091416609402e+01
4.074051306205e+01
4.061393438752e+01
4.066979674664e+01
8.428759828788e+00
8.985577654883e+00
9.258225202907e+00
8.513961847896e+00
6.955090832660e+00
5.949496901207e+00
5.127342331494e+00
4.363730804094e+00
3.686928157600e+00
3.183104711319e+00
2.859606115500e+00
2.991014979671e+00
3.031054103255e+00
2.884641884437e+00
3.201692325250e+00
3.603313359136e+00
3.841377698792e+00
3.750766190331e+00
3.433807753505e+00
5.197548786351e+00
4.214579468639e+00
4.326137432966e+00
4.376640483243e+00
4.338809000194e+00
4.185623595063e+00
3.978286483719e+00
3.773482576551e+00
3.612657152605e+00
3.509471592240e+00
3.461220816752e+00
3.457698017937e+00
3.488613970119e+00
3.541631260846e+00
3.605443185886e+00
3.671732032932e+00
3.733549390639e+00
3.784106324003e+00
3.817897583323e+00
3.831554204316e+00
3.866165776407e+00
4.315074051232e+00
6.719142712359e+00
6.699053925828e+00
6.707518178474e+00
6.733894389223e+00
6.764793303781e+00
6.801190859319e+00
6.844484531886e+00
6.895068737261e+00
6.957492994624e+00
7.035260668312e+00
7.126586945744e+00
7.226810850982e+00
7.329711364988e+00
7.442779743160e+00
7.545505185232e+00
7.631353698671e+00
7.627236999129e+00
7.607188118206e+00
7.994065518444e+00
6.699523656820e+00
1.391626377637e+01
1.561019934956e+01
1.528717967008e+01
1.530814064117e+01
1.534480673591e+01
1.535393065600e+01
1.537321516008e+01
1.536332821276e+01
1.533585944817e+01
1.529648117463e+01
1.526488228077e+01
1.524235962849e+01
1.520983567176e+01
1.517597498654e+01
1.514546489542e+01
1.511479120569e+01
1.509333455354e+01
1.511239247568e+01
1.517110214777e+01
2.410741150228e+01
2.401332501770e+01
2.398259790399e+01
2.398662306836e+01
2.397185500858e+01
2.396805989701e+01
2.396068800589e+01
2.393064316387e+01
2.387572976851e+01
2.385779404682e+01
2.381671931108e+01
2.373944457013e+01
2.365727562251e+01
2.352027070462e+01
2.348741562488e+01
2.386067552805e+01
2.203603355398e+01
3.059229145180e+01
3.244658234840e+01
3.212301039939e+01
3.220844435969e+01
3.235589161662e+01
3.249351292219e+01
3.256220021719e+01
3.265392520478e+01
3.275388083437e+01
3.282414008975e+01
3.287449676600e+01
3.292127279447e+01
3.299004292525e+01
3.299374696659e+01
3.311643816875e+01
3.323530826295e+01
1.361025503022e+01
1.923339473586e+01
2.090548303666e+01
2.057990740701e+01
1.977140367120e+01
1.011265956790e+01
1.271914191011e+01
1.979216260807e+01
2.802266702034e+01
3.680641745222e+01
1.908388294533e+01
1.685864999853e+02
5.882083451923e+00
5.598493574095e+00
1.732121500317e+02
2.246065048643e+01
1.031065769951e+02
1.620446876470e+02
1.821229386412e+01
1.539701672358e+02
2.768964949421e+01
1.755007604902e+02
6.709132297339e+00
1.448760110258e+02
4.484891353945e+01
6.462170635746e+01
1.278130267362e+02
1.386497146181e+02
1.340904121385e+02
1.305891598223e+02
1.301046454423e+02
1.323564430863e+02
4.888327421579e+01
4.940990698644e+01
5.047351449239e+01
8.447140921317e+01
1.757287151128e+02
5.876281663235e+00
8.045319276328e+00
1.545647966077e+02
4.982119041054e+01
3.434633576868e+01
1.342479474286e+02
1.587954831722e+02
1.493146342836e+02
1.650124658468e+02
1.710553808209e+02
5.708744787316e+00
4.878256984079e+01
1.731810609808e+02
1.035164807357e+02
6.554584855524e+00
8.361065190334e+01
1.319208935657e+02
2.250798785834e+01
2.175863157621e+01
2.080719993646e+01
3.586557544987e+01
1.348826115087e+01
6.646766476978e+01
1.772576380337e+02
7.855419326371e+00
1.227300105823e+02
4.900997976621e+01
5.319712432518e+01
5.740526820177e+01
6.256328553783e+01
6.717759955265e+01
7.202847487700e+01
6.751751150637e+01
7.720999872603e+01
7.286506534824e+01
7.678473153579e+01
8.275507973954e+01
7.862259256366e+01
8.863498428829e+01
8.477107317798e+01
7.485643572968e+01
8.130211044788e+01
7.144867342244e+01
7.825039016253e+01
8.803886422459e+01
8.529515552066e+01
7.566550805002e+01
8.299325353016e+01
7.359840404954e+01
8.115869116058e+01
7.203994861104e+01
7.973896405000e+01
8.862897369934e+01
8.722307053040e+01
7.864691307700e+01
8.602354609420e+01
7.773410811352e+01
8.487806539160e+01
9.307975213421e+01
9.168816519818e+01
8.362485101334e+01
9.015300573006e+01
8.214334800920e+01
8.837911410162e+01
8.032779675020e+01
8.623776439195e+01
9.428804776352e+01
9.186957154488e+01
8.369177832764e+01
8.902779624065e+01
9.724898263347e+01
9.413469138649e+01
1.023915108247e+02
9.903958583857e+01
9.066627169343e+01
9.535142253014e+01
1.037497148114e+02
9.985758961795e+01
9.132622915354e+01
9.568132294492e+01
1.042394081181e+02
9.991900300516e+01
9.121830732745e+01
9.535781954478e+01
1.041083790471e+02
9.942434242701e+01
9.053596978617e+01
9.452588822556e+01
1.034669545769e+02
9.848292396929e+01
1.074527540608e+02
8.936318028413e+01
9.330813245860e+01
8.399393395336e+01
8.798331628234e+01
9.981996367654e+01
7.850673400347e+01
7.457726822421e+01
8.255488617318e+01
9.201991468227e+01
7.293799712541e+01
7.704665680349e+01
6.732651409022e+01
7.397648243540e+01
9.497050275367e+01
7.149362013837e+01
6.169386022984e+01
5.745534383713e+01
5.176440483041e+01
7.204513323627e+01
8.177682018535e+01
7.681712191177e+01
8.685916616132e+01
8.213806801274e+01
5.602217552590e+01
9.290835278542e+01
9.177588278015e+01
6.607661444829e+01
7.022555649796e+01
1.054058611566e+02
8.114687864010e+01
7.565695945148e+01
8.528173418473e+01
1.122866870025e+02
1.162595846758e+02
1.209475245976e+02
1.248880883304e+02
1.294363768090e+02
1.333372352542e+02
1.287538571926e+02
1.371595090466e+02
1.325561871819e+02
1.377485397566e+02
1.337861358356e+02
1.409084651887e+02
1.362984222953e+02
1.445913355190e+02
1.399872265897e+02
1.315463635137e+02
1.352508511891e+02
1.267103172616e+02
1.105771097466e+02
1.135360381396e+02
1.187152434508e+02
1.216496391722e+02
1.268138565838e+02
1.297426529218e+02
1.348510735928e+02
1.317330509871e+02
9.481749952975e+01
8.070188649649e+01
7.539848343682e+01
7.222198385444e+01
6.693985421739e+01
6.351736481032e+01
5.822814326155e+01
5.448418141891e+01
5.957334447751e+01
5.020364258257e+01
5.512702525238e+01
4.543598094611e+01
5.020616560966e+01
9.592722466531e+01
1.243535230835e+02
1.324850002803e+02
1.268389914661e+02
4.747948563950e+01
1.436358131371e+02
1.419743483958e+02
1.379123208804e+02
1.397276875815e+02
4.616293145403e+01
4.919211180046e+01
5.263400684689e+01
9.205997435633e+01
8.737484989499e+01
1.460117499740e+02
5.042713601207e+01
1.453768005936e+02
4.045613561975e+01
1.389228576199e+02
1.472521337436e+02
1.240250360267e+02
1.350846441949e+02
1.291799118582e+02
5.988753045186e+01
5.489134388364e+01
4.513532547707e+01
4.987472352784e+01
5.953927771188e+01
5.409456472618e+01
4.417598481021e+01
4.846073079996e+01
5.842254932551e+01
5.277714908582e+01
4.256443852352e+01
4.695760691172e+01
1.518134682399e+02
3.532390075884e+01
6.503053764218e+01
1.499727651687e+02
1.427278063489e+02
9.736852980265e+01
9.273276799593e+01
8.285540913906e+01
8.828377645281e+01
9.822224814053e+01
9.375240553585e+01
8.394931271590e+01
8.936272396740e+01
7.966323009831e+01
8.505798173899e+01
9.481439940072e+01
9.050635011654e+01
8.085913003749e+01
8.625001540495e+01
7.667977672780e+01
8.196318439751e+01
9.166692934321e+01
4.077776514954e+01
1.364403321796e+02
1.444343628683e+02
8.013720797635e+01
8.928506689093e+01
9.471593926178e+01
9.878109445983e+01
8.728411679686e+01
9.713643675147e+01
4.362206269800e+01
4.673566724154e+01
1.021983425173e+02
1.426009315944e+02
1.341519892431e+02
6.959074061377e+01
6.195815193650e+01
6.154956062035e+01
5.369834631543e+01
5.388754775461e+01
5.338303563250e+01
1.296351496539e+02
1.003347562295e+02
5.322945018548e+01
4.318323216342e+01
1.508872458146e+02
1.283816493641e+02
9.762027291971e+01
1.047625050408e+02
1.067458795499e+02
1.137369431717e+02
1.159907617780e+02
1.228001788446e+02
1.205539709473e+02
1.375749657565e+02
1.294644422141e+02
7.750108573333e+01
1.186068873214e+02
6.272395183280e+01
3.643466496510e+01
3.645335260755e+01
4.474127182423e+01
5.465843605612e+01
1.539121608114e+02
1.252996902794e+02
1.184376660085e+02
4.558958396124e+01
4.542487272360e+01
1.432618708337e+02
7.237696863253e+01
7.434320022519e+01
7.013337448441e+01
3.397201593270e+01
3.229749930556e+01
1.037532232924e+02
5.541793263743e+01
4.922850455531e+01
3.018905833638e+01
2.476708807075e+01
9.249804715216e+01
1.023122206803e+02
1.039660139632e+02
1.079752990225e+02
1.498762476526e+02
4.110313759519e+01
1.069898180351e+02
1.329447464744e+02
1.247898069761e+02
9.329437894373e+01
3.781829790121e+01
3.441949741638e+01
6.815844034645e+01
5.133287876538e+01
4.899316851164e+01
1.576455646855e+02
1.082959878543e+02
1.271438482567e+02
1.184306700004e+02
1.358987561096e+02
3.064290424971e+01
1.579172112013e+02
1.463093030524e+02
1.276309722164e+02
1.212046176432e+02
5.757801055557e+01
5.116514651161e+01
4.277468353438e+01
4.439708550029e+01
6.317883569820e+01
5.928512608198e+01
6.164126305690e+01
5.529939175600e+01
5.195678032929e+01
5.410924839831e+01
4.575496914396e+01
6.978685327393e+01
1.080839773649e+02
1.000305650324e+02
1.229519338110e+02
1.169034966423e+02
1.047003192792e+02
1.103437819152e+02
7.135858682102e+01
6.714600687235e+01
3.738573028020e+01
3.304491575801e+01
1.114019738830e+02
1.538035439384e+02
1.074789198688e+02
1.124791231010e+02
1.071654560354e+02
1.534424461456e+02
7.727838474443e+01
1.155167380108e+02
2.988702257260e+01
1.013928744102e+02
2.733264137799e+01
9.786697763185e+01
1.545100039713e+02
1.589170104374e+02
1.458300581256e+02
4.898242855096e+01
1.080454290980e+02
1.062551680711e+02
4.578612463839e+01
4.242633341699e+01
4.913648876158e+01
3.969104941435e+01
7.231110828078e+01
6.685369114569e+01
1.353477100253e+02
1.382949814398e+02
1.308067964481e+02
1.244878031451e+02
1.513074474262e+02
1.485498374556e+02
5.866496711824e+01
3.679468036001e+01
1.138146723954e+02
4.952720872776e+01
1.614355675962e+02
1.575441649208e+02
1.899308277991e+01
2.379708731883e+01
1.123960743957e+02
3.595427493026e+01
3.698412178062e+01
3.421345246725e+01
1.707187355296e+02
4.967239257852e+01
1.625003233191e+02
5.493810928298e+01
1.171284724850e+02
1.144679743373e+02
6.871252792750e+01
1.456390966860e+02
1.071184680823e+02
1.181028831096e+02
6.486843426800e+01
6.052697352026e+01
6.881257926533e+01
3.520450831860e+01
2.408645751800e+01
1.058467918732e+02
7.020061400749e+01
7.546226587979e+01
4.525482075952e+01
5.529975486757e+01
1.091431410832e+02
1.052488509892e+02
1.047138510875e+02
1.077947869839e+02
9.961479860302e+01
1.292244523682e+02
1.209663657771e+02
1.165718703889e+02
1.146178855087e+02
1.213949212880e+02
7.750403426671e+01
7.332615155187e+01
7.626524256444e+01
1.185346490738e+02
1.667213084041e+02
1.632173665535e+02
2.294352214134e+01
2.855893778297e+01
2.897030718790e+01
2.557386147096e+01
1.174410742743e+02
1.124861708974e+02
1.236592263012e+02
5.235466178113e+01
1.249276649941e+02
1.607036163406e+02
1.566126340144e+02
1.657635462336e+02
1.399422167617e+02
1.481952201566e+02
1.445103742620e+02
1.430801279669e+01
1.146135585984e+02
6.152620013074e+01
9.875084585443e+00
5.745315821862e+01
6.294554819487e+01
5.286061331310e+01
4.266369274416e+01
5.805003644123e+01
6.353473113037e+01
1.659392118247e+01
1.239837754631e+02
1.786350926610e+01
2.198388972630e+01
1.651694981506e+02
1.611398060141e+02
1.685030692996e+02
1.643882869675e+02
1.569282080696e+02
1.606156378286e+02
5.615370004886e+01
1.690223946725e+02
1.643044927845e+02
1.728722253864e+02
3.314858559260e+01
4.523313551875e+01
3.733396501689e+01
2.876062570816e+01
1.357924693618e+02
1.274741758540e+02
1.502099559877e+02
1.418182550458e+02
5.827594808129e+01
5.787829140226e+01
6.630502738538e+01
6.524833716203e+01
7.380616177509e+01
7.251703315291e+01
8.130851284071e+01
1.472177508505e+02
2.779121494708e+01
4.038655589763e+01
1.564210394238e+02
1.530010032484e+02
3.759221718676e+01
2.830590101213e+01
1.663993387958e+02
6.576170826926e+01
1.303288653918e+02
7.004222245609e+00
1.249161066521e+01
6.734178258463e+01
4.702033459745e+01
4.543456871905e+01
3.775243163813e+01
1.374705848705e+02
2.429312868675e+01
3.194244319516e+01
8.227247138339e+01
2.389830692696e+01
1.462186228999e+02
7.212145127169e+01
6.299870864099e+01
4.061267383386e+01
5.265520614525e+01
6.878804275756e+01
5.808295933041e+01
5.374541260168e+01
7.808000163520e+01
3.690025298195e+01
2.768048061704e+01
6.848595534790e+01
1.020114738990e+02
1.073361890148e+02
1.175943505566e+02
1.128794519182e+02
1.024413957281e+02
1.080877430495e+02
1.186360010445e+02
1.142867450594e+02
1.267434315605e+02
1.204767535975e+02
1.095859458146e+02
1.156363768426e+02
1.257092151170e+02
1.051468090782e+02
1.591042167610e+02
7.550053530462e+01
1.947340664992e+01
1.743468396952e+01
6.424647686722e+01
1.369810102008e+02
1.346257208422e+02
6.133588867741e+01
1.468696353446e+02
5.908347573783e+01
4.508202488207e+01
1.516076608211e+02
9.695316066987e+01
9.198703803428e+01
8.671749427199e+01
1.335287785103e+02
7.315414566327e+01
1.605896923956e+02
1.162137235404e+02
1.104300468900e+02
1.023276171247e+02
1.034126677565e+02
1.672312885584e+02
1.619009081424e+02
1.631155628216e+02
1.558056436362e+02
1.698277896392e+02
1.412068540456e+02
1.433963638544e+02
6.387784243619e+01
6.905017240911e+01
7.819115397110e+01
7.380530681923e+01
6.454570875211e+01
6.922344548136e+01
7.817353992626e+01
6.446551871924e+01
1.177543367578e+02
1.720303666988e+02
1.254218981727e+02
1.212352314235e+02
1.127375489929e+02
9.605485873191e+01
1.013000202180e+02
1.103539965713e+02
9.071287240682e+01
1.117077501273e+02
1.727150899639e+02
1.202457104001e+02
9.729981401102e+01
4.884387625107e+01
5.680652858196e+01
5.694784928654e+01
6.581306854667e+01
5.768997976692e+01
1.130411948429e+02
1.169136690717e+02
1.119386501122e+02
1.207340568045e+02
1.156009766742e+02
1.073131840754e+02
1.243492000950e+02
1.187116405414e+02
4.897647440086e+01
5.711584692024e+00
1.398686886726e+01
1.396671196455e+01
2.289109836782e+01
2.345987932033e+01
3.301379145365e+01
3.150676456291e+01
1.371903554641e+01
5.675551801136e+00
1.430309494626e+01
5.734065786726e+00
1.435564467295e+01
2.461234044367e+01
3.903820220659e+01
1.749289491132e+02
9.306886349328e+01
8.856608208608e+01
7.927971160666e+01
8.434366531452e+01
9.688906875174e+01
7.413603470497e+01
7.067463735882e+01
8.203373916795e+00
1.670817999730e+01
1.592769205604e+01
2.520189478732e+01
2.484618760871e+01
1.668425585151e+01
1.658356970246e+01
7.750901452179e+00
1.635774713507e+01
2.509992114649e+01
7.179411577141e+00
9.410786334516e+01
9.941912333306e+01
1.735727806930e+02
5.032091533283e+01
6.296401428365e+00
1.288720757544e+02
1.307719620964e+02
1.308111406700e+02
1.628328268097e+02
1.667454104260e+02
1.291211178949e+02
6.313929086442e+01
1.231058964500e+02
1.113883986640e+02
3.984594927447e+01
6.120450554976e+01
1.379092765576e+02
1.278168989369e+02
1.553689777206e+02
1.304514240513e+02
1.482239026214e+02
1.639712393145e+02
3.930130065933e+01
7.543847300267e+01
7.242772547047e+01
9.598203539564e+01
6.592336931824e+01
1.031826792555e+02
4.185616342870e+01
1.426273106156e+02
5.876875677743e+01
1.082324819203e+02
8.663198396082e+01
6.887089479709e+01
5.709622890680e+01
7.676544720060e+01
1.024487129962e+02
1.416038406740e+02
1.014915550151e+02
7.945729774790e+00
1.458770426803e+02
1.201689602644e+02
7.856146565009e+01
1.377840983954e+02
3.843492669501e+01
9.923276128413e+01
1.174269654001e+02
6.784184236732e+01
3.182832135791e+01
6.590458174069e+01
1.615178709712e+02
9.692247537513e+01
6.028253272513e+01
1.073178598546e+02
7.095843257223e+01
4.018693147297e+01
1.156541803371e+02
9.815817214540e+01
1.476200942699e+02
1.236558634612e+02
6.460459366976e+01
1.533968216159e+02
9.998146645075e+01
1.092628467490e+02
1.090056145119e+02
8.578107680022e+01
1.027548940340e+02
1.085050595189e+02
1.405854647032e+02
5.651226558273e+01
9.034039646291e+01
9.120075351792e+01
9.444844262004e+01
1.331892946216e+02
1.496875344172e+02
4.032615924400e+01
6.073156046266e+01
7.754842802354e+01
1.317645128696e+02
1.193166010876e+02
6.234486149636e+01
1.490510365097e+02
1.127920973433e+02
1.064143467827e+02
4.529160297132e+01
3.047105949270e+01
6.856909682767e+01
9.635164248674e+01
1.153187587049e+02
1.241657812653e+02
1.526536083662e+02
1.418618777603e+02
1.665063599430e+01
4.453484875060e+01
1.562496693102e+02
1.120404407918e+02
1.456201755341e+02
1.101725113546e+02
1.449302252851e+02
3.022651316176e+01
1.599860895967e+02
1.411080713499e+02
6.383197292352e+01
4.990269604369e+01
1.688542401202e+02
1.490938710883e+02
1.030042389334e+02
1.082750822560e+02
3.160204503265e+01
1.191765911738e+02
9.244191660808e+01
1.330558204759e+02
1.520617158762e+02
8.177746376560e+01
1.142064275182e+02
1.207607803726e+02
2.478957495174e+01
3.655907388736e+01
1.180343888758e+02
7.345468267206e+01
1.126583597798e+02
1.538545151830e+02
1.218514110778e+02
8.216149625676e+01
1.256284335669e+02
2.388552892467e+01
8.722231869127e+01
1.293435301715e+02
1.019727559007e+02
2.582475602991e+01
1.098295961937e+02
1.584785176414e+02
8.010970467676e+01
1.169506360649e+02
9.759090908444e+01
1.859375138418e+01
1.253186339304e+02
1.115954446674e+02
1.164029612025e+02
1.043898139339e+02
1.336431937179e+02
2.782929029506e+01
5.908705442848e+01
4.919282691071e+01
8.684290866791e+01
1.145327845122e+02
3.322700145826e+01
9.894283178506e+01
3.483533726583e+01
8.268075399635e+01
1.314618813877e+02
7.555837073237e+01
8.701962020894e+01
5.503204253549e+01
8.239754700904e+01
1.125040510443e+02
8.652070426190e+01
8.153515138727e+01
1.213362015060e+02
8.546598530764e+01
1.306955999864e+02
1.755132702943e+02
5.702063416663e+01
1.756888758956e+01
5.905611428171e+00
3.103905435926e+01
7.075709191305e+01
1.012111933311e+02
5.731285510793e+01
6.503220180808e+01
1.312243027587e+02
1.565034911460e+02
8.937130788785e+01
1.501181741785e+02
1.229277443490e+02
1.125514958816e+02
4.891978658659e+01
1.457691648799e+01
1.375773978235e+02
2.159565608295e+01
2.889403618873e+01
2.609735040789e+01
6.807935350752e+01
2.284029492076e+01
2.234078370979e+01
1.599993184519e+02
5.654322429292e+01
1.335243796475e+02
2.063218421115e+01
1.228626376242e+02
1.518361297086e+02
1.751142679042e+02
1.423008726427e+02
2.099035711430e+01
6.392369457708e+01
1.401286855557e+02
9.690122938007e+01
1.759988365517e+02
5.509118877174e+01
1.226398352531e+02
3.527938333272e+01
1.227459482020e+02
1.114419299377e+02
6.846750557850e+01
6.364819896096e+01
1.703469737963e+02
1.279673132652e+02
1.721862493675e+01
8.869985411144e+01
8.455557091040e+01
1.174722504468e+01
1.680088479190e+02
1.212713930807e+02
1.698243006799e+02
2.480838480595e+01
1.420195573561e+01
1.680792395837e+02
1.360863474247e+02
4.023030893889e+01
1.331599069206e+02
1.147131718743e+01
4.765608621211e+01
1.526069492523e+01
1.761455837831e+02
1.232892100007e+02
9.271556366851e+01
4.913741198796e+01
6.168472712529e+01
1.396802400735e+02
2.159161031010e+01
1.241608761162e+02
1.668815487688e+02
1.265304645238e+02
1.659134440385e+02
1.043708292621e+01
1.520131420853e+02
1.584976524393e+02
4.901178533397e+01
1.265774253845e+02
7.575998166360e+01
3.250275867922e+01
1.317326572989e+02
6.704041011127e+00
4.875869950855e+01
1.772103572175e+02
3.111027068143e+01
6.376190776420e+01
1.346187757925e+02
1.125506613425e+02
1.068896697366e+02
2.969346132175e+01
5.841853801549e+00
8.050094760231e+01
1.554510874145e+02
1.260289246787e+02
7.371614443791e+01
2.286206825648e+01
1.293325907267e+02
9.970318803642e+01
1.353744550249e+02
1.561823822748e+02
1.015305074046e+01
1.203838011500e+02
1.401448180478e+01
1.705238289991e+02
1.037618933277e+02
5.129510588960e+00
4.148093628041e+00
1.078355338797e+01
1.104065287708e+01
1.841598789394e+01
1.936958831356e+01
2.669215243184e+01
2.885632492952e+01
3.546664111829e+01
3.744202967326e+01

SCALARS node_materi_strain_total_average_a_ept float
LOOKUP_TABLE default
3.366756405828e-05
2.906624987656e-03
2.765787991068e-03
4.307538858392e-03
1.067139709272e-04
2.518972037837e-04
3.934834996088e-04
5.490812523234e-04
7.009006919547e-04
8.514710019066e-04
1.000785292703e-03
1.149193302874e-03
1.296902579238e-03
1.444421369855e-03
1.593742713369e-03
1.739582831889e-03
1.870747495401e-03
2.012155015957e-03
2.156003354868e-03
2.293623771110e-03
2.430565882468e-03
2.566615594811e-03
2.698370708982e-03
4.316058096200e-03
4.307342660332e-03
4.308218569147e-03
4.305843518812e-03
4.297348422505e-03
4.298986896031e-03
4.293762370824e-03
4.283912373768e-03
4.279780018335e-03
4.269523535222e-03
4.250272852530e-03
4.239292386798e-03
4.219960508645e-03
4.195609309431e-03
4.165622576479e-03
4.130242565978e-03
4.091353900251e-03
4.050741992340e-03
4.006268078331e-03
3.957551675647e-03
3.899953916101e-03
3.834994765691e-03
3.769956469592e-03
3.700613277038e-03
3.630593355323e-03
3.561587859449e-03
3.491697164596e-03
3.424206314222e-03
3.354948547703e-03
3.295693785200e-03
3.233942376986e-03
3.169693275297e-03
3.113409653570e-03
3.068009523524e-03
3.024975465736e-03
2.982608222513e-03
2.951732723964e-03
2.914936775656e-03
2.888001249688e-03
2.858387272556e-03
2.838995497492e-03
2.830527961766e-03
2.821224986708e-03
2.786773595839e-03
2.793647835230e-03
2.776500053259e-03
2.772856081568e-03
2.775721707783e-03
2.772465957971e-03
3.053394198460e-03
3.197131943096e-03
3.341080047479e-03
3.482886514659e-03
3.628034075725e-03
3.774886013605e-03
3.920063145462e-03
4.066375477536e-03
4.213627830550e-03
-8.348342886797e-05
2.819148909505e-03
1.581747122528e-04
5.679081105228e-04
1.031200464152e-03
1.502156817370e-03
2.011617776475e-03
2.259619183737e-03
2.391408328747e-03
2.525896912815e-03
2.666927965651e-03
2.231176504582e-03
2.327822629223e-03
2.473360685150e-03
2.617193744389e-03
2.759699073687e-03
2.888686997372e-03
2.897537078422e-03
2.896697199626e-03
2.893483383148e-03
2.911216447635e-03
2.891824264490e-03
2.887249600382e-03
2.884908523364e-03
2.881848553638e-03
2.874390674832e-03
2.866535998767e-03
2.856331428616e-03
2.845193766672e-03
2.833469980345e-03
-1.094558535793e-04
-1.374724301150e-04
-1.441958532174e-04
-1.327315868714e-04
-1.110803926910e-04
-9.381741977758e-05
-7.721585816029e-05
-6.114235596076e-05
-4.578740912929e-05
-3.155710315829e-05
-1.621015960893e-05
-6.840391518634e-06
4.287453672696e-06
1.371090770486e-05
2.186615246539e-05
2.736509952174e-05
3.175714528265e-05
3.439676239716e-05
3.309727699785e-05
2.227711217368e-03
2.298016972545e-03
2.330206069097e-03
2.335756999385e-03
2.338049274172e-03
2.332863916703e-03
2.326757539309e-03
2.319034448542e-03
2.311493615358e-03
2.304215691221e-03
2.297560907419e-03
2.291461520817e-03
2.285994601067e-03
2.281184875594e-03
2.277025390216e-03
2.273507789394e-03
2.270664047760e-03
2.268623139757e-03
2.267567308898e-03
2.267073145243e-03
2.258595975676e-03
2.233757632922e-03
2.329581045980e-03
2.334103230602e-03
2.335631412843e-03
2.336627333093e-03
2.337895382030e-03
2.339555422740e-03
2.341590435139e-03
2.343963962012e-03
2.346695976308e-03
2.349726293824e-03
2.353002525140e-03
2.356403383499e-03
2.359731918929e-03
2.362913775772e-03
2.365175664569e-03
2.366174924045e-03
2.363477255826e-03
2.358025375653e-03
2.345040153762e-03
2.310684611801e-03
2.416860347666e-03
2.450375398311e-03
2.461316891500e-03
2.468917402442e-03
2.475043226061e-03
2.478014933899e-03
2.480077058191e-03
2.480958960379e-03
2.481129820022e-03
2.480914835413e-03
2.480483944466e-03
2.479892165611e-03
2.479278414391e-03
2.478609755339e-03
2.478029214480e-03
2.477432382238e-03
2.476676501564e-03
2.475221259593e-03
2.473920161971e-03
2.617556085403e-03
2.618121251143e-03
2.618406766097e-03
2.618434050815e-03
2.618281828565e-03
2.617826865040e-03
2.617212165571e-03
2.616041314489e-03
2.614373821292e-03
2.612278176505e-03
2.609446186868e-03
2.605494496186e-03
2.600065807010e-03
2.592075731516e-03
2.583701205647e-03
2.574825510512e-03
2.541334388187e-03
2.676039456999e-03
2.708739351283e-03
2.717305716225e-03
2.727416976704e-03
2.735416467218e-03
2.741739806204e-03
2.746222759346e-03
2.750217535905e-03
2.754122505314e-03
2.755871967802e-03
2.757753571008e-03
2.758871377461e-03
2.759814453242e-03
2.760043116704e-03
2.760961221774e-03
2.760923942097e-03
3.655480417919e-06
3.537138617994e-04
7.976620836793e-04
1.272734241864e-03
1.725330806325e-03
2.179130377746e-03
2.334837301765e-03
2.469039072339e-03
2.607113296143e-03
2.753389085566e-03
5.535372684606e-04
3.045776208940e-03
2.434160625618e-05
-3.736802817682e-05
2.858590390678e-03
1.443713795363e-03
1.525292526435e-03
3.262994191465e-03
2.177247972185e-03
3.533669237711e-03
2.530946841213e-03
2.782513490419e-03
5.955703789483e-05
3.797486789334e-03
2.846921796588e-03
9.335493663726e-04
1.919590963549e-03
3.949099479984e-03
4.108058116420e-03
4.231426944073e-03
4.197220063927e-03
4.175038633748e-03
2.955013539695e-03
3.003103178037e-03
3.029932885589e-03
3.556745235484e-03
2.738142278047e-03
-2.661891626822e-05
8.410427821143e-05
2.357603106521e-03
3.021923029147e-03
4.701368050865e-04
4.017146866933e-03
3.407057143242e-03
3.670864396732e-03
3.148465608039e-03
2.960458197448e-03
-6.954672575591e-06
2.979406833107e-03
2.787125070787e-03
3.842966129998e-03
4.899306997647e-05
1.224264235620e-03
4.259240628675e-03
1.858525326843e-03
9.895591705796e-04
2.369479313990e-03
2.686779342489e-03
1.571991884469e-04
3.281035510767e-03
2.746665321872e-03
8.465236850454e-05
4.132691278447e-03
2.919923898434e-03
2.953203446412e-03
3.036758436789e-03
3.069889661974e-03
3.160774294160e-03
3.190863292788e-03
3.096402572427e-03
3.218157324018e-03
3.118834650527e-03
3.286041542191e-03
3.241962116110e-03
3.137946585438e-03
3.262480558420e-03
3.154101477363e-03
3.032679802010e-03
3.044392220242e-03
2.925513593992e-03
2.932496129296e-03
3.054065374727e-03
2.937744907833e-03
2.817606339626e-03
2.818691341540e-03
2.699114934273e-03
2.696225747651e-03
2.575432479547e-03
2.569618712408e-03
2.694635960437e-03
2.566117782548e-03
2.438917091274e-03
2.434416466307e-03
2.303810592160e-03
2.299037136185e-03
2.433336159232e-03
2.299090934888e-03
2.159623516484e-03
2.162799593760e-03
2.017670021154e-03
2.025332527155e-03
1.874228443995e-03
1.886185951458e-03
2.036815514511e-03
1.901896264365e-03
1.746431295705e-03
1.767084036973e-03
1.921599303060e-03
1.791364240532e-03
1.944447587902e-03
1.818645884120e-03
1.663716145941e-03
1.695340391589e-03
1.848201173167e-03
1.728591145626e-03
1.574542701756e-03
1.612179358918e-03
1.764138811222e-03
1.651494853655e-03
1.498783503415e-03
1.541801767141e-03
1.693127497030e-03
1.585988250886e-03
1.434473675998e-03
1.481490992496e-03
1.631977354061e-03
1.529601122598e-03
1.678936416124e-03
1.378078273788e-03
1.429073357518e-03
1.276376794866e-03
1.330703083040e-03
2.435899796471e-03
1.177625554187e-03
1.122626191233e-03
1.234674073763e-03
1.386326537486e-03
1.081153785056e-03
1.140681550927e-03
9.870663985475e-04
1.864889567578e-03
3.062233671960e-03
1.048677895327e-03
8.952783479142e-04
8.317544527079e-04
7.408038016140e-04
3.251401688614e-03
3.382693751430e-03
3.341169123105e-03
3.478334603218e-03
3.435590969177e-03
8.054168366322e-04
3.370926511234e-03
3.517726852281e-03
2.702735011824e-03
2.312862564745e-03
2.072051492081e-03
1.200332248775e-03
1.110253439059e-03
1.260105624921e-03
1.780655766295e-03
1.825906630694e-03
1.926779446339e-03
1.970172280611e-03
2.069986787556e-03
2.111754251950e-03
2.014739954637e-03
2.154783782340e-03
2.060444682466e-03
2.210305460116e-03
2.171316073514e-03
2.199042060167e-03
2.107375195637e-03
2.244862541183e-03
2.155568238675e-03
2.016623055923e-03
2.067017353029e-03
1.927465511128e-03
2.093613733476e-03
2.219032448877e-03
2.239109037019e-03
2.362417900430e-03
2.381211100636e-03
2.502528037861e-03
2.519654693624e-03
2.402049593678e-03
3.279189880478e-03
1.607814678385e-03
1.585393576046e-03
1.442670439316e-03
1.417880869620e-03
1.270681851306e-03
1.242918479602e-03
1.090320020267e-03
1.126680377494e-03
9.416523908292e-04
9.872397401263e-04
7.988649155963e-04
8.527228091215e-04
2.694449036467e-03
2.486877551655e-03
2.625382759580e-03
2.611336328110e-03
6.750086310152e-04
2.205163033763e-03
2.310445207836e-03
2.273619171758e-03
2.539656606922e-03
6.532462214789e-04
1.059290259998e-03
1.220293285532e-03
3.573645344863e-03
3.528088375085e-03
2.412010034676e-03
7.181148823078e-04
2.292097662296e-03
7.481987611567e-04
2.118719044405e-03
2.255751109668e-03
1.919528401979e-03
2.749217119651e-03
2.735692625966e-03
1.034973481620e-03
9.068300605282e-04
7.281616641955e-04
7.875507763832e-04
9.617007208615e-04
8.438456942294e-04
6.698299826010e-04
7.304342153858e-04
9.020869067317e-04
7.924630543444e-04
6.209691280621e-04
6.864929518450e-04
2.340705367277e-03
6.037998709594e-04
2.916317641002e-03
2.446209778228e-03
2.653629061630e-03
3.668945378120e-03
3.620460709020e-03
3.479487434250e-03
3.569682020066e-03
3.712733065468e-03
3.659581053057e-03
3.516758351169e-03
3.604635185057e-03
3.462021473172e-03
3.548117108796e-03
3.692386848843e-03
3.634202707811e-03
3.490085764628e-03
3.574721966996e-03
3.430507411173e-03
3.513595883970e-03
3.659359526144e-03
5.709026531654e-04
2.424778108263e-03
2.562360335466e-03
1.175254899054e-03
1.319289529502e-03
1.408338100707e-03
1.468319060659e-03
3.596078432037e-03
3.743429389793e-03
1.034335197313e-03
1.204365879197e-03
3.714955295108e-03
2.172175386548e-03
2.033799807624e-03
2.172894911675e-03
2.187156553162e-03
2.039682354221e-03
2.058636935308e-03
2.209358073972e-03
1.898546253177e-03
2.132282306918e-03
3.779784666279e-03
7.678914251617e-04
6.090797671541e-04
2.308326575023e-03
2.285276707585e-03
2.821946639194e-03
2.824186886708e-03
2.951464758998e-03
2.955164765322e-03
3.083118854141e-03
3.087046753339e-03
2.959689246900e-03
2.873930031615e-03
3.092239662852e-03
3.449387552557e-03
2.471250977097e-03
9.607191134424e-04
5.031545248974e-04
5.119684879411e-04
6.311125291388e-04
7.826434648406e-04
2.546337383201e-03
3.216551382655e-03
3.209803902948e-03
2.093688459554e-03
2.240634400437e-03
2.883953354869e-03
3.301006366161e-03
3.376219829921e-03
3.321069627876e-03
4.689655284828e-04
4.501132930094e-04
3.804442638513e-03
1.382638139259e-03
1.376879489011e-03
5.437319988893e-04
3.993058574229e-04
3.677730931835e-03
3.824510412985e-03
1.555550137252e-03
1.613269443828e-03
2.515915378991e-03
5.836036177345e-04
3.890929653536e-03
2.312265021513e-03
2.170373752292e-03
1.379723445904e-03
1.016128953178e-03
8.390390180331e-04
1.070252125654e-03
7.510856245331e-04
6.957308512336e-04
2.649149457411e-03
3.857507789644e-03
2.965445863239e-03
2.831861579424e-03
3.098595837526e-03
4.148791287751e-04
2.580336947478e-03
2.226938233202e-03
3.340066503673e-03
3.335212071576e-03
1.545862659178e-03
1.552471106526e-03
1.384780966637e-03
1.572879124240e-03
3.000968292454e-03
1.711623781934e-03
2.812759709074e-03
2.806360020179e-03
2.706541109033e-03
2.346526595815e-03
2.371425166178e-03
1.566553988477e-03
2.200732555656e-03
1.498627864453e-03
1.876209821916e-03
1.884190834946e-03
3.837699159519e-03
3.926762275847e-03
3.347104036229e-03
3.287308949077e-03
5.171408749371e-04
4.484013615321e-04
1.727071220261e-03
2.480714325979e-03
3.811663209202e-03
3.858391400586e-03
3.758084131443e-03
2.620514264292e-03
1.471677084845e-03
2.117305009377e-03
4.678061275835e-04
2.566446950507e-03
3.605122169953e-04
3.179390518426e-03
2.362805353499e-03
2.442101637312e-03
3.004969711938e-03
2.869589701459e-03
2.571384221318e-03
2.442593298262e-03
2.703066864242e-03
2.608995282672e-03
2.603288993713e-03
2.507396344689e-03
1.123577864143e-03
1.017116381208e-03
3.361163944083e-03
3.222908498547e-03
3.468054404118e-03
3.464798049648e-03
3.014429114618e-03
2.894041417977e-03
8.419913553091e-04
2.277256036581e-03
3.951225826326e-03
2.795749270119e-03
2.608840984397e-03
2.519278346659e-03
2.623837026430e-04
3.338120500391e-04
3.973746869388e-03
1.400534779782e-03
1.596225569002e-03
1.201101004499e-03
2.627453515493e-03
3.020509799548e-03
2.497098374065e-03
2.474505232364e-03
4.041634564950e-03
2.580884319004e-03
2.024376059071e-03
2.484907761263e-03
3.897263424724e-03
4.058779299967e-03
3.237663337187e-03
3.176714546017e-03
3.286862516772e-03
7.021092852149e-04
4.744573549720e-04
3.866286317591e-03
1.022338652018e-03
1.099579244963e-03
6.475747470855e-04
8.097547331676e-04
1.644424668445e-03
1.589928735392e-03
3.190743191995e-03
3.310031204059e-03
2.947186014383e-03
2.201329064954e-03
2.057805741074e-03
2.026320299221e-03
3.981699202202e-03
4.086363572451e-03
1.232321254160e-03
1.182952653193e-03
1.174574543517e-03
4.004573442548e-03
2.574371508458e-03
2.519075533775e-03
2.901521191076e-04
3.773502977211e-04
8.125994994785e-04
6.317483974072e-04
3.899717980887e-03
3.798891013591e-03
4.012539034915e-03
7.455333772080e-04
2.843287806171e-03
2.748305164578e-03
2.725894759903e-03
2.793994757216e-03
2.993832766763e-03
3.118364650050e-03
3.229105207450e-03
1.859397973801e-04
4.010664746261e-03
3.198604885051e-03
8.249241399595e-05
3.139891923617e-03
3.224506425539e-03
3.069674135321e-03
5.989128047863e-04
3.129371585370e-03
3.199718104905e-03
1.902781537688e-04
4.098745458047e-03
2.125014178871e-04
2.782168771188e-04
2.651773409858e-03
2.558362921728e-03
2.684162708790e-03
2.592134714645e-03
2.466720089000e-03
2.513447037048e-03
3.113093105006e-03
2.659035242454e-03
2.562069535777e-03
2.709670959956e-03
2.521071658534e-03
1.750067479539e-03
1.789810565305e-03
1.651544599788e-03
3.623089353613e-03
3.582539423876e-03
2.287608004490e-03
2.149027644017e-03
3.152231618730e-03
3.147526343970e-03
3.276923130132e-03
3.261832268826e-03
3.392357303205e-03
3.374422769357e-03
3.508242006766e-03
3.367342133514e-03
1.208455345123e-03
2.696084305458e-03
3.019394609500e-03
2.895003346501e-03
2.397686332913e-03
2.319013595823e-03
2.725537088279e-03
1.706821117105e-03
4.170108483467e-03
1.085008432421e-06
2.034681010142e-04
1.864544616958e-03
2.491671196894e-03
1.926570987752e-03
1.981407716970e-03
2.344255676259e-03
3.125186594181e-04
1.003842455771e-03
3.522027954452e-03
7.920955939049e-04
2.219484490950e-03
1.715644116216e-03
2.458514516208e-03
1.198897368793e-03
1.730158327728e-03
3.018251787654e-03
2.979810997998e-03
2.888402152205e-03
1.729422123021e-03
2.143461380577e-03
2.042421911638e-03
2.815955698912e-03
3.656708502732e-03
3.693858213952e-03
3.831720644079e-03
3.726404078019e-03
3.587742570298e-03
3.617919445973e-03
3.760120667639e-03
3.648688149243e-03
3.815557372725e-03
3.670360023976e-03
3.529432302742e-03
3.546663610718e-03
3.673783650545e-03
3.410301043954e-03
3.134301798512e-03
2.015061219651e-03
3.238010756828e-04
3.533879318423e-04
2.584259326585e-03
3.990234678007e-03
4.072983313811e-03
1.397293382809e-03
3.733274780165e-03
2.903991519833e-03
9.015251143591e-04
3.602979547450e-03
3.554294786641e-03
3.450131901670e-03
3.417815326189e-03
4.136049836638e-03
3.339073410669e-03
3.342100884445e-03
2.345363364221e-03
2.328617689763e-03
2.184013432939e-03
3.505803214289e-03
3.094294618175e-03
2.962749345512e-03
2.917155670394e-03
2.820475169866e-03
3.000354351376e-03
3.912421556393e-03
3.863886071377e-03
1.015966000213e-03
1.133789928523e-03
1.299000335734e-03
1.254750252658e-03
1.084343744926e-03
1.210400246471e-03
1.377971019859e-03
1.167001787369e-03
3.446263882108e-03
2.925909887652e-03
2.029224071387e-03
1.988311085774e-03
1.842149056011e-03
1.442478755133e-03
1.535812152775e-03
1.682520838544e-03
1.350533504608e-03
2.827218679056e-03
2.891272628225e-03
2.142830026564e-03
1.481920242791e-03
2.968336146646e-03
3.075163939223e-03
3.056751618080e-03
3.191518153049e-03
3.103194344323e-03
1.699586149447e-03
1.755569074505e-03
1.671962036126e-03
1.812288340906e-03
1.727584083479e-03
1.596732092588e-03
1.867267690506e-03
1.774694137582e-03
2.989842613567e-03
-1.737155756314e-05
1.433834956959e-04
1.422169881685e-04
2.961135192593e-04
3.112053608016e-04
4.773684476443e-04
4.611230514562e-04
1.423382326348e-04
3.088984523614e-06
1.492317693036e-04
1.444313386137e-05
1.516590757740e-04
3.193300397218e-04
5.451809126413e-04
2.711725465101e-03
1.369963382303e-03
1.299717733496e-03
1.158697283597e-03
1.236357731470e-03
1.429354589668e-03
1.078712407475e-03
1.025348195671e-03
8.757692399990e-05
2.030960792550e-04
1.897740494880e-04
3.302937397645e-04
3.269825824780e-04
2.023401057694e-04
1.996646089585e-04
7.913822701439e-05
1.965161688490e-04
3.301012997496e-04
7.055136199289e-05
3.702561563047e-03
3.782088135679e-03
2.829819740336e-03
3.021722298978e-03
3.888420466028e-05
4.211861413855e-03
4.219153389140e-03
4.230092975268e-03
2.495010655202e-03
2.564084359681e-03
4.221955318246e-03
9.251284948328e-04
3.862582185276e-03
3.952410329794e-03
8.676547318948e-04
9.130900205806e-04
2.089714031333e-03
1.967685743925e-03
2.389304917718e-03
1.980041776360e-03
2.292155441793e-03
2.861435880531e-03
5.494463038385e-04
3.405031151213e-03
3.369401725495e-03
3.720174528111e-03
9.581028326140e-04
1.533610018867e-03
5.859581240546e-04
3.520375805846e-03
2.706165006112e-03
1.736315697475e-03
1.292521832574e-03
1.022396595877e-03
8.544901599903e-04
2.163180572460e-03
1.579381897170e-03
2.250491774021e-03
3.805689939758e-03
6.829890211787e-05
2.347464020170e-03
1.872170551470e-03
3.428567441710e-03
2.639071708757e-03
5.599584542754e-04
3.748948258277e-03
3.951415784110e-03
3.251191845007e-03
4.302299101145e-04
3.260765425033e-03
2.675589569609e-03
3.616689737701e-03
8.697162813225e-04
1.969907239752e-03
2.446886808164e-03
2.767520465936e-03
4.009969475878e-03
2.303665799195e-03
2.675726831713e-03
2.261259464097e-03
9.347668653268e-04
2.426719521554e-03
2.053025174424e-03
3.894681583333e-03
3.077275463097e-03
1.634157547319e-03
3.763414163441e-03
1.801688131678e-03
2.760960488382e-03
2.594477725764e-03
2.820112595505e-03
3.167154469849e-03
2.565078970565e-03
2.008983311245e-03
2.386328541246e-03
6.628994816593e-04
1.881269333776e-03
3.389866926715e-03
3.216012065434e-03
4.040719781204e-03
2.326969663137e-03
2.334806385219e-03
3.906056079984e-03
1.630522377036e-03
6.377403115417e-04
6.711757988239e-04
1.302861848716e-03
2.170812564089e-03
1.776324756451e-03
3.953703890819e-03
2.379543469971e-03
2.378106647242e-03
3.509939504572e-04
2.783267125415e-03
2.426324336159e-03
1.997371830616e-03
2.770822845355e-03
1.640235883933e-03
3.451369019686e-03
2.425497452573e-03
2.476474045184e-03
2.453949386893e-03
1.552219771550e-03
3.024326475234e-03
2.625819545106e-03
2.591642934072e-03
2.695887859367e-03
1.879381212323e-03
2.609795986297e-03
1.826220845958e-03
2.942256563779e-03
4.160914067273e-03
2.693188297244e-03
3.317210237713e-03
1.734428716594e-03
2.595233565719e-03
3.271245621833e-04
2.611251600020e-03
1.787051341899e-03
1.339151927326e-03
1.912534500342e-03
3.130613753688e-03
1.840824892719e-03
1.504324133332e-03
1.895394295270e-03
2.454393448358e-03
3.345967671907e-03
1.950667146748e-03
3.069772025021e-03
3.395466041359e-04
2.698904862033e-03
2.425507779034e-03
1.224605855099e-03
1.948749706811e-03
3.479887378686e-03
2.284852757041e-03
2.093573142368e-03
3.201269462737e-03
2.706761658622e-03
2.313861562706e-03
2.237090825796e-03
2.202809637387e-03
8.651933522320e-04
7.070300576309e-04
1.538874354080e-03
3.325026576441e-03
4.542821164404e-04
3.392295531220e-03
4.807284977002e-04
1.417417429316e-03
2.860463944277e-03
3.420298457924e-03
1.457624218917e-03
7.864632180180e-04
1.343421375654e-03
2.454836075611e-03
1.388810461196e-03
1.280894747360e-03
4.097070702886e-03
1.329208727195e-03
4.248553472290e-03
2.712967138511e-03
3.134353998398e-03
2.072799160480e-03
-3.002631734083e-05
1.860360217411e-03
1.070171781526e-03
3.294263534039e-03
3.139753169561e-03
9.674017507988e-04
3.802332343173e-03
3.470708802991e-03
3.631381401926e-03
2.779851785141e-03
2.720945354240e-03
3.979316317073e-03
3.007432820240e-03
1.568233809398e-04
2.077706484487e-03
1.639560384752e-03
1.418979810312e-03
9.951748418958e-04
9.844974994555e-04
2.930389584312e-04
1.219365567270e-03
3.000594744070e-03
3.113412659266e-03
2.978382706760e-03
7.700915265252e-04
4.046087123553e-03
3.255373756326e-03
2.793685997901e-03
3.111865029660e-03
5.908863316073e-04
3.183345415904e-03
3.580882204941e-03
3.744235300109e-03
2.774805169530e-03
3.078765283248e-03
4.125233693604e-03
5.438604827653e-04
4.131047207432e-03
3.427613420370e-03
3.310484848289e-03
3.139627401452e-03
2.628150287945e-03
3.889191812634e-03
3.979737102515e-04
3.621230645271e-03
1.241875455232e-03
1.162004656905e-04
2.718923478073e-03
3.559758339734e-03
2.630009768758e-03
3.246323011538e-04
1.541113866858e-04
2.790592206995e-03
3.720500193690e-03
6.177749863118e-04
4.226053238492e-03
1.845892883361e-04
2.985600434048e-03
1.794543392639e-04
2.754636743603e-03
4.105661530488e-03
1.366608587581e-03
2.942344398398e-03
8.868506327269e-04
3.321823402613e-03
2.704198417321e-04
4.132135723739e-03
2.861425171598e-03
4.019533593532e-03
3.241329738785e-03
1.242412013590e-04
3.346840426328e-03
2.804030165603e-03
3.009618015448e-03
3.948933911792e-03
1.103683929600e-03
4.452145678983e-04
4.266820138138e-03
6.556149703347e-05
3.005192774352e-03
2.738278358111e-03
4.258981600024e-04
3.239813923913e-03
3.778319503085e-03
1.675016938354e-03
3.895159959128e-03
4.133365455370e-04
-5.950783944968e-05
3.496650083797e-03
3.221168686752e-03
4.069934475327e-03
3.391133034765e-03
5.093512476148e-04
3.665908340592e-03
1.478033997861e-03
3.456462763517e-03
2.890279543354e-03
1.774770794568e-05
1.799562510546e-03
1.553418601853e-04
2.700884368496e-03
1.538408691872e-03
2.270607975545e-03
2.249016079075e-03
2.357518774555e-03
2.405035737022e-03
2.475120007645e-03
2.541578520809e-03
2.605777346858e-03
2.693140274605e-03
2.745304731662e-03
2.827201501670e-03

SCALARS node_materi_strain_total_size_dev_sd_ept float
LOOKUP_TABLE default
8.470024737773e-05
7.709195239944e-03
6.712485348746e-03
1.059000792068e-02
2.340405376455e-04
5.286844281645e-04
7.911047525233e-04
1.091982406629e-03
1.381885072421e-03
1.667703247439e-03
1.958702085239e-03
2.257278074221e-03
2.564425669130e-03
2.888143284807e-03
3.236804886992e-03
3.581110465441e-03
3.906052147970e-03
4.285478338354e-03
4.691479585583e-03
5.102535953208e-03
5.536100712314e-03
5.992318598031e-03
6.437340906014e-03
1.059911105982e-02
1.058390339287e-02
1.058661383409e-02
1.058303623661e-02
1.057185102879e-02
1.057471139998e-02
1.056868027702e-02
1.055401562790e-02
1.055003665487e-02
1.053131430931e-02
1.050608294235e-02
1.048643700024e-02
1.045661450802e-02
1.041267546482e-02
1.036392518474e-02
1.029767852592e-02
1.023093224671e-02
1.015611379072e-02
1.006733116447e-02
9.965718077035e-03
9.842833030423e-03
9.710120900461e-03
9.561356735343e-03
9.401436918632e-03
9.236030938363e-03
9.064899100349e-03
8.886304243481e-03
8.703205623997e-03
8.518155310874e-03
8.358208648724e-03
8.171154493723e-03
7.983167093076e-03
7.813989192527e-03
7.675021177487e-03
7.537904280362e-03
7.416677371190e-03
7.303958591787e-03
7.199259006131e-03
7.101664390696e-03
7.018843050078e-03
6.964397157745e-03
6.927403728479e-03
6.887480590084e-03
6.785372823361e-03
6.804248389159e-03
6.765209176442e-03
6.757333844134e-03
6.758338431925e-03
6.749639217445e-03
8.048210482234e-03
8.386295208263e-03
8.708080885061e-03
9.014713161760e-03
9.318470227062e-03
9.610993303945e-03
9.893814628415e-03
1.016439438531e-02
1.043624823415e-02
1.025480557813e-03
7.881983806941e-03
2.034214943490e-03
3.014406764268e-03
3.975424839670e-03
4.913264674878e-03
5.949242556859e-03
6.319078337134e-03
6.719156211336e-03
7.117761650797e-03
7.497158962429e-03
6.127564996101e-03
6.311432512153e-03
6.648227192587e-03
6.997180777277e-03
7.344792021992e-03
7.660466589241e-03
7.684434388337e-03
7.692542402440e-03
7.694545865355e-03
7.747700399693e-03
7.717233760181e-03
7.723107760517e-03
7.738208837912e-03
7.763333392953e-03
7.777387837625e-03
7.790104987245e-03
7.806222448470e-03
7.822140815574e-03
7.843995050647e-03
9.821610060238e-04
1.054522677905e-03
1.042419456882e-03
9.690050987975e-04
8.728030621974e-04
7.918247672131e-04
7.048083364603e-04
6.159982300335e-04
5.338968623247e-04
4.557994273969e-04
3.844282472927e-04
3.407089349076e-04
2.718153678670e-04
2.083860624789e-04
1.689907596395e-04
1.449748102265e-04
1.213236643205e-04
9.139356082682e-05
7.662229156694e-05
5.948321918249e-03
5.875510451494e-03
5.839864585625e-03
5.828762949014e-03
5.835871132387e-03
5.852666206164e-03
5.877842407217e-03
5.905718087301e-03
5.934853029025e-03
5.963445363512e-03
5.990335380897e-03
6.014695467609e-03
6.036419882164e-03
6.055424762093e-03
6.071625965388e-03
6.085014656614e-03
6.095732445071e-03
6.104156298049e-03
6.110624973643e-03
6.114413306113e-03
6.114339590090e-03
6.097770079196e-03
6.308027074350e-03
6.298816058448e-03
6.293363186731e-03
6.287454839929e-03
6.281430502754e-03
6.274614180239e-03
6.266366151002e-03
6.256269235893e-03
6.244382390876e-03
6.231027574986e-03
6.216351156801e-03
6.200488587621e-03
6.183889186756e-03
6.168348781295e-03
6.155359908954e-03
6.147077748339e-03
6.144249006414e-03
6.150278898587e-03
6.198913226414e-03
6.163764182987e-03
6.629928587794e-03
6.684140421753e-03
6.648215255961e-03
6.635789417946e-03
6.628278284854e-03
6.624618850510e-03
6.625351574660e-03
6.626966036608e-03
6.629302095966e-03
6.631934292604e-03
6.635203118882e-03
6.638514062895e-03
6.640925120121e-03
6.643179360742e-03
6.645660703022e-03
6.648737338718e-03
6.651862399437e-03
6.653107066403e-03
6.650313285877e-03
7.001311986394e-03
7.003533936632e-03
7.004756901928e-03
7.005873881212e-03
7.006860975954e-03
7.009382932422e-03
7.012588273883e-03
7.016407050989e-03
7.019547306356e-03
7.025469701664e-03
7.032549678343e-03
7.040292091214e-03
7.050290060074e-03
7.059540945898e-03
7.073102429820e-03
7.109018819982e-03
7.052795815406e-03
7.436470325702e-03
7.494578588836e-03
7.464719244508e-03
7.446856127978e-03
7.432839273630e-03
7.419496481945e-03
7.406119513401e-03
7.395536587985e-03
7.385866486254e-03
7.377220739408e-03
7.369955110108e-03
7.363921711669e-03
7.360368031453e-03
7.354652834832e-03
7.353215342307e-03
7.353993134789e-03
1.492398165377e-03
2.540969259203e-03
3.497356731417e-03
4.457265722329e-03
5.477898363277e-03
6.209473767290e-03
6.579203273409e-03
6.970849498844e-03
7.352866242998e-03
7.717033333785e-03
2.620467504939e-03
7.511550930901e-03
5.104413869092e-04
8.113812450644e-04
6.924901973337e-03
4.671237789234e-03
3.072046440839e-03
8.194878318391e-03
6.436293912792e-03
8.994213249537e-03
7.288452251520e-03
6.695560597833e-03
2.951244146363e-04
9.685075583208e-03
8.023692324445e-03
1.825682107754e-03
4.037523971491e-03
1.004044066481e-02
1.032832242280e-02
1.048153320108e-02
1.044693845982e-02
1.042875468189e-02
8.160059510191e-03
8.096884540565e-03
8.072961406200e-03
9.170266245137e-03
6.575368617495e-03
9.018646094354e-04
2.214630806572e-04
5.303189920799e-03
7.999557824138e-03
9.425753553160e-04
1.018409160826e-02
8.629442487264e-03
9.366719702966e-03
7.831193185874e-03
7.254983364308e-03
7.029772714001e-04
8.118787363953e-03
6.697158085480e-03
9.749886572804e-03
4.039121833474e-04
2.411426088762e-03
1.052272193340e-02
5.702503967204e-03
3.635494495083e-03
6.902458064021e-03
7.660747376437e-03
1.606037184742e-03
8.573212349411e-03
6.620522187622e-03
1.784666429405e-04
1.028356296786e-02
8.187131245836e-03
8.310666972177e-03
8.467710112100e-03
8.593529611832e-03
8.770666146600e-03
8.862000487291e-03
8.678637006213e-03
8.929461418522e-03
8.730177167262e-03
9.037911323352e-03
8.968284637917e-03
8.750297252098e-03
8.978311873874e-03
8.739797663894e-03
8.514661095777e-03
8.479090163372e-03
8.257669189533e-03
8.192596071808e-03
8.415087923298e-03
8.098189187586e-03
7.874676672038e-03
7.748492273100e-03
7.522124049947e-03
7.363801403244e-03
7.129231598769e-03
6.942184592828e-03
7.197809320344e-03
6.756380913162e-03
6.484856512681e-03
6.286572533350e-03
5.995974580422e-03
5.793014053499e-03
6.107178933135e-03
5.617611957508e-03
5.282074947558e-03
5.120985320274e-03
4.766685921578e-03
4.627510286199e-03
4.258245742915e-03
4.142900959786e-03
4.522098267229e-03
4.062858235418e-03
3.678275345266e-03
3.626687356752e-03
4.016853691406e-03
3.608488712791e-03
4.002269615888e-03
3.619825147284e-03
3.234692612831e-03
3.270643086940e-03
3.655877257513e-03
3.327301264741e-03
2.956111230442e-03
3.032809997428e-03
3.403693535478e-03
3.125062535665e-03
2.770595551971e-03
2.875664543993e-03
3.232150295770e-03
2.990608204636e-03
2.651505427167e-03
2.772489314981e-03
3.115565122164e-03
2.900380408117e-03
3.247934371634e-03
2.571148815254e-03
2.701380810463e-03
2.384599340324e-03
2.516417275724e-03
5.953322869263e-03
2.211061759939e-03
2.087815501954e-03
2.342184112489e-03
2.654372051819e-03
2.045469167070e-03
2.175080503014e-03
1.885922432268e-03
4.405030350974e-03
8.328929216005e-03
2.013061833203e-03
1.729214395931e-03
1.608467753815e-03
1.454345017742e-03
8.935727984662e-03
9.206058763395e-03
9.090923912387e-03
9.367555461897e-03
9.253292760897e-03
1.572064969119e-03
9.198894525069e-03
9.462715253444e-03
7.660212819248e-03
6.218936737840e-03
4.413431127641e-03
2.308282248041e-03
2.143835068995e-03
2.445463237167e-03
3.477952780106e-03
3.613411254028e-03
3.857961631994e-03
3.995979057129e-03
4.254665481138e-03
4.395519359506e-03
4.141227362432e-03
4.544085628122e-03
4.292763404483e-03
4.667700617060e-03
4.532451578989e-03
4.699070009012e-03
4.450038429607e-03
4.860413724388e-03
4.612259436680e-03
4.214170222370e-03
4.375757833155e-03
3.991595817045e-03
4.403262441256e-03
4.816182539394e-03
4.810664841107e-03
5.223930320985e-03
5.225216834127e-03
5.637990740324e-03
5.647488786373e-03
5.251627033230e-03
8.960297824062e-03
3.243158037458e-03
3.298656140190e-03
2.867574855324e-03
2.927108278435e-03
2.503009929304e-03
2.569129604019e-03
2.154500884822e-03
2.127297567284e-03
1.794151431678e-03
1.806063106376e-03
1.494517119509e-03
1.542350087589e-03
7.034444511408e-03
5.652996712253e-03
6.064695936093e-03
6.089058434346e-03
1.340345273077e-03
4.778735366375e-03
4.959160346421e-03
4.829261636570e-03
5.684277036999e-03
1.300610749962e-03
2.232332906435e-03
2.685066353804e-03
9.520467885372e-03
9.403907641888e-03
5.270585584891e-03
1.415508916570e-03
4.964251388572e-03
1.487767156928e-03
4.540868988120e-03
4.948533344602e-03
3.904142001282e-03
6.497433213726e-03
6.525650289048e-03
1.855724458811e-03
1.619506427210e-03
1.343674635600e-03
1.437877545093e-03
1.709618824657e-03
1.527645237335e-03
1.272624532407e-03
1.373009119270e-03
1.633131701316e-03
1.478976320582e-03
1.235360107758e-03
1.336355715827e-03
5.198258231950e-03
1.216788806053e-03
8.287426674855e-03
5.401341691790e-03
6.078711007412e-03
9.667687675539e-03
9.550010371467e-03
9.271507583266e-03
9.420029589966e-03
9.692103856807e-03
9.564283621601e-03
9.280319995503e-03
9.427091237882e-03
9.132263388853e-03
9.282967689750e-03
9.571653943525e-03
9.431494892571e-03
9.134422574037e-03
9.286863253386e-03
8.982131200813e-03
9.137069410978e-03
9.437684564807e-03
1.150572523118e-03
5.302336756258e-03
5.749344383461e-03
2.287281782959e-03
2.580928634207e-03
2.759145752387e-03
2.905613024160e-03
9.290900188189e-03
9.588390229848e-03
2.369625099607e-03
2.857257872319e-03
9.770247872233e-03
4.711635067556e-03
4.315671471629e-03
5.708241352826e-03
5.955699837635e-03
5.418850191027e-03
5.687085216872e-03
6.220758096029e-03
5.118289750336e-03
4.403697334382e-03
9.714459797430e-03
1.492862504291e-03
1.232550178038e-03
5.125757681146e-03
4.873000052180e-03
7.462660680858e-03
7.320087370898e-03
7.736577653710e-03
7.613396994526e-03
8.019154130648e-03
7.915113881433e-03
7.503869815639e-03
6.928966054810e-03
7.828749515054e-03
8.979971578757e-03
5.687684741859e-03
1.745932491324e-03
1.036275914560e-03
1.097166183108e-03
1.252978454670e-03
1.534417517941e-03
5.725978900080e-03
8.311365175106e-03
8.397999773366e-03
5.983828311327e-03
6.483157985651e-03
6.911312342540e-03
8.963908399900e-03
8.979863169860e-03
8.819779057309e-03
9.533726313458e-04
1.018351416964e-03
9.831214178551e-03
3.179013233061e-03
3.384230290518e-03
1.221855331112e-03
9.892637715525e-04
9.440644773789e-03
9.730468095426e-03
3.086849095765e-03
3.238214833822e-03
5.603985475983e-03
1.197943938543e-03
9.869936518934e-03
4.941022576106e-03
4.516641554862e-03
2.722097654788e-03
2.576519761420e-03
2.095788014619e-03
1.917875282341e-03
1.442758152639e-03
1.371825903480e-03
6.073266618805e-03
9.944709057995e-03
7.415957598317e-03
7.074405355104e-03
7.761459414544e-03
9.730809682159e-04
5.867128661496e-03
4.888901193501e-03
8.671105718940e-03
8.746859280578e-03
3.706429485874e-03
3.945501162029e-03
3.649423240603e-03
4.233458697458e-03
8.484251750224e-03
4.266326963780e-03
8.038511646384e-03
8.055875652598e-03
7.817765393326e-03
6.691314807859e-03
6.901017758076e-03
3.391089786622e-03
4.847406525071e-03
2.940386860947e-03
3.835005949318e-03
3.727741770020e-03
9.843678572131e-03
9.983643914453e-03
8.822995118770e-03
8.661189557417e-03
1.078156080773e-03
9.802228916333e-04
3.387398962501e-03
5.541734005076e-03
9.910440230310e-03
9.999878376694e-03
9.855945674282e-03
5.952758781801e-03
2.846767198869e-03
4.418510301629e-03
1.029156767354e-03
6.423961951691e-03
8.236154680774e-04
8.640627512617e-03
5.308927705316e-03
5.554015225327e-03
7.329161162773e-03
8.137050618908e-03
6.292965356105e-03
5.829823712735e-03
7.814434352204e-03
7.591329524705e-03
7.554437834874e-03
7.339557611691e-03
2.031061989478e-03
1.859665493279e-03
8.638168972522e-03
8.159047272765e-03
9.003971297087e-03
9.074222438210e-03
7.326804828870e-03
6.910208477407e-03
1.649323488180e-03
6.707284991918e-03
1.007942664047e-02
8.023588801993e-03
6.003617674267e-03
5.696112825985e-03
8.599547156120e-04
9.017861536261e-04
1.001322302819e-02
3.962166263551e-03
4.544371300625e-03
3.390370872806e-03
6.208578330862e-03
7.976443444875e-03
5.744283630435e-03
7.100684763123e-03
1.014585008347e-02
6.193397761407e-03
5.165869307293e-03
5.491454277591e-03
9.860739785313e-03
1.016413007888e-02
8.659066146014e-03
8.484515683385e-03
8.814506426556e-03
1.535228919466e-03
1.288952350814e-03
9.855921660532e-03
1.983580190454e-03
2.146596289672e-03
1.293396146560e-03
1.545305553044e-03
3.276660256489e-03
3.128290890679e-03
8.566921593987e-03
8.874452924236e-03
7.862423397105e-03
4.600047916684e-03
4.185484765827e-03
4.108024604384e-03
1.009470050101e-02
1.025786581221e-02
2.220778353827e-03
2.113719226965e-03
2.144737168195e-03
1.018169583754e-02
5.994899127820e-03
5.811521516696e-03
7.427689775961e-04
8.896192539881e-04
2.343911140304e-03
1.859174593751e-03
1.006393419501e-02
9.926405687388e-03
1.022129558305e-02
1.467524609615e-03
6.997035204554e-03
6.425038355348e-03
6.315255755937e-03
6.615141467624e-03
7.341954575983e-03
7.720486464831e-03
8.120864061936e-03
8.326797238082e-04
1.006603471194e-02
8.480260185170e-03
8.212564704544e-04
8.314616477094e-03
8.497010707548e-03
8.131945381165e-03
1.189085591804e-03
8.437565782841e-03
8.652619685613e-03
6.166681391702e-04
1.030534263724e-02
5.926724181636e-04
6.700951774802e-04
6.158751737799e-03
5.849886760555e-03
6.309471120315e-03
6.005661457357e-03
5.557364472642e-03
5.734336585985e-03
8.305167753570e-03
6.251664385072e-03
5.923126245026e-03
6.439671726596e-03
7.353795203801e-03
4.821781968573e-03
5.146510311798e-03
4.937753437330e-03
9.357552585603e-03
9.350701586925e-03
5.081635890602e-03
4.669016080523e-03
8.315364044092e-03
8.287167700766e-03
8.588961292665e-03
8.541729081884e-03
8.837534101900e-03
8.784704499454e-03
9.078624075063e-03
8.541795933631e-03
3.738357037248e-03
7.758587341116e-03
7.339364661611e-03
6.907966923681e-03
7.050867464589e-03
6.853894019736e-03
6.407655723099e-03
4.047121025762e-03
1.042002957123e-02
9.587925952903e-04
1.021009774570e-03
4.597662890827e-03
7.252932197163e-03
5.407802096483e-03
5.750172527074e-03
5.035090975979e-03
8.155524959009e-04
2.855080669357e-03
9.121442610052e-03
2.681247000126e-03
4.879922672398e-03
3.887001111849e-03
6.905838362059e-03
3.096072768523e-03
4.537592665573e-03
8.516874127092e-03
8.415553200034e-03
8.224398963136e-03
3.765062974374e-03
6.288719455719e-03
6.058659376361e-03
7.974692084110e-03
9.702643708891e-03
9.765124157819e-03
9.966354573935e-03
9.807479992716e-03
9.593204064669e-03
9.626871359105e-03
9.832196866296e-03
9.645043288381e-03
9.884407465657e-03
9.634839001049e-03
9.419925483515e-03
9.399175806926e-03
9.595514145421e-03
9.180812807686e-03
7.753882307395e-03
4.941230433038e-03
9.959119879459e-04
1.327829076426e-03
7.306347762122e-03
1.012317895996e-02
1.027971222244e-02
3.028840313754e-03
9.532070469119e-03
8.276476739157e-03
1.831234143187e-03
9.187549144253e-03
9.538737017164e-03
9.360390154343e-03
9.294226384318e-03
1.037532120313e-02
8.972723426129e-03
8.445249096095e-03
5.247601044341e-03
5.293445406539e-03
4.905229319132e-03
9.422288125013e-03
7.668092258315e-03
7.165621087962e-03
7.017279233244e-03
6.651163514764e-03
7.368074347165e-03
9.949113485477e-03
9.835568592857e-03
1.809281085535e-03
2.015616535636e-03
2.340537850502e-03
2.257730557489e-03
1.928220294399e-03
2.189464263200e-03
2.538057461422e-03
2.142141355816e-03
9.115370995320e-03
7.137449399631e-03
4.121739443075e-03
3.996100501389e-03
3.606068364819e-03
2.796396595242e-03
2.982321076942e-03
3.325192484677e-03
2.618368502463e-03
7.187434474591e-03
7.030490706120e-03
4.456611915874e-03
2.839167802700e-03
8.145452876519e-03
8.447704215327e-03
8.466139689892e-03
8.757751448872e-03
8.463420307448e-03
3.428560119937e-03
3.582686728289e-03
3.390785086783e-03
3.738509389195e-03
3.535116635041e-03
3.218770253969e-03
3.889013172844e-03
3.661094586675e-03
8.106128103010e-03
7.587421140930e-04
7.669642526899e-04
7.367814618564e-04
8.724221715150e-04
8.802542161325e-04
1.042144434100e-03
1.019865287152e-03
7.865930359274e-04
6.373316496437e-04
6.971333524978e-04
5.686480202079e-04
6.557594908886e-04
8.579547789631e-04
1.137938339884e-03
6.496778283707e-03
2.722753933444e-03
2.570496965853e-03
2.272539133813e-03
2.431514989847e-03
2.849814102665e-03
2.113745665897e-03
2.006566870204e-03
2.019286477733e-04
4.246386287016e-04
3.987919987905e-04
6.752208577350e-04
6.747371117631e-04
4.367405413459e-04
4.520842249548e-04
2.399460308310e-04
4.679434749659e-04
7.061805165993e-04
2.588636540163e-04
9.469900912760e-03
9.630779148482e-03
6.836281776139e-03
8.105993981103e-03
4.504768495349e-04
1.044338574139e-02
1.047433561246e-02
1.048221382432e-02
5.750024574268e-03
5.974816538930e-03
1.045168105064e-02
1.762330685411e-03
1.000279796517e-02
9.997139038933e-03
1.927579210961e-03
1.700656723024e-03
4.486095677275e-03
4.057201569093e-03
5.371521412103e-03
4.152220238936e-03
5.027434788321e-03
6.828773742739e-03
1.098790520223e-03
8.977664790080e-03
8.825673848411e-03
9.578533943100e-03
1.853925983672e-03
3.064301884218e-03
1.187936522271e-03
9.022338880311e-03
7.764208161236e-03
3.350332836047e-03
2.478444273765e-03
1.921583357523e-03
1.590222110993e-03
5.480283662378e-03
3.035944027753e-03
4.811902088732e-03
9.724893286592e-03
3.821554647581e-04
5.096720269409e-03
3.755768662576e-03
9.130100132989e-03
6.059517128179e-03
1.149962203224e-03
9.705260905860e-03
1.012489766054e-02
8.812321848012e-03
9.232979189175e-04
8.654662617707e-03
6.203504091869e-03
9.620871304678e-03
1.694136051922e-03
4.015275511392e-03
6.695160460587e-03
7.839869304142e-03
1.011255393332e-02
5.473980703179e-03
6.137197123159e-03
4.830161177077e-03
1.822738957024e-03
5.401549524912e-03
4.452276603914e-03
9.967513874927e-03
8.125814465446e-03
3.223458077707e-03
9.807686011103e-03
3.496795154320e-03
6.484370989146e-03
7.455125812242e-03
7.607982714202e-03
8.700330182547e-03
6.581466682874e-03
4.270791403938e-03
5.245968982145e-03
1.259876543377e-03
4.851982732590e-03
9.118605662313e-03
8.216767220057e-03
1.021135192569e-02
6.455900066134e-03
5.121480620805e-03
1.004221962039e-02
3.178175504565e-03
1.258204715386e-03
1.683304936280e-03
2.480303463514e-03
4.995144876261e-03
3.532990373320e-03
1.013962727316e-02
5.286408139223e-03
5.148647041329e-03
2.107041562005e-03
7.949293335974e-03
5.458812659701e-03
4.051633749967e-03
6.486731738889e-03
3.329149844415e-03
8.812686447374e-03
7.121456537280e-03
5.642427440085e-03
5.386758221139e-03
3.524268388152e-03
7.992380395562e-03
6.162602022602e-03
5.849257395610e-03
6.881328130197e-03
3.712245513481e-03
7.475381392147e-03
3.682778207145e-03
7.984618893281e-03
1.040802934577e-02
6.207568618730e-03
9.115684585667e-03
3.474129494690e-03
6.127723043937e-03
6.849739739433e-04
7.564101703701e-03
3.626603164779e-03
2.494899981851e-03
3.788056045675e-03
7.732179087810e-03
3.782714128944e-03
2.859688010189e-03
3.941332052247e-03
7.097687039130e-03
9.171199814170e-03
4.100837029147e-03
8.229625131930e-03
7.472383993442e-04
6.745583053625e-03
5.515842168896e-03
2.261278337185e-03
3.882889907418e-03
9.404273380642e-03
6.687093633862e-03
4.285417889756e-03
8.484558303180e-03
6.639645997206e-03
5.366562160317e-03
4.707151339936e-03
6.536474791659e-03
1.647555329828e-03
1.388587518294e-03
2.897928665026e-03
8.817071461024e-03
9.179663585334e-04
9.201434029136e-03
1.049091173872e-03
2.600601978621e-03
6.957229816299e-03
8.881732588553e-03
2.678930076472e-03
1.542426269465e-03
2.434565951707e-03
5.742270148714e-03
2.539339500885e-03
2.332517147109e-03
1.025421372620e-02
2.449030093407e-03
1.049485224580e-02
6.500607828774e-03
8.241503505151e-03
6.142487688269e-03
8.931094365518e-04
5.507943114802e-03
1.972095124608e-03
8.922375133262e-03
8.258080574704e-03
1.809157322561e-03
9.816438373063e-03
8.820410608393e-03
9.329191745502e-03
6.516280358089e-03
6.570580118587e-03
1.000763776867e-02
7.997040605920e-03
6.194889695895e-04
4.469835361278e-03
5.155944730710e-03
4.288630944638e-03
3.200814997900e-03
1.925606937253e-03
8.506017361780e-04
4.136139312171e-03
7.296932986468e-03
8.358169965234e-03
7.362886213487e-03
3.119039366680e-03
1.025356356760e-02
8.165383230683e-03
6.737241637645e-03
7.736832638248e-03
2.178138781930e-03
8.690926141898e-03
9.209571146089e-03
9.566695517193e-03
6.683905474628e-03
8.352885933462e-03
1.028393450903e-02
1.094196744603e-03
1.028467782121e-02
9.150982826900e-03
8.677127868128e-03
8.684361482877e-03
6.202422866937e-03
1.001416252588e-02
1.652831636248e-03
9.317856538061e-03
2.430125726429e-03
7.978854737367e-04
6.415369336626e-03
9.366461352046e-03
6.200083094545e-03
6.635642853930e-04
5.320677537166e-04
6.634442855003e-03
9.594868530761e-03
1.206402573217e-03
1.049724611316e-02
1.238167891882e-03
7.985124066989e-03
4.711811605938e-04
6.627491226572e-03
1.030096743184e-02
2.705318180475e-03
8.179441637783e-03
1.738449735437e-03
8.467647923867e-03
7.786433702199e-04
1.032483439918e-02
6.856112712576e-03
1.023213917390e-02
8.145953885810e-03
8.644277770991e-04
8.463419852410e-03
6.602866405084e-03
7.980685107805e-03
1.011866656448e-02
2.161432908553e-03
9.258892631051e-04
1.052123138589e-02
1.483438952787e-04
7.939448171347e-03
6.596923318570e-03
8.644031311377e-04
8.484382618816e-03
9.735340266105e-03
3.422232367032e-03
9.847877829448e-03
9.727478463126e-04
8.661734169765e-04
9.047634779271e-03
8.045523248167e-03
1.029727067907e-02
8.846218744354e-03
1.531965666224e-03
9.539276741553e-03
2.946172540555e-03
8.927771690888e-03
6.904911895124e-03
1.187823470603e-03
3.729845824309e-03
4.778429225073e-04
6.397511535942e-03
3.092442664082e-03
6.055074960429e-03
6.143791158756e-03
6.464548063630e-03
6.486760639861e-03
6.883373646123e-03
6.813561973540e-03
7.281326131189e-03
7.183593353475e-03
7.650601460577e-03
7.514364814972e-03


CELL_DATA 2134

SCALARS element_number int
LOOKUP_TABLE default
407
408
409
410
411
412
413
414
415
416
417
418
419
420
421
422
423
424
425
426
427
428
429
430
431
432
433
434
435
436
437
438
439
440
441
442
443
444
445
446
447
448
449
450
451
452
453
454
455
456
457
458
459
460
461
462
463
464
465
466
467
468
469
470
471
472
473
474
475
476
477
478
479
480
481
482
483
484
485
486
487
488
489
490
491
492
493
494
495
496
497
498
499
500
501
502
503
504
505
506
507
508
509
510
511
512
513
514
515
516
517
518
519
520
521
522
523
524
525
526
527
528
529
530
531
532
533
534
535
536
537
538
539
540
541
542
543
544
545
546
547
548
549
550
551
552
553
554
555
556
557
558
559
560
561
562
563
564
565
566
567
568
569
570
571
572
573
574
575
576
577
578
579
580
581
582
583
584
585
586
587
588
589
590
591
592
593
594
595
596
597
598
599
600
601
602
603
604
605
606
607
608
609
610
611
612
613
614
615
616
617
618
619
620
621
622
623
624
625
626
627
628
629
630
631
632
633
634
635
636
637
638
639
640
641
642
643
644
645
646
647
648
649
650
651
652
653
654
655
656
657
658
659
660
661
662
663
664
665
666
667
668
669
670
671
672
673
674
675
676
677
678
679
680
681
682
683
684
685
686
687
688
689
690
691
692
693
694
695
696
697
698
699
700
701
702
703
704
705
706
707
708
709
710
711
712
713
714
715
716
717
718
719
720
721
722
723
724
725
726
727
728
729
730
731
732
733
734
735
736
737
738
739
740
741
742
743
744
745
746
747
748
749
750
751
752
753
754
755
756
757
758
759
760
761
762
763
764
765
766
767
768
769
770
771
772
773
774
775
776
777
778
779
780
781
782
783
784
785
786
787
788
789
790
791
792
793
794
795
796
797
798
799
800
801
802
803
804
805
806
807
808
809
810
811
812
813
814
815
816
817
818
819
820
821
822
823
824
825
826
827
828
829
830
831
832
833
834
835
836
837
838
839
840
841
842
843
844
845
846
847
848
849
850
851
852
853
854
855
856
857
858
859
860
861
862
863
864
865
866
867
868
869
870
871
872
873
874
875
876
877
878
879
880
881
882
883
884
885
886
887
888
889
890
891
892
893
894
895
896
897
898
899
900
901
902
903
904
905
906
907
908
909
910
911
912
913
914
915
916
917
918
919
920
921
922
923
924
925
926
927
928
929
930
931
932
933
934
935
936
937
938
939
940
941
942
943
944
945
946
947
948
949
950
951
952
953
954
955
956
957
958
959
960
961
962
963
964
965
966
967
968
969
970
971
972
973
974
975
976
977
978
979
980
981
982
983
984
985
986
987
988
989
990
991
992
993
994
995
996
997
998
999
1000
1001
1002
1003
1004
1005
1006
1007
1008
1009
1010
1011
1012
1013
1014
1015
1016
1017
1018
1019
1020
1021
1022
1023
1024
1025
1026
1027
1028
1029
1030
1031
1032
1033
1034
1035
1036
1037
1038
1039
1040
1041
1042
1043
1044
1045
1046
1047
1048
1049
1050
1051
1052
1053
1054
1055
1056
1057
1058
1059
1060
1061
1062
1063
1064
1065
1066
1067
1068
1069
1070
1071
1072
1073
1074
1075
1076
1077
1078
1079
1080
1081
1082
1083
1084
1085
1086
1087
1088
1089
1090
1091
1092
1093
1094
1095
1096
1097
1098
1099
1100
1101
1102
1103
1104
1105
1106
1107
1108
1109
1110
1111
1112
1113
1114
1115
1116
1117
1118
1119
1120
1121
1122
1123
1124
1125
1126
1127
1128
1129
1130
1131
1132
1133
1134
1135
1136
1137
1138
1139
1140
1141
1142
1143
1144
1145
1146
1147
1148
1149
1150
1151
1152
1153
1154
1155
1156
1157
1158
1159
1160
1161
1162
1163
1164
1165
1166
1167
1168
1169
1170
1171
1172
1173
1174
1175
1176
1177
1178
1179
1180
1181
1182
1183
1184
1185
1186
1187
1188
1189
1190
1191
1192
1193
1194
1195
1196
1197
1198
1199
1200
1201
1202
1203
1204
1205
1206
1207
1208
1209
1210
1211
1212
1213
1214
1215
1216
1217
1218
1219
1220
1221
1222
1223
1224
1225
1226
1227
1228
1229
1230
1231
1232
1233
1234
1235
1236
1237
1238
1239
1240
1241
1242
1243
1244
1245
1246
1247
1248
1249
1250
1251
1252
1253
1254
1255
1256
1257
1258
1259
1260
1261
1262
1263
1264
1265
1266
1267
1268
1269
1270
1271
1272
1273
1274
1275
1276
1277
1278
1279
1280
1281
1282
1283
1284
1285
1286
1287
1288
1289
1290
1291
1292
1293
1294
1295
1296
1297
1298
1299
1300
1301
1302
1303
1304
1305
1306
1307
1308
1309
1310
1311
1312
1313
1314
1315
1316
1317
1318
1319
1320
1321
1322
1323
1324
1325
1326
1327
1328
1329
1330
1331
1332
1333
1334
1335
1336
1337
1338
1339
1340
1341
1342
1343
1344
1345
1346
1347
1348
1349
1350
1351
1352
1353
1354
1355
1356
1357
1358
1359
1360
1361
1362
1363
1364
1365
1366
1367
1368
1369
1370
1371
1372
1373
1374
1375
1376
1377
1378
1379
1380
1381
1382
1383
1384
1385
1386
1387
1388
1389
1390
1391
1392
1393
1394
1395
1396
1397
1398
1399
1400
1401
1402
1403
1404
1405
1406
1407
1408
1409
1410
1411
1412
1413
1414
1415
1416
1417
1418
1419
1420
1421
1422
1423
1424
1425
1426
1427
1428
1429
1430
1431
1432
1433
1434
1435
1436
1437
1438
1439
1440
1441
1442
1443
1444
1445
1446
1447
1448
1449
1450
1451
1452
1453
1454
1455
1456
1457
1458
1459
1460
1461
1462
1463
1464
1465
1466
1467
1468
1469
1470
1471
1472
1473
1474
1475
1476
1477
1478
1479
1480
1481
1482
1483
1484
1485
1486
1487
1488
1489
1490
1491
1492
1493
1494
1495
1496
1497
1498
1499
1500
1501
1502
1503
1504
1505
1506
1507
1508
1509
1510
1511
1512
1513
1514
1515
1516
1517
1518
1519
1520
1521
1522
1523
1524
1525
1526
1527
1528
1529
1530
1531
1532
1533
1534
1535
1536
1537
1538
1539
1540
1541
1542
1543
1544
1545
1546
1547
1548
1549
1550
1551
1552
1553
1554
1555
1556
1557
1558
1559
1560
1561
1562
1563
1564
1565
1566
1567
1568
1569
1570
1571
1572
1573
1574
1575
1576
1577
1578
1579
1580
1581
1582
1583
1584
1585
1586
1587
1588
1589
1590
1591
1592
1593
1594
1595
1596
1597
1598
1599
1600
1601
1602
1603
1604
1605
1606
1607
1608
1609
1610
1611
1612
1613
1614
1615
1616
1617
1618
1619
1620
1621
1622
1623
1624
1625
1626
1627
1628
1629
1630
1631
1632
1633
1634
1635
1636
1637
1638
1639
1640
1641
1642
1643
1644
1645
1646
1647
1648
1649
1650
1651
1652
1653
1654
1655
1656
1657
1658
1659
1660
1661
1662
1663
1664
1665
1666
1667
1668
1669
1670
1671
1672
1673
1674
1675
1676
1677
1678
1679
1680
1681
1682
1683
1684
1685
1686
1687
1688
1689
1690
1691
1692
1693
1694
1695
1696
1697
1698
1699
1700
1701
1702
1703
1704
1705
1706
1707
1708
1709
1710
1711
1712
1713
1714
1715
1716
1717
1718
1719
1720
1721
1722
1723
1724
1725
1726
1727
1728
1729
1730
1731
1732
1733
1734
1735
1736
1737
1738
1739
1740
1741
1742
1743
1744
1745
1746
1747
1748
1749
1750
1751
1752
1753
1754
1755
1756
1757
1758
1759
1760
1761
1762
1763
1764
1765
1766
1767
1768
1769
1770
1771
1772
1773
1774
1775
1776
1777
1778
1779
1780
1781
1782
1783
1784
1785
1786
1787
1788
1789
1790
1791
1792
1793
1794
1795
1796
1797
1798
1799
1800
1801
1802
1803
1804
1805
1806
1807
1808
1809
1810
1811
1812
1813
1814
1815
1816
1817
1818
1819
1820
1821
1822
1823
1824
1825
1826
1827
1828
1829
1830
1831
1832
1833
1834
1835
1836
1837
1838
1839
1840
1841
1842
1843
1844
1845
1846
1847
1848
1849
1850
1851
1852
1853
1854
1855
1856
1857
1858
1859
1860
1861
1862
1863
1864
1865
1866
1867
1868
1869
1870
1871
1872
1873
1874
1875
1876
1877
1878
1879
1880
1881
1882
1883
1884
1885
1886
1887
1888
1889
1890
1891
1892
1893
1894
1895
1896
1897
1898
1899
1900
1901
1902
1903
1904
1905
1906
1907
1908
1909
1910
1911
1912
1913
1914
1915
1916
1917
1918
1919
1920
1921
1922
1923
1924
1925
1926
1927
1928
1929
1930
1931
1932
1933
1934
1935
1936
1937
1938
1939
1940
1941
1942
1943
1944
1945
1946
1947
1948
1949
1950
1951
1952
1953
1954
1955
1956
1957
1958
1959
1960
1961
1962
1963
1964
1965
1966
1967
1968
1969
1970
1971
1972
1973
1974
1975
1976
1977
1978
1979
1980
1981
1982
1983
1984
1985
1986
1987
1988
1989
1990
1991
1992
1993
1994
1995
1996
1997
1998
1999
2000
2001
2002
2003
2004
2005
2006
2007
2008
2009
2010
2011
2012
2013
2014
2015
2016
2017
2018
2019
2020
2021
2022
2023
2024
2025
2026
2027
2028
2029
2030
2031
2032
2033
2034
2035
2036
2037
2038
2039
2040
2041
2042
2043
2044
2045
2046
2047
2048
2049
2050
2051
2052
2053
2054
2055
2056
2057
2058
2059
2060
2061
2062
2063
2064
2065
2066
2067
2068
2069
2070
2071
2072
2073
2074
2075
2076
2077
2078
2079
2080
2081
2082
2083
2084
2085
2086
2087
2088
2089
2090
2091
2092
2093
2094
2095
2096
2097
2098
2099
2100
2101
2102
2103
2104
2105
2106
2107
2108
2109
2110
2111
2112
2113
2114
2115
2116
2117
2118
2119
2120
2121
2122
2123
2124
2125
2126
2127
2128
2129
2130
2131
2132
2133
2134
2135
2136
2137
2138
2139
2140
2141
2142
2143
2144
2145
2146
2147
2148
2149
2150
2151
2152
2153
2154
2155
2156
2157
2158
2159
2160
2161
2162
2163
2164
2165
2166
2167
2168
2169
2170
2171
2172
2173
2174
2175
2176
2177
2178
2179
2180
2181
2182
2183
2184
2185
2186
2187
2188
2189
2190
2191
2192
2193
2194
2195
2196
2197
2198
2199
2200
2201
2202
2203
2204
2205
2206
2207
2208
2209
2210
2211
2212
2213
2214
2215
2216
2217
2218
2219
2220
2221
2222
2223
2224
2225
2226
2227
2228
2229
2230
2231
2232
2233
2234
2235
2236
2237
2238
2239
2240
2241
2242
2243
2244
2245
2246
2247
2248
2249
2250
2251
2252
2253
2254
2255
2256
2257
2258
2259
2260
2261
2262
2263
2264
2265
2266
2267
2268
2269
2270
2271
2272
2273
2274
2275
2276
2277
2278
2279
2280
2281
2282
2283
2284
2285
2286
2287
2288
2289
2290
2291
2292
2293
2294
2295
2296
2297
2298
2299
2300
2301
2302
2303
2304
2305
2306
2307
2308
2309
2310
2311
2312
2313
2314
2315
2316
2317
2318
2319
2320
2321
2322
2323
2324
2325
2616
2617
2618
2619
2620
2621
2622
2623
2624
2625
2626
2627
2628
2629
2630
2631
2632
2633
2634
2635
2636
2637
2638
2639
2640
2641
2642
2643
2644
2645
2646
2647
2648
2649
2650
2651
2652
2653
2654
2655
2656
2657
2658
2659
2660
2661
2662
2663
2664
2665
2666
2667
2668
2669
2670
2671
2672
2673
2674
2675
2676
2677
2678
2679
2680
2681
2682
2683
2684
2685
2686
2687
2688
2689
2690
2691
2692
2693
2694
2695
2696
2697
2698
2699
2700
2701
2702
2703
2704
2705
2706
2707
2708
2709
2710
2711
2712
2713
2714
2715
2716
2717
2718
2719
2720
2721
2722
2723
2724
2725
2726
2727
2728
2729
2730
2731
2732
2733
2734
2735
2736
2737
2738
2739
2740
2741
2742
2743
2744
2745
2746
2747
2748
2749
2750
2751
2752
2753
2754
2755
2756
2757
2758
2759
2760
2761
2762
2763
2764
2765
2766
2767
2768
2769
2770
2771
2772
2773
2774
2775
2776
2777
2778
2779
2780
2781
2782
2783
2784
2785
2786
2787
2788
2789
2790
2791
2792
2793
2794
2795
2796
2797
2798
2799
2800
2801
2802
2803
2804
2805
2806
2807
2808
2809
2810
2811
2812
2813
2814
2815
2816
2817
2818
2819
2820
2821
2822
2823
2824
2825
2826
2827
2828
2829
2830

SCALARS element_group int
LOOKUP_TABLE default
0
0
0
0
0
0
0
0
0
0
0
0
0
0
0
0
0
0
0
0
0
0
0
0
0
0
0
0
0
0
0
0
0
0
0
0
0
0
0
0
0
0
0
0
0
0
0
0
0
0
0
0
0
0
0
0
0
0
0
0
0
0
0
0
0
0
0
0
0
0
0
0
0
0
0
0
0
0
0
0
0
0
0
0
0
0
0
0
0
0
0
0
0
0
0
0
0
0
0
0
0
0
0
0
0
0
0
0
0
0
0
0
0
0
0
0
0
0
0
0
0
0
0
0
0
0
0
0
0
0
0
0
0
0
0
0
0
0
0
0
0
0
0
0
0
0
0
0
0
0
0
0
0
0
0
0
0
0
0
0
0
0
0
0
0
0
0
0
0
0
0
0
0
0
0
0
0
0
0
0
0
0
0
0
0
0
0
0
0
0
0
0
0
0
0
0
0
0
0
0
0
0
0
0
0
0
0
0
0
0
0
0
0
0
0
0
0
0
0
0
0
0
0
0
0
0
0
0
0
0
0
0
0
0
0
0
0
0
0
0
0
0
0
0
0
0
0
0
0
0
0
0
0
0
0
0
0
0
0
0
0
0
0
0
0
0
0
0
0
0
0
0
0
0
0
0
0
0
0
0
0
0
0
0
0
0
0
0
0
0
0
0
0
0
0
0
0
0
0
0
0
0
0
0
0
0
0
0
0
0
0
0
0
0
0
0
0
0
0
0
0
0
0
0
0
0
0
0
0
0
0
0
0
0
0
0
0
0
0
0
0
0
0
0
0
0
0
0
0
0
0
0
0
0
0
0
0
0
0
0
0
0
0
0
0
0
0
0
0
0
0
0
0
0
0
0
0
0
0
0
0
0
0
0
0
0
0
0
0
0
0
0
0
0
0
0
0
0
0
0
0
0
0
0
0
0
0
0
0
0
0
0
0
0
0
0
0
0
0
0
0
0
0
0
0
0
0
0
0
0
0
0
0
0
0
0
0
0
0
0
0
0
0
0
0
0
0
0
0
0
0
0
0
0
0
0
0
0
0
0
0
0
0
0
0
0
0
0
0
0
0
0
0
0
0
0
0
0
0
0
0
0
0
0
0
0
0
0
0
0
0
0
0
0
0
0
0
0
0
0
0
0
0
0
0
0
0
0
0
0
0
0
0
0
0
0
0
0
0
0
0
0
0
0
0
0
0
0
0
0
0
0
0
0
0
0
0
0
0
0
0
0
0
0
0
0
0
0
0
0
0
0
0
0
0
0
0
0
0
0
0
0
0
0
0
0
0
0
0
0
0
0
0
0
0
0
0
0
0
0
0
0
0
0
0
0
0
0
0
0
0
0
0
0
0
0
0
0
0
0
0
0
0
0
0
0
0
0
0
0
0
0
0
0
0
0
0
0
0
0
0
0
0
0
0
0
0
0
0
0
0
0
0
0
0
0
0
0
0
0
0
0
0
0
0
0
0
0
0
0
0
0
0
0
0
0
0
0
0
0
0
0
0
0
0
0
0
0
0
0
0
0
0
0
0
0
0
0
0
0
0
0
0
0
0
0
0
0
0
0
0
0
0
0
0
0
0
0
0
0
0
0
0
0
0
0
0
0
0
0
0
0
0
0
0
0
0
0
0
0
0
0
0
0
0
0
0
0
0
0
0
0
0
0
0
0
0
0
0
0
0
0
0
0
0
0
0
0
0
0
0
0
0
0
0
0
0
0
0
0
0
0
0
0
0
0
0
0
0
0
0
0
0
0
0
0
0
0
0
0
0
0
0
0
0
0
0
0
0
0
0
0
0
0
0
0
0
0
0
0
0
0
0
0
0
0
0
0
0
0
0
0
0
0
0
0
0
0
0
0
0
0
0
0
0
0
0
0
0
0
0
0
0
0
0
0
0
0
0
0
0
0
0
0
0
0
0
0
0
0
0
0
0
0
0
0
0
0
0
0
0
0
0
0
0
0
0
0
0
0
0
0
0
0
0
0
0
0
0
0
0
0
0
0
0
0
0
0
0
0
0
0
0
0
0
0
0
0
0
0
0
0
0
0
0
0
0
0
0
0
0
0
0
0
0
0
0
0
0
0
0
0
0
0
0
0
0
0
0
0
0
0
0
0
0
0
0
0
0
0
0
0
0
0
0
0
0
0
0
0
0
0
0
0
0
0
0
0
0
0
0
0
0
0
0
0
0
0
0
0
0
0
0
0
0
0
0
0
0
0
0
0
0
0
0
0
0
0
0
0
0
0
0
0
0
0
0
0
0
0
0
0
0
0
0
0
0
0
0
0
0
0
0
0
0
0
0
0
0
0
0
0
0
0
0
0
0
0
0
0
0
0
0
0
0
0
0
0
0
0
0
0
0
0
0
0
0
0
0
0
0
0
0
0
0
0
0
0
0
0
0
0
0
0
0
0
0
0
0
0
0
0
0
0
0
0
0
0
0
0
0
0
0
0
0
0
0
0
0
0
0
0
0
0
0
0
0
0
0
0
0
0
0
0
0
0
0
0
0
0
0
0
0
0
0
0
0
0
0
0
0
0
0
0
0
0
0
0
0
0
0
0
0
0
0
0
0
0
0
0
0
0
0
0
0
0
0
0
0
0
0
0
0
0
0
0
0
0
0
0
0
0
0
0
0
0
0
0
0
0
0
0
0
0
0
0
0
0
0
0
0
0
0
0
0
0
0
0
0
0
0
0
0
0
0
0
0
0
0
0
0
0
0
0
0
0
0
0
0
0
0
0
0
0
0
0
0
0
0
0
0
0
0
0
0
0
0
0
0
0
0
0
0
0
0
0
0
0
0
0
0
0
0
0
0
0
0
0
0
0
0
0
0
0
0
0
0
0
0
0
0
0
0
0
0
0
0
0
0
0
0
0
0
0
0
0
0
0
0
0
0
0
0
0
0
0
0
0
0
0
0
0
0
0
0
0
0
0
0
0
0
0
0
0
0
0
0
0
0
0
0
0
0
0
0
0
0
0
0
0
0
0
0
0
0
0
0
0
0
0
0
0
0
0
0
0
0
0
0
0
0
0
0
0
0
0
0
0
0
0
0
0
0
0
0
0
0
0
0
0
0
0
0
0
0
0
0
0
0
0
0
0
0
0
0
0
0
0
0
0
0
0
0
0
0
0
0
0
0
0
0
0
0
0
0
0
0
0
0
0
0
0
0
0
0
0
0
0
0
0
0
0
0
0
0
0
0
0
0
0
0
0
0
0
0
0
0
0
0
0
0
0
0
0
0
0
0
0
0
0
0
0
0
0
0
0
0
0
0
0
0
0
0
0
0
0
0
0
0
0
0
0
0
0
0
0
0
0
0
0
0
0
0
0
0
0
0
0
0
0
0
0
0
0
0
0
0
0
0
0
0
0
0
0
0
0
0
0
0
0
0
0
0
0
0
0
0
0
0
0
0
0
0
0
0
0
0
0
0
0
0
0
0
0
0
0
0
0
0
0
0
0
0
0
0
0
0
0
0
0
0
0
0
0
0
0
0
0
0
0
0
0
0
0
0
0
0
0
0
0
0
0
0
0
0
0
0
0
0
0
0
0
0
0
0
0
0
0
0
0
0
0
0
0
0
0
0
0
0
0
0
0
0
0
0
0
0
0
0
0
0
0
0
0
0
0
0
0
0
0
0
0
0
0
0
0
0
0
0
0
0
0
0
0
0
0
0
0
0
0
0
0
0
0
0
0
0
0
0
0
0
0
0
0
0
0
0
0
0
0
0
0
0
0
0
0
0
0
0
0
0
0
0
0
0
0
0
0
0
0
0
0
0
0
0
0
0
0
0
0
0
0
0
0
0
0
0
0
0
0
0
0
0
0
0
0
0
0
0
0
0
0
0
0
0
0
0
0
0
0
0
0
0
0
0
0
0
0
0
0
0
0
0
0
0
0
0
0
0
0
0
0
0
0
0
0
0
0
0
0
0
0
0
0
0
0
0
0
0
0
0
0
0
0
0
0
0
0
0
0
0
0
0
0
0
0
0
0
0
0
0
0
0
0
0
0
0
0
0
0
0
0
0
0
0
0
0
0
0
0
0
0
0
0
0
0
0
0
0
0
0
0
0
0
0
0
0
0
0
0
0
0
0
0
0
0
0
0
0
0
0
0
0
0
0
0
0
0
0
0
0
0
0
0
0
0
0
0
0
0
0
0
0
0
0
0
0
0
0
0
0
0
0
0
0
0
0
0
0
0
0
0
0
0
0
0
0
0
0
0
0
0
0
0
0
0
0
0
0
0
0
0
0
0
0
0
0
0
0
0
0
0
0
0
0
0
0
0
0
0
0
0
0
0
0
0
0
0
0
0
0
0
0
0
0
0
0
0
0
0
0
0
0
0
0
0
0
0
0
0
0
0
0
0
0
0
0
0
0
0
0
0
0
0
0
0
0
0
0
0
0
0
0
0
0
0
0
0
0
0
0
0
0
0
0
0
0
0
0
0
0
0
0
0
0
0
0
0
0
0
0
0
0
0
0
0
0
0
0
0
0
0
0
0
0
0
0
0
0
0
0
0
0
0
0
0
0
0
0
0
0
0
0
0
0
0
0
0
0
0
0
0
0
0
0
0
0
0
0
0
0
0
0
0
0
0
0
0
0
0
0
0
0
0
0
0
0
0
0
0
0
0
0
0
0
0
0
0
0
0
0
0
0
0
0
0
0
0
0
0
0
0
0
0
0
0
0
0
0
0
0
0
0
0
0
0
0
0
0
0
0
0
0
0
0
0
0
0
0
0
0
0
0
0
0
0
0
0
0
0
0
0
0
0
0
0
0
0
0
0
0
0
0
0
0
0
0
0
0
0
0
0
0
0


VECTORS element_materi_velocity float
1.299387025642e-03 7.078368213048e-03 0.0 
1.407196010750e-03 6.213585113870e-03 0.0 
7.002759826683e-04 9.141097473205e-04 0.0 
9.018281239173e-05 1.489512321573e-03 0.0 
8.816767146645e-04 8.358920832550e-03 0.0 
-3.906621311654e-04 9.205077203827e-04 0.0 
6.634646835937e-04 8.290157492594e-03 0.0 
1.061160088895e-03 5.456623209496e-03 0.0 
7.342985670219e-04 8.340444197677e-03 0.0 
1.323417497713e-04 1.524299384035e-03 0.0 
9.385391394115e-05 -2.024123946363e-04 0.0 
6.419717052767e-04 5.437895685801e-03 0.0 
4.392908225010e-05 -8.340848646878e-06 0.0 
1.350719744235e-03 7.384695890755e-03 0.0 
3.628346549741e-05 -3.011985673801e-06 0.0 
7.288343988911e-05 1.052161634199e-03 0.0 
1.135716846581e-03 8.661451865730e-03 0.0 
-3.318058414347e-04 7.609875442447e-04 0.0 
3.917732370810e-05 -5.306714385059e-04 0.0 
3.293050142693e-05 -5.242592124208e-04 0.0 
1.575561538939e-04 1.561523185703e-03 0.0 
1.871925823415e-03 8.453634764159e-03 0.0 
2.110399456296e-03 8.267980361665e-03 0.0 
6.569312483285e-04 1.181961085755e-04 0.0 
1.581216837412e-03 6.330162560689e-03 0.0 
1.041861706466e-04 -1.770099064855e-04 0.0 
1.757246600851e-03 9.193656823034e-03 0.0 
9.098368745698e-04 5.206422280321e-04 0.0 
1.678202253375e-03 6.294948950735e-03 0.0 
5.369278124262e-04 9.862744201280e-05 0.0 
1.165263941462e-05 -7.463081972105e-05 0.0 
-1.223383005158e-05 -4.939697207458e-04 0.0 
8.077272824973e-04 1.132326196166e-03 0.0 
3.029881559803e-05 -7.206897234234e-05 0.0 
2.487368281466e-04 1.856224153810e-05 0.0 
6.861613904477e-05 2.941050097833e-06 0.0 
6.256303822507e-05 2.086096692643e-06 0.0 
6.775713777108e-04 2.219520866145e-04 0.0 
5.498147546670e-04 9.249601498102e-03 0.0 
5.000145077250e-04 9.261768178068e-03 0.0 
2.321464713608e-03 8.903696859940e-03 0.0 
2.480275079885e-04 3.192390436867e-05 0.0 
1.803130534354e-05 3.811931974118e-03 0.0 
1.850088384050e-03 8.812953588148e-03 0.0 
4.801891754612e-05 2.110945286077e-03 0.0 
4.680147608016e-05 3.333614467162e-03 0.0 
-9.448291012626e-05 -5.757337109163e-05 0.0 
5.463275987342e-05 1.792423706271e-03 0.0 
-2.263279560016e-04 -1.100490766487e-04 0.0 
1.317951904098e-03 7.855295636320e-03 0.0 
2.247206609287e-03 8.677617829943e-03 0.0 
4.676450301366e-05 -5.129663331920e-04 0.0 
2.742256844735e-04 -4.961540873667e-05 0.0 
2.172465262061e-03 9.183078758345e-03 0.0 
5.196019049509e-04 9.860811906131e-04 0.0 
9.811441217843e-05 -4.740366474859e-04 0.0 
3.944862675958e-05 -5.044361945530e-04 0.0 
6.146055079448e-05 -7.286897889769e-05 0.0 
6.588620056936e-05 -5.427253136115e-04 0.0 
8.755809745478e-05 1.060681214125e-03 0.0 
-4.185263042295e-04 1.363388196821e-04 0.0 
1.251615795605e-03 5.973850710518e-04 0.0 
2.355563196551e-03 4.407023279447e-03 0.0 
1.871267196746e-04 -7.554186853681e-05 0.0 
7.180776937570e-05 -6.950719226683e-06 0.0 
2.048539201543e-03 8.933203699082e-03 0.0 
-4.132141539597e-04 2.123046772707e-04 0.0 
8.562211049386e-04 1.071856361242e-03 0.0 
1.314965791561e-04 -4.251386534245e-04 0.0 
7.856759217700e-04 6.492122959457e-04 0.0 
1.577257550759e-04 -1.503793289686e-04 0.0 
8.796826073168e-05 2.942990792185e-04 0.0 
1.189994830943e-03 7.013373057744e-04 0.0 
3.484533007211e-06 -5.525131712256e-04 0.0 
9.072773088878e-05 -4.614371557443e-04 0.0 
3.081475925717e-04 1.363001525510e-03 0.0 
6.458615140326e-04 1.188939443914e-03 0.0 
-3.648412788841e-04 2.276466997242e-03 0.0 
7.914551834212e-05 -5.400761812016e-04 0.0 
-4.203923798317e-04 2.587396455891e-03 0.0 
1.358753081312e-04 -3.947880771880e-04 0.0 
1.073138836169e-03 8.401252084982e-03 0.0 
1.885502570517e-03 7.633344135679e-03 0.0 
1.542980613618e-03 7.812430087104e-03 0.0 
8.340528903943e-04 7.786971739879e-03 0.0 
7.634864295739e-04 7.757750245852e-03 0.0 
9.261623019595e-05 -1.314410307460e-04 0.0 
1.629748060626e-05 -8.923857253641e-05 0.0 
1.996908347122e-03 3.016159130379e-03 0.0 
9.491528963520e-04 8.320032004011e-03 0.0 
-8.183118497456e-06 -4.813282821578e-04 0.0 
1.823580127628e-03 8.003990177583e-03 0.0 
1.446535465671e-04 4.223772296126e-03 0.0 
1.752055668859e-04 4.567190691422e-03 0.0 
1.754947450377e-04 5.447248427316e-04 0.0 
4.927739840561e-04 1.666588149881e-04 0.0 
1.204490145151e-03 8.415071809726e-03 0.0 
2.832896793483e-04 3.166817763934e-05 0.0 
1.066414321070e-04 6.708913328389e-03 0.0 
2.201108609277e-03 4.845806707164e-03 0.0 
8.524766290437e-04 8.849352295593e-03 0.0 
4.669983902341e-05 -2.692313151649e-06 0.0 
2.014741830117e-03 9.115807375831e-04 0.0 
1.224166063846e-03 5.506238372477e-04 0.0 
1.482019138764e-03 2.641437336457e-03 0.0 
-1.265165023397e-04 -1.265614202735e-04 0.0 
5.105629600204e-05 -2.797594586246e-05 0.0 
1.466703308542e-04 3.639091084457e-03 0.0 
-3.144344996383e-04 -3.076199525107e-05 0.0 
8.683260234270e-05 5.887868594183e-07 0.0 
2.176855035871e-03 3.369221364973e-03 0.0 
5.499925306426e-06 -5.548221259079e-04 0.0 
2.335167614925e-03 2.262332099265e-03 0.0 
2.202473559253e-03 8.578989225198e-03 0.0 
1.751966486348e-04 -4.095832728130e-04 0.0 
1.888000602753e-03 4.636147602521e-03 0.0 
2.259124013206e-03 3.873675476772e-03 0.0 
1.763886602635e-04 1.561471039241e-05 0.0 
1.351350138560e-04 7.122528502372e-03 0.0 
1.975961830272e-03 3.694102904172e-03 0.0 
1.190906803497e-04 -4.880493975033e-04 0.0 
1.888272976177e-03 8.211815774083e-03 0.0 
1.158366840746e-04 3.335868468336e-03 0.0 
1.877130579725e-03 3.223491311702e-03 0.0 
-5.726008999887e-04 1.570175847117e-03 0.0 
2.324367088579e-03 8.942862484920e-03 0.0 
1.500244623544e-04 -4.205171460065e-04 0.0 
2.245101067950e-03 9.292065079086e-03 0.0 
2.347154255619e-04 9.634296813644e-04 0.0 
-4.057295623092e-04 1.448464865612e-03 0.0 
1.466392088073e-04 -1.737545374512e-04 0.0 
7.138924974850e-05 1.474564662572e-03 0.0 
2.904790692464e-03 6.144866010205e-03 0.0 
2.338373552825e-03 8.997227247983e-03 0.0 
2.694757076679e-04 2.319607489384e-05 0.0 
3.008299337193e-05 -8.510040888241e-06 0.0 
1.308169016598e-04 -1.301648456084e-04 0.0 
2.958909382604e-03 6.047103002364e-03 0.0 
3.730455117144e-04 6.600391539462e-05 0.0 
2.745341788760e-03 7.194164144638e-03 0.0 
1.793954627142e-04 1.083736556743e-03 0.0 
9.151015477834e-04 8.091918307036e-04 0.0 
1.433064305034e-03 7.322888711553e-03 0.0 
3.375170913974e-04 5.539706328207e-03 0.0 
2.794684070278e-03 6.714202849578e-03 0.0 
2.228695519262e-03 9.308524409089e-03 0.0 
3.022451423657e-03 5.516861802969e-03 0.0 
1.928064770692e-03 2.574055937645e-03 0.0 
6.325096025938e-04 8.774292549477e-03 0.0 
2.223213099045e-03 1.963093051727e-03 0.0 
1.162613851432e-05 -5.081809595004e-04 0.0 
1.528430975349e-04 8.026409054468e-03 0.0 
2.987128694466e-05 -5.389918496694e-04 0.0 
2.277088629883e-03 8.798759628149e-03 0.0 
2.991766986710e-04 5.126875332822e-05 0.0 
1.572664344055e-03 3.044196042417e-03 0.0 
7.042055456982e-05 -1.104434126579e-04 0.0 
3.949501135630e-04 4.122938886972e-03 0.0 
2.078062357476e-03 1.015867968967e-03 0.0 
3.573625205129e-04 8.448158518537e-03 0.0 
2.032698487042e-03 1.858492682678e-03 0.0 
6.930991212045e-05 -5.619157504745e-05 0.0 
1.260682629278e-04 -4.710961877298e-04 0.0 
7.164529751127e-05 -2.749581414748e-05 0.0 
2.494940934877e-03 7.343471915045e-03 0.0 
9.907732795452e-05 -2.313572754063e-06 0.0 
1.513862131832e-04 8.525034991054e-03 0.0 
1.662802861196e-03 2.427660283205e-03 0.0 
2.178045940409e-03 8.973301476657e-03 0.0 
6.000805975768e-05 -2.093021662386e-04 0.0 
3.437447310970e-04 4.735758380830e-03 0.0 
1.932648278880e-03 1.596733941824e-03 0.0 
2.952801428054e-04 5.017606836342e-03 0.0 
4.072991841499e-04 8.785543961098e-03 0.0 
2.043717004912e-03 2.353924227091e-03 0.0 
2.226288323990e-03 9.174928959985e-03 0.0 
1.906312182546e-03 1.952525620354e-03 0.0 
1.847074107257e-04 -3.840188363454e-04 0.0 
7.270087355208e-04 3.894005652770e-04 0.0 
9.454632252810e-04 7.539334541974e-04 0.0 
1.682226270983e-03 5.047232836480e-03 0.0 
1.654425444971e-04 -3.713958472595e-04 0.0 
1.005643499946e-03 2.139450532038e-04 0.0 
2.593536587471e-03 7.801121277802e-03 0.0 
1.278002549388e-03 4.759760454210e-03 0.0 
2.304952138417e-03 8.047428463982e-03 0.0 
2.262113195178e-03 2.479571671627e-03 0.0 
1.298166356790e-04 1.148037200702e-03 0.0 
1.935119504524e-03 3.599133581095e-03 0.0 
4.840968475644e-05 -4.110583541938e-05 0.0 
-1.985842796553e-04 2.746953617363e-03 0.0 
1.647718002127e-03 1.271219540300e-03 0.0 
1.919976828990e-03 3.079885253128e-03 0.0 
-9.412405434711e-04 1.047269698199e-03 0.0 
2.518028220633e-03 8.248679387136e-03 0.0 
1.046620283967e-03 1.387031567177e-04 0.0 
5.517724847847e-05 -5.453797203089e-04 0.0 
7.497948900814e-04 1.251903487249e-03 0.0 
1.785950659413e-03 5.203004983392e-03 0.0 
6.858645617052e-04 -3.280869817734e-04 0.0 
1.104307678159e-03 1.689865838221e-04 0.0 
1.835321871466e-03 7.496633660825e-03 0.0 
1.552711924987e-03 6.803317794691e-03 0.0 
5.027242628716e-04 8.495834627012e-05 0.0 
4.086249381067e-04 -4.437659482555e-04 0.0 
3.064511611735e-03 4.639980323356e-03 0.0 
2.663251699386e-03 6.600151613687e-03 0.0 
1.672812298943e-03 4.749227165799e-03 0.0 
2.462946866347e-03 6.984387690782e-03 0.0 
2.409102033057e-03 7.879855037162e-03 0.0 
2.182487981488e-03 9.296022252774e-04 0.0 
2.082898943994e-03 2.299816791343e-03 0.0 
-6.741818412946e-04 8.693266477629e-04 0.0 
1.796204430742e-03 5.840372353165e-03 0.0 
2.294778014045e-03 5.494705989920e-03 0.0 
3.037039195630e-03 5.108201589845e-03 0.0 
1.761684193169e-03 3.196550656189e-03 0.0 
-2.971583823372e-05 8.545138610115e-04 0.0 
1.033425254417e-03 9.110787583104e-05 0.0 
4.589008221214e-04 8.661490549185e-03 0.0 
1.734674236431e-03 1.497094878390e-03 0.0 
1.000253079753e-03 4.004008779638e-05 0.0 
3.158671871502e-05 -5.318928663810e-04 0.0 
1.638883339751e-03 4.260803170712e-03 0.0 
2.046734229344e-05 -5.341616623078e-04 0.0 
6.238421428417e-05 -5.456059427710e-04 0.0 
-2.400941651093e-04 3.125703323390e-03 0.0 
3.294746548839e-04 -4.682871939958e-04 0.0 
1.498705644180e-03 3.810271588378e-03 0.0 
3.004634840532e-04 -4.707584414580e-04 0.0 
3.425005241722e-04 2.070807683230e-03 0.0 
2.397207365438e-04 -2.521203639953e-04 0.0 
1.592997805164e-04 -4.941697715356e-04 0.0 
1.095833666887e-03 2.123043608227e-04 0.0 
2.597188481887e-03 7.138542801356e-03 0.0 
8.566158079264e-05 -6.148339475619e-06 0.0 
-8.260832078166e-04 8.879843338535e-04 0.0 
8.287940681265e-04 2.011964844963e-03 0.0 
2.017830467781e-03 1.455014759908e-03 0.0 
2.471714427672e-03 7.950677822204e-03 0.0 
1.094006938806e-03 1.201301424141e-04 0.0 
1.075773121023e-04 8.674886749242e-07 0.0 
2.004406991801e-03 4.064231065308e-03 0.0 
1.046971979292e-03 1.017913185304e-03 0.0 
1.040679372362e-03 1.806659836015e-04 0.0 
7.707204545133e-05 -1.549108831406e-04 0.0 
3.035032635211e-03 5.391968614109e-03 0.0 
1.863281472339e-03 4.671206086092e-03 0.0 
1.058563642501e-03 5.112160456590e-04 0.0 
1.918175288292e-03 1.238386000300e-03 0.0 
6.006294473428e-04 2.193166007325e-03 0.0 
2.456409596346e-03 6.090116019236e-03 0.0 
1.419986629809e-04 5.002718231346e-04 0.0 
3.050592513243e-03 4.258574416350e-03 0.0 
2.122179455622e-03 8.840699485169e-04 0.0 
3.463804197854e-04 7.848592570429e-03 0.0 
7.680723436677e-05 -3.701838132419e-04 0.0 
2.360529702514e-03 7.136691991070e-03 0.0 
1.101319884965e-03 1.215766004888e-03 0.0 
3.026143083926e-04 7.730388965747e-04 0.0 
7.390966555326e-05 -2.051128557134e-05 0.0 
1.411353834740e-03 3.834389734265e-03 0.0 
2.616799042915e-03 6.273837116074e-03 0.0 
2.051747283930e-03 2.967128260183e-03 0.0 
1.265490890699e-03 3.374776361330e-03 0.0 
2.018825990125e-03 3.531663147984e-03 0.0 
2.976097528961e-03 5.555159866706e-03 0.0 
1.245378042776e-04 6.839619413986e-06 0.0 
2.094035071067e-03 7.964463922201e-04 0.0 
2.873002861517e-03 5.604956109164e-03 0.0 
2.502079205517e-03 2.361619425572e-03 0.0 
2.145996697143e-03 8.428989513537e-04 0.0 
6.296507585848e-04 7.187967502369e-04 0.0 
1.658940491939e-03 8.182675654593e-03 0.0 
1.877676222279e-03 9.429178709351e-04 0.0 
8.306299326617e-04 4.523652276111e-05 0.0 
1.914076764592e-03 4.126205210854e-03 0.0 
-8.467520816588e-04 7.575424496131e-04 0.0 
2.315316858541e-03 6.741573923131e-03 0.0 
1.186210897396e-03 9.116535984153e-04 0.0 
7.850412384117e-04 1.730952034737e-03 0.0 
6.045040084892e-04 5.704546457624e-04 0.0 
2.474694329259e-03 5.583189609956e-03 0.0 
3.186487335980e-05 -4.826459027286e-04 0.0 
2.550615610753e-03 6.217400156217e-03 0.0 
2.086854246844e-03 7.567001592784e-04 0.0 
2.518741756886e-03 6.453144079480e-03 0.0 
1.665663151403e-03 7.564995765694e-03 0.0 
-1.579647199461e-04 6.534368198304e-04 0.0 
8.746221906679e-04 1.326494896432e-04 0.0 
6.709376197531e-04 -7.026884812036e-05 0.0 
2.095648167280e-03 6.078186401961e-03 0.0 
1.958257122570e-03 4.614190607179e-03 0.0 
2.515889582565e-03 5.604724806694e-03 0.0 
1.729911044599e-03 8.696767604742e-04 0.0 
1.746036865088e-03 1.154229844126e-03 0.0 
-1.955693898119e-05 6.943789147030e-04 0.0 
2.532356529004e-03 2.147355378064e-03 0.0 
-1.007998393203e-04 1.854048872838e-03 0.0 
2.676435543291e-04 4.835743885702e-04 0.0 
3.446005043686e-04 4.899966299874e-04 0.0 
3.048513484015e-03 3.858561187129e-03 0.0 
8.492814265426e-04 9.462839538328e-04 0.0 
5.253071445011e-04 1.398915449061e-03 0.0 
2.882629547121e-03 5.109182185598e-03 0.0 
6.857722747903e-04 1.061773762964e-03 0.0 
7.069146956243e-04 5.433159233825e-06 0.0 
2.992685965519e-03 5.745992257536e-03 0.0 
2.333507349102e-04 1.316891133703e-03 0.0 
1.450314416793e-03 1.182215836814e-03 0.0 
2.264463567760e-03 1.056615626244e-03 0.0 
1.133056273282e-04 1.701272532887e-03 0.0 
1.899868860174e-04 4.295643808391e-05 0.0 
7.160503812089e-04 1.261806944651e-03 0.0 
3.057274185213e-03 4.903411248909e-03 0.0 
1.463820126073e-04 5.756855279965e-04 0.0 
1.511299351234e-03 2.280761769592e-04 0.0 
1.976831963714e-03 1.122922209986e-03 0.0 
7.459218915333e-04 -1.022666558039e-04 0.0 
2.755804558976e-03 6.372033491427e-03 0.0 
3.486309562549e-04 3.445809495628e-04 0.0 
1.484442510176e-03 8.884807887290e-04 0.0 
1.994359721455e-03 6.422788685559e-04 0.0 
1.203187275734e-04 1.468168600843e-03 0.0 
1.144793123498e-03 5.823219986046e-03 0.0 
1.061758837584e-03 6.680031600875e-05 0.0 
9.418917156488e-04 2.692153748109e-03 0.0 
1.133677492850e-03 6.322046647072e-03 0.0 
3.960640999140e-04 2.827239801123e-04 0.0 
9.372362039205e-04 8.569435824001e-05 0.0 
3.574818774994e-04 3.973822237815e-04 0.0 
1.392603512305e-03 6.325544448022e-03 0.0 
2.247663102628e-03 3.274103310453e-03 0.0 
3.679581258649e-04 2.730211719010e-03 0.0 
2.703080603787e-03 7.209574955559e-03 0.0 
2.795806819351e-03 5.849022723710e-03 0.0 
2.733852168923e-03 5.560182264263e-03 0.0 
2.959813239122e-03 3.875162655138e-03 0.0 
3.901208023463e-04 2.267674305200e-04 0.0 
1.753524894034e-03 6.715309606105e-03 0.0 
2.288373876404e-03 7.663349642154e-03 0.0 
1.656928362830e-03 9.655249433511e-04 0.0 
2.455815645251e-04 -4.851185045496e-04 0.0 
2.504153390166e-03 8.023108863881e-03 0.0 
1.176557962872e-03 2.479959942003e-03 0.0 
3.063698018725e-04 8.754969770781e-03 0.0 
7.048149138677e-04 -1.635951284711e-04 0.0 
1.376147427100e-03 9.881819860180e-04 0.0 
1.674374867126e-03 3.745296342795e-03 0.0 
1.101097035260e-03 2.139741099724e-03 0.0 
2.782985118400e-03 6.658838797170e-03 0.0 
1.924572025592e-03 5.750309999793e-04 0.0 
9.943154379809e-04 -1.275378223876e-04 0.0 
3.245748503435e-04 1.410546335608e-04 0.0 
2.599218640721e-03 8.027579439555e-03 0.0 
8.198573069273e-04 2.899220664781e-04 0.0 
6.731010022965e-04 -3.363477828918e-04 0.0 
1.148477405747e-03 4.128890633225e-03 0.0 
1.010884666675e-03 3.104458148007e-03 0.0 
1.725382334601e-03 2.702614824692e-03 0.0 
3.032060973401e-03 4.759724382829e-03 0.0 
2.520479641983e-03 7.415168000344e-03 0.0 
2.692090760893e-03 7.494798079392e-03 0.0 
2.713747971962e-04 8.190065020685e-05 0.0 
6.838255944062e-04 2.094193324989e-04 0.0 
1.650796184380e-03 2.751809794643e-03 0.0 
1.731179590372e-03 4.224096585815e-03 0.0 
1.018497431494e-03 -1.355864671827e-04 0.0 
2.579516106806e-03 4.546110314087e-03 0.0 
8.102590316873e-04 7.763163671775e-04 0.0 
1.126753883451e-03 7.448971362136e-04 0.0 
3.072165389764e-03 4.560083171279e-03 0.0 
1.579040188760e-03 2.542618092620e-04 0.0 
4.910446343927e-04 -3.304263743102e-04 0.0 
1.419039649882e-03 2.856665778506e-03 0.0 
7.810187136700e-04 1.844966804629e-04 0.0 
2.795760000863e-03 3.430622705931e-03 0.0 
2.913820910811e-03 5.851115259163e-03 0.0 
2.592056992250e-03 3.671980611907e-03 0.0 
3.537780579851e-04 4.425439428050e-04 0.0 
3.154052699306e-04 5.041360878868e-04 0.0 
7.879258500467e-04 1.240370694927e-03 0.0 
1.028280408522e-03 -9.201303097400e-05 0.0 
1.185076328239e-03 3.382497700638e-03 0.0 
6.382661672535e-04 2.533136068193e-03 0.0 
1.407211426670e-03 7.253819941990e-04 0.0 
2.970287497502e-04 6.196859985255e-04 0.0 
2.705034203775e-03 6.232831981382e-03 0.0 
1.497040073209e-03 8.256954189421e-03 0.0 
1.304169177326e-03 6.334011589855e-03 0.0 
4.842540061979e-04 1.076250959435e-04 0.0 
1.868925334539e-03 2.596264706686e-03 0.0 
2.355401861834e-03 6.226241562599e-03 0.0 
2.735186919918e-03 5.067069337854e-03 0.0 
4.436967903693e-04 5.225889132526e-04 0.0 
-1.079474956074e-05 -3.994324328205e-04 0.0 
2.285723062569e-03 1.789424213701e-03 0.0 
2.904127683362e-03 3.162883271781e-03 0.0 
2.427954901936e-03 1.874399213731e-03 0.0 
-6.199043320952e-04 1.798961447236e-03 0.0 
2.880901334435e-04 7.589545412568e-03 0.0 
2.099669359483e-04 -4.836477528896e-04 0.0 
9.826010644499e-04 1.578733096419e-03 0.0 
1.016057917613e-04 2.419868605526e-05 0.0 
1.991994388533e-03 7.211544689893e-04 0.0 
2.188597219870e-03 7.781824319325e-03 0.0 
1.864245670227e-05 -5.419906870329e-04 0.0 
3.004671033219e-03 4.276683286533e-03 0.0 
2.180390639466e-03 1.543104662736e-03 0.0 
2.567624698961e-03 5.429259088493e-03 0.0 
3.716442930630e-04 3.278254979248e-04 0.0 
2.609836826865e-03 7.461160837484e-03 0.0 
2.940581054294e-03 4.857630826091e-03 0.0 
5.378195959268e-04 -3.228161673524e-04 0.0 
1.429901782125e-03 3.338954962092e-03 0.0 
9.889520190787e-04 -8.344427269410e-05 0.0 
3.966181541201e-04 3.152267430193e-04 0.0 
1.825360845930e-04 2.145588557654e-04 0.0 
1.255968153751e-04 2.414498436313e-04 0.0 
1.733585309765e-04 2.620115429478e-04 0.0 
2.558882987009e-03 4.940173894353e-03 0.0 
1.513274754450e-03 3.310686301406e-03 0.0 
1.580512609483e-03 2.275357887014e-03 0.0 
2.677755119307e-03 4.137652151604e-03 0.0 
2.646173088052e-03 5.094912558579e-03 0.0 
4.111878734711e-04 -3.620999183592e-04 0.0 
1.497034678412e-03 2.826718749442e-03 0.0 
3.955466310568e-04 2.545675697238e-04 0.0 
1.186820811396e-03 2.909752227811e-03 0.0 
2.102634946217e-03 7.888873699207e-04 0.0 
1.263879893382e-03 2.898048974460e-03 0.0 
2.569371394492e-03 1.945112668511e-03 0.0 
2.820550899149e-03 3.117010807034e-03 0.0 
2.691644083300e-03 6.785650160882e-03 0.0 
3.179441512906e-04 1.324466003146e-03 0.0 
3.383451985786e-04 1.062790718224e-03 0.0 
2.397378796404e-03 3.547090971716e-03 0.0 
1.233539488122e-03 8.177599208152e-04 0.0 
4.542632063522e-04 -3.565638697283e-04 0.0 
5.684012365423e-04 -2.479285075298e-04 0.0 
3.737915198873e-04 8.024911515415e-05 0.0 
1.296849938590e-03 1.962252654827e-03 0.0 
1.749457929064e-04 1.828233680161e-04 0.0 
5.672616943873e-04 9.484441848191e-04 0.0 
3.016518460219e-03 4.311658722758e-03 0.0 
-7.464202540176e-05 -3.906330156723e-04 0.0 
1.979591297145e-04 1.660679163781e-04 0.0 
4.575092374954e-04 1.218660522163e-04 0.0 
6.019950051646e-04 -1.964546046713e-04 0.0 
1.927738314533e-03 6.043705779500e-04 0.0 
3.199878690553e-04 1.268417931623e-04 0.0 
-1.257374452191e-04 -4.035099095485e-04 0.0 
2.662078118255e-03 3.347650945313e-03 0.0 
2.918763734392e-03 4.399675999252e-03 0.0 
3.062488354711e-03 4.129480544690e-03 0.0 
2.993230986841e-03 5.057449357199e-03 0.0 
5.456043758878e-04 1.633497397832e-03 0.0 
1.974050755084e-04 1.335651534711e-04 0.0 
1.640643453199e-03 7.122072050846e-04 0.0 
-1.243343159461e-04 4.967123127132e-04 0.0 
1.612969527213e-04 8.376407003558e-06 0.0 
-8.166564147171e-05 -4.139843603721e-04 0.0 
2.739671609937e-03 7.421376453810e-03 0.0 
7.979647677793e-05 -1.558415630766e-04 0.0 
2.405666143369e-03 8.236873949870e-03 0.0 
2.385931729525e-04 6.494713622661e-05 0.0 
1.919792467979e-04 1.057650142673e-04 0.0 
2.647397252077e-03 5.756878534367e-03 0.0 
-5.882836952712e-05 -1.955801052235e-04 0.0 
-2.429510253935e-04 4.572197943866e-04 0.0 
4.134906004961e-05 -2.078027993971e-04 0.0 
5.020487080437e-04 -6.333765555531e-06 0.0 
1.572288198697e-03 8.532651423445e-03 0.0 
2.156674283780e-03 7.372776980788e-03 0.0 
1.658496840002e-04 7.524002720418e-05 0.0 
1.413515257172e-03 8.596004346074e-03 0.0 
2.347264422921e-04 4.779220262906e-04 0.0 
2.430025392426e-03 1.706526089967e-03 0.0 
1.200046204328e-03 6.845238672197e-03 0.0 
1.423993531679e-03 3.798007015178e-03 0.0 
2.013306709768e-03 7.038056571690e-04 0.0 
1.418086719972e-04 8.891733723541e-04 0.0 
1.612627027120e-04 6.102718680563e-05 0.0 
1.712419733921e-04 2.279850870396e-04 0.0 
1.420467389540e-04 2.421245449389e-04 0.0 
9.249652061070e-04 -1.069049702095e-04 0.0 
3.363040292717e-04 -3.900320509883e-04 0.0 
2.732346807609e-03 2.769167574757e-03 0.0 
8.812982895199e-04 -9.511376296986e-05 0.0 
1.471690721216e-04 4.672973355504e-05 0.0 
9.339074386339e-04 1.344169955103e-03 0.0 
9.057122571968e-04 7.820664962704e-06 0.0 
9.149358614856e-04 -8.910805016433e-05 0.0 
1.051608849205e-03 6.307011876388e-03 0.0 
1.674794117521e-04 3.421439679819e-05 0.0 
-8.585133015930e-05 -2.424964976914e-04 0.0 
1.143874478779e-04 2.977621957479e-05 0.0 
7.636079572459e-04 -1.836636852697e-04 0.0 
1.736851633485e-04 1.617575815467e-04 0.0 
1.647124091290e-03 2.232733891757e-03 0.0 
-1.747441671400e-04 -3.668950401627e-04 0.0 
2.607591390506e-03 2.690464955461e-03 0.0 
1.036827775766e-03 2.913313971134e-03 0.0 
1.986590244056e-04 1.491588266412e-04 0.0 
2.639990291120e-03 4.774680413818e-03 0.0 
2.237221823817e-03 1.360114917849e-03 0.0 
-6.388958722397e-05 1.400676068778e-03 0.0 
7.167418824856e-04 1.723062489951e-04 0.0 
7.642112159451e-04 -2.432778556249e-04 0.0 
8.626695044576e-04 -1.474627565188e-04 0.0 
-2.400882164657e-04 -1.671140850937e-04 0.0 
1.981415555484e-04 1.210024162527e-04 0.0 
4.744290991073e-04 8.242839157762e-04 0.0 
8.848547344281e-04 1.014745674386e-04 0.0 
1.172804601618e-03 7.397262274755e-03 0.0 
4.847947282645e-04 -3.952032795542e-04 0.0 
8.569812919395e-04 -6.398050624817e-05 0.0 
2.806768255949e-03 4.860135873735e-03 0.0 
1.587251663433e-04 6.581460635663e-05 0.0 
3.292080272318e-04 -3.701602459993e-04 0.0 
9.519122520713e-04 -1.194753493522e-05 0.0 
2.985283427467e-03 3.177891453579e-03 0.0 
1.338812799744e-03 8.817446654009e-05 0.0 
1.023376450108e-03 5.118355326482e-05 0.0 
1.006618957751e-03 -5.004305351850e-05 0.0 
3.011265495171e-03 3.516041667153e-03 0.0 
2.629690888340e-03 2.469798370764e-03 0.0 
1.874506631782e-03 6.377581080617e-04 0.0 
2.892112870949e-03 2.862981020286e-03 0.0 
5.922880067028e-04 -3.312493762425e-04 0.0 
1.222106797494e-03 1.682257461748e-03 0.0 
3.757829817222e-04 -3.861824044440e-04 0.0 
2.391015257160e-03 1.560876928515e-03 0.0 
1.957163021982e-03 6.009775423875e-04 0.0 
2.159932396392e-04 5.397490563006e-05 0.0 
1.021169965008e-03 2.465359984799e-03 0.0 
4.158538850791e-04 -4.170744236906e-04 0.0 
1.242057250746e-04 3.517091665181e-05 0.0 
5.321470929875e-04 1.328288683824e-04 0.0 
2.442636131736e-03 1.701661417003e-03 0.0 
-1.672997234360e-04 -2.305428211864e-04 0.0 
1.495756143558e-04 2.764517200067e-05 0.0 
1.234722061189e-03 2.442037286565e-03 0.0 
6.266678658425e-04 -2.640905635851e-04 0.0 
8.838109425613e-05 1.875775202864e-05 0.0 
8.909657518187e-04 -6.364941250403e-05 0.0 
2.822389955697e-03 5.680124025857e-03 0.0 
2.211238096341e-03 6.859184235678e-03 0.0 
1.997695921296e-03 6.689462739764e-04 0.0 
9.298390297110e-04 -1.526410547808e-04 0.0 
1.432102873193e-03 1.729861955813e-04 0.0 
1.884123582188e-03 5.161690488583e-03 0.0 
2.913747362797e-03 6.457794965326e-03 0.0 
1.884860458429e-03 7.244611315649e-04 0.0 
2.728845235063e-04 7.016803974275e-03 0.0 
5.444938655528e-04 -3.414607164176e-04 0.0 
1.830510505463e-03 5.381288093071e-04 0.0 
7.175405069027e-04 -2.820961287175e-04 0.0 
4.716122859186e-04 -1.647820882614e-04 0.0 
-2.409420378141e-04 -2.925704360781e-04 0.0 
1.553094588634e-03 2.088694443855e-03 0.0 
7.190546778430e-04 -2.326852175253e-04 0.0 
4.794224232533e-04 -3.100683976110e-04 0.0 
2.635814377629e-03 2.010383956996e-03 0.0 
9.522996070785e-04 -4.203940056806e-05 0.0 
1.032301989185e-03 6.799502878829e-03 0.0 
5.894855310782e-04 -3.047827455461e-04 0.0 
7.909831749600e-05 1.545664476954e-05 0.0 
2.955871153757e-03 4.151428870290e-03 0.0 
4.179586184975e-04 -2.945147967316e-04 0.0 
3.032054636978e-03 4.024742962250e-03 0.0 
4.337056119433e-04 -3.158812671291e-04 0.0 
-1.808629229847e-04 -3.399253381968e-04 0.0 
2.150312918557e-03 6.446028076003e-03 0.0 
1.148971714534e-04 -3.977030554464e-04 0.0 
1.511438159463e-05 -5.410434940996e-04 0.0 
3.466928646324e-04 -3.246601919823e-04 0.0 
8.835630743151e-04 -5.696935501054e-06 0.0 
2.910566007282e-04 3.071403289823e-03 0.0 
1.469788018708e-03 1.548085211377e-04 0.0 
1.417086883168e-03 1.377732129049e-04 0.0 
2.103378581359e-03 8.303964794317e-03 0.0 
1.399731593215e-03 9.221082260236e-03 0.0 
4.057239177354e-04 9.793073762848e-04 0.0 
3.052755547453e-03 3.809364467545e-03 0.0 
1.447522453993e-05 -5.442099439764e-04 0.0 
1.489666680402e-04 -5.065619045625e-04 0.0 
-1.167529771498e-04 -3.215709550304e-04 0.0 
3.854440520732e-04 -4.504579429665e-04 0.0 
1.936701353305e-03 1.864390472625e-03 0.0 
3.329822965213e-04 3.103252651787e-03 0.0 
5.327752329989e-04 -2.458796477756e-05 0.0 
3.600430301719e-04 -4.509803275369e-04 0.0 
4.261508663901e-04 -1.713712525687e-04 0.0 
7.751707527449e-04 9.159854759900e-05 0.0 
1.506086111759e-04 4.378806999545e-04 0.0 
8.131795672767e-05 -3.979975828130e-04 0.0 
5.423130893849e-05 -4.505359533521e-04 0.0 
1.361073674865e-04 2.227172608089e-05 0.0 
7.047729685977e-05 1.218852723113e-05 0.0 
8.655104855994e-05 -3.580641556152e-04 0.0 
3.734467649755e-04 -2.990830404891e-04 0.0 
8.998171872805e-04 -1.405769608826e-04 0.0 
7.466191760646e-04 1.183621378452e-04 0.0 
1.805951636192e-04 -5.077305749323e-04 0.0 
7.900632213613e-04 5.989648498779e-05 0.0 
5.018444025401e-05 -5.481768137580e-04 0.0 
3.597515964128e-04 -3.459859735550e-04 0.0 
5.107513294987e-04 -2.825293018380e-04 0.0 
3.268519871550e-05 -5.520061960014e-04 0.0 
6.826848195137e-05 -3.778517120553e-04 0.0 
9.515914918386e-04 2.461200388813e-03 0.0 
1.978190366998e-05 -5.506975236057e-04 0.0 
1.547128967844e-03 9.119520168677e-03 0.0 
1.605632326435e-03 9.358073231211e-03 0.0 
1.510715712124e-03 2.590932028487e-04 0.0 
2.689585424142e-05 -4.520088788546e-04 0.0 
6.352016340363e-04 -3.121956725788e-04 0.0 
3.312282824321e-04 1.792151883962e-03 0.0 
3.371689151731e-04 -1.151184446705e-06 0.0 
7.546934519405e-04 4.991955583604e-04 0.0 
6.054746516941e-04 3.730792995644e-03 0.0 
1.336196119189e-03 3.295023047861e-03 0.0 
7.184336389274e-05 -4.949382201245e-04 0.0 
2.776528662295e-03 7.183691680368e-03 0.0 
9.971861091885e-04 9.293094462572e-03 0.0 
9.318585842637e-04 9.607445467484e-03 0.0 
2.162741538813e-05 -5.484945207823e-04 0.0 
3.727852861894e-05 -5.502262931649e-04 0.0 
2.897958261522e-05 -5.476824519197e-04 0.0 
2.553617533073e-04 -4.945108048012e-04 0.0 
2.586988541230e-05 -5.535411018711e-04 0.0 
7.164657130306e-05 -3.355620160098e-04 0.0 
-4.129562070251e-04 -1.333127778759e-05 0.0 
3.155585542483e-04 -4.691999382662e-04 0.0 
2.438745320983e-04 5.892518445927e-03 0.0 
1.317545143431e-03 9.549594481828e-03 0.0 
1.681927784125e-03 1.702386403299e-03 0.0 
8.344418784529e-04 -5.307315817830e-05 0.0 
2.183672540034e-04 6.789289998854e-03 0.0 
1.457447837523e-05 -4.353198197502e-04 0.0 
3.175159319914e-05 -5.496037763066e-04 0.0 
5.011661692064e-05 2.665049807172e-04 0.0 
1.145120203888e-04 5.543573647835e-04 0.0 
1.087129030119e-03 7.366561252072e-03 0.0 
1.127081298829e-03 9.299057890820e-03 0.0 
7.289745352784e-05 -4.336635028393e-04 0.0 
7.408937053205e-05 5.276372766957e-04 0.0 
2.990868193268e-04 -4.796953008348e-04 0.0 
1.458097178399e-03 9.468900848815e-03 0.0 
1.259418910605e-03 9.280817093930e-03 0.0 
2.473654641269e-03 8.352928067096e-03 0.0 
1.091296269170e-04 2.364721826593e-04 0.0 
9.006466747182e-05 5.253220446670e-04 0.0 
3.054542264629e-05 -5.520057251846e-04 0.0 
2.320429498795e-05 -5.528019705063e-04 0.0 
1.089178747000e-04 -5.141329123227e-04 0.0 
5.595467501520e-04 -2.747603435378e-04 0.0 
3.312494154685e-05 -1.728942822296e-05 0.0 
-5.103711948428e-04 7.683110478995e-05 0.0 
7.744381163557e-05 3.881053403827e-03 0.0 
-3.232647748869e-04 -1.495872138609e-04 0.0 
1.358912449428e-03 1.561725237374e-04 0.0 
-3.186350045306e-04 -1.972789556874e-04 0.0 
-4.080262218096e-04 -7.509148795242e-05 0.0 
1.280339272441e-03 7.944852594585e-05 0.0 
1.330684689715e-04 -2.217396735443e-05 0.0 
2.042114666756e-04 6.225406586389e-03 0.0 
2.934942734159e-03 6.281577409357e-03 0.0 
2.533576667772e-05 -5.528326213383e-04 0.0 
3.497530934470e-04 -1.562838739963e-04 0.0 
1.755223575832e-05 3.150886918983e-04 0.0 
3.464942163761e-05 5.337767197348e-04 0.0 
1.184322020975e-03 9.589968720856e-03 0.0 
1.421100140916e-03 2.327711706465e-04 0.0 
3.994805055119e-05 2.588170639498e-04 0.0 
2.192589166348e-03 1.241284148098e-03 0.0 
1.941590561483e-05 -5.499746984098e-04 0.0 
1.866236951685e-05 -5.544618479030e-04 0.0 
1.551451903788e-05 -5.535252493615e-04 0.0 
1.648312759019e-05 -3.979956186059e-04 0.0 
2.663826266820e-05 -1.917903579288e-07 0.0 
9.374762921707e-06 1.452542175203e-03 0.0 
1.535966498009e-05 -5.566378402712e-04 0.0 
3.688087710430e-05 -3.340631839639e-04 0.0 
9.002329484682e-06 -1.685921918550e-07 0.0 
3.778359948870e-05 5.799801402386e-07 0.0 
1.240980252417e-04 1.788823189174e-05 0.0 
4.324731754792e-05 4.855719658358e-03 0.0 
1.709463989665e-05 3.390152892412e-03 0.0 
1.763593318351e-05 -2.319816607376e-08 0.0 
2.014766630518e-05 6.031783063123e-07 0.0 
3.789411843587e-05 3.881422211220e-03 0.0 
1.113449680271e-05 -5.578656435482e-04 0.0 
7.014494889483e-04 9.623195913360e-03 0.0 
1.057699696226e-03 9.607452653702e-03 0.0 
2.072465859346e-05 -5.551952314762e-04 0.0 
3.419167764731e-05 3.068732120006e-06 0.0 
1.155442704614e-04 1.433630384116e-05 0.0 
5.707631584642e-05 6.531270799195e-06 0.0 
1.688783532212e-05 -5.566627433116e-04 0.0 
2.019884423833e-05 -5.544565709282e-04 0.0 
6.563007062678e-05 1.008319884977e-05 0.0 
5.846795461496e-05 7.805033041970e-06 0.0 
2.244783900869e-05 5.357373844235e-03 0.0 
3.676251041964e-04 9.628736173852e-03 0.0 
2.079947853922e-05 4.363107983826e-03 0.0 
2.718752816715e-05 7.333651988205e-03 0.0 
1.568427167140e-04 9.620562549848e-03 0.0 
3.376109807655e-06 -5.339850411742e-04 0.0 
-4.050207551442e-05 -4.968454539958e-04 0.0 
-7.490042244175e-05 -4.658355867770e-04 0.0 
-1.197990261289e-04 -4.232648156012e-04 0.0 
1.894283142506e-05 -3.114003324858e-04 0.0 
1.793804567924e-05 -3.563799679538e-04 0.0 
-4.419121861740e-05 -4.867940149948e-04 0.0 
2.008435031074e-05 -1.750230452038e-04 0.0 
-8.014353425539e-05 -4.512436116899e-04 0.0 
8.752648430599e-05 2.504257635131e-04 0.0 
3.414131998086e-05 2.688202127459e-04 0.0 
6.439540346813e-05 2.878523840663e-04 0.0 
6.882902656958e-06 -5.339043455395e-04 0.0 
1.232137586619e-05 -4.677309357558e-04 0.0 
3.222689332399e-05 3.236082718240e-04 0.0 
1.400133499177e-05 -5.515569192129e-05 0.0 
1.709718587929e-05 2.186880278365e-04 0.0 
1.026150783244e-05 -2.780851312310e-05 0.0 
6.215487477042e-06 -9.544379625544e-06 0.0 
3.442117326943e-05 -3.776663564398e-04 0.0 
6.636821330485e-05 5.924284845699e-04 0.0 
4.932407920328e-05 5.422962996605e-04 0.0 
2.426284282421e-05 -4.086995884856e-05 0.0 
1.647699530948e-05 -1.735787205441e-05 0.0 
2.076294961449e-04 -1.243803560888e-04 0.0 
-2.465296270216e-04 -2.569622799575e-04 0.0 
2.904577772669e-04 -3.729984932075e-04 0.0 
3.178291267876e-05 -5.488195356631e-04 0.0 
3.124333898510e-04 -7.052209641076e-06 0.0 
4.022524902017e-04 -3.417752924592e-04 0.0 
2.411514799479e-04 -5.789569293463e-05 0.0 
2.337502433544e-04 -5.014762172904e-04 0.0 
6.325116258333e-05 -5.424029423161e-04 0.0 
1.668744263890e-04 -3.230975371080e-05 0.0 
3.049158520173e-04 -3.280322283505e-04 0.0 
6.204512642096e-05 -4.170272408636e-04 0.0 
2.110166361027e-04 -6.175419393708e-05 0.0 
1.068551044156e-04 2.459347656131e-03 0.0 
3.105760596543e-05 -4.172106322720e-04 0.0 
8.640380733487e-04 1.953009198307e-05 0.0 
6.160408382660e-04 -1.388556572513e-04 0.0 
2.452563342093e-04 -1.208203761121e-04 0.0 
1.781464079741e-04 -1.054398938567e-04 0.0 
1.490429687924e-03 6.449565934315e-04 0.0 
2.810286391139e-03 7.035519268228e-03 0.0 
2.644379400825e-03 2.219288653310e-03 0.0 
3.921297133884e-04 -1.509888015634e-04 0.0 
1.496600540589e-04 -5.073943955218e-05 0.0 
1.169660415729e-04 -9.006353391218e-05 0.0 
3.250354959300e-04 -4.551526307263e-04 0.0 
2.031720975829e-04 2.535940247005e-03 0.0 
2.590671424662e-04 3.515118090306e-03 0.0 
4.749783793533e-04 8.133188045885e-03 0.0 
4.399940727898e-04 -1.192408328643e-04 0.0 
3.164749595032e-04 -1.360923770317e-04 0.0 
1.383126324544e-04 2.510620377018e-03 0.0 
1.770372080163e-04 3.015028447745e-03 0.0 
6.555658645917e-04 -1.569114573910e-04 0.0 
1.127917451687e-04 -2.458266283219e-05 0.0 
5.484422238567e-04 3.702312751409e-03 0.0 
8.308775085807e-05 -9.098905288288e-05 0.0 
2.285173924494e-04 -5.174382480113e-06 0.0 
2.371569139695e-04 2.560558195112e-03 0.0 
4.563182724548e-04 5.086589338697e-03 0.0 
8.274265559565e-04 -2.521254680816e-05 0.0 
1.266319224850e-04 -5.093607856493e-04 0.0 
3.057210916129e-04 -4.322453662765e-04 0.0 
7.200367071917e-05 -5.086296019170e-04 0.0 
-1.783709043482e-04 -2.726992742237e-04 0.0 
2.144123933309e-04 3.014080835196e-03 0.0 
1.199222552022e-04 -3.779650533554e-05 0.0 
-1.248325849938e-04 -3.531888628828e-04 0.0 
1.447127728715e-03 2.363527015792e-03 0.0 
5.596637444658e-04 7.638577302816e-03 0.0 
2.799863956353e-04 -7.304793452089e-05 0.0 
1.520048493899e-04 -6.833401884897e-05 0.0 
6.285369310752e-04 -3.443666838047e-04 0.0 
1.225782763880e-04 -7.095695597538e-05 0.0 
5.367383305921e-04 8.151344677613e-03 0.0 
1.798591143947e-03 5.541675275985e-04 0.0 
1.736971103359e-04 -3.164458713363e-07 0.0 
6.717985897317e-05 -5.106802194279e-04 0.0 
2.929977081074e-04 8.637667145415e-06 0.0 
3.524223533120e-04 4.539823874664e-03 0.0 
1.066343259535e-04 -4.983862916015e-04 0.0 
3.873280846721e-04 -4.371870067917e-04 0.0 
1.674895515826e-04 -2.663977124098e-04 0.0 
6.199262346065e-04 6.156036175256e-03 0.0 
3.399947933810e-04 -4.262370757857e-04 0.0 
2.606550282751e-04 3.990362233648e-03 0.0 
3.927772765175e-04 5.541673997589e-03 0.0 
3.545539625359e-04 -2.770712504685e-04 0.0 
1.424995167485e-04 -1.082417085496e-04 0.0 
1.820395058005e-04 -8.463878209285e-05 0.0 
3.028860835169e-04 4.504472481504e-03 0.0 
1.308731366798e-04 -5.259765486785e-04 0.0 
2.884958959681e-04 -3.061243696911e-04 0.0 
1.547324643092e-03 6.370715223828e-04 0.0 
4.027147986849e-04 4.090533956004e-03 0.0 
2.792243338328e-04 -3.521962571314e-04 0.0 
5.662413050164e-04 -1.487134438461e-04 0.0 
3.864949319144e-04 1.189106718196e-05 0.0 
4.000765977206e-04 5.054925898884e-03 0.0 
-2.179193613771e-04 3.284761244081e-04 0.0 
7.212182949509e-05 -5.339662385818e-04 0.0 
4.306926526039e-04 3.910573350476e-04 0.0 
1.763355014429e-04 -4.766138340520e-05 0.0 
5.068948869177e-04 5.604258667700e-03 0.0 
1.222299853458e-04 -2.236223584848e-04 0.0 
6.490598061198e-04 7.167719330905e-03 0.0 
7.333424946474e-04 7.334331377265e-05 0.0 
2.902144649182e-04 -2.583908356559e-04 0.0 
2.143758451292e-04 -8.113701332794e-05 0.0 
1.066352227255e-04 -5.097000044378e-04 0.0 
2.507311839701e-04 -7.452794956843e-07 0.0 
3.113801061436e-04 -2.807405433023e-04 0.0 
8.440159758393e-05 -4.991831120940e-04 0.0 
2.481050078314e-04 -3.081399945182e-04 0.0 
3.031615306152e-04 -4.119966733881e-04 0.0 
2.866860352744e-04 -4.741245950850e-04 0.0 
1.614185229792e-04 -2.194435722839e-04 0.0 
4.137806612383e-06 -5.299339989400e-04 0.0 
-1.539234972386e-05 -5.124088451253e-04 0.0 
2.770276762001e-04 -1.404673781664e-04 0.0 
1.222997290556e-04 -5.191025293733e-04 0.0 
3.976576214737e-04 -1.256321439894e-04 0.0 
4.799275842330e-04 -1.380083261310e-04 0.0 
5.016632404415e-04 -3.678766506966e-04 0.0 
5.045967140968e-04 -3.315182080480e-04 0.0 
4.717931410419e-04 3.195663140972e-03 0.0 
-3.097148532569e-04 1.009481802214e-03 0.0 
2.622313202629e-04 -3.953749317085e-04 0.0 
7.040706587003e-04 9.932324284738e-05 0.0 
1.000590851804e-04 -5.282839561610e-04 0.0 
6.039508435672e-04 6.644869364999e-03 0.0 
6.243415151757e-04 7.670578069266e-03 0.0 
1.671324920668e-04 -5.160358232093e-04 0.0 
4.945138358039e-04 1.856386422363e-05 0.0 
6.975071066322e-04 4.722850608680e-03 0.0 
1.401416505013e-04 -5.183032351959e-04 0.0 
4.890306803005e-04 2.762494492572e-03 0.0 
4.408754615648e-04 2.731727914042e-03 0.0 
1.676623366202e-04 -5.076058584720e-04 0.0 
1.759293007092e-03 4.017791602203e-03 0.0 
2.326269280045e-04 -4.995179768475e-04 0.0 
2.481095853672e-04 -9.837814511505e-05 0.0 
2.256980943575e-04 -2.390786420985e-04 0.0 
1.162935277013e-03 2.455151821833e-03 0.0 
4.229782463202e-04 3.165840193123e-03 0.0 
3.201793241732e-04 -1.122147971729e-04 0.0 
3.589853662023e-04 -1.070496365635e-04 0.0 
1.923391511646e-04 -5.128889628546e-04 0.0 
2.835852920280e-04 -9.414756731045e-05 0.0 
6.338575806743e-04 4.695101361407e-03 0.0 
1.850333693408e-04 -2.418095994026e-04 0.0 
5.679734494896e-04 5.636605085854e-03 0.0 
5.650919048046e-04 4.182848043459e-03 0.0 
2.036609244838e-03 8.264740524354e-04 0.0 
3.935163388741e-04 3.611787781467e-03 0.0 
2.251201090345e-04 -3.326008063313e-04 0.0 
2.483064897394e-04 -2.615113611445e-04 0.0 
2.376795560722e-04 -4.344613463350e-04 0.0 
5.351455045029e-04 -3.878724863829e-04 0.0 
5.736629508855e-04 5.150547822213e-03 0.0 
8.302834638927e-04 -2.081853553292e-04 0.0 
2.225748430164e-04 -4.927521579950e-04 0.0 
1.035515286952e-04 -5.232181219276e-04 0.0 
6.360344321128e-04 5.180686367585e-03 0.0 
2.474794750500e-04 -4.896271296999e-04 0.0 
3.121086958006e-04 1.395593944632e-05 0.0 
4.585281376503e-04 4.603603137154e-03 0.0 
3.137831365676e-04 -6.826331836725e-05 0.0 
4.148368202059e-04 1.001086384480e-04 0.0 
2.398194789867e-04 -3.547492102851e-04 0.0 
1.888826232375e-04 -5.057859061016e-04 0.0 
1.301376504831e-04 -5.239523624443e-04 0.0 
4.390425383129e-04 -9.464081051997e-05 0.0 
4.384033848219e-04 6.060935649347e-03 0.0 
7.396083374338e-05 -5.277531761167e-04 0.0 
3.046037871805e-04 -4.297480717726e-04 0.0 
7.004302157978e-05 -5.198803986609e-04 0.0 
6.858836000190e-04 6.186948888897e-03 0.0 
2.678390715713e-04 -4.145013069001e-04 0.0 
5.259644594383e-04 -1.300697145559e-04 0.0 
2.049347066453e-04 -4.348378809597e-04 0.0 
3.017265334769e-04 3.547822596826e-03 0.0 
2.965662534057e-04 -4.609744516596e-04 0.0 
5.678739360832e-04 -6.914843525813e-05 0.0 
2.859004192867e-04 -4.533458860069e-04 0.0 
5.278930358990e-04 -1.037762593511e-04 0.0 
1.889290296880e-04 -2.880320875791e-04 0.0 
3.939087957840e-04 -7.818027562900e-05 0.0 
1.080083996258e-03 1.346851794402e-04 0.0 
8.726565696255e-05 -5.196970041633e-04 0.0 
5.218136838631e-04 7.103885686996e-03 0.0 
1.285422932101e-03 1.122336004668e-04 0.0 
2.870663293895e-03 3.837123560836e-03 0.0 
4.962793204879e-04 6.091856879644e-03 0.0 
3.733819686632e-04 -4.139395278949e-04 0.0 
9.078090016280e-04 5.774324322964e-03 0.0 
8.502171284681e-05 -5.285392121626e-04 0.0 
4.008501832644e-04 -7.640778053713e-06 0.0 
1.348493356261e-03 1.849404729131e-04 0.0 
1.815750382326e-03 6.395469559546e-04 0.0 
3.554494762874e-04 2.215563743556e-03 0.0 
8.386425034378e-04 -1.605421791496e-04 0.0 
1.458994198017e-04 -5.242375735201e-04 0.0 
7.202200269177e-04 -1.146334316166e-04 0.0 
4.136511360027e-04 1.995233297446e-05 0.0 
5.949885546658e-04 -3.438580588882e-04 0.0 
3.561880749894e-04 -8.419779054742e-05 0.0 
5.147942535091e-04 4.635215202515e-03 0.0 
4.749737108135e-04 -2.759311194765e-04 0.0 
6.219390327565e-04 -1.108175932068e-04 0.0 
9.308756599147e-04 7.276985568199e-03 0.0 
1.287590615469e-04 -4.850345782142e-04 0.0 
3.359071067043e-04 -4.422694478839e-04 0.0 
2.930489850185e-03 2.876481799911e-03 0.0 
4.809046262168e-04 -8.711484858182e-05 0.0 
2.798254868163e-03 5.154879952577e-03 0.0 
2.815046773569e-03 2.560196300897e-03 0.0 
7.677747812465e-04 5.236341922919e-03 0.0 
5.413824920204e-04 6.613036487541e-03 0.0 
9.544274600244e-04 6.780317790722e-03 0.0 
2.290812428282e-04 -2.858766936179e-04 0.0 
6.133039868533e-04 2.796548626730e-05 0.0 
8.216512504187e-04 -1.138674504611e-04 0.0 
7.173708370898e-04 7.204604802407e-03 0.0 
1.325808649077e-03 1.866873298961e-03 0.0 
1.795853395223e-03 7.079704897231e-04 0.0 
5.740680759676e-04 -9.438192459683e-05 0.0 
5.084000588666e-04 4.153100429939e-03 0.0 
4.998076206663e-04 -3.844864417758e-04 0.0 
4.139482793449e-04 -4.158908497182e-04 0.0 
1.765516260868e-04 -5.180069802261e-04 0.0 
7.784532428216e-04 -7.040957266544e-05 0.0 
3.780314892661e-04 -4.046360308569e-04 0.0 
7.643931193051e-04 5.725562652929e-03 0.0 
8.975333935426e-04 6.267980848650e-03 0.0 
1.833565507840e-03 5.032920780759e-04 0.0 
3.936856801747e-04 -4.435311295902e-04 0.0 
1.239459329649e-03 6.583267292864e-04 0.0 
3.705113644965e-04 -4.371999805800e-04 0.0 
4.529194849069e-04 -4.085109657537e-04 0.0 
1.952278929738e-04 -5.116014067082e-04 0.0 
7.440415204090e-04 4.197410483229e-05 0.0 
7.467683491114e-04 -2.866080171521e-04 0.0 
4.429354831970e-04 3.642742190040e-03 0.0 
8.566362426428e-04 -2.328076931319e-04 0.0 
7.753300770862e-04 -9.973951448239e-05 0.0 
8.080620870276e-04 -1.934844801818e-04 0.0 
2.538472735608e-03 1.765712885022e-03 0.0 
1.763882202405e-04 -5.147443076672e-04 0.0 
5.270529126965e-04 2.918772052605e-05 0.0 
4.586125458072e-04 3.777452977961e-05 0.0 
2.739499618167e-03 2.593184475700e-03 0.0 
5.433162604091e-04 -3.743159132142e-04 0.0 
8.041434831631e-04 -1.456238759677e-04 0.0 
6.963022961294e-04 5.697656344868e-03 0.0 
4.582075427749e-04 -3.753695970495e-04 0.0 
2.562113599438e-03 2.955336427121e-03 0.0 
2.660781437695e-04 -4.642377759777e-04 0.0 
4.741184659107e-04 -3.647932189889e-04 0.0 
5.929660213342e-04 -3.474947819598e-04 0.0 
2.312932936045e-04 -4.805129476982e-04 0.0 
1.514939431037e-04 -4.974656547341e-04 0.0 
7.502379343044e-04 -2.098816474497e-04 0.0 
6.725368898281e-04 -9.901548104009e-05 0.0 
1.984594178145e-03 1.685216448218e-03 0.0 
-1.295209037924e-05 -5.192780598775e-04 0.0 
1.112559337022e-03 -1.028210469031e-04 0.0 
9.195444770988e-04 -2.141290967789e-04 0.0 
6.416245593688e-04 -3.338127032459e-04 0.0 
8.242635354724e-04 6.243489879837e-03 0.0 
7.882648243955e-04 -2.411823427585e-04 0.0 
2.700279908676e-04 -4.490437681889e-04 0.0 
6.930740528696e-04 -3.042138252738e-04 0.0 
3.528506890808e-04 4.058418133328e-03 0.0 
2.384262188031e-04 -4.512524092394e-04 0.0 
9.270791032796e-05 -5.351591726895e-04 0.0 
1.423403528700e-04 -5.268818288776e-04 0.0 
5.187942035218e-04 -3.697201427963e-04 0.0 
4.818425999145e-04 -4.119029478595e-04 0.0 
1.044740801889e-03 -1.446965131251e-04 0.0 
7.983792369938e-04 -2.545738657912e-04 0.0 
2.547464129726e-04 -4.240786553568e-04 0.0 
1.305278193181e-04 -5.299695212125e-04 0.0 
1.286106241031e-03 6.852498149749e-03 0.0 
2.046211729987e-04 -4.824508590670e-04 0.0 
7.833330797311e-04 2.295442244893e-05 0.0 
2.176755281791e-03 1.742316813114e-03 0.0 
2.277983882577e-03 5.836829472672e-03 0.0 
7.543429040718e-04 3.324357833535e-03 0.0 
1.747093544248e-03 1.564602631807e-03 0.0 
1.938868252862e-03 6.872796950530e-04 0.0 
2.494735968091e-03 2.167642027151e-03 0.0 
3.441660932404e-04 -3.770361349763e-04 0.0 
6.361249611301e-04 -3.024659058127e-04 0.0 
2.219033924221e-03 1.402268914511e-03 0.0 
5.589861981463e-04 -1.057193689799e-04 0.0 
2.097947928208e-04 -3.799862443668e-04 0.0 
4.173807174378e-04 -3.993592720933e-04 0.0 
8.597725357951e-04 -2.419902855771e-04 0.0 
9.795434844375e-04 -1.783290557145e-04 0.0 
2.078042510992e-04 -4.683843283969e-04 0.0 
8.908857227335e-04 -1.873071481952e-04 0.0 
1.045600924296e-03 -1.451007668435e-04 0.0 
1.255047050747e-03 -1.265403022791e-05 0.0 
4.431252200612e-04 -4.223708986687e-04 0.0 
1.569751654611e-03 3.435376536175e-04 0.0 
8.379208054991e-04 5.260612624142e-03 0.0 
1.328709615681e-03 6.163210353241e-05 0.0 
6.525984407257e-04 4.172009555747e-05 0.0 
4.483515231322e-04 -3.188286380337e-04 0.0 
5.801791814097e-04 8.548811783504e-05 0.0 
9.702593893763e-04 -1.719205143459e-04 0.0 
1.444771525368e-03 1.356745378822e-03 0.0 
2.832264865014e-03 4.188637542697e-03 0.0 
3.976470742376e-04 -3.871414599510e-04 0.0 
2.379108635220e-03 5.223336967070e-03 0.0 
9.649802995214e-04 2.908722760727e-03 0.0 
1.085973593527e-03 -1.039087781542e-04 0.0 
1.926256812655e-03 2.032084285680e-03 0.0 
2.447021827359e-03 4.612298125166e-03 0.0 
2.968486730302e-03 3.514534264980e-03 0.0 
2.689263090257e-04 -3.956674920005e-04 0.0 
3.766314354189e-04 1.400398030629e-03 0.0 
1.912361677925e-04 -4.387479839596e-04 0.0 
1.050035272113e-03 3.212672812327e-04 0.0 
3.119583358475e-04 2.640660575713e-03 0.0 
1.391864896749e-03 2.551337844265e-04 0.0 
7.382192399497e-04 6.712667550143e-03 0.0 
7.920238337402e-04 3.803204366705e-03 0.0 
1.182043857511e-03 -6.254877958796e-05 0.0 
1.863895771748e-03 4.965116097999e-04 0.0 
5.866485528608e-04 2.363883980503e-03 0.0 
6.136126131495e-04 -5.832112840837e-05 0.0 
9.042848717640e-04 4.792077887905e-03 0.0 
1.208768151862e-03 1.034330883764e-04 0.0 
3.643922939490e-04 -3.419983239999e-04 0.0 
9.609161863611e-04 4.321405470399e-03 0.0 
9.145046563901e-04 5.838495477281e-04 0.0 
4.851371707565e-04 4.806790913193e-05 0.0 
6.882524692623e-04 -2.891124335580e-04 0.0 
8.085083522273e-04 6.741302233022e-03 0.0 
8.582264101878e-04 7.262460979312e-03 0.0 
9.071240888852e-04 -1.985379629652e-04 0.0 
7.212109129304e-04 -5.804051433988e-05 0.0 
7.592153024583e-04 -1.688584968325e-05 0.0 
1.211330363641e-04 -5.296803507411e-04 0.0 
9.484925704918e-04 6.811891364474e-04 0.0 
1.490355909640e-03 1.791896011235e-04 0.0 
1.253585663303e-03 -2.610749397954e-07 0.0 
2.738857494442e-03 2.512255320114e-03 0.0 
4.674582753380e-04 1.883773024975e-03 0.0 
1.375859108947e-03 2.395123250485e-03 0.0 
3.525351413235e-04 2.672293708476e-03 0.0 
2.919106457408e-03 5.663605365983e-03 0.0 
1.160123979651e-03 3.862322183572e-03 0.0 
6.704046101054e-04 -7.175250558036e-05 0.0 
4.417364690397e-04 2.293460398072e-03 0.0 
1.137133398278e-03 4.830445288329e-03 0.0 
7.318323529059e-04 -2.581151024035e-04 0.0 
1.570590369391e-03 2.974841987291e-04 0.0 
8.875401696733e-04 4.305326665962e-03 0.0 
6.457713374135e-04 2.828153408840e-03 0.0 
6.857738585999e-04 4.239077534968e-03 0.0 
8.323281838611e-04 4.772054984167e-03 0.0 
5.383411274468e-04 4.085631601546e-06 0.0 
1.268685253290e-03 4.315596756004e-04 0.0 
6.560608140049e-04 1.131916518291e-05 0.0 
7.091471961718e-04 -1.444913439230e-04 0.0 
2.512333167259e-03 8.371299751253e-03 0.0 
1.411937584095e-03 3.199059495038e-04 0.0 
1.578432362724e-03 4.781107203323e-03 0.0 
1.746824357933e-04 -4.965100217341e-04 0.0 
1.408855172701e-03 1.074111493352e-04 0.0 
1.430711174088e-03 1.144754837137e-04 0.0 
1.835998653813e-03 4.821730754816e-04 0.0 
6.454387086306e-04 1.423598014859e-04 0.0 
1.486956081726e-03 2.096306490069e-04 0.0 
1.749259137936e-03 4.579421525075e-04 0.0 
2.868338814858e-03 6.621616938817e-03 0.0 
7.160268396800e-04 -2.415152822421e-04 0.0 
1.229224771271e-03 5.827925451277e-03 0.0 
7.756649422213e-04 8.860097154747e-03 0.0 
-8.306796808143e-04 2.173352975220e-03 0.0 
7.467494790847e-04 -1.613538522954e-04 0.0 
1.281416164656e-03 2.277597507740e-04 0.0 
1.110681289498e-03 2.028428742350e-03 0.0 
1.809894865026e-03 4.503969465739e-04 0.0 
7.234243466362e-04 -1.926693227452e-04 0.0 
9.840099281302e-04 5.794170262594e-03 0.0 
-7.237232344002e-04 3.123307254761e-03 0.0 
1.461946060727e-03 3.058836467166e-04 0.0 
1.723604508664e-03 3.602769442635e-04 0.0 
2.863805428069e-03 6.381987179452e-03 0.0 
7.089882950635e-04 -3.237740272784e-05 0.0 
5.311505612234e-04 -1.705766528637e-04 0.0 
7.346468271993e-04 6.054092089707e-06 0.0 
6.275943444876e-04 6.693654722823e-05 0.0 
1.645847851543e-03 4.075000244595e-04 0.0 
7.504489115761e-04 4.264011209232e-03 0.0 
2.104607607800e-03 1.282207113346e-03 0.0 
5.928719915182e-04 5.323570916853e-05 0.0 
-3.876374061939e-04 4.640839054081e-03 0.0 
1.064792971627e-03 5.314496420276e-03 0.0 
1.389551626054e-03 5.820736221294e-04 0.0 
7.268892635459e-04 3.781911813713e-03 0.0 
1.757913575227e-03 4.313259966527e-04 0.0 
1.660972915228e-03 3.493847156504e-04 0.0 
4.218191674752e-04 -2.460666217522e-04 0.0 
1.830006358749e-05 3.998495795439e-04 0.0 
5.769807876151e-04 3.254909963738e-03 0.0 
1.536219789376e-04 -4.844531601354e-04 0.0 
2.495400739668e-04 7.340981116951e-03 0.0 
2.305653301465e-03 1.616955909961e-03 0.0 
3.159240507678e-04 2.185952485839e-03 0.0 
4.072721201365e-04 -2.541634631322e-04 0.0 
2.986166972862e-03 3.148795603150e-03 0.0 
1.056375440175e-03 4.822171645108e-03 0.0 
5.895602747260e-04 -2.457858043335e-04 0.0 
6.153269485909e-04 5.070924713889e-05 0.0 
1.700896305873e-03 1.913250156884e-03 0.0 
2.224389422529e-04 -3.438628294009e-04 0.0 
4.298552019242e-04 -2.002828993780e-04 0.0 
3.180542976726e-04 -2.795689237477e-04 0.0 
1.812519099441e-03 4.449550114705e-04 0.0 
2.030797343175e-04 4.713890545544e-04 0.0 
1.136170423085e-03 9.469910822277e-03 0.0 
4.310652123125e-04 8.320127404544e-08 0.0 
1.692508589548e-03 6.362562488867e-04 0.0 
1.317130673741e-03 5.324800080659e-03 0.0 
2.882512105535e-04 3.503495922786e-04 0.0 
5.455311252945e-04 7.135665604224e-05 0.0 
3.017966591665e-04 -3.245062660581e-04 0.0 
1.778706680047e-04 -4.526756119324e-04 0.0 
1.675540976316e-03 4.887984001585e-04 0.0 
1.102932868860e-03 -1.066102827281e-04 0.0 
1.500127195274e-03 5.746481012776e-04 0.0 
2.288833317674e-03 3.111155347596e-03 0.0 
1.457151594092e-03 4.316801354124e-03 0.0 
1.074807958060e-03 3.516348696118e-04 0.0 
9.860784199042e-04 5.300481467509e-03 0.0 
1.173823308726e-03 2.011461735335e-03 0.0 
1.004600827402e-03 3.850594913166e-03 0.0 
1.031427345939e-03 3.380727059487e-03 0.0 
4.915282204575e-04 9.972933418484e-04 0.0 
4.328500275649e-04 -2.358500414047e-05 0.0 
1.115733532207e-03 4.342034189621e-03 0.0 
2.221175761204e-03 1.039091030976e-03 0.0 
1.688759321307e-03 1.018845765360e-02 0.0 
9.016789555977e-04 3.048635842575e-04 0.0 
7.394737109601e-04 4.838412597213e-04 0.0 
1.799935497277e-04 -4.694309964653e-04 0.0 
1.629442712634e-03 6.086273899623e-04 0.0 
1.543010405096e-05 -5.262686785094e-04 0.0 
2.701620144954e-03 2.056540905503e-03 0.0 
1.477944377875e-03 3.723774857644e-04 0.0 
8.212278888968e-04 2.451746886889e-03 0.0 
7.826740509040e-04 1.998223065610e-03 0.0 
1.604049051439e-03 4.223175538192e-04 0.0 
8.194844933032e-04 3.343314499558e-03 0.0 
1.915242986244e-03 8.500011215595e-04 0.0 
2.346125801684e-03 2.023434685267e-03 0.0 
1.936609400732e-03 1.024631839016e-02 0.0 
1.489698411394e-03 1.867886850226e-03 0.0 
1.985621207351e-03 9.918522718632e-03 0.0 
1.958943517440e-03 9.653560022170e-03 0.0 
1.928099313875e-03 6.173754728907e-04 0.0 
1.903204425566e-03 9.342507397912e-03 0.0 
2.527767567901e-03 1.494647933497e-03 0.0 
2.339047577125e-03 1.475850668747e-03 0.0 
1.565377684770e-03 2.268263812555e-04 0.0 
4.913879147357e-04 1.474818281379e-05 0.0 
1.751218948983e-03 4.502713902962e-04 0.0 
5.902833500267e-04 2.806183235840e-03 0.0 
1.267009918530e-03 1.905847457788e-03 0.0 
5.127043297046e-04 -5.527975986521e-05 0.0 
1.308778087313e-03 4.782400815534e-04 0.0 
1.173277511756e-03 -6.674226913135e-05 0.0 
9.577781317861e-04 3.372258501177e-03 0.0 
1.652360402693e-03 3.091679460602e-04 0.0 
3.424539053081e-04 -2.098841545197e-05 0.0 
9.305414396594e-04 3.838239837165e-03 0.0 
1.241925485706e-03 3.859501614316e-03 0.0 
1.589286061840e-03 3.191098235296e-04 0.0 
1.839509247618e-03 6.282868821259e-04 0.0 
1.993764171857e-03 1.587267844881e-03 0.0 
2.778220893745e-03 4.397546057672e-03 0.0 
4.710242401622e-04 -6.597842595081e-05 0.0 
7.068226695997e-04 3.580452000709e-04 0.0 
2.383546994703e-03 2.843730469595e-03 0.0 
3.016391104004e-03 3.437749097140e-03 0.0 
2.612687216427e-04 -1.737760034584e-05 0.0 
1.197607470303e-03 4.345292901717e-03 0.0 
1.746393749774e-03 5.053619721839e-04 0.0 
2.841032500013e-03 2.915570689860e-03 0.0 
1.283388372730e-03 2.817990174724e-04 0.0 
6.337203464906e-04 3.281095107542e-03 0.0 
1.775792103298e-03 1.497408823733e-03 0.0 
1.404807202488e-03 5.816782861374e-03 0.0 
9.336571300848e-04 1.254610993332e-04 0.0 
1.718935793635e-03 3.571594892041e-04 0.0 
1.222948117270e-03 2.404026810327e-04 0.0 
2.786374447278e-03 2.313386582599e-03 0.0 
6.424469815397e-04 2.395748378208e-03 0.0 
1.479548114733e-03 1.307096755059e-03 0.0 
1.663207183872e-03 3.226250501386e-04 0.0 
5.588488293634e-04 3.131270079071e-04 0.0 
1.919004353149e-03 1.093144790871e-03 0.0 
2.682121025605e-03 1.875379746366e-03 0.0 
1.819342944912e-03 7.008090549008e-04 0.0 
1.674036696063e-03 3.564560385168e-04 0.0 
8.842729489512e-04 6.237150961559e-05 0.0 
5.363034616516e-04 2.028669953372e-04 0.0 
1.684022109579e-03 3.185960852230e-04 0.0 
2.360177845271e-03 4.741530676421e-03 0.0 
2.369831497921e-04 -2.178643817778e-05 0.0 
2.402041728096e-03 4.148114485451e-03 0.0 
2.134028950183e-03 1.393398944005e-03 0.0 
2.283405923049e-03 5.340851286424e-03 0.0 
2.048489333628e-03 6.530274859043e-03 0.0 
2.774207142130e-03 3.763242021830e-03 0.0 
1.405220800352e-03 4.626779699785e-04 0.0 
4.937915815681e-04 -3.411522403474e-05 0.0 
1.306155432612e-03 4.831028552355e-03 0.0 
7.241579242066e-04 1.993360774093e-03 0.0 
2.176973701500e-03 5.939005673529e-03 0.0 
1.412606507419e-03 5.093122739647e-04 0.0 
1.747610793634e-03 9.971529895444e-04 0.0 
4.862495798903e-04 2.310963997535e-03 0.0 
2.515778978712e-03 1.596822404907e-03 0.0 
2.658490051343e-03 1.854163266725e-03 0.0 
1.604988664685e-03 5.063385740537e-04 0.0 
1.368137807519e-03 4.334191894866e-03 0.0 
2.876522305954e-03 4.688248896396e-03 0.0 
2.441905820927e-03 1.337017646933e-03 0.0 
2.822679538345e-03 4.219823339915e-03 0.0 
1.671929758221e-03 5.577665887666e-04 0.0 
1.313757865980e-03 7.103601892681e-04 0.0 
1.553150175577e-03 3.409753713169e-04 0.0 
2.947242695248e-05 2.783455178075e-04 0.0 
9.015666912769e-04 1.996971141908e-03 0.0 
2.987812919521e-03 5.157182145019e-03 0.0 
1.302885519485e-03 1.974223645376e-05 0.0 
1.528451513568e-03 8.195710404967e-04 0.0 
1.394884263773e-03 4.822748114760e-03 0.0 
5.974266582016e-04 -3.492519375827e-05 0.0 
2.115130427958e-03 1.198715221368e-03 0.0 
-8.813028856468e-05 2.464645809983e-04 0.0 
1.675685933493e-04 -1.583693316682e-05 0.0 
2.927771777702e-03 2.831562457282e-03 0.0 
2.024622282102e-03 8.269488204448e-04 0.0 
1.783393698177e-03 1.322434261841e-03 0.0 
-3.157956518181e-04 3.021077188736e-04 0.0 
6.419960372906e-04 -2.269345931821e-05 0.0 
1.314725792761e-03 1.303540268795e-03 0.0 
1.497593739417e-03 5.800307008064e-03 0.0 
5.868099081991e-04 -1.966320542503e-04 0.0 
1.638707522206e-03 4.479664701259e-04 0.0 
3.135030286205e-04 -2.688470317230e-05 0.0 
2.607217337901e-03 1.680767697039e-03 0.0 
1.475300347831e-03 4.466452107848e-04 0.0 
2.889031508628e-03 2.774827328329e-03 0.0 
-7.117859342528e-05 1.338312856595e-04 0.0 
2.482678361364e-03 2.011932828137e-03 0.0 
1.607635840046e-03 4.906086134337e-04 0.0 
1.201110614817e-03 1.124711285984e-03 0.0 
2.170837368203e-03 1.625643606590e-03 0.0 
9.670283431236e-04 3.392918231758e-04 0.0 
4.719100599066e-04 -6.385183843462e-05 0.0 
4.225472897544e-04 1.852823215008e-03 0.0 
7.232991969089e-04 2.668560419620e-04 0.0 
1.574629151735e-03 5.433376646161e-04 0.0 
2.033150280926e-03 9.166733061671e-04 0.0 
2.721393720081e-03 2.395518340864e-03 0.0 
1.904705367266e-04 -2.918110977237e-05 0.0 
1.284627483089e-04 -2.688463777634e-04 0.0 
2.328150281368e-03 1.751052279728e-03 0.0 
1.229982577504e-03 5.327475528729e-03 0.0 
3.991892749307e-04 -3.103161634436e-05 0.0 
6.136370314910e-04 -1.936833180420e-06 0.0 
3.119683684125e-04 9.337652457402e-03 0.0 
2.080364942117e-04 9.336095284915e-03 0.0 
2.234100218394e-03 4.376062696968e-03 0.0 
2.599527383527e-03 2.116423036914e-03 0.0 
5.055247422479e-04 -1.849593483602e-04 0.0 
2.654826659220e-03 3.540929827609e-03 0.0 
2.514171731384e-03 1.474212554202e-03 0.0 
8.763966936600e-04 1.843139929860e-04 0.0 
2.133881981205e-03 1.085383066925e-03 0.0 
1.814765917065e-04 4.853426354082e-04 0.0 
2.047685888234e-03 7.491394412809e-03 0.0 
2.569990527121e-03 1.639115838103e-03 0.0 
6.384593534009e-04 -1.865719827161e-04 0.0 
9.028539998602e-04 5.370561334657e-04 0.0 
6.618260244003e-04 -2.545970185723e-04 0.0 
2.799035945240e-03 2.477339527423e-03 0.0 
2.987817291247e-03 3.627958766840e-03 0.0 
1.498646041831e-03 5.300043789754e-03 0.0 
2.560404943957e-03 3.144541437463e-03 0.0 
2.407691867402e-03 2.912270042551e-03 0.0 
3.603659429530e-05 -5.426078379817e-04 0.0 
6.255040294940e-04 -2.845503109884e-04 0.0 
2.969363855602e-03 4.707069748711e-03 0.0 
2.603936475025e-03 4.312422872211e-03 0.0 
2.477849071650e-03 4.013732713031e-03 0.0 
1.194503636901e-03 3.512374941559e-04 0.0 
8.547201393998e-06 -5.171433964794e-04 0.0 
3.885804863390e-04 6.953866048887e-05 0.0 
2.885288230310e-03 2.592839120021e-03 0.0 
5.749928054406e-04 -2.946892323530e-04 0.0 
2.043620786587e-03 9.522794698274e-03 0.0 
1.991571770738e-03 9.242128453716e-03 0.0 
1.593180354209e-03 5.275793419059e-03 0.0 
3.144433336656e-04 1.122877077620e-03 0.0 
5.652980571358e-04 -2.255518148330e-04 0.0 
1.217930020071e-03 1.879820307846e-04 0.0 
4.033842732152e-04 1.660069186653e-04 0.0 
7.473370823043e-04 4.449865733589e-04 0.0 
8.309456060646e-04 2.895563398186e-03 0.0 
4.442735459856e-04 -2.676998728818e-04 0.0 
4.193365591361e-04 -5.013391480804e-05 0.0 
5.261528412098e-05 -5.472964636498e-04 0.0 
1.189536280436e-03 1.299569054377e-04 0.0 
2.881686612432e-03 2.577015627821e-03 0.0 
4.144966177333e-05 -5.476524747114e-04 0.0 
7.667113553238e-04 2.878974472569e-03 0.0 
2.834881988767e-04 2.355591884661e-04 0.0 
2.670585741618e-03 4.142221980185e-03 0.0 
2.981886565531e-03 3.361080978875e-03 0.0 
1.321531337606e-03 2.986050911621e-05 0.0 
1.072609710139e-03 -2.316225016982e-05 0.0 
7.608424095930e-04 2.447056082658e-03 0.0 
1.013684089241e-03 1.229478135103e-05 0.0 
2.757115596721e-03 2.096899424643e-03 0.0 
2.818238924783e-03 2.332528622098e-03 0.0 
-8.650174290966e-04 1.823017311335e-03 0.0 
1.570179628641e-04 2.015862344056e-04 0.0 
1.972281015573e-03 1.287133207351e-03 0.0 
1.975287084503e-03 6.092728705799e-03 0.0 
1.771466113675e-03 1.079949575365e-03 0.0 
1.386819079475e-03 1.535468584339e-03 0.0 
1.679191306969e-03 3.239863376295e-03 0.0 
1.782139893599e-03 1.237121123653e-03 0.0 
2.100676658730e-03 8.717050878361e-03 0.0 
1.986592453690e-03 1.385281500169e-03 0.0 
3.831973829173e-04 -5.693639006426e-05 0.0 
2.653306691385e-03 2.013008877279e-03 0.0 
6.413283249210e-04 -2.357614007325e-04 0.0 
6.687155525325e-04 -2.054673396978e-04 0.0 
9.662729212962e-04 1.998466232293e-03 0.0 
1.096021140967e-03 -6.271893663101e-05 0.0 
2.912922165314e-03 3.015392355931e-03 0.0 
2.240299926238e-03 9.815611059849e-04 0.0 
9.189562416165e-04 4.102479899425e-05 0.0 
2.418494148071e-03 1.394039072472e-03 0.0 
1.059979620551e-03 2.799522055375e-04 0.0 
1.552544846259e-03 2.162071361169e-04 0.0 
1.265646928041e-03 4.496033720133e-04 0.0 
2.605249229977e-03 3.711001270989e-03 0.0 
1.200254188640e-03 3.327011583206e-04 0.0 
2.809827782137e-03 3.560960604530e-03 0.0 
1.355811869910e-03 4.127233769131e-04 0.0 
1.460926303116e-03 4.262250962179e-04 0.0 
2.337599350356e-03 1.337118804332e-03 0.0 
1.689113467757e-03 5.740843027415e-03 0.0 
3.340992220244e-04 -4.373037932092e-05 0.0 
3.024056964692e-04 -4.903979270548e-05 0.0 
-4.416892125247e-05 1.200098520789e-03 0.0 
2.723748674862e-03 3.176770706013e-03 0.0 
1.866237308258e-04 -1.251354564774e-05 0.0 
2.357832078351e-03 7.476884670666e-03 0.0 
4.418147743372e-04 -2.191042686342e-04 0.0 
-7.761402613495e-04 1.927600973268e-03 0.0 
2.575239312147e-04 -3.660295438881e-05 0.0 
1.017373994696e-03 4.606298305130e-04 0.0 
1.068180284338e-04 -2.484370509571e-04 0.0 
2.097128902382e-03 9.321461509947e-04 0.0 
1.787503836742e-03 5.699934629271e-03 0.0 
1.874138427596e-03 6.151486917959e-03 0.0 
2.805015303697e-03 2.309081403685e-03 0.0 
2.059927165573e-03 9.897366360852e-03 0.0 
2.069246055279e-03 9.745198828850e-03 0.0 
2.300664556258e-04 -4.067423846431e-05 0.0 
1.080062196636e-03 9.083719066870e-06 0.0 
1.350881895378e-03 6.029378338907e-05 0.0 
1.255771967508e-03 1.675253667038e-04 0.0 
1.545060408420e-03 1.991113571294e-04 0.0 
1.175718011525e-03 5.181924265675e-04 0.0 
1.982150917492e-03 1.011843363555e-02 0.0 
2.000426115866e-03 7.062048450738e-03 0.0 
2.619392028434e-04 9.626087831859e-03 0.0 
1.402726765823e-03 3.744748148879e-04 0.0 
2.236337250700e-03 1.150204895653e-03 0.0 
9.333131442054e-04 3.354700863544e-04 0.0 
9.654934699914e-05 -5.520507109584e-05 0.0 
1.597129442287e-03 2.428895179531e-04 0.0 
1.560890205629e-04 -3.246771207020e-06 0.0 
1.203500625795e-03 1.834288097856e-04 0.0 
1.180111071615e-03 4.703318971324e-04 0.0 
2.747493593513e-03 2.089275698430e-03 0.0 
2.482262427481e-03 1.618265423997e-03 0.0 
8.665216657659e-04 1.346239744915e-04 0.0 
6.358460634470e-04 -3.466121910625e-04 0.0 
2.843582494098e-03 3.134855199458e-03 0.0 
1.461398967772e-03 1.320959378693e-04 0.0 
2.921402885116e-03 3.501554653493e-03 0.0 
1.609363937810e-03 1.640019490448e-03 0.0 
2.292115976399e-03 1.290467319425e-03 0.0 
1.400215507182e-03 8.803251020711e-05 0.0 
5.541168861403e-04 -1.768293155201e-04 0.0 
2.904992924385e-03 3.738108996436e-03 0.0 
-6.653426915272e-04 1.307976567297e-03 0.0 
2.190810643718e-03 9.104074012564e-04 0.0 
-4.829301462668e-04 1.897519337747e-03 0.0 
1.025315678319e-04 -5.367955088555e-04 0.0 
4.888023559108e-04 -2.127345719631e-04 0.0 
2.163277878374e-03 1.975266688179e-03 0.0 
1.986825416423e-03 5.599861922302e-03 0.0 
1.911450935141e-03 9.904057164844e-03 0.0 
9.395010740050e-05 2.349168718952e-04 0.0 
-9.065190154789e-04 1.533807784231e-03 0.0 
2.012105269546e-03 9.952314269504e-03 0.0 
1.311684656573e-03 5.102807444826e-05 0.0 
3.766114375475e-04 -2.508697555814e-04 0.0 
2.568348235073e-03 8.076203164532e-03 0.0 
1.058337593935e-03 -6.830473621203e-05 0.0 
1.122683503912e-03 -2.726937500243e-05 0.0 
2.761104905579e-03 2.266140432240e-03 0.0 
2.072999962751e-03 8.254310057620e-04 0.0 
1.778303747458e-03 2.158567026162e-03 0.0 
1.365385759199e-04 1.066002127327e-03 0.0 
4.913494456769e-04 -2.615272475063e-04 0.0 
3.522121104344e-04 -2.288920377584e-04 0.0 
3.756395249819e-04 -4.545542163306e-04 0.0 
2.014691969472e-03 8.391043516284e-03 0.0 
2.086688448492e-03 5.530385673071e-03 0.0 
3.479201951445e-05 -1.094929388668e-04 0.0 
4.184914855512e-05 -5.493464138734e-04 0.0 
-4.517322834604e-04 3.875490193790e-04 0.0 
2.265429046721e-04 -4.968091935655e-04 0.0 
3.089889941974e-04 -2.327438249991e-04 0.0 
1.365397997013e-03 1.945054421090e-04 0.0 
1.018994077800e-03 -4.823213594303e-05 0.0 
1.006412061353e-03 1.787352580201e-04 0.0 
4.130757411458e-04 -1.979182093386e-04 0.0 
2.144294643260e-03 4.464858275843e-03 0.0 
2.835236422731e-04 -2.107619317822e-04 0.0 
1.442320809017e-03 2.871652561214e-04 0.0 
2.741093426092e-03 2.987219643883e-03 0.0 
1.226096798184e-03 7.875121497872e-03 0.0 
1.853228146632e-03 7.898927651913e-04 0.0 
2.421407176120e-04 -2.139762233931e-04 0.0 
3.686808071707e-04 -2.029028446336e-04 0.0 
1.512047749483e-03 9.343435975520e-03 0.0 
1.315847346802e-03 8.424191389603e-05 0.0 
2.155529593514e-04 -1.922418478143e-04 0.0 
4.724093056528e-05 5.839947779719e-03 0.0 
5.198061972373e-05 6.810824506348e-03 0.0 
1.751106240482e-03 9.723065116241e-03 0.0 
3.393793124735e-04 -1.816509602966e-04 0.0 
8.516926974068e-04 -2.088787727670e-04 0.0 
-1.308540604899e-04 2.116590183800e-03 0.0 
1.146534980690e-03 4.289217776616e-04 0.0 
2.257137788332e-04 -4.674809450785e-04 0.0 
8.820574164362e-04 -2.150623670669e-04 0.0 
2.269333173440e-03 1.016882345245e-03 0.0 
1.843860136972e-03 1.026846512685e-02 0.0 
1.754954897353e-04 -1.949782394011e-04 0.0 
2.250589698808e-05 -4.818244706897e-04 0.0 
1.990922212437e-03 7.987520473313e-03 0.0 
2.974452638129e-04 -1.856582602046e-04 0.0 
1.227634886871e-03 -2.696579243376e-05 0.0 
5.158826487399e-04 -2.335242997056e-04 0.0 
-5.438567054984e-04 1.025583430823e-03 0.0 
5.956723936220e-05 2.993844736898e-03 0.0 
1.104172463554e-03 -9.546605012410e-05 0.0 
1.056321040587e-03 2.458147611638e-04 0.0 
2.427995804188e-03 1.466686584658e-03 0.0 
2.683717614833e-04 -1.646661750389e-04 0.0 
2.278623816829e-04 -1.680354710378e-04 0.0 
1.254664393605e-03 1.450041462860e-04 0.0 
8.209274544721e-05 -4.370617707462e-04 0.0 
-5.497375295705e-04 1.190732373270e-03 0.0 
1.988914583354e-04 -1.473966541420e-04 0.0 
9.158565138501e-04 1.595454316554e-04 0.0 
7.013949504293e-04 -3.155435271468e-04 0.0 
2.628734702180e-03 2.644549029350e-03 0.0 
2.140722051693e-03 6.802740068558e-03 0.0 
2.593706319594e-03 2.982663733167e-03 0.0 
3.076753199982e-04 4.074718882261e-05 0.0 
-7.351620372661e-04 4.903187276883e-04 0.0 
8.782104405310e-06 2.606706489422e-04 0.0 
7.219559657522e-06 -3.428706882257e-07 0.0 
3.233327398670e-05 8.351698408024e-03 0.0 
9.151097669500e-04 -2.176072577959e-04 0.0 
2.605207859639e-03 1.831810794217e-03 0.0 
1.398189838792e-03 3.344629916615e-04 0.0 
8.591897534757e-05 -5.391866384690e-04 0.0 
-8.243830416688e-04 1.617569681353e-03 0.0 
2.494648724236e-04 2.151513557132e-03 0.0 
2.174669557967e-03 4.947840574648e-03 0.0 
1.923622701671e-03 8.904508544525e-03 0.0 
3.663673877069e-04 1.927424943510e-04 0.0 
1.873172251589e-05 -5.066037917517e-04 0.0 
3.402378249092e-04 1.622175072879e-04 0.0 
2.078962264487e-03 5.035198760439e-03 0.0 
7.453373538689e-04 -2.976816858351e-04 0.0 
2.655484363649e-03 1.865136643923e-03 0.0 
8.459411189446e-04 -2.517964883199e-04 0.0 
8.234452968084e-05 2.561903618031e-03 0.0 
7.231770877584e-04 -3.122705286793e-04 0.0 
2.177919052536e-03 3.907965053323e-03 0.0 
9.623812114437e-05 -3.963919975279e-05 0.0 
1.022881944301e-03 -1.346966880791e-04 0.0 
2.471788740869e-03 2.625957599153e-03 0.0 
-6.269306877086e-04 3.618920378793e-04 0.0 
1.220562889428e-03 3.861646108765e-05 0.0 
1.762296391115e-03 3.704420446747e-03 0.0 
5.790167695062e-04 -3.738508429451e-04 0.0 
5.857029151325e-04 -3.689927380827e-04 0.0 
2.590202679153e-03 1.678148320810e-03 0.0 
2.565899808830e-04 -1.979717367233e-04 0.0 
7.123340814940e-04 7.691829994952e-03 0.0 
1.153526540118e-03 8.759195562341e-03 0.0 
5.040937227275e-04 -4.076182926857e-04 0.0 
1.236902376716e-03 7.951253054307e-06 0.0 
2.383390892955e-03 1.258163762127e-03 0.0 
2.489472372225e-03 2.477393957466e-03 0.0 
1.145382858993e-03 1.478926898398e-03 0.0 
1.453088421303e-03 9.947642990186e-03 0.0 
8.787153795103e-05 4.833442263255e-03 0.0 
1.265548986988e-03 1.036713375452e-03 0.0 
1.270103258978e-03 2.802278411486e-04 0.0 
-5.319328701577e-04 2.154698458964e-03 0.0 
2.374577926646e-03 6.831935006039e-03 0.0 
1.129532332459e-03 -6.656603901612e-05 0.0 
2.363247234883e-03 3.044876177814e-03 0.0 
1.200848982907e-03 -2.949106689241e-05 0.0 
-1.683056308854e-04 9.871645739999e-04 0.0 
1.208556841767e-03 4.067672335889e-05 0.0 
3.739249577182e-04 3.123172862114e-03 0.0 
2.287334605744e-03 1.090129629311e-03 0.0 
1.192248089212e-03 6.325842559176e-06 0.0 
2.485659551850e-03 1.493243631764e-03 0.0 
3.326323282010e-04 6.028318378123e-03 0.0 
4.653884731527e-04 -4.222749107059e-04 0.0 
-2.857843338237e-04 1.756746565063e-03 0.0 
1.146444742964e-03 3.932747503397e-05 0.0 
7.630212767143e-04 3.859850129096e-03 0.0 
-4.832838504953e-04 4.967324791575e-04 0.0 
2.220137620267e-05 1.958235914507e-03 0.0 
2.992125317762e-05 2.922487519412e-03 0.0 
-4.096730700308e-05 -4.420562560547e-04 0.0 
1.141572393400e-03 6.929876553052e-05 0.0 
3.025411559931e-04 -4.795397598002e-04 0.0 
3.255251400575e-04 -4.724987768460e-04 0.0 
2.144083612583e-03 2.087246904512e-03 0.0 
2.416812463623e-03 1.338232721430e-03 0.0 
2.341818391978e-03 2.158435956996e-03 0.0 
1.152035091602e-03 -2.653310185705e-05 0.0 
5.930791181248e-04 9.671166440609e-03 0.0 
2.164365124480e-04 2.416377596159e-05 0.0 
2.544913253095e-04 -4.937016962783e-04 0.0 
1.206951462988e-03 2.855704052224e-04 0.0 
2.424856927858e-03 1.296043810660e-03 0.0 
5.587448790144e-05 -5.285787385102e-04 0.0 
2.405631990462e-03 3.579749566121e-03 0.0 
1.392593075908e-03 1.604620075823e-04 0.0 
6.755050558467e-06 -3.715421390690e-04 0.0 
1.078703701166e-03 2.025829627525e-05 0.0 
1.849453890819e-05 -1.292821738229e-04 0.0 
2.259016580150e-03 3.809249393060e-03 0.0 
1.820242059793e-04 -4.610497539510e-04 0.0 
7.169501490787e-05 -2.549777694378e-04 0.0 
2.274144997000e-03 2.543414554117e-03 0.0 
1.734014911860e-03 7.529730865358e-04 0.0 
6.084848490246e-04 -3.642468356373e-04 0.0 
4.602006283334e-05 -4.801406593639e-04 0.0 
2.357833887850e-03 1.163330917105e-03 0.0 
2.479309155658e-05 6.347410501795e-03 0.0 
-2.918215136025e-05 -2.942068097667e-04 0.0 
9.142983296176e-04 6.489822167375e-04 0.0 
6.345878887906e-04 9.227719345983e-04 0.0 
1.128074754594e-04 7.696710127908e-03 0.0 
4.231922691153e-04 1.448859352739e-03 0.0 
6.846689731618e-04 7.831139247427e-04 0.0 
1.172195596599e-03 -4.280082752087e-05 0.0 
9.616367901685e-04 -1.791623884645e-04 0.0 
5.870812244972e-04 1.622340938411e-04 0.0 
-7.246263931674e-04 6.109636680193e-04 0.0 
1.018452112189e-05 -4.950744431099e-04 0.0 
5.326111763640e-05 -2.370528485679e-04 0.0 
5.644191144926e-04 -3.832246864016e-04 0.0 
9.055977065164e-04 -1.620852059163e-04 0.0 
-8.083993566200e-05 5.012003329756e-03 0.0 
2.859533468575e-04 6.278158808092e-03 0.0 
1.052557162853e-03 7.832998095993e-03 0.0 
1.186575015126e-03 6.533525895096e-05 0.0 
1.256875392801e-04 -4.716119803021e-04 0.0 
2.028810572572e-03 1.077874251278e-03 0.0 
7.335065959910e-05 6.958532948531e-06 0.0 
9.623529779821e-05 1.042107162772e-05 0.0 
9.759688966958e-04 -1.822114704499e-04 0.0 
1.342861383812e-03 8.387225681625e-03 0.0 
-5.134361189141e-04 3.295550262954e-04 0.0 
-5.344889877780e-04 3.328550729773e-03 0.0 
1.828244173992e-04 -1.544510069801e-04 0.0 
-3.399715476544e-04 4.053587192302e-03 0.0 
2.361286944401e-03 1.183869374082e-03 0.0 
7.501854468863e-04 -2.849353583690e-04 0.0 
9.972075796785e-04 -1.238030998309e-04 0.0 
-1.884613253167e-04 3.065792185357e-05 0.0 
6.829014080899e-05 2.644172873055e-03 0.0 
8.272208749582e-04 -2.523006795763e-04 0.0 
2.165891463388e-04 2.103260538495e-03 0.0 
1.802417715983e-04 3.510282469519e-03 0.0 
2.633434016363e-05 5.757593408405e-04 0.0 
1.622188914220e-05 -5.114628800807e-07 0.0 
5.952080215385e-05 7.805922435783e-03 0.0 
7.906878282018e-04 -2.811581686451e-04 0.0 
6.537006282461e-04 8.734872231588e-03 0.0 
8.000845349035e-04 -2.748301269193e-04 0.0 
2.772376298003e-05 2.059169976015e-06 0.0 
-7.234464754509e-04 2.301892570406e-03 0.0 
-6.511365119078e-04 2.760902686906e-03 0.0 
1.157174366586e-03 3.160390649502e-04 0.0 
1.003989701379e-03 8.724499918942e-03 0.0 
1.299056460156e-04 2.015151306184e-03 0.0 
2.304940494831e-03 2.418979815015e-03 0.0 
1.428658221390e-03 6.373656912256e-04 0.0 
1.933871543168e-03 2.539224932693e-03 0.0 
3.841550993174e-04 7.471777802694e-03 0.0 
4.806116055929e-04 -4.136149537628e-04 0.0 
5.181550634658e-04 -3.939672499241e-04 0.0 
1.097239877480e-04 5.317889116337e-03 0.0 
1.644102855457e-03 7.762067817612e-04 0.0 
1.696787631584e-03 8.971079356252e-03 0.0 
2.051286274099e-04 8.780230860485e-03 0.0 
2.461352018000e-04 7.921682310705e-03 0.0 
4.411251693456e-04 7.588496838062e-03 0.0 
4.934218121582e-05 6.791047834473e-05 0.0 
4.187254699846e-04 -4.349635664940e-04 0.0 
1.926791820649e-04 1.283644974615e-03 0.0 
4.267279324732e-04 6.550191424219e-03 0.0 
5.068676146465e-04 1.809562682387e-04 0.0 
1.242661139503e-03 1.522564444921e-03 0.0 
2.466382882196e-03 3.447219016106e-03 0.0 
6.239787150258e-04 1.998817523624e-03 0.0 
2.192443381827e-04 -3.767094050012e-04 0.0 
2.032856379064e-04 -4.160358001647e-04 0.0 
3.724261123221e-04 3.384937909728e-05 0.0 
-3.086014611668e-04 4.095695406931e-05 0.0 
5.441559121085e-05 -4.912230345854e-04 0.0 
1.743881409090e-04 8.697748008372e-05 0.0 
1.044809608974e-05 -5.402066399576e-04 0.0 
2.534327695015e-04 8.487540720809e-03 0.0 
7.524128645366e-04 1.680675623002e-04 0.0 
4.276974385217e-05 -5.136141884846e-04 0.0 
2.796551827221e-05 -5.430523690365e-04 0.0 
1.184258057173e-04 4.938251279824e-04 0.0 
8.737160510692e-04 9.382616907167e-03 0.0 
2.857612954743e-04 1.385368613037e-03 0.0 
7.651935972353e-04 2.061333124514e-04 0.0 
7.586156027292e-04 9.394491193546e-03 0.0 
-6.020595841985e-04 6.060409652065e-04 0.0 
4.577479577190e-05 1.079196596303e-03 0.0 
9.603261245305e-05 -5.378333529141e-04 0.0 
3.175161077898e-04 1.810556627086e-03 0.0 
2.167066216033e-05 1.204216570825e-06 0.0 
1.049384417205e-03 1.564944660875e-03 0.0 
2.716024711244e-04 4.128918616573e-05 0.0 
1.505051360261e-03 7.695195435468e-03 0.0 
1.323169194337e-04 -3.784138271372e-04 0.0 
1.974220291021e-03 9.780231868576e-04 0.0 
2.691623964623e-04 9.827925292348e-05 0.0 
1.049733921420e-04 4.340461781329e-03 0.0 
2.550687658719e-04 8.398179967289e-05 0.0 
-1.857457913551e-04 1.177146272824e-04 0.0 
1.312385026950e-04 4.652767415797e-06 0.0 
3.708400251146e-04 -1.020925431781e-04 0.0 
4.700224806225e-05 -5.405295350244e-04 0.0 
4.165318380291e-04 8.297411839641e-05 0.0 
5.109492328584e-04 1.177081749838e-03 0.0 
2.582882828255e-04 9.698763765166e-04 0.0 
5.704610203023e-04 8.667480500947e-03 0.0 
1.904156138415e-03 7.085771351008e-03 0.0 
9.452364789876e-05 2.242469643117e-03 0.0 
8.078103366424e-04 8.882517601806e-04 0.0 
1.008229235366e-04 -4.317521541886e-04 0.0 
-3.470516641350e-04 1.268485199358e-03 0.0 
1.791686528890e-03 8.368162768179e-04 0.0 
4.699851111371e-04 9.679202877871e-03 0.0 
6.868704647940e-04 1.616685035558e-03 0.0 
3.701794004856e-06 5.471706834506e-04 0.0 
3.701794004856e-06 2.309055874852e-04 0.0 
4.422607608008e-06 -5.582072757651e-04 0.0 
2.015392299215e-06 -5.570243783321e-04 0.0 
2.526019443286e-05 9.318855922369e-03 0.0 
6.014210514844e-05 9.656972763032e-03 0.0 
2.799178783391e-06 -4.564206625411e-07 0.0 
2.799178783391e-06 -1.765186256618e-06 0.0 
9.792899342014e-06 -5.550853349777e-04 0.0 
-5.217743305188e-04 1.547822529393e-04 0.0 
1.300568947938e-04 -9.150181890579e-06 0.0 
1.353592596459e-03 7.790076968047e-04 0.0 
9.603045076370e-05 -5.342544537347e-04 0.0 
2.195014372157e-04 6.826734556861e-06 0.0 
3.184716023070e-05 -1.978513260963e-04 0.0 
3.228023961452e-05 -2.878407016186e-04 0.0 
2.897196249035e-04 6.168264430320e-03 0.0 
1.652625224236e-04 -2.773677469684e-04 0.0 
2.232179449078e-03 1.164902204714e-03 0.0 
7.807437592389e-05 -5.420764602529e-04 0.0 
1.892648386742e-04 -3.306613891669e-04 0.0 
1.076640748930e-03 1.220631743203e-03 0.0 
1.282661328097e-05 2.420106283999e-03 0.0 
6.247694680595e-05 -2.822083543684e-04 0.0 
1.867256062007e-04 7.156095640238e-03 0.0 
1.352154913991e-03 9.566679741852e-04 0.0 
1.830293406311e-03 2.107139497299e-03 0.0 
2.187495863030e-03 2.767304719244e-03 0.0 
6.487074285441e-04 9.358161129148e-03 0.0 
2.227482169303e-03 1.057641737279e-03 0.0 
8.535718639505e-04 1.624385457740e-03 0.0 
7.895320607568e-05 -4.882560658906e-04 0.0 
-4.538361887691e-05 -4.595606013197e-04 0.0 
1.593452213127e-03 1.186018631712e-03 0.0 
1.260283062301e-03 3.257746663774e-04 0.0 
8.581267649005e-05 -2.606447247073e-04 0.0 
1.518984819232e-04 5.423076332852e-03 0.0 
7.169898726085e-05 -1.118162902418e-06 0.0 
1.588503905893e-03 1.030038389325e-03 0.0 
1.346529870409e-03 8.595920241883e-04 0.0 
3.857888921893e-05 -1.537025000086e-04 0.0 
-6.601716044909e-04 1.004513318940e-03 0.0 
-1.538466215038e-04 5.893718614043e-03 0.0 
7.132259501329e-04 3.338401611195e-03 0.0 
1.587022145213e-03 7.353212780592e-03 0.0 
2.299212188640e-03 1.186110559614e-03 0.0 
2.474876957943e-04 1.755387127049e-03 0.0 
5.153342320759e-04 1.520449114065e-04 0.0 
-4.901261743855e-05 -3.311248140683e-04 0.0 
3.288637937702e-06 -4.465564616020e-04 0.0 
-6.055961995865e-04 3.778117091729e-03 0.0 
2.500296671384e-04 4.975723598720e-03 0.0 
1.484275749478e-04 -4.542751776904e-04 0.0 
5.819208647520e-04 1.606041680823e-03 0.0 
5.753410490495e-05 -5.348208467163e-04 0.0 
8.831604863467e-04 2.619632417629e-04 0.0 
9.741783218086e-04 7.762607500227e-03 0.0 
6.538545232518e-04 2.892063444209e-04 0.0 
1.887839975390e-03 1.007642698555e-03 0.0 
1.743400969536e-03 7.257514119208e-03 0.0 
3.381941477997e-04 5.244042605458e-05 0.0 
4.493362399973e-04 1.169745375856e-03 0.0 
3.759732293529e-05 1.263639399590e-03 0.0 
-7.870990162535e-04 2.597167339699e-03 0.0 
5.698175377133e-04 1.964098744790e-03 0.0 
7.538105331395e-04 5.535130547421e-04 0.0 
8.927814967544e-04 2.484880392807e-04 0.0 
1.685666020406e-03 8.471821390776e-04 0.0 
3.915898195179e-05 3.889800828524e-06 0.0 
2.132662622509e-03 2.864001301867e-03 0.0 
-9.012625349907e-04 1.160763869144e-03 0.0 
-2.558871819726e-04 1.536477693047e-03 0.0 
1.555931858933e-03 1.850759758624e-03 0.0 
1.456885136809e-03 6.782223828714e-03 0.0 
6.756003193425e-05 -1.664010426662e-05 0.0 
1.497671118098e-03 7.551022823462e-04 0.0 
1.378335710229e-04 1.055449051412e-05 0.0 
2.192048427219e-04 3.984579000312e-03 0.0 
6.026316271225e-04 2.423587570116e-04 0.0 
4.161742619094e-04 5.094360382507e-05 0.0 
4.418458634780e-04 6.053151267569e-05 0.0 
1.097135134275e-04 -4.454875615181e-04 0.0 
6.191544062735e-05 5.127902096021e-06 0.0 
1.270951487029e-03 8.743526207889e-03 0.0 
1.573899258295e-04 2.041418788721e-03 0.0 
2.643757931010e-05 -4.272839830677e-04 0.0 
1.021045322183e-04 2.836068023084e-03 0.0 
2.290479245085e-04 5.374996181946e-03 0.0 
7.049726439995e-06 -5.492171786871e-04 0.0 
1.599360219880e-04 1.037844902817e-04 0.0 
2.040694442543e-03 2.391100821207e-03 0.0 
2.084153431359e-04 1.046329005693e-03 0.0 
7.965455533362e-05 1.948930926296e-03 0.0 
7.682377367919e-04 2.996959904960e-04 0.0 
4.650350599818e-04 7.071961853971e-03 0.0 
4.778475739053e-06 -5.165686448789e-04 0.0 
-4.276032949105e-04 6.870780913715e-04 0.0 
2.761219890943e-05 -5.254314536366e-04 0.0 
8.587639103212e-05 -4.607175350602e-04 0.0 
-9.617574448191e-04 1.306013724152e-03 0.0 
1.677722072893e-04 -3.473276934676e-04 0.0 
8.502234553386e-05 -1.556964736857e-05 0.0 
1.027466427170e-03 1.638962703728e-03 0.0 
1.851070699270e-03 6.612755971473e-03 0.0 
2.304227360249e-04 -3.965328903484e-04 0.0 
3.600037794102e-04 2.665103859456e-05 0.0 
7.027412262692e-04 1.364652622252e-04 0.0 
7.921108538094e-04 3.686434883902e-04 0.0 
1.192724959936e-03 8.725442594752e-04 0.0 
1.648113509341e-03 1.765716250381e-03 0.0 
3.892031792112e-05 -4.653784274378e-04 0.0 
-3.005737769355e-04 2.039795170867e-04 0.0 
1.191528807536e-04 -1.235857213975e-05 0.0 
1.524408705253e-05 -5.478989218354e-04 0.0 
3.565193432784e-06 -5.451272941157e-04 0.0 
-6.882024418152e-04 1.493367743167e-03 0.0 
5.009325288112e-05 -5.236525530794e-04 0.0 
2.542231341112e-04 3.890004357680e-05 0.0 
6.997289434821e-04 6.369638593239e-04 0.0 
2.216053229260e-04 1.752581331105e-03 0.0 
6.372193218101e-04 3.074692576138e-04 0.0 
8.417640020894e-04 1.615527486588e-04 0.0 
3.762170609724e-04 6.519541822378e-03 0.0 
5.403040224920e-05 2.059727439161e-04 0.0 
3.575066237995e-04 -1.715397327215e-04 0.0 
8.157068633990e-04 9.708926824511e-03 0.0 
4.230442571237e-05 -3.001323426090e-04 0.0 
3.748185850813e-05 -5.465438337942e-04 0.0 
4.181832846552e-05 1.807394877137e-06 0.0 
1.724936566235e-03 8.382550524867e-03 0.0 
4.964330495636e-05 -5.436528473672e-04 0.0 
1.170202713166e-04 -3.589207980637e-04 0.0 
8.074472618412e-04 7.905926341491e-04 0.0 
3.556478818064e-04 1.857686703071e-03 0.0 
4.339018648156e-04 9.106132717393e-04 0.0 
6.317099640852e-05 -4.645741989275e-04 0.0 
-3.723788828694e-04 5.400348486306e-04 0.0 
1.837952558409e-04 1.267939715880e-05 0.0 
1.248389841017e-05 4.915762364274e-04 0.0 
1.001873844091e-05 -7.992913507667e-07 0.0 
5.759346841955e-05 8.779741895483e-03 0.0 
6.372352610304e-04 1.361066391830e-04 0.0 
6.331370818653e-05 -5.407756364909e-04 0.0 
5.421271348750e-04 1.616189234584e-03 0.0 
3.255678216628e-05 -5.402215794788e-04 0.0 
3.118255216553e-04 6.113808609571e-05 0.0 
5.767305885204e-04 1.176647891123e-03 0.0 
-5.722839061679e-04 7.339620607097e-04 0.0 
1.592141564087e-03 9.710151338540e-04 0.0 
2.161854222966e-04 4.456806010546e-03 0.0 
1.374897068033e-04 9.940506752850e-04 0.0 
1.078996937503e-04 3.725206611785e-05 0.0 
8.989285890147e-05 5.822740446924e-03 0.0 
6.543084043285e-04 6.642776407661e-04 0.0 
7.361846319979e-04 1.611273515871e-03 0.0 
1.793482671056e-04 5.118632092456e-03 0.0 
1.057688248760e-03 1.074519637741e-03 0.0 
1.235498111555e-04 -4.148213648463e-04 0.0 
4.119632012933e-04 9.383438929793e-03 0.0 
1.089925317407e-03 5.597224057248e-04 0.0 
1.307655692656e-05 1.046702178635e-03 0.0 
8.715581643597e-06 -5.572497367963e-04 0.0 
1.119718941023e-04 9.371517321814e-03 0.0 
9.014666260433e-06 -4.434901291701e-06 0.0 
1.090025808174e-04 -5.327463404296e-04 0.0 
8.202163997316e-04 2.052426514392e-04 0.0 
9.261934479768e-04 1.667462503065e-03 0.0 
1.609900786262e-04 1.290842327467e-03 0.0 
6.945869446755e-05 -5.349647148662e-04 0.0 
-4.192491668037e-04 1.182254540616e-03 0.0 
1.333740818946e-05 -2.647219655574e-04 0.0 
8.629031928093e-05 3.461141302504e-03 0.0 
-6.299567490436e-04 2.630851221117e-04 0.0 
3.342185408854e-04 9.122528176387e-04 0.0 
1.619350739034e-04 6.012328562804e-03 0.0 
1.642383666389e-04 -3.241728700637e-04 0.0 
3.045738289836e-04 6.728666546202e-03 0.0 
8.320109856239e-04 4.288873013355e-04 0.0 
2.510021810943e-05 -2.411646974372e-04 0.0 
-8.763809495948e-04 1.376608760633e-03 0.0 
1.398402303849e-04 -4.407502506480e-04 0.0 
1.720975243310e-04 -3.083559713150e-04 0.0 
1.176280991996e-05 -2.181796466276e-04 0.0 
1.011827775013e-03 4.097201543592e-04 0.0 
8.874814311259e-05 -3.182017593303e-04 0.0 
1.150419440823e-04 -2.889301581054e-04 0.0 
5.222876843843e-05 -5.363270282889e-04 0.0 
2.370324360308e-04 1.030865600359e-05 0.0 
1.595020611960e-03 1.263044590267e-03 0.0 
-1.774886178269e-04 1.155920478804e-03 0.0 
2.185866133187e-05 9.911077316123e-04 0.0 
1.623422591795e-05 -3.469006385850e-06 0.0 
1.094232573734e-04 8.831854187450e-03 0.0 
1.221058322761e-04 6.228291991042e-03 0.0 
1.221973167956e-04 -3.229887232616e-04 0.0 
1.372372419990e-04 -3.068053764876e-04 0.0 
8.417915610526e-05 -2.957514162296e-04 0.0 
1.022327012206e-03 2.725936495448e-04 0.0 
9.252614344238e-05 -3.356920210835e-04 0.0 
1.352322925165e-03 1.059855018734e-03 0.0 
1.992879440600e-04 7.715746513795e-03 0.0 
4.031188870258e-04 1.195401821236e-03 0.0 
9.748052855199e-04 2.425736069133e-04 0.0 
3.575541184528e-04 6.924593216761e-03 0.0 
1.405633641648e-03 1.565390237496e-03 0.0 
1.016776171908e-03 4.347200253783e-04 0.0 
7.706485973187e-04 3.294832810661e-04 0.0 
-7.713852254967e-04 1.274979481885e-03 0.0 
1.445825633202e-03 1.531774258116e-03 0.0 
1.235978997434e-03 1.236410318196e-03 0.0 
5.014703650706e-05 -5.407362662437e-04 0.0 
1.355649677427e-04 -3.412056223896e-04 0.0 
-7.720949625324e-04 1.136665175975e-03 0.0 
1.173379803534e-03 1.280584627380e-03 0.0 
1.921744735889e-04 1.464663085275e-02 0.0 
2.174498093943e-04 1.430821643506e-02 0.0 
3.004653979448e-04 1.465245233556e-02 0.0 
3.229435664866e-04 1.431731252848e-02 0.0 
3.993749607847e-04 1.465937457064e-02 0.0 
4.267678016745e-04 1.432292963749e-02 0.0 
4.996797849310e-04 1.466337367625e-02 0.0 
5.283654899336e-04 1.432681851410e-02 0.0 
5.982416839373e-04 1.466566482292e-02 0.0 
6.264120989538e-04 1.432899374724e-02 0.0 
6.925106502089e-04 1.466538487986e-02 0.0 
7.193818825060e-04 1.432820568067e-02 0.0 
7.804026263202e-04 1.466083832658e-02 0.0 
8.056923822478e-04 1.432255210250e-02 0.0 
8.600217011977e-04 1.464985945477e-02 0.0 
8.837204579355e-04 1.430965792544e-02 0.0 
9.294366298984e-04 1.462977693873e-02 0.0 
5.505047947701e-04 1.078824162363e-02 0.0 
9.517293469458e-04 1.428653517258e-02 0.0 
9.865563626780e-04 1.459722752833e-02 0.0 
7.346773488429e-04 1.101224189881e-02 0.0 
1.007886453662e-03 1.424942648517e-02 0.0 
1.029141591613e-03 1.454798619831e-02 0.0 
1.050296361151e-03 1.419359253687e-02 0.0 
1.054848169794e-03 1.447675715037e-02 0.0 
1.077063829418e-03 1.411315618555e-02 0.0 
1.303599272854e-04 1.090727442003e-02 0.0 
1.061198783497e-03 1.437718282916e-02 0.0 
1.086342261292e-03 1.400100514232e-02 0.0 
1.045521421411e-03 1.424117528090e-02 0.0 
1.076419644344e-03 1.384774012621e-02 0.0 
1.005211864901e-03 1.405848232911e-02 0.0 
1.046365332090e-03 1.364151776664e-02 0.0 
9.384493661629e-04 1.381510174838e-02 0.0 
9.965299465485e-04 1.336583850743e-02 0.0 
8.450744733821e-04 1.349424255990e-02 0.0 
9.301930835744e-04 1.300121611673e-02 0.0 
7.595938916471e-04 1.009668964649e-02 0.0 
8.539813747230e-04 1.251814137430e-02 0.0 
7.276224084249e-04 1.307164091680e-02 0.0 
7.793591714748e-04 1.188077203780e-02 0.0 
5.942391033943e-04 1.251827177352e-02 0.0 
4.596812577841e-04 1.178486816953e-02 0.0 
3.394490241623e-04 1.021572244289e-02 0.0 
2.465674530580e-05 1.447401188331e-02 0.0 
1.220431294389e-04 1.447427145813e-02 0.0 
6.646265174643e-05 1.413003754435e-02 0.0 
8.023722299822e-05 1.481824579710e-02 0.0 
2.161996437280e-04 9.564620287919e-03 0.0 
1.511045316298e-04 1.328825522383e-02 0.0 
1.955395444782e-04 1.363088935372e-02 0.0 
2.623919000605e-04 1.329783659899e-02 0.0 
3.067803335183e-04 1.364002387325e-02 0.0 
3.693427907719e-04 1.330579626501e-02 0.0 
4.128988646299e-04 1.364663998709e-02 0.0 
4.727278178052e-04 1.331191629123e-02 0.0 
5.152824598524e-04 1.365165077947e-02 0.0 
5.727595719305e-04 1.331664333588e-02 0.0 
6.140130170282e-04 1.365513999482e-02 0.0 
6.691613380392e-04 1.331932110184e-02 0.0 
7.084316522618e-04 1.365599565506e-02 0.0 
7.613037703875e-04 1.331847665149e-02 0.0 
7.975437565592e-04 1.365240045302e-02 0.0 
8.483793636805e-04 1.331205526106e-02 0.0 
8.802267461069e-04 1.364200538122e-02 0.0 
1.328733031492e-03 1.119020592494e-02 0.0 
9.295161231941e-04 1.329742491177e-02 0.0 
9.553025520701e-04 1.362183568984e-02 0.0 
1.125025688129e-03 1.139308697114e-02 0.0 
1.003857876940e-03 1.327123353537e-02 0.0 
1.021614762800e-03 1.358813197494e-02 0.0 
1.404268280714e-03 1.125872551204e-02 0.0 
1.070658089440e-03 1.322926899060e-02 0.0 
1.078084549840e-03 1.353616983937e-02 0.0 
1.129339780464e-03 1.316627058858e-02 0.0 
1.123767251398e-03 1.346009232125e-02 0.0 
1.179615967778e-03 1.307572180783e-02 0.0 
1.158056023592e-03 1.335260798530e-02 0.0 
1.461411927723e-03 1.069797673161e-02 0.0 
1.221738595776e-03 1.294926543154e-02 0.0 
1.180923056409e-03 1.320422743387e-02 0.0 
1.256863483406e-03 1.277613624892e-02 0.0 
1.193513538530e-03 1.300268437880e-02 0.0 
1.198370158388e-03 1.273166465603e-02 0.0 
1.287437784443e-03 1.254209450914e-02 0.0 
1.201080928451e-03 1.237033110074e-02 0.0 
1.317802530099e-03 1.222918369251e-02 0.0 
1.208321737481e-03 1.189040357356e-02 0.0 
1.352850616060e-03 1.181301810007e-02 0.0 
1.257704584360e-03 1.090085777781e-02 0.0 
1.926241305707e-05 1.344918242834e-02 0.0 
9.748912014706e-05 1.345321541652e-02 0.0 
6.106831949771e-05 1.379003005031e-02 0.0 
5.568321370642e-05 1.311236779455e-02 0.0 
1.187034158764e-03 1.061591657375e-02 0.0 
1.452062501096e-04 1.261097327294e-02 0.0 
1.810649078980e-04 1.227542239286e-02 0.0 
2.538155450004e-04 1.261965158902e-02 0.0 
2.894087280484e-04 1.228421358465e-02 0.0 
3.605475403620e-04 1.262817098637e-02 0.0 
3.960717057733e-04 1.229248163355e-02 0.0 
4.646959093584e-04 1.263538321633e-02 0.0 
5.005886268106e-04 1.229965900946e-02 0.0 
5.660976473354e-04 1.264118464077e-02 0.0 
6.028533295980e-04 1.230528575271e-02 0.0 
6.646635752040e-04 1.264492555484e-02 0.0 
7.027397090536e-04 1.230838011841e-02 0.0 
7.601095900144e-04 1.264525666184e-02 0.0 
8.000632752201e-04 1.230729106865e-02 0.0 
8.520930627145e-04 1.264016586633e-02 0.0 
1.673168816684e-03 1.106437943202e-02 0.0 
8.946186833869e-04 1.229975240705e-02 0.0 
1.692286313266e-03 1.104166615918e-02 0.0 
9.401943614401e-04 1.262706133233e-02 0.0 
9.861950152907e-04 1.228276915967e-02 0.0 
1.024072101915e-03 1.260253058465e-02 0.0 
1.074767171090e-03 1.225244396482e-02 0.0 
1.103596272755e-03 1.256228393120e-02 0.0 
1.160569411348e-03 1.220392279823e-02 0.0 
1.561748717156e-03 1.131110981981e-02 0.0 
1.178886458656e-03 1.250100860683e-02 0.0 
1.244162666115e-03 1.213115014278e-02 0.0 
1.250464704303e-03 1.241204161112e-02 0.0 
1.326635550665e-03 1.202652403186e-02 0.0 
1.319469386325e-03 1.228686167481e-02 0.0 
1.409645796816e-03 1.187990320642e-02 0.0 
1.387855433266e-03 1.211421577820e-02 0.0 
1.495983354633e-03 1.167885835680e-02 0.0 
1.588173815372e-03 1.140685963132e-02 0.0 
1.458915650686e-03 1.188018895786e-02 0.0 
1.781315826023e-03 1.069223902877e-02 0.0 
1.536128320838e-03 1.156628421909e-02 0.0 
1.669895726495e-03 1.093896941657e-02 0.0 
1.772468188058e-05 1.243528128522e-02 0.0 
9.005310745038e-05 1.243803581896e-02 0.0 
5.363230680103e-05 1.209884695630e-02 0.0 
5.414548252993e-05 1.277447014788e-02 0.0 
1.656944168631e-03 1.080919963531e-02 0.0 
1.392464409336e-04 1.125797988959e-02 0.0 
1.771048924612e-04 1.159841821982e-02 0.0 
2.448775002823e-04 1.126518110201e-02 0.0 
2.844306987671e-04 1.160674727068e-02 0.0 
3.507044751726e-04 1.127355051148e-02 0.0 
3.912066698652e-04 1.161532747263e-02 0.0 
4.561214990229e-04 1.128162984507e-02 0.0 
4.968792523830e-04 1.162305979912e-02 0.0 
5.608694433560e-04 1.128853533655e-02 0.0 
6.013345000461e-04 1.162923565883e-02 0.0 
6.650192283097e-04 1.129345959997e-02 0.0 
7.046141917112e-04 1.163296425742e-02 0.0 
7.686647349469e-04 1.129499892676e-02 0.0 
1.779548033998e-03 1.063143881678e-02 0.0 
8.067439374950e-04 1.163244919456e-02 0.0 
8.720579572902e-04 1.129118799691e-02 0.0 
1.722189874024e-03 1.091511118665e-02 0.0 
9.079029156877e-04 1.162561641172e-02 0.0 
9.754751327286e-04 1.127958467012e-02 0.0 
1.764964785385e-03 1.054493733310e-02 0.0 
1.008191554278e-03 1.160942849280e-02 0.0 
1.079228703760e-03 1.125662082680e-02 0.0 
1.107927233947e-03 1.157987487385e-02 0.0 
1.183941422388e-03 1.121791914070e-02 0.0 
1.207754498123e-03 1.153212709871e-02 0.0 
1.876384135787e-03 1.032462714056e-02 0.0 
1.290547207748e-03 1.115817476015e-02 0.0 
1.308638328432e-03 1.146011199563e-02 0.0 
1.411990001248e-03 1.135617979121e-02 0.0 
1.400294817202e-03 1.107065922332e-02 0.0 
1.519813095523e-03 1.121062156197e-02 0.0 
1.514991135614e-03 1.094723578972e-02 0.0 
1.633380333327e-03 1.101075324677e-02 0.0 
1.635419710666e-03 1.077682902373e-02 0.0 
1.819025975813e-03 1.060829951043e-02 0.0 
1.729967159463e-05 1.142277308738e-02 0.0 
8.762830342526e-05 1.142445647447e-02 0.0 
5.320729651508e-05 1.176125682212e-02 0.0 
5.172067850481e-05 1.108597273973e-02 0.0 
1.841167909589e-03 1.057542989520e-02 0.0 
1.382207267288e-04 1.058243357798e-02 0.0 
1.739307368631e-04 1.024628451649e-02 0.0 
2.427290588891e-04 1.058859371030e-02 0.0 
2.795437473716e-04 1.025286429060e-02 0.0 
3.479659651705e-04 1.059625492311e-02 0.0 
3.860181564261e-04 1.026056218082e-02 0.0 
4.536714955859e-04 1.060416014162e-02 0.0 
4.933003531999e-04 1.026809808273e-02 0.0 
5.597405476098e-04 1.061104332361e-02 0.0 
6.013808949073e-04 1.027420405878e-02 0.0 
6.661945189170e-04 1.061592001286e-02 0.0 
7.106348025388e-04 1.027791717890e-02 0.0 
1.742221498445e-03 9.980215403661e-03 0.0 
7.735100551671e-04 1.061749143534e-02 0.0 
1.704397610796e-03 9.851063079835e-03 0.0 
8.214160022464e-04 1.027720580077e-02 0.0 
8.818847018213e-04 1.061345209453e-02 0.0 
9.343180961684e-04 1.027000167859e-02 0.0 
9.920635686782e-04 1.060170583936e-02 0.0 
1.050117643811e-03 1.025350781939e-02 0.0 
1.104566357344e-03 1.057857898414e-02 0.0 
1.169389131904e-03 1.022343464849e-02 0.0 
1.722328248343e-03 1.028292878740e-02 0.0 
1.220065666761e-03 1.053952075800e-02 0.0 
1.293124788657e-03 1.017483221826e-02 0.0 
1.339793253909e-03 1.047927826241e-02 0.0 
1.422579193866e-03 1.010185911455e-02 0.0 
1.559010979599e-03 9.996897636781e-03 0.0 
1.464989636475e-03 1.039130283998e-02 0.0 
1.597317294692e-03 1.026731001862e-02 0.0 
1.825900257887e-03 9.725854643721e-03 0.0 
1.806007007784e-03 1.002856802746e-02 0.0 
1.703610884611e-05 1.040990920950e-02 0.0 
8.633902647187e-05 1.041121533968e-02 0.0 
5.191801956169e-05 1.007284663263e-02 0.0 
5.145711575629e-05 1.074827791655e-02 0.0 
1.850682922165e-03 1.005665235011e-02 0.0 

VECTORS element_materi_displacement float
0.0 0.0 0.0 
0.0 0.0 0.0 
0.0 0.0 0.0 
0.0 0.0 0.0 
0.0 0.0 0.0 
0.0 0.0 0.0 
0.0 0.0 0.0 
0.0 0.0 0.0 
0.0 0.0 0.0 
0.0 0.0 0.0 
0.0 0.0 0.0 
0.0 0.0 0.0 
0.0 0.0 0.0 
0.0 0.0 0.0 
0.0 0.0 0.0 
0.0 0.0 0.0 
0.0 0.0 0.0 
0.0 0.0 0.0 
0.0 0.0 0.0 
0.0 0.0 0.0 
0.0 0.0 0.0 
0.0 0.0 0.0 
0.0 0.0 0.0 
0.0 0.0 0.0 
0.0 0.0 0.0 
0.0 0.0 0.0 
0.0 0.0 0.0 
0.0 0.0 0.0 
0.0 0.0 0.0 
0.0 0.0 0.0 
0.0 0.0 0.0 
0.0 0.0 0.0 
0.0 0.0 0.0 
0.0 0.0 0.0 
0.0 0.0 0.0 
0.0 0.0 0.0 
0.0 0.0 0.0 
0.0 0.0 0.0 
0.0 0.0 0.0 
0.0 0.0 0.0 
0.0 0.0 0.0 
0.0 0.0 0.0 
0.0 0.0 0.0 
0.0 0.0 0.0 
0.0 0.0 0.0 
0.0 0.0 0.0 
0.0 0.0 0.0 
0.0 0.0 0.0 
0.0 0.0 0.0 
0.0 0.0 0.0 
0.0 0.0 0.0 
0.0 0.0 0.0 
0.0 0.0 0.0 
0.0 0.0 0.0 
0.0 0.0 0.0 
0.0 0.0 0.0 
0.0 0.0 0.0 
0.0 0.0 0.0 
0.0 0.0 0.0 
0.0 0.0 0.0 
0.0 0.0 0.0 
0.0 0.0 0.0 
0.0 0.0 0.0 
0.0 0.0 0.0 
0.0 0.0 0.0 
0.0 0.0 0.0 
0.0 0.0 0.0 
0.0 0.0 0.0 
0.0 0.0 0.0 
0.0 0.0 0.0 
0.0 0.0 0.0 
0.0 0.0 0.0 
0.0 0.0 0.0 
0.0 0.0 0.0 
0.0 0.0 0.0 
0.0 0.0 0.0 
0.0 0.0 0.0 
0.0 0.0 0.0 
0.0 0.0 0.0 
0.0 0.0 0.0 
0.0 0.0 0.0 
0.0 0.0 0.0 
0.0 0.0 0.0 
0.0 0.0 0.0 
0.0 0.0 0.0 
0.0 0.0 0.0 
0.0 0.0 0.0 
0.0 0.0 0.0 
0.0 0.0 0.0 
0.0 0.0 0.0 
0.0 0.0 0.0 
0.0 0.0 0.0 
0.0 0.0 0.0 
0.0 0.0 0.0 
0.0 0.0 0.0 
0.0 0.0 0.0 
0.0 0.0 0.0 
0.0 0.0 0.0 
0.0 0.0 0.0 
0.0 0.0 0.0 
0.0 0.0 0.0 
0.0 0.0 0.0 
0.0 0.0 0.0 
0.0 0.0 0.0 
0.0 0.0 0.0 
0.0 0.0 0.0 
0.0 0.0 0.0 
0.0 0.0 0.0 
0.0 0.0 0.0 
0.0 0.0 0.0 
0.0 0.0 0.0 
0.0 0.0 0.0 
0.0 0.0 0.0 
0.0 0.0 0.0 
0.0 0.0 0.0 
0.0 0.0 0.0 
0.0 0.0 0.0 
0.0 0.0 0.0 
0.0 0.0 0.0 
0.0 0.0 0.0 
0.0 0.0 0.0 
0.0 0.0 0.0 
0.0 0.0 0.0 
0.0 0.0 0.0 
0.0 0.0 0.0 
0.0 0.0 0.0 
0.0 0.0 0.0 
0.0 0.0 0.0 
0.0 0.0 0.0 
0.0 0.0 0.0 
0.0 0.0 0.0 
0.0 0.0 0.0 
0.0 0.0 0.0 
0.0 0.0 0.0 
0.0 0.0 0.0 
0.0 0.0 0.0 
0.0 0.0 0.0 
0.0 0.0 0.0 
0.0 0.0 0.0 
0.0 0.0 0.0 
0.0 0.0 0.0 
0.0 0.0 0.0 
0.0 0.0 0.0 
0.0 0.0 0.0 
0.0 0.0 0.0 
0.0 0.0 0.0 
0.0 0.0 0.0 
0.0 0.0 0.0 
0.0 0.0 0.0 
0.0 0.0 0.0 
0.0 0.0 0.0 
0.0 0.0 0.0 
0.0 0.0 0.0 
0.0 0.0 0.0 
0.0 0.0 0.0 
0.0 0.0 0.0 
0.0 0.0 0.0 
0.0 0.0 0.0 
0.0 0.0 0.0 
0.0 0.0 0.0 
0.0 0.0 0.0 
0.0 0.0 0.0 
0.0 0.0 0.0 
0.0 0.0 0.0 
0.0 0.0 0.0 
0.0 0.0 0.0 
0.0 0.0 0.0 
0.0 0.0 0.0 
0.0 0.0 0.0 
0.0 0.0 0.0 
0.0 0.0 0.0 
0.0 0.0 0.0 
0.0 0.0 0.0 
0.0 0.0 0.0 
0.0 0.0 0.0 
0.0 0.0 0.0 
0.0 0.0 0.0 
0.0 0.0 0.0 
0.0 0.0 0.0 
0.0 0.0 0.0 
0.0 0.0 0.0 
0.0 0.0 0.0 
0.0 0.0 0.0 
0.0 0.0 0.0 
0.0 0.0 0.0 
0.0 0.0 0.0 
0.0 0.0 0.0 
0.0 0.0 0.0 
0.0 0.0 0.0 
0.0 0.0 0.0 
0.0 0.0 0.0 
0.0 0.0 0.0 
0.0 0.0 0.0 
0.0 0.0 0.0 
0.0 0.0 0.0 
0.0 0.0 0.0 
0.0 0.0 0.0 
0.0 0.0 0.0 
0.0 0.0 0.0 
0.0 0.0 0.0 
0.0 0.0 0.0 
0.0 0.0 0.0 
0.0 0.0 0.0 
0.0 0.0 0.0 
0.0 0.0 0.0 
0.0 0.0 0.0 
0.0 0.0 0.0 
0.0 0.0 0.0 
0.0 0.0 0.0 
0.0 0.0 0.0 
0.0 0.0 0.0 
0.0 0.0 0.0 
0.0 0.0 0.0 
0.0 0.0 0.0 
0.0 0.0 0.0 
0.0 0.0 0.0 
0.0 0.0 0.0 
0.0 0.0 0.0 
0.0 0.0 0.0 
0.0 0.0 0.0 
0.0 0.0 0.0 
0.0 0.0 0.0 
0.0 0.0 0.0 
0.0 0.0 0.0 
0.0 0.0 0.0 
0.0 0.0 0.0 
0.0 0.0 0.0 
0.0 0.0 0.0 
0.0 0.0 0.0 
0.0 0.0 0.0 
0.0 0.0 0.0 
0.0 0.0 0.0 
0.0 0.0 0.0 
0.0 0.0 0.0 
0.0 0.0 0.0 
0.0 0.0 0.0 
0.0 0.0 0.0 
0.0 0.0 0.0 
0.0 0.0 0.0 
0.0 0.0 0.0 
0.0 0.0 0.0 
0.0 0.0 0.0 
0.0 0.0 0.0 
0.0 0.0 0.0 
0.0 0.0 0.0 
0.0 0.0 0.0 
0.0 0.0 0.0 
0.0 0.0 0.0 
0.0 0.0 0.0 
0.0 0.0 0.0 
0.0 0.0 0.0 
0.0 0.0 0.0 
0.0 0.0 0.0 
0.0 0.0 0.0 
0.0 0.0 0.0 
0.0 0.0 0.0 
0.0 0.0 0.0 
0.0 0.0 0.0 
0.0 0.0 0.0 
0.0 0.0 0.0 
0.0 0.0 0.0 
0.0 0.0 0.0 
0.0 0.0 0.0 
0.0 0.0 0.0 
0.0 0.0 0.0 
0.0 0.0 0.0 
0.0 0.0 0.0 
0.0 0.0 0.0 
0.0 0.0 0.0 
0.0 0.0 0.0 
0.0 0.0 0.0 
0.0 0.0 0.0 
0.0 0.0 0.0 
0.0 0.0 0.0 
0.0 0.0 0.0 
0.0 0.0 0.0 
0.0 0.0 0.0 
0.0 0.0 0.0 
0.0 0.0 0.0 
0.0 0.0 0.0 
0.0 0.0 0.0 
0.0 0.0 0.0 
0.0 0.0 0.0 
0.0 0.0 0.0 
0.0 0.0 0.0 
0.0 0.0 0.0 
0.0 0.0 0.0 
0.0 0.0 0.0 
0.0 0.0 0.0 
0.0 0.0 0.0 
0.0 0.0 0.0 
0.0 0.0 0.0 
0.0 0.0 0.0 
0.0 0.0 0.0 
0.0 0.0 0.0 
0.0 0.0 0.0 
0.0 0.0 0.0 
0.0 0.0 0.0 
0.0 0.0 0.0 
0.0 0.0 0.0 
0.0 0.0 0.0 
0.0 0.0 0.0 
0.0 0.0 0.0 
0.0 0.0 0.0 
0.0 0.0 0.0 
0.0 0.0 0.0 
0.0 0.0 0.0 
0.0 0.0 0.0 
0.0 0.0 0.0 
0.0 0.0 0.0 
0.0 0.0 0.0 
0.0 0.0 0.0 
0.0 0.0 0.0 
0.0 0.0 0.0 
0.0 0.0 0.0 
0.0 0.0 0.0 
0.0 0.0 0.0 
0.0 0.0 0.0 
0.0 0.0 0.0 
0.0 0.0 0.0 
0.0 0.0 0.0 
0.0 0.0 0.0 
0.0 0.0 0.0 
0.0 0.0 0.0 
0.0 0.0 0.0 
0.0 0.0 0.0 
0.0 0.0 0.0 
0.0 0.0 0.0 
0.0 0.0 0.0 
0.0 0.0 0.0 
0.0 0.0 0.0 
0.0 0.0 0.0 
0.0 0.0 0.0 
0.0 0.0 0.0 
0.0 0.0 0.0 
0.0 0.0 0.0 
0.0 0.0 0.0 
0.0 0.0 0.0 
0.0 0.0 0.0 
0.0 0.0 0.0 
0.0 0.0 0.0 
0.0 0.0 0.0 
0.0 0.0 0.0 
0.0 0.0 0.0 
0.0 0.0 0.0 
0.0 0.0 0.0 
0.0 0.0 0.0 
0.0 0.0 0.0 
0.0 0.0 0.0 
0.0 0.0 0.0 
0.0 0.0 0.0 
0.0 0.0 0.0 
0.0 0.0 0.0 
0.0 0.0 0.0 
0.0 0.0 0.0 
0.0 0.0 0.0 
0.0 0.0 0.0 
0.0 0.0 0.0 
0.0 0.0 0.0 
0.0 0.0 0.0 
0.0 0.0 0.0 
0.0 0.0 0.0 
0.0 0.0 0.0 
0.0 0.0 0.0 
0.0 0.0 0.0 
0.0 0.0 0.0 
0.0 0.0 0.0 
0.0 0.0 0.0 
0.0 0.0 0.0 
0.0 0.0 0.0 
0.0 0.0 0.0 
0.0 0.0 0.0 
0.0 0.0 0.0 
0.0 0.0 0.0 
0.0 0.0 0.0 
0.0 0.0 0.0 
0.0 0.0 0.0 
0.0 0.0 0.0 
0.0 0.0 0.0 
0.0 0.0 0.0 
0.0 0.0 0.0 
0.0 0.0 0.0 
0.0 0.0 0.0 
0.0 0.0 0.0 
0.0 0.0 0.0 
0.0 0.0 0.0 
0.0 0.0 0.0 
0.0 0.0 0.0 
0.0 0.0 0.0 
0.0 0.0 0.0 
0.0 0.0 0.0 
0.0 0.0 0.0 
0.0 0.0 0.0 
0.0 0.0 0.0 
0.0 0.0 0.0 
0.0 0.0 0.0 
0.0 0.0 0.0 
0.0 0.0 0.0 
0.0 0.0 0.0 
0.0 0.0 0.0 
0.0 0.0 0.0 
0.0 0.0 0.0 
0.0 0.0 0.0 
0.0 0.0 0.0 
0.0 0.0 0.0 
0.0 0.0 0.0 
0.0 0.0 0.0 
0.0 0.0 0.0 
0.0 0.0 0.0 
0.0 0.0 0.0 
0.0 0.0 0.0 
0.0 0.0 0.0 
0.0 0.0 0.0 
0.0 0.0 0.0 
0.0 0.0 0.0 
0.0 0.0 0.0 
0.0 0.0 0.0 
0.0 0.0 0.0 
0.0 0.0 0.0 
0.0 0.0 0.0 
0.0 0.0 0.0 
0.0 0.0 0.0 
0.0 0.0 0.0 
0.0 0.0 0.0 
0.0 0.0 0.0 
0.0 0.0 0.0 
0.0 0.0 0.0 
0.0 0.0 0.0 
0.0 0.0 0.0 
0.0 0.0 0.0 
0.0 0.0 0.0 
0.0 0.0 0.0 
0.0 0.0 0.0 
0.0 0.0 0.0 
0.0 0.0 0.0 
0.0 0.0 0.0 
0.0 0.0 0.0 
0.0 0.0 0.0 
0.0 0.0 0.0 
0.0 0.0 0.0 
0.0 0.0 0.0 
0.0 0.0 0.0 
0.0 0.0 0.0 
0.0 0.0 0.0 
0.0 0.0 0.0 
0.0 0.0 0.0 
0.0 0.0 0.0 
0.0 0.0 0.0 
0.0 0.0 0.0 
0.0 0.0 0.0 
0.0 0.0 0.0 
0.0 0.0 0.0 
0.0 0.0 0.0 
0.0 0.0 0.0 
0.0 0.0 0.0 
0.0 0.0 0.0 
0.0 0.0 0.0 
0.0 0.0 0.0 
0.0 0.0 0.0 
0.0 0.0 0.0 
0.0 0.0 0.0 
0.0 0.0 0.0 
0.0 0.0 0.0 
0.0 0.0 0.0 
0.0 0.0 0.0 
0.0 0.0 0.0 
0.0 0.0 0.0 
0.0 0.0 0.0 
0.0 0.0 0.0 
0.0 0.0 0.0 
0.0 0.0 0.0 
0.0 0.0 0.0 
0.0 0.0 0.0 
0.0 0.0 0.0 
0.0 0.0 0.0 
0.0 0.0 0.0 
0.0 0.0 0.0 
0.0 0.0 0.0 
0.0 0.0 0.0 
0.0 0.0 0.0 
0.0 0.0 0.0 
0.0 0.0 0.0 
0.0 0.0 0.0 
0.0 0.0 0.0 
0.0 0.0 0.0 
0.0 0.0 0.0 
0.0 0.0 0.0 
0.0 0.0 0.0 
0.0 0.0 0.0 
0.0 0.0 0.0 
0.0 0.0 0.0 
0.0 0.0 0.0 
0.0 0.0 0.0 
0.0 0.0 0.0 
0.0 0.0 0.0 
0.0 0.0 0.0 
0.0 0.0 0.0 
0.0 0.0 0.0 
0.0 0.0 0.0 
0.0 0.0 0.0 
0.0 0.0 0.0 
0.0 0.0 0.0 
0.0 0.0 0.0 
0.0 0.0 0.0 
0.0 0.0 0.0 
0.0 0.0 0.0 
0.0 0.0 0.0 
0.0 0.0 0.0 
0.0 0.0 0.0 
0.0 0.0 0.0 
0.0 0.0 0.0 
0.0 0.0 0.0 
0.0 0.0 0.0 
0.0 0.0 0.0 
0.0 0.0 0.0 
0.0 0.0 0.0 
0.0 0.0 0.0 
0.0 0.0 0.0 
0.0 0.0 0.0 
0.0 0.0 0.0 
0.0 0.0 0.0 
0.0 0.0 0.0 
0.0 0.0 0.0 
0.0 0.0 0.0 
0.0 0.0 0.0 
0.0 0.0 0.0 
0.0 0.0 0.0 
0.0 0.0 0.0 
0.0 0.0 0.0 
0.0 0.0 0.0 
0.0 0.0 0.0 
0.0 0.0 0.0 
0.0 0.0 0.0 
0.0 0.0 0.0 
0.0 0.0 0.0 
0.0 0.0 0.0 
0.0 0.0 0.0 
0.0 0.0 0.0 
0.0 0.0 0.0 
0.0 0.0 0.0 
0.0 0.0 0.0 
0.0 0.0 0.0 
0.0 0.0 0.0 
0.0 0.0 0.0 
0.0 0.0 0.0 
0.0 0.0 0.0 
0.0 0.0 0.0 
0.0 0.0 0.0 
0.0 0.0 0.0 
0.0 0.0 0.0 
0.0 0.0 0.0 
0.0 0.0 0.0 
0.0 0.0 0.0 
0.0 0.0 0.0 
0.0 0.0 0.0 
0.0 0.0 0.0 
0.0 0.0 0.0 
0.0 0.0 0.0 
0.0 0.0 0.0 
0.0 0.0 0.0 
0.0 0.0 0.0 
0.0 0.0 0.0 
0.0 0.0 0.0 
0.0 0.0 0.0 
0.0 0.0 0.0 
0.0 0.0 0.0 
0.0 0.0 0.0 
0.0 0.0 0.0 
0.0 0.0 0.0 
0.0 0.0 0.0 
0.0 0.0 0.0 
0.0 0.0 0.0 
0.0 0.0 0.0 
0.0 0.0 0.0 
0.0 0.0 0.0 
0.0 0.0 0.0 
0.0 0.0 0.0 
0.0 0.0 0.0 
0.0 0.0 0.0 
0.0 0.0 0.0 
0.0 0.0 0.0 
0.0 0.0 0.0 
0.0 0.0 0.0 
0.0 0.0 0.0 
0.0 0.0 0.0 
0.0 0.0 0.0 
0.0 0.0 0.0 
0.0 0.0 0.0 
0.0 0.0 0.0 
0.0 0.0 0.0 
0.0 0.0 0.0 
0.0 0.0 0.0 
0.0 0.0 0.0 
0.0 0.0 0.0 
0.0 0.0 0.0 
0.0 0.0 0.0 
0.0 0.0 0.0 
0.0 0.0 0.0 
0.0 0.0 0.0 
0.0 0.0 0.0 
0.0 0.0 0.0 
0.0 0.0 0.0 
0.0 0.0 0.0 
0.0 0.0 0.0 
0.0 0.0 0.0 
0.0 0.0 0.0 
0.0 0.0 0.0 
0.0 0.0 0.0 
0.0 0.0 0.0 
0.0 0.0 0.0 
0.0 0.0 0.0 
0.0 0.0 0.0 
0.0 0.0 0.0 
0.0 0.0 0.0 
0.0 0.0 0.0 
0.0 0.0 0.0 
0.0 0.0 0.0 
0.0 0.0 0.0 
0.0 0.0 0.0 
0.0 0.0 0.0 
0.0 0.0 0.0 
0.0 0.0 0.0 
0.0 0.0 0.0 
0.0 0.0 0.0 
0.0 0.0 0.0 
0.0 0.0 0.0 
0.0 0.0 0.0 
0.0 0.0 0.0 
0.0 0.0 0.0 
0.0 0.0 0.0 
0.0 0.0 0.0 
0.0 0.0 0.0 
0.0 0.0 0.0 
0.0 0.0 0.0 
0.0 0.0 0.0 
0.0 0.0 0.0 
0.0 0.0 0.0 
0.0 0.0 0.0 
0.0 0.0 0.0 
0.0 0.0 0.0 
0.0 0.0 0.0 
0.0 0.0 0.0 
0.0 0.0 0.0 
0.0 0.0 0.0 
0.0 0.0 0.0 
0.0 0.0 0.0 
0.0 0.0 0.0 
0.0 0.0 0.0 
0.0 0.0 0.0 
0.0 0.0 0.0 
0.0 0.0 0.0 
0.0 0.0 0.0 
0.0 0.0 0.0 
0.0 0.0 0.0 
0.0 0.0 0.0 
0.0 0.0 0.0 
0.0 0.0 0.0 
0.0 0.0 0.0 
0.0 0.0 0.0 
0.0 0.0 0.0 
0.0 0.0 0.0 
0.0 0.0 0.0 
0.0 0.0 0.0 
0.0 0.0 0.0 
0.0 0.0 0.0 
0.0 0.0 0.0 
0.0 0.0 0.0 
0.0 0.0 0.0 
0.0 0.0 0.0 
0.0 0.0 0.0 
0.0 0.0 0.0 
0.0 0.0 0.0 
0.0 0.0 0.0 
0.0 0.0 0.0 
0.0 0.0 0.0 
0.0 0.0 0.0 
0.0 0.0 0.0 
0.0 0.0 0.0 
0.0 0.0 0.0 
0.0 0.0 0.0 
0.0 0.0 0.0 
0.0 0.0 0.0 
0.0 0.0 0.0 
0.0 0.0 0.0 
0.0 0.0 0.0 
0.0 0.0 0.0 
0.0 0.0 0.0 
0.0 0.0 0.0 
0.0 0.0 0.0 
0.0 0.0 0.0 
0.0 0.0 0.0 
0.0 0.0 0.0 
0.0 0.0 0.0 
0.0 0.0 0.0 
0.0 0.0 0.0 
0.0 0.0 0.0 
0.0 0.0 0.0 
0.0 0.0 0.0 
0.0 0.0 0.0 
0.0 0.0 0.0 
0.0 0.0 0.0 
0.0 0.0 0.0 
0.0 0.0 0.0 
0.0 0.0 0.0 
0.0 0.0 0.0 
0.0 0.0 0.0 
0.0 0.0 0.0 
0.0 0.0 0.0 
0.0 0.0 0.0 
0.0 0.0 0.0 
0.0 0.0 0.0 
0.0 0.0 0.0 
0.0 0.0 0.0 
0.0 0.0 0.0 
0.0 0.0 0.0 
0.0 0.0 0.0 
0.0 0.0 0.0 
0.0 0.0 0.0 
0.0 0.0 0.0 
0.0 0.0 0.0 
0.0 0.0 0.0 
0.0 0.0 0.0 
0.0 0.0 0.0 
0.0 0.0 0.0 
0.0 0.0 0.0 
0.0 0.0 0.0 
0.0 0.0 0.0 
0.0 0.0 0.0 
0.0 0.0 0.0 
0.0 0.0 0.0 
0.0 0.0 0.0 
0.0 0.0 0.0 
0.0 0.0 0.0 
0.0 0.0 0.0 
0.0 0.0 0.0 
0.0 0.0 0.0 
0.0 0.0 0.0 
0.0 0.0 0.0 
0.0 0.0 0.0 
0.0 0.0 0.0 
0.0 0.0 0.0 
0.0 0.0 0.0 
0.0 0.0 0.0 
0.0 0.0 0.0 
0.0 0.0 0.0 
0.0 0.0 0.0 
0.0 0.0 0.0 
0.0 0.0 0.0 
0.0 0.0 0.0 
0.0 0.0 0.0 
0.0 0.0 0.0 
0.0 0.0 0.0 
0.0 0.0 0.0 
0.0 0.0 0.0 
0.0 0.0 0.0 
0.0 0.0 0.0 
0.0 0.0 0.0 
0.0 0.0 0.0 
0.0 0.0 0.0 
0.0 0.0 0.0 
0.0 0.0 0.0 
0.0 0.0 0.0 
0.0 0.0 0.0 
0.0 0.0 0.0 
0.0 0.0 0.0 
0.0 0.0 0.0 
0.0 0.0 0.0 
0.0 0.0 0.0 
0.0 0.0 0.0 
0.0 0.0 0.0 
0.0 0.0 0.0 
0.0 0.0 0.0 
0.0 0.0 0.0 
0.0 0.0 0.0 
0.0 0.0 0.0 
0.0 0.0 0.0 
0.0 0.0 0.0 
0.0 0.0 0.0 
0.0 0.0 0.0 
0.0 0.0 0.0 
0.0 0.0 0.0 
0.0 0.0 0.0 
0.0 0.0 0.0 
0.0 0.0 0.0 
0.0 0.0 0.0 
0.0 0.0 0.0 
0.0 0.0 0.0 
0.0 0.0 0.0 
0.0 0.0 0.0 
0.0 0.0 0.0 
0.0 0.0 0.0 
0.0 0.0 0.0 
0.0 0.0 0.0 
0.0 0.0 0.0 
0.0 0.0 0.0 
0.0 0.0 0.0 
0.0 0.0 0.0 
0.0 0.0 0.0 
0.0 0.0 0.0 
0.0 0.0 0.0 
0.0 0.0 0.0 
0.0 0.0 0.0 
0.0 0.0 0.0 
0.0 0.0 0.0 
0.0 0.0 0.0 
0.0 0.0 0.0 
0.0 0.0 0.0 
0.0 0.0 0.0 
0.0 0.0 0.0 
0.0 0.0 0.0 
0.0 0.0 0.0 
0.0 0.0 0.0 
0.0 0.0 0.0 
0.0 0.0 0.0 
0.0 0.0 0.0 
0.0 0.0 0.0 
0.0 0.0 0.0 
0.0 0.0 0.0 
0.0 0.0 0.0 
0.0 0.0 0.0 
0.0 0.0 0.0 
0.0 0.0 0.0 
0.0 0.0 0.0 
0.0 0.0 0.0 
0.0 0.0 0.0 
0.0 0.0 0.0 
0.0 0.0 0.0 
0.0 0.0 0.0 
0.0 0.0 0.0 
0.0 0.0 0.0 
0.0 0.0 0.0 
0.0 0.0 0.0 
0.0 0.0 0.0 
0.0 0.0 0.0 
0.0 0.0 0.0 
0.0 0.0 0.0 
0.0 0.0 0.0 
0.0 0.0 0.0 
0.0 0.0 0.0 
0.0 0.0 0.0 
0.0 0.0 0.0 
0.0 0.0 0.0 
0.0 0.0 0.0 
0.0 0.0 0.0 
0.0 0.0 0.0 
0.0 0.0 0.0 
0.0 0.0 0.0 
0.0 0.0 0.0 
0.0 0.0 0.0 
0.0 0.0 0.0 
0.0 0.0 0.0 
0.0 0.0 0.0 
0.0 0.0 0.0 
0.0 0.0 0.0 
0.0 0.0 0.0 
0.0 0.0 0.0 
0.0 0.0 0.0 
0.0 0.0 0.0 
0.0 0.0 0.0 
0.0 0.0 0.0 
0.0 0.0 0.0 
0.0 0.0 0.0 
0.0 0.0 0.0 
0.0 0.0 0.0 
0.0 0.0 0.0 
0.0 0.0 0.0 
0.0 0.0 0.0 
0.0 0.0 0.0 
0.0 0.0 0.0 
0.0 0.0 0.0 
0.0 0.0 0.0 
0.0 0.0 0.0 
0.0 0.0 0.0 
0.0 0.0 0.0 
0.0 0.0 0.0 
0.0 0.0 0.0 
0.0 0.0 0.0 
0.0 0.0 0.0 
0.0 0.0 0.0 
0.0 0.0 0.0 
0.0 0.0 0.0 
0.0 0.0 0.0 
0.0 0.0 0.0 
0.0 0.0 0.0 
0.0 0.0 0.0 
0.0 0.0 0.0 
0.0 0.0 0.0 
0.0 0.0 0.0 
0.0 0.0 0.0 
0.0 0.0 0.0 
0.0 0.0 0.0 
0.0 0.0 0.0 
0.0 0.0 0.0 
0.0 0.0 0.0 
0.0 0.0 0.0 
0.0 0.0 0.0 
0.0 0.0 0.0 
0.0 0.0 0.0 
0.0 0.0 0.0 
0.0 0.0 0.0 
0.0 0.0 0.0 
0.0 0.0 0.0 
0.0 0.0 0.0 
0.0 0.0 0.0 
0.0 0.0 0.0 
0.0 0.0 0.0 
0.0 0.0 0.0 
0.0 0.0 0.0 
0.0 0.0 0.0 
0.0 0.0 0.0 
0.0 0.0 0.0 
0.0 0.0 0.0 
0.0 0.0 0.0 
0.0 0.0 0.0 
0.0 0.0 0.0 
0.0 0.0 0.0 
0.0 0.0 0.0 
0.0 0.0 0.0 
0.0 0.0 0.0 
0.0 0.0 0.0 
0.0 0.0 0.0 
0.0 0.0 0.0 
0.0 0.0 0.0 
0.0 0.0 0.0 
0.0 0.0 0.0 
0.0 0.0 0.0 
0.0 0.0 0.0 
0.0 0.0 0.0 
0.0 0.0 0.0 
0.0 0.0 0.0 
0.0 0.0 0.0 
0.0 0.0 0.0 
0.0 0.0 0.0 
0.0 0.0 0.0 
0.0 0.0 0.0 
0.0 0.0 0.0 
0.0 0.0 0.0 
0.0 0.0 0.0 
0.0 0.0 0.0 
0.0 0.0 0.0 
0.0 0.0 0.0 
0.0 0.0 0.0 
0.0 0.0 0.0 
0.0 0.0 0.0 
0.0 0.0 0.0 
0.0 0.0 0.0 
0.0 0.0 0.0 
0.0 0.0 0.0 
0.0 0.0 0.0 
0.0 0.0 0.0 
0.0 0.0 0.0 
0.0 0.0 0.0 
0.0 0.0 0.0 
0.0 0.0 0.0 
0.0 0.0 0.0 
0.0 0.0 0.0 
0.0 0.0 0.0 
0.0 0.0 0.0 
0.0 0.0 0.0 
0.0 0.0 0.0 
0.0 0.0 0.0 
0.0 0.0 0.0 
0.0 0.0 0.0 
0.0 0.0 0.0 
0.0 0.0 0.0 
0.0 0.0 0.0 
0.0 0.0 0.0 
0.0 0.0 0.0 
0.0 0.0 0.0 
0.0 0.0 0.0 
0.0 0.0 0.0 
0.0 0.0 0.0 
0.0 0.0 0.0 
0.0 0.0 0.0 
0.0 0.0 0.0 
0.0 0.0 0.0 
0.0 0.0 0.0 
0.0 0.0 0.0 
0.0 0.0 0.0 
0.0 0.0 0.0 
0.0 0.0 0.0 
0.0 0.0 0.0 
0.0 0.0 0.0 
0.0 0.0 0.0 
0.0 0.0 0.0 
0.0 0.0 0.0 
0.0 0.0 0.0 
0.0 0.0 0.0 
0.0 0.0 0.0 
0.0 0.0 0.0 
0.0 0.0 0.0 
0.0 0.0 0.0 
0.0 0.0 0.0 
0.0 0.0 0.0 
0.0 0.0 0.0 
0.0 0.0 0.0 
0.0 0.0 0.0 
0.0 0.0 0.0 
0.0 0.0 0.0 
0.0 0.0 0.0 
0.0 0.0 0.0 
0.0 0.0 0.0 
0.0 0.0 0.0 
0.0 0.0 0.0 
0.0 0.0 0.0 
0.0 0.0 0.0 
0.0 0.0 0.0 
0.0 0.0 0.0 
0.0 0.0 0.0 
0.0 0.0 0.0 
0.0 0.0 0.0 
0.0 0.0 0.0 
0.0 0.0 0.0 
0.0 0.0 0.0 
0.0 0.0 0.0 
0.0 0.0 0.0 
0.0 0.0 0.0 
0.0 0.0 0.0 
0.0 0.0 0.0 
0.0 0.0 0.0 
0.0 0.0 0.0 
0.0 0.0 0.0 
0.0 0.0 0.0 
0.0 0.0 0.0 
0.0 0.0 0.0 
0.0 0.0 0.0 
0.0 0.0 0.0 
0.0 0.0 0.0 
0.0 0.0 0.0 
0.0 0.0 0.0 
0.0 0.0 0.0 
0.0 0.0 0.0 
0.0 0.0 0.0 
0.0 0.0 0.0 
0.0 0.0 0.0 
0.0 0.0 0.0 
0.0 0.0 0.0 
0.0 0.0 0.0 
0.0 0.0 0.0 
0.0 0.0 0.0 
0.0 0.0 0.0 
0.0 0.0 0.0 
0.0 0.0 0.0 
0.0 0.0 0.0 
0.0 0.0 0.0 
0.0 0.0 0.0 
0.0 0.0 0.0 
0.0 0.0 0.0 
0.0 0.0 0.0 
0.0 0.0 0.0 
0.0 0.0 0.0 
0.0 0.0 0.0 
0.0 0.0 0.0 
0.0 0.0 0.0 
0.0 0.0 0.0 
0.0 0.0 0.0 
0.0 0.0 0.0 
0.0 0.0 0.0 
0.0 0.0 0.0 
0.0 0.0 0.0 
0.0 0.0 0.0 
0.0 0.0 0.0 
0.0 0.0 0.0 
0.0 0.0 0.0 
0.0 0.0 0.0 
0.0 0.0 0.0 
0.0 0.0 0.0 
0.0 0.0 0.0 
0.0 0.0 0.0 
0.0 0.0 0.0 
0.0 0.0 0.0 
0.0 0.0 0.0 
0.0 0.0 0.0 
0.0 0.0 0.0 
0.0 0.0 0.0 
0.0 0.0 0.0 
0.0 0.0 0.0 
0.0 0.0 0.0 
0.0 0.0 0.0 
0.0 0.0 0.0 
0.0 0.0 0.0 
0.0 0.0 0.0 
0.0 0.0 0.0 
0.0 0.0 0.0 
0.0 0.0 0.0 
0.0 0.0 0.0 
0.0 0.0 0.0 
0.0 0.0 0.0 
0.0 0.0 0.0 
0.0 0.0 0.0 
0.0 0.0 0.0 
0.0 0.0 0.0 
0.0 0.0 0.0 
0.0 0.0 0.0 
0.0 0.0 0.0 
0.0 0.0 0.0 
0.0 0.0 0.0 
0.0 0.0 0.0 
0.0 0.0 0.0 
0.0 0.0 0.0 
0.0 0.0 0.0 
0.0 0.0 0.0 
0.0 0.0 0.0 
0.0 0.0 0.0 
0.0 0.0 0.0 
0.0 0.0 0.0 
0.0 0.0 0.0 
0.0 0.0 0.0 
0.0 0.0 0.0 
0.0 0.0 0.0 
0.0 0.0 0.0 
0.0 0.0 0.0 
0.0 0.0 0.0 
0.0 0.0 0.0 
0.0 0.0 0.0 
0.0 0.0 0.0 
0.0 0.0 0.0 
0.0 0.0 0.0 
0.0 0.0 0.0 
0.0 0.0 0.0 
0.0 0.0 0.0 
0.0 0.0 0.0 
0.0 0.0 0.0 
0.0 0.0 0.0 
0.0 0.0 0.0 
0.0 0.0 0.0 
0.0 0.0 0.0 
0.0 0.0 0.0 
0.0 0.0 0.0 
0.0 0.0 0.0 
0.0 0.0 0.0 
0.0 0.0 0.0 
0.0 0.0 0.0 
0.0 0.0 0.0 
0.0 0.0 0.0 
0.0 0.0 0.0 
0.0 0.0 0.0 
0.0 0.0 0.0 
0.0 0.0 0.0 
0.0 0.0 0.0 
0.0 0.0 0.0 
0.0 0.0 0.0 
0.0 0.0 0.0 
0.0 0.0 0.0 
0.0 0.0 0.0 
0.0 0.0 0.0 
0.0 0.0 0.0 
0.0 0.0 0.0 
0.0 0.0 0.0 
0.0 0.0 0.0 
0.0 0.0 0.0 
0.0 0.0 0.0 
0.0 0.0 0.0 
0.0 0.0 0.0 
0.0 0.0 0.0 
0.0 0.0 0.0 
0.0 0.0 0.0 
0.0 0.0 0.0 
0.0 0.0 0.0 
0.0 0.0 0.0 
0.0 0.0 0.0 
0.0 0.0 0.0 
0.0 0.0 0.0 
0.0 0.0 0.0 
0.0 0.0 0.0 
0.0 0.0 0.0 
0.0 0.0 0.0 
0.0 0.0 0.0 
0.0 0.0 0.0 
0.0 0.0 0.0 
0.0 0.0 0.0 
0.0 0.0 0.0 
0.0 0.0 0.0 
0.0 0.0 0.0 
0.0 0.0 0.0 
0.0 0.0 0.0 
0.0 0.0 0.0 
0.0 0.0 0.0 
0.0 0.0 0.0 
0.0 0.0 0.0 
0.0 0.0 0.0 
0.0 0.0 0.0 
0.0 0.0 0.0 
0.0 0.0 0.0 
0.0 0.0 0.0 
0.0 0.0 0.0 
0.0 0.0 0.0 
0.0 0.0 0.0 
0.0 0.0 0.0 
0.0 0.0 0.0 
0.0 0.0 0.0 
0.0 0.0 0.0 
0.0 0.0 0.0 
0.0 0.0 0.0 
0.0 0.0 0.0 
0.0 0.0 0.0 
0.0 0.0 0.0 
0.0 0.0 0.0 
0.0 0.0 0.0 
0.0 0.0 0.0 
0.0 0.0 0.0 
0.0 0.0 0.0 
0.0 0.0 0.0 
0.0 0.0 0.0 
0.0 0.0 0.0 
0.0 0.0 0.0 
0.0 0.0 0.0 
0.0 0.0 0.0 
0.0 0.0 0.0 
0.0 0.0 0.0 
0.0 0.0 0.0 
0.0 0.0 0.0 
0.0 0.0 0.0 
0.0 0.0 0.0 
0.0 0.0 0.0 
0.0 0.0 0.0 
0.0 0.0 0.0 
0.0 0.0 0.0 
0.0 0.0 0.0 
0.0 0.0 0.0 
0.0 0.0 0.0 
0.0 0.0 0.0 
0.0 0.0 0.0 
0.0 0.0 0.0 
0.0 0.0 0.0 
0.0 0.0 0.0 
0.0 0.0 0.0 
0.0 0.0 0.0 
0.0 0.0 0.0 
0.0 0.0 0.0 
0.0 0.0 0.0 
0.0 0.0 0.0 
0.0 0.0 0.0 
0.0 0.0 0.0 
0.0 0.0 0.0 
0.0 0.0 0.0 
0.0 0.0 0.0 
0.0 0.0 0.0 
0.0 0.0 0.0 
0.0 0.0 0.0 
0.0 0.0 0.0 
0.0 0.0 0.0 
0.0 0.0 0.0 
0.0 0.0 0.0 
0.0 0.0 0.0 
0.0 0.0 0.0 
0.0 0.0 0.0 
0.0 0.0 0.0 
0.0 0.0 0.0 
0.0 0.0 0.0 
0.0 0.0 0.0 
0.0 0.0 0.0 
0.0 0.0 0.0 
0.0 0.0 0.0 
0.0 0.0 0.0 
0.0 0.0 0.0 
0.0 0.0 0.0 
0.0 0.0 0.0 
0.0 0.0 0.0 
0.0 0.0 0.0 
0.0 0.0 0.0 
0.0 0.0 0.0 
0.0 0.0 0.0 
0.0 0.0 0.0 
0.0 0.0 0.0 
0.0 0.0 0.0 
0.0 0.0 0.0 
0.0 0.0 0.0 
0.0 0.0 0.0 
0.0 0.0 0.0 
0.0 0.0 0.0 
0.0 0.0 0.0 
0.0 0.0 0.0 
0.0 0.0 0.0 
0.0 0.0 0.0 
0.0 0.0 0.0 
0.0 0.0 0.0 
0.0 0.0 0.0 
0.0 0.0 0.0 
0.0 0.0 0.0 
0.0 0.0 0.0 
0.0 0.0 0.0 
0.0 0.0 0.0 
0.0 0.0 0.0 
0.0 0.0 0.0 
0.0 0.0 0.0 
0.0 0.0 0.0 
0.0 0.0 0.0 
0.0 0.0 0.0 
0.0 0.0 0.0 
0.0 0.0 0.0 
0.0 0.0 0.0 
0.0 0.0 0.0 
0.0 0.0 0.0 
0.0 0.0 0.0 
0.0 0.0 0.0 
0.0 0.0 0.0 
0.0 0.0 0.0 
0.0 0.0 0.0 
0.0 0.0 0.0 
0.0 0.0 0.0 
0.0 0.0 0.0 
0.0 0.0 0.0 
0.0 0.0 0.0 
0.0 0.0 0.0 
0.0 0.0 0.0 
0.0 0.0 0.0 
0.0 0.0 0.0 
0.0 0.0 0.0 
0.0 0.0 0.0 
0.0 0.0 0.0 
0.0 0.0 0.0 
0.0 0.0 0.0 
0.0 0.0 0.0 
0.0 0.0 0.0 
0.0 0.0 0.0 
0.0 0.0 0.0 
0.0 0.0 0.0 
0.0 0.0 0.0 
0.0 0.0 0.0 
0.0 0.0 0.0 
0.0 0.0 0.0 
0.0 0.0 0.0 
0.0 0.0 0.0 
0.0 0.0 0.0 
0.0 0.0 0.0 
0.0 0.0 0.0 
0.0 0.0 0.0 
0.0 0.0 0.0 
0.0 0.0 0.0 
0.0 0.0 0.0 
0.0 0.0 0.0 
0.0 0.0 0.0 
0.0 0.0 0.0 
0.0 0.0 0.0 
0.0 0.0 0.0 
0.0 0.0 0.0 
0.0 0.0 0.0 
0.0 0.0 0.0 
0.0 0.0 0.0 
0.0 0.0 0.0 
0.0 0.0 0.0 
0.0 0.0 0.0 
0.0 0.0 0.0 
0.0 0.0 0.0 
0.0 0.0 0.0 
0.0 0.0 0.0 
0.0 0.0 0.0 
0.0 0.0 0.0 
0.0 0.0 0.0 
0.0 0.0 0.0 
0.0 0.0 0.0 
0.0 0.0 0.0 
0.0 0.0 0.0 
0.0 0.0 0.0 
0.0 0.0 0.0 
0.0 0.0 0.0 
0.0 0.0 0.0 
0.0 0.0 0.0 
0.0 0.0 0.0 
0.0 0.0 0.0 
0.0 0.0 0.0 
0.0 0.0 0.0 
0.0 0.0 0.0 
0.0 0.0 0.0 
0.0 0.0 0.0 
0.0 0.0 0.0 
0.0 0.0 0.0 
0.0 0.0 0.0 
0.0 0.0 0.0 
0.0 0.0 0.0 
0.0 0.0 0.0 
0.0 0.0 0.0 
0.0 0.0 0.0 
0.0 0.0 0.0 
0.0 0.0 0.0 
0.0 0.0 0.0 
0.0 0.0 0.0 
0.0 0.0 0.0 
0.0 0.0 0.0 
0.0 0.0 0.0 
0.0 0.0 0.0 
0.0 0.0 0.0 
0.0 0.0 0.0 
0.0 0.0 0.0 
0.0 0.0 0.0 
0.0 0.0 0.0 
0.0 0.0 0.0 
0.0 0.0 0.0 
0.0 0.0 0.0 
0.0 0.0 0.0 
0.0 0.0 0.0 
0.0 0.0 0.0 
0.0 0.0 0.0 
0.0 0.0 0.0 
0.0 0.0 0.0 
0.0 0.0 0.0 
0.0 0.0 0.0 
0.0 0.0 0.0 
0.0 0.0 0.0 
0.0 0.0 0.0 
0.0 0.0 0.0 
0.0 0.0 0.0 
0.0 0.0 0.0 
0.0 0.0 0.0 
0.0 0.0 0.0 
0.0 0.0 0.0 
0.0 0.0 0.0 
0.0 0.0 0.0 
0.0 0.0 0.0 
0.0 0.0 0.0 
0.0 0.0 0.0 
0.0 0.0 0.0 
0.0 0.0 0.0 
0.0 0.0 0.0 
0.0 0.0 0.0 
0.0 0.0 0.0 
0.0 0.0 0.0 
0.0 0.0 0.0 
0.0 0.0 0.0 
0.0 0.0 0.0 
0.0 0.0 0.0 
0.0 0.0 0.0 
0.0 0.0 0.0 
0.0 0.0 0.0 
0.0 0.0 0.0 
0.0 0.0 0.0 
0.0 0.0 0.0 
0.0 0.0 0.0 
0.0 0.0 0.0 
0.0 0.0 0.0 
0.0 0.0 0.0 
0.0 0.0 0.0 
0.0 0.0 0.0 
0.0 0.0 0.0 
0.0 0.0 0.0 
0.0 0.0 0.0 
0.0 0.0 0.0 
0.0 0.0 0.0 
0.0 0.0 0.0 
0.0 0.0 0.0 
0.0 0.0 0.0 
0.0 0.0 0.0 
0.0 0.0 0.0 
0.0 0.0 0.0 
0.0 0.0 0.0 
0.0 0.0 0.0 
0.0 0.0 0.0 
0.0 0.0 0.0 
0.0 0.0 0.0 
0.0 0.0 0.0 
0.0 0.0 0.0 
0.0 0.0 0.0 
0.0 0.0 0.0 
0.0 0.0 0.0 
0.0 0.0 0.0 
0.0 0.0 0.0 
0.0 0.0 0.0 
0.0 0.0 0.0 
0.0 0.0 0.0 
0.0 0.0 0.0 
0.0 0.0 0.0 
0.0 0.0 0.0 
0.0 0.0 0.0 
0.0 0.0 0.0 
0.0 0.0 0.0 
0.0 0.0 0.0 
0.0 0.0 0.0 
0.0 0.0 0.0 
0.0 0.0 0.0 
0.0 0.0 0.0 
0.0 0.0 0.0 
0.0 0.0 0.0 
0.0 0.0 0.0 
0.0 0.0 0.0 
0.0 0.0 0.0 
0.0 0.0 0.0 
0.0 0.0 0.0 
0.0 0.0 0.0 
0.0 0.0 0.0 
0.0 0.0 0.0 
0.0 0.0 0.0 
0.0 0.0 0.0 
0.0 0.0 0.0 
0.0 0.0 0.0 
0.0 0.0 0.0 
0.0 0.0 0.0 
0.0 0.0 0.0 
0.0 0.0 0.0 
0.0 0.0 0.0 
0.0 0.0 0.0 
0.0 0.0 0.0 
0.0 0.0 0.0 
0.0 0.0 0.0 
0.0 0.0 0.0 
0.0 0.0 0.0 
0.0 0.0 0.0 
0.0 0.0 0.0 
0.0 0.0 0.0 
0.0 0.0 0.0 
0.0 0.0 0.0 
0.0 0.0 0.0 
0.0 0.0 0.0 
0.0 0.0 0.0 
0.0 0.0 0.0 
0.0 0.0 0.0 
0.0 0.0 0.0 
0.0 0.0 0.0 
0.0 0.0 0.0 
0.0 0.0 0.0 
0.0 0.0 0.0 
0.0 0.0 0.0 
0.0 0.0 0.0 
0.0 0.0 0.0 
0.0 0.0 0.0 
0.0 0.0 0.0 
0.0 0.0 0.0 
0.0 0.0 0.0 
0.0 0.0 0.0 
0.0 0.0 0.0 
0.0 0.0 0.0 
0.0 0.0 0.0 
0.0 0.0 0.0 
0.0 0.0 0.0 
0.0 0.0 0.0 
0.0 0.0 0.0 
0.0 0.0 0.0 
0.0 0.0 0.0 
0.0 0.0 0.0 
0.0 0.0 0.0 
0.0 0.0 0.0 
0.0 0.0 0.0 
0.0 0.0 0.0 
0.0 0.0 0.0 
0.0 0.0 0.0 
0.0 0.0 0.0 
0.0 0.0 0.0 
0.0 0.0 0.0 
0.0 0.0 0.0 
0.0 0.0 0.0 
0.0 0.0 0.0 
0.0 0.0 0.0 
0.0 0.0 0.0 
0.0 0.0 0.0 
0.0 0.0 0.0 
0.0 0.0 0.0 
0.0 0.0 0.0 
0.0 0.0 0.0 
0.0 0.0 0.0 
0.0 0.0 0.0 
0.0 0.0 0.0 
0.0 0.0 0.0 
0.0 0.0 0.0 
0.0 0.0 0.0 
0.0 0.0 0.0 
0.0 0.0 0.0 
0.0 0.0 0.0 
0.0 0.0 0.0 
0.0 0.0 0.0 
0.0 0.0 0.0 
0.0 0.0 0.0 
0.0 0.0 0.0 
0.0 0.0 0.0 
0.0 0.0 0.0 
0.0 0.0 0.0 
0.0 0.0 0.0 
0.0 0.0 0.0 
0.0 0.0 0.0 
0.0 0.0 0.0 
0.0 0.0 0.0 
0.0 0.0 0.0 
0.0 0.0 0.0 
0.0 0.0 0.0 
0.0 0.0 0.0 
0.0 0.0 0.0 
0.0 0.0 0.0 
0.0 0.0 0.0 
0.0 0.0 0.0 
0.0 0.0 0.0 
0.0 0.0 0.0 
0.0 0.0 0.0 
0.0 0.0 0.0 
0.0 0.0 0.0 
0.0 0.0 0.0 
0.0 0.0 0.0 
0.0 0.0 0.0 
0.0 0.0 0.0 
0.0 0.0 0.0 
0.0 0.0 0.0 
0.0 0.0 0.0 
0.0 0.0 0.0 
0.0 0.0 0.0 
0.0 0.0 0.0 
0.0 0.0 0.0 
0.0 0.0 0.0 
0.0 0.0 0.0 
0.0 0.0 0.0 
0.0 0.0 0.0 
0.0 0.0 0.0 
0.0 0.0 0.0 
0.0 0.0 0.0 
0.0 0.0 0.0 
0.0 0.0 0.0 
0.0 0.0 0.0 
0.0 0.0 0.0 
0.0 0.0 0.0 
0.0 0.0 0.0 
0.0 0.0 0.0 
0.0 0.0 0.0 
0.0 0.0 0.0 
0.0 0.0 0.0 
0.0 0.0 0.0 
0.0 0.0 0.0 
0.0 0.0 0.0 
0.0 0.0 0.0 
0.0 0.0 0.0 
0.0 0.0 0.0 
0.0 0.0 0.0 
0.0 0.0 0.0 
0.0 0.0 0.0 
0.0 0.0 0.0 
0.0 0.0 0.0 
0.0 0.0 0.0 
0.0 0.0 0.0 
0.0 0.0 0.0 
0.0 0.0 0.0 
0.0 0.0 0.0 
0.0 0.0 0.0 
0.0 0.0 0.0 
0.0 0.0 0.0 
0.0 0.0 0.0 
0.0 0.0 0.0 
0.0 0.0 0.0 
0.0 0.0 0.0 
0.0 0.0 0.0 
0.0 0.0 0.0 
0.0 0.0 0.0 
0.0 0.0 0.0 
0.0 0.0 0.0 
0.0 0.0 0.0 
0.0 0.0 0.0 
0.0 0.0 0.0 
0.0 0.0 0.0 
0.0 0.0 0.0 
0.0 0.0 0.0 
0.0 0.0 0.0 
0.0 0.0 0.0 
0.0 0.0 0.0 
0.0 0.0 0.0 
0.0 0.0 0.0 
0.0 0.0 0.0 
0.0 0.0 0.0 
0.0 0.0 0.0 
0.0 0.0 0.0 
0.0 0.0 0.0 
0.0 0.0 0.0 
0.0 0.0 0.0 
0.0 0.0 0.0 
0.0 0.0 0.0 
0.0 0.0 0.0 
0.0 0.0 0.0 
0.0 0.0 0.0 
0.0 0.0 0.0 
0.0 0.0 0.0 
0.0 0.0 0.0 
0.0 0.0 0.0 
0.0 0.0 0.0 
0.0 0.0 0.0 
0.0 0.0 0.0 
0.0 0.0 0.0 
0.0 0.0 0.0 
0.0 0.0 0.0 
0.0 0.0 0.0 
0.0 0.0 0.0 
0.0 0.0 0.0 
0.0 0.0 0.0 
0.0 0.0 0.0 
0.0 0.0 0.0 
0.0 0.0 0.0 
0.0 0.0 0.0 
0.0 0.0 0.0 
0.0 0.0 0.0 
0.0 0.0 0.0 
0.0 0.0 0.0 
0.0 0.0 0.0 
0.0 0.0 0.0 
0.0 0.0 0.0 
0.0 0.0 0.0 
0.0 0.0 0.0 
0.0 0.0 0.0 
0.0 0.0 0.0 
0.0 0.0 0.0 
0.0 0.0 0.0 
0.0 0.0 0.0 
0.0 0.0 0.0 
0.0 0.0 0.0 
0.0 0.0 0.0 
0.0 0.0 0.0 
0.0 0.0 0.0 
0.0 0.0 0.0 
0.0 0.0 0.0 
0.0 0.0 0.0 
0.0 0.0 0.0 
0.0 0.0 0.0 
0.0 0.0 0.0 
0.0 0.0 0.0 
0.0 0.0 0.0 
0.0 0.0 0.0 
0.0 0.0 0.0 
0.0 0.0 0.0 
0.0 0.0 0.0 
0.0 0.0 0.0 
0.0 0.0 0.0 
0.0 0.0 0.0 
0.0 0.0 0.0 
0.0 0.0 0.0 
0.0 0.0 0.0 
0.0 0.0 0.0 
0.0 0.0 0.0 
0.0 0.0 0.0 
0.0 0.0 0.0 
0.0 0.0 0.0 
0.0 0.0 0.0 
0.0 0.0 0.0 
0.0 0.0 0.0 
0.0 0.0 0.0 
0.0 0.0 0.0 
0.0 0.0 0.0 
0.0 0.0 0.0 
0.0 0.0 0.0 
0.0 0.0 0.0 
0.0 0.0 0.0 
0.0 0.0 0.0 
0.0 0.0 0.0 
0.0 0.0 0.0 
0.0 0.0 0.0 
0.0 0.0 0.0 
0.0 0.0 0.0 
0.0 0.0 0.0 
0.0 0.0 0.0 
0.0 0.0 0.0 
0.0 0.0 0.0 
0.0 0.0 0.0 
0.0 0.0 0.0 
0.0 0.0 0.0 
0.0 0.0 0.0 
0.0 0.0 0.0 
0.0 0.0 0.0 
0.0 0.0 0.0 
0.0 0.0 0.0 
0.0 0.0 0.0 
0.0 0.0 0.0 
0.0 0.0 0.0 
0.0 0.0 0.0 
0.0 0.0 0.0 
0.0 0.0 0.0 
0.0 0.0 0.0 
0.0 0.0 0.0 
0.0 0.0 0.0 
0.0 0.0 0.0 
0.0 0.0 0.0 
0.0 0.0 0.0 
0.0 0.0 0.0 
0.0 0.0 0.0 
0.0 0.0 0.0 
0.0 0.0 0.0 
0.0 0.0 0.0 
0.0 0.0 0.0 
0.0 0.0 0.0 
0.0 0.0 0.0 
0.0 0.0 0.0 
0.0 0.0 0.0 
0.0 0.0 0.0 
0.0 0.0 0.0 
0.0 0.0 0.0 
0.0 0.0 0.0 
0.0 0.0 0.0 
0.0 0.0 0.0 
0.0 0.0 0.0 
0.0 0.0 0.0 
0.0 0.0 0.0 
0.0 0.0 0.0 
0.0 0.0 0.0 
0.0 0.0 0.0 
0.0 0.0 0.0 
0.0 0.0 0.0 
0.0 0.0 0.0 
0.0 0.0 0.0 
0.0 0.0 0.0 
0.0 0.0 0.0 
0.0 0.0 0.0 
0.0 0.0 0.0 
0.0 0.0 0.0 
0.0 0.0 0.0 
0.0 0.0 0.0 
0.0 0.0 0.0 
0.0 0.0 0.0 
0.0 0.0 0.0 
0.0 0.0 0.0 
0.0 0.0 0.0 
0.0 0.0 0.0 
0.0 0.0 0.0 
0.0 0.0 0.0 
0.0 0.0 0.0 
0.0 0.0 0.0 
0.0 0.0 0.0 
0.0 0.0 0.0 
0.0 0.0 0.0 
0.0 0.0 0.0 
0.0 0.0 0.0 
0.0 0.0 0.0 
0.0 0.0 0.0 
0.0 0.0 0.0 
0.0 0.0 0.0 
0.0 0.0 0.0 
0.0 0.0 0.0 
0.0 0.0 0.0 
0.0 0.0 0.0 
0.0 0.0 0.0 
0.0 0.0 0.0 
0.0 0.0 0.0 
0.0 0.0 0.0 
0.0 0.0 0.0 
0.0 0.0 0.0 
0.0 0.0 0.0 
0.0 0.0 0.0 
0.0 0.0 0.0 
0.0 0.0 0.0 
0.0 0.0 0.0 
0.0 0.0 0.0 
0.0 0.0 0.0 
0.0 0.0 0.0 
0.0 0.0 0.0 
0.0 0.0 0.0 
0.0 0.0 0.0 
0.0 0.0 0.0 
0.0 0.0 0.0 
0.0 0.0 0.0 
0.0 0.0 0.0 
0.0 0.0 0.0 
0.0 0.0 0.0 
0.0 0.0 0.0 
0.0 0.0 0.0 
0.0 0.0 0.0 
0.0 0.0 0.0 
0.0 0.0 0.0 
0.0 0.0 0.0 
0.0 0.0 0.0 
0.0 0.0 0.0 
0.0 0.0 0.0 
0.0 0.0 0.0 
0.0 0.0 0.0 
0.0 0.0 0.0 
0.0 0.0 0.0 
0.0 0.0 0.0 
0.0 0.0 0.0 
0.0 0.0 0.0 
0.0 0.0 0.0 
0.0 0.0 0.0 
0.0 0.0 0.0 
0.0 0.0 0.0 
0.0 0.0 0.0 
0.0 0.0 0.0 
0.0 0.0 0.0 
0.0 0.0 0.0 
0.0 0.0 0.0 
0.0 0.0 0.0 
0.0 0.0 0.0 
0.0 0.0 0.0 
0.0 0.0 0.0 
0.0 0.0 0.0 
0.0 0.0 0.0 
0.0 0.0 0.0 
0.0 0.0 0.0 
0.0 0.0 0.0 
0.0 0.0 0.0 
0.0 0.0 0.0 
0.0 0.0 0.0 
0.0 0.0 0.0 
0.0 0.0 0.0 
0.0 0.0 0.0 
0.0 0.0 0.0 
0.0 0.0 0.0 
0.0 0.0 0.0 
0.0 0.0 0.0 
0.0 0.0 0.0 
0.0 0.0 0.0 
0.0 0.0 0.0 
0.0 0.0 0.0 
0.0 0.0 0.0 
0.0 0.0 0.0 
0.0 0.0 0.0 
0.0 0.0 0.0 
0.0 0.0 0.0 
0.0 0.0 0.0 
0.0 0.0 0.0 
0.0 0.0 0.0 
0.0 0.0 0.0 
0.0 0.0 0.0 
0.0 0.0 0.0 
0.0 0.0 0.0 
0.0 0.0 0.0 
0.0 0.0 0.0 
0.0 0.0 0.0 
0.0 0.0 0.0 
0.0 0.0 0.0 
0.0 0.0 0.0 
0.0 0.0 0.0 
0.0 0.0 0.0 
0.0 0.0 0.0 
0.0 0.0 0.0 
0.0 0.0 0.0 
0.0 0.0 0.0 
0.0 0.0 0.0 
0.0 0.0 0.0 
0.0 0.0 0.0 
0.0 0.0 0.0 
0.0 0.0 0.0 
0.0 0.0 0.0 
0.0 0.0 0.0 
0.0 0.0 0.0 
0.0 0.0 0.0 
0.0 0.0 0.0 
0.0 0.0 0.0 
0.0 0.0 0.0 
0.0 0.0 0.0 
0.0 0.0 0.0 
0.0 0.0 0.0 
0.0 0.0 0.0 
0.0 0.0 0.0 
0.0 0.0 0.0 
0.0 0.0 0.0 
0.0 0.0 0.0 
0.0 0.0 0.0 
0.0 0.0 0.0 
0.0 0.0 0.0 
0.0 0.0 0.0 
0.0 0.0 0.0 
0.0 0.0 0.0 
0.0 0.0 0.0 
0.0 0.0 0.0 
0.0 0.0 0.0 
0.0 0.0 0.0 
0.0 0.0 0.0 
0.0 0.0 0.0 
0.0 0.0 0.0 
0.0 0.0 0.0 
0.0 0.0 0.0 
0.0 0.0 0.0 
0.0 0.0 0.0 
0.0 0.0 0.0 
0.0 0.0 0.0 
0.0 0.0 0.0 
0.0 0.0 0.0 
0.0 0.0 0.0 
0.0 0.0 0.0 
0.0 0.0 0.0 
0.0 0.0 0.0 
0.0 0.0 0.0 
0.0 0.0 0.0 
0.0 0.0 0.0 
0.0 0.0 0.0 
0.0 0.0 0.0 
0.0 0.0 0.0 
0.0 0.0 0.0 
0.0 0.0 0.0 
0.0 0.0 0.0 
0.0 0.0 0.0 
0.0 0.0 0.0 
0.0 0.0 0.0 
0.0 0.0 0.0 
0.0 0.0 0.0 
0.0 0.0 0.0 
0.0 0.0 0.0 
0.0 0.0 0.0 
0.0 0.0 0.0 
0.0 0.0 0.0 
0.0 0.0 0.0 
0.0 0.0 0.0 
0.0 0.0 0.0 
0.0 0.0 0.0 
0.0 0.0 0.0 
0.0 0.0 0.0 
0.0 0.0 0.0 
0.0 0.0 0.0 
0.0 0.0 0.0 
0.0 0.0 0.0 
0.0 0.0 0.0 
0.0 0.0 0.0 
0.0 0.0 0.0 
0.0 0.0 0.0 
0.0 0.0 0.0 
0.0 0.0 0.0 
0.0 0.0 0.0 
0.0 0.0 0.0 
0.0 0.0 0.0 
0.0 0.0 0.0 
0.0 0.0 0.0 
0.0 0.0 0.0 
0.0 0.0 0.0 
0.0 0.0 0.0 
0.0 0.0 0.0 
0.0 0.0 0.0 
0.0 0.0 0.0 
0.0 0.0 0.0 
0.0 0.0 0.0 
0.0 0.0 0.0 
0.0 0.0 0.0 
0.0 0.0 0.0 
0.0 0.0 0.0 
0.0 0.0 0.0 
0.0 0.0 0.0 
0.0 0.0 0.0 
0.0 0.0 0.0 
0.0 0.0 0.0 
0.0 0.0 0.0 
0.0 0.0 0.0 
0.0 0.0 0.0 
0.0 0.0 0.0 
0.0 0.0 0.0 
0.0 0.0 0.0 
0.0 0.0 0.0 
0.0 0.0 0.0 
0.0 0.0 0.0 
0.0 0.0 0.0 
0.0 0.0 0.0 
0.0 0.0 0.0 
0.0 0.0 0.0 
0.0 0.0 0.0 
0.0 0.0 0.0 
0.0 0.0 0.0 
0.0 0.0 0.0 
0.0 0.0 0.0 
0.0 0.0 0.0 
0.0 0.0 0.0 
0.0 0.0 0.0 
0.0 0.0 0.0 
0.0 0.0 0.0 
0.0 0.0 0.0 
0.0 0.0 0.0 
0.0 0.0 0.0 
0.0 0.0 0.0 
0.0 0.0 0.0 
0.0 0.0 0.0 
0.0 0.0 0.0 
0.0 0.0 0.0 
0.0 0.0 0.0 
0.0 0.0 0.0 
0.0 0.0 0.0 
0.0 0.0 0.0 
0.0 0.0 0.0 
0.0 0.0 0.0 
0.0 0.0 0.0 
0.0 0.0 0.0 
0.0 0.0 0.0 
0.0 0.0 0.0 
0.0 0.0 0.0 
0.0 0.0 0.0 
0.0 0.0 0.0 
0.0 0.0 0.0 
0.0 0.0 0.0 
0.0 0.0 0.0 
0.0 0.0 0.0 
0.0 0.0 0.0 
0.0 0.0 0.0 
0.0 0.0 0.0 
0.0 0.0 0.0 
0.0 0.0 0.0 
0.0 0.0 0.0 
0.0 0.0 0.0 
0.0 0.0 0.0 
0.0 0.0 0.0 
0.0 0.0 0.0 
0.0 0.0 0.0 
0.0 0.0 0.0 
0.0 0.0 0.0 
0.0 0.0 0.0 
0.0 0.0 0.0 
0.0 0.0 0.0 
0.0 0.0 0.0 
0.0 0.0 0.0 
0.0 0.0 0.0 
0.0 0.0 0.0 
0.0 0.0 0.0 
0.0 0.0 0.0 
0.0 0.0 0.0 
0.0 0.0 0.0 
0.0 0.0 0.0 
0.0 0.0 0.0 
0.0 0.0 0.0 
0.0 0.0 0.0 
0.0 0.0 0.0 
0.0 0.0 0.0 
0.0 0.0 0.0 
0.0 0.0 0.0 
0.0 0.0 0.0 
0.0 0.0 0.0 
0.0 0.0 0.0 
0.0 0.0 0.0 
0.0 0.0 0.0 
0.0 0.0 0.0 
0.0 0.0 0.0 
0.0 0.0 0.0 
0.0 0.0 0.0 
0.0 0.0 0.0 
0.0 0.0 0.0 
0.0 0.0 0.0 
0.0 0.0 0.0 
0.0 0.0 0.0 
0.0 0.0 0.0 
0.0 0.0 0.0 
0.0 0.0 0.0 
0.0 0.0 0.0 
0.0 0.0 0.0 
0.0 0.0 0.0 
0.0 0.0 0.0 
0.0 0.0 0.0 
0.0 0.0 0.0 
0.0 0.0 0.0 
0.0 0.0 0.0 
0.0 0.0 0.0 
0.0 0.0 0.0 
0.0 0.0 0.0 
0.0 0.0 0.0 
0.0 0.0 0.0 
0.0 0.0 0.0 
0.0 0.0 0.0 
0.0 0.0 0.0 
0.0 0.0 0.0 
0.0 0.0 0.0 
0.0 0.0 0.0 
0.0 0.0 0.0 
0.0 0.0 0.0 
0.0 0.0 0.0 

TENSORS element_materi_stress float
-2.542845025005e+01 1.421615019379e+01 0.0 
1.421615019379e+01 -4.064438548582e+01 0.0 
0.0 0.0 -1.942185072076e+01 
-2.858631488825e+01 1.526247838217e+01 0.0 
1.526247838217e+01 -4.061984069045e+01 0.0 
0.0 0.0 -2.036184667361e+01 
-1.243128412728e+02 1.368075837939e+01 0.0 
1.368075837939e+01 -2.838451557180e+02 0.0 
0.0 0.0 -1.220473990972e+02 
-1.158000843470e+02 1.977709056292e+00 0.0 
1.977709056292e+00 -2.659940510141e+02 0.0 
0.0 0.0 -1.141382406083e+02 
-6.349574811762e+01 -2.637075110075e-01 0.0 
-2.637075110075e-01 -1.284263995191e+02 0.0 
0.0 0.0 -5.717664429103e+01 
-1.908902649166e+01 4.357737084160e+00 0.0 
4.357737084160e+00 -3.955751168151e+01 0.0 
0.0 0.0 -1.719396145195e+01 
-6.308013858731e+01 -6.306714072332e-01 0.0 
-6.306714072332e-01 -1.286544703541e+02 0.0 
0.0 0.0 -5.712038268241e+01 
-2.725785842265e+01 1.703233740566e+01 0.0 
1.703233740566e+01 -4.535838286086e+01 0.0 
0.0 0.0 -2.138487238505e+01 
-6.374804293642e+01 1.697259375771e+00 0.0 
1.697259375771e+00 -1.292943800974e+02 0.0 
0.0 0.0 -5.751272691015e+01 
-1.151789255090e+02 1.146314638958e+00 0.0 
1.146314638958e+00 -2.643545575256e+02 0.0 
0.0 0.0 -1.134600449104e+02 
-9.800496981101e+01 -3.022557077089e-01 0.0 
-3.022557077089e-01 -2.518616787609e+02 0.0 
0.0 0.0 -1.045599945716e+02 
-2.113713847540e+01 1.359763492614e+01 0.0 
1.359763492614e+01 -3.127963022964e+01 0.0 
0.0 0.0 -1.532503061151e+01 
-1.511669961500e+02 3.654269835246e-01 0.0 
3.654269835246e-01 -3.616721790440e+02 0.0 
0.0 0.0 -1.534517525582e+02 
-7.283288178067e+01 1.428410573538e+00 0.0 
1.428410573538e+00 -1.460071360978e+02 0.0 
0.0 0.0 -6.525200536353e+01 
-1.558412046174e+02 2.467885006273e+00 0.0 
2.467885006273e+00 -3.694662005105e+02 0.0 
0.0 0.0 -1.571922215384e+02 
-1.181646956108e+02 8.375683218836e-01 0.0 
8.375683218836e-01 -2.740773159124e+02 0.0 
0.0 0.0 -1.172726034570e+02 
-6.269407774902e+01 9.095472345343e-01 0.0 
9.095472345343e-01 -1.244531727242e+02 0.0 
0.0 0.0 -5.574417514196e+01 
-1.923016088647e+01 2.749280966506e+00 0.0 
2.749280966506e+00 -4.018989813167e+01 0.0 
0.0 0.0 -1.742601770544e+01 
-2.910125949846e+01 -3.343426416090e-02 0.0 
-3.343426416090e-02 -7.709466497717e+01 0.0 
0.0 0.0 -3.145877734269e+01 
-2.960940687872e+01 -6.834859763145e-01 0.0 
-6.834859763145e-01 -7.977087391612e+01 0.0 
0.0 0.0 -3.241408423845e+01 
-1.162058822275e+02 3.132028940716e+00 0.0 
3.132028940716e+00 -2.652675526688e+02 0.0 
0.0 0.0 -1.140420304689e+02 
-3.002009781506e+01 8.688601651847e+00 0.0 
8.688601651847e+00 -4.171753630893e+01 0.0 
0.0 0.0 -2.112129023720e+01 
-3.815484187762e+01 1.187356558192e+01 0.0 
1.187356558192e+01 -5.684947397133e+01 0.0 
0.0 0.0 -2.810129475469e+01 
-1.369275002852e+02 1.236258854818e+01 0.0 
1.236258854818e+01 -3.337855477683e+02 0.0 
0.0 0.0 -1.408139144160e+02 
-8.155133845457e+01 3.001595652860e+00 0.0 
3.001595652860e+00 -1.646484440471e+02 0.0 
0.0 0.0 -7.345993475049e+01 
-1.036723083358e+02 1.051844889424e+00 0.0 
1.051844889424e+00 -2.648099902542e+02 0.0 
0.0 0.0 -1.101446895770e+02 
-5.848917124151e+01 2.199097475194e+00 0.0 
2.199097475194e+00 -1.088604949558e+02 0.0 
0.0 0.0 -4.980489985918e+01 
-1.346980846349e+02 1.951461992734e+01 0.0 
1.951461992734e+01 -3.153752858821e+02 0.0 
0.0 0.0 -1.346220111551e+02 
-8.339077968242e+01 5.522164244821e+00 0.0 
5.522164244821e+00 -1.657438908397e+02 0.0 
0.0 0.0 -7.434040115664e+01 
-1.407539518429e+02 1.095497363670e+01 0.0 
1.095497363670e+01 -3.428680297454e+02 0.0 
0.0 0.0 -1.446865944765e+02 
-2.525762506298e+01 -1.205423862342e+00 0.0 
-1.205423862342e+00 -5.793451822699e+01 0.0 
0.0 0.0 -2.455764298699e+01 
-1.399376619629e+01 -1.396256672243e+00 0.0 
-1.396256672243e+00 -2.595872762438e+01 0.0 
0.0 0.0 -1.158574814620e+01 
-1.258215539882e+02 1.350748851908e+01 0.0 
1.350748851908e+01 -2.844136812163e+02 0.0 
0.0 0.0 -1.226705705614e+02 
-1.266937295899e+02 1.114861824990e+00 0.0 
1.114861824990e+00 -3.131422378530e+02 0.0 
0.0 0.0 -1.315507902329e+02 
-1.484353510234e+02 8.053939696307e+00 0.0 
8.053939696307e+00 -3.563187227127e+02 0.0 
0.0 0.0 -1.510262221208e+02 
-1.583101717634e+02 3.409929117318e+00 0.0 
3.409929117318e+00 -3.761836851861e+02 0.0 
0.0 0.0 -1.599481570848e+02 
-1.591191990997e+02 6.144319563450e+00 0.0 
6.144319563450e+00 -3.762887931894e+02 0.0 
0.0 0.0 -1.602223976867e+02 
-1.395511804024e+02 1.568201897980e+01 0.0 
1.568201897980e+01 -3.355562811573e+02 0.0 
0.0 0.0 -1.421322384679e+02 
-5.509724523149e+01 1.379432135327e+00 0.0 
1.379432135327e+00 -1.099023484842e+02 0.0 
0.0 0.0 -4.909987811471e+01 
-5.493745960688e+01 -1.337681802208e+00 0.0 
-1.337681802208e+00 -1.104726252619e+02 0.0 
0.0 0.0 -4.922302546065e+01 
-4.597951093126e+01 8.539436635468e+00 0.0 
8.539436635468e+00 -7.247659095787e+01 0.0 
0.0 0.0 -3.513683056674e+01 
-1.508022503348e+02 8.890789549411e+00 0.0 
8.890789549411e+00 -3.589760228896e+02 0.0 
0.0 0.0 -1.525334819673e+02 
-2.098292205142e+01 1.445823495587e+01 0.0 
1.445823495587e+01 -3.620519675504e+01 0.0 
0.0 0.0 -1.675643564194e+01 
-5.971202842248e+01 1.911720128281e+00 0.0 
1.911720128281e+00 -1.094881261121e+02 0.0 
0.0 0.0 -5.036004636038e+01 
-1.116988618501e+02 8.483342275102e-01 0.0 
8.483342275102e-01 -2.546671021229e+02 0.0 
0.0 0.0 -1.095097891919e+02 
-2.274021938880e+01 1.503679038345e+01 0.0 
1.503679038345e+01 -3.687999131546e+01 0.0 
0.0 0.0 -1.748606321128e+01 
-1.913932462173e+01 -1.710325296089e+00 0.0 
-1.710325296089e+00 -4.330551211166e+01 0.0 
0.0 0.0 -1.833345102002e+01 
-1.116397298020e+02 4.476383121654e-01 0.0 
4.476383121654e-01 -2.561479976141e+02 0.0 
0.0 0.0 -1.099363182248e+02 
-1.587164391003e+01 -1.453105997323e+00 0.0 
-1.453105997323e+00 -2.569269318302e+01 0.0 
0.0 0.0 -1.245917455921e+01 
-7.004334340531e+01 2.592094126970e+00 0.0 
2.592094126970e+00 -1.375232831444e+02 0.0 
0.0 0.0 -6.186998796492e+01 
-4.225904802836e+01 1.002529324028e+01 0.0 
1.002529324028e+01 -6.484600628318e+01 0.0 
0.0 0.0 -3.173151629346e+01 
-3.689738394227e+01 -2.526955467097e-01 0.0 
-2.526955467097e-01 -9.692693306089e+01 0.0 
0.0 0.0 -3.974729510095e+01 
-2.898740389711e+01 -5.182415096316e-01 0.0 
-5.182415096316e-01 -7.937601296532e+01 0.0 
0.0 0.0 -3.210902505873e+01 
-3.843445403685e+01 5.555152113226e+00 0.0 
5.555152113226e+00 -5.889200016016e+01 0.0 
0.0 0.0 -2.879793625910e+01 
-1.218731784863e+02 1.025352337993e+01 0.0 
1.025352337993e+01 -2.784025084387e+02 0.0 
0.0 0.0 -1.196827060775e+02 
-4.798633094083e+01 -7.682117897597e-02 0.0 
-7.682117897597e-02 -1.278697659954e+02 0.0 
0.0 0.0 -5.235682908088e+01 
-3.723721671613e+01 -8.122832284919e-01 0.0 
-8.122832284919e-01 -9.990976326895e+01 0.0 
0.0 0.0 -4.074409399552e+01 
-1.263595846387e+02 -1.939436689649e-01 0.0 
-1.939436689649e-01 -3.130505584188e+02 0.0 
0.0 0.0 -1.314230429173e+02 
-2.308533612355e+01 -1.018310792299e+00 0.0 
-1.018310792299e+00 -5.911315660515e+01 0.0 
0.0 0.0 -2.425954781861e+01 
-1.186281974596e+02 2.623384289340e+00 0.0 
2.623384289340e+00 -2.743122614711e+02 0.0 
0.0 0.0 -1.174821376792e+02 
-1.982221716460e+01 -7.171579924154e-01 0.0 
-7.171579924154e-01 -2.228406524141e+01 0.0 
0.0 0.0 -1.223188472180e+01 
-1.281126362183e+02 1.671903969391e+01 0.0 
1.671903969391e+01 -3.064070390341e+02 0.0 
0.0 0.0 -1.299559025757e+02 
-4.331474183692e+01 1.617671070211e+01 0.0 
1.617671070211e+01 -9.464262955171e+01 0.0 
0.0 0.0 -4.098721141659e+01 
-2.710422941973e+01 -8.173167075561e-01 0.0 
-8.173167075561e-01 -7.253171972842e+01 0.0 
0.0 0.0 -2.949078474445e+01 
-1.508785285882e+02 3.089807754510e+00 0.0 
3.089807754510e+00 -3.609508981563e+02 0.0 
0.0 0.0 -1.531488280233e+02 
-3.397003629138e+01 6.853290158026e+00 0.0 
6.853290158026e+00 -4.897669967542e+01 0.0 
0.0 0.0 -2.448402079004e+01 
-1.620349576794e+01 -9.299080328326e-01 0.0 
-9.299080328326e-01 -2.097961833866e+01 0.0 
0.0 0.0 -1.145688818673e+01 
-1.274350653134e+02 1.501312308109e+01 0.0 
1.501312308109e+01 -2.865619102798e+02 0.0 
0.0 0.0 -1.237990926780e+02 
-2.550665293840e+01 -1.758166934660e+00 0.0 
-1.758166934660e+00 -6.354083553813e+01 0.0 
0.0 0.0 -2.631424654296e+01 
-1.294723184965e+02 1.713080301725e+01 0.0 
1.713080301725e+01 -2.990016541977e+02 0.0 
0.0 0.0 -1.281421918083e+02 
-1.084201078876e+02 1.532245574912e+00 0.0 
1.532245574912e+00 -2.751687768797e+02 0.0 
0.0 0.0 -1.146766654302e+02 
-1.237351310866e+02 6.587767263039e+00 0.0 
6.587767263039e+00 -2.900486392020e+02 0.0 
0.0 0.0 -1.237351310866e+02 
-1.286141304114e+02 1.767857164199e+01 0.0 
1.767857164199e+01 -3.001736374091e+02 0.0 
0.0 0.0 -1.282363303462e+02 
-1.140535357045e+01 -9.407301918297e-01 0.0 
-9.407301918297e-01 -2.980961699468e+01 0.0 
0.0 0.0 -1.196449116954e+01 
-4.948130091085e+01 -9.872113466456e-01 0.0 
-9.872113466456e-01 -1.331085683101e+02 0.0 
0.0 0.0 -5.437696076628e+01 
-1.183309450238e+02 5.549513987958e+00 0.0 
5.549513987958e+00 -2.691584485851e+02 0.0 
0.0 0.0 -1.158468180827e+02 
-1.244806783061e+02 1.115592438085e+01 0.0 
1.115592438085e+01 -2.804794762024e+02 0.0 
0.0 0.0 -1.210880463525e+02 
-2.067505864849e+01 1.268208712419e+01 0.0 
1.268208712419e+01 -3.405645823447e+01 0.0 
0.0 0.0 -1.601945506489e+01 
-2.240467748432e+01 -1.070705184191e+00 0.0 
-1.070705184191e+00 -5.906026607620e+01 0.0 
0.0 0.0 -2.403948306816e+01 
-2.058945217269e+01 1.357580469281e+01 0.0 
1.357580469281e+01 -3.396568528030e+01 0.0 
0.0 0.0 -1.596654123590e+01 
-2.460864386893e+01 -2.791726656666e+00 0.0 
-2.791726656666e+00 -6.293237019518e+01 0.0 
0.0 0.0 -2.586230421923e+01 
-6.271162187234e+01 6.851470175088e-01 0.0 
6.851470175088e-01 -1.240568123014e+02 0.0 
0.0 0.0 -5.563053025213e+01 
-3.462257035805e+01 1.411781819770e+01 0.0 
1.411781819770e+01 -5.105753267798e+01 0.0 
0.0 0.0 -2.530403091081e+01 
-2.553393196037e+01 1.032848352071e+01 0.0 
1.032848352071e+01 -3.322061164940e+01 0.0 
0.0 0.0 -1.722636308293e+01 
-6.841544254685e+01 1.868363895622e+00 0.0 
1.868363895622e+00 -1.396256342644e+02 0.0 
0.0 0.0 -6.201232304339e+01 
-6.755820842164e+01 -1.396467131238e-01 0.0 
-1.396467131238e-01 -1.392290925646e+02 0.0 
0.0 0.0 -6.163619029589e+01 
-1.124292248690e+02 1.336038922564e+00 0.0 
1.336038922564e+00 -2.836601571521e+02 0.0 
0.0 0.0 -1.184268146063e+02 
-1.224625472308e+02 -6.918653579033e-01 0.0 
-6.918653579033e-01 -3.048682751986e+02 0.0 
0.0 0.0 -1.277992467288e+02 
-1.087252173183e+02 1.337815737378e+01 0.0 
1.337815737378e+01 -2.309699829288e+02 0.0 
0.0 0.0 -1.015085600741e+02 
-6.412203089002e+01 1.977415297090e+00 0.0 
1.977415297090e+00 -1.279722889800e+02 0.0 
0.0 0.0 -5.722829596102e+01 
-1.321174293683e+01 -1.411021532477e+00 0.0 
-1.411021532477e+00 -2.574751153519e+01 0.0 
0.0 0.0 -1.164389156093e+01 
-6.712960601924e+01 2.765060225789e+00 0.0 
2.765060225789e+00 -1.271150398554e+02 0.0 
0.0 0.0 -5.787339376240e+01 
-9.348567942609e+01 9.775608387847e-01 0.0 
9.775608387847e-01 -2.076703699938e+02 0.0 
0.0 0.0 -8.994681482595e+01 
-9.276602328251e+01 2.681636054417e-01 0.0 
2.681636054417e-01 -2.041965598685e+02 0.0 
0.0 0.0 -8.868877494531e+01 
-1.267184004325e+02 7.320002318695e+00 0.0 
7.320002318695e+00 -2.917902219258e+02 0.0 
0.0 0.0 -1.251525867075e+02 
-1.448254194221e+02 1.810969295478e+01 0.0 
1.810969295478e+01 -3.422301596148e+02 0.0 
0.0 0.0 -1.457166737111e+02 
-6.345942850215e+01 1.484941430571e+00 0.0 
1.484941430571e+00 -1.238185797383e+02 0.0 
0.0 0.0 -5.578340247212e+01 
-1.483411632323e+02 8.812616623673e+00 0.0 
8.812616623673e+00 -3.587024188049e+02 0.0 
0.0 0.0 -1.517130746112e+02 
-7.456337886683e+01 7.538032799905e-01 0.0 
7.538032799905e-01 -1.589420631988e+02 0.0 
0.0 0.0 -6.965163261967e+01 
-3.968344196241e+01 1.839478096926e+01 0.0 
1.839478096926e+01 -7.936028505580e+01 0.0 
0.0 0.0 -3.531311810546e+01 
-6.004330426608e+01 1.216188022375e+00 0.0 
1.216188022375e+00 -1.193309478659e+02 0.0 
0.0 0.0 -5.341227563960e+01 
-1.552272095903e+02 1.170260742416e+00 0.0 
1.170260742416e+00 -3.690876011955e+02 0.0 
0.0 0.0 -1.568944432358e+02 
-1.074532048063e+02 1.646816710403e+01 0.0 
1.646816710403e+01 -2.625627625068e+02 0.0 
0.0 0.0 -1.106047901939e+02 
-1.296219738479e+02 1.850835639648e+01 0.0 
1.850835639648e+01 -3.074537354338e+02 0.0 
0.0 0.0 -1.307227127845e+02 
-3.572621993991e+01 1.670835302556e+01 0.0 
1.670835302556e+01 -8.894833172888e+01 0.0 
0.0 0.0 -3.700236550064e+01 
-2.256305513852e+01 -1.882324700763e+00 0.0 
-1.882324700763e+00 -4.249724392990e+01 0.0 
0.0 0.0 -1.911808972053e+01 
-1.410639833737e+02 1.795710777453e+00 0.0 
1.795710777453e+00 -3.418841134569e+02 0.0 
0.0 0.0 -1.444844290492e+02 
-1.000221758378e+02 5.651365613650e-01 0.0 
5.651365613650e-01 -2.233179919931e+02 0.0 
0.0 0.0 -9.660205034927e+01 
-1.978454283696e+01 -1.256250373466e+00 0.0 
-1.256250373466e+00 -2.549049927798e+01 0.0 
0.0 0.0 -1.318251263448e+01 
-1.547815134994e+02 4.070305979096e+00 0.0 
4.070305979096e+00 -3.663820871047e+02 0.0 
0.0 0.0 -1.559490801812e+02 
-1.030408162750e+02 1.126831702367e+01 0.0 
1.126831702367e+01 -2.199212351125e+02 0.0 
0.0 0.0 -9.648861541624e+01 
-8.577298191447e+00 3.682485327820e-01 0.0 
3.682485327820e-01 -2.206321714192e+01 0.0 
0.0 0.0 -8.792154600009e+00 
-5.344233230925e+01 1.511363628991e+01 0.0 
1.511363628991e+01 -1.382014780222e+02 0.0 
0.0 0.0 -5.709314309943e+01 
-6.128541036749e+01 5.169383453407e+00 0.0 
5.169383453407e+00 -1.092350381447e+02 0.0 
0.0 0.0 -5.075613455366e+01 
-6.007447021339e+01 -2.302870772872e-01 0.0 
-2.302870772872e-01 -1.615724195104e+02 0.0 
0.0 0.0 -6.609406691714e+01 
-3.535376250129e+01 1.589245661167e+01 0.0 
1.589245661167e+01 -7.456599694694e+01 0.0 
0.0 0.0 -3.257592783447e+01 
-4.325230679681e+01 1.845270943932e+01 0.0 
1.845270943932e+01 -9.485972096311e+01 0.0 
0.0 0.0 -4.103360832797e+01 
-1.522121931441e+02 6.260252979614e+00 0.0 
6.260252979614e+00 -3.635619347721e+02 0.0 
0.0 0.0 -1.543322383748e+02 
-7.209991035752e+01 -5.415474251324e-01 0.0 
-5.415474251324e-01 -1.523425392321e+02 0.0 
0.0 0.0 -6.693273487688e+01 
-3.873387560007e+01 1.636365276861e+01 0.0 
1.636365276861e+01 -9.130103342041e+01 0.0 
0.0 0.0 -3.861047270614e+01 
-2.448763195192e+01 -1.437895531280e+00 0.0 
-1.437895531280e+00 -6.085248234635e+01 0.0 
0.0 0.0 -2.520203428948e+01 
-6.695755516920e+01 2.667742513061e+00 0.0 
2.667742513061e+00 -1.268536852348e+02 0.0 
0.0 0.0 -5.774337212119e+01 
-1.003371974087e+02 1.048548303435e+00 0.0 
1.048548303435e+00 -2.248585322564e+02 0.0 
0.0 0.0 -9.715871889953e+01 
-3.930616579423e+01 1.788424594947e+01 0.0 
1.788424594947e+01 -9.165041160861e+01 0.0 
0.0 0.0 -3.888697322085e+01 
-1.889214887046e+01 8.933186903947e+00 0.0 
8.933186903947e+00 -2.950939962568e+01 0.0 
0.0 0.0 -1.412046454884e+01 
-5.374695482308e+01 6.420863258996e+00 0.0 
6.420863258996e+00 -9.084439902392e+01 0.0 
0.0 0.0 -4.297740615410e+01 
-6.007445345835e+01 -7.103564719300e-01 0.0 
-7.103564719300e-01 -1.602316111917e+02 0.0 
0.0 0.0 -6.569181939502e+01 
-4.695850951787e+01 3.765766697259e+00 0.0 
3.765766697259e+00 -7.859295571118e+01 0.0 
0.0 0.0 -3.726543956872e+01 
-1.201836925062e+02 4.798265903929e+00 0.0 
4.798265903929e+00 -2.772909492518e+02 0.0 
0.0 0.0 -1.188423925274e+02 
-1.934170937535e+01 8.807199823652e+00 0.0 
8.807199823652e+00 -4.044843142241e+01 0.0 
0.0 0.0 -1.753704223933e+01 
-1.031979068485e+02 -8.156944877672e-02 0.0 
-8.156944877672e-02 -2.638200525726e+02 0.0 
0.0 0.0 -1.097053878263e+02 
-1.153942253524e+02 2.291596827853e-01 0.0 
2.291596827853e-01 -2.658945153325e+02 0.0 
0.0 0.0 -1.139866222055e+02 
-5.748519787696e+01 1.264241075454e+01 0.0 
1.264241075454e+01 -1.091745968926e+02 0.0 
0.0 0.0 -4.959793843088e+01 
-5.003456047718e+01 7.271254088284e+00 0.0 
7.271254088284e+00 -8.195735605096e+01 0.0 
0.0 0.0 -3.919757495844e+01 
-1.472607839066e+02 6.530414807816e+00 0.0 
6.530414807816e+00 -3.558591745929e+02 0.0 
0.0 0.0 -1.505359875498e+02 
-1.516324814957e+02 2.095409746941e+00 0.0 
2.095409746941e+00 -3.623416792164e+02 0.0 
0.0 0.0 -1.537922482136e+02 
-1.121719377005e+02 3.647503578783e-02 0.0 
3.647503578783e-02 -2.836002084597e+02 0.0 
0.0 0.0 -1.183316438481e+02 
-6.206612994242e+01 1.457942202248e+01 0.0 
1.457942202248e+01 -1.166467439882e+02 0.0 
0.0 0.0 -5.321386217919e+01 
-1.468764516380e+02 1.143437865325e+01 0.0 
1.143437865325e+01 -3.551334087448e+02 0.0 
0.0 0.0 -1.502029581149e+02 
-5.325961856421e+01 1.027121768834e+01 0.0 
1.027121768834e+01 -9.511751160356e+01 0.0 
0.0 0.0 -4.411313905033e+01 
-1.180853120561e+02 3.682060456802e+00 0.0 
3.682060456802e+00 -2.719108944751e+02 0.0 
0.0 0.0 -1.165988619594e+02 
-1.303250775204e+02 1.745421897246e+01 0.0 
1.745421897246e+01 -2.986171976878e+02 0.0 
0.0 0.0 -1.282826825624e+02 
-7.380103723212e+01 3.620953113952e+00 0.0 
3.620953113952e+00 -1.457886330852e+02 0.0 
0.0 0.0 -6.547690109519e+01 
-8.469976101764e+01 1.718501792220e-01 0.0 
1.718501792220e-01 -1.832473600444e+02 0.0 
0.0 0.0 -7.998413631861e+01 
-5.389989353967e+01 1.426290050542e+01 0.0 
1.426290050542e+01 -9.563137669669e+01 0.0 
0.0 0.0 -4.445938107091e+01 
-4.280482507958e+01 4.335784197947e+00 0.0 
4.335784197947e+00 -6.934207569354e+01 0.0 
0.0 0.0 -3.324407023193e+01 
-6.546040423244e+01 1.301112197236e+01 0.0 
1.301112197236e+01 -1.296118199498e+02 0.0 
0.0 0.0 -5.812166725466e+01 
-4.243285168579e+01 1.713367774940e+01 0.0 
1.713367774940e+01 -1.070850468088e+02 0.0 
0.0 0.0 -4.445536954839e+01 
-6.039751863944e+01 1.117953116801e+00 0.0 
1.117953116801e+00 -1.220696119102e+02 0.0 
0.0 0.0 -5.434013916488e+01 
-5.331787440126e+01 1.617705632928e+01 0.0 
1.617705632928e+01 -1.383350625845e+02 0.0 
0.0 0.0 -5.709588109573e+01 
-1.225326680604e+01 -1.111180136439e+00 0.0 
-1.111180136439e+00 -2.508225947853e+01 0.0 
0.0 0.0 -1.121883547747e+01 
-6.563210946392e+01 1.840573348203e-01 0.0 
1.840573348203e-01 -1.370252742932e+02 0.0 
0.0 0.0 -6.039721512714e+01 
-2.186202846554e+01 -3.594269537947e-01 0.0 
-3.594269537947e-01 -6.010798098338e+01 0.0 
0.0 0.0 -2.419100283468e+01 
-5.753617291523e+01 5.742857009545e+00 0.0 
5.742857009545e+00 -1.002220727805e+02 0.0 
0.0 0.0 -4.692747370871e+01 
-1.498646704956e+02 1.080486394030e+01 0.0 
1.080486394030e+01 -3.567002396283e+02 0.0 
0.0 0.0 -1.515694730372e+02 
-3.487650182671e+01 1.590554466924e+01 0.0 
1.590554466924e+01 -8.850032018893e+01 0.0 
0.0 0.0 -3.661304660469e+01 
-1.170910064429e+02 -3.544146953299e-01 0.0 
-3.544146953299e-01 -2.938112731737e+02 0.0 
0.0 0.0 -1.228706838850e+02 
-2.401738001162e+01 1.585493194395e+01 0.0 
1.585493194395e+01 -3.748768104077e+01 0.0 
0.0 0.0 -1.805151831571e+01 
-1.066872392630e+02 1.487121223800e+01 0.0 
1.487121223800e+01 -2.620293315039e+02 0.0 
0.0 0.0 -1.102149712301e+02 
-6.001151629845e+01 1.229398095535e-01 0.0 
1.229398095535e-01 -1.235584333965e+02 0.0 
0.0 0.0 -5.467098490849e+01 
-4.896732344011e+01 1.414055722434e+01 0.0 
1.414055722434e+01 -1.334059163956e+02 0.0 
0.0 0.0 -5.431197195073e+01 
-1.311134632426e+02 1.750254693209e+00 0.0 
1.750254693209e+00 -3.223760586679e+02 0.0 
0.0 0.0 -1.356468565732e+02 
-2.418865548646e+01 -2.642109379113e+00 0.0 
-2.642109379113e+00 -6.040024002021e+01 0.0 
0.0 0.0 -2.497666865200e+01 
-1.407720964163e+02 3.062598492968e-01 0.0 
3.062598492968e-01 -3.415345634296e+02 0.0 
0.0 0.0 -1.442919979538e+02 
-6.845662560372e+01 5.896854684610e+00 0.0 
5.896854684610e+00 -1.282678515312e+02 0.0 
0.0 0.0 -5.861734314047e+01 
-1.519417818058e+02 3.406396500810e+00 0.0 
3.406396500810e+00 -3.648382746051e+02 0.0 
0.0 0.0 -1.546340169233e+02 
-5.940892899091e+01 -4.155409515503e-02 0.0 
-4.155409515503e-02 -1.225161701501e+02 0.0 
0.0 0.0 -5.417752974230e+01 
-3.848966403745e+01 1.494243423534e+01 0.0 
1.494243423534e+01 -1.024404298711e+02 0.0 
0.0 0.0 -4.187902817258e+01 
-5.523546787943e+01 2.916796124008e+00 0.0 
2.916796124008e+00 -9.772089160180e+01 0.0 
0.0 0.0 -4.548690784437e+01 
-9.800678943126e+01 6.906676024330e-01 0.0 
6.906676024330e-01 -2.528146680542e+02 0.0 
0.0 0.0 -1.048464372456e+02 
-2.227726383896e+01 1.528083022736e+01 0.0 
1.528083022736e+01 -3.700105671199e+01 0.0 
0.0 0.0 -1.738349616528e+01 
-4.939729846713e+01 1.469941177787e+01 0.0 
1.469941177787e+01 -1.336970120236e+02 0.0 
0.0 0.0 -5.452829314721e+01 
-8.898980953848e+01 1.853021881842e+00 0.0 
1.853021881842e+00 -1.940671493867e+02 0.0 
0.0 0.0 -8.451708767754e+01 
-5.962418900303e+01 -4.687866092570e-01 0.0 
-4.687866092570e-01 -1.223022040457e+02 0.0 
0.0 0.0 -5.417791791463e+01 
-4.571076994928e+01 1.512977935915e+01 0.0 
1.512977935915e+01 -1.199564766042e+02 0.0 
0.0 0.0 -4.930017396603e+01 
-5.096885306402e+01 3.280598454226e+00 0.0 
3.280598454226e+00 -8.794917637535e+01 0.0 
0.0 0.0 -4.127540883181e+01 
-1.147671746870e+02 1.457364652315e+01 0.0 
1.457364652315e+01 -2.567393938779e+02 0.0 
0.0 0.0 -1.110519705695e+02 
-6.736881966022e+01 -5.999945527150e-02 0.0 
-5.999945527150e-02 -1.786150694621e+02 0.0 
0.0 0.0 -7.339516673670e+01 
-1.356430502338e+02 1.832199470249e+01 0.0 
1.832199470249e+01 -3.180774222005e+02 0.0 
0.0 0.0 -1.357161417303e+02 
-1.317263222361e+02 1.857730209135e+01 0.0 
1.857730209135e+01 -3.019072110403e+02 0.0 
0.0 0.0 -1.296900599829e+02 
-3.224166000716e+01 1.797707821434e+01 0.0 
1.797707821434e+01 -6.001479646233e+01 0.0 
0.0 0.0 -2.727693694085e+01 
-6.754431732985e+01 -5.422930081217e-01 0.0 
-5.422930081217e-01 -1.796678074831e+02 0.0 
0.0 0.0 -7.376363744389e+01 
-1.267547674024e+02 1.323872001531e+01 0.0 
1.323872001531e+01 -3.133781746047e+02 0.0 
0.0 0.0 -1.316398826022e+02 
-5.009745528981e+01 1.160123781690e+01 0.0 
1.160123781690e+01 -8.306697223475e+01 0.0 
0.0 0.0 -3.954932825737e+01 
-2.816109980195e+01 1.479742520657e+01 0.0 
1.479742520657e+01 -5.534287120276e+01 0.0 
0.0 0.0 -2.465119130141e+01 
-6.385901500780e+01 4.160920599293e+00 0.0 
4.160920599293e+00 -1.178743778295e+02 0.0 
0.0 0.0 -5.412001785120e+01 
-4.982523301446e+01 1.730450193817e+01 0.0 
1.730450193817e+01 -1.251119774736e+02 0.0 
0.0 0.0 -5.208116314640e+01 
-1.168730538317e+02 2.093715909773e+00 0.0 
2.093715909773e+00 -2.706748877554e+02 0.0 
0.0 0.0 -1.158643824761e+02 
-1.026101324685e+02 9.488842561025e+00 0.0 
9.488842561025e+00 -2.176426678443e+02 0.0 
0.0 0.0 -9.567584009385e+01 
-1.360706708486e+02 -2.994415358685e-01 0.0 
-2.994415358685e-01 -3.323419385103e+02 0.0 
0.0 0.0 -1.401237828077e+02 
-2.197964324279e+01 1.419446180364e+01 0.0 
1.419446180364e+01 -3.580261789399e+01 0.0 
0.0 0.0 -1.693467834103e+01 
-4.595945725740e+01 1.287483673036e+01 0.0 
1.287483673036e+01 -1.291015765500e+02 0.0 
0.0 0.0 -5.211831014221e+01 
-1.065686651140e+02 1.087392898717e+01 0.0 
1.087392898717e+01 -2.291512900593e+02 0.0 
0.0 0.0 -1.003159865520e+02 
-1.544531082829e+01 2.834676593832e+00 0.0 
2.834676593832e+00 -4.461025381306e+00 0.0 
0.0 0.0 -5.571900862880e+00 
-4.853894123552e+01 7.609832489187e+00 0.0 
7.609832489187e+00 -8.229036934973e+01 0.0 
0.0 0.0 -3.884879317558e+01 
-1.180413119389e+02 1.076192294158e+01 0.0 
1.076192294158e+01 -2.979721733662e+02 0.0 
0.0 0.0 -1.244040455915e+02 
-1.719411240255e+01 -7.344587364554e-01 0.0 
-7.344587364554e-01 -4.261578132945e+01 0.0 
0.0 0.0 -1.754296811960e+01 
-1.225312369561e+02 1.080972366717e+01 0.0 
1.080972366717e+01 -2.767330829104e+02 0.0 
0.0 0.0 -1.193792959599e+02 
-9.052720257185e+01 5.495302905452e+00 0.0 
5.495302905452e+00 -1.857182361638e+02 0.0 
0.0 0.0 -8.247363162069e+01 
-5.939831910676e+01 -4.192842006836e-01 0.0 
-4.192842006836e-01 -1.672528422264e+02 0.0 
0.0 0.0 -6.759534839995e+01 
-1.164309682188e+02 9.338880764163e+00 0.0 
9.338880764163e+00 -2.971452506707e+02 0.0 
0.0 0.0 -1.236728656668e+02 
-7.399356023054e+01 3.937671188860e+00 0.0 
3.937671188860e+00 -1.428773503502e+02 0.0 
0.0 0.0 -6.466127317421e+01 
-7.984339744876e+01 4.199109965884e+00 0.0 
4.199109965884e+00 -1.578623250619e+02 0.0 
0.0 0.0 -7.091171675319e+01 
-1.421785273195e+02 1.175644811193e+01 0.0 
1.175644811193e+01 -3.431571950258e+02 0.0 
0.0 0.0 -1.452007167036e+02 
-4.560915576206e+01 -2.109916821725e+00 0.0 
-2.109916821725e+00 -1.266968419977e+02 0.0 
0.0 0.0 -5.129179932791e+01 
-6.908937722705e+01 1.440399111689e+01 0.0 
1.440399111689e+01 -1.438234471398e+02 0.0 
0.0 0.0 -6.347384731007e+01 
-7.297183024293e+01 7.739258975415e+00 0.0 
7.739258975415e+00 -1.394602031113e+02 0.0 
0.0 0.0 -6.332961000627e+01 
-9.603997999580e+01 7.517711853013e+00 0.0 
7.517711853013e+00 -1.970704721856e+02 0.0 
0.0 0.0 -8.753313565443e+01 
-7.404650471359e+01 8.070846216218e+00 0.0 
8.070846216218e+00 -1.386890213650e+02 0.0 
0.0 0.0 -6.342065782357e+01 
-6.578453469805e+01 6.918439677672e+00 0.0 
6.918439677672e+00 -1.186772192919e+02 0.0 
0.0 0.0 -5.493852619698e+01 
-9.385746371234e+01 1.504517631816e+01 0.0 
1.504517631816e+01 -2.368899837118e+02 0.0 
0.0 0.0 -9.882423422724e+01 
-1.119357516306e+02 1.584479718008e+01 0.0 
1.584479718008e+01 -2.447144563051e+02 0.0 
0.0 0.0 -1.065950623807e+02 
-1.887511312879e+01 2.659925807665e+00 0.0 
2.659925807665e+00 -2.100044574797e+01 0.0 
0.0 0.0 -1.156266766303e+01 
-3.277167138816e+01 1.547364057849e+01 0.0 
1.547364057849e+01 -6.067882616021e+01 0.0 
0.0 0.0 -2.763514926451e+01 
-4.008918291881e+01 1.540288216279e+01 0.0 
1.540288216279e+01 -7.883349525915e+01 0.0 
0.0 0.0 -3.527680345339e+01 
-6.531426029728e+01 1.617099644479e+01 0.0 
1.617099644479e+01 -1.301649111588e+02 0.0 
0.0 0.0 -5.824375143684e+01 
-1.082054953556e+02 1.155051453474e+01 0.0 
1.155051453474e+01 -2.289450070938e+02 0.0 
0.0 0.0 -1.007451507348e+02 
-2.139805704880e+01 4.646547373092e+00 0.0 
4.646547373092e+00 -5.902482023470e+01 0.0 
0.0 0.0 -2.372686318505e+01 
-1.134536871991e+02 9.439427375697e+00 0.0 
9.439427375697e+00 -2.894784188291e+02 0.0 
0.0 0.0 -1.204796318085e+02 
-5.958194870668e+01 1.119896896113e+00 0.0 
1.119896896113e+00 -1.210619934062e+02 0.0 
0.0 0.0 -5.379318263387e+01 
-4.519203126705e+01 1.273928666949e+01 0.0 
1.273928666949e+01 -1.287484661326e+02 0.0 
0.0 0.0 -5.178214921989e+01 
-1.090167830268e+02 8.155368438156e+00 0.0 
8.155368438156e+00 -2.808313879000e+02 0.0 
0.0 0.0 -1.165544512780e+02 
-1.281242630692e+01 -4.843568509607e-01 0.0 
-4.843568509607e-01 -2.863895550671e+01 0.0 
0.0 0.0 -1.203541454409e+01 
-9.801718901267e+01 6.536899515426e+00 0.0 
6.536899515426e+00 -2.059015922987e+02 0.0 
0.0 0.0 -9.077563439342e+01 
-1.210586613883e+01 -1.054575963047e+00 0.0 
-1.054575963047e+00 -2.413155383217e+01 0.0 
0.0 0.0 -1.047122599130e+01 
-1.656449074852e+01 -1.045334265868e+00 0.0 
-1.045334265868e+00 -4.297614752681e+01 0.0 
0.0 0.0 -1.746219148260e+01 
-2.052709588969e+01 1.404137836250e+01 0.0 
1.404137836250e+01 -3.519192367363e+01 0.0 
0.0 0.0 -1.631570586900e+01 
-3.891695905417e+01 -2.356991380918e+00 0.0 
-2.356991380918e+00 -1.073738517535e+02 0.0 
0.0 0.0 -4.348724324229e+01 
-1.033494937820e+02 8.459857978082e+00 0.0 
8.459857978082e+00 -2.171537280545e+02 0.0 
0.0 0.0 -9.575096655095e+01 
-3.755734950309e+01 -1.430779339102e+00 0.0 
-1.430779339102e+00 -1.008310012728e+02 0.0 
0.0 0.0 -4.111650523278e+01 
-2.445738553706e+01 1.261528334304e+01 0.0 
1.261528334304e+01 -6.473814111585e+01 0.0 
0.0 0.0 -2.635865799587e+01 
-2.964926281664e+01 -1.429130382586e+00 0.0 
-1.429130382586e+00 -7.819835722249e+01 0.0 
0.0 0.0 -3.195428601174e+01 
-2.648796304553e+01 -2.640549790674e+00 0.0 
-2.640549790674e+00 -6.858757337725e+01 0.0 
0.0 0.0 -2.812266092684e+01 
-1.208982399760e+02 1.064823432484e+01 0.0 
1.064823432484e+01 -3.048517794578e+02 0.0 
0.0 0.0 -1.273250058301e+02 
-7.027237784890e+01 8.881708898132e+00 0.0 
8.881708898132e+00 -1.292110847048e+02 0.0 
0.0 0.0 -5.944503876612e+01 
-1.504544052799e+02 1.590341724112e+00 0.0 
1.590341724112e+00 -3.608874927831e+02 0.0 
0.0 0.0 -1.530025694189e+02 
-1.461089137481e+01 1.555230240264e+00 0.0 
1.555230240264e+00 -8.591840631727e+00 0.0 
0.0 0.0 -7.502519126814e+00 
-2.903893668093e+01 1.309329315382e+01 0.0 
1.309329315382e+01 -8.141926557991e+01 0.0 
0.0 0.0 -3.273746067825e+01 
-5.278353263276e+01 1.298754311634e+01 0.0 
1.298754311634e+01 -1.465912031406e+02 0.0 
0.0 0.0 -5.941242073202e+01 
-4.408971830387e+01 8.993921216257e+00 0.0 
8.993921216257e+00 -7.351358326068e+01 0.0 
0.0 0.0 -3.488099046937e+01 
-1.119004357752e+02 8.107526354753e+00 0.0 
8.107526354753e+00 -2.886836360444e+02 0.0 
0.0 0.0 -1.197752215459e+02 
-1.528534825838e+02 3.223361379310e+00 0.0 
3.223361379310e+00 -3.663359835009e+02 0.0 
0.0 0.0 -1.553568398254e+02 
-1.009075122187e+02 1.056514272962e+01 0.0 
1.056514272962e+01 -2.083113139278e+02 0.0 
0.0 0.0 -9.236564784394e+01 
-3.668346167416e+01 1.000734562017e+01 0.0 
1.000734562017e+01 -1.069086746439e+02 0.0 
0.0 0.0 -4.267764089543e+01 
-1.222456133066e+02 1.187665485748e+01 0.0 
1.187665485748e+01 -3.054412863776e+02 0.0 
0.0 0.0 -1.279060699053e+02 
-1.075192122722e+02 -6.500268648522e-01 0.0 
-6.500268648522e-01 -2.734022850584e+02 0.0 
0.0 0.0 -1.138764491992e+02 
-6.995485738959e+01 1.487906475771e+01 0.0 
1.487906475771e+01 -1.371283701533e+02 0.0 
0.0 0.0 -6.172496826286e+01 
-9.456861193761e+01 6.711784398881e+00 0.0 
6.711784398881e+00 -1.957739909125e+02 0.0 
0.0 0.0 -8.670278085502e+01 
-1.326633411955e+02 1.869974718448e+01 0.0 
1.869974718448e+01 -3.116154644592e+02 0.0 
0.0 0.0 -1.328836416964e+02 
-5.334387059940e+01 1.347739390215e+01 0.0 
1.347739390215e+01 -1.469319578042e+02 0.0 
0.0 0.0 -5.968274852109e+01 
-2.730774779001e+01 1.403959574751e+01 0.0 
1.403959574751e+01 -6.808882485682e+01 0.0 
0.0 0.0 -2.821897179405e+01 
-8.200051312365e+01 9.119447347559e+00 0.0 
9.119447347559e+00 -1.585263757350e+02 0.0 
0.0 0.0 -7.175806665759e+01 
-1.260256023729e+02 6.011302912519e+00 0.0 
6.011302912519e+00 -2.914281576029e+02 0.0 
0.0 0.0 -1.248361279928e+02 
-6.849204697732e+01 1.712731577881e+01 0.0 
1.712731577881e+01 -1.440605019640e+02 0.0 
0.0 0.0 -6.336576468239e+01 
-7.281178013255e+01 1.315141247981e+01 0.0 
1.315141247981e+01 -1.945445354674e+02 0.0 
0.0 0.0 -7.980689467998e+01 
-6.742764908279e+01 5.265923671035e-01 0.0 
5.265923671035e-01 -1.408076042078e+02 0.0 
0.0 0.0 -6.207057598718e+01 
-2.478149915660e+01 -2.061129861309e+00 0.0 
-2.061129861309e+00 -5.741964449839e+01 0.0 
0.0 0.0 -2.426034309650e+01 
-7.185167021784e+01 5.291421020101e+00 0.0 
5.291421020101e+00 -1.371311911765e+02 0.0 
0.0 0.0 -6.229485841831e+01 
-3.529819743580e+01 1.037017592536e+01 0.0 
1.037017592536e+01 -1.063998151871e+02 0.0 
0.0 0.0 -4.210940378688e+01 
-2.558017169098e+01 5.437145306451e+00 0.0 
5.437145306451e+00 -7.684414531576e+01 0.0 
0.0 0.0 -3.032729510202e+01 
-2.389043176422e+01 -1.026501564966e+00 0.0 
-1.026501564966e+00 -6.127475942104e+01 0.0 
0.0 0.0 -2.514955735558e+01 
-1.012601673638e+02 6.373430307118e+00 0.0 
6.373430307118e+00 -2.158808237224e+02 0.0 
0.0 0.0 -9.474229732586e+01 
-7.834769435761e+01 9.811963980223e+00 0.0 
9.811963980223e+00 -1.495449857994e+02 0.0 
0.0 0.0 -6.796780404711e+01 
-4.276288840685e+01 1.601212446744e+01 0.0 
1.601212446744e+01 -1.069664178499e+02 0.0 
0.0 0.0 -4.451879187704e+01 
-1.064516615564e+02 8.201879501145e+00 0.0 
8.201879501145e+00 -2.271130068294e+02 0.0 
0.0 0.0 -9.966940051574e+01 
-1.048376015307e+02 1.195332533628e+01 0.0 
1.195332533628e+01 -2.192981192572e+02 0.0 
0.0 0.0 -9.684071623636e+01 
-7.430970032356e+01 1.362574917492e+01 0.0 
1.362574917492e+01 -1.446065007999e+02 0.0 
0.0 0.0 -6.527486033704e+01 
-1.542381521650e+02 5.018284890243e+00 0.0 
5.018284890243e+00 -3.657610369555e+02 0.0 
0.0 0.0 -1.555997567361e+02 
-7.644995137951e+01 1.150933194565e+01 0.0 
1.150933194565e+01 -2.060579880846e+02 0.0 
0.0 0.0 -8.435238183923e+01 
-7.843542499250e+01 1.250261667784e+01 0.0 
1.250261667784e+01 -1.524915830667e+02 0.0 
0.0 0.0 -6.887810241777e+01 
-5.770436352478e+01 1.719443111338e+01 0.0 
1.719443111338e+01 -1.434195991709e+02 0.0 
0.0 0.0 -5.993718880872e+01 
-8.108559130175e+01 1.358509607583e+01 0.0 
1.358509607583e+01 -2.125654928952e+02 0.0 
0.0 0.0 -8.769532525908e+01 
-3.029923302821e+01 6.115846465615e+00 0.0 
6.115846465615e+00 -9.400791757962e+01 0.0 
0.0 0.0 -3.689214518235e+01 
-6.522606823911e+01 1.935609244322e+00 0.0 
1.935609244322e+00 -1.250789872640e+02 0.0 
0.0 0.0 -5.669151665092e+01 
-5.716597669049e+01 1.221164023578e+01 0.0 
1.221164023578e+01 -1.590924464078e+02 0.0 
0.0 0.0 -6.447752692950e+01 
-4.260669744686e+01 2.965930158990e+00 0.0 
2.965930158990e+00 -1.246778373694e+02 0.0 
0.0 0.0 -4.978536044487e+01 
-9.869159181294e+01 8.128787039290e+00 0.0 
8.128787039290e+00 -2.067159552785e+02 0.0 
0.0 0.0 -9.122226412744e+01 
-1.949795947177e+01 7.116346529823e-01 0.0 
7.116346529823e-01 -6.304670106538e+00 0.0 
0.0 0.0 -7.340788873491e+00 
-7.769704022287e+01 7.571665441675e+00 0.0 
7.571665441675e+00 -1.479920543140e+02 0.0 
0.0 0.0 -6.730672836107e+01 
-3.872077097242e+01 8.989591861214e+00 0.0 
8.989591861214e+00 -1.179054289853e+02 0.0 
0.0 0.0 -4.658785998730e+01 
-3.017924634459e+01 1.277545507775e+01 0.0 
1.277545507775e+01 -8.184025040401e+01 0.0 
0.0 0.0 -3.320584902458e+01 
-3.235249486237e+01 5.576053891992e+00 0.0 
5.576053891992e+00 -9.474451914518e+01 0.0 
0.0 0.0 -3.772910420226e+01 
-8.438488261570e+01 8.023839745625e+00 0.0 
8.023839745625e+00 -1.682667134717e+02 0.0 
0.0 0.0 -7.539547882622e+01 
-1.912436244842e+01 -1.654247733436e+00 0.0 
-1.654247733436e+00 -4.142713296599e+01 0.0 
0.0 0.0 -1.776544862432e+01 
-4.465610227126e+01 1.385975414300e+01 0.0 
1.385975414300e+01 -8.283038509734e+01 0.0 
0.0 0.0 -3.784594621058e+01 
-8.486095687926e+01 1.190299273265e+01 0.0 
1.190299273265e+01 -2.241877863246e+02 0.0 
0.0 0.0 -9.231462296117e+01 
-7.643088869733e+01 6.978401426156e+00 0.0 
6.978401426156e+00 -1.480320860559e+02 0.0 
0.0 0.0 -6.693889242598e+01 
-7.293861828143e+01 3.234032117397e+00 0.0 
3.234032117397e+00 -1.429025671652e+02 0.0 
0.0 0.0 -6.435235563398e+01 
-2.062541559363e+01 3.065171642547e+00 0.0 
3.065171642547e+00 -5.188187196859e+01 0.0 
0.0 0.0 -2.135218626866e+01 
-4.046543651945e+01 2.909067780878e+00 0.0 
2.909067780878e+00 -1.237580073444e+02 0.0 
0.0 0.0 -4.886703315917e+01 
-4.003870256836e+01 1.524409588094e+00 0.0 
1.524409588094e+00 -1.158765018061e+02 0.0 
0.0 0.0 -4.637456131233e+01 
-3.623713797830e+01 1.761411191506e+01 0.0 
1.761411191506e+01 -6.258277581443e+01 0.0 
0.0 0.0 -2.924597413782e+01 
-9.677938733586e+01 9.194268949326e+00 0.0 
9.194268949326e+00 -1.973726744648e+02 0.0 
0.0 0.0 -8.784561854019e+01 
-4.439191419581e+01 1.766716815052e+01 0.0 
1.766716815052e+01 -8.353438735512e+01 0.0 
0.0 0.0 -3.797789046528e+01 
-5.269500821832e+01 1.020092027379e+01 0.0 
1.020092027379e+01 -1.526996468570e+02 0.0 
0.0 0.0 -6.121839652258e+01 
-4.891298545300e+01 1.144749242850e+01 0.0 
1.144749242850e+01 -1.410658254404e+02 0.0 
0.0 0.0 -5.659364326803e+01 
-2.347809793128e+01 3.909420513790e+00 0.0 
3.909420513790e+00 -5.949786831766e+01 0.0 
0.0 0.0 -2.449278987468e+01 
-6.169996478985e+01 1.518076604862e+01 0.0 
1.518076604862e+01 -1.568695949385e+02 0.0 
0.0 0.0 -6.517086791852e+01 
-2.225792912230e+01 1.143565793221e+01 0.0 
1.143565793221e+01 -4.874595098531e+01 0.0 
0.0 0.0 -2.090116403228e+01 
-1.299366421187e+02 1.164383980978e+01 0.0 
1.164383980978e+01 -2.975307119537e+02 0.0 
0.0 0.0 -1.278402062217e+02 
-1.308803915067e+02 1.401291109610e+01 0.0 
1.401291109610e+01 -3.004725674061e+02 0.0 
0.0 0.0 -1.290058876739e+02 
-7.252423999772e+01 1.524555922177e+01 0.0 
1.524555922177e+01 -1.580562281904e+02 0.0 
0.0 0.0 -6.877414045644e+01 
-3.266920628795e+01 8.269085867051e+00 0.0 
8.269085867051e+00 -1.006916875616e+02 0.0 
0.0 0.0 -3.960826815487e+01 
-2.822690066584e+01 1.055335917901e+01 0.0 
1.055335917901e+01 -7.783199273069e+01 0.0 
0.0 0.0 -3.141766801896e+01 
-8.127427087645e+01 1.118130126688e+01 0.0 
1.118130126688e+01 -1.638904426205e+02 0.0 
0.0 0.0 -7.314941404909e+01 
-3.120744193623e+01 9.146878438901e+00 0.0 
9.146878438901e+00 -8.993848994918e+01 0.0 
0.0 0.0 -3.594377956562e+01 
-3.792175582496e+01 1.289853088331e+00 0.0 
1.289853088331e+00 -1.149275261537e+02 0.0 
0.0 0.0 -4.545478459358e+01 
-6.953722684408e+01 1.171810286207e+01 0.0 
1.171810286207e+01 -1.361464125997e+02 0.0 
0.0 0.0 -6.130509183314e+01 
-1.193680680889e+02 4.183650216854e+00 0.0 
4.183650216854e+00 -2.730309843832e+02 0.0 
0.0 0.0 -1.173197157416e+02 
-4.175874839999e+01 1.094495795241e+01 0.0 
1.094495795241e+01 -1.236004527097e+02 0.0 
0.0 0.0 -4.920776033289e+01 
-9.354146617957e+01 1.391254591598e+01 0.0 
1.391254591598e+01 -2.365606998502e+02 0.0 
0.0 0.0 -9.863064980895e+01 
-2.288099619743e+01 1.079582629467e+01 0.0 
1.079582629467e+01 -6.093834020141e+01 0.0 
0.0 0.0 -2.474580091965e+01 
-1.539400628902e+02 1.426553325454e+01 0.0 
1.426553325454e+01 -3.662813567074e+02 0.0 
0.0 0.0 -1.556664258793e+02 
-2.961196453202e+01 9.737811024844e+00 0.0 
9.737811024844e+00 -8.939995561010e+01 0.0 
0.0 0.0 -3.530357604264e+01 
-7.334719715008e+01 1.328894543808e+01 0.0 
1.328894543808e+01 -1.498769527569e+02 0.0 
0.0 0.0 -6.656724497211e+01 
-2.388605327947e+01 3.358880798470e+00 0.0 
3.358880798470e+00 -6.931003767183e+01 0.0 
0.0 0.0 -2.755882728539e+01 
-9.339994070485e+01 8.425849413933e+00 0.0 
8.425849413933e+00 -2.493371750942e+02 0.0 
0.0 0.0 -1.024211347397e+02 
-5.654703120033e+01 1.179817444378e+01 0.0 
1.179817444378e+01 -1.587360227975e+02 0.0 
0.0 0.0 -6.418491619936e+01 
-4.146121159260e+01 7.827046057068e-01 0.0 
7.827046057068e-01 -1.243092732753e+02 0.0 
0.0 0.0 -4.933114546036e+01 
-7.454189472997e+01 1.075554557772e+01 0.0 
1.075554557772e+01 -1.406813710296e+02 0.0 
0.0 0.0 -6.416697972786e+01 
-1.347700443429e+02 1.745136784430e+01 0.0 
1.745136784430e+01 -3.106052583639e+02 0.0 
0.0 0.0 -1.332125908120e+02 
-4.543863834462e+01 9.643804362488e+00 0.0 
9.643804362488e+00 -1.352279606767e+02 0.0 
0.0 0.0 -5.379997970639e+01 
-8.542391787260e+01 1.279239488987e+01 0.0 
1.279239488987e+01 -2.246060095173e+02 0.0 
0.0 0.0 -9.260897821698e+01 
-2.407584567235e+01 9.781670522040e+00 0.0 
9.781670522040e+00 -6.124757144559e+01 0.0 
0.0 0.0 -2.519702513538e+01 
-8.463177409348e+01 2.206416416905e+00 0.0 
2.206416416905e+00 -1.765358672930e+02 0.0 
0.0 0.0 -7.795029241595e+01 
-1.074884298320e+02 6.902238400446e+00 0.0 
6.902238400446e+00 -2.799548747006e+02 0.0 
0.0 0.0 -1.158329913598e+02 
-2.956622953991e+01 1.586312422649e+01 0.0 
1.586312422649e+01 -7.084322560486e+01 0.0 
0.0 0.0 -2.972283654343e+01 
-8.198791625933e+01 3.358555362108e+00 0.0 
3.358555362108e+00 -1.683014399332e+02 0.0 
0.0 0.0 -7.468680685777e+01 
-1.384223727208e+02 1.985435243071e+01 0.0 
1.985435243071e+01 -3.213948866233e+02 0.0 
0.0 0.0 -1.375451778032e+02 
-1.171214644695e+02 7.764194929047e+00 0.0 
7.764194929047e+00 -2.989248520981e+02 0.0 
0.0 0.0 -1.244138949703e+02 
-1.337565119630e+02 1.634380202982e+01 0.0 
1.634380202982e+01 -3.071746050961e+02 0.0 
0.0 0.0 -1.318793351177e+02 
-8.282109177400e+01 4.280077773333e+00 0.0 
4.280077773333e+00 -1.671138562972e+02 0.0 
0.0 0.0 -7.458048442135e+01 
-1.047890329432e+02 1.366350389013e+01 0.0 
1.366350389013e+01 -2.213500982283e+02 0.0 
0.0 0.0 -9.744173935143e+01 
-2.505676632807e+01 1.493335417541e+01 0.0 
1.493335417541e+01 -5.340235388181e+01 0.0 
0.0 0.0 -2.313773606296e+01 
-6.656766010555e+01 9.836671497394e+00 0.0 
9.836671497394e+00 -1.205878351931e+02 0.0 
0.0 0.0 -5.574664858959e+01 
-7.723732857835e+01 9.520086649166e+00 0.0 
9.520086649166e+00 -1.513740106961e+02 0.0 
0.0 0.0 -6.818340178232e+01 
-8.235652933050e+01 1.152012369170e+01 0.0 
1.152012369170e+01 -1.608580888566e+02 0.0 
0.0 0.0 -7.256438545614e+01 
-6.371363408132e+01 1.785244315012e+01 0.0 
1.785244315012e+01 -1.385965726304e+02 0.0 
0.0 0.0 -6.029306201353e+01 
-1.411873225620e+02 2.073164688453e+01 0.0 
2.073164688453e+01 -3.297626754595e+02 0.0 
0.0 0.0 -1.408849994065e+02 
-7.921663636029e+01 3.631824253991e+00 0.0 
3.631824253991e+00 -1.571865222679e+02 0.0 
0.0 0.0 -7.052094758845e+01 
-6.959275958958e+01 6.383215963271e+00 0.0 
6.383215963271e+00 -1.285492146174e+02 0.0 
0.0 0.0 -5.904259226209e+01 
-4.980664350202e+01 1.160354365325e+01 0.0 
1.160354365325e+01 -1.414784802821e+02 0.0 
0.0 0.0 -5.698553713525e+01 
-3.263263751310e+01 -2.611257551509e+00 0.0 
-2.611257551509e+00 -8.816848706207e+01 0.0 
0.0 0.0 -3.584033737255e+01 
-6.209431412937e+01 7.785088679530e+00 0.0 
7.785088679530e+00 -1.095243620265e+02 0.0 
0.0 0.0 -5.108560284675e+01 
-3.162616887573e+01 1.459897477849e+01 0.0 
1.459897477849e+01 -8.489611495057e+01 0.0 
0.0 0.0 -3.455668514789e+01 
-6.006065267128e+01 2.813130935399e-01 0.0 
2.813130935399e-01 -1.232534357580e+02 0.0 
0.0 0.0 -5.459422652877e+01 
-4.356604386359e+01 1.052460947346e+00 0.0 
1.052460947346e+00 -1.252591939248e+02 0.0 
0.0 0.0 -5.024757133653e+01 
-4.293567711273e+01 1.085610182893e+01 0.0 
1.085610182893e+01 -1.240817970122e+02 0.0 
0.0 0.0 -4.970524223748e+01 
-1.020327464612e+02 7.805192972490e+00 0.0 
7.805192972490e+00 -2.164824130563e+02 0.0 
0.0 0.0 -9.515454785526e+01 
-3.258228644964e+01 1.486381237091e+01 0.0 
1.486381237091e+01 -8.535192199092e+01 0.0 
0.0 0.0 -3.498026253217e+01 
-6.918828345578e+01 8.632718303618e+00 0.0 
8.632718303618e+00 -1.309887260187e+02 0.0 
0.0 0.0 -5.965310284234e+01 
-8.904055039859e+01 1.111366372119e+01 0.0 
1.111366372119e+01 -2.355457788551e+02 0.0 
0.0 0.0 -9.697589877610e+01 
-8.190416038358e+01 2.975030106852e+00 0.0 
2.975030106852e+00 -2.244391860822e+02 0.0 
0.0 0.0 -9.150300393975e+01 
-1.457194036942e+02 2.034477413389e+01 0.0 
2.034477413389e+01 -3.429716060877e+02 0.0 
0.0 0.0 -1.462073029346e+02 
-5.436260233453e+01 1.002078365313e+01 0.0 
1.002078365313e+01 -9.213909233257e+01 0.0 
0.0 0.0 -4.355050840013e+01 
-3.688315621712e+01 3.787447681309e+00 0.0 
3.787447681309e+00 -1.140322750985e+02 0.0 
0.0 0.0 -4.487462939469e+01 
-5.753824767246e+01 5.172487314229e-01 0.0 
5.172487314229e-01 -1.598958310307e+02 0.0 
0.0 0.0 -6.483022361096e+01 
-2.870663333917e+01 1.731796682171e+01 0.0 
1.731796682171e+01 -5.609249015340e+01 0.0 
0.0 0.0 -2.503973704777e+01 
-2.852906914603e+01 1.529218088838e+01 0.0 
1.529218088838e+01 -7.031143769282e+01 0.0 
0.0 0.0 -2.925215205166e+01 
-1.119216463938e+02 1.283264667382e+01 0.0 
1.283264667382e+01 -2.400626439545e+02 0.0 
0.0 0.0 -1.051952871045e+02 
-7.773256949316e+01 1.509720153330e+01 0.0 
1.509720153330e+01 -1.573140816025e+02 0.0 
0.0 0.0 -7.011399532870e+01 
-4.566825328677e+01 1.362863027203e+01 0.0 
1.362863027203e+01 -7.473818461208e+01 0.0 
0.0 0.0 -3.572193136966e+01 
-6.091199205279e+01 7.555560036809e+00 0.0 
7.555560036809e+00 -1.106171348265e+02 0.0 
0.0 0.0 -5.105873806378e+01 
-1.501539340115e+02 1.739785500181e+01 0.0 
1.739785500181e+01 -3.570620328900e+02 0.0 
0.0 0.0 -1.517647900705e+02 
-1.401768794940e+02 1.712524269432e+01 0.0 
1.712524269432e+01 -3.365579133512e+02 0.0 
0.0 0.0 -1.426204378536e+02 
-1.098691027764e+02 1.046853839810e+01 0.0 
1.046853839810e+01 -2.384642981357e+02 0.0 
0.0 0.0 -1.041000202736e+02 
-1.002542935096e+02 8.802751282286e+00 0.0 
8.802751282286e+00 -2.074115578773e+02 0.0 
0.0 0.0 -9.189975541608e+01 
-7.924246204302e+01 4.201656347276e+00 0.0 
4.201656347276e+00 -2.160081662507e+02 0.0 
0.0 0.0 -8.817518848811e+01 
-4.773071937567e+01 1.838447366717e+01 0.0 
1.838447366717e+01 -9.916145453185e+01 0.0 
0.0 0.0 -4.366765217225e+01 
-3.444350432015e+01 7.778304925168e+00 0.0 
7.778304925168e+00 -1.013317061684e+02 0.0 
0.0 0.0 -4.033256314655e+01 
-4.026664412591e+01 8.727030441196e+00 0.0 
8.727030441196e+00 -1.185030035629e+02 0.0 
0.0 0.0 -4.723089430664e+01 
-7.321215756301e+01 1.616074964555e+01 0.0 
1.616074964555e+01 -1.504260345325e+02 0.0 
0.0 0.0 -6.669145762864e+01 
-9.010702480125e+01 9.971435219428e+00 0.0 
9.971435219428e+00 -2.396309129675e+02 0.0 
0.0 0.0 -9.852138133061e+01 
-7.231766390553e+01 9.017357086878e-01 0.0 
9.017357086878e-01 -1.941086527466e+02 0.0 
0.0 0.0 -7.952789499564e+01 
-1.091117797106e+02 8.879551875059e+00 0.0 
8.879551875059e+00 -2.370617609482e+02 0.0 
0.0 0.0 -1.034520621976e+02 
-3.904362974176e+01 3.624754098161e+00 0.0 
3.624754098161e+00 -1.149112592056e+02 0.0 
0.0 0.0 -4.578646668421e+01 
-5.896375332014e+01 1.811590646854e+01 0.0 
1.811590646854e+01 -1.338130023496e+02 0.0 
0.0 0.0 -5.743302670092e+01 
-7.340373404644e+01 1.051708394664e+01 0.0 
1.051708394664e+01 -1.433681442725e+02 0.0 
0.0 0.0 -6.463156349567e+01 
-5.107284388850e+01 1.835948494956e+01 0.0 
1.835948494956e+01 -1.146459694901e+02 0.0 
0.0 0.0 -4.931564401358e+01 
-1.330145012925e+02 1.526151175771e+01 0.0 
1.526151175771e+01 -3.040923946745e+02 0.0 
0.0 0.0 -1.307320687901e+02 
-1.298056850616e+02 1.252420487030e+01 0.0 
1.252420487030e+01 -2.984471328047e+02 0.0 
0.0 0.0 -1.280758453599e+02 
-1.243828549390e+02 1.318099473586e+01 0.0 
1.318099473586e+01 -2.780208350374e+02 0.0 
0.0 0.0 -1.203211069929e+02 
-8.735190925074e+01 5.115882790439e+00 0.0 
5.115882790439e+00 -2.345022352840e+02 0.0 
0.0 0.0 -9.615624336041e+01 
-1.044325520105e+02 6.191949169153e+00 0.0 
6.191949169153e+00 -2.258866744465e+02 0.0 
0.0 0.0 -9.869576793711e+01 
-2.631630750143e+01 1.413493957556e+01 0.0 
1.413493957556e+01 -6.768248673084e+01 0.0 
0.0 0.0 -2.779963826968e+01 
-4.672513702433e+01 9.603631642245e+00 0.0 
9.603631642245e+00 -1.357642820233e+02 0.0 
0.0 0.0 -5.434682571428e+01 
-2.764182305346e+01 4.592624444192e+00 0.0 
4.592624444192e+00 -7.750953308006e+01 0.0 
0.0 0.0 -3.114540684005e+01 
-4.928563104938e+01 1.602467260088e+01 0.0 
1.602467260088e+01 -8.902517391408e+01 0.0 
0.0 0.0 -4.109324148904e+01 
-6.504261840861e+01 1.744104945218e+00 0.0 
1.744104945218e+00 -1.249318371198e+02 0.0 
0.0 0.0 -5.659233665853e+01 
-8.092205535232e+01 2.143112621268e+00 0.0 
2.143112621268e+00 -1.660150082469e+02 0.0 
0.0 0.0 -7.368111907975e+01 
-1.443130351207e+02 1.384424622220e+01 0.0 
1.384424622220e+01 -3.490692033539e+02 0.0 
0.0 0.0 -1.476146715424e+02 
-1.100464978636e+02 1.203105509177e+01 0.0 
1.203105509177e+01 -2.404000220730e+02 0.0 
0.0 0.0 -1.047339559810e+02 
-8.010239524932e+01 6.447374411435e+00 0.0 
6.447374411435e+00 -1.571379910228e+02 0.0 
0.0 0.0 -7.077211588165e+01 
-8.496136445327e+01 1.030613492326e+01 0.0 
1.030613492326e+01 -1.716676274316e+02 0.0 
0.0 0.0 -7.658869756547e+01 
-2.831728441593e+01 4.088445878057e+00 0.0 
4.088445878057e+00 -8.671628855907e+01 0.0 
0.0 0.0 -3.411007189250e+01 
-2.057350108981e+01 -2.170450174869e+00 0.0 
-2.170450174869e+00 -4.207360425483e+01 0.0 
0.0 0.0 -1.839413160339e+01 
-5.706272539658e+01 1.424881230915e+01 0.0 
1.424881230915e+01 -1.517834450709e+02 0.0 
0.0 0.0 -6.225385114024e+01 
-6.694720460577e+01 1.785094906579e+01 0.0 
1.785094906579e+01 -1.528962670723e+02 0.0 
0.0 0.0 -6.555304150343e+01 
-6.127339468391e+01 1.623553997110e+01 0.0 
1.623553997110e+01 -1.569042328621e+02 0.0 
0.0 0.0 -6.505328826379e+01 
-1.939267941045e+01 1.116020045284e+01 0.0 
1.116020045284e+01 -2.965981088297e+01 0.0 
0.0 0.0 -1.431574708803e+01 
-6.663464907787e+01 -5.056149195433e-02 0.0 
-5.056149195433e-02 -1.398507059098e+02 0.0 
0.0 0.0 -6.154560649629e+01 
-3.103970171533e+01 -1.611527823180e+00 0.0 
-1.611527823180e+00 -8.105570908265e+01 0.0 
0.0 0.0 -3.322862323939e+01 
-3.205736149382e+01 1.174570590469e+01 0.0 
1.174570590469e+01 -9.426780229288e+01 0.0 
0.0 0.0 -3.749754913601e+01 
-1.564336007615e+02 1.417757675931e+01 0.0 
1.417757675931e+01 -3.663450684435e+02 0.0 
0.0 0.0 -1.564336007615e+02 
-9.844014750879e+01 1.452351951381e+01 0.0 
1.452351951381e+01 -2.496080453689e+02 0.0 
0.0 0.0 -1.040144578633e+02 
-6.721419204570e+01 3.758737565776e+00 0.0 
3.758737565776e+00 -1.270780894977e+02 0.0 
0.0 0.0 -5.788768446301e+01 
-2.274994728136e+01 -8.128556722347e-01 0.0 
-8.128556722347e-01 -5.919275687103e+01 0.0 
0.0 0.0 -2.418281124571e+01 
-6.465130718842e+01 1.541542256208e+01 0.0 
1.541542256208e+01 -1.385161630334e+02 0.0 
0.0 0.0 -6.055024106656e+01 
-5.714516352812e+01 1.500755065502e+01 0.0 
1.500755065502e+01 -1.519712954436e+02 0.0 
0.0 0.0 -6.233493769150e+01 
-8.606980697841e+01 1.072511341864e+01 0.0 
1.072511341864e+01 -1.694741700897e+02 0.0 
0.0 0.0 -7.626319312043e+01 
-1.357282177162e+02 1.818496144403e+01 0.0 
1.818496144403e+01 -3.139432012204e+02 0.0 
0.0 0.0 -1.345014256810e+02 
-6.469658448846e+01 6.634742332174e+00 0.0 
6.634742332174e+00 -1.192740328440e+02 0.0 
0.0 0.0 -5.479118519975e+01 
-8.200427520995e+01 1.405849569223e+01 0.0 
1.405849569223e+01 -1.647299156222e+02 0.0 
0.0 0.0 -7.362025724966e+01 
-7.096378250167e+01 -3.899164419508e-01 0.0 
-3.899164419508e-01 -1.932578155770e+02 0.0 
0.0 0.0 -7.886647942358e+01 
-1.052665538891e+02 7.623474506271e+00 0.0 
7.623474506271e+00 -2.263340489705e+02 0.0 
0.0 0.0 -9.908018085789e+01 
-9.028846017702e+01 3.799635511315e+00 0.0 
3.799635511315e+00 -2.431859778658e+02 0.0 
0.0 0.0 -9.964233141283e+01 
-1.375311674529e+02 1.929171811373e+01 0.0 
1.929171811373e+01 -3.176376914795e+02 0.0 
0.0 0.0 -1.361506576797e+02 
-1.297875322876e+02 1.499987401552e+01 0.0 
1.499987401552e+01 -3.041709086712e+02 0.0 
0.0 0.0 -1.297875322876e+02 
-1.258851416190e+02 1.058245967243e+01 0.0 
1.058245967243e+01 -2.950653304443e+02 0.0 
0.0 0.0 -1.258851416190e+02 
-1.269400593127e+02 1.269563590422e+01 0.0 
1.269563590422e+01 -2.975268050631e+02 0.0 
0.0 0.0 -1.269400593127e+02 
-8.854981776882e+01 9.575274912452e+00 0.0 
9.575274912452e+00 -1.798735465487e+02 0.0 
0.0 0.0 -8.012700929527e+01 
-1.073309706393e+02 9.722024693308e+00 0.0 
9.722024693308e+00 -2.276032387020e+02 0.0 
0.0 0.0 -1.000802628024e+02 
-1.136762592201e+02 1.185679795661e+01 0.0 
1.185679795661e+01 -2.503069171697e+02 0.0 
0.0 0.0 -1.087949529169e+02 
-5.189084981504e+01 1.627723221381e+01 0.0 
1.627723221381e+01 -1.146308789732e+02 0.0 
0.0 0.0 -4.955651863646e+01 
-4.835701798296e+01 1.555473900834e+01 0.0 
1.555473900834e+01 -9.891754588253e+01 0.0 
0.0 0.0 -4.378236915965e+01 
-6.841759350700e+01 5.008692040304e-01 0.0 
5.008692040304e-01 -1.835055923794e+02 0.0 
0.0 0.0 -7.517695576592e+01 
-1.112764693993e+02 1.113911502120e+01 0.0 
1.113911502120e+01 -2.384585808245e+02 0.0 
0.0 0.0 -1.045205150671e+02 
-1.397322545956e+02 2.043283781217e+01 0.0 
2.043283781217e+01 -3.254233591197e+02 0.0 
0.0 0.0 -1.391466841146e+02 
-1.083214448819e+02 7.354720497169e+00 0.0 
7.354720497169e+00 -2.360647090333e+02 0.0 
0.0 0.0 -1.029158461746e+02 
-8.964930532089e+01 1.403955976169e+01 0.0 
1.403955976169e+01 -2.309717878145e+02 0.0 
0.0 0.0 -9.578632794060e+01 
-1.102893003611e+02 9.385503719824e+00 0.0 
9.385503719824e+00 -2.372973074136e+02 0.0 
0.0 0.0 -1.038759823324e+02 
-9.925419104056e+01 1.735628883553e+01 0.0 
1.735628883553e+01 -2.296708466958e+02 0.0 
0.0 0.0 -9.827751132090e+01 
-6.325098384930e+01 1.610847095138e+01 0.0 
1.610847095138e+01 -1.481674788388e+02 0.0 
0.0 0.0 -6.302553880644e+01 
-4.899249417166e+01 1.208322750808e+01 0.0 
1.208322750808e+01 -8.830984439495e+01 0.0 
0.0 0.0 -4.079070156998e+01 
-2.494252703666e+01 9.149596699604e+00 0.0 
9.149596699604e+00 -7.260518818045e+01 0.0 
0.0 0.0 -2.886431456513e+01 
-1.190617305687e+02 6.392106340774e+00 0.0 
6.392106340774e+00 -2.741784478003e+02 0.0 
0.0 0.0 -1.175720535107e+02 
-4.724467496568e+01 1.647586931183e+01 0.0 
1.647586931183e+01 -1.109124222957e+02 0.0 
0.0 0.0 -4.704712917842e+01 
-1.274542109801e+02 1.755450582712e+01 0.0 
1.755450582712e+01 -2.949984246984e+02 0.0 
0.0 0.0 -1.263357907035e+02 
-6.718154895824e+01 -8.411536634004e-01 0.0 
-8.411536634004e-01 -1.826934203167e+02 0.0 
0.0 0.0 -7.456249078249e+01 
-4.087859092723e+01 -6.231800933032e-02 0.0 
-6.231800933032e-02 -1.155778378752e+02 0.0 
0.0 0.0 -4.653692864071e+01 
-1.477250347032e+02 1.256361335600e+01 0.0 
1.256361335600e+01 -3.520466114210e+02 0.0 
0.0 0.0 -1.495314938373e+02 
-3.492309979712e+01 1.353953965225e+01 0.0 
1.353953965225e+01 -9.846957247574e+01 0.0 
0.0 0.0 -3.961780168186e+01 
-1.312314875406e+02 1.609431736472e+01 0.0 
1.609431736472e+01 -3.075401375947e+02 0.0 
0.0 0.0 -1.312314875406e+02 
-1.224420137378e+02 1.113022799309e+01 0.0 
1.113022799309e+01 -2.799969269951e+02 0.0 
0.0 0.0 -1.203316822199e+02 
-8.108155974429e+01 1.352109245562e+01 0.0 
1.352109245562e+01 -1.699405005261e+02 0.0 
0.0 0.0 -7.490661808112e+01 
-1.394637892513e+01 -1.545414195951e+00 0.0 
-1.545414195951e+00 -2.482202237862e+01 0.0 
0.0 0.0 -1.165756921995e+01 
-1.342019170704e+02 1.784089711497e+01 0.0 
1.784089711497e+01 -3.144711398309e+02 0.0 
0.0 0.0 -1.342019170704e+02 
-1.455379408769e+02 1.475284428733e+01 0.0 
1.475284428733e+01 -3.462286110585e+02 0.0 
0.0 0.0 -1.471299655806e+02 
-3.883196947659e+01 -5.059799684555e-01 0.0 
-5.059799684555e-01 -1.146144816130e+02 0.0 
0.0 0.0 -4.563393532686e+01 
-9.406084177869e+01 1.333693899532e+01 0.0 
1.333693899532e+01 -2.429594052777e+02 0.0 
0.0 0.0 -1.007060741169e+02 
-1.466177282333e+02 1.978871079004e+01 0.0 
1.978871079004e+01 -3.466919750281e+02 0.0 
0.0 0.0 -1.475929109784e+02 
-1.021085056885e+01 -6.344090354117e-01 0.0 
-6.344090354117e-01 -8.900386544660e+00 0.0 
0.0 0.0 -6.303284276841e+00 
-5.532815260081e+01 1.634188221176e+01 0.0 
1.634188221176e+01 -1.296212768166e+02 0.0 
0.0 0.0 -5.508482882523e+01 
-8.508804553739e+01 1.260594433268e+01 0.0 
1.260594433268e+01 -1.767683220942e+02 0.0 
0.0 0.0 -7.815691028948e+01 
-7.689978108033e+01 1.442932587320e+01 0.0 
1.442932587320e+01 -1.637167210683e+02 0.0 
0.0 0.0 -7.178495064459e+01 
-7.736711192305e+01 1.218432119146e+01 0.0 
1.218432119146e+01 -1.565744847546e+02 0.0 
0.0 0.0 -6.978247900330e+01 
-2.677266356773e+01 1.118276179907e+01 0.0 
1.118276179907e+01 -7.735115813804e+01 0.0 
0.0 0.0 -3.083714651173e+01 
-1.377313553693e+02 1.916886240146e+01 0.0 
1.916886240146e+01 -3.227064958617e+02 0.0 
0.0 0.0 -1.377313553693e+02 
-5.371450717300e+01 1.038619587998e+01 0.0 
1.038619587998e+01 -1.531731466255e+02 0.0 
0.0 0.0 -6.166629613954e+01 
-2.247931374556e+01 1.643478805246e+00 0.0 
1.643478805246e+00 -5.232498932363e+01 0.0 
0.0 0.0 -2.204129092076e+01 
-1.515918108218e+02 5.594023118282e+00 0.0 
5.594023118282e+00 -3.643864696360e+02 0.0 
0.0 0.0 -1.543934841373e+02 
-1.582235715435e+01 -1.479697894351e+00 0.0 
-1.479697894351e+00 -2.518907579638e+01 0.0 
0.0 0.0 -1.190342988522e+01 
-5.702772942925e+01 8.735785234367e+00 0.0 
8.735785234367e+00 -1.024259682645e+02 0.0 
0.0 0.0 -4.743610930813e+01 
-2.267555317577e+01 -1.620617598313e+00 0.0 
-1.620617598313e+00 -5.852170088536e+01 0.0 
0.0 0.0 -2.395917621834e+01 
-5.993346062416e+01 4.621249282045e+00 0.0 
4.621249282045e+00 -1.080325175248e+02 0.0 
0.0 0.0 -4.998979344469e+01 
-1.515235215920e+02 1.641825823603e+01 0.0 
1.641825823603e+01 -3.603318223800e+02 0.0 
0.0 0.0 -1.531566031916e+02 
-1.417461410735e+02 1.970299607138e+01 0.0 
1.970299607138e+01 -3.320743291715e+02 0.0 
0.0 0.0 -1.417461410735e+02 
-8.081805495560e+01 8.680643285992e+00 0.0 
8.680643285992e+00 -1.596404842993e+02 0.0 
0.0 0.0 -7.173756177646e+01 
-1.844941053282e+01 -1.922554375698e+00 0.0 
-1.922554375698e+00 -4.194902102361e+01 0.0 
0.0 0.0 -1.771952946693e+01 
-1.940714469302e+01 1.009210332487e+00 0.0 
1.009210332487e+00 -4.298802289667e+01 0.0 
0.0 0.0 -1.831855027691e+01 
-2.528500903416e+01 -1.949883248565e+00 0.0 
-1.949883248565e+00 -5.803213382476e+01 0.0 
0.0 0.0 -2.459514285768e+01 
-1.282883156967e+02 6.703111441914e+00 0.0 
6.703111441914e+00 -3.188789982533e+02 0.0 
0.0 0.0 -1.337501941850e+02 
-6.500052328112e+01 1.864796860209e+00 0.0 
1.864796860209e+00 -1.251740024504e+02 0.0 
0.0 0.0 -5.665235771947e+01 
-7.307202208270e+01 6.107949617096e+00 0.0 
6.107949617096e+00 -1.375876745805e+02 0.0 
0.0 0.0 -6.279790899895e+01 
-1.456456455654e+02 1.952011925022e+01 0.0 
1.952011925022e+01 -3.411731729858e+02 0.0 
0.0 0.0 -1.456456455654e+02 
-6.400693691859e+01 1.722755424126e+00 0.0 
1.722755424126e+00 -1.248932385594e+02 0.0 
0.0 0.0 -5.627005264339e+01 
-1.285146462162e+02 1.034079125881e+01 0.0 
1.034079125881e+01 -2.958793846992e+02 0.0 
0.0 0.0 -1.269182092746e+02 
-1.029502152127e+02 1.557767747341e+01 0.0 
1.557767747341e+01 -2.421971497483e+02 0.0 
0.0 0.0 -1.031442094883e+02 
-7.646174471012e+01 1.396965728319e+00 0.0 
1.396965728319e+00 -1.564853898707e+02 0.0 
0.0 0.0 -6.948414037425e+01 
-3.145097127837e+01 1.623838631156e+01 0.0 
1.623838631156e+01 -7.252005502797e+01 0.0 
0.0 0.0 -3.079130789190e+01 
-9.345675579288e+01 1.229744055533e+01 0.0 
1.229744055533e+01 -2.424951587239e+02 0.0 
0.0 0.0 -1.003855743550e+02 
-2.537858240870e+01 5.897808592995e+00 0.0 
5.897808592995e+00 -6.758371583105e+01 0.0 
0.0 0.0 -2.748868947192e+01 
-1.490957036726e+02 1.861645727742e+01 0.0 
1.861645727742e+01 -3.492233085694e+02 0.0 
0.0 0.0 -1.490957036726e+02 
-1.283065818720e+02 1.375622256792e+01 0.0 
1.375622256792e+01 -3.007153577012e+02 0.0 
0.0 0.0 -1.283065818720e+02 
-1.265345213771e+02 1.168483582673e+01 0.0 
1.168483582673e+01 -2.965805498800e+02 0.0 
0.0 0.0 -1.265345213771e+02 
-9.186980597320e+01 4.885969802129e+00 0.0 
4.885969802129e+00 -2.440873502456e+02 0.0 
0.0 0.0 -1.003871468656e+02 
-6.446906082772e+01 2.276462691661e-01 0.0 
2.276462691661e-01 -1.727047814749e+02 0.0 
0.0 0.0 -7.075215269078e+01 
-6.226112350940e+01 1.773954994204e+01 0.0 
1.773954994204e+01 -1.481060444317e+02 0.0 
0.0 0.0 -6.271015038233e+01 
-9.483063958232e+01 3.519005621104e+00 0.0 
3.519005621104e+00 -2.524801873451e+02 0.0 
0.0 0.0 -1.037932480782e+02 
-1.521245012655e+02 1.714071152408e+01 0.0 
1.714071152408e+01 -3.562905029527e+02 0.0 
0.0 0.0 -1.521245012655e+02 
-3.330261321001e+01 1.139081020599e+01 0.0 
1.139081020599e+01 -9.472005251649e+01 0.0 
0.0 0.0 -3.800679971795e+01 
-4.411501534415e+01 2.197708192079e+00 0.0 
2.197708192079e+00 -1.332304091526e+02 0.0 
0.0 0.0 -5.280362734904e+01 
-4.781509265682e+01 1.658283767776e+00 0.0 
1.658283767776e+00 -1.424913174074e+02 0.0 
0.0 0.0 -5.669192301926e+01 
-8.048079047741e+01 1.545393294093e+00 0.0 
1.545393294093e+00 -1.673649543556e+02 0.0 
0.0 0.0 -7.395372344991e+01 
-1.549696243782e+02 1.319167503638e+01 0.0 
1.319167503638e+01 -3.687629049770e+02 0.0 
0.0 0.0 -1.567197588065e+02 
-2.203993401506e+01 -1.991700547805e+00 0.0 
-1.991700547805e+00 -4.165344269613e+01 0.0 
0.0 0.0 -1.870801301336e+01 
-1.550618807922e+02 1.516048919463e+01 0.0 
1.516048919463e+01 -3.631443885152e+02 0.0 
0.0 0.0 -1.550618807922e+02 
-4.496599788386e+01 3.050806945754e-01 0.0 
3.050806945754e-01 -1.331494855029e+02 0.0 
0.0 0.0 -5.303464501603e+01 
-1.328964762499e+02 1.708299514996e+01 0.0 
1.708299514996e+01 -3.114251112497e+02 0.0 
0.0 0.0 -1.328964762499e+02 
-1.157609239572e+02 1.414266736588e+01 0.0 
1.414266736588e+01 -2.517469738544e+02 0.0 
0.0 0.0 -1.098523693435e+02 
-1.162485046397e+01 -6.122775582012e-01 0.0 
-6.122775582012e-01 -7.891047335418e+00 0.0 
0.0 0.0 -5.454769339816e+00 
-5.845271744425e+01 1.588665312827e+01 0.0 
1.588665312827e+01 -1.434531101875e+02 0.0 
0.0 0.0 -6.017174828952e+01 
-1.095643880205e+02 7.966782279472e+00 0.0 
7.966782279472e+00 -2.372958138589e+02 0.0 
0.0 0.0 -1.036580605638e+02 
-1.360435840033e+02 1.864735659617e+01 0.0 
1.864735659617e+01 -3.187683626744e+02 0.0 
0.0 0.0 -1.360435840033e+02 
-8.994201584699e+01 1.224654158188e+01 0.0 
1.224654158188e+01 -1.809682954858e+02 0.0 
0.0 0.0 -8.087309339985e+01 
-1.066738841326e+02 1.554760572260e+01 0.0 
1.554760572260e+01 -2.549283742159e+02 0.0 
0.0 0.0 -1.080806775046e+02 
-2.133167289108e+01 8.716546516415e+00 0.0 
8.716546516415e+00 -5.620559194384e+01 0.0 
0.0 0.0 -2.286117945047e+01 
-1.375507851260e+02 1.333824058731e+01 0.0 
1.333824058731e+01 -3.325539020289e+02 0.0 
0.0 0.0 -1.406314061465e+02 
-4.860762665520e+01 2.105223666469e-02 0.0 
2.105223666469e-02 -1.420150710480e+02 0.0 
0.0 0.0 -5.678680931095e+01 
-4.980701561146e+01 1.981489058665e+00 0.0 
1.981489058665e+00 -1.433995123329e+02 0.0 
0.0 0.0 -5.756195838331e+01 
-1.907129509932e+01 -1.612769376439e+00 0.0 
-1.612769376439e+00 -2.583147383877e+01 0.0 
0.0 0.0 -1.307083068143e+01 
-1.396794922969e+02 1.951803790777e+01 0.0 
1.951803790777e+01 -3.272521486928e+02 0.0 
0.0 0.0 -1.396794922969e+02 
-2.939502158132e+01 6.834658825809e+00 0.0 
6.834658825809e+00 -8.429032703330e+01 0.0 
0.0 0.0 -3.370560458439e+01 
-1.231078353339e+02 1.030457276879e+01 0.0 
1.030457276879e+01 -3.085696583133e+02 0.0 
0.0 0.0 -1.291032480942e+02 
-7.327801881232e+01 2.767409409629e+00 0.0 
2.767409409629e+00 -1.470730597638e+02 0.0 
0.0 0.0 -6.570532357284e+01 
-4.433646539489e+01 -8.229517133263e-01 0.0 
-8.229517133263e-01 -1.227003990754e+02 0.0 
0.0 0.0 -4.971105934109e+01 
-4.615591757221e+01 2.447419702030e+00 0.0 
2.447419702030e+00 -1.341479634830e+02 0.0 
0.0 0.0 -5.369116431656e+01 
-8.608474556135e+01 1.307859273774e+01 0.0 
1.307859273774e+01 -1.726815171793e+02 0.0 
0.0 0.0 -7.722987882219e+01 
-1.474334901119e+02 1.922305307763e+01 0.0 
1.922305307763e+01 -3.453448102610e+02 0.0 
0.0 0.0 -1.474334901119e+02 
-6.707075404967e+01 -9.945554547036e-01 0.0 
-9.945554547036e-01 -1.807218436147e+02 0.0 
0.0 0.0 -7.393777929930e+01 
-1.046885092405e+02 6.915816871800e+00 0.0 
6.915816871800e+00 -2.719052946992e+02 0.0 
0.0 0.0 -1.125781411819e+02 
-7.582396896409e+01 1.562119215724e+01 0.0 
1.562119215724e+01 -1.719610193119e+02 0.0 
0.0 0.0 -7.393549648280e+01 
-9.053402283153e+01 7.999197590791e+00 0.0 
7.999197590791e+00 -2.418906686383e+02 0.0 
0.0 0.0 -9.932740744095e+01 
-4.882147921704e+01 3.960619067314e+00 0.0 
3.960619067314e+00 -1.424724752815e+02 0.0 
0.0 0.0 -5.698818634956e+01 
-9.582621302147e+01 6.018051201828e+00 0.0 
6.018051201828e+00 -2.531218558395e+02 0.0 
0.0 0.0 -1.042844206583e+02 
-7.170968512054e+01 1.755376609106e+01 0.0 
1.755376609106e+01 -1.581511870178e+02 0.0 
0.0 0.0 -6.855826164151e+01 
-1.000678491568e+02 1.696186376561e+01 0.0 
1.696186376561e+01 -2.231345683443e+02 0.0 
0.0 0.0 -9.656072525034e+01 
-1.022673062135e+02 1.273857072931e+01 0.0 
1.273857072931e+01 -2.609300162771e+02 0.0 
0.0 0.0 -1.085591967472e+02 
-7.117986193906e+01 1.585376508045e+01 0.0 
1.585376508045e+01 -1.668135572889e+02 0.0 
0.0 0.0 -7.099802576839e+01 
-6.701858075779e+01 -4.424997334908e-01 0.0 
-4.424997334908e-01 -1.844688696719e+02 0.0 
0.0 0.0 -7.504623512892e+01 
-3.574730069749e+01 1.349850984184e+01 0.0 
1.349850984184e+01 -9.881085861102e+01 0.0 
0.0 0.0 -3.996744779255e+01 
-6.335912202064e+01 -1.157110851896e+00 0.0 
-1.157110851896e+00 -1.719366331892e+02 0.0 
0.0 0.0 -7.018872656295e+01 
-1.029929504576e+02 1.735086041988e+01 0.0 
1.735086041988e+01 -2.426616988238e+02 0.0 
0.0 0.0 -1.032963947844e+02 
-8.052880193843e+01 1.062589056684e+01 0.0 
1.062589056684e+01 -2.173652619558e+02 0.0 
0.0 0.0 -8.896821916828e+01 
-1.528000651168e+02 1.545523758449e+01 0.0 
1.545523758449e+01 -3.634702535866e+02 0.0 
0.0 0.0 -1.544810956110e+02 
-1.133737121379e+02 9.094008835416e+00 0.0 
9.094008835416e+00 -2.471308172403e+02 0.0 
0.0 0.0 -1.077513588135e+02 
-3.969924168790e+01 -2.172772886914e+00 0.0 
-2.172772886914e+00 -1.113112161429e+02 0.0 
0.0 0.0 -4.490313734925e+01 
-1.536590099084e+02 1.613054513525e+01 0.0 
1.613054513525e+01 -3.598710231195e+02 0.0 
0.0 0.0 -1.536590099084e+02 
-1.434833803777e+02 1.496546746718e+01 0.0 
1.496546746718e+01 -3.464159675879e+02 0.0 
0.0 0.0 -1.465698043897e+02 
-6.521456275347e+01 1.435408883300e+01 0.0 
1.435408883300e+01 -1.699001692832e+02 0.0 
0.0 0.0 -7.013441961100e+01 
-1.542685424555e+01 -1.558794449300e+00 0.0 
-1.558794449300e+00 -2.541367475683e+01 0.0 
0.0 0.0 -1.222994222241e+01 
-1.559704351964e+02 1.201541143074e+01 0.0 
1.201541143074e+01 -3.710164415394e+02 0.0 
0.0 0.0 -1.576960630207e+02 
-1.139814502047e+02 1.058010925484e+01 0.0 
1.058010925484e+01 -2.475676580276e+02 0.0 
0.0 0.0 -1.080647324697e+02 
-4.224752534388e+01 -7.916837075990e-01 0.0 
-7.916837075990e-01 -1.234188562011e+02 0.0 
0.0 0.0 -4.929991446348e+01 
-1.575039726972e+02 1.314537977119e+01 0.0 
1.314537977119e+01 -3.688426029600e+02 0.0 
0.0 0.0 -1.575039726972e+02 
-1.005041774404e+02 5.754340572598e+00 0.0 
5.754340572598e+00 -2.628385180178e+02 0.0 
0.0 0.0 -1.086028086375e+02 
-5.301938292478e+01 1.423730171765e+01 0.0 
1.423730171765e+01 -1.034290362201e+02 0.0 
0.0 0.0 -4.653452574347e+01 
-7.576955498757e+01 4.963053503529e+00 0.0 
4.963053503529e+00 -1.466521932812e+02 0.0 
0.0 0.0 -6.632652448063e+01 
-7.703683557049e+01 1.224856003079e+01 0.0 
1.224856003079e+01 -2.064410718435e+02 0.0 
0.0 0.0 -8.464337222421e+01 
-8.356601156913e+01 4.014536257503e+00 0.0 
4.014536257503e+00 -2.253596862702e+02 0.0 
0.0 0.0 -9.227770935181e+01 
-9.461409353284e+01 9.374341246540e+00 0.0 
9.374341246540e+00 -2.500720769905e+02 0.0 
0.0 0.0 -1.030058511570e+02 
-9.270912053790e+01 7.798490509460e+00 0.0 
7.798490509460e+00 -1.871148611959e+02 0.0 
0.0 0.0 -8.354719452014e+01 
-6.149472820090e+01 1.105618653630e+01 0.0 
1.105618653630e+01 -1.157173143407e+02 0.0 
0.0 0.0 -5.276361276249e+01 
-1.067568609908e+02 1.374126528853e+01 0.0 
1.374126528853e+01 -2.678073472830e+02 0.0 
0.0 0.0 -1.119692624822e+02 
-7.378514721409e+01 4.573144789783e-01 0.0 
4.573144789783e-01 -1.565905366194e+02 0.0 
0.0 0.0 -6.871270515004e+01 
-6.850050568462e+01 7.709135471744e-01 0.0 
7.709135471744e-01 -1.853580683228e+02 0.0 
0.0 0.0 -7.575757220224e+01 
-9.775128627688e+01 1.162780583645e+01 0.0 
1.162780583645e+01 -2.538542620497e+02 0.0 
0.0 0.0 -1.050816644980e+02 
-5.050432748545e+01 6.046942148052e-01 0.0 
6.046942148052e-01 -1.429278795642e+02 0.0 
0.0 0.0 -5.762966211491e+01 
-9.963574960221e+01 1.280623639822e+00 0.0 
1.280623639822e+00 -2.591835921184e+02 0.0 
0.0 0.0 -1.072458025162e+02 
-1.308654235915e+01 -6.094160412046e-01 0.0 
-6.094160412046e-01 -8.029625199738e+00 0.0 
0.0 0.0 -5.934850267666e+00 
-3.865800546751e+01 1.544226664110e+01 0.0 
1.544226664110e+01 -1.026230774757e+02 0.0 
0.0 0.0 -4.198432488295e+01 
-4.698641474933e+01 7.748118837210e-01 0.0 
7.748118837210e-01 -1.341024636662e+02 0.0 
0.0 0.0 -5.392666352466e+01 
-7.493594242440e+01 -3.167943754670e-01 0.0 
-3.167943754670e-01 -2.020577562116e+02 0.0 
0.0 0.0 -8.269810959079e+01 
-6.981043384614e+01 1.512330755924e+01 0.0 
1.512330755924e+01 -1.751136599611e+02 0.0 
0.0 0.0 -7.307722814218e+01 
-9.899209861348e+01 4.598041441618e+00 0.0 
4.598041441618e+00 -2.619532340584e+02 0.0 
0.0 0.0 -1.078835998016e+02 
-7.790212914241e+01 2.666585455981e+00 0.0 
2.666585455981e+00 -1.592255729342e+02 0.0 
0.0 0.0 -7.073831062298e+01 
-4.415166064533e+01 -1.642852345475e-01 0.0 
-1.642852345475e-01 -1.243651600075e+02 0.0 
0.0 0.0 -5.015504619585e+01 
-1.585652064505e+02 1.207581123281e+01 0.0 
1.207581123281e+01 -3.713188150512e+02 0.0 
0.0 0.0 -1.585652064505e+02 
-8.543901450439e+01 1.530162861400e+01 0.0 
1.530162861400e+01 -1.774459448256e+02 0.0 
0.0 0.0 -7.846548779900e+01 
-7.889957778100e+01 -2.692420742835e-01 0.0 
-2.692420742835e-01 -2.107186756524e+02 0.0 
0.0 0.0 -8.648547603001e+01 
-8.102409399518e+01 1.616667043203e+01 0.0 
1.616667043203e+01 -1.704452979127e+02 0.0 
0.0 0.0 -7.504081757236e+01 
-7.614594717945e+01 1.000253827410e+00 0.0 
1.000253827410e+00 -2.028515631288e+02 0.0 
0.0 0.0 -8.329925309248e+01 
-1.127943473783e+01 -6.526461612493e-01 0.0 
-6.526461612493e-01 -8.943655161719e+00 0.0 
0.0 0.0 -6.641172949113e+00 
-8.128533115894e+01 7.044537250690e+00 0.0 
7.044537250690e+00 -1.574896607829e+02 0.0 
0.0 0.0 -7.123249758257e+01 
-6.332245443366e+01 -1.049582788779e+00 0.0 
-1.049582788779e+00 -1.689699094538e+02 0.0 
0.0 0.0 -6.928770916623e+01 
-5.929413527196e+00 -4.141210822767e-01 0.0 
-4.141210822767e-01 -8.760285280762e+00 0.0 
0.0 0.0 -4.961584431034e+00 
-7.483828942632e+01 -6.735407162603e-01 0.0 
-6.735407162603e-01 -1.999936171667e+02 0.0 
0.0 0.0 -8.204957197791e+01 
-1.080490917937e+02 5.388973253686e+00 0.0 
5.388973253686e+00 -2.807394392903e+02 0.0 
0.0 0.0 -1.162365593252e+02 
-1.033790277623e+02 1.239653694622e+00 0.0 
1.239653694622e+00 -2.320595560434e+02 0.0 
0.0 0.0 -1.002315751417e+02 
-8.608953225779e+01 8.550522835868e+00 0.0 
8.550522835868e+00 -2.318092758919e+02 0.0 
0.0 0.0 -9.496964244492e+01 
-8.917816836302e+01 7.097548454998e+00 0.0 
7.097548454998e+00 -2.410956616062e+02 0.0 
0.0 0.0 -9.868214899076e+01 
-6.511721342599e+01 4.755822768607e+00 0.0 
4.755822768607e+00 -1.189479592788e+02 0.0 
0.0 0.0 -5.481955181142e+01 
-5.613439117590e+01 8.011973875511e-01 0.0 
8.011973875511e-01 -1.066508288983e+02 0.0 
0.0 0.0 -4.843556602225e+01 
-1.209617650488e+02 8.553337221488e+00 0.0 
8.553337221488e+00 -2.767983599762e+02 0.0 
0.0 0.0 -1.189280375075e+02 
-7.643124867746e+01 1.695089020452e+01 0.0 
1.695089020452e+01 -1.639874863549e+02 0.0 
0.0 0.0 -7.172562050972e+01 
-4.783130940324e+00 -3.005733119486e-01 0.0 
-3.005733119486e-01 -7.331346793693e+00 0.0 
0.0 0.0 -3.234343320205e+00 
-2.696673646350e+01 -1.461337467711e+00 0.0 
-1.461337467711e+00 -6.908596747807e+01 0.0 
0.0 0.0 -2.841581118247e+01 
-1.488877263853e+01 -1.543297016715e+00 0.0 
-1.543297016715e+00 -2.516652983067e+01 0.0 
0.0 0.0 -1.201010399815e+01 
-4.405757342164e+01 -1.214982506152e+00 0.0 
-1.214982506152e+00 -1.199068812522e+02 0.0 
0.0 0.0 -4.878933640216e+01 
-1.157464373552e+02 1.676085107236e+01 0.0 
1.676085107236e+01 -2.572957682810e+02 0.0 
0.0 0.0 -1.115126616909e+02 
-1.042622372065e+02 2.941770784989e+00 0.0 
2.941770784989e+00 -2.327269867940e+02 0.0 
0.0 0.0 -1.006967672002e+02 
-1.224114456910e+02 4.355164993319e+00 0.0 
4.355164993319e+00 -3.084074431341e+02 0.0 
0.0 0.0 -1.288456666475e+02 
-5.016068040519e+01 -6.790507180100e-01 0.0 
-6.790507180100e-01 -1.359430094149e+02 0.0 
0.0 0.0 -5.543110694603e+01 
-1.006879030032e+02 2.612889573794e+00 0.0 
2.612889573794e+00 -2.599362039448e+02 0.0 
0.0 0.0 -1.077872320844e+02 
-1.269162032706e+02 8.564416698017e+00 0.0 
8.564416698017e+00 -3.176298759433e+02 0.0 
0.0 0.0 -1.329638237642e+02 
-2.619864057553e+01 2.471806009336e+00 0.0 
2.471806009336e+00 -7.007853385757e+01 0.0 
0.0 0.0 -2.848315232993e+01 
-6.366145669324e+01 6.235690949826e-01 0.0 
6.235690949826e-01 -1.691581643498e+02 0.0 
0.0 0.0 -6.944588631292e+01 
-5.224551580328e+01 -9.610547478118e-01 0.0 
-9.610547478118e-01 -1.393562352334e+02 0.0 
0.0 0.0 -5.708052531102e+01 
-1.565392452716e+02 1.080762810296e+01 0.0 
1.080762810296e+01 -3.726329280647e+02 0.0 
0.0 0.0 -1.583516520009e+02 
-1.594145751110e+02 1.102558486433e+01 0.0 
1.102558486433e+01 -3.733006752591e+02 0.0 
0.0 0.0 -1.594145751110e+02 
-7.086915273870e+01 5.142375220468e-01 0.0 
5.142375220468e-01 -1.877034360258e+02 0.0 
0.0 0.0 -7.717177662934e+01 
-8.005552525624e+01 1.091184690625e+00 0.0 
1.091184690625e+00 -2.115059363273e+02 0.0 
0.0 0.0 -8.706843847507e+01 
-8.630186409175e+01 2.733933171753e+00 0.0 
2.733933171753e+00 -2.336493913282e+02 0.0 
0.0 0.0 -9.558537662598e+01 
-1.315679961438e+02 9.975123727705e+00 0.0 
9.975123727705e+00 -3.261216574973e+02 0.0 
0.0 0.0 -1.369068960923e+02 
-2.895306441521e+01 -2.600204891770e+00 0.0 
-2.600204891770e+00 -7.651463510135e+01 0.0 
0.0 0.0 -3.124030985497e+01 
-1.221312904216e+02 7.316168773140e+00 0.0 
7.316168773140e+00 -3.086952469154e+02 0.0 
0.0 0.0 -1.288479612011e+02 
-1.740334809965e+01 -1.055536780868e+00 0.0 
-1.055536780868e+00 -4.299658301802e+01 0.0 
0.0 0.0 -1.771997933530e+01 
-7.204933471859e+01 6.344731804370e-01 0.0 
6.344731804370e-01 -1.921693814267e+02 0.0 
0.0 0.0 -7.886561484360e+01 
-8.016744115222e+01 1.499769227435e+00 0.0 
1.499769227435e+00 -2.133491266941e+02 0.0 
0.0 0.0 -8.765497035390e+01 
-1.019251639664e+01 -5.652949441275e-01 0.0 
-5.652949441275e-01 -2.554972715872e+01 0.0 
0.0 0.0 -1.070326823638e+01 
-6.737955884691e+01 -8.544803493932e-01 0.0 
-8.544803493932e-01 -1.783423832759e+02 0.0 
0.0 0.0 -7.331658263685e+01 
-1.111293324685e+02 7.237594390074e+00 0.0 
7.237594390074e+00 -2.457199104675e+02 0.0 
0.0 0.0 -1.066547728808e+02 
-4.065027953683e+00 -2.755748743024e-01 0.0 
-2.755748743024e-01 -7.806436380853e+00 0.0 
0.0 0.0 -3.161439300361e+00 
-5.721816542204e+01 1.064488580049e+00 0.0 
1.064488580049e+00 -1.071181117748e+02 0.0 
0.0 0.0 -4.890088315904e+01 
-5.739125726755e+01 1.461068586937e+00 0.0 
1.461068586937e+00 -1.078170380439e+02 0.0 
0.0 0.0 -4.916248859343e+01 
-9.882424175542e+01 1.074776323463e+01 0.0 
1.074776323463e+01 -2.579509305410e+02 0.0 
0.0 0.0 -1.066325516889e+02 
-5.231358490680e+01 5.454926404697e-01 0.0 
5.454926404697e-01 -1.393060236331e+02 0.0 
0.0 0.0 -5.708588256198e+01 
-4.570919016266e+01 -9.683355617439e-01 0.0 
-9.683355617439e-01 -1.321545089696e+02 0.0 
0.0 0.0 -5.295910973967e+01 
-2.562064686923e+01 1.200605001565e+01 0.0 
1.200605001565e+01 -6.511966800348e+01 0.0 
0.0 0.0 -2.682209446181e+01 
-1.368494305020e+02 4.575281817064e+00 0.0 
4.575281817064e+00 -3.357552666481e+02 0.0 
0.0 0.0 -1.413814091450e+02 
-1.326576012274e+02 1.825251743217e+01 0.0 
1.825251743217e+01 -3.087284035553e+02 0.0 
0.0 0.0 -1.320158014348e+02 
-1.007204296091e+02 3.891641123990e+00 0.0 
3.891641123990e+00 -2.201974465947e+02 0.0 
0.0 0.0 -9.587536286113e+01 
-3.201061588468e+01 1.715346590126e+01 0.0 
1.715346590126e+01 -7.292250310303e+01 0.0 
0.0 0.0 -3.107993569631e+01 
-1.973193626367e+01 -2.644443512465e+00 0.0 
-2.644443512465e+00 -4.769516052820e+01 0.0 
0.0 0.0 -1.982812903756e+01 
-6.262805088976e+01 1.103566602545e+01 0.0 
1.103566602545e+01 -1.119910015609e+02 0.0 
0.0 0.0 -5.198571573519e+01 
-5.513209709619e+01 2.634507626654e-01 0.0 
2.634507626654e-01 -1.071599776819e+02 0.0 
0.0 0.0 -4.828762243342e+01 
-5.431716460333e+01 3.507273294011e-01 0.0 
3.507273294011e-01 -1.069092922978e+02 0.0 
0.0 0.0 -4.796793707035e+01 
-5.381567062108e+00 -3.509653359761e-01 0.0 
-3.509653359761e-01 -8.983204966760e+00 0.0 
0.0 0.0 -4.878319059300e+00 
-1.044727565494e+01 -6.763723899932e-01 0.0 
-6.763723899932e-01 -2.540060128234e+01 0.0 
0.0 0.0 -1.077569245114e+01 
-1.546957514163e+01 -2.211533632753e-01 0.0 
-2.211533632753e-01 -4.207963684221e+01 0.0 
0.0 0.0 -1.686476359515e+01 
-3.852584074942e+01 -2.377158679779e+00 0.0 
-2.377158679779e+00 -1.046626539285e+02 0.0 
0.0 0.0 -4.255654840337e+01 
-1.029889744658e+01 -4.335691891169e-01 0.0 
-4.335691891169e-01 -2.587455992656e+01 0.0 
0.0 0.0 -1.045203721194e+01 
-7.476180922120e+01 -7.438701833689e-01 0.0 
-7.438701833689e-01 -1.979171593203e+02 0.0 
0.0 0.0 -8.140369056244e+01 
-1.419139750786e+01 -6.139584949868e-01 0.0 
-6.139584949868e-01 -8.856880005219e+00 0.0 
0.0 0.0 -7.482818619078e+00 
-4.537001595930e+01 -2.144311894886e+00 0.0 
-2.144311894886e+00 -1.242413920664e+02 0.0 
0.0 0.0 -5.048342240772e+01 
-8.050028379539e+01 2.868915332309e-01 0.0 
2.868915332309e-01 -1.736071878266e+02 0.0 
0.0 0.0 -7.583224148661e+01 
-5.574464936568e+01 6.504483460977e-01 0.0 
6.504483460977e-01 -1.069174668448e+02 0.0 
0.0 0.0 -4.839863486315e+01 
-1.193446327044e+02 1.647197114508e+01 0.0 
1.647197114508e+01 -2.645851081938e+02 0.0 
0.0 0.0 -1.147789222694e+02 
-1.036885768016e+02 4.285767514751e+00 0.0 
4.285767514751e+00 -2.713048922322e+02 0.0 
0.0 0.0 -1.120980407102e+02 
-7.314822737283e+01 1.092100112490e-02 0.0 
1.092100112490e-02 -1.559104419685e+02 0.0 
0.0 0.0 -6.831760080240e+01 
-5.580435314306e+01 -7.908698026411e-01 0.0 
-7.908698026411e-01 -1.487734236285e+02 0.0 
0.0 0.0 -6.097333303147e+01 
-1.682172875134e+01 -4.894902490960e-01 0.0 
-4.894902490960e-01 -4.274772483946e+01 0.0 
0.0 0.0 -1.747083607724e+01 
-1.231847364987e+02 4.369941906744e+00 0.0 
4.369941906744e+00 -2.887643851637e+02 0.0 
0.0 0.0 -1.231847364987e+02 
-1.252279328891e+02 4.762121196238e+00 0.0 
4.762121196238e+00 -2.897330583843e+02 0.0 
0.0 0.0 -1.240882973820e+02 
-7.195172492885e+01 6.128470872148e-01 0.0 
6.128470872148e-01 -1.462758888502e+02 0.0 
0.0 0.0 -6.506828413373e+01 
-5.516382580102e+01 3.874540934206e-01 0.0 
3.874540934206e-01 -1.067121476231e+02 0.0 
0.0 0.0 -4.816279202724e+01 
-5.674681209563e+01 9.336557271901e-02 0.0 
9.336557271901e-02 -1.508353895872e+02 0.0 
0.0 0.0 -6.187466050486e+01 
-1.247929159004e+02 3.409151323627e+00 0.0 
3.409151323627e+00 -2.890901099979e+02 0.0 
0.0 0.0 -1.237649077695e+02 
-4.314146257491e+01 -1.047541827880e+00 0.0 
-1.047541827880e+00 -1.163747163949e+02 0.0 
0.0 0.0 -4.745485369095e+01 
-5.645491532369e+01 1.026303300970e+00 0.0 
1.026303300970e+00 -1.071157308614e+02 0.0 
0.0 0.0 -4.867119385552e+01 
-5.602958645563e+01 5.199695670216e-01 0.0 
5.199695670216e-01 -1.066817143773e+02 0.0 
0.0 0.0 -4.841339024988e+01 
-5.610458283499e+01 5.363669908557e+00 0.0 
5.363669908557e+00 -9.896242430601e+01 0.0 
0.0 0.0 -4.612010214230e+01 
-1.255334580097e+02 9.639927995055e+00 0.0 
9.639927995055e+00 -2.942447353560e+02 0.0 
0.0 0.0 -1.255334580097e+02 
-1.257456322643e+02 3.947719913557e+00 0.0 
3.947719913557e+00 -2.898628898121e+02 0.0 
0.0 0.0 -1.242825566229e+02 
-1.063985495304e+01 -5.868278002479e-01 0.0 
-5.868278002479e-01 -2.567122066221e+01 0.0 
0.0 0.0 -1.049332268457e+01 
-5.081547218156e+00 -2.476328329175e-01 0.0 
-2.476328329175e-01 -9.093257950712e+00 0.0 
0.0 0.0 -4.829696357957e+00 
-2.269690828312e+01 -2.415994569586e+00 0.0 
-2.415994569586e+00 -5.725705050132e+01 0.0 
0.0 0.0 -2.358618763533e+01 
-7.884956332746e+01 2.037513823986e-01 0.0 
2.037513823986e-01 -2.125141940420e+02 0.0 
0.0 0.0 -8.700912721083e+01 
-1.461309419837e+02 -2.785927447561e-01 0.0 
-2.785927447561e-01 -3.520222536394e+02 0.0 
0.0 0.0 -1.490459586869e+02 
-1.769733331635e+01 -4.149338198133e-01 0.0 
-4.149338198133e-01 -7.170102874683e+00 0.0 
0.0 0.0 -7.060230857309e+00 
-9.704590492882e+01 1.190714623923e+00 0.0 
1.190714623923e+00 -2.162160966357e+02 0.0 
0.0 0.0 -9.357860046937e+01 
-1.333450310627e+01 -6.901853962646e-01 0.0 
-6.901853962646e-01 -9.010686114307e+00 0.0 
0.0 0.0 -7.284506806909e+00 
-9.790423077163e+01 7.840347665675e+00 0.0 
7.840347665675e+00 -2.594908105627e+02 0.0 
0.0 0.0 -1.068185124003e+02 
-1.466207440811e+01 -7.109780675632e-01 0.0 
-7.109780675632e-01 -8.222850278497e+00 0.0 
0.0 0.0 -6.465477405981e+00 
-1.619919805550e+01 -6.290736225432e-01 0.0 
-6.290736225432e-01 -8.138201393356e+00 0.0 
0.0 0.0 -6.901219834657e+00 
-9.364644913177e+01 6.545664905720e+00 0.0 
6.545664905720e+00 -2.509858743925e+02 0.0 
0.0 0.0 -1.029896970573e+02 
-1.407828570051e+02 1.532908461513e+00 0.0 
1.532908461513e+00 -3.419767868976e+02 0.0 
0.0 0.0 -1.444278931708e+02 
-8.031460203641e+01 8.116329448486e-01 0.0 
8.116329448486e-01 -1.724386835972e+02 0.0 
0.0 0.0 -7.542598569010e+01 
-6.647320731536e+01 1.310237297132e+01 0.0 
1.310237297132e+01 -1.241895985306e+02 0.0 
0.0 0.0 -5.679884175379e+01 
-9.919152372748e+00 -3.201439569231e-01 0.0 
-3.201439569231e-01 -2.554136206891e+01 0.0 
0.0 0.0 -1.062064845700e+01 
-1.048331845190e+02 2.492602046957e+00 0.0 
2.492602046957e+00 -2.685310125178e+02 0.0 
0.0 0.0 -1.116092591110e+02 
-1.224137594519e+02 1.415558209267e+00 0.0 
1.415558209267e+00 -2.869654387212e+02 0.0 
0.0 0.0 -1.224137594519e+02 
-1.242700986877e+02 2.132743562879e+00 0.0 
2.132743562879e+00 -2.884084336000e+02 0.0 
0.0 0.0 -1.234035596863e+02 
-5.516672530984e+01 4.207583598086e-01 0.0 
4.207583598086e-01 -1.067765967466e+02 0.0 
0.0 0.0 -4.818299661693e+01 
-1.022833709116e+02 9.139044093993e+00 0.0 
9.139044093993e+00 -2.677229529851e+02 0.0 
0.0 0.0 -1.106018971690e+02 
-1.231857977676e+02 3.498366515210e+00 0.0 
3.498366515210e+00 -2.887668614576e+02 0.0 
0.0 0.0 -1.231857977676e+02 
-1.070521310863e+02 1.728909493568e+01 0.0 
1.728909493568e+01 -2.554509698687e+02 0.0 
0.0 0.0 -1.083509302865e+02 
-1.607942452228e+01 -5.052702678836e-01 0.0 
-5.052702678836e-01 -4.158882417247e+01 0.0 
0.0 0.0 -1.690047460843e+01 
-9.982247906938e+00 -2.828904532100e-01 0.0 
-2.828904532100e-01 -2.565832356482e+01 0.0 
0.0 0.0 -1.029217144153e+01 
-9.502444105448e+00 -9.272071261299e-02 0.0 
-9.272071261299e-02 -2.513167237968e+01 0.0 
0.0 0.0 -1.023150245957e+01 
-6.346732927568e+01 -7.522641388615e-01 0.0 
-7.522641388615e-01 -1.684922474736e+02 0.0 
0.0 0.0 -6.918787302479e+01 
-1.609940619260e+02 2.888180662800e+00 0.0 
2.888180662800e+00 -3.812142057711e+02 0.0 
0.0 0.0 -1.622624803091e+02 
-1.159894913140e+02 1.020387044854e+00 0.0 
1.020387044854e+00 -2.666168670449e+02 0.0 
0.0 0.0 -1.143819075077e+02 
-4.300795087746e+00 -5.499119169196e-02 0.0 
-5.499119169196e-02 -9.067080384745e+00 0.0 
0.0 0.0 -4.579040753419e+00 
-7.513315111317e+01 6.762119214981e-01 0.0 
6.762119214981e-01 -1.980792314887e+02 0.0 
0.0 0.0 -8.156371478055e+01 
-1.637555076589e+02 1.927335774386e+00 0.0 
1.927335774386e+00 -3.834295178707e+02 0.0 
0.0 0.0 -1.637555076589e+02 
-1.602736115287e+02 2.981583224266e+00 0.0 
2.981583224266e+00 -3.803725696843e+02 0.0 
0.0 0.0 -1.617938543639e+02 
-1.572166851821e+02 9.803791552872e+00 0.0 
9.803791552872e+00 -3.740524892279e+02 0.0 
0.0 0.0 -1.589807523230e+02 
-8.932479988352e+01 -6.664622211601e-01 0.0 
-6.664622211601e-01 -1.965876103806e+02 0.0 
0.0 0.0 -8.537372307924e+01 
-1.010703650181e+02 9.188497108164e-01 0.0 
9.188497108164e-01 -2.265139198859e+02 0.0 
0.0 0.0 -9.787528547118e+01 
-1.628548789263e+02 2.656199497376e+00 0.0 
2.656199497376e+00 -3.813280508280e+02 0.0 
0.0 0.0 -1.628548789263e+02 
-1.630166052089e+02 3.515781673213e+00 0.0 
3.515781673213e+00 -3.817054121542e+02 0.0 
0.0 0.0 -1.630166052089e+02 
-9.714648550791e+01 -4.493858839128e-01 0.0 
-4.493858839128e-01 -2.163418293388e+02 0.0 
0.0 0.0 -9.364649445402e+01 
-2.737972463368e+00 -3.390334576230e-01 0.0 
-3.390334576230e-01 -6.798482403241e+00 0.0 
0.0 0.0 -2.460936459983e+00 
-5.346140325464e+01 9.452257406932e-02 0.0 
9.452257406932e-02 -1.060610546485e+02 0.0 
0.0 0.0 -4.745673737094e+01 
-5.473832802976e+01 1.919819657063e-01 0.0 
1.919819657063e-01 -1.069788336633e+02 0.0 
0.0 0.0 -4.811514850791e+01 
-4.669925803676e+00 -1.487839182355e-01 0.0 
-1.487839182355e-01 -9.064294371794e+00 0.0 
0.0 0.0 -4.696417794992e+00 
-1.624515999873e+02 6.027904942149e+00 0.0 
6.027904942149e+00 -3.803870666371e+02 0.0 
0.0 0.0 -1.624515999873e+02 
-1.574084197417e+02 8.601446108385e+00 0.0 
8.601446108385e+00 -3.750222600154e+02 0.0 
0.0 0.0 -1.593292039271e+02 
-1.609358739872e+02 7.871868704722e+00 0.0 
7.871868704722e+00 -3.768503726368e+02 0.0 
0.0 0.0 -1.609358739872e+02 
-3.102806351701e+00 -1.005446647059e-01 0.0 
-1.005446647059e-01 -7.934342202972e+00 0.0 
0.0 0.0 -2.911144566402e+00 
-3.479847412154e+00 -2.437667672625e-01 0.0 
-2.437667672625e-01 -8.038133431987e+00 0.0 
0.0 0.0 -3.055394253242e+00 
-1.599949946063e+02 9.956453024789e+00 0.0 
9.956453024789e+00 -3.746549874147e+02 0.0 
0.0 0.0 -1.599949946063e+02 
-1.605879234785e+02 8.978679122227e+00 0.0 
8.978679122227e+00 -3.760384881165e+02 0.0 
0.0 0.0 -1.605879234785e+02 
-8.523804025932e+01 9.581248477415e-01 0.0 
9.581248477415e-01 -1.866232913894e+02 0.0 
0.0 0.0 -8.115839949460e+01 
-5.270306816330e+01 -1.188277500428e-01 0.0 
-1.188277500428e-01 -1.057271201530e+02 0.0 
0.0 0.0 -4.712905649489e+01 
-9.341162665401e+01 9.538603074698e-01 0.0 
9.538603074698e-01 -2.065510763622e+02 0.0 
0.0 0.0 -8.958881090486e+01 
-6.934971076889e+01 9.050488717411e-01 0.0 
9.050488717411e-01 -1.471093001601e+02 0.0 
0.0 0.0 -6.453770327869e+01 
-5.275464809740e+01 -6.362691576968e-02 0.0 
-6.362691576968e-02 -1.058573189177e+02 0.0 
0.0 0.0 -4.718359010452e+01 
-5.749405509419e+00 -4.778685201919e-01 0.0 
-4.778685201919e-01 -7.626448712038e+00 0.0 
0.0 0.0 -3.612756266437e+00 
-7.957343434742e+00 -3.021113029604e-01 0.0 
-3.021113029604e-01 -8.304514950354e+00 0.0 
0.0 0.0 -4.478557515529e+00 
-8.961987924452e+00 -4.539478905593e-01 0.0 
-4.539478905593e-01 -7.889085733957e+00 0.0 
0.0 0.0 -4.655322097523e+00 
-1.022864735836e+01 -5.187339305616e-01 0.0 
-5.187339305616e-01 -8.015825406672e+00 0.0 
0.0 0.0 -5.073341829510e+00 
-7.909693209588e+01 -8.856166129684e-01 0.0 
-8.856166129684e-01 -2.080971877737e+02 0.0 
0.0 0.0 -8.575823596088e+01 
-7.122015335931e+01 -7.752144265172e-01 0.0 
-7.752144265172e-01 -1.882164512439e+02 0.0 
0.0 0.0 -7.743098138097e+01 
-8.190861076589e+00 -4.914767072053e-01 0.0 
-4.914767072053e-01 -8.991683606299e+00 0.0 
0.0 0.0 -5.731790875802e+00 
-1.041237224968e+02 -8.009972384159e-01 0.0 
-8.009972384159e-01 -2.657566053904e+02 0.0 
0.0 0.0 -1.105640983662e+02 
-9.375843940832e+00 -5.961327279758e-01 0.0 
-5.961327279758e-01 -8.960520866276e+00 0.0 
0.0 0.0 -6.072748614905e+00 
-1.242442173895e+02 7.531704814587e+00 0.0 
7.531704814587e+00 -2.912365072423e+02 0.0 
0.0 0.0 -1.242442173895e+02 
-1.228080077787e+02 2.898123655762e+00 0.0 
2.898123655762e+00 -2.878853514837e+02 0.0 
0.0 0.0 -1.228080077787e+02 
-1.232859190409e+02 5.068517689421e+00 0.0 
5.068517689421e+00 -2.890004777622e+02 0.0 
0.0 0.0 -1.232859190409e+02 
-2.612063633898e+01 -9.555707627370e-01 0.0 
-9.555707627370e-01 -6.895162338997e+01 0.0 
0.0 0.0 -2.812167791868e+01 
-4.840261110026e+01 -8.121735252780e-01 0.0 
-8.121735252780e-01 -1.289505009759e+02 0.0 
0.0 0.0 -5.280593362286e+01 
-1.224961734444e+02 2.346782199034e+00 0.0 
2.346782199034e+00 -2.871577380369e+02 0.0 
0.0 0.0 -1.224961734444e+02 
-1.318242407520e+02 -6.668635147331e-01 0.0 
-6.668635147331e-01 -3.239321995615e+02 0.0 
0.0 0.0 -1.363269320941e+02 
-1.233401093328e+02 1.917589579092e+00 0.0 
1.917589579092e+00 -2.891269217765e+02 0.0 
0.0 0.0 -1.233401093328e+02 
-1.414978147764e+02 -7.103328853494e-01 0.0 
-7.103328853494e-01 -3.431054215849e+02 0.0 
0.0 0.0 -1.449809709084e+02 
-1.514872087492e+02 -7.852141116559e-01 0.0 
-7.852141116559e-01 -3.621901065585e+02 0.0 
0.0 0.0 -1.537031945923e+02 
-6.733140503904e+01 6.875845336380e-01 0.0 
6.875845336380e-01 -1.783225659437e+02 0.0 
0.0 0.0 -7.329619129483e+01 
-1.243453095247e+02 2.793197903511e+00 0.0 
2.793197903511e+00 -2.882338235797e+02 0.0 
0.0 0.0 -1.233737399313e+02 
-1.241388576840e+02 1.688703309958e+00 0.0 
1.688703309958e+00 -2.884704401394e+02 0.0 
0.0 0.0 -1.233827893470e+02 
-1.363282359236e+02 1.266832266156e+00 0.0 
1.266832266156e+00 -3.325881867424e+02 0.0 
0.0 0.0 -1.402749267998e+02 
-1.463379754876e+02 1.330560507604e+00 0.0 
1.330560507604e+00 -3.522410115842e+02 0.0 
0.0 0.0 -1.491736961215e+02 
-1.131648616069e+02 2.088236472824e+00 0.0 
2.088236472824e+00 -2.856165765079e+02 0.0 
0.0 0.0 -1.192344314344e+02 
-1.232017328192e+01 -7.063086610010e-01 0.0 
-7.063086610010e-01 -8.918687792906e+00 0.0 
0.0 0.0 -6.948134505328e+00 
-6.781809396020e+01 4.103020028710e-01 0.0 
4.103020028710e-01 -1.813229991999e+02 0.0 
0.0 0.0 -7.434232794804e+01 
-1.094921238171e+01 -5.755332860671e-01 0.0 
-5.755332860671e-01 -2.538557798120e+01 0.0 
0.0 0.0 -1.050043710887e+01 
-1.375771695135e+02 5.845893305714e+00 0.0 
5.845893305714e+00 -3.362494929686e+02 0.0 
0.0 0.0 -1.417479987446e+02 
-7.101663050839e+01 -7.258448969173e-01 0.0 
-7.258448969173e-01 -1.914366568406e+02 0.0 
0.0 0.0 -7.833598620471e+01 
-1.267146123731e+02 1.665454924794e+00 0.0 
1.665454924794e+00 -3.145754114360e+02 0.0 
0.0 0.0 -1.319870071427e+02 
-3.625278081142e+01 -1.280369855128e+00 0.0 
-1.280369855128e+00 -9.675032886712e+01 0.0 
0.0 0.0 -3.950093290356e+01 
-1.676404344090e+01 -1.524934130271e+00 0.0 
-1.524934130271e+00 -4.152634605879e+01 0.0 
0.0 0.0 -1.708711684991e+01 
-1.366235578231e+02 3.335064970479e+00 0.0 
3.335064970479e+00 -3.337842098779e+02 0.0 
0.0 0.0 -1.407223303103e+02 
-7.597592837590e+01 7.722940693481e-01 0.0 
7.722940693481e-01 -2.008077389366e+02 0.0 
0.0 0.0 -8.263510019375e+01 
-5.933464010771e+01 -9.366389395227e-01 0.0 
-9.366389395227e-01 -1.587003535148e+02 0.0 
0.0 0.0 -6.501049808676e+01 
-1.272350215653e+02 3.026403739569e+00 0.0 
3.026403739569e+00 -3.151052283640e+02 0.0 
0.0 0.0 -1.323020749788e+02 
-1.076210241945e+02 2.062787146031e-01 0.0 
2.062787146031e-01 -2.443212741267e+02 0.0 
0.0 0.0 -1.051826894964e+02 
-5.972011034505e+01 6.369967468423e-01 0.0 
6.369967468423e-01 -1.588229903711e+02 0.0 
0.0 0.0 -6.516293021484e+01 
-1.138806189599e+02 7.781507963481e+00 0.0 
7.781507963481e+00 -2.907319574298e+02 0.0 
0.0 0.0 -1.209837729169e+02 
-9.960266769449e+01 2.169799691562e+00 0.0 
2.169799691562e+00 -2.606645486683e+02 0.0 
0.0 0.0 -1.076801649088e+02 
-1.125546898076e+02 6.982781445614e-01 0.0 
6.982781445614e-01 -2.850511439655e+02 0.0 
0.0 0.0 -1.188817501319e+02 
-1.168898035801e+02 4.895115234701e-01 0.0 
4.895115234701e-01 -2.938317288261e+02 0.0 
0.0 0.0 -1.228164597219e+02 
-4.914565553590e+01 8.393604197136e+00 0.0 
8.393604197136e+00 -1.461759283684e+02 0.0 
0.0 0.0 -5.819647517129e+01 
-5.847518260547e+01 1.244631280011e+01 0.0 
1.244631280011e+01 -1.037960298157e+02 0.0 
0.0 0.0 -4.828136372634e+01 
-6.568063752710e+01 1.707410959613e+01 0.0 
1.707410959613e+01 -1.618174758333e+02 0.0 
0.0 0.0 -6.784943400812e+01 
-1.039377963323e+02 1.121791378682e+00 0.0 
1.121791378682e+00 -2.678490687720e+02 0.0 
0.0 0.0 -1.111360595313e+02 
-1.316022621891e+02 2.698124016178e+00 0.0 
2.698124016178e+00 -3.237370635698e+02 0.0 
0.0 0.0 -1.362017977277e+02 
-1.212671727988e+02 1.418785707347e-01 0.0 
1.418785707347e-01 -3.027149217068e+02 0.0 
0.0 0.0 -1.267946283517e+02 
-3.633181227241e+01 -2.553826298281e+00 0.0 
-2.553826298281e+00 -1.000367713692e+02 0.0 
0.0 0.0 -4.051057509249e+01 
-1.076228312953e+02 8.894794540762e-01 0.0 
8.894794540762e-01 -2.432424426397e+02 0.0 
0.0 0.0 -1.048595821805e+02 
-9.979441877463e+01 6.682416348740e-01 0.0 
6.682416348740e-01 -2.230241473265e+02 0.0 
0.0 0.0 -9.644556983034e+01 
-6.403679468147e+01 -5.773449014125e-01 0.0 
-5.773449014125e-01 -1.324335920004e+02 0.0 
0.0 0.0 -5.854111600455e+01 
-1.084875480230e+02 1.792099272182e+00 0.0 
1.792099272182e+00 -2.782457687522e+02 0.0 
0.0 0.0 -1.156199950326e+02 
-1.082536330861e+02 9.321654967108e-01 0.0 
9.321654967108e-01 -2.764893190911e+02 0.0 
0.0 0.0 -1.150228856532e+02 
-1.082227462843e+02 1.972507067809e+00 0.0 
1.972507067809e+00 -2.452866131547e+02 0.0 
0.0 0.0 -1.056528078317e+02 
-1.038603334252e+02 5.654535967334e-01 0.0 
5.654535967334e-01 -2.338759925120e+02 0.0 
0.0 0.0 -1.009208977812e+02 
-9.654740901193e+01 3.578710488811e+00 0.0 
3.578710488811e+00 -2.526140250605e+02 0.0 
0.0 0.0 -1.043484302217e+02 
-1.411442940182e+02 2.882660283858e+00 0.0 
2.882660283858e+00 -3.423046003550e+02 0.0 
0.0 0.0 -1.446346683119e+02 
-9.941326898805e+01 2.158670922194e+00 0.0 
2.158670922194e+00 -2.193489009598e+02 0.0 
0.0 0.0 -9.522865098435e+01 
-1.215997550219e+02 1.480187417218e+00 0.0 
1.480187417218e+00 -3.028556579073e+02 0.0 
0.0 0.0 -1.269366238788e+02 
-1.427736474211e+02 5.562524056336e+00 0.0 
5.562524056336e+00 -3.459474590266e+02 0.0 
0.0 0.0 -1.462163319343e+02 
-1.081416409688e+02 2.752474684539e+00 0.0 
2.752474684539e+00 -2.439039331644e+02 0.0 
0.0 0.0 -1.052136722400e+02 
-8.911054169191e+01 2.250077227275e+00 0.0 
2.250077227275e+00 -1.928269837983e+02 0.0 
0.0 0.0 -8.418125764707e+01 
-1.094549519652e+02 6.588518507066e+00 0.0 
6.588518507066e+00 -2.815952469748e+02 0.0 
0.0 0.0 -1.169150596820e+02 
-3.722842715724e+01 -1.710283367574e+00 0.0 
-1.710283367574e+00 -9.968560512007e+01 0.0 
0.0 0.0 -4.067420968319e+01 
-3.365230794117e+01 -2.532128246861e+00 0.0 
-2.532128246861e+00 -9.217474768140e+01 0.0 
0.0 0.0 -3.734811668677e+01 
-1.988886730233e+01 -1.129833915553e+00 0.0 
-1.129833915553e+00 -4.805706586155e+01 0.0 
0.0 0.0 -1.998377994917e+01 
-1.806185214718e+01 -1.603774438490e+00 0.0 
-1.603774438490e+00 -2.563755068829e+01 0.0 
0.0 0.0 -1.270982085064e+01 
-1.044710010806e+02 2.225946423396e+00 0.0 
2.225946423396e+00 -2.343675070654e+02 0.0 
0.0 0.0 -1.012515524438e+02 
-1.357237242768e+02 8.458548585610e-01 0.0 
8.458548585610e-01 -3.317555867978e+02 0.0 
0.0 0.0 -1.398437933224e+02 
-1.690944839563e+01 -1.595228241667e+00 0.0 
-1.595228241667e+00 -2.527866394835e+01 0.0 
0.0 0.0 -1.225643370319e+01 
-1.150750904830e+02 1.238136124810e+01 0.0 
1.238136124810e+01 -2.490018805218e+02 0.0 
0.0 0.0 -1.088230913014e+02 
-6.826588396898e+01 -2.856833177100e-01 0.0 
-2.856833177100e-01 -1.414723785059e+02 0.0 
0.0 0.0 -6.252147874247e+01 
-1.229308419412e+02 3.372878979540e+00 0.0 
3.372878979540e+00 -3.065861636237e+02 0.0 
0.0 0.0 -1.284551016695e+02 
-1.261105756804e+02 6.730545891646e-01 0.0 
6.730545891646e-01 -3.127427167649e+02 0.0 
0.0 0.0 -1.312559877336e+02 
-4.910967032010e+01 -1.027632459343e+00 0.0 
-1.027632459343e+00 -1.405255331845e+02 0.0 
0.0 0.0 -5.649056105137e+01 
-1.264548852978e+02 2.085169136568e+00 0.0 
2.085169136568e+00 -3.131795463804e+02 0.0 
0.0 0.0 -1.314903295035e+02 
-6.461277878420e+01 1.491724107705e+00 0.0 
1.491724107705e+00 -1.326147542582e+02 0.0 
0.0 0.0 -5.876825991273e+01 
-1.029061535098e+02 1.391562146938e+01 0.0 
1.391562146938e+01 -2.614489496080e+02 0.0 
0.0 0.0 -1.089065309353e+02 
-1.473320655633e+02 3.503349485384e+00 0.0 
3.503349485384e+00 -3.546785233657e+02 0.0 
0.0 0.0 -1.502031766787e+02 
-3.600903343491e+01 -1.062157124864e+00 0.0 
-1.062157124864e+00 -9.633093341165e+01 0.0 
0.0 0.0 -3.930199005397e+01 
-1.425477060779e+02 6.789333636836e+00 0.0 
6.789333636836e+00 -3.461542708411e+02 0.0 
0.0 0.0 -1.462105930757e+02 
-9.307200892036e+01 2.069460453952e+00 0.0 
2.069460453952e+00 -2.037520408232e+02 0.0 
0.0 0.0 -8.864721492308e+01 
-4.040479946282e+01 -1.508813183254e+00 0.0 
-1.508813183254e+00 -1.082382742732e+02 0.0 
0.0 0.0 -4.419292212082e+01 
-4.111030994780e+01 -1.286277508852e+00 0.0 
-1.286277508852e+00 -1.120857979230e+02 0.0 
0.0 0.0 -4.555883236123e+01 
-8.645727331202e+01 -5.205333373087e-01 0.0 
-5.205333373087e-01 -2.260463979381e+02 0.0 
0.0 0.0 -9.335110137505e+01 
-8.011660065339e+01 5.333238392635e-01 0.0 
5.333238392635e-01 -1.705457898350e+02 0.0 
0.0 0.0 -7.479871714652e+01 
-5.593953453683e+01 -1.565507601259e+00 0.0 
-1.565507601259e+00 -1.523963855134e+02 0.0 
0.0 0.0 -6.210077601507e+01 
-9.697824004403e+01 1.986774872055e+00 0.0 
1.986774872055e+00 -2.145710676281e+02 0.0 
0.0 0.0 -9.306479230163e+01 
-8.512695641795e+01 1.917620030541e+00 0.0 
1.917620030541e+00 -1.833395765538e+02 0.0 
0.0 0.0 -8.013995989153e+01 
-8.288870993526e+01 -2.072013506110e-01 0.0 
-2.072013506110e-01 -2.194167780373e+02 0.0 
0.0 0.0 -9.029164639176e+01 
-1.171966343292e+02 1.814785141751e+00 0.0 
1.814785141751e+00 -2.940978247835e+02 0.0 
0.0 0.0 -1.229883377338e+02 
-1.222274258821e+02 2.423713489984e+00 0.0 
2.423713489984e+00 -3.047112177950e+02 0.0 
0.0 0.0 -1.276815931031e+02 
-9.208132055516e+01 3.417467313414e-01 0.0 
3.417467313414e-01 -2.029799682809e+02 0.0 
0.0 0.0 -8.811838665080e+01 
-3.165685368548e+01 -7.740015543600e-01 0.0 
-7.740015543600e-01 -8.343214813274e+01 0.0 
0.0 0.0 -3.412670054547e+01 
-7.874718643161e+01 -5.299358767799e-01 0.0 
-5.299358767799e-01 -2.087685766632e+02 0.0 
0.0 0.0 -8.585472892845e+01 
-1.201375685901e+02 1.523685689052e+01 0.0 
1.523685689052e+01 -2.933420875226e+02 0.0 
0.0 0.0 -1.236438968338e+02 
-9.682597458668e+01 2.583621643618e+00 0.0 
2.583621643618e+00 -2.127982996393e+02 0.0 
0.0 0.0 -9.248728226780e+01 
-7.070831194431e+01 -9.829991040761e-01 0.0 
-9.829991040761e-01 -1.890009380250e+02 0.0 
0.0 0.0 -7.751277499078e+01 
-1.008696160108e+02 3.451247515579e+00 0.0 
3.451247515579e+00 -2.614952701750e+02 0.0 
0.0 0.0 -1.083094658557e+02 
-1.380258218644e+02 7.351573042082e+00 0.0 
7.351573042082e+00 -3.374375129883e+02 0.0 
0.0 0.0 -1.422390004558e+02 
-8.833676048579e+01 5.604032338819e-01 0.0 
5.604032338819e-01 -1.922156262256e+02 0.0 
0.0 0.0 -8.376571601341e+01 
-2.105382462305e+01 3.780059388399e-01 0.0 
3.780059388399e-01 -4.359369342911e+01 0.0 
0.0 0.0 -1.899425541565e+01 
-1.893054992815e+01 -8.004578610878e-01 0.0 
-8.004578610878e-01 -4.672226102566e+01 0.0 
0.0 0.0 -1.929584328615e+01 
-3.048743576577e+01 3.477090731049e+00 0.0 
3.477090731049e+00 -8.748968139486e+01 0.0 
0.0 0.0 -3.499313514819e+01 
-1.311806764670e+02 1.263780267755e+00 0.0 
1.263780267755e+00 -3.232481855697e+02 0.0 
0.0 0.0 -1.359286586110e+02 
-8.416562153019e+01 5.862089786930e-01 0.0 
5.862089786930e-01 -1.813632344161e+02 0.0 
0.0 0.0 -7.925865678390e+01 
-9.534438718435e+01 1.185646654562e+00 0.0 
1.185646654562e+00 -2.457146201019e+02 0.0 
0.0 0.0 -1.019177021859e+02 
-7.222614816404e+01 1.364181854347e-01 0.0 
1.364181854347e-01 -1.508832136298e+02 0.0 
0.0 0.0 -6.653280853816e+01 
-1.280947662059e+02 9.833163320339e+00 0.0 
9.833163320339e+00 -3.183930731064e+02 0.0 
0.0 0.0 -1.335463517937e+02 
-8.684653641619e+01 -1.975540554833e-01 0.0 
-1.975540554833e-01 -2.280584314481e+02 0.0 
0.0 0.0 -9.407149035930e+01 
-1.217748543017e+02 1.012728572795e+00 0.0 
1.012728572795e+00 -3.042099286507e+02 0.0 
0.0 0.0 -1.273954348857e+02 
-3.779256261417e+01 -2.796715373973e-01 0.0 
-2.796715373973e-01 -1.002560739445e+02 0.0 
0.0 0.0 -4.101459096761e+01 
-1.420413381522e+02 3.997982006916e+00 0.0 
3.997982006916e+00 -3.457267328164e+02 0.0 
0.0 0.0 -1.459304212906e+02 
-8.384242884893e+01 1.175413292324e+00 0.0 
1.175413292324e+00 -2.201326392661e+02 0.0 
0.0 0.0 -9.079252043450e+01 
-4.088345035313e+01 3.785724514605e-02 0.0 
3.785724514605e-02 -1.087854870285e+02 0.0 
0.0 0.0 -4.450068121450e+01 
-7.956995776820e+01 9.401538153885e-01 0.0 
9.401538153885e-01 -2.094608541356e+02 0.0 
0.0 0.0 -8.630924357115e+01 
-5.951068433647e+01 -1.344550539318e+00 0.0 
-1.344550539318e+00 -1.610270629395e+02 0.0 
0.0 0.0 -6.576132418280e+01 
-4.637473276269e+01 -7.954353834460e-01 0.0 
-7.954353834460e-01 -1.249687483385e+02 0.0 
0.0 0.0 -5.100304433037e+01 
-9.469188174436e+01 -2.983194657422e-01 0.0 
-2.983194657422e-01 -2.450282968945e+02 0.0 
0.0 0.0 -1.015160535917e+02 
-6.923270987032e+00 -4.677638683226e-01 0.0 
-4.677638683226e-01 -9.257835474825e+00 0.0 
0.0 0.0 -5.450001165280e+00 
-8.057843828846e+00 -5.006324215042e-01 0.0 
-5.006324215042e-01 -9.516475742385e+00 0.0 
0.0 0.0 -5.882303605375e+00 
-1.089834531960e+02 2.321401984185e+00 0.0 
2.321401984185e+00 -2.771041521375e+02 0.0 
0.0 0.0 -1.154262816000e+02 
-3.483936440957e+01 -5.933283082627e-01 0.0 
-5.933283082627e-01 -9.202537061278e+01 0.0 
0.0 0.0 -3.765942050670e+01 
-1.094657433727e+02 3.147169876134e+00 0.0 
3.147169876134e+00 -2.789583852449e+02 0.0 
0.0 0.0 -1.161272385853e+02 
-1.051790526748e+02 3.306780802993e+00 0.0 
3.306780802993e+00 -2.702830258385e+02 0.0 
0.0 0.0 -1.122386235540e+02 
-6.335894587400e+01 -9.573298922949e-01 0.0 
-9.573298922949e-01 -1.739279215643e+02 0.0 
0.0 0.0 -7.078606023149e+01 
-3.947947580452e+01 -1.620823006764e+00 0.0 
-1.620823006764e+00 -1.132618182250e+02 0.0 
0.0 0.0 -4.542238820887e+01 
-1.043406996156e+02 3.773277543593e+00 0.0 
3.773277543593e+00 -2.310633676510e+02 0.0 
0.0 0.0 -1.002212201800e+02 
-1.842185836330e+01 4.736382926007e+00 0.0 
4.736382926007e+00 -4.245212115301e+01 0.0 
0.0 0.0 -1.786219385489e+01 
-6.309559957848e+01 -1.110983727841e+00 0.0 
-1.110983727841e+00 -1.698450061656e+02 0.0 
0.0 0.0 -6.948218172321e+01 
-1.326499609678e+02 1.105912821062e+01 0.0 
1.105912821062e+01 -3.264413683107e+02 0.0 
0.0 0.0 -1.373273987836e+02 
-2.998371585501e+01 -1.749725109152e+00 0.0 
-1.749725109152e+00 -7.941837816034e+01 0.0 
0.0 0.0 -3.242062820460e+01 
-7.717986456831e+01 1.821532193129e+00 0.0 
1.821532193129e+00 -1.622592117470e+02 0.0 
0.0 0.0 -7.143172289460e+01 
-6.903524329456e+01 1.536966630403e+00 0.0 
1.536966630403e+00 -1.421481529390e+02 0.0 
0.0 0.0 -6.295501887008e+01 
-2.959846630051e+01 -1.362513279561e+00 0.0 
-1.362513279561e+00 -7.708667173383e+01 0.0 
0.0 0.0 -3.160554141030e+01 
-1.330896402092e+02 7.753646197792e+00 0.0 
7.753646197792e+00 -3.282359009071e+02 0.0 
0.0 0.0 -1.379976623349e+02 
-9.316992886397e+01 3.348447716019e+00 0.0 
3.348447716019e+00 -2.002598283583e+02 0.0 
0.0 0.0 -8.762892716668e+01 
-3.419411127160e+01 -1.874885322360e+00 0.0 
-1.874885322360e+00 -9.138456320915e+01 0.0 
0.0 0.0 -3.727360234423e+01 
-1.079526439572e+02 4.372596541276e+00 0.0 
4.372596541276e+00 -2.399746689388e+02 0.0 
0.0 0.0 -1.039781938688e+02 
-1.065232659511e+02 2.799308930946e+00 0.0 
2.799308930946e+00 -2.390175165065e+02 0.0 
0.0 0.0 -1.032622347373e+02 
-3.860062328785e+01 -6.264933122536e-01 0.0 
-6.264933122536e-01 -1.027357890539e+02 0.0 
0.0 0.0 -4.200092370253e+01 
-3.523236577744e+01 1.836724960340e+01 0.0 
1.836724960340e+01 -7.485408741850e+01 0.0 
0.0 0.0 -3.262593595878e+01 
-3.936044744194e+01 -1.046076509840e+00 0.0 
-1.046076509840e+00 -1.053136732318e+02 0.0 
0.0 0.0 -4.300223620212e+01 
-1.180480792516e+02 2.699352991641e+00 0.0 
2.699352991641e+00 -2.961753885936e+02 0.0 
0.0 0.0 -1.238670403535e+02 
-9.078430278427e+01 -2.335155300974e-01 0.0 
-2.335155300974e-01 -2.366495380806e+02 0.0 
0.0 0.0 -9.783015225945e+01 
-1.118231821091e+02 8.704426975675e+00 0.0 
8.704426975675e+00 -2.461919656509e+02 0.0 
0.0 0.0 -1.070045443280e+02 
-1.031448229728e+02 2.009562732651e+00 0.0 
2.009562732651e+00 -2.302579976403e+02 0.0 
0.0 0.0 -9.962084618394e+01 
-1.137560769155e+02 2.941535353417e+00 0.0 
2.941535353417e+00 -2.875964361942e+02 0.0 
0.0 0.0 -1.200057539329e+02 
-1.129311453757e+02 1.569046369712e+00 0.0 
1.569046369712e+00 -2.869459232707e+02 0.0 
0.0 0.0 -1.195631205939e+02 
-3.187879674173e+01 -2.479410789186e+00 0.0 
-2.479410789186e+00 -8.509176741619e+01 0.0 
0.0 0.0 -3.469116924738e+01 
-1.173642080457e+02 1.304830731005e+00 0.0 
1.304830731005e+00 -2.955798817573e+02 0.0 
0.0 0.0 -1.234832269409e+02 
-9.186080783999e+01 1.587084414893e+00 0.0 
1.587084414893e+00 -1.994081760354e+02 0.0 
0.0 0.0 -8.698069516261e+01 
-9.146749927769e+01 1.159517115684e+00 0.0 
1.159517115684e+00 -2.372480580199e+02 0.0 
0.0 0.0 -9.821466718928e+01 
-8.518890749989e+01 2.270371641208e+00 0.0 
2.270371641208e+00 -1.820793220215e+02 0.0 
0.0 0.0 -7.978046885641e+01 
-9.688652920756e+01 3.276207387649e+00 0.0 
3.276207387649e+00 -2.110594661930e+02 0.0 
0.0 0.0 -9.198379862017e+01 
-6.827307229132e+01 1.110955551303e+01 0.0 
1.110955551303e+01 -1.881055928773e+02 0.0 
0.0 0.0 -7.651359955059e+01 
-9.949586932154e+01 1.407381779164e+00 0.0 
1.407381779164e+00 -2.211447630458e+02 0.0 
0.0 0.0 -9.579218971021e+01 
-7.484606300634e+01 -8.299404808361e-01 0.0 
-8.299404808361e-01 -1.989101726515e+02 0.0 
0.0 0.0 -8.172687069736e+01 
-8.759960401937e+01 1.214730793827e+00 0.0 
1.214730793827e+00 -2.286954222938e+02 0.0 
0.0 0.0 -9.448850789395e+01 
-5.571345820880e+01 -1.598383946253e+00 0.0 
-1.598383946253e+00 -1.504049943671e+02 0.0 
0.0 0.0 -6.143553577277e+01 
-5.751078737788e+01 -4.362439646083e-02 0.0 
-4.362439646083e-02 -1.576309537613e+02 0.0 
0.0 0.0 -6.414252234177e+01 
-8.800222318468e+01 1.034114265765e+00 0.0 
1.034114265765e+00 -1.903512308959e+02 0.0 
0.0 0.0 -8.310603622417e+01 
-7.977665365338e+01 2.990626661005e+00 0.0 
2.990626661005e+00 -2.157668840209e+02 0.0 
0.0 0.0 -8.826306130230e+01 
-4.254572373689e+01 -7.719728289513e-01 0.0 
-7.719728289513e-01 -1.139100877756e+02 0.0 
0.0 0.0 -4.653674345375e+01 
-2.298759366221e+01 -1.357341456810e+00 0.0 
-1.357341456810e+00 -5.757064129987e+01 0.0 
0.0 0.0 -2.376747048863e+01 
-8.920316808602e+01 2.756386254945e+00 0.0 
2.756386254945e+00 -1.911501459605e+02 0.0 
0.0 0.0 -8.370599421395e+01 
-4.169791802079e+01 -2.167498415176e+00 0.0 
-2.167498415176e+00 -1.132412543147e+02 0.0 
0.0 0.0 -4.608175170063e+01 
-1.422401744190e+02 5.496359770517e+00 0.0 
5.496359770517e+00 -3.458378277130e+02 0.0 
0.0 0.0 -1.460234006396e+02 
-9.196750279119e+01 9.925063265899e-01 0.0 
9.925063265899e-01 -2.012043297913e+02 0.0 
0.0 0.0 -8.755154977474e+01 
-1.222115630278e+02 1.996470518727e+00 0.0 
1.996470518727e+00 -3.059821457232e+02 0.0 
0.0 0.0 -1.280581126253e+02 
-1.465662698583e+02 1.377563682767e+01 0.0 
1.377563682767e+01 -3.491070696989e+02 0.0 
0.0 0.0 -1.483020018672e+02 
-7.164481628811e+01 6.464892267282e-01 0.0 
6.464892267282e-01 -1.898841118519e+02 0.0 
0.0 0.0 -7.805867844199e+01 
-3.792333062269e+01 -2.099386851100e+00 0.0 
-2.099386851100e+00 -1.021232360004e+02 0.0 
0.0 0.0 -4.161396998694e+01 
-2.530483418121e+01 -2.471310953267e+00 0.0 
-2.471310953267e+00 -6.530203767077e+01 0.0 
0.0 0.0 -2.678206155559e+01 
-1.141098767158e+02 3.900215176845e+00 0.0 
3.900215176845e+00 -2.892183315515e+02 0.0 
0.0 0.0 -1.205984624802e+02 
-8.041184132213e+01 1.792974701170e-01 0.0 
1.792974701170e-01 -1.724720982377e+02 0.0 
0.0 0.0 -7.546518186793e+01 
-1.921222909258e+01 -2.107527948790e+00 0.0 
-2.107527948790e+00 -4.638071114698e+01 0.0 
0.0 0.0 -1.927788207187e+01 
-5.707845133939e+01 -1.908191510506e-01 0.0 
-1.908191510506e-01 -1.531813715824e+02 0.0 
0.0 0.0 -6.267794687652e+01 
-3.400494010902e+01 -9.591420594306e-02 0.0 
-9.591420594306e-02 -8.941414002912e+01 0.0 
0.0 0.0 -3.662572404144e+01 
-8.130590858513e+01 2.218043712784e+00 0.0 
2.218043712784e+00 -1.713312262767e+02 0.0 
0.0 0.0 -7.539114045854e+01 
-6.072287433550e+01 9.445454039899e-02 0.0 
9.445454039899e-02 -1.618561207128e+02 0.0 
0.0 0.0 -6.637369851448e+01 
-1.040517879490e+02 1.994278068029e+00 0.0 
1.994278068029e+00 -2.695078837191e+02 0.0 
0.0 0.0 -1.116679015004e+02 
-5.624171546117e+01 2.242941494095e-02 0.0 
2.242941494095e-02 -1.508720809076e+02 0.0 
0.0 0.0 -6.173413891062e+01 
-1.006415411995e+02 2.463114165548e+00 0.0 
2.463114165548e+00 -2.237192893951e+02 0.0 
0.0 0.0 -9.690824917840e+01 
-4.874016484221e+01 -1.926955265377e+00 0.0 
-1.926955265377e+00 -1.328840701871e+02 0.0 
0.0 0.0 -5.408727050878e+01 
-1.142216786953e+02 5.005611918107e+00 0.0 
5.005611918107e+00 -2.903666483250e+02 0.0 
0.0 0.0 -1.209764981061e+02 
-3.484432991124e+01 -1.603687516256e+00 0.0 
-1.603687516256e+00 -9.288793357362e+01 0.0 
0.0 0.0 -3.791967904546e+01 
-1.096746764527e+02 4.113292664315e+00 0.0 
4.113292664315e+00 -2.804061321479e+02 0.0 
0.0 0.0 -1.166242425802e+02 
-8.340543663532e+01 8.260685635596e-01 0.0 
8.260685635596e-01 -2.184740994361e+02 0.0 
0.0 0.0 -9.016386082144e+01 
-1.176490131260e+02 2.293292117340e+00 0.0 
2.293292117340e+00 -2.972739179530e+02 0.0 
0.0 0.0 -1.240768793237e+02 
-4.686831783613e+01 3.836362965527e+00 0.0 
3.836362965527e+00 -1.416183732766e+02 0.0 
0.0 0.0 -5.614600733382e+01 
-3.317792702596e+01 -1.581656708577e+00 0.0 
-1.581656708577e+00 -8.853113701365e+01 0.0 
0.0 0.0 -3.611271921188e+01 
-7.330805215872e+01 1.485612338834e+00 0.0 
1.485612338834e+00 -1.532100490899e+02 0.0 
0.0 0.0 -6.755543037460e+01 
-9.921870532237e+01 8.866490747485e+00 0.0 
8.866490747485e+00 -2.602666357220e+02 0.0 
0.0 0.0 -1.074456023133e+02 
-5.998930471423e+01 1.610775769100e+01 0.0 
1.610775769100e+01 -1.338473370878e+02 0.0 
0.0 0.0 -5.775099254061e+01 
-8.118102491733e+01 1.897578586460e+00 0.0 
1.897578586460e+00 -1.728818562003e+02 0.0 
0.0 0.0 -7.581886433528e+01 
-3.799825215028e+01 -1.329669646172e+00 0.0 
-1.329669646172e+00 -1.035633934784e+02 0.0 
0.0 0.0 -4.206849368859e+01 
-8.427613565873e+01 1.599099250425e+00 0.0 
1.599099250425e+00 -1.780011107062e+02 0.0 
0.0 0.0 -7.828317390947e+01 
-3.033468681035e+01 -2.665364954791e-01 0.0 
-2.665364954791e-01 -8.037070122728e+01 0.0 
0.0 0.0 -3.281161641129e+01 
-1.330294828064e+02 6.322285542509e+00 0.0 
6.322285542509e+00 -3.279042872321e+02 0.0 
0.0 0.0 -1.378801310116e+02 
-1.034753464956e+02 1.020621337454e+01 0.0 
1.020621337454e+01 -2.684574582508e+02 0.0 
0.0 0.0 -1.111798414239e+02 
-1.073911976207e+02 1.502903632328e+01 0.0 
1.502903632328e+01 -2.683326378555e+02 0.0 
0.0 0.0 -1.123171506429e+02 
-1.116067933193e+02 4.245308657487e+00 0.0 
4.245308657487e+00 -2.514324678191e+02 0.0 
0.0 0.0 -1.085117783415e+02 
-8.789169524882e+01 3.840416883437e+00 0.0 
3.840416883437e+00 -2.345618125446e+02 0.0 
0.0 0.0 -9.633605233802e+01 
-3.109417929371e+01 -2.152459801851e+00 0.0 
-2.152459801851e+00 -8.276483603969e+01 0.0 
0.0 0.0 -3.375770460002e+01 
-1.007850624095e+02 4.485139338530e+00 0.0 
4.485139338530e+00 -2.624921707205e+02 0.0 
0.0 0.0 -1.085831699390e+02 
-1.370835852404e+02 5.989008619089e+00 0.0 
5.989008619089e+00 -3.367360899007e+02 0.0 
0.0 0.0 -1.417459025424e+02 
-4.750322885173e+01 -2.104859326430e-01 0.0 
-2.104859326430e-01 -1.330739128225e+02 0.0 
0.0 0.0 -5.377314250226e+01 
-1.185330885849e+02 3.661079238770e+00 0.0 
3.661079238770e+00 -2.979471775196e+02 0.0 
0.0 0.0 -1.245440798314e+02 
-9.299755628697e+01 2.714634820985e+00 0.0 
2.714634820985e+00 -2.019309019175e+02 0.0 
0.0 0.0 -8.807853746135e+01 
-3.631867724784e+01 -1.453522908546e+00 0.0 
-1.453522908546e+00 -1.046164460687e+02 0.0 
0.0 0.0 -4.188053699495e+01 
-1.052341800528e+02 4.303030829439e+00 0.0 
4.303030829439e+00 -2.715023412711e+02 0.0 
0.0 0.0 -1.126209563972e+02 
-7.337837259974e+01 2.152088070799e+00 0.0 
2.152088070799e+00 -1.498091459781e+02 0.0 
0.0 0.0 -6.655625557334e+01 
-4.503438051467e+01 -1.724572587349e-01 0.0 
-1.724572587349e-01 -1.200197071624e+02 0.0 
0.0 0.0 -4.911622630311e+01 
-5.357692273243e+01 -4.395259809118e-01 0.0 
-4.395259809118e-01 -1.445550828273e+02 0.0 
0.0 0.0 -5.903960166792e+01 
-7.496756653878e+01 1.758883699411e+01 0.0 
1.758883699411e+01 -1.720001410919e+02 0.0 
0.0 0.0 -7.369031228919e+01 
-1.130745602838e+02 2.561896248687e+00 0.0 
2.561896248687e+00 -2.884846941299e+02 0.0 
0.0 0.0 -1.200677763241e+02 
-5.247857451722e+01 1.753261683198e+01 0.0 
1.753261683198e+01 -1.038627413690e+02 0.0 
0.0 0.0 -4.650239476587e+01 
-7.027228633999e+01 1.751705541711e+01 0.0 
1.751705541711e+01 -1.667846471402e+02 0.0 
0.0 0.0 -7.071708004407e+01 
-8.807087776060e+01 1.604911535146e+00 0.0 
1.604911535146e+00 -1.886673667139e+02 0.0 
0.0 0.0 -8.262147334235e+01 
-7.622637438891e+01 1.160805304567e-01 0.0 
1.160805304567e-01 -1.615700788806e+02 0.0 
0.0 0.0 -7.093893598085e+01 
-7.630900482229e+01 9.126936922650e-01 0.0 
9.126936922650e-01 -1.582175517955e+02 0.0 
0.0 0.0 -6.995796698534e+01 
-8.274109967656e+01 -4.003838077290e-01 0.0 
-4.003838077290e-01 -2.178109522103e+02 0.0 
0.0 0.0 -8.976561556605e+01 
-1.282429543186e+02 8.171059524443e+00 0.0 
8.171059524443e+00 -3.189586553973e+02 0.0 
0.0 0.0 -1.337604829148e+02 
-9.633074244419e+01 4.677650564700e+00 0.0 
4.677650564700e+00 -2.533641503215e+02 0.0 
0.0 0.0 -1.045084678297e+02 
-7.308310627950e+01 1.727856212538e+00 0.0 
1.727856212538e+00 -1.515085458618e+02 0.0 
0.0 0.0 -6.697749564238e+01 
-1.195527846270e+02 1.410431267919e+01 0.0 
1.410431267919e+01 -2.618598584518e+02 0.0 
0.0 0.0 -1.140237929236e+02 
-1.119212798238e+02 1.605280779786e+01 0.0 
1.605280779786e+01 -2.750286041221e+02 0.0 
0.0 0.0 -1.156849651838e+02 
-1.085047836761e+02 2.801909139404e+00 0.0 
2.801909139404e+00 -2.796212203153e+02 0.0 
0.0 0.0 -1.160378011974e+02 
-9.568345054907e+01 1.531476251143e+00 0.0 
1.531476251143e+00 -2.102552858150e+02 0.0 
0.0 0.0 -9.138162090922e+01 
-6.105597680861e+01 1.507645081736e-01 0.0 
1.507645081736e-01 -1.661077356888e+02 0.0 
0.0 0.0 -6.774911374922e+01 
-5.733818350009e+01 -2.113507186282e-01 0.0 
-2.113507186282e-01 -1.553985986525e+02 0.0 
0.0 0.0 -6.342103464577e+01 
-3.234102573266e+01 -1.140180868710e+00 0.0 
-1.140180868710e+00 -8.558263583029e+01 0.0 
0.0 0.0 -3.497709846888e+01 
-1.050824979038e+02 5.491214019711e+00 0.0 
5.491214019711e+00 -2.721573351760e+02 0.0 
0.0 0.0 -1.127719499240e+02 
-6.089890897912e+01 8.757199759043e-03 0.0 
8.757199759043e-03 -1.640534635483e+02 0.0 
0.0 0.0 -6.708571175823e+01 
-8.539021365990e+01 2.782211279067e+00 0.0 
2.782211279067e+00 -1.803550121216e+02 0.0 
0.0 0.0 -7.932356773445e+01 
-8.156995669291e+01 2.784611199537e+00 0.0 
2.784611199537e+00 -1.696490317252e+02 0.0 
0.0 0.0 -7.496569652544e+01 
-7.310322749252e+01 1.074555885736e+01 0.0 
1.074555885736e+01 -1.998377770504e+02 0.0 
0.0 0.0 -8.148230136289e+01 
-4.895113958420e+01 -1.940107731976e+00 0.0 
-1.940107731976e+00 -1.351700944235e+02 0.0 
0.0 0.0 -5.483637020232e+01 
-4.226126616865e+01 7.684826994131e+00 0.0 
7.684826994131e+00 -1.287319558288e+02 0.0 
0.0 0.0 -5.089796659925e+01 
-5.240938088114e+01 -1.764587743056e+00 0.0 
-1.764587743056e+00 -1.437664094939e+02 0.0 
0.0 0.0 -5.845273711251e+01 
-5.603021088780e+01 -1.480060898966e+00 0.0 
-1.480060898966e+00 -1.545641422474e+02 0.0 
0.0 0.0 -6.277830594055e+01 
-3.484735401577e+01 -2.316180035885e+00 0.0 
-2.316180035885e+00 -9.363665044958e+01 0.0 
0.0 0.0 -3.814520133960e+01 
-1.233562172294e+02 8.613508202282e+00 0.0 
8.613508202282e+00 -3.094846253703e+02 0.0 
0.0 0.0 -1.294522527799e+02 
-6.671724966345e+01 2.819481549510e-01 0.0 
2.819481549510e-01 -1.860722202502e+02 0.0 
0.0 0.0 -7.543684097410e+01 
-1.005846184146e+02 3.143228035486e+00 0.0 
3.143228035486e+00 -2.219001940069e+02 0.0 
0.0 0.0 -9.634544372646e+01 
-7.027951574573e+01 1.160819127490e+00 0.0 
1.160819127490e+00 -1.960802434842e+02 0.0 
0.0 0.0 -7.950792776899e+01 
-9.938252203623e+01 3.266102142998e+00 0.0 
3.266102142998e+00 -2.616314340007e+02 0.0 
0.0 0.0 -1.079041868111e+02 
-8.238277633945e+01 1.767398122323e+00 0.0 
1.767398122323e+00 -2.238443110289e+02 0.0 
0.0 0.0 -9.146812621052e+01 
-6.924845666292e+01 1.625182622235e+01 0.0 
1.625182622235e+01 -1.751193471305e+02 0.0 
0.0 0.0 -7.291034113802e+01 
-3.552407688062e+01 -9.532110252467e-01 0.0 
-9.532110252467e-01 -9.424543122433e+01 0.0 
0.0 0.0 -3.853085243148e+01 
-1.320076181179e+02 6.461819088574e+00 0.0 
6.461819088574e+00 -3.274375435386e+02 0.0 
0.0 0.0 -1.374335484969e+02 
-1.384114093801e+02 9.055711121119e+00 0.0 
9.055711121119e+00 -3.385520132138e+02 0.0 
0.0 0.0 -1.426890267782e+02 
-9.581046636608e+01 1.516289610648e+01 0.0 
1.516289610648e+01 -2.162342991891e+02 0.0 
0.0 0.0 -9.321342966655e+01 
-5.959043168911e+01 -1.068348629415e+00 0.0 
-1.068348629415e+00 -1.652173215741e+02 0.0 
0.0 0.0 -6.704232597896e+01 
-9.071852387744e+01 2.522850669911e+00 0.0 
2.522850669911e+00 -2.427458570784e+02 0.0 
0.0 0.0 -9.963931428675e+01 
-8.407903193000e+01 1.001476291204e+00 0.0 
1.001476291204e+00 -1.795013189965e+02 0.0 
0.0 0.0 -7.867410527795e+01 
-6.471606863149e+01 3.221706162005e-01 0.0 
3.221706162005e-01 -1.747838516155e+02 0.0 
0.0 0.0 -7.144997607409e+01 
-5.437058618020e+01 1.794234087558e+01 0.0 
1.794234087558e+01 -1.295690479848e+02 0.0 
0.0 0.0 -5.478189024949e+01 
-4.964677927803e+01 -5.284908838472e-01 0.0 
-5.284908838472e-01 -1.335774021453e+02 0.0 
0.0 0.0 -5.456725442699e+01 
-4.116407997937e+01 -8.843041864746e-01 0.0 
-8.843041864746e-01 -1.141382977450e+02 0.0 
0.0 0.0 -4.619071331731e+01 
-6.472636244682e+01 6.554485993451e-01 0.0 
6.554485993451e-01 -1.766525684851e+02 0.0 
0.0 0.0 -7.201367927956e+01 
-4.494499412334e+01 -1.917246003220e+00 0.0 
-1.917246003220e+00 -1.218397572435e+02 0.0 
0.0 0.0 -4.963542541006e+01 
-4.179999868434e+01 -3.981675827743e-01 0.0 
-3.981675827743e-01 -1.113772845828e+02 0.0 
0.0 0.0 -4.555318498015e+01 
-8.396167254070e+01 2.906946896408e+00 0.0 
2.906946896408e+00 -2.247635622821e+02 0.0 
0.0 0.0 -9.221757044685e+01 
-1.039409285576e+02 3.030661795172e+00 0.0 
3.030661795172e+00 -2.706749561767e+02 0.0 
0.0 0.0 -1.119847654203e+02 
-1.148496071070e+02 1.568609812169e+01 0.0 
1.568609812169e+01 -2.616969249136e+02 0.0 
0.0 0.0 -1.125639596062e+02 
-6.985836123546e+00 -6.120858606086e-01 0.0 
-6.120858606086e-01 -9.072315413977e+00 0.0 
0.0 0.0 -4.417445461257e+00 
-6.557382988864e+01 2.853040358974e+00 0.0 
2.853040358974e+00 -1.873913191291e+02 0.0 
0.0 0.0 -7.548954470531e+01 
-6.621634169103e+01 1.365809179605e+00 0.0 
1.365809179605e+00 -1.871381085566e+02 0.0 
0.0 0.0 -7.560633507428e+01 
-6.313598644912e+01 -4.748306296387e-01 0.0 
-4.748306296387e-01 -1.757441561583e+02 0.0 
0.0 0.0 -7.126404278223e+01 
-8.019417635841e+01 9.728252073729e-01 0.0 
9.728252073729e-01 -1.687659123641e+02 0.0 
0.0 0.0 -7.428802661674e+01 
-7.437674426526e+01 1.009920019438e+00 0.0 
1.009920019438e+00 -2.049370419706e+02 0.0 
0.0 0.0 -8.339413587076e+01 
-5.217602599003e+01 -1.728320270213e+00 0.0 
-1.728320270213e+00 -1.415532407426e+02 0.0 
0.0 0.0 -5.771878001978e+01 
-6.837831746971e+01 1.318648956745e+00 0.0 
1.318648956745e+00 -1.870036857769e+02 0.0 
0.0 0.0 -7.621460097399e+01 
-9.578533692346e+01 8.831711192968e-01 0.0 
8.831711192968e-01 -2.120730071294e+02 0.0 
0.0 0.0 -9.195750321587e+01 
-5.288805670972e+01 -2.651101292537e-01 0.0 
-2.651101292537e-01 -1.421800543965e+02 0.0 
0.0 0.0 -5.812043333186e+01 
-2.159588545029e+01 -2.057299472796e+00 0.0 
-2.057299472796e+00 -5.446048153059e+01 0.0 
0.0 0.0 -2.241691009426e+01 
-2.820206507648e+01 -2.263901368809e+00 0.0 
-2.263901368809e+00 -7.424318418311e+01 0.0 
0.0 0.0 -3.033357477788e+01 
-4.273880239479e+01 -1.692114500990e+00 0.0 
-1.692114500990e+00 -1.218430710943e+02 0.0 
0.0 0.0 -4.897456204673e+01 
-5.248103192716e+01 -1.601442136911e+00 0.0 
-1.601442136911e+00 -1.460307690734e+02 0.0 
0.0 0.0 -5.915354030017e+01 
-6.969636500066e+01 2.459965784462e+00 0.0 
2.459965784462e+00 -1.966166886785e+02 0.0 
0.0 0.0 -7.949391610375e+01 
-7.200099229315e+01 2.140232537930e+00 0.0 
2.140232537930e+00 -1.970385822052e+02 0.0 
0.0 0.0 -8.031187234952e+01 
-3.176626242200e+01 -1.582370689287e+00 0.0 
-1.582370689287e+00 -8.391726409512e+01 0.0 
0.0 0.0 -3.430505795514e+01 
-2.823183419484e+01 -8.994608614180e-01 0.0 
-8.994608614180e-01 -7.454280355787e+01 0.0 
0.0 0.0 -3.043239132581e+01 
-7.792810101895e+01 3.470699892098e+00 0.0 
3.470699892098e+00 -1.570932841100e+02 0.0 
0.0 0.0 -7.010641553867e+01 
-4.575723589810e+01 -4.654972513649e-01 0.0 
-4.654972513649e-01 -1.225007901665e+02 0.0 
0.0 0.0 -5.007740781938e+01 
-1.174239652365e+02 6.159404860780e+00 0.0 
6.159404860780e+00 -2.994854510166e+02 0.0 
0.0 0.0 -1.246728248759e+02 
-1.111834190611e+02 1.570215061728e+01 0.0 
1.570215061728e+01 -2.551479812983e+02 0.0 
0.0 0.0 -1.094994201078e+02 
-8.558999386013e+01 8.529272884972e+00 0.0 
8.529272884972e+00 -1.677759123188e+02 0.0 
0.0 0.0 -7.560977185367e+01 
-1.033526038601e+02 3.832006783166e+00 0.0 
3.832006783166e+00 -2.272849899736e+02 0.0 
0.0 0.0 -9.879127815013e+01 
-1.183514002459e+02 1.553777523320e+01 0.0 
1.553777523320e+01 -2.685218928402e+02 0.0 
0.0 0.0 -1.156619879258e+02 
-6.892501000402e+01 1.168375172549e+01 0.0 
1.168375172549e+01 -1.885051467289e+02 0.0 
0.0 0.0 -7.682904701989e+01 
-1.034978061049e+02 1.534706146446e+01 0.0 
1.534706146446e+01 -2.356686818274e+02 0.0 
0.0 0.0 -1.013499463797e+02 
-3.514241586603e+01 -1.444026938785e+00 0.0 
-1.444026938785e+00 -9.503780007771e+01 0.0 
0.0 0.0 -3.865406478312e+01 
-7.225712661225e+01 1.369424224012e+00 0.0 
1.369424224012e+00 -1.957298198990e+02 0.0 
0.0 0.0 -7.999608395338e+01 
-6.079368862067e+01 1.325274785437e+01 0.0 
1.325274785437e+01 -1.645467489255e+02 0.0 
0.0 0.0 -6.720213126384e+01 
-3.571636921474e+01 7.245638996670e-02 0.0 
7.245638996670e-02 -1.061560985173e+02 0.0 
0.0 0.0 -4.216174031961e+01 
-2.952239350051e+01 -1.755131188475e+00 0.0 
-1.755131188475e+00 -7.592065754813e+01 0.0 
0.0 0.0 -3.123291531459e+01 
-5.967527294251e+01 -1.326770688815e+00 0.0 
-1.326770688815e+00 -1.632426458248e+02 0.0 
0.0 0.0 -6.647537563019e+01 
-6.799380440109e+01 2.231507216999e+00 0.0 
2.231507216999e+00 -1.881029585074e+02 0.0 
0.0 0.0 -7.642902887256e+01 
-7.147475372598e+01 3.295240701372e+00 0.0 
3.295240701372e+00 -1.975610402782e+02 0.0 
0.0 0.0 -8.031073820124e+01 
-4.822942325423e+01 -1.637570642178e+00 0.0 
-1.637570642178e+00 -1.304526425331e+02 0.0 
0.0 0.0 -5.320461973621e+01 
-7.810201457706e+01 1.941618036217e+00 0.0 
1.941618036217e+00 -2.148274926172e+02 0.0 
0.0 0.0 -8.747885215828e+01 
-6.736636326711e+01 3.551471142454e+00 0.0 
3.551471142454e+00 -1.883216885037e+02 0.0 
0.0 0.0 -7.630641553123e+01 
-6.904683071950e+01 4.174229975349e+00 0.0 
4.174229975349e+00 -1.962678096645e+02 0.0 
0.0 0.0 -7.919439211521e+01 
-5.387928728870e+01 -4.339625750544e-01 0.0 
-4.339625750544e-01 -1.468722216542e+02 0.0 
0.0 0.0 -5.982545268286e+01 
-1.031405660488e+02 1.209040187090e+01 0.0 
1.209040187090e+01 -2.655531436358e+02 0.0 
0.0 0.0 -1.102081129054e+02 
-8.946533550370e+01 3.409244925133e+00 0.0 
3.409244925133e+00 -1.895592850924e+02 0.0 
0.0 0.0 -8.330738617882e+01 
-6.491847879597e+01 4.764399219850e+00 0.0 
4.764399219850e+00 -1.866872138260e+02 0.0 
0.0 0.0 -7.508170778660e+01 
-1.271084068823e+02 6.907781235762e+00 0.0 
6.907781235762e+00 -3.182037442890e+02 0.0 
0.0 0.0 -1.331936453514e+02 
-3.806914541799e+01 -8.776099230690e-01 0.0 
-8.776099230690e-01 -1.054822568961e+02 0.0 
0.0 0.0 -4.266542069423e+01 
-1.370284428025e+02 9.469413590562e+00 0.0 
9.469413590562e+00 -3.367569640257e+02 0.0 
0.0 0.0 -1.417356220485e+02 
-7.386473014883e+01 2.157697288325e+00 0.0 
2.157697288325e+00 -2.057135381622e+02 0.0 
0.0 0.0 -8.347348049331e+01 
-1.222595285949e+02 1.542266968791e+01 0.0 
1.542266968791e+01 -2.773451058878e+02 0.0 
0.0 0.0 -1.194813903448e+02 
-8.964954253505e+01 1.442896392535e+01 0.0 
1.442896392535e+01 -1.849266301690e+02 0.0 
0.0 0.0 -8.197285181123e+01 
-3.661854440651e+01 -2.218403461324e+00 0.0 
-2.218403461324e+00 -1.027834609283e+02 0.0 
0.0 0.0 -4.142060160044e+01 
-8.967963520637e+01 1.004837725412e+01 0.0 
1.004837725412e+01 -1.784306462366e+02 0.0 
0.0 0.0 -8.003308443290e+01 
-1.076248192187e+02 5.978541198286e+00 0.0 
5.978541198286e+00 -2.361114933059e+02 0.0 
0.0 0.0 -1.027208937574e+02 
-7.754295702949e+01 3.293576357046e+00 0.0 
3.293576357046e+00 -2.150881953867e+02 0.0 
0.0 0.0 -8.738934572487e+01 
-4.553529340408e+01 1.586568711580e+01 0.0 
1.586568711580e+01 -1.200348022024e+02 0.0 
0.0 0.0 -4.927102868195e+01 
-9.362151405242e+01 1.153029574638e+01 0.0 
1.153029574638e+01 -1.895202236496e+02 0.0 
0.0 0.0 -8.454252131061e+01 
-6.793379920034e+01 1.584263263466e+01 0.0 
1.584263263466e+01 -1.528805978378e+02 0.0 
0.0 0.0 -6.584431911144e+01 
-3.076714582729e+01 -2.598874587991e+00 0.0 
-2.598874587991e+00 -8.325692423760e+01 0.0 
0.0 0.0 -3.380722101947e+01 
-1.176881127946e+02 5.118279986809e+00 0.0 
5.118279986809e+00 -2.680739155856e+02 0.0 
0.0 0.0 -1.153286085141e+02 
-2.778935564181e+01 -2.716676064471e+00 0.0 
-2.716676064471e+00 -7.277581980743e+01 0.0 
0.0 0.0 -2.976955263477e+01 
-1.308152315136e+02 1.621980114449e+01 0.0 
1.621980114449e+01 -3.173791656442e+02 0.0 
0.0 0.0 -1.340583191473e+02 
-1.067725367400e+02 1.819654730535e+00 0.0 
1.819654730535e+00 -2.409701708434e+02 0.0 
0.0 0.0 -1.039228122750e+02 
-1.078486670113e+02 1.154508009433e+01 0.0 
1.154508009433e+01 -2.763860254141e+02 0.0 
0.0 0.0 -1.148704077276e+02 
-7.605751012116e+01 3.985146089882e-01 0.0 
3.985146089882e-01 -1.595518310186e+02 0.0 
0.0 0.0 -7.028280234193e+01 
-1.011072323855e+02 4.833285557988e+00 0.0 
4.833285557988e+00 -2.188862892516e+02 0.0 
0.0 0.0 -9.559805649112e+01 
-7.076551639322e+01 4.842174017779e+00 0.0 
4.842174017779e+00 -1.971505796468e+02 0.0 
0.0 0.0 -7.997482881202e+01 
-8.130553739350e+01 1.140102504067e+01 0.0 
1.140102504067e+01 -2.178517736363e+02 0.0 
0.0 0.0 -8.934719330895e+01 
-1.106266584850e+02 4.500211138019e+00 0.0 
4.500211138019e+00 -2.473547580617e+02 0.0 
0.0 0.0 -1.069944249640e+02 
-1.130310597151e+02 3.704813104036e+00 0.0 
3.704813104036e+00 -2.895721681664e+02 0.0 
0.0 0.0 -1.203809683644e+02 
-9.359360154803e+01 4.121099867246e+00 0.0 
4.121099867246e+00 -1.988739831265e+02 0.0 
0.0 0.0 -8.734027540235e+01 
-1.025639099502e+02 7.322630888978e+00 0.0 
7.322630888978e+00 -2.696300425379e+02 0.0 
0.0 0.0 -1.112581857464e+02 
-3.363199254298e+01 -2.144359468712e+00 0.0 
-2.144359468712e+00 -9.424028547381e+01 0.0 
0.0 0.0 -3.796168340504e+01 
-9.770933074226e+01 4.954657065674e+00 0.0 
4.954657065674e+00 -2.082554582481e+02 0.0 
0.0 0.0 -9.138943669712e+01 
-1.343394634521e+02 1.941199709546e+01 0.0 
1.941199709546e+01 -3.113541921335e+02 0.0 
0.0 0.0 -1.333080966757e+02 
-1.374890965781e+02 7.577106692867e+00 0.0 
7.577106692867e+00 -3.376947134653e+02 0.0 
0.0 0.0 -1.421551430130e+02 
-7.068998707097e+01 2.188603161718e-01 0.0 
2.188603161718e-01 -1.948144515467e+02 0.0 
0.0 0.0 -7.925133158530e+01 
-7.727129231059e+01 2.252597508015e+00 0.0 
2.252597508015e+00 -1.603165730781e+02 0.0 
0.0 0.0 -7.087635961660e+01 
-7.202266820426e+01 3.205341533590e-01 0.0 
3.205341533590e-01 -1.489315200971e+02 0.0 
0.0 0.0 -6.588625649040e+01 
-7.558931403494e+01 3.122427851650e+00 0.0 
3.122427851650e+00 -2.066564500798e+02 0.0 
0.0 0.0 -8.427372923441e+01 
-1.083549282694e+02 3.988118052207e+00 0.0 
3.988118052207e+00 -2.804945270671e+02 0.0 
0.0 0.0 -1.162548366009e+02 
-1.128546527323e+02 5.030104855718e+00 0.0 
5.030104855718e+00 -2.901041478772e+02 0.0 
0.0 0.0 -1.204876401828e+02 
-2.564410720364e+01 -1.034923039517e+00 0.0 
-1.034923039517e+00 -6.576903304729e+01 0.0 
0.0 0.0 -2.702394207528e+01 
-3.593613816056e+01 6.910857928513e+00 0.0 
6.910857928513e+00 -1.113749493373e+02 0.0 
0.0 0.0 -4.379332624935e+01 
-6.852614772666e+01 6.257957352402e+00 0.0 
6.257957352402e+00 -1.949376010837e+02 0.0 
0.0 0.0 -7.863912464311e+01 
-6.660425959279e+01 5.322077984716e+00 0.0 
5.322077984716e+00 -1.875340243546e+02 0.0 
0.0 0.0 -7.584148518421e+01 
-6.645728872858e+01 1.572334600577e+01 0.0 
1.572334600577e+01 -1.618610529364e+02 0.0 
0.0 0.0 -6.809550249948e+01 
-1.153775674688e+02 6.009070650751e+00 0.0 
6.009070650751e+00 -2.586213896642e+02 0.0 
0.0 0.0 -1.117996871399e+02 
-1.128368183564e+02 1.039094835396e+01 0.0 
1.039094835396e+01 -2.477189020785e+02 0.0 
0.0 0.0 -1.077667161305e+02 
-1.077956379834e+02 3.501084233876e+00 0.0 
3.501084233876e+00 -2.415954362469e+02 0.0 
0.0 0.0 -1.044173222691e+02 
-5.729801885309e+01 1.617636299866e+01 0.0 
1.617636299866e+01 -1.095495480782e+02 0.0 
0.0 0.0 -4.965427007939e+01 
-1.005013486379e+02 5.078811083486e+00 0.0 
5.078811083486e+00 -2.159228411476e+02 0.0 
0.0 0.0 -9.452725693565e+01 
-1.096537301853e+02 5.247425068899e+00 0.0 
5.247425068899e+00 -2.813191676380e+02 0.0 
0.0 0.0 -1.168918693470e+02 
-1.103575476571e+02 3.374433363029e+00 0.0 
3.374433363029e+00 -2.487432230786e+02 0.0 
0.0 0.0 -1.073302312207e+02 
-9.427066218424e+01 5.051003258590e+00 0.0 
5.051003258590e+00 -1.976702652489e+02 0.0 
0.0 0.0 -8.718227822995e+01 
-7.600798584353e+01 2.111588753086e+00 0.0 
2.111588753086e+00 -2.058727496864e+02 0.0 
0.0 0.0 -8.416422065899e+01 
-6.442088388327e+01 7.062104137797e+00 0.0 
7.062104137797e+00 -1.848166644673e+02 0.0 
0.0 0.0 -7.437126450516e+01 
-9.596513356997e+01 3.077184343253e+00 0.0 
3.077184343253e+00 -2.071997240140e+02 0.0 
0.0 0.0 -9.054945727521e+01 
-1.083844576842e+02 5.512869572580e+00 0.0 
5.512869572580e+00 -2.389807634571e+02 0.0 
0.0 0.0 -1.038095663424e+02 
-9.572141298407e+01 2.221550170032e+00 0.0 
2.221550170032e+00 -2.086071660386e+02 0.0 
0.0 0.0 -9.089857370682e+01 
-9.202139551287e+01 2.286587040974e+00 0.0 
2.286587040974e+00 -1.978991449876e+02 0.0 
0.0 0.0 -8.657616215014e+01 
-1.272063730121e+02 5.352699171347e+00 0.0 
5.352699171347e+00 -3.181061271131e+02 0.0 
0.0 0.0 -1.331937500375e+02 
-1.260531583259e+02 1.646978630020e+01 0.0 
1.646978630020e+01 -3.059732644715e+02 0.0 
0.0 0.0 -1.292079268392e+02 
-1.223355549432e+02 5.744876760275e+00 0.0 
5.744876760275e+00 -3.088810662777e+02 0.0 
0.0 0.0 -1.289649863663e+02 
-9.515578610086e+01 2.339631825180e+00 0.0 
2.339631825180e+00 -2.517441284258e+02 0.0 
0.0 0.0 -1.036699743580e+02 
-5.221415396069e+01 6.264725813701e+00 0.0 
6.264725813701e+00 -8.995909794628e+01 0.0 
0.0 0.0 -4.225197557209e+01 
-1.122145060646e+02 1.282699982590e+01 0.0 
1.282699982590e+01 -2.839293515341e+02 0.0 
0.0 0.0 -1.184431572796e+02 
-9.391151436472e+01 5.356440799032e+00 0.0 
5.356440799032e+00 -1.957230564483e+02 0.0 
0.0 0.0 -8.649037124392e+01 
-4.111405532843e+01 -1.819342329963e+00 0.0 
-1.819342329963e+00 -1.107789263897e+02 0.0 
0.0 0.0 -4.516789451545e+01 
-7.004053576240e+01 6.821864534789e+00 0.0 
6.821864534789e+00 -1.957087104426e+02 0.0 
0.0 0.0 -7.932477386151e+01 
-8.078076973475e+01 6.352099360262e+00 0.0 
6.352099360262e+00 -2.228814810960e+02 0.0 
0.0 0.0 -9.069867524923e+01 
-8.978919061346e+01 1.203800601285e+01 0.0 
1.203800601285e+01 -2.360542503210e+02 0.0 
0.0 0.0 -9.735303228033e+01 
-3.455115495995e+01 1.997570888412e+00 0.0 
1.997570888412e+00 -1.056821509793e+02 0.0 
0.0 0.0 -4.166999178178e+01 
-6.585252274222e+01 7.517326532968e+00 0.0 
7.517326532968e+00 -1.855318106665e+02 0.0 
0.0 0.0 -7.501530002262e+01 
-9.853386325355e+01 1.268290641828e+01 0.0 
1.268290641828e+01 -2.544101552672e+02 0.0 
0.0 0.0 -1.054832055562e+02 
-6.540367251071e+01 9.742469623118e+00 0.0 
9.742469623118e+00 -1.230513159742e+02 0.0 
0.0 0.0 -5.613649654549e+01 
-7.853151637099e+01 9.223721754788e-01 0.0 
9.223721754788e-01 -2.138184289292e+02 0.0 
0.0 0.0 -8.730498359007e+01 
-8.645082029556e+01 4.219266988295e+00 0.0 
4.219266988295e+00 -1.775667233963e+02 0.0 
0.0 0.0 -7.880526310757e+01 
-5.919180416769e+01 -3.232075603091e-01 0.0 
-3.232075603091e-01 -1.190211788029e+02 0.0 
0.0 0.0 -5.306389489119e+01 
-2.098523215275e+01 1.371485892783e+01 0.0 
1.371485892783e+01 -1.715816096604e+01 0.0 
0.0 0.0 -1.104301793564e+01 
-9.222133115665e+01 3.702918966382e+00 0.0 
3.702918966382e+00 -2.436409619745e+02 0.0 
0.0 0.0 -1.003586879393e+02 
-1.114499298009e+02 9.875498161814e+00 0.0 
9.875498161814e+00 -2.861992044781e+02 0.0 
0.0 0.0 -1.188947402837e+02 
-1.158945189781e+02 9.823132535409e+00 0.0 
9.823132535409e+00 -2.569826893968e+02 0.0 
0.0 0.0 -1.114631625125e+02 
-7.632084370306e+01 9.230187268915e+00 0.0 
9.230187268915e+00 -2.102199794229e+02 0.0 
0.0 0.0 -8.556224693780e+01 
-8.668559711346e+01 1.630713649218e+00 0.0 
1.630713649218e+00 -2.327953203830e+02 0.0 
0.0 0.0 -9.544427524895e+01 
-8.575765059065e+01 3.409501724489e+00 0.0 
3.409501724489e+00 -1.789246509310e+02 0.0 
0.0 0.0 -7.900469045651e+01 
-2.053696083174e+01 1.414999997456e+01 0.0 
1.414999997456e+01 -1.806935871418e+01 0.0 
0.0 0.0 -1.118189586378e+01 
-1.067399624493e+02 1.042473946123e+01 0.0 
1.042473946123e+01 -2.756743261615e+02 0.0 
0.0 0.0 -1.143242865832e+02 
-8.566561693819e+01 1.064323560622e+01 0.0 
1.064323560622e+01 -2.289062389943e+02 0.0 
0.0 0.0 -9.397155677975e+01 
-7.064577465159e+01 1.185739839138e+01 0.0 
1.185739839138e+01 -1.322792937003e+02 0.0 
0.0 0.0 -6.047752050556e+01 
-1.141370214263e+02 6.281905644621e+00 0.0 
6.281905644621e+00 -2.909183629474e+02 0.0 
0.0 0.0 -1.211166153121e+02 
-3.777980096364e+01 9.266534376618e-02 0.0 
9.266534376618e-02 -1.070371845042e+02 0.0 
0.0 0.0 -4.304509564035e+01 
-1.187047099918e+02 7.401817443494e+00 0.0 
7.401817443494e+00 -3.002988204590e+02 0.0 
0.0 0.0 -1.253010591352e+02 
-1.319550579259e+02 8.077700885129e+00 0.0 
8.077700885129e+00 -3.274422877985e+02 0.0 
0.0 0.0 -1.374192037173e+02 
-1.021642335269e+02 1.100337174282e+01 0.0 
1.100337174282e+01 -2.649057489288e+02 0.0 
0.0 0.0 -1.097209947367e+02 
-9.713786678776e+01 4.036651986741e+00 0.0 
4.036651986741e+00 -2.095203878897e+02 0.0 
0.0 0.0 -9.159747640324e+01 
-1.114776502830e+02 1.767564580924e+01 0.0 
1.767564580924e+01 -2.619564145113e+02 0.0 
0.0 0.0 -1.116302194383e+02 
-1.332369312265e+02 9.484242536698e+00 0.0 
9.484242536698e+00 -3.282426492009e+02 0.0 
0.0 0.0 -1.380438741282e+02 
-1.897560445096e+01 1.310071672602e+01 0.0 
1.310071672602e+01 -1.811633891063e+01 0.0 
0.0 0.0 -1.072758300848e+01 
-9.005424086071e+01 4.153514438633e+00 0.0 
4.153514438633e+00 -1.882524911339e+02 0.0 
0.0 0.0 -8.309201959837e+01 
-1.254131869189e+02 1.759161421095e+01 0.0 
1.759161421095e+01 -3.005901633146e+02 0.0 
0.0 0.0 -1.274010050701e+02 
-9.953493763776e+01 2.977041848852e+00 0.0 
2.977041848852e+00 -2.179030547908e+02 0.0 
0.0 0.0 -9.483139772857e+01 
-9.332433809779e+01 1.039602902749e+01 0.0 
1.039602902749e+01 -2.465552991135e+02 0.0 
0.0 0.0 -1.015638911634e+02 
-6.936872622479e+01 9.151377129853e+00 0.0 
9.151377129853e+00 -1.928622076271e+02 0.0 
0.0 0.0 -7.826928015557e+01 
-8.700082064015e+01 2.278581888525e-01 0.0 
2.278581888525e-01 -2.298871091599e+02 0.0 
0.0 0.0 -9.466637894002e+01 
-2.248771163815e+01 1.406535331785e+00 0.0 
1.406535331785e+00 -6.071780205722e+01 0.0 
0.0 0.0 -2.456165410861e+01 
-1.031401170005e+02 2.813183142130e+00 0.0 
2.813183142130e+00 -2.286216808567e+02 0.0 
0.0 0.0 -9.912853935718e+01 
-4.444636727355e+01 -1.635810177994e+00 0.0 
-1.635810177994e+00 -1.194995455125e+02 0.0 
0.0 0.0 -4.878377383581e+01 
-2.005550098412e+01 1.103621835589e+01 0.0 
1.103621835589e+01 -1.778798721791e+01 0.0 
0.0 0.0 -1.095304646061e+01 
-1.074620535579e+02 1.754740047959e+01 0.0 
1.754740047959e+01 -2.490787912154e+02 0.0 
0.0 0.0 -1.065622534320e+02 
-1.106275242944e+02 2.446405341944e+00 0.0 
2.446405341944e+00 -2.506865757533e+02 0.0 
0.0 0.0 -1.079942300143e+02 
-3.511893590664e+01 -7.903288696749e-01 0.0 
-7.903288696749e-01 -9.698112101723e+01 0.0 
0.0 0.0 -3.923001707716e+01 
-7.968660619374e+01 1.733353459842e+01 0.0 
1.733353459842e+01 -1.776450739247e+02 0.0 
0.0 0.0 -7.679950403552e+01 
-9.242750753170e+01 3.110356429920e+00 0.0 
3.110356429920e+00 -1.965668527585e+02 0.0 
0.0 0.0 -8.629830808706e+01 
-8.414943009610e+01 2.105096495089e+00 0.0 
2.105096495089e+00 -2.235884689436e+02 0.0 
0.0 0.0 -9.192136971190e+01 
-3.685149197778e+01 1.951917408589e+00 0.0 
1.951917408589e+00 -1.066459720826e+02 0.0 
0.0 0.0 -4.264923921811e+01 
-4.163636181103e+01 1.392296971319e+01 0.0 
1.392296971319e+01 -1.156863996796e+02 0.0 
0.0 0.0 -4.679682844719e+01 
-2.840840689564e+01 -2.382652288241e+00 0.0 
-2.382652288241e+00 -7.529957245338e+01 0.0 
0.0 0.0 -3.071239380471e+01 
-3.335315836903e+01 -1.179184404330e+00 0.0 
-1.179184404330e+00 -9.616094908835e+01 0.0 
0.0 0.0 -3.845423223721e+01 
-3.086038708740e+01 -1.946755017874e+00 0.0 
-1.946755017874e+00 -8.611402361415e+01 0.0 
0.0 0.0 -3.469232321046e+01 
-8.470419902383e+01 9.815125312159e+00 0.0 
9.815125312159e+00 -2.283218971958e+02 0.0 
0.0 0.0 -9.350782886588e+01 
-1.287730074272e+02 9.327738916726e+00 0.0 
9.327738916726e+00 -2.951599817893e+02 0.0 
0.0 0.0 -1.267798967650e+02 
-1.972321017530e+01 5.009377593568e+00 0.0 
5.009377593568e+00 -2.287571020611e+01 0.0 
0.0 0.0 -1.237967611442e+01 
-1.321417139093e+02 4.961784301767e+00 0.0 
4.961784301767e+00 -3.272126561455e+02 0.0 
0.0 0.0 -1.374063110164e+02 
-5.649887792416e+01 9.032394969307e+00 0.0 
9.032394969307e+00 -1.637580806187e+02 0.0 
0.0 0.0 -6.567708756287e+01 
-9.083632739646e+01 5.162146603818e+00 0.0 
5.162146603818e+00 -1.872810875585e+02 0.0 
0.0 0.0 -8.303522448648e+01 
-2.649434959450e+01 2.147024806825e+00 0.0 
2.147024806825e+00 -7.859913282572e+01 0.0 
0.0 0.0 -3.112804472606e+01 
-1.380818826271e+02 1.070209077330e+01 0.0 
1.070209077330e+01 -3.371071568084e+02 0.0 
0.0 0.0 -1.421567118306e+02 
-3.257066441300e+01 -1.509936376285e+00 0.0 
-1.509936376285e+00 -8.690296938198e+01 0.0 
0.0 0.0 -3.544209013849e+01 
-5.204457445734e+01 -1.463940974491e+00 0.0 
-1.463940974491e+00 -1.398211306449e+02 0.0 
0.0 0.0 -5.715971153068e+01 
-1.066554405557e+02 1.218495809837e+01 0.0 
1.218495809837e+01 -2.722710893098e+02 0.0 
0.0 0.0 -1.132779589597e+02 
-7.495508699777e+01 4.482221661356e+00 0.0 
4.482221661356e+00 -2.065638285131e+02 0.0 
0.0 0.0 -8.405567465328e+01 
-1.211397750787e+02 1.670941194413e+01 0.0 
1.670941194413e+01 -2.940424177736e+02 0.0 
0.0 0.0 -1.241546578557e+02 
-4.670654762353e+01 1.805370118297e+01 0.0 
1.805370118297e+01 -1.109670725093e+02 0.0 
0.0 0.0 -4.690208603984e+01 
-9.922189686781e+01 7.267399903572e+00 0.0 
7.267399903572e+00 -2.069796772929e+02 0.0 
0.0 0.0 -9.146047224820e+01 
-1.298334074469e+02 1.472665375907e+01 0.0 
1.472665375907e+01 -3.166360147080e+02 0.0 
0.0 0.0 -1.335408266465e+02 
-8.833379305752e+01 2.279890822254e+00 0.0 
2.279890822254e+00 -1.872234343073e+02 0.0 
0.0 0.0 -8.226716820945e+01 
-1.175135309351e+02 1.197362383953e+01 0.0 
1.197362383953e+01 -2.581311649529e+02 0.0 
0.0 0.0 -1.122934087664e+02 
-1.017162156890e+02 5.870854066049e+00 0.0 
5.870854066049e+00 -2.176900572328e+02 0.0 
0.0 0.0 -9.542188187652e+01 
-1.056673019671e+02 6.872034036404e+00 0.0 
6.872034036404e+00 -2.273844904421e+02 0.0 
0.0 0.0 -9.951553772276e+01 
-2.749709509004e+01 7.613469292054e+00 0.0 
7.613469292054e+00 -8.367881927606e+01 0.0 
0.0 0.0 -3.295277430983e+01 
-1.271763084491e+02 4.014023516605e+00 0.0 
4.014023516605e+00 -3.172979783073e+02 0.0 
0.0 0.0 -1.329422860269e+02 
-9.651671630403e+01 4.060184935619e+00 0.0 
4.060184935619e+00 -2.061761198915e+02 0.0 
0.0 0.0 -9.040785085866e+01 
-7.249501922405e+01 1.244547302147e+01 0.0 
1.244547302147e+01 -1.942694630307e+02 0.0 
0.0 0.0 -7.962934467641e+01 
-2.807276398352e+01 2.973041764615e+00 0.0 
2.973041764615e+00 -4.058361135468e+01 0.0 
0.0 0.0 -2.019691260146e+01 
-1.356549884504e+02 1.738167253942e+01 0.0 
1.738167253942e+01 -3.246570162988e+02 0.0 
0.0 0.0 -1.376936014248e+02 
-3.349665823195e+01 4.868953038197e+00 0.0 
4.868953038197e+00 -1.042015355415e+02 0.0 
0.0 0.0 -4.090945813203e+01 
-4.910729991355e+01 -1.550012692486e-01 0.0 
-1.550012692486e-01 -1.311322414646e+02 0.0 
0.0 0.0 -5.367186241344e+01 
-1.157220081461e+02 1.424855077084e+01 0.0 
1.424855077084e+01 -2.864749021479e+02 0.0 
0.0 0.0 -1.202590730882e+02 
-3.025825429202e+01 3.627536965098e-01 0.0 
3.627536965098e-01 -8.026519164116e+01 0.0 
0.0 0.0 -3.275703377995e+01 
-7.374299816704e+01 1.696129622236e+01 0.0 
1.696129622236e+01 -1.802741513135e+02 0.0 
0.0 0.0 -7.580514484415e+01 
-1.112040735568e+02 1.166679297023e+01 0.0 
1.166679297023e+01 -2.832782430630e+02 0.0 
0.0 0.0 -1.179446949860e+02 
-1.122835938967e+02 7.534962550827e+00 0.0 
7.534962550827e+00 -2.469177750767e+02 0.0 
0.0 0.0 -1.073604106920e+02 
-1.160965430574e+02 8.708935726355e+00 0.0 
8.708935726355e+00 -2.573073901921e+02 0.0 
0.0 0.0 -1.116211799749e+02 
-1.075038258787e+02 1.335698595675e+01 0.0 
1.335698595675e+01 -2.728753047897e+02 0.0 
0.0 0.0 -1.137137392005e+02 
-1.050106623510e+02 5.716643803223e+00 0.0 
5.716643803223e+00 -2.283121416683e+02 0.0 
0.0 0.0 -9.959684120579e+01 
-6.032369478740e+01 1.067615610555e+01 0.0 
1.067615610555e+01 -1.703325408290e+02 0.0 
0.0 0.0 -6.879687068493e+01 
-1.079572616594e+02 1.723042017977e+01 0.0 
1.723042017977e+01 -2.429029970427e+02 0.0 
0.0 0.0 -1.048580776106e+02 
-3.719322188609e+01 1.983403441778e+00 0.0 
1.983403441778e+00 -5.996083673477e+01 0.0 
0.0 0.0 -2.874621758626e+01 
-1.168700981924e+02 1.311685444376e+01 0.0 
1.311685444376e+01 -2.607792888381e+02 0.0 
0.0 0.0 -1.128948161091e+02 
-4.586093611677e+01 1.517196535912e+00 0.0 
1.517196535912e+00 -7.934708118716e+01 0.0 
0.0 0.0 -3.716240519118e+01 
-5.046452638476e+01 1.467576908219e+00 0.0 
1.467576908219e+00 -8.896924868858e+01 0.0 
0.0 0.0 -4.143013252200e+01 
-7.223002715386e+01 1.012361427174e+01 0.0 
1.012361427174e+01 -1.993367994527e+02 0.0 
0.0 0.0 -8.107004798196e+01 
-5.424123648200e+01 1.228790296851e+00 0.0 
1.228790296851e+00 -9.890552541387e+01 0.0 
0.0 0.0 -4.554402856876e+01 
-8.561599121240e+01 1.631311636856e+01 0.0 
1.631311636856e+01 -2.117481128141e+02 0.0 
0.0 0.0 -8.880923120796e+01 
-6.495780515191e+01 1.520394908847e+01 0.0 
1.520394908847e+01 -1.699751830327e+02 0.0 
0.0 0.0 -7.007989645538e+01 
-7.360513363446e+01 8.370256517513e+00 0.0 
8.370256517513e+00 -2.034182232808e+02 0.0 
0.0 0.0 -8.270700707456e+01 
-3.229830061429e+01 4.346373321661e-01 0.0 
4.346373321661e-01 -9.652952237252e+01 0.0 
0.0 0.0 -3.824834689604e+01 
-6.820374886945e+01 8.623011137500e+00 0.0 
8.623011137500e+00 -1.922535689201e+02 0.0 
0.0 0.0 -7.773719533685e+01 
-1.068350704761e+02 3.654112154386e+00 0.0 
3.654112154386e+00 -2.380047401140e+02 0.0 
0.0 0.0 -1.030519431770e+02 
-1.173731133169e+02 1.149880825600e+01 0.0 
1.149880825600e+01 -2.607393627342e+02 0.0 
0.0 0.0 -1.130337428153e+02 
-1.177037027070e+02 3.419791346798e+00 0.0 
3.419791346798e+00 -2.985202199032e+02 0.0 
0.0 0.0 -1.244671767831e+02 
-1.249040547925e+02 1.497841789238e+01 0.0 
1.497841789238e+01 -3.051680913931e+02 0.0 
0.0 0.0 -1.286216438557e+02 
-7.323360371462e+01 3.681324145419e+00 0.0 
3.681324145419e+00 -2.056555515473e+02 0.0 
0.0 0.0 -8.326674657858e+01 
-1.038301870470e+02 4.921206481761e+00 0.0 
4.921206481761e+00 -2.262660645338e+02 0.0 
0.0 0.0 -9.862887547424e+01 
-7.230841701319e+01 7.756324007623e+00 0.0 
7.756324007623e+00 -2.027370142620e+02 0.0 
0.0 0.0 -8.211362938255e+01 
-1.319797241694e+02 3.631740890561e+00 0.0 
3.631740890561e+00 -3.261234046318e+02 0.0 
0.0 0.0 -1.370309386403e+02 
-9.988884350054e+01 3.984645167781e+00 0.0 
3.984645167781e+00 -2.165945748836e+02 0.0 
0.0 0.0 -9.454502551524e+01 
-1.024567598643e+02 7.075100149105e+00 0.0 
7.075100149105e+00 -2.171098640268e+02 0.0 
0.0 0.0 -9.546998716734e+01 
-9.774109790693e+01 9.739223953862e+00 0.0 
9.739223953862e+00 -2.572717771735e+02 0.0 
0.0 0.0 -1.061038625241e+02 
-6.420707640130e+01 9.601958806309e+00 0.0 
9.601958806309e+00 -1.814732512659e+02 0.0 
0.0 0.0 -7.330409830016e+01 
-1.155214674411e+02 1.753737131703e+01 0.0 
1.753737131703e+01 -2.621621564991e+02 0.0 
0.0 0.0 -1.129050871821e+02 
-8.887089006344e+01 1.176905578513e+01 0.0 
1.176905578513e+01 -1.840805055046e+02 0.0 
0.0 0.0 -8.148541867040e+01 
-3.433858263408e+01 5.984193860012e-01 0.0 
5.984193860012e-01 -9.743073345008e+01 0.0 
0.0 0.0 -3.913079482525e+01 
-3.561264229674e+01 4.490973858971e+00 0.0 
4.490973858971e+00 -1.050105776434e+02 0.0 
0.0 0.0 -4.178696598203e+01 
-5.052452378541e+01 1.599130136584e+01 0.0 
1.599130136584e+01 -1.251228794557e+02 0.0 
0.0 0.0 -5.229422097234e+01 
-8.032102782715e+01 1.512994448869e+01 0.0 
1.512994448869e+01 -1.774737424157e+02 0.0 
0.0 0.0 -7.693843107287e+01 
-1.367869121135e+02 3.176268045996e+00 0.0 
3.176268045996e+00 -3.350583258674e+02 0.0 
0.0 0.0 -1.411535713943e+02 
-9.838512784986e+01 6.031646039884e+00 0.0 
6.031646039884e+00 -2.073065329586e+02 0.0 
0.0 0.0 -9.130749824254e+01 
-6.521470154353e+01 1.004900606718e+01 0.0 
1.004900606718e+01 -1.819982348628e+02 0.0 
0.0 0.0 -7.376388092191e+01 
-9.216053542434e+01 1.683207331852e+01 0.0 
1.683207331852e+01 -2.033614488456e+02 0.0 
0.0 0.0 -8.825659528098e+01 
-1.160048384043e+02 1.116101513874e+01 0.0 
1.116101513874e+01 -2.942033344920e+02 0.0 
0.0 0.0 -1.226624518689e+02 
-1.045496820059e+02 4.660570031473e+00 0.0 
4.660570031473e+00 -2.295452092174e+02 0.0 
0.0 0.0 -9.982846736699e+01 
-1.190899475904e+02 1.739312567881e+01 0.0 
1.739312567881e+01 -2.691222365596e+02 0.0 
0.0 0.0 -1.160636552450e+02 
-8.538532504258e+01 3.156599628275e+00 0.0 
3.156599628275e+00 -1.758878107931e+02 0.0 
0.0 0.0 -7.798194075072e+01 
-1.218200445486e+02 8.990889711260e+00 0.0 
8.990889711260e+00 -3.077369072430e+02 0.0 
0.0 0.0 -1.284670855375e+02 
-7.736933449501e+01 9.914852569306e+00 0.0 
9.914852569306e+00 -2.108121150899e+02 0.0 
0.0 0.0 -8.605443487546e+01 
-1.170941927614e+02 1.233629872471e+01 0.0 
1.233629872471e+01 -2.948234076203e+02 0.0 
0.0 0.0 -1.231752801145e+02 
-7.446762510852e+01 1.554960774956e+01 0.0 
1.554960774956e+01 -1.802793380309e+02 0.0 
0.0 0.0 -7.602408894182e+01 
-1.119426691926e+02 6.318702988574e+00 0.0 
6.318702988574e+00 -2.481823662528e+02 0.0 
0.0 0.0 -1.076375106336e+02 
-1.238057217337e+02 1.770437879360e+01 0.0 
1.770437879360e+01 -2.782061743060e+02 0.0 
0.0 0.0 -1.202035688119e+02 
-8.899388701287e+01 9.079905508358e+00 0.0 
9.079905508358e+00 -2.389594836364e+02 0.0 
0.0 0.0 -9.798601119477e+01 
-3.132494615430e+01 2.932605149282e+00 0.0 
2.932605149282e+00 -9.630591905524e+01 0.0 
0.0 0.0 -3.788925956286e+01 
-1.148843873710e+02 1.599122554168e+01 0.0 
1.599122554168e+01 -2.739035807676e+02 0.0 
0.0 0.0 -1.162363904416e+02 
-8.188787501148e+01 1.687909252670e+01 0.0 
1.687909252670e+01 -1.988130442533e+02 0.0 
0.0 0.0 -8.381027577944e+01 
-6.114348306873e+01 1.107183287812e+01 0.0 
1.107183287812e+01 -1.707681740353e+02 0.0 
0.0 0.0 -6.917349713120e+01 
-9.426104008219e+01 1.135700325220e+01 0.0 
1.135700325220e+01 -2.471582007296e+02 0.0 
0.0 0.0 -1.020257722435e+02 
-1.184361225172e+02 9.005174099782e+00 0.0 
9.005174099782e+00 -2.997142153989e+02 0.0 
0.0 0.0 -1.250451013748e+02 
-3.355081365116e+01 2.606337053727e+00 0.0 
2.606337053727e+00 -9.717220485950e+01 0.0 
0.0 0.0 -3.881690555320e+01 
-8.051390281270e+01 8.430968178923e+00 0.0 
8.430968178923e+00 -2.207829582781e+02 0.0 
0.0 0.0 -8.998905832724e+01 
-9.196403661405e+01 8.997724052967e+00 0.0 
8.997724052967e+00 -1.883295416432e+02 0.0 
0.0 0.0 -8.368807347718e+01 
-1.374564384421e+02 4.608549701990e+00 0.0 
4.608549701990e+00 -3.356295388425e+02 0.0 
0.0 0.0 -1.415257931854e+02 
-9.595237878608e+01 1.045715823037e+01 0.0 
1.045715823037e+01 -1.998681844058e+02 0.0 
0.0 0.0 -8.834616895756e+01 
-1.109572067227e+02 1.590233651881e+01 0.0 
1.590233651881e+01 -2.613662794024e+02 0.0 
0.0 0.0 -1.112970458375e+02 
-8.780574341680e+01 7.514125762737e+00 0.0 
7.514125762737e+00 -1.771563225087e+02 0.0 
0.0 0.0 -7.908861977765e+01 
-7.883147995594e+01 4.538712604243e+00 0.0 
4.538712604243e+00 -1.558868932596e+02 0.0 
0.0 0.0 -7.001551196466e+01 
-9.261759357111e+01 1.301684910961e+01 0.0 
1.301684910961e+01 -1.967782065001e+02 0.0 
0.0 0.0 -8.641874002136e+01 
-1.203735861873e+02 1.388523684377e+01 0.0 
1.388523684377e+01 -2.980623731863e+02 0.0 
0.0 0.0 -1.251307878121e+02 
-1.234968058451e+02 5.685477469851e+00 0.0 
5.685477469851e+00 -3.091698680385e+02 0.0 
0.0 0.0 -1.294000021651e+02 
-9.311478032115e+01 4.161639388972e+00 0.0 
4.161639388972e+00 -1.959012548822e+02 0.0 
0.0 0.0 -8.630481056102e+01 
-1.145827513194e+02 6.912307272811e+00 0.0 
6.912307272811e+00 -2.563411282232e+02 0.0 
0.0 0.0 -1.108771638628e+02 
-8.352844237355e+01 6.026582717984e+00 0.0 
6.026582717984e+00 -1.664113180900e+02 0.0 
0.0 0.0 -7.458192813906e+01 
-5.056418131210e+01 8.471488736098e+00 0.0 
8.471488736098e+00 -1.467942983033e+02 0.0 
0.0 0.0 -5.880754388463e+01 
-1.198022921552e+02 1.816765299987e+01 0.0 
1.816765299987e+01 -2.811781531372e+02 0.0 
0.0 0.0 -1.198941335877e+02 
-1.118242721495e+02 5.334380736335e+00 0.0 
5.334380736335e+00 -2.496915300161e+02 0.0 
0.0 0.0 -1.080547406497e+02 
-7.324434107333e+01 1.436486171317e+01 0.0 
1.436486171317e+01 -1.877939651634e+02 0.0 
0.0 0.0 -7.791149187101e+01 
-7.785280532813e+01 1.503174649191e+01 0.0 
1.503174649191e+01 -1.932807753244e+02 0.0 
0.0 0.0 -8.094007419575e+01 
-5.769139832437e+01 9.300932893628e+00 0.0 
9.300932893628e+00 -1.643233847903e+02 0.0 
0.0 0.0 -6.620443493441e+01 
-9.719461131004e+01 5.208798937262e+00 0.0 
5.208798937262e+00 -2.057275975670e+02 0.0 
0.0 0.0 -9.047666266310e+01 
-5.662335314422e+01 1.556767696166e+01 0.0 
1.556767696166e+01 -1.189089977303e+02 0.0 
0.0 0.0 -5.225970526235e+01 
-8.958839577211e+01 1.444446414505e+01 0.0 
1.444446414505e+01 -2.240798766276e+02 0.0 
0.0 0.0 -9.370048171990e+01 
-5.571152577592e+01 1.812940623156e+01 0.0 
1.812940623156e+01 -1.190203060869e+02 0.0 
0.0 0.0 -5.201954955884e+01 
-1.111987396109e+02 1.326551458241e+01 0.0 
1.326551458241e+01 -2.794499936766e+02 0.0 
0.0 0.0 -1.167946199863e+02 
-1.279419322593e+02 1.858280562244e+01 0.0 
1.858280562244e+01 -2.996351310837e+02 0.0 
0.0 0.0 -1.278731190029e+02 
-6.173003282476e+01 8.347336293707e+00 0.0 
8.347336293707e+00 -1.750774533149e+02 0.0 
0.0 0.0 -7.064224584189e+01 
-2.467126039098e+01 9.407840409510e-01 0.0 
9.407840409510e-01 -6.153402000022e+01 0.0 
0.0 0.0 -2.546158411736e+01 
-1.151781688145e+02 8.377521817889e+00 0.0 
8.377521817889e+00 -2.565596589505e+02 0.0 
0.0 0.0 -1.111213483295e+02 
-6.119425412834e+01 1.438057048254e+01 0.0 
1.438057048254e+01 -1.237570502011e+02 0.0 
0.0 0.0 -5.508539129883e+01 
-7.692660554275e+01 4.987790511026e+00 0.0 
4.987790511026e+00 -2.144246121239e+02 0.0 
0.0 0.0 -8.700536529999e+01 
-1.234366016279e+02 1.659507544873e+01 0.0 
1.659507544873e+01 -2.932092901146e+02 0.0 
0.0 0.0 -1.245937675228e+02 
-9.505836489398e+01 6.166811505937e+00 0.0 
6.166811505937e+00 -1.970696150466e+02 0.0 
0.0 0.0 -8.723839398217e+01 
-1.188193219333e+02 5.985642818667e+00 0.0 
5.985642818667e+00 -3.001104960606e+02 0.0 
0.0 0.0 -1.252789453982e+02 
-6.094126766305e+01 1.382610287743e+01 0.0 
1.382610287743e+01 -1.647327614166e+02 0.0 
0.0 0.0 -6.730220872388e+01 
-2.110959034454e+01 7.152942425903e-03 0.0 
7.152942425903e-03 -5.160194924387e+01 0.0 
0.0 0.0 -2.141346187652e+01 
-1.422541231274e+02 4.233099976334e+00 0.0 
4.233099976334e+00 -3.454431437489e+02 0.0 
0.0 0.0 -1.459091800629e+02 
-8.366572768949e+01 1.546265979174e+01 0.0 
1.546265979174e+01 -1.910150259554e+02 0.0 
0.0 0.0 -8.200422609345e+01 
-1.027990200620e+02 1.552689867626e+01 0.0 
1.552689867626e+01 -2.557975465980e+02 0.0 
0.0 0.0 -1.071789699980e+02 
-1.189691451270e+02 1.633799796232e+01 0.0 
1.633799796232e+01 -2.748986337201e+02 0.0 
0.0 0.0 -1.177603336541e+02 
-1.846695320551e+01 5.238682321475e-03 0.0 
5.238682321475e-03 -3.446267136362e+01 0.0 
0.0 0.0 -1.547888737074e+01 
-1.176322352967e+02 4.685646616433e+00 0.0 
4.685646616433e+00 -2.993195274935e+02 0.0 
0.0 0.0 -1.246855288371e+02 
-3.925638023800e+01 1.218252749236e+01 0.0 
1.218252749236e+01 -1.117824376939e+02 0.0 
0.0 0.0 -4.491164537958e+01 
-8.749255360248e+01 5.197643835492e+00 0.0 
5.197643835492e+00 -1.771153065822e+02 0.0 
0.0 0.0 -7.898235805541e+01 
-9.237212894179e+01 2.781461741759e+00 0.0 
2.781461741759e+00 -2.425714278817e+02 0.0 
0.0 0.0 -1.000830670470e+02 
-6.040482397356e+01 7.981195231202e+00 0.0 
7.981195231202e+00 -1.744300067119e+02 0.0 
0.0 0.0 -7.005044920565e+01 
-1.327567246436e+02 4.971534962528e+00 0.0 
4.971534962528e+00 -3.267485224762e+02 0.0 
0.0 0.0 -1.374515741359e+02 
-8.595740219131e+01 1.499314608875e+01 0.0 
1.499314608875e+01 -2.116050836022e+02 0.0 
0.0 0.0 -8.886874573804e+01 
-5.295683434399e+01 7.284370766653e+00 0.0 
7.284370766653e+00 -1.567493358268e+02 0.0 
0.0 0.0 -6.251185105124e+01 
-8.766386943456e+01 1.720881969178e+01 0.0 
1.720881969178e+01 -1.970899040189e+02 0.0 
0.0 0.0 -8.502613203603e+01 
-2.318731352551e+01 -5.219697064736e-01 0.0 
-5.219697064736e-01 -5.234259058974e+01 0.0 
0.0 0.0 -2.225897123458e+01 
-1.036916928327e+02 1.733834477743e+01 0.0 
1.733834477743e+01 -2.361403632883e+02 0.0 
0.0 0.0 -1.015496168363e+02 
-1.119828638823e+02 1.455724080976e+01 0.0 
1.455724080976e+01 -2.800593701486e+02 0.0 
0.0 0.0 -1.172126702093e+02 
-1.251255046344e+02 1.672682240389e+01 0.0 
1.672682240389e+01 -2.826762987922e+02 0.0 
0.0 0.0 -1.219405410280e+02 
-1.117223621179e+02 1.765379468872e+01 0.0 
1.765379468872e+01 -2.557628990473e+02 0.0 
0.0 0.0 -1.098455783496e+02 
-4.136861974193e+01 5.516261443176e+00 0.0 
5.516261443176e+00 -1.224735108339e+02 0.0 
0.0 0.0 -4.875263917276e+01 
-1.187720491967e+02 4.747031396692e+00 0.0 
4.747031396692e+00 -2.992718268686e+02 0.0 
0.0 0.0 -1.250131628196e+02 
-1.140806147026e+02 4.325292876523e+00 0.0 
4.325292876523e+00 -2.579713822281e+02 0.0 
0.0 0.0 -1.112155990792e+02 
-1.395746837905e+02 1.838980640495e+01 0.0 
1.838980640495e+01 -3.308969410316e+02 0.0 
0.0 0.0 -1.407414874466e+02 
-1.165436312553e+02 1.566390420412e+01 0.0 
1.566390420412e+01 -2.871258653387e+02 0.0 
0.0 0.0 -1.207008489782e+02 
-6.484639596829e+01 1.271559884766e+01 0.0 
1.271559884766e+01 -1.767653168584e+02 0.0 
0.0 0.0 -7.208351384802e+01 
-9.565793276884e+01 1.720583341914e+01 0.0 
1.720583341914e+01 -2.165597163343e+02 0.0 
0.0 0.0 -9.326529473095e+01 
-1.360841155638e+02 1.999309470362e+00 0.0 
1.999309470362e+00 -3.332255797992e+02 0.0 
0.0 0.0 -1.403929086089e+02 
-8.692678313642e+01 9.276179443600e-01 0.0 
9.276179443600e-01 -2.266231501054e+02 0.0 
0.0 0.0 -9.366497997255e+01 
-1.071726690510e+02 1.570411547564e+01 0.0 
1.570411547564e+01 -2.485779625409e+02 0.0 
0.0 0.0 -1.063251894776e+02 
-8.892886112964e+01 3.138271374652e+00 0.0 
3.138271374652e+00 -1.861398390098e+02 0.0 
0.0 0.0 -8.212061004182e+01 
-1.281325170643e+02 5.350897259030e+00 0.0 
5.350897259030e+00 -3.179970328971e+02 0.0 
0.0 0.0 -1.334388649884e+02 
-1.234948160747e+02 7.043495745258e+00 0.0 
7.043495745258e+00 -3.096600614649e+02 0.0 
0.0 0.0 -1.295464632619e+02 
-5.266451037262e+01 5.366013616051e-02 0.0 
5.366013616051e-02 -1.060101713482e+02 0.0 
0.0 0.0 -4.720240451625e+01 
-5.258529707116e+01 -1.369062040633e-01 0.0 
-1.369062040633e-01 -1.059838052842e+02 0.0 
0.0 0.0 -4.717073070661e+01 
-9.730417795571e+01 1.102252987305e+01 0.0 
1.102252987305e+01 -1.987089671277e+02 0.0 
0.0 0.0 -8.840394352502e+01 
-9.934547440285e+01 1.547237212773e+01 0.0 
1.547237212773e+01 -2.292982471269e+02 0.0 
0.0 0.0 -9.819311645894e+01 
-9.656337632234e+01 2.700662165506e+00 0.0 
2.700662165506e+00 -2.513493057230e+02 0.0 
0.0 0.0 -1.039738046136e+02 
-9.716205730419e+01 1.482932450366e+01 0.0 
1.482932450366e+01 -2.049495611348e+02 0.0 
0.0 0.0 -9.023348553171e+01 
-8.136290721138e+01 1.437699275508e+01 0.0 
1.437699275508e+01 -2.058204791669e+02 0.0 
0.0 0.0 -8.575501591347e+01 
-1.302066082568e+02 1.163135339924e+01 0.0 
1.163135339924e+01 -3.220029162965e+02 0.0 
0.0 0.0 -1.352628573660e+02 
-6.443505433219e+01 1.215792363058e+01 0.0 
1.215792363058e+01 -1.764715361901e+02 0.0 
0.0 0.0 -7.187197715669e+01 
-1.272147121102e+02 8.387830374994e+00 0.0 
8.387830374994e+00 -2.932140697031e+02 0.0 
0.0 0.0 -1.257286345440e+02 
-7.134482192706e+01 3.664199292428e+00 0.0 
3.664199292428e+00 -1.366968645744e+02 0.0 
0.0 0.0 -6.201250595042e+01 
-7.738197605974e+01 1.627675511155e+01 0.0 
1.627675511155e+01 -1.933534479437e+02 0.0 
0.0 0.0 -8.082062720103e+01 
-9.101838762822e+01 1.521338219362e+00 0.0 
1.521338219362e+00 -2.417073425951e+02 0.0 
0.0 0.0 -9.941771906701e+01 
-3.781598418035e+01 6.566419095124e+00 0.0 
6.566419095124e+00 -1.120941206557e+02 0.0 
0.0 0.0 -4.457303145081e+01 
-8.006055937029e+01 2.100065484125e+00 0.0 
2.100065484125e+00 -2.147275204243e+02 0.0 
0.0 0.0 -8.803642393838e+01 
-9.149234068207e+01 1.540423731174e+01 0.0 
1.540423731174e+01 -2.101043085575e+02 0.0 
0.0 0.0 -9.007899477187e+01 
-8.461347417768e+01 1.448545682575e+01 0.0 
1.448545682575e+01 -1.834131717287e+02 0.0 
0.0 0.0 -8.000799377190e+01 
-8.970835700085e+01 4.237079659210e+00 0.0 
4.237079659210e+00 -1.857490591690e+02 0.0 
0.0 0.0 -8.223722485097e+01 
-1.000340789650e+02 1.347178462907e+01 0.0 
1.347178462907e+01 -2.167076992745e+02 0.0 
0.0 0.0 -9.462253347186e+01 
-1.045475004109e+02 1.527565559082e+01 0.0 
1.527565559082e+01 -2.248511370035e+02 0.0 
0.0 0.0 -9.841959122434e+01 
-2.281342042219e+01 -1.047103422898e-01 0.0 
-1.047103422898e-01 -5.924723135267e+01 0.0 
0.0 0.0 -2.421819553246e+01 
-7.473951450832e+01 2.009754378022e-01 0.0 
2.009754378022e-01 -2.036329666746e+02 0.0 
0.0 0.0 -8.311174435488e+01 
-6.048367604969e+01 1.735245158637e+01 0.0 
1.735245158637e+01 -1.239502735997e+02 0.0 
0.0 0.0 -5.493018489483e+01 
-9.245241702985e+01 1.105444293948e+01 0.0 
1.105444293948e+01 -1.917365925088e+02 0.0 
0.0 0.0 -8.485670286158e+01 
-9.744971833222e+01 1.296443172807e+01 0.0 
1.296443172807e+01 -2.012125180023e+02 0.0 
0.0 0.0 -8.919867090037e+01 
-1.249476536700e+02 1.352865990135e+01 0.0 
1.352865990135e+01 -3.086572828176e+02 0.0 
0.0 0.0 -1.296814809463e+02 
-3.329438614988e+01 -8.258871456595e-01 0.0 
-8.258871456595e-01 -8.925785157250e+01 0.0 
0.0 0.0 -3.636567131671e+01 
-3.150287352091e+01 9.565011866015e-01 0.0 
9.565011866015e-01 -8.857367441295e+01 0.0 
0.0 0.0 -3.562296438016e+01 
-7.911442648690e+01 1.564165048452e+01 0.0 
1.564165048452e+01 -1.855345907114e+02 0.0 
0.0 0.0 -7.899470515948e+01 
-7.619283375552e+01 1.432220999360e+00 0.0 
1.432220999360e+00 -2.045149046148e+02 0.0 
0.0 0.0 -8.381232151111e+01 
-5.244024901558e+01 4.214500285570e+00 0.0 
4.214500285570e+00 -9.061017682808e+01 0.0 
0.0 0.0 -4.251512775310e+01 
-5.648256886608e+01 3.767272570051e+00 0.0 
3.767272570051e+00 -1.003618789466e+02 0.0 
0.0 0.0 -4.665333434380e+01 
-9.173100534428e+01 6.301018050617e+00 0.0 
6.301018050617e+00 -1.869565112240e+02 0.0 
0.0 0.0 -8.320625497048e+01 
-2.657487591267e+01 8.292759003518e+00 0.0 
8.292759003518e+00 -7.308742759331e+01 0.0 
0.0 0.0 -2.949869105180e+01 
-8.697131835441e+01 8.199936708342e-01 0.0 
8.199936708342e-01 -2.315827531455e+02 0.0 
0.0 0.0 -9.516622144999e+01 
-1.127004322867e+02 1.106409132023e+01 0.0 
1.106409132023e+01 -2.869875594396e+02 0.0 
0.0 0.0 -1.195063975179e+02 
-2.928387768097e+01 1.183028150108e+00 0.0 
1.183028150108e+00 -8.771341576968e+01 0.0 
0.0 0.0 -3.469918803519e+01 
-1.340624376404e+02 1.856440612142e+01 0.0 
1.856440612142e+01 -3.132463484066e+02 0.0 
0.0 0.0 -1.337926358141e+02 
-1.086282069352e+02 6.523435387612e+00 0.0 
6.523435387612e+00 -2.373953173628e+02 0.0 
0.0 0.0 -1.034070572894e+02 
-8.412995560151e+01 1.529972591531e+00 0.0 
1.529972591531e+00 -2.220173236858e+02 0.0 
0.0 0.0 -9.144418378620e+01 
-1.223882028611e+02 3.113244151534e+00 0.0 
3.113244151534e+00 -3.073726661391e+02 0.0 
0.0 0.0 -1.285282607001e+02 
-1.590970079655e+01 -8.540465720489e-01 0.0 
-8.540465720489e-01 -4.236805105941e+01 0.0 
0.0 0.0 -1.708332555679e+01 
-1.083026616269e+02 9.757635557072e+00 0.0 
9.757635557072e+00 -2.788379726233e+02 0.0 
0.0 0.0 -1.157421902750e+02 
-8.302056026987e+01 1.739265199935e+01 0.0 
1.739265199935e+01 -1.911452834912e+02 0.0 
0.0 0.0 -8.184975312833e+01 
-1.611741166068e+01 -6.869037349297e-01 0.0 
-6.869037349297e-01 -4.229269476035e+01 0.0 
0.0 0.0 -1.712303192631e+01 
-1.070266941087e+02 4.800570996207e+00 0.0 
4.800570996207e+00 -2.364922176108e+02 0.0 
0.0 0.0 -1.026556735158e+02 
-2.871947045952e+01 1.708550705815e+00 0.0 
1.708550705815e+00 -7.943750567821e+01 0.0 
0.0 0.0 -3.204709284132e+01 
-9.359618661325e+01 1.362450529290e+01 0.0 
1.362450529290e+01 -1.927836506734e+02 0.0 
0.0 0.0 -8.551395118600e+01 
-8.431155708437e+01 1.684461122508e+01 0.0 
1.684461122508e+01 -1.837397547358e+02 0.0 
0.0 0.0 -8.001539354606e+01 
-7.424954122931e+01 6.246622815056e+00 0.0 
6.246622815056e+00 -2.055738320809e+02 0.0 
0.0 0.0 -8.354701199306e+01 
-9.423201058758e+01 4.926205765536e+00 0.0 
4.926205765536e+00 -2.522187444673e+02 0.0 
0.0 0.0 -1.035352265165e+02 
-1.106630831603e+02 5.791104394583e+00 0.0 
5.791104394583e+00 -2.460711748806e+02 0.0 
0.0 0.0 -1.066202774123e+02 
-1.031567056988e+02 5.717853513860e+00 0.0 
5.717853513860e+00 -2.710015189324e+02 0.0 
0.0 0.0 -1.118474673894e+02 
-8.247449387436e+01 1.540147488999e+01 0.0 
1.540147488999e+01 -1.987411398127e+02 0.0 
0.0 0.0 -8.396469010612e+01 
-7.835256391451e+01 1.733294922070e+01 0.0 
1.733294922070e+01 -1.855682717638e+02 0.0 
0.0 0.0 -7.877625070349e+01 
-2.020829572848e+01 1.278689891711e+01 0.0 
1.278689891711e+01 -1.554500586240e+01 0.0 
0.0 0.0 -1.032599047727e+01 
-2.490569417405e+01 5.468934311148e-01 0.0 
5.468934311148e-01 -6.994121122526e+01 0.0 
0.0 0.0 -2.805407161979e+01 
-1.155266894564e+02 1.789367382378e+01 0.0 
1.789367382378e+01 -2.683414357504e+02 0.0 
0.0 0.0 -1.147604375620e+02 
-8.479236503312e+01 6.861911160355e+00 0.0 
6.861911160355e+00 -1.670873579652e+02 0.0 
0.0 0.0 -7.516391689948e+01 
-1.187877079995e+02 1.650796389657e+01 0.0 
1.650796389657e+01 -2.803183454238e+02 0.0 
0.0 0.0 -1.193318160270e+02 
-3.826072652787e+01 1.228177631392e+01 0.0 
1.228177631392e+01 -1.113819278966e+02 0.0 
0.0 0.0 -4.449279632734e+01 
-1.059113136094e+02 9.190081807554e+00 0.0 
9.190081807554e+00 -2.273136388635e+02 0.0 
0.0 0.0 -9.956748574189e+01 
-1.196654631444e+02 1.816498042276e+01 0.0 
1.816498042276e+01 -2.753865343787e+02 0.0 
0.0 0.0 -1.181155992569e+02 
-5.931149948468e+01 2.553813364919e+00 0.0 
2.553813364919e+00 -1.078300246037e+02 0.0 
0.0 0.0 -4.974245722651e+01 
-1.149096410337e+02 1.614533838647e+01 0.0 
1.614533838647e+01 -2.676441486864e+02 0.0 
0.0 0.0 -1.143661369160e+02 
-1.233102127249e+02 4.456648298994e+00 0.0 
4.456648298994e+00 -3.080674743228e+02 0.0 
0.0 0.0 -1.290133061143e+02 
-9.495881428890e+01 1.547772302886e+01 0.0 
1.547772302886e+01 -2.231540222124e+02 0.0 
0.0 0.0 -9.503385095039e+01 
-8.273672216113e+01 8.582946057834e-01 0.0 
8.582946057834e-01 -2.227167400387e+02 0.0 
0.0 0.0 -9.123603865996e+01 
-8.815915700986e+01 2.845629530399e+00 0.0 
2.845629530399e+00 -2.336857016899e+02 0.0 
0.0 0.0 -9.615345760994e+01 
-1.174154188124e+02 1.052713788010e+01 0.0 
1.052713788010e+01 -2.584177305027e+02 0.0 
0.0 0.0 -1.123499447945e+02 
-8.570935737200e+01 4.120821347253e+00 0.0 
4.120821347253e+00 -2.335992111344e+02 0.0 
0.0 0.0 -9.539257055191e+01 
-8.807455262307e+01 1.509053143047e+01 0.0 
1.509053143047e+01 -1.968502053057e+02 0.0 
0.0 0.0 -8.507742737864e+01 
-8.073153401248e+01 1.269832857480e+01 0.0 
1.269832857480e+01 -2.122556304121e+02 0.0 
0.0 0.0 -8.749614932736e+01 
-1.125054777776e+02 6.527914067961e+00 0.0 
6.527914067961e+00 -2.898857898290e+02 0.0 
0.0 0.0 -1.203173802820e+02 
-7.297364370365e+01 1.535393193396e+01 0.0 
1.535393193396e+01 -1.878857109208e+02 0.0 
0.0 0.0 -7.785780638733e+01 
-4.307499174480e+01 4.677444765963e+00 0.0 
4.677444765963e+00 -1.317316983946e+02 0.0 
0.0 0.0 -5.204200704181e+01 
-8.480050800903e+01 7.720782416800e+00 0.0 
7.720782416800e+00 -2.310665259546e+02 0.0 
0.0 0.0 -9.436011018908e+01 
-4.593949074217e+01 6.533003092990e+00 0.0 
6.533003092990e+00 -1.391773182464e+02 0.0 
0.0 0.0 -5.513504269658e+01 
-9.628161847221e+01 1.236068256612e+01 0.0 
1.236068256612e+01 -2.040719312695e+02 0.0 
0.0 0.0 -8.970606492252e+01 
-4.768366891364e+01 6.525590871663e+00 0.0 
6.525590871663e+00 -1.399145630255e+02 0.0 
0.0 0.0 -5.587946958174e+01 
-9.311442576487e+01 1.554473763796e+01 0.0 
1.554473763796e+01 -1.974806196730e+02 0.0 
0.0 0.0 -8.677851363135e+01 
-1.212684431276e+02 1.528209514348e+01 0.0 
1.528209514348e+01 -2.987493521105e+02 0.0 
0.0 0.0 -1.256053385714e+02 
-1.157447990154e+02 1.281279551337e+01 0.0 
1.281279551337e+01 -2.906973793513e+02 0.0 
0.0 0.0 -1.215326535100e+02 
-6.874880024171e+01 1.340270152796e+01 0.0 
1.340270152796e+01 -1.822424699605e+02 0.0 
0.0 0.0 -7.489738106068e+01 
-8.626991888422e+01 4.282890277695e+00 0.0 
4.282890277695e+00 -1.757423763347e+02 0.0 
0.0 0.0 -7.820368856566e+01 
-1.270765237168e+02 2.769560100898e+00 0.0 
2.769560100898e+00 -3.161596305601e+02 0.0 
0.0 0.0 -1.325708462831e+02 
-1.278284860076e+02 4.128387204390e+00 0.0 
4.128387204390e+00 -3.167905889206e+02 0.0 
0.0 0.0 -1.329857224785e+02 
-2.264162907207e+01 7.581040443556e+00 0.0 
7.581040443556e+00 -5.648092464928e+01 0.0 
0.0 0.0 -2.333676611641e+01 
-9.620946790228e+01 1.402535700554e+01 0.0 
1.402535700554e+01 -2.095950228675e+02 0.0 
0.0 0.0 -9.134134723094e+01 
-1.420200173999e+02 2.543906757568e+00 0.0 
2.543906757568e+00 -3.447936191802e+02 0.0 
0.0 0.0 -1.456440909740e+02 
-4.011457548530e+01 1.110675751591e+01 0.0 
1.110675751591e+01 -6.702355953158e+01 0.0 
0.0 0.0 -3.174144050507e+01 
-9.226333159532e+01 2.067604576397e+00 0.0 
2.067604576397e+00 -2.410021234806e+02 0.0 
0.0 0.0 -9.957963652278e+01 
-1.854549972555e+01 1.171016844289e+01 0.0 
1.171016844289e+01 -1.623718459071e+01 0.0 
0.0 0.0 -1.003480529488e+01 
-1.317175461305e+02 2.395134455146e+00 0.0 
2.395134455146e+00 -3.248455388365e+02 0.0 
0.0 0.0 -1.365689254901e+02 
-3.942793855228e+01 5.714544443694e+00 0.0 
5.714544443694e+00 -1.216950819091e+02 0.0 
0.0 0.0 -4.793690613843e+01 
-8.959905196248e+01 -3.600738600926e-01 0.0 
-3.600738600926e-01 -2.328385822326e+02 0.0 
0.0 0.0 -9.633129025854e+01 
-1.021688912294e+02 1.412325476308e+01 0.0 
1.412325476308e+01 -2.552895228127e+02 0.0 
0.0 0.0 -1.068375242126e+02 
-8.845059854817e+01 6.468681749035e+00 0.0 
6.468681749035e+00 -1.770756549937e+02 0.0 
0.0 0.0 -7.925787606256e+01 
-8.312534369541e+01 4.529862836769e+00 0.0 
4.529862836769e+00 -1.659440744078e+02 0.0 
0.0 0.0 -7.432082543095e+01 
-8.703610358435e+01 1.551016849360e+01 0.0 
1.551016849360e+01 -2.043060796863e+02 0.0 
0.0 0.0 -8.700265498119e+01 
-4.429874988928e+01 4.994977690646e+00 0.0 
4.994977690646e+00 -7.143853818075e+01 0.0 
0.0 0.0 -3.432118642101e+01 
-4.844783639744e+01 4.375240635726e+00 0.0 
4.375240635726e+00 -8.108929703518e+01 0.0 
0.0 0.0 -3.846114002979e+01 
-1.322445994167e+02 3.723136676126e+00 0.0 
3.723136676126e+00 -3.253808215088e+02 0.0 
0.0 0.0 -1.368876262777e+02 
-9.986888595102e+01 7.245342239003e+00 0.0 
7.245342239003e+00 -2.619080731085e+02 0.0 
0.0 0.0 -1.081330877179e+02 
-8.223164961480e+01 7.133702360034e+00 0.0 
7.133702360034e+00 -2.236799977073e+02 0.0 
0.0 0.0 -9.137349419662e+01 
-1.069599054947e+02 8.592211548446e+00 0.0 
8.592211548446e+00 -2.780589642376e+02 0.0 
0.0 0.0 -1.151056609197e+02 
-7.651309753145e+01 7.006766512758e+00 0.0 
7.006766512758e+00 -2.129545965742e+02 0.0 
0.0 0.0 -8.644030823168e+01 
-4.391343103946e+01 7.548449977011e+00 0.0 
7.548449977011e+00 -1.294010962929e+02 0.0 
0.0 0.0 -5.159435819972e+01 
-4.182486099106e+01 1.735649908891e+00 0.0 
1.735649908891e+00 -6.933491027054e+01 0.0 
0.0 0.0 -3.294793137848e+01 
-7.663254961599e+01 5.620162767972e+00 0.0 
5.620162767972e+00 -1.474101901903e+02 0.0 
0.0 0.0 -6.681282194188e+01 
-5.277420382052e+01 -3.469632732273e-02 0.0 
-3.469632732273e-02 -1.062000585600e+02 0.0 
0.0 0.0 -4.729227871416e+01 
-1.166518493002e+02 1.408375831841e+01 0.0 
1.408375831841e+01 -2.913401283370e+02 0.0 
0.0 0.0 -1.219975932912e+02 
-6.878909595222e+01 1.415182781680e+01 0.0 
1.415182781680e+01 -1.824150087152e+02 0.0 
0.0 0.0 -7.496123140024e+01 
-1.341103264971e+02 1.592308181242e+01 0.0 
1.592308181242e+01 -3.235942013378e+02 0.0 
0.0 0.0 -1.369113583505e+02 
-1.308094752094e+02 1.766833735353e-01 0.0 
1.766833735353e-01 -3.219499366730e+02 0.0 
0.0 0.0 -1.354278235647e+02 
-8.169811430853e+01 9.186448437712e+00 0.0 
9.186448437712e+00 -2.214549636849e+02 0.0 
0.0 0.0 -9.054592339802e+01 
-1.478360772000e+02 4.990277112925e+00 0.0 
4.990277112925e+00 -3.551202065675e+02 0.0 
0.0 0.0 -1.504868851303e+02 
-5.155877233589e+01 5.686456255442e+00 0.0 
5.686456255442e+00 -1.501852318138e+02 0.0 
0.0 0.0 -6.012320124491e+01 
-1.288256670419e+02 1.600726733988e+01 0.0 
1.600726733988e+01 -3.115773682864e+02 0.0 
0.0 0.0 -1.317209105985e+02 
-8.649271067456e+01 1.721434761938e+01 0.0 
1.721434761938e+01 -2.044429171923e+02 0.0 
0.0 0.0 -8.688068836007e+01 
-9.850976192174e+01 1.537772346383e+01 0.0 
1.537772346383e+01 -2.359150474017e+02 0.0 
0.0 0.0 -9.992744279704e+01 
-1.275055717376e+02 1.147554457853e+01 0.0 
1.147554457853e+01 -3.163733860759e+02 0.0 
0.0 0.0 -1.327636873440e+02 
-6.106870486563e+01 5.507718268430e-01 0.0 
5.507718268430e-01 -1.681698495176e+02 0.0 
0.0 0.0 -6.837156631498e+01 
-9.225263952180e+01 1.459598235944e+01 0.0 
1.459598235944e+01 -2.030358728555e+02 0.0 
0.0 0.0 -8.818655371318e+01 
-7.789759740653e+01 7.693654191699e+00 0.0 
7.693654191699e+00 -2.136912252450e+02 0.0 
0.0 0.0 -8.707664679545e+01 
-8.877133778043e+01 1.622123178818e+01 0.0 
1.622123178818e+01 -1.903108047214e+02 0.0 
0.0 0.0 -8.332464275056e+01 
-4.210310641815e+01 1.411168226574e+01 0.0 
1.411168226574e+01 -1.159238975064e+02 0.0 
0.0 0.0 -4.700810117737e+01 
-1.022097820495e+02 1.515580133731e+01 0.0 
1.515580133731e+01 -2.485520552703e+02 0.0 
0.0 0.0 -1.048285511959e+02 
-7.268742547018e+01 5.562538277656e+00 0.0 
5.562538277656e+00 -2.047558903244e+02 0.0 
0.0 0.0 -8.283299473838e+01 
-9.535080257742e+01 1.413617832781e+00 0.0 
1.413617832781e+00 -2.505304711364e+02 0.0 
0.0 0.0 -1.033643821141e+02 
-8.870109227780e+01 1.375084503453e+01 0.0 
1.375084503453e+01 -1.898085559507e+02 0.0 
0.0 0.0 -8.315289446854e+01 
-1.776103429513e+01 6.825231844224e+00 0.0 
6.825231844224e+00 -2.455914472788e+01 0.0 
0.0 0.0 -1.229605370690e+01 
-8.919992016595e+01 1.296015258836e+01 0.0 
1.296015258836e+01 -2.305721111906e+02 0.0 
0.0 0.0 -9.553160940697e+01 
-1.997958488776e+01 1.120421762326e+01 0.0 
1.120421762326e+01 -3.237769921631e+01 0.0 
0.0 0.0 -1.530718523122e+01 
-2.437097660179e+01 -2.128792872449e+00 0.0 
-2.128792872449e+00 -6.344057145890e+01 0.0 
0.0 0.0 -2.594346441821e+01 
-9.112952636272e+01 7.688376516575e-01 0.0 
7.688376516575e-01 -2.401973188702e+02 0.0 
0.0 0.0 -9.899805356989e+01 
-1.119159466613e+02 1.701230793652e+01 0.0 
1.701230793652e+01 -2.498531245328e+02 0.0 
0.0 0.0 -1.081307213582e+02 
-8.708882071243e+01 5.751247671804e+00 0.0 
5.751247671804e+00 -1.757084231482e+02 0.0 
0.0 0.0 -7.843917315819e+01 
-3.627564201198e+01 6.592958736588e+00 0.0 
6.592958736588e+00 -5.296907255849e+01 0.0 
0.0 0.0 -2.637341437114e+01 
-1.250211887727e+02 8.420505953435e+00 0.0 
8.420505953435e+00 -2.930494404696e+02 0.0 
0.0 0.0 -1.250211887727e+02 
-1.842916375403e+01 1.091099137916e+01 0.0 
1.091099137916e+01 -1.223433408071e+01 0.0 
0.0 0.0 -8.906627366843e+00 
-4.008677706403e+01 5.472949879293e+00 0.0 
5.472949879293e+00 -6.201305908907e+01 0.0 
0.0 0.0 -3.022995084593e+01 
-8.512047695231e+01 5.785744828004e+00 0.0 
5.785744828004e+00 -2.326074355623e+02 0.0 
0.0 0.0 -9.491837375438e+01 
-8.805187665553e+01 1.563355706754e+00 0.0 
1.563355706754e+00 -2.306445115284e+02 0.0 
0.0 0.0 -9.520891645517e+01 
-5.838217743686e+01 8.717244644426e+00 0.0 
8.717244644426e+00 -1.009220688535e+02 0.0 
0.0 0.0 -4.739127388712e+01 
-5.452069239530e+01 2.526006752504e+00 0.0 
2.526006752504e+00 -1.603981421953e+02 0.0 
0.0 0.0 -6.407565037717e+01 
-9.113541241731e+01 6.316738872099e+00 0.0 
6.316738872099e+00 -2.431984061964e+02 0.0 
0.0 0.0 -9.990014558412e+01 
-9.112127717714e+01 1.731560788058e+01 0.0 
1.731560788058e+01 -2.103570203022e+02 0.0 
0.0 0.0 -9.004348924381e+01 
-9.788446541384e+01 1.334130766577e+01 0.0 
1.334130766577e+01 -2.491441421833e+02 0.0 
0.0 0.0 -1.037085822791e+02 
-1.135630743103e+02 1.327064637367e+01 0.0 
1.327064637367e+01 -2.518826507517e+02 0.0 
0.0 0.0 -1.092337175186e+02 
-2.328720233005e+01 7.019804872227e+00 0.0 
7.019804872227e+00 -6.703327697018e+01 0.0 
0.0 0.0 -2.669614379007e+01 
-8.291926532515e+01 2.247393343190e-01 0.0 
2.247393343190e-01 -2.212153195619e+02 0.0 
0.0 0.0 -9.084037546611e+01 
-9.108699374407e+01 1.995362426434e-01 0.0 
1.995362426434e-01 -2.385615272886e+02 0.0 
0.0 0.0 -9.849455630982e+01 
-4.683701169827e+01 -8.578980413065e-01 0.0 
-8.578980413065e-01 -1.273858434066e+02 0.0 
0.0 0.0 -5.186685653146e+01 
-6.300413885865e+01 2.259209425765e+00 0.0 
2.259209425765e+00 -1.173580653354e+02 0.0 
0.0 0.0 -5.370866125820e+01 
-8.903599589991e+01 8.133274190058e+00 0.0 
8.133274190058e+00 -1.770131875560e+02 0.0 
0.0 0.0 -7.941475503677e+01 
-1.174084173410e+02 1.077581767403e+00 0.0 
1.077581767403e+00 -2.939983574459e+02 0.0 
0.0 0.0 -1.230220324361e+02 
-1.707168129352e+01 -7.651942420456e-01 0.0 
-7.651942420456e-01 -4.257365564584e+01 0.0 
0.0 0.0 -1.749360108181e+01 
-1.813162725558e+01 5.860194717645e-02 0.0 
5.860194717645e-02 -2.571753054440e+01 0.0 
0.0 0.0 -1.275474733999e+01 
-3.363251366348e+01 -1.501180617738e+00 0.0 
-1.501180617738e+00 -8.886673893056e+01 0.0 
0.0 0.0 -3.634977577821e+01 
-9.197308682816e+01 1.554119738639e+00 0.0 
1.554119738639e+00 -2.392535476970e+02 0.0 
0.0 0.0 -9.896799035754e+01 
-5.850696484105e+01 6.625687305523e+00 0.0 
6.625687305523e+00 -1.678202122019e+02 0.0 
0.0 0.0 -6.749815311289e+01 
-5.259495492408e+01 3.405521668967e+00 0.0 
3.405521668967e+00 -1.520195776256e+02 0.0 
0.0 0.0 -6.098435976490e+01 
-4.503518151523e+01 4.653621951466e+00 0.0 
4.653621951466e+00 -1.325577143506e+02 0.0 
0.0 0.0 -5.287786875974e+01 
-9.530298902810e+01 6.945084178739e-01 0.0 
6.945084178739e-01 -2.488396198170e+02 0.0 
0.0 0.0 -1.028427826535e+02 
-9.531964078875e+01 8.492645754933e+00 0.0 
8.492645754933e+00 -1.971667872392e+02 0.0 
0.0 0.0 -8.734592840838e+01 
-9.515255280899e+01 1.330334438466e-01 0.0 
1.330334438466e-01 -2.471711627596e+02 0.0 
0.0 0.0 -1.022971146706e+02 
-5.690900698328e+01 6.335325118703e+00 0.0 
6.335325118703e+00 -1.670761311009e+02 0.0 
0.0 0.0 -6.679554142526e+01 
-9.655706767943e+01 1.639337238206e+01 0.0 
1.639337238206e+01 -2.101838242904e+02 0.0 
0.0 0.0 -9.162226759094e+01 
-6.857504638001e+01 8.667490207464e-01 0.0 
8.667490207464e-01 -1.369265520072e+02 0.0 
0.0 0.0 -6.125047951617e+01 
-1.112285446553e+02 1.454878987940e+01 0.0 
1.454878987940e+01 -2.744696142681e+02 0.0 
0.0 0.0 -1.153094476770e+02 
-9.589346722044e+01 1.511220844750e+00 0.0 
1.511220844750e+00 -2.478146633618e+02 0.0 
0.0 0.0 -1.027124391747e+02 
-9.628522606806e+01 2.017753208989e+00 0.0 
2.017753208989e+00 -2.495867582246e+02 0.0 
0.0 0.0 -1.033615952878e+02 
-2.874058579465e+01 9.244534152083e+00 0.0 
9.244534152083e+00 -3.422614111185e+01 0.0 
0.0 0.0 -1.849001807195e+01 
-6.254000878441e+01 5.914024994275e+00 0.0 
5.914024994275e+00 -1.778391406106e+02 0.0 
0.0 0.0 -7.171374481851e+01 
-9.920874694860e+01 3.555845232117e-02 0.0 
3.555845232117e-02 -2.556691258356e+02 0.0 
0.0 0.0 -1.060633618353e+02 
-8.174260364989e+01 -5.212688863666e-01 0.0 
-5.212688863666e-01 -1.772362226896e+02 0.0 
0.0 0.0 -7.729364790184e+01 
-7.442134848679e+01 -6.146051123882e-01 0.0 
-6.146051123882e-01 -1.590049711509e+02 0.0 
0.0 0.0 -6.962789589130e+01 
-3.229420131045e+01 7.653489654051e+00 0.0 
7.653489654051e+00 -4.362572950286e+01 0.0 
0.0 0.0 -2.237597924399e+01 
-9.949241714679e+01 5.829944734443e-01 0.0 
5.829944734443e-01 -2.574811154938e+02 0.0 
0.0 0.0 -1.066920597922e+02 
-5.342220205019e+01 1.676472419062e+00 0.0 
1.676472419062e+00 -1.522845062840e+02 0.0 
0.0 0.0 -6.131201250025e+01 
-2.147753991090e+01 1.237442568082e+01 0.0 
1.237442568082e+01 -4.839311567171e+01 0.0 
0.0 0.0 -2.056119667478e+01 
-1.303287149504e+02 1.745424961261e+01 0.0 
1.745424961261e+01 -3.126753825529e+02 0.0 
0.0 0.0 -1.325012292510e+02 
-3.008356156412e+01 -2.737358727476e+00 0.0 
-2.737358727476e+00 -8.038278868053e+01 0.0 
0.0 0.0 -3.273990507340e+01 
-5.527945946084e+01 8.507573029089e-01 0.0 
8.507573029089e-01 -1.602477064958e+02 0.0 
0.0 0.0 -6.425814978698e+01 
-8.530239773151e+01 1.475389662407e+01 0.0 
1.475389662407e+01 -2.185379360149e+02 0.0 
0.0 0.0 -9.075210012393e+01 
-3.276052108973e+01 2.424834032234e+00 0.0 
2.424834032234e+00 -4.969654878145e+01 0.0 
0.0 0.0 -2.433712096135e+01 
-9.986325742319e+01 1.427671993819e+00 0.0 
1.427671993819e+00 -2.564391787106e+02 0.0 
0.0 0.0 -1.064907308401e+02 
-4.493006965233e+01 6.464640125265e-01 0.0 
6.464640125265e-01 -1.197489183552e+02 0.0 
0.0 0.0 -4.900369640226e+01 
-6.800208690068e+01 4.381037066245e+00 0.0 
4.381037066245e+00 -1.258831892762e+02 0.0 
0.0 0.0 -5.776558285306e+01 
-1.003072166560e+02 1.926643993748e+00 0.0 
1.926643993748e+00 -2.581616278488e+02 0.0 
0.0 0.0 -1.071406533514e+02 
-7.852700045534e+01 5.764877496000e+00 0.0 
5.764877496000e+00 -2.152883267380e+02 0.0 
0.0 0.0 -8.774459815799e+01 
-8.825351268024e+01 2.095398846992e+00 0.0 
2.095398846992e+00 -2.324202131890e+02 0.0 
0.0 0.0 -9.580211776078e+01 
-1.900615566955e+01 4.284128954679e+00 0.0 
4.284128954679e+00 -3.078100016025e+01 0.0 
0.0 0.0 -1.453614674894e+01 
-1.039792702860e+02 1.168653871072e+00 0.0 
1.168653871072e+00 -2.351935735688e+02 0.0 
0.0 0.0 -1.013518531564e+02 
-6.337754558217e+01 3.900858539994e+00 0.0 
3.900858539994e+00 -1.791485776016e+02 0.0 
0.0 0.0 -7.235783695512e+01 
-1.255006550526e+02 1.205934906957e+01 0.0 
1.205934906957e+01 -3.129293629864e+02 0.0 
0.0 0.0 -1.311290054117e+02 
-9.850725289501e+01 1.704148748335e+01 0.0 
1.704148748335e+01 -2.363558298388e+02 0.0 
0.0 0.0 -1.000589248201e+02 
-1.036681951543e+02 4.293477300452e-01 0.0 
4.293477300452e-01 -2.660519529221e+02 0.0 
0.0 0.0 -1.105160444229e+02 
-1.043207523161e+02 1.756165616237e+00 0.0 
1.756165616237e+00 -2.666547246223e+02 0.0 
0.0 0.0 -1.108926430815e+02 
-5.367296112859e+01 4.681627327230e+00 0.0 
4.681627327230e+00 -1.593034503121e+02 0.0 
0.0 0.0 -6.349292343222e+01 
-2.342220302367e+01 -2.480407718807e+00 0.0 
-2.480407718807e+00 -5.452679463752e+01 0.0 
0.0 0.0 -2.298469929836e+01 
-1.637674621151e+01 5.809173879963e+00 0.0 
5.809173879963e+00 -3.010825152642e+01 0.0 
0.0 0.0 -1.354549932138e+01 
-1.078881405999e+02 2.387490879787e-01 0.0 
2.387490879787e-01 -2.746177924404e+02 0.0 
0.0 0.0 -1.143517799121e+02 
-1.261548499154e+02 1.041866348324e+01 0.0 
1.041866348324e+01 -3.158491466804e+02 0.0 
0.0 0.0 -1.322011989787e+02 
-5.403917011953e+01 5.222497654771e-01 0.0 
5.222497654771e-01 -1.515438561044e+02 0.0 
0.0 0.0 -6.127490786718e+01 
-9.984301842314e+01 1.477790892834e+01 0.0 
1.477790892834e+01 -2.226102135604e+02 0.0 
0.0 0.0 -9.633596959507e+01 
-3.578486913379e+01 1.283956099939e+01 0.0 
1.283956099939e+01 -6.092186595899e+01 0.0 
0.0 0.0 -2.861202052784e+01 
-1.007282041064e+02 1.586207127655e+01 0.0 
1.586207127655e+01 -2.174811383261e+02 0.0 
0.0 0.0 -9.506280272974e+01 
-1.479166689310e+02 9.188498297804e+00 0.0 
9.188498297804e+00 -3.577803305542e+02 0.0 
0.0 0.0 -1.513090998456e+02 
-2.012387628075e+01 -3.546798943127e-01 0.0 
-3.546798943127e-01 -6.916472760480e+00 0.0 
0.0 0.0 -7.712104712369e+00 
-1.229977200266e+02 9.330097682652e-01 0.0 
9.330097682652e-01 -2.883280133954e+02 0.0 
0.0 0.0 -1.229977200266e+02 
-1.635372508502e+02 1.182673707328e+00 0.0 
1.182673707328e+00 -3.829202519838e+02 0.0 
0.0 0.0 -1.635372508502e+02 
-6.140252108875e+01 7.805463321813e-01 0.0 
7.805463321813e-01 -1.272903878859e+02 0.0 
0.0 0.0 -5.620787269240e+01 
-6.410072988214e+01 2.371707862661e+00 0.0 
2.371707862661e+00 -1.792970632222e+02 0.0 
0.0 0.0 -7.261933793129e+01 
-9.471014413557e+01 1.722033590239e+01 0.0 
1.722033590239e+01 -2.234614062304e+02 0.0 
0.0 0.0 -9.505146510979e+01 
-5.449267995038e+01 7.470444276680e+00 0.0 
7.470444276680e+00 -1.574420947911e+02 0.0 
0.0 0.0 -6.318043242245e+01 
-2.189941091400e+01 -8.868219220817e-01 0.0 
-8.868219220817e-01 -5.515957580517e+01 0.0 
0.0 0.0 -2.271769601575e+01 
-1.719592323627e+01 9.952861877816e+00 0.0 
9.952861877816e+00 -1.427652095472e+01 0.0 
0.0 0.0 -9.041733257297e+00 
-1.112627668091e+02 3.090931220288e+00 0.0 
3.090931220288e+00 -2.523843698293e+02 0.0 
0.0 0.0 -1.086941409915e+02 
-9.331991877891e+01 9.616290842326e+00 0.0 
9.616290842326e+00 -1.878313801073e+02 0.0 
0.0 0.0 -8.394538966586e+01 
-6.062137420886e+01 3.689615743180e+00 0.0 
3.689615743180e+00 -1.110601212339e+02 0.0 
0.0 0.0 -5.110444863282e+01 
-1.429530045077e+02 2.085984383028e+01 0.0 
2.085984383028e+01 -3.343079773234e+02 0.0 
0.0 0.0 -1.427782945494e+02 
-3.751710016168e+01 5.930585375158e-01 0.0 
5.930585375158e-01 -1.001878314034e+02 0.0 
0.0 0.0 -4.091147946952e+01 
-1.438803080577e+02 2.068595395695e+01 0.0 
2.068595395695e+01 -3.385521774141e+02 0.0 
0.0 0.0 -1.443297456416e+02 
-9.129165464012e+01 7.111821057245e+00 0.0 
7.111821057245e+00 -1.863616561682e+02 0.0 
0.0 0.0 -8.289599324250e+01 
-6.460135969371e+01 1.298095420467e+00 0.0 
1.298095420467e+00 -1.784515540962e+02 0.0 
0.0 0.0 -7.251587413698e+01 
-9.048353006850e+01 1.533816984803e+01 0.0 
1.533816984803e+01 -2.172623940319e+02 0.0 
0.0 0.0 -9.192377723012e+01 
-5.901924007649e+01 6.016221656435e-01 0.0 
6.016221656435e-01 -1.688446490247e+02 0.0 
0.0 0.0 -6.795916673035e+01 
-2.218310800533e+01 1.356761817922e+01 0.0 
1.356761817922e+01 -5.058906992978e+01 0.0 
0.0 0.0 -2.143165338053e+01 
-5.580789208272e+01 -3.349178107479e-01 0.0 
-3.349178107479e-01 -1.589824557467e+02 0.0 
0.0 0.0 -6.403710434882e+01 
-9.927907155620e+01 9.859704542309e+00 0.0 
9.859704542309e+00 -2.084083446437e+02 0.0 
0.0 0.0 -9.190622485997e+01 
-1.360663285596e+02 2.277407072112e+00 0.0 
2.277407072112e+00 -3.322337747199e+02 0.0 
0.0 0.0 -1.400900309839e+02 
-5.833374663462e+01 2.035240865168e+00 0.0 
2.035240865168e+00 -1.693438734295e+02 0.0 
0.0 0.0 -6.790328601924e+01 
-1.036967532023e+02 1.439416385060e+01 0.0 
1.439416385060e+01 -2.294306912774e+02 0.0 
0.0 0.0 -9.953823334392e+01 
-1.613079004563e+01 -5.263987051527e-01 0.0 
-5.263987051527e-01 -8.426147144774e+00 0.0 
0.0 0.0 -7.868336680362e+00 
-5.758709081464e+01 3.970467559429e+00 0.0 
3.970467559429e+00 -1.688479232286e+02 0.0 
0.0 0.0 -6.753050421299e+01 
-1.042570243955e+02 1.018853112922e+01 0.0 
1.018853112922e+01 -2.180352223943e+02 0.0 
0.0 0.0 -9.628767403694e+01 
-5.593207667256e+01 -1.096309974969e+00 0.0 
-1.096309974969e+00 -1.567109035906e+02 0.0 
0.0 0.0 -6.339289407895e+01 
-5.082253715386e+01 -2.211986153155e-01 0.0 
-2.211986153155e-01 -1.414131828640e+02 0.0 
0.0 0.0 -5.727071600535e+01 
-9.012723036486e+01 1.687593436433e+01 0.0 
1.687593436433e+01 -2.174727702705e+02 0.0 
0.0 0.0 -9.188000019061e+01 
-2.800555165112e+01 -1.862816135908e+00 0.0 
-1.862816135908e+00 -7.742077566477e+01 0.0 
0.0 0.0 -3.122789819477e+01 
-2.167261483132e+01 1.212139198893e+01 0.0 
1.212139198893e+01 -1.691400154495e+01 0.0 
0.0 0.0 -1.117598491288e+01 
-2.542461793641e+01 1.150896151488e+01 0.0 
1.150896151488e+01 -2.649956721402e+01 0.0 
0.0 0.0 -1.517725554513e+01 
-4.912799953335e+01 -1.641640954831e+00 0.0 
-1.641640954831e+00 -1.379194929312e+02 0.0 
0.0 0.0 -5.571424773938e+01 
-8.662385002955e+01 6.678721240199e+00 0.0 
6.678721240199e+00 -2.334810648826e+02 0.0 
0.0 0.0 -9.563147447363e+01 
-7.686008951779e+01 1.353692961016e+01 0.0 
1.353692961016e+01 -2.001174935254e+02 0.0 
0.0 0.0 -8.269327491295e+01 
-1.042897496945e+02 1.662899354071e+01 0.0 
1.662899354071e+01 -2.300481313527e+02 0.0 
0.0 0.0 -9.990136431415e+01 
-1.199861803785e+02 1.308278160889e+01 0.0 
1.308278160889e+01 -2.705666313610e+02 0.0 
0.0 0.0 -1.167658435219e+02 
-2.303508273663e+01 3.425421093369e+00 0.0 
3.425421093369e+00 -3.008780612274e+01 0.0 
0.0 0.0 -1.553686665781e+01 
-8.964595805345e+01 1.262523247121e+00 0.0 
1.262523247121e+00 -1.969361695766e+02 0.0 
0.0 0.0 -8.557463828900e+01 
-1.245398680899e+02 1.635622694759e+01 0.0 
1.635622694759e+01 -2.868306793781e+02 0.0 
0.0 0.0 -1.230111642404e+02 
-4.976907631301e+01 5.528230252375e+00 0.0 
5.528230252375e+00 -1.493916617383e+02 0.0 
0.0 0.0 -5.934822141540e+01 
-2.014288960103e+01 1.249949426865e+01 0.0 
1.249949426865e+01 -3.238050047607e+01 0.0 
0.0 0.0 -1.535701702313e+01 
-4.142413062303e+01 1.554334776887e+01 0.0 
1.554334776887e+01 -6.870565530758e+01 0.0 
0.0 0.0 -3.263893577918e+01 
-8.284969508674e+01 5.382918931535e+00 0.0 
5.382918931535e+00 -2.248099174826e+02 0.0 
0.0 0.0 -9.189788377079e+01 
-1.034649606179e+02 1.293941384484e+01 0.0 
1.293941384484e+01 -2.239674535802e+02 0.0 
0.0 0.0 -9.782972425944e+01 
-8.122474167224e+01 4.511163868392e+00 0.0 
4.511163868392e+00 -2.239317356938e+02 0.0 
0.0 0.0 -9.114694320981e+01 
-2.233777136851e+01 5.967091446432e+00 0.0 
5.967091446432e+00 -5.172950885810e+01 0.0 
0.0 0.0 -2.182018406798e+01 
-9.513257264738e+01 7.581534655707e+00 0.0 
7.581534655707e+00 -2.518401390795e+02 0.0 
0.0 0.0 -1.036918135181e+02 
-2.365297451971e+01 1.482762400001e+01 0.0 
1.482762400001e+01 -5.280929130691e+01 0.0 
0.0 0.0 -2.253867974798e+01 
-7.690614761103e+01 1.444981594003e+01 0.0 
1.444981594003e+01 -2.003236718012e+02 0.0 
0.0 0.0 -8.276894582367e+01 
-8.953778151611e+01 5.275726244284e+00 0.0 
5.275726244284e+00 -2.422916462715e+02 0.0 
0.0 0.0 -9.914882833630e+01 
-9.405437312325e+01 1.505875790924e+01 0.0 
1.505875790924e+01 -2.299387358958e+02 0.0 
0.0 0.0 -9.679793270571e+01 
-8.066057628810e+01 1.356738353631e+00 0.0 
1.356738353631e+00 -1.724533608759e+02 0.0 
0.0 0.0 -7.553418114919e+01 
-5.063175644836e+01 -6.718454119274e-01 0.0 
-6.718454119274e-01 -1.387478895846e+02 0.0 
0.0 0.0 -5.641389380990e+01 
-2.017952448700e+01 1.062634049878e+01 0.0 
1.062634049878e+01 -4.477653543028e+01 0.0 
0.0 0.0 -1.908681797519e+01 
-9.830718144386e+01 6.069376591320e+00 0.0 
6.069376591320e+00 -2.609938080883e+02 0.0 
0.0 0.0 -1.073902968596e+02 
-2.520126141218e+01 1.538171066808e+01 0.0 
1.538171066808e+01 -5.411352087849e+01 0.0 
0.0 0.0 -2.339443468720e+01 
-1.684520545993e+01 3.633566865144e-01 0.0 
3.633566865144e-01 -2.521460021092e+01 0.0 
0.0 0.0 -1.221794170125e+01 
-1.110404663736e+02 -3.324812809614e-01 0.0 
-3.324812809614e-01 -2.540099917160e+02 0.0 
0.0 0.0 -1.091151374269e+02 
-1.042638957765e+02 -4.837277183780e-01 0.0 
-4.837277183780e-01 -2.354089051978e+02 0.0 
0.0 0.0 -1.015018402923e+02 
-1.351574086212e+01 -1.327256429386e+00 0.0 
-1.327256429386e+00 -2.469969296973e+01 0.0 
0.0 0.0 -1.144667798313e+01 
-1.040408089013e+02 8.475736701800e+00 0.0 
8.475736701800e+00 -2.704534113665e+02 0.0 
0.0 0.0 -1.119482660804e+02 
-4.016164568001e+01 -1.327704693487e+00 0.0 
-1.327704693487e+00 -1.082063152805e+02 0.0 
0.0 0.0 -4.411038828816e+01 
-4.205667991191e+01 -2.364975293570e+00 0.0 
-2.364975293570e+00 -1.155894885543e+02 0.0 
0.0 0.0 -4.689385053986e+01 
-1.111573438198e+02 1.487692045316e+01 0.0 
1.487692045316e+01 -2.493335614620e+02 0.0 
0.0 0.0 -1.077472715845e+02 
-9.398182305036e+01 1.643023771702e+01 0.0 
1.643023771702e+01 -2.301744052581e+02 0.0 
0.0 0.0 -9.684686849255e+01 
-1.074179642852e+02 1.514364141857e+01 0.0 
1.514364141857e+01 -2.422921944590e+02 0.0 
0.0 0.0 -1.045130476233e+02 
-5.938424536922e+01 4.361785771090e+00 0.0 
4.361785771090e+00 -1.697088908740e+02 0.0 
0.0 0.0 -6.832794087296e+01 
-5.323204629924e+01 -2.410885157896e-02 0.0 
-2.410885157896e-02 -1.060294604118e+02 0.0 
0.0 0.0 -4.737845201331e+01 
-1.513268331419e+02 8.218393341651e+00 0.0 
8.218393341651e+00 -3.602784009508e+02 0.0 
0.0 0.0 -1.530815702278e+02 
-3.544885497021e+01 -2.560950831789e+00 0.0 
-2.560950831789e+00 -9.614855232670e+01 0.0 
0.0 0.0 -3.907922218907e+01 
-1.213841544818e+02 1.355220374163e+01 0.0 
1.355220374163e+01 -3.018485175574e+02 0.0 
0.0 0.0 -1.265698016118e+02 
-8.118971315911e+01 1.550832646076e+01 0.0 
1.550832646076e+01 -2.060126521080e+02 0.0 
0.0 0.0 -8.576070958014e+01 
-2.893498087258e+01 -1.202654512330e+00 0.0 
-1.202654512330e+00 -7.623881067062e+01 0.0 
0.0 0.0 -3.115213746296e+01 
-9.971531238659e+01 1.173701839121e+01 0.0 
1.173701839121e+01 -2.116389789884e+02 0.0 
0.0 0.0 -9.300628741248e+01 
-6.090321180081e+01 5.492486086823e+00 0.0 
5.492486086823e+00 -1.770434050480e+02 0.0 
0.0 0.0 -7.098398505465e+01 
-1.852381475730e+01 -2.040657449195e+00 0.0 
-2.040657449195e+00 -4.201090902149e+01 0.0 
0.0 0.0 -1.776041713364e+01 
-5.069249888875e+01 3.129739653266e+00 0.0 
3.129739653266e+00 -1.511550160567e+02 0.0 
0.0 0.0 -6.015425448363e+01 
-1.132847668590e+02 -6.950915947236e-01 0.0 
-6.950915947236e-01 -2.855886477579e+02 0.0 
0.0 0.0 -1.192620243851e+02 
-1.011529726904e+02 1.240068287446e+01 0.0 
1.240068287446e+01 -2.100444693695e+02 0.0 
0.0 0.0 -9.295923261799e+01 
-2.878886952480e+01 -1.790699129710e+00 0.0 
-1.790699129710e+00 -7.340790565943e+01 0.0 
0.0 0.0 -3.025903255527e+01 
-9.027327481714e+01 5.906291147467e-01 0.0 
5.906291147467e-01 -2.334154573925e+02 0.0 
0.0 0.0 -9.670661966290e+01 
-1.074086367081e+02 1.398458881498e+01 0.0 
1.398458881498e+01 -2.367510253013e+02 0.0 
0.0 0.0 -1.028478986028e+02 
-1.163696295499e+02 1.686738020915e+01 0.0 
1.686738020915e+01 -2.816152099668e+02 0.0 
0.0 0.0 -1.189954518550e+02 
-5.246125291907e+01 -1.059860436738e+00 0.0 
-1.059860436738e+00 -1.485606802898e+02 0.0 
0.0 0.0 -5.990657996267e+01 
-4.464749161229e+01 -9.880340193811e-01 0.0 
-9.880340193811e-01 -1.196795185939e+02 0.0 
0.0 0.0 -4.889810306185e+01 
-8.511469483019e+01 1.366922922916e+01 0.0 
1.366922922916e+01 -2.182437915609e+02 0.0 
0.0 0.0 -9.060754591731e+01 
-7.768308440562e+01 8.772905302810e-01 0.0 
8.772905302810e-01 -1.667093179604e+02 0.0 
0.0 0.0 -7.291772070981e+01 
-1.875892119452e+01 -1.958418686803e+00 0.0 
-1.958418686803e+00 -4.139955518043e+01 0.0 
0.0 0.0 -1.764754291249e+01 
-1.329339875395e+02 1.899638281699e+01 0.0 
1.899638281699e+01 -3.070954125460e+02 0.0 
0.0 0.0 -1.316088200256e+02 
-1.228511147472e+02 1.257030595705e+01 0.0 
1.257030595705e+01 -2.822942204490e+02 0.0 
0.0 0.0 -1.211436005589e+02 
-6.648463899250e+01 8.483282155148e-01 0.0 
8.483282155148e-01 -1.391644532059e+02 0.0 
0.0 0.0 -6.129472765952e+01 
-1.193241880766e+02 7.184710847730e+00 0.0 
7.184710847730e+00 -2.691889415855e+02 0.0 
0.0 0.0 -1.161539388987e+02 
-1.256773436506e+02 1.434235329974e+01 0.0 
1.434235329974e+01 -2.892164318157e+02 0.0 
0.0 0.0 -1.240681326399e+02 
-6.157056828428e+01 3.360928594164e+00 0.0 
3.360928594164e+00 -1.782463346964e+02 0.0 
0.0 0.0 -7.154507089421e+01 
-6.019580883417e+01 2.609941000325e+00 0.0 
2.609941000325e+00 -1.702798055404e+02 0.0 
0.0 0.0 -6.874268431236e+01 
-1.423097829822e+02 1.606023201562e+01 0.0 
1.606023201562e+01 -3.432044748109e+02 0.0 
0.0 0.0 -1.452542773379e+02 
-1.576994758742e+01 4.418339529195e-01 0.0 
4.418339529195e-01 -8.677126134019e+00 0.0 
0.0 0.0 -7.884734299217e+00 
-4.079611574463e+01 -8.225841592786e-01 0.0 
-8.225841592786e-01 -1.091381877251e+02 0.0 
0.0 0.0 -4.458029104093e+01 
-9.161551490735e+01 -7.237218347641e-01 0.0 
-7.237218347641e-01 -2.378361084060e+02 0.0 
0.0 0.0 -9.843548699400e+01 
-5.412587465659e+01 -1.774326832210e-01 0.0 
-1.774326832210e-01 -1.494902786250e+02 0.0 
0.0 0.0 -6.068484598449e+01 
-5.149504128335e+01 1.198187404240e+00 0.0 
1.198187404240e+00 -1.513763111791e+02 0.0 
0.0 0.0 -6.046140573875e+01 
-1.974065345835e+01 1.350356235318e+01 0.0 
1.350356235318e+01 -1.694165118920e+01 0.0 
0.0 0.0 -1.060469139427e+01 
-2.231468672254e+01 1.585415028464e+01 0.0 
1.585415028464e+01 -1.984120395411e+01 0.0 
0.0 0.0 -1.224676720300e+01 
-6.970744922103e+01 1.981487062335e+00 0.0 
1.981487062335e+00 -1.398859069839e+02 0.0 
0.0 0.0 -6.247800686149e+01 
-5.546571870019e+01 4.965023478863e+00 0.0 
4.965023478863e+00 -1.601292018908e+02 0.0 
0.0 0.0 -6.427847617730e+01 
-4.726436946789e+01 -1.266729564441e+00 0.0 
-1.266729564441e+00 -1.273906220147e+02 0.0 
0.0 0.0 -5.199649744476e+01 
-1.105655955772e+02 1.551500968765e+01 0.0 
1.551500968765e+01 -2.673830752932e+02 0.0 
0.0 0.0 -1.129846012611e+02 
-1.597566927155e+02 6.759583239993e+00 0.0 
6.759583239993e+00 -3.787221113945e+02 0.0 
0.0 0.0 -1.611436412330e+02 
-1.583968889882e+02 8.068539747323e+00 0.0 
8.068539747323e+00 -3.765232477311e+02 0.0 
0.0 0.0 -1.600760410158e+02 
-6.227524479877e+01 1.663933465750e+00 0.0 
1.663933465750e+00 -1.783405239242e+02 0.0 
0.0 0.0 -7.178473061688e+01 
-6.352680259437e+01 8.075224820334e-01 0.0 
8.075224820334e-01 -1.235944807917e+02 0.0 
0.0 0.0 -5.573638501583e+01 
-1.994628780077e+01 -8.421186267773e-02 0.0 
-8.421186267773e-02 -2.073001750571e+01 0.0 
0.0 0.0 -1.180289159194e+01 
-2.096435418860e+01 1.433865405191e+01 0.0 
1.433865405191e+01 -1.864354828346e+01 0.0 
0.0 0.0 -1.148237074162e+01 
-2.882714075416e+01 -1.116591340051e+00 0.0 
-1.116591340051e+00 -7.286657908036e+01 0.0 
0.0 0.0 -3.010811595036e+01 
-2.101105982161e+01 1.440492350164e+01 0.0 
1.440492350164e+01 -1.878035786143e+01 0.0 
0.0 0.0 -1.153742530491e+01 
-8.955995927379e+01 1.566941843149e+01 0.0 
1.566941843149e+01 -2.242725458453e+02 0.0 
0.0 0.0 -9.374975153572e+01 
-5.222888428031e+01 -1.577456478723e-01 0.0 
-1.577456478723e-01 -1.506521075684e+02 0.0 
0.0 0.0 -6.046429755461e+01 
-5.639768744218e+01 2.960518886820e+00 0.0 
2.960518886820e+00 -1.612919044523e+02 0.0 
0.0 0.0 -6.490687756833e+01 
-2.198473273079e+01 -9.278543435708e-01 0.0 
-9.278543435708e-01 -4.130791134046e+01 0.0 
0.0 0.0 -1.858779322138e+01 
-1.047846410690e+02 5.311772269416e-01 0.0 
5.311772269416e-01 -2.383866767139e+02 0.0 
0.0 0.0 -1.025513953349e+02 
-5.712006397121e+01 1.493788945809e+00 0.0 
1.493788945809e+00 -1.611617650126e+02 0.0 
0.0 0.0 -6.508454869515e+01 
-1.105753217477e+02 1.538112932367e+00 0.0 
1.538112932367e+00 -2.517478926402e+02 0.0 
0.0 0.0 -1.082969643164e+02 
-9.994110739267e+01 1.498123496685e+00 0.0 
1.498123496685e+00 -2.229263887226e+02 0.0 
0.0 0.0 -9.646024883457e+01 
-1.241455676232e+02 8.450533815829e-01 0.0 
8.450533815829e-01 -2.882552942442e+02 0.0 
0.0 0.0 -1.233202585602e+02 
-1.614969102662e+02 1.341768945150e+00 0.0 
1.341768945150e+00 -3.822007665891e+02 0.0 
0.0 0.0 -1.627093030566e+02 
-6.649177664572e+01 -5.449790679844e-01 0.0 
-5.449790679844e-01 -1.396276507217e+02 0.0 
0.0 0.0 -6.143582821023e+01 
-6.082868675224e+01 1.346211926439e+00 0.0 
1.346211926439e+00 -1.697905409682e+02 0.0 
0.0 0.0 -6.878576831614e+01 
-1.495018192073e+01 5.650938390339e+00 0.0 
5.650938390339e+00 -1.495794724694e+01 0.0 
0.0 0.0 -8.572438750301e+00 
-6.285679061366e+01 4.103003992917e-01 0.0 
4.103003992917e-01 -1.775007548129e+02 0.0 
0.0 0.0 -7.170726362798e+01 
-1.628235505448e+02 5.369749726739e+00 0.0 
5.369749726739e+00 -3.812549512713e+02 0.0 
0.0 0.0 -1.628235505448e+02 
-1.964305329785e+01 1.296143906664e+01 0.0 
1.296143906664e+01 -1.735328850489e+01 0.0 
0.0 0.0 -1.069890254082e+01 
-2.020234044340e+01 1.364038723618e+01 0.0 
1.364038723618e+01 -1.799446871631e+01 0.0 
0.0 0.0 -1.105904274791e+01 
-1.255694760852e+02 1.475013468333e+01 0.0 
1.475013468333e+01 -3.090630926777e+02 0.0 
0.0 0.0 -1.299897706289e+02 
-6.224731254963e+01 7.008870406903e-01 0.0 
7.008870406903e-01 -1.239667462388e+02 0.0 
0.0 0.0 -5.546421763654e+01 
-1.110482096820e+02 6.866913058976e-01 0.0 
6.866913058976e-01 -2.537188643384e+02 0.0 
0.0 0.0 -1.090301222061e+02 
-1.082373343250e+02 1.625233116062e+01 0.0 
1.625233116062e+01 -2.373092704716e+02 0.0 
0.0 0.0 -1.032639814390e+02 
-1.239589946205e+02 1.600071457541e+01 0.0 
1.600071457541e+01 -2.994096815652e+02 0.0 
0.0 0.0 -1.266106028557e+02 
-1.122996751946e+02 1.462885440165e+01 0.0 
1.462885440165e+01 -2.422252613764e+02 0.0 
0.0 0.0 -1.059574809713e+02 
-6.845819612078e+01 -3.280955702395e-01 0.0 
-3.280955702395e-01 -1.431281592945e+02 0.0 
0.0 0.0 -6.307590662459e+01 
-4.749036294113e+01 -8.042843941999e-01 0.0 
-8.042843941999e-01 -1.308626642559e+02 0.0 
0.0 0.0 -5.310590815910e+01 
-4.595269604684e+01 -1.661723393665e+00 0.0 
-1.661723393665e+00 -1.300482077230e+02 0.0 
0.0 0.0 -5.240027113095e+01 
-8.559872470871e+01 -3.816284540986e-01 0.0 
-3.816284540986e-01 -1.863705171344e+02 0.0 
0.0 0.0 -8.119077255293e+01 
-1.204421278200e+02 1.773828662394e+01 0.0 
1.773828662394e+01 -2.874200202455e+02 0.0 
0.0 0.0 -1.219586444196e+02 
-5.822144096787e+01 1.405342782578e+00 0.0 
1.405342782578e+00 -1.079918257604e+02 0.0 
0.0 0.0 -4.946398001850e+01 
-5.974524033826e+01 3.105027748922e-02 0.0 
3.105027748922e-02 -1.226899210183e+02 0.0 
0.0 0.0 -5.433054840698e+01 
-6.657298969458e+01 4.650475130386e-01 0.0 
4.650475130386e-01 -1.386152489633e+02 0.0 
0.0 0.0 -6.115647159735e+01 
-6.904210172498e+01 1.414374737718e+00 0.0 
1.414374737718e+00 -1.442619717079e+02 0.0 
0.0 0.0 -6.359122202986e+01 
-2.363795319788e+01 -5.426393591548e-01 0.0 
-5.426393591548e-01 -6.105306841020e+01 0.0 
0.0 0.0 -2.500730648242e+01 
-4.265354230212e+01 -2.080246200319e+00 0.0 
-2.080246200319e+00 -1.191341853968e+02 0.0 
0.0 0.0 -4.813631830967e+01 
-1.189819368440e+02 3.129371688417e+00 0.0 
3.129371688417e+00 -2.729481084171e+02 0.0 
0.0 0.0 -1.171790135783e+02 
-7.724082062729e+01 1.601980208594e+00 0.0 
1.601980208594e+00 -1.635665669410e+02 0.0 
0.0 0.0 -7.184221627050e+01 
-1.430997333646e+02 1.694035706535e+01 0.0 
1.694035706535e+01 -3.410935242981e+02 0.0 
0.0 0.0 -1.448579772988e+02 
-1.231748086107e+02 1.525350642849e+01 0.0 
1.525350642849e+01 -2.733300430046e+02 0.0 
0.0 0.0 -1.185514554846e+02 
-1.009914087460e+02 1.420613951470e+01 0.0 
1.420613951470e+01 -2.128349711824e+02 0.0 
0.0 0.0 -9.374791397851e+01 
-1.149200004986e+02 7.051450768624e+00 0.0 
7.051450768624e+00 -2.565259460105e+02 0.0 
0.0 0.0 -1.110337839527e+02 
-6.650035310647e+01 -8.747729742578e-01 0.0 
-8.747729742578e-01 -1.775668692392e+02 0.0 
0.0 0.0 -7.282016670371e+01 
-6.023842456871e+01 -1.063923223922e+00 0.0 
-1.063923223922e+00 -1.621318427363e+02 0.0 
0.0 0.0 -6.631108019149e+01 
-1.420522810938e+02 7.166858084749e+00 0.0 
7.166858084749e+00 -3.451677755235e+02 0.0 
0.0 0.0 -1.457660169852e+02 
-1.597134640427e+01 -1.270981990619e+00 0.0 
-1.270981990619e+00 -2.423817267546e+01 0.0 
0.0 0.0 -1.211554039495e+01 
-4.368023847284e+01 -2.618370750539e-01 0.0 
-2.618370750539e-01 -1.153835760231e+02 0.0 
0.0 0.0 -4.731914434879e+01 
-1.436983168341e+02 1.980545931292e+01 0.0 
1.980545931292e+01 -3.366294059463e+02 0.0 
0.0 0.0 -1.436983168341e+02 
-2.164000402626e+01 5.349443076184e-01 0.0 
5.349443076184e-01 -5.769616380882e+01 0.0 
0.0 0.0 -2.340085035052e+01 
-5.974638868556e+01 1.008747513293e-02 0.0 
1.008747513293e-02 -1.227351413722e+02 0.0 
0.0 0.0 -5.434445901732e+01 
-1.358915789042e+02 1.382026030136e+01 0.0 
1.382026030136e+01 -3.330085403118e+02 0.0 
0.0 0.0 -1.402700357648e+02 
-1.786910460486e+01 -1.935323228653e+00 0.0 
-1.935323228653e+00 -3.921639993736e+01 0.0 
0.0 0.0 -1.672565136267e+01 
-1.112692415758e+01 -5.900712209391e-01 0.0 
-5.900712209391e-01 -2.403313281508e+01 0.0 
0.0 0.0 -1.014801709180e+01 
-1.260290925073e+02 5.924408500483e+00 0.0 
5.924408500483e+00 -2.908769575761e+02 0.0 
0.0 0.0 -1.246718150250e+02 
-5.405052544417e+01 -2.266603705138e-01 0.0 
-2.266603705138e-01 -1.060075553320e+02 0.0 
0.0 0.0 -4.761742423286e+01 
-1.180508172274e+02 3.772585875839e+00 0.0 
3.772585875839e+00 -2.693909479701e+02 0.0 
0.0 0.0 -1.158325295592e+02 
-1.364981777737e+02 1.404849924644e+01 0.0 
1.404849924644e+01 -3.303466981624e+02 0.0 
0.0 0.0 -1.396534627808e+02 
-5.374962382037e+01 3.308997323567e-01 0.0 
3.308997323567e-01 -1.057187727468e+02 0.0 
0.0 0.0 -4.744051897016e+01 
-2.034869785548e+01 5.906483525947e-01 0.0 
5.906483525947e-01 -2.181017931744e+01 0.0 
0.0 0.0 -1.224766315188e+01 
-1.169871583988e+02 1.260231262783e+00 0.0 
1.260231262783e+00 -2.711459399053e+02 0.0 
0.0 0.0 -1.160399294912e+02 
-2.416857508982e+01 -4.994496007495e-01 0.0 
-4.994496007495e-01 -6.347161829089e+01 0.0 
0.0 0.0 -2.589205801421e+01 
-1.128616906402e+02 3.401323037768e+00 0.0 
3.401323037768e+00 -2.576658151800e+02 0.0 
0.0 0.0 -1.107582517461e+02 
-1.630892510831e+02 4.133817066857e+00 0.0 
4.133817066857e+00 -3.818749191938e+02 0.0 
0.0 0.0 -1.630892510831e+02 
-1.199631985950e+02 1.278373022060e+01 0.0 
1.278373022060e+01 -2.675029593623e+02 0.0 
0.0 0.0 -1.158398473872e+02 
-2.739854255344e+01 -2.647555210858e-01 0.0 
-2.647555210858e-01 -7.887857594184e+01 0.0 
0.0 0.0 -3.148313554858e+01 
-7.191467313856e+01 2.465279718552e+00 0.0 
2.465279718552e+00 -1.418655405868e+02 0.0 
0.0 0.0 -6.373406411762e+01 
-6.777245229393e+01 2.395232228856e-01 0.0 
2.395232228856e-01 -1.804398490421e+02 0.0 
0.0 0.0 -7.406369040082e+01 
-1.113540725256e+02 1.692070098620e+01 0.0 
1.692070098620e+01 -2.678704032203e+02 0.0 
0.0 0.0 -1.133673427238e+02 
-1.487232004786e+02 1.954258018491e+01 0.0 
1.954258018491e+01 -3.509642436921e+02 0.0 
0.0 0.0 -1.495062332512e+02 
-9.369136095967e+01 5.984448103696e-03 0.0 
5.984448103696e-03 -2.076444227754e+02 0.0 
0.0 0.0 -9.000073512051e+01 
-1.492184716893e+02 1.781102341067e+01 0.0 
1.781102341067e+01 -3.546305661985e+02 0.0 
0.0 0.0 -1.507547113663e+02 
-1.917710540246e+01 -1.117162455873e+00 0.0 
-1.117162455873e+00 -4.017508181199e+01 0.0 
0.0 0.0 -1.740565616434e+01 
-1.533959429188e+02 5.770056672282e+00 0.0 
5.770056672282e+00 -3.660804802614e+02 0.0 
0.0 0.0 -1.554429269541e+02 
-3.122763155002e+01 -2.848903475034e-01 0.0 
-2.848903475034e-01 -8.911017848070e+01 0.0 
0.0 0.0 -3.570134300922e+01 
-2.157223886095e+01 -9.760111411509e-01 0.0 
-9.760111411509e-01 -5.765233027999e+01 0.0 
0.0 0.0 -2.336737074228e+01 
-1.462528017455e+02 1.330351694862e+01 0.0 
1.330351694862e+01 -3.525834834790e+02 0.0 
0.0 0.0 -1.492508855673e+02 
-1.235445969356e+02 9.408156754811e+00 0.0 
9.408156754811e+00 -2.787296819380e+02 0.0 
0.0 0.0 -1.202822836621e+02 
-1.209873909337e+02 6.317983932815e+00 0.0 
6.317983932815e+00 -2.776209639935e+02 0.0 
0.0 0.0 -1.191825064782e+02 
-5.965383324942e+01 -5.457945184367e-01 0.0 
-5.457945184367e-01 -1.214301697196e+02 0.0 
0.0 0.0 -5.392520089071e+01 
-7.448990528822e+01 3.215919542438e+00 0.0 
3.215919542438e+00 -1.453303916155e+02 0.0 
0.0 0.0 -6.554608907111e+01 
-2.351782710918e+01 1.327361994200e+01 0.0 
1.327361994200e+01 -5.118076075929e+01 0.0 
0.0 0.0 -2.200957636054e+01 
-1.295289499692e+02 1.618047800100e+01 0.0 
1.618047800100e+01 -2.928082048655e+02 0.0 
0.0 0.0 -1.263011464504e+02 
-5.659772741618e+01 -9.860583822502e-01 0.0 
-9.860583822502e-01 -1.508349496020e+02 0.0 
0.0 0.0 -6.182980310547e+01 
-1.908371513108e+01 6.689073301179e+00 0.0 
6.689073301179e+00 -4.111035100638e+01 0.0 
0.0 0.0 -1.765821984124e+01 
-1.155582971418e+02 1.558331241957e+01 0.0 
1.558331241957e+01 -2.810277293700e+02 0.0 
0.0 0.0 -1.185758079535e+02 
-5.283982072353e+01 1.164067294841e-01 0.0 
1.164067294841e-01 -1.053403896726e+02 0.0 
0.0 0.0 -4.705406311885e+01 
-1.171761757308e+02 8.078042535609e+00 0.0 
8.078042535609e+00 -2.645176089506e+02 0.0 
0.0 0.0 -1.141081354044e+02 
-1.234381945129e+02 8.099962982937e-01 0.0 
8.099962982937e-01 -2.866095090389e+02 0.0 
0.0 0.0 -1.226143110655e+02 
-1.232113929275e+02 4.119417236728e-01 0.0 
4.119417236728e-01 -2.888265834974e+02 0.0 
0.0 0.0 -1.232113929275e+02 
-2.746482704230e+00 3.217429526156e-01 0.0 
3.217429526156e-01 -6.649578016592e+00 0.0 
0.0 0.0 -2.418818216247e+00 
-4.904946544569e+00 -2.735086705875e-01 0.0 
-2.735086705875e-01 -1.042445369045e+01 0.0 
0.0 0.0 -4.835326620667e+00 
-5.334032966349e+01 6.616402651232e-01 0.0 
6.616402651232e-01 -1.078114220965e+02 0.0 
0.0 0.0 -4.794552552799e+01 
-5.199553301543e+01 -1.083002185935e-01 0.0 
-1.083002185935e-01 -1.053065163259e+02 0.0 
0.0 0.0 -4.679061480241e+01 
-1.637646290133e+02 5.223591614744e-01 0.0 
5.223591614744e-01 -3.834508010311e+02 0.0 
0.0 0.0 -1.637646290133e+02 
-1.609923075899e+02 -6.293762388517e-01 0.0 
-6.293762388517e-01 -3.804644454529e+02 0.0 
0.0 0.0 -1.620370259128e+02 
-9.346109921681e+00 -7.270743653621e-01 0.0 
-7.270743653621e-01 -2.303701905654e+01 0.0 
0.0 0.0 -9.314938693467e+00 
-1.543136645391e+01 -4.322911670459e-01 0.0 
-4.322911670459e-01 -8.258187316745e+00 0.0 
0.0 0.0 -7.607292478401e+00 
-1.458758034903e+02 2.431118455943e+00 0.0 
2.431118455943e+00 -3.510893330329e+02 0.0 
0.0 0.0 -1.486895409569e+02 
-1.271720851394e+02 1.726608555501e+01 0.0 
1.726608555501e+01 -2.996784430131e+02 0.0 
0.0 0.0 -1.276551584457e+02 
-2.883024527953e+01 -6.500376449237e-01 0.0 
-6.500376449237e-01 -7.429221135682e+01 0.0 
0.0 0.0 -3.053673699090e+01 
-1.467830610256e+02 6.080873316830e+00 0.0 
6.080873316830e+00 -3.527898197893e+02 0.0 
0.0 0.0 -1.494718642445e+02 
-9.888541980042e+01 3.376483076228e-01 0.0 
3.376483076228e-01 -2.535511443030e+02 0.0 
0.0 0.0 -1.053309692310e+02 
-8.370308713013e+01 7.871295603585e-01 0.0 
7.871295603585e-01 -2.192032802253e+02 0.0 
0.0 0.0 -9.047191020662e+01 
-8.064827839418e+01 2.068509478123e-01 0.0 
2.068509478123e-01 -1.734701307580e+02 0.0 
0.0 0.0 -7.583552274565e+01 
-2.705459241565e+01 -2.064236343099e+00 0.0 
-2.064236343099e+00 -6.895321309805e+01 0.0 
0.0 0.0 -2.840234165411e+01 
-1.026537787370e+02 1.667576692279e+01 0.0 
1.667576692279e+01 -2.490210676585e+02 0.0 
0.0 0.0 -1.051024539186e+02 
-2.368758984575e+01 -1.223570065198e+00 0.0 
-1.223570065198e+00 -5.964588308293e+01 0.0 
0.0 0.0 -2.460004187860e+01 
-7.576069076893e+01 6.589612669295e-01 0.0 
6.589612669295e-01 -1.995026986584e+02 0.0 
0.0 0.0 -8.217901682821e+01 
-1.227832929154e+02 1.429652025562e+01 0.0 
1.429652025562e+01 -2.785350768273e+02 0.0 
0.0 0.0 -1.199955109228e+02 
-1.085350107372e+02 9.122424847620e-01 0.0 
9.122424847620e-01 -2.465386100217e+02 0.0 
0.0 0.0 -1.061220862277e+02 
-8.379446297900e+01 -3.767289960842e-01 0.0 
-3.767289960842e-01 -2.183162049215e+02 0.0 
0.0 0.0 -9.023320037016e+01 
-7.225581486516e+01 9.656519709612e-01 0.0 
9.656519709612e-01 -1.529833710307e+02 0.0 
0.0 0.0 -6.717175576875e+01 
-1.271572556821e+02 1.811288554399e+01 0.0 
1.811288554399e+01 -2.939752154392e+02 0.0 
0.0 0.0 -1.259397413364e+02 
-1.157923465526e+02 1.563881341755e+01 0.0 
1.563881341755e+01 -2.533228888506e+02 0.0 
0.0 0.0 -1.103345706210e+02 
-1.084223509843e+02 1.492254772262e+01 0.0 
1.492254772262e+01 -2.330405923501e+02 0.0 
0.0 0.0 -1.020388830003e+02 
-5.334254721362e+01 4.256250730331e-02 0.0 
4.256250730331e-02 -1.059491977733e+02 0.0 
0.0 0.0 -4.738752349607e+01 
-9.827262818485e+01 1.602786214824e+01 0.0 
1.602786214824e+01 -2.430409105159e+02 0.0 
0.0 0.0 -1.019940616102e+02 
-1.172682931657e+02 9.789870887269e+00 0.0 
9.789870887269e+00 -2.643205014768e+02 0.0 
0.0 0.0 -1.140766383927e+02 
-4.257106917627e+01 -9.048623838023e-01 0.0 
-9.048623838023e-01 -1.147581429053e+02 0.0 
0.0 0.0 -4.679876362446e+01 
-1.492645984654e+01 -1.171587521822e+00 0.0 
-1.171587521822e+00 -2.514133713001e+01 0.0 
0.0 0.0 -1.162033909296e+01 
-1.223044304035e+02 1.779573523949e+01 0.0 
1.779573523949e+01 -2.796726596657e+02 0.0 
0.0 0.0 -1.201931270207e+02 
-1.203234971884e+02 1.239037896656e+01 0.0 
1.239037896656e+01 -3.012840751639e+02 0.0 
0.0 0.0 -1.260822717057e+02 
-2.305817392011e+01 -1.899378809988e+00 0.0 
-1.899378809988e+00 -5.744240032372e+01 0.0 
0.0 0.0 -2.375017227315e+01 
-8.626591222082e+01 1.063878626684e+00 0.0 
1.063878626684e+00 -1.876374747655e+02 0.0 
0.0 0.0 -8.177101609590e+01 
-1.540363614073e+02 3.208401159295e+00 0.0 
3.208401159295e+00 -3.656092975782e+02 0.0 
0.0 0.0 -1.554936976956e+02 
-1.220935609590e+02 1.681084286573e+01 0.0 
1.681084286573e+01 -2.855032901111e+02 0.0 
0.0 0.0 -1.218790553210e+02 
-1.280022454068e+02 1.877413506420e+01 0.0 
1.877413506420e+01 -2.975765512259e+02 0.0 
0.0 0.0 -1.272736389898e+02 
-1.079042983173e+02 1.058435170330e+00 0.0 
1.058435170330e+00 -2.736158159041e+02 0.0 
0.0 0.0 -1.140560342664e+02 
-1.530269852784e+01 3.948341990993e+00 0.0 
3.948341990993e+00 -2.134691350148e+01 0.0 
0.0 0.0 -1.087167465802e+01 
-1.760734861757e+01 1.258444396766e+01 0.0 
1.258444396766e+01 -1.614782333374e+01 0.0 
0.0 0.0 -9.726551585393e+00 
-2.687925188207e+01 1.631288697510e+01 0.0 
1.631288697510e+01 -5.478018002292e+01 0.0 
0.0 0.0 -2.409782957150e+01 
-7.255024436909e+01 2.576101953878e+00 0.0 
2.576101953878e+00 -1.417731518553e+02 0.0 
0.0 0.0 -6.389701886731e+01 
-9.794699522695e+01 1.458428825562e+01 0.0 
1.458428825562e+01 -2.426534799627e+02 0.0 
0.0 0.0 -1.017801425569e+02 
-1.139907947468e+02 3.651145271888e+00 0.0 
3.651145271888e+00 -2.599324541356e+02 0.0 
0.0 0.0 -1.117769746647e+02 
-1.435605145618e+02 1.518049041699e+01 0.0 
1.518049041699e+01 -3.424344753933e+02 0.0 
0.0 0.0 -1.453984969865e+02 
-2.147180791377e+01 -1.884879211648e+00 0.0 
-1.884879211648e+00 -4.164937634700e+01 0.0 
0.0 0.0 -1.853635527823e+01 
-1.979949663888e+01 -2.255165144853e+00 0.0 
-2.255165144853e+00 -4.046024957915e+01 0.0 
0.0 0.0 -1.767792386541e+01 
-1.971218898517e+01 1.379895295698e+01 0.0 
1.379895295698e+01 -1.817600393349e+01 0.0 
0.0 0.0 -1.096645787560e+01 
-8.841727162134e+01 -2.972698420746e-01 0.0 
-2.972698420746e-01 -1.932244568033e+02 0.0 
0.0 0.0 -8.409251852740e+01 
-5.261642747294e+01 -2.191363205604e-02 0.0 
-2.191363205604e-02 -1.406052230702e+02 0.0 
0.0 0.0 -5.756649516295e+01 
-1.178055237951e+02 7.995595021611e+00 0.0 
7.995595021611e+00 -2.648316190774e+02 0.0 
0.0 0.0 -1.143911428618e+02 
-2.741260936392e+01 -7.376529672919e-02 0.0 
-7.376529672919e-02 -7.119688094289e+01 0.0 
0.0 0.0 -2.918284709204e+01 
-1.340200881163e+02 1.439358090119e+01 0.0 
1.439358090119e+01 -3.253521908616e+02 0.0 
0.0 0.0 -1.374116836934e+02 
-6.848667857740e+01 3.795159007586e-01 0.0 
3.795159007586e-01 -1.388680484044e+02 0.0 
0.0 0.0 -6.180641809455e+01 
-1.390658806486e+02 1.824271897138e+01 0.0 
1.824271897138e+01 -3.272842536108e+02 0.0 
0.0 0.0 -1.395050402778e+02 
-1.158731923520e+02 1.785862877968e+01 0.0 
1.785862877968e+01 -2.748209847406e+02 0.0 
0.0 0.0 -1.168082531278e+02 
-7.375819038075e+01 3.723405293051e+00 0.0 
3.723405293051e+00 -1.424060958429e+02 0.0 
0.0 0.0 -6.444928586708e+01 
-1.479016780805e+02 1.103752237537e+01 0.0 
1.103752237537e+01 -3.567912891094e+02 0.0 
0.0 0.0 -1.510078901570e+02 
-1.223466680932e+02 8.022573167954e+00 0.0 
8.022573167954e+00 -2.779350117861e+02 0.0 
0.0 0.0 -1.196845039638e+02 
-1.187502841077e+02 4.440970392888e-01 0.0 
4.440970392888e-01 -2.727444480909e+02 0.0 
0.0 0.0 -1.170484196596e+02 
-2.103977121609e+01 1.408762451265e+01 0.0 
1.408762451265e+01 -1.786813861913e+01 0.0 
0.0 0.0 -1.127237295057e+01 
-1.134883713469e+02 5.517055448950e+00 0.0 
5.517055448950e+00 -2.557479435886e+02 0.0 
0.0 0.0 -1.103708944806e+02 
-1.310164964242e+02 1.765709913338e+01 0.0 
1.765709913338e+01 -3.042057446579e+02 0.0 
0.0 0.0 -1.301666723246e+02 
-1.338477051625e+02 1.554626008798e+01 0.0 
1.554626008798e+01 -3.259724474599e+02 0.0 
0.0 0.0 -1.375460457867e+02 
-1.190445749785e+02 1.588873048344e+01 0.0 
1.588873048344e+01 -2.862227671626e+02 0.0 
0.0 0.0 -1.211802026423e+02 
-1.619572689034e+02 6.888465834436e+00 0.0 
6.888465834436e+00 -3.792336274414e+02 0.0 
0.0 0.0 -1.619572689034e+02 
-1.068077375674e+02 1.245242731918e+01 0.0 
1.245242731918e+01 -2.318712332067e+02 0.0 
0.0 0.0 -1.012036912322e+02 
-1.500292594161e+01 3.628388643010e+00 0.0 
3.628388643010e+00 -9.368427918433e+00 0.0 
0.0 0.0 -7.863149058538e+00 
-2.108565374366e+01 9.364893070160e+00 0.0 
9.364893070160e+00 -4.522900260345e+01 0.0 
0.0 0.0 -1.949439690413e+01 
-1.188602719239e+02 1.526484059665e+01 0.0 
1.526484059665e+01 -2.621990167724e+02 0.0 
0.0 0.0 -1.139177866089e+02 
-7.779302490508e+01 2.392173894186e+00 0.0 
2.392173894186e+00 -1.564719489675e+02 0.0 
0.0 0.0 -6.987949216176e+01 
-1.458273840398e+02 2.429632867518e+00 0.0 
2.429632867518e+00 -3.508570878120e+02 0.0 
0.0 0.0 -1.486053415555e+02 
-1.246880512207e+02 1.836172160476e+01 0.0 
1.836172160476e+01 -2.941190371776e+02 0.0 
0.0 0.0 -1.252421265195e+02 
-1.542517445776e+02 6.171144089378e+00 0.0 
6.171144089378e+00 -3.658073775333e+02 0.0 
0.0 0.0 -1.556177366332e+02 
-9.672430169863e+01 1.321995037117e-01 0.0 
1.321995037117e-01 -2.141446096619e+02 0.0 
0.0 0.0 -9.286067340815e+01 
-1.405473957295e+02 1.790884423522e+01 0.0 
1.790884423522e+01 -3.315799997488e+02 0.0 
0.0 0.0 -1.412382186435e+02 
-1.431028612018e+02 1.001786125232e+01 0.0 
1.001786125232e+01 -3.459681466758e+02 0.0 
0.0 0.0 -1.463213023633e+02 
-1.420893918774e+02 8.907335965279e+00 0.0 
8.907335965279e+00 -3.453913331159e+02 0.0 
0.0 0.0 -1.458442174980e+02 
-5.482432546489e+01 -9.181418636305e-02 0.0 
-9.181418636305e-02 -1.460588362758e+02 0.0 
0.0 0.0 -5.986494852220e+01 
-1.604110918654e+02 5.894291383775e+00 0.0 
5.894291383775e+00 -3.799174722309e+02 0.0 
0.0 0.0 -1.616985692289e+02 
-6.293016962743e+01 1.102565103162e+00 0.0 
1.102565103162e+00 -1.228962104315e+02 0.0 
0.0 0.0 -5.534791401768e+01 
-1.119622941144e+02 2.348461895555e+00 0.0 
2.348461895555e+00 -2.544004300578e+02 0.0 
0.0 0.0 -1.095088172517e+02 
-1.815336113355e+01 -1.888556078495e+00 0.0 
-1.888556078495e+00 -4.110523185104e+01 0.0 
0.0 0.0 -1.737757789538e+01 
-1.066000633377e+02 1.239646519979e+00 0.0 
1.239646519979e+00 -2.395036161590e+02 0.0 
0.0 0.0 -1.034311038490e+02 
-8.731769747857e+01 7.640842589043e-01 0.0 
7.640842589043e-01 -1.894941835865e+02 0.0 
0.0 0.0 -8.264356431953e+01 
-1.624132053862e+01 1.258799453462e-01 0.0 
1.258799453462e-01 -4.209966232092e+01 0.0 
0.0 0.0 -1.710229485786e+01 
-2.665788383986e+01 3.700725522512e-01 0.0 
3.700725522512e-01 -7.064532162322e+01 0.0 
0.0 0.0 -2.879096163893e+01 
-1.106350589642e+02 1.352173713195e+01 0.0 
1.352173713195e+01 -2.440720812254e+02 0.0 
0.0 0.0 -1.060121420569e+02 
-1.180390603208e+02 4.330472581159e+00 0.0 
4.330472581159e+00 -2.726127195803e+02 0.0 
0.0 0.0 -1.167955339704e+02 
-1.124895006908e+02 1.473099249331e+00 0.0 
1.473099249331e+00 -2.570341524412e+02 0.0 
0.0 0.0 -1.104570959396e+02 
-1.378991700784e+02 1.707696478859e+01 0.0 
1.707696478859e+01 -3.302119234246e+02 0.0 
0.0 0.0 -1.400333280509e+02 
-7.231323542510e+01 -3.473140109975e-01 0.0 
-3.473140109975e-01 -1.523969623577e+02 0.0 
0.0 0.0 -6.701305933483e+01 
-1.303894911715e+01 -1.287583517609e+00 0.0 
-1.287583517609e+00 -2.463622454327e+01 0.0 
0.0 0.0 -1.090255209813e+01 
-1.973930383210e+01 2.229108972535e+00 0.0 
2.229108972535e+00 -3.486636638797e+01 0.0 
0.0 0.0 -1.598170106602e+01 
-1.289532815250e+01 -1.861460399556e+00 0.0 
-1.861460399556e+00 -2.816598568811e+01 0.0 
0.0 0.0 -1.190980900931e+01 
-2.338100705558e+01 -1.719283079935e+00 0.0 
-1.719283079935e+00 -5.452655974582e+01 0.0 
0.0 0.0 -2.297227004042e+01 
-1.451576805030e+01 7.160887155254e+00 0.0 
7.160887155254e+00 -6.922136878029e+00 0.0 
0.0 0.0 -6.226993277820e+00 
-7.388966898146e+01 -5.566927478882e-01 0.0 
-5.566927478882e-01 -1.945692904734e+02 0.0 
0.0 0.0 -8.013768783645e+01 
-1.455389022641e+02 1.013210874694e+00 0.0 
1.013210874694e+00 -3.506904597639e+02 0.0 
0.0 0.0 -1.484688086084e+02 
-1.193162515396e+02 1.135767864670e+01 0.0 
1.135767864670e+01 -2.675178124725e+02 0.0 
0.0 0.0 -1.156502192036e+02 
-8.086446086271e+01 5.512784884471e+00 0.0 
5.512784884471e+00 -1.577067065686e+02 0.0 
0.0 0.0 -7.117135022938e+01 
-6.386480716410e+01 5.773369164809e-01 0.0 
5.773369164809e-01 -1.705184122271e+02 0.0 
0.0 0.0 -6.991496581737e+01 
-1.426736836046e+02 8.325278472863e+00 0.0 
8.325278472863e+00 -3.459922712315e+02 0.0 
0.0 0.0 -1.461997864508e+02 
-1.355542924983e+02 1.137317106807e+01 0.0 
1.137317106807e+01 -3.335688201087e+02 0.0 
0.0 0.0 -1.403369337821e+02 
-1.375154147370e+02 1.899323724380e+01 0.0 
1.899323724380e+01 -3.258710324481e+02 0.0 
0.0 0.0 -1.386159341556e+02 
-1.267156630895e+02 1.746341687311e+01 0.0 
1.746341687311e+01 -2.924340483893e+02 0.0 
0.0 0.0 -1.253449134436e+02 
-1.174954597614e+02 1.437310965807e+01 0.0 
1.437310965807e+01 -2.635958769056e+02 0.0 
0.0 0.0 -1.139274010001e+02 
-1.763087178995e+01 -2.122334383597e+00 0.0 
-2.122334383597e+00 -4.052285290899e+01 0.0 
0.0 0.0 -1.704611740968e+01 
-2.174906160464e+01 -4.408229620028e-01 0.0 
-4.408229620028e-01 -3.547986215122e+01 0.0 
0.0 0.0 -1.676867712676e+01 
-1.457749994681e+02 3.478884363800e+00 0.0 
3.478884363800e+00 -3.515371789464e+02 0.0 
0.0 0.0 -1.487936535243e+02 
-1.512628929632e+01 -3.843321238477e-01 0.0 
-3.843321238477e-01 -4.126431321810e+01 0.0 
0.0 0.0 -1.651718075433e+01 
-1.848556231780e+01 -1.103210761815e+00 0.0 
-1.103210761815e+00 -4.919978407779e+01 0.0 
0.0 0.0 -1.990560391868e+01 
-1.785919733070e+01 9.036057747243e+00 0.0 
9.036057747243e+00 -2.521651028474e+01 0.0 
0.0 0.0 -1.252271228463e+01 
-1.664248381827e+01 -9.930618197137e-01 0.0 
-9.930618197137e-01 -3.864947339727e+01 0.0 
0.0 0.0 -1.618758716466e+01 
-1.509309782876e+02 9.954541707401e+00 0.0 
9.954541707401e+00 -3.592785820692e+02 0.0 
0.0 0.0 -1.526628681070e+02 
-1.289908655510e+02 1.688374618279e+01 0.0 
1.688374618279e+01 -2.972339250695e+02 0.0 
0.0 0.0 -1.274674371861e+02 
-1.133269262442e+02 2.094739025357e+00 0.0 
2.094739025357e+00 -2.597765631845e+02 0.0 
0.0 0.0 -1.115310468286e+02 
-1.379357041185e+02 1.859023513215e+01 0.0 
1.859023513215e+01 -3.247417526216e+02 0.0 
0.0 0.0 -1.384032370221e+02 
-1.311486059703e+02 1.264264682299e+01 0.0 
1.264264682299e+01 -3.225860277673e+02 0.0 
0.0 0.0 -1.357203901213e+02 
-7.699093625867e+01 -3.783720638506e-01 0.0 
-3.783720638506e-01 -1.637216528564e+02 0.0 
0.0 0.0 -7.181377673453e+01 
-1.242807897992e+02 5.876507259986e+00 0.0 
5.876507259986e+00 -2.913218428647e+02 0.0 
0.0 0.0 -1.242807897992e+02 
-3.302324065233e+01 -9.031078251750e-01 0.0 
-9.031078251750e-01 -8.990949752081e+01 0.0 
0.0 0.0 -3.647982145194e+01 
-5.360391823495e+01 1.094448335501e-01 0.0 
1.094448335501e-01 -1.051365197491e+02 0.0 
0.0 0.0 -4.722213139520e+01 
-2.491187818860e+01 -2.362558463694e+00 0.0 
-2.362558463694e+00 -5.569422916293e+01 0.0 
0.0 0.0 -2.378183220546e+01 
-1.052844237021e+01 -9.595132577217e-01 0.0 
-9.595132577217e-01 -2.435405490099e+01 0.0 
0.0 0.0 -1.061160906184e+01 
-1.608844586585e+02 3.825768129262e+00 0.0 
3.825768129262e+00 -3.808719377691e+02 0.0 
0.0 0.0 -1.621269189283e+02 
-6.657012672617e+01 2.828843138143e+00 0.0 
2.828843138143e+00 -1.268995545797e+02 0.0 
0.0 0.0 -5.764090439176e+01 
-2.257934680421e+01 -8.647601857311e-01 0.0 
-8.647601857311e-01 -5.736202475145e+01 0.0 
0.0 0.0 -2.358241146670e+01 
-7.033429728308e+01 -1.033819484063e+00 0.0 
-1.033819484063e+00 -1.871621805046e+02 0.0 
0.0 0.0 -7.684894333630e+01 
-1.304431427597e+02 1.683847775269e+01 0.0 
1.683847775269e+01 -2.973065428409e+02 0.0 
0.0 0.0 -1.279249056802e+02 
-1.143233493465e+02 4.726769603558e+00 0.0 
4.726769603558e+00 -2.588583589334e+02 0.0 
0.0 0.0 -1.115545124840e+02 
-1.213104401335e+02 9.434127031295e+00 0.0 
9.434127031295e+00 -2.788070005434e+02 0.0 
0.0 0.0 -1.196352322030e+02 
-5.021012055041e+01 1.204931499130e-01 0.0 
1.204931499130e-01 -1.334095230980e+02 0.0 
0.0 0.0 -5.468589309452e+01 
-1.982249787384e+01 7.648821709069e-01 0.0 
7.648821709069e-01 -3.551312944474e+01 0.0 
0.0 0.0 -1.620068819557e+01 
-1.515037135709e+02 7.123888606178e+00 0.0 
7.123888606178e+00 -3.636353463173e+02 0.0 
0.0 0.0 -1.541417179664e+02 
-1.249898247384e+02 4.611272627069e-01 0.0 
4.611272627069e-01 -2.894369895693e+02 0.0 
0.0 0.0 -1.239280442923e+02 
-1.614221865878e+02 9.071142474441e-01 0.0 
9.071142474441e-01 -3.822918063031e+02 0.0 
0.0 0.0 -1.627141978673e+02 
-5.833611071687e+01 -4.879934887011e-01 0.0 
-4.879934887011e-01 -1.197146831204e+02 0.0 
0.0 0.0 -5.301523815119e+01 
-1.389375806586e+02 1.254914565644e+01 0.0 
1.254914565644e+01 -3.359830600041e+02 0.0 
0.0 0.0 -1.420761921988e+02 
-2.233535841848e+01 -5.848904647267e-01 0.0 
-5.848904647267e-01 -5.842085249166e+01 0.0 
0.0 0.0 -2.382686327304e+01 
-1.165996445564e+02 6.491286715077e+00 0.0 
6.491286715077e+00 -2.644900719368e+02 0.0 
0.0 0.0 -1.139269149480e+02 
-1.073163362523e+01 -8.894086634531e-01 0.0 
-8.894086634531e-01 -2.335719087947e+01 0.0 
0.0 0.0 -1.033440509895e+01 
-1.494732441145e+02 1.190805671925e+01 0.0 
1.190805671925e+01 -3.559828495291e+02 0.0 
0.0 0.0 -1.512368280931e+02 
-1.232958511788e+02 9.794047360255e+00 0.0 
9.794047360255e+00 -2.793377194974e+02 0.0 
0.0 0.0 -1.203900712029e+02 
-1.568329984859e+01 1.674782846732e+00 0.0 
1.674782846732e+00 -2.250346108926e+01 0.0 
0.0 0.0 -1.156529981598e+01 
-1.229964747205e+02 1.835057094808e+01 0.0 
1.835057094808e+01 -2.866754461738e+02 0.0 
0.0 0.0 -1.225015762683e+02 
-9.303864896697e+01 1.539423794975e+00 0.0 
1.539423794975e+00 -2.041423149724e+02 0.0 
0.0 0.0 -8.875428918181e+01 
-1.180935985944e+02 3.254015672146e+00 0.0 
3.254015672146e+00 -2.734631546416e+02 0.0 
0.0 0.0 -1.170670259708e+02 
-1.514531233415e+02 1.808240851937e+01 0.0 
1.808240851937e+01 -3.547239544635e+02 0.0 
0.0 0.0 -1.514531233415e+02 
-8.188525891553e+01 1.410001709050e+00 0.0 
1.410001709050e+00 -1.772642393892e+02 0.0 
0.0 0.0 -7.734484949142e+01 
-1.277884509625e+02 1.573993926726e+01 0.0 
1.573993926726e+01 -2.947226484194e+02 0.0 
0.0 0.0 -1.263533298146e+02 
-1.189424041970e+02 9.701879725003e+00 0.0 
9.701879725003e+00 -2.660489052867e+02 0.0 
0.0 0.0 -1.150973928451e+02 
-8.626751328570e+01 4.830528558964e-01 0.0 
4.830528558964e-01 -1.888341862821e+02 0.0 
0.0 0.0 -8.213050987033e+01 
-1.246477556186e+02 1.551090053548e+01 0.0 
1.551090053548e+01 -2.831261731450e+02 0.0 
0.0 0.0 -1.219321786291e+02 
-6.026299624684e+01 5.865386015097e-02 0.0 
5.865386015097e-02 -1.598726308023e+02 0.0 
0.0 0.0 -6.564068811473e+01 
-5.237282664102e+01 1.171233335632e-01 0.0 
1.171233335632e-01 -1.051960750803e+02 0.0 
0.0 0.0 -4.687067051641e+01 
-1.312369396078e+02 1.773338799113e+01 0.0 
1.773338799113e+01 -3.112150925190e+02 0.0 
0.0 0.0 -1.323356096380e+02 
-1.186972245757e+02 -7.531428778745e-02 0.0 
-7.531428778745e-02 -2.745832146293e+02 0.0 
0.0 0.0 -1.175841317615e+02 
-4.081689734952e+00 9.560948937194e-02 0.0 
9.560948937194e-02 -8.542941601110e+00 0.0 
0.0 0.0 -4.312638223985e+00 
-5.216445871215e+01 -2.227970092224e-01 0.0 
-2.227970092224e-01 -1.054863459412e+02 0.0 
0.0 0.0 -4.689524139601e+01 
-1.558378629107e+02 1.047071884818e+00 0.0 
1.047071884818e+00 -3.699236635118e+02 0.0 
0.0 0.0 -1.573284579267e+02 
-2.797481060378e+01 -1.674420568974e+00 0.0 
-1.674420568974e+00 -7.330988409405e+01 0.0 
0.0 0.0 -2.998540840935e+01 
-1.346061621504e+02 1.431990947182e+01 0.0 
1.431990947182e+01 -3.303314091992e+02 0.0 
0.0 0.0 -1.390812714049e+02 
-1.204470788522e+02 1.137416293758e+01 0.0 
1.137416293758e+01 -2.666264204924e+02 0.0 
0.0 0.0 -1.157220498034e+02 
-1.188848324032e+02 3.455214992098e+00 0.0 
3.455214992098e+00 -2.726342482789e+02 0.0 
0.0 0.0 -1.170557242046e+02 
-2.700842661423e+01 -1.260411025100e+00 0.0 
-1.260411025100e+00 -7.050490255346e+01 0.0 
0.0 0.0 -2.885399875031e+01 
-2.103095483207e+01 6.826250826557e+00 0.0 
6.826250826557e+00 -4.089529517507e+01 0.0 
0.0 0.0 -1.817787500214e+01 
-8.711525203127e+01 -1.311115002827e+00 0.0 
-1.311115002827e+00 -2.277389518850e+02 0.0 
0.0 0.0 -9.405626117489e+01 
-1.002858773297e+02 2.914955508521e-01 0.0 
2.914955508521e-01 -2.253480559206e+02 0.0 
0.0 0.0 -9.729017997511e+01 
-1.958264975905e+01 -5.575844591118e-01 0.0 
-5.575844591118e-01 -5.760179721190e+00 0.0 
0.0 0.0 -7.202848844072e+00 
-1.204921272001e+02 7.789375239826e+00 0.0 
7.789375239826e+00 -2.776391256807e+02 0.0 
0.0 0.0 -1.190393758642e+02 
-7.924869551861e+01 1.953784826554e-01 0.0 
1.953784826554e-01 -1.712053253166e+02 0.0 
0.0 0.0 -7.473620625056e+01 
-2.790534306673e+01 -1.796892962544e+00 0.0 
-1.796892962544e+00 -6.927064454878e+01 0.0 
0.0 0.0 -2.875279628465e+01 
-7.377727614129e+01 1.934648613317e-01 0.0 
1.934648613317e-01 -1.573695219022e+02 0.0 
0.0 0.0 -6.894403941306e+01 
-1.366297171074e+02 2.007476117479e+01 0.0 
2.007476117479e+01 -3.205494187595e+02 0.0 
0.0 0.0 -1.367537407601e+02 
-9.199252453767e+01 1.205574303171e+00 0.0 
1.205574303171e+00 -2.383910589237e+02 0.0 
0.0 0.0 -9.871507503840e+01 
-1.565566494636e+01 7.574458648779e+00 0.0 
7.574458648779e+00 -1.127165913704e+01 0.0 
0.0 0.0 -7.652194549646e+00 
-5.358757066651e+01 -1.103404804813e+00 0.0 
-1.103404804813e+00 -1.451172160171e+02 0.0 
0.0 0.0 -5.921143600508e+01 
-7.952090464342e+01 -3.173859521176e-01 0.0 
-3.173859521176e-01 -2.093909805633e+02 0.0 
0.0 0.0 -8.627356556202e+01 
-9.623674071707e+01 -1.333655257213e+00 0.0 
-1.333655257213e+00 -2.474214869432e+02 0.0 
0.0 0.0 -1.026974682981e+02 
-1.336807855665e+02 1.822475895245e+01 0.0 
1.822475895245e+01 -3.181371190104e+02 0.0 
0.0 0.0 -1.351453713731e+02 
-7.732275598861e+01 6.466638021507e-01 0.0 
6.466638021507e-01 -2.041233533304e+02 0.0 
0.0 0.0 -8.403383279570e+01 
-8.284137738703e+01 -2.287929708662e-01 0.0 
-2.287929708662e-01 -2.166398808126e+02 0.0 
0.0 0.0 -8.944437745989e+01 
-1.568580121714e+01 -1.508351137980e+00 0.0 
-1.508351137980e+00 -3.718462724070e+01 0.0 
0.0 0.0 -1.546112853735e+01 
-1.459888909845e+02 5.197297760758e+00 0.0 
5.197297760758e+00 -3.527364384181e+02 0.0 
0.0 0.0 -1.492175988208e+02 
-1.213758040590e+02 1.642365171543e+01 0.0 
1.642365171543e+01 -2.794841429853e+02 0.0 
0.0 0.0 -1.198579841133e+02 
-2.111337632660e+01 7.199532683981e+00 0.0 
7.199532683981e+00 -5.230187671820e+01 0.0 
0.0 0.0 -2.162457591344e+01 
-1.184087051807e+02 7.937695173833e-01 0.0 
7.937695173833e-01 -2.739088436680e+02 0.0 
0.0 0.0 -1.172952646546e+02 
-1.558700699421e+02 6.480633751560e-02 0.0 
6.480633751560e-02 -3.695159503690e+02 0.0 
0.0 0.0 -1.572158060933e+02 
-5.879751567779e+01 6.434436758351e-01 0.0 
6.434436758351e-01 -1.207527337913e+02 0.0 
0.0 0.0 -5.346507484073e+01 
-7.958213587943e+01 1.751893157659e-01 0.0 
1.751893157659e-01 -1.713267710915e+02 0.0 
0.0 0.0 -7.487267209127e+01 
-7.753136592241e+01 -6.251235911844e-01 0.0 
-6.251235911844e-01 -2.040092969978e+02 0.0 
0.0 0.0 -8.406219887606e+01 
-8.039023304392e+01 4.398319481673e-01 0.0 
4.398319481673e-01 -2.102614000420e+02 0.0 
0.0 0.0 -8.679548992578e+01 
-8.270137456263e+01 2.170048529670e-01 0.0 
2.170048529670e-01 -2.170536158722e+02 0.0 
0.0 0.0 -8.952649713043e+01 
-1.289203825248e+02 1.325835244137e+01 0.0 
1.325835244137e+01 -3.175734862642e+02 0.0 
0.0 0.0 -1.335481606367e+02 
-2.266331263788e+01 -2.466383101552e+00 0.0 
-2.466383101552e+00 -5.632300917084e+01 0.0 
0.0 0.0 -2.329589654262e+01 
-1.265927571628e+02 1.845454697677e+01 0.0 
1.845454697677e+01 -2.890734230517e+02 0.0 
0.0 0.0 -1.242998540643e+02 
-6.566294612829e+01 -1.096768465491e-01 0.0 
-1.096768465491e-01 -1.375464385986e+02 0.0 
0.0 0.0 -6.056281541808e+01 
-1.220150913014e+02 7.874698514355e+00 0.0 
7.874698514355e+00 -2.767099437654e+02 0.0 
0.0 0.0 -1.192175105200e+02 
-1.300234597750e+02 1.401347209764e+01 0.0 
1.401347209764e+01 -3.179082497532e+02 0.0 
0.0 0.0 -1.339795128584e+02 
-7.495041576498e+01 7.486643509981e-01 0.0 
7.486643509981e-01 -1.582039806242e+02 0.0 
0.0 0.0 -6.954631891676e+01 
-1.198168229529e+02 1.443375986952e+01 0.0 
1.443375986952e+01 -2.697689928655e+02 0.0 
0.0 0.0 -1.164757447455e+02 
-1.322707100025e+02 1.687268086772e+01 0.0 
1.687268086772e+01 -3.168746224979e+02 0.0 
0.0 0.0 -1.343435997501e+02 
-1.384900180220e+02 1.917572424909e+01 0.0 
1.917572424909e+01 -3.292605640858e+02 0.0 
0.0 0.0 -1.399251746324e+02 
-1.612700104098e+01 7.013582477130e+00 0.0 
7.013582477130e+00 -1.800598591547e+01 0.0 
0.0 0.0 -1.005392894800e+01 
-1.211751723070e+02 1.587507210465e+01 0.0 
1.587507210465e+01 -2.705764363751e+02 0.0 
0.0 0.0 -1.171254826046e+02 
-1.249228824911e+02 1.557321446890e+01 0.0 
1.557321446890e+01 -2.831940456864e+02 0.0 
0.0 0.0 -1.220350784533e+02 
-1.660177193922e+01 -6.237912053986e-01 0.0 
-6.237912053986e-01 -3.823282002109e+01 0.0 
0.0 0.0 -1.605037758809e+01 
-7.351594389683e+01 3.327770322795e-01 0.0 
3.327770322795e-01 -1.941406018320e+02 0.0 
0.0 0.0 -7.989696371866e+01 
-1.706044115538e+01 5.430125731353e+00 0.0 
5.430125731353e+00 -1.708814031484e+01 0.0 
0.0 0.0 -9.844574441065e+00 
-1.254324314165e+02 1.616416061723e+01 0.0 
1.616416061723e+01 -2.813141783061e+02 0.0 
0.0 0.0 -1.216239829168e+02 
-1.073874917158e+01 4.787981050376e-01 0.0 
4.787981050376e-01 -7.988835219837e+00 0.0 
0.0 0.0 -5.218275317425e+00 
-1.150577526799e+01 -7.622846544513e-02 0.0 
-7.622846544513e-02 -9.870423355657e+00 0.0 
0.0 0.0 -6.012859587094e+00 
-1.083831664834e+01 1.769259357283e-01 0.0 
1.769259357283e-01 -9.616873735499e+00 0.0 
0.0 0.0 -5.736557115151e+00 
-1.134636903708e+01 2.412434374876e-02 0.0 
2.412434374876e-02 -9.907669793229e+00 0.0 
0.0 0.0 -5.976211649091e+00 
-1.091672799821e+01 5.103215262444e-02 0.0 
5.103215262444e-02 -9.730055428884e+00 0.0 
0.0 0.0 -5.794035028128e+00 
-1.122031931608e+01 -4.249190233346e-02 0.0 
-4.249190233346e-02 -9.918313997816e+00 0.0 
0.0 0.0 -5.941589994169e+00 
-1.085520153352e+01 -2.508991039575e-02 0.0 
-2.508991039575e-02 -9.768433534402e+00 0.0 
0.0 0.0 -5.787090520375e+00 
-1.110727053134e+01 -1.059149782427e-01 0.0 
-1.059149782427e-01 -9.940688592229e+00 0.0 
0.0 0.0 -5.914387737071e+00 
-1.068590229264e+01 -7.038291098681e-02 0.0 
-7.038291098681e-02 -9.775277814708e+00 0.0 
0.0 0.0 -5.738354032204e+00 
-1.097943008034e+01 -1.611581666887e-01 0.0 
-1.611581666887e-01 -9.966681388801e+00 0.0 
0.0 0.0 -5.883833440742e+00 
-1.043307611201e+01 -9.909779708159e-02 0.0 
-9.909779708159e-02 -9.763471340440e+00 0.0 
0.0 0.0 -5.658964235736e+00 
-1.082225226937e+01 -2.114861172111e-01 0.0 
-2.114861172111e-01 -9.993681568327e+00 0.0 
0.0 0.0 -5.844780151309e+00 
-1.010994612120e+01 -1.195008263957e-01 0.0 
-1.195008263957e-01 -9.742402117417e+00 0.0 
0.0 0.0 -5.555704471586e+00 
-1.063744346946e+01 -2.599578090609e-01 0.0 
-2.599578090609e-01 -1.002169468269e+01 0.0 
0.0 0.0 -5.797741445646e+00 
-9.720446552875e+00 -1.384436524713e-01 0.0 
-1.384436524713e-01 -9.712807020830e+00 0.0 
0.0 0.0 -5.429976072111e+00 
-1.042436613662e+01 -3.122153268612e-01 0.0 
-3.122153268612e-01 -1.005264895845e+01 0.0 
0.0 0.0 -5.743104528521e+00 
-9.260984854393e+00 -1.573828854147e-01 0.0 
-1.573828854147e-01 -9.679013528489e+00 0.0 
0.0 0.0 -5.281999514864e+00 
-9.091941953331e+00 3.307749449190e+00 0.0 
3.307749449190e+00 -1.228811543558e+01 0.0 
0.0 0.0 -6.014017216675e+00 
-1.017815500527e+01 -3.670405487314e-01 0.0 
-3.670405487314e-01 -1.008596064648e+01 0.0 
0.0 0.0 -5.679234695527e+00 
-8.728805685026e+00 -1.765694451562e-01 0.0 
-1.765694451562e-01 -9.642631621524e+00 0.0 
0.0 0.0 -5.111431191965e+00 
-1.366460164783e+01 1.572291112337e+00 0.0 
1.572291112337e+00 -1.090790846663e+01 0.0 
0.0 0.0 -6.971753034337e+00 
-9.901378961581e+00 -4.234506760821e-01 0.0 
-4.234506760821e-01 -1.012195773693e+01 0.0 
0.0 0.0 -5.607001009554e+00 
-8.123353315265e+00 -1.943053958079e-01 0.0 
-1.943053958079e-01 -9.605522769321e+00 0.0 
0.0 0.0 -4.918662825376e+00 
-9.606629908696e+00 -4.783950297447e-01 0.0 
-4.783950297447e-01 -1.016083741746e+01 0.0 
0.0 0.0 -5.530240197846e+00 
-7.447466211335e+00 -2.105235169205e-01 0.0 
-2.105235169205e-01 -9.564687720274e+00 0.0 
0.0 0.0 -4.703646179483e+00 
-9.310137243310e+00 -5.315246256555e-01 0.0 
-5.315246256555e-01 -1.020311891065e+01 0.0 
0.0 0.0 -5.453976846189e+00 
-2.061186193100e+00 2.092124335318e-01 0.0 
2.092124335318e-01 -5.530672582085e+00 0.0 
0.0 0.0 -1.877557632555e+00 
-6.700823941626e+00 -2.302852944639e-01 0.0 
-2.302852944639e-01 -9.512851115790e+00 0.0 
0.0 0.0 -4.464102517225e+00 
-9.037902979707e+00 -5.914421947233e-01 0.0 
-5.914421947233e-01 -1.025527482360e+01 0.0 
0.0 0.0 -5.387953340993e+00 
-5.881067279862e+00 -2.422179566368e-01 0.0 
-2.422179566368e-01 -9.467141650146e+00 0.0 
0.0 0.0 -4.204462679002e+00 
-8.770220839705e+00 -6.325223355187e-01 0.0 
-6.325223355187e-01 -1.030849395827e+01 0.0 
0.0 0.0 -5.323614439394e+00 
-5.014193641119e+00 -2.463036184936e-01 0.0 
-2.463036184936e-01 -9.417378479240e+00 0.0 
0.0 0.0 -3.929471636108e+00 
-8.628283044337e+00 -6.617264369751e-01 0.0 
-6.617264369751e-01 -1.037833836023e+01 0.0 
0.0 0.0 -5.301986421370e+00 
-4.141669963459e+00 -2.069696135837e-01 0.0 
-2.069696135837e-01 -9.399486981779e+00 0.0 
0.0 0.0 -3.662347083571e+00 
-8.558093571703e+00 -6.080009177148e-01 0.0 
-6.080009177148e-01 -1.043581918742e+01 0.0 
0.0 0.0 -5.298173827736e+00 
-3.364742011665e+00 -1.592546339256e-01 0.0 
-1.592546339256e-01 -9.328407669267e+00 0.0 
0.0 0.0 -3.407944904279e+00 
-8.961304775862e+00 -5.604909648723e-01 0.0 
-5.604909648723e-01 -1.054420958423e+01 0.0 
0.0 0.0 -5.451654308028e+00 
-1.806473656861e+01 5.797804263579e+00 0.0 
5.797804263579e+00 -1.284666374614e+01 0.0 
0.0 0.0 -8.873420094426e+00 
-9.453448426298e+00 -2.510329381242e-01 0.0 
-2.510329381242e-01 -1.060187742200e+01 0.0 
0.0 0.0 -5.616597754489e+00 
-2.756858385177e+00 1.952838306582e-02 0.0 
1.952838306582e-02 -9.409164723479e+00 0.0 
0.0 0.0 -3.249806932597e+00 
-1.092853302570e+01 6.113789234388e-02 0.0 
6.113789234388e-02 -1.076439129168e+01 0.0 
0.0 0.0 -6.107877295214e+00 
-2.657837520735e+00 2.554247882354e-01 0.0 
2.554247882354e-01 -9.355381084767e+00 0.0 
0.0 0.0 -3.203965581651e+00 
-3.417765315648e+00 1.091650581659e+00 0.0 
1.091650581659e+00 -1.019968585881e+01 0.0 
0.0 0.0 -3.685235352337e+00 
-1.096764278186e+01 1.005431505685e+00 0.0 
1.005431505685e+00 -6.297246823842e-01 0.0 
0.0 0.0 -3.079210239275e+00 
-1.159619356415e+01 1.501031942678e+00 0.0 
1.501031942678e+00 -1.027052947633e+01 0.0 
0.0 0.0 -6.160016912143e+00 
-1.191277847285e+01 -1.283962368148e+00 0.0 
-1.283962368148e+00 -8.382027208835e+00 0.0 
0.0 0.0 -5.688441704504e+00 
-1.357587009865e+01 2.291824441368e-01 0.0 
2.291824441368e-01 -1.452366453460e+01 0.0 
0.0 0.0 -8.029860389974e+00 
-1.002012311076e+01 -6.081224450820e-02 0.0 
-6.081224450820e-02 -4.281695104026e+00 0.0 
0.0 0.0 -3.890545464435e+00 
-1.407201374778e+01 6.076777817791e+00 0.0 
6.076777817791e+00 -8.643792772663e+00 0.0 
0.0 0.0 -6.414741956134e+00 
-2.056792284458e+01 2.325825797469e-01 0.0 
2.325825797469e-01 -3.119924851610e+01 0.0 
0.0 0.0 -1.513015140820e+01 
-1.988126926340e+01 -2.908070683730e-01 0.0 
-2.908070683730e-01 -2.941324267827e+01 0.0 
0.0 0.0 -1.438835358250e+01 
-1.977480811677e+01 -3.607859377984e-02 0.0 
-3.607859377984e-02 -2.933140516032e+01 0.0 
0.0 0.0 -1.433186398313e+01 
-1.962082439158e+01 -8.891862241547e-02 0.0 
-8.891862241547e-02 -2.921473228707e+01 0.0 
0.0 0.0 -1.425066700359e+01 
-1.969518145674e+01 -9.700716911442e-02 0.0 
-9.700716911442e-02 -2.924799478861e+01 0.0 
0.0 0.0 -1.428295287360e+01 
-1.948747519728e+01 -1.378837272766e-01 0.0 
-1.378837272766e-01 -2.920834438727e+01 0.0 
0.0 0.0 -1.420874587537e+01 
-1.963858170077e+01 -1.613151594679e-01 0.0 
-1.613151594679e-01 -2.927858899554e+01 0.0 
0.0 0.0 -1.427515120889e+01 
-1.936707598323e+01 -2.153943461166e-01 0.0 
-2.153943461166e-01 -2.921356797996e+01 0.0 
0.0 0.0 -1.417419318896e+01 
-1.959100273736e+01 -2.246033254197e-01 0.0 
-2.246033254197e-01 -2.930997221862e+01 0.0 
0.0 0.0 -1.427029248680e+01 
-1.922724443142e+01 -2.965977761676e-01 0.0 
-2.965977761676e-01 -2.921158154132e+01 0.0 
0.0 0.0 -1.413164779182e+01 
-1.953874089611e+01 -2.865264843540e-01 0.0 
-2.865264843540e-01 -2.933494466076e+01 0.0 
0.0 0.0 -1.426210566706e+01 
-1.905628589799e+01 -3.767349475655e-01 0.0 
-3.767349475655e-01 -2.920642670178e+01 0.0 
0.0 0.0 -1.407881377993e+01 
-1.947957571836e+01 -3.393336245601e-01 0.0 
-3.393336245601e-01 -2.935816426812e+01 0.0 
0.0 0.0 -1.425132199594e+01 
-1.885036239648e+01 -4.524608451336e-01 0.0 
-4.524608451336e-01 -2.918517217908e+01 0.0 
0.0 0.0 -1.401066037267e+01 
-1.942754305273e+01 -3.919107444792e-01 0.0 
-3.919107444792e-01 -2.937815633354e+01 0.0 
0.0 0.0 -1.424170981588e+01 
-1.861139170895e+01 -5.299277289201e-01 0.0 
-5.299277289201e-01 -2.915570862720e+01 0.0 
0.0 0.0 -1.393013010084e+01 
-2.117385085939e+01 3.207870481591e+00 0.0 
3.207870481591e+00 -3.265794907802e+01 0.0 
0.0 0.0 -1.574953998122e+01 
-1.938788842387e+01 -4.491501982740e-01 0.0 
-4.491501982740e-01 -2.940261128071e+01 0.0 
0.0 0.0 -1.423714991137e+01 
-1.834140827477e+01 -6.098471748427e-01 0.0 
-6.098471748427e-01 -2.913355160865e+01 0.0 
0.0 0.0 -1.384248796503e+01 
-1.742917867061e+01 1.617630064592e+00 0.0 
1.617630064592e+00 -2.593256446314e+01 0.0 
0.0 0.0 -1.260852294012e+01 
-1.933519569136e+01 -5.048906684558e-01 0.0 
-5.048906684558e-01 -2.943032925619e+01 0.0 
0.0 0.0 -1.422965748427e+01 
-1.804201315950e+01 -6.827542706532e-01 0.0 
-6.827542706532e-01 -2.911677086542e+01 0.0 
0.0 0.0 -1.374763520748e+01 
-2.396728656701e+01 1.668625443991e+00 0.0 
1.668625443991e+00 -3.075384415934e+01 0.0 
0.0 0.0 -1.601633921791e+01 
-1.930445419760e+01 -5.471572664451e-01 0.0 
-5.471572664451e-01 -2.946716080620e+01 0.0 
0.0 0.0 -1.423148450114e+01 
-1.772302196592e+01 -7.411195537759e-01 0.0 
-7.411195537759e-01 -2.909908555098e+01 0.0 
0.0 0.0 -1.364663225507e+01 
-1.931957112023e+01 -5.723211536298e-01 0.0 
-5.723211536298e-01 -2.951082865590e+01 0.0 
0.0 0.0 -1.424911993284e+01 
-1.739885220736e+01 -7.803764237642e-01 0.0 
-7.803764237642e-01 -2.907678716011e+01 0.0 
0.0 0.0 -1.354269181024e+01 
-1.938897858080e+01 -5.779128910857e-01 0.0 
-5.779128910857e-01 -2.955304885984e+01 0.0 
0.0 0.0 -1.428260823219e+01 
-1.708872224766e+01 -7.963984330439e-01 0.0 
-7.963984330439e-01 -2.904051978216e+01 0.0 
0.0 0.0 -1.343877260894e+01 
-2.595366593980e+01 3.932049666374e+00 0.0 
3.932049666374e+00 -3.357666337328e+01 0.0 
0.0 0.0 -1.745909879392e+01 
-1.957410521932e+01 -5.890848123119e-01 0.0 
-5.890848123119e-01 -2.962457370952e+01 0.0 
0.0 0.0 -1.435960367865e+01 
-1.683139648161e+01 -7.670371020523e-01 0.0 
-7.670371020523e-01 -2.911790378938e+01 0.0 
0.0 0.0 -1.338479008130e+01 
-1.977508914703e+01 -4.829062478183e-01 0.0 
-4.829062478183e-01 -2.969594071079e+01 0.0 
0.0 0.0 -1.444130895735e+01 
-1.666596515117e+01 -6.362932669952e-01 0.0 
-6.362932669952e-01 -2.913292994283e+01 0.0 
0.0 0.0 -1.333966852820e+01 
-1.670589610560e+01 -3.567867952258e-01 0.0 
-3.567867952258e-01 -2.944735843318e+01 0.0 
0.0 0.0 -1.344597636164e+01 
-2.027040796608e+01 -3.646924669430e-01 0.0 
-3.646924669430e-01 -2.983899529455e+01 0.0 
0.0 0.0 -1.463282097819e+01 
-1.704019514335e+01 1.414623180775e-01 0.0 
1.414623180775e-01 -2.939495377505e+01 0.0 
0.0 0.0 -1.353054467552e+01 
-2.073680997622e+01 1.236764630836e-01 0.0 
1.236764630836e-01 -2.989829693199e+01 0.0 
0.0 0.0 -1.479053207246e+01 
-1.795065395805e+01 9.853211923640e-01 0.0 
9.853211923640e-01 -3.042869032942e+01 0.0 
0.0 0.0 -1.411380328624e+01 
-2.209981481702e+01 4.420703030783e-01 0.0 
4.420703030783e-01 -3.022426566705e+01 0.0 
0.0 0.0 -1.529722414522e+01 
-2.111277284662e+01 2.303895568671e+00 0.0 
2.303895568671e+00 -2.343522187967e+01 0.0 
0.0 0.0 -1.296439841789e+01 
-2.034956276154e+01 1.429944512230e+00 0.0 
1.429944512230e+00 -2.914791110039e+01 0.0 
0.0 0.0 -1.444924215858e+01 
-2.001952024011e+01 -1.456033206155e+00 0.0 
-1.456033206155e+00 -3.108514643024e+01 0.0 
0.0 0.0 -1.493140000111e+01 
-1.805197360719e+01 1.101785739321e-01 0.0 
1.101785739321e-01 -2.496790605452e+01 0.0 
0.0 0.0 -1.250596389851e+01 
-2.222903006717e+01 -1.881672998683e-01 0.0 
-1.881672998683e-01 -3.509876889782e+01 0.0 
0.0 0.0 -1.679833968950e+01 
-2.050593024540e+01 4.527117548770e+00 0.0 
4.527117548770e+00 -2.687100852762e+01 0.0 
0.0 0.0 -1.381308163190e+01 
-2.746150416776e+01 1.886873640639e-01 0.0 
1.886873640639e-01 -4.728427160351e+01 0.0 
0.0 0.0 -2.202373273138e+01 
-2.816946756401e+01 -2.999221515724e-01 0.0 
-2.999221515724e-01 -4.889985977592e+01 0.0 
0.0 0.0 -2.272079820198e+01 
-2.817349809102e+01 -1.127362596838e-01 0.0 
-1.127362596838e-01 -4.892834843358e+01 0.0 
0.0 0.0 -2.273055395738e+01 
-2.828195248973e+01 -1.463029419905e-01 0.0 
-1.463029419905e-01 -4.899529280228e+01 0.0 
0.0 0.0 -2.278317358760e+01 
-2.812847073894e+01 -1.674925127189e-01 0.0 
-1.674925127189e-01 -4.892566978043e+01 0.0 
0.0 0.0 -2.271624215581e+01 
-2.828927725442e+01 -2.153198823386e-01 0.0 
-2.153198823386e-01 -4.902009850184e+01 0.0 
0.0 0.0 -2.279281272688e+01 
-2.805795613155e+01 -2.120486537922e-01 0.0 
-2.120486537922e-01 -4.892379600070e+01 0.0 
0.0 0.0 -2.269452563967e+01 
-2.833418218805e+01 -2.831610216852e-01 0.0 
-2.831610216852e-01 -4.904982828478e+01 0.0 
0.0 0.0 -2.281520314185e+01 
-2.799140721003e+01 -2.731772782640e-01 0.0 
-2.731772782640e-01 -4.891091598819e+01 0.0 
0.0 0.0 -2.267069695947e+01 
-2.837194987426e+01 -3.660725259701e-01 0.0 
-3.660725259701e-01 -4.907568633052e+01 0.0 
0.0 0.0 -2.283429086144e+01 
-2.792596276247e+01 -3.376292660704e-01 0.0 
-3.376292660704e-01 -4.890512901562e+01 0.0 
0.0 0.0 -2.264932753343e+01 
-2.842805187384e+01 -4.522552667489e-01 0.0 
-4.522552667489e-01 -4.910791848448e+01 0.0 
0.0 0.0 -2.286079110749e+01 
-2.785770159696e+01 -3.946343830928e-01 0.0 
-3.946343830928e-01 -4.890712465153e+01 0.0 
0.0 0.0 -2.262944787455e+01 
-2.847194525207e+01 -5.194453363110e-01 0.0 
-5.194453363110e-01 -4.912127714010e+01 0.0 
0.0 0.0 -2.287796671765e+01 
-2.779248429410e+01 -4.442821568279e-01 0.0 
-4.442821568279e-01 -4.889635256338e+01 0.0 
0.0 0.0 -2.260665105724e+01 
-3.168549678650e+01 2.766206279442e+00 0.0 
2.766206279442e+00 -5.230171648049e+01 0.0 
0.0 0.0 -2.479616398010e+01 
-2.860500761647e+01 -5.875922053668e-01 0.0 
-5.875922053668e-01 -4.913542395468e+01 0.0 
0.0 0.0 -2.292212947135e+01 
-3.357951635293e+01 1.244436565178e+00 0.0 
1.244436565178e+00 -5.062809247371e+01 0.0 
0.0 0.0 -2.486228264799e+01 
-2.772162189023e+01 -5.056545633651e-01 0.0 
-5.056545633651e-01 -4.884798936886e+01 0.0 
0.0 0.0 -2.257088337773e+01 
-2.871473639533e+01 -6.782600674115e-01 0.0 
-6.782600674115e-01 -4.916009058525e+01 0.0 
0.0 0.0 -2.296244809417e+01 
-2.766225232809e+01 -5.475609028479e-01 0.0 
-5.475609028479e-01 -4.886012807523e+01 0.0 
0.0 0.0 -2.255671412100e+01 
-2.884729907380e+01 -7.288364370382e-01 0.0 
-7.288364370382e-01 -4.919635564011e+01 0.0 
0.0 0.0 -2.301309641417e+01 
-2.762897902540e+01 -5.575359399894e-01 0.0 
-5.575359399894e-01 -4.889105207109e+01 0.0 
0.0 0.0 -2.255600932895e+01 
-2.907303807447e+01 -7.399312223095e-01 0.0 
-7.399312223095e-01 -4.924052559030e+01 0.0 
0.0 0.0 -2.309406909943e+01 
-2.875090049561e+01 1.502168589459e+00 0.0 
1.502168589459e+00 -4.574346558376e+01 0.0 
0.0 0.0 -2.194830982381e+01 
-2.763525168492e+01 -5.381650263720e-01 0.0 
-5.381650263720e-01 -4.891408330683e+01 0.0 
0.0 0.0 -2.256480049752e+01 
-2.935952219676e+01 -7.170191235247e-01 0.0 
-7.170191235247e-01 -4.928474729586e+01 0.0 
0.0 0.0 -2.319328084778e+01 
-2.770775047262e+01 -4.728327220774e-01 0.0 
-4.728327220774e-01 -4.896351660742e+01 0.0 
0.0 0.0 -2.260138012401e+01 
-2.970349619932e+01 -6.198867914916e-01 0.0 
-6.198867914916e-01 -4.931179782775e+01 0.0 
0.0 0.0 -2.330458820812e+01 
-2.787382879302e+01 -3.642171924234e-01 0.0 
-3.642171924234e-01 -4.899059538149e+01 0.0 
0.0 0.0 -2.265932725235e+01 
-3.034669705921e+01 -5.485338595592e-01 0.0 
-5.485338595592e-01 -4.949861708179e+01 0.0 
0.0 0.0 -2.355359424230e+01 
-2.818859820198e+01 -1.186622024824e-01 0.0 
-1.186622024824e-01 -4.932746183901e+01 0.0 
0.0 0.0 -2.285481801230e+01 
-3.067904737125e+01 -1.369488705674e-01 0.0 
-1.369488705674e-01 -4.956645772041e+01 0.0 
0.0 0.0 -2.367365152750e+01 
-3.203559144277e+01 2.034246540230e-01 0.0 
2.034246540230e-01 -5.006380507322e+01 0.0 
0.0 0.0 -2.422981895480e+01 
-2.870509321090e+01 2.890082540028e-01 0.0 
2.890082540028e-01 -4.951992753247e+01 0.0 
0.0 0.0 -2.306750622301e+01 
-3.532977711393e+01 2.829527504916e+00 0.0 
2.829527504916e+00 -5.346163253830e+01 0.0 
0.0 0.0 -2.623742289567e+01 
-2.954968231604e+01 1.013311695204e+00 0.0 
1.013311695204e+00 -5.046166572492e+01 0.0 
0.0 0.0 -2.360340441229e+01 
-3.100612716678e+01 1.866083225946e+00 0.0 
1.866083225946e+00 -4.393675017643e+01 0.0 
0.0 0.0 -2.208286320296e+01 
-2.775142207630e+01 1.434976145668e+00 0.0 
1.434976145668e+00 -4.946666892872e+01 0.0 
0.0 0.0 -2.276542730151e+01 
-2.809796489418e+01 -1.469076081036e+00 0.0 
-1.469076081036e+00 -4.743827227384e+01 0.0 
0.0 0.0 -2.226087115041e+01 
-3.011559895966e+01 1.145010607623e-01 0.0 
1.145010607623e-01 -5.359134580263e+01 0.0 
0.0 0.0 -2.471208342869e+01 
-2.582096041754e+01 -2.003229282975e-01 0.0 
-2.003229282975e-01 -4.347993971537e+01 0.0 
0.0 0.0 -2.039027003987e+01 
-3.049899869873e+01 3.416831406584e+00 0.0 
3.416831406584e+00 -4.599450580002e+01 0.0 
0.0 0.0 -2.254805134962e+01 
-3.722596603615e+01 2.495756210210e-01 0.0 
2.495756210210e-01 -7.035967542219e+01 0.0 
0.0 0.0 -3.187569243750e+01 
-3.657758695461e+01 -2.853587547502e-01 0.0 
-2.853587547502e-01 -6.851880502065e+01 0.0 
0.0 0.0 -3.112891759258e+01 
-3.670971021447e+01 -4.104250246840e-02 0.0 
-4.104250246840e-02 -6.853393297994e+01 0.0 
0.0 0.0 -3.117309295832e+01 
-3.655142715091e+01 -1.256093746652e-01 0.0 
-1.256093746652e-01 -6.829073367838e+01 0.0 
0.0 0.0 -3.105264824879e+01 
-3.672137015166e+01 -1.667510556443e-01 0.0 
-1.667510556443e-01 -6.837288928244e+01 0.0 
0.0 0.0 -3.112827783023e+01 
-3.656433636499e+01 -2.002652982813e-01 0.0 
-2.002652982813e-01 -6.832856975984e+01 0.0 
0.0 0.0 -3.106787183745e+01 
-3.677032837652e+01 -1.781991893615e-01 0.0 
-1.781991893615e-01 -6.840704929421e+01 0.0 
0.0 0.0 -3.115321330122e+01 
-3.657005925771e+01 -2.423514644345e-01 0.0 
-2.423514644345e-01 -6.826687478066e+01 0.0 
0.0 0.0 -3.105108021151e+01 
-3.695682894781e+01 -2.411323506484e-01 0.0 
-2.411323506484e-01 -6.842522423840e+01 0.0 
0.0 0.0 -3.121461595586e+01 
-3.660386260454e+01 -3.213103147976e-01 0.0 
-3.213103147976e-01 -6.828348270116e+01 0.0 
0.0 0.0 -3.106620359171e+01 
-3.705327736736e+01 -2.910022101658e-01 0.0 
-2.910022101658e-01 -6.844902137983e+01 0.0 
0.0 0.0 -3.125068962416e+01 
-3.664097023954e+01 -3.848479546787e-01 0.0 
-3.848479546787e-01 -6.827139467112e+01 0.0 
0.0 0.0 -3.107370947320e+01 
-3.726878658290e+01 -3.510192132748e-01 0.0 
-3.510192132748e-01 -6.849806569243e+01 0.0 
0.0 0.0 -3.133005568260e+01 
-4.116216656541e+01 2.292908614778e+00 0.0 
2.292908614778e+00 -7.179741958391e+01 0.0 
0.0 0.0 -3.348787584479e+01 
-3.670756087338e+01 -4.461416367840e-01 0.0 
-4.461416367840e-01 -6.833771358983e+01 0.0 
0.0 0.0 -3.111358233896e+01 
-3.742480800676e+01 -3.180722448600e-01 0.0 
-3.180722448600e-01 -6.852371217865e+01 0.0 
0.0 0.0 -3.138455605562e+01 
-3.852826764552e+01 1.231309059714e+00 0.0 
1.231309059714e+00 -6.521338287963e+01 0.0 
0.0 0.0 -3.072249515755e+01 
-3.678252930490e+01 -4.647592577089e-01 0.0 
-4.647592577089e-01 -6.821630789436e+01 0.0 
0.0 0.0 -3.109965115978e+01 
-3.771396949617e+01 -4.003320512186e-01 0.0 
-4.003320512186e-01 -6.851033432983e+01 0.0 
0.0 0.0 -3.146729114780e+01 
-4.246392767496e+01 1.094970873130e+00 0.0 
1.094970873130e+00 -7.014107141918e+01 0.0 
0.0 0.0 -3.338149972824e+01 
-3.690779641498e+01 -5.190914603644e-01 0.0 
-5.190914603644e-01 -6.827723063110e+01 0.0 
0.0 0.0 -3.115550811382e+01 
-3.796704264952e+01 -4.249925393293e-01 0.0 
-4.249925393293e-01 -6.857139399291e+01 0.0 
0.0 0.0 -3.156153099273e+01 
-3.707303202675e+01 -5.139823290520e-01 0.0 
-5.139823290520e-01 -6.838973253033e+01 0.0 
0.0 0.0 -3.123882936713e+01 
-3.832543048035e+01 -3.495496979796e-01 0.0 
-3.495496979796e-01 -6.865530120256e+01 0.0 
0.0 0.0 -3.169421950487e+01 
-3.729787061428e+01 -4.432551208949e-01 0.0 
-4.432551208949e-01 -6.843180151652e+01 0.0 
0.0 0.0 -3.131890163924e+01 
-4.433581878051e+01 2.218721848927e+00 0.0 
2.218721848927e+00 -7.294502777448e+01 0.0 
0.0 0.0 -3.478425396650e+01 
-3.881505211598e+01 -2.695709098306e-01 0.0 
-2.695709098306e-01 -6.873402127281e+01 0.0 
0.0 0.0 -3.186472201664e+01 
-3.761329148208e+01 -3.277978986655e-01 0.0 
-3.277978986655e-01 -6.854354229493e+01 0.0 
0.0 0.0 -3.144705013310e+01 
-3.804988338479e+01 -1.035986594793e-01 0.0 
-1.035986594793e-01 -6.878670126052e+01 0.0 
0.0 0.0 -3.165097539359e+01 
-3.930967967281e+01 -1.404020774467e-01 0.0 
-1.404020774467e-01 -6.883618144555e+01 0.0 
0.0 0.0 -3.204375833551e+01 
-3.859441199978e+01 2.084348825966e-01 0.0 
2.084348825966e-01 -6.874328527645e+01 0.0 
0.0 0.0 -3.180130918287e+01 
-3.976934413518e+01 1.988226474859e-01 0.0 
1.988226474859e-01 -6.888330825567e+01 0.0 
0.0 0.0 -3.219579571725e+01 
-3.943356354930e+01 7.273913984846e-01 0.0 
7.273913984846e-01 -6.999366213585e+01 0.0 
0.0 0.0 -3.242816770554e+01 
-4.098916384674e+01 2.054556660663e-01 0.0 
2.054556660663e-01 -6.935858165713e+01 0.0 
0.0 0.0 -3.270432365116e+01 
-4.032761314551e+01 1.638548947059e+00 0.0 
1.638548947059e+00 -6.379348383983e+01 0.0 
0.0 0.0 -3.083632909560e+01 
-3.702527144359e+01 1.402180620229e+00 0.0 
1.402180620229e+00 -6.808323339221e+01 0.0 
0.0 0.0 -3.113255145074e+01 
-3.665048714153e+01 -1.517277736199e+00 0.0 
-1.517277736199e+00 -7.026197828135e+01 0.0 
0.0 0.0 -3.167373962686e+01 
-3.459078597509e+01 8.063438171802e-02 0.0 
8.063438171802e-02 -6.403344883864e+01 0.0 
0.0 0.0 -2.918727044412e+01 
-3.898215396730e+01 -2.570854411040e-01 0.0 
-2.570854411040e-01 -7.411496054896e+01 0.0 
0.0 0.0 -3.352913435488e+01 
-3.984695890136e+01 2.610281506876e+00 0.0 
2.610281506876e+00 -6.525212508671e+01 0.0 
0.0 0.0 -3.112972519642e+01 
-4.427642332208e+01 3.953564198631e-01 0.0 
3.953564198631e-01 -8.681074242269e+01 0.0 
0.0 0.0 -3.892614972343e+01 
-4.511352295676e+01 -2.780703780293e-02 0.0 
-2.780703780293e-02 -8.802802692284e+01 0.0 
0.0 0.0 -3.954246496388e+01 
-4.505192192717e+01 -4.389039082295e-02 0.0 
-4.389039082295e-02 -8.799909364290e+01 0.0 
0.0 0.0 -3.951530467102e+01 
-4.498493330802e+01 -3.995870728640e-02 0.0 
-3.995870728640e-02 -8.802509403087e+01 0.0 
0.0 0.0 -3.950300820167e+01 
-4.516845142058e+01 -1.183505980992e-01 0.0 
-1.183505980992e-01 -8.808274557658e+01 0.0 
0.0 0.0 -3.957535909915e+01 
-4.518264894574e+01 -1.458885453942e-01 0.0 
-1.458885453942e-01 -8.817947531204e+01 0.0 
0.0 0.0 -3.960863727734e+01 
-4.527118015760e+01 -6.911830202383e-02 0.0 
-6.911830202383e-02 -8.824237011672e+01 0.0 
0.0 0.0 -3.965406508230e+01 
-4.545663450060e+01 -5.532023509244e-02 0.0 
-5.532023509244e-02 -8.811295515246e+01 0.0 
0.0 0.0 -3.967087689592e+01 
-4.536049335858e+01 -1.489079610104e-01 0.0 
-1.489079610104e-01 -8.803377453021e+01 0.0 
0.0 0.0 -3.961828036664e+01 
-4.557587099970e+01 -2.113340088152e-01 0.0 
-2.113340088152e-01 -8.816505137953e+01 0.0 
0.0 0.0 -3.972227671377e+01 
-4.550627652885e+01 -1.415371101023e-01 0.0 
-1.415371101023e-01 -8.817268608998e+01 0.0 
0.0 0.0 -3.970368878565e+01 
-4.579416207402e+01 -1.665754799863e-01 0.0 
-1.665754799863e-01 -8.817082522703e+01 0.0 
0.0 0.0 -3.978949619031e+01 
-4.997274568877e+01 2.216996313528e+00 0.0 
2.216996313528e+00 -9.128770288760e+01 0.0 
0.0 0.0 -4.197813457291e+01 
-4.568385991700e+01 -1.569002215332e-01 0.0 
-1.569002215332e-01 -8.813323680531e+01 0.0 
0.0 0.0 -3.974512901669e+01 
-5.020197491460e+01 8.917498244285e-01 0.0 
8.917498244285e-01 -8.952370352631e+01 0.0 
0.0 0.0 -4.151770353227e+01 
-4.640121041218e+01 -2.757421282459e-01 0.0 
-2.757421282459e-01 -8.833020149593e+01 0.0 
0.0 0.0 -4.001942357243e+01 
-4.586236140514e+01 -1.492177338343e-01 0.0 
-1.492177338343e-01 -8.821133677486e+01 0.0 
0.0 0.0 -3.982210945400e+01 
-4.627820654996e+01 -1.496033725885e-01 0.0 
-1.496033725885e-01 -8.815172350666e+01 0.0 
0.0 0.0 -3.992897901699e+01 
-4.610293044207e+01 -1.526361465171e-01 0.0 
-1.526361465171e-01 -8.808457653691e+01 0.0 
0.0 0.0 -3.985625209369e+01 
-4.671888731797e+01 -2.449831902912e-01 0.0 
-2.449831902912e-01 -8.826680533575e+01 0.0 
0.0 0.0 -4.009570779612e+01 
-4.642856707684e+01 -7.163651883149e-02 0.0 
-7.163651883149e-02 -8.831495098997e+01 0.0 
0.0 0.0 -4.002305542004e+01 
-4.730976822096e+01 -1.384251528406e-01 0.0 
-1.384251528406e-01 -8.844369687253e+01 0.0 
0.0 0.0 -4.032603952805e+01 
-4.760679713396e+01 1.191944191439e+00 0.0 
1.191944191439e+00 -8.479972599399e+01 0.0 
0.0 0.0 -3.932195693838e+01 
-4.682332031395e+01 7.337267082558e-02 0.0 
7.337267082558e-02 -8.848371081429e+01 0.0 
0.0 0.0 -4.019210933847e+01 
-4.785711354363e+01 6.580482886331e-02 0.0 
6.580482886331e-02 -8.851321659336e+01 0.0 
0.0 0.0 -4.051109904109e+01 
-4.729104849956e+01 2.347009746439e-01 0.0 
2.347009746439e-01 -8.851134616782e+01 0.0 
0.0 0.0 -4.034071840021e+01 
-4.854779829583e+01 1.950219637592e-01 0.0 
1.950219637592e-01 -8.866579112969e+01 0.0 
0.0 0.0 -4.076407682766e+01 
-4.931467972498e+01 4.267457474032e-01 0.0 
4.267457474032e-01 -8.897169044456e+01 0.0 
0.0 0.0 -4.108591105086e+01 
-4.785032959569e+01 4.598857358130e-01 0.0 
4.598857358130e-01 -8.876436459894e+01 0.0 
0.0 0.0 -4.058440825839e+01 
-4.852999532328e+01 8.778634397430e-01 0.0 
8.778634397430e-01 -8.932482769456e+01 0.0 
0.0 0.0 -4.095644690535e+01 
-5.282757878050e+01 1.882344500444e+00 0.0 
1.882344500444e+00 -9.257556375899e+01 0.0 
0.0 0.0 -4.322094276185e+01 
-4.894788610344e+01 1.441469538188e+00 0.0 
1.441469538188e+00 -8.356593298225e+01 0.0 
0.0 0.0 -3.935414572571e+01 
-4.439997446218e+01 1.279399051876e+00 0.0 
1.279399051876e+00 -8.810726672518e+01 0.0 
0.0 0.0 -3.935217235621e+01 
-4.462277043860e+01 -1.585573074306e+00 0.0 
-1.585573074306e+00 -8.679240583167e+01 0.0 
0.0 0.0 -3.902455288108e+01 
-4.655702874681e+01 -8.960477989275e-02 0.0 
-8.960477989275e-02 -9.261667303250e+01 0.0 
0.0 0.0 -4.135211053379e+01 
-4.256150242764e+01 -2.738197770085e-01 0.0 
-2.738197770085e-01 -8.246677362309e+01 0.0 
0.0 0.0 -3.710848281522e+01 
-4.867285233520e+01 2.265210765909e+00 0.0 
2.265210765909e+00 -8.462856229308e+01 0.0 
0.0 0.0 -3.959042438849e+01 

TENSORS element_materi_strain_total float
-5.726886326870e-04 1.349209265476e-03 0.0 
1.349209265476e-03 6.537061570590e-03 0.0 
0.0 0.0 0.0 
-6.722245652583e-04 1.190901577487e-03 0.0 
1.190901577487e-03 6.441150372065e-03 0.0 
0.0 0.0 0.0 
-1.774431341218e-04 1.170213190286e-03 0.0 
1.170213190286e-03 1.193760658646e-02 0.0 
0.0 0.0 0.0 
-1.498928903613e-04 8.400568861945e-05 0.0 
8.400568861945e-05 1.255137023196e-02 0.0 
0.0 0.0 0.0 
-5.497976851474e-04 9.229985045171e-05 0.0 
9.229985045171e-05 9.879450167919e-03 0.0 
0.0 0.0 0.0 
-1.908276794770e-04 4.880508975947e-04 0.0 
4.880508975947e-04 1.235104212006e-03 0.0 
0.0 0.0 0.0 
-5.033065359795e-04 8.010425455249e-05 0.0 
8.010425455249e-05 9.873708678955e-03 0.0 
0.0 0.0 0.0 
-5.172506024624e-04 1.496540525497e-03 0.0 
1.496540525497e-03 5.926974854477e-03 0.0 
0.0 0.0 0.0 
-5.455522332700e-04 3.207486756090e-06 0.0 
3.207486756090e-06 9.882032422613e-03 0.0 
0.0 0.0 0.0 
-1.444989886600e-04 2.114519890804e-04 0.0 
2.114519890804e-04 1.251819750312e-02 0.0 
0.0 0.0 0.0 
5.763494153574e-04 4.782632766994e-05 0.0 
4.782632766994e-05 4.954602302227e-03 0.0 
0.0 0.0 0.0 
-5.115332995037e-04 1.178571242328e-03 0.0 
1.178571242328e-03 5.653512239725e-03 0.0 
0.0 0.0 0.0 
2.053169377068e-04 1.446230165022e-04 0.0 
1.446230165022e-04 7.703987494417e-03 0.0 
0.0 0.0 0.0 
-6.523072328792e-04 2.168032803802e-04 0.0 
2.168032803802e-04 1.022987149750e-02 0.0 
0.0 0.0 0.0 
1.184375733410e-04 1.222409392731e-04 0.0 
1.222409392731e-04 7.936362280191e-03 0.0 
0.0 0.0 0.0 
-9.251111546515e-05 1.745715453788e-04 0.0 
1.745715453788e-04 1.269344294093e-02 0.0 
0.0 0.0 0.0 
-6.171669605011e-04 8.117210352019e-05 0.0 
8.117210352019e-05 9.791586656160e-03 0.0 
0.0 0.0 0.0 
-1.478385092215e-04 1.390416399354e-04 0.0 
1.390416399354e-04 1.147881243639e-03 0.0 
0.0 0.0 0.0 
1.715264356137e-04 -6.234012305067e-05 0.0 
-6.234012305067e-05 1.393383787592e-03 0.0 
0.0 0.0 0.0 
2.444565330850e-04 -4.173324630875e-06 0.0 
-4.173324630875e-06 1.437132277087e-03 0.0 
0.0 0.0 0.0 
-1.741237337254e-04 1.577753976748e-04 0.0 
1.577753976748e-04 1.252744003825e-02 0.0 
0.0 0.0 0.0 
-7.689990366107e-04 7.991909992063e-04 0.0 
7.991909992063e-04 7.542478005217e-03 0.0 
0.0 0.0 0.0 
-8.774997393320e-04 9.790268203650e-04 0.0 
9.790268203650e-04 7.612119816421e-03 0.0 
0.0 0.0 0.0 
3.392811214122e-04 9.953726821407e-04 0.0 
9.953726821407e-04 7.993494871763e-03 0.0 
0.0 0.0 0.0 
-6.886454656333e-04 3.699871563272e-04 0.0 
3.699871563272e-04 1.054479301043e-02 0.0 
0.0 0.0 0.0 
5.614403531604e-04 1.861932180013e-05 0.0 
1.861932180013e-05 5.262877823361e-03 0.0 
0.0 0.0 0.0 
-7.509341260032e-04 1.814393216428e-04 0.0 
1.814393216428e-04 9.407573948822e-03 0.0 
0.0 0.0 0.0 
-1.555930420505e-05 1.697868177187e-03 0.0 
1.697868177187e-03 1.041907299877e-02 0.0 
0.0 0.0 0.0 
-7.814531706312e-04 3.519562626932e-04 0.0 
3.519562626932e-04 1.054651513223e-02 0.0 
0.0 0.0 0.0 
3.300717090138e-04 1.024468277870e-03 0.0 
1.024468277870e-03 8.127851097725e-03 0.0 
0.0 0.0 0.0 
-5.831786819421e-05 -8.769416435167e-05 0.0 
-8.769416435167e-05 1.211804450197e-03 0.0 
0.0 0.0 0.0 
-2.129970820481e-04 -1.055465990928e-04 0.0 
-1.055465990928e-04 4.921447125423e-04 0.0 
0.0 0.0 0.0 
-3.030696888867e-04 1.198464079728e-03 0.0 
1.198464079728e-03 1.199944625488e-02 0.0 
0.0 0.0 0.0 
4.249762934061e-04 4.463580437035e-06 0.0 
4.463580437035e-06 6.429128161505e-03 0.0 
0.0 0.0 0.0 
2.499047976126e-04 5.939172991796e-04 0.0 
5.939172991796e-04 7.892676719713e-03 0.0 
0.0 0.0 0.0 
1.229169476680e-04 4.890751551861e-04 0.0 
4.890751551861e-04 8.240096213002e-03 0.0 
0.0 0.0 0.0 
9.071459588306e-05 3.283750126655e-04 0.0 
3.283750126655e-04 8.230216786014e-03 0.0 
0.0 0.0 0.0 
2.373867737449e-04 1.446863536561e-03 0.0 
1.446863536561e-03 9.034902636774e-03 0.0 
0.0 0.0 0.0 
-5.078650298110e-04 -3.915158300823e-05 0.0 
-3.915158300823e-05 9.456806429669e-03 0.0 
0.0 0.0 0.0 
-4.874897902810e-04 6.246724822553e-05 0.0 
6.246724822553e-05 9.473321066029e-03 0.0 
0.0 0.0 0.0 
-9.386189255357e-04 6.717921061261e-04 0.0 
6.717921061261e-04 8.314024719087e-03 0.0 
0.0 0.0 0.0 
1.679188459964e-04 7.756335452548e-04 0.0 
7.756335452548e-04 8.142788176983e-03 0.0 
0.0 0.0 0.0 
-3.681201423149e-04 1.362020736380e-03 0.0 
1.362020736380e-03 4.382142677010e-03 0.0 
0.0 0.0 0.0 
-7.983257287592e-04 1.933465652993e-04 0.0 
1.933465652993e-04 9.448127062487e-03 0.0 
0.0 0.0 0.0 
-2.019170145233e-04 2.443942660642e-05 0.0 
2.443942660642e-05 1.234644687255e-02 0.0 
0.0 0.0 0.0 
-4.561727485269e-04 1.207974716303e-03 0.0 
1.207974716303e-03 4.368293120445e-03 0.0 
0.0 0.0 0.0 
-6.503736023877e-05 -1.504172241292e-04 0.0 
-1.504172241292e-04 8.324287107515e-04 0.0 
0.0 0.0 0.0 
-1.333871108741e-04 7.038005563015e-05 0.0 
7.038005563015e-05 1.237468435721e-02 0.0 
0.0 0.0 0.0 
-2.957350119565e-04 -1.236438788840e-04 0.0 
-1.236438788840e-04 5.482931577621e-04 0.0 
0.0 0.0 0.0 
-6.876186057729e-04 1.340483043849e-04 0.0 
1.340483043849e-04 1.005722375524e-02 0.0 
0.0 0.0 0.0 
-9.172932120062e-04 8.122057701250e-04 0.0 
8.122057701250e-04 7.973508291804e-03 0.0 
0.0 0.0 0.0 
2.525274428071e-04 -5.711467052418e-05 0.0 
-5.711467052418e-05 1.767135095223e-03 0.0 
0.0 0.0 0.0 
2.679143410123e-04 -1.183040716540e-04 0.0 
-1.183040716540e-04 1.638289786361e-03 0.0 
0.0 0.0 0.0 
-8.283781809458e-04 5.461239500854e-04 0.0 
5.461239500854e-04 8.148900399292e-03 0.0 
0.0 0.0 0.0 
-1.742314994739e-04 8.846920753433e-04 0.0 
8.846920753433e-04 1.231693777599e-02 0.0 
0.0 0.0 0.0 
3.702788538529e-04 -7.926719766539e-05 0.0 
-7.926719766539e-05 2.363508238659e-03 0.0 
0.0 0.0 0.0 
3.121627398470e-04 1.810893827780e-06 0.0 
1.810893827780e-06 1.824806971450e-03 0.0 
0.0 0.0 0.0 
4.384825853048e-04 7.454609623850e-05 0.0 
7.454609623850e-05 6.431054833318e-03 0.0 
0.0 0.0 0.0 
9.916111231223e-05 -7.735519799319e-05 0.0 
-7.735519799319e-05 1.054150662660e-03 0.0 
0.0 0.0 0.0 
-1.055702648803e-04 1.244498528962e-04 0.0 
1.244498528962e-04 1.269415717238e-02 0.0 
0.0 0.0 0.0 
-6.565653511145e-04 -1.253239731734e-04 0.0 
-1.253239731734e-04 6.346047586161e-04 0.0 
0.0 0.0 0.0 
1.634662985894e-04 1.563069809567e-03 0.0 
1.563069809567e-03 9.411608902214e-03 0.0 
0.0 0.0 0.0 
-2.027361269334e-04 1.515166265318e-03 0.0 
1.515166265318e-03 6.166437676000e-03 0.0 
0.0 0.0 0.0 
2.204696841914e-04 -1.025199872044e-05 0.0 
-1.025199872044e-05 1.395227825778e-03 0.0 
0.0 0.0 0.0 
2.005149381572e-04 1.765492748724e-04 0.0 
1.765492748724e-04 7.713965230932e-03 0.0 
0.0 0.0 0.0 
-8.302628533047e-04 6.462500970669e-04 0.0 
6.462500970669e-04 7.892386588500e-03 0.0 
0.0 0.0 0.0 
-4.094479270407e-04 -5.789760261859e-05 0.0 
-5.789760261859e-05 5.125212454289e-04 0.0 
0.0 0.0 0.0 
-3.184311869977e-04 1.261463216565e-03 0.0 
1.261463216565e-03 1.188242881347e-02 0.0 
0.0 0.0 0.0 
6.572514593017e-05 -2.575430815243e-04 0.0 
-2.575430815243e-04 1.191706180935e-03 0.0 
0.0 0.0 0.0 
-1.064292073555e-04 1.482776255215e-03 0.0 
1.482776255215e-03 1.124740195705e-02 0.0 
0.0 0.0 0.0 
5.487170990437e-04 4.804732854896e-05 0.0 
4.804732854896e-05 5.511022628987e-03 0.0 
0.0 0.0 0.0 
0.0 5.685486239302e-04 0.0 
5.685486239302e-04 1.281514693086e-02 0.0 
0.0 0.0 0.0 
-3.732506162257e-05 1.532982738207e-03 0.0 
1.532982738207e-03 1.013221880591e-02 0.0 
0.0 0.0 0.0 
4.736050588150e-05 2.855301238745e-05 0.0 
2.855301238745e-05 4.814505976731e-04 0.0 
0.0 0.0 0.0 
4.157373090836e-04 -9.602764488175e-06 0.0 
-9.602764488175e-06 2.467566812293e-03 0.0 
0.0 0.0 0.0 
-2.067979779692e-04 3.943746637267e-04 0.0 
3.943746637267e-04 1.253816997650e-02 0.0 
0.0 0.0 0.0 
-3.076425743658e-04 9.641152466998e-04 0.0 
9.641152466998e-04 1.227064415919e-02 0.0 
0.0 0.0 0.0 
-4.024569998187e-04 1.003910020408e-03 0.0 
1.003910020408e-03 3.052121772132e-03 0.0 
0.0 0.0 0.0 
1.649555867869e-04 -9.880885280278e-05 0.0 
-9.880885280278e-05 1.050577605447e-03 0.0 
0.0 0.0 0.0 
-4.099849091479e-04 1.276617590720e-03 0.0 
1.276617590720e-03 3.063681904550e-03 0.0 
0.0 0.0 0.0 
9.653462312986e-05 -1.332870848807e-04 0.0 
-1.332870848807e-04 1.172388144865e-03 0.0 
0.0 0.0 0.0 
-5.975015785291e-04 7.537904750707e-05 0.0 
7.537904750707e-05 9.792074039749e-03 0.0 
0.0 0.0 0.0 
-8.251877524460e-04 1.173871544749e-03 0.0 
1.173871544749e-03 7.192943212470e-03 0.0 
0.0 0.0 0.0 
-7.307357417753e-04 9.058987132602e-04 0.0 
9.058987132602e-04 7.098785899739e-03 0.0 
0.0 0.0 0.0 
-5.752307122360e-04 3.859272288668e-05 0.0 
3.859272288668e-05 1.010500089976e-02 0.0 
0.0 0.0 0.0 
-5.209644267803e-04 9.930988656324e-05 0.0 
9.930988656324e-05 1.010438200533e-02 0.0 
0.0 0.0 0.0 
5.168868950729e-04 2.342617755873e-05 0.0 
2.342617755873e-05 5.708139961703e-03 0.0 
0.0 0.0 0.0 
4.655090884702e-04 3.716209849556e-05 0.0 
3.716209849556e-05 6.223641290656e-03 0.0 
0.0 0.0 0.0 
-6.270584550855e-04 1.054446478221e-03 0.0 
1.054446478221e-03 1.096228898248e-02 0.0 
0.0 0.0 0.0 
-5.930047896866e-04 2.459094501718e-05 0.0 
2.459094501718e-05 9.864919680250e-03 0.0 
0.0 0.0 0.0 
-1.350843644414e-04 -1.037586040696e-04 0.0 
-1.037586040696e-04 4.672684211184e-04 0.0 
0.0 0.0 0.0 
-7.978140318178e-04 2.500566040949e-04 0.0 
2.500566040949e-04 9.814415961811e-03 0.0 
0.0 0.0 0.0 
-3.176783745794e-04 2.962039524859e-05 0.0 
2.962039524859e-05 1.145588034649e-02 0.0 
0.0 0.0 0.0 
-3.528001818190e-04 7.946492274037e-05 0.0 
7.946492274037e-05 1.138868839708e-02 0.0 
0.0 0.0 0.0 
-1.441705765399e-04 6.237513180284e-04 0.0 
6.237513180284e-04 1.279937070489e-02 0.0 
0.0 0.0 0.0 
7.101292790535e-05 1.495056079370e-03 0.0 
1.495056079370e-03 9.464335038169e-03 0.0 
0.0 0.0 0.0 
-6.474924733195e-04 7.375975703714e-05 0.0 
7.375975703714e-05 9.791118755817e-03 0.0 
0.0 0.0 0.0 
2.706220495596e-04 7.629239855306e-04 0.0 
7.629239855306e-04 8.118359419630e-03 0.0 
0.0 0.0 0.0 
-4.165184398928e-04 -1.198347887789e-05 0.0 
-1.198347887789e-05 1.047382527882e-02 0.0 
0.0 0.0 0.0 
-3.741549129673e-04 1.525356515632e-03 0.0 
1.525356515632e-03 6.501342986071e-03 0.0 
0.0 0.0 0.0 
-5.641067643154e-04 1.483024861955e-05 0.0 
1.483024861955e-05 9.673840772492e-03 0.0 
0.0 0.0 0.0 
1.319594163793e-04 1.981133611049e-04 0.0 
1.981133611049e-04 7.931605372131e-03 0.0 
0.0 0.0 0.0 
2.747504262037e-04 1.316301070618e-03 0.0 
1.316301070618e-03 8.091466976921e-03 0.0 
0.0 0.0 0.0 
9.201794257319e-05 1.496568621006e-03 0.0 
1.496568621006e-03 9.422637408011e-03 0.0 
0.0 0.0 0.0 
1.081526176683e-04 1.345957256551e-03 0.0 
1.345957256551e-03 4.845399375471e-03 0.0 
0.0 0.0 0.0 
-2.961646048453e-04 -1.342617161662e-04 0.0 
-1.342617161662e-04 9.273234652207e-04 0.0 
0.0 0.0 0.0 
3.003545854303e-04 5.589457613502e-05 0.0 
5.589457613502e-05 7.177914721537e-03 0.0 
0.0 0.0 0.0 
-3.073843294042e-04 8.543831706913e-05 0.0 
8.543831706913e-05 1.175622925892e-02 0.0 
0.0 0.0 0.0 
-5.744443617165e-04 -1.310812016247e-04 0.0 
-1.310812016247e-04 6.468074353720e-04 0.0 
0.0 0.0 0.0 
1.317239508161e-04 3.097581736490e-04 0.0 
3.097581736490e-04 7.899550575389e-03 0.0 
0.0 0.0 0.0 
-5.709763067687e-04 1.068121444496e-03 0.0 
1.068121444496e-03 1.063866081773e-02 0.0 
0.0 0.0 0.0 
1.847968764790e-05 -5.291970629222e-05 0.0 
-5.291970629222e-05 3.047234900231e-04 0.0 
0.0 0.0 0.0 
3.172258879780e-04 1.414364200625e-03 0.0 
1.414364200625e-03 5.482199462128e-03 0.0 
0.0 0.0 0.0 
-9.077894782273e-04 3.744931136442e-04 0.0 
3.744931136442e-04 9.310198941157e-03 0.0 
0.0 0.0 0.0 
5.162771170257e-04 -5.563664497516e-05 0.0 
-5.563664497516e-05 3.025494422511e-03 0.0 
0.0 0.0 0.0 
-2.255186745940e-04 1.461095819741e-03 0.0 
1.461095819741e-03 5.793918001798e-03 0.0 
0.0 0.0 0.0 
-1.915947461908e-04 1.487074109881e-03 0.0 
1.487074109881e-03 6.168526996895e-03 0.0 
0.0 0.0 0.0 
1.718858264355e-04 5.978490136990e-04 0.0 
5.978490136990e-04 8.041035218218e-03 0.0 
0.0 0.0 0.0 
-4.281290637260e-04 4.614628439450e-05 0.0 
4.614628439450e-05 1.034017815670e-02 0.0 
0.0 0.0 0.0 
-7.453195469909e-06 1.536157348518e-03 0.0 
1.536157348518e-03 5.491459684830e-03 0.0 
0.0 0.0 0.0 
5.128530061116e-05 -2.409767418923e-04 0.0 
-2.409767418923e-04 1.129157958314e-03 0.0 
0.0 0.0 0.0 
-7.864247181876e-04 2.953561530021e-04 0.0 
2.953561530021e-04 9.732473159191e-03 0.0 
0.0 0.0 0.0 
-2.500502362309e-04 4.497828826767e-05 0.0 
4.497828826767e-05 1.178373328428e-02 0.0 
0.0 0.0 0.0 
-3.637688674274e-05 1.424498646860e-03 0.0 
1.424498646860e-03 5.496840385121e-03 0.0 
0.0 0.0 0.0 
-4.033157659927e-04 6.974734233717e-04 0.0 
6.974734233717e-04 1.828349550764e-03 0.0 
0.0 0.0 0.0 
-9.333294054704e-04 4.803202780131e-04 0.0 
4.803202780131e-04 8.817751887868e-03 0.0 
0.0 0.0 0.0 
4.634660359863e-04 -2.551214364848e-05 0.0 
-2.551214364848e-05 3.009920495366e-03 0.0 
0.0 0.0 0.0 
-8.358807765918e-04 4.042722108337e-04 0.0 
4.042722108337e-04 8.629652725333e-03 0.0 
0.0 0.0 0.0 
-1.172274638036e-04 4.986828130079e-04 0.0 
4.986828130079e-04 1.264546657509e-02 0.0 
0.0 0.0 0.0 
-1.709070321708e-04 8.519058812450e-04 0.0 
8.519058812450e-04 1.748569825986e-03 0.0 
0.0 0.0 0.0 
5.715016741557e-04 7.714068197281e-05 0.0 
7.714068197281e-05 5.233741018442e-03 0.0 
0.0 0.0 0.0 
-1.372444183735e-04 1.346400426142e-04 0.0 
1.346400426142e-04 1.255287401037e-02 0.0 
0.0 0.0 0.0 
-6.856148551809e-04 1.183841485330e-03 0.0 
1.183841485330e-03 7.953969103015e-03 0.0 
0.0 0.0 0.0 
-9.400410536995e-04 5.526525343198e-04 0.0 
5.526525343198e-04 8.571523412756e-03 0.0 
0.0 0.0 0.0 
2.970712900092e-04 6.920058443400e-04 0.0 
6.920058443400e-04 7.894643183555e-03 0.0 
0.0 0.0 0.0 
1.921861526009e-04 5.044634900103e-05 0.0 
5.044634900103e-05 7.722079316019e-03 0.0 
0.0 0.0 0.0 
5.308915943736e-04 9.189458276998e-05 0.0 
9.189458276998e-05 5.709991526730e-03 0.0 
0.0 0.0 0.0 
-7.698180517560e-04 1.176039898985e-03 0.0 
1.176039898985e-03 8.391560341543e-03 0.0 
0.0 0.0 0.0 
2.866028684041e-04 1.027493597337e-03 0.0 
1.027493597337e-03 8.397011389952e-03 0.0 
0.0 0.0 0.0 
-7.946823244919e-04 9.797596338517e-04 0.0 
9.797596338517e-04 8.148909692645e-03 0.0 
0.0 0.0 0.0 
-9.973788394657e-05 3.151164553700e-04 0.0 
3.151164553700e-04 1.262045451584e-02 0.0 
0.0 0.0 0.0 
-1.858504893137e-04 1.550865841701e-03 0.0 
1.550865841701e-03 1.133905927832e-02 0.0 
0.0 0.0 0.0 
-7.235697739035e-04 1.790508590839e-04 0.0 
1.790508590839e-04 1.022306801239e-02 0.0 
0.0 0.0 0.0 
-3.982270336618e-04 1.122108111368e-04 0.0 
1.122108111368e-04 1.098130355007e-02 0.0 
0.0 0.0 0.0 
-8.203871667830e-04 1.144768136353e-03 0.0 
1.144768136353e-03 8.141986459586e-03 0.0 
0.0 0.0 0.0 
-8.358197134000e-04 4.569195461286e-04 0.0 
4.569195461286e-04 8.376645933601e-03 0.0 
0.0 0.0 0.0 
-6.398089017259e-04 1.218094997132e-03 0.0 
1.218094997132e-03 8.227316558110e-03 0.0 
0.0 0.0 0.0 
1.732002513017e-04 1.400441585735e-03 0.0 
1.400441585735e-03 5.274800832211e-03 0.0 
0.0 0.0 0.0 
-5.216845954790e-04 -1.535566702585e-06 0.0 
-1.535566702585e-06 9.721690147708e-03 0.0 
0.0 0.0 0.0 
3.255129065154e-04 1.293823674958e-03 0.0 
1.293823674958e-03 5.496945840497e-03 0.0 
0.0 0.0 0.0 
-8.632199364222e-05 -1.329326854606e-04 0.0 
-1.329326854606e-04 4.366181894042e-04 0.0 
0.0 0.0 0.0 
-4.584717623913e-04 9.140310432798e-06 0.0 
9.140310432798e-06 1.002026434181e-02 0.0 
0.0 0.0 0.0 
1.682951549142e-04 -2.958262280996e-05 0.0 
-2.958262280996e-05 1.061366209661e-03 0.0 
0.0 0.0 0.0 
-9.209991564756e-04 4.207670292765e-04 0.0 
4.207670292765e-04 9.061603348313e-03 0.0 
0.0 0.0 0.0 
1.657954611098e-04 9.385216156999e-04 0.0 
9.385216156999e-04 8.335552731213e-03 0.0 
0.0 0.0 0.0 
1.431072971512e-04 1.492699133083e-03 0.0 
1.492699133083e-03 4.834508615674e-03 0.0 
0.0 0.0 0.0 
5.011250489768e-04 7.148375247722e-05 0.0 
7.148375247722e-05 5.951970352009e-03 0.0 
0.0 0.0 0.0 
-5.120078259653e-04 1.263050254775e-03 0.0 
1.263050254775e-03 5.074111635189e-03 0.0 
0.0 0.0 0.0 
3.073600271468e-04 1.407246391359e-03 0.0 
1.407246391359e-03 8.083177972888e-03 0.0 
0.0 0.0 0.0 
-4.742435456393e-04 1.384969553557e-05 0.0 
1.384969553557e-05 9.745292151760e-03 0.0 
0.0 0.0 0.0 
4.615808406387e-04 1.329577790251e-03 0.0 
1.329577790251e-03 4.889729006141e-03 0.0 
0.0 0.0 0.0 
3.920634315528e-04 4.370448087096e-05 0.0 
4.370448087096e-05 6.672532122049e-03 0.0 
0.0 0.0 0.0 
8.484069273607e-05 -1.411572026462e-04 0.0 
-1.411572026462e-04 1.109997772134e-03 0.0 
0.0 0.0 0.0 
3.155177966301e-04 1.365813549185e-04 0.0 
1.365813549185e-04 7.169345875771e-03 0.0 
0.0 0.0 0.0 
-8.586711505087e-04 6.010129000081e-04 0.0 
6.010129000081e-04 9.449584501781e-03 0.0 
0.0 0.0 0.0 
2.192501670251e-04 3.016792362367e-04 0.0 
3.016792362367e-04 7.874575673853e-03 0.0 
0.0 0.0 0.0 
-4.577921867783e-04 8.531837150788e-06 0.0 
8.531837150788e-06 9.712867741442e-03 0.0 
0.0 0.0 0.0 
2.895210230502e-04 1.376246934528e-03 0.0 
1.376246934528e-03 4.596818096054e-03 0.0 
0.0 0.0 0.0 
-8.288074691465e-04 3.299596993528e-04 0.0 
3.299596993528e-04 9.093270195390e-03 0.0 
0.0 0.0 0.0 
5.642585432455e-04 -2.517473167804e-06 0.0 
-2.517473167804e-06 4.988156976066e-03 0.0 
0.0 0.0 0.0 
-4.383322128970e-04 1.447847179099e-03 0.0 
1.447847179099e-03 5.124323083324e-03 0.0 
0.0 0.0 0.0 
4.433723277086e-04 1.168284651482e-03 0.0 
1.168284651482e-03 4.911676858038e-03 0.0 
0.0 0.0 0.0 
-3.922151706102e-04 4.461905055495e-05 0.0 
4.461905055495e-05 1.119013612333e-02 0.0 
0.0 0.0 0.0 
-4.873028101038e-04 3.649714001226e-05 0.0 
3.649714001226e-05 9.722478914874e-03 0.0 
0.0 0.0 0.0 
3.100373600642e-04 1.396842358246e-03 0.0 
1.396842358246e-03 5.026593768088e-03 0.0 
0.0 0.0 0.0 
-8.439261123482e-04 3.571897440672e-04 0.0 
3.571897440672e-04 8.862713627320e-03 0.0 
0.0 0.0 0.0 
-3.175298174889e-04 1.366512161488e-03 0.0 
1.366512161488e-03 1.052924311858e-02 0.0 
0.0 0.0 0.0 
5.168320921800e-04 -3.348688319308e-05 0.0 
-3.348688319308e-05 3.379057646819e-03 0.0 
0.0 0.0 0.0 
2.195447216691e-05 1.614698755219e-03 0.0 
1.614698755219e-03 1.029555587740e-02 0.0 
0.0 0.0 0.0 
-1.845739079334e-04 1.592794486222e-03 0.0 
1.592794486222e-03 1.115128148843e-02 0.0 
0.0 0.0 0.0 
-4.281569492177e-04 1.489667471779e-03 0.0 
1.489667471779e-03 6.218756912561e-03 0.0 
0.0 0.0 0.0 
5.582073628772e-04 -1.104645819297e-05 0.0 
-1.104645819297e-05 3.390910818805e-03 0.0 
0.0 0.0 0.0 
4.185375128400e-04 1.049765368691e-03 0.0 
1.049765368691e-03 7.786160305737e-03 0.0 
0.0 0.0 0.0 
-9.163095206621e-04 9.270094861524e-04 0.0 
9.270094861524e-04 8.277446602662e-03 0.0 
0.0 0.0 0.0 
-3.200286030901e-04 1.364790769087e-03 0.0 
1.364790769087e-03 5.474457683446e-03 0.0 
0.0 0.0 0.0 
-8.489135038123e-04 4.492703219769e-04 0.0 
4.492703219769e-04 9.398546017838e-03 0.0 
0.0 0.0 0.0 
1.950479894519e-04 1.415078299167e-03 0.0 
1.415078299167e-03 5.691490502183e-03 0.0 
0.0 0.0 0.0 
-9.712207286594e-05 2.430470494716e-04 0.0 
2.430470494716e-04 1.262180719191e-02 0.0 
0.0 0.0 0.0 
-6.008247798424e-04 9.192834802936e-04 0.0 
9.192834802936e-04 1.095960676229e-02 0.0 
0.0 0.0 0.0 
3.549931404643e-04 8.830315405150e-05 0.0 
8.830315405150e-05 6.923380556807e-03 0.0 
0.0 0.0 0.0 
-4.402342973240e-04 1.121511185109e-03 0.0 
1.121511185109e-03 3.705887931407e-03 0.0 
0.0 0.0 0.0 
5.328298380876e-04 1.017486361898e-03 0.0 
1.017486361898e-03 4.362501689463e-03 0.0 
0.0 0.0 0.0 
-5.383860997293e-04 1.039437856894e-03 0.0 
1.039437856894e-03 1.096467965554e-02 0.0 
0.0 0.0 0.0 
-8.396032517678e-04 2.367274792274e-04 0.0 
2.367274792274e-04 5.583556399127e-04 0.0 
0.0 0.0 0.0 
-8.459549503402e-04 7.372867406403e-04 0.0 
7.372867406403e-04 8.281059629041e-03 0.0 
0.0 0.0 0.0 
5.512445841902e-04 8.168772606815e-04 0.0 
8.168772606815e-04 6.989553134018e-03 0.0 
0.0 0.0 0.0 
1.431188612933e-05 -1.047409850779e-04 0.0 
-1.047409850779e-04 7.477585854512e-04 0.0 
0.0 0.0 0.0 
-2.542465900254e-04 1.054568574986e-03 0.0 
1.054568574986e-03 1.209237166491e-02 0.0 
0.0 0.0 0.0 
-6.943344765051e-04 5.735757733588e-04 0.0 
5.735757733588e-04 1.079707924328e-02 0.0 
0.0 0.0 0.0 
7.117341896556e-04 5.761560838643e-05 0.0 
5.761560838643e-05 3.222992417808e-03 0.0 
0.0 0.0 0.0 
6.254185400398e-04 9.289804098555e-04 0.0 
9.289804098555e-04 6.981845015218e-03 0.0 
0.0 0.0 0.0 
-8.047088013838e-04 3.361505576400e-04 0.0 
3.361505576400e-04 1.006465605522e-02 0.0 
0.0 0.0 0.0 
-7.503112187414e-04 2.831787394879e-04 0.0 
2.831787394879e-04 1.042443786243e-02 0.0 
0.0 0.0 0.0 
2.646037555567e-04 9.477378807379e-04 0.0 
9.477378807379e-04 8.108919629893e-03 0.0 
0.0 0.0 0.0 
4.952331753387e-04 -8.103841817226e-05 0.0 
-8.103841817226e-05 2.358598605204e-03 0.0 
0.0 0.0 0.0 
-4.894586389669e-04 1.341040214744e-03 0.0 
1.341040214744e-03 8.023226718273e-03 0.0 
0.0 0.0 0.0 
-8.396097909987e-04 7.589795484098e-04 0.0 
7.589795484098e-04 9.461028699699e-03 0.0 
0.0 0.0 0.0 
-7.362413483099e-04 5.554182261550e-04 0.0 
5.554182261550e-04 1.103882079289e-02 0.0 
0.0 0.0 0.0 
-9.285464631295e-04 6.084319447015e-04 0.0 
6.084319447015e-04 9.715263743894e-03 0.0 
0.0 0.0 0.0 
-9.409187045432e-04 5.190005458220e-04 0.0 
5.190005458220e-04 9.398942707067e-03 0.0 
0.0 0.0 0.0 
4.298797624918e-04 1.204905952413e-03 0.0 
1.204905952413e-03 7.143558935748e-03 0.0 
0.0 0.0 0.0 
-4.645145329348e-04 1.269570141881e-03 0.0 
1.269570141881e-03 1.057238681773e-02 0.0 
0.0 0.0 0.0 
-6.198736365769e-04 2.279627298469e-04 0.0 
2.279627298469e-04 8.198869305092e-04 0.0 
0.0 0.0 0.0 
-4.254306475668e-04 1.394974903117e-03 0.0 
1.394974903117e-03 6.207154806209e-03 0.0 
0.0 0.0 0.0 
-4.222483445685e-04 1.427680955481e-03 0.0 
1.427680955481e-03 6.517578833317e-03 0.0 
0.0 0.0 0.0 
-6.161133401071e-04 1.311772062964e-03 0.0 
1.311772062964e-03 8.214466194937e-03 0.0 
0.0 0.0 0.0 
-6.467966921676e-04 8.960783918814e-04 0.0 
8.960783918814e-04 1.124686090876e-02 0.0 
0.0 0.0 0.0 
2.182532222443e-04 4.939143392588e-04 0.0 
4.939143392588e-04 1.592511917902e-03 0.0 
0.0 0.0 0.0 
6.096036945265e-04 7.075006184760e-04 0.0 
7.075006184760e-04 6.604797158539e-03 0.0 
0.0 0.0 0.0 
-4.963561996925e-04 -2.016856938063e-05 0.0 
-2.016856938063e-05 9.693423881076e-03 0.0 
0.0 0.0 0.0 
5.689734636112e-04 1.202282330728e-03 0.0 
1.202282330728e-03 4.336300673938e-03 0.0 
0.0 0.0 0.0 
6.535989791041e-04 6.016421434549e-04 0.0 
6.016421434549e-04 6.243261468156e-03 0.0 
0.0 0.0 0.0 
-7.509121164995e-05 -1.382980847813e-04 0.0 
-1.382980847813e-04 5.177305594397e-04 0.0 
0.0 0.0 0.0 
-6.253389787364e-04 6.678226121518e-04 0.0 
6.678226121518e-04 1.113015754407e-02 0.0 
0.0 0.0 0.0 
-1.368155258709e-04 -5.708184754497e-05 0.0 
-5.708184754497e-05 4.108766184565e-04 0.0 
0.0 0.0 0.0 
8.837015837937e-05 -9.325933587607e-05 0.0 
-9.325933587607e-05 7.410269879344e-04 0.0 
0.0 0.0 0.0 
-3.572328056279e-04 1.332747728973e-03 0.0 
1.332747728973e-03 3.716521771026e-03 0.0 
0.0 0.0 0.0 
3.970263264799e-04 -1.176011719941e-04 0.0 
-1.176011719941e-04 1.979384669846e-03 0.0 
0.0 0.0 0.0 
-6.582463946579e-04 6.403029685362e-04 0.0 
6.403029685362e-04 1.137286028795e-02 0.0 
0.0 0.0 0.0 
3.071060565201e-04 -2.204428366937e-04 0.0 
-2.204428366937e-04 1.864320142407e-03 0.0 
0.0 0.0 0.0 
1.638391250491e-04 1.181574455176e-03 0.0 
1.181574455176e-03 3.165924124964e-03 0.0 
0.0 0.0 0.0 
2.009667718841e-04 -2.143233795004e-04 0.0 
-2.143233795004e-04 1.500384793101e-03 0.0 
0.0 0.0 0.0 
1.408697799643e-04 -1.342173141334e-04 0.0 
-1.342173141334e-04 1.254735332653e-03 0.0 
0.0 0.0 0.0 
5.541133287812e-04 1.022689930686e-03 0.0 
1.022689930686e-03 7.360349840112e-03 0.0 
0.0 0.0 0.0 
-9.413668190507e-04 6.756961257316e-04 0.0 
6.756961257316e-04 9.446715524042e-03 0.0 
0.0 0.0 0.0 
2.213818023744e-04 2.617559618146e-04 0.0 
2.617559618146e-04 7.718645502905e-03 0.0 
0.0 0.0 0.0 
-6.160589281597e-04 1.347866208229e-04 0.0 
1.347866208229e-04 3.750650577801e-04 0.0 
0.0 0.0 0.0 
3.200715713605e-04 1.227404688234e-03 0.0 
1.227404688234e-03 3.557327436246e-03 0.0 
0.0 0.0 0.0 
5.736498041871e-04 1.227905129013e-03 0.0 
1.227905129013e-03 4.814104563712e-03 0.0 
0.0 0.0 0.0 
-8.012368625385e-04 8.719889711392e-04 0.0 
8.719889711392e-04 7.911806156448e-03 0.0 
0.0 0.0 0.0 
6.806483913961e-04 8.141758170783e-04 0.0 
8.141758170783e-04 6.597395424940e-03 0.0 
0.0 0.0 0.0 
2.074885077199e-04 3.772319008111e-04 0.0 
3.772319008111e-04 7.930126987264e-03 0.0 
0.0 0.0 0.0 
-7.405089591040e-04 8.128385413782e-04 0.0 
8.128385413782e-04 1.093154832182e-02 0.0 
0.0 0.0 0.0 
5.180230662856e-04 7.730924183682e-04 0.0 
7.730924183682e-04 3.389634017550e-03 0.0 
0.0 0.0 0.0 
4.859082251358e-04 9.336926736575e-04 0.0 
9.336926736575e-04 7.360962975984e-03 0.0 
0.0 0.0 0.0 
5.449374927780e-04 7.222753608701e-05 0.0 
7.222753608701e-05 5.461551534602e-03 0.0 
0.0 0.0 0.0 
-7.165705713043e-04 1.200137474732e-03 0.0 
1.200137474732e-03 8.657587063266e-03 0.0 
0.0 0.0 0.0 
-6.780046919673e-04 6.839403981015e-04 0.0 
6.839403981015e-04 1.087481282359e-02 0.0 
0.0 0.0 0.0 
1.631852331530e-05 1.541083115514e-03 0.0 
1.541083115514e-03 9.813793364936e-03 0.0 
0.0 0.0 0.0 
5.477573940746e-04 1.065123239921e-03 0.0 
1.065123239921e-03 4.838168287920e-03 0.0 
0.0 0.0 0.0 
7.808393969921e-05 1.131204071278e-03 0.0 
1.131204071278e-03 3.797755838932e-03 0.0 
0.0 0.0 0.0 
-8.932438508233e-04 6.951985971952e-04 0.0 
6.951985971952e-04 1.002853991049e-02 0.0 
0.0 0.0 0.0 
-1.093266282970e-04 5.706114588248e-04 0.0 
5.706114588248e-04 1.283995132851e-02 0.0 
0.0 0.0 0.0 
-4.463270983091e-04 1.390452821631e-03 0.0 
1.390452821631e-03 8.016828467121e-03 0.0 
0.0 0.0 0.0 
6.050165515066e-04 1.044043035765e-03 0.0 
1.044043035765e-03 5.727666176699e-03 0.0 
0.0 0.0 0.0 
-4.753036599529e-04 1.951786199450e-05 0.0 
1.951786199450e-05 1.010619135882e-02 0.0 
0.0 0.0 0.0 
-4.104841605324e-05 -2.373993334209e-04 0.0 
-2.373993334209e-04 1.112649632663e-03 0.0 
0.0 0.0 0.0 
-8.430805597872e-04 5.507465132017e-04 0.0 
5.507465132017e-04 9.723836209351e-03 0.0 
0.0 0.0 0.0 
5.889966633252e-04 9.926473009277e-04 0.0 
9.926473009277e-04 3.356112153786e-03 0.0 
0.0 0.0 0.0 
4.078422967575e-04 5.589544093747e-04 0.0 
5.589544093747e-04 2.035381963762e-03 0.0 
0.0 0.0 0.0 
1.145316734898e-04 -1.849683610605e-04 0.0 
-1.849683610605e-04 1.217288172691e-03 0.0 
0.0 0.0 0.0 
-5.654628984909e-04 6.497653382658e-04 0.0 
6.497653382658e-04 1.137125684224e-02 0.0 
0.0 0.0 0.0 
-9.050306894004e-04 7.593146017263e-04 0.0 
7.593146017263e-04 9.746656937227e-03 0.0 
0.0 0.0 0.0 
1.542805398365e-04 1.477099283752e-03 0.0 
1.477099283752e-03 5.262597752306e-03 0.0 
0.0 0.0 0.0 
-5.885912192533e-04 6.148154622253e-04 0.0 
6.148154622253e-04 1.160663577932e-02 0.0 
0.0 0.0 0.0 
-6.899884029393e-04 9.316035943489e-04 0.0 
9.316035943489e-04 1.095802266107e-02 0.0 
0.0 0.0 0.0 
-7.867341972829e-04 1.091599292113e-03 0.0 
1.091599292113e-03 9.051278723981e-03 0.0 
0.0 0.0 0.0 
1.485146009497e-04 4.727548666809e-04 0.0 
4.727548666809e-04 7.975341213797e-03 0.0 
0.0 0.0 0.0 
6.836550963401e-04 1.094074253547e-03 0.0 
1.094074253547e-03 5.700817154022e-03 0.0 
0.0 0.0 0.0 
-8.308025237959e-04 9.919559042191e-04 0.0 
9.919559042191e-04 9.412080564643e-03 0.0 
0.0 0.0 0.0 
1.941484784735e-04 1.400633522310e-03 0.0 
1.400633522310e-03 6.115519587818e-03 0.0 
0.0 0.0 0.0 
5.717609890559e-04 1.078034075669e-03 0.0 
1.078034075669e-03 6.196815552476e-03 0.0 
0.0 0.0 0.0 
5.680189927633e-04 6.258052679831e-04 0.0 
6.258052679831e-04 2.452902804514e-03 0.0 
0.0 0.0 0.0 
-7.588429657611e-04 1.902042512974e-04 0.0 
1.902042512974e-04 9.798302717615e-03 0.0 
0.0 0.0 0.0 
6.321009194317e-04 9.624171532780e-04 0.0 
9.624171532780e-04 4.789352002745e-03 0.0 
0.0 0.0 0.0 
6.226228744994e-04 1.616488302077e-04 0.0 
1.616488302077e-04 2.710260267212e-03 0.0 
0.0 0.0 0.0 
-6.473167151084e-04 8.018447167777e-04 0.0 
8.018447167777e-04 1.093279493293e-02 0.0 
0.0 0.0 0.0 
-1.058040303354e-03 4.676834898407e-05 0.0 
4.676834898407e-05 5.951791033747e-04 0.0 
0.0 0.0 0.0 
-9.078943085511e-04 5.564634429691e-04 0.0 
5.564634429691e-04 9.973395400022e-03 0.0 
0.0 0.0 0.0 
6.803806846296e-04 8.743437888615e-04 0.0 
8.743437888615e-04 3.334751962269e-03 0.0 
0.0 0.0 0.0 
2.627239586459e-04 1.017709171330e-03 0.0 
1.017709171330e-03 3.586739502691e-03 0.0 
0.0 0.0 0.0 
4.613083474436e-04 3.907715901771e-04 0.0 
3.907715901771e-04 2.493555471117e-03 0.0 
0.0 0.0 0.0 
-7.836645530944e-04 7.864310071741e-04 0.0 
7.864310071741e-04 1.005576342389e-02 0.0 
0.0 0.0 0.0 
-1.103437559604e-04 -2.019250151897e-04 0.0 
-2.019250151897e-04 7.856349263644e-04 0.0 
0.0 0.0 0.0 
-5.930631933266e-04 1.292629206722e-03 0.0 
1.292629206722e-03 7.168201217991e-03 0.0 
0.0 0.0 0.0 
6.447845702231e-04 1.127042558441e-03 0.0 
1.127042558441e-03 6.178345089032e-03 0.0 
0.0 0.0 0.0 
-8.313726346698e-04 6.952637820154e-04 0.0 
6.952637820154e-04 9.757195498100e-03 0.0 
0.0 0.0 0.0 
-7.623544252082e-04 2.674327818064e-04 0.0 
2.674327818064e-04 1.011350176522e-02 0.0 
0.0 0.0 0.0 
5.159335523919e-05 3.604750645282e-04 0.0 
3.604750645282e-04 1.275312306046e-03 0.0 
0.0 0.0 0.0 
7.279532324735e-04 3.500926214467e-04 0.0 
3.500926214467e-04 2.680598078681e-03 0.0 
0.0 0.0 0.0 
5.463221019983e-04 3.067886388031e-05 0.0 
3.067886388031e-05 2.402732691996e-03 0.0 
0.0 0.0 0.0 
-6.081473564721e-04 1.442290125082e-03 0.0 
1.442290125082e-03 6.910244250899e-03 0.0 
0.0 0.0 0.0 
-7.751362159241e-04 6.906315320212e-04 0.0 
6.906315320212e-04 1.087441169424e-02 0.0 
0.0 0.0 0.0 
-5.588436818461e-04 1.445757122880e-03 0.0 
1.445757122880e-03 7.145091577380e-03 0.0 
0.0 0.0 0.0 
7.375404424474e-04 9.788007331786e-04 0.0 
9.788007331786e-04 4.270620376904e-03 0.0 
0.0 0.0 0.0 
6.640971550300e-04 1.088728069595e-03 0.0 
1.088728069595e-03 4.288162036122e-03 0.0 
0.0 0.0 0.0 
7.179282443448e-05 2.369820064184e-04 0.0 
2.369820064184e-04 1.685355529197e-03 0.0 
0.0 0.0 0.0 
3.008784047838e-04 1.414656481610e-03 0.0 
1.414656481610e-03 5.940096363745e-03 0.0 
0.0 0.0 0.0 
-1.248657640273e-04 8.963695970737e-04 0.0 
8.963695970737e-04 2.807097636455e-03 0.0 
0.0 0.0 0.0 
-1.670004046815e-04 1.007827483862e-03 0.0 
1.007827483862e-03 1.254723579941e-02 0.0 
0.0 0.0 0.0 
-1.836021337978e-04 1.199649708660e-03 0.0 
1.199649708660e-03 1.233654137055e-02 0.0 
0.0 0.0 0.0 
-3.269911137642e-04 1.414799306399e-03 0.0 
1.414799306399e-03 7.827385475103e-03 0.0 
0.0 0.0 0.0 
5.995018749658e-04 8.114269772268e-04 0.0 
8.114269772268e-04 2.881749633851e-03 0.0 
0.0 0.0 0.0 
2.776711713426e-04 8.227565129011e-04 0.0 
8.227565129011e-04 3.034551047652e-03 0.0 
0.0 0.0 0.0 
-7.076101762854e-04 1.061957521344e-03 0.0 
1.061957521344e-03 9.346863514128e-03 0.0 
0.0 0.0 0.0 
4.085828173648e-04 6.983930355628e-04 0.0 
6.983930355628e-04 2.951825780879e-03 0.0 
0.0 0.0 0.0 
6.536006112994e-04 2.108022130167e-04 0.0 
2.108022130167e-04 2.374125109524e-03 0.0 
0.0 0.0 0.0 
-7.167027077185e-04 1.104333312885e-03 0.0 
1.104333312885e-03 8.674623431781e-03 0.0 
0.0 0.0 0.0 
-1.988684098979e-04 3.432826761288e-04 0.0 
3.432826761288e-04 1.262226867939e-02 0.0 
0.0 0.0 0.0 
6.441561453818e-04 1.045811206958e-03 0.0 
1.045811206958e-03 3.816368141707e-03 0.0 
0.0 0.0 0.0 
4.390742944298e-04 1.303800462677e-03 0.0 
1.303800462677e-03 7.131638655574e-03 0.0 
0.0 0.0 0.0 
1.585225693015e-04 1.026867644509e-03 0.0 
1.026867644509e-03 2.604479353726e-03 0.0 
0.0 0.0 0.0 
1.604865688585e-04 1.240092821864e-03 0.0 
1.240092821864e-03 9.022094676361e-03 0.0 
0.0 0.0 0.0 
4.924699245714e-04 9.373645105069e-04 0.0 
9.373645105069e-04 2.912683186734e-03 0.0 
0.0 0.0 0.0 
-5.902683898857e-04 1.244630606249e-03 0.0 
1.244630606249e-03 8.511733575700e-03 0.0 
0.0 0.0 0.0 
3.098745807268e-04 3.945774807713e-04 0.0 
3.945774807713e-04 1.660197291279e-03 0.0 
0.0 0.0 0.0 
7.820321687575e-04 8.247765766841e-04 0.0 
8.247765766841e-04 5.878268242481e-03 0.0 
0.0 0.0 0.0 
6.608694091537e-04 1.118500137933e-03 0.0 
1.118500137933e-03 4.764298079483e-03 0.0 
0.0 0.0 0.0 
6.802238965060e-04 1.634092901152e-04 0.0 
1.634092901152e-04 2.504025862715e-03 0.0 
0.0 0.0 0.0 
-9.032822271707e-04 8.396786480819e-04 0.0 
8.396786480819e-04 9.450941577156e-03 0.0 
0.0 0.0 0.0 
-1.357320514828e-04 1.502585914324e-03 0.0 
1.502585914324e-03 1.191918110253e-02 0.0 
0.0 0.0 0.0 
7.229119739631e-04 9.301990128989e-04 0.0 
9.301990128989e-04 3.799407597000e-03 0.0 
0.0 0.0 0.0 
6.218562609359e-04 1.010147951563e-03 0.0 
1.010147951563e-03 6.194913587856e-03 0.0 
0.0 0.0 0.0 
9.611063107862e-05 7.632421766884e-04 0.0 
7.632421766884e-04 2.640779313249e-03 0.0 
0.0 0.0 0.0 
-5.799008019268e-04 2.962015231129e-04 0.0 
2.962015231129e-04 1.084382162520e-02 0.0 
0.0 0.0 0.0 
7.236790103948e-04 7.017718645997e-04 0.0 
7.017718645997e-04 6.230335542353e-03 0.0 
0.0 0.0 0.0 
1.141088738232e-05 1.285500827187e-03 0.0 
1.285500827187e-03 4.445460825622e-03 0.0 
0.0 0.0 0.0 
-6.398497872083e-04 1.973592274578e-04 0.0 
1.973592274578e-04 1.068171612796e-02 0.0 
0.0 0.0 0.0 
-7.701301365182e-05 1.727326297690e-03 0.0 
1.727326297690e-03 1.133555622756e-02 0.0 
0.0 0.0 0.0 
6.312533587203e-04 7.677978037715e-04 0.0 
7.677978037715e-04 6.735441355695e-03 0.0 
0.0 0.0 0.0 
-1.622124770365e-04 1.407896477558e-03 0.0 
1.407896477558e-03 1.207541122504e-02 0.0 
0.0 0.0 0.0 
-7.024801854613e-04 2.660477006825e-04 0.0 
2.660477006825e-04 1.062858656124e-02 0.0 
0.0 0.0 0.0 
-6.394925676102e-04 1.089854618769e-03 0.0 
1.089854618769e-03 1.063496950901e-02 0.0 
0.0 0.0 0.0 
-1.682494818495e-04 1.196529445643e-03 0.0 
1.196529445643e-03 4.063523081475e-03 0.0 
0.0 0.0 0.0 
-9.409368747626e-04 7.623294829274e-04 0.0 
7.623294829274e-04 9.159489015232e-03 0.0 
0.0 0.0 0.0 
-7.876055661439e-04 9.169517084516e-04 0.0 
9.169517084516e-04 9.422559542388e-03 0.0 
0.0 0.0 0.0 
-8.517099984325e-04 9.050487699067e-04 0.0 
9.050487699067e-04 9.742329547537e-03 0.0 
0.0 0.0 0.0 
-2.973165931438e-04 1.454441054380e-03 0.0 
1.454441054380e-03 7.487899535855e-03 0.0 
0.0 0.0 0.0 
-3.055271426378e-05 1.790884068778e-03 0.0 
1.790884068778e-03 1.090583347264e-02 0.0 
0.0 0.0 0.0 
-7.380973583402e-04 3.866936999681e-04 0.0 
3.866936999681e-04 1.035450289830e-02 0.0 
0.0 0.0 0.0 
-9.221945838822e-04 4.667099925583e-04 0.0 
4.667099925583e-04 9.647390525418e-03 0.0 
0.0 0.0 0.0 
6.209749265857e-04 9.088584856634e-04 0.0 
9.088584856634e-04 4.315657184481e-03 0.0 
0.0 0.0 0.0 
2.765386870822e-04 -1.318306902334e-04 0.0 
-1.318306902334e-04 1.617533265002e-03 0.0 
0.0 0.0 0.0 
-9.557612945804e-04 5.841048288687e-04 0.0 
5.841048288687e-04 9.133490816214e-03 0.0 
0.0 0.0 0.0 
2.522369816249e-04 1.358776568605e-03 0.0 
1.358776568605e-03 4.166125417690e-03 0.0 
0.0 0.0 0.0 
-4.765147155050e-04 3.680157352559e-06 0.0 
3.680157352559e-06 9.734176447545e-03 0.0 
0.0 0.0 0.0 
5.779377866595e-04 -1.404512556558e-06 0.0 
-1.404512556558e-06 2.529052955385e-03 0.0 
0.0 0.0 0.0 
5.854857777017e-04 8.443103856974e-04 0.0 
8.443103856974e-04 3.845419327057e-03 0.0 
0.0 0.0 0.0 
-5.953144553967e-04 7.797858018048e-04 0.0 
7.797858018048e-04 1.119935259072e-02 0.0 
0.0 0.0 0.0 
2.072936230078e-04 1.196515413226e-03 0.0 
1.196515413226e-03 4.187445672393e-03 0.0 
0.0 0.0 0.0 
-8.308772652845e-04 8.398071752731e-04 0.0 
8.398071752731e-04 9.144582602554e-03 0.0 
0.0 0.0 0.0 
6.868539802023e-04 1.057172374069e-03 0.0 
1.057172374069e-03 6.192430860843e-03 0.0 
0.0 0.0 0.0 
8.320699069950e-04 3.567809759275e-04 0.0 
3.567809759275e-04 4.630333523365e-03 0.0 
0.0 0.0 0.0 
6.108709389552e-05 1.762165811941e-03 0.0 
1.762165811941e-03 1.024960138216e-02 0.0 
0.0 0.0 0.0 
-9.426077411244e-04 7.845577779073e-04 0.0 
7.845577779073e-04 8.582901747380e-03 0.0 
0.0 0.0 0.0 
6.913153195116e-04 4.264480612793e-04 0.0 
4.264480612793e-04 2.577941652191e-03 0.0 
0.0 0.0 0.0 
6.330335279419e-04 -4.467060904467e-05 0.0 
-4.467060904467e-05 3.091691505916e-03 0.0 
0.0 0.0 0.0 
-3.275604767117e-04 1.426768110629e-03 0.0 
1.426768110629e-03 5.465598212647e-03 0.0 
0.0 0.0 0.0 
6.123747061126e-05 1.423015139631e-03 0.0 
1.423015139631e-03 4.430180084918e-03 0.0 
0.0 0.0 0.0 
-5.830844158362e-04 1.011796133364e-03 0.0 
1.011796133364e-03 1.126488544183e-02 0.0 
0.0 0.0 0.0 
-6.628186445102e-04 1.215056504092e-03 0.0 
1.215056504092e-03 8.939596447995e-03 0.0 
0.0 0.0 0.0 
-8.665554993320e-04 1.087199797539e-03 0.0 
1.087199797539e-03 7.894044617916e-03 0.0 
0.0 0.0 0.0 
-8.574951212830e-04 7.472852287660e-04 0.0 
7.472852287660e-04 8.871945879393e-03 0.0 
0.0 0.0 0.0 
1.376126341630e-04 1.519380213118e-03 0.0 
1.519380213118e-03 9.456153124195e-03 0.0 
0.0 0.0 0.0 
2.085930610594e-04 1.411850681271e-03 0.0 
1.411850681271e-03 9.048392791433e-03 0.0 
0.0 0.0 0.0 
-4.954972806439e-04 1.006596557987e-03 0.0 
1.006596557987e-03 1.126498009888e-02 0.0 
0.0 0.0 0.0 
-7.227397580731e-04 6.653163166034e-04 0.0 
6.653163166034e-04 1.113133091925e-02 0.0 
0.0 0.0 0.0 
7.744072403033e-04 2.697184848927e-04 0.0 
2.697184848927e-04 4.498923010716e-03 0.0 
0.0 0.0 0.0 
-3.540772548126e-04 1.503587570259e-03 0.0 
1.503587570259e-03 6.830575314629e-03 0.0 
0.0 0.0 0.0 
5.071367483123e-04 5.799256824376e-04 0.0 
5.799256824376e-04 2.918978169907e-03 0.0 
0.0 0.0 0.0 
6.018444287477e-04 6.620799960033e-04 0.0 
6.620799960033e-04 3.367690704585e-03 0.0 
0.0 0.0 0.0 
-5.674899146157e-04 1.309479400130e-03 0.0 
1.309479400130e-03 8.502047524843e-03 0.0 
0.0 0.0 0.0 
7.291990181189e-04 7.670484031995e-04 0.0 
7.670484031995e-04 5.822320029047e-03 0.0 
0.0 0.0 0.0 
6.267501983990e-04 -2.114977944873e-05 0.0 
-2.114977944873e-05 3.734423014009e-03 0.0 
0.0 0.0 0.0 
-4.942565345354e-04 8.708993587887e-04 0.0 
8.708993587887e-04 1.151363568006e-02 0.0 
0.0 0.0 0.0 
5.849388511123e-04 2.204932180122e-04 0.0 
2.204932180122e-04 2.610615833527e-03 0.0 
0.0 0.0 0.0 
-1.328403473476e-04 1.477015440136e-03 0.0 
1.477015440136e-03 6.915767205070e-03 0.0 
0.0 0.0 0.0 
-7.627456363497e-04 1.002350077949e-03 0.0 
1.002350077949e-03 9.068210884578e-03 0.0 
0.0 0.0 0.0 
-1.520937782449e-04 1.493072662577e-03 0.0 
1.493072662577e-03 6.549844735866e-03 0.0 
0.0 0.0 0.0 
-1.790113875468e-04 1.312437975183e-03 0.0 
1.312437975183e-03 1.221352125057e-02 0.0 
0.0 0.0 0.0 
-1.680166481438e-04 1.111954429880e-03 0.0 
1.111954429880e-03 1.243861931068e-02 0.0 
0.0 0.0 0.0 
-3.372228450730e-04 1.029640180535e-03 0.0 
1.029640180535e-03 1.209651510921e-02 0.0 
0.0 0.0 0.0 
7.635373208346e-04 3.462731518776e-04 0.0 
3.462731518776e-04 4.953172467977e-03 0.0 
0.0 0.0 0.0 
-4.974647451097e-04 6.330425580280e-04 0.0 
6.330425580280e-04 1.160393303501e-02 0.0 
0.0 0.0 0.0 
1.264694178955e-04 1.313975428396e-03 0.0 
1.313975428396e-03 3.776375787615e-03 0.0 
0.0 0.0 0.0 
6.593864717157e-04 7.378939370966e-04 0.0 
7.378939370966e-04 3.829303024015e-03 0.0 
0.0 0.0 0.0 
2.993427806470e-04 3.112267044555e-04 0.0 
3.112267044555e-04 2.078325781347e-03 0.0 
0.0 0.0 0.0 
-7.127497196259e-04 1.300108370905e-03 0.0 
1.300108370905e-03 7.680615159243e-03 0.0 
0.0 0.0 0.0 
-7.163015710968e-04 1.422158424309e-04 0.0 
1.422158424309e-04 9.810360309182e-03 0.0 
0.0 0.0 0.0 
-6.252640537016e-04 2.927486942548e-04 0.0 
2.927486942548e-04 1.062589424824e-02 0.0 
0.0 0.0 0.0 
2.792386695660e-04 1.198742776137e-03 0.0 
1.198742776137e-03 8.611130693730e-03 0.0 
0.0 0.0 0.0 
-4.586611182436e-04 1.149931551763e-03 0.0 
1.149931551763e-03 1.094211002772e-02 0.0 
0.0 0.0 0.0 
-8.118389115391e-04 6.486097867618e-04 0.0 
6.486097867618e-04 1.003517523081e-02 0.0 
0.0 0.0 0.0 
-7.298364003328e-04 9.853298293131e-04 0.0 
9.853298293131e-04 9.710503302814e-03 0.0 
0.0 0.0 0.0 
4.978750869291e-04 4.527731086935e-04 0.0 
4.527731086935e-04 2.072659993374e-03 0.0 
0.0 0.0 0.0 
-2.008721984421e-04 -1.691081053246e-04 0.0 
-1.691081053246e-04 8.369539015602e-04 0.0 
0.0 0.0 0.0 
4.487124706718e-04 1.335301639070e-03 0.0 
1.335301639070e-03 5.367516551926e-03 0.0 
0.0 0.0 0.0 
-1.214632022286e-04 1.454029180554e-03 0.0 
1.454029180554e-03 7.280493010350e-03 0.0 
0.0 0.0 0.0 
3.271986711355e-04 1.308331958334e-03 0.0 
1.308331958334e-03 5.955147328040e-03 0.0 
0.0 0.0 0.0 
-4.487219235303e-04 1.062587765890e-03 0.0 
1.062587765890e-03 1.835705636046e-03 0.0 
0.0 0.0 0.0 
-4.502115663441e-04 3.538030715812e-05 0.0 
3.538030715812e-05 1.008875742733e-02 0.0 
0.0 0.0 0.0 
1.856531661519e-04 -2.381698010639e-04 0.0 
-2.381698010639e-04 1.495689515685e-03 0.0 
0.0 0.0 0.0 
4.708587030600e-04 1.114193159704e-03 0.0 
1.114193159704e-03 3.425532656915e-03 0.0 
0.0 0.0 0.0 
0.0 1.228666690048e-03 0.0 
1.228666690048e-03 9.091320855854e-03 0.0 
0.0 0.0 0.0 
4.812924345368e-04 1.157099569194e-03 0.0 
1.157099569194e-03 7.141311225346e-03 0.0 
0.0 0.0 0.0 
-8.331624461003e-04 4.178148549815e-04 0.0 
4.178148549815e-04 9.653034400823e-03 0.0 
0.0 0.0 0.0 
1.154729302628e-04 1.559206494693e-07 0.0 
1.559206494693e-07 1.044796223422e-03 0.0 
0.0 0.0 0.0 
-3.575931368058e-04 1.430272183877e-03 0.0 
1.430272183877e-03 7.491499472122e-03 0.0 
0.0 0.0 0.0 
4.484311731294e-04 1.198421487516e-03 0.0 
1.198421487516e-03 5.386779873245e-03 0.0 
0.0 0.0 0.0 
-8.539243740067e-04 8.326838222300e-04 0.0 
8.326838222300e-04 1.005017300387e-02 0.0 
0.0 0.0 0.0 
-1.103634146620e-04 1.596092205429e-03 0.0 
1.596092205429e-03 1.173347112055e-02 0.0 
0.0 0.0 0.0 
-8.621733634724e-04 6.672170060294e-04 0.0 
6.672170060294e-04 9.169969285284e-03 0.0 
0.0 0.0 0.0 
-7.298243806494e-04 1.124022189600e-03 0.0 
1.124022189600e-03 9.338980326641e-03 0.0 
0.0 0.0 0.0 
6.868032154901e-04 6.414556748254e-05 0.0 
6.414556748254e-05 3.721322137626e-03 0.0 
0.0 0.0 0.0 
-5.360816094832e-04 7.604014504100e-04 0.0 
7.604014504100e-04 1.145469634794e-02 0.0 
0.0 0.0 0.0 
8.111588765380e-04 4.273529131726e-04 0.0 
4.273529131726e-04 5.089318958503e-03 0.0 
0.0 0.0 0.0 
-1.109124324923e-04 1.667607974529e-03 0.0 
1.667607974529e-03 1.154249474909e-02 0.0 
0.0 0.0 0.0 
0.0 1.301209997959e-03 0.0 
1.301209997959e-03 1.214377635187e-02 0.0 
0.0 0.0 0.0 
0.0 9.137971141041e-04 0.0 
9.137971141041e-04 1.259964151166e-02 0.0 
0.0 0.0 0.0 
0.0 1.099788960049e-03 0.0 
1.099788960049e-03 1.239085414935e-02 0.0 
0.0 0.0 0.0 
-7.334040736239e-04 9.213818198387e-04 0.0 
9.213818198387e-04 1.004588040551e-02 0.0 
0.0 0.0 0.0 
-6.297745139847e-04 7.503578307219e-04 0.0 
7.503578307219e-04 1.145640417995e-02 0.0 
0.0 0.0 0.0 
-4.179977802405e-04 1.131785235331e-03 0.0 
1.131785235331e-03 1.126786252776e-02 0.0 
0.0 0.0 0.0 
-2.040385706920e-04 1.512252621928e-03 0.0 
1.512252621928e-03 6.547699709918e-03 0.0 
0.0 0.0 0.0 
-4.003463216627e-04 1.447932203962e-03 0.0 
1.447932203962e-03 6.837772527360e-03 0.0 
0.0 0.0 0.0 
5.880240333926e-04 -5.691035820310e-05 0.0 
-5.691035820310e-05 3.495342365687e-03 0.0 
0.0 0.0 0.0 
-5.883050790551e-04 8.650551867049e-04 0.0 
8.650551867049e-04 1.151501536085e-02 0.0 
0.0 0.0 0.0 
-5.281015166814e-05 1.768362516711e-03 0.0 
1.768362516711e-03 1.111928704834e-02 0.0 
0.0 0.0 0.0 
-4.675316728572e-04 7.349703479913e-04 0.0 
7.349703479913e-04 1.169330617003e-02 0.0 
0.0 0.0 0.0 
5.301924460550e-04 1.114876483174e-03 0.0 
1.114876483174e-03 6.668915962657e-03 0.0 
0.0 0.0 0.0 
-5.575685193783e-04 7.221145913664e-04 0.0 
7.221145913664e-04 1.169547993582e-02 0.0 
0.0 0.0 0.0 
-8.384971202902e-05 1.408711863596e-03 0.0 
1.408711863596e-03 8.762198785272e-03 0.0 
0.0 0.0 0.0 
-2.015903291530e-05 1.488150007720e-03 0.0 
1.488150007720e-03 6.703452968403e-03 0.0 
0.0 0.0 0.0 
-7.145834188055e-04 1.134959291672e-03 0.0 
1.134959291672e-03 7.697915255791e-03 0.0 
0.0 0.0 0.0 
3.396927975599e-04 8.876113663685e-04 0.0 
8.876113663685e-04 2.490827132595e-03 0.0 
0.0 0.0 0.0 
-1.343742464739e-04 6.009849819024e-04 0.0 
6.009849819024e-04 1.252641868040e-02 0.0 
0.0 0.0 0.0 
-1.608158368693e-05 1.527067402260e-03 0.0 
1.527067402260e-03 5.913002462803e-03 0.0 
0.0 0.0 0.0 
-7.365273026150e-05 1.516634658209e-03 0.0 
1.516634658209e-03 1.037345694393e-02 0.0 
0.0 0.0 0.0 
6.419780678024e-04 2.431032387515e-05 0.0 
2.431032387515e-05 3.482862351828e-03 0.0 
0.0 0.0 0.0 
4.928233375221e-04 -9.664902601476e-05 0.0 
-9.664902601476e-05 2.262129627511e-03 0.0 
0.0 0.0 0.0 
1.672704626499e-04 1.110528203613e-03 0.0 
1.110528203613e-03 8.542480588463e-03 0.0 
0.0 0.0 0.0 
4.050699727147e-04 1.266770525105e-03 0.0 
1.266770525105e-03 3.984121527475e-03 0.0 
0.0 0.0 0.0 
0.0 1.395784127774e-03 0.0 
1.395784127774e-03 1.199943760510e-02 0.0 
0.0 0.0 0.0 
-1.966526630306e-04 9.575250118241e-04 0.0 
9.575250118241e-04 1.224308011110e-02 0.0 
0.0 0.0 0.0 
-5.384152288452e-04 1.263983395571e-03 0.0 
1.263983395571e-03 8.811694412450e-03 0.0 
0.0 0.0 0.0 
-1.983604964048e-04 -1.350348735851e-04 0.0 
-1.350348735851e-04 4.867807112179e-04 0.0 
0.0 0.0 0.0 
0.0 1.550128985779e-03 0.0 
1.550128985779e-03 1.164139911434e-02 0.0 
0.0 0.0 0.0 
1.418208714590e-04 1.267429560616e-03 0.0 
1.267429560616e-03 8.843688331161e-03 0.0 
0.0 0.0 0.0 
5.887752952654e-04 5.613502973907e-05 0.0 
5.613502973907e-05 2.238562001170e-03 0.0 
0.0 0.0 0.0 
5.747310477939e-04 1.057017610275e-03 0.0 
1.057017610275e-03 6.669779266089e-03 0.0 
0.0 0.0 0.0 
7.452570075439e-05 1.717193992372e-03 0.0 
1.717193992372e-03 1.003496175005e-02 0.0 
0.0 0.0 0.0 
-3.386557453076e-04 -5.498211640235e-05 0.0 
-5.498211640235e-05 2.688425272053e-04 0.0 
0.0 0.0 0.0 
-2.136556219157e-05 1.508464568564e-03 0.0 
1.508464568564e-03 6.312479854684e-03 0.0 
0.0 0.0 0.0 
-6.042361990457e-04 1.185108641147e-03 0.0 
1.185108641147e-03 9.244021280171e-03 0.0 
0.0 0.0 0.0 
-4.458108977324e-04 1.344289227692e-03 0.0 
1.344289227692e-03 8.338834643232e-03 0.0 
0.0 0.0 0.0 
-6.611937425524e-04 1.150050452469e-03 0.0 
1.150050452469e-03 8.948699223362e-03 0.0 
0.0 0.0 0.0 
3.519902269657e-04 1.065013442519e-03 0.0 
1.065013442519e-03 2.997665426709e-03 0.0 
0.0 0.0 0.0 
0.0 1.660706686267e-03 0.0 
1.660706686267e-03 1.122909355215e-02 0.0 
0.0 0.0 0.0 
6.880999118541e-04 8.050190098504e-04 0.0 
8.050190098504e-04 4.298252083662e-03 0.0 
0.0 0.0 0.0 
-4.083937431920e-05 5.466600948760e-05 0.0 
5.466600948760e-05 1.327118393506e-03 0.0 
0.0 0.0 0.0 
2.360242203387e-04 5.146370834206e-04 0.0 
5.146370834206e-04 7.993941148521e-03 0.0 
0.0 0.0 0.0 
-3.399237888209e-04 -1.257790740579e-04 0.0 
-1.257790740579e-04 5.257105117911e-04 0.0 
0.0 0.0 0.0 
-8.344499054130e-04 8.498562458583e-04 0.0 
8.498562458583e-04 8.541584857483e-03 0.0 
0.0 0.0 0.0 
1.177154047132e-04 -1.343925189841e-04 0.0 
-1.343925189841e-04 1.094926813790e-03 0.0 
0.0 0.0 0.0 
-8.609399178020e-04 4.931809140095e-04 0.0 
4.931809140095e-04 9.144615277715e-03 0.0 
0.0 0.0 0.0 
1.453884541651e-04 1.419021442462e-03 0.0 
1.419021442462e-03 9.290287416569e-03 0.0 
0.0 0.0 0.0 
0.0 1.710889197197e-03 0.0 
1.710889197197e-03 1.079011039501e-02 0.0 
0.0 0.0 0.0 
-7.929887443665e-04 8.446760125296e-04 0.0 
8.446760125296e-04 9.750428250550e-03 0.0 
0.0 0.0 0.0 
-8.082300333356e-05 -1.798393577551e-04 0.0 
-1.798393577551e-04 8.136778081966e-04 0.0 
0.0 0.0 0.0 
-9.316782687718e-05 1.852484967077e-04 0.0 
1.852484967077e-04 1.008623905806e-03 0.0 
0.0 0.0 0.0 
-7.804175565940e-05 -1.469667222134e-04 0.0 
-1.469667222134e-04 1.182204433832e-03 0.0 
0.0 0.0 0.0 
4.700339512209e-04 4.819579725632e-04 0.0 
4.819579725632e-04 6.874730955906e-03 0.0 
0.0 0.0 0.0 
-7.234613199691e-04 1.761357862328e-04 0.0 
1.761357862328e-04 9.772144049648e-03 0.0 
0.0 0.0 0.0 
-8.963055851924e-04 4.236564473969e-04 0.0 
4.236564473969e-04 9.880384840251e-03 0.0 
0.0 0.0 0.0 
0.0 1.694601702033e-03 0.0 
1.694601702033e-03 1.035935833528e-02 0.0 
0.0 0.0 0.0 
-6.891006523903e-04 1.279428294743e-04 0.0 
1.279428294743e-04 9.783355786559e-03 0.0 
0.0 0.0 0.0 
-1.484825235388e-04 9.046139221214e-04 0.0 
9.046139221214e-04 1.263467531221e-02 0.0 
0.0 0.0 0.0 
1.819802103231e-05 1.446031393839e-03 0.0 
1.446031393839e-03 8.654585399439e-03 0.0 
0.0 0.0 0.0 
-6.082092921893e-04 2.218036627815e-04 0.0 
2.218036627815e-04 1.045327382819e-02 0.0 
0.0 0.0 0.0 
-8.049909586560e-05 1.498127485825e-03 0.0 
1.498127485825e-03 5.087573074408e-03 0.0 
0.0 0.0 0.0 
5.985996148050e-04 1.161054929574e-03 0.0 
1.161054929574e-03 6.655137869481e-03 0.0 
0.0 0.0 0.0 
1.901218322695e-04 4.262283589622e-04 0.0 
4.262283589622e-04 2.088967113301e-03 0.0 
0.0 0.0 0.0 
0.0 1.611050291595e-03 0.0 
1.611050291595e-03 9.937239461866e-03 0.0 
0.0 0.0 0.0 
0.0 1.203670302471e-03 0.0 
1.203670302471e-03 1.227839171616e-02 0.0 
0.0 0.0 0.0 
0.0 1.001611515748e-03 0.0 
1.001611515748e-03 1.251072628192e-02 0.0 
0.0 0.0 0.0 
7.387572094963e-04 3.262863686700e-04 0.0 
3.262863686700e-04 5.104710712931e-03 0.0 
0.0 0.0 0.0 
5.472728284457e-04 -8.192121983216e-05 0.0 
-8.192121983216e-05 3.262508212863e-03 0.0 
0.0 0.0 0.0 
3.833722730029e-05 1.446671314251e-03 0.0 
1.446671314251e-03 6.709466806947e-03 0.0 
0.0 0.0 0.0 
7.772689828494e-04 4.025659265714e-04 0.0 
4.025659265714e-04 5.245807721892e-03 0.0 
0.0 0.0 0.0 
0.0 1.487334386318e-03 0.0 
1.487334386318e-03 9.566770908881e-03 0.0 
0.0 0.0 0.0 
4.068952840108e-04 8.934059155333e-04 0.0 
8.934059155333e-04 3.458804736244e-03 0.0 
0.0 0.0 0.0 
7.531540170527e-04 2.871923394302e-04 0.0 
2.871923394302e-04 2.797006944070e-03 0.0 
0.0 0.0 0.0 
7.679912197742e-04 2.363371403056e-04 0.0 
2.363371403056e-04 2.921761971874e-03 0.0 
0.0 0.0 0.0 
-5.675349768933e-04 2.301170756433e-04 0.0 
2.301170756433e-04 1.067776311079e-02 0.0 
0.0 0.0 0.0 
1.361407379126e-04 1.130966745828e-03 0.0 
1.130966745828e-03 8.902580305855e-03 0.0 
0.0 0.0 0.0 
-2.790028602120e-04 -1.629170880447e-04 0.0 
-1.629170880447e-04 8.814587948036e-04 0.0 
0.0 0.0 0.0 
0.0 1.314676398149e-03 0.0 
1.314676398149e-03 9.218308200956e-03 0.0 
0.0 0.0 0.0 
6.980024634604e-04 1.242493165536e-04 0.0 
1.242493165536e-04 2.640671321216e-03 0.0 
0.0 0.0 0.0 
0.0 1.481947381694e-03 0.0 
1.481947381694e-03 1.183507842468e-02 0.0 
0.0 0.0 0.0 
-5.154935009437e-04 1.131411880850e-03 0.0 
1.131411880850e-03 1.126863618411e-02 0.0 
0.0 0.0 0.0 
-5.339202560399e-04 -5.256382075078e-05 0.0 
-5.256382075078e-05 3.380042158392e-04 0.0 
0.0 0.0 0.0 
1.480655737343e-04 1.470461348095e-03 0.0 
1.470461348095e-03 6.105206482251e-03 0.0 
0.0 0.0 0.0 
-5.117020287906e-04 5.911093252925e-04 0.0 
5.911093252925e-04 1.182987661937e-02 0.0 
0.0 0.0 0.0 
0.0 1.614921270850e-03 0.0 
1.614921270850e-03 1.144197146027e-02 0.0 
0.0 0.0 0.0 
-7.895715066537e-04 9.652095830087e-04 0.0 
9.652095830087e-04 1.004035702332e-02 0.0 
0.0 0.0 0.0 
1.205716490238e-04 1.445980636063e-03 0.0 
1.445980636063e-03 8.570879280012e-03 0.0 
0.0 0.0 0.0 
1.294259492728e-04 8.520193162301e-04 0.0 
8.520193162301e-04 2.092842490735e-03 0.0 
0.0 0.0 0.0 
2.869855941228e-04 1.159096042899e-03 0.0 
1.159096042899e-03 8.324109929540e-03 0.0 
0.0 0.0 0.0 
7.080323347379e-04 9.730527661781e-05 0.0 
9.730527661781e-05 2.785082281743e-03 0.0 
0.0 0.0 0.0 
6.715770381038e-04 8.155863628930e-05 0.0 
8.155863628930e-05 2.942861165935e-03 0.0 
0.0 0.0 0.0 
-5.258792976027e-04 -1.316514141525e-04 0.0 
-1.316514141525e-04 6.328814230023e-04 0.0 
0.0 0.0 0.0 
0.0 1.692197364239e-03 0.0 
1.692197364239e-03 1.100994904452e-02 0.0 
0.0 0.0 0.0 
3.697623210503e-04 4.998208640858e-04 0.0 
4.998208640858e-04 2.490476218758e-03 0.0 
0.0 0.0 0.0 
5.201179516972e-04 7.904457019746e-04 0.0 
7.904457019746e-04 7.123481798426e-03 0.0 
0.0 0.0 0.0 
-6.532552693680e-04 1.240772116585e-04 0.0 
1.240772116585e-04 1.025909216108e-02 0.0 
0.0 0.0 0.0 
4.667374151064e-04 -1.648665773832e-04 0.0 
-1.648665773832e-04 2.315170785841e-03 0.0 
0.0 0.0 0.0 
6.519440985242e-04 1.163816003004e-04 0.0 
1.163816003004e-04 2.822168933265e-03 0.0 
0.0 0.0 0.0 
-7.708520549234e-04 1.039799986819e-03 0.0 
1.039799986819e-03 9.703324940261e-03 0.0 
0.0 0.0 0.0 
0.0 1.657407733123e-03 0.0 
1.657407733123e-03 1.014781001666e-02 0.0 
0.0 0.0 0.0 
5.933514264265e-04 8.109146000229e-06 0.0 
8.109146000229e-06 3.427371027617e-03 0.0 
0.0 0.0 0.0 
6.839278310253e-04 4.983836755533e-04 0.0 
4.983836755533e-04 5.898968100742e-03 0.0 
0.0 0.0 0.0 
-1.647624293201e-04 1.446986665288e-03 0.0 
1.446986665288e-03 7.645153545595e-03 0.0 
0.0 0.0 0.0 
7.613938430575e-04 5.989311285050e-04 0.0 
5.989311285050e-04 5.511362916603e-03 0.0 
0.0 0.0 0.0 
7.084263661881e-04 2.500660431268e-04 0.0 
2.500660431268e-04 3.141484403896e-03 0.0 
0.0 0.0 0.0 
7.335178638235e-04 4.226698820468e-04 0.0 
4.226698820468e-04 5.419660919526e-03 0.0 
0.0 0.0 0.0 
-2.737653265689e-04 1.427902119784e-03 0.0 
1.427902119784e-03 7.825398924299e-03 0.0 
0.0 0.0 0.0 
-3.038489933893e-04 1.371837933642e-03 0.0 
1.371837933642e-03 9.342762435326e-03 0.0 
0.0 0.0 0.0 
5.440184840548e-04 1.199615855470e-03 0.0 
1.199615855470e-03 7.131133538518e-03 0.0 
0.0 0.0 0.0 
-1.670845272395e-05 1.467158531100e-03 0.0 
1.467158531100e-03 7.093441466654e-03 0.0 
0.0 0.0 0.0 
6.977023614563e-04 5.952793767436e-05 0.0 
5.952793767436e-05 3.548776040724e-03 0.0 
0.0 0.0 0.0 
3.652177530526e-04 1.078425453722e-03 0.0 
1.078425453722e-03 4.011428424642e-03 0.0 
0.0 0.0 0.0 
5.945687788138e-04 -4.768669945239e-06 0.0 
-4.768669945239e-06 3.250664322640e-03 0.0 
0.0 0.0 0.0 
2.514107408791e-05 1.408589250176e-03 0.0 
1.408589250176e-03 8.661109797810e-03 0.0 
0.0 0.0 0.0 
7.305608277963e-04 1.014619225473e-03 0.0 
1.014619225473e-03 5.713548213856e-03 0.0 
0.0 0.0 0.0 
1.470984971994e-04 1.326334921413e-03 0.0 
1.326334921413e-03 9.155358157709e-03 0.0 
0.0 0.0 0.0 
-4.824605784626e-04 6.934440409888e-04 0.0 
6.934440409888e-04 1.192688386464e-02 0.0 
0.0 0.0 0.0 
4.525249897884e-04 -9.319443906999e-05 0.0 
-9.319443906999e-05 2.072965683360e-03 0.0 
0.0 0.0 0.0 
0.0 1.401037626941e-03 0.0 
1.401037626941e-03 9.366702810438e-03 0.0 
0.0 0.0 0.0 
2.874613918016e-04 1.293483097810e-03 0.0 
1.293483097810e-03 8.764661285522e-03 0.0 
0.0 0.0 0.0 
4.258432240609e-04 1.336781902790e-03 0.0 
1.336781902790e-03 5.828242964689e-03 0.0 
0.0 0.0 0.0 
-2.770121080140e-04 -1.398593514792e-04 0.0 
-1.398593514792e-04 5.318851595046e-04 0.0 
0.0 0.0 0.0 
1.675153038694e-04 1.043262359477e-03 0.0 
1.043262359477e-03 8.799326105813e-03 0.0 
0.0 0.0 0.0 
-5.171337303622e-04 8.330350595329e-04 0.0 
8.330350595329e-04 1.176509186313e-02 0.0 
0.0 0.0 0.0 
6.125614751142e-04 3.203320493415e-05 0.0 
3.203320493415e-05 2.383034620144e-03 0.0 
0.0 0.0 0.0 
0.0 1.132711346903e-03 0.0 
1.132711346903e-03 8.950877090552e-03 0.0 
0.0 0.0 0.0 
7.024000611993e-04 4.006013838048e-04 0.0 
4.006013838048e-04 5.573537224020e-03 0.0 
0.0 0.0 0.0 
-5.658763747626e-04 1.324316755566e-03 0.0 
1.324316755566e-03 7.433610388295e-03 0.0 
0.0 0.0 0.0 
-8.173439958694e-04 5.164750902556e-04 0.0 
5.164750902556e-04 9.978538067479e-03 0.0 
0.0 0.0 0.0 
6.586638571968e-04 9.629200725560e-04 0.0 
9.629200725560e-04 5.717464803008e-03 0.0 
0.0 0.0 0.0 
7.554401463861e-04 2.503032787338e-04 0.0 
2.503032787338e-04 4.646144495566e-03 0.0 
0.0 0.0 0.0 
7.271893373029e-04 7.176182471894e-04 0.0 
7.176182471894e-04 5.896069743482e-03 0.0 
0.0 0.0 0.0 
-7.919650783103e-04 5.769215880637e-04 0.0 
5.769215880637e-04 1.079709888021e-02 0.0 
0.0 0.0 0.0 
-7.598484355895e-04 1.049307493283e-03 0.0 
1.049307493283e-03 8.408770663888e-03 0.0 
0.0 0.0 0.0 
4.511449619049e-04 1.290410754721e-03 0.0 
1.290410754721e-03 7.599967105900e-03 0.0 
0.0 0.0 0.0 
-4.532119742667e-04 2.710100201944e-05 0.0 
2.710100201944e-05 1.043280880652e-02 0.0 
0.0 0.0 0.0 
6.316164285296e-04 -3.042246469227e-05 0.0 
-3.042246469227e-05 3.562655458207e-03 0.0 
0.0 0.0 0.0 
6.335641971147e-04 1.101023509307e-03 0.0 
1.101023509307e-03 6.671806630892e-03 0.0 
0.0 0.0 0.0 
6.186978159983e-04 -3.650792225904e-05 0.0 
-3.650792225904e-05 2.802459065983e-03 0.0 
0.0 0.0 0.0 
6.600209494900e-04 2.069270913730e-04 0.0 
2.069270913730e-04 5.195579141993e-03 0.0 
0.0 0.0 0.0 
-6.258078429391e-04 -5.532784648625e-05 0.0 
-5.532784648625e-05 3.752939775916e-04 0.0 
0.0 0.0 0.0 
2.861049244529e-04 1.251810231031e-03 0.0 
1.251810231031e-03 4.616190685861e-03 0.0 
0.0 0.0 0.0 
6.017313667341e-04 -2.343033307654e-05 0.0 
-2.343033307654e-05 2.662105753645e-03 0.0 
0.0 0.0 0.0 
6.738737706260e-04 6.898687172216e-05 0.0 
6.898687172216e-05 3.897633755161e-03 0.0 
0.0 0.0 0.0 
2.829841957053e-04 1.404915814126e-03 0.0 
1.404915814126e-03 6.380724766071e-03 0.0 
0.0 0.0 0.0 
7.709610508297e-04 4.971846383052e-04 0.0 
4.971846383052e-04 5.558933703351e-03 0.0 
0.0 0.0 0.0 
-6.148304653343e-04 1.377199821836e-04 0.0 
1.377199821836e-04 1.050571766153e-02 0.0 
0.0 0.0 0.0 
5.217049450803e-04 -1.077260610570e-04 0.0 
-1.077260610570e-04 2.405303751805e-03 0.0 
0.0 0.0 0.0 
0.0 1.049510966576e-03 0.0 
1.049510966576e-03 8.853875868296e-03 0.0 
0.0 0.0 0.0 
-6.072830958865e-04 1.231407683290e-03 0.0 
1.231407683290e-03 9.237693714138e-03 0.0 
0.0 0.0 0.0 
6.592593029120e-04 7.365224777996e-05 0.0 
7.365224777996e-05 4.074334777513e-03 0.0 
0.0 0.0 0.0 
-5.205188637073e-04 1.307803465200e-03 0.0 
1.307803465200e-03 8.805484151987e-03 0.0 
0.0 0.0 0.0 
6.199535763332e-04 -1.111662922356e-05 0.0 
-1.111662922356e-05 3.909855387885e-03 0.0 
0.0 0.0 0.0 
-4.019826883552e-04 -5.656266730827e-05 0.0 
-5.656266730827e-05 2.981313902566e-04 0.0 
0.0 0.0 0.0 
-8.766764532888e-04 5.170092702655e-04 0.0 
5.170092702655e-04 1.021996590272e-02 0.0 
0.0 0.0 0.0 
5.111568078504e-04 1.343750444465e-05 0.0 
1.343750444465e-05 3.179537261028e-03 0.0 
0.0 0.0 0.0 
-8.387852166736e-05 -3.589049379731e-05 0.0 
-3.589049379731e-05 1.514974098504e-04 0.0 
0.0 0.0 0.0 
6.276691473508e-04 4.322497243539e-05 0.0 
4.322497243539e-05 3.833581580132e-03 0.0 
0.0 0.0 0.0 
7.092568384457e-04 5.645117527654e-04 0.0 
5.645117527654e-04 6.039283149445e-03 0.0 
0.0 0.0 0.0 
-2.716825787831e-04 2.050603134466e-04 0.0 
2.050603134466e-04 1.192608434736e-02 0.0 
0.0 0.0 0.0 
7.693466497201e-04 6.460077794830e-04 0.0 
6.460077794830e-04 5.421370831754e-03 0.0 
0.0 0.0 0.0 
8.235337978222e-04 7.097077922721e-04 0.0 
7.097077922721e-04 5.491860726110e-03 0.0 
0.0 0.0 0.0 
-8.928077179020e-04 3.371501466201e-04 0.0 
3.371501466201e-04 9.544862661357e-03 0.0 
0.0 0.0 0.0 
-6.859252037027e-04 6.561257435311e-05 0.0 
6.561257435311e-05 9.431606653988e-03 0.0 
0.0 0.0 0.0 
-1.499595678619e-04 7.300295118363e-04 0.0 
7.300295118363e-04 1.245972084814e-02 0.0 
0.0 0.0 0.0 
-4.091933745359e-04 1.374595907470e-03 0.0 
1.374595907470e-03 8.334732841207e-03 0.0 
0.0 0.0 0.0 
-1.148836132837e-04 -3.027140201521e-05 0.0 
-3.027140201521e-05 1.575281542519e-04 0.0 
0.0 0.0 0.0 
1.145702558236e-04 -2.256118506737e-04 0.0 
-2.256118506737e-04 1.270955133650e-03 0.0 
0.0 0.0 0.0 
-2.493139819457e-04 -1.421628731021e-04 0.0 
-1.421628731021e-04 5.128613669667e-04 0.0 
0.0 0.0 0.0 
4.119235108409e-04 -1.847015713977e-04 0.0 
-1.847015713977e-04 2.231177319783e-03 0.0 
0.0 0.0 0.0 
-3.692151439685e-04 1.350080473304e-03 0.0 
1.350080473304e-03 1.052998868440e-02 0.0 
0.0 0.0 0.0 
-3.115903544735e-04 1.555298758451e-04 0.0 
1.555298758451e-04 1.193215586296e-02 0.0 
0.0 0.0 0.0 
5.543391493605e-04 4.738036017172e-04 0.0 
4.738036017172e-04 6.540615596411e-03 0.0 
0.0 0.0 0.0 
4.601320881328e-04 -1.563170997610e-04 0.0 
-1.563170997610e-04 2.530765329128e-03 0.0 
0.0 0.0 0.0 
6.151453874075e-04 1.288657146156e-04 0.0 
1.288657146156e-04 5.208437642598e-03 0.0 
0.0 0.0 0.0 
5.307285715974e-04 8.376390880524e-04 0.0 
8.376390880524e-04 7.238792767071e-03 0.0 
0.0 0.0 0.0 
2.012410416887e-04 1.284696988123e-04 0.0 
1.284696988123e-04 1.704847938745e-03 0.0 
0.0 0.0 0.0 
4.992738820715e-04 -5.810454442356e-05 0.0 
-5.810454442356e-05 3.180824937203e-03 0.0 
0.0 0.0 0.0 
4.349303843012e-04 1.364921171935e-05 0.0 
1.364921171935e-05 2.588316949496e-03 0.0 
0.0 0.0 0.0 
1.445158701583e-04 9.446287922160e-04 0.0 
9.446287922160e-04 8.695959221229e-03 0.0 
0.0 0.0 0.0 
0.0 9.475602523091e-04 0.0 
9.475602523091e-04 8.744877237697e-03 0.0 
0.0 0.0 0.0 
5.363067482338e-04 -4.022054817732e-05 0.0 
-4.022054817732e-05 3.563346660570e-03 0.0 
0.0 0.0 0.0 
6.138476895072e-04 -3.011334796613e-06 0.0 
-3.011334796613e-06 4.086300011460e-03 0.0 
0.0 0.0 0.0 
8.049077081469e-04 3.342259880567e-04 0.0 
3.342259880567e-04 4.785883702293e-03 0.0 
0.0 0.0 0.0 
4.769416583885e-04 9.534493468985e-04 0.0 
9.534493468985e-04 7.618338904939e-03 0.0 
0.0 0.0 0.0 
1.963409846610e-04 -1.255410654240e-04 0.0 
-1.255410654240e-04 1.392111541362e-03 0.0 
0.0 0.0 0.0 
5.852878219355e-04 7.309457013343e-04 0.0 
7.309457013343e-04 6.875453086788e-03 0.0 
0.0 0.0 0.0 
2.845929669881e-05 -7.497997689875e-05 0.0 
-7.497997689875e-05 7.414585586876e-04 0.0 
0.0 0.0 0.0 
5.860106462781e-04 -4.311054453660e-05 0.0 
-4.311054453660e-05 3.670568369514e-03 0.0 
0.0 0.0 0.0 
6.496174195314e-04 3.124245858212e-05 0.0 
3.124245858212e-05 4.157179162495e-03 0.0 
0.0 0.0 0.0 
4.438648356975e-05 -4.183545507342e-05 0.0 
-4.183545507342e-05 3.855333369305e-04 0.0 
0.0 0.0 0.0 
5.305119058761e-04 2.404281915479e-05 0.0 
2.404281915479e-05 3.367227601157e-03 0.0 
0.0 0.0 0.0 
-3.900839138130e-04 7.133965193116e-04 0.0 
7.133965193116e-04 1.192271305589e-02 0.0 
0.0 0.0 0.0 
-8.621208822823e-05 -2.625888920742e-05 0.0 
-2.625888920742e-05 1.466987344505e-04 0.0 
0.0 0.0 0.0 
-7.198090002715e-04 9.906760999633e-05 0.0 
9.906760999633e-05 9.433529575165e-03 0.0 
0.0 0.0 0.0 
-7.049049100631e-04 1.271879052146e-04 0.0 
1.271879052146e-04 9.400177924525e-03 0.0 
0.0 0.0 0.0 
6.771821387044e-04 8.342045127884e-04 0.0 
8.342045127884e-04 6.301880034256e-03 0.0 
0.0 0.0 0.0 
4.201844938552e-04 -4.818594218441e-05 0.0 
-4.818594218441e-05 2.586042052346e-03 0.0 
0.0 0.0 0.0 
6.297588213044e-04 1.516093200016e-05 0.0 
1.516093200016e-05 2.534066029486e-03 0.0 
0.0 0.0 0.0 
1.025732603814e-04 9.557117496667e-04 0.0 
9.557117496667e-04 3.195458226638e-03 0.0 
0.0 0.0 0.0 
3.958242272115e-04 4.838002682494e-04 0.0 
4.838002682494e-04 7.206182202868e-03 0.0 
0.0 0.0 0.0 
-5.754152191029e-05 1.577929794188e-03 0.0 
1.577929794188e-03 1.081300605399e-02 0.0 
0.0 0.0 0.0 
-4.198507768102e-04 2.392281443341e-04 0.0 
2.392281443341e-04 1.168872304792e-02 0.0 
0.0 0.0 0.0 
-8.530687945929e-05 1.404782053822e-03 0.0 
1.404782053822e-03 5.099311541960e-03 0.0 
0.0 0.0 0.0 
-1.522252217034e-05 -1.098341043699e-04 0.0 
-1.098341043699e-04 8.716233021258e-04 0.0 
0.0 0.0 0.0 
-9.253180826115e-04 8.665618381863e-04 0.0 
8.665618381863e-04 8.856799871582e-03 0.0 
0.0 0.0 0.0 
-5.800690954987e-04 2.255423996032e-05 0.0 
2.255423996032e-05 9.427319025083e-03 0.0 
0.0 0.0 0.0 
-5.579664637579e-04 1.310078592834e-05 0.0 
1.310078592834e-05 9.408514973173e-03 0.0 
0.0 0.0 0.0 
-4.361482690995e-05 -3.041699578459e-05 0.0 
-3.041699578459e-05 1.372790119081e-04 0.0 
0.0 0.0 0.0 
2.851653760394e-05 -5.392328267185e-05 0.0 
-5.392328267185e-05 3.920681860585e-04 0.0 
0.0 0.0 0.0 
1.114732905045e-04 -4.477077055241e-05 0.0 
-4.477077055241e-05 7.128957288309e-04 0.0 
0.0 0.0 0.0 
3.500928284752e-04 -1.063317628632e-04 0.0 
-1.063317628632e-04 1.921565725321e-03 0.0 
0.0 0.0 0.0 
2.112816684940e-06 -3.645925672487e-05 0.0 
-3.645925672487e-05 3.934203713438e-04 0.0 
0.0 0.0 0.0 
5.496747156779e-04 2.933005963433e-05 0.0 
2.933005963433e-05 3.778829382542e-03 0.0 
0.0 0.0 0.0 
-5.814101703615e-04 -5.320973623219e-05 0.0 
-5.320973623219e-05 3.734719963333e-04 0.0 
0.0 0.0 0.0 
4.447201360258e-04 -8.454998367838e-05 0.0 
-8.454998367838e-05 2.299355888529e-03 0.0 
0.0 0.0 0.0 
-3.947678514452e-04 5.455263998371e-05 0.0 
5.455263998371e-05 1.078139720952e-02 0.0 
0.0 0.0 0.0 
-6.360242396037e-04 6.141267836492e-05 0.0 
6.141267836492e-05 9.409010795701e-03 0.0 
0.0 0.0 0.0 
-3.810313964413e-04 1.326637787741e-03 0.0 
1.326637787741e-03 1.089697000136e-02 0.0 
0.0 0.0 0.0 
7.293300213391e-04 4.691088088570e-04 0.0 
4.691088088570e-04 5.716482927922e-03 0.0 
0.0 0.0 0.0 
-4.222725627433e-04 4.009927684343e-05 0.0 
4.009927684343e-05 1.041977875613e-02 0.0 
0.0 0.0 0.0 
4.500491735524e-04 3.295930482793e-05 0.0 
3.295930482793e-05 2.773936788170e-03 0.0 
0.0 0.0 0.0 
6.076460936777e-05 -4.955547994441e-05 0.0 
-4.955547994441e-05 7.241435167087e-04 0.0 
0.0 0.0 0.0 
0.0 3.683444813111e-04 0.0 
3.683444813111e-04 1.290208646579e-02 0.0 
0.0 0.0 0.0 
-1.102137066368e-04 4.121835111211e-04 0.0 
4.121835111211e-04 1.288879386183e-02 0.0 
0.0 0.0 0.0 
-5.860253666968e-04 1.686227277137e-04 0.0 
1.686227277137e-04 1.025566757004e-02 0.0 
0.0 0.0 0.0 
-6.204063705526e-04 2.982594995555e-05 0.0 
2.982594995555e-05 9.426195348347e-03 0.0 
0.0 0.0 0.0 
4.507103559932e-04 -5.220725433209e-05 0.0 
-5.220725433209e-05 2.812526264008e-03 0.0 
0.0 0.0 0.0 
-9.000873128395e-05 2.840410613620e-04 0.0 
2.840410613620e-04 1.292697301820e-02 0.0 
0.0 0.0 0.0 
3.747404042695e-04 -1.867146366479e-04 0.0 
-1.867146366479e-04 2.150220416545e-03 0.0 
0.0 0.0 0.0 
-6.677950186845e-04 8.686423438241e-05 0.0 
8.686423438241e-05 9.401447031207e-03 0.0 
0.0 0.0 0.0 
-6.419244694977e-04 4.867751508813e-05 0.0 
4.867751508813e-05 9.426231427931e-03 0.0 
0.0 0.0 0.0 
-8.666700719199e-04 5.548633991358e-04 0.0 
5.548633991358e-04 8.890968499408e-03 0.0 
0.0 0.0 0.0 
0.0 8.261334686925e-04 0.0 
8.261334686925e-04 1.267464948455e-02 0.0 
0.0 0.0 0.0 
-9.798306024544e-05 3.501726286378e-04 0.0 
3.501726286378e-04 1.291368838115e-02 0.0 
0.0 0.0 0.0 
-2.180285479081e-05 -4.735916498616e-05 0.0 
-4.735916498616e-05 4.013494252983e-04 0.0 
0.0 0.0 0.0 
-2.182707455056e-05 -2.146151218618e-05 0.0 
-2.146151218618e-05 1.307788282849e-04 0.0 
0.0 0.0 0.0 
6.014834542190e-05 -1.125616140331e-04 0.0 
-1.125616140331e-04 1.037231114773e-03 0.0 
0.0 0.0 0.0 
7.084572478337e-04 1.155895258872e-04 0.0 
1.155895258872e-04 4.144305324531e-03 0.0 
0.0 0.0 0.0 
2.534548641220e-04 9.324220569097e-05 0.0 
9.324220569097e-05 7.438963382471e-03 0.0 
0.0 0.0 0.0 
-9.153249119124e-04 -6.975230892852e-05 0.0 
-6.975230892852e-05 4.897675747420e-04 0.0 
0.0 0.0 0.0 
-3.030166293632e-04 -3.566266983246e-06 0.0 
-3.566266983246e-06 1.161750766940e-02 0.0 
0.0 0.0 0.0 
-5.243330126115e-04 -5.981606767626e-05 0.0 
-5.981606767626e-05 3.538878286626e-04 0.0 
0.0 0.0 0.0 
7.721097571423e-04 7.766051284522e-04 0.0 
7.766051284522e-04 5.972521387865e-03 0.0 
0.0 0.0 0.0 
-7.273424065291e-04 -5.826755848313e-05 0.0 
-5.826755848313e-05 4.196588354999e-04 0.0 
0.0 0.0 0.0 
-8.220909290039e-04 -6.707782060459e-05 0.0 
-6.707782060459e-05 4.558629059837e-04 0.0 
0.0 0.0 0.0 
8.084279356999e-04 6.644402300647e-04 0.0 
6.644402300647e-04 5.602367872324e-03 0.0 
0.0 0.0 0.0 
3.178223329281e-04 2.305824043244e-04 0.0 
2.305824043244e-04 7.209552382213e-03 0.0 
0.0 0.0 0.0 
-4.228959607662e-04 2.315322887103e-05 0.0 
2.315322887103e-05 1.075272256421e-02 0.0 
0.0 0.0 0.0 
-8.408700942077e-04 1.047145730387e-03 0.0 
1.047145730387e-03 8.784359767463e-03 0.0 
0.0 0.0 0.0 
6.090592021502e-05 -3.453966644393e-05 0.0 
-3.453966644393e-05 3.766808961014e-04 0.0 
0.0 0.0 0.0 
5.867981421674e-04 1.178883817016e-04 0.0 
1.178883817016e-04 5.392481084089e-03 0.0 
0.0 0.0 0.0 
0.0 1.100275737135e-04 0.0 
1.100275737135e-04 1.293539169469e-02 0.0 
0.0 0.0 0.0 
-7.878157900587e-05 1.120720235079e-04 0.0 
1.120720235079e-04 1.294789336272e-02 0.0 
0.0 0.0 0.0 
-6.050237759049e-04 4.233503502478e-05 0.0 
4.233503502478e-05 9.406613826855e-03 0.0 
0.0 0.0 0.0 
7.212942792882e-04 8.870462401433e-04 0.0 
8.870462401433e-04 6.362061200935e-03 0.0 
0.0 0.0 0.0 
0.0 3.099745504057e-04 0.0 
3.099745504057e-04 1.292606955072e-02 0.0 
0.0 0.0 0.0 
1.109587749417e-04 1.394270628697e-03 0.0 
1.394270628697e-03 8.578439686688e-03 0.0 
0.0 0.0 0.0 
6.261825605036e-05 -2.324294542627e-05 0.0 
-2.324294542627e-05 7.044006982764e-04 0.0 
0.0 0.0 0.0 
2.306531862062e-05 -2.930880173316e-05 0.0 
-2.930880173316e-05 3.832269441362e-04 0.0 
0.0 0.0 0.0 
6.422110148541e-05 -2.961076680442e-05 0.0 
-2.961076680442e-05 3.713331462927e-04 0.0 
0.0 0.0 0.0 
5.019540244346e-04 3.248708408073e-05 0.0 
3.248708408073e-05 3.167868030880e-03 0.0 
0.0 0.0 0.0 
9.908540089176e-05 1.901983655734e-04 0.0 
1.901983655734e-04 8.283388935028e-03 0.0 
0.0 0.0 0.0 
-1.300927407469e-04 -2.783561798120e-05 0.0 
-2.783561798120e-05 1.256338464018e-02 0.0 
0.0 0.0 0.0 
2.411462435825e-05 -4.765903279970e-06 0.0 
-4.765903279970e-06 1.038909287332e-04 0.0 
0.0 0.0 0.0 
5.522216043770e-04 -3.426943253729e-05 0.0 
-3.426943253729e-05 3.778921105201e-03 0.0 
0.0 0.0 0.0 
0.0 1.697829608558e-04 0.0 
1.697829608558e-04 8.302510667766e-03 0.0 
0.0 0.0 0.0 
1.132166880513e-04 2.767910353231e-04 0.0 
2.767910353231e-04 8.291463294736e-03 0.0 
0.0 0.0 0.0 
1.702819307332e-04 8.503772798079e-04 0.0 
8.503772798079e-04 8.606097754237e-03 0.0 
0.0 0.0 0.0 
-3.497278328007e-04 4.936192549799e-05 0.0 
4.936192549799e-05 1.123575624962e-02 0.0 
0.0 0.0 0.0 
-2.690770859303e-04 -2.850324680681e-05 0.0 
-2.850324680681e-05 1.181370611817e-02 0.0 
0.0 0.0 0.0 
0.0 2.267198163518e-04 0.0 
2.267198163518e-04 8.270719730423e-03 0.0 
0.0 0.0 0.0 
0.0 2.907352780944e-04 0.0 
2.907352780944e-04 8.313100766118e-03 0.0 
0.0 0.0 0.0 
-2.952010864774e-04 4.886466075016e-05 0.0 
4.886466075016e-05 1.161935455862e-02 0.0 
0.0 0.0 0.0 
-1.711949881078e-06 8.240838330221e-06 0.0 
8.240838330221e-06 9.738862585507e-05 0.0 
0.0 0.0 0.0 
-5.194434851875e-04 7.429094021783e-06 0.0 
7.429094021783e-06 9.384339821213e-03 0.0 
0.0 0.0 0.0 
-5.820343733778e-04 3.171973852679e-05 0.0 
3.171973852679e-05 9.417377905713e-03 0.0 
0.0 0.0 0.0 
2.295972580724e-06 -1.289460624708e-05 0.0 
-1.289460624708e-05 1.207822067151e-04 0.0 
0.0 0.0 0.0 
0.0 5.276950742477e-04 0.0 
5.276950742477e-04 8.431934811987e-03 0.0 
0.0 0.0 0.0 
1.481621241051e-04 7.581607183035e-04 0.0 
7.581607183035e-04 8.524559394131e-03 0.0 
0.0 0.0 0.0 
0.0 6.825530733909e-04 0.0 
6.825530733909e-04 8.486211024370e-03 0.0 
0.0 0.0 0.0 
-3.966044850978e-05 -5.050520670742e-06 0.0 
-5.050520670742e-06 1.255490810188e-04 0.0 
0.0 0.0 0.0 
-6.109014563405e-05 -1.632512839859e-05 0.0 
-1.632512839859e-05 1.379376413730e-04 0.0 
0.0 0.0 0.0 
0.0 8.623108898962e-04 0.0 
8.623108898962e-04 8.649078651821e-03 0.0 
0.0 0.0 0.0 
0.0 7.679282986157e-04 0.0 
7.679282986157e-04 8.566552910398e-03 0.0 
0.0 0.0 0.0 
-3.766592769163e-04 -3.262614537677e-05 0.0 
-3.262614537677e-05 1.103774592356e-02 0.0 
0.0 0.0 0.0 
-4.862719790742e-04 5.574747171543e-06 0.0 
5.574747171543e-06 9.362733566995e-03 0.0 
0.0 0.0 0.0 
-3.228598409750e-04 -3.076859419621e-05 0.0 
-3.076859419621e-05 1.142805145904e-02 0.0 
0.0 0.0 0.0 
-4.400160582654e-04 -3.390215874389e-05 0.0 
-3.390215874389e-05 1.023131122438e-02 0.0 
0.0 0.0 0.0 
-4.680799154970e-04 1.064549819395e-06 0.0 
1.064549819395e-06 9.354640566390e-03 0.0 
0.0 0.0 0.0 
-1.709845121461e-04 -2.326424418405e-05 0.0 
-2.326424418405e-05 1.841192523386e-04 0.0 
0.0 0.0 0.0 
-3.041740841339e-04 -4.486903049814e-05 0.0 
-4.486903049814e-05 2.505442244889e-04 0.0 
0.0 0.0 0.0 
-3.592058216936e-04 -4.505333641676e-05 0.0 
-4.505333641676e-05 2.624972240921e-04 0.0 
0.0 0.0 0.0 
-4.485415692662e-04 -5.108742850477e-05 0.0 
-5.108742850477e-05 3.021841454056e-04 0.0 
0.0 0.0 0.0 
5.633488599872e-04 3.911724687962e-05 0.0 
3.911724687962e-05 3.991968588019e-03 0.0 
0.0 0.0 0.0 
5.416250342012e-04 3.438521100222e-05 0.0 
3.438521100222e-05 3.571707136911e-03 0.0 
0.0 0.0 0.0 
-2.131194174015e-04 -4.259464795779e-05 0.0 
-4.259464795779e-05 2.175664381676e-04 0.0 
0.0 0.0 0.0 
5.604675477890e-04 4.095619451167e-05 0.0 
4.095619451167e-05 5.278240932330e-03 0.0 
0.0 0.0 0.0 
-2.862682615803e-04 -5.166483642457e-05 0.0 
-5.166483642457e-05 2.453203546178e-04 0.0 
0.0 0.0 0.0 
0.0 6.554606357803e-04 0.0 
6.554606357803e-04 1.278210861356e-02 0.0 
0.0 0.0 0.0 
0.0 2.574194230516e-04 0.0 
2.574194230516e-04 1.292784822665e-02 0.0 
0.0 0.0 0.0 
0.0 4.359034735468e-04 0.0 
4.359034735468e-04 1.287454474292e-02 0.0 
0.0 0.0 0.0 
1.817158240212e-04 3.606595573818e-05 0.0 
3.606595573818e-05 1.231478861050e-03 0.0 
0.0 0.0 0.0 
3.924057752038e-04 3.284489898386e-05 0.0 
3.284489898386e-05 2.384449351197e-03 0.0 
0.0 0.0 0.0 
0.0 2.009910263644e-04 0.0 
2.009910263644e-04 1.292261275586e-02 0.0 
0.0 0.0 0.0 
3.950296406336e-04 3.648034426512e-05 0.0 
3.648034426512e-05 6.704329465315e-03 0.0 
0.0 0.0 0.0 
0.0 1.556698632855e-04 0.0 
1.556698632855e-04 1.296946364392e-02 0.0 
0.0 0.0 0.0 
2.987537722365e-04 3.886904422451e-05 0.0 
3.886904422451e-05 7.206094377009e-03 0.0 
0.0 0.0 0.0 
1.874168528806e-04 4.774003109464e-05 0.0 
4.774003109464e-05 7.721878644626e-03 0.0 
0.0 0.0 0.0 
5.217167364173e-04 -4.217585488768e-05 0.0 
-4.217585488768e-05 3.367252250299e-03 0.0 
0.0 0.0 0.0 
-9.943767832787e-05 2.256270097949e-04 0.0 
2.256270097949e-04 1.292511249836e-02 0.0 
0.0 0.0 0.0 
-7.983803729594e-05 2.044629233910e-04 0.0 
2.044629233910e-04 1.294035330683e-02 0.0 
0.0 0.0 0.0 
3.425258848504e-04 6.573968977798e-06 0.0 
6.573968977798e-06 6.928359802166e-03 0.0 
0.0 0.0 0.0 
2.418683840097e-04 1.275878397787e-05 0.0 
1.275878397787e-05 7.443528322536e-03 0.0 
0.0 0.0 0.0 
5.314077365124e-04 8.765308507774e-05 0.0 
8.765308507774e-05 5.773168541348e-03 0.0 
0.0 0.0 0.0 
-4.655766939714e-04 -6.121341728675e-05 0.0 
-6.121341728675e-05 3.288314069054e-04 0.0 
0.0 0.0 0.0 
5.479505733146e-04 -6.555484650470e-05 0.0 
-6.555484650470e-05 3.437995874772e-03 0.0 
0.0 0.0 0.0 
-4.213180658363e-05 -6.237969400149e-05 0.0 
-6.237969400149e-05 4.033860137178e-04 0.0 
0.0 0.0 0.0 
3.617582346311e-04 4.199632862617e-04 0.0 
4.199632862617e-04 7.212728444626e-03 0.0 
0.0 0.0 0.0 
6.352362958535e-04 3.350693928699e-05 0.0 
3.350693928699e-05 3.658684775413e-03 0.0 
0.0 0.0 0.0 
4.601763354808e-04 2.375275316989e-04 0.0 
2.375275316989e-04 6.512331739232e-03 0.0 
0.0 0.0 0.0 
2.791110244593e-04 -2.082834458123e-04 0.0 
-2.082834458123e-04 1.775161792996e-03 0.0 
0.0 0.0 0.0 
4.651889987572e-05 -7.183101037598e-05 0.0 
-7.183101037598e-05 7.164444451562e-04 0.0 
0.0 0.0 0.0 
3.562936692278e-04 1.943034197869e-04 0.0 
1.943034197869e-04 7.005493898814e-03 0.0 
0.0 0.0 0.0 
5.893594275106e-04 -3.182093876158e-05 0.0 
-3.182093876158e-05 3.845878332905e-03 0.0 
0.0 0.0 0.0 
4.768431083542e-04 1.912404968721e-05 0.0 
1.912404968721e-05 2.974352055644e-03 0.0 
0.0 0.0 0.0 
4.417571299080e-04 1.668137715086e-04 0.0 
1.668137715086e-04 6.523673178086e-03 0.0 
0.0 0.0 0.0 
-2.010498939367e-04 1.153574010625e-04 0.0 
1.153574010625e-04 1.215227779599e-02 0.0 
0.0 0.0 0.0 
4.758188521186e-04 -4.637486655963e-05 0.0 
-4.637486655963e-05 2.973112856708e-03 0.0 
0.0 0.0 0.0 
6.158497453492e-04 5.728170604665e-04 0.0 
5.728170604665e-04 6.390448365267e-03 0.0 
0.0 0.0 0.0 
7.001991125097e-04 2.846231421097e-04 0.0 
2.846231421097e-04 5.291467746787e-03 0.0 
0.0 0.0 0.0 
5.518483397229e-04 1.616795663296e-04 0.0 
1.616795663296e-04 5.761634893340e-03 0.0 
0.0 0.0 0.0 
5.134910874343e-04 1.355229712004e-04 0.0 
1.355229712004e-04 5.965733261812e-03 0.0 
0.0 0.0 0.0 
7.830210734816e-04 8.220142232309e-04 0.0 
8.220142232309e-04 3.811909302724e-03 0.0 
0.0 0.0 0.0 
-8.863453294482e-04 9.923150570018e-04 0.0 
9.923150570018e-04 8.521581446666e-03 0.0 
0.0 0.0 0.0 
1.880135105834e-04 1.387414845573e-03 0.0 
1.387414845573e-03 6.533138363584e-03 0.0 
0.0 0.0 0.0 
6.242871955509e-04 1.944598154449e-04 0.0 
1.944598154449e-04 5.380458351185e-03 0.0 
0.0 0.0 0.0 
3.989838748300e-04 1.315926523301e-04 0.0 
1.315926523301e-04 6.730562620912e-03 0.0 
0.0 0.0 0.0 
4.755266399448e-04 1.099081041427e-04 0.0 
1.099081041427e-04 6.178552395811e-03 0.0 
0.0 0.0 0.0 
3.654367371173e-04 -1.215303423188e-04 0.0 
-1.215303423188e-04 1.846903145164e-03 0.0 
0.0 0.0 0.0 
-2.205487185634e-04 1.865307599437e-04 0.0 
1.865307599437e-04 1.213012382204e-02 0.0 
0.0 0.0 0.0 
-2.927777457519e-04 1.622816865204e-04 0.0 
1.622816865204e-04 1.175590990117e-02 0.0 
0.0 0.0 0.0 
-4.796396489881e-04 6.702567902011e-05 0.0 
6.702567902011e-05 9.941734625503e-03 0.0 
0.0 0.0 0.0 
6.185424015608e-04 2.522797167785e-04 0.0 
2.522797167785e-04 5.654993896345e-03 0.0 
0.0 0.0 0.0 
5.880043260205e-04 1.793253021244e-04 0.0 
1.793253021244e-04 5.569411523185e-03 0.0 
0.0 0.0 0.0 
-2.322547384550e-04 6.533755258113e-05 0.0 
6.533755258113e-05 1.216699632587e-02 0.0 
0.0 0.0 0.0 
-2.550195633826e-04 1.416629073883e-04 0.0 
1.416629073883e-04 1.195917200985e-02 0.0 
0.0 0.0 0.0 
6.764796142904e-04 2.125748088455e-04 0.0 
2.125748088455e-04 5.131329033600e-03 0.0 
0.0 0.0 0.0 
3.096023096241e-04 1.526222116801e-04 0.0 
1.526222116801e-04 7.216578085900e-03 0.0 
0.0 0.0 0.0 
-3.624543230484e-04 2.837164807567e-04 0.0 
2.837164807567e-04 1.168328373548e-02 0.0 
0.0 0.0 0.0 
4.629297881489e-04 3.787952632816e-05 0.0 
3.787952632816e-05 6.178484623166e-03 0.0 
0.0 0.0 0.0 
3.010817056615e-04 3.726167136081e-04 0.0 
3.726167136081e-04 7.432016535157e-03 0.0 
0.0 0.0 0.0 
-2.554712832749e-04 1.353384925703e-04 0.0 
1.353384925703e-04 1.213884120403e-02 0.0 
0.0 0.0 0.0 
-4.277975689801e-04 9.179486836249e-05 0.0 
9.179486836249e-05 1.116994718001e-02 0.0 
0.0 0.0 0.0 
6.472256734251e-04 4.736567222031e-04 0.0 
4.736567222031e-04 6.053382741516e-03 0.0 
0.0 0.0 0.0 
3.012251568288e-04 -5.308938150625e-05 0.0 
-5.308938150625e-05 1.823418669094e-03 0.0 
0.0 0.0 0.0 
3.221103708175e-04 -1.233319459987e-04 0.0 
-1.233319459987e-04 1.703303613030e-03 0.0 
0.0 0.0 0.0 
-8.939510481198e-06 -2.148175016061e-04 0.0 
-2.148175016061e-04 8.858908682949e-04 0.0 
0.0 0.0 0.0 
-4.659656089954e-04 -1.381988012730e-04 0.0 
-1.381988012730e-04 5.937803677885e-04 0.0 
0.0 0.0 0.0 
-2.746754361811e-04 9.108864604390e-05 0.0 
9.108864604390e-05 1.196413805196e-02 0.0 
0.0 0.0 0.0 
3.605409349396e-04 1.697857541442e-04 0.0 
1.697857541442e-04 6.923208829124e-03 0.0 
0.0 0.0 0.0 
-4.026427869461e-04 -1.350862305989e-04 0.0 
-1.350862305989e-04 5.579928150692e-04 0.0 
0.0 0.0 0.0 
-5.344441100881e-04 9.757541035170e-04 0.0 
9.757541035170e-04 1.155527558285e-02 0.0 
0.0 0.0 0.0 
-4.782279744607e-04 8.191010966706e-05 0.0 
8.191010966706e-05 1.013839478865e-02 0.0 
0.0 0.0 0.0 
4.830872878145e-04 1.922985156249e-04 0.0 
1.922985156249e-04 6.330924132000e-03 0.0 
0.0 0.0 0.0 
4.452806159050e-04 1.546609557894e-04 0.0 
1.546609557894e-04 6.436180864316e-03 0.0 
0.0 0.0 0.0 
6.403715042276e-04 3.664925835546e-06 0.0 
3.664925835546e-06 2.682173328421e-03 0.0 
0.0 0.0 0.0 
4.359419771751e-04 8.143415597147e-05 0.0 
8.143415597147e-05 6.446758853416e-03 0.0 
0.0 0.0 0.0 
-5.017810294941e-04 -6.097383043252e-06 0.0 
-6.097383043252e-06 9.940113833910e-03 0.0 
0.0 0.0 0.0 
5.175444297054e-04 1.107176499101e-03 0.0 
1.107176499101e-03 7.144877191444e-03 0.0 
0.0 0.0 0.0 
2.606249285666e-04 4.153599990881e-04 0.0 
4.153599990881e-04 7.638927609172e-03 0.0 
0.0 0.0 0.0 
2.876978273201e-04 -1.843296076497e-05 0.0 
-1.843296076497e-05 1.759419104125e-03 0.0 
0.0 0.0 0.0 
3.111934195457e-04 5.046910195952e-04 0.0 
5.046910195952e-04 7.544892436769e-03 0.0 
0.0 0.0 0.0 
-3.830442231807e-04 8.527413167848e-05 0.0 
8.527413167848e-05 1.138039334310e-02 0.0 
0.0 0.0 0.0 
3.324046397033e-04 -2.890532654788e-05 0.0 
-2.890532654788e-05 1.985746372101e-03 0.0 
0.0 0.0 0.0 
3.884330488118e-04 -2.012537874744e-04 0.0 
-2.012537874744e-04 2.088202798131e-03 0.0 
0.0 0.0 0.0 
5.988657280698e-04 5.453967763689e-05 0.0 
5.453967763689e-05 4.381482073754e-03 0.0 
0.0 0.0 0.0 
-4.677395013026e-04 1.476225130987e-04 0.0 
1.476225130987e-04 1.074253408920e-02 0.0 
0.0 0.0 0.0 
5.380343337089e-04 -3.909518488709e-05 0.0 
-3.909518488709e-05 2.852648822502e-03 0.0 
0.0 0.0 0.0 
-3.389518308717e-04 7.162553741508e-05 0.0 
7.162553741508e-05 1.158941694114e-02 0.0 
0.0 0.0 0.0 
-4.263470677989e-04 5.424632133421e-05 0.0 
5.424632133421e-05 1.097920390383e-02 0.0 
0.0 0.0 0.0 
6.435067081305e-04 7.605134000501e-05 0.0 
7.605134000501e-05 4.255174613947e-03 0.0 
0.0 0.0 0.0 
4.972246540014e-04 6.503634748099e-05 0.0 
6.503634748099e-05 5.970774112364e-03 0.0 
0.0 0.0 0.0 
4.734310059895e-04 1.101527894677e-04 0.0 
1.101527894677e-04 6.245992729464e-03 0.0 
0.0 0.0 0.0 
-3.507154516930e-04 1.384055404880e-04 0.0 
1.384055404880e-04 1.137267795801e-02 0.0 
0.0 0.0 0.0 
2.165535552234e-04 -1.589922816817e-04 0.0 
-1.589922816817e-04 1.519850417067e-03 0.0 
0.0 0.0 0.0 
6.183033718310e-04 4.755355032922e-05 0.0 
4.755355032922e-05 4.015630835760e-03 0.0 
0.0 0.0 0.0 
3.088266233073e-04 1.424671427699e-03 0.0 
1.424671427699e-03 8.532833739969e-03 0.0 
0.0 0.0 0.0 
-3.762560698091e-04 1.247064106711e-04 0.0 
1.247064106711e-04 1.155615332251e-02 0.0 
0.0 0.0 0.0 
5.942183889649e-04 2.304241236264e-05 0.0 
2.304241236264e-05 3.596131017943e-03 0.0 
0.0 0.0 0.0 
6.451822031179e-04 2.014700868574e-04 0.0 
2.014700868574e-04 5.305157780807e-03 0.0 
0.0 0.0 0.0 
3.650402677253e-04 5.358421598087e-04 0.0 
5.358421598087e-04 7.379214323936e-03 0.0 
0.0 0.0 0.0 
-3.875149721491e-04 1.436720177598e-04 0.0 
1.436720177598e-04 1.116376081741e-02 0.0 
0.0 0.0 0.0 
-1.887514289689e-04 -7.395665607952e-05 0.0 
-7.395665607952e-05 1.036522764582e-03 0.0 
0.0 0.0 0.0 
1.819764085331e-05 -1.723661717359e-04 0.0 
-1.723661717359e-04 8.487200188783e-04 0.0 
0.0 0.0 0.0 
3.856322231217e-04 2.107499957153e-04 0.0 
2.107499957153e-04 2.113370569192e-03 0.0 
0.0 0.0 0.0 
4.104733673338e-04 2.096059550407e-04 0.0 
2.096059550407e-04 6.718717165773e-03 0.0 
0.0 0.0 0.0 
-4.294266923293e-04 1.474953742338e-04 0.0 
1.474953742338e-04 1.095447291458e-02 0.0 
0.0 0.0 0.0 
5.838352241898e-04 -4.652143099392e-06 0.0 
-4.652143099392e-06 4.819544109532e-03 0.0 
0.0 0.0 0.0 
-4.919317231777e-04 1.066359885277e-04 0.0 
1.066359885277e-04 1.034133395404e-02 0.0 
0.0 0.0 0.0 
4.743377019418e-04 7.551343207471e-04 0.0 
7.551343207471e-04 7.251040618740e-03 0.0 
0.0 0.0 0.0 
6.268810174883e-04 7.750691583297e-05 0.0 
7.750691583297e-05 4.437571016017e-03 0.0 
0.0 0.0 0.0 
4.904701564052e-04 1.854801569289e-04 0.0 
1.854801569289e-04 6.234355641495e-03 0.0 
0.0 0.0 0.0 
2.851186085802e-04 -1.154968436978e-04 0.0 
-1.154968436978e-04 1.833625172895e-03 0.0 
0.0 0.0 0.0 
3.351944455448e-04 4.663893151898e-04 0.0 
4.663893151898e-04 7.435897179371e-03 0.0 
0.0 0.0 0.0 
6.036493629027e-04 2.542272204709e-06 0.0 
2.542272204709e-06 4.267001389093e-03 0.0 
0.0 0.0 0.0 
3.096332328829e-04 -9.376945085934e-05 0.0 
-9.376945085934e-05 1.995969505495e-03 0.0 
0.0 0.0 0.0 
5.837547565251e-04 -2.554810266790e-05 0.0 
-2.554810266790e-05 4.027806688887e-03 0.0 
0.0 0.0 0.0 
5.463991795718e-04 -2.352872505915e-05 0.0 
-2.352872505915e-05 3.023162968496e-03 0.0 
0.0 0.0 0.0 
4.022057305098e-04 -1.662842076660e-04 0.0 
-1.662842076660e-04 2.312382013080e-03 0.0 
0.0 0.0 0.0 
5.937879679614e-04 6.805573267134e-05 0.0 
6.805573267134e-05 4.805388264337e-03 0.0 
0.0 0.0 0.0 
-1.276833845518e-04 -4.053953525462e-05 0.0 
-4.053953525462e-05 1.862343563328e-04 0.0 
0.0 0.0 0.0 
-1.885468193675e-04 -4.338814319703e-05 0.0 
-4.338814319703e-05 2.137117842640e-04 0.0 
0.0 0.0 0.0 
5.585863844730e-04 1.047318894262e-04 0.0 
1.047318894262e-04 5.581041216649e-03 0.0 
0.0 0.0 0.0 
2.518882243956e-04 -1.391701946553e-04 0.0 
-1.391701946553e-04 1.676890549654e-03 0.0 
0.0 0.0 0.0 
5.781059368808e-04 1.740055857807e-04 0.0 
1.740055857807e-04 5.667256039987e-03 0.0 
0.0 0.0 0.0 
6.122214685897e-04 1.891988669581e-04 0.0 
1.891988669581e-04 5.484166595030e-03 0.0 
0.0 0.0 0.0 
6.465019559454e-04 1.495026139799e-05 0.0 
1.495026139799e-05 3.309235473100e-03 0.0 
0.0 0.0 0.0 
5.178005817534e-04 -4.137751250116e-05 0.0 
-4.137751250116e-05 2.144352522213e-03 0.0 
0.0 0.0 0.0 
-3.560172319038e-04 2.250711775457e-04 0.0 
2.250711775457e-04 1.189219308880e-02 0.0 
0.0 0.0 0.0 
-5.933919889090e-05 3.663397392697e-04 0.0 
3.663397392697e-04 1.346092615611e-03 0.0 
0.0 0.0 0.0 
5.518135313229e-04 -9.503902230669e-06 0.0 
-9.503902230669e-06 3.198975844238e-03 0.0 
0.0 0.0 0.0 
4.087772864689e-04 8.752301450570e-04 0.0 
8.752301450570e-04 7.611309627083e-03 0.0 
0.0 0.0 0.0 
2.266737340961e-04 -5.720872057256e-05 0.0 
-5.720872057256e-05 1.432995156028e-03 0.0 
0.0 0.0 0.0 
-5.028909597781e-04 6.179352165118e-05 0.0 
6.179352165118e-05 1.056267195911e-02 0.0 
0.0 0.0 0.0 
-5.193360944845e-04 2.179808599905e-05 0.0 
2.179808599905e-05 1.014661710792e-02 0.0 
0.0 0.0 0.0 
1.752529293708e-04 -2.142832884352e-04 0.0 
-2.142832884352e-04 1.407232386237e-03 0.0 
0.0 0.0 0.0 
4.241575540493e-04 5.822880183424e-04 0.0 
5.822880183424e-04 7.196952528185e-03 0.0 
0.0 0.0 0.0 
-4.809115265100e-04 1.908993729125e-04 0.0 
1.908993729125e-04 1.131456105861e-02 0.0 
0.0 0.0 0.0 
2.674053660483e-04 -7.316957903234e-05 0.0 
-7.316957903234e-05 1.663466803502e-03 0.0 
0.0 0.0 0.0 
-3.430840651895e-04 2.864790279873e-04 0.0 
2.864790279873e-04 1.204784006202e-02 0.0 
0.0 0.0 0.0 
-2.854395067819e-04 3.276603101541e-04 0.0 
3.276603101541e-04 1.204106203634e-02 0.0 
0.0 0.0 0.0 
2.978347325522e-04 -1.573973538187e-04 0.0 
-1.573973538187e-04 1.882666559086e-03 0.0 
0.0 0.0 0.0 
-2.335590490667e-04 1.485328706345e-03 0.0 
1.485328706345e-03 5.791609139170e-03 0.0 
0.0 0.0 0.0 
3.162470555058e-04 -1.882557555770e-04 0.0 
-1.882557555770e-04 1.934554962928e-03 0.0 
0.0 0.0 0.0 
5.107989015860e-04 1.361760343201e-04 0.0 
1.361760343201e-04 6.046824662756e-03 0.0 
0.0 0.0 0.0 
6.099233775809e-04 7.513964109371e-05 0.0 
7.513964109371e-05 4.622779658248e-03 0.0 
0.0 0.0 0.0 
-4.231511022346e-04 8.462840712763e-04 0.0 
8.462840712763e-04 1.176210585422e-02 0.0 
0.0 0.0 0.0 
-3.066140990897e-04 2.696300521845e-04 0.0 
2.696300521845e-04 1.188679198360e-02 0.0 
0.0 0.0 0.0 
5.441710901177e-04 1.565300357841e-04 0.0 
1.565300357841e-04 5.855500652176e-03 0.0 
0.0 0.0 0.0 
5.762229111270e-04 2.329390095548e-04 0.0 
2.329390095548e-04 5.843615102041e-03 0.0 
0.0 0.0 0.0 
2.425440970928e-04 -1.161580738757e-04 0.0 
-1.161580738757e-04 1.550312241034e-03 0.0 
0.0 0.0 0.0 
5.338002392421e-04 2.104546649858e-04 0.0 
2.104546649858e-04 6.035320570025e-03 0.0 
0.0 0.0 0.0 
-4.241224299634e-04 2.360025367788e-04 0.0 
2.360025367788e-04 1.130910081359e-02 0.0 
0.0 0.0 0.0 
5.875968311038e-04 5.418666592638e-06 0.0 
5.418666592638e-06 4.633714192072e-03 0.0 
0.0 0.0 0.0 
-4.718984627129e-04 9.696719130901e-05 0.0 
9.696719130901e-05 1.096049625919e-02 0.0 
0.0 0.0 0.0 
-4.245308823897e-04 1.832276602825e-04 0.0 
1.832276602825e-04 1.152125277773e-02 0.0 
0.0 0.0 0.0 
7.127169807217e-04 1.057836896879e-03 0.0 
1.057836896879e-03 5.222144449800e-03 0.0 
0.0 0.0 0.0 
-3.230286222152e-04 2.196390034844e-04 0.0 
2.196390034844e-04 1.172176288375e-02 0.0 
0.0 0.0 0.0 
5.880369720084e-04 3.324892646912e-05 0.0 
3.324892646912e-05 3.799867739788e-03 0.0 
0.0 0.0 0.0 
5.952712553159e-04 5.445321038330e-06 0.0 
5.445321038330e-06 4.449096439322e-03 0.0 
0.0 0.0 0.0 
4.966309688750e-04 -2.656504378742e-05 0.0 
-2.656504378742e-05 2.808309147645e-03 0.0 
0.0 0.0 0.0 
5.775510912089e-04 -9.459418273583e-05 0.0 
-9.459418273583e-05 2.993567701057e-03 0.0 
0.0 0.0 0.0 
-4.273064748129e-04 1.879846713589e-04 0.0 
1.879846713589e-04 1.113421720305e-02 0.0 
0.0 0.0 0.0 
7.364141982453e-04 1.636073499395e-04 0.0 
1.636073499395e-04 4.353135434232e-03 0.0 
0.0 0.0 0.0 
3.479842807135e-04 -1.666343890131e-04 0.0 
-1.666343890131e-04 2.096612362215e-03 0.0 
0.0 0.0 0.0 
6.260619707366e-05 -2.009053988308e-04 0.0 
-2.009053988308e-04 1.048298332261e-03 0.0 
0.0 0.0 0.0 
-4.766763012700e-04 1.404226665175e-04 0.0 
1.404226665175e-04 1.113993620194e-02 0.0 
0.0 0.0 0.0 
3.810109534903e-04 -8.962725228576e-05 0.0 
-8.962725228576e-05 2.084484034063e-03 0.0 
0.0 0.0 0.0 
3.498006175462e-04 5.768833823270e-04 0.0 
5.768833823270e-04 7.537562044006e-03 0.0 
0.0 0.0 0.0 
-3.816396248105e-04 1.836232718311e-04 0.0 
1.836232718311e-04 1.134244134180e-02 0.0 
0.0 0.0 0.0 
5.092051518287e-04 2.689956475742e-04 0.0 
2.689956475742e-04 6.319134149054e-03 0.0 
0.0 0.0 0.0 
1.521529460409e-04 1.181618496345e-03 0.0 
1.181618496345e-03 8.677746208345e-03 0.0 
0.0 0.0 0.0 
5.584515869139e-04 -5.223979766265e-05 0.0 
-5.223979766265e-05 3.612303972822e-03 0.0 
0.0 0.0 0.0 
3.210940502441e-04 -8.464206661990e-05 0.0 
-8.464206661990e-05 1.871298892291e-03 0.0 
0.0 0.0 0.0 
1.266669372211e-04 -1.091083386559e-04 0.0 
-1.091083386559e-04 1.179810349723e-03 0.0 
0.0 0.0 0.0 
5.629802315428e-04 2.391733512352e-04 0.0 
2.391733512352e-04 5.951569974575e-03 0.0 
0.0 0.0 0.0 
-4.316506969890e-04 1.159398754619e-04 0.0 
1.159398754619e-04 1.077224403346e-02 0.0 
0.0 0.0 0.0 
1.278806830585e-05 -9.658819687388e-05 0.0 
-9.658819687388e-05 8.302993201039e-04 0.0 
0.0 0.0 0.0 
4.946882392285e-04 -1.155495908928e-04 0.0 
-1.155495908928e-04 2.864646469315e-03 0.0 
0.0 0.0 0.0 
2.452533370481e-04 -9.579722659164e-05 0.0 
-9.579722659164e-05 1.624099051207e-03 0.0 
0.0 0.0 0.0 
-5.131235128930e-04 9.909523021654e-05 0.0 
9.909523021654e-05 1.074830332509e-02 0.0 
0.0 0.0 0.0 
5.105099732745e-04 -9.683193640383e-05 0.0 
-9.683193640383e-05 3.034589808240e-03 0.0 
0.0 0.0 0.0 
6.601417136720e-04 2.690407293048e-04 0.0 
2.690407293048e-04 5.471218357032e-03 0.0 
0.0 0.0 0.0 
4.669200442171e-04 -1.023123724846e-04 0.0 
-1.023123724846e-04 2.816293141911e-03 0.0 
0.0 0.0 0.0 
-3.260894122700e-04 1.099143898445e-04 0.0 
1.099143898445e-04 1.176288161191e-02 0.0 
0.0 0.0 0.0 
4.657773742729e-04 -6.739299141650e-05 0.0 
-6.739299141650e-05 2.465620681926e-03 0.0 
0.0 0.0 0.0 
5.849243938059e-04 3.352579693800e-04 0.0 
3.352579693800e-04 6.067958407628e-03 0.0 
0.0 0.0 0.0 
2.668819002265e-04 -2.346037219540e-04 0.0 
-2.346037219540e-04 1.721071798387e-03 0.0 
0.0 0.0 0.0 
6.024314534412e-04 2.578415739158e-04 0.0 
2.578415739158e-04 5.769385012272e-03 0.0 
0.0 0.0 0.0 
5.831262506102e-04 -1.086942668938e-05 0.0 
-1.086942668938e-05 4.219576988436e-03 0.0 
0.0 0.0 0.0 
5.580330264885e-04 2.954194285324e-04 0.0 
2.954194285324e-04 6.126955453298e-03 0.0 
0.0 0.0 0.0 
8.030269558532e-04 4.263089348185e-04 0.0 
4.263089348185e-04 3.116460701984e-03 0.0 
0.0 0.0 0.0 
2.564113597496e-04 -3.183394828159e-05 0.0 
-3.183394828159e-05 1.607777111097e-03 0.0 
0.0 0.0 0.0 
-4.907647188634e-04 3.221019642488e-05 0.0 
3.221019642488e-05 1.037261500971e-02 0.0 
0.0 0.0 0.0 
7.115338642725e-04 6.723283217353e-04 0.0 
6.723283217353e-04 5.988356359576e-03 0.0 
0.0 0.0 0.0 
-1.952578517967e-04 1.491811673942e-03 0.0 
1.491811673942e-03 6.914006532117e-03 0.0 
0.0 0.0 0.0 
-4.662421426314e-04 6.019177717323e-05 0.0 
6.019177717323e-05 1.077407620306e-02 0.0 
0.0 0.0 0.0 
3.530376374010e-04 -2.119400138372e-04 0.0 
-2.119400138372e-04 1.938669519361e-03 0.0 
0.0 0.0 0.0 
-5.215569530908e-04 2.353707952792e-04 0.0 
2.353707952792e-04 1.089044853134e-02 0.0 
0.0 0.0 0.0 
2.067770205665e-04 -1.195147101563e-04 0.0 
-1.195147101563e-04 1.457224761513e-03 0.0 
0.0 0.0 0.0 
4.176128627202e-04 4.453539284686e-04 0.0 
4.453539284686e-04 7.051404857743e-03 0.0 
0.0 0.0 0.0 
6.673335839411e-04 7.891784649609e-04 0.0 
7.891784649609e-04 6.377038862377e-03 0.0 
0.0 0.0 0.0 
4.245187181653e-04 1.205517076885e-03 0.0 
1.205517076885e-03 7.611881287612e-03 0.0 
0.0 0.0 0.0 
-2.733813585877e-04 2.647239975712e-04 0.0 
2.647239975712e-04 1.225961012904e-02 0.0 
0.0 0.0 0.0 
7.323933770547e-04 2.359424325838e-04 0.0 
2.359424325838e-04 4.801083158169e-03 0.0 
0.0 0.0 0.0 
2.280056740185e-04 -9.120029825095e-05 0.0 
-9.120029825095e-05 1.504929936915e-03 0.0 
0.0 0.0 0.0 
6.760096177454e-04 2.914395931138e-04 0.0 
2.914395931138e-04 5.423607996904e-03 0.0 
0.0 0.0 0.0 
4.029883426004e-04 6.224323599795e-04 0.0 
6.224323599795e-04 7.365576695202e-03 0.0 
0.0 0.0 0.0 
5.444961148642e-04 -1.105367681786e-04 0.0 
-1.105367681786e-04 2.552862166803e-03 0.0 
0.0 0.0 0.0 
5.229195705168e-04 2.175147461991e-04 0.0 
2.175147461991e-04 6.139033751783e-03 0.0 
0.0 0.0 0.0 
-4.269235735027e-04 1.338604077880e-04 0.0 
1.338604077880e-04 1.134841290444e-02 0.0 
0.0 0.0 0.0 
4.862967682486e-04 -2.626593300695e-05 0.0 
-2.626593300695e-05 1.994007141038e-03 0.0 
0.0 0.0 0.0 
6.402776920207e-04 2.748439563437e-04 0.0 
2.748439563437e-04 5.593546518734e-03 0.0 
0.0 0.0 0.0 
-5.835807649121e-04 8.996036855213e-05 0.0 
8.996036855213e-05 1.031480902428e-02 0.0 
0.0 0.0 0.0 
3.568350156493e-04 -1.086202330728e-04 0.0 
-1.086202330728e-04 2.212080695700e-03 0.0 
0.0 0.0 0.0 
4.784832659679e-04 -1.359720233263e-04 0.0 
-1.359720233263e-04 2.696692705801e-03 0.0 
0.0 0.0 0.0 
-1.114036538732e-04 1.430901150823e-03 0.0 
1.430901150823e-03 7.647179819699e-03 0.0 
0.0 0.0 0.0 
6.059816703088e-04 3.184220749030e-04 0.0 
3.184220749030e-04 5.939120747093e-03 0.0 
0.0 0.0 0.0 
-5.215156556936e-04 1.430062416813e-03 0.0 
1.430062416813e-03 7.418523284513e-03 0.0 
0.0 0.0 0.0 
3.805349929120e-05 1.425926728864e-03 0.0 
1.425926728864e-03 7.099296862743e-03 0.0 
0.0 0.0 0.0 
-4.737439834065e-04 2.373999531651e-04 0.0 
2.373999531651e-04 1.110077490112e-02 0.0 
0.0 0.0 0.0 
-4.632484014334e-04 1.153138526901e-04 0.0 
1.153138526901e-04 1.055632813615e-02 0.0 
0.0 0.0 0.0 
-5.505225980431e-04 1.752936961201e-04 0.0 
1.752936961201e-04 1.050048507936e-02 0.0 
0.0 0.0 0.0 
6.079768070166e-04 5.031181043193e-05 0.0 
5.031181043193e-05 4.205907048745e-03 0.0 
0.0 0.0 0.0 
4.784582208093e-04 6.132417447506e-04 0.0 
6.132417447506e-04 7.041223376649e-03 0.0 
0.0 0.0 0.0 
7.090961754801e-04 3.081862905657e-04 0.0 
3.081862905657e-04 5.260290384072e-03 0.0 
0.0 0.0 0.0 
-5.389952243875e-04 5.930921163127e-05 0.0 
5.930921163127e-05 1.034690000013e-02 0.0 
0.0 0.0 0.0 
-4.659172200745e-04 1.095172780724e-03 0.0 
1.095172780724e-03 1.159573664220e-02 0.0 
0.0 0.0 0.0 
3.253023657341e-04 1.289793981232e-03 0.0 
1.289793981232e-03 8.081232998167e-03 0.0 
0.0 0.0 0.0 
6.524820028311e-04 3.394983700724e-04 0.0 
3.394983700724e-04 5.756514691160e-03 0.0 
0.0 0.0 0.0 
-3.733680879227e-04 2.295801802660e-04 0.0 
2.295801802660e-04 1.151565658971e-02 0.0 
0.0 0.0 0.0 
5.836282978704e-04 -8.401086766459e-05 0.0 
-8.401086766459e-05 3.154347150320e-03 0.0 
0.0 0.0 0.0 
5.312507585404e-04 -1.160804662641e-04 0.0 
-1.160804662641e-04 2.921874377330e-03 0.0 
0.0 0.0 0.0 
2.214982320310e-04 -1.992161930478e-04 0.0 
-1.992161930478e-04 1.563211560501e-03 0.0 
0.0 0.0 0.0 
6.666428407922e-04 3.790082258177e-04 0.0 
3.790082258177e-04 5.730496170512e-03 0.0 
0.0 0.0 0.0 
5.405983324196e-04 -9.890526089053e-05 0.0 
-9.890526089053e-05 3.090787989936e-03 0.0 
0.0 0.0 0.0 
-5.247458537011e-04 1.422034500308e-04 0.0 
1.422034500308e-04 1.092913414010e-02 0.0 
0.0 0.0 0.0 
-5.709004516602e-04 1.408545980815e-04 0.0 
1.408545980815e-04 1.071695465594e-02 0.0 
0.0 0.0 0.0 
7.257596636645e-04 8.342979717659e-04 0.0 
8.342979717659e-04 5.254139082256e-03 0.0 
0.0 0.0 0.0 
5.134564365661e-04 -6.980888677789e-05 0.0 
-6.980888677789e-05 2.518048553568e-03 0.0 
0.0 0.0 0.0 
7.467575956619e-04 7.607871275815e-04 0.0 
7.607871275815e-04 3.348516105806e-03 0.0 
0.0 0.0 0.0 
5.272184202549e-04 -5.491209438764e-05 0.0 
-5.491209438764e-05 2.683841540226e-03 0.0 
0.0 0.0 0.0 
5.884496027981e-04 -3.014076178410e-05 0.0 
-3.014076178410e-05 2.908278968025e-03 0.0 
0.0 0.0 0.0 
2.851787886859e-04 -1.022518262361e-04 0.0 
-1.022518262361e-04 1.710677049242e-03 0.0 
0.0 0.0 0.0 
5.291201584725e-04 6.467511313819e-04 0.0 
6.467511313819e-04 6.887973085716e-03 0.0 
0.0 0.0 0.0 
7.567366892001e-04 1.206144385910e-04 0.0 
1.206144385910e-04 3.635152740515e-03 0.0 
0.0 0.0 0.0 
-3.677243997486e-04 1.708238789331e-04 0.0 
1.708238789331e-04 1.172765484180e-02 0.0 
0.0 0.0 0.0 
7.999906458755e-04 1.970018178329e-04 0.0 
1.970018178329e-04 3.901242881257e-03 0.0 
0.0 0.0 0.0 
7.388182153438e-04 3.809263972757e-04 0.0 
3.809263972757e-04 5.409591450589e-03 0.0 
0.0 0.0 0.0 
7.879151978483e-04 2.509618741284e-04 0.0 
2.509618741284e-04 4.498567514869e-03 0.0 
0.0 0.0 0.0 
3.168312124495e-04 1.314857355585e-03 0.0 
1.314857355585e-03 6.394124291862e-03 0.0 
0.0 0.0 0.0 
2.618951727862e-04 -1.785088282128e-04 0.0 
-1.785088282128e-04 1.723430826887e-03 0.0 
0.0 0.0 0.0 
4.635726044757e-04 6.511069969610e-04 0.0 
6.511069969610e-04 7.183902012596e-03 0.0 
0.0 0.0 0.0 
3.611597048834e-04 6.778971903311e-04 0.0 
6.778971903311e-04 7.579084769076e-03 0.0 
0.0 0.0 0.0 
-2.248291071197e-04 1.406148838953e-03 0.0 
1.406148838953e-03 8.876066567791e-03 0.0 
0.0 0.0 0.0 
6.484580700374e-04 7.262851019100e-06 0.0 
7.262851019100e-06 3.139874969732e-03 0.0 
0.0 0.0 0.0 
7.734013052347e-04 3.162772453047e-04 0.0 
3.162772453047e-04 4.948429596477e-03 0.0 
0.0 0.0 0.0 
-4.707370501662e-04 1.889066543105e-04 0.0 
1.889066543105e-04 1.092353798798e-02 0.0 
0.0 0.0 0.0 
5.870339292349e-04 -7.060112156211e-05 0.0 
-7.060112156211e-05 3.322695444582e-03 0.0 
0.0 0.0 0.0 
3.485449316654e-05 1.465037675494e-03 0.0 
1.465037675494e-03 6.318842741056e-03 0.0 
0.0 0.0 0.0 
4.246719006380e-04 -1.443163507182e-04 0.0 
-1.443163507182e-04 2.477740741290e-03 0.0 
0.0 0.0 0.0 
4.373070035246e-04 -1.706916092967e-04 0.0 
-1.706916092967e-04 2.164777337964e-03 0.0 
0.0 0.0 0.0 
6.341464499477e-04 -3.928713037105e-05 0.0 
-3.928713037105e-05 3.395712838851e-03 0.0 
0.0 0.0 0.0 
4.069571207150e-04 -7.119780236633e-05 0.0 
-7.119780236633e-05 2.249563069542e-03 0.0 
0.0 0.0 0.0 
3.284599119928e-04 -1.347598023920e-04 0.0 
-1.347598023920e-04 2.045650186728e-03 0.0 
0.0 0.0 0.0 
7.164984092451e-04 1.553835517483e-04 0.0 
1.553835517483e-04 4.513638078296e-03 0.0 
0.0 0.0 0.0 
6.970981173164e-04 3.603544549943e-04 0.0 
3.603544549943e-04 5.580103903023e-03 0.0 
0.0 0.0 0.0 
-2.014140356903e-04 1.446930326928e-03 0.0 
1.446930326928e-03 1.004550264234e-02 0.0 
0.0 0.0 0.0 
-2.512808906014e-04 -2.738429413927e-05 0.0 
-2.738429413927e-05 2.181822616822e-04 0.0 
0.0 0.0 0.0 
8.591213779743e-04 3.415211625258e-04 0.0 
3.415211625258e-04 3.896220883955e-03 0.0 
0.0 0.0 0.0 
8.137627051192e-04 2.131911228949e-04 0.0 
2.131911228949e-04 3.746987076718e-03 0.0 
0.0 0.0 0.0 
7.059051996319e-04 5.719011142807e-05 0.0 
5.719011142807e-05 3.381412576412e-03 0.0 
0.0 0.0 0.0 
-5.116851665847e-04 1.839494063053e-04 0.0 
1.839494063053e-04 1.071181866071e-02 0.0 
0.0 0.0 0.0 
7.824015432518e-04 1.855689627996e-04 0.0 
1.855689627996e-04 4.060329217662e-03 0.0 
0.0 0.0 0.0 
4.829803250750e-04 -4.815321095205e-05 0.0 
-4.815321095205e-05 2.634217256169e-03 0.0 
0.0 0.0 0.0 
6.808984917344e-04 2.041395786711e-05 0.0 
2.041395786711e-05 3.650955640627e-03 0.0 
0.0 0.0 0.0 
-3.381450785950e-04 1.751611771402e-04 0.0 
1.751611771402e-04 1.155017300329e-02 0.0 
0.0 0.0 0.0 
4.425483921351e-04 -1.217465874619e-04 0.0 
-1.217465874619e-04 2.645879175039e-03 0.0 
0.0 0.0 0.0 
7.753406053723e-05 -8.925872267257e-05 0.0 
-8.925872267257e-05 9.649543983998e-04 0.0 
0.0 0.0 0.0 
1.810437188099e-04 -1.036573940545e-04 0.0 
-1.036573940545e-04 1.341618714290e-03 0.0 
0.0 0.0 0.0 
5.425402713524e-04 -4.831907099977e-05 0.0 
-4.831907099977e-05 2.297974495811e-03 0.0 
0.0 0.0 0.0 
5.811378674907e-04 -4.150400691300e-05 0.0 
-4.150400691300e-05 2.744514200386e-03 0.0 
0.0 0.0 0.0 
8.487191818336e-04 3.100774624921e-04 0.0 
3.100774624921e-04 4.035600499900e-03 0.0 
0.0 0.0 0.0 
7.212648429897e-04 9.251070520390e-05 0.0 
9.251070520390e-05 3.918901392620e-03 0.0 
0.0 0.0 0.0 
2.181959126950e-04 -2.454763658523e-04 0.0 
-2.454763658523e-04 1.567866150096e-03 0.0 
0.0 0.0 0.0 
1.723918229402e-04 -1.833013454136e-04 0.0 
-1.833013454136e-04 1.353364735877e-03 0.0 
0.0 0.0 0.0 
-6.923189171313e-04 1.848920437728e-04 0.0 
1.848920437728e-04 1.045301904381e-02 0.0 
0.0 0.0 0.0 
3.754796870905e-04 -1.440795619776e-04 0.0 
-1.440795619776e-04 2.260850583271e-03 0.0 
0.0 0.0 0.0 
6.295197528736e-04 6.299812470657e-04 0.0 
6.299812470657e-04 6.528579524913e-03 0.0 
0.0 0.0 0.0 
-1.459963513119e-04 1.453829534748e-03 0.0 
1.453829534748e-03 9.603437507281e-03 0.0 
0.0 0.0 0.0 
-8.691450478044e-04 6.437112102076e-04 0.0 
6.437112102076e-04 1.029541462161e-02 0.0 
0.0 0.0 0.0 
-3.966242588616e-04 4.269516230038e-04 0.0 
4.269516230038e-04 1.178582546627e-02 0.0 
0.0 0.0 0.0 
-2.242346602186e-04 1.433808851482e-03 0.0 
1.433808851482e-03 1.045750075612e-02 0.0 
0.0 0.0 0.0 
6.838328077381e-04 9.157753996928e-04 0.0 
9.157753996928e-04 5.243581917980e-03 0.0 
0.0 0.0 0.0 
-1.860517292682e-04 1.423040535001e-03 0.0 
1.423040535001e-03 9.236714909318e-03 0.0 
0.0 0.0 0.0 
3.073396930664e-04 -2.196004570354e-04 0.0 
-2.196004570354e-04 1.788691339734e-03 0.0 
0.0 0.0 0.0 
6.726913632433e-04 2.237546140950e-05 0.0 
2.237546140950e-05 3.813199405096e-03 0.0 
0.0 0.0 0.0 
5.535603132982e-04 1.241447034576e-03 0.0 
1.241447034576e-03 5.288742229287e-03 0.0 
0.0 0.0 0.0 
5.541113289165e-04 9.521597092924e-05 0.0 
9.521597092924e-05 2.104425101905e-03 0.0 
0.0 0.0 0.0 
1.487213019609e-04 -2.498396785383e-04 0.0 
-2.498396785383e-04 1.431202233019e-03 0.0 
0.0 0.0 0.0 
5.927633234897e-04 -1.768838655573e-05 0.0 
-1.768838655573e-05 3.078074046500e-03 0.0 
0.0 0.0 0.0 
7.315491686037e-04 1.009897248390e-04 0.0 
1.009897248390e-04 3.766942114559e-03 0.0 
0.0 0.0 0.0 
7.658966748294e-04 1.923597709131e-04 0.0 
1.923597709131e-04 4.054971878281e-03 0.0 
0.0 0.0 0.0 
4.286369278144e-04 -5.204357625938e-05 0.0 
-5.204357625938e-05 2.416325808273e-03 0.0 
0.0 0.0 0.0 
8.128088952246e-04 2.655022853392e-04 0.0 
2.655022853392e-04 4.337109965283e-03 0.0 
0.0 0.0 0.0 
7.745090583737e-04 2.156464003474e-04 0.0 
2.156464003474e-04 3.918623838863e-03 0.0 
0.0 0.0 0.0 
8.785539066294e-04 4.560753218453e-04 0.0 
4.560753218453e-04 4.215575994586e-03 0.0 
0.0 0.0 0.0 
5.191270248681e-04 -1.321039841249e-04 0.0 
-1.321039841249e-04 2.758325031571e-03 0.0 
0.0 0.0 0.0 
6.129468259015e-04 9.491831079325e-04 0.0 
9.491831079325e-04 6.725291010932e-03 0.0 
0.0 0.0 0.0 
-5.359475102676e-04 1.953738175956e-04 0.0 
1.953738175956e-04 1.110583554660e-02 0.0 
0.0 0.0 0.0 
8.801770613649e-04 5.063791876452e-04 0.0 
5.063791876452e-04 4.101318108337e-03 0.0 
0.0 0.0 0.0 
5.298076241351e-04 6.951920797114e-04 0.0 
6.951920797114e-04 7.028517163206e-03 0.0 
0.0 0.0 0.0 
4.014950510562e-04 -1.701247597028e-04 0.0 
-1.701247597028e-04 2.016054499685e-03 0.0 
0.0 0.0 0.0 
4.115413630188e-04 9.234779578515e-04 0.0 
9.234779578515e-04 7.778361937146e-03 0.0 
0.0 0.0 0.0 
8.327082481221e-04 2.845645922697e-04 0.0 
2.845645922697e-04 4.181743766138e-03 0.0 
0.0 0.0 0.0 
-2.172067773690e-04 1.452941168497e-03 0.0 
1.452941168497e-03 1.087743129990e-02 0.0 
0.0 0.0 0.0 
-6.683944676270e-04 1.155498379452e-03 0.0 
1.155498379452e-03 9.635697436501e-03 0.0 
0.0 0.0 0.0 
4.190513822087e-04 -9.321286170971e-05 0.0 
-9.321286170971e-05 1.920066358107e-03 0.0 
0.0 0.0 0.0 
-8.396927010125e-04 7.741115186863e-04 0.0 
7.741115186863e-04 1.033937834254e-02 0.0 
0.0 0.0 0.0 
-4.249536444626e-04 6.137105441462e-04 0.0 
6.137105441462e-04 1.182667560862e-02 0.0 
0.0 0.0 0.0 
8.529314547194e-04 3.822202677912e-04 0.0 
3.822202677912e-04 4.481174487576e-03 0.0 
0.0 0.0 0.0 
3.222911508982e-04 1.282223203228e-03 0.0 
1.282223203228e-03 5.043148390666e-03 0.0 
0.0 0.0 0.0 
-7.888458080857e-04 9.016128200153e-04 0.0 
9.016128200153e-04 1.035415636887e-02 0.0 
0.0 0.0 0.0 
-1.818641430443e-04 1.467475549155e-03 0.0 
1.467475549155e-03 7.278808084086e-03 0.0 
0.0 0.0 0.0 
2.708569427514e-04 -1.239194442636e-04 0.0 
-1.239194442636e-04 1.547684213943e-03 0.0 
0.0 0.0 0.0 
-1.927166775213e-04 5.462988546150e-04 0.0 
5.462988546150e-04 1.247123127732e-02 0.0 
0.0 0.0 0.0 
1.631603784769e-04 -1.337732233839e-04 0.0 
-1.337732233839e-04 1.341391555137e-03 0.0 
0.0 0.0 0.0 
2.947684260441e-04 1.307751872207e-03 0.0 
1.307751872207e-03 8.573562790273e-03 0.0 
0.0 0.0 0.0 
-2.520387145950e-04 2.519885438353e-04 0.0 
2.519885438353e-04 1.208766655576e-02 0.0 
0.0 0.0 0.0 
6.092934366253e-04 9.021731255714e-04 0.0 
9.021731255714e-04 6.786744242875e-03 0.0 
0.0 0.0 0.0 
-5.026913621086e-04 1.453730505300e-04 0.0 
1.453730505300e-04 1.052350160820e-02 0.0 
0.0 0.0 0.0 
-4.793930746037e-04 3.168170539834e-04 0.0 
3.168170539834e-04 1.164206625157e-02 0.0 
0.0 0.0 0.0 
7.978185342403e-04 3.271639709334e-04 0.0 
3.271639709334e-04 4.237053929389e-03 0.0 
0.0 0.0 0.0 
6.964274589063e-04 8.900711001905e-04 0.0 
8.900711001905e-04 5.731316631882e-03 0.0 
0.0 0.0 0.0 
-3.022600319004e-04 4.857739767964e-04 0.0 
4.857739767964e-04 1.212716019116e-02 0.0 
0.0 0.0 0.0 
6.361004436304e-04 4.184789729317e-04 0.0 
4.184789729317e-04 6.054689163928e-03 0.0 
0.0 0.0 0.0 
-5.435332836341e-04 2.573947061283e-04 0.0 
2.573947061283e-04 1.127462427375e-02 0.0 
0.0 0.0 0.0 
7.515112429723e-04 7.363085142679e-04 0.0 
7.363085142679e-04 6.090075479205e-03 0.0 
0.0 0.0 0.0 
3.798023477823e-04 -8.838923647218e-05 0.0 
-8.838923647218e-05 1.767596861104e-03 0.0 
0.0 0.0 0.0 
-5.468609478594e-04 3.282000386467e-04 0.0 
3.282000386467e-04 1.143357648602e-02 0.0 
0.0 0.0 0.0 
-6.651574780803e-05 1.680898636904e-03 0.0 
1.680898636904e-03 1.068392749248e-02 0.0 
0.0 0.0 0.0 
4.066180070859e-04 7.659049574915e-04 0.0 
7.659049574915e-04 7.558990088237e-03 0.0 
0.0 0.0 0.0 
7.434957825476e-04 1.166002684058e-04 0.0 
1.166002684058e-04 3.798424285058e-03 0.0 
0.0 0.0 0.0 
-5.511668457370e-04 9.370073161635e-05 0.0 
9.370073161635e-05 1.052841479094e-02 0.0 
0.0 0.0 0.0 
-5.347539795154e-04 1.359315917419e-04 0.0 
1.359315917419e-04 1.030938089699e-02 0.0 
0.0 0.0 0.0 
7.528843520517e-04 1.745177812656e-04 0.0 
1.745177812656e-04 4.199109004399e-03 0.0 
0.0 0.0 0.0 
6.849131186144e-04 4.440693265465e-04 0.0 
4.440693265465e-04 5.881882356217e-03 0.0 
0.0 0.0 0.0 
6.626102122607e-04 5.339880066805e-04 0.0 
5.339880066805e-04 6.197116564864e-03 0.0 
0.0 0.0 0.0 
1.260925389086e-04 -1.946245852642e-04 0.0 
-1.946245852642e-04 1.193252043649e-03 0.0 
0.0 0.0 0.0 
6.783628653300e-04 6.947402129669e-04 0.0 
6.947402129669e-04 2.894478476397e-03 0.0 
0.0 0.0 0.0 
8.757722261141e-04 6.367261262144e-04 0.0 
6.367261262144e-04 4.463840198786e-03 0.0 
0.0 0.0 0.0 
7.996055561588e-04 3.671737468929e-04 0.0 
3.671737468929e-04 4.125235720388e-03 0.0 
0.0 0.0 0.0 
1.413189499120e-04 1.457341538356e-03 0.0 
1.457341538356e-03 6.523060555150e-03 0.0 
0.0 0.0 0.0 
-2.920705888745e-04 4.247047498649e-04 0.0 
4.247047498649e-04 1.233587676581e-02 0.0 
0.0 0.0 0.0 
-4.426339416735e-04 9.869622049153e-04 0.0 
9.869622049153e-04 1.155366924885e-02 0.0 
0.0 0.0 0.0 
-2.932804435531e-04 2.051035797122e-04 0.0 
2.051035797122e-04 1.209139822245e-02 0.0 
0.0 0.0 0.0 
-6.656822866284e-04 1.311349603632e-03 0.0 
1.311349603632e-03 7.942450447052e-03 0.0 
0.0 0.0 0.0 
-5.177885234448e-04 5.347153838832e-04 0.0 
5.347153838832e-04 1.149178056296e-02 0.0 
0.0 0.0 0.0 
6.270374166346e-04 3.575067200798e-04 0.0 
3.575067200798e-04 5.895375331402e-03 0.0 
0.0 0.0 0.0 
-2.678530603486e-04 3.925330760677e-04 0.0 
3.925330760677e-04 1.219565881365e-02 0.0 
0.0 0.0 0.0 
-6.116126440702e-04 3.362856094175e-04 0.0 
3.362856094175e-04 1.122177856650e-02 0.0 
0.0 0.0 0.0 
7.082224476065e-04 8.712578444957e-05 0.0 
8.712578444957e-05 4.076037132957e-03 0.0 
0.0 0.0 0.0 
8.616934900765e-04 7.057564922887e-04 0.0 
7.057564922887e-04 4.382270615306e-03 0.0 
0.0 0.0 0.0 
-4.719487732555e-04 3.626839819903e-04 0.0 
3.626839819903e-04 1.142930285332e-02 0.0 
0.0 0.0 0.0 
-3.954427260989e-04 3.727614972900e-04 0.0 
3.727614972900e-04 1.199811984622e-02 0.0 
0.0 0.0 0.0 
-4.191819927744e-04 2.912857029468e-04 0.0 
2.912857029468e-04 1.147709377733e-02 0.0 
0.0 0.0 0.0 
-4.748146649031e-04 2.957981848719e-04 0.0 
2.957981848719e-04 1.126992312629e-02 0.0 
0.0 0.0 0.0 
5.157043901176e-04 5.656085615493e-04 0.0 
5.656085615493e-04 6.860805899882e-03 0.0 
0.0 0.0 0.0 
2.852658699322e-04 1.328188171861e-03 0.0 
1.328188171861e-03 8.548061237741e-03 0.0 
0.0 0.0 0.0 
5.761831647746e-04 5.967152853939e-04 0.0 
5.967152853939e-04 6.687652763874e-03 0.0 
0.0 0.0 0.0 
7.381027344058e-04 3.001582562483e-04 0.0 
3.001582562483e-04 5.117097096123e-03 0.0 
0.0 0.0 0.0 
-8.633363104718e-04 6.259356438372e-04 0.0 
6.259356438372e-04 8.619513106319e-03 0.0 
0.0 0.0 0.0 
5.390186190815e-04 1.015904171404e-03 0.0 
1.015904171404e-03 7.205287003764e-03 0.0 
0.0 0.0 0.0 
-6.427671107585e-04 5.604637431554e-04 0.0 
5.604637431554e-04 1.103761499605e-02 0.0 
0.0 0.0 0.0 
3.520997237088e-04 -6.559361955331e-05 0.0 
-6.559361955331e-05 2.035061997950e-03 0.0 
0.0 0.0 0.0 
8.041499514599e-04 4.971976114493e-04 0.0 
4.971976114493e-04 4.486780553457e-03 0.0 
0.0 0.0 0.0 
8.591148214956e-04 6.437118396862e-04 0.0 
6.437118396862e-04 5.022736086844e-03 0.0 
0.0 0.0 0.0 
6.549898624522e-04 9.449420933393e-04 0.0 
9.449420933393e-04 6.208777436548e-03 0.0 
0.0 0.0 0.0 
6.176672490656e-04 2.728534841273e-04 0.0 
2.728534841273e-04 2.255410305772e-03 0.0 
0.0 0.0 0.0 
7.935410471513e-04 5.570875555361e-04 0.0 
5.570875555361e-04 4.407803559027e-03 0.0 
0.0 0.0 0.0 
6.016520787178e-04 1.000150015517e-03 0.0 
1.000150015517e-03 6.686939193182e-03 0.0 
0.0 0.0 0.0 
-8.071197288493e-04 9.356086233914e-04 0.0 
9.356086233914e-04 8.800056855865e-03 0.0 
0.0 0.0 0.0 
7.613167435370e-04 1.773373145880e-04 0.0 
1.773373145880e-04 4.226379572473e-03 0.0 
0.0 0.0 0.0 
-6.557171327433e-04 2.635112797871e-04 0.0 
2.635112797871e-04 1.084685650354e-02 0.0 
0.0 0.0 0.0 
-5.283255504466e-04 5.924792203647e-05 0.0 
5.924792203647e-05 9.674946994185e-03 0.0 
0.0 0.0 0.0 
-8.876035056258e-04 1.292755896633e-03 0.0 
1.292755896633e-03 2.105921979003e-03 0.0 
0.0 0.0 0.0 
7.056952193110e-04 2.237552214241e-04 0.0 
2.237552214241e-04 4.962961259304e-03 0.0 
0.0 0.0 0.0 
6.458578653896e-04 9.511463095875e-04 0.0 
9.511463095875e-04 6.851782108456e-03 0.0 
0.0 0.0 0.0 
-3.814027131324e-04 9.524805350415e-04 0.0 
9.524805350415e-04 1.180624020189e-02 0.0 
0.0 0.0 0.0 
8.000978542486e-04 8.942518123739e-04 0.0 
8.942518123739e-04 5.270055120018e-03 0.0 
0.0 0.0 0.0 
7.596325521197e-04 2.390620500507e-04 0.0 
2.390620500507e-04 4.666103684562e-03 0.0 
0.0 0.0 0.0 
-5.890905307586e-04 1.967621493919e-04 0.0 
1.967621493919e-04 1.089502387541e-02 0.0 
0.0 0.0 0.0 
-8.422047691945e-04 1.336267528114e-03 0.0 
1.336267528114e-03 3.453826089506e-03 0.0 
0.0 0.0 0.0 
6.575373152080e-04 9.978437919876e-04 0.0 
9.978437919876e-04 6.772058574873e-03 0.0 
0.0 0.0 0.0 
7.195775193261e-04 8.248568138621e-04 0.0 
8.248568138621e-04 5.766526139807e-03 0.0 
0.0 0.0 0.0 
-8.844637466721e-04 9.345206339266e-04 0.0 
9.345206339266e-04 9.131076557425e-03 0.0 
0.0 0.0 0.0 
6.050410411687e-04 4.483311091216e-04 0.0 
4.483311091216e-04 6.210374613454e-03 0.0 
0.0 0.0 0.0 
4.574156170523e-04 -7.770987714776e-05 0.0 
-7.770987714776e-05 2.127028335938e-03 0.0 
0.0 0.0 0.0 
5.728285343658e-04 5.444460914081e-04 0.0 
5.444460914081e-04 6.541912638321e-03 0.0 
0.0 0.0 0.0 
4.736683683975e-04 8.000169348902e-04 0.0 
8.000169348902e-04 7.384135784821e-03 0.0 
0.0 0.0 0.0 
6.540238227499e-04 1.046666548082e-03 0.0 
1.046666548082e-03 6.710439940524e-03 0.0 
0.0 0.0 0.0 
-4.823950578919e-04 2.501073858334e-04 0.0 
2.501073858334e-04 1.148223965684e-02 0.0 
0.0 0.0 0.0 
1.501551825389e-05 1.431416889029e-03 0.0 
1.431416889029e-03 9.061015268831e-03 0.0 
0.0 0.0 0.0 
4.202982946360e-04 7.204908960222e-04 0.0 
7.204908960222e-04 7.394433188822e-03 0.0 
0.0 0.0 0.0 
-7.530018958244e-04 1.251244619023e-03 0.0 
1.251244619023e-03 4.828884539857e-03 0.0 
0.0 0.0 0.0 
-6.018762827962e-04 2.620151277787e-04 0.0 
2.620151277787e-04 1.106340368071e-02 0.0 
0.0 0.0 0.0 
1.774535887746e-04 1.429112249885e-03 0.0 
1.429112249885e-03 8.978461105506e-03 0.0 
0.0 0.0 0.0 
-4.108726730531e-04 3.554552596275e-04 0.0 
3.554552596275e-04 1.163726032060e-02 0.0 
0.0 0.0 0.0 
7.134426734157e-04 9.946442787255e-04 0.0 
9.946442787255e-04 6.228554980496e-03 0.0 
0.0 0.0 0.0 
7.708316122306e-04 6.969661069357e-04 0.0 
6.969661069357e-04 4.815690921459e-03 0.0 
0.0 0.0 0.0 
6.652239885721e-04 1.132908982595e-04 0.0 
1.132908982595e-04 4.499585474031e-03 0.0 
0.0 0.0 0.0 
1.861339046045e-04 2.273507423164e-04 0.0 
2.273507423164e-04 1.354548188861e-03 0.0 
0.0 0.0 0.0 
-3.490319977165e-04 3.432444811097e-04 0.0 
3.432444811097e-04 1.184136080221e-02 0.0 
0.0 0.0 0.0 
3.794248273417e-04 -4.355346801128e-05 0.0 
-4.355346801128e-05 2.203593110516e-03 0.0 
0.0 0.0 0.0 
-8.187926264891e-04 1.048130041488e-03 0.0 
1.048130041488e-03 6.236216899155e-03 0.0 
0.0 0.0 0.0 
-7.550237201837e-05 1.426601497634e-03 0.0 
1.426601497634e-03 9.139571026222e-03 0.0 
0.0 0.0 0.0 
-2.285171891007e-04 3.077839349623e-04 0.0 
3.077839349623e-04 1.225391533403e-02 0.0 
0.0 0.0 0.0 
3.588314870451e-04 -1.588885969887e-04 0.0 
-1.588885969887e-04 1.877610414636e-03 0.0 
0.0 0.0 0.0 
-2.509993571349e-04 1.407965252415e-03 0.0 
1.407965252415e-03 8.169993442665e-03 0.0 
0.0 0.0 0.0 
-5.311851461985e-04 3.666112971044e-04 0.0 
3.666112971044e-04 1.121803559082e-02 0.0 
0.0 0.0 0.0 
6.746670124780e-04 8.472703119887e-05 0.0 
8.472703119887e-05 4.412438915002e-03 0.0 
0.0 0.0 0.0 
5.041406461881e-04 7.339122660863e-05 0.0 
7.339122660863e-05 2.287589609810e-03 0.0 
0.0 0.0 0.0 
4.443357305519e-04 1.300838451523e-03 0.0 
1.300838451523e-03 4.426185861610e-03 0.0 
0.0 0.0 0.0 
2.219180770504e-04 -1.241914009156e-04 0.0 
-1.241914009156e-04 1.409730200996e-03 0.0 
0.0 0.0 0.0 
4.475429085582e-04 -4.999569064328e-06 0.0 
-4.999569064328e-06 1.858199562144e-03 0.0 
0.0 0.0 0.0 
3.310461803425e-04 -7.194518217010e-05 0.0 
-7.194518217010e-05 1.631174032298e-03 0.0 
0.0 0.0 0.0 
7.624343427020e-04 9.444243188617e-04 0.0 
9.444243188617e-04 5.748474615808e-03 0.0 
0.0 0.0 0.0 
-1.464174518477e-04 8.107965956332e-04 0.0 
8.107965956332e-04 1.270799461675e-02 0.0 
0.0 0.0 0.0 
-6.587202539428e-04 5.204747581175e-04 0.0 
5.204747581175e-04 7.302892516963e-03 0.0 
0.0 0.0 0.0 
4.536705912463e-04 5.257591321365e-04 0.0 
5.257591321365e-04 7.038134739783e-03 0.0 
0.0 0.0 0.0 
7.943037388027e-04 8.772332053816e-04 0.0 
8.772332053816e-04 4.282554066446e-03 0.0 
0.0 0.0 0.0 
-6.731789716256e-04 3.436822532808e-04 0.0 
3.436822532808e-04 1.100756116860e-02 0.0 
0.0 0.0 0.0 
3.978164917684e-04 2.852500983585e-04 0.0 
2.852500983585e-04 1.746393922001e-03 0.0 
0.0 0.0 0.0 
3.488307364621e-04 8.315709220915e-04 0.0 
8.315709220915e-04 7.773165470647e-03 0.0 
0.0 0.0 0.0 
2.587589093719e-04 -2.178713665244e-04 0.0 
-2.178713665244e-04 1.645142184339e-03 0.0 
0.0 0.0 0.0 
4.524203289897e-04 -2.825504824061e-05 0.0 
-2.825504824061e-05 2.598821502305e-03 0.0 
0.0 0.0 0.0 
5.715164667999e-04 1.149254914733e-03 0.0 
1.149254914733e-03 7.151702984719e-03 0.0 
0.0 0.0 0.0 
7.885400892045e-04 2.938216734320e-04 0.0 
2.938216734320e-04 4.360678414918e-03 0.0 
0.0 0.0 0.0 
2.674921143060e-04 1.351451028818e-03 0.0 
1.351451028818e-03 8.542538276279e-03 0.0 
0.0 0.0 0.0 
1.829101464268e-05 1.467557876113e-03 0.0 
1.467557876113e-03 5.920340132848e-03 0.0 
0.0 0.0 0.0 
-6.743218197296e-04 5.338038612600e-04 0.0 
5.338038612600e-04 1.127075142854e-02 0.0 
0.0 0.0 0.0 
3.407410564504e-04 1.374142457957e-03 0.0 
1.374142457957e-03 8.563139619288e-03 0.0 
0.0 0.0 0.0 
-5.286044213583e-04 2.967637805049e-04 0.0 
2.967637805049e-04 1.105934233167e-02 0.0 
0.0 0.0 0.0 
-4.623677900691e-04 9.456496169750e-04 0.0 
9.456496169750e-04 1.180772083838e-02 0.0 
0.0 0.0 0.0 
-5.441745298098e-04 4.075813598141e-04 0.0 
4.075813598141e-04 1.158050237318e-02 0.0 
0.0 0.0 0.0 
-5.332770762380e-04 4.947635198843e-04 0.0 
4.947635198843e-04 1.171409344540e-02 0.0 
0.0 0.0 0.0 
4.711307727279e-04 7.491944078640e-04 0.0 
7.491944078640e-04 2.447158544867e-03 0.0 
0.0 0.0 0.0 
4.981077654427e-04 4.392259170684e-04 0.0 
4.392259170684e-04 6.717698917437e-03 0.0 
0.0 0.0 0.0 
-5.284436950115e-04 4.461172706643e-04 0.0 
4.461172706643e-04 1.136347898582e-02 0.0 
0.0 0.0 0.0 
6.164381437799e-04 1.173707274391e-03 0.0 
1.173707274391e-03 5.709574698911e-03 0.0 
0.0 0.0 0.0 
-7.125846987480e-04 3.498776726139e-04 0.0 
3.498776726139e-04 7.839982549109e-03 0.0 
0.0 0.0 0.0 
2.017092262512e-04 1.409471957195e-03 0.0 
1.409471957195e-03 9.003933299471e-03 0.0 
0.0 0.0 0.0 
6.394746350142e-04 5.210900872257e-04 0.0 
5.210900872257e-04 2.498803206898e-03 0.0 
0.0 0.0 0.0 
4.025989289680e-04 -1.228823437431e-04 0.0 
-1.228823437431e-04 2.426711370151e-03 0.0 
0.0 0.0 0.0 
3.939027357305e-04 1.335485743136e-03 0.0 
1.335485743136e-03 8.069252597853e-03 0.0 
0.0 0.0 0.0 
2.136982945540e-04 -5.066423362527e-05 0.0 
-5.066423362527e-05 1.444095633159e-03 0.0 
0.0 0.0 0.0 
1.787192464504e-04 1.377565944578e-03 0.0 
1.377565944578e-03 6.946202687893e-03 0.0 
0.0 0.0 0.0 
5.821091271090e-04 1.101727290371e-03 0.0 
1.101727290371e-03 7.193634499449e-03 0.0 
0.0 0.0 0.0 
-4.270022458049e-04 5.625600360367e-04 0.0 
5.625600360367e-04 1.204013131435e-02 0.0 
0.0 0.0 0.0 
-3.934406505425e-04 6.665060505498e-04 0.0 
6.665060505498e-04 1.215086570768e-02 0.0 
0.0 0.0 0.0 
5.362889108058e-04 1.058175090696e-03 0.0 
1.058175090696e-03 7.165148834841e-03 0.0 
0.0 0.0 0.0 
-4.701747566086e-04 3.922019530649e-04 0.0 
3.922019530649e-04 1.179022820947e-02 0.0 
0.0 0.0 0.0 
7.324340394328e-04 1.020335842520e-03 0.0 
1.020335842520e-03 4.745670477903e-03 0.0 
0.0 0.0 0.0 
-2.684950154251e-04 1.394016282167e-03 0.0 
1.394016282167e-03 9.694046015407e-03 0.0 
0.0 0.0 0.0 
-7.602408613950e-04 2.656486007121e-04 0.0 
2.656486007121e-04 8.300497894394e-03 0.0 
0.0 0.0 0.0 
-3.542353608925e-04 1.226361213324e-03 0.0 
1.226361213324e-03 1.124117284958e-02 0.0 
0.0 0.0 0.0 
-7.831930846043e-04 2.234913405261e-04 0.0 
2.234913405261e-04 8.751128862346e-03 0.0 
0.0 0.0 0.0 
-7.649961909588e-04 2.006663541506e-04 0.0 
2.006663541506e-04 8.973242441368e-03 0.0 
0.0 0.0 0.0 
7.651686914372e-04 9.720674596939e-04 0.0 
9.720674596939e-04 5.233724653181e-03 0.0 
0.0 0.0 0.0 
-7.746036272277e-04 2.081565097042e-04 0.0 
2.081565097042e-04 9.196584494599e-03 0.0 
0.0 0.0 0.0 
2.752964486266e-04 1.320767100428e-03 0.0 
1.320767100428e-03 7.251852611164e-03 0.0 
0.0 0.0 0.0 
4.425752030783e-04 1.223168532482e-03 0.0 
1.223168532482e-03 5.845310378205e-03 0.0 
0.0 0.0 0.0 
7.883274803262e-04 6.291708631035e-04 0.0 
6.291708631035e-04 4.873877083393e-03 0.0 
0.0 0.0 0.0 
5.165240968590e-04 1.359519986950e-04 0.0 
1.359519986950e-04 1.969141154252e-03 0.0 
0.0 0.0 0.0 
8.254912363621e-04 8.420144779109e-04 0.0 
8.420144779109e-04 4.793359588424e-03 0.0 
0.0 0.0 0.0 
-3.298285033131e-04 4.127109502713e-04 0.0 
4.127109502713e-04 1.199313330217e-02 0.0 
0.0 0.0 0.0 
-3.699502874414e-04 1.117778785888e-03 0.0 
1.117778785888e-03 1.159453748719e-02 0.0 
0.0 0.0 0.0 
5.848344606951e-04 3.914242314731e-04 0.0 
3.914242314731e-04 6.232643335605e-03 0.0 
0.0 0.0 0.0 
3.286422441400e-04 1.395097513129e-03 0.0 
1.395097513129e-03 8.537860674342e-03 0.0 
0.0 0.0 0.0 
8.687149718176e-04 4.147808009897e-04 0.0 
4.147808009897e-04 4.341306585323e-03 0.0 
0.0 0.0 0.0 
-4.486352787400e-04 5.227622000066e-04 0.0 
5.227622000066e-04 1.171040991717e-02 0.0 
0.0 0.0 0.0 
8.490355578794e-04 7.669717733040e-04 0.0 
7.669717733040e-04 4.852942122411e-03 0.0 
0.0 0.0 0.0 
4.420176507249e-04 4.094863919178e-04 0.0 
4.094863919178e-04 6.906158263604e-03 0.0 
0.0 0.0 0.0 
-4.633703545824e-04 4.386449418361e-04 0.0 
4.386449418361e-04 1.157656807755e-02 0.0 
0.0 0.0 0.0 
-6.066474045067e-04 5.142424083751e-04 0.0 
5.142424083751e-04 1.149466946315e-02 0.0 
0.0 0.0 0.0 
7.248800645598e-04 9.384138365778e-04 0.0 
9.384138365778e-04 6.285723562051e-03 0.0 
0.0 0.0 0.0 
7.867842459686e-04 9.268561769141e-04 0.0 
9.268561769141e-04 4.756654743685e-03 0.0 
0.0 0.0 0.0 
-2.283791048879e-04 1.428444394167e-03 0.0 
1.428444394167e-03 1.004677609652e-02 0.0 
0.0 0.0 0.0 
-6.443813707405e-04 1.112986993065e-03 0.0 
1.112986993065e-03 9.641341478903e-03 0.0 
0.0 0.0 0.0 
4.106601318541e-04 -5.052861341403e-05 0.0 
-5.052861341403e-05 1.999568504904e-03 0.0 
0.0 0.0 0.0 
5.345383692756e-04 2.973354874516e-04 0.0 
2.973354874516e-04 2.535306108464e-03 0.0 
0.0 0.0 0.0 
1.536756419207e-04 1.475922511104e-03 0.0 
1.475922511104e-03 5.682492223120e-03 0.0 
0.0 0.0 0.0 
-2.946004205302e-04 1.403824631354e-03 0.0 
1.403824631354e-03 8.170784616322e-03 0.0 
0.0 0.0 0.0 
3.827617129215e-04 3.746314821975e-04 0.0 
3.746314821975e-04 7.104069663518e-03 0.0 
0.0 0.0 0.0 
-6.137051964434e-04 4.208949671547e-04 0.0 
4.208949671547e-04 1.136677582132e-02 0.0 
0.0 0.0 0.0 
7.401322446641e-04 7.750429715254e-04 0.0 
7.750429715254e-04 4.780158579719e-03 0.0 
0.0 0.0 0.0 
-3.382022173485e-04 1.362329047250e-03 0.0 
1.362329047250e-03 8.998583330520e-03 0.0 
0.0 0.0 0.0 
5.773897513395e-04 1.065462674723e-03 0.0 
1.065462674723e-03 7.267295892110e-03 0.0 
0.0 0.0 0.0 
-4.108069526740e-04 3.029263243054e-04 0.0 
3.029263243054e-04 1.184653049500e-02 0.0 
0.0 0.0 0.0 
-2.766747359347e-04 1.435798491938e-03 0.0 
1.435798491938e-03 1.045743846260e-02 0.0 
0.0 0.0 0.0 
-6.391340127738e-04 3.663904605444e-04 0.0 
3.663904605444e-04 1.078731069809e-02 0.0 
0.0 0.0 0.0 
5.746186227107e-04 8.755463153937e-04 0.0 
8.755463153937e-04 7.110184227873e-03 0.0 
0.0 0.0 0.0 
7.524246809596e-04 7.620770257154e-04 0.0 
7.620770257154e-04 5.290229142322e-03 0.0 
0.0 0.0 0.0 
5.256348743203e-04 9.732242643496e-04 0.0 
9.732242643496e-04 7.275919240550e-03 0.0 
0.0 0.0 0.0 
1.342441509871e-04 1.441407804238e-03 0.0 
1.441407804238e-03 6.936911662954e-03 0.0 
0.0 0.0 0.0 
-3.744363811687e-04 4.531661762694e-04 0.0 
4.531661762694e-04 1.213068992117e-02 0.0 
0.0 0.0 0.0 
-2.944842491136e-04 1.429588554996e-03 0.0 
1.429588554996e-03 1.087893307790e-02 0.0 
0.0 0.0 0.0 
7.791508577586e-04 8.812686686468e-04 0.0 
8.812686686468e-04 5.804128579095e-03 0.0 
0.0 0.0 0.0 
5.674929228161e-04 3.552853452144e-04 0.0 
3.552853452144e-04 2.149726101279e-03 0.0 
0.0 0.0 0.0 
1.142375649448e-04 1.477581666374e-03 0.0 
1.477581666374e-03 8.988145908842e-03 0.0 
0.0 0.0 0.0 
1.661416971304e-04 1.370322409779e-03 0.0 
1.370322409779e-03 7.355813707705e-03 0.0 
0.0 0.0 0.0 
6.945776827345e-04 8.641387061755e-04 0.0 
8.641387061755e-04 4.770257580320e-03 0.0 
0.0 0.0 0.0 
6.729438132291e-04 8.864194231654e-04 0.0 
8.864194231654e-04 6.244961845697e-03 0.0 
0.0 0.0 0.0 
5.732526635744e-04 6.783767134962e-04 0.0 
6.783767134962e-04 6.747289125650e-03 0.0 
0.0 0.0 0.0 
4.590977492172e-04 1.340850836025e-04 0.0 
1.340850836025e-04 2.186264860043e-03 0.0 
0.0 0.0 0.0 
8.207176213095e-04 8.245366239815e-04 0.0 
8.245366239815e-04 5.326766075276e-03 0.0 
0.0 0.0 0.0 
-7.209403398173e-04 8.695081266505e-04 0.0 
8.695081266505e-04 1.035815884285e-02 0.0 
0.0 0.0 0.0 
3.576945686685e-04 2.960236965641e-04 0.0 
2.960236965641e-04 7.115193514197e-03 0.0 
0.0 0.0 0.0 
-6.610657456039e-04 9.942599481662e-04 0.0 
9.942599481662e-04 1.034425632401e-02 0.0 
0.0 0.0 0.0 
2.923078753803e-05 1.475064044068e-03 0.0 
1.475064044068e-03 9.054590993967e-03 0.0 
0.0 0.0 0.0 
-7.610800732040e-04 7.408662630535e-04 0.0 
7.408662630535e-04 1.034341731761e-02 0.0 
0.0 0.0 0.0 
-7.859880687433e-04 4.927066386891e-04 0.0 
4.927066386891e-04 1.022322249512e-02 0.0 
0.0 0.0 0.0 
-5.407263673378e-04 1.220725860382e-03 0.0 
1.220725860382e-03 9.549512273554e-03 0.0 
0.0 0.0 0.0 
4.148970167839e-04 1.305848774522e-03 0.0 
1.305848774522e-03 8.085084181963e-03 0.0 
0.0 0.0 0.0 
5.107584806043e-04 3.923107119340e-04 0.0 
3.923107119340e-04 6.553843520100e-03 0.0 
0.0 0.0 0.0 
-5.898840085143e-04 4.524557878411e-04 0.0 
4.524557878411e-04 1.114565086750e-02 0.0 
0.0 0.0 0.0 
-3.200474120675e-04 6.869585044021e-04 0.0 
6.869585044021e-04 1.214801280012e-02 0.0 
0.0 0.0 0.0 
-7.834899138597e-04 6.134504374178e-04 0.0 
6.134504374178e-04 1.029914571195e-02 0.0 
0.0 0.0 0.0 
7.133156202743e-04 6.389247882476e-04 0.0 
6.389247882476e-04 3.841756000774e-03 0.0 
0.0 0.0 0.0 
7.835304502546e-06 1.473928686003e-03 0.0 
1.473928686003e-03 9.456010943962e-03 0.0 
0.0 0.0 0.0 
-3.203096118658e-04 3.507337678801e-04 0.0 
3.507337678801e-04 1.220065921605e-02 0.0 
0.0 0.0 0.0 
4.036980817756e-04 1.338441198905e-03 0.0 
1.338441198905e-03 6.277185945407e-03 0.0 
0.0 0.0 0.0 
2.673087019034e-04 1.397242529343e-03 0.0 
1.397242529343e-03 6.813145130879e-03 0.0 
0.0 0.0 0.0 
7.370379207552e-04 7.101571487202e-04 0.0 
7.101571487202e-04 4.309054893777e-03 0.0 
0.0 0.0 0.0 
-5.829356482213e-04 5.470644962599e-04 0.0 
5.470644962599e-04 1.126859246568e-02 0.0 
0.0 0.0 0.0 
-3.817556774486e-04 1.445600319294e-03 0.0 
1.445600319294e-03 7.160991945859e-03 0.0 
0.0 0.0 0.0 
3.547840235456e-04 1.350047576703e-03 0.0 
1.350047576703e-03 7.167227469794e-03 0.0 
0.0 0.0 0.0 
-3.212382231873e-04 1.481324030303e-03 0.0 
1.481324030303e-03 7.155854252715e-03 0.0 
0.0 0.0 0.0 
4.833570444225e-04 1.247207377234e-03 0.0 
1.247207377234e-03 7.607184899657e-03 0.0 
0.0 0.0 0.0 
-4.325876973299e-06 1.533005525705e-03 0.0 
1.533005525705e-03 9.843463876537e-03 0.0 
0.0 0.0 0.0 
7.714736194548e-04 6.276812250910e-04 0.0 
6.276812250910e-04 4.347457453242e-03 0.0 
0.0 0.0 0.0 
7.853593078821e-05 -2.004008540491e-05 0.0 
-2.004008540491e-05 1.395258860594e-03 0.0 
0.0 0.0 0.0 
-3.488275640934e-04 8.241153105058e-04 0.0 
8.241153105058e-04 1.200903520614e-02 0.0 
0.0 0.0 0.0 
-5.328824333041e-04 1.336303874176e-03 0.0 
1.336303874176e-03 7.721251406596e-03 0.0 
0.0 0.0 0.0 
8.727787654794e-04 5.262482249786e-04 0.0 
5.262482249786e-04 4.669402534158e-03 0.0 
0.0 0.0 0.0 
1.178051313131e-04 1.538516834687e-03 0.0 
1.538516834687e-03 9.395392509815e-03 0.0 
0.0 0.0 0.0 
-6.789812167006e-04 4.345913872333e-04 0.0 
4.345913872333e-04 1.114808902475e-02 0.0 
0.0 0.0 0.0 
5.585344917243e-04 4.216457559379e-04 0.0 
4.216457559379e-04 6.378516477827e-03 0.0 
0.0 0.0 0.0 
5.505084449569e-04 1.105211241891e-03 0.0 
1.105211241891e-03 5.309242419455e-03 0.0 
0.0 0.0 0.0 
3.429316133396e-05 9.990691341048e-05 0.0 
9.990691341048e-05 1.089228953701e-03 0.0 
0.0 0.0 0.0 
3.008907002724e-04 2.506272154364e-04 0.0 
2.506272154364e-04 7.348183523677e-03 0.0 
0.0 0.0 0.0 
-1.445256908555e-04 1.433019271018e-03 0.0 
1.433019271018e-03 8.012983869591e-03 0.0 
0.0 0.0 0.0 
3.781787693362e-04 1.238626846477e-03 0.0 
1.238626846477e-03 7.608591685116e-03 0.0 
0.0 0.0 0.0 
-1.074003419476e-04 1.508805973013e-03 0.0 
1.508805973013e-03 9.979504534017e-03 0.0 
0.0 0.0 0.0 
-2.703893863265e-04 7.163448803310e-05 0.0 
7.163448803310e-05 7.845731738552e-04 0.0 
0.0 0.0 0.0 
6.111895101801e-04 5.057043088646e-04 0.0 
5.057043088646e-04 6.365197967594e-03 0.0 
0.0 0.0 0.0 
4.888709005924e-04 9.610785815069e-04 0.0 
9.610785815069e-04 3.903082050272e-03 0.0 
0.0 0.0 0.0 
-7.328779515393e-04 3.498274414822e-04 0.0 
3.498274414822e-04 1.078948128285e-02 0.0 
0.0 0.0 0.0 
6.691419770390e-04 1.435368465222e-04 0.0 
1.435368465222e-04 4.853302071061e-03 0.0 
0.0 0.0 0.0 
8.351803757594e-04 7.857726293949e-04 0.0 
7.857726293949e-04 4.320816592882e-03 0.0 
0.0 0.0 0.0 
4.101233234950e-04 3.323697949929e-04 0.0 
3.323697949929e-04 6.918239507613e-03 0.0 
0.0 0.0 0.0 
2.518938219249e-04 1.394743675263e-03 0.0 
1.394743675263e-03 7.240728273941e-03 0.0 
0.0 0.0 0.0 
8.269664513081e-04 7.261171566758e-04 0.0 
7.261171566758e-04 3.854393147077e-03 0.0 
0.0 0.0 0.0 
-2.284962022301e-04 1.396150172017e-03 0.0 
1.396150172017e-03 8.519989842071e-03 0.0 
0.0 0.0 0.0 
-6.763752227712e-05 -1.404925208692e-04 0.0 
-1.404925208692e-04 1.133188032213e-03 0.0 
0.0 0.0 0.0 
-1.842175065900e-04 1.405896964503e-03 0.0 
1.405896964503e-03 9.239047948619e-03 0.0 
0.0 0.0 0.0 
4.491418378840e-04 1.162799886418e-03 0.0 
1.162799886418e-03 7.620012789451e-03 0.0 
0.0 0.0 0.0 
-2.721734382296e-04 1.376442673791e-03 0.0 
1.376442673791e-03 1.120309908436e-02 0.0 
0.0 0.0 0.0 
-1.620882647098e-04 1.431432840161e-03 0.0 
1.431432840161e-03 9.606609115219e-03 0.0 
0.0 0.0 0.0 
6.390647952585e-04 3.855295729862e-04 0.0 
3.855295729862e-04 2.974042039812e-03 0.0 
0.0 0.0 0.0 
5.411532884527e-04 3.125359135719e-04 0.0 
3.125359135719e-04 6.245327619722e-03 0.0 
0.0 0.0 0.0 
-2.272295492508e-04 4.652800681894e-04 0.0 
4.652800681894e-04 1.233425656377e-02 0.0 
0.0 0.0 0.0 
1.075999640401e-04 1.502156901088e-03 0.0 
1.502156901088e-03 9.435946856986e-03 0.0 
0.0 0.0 0.0 
3.577944575437e-04 1.262373789159e-03 0.0 
1.262373789159e-03 8.080368981022e-03 0.0 
0.0 0.0 0.0 
6.258681781934e-04 1.006576055914e-03 0.0 
1.006576055914e-03 5.259609654100e-03 0.0 
0.0 0.0 0.0 
-2.066128083065e-04 1.394556631211e-03 0.0 
1.394556631211e-03 8.877532505730e-03 0.0 
0.0 0.0 0.0 
3.648817415833e-04 2.590920060306e-04 0.0 
2.590920060306e-04 6.994236429137e-03 0.0 
0.0 0.0 0.0 
5.797545983375e-04 -1.569196084467e-05 0.0 
-1.569196084467e-05 4.394452546628e-03 0.0 
0.0 0.0 0.0 
-7.257345523159e-05 1.453477980036e-03 0.0 
1.453477980036e-03 9.135706201231e-03 0.0 
0.0 0.0 0.0 
-5.874329057075e-04 3.672989180357e-04 0.0 
3.672989180357e-04 1.100460276316e-02 0.0 
0.0 0.0 0.0 
4.621211151274e-04 3.647127925320e-04 0.0 
3.647127925320e-04 6.729347059873e-03 0.0 
0.0 0.0 0.0 
5.238828455620e-04 5.166148414127e-04 0.0 
5.166148414127e-04 6.700362506640e-03 0.0 
0.0 0.0 0.0 
-4.763488432017e-04 -8.203338838590e-08 0.0 
-8.203338838590e-08 9.365933524226e-03 0.0 
0.0 0.0 0.0 
-4.687639838482e-04 5.148190631616e-06 0.0 
5.148190631616e-06 9.359653990780e-03 0.0 
0.0 0.0 0.0 
-7.737964567028e-04 8.522353762875e-04 0.0 
8.522353762875e-04 1.064865015637e-02 0.0 
0.0 0.0 0.0 
-9.866003192871e-05 1.433792917440e-03 0.0 
1.433792917440e-03 8.758461471784e-03 0.0 
0.0 0.0 0.0 
6.429243178061e-04 1.377136880612e-04 0.0 
1.377136880612e-04 5.030171301905e-03 0.0 
0.0 0.0 0.0 
-6.034582469610e-04 1.188979935603e-03 0.0 
1.188979935603e-03 9.939365498600e-03 0.0 
0.0 0.0 0.0 
3.796839554047e-04 1.340271764595e-03 0.0 
1.340271764595e-03 6.721619420222e-03 0.0 
0.0 0.0 0.0 
4.249555250360e-04 1.073716027285e-03 0.0 
1.073716027285e-03 7.841969976952e-03 0.0 
0.0 0.0 0.0 
6.431018532866e-04 1.148548572432e-03 0.0 
1.148548572432e-03 5.238291648101e-03 0.0 
0.0 0.0 0.0 
-1.355858822344e-04 7.102352698094e-04 0.0 
7.102352698094e-04 1.276369082151e-02 0.0 
0.0 0.0 0.0 
-8.010941992533e-04 3.944778661122e-04 0.0 
3.944778661122e-04 9.881604025668e-03 0.0 
0.0 0.0 0.0 
2.973657447101e-04 1.316171959173e-03 0.0 
1.316171959173e-03 6.825346822875e-03 0.0 
0.0 0.0 0.0 
7.284777153302e-04 2.285021995916e-04 0.0 
2.285021995916e-04 4.839214419875e-03 0.0 
0.0 0.0 0.0 
5.835561147454e-04 4.763268201224e-04 0.0 
4.763268201224e-04 2.929184532371e-03 0.0 
0.0 0.0 0.0 
6.925107997253e-04 8.528497703300e-05 0.0 
8.528497703300e-05 4.241052161182e-03 0.0 
0.0 0.0 0.0 
-1.223589163283e-04 1.428067010800e-03 0.0 
1.428067010800e-03 8.384119134402e-03 0.0 
0.0 0.0 0.0 
-4.012794180218e-04 1.348509955112e-03 0.0 
1.348509955112e-03 8.664560367852e-03 0.0 
0.0 0.0 0.0 
-6.474772295284e-04 4.591645508252e-04 0.0 
4.591645508252e-04 1.092407779408e-02 0.0 
0.0 0.0 0.0 
-4.718456748030e-04 1.261096145671e-03 0.0 
1.261096145671e-03 9.863594890126e-03 0.0 
0.0 0.0 0.0 
-5.346721071849e-04 1.227558450108e-03 0.0 
1.227558450108e-03 1.024749509484e-02 0.0 
0.0 0.0 0.0 
1.122215497653e-04 -6.058026088600e-05 0.0 
-6.058026088600e-05 1.046250383346e-03 0.0 
0.0 0.0 0.0 
7.270924496958e-04 1.152012885475e-04 0.0 
1.152012885475e-04 3.968452005930e-03 0.0 
0.0 0.0 0.0 
-4.840219734750e-04 1.410910605436e-03 0.0 
1.410910605436e-03 7.712385653658e-03 0.0 
0.0 0.0 0.0 
-6.626978922744e-04 1.047594053018e-03 0.0 
1.047594053018e-03 1.000539833059e-02 0.0 
0.0 0.0 0.0 
-7.188684235175e-04 1.027451981709e-03 0.0 
1.027451981709e-03 1.033823158998e-02 0.0 
0.0 0.0 0.0 
4.146255358080e-04 1.262364713802e-03 0.0 
1.262364713802e-03 8.104950439852e-03 0.0 
0.0 0.0 0.0 
2.504850164460e-04 3.339641293623e-05 0.0 
3.339641293623e-05 1.620257641680e-03 0.0 
0.0 0.0 0.0 
3.615817606433e-04 -5.442332180457e-06 0.0 
-5.442332180457e-06 1.884068528182e-03 0.0 
0.0 0.0 0.0 
-1.100581290048e-05 1.449178735948e-03 0.0 
1.449178735948e-03 7.483823902716e-03 0.0 
0.0 0.0 0.0 
6.620467942020e-04 2.642523658657e-05 0.0 
2.642523658657e-05 3.982206710043e-03 0.0 
0.0 0.0 0.0 
-8.659572459890e-04 2.579574481920e-04 0.0 
2.579574481920e-04 8.962520112865e-03 0.0 
0.0 0.0 0.0 
-8.521753791293e-04 2.408920573564e-04 0.0 
2.408920573564e-04 9.192412649916e-03 0.0 
0.0 0.0 0.0 
-7.379775452925e-04 4.509038143106e-04 0.0 
4.509038143106e-04 1.092535771906e-02 0.0 
0.0 0.0 0.0 
2.557231740998e-04 6.258850655402e-04 0.0 
6.258850655402e-04 2.535717201237e-03 0.0 
0.0 0.0 0.0 
7.110316521217e-04 1.666044564446e-04 0.0 
1.666044564446e-04 4.575421889645e-03 0.0 
0.0 0.0 0.0 
5.891676688934e-04 8.627288637730e-04 0.0 
8.627288637730e-04 6.865526355500e-03 0.0 
0.0 0.0 0.0 
4.699251377334e-04 2.053035538528e-04 0.0 
2.053035538528e-04 1.837599466422e-03 0.0 
0.0 0.0 0.0 
-2.753708734915e-05 1.594586746250e-03 0.0 
1.594586746250e-03 1.055658596513e-02 0.0 
0.0 0.0 0.0 
-4.532061096902e-04 4.748188439439e-04 0.0 
4.748188439439e-04 1.192125266007e-02 0.0 
0.0 0.0 0.0 
6.364246455066e-04 3.578195835164e-05 0.0 
3.578195835164e-05 4.332787342036e-03 0.0 
0.0 0.0 0.0 
5.329169752459e-04 3.651219759721e-04 0.0 
3.651219759721e-04 6.417762395643e-03 0.0 
0.0 0.0 0.0 
9.964028416021e-05 -7.667784427567e-05 0.0 
-7.667784427567e-05 7.227345682010e-04 0.0 
0.0 0.0 0.0 
6.427706947987e-04 7.456327140465e-04 0.0 
7.456327140465e-04 6.477612810614e-03 0.0 
0.0 0.0 0.0 
-1.019265416785e-04 1.413503361853e-03 0.0 
1.413503361853e-03 8.015608991365e-03 0.0 
0.0 0.0 0.0 
1.086967799173e-04 -5.650125020917e-05 0.0 
-5.650125020917e-05 7.138580341766e-04 0.0 
0.0 0.0 0.0 
-3.763219811929e-04 5.054075286979e-04 0.0 
5.054075286979e-04 1.191837671514e-02 0.0 
0.0 0.0 0.0 
2.811008563095e-04 5.368445226063e-05 0.0 
5.368445226063e-05 1.785148180830e-03 0.0 
0.0 0.0 0.0 
-7.042180805641e-04 1.086529114194e-03 0.0 
1.086529114194e-03 9.999692193950e-03 0.0 
0.0 0.0 0.0 
-3.731390699601e-04 1.365019420614e-03 0.0 
1.365019420614e-03 8.662208881611e-03 0.0 
0.0 0.0 0.0 
8.050528156462e-04 4.461667049793e-04 0.0 
4.461667049793e-04 4.580337561992e-03 0.0 
0.0 0.0 0.0 
8.054469745995e-04 5.262501296625e-04 0.0 
5.262501296625e-04 5.404259355036e-03 0.0 
0.0 0.0 0.0 
-3.538373834052e-04 5.914158113930e-04 0.0 
5.914158113930e-04 1.203828655837e-02 0.0 
0.0 0.0 0.0 
7.530825897346e-04 5.964338663098e-04 0.0 
5.964338663098e-04 5.884060730742e-03 0.0 
0.0 0.0 0.0 
1.286586078033e-04 1.428323767650e-03 0.0 
1.428323767650e-03 7.347242324484e-03 0.0 
0.0 0.0 0.0 
3.613083973941e-05 1.408699331227e-03 0.0 
1.408699331227e-03 7.489532108238e-03 0.0 
0.0 0.0 0.0 
-8.481061778934e-04 1.186677552417e-03 0.0 
1.186677552417e-03 1.469666958257e-03 0.0 
0.0 0.0 0.0 
2.717908479992e-04 1.413102949030e-04 0.0 
1.413102949030e-04 1.465581513079e-03 0.0 
0.0 0.0 0.0 
-6.695625447961e-05 1.462016254262e-03 0.0 
1.462016254262e-03 9.515595203436e-03 0.0 
0.0 0.0 0.0 
-8.393977179957e-04 4.871454224084e-04 0.0 
4.871454224084e-04 1.046059248140e-02 0.0 
0.0 0.0 0.0 
3.841909656166e-05 1.521234770746e-03 0.0 
1.521234770746e-03 9.447173594975e-03 0.0 
0.0 0.0 0.0 
5.391314142869e-04 1.160731375789e-03 0.0 
1.160731375789e-03 3.872555766481e-03 0.0 
0.0 0.0 0.0 
-5.517830741438e-04 8.947165864214e-04 0.0 
8.947165864214e-04 1.124620900510e-02 0.0 
0.0 0.0 0.0 
-1.388911943356e-04 1.479318882554e-03 0.0 
1.479318882554e-03 9.981694313015e-03 0.0 
0.0 0.0 0.0 
-8.160187483452e-04 3.099195357356e-04 0.0 
3.099195357356e-04 9.319468557940e-03 0.0 
0.0 0.0 0.0 
-4.920050631851e-05 1.482681710166e-03 0.0 
1.482681710166e-03 9.511859085240e-03 0.0 
0.0 0.0 0.0 
4.954143623097e-04 2.872787910176e-04 0.0 
2.872787910176e-04 6.430309996617e-03 0.0 
0.0 0.0 0.0 
6.924200500524e-06 1.435667934972e-03 0.0 
1.435667934972e-03 8.263382883812e-03 0.0 
0.0 0.0 0.0 
7.374328085743e-04 1.719115109384e-04 0.0 
1.719115109384e-04 4.398740557449e-03 0.0 
0.0 0.0 0.0 
6.936976111223e-04 1.488220245062e-04 0.0 
1.488220245062e-04 4.680278986414e-03 0.0 
0.0 0.0 0.0 
-4.424768630623e-04 8.107786073763e-04 0.0 
8.107786073763e-04 1.201524351387e-02 0.0 
0.0 0.0 0.0 
8.387298441732e-04 4.549097617265e-04 0.0 
4.549097617265e-04 4.937063260819e-03 0.0 
0.0 0.0 0.0 
-2.603028584641e-04 1.400454873826e-03 0.0 
1.400454873826e-03 8.519550234785e-03 0.0 
0.0 0.0 0.0 
5.846988656346e-04 1.198663152616e-03 0.0 
1.198663152616e-03 6.181624678585e-03 0.0 
0.0 0.0 0.0 
6.767008423179e-04 6.644300705268e-04 0.0 
6.644300705268e-04 6.376706451316e-03 0.0 
0.0 0.0 0.0 
4.221818328938e-04 1.236228667543e-03 0.0 
1.236228667543e-03 6.291997480234e-03 0.0 
0.0 0.0 0.0 
7.759602437085e-04 5.016477250967e-04 0.0 
5.016477250967e-04 3.017391531790e-03 0.0 
0.0 0.0 0.0 
8.283112509861e-04 7.634797061303e-04 0.0 
7.634797061303e-04 5.401438682576e-03 0.0 
0.0 0.0 0.0 
7.953541803056e-04 6.611900659575e-04 0.0 
6.611900659575e-04 3.393886054410e-03 0.0 
0.0 0.0 0.0 
-5.739929588333e-04 1.164268325048e-03 0.0 
1.164268325048e-03 9.942739355634e-03 0.0 
0.0 0.0 0.0 
7.100592505194e-04 4.714573335246e-04 0.0 
4.714573335246e-04 3.423872681210e-03 0.0 
0.0 0.0 0.0 
-5.515103735789e-04 1.250172614583e-03 0.0 
1.250172614583e-03 9.545563303195e-03 0.0 
0.0 0.0 0.0 
3.703238392321e-04 1.227999878146e-03 0.0 
1.227999878146e-03 8.097325510221e-03 0.0 
0.0 0.0 0.0 
4.993989662394e-04 1.203880219203e-03 0.0 
1.203880219203e-03 7.632399266462e-03 0.0 
0.0 0.0 0.0 
5.315459784989e-04 1.255790986432e-03 0.0 
1.255790986432e-03 5.750856094522e-03 0.0 
0.0 0.0 0.0 
-6.951169835114e-04 4.664049906787e-04 0.0 
4.664049906787e-04 1.069436762339e-02 0.0 
0.0 0.0 0.0 
4.785522056896e-04 3.351415326739e-04 0.0 
3.351415326739e-04 6.608819603536e-03 0.0 
0.0 0.0 0.0 
4.491149843429e-04 2.585872698568e-04 0.0 
2.585872698568e-04 6.621305696801e-03 0.0 
0.0 0.0 0.0 
5.376044730876e-05 5.658909181841e-04 0.0 
5.658909181841e-04 2.142319452184e-03 0.0 
0.0 0.0 0.0 
-4.246680087783e-04 1.308597235990e-03 0.0 
1.308597235990e-03 9.446262231622e-03 0.0 
0.0 0.0 0.0 
3.210241682459e-04 3.426109011938e-04 0.0 
3.426109011938e-04 7.327011033099e-03 0.0 
0.0 0.0 0.0 
-7.336128128971e-04 1.051214895942e-03 0.0 
1.051214895942e-03 7.484840233133e-03 0.0 
0.0 0.0 0.0 
6.343223988807e-04 8.281646509261e-05 0.0 
8.281646509261e-05 4.765152496140e-03 0.0 
0.0 0.0 0.0 
-7.465709650989e-04 9.282675667449e-04 0.0 
9.282675667449e-04 2.090116467552e-03 0.0 
0.0 0.0 0.0 
4.242078053238e-04 3.015567860180e-04 0.0 
3.015567860180e-04 6.803755464763e-03 0.0 
0.0 0.0 0.0 
7.353540499002e-04 5.915765500046e-04 0.0 
5.915765500046e-04 2.941665971455e-03 0.0 
0.0 0.0 0.0 
5.901585931805e-04 3.977446932927e-05 0.0 
3.977446932927e-05 4.527933373458e-03 0.0 
0.0 0.0 0.0 
4.051027669556e-04 1.332714090285e-03 0.0 
1.332714090285e-03 7.597260893550e-03 0.0 
0.0 0.0 0.0 
-7.931953531514e-04 4.656435692015e-04 0.0 
4.656435692015e-04 1.069487996861e-02 0.0 
0.0 0.0 0.0 
-7.486081117202e-04 4.796563436575e-04 0.0 
4.796563436575e-04 1.046118282767e-02 0.0 
0.0 0.0 0.0 
-3.297848377937e-06 1.437928285678e-03 0.0 
1.437928285678e-03 7.873759570620e-03 0.0 
0.0 0.0 0.0 
-8.726343292009e-04 3.344345592147e-04 0.0 
3.344345592147e-04 8.503929353980e-03 0.0 
0.0 0.0 0.0 
-8.658497511470e-04 3.002076109535e-04 0.0 
3.002076109535e-04 8.739524838274e-03 0.0 
0.0 0.0 0.0 
4.032505414995e-04 2.265824114798e-04 0.0 
2.265824114798e-04 6.816203322853e-03 0.0 
0.0 0.0 0.0 
7.156560345563e-04 5.241206551549e-04 0.0 
5.241206551549e-04 5.752606370563e-03 0.0 
0.0 0.0 0.0 
7.921798233617e-04 5.234232852921e-04 0.0 
5.234232852921e-04 5.043041945540e-03 0.0 
0.0 0.0 0.0 
7.051436258405e-04 8.468143332550e-04 0.0 
8.468143332550e-04 6.464762718621e-03 0.0 
0.0 0.0 0.0 
8.596735369168e-04 7.010815698950e-04 0.0 
7.010815698950e-04 4.930982619266e-03 0.0 
0.0 0.0 0.0 
6.644611315554e-04 5.606166389075e-04 0.0 
5.606166389075e-04 3.380401346961e-03 0.0 
0.0 0.0 0.0 
-7.530689377263e-04 2.246906142476e-04 0.0 
2.246906142476e-04 8.527444633049e-03 0.0 
0.0 0.0 0.0 
-8.630770888569e-04 3.993551678517e-04 0.0 
3.993551678517e-04 1.011478397550e-02 0.0 
0.0 0.0 0.0 
-4.789655014596e-04 7.858372108774e-07 0.0 
7.858372108774e-07 9.367952854533e-03 0.0 
0.0 0.0 0.0 
4.579887836309e-04 1.123812194986e-03 0.0 
1.123812194986e-03 7.643948290242e-03 0.0 
0.0 0.0 0.0 
5.334750653532e-04 1.132069824371e-03 0.0 
1.132069824371e-03 5.768775860747e-03 0.0 
0.0 0.0 0.0 
2.661456320188e-04 1.468296307788e-03 0.0 
1.468296307788e-03 8.991690197940e-03 0.0 
0.0 0.0 0.0 
4.031499821504e-04 1.272692358251e-04 0.0 
1.272692358251e-04 6.661466848783e-03 0.0 
0.0 0.0 0.0 
7.665821892733e-04 6.996947533805e-04 0.0 
6.996947533805e-04 5.346772206205e-03 0.0 
0.0 0.0 0.0 
2.282450797466e-04 3.255317932765e-04 0.0 
3.255317932765e-04 7.648601125034e-03 0.0 
0.0 0.0 0.0 
7.417834366050e-04 3.970702016634e-04 0.0 
3.970702016634e-04 3.494419384690e-03 0.0 
0.0 0.0 0.0 
2.473629513726e-04 1.479766556496e-03 0.0 
1.479766556496e-03 8.975448491342e-03 0.0 
0.0 0.0 0.0 
3.333611885226e-05 1.398005423193e-03 0.0 
1.398005423193e-03 7.879559209306e-03 0.0 
0.0 0.0 0.0 
1.224148225001e-04 1.426314653865e-03 0.0 
1.426314653865e-03 8.160313412604e-03 0.0 
0.0 0.0 0.0 
4.573807992205e-04 9.024223510322e-04 0.0 
9.024223510322e-04 7.498584541781e-03 0.0 
0.0 0.0 0.0 
6.343719340989e-04 -4.387640760302e-05 0.0 
-4.387640760302e-05 3.238688301861e-03 0.0 
0.0 0.0 0.0 
-3.544293663847e-04 1.358791101624e-03 0.0 
1.358791101624e-03 8.999039563666e-03 0.0 
0.0 0.0 0.0 
7.954049275201e-04 5.723846211121e-04 0.0 
5.723846211121e-04 4.950959148526e-03 0.0 
0.0 0.0 0.0 
-4.738573299804e-04 1.310705041997e-03 0.0 
1.310705041997e-03 9.119294600812e-03 0.0 
0.0 0.0 0.0 
4.239201559777e-04 1.130043486029e-03 0.0 
1.130043486029e-03 4.451265648102e-03 0.0 
0.0 0.0 0.0 
2.255831343001e-04 1.418698567825e-03 0.0 
1.418698567825e-03 8.096481629171e-03 0.0 
0.0 0.0 0.0 
8.788282943695e-04 5.765584639554e-04 0.0 
5.765584639554e-04 4.559025096876e-03 0.0 
0.0 0.0 0.0 
6.950844233482e-04 2.180899489739e-04 0.0 
2.180899489739e-04 5.016475137854e-03 0.0 
0.0 0.0 0.0 
-4.839024871266e-04 1.283505524212e-03 0.0 
1.283505524212e-03 9.122973324042e-03 0.0 
0.0 0.0 0.0 
-5.123074376364e-04 5.399776790209e-04 0.0 
5.399776790209e-04 1.314361290037e-03 0.0 
0.0 0.0 0.0 
5.477475281690e-04 1.225667073161e-03 0.0 
1.225667073161e-03 6.653866112964e-03 0.0 
0.0 0.0 0.0 
-4.015857181174e-04 8.659418324302e-04 0.0 
8.659418324302e-04 2.425460585127e-03 0.0 
0.0 0.0 0.0 
1.252634619391e-04 -8.150006551443e-05 0.0 
-8.150006551443e-05 1.138531094697e-03 0.0 
0.0 0.0 0.0 
6.827247772212e-04 1.601411561454e-04 0.0 
1.601411561454e-04 4.751239306148e-03 0.0 
0.0 0.0 0.0 
-3.303160796528e-04 1.374640036150e-03 0.0 
1.374640036150e-03 1.012062627514e-02 0.0 
0.0 0.0 0.0 
-7.445595408659e-04 5.870723949311e-04 0.0 
5.870723949311e-04 1.054997463682e-02 0.0 
0.0 0.0 0.0 
-8.683441865295e-04 4.738337042631e-04 0.0 
4.738337042631e-04 8.024017266070e-03 0.0 
0.0 0.0 0.0 
0.0 7.365525580877e-04 0.0 
7.365525580877e-04 1.274341792835e-02 0.0 
0.0 0.0 0.0 
-8.121656630325e-04 1.012696512383e-03 0.0 
1.012696512383e-03 8.691984195797e-04 0.0 
0.0 0.0 0.0 
-8.581987765888e-04 4.078514171876e-04 0.0 
4.078514171876e-04 8.277609332648e-03 0.0 
0.0 0.0 0.0 
8.486554921716e-04 5.942310475392e-04 0.0 
5.942310475392e-04 5.129168451502e-03 0.0 
0.0 0.0 0.0 
6.209856842501e-04 3.782786773758e-05 0.0 
3.782786773758e-05 4.512213794143e-03 0.0 
0.0 0.0 0.0 
-9.549561831951e-04 6.727946131693e-04 0.0 
6.727946131693e-04 8.867332970031e-03 0.0 
0.0 0.0 0.0 
8.275072306556e-04 3.100741756227e-04 0.0 
3.100741756227e-04 3.342859735576e-03 0.0 
0.0 0.0 0.0 
7.589628197846e-04 4.482267923281e-04 0.0 
4.482267923281e-04 5.274770882318e-03 0.0 
0.0 0.0 0.0 
-9.314314540609e-05 1.405275038280e-03 0.0 
1.405275038280e-03 8.387369593239e-03 0.0 
0.0 0.0 0.0 
5.043500651365e-04 1.257680840174e-03 0.0 
1.257680840174e-03 7.127665630352e-03 0.0 
0.0 0.0 0.0 
-3.860833787445e-04 1.251692355684e-03 0.0 
1.251692355684e-03 1.091875657463e-02 0.0 
0.0 0.0 0.0 
2.932439930916e-04 6.992716523685e-04 0.0 
6.992716523685e-04 2.032259742185e-03 0.0 
0.0 0.0 0.0 
6.875023139561e-04 1.145929683009e-04 0.0 
1.145929683009e-04 4.320295783105e-03 0.0 
0.0 0.0 0.0 
6.421113332014e-04 1.107145047656e-04 0.0 
1.107145047656e-04 4.682777066368e-03 0.0 
0.0 0.0 0.0 
4.386311077755e-04 -1.759588257968e-04 0.0 
-1.759588257968e-04 2.367462210118e-03 0.0 
0.0 0.0 0.0 
-8.052783049586e-04 3.051604079347e-04 0.0 
3.051604079347e-04 9.550285106324e-03 0.0 
0.0 0.0 0.0 
-8.352224382929e-04 6.045331310308e-04 0.0 
6.045331310308e-04 1.054797217522e-02 0.0 
0.0 0.0 0.0 
4.895627197219e-04 -3.952855606468e-06 0.0 
-3.952855606468e-06 5.953856052414e-03 0.0 
0.0 0.0 0.0 
4.451734805255e-05 -6.201692749957e-05 0.0 
-6.201692749957e-05 7.271017907817e-04 0.0 
0.0 0.0 0.0 
-4.744180883460e-04 -1.214712557523e-04 0.0 
-1.214712557523e-04 6.799719358013e-04 0.0 
0.0 0.0 0.0 
2.347310520974e-04 -2.222520695367e-04 0.0 
-2.222520695367e-04 1.633527713412e-03 0.0 
0.0 0.0 0.0 
6.057347516828e-04 3.774039710026e-05 0.0 
3.774039710026e-05 4.694943952820e-03 0.0 
0.0 0.0 0.0 
7.789160917067e-04 4.801601414797e-04 0.0 
4.801601414797e-04 3.948539704586e-03 0.0 
0.0 0.0 0.0 
7.269315042215e-04 2.033259022920e-04 0.0 
2.033259022920e-04 3.249352731849e-03 0.0 
0.0 0.0 0.0 
6.795607988361e-04 3.095678919420e-04 0.0 
3.095678919420e-04 3.046649795738e-03 0.0 
0.0 0.0 0.0 
6.534490608856e-04 1.533726217297e-04 0.0 
1.533726217297e-04 4.932610014016e-03 0.0 
0.0 0.0 0.0 
-6.905373553189e-04 8.292281786518e-04 0.0 
8.292281786518e-04 1.065234291170e-02 0.0 
0.0 0.0 0.0 
6.184445719506e-04 1.053013623385e-04 0.0 
1.053013623385e-04 4.868690648849e-03 0.0 
0.0 0.0 0.0 
8.558663590903e-04 6.421602699345e-04 0.0 
6.421602699345e-04 3.921554808011e-03 0.0 
0.0 0.0 0.0 
-4.289237344740e-04 1.320153053851e-03 0.0 
1.320153053851e-03 9.444776425015e-03 0.0 
0.0 0.0 0.0 
-6.213708933706e-04 1.571840923249e-04 0.0 
1.571840923249e-04 1.005752581318e-02 0.0 
0.0 0.0 0.0 
3.578921694845e-04 1.367443308972e-03 0.0 
1.367443308972e-03 8.071576148119e-03 0.0 
0.0 0.0 0.0 
5.900703747879e-04 3.385219816437e-05 0.0 
3.385219816437e-05 4.880836277030e-03 0.0 
0.0 0.0 0.0 
6.124976864255e-04 7.878429043305e-05 0.0 
7.878429043305e-05 4.945995157271e-03 0.0 
0.0 0.0 0.0 
-8.980899752107e-04 7.020966771006e-04 0.0 
7.020966771006e-04 7.547353113116e-03 0.0 
0.0 0.0 0.0 
7.940969211946e-04 4.193442426040e-04 0.0 
4.193442426040e-04 4.030873542432e-03 0.0 
0.0 0.0 0.0 
5.945332055912e-04 9.523390941172e-05 0.0 
9.523390941172e-05 5.054809711198e-03 0.0 
0.0 0.0 0.0 
-3.919675856116e-04 3.967079107310e-05 0.0 
3.967079107310e-05 1.084924911790e-02 0.0 
0.0 0.0 0.0 
-4.261196404606e-04 3.703600714376e-05 0.0 
3.703600714376e-05 1.047693444866e-02 0.0 
0.0 0.0 0.0 
-8.682478547791e-04 5.858169106311e-04 0.0 
5.858169106311e-04 7.796943543354e-03 0.0 
0.0 0.0 0.0 
6.236795178447e-04 1.448658599591e-04 0.0 
1.448658599591e-04 5.118539960864e-03 0.0 
0.0 0.0 0.0 
6.837267296829e-04 5.612571580412e-05 0.0 
5.612571580412e-05 3.071226420820e-03 0.0 
0.0 0.0 0.0 
-8.283519820662e-05 1.171330606822e-03 0.0 
1.171330606822e-03 2.810870703335e-03 0.0 
0.0 0.0 0.0 
2.022743701253e-04 1.416752885751e-03 0.0 
1.416752885751e-03 8.990260635426e-03 0.0 
0.0 0.0 0.0 
2.302249518049e-04 -1.396990336010e-04 0.0 
-1.396990336010e-04 1.478986081991e-03 0.0 
0.0 0.0 0.0 
7.775114515374e-04 1.667579465353e-04 0.0 
1.667579465353e-04 3.190981916059e-03 0.0 
0.0 0.0 0.0 
4.707828100070e-04 1.179330712138e-03 0.0 
1.179330712138e-03 6.685583810883e-03 0.0 
0.0 0.0 0.0 
-7.121040645102e-04 2.804148004471e-04 0.0 
2.804148004471e-04 8.079348267256e-03 0.0 
0.0 0.0 0.0 
5.751334295334e-04 2.483439418009e-05 0.0 
2.483439418009e-05 5.072616846858e-03 0.0 
0.0 0.0 0.0 
3.554610388752e-04 -5.291790561044e-05 0.0 
-5.291790561044e-05 2.206127244830e-03 0.0 
0.0 0.0 0.0 
-8.626897816026e-04 2.969748589704e-04 0.0 
2.969748589704e-04 9.738829036002e-03 0.0 
0.0 0.0 0.0 
5.899707994266e-04 7.236005565238e-05 0.0 
7.236005565238e-05 5.131462622238e-03 0.0 
0.0 0.0 0.0 
7.978092987520e-04 4.062432203629e-04 0.0 
4.062432203629e-04 4.690093703985e-03 0.0 
0.0 0.0 0.0 
6.554866103023e-04 8.485965884258e-05 0.0 
8.485965884258e-05 4.588971762794e-03 0.0 
0.0 0.0 0.0 
-3.840921069594e-04 3.136269660537e-04 0.0 
3.136269660537e-04 1.163883106479e-03 0.0 
0.0 0.0 0.0 
-2.587616932244e-04 1.487995386380e-06 0.0 
1.487995386380e-06 1.198267560919e-02 0.0 
0.0 0.0 0.0 
7.778872506106e-04 2.479811705878e-04 0.0 
2.479811705878e-04 3.796849475959e-03 0.0 
0.0 0.0 0.0 
4.798723306001e-04 1.148433434181e-03 0.0 
1.148433434181e-03 7.791268681844e-03 0.0 
0.0 0.0 0.0 
1.326250967379e-04 1.378995049507e-03 0.0 
1.378995049507e-03 8.168990071762e-03 0.0 
0.0 0.0 0.0 
5.934667109528e-04 1.337132283934e-04 0.0 
1.337132283934e-04 5.307309686571e-03 0.0 
0.0 0.0 0.0 
5.679232436910e-04 6.347612815188e-05 0.0 
6.347612815188e-05 5.319579462578e-03 0.0 
0.0 0.0 0.0 
8.504027964154e-04 4.983438295157e-04 0.0 
4.983438295157e-04 3.555767677547e-03 0.0 
0.0 0.0 0.0 
-2.205829160973e-05 -1.357631838162e-04 0.0 
-1.357631838162e-04 1.028106257243e-03 0.0 
0.0 0.0 0.0 
-2.399673270450e-04 5.631311742154e-04 0.0 
5.631311742154e-04 1.113087717419e-03 0.0 
0.0 0.0 0.0 
5.636831374194e-04 1.171208728667e-04 0.0 
1.171208728667e-04 5.498747183966e-03 0.0 
0.0 0.0 0.0 
5.118997595308e-04 9.971514765973e-04 0.0 
9.971514765973e-04 7.501972387590e-03 0.0 
0.0 0.0 0.0 
6.284819675464e-04 -4.178316624884e-05 0.0 
-4.178316624884e-05 2.946546754648e-03 0.0 
0.0 0.0 0.0 
-3.038712131844e-04 1.375759519922e-03 0.0 
1.375759519922e-03 9.342224568475e-03 0.0 
0.0 0.0 0.0 
-6.228448784075e-04 1.207648808782e-03 0.0 
1.207648808782e-03 6.960779607041e-03 0.0 
0.0 0.0 0.0 
-4.936452998489e-04 1.274960549025e-03 0.0 
1.274960549025e-03 9.861761869498e-03 0.0 
0.0 0.0 0.0 
2.847588279302e-04 8.507721139122e-04 0.0 
8.507721139122e-04 8.184286586186e-03 0.0 
0.0 0.0 0.0 
-1.084609240648e-03 -2.291642444185e-05 0.0 
-2.291642444185e-05 5.850804551710e-04 0.0 
0.0 0.0 0.0 
0.0 6.374299935486e-05 0.0 
6.374299935486e-05 1.296157174140e-02 0.0 
0.0 0.0 0.0 
0.0 1.042080638425e-04 0.0 
1.042080638425e-04 8.282354519930e-03 0.0 
0.0 0.0 0.0 
-4.550331375346e-04 -3.102496781514e-05 0.0 
-3.102496781514e-05 9.812858330924e-03 0.0 
0.0 0.0 0.0 
7.383849669065e-04 1.169668204563e-04 0.0 
1.169668204563e-04 3.627059550438e-03 0.0 
0.0 0.0 0.0 
2.994476046947e-05 1.397257290459e-03 0.0 
1.397257290459e-03 8.269572777510e-03 0.0 
0.0 0.0 0.0 
7.524051079479e-04 5.522042765478e-04 0.0 
5.522042765478e-04 3.882629122436e-03 0.0 
0.0 0.0 0.0 
7.897381456701e-05 -1.662507802174e-04 0.0 
-1.662507802174e-04 9.911179774478e-04 0.0 
0.0 0.0 0.0 
-7.224255159831e-04 7.799595151109e-04 0.0 
7.799595151109e-04 1.467404389347e-03 0.0 
0.0 0.0 0.0 
-2.372315549674e-04 1.877996975909e-04 0.0 
1.877996975909e-04 1.229308964902e-02 0.0 
0.0 0.0 0.0 
-8.146722791340e-04 7.283070219137e-04 0.0 
7.283070219137e-04 1.061408972410e-02 0.0 
0.0 0.0 0.0 
-8.529006627664e-04 2.281632989194e-04 0.0 
2.281632989194e-04 9.434763308775e-03 0.0 
0.0 0.0 0.0 
4.134983422333e-07 1.803070958770e-03 0.0 
1.803070958770e-03 1.069016870516e-02 0.0 
0.0 0.0 0.0 
2.833618281994e-04 -5.338928201671e-05 0.0 
-5.338928201671e-05 1.829206134213e-03 0.0 
0.0 0.0 0.0 
2.527237382455e-05 1.787028677208e-03 0.0 
1.787028677208e-03 1.046704563573e-02 0.0 
0.0 0.0 0.0 
-7.262601741030e-04 7.094623313869e-04 0.0 
7.094623313869e-04 1.061666220822e-02 0.0 
0.0 0.0 0.0 
6.872788943235e-04 2.336809794973e-05 0.0 
2.336809794973e-05 3.499281852309e-03 0.0 
0.0 0.0 0.0 
1.245990672172e-04 1.422221154744e-03 0.0 
1.422221154744e-03 7.753974280863e-03 0.0 
0.0 0.0 0.0 
7.747525467729e-04 1.430022607821e-04 0.0 
1.430022607821e-04 3.331011566333e-03 0.0 
0.0 0.0 0.0 
-6.529209210493e-05 1.281810044183e-03 0.0 
1.281810044183e-03 3.413288173036e-03 0.0 
0.0 0.0 0.0 
7.145829766360e-04 6.524909311348e-05 0.0 
6.524909311348e-05 3.075085252399e-03 0.0 
0.0 0.0 0.0 
-6.377266100913e-04 9.509791537483e-04 0.0 
9.509791537483e-04 1.065988895295e-02 0.0 
0.0 0.0 0.0 
3.531352281132e-04 9.575403756932e-05 0.0 
9.575403756932e-05 6.935285733318e-03 0.0 
0.0 0.0 0.0 
8.288451404754e-04 2.672983053414e-04 0.0 
2.672983053414e-04 3.466736304786e-03 0.0 
0.0 0.0 0.0 
-3.616141078046e-04 1.341962048079e-03 0.0 
1.341962048079e-03 9.776798664710e-03 0.0 
0.0 0.0 0.0 
-7.160792916563e-04 -4.562122111324e-05 0.0 
-4.562122111324e-05 3.860778798939e-04 0.0 
0.0 0.0 0.0 
8.607245877421e-04 4.337419349810e-04 0.0 
4.337419349810e-04 3.656218895370e-03 0.0 
0.0 0.0 0.0 
-6.919103107257e-04 7.800070482140e-04 0.0 
7.800070482140e-04 1.120009341654e-02 0.0 
0.0 0.0 0.0 
6.479635530212e-04 6.489319755929e-07 0.0 
6.489319755929e-07 2.977129621735e-03 0.0 
0.0 0.0 0.0 
5.606985333475e-04 -1.074863664415e-04 0.0 
-1.074863664415e-04 2.697993354281e-03 0.0 
0.0 0.0 0.0 
1.516720528900e-04 1.369548767584e-03 0.0 
1.369548767584e-03 7.762425947001e-03 0.0 
0.0 0.0 0.0 
2.973825152250e-04 -6.021593441126e-05 0.0 
-6.021593441126e-05 1.480503502231e-03 0.0 
0.0 0.0 0.0 
-9.467577579274e-04 9.908354069875e-04 0.0 
9.908354069875e-04 6.951456163674e-03 0.0 
0.0 0.0 0.0 
-8.660890056503e-04 9.075129002781e-04 0.0 
9.075129002781e-04 7.253832517465e-03 0.0 
0.0 0.0 0.0 
5.718399705408e-04 -4.982095421367e-05 0.0 
-4.982095421367e-05 2.591345662047e-03 0.0 
0.0 0.0 0.0 
7.791401869752e-04 4.834652165733e-04 0.0 
4.834652165733e-04 5.150553931044e-03 0.0 
0.0 0.0 0.0 
5.040177299411e-04 1.269061560617e-03 0.0 
1.269061560617e-03 6.211589382818e-03 0.0 
0.0 0.0 0.0 
-3.802345938759e-04 1.340469431942e-03 0.0 
1.340469431942e-03 9.777029649015e-03 0.0 
0.0 0.0 0.0 
-2.764688767071e-04 1.200217343728e-03 0.0 
1.200217343728e-03 1.156888586622e-02 0.0 
0.0 0.0 0.0 
-6.364963318305e-04 3.613215404462e-04 0.0 
3.613215404462e-04 7.615664351198e-03 0.0 
0.0 0.0 0.0 
-3.505090356983e-04 -1.406358045147e-05 0.0 
-1.406358045147e-05 1.124061777050e-02 0.0 
0.0 0.0 0.0 
-1.364137643445e-04 1.479152953902e-03 0.0 
1.479152953902e-03 1.078480207356e-02 0.0 
0.0 0.0 0.0 
8.295013091120e-04 5.743075465746e-04 0.0 
5.743075465746e-04 3.466048601830e-03 0.0 
0.0 0.0 0.0 
-4.091121163403e-04 1.188399262798e-03 0.0 
1.188399262798e-03 2.437161955614e-03 0.0 
0.0 0.0 0.0 
-7.608479131194e-04 1.268864665041e-03 0.0 
1.268864665041e-03 7.446404731494e-03 0.0 
0.0 0.0 0.0 
7.839352573422e-04 3.722607469901e-04 0.0 
3.722607469901e-04 4.812405233386e-03 0.0 
0.0 0.0 0.0 
-4.932875568699e-04 1.219235759835e-03 0.0 
1.219235759835e-03 1.024838297935e-02 0.0 
0.0 0.0 0.0 
8.581036190816e-04 4.861806838156e-04 0.0 
4.861806838156e-04 4.794693254107e-03 0.0 
0.0 0.0 0.0 
-5.636149173449e-05 4.602380802842e-04 0.0 
4.602380802842e-04 1.794074107417e-03 0.0 
0.0 0.0 0.0 
7.412046280022e-04 5.563785794288e-04 0.0 
5.563785794288e-04 5.619091648394e-03 0.0 
0.0 0.0 0.0 
-1.017377201080e-04 1.392629938777e-03 0.0 
1.392629938777e-03 4.073601280358e-03 0.0 
0.0 0.0 0.0 
5.064480174528e-04 1.155970943675e-03 0.0 
1.155970943675e-03 6.227725868443e-03 0.0 
0.0 0.0 0.0 
8.317894528151e-04 5.584537795171e-04 0.0 
5.584537795171e-04 5.257346980748e-03 0.0 
0.0 0.0 0.0 
2.359577638300e-04 1.399941063695e-03 0.0 
1.399941063695e-03 7.667797463216e-03 0.0 
0.0 0.0 0.0 
-4.223001721450e-04 3.219747734457e-05 0.0 
3.219747734457e-05 1.075815851601e-02 0.0 
0.0 0.0 0.0 
5.038408680678e-04 -1.457048607616e-04 0.0 
-1.457048607616e-04 2.604763644833e-03 0.0 
0.0 0.0 0.0 
-9.720330185436e-05 1.013601277597e-03 0.0 
1.013601277597e-03 2.243067135990e-03 0.0 
0.0 0.0 0.0 
7.868141093461e-04 6.299215691601e-04 0.0 
6.299215691601e-04 5.736367306462e-03 0.0 
0.0 0.0 0.0 
-1.505450964526e-04 1.432434177727e-03 0.0 
1.432434177727e-03 4.740717003817e-03 0.0 
0.0 0.0 0.0 
-3.885028337879e-04 1.362257442483e-04 0.0 
1.362257442483e-04 6.528218165243e-04 0.0 
0.0 0.0 0.0 
-1.604758564847e-04 5.698372670169e-05 0.0 
5.698372670169e-05 1.233859625782e-02 0.0 
0.0 0.0 0.0 
-2.347648808144e-04 5.381433871122e-05 0.0 
5.381433871122e-05 1.198473716067e-02 0.0 
0.0 0.0 0.0 
-1.791577711998e-04 -1.231303091270e-04 0.0 
-1.231303091270e-04 4.668450292544e-04 0.0 
0.0 0.0 0.0 
6.853666301330e-04 6.303403487625e-04 0.0 
6.303403487625e-04 6.102806092782e-03 0.0 
0.0 0.0 0.0 
3.412773209699e-04 -2.032415688278e-04 0.0 
-2.032415688278e-04 1.997985757489e-03 0.0 
0.0 0.0 0.0 
4.200360251148e-04 -9.931092488520e-05 0.0 
-9.931092488520e-05 2.134744311218e-03 0.0 
0.0 0.0 0.0 
-2.952476183816e-04 1.386024552057e-03 0.0 
1.386024552057e-03 1.011986274162e-02 0.0 
0.0 0.0 0.0 
2.480514718155e-04 1.330054406622e-03 0.0 
1.330054406622e-03 7.677228635970e-03 0.0 
0.0 0.0 0.0 
-2.516555557011e-04 1.406850649414e-03 0.0 
1.406850649414e-03 9.692337859052e-03 0.0 
0.0 0.0 0.0 
7.743288146109e-04 2.873366287337e-04 0.0 
2.873366287337e-04 3.683883593382e-03 0.0 
0.0 0.0 0.0 
-5.033930491223e-04 8.307555972106e-06 0.0 
8.307555972106e-06 9.378096435646e-03 0.0 
0.0 0.0 0.0 
1.394694185990e-04 6.929372668144e-04 0.0 
6.929372668144e-04 8.081943301669e-03 0.0 
0.0 0.0 0.0 
3.145971343108e-04 -1.205426798524e-04 0.0 
-1.205426798524e-04 1.762512911741e-03 0.0 
0.0 0.0 0.0 
4.454379621217e-04 1.086815720627e-03 0.0 
1.086815720627e-03 7.681103250473e-03 0.0 
0.0 0.0 0.0 
3.946867724975e-04 1.248116358669e-03 0.0 
1.248116358669e-03 6.736611216738e-03 0.0 
0.0 0.0 0.0 
2.265720027748e-04 -2.089152071104e-05 0.0 
-2.089152071104e-05 1.371227592270e-03 0.0 
0.0 0.0 0.0 
-5.837264739715e-04 1.110739433307e-03 0.0 
1.110739433307e-03 1.030151475852e-02 0.0 
0.0 0.0 0.0 
8.732867886456e-04 5.688734072923e-04 0.0 
5.688734072923e-04 4.004487090638e-03 0.0 
0.0 0.0 0.0 
-5.553750659004e-05 -1.666381175757e-04 0.0 
-1.666381175757e-04 7.902808118576e-04 0.0 
0.0 0.0 0.0 
8.195435391241e-04 3.622204909192e-04 0.0 
3.622204909192e-04 3.225738818003e-03 0.0 
0.0 0.0 0.0 
5.211496763131e-04 3.655434387938e-05 0.0 
3.655434387938e-05 5.750311366238e-03 0.0 
0.0 0.0 0.0 
-7.134364313599e-04 9.748081457661e-04 0.0 
9.748081457661e-04 1.065535079817e-02 0.0 
0.0 0.0 0.0 
1.318613973418e-04 -2.495511244426e-04 0.0 
-2.495511244426e-04 1.359811009217e-03 0.0 
0.0 0.0 0.0 
5.865341431064e-04 -7.816630860456e-06 0.0 
-7.816630860456e-06 4.538238619793e-03 0.0 
0.0 0.0 0.0 
-3.975915897981e-04 1.311290113241e-03 0.0 
1.311290113241e-03 1.018783262104e-02 0.0 
0.0 0.0 0.0 
2.345684121801e-04 1.371759181590e-03 0.0 
1.371759181590e-03 8.545322387940e-03 0.0 
0.0 0.0 0.0 
6.462438415080e-04 -1.565258337294e-06 0.0 
-1.565258337294e-06 2.825439236439e-03 0.0 
0.0 0.0 0.0 
3.712752234946e-04 1.095324724491e-05 0.0 
1.095324724491e-05 2.207538795487e-03 0.0 
0.0 0.0 0.0 
4.746973018395e-04 1.284494657183e-03 0.0 
1.284494657183e-03 6.671041673876e-03 0.0 
0.0 0.0 0.0 
-4.050828686534e-04 -3.167724501327e-05 0.0 
-3.167724501327e-05 1.063269332165e-02 0.0 
0.0 0.0 0.0 
-8.745285262846e-05 -1.772363335289e-04 0.0 
-1.772363335289e-04 7.906382986431e-04 0.0 
0.0 0.0 0.0 
-1.197845864078e-04 1.647191015110e-03 0.0 
1.647191015110e-03 1.092659681077e-02 0.0 
0.0 0.0 0.0 
-1.652948612773e-04 1.098774030701e-03 0.0 
1.098774030701e-03 1.206713823114e-02 0.0 
0.0 0.0 0.0 
-4.403116172392e-04 -2.233697947251e-05 0.0 
-2.233697947251e-05 1.006241777647e-02 0.0 
0.0 0.0 0.0 
-2.646702995781e-04 5.085744223563e-04 0.0 
5.085744223563e-04 1.247695831547e-02 0.0 
0.0 0.0 0.0 
-1.395605022053e-04 1.286795265703e-03 0.0 
1.286795265703e-03 1.180770510021e-02 0.0 
0.0 0.0 0.0 
8.636689394157e-04 3.835850468720e-04 0.0 
3.835850468720e-04 3.771636891215e-03 0.0 
0.0 0.0 0.0 
7.400108837927e-04 1.365667950750e-04 0.0 
1.365667950750e-04 3.491382469404e-03 0.0 
0.0 0.0 0.0 
2.376918325191e-04 1.373495089522e-03 0.0 
1.373495089522e-03 8.943163470834e-03 0.0 
0.0 0.0 0.0 
-6.833851516440e-04 3.829227591969e-05 0.0 
3.829227591969e-05 4.085232660653e-04 0.0 
0.0 0.0 0.0 
3.230259622966e-04 3.319185106835e-05 0.0 
3.319185106835e-05 2.001769644757e-03 0.0 
0.0 0.0 0.0 
5.725508743275e-04 4.344793447920e-05 0.0 
4.344793447920e-05 4.642332301987e-03 0.0 
0.0 0.0 0.0 
5.695188251571e-04 -1.020164566220e-04 0.0 
-1.020164566220e-04 2.844098436646e-03 0.0 
0.0 0.0 0.0 
7.754728890452e-04 1.960887253950e-04 0.0 
1.960887253950e-04 3.052657992342e-03 0.0 
0.0 0.0 0.0 
-8.136883611306e-04 1.104905990179e-03 0.0 
1.104905990179e-03 5.468571337509e-03 0.0 
0.0 0.0 0.0 
-8.773145468891e-04 1.283268462590e-03 0.0 
1.283268462590e-03 6.199221795231e-03 0.0 
0.0 0.0 0.0 
-6.173486556160e-04 8.925492600696e-05 0.0 
8.925492600696e-05 1.010989949414e-02 0.0 
0.0 0.0 0.0 
7.631274746491e-04 3.366053963525e-04 0.0 
3.366053963525e-04 3.583296802512e-03 0.0 
0.0 0.0 0.0 
4.027902740051e-04 -2.485500117985e-05 0.0 
-2.485500117985e-05 2.357951037794e-03 0.0 
0.0 0.0 0.0 
2.054883236238e-04 1.445649997232e-03 0.0 
1.445649997232e-03 8.533716979151e-03 0.0 
0.0 0.0 0.0 
1.315427652819e-04 5.842920971504e-04 0.0 
5.842920971504e-04 8.448589813684e-03 0.0 
0.0 0.0 0.0 
1.250559419559e-04 6.639474598401e-04 0.0 
6.639474598401e-04 8.477008246159e-03 0.0 
0.0 0.0 0.0 
8.236811671090e-04 2.369890159638e-04 0.0 
2.369890159638e-04 3.604235210160e-03 0.0 
0.0 0.0 0.0 
-6.582900708288e-04 1.220744743512e-04 0.0 
1.220744743512e-04 9.782947888907e-03 0.0 
0.0 0.0 0.0 
-7.013051465178e-04 2.359242183706e-05 0.0 
2.359242183706e-05 6.480796669679e-04 0.0 
0.0 0.0 0.0 
-8.285656134484e-04 1.132528264893e-03 0.0 
1.132528264893e-03 4.112988419550e-03 0.0 
0.0 0.0 0.0 
1.151965747175e-04 -1.475696053605e-04 0.0 
-1.475696053605e-04 1.488003040470e-03 0.0 
0.0 0.0 0.0 
-8.245030307712e-04 1.153751630264e-03 0.0 
1.153751630264e-03 4.818468512553e-03 0.0 
0.0 0.0 0.0 
3.614590527719e-04 1.260061565157e-03 0.0 
1.260061565157e-03 7.177719422235e-03 0.0 
0.0 0.0 0.0 
7.132200103959e-04 7.772821836004e-05 0.0 
7.772821836004e-05 2.931267974900e-03 0.0 
0.0 0.0 0.0 
7.365300815556e-04 1.651496694885e-04 0.0 
1.651496694885e-04 3.366502482273e-03 0.0 
0.0 0.0 0.0 
-3.176816806694e-04 -1.530125303799e-04 0.0 
-1.530125303799e-04 9.450354519331e-04 0.0 
0.0 0.0 0.0 
-2.065206885099e-04 6.154216733458e-05 0.0 
6.154216733458e-05 1.205171094359e-02 0.0 
0.0 0.0 0.0 
6.896708239448e-04 3.902863386904e-05 0.0 
3.902863386904e-05 3.209905749069e-03 0.0 
0.0 0.0 0.0 
-1.924083078464e-04 2.319171944503e-04 0.0 
2.319171944503e-04 1.228597111112e-02 0.0 
0.0 0.0 0.0 
-2.870985242225e-04 5.816819651290e-05 0.0 
5.816819651290e-05 1.174859896184e-02 0.0 
0.0 0.0 0.0 
-7.916112756412e-05 9.843304211005e-05 0.0 
9.843304211005e-05 1.294828163446e-02 0.0 
0.0 0.0 0.0 
1.067632364862e-04 1.368526885001e-04 0.0 
1.368526885001e-04 8.289866945866e-03 0.0 
0.0 0.0 0.0 
-4.495897354482e-04 3.036541685459e-05 0.0 
3.036541685459e-05 1.007465686381e-02 0.0 
0.0 0.0 0.0 
6.905448289329e-04 2.859192246651e-05 0.0 
2.859192246651e-05 3.351035000903e-03 0.0 
0.0 0.0 0.0 
-5.415685058883e-04 5.667572179699e-04 0.0 
5.667572179699e-04 6.908690899654e-03 0.0 
0.0 0.0 0.0 
7.675786441788e-04 1.296005173721e-04 0.0 
1.296005173721e-04 3.480917998503e-03 0.0 
0.0 0.0 0.0 
0.0 4.541671495042e-04 0.0 
4.541671495042e-04 8.401000290297e-03 0.0 
0.0 0.0 0.0 
-7.799467740924e-04 1.019316219597e-03 0.0 
1.019316219597e-03 2.742845211754e-03 0.0 
0.0 0.0 0.0 
-7.940853509610e-04 1.097517661295e-03 0.0 
1.097517661295e-03 3.431466700098e-03 0.0 
0.0 0.0 0.0 
3.720047758515e-04 1.203589163597e-03 0.0 
1.203589163597e-03 8.109735878842e-03 0.0 
0.0 0.0 0.0 
-5.767649545695e-04 6.621362354203e-05 0.0 
6.621362354203e-05 9.775247562637e-03 0.0 
0.0 0.0 0.0 
-1.744721016012e-04 1.624454803316e-04 0.0 
1.624454803316e-04 1.232808447484e-02 0.0 
0.0 0.0 0.0 
-4.328917735379e-04 1.306719209011e-03 0.0 
1.306719209011e-03 1.018815486869e-02 0.0 
0.0 0.0 0.0 
2.315262223642e-04 1.485094722395e-03 0.0 
1.485094722395e-03 8.963507098291e-03 0.0 
0.0 0.0 0.0 
-5.545383290344e-04 1.157470149790e-03 0.0 
1.157470149790e-03 1.094167047630e-02 0.0 
0.0 0.0 0.0 
-4.533972501658e-04 6.269480614508e-05 0.0 
6.269480614508e-05 1.016013364324e-02 0.0 
0.0 0.0 0.0 
4.885083297901e-04 -1.553664090207e-04 0.0 
-1.553664090207e-04 2.460328986018e-03 0.0 
0.0 0.0 0.0 
5.606578064832e-04 -5.161349271027e-05 0.0 
-5.161349271027e-05 2.446419085206e-03 0.0 
0.0 0.0 0.0 
-3.634156366625e-04 6.002355869919e-05 0.0 
6.002355869919e-05 1.103514605137e-02 0.0 
0.0 0.0 0.0 
1.365886351641e-04 1.421394932315e-03 0.0 
1.421394932315e-03 8.976476898574e-03 0.0 
0.0 0.0 0.0 
-7.477917936507e-04 1.415585972936e-04 0.0 
1.415585972936e-04 9.433358313009e-03 0.0 
0.0 0.0 0.0 
-4.687657372274e-04 7.400551562020e-06 0.0 
7.400551562020e-06 9.718259150107e-03 0.0 
0.0 0.0 0.0 
-4.606787439110e-04 8.159333281608e-06 0.0 
8.159333281608e-06 1.005674966908e-02 0.0 
0.0 0.0 0.0 
-4.888225053932e-04 2.566963621992e-06 0.0 
2.566963621992e-06 1.018267503798e-02 0.0 
0.0 0.0 0.0 
1.063114693627e-04 3.655868412802e-05 0.0 
3.655868412802e-05 1.254061358219e-03 0.0 
0.0 0.0 0.0 
4.781130179980e-04 -9.164918872900e-05 0.0 
-9.164918872900e-05 2.217558423917e-03 0.0 
0.0 0.0 0.0 
-1.695343046370e-04 3.152455052401e-04 0.0 
3.152455052401e-04 1.263660891329e-02 0.0 
0.0 0.0 0.0 
-4.608080379158e-04 3.059609332548e-05 0.0 
3.059609332548e-05 1.058186343322e-02 0.0 
0.0 0.0 0.0 
1.513011305283e-04 1.541684618845e-03 0.0 
1.541684618845e-03 9.451468689389e-03 0.0 
0.0 0.0 0.0 
-4.031636126244e-04 1.239064352334e-03 0.0 
1.239064352334e-03 1.155746271318e-02 0.0 
0.0 0.0 0.0 
-6.326986218379e-04 1.135114900929e-03 0.0 
1.135114900929e-03 1.029740667960e-02 0.0 
0.0 0.0 0.0 
-3.472686181534e-04 5.370968171840e-04 0.0 
5.370968171840e-04 1.223891458459e-02 0.0 
0.0 0.0 0.0 
5.655573961327e-04 -8.171161694286e-07 0.0 
-8.171161694286e-07 3.354367430568e-03 0.0 
0.0 0.0 0.0 
4.980699335286e-04 -1.452491353716e-05 0.0 
-1.452491353716e-05 3.043029875669e-03 0.0 
0.0 0.0 0.0 
3.084569077445e-04 6.911910290251e-04 0.0 
6.911910290251e-04 7.675843504793e-03 0.0 
0.0 0.0 0.0 
-3.315414394336e-04 -7.834193782585e-05 0.0 
-7.834193782585e-05 5.428044252476e-04 0.0 
0.0 0.0 0.0 
3.230890440524e-04 -5.486138166386e-05 0.0 
-5.486138166386e-05 2.118513296821e-03 0.0 
0.0 0.0 0.0 
0.0 1.710646690239e-03 0.0 
1.710646690239e-03 1.057359813652e-02 0.0 
0.0 0.0 0.0 
1.509685799461e-04 -5.023382235252e-05 0.0 
-5.023382235252e-05 1.014486162449e-03 0.0 
0.0 0.0 0.0 
-4.591468835927e-04 1.212845020442e-05 0.0 
1.212845020442e-05 9.720406251861e-03 0.0 
0.0 0.0 0.0 
3.576269563408e-04 1.174769554345e-03 0.0 
1.174769554345e-03 8.290346154312e-03 0.0 
0.0 0.0 0.0 
-8.883420070960e-05 -9.748579255545e-05 0.0 
-9.748579255545e-05 7.144042387490e-04 0.0 
0.0 0.0 0.0 
-8.254303734567e-05 -7.347375129386e-05 0.0 
-7.347375129386e-05 3.932190967304e-04 0.0 
0.0 0.0 0.0 
-1.130049295689e-04 4.585171684070e-04 0.0 
4.585171684070e-04 1.287654016575e-02 0.0 
0.0 0.0 0.0 
-5.461550018613e-04 2.528511097116e-05 0.0 
2.528511097116e-05 9.394740851823e-03 0.0 
0.0 0.0 0.0 
-1.828765038311e-04 4.370656469938e-04 0.0 
4.370656469938e-04 1.254395444093e-02 0.0 
0.0 0.0 0.0 
2.569332806133e-04 1.223101227593e-03 0.0 
1.223101227593e-03 8.470675169683e-03 0.0 
0.0 0.0 0.0 
-5.387838853248e-04 1.124702418793e-06 0.0 
1.124702418793e-06 9.382993151244e-03 0.0 
0.0 0.0 0.0 
-6.835610636748e-04 4.610037238940e-05 0.0 
4.610037238940e-05 7.407531316943e-04 0.0 
0.0 0.0 0.0 
-8.359364002708e-05 6.087460683674e-05 0.0 
6.087460683674e-05 1.265299257882e-02 0.0 
0.0 0.0 0.0 
1.484345409255e-04 -1.590920619220e-04 0.0 
-1.590920619220e-04 1.142438260126e-03 0.0 
0.0 0.0 0.0 
-1.935085073518e-04 3.571892966238e-04 0.0 
3.571892966238e-04 1.236435734279e-02 0.0 
0.0 0.0 0.0 
0.0 3.579868502344e-04 0.0 
3.579868502344e-04 8.356338317203e-03 0.0 
0.0 0.0 0.0 
-3.741402381230e-04 1.034089369625e-03 0.0 
1.034089369625e-03 1.183348380915e-02 0.0 
0.0 0.0 0.0 
3.531571243720e-04 7.683430274462e-05 0.0 
7.683430274462e-05 1.562339562807e-03 0.0 
0.0 0.0 0.0 
-7.019896553501e-04 2.246656480632e-04 0.0 
2.246656480632e-04 1.010943154323e-02 0.0 
0.0 0.0 0.0 
5.126182444559e-04 -4.530941638133e-05 0.0 
-4.530941638133e-05 3.415358566851e-03 0.0 
0.0 0.0 0.0 
1.790732804194e-04 1.365654058268e-03 0.0 
1.365654058268e-03 8.539738106032e-03 0.0 
0.0 0.0 0.0 
7.205636015772e-05 1.647561250162e-03 0.0 
1.647561250162e-03 9.871061451632e-03 0.0 
0.0 0.0 0.0 
-3.269735147111e-04 6.363942062231e-05 0.0 
6.363942062231e-05 1.145310836769e-02 0.0 
0.0 0.0 0.0 
1.216525437748e-04 1.598829494257e-03 0.0 
1.598829494257e-03 9.636171147074e-03 0.0 
0.0 0.0 0.0 
-1.257993552711e-04 -7.653470031033e-06 0.0 
-7.653470031033e-06 8.298775186153e-04 0.0 
0.0 0.0 0.0 
1.838285676610e-04 4.376191960765e-04 0.0 
4.376191960765e-04 7.992289931480e-03 0.0 
0.0 0.0 0.0 
3.802333069254e-04 3.855006698653e-05 0.0 
3.855006698653e-05 1.763431657347e-03 0.0 
0.0 0.0 0.0 
1.586572501491e-04 -4.083169802678e-05 0.0 
-4.083169802678e-05 1.016742377983e-03 0.0 
0.0 0.0 0.0 
2.492675258317e-04 1.102486671250e-03 0.0 
1.102486671250e-03 8.535072392279e-03 0.0 
0.0 0.0 0.0 
-2.813430860380e-04 7.868564247910e-04 0.0 
7.868564247910e-04 1.243783833651e-02 0.0 
0.0 0.0 0.0 
-1.567813295710e-04 4.646064647406e-04 0.0 
4.646064647406e-04 1.264524067335e-02 0.0 
0.0 0.0 0.0 
-4.919753751774e-04 5.522837515892e-05 0.0 
5.522837515892e-05 9.713841673031e-03 0.0 
0.0 0.0 0.0 
-7.783914068344e-04 3.788450192049e-04 0.0 
3.788450192049e-04 1.011936498711e-02 0.0 
0.0 0.0 0.0 
-1.337722282243e-04 1.044792723655e-03 0.0 
1.044792723655e-03 3.401872394492e-03 0.0 
0.0 0.0 0.0 
-2.691567469153e-04 1.361846575851e-03 0.0 
1.361846575851e-03 1.176593910433e-02 0.0 
0.0 0.0 0.0 
4.719652785869e-04 5.406292349560e-07 0.0 
5.406292349560e-07 2.814685664899e-03 0.0 
0.0 0.0 0.0 
-9.030775053154e-05 4.951209842147e-04 0.0 
4.951209842147e-04 1.657218751199e-03 0.0 
0.0 0.0 0.0 
2.677136967322e-04 1.443455517615e-03 0.0 
1.443455517615e-03 8.535711392926e-03 0.0 
0.0 0.0 0.0 
-4.924478271683e-04 2.302535577568e-09 0.0 
2.302535577568e-09 9.353961184225e-03 0.0 
0.0 0.0 0.0 
-2.649176041634e-04 7.762324105727e-04 0.0 
7.762324105727e-04 1.220071014177e-02 0.0 
0.0 0.0 0.0 
-6.321364592721e-05 -2.289251553787e-05 0.0 
-2.289251553787e-05 1.293133088260e-02 0.0 
0.0 0.0 0.0 
0.0 3.160682296350e-05 0.0 
3.160682296350e-05 1.297711591368e-02 0.0 
0.0 0.0 0.0 
-6.602897601127e-06 -2.698432799855e-06 0.0 
-2.698432799855e-06 1.001968248313e-04 0.0 
0.0 0.0 0.0 
2.993441992505e-06 4.710332144851e-06 0.0 
4.710332144851e-06 1.054180151270e-04 0.0 
0.0 0.0 0.0 
-4.626700494568e-04 -2.748032839137e-05 0.0 
-2.748032839137e-05 9.394183565973e-03 0.0 
0.0 0.0 0.0 
-4.766857684316e-04 4.270301853047e-06 0.0 
4.270301853047e-06 9.344698024459e-03 0.0 
0.0 0.0 0.0 
0.0 5.117060926342e-05 0.0 
5.117060926342e-05 8.283179036156e-03 0.0 
0.0 0.0 0.0 
1.023412185266e-04 3.698567221408e-05 0.0 
3.698567221408e-05 8.209207691727e-03 0.0 
0.0 0.0 0.0 
1.678687498363e-05 1.352484669234e-05 0.0 
1.352484669234e-05 3.328221287213e-04 0.0 
0.0 0.0 0.0 
-6.780864112105e-04 -3.746523447731e-05 0.0 
-3.746523447731e-05 3.772919482552e-04 0.0 
0.0 0.0 0.0 
2.336102427456e-04 2.737810026021e-04 0.0 
2.737810026021e-04 7.471928712345e-03 0.0 
0.0 0.0 0.0 
4.415491231868e-05 1.619411809061e-03 0.0 
1.619411809061e-03 9.859808463483e-03 0.0 
0.0 0.0 0.0 
1.674664321749e-04 -1.294080013114e-04 0.0 
-1.294080013114e-04 1.346039570363e-03 0.0 
0.0 0.0 0.0 
2.279593213708e-04 4.614121110266e-04 0.0 
4.614121110266e-04 7.678098683936e-03 0.0 
0.0 0.0 0.0 
5.659359116443e-04 3.189586068055e-06 0.0 
3.189586068055e-06 4.993365781023e-03 0.0 
0.0 0.0 0.0 
5.647018159638e-04 -2.918543786895e-05 0.0 
-2.918543786895e-05 4.234256939246e-03 0.0 
0.0 0.0 0.0 
-4.331320707811e-04 6.692109727565e-05 0.0 
6.692109727565e-05 1.077988417327e-02 0.0 
0.0 0.0 0.0 
1.313157159368e-04 -1.040823941942e-04 0.0 
-1.040823941942e-04 1.331404507553e-03 0.0 
0.0 0.0 0.0 
2.129680854559e-04 1.343711177173e-03 0.0 
1.343711177173e-03 8.106194511264e-03 0.0 
0.0 0.0 0.0 
8.754987390081e-05 -8.980195358324e-05 0.0 
-8.980195358324e-05 1.063738700326e-03 0.0 
0.0 0.0 0.0 
5.767326038950e-04 -3.752174920555e-05 0.0 
-3.752174920555e-05 3.806615374690e-03 0.0 
0.0 0.0 0.0 
-2.292208126516e-04 1.295326694543e-03 0.0 
1.295326694543e-03 1.149556231780e-02 0.0 
0.0 0.0 0.0 
-2.071002435676e-04 -2.749655808286e-05 0.0 
-2.749655808286e-05 1.219306724063e-02 0.0 
0.0 0.0 0.0 
5.894464408256e-04 2.254121378829e-05 0.0 
2.254121378829e-05 4.204715553943e-03 0.0 
0.0 0.0 0.0 
-4.455493634782e-04 -8.291102641358e-06 0.0 
-8.291102641358e-06 1.035494517885e-02 0.0 
0.0 0.0 0.0 
-1.216999961373e-04 1.610583604879e-03 0.0 
1.610583604879e-03 1.048799504695e-02 0.0 
0.0 0.0 0.0 
-4.736368247317e-04 1.247062861014e-03 0.0 
1.247062861014e-03 1.091989734670e-02 0.0 
0.0 0.0 0.0 
-5.580006638727e-04 1.188951903227e-03 0.0 
1.188951903227e-03 1.060522981570e-02 0.0 
0.0 0.0 0.0 
-5.155506077726e-04 8.849118920760e-06 0.0 
8.849118920760e-06 9.381526274901e-03 0.0 
0.0 0.0 0.0 
3.210373213822e-04 1.283148440156e-03 0.0 
1.283148440156e-03 7.627865402868e-03 0.0 
0.0 0.0 0.0 
-2.826835869367e-04 9.096642094377e-04 0.0 
9.096642094377e-04 1.203128811565e-02 0.0 
0.0 0.0 0.0 
3.564424504365e-04 -1.916283291075e-05 0.0 
-1.916283291075e-05 2.112204079284e-03 0.0 
0.0 0.0 0.0 
-2.842313166964e-04 -1.237429633365e-04 0.0 
-1.237429633365e-04 5.060247972082e-04 0.0 
0.0 0.0 0.0 
-1.935252029374e-04 1.469725433369e-03 0.0 
1.469725433369e-03 1.037508255169e-02 0.0 
0.0 0.0 0.0 
4.961290856600e-04 1.162710909864e-03 0.0 
1.162710909864e-03 7.675980844354e-03 0.0 
0.0 0.0 0.0 
8.284343194909e-05 -2.186254799959e-04 0.0 
-2.186254799959e-04 1.079931650786e-03 0.0 
0.0 0.0 0.0 
-3.936968640507e-04 1.223749965074e-05 0.0 
1.223749965074e-05 1.105974560045e-02 0.0 
0.0 0.0 0.0 
1.145565769545e-04 2.570040016382e-04 0.0 
2.570040016382e-04 7.855731878158e-03 0.0 
0.0 0.0 0.0 
-2.494416885701e-05 1.517320331134e-03 0.0 
1.517320331134e-03 9.866852991222e-03 0.0 
0.0 0.0 0.0 
-7.753302459890e-05 1.612479648334e-03 0.0 
1.612479648334e-03 1.025750310399e-02 0.0 
0.0 0.0 0.0 
5.359625644448e-04 -1.381579307081e-05 0.0 
-1.381579307081e-05 5.463263056497e-03 0.0 
0.0 0.0 0.0 
-3.767996578243e-04 3.673489524996e-04 0.0 
3.673489524996e-04 6.830315696749e-04 0.0 
0.0 0.0 0.0 
-6.829050827548e-04 1.141284474098e-03 0.0 
1.141284474098e-03 5.471550818670e-03 0.0 
0.0 0.0 0.0 
-2.444562143109e-04 1.305879578645e-03 0.0 
1.305879578645e-03 4.735810616476e-03 0.0 
0.0 0.0 0.0 
-7.180106944594e-04 2.396726656813e-04 0.0 
2.396726656813e-04 1.013017115296e-02 0.0 
0.0 0.0 0.0 
3.327217559617e-04 1.372068351701e-03 0.0 
1.372068351701e-03 7.617110235721e-03 0.0 
0.0 0.0 0.0 
-1.986765491433e-04 2.344886929166e-04 0.0 
2.344886929166e-04 1.241864430977e-02 0.0 
0.0 0.0 0.0 
1.586366314970e-04 1.349815179839e-03 0.0 
1.349815179839e-03 8.976157550154e-03 0.0 
0.0 0.0 0.0 
-2.497404613889e-04 -1.788067951213e-04 0.0 
-1.788067951213e-04 8.577696725105e-04 0.0 
0.0 0.0 0.0 
-1.816390439821e-04 -1.687096871712e-04 0.0 
-1.687096871712e-04 7.824239602896e-04 0.0 
0.0 0.0 0.0 
-7.424441147860e-04 1.297731496942e-03 0.0 
1.297731496942e-03 4.127204165744e-03 0.0 
0.0 0.0 0.0 
-3.592414922523e-04 1.141842512055e-04 0.0 
1.141842512055e-04 1.117624984832e-02 0.0 
0.0 0.0 0.0 
4.160700083871e-04 -9.293901638150e-05 0.0 
-9.293901638150e-05 2.616506476074e-03 0.0 
0.0 0.0 0.0 
-2.969642590798e-04 6.175486009605e-04 0.0 
6.175486009605e-04 1.232535915717e-02 0.0 
0.0 0.0 0.0 
1.688286267914e-04 -9.309368182169e-05 0.0 
-9.309368182169e-05 1.282006725066e-03 0.0 
0.0 0.0 0.0 
2.896886225181e-04 1.295865572276e-03 0.0 
1.295865572276e-03 8.552284667691e-03 0.0 
0.0 0.0 0.0 
-5.582204045017e-04 1.223557496339e-04 0.0 
1.223557496339e-04 1.010188949511e-02 0.0 
0.0 0.0 0.0 
5.704814882757e-05 1.581725366878e-03 0.0 
1.581725366878e-03 9.890286741975e-03 0.0 
0.0 0.0 0.0 
8.234289850373e-05 1.430579311067e-03 0.0 
1.430579311067e-03 8.997213685488e-03 0.0 
0.0 0.0 0.0 
-7.804994360335e-04 2.785418011121e-04 0.0 
2.785418011121e-04 1.012733116151e-02 0.0 
0.0 0.0 0.0 
2.674680965147e-04 9.323246578914e-04 0.0 
9.323246578914e-04 8.312956113514e-03 0.0 
0.0 0.0 0.0 
-2.406726778418e-04 7.342378401881e-04 0.0 
7.342378401881e-04 1.248815799943e-02 0.0 
0.0 0.0 0.0 
-1.334587261518e-04 6.960892413250e-05 0.0 
6.960892413250e-05 1.267150245740e-02 0.0 
0.0 0.0 0.0 
-8.284441524311e-04 1.320342961416e-03 0.0 
1.320342961416e-03 2.758400236097e-03 0.0 
0.0 0.0 0.0 
-2.701002714688e-04 5.654063286244e-04 0.0 
5.654063286244e-04 1.223665974545e-02 0.0 
0.0 0.0 0.0 
-7.469673766303e-05 1.544957562418e-03 0.0 
1.544957562418e-03 1.103386545967e-02 0.0 
0.0 0.0 0.0 
3.169665533156e-04 1.294926546472e-03 0.0 
1.294926546472e-03 8.551521761940e-03 0.0 
0.0 0.0 0.0 
1.968816089259e-04 1.489519765922e-03 0.0 
1.489519765922e-03 8.959943216137e-03 0.0 
0.0 0.0 0.0 
0.0 6.093135035095e-04 0.0 
6.093135035095e-04 8.462684264942e-03 0.0 
0.0 0.0 0.0 
-4.891311962461e-04 1.184058974838e-03 0.0 
1.184058974838e-03 1.060557695091e-02 0.0 
0.0 0.0 0.0 
-6.187806631994e-04 3.144603490609e-04 0.0 
3.144603490609e-04 3.477196792645e-04 0.0 
0.0 0.0 0.0 
-1.556389603753e-04 7.080395103477e-04 0.0 
7.080395103477e-04 2.232173937061e-03 0.0 
0.0 0.0 0.0 
-4.439206749797e-04 1.233992347477e-03 0.0 
1.233992347477e-03 1.124053124342e-02 0.0 
0.0 0.0 0.0 
-6.659407778314e-04 2.864355207853e-04 0.0 
2.864355207853e-04 1.042289478784e-02 0.0 
0.0 0.0 0.0 
2.528612096073e-04 1.128019164441e-04 0.0 
1.128019164441e-04 7.421536137942e-03 0.0 
0.0 0.0 0.0 
5.452567428366e-05 1.480850033203e-03 0.0 
1.480850033203e-03 9.404390628745e-03 0.0 
0.0 0.0 0.0 
1.292631727328e-04 5.104192003037e-04 0.0 
5.104192003037e-04 8.032001302167e-03 0.0 
0.0 0.0 0.0 
-3.099175272384e-04 1.293022450052e-04 0.0 
1.293022450052e-04 1.158239219540e-02 0.0 
0.0 0.0 0.0 
5.342064741698e-05 1.545375565498e-03 0.0 
1.545375565498e-03 9.700409685006e-03 0.0 
0.0 0.0 0.0 
2.719807403957e-04 7.860166464274e-04 0.0 
7.860166464274e-04 7.905411225363e-03 0.0 
0.0 0.0 0.0 
3.241328171031e-04 8.560199029254e-04 0.0 
8.560199029254e-04 7.898947530997e-03 0.0 
0.0 0.0 0.0 
4.273097182377e-04 -6.629511270199e-05 0.0 
-6.629511270199e-05 2.715361499568e-03 0.0 
0.0 0.0 0.0 
1.438346707219e-04 5.008008374486e-04 0.0 
5.008008374486e-04 8.414255107369e-03 0.0 
0.0 0.0 0.0 
-6.394787543718e-04 1.027245054487e-04 0.0 
1.027245054487e-04 9.746913833241e-03 0.0 
0.0 0.0 0.0 
-1.985818830856e-04 1.112106518648e-04 0.0 
1.112106518648e-04 1.233448140569e-02 0.0 
0.0 0.0 0.0 
-3.842171488966e-05 -2.017161221701e-04 0.0 
-2.017161221701e-04 7.695242635588e-04 0.0 
0.0 0.0 0.0 
-2.512031902352e-04 4.528697701830e-05 0.0 
4.528697701830e-05 1.205958475832e-02 0.0 
0.0 0.0 0.0 
-3.971920723029e-04 5.158153902400e-05 0.0 
5.158153902400e-05 1.109253348617e-02 0.0 
0.0 0.0 0.0 
6.839041444406e-05 -4.302054949940e-05 0.0 
-4.302054949940e-05 7.071712470417e-04 0.0 
0.0 0.0 0.0 
1.600059858793e-04 -7.993788364476e-05 0.0 
-7.993788364476e-05 1.499891705611e-03 0.0 
0.0 0.0 0.0 
-4.047867046736e-04 1.280859232167e-03 0.0 
1.280859232167e-03 1.057208749974e-02 0.0 
0.0 0.0 0.0 
-1.153001671892e-04 3.655810438401e-04 0.0 
3.655810438401e-04 1.261957232844e-02 0.0 
0.0 0.0 0.0 
-1.847841045736e-04 4.393979352910e-05 0.0 
4.393979352910e-05 1.238612270768e-02 0.0 
0.0 0.0 0.0 
1.952780702765e-04 1.597098640772e-03 0.0 
1.597098640772e-03 9.437608252665e-03 0.0 
0.0 0.0 0.0 
-4.585598303078e-04 9.297496366858e-05 0.0 
9.297496366858e-05 1.036337807144e-02 0.0 
0.0 0.0 0.0 
-1.774975364963e-04 -1.162025840305e-04 0.0 
-1.162025840305e-04 4.539468437990e-04 0.0 
0.0 0.0 0.0 
-2.913184962667e-04 2.898091329959e-04 0.0 
2.898091329959e-04 9.914220441596e-04 0.0 
0.0 0.0 0.0 
-1.077778057647e-04 -5.845296223205e-05 0.0 
-5.845296223205e-05 4.982876948036e-04 0.0 
0.0 0.0 0.0 
-1.641401483077e-05 -2.350410157953e-04 0.0 
-2.350410157953e-04 1.029696235241e-03 0.0 
0.0 0.0 0.0 
-6.988331555526e-04 6.781664974646e-04 0.0 
6.781664974646e-04 4.997908915310e-04 0.0 
0.0 0.0 0.0 
5.603915326675e-04 1.667367275307e-05 0.0 
1.667367275307e-05 3.706859833810e-03 0.0 
0.0 0.0 0.0 
2.701486867136e-04 1.845010114263e-04 0.0 
1.845010114263e-04 7.420009905490e-03 0.0 
0.0 0.0 0.0 
-3.175530068786e-04 1.072000552177e-03 0.0 
1.072000552177e-03 1.183857442536e-02 0.0 
0.0 0.0 0.0 
-8.243640908766e-04 3.868774438546e-04 0.0 
3.868774438546e-04 1.035461701310e-02 0.0 
0.0 0.0 0.0 
5.191952103598e-04 -8.687750390591e-05 0.0 
-8.687750390591e-05 3.210250703692e-03 0.0 
0.0 0.0 0.0 
3.043095256181e-04 6.409942515271e-04 0.0 
6.409942515271e-04 7.693133569918e-03 0.0 
0.0 0.0 0.0 
4.194513185780e-04 1.099585161412e-03 0.0 
1.099585161412e-03 8.018200802350e-03 0.0 
0.0 0.0 0.0 
8.860489977347e-05 1.689910656100e-03 0.0 
1.689910656100e-03 9.977685150890e-03 0.0 
0.0 0.0 0.0 
-1.240812522993e-04 1.495014222970e-03 0.0 
1.495014222970e-03 1.064505799194e-02 0.0 
0.0 0.0 0.0 
-3.120093753586e-04 1.345097851820e-03 0.0 
1.345097851820e-03 1.089567374547e-02 0.0 
0.0 0.0 0.0 
-4.457986421080e-05 -1.377797806339e-04 0.0 
-1.377797806339e-04 7.496598391723e-04 0.0 
0.0 0.0 0.0 
-4.003617915479e-04 -1.152814797215e-04 0.0 
-1.152814797215e-04 8.681625276650e-04 0.0 
0.0 0.0 0.0 
2.524116700182e-04 2.223328428871e-04 0.0 
2.223328428871e-04 7.488054304985e-03 0.0 
0.0 0.0 0.0 
1.157490991937e-04 -1.964621892507e-05 0.0 
-1.964621892507e-05 6.897477915342e-04 0.0 
0.0 0.0 0.0 
1.073423809492e-04 3.837703562092e-05 0.0 
3.837703562092e-05 8.553596880638e-04 0.0 
0.0 0.0 0.0 
-4.523622613567e-04 8.778856067901e-04 0.0 
8.778856067901e-04 1.248150716119e-03 0.0 
0.0 0.0 0.0 
-4.306738023085e-05 -1.780145757986e-04 0.0 
-1.780145757986e-04 7.119127503750e-04 0.0 
0.0 0.0 0.0 
1.382338684675e-04 8.576025805169e-04 0.0 
8.576025805169e-04 8.270707298462e-03 0.0 
0.0 0.0 0.0 
-1.381129281390e-04 1.425351871047e-03 0.0 
1.425351871047e-03 1.150260446062e-02 0.0 
0.0 0.0 0.0 
-1.765324816302e-04 2.759194721222e-04 0.0 
2.759194721222e-04 1.242101342777e-02 0.0 
0.0 0.0 0.0 
2.680959178814e-05 1.611198751989e-03 0.0 
1.611198751989e-03 1.012422922420e-02 0.0 
0.0 0.0 0.0 
3.815858585925e-04 1.019533626635e-03 0.0 
1.019533626635e-03 7.848973654109e-03 0.0 
0.0 0.0 0.0 
-4.326448375966e-04 9.958650976626e-05 0.0 
9.958650976626e-05 1.058818035554e-02 0.0 
0.0 0.0 0.0 
0.0 5.031754983947e-04 0.0 
5.031754983947e-04 1.287994018592e-02 0.0 
0.0 0.0 0.0 
3.157942888379e-04 -1.353889349114e-04 0.0 
-1.353889349114e-04 1.757503230515e-03 0.0 
0.0 0.0 0.0 
-5.280604634317e-04 1.088242640942e-05 0.0 
1.088242640942e-05 9.362916406354e-03 0.0 
0.0 0.0 0.0 
-8.767752474614e-05 -1.744008602956e-04 0.0 
-1.744008602956e-04 1.112286925037e-03 0.0 
0.0 0.0 0.0 
8.755869478794e-06 -5.951431559365e-05 0.0 
-5.951431559365e-05 3.853107657250e-04 0.0 
0.0 0.0 0.0 
1.351984163394e-04 3.514942261889e-04 0.0 
3.514942261889e-04 8.338193017414e-03 0.0 
0.0 0.0 0.0 
-7.644148346466e-04 2.154490069437e-04 0.0 
2.154490069437e-04 9.771955958912e-03 0.0 
0.0 0.0 0.0 
1.085768109348e-04 -6.160147729836e-05 0.0 
-6.160147729836e-05 1.011406152920e-03 0.0 
0.0 0.0 0.0 
5.450127891800e-04 2.720027584304e-05 0.0 
2.720027584304e-05 3.553743798455e-03 0.0 
0.0 0.0 0.0 
-2.118319040928e-04 1.468291711377e-03 0.0 
1.468291711377e-03 1.159307881929e-02 0.0 
0.0 0.0 0.0 
-2.497001855355e-04 3.272765941060e-04 0.0 
3.272765941060e-04 1.237502393958e-02 0.0 
0.0 0.0 0.0 
-1.547636527596e-04 8.141526021387e-04 0.0 
8.141526021387e-04 1.241498474338e-02 0.0 
0.0 0.0 0.0 
3.899646719467e-04 -6.164313063096e-05 0.0 
-6.164313063096e-05 2.467192613673e-03 0.0 
0.0 0.0 0.0 
-3.043369232786e-04 -1.249007590835e-05 0.0 
-1.249007590835e-05 9.039692438582e-04 0.0 
0.0 0.0 0.0 
2.158582894793e-04 5.591474976284e-04 0.0 
5.591474976284e-04 8.051423121164e-03 0.0 
0.0 0.0 0.0 
-6.548389228522e-05 5.150979766481e-05 0.0 
5.150979766481e-05 1.297131910300e-02 0.0 
0.0 0.0 0.0 
1.037762835605e-04 6.975966276224e-05 0.0 
6.975966276224e-05 8.282883782094e-03 0.0 
0.0 0.0 0.0 
-4.598492016044e-04 2.338435650154e-05 0.0 
2.338435650154e-05 9.651058277839e-03 0.0 
0.0 0.0 0.0 
2.681003412879e-04 1.085329329752e-03 0.0 
1.085329329752e-03 8.209241896493e-03 0.0 
0.0 0.0 0.0 
1.663659837345e-04 -9.814593276766e-05 0.0 
-9.814593276766e-05 1.032032591449e-03 0.0 
0.0 0.0 0.0 
-2.476452831133e-04 6.456124981229e-04 0.0 
6.456124981229e-04 1.232754490099e-02 0.0 
0.0 0.0 0.0 
-3.434413192516e-05 -8.248355928800e-05 0.0 
-8.248355928800e-05 3.823290619052e-04 0.0 
0.0 0.0 0.0 
1.372616167279e-04 1.026719469665e-03 0.0 
1.026719469665e-03 8.484715588581e-03 0.0 
0.0 0.0 0.0 
-2.643855515434e-04 9.045683835363e-04 0.0 
9.045683835363e-04 1.234043458490e-02 0.0 
0.0 0.0 0.0 
-3.539938044206e-04 1.128289423885e-04 0.0 
1.128289423885e-04 5.963649055780e-04 0.0 
0.0 0.0 0.0 
-6.034431733259e-05 1.520239616933e-03 0.0 
1.520239616933e-03 9.866959334684e-03 0.0 
0.0 0.0 0.0 
-3.456845045993e-04 4.043254553987e-05 0.0 
4.043254553987e-05 1.138500968409e-02 0.0 
0.0 0.0 0.0 
-8.877010890651e-05 2.667174872423e-04 0.0 
2.667174872423e-04 1.266391326466e-02 0.0 
0.0 0.0 0.0 
0.0 1.561905976060e-03 0.0 
1.561905976060e-03 9.780886793145e-03 0.0 
0.0 0.0 0.0 
-3.932622282341e-04 -2.768099520712e-05 0.0 
-2.768099520712e-05 1.084844072169e-02 0.0 
0.0 0.0 0.0 
-1.248377245818e-04 1.370853578150e-03 0.0 
1.370853578150e-03 1.168741338008e-02 0.0 
0.0 0.0 0.0 
-3.428423443886e-04 7.641321515182e-04 0.0 
7.641321515182e-04 1.220728833531e-02 0.0 
0.0 0.0 0.0 
-3.564552458309e-04 4.627745158957e-05 0.0 
4.627745158957e-05 1.108735176021e-02 0.0 
0.0 0.0 0.0 
-2.274262307019e-04 1.337109710280e-03 0.0 
1.337109710280e-03 1.139717780651e-02 0.0 
0.0 0.0 0.0 
4.889529806573e-04 -5.957684294038e-05 0.0 
-5.957684294038e-05 2.995722508452e-03 0.0 
0.0 0.0 0.0 
-4.902945200126e-04 -1.771358181080e-06 0.0 
-1.771358181080e-06 9.354976332779e-03 0.0 
0.0 0.0 0.0 
8.397331369570e-05 1.609116566239e-03 0.0 
1.609116566239e-03 9.823481387623e-03 0.0 
0.0 0.0 0.0 
-8.789407441878e-05 5.148616995052e-05 0.0 
5.148616995052e-05 1.270913541326e-02 0.0 
0.0 0.0 0.0 
2.001553571618e-05 8.286155745568e-06 0.0 
8.286155745568e-06 8.858935406031e-05 0.0 
0.0 0.0 0.0 
-4.673761291063e-04 7.991151869713e-06 0.0 
7.991151869713e-06 9.346174620549e-03 0.0 
0.0 0.0 0.0 
1.347277074002e-04 3.008474232661e-05 0.0 
3.008474232661e-05 7.929764265675e-03 0.0 
0.0 0.0 0.0 
1.840164124574e-04 -7.821766374648e-05 0.0 
-7.821766374648e-05 1.323001535968e-03 0.0 
0.0 0.0 0.0 
3.567804999025e-04 1.257327000482e-03 0.0 
1.257327000482e-03 8.415516562053e-03 0.0 
0.0 0.0 0.0 
-3.963656008681e-04 9.168125042279e-04 0.0 
9.168125042279e-04 1.203421564125e-02 0.0 
0.0 0.0 0.0 
-1.662256913020e-04 2.220114777496e-04 0.0 
2.220114777496e-04 1.264159507623e-02 0.0 
0.0 0.0 0.0 
1.779708973491e-04 -4.137061333928e-05 0.0 
-4.137061333928e-05 1.265884983659e-03 0.0 
0.0 0.0 0.0 
-2.412284132619e-04 6.174328376666e-04 0.0 
6.174328376666e-04 1.558106051753e-03 0.0 
0.0 0.0 0.0 
5.668685000884e-04 5.551761066224e-05 0.0 
5.551761066224e-05 4.422539717018e-03 0.0 
0.0 0.0 0.0 
-2.784377814568e-04 6.547470044847e-05 0.0 
6.547470044847e-05 1.179466838119e-02 0.0 
0.0 0.0 0.0 
-1.024528262909e-03 -4.586272561169e-05 0.0 
-4.586272561169e-05 5.562957811924e-04 0.0 
0.0 0.0 0.0 
-1.313031896193e-04 6.602291257845e-04 0.0 
6.602291257845e-04 1.253740976614e-02 0.0 
0.0 0.0 0.0 
-3.905316680999e-04 3.614749648059e-05 0.0 
3.614749648059e-05 1.073014516371e-02 0.0 
0.0 0.0 0.0 
1.017101913281e-04 -2.390473447140e-04 0.0 
-2.390473447140e-04 1.315700612755e-03 0.0 
0.0 0.0 0.0 
-4.340346984613e-04 4.964983179460e-05 0.0 
4.964983179460e-05 1.045615506650e-02 0.0 
0.0 0.0 0.0 
1.053701059961e-06 1.679054713131e-03 0.0 
1.679054713131e-03 1.024665723764e-02 0.0 
0.0 0.0 0.0 
5.737415699225e-04 -4.084201091371e-05 0.0 
-4.084201091371e-05 4.654378414149e-03 0.0 
0.0 0.0 0.0 
-6.960789407550e-04 5.626832816792e-04 0.0 
5.626832816792e-04 8.709877719908e-04 0.0 
0.0 0.0 0.0 
4.655152472985e-04 -2.544343858862e-05 0.0 
-2.544343858862e-05 2.702359514946e-03 0.0 
0.0 0.0 0.0 
5.908200322344e-04 2.580228062178e-05 0.0 
2.580228062178e-05 4.014759076767e-03 0.0 
0.0 0.0 0.0 
5.819789515511e-04 5.976108552942e-05 0.0 
5.976108552942e-05 4.856738334271e-03 0.0 
0.0 0.0 0.0 
1.189338446475e-04 1.507496757496e-03 0.0 
1.507496757496e-03 9.382498299540e-03 0.0 
0.0 0.0 0.0 
5.615110937580e-04 -3.031785496239e-05 0.0 
-3.031785496239e-05 3.909199601982e-03 0.0 
0.0 0.0 0.0 
5.900001194845e-04 2.370414673340e-05 0.0 
2.370414673340e-05 4.170664568433e-03 0.0 
0.0 0.0 0.0 
-3.690932120604e-05 -6.699873958644e-05 0.0 
-6.699873958644e-05 6.499351880602e-04 0.0 
0.0 0.0 0.0 
2.579546866377e-04 5.205391012934e-04 0.0 
5.205391012934e-04 7.690741581092e-03 0.0 
0.0 0.0 0.0 
-1.543558425336e-04 1.504449252612e-03 0.0 
1.504449252612e-03 1.037864204287e-02 0.0 
0.0 0.0 0.0 
6.269406024151e-05 6.671491535685e-04 0.0 
6.671491535685e-04 1.669319982418e-03 0.0 
0.0 0.0 0.0 
-6.734213224835e-05 2.715988173285e-05 0.0 
2.715988173285e-05 1.269733450441e-02 0.0 
0.0 0.0 0.0 
1.131785226283e-04 8.098118575086e-05 0.0 
8.098118575086e-05 7.915116863898e-03 0.0 
0.0 0.0 0.0 
-4.661559813279e-04 -2.085269669179e-05 0.0 
-2.085269669179e-05 9.674514256383e-03 0.0 
0.0 0.0 0.0 
-4.119707639326e-04 3.063924428950e-05 0.0 
3.063924428950e-05 1.072915088070e-02 0.0 
0.0 0.0 0.0 
5.720427409286e-04 2.775391952356e-05 0.0 
2.775391952356e-05 3.902689216076e-03 0.0 
0.0 0.0 0.0 
5.814984583434e-04 -1.699740622585e-05 0.0 
-1.699740622585e-05 4.036177225478e-03 0.0 
0.0 0.0 0.0 
5.632757597471e-04 1.425611853333e-06 0.0 
1.425611853333e-06 4.189071593856e-03 0.0 
0.0 0.0 0.0 
3.865573963904e-04 1.225722282743e-03 0.0 
1.225722282743e-03 8.143393388496e-03 0.0 
0.0 0.0 0.0 
7.211537614449e-05 -1.505128603529e-04 0.0 
-1.505128603529e-04 1.060417296312e-03 0.0 
0.0 0.0 0.0 
-2.111118800118e-04 1.529825927645e-03 0.0 
1.529825927645e-03 1.076493799323e-02 0.0 
0.0 0.0 0.0 
-4.430678082237e-04 2.690457008012e-05 0.0 
2.690457008012e-05 1.003493301993e-02 0.0 
0.0 0.0 0.0 
-2.474967707990e-04 6.094249139060e-04 0.0 
6.094249139060e-04 1.253462748663e-02 0.0 
0.0 0.0 0.0 
3.218161986123e-04 1.148498409433e-03 0.0 
1.148498409433e-03 8.134032339298e-03 0.0 
0.0 0.0 0.0 
-4.576755108058e-04 3.515613299891e-05 0.0 
3.515613299891e-05 1.046440469995e-02 0.0 
0.0 0.0 0.0 
-2.997517928340e-04 1.310641668594e-03 0.0 
1.310641668594e-03 1.119061579335e-02 0.0 
0.0 0.0 0.0 
1.660528716674e-04 1.525389533671e-03 0.0 
1.525389533671e-03 9.374663876805e-03 0.0 
0.0 0.0 0.0 
1.019486238982e-04 1.650507714412e-03 0.0 
1.650507714412e-03 9.786716129364e-03 0.0 
0.0 0.0 0.0 
-5.250955156360e-04 6.302753693736e-04 0.0 
6.302753693736e-04 7.799181393715e-04 0.0 
0.0 0.0 0.0 
-3.655801807042e-04 1.307582717529e-03 0.0 
1.307582717529e-03 1.119115763901e-02 0.0 
0.0 0.0 0.0 
-2.566866321625e-04 1.441880164939e-03 0.0 
1.441880164939e-03 1.122606565995e-02 0.0 
0.0 0.0 0.0 
-2.858219600232e-05 -1.249869666102e-04 0.0 
-1.249869666102e-04 6.809988615719e-04 0.0 
0.0 0.0 0.0 
5.590353021385e-04 -2.972917684691e-05 0.0 
-2.972917684691e-05 3.696990564474e-03 0.0 
0.0 0.0 0.0 
-6.047523763207e-04 4.401004000069e-04 0.0 
4.401004000069e-04 9.113397884912e-04 0.0 
0.0 0.0 0.0 
-3.386887791498e-04 1.348988309176e-03 0.0 
1.348988309176e-03 1.147174182561e-02 0.0 
0.0 0.0 0.0 
-4.816658835487e-04 4.901356387060e-06 0.0 
4.901356387060e-06 7.226598250870e-03 0.0 
0.0 0.0 0.0 
-4.783343348841e-04 1.967717267120e-05 0.0 
1.967717267120e-05 7.251816883244e-03 0.0 
0.0 0.0 0.0 
-4.434406891078e-04 1.233289560287e-05 0.0 
1.233289560287e-05 7.252389554509e-03 0.0 
0.0 0.0 0.0 
-4.663931301928e-04 1.897643038076e-06 0.0 
1.897643038076e-06 7.252936437506e-03 0.0 
0.0 0.0 0.0 
-4.444815075508e-04 3.397232334056e-06 0.0 
3.397232334056e-06 7.252647642020e-03 0.0 
0.0 0.0 0.0 
-4.579928159588e-04 -4.695317097893e-06 0.0 
-4.695317097893e-06 7.249133623602e-03 0.0 
0.0 0.0 0.0 
-4.399541928889e-04 -3.291196763809e-06 0.0 
-3.291196763809e-06 7.248753030855e-03 0.0 
0.0 0.0 0.0 
-4.507373988697e-04 -1.005716019397e-05 0.0 
-1.005716019397e-05 7.245258397205e-03 0.0 
0.0 0.0 0.0 
-4.301587522995e-04 -7.443937281552e-06 0.0 
-7.443937281552e-06 7.244447173811e-03 0.0 
0.0 0.0 0.0 
-4.428340104854e-04 -1.491364807943e-05 0.0 
-1.491364807943e-05 7.241040688632e-03 0.0 
0.0 0.0 0.0 
-4.158565122230e-04 -1.014547293840e-05 0.0 
-1.014547293840e-05 7.239337842407e-03 0.0 
0.0 0.0 0.0 
-4.334256793567e-04 -1.956603925305e-05 0.0 
-1.956603925305e-05 7.235992715410e-03 0.0 
0.0 0.0 0.0 
-3.973848687807e-04 -1.216820464212e-05 0.0 
-1.216820464212e-05 7.232906607092e-03 0.0 
0.0 0.0 0.0 
-4.219543743138e-04 -2.422979767081e-05 0.0 
-2.422979767081e-05 7.229745471348e-03 0.0 
0.0 0.0 0.0 
-3.747922155716e-04 -1.384781481321e-05 0.0 
-1.384781481321e-05 7.224707892173e-03 0.0 
0.0 0.0 0.0 
-4.083244327641e-04 -2.882404219262e-05 0.0 
-2.882404219262e-05 7.222310220785e-03 0.0 
0.0 0.0 0.0 
-3.479420993516e-04 -1.529420610059e-05 0.0 
-1.529420610059e-05 7.214704515078e-03 0.0 
0.0 0.0 0.0 
-3.039169845903e-04 2.097562596387e-04 0.0 
2.097562596387e-04 7.157066352802e-03 0.0 
0.0 0.0 0.0 
-3.927414875320e-04 -3.342283308742e-05 0.0 
-3.342283308742e-05 7.213767839516e-03 0.0 
0.0 0.0 0.0 
-3.166970061536e-04 -1.659969717789e-05 0.0 
-1.659969717789e-05 7.202859648044e-03 0.0 
0.0 0.0 0.0 
-5.220805614806e-04 1.449363590234e-04 0.0 
1.449363590234e-04 7.261717669152e-03 0.0 
0.0 0.0 0.0 
-3.755235679844e-04 -3.803766167685e-05 0.0 
-3.803766167685e-05 7.204292678559e-03 0.0 
0.0 0.0 0.0 
-2.809890946800e-04 -1.780633952009e-05 0.0 
-1.780633952009e-05 7.189211029567e-03 0.0 
0.0 0.0 0.0 
-3.569511082196e-04 -4.264111643509e-05 0.0 
-4.264111643509e-05 7.193997846902e-03 0.0 
0.0 0.0 0.0 
-2.408982284103e-04 -1.883154174311e-05 0.0 
-1.883154174311e-05 7.173677721607e-03 0.0 
0.0 0.0 0.0 
-3.375417072822e-04 -4.700564274707e-05 0.0 
-4.700564274707e-05 7.182991605286e-03 0.0 
0.0 0.0 0.0 
2.465371441995e-05 3.745174654411e-05 0.0 
3.745174654411e-05 6.894352238588e-03 0.0 
0.0 0.0 0.0 
-1.964783438008e-04 -1.952059168737e-05 0.0 
-1.952059168737e-05 7.156190173591e-03 0.0 
0.0 0.0 0.0 
-3.183398457934e-04 -5.024640508416e-05 0.0 
-5.024640508416e-05 7.172413889765e-03 0.0 
0.0 0.0 0.0 
-1.481772248187e-04 -1.933071615234e-05 0.0 
-1.933071615234e-05 7.137833889280e-03 0.0 
0.0 0.0 0.0 
-3.026041238734e-04 -5.284147573530e-05 0.0 
-5.284147573530e-05 7.162801546977e-03 0.0 
0.0 0.0 0.0 
-9.716837431706e-05 -1.859802574714e-05 0.0 
-1.859802574714e-05 7.118624323628e-03 0.0 
0.0 0.0 0.0 
-2.912233493303e-04 -5.302743358647e-05 0.0 
-5.302743358647e-05 7.156253960632e-03 0.0 
0.0 0.0 0.0 
-4.623858157804e-05 -1.558760667882e-05 0.0 
-1.558760667882e-05 7.100569874749e-03 0.0 
0.0 0.0 0.0 
-2.917719766491e-04 -5.254043228416e-05 0.0 
-5.254043228416e-05 7.151563942123e-03 0.0 
0.0 0.0 0.0 
7.615875725620e-07 -1.097840773909e-05 0.0 
-1.097840773909e-05 7.080890404112e-03 0.0 
0.0 0.0 0.0 
-3.024721378785e-04 -4.116618127440e-05 0.0 
-4.116618127440e-05 7.156491319113e-03 0.0 
0.0 0.0 0.0 
-7.080245458060e-04 5.168450913451e-04 0.0 
5.168450913451e-04 7.402938173338e-03 0.0 
0.0 0.0 0.0 
-3.477454156045e-04 -3.094339860341e-05 0.0 
-3.094339860341e-05 7.164066165598e-03 0.0 
0.0 0.0 0.0 
3.603907839134e-05 2.183161492902e-06 0.0 
2.183161492902e-06 7.070733216236e-03 0.0 
0.0 0.0 0.0 
-3.806699381992e-04 2.856066134963e-05 0.0 
2.856066134963e-05 7.189393368574e-03 0.0 
0.0 0.0 0.0 
4.955585889954e-05 2.609723633936e-05 0.0 
2.609723633936e-05 7.049164090942e-03 0.0 
0.0 0.0 0.0 
9.961853241425e-06 9.882628387541e-05 0.0 
9.882628387541e-05 7.054449388413e-03 0.0 
0.0 0.0 0.0 
-5.782677522963e-04 9.130337024699e-05 0.0 
9.130337024699e-05 7.358494510085e-03 0.0 
0.0 0.0 0.0 
-5.277411286798e-04 -5.448891819670e-05 0.0 
-5.448891819670e-05 7.288225631863e-03 0.0 
0.0 0.0 0.0 
-4.915960346297e-04 6.688875902299e-05 0.0 
6.688875902299e-05 7.223907839297e-03 0.0 
0.0 0.0 0.0 
-4.846040855595e-04 -6.454153739376e-08 0.0 
-6.454153739376e-08 7.353426202303e-03 0.0 
0.0 0.0 0.0 
-5.348884543960e-04 1.379685684035e-05 0.0 
1.379685684035e-05 7.161462978707e-03 0.0 
0.0 0.0 0.0 
-6.149210201136e-04 5.305422876259e-04 0.0 
5.305422876259e-04 6.965089265629e-03 0.0 
0.0 0.0 0.0 
-4.744666792827e-04 -1.814294499061e-05 0.0 
-1.814294499061e-05 7.722087621195e-03 0.0 
0.0 0.0 0.0 
-4.783343348841e-04 7.631246910047e-07 0.0 
7.631246910047e-07 7.689656647980e-03 0.0 
0.0 0.0 0.0 
-4.730740824287e-04 -7.850436335209e-06 0.0 
-7.850436335209e-06 7.688782141247e-03 0.0 
0.0 0.0 0.0 
-4.663931301928e-04 -8.488510146646e-06 0.0 
-8.488510146646e-06 7.684246188040e-03 0.0 
0.0 0.0 0.0 
-4.689334182839e-04 -1.019446541919e-05 0.0 
-1.019446541919e-05 7.684004583870e-03 0.0 
0.0 0.0 0.0 
-4.579928159588e-04 -1.321728668640e-05 0.0 
-1.321728668640e-05 7.680583774267e-03 0.0 
0.0 0.0 0.0 
-4.649484907205e-04 -1.488705109473e-05 0.0 
-1.488705109473e-05 7.680319378133e-03 0.0 
0.0 0.0 0.0 
-4.507373988697e-04 -1.955441905910e-05 0.0 
-1.955441905910e-05 7.677606904872e-03 0.0 
0.0 0.0 0.0 
-4.614540648410e-04 -2.007899894790e-05 0.0 
-2.007899894790e-05 7.677643207805e-03 0.0 
0.0 0.0 0.0 
-4.428340104854e-04 -2.636483514469e-05 0.0 
-2.636483514469e-05 7.674876140066e-03 0.0 
0.0 0.0 0.0 
-4.583681953541e-04 -2.519324726473e-05 0.0 
-2.519324726473e-05 7.675577135589e-03 0.0 
0.0 0.0 0.0 
-4.334256793567e-04 -3.326387686168e-05 0.0 
-3.326387686168e-05 7.671917174471e-03 0.0 
0.0 0.0 0.0 
-4.553154220099e-04 -3.045978791120e-05 0.0 
-3.045978791120e-05 7.673568978971e-03 0.0 
0.0 0.0 0.0 
-4.219543743138e-04 -4.029689722945e-05 0.0 
-4.029689722945e-05 7.667957283351e-03 0.0 
0.0 0.0 0.0 
-4.519701222837e-04 -3.556470295727e-05 0.0 
-3.556470295727e-05 7.671050790976e-03 0.0 
0.0 0.0 0.0 
-4.083244327641e-04 -4.721858095555e-05 0.0 
-4.721858095555e-05 7.662899609600e-03 0.0 
0.0 0.0 0.0 
-5.212892733101e-04 2.037229905041e-04 0.0 
2.037229905041e-04 7.640348840424e-03 0.0 
0.0 0.0 0.0 
-4.482779549967e-04 -4.019017631179e-05 0.0 
-4.019017631179e-05 7.668085038748e-03 0.0 
0.0 0.0 0.0 
-3.927414875320e-04 -5.370115562899e-05 0.0 
-5.370115562899e-05 7.657112244767e-03 0.0 
0.0 0.0 0.0 
-3.806699381992e-04 1.466258198990e-04 0.0 
1.466258198990e-04 7.451725127063e-03 0.0 
0.0 0.0 0.0 
-4.455486213633e-04 -4.424636615838e-05 0.0 
-4.424636615838e-05 7.665140085359e-03 0.0 
0.0 0.0 0.0 
-3.755235679844e-04 -5.965558304039e-05 0.0 
-5.965558304039e-05 7.650676531145e-03 0.0 
0.0 0.0 0.0 
-6.324484020872e-04 1.547027599375e-04 0.0 
1.547027599375e-04 7.717158853186e-03 0.0 
0.0 0.0 0.0 
-4.439458119517e-04 -4.783161737390e-05 0.0 
-4.783161737390e-05 7.662354144452e-03 0.0 
0.0 0.0 0.0 
-3.569511082196e-04 -6.473928975428e-05 0.0 
-6.473928975428e-05 7.643397480942e-03 0.0 
0.0 0.0 0.0 
-4.438648894064e-04 -5.052464035502e-05 0.0 
-5.052464035502e-05 7.659748510877e-03 0.0 
0.0 0.0 0.0 
-3.375417072822e-04 -6.822202938247e-05 0.0 
-6.822202938247e-05 7.635196486193e-03 0.0 
0.0 0.0 0.0 
-4.466411893556e-04 -5.146054884685e-05 0.0 
-5.146054884685e-05 7.657615081323e-03 0.0 
0.0 0.0 0.0 
-3.183398457934e-04 -6.856991824880e-05 0.0 
-6.856991824880e-05 7.625649943874e-03 0.0 
0.0 0.0 0.0 
-6.693532558522e-04 3.531961002347e-04 0.0 
3.531961002347e-04 7.752667085456e-03 0.0 
0.0 0.0 0.0 
-4.528365007820e-04 -4.700552674571e-05 0.0 
-4.700552674571e-05 7.657220858148e-03 0.0 
0.0 0.0 0.0 
-3.026041238734e-04 -6.372005865258e-05 0.0 
-6.372005865258e-05 7.619429500786e-03 0.0 
0.0 0.0 0.0 
-4.692996983430e-04 -4.044881042699e-05 0.0 
-4.044881042699e-05 7.660324502100e-03 0.0 
0.0 0.0 0.0 
-2.912233493303e-04 -5.181058605479e-05 0.0 
-5.181058605479e-05 7.609851147193e-03 0.0 
0.0 0.0 0.0 
-2.917719766491e-04 -2.851848890470e-05 0.0 
-2.851848890470e-05 7.609508243240e-03 0.0 
0.0 0.0 0.0 
-4.909260720879e-04 -2.086910145889e-05 0.0 
-2.086910145889e-05 7.666556770496e-03 0.0 
0.0 0.0 0.0 
-3.024721378785e-04 1.388550532365e-05 0.0 
1.388550532365e-05 7.589710475973e-03 0.0 
0.0 0.0 0.0 
-5.343492923104e-04 -1.249802757879e-06 0.0 
-1.249802757879e-06 7.676502154093e-03 0.0 
0.0 0.0 0.0 
-3.477454156045e-04 9.373072357823e-05 0.0 
9.373072357823e-05 7.594999307328e-03 0.0 
0.0 0.0 0.0 
-5.509329810063e-04 6.250938353830e-05 0.0 
6.250938353830e-05 7.683785287090e-03 0.0 
0.0 0.0 0.0 
-6.189336749123e-04 1.821013405164e-04 0.0 
1.821013405164e-04 7.635730383994e-03 0.0 
0.0 0.0 0.0 
-4.619591238703e-04 -6.114337709856e-05 0.0 
-6.114337709856e-05 7.664543785124e-03 0.0 
0.0 0.0 0.0 
-4.961246719954e-04 5.178218429892e-05 0.0 
5.178218429892e-05 7.725597413903e-03 0.0 
0.0 0.0 0.0 
-4.846040855595e-04 -1.012476337062e-05 0.0 
-1.012476337062e-05 7.586584355060e-03 0.0 
0.0 0.0 0.0 
-4.737751099583e-04 2.646327854567e-06 0.0 
2.646327854567e-06 7.800166281558e-03 0.0 
0.0 0.0 0.0 
-5.220805614806e-04 3.798385498943e-04 0.0 
3.798385498943e-04 7.413779896256e-03 0.0 
0.0 0.0 0.0 
-4.744666792827e-04 -2.304588483551e-05 0.0 
-2.304588483551e-05 8.073982172403e-03 0.0 
0.0 0.0 0.0 
-4.757374751877e-04 -2.753239779257e-06 0.0 
-2.753239779257e-06 8.113685091314e-03 0.0 
0.0 0.0 0.0 
-4.730740824287e-04 -1.539223177591e-05 0.0 
-1.539223177591e-05 8.114942332032e-03 0.0 
0.0 0.0 0.0 
-4.758229448184e-04 -1.544945825452e-05 0.0 
-1.544945825452e-05 8.117188458429e-03 0.0 
0.0 0.0 0.0 
-4.689334182839e-04 -1.608076574762e-05 0.0 
-1.608076574762e-05 8.117244400966e-03 0.0 
0.0 0.0 0.0 
-4.766918012944e-04 -1.964938804821e-05 0.0 
-1.964938804821e-05 8.117105171063e-03 0.0 
0.0 0.0 0.0 
-4.649484907205e-04 -1.958073452215e-05 0.0 
-1.958073452215e-05 8.116974007252e-03 0.0 
0.0 0.0 0.0 
-4.771428498677e-04 -2.514416476849e-05 0.0 
-2.514416476849e-05 8.116574310543e-03 0.0 
0.0 0.0 0.0 
-4.614540648410e-04 -2.420111925840e-05 0.0 
-2.420111925840e-05 8.116093411900e-03 0.0 
0.0 0.0 0.0 
-4.794126360989e-04 -3.137963487608e-05 0.0 
-3.137963487608e-05 8.116865003084e-03 0.0 
0.0 0.0 0.0 
-4.583681953541e-04 -2.944750644931e-05 0.0 
-2.944750644931e-05 8.115811864639e-03 0.0 
0.0 0.0 0.0 
-4.823007398983e-04 -3.821436875378e-05 0.0 
-3.821436875378e-05 8.117635629967e-03 0.0 
0.0 0.0 0.0 
-4.553154220099e-04 -3.474329670442e-05 0.0 
-3.474329670442e-05 8.115594329390e-03 0.0 
0.0 0.0 0.0 
-4.876058395356e-04 -4.562427663147e-05 0.0 
-4.562427663147e-05 8.118850628723e-03 0.0 
0.0 0.0 0.0 
-4.519701222837e-04 -3.998195661047e-05 0.0 
-3.998195661047e-05 8.115168272025e-03 0.0 
0.0 0.0 0.0 
-6.515902601468e-04 1.597744931813e-04 0.0 
1.597744931813e-04 8.124163387186e-03 0.0 
0.0 0.0 0.0 
-4.922825306379e-04 -5.283519397058e-05 0.0 
-5.283519397058e-05 8.119458394385e-03 0.0 
0.0 0.0 0.0 
-7.032306631397e-04 1.177067906876e-04 0.0 
1.177067906876e-04 8.172481501033e-03 0.0 
0.0 0.0 0.0 
-4.482779549967e-04 -4.377152702186e-05 0.0 
-4.377152702186e-05 8.113152012617e-03 0.0 
0.0 0.0 0.0 
-4.997844231222e-04 -5.778984323239e-05 0.0 
-5.778984323239e-05 8.121096926622e-03 0.0 
0.0 0.0 0.0 
-4.455486213633e-04 -4.649505060732e-05 0.0 
-4.649505060732e-05 8.112059792700e-03 0.0 
0.0 0.0 0.0 
-5.103313544889e-04 -6.186453064538e-05 0.0 
-6.186453064538e-05 8.123825470745e-03 0.0 
0.0 0.0 0.0 
-4.439458119517e-04 -4.789991428416e-05 0.0 
-4.789991428416e-05 8.111124525093e-03 0.0 
0.0 0.0 0.0 
-5.229391823421e-04 -6.426095190512e-05 0.0 
-6.426095190512e-05 8.126925823916e-03 0.0 
0.0 0.0 0.0 
-5.509329810063e-04 1.391669455696e-04 0.0 
1.391669455696e-04 7.946184358637e-03 0.0 
0.0 0.0 0.0 
-4.438648894064e-04 -4.661654735720e-05 0.0 
-4.661654735720e-05 8.109222494824e-03 0.0 
0.0 0.0 0.0 
-5.395611847557e-04 -6.293957704119e-05 0.0 
-6.293957704119e-05 8.130788029321e-03 0.0 
0.0 0.0 0.0 
-4.466411893556e-04 -4.133671497730e-05 0.0 
-4.133671497730e-05 8.106931494468e-03 0.0 
0.0 0.0 0.0 
-5.617428636682e-04 -5.728735169533e-05 0.0 
-5.728735169533e-05 8.134826124133e-03 0.0 
0.0 0.0 0.0 
-4.528365007820e-04 -2.811349925127e-05 0.0 
-2.811349925127e-05 8.101063397971e-03 0.0 
0.0 0.0 0.0 
-5.850569677750e-04 -3.678121987257e-05 0.0 
-3.678121987257e-05 8.141877367117e-03 0.0 
0.0 0.0 0.0 
-4.692996983430e-04 -6.377128888788e-06 0.0 
-6.377128888788e-06 8.102795932868e-03 0.0 
0.0 0.0 0.0 
-6.283178062884e-04 -1.478873358146e-05 0.0 
-1.478873358146e-05 8.149948526101e-03 0.0 
0.0 0.0 0.0 
-6.453631992051e-04 4.250405618704e-05 0.0 
4.250405618704e-05 8.154879913823e-03 0.0 
0.0 0.0 0.0 
-4.909260720879e-04 3.138225011165e-05 0.0 
3.138225011165e-05 8.091029061679e-03 0.0 
0.0 0.0 0.0 
-7.244535232129e-04 2.579320735648e-04 0.0 
2.579320735648e-04 8.196826802042e-03 0.0 
0.0 0.0 0.0 
-5.343492923104e-04 9.181490156845e-05 0.0 
9.181490156845e-05 8.092913808320e-03 0.0 
0.0 0.0 0.0 
-6.875362068689e-04 1.485831117880e-04 0.0 
1.485831117880e-04 8.048778515109e-03 0.0 
0.0 0.0 0.0 
-4.885259099973e-04 -6.071650545814e-05 0.0 
-6.071650545814e-05 8.124221752821e-03 0.0 
0.0 0.0 0.0 
-4.584045624754e-04 5.018512087865e-05 0.0 
5.018512087865e-05 8.070310583294e-03 0.0 
0.0 0.0 0.0 
-4.727865925134e-04 -9.839137094287e-06 0.0 
-9.839137094287e-06 8.208470432447e-03 0.0 
0.0 0.0 0.0 
-4.737751099583e-04 1.215606053472e-06 0.0 
1.215606053472e-06 7.989431656086e-03 0.0 
0.0 0.0 0.0 
-6.324484020872e-04 2.852485666145e-04 0.0 
2.852485666145e-04 7.914624325307e-03 0.0 
0.0 0.0 0.0 
-4.781750763627e-04 -2.188744684489e-05 0.0 
-2.188744684489e-05 8.581270688387e-03 0.0 
0.0 0.0 0.0 
-4.757374751877e-04 -3.969836422734e-06 0.0 
-3.969836422734e-06 8.545384162536e-03 0.0 
0.0 0.0 0.0 
-4.768633301818e-04 -1.538797735107e-05 0.0 
-1.538797735107e-05 8.544044747532e-03 0.0 
0.0 0.0 0.0 
-4.758229448184e-04 -1.583552793344e-05 0.0 
-1.583552793344e-05 8.543995981350e-03 0.0 
0.0 0.0 0.0 
-4.814959563404e-04 -1.492412480250e-05 0.0 
-1.492412480250e-05 8.544200984241e-03 0.0 
0.0 0.0 0.0 
-4.766918012944e-04 -1.865558821482e-05 0.0 
-1.865558821482e-05 8.547045660555e-03 0.0 
0.0 0.0 0.0 
-4.877475716293e-04 -1.879273961965e-05 0.0 
-1.879273961965e-05 8.547166410679e-03 0.0 
0.0 0.0 0.0 
-4.771428498677e-04 -2.340110863879e-05 0.0 
-2.340110863879e-05 8.547312719246e-03 0.0 
0.0 0.0 0.0 
-4.921455331895e-04 -2.082310438887e-05 0.0 
-2.082310438887e-05 8.548395408283e-03 0.0 
0.0 0.0 0.0 
-4.794126360989e-04 -2.736973300273e-05 0.0 
-2.736973300273e-05 8.550542631086e-03 0.0 
0.0 0.0 0.0 
-5.020588598837e-04 -2.495319404049e-05 0.0 
-2.495319404049e-05 8.552100772912e-03 0.0 
0.0 0.0 0.0 
-4.823007398983e-04 -3.259729129295e-05 0.0 
-3.259729129295e-05 8.551781476272e-03 0.0 
0.0 0.0 0.0 
-5.109605816486e-04 -2.682838221424e-05 0.0 
-2.682838221424e-05 8.555371729700e-03 0.0 
0.0 0.0 0.0 
-7.208950211686e-04 1.235299625545e-04 0.0 
1.235299625545e-04 8.587558411352e-03 0.0 
0.0 0.0 0.0 
-4.876058395356e-04 -3.660984900958e-05 0.0 
-3.660984900958e-05 8.556674348751e-03 0.0 
0.0 0.0 0.0 
-5.259164997871e-04 -3.261073167843e-05 0.0 
-3.261073167843e-05 8.560677291726e-03 0.0 
0.0 0.0 0.0 
-6.453631992051e-04 1.132353468451e-04 0.0 
1.132353468451e-04 8.419685373187e-03 0.0 
0.0 0.0 0.0 
-4.922825306379e-04 -4.150870272021e-05 0.0 
-4.150870272021e-05 8.555578087614e-03 0.0 
0.0 0.0 0.0 
-5.394636836252e-04 -3.260504219810e-05 0.0 
-3.260504219810e-05 8.563597736077e-03 0.0 
0.0 0.0 0.0 
-7.378913752575e-04 1.062234663713e-04 0.0 
1.062234663713e-04 8.609113996057e-03 0.0 
0.0 0.0 0.0 
-4.997844231222e-04 -4.244692092366e-05 0.0 
-4.244692092366e-05 8.557721172084e-03 0.0 
0.0 0.0 0.0 
-5.586593561686e-04 -3.104794774929e-05 0.0 
-3.104794774929e-05 8.569519437701e-03 0.0 
0.0 0.0 0.0 
-5.103313544889e-04 -4.126270660887e-05 0.0 
-4.126270660887e-05 8.561223909986e-03 0.0 
0.0 0.0 0.0 
-5.806825455120e-04 -2.940556641100e-05 0.0 
-2.940556641100e-05 8.576259926398e-03 0.0 
0.0 0.0 0.0 
-5.229391823421e-04 -3.694545217562e-05 0.0 
-3.694545217562e-05 8.561841138614e-03 0.0 
0.0 0.0 0.0 
-7.633577982311e-04 2.023401257769e-04 0.0 
2.023401257769e-04 8.643045823759e-03 0.0 
0.0 0.0 0.0 
-6.054178908182e-04 -2.244718548369e-05 0.0 
-2.244718548369e-05 8.582349373589e-03 0.0 
0.0 0.0 0.0 
-5.395611847557e-04 -2.635860029244e-05 0.0 
-2.635860029244e-05 8.562057585497e-03 0.0 
0.0 0.0 0.0 
-5.617428636682e-04 -8.593401475362e-06 0.0 
-8.593401475362e-06 8.562776923502e-03 0.0 
0.0 0.0 0.0 
-6.362419221442e-04 -9.222769671611e-06 0.0 
-9.222769671611e-06 8.589295577606e-03 0.0 
0.0 0.0 0.0 
-5.850569677750e-04 2.311770869988e-05 0.0 
2.311770869988e-05 8.545814767147e-03 0.0 
0.0 0.0 0.0 
-6.764913513089e-04 5.613198566523e-06 0.0 
5.613198566523e-06 8.593932102402e-03 0.0 
0.0 0.0 0.0 
-6.283178062884e-04 7.577896220933e-05 0.0 
7.577896220933e-05 8.556194918046e-03 0.0 
0.0 0.0 0.0 
-6.884840438320e-04 5.550612117601e-05 0.0 
5.550612117601e-05 8.594523480669e-03 0.0 
0.0 0.0 0.0 
-7.382510495596e-04 1.240250308047e-04 0.0 
1.240250308047e-04 8.486905622165e-03 0.0 
0.0 0.0 0.0 
-4.544681776425e-04 -5.836586428051e-05 0.0 
-5.836586428051e-05 8.520752237304e-03 0.0 
0.0 0.0 0.0 
-4.907481755057e-04 5.216796669513e-05 0.0 
5.216796669513e-05 8.585637765564e-03 0.0 
0.0 0.0 0.0 
-4.727865925134e-04 -8.622235386092e-06 0.0 
-8.622235386092e-06 8.441447782766e-03 0.0 
0.0 0.0 0.0 
-4.729740510281e-04 4.810755528399e-06 0.0 
4.810755528399e-06 8.660822506311e-03 0.0 
0.0 0.0 0.0 
-7.032306631397e-04 2.152347209696e-04 0.0 
2.152347209696e-04 8.386940835395e-03 0.0 
0.0 0.0 0.0 
-4.781750763627e-04 -2.349660495606e-05 0.0 
-2.349660495606e-05 8.942528436026e-03 0.0 
0.0 0.0 0.0 
-4.680799154970e-04 -4.884557770046e-06 0.0 
-4.884557770046e-06 8.968620451555e-03 0.0 
0.0 0.0 0.0 
-4.768633301818e-04 -1.080791598192e-05 0.0 
-1.080791598192e-05 8.969347709665e-03 0.0 
0.0 0.0 0.0 
-4.789655014596e-04 -8.573397214108e-06 0.0 
-8.573397214108e-06 8.975169986621e-03 0.0 
0.0 0.0 0.0 
-4.814959563404e-04 -1.046619525914e-05 0.0 
-1.046619525914e-05 8.975523710578e-03 0.0 
0.0 0.0 0.0 
-4.862719790742e-04 -9.155130582013e-06 0.0 
-9.155130582013e-06 8.981555710927e-03 0.0 
0.0 0.0 0.0 
-4.877475716293e-04 -1.358525976909e-05 0.0 
-1.358525976909e-05 8.982618517690e-03 0.0 
0.0 0.0 0.0 
-4.924478271683e-04 -1.575463919666e-05 0.0 
-1.575463919666e-05 8.982337288173e-03 0.0 
0.0 0.0 0.0 
-4.921455331895e-04 -1.201663237450e-05 0.0 
-1.201663237450e-05 8.981231336903e-03 0.0 
0.0 0.0 0.0 
-5.033930491223e-04 -1.194720220773e-05 0.0 
-1.194720220773e-05 8.988973765563e-03 0.0 
0.0 0.0 0.0 
-5.020588598837e-04 -1.365462085534e-05 0.0 
-1.365462085534e-05 8.989534834764e-03 0.0 
0.0 0.0 0.0 
-5.194434851875e-04 -1.796746512782e-05 0.0 
-1.796746512782e-05 8.993648165010e-03 0.0 
0.0 0.0 0.0 
-7.525551375199e-04 1.103144847236e-04 0.0 
1.103144847236e-04 9.037124853995e-03 0.0 
0.0 0.0 0.0 
-5.109605816486e-04 -1.251035426736e-05 0.0 
-1.251035426736e-05 8.991041549923e-03 0.0 
0.0 0.0 0.0 
-7.509341260032e-04 9.817292662348e-05 0.0 
9.817292662348e-05 9.047522485197e-03 0.0 
0.0 0.0 0.0 
-5.280604634317e-04 -1.299096874245e-05 0.0 
-1.299096874245e-05 9.000306077344e-03 0.0 
0.0 0.0 0.0 
-5.259164997871e-04 -1.164623400706e-05 0.0 
-1.164623400706e-05 8.999554564049e-03 0.0 
0.0 0.0 0.0 
-5.579664637579e-04 -1.874319794975e-05 0.0 
-1.874319794975e-05 9.006445903829e-03 0.0 
0.0 0.0 0.0 
-5.394636836252e-04 -7.262522688605e-06 0.0 
-7.262522688605e-06 8.999071424206e-03 0.0 
0.0 0.0 0.0 
-5.820343733778e-04 -1.165697346066e-05 0.0 
-1.165697346066e-05 9.014079186876e-03 0.0 
0.0 0.0 0.0 
-5.586593561686e-04 -1.505356825126e-06 0.0 
-1.505356825126e-06 9.006085587371e-03 0.0 
0.0 0.0 0.0 
-6.050237759049e-04 -5.526378870217e-06 0.0 
-5.526378870217e-06 9.021862317103e-03 0.0 
0.0 0.0 0.0 
-6.884840438320e-04 1.148374762834e-04 0.0 
1.148374762834e-04 8.872200302823e-03 0.0 
0.0 0.0 0.0 
-5.806825455120e-04 8.243964975642e-06 0.0 
8.243964975642e-06 9.010404266871e-03 0.0 
0.0 0.0 0.0 
-6.360242396037e-04 4.112484800963e-06 0.0 
4.112484800963e-06 9.028228389368e-03 0.0 
0.0 0.0 0.0 
-6.054178908182e-04 2.513330231223e-05 0.0 
2.513330231223e-05 9.009577609691e-03 0.0 
0.0 0.0 0.0 
-6.677950186845e-04 2.489296900047e-05 0.0 
2.489296900047e-05 9.033076846220e-03 0.0 
0.0 0.0 0.0 
-7.049049100631e-04 5.808778262489e-05 0.0 
5.808778262489e-05 9.038882785454e-03 0.0 
0.0 0.0 0.0 
-6.362419221442e-04 5.188316625620e-05 0.0 
5.188316625620e-05 9.007824417430e-03 0.0 
0.0 0.0 0.0 
-6.764913513089e-04 8.621046413227e-05 0.0 
8.621046413227e-05 9.010905406297e-03 0.0 
0.0 0.0 0.0 
-7.698194385632e-04 1.730510838639e-04 0.0 
1.730510838639e-04 9.080503792583e-03 0.0 
0.0 0.0 0.0 
-7.479384812328e-04 1.156430957614e-04 0.0 
1.156430957614e-04 8.912624931694e-03 0.0 
0.0 0.0 0.0 
-4.850076987183e-04 -5.150785782213e-05 0.0 
-5.150785782213e-05 8.973497893643e-03 0.0 
0.0 0.0 0.0 
-4.650060515555e-04 5.866824131836e-05 0.0 
5.866824131836e-05 8.937683817889e-03 0.0 
0.0 0.0 0.0 
-4.766857684316e-04 1.301026181330e-06 0.0 
1.301026181330e-06 9.068169652833e-03 0.0 
0.0 0.0 0.0 
-4.729740510281e-04 7.951688586459e-06 0.0 
7.951688586459e-06 8.846740225408e-03 0.0 
0.0 0.0 0.0 
-7.378913752575e-04 1.809340596011e-04 0.0 
1.809340596011e-04 8.853059722391e-03 0.0 
0.0 0.0 0.0 

TENSORS element_materi_strain_plasti float
-4.741889373871e-04 2.342858306946e-04 0.0 
2.342858306946e-04 2.814002888893e-03 0.0 
0.0 0.0 -4.220722639049e-04 
-3.897703972720e-04 -2.636930979351e-04 0.0 
-2.636930979351e-04 2.518846771568e-03 0.0 
0.0 0.0 -4.303330772826e-04 
-1.259341393326e-03 -3.090507185476e-05 0.0 
-3.090507185476e-05 8.411433358411e-03 0.0 
0.0 0.0 -1.278236581085e-03 
-1.261464826866e-03 -1.747915258517e-04 0.0 
-1.747915258517e-04 8.480496286503e-03 0.0 
0.0 0.0 -1.255598393855e-03 
-7.983281552709e-04 2.303090028114e-04 0.0 
2.303090028114e-04 5.254489729699e-03 0.0 
0.0 0.0 -7.961861350945e-04 
-2.059346616286e-04 2.207607006016e-04 0.0 
2.207607006016e-04 1.009101900264e-03 0.0 
0.0 0.0 -1.793459522598e-04 
-7.878967474187e-04 2.695248863587e-04 0.0 
2.695248863587e-04 5.204562819075e-03 0.0 
0.0 0.0 -8.011023898636e-04 
-4.128254064944e-04 4.080923401226e-05 0.0 
4.080923401226e-05 2.687408780313e-03 0.0 
0.0 0.0 -4.045669272905e-04 
-8.029485881418e-04 -2.877766516214e-04 0.0 
-2.877766516214e-04 5.280709952101e-03 0.0 
0.0 0.0 -7.977904104816e-04 
-1.248589478216e-03 2.242094407414e-04 0.0 
2.242094407414e-04 8.399546616313e-03 0.0 
0.0 0.0 -1.253060141438e-03 
-8.734037686267e-04 1.480436446761e-04 0.0 
1.480436446761e-04 5.724300399011e-03 0.0 
0.0 0.0 -8.816510380685e-04 
-3.813204680075e-04 2.190974571169e-07 0.0 
2.190974571169e-07 2.153866306060e-03 0.0 
0.0 0.0 -3.735031833740e-04 
-1.251882997596e-03 2.259053558602e-04 0.0 
2.259053558602e-04 8.467796470942e-03 0.0 
0.0 0.0 -1.259187713256e-03 
-8.479147549375e-04 1.860153946804e-04 0.0 
1.860153946804e-04 5.638680799524e-03 0.0 
0.0 0.0 -8.526168115438e-04 
-1.288189434839e-03 -1.832848558743e-04 0.0 
-1.832848558743e-04 8.626562874010e-03 0.0 
0.0 0.0 -1.289538875031e-03 
-1.301181403367e-03 2.039645816311e-04 0.0 
2.039645816311e-04 8.626062176419e-03 0.0 
0.0 0.0 -1.285984941237e-03 
-7.889097476292e-04 4.689353054446e-06 0.0 
4.689353054446e-06 5.256085596916e-03 0.0 
0.0 0.0 -7.740676797406e-04 
-1.741032192830e-04 -1.984587543236e-04 0.0 
-1.984587543236e-04 9.106845467383e-04 0.0 
0.0 0.0 -1.826237857505e-04 
-3.103934600629e-04 -1.188849736468e-04 0.0 
-1.188849736468e-04 1.808737160777e-03 0.0 
0.0 0.0 -2.776016825098e-04 
-3.017260514233e-04 1.101242532994e-04 0.0 
1.101242532994e-04 1.644506395847e-03 0.0 
0.0 0.0 -3.031105466646e-04 
-1.236978180346e-03 -2.273342210413e-04 0.0 
-2.273342210413e-04 8.474882909105e-03 0.0 
0.0 0.0 -1.250388265701e-03 
-4.788832533263e-04 9.235771209242e-05 0.0 
9.235771209242e-05 2.938553769607e-03 0.0 
0.0 0.0 -4.811142067971e-04 
-5.153479436012e-04 -1.000310601356e-04 0.0 
-1.000310601356e-04 3.322116646267e-03 0.0 
0.0 0.0 -5.091556215902e-04 
-1.207914407075e-03 -1.521033174033e-04 0.0 
-1.521033174033e-04 8.119148175608e-03 0.0 
0.0 0.0 -1.210372970477e-03 
-9.004893154001e-04 2.196977328252e-04 0.0 
2.196977328252e-04 6.011080091783e-03 0.0 
0.0 0.0 -9.130988374533e-04 
-9.174590915307e-04 -1.450811372332e-04 0.0 
-1.450811372332e-04 6.162434229051e-03 0.0 
0.0 0.0 -9.179597371190e-04 
-7.131055436641e-04 -1.829825241466e-05 0.0 
-1.829825241466e-05 4.865076399380e-03 0.0 
0.0 0.0 -7.148082707961e-04 
-1.275014108034e-03 1.320223363481e-05 0.0 
1.320223363481e-05 8.706353732723e-03 0.0 
0.0 0.0 -1.266047838742e-03 
-9.084778585211e-04 -2.532626103826e-04 0.0 
-2.532626103826e-04 6.055345996359e-03 0.0 
0.0 0.0 -9.113908267906e-04 
-1.248671644075e-03 1.500744587119e-04 0.0 
1.500744587119e-04 8.319441606585e-03 0.0 
0.0 0.0 -1.237914324842e-03 
-2.162503473685e-04 3.355180743600e-05 0.0 
3.355180743600e-05 1.390767343688e-03 0.0 
0.0 0.0 -2.185975924268e-04 
-1.102777646678e-04 3.092462500305e-05 0.0 
3.092462500305e-05 6.008114765358e-04 0.0 
0.0 0.0 -1.059755802940e-04 
-1.291285801941e-03 5.563014948237e-05 0.0 
5.563014948237e-05 8.705630370944e-03 0.0 
0.0 0.0 -1.261301343383e-03 
-1.086169392383e-03 -1.843155554575e-04 0.0 
-1.843155554575e-04 7.250914267634e-03 0.0 
0.0 0.0 -1.090200430068e-03 
-1.229627234356e-03 -2.081816156674e-04 0.0 
-2.081816156674e-04 8.461501921680e-03 0.0 
0.0 0.0 -1.254989870190e-03 
-1.333928130876e-03 3.870959300371e-04 0.0 
3.870959300371e-04 8.918766405510e-03 0.0 
0.0 0.0 -1.314886350686e-03 
-1.319549054242e-03 -4.082653656671e-04 0.0 
-4.082653656671e-04 8.897494246722e-03 0.0 
0.0 0.0 -1.314653105918e-03 
-1.251043943053e-03 1.755104499558e-04 0.0 
1.755104499558e-04 8.438640087517e-03 0.0 
0.0 0.0 -1.264739017786e-03 
-7.261695585195e-04 -3.174047361399e-04 0.0 
-3.174047361399e-04 4.739951691414e-03 0.0 
0.0 0.0 -7.380763454961e-04 
-7.293562810949e-04 3.567993421671e-04 0.0 
3.567993421671e-04 4.808642079977e-03 0.0 
0.0 0.0 -7.371174501546e-04 
-5.783756129442e-04 -1.365848045621e-04 0.0 
-1.365848045621e-04 3.784424820314e-03 0.0 
0.0 0.0 -5.794556523337e-04 
-1.262877717034e-03 1.019690194505e-05 0.0 
1.019690194505e-05 8.450550888573e-03 0.0 
0.0 0.0 -1.280756488215e-03 
-3.226099019571e-04 2.179474137412e-04 0.0 
2.179474137412e-04 1.923375161646e-03 0.0 
0.0 0.0 -3.207852484642e-04 
-7.228265239814e-04 5.532830836330e-05 0.0 
5.532830836330e-05 4.629144605835e-03 0.0 
0.0 0.0 -7.350059072715e-04 
-1.225055898073e-03 -9.816574622226e-05 0.0 
-9.816574622226e-05 8.293394798268e-03 0.0 
0.0 0.0 -1.212858513926e-03 
-3.206551623609e-04 -1.904275671922e-04 0.0 
-1.904275671922e-04 1.917970267075e-03 0.0 
0.0 0.0 -3.198426158856e-04 
-1.782809379457e-04 -4.378063603026e-06 0.0 
-4.378063603026e-06 7.801372807212e-04 0.0 
0.0 0.0 -1.830859565219e-04 
-1.220501464306e-03 6.316947048498e-05 0.0 
6.316947048498e-05 8.106622909265e-03 0.0 
0.0 0.0 -1.234743356787e-03 
-9.829459878545e-05 4.583948434498e-06 0.0 
4.583948434498e-06 3.276774367732e-04 0.0 
0.0 0.0 -9.830693056618e-05 
-8.022047642295e-04 -1.811997065716e-04 0.0 
-1.811997065716e-04 5.439298518069e-03 0.0 
0.0 0.0 -8.229436299569e-04 
-5.489987759976e-04 -1.133059547326e-04 0.0 
-1.133059547326e-04 3.572814356686e-03 0.0 
0.0 0.0 -5.440916476828e-04 
-3.388458973029e-04 -7.042877961868e-05 0.0 
-7.042877961868e-05 2.248035829402e-03 0.0 
0.0 0.0 -3.443810396916e-04 
-3.074157494333e-04 -1.467796149718e-04 0.0 
-1.467796149718e-04 1.814374481458e-03 0.0 
0.0 0.0 -3.047895897720e-04 
-5.421593945536e-04 1.293548672116e-04 0.0 
1.293548672116e-04 3.418474043213e-03 0.0 
0.0 0.0 -5.489460876789e-04 
-1.266579725590e-03 -7.893235167068e-06 0.0 
-7.893235167068e-06 8.468672292321e-03 0.0 
0.0 0.0 -1.282189168212e-03 
-4.597210026088e-04 -1.452187243083e-04 0.0 
-1.452187243083e-04 2.937502524048e-03 0.0 
0.0 0.0 -4.512233509908e-04 
-3.611878323951e-04 1.444175472608e-04 0.0 
1.444175472608e-04 2.127268062759e-03 0.0 
0.0 0.0 -3.694212080277e-04 
-1.088084509005e-03 1.827090950976e-04 0.0 
1.827090950976e-04 7.290496234404e-03 0.0 
0.0 0.0 -1.087734043503e-03 
-2.215722591699e-04 2.179680801208e-05 0.0 
2.179680801208e-05 1.355906413413e-03 0.0 
0.0 0.0 -2.189683579105e-04 
-1.291565119731e-03 -2.058202376931e-04 0.0 
-2.058202376931e-04 8.638287399565e-03 0.0 
0.0 0.0 -1.285320035817e-03 
-9.406322495136e-05 -1.263405609949e-04 0.0 
-1.263405609949e-04 5.178868060054e-04 0.0 
0.0 0.0 -9.532668554595e-05 
-1.207108165930e-03 2.281727388556e-04 0.0 
2.281727388556e-04 8.099161405669e-03 0.0 
0.0 0.0 -1.210824713543e-03 
-5.507253245741e-04 2.263693422713e-04 0.0 
2.263693422713e-04 3.467321570737e-03 0.0 
0.0 0.0 -5.497085007362e-04 
-2.633068753573e-04 1.211642318688e-04 0.0 
1.211642318688e-04 1.594924151360e-03 0.0 
0.0 0.0 -2.769417647402e-04 
-1.253722868311e-03 -1.824681277037e-04 0.0 
-1.824681277037e-04 8.465445333241e-03 0.0 
0.0 0.0 -1.257478522087e-03 
-5.218987792326e-04 1.045965667426e-04 0.0 
1.045965667426e-04 3.169150320614e-03 0.0 
0.0 0.0 -5.137572693775e-04 
-6.027079853017e-05 4.538885378714e-05 0.0 
4.538885378714e-05 2.053936984272e-04 0.0 
0.0 0.0 -6.219552852730e-05 
-1.264974411680e-03 -7.934823425828e-05 0.0 
-7.934823425828e-05 8.671954395754e-03 0.0 
0.0 0.0 -1.261660853087e-03 
-2.446973118894e-04 -2.103372277075e-04 0.0 
-2.103372277075e-04 1.398643057908e-03 0.0 
0.0 0.0 -2.404310120911e-04 
-1.273528016320e-03 -3.786679226458e-06 0.0 
-3.786679226458e-06 8.448618323595e-03 0.0 
0.0 0.0 -1.282376455277e-03 
-9.491469453000e-04 -1.694945758869e-04 0.0 
-1.694945758869e-04 6.388198818832e-03 0.0 
0.0 0.0 -9.556290573178e-04 
-1.338499280800e-03 -4.782411066393e-06 0.0 
-4.782411066393e-06 8.836661036334e-03 0.0 
0.0 0.0 -1.338499280800e-03 
-1.237491500558e-03 1.679725136182e-06 0.0 
1.679725136182e-06 8.119391193773e-03 0.0 
0.0 0.0 -1.232909111256e-03 
-1.306267830690e-04 2.201659246920e-04 0.0 
2.201659246920e-04 5.612930774448e-04 0.0 
0.0 0.0 -1.295286970291e-04 
-4.862904107144e-04 1.519111044422e-04 0.0 
1.519111044422e-04 2.949318680169e-03 0.0 
0.0 0.0 -4.777371989943e-04 
-1.254133957623e-03 -1.731664304592e-04 0.0 
-1.731664304592e-04 8.495066883004e-03 0.0 
0.0 0.0 -1.262626981217e-03 
-1.278966520388e-03 -5.463065947676e-06 0.0 
-5.463065947676e-06 8.716306064884e-03 0.0 
0.0 0.0 -1.265352048664e-03 
-2.500278062252e-04 -1.904083940434e-04 0.0 
-1.904083940434e-04 1.447205075698e-03 0.0 
0.0 0.0 -2.510564503189e-04 
-2.134033531635e-04 -1.202880701251e-05 0.0 
-1.202880701251e-05 1.118917748560e-03 0.0 
0.0 0.0 -2.366757893512e-04 
-2.618885880878e-04 2.000957013546e-04 0.0 
2.000957013546e-04 1.434490946595e-03 0.0 
0.0 0.0 -2.525559601288e-04 
-2.561151872774e-04 2.173251173940e-04 0.0 
2.173251173940e-04 1.315804408785e-03 0.0 
0.0 0.0 -2.439992467140e-04 
-7.756433689863e-04 3.199927864594e-05 0.0 
3.199927864594e-05 4.983308918424e-03 0.0 
0.0 0.0 -7.918363975426e-04 
-4.925212314280e-04 -9.934539810267e-05 0.0 
-9.934539810267e-05 3.122416797223e-03 0.0 
0.0 0.0 -4.749402310763e-04 
-4.545793902690e-04 2.152694959791e-05 0.0 
2.152694959791e-05 2.617959458629e-03 0.0 
0.0 0.0 -4.438329512050e-04 
-8.539707940099e-04 -2.466642961344e-04 0.0 
-2.466642961344e-04 5.506675063211e-03 0.0 
0.0 0.0 -8.336771054075e-04 
-8.435305426984e-04 2.228252034013e-04 0.0 
2.228252034013e-04 5.474459253188e-03 0.0 
0.0 0.0 -8.358076868167e-04 
-9.896151407778e-04 -1.847277247936e-04 0.0 
-1.847277247936e-04 6.561076695027e-03 0.0 
0.0 0.0 -9.867109252839e-04 
-1.055581697673e-03 1.942475256944e-04 0.0 
1.942475256944e-04 7.096214809641e-03 0.0 
0.0 0.0 -1.058576829647e-03 
-1.087556198862e-03 -2.099876550133e-04 0.0 
-2.099876550133e-04 7.325766427452e-03 0.0 
0.0 0.0 -1.085941371602e-03 
-7.938707313230e-04 -2.935700947946e-04 0.0 
-2.935700947946e-04 5.166210845136e-03 0.0 
0.0 0.0 -7.983229688164e-04 
-9.891997245649e-05 3.705985749017e-05 0.0 
3.705985749017e-05 3.315907805063e-04 0.0 
0.0 0.0 -9.971606059277e-05 
-7.885073175136e-04 2.083610238624e-05 0.0 
2.083610238624e-05 5.061448418496e-03 0.0 
0.0 0.0 -7.928983479555e-04 
-1.080416093341e-03 -1.102030882255e-04 0.0 
-1.102030882255e-04 7.033104683541e-03 0.0 
0.0 0.0 -1.069439317440e-03 
-1.045886068578e-03 1.124481538708e-04 0.0 
1.124481538708e-04 7.095766026652e-03 0.0 
0.0 0.0 -1.046447409317e-03 
-1.328437641777e-03 -2.129776585032e-05 0.0 
-2.129776585032e-05 9.108372857470e-03 0.0 
0.0 0.0 -1.319970921405e-03 
-1.300424073257e-03 -1.489012867546e-04 0.0 
-1.489012867546e-04 8.723441004214e-03 0.0 
0.0 0.0 -1.294194962782e-03 
-7.712114504191e-04 -1.098703338913e-04 0.0 
-1.098703338913e-04 4.988523523052e-03 0.0 
0.0 0.0 -7.889745663688e-04 
-1.284794183645e-03 -1.672243708689e-06 0.0 
-1.672243708689e-06 8.719527791253e-03 0.0 
0.0 0.0 -1.263183913703e-03 
-8.948346215206e-04 -1.546261929541e-04 0.0 
-1.546261929541e-04 5.902983939671e-03 0.0 
0.0 0.0 -9.040008563810e-04 
-5.152734121650e-04 -1.377156700746e-04 0.0 
-1.377156700746e-04 3.387112186572e-03 0.0 
0.0 0.0 -5.198799001330e-04 
-7.537468891923e-04 -1.811454266392e-04 0.0 
-1.811454266392e-04 5.032849217033e-03 0.0 
0.0 0.0 -7.643292725052e-04 
-1.300051982580e-03 1.933815268577e-04 0.0 
1.933815268577e-04 8.643096299671e-03 0.0 
0.0 0.0 -1.287517816355e-03 
-1.042138929644e-03 -2.218801567962e-04 0.0 
-2.218801567962e-04 6.995297199161e-03 0.0 
0.0 0.0 -1.043751955586e-03 
-1.212978672895e-03 -2.149778667109e-04 0.0 
-2.149778667109e-04 8.151603330808e-03 0.0 
0.0 0.0 -1.209599240962e-03 
-4.772009659134e-04 -2.042000113292e-04 0.0 
-2.042000113292e-04 3.047489558792e-03 0.0 
0.0 0.0 -4.747543016519e-04 
-1.600906628411e-04 5.774618246658e-05 0.0 
5.774618246658e-05 1.025327310925e-03 0.0 
0.0 0.0 -1.624897275554e-04 
-1.185986913304e-03 -1.994673824885e-04 0.0 
-1.994673824885e-04 7.973913807476e-03 0.0 
0.0 0.0 -1.189902873528e-03 
-1.119764034804e-03 7.291963016832e-05 0.0 
7.291963016832e-05 7.561876066394e-03 0.0 
0.0 0.0 -1.108790581071e-03 
-1.060815689674e-04 -4.441233851545e-05 0.0 
-4.441233851545e-05 6.067820639570e-04 0.0 
0.0 0.0 -1.038131581323e-04 
-1.254593141611e-03 -8.600335574532e-05 0.0 
-8.600335574532e-05 8.491952788715e-03 0.0 
0.0 0.0 -1.285127980003e-03 
-1.054610615232e-03 1.830679382237e-04 0.0 
1.830679382237e-04 6.961937164299e-03 0.0 
0.0 0.0 -1.051491716222e-03 
-1.014932494026e-04 -1.696691582667e-04 0.0 
-1.696691582667e-04 3.826202340035e-04 0.0 
0.0 0.0 -1.013520483084e-04 
-6.301709070232e-04 2.090314443316e-04 0.0 
2.090314443316e-04 4.024350450833e-03 0.0 
0.0 0.0 -6.309931931857e-04 
-7.106440805022e-04 -1.470402379688e-04 0.0 
-1.470402379688e-04 4.709551499753e-03 0.0 
0.0 0.0 -7.153918394734e-04 
-5.826588176687e-04 -7.135686322053e-05 0.0 
-7.135686322053e-05 3.565625895428e-03 0.0 
0.0 0.0 -5.772375537024e-04 
-4.700128970004e-04 1.674991601261e-04 0.0 
1.674991601261e-04 2.986365482112e-03 0.0 
0.0 0.0 -4.852398935310e-04 
-5.464898507642e-04 -2.243214163867e-04 0.0 
-2.243214163867e-04 3.519571152392e-03 0.0 
0.0 0.0 -5.471823052058e-04 
-1.295684493703e-03 1.105875109316e-04 0.0 
1.105875109316e-04 8.547279304038e-03 0.0 
0.0 0.0 -1.283833066805e-03 
-8.570047827625e-04 1.861607891453e-04 0.0 
1.861607891453e-04 5.815261551137e-03 0.0 
0.0 0.0 -8.766975940251e-04 
-5.090056138741e-04 2.359482171435e-04 0.0 
2.359482171435e-04 3.233178911117e-03 0.0 
0.0 0.0 -5.122473358773e-04 
-2.401563577846e-04 -2.327182583628e-04 0.0 
-2.327182583628e-04 1.352155075276e-03 0.0 
0.0 0.0 -2.295267891405e-04 
-7.623542819020e-04 1.283036037402e-04 0.0 
1.283036037402e-04 5.225810972112e-03 0.0 
0.0 0.0 -7.744920945421e-04 
-1.103870852233e-03 -9.179179606005e-05 0.0 
-9.179179606005e-05 7.387674560017e-03 0.0 
0.0 0.0 -1.129288753466e-03 
-5.110192863144e-04 -2.509386708551e-04 0.0 
-2.509386708551e-04 3.262724462356e-03 0.0 
0.0 0.0 -5.109724225979e-04 
-1.701414425471e-04 -1.534722166073e-04 0.0 
-1.534722166073e-04 9.835208087659e-04 0.0 
0.0 0.0 -1.803716510945e-04 
-6.470086521654e-04 -1.523090755330e-04 0.0 
-1.523090755330e-04 4.254329431163e-03 0.0 
0.0 0.0 -6.470401313398e-04 
-5.812575166427e-04 7.210416783757e-05 0.0 
7.210416783757e-05 3.739643384109e-03 0.0 
0.0 0.0 -5.578851714504e-04 
-6.125337073479e-04 1.558115274757e-04 0.0 
1.558115274757e-04 3.923971555451e-03 0.0 
0.0 0.0 -6.167189930164e-04 
-1.291653437089e-03 1.656662026679e-04 0.0 
1.656662026679e-04 8.654933890924e-03 0.0 
0.0 0.0 -1.290671971449e-03 
-2.237296866695e-04 1.772304597236e-04 0.0 
1.772304597236e-04 1.151710267161e-03 0.0 
0.0 0.0 -2.092271396208e-04 
-9.141643905242e-04 1.684200684003e-04 0.0 
1.684200684003e-04 6.033430644026e-03 0.0 
0.0 0.0 -9.216843799351e-04 
-1.271942419784e-03 2.295590735455e-04 0.0 
2.295590735455e-04 8.471227576744e-03 0.0 
0.0 0.0 -1.256690274141e-03 
-6.609256603744e-04 1.763317732061e-04 0.0 
1.763317732061e-04 4.239720102404e-03 0.0 
0.0 0.0 -6.588732905211e-04 
-6.147586220519e-04 -1.550456399962e-04 0.0 
-1.550456399962e-04 4.029116054442e-03 0.0 
0.0 0.0 -6.139229799761e-04 
-1.241743830704e-03 2.520731219919e-04 0.0 
2.520731219919e-04 8.466488124430e-03 0.0 
0.0 0.0 -1.254964138299e-03 
-1.256064603940e-03 -2.623116581344e-04 0.0 
-2.623116581344e-04 8.488036362469e-03 0.0 
0.0 0.0 -1.261070974318e-03 
-9.903209289541e-04 1.774668260034e-04 0.0 
1.774668260034e-04 6.556735258886e-03 0.0 
0.0 0.0 -9.873713238705e-04 
-6.942353831373e-04 -1.750200192602e-04 0.0 
-1.750200192602e-04 4.553149239605e-03 0.0 
0.0 0.0 -6.916138708610e-04 
-1.272024970549e-03 7.302822811058e-05 0.0 
7.302822811058e-05 8.719688557752e-03 0.0 
0.0 0.0 -1.270330610962e-03 
-6.345922402826e-04 1.791748683913e-04 0.0 
1.791748683913e-04 4.059488016013e-03 0.0 
0.0 0.0 -6.326048069937e-04 
-1.254086704545e-03 -7.990901772509e-06 0.0 
-7.990901772509e-06 8.463054394801e-03 0.0 
0.0 0.0 -1.283174495648e-03 
-1.276280299661e-03 7.633372817423e-05 0.0 
7.633372817423e-05 8.703927362015e-03 0.0 
0.0 0.0 -1.267437373369e-03 
-8.565153591280e-04 -2.695301549172e-04 0.0 
-2.695301549172e-04 5.568894745570e-03 0.0 
0.0 0.0 -8.543707170918e-04 
-9.713226980400e-04 1.946342578752e-04 0.0 
1.946342578752e-04 6.532485670191e-03 0.0 
0.0 0.0 -9.817831382938e-04 
-6.315283379598e-04 -1.826998149001e-04 0.0 
-1.826998149001e-04 4.113094555246e-03 0.0 
0.0 0.0 -6.293189184696e-04 
-5.902450977429e-04 1.623031646131e-04 0.0 
1.623031646131e-04 3.689468477665e-03 0.0 
0.0 0.0 -5.830241378053e-04 
-7.249782629771e-04 1.809288523893e-04 0.0 
1.809288523893e-04 4.673091201127e-03 0.0 
0.0 0.0 -7.211932326589e-04 
-5.403888112139e-04 -1.689543050934e-04 0.0 
-1.689543050934e-04 3.513114326182e-03 0.0 
0.0 0.0 -5.383041810906e-04 
-7.661110268238e-04 -1.968496736507e-04 0.0 
-1.968496736507e-04 5.166653984338e-03 0.0 
0.0 0.0 -7.693993191400e-04 
-6.294182824657e-04 -2.163757471591e-04 0.0 
-2.163757471591e-04 4.099286379753e-03 0.0 
0.0 0.0 -6.275039421266e-04 
-9.046107145188e-05 -7.326081393839e-05 0.0 
-7.326081393839e-05 3.093039216748e-04 0.0 
0.0 0.0 -9.378979295270e-05 
-8.218888591145e-04 -1.362265050326e-05 0.0 
-1.362265050326e-05 5.568518320124e-03 0.0 
0.0 0.0 -8.171079392438e-04 
-2.708662158631e-04 3.135426371168e-06 0.0 
3.135426371168e-06 1.198400692882e-03 0.0 
0.0 0.0 -2.373169254524e-04 
-6.825469564227e-04 -1.538944897682e-04 0.0 
-1.538944897682e-04 4.493577698030e-03 0.0 
0.0 0.0 -6.809683978454e-04 
-1.266750237588e-03 4.200148413726e-06 0.0 
4.200148413726e-06 8.473073137795e-03 0.0 
0.0 0.0 -1.284796145094e-03 
-4.841925383156e-04 2.284371901658e-04 0.0 
2.284371901658e-04 3.002882293729e-03 0.0 
0.0 0.0 -4.767992880414e-04 
-1.020870051269e-03 2.043993854783e-04 0.0 
2.043993854783e-04 6.818231983257e-03 0.0 
0.0 0.0 -1.021089721936e-03 
-3.490407114895e-04 -2.220876940666e-04 0.0 
-2.220876940666e-04 2.148206482994e-03 0.0 
0.0 0.0 -3.540742325023e-04 
-1.043282338519e-03 2.368159947987e-04 0.0 
2.368159947987e-04 6.958410863996e-03 0.0 
0.0 0.0 -1.044905595188e-03 
-8.013630412540e-04 6.389824081856e-06 0.0 
6.389824081856e-06 5.002686662292e-03 0.0 
0.0 0.0 -7.899655494116e-04 
-5.947683694498e-04 2.081256616156e-04 0.0 
2.081256616156e-04 3.787155443009e-03 0.0 
0.0 0.0 -5.931463391684e-04 
-1.121794229525e-03 -2.159685184143e-04 0.0 
-2.159685184143e-04 7.508906289541e-03 0.0 
0.0 0.0 -1.120963572432e-03 
-2.180914166738e-04 1.756512204206e-04 0.0 
1.756512204206e-04 1.241780399830e-03 0.0 
0.0 0.0 -2.346376350630e-04 
-1.178651579784e-03 2.200776692921e-04 0.0 
2.200776692921e-04 7.962810812677e-03 0.0 
0.0 0.0 -1.189111243166e-03 
-7.770557330009e-04 1.799043213504e-04 0.0 
1.799043213504e-04 5.036915018676e-03 0.0 
0.0 0.0 -7.711223959738e-04 
-1.280064085681e-03 1.291641233303e-05 0.0 
1.291641233303e-05 8.715123744244e-03 0.0 
0.0 0.0 -1.265987209193e-03 
-7.886647595985e-04 2.426638412845e-05 0.0 
2.426638412845e-05 5.002569468986e-03 0.0 
0.0 0.0 -7.842605076999e-04 
-5.085061027866e-04 1.624719349288e-04 0.0 
1.624719349288e-04 3.132188298831e-03 0.0 
0.0 0.0 -5.042822341261e-04 
-6.680122214844e-04 1.543414038776e-04 0.0 
1.543414038776e-04 4.389762745766e-03 0.0 
0.0 0.0 -6.840799553763e-04 
-9.007934225225e-04 -1.247506640907e-04 0.0 
-1.247506640907e-04 5.946782140169e-03 0.0 
0.0 0.0 -8.722824885218e-04 
-3.656654935953e-04 2.470171187882e-04 0.0 
2.470171187882e-04 2.250740956869e-03 0.0 
0.0 0.0 -3.514598124168e-04 
-5.924594186081e-04 -2.113287385343e-04 0.0 
-2.113287385343e-04 3.843594924053e-03 0.0 
0.0 0.0 -5.911455407098e-04 
-1.021044424836e-03 -2.319523584093e-04 0.0 
-2.319523584093e-04 6.800629387681e-03 0.0 
0.0 0.0 -1.016465148841e-03 
-7.832948860764e-04 1.542506256291e-04 0.0 
1.542506256291e-04 5.221219062028e-03 0.0 
0.0 0.0 -7.680022369673e-04 
-5.676669992827e-04 1.711896275723e-04 0.0 
1.711896275723e-04 3.564089172862e-03 0.0 
0.0 0.0 -5.666226778950e-04 
-6.536822883720e-04 1.457424227352e-04 0.0 
1.457424227352e-04 4.156474681676e-03 0.0 
0.0 0.0 -6.498546761489e-04 
-1.132270982308e-03 2.069255922966e-04 0.0 
2.069255922966e-04 7.587995835191e-03 0.0 
0.0 0.0 -1.136725521675e-03 
-6.243703934397e-04 -5.657386080576e-05 0.0 
-5.657386080576e-05 4.179915537147e-03 0.0 
0.0 0.0 -6.189190723244e-04 
-1.269582323065e-03 5.358509534069e-05 0.0 
5.358509534069e-05 8.454036067307e-03 0.0 
0.0 0.0 -1.285202198870e-03 
-1.273584082277e-03 -3.447672338952e-05 0.0 
-3.447672338952e-05 8.706627272042e-03 0.0 
0.0 0.0 -1.265486236287e-03 
-4.574522532321e-04 -1.366919469267e-04 0.0 
-1.366919469267e-04 2.968706494426e-03 0.0 
0.0 0.0 -4.595713030950e-04 
-6.193411254739e-04 7.190453835515e-05 0.0 
7.190453835515e-05 3.976368456989e-03 0.0 
0.0 0.0 -6.385407451345e-04 
-1.157661612575e-03 -1.951807319381e-04 0.0 
-1.951807319381e-04 7.743964299132e-03 0.0 
0.0 0.0 -1.152822474774e-03 
-6.058642039217e-04 -1.568622492918e-04 0.0 
-1.568622492918e-04 3.943482715706e-03 0.0 
0.0 0.0 -6.037256927378e-04 
-4.410111678775e-04 1.646945023678e-04 0.0 
1.646945023678e-04 2.528625053889e-03 0.0 
0.0 0.0 -4.251746348339e-04 
-7.492101616993e-04 1.773144067430e-04 0.0 
1.773144067430e-04 4.849787455535e-03 0.0 
0.0 0.0 -7.443430781256e-04 
-6.015846242072e-04 -1.692904042825e-04 0.0 
-1.692904042825e-04 3.951833046067e-03 0.0 
0.0 0.0 -6.011186688906e-04 
-1.288763796550e-03 1.231833412492e-04 0.0 
1.231833412492e-04 8.478545606423e-03 0.0 
0.0 0.0 -1.279059907835e-03 
-1.060544670799e-03 1.938342500095e-04 0.0 
1.938342500095e-04 7.027045279308e-03 0.0 
0.0 0.0 -1.060691896764e-03 
-1.152244772895e-03 2.285095076535e-04 0.0 
2.285095076535e-04 7.745399107629e-03 0.0 
0.0 0.0 -1.155968210243e-03 
-2.882194771885e-04 -2.173510090809e-04 0.0 
-2.173510090809e-04 1.694759427097e-03 0.0 
0.0 0.0 -2.852154713500e-04 
-5.567709701176e-04 -1.966656427986e-04 0.0 
-1.966656427986e-04 3.599381630168e-03 0.0 
0.0 0.0 -5.558335581882e-04 
-1.085941057106e-03 1.940613560135e-04 0.0 
1.940613560135e-04 7.224719901000e-03 0.0 
0.0 0.0 -1.089453766084e-03 
-2.843827826560e-05 -1.788898447614e-05 0.0 
-1.788898447614e-05 1.853186358372e-04 0.0 
0.0 0.0 -4.453055683374e-05 
-6.135292459430e-04 1.555358498214e-04 0.0 
1.555358498214e-04 3.889243112960e-03 0.0 
0.0 0.0 -6.073871274648e-04 
-1.080867878280e-03 -2.316454551773e-04 0.0 
-2.316454551773e-04 7.249333231753e-03 0.0 
0.0 0.0 -1.080675545910e-03 
-1.764831160191e-04 -8.217578917015e-05 0.0 
-8.217578917015e-05 1.019550636912e-03 0.0 
0.0 0.0 -1.605608400042e-04 
-1.238595889810e-03 2.354517143286e-04 0.0 
2.354517143286e-04 8.471121261651e-03 0.0 
0.0 0.0 -1.257517519450e-03 
-9.713207705103e-04 1.946323764392e-04 0.0 
1.946323764392e-04 6.442137433534e-03 0.0 
0.0 0.0 -9.749624431058e-04 
-5.981973631964e-04 1.879071448913e-04 0.0 
1.879071448913e-04 3.813329018576e-03 0.0 
0.0 0.0 -5.995223474422e-04 
-1.084348145166e-03 2.392214872560e-04 0.0 
2.392214872560e-04 7.212887026288e-03 0.0 
0.0 0.0 -1.082135573042e-03 
-8.219004318722e-04 -1.022855745570e-05 0.0 
-1.022855745570e-05 5.626191621956e-03 0.0 
0.0 0.0 -8.259898420369e-04 
-8.600931526372e-04 -1.614882484442e-04 0.0 
-1.614882484442e-04 5.932770930688e-03 0.0 
0.0 0.0 -8.838609275114e-04 
-1.235110349403e-03 -1.423085779250e-04 0.0 
-1.423085779250e-04 8.282740067778e-03 0.0 
0.0 0.0 -1.237791025003e-03 
-4.556209105529e-04 2.036420794211e-04 0.0 
2.036420794211e-04 2.823352627341e-03 0.0 
0.0 0.0 -4.583583101839e-04 
-7.508195319224e-04 1.853886358928e-04 0.0 
1.853886358928e-04 4.860963236206e-03 0.0 
0.0 0.0 -7.480401524272e-04 
-8.027906713221e-04 1.764875410810e-04 0.0 
1.764875410810e-04 5.221920557136e-03 0.0 
0.0 0.0 -7.988399675000e-04 
-1.007530328557e-03 -1.922336022122e-04 0.0 
-1.922336022122e-04 6.759039767951e-03 0.0 
0.0 0.0 -1.008548823165e-03 
-8.112396533280e-04 -1.820827880749e-04 0.0 
-1.820827880749e-04 5.334789694812e-03 0.0 
0.0 0.0 -8.035999206669e-04 
-7.424823838501e-04 -1.611951191526e-04 0.0 
-1.611951191526e-04 4.887914283700e-03 0.0 
0.0 0.0 -7.415510827328e-04 
-9.420049562243e-04 -1.980186569884e-04 0.0 
-1.980186569884e-04 6.275886053793e-03 0.0 
0.0 0.0 -9.414312740916e-04 
-1.106765657790e-03 -2.072912274522e-04 0.0 
-2.072912274522e-04 7.417848919971e-03 0.0 
0.0 0.0 -1.105110859848e-03 
-8.771550322174e-05 -5.128346968192e-06 0.0 
-5.128346968192e-06 5.622743997178e-04 0.0 
0.0 0.0 -1.015871403443e-04 
-4.452411510459e-04 1.078521059611e-04 0.0 
1.078521059611e-04 2.907946245103e-03 0.0 
0.0 0.0 -4.649757541953e-04 
-5.301149448616e-04 1.855290027466e-04 0.0 
1.855290027466e-04 3.290005967673e-03 0.0 
0.0 0.0 -5.249394872960e-04 
-7.215069587739e-04 -1.794285911688e-04 0.0 
-1.794285911688e-04 4.739905292165e-03 0.0 
0.0 0.0 -7.181710532390e-04 
-1.095309768585e-03 -2.099324022586e-04 0.0 
-2.099324022586e-04 7.373113916822e-03 0.0 
0.0 0.0 -1.095076276885e-03 
-2.412241836646e-04 1.824271338482e-04 0.0 
1.824271338482e-04 1.391269291466e-03 0.0 
0.0 0.0 -2.576475407671e-04 
-1.042666947128e-03 -2.211661748355e-04 0.0 
-2.211661748355e-04 6.991049176526e-03 0.0 
0.0 0.0 -1.043355442177e-03 
-7.709980970027e-04 -2.344526007543e-04 0.0 
-2.344526007543e-04 5.001364750652e-03 0.0 
0.0 0.0 -7.763349569542e-04 
-5.598484848317e-04 1.964216387432e-04 0.0 
1.964216387432e-04 3.545883977613e-03 0.0 
0.0 0.0 -5.576783925304e-04 
-1.005904581142e-03 -2.103129090371e-04 0.0 
-2.103129090371e-04 6.739916943409e-03 0.0 
0.0 0.0 -1.006238978475e-03 
-1.328137378895e-04 -1.926409820627e-04 0.0 
-1.926409820627e-04 5.524811366157e-04 0.0 
0.0 0.0 -1.250635456846e-04 
-1.037748486931e-03 2.025826416298e-04 0.0 
2.025826416298e-04 6.894254509779e-03 0.0 
0.0 0.0 -1.040010908530e-03 
-9.586550230840e-05 6.862947183813e-05 0.0 
6.862947183813e-05 5.313753155375e-04 0.0 
0.0 0.0 -1.007187892234e-04 
-1.713724236673e-04 -5.327399001740e-06 0.0 
-5.327399001740e-06 7.517172537926e-04 0.0 
0.0 0.0 -1.819418517600e-04 
-2.796122854916e-04 2.316565417801e-04 0.0 
2.316565417801e-04 1.675994704223e-03 0.0 
0.0 0.0 -2.873666149908e-04 
-3.926605428350e-04 1.733428287043e-04 0.0 
1.733428287043e-04 2.352552718651e-03 0.0 
0.0 0.0 -3.935955730116e-04 
-1.073504857728e-03 -1.857694457952e-04 0.0 
-1.857694457952e-04 7.207934761623e-03 0.0 
0.0 0.0 -1.073797489760e-03 
-3.651136453237e-04 -1.928839212764e-04 0.0 
-1.928839212764e-04 2.293609592088e-03 0.0 
0.0 0.0 -3.637595386041e-04 
-3.442210319021e-04 1.764997975595e-04 0.0 
1.764997975595e-04 2.032847714738e-03 0.0 
0.0 0.0 -3.432832105208e-04 
-2.910729329918e-04 -1.809308260193e-04 0.0 
-1.809308260193e-04 1.763076573158e-03 0.0 
0.0 0.0 -2.922710279673e-04 
-2.622356291375e-04 1.892606687832e-04 0.0 
1.892606687832e-04 1.448318780246e-03 0.0 
0.0 0.0 -2.614315927221e-04 
-1.120397219207e-03 1.996859117335e-04 0.0 
1.996859117335e-04 7.447331785752e-03 0.0 
0.0 0.0 -1.117524173959e-03 
-7.717946648580e-04 -1.881039575464e-04 0.0 
-1.881039575464e-04 5.076611576995e-03 0.0 
0.0 0.0 -7.687972329812e-04 
-1.256202704630e-03 2.478526914498e-04 0.0 
2.478526914498e-04 8.487594918351e-03 0.0 
0.0 0.0 -1.256743614961e-03 
0.0 0.0 0.0 
0.0 0.0 0.0 
0.0 0.0 0.0 
-4.048716956913e-04 1.853052298050e-04 0.0 
1.853052298050e-04 2.461420572415e-03 0.0 
0.0 0.0 -4.044045206172e-04 
-6.239445424560e-04 2.046361178611e-04 0.0 
2.046361178611e-04 3.992995746549e-03 0.0 
0.0 0.0 -6.230907113744e-04 
-5.740868944919e-04 1.850315981272e-04 0.0 
1.850315981272e-04 3.613473978480e-03 0.0 
0.0 0.0 -5.709397776106e-04 
-1.047068133195e-03 2.230470659994e-04 0.0 
2.230470659994e-04 6.949500072304e-03 0.0 
0.0 0.0 -1.045235091131e-03 
-1.285400109254e-03 1.957478292084e-04 0.0 
1.957478292084e-04 8.698618921316e-03 0.0 
0.0 0.0 -1.275930989368e-03 
-1.029713153133e-03 -2.056143237118e-04 0.0 
-2.056143237118e-04 6.913851891301e-03 0.0 
0.0 0.0 -1.029499106509e-03 
-4.579566149125e-04 -1.884217374257e-04 0.0 
-1.884217374257e-04 2.912212194121e-03 0.0 
0.0 0.0 -4.564841486881e-04 
-1.120831572504e-03 -1.912348279818e-04 0.0 
-1.912348279818e-04 7.467678576310e-03 0.0 
0.0 0.0 -1.116166892424e-03 
-9.572670568062e-04 2.571263954151e-04 0.0 
2.571263954151e-04 6.316374419588e-03 0.0 
0.0 0.0 -9.512440159151e-04 
-7.570218913511e-04 -1.787629418728e-04 0.0 
-1.787629418728e-04 4.987297939344e-03 0.0 
0.0 0.0 -7.537083776970e-04 
-9.994998658216e-04 2.045048337302e-04 0.0 
2.045048337302e-04 6.629510214408e-03 0.0 
0.0 0.0 -1.003200534345e-03 
-1.242505065463e-03 -1.591232809489e-04 0.0 
-1.591232809489e-04 8.294319035880e-03 0.0 
0.0 0.0 -1.239730878702e-03 
-6.222328359965e-04 -2.058351298643e-04 0.0 
-2.058351298643e-04 4.057741749781e-03 0.0 
0.0 0.0 -6.206208101913e-04 
-3.761575650769e-04 -1.711217870112e-04 0.0 
-1.711217870112e-04 2.346047162404e-03 0.0 
0.0 0.0 -3.752687577596e-04 
-8.718273414275e-04 -1.903070125199e-04 0.0 
-1.903070125199e-04 5.767456116596e-03 0.0 
0.0 0.0 -8.662621843288e-04 
-1.329807574370e-03 9.926374614623e-05 0.0 
9.926374614623e-05 9.094631735092e-03 0.0 
0.0 0.0 -1.323568725688e-03 
-7.473763321356e-04 -1.878290917317e-04 0.0 
-1.878290917317e-04 4.922460573442e-03 0.0 
0.0 0.0 -7.453270327203e-04 
-7.780710127091e-04 -1.914920916378e-04 0.0 
-1.914920916378e-04 5.142441463468e-03 0.0 
0.0 0.0 -7.768443034385e-04 
-8.403853568470e-04 -5.224028630894e-05 0.0 
-5.224028630894e-05 5.665674692091e-03 0.0 
0.0 0.0 -8.293613651800e-04 
-2.119957057011e-04 -1.175361575481e-04 0.0 
-1.175361575481e-04 1.307524346165e-03 0.0 
0.0 0.0 -2.161141481901e-04 
-8.208799096498e-04 1.843133829192e-04 0.0 
1.843133829192e-04 5.271529166893e-03 0.0 
0.0 0.0 -8.060563724883e-04 
-4.603670611930e-04 1.877974414593e-04 0.0 
1.877974414593e-04 2.847786037855e-03 0.0 
0.0 0.0 -4.590591740919e-04 
-3.265147701176e-04 1.754702989644e-04 0.0 
1.754702989644e-04 1.892353118097e-03 0.0 
0.0 0.0 -3.229397045850e-04 
-2.372523115321e-04 -1.920097841935e-04 0.0 
-1.920097841935e-04 1.297568945568e-03 0.0 
0.0 0.0 -2.426597671045e-04 
-1.076566808285e-03 1.948027566312e-04 0.0 
1.948027566312e-04 7.152792080089e-03 0.0 
0.0 0.0 -1.075985979751e-03 
-8.366892688468e-04 -1.821112197860e-04 0.0 
-1.821112197860e-04 5.525859000099e-03 0.0 
0.0 0.0 -8.312490730234e-04 
-5.408471440859e-04 1.787636598149e-04 0.0 
1.787636598149e-04 3.420100638870e-03 0.0 
0.0 0.0 -5.429493831729e-04 
-1.110558394075e-03 -1.920281890811e-04 0.0 
-1.920281890811e-04 7.461731149687e-03 0.0 
0.0 0.0 -1.109763131677e-03 
-1.054698518121e-03 -2.087025362573e-04 0.0 
-2.087025362573e-04 7.108835153234e-03 0.0 
0.0 0.0 -1.057773507355e-03 
-7.924197653506e-04 -1.785979394266e-04 0.0 
-1.785979394266e-04 5.231483760846e-03 0.0 
0.0 0.0 -7.887050335656e-04 
-1.257903229921e-03 7.567368571964e-05 0.0 
7.567368571964e-05 8.498216080292e-03 0.0 
0.0 0.0 -1.288412101370e-03 
-8.091181034430e-04 1.931976365146e-04 0.0 
1.931976365146e-04 5.284760522789e-03 0.0 
0.0 0.0 -8.078958932737e-04 
-8.263277637736e-04 -1.832084157210e-04 0.0 
-1.832084157210e-04 5.471677470530e-03 0.0 
0.0 0.0 -8.238265297874e-04 
-6.650106902351e-04 -1.791010150322e-04 0.0 
-1.791010150322e-04 4.378261468460e-03 0.0 
0.0 0.0 -6.656476441012e-04 
-8.423857986255e-04 -1.986818351390e-04 0.0 
-1.986818351390e-04 5.587318921638e-03 0.0 
0.0 0.0 -8.413031780454e-04 
-3.899474951329e-04 1.915304819262e-04 0.0 
1.915304819262e-04 2.337472328750e-03 0.0 
0.0 0.0 -3.865807678710e-04 
-8.089876515703e-04 4.490290024569e-05 0.0 
4.490290024569e-05 5.014601975749e-03 0.0 
0.0 0.0 -7.898058234521e-04 
-6.502027287348e-04 -1.918500009786e-04 0.0 
-1.918500009786e-04 4.255074906530e-03 0.0 
0.0 0.0 -6.486359607860e-04 
-4.676332506753e-04 -1.907969004762e-04 0.0 
-1.907969004762e-04 2.994133619140e-03 0.0 
0.0 0.0 -4.681053320140e-04 
-1.032293230965e-03 1.946996800783e-04 0.0 
1.946996800783e-04 6.836459352288e-03 0.0 
0.0 0.0 -1.032318248600e-03 
-4.933492965949e-05 -2.981330854880e-05 0.0 
-2.981330854880e-05 2.232237160484e-04 0.0 
0.0 0.0 -4.491607815645e-05 
-8.460396934351e-04 -1.994951239521e-04 0.0 
-1.994951239521e-04 5.571843201912e-03 0.0 
0.0 0.0 -8.386390795737e-04 
-4.884576987714e-04 1.904916551126e-04 0.0 
1.904916551126e-04 3.043938579203e-03 0.0 
0.0 0.0 -4.870240021111e-04 
-4.011070509712e-04 -1.789938708172e-04 0.0 
-1.789938708172e-04 2.527031405991e-03 0.0 
0.0 0.0 -4.015254440178e-04 
-3.881231226590e-04 -1.849728275912e-04 0.0 
-1.849728275912e-04 2.413136850469e-03 0.0 
0.0 0.0 -3.834586606452e-04 
-9.010939454830e-04 1.820631251065e-04 0.0 
1.820631251065e-04 5.900115668490e-03 0.0 
0.0 0.0 -8.965110541436e-04 
-1.535639171870e-04 -1.171137565838e-04 0.0 
-1.171137565838e-04 9.290832055632e-04 0.0 
0.0 0.0 -1.609926926485e-04 
-5.642000446768e-04 1.829010286562e-04 0.0 
1.829010286562e-04 3.554613982315e-03 0.0 
0.0 0.0 -5.613503766092e-04 
-8.738800955345e-04 1.908997098881e-04 0.0 
1.908997098881e-04 5.736495439307e-03 0.0 
0.0 0.0 -8.726802719924e-04 
-8.424168210172e-04 1.809379834970e-04 0.0 
1.809379834970e-04 5.460364861261e-03 0.0 
0.0 0.0 -8.336838631977e-04 
-8.483140592107e-04 -2.570000340280e-05 0.0 
-2.570000340280e-05 5.646419876325e-03 0.0 
0.0 0.0 -8.301023967811e-04 
-2.301022018194e-04 1.896537110150e-04 0.0 
1.896537110150e-04 1.205962353600e-03 0.0 
0.0 0.0 -2.187087652219e-04 
-4.708793642351e-04 1.959468275412e-04 0.0 
1.959468275412e-04 2.928096743676e-03 0.0 
0.0 0.0 -4.706942212664e-04 
-4.339228685620e-04 -2.028732675090e-04 0.0 
-2.028732675090e-04 2.736979889631e-03 0.0 
0.0 0.0 -4.311372127493e-04 
-4.979504220915e-04 -1.685324817791e-04 0.0 
-1.685324817791e-04 3.206245351086e-03 0.0 
0.0 0.0 -4.957039317942e-04 
-1.001539925556e-03 -2.124102205074e-04 0.0 
-2.124102205074e-04 6.704131800771e-03 0.0 
0.0 0.0 -1.000663671924e-03 
-5.607402459633e-04 -1.707949003296e-04 0.0 
-1.707949003296e-04 3.631087283813e-03 0.0 
0.0 0.0 -5.577786207633e-04 
-6.163072057110e-04 1.894419522333e-04 0.0 
1.894419522333e-04 3.933506140839e-03 0.0 
0.0 0.0 -6.151539951222e-04 
-5.883906607909e-04 1.932241182488e-04 0.0 
1.932241182488e-04 3.740119885148e-03 0.0 
0.0 0.0 -5.868308051845e-04 
-2.691521273047e-04 -2.036688762201e-04 0.0 
-2.036688762201e-04 1.523725894567e-03 0.0 
0.0 0.0 -2.530049833111e-04 
-6.958714508921e-04 1.979801814588e-04 0.0 
1.979801814588e-04 4.490850522134e-03 0.0 
0.0 0.0 -6.959382511914e-04 
-2.861043400586e-04 -1.894415141014e-04 0.0 
-1.894415141014e-04 1.663430798726e-03 0.0 
0.0 0.0 -2.788248838327e-04 
-1.306755613337e-03 -2.610599304159e-06 0.0 
-2.610599304159e-06 9.100164486650e-03 0.0 
0.0 0.0 -1.321446319728e-03 
-1.339174511630e-03 -2.960517267119e-05 0.0 
-2.960517267119e-05 9.091242340448e-03 0.0 
0.0 0.0 -1.318029376683e-03 
-7.775136936643e-04 1.870350143581e-04 0.0 
1.870350143581e-04 5.054396183358e-03 0.0 
0.0 0.0 -7.755312068111e-04 
-4.251819947504e-04 1.895457374981e-04 0.0 
1.895457374981e-04 2.596133538266e-03 0.0 
0.0 0.0 -4.232985079168e-04 
-3.648329347482e-04 -1.837358985601e-04 0.0 
-1.837358985601e-04 2.280199425849e-03 0.0 
0.0 0.0 -3.659709354871e-04 
-8.573750887322e-04 1.858228230961e-04 0.0 
1.858228230961e-04 5.602884265534e-03 0.0 
0.0 0.0 -8.539191708180e-04 
-3.949528212466e-04 -1.886728582840e-04 0.0 
-1.886728582840e-04 2.475291397225e-03 0.0 
0.0 0.0 -3.930530440640e-04 
-4.332493895502e-04 1.980298907227e-04 0.0 
1.980298907227e-04 2.665937605433e-03 0.0 
0.0 0.0 -4.339875075689e-04 
-7.596321613464e-04 1.775287963431e-04 0.0 
1.775287963431e-04 4.918201734153e-03 0.0 
0.0 0.0 -7.563811545761e-04 
-1.287984799363e-03 -3.860068533034e-05 0.0 
-3.860068533034e-05 8.730948327736e-03 0.0 
0.0 0.0 -1.266640259566e-03 
-5.240495846064e-04 1.944963688322e-04 0.0 
1.944963688322e-04 3.293655739787e-03 0.0 
0.0 0.0 -5.226246958029e-04 
-9.447998235248e-04 1.960929665842e-04 0.0 
1.960929665842e-04 6.232881478096e-03 0.0 
0.0 0.0 -9.428115367422e-04 
-3.107562741713e-04 1.824587312734e-04 0.0 
1.824587312734e-04 1.780558679157e-03 0.0 
0.0 0.0 -3.076624342134e-04 
-1.311994729519e-03 7.493212939931e-06 0.0 
7.493212939931e-06 9.101970930917e-03 0.0 
0.0 0.0 -1.322863172658e-03 
-3.967767638388e-04 1.868417767076e-04 0.0 
1.868417767076e-04 2.404071077719e-03 0.0 
0.0 0.0 -3.959736908235e-04 
-7.861913752228e-04 1.858440032300e-04 0.0 
1.858440032300e-04 5.109311146391e-03 0.0 
0.0 0.0 -7.835188407615e-04 
-2.939612478103e-04 2.069489564745e-04 0.0 
2.069489564745e-04 1.627899719100e-03 0.0 
0.0 0.0 -2.855287480241e-04 
-9.209672284179e-04 1.890725882863e-04 0.0 
1.890725882863e-04 6.061382275032e-03 0.0 
0.0 0.0 -9.211625808215e-04 
-6.527425537756e-04 1.919833722786e-04 0.0 
1.919833722786e-04 4.182126969127e-03 0.0 
0.0 0.0 -6.516619296807e-04 
-4.643737788932e-04 1.911497819079e-04 0.0 
1.911497819079e-04 2.873282577301e-03 0.0 
0.0 0.0 -4.625367401933e-04 
-8.005133107045e-04 -1.849372706410e-04 0.0 
-1.849372706410e-04 5.279390117932e-03 0.0 
0.0 0.0 -7.963903837170e-04 
-1.325618080026e-03 -1.973193103071e-05 0.0 
-1.973193103071e-05 9.091764273344e-03 0.0 
0.0 0.0 -1.324865334549e-03 
-5.527714494018e-04 1.888052696333e-04 0.0 
1.888052696333e-04 3.488692206257e-03 0.0 
0.0 0.0 -5.510338386786e-04 
-8.711724193672e-04 -1.970525444520e-04 0.0 
-1.970525444520e-04 5.796794660819e-03 0.0 
0.0 0.0 -8.703234504572e-04 
-3.052115937338e-04 -1.690052037768e-04 0.0 
-1.690052037768e-04 1.853679927901e-03 0.0 
0.0 0.0 -3.041533380166e-04 
-9.585285003453e-04 2.099575339622e-04 0.0 
2.099575339622e-04 6.326919234623e-03 0.0 
0.0 0.0 -9.576894438039e-04 
-1.007861502229e-03 2.071557397888e-04 0.0 
2.071557397888e-04 6.684066242240e-03 0.0 
0.0 0.0 -1.008345180213e-03 
-4.131133098155e-04 -1.786065448845e-04 0.0 
-1.786065448845e-04 2.602572281114e-03 0.0 
0.0 0.0 -4.109515902261e-04 
-9.327998617516e-04 -1.874311411832e-04 0.0 
-1.874311411832e-04 6.181670543660e-03 0.0 
0.0 0.0 -9.257128893455e-04 
-1.323570257858e-03 1.323150738932e-05 0.0 
1.323150738932e-05 9.099733073090e-03 0.0 
0.0 0.0 -1.322580803729e-03 
-1.076618962997e-03 1.898018198415e-04 0.0 
1.898018198415e-04 7.144327477010e-03 0.0 
0.0 0.0 -1.075861678316e-03 
-1.321614991336e-03 -1.713273005328e-05 0.0 
-1.713273005328e-05 9.105058184061e-03 0.0 
0.0 0.0 -1.322091174222e-03 
-9.079440508185e-04 -2.097847460126e-04 0.0 
-2.097847460126e-04 6.119714420928e-03 0.0 
0.0 0.0 -9.196498359204e-04 
-1.050990778737e-03 -1.886314367516e-04 0.0 
-1.886314367516e-04 7.044669431277e-03 0.0 
0.0 0.0 -1.048263655743e-03 
-3.511245847016e-04 -1.953891657847e-04 0.0 
-1.953891657847e-04 2.144448464187e-03 0.0 
0.0 0.0 -3.491910591611e-04 
-7.374872672360e-04 -1.803640936936e-04 0.0 
-1.803640936936e-04 4.844525720206e-03 0.0 
0.0 0.0 -7.343713905234e-04 
-8.293244045422e-04 1.837550643811e-04 0.0 
1.837550643811e-04 5.409584064822e-03 0.0 
0.0 0.0 -8.263924940540e-04 
-8.620298851759e-04 -1.867239000812e-04 0.0 
-1.867239000812e-04 5.715504193618e-03 0.0 
0.0 0.0 -8.589723558544e-04 
-7.110415388042e-04 -1.855413705945e-04 0.0 
-1.855413705945e-04 4.678427107823e-03 0.0 
0.0 0.0 -7.101745248689e-04 
-1.326686360805e-03 -1.171732242917e-05 0.0 
-1.171732242917e-05 9.109208916885e-03 0.0 
0.0 0.0 -1.322334986692e-03 
-8.655458594579e-04 1.438711959111e-04 0.0 
1.438711959111e-04 5.877137978370e-03 0.0 
0.0 0.0 -8.810748613436e-04 
-7.842175920213e-04 -1.730041151838e-04 0.0 
-1.730041151838e-04 5.148772658244e-03 0.0 
0.0 0.0 -7.763708431881e-04 
-5.855858139709e-04 -1.935639285694e-04 0.0 
-1.935639285694e-04 3.803586164403e-03 0.0 
0.0 0.0 -5.843899590101e-04 
-3.295388154563e-04 1.889565951280e-04 0.0 
1.889565951280e-04 1.906230365352e-03 0.0 
0.0 0.0 -3.280768480529e-04 
-7.085854070096e-04 -1.812057133811e-04 0.0 
-1.812057133811e-04 4.648076014877e-03 0.0 
0.0 0.0 -7.069124235890e-04 
-4.422183154956e-04 1.870641756049e-04 0.0 
1.870641756049e-04 2.708861584455e-03 0.0 
0.0 0.0 -4.404772202000e-04 
-7.723719974628e-04 -4.140062150847e-05 0.0 
-4.140062150847e-05 5.256708913763e-03 0.0 
0.0 0.0 -7.696142143080e-04 
-4.606920221105e-04 -1.852355893198e-04 0.0 
-1.852355893198e-04 2.942829590752e-03 0.0 
0.0 0.0 -4.595640944490e-04 
-5.214756889107e-04 -1.931035456200e-04 0.0 
-1.931035456200e-04 3.354332559651e-03 0.0 
0.0 0.0 -5.202658224677e-04 
-1.068256360121e-03 2.066714883779e-04 0.0 
2.066714883779e-04 7.094366600133e-03 0.0 
0.0 0.0 -1.069052450572e-03 
-4.377877323945e-04 -1.833633178395e-04 0.0 
-1.833633178395e-04 2.778061496653e-03 0.0 
0.0 0.0 -4.372567615832e-04 
-7.685639283948e-04 1.832765112525e-04 0.0 
1.832765112525e-04 4.976704183313e-03 0.0 
0.0 0.0 -7.640689829422e-04 
-9.023009032283e-04 1.879763697979e-04 0.0 
1.879763697979e-04 5.928541464362e-03 0.0 
0.0 0.0 -9.014246907137e-04 
-8.033627654917e-04 1.978900666673e-04 0.0 
1.978900666673e-04 5.248675409053e-03 0.0 
0.0 0.0 -8.035328976187e-04 
-1.305960172853e-03 -2.095892658954e-06 0.0 
-2.095892658954e-06 9.102496999303e-03 0.0 
0.0 0.0 -1.324762665914e-03 
-6.445820078637e-04 -1.678202773937e-04 0.0 
-1.678202773937e-04 4.194265313441e-03 0.0 
0.0 0.0 -6.390224077203e-04 
-4.435428954873e-04 1.964051911317e-04 0.0 
1.964051911317e-04 2.726576725320e-03 0.0 
0.0 0.0 -4.422638729430e-04 
-5.680634224624e-04 -1.789976648693e-04 0.0 
-1.789976648693e-04 3.709617648682e-03 0.0 
0.0 0.0 -5.691257024010e-04 
-4.282333792407e-04 -1.482446945053e-04 0.0 
-1.482446945053e-04 2.644915346169e-03 0.0 
0.0 0.0 -4.184705811166e-04 
-4.155606553471e-04 1.953855919425e-04 0.0 
1.953855919425e-04 2.537485002560e-03 0.0 
0.0 0.0 -4.141309408042e-04 
-1.124019592153e-03 -2.007331567345e-04 0.0 
-2.007331567345e-04 7.565647962713e-03 0.0 
0.0 0.0 -1.123886314723e-03 
-8.186901870458e-04 -1.867352575881e-04 0.0 
-1.867352575881e-04 5.417532343351e-03 0.0 
0.0 0.0 -8.161479701220e-04 
-5.717796681143e-04 -1.878963187406e-04 0.0 
-1.878963187406e-04 3.680777609877e-03 0.0 
0.0 0.0 -5.672387349321e-04 
-7.059258560287e-04 1.849400511517e-04 0.0 
1.849400511517e-04 4.547028472385e-03 0.0 
0.0 0.0 -7.023794137935e-04 
-1.322670125945e-03 2.313222592221e-05 0.0 
2.313222592221e-05 9.105794211902e-03 0.0 
0.0 0.0 -1.320675234999e-03 
-1.261246667212e-03 -1.446740378059e-04 0.0 
-1.446740378059e-04 8.590068615086e-03 0.0 
0.0 0.0 -1.258064670439e-03 
-1.122100566517e-03 1.986464603035e-04 0.0 
1.986464603035e-04 7.484284741315e-03 0.0 
0.0 0.0 -1.126590436115e-03 
-1.036201990782e-03 -1.951775890561e-04 0.0 
-1.951775890561e-04 6.963709654535e-03 0.0 
0.0 0.0 -1.037522200811e-03 
-7.719052834795e-04 -1.888501304091e-04 0.0 
-1.888501304091e-04 5.114447170550e-03 0.0 
0.0 0.0 -7.721428985420e-04 
-5.862259843954e-04 -1.794669617907e-04 0.0 
-1.794669617907e-04 3.806767764826e-03 0.0 
0.0 0.0 -5.842812205453e-04 
-4.235649518209e-04 -1.883881554872e-04 0.0 
-1.883881554872e-04 2.667804805964e-03 0.0 
0.0 0.0 -4.203166018452e-04 
-4.860729007889e-04 -1.885252844673e-04 0.0 
-1.885252844673e-04 3.110387779237e-03 0.0 
0.0 0.0 -4.843489805398e-04 
-7.832353818819e-04 -1.822378049693e-04 0.0 
-1.822378049693e-04 5.173491727743e-03 0.0 
0.0 0.0 -7.808727949117e-04 
-8.901416230107e-04 -1.942852983017e-04 0.0 
-1.942852983017e-04 5.937129717394e-03 0.0 
0.0 0.0 -8.900964085843e-04 
-6.791455967190e-04 -1.986004150700e-04 0.0 
-1.986004150700e-04 4.477294610112e-03 0.0 
0.0 0.0 -6.810091006415e-04 
-1.137984490542e-03 2.026763925672e-04 0.0 
2.026763925672e-04 7.560494271962e-03 0.0 
0.0 0.0 -1.134236807130e-03 
-4.390058928460e-04 -1.873042743236e-04 0.0 
-1.873042743236e-04 2.794180260139e-03 0.0 
0.0 0.0 -4.395655422792e-04 
-6.752152374307e-04 -1.860595742758e-04 0.0 
-1.860595742758e-04 4.431501668800e-03 0.0 
0.0 0.0 -6.750378637491e-04 
-7.938192706807e-04 1.817389384797e-04 0.0 
1.817389384797e-04 5.160116736331e-03 0.0 
0.0 0.0 -7.913284153978e-04 
-6.120290380758e-04 -1.961653994372e-04 0.0 
-1.961653994372e-04 3.987310124629e-03 0.0 
0.0 0.0 -6.122259156574e-04 
-1.301288756895e-03 -2.045275430418e-05 0.0 
-2.045275430418e-05 9.103514886722e-03 0.0 
0.0 0.0 -1.320088186226e-03 
-1.336559860406e-03 5.304668224227e-05 0.0 
5.304668224227e-05 9.092320412842e-03 0.0 
0.0 0.0 -1.318462653075e-03 
-1.241699233935e-03 -2.254253931460e-04 0.0 
-2.254253931460e-04 8.519567921102e-03 0.0 
0.0 0.0 -1.256494544188e-03 
-8.370305663977e-04 -1.942067132543e-04 0.0 
-1.942067132543e-04 5.564466733165e-03 0.0 
0.0 0.0 -8.375255977276e-04 
-1.112341827327e-03 1.928139267360e-04 0.0 
1.928139267360e-04 7.404901105712e-03 0.0 
0.0 0.0 -1.112065035246e-03 
-3.806812841048e-04 1.778946636946e-04 0.0 
1.778946636946e-04 2.279220825059e-03 0.0 
0.0 0.0 -3.785953687517e-04 
-5.494616984378e-04 -1.888416104626e-04 0.0 
-1.888416104626e-04 3.555923799118e-03 0.0 
0.0 0.0 -5.483018170244e-04 
-3.235962926905e-04 -1.736014947489e-04 0.0 
-1.736014947489e-04 1.973084689826e-03 0.0 
0.0 0.0 -3.192951451658e-04 
-5.963652417524e-04 -1.773931756756e-04 0.0 
-1.773931756756e-04 3.870665993091e-03 0.0 
0.0 0.0 -5.936226173563e-04 
-7.754418230907e-04 -1.787983897600e-05 0.0 
-1.787983897600e-05 4.998811631156e-03 0.0 
0.0 0.0 -7.914980036671e-04 
-9.191665137011e-04 2.140245341565e-04 0.0 
2.140245341565e-04 6.074527525348e-03 0.0 
0.0 0.0 -9.214502702889e-04 
-1.272306740568e-03 -2.183792906184e-06 0.0 
-2.183792906184e-06 8.701539900471e-03 0.0 
0.0 0.0 -1.265403586923e-03 
-1.115465796476e-03 2.144802209519e-04 0.0 
2.144802209519e-04 7.405352776166e-03 0.0 
0.0 0.0 -1.117224974728e-03 
-8.719756485576e-04 1.796746755415e-04 0.0 
1.796746755415e-04 5.704231125349e-03 0.0 
0.0 0.0 -8.687609488834e-04 
-8.934000445298e-04 1.842629385947e-04 0.0 
1.842629385947e-04 5.848617048582e-03 0.0 
0.0 0.0 -8.891947744737e-04 
-3.538517022684e-04 1.968822651903e-04 0.0 
1.968822651903e-04 2.082939193951e-03 0.0 
0.0 0.0 -3.496852078947e-04 
-1.730179310378e-04 3.799515299484e-05 0.0 
3.799515299484e-05 9.814996314958e-04 0.0 
0.0 0.0 -1.610244214183e-04 
-6.605957920443e-04 2.008091445531e-04 0.0 
2.008091445531e-04 4.241664916870e-03 0.0 
0.0 0.0 -6.594106982652e-04 
-7.382500259091e-04 -1.861061436275e-04 0.0 
-1.861061436275e-04 4.870305797290e-03 0.0 
0.0 0.0 -7.376142925499e-04 
-6.935826622016e-04 -1.974963449897e-04 0.0 
-1.974963449897e-04 4.557561403420e-03 0.0 
0.0 0.0 -6.931905564145e-04 
-1.927200046455e-04 1.907407866213e-04 0.0 
1.907407866213e-04 9.362068114562e-04 0.0 
0.0 0.0 -1.839988823918e-04 
-8.553897316391e-04 7.952460625499e-05 0.0 
7.952460625499e-05 5.374666730048e-03 0.0 
0.0 0.0 -8.462285223656e-04 
-3.012637912477e-04 -1.970081127766e-04 0.0 
-1.970081127766e-04 1.826424334369e-03 0.0 
0.0 0.0 -2.972104253142e-04 
-4.320291499202e-04 1.924639625951e-04 0.0 
1.924639625951e-04 2.652618994648e-03 0.0 
0.0 0.0 -4.314049239902e-04 
-1.341153861134e-03 -1.132581838967e-07 0.0 
-1.132581838967e-07 8.854160665758e-03 0.0 
0.0 0.0 -1.341153861134e-03 
-9.735832254612e-04 -2.032109106710e-04 0.0 
-2.032109106710e-04 6.501326132665e-03 0.0 
0.0 0.0 -9.717687626070e-04 
-8.038658590280e-04 1.841151985619e-04 0.0 
1.841151985619e-04 5.090192522503e-03 0.0 
0.0 0.0 -7.790007367612e-04 
-2.263569738136e-04 1.412068244863e-04 0.0 
1.412068244863e-04 1.378581130634e-03 0.0 
0.0 0.0 -2.176483604987e-04 
-7.148393686400e-04 1.885377903276e-04 0.0 
1.885377903276e-04 4.617805235716e-03 0.0 
0.0 0.0 -7.126719623954e-04 
-6.583475203356e-04 -2.044658051722e-04 0.0 
-2.044658051722e-04 4.303955154821e-03 0.0 
0.0 0.0 -6.569982659716e-04 
-8.980808506785e-04 -1.936520147712e-04 0.0 
-1.936520147712e-04 5.958242186783e-03 0.0 
0.0 0.0 -8.940630110299e-04 
-1.327874025612e-03 4.012442722696e-05 0.0 
4.012442722696e-05 9.098102111315e-03 0.0 
0.0 0.0 -1.323832587333e-03 
-7.403554818969e-04 1.844120078152e-04 0.0 
1.844120078152e-04 4.792048619543e-03 0.0 
0.0 0.0 -7.366500567795e-04 
-8.545868996671e-04 -1.887615407860e-04 0.0 
-1.887615407860e-04 5.662533660862e-03 0.0 
0.0 0.0 -8.513774089097e-04 
-6.818667097911e-04 1.958766515699e-04 0.0 
1.958766515699e-04 4.409131248910e-03 0.0 
0.0 0.0 -6.837695253815e-04 
-1.105187862003e-03 1.994006530663e-04 0.0 
1.994006530663e-04 7.356411437885e-03 0.0 
0.0 0.0 -1.105258581891e-03 
-8.686753316719e-04 1.961023377173e-04 0.0 
1.961023377173e-04 5.708119835605e-03 0.0 
0.0 0.0 -8.691653677727e-04 
-1.313443091824e-03 -8.681857321597e-06 0.0 
-8.681857321597e-06 9.107589922997e-03 0.0 
0.0 0.0 -1.322174839672e-03 
-1.340103718614e-03 2.441833226490e-06 0.0 
2.441833226490e-06 8.842216911178e-03 0.0 
0.0 0.0 -1.340103718614e-03 
-1.341028575724e-03 -6.698781680323e-06 0.0 
-6.698781680323e-06 8.834191149721e-03 0.0 
0.0 0.0 -1.341028575724e-03 
-1.338044909071e-03 -9.989699658946e-07 0.0 
-9.989699658946e-07 8.789076720715e-03 0.0 
0.0 0.0 -1.338044909071e-03 
-9.278953530001e-04 1.830493215192e-04 0.0 
1.830493215192e-04 6.094694774967e-03 0.0 
0.0 0.0 -9.244680137507e-04 
-1.104382085207e-03 -1.844352853963e-04 0.0 
-1.844352853963e-04 7.413030585339e-03 0.0 
0.0 0.0 -1.103002250422e-03 
-1.150866030357e-03 2.083921581833e-04 0.0 
2.083921581833e-04 7.696092280171e-03 0.0 
0.0 0.0 -1.155914796392e-03 
-6.164628833105e-04 2.031183267964e-04 0.0 
2.031183267964e-04 3.927882065764e-03 0.0 
0.0 0.0 -6.147330147620e-04 
-5.911685103850e-04 1.997096464783e-04 0.0 
1.997096464783e-04 3.740736628945e-03 0.0 
0.0 0.0 -5.872917534094e-04 
-6.414807696813e-04 -2.006380451048e-04 0.0 
-2.006380451048e-04 4.218783169969e-03 0.0 
0.0 0.0 -6.436934073013e-04 
-1.134641282245e-03 -2.006695635977e-04 0.0 
-2.006695635977e-04 7.623716292157e-03 0.0 
0.0 0.0 -1.131852245309e-03 
-1.324500994006e-03 -4.966854021233e-06 0.0 
-4.966854021233e-06 9.095768239118e-03 0.0 
0.0 0.0 -1.322440284024e-03 
-1.140227253108e-03 1.951224764733e-04 0.0 
1.951224764733e-04 7.603009729401e-03 0.0 
0.0 0.0 -1.141180801552e-03 
-9.080174246261e-04 -2.037707256769e-04 0.0 
-2.037707256769e-04 6.042971740774e-03 0.0 
0.0 0.0 -9.063345769726e-04 
-1.140612365318e-03 -1.825914620367e-04 0.0 
-1.825914620367e-04 7.661221724928e-03 0.0 
0.0 0.0 -1.138864741757e-03 
-9.895587303989e-04 -1.909996709669e-04 0.0 
-1.909996709669e-04 6.631323534056e-03 0.0 
0.0 0.0 -9.903545940741e-04 
-7.055944550106e-04 1.841650505337e-04 0.0 
1.841650505337e-04 4.559451876543e-03 0.0 
0.0 0.0 -7.049739924763e-04 
-6.005001548623e-04 1.754924819423e-04 0.0 
1.754924819423e-04 3.808564972462e-03 0.0 
0.0 0.0 -5.967387615352e-04 
-3.335508235583e-04 1.892926381390e-04 0.0 
1.892926381390e-04 1.961394351476e-03 0.0 
0.0 0.0 -3.333553686509e-04 
-1.287482303742e-03 9.400486473721e-05 0.0 
9.400486473721e-05 8.494651886701e-03 0.0 
0.0 0.0 -1.282213402295e-03 
-5.782088747012e-04 1.983174571352e-04 0.0 
1.983174571352e-04 3.685190236892e-03 0.0 
0.0 0.0 -5.792479259103e-04 
-1.207490032650e-03 -9.511693616606e-06 0.0 
-9.511693616606e-06 8.106813054446e-03 0.0 
0.0 0.0 -1.230767059693e-03 
-6.442432414831e-04 1.944206160730e-04 0.0 
1.944206160730e-04 4.149320661563e-03 0.0 
0.0 0.0 -6.465396845166e-04 
-4.198574354174e-04 -1.824962637456e-04 0.0 
-1.824962637456e-04 2.680260699037e-03 0.0 
0.0 0.0 -4.222915044375e-04 
-1.273602229187e-03 4.336342551855e-05 0.0 
4.336342551855e-05 8.460076842639e-03 0.0 
0.0 0.0 -1.284312900220e-03 
-4.687866799152e-04 1.866875104872e-04 0.0 
1.866875104872e-04 2.893520146276e-03 0.0 
0.0 0.0 -4.669824892858e-04 
-1.341987455608e-03 1.886578995433e-06 0.0 
1.886578995433e-06 8.838362897947e-03 0.0 
0.0 0.0 -1.341987455608e-03 
-1.296411374061e-03 -1.418949515449e-05 0.0 
-1.418949515449e-05 8.470243795444e-03 0.0 
0.0 0.0 -1.282654109251e-03 
-8.495078228820e-04 1.843107655011e-04 0.0 
1.843107655011e-04 5.547072023185e-03 0.0 
0.0 0.0 -8.462542048450e-04 
-9.255048927816e-05 -2.197953205394e-06 0.0 
-2.197953205394e-06 3.085086574748e-04 0.0 
0.0 0.0 -9.255350065570e-05 
-1.340954708391e-03 7.835804962270e-06 0.0 
7.835804962270e-06 8.838032502772e-03 0.0 
0.0 0.0 -1.340954708391e-03 
-1.280816053348e-03 -2.230055523915e-05 0.0 
-2.230055523915e-05 8.460310632468e-03 0.0 
0.0 0.0 -1.284661450484e-03 
-4.260944399251e-04 1.999732540104e-04 0.0 
1.999732540104e-04 2.608418284960e-03 0.0 
0.0 0.0 -4.253660281670e-04 
-9.365021749047e-04 -1.977008719716e-04 0.0 
-1.977008719716e-04 6.250684752616e-03 0.0 
0.0 0.0 -9.353130867196e-04 
-1.333005063589e-03 4.344781137129e-06 0.0 
4.344781137129e-06 9.114671664273e-03 0.0 
0.0 0.0 -1.323014926434e-03 
0.0 0.0 0.0 
0.0 0.0 0.0 
0.0 0.0 0.0 
-6.428281947913e-04 1.843362204219e-04 0.0 
1.843362204219e-04 4.123262309836e-03 0.0 
0.0 0.0 -6.425506931502e-04 
-8.851411761515e-04 1.851869312967e-04 0.0 
1.851869312967e-04 5.794563189636e-03 0.0 
0.0 0.0 -8.816033652580e-04 
-8.134395165507e-04 1.874953040299e-04 0.0 
1.874953040299e-04 5.300126487808e-03 0.0 
0.0 0.0 -8.109139232486e-04 
-8.225202755535e-04 1.881518984197e-04 0.0 
1.881518984197e-04 5.356080317152e-03 0.0 
0.0 0.0 -8.186613860469e-04 
-3.691769062860e-04 1.916815065321e-04 0.0 
1.916815065321e-04 2.210779207524e-03 0.0 
0.0 0.0 -3.689119447714e-04 
-1.341360672448e-03 -1.189443720158e-06 0.0 
-1.189443720158e-06 8.827889647213e-03 0.0 
0.0 0.0 -1.341360672448e-03 
-6.134329689946e-04 -1.902359328296e-04 0.0 
-1.902359328296e-04 4.002222739952e-03 0.0 
0.0 0.0 -6.123778370825e-04 
-2.202070906779e-04 -1.755376406008e-04 0.0 
-1.755376406008e-04 1.255756531969e-03 0.0 
0.0 0.0 -2.173296945085e-04 
-1.279142293538e-03 5.964349300567e-05 0.0 
5.964349300567e-05 8.727032320364e-03 0.0 
0.0 0.0 -1.272354826527e-03 
-1.022272037248e-04 4.922820238481e-06 0.0 
4.922820238481e-06 5.965869288915e-04 0.0 
0.0 0.0 -1.019437782286e-04 
-6.710661406479e-04 1.855097177597e-04 0.0 
1.855097177597e-04 4.303579593448e-03 0.0 
0.0 0.0 -6.678899790658e-04 
-2.300720776572e-04 1.212201240606e-05 0.0 
1.212201240606e-05 1.125450156733e-03 0.0 
0.0 0.0 -2.365401520142e-04 
-7.086437154644e-04 1.853452857980e-04 0.0 
1.853452857980e-04 4.588815352963e-03 0.0 
0.0 0.0 -7.094882865497e-04 
-1.317968381893e-03 -7.788542654232e-06 0.0 
-7.788542654232e-06 9.086616382280e-03 0.0 
0.0 0.0 -1.321823097425e-03 
-1.341255375116e-03 6.592408687493e-06 0.0 
6.592408687493e-06 8.854311445215e-03 0.0 
0.0 0.0 -1.341255375116e-03 
-8.673920198820e-04 1.847071888206e-04 0.0 
1.847071888206e-04 5.656037287956e-03 0.0 
0.0 0.0 -8.613793510407e-04 
-1.969643249741e-04 -2.643595705587e-05 0.0 
-2.643595705587e-05 7.486662135304e-04 0.0 
0.0 0.0 -1.793976806842e-04 
-1.826266447966e-04 1.955672024509e-04 0.0 
1.955672024509e-04 9.200601904339e-04 0.0 
0.0 0.0 -1.838036673156e-04 
-2.361898229358e-04 4.404631865774e-05 0.0 
4.404631865774e-05 1.375633081646e-03 0.0 
0.0 0.0 -2.179364692381e-04 
-1.125162068454e-03 -1.979567048055e-04 0.0 
-1.979567048055e-04 7.560228932207e-03 0.0 
0.0 0.0 -1.121833217354e-03 
-7.703836607526e-04 2.904011669621e-05 0.0 
2.904011669621e-05 5.271332940567e-03 0.0 
0.0 0.0 -7.704300227928e-04 
-8.168157235620e-04 -2.113983721696e-04 0.0 
-2.113983721696e-04 5.355765378531e-03 0.0 
0.0 0.0 -8.109332722942e-04 
-1.342502730507e-03 5.716067361740e-06 0.0 
5.716067361740e-06 8.856705817959e-03 0.0 
0.0 0.0 -1.342502730507e-03 
-7.906151483404e-04 -4.272528123306e-05 0.0 
-4.272528123306e-05 5.268742702063e-03 0.0 
0.0 0.0 -7.720444664677e-04 
-1.332977220355e-03 1.682402604841e-05 0.0 
1.682402604841e-05 9.104707937730e-03 0.0 
0.0 0.0 -1.322852565091e-03 
-1.019613459442e-03 1.919320256201e-04 0.0 
1.919320256201e-04 6.758525883042e-03 0.0 
0.0 0.0 -1.020998643257e-03 
-8.942284646778e-04 2.014665993212e-04 0.0 
2.014665993212e-04 5.869620442183e-03 0.0 
0.0 0.0 -8.907448815977e-04 
-4.710891496910e-04 1.816013443134e-04 0.0 
1.816013443134e-04 2.782078830397e-03 0.0 
0.0 0.0 -4.477608806526e-04 
-9.397641453592e-04 1.905534962229e-04 0.0 
1.905534962229e-04 6.187842394577e-03 0.0 
0.0 0.0 -9.378661514434e-04 
-2.865699781096e-04 -1.698301048615e-04 0.0 
-1.698301048615e-04 1.797113955835e-03 0.0 
0.0 0.0 -2.938158648993e-04 
-1.340754991027e-03 -4.752011562194e-06 0.0 
-4.752011562194e-06 8.857728678543e-03 0.0 
0.0 0.0 -1.340754991027e-03 
-1.339984467612e-03 2.292869316744e-05 0.0 
2.292869316744e-05 8.807369741469e-03 0.0 
0.0 0.0 -1.339984467612e-03 
-1.340417744004e-03 -2.214851180423e-05 0.0 
-2.214851180423e-05 8.828867002772e-03 0.0 
0.0 0.0 -1.340417744004e-03 
-8.660623943402e-04 -1.943286950290e-04 0.0 
-1.943286950290e-04 5.772294168294e-03 0.0 
0.0 0.0 -8.666500598261e-04 
-6.034856013850e-04 -2.033011263198e-04 0.0 
-2.033011263198e-04 3.957936150372e-03 0.0 
0.0 0.0 -6.062238016986e-04 
-7.026976706329e-04 -1.815126947841e-04 0.0 
-1.815126947841e-04 4.627441659305e-03 0.0 
0.0 0.0 -7.021192356133e-04 
-8.976477462119e-04 1.951708788181e-04 0.0 
1.951708788181e-04 5.904473226514e-03 0.0 
0.0 0.0 -8.981573260837e-04 
-1.339627896631e-03 3.612108462022e-06 0.0 
3.612108462022e-06 8.853033835610e-03 0.0 
0.0 0.0 -1.339627896631e-03 
-4.295950600907e-04 -1.875952713055e-04 0.0 
-1.875952713055e-04 2.717501457664e-03 0.0 
0.0 0.0 -4.287941800800e-04 
-4.990450639494e-04 1.934485922333e-04 0.0 
1.934485922333e-04 3.125390132284e-03 0.0 
0.0 0.0 -4.991860405784e-04 
-5.285799076226e-04 1.852384275300e-04 0.0 
1.852384275300e-04 3.322934541718e-03 0.0 
0.0 0.0 -5.272458293186e-04 
-9.298142287186e-04 1.923659803105e-04 0.0 
1.923659803105e-04 6.128652270364e-03 0.0 
0.0 0.0 -9.279583942086e-04 
-1.339074735525e-03 -2.462351465068e-05 0.0 
-2.462351465068e-05 9.096799452257e-03 0.0 
0.0 0.0 -1.323537156312e-03 
-1.500618556416e-04 1.939391886343e-05 0.0 
1.939391886343e-05 9.791726158994e-04 0.0 
0.0 0.0 -1.598254822437e-04 
-1.340775759057e-03 1.534669228247e-06 0.0 
1.534669228247e-06 8.827931576809e-03 0.0 
0.0 0.0 -1.340775759057e-03 
-4.918224965486e-04 1.956179793808e-04 0.0 
1.956179793808e-04 3.063033243647e-03 0.0 
0.0 0.0 -4.905422085546e-04 
-1.342877878941e-03 2.842270727741e-06 0.0 
2.842270727741e-06 8.853936486152e-03 0.0 
0.0 0.0 -1.342877878941e-03 
-1.156184618631e-03 -1.885719150537e-04 0.0 
-1.885719150537e-04 7.774113329411e-03 0.0 
0.0 0.0 -1.152765850879e-03 
-4.494164570379e-05 1.000468586638e-06 0.0 
1.000468586638e-06 2.551504228595e-04 0.0 
0.0 0.0 -4.576175375704e-05 
-6.699730055747e-04 1.872361539571e-04 0.0 
1.872361539571e-04 4.302808495342e-03 0.0 
0.0 0.0 -6.690559060524e-04 
-1.145839910847e-03 -1.986902778567e-04 0.0 
-1.986902778567e-04 7.714207575352e-03 0.0 
0.0 0.0 -1.146019594970e-03 
-1.341220131281e-03 -2.365934969505e-06 0.0 
-2.365934969505e-06 8.847703773833e-03 0.0 
0.0 0.0 -1.341220131281e-03 
-9.256050002818e-04 -1.923147081747e-04 0.0 
-1.923147081747e-04 6.153846390776e-03 0.0 
0.0 0.0 -9.220067723808e-04 
-1.050351148173e-03 1.970429468761e-04 0.0 
1.970429468761e-04 6.958336458839e-03 0.0 
0.0 0.0 -1.049000704964e-03 
-2.748725954193e-04 1.931705696150e-04 0.0 
1.931705696150e-04 1.524979906539e-03 0.0 
0.0 0.0 -2.717413095444e-04 
-1.208683908170e-03 6.230383996375e-06 0.0 
6.230383996375e-06 8.102506712124e-03 0.0 
0.0 0.0 -1.228682347183e-03 
-5.192327213783e-04 1.909614988804e-04 0.0 
1.909614988804e-04 3.260562468968e-03 0.0 
0.0 0.0 -5.184025592846e-04 
-5.248109421634e-04 -1.803408309234e-04 0.0 
-1.803408309234e-04 3.388681347671e-03 0.0 
0.0 0.0 -5.242929400402e-04 
-1.101238409147e-04 1.624386361106e-05 0.0 
1.624386361106e-05 6.254833965552e-04 0.0 
0.0 0.0 -1.042847928631e-04 
-1.341079611575e-03 1.268157797412e-06 0.0 
1.268157797412e-06 8.837798036775e-03 0.0 
0.0 0.0 -1.341079611575e-03 
-3.602734137550e-04 -1.850324683020e-04 0.0 
-1.850324683020e-04 2.230825920775e-03 0.0 
0.0 0.0 -3.564518745397e-04 
-1.109985979917e-03 -2.052345426402e-04 0.0 
-2.052345426402e-04 7.476883123942e-03 0.0 
0.0 0.0 -1.110501492391e-03 
-8.524872272040e-04 -2.315298743520e-04 0.0 
-2.315298743520e-04 5.680178330686e-03 0.0 
0.0 0.0 -8.555322119248e-04 
-4.402194268268e-04 -1.870881911232e-04 0.0 
-1.870881911232e-04 2.811358430466e-03 0.0 
0.0 0.0 -4.411586999297e-04 
-4.975783628974e-04 -1.914562144177e-04 0.0 
-1.914562144177e-04 3.191209784275e-03 0.0 
0.0 0.0 -4.964677435772e-04 
-8.901378245668e-04 -1.873561009025e-04 0.0 
-1.873561009025e-04 5.908561179355e-03 0.0 
0.0 0.0 -8.867075537039e-04 
-1.342259935407e-03 -1.718040054209e-05 0.0 
-1.718040054209e-05 8.855152000548e-03 0.0 
0.0 0.0 -1.342259935407e-03 
-6.396775884645e-04 1.886079041491e-04 0.0 
1.886079041491e-04 4.098241029371e-03 0.0 
0.0 0.0 -6.378868265889e-04 
-9.691742763952e-04 -2.019742400055e-04 0.0 
-2.019742400055e-04 6.483311990656e-03 0.0 
0.0 0.0 -9.693340058278e-04 
-8.041747505048e-04 1.863000233206e-04 0.0 
1.863000233206e-04 5.244246416890e-03 0.0 
0.0 0.0 -8.030799362305e-04 
-8.818155169255e-04 -1.886653253937e-04 0.0 
-1.886653253937e-04 5.877887840043e-03 0.0 
0.0 0.0 -8.811160271665e-04 
-5.320000478192e-04 -1.863752187475e-04 0.0 
-1.863752187475e-04 3.439757636019e-03 0.0 
0.0 0.0 -5.326451291888e-04 
-9.026994633866e-04 -1.977891108899e-04 0.0 
-1.977891108899e-04 6.021154653626e-03 0.0 
0.0 0.0 -9.031726653527e-04 
-7.735880944808e-04 -1.868485495488e-04 0.0 
-1.868485495488e-04 5.115539884918e-03 0.0 
0.0 0.0 -7.729461360948e-04 
-9.981479559481e-04 -1.963805187541e-04 0.0 
-1.963805187541e-04 6.683666354433e-03 0.0 
0.0 0.0 -9.982497011217e-04 
-1.004413229733e-03 1.912127845263e-04 0.0 
1.912127845263e-04 6.639387752267e-03 0.0 
0.0 0.0 -1.003134534203e-03 
-7.686187780918e-04 1.863311149204e-04 0.0 
1.863311149204e-04 4.996748422870e-03 0.0 
0.0 0.0 -7.676694601592e-04 
-6.531466934911e-04 1.957558291538e-04 0.0 
1.957558291538e-04 4.207071568820e-03 0.0 
0.0 0.0 -6.551190094499e-04 
-4.645380568116e-04 -1.828907984748e-04 0.0 
-1.828907984748e-04 2.961721166152e-03 0.0 
0.0 0.0 -4.640097282922e-04 
-6.064572421459e-04 1.910285411047e-04 0.0 
1.910285411047e-04 3.887705448155e-03 0.0 
0.0 0.0 -6.091269606258e-04 
-1.019361563877e-03 -1.903039724258e-04 0.0 
-1.903039724258e-04 6.831244999586e-03 0.0 
0.0 0.0 -1.018204129641e-03 
-8.373723247003e-04 1.874174193606e-04 0.0 
1.874174193606e-04 5.476720692713e-03 0.0 
0.0 0.0 -8.365169925761e-04 
-1.320520432489e-03 -2.623800515076e-05 0.0 
-2.623800515076e-05 9.107403832922e-03 0.0 
0.0 0.0 -1.321929620191e-03 
-1.169515206127e-03 -1.894067828278e-04 0.0 
-1.894067828278e-04 7.912550107300e-03 0.0 
0.0 0.0 -1.174325249119e-03 
-4.054788487746e-04 1.902250889252e-04 0.0 
1.902250889252e-04 2.477005508034e-03 0.0 
0.0 0.0 -4.069995479128e-04 
-1.341047338368e-03 6.114097105095e-06 0.0 
6.114097105095e-06 8.810414551587e-03 0.0 
0.0 0.0 -1.341047338368e-03 
-1.246442799579e-03 -7.048165356566e-06 0.0 
-7.048165356566e-06 8.701531217890e-03 0.0 
0.0 0.0 -1.266414110344e-03 
-7.243231333997e-04 1.855217411942e-04 0.0 
1.855217411942e-04 4.688371918965e-03 0.0 
0.0 0.0 -7.237787631415e-04 
-9.766466055395e-05 -9.527665079749e-06 0.0 
-9.527665079749e-06 3.256739367155e-04 0.0 
0.0 0.0 -9.771826121210e-05 
-1.305508824941e-03 3.853404293042e-06 0.0 
3.853404293042e-06 9.105182867572e-03 0.0 
0.0 0.0 -1.323469717371e-03 
-1.171509388478e-03 -1.678154851062e-04 0.0 
-1.678154851062e-04 7.861802012676e-03 0.0 
0.0 0.0 -1.167157861819e-03 
-4.521694521811e-04 2.012915858521e-04 0.0 
2.012915858521e-04 2.804008720375e-03 0.0 
0.0 0.0 -4.535238702637e-04 
-1.341709311524e-03 -1.310979986681e-05 0.0 
-1.310979986681e-05 8.829628018658e-03 0.0 
0.0 0.0 -1.341709311524e-03 
-9.320413057689e-04 -1.962162649741e-04 0.0 
-1.962162649741e-04 6.231458751848e-03 0.0 
0.0 0.0 -9.325599965574e-04 
-6.268046795761e-04 1.808345467381e-04 0.0 
1.808345467381e-04 3.989844982223e-03 0.0 
0.0 0.0 -6.229492605273e-04 
-8.398341044078e-04 1.726875732327e-04 0.0 
1.726875732327e-04 5.514357495571e-03 0.0 
0.0 0.0 -8.408860858065e-04 
-8.060358487984e-04 -1.972435935582e-04 0.0 
-1.972435935582e-04 5.343400692596e-03 0.0 
0.0 0.0 -8.054665293395e-04 
-8.004419744920e-04 -1.952463938328e-04 0.0 
-1.952463938328e-04 5.314426112526e-03 0.0 
0.0 0.0 -8.008683130455e-04 
-9.182717976000e-04 -1.896493216882e-04 0.0 
-1.896493216882e-04 6.134019344384e-03 0.0 
0.0 0.0 -9.181754741429e-04 
-9.700343521080e-04 -1.978951788456e-04 0.0 
-1.978951788456e-04 6.510189924062e-03 0.0 
0.0 0.0 -9.721028620036e-04 
-6.977402691426e-04 1.822093202730e-04 0.0 
1.822093202730e-04 4.487185732323e-03 0.0 
0.0 0.0 -6.945885048819e-04 
-1.040005538332e-03 1.990021927622e-04 0.0 
1.990021927622e-04 6.900874594821e-03 0.0 
0.0 0.0 -1.039409037654e-03 
-8.975501320031e-04 -2.506583898403e-05 0.0 
-2.506583898403e-05 6.020256954512e-03 0.0 
0.0 0.0 -8.839498032872e-04 
-6.495260709226e-04 -1.944699442281e-04 0.0 
-1.944699442281e-04 4.277277504375e-03 0.0 
0.0 0.0 -6.521967345917e-04 
-9.682052284533e-04 1.865606736300e-04 0.0 
1.865606736300e-04 6.381518702333e-03 0.0 
0.0 0.0 -9.664699797409e-04 
-5.143750252184e-04 -1.778295084177e-04 0.0 
-1.778295084177e-04 3.324024151635e-03 0.0 
0.0 0.0 -5.155438399970e-04 
-9.088890292892e-04 1.918794185101e-04 0.0 
1.918794185101e-04 5.978978740211e-03 0.0 
0.0 0.0 -9.093720595694e-04 
-5.184917320349e-05 -5.023579163688e-06 0.0 
-5.023579163688e-06 2.615427770040e-04 0.0 
0.0 0.0 -4.585464485956e-05 
-5.019069719293e-04 -1.730390890633e-04 0.0 
-1.730390890633e-04 3.221983585288e-03 0.0 
0.0 0.0 -4.997308803768e-04 
-4.873333685601e-04 -1.811613926647e-04 0.0 
-1.811613926647e-04 3.131270652529e-03 0.0 
0.0 0.0 -4.875765080988e-04 
-7.115036268068e-04 1.928847685253e-04 0.0 
1.928847685253e-04 4.611615726792e-03 0.0 
0.0 0.0 -7.126562430122e-04 
-7.596608402965e-04 1.884583179830e-04 0.0 
1.884583179830e-04 4.937228765552e-03 0.0 
0.0 0.0 -7.595228636782e-04 
-9.346957466835e-04 1.973754267299e-04 0.0 
1.973754267299e-04 6.167461615292e-03 0.0 
0.0 0.0 -9.350600278798e-04 
-8.902631525084e-04 -1.867681813361e-04 0.0 
-1.867681813361e-04 5.973122971149e-03 0.0 
0.0 0.0 -8.962969588583e-04 
-4.491438895741e-04 -1.869760147925e-04 0.0 
-1.869760147925e-04 2.875737731611e-03 0.0 
0.0 0.0 -4.505554202764e-04 
-1.341827844788e-03 5.881319465546e-06 0.0 
5.881319465546e-06 8.853598786661e-03 0.0 
0.0 0.0 -1.341827844788e-03 
-8.819043585380e-04 -1.894669265129e-04 0.0 
-1.894669265129e-04 5.856756576790e-03 0.0 
0.0 0.0 -8.789935771182e-04 
-7.395748600622e-04 1.939731217691e-04 0.0 
1.939731217691e-04 4.808423671935e-03 0.0 
0.0 0.0 -7.413896480605e-04 
-8.456344442179e-04 -1.866159444843e-04 0.0 
-1.866159444843e-04 5.609212261315e-03 0.0 
0.0 0.0 -8.436662038215e-04 
-7.098621749807e-04 -1.956105885315e-04 0.0 
-1.956105885315e-04 4.679646247114e-03 0.0 
0.0 0.0 -7.098625721847e-04 
0.0 0.0 0.0 
0.0 0.0 0.0 
0.0 0.0 0.0 
-8.787853985480e-04 -1.870345829221e-04 0.0 
-1.870345829221e-04 5.815290073788e-03 0.0 
0.0 0.0 -8.733545218784e-04 
-6.014622352257e-04 2.088026922776e-04 0.0 
2.088026922776e-04 3.826503758406e-03 0.0 
0.0 0.0 -5.956302995864e-04 
0.0 0.0 0.0 
0.0 0.0 0.0 
0.0 0.0 0.0 
-7.014361857610e-04 2.031970023559e-04 0.0 
2.031970023559e-04 4.544280328863e-03 0.0 
0.0 0.0 -7.041275119738e-04 
-1.001578329479e-03 1.949348082253e-04 0.0 
1.949348082253e-04 6.625301000394e-03 0.0 
0.0 0.0 -1.001254648526e-03 
-1.145850176714e-03 1.952473198253e-04 0.0 
1.952473198253e-04 7.640587141445e-03 0.0 
0.0 0.0 -1.146946825052e-03 
-8.534899184109e-04 -1.900750659177e-04 0.0 
-1.900750659177e-04 5.682294137051e-03 0.0 
0.0 0.0 -8.532270185794e-04 
-8.843005196868e-04 1.891738523445e-04 0.0 
1.891738523445e-04 5.802847869315e-03 0.0 
0.0 0.0 -8.841559964380e-04 
-7.498668879057e-04 -1.500423199849e-04 0.0 
-1.500423199849e-04 4.956000169468e-03 0.0 
0.0 0.0 -7.495231765994e-04 
-7.499562203702e-04 -7.649065135971e-06 0.0 
-7.649065135971e-06 4.585920683461e-03 0.0 
0.0 0.0 -7.312625299844e-04 
-1.259814766287e-03 -2.251942805194e-05 0.0 
-2.251942805194e-05 8.482919934012e-03 0.0 
0.0 0.0 -1.286111585339e-03 
-8.096577215198e-04 -1.889624871779e-04 0.0 
-1.889624871779e-04 5.361431513159e-03 0.0 
0.0 0.0 -8.082854548548e-04 
-2.601123029567e-05 -8.443429959340e-06 0.0 
-8.443429959340e-06 2.242861713756e-04 0.0 
0.0 0.0 -4.535587742227e-05 
-2.679801948708e-04 -1.979252069442e-04 0.0 
-1.979252069442e-04 1.544873028567e-03 0.0 
0.0 0.0 -2.569639750501e-04 
-9.553383276929e-05 -1.682092997355e-05 0.0 
-1.682092997355e-05 3.188442541892e-04 0.0 
0.0 0.0 -9.570446632282e-05 
-4.265759374031e-04 -1.588061750624e-04 0.0 
-1.588061750624e-04 2.743578014402e-03 0.0 
0.0 0.0 -4.284133232656e-04 
-1.136810990824e-03 -2.050532392671e-04 0.0 
-2.050532392671e-04 7.627868260152e-03 0.0 
0.0 0.0 -1.134523071099e-03 
-1.147232605264e-03 -1.988471843747e-04 0.0 
-1.988471843747e-04 7.696346442353e-03 0.0 
0.0 0.0 -1.144649651339e-03 
-1.090721102207e-03 1.927119379258e-04 0.0 
1.927119379258e-04 7.225314130525e-03 0.0 
0.0 0.0 -1.087427768671e-03 
-4.794185500659e-04 -1.949320750669e-04 0.0 
-1.949320750669e-04 3.096205477872e-03 0.0 
0.0 0.0 -4.827803379924e-04 
-9.064466102036e-04 -1.951694302264e-04 0.0 
-1.951694302264e-04 6.052913189119e-03 0.0 
0.0 0.0 -9.063168105749e-04 
-1.135504702689e-03 1.907792817820e-04 0.0 
1.907792817820e-04 7.600364314815e-03 0.0 
0.0 0.0 -1.142106164841e-03 
-2.788698608245e-04 -1.715069773271e-04 0.0 
-1.715069773271e-04 1.706769297964e-03 0.0 
0.0 0.0 -2.821198837983e-04 
-5.962549057611e-04 -2.242943986441e-04 0.0 
-2.242943986441e-04 3.850260609285e-03 0.0 
0.0 0.0 -5.942115541274e-04 
-4.821057558984e-04 1.938812463927e-04 0.0 
1.938812463927e-04 3.093517382699e-03 0.0 
0.0 0.0 -4.980019828625e-04 
-1.334956243324e-03 1.593537991863e-05 0.0 
1.593537991863e-05 9.100113722888e-03 0.0 
0.0 0.0 -1.322396863610e-03 
-1.341641872583e-03 -1.598087186617e-05 0.0 
-1.598087186617e-05 8.845353034364e-03 0.0 
0.0 0.0 -1.341641872583e-03 
-6.679494605951e-04 -1.695756001761e-04 0.0 
-1.695756001761e-04 4.277020538631e-03 0.0 
0.0 0.0 -6.580288049735e-04 
-7.324961324261e-04 -1.951613493016e-04 0.0 
-1.951613493016e-04 4.877737690436e-03 0.0 
0.0 0.0 -7.385580096348e-04 
-8.320090833607e-04 1.945702263430e-04 0.0 
1.945702263430e-04 5.445258436908e-03 0.0 
0.0 0.0 -8.323457052078e-04 
-1.163041303964e-03 1.778772476614e-04 0.0 
1.778772476614e-04 7.881722024609e-03 0.0 
0.0 0.0 -1.177278300149e-03 
-2.899237030429e-04 1.996200503921e-04 0.0 
1.996200503921e-04 1.630038568431e-03 0.0 
0.0 0.0 -2.880367495917e-04 
-1.101530990218e-03 1.937554819911e-04 0.0 
1.937554819911e-04 7.342981690998e-03 0.0 
0.0 0.0 -1.104707344597e-03 
-1.602377275385e-04 3.299975488627e-05 0.0 
3.299975488627e-05 1.021185104458e-03 0.0 
0.0 0.0 -1.612556504808e-04 
-6.771993620365e-04 -1.961964403489e-04 0.0 
-1.961964403489e-04 4.422374575330e-03 0.0 
0.0 0.0 -6.724657308136e-04 
-7.463531003114e-04 -1.974750822578e-04 0.0 
-1.974750822578e-04 4.938620865557e-03 0.0 
0.0 0.0 -7.470513223636e-04 
-9.733051936618e-05 1.431354683527e-05 0.0 
1.431354683527e-05 3.247181541799e-04 0.0 
0.0 0.0 -9.745184349161e-05 
-6.107893375519e-04 1.961955655377e-04 0.0 
1.961955655377e-04 4.041501780347e-03 0.0 
0.0 0.0 -6.267591816330e-04 
-1.179150888516e-03 1.722766776771e-04 0.0 
1.722766776771e-04 7.845621701176e-03 0.0 
0.0 0.0 -1.176862138969e-03 
-5.380435756070e-05 -4.751466869097e-06 0.0 
-4.751466869097e-06 2.532858114077e-04 0.0 
0.0 0.0 -4.590328595372e-05 
-7.312532489837e-04 1.362386611746e-05 0.0 
1.362386611746e-05 4.573834094121e-03 0.0 
0.0 0.0 -7.322753781719e-04 
-7.047922472484e-04 1.123922026654e-06 0.0 
1.123922026654e-06 4.847576831705e-03 0.0 
0.0 0.0 -7.130472889423e-04 
-9.547380700052e-04 -1.945366017599e-04 0.0 
-1.945366017599e-04 6.390005998802e-03 0.0 
0.0 0.0 -9.552000144736e-04 
-4.877659469443e-04 -1.909239420502e-04 0.0 
-1.909239420502e-04 3.137535928941e-03 0.0 
0.0 0.0 -4.943513106837e-04 
-4.803168808599e-04 1.981666947026e-04 0.0 
1.981666947026e-04 2.999843219209e-03 0.0 
0.0 0.0 -4.817493388239e-04 
-3.413576717745e-04 -1.696251700452e-04 0.0 
-1.696251700452e-04 2.103971295735e-03 0.0 
0.0 0.0 -3.398054741319e-04 
-1.177842708252e-03 1.745516882077e-04 0.0 
1.745516882077e-04 7.866046843566e-03 0.0 
0.0 0.0 -1.180895453064e-03 
-1.288113258455e-03 -7.910099866472e-06 0.0 
-7.910099866472e-06 8.468043511099e-03 0.0 
0.0 0.0 -1.286194385238e-03 
-1.101033919243e-03 -1.960948394901e-04 0.0 
-1.960948394901e-04 7.394725323298e-03 0.0 
0.0 0.0 -1.101088927253e-03 
-4.503494869687e-04 -1.637033152419e-04 0.0 
-1.637033152419e-04 2.832512250195e-03 0.0 
0.0 0.0 -4.457015571677e-04 
-2.141424004699e-04 2.387020000873e-04 0.0 
2.387020000873e-04 9.652683007765e-04 0.0 
0.0 0.0 -1.905831712289e-04 
-7.028954825783e-04 -1.797251013725e-04 0.0 
-1.797251013725e-04 4.605141056062e-03 0.0 
0.0 0.0 -6.999131133628e-04 
-7.213924053115e-04 -5.563189413670e-07 0.0 
-5.563189413670e-07 4.593100885078e-03 0.0 
0.0 0.0 -7.345111139194e-04 
-7.221802994753e-04 -3.459116523951e-05 0.0 
-3.459116523951e-05 4.860709319501e-03 0.0 
0.0 0.0 -7.144802219086e-04 
0.0 0.0 0.0 
0.0 0.0 0.0 
0.0 0.0 0.0 
-9.462674636507e-05 9.391315588449e-06 0.0 
9.391315588449e-06 3.155479012844e-04 0.0 
0.0 0.0 -9.468049496542e-05 
-1.889846684321e-04 -5.120829147043e-05 0.0 
-5.120829147043e-05 7.312686420689e-04 0.0 
0.0 0.0 -1.795416262981e-04 
-3.813293178289e-04 1.993773121020e-04 0.0 
1.993773121020e-04 2.301443442694e-03 0.0 
0.0 0.0 -3.820941496288e-04 
-1.147287239146e-04 2.233479330516e-06 0.0 
2.233479330516e-06 6.267336868547e-04 0.0 
0.0 0.0 -1.035694276016e-04 
-7.177698882456e-04 1.875976177193e-04 0.0 
1.875976177193e-04 4.537921580666e-03 0.0 
0.0 0.0 -6.918148876825e-04 
0.0 0.0 0.0 
0.0 0.0 0.0 
0.0 0.0 0.0 
-4.466789787722e-04 2.025807610902e-04 0.0 
2.025807610902e-04 2.763058809203e-03 0.0 
0.0 0.0 -4.482372226011e-04 
-9.484602570362e-04 5.937741420738e-05 0.0 
5.937741420738e-05 6.186307546056e-03 0.0 
0.0 0.0 -9.582560723523e-04 
-7.114040901391e-04 1.008097673958e-05 0.0 
1.008097673958e-05 4.858827396879e-03 0.0 
0.0 0.0 -7.120344407548e-04 
-1.154819602250e-03 -2.018660896654e-04 0.0 
-2.018660896654e-04 7.854075905782e-03 0.0 
0.0 0.0 -1.169483110168e-03 
-9.636351090388e-04 1.953512484906e-04 0.0 
1.953512484906e-04 6.363047776900e-03 0.0 
0.0 0.0 -9.641449249716e-04 
-9.024629704430e-04 7.830558015855e-05 0.0 
7.830558015855e-05 5.773999043953e-03 0.0 
0.0 0.0 -8.988447104697e-04 
-5.248669465082e-04 2.030027087803e-04 0.0 
2.030027087803e-04 3.352814556998e-03 0.0 
0.0 0.0 -5.269378630653e-04 
-1.557908844091e-04 -1.426598337885e-05 0.0 
-1.426598337885e-05 1.017280518651e-03 0.0 
0.0 0.0 -1.602995255322e-04 
-1.340974968048e-03 -2.076763454684e-05 0.0 
-2.076763454684e-05 8.825339797415e-03 0.0 
0.0 0.0 -1.340974968048e-03 
-1.331740677566e-03 -1.067318438994e-06 0.0 
-1.067318438994e-06 9.107204473734e-03 0.0 
0.0 0.0 -1.320295381545e-03 
-8.482992821085e-04 2.310186269769e-04 0.0 
2.310186269769e-04 5.616583664962e-03 0.0 
0.0 0.0 -8.588387843224e-04 
-7.462574470129e-04 -7.506809615133e-06 0.0 
-7.506809615133e-06 4.590636784032e-03 0.0 
0.0 0.0 -7.326073368541e-04 
-5.251543525855e-04 -1.205978746021e-04 0.0 
-1.205978746021e-04 3.428806267579e-03 0.0 
0.0 0.0 -5.314511797787e-04 
-1.323491096028e-03 -2.283744003806e-05 0.0 
-2.283744003806e-05 9.085754239402e-03 0.0 
0.0 0.0 -1.322576402756e-03 
-4.157468964118e-04 -1.918553564633e-04 0.0 
-1.918553564633e-04 2.636700862140e-03 0.0 
0.0 0.0 -4.166600706249e-04 
-7.057672473389e-04 -4.164103403377e-06 0.0 
-4.164103403377e-06 4.837446989167e-03 0.0 
0.0 0.0 -7.125614225629e-04 
-7.131316839303e-04 7.226971892511e-06 0.0 
7.226971892511e-06 4.584933787265e-03 0.0 
0.0 0.0 -7.312775522649e-04 
-6.769264019625e-04 1.800240141216e-04 0.0 
1.800240141216e-04 4.359211225871e-03 0.0 
0.0 0.0 -6.755779900756e-04 
-1.341823989366e-03 -1.865391509117e-05 0.0 
-1.865391509117e-05 8.857424336763e-03 0.0 
0.0 0.0 -1.341823989366e-03 
-1.293765856573e-03 1.607380559237e-05 0.0 
1.607380559237e-05 9.094492997413e-03 0.0 
0.0 0.0 -1.322582685247e-03 
-1.126722208426e-04 6.998488737317e-06 0.0 
6.998488737317e-06 6.134703062311e-04 0.0 
0.0 0.0 -1.035688293187e-04 
0.0 0.0 0.0 
0.0 0.0 0.0 
0.0 0.0 0.0 
-2.390355384623e-04 1.936491639954e-04 0.0 
1.936491639954e-04 1.192457136132e-03 0.0 
0.0 0.0 -2.221130066924e-04 
-7.484754656573e-04 1.958621454920e-04 0.0 
1.958621454920e-04 4.871290639516e-03 0.0 
0.0 0.0 -7.497705102653e-04 
-1.223848934685e-03 2.347738204730e-04 0.0 
2.347738204730e-04 8.231542695031e-03 0.0 
0.0 0.0 -1.224669017856e-03 
-3.851215442265e-05 -6.758275575605e-05 0.0 
-6.758275575605e-05 2.149841041377e-04 0.0 
0.0 0.0 -4.506945562690e-05 
-1.095035538177e-03 -2.135230687798e-04 0.0 
-2.135230687798e-04 7.297496536284e-03 0.0 
0.0 0.0 -1.092518628633e-03 
0.0 0.0 0.0 
0.0 0.0 0.0 
0.0 0.0 0.0 
-9.497696422961e-04 1.942166615207e-04 0.0 
1.942166615207e-04 6.260470679264e-03 0.0 
0.0 0.0 -9.493083249531e-04 
-6.288110034395e-05 6.701081411357e-06 0.0 
6.701081411357e-06 2.758850751309e-04 0.0 
0.0 0.0 -4.591043399908e-05 
-6.241905191399e-05 -2.511621330169e-05 0.0 
-2.511621330169e-05 2.635940123717e-04 0.0 
0.0 0.0 -4.615290204994e-05 
-9.135771074388e-04 1.942985431381e-04 0.0 
1.942985431381e-04 6.003773453710e-03 0.0 
0.0 0.0 -9.122568895951e-04 
-1.191044637578e-03 1.954606753199e-04 0.0 
1.954606753199e-04 7.975629465802e-03 0.0 
0.0 0.0 -1.192963836147e-03 
-9.353430265021e-04 -9.437658603170e-05 0.0 
-9.437658603170e-05 6.401376295666e-03 0.0 
0.0 0.0 -9.361271490834e-04 
-7.292657224304e-04 -1.767865209209e-04 0.0 
-1.767865209209e-04 4.795789678295e-03 0.0 
0.0 0.0 -7.268406435589e-04 
-9.710718174901e-05 -1.358771368786e-05 0.0 
-1.358771368786e-05 3.239463226278e-04 0.0 
0.0 0.0 -9.721677466234e-05 
-9.353638871596e-04 -1.962742580693e-04 0.0 
-1.962742580693e-04 6.250401807132e-03 0.0 
0.0 0.0 -9.349022313484e-04 
-1.337797817327e-03 -2.530827551252e-05 0.0 
-2.530827551252e-05 8.814034455446e-03 0.0 
0.0 0.0 -1.337797817327e-03 
-1.326036287352e-03 -1.455315038833e-04 0.0 
-1.455315038833e-04 9.082015863418e-03 0.0 
0.0 0.0 -1.322354755130e-03 
-7.123437340294e-04 1.173862101606e-05 0.0 
1.173862101606e-05 4.855322276952e-03 0.0 
0.0 0.0 -7.125764448434e-04 
-9.860203699540e-04 1.899915039945e-04 0.0 
1.899915039945e-04 6.516626141222e-03 0.0 
0.0 0.0 -9.863757069361e-04 
-1.341607717199e-03 1.356557150833e-05 0.0 
1.356557150833e-05 8.840587029738e-03 0.0 
0.0 0.0 -1.341607717199e-03 
-1.048314093038e-03 -2.082351981234e-04 0.0 
-2.082351981234e-04 7.019832661667e-03 0.0 
0.0 0.0 -1.046710270629e-03 
-1.675301838823e-04 4.109428891396e-05 0.0 
4.109428891396e-05 9.648536059596e-04 0.0 
0.0 0.0 -1.589907658001e-04 
-1.067672517152e-04 -9.583258243249e-06 0.0 
-9.583258243249e-06 6.200113654204e-04 0.0 
0.0 0.0 -1.029725306715e-04 
-1.028842676796e-04 -4.314994342259e-05 0.0 
-4.314994342259e-05 3.453649952318e-04 0.0 
0.0 0.0 -1.039203118081e-04 
-5.871622493136e-04 1.953666188975e-04 0.0 
1.953666188975e-04 3.814212399552e-03 0.0 
0.0 0.0 -5.933358154923e-04 
-1.333672766825e-03 -1.202212504052e-04 0.0 
-1.202212504052e-04 9.086271765214e-03 0.0 
0.0 0.0 -1.322828574513e-03 
-1.249098589656e-03 -2.325383237371e-04 0.0 
-2.325383237371e-04 8.487130897030e-03 0.0 
0.0 0.0 -1.258329778789e-03 
0.0 0.0 0.0 
0.0 0.0 0.0 
0.0 0.0 0.0 
-6.989700289776e-04 -1.857489314676e-04 0.0 
-1.857489314676e-04 4.509333602690e-03 0.0 
0.0 0.0 -6.938761155152e-04 
-1.344798314370e-03 5.494387484637e-06 0.0 
5.494387484637e-06 8.860415151620e-03 0.0 
0.0 0.0 -1.344798314370e-03 
-1.337322942170e-03 3.677431177350e-05 0.0 
3.677431177350e-05 9.118625106116e-03 0.0 
0.0 0.0 -1.318785251170e-03 
-1.303755075695e-03 1.430690451441e-06 0.0 
1.430690451441e-06 9.096198326928e-03 0.0 
0.0 0.0 -1.321151187552e-03 
-1.034449558172e-03 2.142439693304e-04 0.0 
2.142439693304e-04 6.840882471351e-03 0.0 
0.0 0.0 -1.027148381742e-03 
-1.117879717661e-03 -2.162737768218e-04 0.0 
-2.162737768218e-04 7.549121072969e-03 0.0 
0.0 0.0 -1.125709525796e-03 
-1.338030260144e-03 -6.968280175079e-06 0.0 
-6.968280175079e-06 8.819304319896e-03 0.0 
0.0 0.0 -1.338030260144e-03 
-1.340754991027e-03 -2.793160050154e-05 0.0 
-2.793160050154e-05 8.842227493663e-03 0.0 
0.0 0.0 -1.340754991027e-03 
-1.084387157107e-03 1.756228747119e-04 0.0 
1.756228747119e-04 7.304356114432e-03 0.0 
0.0 0.0 -1.092518628634e-03 
-2.311762207506e-05 7.524747598176e-05 0.0 
7.524747598176e-05 1.841595127811e-04 0.0 
0.0 0.0 -4.541545915403e-05 
-7.129930244863e-04 -1.525724795116e-06 0.0 
-1.525724795116e-06 4.814692496190e-03 0.0 
0.0 0.0 -7.139539158865e-04 
-7.213897068280e-04 3.016260299782e-05 0.0 
3.016260299782e-05 4.878464797693e-03 0.0 
0.0 0.0 -7.133642253441e-04 
0.0 0.0 0.0 
0.0 0.0 0.0 
0.0 0.0 0.0 
-1.342313591240e-03 1.055329185638e-05 0.0 
1.055329185638e-05 8.873951644270e-03 0.0 
0.0 0.0 -1.342313591240e-03 
-1.336661786254e-03 2.540411115353e-05 0.0 
2.540411115353e-05 9.107640988403e-03 0.0 
0.0 0.0 -1.318355947622e-03 
-1.337959751097e-03 6.489046299882e-07 0.0 
6.489046299882e-07 8.814031058647e-03 0.0 
0.0 0.0 -1.337959751097e-03 
-6.887950874124e-05 7.326700540873e-06 0.0 
7.326700540873e-06 2.659430667850e-04 0.0 
0.0 0.0 -4.582974829071e-05 
-7.021790639444e-05 9.602649528326e-06 0.0 
9.602649528326e-06 2.736498867396e-04 0.0 
0.0 0.0 -4.591370119938e-05 
-1.340754991027e-03 -1.163411170853e-06 0.0 
-1.163411170853e-06 8.829041487509e-03 0.0 
0.0 0.0 -1.340754991027e-03 
-1.340396196526e-03 -2.044778395459e-05 0.0 
-2.044778395459e-05 8.820055094331e-03 0.0 
0.0 0.0 -1.340396196526e-03 
-1.016763022878e-03 -2.313272643621e-04 0.0 
-2.313272643621e-04 6.613286649783e-03 0.0 
0.0 0.0 -9.936726122374e-04 
-7.156761650400e-04 3.174630435051e-05 0.0 
3.174630435051e-05 4.813106322843e-03 0.0 
0.0 0.0 -7.124851972278e-04 
-1.051691578887e-03 -2.268729750205e-04 0.0 
-2.268729750205e-04 7.069453692283e-03 0.0 
0.0 0.0 -1.060142436171e-03 
-8.856361613045e-04 -2.246794552562e-04 0.0 
-2.246794552562e-04 5.656932423438e-03 0.0 
0.0 0.0 -8.626607521899e-04 
-6.974461573379e-04 1.315776503887e-05 0.0 
1.315776503887e-05 4.815685979733e-03 0.0 
0.0 0.0 -7.121912678902e-04 
-3.076401957522e-05 3.630205513184e-05 0.0 
3.630205513184e-05 2.492584121326e-04 0.0 
0.0 0.0 -4.495577515415e-05 
-4.859098010839e-05 -3.737210181648e-05 0.0 
-3.737210181648e-05 2.860304098853e-04 0.0 
0.0 0.0 -4.591167563965e-05 
-3.185160578242e-05 -1.142237180323e-05 0.0 
-1.142237180323e-05 2.469612253318e-04 0.0 
0.0 0.0 -4.589015575604e-05 
-4.731421252786e-05 -1.226097571219e-05 0.0 
-1.226097571219e-05 2.659450080895e-04 0.0 
0.0 0.0 -4.556578909549e-05 
-7.410966517880e-04 2.317413733404e-04 0.0 
2.317413733404e-04 4.761489269815e-03 0.0 
0.0 0.0 -7.271325101417e-04 
-6.567236663823e-04 2.031409226008e-04 0.0 
2.031409226008e-04 4.278704049819e-03 0.0 
0.0 0.0 -6.600769387058e-04 
0.0 0.0 0.0 
0.0 0.0 0.0 
0.0 0.0 0.0 
-9.198692932468e-04 2.207519103488e-04 0.0 
2.207519103488e-04 6.164531821473e-03 0.0 
0.0 0.0 -9.221709323543e-04 
0.0 0.0 0.0 
0.0 0.0 0.0 
0.0 0.0 0.0 
-1.341471640605e-03 5.425770365487e-06 0.0 
5.425770365487e-06 8.820837432317e-03 0.0 
0.0 0.0 -1.341471640605e-03 
-1.340968685557e-03 1.249741243790e-05 0.0 
1.249741243790e-05 8.807656416615e-03 0.0 
0.0 0.0 -1.340968685557e-03 
-1.339320413496e-03 -6.736119072764e-06 0.0 
-6.736119072764e-06 8.832654043149e-03 0.0 
0.0 0.0 -1.339320413496e-03 
-2.516213945074e-04 2.377641770174e-04 0.0 
2.377641770174e-04 1.477950192533e-03 0.0 
0.0 0.0 -2.599136149544e-04 
-4.499622910390e-04 2.064665423492e-04 0.0 
2.064665423492e-04 2.879856921820e-03 0.0 
0.0 0.0 -4.607467809507e-04 
-1.337132911908e-03 -4.793528436990e-06 0.0 
-4.793528436990e-06 8.820087587172e-03 0.0 
0.0 0.0 -1.337132911908e-03 
-1.120160542764e-03 1.885503644173e-04 0.0 
1.885503644173e-04 7.560722239950e-03 0.0 
0.0 0.0 -1.124956933753e-03 
-1.344556937803e-03 -2.104246713846e-05 0.0 
-2.104246713846e-05 8.860523593132e-03 0.0 
0.0 0.0 -1.344556937803e-03 
-1.195658010449e-03 2.008624552429e-04 0.0 
2.008624552429e-04 8.028011251529e-03 0.0 
0.0 0.0 -1.192538251246e-03 
-1.264541089761e-03 2.315838415430e-04 0.0 
2.315838415430e-04 8.498729307699e-03 0.0 
0.0 0.0 -1.259905836238e-03 
-6.219774932840e-04 -2.035330289393e-04 0.0 
-2.035330289393e-04 4.041759494414e-03 0.0 
0.0 0.0 -6.267460875326e-04 
-1.333336577702e-03 -3.290028368553e-05 0.0 
-3.290028368553e-05 9.106230716714e-03 0.0 
0.0 0.0 -1.318101597465e-03 
-1.336001964470e-03 1.162172730560e-04 0.0 
1.162172730560e-04 9.090958479552e-03 0.0 
0.0 0.0 -1.321689849711e-03 
-1.157015842751e-03 -2.064363215114e-04 0.0 
-2.064363215114e-04 7.737243073859e-03 0.0 
0.0 0.0 -1.157495185000e-03 
-1.229671491752e-03 -2.051129200289e-04 0.0 
-2.051129200289e-04 8.228478437854e-03 0.0 
0.0 0.0 -1.225777420818e-03 
-9.871372975694e-04 -1.866548184674e-04 0.0 
-1.866548184674e-04 6.644402027939e-03 0.0 
0.0 0.0 -9.925156490314e-04 
0.0 0.0 0.0 
0.0 0.0 0.0 
0.0 0.0 0.0 
-6.525071487266e-04 -2.022287068404e-04 0.0 
-2.022287068404e-04 4.165983179946e-03 0.0 
0.0 0.0 -6.350241097613e-04 
-1.062777711571e-04 -2.500028508467e-05 0.0 
-2.500028508467e-05 5.975407209184e-04 0.0 
0.0 0.0 -1.030398215525e-04 
-1.177532662352e-03 -1.733616004670e-04 0.0 
-1.733616004670e-04 7.926724853394e-03 0.0 
0.0 0.0 -1.177819030284e-03 
-6.744770170931e-04 1.928269940396e-04 0.0 
1.928269940396e-04 4.352241427477e-03 0.0 
0.0 0.0 -6.753691525988e-04 
-1.095781442937e-03 1.863762097668e-04 0.0 
1.863762097668e-04 7.297090200674e-03 0.0 
0.0 0.0 -1.099016898379e-03 
-3.528730048209e-04 -1.946361167357e-04 0.0 
-1.946361167357e-04 2.176757571714e-03 0.0 
0.0 0.0 -3.504775146279e-04 
-1.550760112035e-04 1.206598951617e-04 0.0 
1.206598951617e-04 7.508446244134e-04 0.0 
0.0 0.0 -1.735952156319e-04 
-1.160601579575e-03 -1.894710886425e-04 0.0 
-1.894710886425e-04 7.820833929289e-03 0.0 
0.0 0.0 -1.161668299909e-03 
-6.889768412053e-04 -1.975061828768e-04 0.0 
-1.975061828768e-04 4.617261067584e-03 0.0 
0.0 0.0 -7.012080445024e-04 
-5.762009062567e-04 2.005988488917e-04 0.0 
2.005988488917e-04 3.584897669436e-03 0.0 
0.0 0.0 -5.611363230934e-04 
-1.093490207039e-03 -1.909491051748e-04 0.0 
-1.909491051748e-04 7.367841895943e-03 0.0 
0.0 0.0 -1.096102707776e-03 
-1.178635420303e-03 1.949598249272e-04 0.0 
1.949598249272e-04 7.912911661083e-03 0.0 
0.0 0.0 -1.188907866872e-03 
-5.561658818215e-04 -2.031625025719e-04 0.0 
-2.031625025719e-04 3.593153237093e-03 0.0 
0.0 0.0 -5.602736785587e-04 
-1.035403721303e-03 -2.031605927371e-04 0.0 
-2.031605927371e-04 6.949569291118e-03 0.0 
0.0 0.0 -1.035646790376e-03 
-9.180249208977e-04 1.931476710154e-04 0.0 
1.931476710154e-04 6.042341158293e-03 0.0 
0.0 0.0 -9.181742748318e-04 
-9.917755747799e-04 2.023242542686e-04 0.0 
2.023242542686e-04 6.575747416083e-03 0.0 
0.0 0.0 -9.952786863929e-04 
-1.024377024952e-03 1.861972783327e-04 0.0 
1.861972783327e-04 6.794579129447e-03 0.0 
0.0 0.0 -1.024224580100e-03 
-5.802650742356e-04 1.891370522917e-04 0.0 
1.891370522917e-04 3.679117002713e-03 0.0 
0.0 0.0 -5.788817793163e-04 
-6.680148396563e-04 -1.727307713496e-04 0.0 
-1.727307713496e-04 4.367645791481e-03 0.0 
0.0 0.0 -6.651338130661e-04 
-7.292546132973e-04 -1.846826388503e-04 0.0 
-1.846826388503e-04 4.813421317749e-03 0.0 
0.0 0.0 -7.293057621918e-04 
-9.374184943370e-04 1.944757919182e-04 0.0 
1.944757919182e-04 6.178932175002e-03 0.0 
0.0 0.0 -9.378562126457e-04 
-1.124743441142e-03 -2.044895248107e-04 0.0 
-2.044895248107e-04 7.578873023721e-03 0.0 
0.0 0.0 -1.125100902632e-03 
-1.057275381377e-03 1.952239226914e-04 0.0 
1.952239226914e-04 7.019062258926e-03 0.0 
0.0 0.0 -1.053755873404e-03 
-3.652721065736e-04 1.996025403978e-04 0.0 
1.996025403978e-04 2.192815232503e-03 0.0 
0.0 0.0 -3.685493992842e-04 
-1.164581229115e-03 2.188850811809e-04 0.0 
2.188850811809e-04 7.900774321480e-03 0.0 
0.0 0.0 -1.183514100502e-03 
-1.119628239997e-03 2.087348229959e-04 0.0 
2.087348229959e-04 7.433542979004e-03 0.0 
0.0 0.0 -1.117084069417e-03 
-8.143956589139e-04 2.341244742851e-04 0.0 
2.341244742851e-04 5.337741611520e-03 0.0 
0.0 0.0 -8.110481619253e-04 
-9.749777922597e-04 1.939288930454e-04 0.0 
1.939288930454e-04 6.440647276838e-03 0.0 
0.0 0.0 -9.753747863247e-04 
-9.652234430735e-04 1.970752514855e-04 0.0 
1.970752514855e-04 6.378006768513e-03 0.0 
0.0 0.0 -9.665592132828e-04 
-1.194888926874e-03 -2.112261199246e-04 0.0 
-2.112261199246e-04 8.020188826812e-03 0.0 
0.0 0.0 -1.185362187646e-03 
-1.151241251503e-03 1.853138580095e-04 0.0 
1.853138580095e-04 7.714994671460e-03 0.0 
0.0 0.0 -1.150972777267e-03 
-8.863019395197e-04 -1.951602003696e-04 0.0 
-1.951602003696e-04 5.913977900844e-03 0.0 
0.0 0.0 -8.866930489607e-04 
-1.183768845123e-03 -1.944166925085e-04 0.0 
-1.944166925085e-04 8.022430172970e-03 0.0 
0.0 0.0 -1.190872049285e-03 
-1.103203670140e-03 1.932633349999e-04 0.0 
1.932633349999e-04 7.339211362922e-03 0.0 
0.0 0.0 -1.103416240745e-03 
-1.053347130920e-03 -1.808067663282e-04 0.0 
-1.808067663282e-04 7.018991585010e-03 0.0 
0.0 0.0 -1.053748284807e-03 
-1.207301516059e-03 -2.189374092153e-04 0.0 
-2.189374092153e-04 8.148472988394e-03 0.0 
0.0 0.0 -1.210017230578e-03 
-1.183451424094e-03 -2.064186268461e-04 0.0 
-2.064186268461e-04 7.961006455012e-03 0.0 
0.0 0.0 -1.181737430652e-03 
-1.012410866899e-03 -2.064236493361e-04 0.0 
-2.064236493361e-04 6.767125967856e-03 0.0 
0.0 0.0 -1.011817915138e-03 
-9.978825943571e-04 -1.946964301518e-04 0.0 
-1.946964301518e-04 6.692413921007e-03 0.0 
0.0 0.0 -9.985655989919e-04 
-3.618458064176e-04 1.902703540337e-04 0.0 
1.902703540337e-04 2.182295586331e-03 0.0 
0.0 0.0 -3.644364776638e-04 
-3.396688960242e-04 1.922383374584e-04 0.0 
1.922383374584e-04 2.020949841441e-03 0.0 
0.0 0.0 -3.414758422231e-04 
-2.048022796594e-04 -2.337971245162e-04 0.0 
-2.337971245162e-04 1.038657557028e-03 0.0 
0.0 0.0 -1.876370064529e-04 
-1.053265806659e-04 1.589966792234e-06 0.0 
1.589966792234e-06 6.159987105294e-04 0.0 
0.0 0.0 -1.032036840373e-04 
-1.146654591444e-03 -2.036534213009e-04 0.0 
-2.036534213009e-04 7.733548266154e-03 0.0 
0.0 0.0 -1.150998037120e-03 
-1.153371435519e-03 1.929566661378e-04 0.0 
1.929566661378e-04 7.706474852566e-03 0.0 
0.0 0.0 -1.156839719840e-03 
-1.023100123294e-04 6.333767357802e-06 0.0 
6.333767357802e-06 5.922537874641e-04 0.0 
0.0 0.0 -1.029284987275e-04 
-1.152902847458e-03 -1.945944093032e-04 0.0 
-1.945944093032e-04 7.806589318492e-03 0.0 
0.0 0.0 -1.160298666437e-03 
-8.240593874314e-04 2.133386610705e-04 0.0 
2.133386610705e-04 5.515954645069e-03 0.0 
0.0 0.0 -8.436798659344e-04 
-1.063159338098e-03 -2.000353252038e-04 0.0 
-2.000353252038e-04 7.170931875512e-03 0.0 
0.0 0.0 -1.067477449466e-03 
-1.091085119062e-03 1.926591161237e-04 0.0 
1.926591161237e-04 7.245677048731e-03 0.0 
0.0 0.0 -1.090430023688e-03 
-5.083685843408e-04 1.854528112905e-04 0.0 
1.854528112905e-04 3.184990427277e-03 0.0 
0.0 0.0 -5.090628918580e-04 
-1.088419020765e-03 -1.985610050621e-04 0.0 
-1.985610050621e-04 7.308442647816e-03 0.0 
0.0 0.0 -1.087955833448e-03 
-8.052736907314e-04 -2.707602780886e-04 0.0 
-2.707602780886e-04 5.346563189152e-03 0.0 
0.0 0.0 -8.100176300978e-04 
-1.002877096566e-03 -1.976880564897e-04 0.0 
-1.976880564897e-04 6.706443384887e-03 0.0 
0.0 0.0 -1.000388816061e-03 
-1.231169607282e-03 2.234727540429e-04 0.0 
2.234727540429e-04 8.305282306820e-03 0.0 
0.0 0.0 -1.242964905849e-03 
-3.519355017218e-04 1.472413134465e-04 0.0 
1.472413134465e-04 2.089181619658e-03 0.0 
0.0 0.0 -3.542437553904e-04 
-1.221302329282e-03 -1.674357911946e-04 0.0 
-1.674357911946e-04 8.209373583472e-03 0.0 
0.0 0.0 -1.215045542354e-03 
-1.047850802636e-03 -1.881582153281e-04 0.0 
-1.881582153281e-04 7.026769425363e-03 0.0 
0.0 0.0 -1.048288725887e-03 
-3.889604497647e-04 2.037169653350e-04 0.0 
2.037169653350e-04 2.380154464468e-03 0.0 
0.0 0.0 -3.930611257745e-04 
-4.005955795872e-04 -1.795528067477e-04 0.0 
-1.795528067477e-04 2.551679544193e-03 0.0 
0.0 0.0 -4.034900192350e-04 
-7.895600060851e-04 1.993051337406e-04 0.0 
1.993051337406e-04 5.154958880860e-03 0.0 
0.0 0.0 -7.909606353592e-04 
-9.478370252282e-04 2.028022273917e-04 0.0 
2.028022273917e-04 6.213549732246e-03 0.0 
0.0 0.0 -9.409807611877e-04 
-5.389171118930e-04 1.931642811106e-04 0.0 
1.931642811106e-04 3.423254400861e-03 0.0 
0.0 0.0 -5.429771841545e-04 
-1.084906178257e-03 -2.011232363261e-04 0.0 
-2.011232363261e-04 7.274950011924e-03 0.0 
0.0 0.0 -1.085119818393e-03 
-9.758201311387e-04 -2.238948292920e-04 0.0 
-2.238948292920e-04 6.526325342415e-03 0.0 
0.0 0.0 -9.816794289629e-04 
-7.681741524081e-04 1.880175807826e-04 0.0 
1.880175807826e-04 5.011383542904e-03 0.0 
0.0 0.0 -7.700930343086e-04 
-1.026480683520e-03 -1.844900629416e-04 0.0 
-1.844900629416e-04 6.842321728991e-03 0.0 
0.0 0.0 -1.021757709120e-03 
-1.057960421125e-03 -1.998047593286e-04 0.0 
-1.998047593286e-04 7.113469784678e-03 0.0 
0.0 0.0 -1.058696934625e-03 
-1.057942238941e-03 2.175749808769e-04 0.0 
2.175749808769e-04 6.964480207197e-03 0.0 
0.0 0.0 -1.050681058959e-03 
-3.033747618520e-04 -1.838242939411e-04 0.0 
-1.838242939411e-04 1.857406959021e-03 0.0 
0.0 0.0 -3.058749225436e-04 
-7.305418871957e-04 1.869626526336e-04 0.0 
1.869626526336e-04 4.754815575901e-03 0.0 
0.0 0.0 -7.328582426338e-04 
-1.136183616218e-03 2.082876610418e-04 0.0 
2.082876610418e-04 7.610878515336e-03 0.0 
0.0 0.0 -1.141128458404e-03 
-1.078434925953e-03 -1.984149302182e-04 0.0 
-1.984149302182e-04 7.234990828440e-03 0.0 
0.0 0.0 -1.078198857115e-03 
-6.621852882438e-04 2.164713360985e-04 0.0 
2.164713360985e-04 4.271535496369e-03 0.0 
0.0 0.0 -6.666835465145e-04 
-9.149083998473e-04 -1.952760623190e-04 0.0 
-1.952760623190e-04 6.113676858771e-03 0.0 
0.0 0.0 -9.153036164073e-04 
-1.187688204395e-03 -2.025883410102e-04 0.0 
-2.025883410102e-04 8.016876824675e-03 0.0 
0.0 0.0 -1.187586327529e-03 
-1.005326890981e-03 1.902074749801e-04 0.0 
1.902074749801e-04 6.713852212323e-03 0.0 
0.0 0.0 -1.013969106439e-03 
-1.909283182059e-04 -2.134343415579e-04 0.0 
-2.134343415579e-04 9.857203047885e-04 0.0 
0.0 0.0 -1.806728872115e-04 
-1.970147197369e-04 -2.059863142165e-04 0.0 
-2.059863142165e-04 1.002592449070e-03 0.0 
0.0 0.0 -1.835536028976e-04 
-3.515992897123e-04 -1.811957352846e-04 0.0 
-1.811957352846e-04 2.155411981566e-03 0.0 
0.0 0.0 -3.467375663575e-04 
-1.128856114321e-03 2.001566636705e-04 0.0 
2.001566636705e-04 7.510015093798e-03 0.0 
0.0 0.0 -1.127837695838e-03 
-9.816567297486e-04 1.933811921609e-04 0.0 
1.933811921609e-04 6.465198559992e-03 0.0 
0.0 0.0 -9.775003154318e-04 
-8.371572204409e-04 -2.148163729895e-04 0.0 
-2.148163729895e-04 5.710338305933e-03 0.0 
0.0 0.0 -8.513051444990e-04 
-8.730704368828e-04 1.896261582468e-04 0.0 
1.896261582468e-04 5.754508324044e-03 0.0 
0.0 0.0 -8.745614812816e-04 
-1.137329719499e-03 -1.941463340313e-04 0.0 
-1.941463340313e-04 7.669003078820e-03 0.0 
0.0 0.0 -1.139196670502e-03 
-7.981531024245e-04 1.892565346164e-04 0.0 
1.892565346164e-04 5.212239015909e-03 0.0 
0.0 0.0 -7.988714448434e-04 
-1.058279653052e-03 1.954206945734e-04 0.0 
1.954206945734e-04 7.042085544045e-03 0.0 
0.0 0.0 -1.061632825506e-03 
-3.556360797851e-04 -1.825172875802e-04 0.0 
-1.825172875802e-04 2.253382462632e-03 0.0 
0.0 0.0 -3.615122310665e-04 
-1.213390557451e-03 2.397950825143e-04 0.0 
2.397950825143e-04 8.136808344214e-03 0.0 
0.0 0.0 -1.211531131004e-03 
-7.660046426258e-04 -1.986537595935e-04 0.0 
-1.986537595935e-04 5.080766734255e-03 0.0 
0.0 0.0 -7.673127347790e-04 
-3.927767409548e-04 -1.941008242107e-04 0.0 
-1.941008242107e-04 2.469153154105e-03 0.0 
0.0 0.0 -3.889166325194e-04 
-7.314298842456e-04 -2.140562000032e-04 0.0 
-2.140562000032e-04 4.812028074598e-03 0.0 
0.0 0.0 -7.311132045151e-04 
-5.669903072896e-04 1.859979766969e-04 0.0 
1.859979766969e-04 3.622850524897e-03 0.0 
0.0 0.0 -5.716673668464e-04 
-4.441913073698e-04 -1.946929488680e-04 0.0 
-1.946929488680e-04 2.835535865589e-03 0.0 
0.0 0.0 -4.452767020142e-04 
-8.541353571324e-04 1.878201727380e-04 0.0 
1.878201727380e-04 5.598851307335e-03 0.0 
0.0 0.0 -8.564950983273e-04 
0.0 0.0 0.0 
0.0 0.0 0.0 
0.0 0.0 0.0 
0.0 0.0 0.0 
0.0 0.0 0.0 
0.0 0.0 0.0 
-9.633926432213e-04 -1.929125650731e-04 0.0 
-1.929125650731e-04 6.449382072422e-03 0.0 
0.0 0.0 -9.636005660098e-04 
-3.261615758852e-04 -1.754968158783e-04 0.0 
-1.754968158783e-04 2.064243752771e-03 0.0 
0.0 0.0 -3.336449385292e-04 
-9.716625480636e-04 -1.974982736353e-04 0.0 
-1.974982736353e-04 6.511810819199e-03 0.0 
0.0 0.0 -9.724388998541e-04 
-9.434553557208e-04 -1.947776052692e-04 0.0 
-1.947776052692e-04 6.314151919472e-03 0.0 
0.0 0.0 -9.438473481109e-04 
-6.149570530546e-04 1.958377041271e-04 0.0 
1.958377041271e-04 3.946002749694e-03 0.0 
0.0 0.0 -6.177757646845e-04 
-4.134741271646e-04 1.981876295034e-04 0.0 
1.981876295034e-04 2.543324249367e-03 0.0 
0.0 0.0 -4.162223005415e-04 
-1.136715502842e-03 -2.038924191314e-04 0.0 
-2.038924191314e-04 7.650435027918e-03 0.0 
0.0 0.0 -1.137719822027e-03 
-2.155883669569e-04 -8.829356196857e-05 0.0 
-8.829356196857e-05 9.573383583193e-04 0.0 
0.0 0.0 -2.047534254615e-04 
-6.021718484836e-04 1.735627083645e-04 0.0 
1.735627083645e-04 3.837011647565e-03 0.0 
0.0 0.0 -6.004815939294e-04 
-1.172134314024e-03 -1.664552663931e-04 0.0 
-1.664552663931e-04 7.890382462293e-03 0.0 
0.0 0.0 -1.175533656463e-03 
-2.822824235296e-04 1.888682444413e-04 0.0 
1.888682444413e-04 1.684200929602e-03 0.0 
0.0 0.0 -2.977570873278e-04 
-9.136045934539e-04 -1.921452035066e-04 0.0 
-1.921452035066e-04 6.056651557430e-03 0.0 
0.0 0.0 -9.088859120638e-04 
-8.340119380580e-04 -2.228113772718e-04 0.0 
-2.228113772718e-04 5.573887948832e-03 0.0 
0.0 0.0 -8.416286270284e-04 
-2.829330432205e-04 -1.923976084131e-04 0.0 
-1.923976084131e-04 1.716244531209e-03 0.0 
0.0 0.0 -2.842394630762e-04 
-1.159926400282e-03 -1.793893042656e-04 0.0 
-1.793893042656e-04 7.808824689671e-03 0.0 
0.0 0.0 -1.158722036769e-03 
-1.035589941137e-03 -1.985988582850e-04 0.0 
-1.985988582850e-04 6.933992631060e-03 0.0 
0.0 0.0 -1.034898561726e-03 
-3.359494272766e-04 1.786409644777e-04 0.0 
1.786409644777e-04 1.989232140030e-03 0.0 
0.0 0.0 -3.364655670308e-04 
-1.165152170532e-03 -1.849586778465e-04 0.0 
-1.849586778465e-04 7.849581652679e-03 0.0 
0.0 0.0 -1.166520446339e-03 
-1.171818434168e-03 1.701070722775e-04 0.0 
1.701070722775e-04 7.787163600185e-03 0.0 
0.0 0.0 -1.169001632583e-03 
-3.670484435220e-04 -2.062025335134e-04 0.0 
-2.062025335134e-04 2.310354927649e-03 0.0 
0.0 0.0 -3.701904734684e-04 
-4.878019895888e-04 -2.129991852323e-04 0.0 
-2.129991852323e-04 3.076179585064e-03 0.0 
0.0 0.0 -4.801335248058e-04 
-3.784853096696e-04 -1.951915827816e-04 0.0 
-1.951915827816e-04 2.373996755405e-03 0.0 
0.0 0.0 -3.791106726259e-04 
-1.023434568927e-03 -1.955357832442e-04 0.0 
-1.955357832442e-04 6.907952393425e-03 0.0 
0.0 0.0 -1.029923508343e-03 
-8.283537341298e-04 1.907553074043e-04 0.0 
1.907553074043e-04 5.413544228672e-03 0.0 
0.0 0.0 -8.276368238623e-04 
-1.175065292852e-03 1.838008001023e-04 0.0 
1.838008001023e-04 7.798269859187e-03 0.0 
0.0 0.0 -1.169529464977e-03 
-1.141233486497e-03 1.909358973763e-04 0.0 
1.909358973763e-04 7.594915182305e-03 0.0 
0.0 0.0 -1.140030709108e-03 
-9.986353517479e-04 -1.968060563575e-04 0.0 
-1.968060563575e-04 6.710344376515e-03 0.0 
0.0 0.0 -1.001167767022e-03 
-1.002641746751e-03 1.939099816929e-04 0.0 
1.939099816929e-04 6.639482721891e-03 0.0 
0.0 0.0 -1.004093472296e-03 
-3.170641866385e-04 1.974483890407e-04 0.0 
1.974483890407e-04 1.842860083610e-03 0.0 
0.0 0.0 -3.158693332420e-04 
-1.029368673375e-03 1.947386699307e-04 0.0 
1.947386699307e-04 6.837075470330e-03 0.0 
0.0 0.0 -1.032853941699e-03 
-1.038324079738e-03 1.969104416428e-04 0.0 
1.969104416428e-04 6.879456010501e-03 0.0 
0.0 0.0 -1.037144748481e-03 
-8.220289990508e-04 -1.901456335333e-04 0.0 
-1.901456335333e-04 5.481743507948e-03 0.0 
0.0 0.0 -8.248712778174e-04 
-9.784412971014e-04 -1.995967018581e-04 0.0 
-1.995967018581e-04 6.519224964638e-03 0.0 
0.0 0.0 -9.752741834902e-04 
-1.071043316413e-03 -2.014206266275e-04 0.0 
-2.014206266275e-04 7.187990111683e-03 0.0 
0.0 0.0 -1.071415751597e-03 
-7.449992410114e-04 1.900175048327e-04 0.0 
1.900175048327e-04 4.830596508428e-03 0.0 
0.0 0.0 -7.435371925968e-04 
-1.112301323396e-03 1.953318319137e-04 0.0 
1.953318319137e-04 7.388703494557e-03 0.0 
0.0 0.0 -1.110258267496e-03 
-7.048168666415e-04 2.103542029498e-04 0.0 
2.103542029498e-04 4.551180166485e-03 0.0 
0.0 0.0 -6.965171720950e-04 
-7.978310569569e-04 -1.996626955201e-04 0.0 
-1.996626955201e-04 5.282133349968e-03 0.0 
0.0 0.0 -7.960639764766e-04 
-5.335116196932e-04 2.239231297757e-04 0.0 
2.239231297757e-04 3.386453430155e-03 0.0 
0.0 0.0 -5.342291996904e-04 
-5.553576446558e-04 -1.816268034184e-04 0.0 
-1.816268034184e-04 3.628347878161e-03 0.0 
0.0 0.0 -5.581583723280e-04 
-1.010310088917e-03 1.967228699853e-04 0.0 
1.967228699853e-04 6.672709965049e-03 0.0 
0.0 0.0 -1.007339817349e-03 
-7.628577911211e-04 -1.911605880287e-04 0.0 
-1.911605880287e-04 5.057166832743e-03 0.0 
0.0 0.0 -7.637833264599e-04 
-4.056535220845e-04 -1.994601543413e-04 0.0 
-1.994601543413e-04 2.573810220736e-03 0.0 
0.0 0.0 -4.077494273363e-04 
-2.235505229120e-04 -1.665382784811e-04 0.0 
-1.665382784811e-04 1.264629605483e-03 0.0 
0.0 0.0 -2.185673950299e-04 
-1.005369566171e-03 -1.969282844887e-04 0.0 
-1.969282844887e-04 6.726819346583e-03 0.0 
0.0 0.0 -1.005115000480e-03 
-4.096373717980e-04 1.964452207256e-04 0.0 
1.964452207256e-04 2.501615904785e-03 0.0 
0.0 0.0 -4.107160730352e-04 
-1.196795855234e-03 2.010644044310e-04 0.0 
2.010644044310e-04 8.139442919111e-03 0.0 
0.0 0.0 -1.218716866995e-03 
-1.042807145316e-03 1.952121137199e-04 0.0 
1.952121137199e-04 6.924647329534e-03 0.0 
0.0 0.0 -1.043883448597e-03 
-1.067869276876e-03 1.919364052357e-04 0.0 
1.919364052357e-04 7.100655193935e-03 0.0 
0.0 0.0 -1.070373463590e-03 
-1.283006779812e-03 -2.454005743877e-05 0.0 
-2.454005743877e-05 8.441304095904e-03 0.0 
0.0 0.0 -1.284729618418e-03 
-6.611541786482e-04 -2.165377279582e-04 0.0 
-2.165377279582e-04 4.358180230514e-03 0.0 
0.0 0.0 -6.637377122259e-04 
-3.719232158050e-04 1.946095876175e-04 0.0 
1.946095876175e-04 2.237835984063e-03 0.0 
0.0 0.0 -3.731618544808e-04 
-2.509805120977e-04 2.101438879212e-04 0.0 
2.101438879212e-04 1.370179870162e-03 0.0 
0.0 0.0 -2.496210768721e-04 
-1.009272610852e-03 -1.976905948494e-04 0.0 
-1.976905948494e-04 6.773236228030e-03 0.0 
0.0 0.0 -1.009908742814e-03 
-9.502891484141e-04 2.008015227702e-04 0.0 
2.008015227702e-04 6.263291661127e-03 0.0 
0.0 0.0 -9.473489374553e-04 
-1.787867007396e-04 1.721284507092e-04 0.0 
1.721284507092e-04 9.234900215081e-04 0.0 
0.0 0.0 -1.858848441742e-04 
-5.306487836806e-04 -1.980238622701e-04 0.0 
-1.980238622701e-04 3.494279541485e-03 0.0 
0.0 0.0 -5.400474096907e-04 
-3.064883048416e-04 -1.749693241531e-04 0.0 
-1.749693241531e-04 2.001263288359e-03 0.0 
0.0 0.0 -3.246070344129e-04 
-9.392936976827e-04 -1.862704497829e-04 0.0 
-1.862704497829e-04 6.266809515345e-03 0.0 
0.0 0.0 -9.387834224271e-04 
-5.480159981423e-04 -2.100359931435e-04 0.0 
-2.100359931435e-04 3.693369469425e-03 0.0 
0.0 0.0 -5.687878759048e-04 
-9.467150260524e-04 1.924065934847e-04 0.0 
1.924065934847e-04 6.242240235616e-03 0.0 
0.0 0.0 -9.467935652645e-04 
-5.428455294622e-04 -2.085125102257e-04 0.0 
-2.085125102257e-04 3.415670535467e-03 0.0 
0.0 0.0 -5.337555413937e-04 
-1.117346964304e-03 -2.071110090059e-04 0.0 
-2.071110090059e-04 7.492505049919e-03 0.0 
0.0 0.0 -1.114809527198e-03 
-4.745048492879e-04 1.992195964991e-04 0.0 
1.992195964991e-04 2.965213732964e-03 0.0 
0.0 0.0 -4.768663991247e-04 
-1.019084130149e-03 -1.971234603784e-04 0.0 
-1.971234603784e-04 6.834832976306e-03 0.0 
0.0 0.0 -1.018590841688e-03 
-3.372917149944e-04 -1.912349410902e-04 0.0 
-1.912349410902e-04 2.104646860584e-03 0.0 
0.0 0.0 -3.376433569222e-04 
-9.810862783946e-04 -1.972875806497e-04 0.0 
-1.972875806497e-04 6.573374097127e-03 0.0 
0.0 0.0 -9.812220007866e-04 
-7.630262787412e-04 -1.649240710624e-04 0.0 
-1.649240710624e-04 5.040550269950e-03 0.0 
0.0 0.0 -7.604224332210e-04 
-1.040603755793e-03 1.933348900592e-04 0.0 
1.933348900592e-04 6.902261502476e-03 0.0 
0.0 0.0 -1.041555045145e-03 
-5.360677599799e-04 1.876482889456e-04 0.0 
1.876482889456e-04 3.380336319223e-03 0.0 
0.0 0.0 -5.350282927002e-04 
-3.256683131977e-04 2.104859329235e-04 0.0 
2.104859329235e-04 1.909139084910e-03 0.0 
0.0 0.0 -3.277310168338e-04 
-8.709310065231e-04 -1.930857458815e-04 0.0 
-1.930857458815e-04 5.840506173077e-03 0.0 
0.0 0.0 -8.787268422831e-04 
-9.478935846188e-04 -1.922017527602e-04 0.0 
-1.922017527602e-04 6.329496652854e-03 0.0 
0.0 0.0 -9.464297096767e-04 
-6.788789609641e-04 1.916120147783e-04 0.0 
1.916120147783e-04 4.369175427210e-03 0.0 
0.0 0.0 -6.776081642141e-04 
-9.468425740780e-04 -2.085300673065e-04 0.0 
-2.085300673065e-04 6.298374618209e-03 0.0 
0.0 0.0 -9.453210152248e-04 
-3.756080425156e-04 -1.934039556713e-04 0.0 
-1.934039556713e-04 2.352414382127e-03 0.0 
0.0 0.0 -3.758914132629e-04 
-9.664473934007e-04 1.935643871513e-04 0.0 
1.935643871513e-04 6.379409966944e-03 0.0 
0.0 0.0 -9.642804585795e-04 
-3.026576237446e-04 -1.928297610963e-04 0.0 
-1.928297610963e-04 1.798935007683e-03 0.0 
0.0 0.0 -2.947674122297e-04 
-1.153179427147e-03 -2.051549704311e-04 0.0 
-2.051549704311e-04 7.761192827607e-03 0.0 
0.0 0.0 -1.150402778756e-03 
-9.838604339424e-04 -1.907200549991e-04 0.0 
-1.907200549991e-04 6.585836583388e-03 0.0 
0.0 0.0 -9.834711240942e-04 
-1.039448222436e-03 -1.939988089318e-04 0.0 
-1.939988089318e-04 6.961176011231e-03 0.0 
0.0 0.0 -1.037051012011e-03 
-1.209610339595e-03 -2.064055054886e-04 0.0 
-2.064055054886e-04 8.130245976668e-03 0.0 
0.0 0.0 -1.204463612412e-03 
-8.289278457568e-04 -1.937873946282e-04 0.0 
-1.937873946282e-04 5.514638524943e-03 0.0 
0.0 0.0 -8.294769417472e-04 
-3.109821114723e-04 1.906924358190e-04 0.0 
1.906924358190e-04 1.784796369805e-03 0.0 
0.0 0.0 -3.081489256106e-04 
-9.237752216618e-04 -1.945449657843e-04 0.0 
-1.945449657843e-04 6.173770782065e-03 0.0 
0.0 0.0 -9.239488535170e-04 
-1.191042257491e-03 2.067698926502e-04 0.0 
2.067698926502e-04 7.951909524645e-03 0.0 
0.0 0.0 -1.189963100592e-03 
-4.775062598439e-04 -1.845893080325e-04 0.0 
-1.845893080325e-04 3.071724244623e-03 0.0 
0.0 0.0 -4.786098583285e-04 
-1.036708665275e-03 -1.995575756553e-04 0.0 
-1.995575756553e-04 6.972509629402e-03 0.0 
0.0 0.0 -1.038675661098e-03 
-1.042240091366e-03 -2.028158867282e-04 0.0 
-2.028158867282e-04 6.979443732142e-03 0.0 
0.0 0.0 -1.041631482750e-03 
-3.838009065759e-04 1.994121048007e-04 0.0 
1.994121048007e-04 2.344808306372e-03 0.0 
0.0 0.0 -3.880698300753e-04 
-9.524861751469e-04 -1.961707644155e-04 0.0 
-1.961707644155e-04 6.373861031903e-03 0.0 
0.0 0.0 -9.525765839929e-04 
-8.586433483391e-04 -1.931078618343e-04 0.0 
-1.931078618343e-04 5.748348032680e-03 0.0 
0.0 0.0 -8.663127257149e-04 
-4.249902311886e-04 -1.873478746315e-04 0.0 
-1.873478746315e-04 2.710801804411e-03 0.0 
0.0 0.0 -4.280652785065e-04 
-5.063403877371e-04 -1.957595432946e-04 0.0 
-1.957595432946e-04 3.295220362808e-03 0.0 
0.0 0.0 -5.113914792957e-04 
-8.011417777980e-04 -1.869294440003e-04 0.0 
-1.869294440003e-04 5.307962758149e-03 0.0 
0.0 0.0 -8.004334922225e-04 
-1.012906793309e-03 1.927821333669e-04 0.0 
1.927821333669e-04 6.702583928550e-03 0.0 
0.0 0.0 -1.012809740122e-03 
-6.237702296699e-04 -1.788620839171e-04 0.0 
-1.788620839171e-04 4.053757856152e-03 0.0 
0.0 0.0 -6.201901524263e-04 
-7.654836975308e-04 -1.844361479045e-04 0.0 
-1.844361479045e-04 5.061981616524e-03 0.0 
0.0 0.0 -7.649884091348e-04 
-1.002132587578e-03 1.966152402383e-04 0.0 
1.966152402383e-04 6.628701174112e-03 0.0 
0.0 0.0 -1.000670320419e-03 
-9.160037735611e-04 2.105070801011e-04 0.0 
2.105070801011e-04 6.003693375901e-03 0.0 
0.0 0.0 -9.110000341593e-04 
-8.984996443820e-04 1.923871522476e-04 0.0 
1.923871522476e-04 5.918711205323e-03 0.0 
0.0 0.0 -8.984003255416e-04 
-7.635747983665e-04 1.700234808702e-04 0.0 
1.700234808702e-04 4.971193028469e-03 0.0 
0.0 0.0 -7.627602282935e-04 
-1.130358647028e-03 -1.898334947356e-04 0.0 
-1.898334947356e-04 7.609563538776e-03 0.0 
0.0 0.0 -1.130631056169e-03 
-8.949695730274e-04 -1.944201834166e-04 0.0 
-1.944201834166e-04 5.973169188704e-03 0.0 
0.0 0.0 -8.953295484280e-04 
-8.818948229553e-04 -1.808766535773e-04 0.0 
-1.808766535773e-04 5.810855732820e-03 0.0 
0.0 0.0 -8.720525204519e-04 
-1.180322083838e-03 -2.544019696132e-04 0.0 
-2.544019696132e-04 8.044684295215e-03 0.0 
0.0 0.0 -1.193584144721e-03 
-1.074317409630e-03 -2.028987224977e-04 0.0 
-2.028987224977e-04 7.209609754449e-03 0.0 
0.0 0.0 -1.073433710836e-03 
-9.845138767756e-04 1.933324893147e-04 0.0 
1.933324893147e-04 6.502529959442e-03 0.0 
0.0 0.0 -9.841343610905e-04 
-1.074220521467e-03 1.937044770005e-04 0.0 
1.937044770005e-04 7.133220182241e-03 0.0 
0.0 0.0 -1.073677668998e-03 
-5.827062234069e-04 -1.941542500793e-04 0.0 
-1.941542500793e-04 3.817750575136e-03 0.0 
0.0 0.0 -5.862626530914e-04 
-5.447661780291e-04 -1.955268079661e-04 0.0 
-1.955268079661e-04 3.556218869368e-03 0.0 
0.0 0.0 -5.488365039436e-04 
-3.200298242820e-04 -2.008010355192e-04 0.0 
-2.008010355192e-04 1.912733596730e-03 0.0 
0.0 0.0 -3.130684191733e-04 
-9.610361432964e-04 -1.937939784478e-04 0.0 
-1.937939784478e-04 6.432925566233e-03 0.0 
0.0 0.0 -9.612598090090e-04 
-5.730915420071e-04 -1.993284364060e-04 0.0 
-1.993284364060e-04 3.756322275087e-03 0.0 
0.0 0.0 -5.775003002374e-04 
-9.676234080517e-04 -1.978430549766e-04 0.0 
-1.978430549766e-04 6.470709836540e-03 0.0 
0.0 0.0 -9.686535345556e-04 
-9.307775843259e-04 -2.009567450900e-04 0.0 
-2.009567450900e-04 6.218061512745e-03 0.0 
0.0 0.0 -9.322463471790e-04 
-7.694630900908e-04 -1.939675917432e-04 0.0 
-1.939675917432e-04 5.091771385307e-03 0.0 
0.0 0.0 -7.690363516573e-04 
-4.826168522867e-04 1.966675666533e-04 0.0 
1.966675666533e-04 3.022691758795e-03 0.0 
0.0 0.0 -4.860199686152e-04 
-5.166152208990e-04 1.895375761803e-04 0.0 
1.895375761803e-04 3.232772262981e-03 0.0 
0.0 0.0 -5.148587792422e-04 
-5.108840173734e-04 1.960376866878e-04 0.0 
1.960376866878e-04 3.223531247209e-03 0.0 
0.0 0.0 -5.143448975765e-04 
-5.481816317278e-04 1.962623655860e-04 0.0 
1.962623655860e-04 3.484569495256e-03 0.0 
0.0 0.0 -5.517963299543e-04 
-3.453277696027e-04 1.969675537480e-04 0.0 
1.969675537480e-04 2.040898908983e-03 0.0 
0.0 0.0 -3.446931235564e-04 
-1.101052151537e-03 -1.995058256317e-04 0.0 
-1.995058256317e-04 7.411556171306e-03 0.0 
0.0 0.0 -1.101849228970e-03 
-6.632570071373e-04 1.923578636572e-04 0.0 
1.923578636572e-04 4.270077985980e-03 0.0 
0.0 0.0 -6.642957827475e-04 
-1.108318305334e-03 -2.031784349513e-04 0.0 
-2.031784349513e-04 7.443886566257e-03 0.0 
0.0 0.0 -1.107989045227e-03 
-7.011090036509e-04 1.927949869008e-04 0.0 
1.927949869008e-04 4.532588404756e-03 0.0 
0.0 0.0 -7.013039408444e-04 
-9.265731680826e-04 1.957284230983e-04 0.0 
1.957284230983e-04 6.103426765876e-03 0.0 
0.0 0.0 -9.268471029392e-04 
-7.946469523286e-04 1.955747403875e-04 0.0 
1.955747403875e-04 5.185524606882e-03 0.0 
0.0 0.0 -7.951651613512e-04 
-7.572756681299e-04 -1.872685007042e-04 0.0 
-1.872685007042e-04 5.004494979540e-03 0.0 
0.0 0.0 -7.567435594048e-04 
-3.404029927324e-04 -1.917944120496e-04 0.0 
-1.917944120496e-04 2.114741006724e-03 0.0 
0.0 0.0 -3.417109511102e-04 
-1.168366620594e-03 1.821653519024e-04 0.0 
1.821653519024e-04 7.733894625141e-03 0.0 
0.0 0.0 -1.161691925552e-03 
-1.208283455631e-03 -2.138622136652e-04 0.0 
-2.138622136652e-04 8.118515122607e-03 0.0 
0.0 0.0 -1.198716319349e-03 
-9.647894746907e-04 1.840623527821e-04 0.0 
1.840623527821e-04 6.374025584992e-03 0.0 
0.0 0.0 -9.650368815299e-04 
-5.866113351029e-04 1.997061311369e-04 0.0 
1.997061311369e-04 3.745701321029e-03 0.0 
0.0 0.0 -5.892385666867e-04 
-8.606873822814e-04 1.952603744915e-04 0.0 
1.952603744915e-04 5.644314043148e-03 0.0 
0.0 0.0 -8.609535187098e-04 
-9.731621015165e-04 2.042240848123e-04 0.0 
2.042240848123e-04 6.416634786867e-03 0.0 
0.0 0.0 -9.708520278613e-04 
-6.114505218060e-04 -1.970451499323e-04 0.0 
-1.970451499323e-04 4.016656707276e-03 0.0 
0.0 0.0 -6.148791393494e-04 
-6.402153518211e-04 -1.799304007789e-04 0.0 
-1.799304007789e-04 4.195134185684e-03 0.0 
0.0 0.0 -6.394234923164e-04 
-4.756790629449e-04 -1.970276149029e-04 0.0 
-1.970276149029e-04 3.037216567460e-03 0.0 
0.0 0.0 -4.739097840058e-04 
-4.115649622254e-04 -1.881038262711e-04 0.0 
-1.881038262711e-04 2.615008917890e-03 0.0 
0.0 0.0 -4.132304097957e-04 
-6.210949620284e-04 -1.921853512952e-04 0.0 
-1.921853512952e-04 4.079647892730e-03 0.0 
0.0 0.0 -6.236739531379e-04 
-4.389003653302e-04 1.899270358255e-04 0.0 
1.899270358255e-04 2.702990318359e-03 0.0 
0.0 0.0 -4.393534411964e-04 
-3.957050609942e-04 -2.005038904365e-04 0.0 
-2.005038904365e-04 2.512628569390e-03 0.0 
0.0 0.0 -3.988888273503e-04 
-7.912937221892e-04 -1.931036918808e-04 0.0 
-1.931036918808e-04 5.255690323409e-03 0.0 
0.0 0.0 -7.922809795675e-04 
-9.555190717992e-04 1.953941988256e-04 0.0 
1.953941988256e-04 6.303135181036e-03 0.0 
0.0 0.0 -9.554846610150e-04 
-1.131935364223e-03 1.749369794292e-04 0.0 
1.749369794292e-04 7.516475401832e-03 0.0 
0.0 0.0 -1.128610778606e-03 
-7.677587316374e-05 5.132629422694e-05 0.0 
5.132629422694e-05 2.950272314679e-04 0.0 
0.0 0.0 -4.808883996072e-05 
-6.821273879061e-04 1.885153294961e-04 0.0 
1.885153294961e-04 4.394625922574e-03 0.0 
0.0 0.0 -6.818868151028e-04 
-6.732798359077e-04 1.896419879917e-04 0.0 
1.896419879917e-04 4.334337175818e-03 0.0 
0.0 0.0 -6.732431144785e-04 
-6.253359345237e-04 1.966841986602e-04 0.0 
1.966841986602e-04 4.007688208335e-03 0.0 
0.0 0.0 -6.268095852860e-04 
-9.342352764228e-04 1.992757766659e-04 0.0 
1.992757766659e-04 6.164738867849e-03 0.0 
0.0 0.0 -9.344164207832e-04 
-7.286499736728e-04 1.960851222300e-04 0.0 
1.960851222300e-04 4.727094990713e-03 0.0 
0.0 0.0 -7.295442444478e-04 
-5.028967805497e-04 2.032690915996e-04 0.0 
2.032690915996e-04 3.169465929495e-03 0.0 
0.0 0.0 -5.055050897130e-04 
-6.594115462036e-04 -1.877379034349e-04 0.0 
-1.877379034349e-04 4.343026444268e-03 0.0 
0.0 0.0 -6.611654675676e-04 
-1.086852433707e-03 1.972393602690e-04 0.0 
1.972393602690e-04 7.180508805687e-03 0.0 
0.0 0.0 -1.080452943103e-03 
-5.134906191046e-04 -1.975407525199e-04 0.0 
-1.975407525199e-04 3.241783811479e-03 0.0 
0.0 0.0 -5.025663706543e-04 
-2.068765507079e-04 1.780811299395e-04 0.0 
1.780811299395e-04 1.103158600140e-03 0.0 
0.0 0.0 -2.132551421006e-04 
-2.821446593325e-04 1.850947824847e-04 0.0 
1.850947824847e-04 1.595379339776e-03 0.0 
0.0 0.0 -2.784575373548e-04 
-4.423162808512e-04 1.966617048387e-04 0.0 
1.966617048387e-04 2.737975260110e-03 0.0 
0.0 0.0 -4.444240490352e-04 
-5.210766744923e-04 1.945752899053e-04 0.0 
1.945752899053e-04 3.285513932229e-03 0.0 
0.0 0.0 -5.239304829885e-04 
-7.103179674583e-04 1.937608556774e-04 0.0 
1.937608556774e-04 4.594082704701e-03 0.0 
0.0 0.0 -7.099160536912e-04 
-6.974191009825e-04 -1.859522295000e-04 0.0 
-1.859522295000e-04 4.604175499566e-03 0.0 
0.0 0.0 -6.984076724203e-04 
-3.111089899344e-04 -2.166751455615e-04 0.0 
-2.166751455615e-04 1.884393958953e-03 0.0 
0.0 0.0 -3.092759564244e-04 
-2.948433446492e-04 -2.106961415147e-04 0.0 
-2.106961415147e-04 1.651650768654e-03 0.0 
0.0 0.0 -2.765202162382e-04 
-9.029473964606e-04 -2.318038937515e-04 0.0 
-2.318038937515e-04 5.899437226641e-03 0.0 
0.0 0.0 -8.885078876198e-04 
-4.353328022797e-04 -2.074729337185e-04 0.0 
-2.074729337185e-04 2.774644133327e-03 0.0 
0.0 0.0 -4.363975895258e-04 
-1.066115861838e-03 1.923323182630e-04 0.0 
1.923323182630e-04 7.082058213666e-03 0.0 
0.0 0.0 -1.067401112627e-03 
-1.093430528172e-03 1.859529625015e-04 0.0 
1.859529625015e-04 7.265648937776e-03 0.0 
0.0 0.0 -1.093380752811e-03 
-9.055761456836e-04 -1.909848796464e-04 0.0 
-1.909848796464e-04 6.010442057108e-03 0.0 
0.0 0.0 -9.013836717722e-04 
-1.127393681638e-03 1.896887369255e-04 0.0 
1.896887369255e-04 7.503433377312e-03 0.0 
0.0 0.0 -1.126084317643e-03 
-1.155463123535e-03 1.744033292086e-04 0.0 
1.744033292086e-04 7.751673747269e-03 0.0 
0.0 0.0 -1.164310864388e-03 
-7.420687839784e-04 -1.936328330323e-04 0.0 
-1.936328330323e-04 4.896453187980e-03 0.0 
0.0 0.0 -7.408850503417e-04 
-1.028946225618e-03 1.859237494967e-04 0.0 
1.859237494967e-04 6.817745899264e-03 0.0 
0.0 0.0 -1.029042339204e-03 
-3.444765648257e-04 -1.889029113480e-04 0.0 
-1.889029113480e-04 2.157321474184e-03 0.0 
0.0 0.0 -3.474733517438e-04 
-6.874756161392e-04 -1.926159426764e-04 0.0 
-1.926159426764e-04 4.537720382930e-03 0.0 
0.0 0.0 -6.894573431515e-04 
-6.898061862195e-04 1.857511077276e-04 0.0 
1.857511077276e-04 4.440388507088e-03 0.0 
0.0 0.0 -6.879681371099e-04 
-4.019279772504e-04 1.778728342642e-04 0.0 
1.778728342642e-04 2.433102799940e-03 0.0 
0.0 0.0 -3.974404770784e-04 
-2.808996377463e-04 -1.954566177410e-04 0.0 
-1.954566177410e-04 1.711546538442e-03 0.0 
0.0 0.0 -2.813757158202e-04 
-5.769851111882e-04 1.945968129497e-04 0.0 
1.945968129497e-04 3.685550638925e-03 0.0 
0.0 0.0 -5.804062017457e-04 
-6.698465200997e-04 -1.848151346018e-04 0.0 
-1.848151346018e-04 4.407215399786e-03 0.0 
0.0 0.0 -6.703429011759e-04 
-7.069533997817e-04 -1.864555130782e-04 0.0 
-1.864555130782e-04 4.664424843705e-03 0.0 
0.0 0.0 -7.070647534220e-04 
-4.705619805672e-04 1.797584254588e-04 0.0 
1.797584254588e-04 2.905608131468e-03 0.0 
0.0 0.0 -4.680152132766e-04 
-7.664680765081e-04 1.944574444008e-04 0.0 
1.944574444008e-04 4.988010799345e-03 0.0 
0.0 0.0 -7.666177146937e-04 
-6.793079833930e-04 -1.842955306639e-04 0.0 
-1.842955306639e-04 4.467105658874e-03 0.0 
0.0 0.0 -6.790125122095e-04 
-7.192535587873e-04 1.886174479633e-04 0.0 
1.886174479633e-04 4.651675493154e-03 0.0 
0.0 0.0 -7.183521444552e-04 
-5.167516635029e-04 -1.889877885737e-04 0.0 
-1.889877885737e-04 3.361424050145e-03 0.0 
0.0 0.0 -5.205443542100e-04 
-9.916854113118e-04 -1.973034417569e-04 0.0 
-1.973034417569e-04 6.645632539252e-03 0.0 
0.0 0.0 -9.921115096417e-04 
-1.000725886826e-03 -2.001881518318e-04 0.0 
-2.001881518318e-04 6.682457666445e-03 0.0 
0.0 0.0 -9.984673180475e-04 
-6.910740697019e-04 1.869291771831e-04 0.0 
1.869291771831e-04 4.454330638785e-03 0.0 
0.0 0.0 -6.904379518788e-04 
-1.131075422052e-03 1.930354118908e-04 0.0 
1.930354118908e-04 7.540452433703e-03 0.0 
0.0 0.0 -1.133495712197e-03 
-3.818178823842e-04 -1.881304660736e-04 0.0 
-1.881304660736e-04 2.417279904182e-03 0.0 
0.0 0.0 -3.849690761666e-04 
-1.204919198583e-03 2.055908933390e-04 0.0 
2.055908933390e-04 8.107807864514e-03 0.0 
0.0 0.0 -1.208505026952e-03 
-7.381856154466e-04 1.951283212297e-04 0.0 
1.951283212297e-04 4.788651758778e-03 0.0 
0.0 0.0 -7.381355003807e-04 
-1.179893914325e-03 2.326195910896e-04 0.0 
2.326195910896e-04 8.057192319457e-03 0.0 
0.0 0.0 -1.203459118631e-03 
-9.174882615910e-04 -1.900236548233e-04 0.0 
-1.900236548233e-04 6.103327033778e-03 0.0 
0.0 0.0 -9.144069900286e-04 
-3.759838339719e-04 1.980975432101e-04 0.0 
1.980975432101e-04 2.280850535288e-03 0.0 
0.0 0.0 -3.788569260404e-04 
-9.329446838714e-04 -1.934956866743e-04 0.0 
-1.934956866743e-04 6.203824333691e-03 0.0 
0.0 0.0 -9.292863832265e-04 
-1.148316362968e-03 1.911406139228e-04 0.0 
1.911406139228e-04 7.656686617329e-03 0.0 
0.0 0.0 -1.148369591821e-03 
-7.751955477395e-04 1.935539670278e-04 0.0 
1.935539670278e-04 5.048248374235e-03 0.0 
0.0 0.0 -7.747733155264e-04 
-5.636121724150e-04 -1.856060269499e-04 0.0 
-1.856060269499e-04 3.652721039859e-03 0.0 
0.0 0.0 -5.621395992319e-04 
-9.592421645063e-04 -1.953589560094e-04 0.0 
-1.953589560094e-04 6.397497054977e-03 0.0 
0.0 0.0 -9.572423940436e-04 
-7.410203931499e-04 1.888947749689e-04 0.0 
1.888947749689e-04 4.805195564350e-03 0.0 
0.0 0.0 -7.402445244775e-04 
-3.049241937385e-04 2.026327067247e-04 0.0 
2.026327067247e-04 1.807680481835e-03 0.0 
0.0 0.0 -3.123079531677e-04 
-1.247303547099e-03 2.054291781831e-04 0.0 
2.054291781831e-04 8.428743189038e-03 0.0 
0.0 0.0 -1.259077240559e-03 
-2.832321787004e-04 2.033440710738e-04 0.0 
2.033440710738e-04 1.568411261078e-03 0.0 
0.0 0.0 -2.747754844540e-04 
-1.180725818141e-03 -1.959284539652e-04 0.0 
-1.959284539652e-04 8.086063063664e-03 0.0 
0.0 0.0 -1.194426649262e-03 
-1.181044415914e-03 1.885702677113e-04 0.0 
1.885702677113e-04 7.848025462359e-03 0.0 
0.0 0.0 -1.175981821618e-03 
-1.019774229424e-03 -1.968009652079e-04 0.0 
-1.968009652079e-04 6.844195853493e-03 0.0 
0.0 0.0 -1.020516803968e-03 
-9.063963003823e-04 2.216702355020e-04 0.0 
2.216702355020e-04 5.948302852210e-03 0.0 
0.0 0.0 -9.041796124736e-04 
-1.096159842107e-03 -2.041353887510e-04 0.0 
-2.041353887510e-04 7.354511593932e-03 0.0 
0.0 0.0 -1.094228678348e-03 
-7.158215028594e-04 -1.849822212150e-04 0.0 
-1.849822212150e-04 4.721957550486e-03 0.0 
0.0 0.0 -7.154996274706e-04 
-8.342688439829e-04 -1.960354733343e-04 0.0 
-1.960354733343e-04 5.542507863884e-03 0.0 
0.0 0.0 -8.337527902170e-04 
-1.179248762261e-03 1.915113563363e-04 0.0 
1.915113563363e-04 7.953436829066e-03 0.0 
0.0 0.0 -1.191782302182e-03 
-1.022355738208e-03 1.947903411638e-04 0.0 
1.947903411638e-04 6.764095762217e-03 0.0 
0.0 0.0 -1.021464098896e-03 
-1.029803380413e-03 -1.995345647328e-04 0.0 
-1.995345647328e-04 6.892395198165e-03 0.0 
0.0 0.0 -1.028225029406e-03 
-9.800703698298e-04 2.033610077795e-04 0.0 
2.033610077795e-04 6.469215121367e-03 0.0 
0.0 0.0 -9.780777104595e-04 
-3.460311380533e-04 1.949105016323e-04 0.0 
1.949105016323e-04 2.083431817991e-03 0.0 
0.0 0.0 -3.505936111242e-04 
-1.056998258985e-03 -2.024071474235e-04 0.0 
-2.024071474235e-04 7.098571223248e-03 0.0 
0.0 0.0 -1.057861461704e-03 
-1.245215734681e-03 -2.948889405530e-06 0.0 
-2.948889405530e-06 8.708064260567e-03 0.0 
0.0 0.0 -1.268085107495e-03 
-1.199968332554e-03 2.184447548861e-04 0.0 
2.184447548861e-04 8.021680446852e-03 0.0 
0.0 0.0 -1.202195648613e-03 
-6.908555778157e-04 1.952647486751e-04 0.0 
1.952647486751e-04 4.467406980685e-03 0.0 
0.0 0.0 -6.923681691211e-04 
-8.989504497264e-04 -2.030487714898e-04 0.0 
-2.030487714898e-04 5.998411166372e-03 0.0 
0.0 0.0 -9.020111041354e-04 
-8.706850616848e-04 2.163039302349e-04 0.0 
2.163039302349e-04 5.704755713039e-03 0.0 
0.0 0.0 -8.677534307045e-04 
-7.350398663415e-04 -1.921852650882e-04 0.0 
-1.921852650882e-04 4.858429528850e-03 0.0 
0.0 0.0 -7.352749011056e-04 
-9.925381973485e-04 1.968648573772e-04 0.0 
1.968648573772e-04 6.563559215451e-03 0.0 
0.0 0.0 -9.927925938930e-04 
-1.029028532084e-03 1.960911717032e-04 0.0 
1.960911717032e-04 6.822296250893e-03 0.0 
0.0 0.0 -1.030113165296e-03 
-2.401332151859e-04 -2.098625103456e-04 0.0 
-2.098625103456e-04 1.444865681486e-03 0.0 
0.0 0.0 -2.466400652194e-04 
-4.534206567438e-04 1.915983849917e-04 0.0 
1.915983849917e-04 2.786638049385e-03 0.0 
0.0 0.0 -4.508272210452e-04 
-7.276651503282e-04 1.887396446789e-04 0.0 
1.887396446789e-04 4.711996878728e-03 0.0 
0.0 0.0 -7.269793770173e-04 
-6.885109501690e-04 -1.881460235650e-04 0.0 
-1.881460235650e-04 4.526125077483e-03 0.0 
0.0 0.0 -6.875569550716e-04 
-7.327380615622e-04 1.893031023786e-04 0.0 
1.893031023786e-04 4.746976141071e-03 0.0 
0.0 0.0 -7.320784846625e-04 
-1.207414471784e-03 -1.921627464004e-04 0.0 
-1.921627464004e-04 8.251115158096e-03 0.0 
0.0 0.0 -1.225426844749e-03 
-1.165911235799e-03 1.728266951447e-04 0.0 
1.728266951447e-04 7.751919212480e-03 0.0 
0.0 0.0 -1.162686153705e-03 
-1.174125183305e-03 -1.966474411141e-04 0.0 
-1.966474411141e-04 7.895985343999e-03 0.0 
0.0 0.0 -1.173632101657e-03 
-6.588438363323e-04 -1.812037125044e-04 0.0 
-1.812037125044e-04 4.301364332342e-03 0.0 
0.0 0.0 -6.556197767577e-04 
-1.082747471146e-03 1.891035132956e-04 0.0 
1.891035132956e-04 7.201407994730e-03 0.0 
0.0 0.0 -1.082713561900e-03 
-9.901836726999e-04 -1.945402384494e-04 0.0 
-1.945402384494e-04 6.633588115461e-03 0.0 
0.0 0.0 -9.899156953211e-04 
-1.203900706285e-03 2.001643692103e-04 0.0 
2.001643692103e-04 8.020307122063e-03 0.0 
0.0 0.0 -1.198415070424e-03 
-1.018917370980e-03 -2.029360126540e-04 0.0 
-2.029360126540e-04 6.841232066874e-03 0.0 
0.0 0.0 -1.021631336281e-03 
-7.252862927281e-04 -1.917571483024e-04 0.0 
-1.917571483024e-04 4.797885526736e-03 0.0 
0.0 0.0 -7.266350563285e-04 
-6.996186826148e-04 1.874149340260e-04 0.0 
1.874149340260e-04 4.515630015583e-03 0.0 
0.0 0.0 -6.989458521267e-04 
-1.062701287971e-03 1.919893444833e-04 0.0 
1.919893444833e-04 7.044103527011e-03 0.0 
0.0 0.0 -1.060111126929e-03 
-1.159236038185e-03 -2.100410646673e-04 0.0 
-2.100410646673e-04 7.815649065545e-03 0.0 
0.0 0.0 -1.160283895044e-03 
-1.068044840095e-03 1.975027097547e-04 0.0 
1.975027097547e-04 7.089380260529e-03 0.0 
0.0 0.0 -1.066842251349e-03 
-1.033322736071e-03 1.952546159750e-04 0.0 
1.952546159750e-04 6.838585495745e-03 0.0 
0.0 0.0 -1.030428295937e-03 
-1.127957771235e-03 2.034159333984e-04 0.0 
2.034159333984e-04 7.486625778373e-03 0.0 
0.0 0.0 -1.124756152480e-03 
-1.155677614868e-03 -1.983866149801e-04 0.0 
-1.983866149801e-04 7.868967508162e-03 0.0 
0.0 0.0 -1.167530213646e-03 
-1.094507555949e-03 1.976519323402e-04 0.0 
1.976519323402e-04 7.281086392671e-03 0.0 
0.0 0.0 -1.096139997395e-03 
-8.893531318376e-04 1.947803294653e-04 0.0 
1.947803294653e-04 5.843023406601e-03 0.0 
0.0 0.0 -8.895595506238e-04 
-6.419372915529e-04 1.659854799663e-04 0.0 
1.659854799663e-04 4.112940198776e-03 0.0 
0.0 0.0 -6.419897747600e-04 
-1.057958817333e-03 -1.915382936822e-04 0.0 
-1.915382936822e-04 7.093836536897e-03 0.0 
0.0 0.0 -1.057160997780e-03 
-1.010397126926e-03 1.924777478118e-04 0.0 
1.924777478118e-04 6.699973834187e-03 0.0 
0.0 0.0 -1.010795753303e-03 
-4.010552004860e-04 1.841654314204e-04 0.0 
1.841654314204e-04 2.442507368575e-03 0.0 
0.0 0.0 -4.018221946533e-04 
-7.246063133898e-04 -1.880612964647e-04 0.0 
-1.880612964647e-04 4.782342909510e-03 0.0 
0.0 0.0 -7.241222962603e-04 
-8.198364604858e-04 1.863931235936e-04 0.0 
1.863931235936e-04 5.353653336719e-03 0.0 
0.0 0.0 -8.193994707270e-04 
-8.991995514688e-04 -1.967035222147e-04 0.0 
-1.967035222147e-04 5.995025760983e-03 0.0 
0.0 0.0 -8.986564694586e-04 
-4.050243053020e-04 1.994613475965e-04 0.0 
1.994613475965e-04 2.469637685563e-03 0.0 
0.0 0.0 -4.057256964758e-04 
-6.967689891126e-04 -1.888281546422e-04 0.0 
-1.888281546422e-04 4.585730407348e-03 0.0 
0.0 0.0 -6.962026719631e-04 
-9.643194553962e-04 -1.980704148003e-04 0.0 
-1.980704148003e-04 6.448875351116e-03 0.0 
0.0 0.0 -9.636952012155e-04 
-7.333735645701e-04 1.825225121090e-04 0.0 
1.825225121090e-04 4.734280668460e-03 0.0 
0.0 0.0 -7.294090860402e-04 
-7.570403720066e-04 1.947967854262e-04 0.0 
1.947967854262e-04 4.925685443404e-03 0.0 
0.0 0.0 -7.579899565570e-04 
-9.487659951765e-04 -2.043170517302e-04 0.0 
-2.043170517302e-04 6.373556266418e-03 0.0 
0.0 0.0 -9.556638187253e-04 
-7.610430462996e-04 1.745184878598e-04 0.0 
1.745184878598e-04 5.044670069107e-03 0.0 
0.0 0.0 -7.638029664831e-04 
-1.838096952562e-04 2.082695791090e-04 0.0 
2.082695791090e-04 7.724611367138e-04 0.0 
0.0 0.0 -1.578647551136e-04 
-8.576241388509e-04 -1.943288446579e-04 0.0 
-1.943288446579e-04 5.714280224429e-03 0.0 
0.0 0.0 -8.580817703278e-04 
-1.051194806149e-03 1.905396044606e-04 0.0 
1.905396044606e-04 6.972468322912e-03 0.0 
0.0 0.0 -1.051835763028e-03 
-1.194223105728e-03 2.022847639454e-04 0.0 
2.022847639454e-04 8.008401190618e-03 0.0 
0.0 0.0 -1.196871286280e-03 
-8.007996408172e-04 1.886044981360e-04 0.0 
1.886044981360e-04 5.220729595959e-03 0.0 
0.0 0.0 -7.999758813884e-04 
-8.231738978705e-04 1.954670675702e-04 0.0 
1.954670675702e-04 5.384433434041e-03 0.0 
0.0 0.0 -8.237210115815e-04 
-9.659298580920e-04 -1.974560001277e-04 0.0 
-1.974560001277e-04 6.432078237772e-03 0.0 
0.0 0.0 -9.620958722924e-04 
-2.561485936919e-04 2.198683939719e-04 0.0 
2.198683939719e-04 1.251380499119e-03 0.0 
0.0 0.0 -2.247161217206e-04 
-1.023132414130e-03 1.887327440294e-04 0.0 
1.887327440294e-04 6.775332410064e-03 0.0 
0.0 0.0 -1.023361637732e-03 
-8.622181034216e-04 -1.951138773543e-04 0.0 
-1.951138773543e-04 5.740266887697e-03 0.0 
0.0 0.0 -8.619475031456e-04 
-7.647880329061e-04 -1.862411199866e-04 0.0 
-1.862411199866e-04 5.038541863179e-03 0.0 
0.0 0.0 -7.615729788896e-04 
-1.027082371763e-03 -1.922014268245e-04 0.0 
-1.922014268245e-04 6.892038875610e-03 0.0 
0.0 0.0 -1.027225276160e-03 
-3.935518598364e-04 -1.714817472150e-04 0.0 
-1.714817472150e-04 2.494688902106e-03 0.0 
0.0 0.0 -3.946419382404e-04 
-1.063411595146e-03 -1.940895073894e-04 0.0 
-1.940895073894e-04 7.151260433919e-03 0.0 
0.0 0.0 -1.064556537081e-03 
-1.170769687049e-03 1.998990496914e-04 0.0 
1.998990496914e-04 7.807167189230e-03 0.0 
0.0 0.0 -1.170878753521e-03 
-9.957874322238e-04 1.860819940760e-04 0.0 
1.860819940760e-04 6.577964668805e-03 0.0 
0.0 0.0 -9.948919501216e-04 
-1.066802879167e-03 -1.994715727017e-04 0.0 
-1.994715727017e-04 7.144842154603e-03 0.0 
0.0 0.0 -1.064574987933e-03 
-1.080893362265e-03 -2.009448288778e-04 0.0 
-2.009448288778e-04 7.278345089593e-03 0.0 
0.0 0.0 -1.082686220397e-03 
-1.164339334361e-03 -2.029535809834e-04 0.0 
-2.029535809834e-04 7.872490943299e-03 0.0 
0.0 0.0 -1.168035910845e-03 
-3.299141803929e-04 2.316983388686e-04 0.0 
2.316983388686e-04 1.731538717207e-03 0.0 
0.0 0.0 -2.917408095836e-04 
-9.904023149971e-04 -1.959122471390e-04 0.0 
-1.959122471390e-04 6.637118298013e-03 0.0 
0.0 0.0 -9.919185416031e-04 
-1.168730602385e-03 -1.909886301280e-04 0.0 
-1.909886301280e-04 7.900162167174e-03 0.0 
0.0 0.0 -1.173906618061e-03 
-1.099721820410e-03 1.948899321208e-04 0.0 
1.948899321208e-04 7.299287446510e-03 0.0 
0.0 0.0 -1.096489272820e-03 
-9.304220125416e-04 1.873101926856e-04 0.0 
1.873101926856e-04 6.124362452359e-03 0.0 
0.0 0.0 -9.297700869391e-04 
-7.330744366569e-04 -1.923064886364e-04 0.0 
-1.923064886364e-04 4.838398720579e-03 0.0 
0.0 0.0 -7.325247082200e-04 
-8.060696050279e-04 1.870863771178e-04 0.0 
1.870863771178e-04 5.268149186535e-03 0.0 
0.0 0.0 -8.069452076110e-04 
-2.418248245405e-04 2.109020271233e-04 0.0 
2.109020271233e-04 1.359709000534e-03 0.0 
0.0 0.0 -2.482170483719e-04 
-1.134273257583e-03 1.988705509169e-04 0.0 
1.988705509169e-04 7.550007886780e-03 0.0 
0.0 0.0 -1.132911322290e-03 
-4.274524748729e-04 1.964334948297e-04 0.0 
1.964334948297e-04 2.645397720372e-03 0.0 
0.0 0.0 -4.309687334850e-04 
-3.881418594362e-04 1.833155679552e-04 0.0 
1.833155679552e-04 2.160044348329e-03 0.0 
0.0 0.0 -3.582286249851e-04 
-1.052002855886e-03 -1.883464211935e-04 0.0 
-1.883464211935e-04 7.074906707182e-03 0.0 
0.0 0.0 -1.054483161448e-03 
-1.207081545900e-03 1.915242773210e-04 0.0 
1.915242773210e-04 8.072287243083e-03 0.0 
0.0 0.0 -1.206783194404e-03 
-3.547804392097e-04 -1.807868565671e-04 0.0 
-1.807868565671e-04 2.226917608771e-03 0.0 
0.0 0.0 -3.573182248098e-04 
-8.366419951608e-04 -1.885488255626e-04 0.0 
-1.885488255626e-04 5.554595282055e-03 0.0 
0.0 0.0 -8.358581584049e-04 
-1.023802301552e-03 1.940941463560e-04 0.0 
1.940941463560e-04 6.787907294573e-03 0.0 
0.0 0.0 -1.023814440555e-03 
-7.829083596588e-04 -1.954293300843e-04 0.0 
-1.954293300843e-04 5.194152372337e-03 0.0 
0.0 0.0 -7.840072721007e-04 
-4.010673323255e-04 -1.915498976049e-04 0.0 
-1.915498976049e-04 2.542328077149e-03 0.0 
0.0 0.0 -4.027365510179e-04 
-5.321744599270e-04 1.883621527591e-04 0.0 
1.883621527591e-04 3.333505553591e-03 0.0 
0.0 0.0 -5.292697486782e-04 
-2.639771075772e-04 1.646102614639e-04 0.0 
1.646102614639e-04 1.613590548762e-03 0.0 
0.0 0.0 -2.862163191752e-04 
-3.553659692627e-04 1.943928252885e-04 0.0 
1.943928252885e-04 2.154693693140e-03 0.0 
0.0 0.0 -3.608158092454e-04 
-3.249476260035e-04 1.935471720913e-04 0.0 
1.935471720913e-04 1.899890607766e-03 0.0 
0.0 0.0 -3.238926756799e-04 
-8.653379371193e-04 1.875602502826e-04 0.0 
1.875602502826e-04 5.671952828596e-03 0.0 
0.0 0.0 -8.647910268431e-04 
-1.297827382279e-03 4.785112367208e-06 0.0 
4.785112367208e-06 9.109555355960e-03 0.0 
0.0 0.0 -1.324146187826e-03 
-4.467143920628e-04 1.726574000167e-04 0.0 
1.726574000167e-04 2.617142877359e-03 0.0 
0.0 0.0 -4.244337567297e-04 
-1.156016819955e-03 1.914756519666e-04 0.0 
1.914756519666e-04 7.686772050836e-03 0.0 
0.0 0.0 -1.153422328581e-03 
-6.441918423607e-04 1.888512827500e-04 0.0 
1.888512827500e-04 4.126863023303e-03 0.0 
0.0 0.0 -6.430507458085e-04 
-9.827241532880e-04 -2.074075714334e-04 0.0 
-2.074075714334e-04 6.589898560790e-03 0.0 
0.0 0.0 -9.856407671940e-04 
-3.167090590366e-04 1.983492302007e-04 0.0 
1.983492302007e-04 1.826080605665e-03 0.0 
0.0 0.0 -3.129386394028e-04 
-1.211080746195e-03 -1.918872231890e-04 0.0 
-1.918872231890e-04 8.120902711811e-03 0.0 
0.0 0.0 -1.206759618350e-03 
-3.103668027405e-04 -1.740204278261e-04 0.0 
-1.740204278261e-04 1.967988296131e-03 0.0 
0.0 0.0 -3.202688159031e-04 
-4.904887743195e-04 1.972396724306e-04 0.0 
1.972396724306e-04 3.115116694861e-03 0.0 
0.0 0.0 -4.995972236199e-04 
-1.033982221523e-03 1.864504257491e-04 0.0 
1.864504257491e-04 6.836114975340e-03 0.0 
0.0 0.0 -1.031547093314e-03 
-7.437947252401e-04 -1.892750744378e-04 0.0 
-1.892750744378e-04 4.914077369227e-03 0.0 
0.0 0.0 -7.436172176343e-04 
-1.132860593058e-03 -1.933960126785e-04 0.0 
-1.933960126785e-04 7.665930668868e-03 0.0 
0.0 0.0 -1.139062866688e-03 
-5.749455652610e-04 -1.941924528231e-04 0.0 
-1.941924528231e-04 3.751246786669e-03 0.0 
0.0 0.0 -5.762899171568e-04 
-1.046111348023e-03 -1.920749274324e-04 0.0 
-1.920749274324e-04 7.006833931181e-03 0.0 
0.0 0.0 -1.044446328659e-03 
-1.179461128015e-03 1.956649310083e-04 0.0 
1.956649310083e-04 7.993560630903e-03 0.0 
0.0 0.0 -1.198892520503e-03 
-9.969097330870e-04 1.983464851525e-04 0.0 
1.983464851525e-04 6.585106213615e-03 0.0 
0.0 0.0 -9.940794652285e-04 
-1.204741342101e-03 -1.841288982353e-04 0.0 
-1.841288982353e-04 8.066681748081e-03 0.0 
0.0 0.0 -1.194784139986e-03 
-1.085983696521e-03 -2.024519851536e-04 0.0 
-2.024519851536e-04 7.301290877674e-03 0.0 
0.0 0.0 -1.087318097122e-03 
-1.116801267184e-03 -2.016255265415e-04 0.0 
-2.016255265415e-04 7.509256724676e-03 0.0 
0.0 0.0 -1.116677092124e-03 
-3.616370043147e-04 1.787208051053e-04 0.0 
1.787208051053e-04 2.150891016686e-03 0.0 
0.0 0.0 -3.599422446610e-04 
-1.117518330453e-03 1.826877579253e-04 0.0 
1.826877579253e-04 7.419146366892e-03 0.0 
0.0 0.0 -1.115908039155e-03 
-1.052373239860e-03 1.884691524879e-04 0.0 
1.884691524879e-04 6.996291933739e-03 0.0 
0.0 0.0 -1.053364550114e-03 
-7.811189844041e-04 1.901992250616e-04 0.0 
1.901992250616e-04 5.082233377235e-03 0.0 
0.0 0.0 -7.792489223127e-04 
-5.208782508076e-04 1.844281060279e-04 0.0 
1.844281060279e-04 3.081353701983e-03 0.0 
0.0 0.0 -4.908673385051e-04 
-1.207263385308e-03 -1.938793257757e-04 0.0 
-1.938793257757e-04 8.301996435605e-03 0.0 
0.0 0.0 -1.232292820449e-03 
-4.172393042969e-04 1.982283144972e-04 0.0 
1.982283144972e-04 2.530985310794e-03 0.0 
0.0 0.0 -4.142712813041e-04 
-4.585162122278e-04 -2.188978008165e-04 0.0 
-2.188978008165e-04 2.969334744374e-03 0.0 
0.0 0.0 -4.655197245388e-04 
-1.104373486365e-03 2.012226859918e-04 0.0 
2.012226859918e-04 7.350396136819e-03 0.0 
0.0 0.0 -1.105063927110e-03 
-2.968425273524e-04 -1.642057746456e-04 0.0 
-1.642057746456e-04 1.792416919805e-03 0.0 
0.0 0.0 -2.939799329518e-04 
-7.924236500379e-04 -1.848261227190e-04 0.0 
-1.848261227190e-04 5.252920665959e-03 0.0 
0.0 0.0 -7.924235178053e-04 
-1.061921988885e-03 1.812104659022e-04 0.0 
1.812104659022e-04 7.031393709582e-03 0.0 
0.0 0.0 -1.059843925468e-03 
-1.181481514864e-03 -1.809401034033e-04 0.0 
-1.809401034033e-04 7.945597505832e-03 0.0 
0.0 0.0 -1.181155146799e-03 
-1.216519596998e-03 -1.765367581353e-04 0.0 
-1.765367581353e-04 8.170458135963e-03 0.0 
0.0 0.0 -1.210943746944e-03 
-1.030728582983e-03 -1.988607177777e-04 0.0 
-1.988607177777e-04 6.902267769970e-03 0.0 
0.0 0.0 -1.028825005900e-03 
-1.124714132978e-03 -2.064810197621e-04 0.0 
-2.064810197621e-04 7.559899990810e-03 0.0 
0.0 0.0 -1.123737208958e-03 
-6.812903531147e-04 1.901379600770e-04 0.0 
1.901379600770e-04 4.380740483724e-03 0.0 
0.0 0.0 -6.793824814286e-04 
-1.062351922354e-03 -1.985736001596e-04 0.0 
-1.985736001596e-04 7.130265690032e-03 0.0 
0.0 0.0 -1.062452857821e-03 
-5.858181118698e-04 1.875072715160e-04 0.0 
1.875072715160e-04 3.545318163494e-03 0.0 
0.0 0.0 -5.576509564599e-04 
-1.191462796189e-03 1.791343230628e-04 0.0 
1.791343230628e-04 7.859967464318e-03 0.0 
0.0 0.0 -1.181751882508e-03 
-6.536967362184e-04 1.840019481607e-04 0.0 
1.840019481607e-04 4.012532136349e-03 0.0 
0.0 0.0 -6.243763318321e-04 
-6.397657085008e-04 1.469527108766e-04 0.0 
1.469527108766e-04 4.231461376740e-03 0.0 
0.0 0.0 -6.577503189808e-04 
-7.727292442473e-04 1.893751122866e-04 0.0 
1.893751122866e-04 5.025497285819e-03 0.0 
0.0 0.0 -7.717627972493e-04 
-7.120157842108e-04 2.033227012875e-04 0.0 
2.033227012875e-04 4.491531755345e-03 0.0 
0.0 0.0 -6.911701761307e-04 
-8.847543506960e-04 -1.860726363622e-04 0.0 
-1.860726363622e-04 5.886975687793e-03 0.0 
0.0 0.0 -8.833033330409e-04 
-7.223081526863e-04 -1.890141103708e-04 0.0 
-1.890141103708e-04 4.756005682412e-03 0.0 
0.0 0.0 -7.209687761305e-04 
-7.611226546140e-04 -1.925027368286e-04 0.0 
-1.925027368286e-04 5.033487039423e-03 0.0 
0.0 0.0 -7.606211034647e-04 
-3.677272213406e-04 1.965668598146e-04 0.0 
1.965668598146e-04 2.206714062611e-03 0.0 
0.0 0.0 -3.685806404478e-04 
-7.360898597851e-04 1.893736919884e-04 0.0 
1.893736919884e-04 4.769891666686e-03 0.0 
0.0 0.0 -7.353490689725e-04 
-1.164475384932e-03 1.920424604491e-04 0.0 
1.920424604491e-04 7.760458237861e-03 0.0 
0.0 0.0 -1.162517914204e-03 
-1.189135404011e-03 2.424308074021e-04 0.0 
2.424308074021e-04 8.008663372928e-03 0.0 
0.0 0.0 -1.195263893373e-03 
-1.051433761328e-03 1.900846295013e-04 0.0 
1.900846295013e-04 6.962500509983e-03 0.0 
0.0 0.0 -1.050100468764e-03 
-1.163815806160e-03 1.939359249112e-04 0.0 
1.939359249112e-04 7.801481486737e-03 0.0 
0.0 0.0 -1.170266998156e-03 
-7.471505649133e-04 1.914654167736e-04 0.0 
1.914654167736e-04 4.846432176661e-03 0.0 
0.0 0.0 -7.463264885205e-04 
-1.116874559966e-03 1.925152765080e-04 0.0 
1.925152765080e-04 7.452691656896e-03 0.0 
0.0 0.0 -1.119019617531e-03 
-7.641727686351e-04 1.895140519535e-04 0.0 
1.895140519535e-04 4.965709915575e-03 0.0 
0.0 0.0 -7.634232545038e-04 
-1.140149646673e-03 1.894710294716e-04 0.0 
1.894710294716e-04 7.619303377370e-03 0.0 
0.0 0.0 -1.144395376583e-03 
-1.089871366961e-03 1.866180545901e-04 0.0 
1.866180545901e-04 7.246015693997e-03 0.0 
0.0 0.0 -1.089631904438e-03 
-1.081578605974e-03 -1.978658757613e-04 0.0 
-1.978658757613e-04 7.257137764756e-03 0.0 
0.0 0.0 -1.080451501872e-03 
-9.579838523443e-04 1.886955211530e-04 0.0 
1.886955211530e-04 6.320335730528e-03 0.0 
0.0 0.0 -9.580909834143e-04 
-7.089543903964e-04 1.893728274012e-04 0.0 
1.893728274012e-04 4.575360328887e-03 0.0 
0.0 0.0 -7.073300717972e-04 
-1.127664739308e-03 -1.829222399518e-04 0.0 
-1.829222399518e-04 7.564515174457e-03 0.0 
0.0 0.0 -1.126038590206e-03 
-9.212765999104e-04 1.860043167072e-04 0.0 
1.860043167072e-04 6.042010505937e-03 0.0 
0.0 0.0 -9.169694165663e-04 
-3.707997860418e-04 -2.047832537349e-04 0.0 
-2.047832537349e-04 2.273008460466e-03 0.0 
0.0 0.0 -3.661348613279e-04 
-4.119491099640e-04 -1.837644939852e-04 0.0 
-1.837644939852e-04 2.602040481245e-03 0.0 
0.0 0.0 -4.113794265144e-04 
-6.058388203502e-04 1.800194521296e-04 0.0 
1.800194521296e-04 3.855006073365e-03 0.0 
0.0 0.0 -6.061407060701e-04 
-8.399206414718e-04 1.851255513351e-04 0.0 
1.851255513351e-04 5.491811110990e-03 0.0 
0.0 0.0 -8.384786063130e-04 
-1.169227413895e-03 1.987098364224e-04 0.0 
1.987098364224e-04 7.826180536376e-03 0.0 
0.0 0.0 -1.173545322487e-03 
-1.051413170775e-03 -2.036953792705e-04 0.0 
-2.036953792705e-04 7.051256599190e-03 0.0 
0.0 0.0 -1.051102540299e-03 
-7.053171708153e-04 -1.917417752611e-04 0.0 
-1.917417752611e-04 4.643848416984e-03 0.0 
0.0 0.0 -7.045205360201e-04 
-9.343548124899e-04 -1.929012807103e-04 0.0 
-1.929012807103e-04 6.238086933522e-03 0.0 
0.0 0.0 -9.344940742331e-04 
-1.088202517562e-03 1.963493920645e-04 0.0 
1.963493920645e-04 7.240451625201e-03 0.0 
0.0 0.0 -1.088599101970e-03 
-1.132213948578e-03 -2.019794901778e-04 0.0 
-2.019794901778e-04 7.607209750872e-03 0.0 
0.0 0.0 -1.130578931274e-03 
-1.175177652279e-03 -1.432114671164e-04 0.0 
-1.432114671164e-04 7.818239968608e-03 0.0 
0.0 0.0 -1.160781586281e-03 
-9.493017134461e-04 1.856369855211e-04 0.0 
1.856369855211e-04 6.294032018234e-03 0.0 
0.0 0.0 -9.517943393003e-04 
-1.114893974024e-03 1.926717475022e-04 0.0 
1.926717475022e-04 7.405468821271e-03 0.0 
0.0 0.0 -1.113435711030e-03 
-7.974711636665e-04 -1.944203939155e-04 0.0 
-1.944203939155e-04 5.288608064412e-03 0.0 
0.0 0.0 -7.971871449874e-04 
-1.087511397267e-03 -1.918432502511e-04 0.0 
-1.918432502511e-04 7.293095143965e-03 0.0 
0.0 0.0 -1.086118700983e-03 
-7.957657220237e-04 1.875502652183e-04 0.0 
1.875502652183e-04 5.187404479596e-03 0.0 
0.0 0.0 -7.951163407912e-04 
-1.190027282138e-03 -1.889094988141e-04 0.0 
-1.889094988141e-04 8.016045742998e-03 0.0 
0.0 0.0 -1.188704642750e-03 
-1.182786985987e-03 -2.095818808978e-04 0.0 
-2.095818808978e-04 8.112308359412e-03 0.0 
0.0 0.0 -1.200489323427e-03 
-8.931557397796e-04 1.886870491782e-04 0.0 
1.886870491782e-04 5.866647832542e-03 0.0 
0.0 0.0 -8.929891684399e-04 
-3.790334035775e-04 2.022524645534e-04 0.0 
2.022524645534e-04 2.272501623496e-03 0.0 
0.0 0.0 -3.776191643183e-04 
-1.116621675417e-03 1.833509055247e-04 0.0 
1.833509055247e-04 7.407703431036e-03 0.0 
0.0 0.0 -1.113685640909e-03 
-8.560269120279e-04 -1.850645517351e-04 0.0 
-1.850645517351e-04 5.691539379015e-03 0.0 
0.0 0.0 -8.555605426019e-04 
-6.779302938366e-04 -1.908402865227e-04 0.0 
-1.908402865227e-04 4.449768302467e-03 0.0 
0.0 0.0 -6.765734244908e-04 
-9.269459503729e-04 -1.957083840497e-04 0.0 
-1.957083840497e-04 6.192523979842e-03 0.0 
0.0 0.0 -9.269463096178e-04 
-1.072502528949e-03 -2.041434169698e-04 0.0 
-2.041434169698e-04 7.210267326329e-03 0.0 
0.0 0.0 -1.072977024862e-03 
-3.719606472365e-04 -1.835949221077e-04 0.0 
-1.835949221077e-04 2.345098090713e-03 0.0 
0.0 0.0 -3.746637649435e-04 
-8.285830534024e-04 1.877054302830e-04 0.0 
1.877054302830e-04 5.415216649357e-03 0.0 
0.0 0.0 -8.281205301186e-04 
-9.633029216945e-04 1.794107507867e-04 0.0 
1.794107507867e-04 6.339174664891e-03 0.0 
0.0 0.0 -9.596127204057e-04 
-1.165821597608e-03 -2.067678885501e-04 0.0 
-2.067678885501e-04 7.892442231831e-03 0.0 
0.0 0.0 -1.170838755190e-03 
-9.895100639472e-04 1.759458030689e-04 0.0 
1.759458030689e-04 6.529075947432e-03 0.0 
0.0 0.0 -9.876491701490e-04 
-1.085596099012e-03 1.937230915424e-04 0.0 
1.937230915424e-04 7.212019617214e-03 0.0 
0.0 0.0 -1.085374163265e-03 
-9.372562607785e-04 1.792840605659e-04 0.0 
1.792840605659e-04 6.146041579427e-03 0.0 
0.0 0.0 -9.316602363005e-04 
-8.975747507543e-04 1.987030926427e-04 0.0 
1.987030926427e-04 5.753154163109e-03 0.0 
0.0 0.0 -8.756372412555e-04 
-9.482059618595e-04 1.851978750998e-04 0.0 
1.851978750998e-04 6.234676071384e-03 0.0 
0.0 0.0 -9.447135688329e-04 
-1.130898821175e-03 2.049231627904e-04 0.0 
2.049231627904e-04 7.550084487667e-03 0.0 
0.0 0.0 -1.133505030480e-03 
-1.085374007423e-03 -2.008613375728e-04 0.0 
-2.008613375728e-04 7.297255264970e-03 0.0 
0.0 0.0 -1.084522140297e-03 
-1.016986910713e-03 1.835607482604e-04 0.0 
1.835607482604e-04 6.748472102274e-03 0.0 
0.0 0.0 -1.017300281410e-03 
-1.211783257084e-03 1.757837481836e-04 0.0 
1.757837481836e-04 8.121141767086e-03 0.0 
0.0 0.0 -1.212886757924e-03 
-9.118555854046e-04 1.822932037183e-04 0.0 
1.822932037183e-04 5.952136168219e-03 0.0 
0.0 0.0 -9.037302385344e-04 
-5.771676927997e-04 -1.905418044285e-04 0.0 
-1.905418044285e-04 3.749121588691e-03 0.0 
0.0 0.0 -5.760585567884e-04 
-1.146857850750e-03 -2.012024813042e-04 0.0 
-2.012024813042e-04 7.726356069459e-03 0.0 
0.0 0.0 -1.146733564437e-03 
-1.190361811188e-03 -2.231584585379e-04 0.0 
-2.231584585379e-04 8.068085284209e-03 0.0 
0.0 0.0 -1.196744929305e-03 
-7.877111731868e-04 1.869730341935e-04 0.0 
1.869730341935e-04 5.130080362463e-03 0.0 
0.0 0.0 -7.869228524964e-04 
-8.229073892259e-04 1.889823334213e-04 0.0 
1.889823334213e-04 5.378866845597e-03 0.0 
0.0 0.0 -8.226527892688e-04 
-6.410005540226e-04 -1.918474041219e-04 0.0 
-1.918474041219e-04 4.195976321250e-03 0.0 
0.0 0.0 -6.402419685743e-04 
-1.047323379365e-03 1.912705100611e-04 0.0 
1.912705100611e-04 6.951134229714e-03 0.0 
0.0 0.0 -1.046609947212e-03 
-6.536475585395e-04 1.928032985675e-04 0.0 
1.928032985675e-04 4.182884861133e-03 0.0 
0.0 0.0 -6.500746975200e-04 
-9.153598550126e-04 1.963880349301e-04 0.0 
1.963880349301e-04 6.020758345298e-03 0.0 
0.0 0.0 -9.137630964162e-04 
-6.488950437602e-04 -1.797823528638e-04 0.0 
-1.797823528638e-04 4.242459853736e-03 0.0 
0.0 0.0 -6.476280927198e-04 
-1.069873888271e-03 1.950588935170e-04 0.0 
1.950588935170e-04 7.095085750561e-03 0.0 
0.0 0.0 -1.068254633495e-03 
-1.209590731991e-03 -1.550085898134e-04 0.0 
-1.550085898134e-04 8.118970202182e-03 0.0 
0.0 0.0 -1.211228670573e-03 
-6.691229637013e-04 -1.915091740607e-04 0.0 
-1.915091740607e-04 4.390308397494e-03 0.0 
0.0 0.0 -6.682047883386e-04 
-2.351166358341e-04 -2.031494045747e-04 0.0 
-2.031494045747e-04 1.435993492405e-03 0.0 
0.0 0.0 -2.451578436693e-04 
-1.204420763458e-03 1.961268392442e-04 0.0 
1.961268392442e-04 8.059775147050e-03 0.0 
0.0 0.0 -1.207184308065e-03 
-6.887858324241e-04 1.799755313790e-04 0.0 
1.799755313790e-04 4.424727357305e-03 0.0 
0.0 0.0 -6.853381776776e-04 
-7.835288517238e-04 1.879460947128e-04 0.0 
1.879460947128e-04 5.099659123499e-03 0.0 
0.0 0.0 -7.828151049093e-04 
-1.160407951921e-03 2.005539249279e-04 0.0 
2.005539249279e-04 7.864449254895e-03 0.0 
0.0 0.0 -1.177925372349e-03 
-1.016320152694e-03 -1.997312198958e-04 0.0 
-1.997312198958e-04 6.802485040097e-03 0.0 
0.0 0.0 -1.015069748350e-03 
-1.057178896244e-03 -1.942199100265e-04 0.0 
-1.942199100265e-04 7.094939907719e-03 0.0 
0.0 0.0 -1.055879354346e-03 
-6.858748156510e-04 -1.861020149713e-04 0.0 
-1.861020149713e-04 4.508466491458e-03 0.0 
0.0 0.0 -6.851017020021e-04 
-2.031820811394e-04 1.985739834671e-04 0.0 
1.985739834671e-04 1.096275256380e-03 0.0 
0.0 0.0 -2.111397097017e-04 
-1.218012060933e-03 -2.324828983585e-04 0.0 
-2.324828983585e-04 8.157957467951e-03 0.0 
0.0 0.0 -1.202131160132e-03 
-8.665795831994e-04 1.858441781354e-04 0.0 
1.858441781354e-04 5.682543428283e-03 0.0 
0.0 0.0 -8.660506973337e-04 
-1.008559534197e-03 -2.140754109307e-04 0.0 
-2.140754109307e-04 6.735537996686e-03 0.0 
0.0 0.0 -1.007142642412e-03 
-1.160459194418e-03 1.856922992241e-04 0.0 
1.856922992241e-04 7.735308684736e-03 0.0 
0.0 0.0 -1.157822513452e-03 
-1.616552956258e-04 1.423609377971e-04 0.0 
1.423609377971e-04 6.732585101887e-04 0.0 
0.0 0.0 -1.502316149797e-04 
-1.058859563023e-03 1.992298708808e-04 0.0 
1.992298708808e-04 7.024120321951e-03 0.0 
0.0 0.0 -1.058763633038e-03 
-4.932099791949e-04 -1.894809356614e-04 0.0 
-1.894809356614e-04 3.157806772283e-03 0.0 
0.0 0.0 -4.919579008500e-04 
-9.451714429142e-04 -2.012700485210e-04 0.0 
-2.012700485210e-04 6.343190678808e-03 0.0 
0.0 0.0 -9.498437721210e-04 
-8.487405687036e-04 -1.950463421938e-04 0.0 
-1.950463421938e-04 5.654542604036e-03 0.0 
0.0 0.0 -8.496012432876e-04 
-6.717289225013e-04 1.881380853815e-04 0.0 
1.881380853815e-04 4.320340016049e-03 0.0 
0.0 0.0 -6.709551114794e-04 
-1.138399201716e-03 -1.969931368524e-04 0.0 
-1.969931368524e-04 7.687743728139e-03 0.0 
0.0 0.0 -1.141635569211e-03 
-8.863371368954e-04 1.906753618110e-04 0.0 
1.906753618110e-04 5.821740968712e-03 0.0 
0.0 0.0 -8.859145181037e-04 
-6.078808339748e-04 1.896100471318e-04 0.0 
1.896100471318e-04 3.873866771808e-03 0.0 
0.0 0.0 -6.067458373204e-04 
-8.988471733596e-04 -1.905617358742e-04 0.0 
-1.905617358742e-04 5.993481774552e-03 0.0 
0.0 0.0 -8.989548790023e-04 
-1.952954180545e-04 -1.905102926162e-04 0.0 
-1.905102926162e-04 1.173502522438e-03 0.0 
0.0 0.0 -2.081142276587e-04 
-1.024988576596e-03 -1.935191657476e-04 0.0 
-1.935191657476e-04 6.880398785368e-03 0.0 
0.0 0.0 -1.026417656363e-03 
-1.069604476726e-03 -1.976553008556e-04 0.0 
-1.976553008556e-04 7.163110056360e-03 0.0 
0.0 0.0 -1.065496432940e-03 
-1.229744167387e-03 -1.464305357593e-04 0.0 
-1.464305357593e-04 8.209785373221e-03 0.0 
0.0 0.0 -1.233600908384e-03 
-1.090183204667e-03 -1.971253990561e-04 0.0 
-1.971253990561e-04 7.328950110722e-03 0.0 
0.0 0.0 -1.090749533212e-03 
-4.766984691118e-04 -1.850928375115e-04 0.0 
-1.850928375115e-04 3.048442125330e-03 0.0 
0.0 0.0 -4.758149136988e-04 
-1.046974953030e-03 -1.977469482828e-04 0.0 
-1.977469482828e-04 7.033167652259e-03 0.0 
0.0 0.0 -1.047231727503e-03 
-1.207083647933e-03 1.808427044482e-04 0.0 
1.808427044482e-04 8.205581432035e-03 0.0 
0.0 0.0 -1.228155452712e-03 
-1.260668266969e-03 -1.832526413476e-04 0.0 
-1.832526413476e-04 8.522719369677e-03 0.0 
0.0 0.0 -1.267145247477e-03 
-1.104740620517e-03 -1.903291503951e-04 0.0 
-1.903291503951e-04 7.419136809817e-03 0.0 
0.0 0.0 -1.102242875413e-03 
-7.141399757063e-04 -1.908850217657e-04 0.0 
-1.908850217657e-04 4.699621454475e-03 0.0 
0.0 0.0 -7.127912709901e-04 
-9.617225215176e-04 -1.932311968947e-04 0.0 
-1.932311968947e-04 6.435112240426e-03 0.0 
0.0 0.0 -9.624716764950e-04 
-1.172863749534e-03 1.716370371983e-04 0.0 
1.716370371983e-04 7.752633284680e-03 0.0 
0.0 0.0 -1.164316760544e-03 
-7.921196063416e-04 -1.921710320451e-04 0.0 
-1.921710320451e-04 5.233600587143e-03 0.0 
0.0 0.0 -7.878971455476e-04 
-1.056322180914e-03 1.849092776283e-04 0.0 
1.849092776283e-04 7.010189158039e-03 0.0 
0.0 0.0 -1.057196955382e-03 
-9.850942903468e-04 1.906307977984e-04 0.0 
1.906307977984e-04 6.538331902211e-03 0.0 
0.0 0.0 -9.877098122506e-04 
-1.110739431393e-03 -1.980632731679e-04 0.0 
-1.980632731679e-04 7.489376108620e-03 0.0 
0.0 0.0 -1.112977059762e-03 
-1.093828226484e-03 -1.876429130193e-04 0.0 
-1.876429130193e-04 7.351584596061e-03 0.0 
0.0 0.0 -1.093234982489e-03 
-7.343177045735e-04 -9.465157044594e-06 0.0 
-9.465157044594e-06 4.570354151395e-03 0.0 
0.0 0.0 -7.313513689239e-04 
-7.305590051735e-04 3.402678996754e-05 0.0 
3.402678996754e-05 4.568649633296e-03 0.0 
0.0 0.0 -7.310574395863e-04 
-9.952316992060e-04 -2.061010920873e-04 0.0 
-2.061010920873e-04 6.656041030992e-03 0.0 
0.0 0.0 -9.927888931629e-04 
-9.918488233690e-04 1.857079994067e-04 0.0 
1.857079994067e-04 6.564735410895e-03 0.0 
0.0 0.0 -9.930598132463e-04 
-8.773556303313e-04 -1.926873992318e-04 0.0 
-1.926873992318e-04 5.856781784187e-03 0.0 
0.0 0.0 -8.780428295617e-04 
-9.805249871409e-04 -1.924563760953e-04 0.0 
-1.924563760953e-04 6.542490604406e-03 0.0 
0.0 0.0 -9.775429604617e-04 
-8.511934619470e-04 1.885314516425e-04 0.0 
1.885314516425e-04 5.570767617800e-03 0.0 
0.0 0.0 -8.502279965035e-04 
-1.193540881150e-03 1.313307987015e-04 0.0 
1.313307987015e-04 7.848740983510e-03 0.0 
0.0 0.0 -1.180288150054e-03 
-7.169159808387e-04 1.897237155632e-04 0.0 
1.897237155632e-04 4.633470113633e-03 0.0 
0.0 0.0 -7.154845226688e-04 
-1.330586332229e-03 -3.342005871351e-05 0.0 
-3.342005871351e-05 9.092648121720e-03 0.0 
0.0 0.0 -1.323793839065e-03 
-8.042874267729e-04 1.538278548701e-04 0.0 
1.538278548701e-04 5.332999869485e-03 0.0 
0.0 0.0 -8.119939454945e-04 
-8.205821157683e-04 -1.889603009902e-04 0.0 
-1.889603009902e-04 5.445817958641e-03 0.0 
0.0 0.0 -8.199314282332e-04 
-8.518598072760e-04 1.933057744939e-04 0.0 
1.933057744939e-04 5.584111954891e-03 0.0 
0.0 0.0 -8.523954645778e-04 
-4.499586564247e-04 -1.855256695767e-04 0.0 
-1.855256695767e-04 2.857022821909e-03 0.0 
0.0 0.0 -4.479040077299e-04 
-7.538979209402e-04 -1.934413965156e-04 0.0 
-1.934413965156e-04 4.995274109938e-03 0.0 
0.0 0.0 -7.551671247638e-04 
-9.291971374279e-04 1.860662208978e-04 0.0 
1.860662208978e-04 6.122384862718e-03 0.0 
0.0 0.0 -9.293281999836e-04 
-8.759687264253e-04 1.862073937601e-04 0.0 
1.862073937601e-04 5.739375914108e-03 0.0 
0.0 0.0 -8.738309435711e-04 
-9.814387768265e-04 1.839019607205e-04 0.0 
1.839019607205e-04 6.501334764278e-03 0.0 
0.0 0.0 -9.814596669550e-04 
-1.010867161751e-03 1.870829556364e-04 0.0 
1.870829556364e-04 6.678666577386e-03 0.0 
0.0 0.0 -1.008022096355e-03 
-1.044436862417e-03 -1.926634021925e-04 0.0 
-1.926634021925e-04 6.979659342720e-03 0.0 
0.0 0.0 -1.040850218070e-03 
-2.258973833718e-04 -1.030107291084e-04 0.0 
-1.030107291084e-04 1.399562224303e-03 0.0 
0.0 0.0 -2.163717569139e-04 
-7.194022022389e-04 1.955668345425e-04 0.0 
1.955668345425e-04 4.667671693721e-03 0.0 
0.0 0.0 -7.209013985657e-04 
-6.852716132610e-04 -1.859370640984e-04 0.0 
-1.859370640984e-04 4.485062449844e-03 0.0 
0.0 0.0 -6.825522065409e-04 
-9.565981315294e-04 1.790846631941e-04 0.0 
1.790846631941e-04 6.284252226282e-03 0.0 
0.0 0.0 -9.521954671713e-04 
-9.888411307371e-04 -1.922642027800e-04 0.0 
-1.922642027800e-04 6.601876220435e-03 0.0 
0.0 0.0 -9.850634846466e-04 
-1.155748252282e-03 1.797617113704e-04 0.0 
1.797617113704e-04 7.721330663973e-03 0.0 
0.0 0.0 -1.160108757481e-03 
-3.430926826769e-04 2.099465977868e-04 0.0 
2.099465977868e-04 1.967318145224e-03 0.0 
0.0 0.0 -3.273996513303e-04 
-3.332214715971e-04 -1.766782033718e-04 0.0 
-1.766782033718e-04 2.091595055548e-03 0.0 
0.0 0.0 -3.377286911054e-04 
-8.312276761858e-04 1.871380545802e-04 0.0 
1.871380545802e-04 5.435579353952e-03 0.0 
0.0 0.0 -8.305977116616e-04 
-7.164446669360e-04 -1.954011667159e-04 0.0 
-1.954011667159e-04 4.735861933211e-03 0.0 
0.0 0.0 -7.181358556540e-04 
-6.612400540539e-04 -2.145984864481e-04 0.0 
-2.145984864481e-04 4.300984587983e-03 0.0 
0.0 0.0 -6.554599841463e-04 
-6.892288823092e-04 -1.712097974293e-04 0.0 
-1.712097974293e-04 4.548932917262e-03 0.0 
0.0 0.0 -6.889204951115e-04 
-9.785151366904e-04 -1.903688334859e-04 0.0 
-1.903688334859e-04 6.552823194572e-03 0.0 
0.0 0.0 -9.793492904611e-04 
-3.279214625417e-04 -1.856414295295e-04 0.0 
-1.856414295295e-04 2.036611823989e-03 0.0 
0.0 0.0 -3.302473245842e-04 
-8.146691974455e-04 1.910766766112e-04 0.0 
1.910766766112e-04 5.328191831945e-03 0.0 
0.0 0.0 -8.154759146177e-04 
-1.049892567768e-03 -1.923181012939e-04 0.0 
-1.923181012939e-04 7.038288222671e-03 0.0 
0.0 0.0 -1.049209916622e-03 
-3.402244297759e-04 2.055488950202e-04 0.0 
2.055488950202e-04 2.007315154740e-03 0.0 
0.0 0.0 -3.408226701431e-04 
-1.289740643797e-03 -2.865690188003e-05 0.0 
-2.865690188003e-05 8.457698383589e-03 0.0 
0.0 0.0 -1.285586381397e-03 
-1.153161816539e-03 -1.810911126316e-04 0.0 
-1.810911126316e-04 7.745860400322e-03 0.0 
0.0 0.0 -1.152455342817e-03 
-7.730865248008e-04 -1.936313324954e-04 0.0 
-1.936313324954e-04 5.137233279798e-03 0.0 
0.0 0.0 -7.756113943005e-04 
-1.077943790440e-03 1.906149656784e-04 0.0 
1.906149656784e-04 7.162163658694e-03 0.0 
0.0 0.0 -1.078722419643e-03 
-1.818286327115e-04 -5.320949396193e-06 0.0 
-5.320949396193e-06 7.441773179857e-04 0.0 
0.0 0.0 -1.797547709840e-04 
-1.014460031072e-03 -2.000580684662e-04 0.0 
-2.000580684662e-04 6.784645211728e-03 0.0 
0.0 0.0 -1.012471576362e-03 
-8.638932840094e-04 -1.877196228479e-04 0.0 
-1.877196228479e-04 5.746441231772e-03 0.0 
0.0 0.0 -8.634366945984e-04 
-1.573089574220e-04 6.060813636144e-06 0.0 
6.060813636144e-06 7.379677460024e-04 0.0 
0.0 0.0 -1.788519809851e-04 
-1.152359323407e-03 1.787160847200e-04 0.0 
1.787160847200e-04 7.696182759720e-03 0.0 
0.0 0.0 -1.154859126927e-03 
-3.172722260094e-04 -1.887798844867e-04 0.0 
-1.887798844867e-04 1.899275964143e-03 0.0 
0.0 0.0 -3.099791425632e-04 
-9.534030089958e-04 -1.885226890489e-04 0.0 
-1.885226890489e-04 6.348031499756e-03 0.0 
0.0 0.0 -9.496453321265e-04 
-8.720767110960e-04 -1.896937711200e-04 0.0 
-1.896937711200e-04 5.800514782335e-03 0.0 
0.0 0.0 -8.712718144564e-04 
-7.527095169076e-04 -1.904145446510e-04 0.0 
-1.904145446510e-04 4.974920507200e-03 0.0 
0.0 0.0 -7.519815330289e-04 
-9.060865555047e-04 1.986245932988e-04 0.0 
1.986245932988e-04 5.963263483029e-03 0.0 
0.0 0.0 -9.052548162676e-04 
-1.186359257630e-03 1.790401943916e-04 0.0 
1.790401943916e-04 7.910120458871e-03 0.0 
0.0 0.0 -1.182898372388e-03 
-9.717172959483e-04 2.017731235506e-04 0.0 
2.017731235506e-04 6.421670982773e-03 0.0 
0.0 0.0 -9.716005391689e-04 
-8.586682738841e-04 1.870585543686e-04 0.0 
1.870585543686e-04 5.626729716629e-03 0.0 
0.0 0.0 -8.581765416018e-04 
-8.285502932263e-04 -1.869792024667e-04 0.0 
-1.869792024667e-04 5.500044709232e-03 0.0 
0.0 0.0 -8.279616112547e-04 
-1.157597014143e-04 1.569592925356e-04 0.0 
1.569592925356e-04 5.309685908672e-04 0.0 
0.0 0.0 -1.241199786263e-04 
-2.771697128881e-04 1.878257284128e-04 0.0 
1.878257284128e-04 1.577050393967e-03 0.0 
0.0 0.0 -2.761011822561e-04 
-1.118878802421e-03 -1.775376209316e-04 0.0 
-1.775376209316e-04 7.515980410063e-03 0.0 
0.0 0.0 -1.118331045454e-03 
-9.134689604251e-04 -2.151070896449e-04 0.0 
-2.151070896449e-04 6.054442910930e-03 0.0 
0.0 0.0 -9.085367473448e-04 
-1.157427958602e-03 1.810891327533e-04 0.0 
1.810891327533e-04 7.664331777096e-03 0.0 
0.0 0.0 -1.148691026115e-03 
-4.952790128068e-04 1.926215238323e-04 0.0 
1.926215238323e-04 3.096112546519e-03 0.0 
0.0 0.0 -4.942977111402e-04 
-1.099935257767e-03 1.964856595336e-04 0.0 
1.964856595336e-04 7.292900558944e-03 0.0 
0.0 0.0 -1.097950598811e-03 
-1.159977421736e-03 -1.899588415038e-04 0.0 
-1.899588415038e-04 7.782799989863e-03 0.0 
0.0 0.0 -1.155407764312e-03 
-7.046437970110e-04 1.771780882186e-04 0.0 
1.771780882186e-04 4.649202442724e-03 0.0 
0.0 0.0 -7.179420443741e-04 
-1.123089437587e-03 1.668381000105e-04 0.0 
1.668381000105e-04 7.448723404798e-03 0.0 
0.0 0.0 -1.120992621467e-03 
-1.074800466033e-03 -1.979281231238e-04 0.0 
-1.979281231238e-04 7.231750290380e-03 0.0 
0.0 0.0 -1.075946734593e-03 
-9.566951811484e-04 1.885305449409e-04 0.0 
1.885305449409e-04 6.314170866049e-03 0.0 
0.0 0.0 -9.571162043194e-04 
-7.858129650109e-04 1.950519568744e-04 0.0 
1.950519568744e-04 5.127464531984e-03 0.0 
0.0 0.0 -7.866383436874e-04 
-8.200429817129e-04 -1.955984029236e-04 0.0 
-1.955984029236e-04 5.453789901756e-03 0.0 
0.0 0.0 -8.209012074946e-04 
-1.208173698565e-03 -2.031466844655e-04 0.0 
-2.031466844655e-04 8.155254103189e-03 0.0 
0.0 0.0 -1.204704583718e-03 
-8.401419513637e-04 1.955438232626e-04 0.0 
1.955438232626e-04 5.506398965405e-03 0.0 
0.0 0.0 -8.396599866114e-04 
-9.021075521636e-04 1.852176330370e-04 0.0 
1.852176330370e-04 5.931413313431e-03 0.0 
0.0 0.0 -9.015555482168e-04 
-8.449278259680e-04 1.962826855989e-04 0.0 
1.962826855989e-04 5.533739272216e-03 0.0 
0.0 0.0 -8.433600309793e-04 
-1.038695295048e-03 1.973550359404e-04 0.0 
1.973550359404e-04 6.882197727614e-03 0.0 
0.0 0.0 -1.038364586984e-03 
-7.853544279650e-04 -1.888908667993e-04 0.0 
-1.888908667993e-04 5.195025610649e-03 0.0 
0.0 0.0 -7.842421616061e-04 
-5.077615371431e-04 1.925383574265e-04 0.0 
1.925383574265e-04 3.178371744144e-03 0.0 
0.0 0.0 -5.065804551108e-04 
-8.563679286654e-04 1.886904600153e-04 0.0 
1.886904600153e-04 5.609470178926e-03 0.0 
0.0 0.0 -8.561803240471e-04 
-5.442096767108e-04 1.899929291301e-04 0.0 
1.899929291301e-04 3.427592308512e-03 0.0 
0.0 0.0 -5.426160209679e-04 
-9.840239484115e-04 1.860183386348e-04 0.0 
1.860183386348e-04 6.482342277994e-03 0.0 
0.0 0.0 -9.799122972177e-04 
-5.401920244119e-04 -1.881877507058e-04 0.0 
-1.881877507058e-04 3.494301074598e-03 0.0 
0.0 0.0 -5.399485503622e-04 
-9.444560097486e-04 -1.940759614132e-04 0.0 
-1.940759614132e-04 6.297600198433e-03 0.0 
0.0 0.0 -9.420580210740e-04 
-1.136089878121e-03 -1.928967352453e-04 0.0 
-1.928967352453e-04 7.622114445815e-03 0.0 
0.0 0.0 -1.130549445556e-03 
-1.098744179893e-03 1.868758827566e-04 0.0 
1.868758827566e-04 7.288601580292e-03 0.0 
0.0 0.0 -1.096529089934e-03 
-7.525839073148e-04 1.884470413511e-04 0.0 
1.884470413511e-04 4.883223458127e-03 0.0 
0.0 0.0 -7.512528815036e-04 
-9.420690742010e-04 1.904423332236e-04 0.0 
1.904423332236e-04 6.250031840530e-03 0.0 
0.0 0.0 -9.460253849645e-04 
-1.105063984059e-03 1.902259811921e-04 0.0 
1.902259811921e-04 7.362332298090e-03 0.0 
0.0 0.0 -1.107441567342e-03 
-1.102593190183e-03 -1.984125757140e-04 0.0 
-1.984125757140e-04 7.431259929710e-03 0.0 
0.0 0.0 -1.104747680386e-03 
-2.748138935717e-04 -1.822651738482e-04 0.0 
-1.822651738482e-04 1.604872033163e-03 0.0 
0.0 0.0 -2.683291303717e-04 
-9.752435611011e-04 1.861325910200e-04 0.0 
1.861325910200e-04 6.426869973039e-03 0.0 
0.0 0.0 -9.724793438395e-04 
-1.198880595075e-03 2.442779644092e-04 0.0 
2.442779644092e-04 8.051846061103e-03 0.0 
0.0 0.0 -1.205818386895e-03 
-5.437300718268e-04 1.772584891249e-04 0.0 
1.772584891249e-04 3.388245147726e-03 0.0 
0.0 0.0 -5.357889572170e-04 
-8.407105615714e-04 -1.927518630569e-04 0.0 
-1.927518630569e-04 5.595089898141e-03 0.0 
0.0 0.0 -8.409532000723e-04 
-1.642955148473e-04 -1.732273966109e-04 0.0 
-1.732273966109e-04 7.998697341648e-04 0.0 
0.0 0.0 -1.553180670733e-04 
-1.132480187466e-03 1.879569331440e-04 0.0 
1.879569331440e-04 7.560437012022e-03 0.0 
0.0 0.0 -1.136235114959e-03 
-4.806530012621e-04 1.926320631023e-04 0.0 
1.926320631023e-04 2.980823159841e-03 0.0 
0.0 0.0 -4.785631936959e-04 
-8.099198933222e-04 1.419617410746e-04 0.0 
1.419617410746e-04 5.272582332729e-03 0.0 
0.0 0.0 -8.166178341775e-04 
-1.008233793579e-03 2.173973549694e-04 0.0 
2.173973549694e-04 6.687663611020e-03 0.0 
0.0 0.0 -1.008721701990e-03 
-9.403782054792e-04 -1.899510314298e-04 0.0 
-1.899510314298e-04 6.304690927512e-03 0.0 
0.0 0.0 -9.438854677472e-04 
-8.963572268651e-04 1.741364622750e-04 0.0 
1.741364622750e-04 5.997227966098e-03 0.0 
0.0 0.0 -9.108073647308e-04 
-8.940895927012e-04 1.874273657987e-04 0.0 
1.874273657987e-04 5.875054319372e-03 0.0 
0.0 0.0 -8.936906232635e-04 
-5.964027012772e-04 -1.969270146159e-04 0.0 
-1.969270146159e-04 3.828565622584e-03 0.0 
0.0 0.0 -5.884905393267e-04 
-6.222186473160e-04 -1.579598216189e-04 0.0 
-1.579598216189e-04 4.074275639624e-03 0.0 
0.0 0.0 -6.218825813656e-04 
-1.132545466856e-03 -1.921788675689e-04 0.0 
-1.921788675689e-04 7.631342050474e-03 0.0 
0.0 0.0 -1.133400347077e-03 
-9.399834973731e-04 -2.076180111175e-04 0.0 
-2.076180111175e-04 6.274716467853e-03 0.0 
0.0 0.0 -9.394087121358e-04 
-8.165998643397e-04 -1.896618384883e-04 0.0 
-1.896618384883e-04 5.425461381261e-03 0.0 
0.0 0.0 -8.164864906097e-04 
-1.015808219044e-03 2.043119981128e-04 0.0 
2.043119981128e-04 6.724239760090e-03 0.0 
0.0 0.0 -1.014986374720e-03 
-7.921952984754e-04 1.876569442452e-04 0.0 
1.876569442452e-04 5.161072896404e-03 0.0 
0.0 0.0 -7.915105747055e-04 
-5.132154280477e-04 -1.871647182002e-04 0.0 
-1.871647182002e-04 3.302371768383e-03 0.0 
0.0 0.0 -5.119962057136e-04 
-5.745746208365e-04 1.485352442874e-04 0.0 
1.485352442874e-04 3.755895310226e-03 0.0 
0.0 0.0 -5.908395828668e-04 
-8.562635021511e-04 -1.754512107451e-04 0.0 
-1.754512107451e-04 5.627343192984e-03 0.0 
0.0 0.0 -8.442294783838e-04 
-7.160648306050e-04 7.585704491028e-06 0.0 
7.585704491028e-06 4.849167370762e-03 0.0 
0.0 0.0 -7.121995050294e-04 
-1.098907698796e-03 -1.935603852202e-04 0.0 
-1.935603852202e-04 7.356586615962e-03 0.0 
0.0 0.0 -1.093598669875e-03 
-7.500784032912e-04 -1.888438395023e-04 0.0 
-1.888438395023e-04 4.947212343952e-03 0.0 
0.0 0.0 -7.486350631497e-04 
-1.210182417684e-03 1.765917680882e-04 0.0 
1.765917680882e-04 8.247529209770e-03 0.0 
0.0 0.0 -1.233571955743e-03 
-1.118284649088e-03 2.239133535708e-04 0.0 
2.239133535708e-04 7.476894485256e-03 0.0 
0.0 0.0 -1.121177773779e-03 
-8.254740426917e-04 -1.929282224424e-04 0.0 
-1.929282224424e-04 5.485443478807e-03 0.0 
0.0 0.0 -8.252461108756e-04 
-1.242964237003e-03 -2.139177796874e-04 0.0 
-2.139177796874e-04 8.349538837109e-03 0.0 
0.0 0.0 -1.241472629463e-03 
-5.687293433060e-04 -1.915120142832e-04 0.0 
-1.915120142832e-04 3.690790191525e-03 0.0 
0.0 0.0 -5.682622744621e-04 
-1.208040625364e-03 1.849401074129e-04 0.0 
1.849401074129e-04 8.046920265334e-03 0.0 
0.0 0.0 -1.204482468497e-03 
-8.913551845652e-04 -1.878094076415e-04 0.0 
-1.878094076415e-04 5.940020385334e-03 0.0 
0.0 0.0 -8.910665706739e-04 
-9.852542746409e-04 1.871572406668e-04 0.0 
1.871572406668e-04 6.505324580404e-03 0.0 
0.0 0.0 -9.848034212814e-04 
-1.145107580505e-03 -1.842496915474e-04 0.0 
-1.842496915474e-04 7.703101384869e-03 0.0 
0.0 0.0 -1.146785027167e-03 
-5.943655314034e-04 -1.832199318588e-04 0.0 
-1.832199318588e-04 3.893020220943e-03 0.0 
0.0 0.0 -5.958228065582e-04 
-9.389816814797e-04 1.876119276121e-04 0.0 
1.876119276121e-04 6.182064030220e-03 0.0 
0.0 0.0 -9.369464185080e-04 
-7.887299262109e-04 -1.887974843369e-04 0.0 
-1.887974843369e-04 5.230247920474e-03 0.0 
0.0 0.0 -7.886172400246e-04 
-9.083774489982e-04 -1.902700926230e-04 0.0 
-1.902700926230e-04 6.046157002466e-03 0.0 
0.0 0.0 -9.065670216064e-04 
-5.279887302568e-04 -1.859379540024e-04 0.0 
-1.859379540024e-04 3.395303897193e-03 0.0 
0.0 0.0 -5.268093404353e-04 
-1.014606245907e-03 2.103915705159e-04 0.0 
2.103915705159e-04 6.713973890446e-03 0.0 
0.0 0.0 -1.013229387512e-03 
-7.553250635679e-04 1.889436264504e-04 0.0 
1.889436264504e-04 4.904153081957e-03 0.0 
0.0 0.0 -7.548706880268e-04 
-8.804539724126e-04 1.911528069324e-04 0.0 
1.911528069324e-04 5.783141817002e-03 0.0 
0.0 0.0 -8.810281692460e-04 
-9.122003311207e-04 1.835312424396e-04 0.0 
1.835312424396e-04 5.985147494673e-03 0.0 
0.0 0.0 -9.091416541300e-04 
-1.779440610295e-04 -1.030848282903e-04 0.0 
-1.030848282903e-04 7.740733373014e-04 0.0 
0.0 0.0 -1.392682743729e-04 
-9.092484897749e-04 2.049076976716e-04 0.0 
2.049076976716e-04 5.988548295435e-03 0.0 
0.0 0.0 -9.082496170556e-04 
-2.130732635602e-04 -2.101807231717e-04 0.0 
-2.101807231717e-04 1.221567911035e-03 0.0 
0.0 0.0 -2.164288490095e-04 
-2.520548988868e-04 2.059906335290e-04 0.0 
2.059906335290e-04 1.360441870585e-03 0.0 
0.0 0.0 -2.410360834028e-04 
-8.430214645806e-04 1.870171193368e-04 0.0 
1.870171193368e-04 5.521874591652e-03 0.0 
0.0 0.0 -8.438072171805e-04 
-1.100618043992e-03 -1.995199700288e-04 0.0 
-1.995199700288e-04 7.372933681793e-03 0.0 
0.0 0.0 -1.098354823938e-03 
-9.336786887582e-04 1.772618600830e-04 0.0 
1.772618600830e-04 6.184069199665e-03 0.0 
0.0 0.0 -9.387552692591e-04 
-5.316814076804e-04 -1.951121058157e-04 0.0 
-1.951121058157e-04 3.374217008638e-03 0.0 
0.0 0.0 -5.215302833573e-04 
-1.342322198460e-03 1.355075091339e-05 0.0 
1.355075091339e-05 8.860022296973e-03 0.0 
0.0 0.0 -1.342322198460e-03 
-6.904184216634e-05 1.341545190441e-04 0.0 
1.341545190441e-04 2.607547295548e-04 0.0 
0.0 0.0 -8.216266602363e-05 
-5.589210723321e-04 -1.329418113689e-04 0.0 
-1.329418113689e-04 3.609084095351e-03 0.0 
0.0 0.0 -5.549805679787e-04 
-8.477696331988e-04 1.855996582244e-04 0.0 
1.855996582244e-04 5.547050172852e-03 0.0 
0.0 0.0 -8.472740691906e-04 
-8.035495844310e-04 -1.953259203622e-04 0.0 
-1.953259203622e-04 5.337013229194e-03 0.0 
0.0 0.0 -8.042584860449e-04 
-6.757348554203e-04 -1.653998453618e-04 0.0 
-1.653998453618e-04 4.426804148949e-03 0.0 
0.0 0.0 -6.733236465360e-04 
-5.914609098286e-04 1.823071808114e-04 0.0 
1.823071808114e-04 3.765270744377e-03 0.0 
0.0 0.0 -5.908717820549e-04 
-8.740292955770e-04 -1.984478198409e-04 0.0 
-1.984478198409e-04 5.813273429386e-03 0.0 
0.0 0.0 -8.733819075714e-04 
-9.264128048314e-04 -1.908219560730e-04 0.0 
-1.908219560730e-04 6.187717693912e-03 0.0 
0.0 0.0 -9.266779469803e-04 
-9.738255750276e-04 2.028683516141e-04 0.0 
2.028683516141e-04 6.450883656299e-03 0.0 
0.0 0.0 -9.734188451722e-04 
-1.155174733819e-03 2.031393399309e-04 0.0 
2.031393399309e-04 7.608098909852e-03 0.0 
0.0 0.0 -1.144302277022e-03 
-2.998307148874e-04 1.817771268844e-04 0.0 
1.817771268844e-04 1.707947677580e-03 0.0 
0.0 0.0 -2.976331147772e-04 
-7.774732960360e-04 1.902311186531e-04 0.0 
1.902311186531e-04 5.067412702539e-03 0.0 
0.0 0.0 -7.784793977761e-04 
-8.354929195800e-04 1.868427274729e-04 0.0 
1.868427274729e-04 5.469964258699e-03 0.0 
0.0 0.0 -8.356154970834e-04 
-4.516910884494e-04 -2.032153244338e-04 0.0 
-2.032153244338e-04 2.897475389763e-03 0.0 
0.0 0.0 -4.544023106810e-04 
-7.514806211766e-04 2.187245154034e-04 0.0 
2.187245154034e-04 4.887888210751e-03 0.0 
0.0 0.0 -7.518103749233e-04 
-9.376130433125e-04 -2.007012642150e-04 0.0 
-2.007012642150e-04 6.245928942655e-03 0.0 
0.0 0.0 -9.362314798257e-04 
-1.020402468730e-03 -1.946865508961e-04 0.0 
-1.946865508961e-04 6.790144563629e-03 0.0 
0.0 0.0 -1.023451880212e-03 
-1.525732992224e-04 8.599813622089e-06 0.0 
8.599813622089e-06 1.000033467602e-03 0.0 
0.0 0.0 -1.605242656235e-04 
-1.269812495822e-04 -2.531001823485e-04 0.0 
-2.531001823485e-04 4.902479252968e-04 0.0 
0.0 0.0 -1.185594205871e-04 
-3.241357878483e-04 -1.842994986655e-04 0.0 
-1.842994986655e-04 2.004473459914e-03 0.0 
0.0 0.0 -3.233707900025e-04 
-8.334989762748e-04 -1.938999604970e-04 0.0 
-1.938999604970e-04 5.537569679809e-03 0.0 
0.0 0.0 -8.330087554115e-04 
-6.325222328163e-04 -1.881321833313e-04 0.0 
-1.881321833313e-04 4.138956718805e-03 0.0 
0.0 0.0 -6.322020076307e-04 
-5.606822046862e-04 -1.836386180369e-04 0.0 
-1.836386180369e-04 3.638290895272e-03 0.0 
0.0 0.0 -5.605319560360e-04 
-5.042968556975e-04 -1.874920210369e-04 0.0 
-1.874920210369e-04 3.240689773487e-03 0.0 
0.0 0.0 -5.041580933422e-04 
-8.721332834429e-04 1.863637843613e-04 0.0 
1.863637843613e-04 5.722466013089e-03 0.0 
0.0 0.0 -8.721335634590e-04 
-9.951021354220e-04 1.863977597818e-04 0.0 
1.863977597818e-04 6.578139400737e-03 0.0 
0.0 0.0 -9.956198530692e-04 
-8.650795473338e-04 1.875435944103e-04 0.0 
1.875435944103e-04 5.670505538654e-03 0.0 
0.0 0.0 -8.643287579461e-04 
-6.358273554876e-04 1.861975192938e-04 0.0 
1.861975192938e-04 4.071155698746e-03 0.0 
0.0 0.0 -6.348607296063e-04 
-9.711834339353e-04 -2.012117718551e-04 0.0 
-2.012117718551e-04 6.487584772475e-03 0.0 
0.0 0.0 -9.699423737970e-04 
-8.101971348646e-04 1.641316877204e-04 0.0 
1.641316877204e-04 5.432076920036e-03 0.0 
0.0 0.0 -8.236220363599e-04 
-1.071983661584e-03 2.130963721818e-04 0.0 
2.130963721818e-04 7.145357950686e-03 0.0 
0.0 0.0 -1.076197569190e-03 
-8.626714893424e-04 -1.942405500946e-04 0.0 
-1.942405500946e-04 5.738328913224e-03 0.0 
0.0 0.0 -8.617642947636e-04 
-8.702702279883e-04 -1.921753086920e-04 0.0 
-1.921753086920e-04 5.792753129953e-03 0.0 
0.0 0.0 -8.694825820363e-04 
-4.645559553230e-04 -1.981925654933e-04 0.0 
-1.981925654933e-04 2.889937884797e-03 0.0 
0.0 0.0 -4.548485160793e-04 
-6.608554486332e-04 -1.864091804663e-04 0.0 
-1.864091804663e-04 4.336541054873e-03 0.0 
0.0 0.0 -6.598952468721e-04 
-8.926027030231e-04 1.843043537544e-04 0.0 
1.843043537544e-04 5.864339266433e-03 0.0 
0.0 0.0 -8.930692851043e-04 
-9.679615503638e-04 1.696948557831e-04 0.0 
1.696948557831e-04 6.395623785343e-03 0.0 
0.0 0.0 -9.615701295831e-04 
-9.079120183865e-04 1.806035671015e-04 0.0 
1.806035671015e-04 6.008465197654e-03 0.0 
0.0 0.0 -8.972249362023e-04 
-4.966173735405e-04 -1.549710521066e-04 0.0 
-1.549710521066e-04 3.153972529156e-03 0.0 
0.0 0.0 -4.879487645214e-04 
-9.010013592764e-04 1.886793445211e-04 0.0 
1.886793445211e-04 5.923625585035e-03 0.0 
0.0 0.0 -9.007118478549e-04 
-5.518253028034e-04 -1.783371210292e-04 0.0 
-1.783371210292e-04 3.577417440001e-03 0.0 
0.0 0.0 -5.517684601482e-04 
-2.845535083016e-04 1.977607623024e-04 0.0 
1.977607623024e-04 1.633750881917e-03 0.0 
0.0 0.0 -2.811347238918e-04 
-1.188918642902e-03 -1.918974946843e-04 0.0 
-1.918974946843e-04 8.111302423947e-03 0.0 
0.0 0.0 -1.202908440308e-03 
-3.019785591688e-04 1.950774455604e-04 0.0 
1.950774455604e-04 1.726883632229e-03 0.0 
0.0 0.0 -3.019870735033e-04 
-5.828626320578e-04 1.860512938998e-04 0.0 
1.860512938998e-04 3.705650589538e-03 0.0 
0.0 0.0 -5.822209219963e-04 
-8.781768956791e-04 -1.986806572289e-04 0.0 
-1.986806572289e-04 5.833892611308e-03 0.0 
0.0 0.0 -8.766521650092e-04 
-5.060723315699e-04 1.405250353070e-04 0.0 
1.405250353070e-04 3.287884117068e-03 0.0 
0.0 0.0 -5.239962781855e-04 
-8.898132346488e-04 -1.977943572352e-04 0.0 
-1.977943572352e-04 5.946896776319e-03 0.0 
0.0 0.0 -8.905656347129e-04 
-4.258375091185e-04 -2.178895733922e-04 0.0 
-2.178895733922e-04 2.688533932087e-03 0.0 
0.0 0.0 -4.282508963332e-04 
-7.578747057611e-04 -1.654300402082e-04 0.0 
-1.654300402082e-04 5.036141076678e-03 0.0 
0.0 0.0 -7.823486082854e-04 
-9.004251462807e-04 -1.892315142782e-04 0.0 
-1.892315142782e-04 5.992307029229e-03 0.0 
0.0 0.0 -8.981647654366e-04 
-7.810617461964e-04 -1.867589919143e-04 0.0 
-1.867589919143e-04 5.170374097518e-03 0.0 
0.0 0.0 -7.800125773855e-04 
-8.113930582064e-04 -1.934831491267e-04 0.0 
-1.934831491267e-04 5.398532171848e-03 0.0 
0.0 0.0 -8.126672281948e-04 
-1.456223754451e-04 -1.153284200369e-04 0.0 
-1.153284200369e-04 8.334024863152e-04 0.0 
0.0 0.0 -1.489310416055e-04 
-1.183619524390e-03 -1.995906802131e-04 0.0 
-1.995906802131e-04 7.793015624772e-03 0.0 
0.0 0.0 -1.152567315725e-03 
-6.518619288047e-04 -1.801864724235e-04 0.0 
-1.801864724235e-04 4.278312019353e-03 0.0 
0.0 0.0 -6.514572604261e-04 
-1.161957516655e-03 2.065796963047e-04 0.0 
2.065796963047e-04 7.737413579119e-03 0.0 
0.0 0.0 -1.154039482800e-03 
-9.839722502603e-04 -1.958677314329e-04 0.0 
-1.958677314329e-04 6.578387584555e-03 0.0 
0.0 0.0 -9.821191134873e-04 
-9.294100606495e-04 1.930061835790e-04 0.0 
1.930061835790e-04 6.122204066633e-03 0.0 
0.0 0.0 -9.293965016571e-04 
-9.285061071557e-04 -1.774497838441e-04 0.0 
-1.774497838441e-04 6.189509746344e-03 0.0 
0.0 0.0 -9.268654845074e-04 
-5.996189068561e-04 1.852055889783e-04 0.0 
1.852055889783e-04 3.820597089734e-03 0.0 
0.0 0.0 -5.989583036242e-04 
-1.944838745677e-04 1.584109702941e-04 0.0 
1.584109702941e-04 1.163625171840e-03 0.0 
0.0 0.0 -2.103425724855e-04 
-1.545095455239e-04 1.193388759039e-04 0.0 
1.193388759039e-04 6.563556231282e-04 0.0 
0.0 0.0 -1.599169489567e-04 
-9.548054477989e-04 1.928585704838e-04 0.0 
1.928585704838e-04 6.318843775437e-03 0.0 
0.0 0.0 -9.583065114986e-04 
-1.160173340718e-03 1.884012827659e-04 0.0 
1.884012827659e-04 7.692007981726e-03 0.0 
0.0 0.0 -1.148056181429e-03 
-5.412400896945e-04 -1.740896251804e-04 0.0 
-1.740896251804e-04 3.519775267643e-03 0.0 
0.0 0.0 -5.426247857783e-04 
-1.000629830532e-03 1.900148255988e-04 0.0 
1.900148255988e-04 6.622819157878e-03 0.0 
0.0 0.0 -1.000702849114e-03 
-5.014074309498e-04 1.897737110035e-04 0.0 
1.897737110035e-04 3.104700833587e-03 0.0 
0.0 0.0 -5.002094317253e-04 
-1.008257874699e-03 -1.995045898856e-04 0.0 
-1.995045898856e-04 6.739421236299e-03 0.0 
0.0 0.0 -1.005614027492e-03 
-1.275786431468e-03 1.088711895385e-04 0.0 
1.088711895385e-04 8.693642459064e-03 0.0 
0.0 0.0 -1.266534580134e-03 
-5.404710541813e-05 1.564499946383e-05 0.0 
1.564499946383e-05 2.310460762638e-04 0.0 
0.0 0.0 -4.512473402930e-05 
-1.341620833825e-03 -3.423569445624e-05 0.0 
-3.423569445624e-05 8.854172159816e-03 0.0 
0.0 0.0 -1.341620833825e-03 
-1.340051318819e-03 3.419351748173e-06 0.0 
3.419351748173e-06 8.881496154702e-03 0.0 
0.0 0.0 -1.340051318819e-03 
-8.003500561082e-04 -1.973446332084e-04 0.0 
-1.973446332084e-04 5.182732733425e-03 0.0 
0.0 0.0 -7.955197795907e-04 
-6.427190039752e-04 -1.771623886154e-04 0.0 
-1.771623886154e-04 4.219584582941e-03 0.0 
0.0 0.0 -6.428246066218e-04 
-9.539959357727e-04 -1.903436421630e-04 0.0 
-1.903436421630e-04 6.384067375959e-03 0.0 
0.0 0.0 -9.543595451430e-04 
-6.046483611249e-04 -1.904684548623e-04 0.0 
-1.904684548623e-04 3.941030960147e-03 0.0 
0.0 0.0 -6.041149214933e-04 
-2.015327089857e-04 -1.787857606074e-04 0.0 
-1.787857606074e-04 1.215175486256e-03 0.0 
0.0 0.0 -2.095884814006e-04 
-1.358502302165e-04 -1.652436952664e-04 0.0 
-1.652436952664e-04 5.860561493669e-04 0.0 
0.0 0.0 -1.201211790779e-04 
-1.224116731780e-03 -1.601620163348e-04 0.0 
-1.601620163348e-04 8.159917680932e-03 0.0 
0.0 0.0 -1.209499414335e-03 
-9.670306227229e-04 -2.102097021758e-04 0.0 
-2.102097021758e-04 6.456763428288e-03 0.0 
0.0 0.0 -9.648175333861e-04 
-7.505793698934e-04 -1.832067976458e-04 0.0 
-1.832067976458e-04 4.862883335491e-03 0.0 
0.0 0.0 -7.224789237173e-04 
-1.308106101880e-03 -9.564346375704e-06 0.0 
-9.564346375704e-06 9.104818726286e-03 0.0 
0.0 0.0 -1.323661129950e-03 
-3.723881451927e-04 -2.095753772028e-04 0.0 
-2.095753772028e-04 2.251170567837e-03 0.0 
0.0 0.0 -3.615704333793e-04 
-1.338587368780e-03 -1.150799812328e-05 0.0 
-1.150799812328e-05 9.097604261257e-03 0.0 
0.0 0.0 -1.324908485340e-03 
-9.656783964584e-04 1.862090128514e-04 0.0 
1.862090128514e-04 6.391762053029e-03 0.0 
0.0 0.0 -9.670422101491e-04 
-6.322851321103e-04 -1.782670103149e-04 0.0 
-1.782670103149e-04 4.156088603212e-03 0.0 
0.0 0.0 -6.336394413500e-04 
-9.215195886709e-04 1.858262024963e-04 0.0 
1.858262024963e-04 6.065159777351e-03 0.0 
0.0 0.0 -9.212972352143e-04 
-6.095245585206e-04 1.817233461859e-04 0.0 
1.817233461859e-04 3.888318231073e-03 0.0 
0.0 0.0 -6.094834619596e-04 
-3.161972729321e-04 2.118996039673e-04 0.0 
2.118996039673e-04 1.862493464303e-03 0.0 
0.0 0.0 -3.160312483096e-04 
-5.714172847083e-04 1.885506067566e-04 0.0 
1.885506067566e-04 3.631122930928e-03 0.0 
0.0 0.0 -5.728018649490e-04 
-1.022496320278e-03 1.929428534963e-04 0.0 
1.929428534963e-04 6.770909400157e-03 0.0 
0.0 0.0 -1.023749757194e-03 
-1.150976429886e-03 -2.032424840275e-04 0.0 
-2.032424840275e-04 7.758939253249e-03 0.0 
0.0 0.0 -1.155390781228e-03 
-6.187002398340e-04 1.818215273870e-04 0.0 
1.818215273870e-04 3.950326342677e-03 0.0 
0.0 0.0 -6.181853003094e-04 
-1.037480631671e-03 1.889356953884e-04 0.0 
1.889356953884e-04 6.873009589990e-03 0.0 
0.0 0.0 -1.036271578259e-03 
0.0 0.0 0.0 
0.0 0.0 0.0 
0.0 0.0 0.0 
-6.276661230387e-04 1.792694929943e-04 0.0 
1.792694929943e-04 4.010933515785e-03 0.0 
0.0 0.0 -6.266282162577e-04 
-1.067618640436e-03 -2.059979659696e-04 0.0 
-2.059979659696e-04 7.168819223232e-03 0.0 
0.0 0.0 -1.066385360782e-03 
-5.602476022505e-04 1.913249262792e-04 0.0 
1.913249262792e-04 3.548859392025e-03 0.0 
0.0 0.0 -5.616069800515e-04 
-5.034317169211e-04 -1.766316395617e-04 0.0 
-1.766316395617e-04 3.262973984744e-03 0.0 
0.0 0.0 -5.052880831394e-04 
-9.189958469858e-04 -1.860644213166e-04 0.0 
-1.860644213166e-04 6.131142810909e-03 0.0 
0.0 0.0 -9.187611816440e-04 
-2.798438621560e-04 2.024562614015e-04 0.0 
2.024562614015e-04 1.659164072585e-03 0.0 
0.0 0.0 -2.979563435985e-04 
-4.237702008278e-04 -1.193704641065e-04 0.0 
-1.193704641065e-04 2.381332436810e-03 0.0 
0.0 0.0 -3.867203691650e-04 
-3.975764326489e-04 -1.798608620238e-04 0.0 
-1.798608620238e-04 2.707475849368e-03 0.0 
0.0 0.0 -4.195921675762e-04 
-4.963058465455e-04 1.849091904100e-04 0.0 
1.849091904100e-04 3.099739962777e-03 0.0 
0.0 0.0 -4.973376392308e-04 
-8.459383987433e-04 -1.907145818211e-04 0.0 
-1.907145818211e-04 5.622335891913e-03 0.0 
0.0 0.0 -8.444178005646e-04 
-8.162577903273e-04 1.917219888078e-04 0.0 
1.917219888078e-04 5.328762658263e-03 0.0 
0.0 0.0 -8.147327860212e-04 
-1.033805230838e-03 -2.014200165049e-04 0.0 
-2.014200165049e-04 6.928519613423e-03 0.0 
0.0 0.0 -1.033897369924e-03 
-1.221633880436e-03 1.327525419154e-04 0.0 
1.327525419154e-04 8.105302040654e-03 0.0 
0.0 0.0 -1.224260864640e-03 
-4.437323643489e-04 1.289034247084e-04 0.0 
1.289034247084e-04 2.824272473931e-03 0.0 
0.0 0.0 -4.570814260163e-04 
-1.026282183515e-03 -2.469645237372e-04 0.0 
-2.469645237372e-04 6.837925098464e-03 0.0 
0.0 0.0 -1.028620860735e-03 
-1.232340650598e-03 1.232265702216e-04 0.0 
1.232265702216e-04 8.131356307241e-03 0.0 
0.0 0.0 -1.228414553209e-03 
-5.714514367839e-04 1.903885160707e-04 0.0 
1.903885160707e-04 3.625837711505e-03 0.0 
0.0 0.0 -5.707601703556e-04 
-2.135565257302e-04 2.102195190307e-04 0.0 
2.102195190307e-04 1.190116728888e-03 0.0 
0.0 0.0 -2.192200328082e-04 
-5.324811030586e-04 -1.564509498564e-04 0.0 
-1.564509498564e-04 3.456619354267e-03 0.0 
0.0 0.0 -5.330167430730e-04 
-8.085387987626e-04 -1.885177874859e-04 0.0 
-1.885177874859e-04 5.361946972922e-03 0.0 
0.0 0.0 -8.082977034869e-04 
-1.047924752938e-03 1.956397865657e-04 0.0 
1.956397865657e-04 6.924645327261e-03 0.0 
0.0 0.0 -1.043024347135e-03 
-8.126482086337e-04 1.904262971098e-04 0.0 
1.904262971098e-04 5.297787546946e-03 0.0 
0.0 0.0 -8.108276944599e-04 
-2.458088517300e-04 -1.138196901464e-04 0.0 
-1.138196901464e-04 1.452613291321e-03 0.0 
0.0 0.0 -2.343049260409e-04 
-9.102031090637e-04 -2.013755147983e-04 0.0 
-2.013755147983e-04 6.070783801232e-03 0.0 
0.0 0.0 -9.096068616062e-04 
-3.560167896549e-04 2.151383842188e-04 0.0 
2.151383842188e-04 2.131802985450e-03 0.0 
0.0 0.0 -3.508512830963e-04 
-8.140185260576e-04 -1.926928755879e-04 0.0 
-1.926928755879e-04 5.389465675351e-03 0.0 
0.0 0.0 -8.123573650817e-04 
-8.767776688193e-04 2.024483433582e-04 0.0 
2.024483433582e-04 5.751188307413e-03 0.0 
0.0 0.0 -8.756097305517e-04 
-9.509565837624e-04 1.896974231218e-04 0.0 
1.896974231218e-04 6.265385166788e-03 0.0 
0.0 0.0 -9.491391837787e-04 
-9.274205801970e-04 -1.707730266069e-04 0.0 
-1.707730266069e-04 6.212775611049e-03 0.0 
0.0 0.0 -9.494079867578e-04 
-4.906398001625e-04 -1.749565167891e-04 0.0 
-1.749565167891e-04 3.179973922092e-03 0.0 
0.0 0.0 -4.933620968966e-04 
-2.484574972914e-04 1.853035354058e-04 0.0 
1.853035354058e-04 1.372800011643e-03 0.0 
0.0 0.0 -2.459554264611e-04 
-9.419221611827e-04 2.078178624914e-04 0.0 
2.078178624914e-04 6.213877196692e-03 0.0 
0.0 0.0 -9.415329344942e-04 
-3.796687070467e-04 1.987051729866e-04 0.0 
1.987051729866e-04 2.349690832434e-03 0.0 
0.0 0.0 -3.857152600925e-04 
-1.079925297708e-04 2.094696628342e-04 0.0 
2.094696628342e-04 4.385964497386e-04 0.0 
0.0 0.0 -1.205192217350e-04 
-1.217003238982e-03 1.715975421034e-04 0.0 
1.715975421034e-04 8.115367819263e-03 0.0 
0.0 0.0 -1.223389224544e-03 
-1.152822377069e-03 1.914748152746e-04 0.0 
1.914748152746e-04 7.732583850779e-03 0.0 
0.0 0.0 -1.157435638217e-03 
-9.394432781389e-05 -1.620283716041e-05 0.0 
-1.620283716041e-05 3.135234532211e-04 0.0 
0.0 0.0 -9.410533946025e-05 
-9.757772886518e-04 -2.084469974537e-04 0.0 
-2.084469974537e-04 6.524951865197e-03 0.0 
0.0 0.0 -9.758309632659e-04 
-3.896708157340e-04 -1.763476574512e-04 0.0 
-1.763476574512e-04 2.457499880861e-03 0.0 
0.0 0.0 -3.887237773309e-04 
-4.187709573894e-04 2.113072011151e-04 0.0 
2.113072011151e-04 2.560835545987e-03 0.0 
0.0 0.0 -4.195855280820e-04 
-1.100445862982e-03 1.933828922324e-04 0.0 
1.933828922324e-04 7.327011461119e-03 0.0 
0.0 0.0 -1.100737838324e-03 
-9.470047501209e-04 -1.877990577056e-04 0.0 
-1.877990577056e-04 6.324416518396e-03 0.0 
0.0 0.0 -9.467522836136e-04 
-1.064750852218e-03 1.888034529426e-04 0.0 
1.888034529426e-04 7.071897550473e-03 0.0 
0.0 0.0 -1.064854740548e-03 
-6.246803119834e-04 -1.813696095216e-04 0.0 
-1.813696095216e-04 4.082455365693e-03 0.0 
0.0 0.0 -6.238888496032e-04 
-7.066733059563e-04 2.079397955123e-05 0.0 
2.079397955123e-05 4.859565834242e-03 0.0 
0.0 0.0 -7.105917616147e-04 
-1.294146159652e-03 -3.864697892392e-05 0.0 
-3.864697892392e-05 8.444131533072e-03 0.0 
0.0 0.0 -1.281538364137e-03 
-3.542163761972e-04 2.028127844720e-04 0.0 
2.028127844720e-04 2.096644602115e-03 0.0 
0.0 0.0 -3.541816848729e-04 
-1.125206372116e-03 -1.754172072946e-04 0.0 
-1.754172072946e-04 7.521489804146e-03 0.0 
0.0 0.0 -1.121221582973e-03 
-8.491762958406e-04 -1.918772025260e-04 0.0 
-1.918772025260e-04 5.637172269943e-03 0.0 
0.0 0.0 -8.477100451819e-04 
-2.548170229509e-04 1.666770740485e-04 0.0 
1.666770740485e-04 1.576109573106e-03 0.0 
0.0 0.0 -2.892354545592e-04 
-1.017444257442e-03 1.870623454717e-04 0.0 
1.870623454717e-04 6.717348757916e-03 0.0 
0.0 0.0 -1.015166614560e-03 
-6.631831128869e-04 1.857158928685e-04 0.0 
1.857158928685e-04 4.263729749941e-03 0.0 
0.0 0.0 -6.628028861993e-04 
-1.684732311542e-04 2.043772270911e-05 0.0 
2.043772270911e-05 7.313008481942e-04 0.0 
0.0 0.0 -1.790968519484e-04 
-5.636882380034e-04 1.819527752724e-04 0.0 
1.819527752724e-04 3.574156729662e-03 0.0 
0.0 0.0 -5.632129589051e-04 
-9.884210265131e-04 1.935912308442e-04 0.0 
1.935912308442e-04 6.630368017319e-03 0.0 
0.0 0.0 -9.915417172310e-04 
-1.024292652289e-03 -1.998354067082e-04 0.0 
-1.998354067082e-04 6.855679602380e-03 0.0 
0.0 0.0 -1.020980360542e-03 
-2.668718187996e-04 -1.887143997354e-04 0.0 
-1.887143997354e-04 1.647579462571e-03 0.0 
0.0 0.0 -2.713190868338e-04 
-7.786512140660e-04 -1.180089749437e-04 0.0 
-1.180089749437e-04 5.426201302135e-03 0.0 
0.0 0.0 -8.076288038732e-04 
-1.074110154891e-03 1.985848318848e-04 0.0 
1.985848318848e-04 7.134481455861e-03 0.0 
0.0 0.0 -1.071782534217e-03 
-1.102896231441e-03 -1.801608730722e-04 0.0 
-1.801608730722e-04 7.447194143767e-03 0.0 
0.0 0.0 -1.109893377180e-03 
-5.341916501155e-04 1.805786256933e-04 0.0 
1.805786256933e-04 3.363027861628e-03 0.0 
0.0 0.0 -5.351738145117e-04 
-4.305045173777e-04 1.931657245159e-04 0.0 
1.931657245159e-04 2.621086994850e-03 0.0 
0.0 0.0 -4.333934152438e-04 
-8.799765506503e-04 1.996562479782e-04 0.0 
1.996562479782e-04 5.778741680504e-03 0.0 
0.0 0.0 -8.786267582723e-04 
-9.199821990293e-04 -2.154181819419e-04 0.0 
-2.154181819419e-04 6.117399840533e-03 0.0 
0.0 0.0 -9.278975173457e-04 
-1.674260928547e-04 -1.501342801200e-05 0.0 
-1.501342801200e-05 7.277150164987e-04 0.0 
0.0 0.0 -1.762926913357e-04 
-1.274115998275e-03 1.675675276394e-06 0.0 
1.675675276394e-06 8.713591812970e-03 0.0 
0.0 0.0 -1.269179263065e-03 
-1.298508155882e-03 1.869502884699e-05 0.0 
1.869502884699e-05 8.443421948614e-03 0.0 
0.0 0.0 -1.281197857596e-03 
-8.292940884850e-04 -1.917175163009e-04 0.0 
-1.917175163009e-04 5.414946975703e-03 0.0 
0.0 0.0 -8.387747867703e-04 
-1.244952979202e-03 -2.282010355606e-04 0.0 
-2.282010355606e-04 8.516132030964e-03 0.0 
0.0 0.0 -1.255037608383e-03 
-1.285595461777e-03 8.758262611811e-05 0.0 
8.758262611811e-05 8.470225568409e-03 0.0 
0.0 0.0 -1.285499913836e-03 
-6.550628368553e-04 1.846091374222e-04 0.0 
1.846091374222e-04 4.205898052995e-03 0.0 
0.0 0.0 -6.542748834104e-04 
-6.160633711768e-04 -1.792561832398e-04 0.0 
-1.792561832398e-04 4.023102319788e-03 0.0 
0.0 0.0 -6.153450468602e-04 
-1.283033344166e-03 -3.678337033116e-05 0.0 
-3.678337033116e-05 8.728014596535e-03 0.0 
0.0 0.0 -1.265535665854e-03 
0.0 0.0 0.0 
0.0 0.0 0.0 
0.0 0.0 0.0 
-3.991066787644e-04 2.089649564117e-04 0.0 
2.089649564117e-04 2.425063075378e-03 0.0 
0.0 0.0 -3.941707820484e-04 
-8.514609378297e-04 2.123409869842e-04 0.0 
2.123409869842e-04 5.409120252618e-03 0.0 
0.0 0.0 -8.329475646481e-04 
-5.302799896406e-04 -1.732779148190e-04 0.0 
-1.732779148190e-04 3.448271069514e-03 0.0 
0.0 0.0 -5.313546330462e-04 
-5.563051708704e-04 1.844916340552e-04 0.0 
1.844916340552e-04 3.512912497570e-03 0.0 
0.0 0.0 -5.546931404481e-04 
-3.415568276899e-04 -1.308054941932e-04 0.0 
-1.308054941932e-04 1.889315350148e-03 0.0 
0.0 0.0 -3.196518454468e-04 
-3.575678493769e-04 -1.815157908242e-04 0.0 
-1.815157908242e-04 2.264784395116e-03 0.0 
0.0 0.0 -3.528063275151e-04 
-8.197996438865e-04 -1.649479054575e-04 0.0 
-1.649479054575e-04 5.559213606059e-03 0.0 
0.0 0.0 -8.290026594306e-04 
-5.969369916123e-04 -1.873932769646e-04 0.0 
-1.873932769646e-04 3.888936242251e-03 0.0 
0.0 0.0 -5.962921515785e-04 
-4.656748358331e-04 1.698564554768e-04 0.0 
1.698564554768e-04 2.821912241396e-03 0.0 
0.0 0.0 -4.583473518421e-04 
-1.081990949278e-03 2.020316486046e-04 0.0 
2.020316486046e-04 7.171935137813e-03 0.0 
0.0 0.0 -1.077832113627e-03 
-1.313638198111e-03 -3.076900631363e-06 0.0 
-3.076900631363e-06 9.102354608081e-03 0.0 
0.0 0.0 -1.324978758543e-03 
-1.341095485501e-03 -7.065196985573e-05 0.0 
-7.065196985573e-05 9.093683970561e-03 0.0 
0.0 0.0 -1.320624918399e-03 
-6.462169745443e-04 1.855628978642e-04 0.0 
1.855628978642e-04 4.145339439620e-03 0.0 
0.0 0.0 -6.457427040837e-04 
-7.708747032324e-04 1.041783851500e-04 0.0 
1.041783851500e-04 4.982091340538e-03 0.0 
0.0 0.0 -7.877541558771e-04 
-8.769640556113e-05 6.178156653826e-05 0.0 
6.178156653826e-05 4.782988861832e-04 0.0 
0.0 0.0 -9.215226380795e-05 
-2.633621526955e-04 -2.203101725458e-04 0.0 
-2.203101725458e-04 1.488332341374e-03 0.0 
0.0 0.0 -2.565684379859e-04 
-2.684503074307e-04 -1.015967117789e-04 0.0 
-1.015967117789e-04 1.723596733048e-03 0.0 
0.0 0.0 -2.726290318112e-04 
-2.937144985059e-04 -1.893501464246e-04 0.0 
-1.893501464246e-04 1.729218905568e-03 0.0 
0.0 0.0 -2.902597925154e-04 
-9.132607495649e-04 -1.959093978122e-04 0.0 
-1.959093978122e-04 6.073898974161e-03 0.0 
0.0 0.0 -9.116044729693e-04 
-5.464820601322e-04 1.827990156846e-04 0.0 
1.827990156846e-04 3.450683961523e-03 0.0 
0.0 0.0 -5.459662534218e-04 
-5.889189184563e-04 -1.828572680717e-04 0.0 
-1.828572680717e-04 3.834736165112e-03 0.0 
0.0 0.0 -5.879858557453e-04 
-1.839870051548e-04 -1.451969745408e-04 0.0 
-1.451969745408e-04 1.010884541365e-03 0.0 
0.0 0.0 -1.607067486349e-04 
-1.189299804196e-03 3.101361533260e-05 0.0 
3.101361533260e-05 7.702189552740e-03 0.0 
0.0 0.0 -1.176327079312e-03 
-5.798619533544e-04 -1.808661495354e-04 0.0 
-1.808661495354e-04 3.773380412779e-03 0.0 
0.0 0.0 -5.792774345575e-04 
-1.207908513450e-03 1.972281472903e-04 0.0 
1.972281472903e-04 8.083641670665e-03 0.0 
0.0 0.0 -1.212957849656e-03 
-1.102884565855e-03 -1.433383463997e-04 0.0 
-1.433383463997e-04 7.411218118786e-03 0.0 
0.0 0.0 -1.117460450001e-03 
-1.327052993259e-03 5.039016474573e-05 0.0 
5.039016474573e-05 9.117456944273e-03 0.0 
0.0 0.0 -1.319418651152e-03 
-1.323160438534e-03 4.113209317422e-05 0.0 
4.113209317422e-05 9.111232254039e-03 0.0 
0.0 0.0 -1.324849633189e-03 
-8.429214028196e-04 1.551938721598e-04 0.0 
1.551938721598e-04 5.556754036542e-03 0.0 
0.0 0.0 -8.315138651140e-04 
-6.054182665991e-04 -1.761595556498e-04 0.0 
-1.761595556498e-04 3.962557590826e-03 0.0 
0.0 0.0 -6.063493599946e-04 
-3.773225086312e-04 1.540184482810e-04 0.0 
1.540184482810e-04 2.369883884178e-03 0.0 
0.0 0.0 -3.884917441798e-04 
-6.362526417499e-04 1.880822988669e-04 0.0 
1.880822988669e-04 4.081289822239e-03 0.0 
0.0 0.0 -6.367902913543e-04 
-1.343328350294e-03 -2.242232029301e-05 0.0 
-2.242232029301e-05 8.871791449146e-03 0.0 
0.0 0.0 -1.343328350294e-03 
-1.941237960476e-04 -2.080169990244e-04 0.0 
-2.080169990244e-04 1.015510769409e-03 0.0 
0.0 0.0 -1.893367542308e-04 
-2.245210048569e-04 -1.692984650134e-04 0.0 
-1.692984650134e-04 1.259236592297e-03 0.0 
0.0 0.0 -2.228547875044e-04 
-1.167115373107e-03 -1.495116845836e-04 0.0 
-1.495116845836e-04 7.791699083978e-03 0.0 
0.0 0.0 -1.156027955174e-03 
-7.604196719999e-04 1.094016003107e-05 0.0 
1.094016003107e-05 5.257478836262e-03 0.0 
0.0 0.0 -7.715229432315e-04 
-1.218850929264e-03 2.058644676409e-04 0.0 
2.058644676409e-04 8.144525734943e-03 0.0 
0.0 0.0 -1.219279742240e-03 
-1.071479820018e-03 -2.036323164842e-04 0.0 
-2.036323164842e-04 7.177512432405e-03 0.0 
0.0 0.0 -1.069611963270e-03 
-1.173316210076e-03 1.967322517176e-04 0.0 
1.967322517176e-04 7.835584524311e-03 0.0 
0.0 0.0 -1.175036385391e-03 
-1.118458415257e-03 -2.207277967069e-04 0.0 
-2.207277967069e-04 7.508134580034e-03 0.0 
0.0 0.0 -1.113576918908e-03 
-8.412072480000e-04 1.822595111317e-04 0.0 
1.822595111317e-04 5.484810982913e-03 0.0 
0.0 0.0 -8.542750875041e-04 
-4.656106938285e-04 -1.713235230467e-04 0.0 
-1.713235230467e-04 3.001776381545e-03 0.0 
0.0 0.0 -4.674384380614e-04 
-4.697017346435e-04 1.848050694814e-04 0.0 
1.848050694814e-04 2.920597782787e-03 0.0 
0.0 0.0 -4.715697005044e-04 
-9.776991098987e-04 1.861960494421e-04 0.0 
1.861960494421e-04 6.549106674112e-03 0.0 
0.0 0.0 -9.963059934037e-04 
-1.137349181097e-03 -2.318464835195e-04 0.0 
-2.318464835195e-04 7.668040183404e-03 0.0 
0.0 0.0 -1.142506377625e-03 
-7.233340711098e-04 3.952444560705e-05 0.0 
3.952444560705e-05 4.569127107640e-03 0.0 
0.0 0.0 -7.345222264051e-04 
-7.670993363221e-04 9.419055025908e-06 0.0 
9.419055025908e-06 5.242908179151e-03 0.0 
0.0 0.0 -7.676068998053e-04 
-8.154774784067e-04 -6.428956903013e-05 0.0 
-6.428956903013e-05 5.577286133227e-03 0.0 
0.0 0.0 -8.242303029217e-04 
-8.631530775678e-04 -2.400243606271e-04 0.0 
-2.400243606271e-04 5.666444636217e-03 0.0 
0.0 0.0 -8.467401457521e-04 
-2.520894261651e-04 1.671748571762e-04 0.0 
1.671748571762e-04 1.368563506488e-03 0.0 
0.0 0.0 -2.397236108670e-04 
-4.305788114656e-04 1.772776305973e-04 0.0 
1.772776305973e-04 2.648122848143e-03 0.0 
0.0 0.0 -4.335179088089e-04 
-1.282591321733e-03 8.806658448800e-05 0.0 
8.806658448800e-05 8.712918664304e-03 0.0 
0.0 0.0 -1.269310366786e-03 
-9.079866980401e-04 -2.164843828387e-04 0.0 
-2.164843828387e-04 6.067165963345e-03 0.0 
0.0 0.0 -9.150577043801e-04 
-1.296402067617e-03 1.470406796949e-04 0.0 
1.470406796949e-04 8.670707295504e-03 0.0 
0.0 0.0 -1.295322057178e-03 
-1.218050556302e-03 -1.658124096046e-04 0.0 
-1.658124096046e-04 8.300187960416e-03 0.0 
0.0 0.0 -1.215577547940e-03 
-1.017494637499e-03 -1.921677140224e-04 0.0 
-1.921677140224e-04 6.789033766802e-03 0.0 
0.0 0.0 -1.012565562176e-03 
-1.225370251071e-03 -1.480578321934e-04 0.0 
-1.480578321934e-04 8.186203026488e-03 0.0 
0.0 0.0 -1.214907066889e-03 
-6.126094482220e-04 1.499930831992e-04 0.0 
1.499930831992e-04 3.952786327319e-03 0.0 
0.0 0.0 -6.304496659280e-04 
-5.949124951754e-04 1.553635317388e-04 0.0 
1.553635317388e-04 3.760564116659e-03 0.0 
0.0 0.0 -5.666856080635e-04 
-1.240251440986e-03 1.401266566937e-04 0.0 
1.401266566937e-04 8.128078577480e-03 0.0 
0.0 0.0 -1.226851238141e-03 
-8.681779237144e-05 6.361966938889e-05 0.0 
6.361966938889e-05 2.955256088903e-04 0.0 
0.0 0.0 -8.944620707951e-05 
-3.994468741372e-04 -6.433767031839e-05 0.0 
-6.433767031839e-05 2.663800316761e-03 0.0 
0.0 0.0 -4.071640756073e-04 
-1.342405754833e-03 -1.165290042752e-05 0.0 
-1.165290042752e-05 8.847278625245e-03 0.0 
0.0 0.0 -1.342405754833e-03 
-2.282183831112e-04 -1.931913246922e-04 0.0 
-1.931913246922e-04 1.161289386138e-03 0.0 
0.0 0.0 -2.265802816212e-04 
-7.779914563104e-04 2.250840471912e-05 0.0 
2.250840471912e-05 4.976100040424e-03 0.0 
0.0 0.0 -7.870118106326e-04 
-1.235301241696e-03 -4.597267687940e-05 0.0 
-4.597267687940e-05 8.352549433382e-03 0.0 
0.0 0.0 -1.213461936786e-03 
-1.459711515859e-04 1.404844411890e-04 0.0 
1.404844411890e-04 8.229618690863e-04 0.0 
0.0 0.0 -1.562362318669e-04 
-9.769154927044e-05 -4.466849095827e-05 0.0 
-4.466849095827e-05 5.434427193165e-04 0.0 
0.0 0.0 -9.998712429274e-05 
-1.319764072821e-03 -1.098631366031e-04 0.0 
-1.098631366031e-04 9.086194502793e-03 0.0 
0.0 0.0 -1.324389858384e-03 
-7.180738404627e-04 8.985801949804e-05 0.0 
8.985801949804e-05 4.589525670273e-03 0.0 
0.0 0.0 -7.294542769151e-04 
-1.252043255197e-03 2.202164088422e-04 0.0 
2.202164088422e-04 8.539160480101e-03 0.0 
0.0 0.0 -1.261418349269e-03 
-1.248383097869e-03 1.112925247004e-05 0.0 
1.112925247004e-05 8.098072079257e-03 0.0 
0.0 0.0 -1.231858344535e-03 
-7.209227692000e-04 -5.510654877091e-05 0.0 
-5.510654877091e-05 4.575450219389e-03 0.0 
0.0 0.0 -7.289279708929e-04 
-7.887389828834e-05 -1.017830300428e-05 0.0 
-1.017830300428e-05 5.525360744204e-04 0.0 
0.0 0.0 -9.740250892546e-05 
-1.285641185581e-03 -9.669087187560e-05 0.0 
-9.669087187560e-05 8.464210102403e-03 0.0 
0.0 0.0 -1.284140717545e-03 
-2.442885352264e-04 -2.316128597141e-04 0.0 
-2.316128597141e-04 1.339036366237e-03 0.0 
0.0 0.0 -2.433545560381e-04 
-1.243394787484e-03 1.248159333677e-04 0.0 
1.248159333677e-04 8.192432393622e-03 0.0 
0.0 0.0 -1.232184317627e-03 
-1.343095105526e-03 -5.545911197430e-07 0.0 
-5.545911197430e-07 8.861098076103e-03 0.0 
0.0 0.0 -1.343095105526e-03 
-1.242483488035e-03 -1.476678323207e-04 0.0 
-1.476678323207e-04 8.164481882699e-03 0.0 
0.0 0.0 -1.225700354592e-03 
-3.053173479735e-04 1.995595624775e-04 0.0 
1.995595624775e-04 1.753941284829e-03 0.0 
0.0 0.0 -3.044764127662e-04 
-8.209179416884e-04 2.201614491088e-05 0.0 
2.201614491088e-05 5.636691216410e-03 0.0 
0.0 0.0 -8.279144014868e-04 
-6.598213782972e-04 -1.321361913962e-04 0.0 
-1.321361913962e-04 4.200506500251e-03 0.0 
0.0 0.0 -6.271989868224e-04 
-1.073009497438e-03 -2.016133877389e-04 0.0 
-2.016133877389e-04 7.190278966189e-03 0.0 
0.0 0.0 -1.077599360682e-03 
-1.322804215539e-03 -9.225806505956e-05 0.0 
-9.225806505956e-05 9.099454060859e-03 0.0 
0.0 0.0 -1.326997735404e-03 
-1.068734190482e-03 1.262415369066e-04 0.0 
1.262415369066e-04 7.132952485478e-03 0.0 
0.0 0.0 -1.061614915164e-03 
-1.337358869243e-03 1.104149306633e-04 0.0 
1.104149306633e-04 9.089889591754e-03 0.0 
0.0 0.0 -1.325870641008e-03 
-1.438532979018e-04 1.783345522893e-04 0.0 
1.783345522893e-04 7.477808023263e-04 0.0 
0.0 0.0 -1.715795432680e-04 
-1.271233225915e-03 -1.249047643759e-04 0.0 
-1.249047643759e-04 8.707020070809e-03 0.0 
0.0 0.0 -1.277656510522e-03 
-3.430844418630e-04 1.264811275403e-04 0.0 
1.264811275403e-04 2.040518818998e-03 0.0 
0.0 0.0 -3.355960889912e-04 
-2.267326677211e-04 8.751186841259e-05 0.0 
8.751186841259e-05 1.117406703756e-03 0.0 
0.0 0.0 -2.298118214877e-04 
-1.280901782935e-03 -1.009695952618e-04 0.0 
-1.009695952618e-04 8.719202259105e-03 0.0 
0.0 0.0 -1.270335377537e-03 
-1.269212628500e-03 -5.703432125201e-05 0.0 
-5.703432125201e-05 8.728165820739e-03 0.0 
0.0 0.0 -1.270603359501e-03 
-1.290208848840e-03 -1.659042855401e-04 0.0 
-1.659042855401e-04 8.665328582140e-03 0.0 
0.0 0.0 -1.289850838753e-03 
-7.717572245574e-04 2.050611335135e-04 0.0 
2.050611335135e-04 5.043252484980e-03 0.0 
0.0 0.0 -7.762633204683e-04 
-8.522136042617e-04 2.002639843872e-04 0.0 
2.002639843872e-04 5.495330100218e-03 0.0 
0.0 0.0 -8.489529362435e-04 
-3.165071740037e-04 -2.111753426377e-04 0.0 
-2.111753426377e-04 1.888408226457e-03 0.0 
0.0 0.0 -3.134500106614e-04 
-1.262455248765e-03 -8.092303513728e-05 0.0 
-8.092303513728e-05 8.720636871640e-03 0.0 
0.0 0.0 -1.273041473476e-03 
-5.172296523503e-04 1.719980447266e-04 0.0 
1.719980447266e-04 3.374654497821e-03 0.0 
0.0 0.0 -5.357483711987e-04 
-1.781924616035e-04 -1.691974037750e-04 0.0 
-1.691974037750e-04 1.076416545498e-03 0.0 
0.0 0.0 -2.114276361914e-04 
-1.103945436021e-03 1.858035491712e-04 0.0 
1.858035491712e-04 7.419563175353e-03 0.0 
0.0 0.0 -1.110141529071e-03 
-7.006483677025e-04 -2.017256137276e-05 0.0 
-2.017256137276e-05 4.817249357728e-03 0.0 
0.0 0.0 -7.096328662732e-04 
-1.236750495474e-03 1.522707816399e-04 0.0 
1.522707816399e-04 8.254648441428e-03 0.0 
0.0 0.0 -1.237729719596e-03 
-1.313320395878e-03 -1.861843894467e-04 0.0 
-1.861843894467e-04 8.989774958204e-03 0.0 
0.0 0.0 -1.321509982054e-03 
-1.343732204276e-03 -8.189586176297e-06 0.0 
-8.189586176297e-06 8.864848236539e-03 0.0 
0.0 0.0 -1.343732204276e-03 
-2.113977103298e-05 -6.116564405309e-05 0.0 
-6.116564405309e-05 2.124468673954e-04 0.0 
0.0 0.0 -4.293446239042e-05 
-1.369574587125e-05 5.682883385819e-05 0.0 
5.682883385819e-05 6.671587994242e-05 0.0 
0.0 0.0 -2.272291460193e-05 
-7.269437089926e-04 -1.696449694041e-04 0.0 
-1.696449694041e-04 4.683701017331e-03 0.0 
0.0 0.0 -7.318233512793e-04 
-7.351939856936e-04 2.731264159563e-05 0.0 
2.731264159563e-05 4.828327016366e-03 0.0 
0.0 0.0 -7.096011290571e-04 
-1.343732204276e-03 1.179896387127e-05 0.0 
1.179896387127e-05 8.857063084495e-03 0.0 
0.0 0.0 -1.343732204276e-03 
-1.309711018183e-03 1.830632258291e-04 0.0 
1.830632258291e-04 8.985110969777e-03 0.0 
0.0 0.0 -1.321509982054e-03 
-7.839023714476e-05 1.530759167141e-04 0.0 
1.530759167141e-04 4.984351001574e-04 0.0 
0.0 0.0 -9.787861857360e-05 
0.0 0.0 0.0 
0.0 0.0 0.0 
0.0 0.0 0.0 
-1.240428741391e-03 1.261681395074e-04 0.0 
1.261681395074e-04 8.137366373926e-03 0.0 
0.0 0.0 -1.230181737024e-03 
-1.207075559038e-03 2.460354552527e-04 0.0 
2.460354552527e-04 8.184062138694e-03 0.0 
0.0 0.0 -1.209364118140e-03 
-2.516969952369e-04 -1.461428108360e-04 0.0 
-1.461428108360e-04 1.687102641450e-03 0.0 
0.0 0.0 -2.712674790923e-04 
-1.245262172265e-03 -1.311938195306e-04 0.0 
-1.311938195306e-04 8.282968492479e-03 0.0 
0.0 0.0 -1.240191881334e-03 
-8.815159713633e-04 -5.214653451851e-05 0.0 
-5.214653451851e-05 5.742054567636e-03 0.0 
0.0 0.0 -8.888375990210e-04 
-7.830091470663e-04 -1.948066662000e-04 0.0 
-1.948066662000e-04 5.082527524584e-03 0.0 
0.0 0.0 -7.610796297342e-04 
-9.561048422875e-04 9.798803026384e-05 0.0 
9.798803026384e-05 6.427121213030e-03 0.0 
0.0 0.0 -9.400782610458e-04 
-2.481095332731e-04 1.496361777487e-04 0.0 
1.496361777487e-04 1.515795619755e-03 0.0 
0.0 0.0 -2.626203152100e-04 
-1.010907895305e-03 -2.030439122721e-04 0.0 
-2.030439122721e-04 6.762603191825e-03 0.0 
0.0 0.0 -1.011657465016e-03 
-2.096777059838e-04 3.248157080125e-05 0.0 
3.248157080125e-05 1.393633952846e-03 0.0 
0.0 0.0 -2.181484037039e-04 
-6.792638343957e-04 -1.892634513455e-04 0.0 
-1.892634513455e-04 4.524953282507e-03 0.0 
0.0 0.0 -6.997415131527e-04 
-1.228132135990e-03 1.125898781112e-04 0.0 
1.125898781112e-04 8.215057351811e-03 0.0 
0.0 0.0 -1.240519096027e-03 
-1.189706231828e-03 -2.131151468578e-04 0.0 
-2.131151468578e-04 8.025000395541e-03 0.0 
0.0 0.0 -1.191726112421e-03 
-7.376716687014e-04 1.103821202312e-04 0.0 
1.103821202312e-04 4.884590449632e-03 0.0 
0.0 0.0 -7.690942022927e-04 
-8.794968587203e-04 -1.839618802493e-04 0.0 
-1.839618802493e-04 5.894695197839e-03 0.0 
0.0 0.0 -8.745659502648e-04 
-1.233301431487e-03 8.160038213140e-05 0.0 
8.160038213140e-05 8.358065301524e-03 0.0 
0.0 0.0 -1.217119345309e-03 
-1.141574387304e-03 -2.166019370135e-04 0.0 
-2.166019370135e-04 7.685657586840e-03 0.0 
0.0 0.0 -1.140944809983e-03 
-1.081193771009e-03 -2.086711321349e-04 0.0 
-2.086711321349e-04 7.235399972245e-03 0.0 
0.0 0.0 -1.076426999079e-03 
-7.306608964195e-04 1.032073657561e-05 0.0 
1.032073657561e-05 4.566565227243e-03 0.0 
0.0 0.0 -7.312123441678e-04 
-9.778650762194e-04 -2.118658920496e-04 0.0 
-2.118658920496e-04 6.529297964408e-03 0.0 
0.0 0.0 -9.763781674015e-04 
-1.237478436388e-03 1.224174650821e-04 0.0 
1.224174650821e-04 8.159420566097e-03 0.0 
0.0 0.0 -1.231404929774e-03 
-4.267545194733e-04 1.185171473709e-04 0.0 
1.185171473709e-04 2.513528635352e-03 0.0 
0.0 0.0 -4.167967844001e-04 
-9.921663346510e-05 -4.441075622388e-05 0.0 
-4.441075622388e-05 6.032903446548e-04 0.0 
0.0 0.0 -1.015157820784e-04 
-1.196520802042e-03 -1.451432414407e-04 0.0 
-1.451432414407e-04 7.939655555732e-03 0.0 
0.0 0.0 -1.185975225609e-03 
-1.126502929027e-03 1.777561321906e-04 0.0 
1.777561321906e-04 7.477268686063e-03 0.0 
0.0 0.0 -1.123538223191e-03 
-2.078344596567e-04 -1.080252995939e-04 0.0 
-1.080252995939e-04 1.116725601039e-03 0.0 
0.0 0.0 -2.307047010092e-04 
-9.934730169900e-04 -1.599306293238e-04 0.0 
-1.599306293238e-04 6.730831912440e-03 0.0 
0.0 0.0 -9.893338170986e-04 
-1.294485487258e-03 -4.211486433477e-05 0.0 
-4.211486433477e-05 8.454062998903e-03 0.0 
0.0 0.0 -1.282739585886e-03 
-1.188427124013e-03 1.207612322075e-04 0.0 
1.207612322075e-04 7.845258460139e-03 0.0 
0.0 0.0 -1.182073443778e-03 
-1.229516741237e-03 -2.922411445837e-05 0.0 
-2.922411445837e-05 8.351941012254e-03 0.0 
0.0 0.0 -1.215129606110e-03 
-9.509005340637e-04 -2.110936823322e-04 0.0 
-2.110936823322e-04 6.286467037558e-03 0.0 
0.0 0.0 -9.537126495859e-04 
-9.113657589531e-05 5.031862656042e-05 0.0 
5.031862656042e-05 3.206408784026e-04 0.0 
0.0 0.0 -9.835898678883e-05 
-3.211470424961e-04 1.012653271347e-04 0.0 
1.012653271347e-04 1.877306534774e-03 0.0 
0.0 0.0 -3.212443691966e-04 
-3.868345573263e-04 -2.158079183948e-04 0.0 
-2.158079183948e-04 2.373525116556e-03 0.0 
0.0 0.0 -3.834349432650e-04 
-8.152074782469e-04 3.282099269049e-05 0.0 
3.282099269049e-05 5.366100763401e-03 0.0 
0.0 0.0 -8.471429939415e-04 
-9.776446367943e-04 2.161934057613e-04 0.0 
2.161934057613e-04 6.478555405996e-03 0.0 
0.0 0.0 -9.781602908260e-04 
-1.243353399719e-03 -1.638877946274e-04 0.0 
-1.638877946274e-04 8.293874922919e-03 0.0 
0.0 0.0 -1.236541257690e-03 
-1.282980388071e-03 6.834535406594e-05 0.0 
6.834535406594e-05 8.446722746771e-03 0.0 
0.0 0.0 -1.282325209426e-03 
-1.534406041715e-04 -3.090119355691e-05 0.0 
-3.090119355691e-05 9.940803017302e-04 0.0 
0.0 0.0 -1.581060378624e-04 
-1.515974677088e-04 5.347591743218e-05 0.0 
5.347591743218e-05 9.499659581657e-04 0.0 
0.0 0.0 -1.538280640939e-04 
-2.429997348883e-04 2.036444813406e-04 0.0 
2.036444813406e-04 1.479432396382e-03 0.0 
0.0 0.0 -2.585189829319e-04 
-1.003671688667e-03 2.798952750373e-04 0.0 
2.798952750373e-04 6.711627995117e-03 0.0 
0.0 0.0 -1.019242131223e-03 
-5.082641639815e-04 -1.820796698733e-04 0.0 
-1.820796698733e-04 3.225266612081e-03 0.0 
0.0 0.0 -4.953283059016e-04 
-1.242349672414e-03 -1.508059351583e-04 0.0 
-1.508059351583e-04 8.332022443394e-03 0.0 
0.0 0.0 -1.241298427557e-03 
-2.469827383887e-04 -1.734013788770e-04 0.0 
-1.734013788770e-04 1.596418989747e-03 0.0 
0.0 0.0 -2.623907620756e-04 
-1.225402262687e-03 9.684378834699e-05 0.0 
9.684378834699e-05 8.090992196229e-03 0.0 
0.0 0.0 -1.221152601860e-03 
-8.136377301276e-04 1.789287431363e-04 0.0 
1.789287431363e-04 5.446005510680e-03 0.0 
0.0 0.0 -8.343732341398e-04 
-1.267827958096e-03 1.379445383930e-06 0.0 
1.379445383930e-06 8.495733417342e-03 0.0 
0.0 0.0 -1.286815605725e-03 
-1.109817670536e-03 -2.343370330106e-04 0.0 
-2.343370330106e-04 7.482609533299e-03 0.0 
0.0 0.0 -1.111121968474e-03 
-8.202418952196e-04 -8.830664857131e-05 0.0 
-8.830664857131e-05 5.379056120884e-03 0.0 
0.0 0.0 -8.465141837044e-04 
-1.270879538861e-03 -4.852122928062e-05 0.0 
-4.852122928062e-05 8.726187780208e-03 0.0 
0.0 0.0 -1.269142588751e-03 
-1.282679052200e-03 7.789633126418e-05 0.0 
7.789633126418e-05 8.731686959293e-03 0.0 
0.0 0.0 -1.272727265576e-03 
-1.257303152988e-03 6.224102812160e-05 0.0 
6.224102812160e-05 8.713074082016e-03 0.0 
0.0 0.0 -1.271339345674e-03 
-1.734083018693e-04 1.988310073065e-04 0.0 
1.988310073065e-04 9.960919397328e-04 0.0 
0.0 0.0 -1.914719991171e-04 
-1.218228496203e-03 1.745230460975e-04 0.0 
1.745230460975e-04 8.126336924162e-03 0.0 
0.0 0.0 -1.218309553141e-03 
-1.287690608828e-03 2.935127504918e-05 0.0 
2.935127504918e-05 8.450884291377e-03 0.0 
0.0 0.0 -1.286645293131e-03 
-1.215292120313e-03 -1.048319889731e-04 0.0 
-1.048319889731e-04 8.264175100215e-03 0.0 
0.0 0.0 -1.211735819529e-03 
-1.131460186021e-03 2.249929147144e-04 0.0 
2.249929147144e-04 7.604741910755e-03 0.0 
0.0 0.0 -1.143254064081e-03 
-1.342665167303e-03 2.462626238341e-05 0.0 
2.462626238341e-05 8.842656329326e-03 0.0 
0.0 0.0 -1.342665167303e-03 
-1.082512435834e-03 2.096972143521e-04 0.0 
2.096972143521e-04 7.169850347795e-03 0.0 
0.0 0.0 -1.079065255302e-03 
0.0 0.0 0.0 
0.0 0.0 0.0 
0.0 0.0 0.0 
-2.601109826526e-04 -2.071691114658e-04 0.0 
-2.071691114658e-04 1.415839820494e-03 0.0 
0.0 0.0 -2.423809483696e-04 
-1.192508312149e-03 -1.779210084662e-04 0.0 
-1.779210084662e-04 7.961128754995e-03 0.0 
0.0 0.0 -1.176936364471e-03 
-8.685626322098e-04 1.582275665785e-04 0.0 
1.582275665785e-04 5.835782021141e-03 0.0 
0.0 0.0 -8.884613587993e-04 
-1.209889234857e-03 -1.955325308149e-04 0.0 
-1.955325308149e-04 8.188769710118e-03 0.0 
0.0 0.0 -1.221994126432e-03 
-1.170503729369e-03 -2.209983450853e-04 0.0 
-2.209983450853e-04 7.908922597115e-03 0.0 
0.0 0.0 -1.177009544428e-03 
-1.281372639421e-03 -4.882657488475e-05 0.0 
-4.882657488475e-05 8.503605837596e-03 0.0 
0.0 0.0 -1.292249833993e-03 
-1.060591200894e-03 2.356899093670e-04 0.0 
2.356899093670e-04 7.243032913762e-03 0.0 
0.0 0.0 -1.085521458831e-03 
-1.295424128128e-03 -1.344853644109e-05 0.0 
-1.344853644109e-05 8.497735658802e-03 0.0 
0.0 0.0 -1.288973456333e-03 
-1.240273266268e-03 -1.643959908807e-04 0.0 
-1.643959908807e-04 8.288290248441e-03 0.0 
0.0 0.0 -1.233322439334e-03 
-1.236328969747e-03 1.681015718690e-04 0.0 
1.681015718690e-04 8.249087621686e-03 0.0 
0.0 0.0 -1.235043566395e-03 
-5.200406812990e-04 -1.166757664344e-04 0.0 
-1.166757664344e-04 3.385215487565e-03 0.0 
0.0 0.0 -5.104964012366e-04 
-1.293388642315e-03 -2.007549829059e-05 0.0 
-2.007549829059e-05 9.114239519402e-03 0.0 
0.0 0.0 -1.325641941534e-03 
-7.485652657637e-04 1.433772634922e-05 0.0 
1.433772634922e-05 5.220751556451e-03 0.0 
0.0 0.0 -7.662153309038e-04 
-1.203353616892e-03 -1.846454248332e-04 0.0 
-1.846454248332e-04 8.194731648824e-03 0.0 
0.0 0.0 -1.217406395243e-03 
-1.473848137131e-04 -7.608252406775e-05 0.0 
-7.608252406775e-05 7.058205605385e-04 0.0 
0.0 0.0 -1.761976461317e-04 
-1.139762521842e-03 -1.242981094265e-04 0.0 
-1.242981094265e-04 7.914367669760e-03 0.0 
0.0 0.0 -1.163202487293e-03 
-9.847139031094e-04 -2.927819349541e-05 0.0 
-2.927819349541e-05 6.802999958382e-03 0.0 
0.0 0.0 -9.926133712568e-04 
-1.690893902524e-04 -1.078602895255e-04 0.0 
-1.078602895255e-04 9.402080020995e-04 0.0 
0.0 0.0 -1.628620303624e-04 
-2.985531882031e-04 -2.240216763464e-04 0.0 
-2.240216763464e-04 1.642242196626e-03 0.0 
0.0 0.0 -2.736924314970e-04 
-1.111715101681e-03 2.179506947961e-04 0.0 
2.179506947961e-04 7.377812155317e-03 0.0 
0.0 0.0 -1.107581195644e-03 
-1.292896746142e-03 -1.945315972070e-05 0.0 
-1.945315972070e-05 8.475231004044e-03 0.0 
0.0 0.0 -1.285368862661e-03 
-1.232559661219e-03 -1.674576161592e-04 0.0 
-1.674576161592e-04 8.301292046622e-03 0.0 
0.0 0.0 -1.223917301752e-03 
-1.254461742942e-03 2.341900515224e-04 0.0 
2.341900515224e-04 8.559507473306e-03 0.0 
0.0 0.0 -1.264779455601e-03 
-8.799678260909e-04 2.461510225767e-04 0.0 
2.461510225767e-04 5.779390736261e-03 0.0 
0.0 0.0 -8.807565902733e-04 
-9.459318500255e-05 -9.224025008795e-06 0.0 
-9.224025008795e-06 5.593643268762e-04 0.0 
0.0 0.0 -1.022500568216e-04 
-1.184228338263e-04 1.932393774192e-04 0.0 
1.932393774192e-04 8.360742900508e-04 0.0 
0.0 0.0 -1.527632439532e-04 
-1.485774023436e-04 2.057472114589e-04 0.0 
2.057472114589e-04 4.943058849458e-04 0.0 
0.0 0.0 -1.262112556552e-04 
-1.889957332613e-04 -1.720729644019e-04 0.0 
-1.720729644019e-04 1.198989706623e-03 0.0 
0.0 0.0 -2.080055930776e-04 
-2.412796962869e-05 1.151125546851e-04 0.0 
1.151125546851e-04 1.259903231300e-04 0.0 
0.0 0.0 -4.365529435769e-05 
-6.564338874857e-04 1.298407551401e-04 0.0 
1.298407551401e-04 4.516305724261e-03 0.0 
0.0 0.0 -6.753304527203e-04 
-1.206082523732e-03 1.933788045723e-04 0.0 
1.933788045723e-04 8.180269090487e-03 0.0 
0.0 0.0 -1.222305993939e-03 
-1.222663318362e-03 1.753368055928e-04 0.0 
1.753368055928e-04 8.227435580213e-03 0.0 
0.0 0.0 -1.222833113937e-03 
-8.669258191564e-04 -1.817944922657e-04 0.0 
-1.817944922657e-04 5.844176131481e-03 0.0 
0.0 0.0 -8.826313165011e-04 
-6.040048573085e-04 -2.738267400018e-04 0.0 
-2.738267400018e-04 3.891940944486e-03 0.0 
0.0 0.0 -5.988529843847e-04 
-1.222353962553e-03 -1.610597655754e-04 0.0 
-1.610597655754e-04 8.260198203253e-03 0.0 
0.0 0.0 -1.221067908166e-03 
-1.203746913663e-03 2.278206710252e-04 0.0 
2.278206710252e-04 8.189793790316e-03 0.0 
0.0 0.0 -1.208702654310e-03 
-1.279025858978e-03 8.766018994025e-05 0.0 
8.766018994025e-05 8.741593274881e-03 0.0 
0.0 0.0 -1.272252409145e-03 
-1.242705220595e-03 -3.696381206596e-05 0.0 
-3.696381206596e-05 8.148871227430e-03 0.0 
0.0 0.0 -1.237422270938e-03 
-1.174009678725e-03 1.988566962408e-04 0.0 
1.988566962408e-04 7.816359446438e-03 0.0 
0.0 0.0 -1.171232062679e-03 
-1.672054198290e-04 9.231173188905e-05 0.0 
9.231173188905e-05 7.047171557344e-04 0.0 
0.0 0.0 -1.733042685746e-04 
-1.128922232108e-04 -1.541536460293e-04 0.0 
-1.541536460293e-04 8.181726866748e-04 0.0 
0.0 0.0 -1.441637530793e-04 
-1.232867888531e-03 -1.583409372844e-04 0.0 
-1.583409372844e-04 8.274546276781e-03 0.0 
0.0 0.0 -1.223662873675e-03 
-1.809471586289e-04 2.732513028346e-05 0.0 
2.732513028346e-05 7.150332979249e-04 0.0 
0.0 0.0 -1.761523314621e-04 
-2.090612244599e-04 2.679772699564e-04 0.0 
2.679772699564e-04 1.034188635189e-03 0.0 
0.0 0.0 -1.933333333332e-04 
-1.375589269253e-04 1.895212040581e-04 0.0 
1.895212040581e-04 6.272580356086e-04 0.0 
0.0 0.0 -1.476920362276e-04 
-1.616726848356e-04 -1.838984361801e-04 0.0 
-1.838984361801e-04 7.928606863592e-04 0.0 
0.0 0.0 -1.580296812506e-04 
-1.300434401275e-03 -1.024873491577e-05 0.0 
-1.024873491577e-05 8.484073046421e-03 0.0 
0.0 0.0 -1.288571152055e-03 
-1.296196106557e-03 -7.581226292431e-05 0.0 
-7.581226292431e-05 8.500775829958e-03 0.0 
0.0 0.0 -1.290113636706e-03 
-1.257797356609e-03 1.887508465157e-04 0.0 
1.887508465157e-04 8.298916238051e-03 0.0 
0.0 0.0 -1.236907757659e-03 
-1.306315150684e-03 9.008107202648e-08 0.0 
9.008107202648e-08 8.523760771155e-03 0.0 
0.0 0.0 -1.292605224168e-03 
-1.191514572737e-03 -1.523248627148e-04 0.0 
-1.523248627148e-04 7.914354314681e-03 0.0 
0.0 0.0 -1.176879138244e-03 
-9.009707231897e-04 2.647575106000e-04 0.0 
2.647575106000e-04 6.062013665177e-03 0.0 
0.0 0.0 -9.170130443517e-04 
-1.345069444888e-03 -1.224359494152e-05 0.0 
-1.224359494152e-05 8.872525889838e-03 0.0 
0.0 0.0 -1.345069444888e-03 
-3.168516228751e-04 -1.142391801259e-04 0.0 
-1.142391801259e-04 2.071683762697e-03 0.0 
0.0 0.0 -3.330755757467e-04 
-6.832796589934e-04 2.794415003490e-06 0.0 
2.794415003490e-06 4.812526626932e-03 0.0 
0.0 0.0 -7.083073883397e-04 
-1.983733277546e-04 6.070841311573e-05 0.0 
6.070841311573e-05 1.303830959687e-03 0.0 
0.0 0.0 -2.086331215474e-04 
-8.213992574580e-05 4.728700015113e-05 0.0 
4.728700015113e-05 2.774119614063e-04 0.0 
0.0 0.0 -8.368801528307e-05 
-1.296331570259e-03 3.985530997243e-05 0.0 
3.985530997243e-05 9.108859965209e-03 0.0 
0.0 0.0 -1.323850096553e-03 
-7.636750152913e-04 -5.943479672408e-05 0.0 
-5.943479672408e-05 5.297273347084e-03 0.0 
0.0 0.0 -7.731261162940e-04 
-1.898896061389e-04 2.668881093002e-05 0.0 
2.668881093002e-05 1.324161255717e-03 0.0 
0.0 0.0 -2.115341463249e-04 
-6.766397334689e-04 2.335959289237e-04 0.0 
2.335959289237e-04 4.262192913851e-03 0.0 
0.0 0.0 -6.570498647039e-04 
-1.270388897102e-03 1.791394562197e-05 0.0 
1.791394562197e-05 8.744228481245e-03 0.0 
0.0 0.0 -1.276804206569e-03 
-1.238351285998e-03 -1.647535430713e-04 0.0 
-1.647535430713e-04 8.287386498838e-03 0.0 
0.0 0.0 -1.228616961883e-03 
-1.299245503170e-03 -6.943481147044e-06 0.0 
-6.943481147044e-06 8.501206471558e-03 0.0 
0.0 0.0 -1.289666537713e-03 
-4.674755872492e-04 -1.441717405802e-04 0.0 
-1.441717405802e-04 3.063014272079e-03 0.0 
0.0 0.0 -4.695399720401e-04 
-1.457689473942e-04 -1.575597281072e-04 0.0 
-1.575597281072e-04 7.498700715420e-04 0.0 
0.0 0.0 -1.553221962317e-04 
-1.285913149297e-03 -1.165123631474e-04 0.0 
-1.165123631474e-04 8.730182768681e-03 0.0 
0.0 0.0 -1.273144391159e-03 
-1.298815958390e-03 2.309086979375e-05 0.0 
2.309086979375e-05 9.107151826923e-03 0.0 
0.0 0.0 -1.325353038101e-03 
-1.331981550421e-03 -1.771381069916e-05 0.0 
-1.771381069916e-05 9.126640523195e-03 0.0 
0.0 0.0 -1.323783523096e-03 
-7.660500434482e-04 1.313542510446e-04 0.0 
1.313542510446e-04 5.035539676325e-03 0.0 
0.0 0.0 -7.673431308700e-04 
-1.235780327313e-03 -4.526587613015e-06 0.0 
-4.526587613015e-06 8.115023081303e-03 0.0 
0.0 0.0 -1.231867668451e-03 
-1.953177882174e-04 -9.491085164936e-05 0.0 
-9.491085164936e-05 1.122964739939e-03 0.0 
0.0 0.0 -2.324200178898e-04 
-1.257584227981e-03 1.660686322992e-04 0.0 
1.660686322992e-04 8.340961353616e-03 0.0 
0.0 0.0 -1.241575510934e-03 
-8.170589745739e-05 -1.080295024412e-05 0.0 
-1.080295024412e-05 2.725451190137e-04 0.0 
0.0 0.0 -8.178823780987e-05 
-1.306295822847e-03 -1.062422533951e-05 0.0 
-1.062422533951e-05 8.506048519693e-03 0.0 
0.0 0.0 -1.290713494763e-03 
-1.281136683791e-03 1.115018912951e-04 0.0 
1.115018912951e-04 8.702368548138e-03 0.0 
0.0 0.0 -1.268585396830e-03 
-8.090064620293e-05 -6.463780865650e-05 0.0 
-6.463780865650e-05 2.764343947342e-04 0.0 
0.0 0.0 -8.380017794198e-05 
-1.195471399734e-03 -1.402863971347e-04 0.0 
-1.402863971347e-04 7.949772117529e-03 0.0 
0.0 0.0 -1.178018281593e-03 
-1.028233004996e-03 -1.859683667160e-04 0.0 
-1.859683667160e-04 6.977936374389e-03 0.0 
0.0 0.0 -1.053859681778e-03 
-1.289487723471e-03 -3.059440868738e-05 0.0 
-3.059440868738e-05 8.509289695588e-03 0.0 
0.0 0.0 -1.289687241943e-03 
-1.346242744377e-03 -1.047219123710e-05 0.0 
-1.047219123710e-05 8.896960402449e-03 0.0 
0.0 0.0 -1.346242744377e-03 
-9.624911099008e-04 -2.997622866496e-04 0.0 
-2.997622866496e-04 6.376553401582e-03 0.0 
0.0 0.0 -9.627310317561e-04 
-1.292971171235e-03 1.345101664025e-05 0.0 
1.345101664025e-05 8.530939079912e-03 0.0 
0.0 0.0 -1.292510612804e-03 
-1.246115197789e-03 -1.533948492975e-04 0.0 
-1.533948492975e-04 8.325319025632e-03 0.0 
0.0 0.0 -1.236507170568e-03 
-1.007540401079e-03 8.825741490426e-06 0.0 
8.825741490426e-06 6.546914065101e-03 0.0 
0.0 0.0 -1.009625451247e-03 
-1.239682124839e-03 -1.433667225738e-05 0.0 
-1.433667225738e-05 8.247508066060e-03 0.0 
0.0 0.0 -1.247605899893e-03 
-5.439659078653e-04 -1.293203549736e-04 0.0 
-1.293203549736e-04 3.573225901759e-03 0.0 
0.0 0.0 -5.668522599723e-04 
-7.422257193806e-04 -2.384409417979e-05 0.0 
-2.384409417979e-05 4.553525172640e-03 0.0 
0.0 0.0 -7.287847301676e-04 
-1.250463763405e-03 1.444458806810e-04 0.0 
1.444458806810e-04 8.323970461278e-03 0.0 
0.0 0.0 -1.239219007812e-03 
-1.277932458032e-03 1.160268164509e-04 0.0 
1.160268164509e-04 8.651299276670e-03 0.0 
0.0 0.0 -1.286506427510e-03 
0.0 0.0 0.0 
0.0 0.0 0.0 
0.0 0.0 0.0 
-7.391696919876e-04 5.460045200464e-05 0.0 
5.460045200464e-05 4.572310123870e-03 0.0 
0.0 0.0 -7.284590636140e-04 
-1.282539678950e-03 -1.213229753820e-04 0.0 
-1.213229753820e-04 8.668193960288e-03 0.0 
0.0 0.0 -1.288082484959e-03 
-2.668000831652e-04 1.337975711292e-04 0.0 
1.337975711292e-04 1.552550494018e-03 0.0 
0.0 0.0 -2.765646858065e-04 
-1.244314668154e-03 3.253635918241e-05 0.0 
3.253635918241e-05 8.351662046828e-03 0.0 
0.0 0.0 -1.213252366005e-03 
-1.212806318798e-03 -1.378965673920e-04 0.0 
-1.378965673920e-04 8.296055804055e-03 0.0 
0.0 0.0 -1.225943235494e-03 
-1.276740815873e-03 -1.548809764644e-04 0.0 
-1.548809764644e-04 8.705204137735e-03 0.0 
0.0 0.0 -1.269037835114e-03 
-2.467774251027e-04 1.357300176722e-04 0.0 
1.357300176722e-04 1.515114324046e-03 0.0 
0.0 0.0 -2.647987373252e-04 
-1.846190942978e-04 5.164886539677e-05 0.0 
5.164886539677e-05 1.204409405256e-03 0.0 
0.0 0.0 -1.906575996298e-04 
-8.286327452832e-04 3.382951551478e-04 0.0 
3.382951551478e-04 5.239779904281e-03 0.0 
0.0 0.0 -7.939471195916e-04 
-1.139651880695e-03 8.042350541591e-05 0.0 
8.042350541591e-05 7.547907450212e-03 0.0 
0.0 0.0 -1.120841203304e-03 
6.762182202460e-06 4.922521689337e-06 0.0 
4.922521689337e-06 1.951722452606e-04 0.0 
0.0 0.0 -4.162563418682e-05 
-1.297631582513e-03 -2.970012333429e-05 0.0 
-2.970012333429e-05 8.538118962210e-03 0.0 
0.0 0.0 -1.292233508669e-03 
-9.496420787081e-04 3.842938930090e-05 0.0 
3.842938930090e-05 6.134769422349e-03 0.0 
0.0 0.0 -9.501928138396e-04 
-2.319252204202e-04 -1.666332425871e-04 0.0 
-1.666332425871e-04 1.531261602253e-03 0.0 
0.0 0.0 -2.601894661948e-04 
-9.182086126089e-04 6.576575429171e-05 0.0 
6.576575429171e-05 5.823601520570e-03 0.0 
0.0 0.0 -9.030544305944e-04 
-1.281338578084e-03 -1.215158440347e-04 0.0 
-1.215158440347e-04 8.719272788120e-03 0.0 
0.0 0.0 -1.271643562581e-03 
-8.361599263990e-04 -2.906502343770e-04 0.0 
-2.906502343770e-04 5.524370676589e-03 0.0 
0.0 0.0 -8.272804529250e-04 
-9.020963282830e-05 -1.875396024300e-04 0.0 
-1.875396024300e-04 3.251699178446e-04 0.0 
0.0 0.0 -8.776479312233e-05 
-5.428499226707e-04 1.403699556570e-04 0.0 
1.403699556570e-04 3.200704680556e-03 0.0 
0.0 0.0 -5.209635072927e-04 
-7.264103312116e-04 1.066181262773e-04 0.0 
1.066181262773e-04 4.783605203211e-03 0.0 
0.0 0.0 -7.319997505002e-04 
-8.379507721355e-04 3.506890823091e-04 0.0 
3.506890823091e-04 5.706153283525e-03 0.0 
0.0 0.0 -8.599999999992e-04 
-1.240777117315e-03 -1.439647034317e-04 0.0 
-1.439647034317e-04 8.329527072644e-03 0.0 
0.0 0.0 -1.232780192057e-03 
-7.376665261260e-04 -1.727241022976e-04 0.0 
-1.727241022976e-04 4.617911229220e-03 0.0 
0.0 0.0 -7.175509632692e-04 
-7.419227856638e-04 8.706574175028e-05 0.0 
8.706574175028e-05 4.905660942002e-03 0.0 
0.0 0.0 -7.596628988333e-04 
-1.725607618193e-04 1.274500514103e-04 0.0 
1.274500514103e-04 7.075820556251e-04 0.0 
0.0 0.0 -1.551230728613e-04 
-1.262496529076e-03 1.402132573887e-04 0.0 
1.402132573887e-04 8.306889500876e-03 0.0 
0.0 0.0 -1.240629869904e-03 
-1.209173557273e-03 1.621322078836e-04 0.0 
1.621322078836e-04 7.950506271258e-03 0.0 
0.0 0.0 -1.186362110037e-03 
-2.227791697187e-04 8.637930858019e-05 0.0 
8.637930858019e-05 1.298316331418e-03 0.0 
0.0 0.0 -2.411692657676e-04 
-1.261193436875e-03 -8.326695288074e-05 0.0 
-8.326695288074e-05 8.552285249105e-03 0.0 
0.0 0.0 -1.290349483557e-03 
-1.293807969811e-03 1.507292729990e-04 0.0 
1.507292729990e-04 8.596145003785e-03 0.0 
0.0 0.0 -1.290356026000e-03 
-7.679899519872e-04 -1.532356305283e-04 0.0 
-1.532356305283e-04 5.157074227234e-03 0.0 
0.0 0.0 -7.639788432047e-04 
-9.396515753231e-04 3.091234051292e-05 0.0 
3.091234051292e-05 6.333492038285e-03 0.0 
0.0 0.0 -9.358343396975e-04 
-7.048143922741e-04 1.638625948524e-04 0.0 
1.638625948524e-04 4.692848505541e-03 0.0 
0.0 0.0 -7.108516105536e-04 
-7.079275106751e-04 -1.102323501340e-04 0.0 
-1.102323501340e-04 4.802970885948e-03 0.0 
0.0 0.0 -7.343037059241e-04 
-7.780838486789e-04 -3.476295080762e-05 0.0 
-3.476295080762e-05 5.090202749114e-03 0.0 
0.0 0.0 -7.498489858827e-04 
-1.195445771267e-03 1.533301423154e-04 0.0 
1.533301423154e-04 7.905914704818e-03 0.0 
0.0 0.0 -1.180929064624e-03 
-2.101723265820e-04 1.264806835632e-04 0.0 
1.264806835632e-04 1.084941023669e-03 0.0 
0.0 0.0 -2.274637643159e-04 
-1.230210229403e-03 -1.391362873496e-04 0.0 
-1.391362873496e-04 8.342547987840e-03 0.0 
0.0 0.0 -1.217816617926e-03 
-8.387293036436e-04 7.281979356209e-05 0.0 
7.281979356209e-05 5.326094164637e-03 0.0 
0.0 0.0 -8.376728236383e-04 
-1.277193560845e-03 -1.460979146763e-04 0.0 
-1.460979146763e-04 8.720485292524e-03 0.0 
0.0 0.0 -1.272153791098e-03 
-1.202298967755e-03 -1.320050113914e-04 0.0 
-1.320050113914e-04 7.883588282290e-03 0.0 
0.0 0.0 -1.181257232468e-03 
-8.795673226242e-04 -5.945622150851e-05 0.0 
-5.945622150851e-05 6.031279173310e-03 0.0 
0.0 0.0 -8.902468719969e-04 
-1.211224544084e-03 1.194316264715e-04 0.0 
1.194316264715e-04 8.008237221313e-03 0.0 
0.0 0.0 -1.201032862555e-03 
-1.250364770317e-03 1.261810502706e-04 0.0 
1.261810502706e-04 8.225945087577e-03 0.0 
0.0 0.0 -1.236767197193e-03 
-1.292703020779e-03 -2.277677435029e-05 0.0 
-2.277677435029e-05 8.758650210356e-03 0.0 
0.0 0.0 -1.270271405117e-03 
-9.288790837527e-05 4.486310937793e-05 0.0 
4.486310937793e-05 3.125136257930e-04 0.0 
0.0 0.0 -9.412530746476e-05 
-1.213293100967e-03 -1.365137297491e-04 0.0 
-1.365137297491e-04 8.055302576551e-03 0.0 
0.0 0.0 -1.198686027802e-03 
-1.233489147260e-03 1.844031552690e-04 0.0 
1.844031552690e-04 8.360738709544e-03 0.0 
0.0 0.0 -1.227078865044e-03 
-1.296260318671e-04 -1.418501242847e-04 0.0 
-1.418501242847e-04 8.665050242929e-04 0.0 
0.0 0.0 -1.488313462956e-04 
-6.781230104505e-04 -1.171397059556e-04 0.0 
-1.171397059556e-04 4.366860208538e-03 0.0 
0.0 0.0 -6.841365946973e-04 
-7.630078233159e-05 -6.102099342087e-05 0.0 
-6.102099342087e-05 5.288528667040e-04 0.0 
0.0 0.0 -9.692352125104e-05 
-1.239413171189e-03 -1.038112219682e-04 0.0 
-1.038112219682e-04 8.427166424518e-03 0.0 
0.0 0.0 -1.230789928679e-03 
-3.854470384108e-04 -7.318895876573e-05 0.0 
-7.318895876573e-05 2.462268997968e-03 0.0 
0.0 0.0 -3.822222222222e-04 
-4.067260869842e-04 5.256727935290e-05 0.0 
5.256727935290e-05 2.270583520964e-03 0.0 
0.0 0.0 -4.044444444444e-04 
-3.835104184538e-04 -6.001370987165e-06 0.0 
-6.001370987165e-06 2.584239217162e-03 0.0 
0.0 0.0 -3.822222222222e-04 
-4.054239343453e-04 -3.862668403001e-07 0.0 
-3.862668403001e-07 2.278107254442e-03 0.0 
0.0 0.0 -4.044444444444e-04 
-3.827370056994e-04 -2.051108453458e-06 0.0 
-2.051108453458e-06 2.589324965641e-03 0.0 
0.0 0.0 -3.822222222222e-04 
-4.049473858376e-04 -2.025371124652e-06 0.0 
-2.025371124652e-06 2.278227481696e-03 0.0 
0.0 0.0 -4.044444444444e-04 
-3.829401273056e-04 -2.233475725688e-06 0.0 
-2.233475725688e-06 2.589358314293e-03 0.0 
0.0 0.0 -3.822222222222e-04 
-4.051320011441e-04 -1.755724159203e-06 0.0 
-1.755724159203e-06 2.278648915763e-03 0.0 
0.0 0.0 -4.044444444444e-04 
-3.835934586173e-04 -2.688169992058e-06 0.0 
-2.688169992058e-06 2.589869457183e-03 0.0 
0.0 0.0 -3.822222222222e-04 
-4.056600794981e-04 -1.893213932825e-06 0.0 
-1.893213932825e-06 2.279331955242e-03 0.0 
0.0 0.0 -4.044444444444e-04 
-3.843223718345e-04 -3.113994382666e-06 0.0 
-3.113994382666e-06 2.590617347037e-03 0.0 
0.0 0.0 -3.822222222222e-04 
-4.064892069025e-04 -2.474484856183e-06 0.0 
-2.474484856183e-06 2.280008615996e-03 0.0 
0.0 0.0 -4.044444444444e-04 
-3.849061480361e-04 -3.622932708982e-06 0.0 
-3.622932708982e-06 2.591309291953e-03 0.0 
0.0 0.0 -3.822222222222e-04 
-4.069579766942e-04 -3.400241771046e-06 0.0 
-3.400241771046e-06 2.280265863003e-03 0.0 
0.0 0.0 -4.044444444444e-04 
-3.851736627943e-04 -3.698729864734e-06 0.0 
-3.698729864734e-06 2.591442129951e-03 0.0 
0.0 0.0 -3.822222222222e-04 
-4.070595378396e-04 -3.530761062622e-06 0.0 
-3.530761062622e-06 2.280248515823e-03 0.0 
0.0 0.0 -4.044444444444e-04 
-3.853189254814e-04 -3.308712062649e-06 0.0 
-3.308712062649e-06 2.591334618481e-03 0.0 
0.0 0.0 -3.822222222222e-04 
-4.286221488410e-04 -1.538307185823e-04 0.0 
-1.538307185823e-04 2.567067218455e-03 0.0 
0.0 0.0 -3.914586414276e-04 
-4.072795051317e-04 -3.225304394731e-06 0.0 
-3.225304394731e-06 2.280128533043e-03 0.0 
0.0 0.0 -4.044444444444e-04 
-3.854134389772e-04 -2.594023862037e-06 0.0 
-2.594023862037e-06 2.591119240828e-03 0.0 
0.0 0.0 -3.822222222222e-04 
-3.464781260891e-04 1.734225857512e-05 0.0 
1.734225857512e-05 2.287295584395e-03 0.0 
0.0 0.0 -4.044444444444e-04 
-4.077885899199e-04 -2.677206166133e-06 0.0 
-2.677206166133e-06 2.280033372710e-03 0.0 
0.0 0.0 -4.044444444444e-04 
-3.854714744452e-04 -1.933077100150e-06 0.0 
-1.933077100150e-06 2.590961113598e-03 0.0 
0.0 0.0 -3.822222222222e-04 
-4.081084443904e-04 -2.360427714429e-06 0.0 
-2.360427714429e-06 2.279760717046e-03 0.0 
0.0 0.0 -4.044444444444e-04 
-3.853227145387e-04 -1.172340553323e-06 0.0 
-1.172340553323e-06 2.590523544031e-03 0.0 
0.0 0.0 -3.822222222222e-04 
-4.077855839762e-04 -1.880350380512e-06 0.0 
-1.880350380512e-06 2.279028361984e-03 0.0 
0.0 0.0 -4.044444444444e-04 
-3.286682295382e-04 3.864000460938e-05 0.0 
3.864000460938e-05 2.388312332005e-03 0.0 
0.0 0.0 -3.692364192054e-04 
-3.848513759082e-04 8.749343323248e-07 0.0 
8.749343323248e-07 2.589303941023e-03 0.0 
0.0 0.0 -3.822222222222e-04 
-4.064553215493e-04 2.023836917044e-06 0.0 
2.023836917044e-06 2.278692862703e-03 0.0 
0.0 0.0 -4.044444444444e-04 
-3.850937149665e-04 3.323013512367e-06 0.0 
3.323013512367e-06 2.589488289002e-03 0.0 
0.0 0.0 -3.822222222222e-04 
-4.083426802909e-04 3.954253352632e-06 0.0 
3.954253352632e-06 2.279268883058e-03 0.0 
0.0 0.0 -4.044444444444e-04 
-3.853813561049e-04 5.496575711278e-06 0.0 
5.496575711278e-06 2.589798472255e-03 0.0 
0.0 0.0 -3.822222222222e-04 
-4.073887531176e-04 8.644381902742e-06 0.0 
8.644381902742e-06 2.280648906445e-03 0.0 
0.0 0.0 -4.044444444444e-04 
-3.869194875434e-04 4.699519663536e-06 0.0 
4.699519663536e-06 2.593344221483e-03 0.0 
0.0 0.0 -3.822222222222e-04 
-4.136900432831e-04 3.059611688978e-07 0.0 
3.059611688978e-07 2.281270984406e-03 0.0 
0.0 0.0 -4.044444444444e-04 
-3.852048853429e-04 5.647321068923e-06 0.0 
5.647321068923e-06 2.589552732633e-03 0.0 
0.0 0.0 -3.822222222222e-04 
-4.027468751107e-04 1.481940469573e-05 0.0 
1.481940469573e-05 2.282290554162e-03 0.0 
0.0 0.0 -4.044444444444e-04 
-3.140135372488e-04 2.873744366980e-05 0.0 
2.873744366980e-05 2.457976087611e-03 0.0 
0.0 0.0 -4.025697525387e-04 
-4.196628018255e-04 -1.837442126529e-05 0.0 
-1.837442126529e-05 2.280568181227e-03 0.0 
0.0 0.0 -4.044444444444e-04 
-3.889053512739e-04 9.814032543957e-07 0.0 
9.814032543957e-07 2.600099780335e-03 0.0 
0.0 0.0 -3.822222222222e-04 
-3.673242193347e-04 4.652408802632e-05 0.0 
4.652408802632e-05 2.277402359379e-03 0.0 
0.0 0.0 -4.044444444444e-04 
-3.799974619353e-04 7.920842717921e-06 0.0 
7.920842717921e-06 2.577842323435e-03 0.0 
0.0 0.0 -3.822222222222e-04 
-3.954411054939e-04 8.433133596591e-06 0.0 
8.433133596591e-06 2.614590654529e-03 0.0 
0.0 0.0 -3.822222222222e-04 
-2.749511289216e-04 8.331946175198e-06 0.0 
8.331946175198e-06 2.168007004057e-03 0.0 
0.0 0.0 -3.803475303165e-04 
-4.499391521729e-04 -3.691567064575e-04 0.0 
-3.691567064575e-04 2.484470054093e-03 0.0 
0.0 0.0 -3.933333333333e-04 
-3.454868480400e-04 3.563309951917e-04 0.0 
3.563309951917e-04 2.297351916339e-03 0.0 
0.0 0.0 -3.933333333333e-04 
-4.195054663633e-04 -3.985404005849e-05 0.0 
-3.985404005849e-05 2.445111450393e-03 0.0 
0.0 0.0 -4.155555555556e-04 
-3.747695028258e-04 3.813450272878e-05 0.0 
3.813450272878e-05 2.346473725249e-03 0.0 
0.0 0.0 -3.711111111111e-04 
-3.224019092818e-04 7.776420168040e-06 0.0 
7.776420168040e-06 2.309384780840e-03 0.0 
0.0 0.0 -3.711111111111e-04 
-4.743042659077e-04 -7.660020380402e-05 0.0 
-7.660020380402e-05 2.865853814990e-03 0.0 
0.0 0.0 -4.711111111111e-04 
-4.511705314287e-04 5.193280790000e-05 0.0 
5.193280790000e-05 3.054035925169e-03 0.0 
0.0 0.0 -4.488888888889e-04 
-4.724633686242e-04 -9.447249748580e-06 0.0 
-9.447249748580e-06 2.739853487715e-03 0.0 
0.0 0.0 -4.711111111111e-04 
-4.498683787897e-04 -1.564459074611e-06 0.0 
-1.564459074611e-06 3.043354068164e-03 0.0 
0.0 0.0 -4.488888888889e-04 
-4.709847188569e-04 -3.574354858548e-06 0.0 
-3.574354858548e-06 2.732085994282e-03 0.0 
0.0 0.0 -4.711111111111e-04 
-4.493918302821e-04 -2.534727311539e-06 0.0 
-2.534727311539e-06 3.042771200855e-03 0.0 
0.0 0.0 -4.488888888889e-04 
-4.712289592024e-04 -1.812807881693e-06 0.0 
-1.812807881693e-06 2.731728430754e-03 0.0 
0.0 0.0 -4.711111111111e-04 
-4.495764455886e-04 -1.773818124670e-06 0.0 
-1.773818124670e-06 3.043241608981e-03 0.0 
0.0 0.0 -4.488888888889e-04 
-4.714369542363e-04 -1.226754823058e-06 0.0 
-1.226754823058e-06 2.732193229008e-03 0.0 
0.0 0.0 -4.711111111111e-04 
-4.501045239425e-04 -1.319389086982e-06 0.0 
-1.319389086982e-06 3.044025953912e-03 0.0 
0.0 0.0 -4.488888888889e-04 
-4.721709199479e-04 -7.219039080997e-07 0.0 
-7.219039080997e-07 2.733000959488e-03 0.0 
0.0 0.0 -4.711111111111e-04 
-4.509336513469e-04 -1.227029478674e-06 0.0 
-1.227029478674e-06 3.045199183253e-03 0.0 
0.0 0.0 -4.488888888889e-04 
-4.733112105119e-04 -2.101747565311e-06 0.0 
-2.101747565311e-06 2.733939753671e-03 0.0 
0.0 0.0 -4.711111111111e-04 
-4.514024211387e-04 -2.167247969086e-06 0.0 
-2.167247969086e-06 3.045303862128e-03 0.0 
0.0 0.0 -4.488888888889e-04 
-4.736423528676e-04 -3.198210204819e-06 0.0 
-3.198210204819e-06 2.733987266950e-03 0.0 
0.0 0.0 -4.711111111111e-04 
-4.515039822840e-04 -2.583022231608e-06 0.0 
-2.583022231608e-06 3.044671970773e-03 0.0 
0.0 0.0 -4.488888888889e-04 
-5.094249609212e-04 -1.485849024676e-04 0.0 
-1.485849024676e-04 3.037014136749e-03 0.0 
0.0 0.0 -4.582426303855e-04 
-4.729917283578e-04 -2.527651589425e-06 0.0 
-2.527651589425e-06 2.733536135201e-03 0.0 
0.0 0.0 -4.711111111111e-04 
-4.517239495761e-04 -1.695467618580e-06 0.0 
-1.695467618580e-06 3.044559982769e-03 0.0 
0.0 0.0 -4.488888888889e-04 
-3.989001830536e-04 1.286242860207e-05 0.0 
1.286242860207e-05 2.848856344771e-03 0.0 
0.0 0.0 -4.360204081633e-04 
-4.741797545259e-04 -9.783497844146e-07 0.0 
-9.783497844146e-07 2.733642750037e-03 0.0 
0.0 0.0 -4.711111111111e-04 
-4.522330343643e-04 -9.670925008782e-07 0.0 
-9.670925008782e-07 3.044890510388e-03 0.0 
0.0 0.0 -4.488888888889e-04 
-4.144774096089e-04 2.017710958328e-05 0.0 
2.017710958328e-05 2.745520392554e-03 0.0 
0.0 0.0 -4.711111111111e-04 
-4.753995493701e-04 -8.226418973048e-07 0.0 
-8.226418973048e-07 2.733890535335e-03 0.0 
0.0 0.0 -4.711111111111e-04 
-4.525528888349e-04 -1.017856854085e-06 0.0 
-1.017856854085e-06 3.044832322142e-03 0.0 
0.0 0.0 -4.488888888889e-04 
-4.755368976101e-04 -1.846947414207e-06 0.0 
-1.846947414207e-06 2.733541044653e-03 0.0 
0.0 0.0 -4.711111111111e-04 
-4.522300284206e-04 -1.178811979142e-06 0.0 
-1.178811979142e-06 3.043706972071e-03 0.0 
0.0 0.0 -4.488888888889e-04 
-4.752002035872e-04 -2.749529905503e-06 0.0 
-2.749529905503e-06 2.732164380164e-03 0.0 
0.0 0.0 -4.711111111111e-04 
-4.508997659937e-04 9.025585633480e-07 0.0 
9.025585633480e-07 3.040023587775e-03 0.0 
0.0 0.0 -4.488888888889e-04 
-4.025111780395e-04 2.483692496455e-05 0.0 
2.483692496455e-05 2.925236968048e-03 0.0 
0.0 0.0 -4.693537414966e-04 
-4.720241450351e-04 8.096980642635e-06 0.0 
8.096980642635e-06 2.731296038601e-03 0.0 
0.0 0.0 -4.711111111111e-04 
-4.527871247353e-04 5.512980383908e-06 0.0 
5.512980383908e-06 3.045188244375e-03 0.0 
0.0 0.0 -4.488888888889e-04 
-4.781498596818e-04 2.806128767874e-06 0.0 
2.806128767874e-06 2.733503698510e-03 0.0 
0.0 0.0 -4.711111111111e-04 
-4.518331975621e-04 6.669660836263e-06 0.0 
6.669660836263e-06 3.040822692016e-03 0.0 
0.0 0.0 -4.488888888889e-04 
-4.581344877275e-04 4.806066696417e-06 0.0 
4.806066696417e-06 3.058516911663e-03 0.0 
0.0 0.0 -4.488888888889e-04 
-4.734463109153e-04 2.147515801901e-05 0.0 
2.147515801901e-05 2.735536322359e-03 0.0 
0.0 0.0 -4.711111111111e-04 
-4.471913195551e-04 3.250875513875e-06 0.0 
3.250875513875e-06 3.026848153488e-03 0.0 
0.0 0.0 -4.488888888889e-04 
-4.901163184293e-04 -2.393685911691e-05 0.0 
-2.393685911691e-05 2.736952886364e-03 0.0 
0.0 0.0 -4.711111111111e-04 
-4.641072462699e-04 1.667244048002e-05 0.0 
1.667244048002e-05 3.071178406626e-03 0.0 
0.0 0.0 -4.488888888889e-04 
-4.324862338949e-04 4.839324787635e-05 0.0 
4.839324787635e-05 2.728573330093e-03 0.0 
0.0 0.0 -4.711111111111e-04 
-3.598727436964e-04 -3.513921753685e-05 0.0 
-3.513921753685e-05 2.630027147507e-03 0.0 
0.0 0.0 -4.471315192744e-04 
-4.105980049468e-04 -3.701438029837e-04 0.0 
-3.701438029837e-04 2.845095093414e-03 0.0 
0.0 0.0 -4.600000000000e-04 
-5.151542512817e-04 3.559434576648e-04 0.0 
3.559434576648e-04 3.032255437761e-03 0.0 
0.0 0.0 -4.600000000000e-04 
-4.417276885855e-04 -3.934714622280e-05 0.0 
-3.934714622280e-05 2.884397119692e-03 0.0 
0.0 0.0 -4.377777777778e-04 
-4.853374994491e-04 3.790832101965e-05 0.0 
3.790832101965e-05 2.981759035168e-03 0.0 
0.0 0.0 -4.822222222222e-04 
-3.798114594225e-04 -2.502327533149e-05 0.0 
-2.502327533149e-05 2.763244671662e-03 0.0 
0.0 0.0 -4.377777777778e-04 
-5.187487103521e-04 -7.879757944209e-05 0.0 
-7.879757944209e-05 3.392117763543e-03 0.0 
0.0 0.0 -5.155555555556e-04 
-5.412972415894e-04 4.648002671404e-05 0.0 
4.648002671404e-05 3.200314872166e-03 0.0 
0.0 0.0 -5.377777777778e-04 
-5.169078130686e-04 -1.124351187329e-05 0.0 
-1.124351187329e-05 3.514306742191e-03 0.0 
0.0 0.0 -5.155555555556e-04 
-5.370398844120e-04 -5.539739897353e-06 0.0 
-5.539739897353e-06 3.206683234812e-03 0.0 
0.0 0.0 -5.377777777778e-04 
-5.154291633013e-04 -3.129495957291e-06 0.0 
-3.129495957291e-06 3.517617017321e-03 0.0 
0.0 0.0 -5.155555555556e-04 
-5.381093200183e-04 -1.976663157730e-06 0.0 
-1.976663157730e-06 3.207914382671e-03 0.0 
0.0 0.0 -5.377777777778e-04 
-5.156734036468e-04 -2.406369053650e-06 0.0 
-2.406369053650e-06 3.519066327430e-03 0.0 
0.0 0.0 -5.155555555556e-04 
-5.366091103083e-04 -1.207085778227e-06 0.0 
-1.207085778227e-06 3.208019600709e-03 0.0 
0.0 0.0 -5.377777777778e-04 
-5.158813986807e-04 -1.051510284371e-06 0.0 
-1.051510284371e-06 3.519134616611e-03 0.0 
0.0 0.0 -5.155555555556e-04 
-5.372599660982e-04 6.933014159798e-07 0.0 
6.933014159798e-07 3.208897054849e-03 0.0 
0.0 0.0 -5.377777777778e-04 
-5.166153643924e-04 -3.726067797674e-07 0.0 
-3.726067797674e-07 3.520203548651e-03 0.0 
0.0 0.0 -5.155555555556e-04 
-5.375825845931e-04 1.962175395587e-06 0.0 
1.962175395587e-06 3.210164447084e-03 0.0 
0.0 0.0 -5.377777777778e-04 
-5.177556549563e-04 -1.083300339435e-06 0.0 
-1.083300339435e-06 3.521881872284e-03 0.0 
0.0 0.0 -5.155555555556e-04 
-5.405721443304e-04 -1.211361635702e-06 0.0 
-1.211361635702e-06 3.211048643113e-03 0.0 
0.0 0.0 -5.377777777778e-04 
-5.180867973121e-04 -2.955006037441e-06 0.0 
-2.955006037441e-06 3.522497958112e-03 0.0 
0.0 0.0 -5.155555555556e-04 
-5.792879928890e-04 -1.599267687406e-04 0.0 
-1.599267687406e-04 3.507819207063e-03 0.0 
0.0 0.0 -5.247732426303e-04 
-5.375442025049e-04 -3.821072344249e-06 0.0 
-3.821072344249e-06 3.209055027385e-03 0.0 
0.0 0.0 -5.377777777778e-04 
-4.855148531560e-04 1.971124341119e-05 0.0 
1.971124341119e-05 3.223296130373e-03 0.0 
0.0 0.0 -5.377777777778e-04 
-5.174361728023e-04 1.037369395505e-07 0.0 
1.037369395505e-07 3.519390087404e-03 0.0 
0.0 0.0 -5.155555555556e-04 
-5.390305481333e-04 1.985391886553e-06 0.0 
1.985391886553e-06 3.209337053627e-03 0.0 
0.0 0.0 -5.377777777778e-04 
-5.186241989704e-04 1.920455278980e-06 0.0 
1.920455278980e-06 3.520577890956e-03 0.0 
0.0 0.0 -5.155555555556e-04 
-5.424782350989e-04 2.602587795864e-06 0.0 
2.602587795864e-06 3.210819048104e-03 0.0 
0.0 0.0 -5.377777777778e-04 
-5.198439938145e-04 8.397343631672e-07 0.0 
8.397343631672e-07 3.522383784968e-03 0.0 
0.0 0.0 -5.155555555556e-04 
-5.425396489499e-04 -2.671586099257e-07 0.0 
-2.671586099257e-07 3.210729830903e-03 0.0 
0.0 0.0 -5.377777777778e-04 
-4.639261431919e-04 1.795800229962e-05 0.0 
1.795800229962e-05 3.319383572120e-03 0.0 
0.0 0.0 -5.025510204081e-04 
-5.199813420545e-04 4.884319006212e-08 0.0 
4.884319006212e-08 3.521715893853e-03 0.0 
0.0 0.0 -5.155555555556e-04 
-5.429313789558e-04 -1.595839338101e-06 0.0 
-1.595839338101e-06 3.209826232599e-03 0.0 
0.0 0.0 -5.377777777778e-04 
-5.196446480316e-04 -7.157581278472e-07 0.0 
-7.157581278472e-07 3.520538878585e-03 0.0 
0.0 0.0 -5.155555555556e-04 
-5.449486155419e-04 -7.127659532130e-06 0.0 
-7.127659532130e-06 3.206562068945e-03 0.0 
0.0 0.0 -5.377777777778e-04 
-5.164685894796e-04 6.903981517509e-06 0.0 
6.903981517509e-06 3.511995524719e-03 0.0 
0.0 0.0 -5.155555555556e-04 
-5.340991680871e-04 2.151676257844e-05 0.0 
2.151676257844e-05 3.208223790984e-03 0.0 
0.0 0.0 -5.377777777778e-04 
-5.225943041262e-04 7.813857319380e-06 0.0 
7.813857319380e-06 3.525980620072e-03 0.0 
0.0 0.0 -5.155555555556e-04 
-5.589612776076e-04 -5.839662931230e-06 0.0 
-5.839662931230e-06 3.211769507264e-03 0.0 
0.0 0.0 -5.377777777778e-04 
-5.066406946919e-04 4.974783901009e-05 0.0 
4.974783901009e-05 3.211603155197e-03 0.0 
0.0 0.0 -5.377777777778e-04 
-5.178907553598e-04 1.266973619615e-05 0.0 
1.266973619615e-05 3.512461130721e-03 0.0 
0.0 0.0 -5.155555555556e-04 
-4.723338447053e-04 2.541271294402e-05 0.0 
2.541271294402e-05 3.400544018691e-03 0.0 
0.0 0.0 -5.358843537414e-04 
-5.345607628738e-04 7.989109301534e-06 0.0 
7.989109301534e-06 3.549518677637e-03 0.0 
0.0 0.0 -5.155555555556e-04 
-4.278487948575e-04 -2.628820225451e-05 0.0 
-2.628820225451e-05 3.098178878207e-03 0.0 
0.0 0.0 -5.136621315192e-04 
-5.830730295150e-04 -3.701622094986e-04 0.0 
-3.701622094986e-04 3.411662693846e-03 0.0 
0.0 0.0 -5.266666666667e-04 
-4.791897713482e-04 3.550100958036e-04 0.0 
3.550100958036e-04 3.225685347325e-03 0.0 
0.0 0.0 -5.266666666667e-04 
-5.533708020514e-04 -3.952512472071e-05 0.0 
-3.952512472071e-05 3.373562060411e-03 0.0 
0.0 0.0 -5.488888888889e-04 
-5.075597216713e-04 3.715385301184e-05 0.0 
3.715385301184e-05 3.274980805740e-03 0.0 
0.0 0.0 -5.044444444444e-04 
-4.478107429422e-04 -2.175364391221e-05 0.0 
-2.175364391221e-05 3.231094822119e-03 0.0 
0.0 0.0 -5.044444444444e-04 
-6.189291422576e-04 -8.703466800009e-05 0.0 
-8.703466800009e-05 3.800993658171e-03 0.0 
0.0 0.0 -6.044444444444e-04 
-5.857416860338e-04 4.152251131124e-05 0.0 
4.152251131124e-05 3.981396628525e-03 0.0 
0.0 0.0 -5.822222222222e-04 
-6.014676124269e-04 -2.366192094096e-05 0.0 
-2.366192094096e-05 3.666428660516e-03 0.0 
0.0 0.0 -6.044444444444e-04 
-5.814843288565e-04 -9.898764258253e-06 0.0 
-9.898764258253e-06 3.966852274136e-03 0.0 
0.0 0.0 -5.822222222222e-04 
-6.012057329272e-04 -9.447332933258e-07 0.0 
-9.447332933258e-07 3.656511754543e-03 0.0 
0.0 0.0 -6.044444444444e-04 
-5.825537644628e-04 -2.598524727547e-06 0.0 
-2.598524727547e-06 3.971861702718e-03 0.0 
0.0 0.0 -5.822222222222e-04 
-6.053753762140e-04 -6.697619749961e-06 0.0 
-6.697619749961e-06 3.660276641183e-03 0.0 
0.0 0.0 -6.044444444444e-04 
-5.810535547528e-04 -4.794630108920e-06 0.0 
-4.794630108920e-06 3.968237137461e-03 0.0 
0.0 0.0 -5.822222222222e-04 
-5.989315183322e-04 1.500653346668e-07 0.0 
1.500653346668e-07 3.657759237214e-03 0.0 
0.0 0.0 -6.044444444444e-04 
-5.817044105427e-04 9.543218927830e-07 0.0 
9.543218927830e-07 3.971595709461e-03 0.0 
0.0 0.0 -5.822222222222e-04 
-6.036123665843e-04 5.339950144235e-07 0.0 
5.339950144235e-07 3.660400636182e-03 0.0 
0.0 0.0 -6.044444444444e-04 
-5.820270290375e-04 1.512396225080e-06 0.0 
1.512396225080e-06 3.971136415647e-03 0.0 
0.0 0.0 -5.822222222222e-04 
-6.007150147334e-04 7.186565872499e-06 0.0 
7.186565872499e-06 3.661043708330e-03 0.0 
0.0 0.0 -6.044444444444e-04 
-6.473657891011e-04 -1.503775681191e-04 0.0 
-1.503775681191e-04 3.972322043345e-03 0.0 
0.0 0.0 -5.915759637188e-04 
-5.850165887748e-04 4.111519023383e-06 0.0 
4.111519023383e-06 3.978321279381e-03 0.0 
0.0 0.0 -5.822222222222e-04 
-6.068724417993e-04 -1.008894091445e-05 0.0 
-1.008894091445e-05 3.663848600166e-03 0.0 
0.0 0.0 -6.044444444444e-04 
-5.382166584107e-04 1.304379000640e-05 0.0 
1.304379000640e-05 3.784609928149e-03 0.0 
0.0 0.0 -5.693537414966e-04 
-5.819886469493e-04 -2.459134104207e-06 0.0 
-2.459134104207e-06 3.967910560167e-03 0.0 
0.0 0.0 -5.822222222222e-04 
-6.025293378773e-04 4.180804481685e-06 0.0 
4.180804481685e-06 3.658439256297e-03 0.0 
0.0 0.0 -6.044444444444e-04 
-5.551920643199e-04 2.265198140005e-05 0.0 
2.265198140005e-05 3.679387987050e-03 0.0 
0.0 0.0 -6.044444444444e-04 
-5.834749925778e-04 5.082011282514e-06 0.0 
5.082011282514e-06 3.970492679137e-03 0.0 
0.0 0.0 -5.822222222222e-04 
-6.079594570241e-04 1.156947798517e-05 0.0 
1.156947798517e-05 3.661485342161e-03 0.0 
0.0 0.0 -6.044444444444e-04 
-5.869226795434e-04 6.564857151272e-06 0.0 
6.564857151272e-06 3.976524406353e-03 0.0 
0.0 0.0 -5.822222222222e-04 
-6.104220387485e-04 1.777481494462e-06 0.0 
1.777481494462e-06 3.663998117975e-03 0.0 
0.0 0.0 -6.044444444444e-04 
-5.869840933944e-04 2.939983270558e-06 0.0 
2.939983270558e-06 3.973848016868e-03 0.0 
0.0 0.0 -5.822222222222e-04 
-5.382425891796e-04 2.010179773979e-05 0.0 
2.010179773979e-05 3.859360506165e-03 0.0 
0.0 0.0 -6.026870748299e-04 
-6.075003933196e-04 1.831253403248e-06 0.0 
1.831253403248e-06 3.662133086902e-03 0.0 
0.0 0.0 -6.044444444444e-04 
-5.873758234003e-04 4.101101850473e-06 0.0 
4.101101850473e-06 3.972642461745e-03 0.0 
0.0 0.0 -5.822222222222e-04 
-5.893930599864e-04 7.702980256847e-07 0.0 
7.702980256847e-07 3.976762054191e-03 0.0 
0.0 0.0 -5.822222222222e-04 
-6.109731840224e-04 5.890820747531e-06 0.0 
5.890820747531e-06 3.662416691587e-03 0.0 
0.0 0.0 -6.044444444444e-04 
-5.785436125316e-04 1.010670441636e-05 0.0 
1.010670441636e-05 3.943008250813e-03 0.0 
0.0 0.0 -5.822222222222e-04 
-6.245615995330e-04 -2.323619509784e-05 0.0 
-2.323619509784e-05 3.657960966842e-03 0.0 
0.0 0.0 -6.044444444444e-04 
-6.034057220520e-04 2.547674868134e-05 0.0 
2.547674868134e-05 4.007426657562e-03 0.0 
0.0 0.0 -5.822222222222e-04 
-5.749090046599e-04 7.539992690053e-05 0.0 
7.539992690053e-05 3.655670285631e-03 0.0 
0.0 0.0 -6.044444444444e-04 
-4.961379511751e-04 -3.596508921430e-05 0.0 
-3.596508921430e-05 3.563351096824e-03 0.0 
0.0 0.0 -5.804648526077e-04 
-5.370991115957e-04 -3.597763694007e-04 0.0 
-3.597763694007e-04 3.763144672232e-03 0.0 
0.0 0.0 -5.933333333333e-04 
-6.527633909015e-04 3.673307409981e-04 0.0 
3.673307409981e-04 3.969951782286e-03 0.0 
0.0 0.0 -5.933333333333e-04 
-5.755930242736e-04 -3.122109693664e-05 0.0 
-3.122109693664e-05 3.812561021402e-03 0.0 
0.0 0.0 -5.711111111111e-04 
-6.159345735075e-04 5.418298751483e-05 0.0 
5.418298751483e-05 3.907149665354e-03 0.0 
0.0 0.0 -6.155555555556e-04 
-5.188481864893e-04 -2.197935258590e-05 0.0 
-2.197935258590e-05 3.695326603665e-03 0.0 
0.0 0.0 -5.711111111111e-04 
-6.633735867021e-04 -1.155216560217e-04 0.0 
-1.155216560217e-04 4.354748692185e-03 0.0 
0.0 0.0 -6.488888888889e-04 
-6.563660005588e-04 -4.949228987583e-06 0.0 
-4.949228987583e-06 4.121813599109e-03 0.0 
0.0 0.0 -6.711111111111e-04 
-6.459120568713e-04 -1.400816422119e-05 0.0 
-1.400816422119e-05 4.433498309450e-03 0.0 
0.0 0.0 -6.488888888889e-04 
-6.749764366867e-04 -1.022061849857e-05 0.0 
-1.022061849857e-05 4.131528536263e-03 0.0 
0.0 0.0 -6.711111111111e-04 
-6.456501773717e-04 -4.182868477560e-07 0.0 
-4.182868477560e-07 4.441719427511e-03 0.0 
0.0 0.0 -6.488888888889e-04 
-6.743020789233e-04 6.977086704307e-06 0.0 
6.977086704307e-06 4.142139451712e-03 0.0 
0.0 0.0 -6.711111111111e-04 
-6.498198206584e-04 -1.519001385404e-05 0.0 
-1.519001385404e-05 4.455827176230e-03 0.0 
0.0 0.0 -6.488888888889e-04 
-6.621266125404e-04 -2.192043764397e-05 0.0 
-2.192043764397e-05 4.131761848184e-03 0.0 
0.0 0.0 -6.711111111111e-04 
-6.433759627766e-04 1.777448492813e-06 0.0 
1.777448492813e-06 4.439463053302e-03 0.0 
0.0 0.0 -6.488888888889e-04 
-6.671926554527e-04 1.273682377917e-05 0.0 
1.273682377917e-05 4.138458681040e-03 0.0 
0.0 0.0 -6.711111111111e-04 
-6.480568110287e-04 -2.776142626278e-06 0.0 
-2.776142626278e-06 4.452403490028e-03 0.0 
0.0 0.0 -6.488888888889e-04 
-6.701502197109e-04 -7.061847058022e-06 0.0 
-7.061847058022e-06 4.137807792637e-03 0.0 
0.0 0.0 -6.711111111111e-04 
-7.177695882629e-04 -1.636503915643e-04 0.0 
-1.636503915643e-04 4.444156976963e-03 0.0 
0.0 0.0 -6.580807474504e-04 
-6.451594591778e-04 2.175329864368e-06 0.0 
2.175329864368e-06 4.446899780492e-03 0.0 
0.0 0.0 -6.488888888889e-04 
-6.694083839791e-04 4.177588367935e-05 0.0 
4.177588367935e-05 4.159153595791e-03 0.0 
0.0 0.0 -6.711111111111e-04 
-6.460833817648e-04 2.181336474440e-05 0.0 
2.181336474440e-05 4.138351275158e-03 0.0 
0.0 0.0 -6.711111111111e-04 
-6.513168862437e-04 2.571939183827e-06 0.0 
2.571939183827e-06 4.455509820746e-03 0.0 
0.0 0.0 -6.488888888889e-04 
-6.788111886778e-04 -1.155514465082e-05 0.0 
-1.155514465082e-05 4.136861537379e-03 0.0 
0.0 0.0 -6.711111111111e-04 
-6.469737823218e-04 1.193188668576e-05 0.0 
1.193188668576e-05 4.441081764841e-03 0.0 
0.0 0.0 -6.488888888889e-04 
-6.791365925950e-04 1.914980606248e-05 0.0 
1.914980606248e-05 4.140018751422e-03 0.0 
0.0 0.0 -6.711111111111e-04 
-6.524039014686e-04 9.406282947205e-06 0.0 
9.406282947205e-06 4.453605425654e-03 0.0 
0.0 0.0 -6.488888888889e-04 
-6.708784002972e-04 1.294093541861e-05 0.0 
1.294093541861e-05 4.143170398070e-03 0.0 
0.0 0.0 -6.711111111111e-04 
-6.063230854436e-04 2.307129271736e-05 0.0 
2.307129271736e-05 4.258254267782e-03 0.0 
0.0 0.0 -6.358585252281e-04 
-6.548664831930e-04 3.770000341516e-06 0.0 
3.770000341516e-06 4.457898616998e-03 0.0 
0.0 0.0 -6.488888888889e-04 
-6.704807604954e-04 -3.181200734381e-06 0.0 
-3.181200734381e-06 4.139523021675e-03 0.0 
0.0 0.0 -6.711111111111e-04 
-6.519448377641e-04 9.585102352843e-06 0.0 
9.585102352843e-06 4.446587571773e-03 0.0 
0.0 0.0 -6.488888888889e-04 
-6.643169358871e-04 1.598213094935e-05 0.0 
1.598213094935e-05 4.135669863508e-03 0.0 
0.0 0.0 -6.711111111111e-04 
-6.628560694171e-04 4.220630236656e-05 0.0 
4.220630236656e-05 4.140094777352e-03 0.0 
0.0 0.0 -6.711111111111e-04 
-6.554176284668e-04 2.405280497148e-05 0.0 
2.405280497148e-05 4.445642855833e-03 0.0 
0.0 0.0 -6.488888888889e-04 
-6.690060439774e-04 2.025793204241e-05 0.0 
2.025793204241e-05 4.465053963584e-03 0.0 
0.0 0.0 -6.488888888889e-04 
-6.064361755080e-04 1.982912098417e-05 0.0 
1.982912098417e-05 4.335884925808e-03 0.0 
0.0 0.0 -6.691918585615e-04 
-5.634506181685e-04 -1.856852842986e-05 0.0 
-1.856852842986e-05 4.033404918511e-03 0.0 
0.0 0.0 -6.469696363393e-04 
-7.075315162008e-04 -3.247782179694e-04 0.0 
-3.247782179694e-04 4.305606072287e-03 0.0 
0.0 0.0 -6.600000000000e-04 
-6.398271965705e-04 3.921691488498e-04 0.0 
3.921691488498e-04 4.184231073606e-03 0.0 
0.0 0.0 -6.600000000000e-04 
-7.078150788587e-04 1.813354754407e-05 0.0 
1.813354754407e-05 4.306653958276e-03 0.0 
0.0 0.0 -6.822222222222e-04 
-6.381567957297e-04 6.336547185439e-05 0.0 
6.336547185439e-05 4.195569873202e-03 0.0 
0.0 0.0 -6.377777777778e-04 
-5.885253976532e-04 -3.076841355533e-05 0.0 
-3.076841355533e-05 4.174142785234e-03 0.0 
0.0 0.0 -6.377777777778e-04 

SCALARS element_materi_plasti_kappa_shear float
LOOKUP_TABLE default
1.898088649643e-03
1.711557051641e-03
5.588972410085e-03
5.625547274701e-03
3.501560146999e-03
7.282216725179e-04
3.474037579751e-03
1.788007566792e-03
3.522688057585e-03
5.576154387883e-03
3.814443258077e-03
1.461439354055e-03
5.618312958953e-03
3.751010953381e-03
5.727607835366e-03
5.730745783213e-03
3.485806207147e-03
6.593526459412e-04
1.219931793149e-03
1.129439279568e-03
5.615624188563e-03
1.975862239362e-03
2.216034645177e-03
5.387839390641e-03
4.000079313324e-03
4.090296639934e-03
3.221108468051e-03
5.760173945043e-03
4.029373913921e-03
5.523089313001e-03
9.290964436138e-04
4.104778426902e-04
5.763354464700e-03
4.818108341585e-03
5.606378478043e-03
5.926561905728e-03
5.911514681661e-03
5.601049808397e-03
3.175213616511e-03
3.219440155070e-03
2.522875806809e-03
5.613228156909e-03
1.314389251867e-03
3.093978597461e-03
5.492839635271e-03
1.306192107028e-03
5.547525844144e-04
5.389503964808e-03
2.459813448032e-04
3.614080566479e-03
2.381012112028e-03
1.496795143349e-03
1.233026261794e-03
2.292287135613e-03
5.625167383412e-03
1.964314716114e-03
1.446321564822e-03
4.840724010361e-03
9.102679910466e-04
5.734895616735e-03
3.755633206833e-04
5.378892164199e-03
2.330546822697e-03
1.083603178692e-03
5.615414212048e-03
2.131250052149e-03
1.604920622128e-04
5.736681007188e-03
9.706183660792e-04
5.615641150241e-03
4.241478972054e-03
5.874633494773e-03
5.400876667698e-03
4.558558305771e-04
1.986901141796e-03
5.633818988721e-03
5.766849763577e-03
9.985176399268e-04
7.761145875021e-04
9.970078257235e-04
9.298249562963e-04
3.329770783062e-03
2.084397622031e-03
1.770967893658e-03
3.674764228873e-03
3.652269385491e-03
4.362468712188e-03
4.711312884167e-03
4.861505206044e-03
3.454836133152e-03
2.515307574217e-04
3.378806059228e-03
4.682474906469e-03
4.702091845048e-03
6.023290360785e-03
5.787399672559e-03
3.332335907633e-03
5.769769997493e-03
3.930413862469e-03
2.258576815211e-03
3.348854702644e-03
5.740322727268e-03
4.646182631344e-03
5.409941681963e-03
2.044498184613e-03
6.875243722321e-04
5.293361504948e-03
5.009713215505e-03
4.133118292856e-04
5.636662395566e-03
4.631075715070e-03
3.269354662114e-04
2.695643369684e-03
3.134173944672e-03
2.394513305480e-03
2.006953041182e-03
2.358433690428e-03
5.680496234391e-03
3.862421047183e-03
2.174327584433e-03
9.453599785676e-04
3.463155550842e-03
4.910807945138e-03
2.193161772477e-03
6.864169327037e-04
2.833893873667e-03
2.488998346477e-03
2.624989890950e-03
5.744770783808e-03
8.095945313106e-04
4.016900758618e-03
5.625509815893e-03
2.834287320742e-03
2.685380764041e-03
5.614532063030e-03
5.633315586868e-03
4.360056895282e-03
3.033874980370e-03
5.768691703590e-03
2.715472649556e-03
5.618615457511e-03
5.760030365689e-03
3.718873437018e-03
4.339715431150e-03
2.744759010980e-03
2.474141180373e-03
3.120734003300e-03
2.345781934128e-03
3.431883328348e-03
2.738129196427e-03
2.430742527302e-04
3.688149105754e-03
8.387704164436e-04
2.991941880911e-03
5.628507851818e-03
2.024064835673e-03
4.530584219247e-03
1.460229167458e-03
4.626313542846e-03
3.347690434935e-03
2.537984777281e-03
4.987375735797e-03
8.656817948044e-04
5.285431651825e-03
3.359806122999e-03
5.766679500674e-03
3.342388058739e-03
2.107011085319e-03
2.928826646772e-03
3.947216798782e-03
1.526615979923e-03
2.569483147169e-03
4.520478967461e-03
3.465735922799e-03
2.391304591019e-03
2.779864257648e-03
5.040184275248e-03
2.772760665208e-03
5.618703717082e-03
5.759844672989e-03
1.983421498389e-03
2.659866027685e-03
5.141665672042e-03
2.630630496975e-03
1.717879912429e-03
3.236040194100e-03
2.634227826825e-03
5.637705462983e-03
4.673436176070e-03
5.143211062278e-03
1.164471534235e-03
2.407331954242e-03
4.803098661724e-03
1.296887470609e-04
2.602557350130e-03
4.814963733127e-03
6.908847608838e-04
5.616315559470e-03
4.285635638516e-03
2.554299594861e-03
4.795742518615e-03
3.724002802598e-03
3.932058578281e-03
5.497749636997e-03
1.904823798155e-03
3.244463136207e-03
3.481704692684e-03
4.488443812894e-03
3.550879868320e-03
3.254436741122e-03
4.171787960097e-03
4.925574717127e-03
3.793743182903e-04
1.944678655638e-03
2.211850110251e-03
3.157287865959e-03
4.893684273428e-03
9.647028340037e-04
4.643736636013e-03
3.342449784473e-03
2.377945774863e-03
4.477091166639e-03
4.380675775183e-04
4.584675247436e-03
3.699679224086e-04
5.360497299544e-04
1.154789664667e-03
1.594668909351e-03
4.784983334352e-03
1.546697935713e-03
1.383435816543e-03
1.200027858935e-03
1.005332530085e-03
4.949781021208e-03
3.380950736680e-03
5.631197498489e-03
0.0
1.665063222897e-03
2.673189362063e-03
2.423854183086e-03
4.621677125616e-03
5.764868817004e-03
4.590764537563e-03
1.954446704586e-03
4.960919873089e-03
4.205568891908e-03
3.320344157998e-03
4.410423547979e-03
5.507586445396e-03
2.709349539675e-03
1.580698985764e-03
3.836309747163e-03
6.017571415290e-03
3.278275707600e-03
3.423215564413e-03
3.753460771055e-03
8.863145511104e-04
3.518014179913e-03
1.918797851399e-03
1.292004175147e-03
9.082232253615e-04
4.755046881876e-03
3.676362788182e-03
2.294435875197e-03
4.952708212389e-03
4.718723855839e-03
3.481414558201e-03
5.642033395162e-03
3.523250685796e-03
3.640046674313e-03
2.917421140027e-03
3.717192777981e-03
1.585318004735e-03
3.357027743210e-03
2.838102944494e-03
2.007874057392e-03
4.547203828395e-03
1.589585432752e-04
3.708601455527e-03
2.047895045112e-03
1.700131027140e-03
1.626515464048e-03
3.929577795643e-03
6.380620704986e-04
2.384202047897e-03
3.820927590901e-03
3.640893065081e-03
3.744578397567e-03
8.473399745815e-04
1.972105034185e-03
1.841129336947e-03
2.144602490372e-03
4.453686851147e-03
2.425319558498e-03
2.633326203696e-03
2.506076668662e-03
1.050423010888e-03
3.001112002867e-03
1.139329181863e-03
6.012684016247e-03
6.015982038197e-03
3.371674230462e-03
1.754085065341e-03
1.538449888003e-03
3.733462517399e-03
1.667297713938e-03
1.800453244169e-03
3.281965826456e-03
5.778410886410e-03
2.212308197419e-03
4.148099921920e-03
1.220247403596e-03
6.015650448016e-03
1.627598388192e-03
3.408069598847e-03
1.126335977517e-03
4.035749165321e-03
2.797696233239e-03
1.935926706622e-03
3.513914298156e-03
6.014293587579e-03
2.340466570169e-03
3.854547700326e-03
1.257539573865e-03
4.211250131042e-03
4.445904991404e-03
1.749623395989e-03
4.109773335894e-03
6.017625920185e-03
4.749940685194e-03
6.020004411071e-03
4.066219120171e-03
4.677049970116e-03
1.453454976364e-03
3.226922138058e-03
3.605874528002e-03
3.801247617448e-03
3.116888250637e-03
6.023922603081e-03
3.900035487013e-03
3.427519582657e-03
2.541127325687e-03
1.304161433012e-03
3.097491959287e-03
1.828369059598e-03
3.480341907346e-03
1.973411461228e-03
2.245667589757e-03
4.717451703464e-03
1.865551334307e-03
3.320796694163e-03
3.948013352555e-03
3.499794145216e-03
6.014761074790e-03
2.797145162977e-03
1.840410315570e-03
2.476504328130e-03
1.777663760713e-03
1.715690849975e-03
5.020957594454e-03
3.604591250536e-03
2.461088412607e-03
3.037406839291e-03
6.020345341033e-03
5.688581187916e-03
4.974163615528e-03
4.623253995230e-03
3.403798714710e-03
2.542077870463e-03
1.793786123597e-03
2.084462978973e-03
3.443262116423e-03
3.946499106711e-03
2.984226002412e-03
5.025076478443e-03
1.876215262827e-03
2.954178187483e-03
3.441589599409e-03
2.662722220518e-03
6.012685245852e-03
6.016133295997e-03
5.644449372993e-03
3.701147822208e-03
4.921131353075e-03
1.545366707812e-03
2.377422492958e-03
1.336075859690e-03
2.584345771663e-03
3.338459339121e-03
4.044137853151e-03
5.756411723275e-03
4.924677558882e-03
3.800097117390e-03
3.895652219981e-03
1.419401544672e-03
6.642135258918e-04
2.837095037860e-03
3.243261720869e-03
3.038062407003e-03
6.767206337307e-04
3.595162726105e-03
1.242964933884e-03
1.791112892290e-03
5.886267587663e-03
4.319899469577e-03
3.400768600181e-03
9.348339381144e-04
3.083946857624e-03
2.871885156030e-03
3.962075947404e-03
6.018407561000e-03
3.198386693766e-03
3.766468143187e-03
2.946356736400e-03
4.889394747190e-03
3.802316230935e-03
6.019114699465e-03
5.878766063712e-03
5.874669666802e-03
5.846896484413e-03
4.057636266581e-03
4.920589971590e-03
5.113499940864e-03
2.631031740165e-03
2.507872621076e-03
2.813875816799e-03
5.059815959048e-03
6.015552509770e-03
5.051955043481e-03
4.017840351881e-03
5.084516464713e-03
4.404291654299e-03
3.045170865042e-03
2.550534457101e-03
1.338384591573e-03
5.646979922164e-03
2.469749811605e-03
5.384355873580e-03
2.775047533559e-03
1.799833226776e-03
5.623003894310e-03
1.949666713895e-03
5.877628319843e-03
5.634831675280e-03
3.696725743160e-03
2.315629071755e-04
5.876846230322e-03
5.625196717779e-03
1.763143550620e-03
4.153888461443e-03
6.029088701749e-03
0.0
2.757791127203e-03
3.859953108443e-03
3.533917503000e-03
3.571063382657e-03
1.501745143730e-03
5.871219529997e-03
2.671327868409e-03
8.692276940891e-04
5.775417212412e-03
4.034087724254e-04
2.877183319107e-03
7.845786155791e-04
3.064343649170e-03
6.008207932275e-03
5.886416939798e-03
3.769097730369e-03
5.416058611576e-04
6.663225248163e-04
9.264097944291e-04
5.017458723071e-03
3.488320970718e-03
3.568311924561e-03
5.888518575312e-03
3.493284622980e-03
6.023303222970e-03
4.495210095570e-03
3.909299515792e-03
1.880309591682e-03
4.118987834466e-03
1.217020428601e-03
5.888099209517e-03
5.858622551973e-03
5.871281062107e-03
3.837749785842e-03
2.642161995129e-03
3.082539161524e-03
3.932200029967e-03
5.884737103442e-03
1.826405636236e-03
2.101531865548e-03
2.230991329468e-03
4.079210194315e-03
6.020724823755e-03
6.550876827097e-04
5.870906118256e-03
2.061330388785e-03
5.887134204678e-03
5.158371209842e-03
1.735033884423e-04
2.876871465871e-03
5.119259939334e-03
5.882578435152e-03
4.090807838191e-03
4.627625074894e-03
1.056059908013e-03
5.381604359168e-03
2.190366286690e-03
2.266492401597e-03
4.233392830062e-04
5.876777887152e-03
1.506277909376e-03
4.962026184372e-03
3.779613678589e-03
1.886868617372e-03
2.137991957806e-03
3.928710791902e-03
5.887503593490e-03
2.741417539434e-03
4.307478873942e-03
3.496708023987e-03
3.907072451988e-03
2.300842511533e-03
4.002515627125e-03
3.405034769092e-03
4.439472514518e-03
4.416922306321e-03
3.333573885478e-03
2.813436354788e-03
1.986436464636e-03
2.602497471918e-03
4.536209320527e-03
3.650011259562e-03
6.021028889714e-03
5.248340798342e-03
1.675475904991e-03
5.860952443923e-03
5.749243689854e-03
3.130366137552e-03
2.446157471384e-04
6.015808451350e-03
5.216828897001e-03
1.891089920309e-03
5.872438978963e-03
4.140650168509e-03
2.670441489397e-03
3.672959727573e-03
3.555689535213e-03
3.535938459604e-03
4.076028772190e-03
4.323837798527e-03
2.998150908977e-03
4.588814172264e-03
3.990156233101e-03
2.851900776380e-03
4.246963853771e-03
2.223560657060e-03
3.981478068334e-03
1.793397212350e-04
2.156315504880e-03
2.097111767555e-03
3.079683430517e-03
3.294455684710e-03
4.105285117446e-03
3.968717882503e-03
1.929111457824e-03
5.886335248325e-03
3.894339398565e-03
3.209529361218e-03
3.730809639925e-03
3.117776647955e-03
0.0
3.867784336933e-03
2.563323944442e-03
0.0
3.036200146822e-03
4.407600196631e-03
5.076924335597e-03
3.778145075046e-03
3.865417070565e-03
3.297599931106e-03
3.075297279978e-03
5.632622103086e-03
3.567491943935e-03
1.510039486835e-04
1.062090790195e-03
2.398810579768e-04
1.837694429977e-03
5.063783013299e-03
5.108968424711e-03
4.804181478442e-03
2.074537259418e-03
4.022688107491e-03
5.049168604237e-03
1.160096365863e-03
2.576389109967e-03
2.078055360937e-03
6.021089235366e-03
5.881485963002e-03
2.857156921414e-03
3.246692301347e-03
3.629498285744e-03
5.229137518708e-03
1.125785695799e-03
4.880206649917e-03
6.831862832841e-04
2.949407645451e-03
3.288357648769e-03
2.441249237015e-04
2.697767110358e-03
5.212641935745e-03
1.752329176366e-04
3.063219008196e-03
3.208047659791e-03
4.245083115866e-03
2.103654506232e-03
2.019431576275e-03
1.421520152248e-03
5.225289819944e-03
5.632171442564e-03
4.908962959162e-03
1.901082200918e-03
7.152422822499e-04
3.069002747989e-03
3.072118229683e-03
3.221248037221e-03
0.0
2.370160903131e-04
5.310782124112e-04
1.561897998935e-03
4.249046179325e-04
3.032717901044e-03
0.0
1.864630217503e-03
4.122518464148e-03
3.216172429738e-03
5.209439031162e-03
4.234717777356e-03
3.854408568460e-03
2.248560931312e-03
6.787283102328e-04
5.869561306561e-03
6.023626633703e-03
3.742684779077e-03
3.077333598062e-03
2.287820883481e-03
6.009559958077e-03
1.773006016400e-03
3.202342050267e-03
3.064099742472e-03
2.912794716067e-03
5.888568312805e-03
6.006021539653e-03
4.166942996850e-04
0.0
8.441431879688e-04
3.250853044044e-03
5.464355466468e-03
1.629622625436e-04
4.849407318231e-03
0.0
4.167229288684e-03
1.911385708273e-04
1.855469029487e-04
3.998077199970e-03
5.296543687334e-03
4.237134437895e-03
3.194088539209e-03
2.435063913799e-04
4.153210895561e-03
5.861217735276e-03
6.009791560538e-03
3.214582083037e-03
4.335922088801e-03
5.878708529905e-03
4.662336340161e-03
6.526260522665e-04
4.186243951470e-04
2.626649538589e-04
2.550412609599e-03
6.014031515604e-03
5.628686910939e-03
0.0
3.011280459441e-03
5.891985303537e-03
6.031512279974e-03
6.009444186578e-03
4.549765932770e-03
5.010826545378e-03
5.864343994050e-03
5.879214029285e-03
4.848773824588e-03
1.474383398765e-04
3.191688509645e-03
3.230904037540e-03
0.0
5.898372924748e-03
6.024797090299e-03
5.861254662737e-03
1.875139568358e-04
1.924224746449e-04
5.871534849748e-03
5.866174925494e-03
4.404639489746e-03
3.191281210692e-03
4.696669621923e-03
3.777426634559e-03
3.187300555971e-03
1.702406008908e-04
1.962141474448e-04
1.658004844312e-04
1.808088655353e-04
3.181347729344e-03
2.857668427393e-03
0.0
4.096797302130e-03
0.0
5.867214387611e-03
5.859324762587e-03
5.872796053912e-03
1.028821985916e-03
1.936630062470e-03
5.864275948506e-03
5.016839626708e-03
5.891943567255e-03
5.328174982673e-03
5.640245512770e-03
2.701665040976e-03
6.022983703665e-03
6.017003585591e-03
5.139388847066e-03
5.463393282501e-03
4.411575174769e-03
0.0
2.784277416710e-03
4.061884078683e-04
5.259286228377e-03
2.908833121132e-03
4.850143225763e-03
1.472710261241e-03
5.420604269259e-04
5.189202363176e-03
3.073447472489e-03
2.406449859391e-03
4.889636581614e-03
5.255592395656e-03
2.405392247394e-03
4.614670723085e-03
4.023251322217e-03
4.374804059547e-03
4.518070815714e-03
2.466020010935e-03
2.911636777842e-03
3.205404967252e-03
4.113353234630e-03
5.029297459228e-03
4.665945937406e-03
1.491277829959e-03
5.243929663885e-03
4.941851688277e-03
3.558682000750e-03
4.285917425276e-03
4.244579152953e-03
5.321773155122e-03
5.122199489663e-03
3.931103671375e-03
5.320806263415e-03
4.878121851522e-03
4.664188533065e-03
5.406777608810e-03
5.283094587084e-03
4.496087669439e-03
4.444458481023e-03
1.481875117849e-03
1.376911560334e-03
7.503612397897e-04
4.158489178225e-04
5.132283977735e-03
5.119873486994e-03
4.012352521064e-04
5.178558947058e-03
3.672287986049e-03
4.759407346754e-03
4.816897172186e-03
2.140610803278e-03
4.851861367702e-03
3.563436395175e-03
4.454648778840e-03
5.513811741196e-03
1.417713283077e-03
5.445572691693e-03
4.665806061983e-03
1.612851643597e-03
1.714759419245e-03
3.438255392646e-03
4.137623841864e-03
2.296870595819e-03
4.830815432738e-03
4.338838747336e-03
3.342675223842e-03
4.545437980776e-03
4.722218982109e-03
4.634762812797e-03
1.261713162161e-03
3.173154214211e-03
5.055839016286e-03
4.803789849080e-03
2.857994266569e-03
4.062765352511e-03
5.318088809597e-03
4.463221862301e-03
7.092725784376e-04
7.188837629254e-04
1.457330486298e-03
4.991375457445e-03
4.302592537165e-03
3.790381226361e-03
3.831560113468e-03
5.088582652342e-03
3.475465703060e-03
4.681796565250e-03
1.519021719428e-03
5.403126934034e-03
3.381852318330e-03
1.662591917742e-03
3.207575975263e-03
2.427493216678e-03
1.903845874229e-03
3.731045389275e-03
0.0
0.0
4.284173046855e-03
1.393362755241e-03
4.325320826384e-03
4.194819161297e-03
2.641355429632e-03
1.719362769164e-03
5.077648961166e-03
6.798414436796e-04
2.568347176664e-03
5.235874665598e-03
1.155384575714e-03
4.027503858662e-03
3.708502873321e-03
1.170523382264e-03
5.180869859233e-03
4.605325228012e-03
1.354425768675e-03
5.208339196432e-03
5.174454579939e-03
1.560392004205e-03
2.066462287853e-03
1.601268088310e-03
4.585233918786e-03
3.608599847271e-03
5.182420533551e-03
5.047083544607e-03
4.455861124158e-03
4.416860348409e-03
1.262227011679e-03
4.546872248422e-03
4.575231375888e-03
3.645268122884e-03
4.332465809534e-03
4.772714813264e-03
3.224253829144e-03
4.911353602778e-03
3.039446067918e-03
3.515433690721e-03
2.274449684327e-03
2.423089078890e-03
4.439297428605e-03
3.365892711140e-03
1.732320824868e-03
8.737837506730e-04
4.468449371054e-03
1.692563081125e-03
5.400363428095e-03
4.604462714681e-03
4.720726376404e-03
5.614884535387e-03
2.906736885668e-03
1.519615723243e-03
9.588952552172e-04
4.497763875840e-03
4.168753252709e-03
6.612546370245e-04
2.334923660638e-03
1.349036943465e-03
4.164466221195e-03
2.463752493733e-03
4.155025201166e-03
2.292333716336e-03
4.974481416777e-03
1.996568548932e-03
4.538601579327e-03
1.422865093935e-03
4.366068561900e-03
3.354002373652e-03
4.590163414602e-03
2.268610930300e-03
1.307910686375e-03
3.881907493683e-03
4.205574957263e-03
2.920421497113e-03
4.187784013099e-03
1.586935699350e-03
4.244922793799e-03
1.226338966711e-03
5.150001748039e-03
4.374413810112e-03
4.622543358684e-03
5.394833408084e-03
3.667741289077e-03
1.224125341458e-03
4.102435654437e-03
5.282422523208e-03
2.057763750215e-03
4.628995763582e-03
4.635584555752e-03
1.589158083945e-03
4.234441115403e-03
3.821646127754e-03
1.821001696294e-03
2.204998645608e-03
3.531838972984e-03
4.458682283978e-03
2.705458114869e-03
3.369397376082e-03
4.409627360570e-03
3.999189459908e-03
3.940589006345e-03
3.315097548747e-03
5.049644574621e-03
3.970188919273e-03
3.865457449800e-03
5.335960465199e-03
4.786774600188e-03
4.326858616178e-03
4.742369029763e-03
2.549037087326e-03
2.376936366428e-03
1.302651264701e-03
4.273366818875e-03
2.508792953611e-03
4.299375558000e-03
4.132696996014e-03
3.389416804487e-03
2.034302780513e-03
2.172486861284e-03
2.165955219120e-03
2.337607654919e-03
1.391516248166e-03
4.919034255652e-03
2.855049591196e-03
4.941701353565e-03
3.027877065094e-03
4.063567962409e-03
3.458337729904e-03
3.331673446639e-03
1.430769057123e-03
5.141025598269e-03
5.386317345378e-03
4.241134245443e-03
2.509978051558e-03
3.760813505748e-03
4.270720268813e-03
2.680282115890e-03
2.797254708148e-03
2.037210772217e-03
1.757966815576e-03
2.721514213298e-03
1.824017326780e-03
1.691969220267e-03
3.496848774705e-03
4.195328690588e-03
4.995266969494e-03
2.135838877743e-04
2.937051639141e-03
2.897351463058e-03
2.682523461315e-03
4.103488450026e-03
3.156230924954e-03
2.130711016344e-03
2.894759596741e-03
4.775391991284e-03
2.173955602432e-03
7.788298120352e-04
1.098630592693e-03
1.847249263452e-03
2.207153680070e-03
3.068504768790e-03
3.066805177260e-03
1.285438509384e-03
1.138227833186e-03
3.930039062681e-03
1.865163626252e-03
4.708651258612e-03
4.829683528524e-03
3.996321467093e-03
4.986241804288e-03
5.148048922335e-03
3.260814721479e-03
4.534131096749e-03
1.457572490377e-03
3.023482251318e-03
2.967208668201e-03
1.645155887212e-03
1.166961927378e-03
2.469642956954e-03
2.937206611966e-03
3.106798960592e-03
1.956772177711e-03
3.328078992345e-03
2.976908204584e-03
3.106378807451e-03
2.248119148986e-03
4.413942525391e-03
4.439751776256e-03
2.976392922480e-03
5.010927287276e-03
1.627877766205e-03
5.381669347488e-03
3.196867194148e-03
5.344914307263e-03
4.057033022443e-03
1.547485956853e-03
4.123901821043e-03
5.087178339347e-03
3.367611906554e-03
2.440942977478e-03
4.251329185006e-03
3.207452396219e-03
1.238538391459e-03
5.593643574323e-03
1.085824202323e-03
5.357726211726e-03
5.214885560155e-03
4.544742657186e-03
3.963126868919e-03
4.882709138368e-03
3.144855381723e-03
3.686700440280e-03
5.279854728997e-03
4.499470890681e-03
4.577778607108e-03
4.305077680676e-03
1.417434976899e-03
4.713217591497e-03
5.753142823153e-03
5.329243380659e-03
2.984954618286e-03
3.988249552619e-03
3.801645055376e-03
3.235172335353e-03
4.367027888534e-03
4.537516687745e-03
9.970547420201e-04
1.879690939538e-03
3.146058965649e-03
3.016269873665e-03
3.169182906176e-03
5.469468509572e-03
5.150681403781e-03
5.240179499594e-03
2.868576175316e-03
4.786586511308e-03
4.405806436379e-03
5.327777423767e-03
4.543377517499e-03
3.194953866718e-03
3.016658390278e-03
4.683655011930e-03
5.186209915555e-03
4.713484120124e-03
4.548206090170e-03
4.976866936040e-03
5.217579174467e-03
4.840160058744e-03
3.891876227783e-03
2.750258353967e-03
4.710107048531e-03
4.455858956637e-03
1.652249011372e-03
3.184856128294e-03
3.569010409292e-03
3.985083673359e-03
1.671830613806e-03
3.055529241679e-03
4.284410717116e-03
3.160882025297e-03
3.286974656951e-03
4.234469480443e-03
3.357266040902e-03
5.832224582000e-04
3.799395819488e-03
4.636565872287e-03
5.317751045333e-03
3.481406310990e-03
3.589447844127e-03
4.274698478407e-03
8.890581030904e-04
4.506465777264e-03
3.816858646074e-03
3.354799917759e-03
4.576186082816e-03
1.676633756965e-03
4.747043128416e-03
5.187298868340e-03
4.376407166304e-03
4.744547438801e-03
4.830907234008e-03
5.222428902797e-03
1.201860364893e-03
4.408544086062e-03
5.240903661220e-03
4.852152895878e-03
4.077198400922e-03
3.222276421180e-03
3.512191017662e-03
9.501978410135e-04
5.017421712005e-03
1.785962296740e-03
1.474080171039e-03
4.696567737555e-03
5.360782323002e-03
1.502195583133e-03
3.694570648950e-03
4.514270677664e-03
3.456703744762e-03
1.710610669055e-03
2.238950842234e-03
1.102844825228e-03
1.463725195595e-03
1.298709706981e-03
3.778806340878e-03
6.016319104850e-03
1.770958764898e-03
5.108227611126e-03
2.760707398476e-03
4.377813891094e-03
1.251866579467e-03
5.389992930062e-03
1.329712956055e-03
2.093643212440e-03
4.546924323321e-03
3.272001809033e-03
5.085454575005e-03
2.505652950449e-03
4.652855770583e-03
5.305274251484e-03
4.381154287587e-03
5.353154153797e-03
4.847010383273e-03
4.984300817298e-03
1.461091507052e-03
4.931565832531e-03
4.651005362573e-03
3.390008201393e-03
2.079335679828e-03
5.500831082514e-03
1.712811546916e-03
1.993152190864e-03
4.885708378640e-03
1.216541976104e-03
3.495171392387e-03
4.675591106622e-03
5.272532937545e-03
5.420840566733e-03
4.583883740699e-03
5.018032232522e-03
2.928193951873e-03
4.734205484299e-03
2.384407325898e-03
5.226115629599e-03
2.691920380854e-03
2.821439891355e-03
3.352681362175e-03
3.005156168196e-03
3.913667205993e-03
3.168162756046e-03
3.350908701417e-03
1.499540076307e-03
3.184302201097e-03
5.155825657334e-03
5.317650690563e-03
4.630365567379e-03
5.181610671434e-03
3.234889799458e-03
4.952004252636e-03
3.313357221721e-03
5.062045811440e-03
4.816274352400e-03
4.818099421099e-03
4.206405183177e-03
3.056304276052e-03
5.021296019776e-03
4.023314824600e-03
1.538746154334e-03
1.749640413363e-03
2.581840747201e-03
3.659895849796e-03
5.198547264467e-03
4.682421595145e-03
3.094059173860e-03
4.145541869622e-03
4.812672239436e-03
5.049278077315e-03
5.190177469339e-03
4.186777916003e-03
4.922584909275e-03
3.519092201106e-03
4.841945469779e-03
3.459285380478e-03
5.318103245047e-03
5.375730321285e-03
3.907284938938e-03
1.543762532817e-03
4.924088818987e-03
3.784631978290e-03
2.966232018542e-03
4.115084444643e-03
4.786551662216e-03
1.580177343230e-03
3.609609721518e-03
4.218839080460e-03
5.235324707913e-03
4.343885302361e-03
4.794481932196e-03
4.091858975395e-03
3.838629298260e-03
4.150165290363e-03
5.016907512540e-03
4.843633938430e-03
4.487236376390e-03
5.391551705940e-03
3.964776956212e-03
2.504722224904e-03
5.126866157334e-03
5.351865102208e-03
3.421523486689e-03
3.585506366848e-03
2.798993443276e-03
4.621665338398e-03
2.797993190934e-03
4.008922037687e-03
2.829376981743e-03
4.717608549950e-03
5.388550033297e-03
2.927070685157e-03
9.888206599125e-04
5.353078015974e-03
2.956776001860e-03
3.401650254318e-03
5.219422455657e-03
4.518245132016e-03
4.710258760873e-03
3.004500417496e-03
7.783076031666e-04
5.413634110948e-03
3.785549847173e-03
4.475770357229e-03
5.138569278830e-03
4.994909691429e-04
4.670933741567e-03
2.116054709690e-03
4.214096454066e-03
3.759983120660e-03
2.888083435173e-03
5.100516085727e-03
3.877479781614e-03
2.594149316670e-03
3.983879265493e-03
8.165376085930e-04
4.568690469440e-03
4.756083401336e-03
5.452995028681e-03
4.864947734128e-03
2.043386112127e-03
4.669335817464e-03
5.443502610785e-03
5.653283028556e-03
4.924221690428e-03
3.131071400812e-03
4.275149951314e-03
5.153531541623e-03
3.483038301481e-03
4.661124208018e-03
4.348587759454e-03
4.969873350217e-03
4.879399467596e-03
3.061812406022e-03
3.059832632554e-03
4.421565437881e-03
4.367095910945e-03
3.892926071110e-03
4.346817112173e-03
3.712232804534e-03
5.218395199065e-03
3.094455246611e-03
6.015990180958e-03
3.548926640244e-03
3.622651461457e-03
3.720989189851e-03
1.917689178557e-03
3.325283759535e-03
4.075520205487e-03
3.823291195348e-03
4.324099751295e-03
4.442674123027e-03
4.635684442584e-03
9.413748427402e-04
3.116803001466e-03
2.990095831993e-03
4.183071766205e-03
4.385629020003e-03
5.129593891230e-03
1.345885066556e-03
1.412365657132e-03
3.622797484364e-03
3.154436867303e-03
2.871305297426e-03
3.029007655749e-03
4.352626062824e-03
1.378394098464e-03
3.551958554456e-03
4.673475020981e-03
1.371021261255e-03
5.626560674904e-03
5.140839489265e-03
3.418542020247e-03
4.761469995819e-03
5.340586268803e-04
4.506684223349e-03
3.820960628806e-03
5.232531716935e-04
5.112554520633e-03
1.291496177795e-03
4.218615333140e-03
3.856857888662e-03
3.312116629244e-03
3.970751915483e-03
5.253907736522e-03
4.273307236225e-03
3.748874096129e-03
3.658427402968e-03
4.072848571605e-04
1.086582957134e-03
4.988340503471e-03
4.027251590836e-03
5.093944963423e-03
2.082136659873e-03
4.849015704641e-03
5.165290452317e-03
3.099958031898e-03
4.951145023831e-03
4.800202598035e-03
4.202189340322e-03
3.419837614494e-03
3.627723820665e-03
5.408792691943e-03
3.669252203194e-03
3.949521165470e-03
3.687500356751e-03
4.577290825851e-03
3.457616430748e-03
2.136542330794e-03
3.737765005846e-03
2.300519927022e-03
4.313534934977e-03
2.336835197399e-03
4.185013498204e-03
5.058632123647e-03
4.845402042790e-03
3.258903797757e-03
4.157867652743e-03
4.893039108893e-03
4.931637404463e-03
1.098595117713e-03
4.276866742040e-03
5.348494697504e-03
2.274754905370e-03
3.720777205156e-03
5.805350037142e-04
5.023459904507e-03
2.007146323956e-03
3.516536072154e-03
4.448684330717e-03
4.188265097600e-03
3.987994876210e-03
3.912543751932e-03
2.560060998670e-03
2.716022476841e-03
5.063727723485e-03
4.170414237267e-03
3.608810319198e-03
4.473149988466e-03
3.442042596625e-03
2.210516303654e-03
2.509306508328e-03
3.743956289805e-03
3.211982025181e-03
4.884087041847e-03
3.294332851053e-03
5.470028085312e-03
4.968312631613e-03
3.648648400585e-03
5.541933827682e-03
2.466546029825e-03
5.345527466215e-03
3.948482313971e-03
4.328605554235e-03
5.112321421619e-03
2.597683647667e-03
4.115029269880e-03
3.480150837066e-03
4.019186076767e-03
2.272393606486e-03
4.466658165346e-03
3.272828574776e-03
3.852140252587e-03
3.985530946530e-03
5.486019707335e-04
3.987424940170e-03
8.554820142325e-04
9.504026979452e-04
3.679756779392e-03
4.895621551102e-03
4.114719913355e-03
2.260582699587e-03
5.890341927598e-03
2.361196323927e-04
2.408933314321e-03
3.696570178526e-03
3.550836608979e-03
2.949897068498e-03
2.521788525811e-03
3.865826064652e-03
4.111851899735e-03
4.291338337805e-03
5.060421643315e-03
1.172731196860e-03
3.380194152908e-03
3.645284340248e-03
1.945070109137e-03
3.263324571413e-03
4.151874911649e-03
4.514501832048e-03
6.678202814272e-04
4.351335771455e-04
1.356777941614e-03
3.683303970356e-03
2.761138937455e-03
2.431180347952e-03
2.170243072617e-03
3.811952085602e-03
4.376533666742e-03
3.777763179950e-03
2.723670872440e-03
4.310662224790e-03
3.611591761329e-03
4.750283438547e-03
3.815774579287e-03
3.851468414051e-03
1.944050795949e-03
2.890987107893e-03
3.905608017060e-03
4.252910968047e-03
3.994175970999e-03
2.110867462038e-03
3.944631663858e-03
2.390664015242e-03
1.124080825948e-03
5.376953591042e-03
1.187499430943e-03
2.482769913719e-03
3.879865431681e-03
2.200126612380e-03
3.952345974418e-03
1.811928905985e-03
3.356343314340e-03
3.983365723056e-03
3.440832380153e-03
3.590886272854e-03
5.778240294564e-04
5.177570466669e-03
2.852018100216e-03
5.139923105349e-03
4.369987342579e-03
4.075819768185e-03
4.112944593259e-03
2.558534294897e-03
8.044732495801e-04
4.846447285547e-04
4.204879470093e-03
5.110788681143e-03
2.351481271792e-03
4.405521083047e-03
2.090274329685e-03
4.476809174747e-03
5.754213561495e-03
1.628784469014e-04
5.886643384746e-03
5.901414175980e-03
3.458575707159e-03
2.812867409509e-03
4.241011420016e-03
2.631198119222e-03
8.395301720450e-04
4.442063176975e-04
5.416028733597e-03
4.290643224771e-03
3.238039868260e-03
6.016407931761e-03
1.526058316679e-03
6.021404174662e-03
4.252293004767e-03
2.770700704573e-03
4.037975120995e-03
2.603169544957e-03
1.275543801189e-03
2.434051418874e-03
4.504021302162e-03
5.149429450184e-03
2.644039120232e-03
4.570681309338e-03
0.0
2.683791218028e-03
4.759413754436e-03
2.380487600569e-03
2.182231533104e-03
4.074582213105e-03
1.142827734401e-03
1.613360141681e-03
1.808060117334e-03
2.084692713343e-03
3.738888209100e-03
3.552566181395e-03
4.601487464017e-03
5.387303345294e-03
1.895037985309e-03
4.547788030597e-03
5.406404464741e-03
2.430574595185e-03
8.388200309560e-04
2.308570276636e-03
3.567446514914e-03
4.605708546548e-03
3.532472732913e-03
9.838862332244e-04
4.035330324993e-03
1.450893591273e-03
3.586284318698e-03
3.831672797715e-03
4.170149154859e-03
4.132286282917e-03
2.127223100425e-03
9.534914560384e-04
4.136513997941e-03
1.590009906794e-03
3.818359164413e-04
5.392622240487e-03
5.134895118372e-03
2.358553379799e-04
4.335577273877e-03
1.652975194542e-03
1.733439247888e-03
4.869520458032e-03
4.202282593856e-03
4.701518647351e-03
2.723483443401e-03
3.214868672807e-03
5.618894135867e-03
1.429456025818e-03
4.994104156300e-03
3.749384831161e-03
1.080098481844e-03
4.468944246879e-03
2.850501028317e-03
5.229780796343e-04
2.395768144624e-03
4.403868178899e-03
4.552935884602e-03
1.122570998337e-03
3.592706244326e-03
4.742720139637e-03
4.941703297220e-03
2.257577943858e-03
1.773224354185e-03
3.849204691396e-03
4.071024716265e-03
5.196053913262e-04
5.764981452673e-03
5.619546678147e-03
3.612944456398e-03
5.643094491975e-03
5.633179208426e-03
2.812315344072e-03
2.684208433063e-03
5.774953852408e-03
0.0
1.642459376677e-03
3.615456688328e-03
2.303853360214e-03
2.356132906425e-03
1.288375400597e-03
1.523495052580e-03
3.689273836909e-03
2.596505031526e-03
1.903570888892e-03
4.768488117706e-03
6.016953446853e-03
6.019036760985e-03
2.772486331110e-03
3.327990862488e-03
3.338379874678e-04
1.033148740315e-03
1.155791037094e-03
1.182207438934e-03
4.038315348238e-03
2.314844929729e-03
2.560267431529e-03
6.984958962330e-04
5.129856721972e-03
2.519676737210e-03
5.369560606069e-03
4.921920194395e-03
6.028148600870e-03
6.024927523322e-03
3.694826416134e-03
2.643467046654e-03
1.596779775992e-03
2.730315514544e-03
5.897744789275e-03
7.273837460651e-04
8.727452914998e-04
5.171338012505e-03
3.477662201300e-03
5.409990092851e-03
4.766370635139e-03
5.205506796535e-03
4.984047288898e-03
3.660646591583e-03
2.009740382611e-03
1.966632147612e-03
4.354966851432e-03
5.090565716970e-03
3.059094088471e-03
3.470038770667e-03
3.693952598066e-03
3.772778857696e-03
9.470076460962e-04
1.787152598033e-03
5.767752696873e-03
4.034960654971e-03
5.756079931259e-03
5.497145112359e-03
4.509775173530e-03
5.432774287522e-03
2.645253503307e-03
2.511337306943e-03
5.406759837386e-03
2.304638287390e-04
1.771966949554e-03
5.883028560639e-03
8.247074295860e-04
3.324809475671e-03
5.529445601793e-03
5.796810560745e-04
3.735041338850e-04
6.010222977965e-03
3.068950323843e-03
5.659948107382e-03
5.391425944959e-03
3.060672020253e-03
3.701494320501e-04
5.629476601577e-03
9.427571928058e-04
5.445974576444e-03
5.891393706380e-03
5.428284510192e-03
1.205305933195e-03
3.730388698424e-03
2.799861645862e-03
4.776394335281e-03
6.019211625132e-03
4.734875419906e-03
6.017874104347e-03
5.525430350758e-04
5.764155817737e-03
1.379826528368e-03
7.818426790371e-04
5.771398210854e-03
5.772672408195e-03
5.750122728571e-03
3.364853212441e-03
3.669284283972e-03
1.289535518306e-03
5.767367083341e-03
2.258902969131e-03
7.533765705703e-04
4.926344783199e-03
3.188420317882e-03
5.482259513434e-03
5.953772275136e-03
5.893932355244e-03
1.556562156404e-04
7.519299109284e-05
3.129847729158e-03
3.204854259840e-03
5.889443725007e-03
5.949944079456e-03
3.717729449495e-04
0.0
5.412787547920e-03
5.428215329942e-03
1.134510679474e-03
5.501228040530e-03
3.826590884489e-03
3.385765392231e-03
4.259215926484e-03
1.033495775153e-03
4.492845514927e-03
9.286955643621e-04
3.016528213224e-03
5.456768976603e-03
5.324962882905e-03
3.256994374191e-03
3.913984556786e-03
5.533514411026e-03
5.100824001865e-03
4.804745634301e-03
3.058531543379e-03
4.339009031687e-03
5.424931143324e-03
1.698845153725e-03
4.086781350245e-04
5.273729960381e-03
4.969714239598e-03
7.789488230218e-04
4.461302677928e-03
5.625097067298e-03
5.215165969830e-03
5.527785936845e-03
4.184635835076e-03
2.450732908034e-04
1.273338932172e-03
1.607268086116e-03
3.578185125380e-03
4.310413086534e-03
5.506795170732e-03
5.617673364480e-03
6.645911850499e-04
6.388748237895e-04
1.019502716968e-03
4.467708076661e-03
2.159520161712e-03
5.529519713859e-03
1.082739524012e-03
5.378468444182e-03
3.624426704377e-03
5.642484205688e-03
4.966747949266e-03
3.587861483021e-03
5.771512121934e-03
5.779451194585e-03
5.760792399076e-03
7.089390944599e-04
5.397932790268e-03
5.622343722044e-03
5.472950722519e-03
5.052268972403e-03
5.880549672383e-03
4.768122438881e-03
0.0
9.845756963830e-04
5.283361989644e-03
3.879740068610e-03
5.433335536349e-03
5.248543119057e-03
5.652713428879e-03
4.807093912347e-03
5.652238210163e-03
5.501769948461e-03
5.478616351915e-03
2.254971077609e-03
6.018212737185e-03
3.451522871175e-03
5.433186761320e-03
5.068656971481e-04
5.235659828438e-03
4.498616084438e-03
6.477069853908e-04
1.135724772343e-03
4.905082491478e-03
5.637492893173e-03
5.504426529729e-03
5.673913725339e-03
3.852881204388e-03
3.799041860717e-04
5.935897059171e-04
4.188938165996e-04
8.250409444333e-04
1.478748655910e-04
2.994768496768e-03
5.427348189453e-03
5.458882754827e-03
3.883455718842e-03
2.608660953034e-03
5.476751558409e-03
5.429576111220e-03
5.784117117048e-03
5.420830804507e-03
5.193598780718e-03
5.135394386583e-04
5.681154926280e-04
5.488737210923e-03
5.166391021770e-04
7.619709822300e-04
4.832364846616e-04
5.799786674798e-04
5.645675802182e-03
5.655037542831e-03
5.514781828190e-03
5.671443408193e-03
5.255264111174e-03
4.033418773149e-03
5.899144122698e-03
1.388436502105e-03
3.180255969687e-03
8.723897877040e-04
2.133422569490e-04
6.015531814482e-03
3.502525969212e-03
8.808568387309e-04
2.855369314806e-03
5.783822611068e-03
5.499347830224e-03
5.655534667043e-03
2.044016280955e-03
5.432286145459e-04
5.780287558168e-03
6.015607847563e-03
6.035949087319e-03
3.352497016114e-03
5.397561630392e-03
7.778562056283e-04
5.539597143375e-03
2.048357633213e-04
5.660676748682e-03
5.761438663708e-03
2.169999861615e-04
5.276842850465e-03
4.633513032721e-03
5.657467102238e-03
5.913925366103e-03
4.247858577438e-03
5.671720231098e-03
5.525428271373e-03
4.362177274661e-03
5.479739394229e-03
2.387201356291e-03
3.053723610195e-03
5.526446984933e-03
5.736294853841e-03
0.0
3.063983621229e-03
5.747940021174e-03
1.061697143843e-03
5.531390322422e-03
5.495470709881e-03
5.762937850711e-03
1.031440225739e-03
8.053626735849e-04
3.509970528096e-03
5.010988788466e-03
1.260771232346e-04
5.677193264911e-03
4.090526400836e-03
1.039673297651e-03
3.888574816327e-03
5.772338171833e-03
3.681185629208e-03
3.038880930972e-04
2.159618659612e-03
3.184608949978e-03
3.800834338169e-03
5.524986598456e-03
3.091083311451e-03
3.266927546245e-03
5.190819916672e-04
5.520367014093e-03
5.284258696945e-03
8.877738012257e-04
5.674860832192e-03
5.710960226183e-03
3.423111596940e-03
4.198163726001e-03
3.122389092001e-03
3.191264477013e-03
3.380114392671e-03
5.252725700940e-03
7.633269386085e-04
5.525012493520e-03
3.559702453178e-03
5.772557366742e-03
5.241338347213e-03
3.993508198578e-03
5.321259532480e-03
5.468684898978e-03
5.796731642521e-03
2.386710946756e-04
5.348756869278e-03
5.540450075665e-03
5.978130445139e-04
2.916813067191e-03
3.606876982128e-04
5.579480516134e-03
1.644828616560e-03
1.545981159414e-03
1.713069814165e-03
1.549054825424e-03
1.715773419310e-03
1.548987889924e-03
1.715851555195e-03
1.549284187277e-03
1.716336015095e-03
1.549831225943e-03
1.716979131492e-03
1.550462280830e-03
1.717548348098e-03
1.550748049988e-03
1.717702537870e-03
1.550767686370e-03
1.717681668252e-03
1.725803895536e-03
1.550761344641e-03
1.717583419006e-03
1.537714373053e-03
1.550852574204e-03
1.717508033845e-03
1.550787156715e-03
1.717211703352e-03
1.550270291517e-03
1.580962922022e-03
1.716371127971e-03
1.549692184463e-03
1.716550609062e-03
1.550574202923e-03
1.716818436997e-03
1.551114104077e-03
1.719308097921e-03
1.553274409557e-03
1.716626027886e-03
1.550768170919e-03
1.626829546040e-03
1.554713128758e-03
1.723777182374e-03
1.538464917325e-03
1.708370553989e-03
1.734059786548e-03
1.441855297972e-03
1.718205167646e-03
1.580532811126e-03
1.653228733294e-03
1.570518538296e-03
1.533736984822e-03
1.929041500633e-03
2.023740013829e-03
1.854265828309e-03
2.016530832047e-03
1.849333680069e-03
2.016057688508e-03
1.849195180988e-03
2.016381773036e-03
1.849523099890e-03
2.016986771475e-03
1.850201123651e-03
2.017903593159e-03
1.851073613590e-03
2.018100274694e-03
1.851198313231e-03
2.017765292166e-03
2.038346331878e-03
1.850748802689e-03
2.017763268230e-03
1.885943985980e-03
1.851152239863e-03
2.018100772715e-03
1.841102677324e-03
1.851647953070e-03
2.018159675524e-03
1.851486642937e-03
2.017416700478e-03
1.850595558474e-03
2.014905500803e-03
1.941018760619e-03
1.849191983526e-03
2.018440167145e-03
1.852222603884e-03
2.015647441730e-03
2.027681622993e-03
1.852157743951e-03
2.006230484387e-03
1.857841458147e-03
2.036787414556e-03
1.836927752623e-03
1.752304649195e-03
1.929925313480e-03
2.063297522828e-03
1.919603130811e-03
2.001189499676e-03
1.831777990773e-03
2.258393672976e-03
2.159705713490e-03
2.327059706199e-03
2.161659692035e-03
2.328518888195e-03
2.162672994817e-03
2.329425293706e-03
2.162300175437e-03
2.329523762820e-03
2.162994370433e-03
2.330352635693e-03
2.163819996874e-03
2.331651210941e-03
2.165193397044e-03
2.332104205239e-03
2.349563023748e-03
2.163170879264e-03
2.156618435812e-03
2.330120032603e-03
2.163760401776e-03
2.331149868869e-03
2.165613130817e-03
2.332544467419e-03
2.165577836067e-03
2.195603305539e-03
2.332198422978e-03
2.165170022173e-03
2.331421633703e-03
2.163880370449e-03
2.325581563359e-03
2.161800956061e-03
2.335429634205e-03
2.170950976162e-03
2.156347734429e-03
2.326285427350e-03
2.254719671384e-03
2.352490791724e-03
2.061139530170e-03
2.319973192991e-03
2.181921643346e-03
2.266267734125e-03
2.183268200846e-03
2.140663700466e-03
2.549158764665e-03
2.636150175904e-03
2.465044416633e-03
2.626215054828e-03
2.459129987657e-03
2.629398577210e-03
2.462515755855e-03
2.626876011636e-03
2.459194547671e-03
2.628998715299e-03
2.462069348223e-03
2.628826924734e-03
2.461615336322e-03
2.655480925391e-03
2.633841262142e-03
2.465021985990e-03
2.504855940460e-03
2.626954113001e-03
2.460627946581e-03
2.459281500191e-03
2.628877804265e-03
2.463978196257e-03
2.633359730070e-03
2.466114496976e-03
2.631825731881e-03
2.557842814581e-03
2.464193016864e-03
2.631244525693e-03
2.634203394462e-03
2.465367309286e-03
2.611601312478e-03
2.466838180282e-03
2.656093472301e-03
2.452256167998e-03
2.368738549867e-03
2.524902431016e-03
2.677255740190e-03
2.532401558562e-03
2.611856570448e-03
2.448380073333e-03
2.895347462543e-03
2.762954093961e-03
2.933492103758e-03
2.773940618943e-03
2.938129622360e-03
2.779861874844e-03
2.947517109028e-03
2.770436758339e-03
2.936171750745e-03
2.775705167697e-03
2.944993665868e-03
2.776162261490e-03
2.967674935110e-03
2.940979762038e-03
2.788576165275e-03
2.769633692862e-03
2.947728243539e-03
2.778133822446e-03
2.938167467260e-03
2.780092728751e-03
2.946956698666e-03
2.779489675693e-03
2.817224370005e-03
2.950134646900e-03
2.777240784832e-03
2.942772889533e-03
2.773283112852e-03
2.775691965232e-03
2.943314050847e-03
2.958430064026e-03
2.871806310958e-03
2.678495565508e-03
2.898963514100e-03
2.818430404747e-03
2.887802313650e-03
2.791363294968e-03
2.764226645725e-03

SCALARS element_materi_plasti_phimob float
LOOKUP_TABLE default
1.964882437386e+00
2.348969340392e+00
1.931686285956e+01
1.895885412207e+01
1.308818790154e+01
-6.527731111105e+00
1.317022343121e+01
6.957239446294e+00
1.318383667124e+01
1.892260422535e+01
2.108518974968e+01
-1.060159408413e+00
2.084265482130e+01
1.416210563030e+01
2.069234172233e+01
1.916408836706e+01
1.264505570499e+01
-6.618503257657e+00
1.000489560878e+01
1.092141200017e+01
1.890368408339e+01
-3.999678152030e+00
2.875004343930e+00
2.122859481895e+01
1.517121931013e+01
2.118785015326e+01
1.077481525751e+01
2.037815833806e+01
1.514313782897e+01
2.125715556342e+01
2.393879078233e+00
-2.095174368615e+01
1.924606548391e+01
2.111917289599e+01
2.095165739165e+01
2.081558010946e+01
2.072342555613e+01
2.103017673345e+01
1.139779086139e+01
1.151501504732e+01
5.197725141876e+00
2.078293572133e+01
2.718313944834e+00
1.071169201813e+01
1.869736573725e+01
3.150988891375e+00
-4.472593283177e+00
1.877223400749e+01
-2.200087860875e+01
1.350336346675e+01
3.995827185049e+00
1.332325880455e+01
1.115593600660e+01
9.707234639816e-01
1.918756645300e+01
1.692062388191e+01
1.418497920951e+01
2.117416637683e+01
4.304777120200e+00
1.914916606732e+01
-2.793259865504e+01
2.066349850419e+01
1.318365283472e+01
9.146664246548e+00
2.084462259110e+01
-2.129058360789e+00
-2.997055853851e+01
1.926347769282e+01
5.366235924418e+00
1.974023522739e+01
2.121519256429e+01
1.956506740281e+01
2.004673159065e+01
-1.477145042686e+01
1.754624045850e+01
1.895767915116e+01
1.912736795918e+01
-1.375467851262e+00
4.804726190400e+00
2.815269429901e-01
5.824083350332e+00
1.258546903217e+01
2.648243305089e+00
-6.606373518626e+00
1.392733102562e+01
1.396657667324e+01
2.120741942828e+01
2.118639055504e+01
1.784918875638e+01
1.296678103322e+01
-2.136343071793e+01
1.250447220367e+01
1.742136146121e+01
1.725104982087e+01
1.940972612324e+01
2.076113941214e+01
1.246673019944e+01
2.117137309619e+01
1.531049808903e+01
1.200698442578e+01
1.223911404968e+01
2.075705995970e+01
2.065104090509e+01
2.056842267336e+01
1.581550726405e+01
-5.841438471395e+00
2.097028416897e+01
1.786902080609e+01
-2.279366064364e+01
2.063701050041e+01
1.758342115960e+01
-2.603644951994e+01
1.874266231270e+01
1.060371418424e+01
1.927915050196e+01
1.103030452364e+01
1.441858544157e+01
2.086326802977e+01
1.491076785594e+01
1.465490032640e+01
4.413559419088e+00
1.248689499558e+01
1.793546802944e+01
1.525420932798e+01
-1.038566209644e+01
8.205636681279e+00
1.902223444727e+01
5.886621901197e+00
1.919064136044e+01
-2.380111862003e+00
2.118786168013e+01
1.897792596068e+01
1.182646968974e+01
6.808195101704e+00
2.108709314260e+01
2.082320907594e+01
2.125402848463e+01
1.258431653740e+01
2.119999913599e+01
9.681754003506e+00
1.908324484813e+01
1.960856759236e+01
1.406684108973e+01
1.643823879375e+01
1.039531832796e+01
3.805588529161e+00
1.364150280436e+01
1.732844007461e+01
1.259488561741e+01
1.906812618442e+01
-2.228271772477e+01
1.392501225909e+01
5.889569778037e+00
9.521625483722e+00
2.080394569074e+01
1.574294250407e+01
2.122457020400e+01
4.227513773808e+00
2.066031613895e+01
1.285029142425e+01
1.946184434644e+01
2.110712105028e+01
4.535524218808e+00
2.098862532039e+01
1.261802204918e+01
2.097578810829e+01
1.277854287420e+01
1.731692072713e+01
9.154389694476e+00
2.119613514231e+01
3.861033905772e+00
1.945827392379e+01
1.687417825333e+01
1.272162986983e+01
1.817383160529e+01
7.644728276228e+00
1.876036540997e+01
1.972126615403e+01
2.037312721821e+01
1.967299222340e+01
9.911330042594e+00
1.984178570025e+01
2.139516509065e+01
7.955711660804e+00
7.166761657505e+00
1.161316609269e+01
1.809863042737e+01
1.909978112333e+01
1.743736269178e+01
2.105383545290e+01
1.573547638565e+00
1.961925357626e+01
1.784115437581e+01
-3.635416760067e+01
7.164426368796e+00
2.162677691726e+01
-4.269458038903e+00
1.908393485167e+01
1.616340183367e+01
2.060871924541e+01
2.183588043520e+01
1.372582349141e+01
1.471272790724e+01
2.105353466492e+01
1.778535085287e+01
1.491359587332e+01
1.359017767537e+01
1.657340357912e+01
1.340271560250e+01
1.165287475600e+01
2.092825033396e+01
1.840680066935e+01
-2.685677893812e+01
7.326285084543e+00
9.643998718254e+00
1.403816450191e+01
1.772723077719e+01
6.384809084426e+00
2.172798362809e+01
1.255245144272e+01
1.987766654981e+01
2.179272108680e+01
-1.720945989009e+01
1.699501510230e+01
-2.340217486471e+01
-3.326769984245e+00
1.743322364960e+00
1.576559496738e+01
1.732947621549e+01
1.433893082363e+01
1.174641035757e+01
1.020518452883e+01
7.675388651341e+00
2.168338936690e+01
1.271479837419e+01
2.090195129594e+01
-4.162303843945e+01
1.557792316060e+01
2.030993041294e+01
5.857548405757e+00
2.194407216629e+01
2.094096437852e+01
1.701546953626e+01
1.805294311270e+01
2.151020168093e+01
2.122794117728e+01
1.417439594695e+01
1.658642070227e+01
2.037697050950e+01
2.022671047547e+01
1.222035014513e+01
1.473009842204e+01
1.942607799749e+01
1.522623485401e+01
2.117348224147e+01
1.416641279485e+01
2.321307678266e+00
1.332784421206e+01
1.880044431736e+01
1.308197022271e+01
5.092137517340e+00
1.737411621447e+01
1.423865891252e+01
1.669410425634e+01
1.768057169480e+01
1.743070202576e+01
1.439816085364e+01
2.068686489320e+01
2.154191611150e+01
1.468729675699e+01
1.852816613142e+01
2.122108280022e+01
1.691637450968e+01
1.243477256825e+01
2.079165411651e+01
1.879063093758e+01
1.702614558488e+01
-2.970764154693e+01
1.402893407151e+01
1.976596107823e+01
1.480834468222e+01
1.575398354623e+01
1.534993824672e+01
-5.863328832794e+00
9.131540718507e+00
2.153454749816e+01
1.413875886489e+01
1.382729650480e+01
1.471408378711e+00
1.965737063761e+01
1.766541670938e+01
8.323889696432e+00
1.657609132793e+01
1.046261882777e+01
2.114261932028e+01
2.061030826121e+01
4.814713763747e+00
1.910786748101e+01
4.096722689224e+00
1.949354770385e+01
1.958551751880e+01
1.595436288503e+01
1.812757160162e+01
1.348733191575e+01
1.539033675382e+01
1.562151767982e+01
1.854209065545e+01
1.384069298518e+01
1.905368711414e+01
1.998878647412e+01
2.088358830458e+01
9.745751217143e+00
2.097724869603e+01
1.667068117158e+01
1.499259056802e+01
1.012613963523e+01
2.211932133694e+01
2.091568931844e+01
1.920592761468e+01
1.374537731054e+01
1.982436529041e+01
2.066858040755e+01
2.149488073273e+01
8.301971260218e+00
1.591282247198e+01
2.201048785933e+01
1.315275483895e+01
1.546595774323e+01
2.024120845704e+01
2.181596890562e+01
1.970854163681e+01
1.529481399984e+01
1.760425553792e+01
8.428672559668e+00
1.207144876499e+01
1.452088725597e+01
1.503367862832e+01
1.549559388116e+01
2.050660263457e+01
1.469755839413e+01
1.254872462022e+01
2.032150028144e+01
1.267794039669e+01
1.075766464213e+01
1.588481963934e+01
1.280131267513e+01
1.838649063487e+01
1.948828170946e+01
1.737618224115e+01
1.557682583542e+01
1.304341661744e+01
2.175781473067e+01
2.201794007842e+01
2.077725897223e+01
8.928235687922e+00
1.900917379050e+01
1.994250041865e+01
9.916034210501e+00
1.320149227860e+01
1.809383095200e+01
1.537726525036e+01
7.263379459767e+00
1.106292769868e+01
2.100447409833e+01
2.106486404534e+01
1.810103962407e+01
1.696309149094e+01
2.169601348389e+01
1.339882117560e+01
1.713612670905e+01
1.904237001772e+01
1.527084017392e+01
2.190479442771e+01
2.059584517891e+01
1.805040717384e+01
1.804464008172e+01
1.638348019129e+01
1.414050815749e+01
1.558316833297e+01
1.961911447422e+01
1.954842208376e+01
1.906290453040e+01
2.182485052597e+01
1.772792655246e+01
1.281589909485e+01
2.017123199241e+01
1.170386600252e+01
1.020849218873e+01
1.243337304346e+01
1.534811714529e+01
2.122946432263e+01
1.822272130201e+01
1.467683579779e+01
1.567559403430e+01
1.512094391357e+01
-5.634962734044e+00
1.978284910605e+01
1.702957985781e+01
1.946626168481e+01
-6.154080959349e+00
1.414443719738e+01
1.060634194539e+01
1.744850105585e+01
2.057616989675e+01
2.121841851392e+01
1.251702826243e+01
4.602869362862e+00
1.492508880218e+01
1.992319408799e+01
1.540690630280e+01
1.998621955569e+01
1.185333151620e+01
1.555304486526e+01
2.090303326733e+01
1.771333241779e+01
2.206713406487e+01
2.004464788349e+01
2.004782162506e+01
1.975259167303e+01
1.986724112071e+01
1.599108102601e+01
1.767358373995e+01
1.846804092884e+01
1.447949474817e+01
1.183718566481e+01
2.018706127393e+01
1.801605100127e+01
2.038329914407e+01
1.802888541507e+01
2.123397578139e+01
1.798874203943e+01
1.890573383813e+01
1.709503219035e+01
9.261233867321e+00
1.292229992407e+01
1.913926065666e+01
1.570455915676e+01
1.977871500744e+01
2.047844599559e+01
1.710857575777e+01
2.084313802928e+01
1.767081985263e+01
2.013736479212e+01
1.923173434298e+01
1.604111931115e+01
-2.287088870042e+01
2.029571495159e+01
2.082214533572e+01
1.793294830379e+01
2.146933369223e+01
2.089270841718e+01
-5.383413305381e+01
1.645641471704e+01
1.617778375788e+01
1.596685998316e+01
1.515812246016e+01
1.461543776728e+01
2.043974405497e+01
2.082905924769e+01
2.880359399709e-01
2.102081503995e+01
-2.240090727777e+01
1.030415313705e+01
4.291823695092e+00
1.054101002186e+01
2.099196008602e+01
2.054352999387e+01
1.493132660416e+01
-5.263184273383e+00
-4.843736748349e+00
2.480310921175e+00
2.139561223734e+01
1.247440747739e+01
1.328088782829e+01
2.060283488665e+01
1.255432523342e+01
1.949605733467e+01
1.935435319918e+01
1.487930609886e+01
1.284196359913e+01
2.150281672793e+01
8.769619248451e+00
2.061891412990e+01
1.995118846738e+01
1.981371226382e+01
2.178335874365e+01
1.971139209867e+01
1.780465282810e+01
2.197900866435e+01
2.060747712777e+01
1.669154926405e+01
2.013830233944e+01
2.049570414227e+01
1.550837992026e+01
2.096629936333e+01
-6.324814232098e+00
2.058450899168e+01
1.966349972470e+01
2.022681201658e+01
1.844887936543e+01
-4.975910945062e+01
1.794380783048e+01
1.801590009765e+01
2.037778247315e+01
1.606005133914e+01
1.993296494616e+01
6.814678211813e+00
2.104570646074e+01
2.000674302498e+01
1.980118871610e+01
-2.197597200009e+01
2.049576694217e+01
1.397761982802e+01
2.157049991210e+01
1.424793645358e+01
1.732505316595e+01
1.937905427034e+01
1.578659501814e+01
2.061897824950e+01
2.018745980259e+01
2.181328100280e+01
1.698788136355e+01
2.197218627541e+01
2.012455056235e+01
2.185730099789e+01
1.629740224744e+01
1.816152673533e+01
2.144224835278e+01
1.765138020408e+01
2.082652881122e+01
1.727228747952e+01
1.998247514595e+01
1.954609091405e+01
2.179871850952e+01
2.098828273638e+01
1.828054391861e+01
1.653777247490e+01
2.059479400655e+01
2.119982569452e+01
1.998527703152e+01
-2.225141191786e+01
2.094309144248e+01
1.828703626892e+01
1.856615348482e+01
2.056378570100e+01
2.179181871567e+01
1.173618016130e+01
1.398701618950e+01
2.147620900830e+01
2.168392247023e+01
2.193447240073e+01
1.613364466188e+01
1.210599915356e+01
2.119275441712e+01
1.516094264805e+01
2.046582623337e+01
2.169033228276e+01
1.936151531298e+01
2.152629323048e+01
-4.580380142104e+01
1.747052848656e+01
1.893170994695e+01
2.096540203927e+01
1.937670643209e+01
2.203408675535e+01
1.501474684854e+01
1.785132786988e+01
2.055315227348e+01
1.633421014874e+01
2.100505047887e+01
1.623732845269e+01
2.070903590798e+01
-5.102036034737e+01
1.461470221038e+01
1.945840522934e+01
-5.861623633428e+01
2.068909646040e+01
2.192916398851e+01
1.811602268670e+01
2.196307571467e+01
2.220237433872e+01
1.164645821983e+01
1.068160584770e+01
1.915470271252e+01
1.619344784035e+01
-6.307714986681e+01
7.462216070326e+00
-2.252435686011e+01
1.671414308086e+01
1.877583650695e+01
1.809520627693e+01
2.155757656629e+01
1.791537539421e+01
2.136807359671e+01
2.159141408103e+01
8.661894163649e+00
1.936550529970e+01
1.779877152592e+01
2.094385044483e+01
2.054209595427e+01
2.005195990803e+01
2.077555580232e+01
2.195535912287e+01
2.148860977371e+01
9.992175909922e+00
2.169502379012e+01
-4.030766130135e+00
2.037802752392e+01
2.100459557275e+01
-2.073976179304e+01
1.967414677812e+01
1.833619659265e+01
-6.148745237009e+01
1.061851815592e+01
1.072494864279e+01
2.183984513240e+01
1.775311613936e+01
1.907044558883e+01
1.063093394679e+01
2.123213670173e+01
2.009374894933e+01
1.764779308926e+01
1.333442196097e+01
-1.302983000672e+00
1.142746879107e+01
1.090789172276e+01
1.097747023730e+01
-5.795605159628e+01
-2.118945480229e+01
-3.322994090002e+00
1.511847359104e+01
-2.028323004173e+01
2.039944131489e+01
-4.352413682004e+01
1.726514197515e+01
1.604527603931e+01
1.078190865995e+01
1.886541978647e+01
2.192250704350e+01
1.515938893829e+01
1.838183880526e+01
-3.838863138521e+00
1.950294764080e+01
1.939769593829e+01
1.428233426215e+01
1.082441794266e+01
1.843036628508e+01
1.939114659470e+01
1.618053957571e+01
1.072277820645e+01
1.069933795059e+01
9.442296063146e+00
1.970892332202e+01
1.936750269085e+01
-2.079174718962e+01
-5.764824324279e+01
3.552315118351e+00
2.127279647319e+01
2.091962921692e+01
-3.455859974054e+01
1.767558330068e+01
-4.563807656053e+01
2.211596108816e+01
-4.172992289222e+01
-3.806470899101e+01
2.217968032142e+01
2.102660847296e+01
1.596494563915e+01
1.288154112415e+01
-2.056067206329e+01
2.133366828592e+01
1.944562490961e+01
1.939072991847e+01
1.083566368957e+01
2.200412595616e+01
1.949045210864e+01
2.003468250238e+01
-4.359678676134e+00
-2.041158651093e+01
-2.095388394718e+01
1.931526658444e+01
2.076642552987e+01
1.897270142702e+01
-5.763593391218e+01
2.030693033026e+01
2.049765198842e+01
2.081710918331e+01
2.092011593414e+01
1.701980311467e+01
1.797507580642e+01
2.048401396953e+01
2.049266048773e+01
1.767397082808e+01
8.999999999681e+01
1.094589079731e+01
1.093045599760e+01
-5.773001000531e+01
2.050717909584e+01
2.093866117556e+01
2.050590698299e+01
-6.105728438341e+01
-6.070013542868e+01
2.052841081402e+01
2.051943558813e+01
1.665072446437e+01
1.099330291053e+01
1.735452408989e+01
1.465766056606e+01
1.100927552047e+01
-6.187561954725e+01
-5.960676877058e+01
-5.753688608267e+01
-5.381021843747e+01
2.057421988834e+01
2.002042623665e+01
-5.751883621891e+01
2.118512683248e+01
-5.581395198601e+01
1.960524676237e+01
1.947076715386e+01
1.951831886692e+01
7.958015908444e+00
1.700787054144e+01
1.945490660718e+01
2.110734451924e+01
1.947997456814e+01
2.099207800347e+01
2.083094763852e+01
1.968621193230e+01
1.938109344304e+01
1.940013990283e+01
2.103009590115e+01
2.090403243402e+01
2.125134708908e+01
-4.822281190330e+01
2.002708800163e+01
-2.129835545488e+01
2.115998121890e+01
2.060121673347e+01
2.124854045176e+01
1.365545143196e+01
-4.864051059079e+00
2.109190883234e+01
2.045613347657e+01
1.900950022244e+01
2.120526082391e+01
1.846260337760e+01
1.888214492469e+01
2.170889350219e+01
2.170685505022e+01
2.131921372528e+01
2.126899486469e+01
2.115616327492e+01
1.085632136644e+01
1.888560623516e+01
2.145788236427e+01
2.114169838872e+01
2.122323919935e+01
1.483226066063e+01
1.840759045437e+01
1.786931826596e+01
1.354584231258e+01
2.152386693064e+01
2.138854538178e+01
1.847320045517e+01
1.817937319289e+01
2.156391478398e+01
2.099777699279e+01
1.768530455073e+01
2.117273915421e+01
2.104228978110e+01
1.841130798625e+01
1.677691951722e+01
2.172934371498e+01
1.414580723438e+01
1.359755384901e+01
-1.460311810018e+00
-2.209138358914e+01
1.816621207449e+01
2.106760667407e+01
-2.240610704964e+01
1.832080406031e+01
1.414800523275e+01
2.127142756773e+01
2.119527439834e+01
1.945185948146e+01
2.117399914186e+01
1.350735439424e+01
2.141582610259e+01
2.094406893863e+01
1.363854017883e+01
2.111790427847e+01
1.720188603033e+01
1.519047576850e+01
1.598255351549e+01
2.091730533967e+01
1.582020345764e+01
1.909630746403e+01
1.758269218167e+01
1.641310050262e+01
2.103898532375e+01
2.123606798261e+01
2.122766661933e+01
1.722636057866e+01
1.120831531146e+01
2.077383060532e+01
2.095109106141e+01
1.748753264389e+01
2.031717656988e+01
2.150952036183e+01
2.120583906851e+01
1.679217303326e+01
-4.845253401288e+00
-1.873326970584e+00
1.387969872480e+01
2.116971764815e+01
1.633913205238e+01
2.102922357531e+01
1.474566229851e+01
2.146613739789e+01
2.107146789284e+01
2.126379880576e+01
1.398198193984e+01
2.113337172981e+01
2.086748372458e+01
1.507840052553e+01
2.062857312682e+01
1.940035904971e+01
1.693536037203e+01
2.110951023250e+01
-5.705241871978e+01
-5.615599539560e+01
2.129790734334e+01
1.272032042923e+01
2.139197107096e+01
2.145200788240e+01
2.033393046843e+01
1.721184882909e+01
1.800289367876e+01
-3.863674805782e+00
1.970143489731e+01
2.134582532982e+01
1.056947707327e+01
1.536710819442e+01
1.414640420135e+01
9.711396021276e+00
2.133195773601e+01
1.696675050128e+01
1.291731211154e+01
1.823037414767e+01
1.827092231333e+01
1.437387406013e+01
1.302019218876e+01
1.481096849648e+01
2.126810175915e+01
2.110043540294e+01
1.833314614103e+01
1.803561246823e+01
2.133114980823e+01
2.143259352314e+01
1.188329658161e+01
2.134316579122e+01
1.700495009052e+01
2.099815609959e+01
1.631122929119e+01
1.737792595797e+01
2.149984976359e+01
1.778313333635e+01
2.052413885778e+01
2.095154540645e+01
1.877562587252e+01
1.950748092541e+01
1.668578329350e+01
2.147658513952e+01
1.576567693684e+01
3.374224610244e+00
1.665046445685e+01
1.605283088138e+01
2.112565949284e+01
1.711704591461e+01
2.134745396148e+01
2.084357746268e+01
2.014788079399e+01
1.460194271309e+01
6.657044049916e+00
2.142913035196e+01
1.595730633998e+01
-2.171139465683e+00
1.878326164554e+01
1.220277887615e+01
1.578392395088e+01
1.908660600545e+01
2.161608188793e+01
1.864187648227e+01
1.785167228028e+01
1.785128958334e+01
2.153678590808e+01
1.308158104539e+01
2.150845202331e+01
2.076507973367e+01
2.145435659167e+01
2.082855851134e+01
1.240413844194e+01
1.487710207995e+01
2.191822890882e+01
1.545792840996e+01
1.592614339110e+01
1.500107782290e+01
1.606217222073e+01
1.070342820875e+01
2.128618888224e+01
2.184486303723e+01
2.118035101198e+01
1.855989176805e+01
2.165452737511e+01
1.136556382220e+01
2.165808760068e+01
2.129270398815e+01
1.843768024808e+01
2.134949725764e+01
1.708971914278e+01
1.630436015923e+01
2.158505023338e+01
1.452277030553e+01
1.624912248310e+01
1.839228192377e+01
1.758507335148e+01
2.156329195577e+01
1.240844429376e+01
1.823558967645e+01
1.655681000840e+01
1.539051406892e+01
1.506284201347e+01
2.086346429818e+01
2.144373692866e+01
2.172543614079e+01
1.472779686362e+01
1.867481629583e+01
2.092797056537e+01
2.167145822416e+01
1.741213478456e+01
1.976533189498e+01
1.913044140106e+01
1.170016628217e+01
2.171320547752e+01
1.943894951912e+01
1.616039611654e+01
1.561787448321e+01
2.164113718169e+01
1.830373487685e+01
2.043981513520e+01
1.873654079581e+01
1.950039528743e+01
1.340599249655e+01
2.155481772929e+01
2.119278968369e+01
1.775345239600e+01
2.156980477214e+01
2.188079591900e+01
2.178494767050e+01
1.973353442414e+01
1.315778542445e+01
2.143907563462e+01
2.126697777046e+01
1.803266840791e+01
2.016230733576e+01
2.188036862684e+01
1.619936225240e+01
1.999068918245e+01
1.729310211107e+01
1.757926813013e+01
1.655012808812e+01
2.031439468720e+01
1.682452650756e+01
1.539254299739e+01
2.147120856556e+01
2.177776017144e+01
1.900620516532e+01
-5.711432887230e+01
2.183928152456e+01
2.154727187569e+01
2.072981070488e+01
1.565800624215e+01
2.156782942120e+01
1.834326115241e+01
2.078040363815e+01
1.751732539536e+01
1.815696544194e+01
2.371307103499e+00
9.360737361544e+00
1.791689813525e+01
1.919656386539e+01
2.186334242119e+01
2.116414608985e+01
1.138566241472e+01
9.378010997035e+00
1.481567666559e+01
1.657379464000e+01
2.176898291792e+01
1.895211240242e+01
1.521226042791e+01
1.786313204936e+01
1.907898094251e+01
2.139497548037e+01
1.852427193490e+01
1.369369215040e+01
2.087031147691e+01
2.051975443264e+01
1.712253643399e+01
9.233710869901e+00
1.976101652489e+01
2.110236607428e+01
2.143871262366e+01
1.748089474797e+01
2.183107303011e+01
2.138420668800e+01
2.207091841892e+01
1.876893239672e+01
2.170095249500e+01
1.651629892676e+01
2.201866499923e+01
2.156737050737e+01
1.557239467961e+01
2.137595566546e+01
2.185500720576e+01
1.920762928859e+01
1.648067184128e+01
1.556852772032e+01
1.579383772921e+01
1.806325568093e+01
2.205857183948e+01
1.849603172945e+01
1.635518880750e+01
1.627025631397e+01
1.183423052916e+01
1.894699407230e+01
8.970264145368e+00
2.110366587338e+01
1.835184185807e+01
2.172786498138e+01
1.521601240172e+01
1.754880719827e+01
2.165675943118e+01
2.168939342681e+01
1.842547400930e+01
2.169389457926e+01
1.684395134279e+01
2.207982953095e+01
1.435167297041e+01
1.714971796224e+01
2.008351178483e+01
2.132872812292e+01
2.123452364721e+01
1.517830784284e+01
1.456168097937e+01
2.146809665982e+01
2.181040461383e+01
2.180540589573e+01
6.514981913573e+00
1.916346024737e+01
2.212762157941e+01
2.158714758244e+01
1.837735032787e+01
1.866888731729e+01
1.836893457932e+01
1.832024243152e+01
1.240845529808e+01
1.741743562510e+01
2.162697467233e+01
1.850622457675e+01
1.671589384012e+01
2.120652677421e+01
2.201039745456e+01
1.720103817074e+01
1.815771565047e+01
1.730640910862e+01
1.689043130561e+01
2.151130621261e+01
2.101148487114e+01
2.163884541514e+01
2.179561391065e+01
8.211184643956e+00
2.158348891831e+01
1.661282143024e+01
1.560742904442e+01
2.176628837043e+01
2.223299904152e+01
2.167639019457e+01
1.771275007507e+01
2.164784449491e+01
2.161916203937e+01
1.253297486535e+01
2.155277236430e+01
1.585564259941e+01
1.229572835496e+01
-3.385098926639e+00
2.161296867489e+01
2.185333401579e+01
1.860518377124e+01
2.200227294925e+01
2.172909978738e+01
1.601849734892e+01
-2.327526392067e+00
2.185751517839e+01
2.182798376736e+01
1.328701302013e+01
2.163497284805e+01
1.622024217111e+01
2.160873827804e+01
2.148231204011e+01
2.180871563635e+01
1.726648432474e+01
1.977527631836e+01
2.134681390115e+01
-5.631291322482e+00
1.637615247038e+01
2.070449438337e+01
1.759339185450e+01
2.190548822434e+01
2.170231820316e+01
2.126501422967e+01
5.856473582737e+00
1.794785006368e+01
1.642168104462e+01
-1.105255578133e+01
1.925519319500e+01
1.857985272944e+01
1.438712950216e+01
1.699666319548e+01
1.676895808737e+01
2.125133484809e+01
1.667037932481e+01
1.880551294116e+01
9.751830737671e+00
1.517278350358e+01
1.291775763260e+01
2.197451836583e+01
1.944122762327e+01
-2.085957228440e+01
2.137027539027e+01
2.153925480803e+01
1.625009967245e+01
1.264684576929e+01
2.124815686610e+01
1.212010219094e+01
1.800129506373e+01
2.160227963550e+01
2.168833645270e+01
2.089472056376e+01
1.656574513270e+01
1.698343273763e+01
2.115567129023e+01
1.642890899709e+01
1.859058696633e+01
1.744257210658e+01
1.773215897905e+01
1.526284995578e+01
2.142575299614e+01
1.709850153919e+01
2.116483474358e+01
-8.086714182075e+00
2.089119369582e+01
1.813641821291e+01
1.722417342320e+01
2.115288551517e+01
1.070739741102e+01
1.918323251728e+01
2.168653544154e+01
1.832141077624e+01
1.859064182347e+01
2.153230424510e+01
1.781791158328e+01
2.139131666582e+01
1.862933717391e+01
8.959615184089e-01
1.877780988081e+01
6.117828828710e+00
7.876792014318e+00
2.180083981266e+01
9.483372880820e+00
2.008265713274e+01
2.021482745693e+01
2.183630995736e+01
1.594522762421e+01
2.196475863212e+01
1.819994015157e+01
1.871251170598e+01
2.157413841437e+01
2.108870654957e+01
2.207814820294e+01
1.777931668335e+01
2.211723119981e+01
2.128928900638e+01
1.749434401609e+01
1.736903783186e+01
2.198373550611e+01
2.173027508951e+01
1.902914828688e+01
1.636853215809e+01
1.501022053006e+01
1.707905465100e+01
1.740445136827e+01
1.678041709977e+01
2.116963862133e+01
1.704947255898e+01
2.149579861797e+01
1.761501532416e+01
2.170681595792e+01
1.791015160355e+01
1.910148318009e+01
1.579894115792e+01
2.171228089803e+01
2.180719363765e+01
2.158510601604e+01
1.874842373808e+01
1.839380684981e+01
1.919885399535e+01
2.207674421200e+01
1.661652574016e+01
2.016783290073e+01
1.943739897022e+01
2.120115000992e+01
2.178659221921e+01
2.165247409094e+01
1.549585052728e+01
2.212735372306e+01
1.632264578939e+01
2.111188136328e+01
1.685128493302e+01
1.969702504343e+01
1.577300339831e+01
1.462611288942e+01
1.700113342001e+01
2.128452857436e+01
2.143205589048e+01
1.667522549742e+01
1.862236332491e+01
1.520374009075e+01
2.066237473924e+01
2.001277809324e+01
1.846756808266e+01
2.015278741091e+01
1.961515197344e+01
2.119610096582e+01
1.702847858330e+01
1.361820964863e+01
2.042116523727e+01
1.455781126778e+01
2.137724440866e+01
2.018143154565e+01
2.146374655678e+01
4.664370398478e+00
1.861129047630e+01
1.355499648282e+01
2.219975802524e+01
2.034528680126e+01
1.662675508105e+01
2.153557878440e+01
2.057961834858e+01
3.885217410405e-01
2.107514126396e+01
1.761453543422e+01
2.092951338035e+01
1.943046076633e+01
-1.197629272276e+01
2.168299028003e+01
1.855758377766e+01
1.574109392177e+01
2.142998957120e+01
2.182004361032e+01
2.121486767252e+01
1.983274643917e+01
2.151241184359e+01
1.760314237363e+01
7.140541664598e-02
1.861598446395e+01
2.133540425857e+01
1.927942762106e+01
1.905052032665e+01
1.905704760388e+01
2.144288960782e+01
1.871037225591e+01
2.076167625872e+01
2.111985483978e+01
2.104764755749e+01
1.813777762793e+01
2.113266267976e+01
2.086495911595e+01
1.911667609448e+01
1.630140160287e+01
2.132237317676e+01
2.150484367196e+01
1.104937733899e+01
1.105598488653e+01
1.668059951041e+01
1.866250447160e+01
2.140058698498e+01
1.723758980122e+01
2.029228894033e+01
2.143765613513e+01
2.108141824399e+01
1.944675614030e+01
1.327963506131e+01
1.992165229093e+01
2.166567881731e+01
1.824689488445e+01
2.123475700564e+01
1.816888190129e+01
1.680637274727e+01
1.621650076696e+01
1.768397276034e+01
1.787076644405e+01
4.563826895544e+00
2.125946629125e+01
1.399926667190e+01
1.659539161727e+01
1.690376879877e+01
2.133399818289e+01
1.258803590191e+01
1.344804019645e+01
1.814429741977e+01
2.094301056481e+01
8.114247907797e+00
9.550446203259e+00
1.616986934257e+01
1.157122447210e+01
2.149151791949e+01
2.170460194298e+01
1.457544655974e+01
2.025325971567e+01
1.806739288358e+01
2.104177848379e+01
2.145121181708e+01
-3.378519269907e+00
2.180364254809e+01
1.807494648864e+01
-3.658912529564e+00
1.811433337155e+01
1.142682813590e+01
1.667192033377e+01
1.697327732028e+01
2.183346864307e+01
2.212860552459e+01
1.836955952213e+01
2.204375247800e+01
1.907997900418e+01
1.861610285322e+01
-6.152280526552e+00
9.374590494243e+00
1.958670282785e+01
1.516876563270e+01
2.002782953717e+01
1.902275601579e+01
1.775014167756e+01
1.946087802932e+01
1.049396366568e+01
1.952161792329e+01
2.134732830779e+01
1.898950999477e+01
2.152704578544e+01
2.145407151177e+01
1.858448743053e+01
2.213863166270e+01
1.746079900614e+01
2.120711447819e+01
2.189019598479e+01
2.037493454834e+01
2.043650535948e+01
2.219088781119e+01
2.092986576458e+01
1.716234654247e+01
2.027526996795e+01
1.710960717853e+01
2.123536271805e+01
2.149145637506e+01
2.065753135492e+01
1.572161036342e+01
2.132956016919e+01
2.125501340455e+01
5.225005390723e+00
1.757051377222e+01
2.104799192314e+01
5.248634183669e+00
2.125916632128e+01
-9.957112327372e+00
2.121564321565e+01
1.990228146059e+01
2.093736884823e+01
2.092819610611e+01
1.567978305975e+01
1.516427220742e+01
1.858796785576e+01
4.352539371793e+00
6.400495187662e+00
2.117539270799e+01
2.188452459702e+01
2.194827806067e+01
2.198570512984e+01
2.220233005829e+01
1.975348726123e+01
3.671993240754e+00
1.399984702503e+01
1.106771429162e+01
2.142270191929e+01
2.076139304301e+01
2.101476692528e+01
2.112230749306e+01
2.191100521094e+01
2.090929860254e+01
2.066953049315e+01
2.095721123118e+01
1.895407630053e+01
1.966768160339e+01
2.145190573926e+01
2.014303756989e+01
1.749740664286e+01
2.191513134434e+01
1.701861447973e+01
1.867965026316e+01
2.023168265276e+01
2.218382831520e+01
2.159718413132e+01
1.687827082471e+01
-1.722568046242e+01
2.122426056168e+01
-4.699425040345e+00
6.195075096254e+00
2.144826249691e+01
1.868898125860e+01
1.567271045356e+01
-7.803650936427e-01
1.965464260276e+01
-1.244940947746e+01
1.892976825540e+00
2.222299782767e+01
2.108172920951e+01
9.859819348191e+00
2.129323496647e+01
2.190946078073e+01
1.851097858317e+01
2.122406188404e+01
1.858176380837e+01
1.049073265384e+01
2.127241042887e+01
2.125728378799e+01
1.734178416530e+01
1.157848355216e+01
1.566937490835e+01
2.117826193569e+01
-4.203032341641e+00
-2.253688255529e+01
1.225365237313e+01
2.111616250576e+01
2.128543052679e+01
2.046836277123e+01
1.966578323828e+01
2.140770045352e+01
1.666311744960e+01
2.124767059779e+01
2.175865035369e+01
1.766648345606e+01
1.357711827045e+01
2.093192437746e+01
2.114231840700e+01
2.125685009310e+01
-6.885798353060e+00
2.147102944557e+01
2.122831411039e+01
1.623016034283e+01
1.533061291151e+01
-3.958029144191e+00
2.136613038983e+01
2.011667413059e+01
5.504888233549e+00
2.084252875755e+01
1.103877727753e+01
2.092079102050e+01
2.090974500637e+01
-3.276787014176e+00
2.116158658464e+01
1.622955088230e+01
1.228114751732e+01
2.125327118148e+01
2.186096480295e+01
2.125855633418e+01
-1.418500824974e+01
1.824336032764e+01
2.129599331811e+01
2.155435798989e+01
1.986434503722e+01
2.132301771773e+01
2.124249004333e+01
2.152327494056e+01
1.287638076434e+00
-1.326960606522e+01
2.127244786825e+01
2.163288510086e+01
1.968909990734e+01
1.807647486369e+01
4.719163973683e+00
1.775677051829e+01
2.117817872182e+01
-2.885402063700e+01
1.946333090748e+01
2.049110162208e+01
1.319342878635e+01
2.101603235821e+01
1.926128810371e+01
2.102140568407e+01
2.480854027566e+00
-1.606572496024e+01
1.862306194734e+01
1.618919430640e+01
1.091863621469e+01
2.058003738654e+01
1.411761272025e+01
2.075571825607e+01
1.618122054623e+01
2.067446341209e+01
1.938354599213e+01
2.104695056663e+01
7.535117555810e+00
2.045656189056e+01
1.713030022477e+01
2.105229695932e+01
2.142245424335e+01
1.815553700759e+01
-3.883283921103e+01
2.168455262212e+01
1.735278010035e+01
1.996485753442e+01
1.888025475989e+01
1.966061238328e+01
1.099435281233e+01
-7.501872102786e+00
-7.420201399497e+00
1.885947114366e+01
2.194674182353e+01
2.075255463949e+01
1.821485692255e+01
1.901490645128e+01
-1.593370875643e+01
1.701857320543e+01
1.949352467618e+01
2.127970593508e+01
-2.336694103203e+00
7.066720172762e+00
2.185394565579e+01
1.782989925239e+01
2.218209374490e+01
1.338699791853e+00
2.193462842089e+01
8.996415526996e+00
2.086110384266e+01
2.219284378280e+01
2.003487332292e+01
1.593558704645e+01
1.836049043380e+01
2.231773133250e+00
2.212944335367e+01
9.139483203990e+00
-2.296344364947e+01
1.870967211365e+01
1.823322488265e+01
-2.302863733898e+01
2.185858628509e+01
1.530399825083e+01
1.655876563661e+01
1.865854208161e+01
2.020300924962e+01
1.857732799877e+01
2.115862929806e+01
1.097255108094e+01
2.078501608809e+01
1.398584409399e+01
2.141929443849e+01
2.048631637334e+01
9.742520659190e+00
1.735091242576e+01
2.191975817132e+01
-5.215492206702e+00
2.110137648322e+01
2.121545016232e+01
1.716104076747e+01
8.491947093016e+00
2.083104522466e+01
1.826615993444e+01
2.068621004663e+01
1.973683359855e+01
1.635479986195e+01
2.082889944188e+01
1.571904174966e+01
-5.746509121943e+00
1.993856955593e+01
1.932373399557e+01
1.408352391452e+01
1.891056846696e+01
1.946139687934e+01
2.178764229871e+01
2.088939867939e+01
2.118738387300e+01
-3.976435248831e+01
1.524197723742e+01
2.103000929907e+01
1.922236839312e+01
2.074374685927e+01
-4.319742444058e+00
2.492093429720e+00
1.381387711566e+01
2.095903905680e+01
1.714961735374e+01
2.039953509669e+01
2.081395730152e+01
2.088476779818e+01
2.150389647805e+01
1.241962288404e+01
-3.102465418660e+01
-1.757605472585e+00
8.139534822120e+00
-1.573450862096e+00
2.056130051823e+01
2.026828229812e+01
2.071486673147e+01
-6.733891611244e+00
1.835506582877e+01
2.036434866785e+01
1.863276069009e+01
1.785439044760e+01
1.938967881254e+01
2.075447733657e+01
1.413561251946e+01
2.053635950057e+01
-2.908653233177e+01
2.113499532018e+01
2.050628857925e+01
-5.920580142139e+00
-3.846595136555e+00
2.130266312887e+01
1.263045574390e+01
1.869530672120e+01
1.830134028491e+01
2.079395019043e+01
1.822442453526e+01
1.431508827865e+01
1.790785475529e+01
1.845106220036e+01
1.659813939886e+01
2.046430686074e+01
1.064142980606e+01
1.276075023670e+01
1.400707157362e+01
1.438293285155e+01
5.114779967441e+00
1.723675540056e+01
1.906916403360e+01
1.548087799067e+01
2.091497790093e+01
1.897839037712e+01
1.740484446513e+01
1.861031661683e+01
1.984675154184e+01
1.933009962694e+01
2.113026269640e+01
-2.428719810430e+01
1.561380215502e+01
2.058359990384e+01
4.455109338758e+00
1.276704237614e+01
2.140309849610e+01
-7.263078973056e+00
-2.344621479502e+01
1.940319650960e+01
1.085359205551e+01
1.897410654447e+01
2.107611218542e+01
1.084437866370e+01
-2.881251494711e+01
1.911131711237e+01
6.217842444305e+00
1.877158367358e+01
2.049898959716e+01
1.887612368365e+01
1.202467201975e+01
1.380628942425e+01
1.989316615547e+01
2.037136484939e+01
2.086226876603e+01
1.740175691720e+01
2.098843226209e+01
-6.927631398704e+00
2.085826864371e+01
1.382440722758e+01
4.507065770524e+00
2.115938619648e+01
1.908713369776e+01
1.916587166611e+01
1.259256705324e+01
1.393335957025e+01
6.562492288901e+00
1.940874839104e+01
1.849656934702e+01
-3.960287937629e+00
2.072106869405e+01
1.090424948157e+01
1.884778563566e+01
1.936540966895e+01
1.946924905751e+01
8.999999999681e+01
-5.343871181905e+01
1.127423277735e+01
1.101826324667e+01
2.049424922933e+01
2.070243621886e+01
-2.463919937809e+01
-4.047349796872e+01
2.089477544541e+01
2.025627648448e+01
8.833812993825e+00
2.091541430711e+01
2.106443134458e+01
2.077906248155e+01
1.601959859934e+01
7.391225723757e+00
2.029529510620e+01
4.213341260090e+00
2.032629101673e+01
1.920284763317e+01
1.851235288768e+01
2.063093160091e+01
1.496143383602e+01
1.977418560270e+01
1.855903176980e+01
1.802620702893e+01
1.094257981726e+01
2.061942418553e+01
1.885576273239e+01
1.600244314484e+01
-2.242943132969e+01
1.935191163291e+01
2.153264650047e+01
3.306732966690e+00
1.663624426993e+01
2.069099104415e+01
1.988256058226e+01
1.999034797446e+01
2.116482815434e+01
-2.542438418826e+01
-7.693269342407e+00
9.396043458484e+00
1.372739541303e+01
2.054383774714e+01
1.880479943140e+01
2.087145579883e+01
-6.216368543153e+00
-6.660942960940e+00
-3.486122993092e+00
1.685791466512e+01
1.791739576561e+01
1.882037112747e+01
8.216373276064e+00
2.111706642946e+01
1.381879766928e+01
2.054067852459e+01
2.017597962588e+01
1.369195900467e+01
2.114687765924e+01
1.911116690842e+01
1.906823623752e+01
-2.387422575599e+00
1.865303884953e+01
1.995796079019e+01
2.125107833816e+01
2.052231907672e+01
2.050963651366e+01
1.801084756776e+01
-3.715970689584e+01
4.818292644763e-01
1.876076604595e+01
1.475155226746e+01
2.088419130280e+01
2.028941557023e+01
2.070291581962e+01
1.757154667568e+01
2.062199072619e+01
2.107423804184e+01
2.117756203599e+01
1.819769765920e+01
2.078881847257e+01
1.239614924265e+01
1.867052273288e+01
-5.836177213393e+00
1.828528000877e+01
1.668144512155e+01
-3.997807549478e+00
8.463093595607e+00
1.840321537264e+01
1.912061999141e+01
1.875900011649e+01
2.094068179119e+01
1.489333393564e+01
-2.274133838266e+01
-1.148962385899e+01
-1.751621067574e+01
1.222707944847e+00
-2.837005598487e+01
2.016006191117e+01
2.091411497035e+01
1.889275567735e+01
1.462813732685e+01
1.953854805290e+01
2.111190092312e+01
2.142864879430e+01
2.073917928324e+01
1.967340282980e+01
1.889120401209e+01
-6.118954258057e+00
-1.175317914724e+01
2.095599637106e+01
-3.846704519988e+00
6.733595811768e-01
-1.303390770752e+01
-7.571915354391e+00
2.080896155933e+01
1.965252308881e+01
1.883463684962e+01
2.054566202644e+01
2.134587069432e+01
1.551467223463e+01
1.956661957541e+01
1.301519436520e+01
1.075895315036e+01
1.512927962588e+00
-2.303569343233e+01
2.076467324771e+01
1.254339374564e+01
3.500957226419e+00
2.014509989390e+01
1.954058443311e+01
1.873915568754e+01
1.922873785612e+01
1.728383739104e+01
-1.122752604856e+01
2.099912594594e+01
1.938632741105e+01
2.077187194412e+01
1.250989693057e+01
2.105745428670e+01
4.398043337247e+00
1.886663629149e+01
-2.478678455866e+01
2.084251310486e+01
1.913313210763e+01
-2.668880535784e+01
1.991384456521e+01
1.722808776371e+01
1.914865296177e+01
2.063549203515e+01
1.622230721024e+01
1.958268053377e+01
1.882499572909e+01
1.672422202446e+01
1.930140272858e+01
1.887731443245e+01
1.094456915986e+01
2.055523395913e+01
1.915185900412e+01
-5.929221900688e+01
1.102679264980e+01
2.072253472320e+01
8.990100139769e+00
2.143163464140e+01
1.878106861376e+01
1.906304394170e+01
8.180094333858e+00
-4.743370847205e+00
2.096097419519e+01
1.796649287684e+01
-2.913223696505e+01
1.921139663225e+01
1.596004884237e+01
6.939481866269e+00
1.523765731969e+01
2.050594356586e+01
2.100232666249e+01
-2.505983933569e+01
1.851812081255e+01
2.063056241156e+01
2.100827209110e+01
2.073526425490e+01
2.053226609113e+01
2.067383059044e+01
-8.545099916519e+00
2.103453207384e+01
1.940584695806e+01
3.440671565227e+00
1.914122047628e+01
2.068473251775e+01
1.260383515692e+01
1.593848365105e+01
2.045165968167e+01
2.049685507792e+01
2.077090320068e+01
2.135197124771e+01
2.945545001002e+00
1.948293105313e+01
1.398386605410e+01
1.907775737201e+01
2.120153042331e+01
1.519958628285e+01
1.901721705613e+01
2.081728826138e+01
2.085925369524e+01
-2.316708827055e+01
1.899793807532e+01
1.928881854683e+01
-7.950913956910e+00
2.021198631356e+01
-2.616694415282e+01
1.919369762980e+01
-5.239343450549e+01
-5.060914796842e+01
-5.244307882820e+01
-5.107796102942e+01
-5.229535228641e+01
-5.143825935632e+01
-5.248391738221e+01
-5.174245759104e+01
-5.296644953690e+01
-5.206912147787e+01
-5.368525380244e+01
-5.245163101578e+01
-5.458354242425e+01
-5.286146275877e+01
-5.544883025280e+01
-5.324072418812e+01
-5.579202135952e+01
-4.250296683842e+01
-5.352471487329e+01
-5.591818687701e+01
-4.296069975920e+01
-5.366251943653e+01
-5.600349898597e+01
-5.367602584903e+01
-5.608341019428e+01
-5.360697749645e+01
8.999999999681e+01
-5.618456490649e+01
-5.344790181913e+01
-5.626245643678e+01
-5.330341772351e+01
-5.635008102870e+01
-5.309545481491e+01
-5.634703505914e+01
-5.304767812441e+01
-5.650233831854e+01
-5.277242676982e+01
-2.680203479746e+01
-5.303757828932e+01
-5.606742012045e+01
-5.231549478850e+01
-5.618019424757e+01
-5.309687747389e+01
-4.975105523928e+01
-4.756780957835e+01
-4.806920650383e+01
-4.296440654295e+01
-5.443908905245e+01
-3.215180600388e+01
-1.599148588638e+01
-1.795473762407e+01
-1.804430469066e+01
-1.815278046813e+01
-1.812836395122e+01
-1.812790811116e+01
-1.807444247075e+01
-1.808908763650e+01
-1.802053760073e+01
-1.805268585210e+01
-1.797252111114e+01
-1.801127568251e+01
-1.792496384658e+01
-1.798072644456e+01
-1.788236505633e+01
-1.795108424754e+01
-1.342887854829e+01
-1.783579321434e+01
-1.790329927082e+01
-2.156907010636e+01
-1.778156674963e+01
-1.784185564870e+01
-1.676142000706e+01
-1.772260004170e+01
-1.777874887296e+01
-1.766831081473e+01
-1.772338538901e+01
-1.763156843895e+01
-1.769317943230e+01
-1.259902416375e+01
-1.758477924135e+01
-1.754105256995e+01
-1.756054626036e+01
-1.750503944243e+01
-1.715417372326e+01
-1.751597808831e+01
-1.731302897390e+01
-1.757030711354e+01
-1.616427123118e+01
-1.746143679927e+01
-2.416495224668e+01
-1.807216808736e+01
-1.573872235183e+01
-2.362948506057e+01
-1.225176863524e+01
-1.779879040446e+01
-3.863027742952e+00
-3.021102142163e+00
-3.007920617574e+00
-2.991462062356e+00
-2.998895870972e+00
-2.977208601270e+00
-2.983643356018e+00
-2.968015946198e+00
-2.975389218158e+00
-2.958775439722e+00
-2.962728157130e+00
-2.949135030121e+00
-2.944662064780e+00
-2.948284776512e+00
-2.934960368581e+00
-1.567173489164e+00
-2.966269577227e+00
-3.109376815573e+00
-2.945979684667e+00
-2.971191724243e+00
-2.923692048128e+00
-2.975931864503e+00
-2.897226850323e+00
-2.998602657717e+00
-5.038939384400e+00
-2.885605030857e+00
-3.036472639597e+00
-2.874663491240e+00
-3.100963203903e+00
-2.899007895393e+00
-3.133762250734e+00
-2.772545355007e+00
-3.177781722239e+00
-3.177060175155e+00
-2.770311818474e+00
-1.667539467700e+00
-2.371741741778e+00
-6.653687754037e+00
-2.516317278588e+00
-3.815275578003e+00
-8.174395549022e-01
-6.057770628656e+00
-4.746017631187e+00
4.820807842297e+00
4.303086671291e+00
4.281976439084e+00
4.225658532059e+00
4.222855175492e+00
4.237134967431e+00
4.225799606766e+00
4.214321965961e+00
4.197313797494e+00
4.214591086863e+00
4.187962315716e+00
4.203982033106e+00
4.165285372703e+00
4.666612577601e+00
4.215887685454e+00
4.144526034131e+00
2.735796588068e+00
4.158519760415e+00
4.086206090746e+00
3.802865410395e+00
4.157450754151e+00
4.060652153896e+00
4.166199305137e+00
4.022143606794e+00
4.137442532245e+00
4.477422335394e+00
3.957571058244e+00
4.116100038546e+00
4.118579999497e+00
3.900661546147e+00
4.001609436696e+00
3.832357073915e+00
4.292250863835e+00
3.775612985636e+00
1.867145607239e+00
4.095530498035e+00
4.930863214058e+00
3.005450362736e+00
5.724579346207e+00
2.620766029917e+00
8.324364016201e+00
8.480695826438e+00
8.483766658364e+00
8.500841761319e+00
8.485006590567e+00
8.505872161278e+00
8.506396930250e+00
8.445513187939e+00
8.442293485482e+00
8.439098168413e+00
8.451927325860e+00
8.405104368020e+00
8.518984680091e+00
8.413875572014e+00
8.035545860894e+00
8.346007555878e+00
8.403745191896e+00
8.322555392499e+00
8.334668037912e+00
8.279749939050e+00
8.337297756551e+00
8.227204791570e+00
7.291729921278e+00
8.314341626275e+00
8.156519879054e+00
8.246703201840e+00
8.083813189488e+00
8.037323440557e+00
8.219550102687e+00
8.250280423741e+00
8.362482871325e+00
6.762030893076e+00
8.630416706510e+00
8.285970890630e+00
9.304125313794e+00
7.504436067204e+00
7.118719989941e+00


